
 stresses (elem, integ.pnt.,sxx,syy,szz,sxy,sxz,syz) for set ELALL and time  0.1000000E+01

         1   1  2.688522E+06  1.516200E+05  1.764218E+05  8.343512E+04  1.201260E+05  1.607762E+01
         1   2  2.670785E+06  1.377572E+04  8.414871E+04  3.274042E+04  7.606655E+04  3.995022E+00
         1   3  2.688716E+06 -4.137530E+03  5.045773E+04 -1.795268E+04  3.200626E+04 -9.217048E-01
         1   4  2.688515E+06  1.516069E+05  1.764199E+05 -4.777635E-09  1.201260E+05 -3.148970E-11
         1   5  2.670784E+06  1.377372E+04  8.414842E+04  8.502464E-10  7.606655E+04 -1.303745E-10
         1   6  2.688716E+06 -4.138133E+03  5.045764E+04 -5.452950E-09  3.200626E+04 -2.027828E-10
         1   7  2.688522E+06  1.516200E+05  1.764218E+05 -8.343512E+04  1.201260E+05 -1.607762E+01
         1   8  2.670785E+06  1.377572E+04  8.414871E+04 -3.274042E+04  7.606655E+04 -3.995022E+00
         1   9  2.688716E+06 -4.137530E+03  5.045773E+04  1.795268E+04  3.200626E+04  9.217048E-01
         1  10  2.688507E+06  1.516161E+05  1.763948E+05  8.343511E+04 -3.482627E-10  2.006629E-11
         1  11  2.670779E+06  1.377418E+04  8.413788E+04  3.274042E+04 -6.652509E-10 -1.123619E-11
         1  12  2.688715E+06 -4.137804E+03  5.045581E+04 -1.795268E+04 -4.712293E-10 -1.275088E-10
         1  13  2.688499E+06  1.516031E+05  1.763929E+05 -1.543052E-09  5.059288E-11  3.420817E-11
         1  14  2.670778E+06  1.377217E+04  8.413760E+04 -1.367088E-09 -5.578648E-10 -1.050711E-12
         1  15  2.688715E+06 -4.138407E+03  5.045573E+04 -1.174366E-09 -4.136394E-10 -2.779453E-10
         1  16  2.688507E+06  1.516161E+05  1.763948E+05 -8.343511E+04 -6.269231E-10  3.191579E-11
         1  17  2.670779E+06  1.377418E+04  8.413788E+04 -3.274042E+04  7.869324E-10  1.319983E-11
         1  18  2.688715E+06 -4.137804E+03  5.045581E+04  1.795268E+04  3.009089E-10 -3.966791E-10
         1  19  2.688522E+06  1.516200E+05  1.764218E+05  8.343512E+04 -1.201260E+05 -1.607762E+01
         1  20  2.670785E+06  1.377572E+04  8.414871E+04  3.274042E+04 -7.606655E+04 -3.995022E+00
         1  21  2.688716E+06 -4.137530E+03  5.045773E+04 -1.795268E+04 -3.200626E+04  9.217048E-01
         1  22  2.688515E+06  1.516069E+05  1.764199E+05 -2.625469E-09 -1.201260E+05  7.798381E-11
         1  23  2.670784E+06  1.377372E+04  8.414842E+04  2.896846E-09 -7.606655E+04  1.344586E-10
         1  24  2.688716E+06 -4.138133E+03  5.045764E+04 -3.701347E-10 -3.200626E+04 -3.243098E-10
         1  25  2.688522E+06  1.516200E+05  1.764218E+05 -8.343512E+04 -1.201260E+05  1.607762E+01
         1  26  2.670785E+06  1.377572E+04  8.414871E+04 -3.274042E+04 -7.606655E+04  3.995022E+00
         1  27  2.688716E+06 -4.137530E+03  5.045773E+04  1.795268E+04 -3.200626E+04 -9.217048E-01
         2   1  2.681498E+06  5.892516E+03  4.149381E+04  2.255764E+03  2.487409E+04  9.000641E-02
         2   2  2.679853E+06  1.536500E+01  2.899079E+04  7.997718E+02  1.042488E+04  1.337427E-02
         2   3  2.681512E+06 -1.361383E+02  2.729686E+04 -6.562253E+02 -4.024237E+03  4.236122E-03
         2   4  2.681498E+06  5.892506E+03  4.149381E+04 -4.101543E-09  2.487409E+04 -2.997807E-10
         2   5  2.679853E+06  1.536381E+01  2.899079E+04  6.258501E-10  1.042488E+04 -3.929371E-10
         2   6  2.681512E+06 -1.361391E+02  2.729686E+04 -3.642373E-09 -4.024237E+03 -3.449459E-10
         2   7  2.681498E+06  5.892516E+03  4.149381E+04 -2.255764E+03  2.487409E+04 -9.000641E-02
         2   8  2.679853E+06  1.536500E+01  2.899079E+04 -7.997718E+02  1.042488E+04 -1.337427E-02
         2   9  2.681512E+06 -1.361383E+02  2.729686E+04  6.562253E+02 -4.024237E+03 -4.236123E-03
         2  10  2.681497E+06  5.892351E+03  4.149266E+04  2.255764E+03 -7.595226E-10 -3.253154E-10
         2  11  2.679853E+06  1.533598E+01  2.899058E+04  7.997718E+02  5.929061E-10 -3.122237E-10
         2  12  2.681512E+06 -1.361426E+02  2.729683E+04 -6.562253E+02  2.888309E-10  5.091464E-11
         2  13  2.681497E+06  5.892341E+03  4.149265E+04 -1.368287E-09 -1.952788E-10 -3.265601E-10
         2  14  2.679853E+06  1.533478E+01  2.899058E+04 -2.545274E-09  1.186297E-10 -1.348906E-10
         2  15  2.681512E+06 -1.361434E+02  2.729683E+04 -1.043814E-09  3.600034E-10  4.673514E-11
         2  16  2.681497E+06  5.892351E+03  4.149266E+04 -2.255764E+03  2.710314E-10 -5.642175E-10
         2  17  2.679853E+06  1.533598E+01  2.899058E+04 -7.997718E+02 -6.787293E-10 -5.123418E-11
         2  18  2.681512E+06 -1.361426E+02  2.729683E+04  6.562253E+02  1.591226E-10  2.776105E-10
         2  19  2.681498E+06  5.892516E+03  4.149381E+04  2.255764E+03 -2.487409E+04 -9.000641E-02
         2  20  2.679853E+06  1.536500E+01  2.899079E+04  7.997718E+02 -1.042488E+04 -1.337427E-02
         2  21  2.681512E+06 -1.361383E+02  2.729686E+04 -6.562253E+02  4.024237E+03 -4.236122E-03
         2  22  2.681498E+06  5.892506E+03  4.149381E+04 -2.918007E-09 -2.487409E+04 -3.916996E-10
         2  23  2.679853E+06  1.536381E+01  2.899079E+04 -3.257910E-10 -1.042488E+04  9.877185E-11
         2  24  2.681512E+06 -1.361391E+02  2.729686E+04 -1.768014E-09  4.024237E+03  4.931166E-10
         2  25  2.681498E+06  5.892516E+03  4.149381E+04 -2.255764E+03 -2.487409E+04  9.000641E-02
         2  26  2.679853E+06  1.536500E+01  2.899079E+04 -7.997718E+02 -1.042488E+04  1.337427E-02
         2  27  2.681512E+06 -1.361383E+02  2.729686E+04  6.562253E+02  4.024237E+03  4.236123E-03
         3   1  2.681913E+06 -4.805164E+02  2.951738E+04  1.957357E+03 -9.050754E+03 -2.841755E-02
         3   2  2.679341E+06  2.396785E+02  4.119720E+04 -8.487172E+02 -2.961655E+04  4.032100E-02
         3   3  2.681878E+06  1.073455E+04  6.866911E+04 -3.654720E+03 -5.018247E+04  2.941977E-01
         3   4  2.681913E+06 -4.805236E+02  2.951738E+04 -1.849786E-09 -9.050754E+03 -3.420134E-10
         3   5  2.679341E+06  2.396771E+02  4.119720E+04  2.685134E-10 -2.961655E+04 -2.545667E-10
         3   6  2.681878E+06  1.073453E+04  6.866910E+04 -9.824023E-10 -5.018247E+04  1.163206E-10
         3   7  2.681913E+06 -4.805164E+02  2.951738E+04 -1.957357E+03 -9.050754E+03  2.841755E-02
         3   8  2.679341E+06  2.396785E+02  4.119720E+04  8.487172E+02 -2.961655E+04 -4.032100E-02
         3   9  2.681878E+06  1.073455E+04  6.866911E+04  3.654720E+03 -5.018247E+04 -2.941977E-01
         3  10  2.681913E+06 -4.805383E+02  2.951722E+04  1.957357E+03  1.504374E-12 -1.331538E-10
         3  11  2.679340E+06  2.394442E+02  4.119556E+04 -8.487172E+02  2.044874E-10 -1.155674E-10
         3  12  2.681875E+06  1.073388E+04  6.866440E+04 -3.654720E+03 -3.497501E-10  2.496019E-12
         3  13  2.681913E+06 -4.805455E+02  2.951722E+04 -1.344455E-09 -6.331063E-10  4.755314E-11
         3  14  2.679340E+06  2.394429E+02  4.119556E+04 -1.361316E-09 -8.086276E-10 -1.260792E-10
         3  15  2.681875E+06  1.073386E+04  6.866439E+04  5.169466E-10  3.032765E-10  3.786317E-12
         3  16  2.681913E+06 -4.805383E+02  2.951722E+04 -1.957357E+03  6.693702E-10  2.093758E-10
         3  17  2.679340E+06  2.394442E+02  4.119556E+04  8.487172E+02 -9.377434E-10  1.584705E-10
         3  18  2.681875E+06  1.073388E+04  6.866440E+04  3.654720E+03  8.070445E-10 -1.973361E-11
         3  19  2.681913E+06 -4.805164E+02  2.951738E+04  1.957357E+03  9.050754E+03  2.841755E-02
         3  20  2.679341E+06  2.396785E+02  4.119720E+04 -8.487172E+02  2.961655E+04 -4.032100E-02
         3  21  2.681878E+06  1.073455E+04  6.866911E+04 -3.654720E+03  5.018247E+04 -2.941977E-01
         3  22  2.681913E+06 -4.805236E+02  2.951738E+04 -3.083898E-09  9.050754E+03  4.056317E-10
         3  23  2.679341E+06  2.396771E+02  4.119720E+04 -2.978488E-09  2.961655E+04  1.299529E-10
         3  24  2.681878E+06  1.073453E+04  6.866910E+04 -9.316660E-10  5.018247E+04 -1.003261E-10
         3  25  2.681913E+06 -4.805164E+02  2.951738E+04 -1.957357E+03  9.050754E+03 -2.841755E-02
         3  26  2.679341E+06  2.396785E+02  4.119720E+04  8.487172E+02  2.961655E+04  4.032100E-02
         3  27  2.681878E+06  1.073455E+04  6.866911E+04  3.654720E+03  5.018247E+04  2.941977E-01
         4   1  2.695054E+06 -7.388195E+03  8.649951E+04  3.266767E+04 -6.208034E+04 -3.253095E+00
         4   2  2.662788E+06  2.489822E+04  1.496748E+05 -5.881914E+04 -1.404956E+05  1.325654E+01
         4   3  2.694715E+06  2.734633E+05  3.178273E+05 -1.503148E+05 -2.189115E+05  5.278489E+01
         4   4  2.695053E+06 -7.390192E+03  8.649922E+04 -6.376427E-09 -6.208034E+04  1.389240E-10
         4   5  2.662784E+06  2.489174E+04  1.496738E+05 -1.203404E-09 -1.404956E+05 -7.290767E-11
         4   6  2.694691E+06  2.734210E+05  3.178212E+05 -6.716724E-10 -2.189114E+05  1.485481E-11
         4   7  2.695054E+06 -7.388195E+03  8.649951E+04 -3.266767E+04 -6.208034E+04  3.253095E+00
         4   8  2.662788E+06  2.489822E+04  1.496748E+05  5.881914E+04 -1.404956E+05 -1.325654E+01
         4   9  2.694715E+06  2.734633E+05  3.178273E+05  1.503148E+05 -2.189115E+05 -5.278489E+01
         4  10  2.695050E+06 -7.389224E+03  8.649229E+04  3.266767E+04  3.872442E-10 -8.664925E-11
         4  11  2.662767E+06  2.489295E+04  1.496378E+05 -5.881914E+04  2.024832E-10 -7.886420E-11
         4  12  2.694663E+06  2.734505E+05  3.177376E+05 -1.503148E+05 -6.174999E-10 -2.943338E-11
         4  13  2.695049E+06 -7.391221E+03  8.649201E+04 -1.550277E-09  1.196873E-09  3.296153E-12
         4  14  2.662763E+06  2.488647E+04  1.496369E+05 -1.194981E-09 -1.186572E-10 -6.221268E-11
         4  15  2.694639E+06  2.734082E+05  3.177316E+05  3.308143E-10 -7.400394E-10 -2.768646E-11
         4  16  2.695050E+06 -7.389224E+03  8.649229E+04 -3.266767E+04  3.378351E-10 -1.586702E-11
         4  17  2.662767E+06  2.489295E+04  1.496378E+05  5.881914E+04  9.416748E-11  8.465847E-11
         4  18  2.694663E+06  2.734505E+05  3.177376E+05  1.503148E+05  9.990892E-11 -1.117604E-11
         4  19  2.695054E+06 -7.388195E+03  8.649951E+04  3.266767E+04  6.208034E+04  3.253095E+00
         4  20  2.662788E+06  2.489822E+04  1.496748E+05 -5.881914E+04  1.404956E+05 -1.325654E+01
         4  21  2.694715E+06  2.734633E+05  3.178273E+05 -1.503148E+05  2.189115E+05 -5.278489E+01
         4  22  2.695053E+06 -7.390192E+03  8.649922E+04 -3.167430E-09  6.208034E+04 -1.315612E-10
         4  23  2.662784E+06  2.489174E+04  1.496738E+05  1.757096E-09  1.404956E+05 -5.948071E-11
         4  24  2.694691E+06  2.734210E+05  3.178212E+05  2.347160E-12  2.189114E+05 -8.260985E-11
         4  25  2.695054E+06 -7.388195E+03  8.649951E+04 -3.266767E+04  6.208034E+04 -3.253095E+00
         4  26  2.662788E+06  2.489822E+04  1.496748E+05  5.881914E+04  1.404956E+05  1.325654E+01
         4  27  2.694715E+06  2.734633E+05  3.178273E+05  1.503148E+05  2.189115E+05  5.278489E+01
         5   1 -9.728278E+05 -2.431439E+06 -9.869966E+05  6.208568E+05 -3.677876E+04 -3.195281E+05
         5   2 -5.906469E+05 -1.750856E+06 -6.246947E+05  4.447151E+05 -1.090964E+05 -1.577332E+05
         5   3 -4.045464E+05 -1.139372E+06 -4.169102E+05  4.684822E+05 -9.977234E+04  4.214506E+03
         5   4 -2.276921E+05  5.692054E+05 -2.644206E+05  4.986511E+05 -3.656351E+04 -1.843917E+05
         5   5 -2.072564E+04  5.957659E+05 -1.226339E+05  3.985213E+05 -1.089946E+05 -1.199712E+05
         5   6  7.536113E+03  5.700748E+05 -6.729410E+04  4.983431E+05 -9.988342E+04 -5.558194E+04
         5   7  5.168544E+05  3.578176E+06  4.575908E+05  3.758457E+05 -3.640241E+04 -4.860091E+04
         5   8  5.488452E+05  2.947585E+06  3.791143E+05  3.521466E+05 -1.088987E+05 -8.206765E+04
         5   9  4.194404E+05  2.282310E+06  2.821811E+05  5.282852E+05 -1.000001E+05 -1.155401E+05
         5  10 -9.728568E+05 -2.431549E+06 -9.871917E+05  6.208473E+05  4.396302E-10 -1.389817E-10
         5  11 -5.906664E+05 -1.750886E+06 -6.247639E+05  4.447012E+05  1.147928E-09 -2.677505E-10
         5  12 -4.045571E+05 -1.139375E+06 -4.169289E+05  4.684826E+05 -5.551745E-10 -1.124790E-10
         5  13 -2.277026E+05  5.691686E+05 -2.644870E+05  4.986457E+05 -5.653140E-10  1.661429E-11
         5  14 -2.074225E+04  5.957472E+05 -1.226832E+05  3.985108E+05  4.180022E-10  2.060472E-11
         5  15  7.524574E+03  5.700689E+05 -6.731864E+04  4.983386E+05  8.951261E-10 -6.432796E-11
         5  16  5.168524E+05  3.578173E+06  4.575839E+05  3.758443E+05 -2.944578E-10  2.136885E-10
         5  17  5.488307E+05  2.947574E+06  3.790794E+05  3.521394E+05  8.042840E-10  3.314228E-10
         5  18  4.194261E+05  2.282293E+06  2.821373E+05  5.282760E+05  3.992589E-10  2.401418E-11
         5  19 -9.728278E+05 -2.431439E+06 -9.869966E+05  6.208568E+05  3.677876E+04  3.195281E+05
         5  20 -5.906469E+05 -1.750856E+06 -6.246947E+05  4.447151E+05  1.090964E+05  1.577332E+05
         5  21 -4.045464E+05 -1.139372E+06 -4.169102E+05  4.684822E+05  9.977234E+04 -4.214506E+03
         5  22 -2.276921E+05  5.692054E+05 -2.644206E+05  4.986511E+05  3.656351E+04  1.843917E+05
         5  23 -2.072564E+04  5.957659E+05 -1.226339E+05  3.985213E+05  1.089946E+05  1.199712E+05
         5  24  7.536113E+03  5.700748E+05 -6.729410E+04  4.983431E+05  9.988342E+04  5.558194E+04
         5  25  5.168544E+05  3.578176E+06  4.575908E+05  3.758457E+05  3.640241E+04  4.860091E+04
         5  26  5.488452E+05  2.947585E+06  3.791143E+05  3.521466E+05  1.088987E+05  8.206765E+04
         5  27  4.194404E+05  2.282310E+06  2.821811E+05  5.282852E+05  1.000001E+05  1.155401E+05
         6   1 -3.071600E+05 -6.626570E+05 -3.056423E+05  4.997582E+05 -7.194084E+04 -5.624697E+03
         6   2 -1.425364E+05 -1.592065E+04 -1.439113E+05  3.969098E+05 -3.679662E+04  7.774418E+03
         6   3  1.626355E+04  6.272457E+05  7.391467E+03  4.979535E+05  1.330322E+01  2.116191E+04
         6   4 -7.418123E+03  5.811777E+05 -5.083627E+04  4.992778E+05 -7.203002E+04 -4.678414E+04
         6   5  1.419534E+03  5.830941E+05 -2.296071E+04  3.973217E+05 -3.690220E+04 -3.537540E+04
         6   6  4.814078E+03  5.814103E+05 -4.093177E+03  4.992468E+05 -1.106581E+02 -2.399175E+04
         6   7  2.922276E+05  1.826486E+06  2.038939E+05  4.987950E+05 -7.211902E+04 -8.802455E+04
         6   8  1.453543E+05  1.182455E+06  9.797835E+04  3.977336E+05 -3.700778E+04 -7.856604E+04
         6   9 -6.634454E+03  5.355811E+05 -1.557032E+04  5.005401E+05 -2.348129E+02 -6.914208E+04
         6  10 -3.071656E+05 -6.626584E+05 -3.056521E+05  4.997579E+05 -2.016822E-10  6.527336E-10
         6  11 -1.425379E+05 -1.592108E+04 -1.439139E+05  3.969100E+05  5.476646E-10  8.150806E-10
         6  12  1.626343E+04  6.272452E+05  7.390626E+03  4.979535E+05  9.809339E-10  7.928624E-10
         6  13 -7.424279E+03  5.811739E+05 -5.085012E+04  4.992751E+05  7.111653E-10 -2.092375E-11
         6  14  1.417737E+03  5.830924E+05 -2.296561E+04  3.973206E+05 -4.855257E-10 -1.048403E-10
         6  15  4.813924E+03  5.814097E+05 -4.094258E+03  4.992468E+05  4.281478E-10 -1.069094E-11
         6  16  2.922199E+05  1.826476E+06  2.038696E+05  4.987899E+05  6.033240E-10 -7.254752E-10
         6  17  1.453512E+05  1.182448E+06  9.796421E+04  3.977313E+05  6.223402E-11 -9.220768E-10
         6  18 -6.635736E+03  5.355760E+05 -1.557930E+04  5.005401E+05  4.295056E-10 -8.447480E-10
         6  19 -3.071600E+05 -6.626570E+05 -3.056423E+05  4.997582E+05  7.194084E+04  5.624697E+03
         6  20 -1.425364E+05 -1.592065E+04 -1.439113E+05  3.969098E+05  3.679662E+04 -7.774418E+03
         6  21  1.626355E+04  6.272457E+05  7.391467E+03  4.979535E+05 -1.330322E+01 -2.116191E+04
         6  22 -7.418123E+03  5.811777E+05 -5.083627E+04  4.992778E+05  7.203002E+04  4.678414E+04
         6  23  1.419534E+03  5.830941E+05 -2.296071E+04  3.973217E+05  3.690220E+04  3.537540E+04
         6  24  4.814078E+03  5.814103E+05 -4.093177E+03  4.992468E+05  1.106581E+02  2.399175E+04
         6  25  2.922276E+05  1.826486E+06  2.038939E+05  4.987950E+05  7.211902E+04  8.802455E+04
         6  26  1.453543E+05  1.182455E+06  9.797835E+04  3.977336E+05  3.700778E+04  7.856604E+04
         6  27 -6.634454E+03  5.355811E+05 -1.557032E+04  5.005401E+05  2.348129E+02  6.914208E+04
         7   1  1.241077E+05  1.095771E+06  1.105334E+05  4.929722E+05  2.683363E+04  3.249277E+04
         7   2  2.862715E+05  1.730698E+06  2.722808E+05  4.102916E+05  4.792332E+04 -4.065876E+04
         7   3  5.002379E+05  2.387964E+06  4.943346E+05  5.290139E+05  1.800380E+04 -1.138120E+05
         7   4  6.794548E+02  5.846888E+05  3.787044E+03  4.987243E+05  2.668366E+04 -2.372195E+04
         7   5  6.114181E+03  5.787575E+05  2.218980E+04  3.979655E+05  4.794252E+04 -3.552126E+04
         7   6  5.279938E+04  5.842103E+05  5.841036E+04  4.986159E+05  1.815339E+04 -4.724551E+04
         7   7 -1.227636E+05  7.386029E+04 -1.029619E+05  5.044713E+05  2.653256E+04 -7.989122E+04
         7   8 -2.741304E+05 -5.719407E+05 -2.279802E+05  3.856615E+05  4.796155E+04 -3.039309E+04
         7   9 -3.948713E+05 -1.216568E+06 -3.777302E+05  4.683034E+05  1.829676E+04  1.912892E+04
         7  10  1.241066E+05  1.095770E+06  1.105301E+05  4.929715E+05  9.912603E-10  1.439655E-10
         7  11  2.862685E+05  1.730695E+06  2.722734E+05  4.102931E+05  6.194865E-10 -2.180486E-10
         7  12  5.002341E+05  2.387950E+06  4.943097E+05  5.290156E+05 -3.297093E-11 -5.569841E-10
         7  13  6.785383E+02  5.846880E+05  3.784647E+03  4.987248E+05  5.411294E-10 -7.282883E-11
         7  14  6.111372E+03  5.787555E+05  2.218311E+04  3.979669E+05 -1.129341E-11 -1.772801E-11
         7  15  5.279843E+04  5.842078E+05  5.840555E+04  4.986165E+05  5.521468E-10 -1.049958E-11
         7  16 -1.227661E+05  7.385325E+04 -1.029752E+05  5.044730E+05  8.924416E-10 -2.331621E-10
         7  17 -2.741331E+05 -5.719423E+05 -2.279863E+05  3.856627E+05 -8.648107E-11  2.187776E-10
         7  18 -3.948718E+05 -1.216568E+06 -3.777315E+05  4.683032E+05  2.440613E-10  5.010657E-10
         7  19  1.241077E+05  1.095771E+06  1.105334E+05  4.929722E+05 -2.683363E+04 -3.249277E+04
         7  20  2.862715E+05  1.730698E+06  2.722808E+05  4.102916E+05 -4.792332E+04  4.065876E+04
         7  21  5.002379E+05  2.387964E+06  4.943346E+05  5.290139E+05 -1.800380E+04  1.138120E+05
         7  22  6.794548E+02  5.846888E+05  3.787044E+03  4.987243E+05 -2.668366E+04  2.372195E+04
         7  23  6.114181E+03  5.787575E+05  2.218980E+04  3.979655E+05 -4.794252E+04  3.552126E+04
         7  24  5.279938E+04  5.842103E+05  5.841036E+04  4.986159E+05 -1.815339E+04  4.724551E+04
         7  25 -1.227636E+05  7.386029E+04 -1.029619E+05  5.044713E+05 -2.653256E+04  7.989122E+04
         7  26 -2.741304E+05 -5.719407E+05 -2.279802E+05  3.856615E+05 -4.796155E+04  3.039309E+04
         7  27 -3.948713E+05 -1.216568E+06 -3.777302E+05  4.683034E+05 -1.829676E+04 -1.912892E+04
         8   1  8.789385E+05  3.650068E+05 -1.222916E+05  7.212859E+05  6.759933E+03  1.987565E+04
         8   2  9.418585E+05  3.705255E+05 -1.212397E+05  7.882617E+05 -4.016339E+03  4.377075E+04
         8   3  1.067130E+06  3.843391E+05 -1.096201E+05  8.247548E+05 -7.370113E+02  4.892322E+04
         8   4  1.569781E+06  7.854914E+05  9.073185E+04  1.031052E+06  4.267944E+04  4.680094E+04
         8   5  1.521821E+06  7.532901E+05  4.290538E+04  1.065553E+06  9.357729E+03  5.378797E+04
         8   6  1.541051E+06  7.342297E+05  2.515402E+04  1.069574E+06 -9.916470E+03  4.204364E+04
         8   7  2.261126E+06  1.206144E+06  3.037051E+05  1.341173E+06  7.865337E+04  7.375930E+04
         8   8  2.102150E+06  1.136211E+06  2.070162E+05  1.343125E+06  2.274863E+04  6.381669E+04
         8   9  2.015221E+06  1.084263E+06  1.599056E+05  1.314609E+06 -1.910534E+04  3.515657E+04
         8  10  8.789383E+05  3.650064E+05 -1.222924E+05  7.212858E+05 -1.282068E-09 -4.613750E-10
         8  11  9.418580E+05  3.705234E+05 -1.212434E+05  7.882618E+05 -1.325441E-09 -7.733307E-11
         8  12  1.067129E+06  3.843365E+05 -1.096246E+05  8.247548E+05  5.465751E-10 -1.379971E-09
         8  13  1.569779E+06  7.854886E+05  9.072434E+04  1.031051E+06 -7.070152E-10  3.813875E-10
         8  14  1.521821E+06  7.532870E+05  4.289978E+04  1.065552E+06 -4.640859E-10  5.997403E-10
         8  15  1.541050E+06  7.342278E+05  2.515051E+04  1.069574E+06 -3.920320E-10  1.721328E-10
         8  16  2.261118E+06  1.206136E+06  3.036833E+05  1.341168E+06  3.172131E-10  9.408317E-10
         8  17  2.102148E+06  1.136207E+06  2.070076E+05  1.343124E+06  4.594921E-10  1.353357E-09
         8  18  2.015220E+06  1.084262E+06  1.599026E+05  1.314610E+06 -2.764177E-10  1.796541E-09
         8  19  8.789385E+05  3.650068E+05 -1.222916E+05  7.212859E+05 -6.759933E+03 -1.987565E+04
         8  20  9.418585E+05  3.705255E+05 -1.212397E+05  7.882617E+05  4.016339E+03 -4.377075E+04
         8  21  1.067130E+06  3.843391E+05 -1.096201E+05  8.247548E+05  7.370113E+02 -4.892322E+04
         8  22  1.569781E+06  7.854914E+05  9.073185E+04  1.031052E+06 -4.267944E+04 -4.680094E+04
         8  23  1.521821E+06  7.532901E+05  4.290538E+04  1.065553E+06 -9.357729E+03 -5.378797E+04
         8  24  1.541051E+06  7.342297E+05  2.515402E+04  1.069574E+06  9.916470E+03 -4.204364E+04
         8  25  2.261126E+06  1.206144E+06  3.037051E+05  1.341173E+06 -7.865337E+04 -7.375930E+04
         8  26  2.102150E+06  1.136211E+06  2.070162E+05  1.343125E+06 -2.274863E+04 -6.381669E+04
         8  27  2.015221E+06  1.084263E+06  1.599056E+05  1.314609E+06  1.910534E+04 -3.515657E+04
         9   1  1.115951E+06  4.378929E+05 -9.824407E+04  8.530299E+05 -4.902261E+03  3.937081E+04
         9   2  1.179571E+06  5.095537E+05 -8.198025E+04  8.995983E+05 -5.486685E+03  3.198937E+04
         9   3  1.278824E+06  5.493987E+05 -6.190187E+04  9.356695E+05 -5.309504E+03  2.358449E+04
         9   4  1.540691E+06  7.360363E+05  2.023552E+04  1.065221E+06 -9.629216E+03  3.582750E+04
         9   5  1.522186E+06  7.507924E+05  1.290414E+04  1.071253E+06 -1.144708E+04  2.752430E+04
         9   6  1.539567E+06  7.339956E+05  1.045059E+04  1.066782E+06 -1.250291E+04  1.819864E+04
         9   7  1.965637E+06  1.034285E+06  1.386993E+05  1.277579E+06 -1.436059E+04  3.228090E+04
         9   8  1.864932E+06  9.920978E+05  1.077774E+05  1.243015E+06 -1.741190E+04  2.305593E+04
         9   9  1.800382E+06  9.186293E+05  8.279561E+04  1.197955E+06 -1.970030E+04  1.280980E+04
         9  10  1.115950E+06  4.378912E+05 -9.824703E+04  8.530301E+05 -1.612094E-08 -1.448102E-08
         9  11  1.179571E+06  5.095526E+05 -8.198224E+04  8.995984E+05 -6.258454E-09 -6.962368E-09
         9  12  1.278824E+06  5.493981E+05 -6.190297E+04  9.356696E+05  1.049917E-08  8.615817E-09
         9  13  1.540691E+06  7.360349E+05  2.023294E+04  1.065221E+06 -3.019085E-09 -2.870593E-09
         9  14  1.522186E+06  7.507916E+05  1.290247E+04  1.071253E+06 -7.462462E-09 -7.061087E-09
         9  15  1.539567E+06  7.339952E+05  1.044968E+04  1.066782E+06 -3.310078E-09 -2.983510E-09
         9  16  1.965637E+06  1.034284E+06  1.386970E+05  1.277579E+06  9.953904E-09  8.693580E-09
         9  17  1.864931E+06  9.920972E+05  1.077758E+05  1.243015E+06 -7.203988E-09 -7.162983E-09
         9  18  1.800382E+06  9.186290E+05  8.279458E+04  1.197955E+06 -1.649923E-08 -1.449572E-08
         9  19  1.115951E+06  4.378929E+05 -9.824407E+04  8.530299E+05  4.902261E+03 -3.937081E+04
         9  20  1.179571E+06  5.095537E+05 -8.198025E+04  8.995983E+05  5.486685E+03 -3.198937E+04
         9  21  1.278824E+06  5.493987E+05 -6.190187E+04  9.356695E+05  5.309504E+03 -2.358449E+04
         9  22  1.540691E+06  7.360363E+05  2.023552E+04  1.065221E+06  9.629216E+03 -3.582750E+04
         9  23  1.522186E+06  7.507924E+05  1.290414E+04  1.071253E+06  1.144708E+04 -2.752430E+04
         9  24  1.539567E+06  7.339956E+05  1.045059E+04  1.066782E+06  1.250291E+04 -1.819864E+04
         9  25  1.965637E+06  1.034285E+06  1.386993E+05  1.277579E+06  1.436059E+04 -3.228090E+04
         9  26  1.864932E+06  9.920978E+05  1.077774E+05  1.243015E+06  1.741190E+04 -2.305593E+04
         9  27  1.800382E+06  9.186293E+05  8.279561E+04  1.197955E+06  1.970030E+04 -1.280980E+04
        10   1  1.336385E+06  5.911623E+05 -4.530193E+04  9.648158E+05 -4.467920E+03  1.881092E+04
        10   2  1.399724E+06  6.649195E+05 -2.073964E+04  1.010250E+06 -5.258102E+03  9.201793E+03
        10   3  1.497671E+06  7.057022E+05  8.130977E+03  1.045960E+06 -6.039544E+03 -4.228915E+02
        10   4  1.539527E+06  7.341093E+05  1.047922E+04  1.066638E+06 -1.141169E+04  1.361292E+04
        10   5  1.522275E+06  7.506856E+05  1.295305E+04  1.071439E+06 -1.222120E+04  3.990128E+03
        10   6  1.539629E+06  7.342873E+05  1.975105E+04  1.066510E+06 -1.302114E+04 -5.647567E+03
        10   7  1.742715E+06  8.770800E+05  6.625676E+04  1.168498E+06 -1.835851E+04  8.412637E+03
        10   8  1.644845E+06  8.364607E+05  4.664487E+04  1.132642E+06 -1.918619E+04 -1.222942E+03
        10   9  1.581590E+06  7.628738E+05  3.137141E+04  1.087062E+06 -2.000346E+04 -1.087276E+04
        10  10  1.336385E+06  5.911619E+05 -4.530264E+04  9.648159E+05  5.157317E-10  1.773695E-09
        10  11  1.399724E+06  6.649194E+05 -2.073985E+04  1.010250E+06  2.912401E-11  8.673704E-10
        10  12  1.497671E+06  7.057022E+05  8.130909E+03  1.045960E+06  5.372396E-11  8.165641E-10
        10  13  1.539527E+06  7.341091E+05  1.047862E+04  1.066638E+06 -6.006089E-10  7.958752E-11
        10  14  1.522275E+06  7.506855E+05  1.295274E+04  1.071439E+06 -1.528047E-09  3.747580E-10
        10  15  1.539629E+06  7.342873E+05  1.975067E+04  1.066510E+06 -1.428353E-09  6.713117E-10
        10  16  1.742714E+06  8.770799E+05  6.625599E+04  1.168498E+06 -2.326992E-10 -1.758150E-09
        10  17  1.644845E+06  8.364606E+05  4.664418E+04  1.132642E+06 -7.498171E-10  8.993212E-11
        10  18  1.581589E+06  7.628736E+05  3.137044E+04  1.087061E+06 -1.602571E-09  8.229637E-10
        10  19  1.336385E+06  5.911623E+05 -4.530193E+04  9.648158E+05  4.467920E+03 -1.881092E+04
        10  20  1.399724E+06  6.649195E+05 -2.073964E+04  1.010250E+06  5.258102E+03 -9.201793E+03
        10  21  1.497671E+06  7.057022E+05  8.130977E+03  1.045960E+06  6.039544E+03  4.228915E+02
        10  22  1.539527E+06  7.341093E+05  1.047922E+04  1.066638E+06  1.141169E+04 -1.361292E+04
        10  23  1.522275E+06  7.506856E+05  1.295305E+04  1.071439E+06  1.222120E+04 -3.990128E+03
        10  24  1.539629E+06  7.342873E+05  1.975105E+04  1.066510E+06  1.302114E+04  5.647567E+03
        10  25  1.742715E+06  8.770800E+05  6.625676E+04  1.168498E+06  1.835851E+04 -8.412637E+03
        10  26  1.644845E+06  8.364607E+05  4.664487E+04  1.132642E+06  1.918619E+04  1.222942E+03
        10  27  1.581590E+06  7.628738E+05  3.137141E+04  1.087062E+06  2.000346E+04  1.087276E+04
        11   1  1.554116E+06  7.483353E+05  3.002425E+04  1.076457E+06 -6.507086E+03 -6.137780E+03
        11   2  1.619787E+06  8.186319E+05  6.962300E+04  1.119164E+06 -2.009570E+04 -2.503397E+04
        11   3  1.726794E+06  8.644319E+05  1.264248E+05  1.149351E+06 -3.417463E+04 -4.328057E+04
        11   4  1.539943E+06  7.340925E+05  2.511463E+04  1.067417E+06 -1.362970E+04 -1.146789E+04
        11   5  1.521696E+06  7.506137E+05  4.247456E+04  1.070527E+06 -2.643089E+04 -2.977552E+04
        11   6  1.544614E+06  7.424689E+05  7.636227E+04  1.061113E+06 -3.971937E+04 -4.743145E+04
        11   7  1.525771E+06  7.198502E+05  2.020534E+04  1.058378E+06 -2.075200E+04 -1.679768E+04
        11   8  1.423617E+06  6.826013E+05  1.532565E+04  1.021899E+06 -3.276469E+04 -3.451604E+04
        11   9  1.362470E+06  6.205226E+05  2.629682E+04  9.729034E+05 -4.526192E+04 -5.158080E+04
        11  10  1.554116E+06  7.483352E+05  3.002410E+04  1.076457E+06  8.637818E-10  9.097237E-10
        11  11  1.619786E+06  8.186311E+05  6.962107E+04  1.119164E+06  3.117660E-10  8.554190E-10
        11  12  1.726793E+06  8.644296E+05  1.264191E+05  1.149350E+06  4.272816E-10  6.592396E-10
        11  13  1.539943E+06  7.340923E+05  2.511403E+04  1.067417E+06 -1.566868E-09  8.862569E-10
        11  14  1.521695E+06  7.506126E+05  4.247159E+04  1.070527E+06 -5.758058E-10  4.800247E-10
        11  15  1.544612E+06  7.424661E+05  7.635510E+04  1.061111E+06 -8.921732E-11  3.772771E-10
        11  16  1.525770E+06  7.198498E+05  2.020401E+04  1.058377E+06 -1.644413E-09  5.975354E-10
        11  17  1.423616E+06  6.825998E+05  1.532141E+04  1.021898E+06 -2.062182E-10  3.053678E-10
        11  18  1.362468E+06  6.205192E+05  2.628799E+04  9.729015E+05 -2.279599E-10 -1.576937E-10
        11  19  1.554116E+06  7.483353E+05  3.002425E+04  1.076457E+06  6.507086E+03  6.137780E+03
        11  20  1.619787E+06  8.186319E+05  6.962300E+04  1.119164E+06  2.009570E+04  2.503397E+04
        11  21  1.726794E+06  8.644319E+05  1.264248E+05  1.149351E+06  3.417463E+04  4.328057E+04
        11  22  1.539943E+06  7.340925E+05  2.511463E+04  1.067417E+06  1.362970E+04  1.146789E+04
        11  23  1.521696E+06  7.506137E+05  4.247456E+04  1.070527E+06  2.643089E+04  2.977552E+04
        11  24  1.544614E+06  7.424689E+05  7.636227E+04  1.061113E+06  3.971937E+04  4.743145E+04
        11  25  1.525771E+06  7.198502E+05  2.020534E+04  1.058378E+06  2.075200E+04  1.679768E+04
        11  26  1.423617E+06  6.826013E+05  1.532565E+04  1.021899E+06  3.276469E+04  3.451604E+04
        11  27  1.362470E+06  6.205226E+05  2.629682E+04  9.729034E+05  4.526192E+04  5.158080E+04
        12   1  1.747266E+06  9.379948E+05  1.640223E+05  1.207854E+06 -3.911558E+04 -5.297804E+04
        12   2  1.901966E+06  9.210070E+05  2.644458E+05  1.187211E+06 -1.246141E+05 -1.185723E+05
        12   3  2.229885E+06  1.060218E+06  4.979211E+05  1.072721E+06 -2.190196E+05 -1.723132E+05
        12   4  1.546755E+06  7.346606E+05  9.766581E+04  1.078512E+06 -4.746929E+04 -5.922705E+04
        12   5  1.519691E+06  7.616879E+05  1.715661E+05  1.047707E+06 -1.186555E+05 -1.141355E+05
        12   6  1.662772E+06  9.418992E+05  3.662044E+05  9.230508E+05 -1.987107E+05 -1.572020E+05
        12   7  1.346289E+06  5.313796E+05  3.130389E+04  9.492250E+05 -5.581958E+04 -6.547192E+04
        12   8  1.137585E+06  6.023933E+05  7.867819E+04  9.082782E+05 -1.127019E+05 -1.097005E+05
        12   9  1.096064E+06  8.236154E+05  2.344865E+05  7.734596E+05 -1.784282E+05 -1.420931E+05
        12  10  1.747263E+06  9.379913E+05  1.640142E+05  1.207852E+06 -5.669935E-10  1.608982E-10
        12  11  1.901946E+06  9.209878E+05  2.643905E+05  1.187199E+06 -3.883464E-10  2.965806E-10
        12  12  2.229826E+06  1.060173E+06  4.977758E+05  1.072690E+06 -3.672566E-10  1.764318E-10
        12  13  1.546752E+06  7.346562E+05  9.765502E+04  1.078510E+06 -2.872887E-10  1.326900E-10
        12  14  1.519673E+06  7.616702E+05  1.715154E+05  1.047697E+06 -8.068664E-10  1.644229E-10
        12  15  1.662723E+06  9.418622E+05  3.660842E+05  9.230257E+05 -5.052197E-10 -1.360063E-10
        12  16  1.346285E+06  5.313742E+05  3.129002E+04  9.492221E+05  2.889899E-10  1.141106E-10
        12  17  1.137568E+06  6.023770E+05  7.863184E+04  9.082682E+05  5.100869E-10 -1.068228E-10
        12  18  1.096025E+06  8.235852E+05  2.343891E+05  7.734392E+05  2.593543E-11 -1.398207E-10
        12  19  1.747266E+06  9.379948E+05  1.640223E+05  1.207854E+06  3.911558E+04  5.297804E+04
        12  20  1.901966E+06  9.210070E+05  2.644458E+05  1.187211E+06  1.246141E+05  1.185723E+05
        12  21  2.229885E+06  1.060218E+06  4.979211E+05  1.072721E+06  2.190196E+05  1.723132E+05
        12  22  1.546755E+06  7.346606E+05  9.766581E+04  1.078512E+06  4.746929E+04  5.922705E+04
        12  23  1.519691E+06  7.616879E+05  1.715661E+05  1.047707E+06  1.186555E+05  1.141355E+05
        12  24  1.662772E+06  9.418992E+05  3.662044E+05  9.230508E+05  1.987107E+05  1.572020E+05
        12  25  1.346289E+06  5.313796E+05  3.130389E+04  9.492250E+05  5.581958E+04  6.547192E+04
        12  26  1.137585E+06  6.023933E+05  7.867819E+04  9.082782E+05  1.127019E+05  1.097005E+05
        12  27  1.096064E+06  8.236154E+05  2.344865E+05  7.734596E+05  1.784282E+05  1.420931E+05
        13   1  1.675633E+06  9.108029E+04  1.059903E+05  5.007828E+04  7.202737E+04  5.795032E+00
        13   2  1.664946E+06  8.259434E+03  5.060692E+04  1.965348E+04  4.553841E+04  1.437902E+00
        13   3  1.675706E+06 -2.492273E+03  3.045401E+04 -1.077046E+04  1.904936E+04 -3.296238E-01
        13   4  1.675630E+06  9.107559E+04  1.059896E+05 -1.248000E-09  7.202737E+04 -1.213435E-11
        13   5  1.664945E+06  8.258710E+03  5.060682E+04  8.660245E-10  4.553841E+04 -7.376976E-11
        13   6  1.675705E+06 -2.492491E+03  3.045398E+04  8.351701E-10  1.904936E+04 -3.949487E-10
        13   7  1.675633E+06  9.108029E+04  1.059903E+05 -5.007828E+04  7.202737E+04 -5.795032E+00
        13   8  1.664946E+06  8.259434E+03  5.060692E+04 -1.965348E+04  4.553841E+04 -1.437902E+00
        13   9  1.675706E+06 -2.492273E+03  3.045401E+04  1.077046E+04  1.904936E+04  3.296238E-01
        13  10  1.675627E+06  9.107890E+04  1.059806E+05  5.007828E+04  1.685285E-11  5.790488E-11
        13  11  1.664944E+06  8.258879E+03  5.060304E+04  1.965348E+04  2.694362E-10  1.417748E-10
        13  12  1.675705E+06 -2.492370E+03  3.045333E+04 -1.077046E+04 -1.025864E-10  1.259875E-10
        13  13  1.675625E+06  9.107420E+04  1.059799E+05  3.117309E-10  4.569627E-10 -1.576728E-12
        13  14  1.664943E+06  8.258155E+03  5.060293E+04  1.402761E-09 -9.150726E-11  1.051046E-11
        13  15  1.675705E+06 -2.492588E+03  3.045330E+04  3.024246E-09  1.967651E-10 -3.724981E-12
        13  16  1.675627E+06  9.107890E+04  1.059806E+05 -5.007828E+04 -2.658077E-10 -6.306936E-11
        13  17  1.664944E+06  8.258879E+03  5.060304E+04 -1.965348E+04 -2.880960E-10 -1.340019E-10
        13  18  1.675705E+06 -2.492370E+03  3.045333E+04  1.077046E+04  8.310071E-10 -7.361488E-11
        13  19  1.675633E+06  9.108029E+04  1.059903E+05  5.007828E+04 -7.202737E+04 -5.795032E+00
        13  20  1.664946E+06  8.259434E+03  5.060692E+04  1.965348E+04 -4.553841E+04 -1.437902E+00
        13  21  1.675706E+06 -2.492273E+03  3.045401E+04 -1.077046E+04 -1.904936E+04  3.296238E-01
        13  22  1.675630E+06  9.107559E+04  1.059896E+05 -7.512591E-10 -7.202737E+04  1.361296E-11
        13  23  1.664945E+06  8.258710E+03  5.060682E+04  1.129126E-09 -4.553841E+04  7.101910E-11
        13  24  1.675705E+06 -2.492491E+03  3.045398E+04  2.774168E-10 -1.904936E+04  3.826635E-10
        13  25  1.675633E+06  9.108029E+04  1.059903E+05 -5.007828E+04 -7.202737E+04  5.795032E+00
        13  26  1.664946E+06  8.259434E+03  5.060692E+04 -1.965348E+04 -4.553841E+04  1.437902E+00
        13  27  1.675706E+06 -2.492273E+03  3.045401E+04  1.077046E+04 -1.904936E+04 -3.296238E-01
        14   1  1.671378E+06  3.537135E+03  2.512892E+04  1.369105E+03  1.473748E+04  3.241656E-02
        14   2  1.670372E+06  1.552956E+00  1.779137E+04  5.009873E+02  5.874372E+03  4.728195E-03
        14   3  1.671383E+06 -7.314914E+01  1.707795E+04 -3.671189E+02 -2.988574E+03  1.762695E-03
        14   4  1.671378E+06  3.537131E+03  2.512892E+04 -4.291149E-09  1.473748E+04 -3.103811E-10
        14   5  1.670372E+06  1.552486E+00  1.779137E+04  1.317082E-09  5.874372E+03  1.129245E-10
        14   6  1.671383E+06 -7.314940E+01  1.707795E+04  5.265249E-10 -2.988574E+03 -1.637240E-11
        14   7  1.671378E+06  3.537135E+03  2.512892E+04 -1.369105E+03  1.473748E+04 -3.241656E-02
        14   8  1.670372E+06  1.552956E+00  1.779137E+04 -5.009873E+02  5.874372E+03 -4.728195E-03
        14   9  1.671383E+06 -7.314914E+01  1.707795E+04  3.671189E+02 -2.988574E+03 -1.762695E-03
        14  10  1.671377E+06  3.537077E+03  2.512851E+04  1.369105E+03 -1.223550E-10 -2.235750E-12
        14  11  1.670372E+06  1.543722E+00  1.779130E+04  5.009873E+02  5.764918E-10 -1.601595E-10
        14  12  1.671383E+06 -7.315153E+01  1.707793E+04 -3.671189E+02  4.814097E-10 -1.633394E-10
        14  13  1.671377E+06  3.537073E+03  2.512851E+04 -2.156827E-09  1.228261E-09 -2.812394E-11
        14  14  1.670372E+06  1.543252E+00  1.779130E+04 -8.425113E-10  9.588256E-10 -4.114638E-11
        14  15  1.671383E+06 -7.315179E+01  1.707793E+04 -2.491301E-11  4.550271E-11 -2.789305E-11
        14  16  1.671377E+06  3.537077E+03  2.512851E+04 -1.369105E+03  3.070654E-10 -6.761302E-11
        14  17  1.670372E+06  1.543722E+00  1.779130E+04 -5.009873E+02  2.476196E-10  4.736325E-11
        14  18  1.671383E+06 -7.315153E+01  1.707793E+04  3.671189E+02 -1.025677E-09  1.066164E-10
        14  19  1.671378E+06  3.537135E+03  2.512892E+04  1.369105E+03 -1.473748E+04 -3.241656E-02
        14  20  1.670372E+06  1.552956E+00  1.779137E+04  5.009873E+02 -5.874372E+03 -4.728196E-03
        14  21  1.671383E+06 -7.314914E+01  1.707795E+04 -3.671189E+02  2.988574E+03 -1.762696E-03
        14  22  1.671378E+06  3.537131E+03  2.512892E+04 -3.794429E-09 -1.473748E+04  2.825564E-10
        14  23  1.670372E+06  1.552486E+00  1.779137E+04 -2.910278E-10 -5.874372E+03 -1.428378E-10
        14  24  1.671383E+06 -7.314940E+01  1.707795E+04 -2.649678E-09  2.988574E+03 -1.234767E-11
        14  25  1.671378E+06  3.537135E+03  2.512892E+04 -1.369105E+03 -1.473748E+04  3.241656E-02
        14  26  1.670372E+06  1.552956E+00  1.779137E+04 -5.009873E+02 -5.874372E+03  4.728195E-03
        14  27  1.671383E+06 -7.314914E+01  1.707795E+04  3.671189E+02  2.988574E+03  1.762696E-03
        15   1  1.671664E+06 -3.144060E+02  1.863087E+04  1.276575E+03 -6.145229E+03 -1.260349E-02
        15   2  1.670017E+06  1.581929E+02  2.632933E+04 -5.359248E+02 -1.928523E+04  1.660490E-02
        15   3  1.671649E+06  6.927171E+03  4.414027E+04 -2.348439E+03 -3.242561E+04  1.223417E-01
        15   4  1.671664E+06 -3.144090E+02  1.863087E+04  9.351889E-10 -6.145229E+03 -1.631367E-10
        15   5  1.670017E+06  1.581924E+02  2.632933E+04 -3.259298E-10 -1.928523E+04  5.959305E-11
        15   6  1.671649E+06  6.927160E+03  4.414026E+04 -3.464575E-09 -3.242561E+04  4.187430E-10
        15   7  1.671664E+06 -3.144060E+02  1.863087E+04 -1.276575E+03 -6.145229E+03  1.260349E-02
        15   8  1.670017E+06  1.581929E+02  2.632933E+04  5.359248E+02 -1.928523E+04 -1.660490E-02
        15   9  1.671649E+06  6.927171E+03  4.414027E+04  2.348439E+03 -3.242561E+04 -1.223417E-01
        15  10  1.671664E+06 -3.144161E+02  1.863080E+04  1.276575E+03  5.504935E-10 -1.287782E-10
        15  11  1.670016E+06  1.580934E+02  2.632863E+04 -5.359248E+02 -3.684813E-11  2.825541E-11
        15  12  1.671648E+06  6.926889E+03  4.413829E+04 -2.348439E+03 -5.619931E-10 -1.123540E-10
        15  13  1.671664E+06 -3.144191E+02  1.863080E+04 -1.930528E-10 -4.534805E-10 -2.226442E-11
        15  14  1.670016E+06  1.580929E+02  2.632863E+04 -1.111025E-09 -7.331140E-10 -1.198678E-11
        15  15  1.671648E+06  6.926879E+03  4.413829E+04 -9.428844E-10 -2.118164E-10  1.494991E-10
        15  16  1.671664E+06 -3.144161E+02  1.863080E+04 -1.276575E+03 -5.589190E-10  7.404744E-11
        15  17  1.670016E+06  1.580934E+02  2.632863E+04  5.359248E+02 -8.373532E-11 -6.327952E-11
        15  18  1.671648E+06  6.926889E+03  4.413829E+04  2.348439E+03  4.289213E-10  4.157536E-10
        15  19  1.671664E+06 -3.144060E+02  1.863087E+04  1.276575E+03  6.145229E+03  1.260349E-02
        15  20  1.670017E+06  1.581929E+02  2.632933E+04 -5.359248E+02  1.928523E+04 -1.660490E-02
        15  21  1.671649E+06  6.927171E+03  4.414027E+04 -2.348439E+03  3.242561E+04 -1.223417E-01
        15  22  1.671664E+06 -3.144090E+02  1.863087E+04 -3.468248E-09  6.145229E+03  1.259064E-10
        15  23  1.670017E+06  1.581924E+02  2.632933E+04  2.467419E-12  1.928523E+04 -5.568025E-11
        15  24  1.671649E+06  6.927160E+03  4.414026E+04 -1.092251E-09  3.242561E+04 -1.018975E-10
        15  25  1.671664E+06 -3.144060E+02  1.863087E+04 -1.276575E+03  6.145229E+03 -1.260349E-02
        15  26  1.670017E+06  1.581929E+02  2.632933E+04  5.359248E+02  1.928523E+04  1.660490E-02
        15  27  1.671649E+06  6.927171E+03  4.414027E+04  2.348439E+03  3.242561E+04  1.223417E-01
        16   1  1.680145E+06 -4.772114E+03  5.566760E+04  2.106638E+04 -4.006713E+04 -1.356063E+00
        16   2  1.659364E+06  1.602923E+04  9.644867E+04 -3.788619E+04 -9.058944E+04  5.514114E+00
        16   3  1.680009E+06  1.763518E+05  2.049449E+05 -9.684187E+04 -1.411115E+05  2.195517E+01
        16   4  1.680144E+06 -4.772946E+03  5.566748E+04 -4.297060E-09 -4.006713E+04  3.976512E-10
        16   5  1.659363E+06  1.602654E+04  9.644829E+04 -5.121637E-10 -9.058944E+04 -1.014564E-11
        16   6  1.679999E+06  1.763342E+05  2.049424E+05 -8.254587E-10 -1.411115E+05 -1.222991E-11
        16   7  1.680145E+06 -4.772114E+03  5.566760E+04 -2.106638E+04 -4.006713E+04  1.356063E+00
        16   8  1.659364E+06  1.602923E+04  9.644867E+04  3.788619E+04 -9.058944E+04 -5.514114E+00
        16   9  1.680009E+06  1.763518E+05  2.049449E+05  9.684187E+04 -1.411115E+05 -2.195517E+01
        16  10  1.680143E+06 -4.772543E+03  5.566459E+04  2.106638E+04 -1.395751E-10 -1.636676E-10
        16  11  1.659356E+06  1.602703E+04  9.643329E+04 -3.788619E+04  2.564535E-10 -9.551626E-11
        16  12  1.679987E+06  1.763465E+05  2.049076E+05 -9.684187E+04  5.341518E-11 -4.498135E-11
        16  13  1.680143E+06 -4.773375E+03  5.566447E+04  4.450657E-10 -2.188855E-10  1.343006E-10
        16  14  1.659354E+06  1.602434E+04  9.643291E+04 -5.311203E-10 -7.392367E-11 -7.246627E-11
        16  15  1.679977E+06  1.763289E+05  2.049051E+05 -5.812533E-10  6.584472E-10 -3.387428E-11
        16  16  1.680143E+06 -4.772543E+03  5.566459E+04 -2.106638E+04 -9.147142E-11  4.601547E-10
        16  17  1.659356E+06  1.602703E+04  9.643329E+04  3.788619E+04 -3.468059E-11 -3.256407E-11
        16  18  1.679987E+06  1.763465E+05  2.049076E+05  9.684187E+04  4.865651E-11 -3.272554E-11
        16  19  1.680145E+06 -4.772114E+03  5.566760E+04  2.106638E+04  4.006713E+04  1.356063E+00
        16  20  1.659364E+06  1.602923E+04  9.644867E+04 -3.788619E+04  9.058944E+04 -5.514114E+00
        16  21  1.680009E+06  1.763518E+05  2.049449E+05 -9.684187E+04  1.411115E+05 -2.195517E+01
        16  22  1.680144E+06 -4.772946E+03  5.566748E+04 -2.908016E-09  4.006713E+04 -1.214671E-10
        16  23  1.659363E+06  1.602654E+04  9.644829E+04 -3.038352E-10  9.058944E+04 -9.745829E-11
        16  24  1.679999E+06  1.763342E+05  2.049424E+05 -1.290632E-09  1.411115E+05 -8.041336E-11
        16  25  1.680145E+06 -4.772114E+03  5.566760E+04 -2.106638E+04  4.006713E+04 -1.356063E+00
        16  26  1.659364E+06  1.602923E+04  9.644867E+04  3.788619E+04  9.058944E+04  5.514114E+00
        16  27  1.680009E+06  1.763518E+05  2.049449E+05  9.684187E+04  1.411115E+05  2.195517E+01
        17   1 -5.682790E+05 -1.669323E+06 -6.196263E+05  3.142663E+05 -1.108949E+04 -3.181137E+05
        17   2 -2.033571E+05 -1.468268E+06 -3.484206E+05  1.721781E+05 -3.347944E+04 -1.868391E+05
        17   3 -1.235695E+05 -1.355584E+06 -2.340859E+05  7.835820E+04 -3.259739E+04 -5.552752E+04
        17   4 -3.535373E+05 -8.042134E+05 -4.115740E+05  1.204868E+05 -1.097829E+04 -2.774436E+05
        17   5 -3.195581E+04 -7.623819E+05 -1.977993E+05  9.626516E+04 -3.344819E+04 -1.739622E+05
        17   6  9.462242E+03 -8.040167E+05 -1.214443E+05  1.203528E+05 -3.260811E+04 -7.048268E+04
        17   7 -1.387076E+05  6.166692E+04 -2.035485E+05 -7.356460E+04 -1.089265E+04 -2.367168E+05
        17   8  1.394348E+05 -5.601243E+04 -4.720310E+04  2.026436E+04 -3.342013E+04 -1.610707E+05
        17   9  1.424816E+05 -2.521550E+05 -8.816900E+03  1.623853E+05 -3.262085E+04 -8.545088E+04
        17  10 -5.683064E+05 -1.669432E+06 -6.198172E+05  3.142635E+05 -3.772963E-12 -6.566447E-10
        17  11 -2.033677E+05 -1.468306E+06 -3.484884E+05  1.721731E+05 -3.172128E-10 -2.346831E-10
        17  12 -1.235714E+05 -1.355588E+06 -2.340937E+05  7.835674E+04 -5.776967E-10  2.895729E-10
        17  13 -3.535581E+05 -8.042962E+05 -4.117190E+05  1.204843E+05 -1.603175E-10  9.455623E-12
        17  14 -3.196515E+04 -7.624147E+05 -1.978584E+05  9.626048E+04 -2.148738E-10  1.709161E-11
        17  15  9.459765E+03 -8.040224E+05 -1.214556E+05  1.203509E+05 -1.243886E-09  4.156682E-11
        17  16 -1.387228E+05  6.160671E+04 -2.036540E+05 -7.356668E+04 -7.383319E-10  6.610424E-10
        17  17  1.394267E+05 -5.604059E+04 -4.725396E+04  2.026002E+04 -2.002562E-10  2.668723E-10
        17  18  1.424785E+05 -2.521631E+05 -8.832623E+03  1.623831E+05 -3.630029E-10 -3.074935E-10
        17  19 -5.682790E+05 -1.669323E+06 -6.196263E+05  3.142663E+05  1.108949E+04  3.181137E+05
        17  20 -2.033571E+05 -1.468268E+06 -3.484206E+05  1.721781E+05  3.347944E+04  1.868391E+05
        17  21 -1.235695E+05 -1.355584E+06 -2.340859E+05  7.835820E+04  3.259739E+04  5.552752E+04
        17  22 -3.535373E+05 -8.042134E+05 -4.115740E+05  1.204868E+05  1.097829E+04  2.774436E+05
        17  23 -3.195581E+04 -7.623819E+05 -1.977993E+05  9.626516E+04  3.344819E+04  1.739622E+05
        17  24  9.462242E+03 -8.040167E+05 -1.214443E+05  1.203528E+05  3.260811E+04  7.048268E+04
        17  25 -1.387076E+05  6.166692E+04 -2.035485E+05 -7.356460E+04  1.089265E+04  2.367168E+05
        17  26  1.394348E+05 -5.601243E+04 -4.720310E+04  2.026436E+04  3.342013E+04  1.610707E+05
        17  27  1.424816E+05 -2.521550E+05 -8.816900E+03  1.623853E+05  3.262085E+04  8.545088E+04
        18   1 -1.190206E+05 -1.225931E+06 -1.915878E+05  1.269813E+05 -2.570154E+04 -4.360490E+04
        18   2 -6.830990E+04 -1.063846E+06 -1.340409E+05  9.594615E+04 -1.731180E+04 -4.145401E+03
        18   3 -3.836939E+04 -9.121270E+05 -1.074208E+05  1.145518E+05 -8.127962E+03  3.532109E+04
        18   4 -1.336705E+04 -7.877376E+05 -1.019627E+05  1.206748E+05 -2.570628E+04 -5.317142E+04
        18   5 -6.320408E+02 -7.826110E+05 -7.717734E+04  9.585225E+04 -1.731899E+04 -1.464404E+04
        18   6 -8.496528E+03 -7.877058E+05 -8.265600E+04  1.206707E+05 -8.137061E+03  2.388073E+04
        18   7  9.227460E+04 -3.493608E+05 -1.234737E+04  1.143637E+05 -2.571083E+04 -6.274457E+04
        18   8  6.704097E+04 -5.013007E+05 -2.031745E+04  9.575828E+04 -1.732619E+04 -2.514734E+04
        18   9  2.137560E+04 -6.632695E+05 -5.789150E+04  1.267908E+05 -8.146384E+03  1.243813E+04
        18  10 -1.190218E+05 -1.225934E+06 -1.915926E+05  1.269804E+05 -8.541146E-10  9.987372E-11
        18  11 -6.831023E+04 -1.063846E+06 -1.340415E+05  9.594609E+04 -6.620507E-10  1.020554E-10
        18  12 -3.836980E+04 -9.121283E+05 -1.074232E+05  1.145520E+05 -7.005333E-10  7.524632E-11
        18  13 -1.336852E+04 -7.877408E+05 -1.019692E+05  1.206737E+05 -3.694493E-10  2.167113E-11
        18  14 -6.324204E+02 -7.826114E+05 -7.717830E+04  9.585204E+04  1.927579E-10  3.509037E-11
        18  15 -8.496752E+03 -7.877064E+05 -8.265720E+04  1.206708E+05 -1.904532E-10 -2.761524E-11
        18  16  9.227283E+04 -3.493652E+05 -1.235601E+04  1.143624E+05 -5.968561E-10 -4.296656E-11
        18  17  6.704047E+04 -5.013014E+05 -2.031920E+04  9.575793E+04  5.737762E-10 -7.226378E-11
        18  18  2.137549E+04 -6.632696E+05 -5.789192E+04  1.267909E+05  1.163646E-10 -1.982022E-10
        18  19 -1.190206E+05 -1.225931E+06 -1.915878E+05  1.269813E+05  2.570154E+04  4.360490E+04
        18  20 -6.830990E+04 -1.063846E+06 -1.340409E+05  9.594615E+04  1.731180E+04  4.145401E+03
        18  21 -3.836939E+04 -9.121270E+05 -1.074208E+05  1.145518E+05  8.127962E+03 -3.532109E+04
        18  22 -1.336705E+04 -7.877376E+05 -1.019627E+05  1.206748E+05  2.570628E+04  5.317142E+04
        18  23 -6.320408E+02 -7.826110E+05 -7.717734E+04  9.585225E+04  1.731899E+04  1.464404E+04
        18  24 -8.496528E+03 -7.877058E+05 -8.265600E+04  1.206707E+05  8.137061E+03 -2.388073E+04
        18  25  9.227460E+04 -3.493608E+05 -1.234737E+04  1.143637E+05  2.571083E+04  6.274457E+04
        18  26  6.704097E+04 -5.013007E+05 -2.031745E+04  9.575828E+04  1.732619E+04  2.514734E+04
        18  27  2.137560E+04 -6.632695E+05 -5.789150E+04  1.267908E+05  8.146384E+03 -1.243813E+04
        19   1  3.847890E+03 -8.093453E+05 -9.353042E+04  1.482288E+05 -1.694228E+03  5.095920E+04
        19   2  1.411096E+04 -6.248159E+05 -1.055436E+05  4.434526E+04  4.915603E+03  1.122118E+05
        19   3 -1.627227E+05 -4.950680E+05 -2.042362E+05 -1.024113E+04  2.498096E+03  1.734853E+05
        19   4  6.352080E+03 -7.980233E+05 -9.206708E+04  1.205628E+05 -1.707749E+03  3.767403E+04
        19   5 -2.129175E+04 -7.697116E+05 -1.380040E+05  9.599415E+04  4.923074E+03  1.097168E+05
        19   6 -2.379592E+05 -7.981245E+05 -2.781438E+05  1.207363E+05  2.541254E+03  1.817646E+05
        19   7  8.859241E+03 -7.866991E+05 -9.060267E+04  9.289629E+04 -1.720084E+03  2.438861E+04
        19   8 -5.668585E+04 -9.145819E+05 -1.704643E+05  1.476308E+05  4.930130E+03  1.072224E+05
        19   9 -3.131378E+05 -1.101060E+06 -3.520486E+05  2.516495E+05  2.587926E+03  1.900399E+05
        19  10  3.847188E+03 -8.093481E+05 -9.353531E+04  1.482289E+05  5.056360E-10 -2.354212E-10
        19  11  1.410755E+04 -6.248294E+05 -1.055674E+05  4.434481E+04  5.996073E-10 -1.767112E-10
        19  12 -1.627308E+05 -4.951004E+05 -2.042928E+05 -1.024148E+04  9.870737E-11  2.106266E-10
        19  13  6.351695E+03 -7.980248E+05 -9.206976E+04  1.205629E+05  1.224480E-10  5.039954E-11
        19  14 -2.129502E+04 -7.697245E+05 -1.380267E+05  9.599371E+04  1.039587E-10 -8.299623E-12
        19  15 -2.379681E+05 -7.981600E+05 -2.782060E+05  1.207359E+05 -8.361723E-10  6.419689E-11
        19  16  8.859077E+03 -7.866997E+05 -9.060380E+04  9.289632E+04 -6.665400E-10  3.656797E-10
        19  17 -5.668897E+04 -9.145943E+05 -1.704860E+05  1.476304E+05 -1.023438E-09  1.531121E-11
        19  18 -3.131475E+05 -1.101099E+06 -3.521166E+05  2.516491E+05  4.740011E-11 -2.769612E-10
        19  19  3.847890E+03 -8.093453E+05 -9.353042E+04  1.482288E+05  1.694228E+03 -5.095920E+04
        19  20  1.411096E+04 -6.248159E+05 -1.055436E+05  4.434526E+04 -4.915603E+03 -1.122118E+05
        19  21 -1.627227E+05 -4.950680E+05 -2.042362E+05 -1.024113E+04 -2.498096E+03 -1.734853E+05
        19  22  6.352080E+03 -7.980233E+05 -9.206708E+04  1.205628E+05  1.707749E+03 -3.767403E+04
        19  23 -2.129175E+04 -7.697116E+05 -1.380040E+05  9.599415E+04 -4.923074E+03 -1.097168E+05
        19  24 -2.379592E+05 -7.981245E+05 -2.781438E+05  1.207363E+05 -2.541254E+03 -1.817646E+05
        19  25  8.859241E+03 -7.866991E+05 -9.060267E+04  9.289629E+04  1.720084E+03 -2.438861E+04
        19  26 -5.668585E+04 -9.145819E+05 -1.704643E+05  1.476308E+05 -4.930130E+03 -1.072224E+05
        19  27 -3.131378E+05 -1.101060E+06 -3.520486E+05  2.516495E+05 -2.587926E+03 -1.900399E+05
        20   1  3.582885E+05  4.138750E+04 -1.457597E+05  3.160030E+05 -3.530272E+04 -1.757566E+04
        20   2  4.035177E+05  1.055830E+05 -1.062573E+05  3.403122E+05 -2.756222E+04  7.324738E+03
        20   3  4.606491E+05  1.371022E+05 -8.410838E+04  3.623534E+05 -1.128902E+04  2.085225E+04
        20   4  7.431259E+05  3.280556E+05 -1.689103E+04  5.125587E+05 -1.379782E+04 -1.452661E+03
        20   5  7.383914E+05  3.477065E+05 -7.739552E+03  5.101058E+05 -1.971164E+04  1.320804E+04
        20   6  7.485202E+05  3.376443E+05 -4.095378E+03  5.053807E+05 -1.709772E+04  1.649754E+04
        20   7  1.128124E+06  6.148164E+05  1.119613E+05  7.092562E+05  7.725442E+03  1.468497E+04
        20   8  1.073392E+06  5.898993E+05  9.076751E+04  6.800061E+05 -1.185527E+04  1.909581E+04
        20   9  1.036486E+06  5.382344E+05  7.591079E+04  6.484845E+05 -2.291011E+04  1.214011E+04
        20  10  3.582871E+05  4.138684E+04 -1.457626E+05  3.160025E+05 -5.651811E-10 -4.853184E-12
        20  11  4.035169E+05  1.055827E+05 -1.062588E+05  3.403124E+05 -3.681414E-10  1.499375E-10
        20  12  4.606489E+05  1.371017E+05 -8.410944E+04  3.623536E+05  2.915893E-13  1.057342E-10
        20  13  7.431257E+05  3.280556E+05 -1.689140E+04  5.125587E+05  4.932625E-10  3.198904E-11
        20  14  7.383910E+05  3.477063E+05 -7.740610E+03  5.101060E+05  2.720369E-10  7.409920E-12
        20  15  7.485198E+05  3.376440E+05 -4.096439E+03  5.053809E+05 -5.265278E-10 -1.052166E-10
        20  16  1.128124E+06  6.148162E+05  1.119608E+05  7.092561E+05  1.018132E-10  3.399147E-11
        20  17  1.073391E+06  5.898988E+05  9.076656E+04  6.800063E+05  4.724997E-10 -4.379532E-11
        20  18  1.036486E+06  5.382341E+05  7.590953E+04  6.484847E+05  5.471007E-10 -3.816723E-10
        20  19  3.582885E+05  4.138750E+04 -1.457597E+05  3.160030E+05  3.530272E+04  1.757566E+04
        20  20  4.035177E+05  1.055830E+05 -1.062573E+05  3.403122E+05  2.756222E+04 -7.324738E+03
        20  21  4.606491E+05  1.371022E+05 -8.410838E+04  3.623534E+05  1.128902E+04 -2.085225E+04
        20  22  7.431259E+05  3.280556E+05 -1.689103E+04  5.125587E+05  1.379782E+04  1.452661E+03
        20  23  7.383914E+05  3.477065E+05 -7.739552E+03  5.101058E+05  1.971164E+04 -1.320804E+04
        20  24  7.485202E+05  3.376443E+05 -4.095378E+03  5.053807E+05  1.709772E+04 -1.649754E+04
        20  25  1.128124E+06  6.148164E+05  1.119613E+05  7.092562E+05 -7.725442E+03 -1.468497E+04
        20  26  1.073392E+06  5.898993E+05  9.076751E+04  6.800061E+05  1.185527E+04 -1.909581E+04
        20  27  1.036486E+06  5.382344E+05  7.591079E+04  6.484845E+05  2.291011E+04 -1.214011E+04
        21   1  5.005862E+05  1.615187E+05 -7.251332E+04  3.815818E+05 -1.160394E+04  1.652933E+04
        21   2  5.420130E+05  2.099275E+05 -5.539096E+04  4.107238E+05 -8.296542E+03  1.447063E+04
        21   3  6.047504E+05  2.360436E+05 -3.934741E+04  4.336600E+05 -4.522032E+03  1.178688E+04
        21   4  7.487706E+05  3.371533E+05 -2.958352E+03  5.061458E+05 -1.471909E+04  1.419391E+04
        21   5  7.381494E+05  3.484185E+05 -9.391939E+02  5.091034E+05 -1.216195E+04  1.157376E+04
        21   6  7.489992E+05  3.375532E+05  6.520125E+02  5.058532E+05 -9.137904E+03  8.328621E+03
        21   7  9.970200E+05  5.128209E+05  6.658944E+04  6.307649E+05 -1.783588E+04  1.185725E+04
        21   8  9.343273E+05  4.869306E+05  5.350846E+04  6.075177E+05 -1.602897E+04  8.675683E+03
        21   9  8.932710E+05  4.390746E+05  4.064951E+04  5.780655E+05 -1.375522E+04  4.869290E+03
        21  10  5.005860E+05  1.615184E+05 -7.251409E+04  3.815819E+05 -3.227386E-10 -1.216315E-10
        21  11  5.420128E+05  2.099273E+05 -5.539148E+04  4.107239E+05  7.066942E-11  1.472754E-10
        21  12  6.047504E+05  2.360435E+05 -3.934771E+04  4.336600E+05 -4.967681E-10  2.461088E-10
        21  13  7.487703E+05  3.371530E+05 -2.959139E+03  5.061460E+05  5.366575E-11 -2.683953E-11
        21  14  7.381492E+05  3.484183E+05 -9.397238E+02  5.091035E+05  6.654129E-12  4.848658E-11
        21  15  7.489990E+05  3.375531E+05  6.517251E+02  5.058533E+05 -4.880439E-10  3.484164E-10
        21  16  9.970196E+05  5.128207E+05  6.658857E+04  6.307651E+05  2.113085E-10 -5.486688E-11
        21  17  9.343270E+05  4.869304E+05  5.350783E+04  6.075179E+05 -1.530289E-09  1.448958E-10
        21  18  8.932707E+05  4.390745E+05  4.064911E+04  5.780656E+05  6.988885E-11  3.810209E-10
        21  19  5.005862E+05  1.615187E+05 -7.251332E+04  3.815818E+05  1.160394E+04 -1.652933E+04
        21  20  5.420130E+05  2.099275E+05 -5.539096E+04  4.107238E+05  8.296542E+03 -1.447063E+04
        21  21  6.047504E+05  2.360436E+05 -3.934741E+04  4.336600E+05  4.522032E+03 -1.178688E+04
        21  22  7.487706E+05  3.371533E+05 -2.958352E+03  5.061458E+05  1.471909E+04 -1.419391E+04
        21  23  7.381494E+05  3.484185E+05 -9.391939E+02  5.091034E+05  1.216195E+04 -1.157376E+04
        21  24  7.489992E+05  3.375532E+05  6.520125E+02  5.058532E+05  9.137904E+03 -8.328621E+03
        21  25  9.970200E+05  5.128209E+05  6.658944E+04  6.307649E+05  1.783588E+04 -1.185725E+04
        21  26  9.343273E+05  4.869306E+05  5.350846E+04  6.075177E+05  1.602897E+04 -8.675683E+03
        21  27  8.932710E+05  4.390746E+05  4.064951E+04  5.780655E+05  1.375522E+04 -4.869290E+03
        22   1  6.422506E+05  2.624520E+05 -2.784403E+04  4.524507E+05 -3.158062E+03  9.332102E+03
        22   2  6.832368E+05  3.100338E+05 -1.151261E+04  4.817064E+05 -1.774345E+03  4.554261E+03
        22   3  7.462060E+05  3.360853E+05  6.004923E+03  5.046478E+05 -3.852124E+02 -2.317630E+02
        22   4  7.490425E+05  3.375593E+05  1.480717E+03  5.059270E+05 -7.627979E+03  5.983514E+03
        22   5  7.380795E+05  3.483727E+05  3.574400E+03  5.090501E+05 -6.254136E+03  1.198493E+03
        22   6  7.490978E+05  3.376561E+05  6.862557E+03  5.058562E+05 -4.874732E+03 -3.594545E+03
        22   7  8.558485E+05  4.126740E+05  3.080496E+04  5.594144E+05 -1.209899E+04  2.634113E+03
        22   8  7.929257E+05  3.867132E+05  1.866124E+04  5.363965E+05 -1.073446E+04 -2.157669E+03
        22   9  7.519896E+05  3.392270E+05  7.720297E+03  5.070646E+05 -9.364225E+03 -6.957300E+03
        22  10  6.422506E+05  2.624519E+05 -2.784422E+04  4.524507E+05 -8.598971E-10  3.956335E-10
        22  11  6.832368E+05  3.100338E+05 -1.151265E+04  4.817064E+05 -4.678698E-10  1.584104E-10
        22  12  7.462060E+05  3.360853E+05  6.004923E+03  5.046478E+05  9.086361E-13 -1.916704E-10
        22  13  7.490424E+05  3.375592E+05  1.480540E+03  5.059270E+05 -4.743716E-10  3.148274E-10
        22  14  7.380795E+05  3.483727E+05  3.574324E+03  5.090501E+05 -4.743487E-10 -5.092185E-11
        22  15  7.490978E+05  3.376561E+05  6.862489E+03  5.058562E+05  1.163923E-10 -1.756473E-11
        22  16  8.558483E+05  4.126740E+05  3.080467E+04  5.594145E+05 -2.672853E-10  1.282080E-11
        22  17  7.929255E+05  3.867132E+05  1.866101E+04  5.363965E+05  2.073632E-10 -2.002639E-11
        22  18  7.519895E+05  3.392269E+05  7.720042E+03  5.070646E+05  1.706822E-10  1.277749E-10
        22  19  6.422506E+05  2.624520E+05 -2.784403E+04  4.524507E+05  3.158062E+03 -9.332102E+03
        22  20  6.832368E+05  3.100338E+05 -1.151261E+04  4.817064E+05  1.774345E+03 -4.554261E+03
        22  21  7.462060E+05  3.360853E+05  6.004923E+03  5.046478E+05  3.852124E+02  2.317630E+02
        22  22  7.490425E+05  3.375593E+05  1.480717E+03  5.059270E+05  7.627979E+03 -5.983514E+03
        22  23  7.380795E+05  3.483727E+05  3.574400E+03  5.090501E+05  6.254136E+03 -1.198493E+03
        22  24  7.490978E+05  3.376561E+05  6.862557E+03  5.058562E+05  4.874732E+03  3.594545E+03
        22  25  8.558485E+05  4.126740E+05  3.080496E+04  5.594144E+05  1.209899E+04 -2.634113E+03
        22  26  7.929257E+05  3.867132E+05  1.866124E+04  5.363965E+05  1.073446E+04  2.157669E+03
        22  27  7.519896E+05  3.392270E+05  7.720297E+03  5.070646E+05  9.364225E+03  6.957300E+03
        23   1  7.829952E+05  3.631482E+05  1.897337E+04  5.239366E+05  2.447708E+02 -3.223321E+03
        23   2  8.248389E+05  4.093472E+05  4.039236E+04  5.521377E+05 -4.101907E+03 -1.208640E+04
        23   3  8.914344E+05  4.374663E+05  6.863207E+04  5.729438E+05 -8.791453E+03 -2.049282E+04
        23   4  7.492305E+05  3.375844E+05  9.164683E+03  5.062236E+05 -4.345624E+03 -6.661689E+03
        23   5  7.378299E+05  3.483189E+05  1.622680E+04  5.086937E+05 -8.141881E+03 -1.511286E+04
        23   6  7.510597E+05  3.408533E+05  2.963426E+04  5.037663E+05 -1.228027E+04 -2.310681E+04
        23   7  7.154672E+05  3.120213E+05 -6.440044E+02  4.885118E+05 -8.935685E+03 -1.009978E+04
        23   8  6.508287E+05  2.872944E+05 -7.939599E+03  4.652564E+05 -1.218112E+04 -1.813879E+04
        23   9  6.107050E+05  2.442495E+05 -9.366028E+03  4.346055E+05 -1.576807E+04 -2.572007E+04
        23  10  7.829952E+05  3.631482E+05  1.897335E+04  5.239366E+05  4.699349E-10  1.041101E-10
        23  11  8.248388E+05  4.093470E+05  4.039205E+04  5.521377E+05  1.613065E-10  4.822989E-11
        23  12  8.914342E+05  4.374658E+05  6.863113E+04  5.729436E+05  3.847696E-10  1.129416E-10
        23  13  7.492305E+05  3.375843E+05  9.164564E+03  5.062236E+05  8.169699E-10  8.766058E-11
        23  14  7.378298E+05  3.483186E+05  1.622625E+04  5.086936E+05 -4.858755E-11  5.014398E-11
        23  15  7.510594E+05  3.408526E+05  2.963297E+04  5.037661E+05  2.884760E-10 -2.817787E-10
        23  16  7.154671E+05  3.120212E+05 -6.443456E+02  4.885117E+05 -1.293143E-10  5.813831E-11
        23  17  6.508285E+05  2.872940E+05 -7.940495E+03  4.652562E+05 -4.578731E-10 -2.801861E-10
        23  18  6.107045E+05  2.442487E+05 -9.367736E+03  4.346052E+05 -2.665532E-10 -6.078681E-10
        23  19  7.829952E+05  3.631482E+05  1.897337E+04  5.239366E+05 -2.447708E+02  3.223321E+03
        23  20  8.248389E+05  4.093472E+05  4.039236E+04  5.521377E+05  4.101907E+03  1.208640E+04
        23  21  8.914344E+05  4.374663E+05  6.863207E+04  5.729438E+05  8.791453E+03  2.049282E+04
        23  22  7.492305E+05  3.375844E+05  9.164683E+03  5.062236E+05  4.345624E+03  6.661689E+03
        23  23  7.378299E+05  3.483189E+05  1.622680E+04  5.086937E+05  8.141881E+03  1.511286E+04
        23  24  7.510597E+05  3.408533E+05  2.963426E+04  5.037663E+05  1.228027E+04  2.310681E+04
        23  25  7.154672E+05  3.120213E+05 -6.440044E+02  4.885118E+05  8.935685E+03  1.009978E+04
        23  26  6.508287E+05  2.872944E+05 -7.939599E+03  4.652564E+05  1.218112E+04  1.813879E+04
        23  27  6.107050E+05  2.442495E+05 -9.366028E+03  4.346055E+05  1.576807E+04  2.572007E+04
        24   1  9.141914E+05  4.767586E+05  8.750777E+04  6.032555E+05 -9.071519E+03 -2.460696E+04
        24   2  9.907138E+05  4.886904E+05  1.337761E+05  6.064190E+05 -4.686087E+04 -5.352483E+04
        24   3  1.144273E+06  5.543591E+05  2.358953E+05  5.704580E+05 -9.088392E+04 -7.413494E+04
        24   4  7.518325E+05  3.378517E+05  3.801303E+04  5.105894E+05 -1.452641E+04 -2.869358E+04
        24   5  7.371173E+05  3.525573E+05  6.697264E+04  4.997725E+05 -4.231542E+04 -5.012324E+04
        24   6  7.972846E+05  4.188578E+05  1.431363E+05  4.498276E+05 -7.633102E+04 -6.324479E+04
        24   7  5.895052E+05  1.989708E+05 -1.148373E+04  4.179546E+05 -1.997933E+04 -3.277832E+04
        24   8  4.835944E+05  2.164435E+05  1.645709E+02  3.931698E+05 -3.777255E+04 -4.672298E+04
        24   9  4.504330E+05  2.833732E+05  5.037044E+04  3.292530E+05 -6.178948E+04 -5.235824E+04
        24  10  9.141911E+05  4.767579E+05  8.750648E+04  6.032553E+05 -1.141614E-10 -4.573766E-10
        24  11  9.907107E+05  4.886868E+05  1.337666E+05  6.064170E+05  5.615512E-10 -8.171546E-11
        24  12  1.144263E+06  5.543510E+05  2.358696E+05  5.704526E+05  3.073820E-10  2.709195E-11
        24  13  7.518320E+05  3.378508E+05  3.801109E+04  5.105890E+05 -6.107791E-10 -3.082453E-10
        24  14  7.371147E+05  3.525541E+05  6.696456E+04  4.997708E+05 -5.469266E-10  1.400096E-10
        24  15  7.972773E+05  4.188520E+05  1.431179E+05  4.498238E+05 -2.370619E-10 -5.152580E-11
        24  16  5.895045E+05  1.989695E+05 -1.148650E+04  4.179541E+05  3.895978E-10 -9.676919E-12
        24  17  4.835923E+05  2.164408E+05  1.577950E+02  3.931683E+05 -2.576977E-11 -5.970305E-11
        24  18  4.504282E+05  2.833692E+05  5.035813E+04  3.292504E+05  1.564451E-10  3.918162E-11
        24  19  9.141914E+05  4.767586E+05  8.750777E+04  6.032555E+05  9.071519E+03  2.460696E+04
        24  20  9.907138E+05  4.886904E+05  1.337761E+05  6.064190E+05  4.686087E+04  5.352483E+04
        24  21  1.144273E+06  5.543591E+05  2.358953E+05  5.704580E+05  9.088392E+04  7.413494E+04
        24  22  7.518325E+05  3.378517E+05  3.801303E+04  5.105894E+05  1.452641E+04  2.869358E+04
        24  23  7.371173E+05  3.525573E+05  6.697264E+04  4.997725E+05  4.231542E+04  5.012324E+04
        24  24  7.972846E+05  4.188578E+05  1.431363E+05  4.498276E+05  7.633102E+04  6.324479E+04
        24  25  5.895052E+05  1.989708E+05 -1.148373E+04  4.179546E+05  1.997933E+04  3.277832E+04
        24  26  4.835944E+05  2.164435E+05  1.645709E+02  3.931698E+05  3.777255E+04  4.672298E+04
        24  27  4.504330E+05  2.833732E+05  5.037044E+04  3.292530E+05  6.178948E+04  5.235824E+04
        25   1  1.141003E+06  7.980836E+04  9.283236E+04  4.384179E+04  6.332327E+04  4.463930E+00
        25   2  1.131632E+06  7.236308E+03  4.411775E+04  1.718742E+04  4.022823E+04  1.111758E+00
        25   3  1.141046E+06 -2.178171E+03  2.620924E+04 -9.465901E+03  1.713348E+04 -2.607768E-01
        25   4  1.141001E+06  7.980476E+04  9.283185E+04 -1.094116E-09  6.332327E+04 -9.976756E-11
        25   5  1.131632E+06  7.235754E+03  4.411767E+04 -1.060494E-09  4.022823E+04 -2.228965E-10
        25   6  1.141046E+06 -2.178339E+03  2.620921E+04 -2.377957E-09  1.713348E+04 -6.550440E-11
        25   7  1.141003E+06  7.980836E+04  9.283236E+04 -4.384179E+04  6.332327E+04 -4.463930E+00
        25   8  1.131632E+06  7.236308E+03  4.411775E+04 -1.718742E+04  4.022823E+04 -1.111758E+00
        25   9  1.141046E+06 -2.178171E+03  2.620924E+04  9.465901E+03  1.713348E+04  2.607768E-01
        25  10  1.140999E+06  7.980729E+04  9.282484E+04  4.384179E+04  1.484109E-10 -2.646987E-11
        25  11  1.131630E+06  7.235875E+03  4.411471E+04  1.718742E+04 -4.246637E-10  3.712988E-11
        25  12  1.141046E+06 -2.178250E+03  2.620869E+04 -9.465901E+03 -4.560449E-10  4.628963E-11
        25  13  1.140997E+06  7.980368E+04  9.282432E+04  4.084449E-10 -8.445146E-11 -1.176100E-10
        25  14  1.131630E+06  7.235320E+03  4.411463E+04 -7.974402E-10  3.897355E-28 -2.719718E-10
        25  15  1.141046E+06 -2.178418E+03  2.620866E+04 -2.121163E-09  2.355407E-10 -7.410086E-11
        25  16  1.140999E+06  7.980729E+04  9.282484E+04 -4.384179E+04  6.260787E-11 -2.435641E-10
        25  17  1.131630E+06  7.235875E+03  4.411471E+04 -1.718742E+04 -7.502589E-10 -5.986557E-10
        25  18  1.141046E+06 -2.178250E+03  2.620869E+04  9.465901E+03  7.282012E-11 -2.377361E-10
        25  19  1.141003E+06  7.980836E+04  9.283236E+04  4.384179E+04 -6.332327E+04 -4.463930E+00
        25  20  1.131632E+06  7.236308E+03  4.411775E+04  1.718742E+04 -4.022823E+04 -1.111758E+00
        25  21  1.141046E+06 -2.178171E+03  2.620924E+04 -9.465901E+03 -1.713348E+04  2.607768E-01
        25  22  1.141001E+06  7.980476E+04  9.283185E+04 -1.313063E-09 -6.332327E+04 -1.467449E-10
        25  23  1.131632E+06  7.235754E+03  4.411767E+04  2.223927E-11 -4.022823E+04 -3.458811E-10
        25  24  1.141046E+06 -2.178339E+03  2.620921E+04 -4.814738E-09 -1.713348E+04 -1.082705E-10
        25  25  1.141003E+06  7.980836E+04  9.283236E+04 -4.384179E+04 -6.332327E+04  4.463930E+00
        25  26  1.131632E+06  7.236308E+03  4.411775E+04 -1.718742E+04 -4.022823E+04  1.111758E+00
        25  27  1.141046E+06 -2.178171E+03  2.620924E+04  9.465901E+03 -1.713348E+04 -2.607768E-01
        26   1  1.137239E+06  3.111088E+03  2.137059E+04  1.156396E+03  1.345852E+04  2.502463E-02
        26   2  1.136401E+06  2.330135E+01  1.442838E+04  3.771193E+02  6.268729E+03  3.801216E-03
        26   3  1.137242E+06 -8.856194E+01  1.290490E+04 -4.021701E+02 -9.211389E+02  5.956596E-04
        26   4  1.137239E+06  3.111085E+03  2.137059E+04 -8.414131E-10  1.345852E+04 -5.019721E-11
        26   5  1.136401E+06  2.330108E+01  1.442838E+04 -3.772334E-10  6.268729E+03 -2.606508E-10
        26   6  1.137242E+06 -8.856224E+01  1.290490E+04 -2.076398E-09 -9.211389E+02 -2.254064E-10
        26   7  1.137239E+06  3.111088E+03  2.137059E+04 -1.156396E+03  1.345852E+04 -2.502464E-02
        26   8  1.136401E+06  2.330135E+01  1.442838E+04 -3.771193E+02  6.268729E+03 -3.801216E-03
        26   9  1.137242E+06 -8.856194E+01  1.290490E+04  4.021701E+02 -9.211389E+02 -5.956600E-04
        26  10  1.137239E+06  3.111039E+03  2.137025E+04  1.156396E+03  1.078763E-10  4.806695E-12
        26  11  1.136401E+06  2.329082E+01  1.442831E+04  3.771193E+02  6.644551E-10 -9.144493E-11
        26  12  1.137242E+06 -8.856217E+01  1.290490E+04 -4.021701E+02 -6.475009E-10 -1.965308E-10
        26  13  1.137239E+06  3.111037E+03  2.137025E+04 -3.405791E-10 -2.775591E-12  1.547197E-11
        26  14  1.136401E+06  2.329055E+01  1.442831E+04 -1.191644E-09  1.401786E-10 -5.716630E-11
        26  15  1.137242E+06 -8.856247E+01  1.290490E+04 -3.931469E-11  4.289566E-10 -7.212552E-11
        26  16  1.137239E+06  3.111039E+03  2.137025E+04 -1.156396E+03 -2.804591E-10 -2.131428E-11
        26  17  1.136401E+06  2.329082E+01  1.442831E+04 -3.771193E+02 -1.324165E-10 -3.720431E-11
        26  18  1.137242E+06 -8.856217E+01  1.290490E+04  4.021701E+02  4.663389E-10  1.205875E-10
        26  19  1.137239E+06  3.111088E+03  2.137059E+04  1.156396E+03 -1.345852E+04 -2.502463E-02
        26  20  1.136401E+06  2.330135E+01  1.442838E+04  3.771193E+02 -6.268729E+03 -3.801216E-03
        26  21  1.137242E+06 -8.856194E+01  1.290490E+04 -4.021701E+02  9.211389E+02 -5.956601E-04
        26  22  1.137239E+06  3.111085E+03  2.137059E+04 -1.988351E-09 -1.345852E+04  8.736353E-11
        26  23  1.136401E+06  2.330108E+01  1.442838E+04  1.752424E-09 -6.268729E+03  1.300965E-10
        26  24  1.137242E+06 -8.856224E+01  1.290490E+04 -2.596180E-09  9.211389E+02  6.993046E-11
        26  25  1.137239E+06  3.111088E+03  2.137059E+04 -1.156396E+03 -1.345852E+04  2.502464E-02
        26  26  1.136401E+06  2.330135E+01  1.442838E+04 -3.771193E+02 -6.268729E+03  3.801216E-03
        26  27  1.137242E+06 -8.856194E+01  1.290490E+04  4.021701E+02  9.211389E+02  5.956603E-04
        27   1  1.137371E+06 -1.992837E+02  1.361693E+04  8.190539E+02 -3.264386E+03 -4.299101E-03
        27   2  1.136239E+06  9.505405E+01  1.834353E+04 -3.933010E+02 -1.241524E+04  7.851353E-03
        27   3  1.137365E+06  4.666378E+03  3.008928E+04 -1.605651E+03 -2.156616E+04  5.567858E-02
        27   4  1.137371E+06 -1.992849E+02  1.361693E+04 -8.191157E-10 -3.264386E+03 -7.582863E-11
        27   5  1.136239E+06  9.505376E+01  1.834353E+04  5.216401E-10 -1.241524E+04 -6.657443E-13
        27   6  1.137365E+06  4.666373E+03  3.008928E+04 -4.861382E-10 -2.156616E+04 -1.527349E-10
        27   7  1.137371E+06 -1.992837E+02  1.361693E+04 -8.190539E+02 -3.264386E+03  4.299101E-03
        27   8  1.136239E+06  9.505405E+01  1.834353E+04  3.933010E+02 -1.241524E+04 -7.851353E-03
        27   9  1.137365E+06  4.666378E+03  3.008928E+04  1.605651E+03 -2.156616E+04 -5.567858E-02
        27  10  1.137371E+06 -1.992865E+02  1.361691E+04  8.190539E+02 -1.253026E-10 -2.897647E-10
        27  11  1.136239E+06  9.501276E+01  1.834324E+04 -3.933010E+02  5.511144E-11 -1.434468E-10
        27  12  1.137364E+06  4.666253E+03  3.008840E+04 -1.605651E+03  4.371257E-10 -8.179755E-11
        27  13  1.137371E+06 -1.992878E+02  1.361691E+04  5.424660E-11  7.575796E-10 -3.267045E-11
        27  14  1.136239E+06  9.501247E+01  1.834324E+04 -2.130006E-11 -4.415877E-10  3.809969E-11
        27  15  1.137364E+06  4.666248E+03  3.008840E+04  3.535179E-10 -3.819801E-11 -2.587802E-12
        27  16  1.137371E+06 -1.992865E+02  1.361691E+04 -8.190539E+02  1.385553E-10  2.502629E-10
        27  17  1.136239E+06  9.501276E+01  1.834324E+04  3.933010E+02 -3.876138E-10  2.323216E-10
        27  18  1.137364E+06  4.666253E+03  3.008840E+04  1.605651E+03 -3.093887E-10  1.805450E-11
        27  19  1.137371E+06 -1.992837E+02  1.361693E+04  8.190539E+02  3.264386E+03  4.299101E-03
        27  20  1.136239E+06  9.505405E+01  1.834353E+04 -3.933010E+02  1.241524E+04 -7.851354E-03
        27  21  1.137365E+06  4.666378E+03  3.008928E+04 -1.605651E+03  2.156616E+04 -5.567858E-02
        27  22  1.137371E+06 -1.992849E+02  1.361693E+04 -1.829205E-09  3.264386E+03  2.563283E-11
        27  23  1.136239E+06  9.505376E+01  1.834353E+04 -1.090336E-09  1.241524E+04  8.946916E-11
        27  24  1.137365E+06  4.666373E+03  3.008928E+04 -2.754714E-09  2.156616E+04  1.517216E-10
        27  25  1.137371E+06 -1.992837E+02  1.361693E+04 -8.190539E+02  3.264386E+03 -4.299101E-03
        27  26  1.136239E+06  9.505405E+01  1.834353E+04  3.933010E+02  1.241524E+04  7.851354E-03
        27  27  1.137365E+06  4.666378E+03  3.008928E+04  1.605651E+03  2.156616E+04  5.567858E-02
        28   1  1.143083E+06 -3.225103E+03  3.777214E+04  1.418816E+04 -2.676689E+04 -6.106386E-01
        28   2  1.129076E+06  1.079665E+04  6.514109E+04 -2.554614E+04 -6.088318E+04  2.500885E+00
        28   3  1.143021E+06  1.189219E+05  1.382208E+05 -6.528127E+04 -9.499885E+04  9.971806E+00
        28   4  1.143083E+06 -3.225481E+03  3.777208E+04  1.149907E-09 -2.676689E+04 -2.075578E-10
        28   5  1.129075E+06  1.079542E+04  6.514091E+04  6.467102E-10 -6.088318E+04 -2.011399E-10
        28   6  1.143016E+06  1.189139E+05  1.382196E+05 -1.030837E-09 -9.499885E+04  4.686943E-11
        28   7  1.143083E+06 -3.225103E+03  3.777214E+04 -1.418816E+04 -2.676689E+04  6.106386E-01
        28   8  1.129076E+06  1.079665E+04  6.514109E+04  2.554614E+04 -6.088318E+04 -2.500885E+00
        28   9  1.143021E+06  1.189219E+05  1.382208E+05  6.528127E+04 -9.499885E+04 -9.971806E+00
        28  10  1.143082E+06 -3.225295E+03  3.777079E+04  1.418816E+04 -1.423864E-10  3.590199E-11
        28  11  1.129072E+06  1.079565E+04  6.513414E+04 -2.554614E+04  1.394902E-10  1.311428E-10
        28  12  1.143011E+06  1.189195E+05  1.382038E+05 -6.528127E+04  3.831330E-10  3.441199E-11
        28  13  1.143082E+06 -3.225673E+03  3.777074E+04  2.046416E-09  2.180819E-10  2.429700E-11
        28  14  1.129071E+06  1.079443E+04  6.513396E+04  3.836552E-10 -7.399968E-10  1.107761E-10
        28  15  1.143007E+06  1.189115E+05  1.382027E+05 -1.018229E-09  3.280204E-10  5.123045E-11
        28  16  1.143082E+06 -3.225295E+03  3.777079E+04 -1.418816E+04 -1.935402E-10  5.495308E-11
        28  17  1.129072E+06  1.079565E+04  6.513414E+04  2.554614E+04  6.333794E-11  8.279628E-11
        28  18  1.143011E+06  1.189195E+05  1.382038E+05  6.528127E+04  6.659095E-11  4.973055E-11
        28  19  1.143083E+06 -3.225103E+03  3.777214E+04  1.418816E+04  2.676689E+04  6.106386E-01
        28  20  1.129076E+06  1.079665E+04  6.514109E+04 -2.554614E+04  6.088318E+04 -2.500885E+00
        28  21  1.143021E+06  1.189219E+05  1.382208E+05 -6.528127E+04  9.499885E+04 -9.971806E+00
        28  22  1.143083E+06 -3.225481E+03  3.777208E+04 -2.957325E-10  2.676689E+04  2.683360E-10
        28  23  1.129075E+06  1.079542E+04  6.514091E+04  1.738903E-09  6.088318E+04  4.253368E-10
        28  24  1.143016E+06  1.189139E+05  1.382196E+05 -4.163619E-10  9.499885E+04  6.118020E-11
        28  25  1.143083E+06 -3.225103E+03  3.777214E+04 -1.418816E+04  2.676689E+04 -6.106386E-01
        28  26  1.129076E+06  1.079665E+04  6.514109E+04  2.554614E+04  6.088318E+04  2.500885E+00
        28  27  1.143021E+06  1.189219E+05  1.382208E+05  6.528127E+04  9.499885E+04  9.971806E+00
        29   1 -3.007439E+05 -8.957806E+05 -3.393454E+05  1.548241E+05 -3.062597E+03 -2.032366E+05
        29   2 -6.976874E+04 -8.399475E+05 -1.796579E+05  6.897904E+04 -9.578711E+03 -1.240366E+05
        29   3 -3.464184E+04 -8.434038E+05 -1.205307E+05 -8.938908E+03 -1.023117E+04 -4.483184E+04
        29   4 -2.454408E+05 -6.727315E+05 -2.858863E+05  2.004186E+04 -3.017785E+03 -1.918986E+05
        29   5 -2.216517E+04 -6.436610E+05 -1.380110E+05  1.606145E+04 -9.567480E+03 -1.197288E+05
        29   6  6.493585E+03 -6.726529E+05 -8.579153E+04  2.001887E+04 -1.023344E+04 -4.755865E+04
        29   7 -1.900728E+05 -4.495974E+05 -2.324205E+05 -1.147891E+05 -2.977916E+03 -1.805565E+05
        29   8  2.544645E+04 -4.473322E+05 -9.636466E+04 -3.687315E+04 -9.556987E+03 -1.154196E+05
        29   9  4.763035E+04 -5.018724E+05 -5.105340E+04  4.898477E+04 -1.023597E+04 -5.028619E+04
        29  10 -3.007550E+05 -8.958250E+05 -3.394232E+05  1.548236E+05  1.076073E-10 -4.212715E-11
        29  11 -6.977298E+04 -8.399641E+05 -1.796870E+05  6.897808E+04  3.689309E-10  2.685909E-10
        29  12 -3.464249E+04 -8.434060E+05 -1.205347E+05 -8.939277E+03  6.536474E-10  5.383399E-10
        29  13 -2.454507E+05 -6.727711E+05 -2.859556E+05  2.004139E+04 -1.113906E-11  1.780893E-11
        29  14 -2.216912E+04 -6.436765E+05 -1.380381E+05  1.606052E+04  2.967093E-10  1.021569E-11
        29  15  6.492864E+03 -6.726554E+05 -8.579598E+04  2.001848E+04 -2.538489E-10  2.876355E-11
        29  16 -1.900816E+05 -4.496325E+05 -2.324818E+05 -1.147895E+05 -4.877743E-11  4.048526E-11
        29  17  2.544278E+04 -4.473465E+05 -9.638989E+04 -3.687404E+04 -2.993638E-10 -2.898039E-10
        29  18  4.762956E+04 -5.018751E+05 -5.105835E+04  4.898435E+04  8.587318E-10 -5.193328E-10
        29  19 -3.007439E+05 -8.957806E+05 -3.393454E+05  1.548241E+05  3.062597E+03  2.032366E+05
        29  20 -6.976874E+04 -8.399475E+05 -1.796579E+05  6.897904E+04  9.578711E+03  1.240366E+05
        29  21 -3.464184E+04 -8.434038E+05 -1.205307E+05 -8.938908E+03  1.023117E+04  4.483184E+04
        29  22 -2.454408E+05 -6.727315E+05 -2.858863E+05  2.004186E+04  3.017785E+03  1.918986E+05
        29  23 -2.216517E+04 -6.436610E+05 -1.380110E+05  1.606145E+04  9.567480E+03  1.197288E+05
        29  24  6.493585E+03 -6.726529E+05 -8.579153E+04  2.001887E+04  1.023344E+04  4.755865E+04
        29  25 -1.900728E+05 -4.495974E+05 -2.324205E+05 -1.147891E+05  2.977916E+03  1.805565E+05
        29  26  2.544645E+04 -4.473322E+05 -9.636466E+04 -3.687315E+04  9.556987E+03  1.154196E+05
        29  27  4.763035E+04 -5.018724E+05 -5.105340E+04  4.898477E+04  1.023597E+04  5.028619E+04
        30   1 -4.585899E+04 -8.132159E+05 -1.037314E+05  2.483840E+04 -9.015800E+03 -3.389386E+04
        30   2 -3.075518E+04 -7.832183E+05 -8.256621E+04  1.604689E+04 -7.725985E+03 -4.923693E+03
        30   3 -3.102581E+04 -7.608407E+05 -8.411987E+04  1.553905E+04 -6.082225E+03  2.404753E+04
        30   4 -9.292333E+03 -6.614376E+05 -7.279259E+04  2.010043E+04 -9.015597E+03 -3.522707E+04
        30   5 -5.477154E+02 -6.576627E+05 -5.718578E+04  1.595826E+04 -7.726214E+03 -6.675920E+03
        30   6 -7.102681E+03 -6.614340E+05 -6.400306E+04  2.009984E+04 -6.082487E+03  2.187511E+04
        30   7  2.727297E+04 -5.096373E+05 -4.185498E+04  1.536128E+04 -9.015374E+03 -3.656060E+04
        30   8  2.965877E+04 -5.320921E+05 -3.180614E+04  1.586960E+04 -7.726442E+03 -8.428495E+03
        30   9  1.681992E+04 -5.620178E+05 -4.388674E+04  2.466137E+04 -6.082781E+03  1.970235E+04
        30  10 -4.585939E+04 -8.132172E+05 -1.037337E+05  2.483816E+04  5.007955E-10 -3.207625E-10
        30  11 -3.075525E+04 -7.832183E+05 -8.256637E+04  1.604686E+04  4.251407E-10 -4.032287E-10
        30  12 -3.102601E+04 -7.608413E+05 -8.412103E+04  1.553917E+04  4.262589E-10 -3.381122E-10
        30  13 -9.292754E+03 -6.614390E+05 -7.279508E+04  2.010018E+04  6.058396E-10  1.268326E-10
        30  14 -5.477915E+02 -6.576628E+05 -5.718597E+04  1.595822E+04  6.028690E-10  5.751054E-11
        30  15 -7.102850E+03 -6.614345E+05 -6.400403E+04  2.009994E+04  5.621196E-11  5.667008E-11
        30  16  2.727252E+04 -5.096388E+05 -4.185765E+04  1.536102E+04  7.678471E-10  4.013993E-10
        30  17  2.965869E+04 -5.320922E+05 -3.180639E+04  1.586955E+04 -1.310245E-10  3.805431E-10
        30  18  1.681977E+04 -5.620182E+05 -4.388754E+04  2.466146E+04 -6.488209E-10  3.294967E-10
        30  19 -4.585899E+04 -8.132159E+05 -1.037314E+05  2.483840E+04  9.015800E+03  3.389386E+04
        30  20 -3.075518E+04 -7.832183E+05 -8.256621E+04  1.604689E+04  7.725985E+03  4.923693E+03
        30  21 -3.102581E+04 -7.608407E+05 -8.411987E+04  1.553905E+04  6.082225E+03 -2.404753E+04
        30  22 -9.292333E+03 -6.614376E+05 -7.279259E+04  2.010043E+04  9.015597E+03  3.522707E+04
        30  23 -5.477154E+02 -6.576627E+05 -5.718578E+04  1.595826E+04  7.726214E+03  6.675920E+03
        30  24 -7.102681E+03 -6.614340E+05 -6.400306E+04  2.009984E+04  6.082487E+03 -2.187511E+04
        30  25  2.727297E+04 -5.096373E+05 -4.185498E+04  1.536128E+04  9.015374E+03  3.656060E+04
        30  26  2.965877E+04 -5.320921E+05 -3.180614E+04  1.586960E+04  7.726442E+03  8.428495E+03
        30  27  1.681992E+04 -5.620178E+05 -4.388674E+04  2.466137E+04  6.082781E+03 -1.970235E+04
        31   1 -1.431478E+04 -7.505179E+05 -8.860330E+04  4.260817E+04 -5.073657E+03  3.458963E+04
        31   2 -3.047350E+04 -7.013164E+05 -1.218852E+05 -2.587299E+04 -3.162782E+03  9.303985E+04
        31   3 -1.998255E+05 -6.980363E+05 -2.315402E+05 -8.598312E+04 -7.718814E+02  1.514917E+05
        31   4  5.039147E+03 -6.699314E+05 -7.241383E+04  2.010867E+04 -5.075357E+03  3.260440E+04
        31   5 -1.736869E+04 -6.470464E+05 -1.107875E+05  1.594839E+04 -3.157159E+03  9.046866E+04
        31   6 -1.928772E+05 -6.699900E+05 -2.251268E+05  2.015690E+04 -7.468328E+02  1.483324E+05
        31   7  2.439459E+04 -5.893376E+05 -5.622439E+04 -2.393806E+03 -5.076914E+03  3.061892E+04
        31   8 -4.257480E+03 -5.927699E+05 -9.968891E+04  5.777350E+04 -3.151883E+03  8.789724E+04
        31   9 -1.858866E+05 -6.419187E+05 -2.187074E+05  1.263018E+05 -7.228665E+02  1.451729E+05
        31  10 -1.431513E+04 -7.505192E+05 -8.860560E+04  4.260831E+04  2.086611E-10 -4.910403E-10
        31  11 -3.047584E+04 -7.013257E+05 -1.219015E+05 -2.587275E+04 -1.130767E-10 -1.149441E-10
        31  12 -1.998316E+05 -6.980610E+05 -2.315833E+05 -8.598303E+04 -2.701604E-10  6.105359E-10
        31  13  5.038834E+03 -6.699326E+05 -7.241587E+04  2.010881E+04 -6.084029E-10  1.344021E-10
        31  14 -1.737090E+04 -6.470552E+05 -1.108029E+05  1.594862E+04 -4.628127E-10  3.795129E-11
        31  15 -1.928831E+05 -6.700136E+05 -2.251682E+05  2.015699E+04 -1.015089E-10  7.063141E-11
        31  16  2.439431E+04 -5.893386E+05 -5.622621E+04 -2.393681E+03 -5.818485E-10  5.852138E-10
        31  17 -4.259568E+03 -5.927782E+05 -9.970346E+04  5.777372E+04 -1.181005E-10 -1.425170E-11
        31  18 -1.858923E+05 -6.419413E+05 -2.187471E+05  1.263019E+05 -2.199438E-10 -5.886611E-10
        31  19 -1.431478E+04 -7.505179E+05 -8.860330E+04  4.260817E+04  5.073657E+03 -3.458963E+04
        31  20 -3.047350E+04 -7.013164E+05 -1.218852E+05 -2.587299E+04  3.162782E+03 -9.303985E+04
        31  21 -1.998255E+05 -6.980363E+05 -2.315402E+05 -8.598312E+04  7.718814E+02 -1.514917E+05
        31  22  5.039147E+03 -6.699314E+05 -7.241383E+04  2.010867E+04  5.075357E+03 -3.260440E+04
        31  23 -1.736869E+04 -6.470464E+05 -1.107875E+05  1.594839E+04  3.157159E+03 -9.046866E+04
        31  24 -1.928772E+05 -6.699900E+05 -2.251268E+05  2.015690E+04  7.468328E+02 -1.483324E+05
        31  25  2.439459E+04 -5.893376E+05 -5.622439E+04 -2.393806E+03  5.076914E+03 -3.061892E+04
        31  26 -4.257480E+03 -5.927699E+05 -9.968891E+04  5.777350E+04  3.151883E+03 -8.789724E+04
        31  27 -1.858866E+05 -6.419187E+05 -2.187074E+05  1.263018E+05  7.228665E+02 -1.451729E+05
        32   1  1.866647E+05 -2.641695E+03 -9.682501E+04  1.697113E+05 -2.497802E+04 -1.316520E+04
        32   2  2.161544E+05  4.277462E+04 -6.898538E+04  1.841749E+05 -1.902214E+04  3.212132E+03
        32   3  2.515029E+05  6.460406E+04 -5.380744E+04  1.983156E+05 -7.700123E+03  1.243652E+04
        32   4  4.258617E+05  1.797471E+05 -1.588003E+04  2.937868E+05 -1.153434E+04 -3.084756E+03
        32   5  4.245317E+05  1.951084E+05 -7.359013E+03  2.905769E+05 -1.416378E+04  6.854074E+03
        32   6  4.309234E+05  1.887472E+05 -4.048646E+03  2.870423E+05 -1.142916E+04  9.640522E+03
        32   7  6.651198E+05  3.621730E+05  6.505815E+04  4.179181E+05  1.916408E+03  7.001498E+03
        32   8  6.329559E+05  3.474680E+05  5.426239E+04  3.970196E+05 -9.303238E+03  1.049773E+04
        32   9  6.103779E+05  3.129066E+05  4.570646E+04  3.757970E+05 -1.515962E+04  6.843490E+03
        32  10  1.866639E+05 -2.642048E+03 -9.682651E+04  1.697110E+05  4.723360E-10  1.071572E-10
        32  11  2.161540E+05  4.277451E+04 -6.898608E+04  1.841750E+05 -4.093986E-10 -2.287948E-10
        32  12  2.515028E+05  6.460388E+04 -5.380784E+04  1.983157E+05 -4.712488E-10 -2.121412E-10
        32  13  4.258615E+05  1.797470E+05 -1.588030E+04  2.937868E+05 -2.584686E-10 -8.107289E-11
        32  14  4.245315E+05  1.951083E+05 -7.359478E+03  2.905770E+05 -2.444919E-10 -8.464774E-11
        32  15  4.309233E+05  1.887471E+05 -4.049066E+03  2.870424E+05  1.897081E-10  2.428019E-10
        32  16  6.651197E+05  3.621729E+05  6.505805E+04  4.179181E+05 -4.530120E-11 -2.078231E-10
        32  17  6.329557E+05  3.474679E+05  5.426202E+04  3.970197E+05  3.116230E-10  6.976892E-11
        32  18  6.103776E+05  3.129065E+05  4.570594E+04  3.757971E+05  1.837762E-10  7.025060E-10
        32  19  1.866647E+05 -2.641695E+03 -9.682501E+04  1.697113E+05  2.497802E+04  1.316520E+04
        32  20  2.161544E+05  4.277462E+04 -6.898538E+04  1.841749E+05  1.902214E+04 -3.212132E+03
        32  21  2.515029E+05  6.460406E+04 -5.380744E+04  1.983156E+05  7.700123E+03 -1.243652E+04
        32  22  4.258617E+05  1.797471E+05 -1.588003E+04  2.937868E+05  1.153434E+04  3.084756E+03
        32  23  4.245317E+05  1.951084E+05 -7.359013E+03  2.905769E+05  1.416378E+04 -6.854074E+03
        32  24  4.309234E+05  1.887472E+05 -4.048646E+03  2.870423E+05  1.142916E+04 -9.640522E+03
        32  25  6.651198E+05  3.621730E+05  6.505815E+04  4.179181E+05 -1.916408E+03 -7.001498E+03
        32  26  6.329559E+05  3.474680E+05  5.426239E+04  3.970196E+05  9.303238E+03 -1.049773E+04
        32  27  6.103779E+05  3.129066E+05  4.570646E+04  3.757970E+05  1.515962E+04 -6.843490E+03
        33   1  2.778690E+05  7.971148E+04 -4.605293E+04  2.108036E+05 -7.702540E+03  9.804873E+03
        33   2  3.046934E+05  1.111655E+05 -3.462615E+04  2.295931E+05 -5.256582E+03  8.680678E+03
        33   3  3.451861E+05  1.280728E+05 -2.417679E+04  2.444018E+05 -2.515607E+03  7.162390E+03
        33   4  4.311158E+05  1.883140E+05 -3.056035E+03  2.877691E+05 -9.739833E+03  8.277336E+03
        33   5  4.243356E+05  1.957208E+05 -1.380438E+03  2.896235E+05 -7.766828E+03  6.798910E+03
        33   6  4.313247E+05  1.886827E+05 -2.719694E+02  2.874958E+05 -5.498912E+03  4.926382E+03
        33   7  5.843889E+05  2.969300E+05  3.993857E+04  3.647563E+05 -1.177781E+04  6.749288E+03
        33   8  5.439944E+05  2.802849E+05  3.186419E+04  3.496674E+05 -1.027774E+04  4.916641E+03
        33   9  5.174727E+05  2.492976E+05  2.363257E+04  3.305971E+05 -8.482814E+03  2.689928E+03
        33  10  2.778689E+05  7.971136E+04 -4.605322E+04  2.108036E+05  1.080058E-09  7.185214E-10
        33  11  3.046934E+05  1.111654E+05 -3.462634E+04  2.295932E+05  1.648858E-10  3.416161E-11
        33  12  3.451861E+05  1.280728E+05 -2.417690E+04  2.444018E+05 -4.948448E-10 -2.652024E-10
        33  13  4.311157E+05  1.883139E+05 -3.056342E+03  2.877692E+05 -2.367198E-10  3.059303E-10
        33  14  4.243355E+05  1.957207E+05 -1.380638E+03  2.896235E+05 -9.832132E-12 -1.763637E-10
        33  15  4.313247E+05  1.886827E+05 -2.720718E+02  2.874958E+05 -8.071914E-11 -3.191793E-10
        33  16  5.843887E+05  2.969299E+05  3.993822E+04  3.647564E+05 -7.655068E-10 -2.739644E-10
        33  17  5.439943E+05  2.802848E+05  3.186395E+04  3.496674E+05 -2.081075E-10 -4.742865E-10
        33  18  5.174727E+05  2.492976E+05  2.363242E+04  3.305971E+05  3.068375E-10 -4.274215E-10
        33  19  2.778690E+05  7.971148E+04 -4.605293E+04  2.108036E+05  7.702540E+03 -9.804873E+03
        33  20  3.046934E+05  1.111655E+05 -3.462615E+04  2.295931E+05  5.256582E+03 -8.680678E+03
        33  21  3.451861E+05  1.280728E+05 -2.417679E+04  2.444018E+05  2.515607E+03 -7.162390E+03
        33  22  4.311158E+05  1.883140E+05 -3.056035E+03  2.877691E+05  9.739833E+03 -8.277336E+03
        33  23  4.243356E+05  1.957208E+05 -1.380438E+03  2.896235E+05  7.766828E+03 -6.798910E+03
        33  24  4.313247E+05  1.886827E+05 -2.719694E+02  2.874958E+05  5.498912E+03 -4.926382E+03
        33  25  5.843889E+05  2.969300E+05  3.993857E+04  3.647563E+05  1.177781E+04 -6.749288E+03
        33  26  5.439944E+05  2.802849E+05  3.186419E+04  3.496674E+05  1.027774E+04 -4.916641E+03
        33  27  5.174727E+05  2.492976E+05  2.363257E+04  3.305971E+05  8.482814E+03 -2.689928E+03
        34   1  3.694847E+05  1.451260E+05 -1.677065E+04  2.565565E+05 -1.526414E+03  5.654170E+03
        34   2  3.960435E+05  1.759344E+05 -6.456013E+03  2.754928E+05 -2.370010E+02  2.855164E+03
        34   3  4.367646E+05  1.927457E+05  4.295110E+03  2.903333E+05  1.055504E+03  5.173353E+01
        34   4  4.313548E+05  1.886788E+05  2.229445E+02  2.875496E+05 -4.419130E+03  3.486184E+03
        34   5  4.242865E+05  1.957000E+05  1.320302E+03  2.895806E+05 -3.135039E+03  6.832869E+02
        34   6  4.313809E+05  1.887252E+05  2.859023E+03  2.875150E+05 -1.847819E+03 -2.124012E+03
        34   7  4.932284E+05  2.322332E+05  1.721594E+04  3.185458E+05 -7.312198E+03  1.317937E+03
        34   8  4.525302E+05  2.154659E+05  9.096525E+03  3.036690E+05 -6.033235E+03 -1.488708E+03
        34   9  4.259972E+05  1.847047E+05  1.422984E+03  2.846968E+05 -4.751107E+03 -4.299730E+03
        34  10  3.694847E+05  1.451260E+05 -1.677071E+04  2.565565E+05 -3.166711E-10 -3.417947E-10
        34  11  3.960435E+05  1.759344E+05 -6.456029E+03  2.754928E+05 -4.271784E-10 -2.530090E-10
        34  12  4.367646E+05  1.927457E+05  4.295108E+03  2.903333E+05  4.551656E-10  7.979004E-11
        34  13  4.313548E+05  1.886788E+05  2.228849E+02  2.875496E+05  3.610616E-10 -1.995731E-10
        34  14  4.242865E+05  1.957000E+05  1.320283E+03  2.895806E+05 -1.524346E-10  9.519943E-11
        34  15  4.313809E+05  1.887252E+05  2.859008E+03  2.875150E+05 -5.543159E-10  9.414798E-11
        34  16  4.932284E+05  2.322332E+05  1.721584E+04  3.185458E+05  7.716269E-10 -1.038566E-10
        34  17  4.525301E+05  2.154659E+05  9.096452E+03  3.036690E+05  4.469107E-11  2.964197E-11
        34  18  4.259972E+05  1.847046E+05  1.422907E+03  2.846968E+05  7.016137E-11 -1.054018E-10
        34  19  3.694847E+05  1.451260E+05 -1.677065E+04  2.565565E+05  1.526414E+03 -5.654170E+03
        34  20  3.960435E+05  1.759344E+05 -6.456013E+03  2.754928E+05  2.370010E+02 -2.855164E+03
        34  21  4.367646E+05  1.927457E+05  4.295110E+03  2.903333E+05 -1.055504E+03 -5.173353E+01
        34  22  4.313548E+05  1.886788E+05  2.229445E+02  2.875496E+05  4.419130E+03 -3.486184E+03
        34  23  4.242865E+05  1.957000E+05  1.320302E+03  2.895806E+05  3.135039E+03 -6.832869E+02
        34  24  4.313809E+05  1.887252E+05  2.859023E+03  2.875150E+05  1.847819E+03  2.124012E+03
        34  25  4.932284E+05  2.322332E+05  1.721594E+04  3.185458E+05  7.312198E+03 -1.317937E+03
        34  26  4.525302E+05  2.154659E+05  9.096525E+03  3.036690E+05  6.033235E+03  1.488708E+03
        34  27  4.259972E+05  1.847047E+05  1.422984E+03  2.846968E+05  4.751107E+03  4.299730E+03
        35   1  4.607036E+05  2.101360E+05  1.224282E+04  3.026997E+05  1.723570E+03 -1.691236E+03
        35   2  4.876272E+05  2.403331E+05  2.467259E+04  3.211719E+05  2.844673E+02 -6.393863E+03
        35   3  5.299626E+05  2.580863E+05  4.017572E+04  3.350794E+05 -1.385020E+03 -1.078932E+04
        35   4  4.314401E+05  1.886953E+05  3.898140E+03  2.876781E+05 -1.247939E+03 -3.918119E+03
        35   5  4.241744E+05  1.956713E+05  7.028166E+03  2.894245E+05 -2.317655E+03 -8.344109E+03
        35   6  4.322394E+05  1.901224E+05  1.291165E+04  2.866049E+05 -3.617513E+03 -1.246269E+04
        35   7  4.021771E+05  1.672549E+05 -4.446706E+03  2.726572E+05 -4.219295E+03 -6.144882E+03
        35   8  3.607261E+05  1.510118E+05 -1.061661E+04  2.576808E+05 -4.919419E+03 -1.029409E+04
        35   9  3.345281E+05  1.221647E+05 -1.435290E+04  2.381396E+05 -5.849504E+03 -1.413570E+04
        35  10  4.607036E+05  2.101360E+05  1.224281E+04  3.026997E+05 -4.337376E-10 -2.054625E-10
        35  11  4.876271E+05  2.403331E+05  2.467252E+04  3.211719E+05  6.251887E-10  1.284483E-10
        35  12  5.299625E+05  2.580862E+05  4.017550E+04  3.350794E+05  6.349069E-10  4.180871E-10
        35  13  4.314401E+05  1.886953E+05  3.898108E+03  2.876781E+05 -1.415717E-10  2.507358E-10
        35  14  4.241743E+05  1.956712E+05  7.028025E+03  2.894245E+05  9.859084E-11  4.213321E-10
        35  15  4.322394E+05  1.901222E+05  1.291134E+04  2.866048E+05  1.966514E-10  1.545138E-10
        35  16  4.021770E+05  1.672548E+05 -4.446810E+03  2.726572E+05 -3.348402E-10  4.639480E-10
        35  17  3.607260E+05  1.510117E+05 -1.061686E+04  2.576807E+05 -8.916952E-10  4.334848E-10
        35  18  3.345280E+05  1.221644E+05 -1.435334E+04  2.381395E+05 -9.323314E-11 -1.212799E-10
        35  19  4.607036E+05  2.101360E+05  1.224282E+04  3.026997E+05 -1.723570E+03  1.691236E+03
        35  20  4.876272E+05  2.403331E+05  2.467259E+04  3.211719E+05 -2.844673E+02  6.393863E+03
        35  21  5.299626E+05  2.580863E+05  4.017572E+04  3.350794E+05  1.385020E+03  1.078932E+04
        35  22  4.314401E+05  1.886953E+05  3.898140E+03  2.876781E+05  1.247939E+03  3.918119E+03
        35  23  4.241744E+05  1.956713E+05  7.028166E+03  2.894245E+05  2.317655E+03  8.344109E+03
        35  24  4.322394E+05  1.901224E+05  1.291165E+04  2.866049E+05  3.617513E+03  1.246269E+04
        35  25  4.021771E+05  1.672549E+05 -4.446706E+03  2.726572E+05  4.219295E+03  6.144882E+03
        35  26  3.607261E+05  1.510118E+05 -1.061661E+04  2.576808E+05  4.919419E+03  1.029409E+04
        35  27  3.345281E+05  1.221647E+05 -1.435290E+04  2.381396E+05  5.849504E+03  1.413570E+04
        36   1  5.477846E+05  2.808779E+05  5.063324E+04  3.522985E+05 -6.420108E+02 -1.277087E+04
        36   2  5.898027E+05  2.960160E+05  7.456346E+04  3.596692E+05 -1.948097E+04 -2.715442E+04
        36   3  6.704411E+05  3.307049E+05  1.249282E+05  3.486501E+05 -4.250487E+04 -3.595987E+04
        36   4  4.325473E+05  1.888407E+05  1.658102E+04  2.895962E+05 -4.193558E+03 -1.543294E+04
        36   5  4.239010E+05  1.974826E+05  2.924467E+04  2.855197E+05 -1.632672E+04 -2.479105E+04
        36   6  4.524245E+05  2.242293E+05  6.253326E+04  2.630515E+05 -3.264309E+04 -2.857005E+04
        36   7  3.173248E+05  9.681377E+04 -1.747259E+04  2.269079E+05 -7.744225E+03 -1.809423E+04
        36   8  2.580286E+05  9.895855E+04 -1.607696E+04  2.113903E+05 -1.317360E+04 -2.242834E+04
        36   9  2.344575E+05  1.177623E+05  1.337705E+02  1.774798E+05 -2.278599E+04 -2.118228E+04
        36  10  5.477845E+05  2.808778E+05  5.063293E+04  3.522985E+05  7.335316E-11  1.236338E-10
        36  11  5.898021E+05  2.960151E+05  7.456136E+04  3.596688E+05 -1.005581E-11  1.742784E-10
        36  12  6.704388E+05  3.307031E+05  1.249223E+05  3.486489E+05  3.079660E-10  8.852664E-11
        36  13  4.325472E+05  1.888405E+05  1.658054E+04  2.895961E+05 -6.436809E-11  9.989006E-11
        36  14  4.239005E+05  1.974819E+05  2.924301E+04  2.855194E+05 -1.301051E-10 -2.923490E-12
        36  15  4.524232E+05  2.242281E+05  6.252973E+04  2.630507E+05 -5.854909E-10  3.353298E-11
        36  16  3.173246E+05  9.681340E+04 -1.747331E+04  2.269078E+05 -2.101371E-10  3.424344E-12
        36  17  2.580282E+05  9.895797E+04 -1.607823E+04  2.113901E+05 -2.824716E-10 -1.640094E-11
        36  18  2.344568E+05  1.177617E+05  1.319527E+02  1.774794E+05 -9.920837E-11 -1.169085E-11
        36  19  5.477846E+05  2.808779E+05  5.063324E+04  3.522985E+05  6.420108E+02  1.277087E+04
        36  20  5.898027E+05  2.960160E+05  7.456346E+04  3.596692E+05  1.948097E+04  2.715442E+04
        36  21  6.704411E+05  3.307049E+05  1.249282E+05  3.486501E+05  4.250487E+04  3.595987E+04
        36  22  4.325473E+05  1.888407E+05  1.658102E+04  2.895962E+05  4.193558E+03  1.543294E+04
        36  23  4.239010E+05  1.974826E+05  2.924467E+04  2.855197E+05  1.632672E+04  2.479105E+04
        36  24  4.524245E+05  2.242293E+05  6.253326E+04  2.630515E+05  3.264309E+04  2.857005E+04
        36  25  3.173248E+05  9.681377E+04 -1.747259E+04  2.269079E+05  7.744225E+03  1.809423E+04
        36  26  2.580286E+05  9.895855E+04 -1.607696E+04  2.113903E+05  1.317360E+04  2.242834E+04
        36  27  2.344575E+05  1.177623E+05  1.337705E+02  1.774798E+05  2.278599E+04  2.118228E+04
        37   1  8.160031E+05  6.032211E+04  7.015580E+04  3.312280E+04  4.790704E+04  2.552751E+00
        37   2  8.089153E+05  5.467460E+03  3.328922E+04  1.298063E+04  3.048056E+04  6.365064E-01
        37   3  8.160262E+05 -1.645520E+03  1.969360E+04 -7.161473E+03  1.305379E+04 -1.503896E-01
        37   4  8.160019E+05  6.032006E+04  7.015550E+04 -1.072980E-09  4.790704E+04 -1.044056E-10
        37   5  8.089151E+05  5.467144E+03  3.328917E+04  1.905702E-10  3.048056E+04 -9.550633E-11
        37   6  8.160261E+05 -1.645616E+03  1.969359E+04 -2.586808E-10  1.305379E+04  2.551199E-10
        37   7  8.160031E+05  6.032211E+04  7.015580E+04 -3.312280E+04  4.790704E+04 -2.552751E+00
        37   8  8.089153E+05  5.467460E+03  3.328922E+04 -1.298063E+04  3.048056E+04 -6.365064E-01
        37   9  8.160262E+05 -1.645520E+03  1.969360E+04  7.161473E+03  1.305379E+04  1.503896E-01
        37  10  8.160006E+05  6.032150E+04  7.015149E+04  3.312280E+04 -7.584110E-11 -2.098426E-11
        37  11  8.089143E+05  5.467211E+03  3.328747E+04  1.298063E+04 -3.077577E-10  3.493062E-11
        37  12  8.160260E+05 -1.645566E+03  1.969328E+04 -7.161473E+03 -5.418894E-10  1.629930E-10
        37  13  8.159994E+05  6.031944E+04  7.015120E+04  4.799032E-10  4.209711E-11 -5.759650E-11
        37  14  8.089141E+05  5.466895E+03  3.328743E+04  4.798970E-10  4.864595E-10 -1.074520E-10
        37  15  8.160260E+05 -1.645662E+03  1.969327E+04  1.014350E-09 -2.503941E-10  9.788777E-11
        37  16  8.160006E+05  6.032150E+04  7.015149E+04 -3.312280E+04 -4.539723E-10 -9.840533E-11
        37  17  8.089143E+05  5.467211E+03  3.328747E+04 -1.298063E+04 -3.083280E-10 -2.774126E-10
        37  18  8.160260E+05 -1.645566E+03  1.969328E+04  7.161473E+03  3.112541E-10  7.214709E-11
        37  19  8.160031E+05  6.032211E+04  7.015580E+04  3.312280E+04 -4.790704E+04 -2.552751E+00
        37  20  8.089153E+05  5.467460E+03  3.328922E+04  1.298063E+04 -3.048056E+04 -6.365064E-01
        37  21  8.160262E+05 -1.645520E+03  1.969360E+04 -7.161473E+03 -1.305379E+04  1.503896E-01
        37  22  8.160019E+05  6.032006E+04  7.015550E+04 -1.455974E-09 -4.790704E+04 -1.631057E-11
        37  23  8.089151E+05  5.467144E+03  3.328917E+04 -7.036652E-10 -3.048056E+04 -9.509569E-11
        37  24  8.160261E+05 -1.645616E+03  1.969359E+04 -1.033991E-09 -1.305379E+04 -5.927210E-11
        37  25  8.160031E+05  6.032211E+04  7.015580E+04 -3.312280E+04 -4.790704E+04  2.552751E+00
        37  26  8.089153E+05  5.467460E+03  3.328922E+04 -1.298063E+04 -3.048056E+04  6.365064E-01
        37  27  8.160262E+05 -1.645520E+03  1.969360E+04  7.161473E+03 -1.305379E+04 -1.503896E-01
        38   1  8.131450E+05  2.354448E+03  1.599499E+04  8.635939E+02  1.030199E+04  1.431236E-02
        38   2  8.125223E+05  2.288570E+01  1.062412E+04  2.701165E+02  5.007523E+03  2.175980E-03
        38   3  8.131469E+05 -7.283711E+01  9.255896E+03 -3.233618E+02 -2.869260E+02  1.492585E-04
        38   4  8.131450E+05  2.354447E+03  1.599499E+04 -1.971697E-09  1.030199E+04  1.953102E-10
        38   5  8.125223E+05  2.288557E+01  1.062412E+04 -4.209673E-10  5.007523E+03 -2.134363E-10
        38   6  8.131469E+05 -7.283731E+01  9.255895E+03 -7.587046E-10 -2.869260E+02  1.934038E-11
        38   7  8.131450E+05  2.354448E+03  1.599499E+04 -8.635939E+02  1.030199E+04 -1.431236E-02
        38   8  8.125223E+05  2.288570E+01  1.062412E+04 -2.701165E+02  5.007523E+03 -2.175981E-03
        38   9  8.131469E+05 -7.283711E+01  9.255896E+03  3.233618E+02 -2.869260E+02 -1.492585E-04
        38  10  8.131449E+05  2.354420E+03  1.599479E+04  8.635939E+02  6.250728E-10  8.320987E-11
        38  11  8.125223E+05  2.287898E+01  1.062407E+04  2.701165E+02  7.328708E-11 -4.827625E-11
        38  12  8.131469E+05 -7.283713E+01  9.255895E+03 -3.233618E+02 -3.152734E-10  9.434266E-11
        38  13  8.131448E+05  2.354418E+03  1.599479E+04 -4.630628E-10  1.313418E-10  8.943102E-11
        38  14  8.125223E+05  2.287885E+01  1.062407E+04 -4.251761E-10  4.241652E-10 -1.159278E-10
        38  15  8.131469E+05 -7.283733E+01  9.255895E+03 -6.524105E-10  5.072638E-10  1.871689E-11
        38  16  8.131449E+05  2.354420E+03  1.599479E+04 -8.635939E+02 -3.809962E-10  9.784716E-11
        38  17  8.125223E+05  2.287898E+01  1.062407E+04 -2.701165E+02 -7.743215E-10 -1.584068E-10
        38  18  8.131469E+05 -7.283713E+01  9.255895E+03  3.233618E+02  2.042221E-10 -3.099355E-12
        38  19  8.131450E+05  2.354448E+03  1.599499E+04  8.635939E+02 -1.030199E+04 -1.431236E-02
        38  20  8.125223E+05  2.288570E+01  1.062412E+04  2.701165E+02 -5.007523E+03 -2.175980E-03
        38  21  8.131469E+05 -7.283711E+01  9.255896E+03 -3.233618E+02  2.869260E+02 -1.492584E-04
        38  22  8.131450E+05  2.354447E+03  1.599499E+04 -1.926533E-09 -1.030199E+04 -1.374312E-11
        38  23  8.125223E+05  2.288557E+01  1.062412E+04 -4.335954E-10 -5.007523E+03  3.461489E-15
        38  24  8.131469E+05 -7.283731E+01  9.255895E+03 -1.379366E-09  2.869260E+02  1.235424E-11
        38  25  8.131450E+05  2.354448E+03  1.599499E+04 -8.635939E+02 -1.030199E+04  1.431236E-02
        38  26  8.125223E+05  2.288570E+01  1.062412E+04 -2.701165E+02 -5.007523E+03  2.175980E-03
        38  27  8.131469E+05 -7.283711E+01  9.255896E+03  3.233618E+02  2.869260E+02  1.492585E-04
        39   1  8.132160E+05 -1.322133E+02  9.637542E+03  5.467803E+02 -1.955706E+03 -1.720271E-03
        39   2  8.124353E+05  6.132102E+01  1.272272E+04 -2.788444E+02 -8.301223E+03  3.723789E-03
        39   3  8.132130E+05  3.188360E+03  2.066864E+04 -1.104454E+03 -1.464668E+04  2.602363E-02
        39   4  8.132160E+05 -1.322139E+02  9.637542E+03 -2.396869E-10 -1.955706E+03  2.102058E-10
        39   5  8.124353E+05  6.132087E+01  1.272272E+04  9.426578E-12 -8.301223E+03  1.682239E-10
        39   6  8.132130E+05  3.188358E+03  2.066864E+04 -1.861381E-09 -1.464668E+04  1.130570E-10
        39   7  8.132160E+05 -1.322133E+02  9.637542E+03 -5.467803E+02 -1.955706E+03  1.720272E-03
        39   8  8.124353E+05  6.132102E+01  1.272272E+04  2.788444E+02 -8.301223E+03 -3.723788E-03
        39   9  8.132130E+05  3.188360E+03  2.066864E+04  1.104454E+03 -1.464668E+04 -2.602363E-02
        39  10  8.132160E+05 -1.322143E+02  9.637535E+03  5.467803E+02 -1.998084E-10  1.302405E-10
        39  11  8.124353E+05  6.130255E+01  1.272259E+04 -2.788444E+02 -1.722945E-10  9.746780E-11
        39  12  8.132128E+05  3.188302E+03  2.066824E+04 -1.104454E+03 -1.476848E-10  1.382214E-10
        39  13  8.132160E+05 -1.322149E+02  9.637535E+03  5.640955E-10  2.524950E-10  1.182948E-10
        39  14  8.124353E+05  6.130240E+01  1.272259E+04  3.997416E-10 -8.228879E-10  1.022646E-10
        39  15  8.132128E+05  3.188300E+03  2.066824E+04  7.151365E-10  2.202917E-10  9.207386E-11
        39  16  8.132160E+05 -1.322143E+02  9.637535E+03 -5.467803E+02  2.040399E-10  1.289763E-10
        39  17  8.124353E+05  6.130255E+01  1.272259E+04  2.788444E+02  1.590189E-10  1.234706E-10
        39  18  8.132128E+05  3.188302E+03  2.066824E+04  1.104454E+03 -1.749075E-10  4.530171E-11
        39  19  8.132160E+05 -1.322133E+02  9.637542E+03  5.467803E+02  1.955706E+03  1.720271E-03
        39  20  8.124353E+05  6.132102E+01  1.272272E+04 -2.788444E+02  8.301223E+03 -3.723788E-03
        39  21  8.132130E+05  3.188360E+03  2.066864E+04 -1.104454E+03  1.464668E+04 -2.602363E-02
        39  22  8.132160E+05 -1.322139E+02  9.637542E+03 -5.090171E-10  1.955706E+03  1.419730E-11
        39  23  8.124353E+05  6.132087E+01  1.272272E+04  1.609623E-09  8.301223E+03  6.624771E-11
        39  24  8.132130E+05  3.188358E+03  2.066864E+04 -1.830881E-09  1.464668E+04  8.917886E-11
        39  25  8.132160E+05 -1.322133E+02  9.637542E+03 -5.467803E+02  1.955706E+03 -1.720271E-03
        39  26  8.124353E+05  6.132102E+01  1.272272E+04  2.788444E+02  8.301223E+03  3.723789E-03
        39  27  8.132130E+05  3.188360E+03  2.066864E+04  1.104454E+03  1.464668E+04  2.602363E-02
        40   1  8.171184E+05 -2.207049E+03  2.589203E+04  9.692470E+03 -1.821659E+04 -2.840402E-01
        40   2  8.075463E+05  7.375716E+03  4.455949E+04 -1.746045E+04 -4.155095E+04  1.167137E+00
        40   3  8.170878E+05  8.129161E+04  9.448871E+04 -4.461444E+04 -6.488559E+04  4.657002E+00
        40   4  8.171183E+05 -2.207226E+03  2.589200E+04 -1.732937E-10 -1.821659E+04  6.168292E-11
        40   5  8.075459E+05  7.375144E+03  4.455941E+04  7.606685E-10 -4.155095E+04  9.434410E-12
        40   6  8.170856E+05  8.128788E+04  9.448817E+04 -7.261712E-10 -6.488559E+04  4.109503E-11
        40   7  8.171184E+05 -2.207049E+03  2.589203E+04 -9.692470E+03 -1.821659E+04  2.840402E-01
        40   8  8.075463E+05  7.375716E+03  4.455949E+04  1.746045E+04 -4.155095E+04 -1.167137E+00
        40   9  8.170878E+05  8.129161E+04  9.448871E+04  4.461444E+04 -6.488559E+04 -4.657002E+00
        40  10  8.171180E+05 -2.207138E+03  2.589140E+04  9.692470E+03  3.780354E-10  1.547153E-10
        40  11  8.075444E+05  7.375254E+03  4.455625E+04 -1.746045E+04  3.621533E-11  7.367883E-11
        40  12  8.170832E+05  8.129048E+04  9.448080E+04 -4.461444E+04  4.403482E-11  2.971014E-11
        40  13  8.171179E+05 -2.207315E+03  2.589138E+04  1.435313E-09  5.573852E-10  7.627867E-11
        40  14  8.075441E+05  7.374681E+03  4.455617E+04  1.695949E-09  5.667472E-10  4.302476E-11
        40  15  8.170811E+05  8.128675E+04  9.448027E+04 -5.936041E-10 -7.809463E-11  1.004360E-11
        40  16  8.171180E+05 -2.207138E+03  2.589140E+04 -9.692470E+03  2.967135E-10 -3.111169E-12
        40  17  8.075444E+05  7.375254E+03  4.455625E+04  1.746045E+04  2.102145E-10  3.121099E-12
        40  18  8.170832E+05  8.129048E+04  9.448080E+04  4.461444E+04 -1.597840E-10 -1.347671E-11
        40  19  8.171184E+05 -2.207049E+03  2.589203E+04  9.692470E+03  1.821659E+04  2.840402E-01
        40  20  8.075463E+05  7.375716E+03  4.455949E+04 -1.746045E+04  4.155095E+04 -1.167137E+00
        40  21  8.170878E+05  8.129161E+04  9.448871E+04 -4.461444E+04  6.488559E+04 -4.657002E+00
        40  22  8.171183E+05 -2.207226E+03  2.589200E+04 -2.027591E-10  1.821659E+04  8.550489E-11
        40  23  8.075459E+05  7.375144E+03  4.455941E+04  7.385711E-10  4.155095E+04  8.098599E-11
        40  24  8.170856E+05  8.128788E+04  9.448817E+04 -7.503761E-10  6.488559E+04 -2.658860E-11
        40  25  8.171184E+05 -2.207049E+03  2.589203E+04 -9.692470E+03  1.821659E+04 -2.840402E-01
        40  26  8.075463E+05  7.375716E+03  4.455949E+04  1.746045E+04  4.155095E+04  1.167137E+00
        40  27  8.170878E+05  8.129161E+04  9.448871E+04  4.461444E+04  6.488559E+04  4.657002E+00
        41   1 -1.692622E+05 -4.614411E+05 -1.966912E+05  8.016394E+04 -3.483675E+02 -1.320119E+05
        41   2 -2.068832E+04 -4.568815E+05 -9.897934E+04  2.675129E+04 -1.427434E+03 -8.262508E+04
        41   3 -4.817767E+03 -4.919316E+05 -6.660507E+04 -3.150236E+04 -2.442754E+03 -3.323886E+04
        41   4 -1.673399E+05 -4.535082E+05 -1.949662E+05 -1.178604E+04 -3.288269E+02 -1.306597E+05
        41   5 -1.511134E+04 -4.336901E+05 -9.429080E+04 -9.366632E+03 -1.422633E+03 -8.135961E+04
        41   6  4.419172E+03 -4.534738E+05 -5.889453E+04 -1.178584E+04 -2.443807E+03 -3.205906E+04
        41   7 -1.653857E+05 -4.455570E+05 -1.932366E+05 -1.037372E+05 -3.096874E+02 -1.293075E+05
        41   8 -9.529493E+03 -4.104953E+05 -8.960158E+04 -4.548593E+04 -1.417980E+03 -8.009410E+04
        41   9  1.365748E+04 -4.150136E+05 -5.118386E+04  7.931922E+03 -2.444784E+03 -3.087919E+04
        41  10 -1.692669E+05 -4.614599E+05 -1.967240E+05  8.016391E+04 -1.511692E-10 -1.365520E-10
        41  11 -2.069016E+04 -4.568889E+05 -9.899219E+04  2.675119E+04 -3.460661E-10  1.300396E-10
        41  12 -4.818070E+03 -4.919328E+05 -6.660716E+04 -3.150243E+04 -1.413013E-10  3.735801E-10
        41  13 -1.673444E+05 -4.535265E+05 -1.949983E+05 -1.178607E+04 -4.435037E-11 -5.252832E-13
        41  14 -1.511312E+04 -4.336972E+05 -9.430325E+04 -9.366725E+03 -2.125825E-10 -8.535878E-12
        41  15  4.418889E+03 -4.534749E+05 -5.889648E+04 -1.178591E+04 -1.262757E-10 -1.208711E-11
        41  16 -1.653902E+05 -4.455749E+05 -1.932681E+05 -1.037372E+05  2.254292E-10  1.320103E-10
        41  17 -9.531218E+03 -4.105022E+05 -8.961365E+04 -4.548602E+04 -8.481601E-11 -1.334286E-10
        41  18  1.365722E+04 -4.150147E+05 -5.118566E+04  7.931861E+03  8.129160E-11 -3.933230E-10
        41  19 -1.692622E+05 -4.614411E+05 -1.966912E+05  8.016394E+04  3.483675E+02  1.320119E+05
        41  20 -2.068832E+04 -4.568815E+05 -9.897934E+04  2.675129E+04  1.427434E+03  8.262508E+04
        41  21 -4.817767E+03 -4.919316E+05 -6.660507E+04 -3.150236E+04  2.442754E+03  3.323886E+04
        41  22 -1.673399E+05 -4.535082E+05 -1.949662E+05 -1.178604E+04  3.288269E+02  1.306597E+05
        41  23 -1.511134E+04 -4.336901E+05 -9.429080E+04 -9.366632E+03  1.422633E+03  8.135961E+04
        41  24  4.419172E+03 -4.534738E+05 -5.889453E+04 -1.178584E+04  2.443807E+03  3.205906E+04
        41  25 -1.653857E+05 -4.455570E+05 -1.932366E+05 -1.037372E+05  3.096874E+02  1.293075E+05
        41  26 -9.529493E+03 -4.104953E+05 -8.960158E+04 -4.548593E+04  1.417980E+03  8.009410E+04
        41  27  1.365748E+04 -4.150136E+05 -5.118386E+04  7.931922E+03  2.444784E+03  3.087919E+04
        42   1 -1.820890E+04 -4.952707E+05 -6.016372E+04 -8.474796E+03 -3.035391E+03 -2.480194E+04
        42   2 -1.593439E+04 -5.078576E+05 -5.302586E+04 -9.315366E+03 -3.976029E+03 -4.631812E+03
        42   3 -2.438927E+04 -5.257535E+05 -6.170763E+04 -1.497589E+04 -4.734837E+03  1.553794E+04
        42   4 -6.321525E+03 -4.458504E+05 -5.017316E+04 -1.178154E+04 -3.035240E+03 -2.356601E+04
        42   5 -3.862323E+02 -4.432148E+05 -3.996232E+04 -9.371577E+03 -3.975977E+03 -3.612613E+03
        42   6 -5.142077E+03 -4.458504E+05 -4.541968E+04 -1.178162E+04 -4.734682E+03  1.634088E+04
        42   7  5.565739E+03 -3.964277E+05 -4.018271E+04 -1.508856E+04 -3.035102E+03 -2.232998E+04
        42   8  1.516166E+04 -3.785680E+05 -2.689899E+04 -9.427793E+03 -3.975925E+03 -2.593311E+03
        42   9  1.410475E+04 -3.659412E+05 -2.913205E+04 -8.586929E+03 -4.734520E+03  1.714393E+04
        42  10 -1.820907E+04 -4.952714E+05 -6.016489E+04 -8.474857E+03 -1.494836E-10 -8.269525E-11
        42  11 -1.593441E+04 -5.078576E+05 -5.302593E+04 -9.315380E+03 -2.852701E-10 -8.773098E-11
        42  12 -2.438936E+04 -5.257538E+05 -6.170813E+04 -1.497583E+04  7.705404E-11  6.897471E-12
        42  13 -6.321684E+03 -4.458510E+05 -5.017422E+04 -1.178160E+04  1.161806E-10  7.723464E-12
        42  14 -3.862527E+02 -4.432148E+05 -3.996237E+04 -9.371588E+03  3.297503E-10  3.012619E-11
        42  15 -5.142173E+03 -4.458507E+05 -4.542022E+04 -1.178156E+04 -8.469582E-11  8.245357E-12
        42  16  5.565595E+03 -3.964282E+05 -4.018366E+04 -1.508862E+04  5.239319E-10  9.124963E-11
        42  17  1.516164E+04 -3.785680E+05 -2.689903E+04 -9.427802E+03  3.206374E-10  1.320903E-10
        42  18  1.410465E+04 -3.659415E+05 -2.913265E+04 -8.586863E+03  1.764510E-11 -3.895852E-11
        42  19 -1.820890E+04 -4.952707E+05 -6.016372E+04 -8.474796E+03  3.035391E+03  2.480194E+04
        42  20 -1.593439E+04 -5.078576E+05 -5.302586E+04 -9.315366E+03  3.976029E+03  4.631812E+03
        42  21 -2.438927E+04 -5.257535E+05 -6.170763E+04 -1.497589E+04  4.734837E+03 -1.553794E+04
        42  22 -6.321525E+03 -4.458504E+05 -5.017316E+04 -1.178154E+04  3.035240E+03  2.356601E+04
        42  23 -3.862323E+02 -4.432148E+05 -3.996232E+04 -9.371577E+03  3.975977E+03  3.612613E+03
        42  24 -5.142077E+03 -4.458504E+05 -4.541968E+04 -1.178162E+04  4.734682E+03 -1.634088E+04
        42  25  5.565739E+03 -3.964277E+05 -4.018271E+04 -1.508856E+04  3.035102E+03  2.232998E+04
        42  26  1.516166E+04 -3.785680E+05 -2.689899E+04 -9.427793E+03  3.975925E+03  2.593311E+03
        42  27  1.410475E+04 -3.659412E+05 -2.913205E+04 -8.586929E+03  4.734520E+03 -1.714393E+04
        43   1 -1.827254E+04 -5.429561E+05 -7.016328E+04  4.493400E+03 -5.434571E+03  2.240652E+04
        43   2 -3.820476E+04 -5.413745E+05 -1.020349E+05 -3.952561E+04 -5.130971E+03  6.781277E+04
        43   3 -1.690513E+05 -5.734384E+05 -1.912092E+05 -8.816981E+04 -1.625886E+03  1.132168E+05
        43   4  3.626622E+03 -4.520033E+05 -5.165899E+04 -1.174172E+04 -5.435024E+03  2.396705E+04
        43   5 -1.252644E+04 -4.355296E+05 -7.956711E+04 -9.421697E+03 -5.127784E+03  6.553197E+04
        43   6 -1.389242E+05 -4.520331E+05 -1.621043E+05 -1.173068E+04 -1.612524E+03  1.070961E+05
        43   7  2.552626E+04 -3.610420E+05 -3.315499E+04 -2.797926E+04 -5.435558E+03  2.552780E+04
        43   8  1.315456E+04 -3.296722E+05 -5.709943E+04  2.068743E+04 -5.124819E+03  6.325078E+04
        43   9 -1.087761E+05 -3.306016E+05 -1.329970E+05  6.472347E+04 -1.600672E+03  1.009743E+05
        43  10 -1.827271E+04 -5.429566E+05 -7.016428E+04  4.493498E+03  2.738776E-10 -5.107150E-11
        43  11 -3.820602E+04 -5.413794E+05 -1.020436E+05 -3.952533E+04 -1.225866E-10  2.602062E-11
        43  12 -1.690548E+05 -5.734522E+05 -1.912334E+05 -8.816967E+04 -2.969509E-10  1.148438E-10
        43  13  3.626436E+03 -4.520039E+05 -5.166013E+04 -1.174161E+04  5.500476E-10  2.623985E-11
        43  14 -1.252762E+04 -4.355342E+05 -7.957524E+04 -9.421426E+03  4.821368E-10  2.727290E-12
        43  15 -1.389273E+05 -4.520454E+05 -1.621258E+05 -1.173054E+04 -1.311098E-10 -2.065589E-11
        43  16  2.552606E+04 -3.610427E+05 -3.315627E+04 -2.797915E+04  8.631719E-12  1.328945E-10
        43  17  1.315346E+04 -3.296765E+05 -5.710700E+04  2.068769E+04 -1.267225E-10 -7.813282E-11
        43  18 -1.087789E+05 -3.306125E+05 -1.330162E+05  6.472360E+04  2.606316E-10 -1.784040E-10
        43  19 -1.827254E+04 -5.429561E+05 -7.016328E+04  4.493400E+03  5.434571E+03 -2.240652E+04
        43  20 -3.820476E+04 -5.413745E+05 -1.020349E+05 -3.952561E+04  5.130971E+03 -6.781277E+04
        43  21 -1.690513E+05 -5.734384E+05 -1.912092E+05 -8.816981E+04  1.625886E+03 -1.132168E+05
        43  22  3.626622E+03 -4.520033E+05 -5.165899E+04 -1.174172E+04  5.435024E+03 -2.396705E+04
        43  23 -1.252644E+04 -4.355296E+05 -7.956711E+04 -9.421697E+03  5.127784E+03 -6.553197E+04
        43  24 -1.389242E+05 -4.520331E+05 -1.621043E+05 -1.173068E+04  1.612524E+03 -1.070961E+05
        43  25  2.552626E+04 -3.610420E+05 -3.315499E+04 -2.797926E+04  5.435558E+03 -2.552780E+04
        43  26  1.315456E+04 -3.296722E+05 -5.709943E+04  2.068743E+04  5.124819E+03 -6.325078E+04
        43  27 -1.087761E+05 -3.306016E+05 -1.329970E+05  6.472347E+04  1.600672E+03 -1.009743E+05
        44   1  1.270272E+05 -3.707202E+03 -6.697828E+04  1.144096E+05 -1.904869E+04 -1.080568E+04
        44   2  1.464210E+05  3.035731E+04 -4.605574E+04  1.222700E+05 -1.405724E+04  3.607034E+02
        44   3  1.673933E+05  4.622171E+04 -3.513884E+04  1.312863E+05 -5.694086E+03  7.032025E+03
        44   4  2.742956E+05  1.135566E+05 -1.617297E+04  1.930773E+05 -1.064940E+04 -4.507278E+03
        44   5  2.754953E+05  1.266500E+05 -7.536037E+03  1.890657E+05 -1.105254E+04  2.613468E+03
        44   6  2.794453E+05  1.227151E+05 -4.222165E+03  1.862094E+05 -8.084709E+03  5.239393E+03
        44   7  4.215850E+05  2.308345E+05  3.462891E+04  2.717660E+05 -2.247521E+03  1.793386E+03
        44   8  4.045871E+05  2.229527E+05  3.098153E+04  2.558771E+05 -8.047022E+03  4.866894E+03
        44   9  3.915111E+05  1.992150E+05  2.669332E+04  2.411435E+05 -1.047591E+04  3.446344E+03
        44  10  1.270268E+05 -3.707425E+03 -6.697918E+04  1.144095E+05 -1.542234E-10 -3.478673E-11
        44  11  1.464208E+05  3.035725E+04 -4.605611E+04  1.222700E+05 -1.089408E-10  1.049404E-10
        44  12  1.673932E+05  4.622165E+04 -3.513899E+04  1.312864E+05 -5.784045E-11  6.763485E-11
        44  13  2.742955E+05  1.135566E+05 -1.617322E+04  1.930772E+05  2.368405E-10  5.271147E-11
        44  14  2.754952E+05  1.266500E+05 -7.536279E+03  1.890658E+05  7.141505E-10  1.017679E-10
        44  15  2.794452E+05  1.227150E+05 -4.222339E+03  1.862094E+05 -1.961154E-10  2.041847E-11
        44  16  4.215850E+05  2.308345E+05  3.462890E+04  2.717660E+05  7.644349E-11  1.294973E-10
        44  17  4.045870E+05  2.229527E+05  3.098137E+04  2.558772E+05  1.110038E-10  9.843461E-11
        44  18  3.915110E+05  1.992149E+05  2.669309E+04  2.411436E+05 -6.549427E-11 -4.950515E-11
        44  19  1.270272E+05 -3.707202E+03 -6.697828E+04  1.144096E+05  1.904869E+04  1.080568E+04
        44  20  1.464210E+05  3.035731E+04 -4.605574E+04  1.222700E+05  1.405724E+04 -3.607034E+02
        44  21  1.673933E+05  4.622171E+04 -3.513884E+04  1.312863E+05  5.694086E+03 -7.032025E+03
        44  22  2.742956E+05  1.135566E+05 -1.617297E+04  1.930773E+05  1.064940E+04  4.507278E+03
        44  23  2.754953E+05  1.266500E+05 -7.536037E+03  1.890657E+05  1.105254E+04 -2.613468E+03
        44  24  2.794453E+05  1.227151E+05 -4.222165E+03  1.862094E+05  8.084709E+03 -5.239393E+03
        44  25  4.215850E+05  2.308345E+05  3.462891E+04  2.717660E+05  2.247521E+03 -1.793386E+03
        44  26  4.045871E+05  2.229527E+05  3.098153E+04  2.558771E+05  8.047022E+03 -4.866894E+03
        44  27  3.915111E+05  1.992150E+05  2.669332E+04  2.411435E+05  1.047591E+04 -3.446344E+03
        45   1  1.850738E+05  5.517780E+04 -2.980288E+04  1.394258E+05 -5.493419E+03  5.493397E+03
        45   2  2.024212E+05  7.565328E+04 -2.192741E+04  1.514859E+05 -3.612142E+03  4.981982E+03
        45   3  2.284611E+05  8.659907E+04 -1.496832E+04  1.610201E+05 -1.545159E+03  4.222708E+03
        45   4  2.796051E+05  1.223056E+05 -3.248667E+03  1.869596E+05 -6.821769E+03  4.497321E+03
        45   5  2.753324E+05  1.272245E+05 -1.653459E+03  1.880839E+05 -5.237892E+03  3.763043E+03
        45   6  2.798155E+05  1.226781E+05 -7.165782E+02  1.866820E+05 -3.468387E+03  2.780893E+03
        45   7  3.741476E+05  1.894394E+05  2.330507E+04  2.345021E+05 -8.150408E+03  3.501028E+03
        45   8  3.482494E+05  1.787988E+05  1.861999E+04  2.246869E+05 -6.863899E+03  2.543912E+03
        45   9  3.311721E+05  1.587582E+05  1.353470E+04  2.123460E+05 -5.391805E+03  1.338937E+03
        45  10  1.850737E+05  5.517776E+04 -2.980299E+04  1.394259E+05  1.468805E-10 -5.203879E-11
        45  11  2.024212E+05  7.565325E+04 -2.192748E+04  1.514859E+05 -5.985445E-11 -2.074735E-10
        45  12  2.284611E+05  8.659905E+04 -1.496836E+04  1.610201E+05 -3.105162E-10 -9.808518E-11
        45  13  2.796051E+05  1.223056E+05 -3.248792E+03  1.869596E+05 -1.506031E-10 -1.339885E-10
        45  14  2.753323E+05  1.272245E+05 -1.653538E+03  1.880839E+05 -5.805778E-10 -1.354104E-10
        45  15  2.798154E+05  1.226781E+05 -7.166153E+02  1.866820E+05  3.476207E-10  5.157749E-11
        45  16  3.741475E+05  1.894394E+05  2.330492E+04  2.345022E+05 -2.111527E-10 -1.167957E-10
        45  17  3.482494E+05  1.787988E+05  1.861989E+04  2.246869E+05 -7.127265E-10 -7.352832E-11
        45  18  3.311721E+05  1.587582E+05  1.353465E+04  2.123460E+05  4.297081E-10  1.179958E-10
        45  19  1.850738E+05  5.517780E+04 -2.980288E+04  1.394258E+05  5.493419E+03 -5.493397E+03
        45  20  2.024212E+05  7.565328E+04 -2.192741E+04  1.514859E+05  3.612142E+03 -4.981982E+03
        45  21  2.284611E+05  8.659907E+04 -1.496832E+04  1.610201E+05  1.545159E+03 -4.222708E+03
        45  22  2.796051E+05  1.223056E+05 -3.248667E+03  1.869596E+05  6.821769E+03 -4.497321E+03
        45  23  2.753324E+05  1.272245E+05 -1.653459E+03  1.880839E+05  5.237892E+03 -3.763043E+03
        45  24  2.798155E+05  1.226781E+05 -7.165782E+02  1.866820E+05  3.468387E+03 -2.780893E+03
        45  25  3.741476E+05  1.894394E+05  2.330507E+04  2.345021E+05  8.150408E+03 -3.501028E+03
        45  26  3.482494E+05  1.787988E+05  1.861999E+04  2.246869E+05  6.863899E+03 -2.543912E+03
        45  27  3.311721E+05  1.587582E+05  1.353470E+04  2.123460E+05  5.391805E+03 -1.338937E+03
        46   1  2.441704E+05  9.756274E+04 -1.014678E+04  1.688624E+05 -8.310496E+02  3.306914E+03
        46   2  2.613266E+05  1.174488E+05 -3.514607E+03  1.810814E+05  2.074032E+02  1.655003E+03
        46   3  2.875869E+05  1.282717E+05  3.225466E+03  1.906526E+05  1.247524E+03  8.204639E-01
        46   4  2.798380E+05  1.226699E+05 -3.543426E+02  1.867282E+05 -2.697690E+03  1.907576E+03
        46   5  2.752932E+05  1.272141E+05  3.302148E+02  1.880429E+05 -1.661997E+03  2.536155E+02
        46   6  2.798525E+05  1.226954E+05  1.125042E+03  1.867093E+05 -6.246303E+02 -1.402616E+03
        46   7  3.155071E+05  1.477777E+05  9.437999E+03  2.045951E+05 -4.564475E+03  5.081291E+02
        46   8  2.892601E+05  1.369796E+05  4.175071E+03  1.950046E+05 -3.531467E+03 -1.147824E+03
        46   9  2.721181E+05  1.171191E+05 -9.754028E+02  1.827661E+05 -2.496777E+03 -2.806046E+03
        46  10  2.441704E+05  9.756273E+04 -1.014680E+04  1.688624E+05 -1.125853E-11  1.815015E-10
        46  11  2.613266E+05  1.174488E+05 -3.514612E+03  1.810814E+05 -4.855189E-10  1.422220E-10
        46  12  2.875869E+05  1.282717E+05  3.225463E+03  1.906526E+05  2.562001E-10  5.077495E-11
        46  13  2.798380E+05  1.226698E+05 -3.543631E+02  1.867282E+05 -9.127880E-10  1.244518E-10
        46  14  2.752932E+05  1.272141E+05  3.302095E+02  1.880429E+05 -6.222846E-10  3.264005E-11
        46  15  2.798525E+05  1.226954E+05  1.125037E+03  1.867093E+05 -1.493304E-10  4.869880E-11
        46  16  3.155071E+05  1.477777E+05  9.437959E+03  2.045951E+05 -3.802825E-11  4.258908E-11
        46  17  2.892601E+05  1.369796E+05  4.175045E+03  1.950046E+05  4.174352E-10 -4.804562E-11
        46  18  2.721181E+05  1.171191E+05 -9.754293E+02  1.827661E+05  2.367784E-10 -2.318860E-10
        46  19  2.441704E+05  9.756274E+04 -1.014678E+04  1.688624E+05  8.310496E+02 -3.306914E+03
        46  20  2.613266E+05  1.174488E+05 -3.514607E+03  1.810814E+05 -2.074032E+02 -1.655003E+03
        46  21  2.875869E+05  1.282717E+05  3.225466E+03  1.906526E+05 -1.247524E+03 -8.204639E-01
        46  22  2.798380E+05  1.226699E+05 -3.543426E+02  1.867282E+05  2.697690E+03 -1.907576E+03
        46  23  2.752932E+05  1.272141E+05  3.302148E+02  1.880429E+05  1.661997E+03 -2.536155E+02
        46  24  2.798525E+05  1.226954E+05  1.125042E+03  1.867093E+05  6.246303E+02  1.402616E+03
        46  25  3.155071E+05  1.477777E+05  9.437999E+03  2.045951E+05  4.564475E+03 -5.081291E+02
        46  26  2.892601E+05  1.369796E+05  4.175071E+03  1.950046E+05  3.531467E+03  1.147824E+03
        46  27  2.721181E+05  1.171191E+05 -9.754028E+02  1.827661E+05  2.496777E+03  2.806046E+03
        47   1  3.030896E+05  1.394403E+05  8.183797E+03  1.985841E+05  1.794864E+03 -1.037340E+03
        47   2  3.203952E+05  1.590443E+05  1.562887E+04  2.105934E+05  1.444015E+03 -3.635211E+03
        47   3  3.473891E+05  1.703104E+05  2.449248E+04  2.197485E+05  9.395536E+02 -6.028128E+03
        47   4  2.798797E+05  1.226835E+05  1.623471E+03  1.867841E+05 -1.228682E+02 -2.474962E+03
        47   5  2.752402E+05  1.271964E+05  3.065520E+03  1.879728E+05 -2.275265E+02 -4.888346E+03
        47   6  2.802356E+05  1.233181E+05  5.712877E+03  1.863071E+05 -4.857445E+02 -7.096728E+03
        47   7  2.566707E+05  1.059273E+05 -4.936783E+03  1.749847E+05 -2.040480E+03 -3.912490E+03
        47   8  2.300879E+05  9.534987E+04 -9.497907E+03  1.653542E+05 -1.898893E+03 -6.141350E+03
        47   9  2.130871E+05  7.632832E+04 -1.306715E+04  1.528698E+05 -1.910834E+03 -8.165174E+03
        47  10  3.030896E+05  1.394403E+05  8.183789E+03  1.985841E+05 -3.584856E-10 -1.738738E-10
        47  11  3.203952E+05  1.590443E+05  1.562884E+04  2.105934E+05  4.501104E-10 -5.871607E-11
        47  12  3.473891E+05  1.703103E+05  2.449241E+04  2.197485E+05  1.097142E-10 -1.694453E-11
        47  13  2.798797E+05  1.226835E+05  1.623460E+03  1.867841E+05 -2.107281E-10 -1.103764E-10
        47  14  2.752402E+05  1.271964E+05  3.065475E+03  1.879728E+05 -1.590060E-10  6.686484E-11
        47  15  2.802355E+05  1.233180E+05  5.712782E+03  1.863071E+05  2.215251E-10  1.268822E-10
        47  16  2.566707E+05  1.059273E+05 -4.936819E+03  1.749847E+05  1.524611E-11 -5.033966E-12
        47  17  2.300879E+05  9.534983E+04 -9.497984E+03  1.653542E+05  2.439669E-10 -7.623477E-11
        47  18  2.130870E+05  7.632825E+04 -1.306728E+04  1.528698E+05  1.389525E-10  9.211778E-12
        47  19  3.030896E+05  1.394403E+05  8.183797E+03  1.985841E+05 -1.794864E+03  1.037340E+03
        47  20  3.203952E+05  1.590443E+05  1.562887E+04  2.105934E+05 -1.444015E+03  3.635211E+03
        47  21  3.473891E+05  1.703104E+05  2.449248E+04  2.197485E+05 -9.395536E+02  6.028128E+03
        47  22  2.798797E+05  1.226835E+05  1.623471E+03  1.867841E+05  1.228682E+02  2.474962E+03
        47  23  2.752402E+05  1.271964E+05  3.065520E+03  1.879728E+05  2.275265E+02  4.888346E+03
        47  24  2.802356E+05  1.233181E+05  5.712877E+03  1.863071E+05  4.857445E+02  7.096728E+03
        47  25  2.566707E+05  1.059273E+05 -4.936783E+03  1.749847E+05  2.040480E+03  3.912490E+03
        47  26  2.300879E+05  9.534987E+04 -9.497907E+03  1.653542E+05  1.898893E+03  6.141350E+03
        47  27  2.130871E+05  7.632832E+04 -1.306715E+04  1.528698E+05  1.910834E+03  8.165174E+03
        48   1  3.601781E+05  1.839217E+05  3.051287E+04  2.298647E+05  1.813509E+03 -7.017462E+03
        48   2  3.841752E+05  1.967723E+05  4.347468E+04  2.368282E+05 -8.060154E+03 -1.451384E+04
        48   3  4.284245E+05  2.159157E+05  6.948879E+04  2.348059E+05 -2.072278E+04 -1.829238E+04
        48   4  2.803555E+05  1.227652E+05  7.356000E+03  1.876447E+05 -4.904965E+02 -8.744900E+03
        48   5  2.751398E+05  1.279794E+05  1.300750E+04  1.862286E+05 -5.897966E+03 -1.289299E+04
        48   6  2.892086E+05  1.385197E+05  2.783861E+04  1.758259E+05 -1.409382E+04 -1.332261E+04
        48   7  2.005391E+05  6.161237E+04 -1.580187E+04  1.454307E+05 -2.794133E+03 -1.047203E+04
        48   8  1.661174E+05  5.919159E+04 -1.746082E+04  1.356386E+05 -3.736296E+03 -1.127247E+04
        48   9  1.500155E+05  6.113033E+04 -1.381281E+04  1.168598E+05 -7.466998E+03 -8.354015E+03
        48  10  3.601780E+05  1.839216E+05  3.051277E+04  2.298647E+05  1.076811E-10  3.648634E-11
        48  11  3.841751E+05  1.967720E+05  4.347417E+04  2.368281E+05 -1.169646E-10 -1.326328E-10
        48  12  4.284239E+05  2.159152E+05  6.948736E+04  2.348056E+05 -1.378170E-10 -1.914409E-10
        48  13  2.803555E+05  1.227651E+05  7.355856E+03  1.876447E+05  6.099149E-10 -1.212583E-10
        48  14  2.751397E+05  1.279792E+05  1.300712E+04  1.862286E+05  7.648509E-11 -6.960672E-11
        48  15  2.892084E+05  1.385195E+05  2.783791E+04  1.758258E+05  2.454745E-10 -5.898709E-11
        48  16  2.005390E+05  6.161225E+04 -1.580209E+04  1.454306E+05  1.395114E-10 -1.036825E-10
        48  17  1.661174E+05  5.919145E+04 -1.746108E+04  1.356385E+05 -8.700584E-11 -3.096150E-11
        48  18  1.500154E+05  6.113024E+04 -1.381304E+04  1.168598E+05  1.477598E-10  9.587836E-11
        48  19  3.601781E+05  1.839217E+05  3.051287E+04  2.298647E+05 -1.813509E+03  7.017462E+03
        48  20  3.841752E+05  1.967723E+05  4.347468E+04  2.368282E+05  8.060154E+03  1.451384E+04
        48  21  4.284245E+05  2.159157E+05  6.948879E+04  2.348059E+05  2.072278E+04  1.829238E+04
        48  22  2.803555E+05  1.227652E+05  7.356000E+03  1.876447E+05  4.904965E+02  8.744900E+03
        48  23  2.751398E+05  1.279794E+05  1.300750E+04  1.862286E+05  5.897966E+03  1.289299E+04
        48  24  2.892086E+05  1.385197E+05  2.783861E+04  1.758259E+05  1.409382E+04  1.332261E+04
        48  25  2.005391E+05  6.161237E+04 -1.580187E+04  1.454307E+05  2.794133E+03  1.047203E+04
        48  26  1.661174E+05  5.919159E+04 -1.746082E+04  1.356386E+05  3.736296E+03  1.127247E+04
        48  27  1.500155E+05  6.113033E+04 -1.381281E+04  1.168598E+05  7.466998E+03  8.354015E+03
        49   1  6.007890E+05  4.252107E+04  4.945170E+04  2.334336E+04  3.376886E+04  1.268542E+00
        49   2  5.957902E+05  3.852725E+03  2.345981E+04  9.147439E+03  2.148825E+04  3.163204E-01
        49   3  6.008011E+05 -1.160225E+03  1.387173E+04 -5.048302E+03  9.207629E+03 -7.480246E-02
        49   4  6.007884E+05  4.252005E+04  4.945155E+04 -8.542965E-10  3.376886E+04  2.599995E-12
        49   5  5.957901E+05  3.852568E+03  2.345979E+04  1.356740E-10  2.148825E+04  3.960202E-11
        49   6  6.008010E+05 -1.160273E+03  1.387173E+04 -2.798135E-10  9.207629E+03 -7.901044E-11
        49   7  6.007890E+05  4.252107E+04  4.945170E+04 -2.334336E+04  3.376886E+04 -1.268542E+00
        49   8  5.957902E+05  3.852725E+03  2.345981E+04 -9.147439E+03  2.148825E+04 -3.163204E-01
        49   9  6.008011E+05 -1.160225E+03  1.387173E+04  5.048302E+03  9.207629E+03  7.480246E-02
        49  10  6.007878E+05  4.252077E+04  4.944956E+04  2.334336E+04 -9.699276E-11 -3.853980E-11
        49  11  5.957897E+05  3.852601E+03  2.345894E+04  9.147439E+03 -5.644786E-11 -2.094762E-11
        49  12  6.008010E+05 -1.160248E+03  1.387157E+04 -5.048302E+03  1.635513E-10  1.073720E-10
        49  13  6.007872E+05  4.251974E+04  4.944941E+04 -3.304029E-10  2.819417E-10  1.336890E-11
        49  14  5.957896E+05  3.852444E+03  2.345892E+04 -4.071484E-10 -4.546361E-10  2.536994E-11
        49  15  6.008009E+05 -1.160296E+03  1.387157E+04 -5.701645E-10  1.774513E-10 -4.976471E-12
        49  16  6.007878E+05  4.252077E+04  4.944956E+04 -2.334336E+04 -1.260396E-10  3.690195E-11
        49  17  5.957897E+05  3.852601E+03  2.345894E+04 -9.147439E+03 -1.456645E-10  6.499152E-11
        49  18  6.008010E+05 -1.160248E+03  1.387157E+04  5.048302E+03 -3.462885E-10 -1.199065E-10
        49  19  6.007890E+05  4.252107E+04  4.945170E+04  2.334336E+04 -3.376886E+04 -1.268542E+00
        49  20  5.957902E+05  3.852725E+03  2.345981E+04  9.147439E+03 -2.148825E+04 -3.163204E-01
        49  21  6.008011E+05 -1.160225E+03  1.387173E+04 -5.048302E+03 -9.207629E+03  7.480246E-02
        49  22  6.007884E+05  4.252005E+04  4.945155E+04 -1.391870E-09 -3.376886E+04  1.949205E-11
        49  23  5.957901E+05  3.852568E+03  2.345979E+04 -8.132127E-10 -2.148825E+04  1.634215E-11
        49  24  6.008010E+05 -1.160273E+03  1.387173E+04 -8.794488E-10 -9.207629E+03  7.802477E-11
        49  25  6.007890E+05  4.252107E+04  4.945170E+04 -2.334336E+04 -3.376886E+04  1.268542E+00
        49  26  5.957902E+05  3.852725E+03  2.345981E+04 -9.147439E+03 -2.148825E+04  3.163204E-01
        49  27  6.008011E+05 -1.160225E+03  1.387173E+04  5.048302E+03 -9.207629E+03 -7.480246E-02
        50   1  5.987701E+05  1.659997E+03  1.126147E+04  6.079168E+02  7.270393E+03  7.112563E-03
        50   2  5.983317E+05  1.653092E+01  7.465979E+03  1.892357E+02  3.549962E+03  1.081063E-03
        50   3  5.987711E+05 -5.178277E+01  6.484703E+03 -2.294397E+02 -1.704055E+02  6.291829E-05
        50   4  5.987701E+05  1.659996E+03  1.126147E+04 -1.417233E-09  7.270393E+03 -1.986125E-10
        50   5  5.983317E+05  1.653085E+01  7.465979E+03  3.808116E-10  3.549962E+03 -2.176559E-10
        50   6  5.987711E+05 -5.178287E+01  6.484703E+03  1.779903E-10 -1.704055E+02  1.490031E-10
        50   7  5.987701E+05  1.659997E+03  1.126147E+04 -6.079168E+02  7.270393E+03 -7.112564E-03
        50   8  5.983317E+05  1.653092E+01  7.465979E+03 -1.892357E+02  3.549962E+03 -1.081063E-03
        50   9  5.987711E+05 -5.178277E+01  6.484703E+03  2.294397E+02 -1.704055E+02 -6.291803E-05
        50  10  5.987700E+05  1.659983E+03  1.126138E+04  6.079168E+02  2.426503E-11  4.769205E-11
        50  11  5.983317E+05  1.652754E+01  7.465956E+03  1.892357E+02  2.546094E-10 -4.839967E-11
        50  12  5.987711E+05 -5.178278E+01  6.484703E+03 -2.294397E+02 -1.551265E-10  1.242926E-10
        50  13  5.987700E+05  1.659982E+03  1.126138E+04 -3.789343E-10 -8.417950E-12 -5.610263E-11
        50  14  5.983317E+05  1.652747E+01  7.465956E+03  5.470331E-10  4.039650E-10 -7.571240E-11
        50  15  5.987711E+05 -5.178288E+01  6.484703E+03  7.955235E-10  2.860012E-10  7.984366E-11
        50  16  5.987700E+05  1.659983E+03  1.126138E+04 -6.079168E+02  1.390701E-10 -2.008101E-10
        50  17  5.983317E+05  1.652754E+01  7.465956E+03 -1.892357E+02  3.247714E-10 -7.599874E-11
        50  18  5.987711E+05 -5.178278E+01  6.484703E+03  2.294397E+02  4.572117E-10  6.795995E-13
        50  19  5.987701E+05  1.659997E+03  1.126147E+04  6.079168E+02 -7.270393E+03 -7.112563E-03
        50  20  5.983317E+05  1.653092E+01  7.465979E+03  1.892357E+02 -3.549962E+03 -1.081063E-03
        50  21  5.987711E+05 -5.178277E+01  6.484703E+03 -2.294397E+02  1.704055E+02 -6.291808E-05
        50  22  5.987701E+05  1.659996E+03  1.126147E+04 -6.850706E-10 -7.270393E+03  8.770234E-11
        50  23  5.983317E+05  1.653085E+01  7.465979E+03  1.778909E-09 -3.549962E+03  7.885600E-11
        50  24  5.987711E+05 -5.178287E+01  6.484703E+03  8.902249E-10  1.704055E+02  1.560659E-11
        50  25  5.987701E+05  1.659997E+03  1.126147E+04 -6.079168E+02 -7.270393E+03  7.112563E-03
        50  26  5.983317E+05  1.653092E+01  7.465979E+03 -1.892357E+02 -3.549962E+03  1.081063E-03
        50  27  5.987711E+05 -5.178277E+01  6.484703E+03  2.294397E+02  1.704055E+02  6.291818E-05
        51   1  5.988176E+05 -9.175794E+01  6.741546E+03  3.797758E+02 -1.338487E+03 -8.180222E-04
        51   2  5.982733E+05  4.239284E+01  8.878352E+03 -1.951365E+02 -5.766162E+03  1.810714E-03
        51   3  5.988161E+05  2.221347E+03  1.440697E+04 -7.700562E+02 -1.019392E+04  1.263246E-02
        51   4  5.988176E+05 -9.175821E+01  6.741546E+03 -1.230663E-09 -1.338487E+03  2.624739E-10
        51   5  5.982733E+05  4.239277E+01  8.878352E+03  3.840658E-10 -5.766162E+03  2.680927E-11
        51   6  5.988161E+05  2.221346E+03  1.440697E+04 -8.036883E-10 -1.019392E+04 -7.448102E-11
        51   7  5.988176E+05 -9.175794E+01  6.741546E+03 -3.797758E+02 -1.338487E+03  8.180228E-04
        51   8  5.982733E+05  4.239284E+01  8.878352E+03  1.951365E+02 -5.766162E+03 -1.810714E-03
        51   9  5.988161E+05  2.221347E+03  1.440697E+04  7.700562E+02 -1.019392E+04 -1.263246E-02
        51  10  5.988176E+05 -9.175842E+01  6.741542E+03  3.797758E+02  2.549675E-10  2.389834E-10
        51  11  5.982733E+05  4.238393E+01  8.878290E+03 -1.951365E+02  6.724287E-11  5.860533E-11
        51  12  5.988160E+05  2.221319E+03  1.440678E+04 -7.700562E+02  1.142977E-10 -1.340659E-10
        51  13  5.988176E+05 -9.175869E+01  6.741542E+03  6.166108E-10  5.638737E-10  1.346330E-10
        51  14  5.982733E+05  4.238386E+01  8.878290E+03  3.619690E-10  9.157025E-10  5.468147E-11
        51  15  5.988160E+05  2.221318E+03  1.440678E+04  6.501516E-10  6.229646E-11  9.568956E-12
        51  16  5.988176E+05 -9.175842E+01  6.741542E+03 -3.797758E+02  6.741260E-11  2.399310E-11
        51  17  5.982733E+05  4.238393E+01  8.878290E+03  1.951365E+02  5.607501E-11  3.534496E-11
        51  18  5.988160E+05  2.221319E+03  1.440678E+04  7.700562E+02 -1.207147E-10  1.728798E-10
        51  19  5.988176E+05 -9.175794E+01  6.741546E+03  3.797758E+02  1.338487E+03  8.180226E-04
        51  20  5.982733E+05  4.239284E+01  8.878352E+03 -1.951365E+02  5.766162E+03 -1.810714E-03
        51  21  5.988161E+05  2.221347E+03  1.440697E+04 -7.700562E+02  1.019392E+04 -1.263246E-02
        51  22  5.988176E+05 -9.175821E+01  6.741546E+03 -1.048691E-09  1.338487E+03 -1.478532E-12
        51  23  5.982733E+05  4.239277E+01  8.878352E+03  3.409247E-10  5.766162E+03  9.411093E-11
        51  24  5.988161E+05  2.221346E+03  1.440697E+04 -8.047404E-10  1.019392E+04  9.016092E-11
        51  25  5.988176E+05 -9.175794E+01  6.741546E+03 -3.797758E+02  1.338487E+03 -8.180226E-04
        51  26  5.982733E+05  4.239284E+01  8.878352E+03  1.951365E+02  5.766162E+03  1.810714E-03
        51  27  5.988161E+05  2.221347E+03  1.440697E+04  7.700562E+02  1.019392E+04  1.263246E-02
        52   1  6.015364E+05 -1.538408E+03  1.804335E+04  6.751965E+03 -1.268142E+04 -1.377909E-01
        52   2  5.948691E+05  5.136418E+03  3.104478E+04 -1.216209E+04 -2.893817E+04  5.663785E-01
        52   3  6.015206E+05  5.663519E+04  6.582931E+04 -3.107647E+04 -4.519489E+04  2.260198E+00
        52   4  6.015363E+05 -1.538494E+03  1.804334E+04 -1.847396E-09 -1.268142E+04  2.935486E-11
        52   5  5.948690E+05  5.136141E+03  3.104474E+04  8.488863E-10 -2.893817E+04  1.652541E-10
        52   6  6.015196E+05  5.663337E+04  6.582906E+04 -6.101428E-11 -4.519489E+04  1.819471E-10
        52   7  6.015364E+05 -1.538408E+03  1.804335E+04 -6.751965E+03 -1.268142E+04  1.377909E-01
        52   8  5.948691E+05  5.136418E+03  3.104478E+04  1.216209E+04 -2.893817E+04 -5.663785E-01
        52   9  6.015206E+05  5.663519E+04  6.582931E+04  3.107647E+04 -4.519489E+04 -2.260198E+00
        52  10  6.015362E+05 -1.538451E+03  1.804305E+04  6.751965E+03 -1.730124E-10 -1.638820E-10
        52  11  5.948682E+05  5.136194E+03  3.104321E+04 -1.216209E+04 -1.735024E-10  1.215418E-11
        52  12  6.015184E+05  5.663464E+04  6.582548E+04 -3.107647E+04  2.703045E-11  3.288973E-11
        52  13  6.015362E+05 -1.538537E+03  1.804304E+04  5.037646E-11  1.832047E-10  1.777426E-12
        52  14  5.948681E+05  5.135916E+03  3.104317E+04  1.115039E-09  2.408309E-10  3.222301E-12
        52  15  6.015174E+05  5.663283E+04  6.582522E+04  9.026283E-10  2.200969E-11 -1.755331E-12
        52  16  6.015362E+05 -1.538451E+03  1.804305E+04 -6.751965E+03  3.512111E-10  1.433182E-10
        52  17  5.948682E+05  5.136194E+03  3.104321E+04  1.216209E+04 -2.071667E-10 -1.323709E-11
        52  18  6.015184E+05  5.663464E+04  6.582548E+04  3.107647E+04  5.569277E-10  1.001718E-12
        52  19  6.015364E+05 -1.538408E+03  1.804335E+04  6.751965E+03  1.268142E+04  1.377909E-01
        52  20  5.948691E+05  5.136418E+03  3.104478E+04 -1.216209E+04  2.893817E+04 -5.663785E-01
        52  21  6.015206E+05  5.663519E+04  6.582931E+04 -3.107647E+04  4.519489E+04 -2.260198E+00
        52  22  6.015363E+05 -1.538494E+03  1.804334E+04 -1.281425E-09  1.268142E+04 -2.972019E-11
        52  23  5.948690E+05  5.136141E+03  3.104474E+04  2.462617E-09  2.893817E+04 -1.570312E-10
        52  24  6.015196E+05  5.663337E+04  6.582906E+04  1.493818E-10  4.519489E+04 -1.775797E-10
        52  25  6.015364E+05 -1.538408E+03  1.804335E+04 -6.751965E+03  1.268142E+04 -1.377909E-01
        52  26  5.948691E+05  5.136418E+03  3.104478E+04  1.216209E+04  2.893817E+04  5.663785E-01
        52  27  6.015206E+05  5.663519E+04  6.582931E+04  3.107647E+04  4.519489E+04  2.260198E+00
        53   1 -9.264239E+04 -1.804036E+05 -1.113062E+05  3.928308E+04  6.857557E+02 -8.362233E+04
        53   2  5.673489E+02 -1.952749E+05 -5.277788E+04  6.796087E+03  1.749783E+03 -5.353361E+04
        53   3  6.724653E+03 -2.358251E+05 -3.560200E+04 -3.434980E+04  7.730162E+02 -2.344602E+04
        53   4 -1.103278E+05 -2.515533E+05 -1.285583E+05 -2.135703E+04  6.940305E+02 -8.610940E+04
        53   5 -9.964622E+03 -2.384918E+05 -6.221816E+04 -1.702571E+04  1.751849E+03 -5.358003E+04
        53   6  2.913251E+03 -2.515401E+05 -3.892986E+04 -2.135314E+04  7.723785E+02 -2.105034E+04
        53   7 -1.279997E+05 -3.226905E+05 -1.458089E+05 -8.199016E+04  7.027922E+02 -8.859619E+04
        53   8 -2.049458E+04 -2.817059E+05 -7.165826E+04 -4.084582E+04  1.753918E+03 -5.362644E+04
        53   9 -8.975292E+02 -2.672545E+05 -4.225762E+04 -8.356805E+03  7.718411E+02 -1.865471E+04
        53  10 -9.264427E+04 -1.804111E+05 -1.113193E+05  3.928313E+04 -8.610139E-11  1.658622E-10
        53  11  5.665759E+02 -1.952779E+05 -5.278327E+04  6.796163E+03 -3.384756E-10 -6.349626E-12
        53  12  6.724505E+03 -2.358257E+05 -3.560303E+04 -3.434979E+04 -1.586251E-10 -2.147186E-10
        53  13 -1.103298E+05 -2.515613E+05 -1.285723E+05 -2.135698E+04 -2.449987E-10  5.019493E-12
        53  14 -9.965396E+03 -2.384949E+05 -6.222357E+04 -1.702563E+04 -3.036309E-12 -1.020494E-11
        53  15  2.913131E+03 -2.515406E+05 -3.893069E+04 -2.135312E+04 -6.995872E-11  3.479275E-11
        53  16 -1.280018E+05 -3.226989E+05 -1.458236E+05 -8.199011E+04  5.654221E-11 -1.725712E-10
        53  17 -2.049536E+04 -2.817089E+05 -7.166367E+04 -4.084574E+04  5.238095E-10 -1.082199E-12
        53  18 -8.976233E+02 -2.672549E+05 -4.225828E+04 -8.356793E+03 -1.665631E-10  2.228677E-10
        53  19 -9.264239E+04 -1.804036E+05 -1.113062E+05  3.928308E+04 -6.857557E+02  8.362233E+04
        53  20  5.673489E+02 -1.952749E+05 -5.277788E+04  6.796087E+03 -1.749783E+03  5.353361E+04
        53  21  6.724653E+03 -2.358251E+05 -3.560200E+04 -3.434980E+04 -7.730162E+02  2.344602E+04
        53  22 -1.103278E+05 -2.515533E+05 -1.285583E+05 -2.135703E+04 -6.940305E+02  8.610940E+04
        53  23 -9.964622E+03 -2.384918E+05 -6.221816E+04 -1.702571E+04 -1.751849E+03  5.358003E+04
        53  24  2.913251E+03 -2.515401E+05 -3.892986E+04 -2.135314E+04 -7.723785E+02  2.105034E+04
        53  25 -1.279997E+05 -3.226905E+05 -1.458089E+05 -8.199016E+04 -7.027922E+02  8.859619E+04
        53  26 -2.049458E+04 -2.817059E+05 -7.165826E+04 -4.084582E+04 -1.753918E+03  5.362644E+04
        53  27 -8.975292E+02 -2.672545E+05 -4.225762E+04 -8.356805E+03 -7.718411E+02  1.865471E+04
        54   1 -5.167572E+03 -2.507758E+05 -3.398508E+04 -1.917935E+04 -3.743193E+02 -1.738868E+04
        54   2 -7.936291E+03 -2.767087E+05 -3.303993E+04 -1.696193E+04 -1.963934E+03 -4.005825E+03
        54   3 -1.783420E+04 -3.061664E+05 -4.259188E+04 -2.350156E+04 -3.463868E+03  9.376531E+03
        54   4 -4.161473E+03 -2.465192E+05 -3.321393E+04 -2.137563E+04 -3.743806E+02 -1.542908E+04
        54   5 -2.551468E+02 -2.447660E+05 -2.658628E+04 -1.699706E+04 -1.964020E+03 -2.153658E+03
        54   6 -3.459168E+03 -2.465196E+05 -3.038098E+04 -2.137561E+04 -3.463890E+03  1.112184E+04
        54   7 -3.155356E+03 -2.422626E+05 -3.244276E+04 -2.357192E+04 -3.744557E+02 -1.346946E+04
        54   8  7.425936E+03 -2.128223E+05 -2.013266E+04 -1.703218E+04 -1.964107E+03 -3.013982E+02
        54   9  1.091566E+04 -1.868693E+05 -1.817026E+04 -1.924944E+04 -3.463901E+03  1.286731E+04
        54  10 -5.167653E+03 -2.507761E+05 -3.398565E+04 -1.917935E+04  1.075244E-10 -1.565943E-10
        54  11 -7.936300E+03 -2.767088E+05 -3.303997E+04 -1.696194E+04 -1.079101E-10 -1.183003E-11
        54  12 -1.783424E+04 -3.061665E+05 -4.259207E+04 -2.350154E+04 -1.234322E-10  4.335387E-11
        54  13 -4.161537E+03 -2.465195E+05 -3.321437E+04 -2.137563E+04 -4.824430E-10  3.441985E-11
        54  14 -2.551522E+02 -2.447660E+05 -2.658629E+04 -1.699706E+04  3.896003E-10 -4.094559E-13
        54  15 -3.459214E+03 -2.465197E+05 -3.038124E+04 -2.137558E+04  9.391584E-11 -2.666546E-13
        54  16 -3.155405E+03 -2.422628E+05 -3.244310E+04 -2.357192E+04  1.685161E-10  1.618500E-10
        54  17  7.425932E+03 -2.128223E+05 -2.013267E+04 -1.703218E+04  3.699396E-10  2.858575E-11
        54  18  1.091560E+04 -1.868695E+05 -1.817060E+04 -1.924941E+04  2.184436E-10 -5.438262E-11
        54  19 -5.167572E+03 -2.507758E+05 -3.398508E+04 -1.917935E+04  3.743193E+02  1.738868E+04
        54  20 -7.936291E+03 -2.767087E+05 -3.303993E+04 -1.696193E+04  1.963934E+03  4.005825E+03
        54  21 -1.783420E+04 -3.061664E+05 -4.259188E+04 -2.350156E+04  3.463868E+03 -9.376531E+03
        54  22 -4.161473E+03 -2.465192E+05 -3.321393E+04 -2.137563E+04  3.743806E+02  1.542908E+04
        54  23 -2.551468E+02 -2.447660E+05 -2.658628E+04 -1.699706E+04  1.964020E+03  2.153658E+03
        54  24 -3.459168E+03 -2.465196E+05 -3.038098E+04 -2.137561E+04  3.463890E+03 -1.112184E+04
        54  25 -3.155356E+03 -2.422626E+05 -3.244276E+04 -2.357192E+04  3.744557E+02  1.346946E+04
        54  26  7.425936E+03 -2.128223E+05 -2.013266E+04 -1.703218E+04  1.964107E+03  3.013982E+02
        54  27  1.091566E+04 -1.868693E+05 -1.817026E+04 -1.924944E+04  3.463901E+03 -1.286731E+04
        55   1 -1.675399E+04 -3.303282E+05 -5.089683E+04 -1.040790E+04 -4.664405E+03  1.364285E+04
        55   2 -3.440149E+04 -3.465808E+05 -7.630289E+04 -3.728529E+04 -4.990282E+03  4.594622E+04
        55   3 -1.269193E+05 -3.857578E+05 -1.414630E+05 -7.272059E+04 -1.661354E+03  7.824741E+04
        55   4  2.440464E+03 -2.506639E+05 -3.461752E+04 -2.133222E+04 -4.664691E+03  1.622629E+04
        55   5 -8.424790E+03 -2.395895E+05 -5.344277E+04 -1.705170E+04 -4.988709E+03  4.414599E+04
        55   6 -9.339535E+04 -2.506764E+05 -1.089732E+05 -2.133179E+04 -1.654963E+03  7.206522E+04
        55   7  2.163497E+04 -1.709934E+05 -1.833846E+04 -3.225796E+04 -4.665068E+03  1.881006E+04
        55   8  1.755271E+04 -1.325865E+05 -3.058307E+04  3.185427E+03 -4.987254E+03  4.234546E+04
        55   9 -5.986280E+04 -1.155725E+05 -7.648309E+04  3.006825E+04 -1.649598E+03  6.588169E+04
        55  10 -1.675406E+04 -3.303284E+05 -5.089722E+04 -1.040785E+04 -2.567701E-10 -6.129033E-11
        55  11 -3.440209E+04 -3.465831E+05 -7.630690E+04 -3.728510E+04  3.454110E-10  2.609503E-11
        55  12 -1.269209E+05 -3.857644E+05 -1.414746E+05 -7.272049E+04  5.964459E-13  6.818375E-11
        55  13  2.440370E+03 -2.506642E+05 -3.461806E+04 -2.133216E+04  2.598224E-11 -7.099056E-12
        55  14 -8.425340E+03 -2.395916E+05 -5.344648E+04 -1.705152E+04  3.761674E-10  2.363603E-11
        55  15 -9.339675E+04 -2.506820E+05 -1.089830E+05 -2.133169E+04 -2.587516E-10 -2.069586E-11
        55  16  2.163486E+04 -1.709937E+05 -1.833917E+04 -3.225789E+04  5.514815E-10  8.268779E-11
        55  17  1.755220E+04 -1.325884E+05 -3.058649E+04  3.185597E+03  6.435761E-12  1.029966E-11
        55  18 -5.986396E+04 -1.155771E+05 -7.649125E+04  3.006834E+04  3.048238E-10 -7.194602E-11
        55  19 -1.675399E+04 -3.303282E+05 -5.089683E+04 -1.040790E+04  4.664405E+03 -1.364285E+04
        55  20 -3.440149E+04 -3.465808E+05 -7.630289E+04 -3.728529E+04  4.990282E+03 -4.594622E+04
        55  21 -1.269193E+05 -3.857578E+05 -1.414630E+05 -7.272059E+04  1.661354E+03 -7.824741E+04
        55  22  2.440464E+03 -2.506639E+05 -3.461752E+04 -2.133222E+04  4.664691E+03 -1.622629E+04
        55  23 -8.424790E+03 -2.395895E+05 -5.344277E+04 -1.705170E+04  4.988709E+03 -4.414599E+04
        55  24 -9.339535E+04 -2.506764E+05 -1.089732E+05 -2.133179E+04  1.654963E+03 -7.206522E+04
        55  25  2.163497E+04 -1.709934E+05 -1.833846E+04 -3.225796E+04  4.665068E+03 -1.881006E+04
        55  26  1.755271E+04 -1.325865E+05 -3.058307E+04  3.185427E+03  4.987254E+03 -4.234546E+04
        55  27 -5.986280E+04 -1.155725E+05 -7.648309E+04  3.006825E+04  1.649598E+03 -6.588169E+04
        56   1  9.889057E+04  1.716961E+02 -4.930996E+04  8.722227E+04 -1.585546E+04 -9.695181E+03
        56   2  1.118453E+05  2.758810E+04 -3.232234E+04  9.062281E+04 -1.132046E+04 -1.620922E+03
        56   3  1.233001E+05  3.985417E+04 -2.395923E+04  9.631831E+04 -4.650456E+03  3.607251E+03
        56   4  1.889032E+05  7.749330E+04 -1.716647E+04  1.378991E+05 -1.055830E+04 -5.722971E+03
        56   5  1.920144E+05  8.955630E+04 -8.021637E+03  1.331082E+05 -9.438963E+03 -2.101381E+02
        56   6  1.943675E+05  8.721051E+04 -4.536320E+03  1.306118E+05 -6.184979E+03  2.456491E+03
        56   7  2.789255E+05  1.548228E+05  1.497631E+04  1.885855E+05 -5.260052E+03 -1.749725E+03
        56   8  2.721915E+05  1.515297E+05  1.627866E+04  1.756005E+05 -7.557117E+03  1.200936E+03
        56   9  2.654413E+05  1.345699E+05  1.488638E+04  1.649099E+05 -7.719756E+03  1.305554E+03
        56  10  9.889027E+04  1.715277E+02 -4.931061E+04  8.722214E+04  2.369350E-10  4.629025E-10
        56  11  1.118451E+05  2.758806E+04 -3.232259E+04  9.062279E+04 -1.916252E-09 -1.015791E-09
        56  12  1.233001E+05  3.985415E+04 -2.395929E+04  9.631832E+04 -2.208462E-10 -5.387990E-10
        56  13  1.889031E+05  7.749323E+04 -1.716674E+04  1.378990E+05 -6.105296E-10 -3.537499E-10
        56  14  1.920144E+05  8.955628E+04 -8.021805E+03  1.331082E+05  2.466007E-10 -1.052782E-10
        56  15  1.943675E+05  8.721049E+04 -4.536403E+03  1.306118E+05  3.739114E-09  2.320141E-09
        56  16  2.789255E+05  1.548228E+05  1.497625E+04  1.885855E+05 -1.265012E-09 -1.082362E-09
        56  17  2.721915E+05  1.515297E+05  1.627855E+04  1.756006E+05  2.231772E-09  7.958426E-10
        56  18  2.654412E+05  1.345699E+05  1.488627E+04  1.649099E+05  8.103044E-09  5.164580E-09
        56  19  9.889057E+04  1.716961E+02 -4.930996E+04  8.722227E+04  1.585546E+04  9.695181E+03
        56  20  1.118453E+05  2.758810E+04 -3.232234E+04  9.062281E+04  1.132046E+04  1.620922E+03
        56  21  1.233001E+05  3.985417E+04 -2.395923E+04  9.631831E+04  4.650456E+03 -3.607251E+03
        56  22  1.889032E+05  7.749330E+04 -1.716647E+04  1.378991E+05  1.055830E+04  5.722971E+03
        56  23  1.920144E+05  8.955630E+04 -8.021637E+03  1.331082E+05  9.438963E+03  2.101381E+02
        56  24  1.943675E+05  8.721051E+04 -4.536320E+03  1.306118E+05  6.184979E+03 -2.456491E+03
        56  25  2.789255E+05  1.548228E+05  1.497631E+04  1.885855E+05  5.260052E+03  1.749725E+03
        56  26  2.721915E+05  1.515297E+05  1.627866E+04  1.756005E+05  7.557117E+03 -1.200936E+03
        56  27  2.654413E+05  1.345699E+05  1.488638E+04  1.649099E+05  7.719756E+03 -1.305554E+03
        57   1  1.354687E+05  4.473819E+04 -2.013474E+04  1.016660E+05 -4.312429E+03  2.775273E+03
        57   2  1.467008E+05  5.814816E+04 -1.446060E+04  1.093705E+05 -2.770548E+03  2.687019E+03
        57   3  1.633931E+05  6.525096E+04 -9.693636E+03  1.154955E+05 -1.111013E+03  2.441755E+03
        57   4  1.945112E+05  8.680106E+04 -3.523609E+03  1.314158E+05 -5.174471E+03  2.128816E+03
        57   5  1.918715E+05  9.013128E+04 -1.892208E+03  1.320579E+05 -3.820941E+03  1.899383E+03
        57   6  1.947329E+05  8.719531E+04 -1.004375E+03  1.311203E+05 -2.349782E+03  1.512930E+03
        57   7  2.535568E+05  1.288654E+05  1.308691E+04  1.611685E+05 -6.036613E+03  1.482284E+03
        57   8  2.370442E+05  1.221154E+05  1.067589E+04  1.547470E+05 -4.871430E+03  1.111674E+03
        57   9  2.260738E+05  1.091402E+05  7.684793E+03  1.467461E+05 -3.588634E+03  5.840430E+02
        57  10  1.354687E+05  4.473818E+04 -2.013479E+04  1.016660E+05  8.096225E-09  5.136758E-09
        57  11  1.467008E+05  5.814815E+04 -1.446063E+04  1.093705E+05  2.102219E-09  6.779347E-10
        57  12  1.633931E+05  6.525095E+04 -9.693649E+03  1.154955E+05 -1.487588E-09 -1.125483E-09
        57  13  1.945112E+05  8.680105E+04 -3.523668E+03  1.314158E+05  3.500251E-09  2.296819E-09
        57  14  1.918715E+05  9.013128E+04 -1.892242E+03  1.320579E+05  5.629775E-10 -9.450598E-11
        57  15  1.947329E+05  8.719531E+04 -1.004390E+03  1.311203E+05 -5.114116E-10 -2.334479E-10
        57  16  2.535568E+05  1.288654E+05  1.308684E+04  1.611685E+05 -3.590643E-10 -5.906439E-10
        57  17  2.370441E+05  1.221154E+05  1.067584E+04  1.547470E+05 -1.869149E-09 -1.075415E-09
        57  18  2.260738E+05  1.091402E+05  7.684769E+03  1.467461E+05  4.546411E-10  6.466832E-10
        57  19  1.354687E+05  4.473819E+04 -2.013474E+04  1.016660E+05  4.312429E+03 -2.775273E+03
        57  20  1.467008E+05  5.814816E+04 -1.446060E+04  1.093705E+05  2.770548E+03 -2.687019E+03
        57  21  1.633931E+05  6.525096E+04 -9.693636E+03  1.154955E+05  1.111013E+03 -2.441755E+03
        57  22  1.945112E+05  8.680106E+04 -3.523609E+03  1.314158E+05  5.174471E+03 -2.128816E+03
        57  23  1.918715E+05  9.013128E+04 -1.892208E+03  1.320579E+05  3.820941E+03 -1.899383E+03
        57  24  1.947329E+05  8.719531E+04 -1.004375E+03  1.311203E+05  2.349782E+03 -1.512930E+03
        57  25  2.535568E+05  1.288654E+05  1.308691E+04  1.611685E+05  6.036613E+03 -1.482284E+03
        57  26  2.370442E+05  1.221154E+05  1.067589E+04  1.547470E+05  4.871430E+03 -1.111674E+03
        57  27  2.260738E+05  1.091402E+05  7.684793E+03  1.467461E+05  3.588634E+03 -5.840430E+02
        58   1  1.735577E+05  7.227540E+04 -6.513575E+03  1.205537E+05 -5.780249E+02  1.906307E+03
        58   2  1.846335E+05  8.509815E+04 -2.193882E+03  1.284293E+05  2.593375E+02  9.674352E+02
        58   3  2.015493E+05  9.205447E+04  2.053711E+03  1.345935E+05  1.097577E+03  2.738127E+01
        58   4  1.947526E+05  8.718519E+04 -6.983469E+02  1.311654E+05 -1.781197E+03  1.004188E+03
        58   5  1.918371E+05  9.012603E+04 -2.120573E+02  1.320155E+05 -9.452582E+02  6.425175E+01
        58   6  1.947613E+05  8.720054E+04  2.033202E+02  1.311539E+05 -1.084517E+02 -8.768623E+02
        58   7  2.159483E+05  1.020954E+05  5.116939E+03  1.417776E+05 -2.984439E+03  1.020164E+02
        58   8  1.990407E+05  9.515394E+04  1.769771E+03  1.356017E+05 -2.149873E+03 -8.389456E+02
        58   9  1.879735E+05  8.234671E+04 -1.647037E+03  1.277144E+05 -1.314447E+03 -1.781081E+03
        58  10  1.735577E+05  7.227540E+04 -6.513583E+03  1.205537E+05 -2.482585E-11  4.267257E-10
        58  11  1.846335E+05  8.509815E+04 -2.193884E+03  1.284293E+05 -2.757499E-10  7.039399E-11
        58  12  2.015493E+05  9.205447E+04  2.053709E+03  1.345935E+05 -1.592519E-10 -1.562240E-10
        58  13  1.947526E+05  8.718519E+04 -6.983548E+02  1.311654E+05  2.251315E-10  3.378648E-11
        58  14  1.918371E+05  9.012603E+04 -2.120590E+02  1.320155E+05  2.487164E-11  1.095033E-10
        58  15  1.947613E+05  8.720054E+04  2.033188E+02  1.311539E+05 -2.395260E-10  2.451444E-11
        58  16  2.159483E+05  1.020954E+05  5.116923E+03  1.417776E+05 -7.846751E-11 -1.841287E-10
        58  17  1.990406E+05  9.515394E+04  1.769761E+03  1.356017E+05  2.612262E-10 -9.728992E-11
        58  18  1.879735E+05  8.234670E+04 -1.647046E+03  1.277144E+05  1.015586E-10  1.779980E-10
        58  19  1.735577E+05  7.227540E+04 -6.513575E+03  1.205537E+05  5.780249E+02 -1.906307E+03
        58  20  1.846335E+05  8.509815E+04 -2.193882E+03  1.284293E+05 -2.593375E+02 -9.674352E+02
        58  21  2.015493E+05  9.205447E+04  2.053711E+03  1.345935E+05 -1.097577E+03 -2.738127E+01
        58  22  1.947526E+05  8.718519E+04 -6.983469E+02  1.311654E+05  1.781197E+03 -1.004188E+03
        58  23  1.918371E+05  9.012603E+04 -2.120573E+02  1.320155E+05  9.452582E+02 -6.425175E+01
        58  24  1.947613E+05  8.720054E+04  2.033202E+02  1.311539E+05  1.084517E+02  8.768623E+02
        58  25  2.159483E+05  1.020954E+05  5.116939E+03  1.417776E+05  2.984439E+03 -1.020164E+02
        58  26  1.990407E+05  9.515394E+04  1.769771E+03  1.356017E+05  2.149873E+03  8.389456E+02
        58  27  1.879735E+05  8.234671E+04 -1.647037E+03  1.277144E+05  1.314447E+03  1.781081E+03
        59   1  2.115752E+05  9.921368E+04  5.146387E+03  1.396721E+05  1.532409E+03 -5.803507E+02
        59   2  2.226869E+05  1.119256E+05  9.578227E+03  1.474726E+05  1.698356E+03 -1.959062E+03
        59   3  2.398724E+05  1.190608E+05  1.454315E+04  1.534936E+05  1.763216E+03 -3.202906E+03
        59   4  1.947723E+05  8.719823E+04  4.219512E+02  1.311828E+05  2.963940E+02 -1.507082E+03
        59   5  1.918146E+05  9.011385E+04  9.840107E+02  1.319904E+05  6.242530E+02 -2.764435E+03
        59   6  1.948953E+05  8.741737E+04  1.938691E+03  1.310182E+05  8.510377E+02 -3.886905E+03
        59   7  1.779697E+05  7.518294E+04 -4.302507E+03  1.226937E+05 -9.395761E+02 -2.433780E+03
        59   8  1.609432E+05  6.830245E+04 -7.610364E+03  1.165089E+05 -4.497852E+02 -3.569758E+03
        59   9  1.499199E+05  5.577467E+04 -1.066616E+04  1.085444E+05 -6.106350E+01 -4.570845E+03
        59  10  2.115752E+05  9.921368E+04  5.146382E+03  1.396721E+05 -1.963165E-10  9.308338E-11
        59  11  2.226869E+05  1.119256E+05  9.578214E+03  1.474726E+05  4.145805E-10 -4.558636E-11
        59  12  2.398724E+05  1.190608E+05  1.454312E+04  1.534936E+05 -2.368734E-10 -1.611375E-11
        59  13  1.947723E+05  8.719823E+04  4.219468E+02  1.311828E+05  4.072975E-11 -4.499778E-11
        59  14  1.918146E+05  9.011384E+04  9.839956E+02  1.319904E+05  1.265811E-10 -6.735870E-11
        59  15  1.948953E+05  8.741735E+04  1.938661E+03  1.310182E+05 -5.729780E-11 -3.677479E-11
        59  16  1.779697E+05  7.518293E+04 -4.302520E+03  1.226937E+05 -5.125137E-11  6.289425E-11
        59  17  1.609432E+05  6.830244E+04 -7.610388E+03  1.165089E+05 -8.908121E-11  4.593363E-11
        59  18  1.499199E+05  5.577465E+04 -1.066620E+04  1.085444E+05  9.830397E-11 -1.533585E-10
        59  19  2.115752E+05  9.921368E+04  5.146387E+03  1.396721E+05 -1.532409E+03  5.803507E+02
        59  20  2.226869E+05  1.119256E+05  9.578227E+03  1.474726E+05 -1.698356E+03  1.959062E+03
        59  21  2.398724E+05  1.190608E+05  1.454315E+04  1.534936E+05 -1.763216E+03  3.202906E+03
        59  22  1.947723E+05  8.719823E+04  4.219512E+02  1.311828E+05 -2.963940E+02  1.507082E+03
        59  23  1.918146E+05  9.011385E+04  9.840107E+02  1.319904E+05 -6.242530E+02  2.764435E+03
        59  24  1.948953E+05  8.741737E+04  1.938691E+03  1.310182E+05 -8.510377E+02  3.886905E+03
        59  25  1.779697E+05  7.518294E+04 -4.302507E+03  1.226937E+05  9.395761E+02  2.433780E+03
        59  26  1.609432E+05  6.830245E+04 -7.610364E+03  1.165089E+05  4.497852E+02  3.569758E+03
        59  27  1.499199E+05  5.577467E+04 -1.066616E+04  1.085444E+05  6.106350E+01  4.570845E+03
        60   1  2.489718E+05  1.271080E+05  1.794601E+04  1.593561E+05  2.581238E+03 -3.652215E+03
        60   2  2.623789E+05  1.374321E+05  2.465303E+04  1.653077E+05 -2.229128E+03 -7.287530E+03
        60   3  2.857422E+05  1.476159E+05  3.709003E+04  1.673731E+05 -8.874129E+03 -8.476583E+03
        60   4  1.949210E+05  8.724132E+04  2.520926E+03  1.314873E+05  1.091113E+03 -4.769606E+03
        60   5  1.917982E+05  9.036399E+04  4.500193E+03  1.313793E+05 -7.819425E+02 -6.202426E+03
        60   6  1.979950E+05  9.270991E+04  9.661397E+03  1.273850E+05 -4.489615E+03 -5.188794E+03
        60   7  1.408740E+05  4.737701E+04 -1.290420E+04  1.036217E+05 -3.988175E+02 -5.886844E+03
        60   8  1.212235E+05  4.329861E+04 -1.565298E+04  9.745533E+04  6.650097E+02 -5.117483E+03
        60   9  1.102561E+05  3.780697E+04 -1.776803E+04  8.740285E+04 -1.059555E+02 -1.901544E+03
        60  10  2.489718E+05  1.271080E+05  1.794598E+04  1.593561E+05 -5.428874E-10 -1.958052E-10
        60  11  2.623788E+05  1.374320E+05  2.465292E+04  1.653077E+05 -5.372579E-11  2.322416E-10
        60  12  2.857421E+05  1.476158E+05  3.708975E+04  1.673731E+05  1.702845E-10  3.073870E-10
        60  13  1.949209E+05  8.724129E+04  2.520881E+03  1.314873E+05 -1.902084E-11  3.307805E-11
        60  14  1.917982E+05  9.036395E+04  4.500120E+03  1.313793E+05  9.807925E-11  1.909414E-10
        60  15  1.979950E+05  9.270987E+04  9.661308E+03  1.273850E+05  3.729450E-11  9.938125E-11
        60  16  1.408740E+05  4.737697E+04 -1.290427E+04  1.036217E+05  8.450333E-10  1.788468E-10
        60  17  1.212235E+05  4.329858E+04 -1.565303E+04  9.745533E+04  1.633754E-11  1.299538E-10
        60  18  1.102561E+05  3.780696E+04 -1.776803E+04  8.740285E+04 -3.844142E-10 -1.465041E-10
        60  19  2.489718E+05  1.271080E+05  1.794601E+04  1.593561E+05 -2.581238E+03  3.652215E+03
        60  20  2.623789E+05  1.374321E+05  2.465303E+04  1.653077E+05  2.229128E+03  7.287530E+03
        60  21  2.857422E+05  1.476159E+05  3.709003E+04  1.673731E+05  8.874129E+03  8.476583E+03
        60  22  1.949210E+05  8.724132E+04  2.520926E+03  1.314873E+05 -1.091113E+03  4.769606E+03
        60  23  1.917982E+05  9.036399E+04  4.500193E+03  1.313793E+05  7.819425E+02  6.202426E+03
        60  24  1.979950E+05  9.270991E+04  9.661397E+03  1.273850E+05  4.489615E+03  5.188794E+03
        60  25  1.408740E+05  4.737701E+04 -1.290420E+04  1.036217E+05  3.988175E+02  5.886844E+03
        60  26  1.212235E+05  4.329861E+04 -1.565298E+04  9.745533E+04 -6.650097E+02  5.117483E+03
        60  27  1.102561E+05  3.780697E+04 -1.776803E+04  8.740285E+04  1.059555E+02  1.901544E+03
        61   1  4.305496E+05  2.598337E+04  3.022477E+04  1.426492E+04  2.059484E+04  4.728963E-01
        61   2  4.274924E+05  2.352870E+03  1.437007E+04  5.592481E+03  1.307375E+04  1.176911E-01
        61   3  4.305549E+05 -7.103672E+02  8.551270E+03 -3.079763E+03  5.552773E+03 -2.752732E-02
        61   4  4.305493E+05  2.598299E+04  3.022471E+04 -1.612556E-09  2.059484E+04 -5.442560E-11
        61   5  4.274924E+05  2.352812E+03  1.437006E+04  1.376475E-09  1.307375E+04  3.577070E-11
        61   6  4.305549E+05 -7.103850E+02  8.551267E+03  5.565178E-10  5.552773E+03  3.063811E-10
        61   7  4.305496E+05  2.598337E+04  3.022477E+04 -1.426492E+04  2.059484E+04 -4.728963E-01
        61   8  4.274924E+05  2.352870E+03  1.437007E+04 -5.592481E+03  1.307375E+04 -1.176911E-01
        61   9  4.305549E+05 -7.103672E+02  8.551270E+03  3.079763E+03  5.552773E+03  2.752732E-02
        61  10  4.305491E+05  2.598325E+04  3.022397E+04  1.426492E+04 -1.190802E-10 -4.432459E-12
        61  11  4.274922E+05  2.352825E+03  1.436975E+04  5.592481E+03  3.963605E-10  5.449144E-11
        61  12  4.305548E+05 -7.103754E+02  8.551212E+03 -3.079763E+03  1.027573E-11  3.197574E-10
        61  13  4.305489E+05  2.598287E+04  3.022391E+04  2.924825E-10 -1.442052E-11  1.611460E-11
        61  14  4.274922E+05  2.352766E+03  1.436974E+04  3.293040E-10 -1.532741E-10  9.069706E-11
        61  15  4.305548E+05 -7.103932E+02  8.551209E+03  2.314839E-10  3.813828E-10  2.057637E-10
        61  16  4.305491E+05  2.598325E+04  3.022397E+04 -1.426492E+04 -9.130749E-11  3.527721E-11
        61  17  4.274922E+05  2.352825E+03  1.436975E+04 -5.592481E+03 -3.720130E-10  8.980729E-11
        61  18  4.305548E+05 -7.103754E+02  8.551212E+03  3.079763E+03  2.222708E-10  1.080558E-10
        61  19  4.305496E+05  2.598337E+04  3.022477E+04  1.426492E+04 -2.059484E+04 -4.728963E-01
        61  20  4.274924E+05  2.352870E+03  1.437007E+04  5.592481E+03 -1.307375E+04 -1.176911E-01
        61  21  4.305549E+05 -7.103672E+02  8.551270E+03 -3.079763E+03 -5.552773E+03  2.752732E-02
        61  22  4.305493E+05  2.598299E+04  3.022471E+04 -1.836609E-09 -2.059484E+04  9.172048E-11
        61  23  4.274924E+05  2.352812E+03  1.437006E+04 -7.136600E-10 -1.307375E+04  1.551088E-10
        61  24  4.305549E+05 -7.103850E+02  8.551267E+03 -4.312126E-10 -5.552773E+03  1.102168E-10
        61  25  4.305496E+05  2.598337E+04  3.022477E+04 -1.426492E+04 -2.059484E+04  4.728963E-01
        61  26  4.274924E+05  2.352870E+03  1.437007E+04 -5.592481E+03 -1.307375E+04  1.176911E-01
        61  27  4.305549E+05 -7.103672E+02  8.551270E+03  3.079763E+03 -5.552773E+03 -2.752732E-02
        62   1  4.293166E+05  1.012624E+03  6.984034E+03  3.783444E+02  4.353052E+03  2.651055E-03
        62   2  4.290415E+05  6.538442E+00  4.747047E+03  1.255243E+02  1.988292E+03  4.017404E-04
        62   3  4.293170E+05 -2.766566E+01  4.291837E+03 -1.272997E+02 -3.765005E+02  7.714905E-05
        62   4  4.293166E+05  1.012624E+03  6.984034E+03 -7.552164E-10  4.353052E+03  3.265893E-10
        62   5  4.290415E+05  6.538412E+00  4.747047E+03 -9.277606E-10  1.988292E+03  9.342675E-11
        62   6  4.293170E+05 -2.766569E+01  4.291837E+03 -1.161840E-09 -3.765005E+02 -1.680088E-11
        62   7  4.293166E+05  1.012624E+03  6.984034E+03 -3.783444E+02  4.353052E+03 -2.651054E-03
        62   8  4.290415E+05  6.538442E+00  4.747047E+03 -1.255243E+02  1.988292E+03 -4.017401E-04
        62   9  4.293170E+05 -2.766566E+01  4.291837E+03  1.272997E+02 -3.765005E+02 -7.714908E-05
        62  10  4.293166E+05  1.012619E+03  6.983998E+03  3.783444E+02 -9.614895E-11  2.484730E-10
        62  11  4.290415E+05  6.537382E+00  4.747040E+03  1.255243E+02  1.813444E-10  4.508493E-11
        62  12  4.293170E+05 -2.766570E+01  4.291837E+03 -1.272997E+02 -3.739626E-10  1.753710E-10
        62  13  4.293166E+05  1.012618E+03  6.983998E+03  2.356690E-10  2.977591E-10  1.763267E-10
        62  14  4.290415E+05  6.537352E+00  4.747040E+03  1.367722E-10  1.647234E-10  4.776455E-11
        62  15  4.293170E+05 -2.766573E+01  4.291837E+03 -3.702674E-10 -3.315114E-10  1.038757E-10
        62  16  4.293166E+05  1.012619E+03  6.983998E+03 -3.783444E+02 -1.940033E-10  8.423254E-11
        62  17  4.290415E+05  6.537382E+00  4.747040E+03 -1.255243E+02  3.923286E-10  5.712844E-11
        62  18  4.293170E+05 -2.766570E+01  4.291837E+03  1.272997E+02  2.687284E-10  2.392281E-11
        62  19  4.293166E+05  1.012624E+03  6.984034E+03  3.783444E+02 -4.353052E+03 -2.651054E-03
        62  20  4.290415E+05  6.538442E+00  4.747047E+03  1.255243E+02 -1.988292E+03 -4.017404E-04
        62  21  4.293170E+05 -2.766566E+01  4.291837E+03 -1.272997E+02  3.765005E+02 -7.714871E-05
        62  22  4.293166E+05  1.012624E+03  6.984034E+03 -3.849735E-10 -4.353052E+03  2.359660E-11
        62  23  4.290415E+05  6.538412E+00  4.747047E+03  1.200779E-09 -1.988292E+03  4.595347E-12
        62  24  4.293170E+05 -2.766569E+01  4.291837E+03 -5.070047E-10  3.765005E+02  2.334686E-10
        62  25  4.293166E+05  1.012624E+03  6.984034E+03 -3.783444E+02 -4.353052E+03  2.651054E-03
        62  26  4.290415E+05  6.538442E+00  4.747047E+03 -1.255243E+02 -1.988292E+03  4.017404E-04
        62  27  4.293170E+05 -2.766566E+01  4.291837E+03  1.272997E+02  3.765005E+02  7.714920E-05
        63   1  4.293643E+05 -6.832527E+01  4.552993E+03  2.801490E+02 -1.157462E+03 -5.219550E-04
        63   2  4.289821E+05  3.282516E+01  6.183194E+03 -1.315426E+02 -4.241440E+03  8.980852E-04
        63   3  4.293635E+05  1.583516E+03  1.018260E+04 -5.432336E+02 -7.325427E+03  6.405561E-03
        63   4  4.293643E+05 -6.832542E+01  4.552993E+03 -1.091315E-09 -1.157462E+03 -1.855491E-11
        63   5  4.289821E+05  3.282513E+01  6.183194E+03 -3.945578E-10 -4.241440E+03 -1.188224E-10
        63   6  4.293635E+05  1.583515E+03  1.018260E+04 -1.517607E-09 -7.325427E+03 -3.191879E-10
        63   7  4.293643E+05 -6.832527E+01  4.552993E+03 -2.801490E+02 -1.157462E+03  5.219550E-04
        63   8  4.289821E+05  3.282516E+01  6.183194E+03  1.315426E+02 -4.241440E+03 -8.980853E-04
        63   9  4.293635E+05  1.583516E+03  1.018260E+04  5.432336E+02 -7.325427E+03 -6.405562E-03
        63  10  4.293643E+05 -6.832563E+01  4.552991E+03  2.801490E+02  4.987427E-11  2.045019E-10
        63  11  4.289821E+05  3.282034E+01  6.183160E+03 -1.315426E+02 -2.183116E-10 -1.221547E-10
        63  12  4.293635E+05  1.583501E+03  1.018250E+04 -5.432336E+02  4.427220E-11 -3.495973E-10
        63  13  4.293643E+05 -6.832578E+01  4.552991E+03  1.767518E-10 -1.472707E-10  8.476264E-11
        63  14  4.289821E+05  3.282030E+01  6.183160E+03  4.964020E-10  9.962431E-12 -1.151082E-10
        63  15  4.293635E+05  1.583501E+03  1.018250E+04 -5.346022E-10 -1.841934E-10 -2.689531E-10
        63  16  4.293643E+05 -6.832563E+01  4.552991E+03 -2.801490E+02 -3.626197E-11 -2.150578E-11
        63  17  4.289821E+05  3.282034E+01  6.183160E+03  1.315426E+02  2.540773E-10 -1.241167E-10
        63  18  4.293635E+05  1.583501E+03  1.018250E+04  5.432336E+02 -1.988205E-11 -1.936228E-10
        63  19  4.293643E+05 -6.832527E+01  4.552993E+03  2.801490E+02  1.157462E+03  5.219554E-04
        63  20  4.289821E+05  3.282516E+01  6.183194E+03 -1.315426E+02  4.241440E+03 -8.980854E-04
        63  21  4.293635E+05  1.583516E+03  1.018260E+04 -5.432336E+02  7.325427E+03 -6.405562E-03
        63  22  4.293643E+05 -6.832542E+01  4.552993E+03 -4.465207E-10  1.157462E+03  1.889526E-10
        63  23  4.289821E+05  3.282513E+01  6.183194E+03  1.779197E-09  4.241440E+03 -1.298630E-10
        63  24  4.293635E+05  1.583515E+03  1.018260E+04 -1.586522E-09  7.325427E+03 -2.254160E-10
        63  25  4.293643E+05 -6.832527E+01  4.552993E+03 -2.801490E+02  1.157462E+03 -5.219549E-04
        63  26  4.289821E+05  3.282516E+01  6.183194E+03  1.315426E+02  4.241440E+03  8.980851E-04
        63  27  4.293635E+05  1.583516E+03  1.018260E+04  5.432336E+02  7.325427E+03  6.405561E-03
        64   1  4.313028E+05 -1.095117E+03  1.279321E+04  4.812305E+03 -9.084471E+03 -7.037025E-02
        64   2  4.265561E+05  3.657787E+03  2.208284E+04 -8.657683E+03 -2.064871E+04  2.877627E-01
        64   3  4.312947E+05  4.033637E+04  4.687931E+04 -2.212763E+04 -3.221277E+04  1.147365E+00
        64   4  4.313027E+05 -1.095161E+03  1.279321E+04  1.073160E-10 -9.084471E+03 -3.531171E-10
        64   5  4.265560E+05  3.657647E+03  2.208282E+04  6.195901E-10 -2.064871E+04 -1.850871E-10
        64   6  4.312942E+05  4.033545E+04  4.687917E+04 -7.521204E-10 -3.221277E+04 -1.619157E-11
        64   7  4.313028E+05 -1.095117E+03  1.279321E+04 -4.812305E+03 -9.084471E+03  7.037025E-02
        64   8  4.265561E+05  3.657787E+03  2.208284E+04  8.657683E+03 -2.064871E+04 -2.877627E-01
        64   9  4.312947E+05  4.033637E+04  4.687931E+04  2.212763E+04 -3.221277E+04 -1.147365E+00
        64  10  4.313027E+05 -1.095140E+03  1.279306E+04  4.812305E+03  1.258030E-10 -3.206184E-10
        64  11  4.265557E+05  3.657673E+03  2.208204E+04 -8.657683E+03  3.554491E-11 -1.552668E-10
        64  12  4.312936E+05  4.033609E+04  4.687736E+04 -2.212763E+04  1.922197E-11 -3.318755E-11
        64  13  4.313027E+05 -1.095183E+03  1.279305E+04  6.837660E-10 -4.265927E-10 -2.653078E-10
        64  14  4.265556E+05  3.657532E+03  2.208202E+04  1.199378E-10 -1.346471E-10 -1.404974E-10
        64  15  4.312931E+05  4.033517E+04  4.687723E+04  4.902127E-10 -1.959633E-10 -2.988724E-11
        64  16  4.313027E+05 -1.095140E+03  1.279306E+04 -4.812305E+03 -1.325188E-10 -2.006570E-10
        64  17  4.265557E+05  3.657673E+03  2.208204E+04  8.657683E+03  8.587384E-11 -1.295694E-10
        64  18  4.312936E+05  4.033609E+04  4.687736E+04  2.212763E+04  6.373674E-11 -2.484139E-11
        64  19  4.313028E+05 -1.095117E+03  1.279321E+04  4.812305E+03  9.084471E+03  7.037025E-02
        64  20  4.265561E+05  3.657787E+03  2.208284E+04 -8.657683E+03  2.064871E+04 -2.877627E-01
        64  21  4.312947E+05  4.033637E+04  4.687931E+04 -2.212763E+04  3.221277E+04 -1.147365E+00
        64  22  4.313027E+05 -1.095161E+03  1.279321E+04 -8.872534E-10  9.084471E+03 -1.798520E-10
        64  23  4.265560E+05  3.657647E+03  2.208282E+04 -2.466471E-10  2.064871E+04 -1.020033E-10
        64  24  4.312942E+05  4.033545E+04  4.687917E+04 -1.021931E-09  3.221277E+04 -4.799193E-11
        64  25  4.313028E+05 -1.095117E+03  1.279321E+04 -4.812305E+03  9.084471E+03 -7.037025E-02
        64  26  4.265561E+05  3.657787E+03  2.208284E+04  8.657683E+03  2.064871E+04  2.877627E-01
        64  27  4.312947E+05  4.033637E+04  4.687931E+04  2.212763E+04  3.221277E+04  1.147365E+00
        65   1 -4.974045E+04 -2.829397E+04 -6.251153E+04  1.722939E+04  1.018991E+03 -5.345379E+04
        65   2  9.136215E+03 -4.986890E+04 -2.741513E+04 -2.579699E+03  2.809431E+03 -3.498899E+04
        65   3  1.041118E+04 -8.824569E+04 -1.873914E+04 -3.172632E+04  1.937154E+03 -1.652498E+04
        65   4 -7.334683E+04 -1.233512E+05 -8.548078E+04 -2.309319E+04  1.022640E+03 -5.719160E+04
        65   5 -6.624710E+03 -1.146684E+05 -4.142249E+04 -1.842261E+04  2.810377E+03 -3.553642E+04
        65   6  1.935870E+03 -1.233461E+05 -2.600348E+04 -2.308988E+04  1.936728E+03 -1.388103E+04
        65   7 -9.694775E+04 -2.183967E+05 -1.084498E+05 -6.340957E+04  1.026775E+03 -6.092884E+04
        65   8 -2.238497E+04 -1.794634E+05 -5.542997E+04 -3.426385E+04  2.811351E+03 -3.608381E+04
        65   9 -6.539234E+03 -1.584452E+05 -3.326783E+04 -1.445394E+04  1.936375E+03 -1.123723E+04
        65  10 -4.974122E+04 -2.829704E+04 -6.251690E+04  1.722943E+04 -1.078018E-10 -1.356873E-10
        65  11  9.135878E+03 -4.987022E+04 -2.741744E+04 -2.579620E+03 -3.070667E-10 -7.595560E-15
        65  12  1.041110E+04 -8.824599E+04 -1.873966E+04 -3.172629E+04  1.870364E-10  2.776187E-10
        65  13 -7.334771E+04 -1.233547E+05 -8.548693E+04 -2.309314E+04  9.553976E-11 -3.323945E-13
        65  14 -6.625058E+03 -1.146698E+05 -4.142488E+04 -1.842253E+04 -3.220399E-12 -1.377006E-12
        65  15  1.935814E+03 -1.233463E+05 -2.600385E+04 -2.308986E+04 -3.244096E-10 -1.515888E-11
        65  16 -9.694875E+04 -2.184007E+05 -1.084567E+05 -6.340952E+04 -4.136112E-11  1.450446E-10
        65  17 -2.238533E+04 -1.794648E+05 -5.543243E+04 -3.426377E+04 -2.012919E-10 -6.688475E-11
        65  18 -6.539272E+03 -1.584453E+05 -3.326807E+04 -1.445392E+04 -1.552257E-10 -2.071763E-10
        65  19 -4.974045E+04 -2.829397E+04 -6.251153E+04  1.722939E+04 -1.018991E+03  5.345379E+04
        65  20  9.136215E+03 -4.986890E+04 -2.741513E+04 -2.579699E+03 -2.809431E+03  3.498899E+04
        65  21  1.041118E+04 -8.824569E+04 -1.873914E+04 -3.172632E+04 -1.937154E+03  1.652498E+04
        65  22 -7.334683E+04 -1.233512E+05 -8.548078E+04 -2.309319E+04 -1.022640E+03  5.719160E+04
        65  23 -6.624710E+03 -1.146684E+05 -4.142249E+04 -1.842261E+04 -2.810377E+03  3.553642E+04
        65  24  1.935870E+03 -1.233461E+05 -2.600348E+04 -2.308988E+04 -1.936728E+03  1.388103E+04
        65  25 -9.694775E+04 -2.183967E+05 -1.084498E+05 -6.340957E+04 -1.026775E+03  6.092884E+04
        65  26 -2.238497E+04 -1.794634E+05 -5.542997E+04 -3.426385E+04 -2.811351E+03  3.608381E+04
        65  27 -6.539234E+03 -1.584452E+05 -3.326783E+04 -1.445394E+04 -1.936375E+03  1.123723E+04
        66   1  5.056630E+02 -1.065270E+05 -1.940606E+04 -2.164092E+04  6.816166E+02 -1.217678E+04
        66   2 -4.128777E+03 -1.352908E+05 -2.129756E+04 -1.836587E+04 -1.011741E+03 -3.146757E+03
        66   3 -1.357830E+04 -1.664340E+05 -3.027248E+04 -2.456093E+04 -2.658943E+03  5.882889E+03
        66   4 -2.760261E+03 -1.200155E+05 -2.224692E+04 -2.311985E+04  6.814799E+02 -1.011814E+04
        66   5 -1.711800E+02 -1.188303E+05 -1.797242E+04 -1.838476E+04 -1.011885E+03 -1.143599E+03
        66   6 -2.387471E+03 -1.200158E+05 -2.074284E+04 -2.311983E+04 -2.659055E+03  7.830978E+03
        66   7 -6.026186E+03 -1.335038E+05 -2.508777E+04 -2.459875E+04  6.813333E+02 -8.059536E+03
        66   8  3.786402E+03 -1.023695E+05 -1.464728E+04 -1.840365E+04 -1.012030E+03  8.596113E+02
        66   9  8.803228E+03 -7.359550E+04 -1.121331E+04 -2.167861E+04 -2.659158E+03  9.779209E+03
        66  10  5.056227E+02 -1.065272E+05 -1.940634E+04 -2.164091E+04  3.177154E-10 -8.572078E-11
        66  11 -4.128781E+03 -1.352908E+05 -2.129758E+04 -1.836588E+04 -7.152566E-13  6.733891E-11
        66  12 -1.357831E+04 -1.664340E+05 -3.027256E+04 -2.456092E+04  2.234652E-10  2.832275E-10
        66  13 -2.760289E+03 -1.200156E+05 -2.224712E+04 -2.311984E+04 -3.516048E-10  1.953607E-12
        66  14 -1.711814E+02 -1.188303E+05 -1.797243E+04 -1.838476E+04 -3.594434E-10  4.359730E-12
        66  15 -2.387495E+03 -1.200158E+05 -2.074297E+04 -2.311981E+04 -7.497088E-12 -2.456082E-11
        66  16 -6.026204E+03 -1.335039E+05 -2.508790E+04 -2.459875E+04 -9.872181E-12  1.366943E-10
        66  17  3.786401E+03 -1.023695E+05 -1.464728E+04 -1.840365E+04  2.648982E-10 -1.651598E-10
        66  18  8.803194E+03 -7.359560E+04 -1.121350E+04 -2.167859E+04  2.293360E-10 -2.285394E-10
        66  19  5.056630E+02 -1.065270E+05 -1.940606E+04 -2.164092E+04 -6.816166E+02  1.217678E+04
        66  20 -4.128777E+03 -1.352908E+05 -2.129756E+04 -1.836587E+04  1.011741E+03  3.146757E+03
        66  21 -1.357830E+04 -1.664340E+05 -3.027248E+04 -2.456093E+04  2.658943E+03 -5.882889E+03
        66  22 -2.760261E+03 -1.200155E+05 -2.224692E+04 -2.311985E+04 -6.814799E+02  1.011814E+04
        66  23 -1.711800E+02 -1.188303E+05 -1.797242E+04 -1.838476E+04  1.011885E+03  1.143599E+03
        66  24 -2.387471E+03 -1.200158E+05 -2.074284E+04 -2.311983E+04  2.659055E+03 -7.830978E+03
        66  25 -6.026186E+03 -1.335038E+05 -2.508777E+04 -2.459875E+04 -6.813333E+02  8.059536E+03
        66  26  3.786402E+03 -1.023695E+05 -1.464728E+04 -1.840365E+04  1.012030E+03 -8.596113E+02
        66  27  8.803228E+03 -7.359550E+04 -1.121331E+04 -2.167861E+04  2.659158E+03 -9.779209E+03
        67   1 -1.471679E+04 -1.909350E+05 -3.765158E+04 -1.554291E+04 -3.941986E+03  8.578893E+03
        67   2 -2.952715E+04 -2.129166E+05 -5.768641E+04 -3.237242E+04 -4.479280E+03  3.197889E+04
        67   3 -9.612680E+04 -2.508916E+05 -1.059053E+05 -5.848927E+04 -1.521691E+03  5.537730E+04
        67   4  1.684884E+03 -1.228810E+05 -2.371392E+04 -2.307938E+04 -3.942232E+03  1.131944E+04
        67   5 -5.807143E+03 -1.152514E+05 -3.676324E+04 -1.843565E+04 -4.478457E+03  3.052732E+04
        67   6 -6.435761E+04 -1.228862E+05 -7.508246E+04 -2.308096E+04 -1.518429E+03  4.973493E+04
        67   7  1.808648E+04 -5.482234E+04 -9.776444E+03 -3.061668E+04 -3.942544E+03  1.406027E+04
        67   8  1.791297E+04 -1.757676E+04 -1.584051E+04 -4.496648E+03 -4.477700E+03  2.907553E+04
        67   9 -3.258487E+04  5.136880E+03 -4.425998E+04  1.233469E+04 -1.515811E+03  4.409140E+04
        67  10 -1.471682E+04 -1.909351E+05 -3.765175E+04 -1.554288E+04  8.398791E-11 -6.823405E-10
        67  11 -2.952744E+04 -2.129177E+05 -5.768837E+04 -3.237231E+04 -2.433870E-10 -2.204002E-10
        67  12 -9.612763E+04 -2.508949E+05 -1.059111E+05 -5.848920E+04 -1.571982E-10  2.516591E-10
        67  13  1.684833E+03 -1.228811E+05 -2.371419E+04 -2.307934E+04  4.240070E-10  1.224134E-12
        67  14 -5.807415E+03 -1.152524E+05 -3.676503E+04 -1.843554E+04 -2.741875E-10  5.571832E-12
        67  15 -6.435827E+04 -1.228889E+05 -7.508711E+04 -2.308090E+04 -9.814428E-11  1.480760E-11
        67  16  1.808641E+04 -5.482255E+04 -9.776844E+03 -3.061664E+04  1.604848E-10  7.017277E-10
        67  17  1.791272E+04 -1.757768E+04 -1.584214E+04 -4.496543E+03  2.035320E-10  1.999036E-10
        67  18 -3.258540E+04  5.134792E+03 -4.426364E+04  1.233474E+04 -1.382996E-10 -2.910833E-10
        67  19 -1.471679E+04 -1.909350E+05 -3.765158E+04 -1.554291E+04  3.941986E+03 -8.578893E+03
        67  20 -2.952715E+04 -2.129166E+05 -5.768641E+04 -3.237242E+04  4.479280E+03 -3.197889E+04
        67  21 -9.612680E+04 -2.508916E+05 -1.059053E+05 -5.848927E+04  1.521691E+03 -5.537730E+04
        67  22  1.684884E+03 -1.228810E+05 -2.371392E+04 -2.307938E+04  3.942232E+03 -1.131944E+04
        67  23 -5.807143E+03 -1.152514E+05 -3.676324E+04 -1.843565E+04  4.478457E+03 -3.052732E+04
        67  24 -6.435761E+04 -1.228862E+05 -7.508246E+04 -2.308096E+04  1.518429E+03 -4.973493E+04
        67  25  1.808648E+04 -5.482234E+04 -9.776444E+03 -3.061668E+04  3.942544E+03 -1.406027E+04
        67  26  1.791297E+04 -1.757676E+04 -1.584051E+04 -4.496648E+03  4.477700E+03 -2.907553E+04
        67  27 -3.258487E+04  5.136880E+03 -4.425998E+04  1.233469E+04  1.515811E+03 -4.409140E+04
        68   1  7.978059E+04  1.819767E+03 -3.816167E+04  7.011611E+04 -1.172896E+04 -6.995156E+03
        68   2  9.027651E+04  2.247116E+04 -2.544286E+04  7.349539E+04 -8.456752E+03 -7.084027E+02
        68   3  1.004210E+05  3.185089E+04 -1.904172E+04  7.822265E+04 -3.432011E+03  3.241987E+03
        68   4  1.547032E+05  6.423515E+04 -1.177883E+04  1.114024E+05 -7.383271E+03 -3.736239E+03
        68   5  1.564494E+05  7.290021E+04 -5.506440E+03  1.082285E+05 -6.914913E+03  4.477651E+02
        68   6  1.584529E+05  7.090245E+04 -3.117847E+03  1.064023E+05 -4.694284E+03  2.295377E+03
        68   7  2.296319E+05  1.266552E+05  1.460334E+04  1.526948E+05 -3.036867E+03 -4.766612E+02
        68   8  2.226269E+05  1.233320E+05  1.442940E+04  1.429658E+05 -5.372859E+03  1.604111E+03
        68   9  2.164879E+05  1.099553E+05  1.280551E+04  1.345847E+05 -5.956705E+03  1.348665E+03
        68  10  7.978043E+04  1.819677E+03 -3.816202E+04  7.011604E+04  7.874112E-11 -1.984808E-11
        68  11  9.027643E+04  2.247114E+04 -2.544300E+04  7.349538E+04  2.680381E-10 -1.557171E-13
        68  12  1.004210E+05  3.185087E+04 -1.904176E+04  7.822266E+04 -3.903651E-11  1.982158E-11
        68  13  1.547031E+05  6.423512E+04 -1.177896E+04  1.114024E+05  5.872400E-11  4.823732E-11
        68  14  1.564494E+05  7.290019E+04 -5.506530E+03  1.082285E+05 -2.652523E-11  5.618892E-11
        68  15  1.584528E+05  7.090244E+04 -3.117898E+03  1.064023E+05 -7.908720E-11  4.394104E-11
        68  16  2.296319E+05  1.266552E+05  1.460332E+04  1.526948E+05  2.784121E-10  3.024667E-11
        68  17  2.226268E+05  1.233320E+05  1.442934E+04  1.429658E+05  8.900321E-11  6.225015E-11
        68  18  2.164878E+05  1.099553E+05  1.280544E+04  1.345847E+05  2.950114E-10  6.538451E-11
        68  19  7.978059E+04  1.819767E+03 -3.816167E+04  7.011611E+04  1.172896E+04  6.995156E+03
        68  20  9.027651E+04  2.247116E+04 -2.544286E+04  7.349539E+04  8.456752E+03  7.084027E+02
        68  21  1.004210E+05  3.185089E+04 -1.904172E+04  7.822265E+04  3.432011E+03 -3.241987E+03
        68  22  1.547032E+05  6.423515E+04 -1.177883E+04  1.114024E+05  7.383271E+03  3.736239E+03
        68  23  1.564494E+05  7.290021E+04 -5.506440E+03  1.082285E+05  6.914913E+03 -4.477651E+02
        68  24  1.584529E+05  7.090245E+04 -3.117847E+03  1.064023E+05  4.694284E+03 -2.295377E+03
        68  25  2.296319E+05  1.266552E+05  1.460334E+04  1.526948E+05  3.036867E+03  4.766612E+02
        68  26  2.226269E+05  1.233320E+05  1.442940E+04  1.429658E+05  5.372859E+03 -1.604111E+03
        68  27  2.164879E+05  1.099553E+05  1.280551E+04  1.345847E+05  5.956705E+03 -1.348665E+03
        69   1  1.101644E+05  3.617871E+04 -1.603445E+04  8.258716E+04 -3.218434E+03  2.509013E+03
        69   2  1.193933E+05  4.714177E+04 -1.159337E+04  8.895247E+04 -2.047450E+03  2.361869E+03
        69   3  1.331642E+05  5.296878E+04 -7.801427E+03  9.399963E+04 -7.798018E+02  2.085795E+03
        69   4  1.585563E+05  7.061552E+04 -2.425229E+03  1.069518E+05 -3.928770E+03  1.976317E+03
        69   5  1.563448E+05  7.330219E+04 -1.311768E+03  1.075096E+05 -2.912501E+03  1.713188E+03
        69   6  1.587086E+05  7.088622E+04 -7.131586E+02  1.067491E+05 -1.799584E+03  1.321121E+03
        69   7  2.069508E+05  1.050537E+05  1.118376E+04  1.313187E+05 -4.639181E+03  1.443565E+03
        69   8  1.932979E+05  9.946358E+04  8.969792E+03  1.260682E+05 -3.777628E+03  1.064450E+03
        69   9  1.842541E+05  8.880428E+04  6.375167E+03  1.194993E+05 -2.819436E+03  5.563938E+02
        69  10  1.101644E+05  3.617870E+04 -1.603448E+04  8.258717E+04 -1.054270E-10  2.901807E-11
        69  11  1.193933E+05  4.714176E+04 -1.159339E+04  8.895247E+04  1.742336E-10 -6.364431E-11
        69  12  1.331642E+05  5.296877E+04 -7.801436E+03  9.399963E+04  2.639603E-10 -4.802205E-12
        69  13  1.585562E+05  7.061551E+04 -2.425266E+03  1.069519E+05  2.542376E-10  2.372753E-11
        69  14  1.563447E+05  7.330218E+04 -1.311789E+03  1.075096E+05  5.665838E-11 -1.281357E-10
        69  15  1.587086E+05  7.088622E+04 -7.131680E+02  1.067491E+05 -2.591126E-10 -8.164748E-11
        69  16  2.069507E+05  1.050537E+05  1.118372E+04  1.313187E+05  1.538695E-10  3.218398E-11
        69  17  1.932979E+05  9.946358E+04  8.969763E+03  1.260682E+05 -1.140489E-10  4.352641E-11
        69  18  1.842541E+05  8.880427E+04  6.375151E+03  1.194993E+05 -8.453617E-13 -1.817491E-10
        69  19  1.101644E+05  3.617871E+04 -1.603445E+04  8.258716E+04  3.218434E+03 -2.509013E+03
        69  20  1.193933E+05  4.714177E+04 -1.159337E+04  8.895247E+04  2.047450E+03 -2.361869E+03
        69  21  1.331642E+05  5.296878E+04 -7.801427E+03  9.399963E+04  7.798018E+02 -2.085795E+03
        69  22  1.585563E+05  7.061552E+04 -2.425229E+03  1.069518E+05  3.928770E+03 -1.976317E+03
        69  23  1.563448E+05  7.330219E+04 -1.311768E+03  1.075096E+05  2.912501E+03 -1.713188E+03
        69  24  1.587086E+05  7.088622E+04 -7.131586E+02  1.067491E+05  1.799584E+03 -1.321121E+03
        69  25  2.069508E+05  1.050537E+05  1.118376E+04  1.313187E+05  4.639181E+03 -1.443565E+03
        69  26  1.932979E+05  9.946358E+04  8.969792E+03  1.260682E+05  3.777628E+03 -1.064450E+03
        69  27  1.842541E+05  8.880428E+04  6.375167E+03  1.194993E+05  2.819436E+03 -5.563938E+02
        70   1  1.415198E+05  5.876515E+04 -5.232449E+03  9.816122E+04 -3.532819E+02  1.635740E+03
        70   2  1.506382E+05  6.932088E+04 -1.766416E+03  1.046460E+05  3.465053E+02  8.704797E+02
        70   3  1.645622E+05  7.504505E+04  1.631398E+03  1.097215E+05  1.046967E+03  1.042921E+02
        70   4  1.587221E+05  7.087914E+04 -5.108353E+02  1.067797E+05 -1.343864E+03  8.929734E+02
        70   5  1.563217E+05  7.329944E+04 -2.008232E+02  1.074808E+05 -6.451845E+02  1.268940E+02
        70   6  1.587273E+05  7.088853E+04  4.201390E+01  1.067726E+05  5.416962E+01 -6.401158E+02
        70   7  1.759245E+05  8.299313E+04  4.210679E+03  1.153984E+05 -2.334470E+03  1.501887E+02
        70   8  1.620053E+05  7.727800E+04  1.364759E+03  1.103156E+05 -1.636880E+03 -6.166959E+02
        70   9  1.528925E+05  6.673204E+04 -1.547366E+03  1.038237E+05 -9.386149E+02 -1.384514E+03
        70  10  1.415198E+05  5.876515E+04 -5.232454E+03  9.816122E+04 -1.311954E-10 -7.325226E-11
        70  11  1.506382E+05  6.932088E+04 -1.766417E+03  1.046460E+05 -3.463075E-10  1.238825E-10
        70  12  1.645622E+05  7.504505E+04  1.631396E+03  1.097215E+05  1.743045E-10  5.150464E-11
        70  13  1.587221E+05  7.087914E+04 -5.108402E+02  1.067797E+05 -1.877731E-10 -1.015545E-10
        70  14  1.563217E+05  7.329944E+04 -2.008240E+02  1.074808E+05  1.109646E-10 -4.203554E-11
        70  15  1.587273E+05  7.088853E+04  4.201312E+01  1.067726E+05  2.181908E-10 -1.387368E-10
        70  16  1.759245E+05  8.299313E+04  4.210668E+03  1.153984E+05  1.812430E-10 -2.181297E-12
        70  17  1.620053E+05  7.727799E+04  1.364753E+03  1.103156E+05  3.762927E-10 -6.944569E-11
        70  18  1.528925E+05  6.673204E+04 -1.547372E+03  1.038237E+05  1.894167E-10 -3.449903E-10
        70  19  1.415198E+05  5.876515E+04 -5.232449E+03  9.816122E+04  3.532819E+02 -1.635740E+03
        70  20  1.506382E+05  6.932088E+04 -1.766416E+03  1.046460E+05 -3.465053E+02 -8.704797E+02
        70  21  1.645622E+05  7.504505E+04  1.631398E+03  1.097215E+05 -1.046967E+03 -1.042921E+02
        70  22  1.587221E+05  7.087914E+04 -5.108353E+02  1.067797E+05  1.343864E+03 -8.929734E+02
        70  23  1.563217E+05  7.329944E+04 -2.008232E+02  1.074808E+05  6.451845E+02 -1.268940E+02
        70  24  1.587273E+05  7.088853E+04  4.201390E+01  1.067726E+05 -5.416962E+01  6.401158E+02
        70  25  1.759245E+05  8.299313E+04  4.210679E+03  1.153984E+05  2.334470E+03 -1.501887E+02
        70  26  1.620053E+05  7.727800E+04  1.364759E+03  1.103156E+05  1.636880E+03  6.166959E+02
        70  27  1.528925E+05  6.673204E+04 -1.547366E+03  1.038237E+05  9.386149E+02  1.384514E+03
        71   1  1.728290E+05  8.092515E+04  4.117233E+03  1.138893E+05  1.427021E+03 -3.795592E+02
        71   2  1.819601E+05  9.142330E+04  7.593960E+03  1.203357E+05  1.706338E+03 -1.407486E+03
        71   3  1.960259E+05  9.724948E+04  1.136885E+04  1.253414E+05  1.902121E+03 -2.323983E+03
        71   4  1.587330E+05  7.088813E+04  1.614901E+02  1.067875E+05  4.093959E+02 -1.142592E+03
        71   5  1.563098E+05  7.329145E+04  4.518021E+02  1.074683E+05  8.224739E+02 -2.070250E+03
        71   6  1.587920E+05  7.099354E+04  9.241838E+02  1.067080E+05  1.152023E+03 -2.886461E+03
        71   7  1.446371E+05  6.085111E+04 -3.794328E+03  9.968589E+04 -6.082105E+02 -1.905610E+03
        71   8  1.306602E+05  5.515998E+04 -6.690416E+03  9.460141E+04 -6.134086E+01 -2.732977E+03
        71   9  1.215601E+05  4.473873E+04 -9.520455E+03  8.807614E+04  4.019952E+02 -3.448888E+03
        71  10  1.728290E+05  8.092515E+04  4.117229E+03  1.138893E+05 -1.366100E-10 -2.669226E-10
        71  11  1.819601E+05  9.142329E+04  7.593951E+03  1.203357E+05 -7.050790E-11 -2.082795E-10
        71  12  1.960259E+05  9.724948E+04  1.136883E+04  1.253414E+05  4.119580E-11 -8.898321E-11
        71  13  1.587330E+05  7.088813E+04  1.614874E+02  1.067875E+05  5.102758E-10 -1.075676E-10
        71  14  1.563098E+05  7.329145E+04  4.517928E+02  1.074683E+05  6.300127E-11  2.821681E-11
        71  15  1.587920E+05  7.099353E+04  9.241657E+02  1.067080E+05 -9.046975E-11  1.243533E-10
        71  16  1.446371E+05  6.085110E+04 -3.794335E+03  9.968589E+04  6.591700E-10  1.564229E-11
        71  17  1.306602E+05  5.515998E+04 -6.690430E+03  9.460141E+04 -1.581459E-10  1.122653E-10
        71  18  1.215601E+05  4.473871E+04 -9.520478E+03  8.807614E+04  3.734818E-10  2.703468E-10
        71  19  1.728290E+05  8.092515E+04  4.117233E+03  1.138893E+05 -1.427021E+03  3.795592E+02
        71  20  1.819601E+05  9.142330E+04  7.593960E+03  1.203357E+05 -1.706338E+03  1.407486E+03
        71  21  1.960259E+05  9.724948E+04  1.136885E+04  1.253414E+05 -1.902121E+03  2.323983E+03
        71  22  1.587330E+05  7.088813E+04  1.614901E+02  1.067875E+05 -4.093959E+02  1.142592E+03
        71  23  1.563098E+05  7.329145E+04  4.518021E+02  1.074683E+05 -8.224739E+02  2.070250E+03
        71  24  1.587920E+05  7.099354E+04  9.241838E+02  1.067080E+05 -1.152023E+03  2.886461E+03
        71  25  1.446371E+05  6.085111E+04 -3.794328E+03  9.968589E+04  6.082105E+02  1.905610E+03
        71  26  1.306602E+05  5.515998E+04 -6.690416E+03  9.460141E+04  6.134086E+01  2.732977E+03
        71  27  1.215601E+05  4.473873E+04 -9.520455E+03  8.807614E+04 -4.019952E+02  3.448888E+03
        72   1  2.038541E+05  1.035852E+05  1.397542E+04  1.299061E+05  2.670577E+03 -2.622986E+03
        72   2  2.140758E+05  1.128950E+05  1.883185E+04  1.353874E+05 -6.567411E+02 -5.136983E+03
        72   3  2.312652E+05  1.204233E+05  2.733097E+04  1.384256E+05 -5.499525E+03 -5.630461E+03
        72   4  1.587931E+05  7.092054E+04  1.209534E+03  1.069388E+05  1.443210E+03 -3.543367E+03
        72   5  1.563158E+05  7.339658E+04  2.171782E+03  1.071686E+05  5.417529E+02 -4.238296E+03
        72   6  1.602798E+05  7.356497E+04  4.671906E+03  1.049551E+05 -1.875156E+03 -2.912513E+03
        72   7  1.137343E+05  3.825714E+04 -1.155656E+04  8.397347E+04  2.159627E+02 -4.463655E+03
        72   8  9.855902E+04  3.389958E+04 -1.448876E+04  7.895257E+04  1.740104E+03 -3.339712E+03
        72   9  8.929891E+04  2.670827E+04 -1.798802E+04  7.148835E+04  1.748691E+03 -1.949162E+02
        72  10  2.038541E+05  1.035852E+05  1.397539E+04  1.299061E+05 -1.890718E-10  1.223126E-10
        72  11  2.140758E+05  1.128950E+05  1.883180E+04  1.353874E+05  1.680704E-10  2.911145E-11
        72  12  2.312651E+05  1.204233E+05  2.733085E+04  1.384256E+05 -1.258973E-10 -6.398866E-11
        72  13  1.587931E+05  7.092052E+04  1.209506E+03  1.069388E+05 -2.799073E-10  5.760618E-11
        72  14  1.563158E+05  7.339656E+04  2.171748E+03  1.071686E+05  1.786769E-10 -5.669293E-11
        72  15  1.602798E+05  7.356496E+04  4.671884E+03  1.049551E+05  2.012452E-11 -1.657966E-11
        72  16  1.137343E+05  3.825712E+04 -1.155660E+04  8.397347E+04 -1.817840E-10 -6.608159E-11
        72  17  9.855901E+04  3.389957E+04 -1.448879E+04  7.895257E+04  3.468862E-10 -1.002940E-10
        72  18  8.929891E+04  2.670827E+04 -1.798802E+04  7.148835E+04 -4.178206E-11  3.271965E-12
        72  19  2.038541E+05  1.035852E+05  1.397542E+04  1.299061E+05 -2.670577E+03  2.622986E+03
        72  20  2.140758E+05  1.128950E+05  1.883185E+04  1.353874E+05  6.567411E+02  5.136983E+03
        72  21  2.312652E+05  1.204233E+05  2.733097E+04  1.384256E+05  5.499525E+03  5.630461E+03
        72  22  1.587931E+05  7.092054E+04  1.209534E+03  1.069388E+05 -1.443210E+03  3.543367E+03
        72  23  1.563158E+05  7.339658E+04  2.171782E+03  1.071686E+05 -5.417529E+02  4.238296E+03
        72  24  1.602798E+05  7.356497E+04  4.671906E+03  1.049551E+05  1.875156E+03  2.912513E+03
        72  25  1.137343E+05  3.825714E+04 -1.155656E+04  8.397347E+04 -2.159627E+02  4.463655E+03
        72  26  9.855902E+04  3.389958E+04 -1.448876E+04  7.895257E+04 -1.740104E+03  3.339712E+03
        72  27  8.929891E+04  2.670827E+04 -1.798802E+04  7.148835E+04 -1.748691E+03  1.949162E+02
        73   1  2.061290E+05 -3.974946E+01 -2.914550E+01 -1.501465E+01 -1.305461E+02  3.156143E-06
        73   2  2.061306E+05 -5.799659E+00  7.015974E+01  1.234831E+00 -1.645765E+02 -3.272982E-07
        73   3  2.061290E+05 -2.044713E+00  1.840652E+02  1.748455E+01 -1.986074E+02 -5.591524E-06
        73   4  2.061290E+05 -3.974946E+01 -2.914550E+01 -7.123147E-10 -1.305461E+02 -4.430732E-11
        73   5  2.061306E+05 -5.799659E+00  7.015974E+01  9.164071E-10 -1.645765E+02 -1.024041E-10
        73   6  2.061290E+05 -2.044713E+00  1.840652E+02 -3.209295E-11 -1.986074E+02  2.880827E-11
        73   7  2.061290E+05 -3.974946E+01 -2.914550E+01  1.501465E+01 -1.305461E+02 -3.156241E-06
        73   8  2.061306E+05 -5.799659E+00  7.015974E+01 -1.234831E+00 -1.645765E+02  3.271127E-07
        73   9  2.061290E+05 -2.044713E+00  1.840652E+02 -1.748455E+01 -1.986074E+02  5.591580E-06
        73  10  2.061290E+05 -3.974946E+01 -2.914553E+01 -1.501465E+01  1.243259E-10 -4.245498E-11
        73  11  2.061306E+05 -5.799666E+00  7.015969E+01  1.234831E+00  2.143763E-10 -4.246604E-11
        73  12  2.061290E+05 -2.044723E+00  1.840651E+02  1.748455E+01 -1.501065E-10  2.102335E-10
        73  13  2.061290E+05 -3.974946E+01 -2.914553E+01  8.583115E-10  7.238311E-11 -4.776570E-11
        73  14  2.061306E+05 -5.799666E+00  7.015969E+01 -3.996800E-10 -6.014547E-11 -7.276071E-11
        73  15  2.061290E+05 -2.044724E+00  1.840651E+02  4.270352E-10 -1.153535E-10  1.306566E-10
        73  16  2.061290E+05 -3.974946E+01 -2.914553E+01  1.501465E+01 -1.345451E-11 -5.742876E-11
        73  17  2.061306E+05 -5.799666E+00  7.015969E+01 -1.234831E+00  2.074501E-10 -1.098323E-10
        73  18  2.061290E+05 -2.044723E+00  1.840651E+02 -1.748455E+01  4.849974E-10  5.765951E-11
        73  19  2.061290E+05 -3.974946E+01 -2.914550E+01 -1.501465E+01  1.305461E+02 -3.156250E-06
        73  20  2.061306E+05 -5.799659E+00  7.015974E+01  1.234831E+00  1.645765E+02  3.272281E-07
        73  21  2.061290E+05 -2.044713E+00  1.840652E+02  1.748455E+01  1.986074E+02  5.591937E-06
        73  22  2.061290E+05 -3.974946E+01 -2.914550E+01 -1.345255E-09  1.305461E+02 -5.401823E-11
        73  23  2.061306E+05 -5.799659E+00  7.015974E+01  1.688311E-10  1.645765E+02 -4.377469E-11
        73  24  2.061290E+05 -2.044713E+00  1.840652E+02 -1.162518E-09  1.986074E+02  2.358275E-10
        73  25  2.061290E+05 -3.974946E+01 -2.914550E+01  1.501465E+01  1.305461E+02  3.156151E-06
        73  26  2.061306E+05 -5.799659E+00  7.015974E+01 -1.234831E+00  1.645765E+02 -3.273059E-07
        73  27  2.061290E+05 -2.044713E+00  1.840652E+02 -1.748455E+01  1.986074E+02 -5.591457E-06
        74   1  2.061378E+05 -6.273216E+00  2.591913E+02  1.746871E+01 -2.390198E+02 -6.723128E-06
        74   2  2.061195E+05 -9.291197E+00  4.782312E+02  2.571903E+01 -4.756898E+02 -1.969991E-05
        74   3  2.061378E+05  1.043976E+01  8.570029E+02  3.396935E+01 -7.123600E+02 -3.896507E-05
        74   4  2.061378E+05 -6.273217E+00  2.591913E+02 -8.351488E-11 -2.390198E+02  1.065164E-10
        74   5  2.061195E+05 -9.291199E+00  4.782312E+02 -1.222283E-10 -4.756898E+02  6.257274E-11
        74   6  2.061378E+05  1.043976E+01  8.570029E+02 -8.998448E-10 -7.123600E+02 -8.335682E-11
        74   7  2.061378E+05 -6.273216E+00  2.591913E+02 -1.746871E+01 -2.390198E+02  6.723348E-06
        74   8  2.061195E+05 -9.291197E+00  4.782312E+02 -2.571903E+01 -4.756898E+02  1.970006E-05
        74   9  2.061378E+05  1.043976E+01  8.570029E+02 -3.396935E+01 -7.123600E+02  3.896490E-05
        74  10  2.061378E+05 -6.273232E+00  2.591912E+02  1.746871E+01  2.152291E-10  2.218465E-10
        74  11  2.061195E+05 -9.291258E+00  4.782308E+02  2.571903E+01 -2.347717E-10 -4.491622E-11
        74  12  2.061378E+05  1.043962E+01  8.570019E+02  3.396935E+01  4.656435E-11 -1.468612E-10
        74  13  2.061378E+05 -6.273232E+00  2.591912E+02  6.480194E-10  3.437202E-10  1.599816E-10
        74  14  2.061195E+05 -9.291259E+00  4.782308E+02  2.451167E-10  3.809474E-10 -1.554361E-11
        74  15  2.061378E+05  1.043962E+01  8.570019E+02 -8.320024E-10  3.504816E-10 -7.413901E-11
        74  16  2.061378E+05 -6.273232E+00  2.591912E+02 -1.746871E+01 -1.199271E-10  9.633020E-11
        74  17  2.061195E+05 -9.291258E+00  4.782308E+02 -2.571903E+01  7.718718E-11  5.470969E-12
        74  18  2.061378E+05  1.043962E+01  8.570019E+02 -3.396935E+01  2.766628E-10 -1.648138E-12
        74  19  2.061378E+05 -6.273216E+00  2.591913E+02  1.746871E+01  2.390198E+02  6.723569E-06
        74  20  2.061195E+05 -9.291197E+00  4.782312E+02  2.571903E+01  4.756898E+02  1.969981E-05
        74  21  2.061378E+05  1.043976E+01  8.570029E+02  3.396935E+01  7.123600E+02  3.896476E-05
        74  22  2.061378E+05 -6.273217E+00  2.591913E+02 -5.068851E-10  2.390198E+02  2.126804E-10
        74  23  2.061195E+05 -9.291199E+00  4.782312E+02  1.415788E-09  4.756898E+02 -9.175535E-11
        74  24  2.061378E+05  1.043976E+01  8.570029E+02 -5.511671E-10  7.123600E+02 -6.467864E-11
        74  25  2.061378E+05 -6.273216E+00  2.591913E+02 -1.746871E+01  2.390198E+02 -6.723123E-06
        74  26  2.061195E+05 -9.291197E+00  4.782312E+02 -2.571903E+01  4.756898E+02 -1.969999E-05
        74  27  2.061378E+05  1.043976E+01  8.570029E+02 -3.396935E+01  7.123600E+02 -3.896488E-05
        75   1  2.061872E+05 -3.199824E+01  1.129481E+03  1.254919E+02 -8.877219E+02 -1.793824E-04
        75   2  2.060577E+05  1.812404E+01  1.976689E+03 -3.202599E+01 -1.874752E+03  9.667901E-05
        75   3  2.061870E+05  5.895154E+02  3.596663E+03 -1.895414E+02 -2.861768E+03  8.734245E-04
        75   4  2.061872E+05 -3.199827E+01  1.129481E+03 -1.205966E-09 -8.877219E+02 -1.729371E-10
        75   5  2.060577E+05  1.812404E+01  1.976689E+03  3.160199E-10 -1.874752E+03 -1.748165E-10
        75   6  2.061870E+05  5.895153E+02  3.596663E+03 -3.279526E-10 -2.861768E+03  2.718910E-11
        75   7  2.061872E+05 -3.199824E+01  1.129481E+03 -1.254919E+02 -8.877219E+02  1.793821E-04
        75   8  2.060577E+05  1.812404E+01  1.976689E+03  3.202599E+01 -1.874752E+03 -9.667936E-05
        75   9  2.061870E+05  5.895154E+02  3.596663E+03  1.895414E+02 -2.861768E+03 -8.734245E-04
        75  10  2.061872E+05 -3.199845E+01  1.129480E+03  1.254919E+02 -1.009817E-11 -1.151080E-10
        75  11  2.060577E+05  1.812310E+01  1.976683E+03 -3.202599E+01 -3.777893E-11 -5.293347E-11
        75  12  2.061870E+05  5.895132E+02  3.596647E+03 -1.895414E+02  1.846766E-10 -9.059708E-11
        75  13  2.061872E+05 -3.199848E+01  1.129480E+03 -6.416631E-10 -7.642609E-11 -3.716152E-11
        75  14  2.060577E+05  1.812310E+01  1.976683E+03 -8.940980E-10 -6.731658E-11  1.543376E-11
        75  15  2.061870E+05  5.895131E+02  3.596647E+03 -2.745753E-10 -3.779408E-10 -2.263279E-11
        75  16  2.061872E+05 -3.199845E+01  1.129480E+03 -1.254919E+02  1.710366E-10  3.441044E-11
        75  17  2.060577E+05  1.812310E+01  1.976683E+03  3.202599E+01  6.444760E-11  7.843955E-11
        75  18  2.061870E+05  5.895132E+02  3.596647E+03  1.895414E+02 -8.650471E-11  5.452120E-11
        75  19  2.061872E+05 -3.199824E+01  1.129481E+03  1.254919E+02  8.877219E+02  1.793822E-04
        75  20  2.060577E+05  1.812404E+01  1.976689E+03 -3.202599E+01  1.874752E+03 -9.667915E-05
        75  21  2.061870E+05  5.895154E+02  3.596663E+03 -1.895414E+02  2.861768E+03 -8.734248E-04
        75  22  2.061872E+05 -3.199827E+01  1.129481E+03 -1.953542E-09  8.877219E+02  1.008335E-10
        75  23  2.060577E+05  1.812404E+01  1.976689E+03  1.869096E-10  1.874752E+03  2.052986E-10
        75  24  2.061870E+05  5.895153E+02  3.596663E+03 -3.842297E-10  2.861768E+03 -6.969294E-11
        75  25  2.061872E+05 -3.199824E+01  1.129481E+03 -1.254919E+02  8.877219E+02 -1.793820E-04
        75  26  2.060577E+05  1.812404E+01  1.976689E+03  3.202599E+01  1.874752E+03  9.667955E-05
        75  27  2.061870E+05  5.895154E+02  3.596663E+03  1.895414E+02  2.861768E+03  8.734246E-04
        76   1  2.069095E+05 -4.036922E+02  4.610259E+03  1.790201E+03 -3.485821E+03 -1.004832E-02
        76   2  2.051542E+05  1.355562E+03  8.118063E+03 -3.199153E+03 -7.738552E+03  3.986415E-02
        76   3  2.069080E+05  1.493782E+04  1.734967E+04 -8.188603E+03 -1.199135E+04  1.581121E-01
        76   4  2.069095E+05 -4.036982E+02  4.610258E+03 -6.965687E-10 -3.485821E+03  1.038294E-10
        76   5  2.051542E+05  1.355543E+03  8.118060E+03  3.470705E-11 -7.738552E+03  3.812227E-11
        76   6  2.069079E+05  1.493770E+04  1.734965E+04 -5.466897E-10 -1.199135E+04  1.829921E-11
        76   7  2.069095E+05 -4.036922E+02  4.610259E+03 -1.790201E+03 -3.485821E+03  1.004832E-02
        76   8  2.051542E+05  1.355562E+03  8.118063E+03  3.199153E+03 -7.738552E+03 -3.986415E-02
        76   9  2.069080E+05  1.493782E+04  1.734967E+04  8.188603E+03 -1.199135E+04 -1.581121E-01
        76  10  2.069095E+05 -4.036955E+02  4.610236E+03  1.790201E+03  1.479688E-10 -1.461164E-10
        76  11  2.051542E+05  1.355546E+03  8.117950E+03 -3.199153E+03  2.449561E-11 -1.474948E-10
        76  12  2.069079E+05  1.493778E+04  1.734940E+04 -8.188603E+03 -2.445013E-10 -4.625934E-11
        76  13  2.069095E+05 -4.037015E+02  4.610236E+03  4.670012E-10 -6.311460E-12 -9.568596E-11
        76  14  2.051541E+05  1.355527E+03  8.117947E+03  5.122328E-10  1.652230E-10 -1.546398E-10
        76  15  2.069078E+05  1.493766E+04  1.734938E+04  1.893432E-11  1.162964E-10 -5.775964E-11
        76  16  2.069095E+05 -4.036955E+02  4.610236E+03 -1.790201E+03 -1.848699E-10 -5.352020E-11
        76  17  2.051542E+05  1.355546E+03  8.117950E+03  3.199153E+03  1.039997E-10 -1.599115E-10
        76  18  2.069079E+05  1.493778E+04  1.734940E+04  8.188603E+03  1.352961E-10 -6.634113E-11
        76  19  2.069095E+05 -4.036922E+02  4.610259E+03  1.790201E+03  3.485821E+03  1.004831E-02
        76  20  2.051542E+05  1.355562E+03  8.118063E+03 -3.199153E+03  7.738552E+03 -3.986415E-02
        76  21  2.069080E+05  1.493782E+04  1.734967E+04 -8.188603E+03  1.199135E+04 -1.581121E-01
        76  22  2.069095E+05 -4.036982E+02  4.610258E+03 -7.917667E-10  3.485821E+03 -2.953166E-10
        76  23  2.051542E+05  1.355543E+03  8.118060E+03  1.135923E-10  7.738552E+03 -3.501990E-10
        76  24  2.069079E+05  1.493770E+04  1.734965E+04 -4.112591E-10  1.199135E+04 -1.347031E-10
        76  25  2.069095E+05 -4.036922E+02  4.610259E+03 -1.790201E+03  3.485821E+03 -1.004832E-02
        76  26  2.051542E+05  1.355562E+03  8.118063E+03  3.199153E+03  7.738552E+03  3.986415E-02
        76  27  2.069080E+05  1.493782E+04  1.734967E+04  8.188603E+03  1.199135E+04  1.581121E-01
        77   1 -4.877559E+04 -7.558288E+04 -5.809231E+04  2.231426E+04  2.435937E+02 -4.196821E+04
        77   2 -1.255776E+03 -7.955196E+04 -2.799291E+04  5.528166E+03  6.083931E+02 -2.647866E+04
        77   3  2.647217E+03 -9.644186E+04 -1.888212E+04 -1.451823E+04  2.307083E+02 -1.098920E+04
        77   4 -5.518711E+04 -1.013768E+05 -6.435002E+04 -8.039351E+03  2.456597E+02 -4.284824E+04
        77   5 -4.982185E+03 -9.483729E+04 -3.133928E+04 -6.408987E+03  6.089033E+02 -2.646953E+04
        77   6  1.449570E+03 -1.013743E+05 -1.993548E+04 -8.038641E+03  2.305733E+02 -1.009063E+04
        77   7 -6.159521E+04 -1.271682E+05 -7.060728E+04 -3.839169E+04  2.478118E+02 -4.372823E+04
        77   8 -8.708074E+03 -1.101221E+05 -3.468560E+04 -1.834584E+04  6.094131E+02 -2.646041E+04
        77   9  2.520792E+02 -1.063066E+05 -2.098882E+04 -1.559109E+03  2.304571E+02 -9.192062E+03
        77  10 -4.877606E+04 -7.558477E+04 -5.809562E+04  2.231426E+04 -6.066529E-11  4.111051E-11
        77  11 -1.255965E+03 -7.955271E+04 -2.799422E+04  5.528179E+03 -1.018166E-10  8.443351E-11
        77  12  2.647185E+03 -9.644199E+04 -1.888235E+04 -1.451822E+04  8.274958E-11  1.146458E-10
        77  13 -5.518760E+04 -1.013788E+05 -6.435347E+04 -8.039343E+03 -1.273810E-10  2.598629E-12
        77  14 -4.982374E+03 -9.483804E+04 -3.134060E+04 -6.408974E+03 -1.613072E-10 -1.259712E-11
        77  15  1.449543E+03 -1.013744E+05 -1.993568E+04 -8.038639E+03  1.495269E-10 -3.459558E-12
        77  16 -6.159572E+04 -1.271703E+05 -7.061088E+04 -3.839168E+04 -4.843852E-11 -4.074966E-11
        77  17 -8.708262E+03 -1.101228E+05 -3.468691E+04 -1.834583E+04  2.825290E-10 -9.294172E-11
        77  18  2.520565E+02 -1.063067E+05 -2.098898E+04 -1.559108E+03  1.735742E-10 -1.079649E-10
        77  19 -4.877559E+04 -7.558288E+04 -5.809231E+04  2.231426E+04 -2.435937E+02  4.196821E+04
        77  20 -1.255776E+03 -7.955196E+04 -2.799291E+04  5.528166E+03 -6.083931E+02  2.647866E+04
        77  21  2.647217E+03 -9.644186E+04 -1.888212E+04 -1.451823E+04 -2.307083E+02  1.098920E+04
        77  22 -5.518711E+04 -1.013768E+05 -6.435002E+04 -8.039351E+03 -2.456597E+02  4.284824E+04
        77  23 -4.982185E+03 -9.483729E+04 -3.133928E+04 -6.408987E+03 -6.089033E+02  2.646953E+04
        77  24  1.449570E+03 -1.013743E+05 -1.993548E+04 -8.038641E+03 -2.305733E+02  1.009063E+04
        77  25 -6.159521E+04 -1.271682E+05 -7.060728E+04 -3.839169E+04 -2.478118E+02  4.372823E+04
        77  26 -8.708074E+03 -1.101221E+05 -3.468560E+04 -1.834584E+04 -6.094131E+02  2.646041E+04
        77  27  2.520792E+02 -1.063066E+05 -2.098882E+04 -1.559109E+03 -2.304571E+02  9.192062E+03
        78   1 -2.678794E+03 -1.014743E+05 -1.773210E+04 -6.873727E+03 -1.999981E+02 -7.922967E+03
        78   2 -3.265065E+03 -1.109428E+05 -1.705673E+04 -6.399146E+03 -7.993419E+02 -6.734547E+02
        78   3 -7.717580E+03 -1.223217E+05 -2.206802E+04 -9.220050E+03 -1.362250E+03  6.575949E+03
        78   4 -2.064279E+03 -9.889170E+04 -1.724276E+04 -8.046639E+03 -2.000000E+02 -7.182202E+03
        78   5 -1.389472E+02 -9.794024E+04 -1.443018E+04 -6.398891E+03 -7.993533E+02  2.363239E+01
        78   6 -2.072235E+03 -9.889179E+04 -1.727391E+04 -8.046643E+03 -1.362244E+03  7.229474E+03
        78   7 -1.449758E+03 -9.630905E+04 -1.675340E+04 -9.219556E+03 -2.000047E+02 -6.441433E+03
        78   8  2.987160E+03 -8.493755E+04 -1.180364E+04 -6.398636E+03 -7.993647E+02  7.207338E+02
        78   9  3.573080E+03 -7.546133E+04 -1.247981E+04 -6.873192E+03 -1.362235E+03  7.883024E+03
        78  10 -2.678811E+03 -1.014744E+05 -1.773222E+04 -6.873728E+03 -5.006892E-11 -2.361498E-10
        78  11 -3.265066E+03 -1.109428E+05 -1.705673E+04 -6.399146E+03 -4.071087E-10  3.362056E-11
        78  12 -7.717594E+03 -1.223218E+05 -2.206811E+04 -9.220042E+03 -1.813122E-11  2.872732E-10
        78  13 -2.064292E+03 -9.889175E+04 -1.724285E+04 -8.046640E+03  1.813081E-11  4.381258E-12
        78  14 -1.389479E+02 -9.794024E+04 -1.443018E+04 -6.398891E+03 -1.847218E-10 -4.098410E-12
        78  15 -2.072252E+03 -9.889184E+04 -1.727401E+04 -8.046635E+03  3.013711E-11 -3.395432E-12
        78  16 -1.449769E+03 -9.630909E+04 -1.675348E+04 -9.219557E+03 -5.718412E-11  2.251880E-10
        78  17  2.987159E+03 -8.493755E+04 -1.180364E+04 -6.398636E+03  2.447754E-10 -3.685895E-11
        78  18  3.573061E+03 -7.546140E+04 -1.247994E+04 -6.873183E+03  2.828603E-10 -2.851636E-10
        78  19 -2.678794E+03 -1.014743E+05 -1.773210E+04 -6.873727E+03  1.999981E+02  7.922967E+03
        78  20 -3.265065E+03 -1.109428E+05 -1.705673E+04 -6.399146E+03  7.993419E+02  6.734547E+02
        78  21 -7.717580E+03 -1.223217E+05 -2.206802E+04 -9.220050E+03  1.362250E+03 -6.575949E+03
        78  22 -2.064279E+03 -9.889170E+04 -1.724276E+04 -8.046639E+03  2.000000E+02  7.182202E+03
        78  23 -1.389472E+02 -9.794024E+04 -1.443018E+04 -6.398891E+03  7.993533E+02 -2.363239E+01
        78  24 -2.072235E+03 -9.889179E+04 -1.727391E+04 -8.046643E+03  1.362244E+03 -7.229474E+03
        78  25 -1.449758E+03 -9.630905E+04 -1.675340E+04 -9.219556E+03  2.000047E+02  6.441433E+03
        78  26  2.987160E+03 -8.493755E+04 -1.180364E+04 -6.398636E+03  7.993647E+02 -7.207338E+02
        78  27  3.573080E+03 -7.546133E+04 -1.247981E+04 -6.873192E+03  1.362235E+03 -7.883024E+03
        79   1 -6.004407E+03 -1.323491E+05 -2.630749E+04 -1.528092E+03 -1.814816E+03  9.168478E+03
        79   2 -1.501271E+04 -1.360775E+05 -4.024491E+04 -1.839563E+04 -1.927396E+03  2.727825E+04
        79   3 -6.823313E+04 -1.532171E+05 -7.702657E+04 -3.848404E+04 -6.399301E+02  4.538741E+04
        79   4  1.454429E+03 -1.013840E+05 -1.998288E+04 -8.030337E+03 -1.814917E+03  1.014358E+04
        79   5 -4.999628E+03 -9.482563E+04 -3.143579E+04 -6.419366E+03 -1.926860E+03  2.657321E+04
        79   6 -5.537371E+04 -1.013867E+05 -6.456529E+04 -8.030153E+03 -6.377206E+02  4.300261E+04
        79   7  8.913365E+03 -7.041783E+04 -1.365828E+04 -1.453291E+04 -1.815038E+03  1.111874E+04
        79   8  5.013881E+03 -5.357185E+04 -2.262669E+04  5.557707E+03 -1.926351E+03  2.586813E+04
        79   9 -4.251099E+04 -4.955181E+04 -5.210369E+04  2.242628E+04 -6.357453E+02  4.061761E+04
        79  10 -6.004433E+03 -1.323492E+05 -2.630766E+04 -1.528078E+03 -6.348057E-12 -1.796487E-10
        79  11 -1.501291E+04 -1.360783E+05 -4.024632E+04 -1.839559E+04 -3.512918E-11 -6.289300E-11
        79  12 -6.823368E+04 -1.532194E+05 -7.703045E+04 -3.848401E+04 -4.900847E-11  1.275562E-10
        79  13  1.454398E+03 -1.013841E+05 -1.998308E+04 -8.030322E+03  2.626415E-10 -5.218977E-13
        79  14 -4.999822E+03 -9.482639E+04 -3.143713E+04 -6.419324E+03  3.860673E-11  1.235023E-11
        79  15 -5.537420E+04 -1.013887E+05 -6.456877E+04 -8.030131E+03 -6.172663E-11 -2.181326E-12
        79  16  8.913328E+03 -7.041797E+04 -1.365852E+04 -1.453290E+04  5.513450E-11  1.883110E-10
        79  17  5.013698E+03 -5.357257E+04 -2.262796E+04  5.557747E+03  2.156180E-10  8.176614E-11
        79  18 -4.251144E+04 -4.955358E+04 -5.210679E+04  2.242630E+04 -1.470091E-10 -1.421037E-10
        79  19 -6.004407E+03 -1.323491E+05 -2.630749E+04 -1.528092E+03  1.814816E+03 -9.168478E+03
        79  20 -1.501271E+04 -1.360775E+05 -4.024491E+04 -1.839563E+04  1.927396E+03 -2.727825E+04
        79  21 -6.823313E+04 -1.532171E+05 -7.702657E+04 -3.848404E+04  6.399301E+02 -4.538741E+04
        79  22  1.454429E+03 -1.013840E+05 -1.998288E+04 -8.030337E+03  1.814917E+03 -1.014358E+04
        79  23 -4.999628E+03 -9.482563E+04 -3.143579E+04 -6.419366E+03  1.926860E+03 -2.657321E+04
        79  24 -5.537371E+04 -1.013867E+05 -6.456529E+04 -8.030153E+03  6.377206E+02 -4.300261E+04
        79  25  8.913365E+03 -7.041783E+04 -1.365828E+04 -1.453291E+04  1.815038E+03 -1.111874E+04
        79  26  5.013881E+03 -5.357185E+04 -2.262669E+04  5.557707E+03  1.926351E+03 -2.586813E+04
        79  27 -4.251099E+04 -4.955181E+04 -5.210369E+04  2.242628E+04  6.357453E+02 -4.061761E+04
        80   1  1.369915E+05  7.822066E+04  2.969820E+02  1.061528E+05  5.732641E+03  5.419272E+03
        80   2  1.407744E+05  7.061619E+04 -4.774721E+03  1.133180E+05  3.053727E+03  5.841260E+03
        80   3  1.526317E+05  6.858878E+04 -5.935168E+03  1.160584E+05  1.428229E+03  4.858686E+03
        80   4  1.930265E+05  1.054525E+05  1.627480E+04  1.280937E+05  8.444014E+03  7.452622E+03
        80   5  1.862175E+05  9.787728E+04  7.632087E+03  1.337597E+05  4.078836E+03  6.609982E+03
        80   6  1.878483E+05  9.624430E+04  4.363621E+03  1.350011E+05  7.670785E+02  4.362862E+03
        80   7  2.490643E+05  1.326847E+05  3.225217E+04  1.500362E+05  1.115569E+04  9.486097E+03
        80   8  2.316626E+05  1.251390E+05  2.003861E+04  1.542028E+05  5.104039E+03  7.378761E+03
        80   9  2.230662E+05  1.239007E+05  1.466227E+04  1.539450E+05  1.058783E+02  3.866994E+03
        80  10  1.369915E+05  7.822062E+04  2.968651E+02  1.061528E+05 -1.868613E-10 -4.091066E-11
        80  11  1.407744E+05  7.061615E+04 -4.774803E+03  1.133179E+05 -1.337675E-10  1.398782E-10
        80  12  1.526317E+05  6.858875E+04 -5.935216E+03  1.160584E+05  1.140334E-10  9.120954E-11
        80  13  1.930265E+05  1.054524E+05  1.627457E+04  1.280937E+05 -2.147354E-11  1.667415E-11
        80  14  1.862175E+05  9.787723E+04  7.631974E+03  1.337596E+05 -2.378981E-10  7.754302E-11
        80  15  1.878483E+05  9.624428E+04  4.363584E+03  1.350011E+05 -3.366209E-10 -6.830739E-11
        80  16  2.490641E+05  1.326845E+05  3.225177E+04  1.500361E+05  1.587573E-10  1.882803E-11
        80  17  2.316625E+05  1.251389E+05  2.003846E+04  1.542028E+05  2.075330E-10  4.054503E-11
        80  18  2.230662E+05  1.239007E+05  1.466225E+04  1.539450E+05 -2.684712E-10 -1.584065E-10
        80  19  1.369915E+05  7.822066E+04  2.969820E+02  1.061528E+05 -5.732641E+03 -5.419272E+03
        80  20  1.407744E+05  7.061619E+04 -4.774721E+03  1.133180E+05 -3.053727E+03 -5.841260E+03
        80  21  1.526317E+05  6.858878E+04 -5.935168E+03  1.160584E+05 -1.428229E+03 -4.858686E+03
        80  22  1.930265E+05  1.054525E+05  1.627480E+04  1.280937E+05 -8.444014E+03 -7.452622E+03
        80  23  1.862175E+05  9.787728E+04  7.632087E+03  1.337597E+05 -4.078836E+03 -6.609982E+03
        80  24  1.878483E+05  9.624430E+04  4.363621E+03  1.350011E+05 -7.670785E+02 -4.362862E+03
        80  25  2.490643E+05  1.326847E+05  3.225217E+04  1.500362E+05 -1.115569E+04 -9.486097E+03
        80  26  2.316626E+05  1.251390E+05  2.003861E+04  1.542028E+05 -5.104039E+03 -7.378761E+03
        80  27  2.230662E+05  1.239007E+05  1.466227E+04  1.539450E+05 -1.058783E+02 -3.866994E+03
        81   1  1.549875E+05  7.368680E+04 -5.709512E+03  1.179191E+05  8.435276E+02  3.957175E+03
        81   2  1.594635E+05  7.849719E+04 -5.489818E+03  1.213432E+05  3.922143E+02  3.129374E+03
        81   3  1.666821E+05  8.126451E+04 -4.594275E+03  1.239438E+05 -9.969911E-01  2.224035E+03
        81   4  1.877697E+05  9.657778E+04  3.427637E+03  1.342235E+05  5.142042E+02  3.710189E+03
        81   5  1.862834E+05  9.740235E+04  1.951772E+03  1.347756E+05 -3.021989E+01  2.812574E+03
        81   6  1.875598E+05  9.620401E+04  1.232467E+03  1.345043E+05 -5.165280E+02  1.837436E+03
        81   7  2.205535E+05  1.194697E+05  1.256482E+04  1.505292E+05  1.848531E+02  3.463183E+03
        81   8  2.131042E+05  1.163079E+05  9.393294E+03  1.482088E+05 -4.526788E+02  2.495754E+03
        81   9  2.084377E+05  1.111436E+05  7.059078E+03  1.450651E+05 -1.032076E+03  1.450824E+03
        81  10  1.549875E+05  7.368678E+04 -5.709543E+03  1.179191E+05  3.040106E-10 -2.908859E-11
        81  11  1.594635E+05  7.849718E+04 -5.489837E+03  1.213432E+05  1.986748E-10 -1.743585E-10
        81  12  1.666821E+05  8.126451E+04 -4.594285E+03  1.239438E+05 -5.357247E-11 -1.518285E-10
        81  13  1.877697E+05  9.657777E+04  3.427611E+03  1.342235E+05  1.459893E-10 -8.073457E-11
        81  14  1.862834E+05  9.740234E+04  1.951757E+03  1.347756E+05  7.558969E-11 -1.349283E-10
        81  15  1.875598E+05  9.620401E+04  1.232461E+03  1.345043E+05 -2.142734E-10 -1.026053E-10
        81  16  2.205535E+05  1.194696E+05  1.256480E+04  1.505292E+05 -1.506477E-10 -1.434635E-10
        81  17  2.131042E+05  1.163079E+05  9.393282E+03  1.482088E+05 -2.620850E-10 -8.218963E-11
        81  18  2.084377E+05  1.111436E+05  7.059072E+03  1.450651E+05  1.987779E-10 -1.083155E-11
        81  19  1.549875E+05  7.368680E+04 -5.709512E+03  1.179191E+05 -8.435276E+02 -3.957175E+03
        81  20  1.594635E+05  7.849719E+04 -5.489818E+03  1.213432E+05 -3.922143E+02 -3.129374E+03
        81  21  1.666821E+05  8.126451E+04 -4.594275E+03  1.239438E+05  9.969911E-01 -2.224035E+03
        81  22  1.877697E+05  9.657778E+04  3.427637E+03  1.342235E+05 -5.142042E+02 -3.710189E+03
        81  23  1.862834E+05  9.740235E+04  1.951772E+03  1.347756E+05  3.021989E+01 -2.812574E+03
        81  24  1.875598E+05  9.620401E+04  1.232467E+03  1.345043E+05  5.165280E+02 -1.837436E+03
        81  25  2.205535E+05  1.194697E+05  1.256482E+04  1.505292E+05 -1.848531E+02 -3.463183E+03
        81  26  2.131042E+05  1.163079E+05  9.393294E+03  1.482088E+05  4.526788E+02 -2.495754E+03
        81  27  2.084377E+05  1.111436E+05  7.059078E+03  1.450651E+05  1.032076E+03 -1.450824E+03
        82   1  1.707583E+05  8.431525E+04 -3.601860E+03  1.260217E+05  6.929318E+00  1.841257E+03
        82   2  1.753052E+05  8.961930E+04 -2.195605E+03  1.292902E+05 -1.498562E+01  1.175784E+03
        82   3  1.823370E+05  9.254413E+04 -5.078038E+02  1.318613E+05 -3.553844E+01  5.084761E+02
        82   4  1.875479E+05  9.621331E+04  1.032542E+03  1.344659E+05 -4.906372E+02  1.468136E+03
        82   5  1.863048E+05  9.740208E+04  8.476782E+02  1.348152E+05 -5.147616E+02  8.010105E+02
        82   6  1.875472E+05  9.621203E+04  9.462579E+02  1.344670E+05 -5.375210E+02  1.320506E+02
        82   7  2.043377E+05  1.081115E+05  5.666921E+03  1.429105E+05 -9.882221E+02  1.095002E+03
        82   8  1.973046E+05  1.051850E+05  3.890977E+03  1.403404E+05 -1.014553E+03  4.262257E+02
        82   9  1.927574E+05  9.987999E+04  2.400342E+03  1.370727E+05 -1.039516E+03 -2.443840E+02
        82  10  1.707583E+05  8.431524E+04 -3.601866E+03  1.260217E+05 -9.986029E-11 -1.009182E-10
        82  11  1.753052E+05  8.961930E+04 -2.195608E+03  1.292902E+05  1.829516E-11  7.583667E-11
        82  12  1.823370E+05  9.254413E+04 -5.078042E+02  1.318613E+05  3.800026E-11  1.593784E-10
        82  13  1.875479E+05  9.621330E+04  1.032538E+03  1.344659E+05 -1.118077E-10 -7.299538E-12
        82  14  1.863048E+05  9.740208E+04  8.476765E+02  1.348152E+05  1.258540E-10  5.334598E-11
        82  15  1.875472E+05  9.621203E+04  9.462573E+02  1.344670E+05  1.013015E-10  5.976325E-11
        82  16  2.043377E+05  1.081115E+05  5.666917E+03  1.429105E+05  3.178384E-10  5.049449E-11
        82  17  1.973046E+05  1.051850E+05  3.890975E+03  1.403404E+05 -9.294393E-11  5.319132E-11
        82  18  1.927574E+05  9.987999E+04  2.400340E+03  1.370727E+05  1.681326E-11 -7.984802E-11
        82  19  1.707583E+05  8.431525E+04 -3.601860E+03  1.260217E+05 -6.929318E+00 -1.841257E+03
        82  20  1.753052E+05  8.961930E+04 -2.195605E+03  1.292902E+05  1.498562E+01 -1.175784E+03
        82  21  1.823370E+05  9.254413E+04 -5.078038E+02  1.318613E+05  3.553844E+01 -5.084761E+02
        82  22  1.875479E+05  9.621331E+04  1.032542E+03  1.344659E+05  4.906372E+02 -1.468136E+03
        82  23  1.863048E+05  9.740208E+04  8.476782E+02  1.348152E+05  5.147616E+02 -8.010105E+02
        82  24  1.875472E+05  9.621203E+04  9.462579E+02  1.344670E+05  5.375210E+02 -1.320506E+02
        82  25  2.043377E+05  1.081115E+05  5.666921E+03  1.429105E+05  9.882221E+02 -1.095002E+03
        82  26  1.973046E+05  1.051850E+05  3.890977E+03  1.403404E+05  1.014553E+03 -4.262257E+02
        82  27  1.927574E+05  9.987999E+04  2.400342E+03  1.370727E+05  1.039516E+03  2.443840E+02
        83   1  1.864453E+05  9.556431E+04  8.349445E+02  1.340043E+05  1.433633E+01  1.591174E+02
        83   2  1.910940E+05  1.007488E+05  3.016066E+03  1.371664E+05 -4.042514E+02 -7.861582E+02
        83   3  1.984643E+05  1.038593E+05  5.890258E+03  1.395240E+05 -8.555286E+02 -1.687836E+03
        83   4  1.875560E+05  9.620403E+04  1.095920E+03  1.344982E+05 -4.969626E+02 -2.242932E+02
        83   5  1.862895E+05  9.740439E+04  1.676536E+03  1.347820E+05 -8.632108E+02 -1.130320E+03
        83   6  1.877333E+05  9.651949E+04  2.904858E+03  1.342614E+05 -1.262144E+03 -1.992748E+03
        83   7  1.886667E+05  9.684374E+04  1.356892E+03  1.349921E+05 -1.008256E+03 -6.076996E+02
        83   8  1.814850E+05  9.405999E+04  3.370154E+02  1.323977E+05 -1.322162E+03 -1.474476E+03
        83   9  1.770024E+05  8.917970E+04 -8.055008E+01  1.289990E+05 -1.668749E+03 -2.297653E+03
        83  10  1.864453E+05  9.556431E+04  8.349444E+02  1.340043E+05  5.014288E-11  5.217762E-11
        83  11  1.910940E+05  1.007488E+05  3.016064E+03  1.371664E+05 -3.699833E-11  9.451944E-11
        83  12  1.984643E+05  1.038593E+05  5.890251E+03  1.395240E+05  2.796373E-10  2.165596E-11
        83  13  1.875560E+05  9.620403E+04  1.095919E+03  1.344982E+05 -1.770214E-10  1.732659E-11
        83  14  1.862895E+05  9.740438E+04  1.676532E+03  1.347820E+05 -3.863645E-11 -9.653875E-12
        83  15  1.877333E+05  9.651949E+04  2.904848E+03  1.342614E+05 -4.231101E-10  3.643404E-11
        83  16  1.886667E+05  9.684374E+04  1.356890E+03  1.349921E+05  4.571403E-11 -8.098352E-11
        83  17  1.814850E+05  9.405999E+04  3.370081E+02  1.323977E+05 -2.159230E-10 -6.535692E-11
        83  18  1.770023E+05  8.917969E+04 -8.056523E+01  1.289990E+05 -3.236432E-10  4.751551E-11
        83  19  1.864453E+05  9.556431E+04  8.349445E+02  1.340043E+05 -1.433633E+01 -1.591174E+02
        83  20  1.910940E+05  1.007488E+05  3.016066E+03  1.371664E+05  4.042514E+02  7.861582E+02
        83  21  1.984643E+05  1.038593E+05  5.890258E+03  1.395240E+05  8.555286E+02  1.687836E+03
        83  22  1.875560E+05  9.620403E+04  1.095920E+03  1.344982E+05  4.969626E+02  2.242932E+02
        83  23  1.862895E+05  9.740439E+04  1.676536E+03  1.347820E+05  8.632108E+02  1.130320E+03
        83  24  1.877333E+05  9.651949E+04  2.904858E+03  1.342614E+05  1.262144E+03  1.992748E+03
        83  25  1.886667E+05  9.684374E+04  1.356892E+03  1.349921E+05  1.008256E+03  6.076996E+02
        83  26  1.814850E+05  9.405999E+04  3.370154E+02  1.323977E+05  1.322162E+03  1.474476E+03
        83  27  1.770024E+05  8.917970E+04 -8.055008E+01  1.289990E+05  1.668749E+03  2.297653E+03
        84   1  2.012278E+05  1.080408E+05  7.848183E+03  1.427187E+05 -8.655161E+02 -2.123574E+03
        84   2  2.091943E+05  1.099324E+05  1.247169E+04  1.434824E+05 -4.437356E+03 -4.956416E+03
        84   3  2.248801E+05  1.166275E+05  2.244703E+04  1.404014E+05 -8.602686E+03 -6.998053E+03
        84   4  1.878046E+05  9.623314E+04  3.688142E+03  1.349144E+05 -1.459013E+03 -2.568624E+03
        84   5  1.862280E+05  9.781198E+04  6.433667E+03  1.339282E+05 -4.080893E+03 -4.689145E+03
        84   6  1.921648E+05  1.039885E+05  1.370689E+04  1.290972E+05 -7.296141E+03 -6.018420E+03
        84   7  1.743814E+05  8.442551E+04 -4.719815E+02  1.271103E+05 -2.052500E+03 -3.013661E+03
        84   8  1.632624E+05  8.569174E+04  3.955991E+02  1.243744E+05 -3.724448E+03 -4.421883E+03
        84   9  1.594512E+05  9.134977E+04  4.966796E+03  1.177937E+05 -5.989710E+03 -5.038829E+03
        84  10  2.012278E+05  1.080408E+05  7.848173E+03  1.427187E+05  3.701566E-10 -4.727230E-11
        84  11  2.091942E+05  1.099323E+05  1.247161E+04  1.434824E+05 -8.368179E-11 -8.967546E-11
        84  12  2.248800E+05  1.166274E+05  2.244680E+04  1.404013E+05 -5.317857E-11 -5.767027E-11
        84  13  1.878046E+05  9.623313E+04  3.688126E+03  1.349144E+05 -1.945403E-10  9.206593E-12
        84  14  1.862280E+05  9.781195E+04  6.433594E+03  1.339282E+05  3.295589E-11  4.613856E-12
        84  15  1.921648E+05  1.039884E+05  1.370672E+04  1.290972E+05 -1.485070E-10 -1.693356E-13
        84  16  1.743814E+05  8.442550E+04 -4.720065E+02  1.271103E+05 -5.234208E-10  1.329617E-11
        84  17  1.632624E+05  8.569171E+04  3.955364E+02  1.243744E+05 -7.848419E-11  4.013120E-11
        84  18  1.594511E+05  9.134973E+04  4.966681E+03  1.177937E+05 -3.706426E-11  5.655520E-11
        84  19  2.012278E+05  1.080408E+05  7.848183E+03  1.427187E+05  8.655161E+02  2.123574E+03
        84  20  2.091943E+05  1.099324E+05  1.247169E+04  1.434824E+05  4.437356E+03  4.956416E+03
        84  21  2.248801E+05  1.166275E+05  2.244703E+04  1.404014E+05  8.602686E+03  6.998053E+03
        84  22  1.878046E+05  9.623314E+04  3.688142E+03  1.349144E+05  1.459013E+03  2.568624E+03
        84  23  1.862280E+05  9.781198E+04  6.433667E+03  1.339282E+05  4.080893E+03  4.689145E+03
        84  24  1.921648E+05  1.039885E+05  1.370689E+04  1.290972E+05  7.296141E+03  6.018420E+03
        84  25  1.743814E+05  8.442551E+04 -4.719815E+02  1.271103E+05  2.052500E+03  3.013661E+03
        84  26  1.632624E+05  8.569174E+04  3.955991E+02  1.243744E+05  3.724448E+03  4.421883E+03
        84  27  1.594512E+05  9.134977E+04  4.966796E+03  1.177937E+05  5.989710E+03  5.038829E+03
        85   1 -2.417560E+03 -2.260613E+04 -2.628499E+04 -1.240162E+04 -1.797428E+04  3.590502E-01
        85   2  2.433407E+02 -2.046829E+03 -1.244283E+04 -4.857253E+03 -1.146066E+04  8.966540E-02
        85   3 -2.417745E+03  6.165923E+02 -7.315136E+03  2.687168E+03 -4.947054E+03 -2.141253E-02
        85   4 -2.417725E+03 -2.260642E+04 -2.628503E+04 -9.370881E-10 -1.797428E+04  9.522050E-11
        85   5  2.433154E+02 -2.046873E+03 -1.244283E+04 -8.645287E-10 -1.146066E+04  1.081743E-10
        85   6 -2.417752E+03  6.165788E+02 -7.315138E+03 -1.380927E-09 -4.947054E+03  3.446981E-11
        85   7 -2.417560E+03 -2.260613E+04 -2.628499E+04  1.240162E+04 -1.797428E+04 -3.590502E-01
        85   8  2.433407E+02 -2.046829E+03 -1.244283E+04  4.857253E+03 -1.146066E+04 -8.966540E-02
        85   9 -2.417745E+03  6.165923E+02 -7.315136E+03 -2.687168E+03 -4.947054E+03  2.141253E-02
        85  10 -2.417907E+03 -2.260622E+04 -2.628560E+04 -1.240162E+04  2.073447E-10 -2.899114E-11
        85  11  2.431997E+02 -2.046864E+03 -1.244307E+04 -4.857253E+03 -3.996583E-10 -5.424384E-11
        85  12 -2.417771E+03  6.165858E+02 -7.315182E+03  2.687168E+03 -3.627193E-10  1.690897E-10
        85  13 -2.418072E+03 -2.260651E+04 -2.628564E+04 -1.525012E-10 -1.323496E-10 -2.550608E-11
        85  14  2.431743E+02 -2.046909E+03 -1.244308E+04 -5.085149E-10 -2.669707E-10 -3.118788E-11
        85  15 -2.417779E+03  6.165722E+02 -7.315184E+03 -3.938738E-10 -3.533295E-11  9.102556E-11
        85  16 -2.417907E+03 -2.260622E+04 -2.628560E+04  1.240162E+04 -5.372590E-12  1.061130E-11
        85  17  2.431997E+02 -2.046864E+03 -1.244307E+04  4.857253E+03  9.732984E-11 -1.018653E-11
        85  18 -2.417771E+03  6.165858E+02 -7.315182E+03 -2.687168E+03  2.689324E-10  1.064019E-11
        85  19 -2.417560E+03 -2.260613E+04 -2.628499E+04 -1.240162E+04  1.797428E+04 -3.590502E-01
        85  20  2.433407E+02 -2.046829E+03 -1.244283E+04 -4.857253E+03  1.146066E+04 -8.966540E-02
        85  21 -2.417745E+03  6.165923E+02 -7.315136E+03  2.687168E+03  4.947054E+03  2.141253E-02
        85  22 -2.417725E+03 -2.260642E+04 -2.628503E+04 -8.484815E-10  1.797428E+04 -1.452430E-10
        85  23  2.433154E+02 -2.046873E+03 -1.244283E+04  2.518888E-10  1.146066E+04 -1.692148E-10
        85  24 -2.417752E+03  6.165788E+02 -7.315138E+03 -1.793193E-10  4.947054E+03  1.540689E-10
        85  25 -2.417560E+03 -2.260613E+04 -2.628499E+04  1.240162E+04  1.797428E+04  3.590502E-01
        85  26  2.433407E+02 -2.046829E+03 -1.244283E+04  4.857253E+03  1.146066E+04  8.966540E-02
        85  27 -2.417745E+03  6.165923E+02 -7.315136E+03 -2.687168E+03  4.947054E+03 -2.141253E-02
        86   1 -1.336381E+03 -8.841092E+02 -5.906380E+03 -3.178726E+02 -3.930418E+03  2.012415E-03
        86   2 -1.108446E+03 -1.146313E+01 -3.825546E+03 -9.301634E+01 -2.023992E+03  3.032449E-04
        86   3 -1.336387E+03  3.053885E+01 -3.193498E+03  1.318365E+02 -1.175916E+02 -2.497133E-05
        86   4 -1.336381E+03 -8.841094E+02 -5.906381E+03 -7.002306E-10 -3.930418E+03 -4.839976E-11
        86   5 -1.108446E+03 -1.146314E+01 -3.825546E+03  3.941190E-10 -2.023992E+03 -1.635867E-10
        86   6 -1.336387E+03  3.053882E+01 -3.193498E+03 -1.773836E-10 -1.175916E+02 -2.517601E-10
        86   7 -1.336381E+03 -8.841092E+02 -5.906380E+03  3.178726E+02 -3.930418E+03 -2.012415E-03
        86   8 -1.108446E+03 -1.146313E+01 -3.825546E+03  9.301634E+01 -2.023992E+03 -3.032452E-04
        86   9 -1.336387E+03  3.053885E+01 -3.193498E+03 -1.318365E+02 -1.175916E+02  2.497082E-05
        86  10 -1.336398E+03 -8.841133E+02 -5.906410E+03 -3.178726E+02 -1.061730E-10  1.789101E-10
        86  11 -1.108450E+03 -1.146423E+01 -3.825554E+03 -9.301634E+01 -3.620319E-10 -4.245513E-11
        86  12 -1.336387E+03  3.053885E+01 -3.193498E+03  1.318365E+02  1.127853E-10 -8.384730E-11
        86  13 -1.336398E+03 -8.841135E+02 -5.906410E+03  3.047317E-10 -2.697681E-10  8.354195E-11
        86  14 -1.108450E+03 -1.146424E+01 -3.825554E+03  2.376260E-11  2.693658E-10 -7.155003E-11
        86  15 -1.336387E+03  3.053881E+01 -3.193498E+03  6.179014E-10  1.520365E-10 -1.155726E-10
        86  16 -1.336398E+03 -8.841133E+02 -5.906410E+03  3.178726E+02 -9.635445E-11 -1.175671E-11
        86  17 -1.108450E+03 -1.146423E+01 -3.825554E+03  9.301634E+01 -4.146227E-11 -1.024632E-10
        86  18 -1.336387E+03  3.053885E+01 -3.193498E+03 -1.318365E+02 -1.550476E-10 -1.483109E-10
        86  19 -1.336381E+03 -8.841092E+02 -5.906380E+03 -3.178726E+02  3.930418E+03 -2.012415E-03
        86  20 -1.108446E+03 -1.146313E+01 -3.825546E+03 -9.301634E+01  2.023992E+03 -3.032450E-04
        86  21 -1.336387E+03  3.053885E+01 -3.193498E+03  1.318365E+02  1.175916E+02  2.497116E-05
        86  22 -1.336381E+03 -8.841094E+02 -5.906381E+03 -3.060168E-10  3.930418E+03  2.159989E-10
        86  23 -1.108446E+03 -1.146314E+01 -3.825546E+03  1.134013E-09  2.023992E+03  1.996268E-11
        86  24 -1.336387E+03  3.053882E+01 -3.193498E+03  3.302879E-11  1.175916E+02  2.042394E-11
        86  25 -1.336381E+03 -8.841092E+02 -5.906380E+03  3.178726E+02  3.930418E+03  2.012415E-03
        86  26 -1.108446E+03 -1.146313E+01 -3.825546E+03  9.301634E+01  2.023992E+03  3.032450E-04
        86  27 -1.336387E+03  3.053885E+01 -3.193498E+03 -1.318365E+02  1.175916E+02 -2.497111E-05
        87   1 -1.346691E+03  3.939206E+01 -3.250320E+03 -1.650861E+02  4.511906E+02 -1.199767E-04
        87   2 -1.095564E+03 -1.717905E+01 -4.138038E+03  9.433759E+01  2.514062E+03  3.820202E-04
        87   3 -1.346683E+03 -1.008383E+03 -6.602402E+03  3.537654E+02  4.576960E+03  2.608063E-03
        87   4 -1.346691E+03  3.939201E+01 -3.250320E+03 -4.785226E-10  4.511906E+02 -1.877161E-10
        87   5 -1.095564E+03 -1.717906E+01 -4.138038E+03  1.897722E-10  2.514062E+03  1.824186E-11
        87   6 -1.346683E+03 -1.008383E+03 -6.602402E+03 -8.920920E-10  4.576960E+03  7.207707E-11
        87   7 -1.346691E+03  3.939206E+01 -3.250320E+03  1.650861E+02  4.511906E+02  1.199764E-04
        87   8 -1.095564E+03 -1.717905E+01 -4.138038E+03 -9.433759E+01  2.514062E+03 -3.820201E-04
        87   9 -1.346683E+03 -1.008383E+03 -6.602402E+03 -3.537654E+02  4.576960E+03 -2.608063E-03
        87  10 -1.346692E+03  3.939201E+01 -3.250320E+03 -1.650861E+02  1.068442E-10 -4.813088E-11
        87  11 -1.095571E+03 -1.718074E+01 -4.138050E+03  9.433759E+01  1.702856E-11  1.331460E-12
        87  12 -1.346706E+03 -1.008389E+03 -6.602442E+03  3.537654E+02 -5.751086E-12  5.035399E-11
        87  13 -1.346692E+03  3.939196E+01 -3.250320E+03  5.142809E-10  1.343584E-10 -5.966058E-11
        87  14 -1.095571E+03 -1.718076E+01 -4.138050E+03 -2.656615E-10  5.258650E-13  3.677663E-11
        87  15 -1.346706E+03 -1.008389E+03 -6.602442E+03 -1.032507E-10 -8.444888E-11  3.235873E-11
        87  16 -1.346692E+03  3.939201E+01 -3.250320E+03  1.650861E+02  9.464564E-11 -7.113835E-11
        87  17 -1.095571E+03 -1.718074E+01 -4.138050E+03 -9.433759E+01 -1.687317E-11  7.054908E-11
        87  18 -1.346706E+03 -1.008389E+03 -6.602442E+03 -3.537654E+02  1.654821E-10  1.479248E-11
        87  19 -1.346691E+03  3.939206E+01 -3.250320E+03 -1.650861E+02 -4.511906E+02  1.199766E-04
        87  20 -1.095564E+03 -1.717905E+01 -4.138038E+03  9.433759E+01 -2.514062E+03 -3.820201E-04
        87  21 -1.346683E+03 -1.008383E+03 -6.602402E+03  3.537654E+02 -4.576960E+03 -2.608063E-03
        87  22 -1.346691E+03  3.939201E+01 -3.250320E+03 -6.469232E-10 -4.511906E+02  6.813092E-11
        87  23 -1.095564E+03 -1.717906E+01 -4.138038E+03  2.885692E-10 -2.514062E+03  5.632397E-11
        87  24 -1.346683E+03 -1.008383E+03 -6.602402E+03 -7.785132E-10 -4.576960E+03 -7.474383E-12
        87  25 -1.346691E+03  3.939206E+01 -3.250320E+03  1.650861E+02 -4.511906E+02 -1.199765E-04
        87  26 -1.095564E+03 -1.717905E+01 -4.138038E+03 -9.433759E+01 -2.514062E+03  3.820203E-04
        87  27 -1.346683E+03 -1.008383E+03 -6.602402E+03 -3.537654E+02 -4.576960E+03  2.608063E-03
        88   1 -2.580546E+03  7.004060E+02 -8.238197E+03 -3.064181E+03  5.715271E+03 -2.820835E-02
        88   2  4.468714E+02 -2.330643E+03 -1.412116E+04  5.524100E+03  1.310870E+04  1.166394E-01
        88   3 -2.580304E+03 -2.572990E+04 -2.990945E+04  1.411231E+04  2.050214E+04  4.660392E-01
        88   4 -2.580556E+03  7.003883E+02 -8.238200E+03 -8.568505E-10  5.715271E+03  2.658121E-11
        88   5  4.468387E+02 -2.330700E+03 -1.412117E+04  1.463885E-10  1.310870E+04 -3.526794E-11
        88   6 -2.580518E+03 -2.573027E+04 -2.990950E+04 -1.126110E-10  2.050214E+04 -8.466692E-11
        88   7 -2.580546E+03  7.004060E+02 -8.238197E+03  3.064181E+03  5.715271E+03  2.820835E-02
        88   8  4.468714E+02 -2.330643E+03 -1.412116E+04 -5.524100E+03  1.310870E+04 -1.166394E-01
        88   9 -2.580304E+03 -2.572990E+04 -2.990945E+04 -1.411231E+04  2.050214E+04 -4.660392E-01
        88  10 -2.580581E+03  7.003972E+02 -8.238259E+03 -3.064181E+03  1.746867E-10  1.437782E-12
        88  11  4.466869E+02 -2.330689E+03 -1.412149E+04  5.524100E+03  2.380725E-10 -1.176343E-10
        88  12 -2.580755E+03 -2.573001E+04 -2.991024E+04  1.411231E+04 -1.108018E-10 -5.538805E-11
        88  13 -2.580591E+03  7.003796E+02 -8.238261E+03  2.983474E-10 -1.418276E-10 -4.190098E-11
        88  14  4.466541E+02 -2.330746E+03 -1.412150E+04  2.123196E-10  5.629336E-12 -1.254329E-10
        88  15 -2.580969E+03 -2.573038E+04 -2.991029E+04 -3.457690E-10  1.540572E-10 -5.145112E-11
        88  16 -2.580581E+03  7.003972E+02 -8.238259E+03  3.064181E+03  1.587276E-10 -8.340240E-11
        88  17  4.466869E+02 -2.330689E+03 -1.412149E+04 -5.524100E+03 -3.544852E-11 -1.471785E-10
        88  18 -2.580755E+03 -2.573001E+04 -2.991024E+04 -1.411231E+04  1.236866E-10 -4.475163E-11
        88  19 -2.580546E+03  7.004060E+02 -8.238197E+03 -3.064181E+03 -5.715271E+03  2.820835E-02
        88  20  4.468714E+02 -2.330643E+03 -1.412116E+04  5.524100E+03 -1.310870E+04 -1.166394E-01
        88  21 -2.580304E+03 -2.572990E+04 -2.990945E+04  1.411231E+04 -2.050214E+04 -4.660392E-01
        88  22 -2.580556E+03  7.003883E+02 -8.238200E+03 -8.344493E-10 -5.715271E+03 -1.109495E-10
        88  23  4.468387E+02 -2.330700E+03 -1.412117E+04 -7.991346E-10 -1.310870E+04 -2.174645E-10
        88  24 -2.580518E+03 -2.573027E+04 -2.990950E+04 -6.630736E-10 -2.050214E+04 -4.829072E-11
        88  25 -2.580546E+03  7.004060E+02 -8.238197E+03  3.064181E+03 -5.715271E+03 -2.820835E-02
        88  26  4.468714E+02 -2.330643E+03 -1.412116E+04 -5.524100E+03 -1.310870E+04  1.166394E-01
        88  27 -2.580304E+03 -2.572990E+04 -2.990945E+04 -1.411231E+04 -2.050214E+04  4.660392E-01
        89   1 -5.416638E+04 -1.168438E+05 -5.542707E+04  3.590482E+04 -1.921735E+03 -1.782388E+04
        89   2 -3.133373E+04 -7.831525E+04 -3.504711E+04  2.549819E+04 -5.698514E+03 -8.115775E+03
        89   3 -2.079765E+04 -4.412164E+04 -2.406211E+04  2.635166E+04 -5.102233E+03  1.592985E+03
        89   4 -1.432376E+04  4.372251E+04 -1.678404E+04  2.799888E+04 -1.921066E+03 -1.066958E+04
        89   5 -1.286017E+03  4.543620E+04 -8.559899E+03  2.236820E+04 -5.698227E+03 -6.207326E+03
        89   6  3.672866E+02  4.372498E+04 -6.086497E+03  2.799785E+04 -5.102573E+03 -1.745103E+03
        89   7  2.551724E+04  2.043127E+05  2.185738E+04  2.009089E+04 -1.920579E+03 -3.513438E+03
        89   8  2.876074E+04  1.692021E+05  1.792644E+04  1.923757E+04 -5.697960E+03 -4.298502E+03
        89   9  2.153176E+04  1.315790E+05  1.188875E+04  2.964428E+04 -5.102931E+03 -5.083655E+03
        89  10 -5.416647E+04 -1.168442E+05 -5.542768E+04  3.590479E+04  1.063860E-10 -3.430648E-10
        89  11 -3.133379E+04 -7.831533E+04 -3.504730E+04  2.549816E+04 -1.247039E-10  8.187573E-11
        89  12 -2.079768E+04 -4.412165E+04 -2.406216E+04  2.635167E+04 -1.221013E-10  5.173542E-10
        89  13 -1.432380E+04  4.372238E+04 -1.678426E+04  2.799886E+04 -8.355048E-11  1.748377E-11
        89  14 -1.286063E+03  4.543615E+04 -8.560033E+03  2.236817E+04 -7.228194E-11 -5.082502E-11
        89  15  3.672578E+02  4.372497E+04 -6.086551E+03  2.799784E+04  1.543563E-10  1.083346E-10
        89  16  2.551723E+04  2.043127E+05  2.185735E+04  2.009088E+04 -1.708344E-10  3.259267E-10
        89  17  2.876070E+04  1.692021E+05  1.792635E+04  1.923755E+04 -2.902522E-10  4.826792E-11
        89  18  2.153172E+04  1.315789E+05  1.188865E+04  2.964426E+04  1.038580E-10 -4.670517E-10
        89  19 -5.416638E+04 -1.168438E+05 -5.542707E+04  3.590482E+04  1.921735E+03  1.782388E+04
        89  20 -3.133373E+04 -7.831525E+04 -3.504711E+04  2.549819E+04  5.698514E+03  8.115775E+03
        89  21 -2.079765E+04 -4.412164E+04 -2.406211E+04  2.635166E+04  5.102233E+03 -1.592985E+03
        89  22 -1.432376E+04  4.372251E+04 -1.678404E+04  2.799888E+04  1.921066E+03  1.066958E+04
        89  23 -1.286017E+03  4.543620E+04 -8.559899E+03  2.236820E+04  5.698227E+03  6.207326E+03
        89  24  3.672866E+02  4.372498E+04 -6.086497E+03  2.799785E+04  5.102573E+03  1.745103E+03
        89  25  2.551724E+04  2.043127E+05  2.185738E+04  2.009089E+04  1.920579E+03  3.513438E+03
        89  26  2.876074E+04  1.692021E+05  1.792644E+04  1.923757E+04  5.697960E+03  4.298502E+03
        89  27  2.153176E+04  1.315790E+05  1.188875E+04  2.964428E+04  5.102931E+03  5.083655E+03
        90   1 -1.534287E+04 -1.729479E+04 -1.835157E+04  2.849392E+04 -3.542198E+03  1.543441E+03
        90   2 -6.129057E+03  1.942977E+04 -1.108845E+04  2.226928E+04 -1.553064E+03  4.616071E+03
        90   3  1.472274E+03  5.535022E+04 -6.229446E+03  2.752710E+04  5.068895E+02  7.688809E+03
        90   4 -4.952007E+02  4.431122E+04 -5.717742E+03  2.804738E+04 -3.542479E+03 -8.005851E+02
        90   5 -5.275675E+01  4.470686E+04 -5.983212E+03  2.230620E+04 -1.553382E+03  2.187142E+03
        90   6 -1.207959E+03  4.431185E+04 -8.593774E+03  2.804748E+04  5.065341E+02  5.174805E+03
        90   7  1.435224E+04  1.059209E+05  6.915908E+03  2.760080E+04 -3.542757E+03 -3.144840E+03
        90   8  6.023507E+03  6.998458E+04 -8.779864E+02  2.234312E+04 -1.553701E+03 -2.418844E+02
        90   9 -3.888195E+03  3.327362E+04 -1.095809E+04  2.856784E+04  5.061745E+02  2.660844E+03
        90  10 -1.534289E+04 -1.729480E+04 -1.835160E+04  2.849393E+04  1.053458E-10 -2.320904E-10
        90  11 -6.129065E+03  1.942975E+04 -1.108849E+04  2.226929E+04 -1.343264E-10  4.172693E-11
        90  12  1.472257E+03  5.535016E+04 -6.229558E+03  2.752710E+04 -2.109983E-11  1.717434E-10
        90  13 -4.952143E+02  4.431122E+04 -5.717767E+03  2.804738E+04 -3.406545E-11  9.577461E-11
        90  14 -5.276063E+01  4.470686E+04 -5.983225E+03  2.230620E+04 -7.783096E-11 -1.121390E-10
        90  15 -1.207966E+03  4.431183E+04 -8.593825E+03  2.804748E+04 -2.498467E-10  1.471237E-10
        90  16  1.435222E+04  1.059208E+05  6.915866E+03  2.760079E+04  3.078778E-10  9.028471E-11
        90  17  6.023504E+03  6.998458E+04 -8.779910E+02  2.234312E+04  4.102656E-11  2.109493E-10
        90  18 -3.888197E+03  3.327361E+04 -1.095810E+04  2.856784E+04  1.092935E-10 -9.767031E-11
        90  19 -1.534287E+04 -1.729479E+04 -1.835157E+04  2.849392E+04  3.542198E+03 -1.543441E+03
        90  20 -6.129057E+03  1.942977E+04 -1.108845E+04  2.226928E+04  1.553064E+03 -4.616071E+03
        90  21  1.472274E+03  5.535022E+04 -6.229446E+03  2.752710E+04 -5.068895E+02 -7.688809E+03
        90  22 -4.952007E+02  4.431122E+04 -5.717742E+03  2.804738E+04  3.542479E+03  8.005851E+02
        90  23 -5.275675E+01  4.470686E+04 -5.983212E+03  2.230620E+04  1.553382E+03 -2.187142E+03
        90  24 -1.207959E+03  4.431185E+04 -8.593774E+03  2.804748E+04 -5.065341E+02 -5.174805E+03
        90  25  1.435224E+04  1.059209E+05  6.915908E+03  2.760080E+04  3.542757E+03  3.144840E+03
        90  26  6.023507E+03  6.998458E+04 -8.779864E+02  2.234312E+04  1.553701E+03  2.418844E+02
        90  27 -3.888195E+03  3.327362E+04 -1.095809E+04  2.856784E+04 -5.061745E+02 -2.660844E+03
        91   1  9.841333E+03  8.007497E+04 -2.735294E+03  3.176007E+04  2.024106E+03  9.834177E+03
        91   2  1.497454E+04  1.198218E+05 -1.603080E+03  1.557530E+04  3.136622E+03  1.526737E+04
        91   3 -4.211312E+03  1.527826E+05 -1.008743E+04  1.072195E+04  1.157894E+03  2.070106E+04
        91   4  8.469456E+02  4.283562E+04 -1.046458E+04  2.801336E+04  2.023608E+03  6.644224E+03
        91   5 -2.849698E+03  4.655129E+04 -1.746958E+04  2.234907E+04  3.136877E+03  1.578630E+04
        91   6 -3.151120E+04  4.283474E+04 -3.666745E+04  2.801664E+04  1.158921E+03  2.492846E+04
        91   7 -8.147472E+03  5.597639E+03 -1.819390E+04  2.426688E+04  2.023148E+03  3.454459E+03
        91   8 -2.067412E+04 -2.671407E+04 -3.333636E+04  2.912203E+04  3.137144E+03  1.630517E+04
        91   9 -5.881083E+04 -6.710135E+04 -6.324811E+04  4.530826E+04  1.160184E+03  2.915511E+04
        91  10  9.841303E+03  8.007486E+04 -2.735483E+03  3.176006E+04  2.067265E-12 -4.171691E-10
        91  11  1.497447E+04  1.198215E+05 -1.603536E+03  1.557526E+04 -2.648818E-10  2.761497E-11
        91  12 -4.211429E+03  1.527821E+05 -1.008823E+04  1.072193E+04  3.878567E-11  2.858631E-10
        91  13  8.469294E+02  4.283557E+04 -1.046467E+04  2.801335E+04  6.640967E-12  1.004849E-10
        91  14 -2.849775E+03  4.655102E+04 -1.747006E+04  2.234903E+04 -2.538602E-10 -9.772647E-11
        91  15 -3.151136E+04  4.283408E+04 -3.666862E+04  2.801662E+04  1.866621E-11  8.937847E-11
        91  16 -8.147479E+03  5.597625E+03 -1.819393E+04  2.426688E+04  6.890543E-11  2.451743E-10
        91  17 -2.067420E+04 -2.671436E+04 -3.333688E+04  2.912199E+04  7.365437E-12  1.900166E-10
        91  18 -5.881106E+04 -6.710226E+04 -6.324971E+04  4.530823E+04 -3.200720E-10 -2.360029E-10
        91  19  9.841333E+03  8.007497E+04 -2.735294E+03  3.176007E+04 -2.024106E+03 -9.834177E+03
        91  20  1.497454E+04  1.198218E+05 -1.603080E+03  1.557530E+04 -3.136622E+03 -1.526737E+04
        91  21 -4.211312E+03  1.527826E+05 -1.008743E+04  1.072195E+04 -1.157894E+03 -2.070106E+04
        91  22  8.469456E+02  4.283562E+04 -1.046458E+04  2.801336E+04 -2.023608E+03 -6.644224E+03
        91  23 -2.849698E+03  4.655129E+04 -1.746958E+04  2.234907E+04 -3.136877E+03 -1.578630E+04
        91  24 -3.151120E+04  4.283474E+04 -3.666745E+04  2.801664E+04 -1.158921E+03 -2.492846E+04
        91  25 -8.147472E+03  5.597639E+03 -1.819390E+04  2.426688E+04 -2.023148E+03 -3.454459E+03
        91  26 -2.067412E+04 -2.671407E+04 -3.333636E+04  2.912203E+04 -3.137144E+03 -1.630517E+04
        91  27 -5.881083E+04 -6.710135E+04 -6.324811E+04  4.530826E+04 -1.160184E+03 -2.915511E+04
        92   1  2.090558E+05  1.855950E+05  5.001104E+04  1.527992E+05  1.803999E+04  1.199171E+04
        92   2  1.919701E+05  1.478798E+05  2.851188E+04  1.485416E+05  1.185069E+04  4.389363E+03
        92   3  1.770470E+05  1.310023E+05  1.755600E+04  1.408523E+05  3.928201E+03 -9.015854E+02
        92   4  1.434511E+05  1.197995E+05  2.466193E+04  1.115418E+05  1.437787E+04  9.244402E+03
        92   5  1.387460E+05  1.027044E+05  1.153687E+04  1.184921E+05  1.096361E+04  3.723816E+03
        92   6  1.356025E+05  1.058460E+05  6.547955E+03  1.220103E+05  5.815843E+03  5.143800E+02
        92   7  7.785031E+04  5.400863E+04 -6.881070E+02  7.028962E+04  1.071624E+04  6.497665E+03
        92   8  8.552441E+04  5.753095E+04 -5.438706E+03  8.844540E+04  1.007661E+04  3.058359E+03
        92   9  9.415942E+04  8.069016E+04 -4.460362E+03  1.031695E+05  7.703333E+03  1.930256E+03
        92  10  2.090554E+05  1.855948E+05  5.001016E+04  1.527990E+05  8.979009E-11  4.155719E-11
        92  11  1.919700E+05  1.478798E+05  2.851158E+04  1.485415E+05 -7.308385E-12  9.297279E-11
        92  12  1.770470E+05  1.310023E+05  1.755597E+04  1.408523E+05  1.028309E-11 -1.978841E-10
        92  13  1.434508E+05  1.197993E+05  2.466138E+04  1.115417E+05  1.480605E-10 -1.841663E-11
        92  14  1.387459E+05  1.027043E+05  1.153662E+04  1.184920E+05  3.606364E-10  2.226695E-10
        92  15  1.356024E+05  1.058460E+05  6.547891E+03  1.220103E+05 -3.522916E-11 -9.906932E-11
        92  16  7.785018E+04  5.400856E+04 -6.884021E+02  7.028957E+04 -2.030368E-10 -9.581949E-11
        92  17  8.552429E+04  5.753091E+04 -5.438914E+03  8.844537E+04 -1.321627E-10 -1.349210E-10
        92  18  9.415935E+04  8.069014E+04 -4.460481E+03  1.031694E+05  4.136602E-11 -4.929109E-11
        92  19  2.090558E+05  1.855950E+05  5.001104E+04  1.527992E+05 -1.803999E+04 -1.199171E+04
        92  20  1.919701E+05  1.478798E+05  2.851188E+04  1.485416E+05 -1.185069E+04 -4.389363E+03
        92  21  1.770470E+05  1.310023E+05  1.755600E+04  1.408523E+05 -3.928201E+03  9.015854E+02
        92  22  1.434511E+05  1.197995E+05  2.466193E+04  1.115418E+05 -1.437787E+04 -9.244402E+03
        92  23  1.387460E+05  1.027044E+05  1.153687E+04  1.184921E+05 -1.096361E+04 -3.723816E+03
        92  24  1.356025E+05  1.058460E+05  6.547955E+03  1.220103E+05 -5.815843E+03 -5.143800E+02
        92  25  7.785031E+04  5.400863E+04 -6.881070E+02  7.028962E+04 -1.071624E+04 -6.497665E+03
        92  26  8.552441E+04  5.753095E+04 -5.438706E+03  8.844540E+04 -1.007661E+04 -3.058359E+03
        92  27  9.415942E+04  8.069016E+04 -4.460362E+03  1.031695E+05 -7.703333E+03 -1.930256E+03
        93   1  1.606451E+05  1.247048E+05  1.231809E+04  1.336971E+05  3.108536E+03 -1.483892E+02
        93   2  1.456252E+05  1.067287E+05  4.718171E+03  1.233997E+05  9.526053E+02  8.090039E+01
        93   3  1.233136E+05  9.721947E+04 -1.655354E+03  1.152053E+05 -1.298696E+03  4.374992E+02
        93   4  1.354213E+05  1.064116E+05  5.104850E+03  1.208484E+05  4.450494E+03  8.582563E+02
        93   5  1.389253E+05  1.019127E+05  2.795704E+03  1.200092E+05  2.447339E+03  1.202149E+03
        93   6  1.351039E+05  1.058469E+05  1.580354E+03  1.212725E+05  3.487488E+02  1.673309E+03
        93   7  1.101986E+05  8.811914E+04 -2.108334E+03  1.080004E+05  5.792362E+03  1.864832E+03
        93   8  1.322256E+05  9.709671E+04  8.732614E+02  1.166188E+05  3.942042E+03  2.323373E+03
        93   9  1.468942E+05  1.144745E+05  4.816063E+03  1.273399E+05  1.996235E+03  2.909152E+03
        93  10  1.606451E+05  1.247048E+05  1.231808E+04  1.336971E+05  1.452213E-10 -2.377643E-11
        93  11  1.456252E+05  1.067287E+05  4.718169E+03  1.233997E+05 -1.405551E-10 -1.635757E-10
        93  12  1.233136E+05  9.721946E+04 -1.655358E+03  1.152053E+05 -9.666355E-11  4.332827E-11
        93  13  1.354213E+05  1.064116E+05  5.104812E+03  1.208484E+05 -9.866421E-11 -3.755542E-10
        93  14  1.389253E+05  1.019127E+05  2.795690E+03  1.200092E+05  2.140760E-10 -3.901815E-10
        93  15  1.351039E+05  1.058469E+05  1.580348E+03  1.212725E+05 -2.428110E-10 -1.007508E-10
        93  16  1.101986E+05  8.811913E+04 -2.108403E+03  1.080004E+05  3.895467E-12  1.435218E-10
        93  17  1.322255E+05  9.709670E+04  8.732221E+02  1.166188E+05 -1.375198E-10  1.998155E-10
        93  18  1.468942E+05  1.144745E+05  4.816039E+03  1.273399E+05  2.030049E-11 -3.047221E-10
        93  19  1.606451E+05  1.247048E+05  1.231809E+04  1.336971E+05 -3.108536E+03  1.483892E+02
        93  20  1.456252E+05  1.067287E+05  4.718171E+03  1.233997E+05 -9.526053E+02 -8.090039E+01
        93  21  1.233136E+05  9.721947E+04 -1.655354E+03  1.152053E+05  1.298696E+03 -4.374992E+02
        93  22  1.354213E+05  1.064116E+05  5.104850E+03  1.208484E+05 -4.450494E+03 -8.582563E+02
        93  23  1.389253E+05  1.019127E+05  2.795704E+03  1.200092E+05 -2.447339E+03 -1.202149E+03
        93  24  1.351039E+05  1.058469E+05  1.580354E+03  1.212725E+05 -3.487488E+02 -1.673309E+03
        93  25  1.101986E+05  8.811914E+04 -2.108334E+03  1.080004E+05 -5.792362E+03 -1.864832E+03
        93  26  1.322256E+05  9.709671E+04  8.732614E+02  1.166188E+05 -3.942042E+03 -2.323373E+03
        93  27  1.468942E+05  1.144745E+05  4.816063E+03  1.273399E+05 -1.996235E+03 -2.909152E+03
        94   1  1.097061E+05  8.783071E+04 -5.898931E+03  1.084383E+05 -2.065804E+03  1.109107E+03
        94   2  9.487053E+04  7.066357E+04 -1.158889E+04  9.789625E+04 -3.313052E+03  2.277887E+03
        94   3  7.223964E+04  6.136710E+04 -1.707875E+04  8.964775E+04 -4.554750E+03  3.439452E+03
        94   4  1.350781E+05  1.058618E+05  1.184797E+03  1.212100E+05 -4.450533E+02  2.324879E+03
        94   5  1.389699E+05  1.019168E+05  6.211001E+02  1.200696E+05 -1.701049E+03  3.487030E+03
        94   6  1.350681E+05  1.058444E+05  2.652239E+02  1.212227E+05 -2.951498E+03  4.641955E+03
        94   7  1.604511E+05  1.238936E+05  8.268587E+03  1.339824E+05  1.175807E+03  3.540733E+03
        94   8  1.830715E+05  1.331712E+05  1.283092E+04  1.422448E+05 -8.889288E+01  4.696289E+03
        94   9  1.979001E+05  1.503234E+05  1.760856E+04  1.528008E+05 -1.348047E+03  5.844608E+03
        94  10  1.097061E+05  8.783070E+04 -5.898941E+03  1.084383E+05  1.956331E-11  2.680461E-10
        94  11  9.487052E+04  7.066356E+04 -1.158892E+04  9.789626E+04  1.426228E-11  3.176158E-11
        94  12  7.223961E+04  6.136708E+04 -1.707881E+04  8.964776E+04  1.877797E-10  3.256522E-11
        94  13  1.350781E+05  1.058618E+05  1.184786E+03  1.212100E+05 -2.384857E-10  1.438934E-10
        94  14  1.389699E+05  1.019168E+05  6.210718E+02  1.200696E+05 -1.542574E-10  1.421751E-10
        94  15  1.350681E+05  1.058444E+05  2.651671E+02  1.212227E+05  2.394399E-10 -2.535876E-10
        94  16  1.604511E+05  1.238935E+05  8.268561E+03  1.339824E+05 -2.500266E-10 -2.668521E-10
        94  17  1.830715E+05  1.331712E+05  1.283088E+04  1.422448E+05 -2.397586E-10 -5.372022E-11
        94  18  1.979001E+05  1.503234E+05  1.760849E+04  1.528009E+05 -1.606714E-10 -3.021696E-10
        94  19  1.097061E+05  8.783071E+04 -5.898931E+03  1.084383E+05  2.065804E+03 -1.109107E+03
        94  20  9.487053E+04  7.066357E+04 -1.158889E+04  9.789625E+04  3.313052E+03 -2.277887E+03
        94  21  7.223964E+04  6.136710E+04 -1.707875E+04  8.964775E+04  4.554750E+03 -3.439452E+03
        94  22  1.350781E+05  1.058618E+05  1.184797E+03  1.212100E+05  4.450533E+02 -2.324879E+03
        94  23  1.389699E+05  1.019168E+05  6.211001E+02  1.200696E+05  1.701049E+03 -3.487030E+03
        94  24  1.350681E+05  1.058444E+05  2.652239E+02  1.212227E+05  2.951498E+03 -4.641955E+03
        94  25  1.604511E+05  1.238936E+05  8.268587E+03  1.339824E+05 -1.175807E+03 -3.540733E+03
        94  26  1.830715E+05  1.331712E+05  1.283092E+04  1.422448E+05  8.889288E+01 -4.696289E+03
        94  27  1.979001E+05  1.503234E+05  1.760856E+04  1.528008E+05  1.348047E+03 -5.844608E+03
        95   1  5.877158E+04  5.182421E+04 -2.106508E+04  8.288751E+04 -5.247119E+03  4.175034E+03
        95   2  4.393898E+04  3.470334E+04 -2.654247E+04  7.237391E+04 -5.816426E+03  5.709126E+03
        95   3  2.116747E+04  2.527939E+04 -3.235895E+04  6.416877E+04 -6.187977E+03  6.979807E+03
        95   4  1.350622E+05  1.058412E+05  1.257903E+02  1.212098E+05 -3.582673E+03  5.423364E+03
        95   5  1.389787E+05  1.019264E+05 -1.378083E+02  1.200788E+05 -4.468150E+03  6.720175E+03
        95   6  1.350249E+05  1.057769E+05 -4.659601E+02  1.212559E+05 -5.155881E+03  7.753614E+03
        95   7  2.113594E+05  1.598616E+05  2.131612E+04  1.595375E+05 -1.917949E+03  6.671903E+03
        95   8  2.340292E+05  1.691552E+05  2.626620E+04  1.677923E+05 -3.119587E+03  7.731440E+03
        95   9  2.488981E+05  1.862829E+05  3.142626E+04  1.783558E+05 -4.123517E+03  8.527623E+03
        95  10  5.877155E+04  5.182418E+04 -2.106517E+04  8.288753E+04  9.849378E-11 -1.945146E-10
        95  11  4.393893E+04  3.470330E+04 -2.654259E+04  7.237394E+04 -1.550451E-11  2.097825E-11
        95  12  2.116742E+04  2.527933E+04 -3.235912E+04  6.416881E+04  7.203995E-11  1.432440E-10
        95  13  1.350622E+05  1.058412E+05  1.257109E+02  1.212098E+05  1.070416E-10 -1.347967E-10
        95  14  1.389787E+05  1.019264E+05 -1.379307E+02  1.200788E+05  1.573121E-10 -7.852541E-12
        95  15  1.350248E+05  1.057768E+05 -4.661230E+02  1.212560E+05  1.308039E-10  1.167406E-10
        95  16  2.113594E+05  1.598615E+05  2.131603E+04  1.595375E+05  9.123574E-11 -7.168736E-11
        95  17  2.340292E+05  1.691551E+05  2.626607E+04  1.677924E+05 -1.249204E-10 -5.222377E-11
        95  18  2.488981E+05  1.862828E+05  3.142609E+04  1.783558E+05 -2.470867E-10  7.824914E-11
        95  19  5.877158E+04  5.182421E+04 -2.106508E+04  8.288751E+04  5.247119E+03 -4.175034E+03
        95  20  4.393898E+04  3.470334E+04 -2.654247E+04  7.237391E+04  5.816426E+03 -5.709126E+03
        95  21  2.116747E+04  2.527939E+04 -3.235895E+04  6.416877E+04  6.187977E+03 -6.979807E+03
        95  22  1.350622E+05  1.058412E+05  1.257903E+02  1.212098E+05  3.582673E+03 -5.423364E+03
        95  23  1.389787E+05  1.019264E+05 -1.378083E+02  1.200788E+05  4.468150E+03 -6.720175E+03
        95  24  1.350249E+05  1.057769E+05 -4.659601E+02  1.212559E+05  5.155881E+03 -7.753614E+03
        95  25  2.113594E+05  1.598616E+05  2.131612E+04  1.595375E+05  1.917949E+03 -6.671903E+03
        95  26  2.340292E+05  1.691552E+05  2.626620E+04  1.677923E+05  3.119587E+03 -7.731440E+03
        95  27  2.488981E+05  1.862829E+05  3.142626E+04  1.783558E+05  4.123517E+03 -8.527623E+03
        96   1  7.895962E+03  1.535783E+04 -3.628409E+04  5.710102E+04 -7.972968E+03  7.148404E+03
        96   2 -7.505958E+03 -9.464153E+02 -4.375810E+04  4.744293E+04 -1.286689E+03  1.124513E+04
        96   3 -3.268528E+04 -1.232594E+04 -5.708153E+04  4.060929E+04  8.977891E+03  1.056807E+04
        96   4  1.350727E+05  1.057697E+05 -6.489608E+02  1.211095E+05 -5.813474E+03  8.767577E+03
        96   5  1.389090E+05  1.019203E+05 -1.234308E+03  1.202708E+05 -4.854721E+03  8.569381E+03
        96   6  1.342105E+05  1.042382E+05 -2.698044E+03  1.222559E+05 -3.178601E+02  3.598400E+03
        96   7  2.622660E+05  1.961900E+05  3.498411E+04  1.851323E+05 -3.653407E+03  1.038718E+04
        96   8  2.853459E+05  2.047978E+05  4.128673E+04  1.931173E+05 -8.423855E+03  5.892814E+03
        96   9  3.011341E+05  2.208155E+05  5.168170E+04  2.039261E+05 -9.616927E+03 -3.373699E+03
        96  10  7.895880E+03  1.535776E+04 -3.628431E+04  5.710107E+04  1.120167E-10  2.628144E-10
        96  11 -7.505994E+03 -9.465516E+02 -4.375834E+04  4.744295E+04 -4.278387E-11  3.044367E-10
        96  12 -3.268540E+04 -1.232608E+04 -5.708189E+04  4.060922E+04  9.976198E-11  2.610358E-10
        96  13  1.350726E+05  1.057696E+05 -6.491688E+02  1.211095E+05 -1.856265E-10  1.821426E-10
        96  14  1.389090E+05  1.019202E+05 -1.234490E+03  1.202708E+05  2.072322E-10 -2.223497E-10
        96  15  1.342105E+05  1.042382E+05 -2.698069E+03  1.222559E+05 -3.376651E-10  9.432034E-11
        96  16  2.622660E+05  1.961899E+05  3.498389E+04  1.851323E+05 -2.318380E-10  3.713919E-11
        96  17  2.853459E+05  2.047977E+05  4.128653E+04  1.931173E+05 -2.118589E-10 -8.927306E-11
        96  18  3.011340E+05  2.208154E+05  5.168150E+04  2.039261E+05 -1.838754E-10 -1.160660E-10
        96  19  7.895962E+03  1.535783E+04 -3.628409E+04  5.710102E+04  7.972968E+03 -7.148404E+03
        96  20 -7.505958E+03 -9.464153E+02 -4.375810E+04  4.744293E+04  1.286689E+03 -1.124513E+04
        96  21 -3.268528E+04 -1.232594E+04 -5.708153E+04  4.060929E+04 -8.977891E+03 -1.056807E+04
        96  22  1.350727E+05  1.057697E+05 -6.489608E+02  1.211095E+05  5.813474E+03 -8.767577E+03
        96  23  1.389090E+05  1.019203E+05 -1.234308E+03  1.202708E+05  4.854721E+03 -8.569381E+03
        96  24  1.342105E+05  1.042382E+05 -2.698044E+03  1.222559E+05  3.178601E+02 -3.598400E+03
        96  25  2.622660E+05  1.961900E+05  3.498411E+04  1.851323E+05  3.653407E+03 -1.038718E+04
        96  26  2.853459E+05  2.047978E+05  4.128673E+04  1.931173E+05  8.423855E+03 -5.892814E+03
        96  27  3.011341E+05  2.208155E+05  5.168170E+04  2.039261E+05  9.616927E+03  3.373699E+03
        97   1  2.212387E+03  1.893158E+05  7.297623E+03 -1.549519E+04 -1.456873E+03  1.491746E+04
        97   2 -2.100346E+04  1.847887E+05 -6.161910E+03 -6.562476E+03 -4.921438E+03  1.040220E+04
        97   3 -2.435560E+04  1.858171E+05 -1.171589E+04  1.676277E+03 -5.999952E+03  5.886855E+03
        97   4  2.571040E+04  2.842443E+05  2.988572E+04 -1.390121E+03 -1.456493E+03  2.051030E+04
        97   5  2.329531E+03  2.812202E+05  1.409472E+04 -1.042673E+03 -4.921207E+03  1.313011E+04
        97   6 -6.922994E+02  2.842478E+05  8.197434E+03 -1.389189E+03 -5.999913E+03  5.749852E+03
        97   7  4.920853E+04  3.791816E+05  5.247341E+04  1.271711E+04 -1.455859E+03  2.610399E+04
        97   8  2.566204E+04  3.776605E+05  3.435087E+04  4.478001E+03 -4.920927E+03  1.585845E+04
        97   9  2.297043E+04  3.826878E+05  2.811026E+04 -4.455150E+03 -5.999873E+03  5.612828E+03
        97  10  2.212325E+03  1.893156E+05  7.297201E+03 -1.549517E+04  1.513553E-10 -1.697210E-10
        97  11 -2.100352E+04  1.847886E+05 -6.162159E+03 -6.562435E+03 -1.320469E-10  4.943895E-10
        97  12 -2.435565E+04  1.858170E+05 -1.171603E+04  1.676306E+03  4.398652E-10  1.067849E-09
        97  13  2.571029E+04  2.842439E+05  2.988493E+04 -1.390096E+03 -7.367017E-11 -1.346233E-11
        97  14  2.329458E+03  2.812200E+05  1.409435E+04 -1.042621E+03 -3.642071E-11  3.640688E-12
        97  15 -6.923470E+02  2.842477E+05  8.197304E+03 -1.389161E+03  1.922966E-10 -7.609907E-11
        97  16  4.920834E+04  3.791808E+05  5.247213E+04  1.271715E+04 -5.181356E-11  1.723841E-10
        97  17  2.566195E+04  3.776602E+05  3.435035E+04  4.478064E+03  9.046821E-11 -4.117772E-10
        97  18  2.297039E+04  3.826877E+05  2.811014E+04 -4.455123E+03  3.777543E-10 -1.036154E-09
        97  19  2.212387E+03  1.893158E+05  7.297623E+03 -1.549519E+04  1.456873E+03 -1.491746E+04
        97  20 -2.100346E+04  1.847887E+05 -6.161910E+03 -6.562476E+03  4.921438E+03 -1.040220E+04
        97  21 -2.435560E+04  1.858171E+05 -1.171589E+04  1.676277E+03  5.999952E+03 -5.886855E+03
        97  22  2.571040E+04  2.842443E+05  2.988572E+04 -1.390121E+03  1.456493E+03 -2.051030E+04
        97  23  2.329531E+03  2.812202E+05  1.409472E+04 -1.042673E+03  4.921207E+03 -1.313011E+04
        97  24 -6.922994E+02  2.842478E+05  8.197434E+03 -1.389189E+03  5.999913E+03 -5.749852E+03
        97  25  4.920853E+04  3.791816E+05  5.247341E+04  1.271711E+04  1.455859E+03 -2.610399E+04
        97  26  2.566204E+04  3.776605E+05  3.435087E+04  4.478001E+03  4.920927E+03 -1.585845E+04
        97  27  2.297043E+04  3.826878E+05  2.811026E+04 -4.455150E+03  5.999873E+03 -5.612828E+03
        98   1 -2.296479E+04  1.833843E+05 -1.367590E+04 -1.736876E+03 -5.989319E+03  4.160401E+03
        98   2 -2.433459E+04  1.813476E+05 -1.643176E+04 -1.125898E+03 -6.231328E+03  2.480828E+03
        98   3 -2.468186E+04  1.797874E+05 -1.783820E+04 -1.083446E+03 -6.189958E+03  8.012457E+02
        98   4  1.002224E+03  2.830214E+05  6.547488E+03 -1.361541E+03 -5.989209E+03  4.621326E+03
        98   5  3.675987E+01  2.827538E+05  4.044795E+03 -1.077237E+03 -6.231236E+03  2.601343E+03
        98   6  1.528017E+02  2.830216E+05  3.127697E+03 -1.361452E+03 -6.189903E+03  5.813464E+02
        98   7  2.496862E+04  3.826679E+05  2.677036E+04 -9.861456E+02 -5.989099E+03  5.082324E+03
        98   8  2.440747E+04  3.841697E+05  2.452082E+04 -1.028568E+03 -6.231144E+03  2.721877E+03
        98   9  2.498680E+04  3.862660E+05  2.409304E+04 -1.639506E+03 -6.189849E+03  3.614113E+02
        98  10 -2.296483E+04  1.833843E+05 -1.367600E+04 -1.736856E+03  6.683547E-10  9.723675E-10
        98  11 -2.433463E+04  1.813476E+05 -1.643184E+04 -1.125886E+03  6.338015E-10  1.275291E-09
        98  12 -2.468190E+04  1.797874E+05 -1.783828E+04 -1.083442E+03  1.655850E-10  1.840351E-09
        98  13  1.002180E+03  2.830214E+05  6.547380E+03 -1.361519E+03  4.845268E-10 -1.121624E-10
        98  14  3.671635E+01  2.827537E+05  4.044709E+03 -1.077224E+03  4.580887E-10 -7.569583E-12
        98  15  1.527604E+02  2.830216E+05  3.127624E+03 -1.361450E+03 -1.389516E-12 -1.419824E-10
        98  16  2.496857E+04  3.826679E+05  2.677024E+04 -9.861211E+02  4.561365E-10 -8.770639E-10
        98  17  2.440743E+04  3.841697E+05  2.452073E+04 -1.028555E+03  7.429408E-10 -1.035902E-09
        98  18  2.498676E+04  3.862660E+05  2.409297E+04 -1.639504E+03  2.931802E-10 -1.738787E-09
        98  19 -2.296479E+04  1.833843E+05 -1.367590E+04 -1.736876E+03  5.989319E+03 -4.160401E+03
        98  20 -2.433459E+04  1.813476E+05 -1.643176E+04 -1.125898E+03  6.231328E+03 -2.480828E+03
        98  21 -2.468186E+04  1.797874E+05 -1.783820E+04 -1.083446E+03  6.189958E+03 -8.012457E+02
        98  22  1.002224E+03  2.830214E+05  6.547488E+03 -1.361541E+03  5.989209E+03 -4.621326E+03
        98  23  3.675987E+01  2.827538E+05  4.044795E+03 -1.077237E+03  6.231236E+03 -2.601343E+03
        98  24  1.528017E+02  2.830216E+05  3.127697E+03 -1.361452E+03  6.189903E+03 -5.813464E+02
        98  25  2.496862E+04  3.826679E+05  2.677036E+04 -9.861456E+02  5.989099E+03 -5.082324E+03
        98  26  2.440747E+04  3.841697E+05  2.452082E+04 -1.028568E+03  6.231144E+03 -2.721877E+03
        98  27  2.498680E+04  3.862660E+05  2.409304E+04 -1.639506E+03  6.189849E+03 -3.614113E+02
        99   1 -2.528205E+04  1.785659E+05 -1.819419E+04 -1.909046E+03 -6.353188E+03 -3.836783E+02
        99   2 -2.523744E+04  1.763544E+05 -1.885356E+04  5.657289E+01 -5.358873E+03  1.109057E+03
        99   3 -2.155057E+04  1.748616E+05 -1.957347E+04  1.596780E+03 -1.608443E+03  2.601188E+03
        99   4 -1.252203E+02  2.831899E+05  2.991726E+03 -1.329483E+03 -6.353041E+03  7.715685E+01
        99   5  4.651973E+02  2.825432E+05  3.500007E+03 -1.117209E+03 -5.359268E+03 -1.738301E+03
        99   6  5.271693E+03  2.831891E+05  6.244322E+03 -1.330337E+03 -1.609604E+03 -3.554311E+03
        99   7  2.503093E+04  3.878243E+05  2.417707E+04 -7.498200E+02 -6.352893E+03  5.380682E+02
        99   8  2.616712E+04  3.887426E+05  2.585297E+04 -2.291196E+03 -5.359653E+03 -4.586137E+03
        99   9  3.209316E+04  3.915275E+05  3.206143E+04 -4.257967E+03 -1.610706E+03 -9.710880E+03
        99  10 -2.528209E+04  1.785659E+05 -1.819426E+04 -1.909048E+03 -6.247038E-10  2.295329E-08
        99  11 -2.523747E+04  1.763544E+05 -1.885362E+04  5.657767E+01 -9.358058E-10  1.676484E-09
        99  12 -2.155057E+04  1.748616E+05 -1.957349E+04  1.596783E+03 -4.400841E-10 -1.979325E-08
        99  13 -1.252636E+02  2.831899E+05  2.991650E+03 -1.329482E+03 -7.390268E-10 -1.261880E-10
        99  14  4.651656E+02  2.825432E+05  3.499948E+03 -1.117217E+03 -1.418744E-09  6.134239E-12
        99  15  5.271687E+03  2.831891E+05  6.244293E+03 -1.330341E+03 -5.286207E-10 -2.704025E-10
        99  16  2.503089E+04  3.878243E+05  2.417700E+04 -7.498172E+02 -3.767292E-10 -2.275877E-08
        99  17  2.616708E+04  3.887426E+05  2.585288E+04 -2.291215E+03 -1.211493E-09 -1.241342E-09
        99  18  3.209313E+04  3.915274E+05  3.206125E+04 -4.257979E+03 -4.519648E-10  1.993904E-08
        99  19 -2.528205E+04  1.785659E+05 -1.819419E+04 -1.909046E+03  6.353188E+03  3.836783E+02
        99  20 -2.523744E+04  1.763544E+05 -1.885356E+04  5.657289E+01  5.358873E+03 -1.109057E+03
        99  21 -2.155057E+04  1.748616E+05 -1.957347E+04  1.596780E+03  1.608443E+03 -2.601188E+03
        99  22 -1.252203E+02  2.831899E+05  2.991726E+03 -1.329483E+03  6.353041E+03 -7.715685E+01
        99  23  4.651973E+02  2.825432E+05  3.500007E+03 -1.117209E+03  5.359268E+03  1.738301E+03
        99  24  5.271693E+03  2.831891E+05  6.244322E+03 -1.330337E+03  1.609604E+03  3.554311E+03
        99  25  2.503093E+04  3.878243E+05  2.417707E+04 -7.498200E+02  6.352893E+03 -5.380682E+02
        99  26  2.616712E+04  3.887426E+05  2.585297E+04 -2.291196E+03  5.359653E+03  4.586137E+03
        99  27  3.209316E+04  3.915275E+05  3.206143E+04 -4.257967E+03  1.610706E+03  9.710880E+03
       100   1  1.034551E+06  2.110100E+05  1.893767E+05  9.687943E+04 -4.237313E+03 -1.500837E+04
       100   2  8.584592E+05  2.294946E+05  1.652031E+05  9.488784E+04 -1.921553E+04 -4.661746E+04
       100   3  6.711499E+05  1.938936E+05  1.372953E+05  1.485506E+05 -3.415722E+04 -4.728862E+04
       100   4 -1.269848E+05 -7.697385E+04 -8.914366E+04  1.396948E+05 -6.074177E+04 -1.496146E+04
       100   5 -1.180678E+05 -7.268814E+03 -4.239743E+04  1.118896E+05 -3.857244E+04 -4.661107E+04
       100   6 -1.268710E+05  1.856291E+03 -2.519016E+04  1.397493E+05 -1.636937E+04 -4.729952E+04
       100   7 -1.287275E+06 -3.650472E+05 -3.677467E+05  1.824300E+05 -1.171410E+05 -1.492230E+04
       100   8 -1.093696E+06 -2.440929E+05 -2.500510E+05  1.288643E+05 -5.789935E+04 -4.660575E+04
       100   9 -9.242858E+05 -1.902203E+05 -1.877079E+05  1.309594E+05  1.396078E+03 -4.731093E+04
       100  10  1.034550E+06  2.110098E+05  1.893762E+05  9.687938E+04 -3.670363E-11 -7.471069E-11
       100  11  8.584582E+05  2.294922E+05  1.651983E+05  9.488711E+04 -5.132179E-11 -2.383459E-10
       100  12  6.711480E+05  1.938909E+05  1.372890E+05  1.485493E+05 -3.054475E-12 -2.940228E-10
       100  13 -1.269889E+05 -7.697508E+04 -8.915101E+04  1.396941E+05 -1.001836E-13 -8.310375E-11
       100  14 -1.180700E+05 -7.271546E+03 -4.240431E+04  1.118881E+05  2.105266E-10 -2.367391E-10
       100  15 -1.268719E+05  1.853817E+03 -2.519487E+04  1.397487E+05 -2.154256E-10 -1.251469E-10
       100  16 -1.287290E+06 -3.650511E+05 -3.677729E+05  1.824285E+05  9.487295E-11 -1.187120E-10
       100  17 -1.093700E+06 -2.440961E+05 -2.500614E+05  1.288621E+05  2.495579E-10 -2.091950E-10
       100  18 -9.242864E+05 -1.902227E+05 -1.877121E+05  1.309595E+05 -1.355212E-10  5.617873E-12
       100  19  1.034551E+06  2.110100E+05  1.893767E+05  9.687943E+04  4.237313E+03  1.500837E+04
       100  20  8.584592E+05  2.294946E+05  1.652031E+05  9.488784E+04  1.921553E+04  4.661746E+04
       100  21  6.711499E+05  1.938936E+05  1.372953E+05  1.485506E+05  3.415722E+04  4.728862E+04
       100  22 -1.269848E+05 -7.697385E+04 -8.914366E+04  1.396948E+05  6.074177E+04  1.496146E+04
       100  23 -1.180678E+05 -7.268814E+03 -4.239743E+04  1.118896E+05  3.857244E+04  4.661107E+04
       100  24 -1.268710E+05  1.856291E+03 -2.519016E+04  1.397493E+05  1.636937E+04  4.729952E+04
       100  25 -1.287275E+06 -3.650472E+05 -3.677467E+05  1.824300E+05  1.171410E+05  1.492230E+04
       100  26 -1.093696E+06 -2.440929E+05 -2.500510E+05  1.288643E+05  5.789935E+04  4.660575E+04
       100  27 -9.242858E+05 -1.902203E+05 -1.877079E+05  1.309594E+05 -1.396078E+03  4.731093E+04
       101   1  5.433329E+05  1.572901E+05  1.153928E+05  1.388204E+05 -2.332400E+04 -3.920685E+04
       101   2  3.624177E+05  1.164378E+05  8.406430E+04  1.109617E+05 -1.834509E+04 -2.965477E+04
       101   3  1.803572E+05  7.303069E+04  4.888212E+04  1.404780E+05 -1.337207E+04 -1.844519E+04
       101   4 -1.232328E+05 -3.181312E+03 -2.057220E+04  1.401168E+05 -1.283902E+04 -3.921296E+04
       101   5 -1.224434E+05 -1.247946E+02 -1.396361E+04  1.114281E+05 -5.877709E+03 -2.965864E+04
       101   6 -1.231772E+05  3.264378E+01 -1.258843E+04  1.401174E+05  1.079110E+03 -1.844612E+04
       101   7 -7.893760E+05 -1.636804E+05 -1.565602E+05  1.414119E+05 -2.365073E+03 -3.921902E+04
       101   8 -6.070804E+05 -1.167019E+05 -1.120031E+05  1.118942E+05  6.580128E+03 -2.966249E+04
       101   9 -4.266235E+05 -7.297101E+04 -7.406298E+04  1.397569E+05  1.552336E+04 -1.844706E+04
       101  10  5.433319E+05  1.572883E+05  1.153889E+05  1.388196E+05 -6.023852E-10 -6.072662E-11
       101  11  3.624171E+05  1.164368E+05  8.406201E+04  1.109612E+05 -6.200211E-10  2.701227E-10
       101  12  1.803569E+05  7.303027E+04  4.888114E+04  1.404778E+05 -5.361996E-10  7.192438E-11
       101  13 -1.232334E+05 -3.183007E+03 -2.057540E+04  1.401164E+05  5.424933E-10  6.831930E-11
       101  14 -1.224437E+05 -1.257483E+02 -1.396533E+04  1.114280E+05 -1.534724E-10  2.360865E-10
       101  15 -1.231773E+05  3.227810E+01 -1.258907E+04  1.401174E+05 -5.397365E-10  1.356951E-10
       101  16 -7.893765E+05 -1.636821E+05 -1.565631E+05  1.414118E+05 -3.178656E-10  1.370508E-10
       101  17 -6.070807E+05 -1.167029E+05 -1.120048E+05  1.118943E+05 -1.647047E-10  1.788580E-10
       101  18 -4.266239E+05 -7.297144E+04 -7.406407E+04  1.397572E+05  6.095262E-11  2.388136E-10
       101  19  5.433329E+05  1.572901E+05  1.153928E+05  1.388204E+05  2.332400E+04  3.920685E+04
       101  20  3.624177E+05  1.164378E+05  8.406430E+04  1.109617E+05  1.834509E+04  2.965477E+04
       101  21  1.803572E+05  7.303069E+04  4.888212E+04  1.404780E+05  1.337207E+04  1.844519E+04
       101  22 -1.232328E+05 -3.181312E+03 -2.057220E+04  1.401168E+05  1.283902E+04  3.921296E+04
       101  23 -1.224434E+05 -1.247946E+02 -1.396361E+04  1.114281E+05  5.877709E+03  2.965864E+04
       101  24 -1.231772E+05  3.264378E+01 -1.258843E+04  1.401174E+05 -1.079110E+03  1.844612E+04
       101  25 -7.893760E+05 -1.636804E+05 -1.565602E+05  1.414119E+05  2.365073E+03  3.921902E+04
       101  26 -6.070804E+05 -1.167019E+05 -1.120031E+05  1.118942E+05 -6.580128E+03  2.966249E+04
       101  27 -4.266235E+05 -7.297101E+04 -7.406298E+04  1.397569E+05 -1.552336E+04  1.844706E+04
       102   1  4.975845E+04  4.165602E+04  2.104531E+04  1.392923E+05 -1.092575E+04 -1.136549E+04
       102   2 -1.305067E+05 -2.182048E+03 -2.012759E+04  1.118021E+05 -7.504873E+02  6.959504E+01
       102   3 -3.131455E+05 -5.049648E+04 -6.903945E+04  1.417338E+05  9.421435E+03  1.055333E+04
       102   4 -1.233165E+05  1.615850E+02 -1.334639E+04  1.401271E+05  3.366905E+03 -1.136547E+04
       102   5 -1.222133E+05 -1.192237E+02 -1.810800E+04  1.114160E+05  1.239869E+04  6.952761E+01
       102   6 -1.233179E+05 -4.676308E+03 -2.981370E+04  1.401271E+05  2.143001E+04  1.055325E+04
       102   7 -2.963623E+05 -4.133457E+04 -4.773880E+04  1.409617E+05  1.765566E+04 -1.136542E+04
       102   8 -1.139194E+05  1.943689E+03 -1.608777E+04  1.110300E+05  2.554804E+04  6.944381E+01
       102   9  6.654417E+04  4.114167E+04  9.410656E+03  1.385199E+05  3.344218E+04  1.055310E+04
       102  10  4.975829E+04  4.165585E+04  2.104484E+04  1.392922E+05  2.607558E-10 -1.846850E-10
       102  11 -1.305067E+05 -2.182048E+03 -2.012759E+04  1.118021E+05 -1.302252E-10 -3.713639E-10
       102  12 -3.131456E+05 -5.049662E+04 -6.903983E+04  1.417337E+05 -3.916257E-10 -2.300474E-10
       102  13 -1.233165E+05  1.614432E+02 -1.334665E+04  1.401272E+05  1.080514E-12 -8.540691E-11
       102  14 -1.222134E+05 -1.192650E+02 -1.810829E+04  1.114160E+05 -8.227802E-10 -3.122592E-10
       102  15 -1.233184E+05 -4.676550E+03 -2.981477E+04  1.401269E+05  4.668017E-10 -8.894846E-11
       102  16 -2.963627E+05 -4.133479E+04 -4.773963E+04  1.409619E+05 -1.654629E-10  3.139223E-11
       102  17 -1.139201E+05  1.943514E+03 -1.608899E+04  1.110300E+05  4.854965E-10 -2.410684E-10
       102  18  6.654294E+04  4.114125E+04  9.408346E+03  1.385196E+05  2.610257E-10  1.050151E-10
       102  19  4.975845E+04  4.165602E+04  2.104531E+04  1.392923E+05  1.092575E+04  1.136549E+04
       102  20 -1.305067E+05 -2.182048E+03 -2.012759E+04  1.118021E+05  7.504873E+02 -6.959504E+01
       102  21 -3.131455E+05 -5.049648E+04 -6.903945E+04  1.417338E+05 -9.421435E+03 -1.055333E+04
       102  22 -1.233165E+05  1.615850E+02 -1.334639E+04  1.401271E+05 -3.366905E+03  1.136547E+04
       102  23 -1.222133E+05 -1.192237E+02 -1.810800E+04  1.114160E+05 -1.239869E+04 -6.952761E+01
       102  24 -1.233179E+05 -4.676308E+03 -2.981370E+04  1.401271E+05 -2.143001E+04 -1.055325E+04
       102  25 -2.963623E+05 -4.133457E+04 -4.773880E+04  1.409617E+05 -1.765566E+04  1.136542E+04
       102  26 -1.139194E+05  1.943689E+03 -1.608777E+04  1.110300E+05 -2.554804E+04 -6.944381E+01
       102  27  6.654417E+04  4.114167E+04  9.410656E+03  1.385199E+05 -3.344218E+04 -1.055310E+04
       103   1 -4.497789E+05 -7.421881E+04 -1.034476E+05  1.258406E+05  1.012137E+04  1.821562E+04
       103   2 -6.155003E+05 -1.324417E+05 -1.722528E+05  1.371210E+05  6.665860E+04  2.246322E+04
       103   3 -8.128383E+05 -2.881470E+05 -3.022417E+05  2.047645E+05  1.231705E+05  7.794811E+03
       103   4 -1.289900E+05  3.156535E+03 -3.745361E+04  1.399022E+05  2.657487E+04  1.821475E+04
       103   5 -1.151834E+05 -1.080707E+04 -6.466868E+04  1.117009E+05  6.044630E+04  2.246021E+04
       103   6 -1.290527E+05 -1.182735E+05 -1.372910E+05  1.398723E+05  9.430985E+04  7.789364E+03
       103   7  1.918975E+05  8.052628E+04  2.853601E+04  1.539711E+05  4.303672E+04  1.821462E+04
       103   8  3.853705E+05  1.108135E+05  4.290128E+04  8.625998E+04  5.422905E+04  2.245771E+04
       103   9  5.551718E+05  5.158221E+04  2.763171E+04  7.490831E+04  6.541743E+04  7.789966E+03
       103  10 -4.497791E+05 -7.421919E+04 -1.034484E+05  1.258405E+05 -2.665070E-11 -2.579891E-11
       103  11 -6.155052E+05 -1.324434E+05 -1.722621E+05  1.371198E+05 -3.368044E-10  1.301747E-10
       103  12 -8.128546E+05 -2.881512E+05 -3.022704E+05  2.047638E+05  1.674367E-10  7.602755E-11
       103  13 -1.289909E+05  3.155989E+03 -3.745556E+04  1.399018E+05 -2.889713E-10  8.873792E-11
       103  14 -1.151874E+05 -1.080859E+04 -6.467650E+04  1.116998E+05 -2.222290E-11  5.017079E-11
       103  15 -1.290622E+05 -1.182759E+05 -1.373078E+05  1.398717E+05 -4.354878E-11  8.688749E-11
       103  16  1.918954E+05  8.052542E+04  2.853191E+04  1.539705E+05 -6.927456E-10  1.814794E-10
       103  17  3.853672E+05  1.108122E+05  4.289481E+04  8.625900E+04 -1.318936E-10 -2.230237E-11
       103  18  5.551671E+05  5.158100E+04  2.762356E+04  7.490790E+04  1.131221E-10 -5.490152E-11
       103  19 -4.497789E+05 -7.421881E+04 -1.034476E+05  1.258406E+05 -1.012137E+04 -1.821562E+04
       103  20 -6.155003E+05 -1.324417E+05 -1.722528E+05  1.371210E+05 -6.665860E+04 -2.246322E+04
       103  21 -8.128383E+05 -2.881470E+05 -3.022417E+05  2.047645E+05 -1.231705E+05 -7.794811E+03
       103  22 -1.289900E+05  3.156535E+03 -3.745361E+04  1.399022E+05 -2.657487E+04 -1.821475E+04
       103  23 -1.151834E+05 -1.080707E+04 -6.466868E+04  1.117009E+05 -6.044630E+04 -2.246021E+04
       103  24 -1.290527E+05 -1.182735E+05 -1.372910E+05  1.398723E+05 -9.430985E+04 -7.789364E+03
       103  25  1.918975E+05  8.052628E+04  2.853601E+04  1.539711E+05 -4.303672E+04 -1.821462E+04
       103  26  3.853705E+05  1.108135E+05  4.290128E+04  8.625998E+04 -5.422905E+04 -2.245771E+04
       103  27  5.551718E+05  5.158221E+04  2.763171E+04  7.490831E+04 -6.541743E+04 -7.789966E+03
       104   1 -1.510701E+04  1.507755E+05 -2.630980E+04  5.633013E+04  2.956318E+03 -3.430707E+04
       104   2  4.344821E+04  1.891828E+05  1.096219E+04  3.203006E+04  1.069042E+04 -2.293689E+04
       104   3  5.768307E+04  2.150101E+05  2.974317E+04  1.815892E+04  1.440920E+04 -1.156107E+04
       104   4 -5.704457E+04 -1.847689E+04 -6.629398E+04  2.488962E+04  2.944009E+03 -4.597179E+04
       104   5 -5.145175E+03 -1.176856E+04 -3.090441E+04  1.964119E+04  1.068324E+04 -2.978673E+04
       104   6  1.589330E+03 -1.848075E+04 -1.735237E+04  2.482363E+04  1.440726E+04 -1.359627E+04
       104   7 -9.898041E+04 -1.877005E+05 -1.062791E+05 -6.542277E+03  2.932880E+03 -5.763335E+04
       104   8 -5.374054E+04 -2.126813E+05 -7.277298E+04  7.256395E+03  1.067633E+04 -3.663438E+04
       104   9 -5.450761E+04 -2.519196E+05 -6.445066E+04  3.148578E+04  1.440526E+04 -1.563072E+04
       104  10 -1.510734E+04  1.507742E+05 -2.631203E+04  5.633022E+04 -2.570526E-10 -7.554264E-10
       104  11  4.344794E+04  1.891822E+05  1.096099E+04  3.203025E+04 -7.634549E-10 -5.581643E-11
       104  12  5.768281E+04  2.150099E+05  2.974252E+04  1.815905E+04 -4.655928E-10  6.144034E-10
       104  13 -5.704515E+04 -1.847916E+04 -6.629797E+04  2.488973E+04  4.848760E-10 -3.369364E-11
       104  14 -5.145536E+03 -1.176954E+04 -3.090629E+04  1.964145E+04 -6.779422E-10  8.683239E-13
       104  15  1.589058E+03 -1.848100E+04 -1.735310E+04  2.482379E+04 -5.133039E-10 -7.841094E-12
       104  16 -9.898131E+04 -1.877041E+05 -1.062854E+05 -6.542141E+03  4.164397E-10  7.473175E-10
       104  17 -5.374102E+04 -2.126827E+05 -7.277572E+04  7.256710E+03  9.488460E-11  1.229821E-10
       104  18 -5.450790E+04 -2.519199E+05 -6.445151E+04  3.148596E+04  6.530694E-11 -6.154095E-10
       104  19 -1.510701E+04  1.507755E+05 -2.630980E+04  5.633013E+04 -2.956318E+03  3.430707E+04
       104  20  4.344821E+04  1.891828E+05  1.096219E+04  3.203006E+04 -1.069042E+04  2.293689E+04
       104  21  5.768307E+04  2.150101E+05  2.974317E+04  1.815892E+04 -1.440920E+04  1.156107E+04
       104  22 -5.704457E+04 -1.847689E+04 -6.629398E+04  2.488962E+04 -2.944009E+03  4.597179E+04
       104  23 -5.145175E+03 -1.176856E+04 -3.090441E+04  1.964119E+04 -1.068324E+04  2.978673E+04
       104  24  1.589330E+03 -1.848075E+04 -1.735237E+04  2.482363E+04 -1.440726E+04  1.359627E+04
       104  25 -9.898041E+04 -1.877005E+05 -1.062791E+05 -6.542277E+03 -2.932880E+03  5.763335E+04
       104  26 -5.374054E+04 -2.126813E+05 -7.277298E+04  7.256395E+03 -1.067633E+04  3.663438E+04
       104  27 -5.450761E+04 -2.519196E+05 -6.445066E+04  3.148578E+04 -1.440526E+04  1.563072E+04
       105   1  5.945036E+04  2.407240E+05  3.858167E+04  2.566699E+04  1.552694E+04 -8.155133E+03
       105   2  6.928978E+04  2.732101E+05  5.135788E+04  2.003686E+04  1.772280E+04 -5.681974E+03
       105   3  7.747775E+04  3.049550E+05  6.210906E+04  2.455816E+04  1.911076E+04 -3.207371E+03
       105   4 -2.222319E+03 -1.570324E+04 -1.337987E+04  2.477649E+04  1.552412E+04 -1.126932E+04
       105   5 -4.461577E+01 -1.525089E+04 -6.896052E+03  1.969937E+04  1.772132E+04 -7.827568E+03
       105   6  3.131618E+02 -1.570905E+04 -3.110240E+03  2.477400E+04  1.911045E+04 -4.384489E+03
       105   7 -6.389908E+04 -2.720679E+05 -6.534478E+04  2.388634E+04  1.552132E+04 -1.438224E+04
       105   8 -6.938416E+04 -3.036326E+05 -6.515426E+04  1.936202E+04  1.771985E+04 -9.972184E+03
       105   9 -7.685784E+04 -3.362753E+05 -6.833492E+04  2.498970E+04  1.911014E+04 -5.561011E+03
       105  10  5.945008E+04  2.407239E+05  3.858109E+04  2.566709E+04 -2.194178E-10 -2.401271E-10
       105  11  6.928943E+04  2.732100E+05  5.135723E+04  2.003694E+04  1.040311E-10 -2.083504E-10
       105  12  7.747736E+04  3.049549E+05  6.210835E+04  2.455821E+04  1.462207E-11 -1.495583E-10
       105  13 -2.222611E+03 -1.570344E+04 -1.338056E+04  2.477663E+04 -8.864276E-10 -3.431173E-11
       105  14 -4.496945E+01 -1.525104E+04 -6.896757E+03  1.969948E+04 -2.954939E-10  1.892885E-12
       105  15  3.127645E+02 -1.570917E+04 -3.110962E+03  2.477407E+04 -1.367018E-10 -7.219195E-11
       105  16 -6.389939E+04 -2.720682E+05 -6.534563E+04  2.388652E+04  3.850637E-10  2.071819E-10
       105  17 -6.938453E+04 -3.036328E+05 -6.515503E+04  1.936216E+04 -4.682707E-10  2.074666E-10
       105  18 -7.685824E+04 -3.362754E+05 -6.833566E+04  2.498979E+04 -2.964895E-10 -5.213508E-12
       105  19  5.945036E+04  2.407240E+05  3.858167E+04  2.566699E+04 -1.552694E+04  8.155133E+03
       105  20  6.928978E+04  2.732101E+05  5.135788E+04  2.003686E+04 -1.772280E+04  5.681974E+03
       105  21  7.747775E+04  3.049550E+05  6.210906E+04  2.455816E+04 -1.911076E+04  3.207371E+03
       105  22 -2.222319E+03 -1.570324E+04 -1.337987E+04  2.477649E+04 -1.552412E+04  1.126932E+04
       105  23 -4.461577E+01 -1.525089E+04 -6.896052E+03  1.969937E+04 -1.772132E+04  7.827568E+03
       105  24  3.131618E+02 -1.570905E+04 -3.110240E+03  2.477400E+04 -1.911045E+04  4.384489E+03
       105  25 -6.389908E+04 -2.720679E+05 -6.534478E+04  2.388634E+04 -1.552132E+04  1.438224E+04
       105  26 -6.938416E+04 -3.036326E+05 -6.515426E+04  1.936202E+04 -1.771985E+04  9.972184E+03
       105  27 -7.685784E+04 -3.362753E+05 -6.833492E+04  2.498970E+04 -1.911014E+04  5.561011E+03
       106   1  8.262801E+04  3.287763E+05  6.809920E+04  2.421483E+04  2.071904E+04 -2.005231E+02
       106   2  9.130144E+04  3.594184E+05  8.021483E+04  2.086842E+04  1.851360E+04 -1.344978E+04
       106   3  1.055221E+05  3.931831E+05  1.023441E+05  2.709721E+04  5.700803E+03 -2.669321E+04
       106   4 -1.378569E+02 -1.530709E+04 -1.718196E+03  2.464723E+04  2.071669E+04 -3.932230E+03
       106   5  4.173447E+02 -1.576709E+04  9.093761E+02  1.985785E+04  1.852143E+04 -4.445470E+03
       106   6  4.310970E+03 -1.531439E+04  4.709609E+03  2.464378E+04  5.715978E+03 -4.952231E+03
       106   7 -8.291108E+04 -3.592778E+05 -7.154170E+04  2.507936E+04  2.071434E+04 -7.661908E+03
       106   8 -9.047580E+04 -3.908197E+05 -7.840375E+04  1.884788E+04  1.852924E+04  4.553489E+03
       106   9 -9.691194E+04 -4.236579E+05 -9.293491E+04  2.219193E+04  5.730987E+03  1.677451E+04
       106  10  8.262755E+04  3.287762E+05  6.809839E+04  2.421483E+04  1.057724E-10 -4.237858E-10
       106  11  9.130103E+04  3.594181E+05  8.021385E+04  2.086862E+04 -2.449839E-10 -4.662257E-11
       106  12  1.055218E+05  3.931823E+05  1.023427E+05  2.709733E+04 -7.341377E-11  3.163452E-10
       106  13 -1.383219E+02 -1.530722E+04 -1.719032E+03  2.464730E+04 -1.226578E-11 -6.704261E-11
       106  14  4.169710E+02 -1.576720E+04  9.086943E+02  1.985792E+04 -6.268545E-10 -8.525673E-11
       106  15  4.310928E+03 -1.531442E+04  4.709501E+03  2.464380E+04 -5.296266E-11  1.453605E-11
       106  16 -8.291156E+04 -3.592780E+05 -7.154262E+04  2.507949E+04 -2.995895E-10  3.034456E-10
       106  17 -9.047618E+04 -3.908198E+05 -7.840444E+04  1.884782E+04 -4.405132E-12  5.282860E-11
       106  18 -9.691205E+04 -4.236582E+05 -9.293550E+04  2.219186E+04 -2.105814E-10 -3.097794E-10
       106  19  8.262801E+04  3.287763E+05  6.809920E+04  2.421483E+04 -2.071904E+04  2.005231E+02
       106  20  9.130144E+04  3.594184E+05  8.021483E+04  2.086842E+04 -1.851360E+04  1.344978E+04
       106  21  1.055221E+05  3.931831E+05  1.023441E+05  2.709721E+04 -5.700803E+03  2.669321E+04
       106  22 -1.378569E+02 -1.530709E+04 -1.718196E+03  2.464723E+04 -2.071669E+04  3.932230E+03
       106  23  4.173447E+02 -1.576709E+04  9.093761E+02  1.985785E+04 -1.852143E+04  4.445470E+03
       106  24  4.310970E+03 -1.531439E+04  4.709609E+03  2.464378E+04 -5.715978E+03  4.952231E+03
       106  25 -8.291108E+04 -3.592778E+05 -7.154170E+04  2.507936E+04 -2.071434E+04  7.661908E+03
       106  26 -9.047580E+04 -3.908197E+05 -7.840375E+04  1.884788E+04 -1.852924E+04 -4.553489E+03
       106  27 -9.691194E+04 -4.236579E+05 -9.293491E+04  2.219193E+04 -5.730987E+03 -1.677451E+04
       107   1  8.654728E+05  7.242596E+05  2.395356E+05  5.655282E+05  8.060590E+04  4.963079E+04
       107   2  8.191572E+05  6.058920E+05  1.607942E+05  5.624538E+05  5.849152E+04  9.528682E+03
       107   3  7.911954E+05  5.552091E+05  1.253063E+05  5.442904E+05  2.657087E+04 -1.745645E+04
       107   4  4.481981E+05  3.588786E+05  8.957666E+04  3.271504E+05  5.455748E+04  3.012848E+04
       107   5  4.265176E+05  3.013702E+05  4.206085E+04  3.537046E+05  4.821806E+04  1.834262E+03
       107   6  4.197965E+05  3.081516E+05  2.415303E+04  3.651618E+05  3.206574E+04 -1.334408E+04
       107   7  3.111484E+04 -6.338615E+03 -6.040306E+04  8.897356E+04  2.853288E+04  1.064953E+04
       107   8  3.404984E+04 -3.040424E+03 -7.668863E+04  1.451131E+05  3.795338E+04 -5.852735E+03
       107   9  4.855110E+04  6.116225E+04 -7.701286E+04  1.861519E+05  3.755616E+04 -9.234786E+03
       107  10  8.654652E+05  7.242552E+05  2.395188E+05  5.655250E+05  5.591171E-10 -1.827768E-13
       107  11  8.191535E+05  6.058910E+05  1.607876E+05  5.624534E+05 -3.554407E-10 -5.153976E-11
       107  12  7.911946E+05  5.552085E+05  1.253044E+05  5.442908E+05 -6.595837E-10 -5.417948E-11
       107  13  4.481947E+05  3.588768E+05  8.956936E+04  3.271491E+05 -6.889449E-10 -9.085358E-12
       107  14  4.265151E+05  3.013696E+05  4.205648E+04  3.537046E+05 -3.424021E-10  5.276660E-11
       107  15  4.197954E+05  3.081511E+05  2.415076E+04  3.651622E+05 -6.803815E-10  1.252807E-10
       107  16  3.111393E+04 -6.338956E+03 -6.040480E+04  8.897331E+04 -2.346099E-11  6.382946E-11
       107  17  3.404829E+04 -3.040848E+03 -7.669141E+04  1.451133E+05 -3.843428E-11  1.333647E-10
       107  18  4.854957E+04  6.116177E+04 -7.701567E+04  1.861522E+05  3.295567E-10  2.965970E-10
       107  19  8.654728E+05  7.242596E+05  2.395356E+05  5.655282E+05 -8.060590E+04 -4.963079E+04
       107  20  8.191572E+05  6.058920E+05  1.607942E+05  5.624538E+05 -5.849152E+04 -9.528682E+03
       107  21  7.911954E+05  5.552091E+05  1.253063E+05  5.442904E+05 -2.657087E+04  1.745645E+04
       107  22  4.481981E+05  3.588786E+05  8.957666E+04  3.271504E+05 -5.455748E+04 -3.012848E+04
       107  23  4.265176E+05  3.013702E+05  4.206085E+04  3.537046E+05 -4.821806E+04 -1.834262E+03
       107  24  4.197965E+05  3.081516E+05  2.415303E+04  3.651618E+05 -3.206574E+04  1.334408E+04
       107  25  3.111484E+04 -6.338615E+03 -6.040306E+04  8.897356E+04 -2.853288E+04 -1.064953E+04
       107  26  3.404984E+04 -3.040424E+03 -7.668863E+04  1.451131E+05 -3.795338E+04  5.852735E+03
       107  27  4.855110E+04  6.116225E+04 -7.701286E+04  1.861519E+05 -3.755616E+04  9.234786E+03
       108   1  7.468265E+05  5.433067E+05  1.109624E+05  5.259929E+05  2.520796E+04 -1.467345E+04
       108   2  7.091500E+05  4.978271E+05  8.930515E+04  5.007593E+05  1.815494E+04 -1.628107E+04
       108   3  6.541916E+05  4.741387E+05  7.267539E+04  4.805874E+05  1.056134E+04 -1.716822E+04
       108   4  4.190941E+05  3.102686E+05  1.904973E+04  3.609608E+05  2.759932E+04 -1.288448E+04
       108   5  4.272625E+05  2.984505E+05  1.107077E+04  3.591980E+05  2.141506E+04 -1.384055E+04
       108   6  4.179603E+05  3.082358E+05  7.368815E+03  3.624953E+05  1.468960E+04 -1.407630E+04
       108   7  9.147663E+04  7.728991E+04 -7.287500E+04  1.960262E+05  2.998901E+04 -1.109677E+04
       108   8  1.454633E+05  9.911964E+04 -6.717128E+04  2.177101E+05  2.467319E+04 -1.140153E+04
       108   9  1.817940E+05  1.423665E+05 -5.794203E+04  2.444558E+05  1.881570E+04 -1.098600E+04
       108  10  7.468258E+05  5.433063E+05  1.109608E+05  5.259932E+05 -4.139971E-10  1.839053E-10
       108  11  7.091496E+05  4.978267E+05  8.930403E+04  5.007595E+05 -9.194069E-11  8.242572E-11
       108  12  6.541914E+05  4.741383E+05  7.267463E+04  4.805876E+05 -2.382412E-10 -9.230218E-11
       108  13  4.190933E+05  3.102683E+05  1.904799E+04  3.609611E+05 -5.193843E-10  1.057186E-10
       108  14  4.272620E+05  2.984502E+05  1.106955E+04  3.591983E+05  3.607836E-10  3.904442E-11
       108  15  4.179600E+05  3.082355E+05  7.368037E+03  3.624955E+05 -1.855252E-10  6.241235E-11
       108  16  9.147563E+04  7.728954E+04 -7.287692E+04  1.960265E+05 -3.572463E-10  4.128931E-11
       108  17  1.454626E+05  9.911933E+04 -6.717267E+04  2.177103E+05  5.632551E-10  4.362279E-11
       108  18  1.817936E+05  1.423663E+05 -5.794292E+04  2.444560E+05  3.541433E-11  2.920857E-10
       108  19  7.468265E+05  5.433067E+05  1.109624E+05  5.259929E+05 -2.520796E+04  1.467345E+04
       108  20  7.091500E+05  4.978271E+05  8.930515E+04  5.007593E+05 -1.815494E+04  1.628107E+04
       108  21  6.541916E+05  4.741387E+05  7.267539E+04  4.805874E+05 -1.056134E+04  1.716822E+04
       108  22  4.190941E+05  3.102686E+05  1.904973E+04  3.609608E+05 -2.759932E+04  1.288448E+04
       108  23  4.272625E+05  2.984505E+05  1.107077E+04  3.591980E+05 -2.141506E+04  1.384055E+04
       108  24  4.179603E+05  3.082358E+05  7.368815E+03  3.624953E+05 -1.468960E+04  1.407630E+04
       108  25  9.147663E+04  7.728991E+04 -7.287500E+04  1.960262E+05 -2.998901E+04  1.109677E+04
       108  26  1.454633E+05  9.911964E+04 -6.717128E+04  2.177101E+05 -2.467319E+04  1.140153E+04
       108  27  1.817940E+05  1.423665E+05 -5.794203E+04  2.444558E+05 -1.881570E+04  1.098600E+04
       109   1  6.203163E+05  4.511400E+05  6.225897E+04  4.638468E+05  8.261199E+03 -1.578839E+04
       109   2  5.834201E+05  4.087405E+05  4.913600E+04  4.377554E+05  3.376189E+03 -1.428897E+04
       109   3  5.275987E+05  3.860526E+05  3.804936E+04  4.174121E+05 -1.527188E+03 -1.276611E+04
       109   4  4.179075E+05  3.082940E+05  6.454691E+03  3.622936E+05  1.221691E+04 -1.282523E+04
       109   5  4.273869E+05  2.984600E+05  6.008538E+03  3.594098E+05  7.360896E+03 -1.130346E+04
       109   6  4.179320E+05  3.083310E+05  7.573945E+03  3.622724E+05  2.486245E+03 -9.758417E+03
       109   7  2.155442E+05  1.654715E+05 -4.935346E+04  2.607782E+05  1.617088E+04 -9.863373E+03
       109   8  2.713797E+05  1.881928E+05 -3.712155E+04  2.810861E+05  1.134428E+04 -8.318941E+03
       109   9  3.082773E+05  2.306154E+05 -2.290304E+04  3.071430E+05  6.498774E+03 -6.751400E+03
       109  10  6.203162E+05  4.511397E+05  6.225837E+04  4.638469E+05  1.318614E-10  1.396449E-10
       109  11  5.834200E+05  4.087403E+05  4.913560E+04  4.377555E+05  1.024690E-10 -3.502643E-11
       109  12  5.275987E+05  3.860524E+05  3.804905E+04  4.174121E+05 -1.092832E-09 -2.818801E-10
       109  13  4.179073E+05  3.082938E+05  6.454101E+03  3.622938E+05  2.573221E-10 -3.506513E-11
       109  14  4.273868E+05  2.984598E+05  6.008195E+03  3.594098E+05 -4.447524E-10 -1.382881E-10
       109  15  4.179320E+05  3.083309E+05  7.573754E+03  3.622724E+05  6.733209E-10  2.033424E-10
       109  16  2.155439E+05  1.654713E+05 -4.935413E+04  2.607783E+05  1.108751E-10 -3.167397E-12
       109  17  2.713796E+05  1.881927E+05 -3.712192E+04  2.810861E+05  5.052552E-11 -2.678079E-11
       109  18  3.082772E+05  2.306153E+05 -2.290321E+04  3.071431E+05  3.737937E-10  4.854309E-10
       109  19  6.203163E+05  4.511400E+05  6.225897E+04  4.638468E+05 -8.261199E+03  1.578839E+04
       109  20  5.834201E+05  4.087405E+05  4.913600E+04  4.377554E+05 -3.376189E+03  1.428897E+04
       109  21  5.275987E+05  3.860526E+05  3.804936E+04  4.174121E+05  1.527188E+03  1.276611E+04
       109  22  4.179075E+05  3.082940E+05  6.454691E+03  3.622936E+05 -1.221691E+04  1.282523E+04
       109  23  4.273869E+05  2.984600E+05  6.008538E+03  3.594098E+05 -7.360896E+03  1.130346E+04
       109  24  4.179320E+05  3.083310E+05  7.573945E+03  3.622724E+05 -2.486245E+03  9.758417E+03
       109  25  2.155442E+05  1.654715E+05 -4.935346E+04  2.607782E+05 -1.617088E+04  9.863373E+03
       109  26  2.713797E+05  1.881928E+05 -3.712155E+04  2.810861E+05 -1.134428E+04  8.318941E+03
       109  27  3.082773E+05  2.306154E+05 -2.290304E+04  3.071430E+05 -6.498774E+03  6.751400E+03
       110   1  4.938362E+05  3.631321E+05  3.012312E+04  4.012571E+05 -4.232907E+03 -1.172279E+04
       110   2  4.578895E+05  3.197082E+05  2.293458E+04  3.743166E+05 -1.223235E+04 -1.262965E+04
       110   3  4.051087E+05  2.985688E+05  2.117258E+04  3.521523E+05 -2.004989E+04 -1.377826E+04
       110   4  4.180372E+05  3.082491E+05  9.136753E+03  3.625584E+05 -1.733849E+02 -8.680313E+03
       110   5  4.272179E+05  2.984898E+05  1.464099E+04  3.591118E+05 -8.463592E+03 -9.805029E+03
       110   6  4.196242E+05  3.110757E+05  2.582335E+04  3.604387E+05 -1.657246E+04 -1.117194E+04
       110   7  3.422456E+05  2.533704E+05 -1.184973E+04  3.238657E+05  3.885418E+03 -5.638388E+03
       110   8  3.965477E+05  2.772720E+05  6.347470E+03  3.439079E+05 -4.695108E+03 -6.980611E+03
       110   9  4.341400E+05  3.235828E+05  3.047417E+04  3.687253E+05 -1.309493E+04 -8.565517E+03
       110  10  4.938361E+05  3.631319E+05  3.012283E+04  4.012570E+05 -1.271945E-10  1.647845E-10
       110  11  4.578892E+05  3.197079E+05  2.293400E+04  3.743165E+05  6.315628E-10 -1.249844E-11
       110  12  4.051082E+05  2.985684E+05  2.117147E+04  3.521521E+05 -2.121580E-10 -1.414100E-10
       110  13  4.180371E+05  3.082490E+05  9.136612E+03  3.625584E+05 -2.860078E-10  2.306579E-10
       110  14  4.272178E+05  2.984896E+05  1.464068E+04  3.591117E+05  2.519378E-10  1.292148E-11
       110  15  4.196239E+05  3.110755E+05  2.582260E+04  3.604385E+05  1.701381E-10  6.304207E-11
       110  16  3.422456E+05  2.533704E+05 -1.184982E+04  3.238657E+05 -3.209578E-10  1.957503E-10
       110  17  3.965476E+05  2.772720E+05  6.347337E+03  3.439079E+05 -3.228104E-10  1.098921E-10
       110  18  4.341398E+05  3.235827E+05  3.047371E+04  3.687252E+05  7.883691E-10  1.339534E-10
       110  19  4.938362E+05  3.631321E+05  3.012312E+04  4.012571E+05  4.232907E+03  1.172279E+04
       110  20  4.578895E+05  3.197082E+05  2.293458E+04  3.743166E+05  1.223235E+04  1.262965E+04
       110  21  4.051087E+05  2.985688E+05  2.117258E+04  3.521523E+05  2.004989E+04  1.377826E+04
       110  22  4.180372E+05  3.082491E+05  9.136753E+03  3.625584E+05  1.733849E+02  8.680313E+03
       110  23  4.272179E+05  2.984898E+05  1.464099E+04  3.591118E+05  8.463592E+03  9.805029E+03
       110  24  4.196242E+05  3.110757E+05  2.582335E+04  3.604387E+05  1.657246E+04  1.117194E+04
       110  25  3.422456E+05  2.533704E+05 -1.184973E+04  3.238657E+05 -3.885418E+03  5.638388E+03
       110  26  3.965477E+05  2.772720E+05  6.347470E+03  3.439079E+05  4.695108E+03  6.980611E+03
       110  27  4.341400E+05  3.235828E+05  3.047417E+04  3.687253E+05  1.309493E+04  8.565517E+03
       111   1  3.591404E+05  2.857464E+05  1.886442E+04  3.451930E+05 -2.625109E+04 -1.512819E+04
       111   2  3.531191E+05  2.132455E+05  2.932464E+04  2.976912E+05 -4.628990E+04 -2.769988E+04
       111   3  3.729285E+05  2.211713E+05  7.576274E+04  2.275264E+05 -6.303829E+04 -4.465875E+04
       111   4  4.204273E+05  3.083525E+05  3.290267E+04  3.662449E+05 -2.173825E+04 -1.174505E+04
       111   5  4.264576E+05  3.023343E+05  5.759510E+04  3.515127E+05 -4.705239E+04 -2.827387E+04
       111   6  4.594498E+05  3.778699E+05  1.228344E+05  3.141172E+05 -6.907669E+04 -4.919302E+04
       111   7  4.817195E+05  3.309595E+05  4.694108E+04  3.872989E+05 -1.722474E+04 -8.361694E+03
       111   8  4.998026E+05  3.914343E+05  8.586482E+04  4.053434E+05 -4.781499E+04 -2.884805E+04
       111   9  5.459829E+05  5.346055E+05  1.699047E+05  4.007274E+05 -7.511606E+04 -5.372977E+04
       111  10  3.591396E+05  2.857460E+05  1.886270E+04  3.451926E+05 -4.452633E-10 -7.484306E-11
       111  11  3.531166E+05  2.132441E+05  2.931917E+04  2.976902E+05 -1.727762E-10  2.272312E-10
       111  12  3.729237E+05  2.211681E+05  7.575153E+04  2.275241E+05  7.934581E-11  1.819381E-10
       111  13  4.204268E+05  3.083523E+05  3.290152E+04  3.662447E+05 -1.325597E-10  7.404595E-12
       111  14  4.264550E+05  3.023328E+05  5.758944E+04  3.515116E+05  2.590954E-10  1.556695E-10
       111  15  4.594440E+05  3.778660E+05  1.228209E+05  3.141144E+05 -3.850058E-11  6.138321E-11
       111  16  4.817192E+05  3.309594E+05  4.694040E+04  3.872988E+05  8.154597E-10  1.558135E-10
       111  17  4.997999E+05  3.914328E+05  8.585897E+04  4.053422E+05 -2.065910E-10  3.086494E-11
       111  18  5.459761E+05  5.346009E+05  1.698887E+05  4.007242E+05 -3.494721E-10 -6.038394E-11
       111  19  3.591404E+05  2.857464E+05  1.886442E+04  3.451930E+05  2.625109E+04  1.512819E+04
       111  20  3.531191E+05  2.132455E+05  2.932464E+04  2.976912E+05  4.628990E+04  2.769988E+04
       111  21  3.729285E+05  2.211713E+05  7.576274E+04  2.275264E+05  6.303829E+04  4.465875E+04
       111  22  4.204273E+05  3.083525E+05  3.290267E+04  3.662449E+05  2.173825E+04  1.174505E+04
       111  23  4.264576E+05  3.023343E+05  5.759510E+04  3.515127E+05  4.705239E+04  2.827387E+04
       111  24  4.594498E+05  3.778699E+05  1.228344E+05  3.141172E+05  6.907669E+04  4.919302E+04
       111  25  4.817195E+05  3.309595E+05  4.694108E+04  3.872989E+05  1.722474E+04  8.361694E+03
       111  26  4.998026E+05  3.914343E+05  8.586482E+04  4.053434E+05  4.781499E+04  2.884805E+04
       111  27  5.459829E+05  5.346055E+05  1.699047E+05  4.007274E+05  7.511606E+04  5.372977E+04
       112   1  1.630669E+06  2.562873E+05  2.565161E+05  1.362389E+05  7.509079E+04 -1.099932E+04
       112   2  1.475917E+06  1.766609E+05  1.753305E+05  9.947088E+04  3.501931E+04 -3.381422E+04
       112   3  1.336159E+06  1.355883E+05  1.298434E+05  1.079585E+05 -5.030942E+03 -3.356222E+04
       112   4  7.671652E+05  4.244556E+04  4.951625E+04  1.130281E+05  3.375346E+04 -1.099046E+04
       112   5  7.621146E+05  3.726321E+03  2.352496E+04  9.039659E+04  2.143635E+04 -3.381570E+04
       112   6  7.672462E+05 -1.224295E+03  1.400780E+04  1.130198E+05  9.130069E+03 -3.356390E+04
       112   7 -9.565264E+04 -1.714473E+05 -1.575296E+05  8.984966E+04 -7.526757E+03 -1.097852E+04
       112   8  4.879157E+04 -1.692410E+05 -1.283090E+05  8.133284E+04  7.868732E+03 -3.381679E+04
       112   9  1.986407E+05 -1.380568E+05 -1.018440E+05  1.180765E+05  2.327836E+04 -3.356534E+04
       112  10  1.630663E+06  2.562857E+05  2.565053E+05  1.362395E+05 -6.108764E-10 -6.831108E-11
       112  11  1.475916E+06  1.766594E+05  1.753260E+05  9.947183E+04  7.966281E-11 -6.700447E-11
       112  12  1.336159E+06  1.355871E+05  1.298413E+05  1.079583E+05 -1.042239E-10  1.319422E-10
       112  13  7.671640E+05  4.244513E+04  4.951388E+04  1.130284E+05  2.346757E-10  1.222175E-10
       112  14  7.621138E+05  3.724969E+03  2.352195E+04  9.039717E+04  2.220350E-10  9.549689E-11
       112  15  7.672458E+05 -1.225527E+03  1.400553E+04  1.130201E+05 -8.575426E-10  8.766517E-11
       112  16 -9.565274E+04 -1.714474E+05 -1.575300E+05  8.984960E+04 -1.972534E-10  5.373891E-11
       112  17  4.879119E+04 -1.692422E+05 -1.283113E+05  8.133306E+04  2.546121E-10  6.593467E-11
       112  18  1.986398E+05 -1.380582E+05 -1.018472E+05  1.180771E+05 -1.399548E-10  1.425113E-10
       112  19  1.630669E+06  2.562873E+05  2.565161E+05  1.362389E+05 -7.509079E+04  1.099932E+04
       112  20  1.475917E+06  1.766609E+05  1.753305E+05  9.947088E+04 -3.501931E+04  3.381422E+04
       112  21  1.336159E+06  1.355883E+05  1.298434E+05  1.079585E+05  5.030942E+03  3.356222E+04
       112  22  7.671652E+05  4.244556E+04  4.951625E+04  1.130281E+05 -3.375346E+04  1.099046E+04
       112  23  7.621146E+05  3.726321E+03  2.352496E+04  9.039659E+04 -2.143635E+04  3.381570E+04
       112  24  7.672462E+05 -1.224295E+03  1.400780E+04  1.130198E+05 -9.130069E+03  3.356390E+04
       112  25 -9.565264E+04 -1.714473E+05 -1.575296E+05  8.984966E+04  7.526757E+03  1.097852E+04
       112  26  4.879157E+04 -1.692410E+05 -1.283090E+05  8.133284E+04 -7.868732E+03  3.381679E+04
       112  27  1.986407E+05 -1.380568E+05 -1.018440E+05  1.180765E+05 -2.327836E+04  3.356534E+04
       113   1  1.227909E+06  1.129342E+05  1.058036E+05  1.139025E+05 -1.548249E+03 -2.709707E+04
       113   2  1.080649E+06  7.589514E+04  7.161226E+04  9.032211E+04 -6.878095E+03 -1.923596E+04
       113   3  9.345885E+05  4.070566E+04  4.135214E+04  1.130870E+05 -1.220936E+04 -1.015352E+04
       113   4  7.652089E+05  1.624905E+03  1.143072E+04  1.132647E+05  7.162700E+03 -2.709751E+04
       113   5  7.647627E+05  1.192975E+01  7.751032E+03  9.009154E+04  3.301952E+03 -1.923476E+04
       113   6  7.652392E+05 -4.834970E+00  6.985178E+03  1.132650E+05 -5.614546E+02 -1.015034E+04
       113   7  3.027126E+05 -1.096977E+05 -8.295318E+04  1.126274E+05  1.586728E+04 -2.709796E+04
       113   8  4.489716E+05 -7.587741E+04 -5.611497E+04  8.986108E+04  1.347693E+04 -1.923356E+04
       113   9  5.959175E+05 -4.071704E+04 -2.738277E+04  1.134430E+05  1.108334E+04 -1.014715E+04
       113  10  1.227908E+06  1.129334E+05  1.058022E+05  1.139025E+05  3.680357E-10  1.031863E-10
       113  11  1.080649E+06  7.589473E+04  7.161148E+04  9.032200E+04 -5.412866E-10 -3.976843E-12
       113  12  9.345883E+05  4.070551E+04  4.135167E+04  1.130869E+05 -3.357502E-10  5.458070E-10
       113  13  7.652087E+05  1.624102E+03  1.142924E+04  1.132649E+05 -1.260850E-09  1.177101E-10
       113  14  7.647626E+05  1.152938E+01  7.750316E+03  9.009159E+04 -1.150265E-09 -1.814241E-11
       113  15  7.652392E+05 -4.945727E+00  6.984983E+03  1.132650E+05 -8.130114E-11  2.818277E-10
       113  16  3.027122E+05 -1.096985E+05 -8.295503E+04  1.126277E+05 -8.129911E-10  5.565870E-12
       113  17  4.489713E+05 -7.587785E+04 -5.611601E+04  8.986129E+04 -4.114790E-10 -2.019852E-10
       113  18  5.959173E+05 -4.071718E+04 -2.738319E+04  1.134431E+05  3.116016E-11 -1.769716E-10
       113  19  1.227909E+06  1.129342E+05  1.058036E+05  1.139025E+05  1.548249E+03  2.709707E+04
       113  20  1.080649E+06  7.589514E+04  7.161226E+04  9.032211E+04  6.878095E+03  1.923596E+04
       113  21  9.345885E+05  4.070566E+04  4.135214E+04  1.130870E+05  1.220936E+04  1.015352E+04
       113  22  7.652089E+05  1.624905E+03  1.143072E+04  1.132647E+05 -7.162700E+03  2.709751E+04
       113  23  7.647627E+05  1.192975E+01  7.751032E+03  9.009154E+04 -3.301952E+03  1.923476E+04
       113  24  7.652392E+05 -4.834970E+00  6.985178E+03  1.132650E+05  5.614546E+02  1.015034E+04
       113  25  3.027126E+05 -1.096977E+05 -8.295318E+04  1.126274E+05 -1.586728E+04  2.709796E+04
       113  26  4.489716E+05 -7.587741E+04 -5.611497E+04  8.986108E+04 -1.347693E+04  1.923356E+04
       113  27  5.959175E+05 -4.071704E+04 -2.738277E+04  1.134430E+05 -1.108334E+04  1.014715E+04
       114   1  8.293530E+05  1.523862E+04  1.992273E+04  1.137213E+05 -1.340146E+04 -4.441373E+03
       114   2  6.822827E+05 -1.975798E+04 -6.867125E+03  8.986810E+04 -1.733494E+04  4.748242E+03
       114   3  5.362774E+05 -5.259301E+04 -3.056204E+04  1.123544E+05 -2.126688E+04  1.305759E+04
       114   4  7.653124E+05 -6.408490E+01  7.393348E+03  1.132634E+05 -1.833919E+03 -4.437817E+03
       114   5  7.646928E+05  8.534260E+01  1.000498E+04  9.009354E+04 -6.826310E+03  4.751027E+03
       114   6  7.653025E+05  2.581279E+03  1.644627E+04  1.132627E+05 -1.181806E+04  1.305971E+04
       114   7  7.012761E+05 -1.536696E+04 -5.135725E+03  1.128055E+05  9.732451E+03 -4.434278E+03
       114   8  8.471096E+05  1.992830E+04  2.687715E+04  9.031901E+04  3.683692E+03  4.753819E+03
       114   9  9.943776E+05  5.775232E+04  6.345213E+04  1.141713E+05 -2.365820E+03  1.306187E+04
       114  10  8.293528E+05  1.523855E+04  1.992235E+04  1.137213E+05  1.552526E-10  4.835826E-10
       114  11  6.822824E+05 -1.975809E+04 -6.867732E+03  8.986816E+04 -2.279373E-10  9.365110E-11
       114  12  5.362768E+05 -5.259331E+04 -3.056321E+04  1.123546E+05 -4.162595E-10  2.440274E-10
       114  13  7.653124E+05 -6.410695E+01  7.393305E+03  1.132634E+05 -5.206933E-11  9.445288E-11
       114  14  7.646928E+05  8.530586E+01  1.000485E+04  9.009356E+04  1.838837E-10 -3.163678E-11
       114  15  7.653023E+05  2.581058E+03  1.644569E+04  1.132628E+05 -7.549406E-11  1.287571E-10
       114  16  7.012760E+05 -1.536701E+04 -5.135940E+03  1.128055E+05 -4.980409E-10 -1.020169E-10
       114  17  8.471096E+05  1.992828E+04  2.687708E+04  9.031899E+04  7.151696E-11 -2.895949E-10
       114  18  9.943775E+05  5.775214E+04  6.345180E+04  1.141713E+05  3.998722E-10  8.073371E-11
       114  19  8.293530E+05  1.523862E+04  1.992273E+04  1.137213E+05  1.340146E+04  4.441373E+03
       114  20  6.822827E+05 -1.975798E+04 -6.867125E+03  8.986810E+04  1.733494E+04 -4.748242E+03
       114  21  5.362774E+05 -5.259301E+04 -3.056204E+04  1.123544E+05  2.126688E+04 -1.305759E+04
       114  22  7.653124E+05 -6.408490E+01  7.393348E+03  1.132634E+05  1.833919E+03  4.437817E+03
       114  23  7.646928E+05  8.534260E+01  1.000498E+04  9.009354E+04  6.826310E+03 -4.751027E+03
       114  24  7.653025E+05  2.581279E+03  1.644627E+04  1.132627E+05  1.181806E+04 -1.305971E+04
       114  25  7.012761E+05 -1.536696E+04 -5.135725E+03  1.128055E+05 -9.732451E+03  4.434278E+03
       114  26  8.471096E+05  1.992830E+04  2.687715E+04  9.031901E+04 -3.683692E+03 -4.753819E+03
       114  27  9.943776E+05  5.775232E+04  6.345213E+04  1.141713E+05  2.365820E+03 -1.306187E+04
       115   1  4.335945E+05 -8.238654E+04 -4.790778E+04  1.207992E+05 -2.815187E+04  1.930635E+04
       115   2  2.808245E+05 -1.106104E+05 -6.711912E+04  7.634279E+04 -2.618175E+04  2.196449E+04
       115   3  1.398793E+05 -9.085243E+04 -7.560371E+04  7.739682E+04 -2.421429E+04  7.451662E+03
       115   4  7.684351E+05 -1.753147E+03  2.065654E+04  1.130769E+05 -1.466335E+04  1.930893E+04
       115   5  7.607178E+05  5.864657E+03  3.562376E+04  9.032399E+04 -3.331612E+04  2.196202E+04
       115   6  7.683668E+05  6.502016E+04  7.561870E+04  1.130749E+05 -5.197159E+04  7.450263E+03
       115   7  1.103383E+06  7.887354E+04  8.921563E+04  1.053503E+05 -1.167693E+03  1.931118E+04
       115   8  1.240828E+06  1.223254E+05  1.383536E+05  1.043161E+05 -4.045592E+04  2.195923E+04
       115   9  1.397220E+06  2.208692E+05  2.268166E+05  1.487892E+05 -7.975686E+04  7.445680E+03
       115  10  4.335936E+05 -8.238716E+04 -4.790997E+04  1.207997E+05  6.490027E-10  3.709296E-10
       115  11  2.808237E+05 -1.106111E+05 -6.712131E+04  7.634326E+04 -2.052403E-10  1.247476E-11
       115  12  1.398786E+05 -9.085264E+04 -7.560491E+04  7.739696E+04 -3.205131E-10 -5.521475E-11
       115  13  7.684348E+05 -1.753605E+03  2.065544E+04  1.130771E+05 -2.945794E-10  2.027379E-10
       115  14  7.607164E+05  5.863841E+03  3.562077E+04  9.032457E+04 -4.006184E-11 -1.227142E-10
       115  15  7.683639E+05  6.501937E+04  7.561353E+04  1.130752E+05 -6.241665E-11 -8.534852E-12
       115  16  1.103383E+06  7.887314E+04  8.921492E+04  1.053504E+05 -4.444002E-10  1.498649E-10
       115  17  1.240826E+06  1.223245E+05  1.383496E+05  1.043168E+05  4.618158E-10 -1.311513E-10
       115  18  1.397213E+06  2.208674E+05  2.268045E+05  1.487897E+05  1.343955E-10 -9.850962E-11
       115  19  4.335945E+05 -8.238654E+04 -4.790778E+04  1.207992E+05  2.815187E+04 -1.930635E+04
       115  20  2.808245E+05 -1.106104E+05 -6.711912E+04  7.634279E+04  2.618175E+04 -2.196449E+04
       115  21  1.398793E+05 -9.085243E+04 -7.560371E+04  7.739682E+04  2.421429E+04 -7.451662E+03
       115  22  7.684351E+05 -1.753147E+03  2.065654E+04  1.130769E+05  1.466335E+04 -1.930893E+04
       115  23  7.607178E+05  5.864657E+03  3.562376E+04  9.032399E+04  3.331612E+04 -2.196202E+04
       115  24  7.683668E+05  6.502016E+04  7.561870E+04  1.130749E+05  5.197159E+04 -7.450263E+03
       115  25  1.103383E+06  7.887354E+04  8.921563E+04  1.053503E+05  1.167693E+03 -1.931118E+04
       115  26  1.240828E+06  1.223254E+05  1.383536E+05  1.043161E+05  4.045592E+04 -2.195923E+04
       115  27  1.397220E+06  2.208692E+05  2.268166E+05  1.487892E+05  7.975686E+04 -7.445680E+03
       116   1 -3.175348E+05 -9.466100E+05 -3.331710E+05  2.368332E+05 -8.745358E+03 -1.318285E+05
       116   2 -1.449569E+05 -7.114275E+05 -1.885994E+05  1.607468E+05 -2.450491E+04 -6.953908E+04
       116   3 -7.697352E+04 -5.105453E+05 -1.107860E+05  1.524912E+05 -1.889871E+04 -7.240045E+03
       116   4 -1.263448E+05 -1.764083E+05 -1.472449E+05  1.679082E+05 -8.701865E+03 -1.001205E+05
       116   5 -1.127090E+04 -1.614351E+05 -7.012582E+04  1.339273E+05 -2.449413E+04 -6.340524E+04
       116   6  3.705101E+03 -1.763242E+05 -4.194561E+04  1.677906E+05 -1.892073E+04 -2.670398E+04
       116   7  6.482047E+04  5.943488E+05  3.864517E+04  9.889702E+04 -8.665459E+03 -6.837326E+04
       116   8  1.223980E+05  3.888435E+05  4.833051E+04  1.070836E+05 -2.448388E+04 -5.726602E+04
       116   9  8.437774E+04  1.580043E+05  2.689029E+04  1.830984E+05 -1.894371E+04 -4.617822E+04
       116  10 -3.175396E+05 -9.466287E+05 -3.332039E+05  2.368323E+05 -2.253190E-10 -5.293975E-10
       116  11 -1.449589E+05 -7.114329E+05 -1.886096E+05  1.607454E+05  1.327550E-10 -5.864839E-11
       116  12 -7.697392E+04 -5.105455E+05 -1.107867E+05  1.524911E+05  4.855329E-10  6.978719E-10
       116  13 -1.263475E+05 -1.764191E+05 -1.472638E+05  1.679075E+05  5.128830E-10  6.927387E-11
       116  14 -1.127262E+04 -1.614396E+05 -7.013451E+04  1.339260E+05 -7.136840E-10  2.360097E-11
       116  15  3.704525E+03 -1.763251E+05 -4.194762E+04  1.677902E+05 -6.174806E-11  4.736813E-11
       116  16  6.481914E+04  5.943438E+05  3.863625E+04  9.889654E+04 -2.252575E-10  5.867574E-10
       116  17  1.223965E+05  3.888398E+05  4.832323E+04  1.070825E+05 -2.053643E-10 -6.016413E-11
       116  18  8.437678E+04  1.580019E+05  2.688562E+04  1.830977E+05 -2.651082E-10 -7.385184E-10
       116  19 -3.175348E+05 -9.466100E+05 -3.331710E+05  2.368332E+05  8.745358E+03  1.318285E+05
       116  20 -1.449569E+05 -7.114275E+05 -1.885994E+05  1.607468E+05  2.450491E+04  6.953908E+04
       116  21 -7.697352E+04 -5.105453E+05 -1.107860E+05  1.524912E+05  1.889871E+04  7.240045E+03
       116  22 -1.263448E+05 -1.764083E+05 -1.472449E+05  1.679082E+05  8.701865E+03  1.001205E+05
       116  23 -1.127090E+04 -1.614351E+05 -7.012582E+04  1.339273E+05  2.449413E+04  6.340524E+04
       116  24  3.705101E+03 -1.763242E+05 -4.194561E+04  1.677906E+05  1.892073E+04  2.670398E+04
       116  25  6.482047E+04  5.943488E+05  3.864517E+04  9.889702E+04  8.665459E+03  6.837326E+04
       116  26  1.223980E+05  3.888435E+05  4.833051E+04  1.070836E+05  2.448388E+04  5.726602E+04
       116  27  8.437774E+04  1.580043E+05  2.689029E+04  1.830984E+05  1.894371E+04  4.617822E+04
       117   1 -4.728184E+04 -3.474224E+05 -7.111094E+04  1.699899E+05 -9.700039E+03 -6.123172E+03
       117   2  9.866269E+03 -1.279387E+05 -1.561648E+04  1.337753E+05  2.516626E+03  5.642580E+03
       117   3  6.077312E+04  8.834782E+04  3.061177E+04  1.664482E+05  1.461777E+04  1.741300E+04
       117   4 -4.532982E+03 -1.703989E+05 -3.441376E+04  1.680470E+05 -9.717477E+03 -2.083297E+04
       117   5  4.878874E+01 -1.687689E+05 -2.386487E+04  1.336011E+05  2.499687E+03 -8.928730E+03
       117   6 -1.631475E+03 -1.704040E+05 -2.267482E+04  1.680436E+05  1.460125E+04  2.976206E+03
       117   7  3.821402E+04  6.654844E+03  2.282532E+03  1.661035E+05 -9.734819E+03 -3.554689E+04
       117   8 -9.768681E+03 -2.095971E+05 -3.211255E+04  1.334269E+05  2.482756E+03 -2.349910E+04
       117   9 -6.404018E+04 -4.290918E+05 -7.596423E+04  1.696382E+05  1.458466E+04 -1.145468E+04
       117  10 -4.728195E+04 -3.474224E+05 -7.111118E+04  1.699898E+05 -3.792052E-11 -1.860572E-10
       117  11  9.866254E+03 -1.279387E+05 -1.561655E+04  1.337753E+05 -2.532428E-10 -4.764726E-11
       117  12  6.077281E+04  8.834744E+04  3.061080E+04  1.664480E+05 -2.688162E-10  1.205270E-10
       117  13 -4.533200E+03 -1.703993E+05 -3.441475E+04  1.680468E+05  8.304403E-11 -1.905504E-11
       117  14  4.876061E+01 -1.687690E+05 -2.386504E+04  1.336012E+05 -1.228106E-10 -6.091802E-11
       117  15 -1.631707E+03 -1.704040E+05 -2.267524E+04  1.680435E+05 -6.775131E-10  3.331093E-11
       117  16  3.821358E+04  6.653461E+03  2.279979E+03  1.661033E+05  1.679621E-10  2.083765E-10
       117  17 -9.768836E+03 -2.095977E+05 -3.211360E+04  1.334270E+05 -2.830311E-10 -7.807607E-11
       117  18 -6.404044E+04 -4.290920E+05 -7.596487E+04  1.696384E+05  4.922707E-10 -3.311887E-10
       117  19 -4.728184E+04 -3.474224E+05 -7.111094E+04  1.699899E+05  9.700039E+03  6.123172E+03
       117  20  9.866269E+03 -1.279387E+05 -1.561648E+04  1.337753E+05 -2.516626E+03 -5.642580E+03
       117  21  6.077312E+04  8.834782E+04  3.061177E+04  1.664482E+05 -1.461777E+04 -1.741300E+04
       117  22 -4.532982E+03 -1.703989E+05 -3.441376E+04  1.680470E+05  9.717477E+03  2.083297E+04
       117  23  4.878874E+01 -1.687689E+05 -2.386487E+04  1.336011E+05 -2.499687E+03  8.928730E+03
       117  24 -1.631475E+03 -1.704040E+05 -2.267482E+04  1.680436E+05 -1.460125E+04 -2.976206E+03
       117  25  3.821402E+04  6.654844E+03  2.282532E+03  1.661035E+05  9.734819E+03  3.554689E+04
       117  26 -9.768681E+03 -2.095971E+05 -3.211255E+04  1.334269E+05 -2.482756E+03  2.349910E+04
       117  27 -6.404018E+04 -4.290918E+05 -7.596423E+04  1.696382E+05 -1.458466E+04  1.145468E+04
       118   1  1.020460E+05  2.434180E+05  6.131037E+04  1.745435E+05  2.389203E+04  2.641238E+04
       118   2  1.485279E+05  4.658291E+05  1.018436E+05  1.220045E+05  2.858071E+04  1.590615E+04
       118   3  1.552613E+05  6.796928E+05  1.392660E+05  1.371567E+05  9.850468E+03  5.410927E+03
       118   4  1.734155E+03 -1.726960E+05 -2.407538E+04  1.677705E+05  2.387074E+04  6.705412E+03
       118   5 -4.907950E+03 -1.659992E+05 -3.376306E+04  1.339446E+05  2.859112E+04  2.430589E+04
       118   6 -5.619892E+04 -1.727859E+05 -6.608690E+04  1.678198E+05  9.881167E+03  4.192025E+04
       118   7 -9.858817E+04 -5.886447E+05 -1.094689E+05  1.610021E+05  2.384986E+04 -1.298859E+04
       118   8 -1.583693E+05 -7.974518E+05 -1.693927E+05  1.458723E+05  2.860186E+04  3.269720E+04
       118   9 -2.677079E+05 -1.024595E+06 -2.714861E+05  1.984405E+05  9.915497E+03  7.837963E+04
       118  10  1.020452E+05  2.434171E+05  6.130798E+04  1.745430E+05  4.360820E-10 -1.186341E-10
       118  11  1.485269E+05  4.658286E+05  1.018416E+05  1.220041E+05  8.667683E-11 -1.951141E-10
       118  12  1.552612E+05  6.796928E+05  1.392657E+05  1.371566E+05  1.251000E-10 -2.716615E-11
       118  13  1.733532E+03 -1.726962E+05 -2.407653E+04  1.677704E+05  6.740371E-11  1.656476E-11
       118  14 -4.908986E+03 -1.660001E+05 -3.376571E+04  1.339441E+05  3.873929E-10 -3.380518E-11
       118  15 -5.619950E+04 -1.727879E+05 -6.609038E+04  1.678195E+05  1.688249E-10 -4.758310E-11
       118  16 -9.858883E+04 -5.886450E+05 -1.094703E+05  1.610024E+05  3.112567E-11  2.175455E-10
       118  17 -1.583705E+05 -7.974531E+05 -1.693962E+05  1.458716E+05 -1.420369E-10  5.783222E-11
       118  18 -2.677096E+05 -1.024602E+06 -2.714979E+05  1.984399E+05  6.564402E-11  6.667113E-11
       118  19  1.020460E+05  2.434180E+05  6.131037E+04  1.745435E+05 -2.389203E+04 -2.641238E+04
       118  20  1.485279E+05  4.658291E+05  1.018436E+05  1.220045E+05 -2.858071E+04 -1.590615E+04
       118  21  1.552613E+05  6.796928E+05  1.392660E+05  1.371567E+05 -9.850468E+03 -5.410927E+03
       118  22  1.734155E+03 -1.726960E+05 -2.407538E+04  1.677705E+05 -2.387074E+04 -6.705412E+03
       118  23 -4.907950E+03 -1.659992E+05 -3.376306E+04  1.339446E+05 -2.859112E+04 -2.430589E+04
       118  24 -5.619892E+04 -1.727859E+05 -6.608690E+04  1.678198E+05 -9.881167E+03 -4.192025E+04
       118  25 -9.858817E+04 -5.886447E+05 -1.094689E+05  1.610021E+05 -2.384986E+04  1.298859E+04
       118  26 -1.583693E+05 -7.974518E+05 -1.693927E+05  1.458723E+05 -2.860186E+04 -3.269720E+04
       118  27 -2.677079E+05 -1.024595E+06 -2.714861E+05  1.984405E+05 -9.915497E+03 -7.837963E+04
       119   1  8.239098E+05  6.329282E+05  1.661143E+05  5.764151E+05  8.131817E+04  5.864691E+04
       119   2  8.090380E+05  5.167413E+05  8.896679E+04  6.065571E+05  5.395100E+04  3.296396E+04
       119   3  8.431412E+05  4.724536E+05  5.927794E+04  6.063059E+05  2.458841E+04  9.945550E+03
       119   4  7.910504E+05  5.046954E+05  1.353049E+05  5.118222E+05  7.573460E+04  5.445101E+04
       119   5  7.454311E+05  4.308041E+05  6.356940E+04  5.557305E+05  5.156562E+04  3.117354E+04
       119   6  7.480979E+05  4.281207E+05  3.652270E+04  5.692441E+05  2.540304E+04  1.055652E+04
       119   7  7.581987E+05  3.764931E+05  1.044967E+05  4.472377E+05  7.015132E+04  5.025712E+04
       119   8  6.818292E+05  3.448772E+05  3.817135E+04  5.049114E+05  4.918054E+04  2.938365E+04
       119   9  6.530638E+05  3.837891E+05  1.376655E+04  5.321872E+05  2.621750E+04  1.116742E+04
       119  10  8.239018E+05  6.329228E+05  1.660954E+05  5.764113E+05 -2.736049E-10 -5.776851E-11
       119  11  8.090346E+05  5.167394E+05  8.895929E+04  6.065557E+05 -4.620414E-10  2.847513E-11
       119  12  8.431405E+05  4.724533E+05  5.927662E+04  6.063057E+05 -8.079962E-10 -8.571088E-12
       119  13  7.910434E+05  5.046907E+05  1.352886E+05  5.118188E+05 -9.699799E-10  4.905606E-11
       119  14  7.454280E+05  4.308023E+05  6.356259E+04  5.557292E+05 -8.291268E-10  1.167555E-10
       119  15  7.480972E+05  4.281204E+05  3.652128E+04  5.692439E+05 -2.959641E-10  1.544855E-10
       119  16  7.581927E+05  3.764891E+05  1.044827E+05  4.472349E+05  2.963373E-10  1.732408E-12
       119  17  6.818264E+05  3.448756E+05  3.816520E+04  5.049102E+05 -1.593778E-10  1.331551E-10
       119  18  6.530630E+05  3.837888E+05  1.376503E+04  5.321869E+05  1.787898E-10  4.780147E-10
       119  19  8.239098E+05  6.329282E+05  1.661143E+05  5.764151E+05 -8.131817E+04 -5.864691E+04
       119  20  8.090380E+05  5.167413E+05  8.896679E+04  6.065571E+05 -5.395100E+04 -3.296396E+04
       119  21  8.431412E+05  4.724536E+05  5.927794E+04  6.063059E+05 -2.458841E+04 -9.945550E+03
       119  22  7.910504E+05  5.046954E+05  1.353049E+05  5.118222E+05 -7.573460E+04 -5.445101E+04
       119  23  7.454311E+05  4.308041E+05  6.356940E+04  5.557305E+05 -5.156562E+04 -3.117354E+04
       119  24  7.480979E+05  4.281207E+05  3.652270E+04  5.692441E+05 -2.540304E+04 -1.055652E+04
       119  25  7.581987E+05  3.764931E+05  1.044967E+05  4.472377E+05 -7.015132E+04 -5.025712E+04
       119  26  6.818292E+05  3.448772E+05  3.817135E+04  5.049114E+05 -4.918054E+04 -2.938365E+04
       119  27  6.530638E+05  3.837891E+05  1.376655E+04  5.321872E+05 -2.621750E+04 -1.116742E+04
       120   1  8.230765E+05  4.871435E+05  5.041509E+04  6.020337E+05  2.096072E+04  7.773853E+03
       120   2  8.171641E+05  4.772667E+05  3.656878E+04  5.999884E+05  1.389668E+04  2.836160E+03
       120   3  8.116189E+05  4.732874E+05  2.935135E+04  5.977278E+05  6.723702E+03 -1.955645E+03
       120   4  7.472512E+05  4.310838E+05  2.882867E+04  5.628435E+05  2.114478E+04  7.911598E+03
       120   5  7.462136E+05  4.265962E+05  1.681949E+04  5.641213E+05  1.425682E+04  3.105922E+03
       120   6  7.455053E+05  4.279684E+05  1.128743E+04  5.651838E+05  7.259809E+03 -1.553981E+03
       120   7  6.714332E+05  3.750285E+05  7.242006E+03  5.236594E+05  2.132881E+04  8.049316E+03
       120   8  6.752691E+05  3.759290E+05 -2.930122E+03  5.282592E+05  1.461691E+04  3.375640E+03
       120   9  6.793965E+05  3.826517E+05 -6.776895E+03  5.326438E+05  7.795838E+03 -1.152373E+03
       120  10  8.230760E+05  4.871433E+05  5.041415E+04  6.020336E+05 -1.196205E-09 -6.358482E-11
       120  11  8.171639E+05  4.772666E+05  3.656840E+04  5.999883E+05 -3.362905E-10  3.875591E-11
       120  12  8.116189E+05  4.732874E+05  2.935126E+04  5.977278E+05 -1.413820E-09 -1.156210E-09
       120  13  7.472507E+05  4.310836E+05  2.882771E+04  5.628434E+05 -8.514003E-10  4.705012E-10
       120  14  7.462134E+05  4.265961E+05  1.681909E+04  5.641213E+05 -5.760714E-10  6.268204E-10
       120  15  7.455052E+05  4.279684E+05  1.128732E+04  5.651838E+05  6.619432E-10  1.267609E-10
       120  16  6.714327E+05  3.750283E+05  7.241031E+03  5.236592E+05  4.363828E-10  1.086957E-09
       120  17  6.752689E+05  3.759289E+05 -2.930544E+03  5.282592E+05  7.732486E-10  1.154152E-09
       120  18  6.793965E+05  3.826517E+05 -6.777011E+03  5.326438E+05  1.259228E-09  1.192180E-09
       120  19  8.230765E+05  4.871435E+05  5.041509E+04  6.020337E+05 -2.096072E+04 -7.773853E+03
       120  20  8.171641E+05  4.772667E+05  3.656878E+04  5.999884E+05 -1.389668E+04 -2.836160E+03
       120  21  8.116189E+05  4.732874E+05  2.935135E+04  5.977278E+05 -6.723702E+03  1.955645E+03
       120  22  7.472512E+05  4.310838E+05  2.882867E+04  5.628435E+05 -2.114478E+04 -7.911598E+03
       120  23  7.462136E+05  4.265962E+05  1.681949E+04  5.641213E+05 -1.425682E+04 -3.105922E+03
       120  24  7.455053E+05  4.279684E+05  1.128743E+04  5.651838E+05 -7.259809E+03  1.553981E+03
       120  25  6.714332E+05  3.750285E+05  7.242006E+03  5.236594E+05 -2.132881E+04 -8.049316E+03
       120  26  6.752691E+05  3.759290E+05 -2.930122E+03  5.282592E+05 -1.461691E+04 -3.375640E+03
       120  27  6.793965E+05  3.826517E+05 -6.776895E+03  5.326438E+05 -7.795838E+03  1.152373E+03
       121   1  8.065167E+05  4.710961E+05  2.680456E+04  5.955063E+05  5.056140E+03 -2.804545E+03
       121   2  8.013892E+05  4.655812E+05  2.466482E+04  5.921469E+05  9.928773E+02 -5.194665E+03
       121   3  7.944257E+05  4.630950E+05  2.568752E+04  5.896345E+05 -3.076323E+03 -7.576940E+03
       121   4  7.454247E+05  4.280527E+05  9.957920E+03  5.648852E+05  5.555211E+03 -2.430619E+03
       121   5  7.463535E+05  4.265574E+05  9.437977E+03  5.644479E+05  1.501796E+03 -4.813331E+03
       121   6  7.454445E+05  4.280885E+05  1.207220E+04  5.648577E+05 -2.557558E+03 -7.188197E+03
       121   7  6.843361E+05  3.850108E+05 -6.889338E+03  5.342670E+05  6.054223E+03 -2.056739E+03
       121   8  6.913212E+05  3.875353E+05 -5.789157E+03  5.367517E+05  2.010653E+03 -4.432043E+03
       121   9  6.964665E+05  3.930839E+05 -1.543131E+03  5.400834E+05 -2.038855E+03 -6.799501E+03
       121  10  8.065166E+05  4.710961E+05  2.680449E+04  5.955064E+05 -1.966398E-08 -1.647787E-08
       121  11  8.013891E+05  4.655812E+05  2.466477E+04  5.921469E+05 -1.611570E-09 -3.483093E-09
       121  12  7.944257E+05  4.630949E+05  2.568739E+04  5.896345E+05  1.909973E-08  1.306550E-08
       121  13  7.454247E+05  4.280526E+05  9.957851E+03  5.648852E+05 -4.789325E-10 -1.634318E-09
       121  14  7.463535E+05  4.265573E+05  9.437929E+03  5.644479E+05 -1.627878E-09 -3.637967E-09
       121  15  7.454445E+05  4.280885E+05  1.207209E+04  5.648577E+05 -1.038119E-11 -1.746781E-09
       121  16  6.843361E+05  3.850108E+05 -6.889415E+03  5.342670E+05  1.862374E-08  1.326332E-08
       121  17  6.913212E+05  3.875352E+05 -5.789202E+03  5.367517E+05 -1.928998E-09 -3.585500E-09
       121  18  6.964665E+05  3.930839E+05 -1.543226E+03  5.400834E+05 -1.954882E-08 -1.679695E-08
       121  19  8.065167E+05  4.710961E+05  2.680456E+04  5.955063E+05 -5.056140E+03  2.804545E+03
       121  20  8.013892E+05  4.655812E+05  2.466482E+04  5.921469E+05 -9.928773E+02  5.194665E+03
       121  21  7.944257E+05  4.630950E+05  2.568752E+04  5.896345E+05  3.076323E+03  7.576940E+03
       121  22  7.454247E+05  4.280527E+05  9.957920E+03  5.648852E+05 -5.555211E+03  2.430619E+03
       121  23  7.463535E+05  4.265574E+05  9.437977E+03  5.644479E+05 -1.501796E+03  4.813331E+03
       121  24  7.454445E+05  4.280885E+05  1.207220E+04  5.648577E+05  2.557558E+03  7.188197E+03
       121  25  6.843361E+05  3.850108E+05 -6.889338E+03  5.342670E+05 -6.054223E+03  2.056739E+03
       121  26  6.913212E+05  3.875353E+05 -5.789157E+03  5.367517E+05 -2.010653E+03  4.432043E+03
       121  27  6.964665E+05  3.930839E+05 -1.543131E+03  5.400834E+05  2.038855E+03  6.799501E+03
       122   1  7.893140E+05  4.610314E+05  2.703878E+04  5.882937E+05 -5.148749E+03 -8.742461E+03
       122   2  7.856150E+05  4.537995E+05  3.438206E+04  5.834913E+05 -1.491691E+04 -1.538336E+04
       122   3  7.835491E+05  4.539275E+05  5.088881E+04  5.779938E+05 -2.470218E+04 -2.200163E+04
       122   4  7.456062E+05  4.279670E+05  1.463227E+04  5.653273E+05 -4.638762E+03 -8.360262E+03
       122   5  7.460690E+05  4.265658E+05  2.356354E+04  5.639654E+05 -1.437893E+04 -1.498020E+04
       122   6  7.481588E+05  4.325188E+05  4.163441E+04  5.619083E+05 -2.413634E+04 -2.157769E+04
       122   7  7.019006E+05  3.949039E+05  2.225562E+03  5.423627E+05 -4.128823E+03 -7.978102E+03
       122   8  7.065244E+05  3.993329E+05  1.274478E+04  5.444407E+05 -1.384099E+04 -1.457707E+04
       122   9  7.127694E+05  4.111104E+05  3.237977E+04  5.458237E+05 -2.357053E+04 -2.115378E+04
       122  10  7.893139E+05  4.610313E+05  2.703859E+04  5.882937E+05  8.949148E-10  7.478849E-10
       122  11  7.856147E+05  4.537991E+05  3.438120E+04  5.834911E+05  3.186157E-10  8.675492E-10
       122  12  7.835483E+05  4.539268E+05  5.088676E+04  5.779933E+05  6.189643E-10  1.073412E-09
       122  13  7.456062E+05  4.279669E+05  1.463210E+04  5.653272E+05 -2.017017E-10 -2.162390E-10
       122  14  7.460687E+05  4.265655E+05  2.356273E+04  5.639652E+05 -8.788560E-10  5.817491E-10
       122  15  7.481580E+05  4.325182E+05  4.163245E+04  5.619079E+05 -2.317340E-10  6.784650E-10
       122  16  7.019006E+05  3.949038E+05  2.225411E+03  5.423627E+05 -5.330520E-10 -1.234038E-09
       122  17  7.065241E+05  3.993326E+05  1.274402E+04  5.444405E+05 -8.808734E-10  3.088281E-11
       122  18  7.127687E+05  4.111098E+05  3.237789E+04  5.458233E+05 -1.095965E-09  1.886345E-10
       122  19  7.893140E+05  4.610314E+05  2.703878E+04  5.882937E+05  5.148749E+03  8.742461E+03
       122  20  7.856150E+05  4.537995E+05  3.438206E+04  5.834913E+05  1.491691E+04  1.538336E+04
       122  21  7.835491E+05  4.539275E+05  5.088881E+04  5.779938E+05  2.470218E+04  2.200163E+04
       122  22  7.456062E+05  4.279670E+05  1.463227E+04  5.653273E+05  4.638762E+03  8.360262E+03
       122  23  7.460690E+05  4.265658E+05  2.356354E+04  5.639654E+05  1.437893E+04  1.498020E+04
       122  24  7.481588E+05  4.325188E+05  4.163441E+04  5.619083E+05  2.413634E+04  2.157769E+04
       122  25  7.019006E+05  3.949039E+05  2.225562E+03  5.423627E+05  4.128823E+03  7.978102E+03
       122  26  7.065244E+05  3.993329E+05  1.274478E+04  5.444407E+05  1.384099E+04  1.457707E+04
       122  27  7.127694E+05  4.111104E+05  3.237977E+04  5.458237E+05  2.357053E+04  2.115378E+04
       123   1  7.588629E+05  4.683986E+05  6.111500E+04  5.916476E+05 -3.055229E+04 -2.602627E+04
       123   2  8.033522E+05  4.139818E+05  9.954521E+04  5.530421E+05 -7.047090E+04 -5.500360E+04
       123   3  9.196955E+05  4.629762E+05  2.038211E+05  4.696046E+05 -1.107125E+05 -8.354736E+04
       123   4  7.493586E+05  4.282307E+05  5.306740E+04  5.713037E+05 -3.008875E+04 -2.567721E+04
       123   5  7.449679E+05  4.326538E+05  9.292627E+04  5.516575E+05 -6.949061E+04 -5.427544E+04
       123   6  8.123112E+05  5.403696E+05  1.981858E+05  4.871810E+05 -1.092107E+05 -8.244780E+04
       123   7  7.398552E+05  3.880664E+05  4.502008E+04  5.509609E+05 -2.962521E+04 -2.532821E+04
       123   8  6.865900E+05  4.513283E+05  8.630805E+04  5.502719E+05 -6.851047E+04 -5.354721E+04
       123   9  7.049547E+05  6.177874E+05  1.925552E+05  5.047499E+05 -1.077093E+05 -8.134784E+04
       123  10  7.588617E+05  4.683976E+05  6.111198E+04  5.916470E+05  4.665360E-10  9.686180E-10
       123  11  8.033461E+05  4.139773E+05  9.953022E+04  5.530390E+05 -1.674746E-11  2.522383E-10
       123  12  9.196805E+05  4.629655E+05  2.037850E+05  4.695972E+05  1.201320E-11  2.988494E-12
       123  13  7.493574E+05  4.282297E+05  5.306447E+04  5.713031E+05 -2.599229E-10  4.562721E-10
       123  14  7.449619E+05  4.326493E+05  9.291169E+04  5.516545E+05 -1.217711E-10  4.174495E-10
       123  15  8.122966E+05  5.403591E+05  1.981507E+05  4.871738E+05 -4.623299E-10 -7.430410E-11
       123  16  7.398541E+05  3.880655E+05  4.501723E+04  5.509603E+05 -1.411236E-09 -5.358561E-11
       123  17  6.865842E+05  4.513240E+05  8.629386E+04  5.502689E+05 -6.476686E-10 -1.528337E-10
       123  18  7.049405E+05  6.177771E+05  1.925211E+05  5.047429E+05 -1.053876E-11 -9.452417E-12
       123  19  7.588629E+05  4.683986E+05  6.111500E+04  5.916476E+05  3.055229E+04  2.602627E+04
       123  20  8.033522E+05  4.139818E+05  9.954521E+04  5.530421E+05  7.047090E+04  5.500360E+04
       123  21  9.196955E+05  4.629762E+05  2.038211E+05  4.696046E+05  1.107125E+05  8.354736E+04
       123  22  7.493586E+05  4.282307E+05  5.306740E+04  5.713037E+05  3.008875E+04  2.567721E+04
       123  23  7.449679E+05  4.326538E+05  9.292627E+04  5.516575E+05  6.949061E+04  5.427544E+04
       123  24  8.123112E+05  5.403696E+05  1.981858E+05  4.871810E+05  1.092107E+05  8.244780E+04
       123  25  7.398552E+05  3.880664E+05  4.502008E+04  5.509609E+05  2.962521E+04  2.532821E+04
       123  26  6.865900E+05  4.513283E+05  8.630805E+04  5.502719E+05  6.851047E+04  5.354721E+04
       123  27  7.049547E+05  6.177874E+05  1.925552E+05  5.047499E+05  1.077093E+05  8.134784E+04
       124   1  1.290387E+06  1.901603E+05  1.989461E+05  1.046330E+05  8.231952E+04 -5.820318E+03
       124   2  1.198251E+06  9.841198E+04  1.222795E+05  6.665862E+04  4.554473E+04 -1.783119E+04
       124   3  1.126610E+06  6.939320E+04  8.520712E+04  5.389100E+04  8.778418E+03 -1.749414E+04
       124   4  8.293914E+05  7.597269E+04  8.838304E+04  6.292211E+04  6.043804E+04 -5.823692E+03
       124   5  8.204532E+05  6.858488E+03  4.187092E+04  5.031842E+04  3.851696E+04 -1.783302E+04
       124   6  8.294415E+05 -2.081613E+03  2.466660E+04  6.291811E+04  1.659862E+04 -1.749404E+04
       124   7  3.685949E+05 -3.822356E+04 -2.219235E+04  2.124222E+04  3.857270E+04 -5.824135E+03
       124   8  4.427902E+05 -8.470324E+04 -3.854554E+04  3.398829E+04  3.149339E+04 -1.783449E+04
       124   9  5.323571E+05 -7.356159E+04 -3.587828E+04  7.194081E+04  2.441515E+04 -1.749371E+04
       124  10  1.290380E+06  1.901585E+05  1.989333E+05  1.046334E+05  3.345261E-10 -1.891548E-11
       124  11  1.198249E+06  9.841108E+04  1.222750E+05  6.665927E+04 -6.855352E-10  4.774323E-11
       124  12  1.126610E+06  6.939285E+04  8.520640E+04  5.389113E+04 -1.785663E-11 -1.338879E-11
       124  13  8.293875E+05  7.597167E+04  8.837612E+04  6.292239E+04 -7.323451E-11  4.809046E-11
       124  14  8.204515E+05  6.857748E+03  4.186754E+04  5.031897E+04  5.303625E-10  1.028008E-11
       124  15  8.294411E+05 -2.082015E+03  2.466551E+04  6.291834E+04  4.847608E-10  6.603595E-11
       124  16  3.685933E+05 -3.822399E+04 -2.219521E+04  2.124240E+04 -1.075636E-10 -1.006539E-10
       124  17  4.427891E+05 -8.470385E+04 -3.854800E+04  3.398874E+04  8.721980E-11 -4.952368E-11
       124  18  5.323564E+05 -7.356208E+04 -3.587997E+04  7.194116E+04 -7.738743E-11  7.739475E-12
       124  19  1.290387E+06  1.901603E+05  1.989461E+05  1.046330E+05 -8.231952E+04  5.820318E+03
       124  20  1.198251E+06  9.841198E+04  1.222795E+05  6.665862E+04 -4.554473E+04  1.783119E+04
       124  21  1.126610E+06  6.939320E+04  8.520712E+04  5.389100E+04 -8.778418E+03  1.749414E+04
       124  22  8.293914E+05  7.597269E+04  8.838304E+04  6.292211E+04 -6.043804E+04  5.823692E+03
       124  23  8.204532E+05  6.858488E+03  4.187092E+04  5.031842E+04 -3.851696E+04  1.783302E+04
       124  24  8.294415E+05 -2.081613E+03  2.466660E+04  6.291811E+04 -1.659862E+04  1.749404E+04
       124  25  3.685949E+05 -3.822356E+04 -2.219235E+04  2.124222E+04 -3.857270E+04  5.824135E+03
       124  26  4.427902E+05 -8.470324E+04 -3.854554E+04  3.398829E+04 -3.149339E+04  1.783449E+04
       124  27  5.323571E+05 -7.356159E+04 -3.587828E+04  7.194081E+04 -2.441515E+04  1.749371E+04
       125   1  1.063915E+06  6.025714E+04  6.854110E+04  6.413720E+04  8.256108E+03 -1.391483E+04
       125   2  9.814921E+05  3.763062E+04  4.466617E+04  5.048902E+04  9.833272E+02 -9.504714E+03
       125   3  9.007559E+05  1.794100E+04  2.625422E+04  6.262655E+04 -6.289389E+03 -4.443476E+03
       125   4  8.258038E+05  2.967223E+03  1.994957E+04  6.304885E+04  1.316181E+04 -1.391467E+04
       125   5  8.250357E+05  4.154800E+01  1.301809E+04  5.015607E+04  6.673231E+03 -9.504052E+03
       125   6  8.258144E+05 -8.183550E+01  1.100766E+04  6.304931E+04  1.838036E+02 -4.442229E+03
       125   7  5.877462E+05 -5.432622E+04 -2.864486E+04  6.196092E+04  1.806568E+04 -1.391453E+04
       125   8  6.686026E+05 -3.754903E+04 -1.863115E+04  4.982320E+04  1.236173E+04 -9.503396E+03
       125   9  7.508784E+05 -1.810500E+04 -4.239041E+03  6.347202E+04  6.656230E+03 -4.440974E+03
       125  10  1.063915E+06  6.025691E+04  6.854061E+04  6.413729E+04 -4.417029E-10  1.073417E-11
       125  11  9.814921E+05  3.763053E+04  4.466600E+04  5.048902E+04  8.173409E-11  3.869916E-11
       125  12  9.007558E+05  1.794097E+04  2.625411E+04  6.262652E+04  6.763697E-10 -7.627581E-11
       125  13  8.258036E+05  2.966969E+03  1.994888E+04  6.304900E+04  3.479949E-10  7.434201E-11
       125  14  8.250356E+05  4.143902E+01  1.301783E+04  5.015612E+04  5.784089E-10  3.651785E-10
       125  15  8.258144E+05 -8.185671E+01  1.100762E+04  6.304931E+04 -3.873659E-10 -2.625189E-11
       125  16  5.877458E+05 -5.432651E+04 -2.864584E+04  6.196113E+04  4.776579E-10  2.332462E-10
       125  17  6.686025E+05 -3.754916E+04 -1.863160E+04  4.982330E+04  6.079271E-11  3.199264E-10
       125  18  7.508783E+05 -1.810503E+04 -4.239161E+03  6.347205E+04 -3.915053E-10  3.023012E-11
       125  19  1.063915E+06  6.025714E+04  6.854110E+04  6.413720E+04 -8.256108E+03  1.391483E+04
       125  20  9.814921E+05  3.763062E+04  4.466617E+04  5.048902E+04 -9.833272E+02  9.504714E+03
       125  21  9.007559E+05  1.794100E+04  2.625422E+04  6.262655E+04  6.289389E+03  4.443476E+03
       125  22  8.258038E+05  2.967223E+03  1.994957E+04  6.304885E+04 -1.316181E+04  1.391467E+04
       125  23  8.250357E+05  4.154800E+01  1.301809E+04  5.015607E+04 -6.673231E+03  9.504052E+03
       125  24  8.258144E+05 -8.183550E+01  1.100766E+04  6.304931E+04 -1.838036E+02  4.442229E+03
       125  25  5.877462E+05 -5.432622E+04 -2.864486E+04  6.196092E+04 -1.806568E+04  1.391453E+04
       125  26  6.686026E+05 -3.754903E+04 -1.863115E+04  4.982320E+04 -1.236173E+04  9.503396E+03
       125  27  7.508784E+05 -1.810500E+04 -4.239041E+03  6.347202E+04 -6.656230E+03  4.440974E+03
       126   1  8.422242E+05  3.765669E+03  1.437915E+04  6.364197E+04 -8.227488E+03 -1.265879E+03
       126   2  7.598576E+05 -1.558992E+04  1.254258E+03  4.982396E+04 -1.484615E+04  3.836980E+03
       126   3  6.791536E+05 -3.175175E+04 -6.768299E+03  6.178697E+04 -2.146369E+04  8.422014E+03
       126   4  8.258637E+05 -1.233452E+02  1.128041E+04  6.304817E+04 -1.785710E+03 -1.264544E+03
       126   5  8.249786E+05  7.605097E+01  1.451998E+04  5.015748E+04 -9.027343E+03  3.837986E+03
       126   6  8.258570E+05  3.577224E+03  2.329346E+04  6.304750E+04 -1.626868E+04  8.422716E+03
       126   7  8.095035E+05 -4.012351E+03  8.181820E+03  6.245438E+04  4.655902E+03 -1.263220E+03
       126   8  8.901037E+05  1.574178E+04  2.778561E+04  5.049103E+04 -3.207935E+03  3.838998E+03
       126   9  9.725808E+05  3.890487E+04  5.335417E+04  6.430834E+04 -1.107247E+04  8.423440E+03
       126  10  8.422241E+05  3.765649E+03  1.437902E+04  6.364196E+04  1.888196E-11 -3.899299E-11
       126  11  7.598574E+05 -1.559000E+04  1.253817E+03  4.982401E+04 -1.652342E-10 -1.874235E-10
       126  12  6.791531E+05 -3.175195E+04 -6.769297E+03  6.178711E+04 -1.895624E-10 -9.147901E-11
       126  13  8.258637E+05 -1.233478E+02  1.128040E+04  6.304816E+04 -5.470859E-10 -1.498059E-10
       126  14  8.249785E+05  7.601330E+01  1.451980E+04  5.015750E+04 -2.172746E-10 -2.127522E-10
       126  15  8.258567E+05  3.577076E+03  2.329283E+04  6.304761E+04 -9.321473E-10 -1.872297E-10
       126  16  8.095035E+05 -4.012359E+03  8.181776E+03  6.245439E+04 -1.202769E-10 -1.043738E-10
       126  17  8.901036E+05  1.574176E+04  2.778556E+04  5.049104E+04 -1.371246E-10 -4.171440E-11
       126  18  9.725807E+05  3.890476E+04  5.335381E+04  6.430841E+04 -4.507177E-10 -4.814471E-11
       126  19  8.422242E+05  3.765669E+03  1.437915E+04  6.364197E+04  8.227488E+03  1.265879E+03
       126  20  7.598576E+05 -1.558992E+04  1.254258E+03  4.982396E+04  1.484615E+04 -3.836980E+03
       126  21  6.791536E+05 -3.175175E+04 -6.768299E+03  6.178697E+04  2.146369E+04 -8.422014E+03
       126  22  8.258637E+05 -1.233452E+02  1.128041E+04  6.304817E+04  1.785710E+03  1.264544E+03
       126  23  8.249786E+05  7.605097E+01  1.451998E+04  5.015748E+04  9.027343E+03 -3.837986E+03
       126  24  8.258570E+05  3.577224E+03  2.329346E+04  6.304750E+04  1.626868E+04 -8.422716E+03
       126  25  8.095035E+05 -4.012351E+03  8.181820E+03  6.245438E+04 -4.655902E+03  1.263220E+03
       126  26  8.901037E+05  1.574178E+04  2.778561E+04  5.049103E+04  3.207935E+03 -3.838998E+03
       126  27  9.725808E+05  3.890487E+04  5.335417E+04  6.430834E+04  1.107247E+04 -8.423440E+03
       127   1  6.246198E+05 -5.196148E+04 -1.294523E+04  7.376678E+04 -2.784869E+04  1.191555E+04
       127   2  5.331872E+05 -6.121871E+04 -1.127535E+04  3.073196E+04 -4.193261E+04  1.319605E+04
       127   3  4.611085E+05 -5.095811E+02  1.705643E+04  1.300171E+04 -5.601471E+04  4.440175E+03
       127   4  8.302268E+05 -2.467431E+03  2.910061E+04  6.294101E+04 -2.029037E+04  1.191684E+04
       127   5  8.194890E+05  8.242859E+03  4.993497E+04  5.028922E+04 -4.643724E+04  1.319398E+04
       127   6  8.301752E+05  9.098998E+04  1.057903E+05  6.293781E+04 -7.258444E+04  4.435468E+03
       127   7  1.035874E+06  4.702444E+04  7.114448E+04  5.211160E+04 -1.272959E+04  1.191787E+04
       127   8  1.105869E+06  7.770053E+04  1.111408E+05  6.985562E+04 -5.094391E+04  1.319163E+04
       127   9  1.199372E+06  1.824891E+05  1.945168E+05  1.129037E+05 -8.916397E+04  4.428100E+03
       127  10  6.246190E+05 -5.196184E+04 -1.294695E+04  7.376704E+04 -7.941806E-11 -3.510731E-11
       127  11  5.331853E+05 -6.121937E+04 -1.127898E+04  3.073240E+04 -2.591800E-10  8.142435E-11
       127  12  4.611051E+05 -5.104438E+02  1.705051E+04  1.300191E+04  3.496869E-10  2.290807E-11
       127  13  8.302263E+05 -2.467694E+03  2.909957E+04  6.294121E+04  1.543791E-10  6.279192E-11
       127  14  8.194867E+05  8.242094E+03  4.993059E+04  5.028971E+04 -4.175426E-10  2.446556E-10
       127  15  8.301696E+05  9.098854E+04  1.057804E+05  6.293807E+04 -2.248144E-10  9.774470E-11
       127  16  1.035874E+06  4.702425E+04  7.114391E+04  5.211172E+04  2.065909E-10  9.457540E-11
       127  17  1.105866E+06  7.769965E+04  1.111356E+05  6.985616E+04 -3.134550E-11  3.032673E-10
       127  18  1.199364E+06  1.824870E+05  1.945018E+05  1.129040E+05 -9.972278E-11  1.490482E-10
       127  19  6.246198E+05 -5.196148E+04 -1.294523E+04  7.376678E+04  2.784869E+04 -1.191555E+04
       127  20  5.331872E+05 -6.121871E+04 -1.127535E+04  3.073196E+04  4.193261E+04 -1.319605E+04
       127  21  4.611085E+05 -5.095811E+02  1.705643E+04  1.300171E+04  5.601471E+04 -4.440175E+03
       127  22  8.302268E+05 -2.467431E+03  2.910061E+04  6.294101E+04  2.029037E+04 -1.191684E+04
       127  23  8.194890E+05  8.242859E+03  4.993497E+04  5.028922E+04  4.643724E+04 -1.319398E+04
       127  24  8.301752E+05  9.098998E+04  1.057903E+05  6.293781E+04  7.258444E+04 -4.435468E+03
       127  25  1.035874E+06  4.702444E+04  7.114448E+04  5.211160E+04  1.272959E+04 -1.191787E+04
       127  26  1.105869E+06  7.770053E+04  1.111408E+05  6.985562E+04  5.094391E+04 -1.319163E+04
       127  27  1.199372E+06  1.824891E+05  1.945168E+05  1.129037E+05  8.916397E+04 -4.428100E+03
       128   1 -3.252528E+05 -1.171989E+06 -3.494483E+05  2.157280E+05 -7.221483E+03 -1.610475E+05
       128   2 -1.263768E+05 -9.921519E+05 -1.951523E+05  1.337141E+05 -2.070638E+04 -8.997815E+04
       128   3 -6.778360E+04 -8.566579E+05 -1.222571E+05  1.006542E+05 -1.724992E+04 -1.889420E+04
       128   4 -1.724349E+05 -5.564353E+05 -2.009825E+05  1.212201E+05 -7.183510E+03 -1.347452E+05
       128   5 -1.551527E+04 -5.359881E+05 -9.714696E+04  9.668869E+04 -2.069630E+04 -8.394381E+04
       128   6  4.695732E+03 -5.563461E+05 -6.057565E+04  1.211276E+05 -1.726018E+04 -3.314780E+04
       128   7 -1.961050E+04  5.948640E+04 -5.253646E+04  2.661790E+04 -7.153586E+03 -1.084167E+05
       128   8  9.533783E+04 -7.962520E+04  8.471085E+02  5.963561E+04 -2.068694E+04 -7.790508E+04
       128   9  7.717106E+04 -2.559474E+05  1.101934E+03  1.416110E+05 -1.727137E+04 -4.740819E+04
       128  10 -3.252599E+05 -1.172017E+06 -3.494972E+05  2.157270E+05 -1.708063E-10 -2.581051E-10
       128  11 -1.263795E+05 -9.921608E+05 -1.951684E+05  1.337126E+05 -6.309045E-10 -1.387598E-10
       128  12 -6.778402E+04 -8.566583E+05 -1.222583E+05  1.006539E+05  3.484313E-10  4.797670E-10
       128  13 -1.724398E+05 -5.564548E+05 -2.010168E+05  1.212193E+05 -2.767866E-10  2.164338E-10
       128  14 -1.551763E+04 -5.359958E+05 -9.716102E+04  9.668729E+04 -1.314373E-10  6.113443E-11
       128  15  4.695117E+03 -5.563474E+05 -6.057828E+04  1.211271E+05  1.319552E-10  6.154204E-11
       128  16 -1.961371E+04  5.947377E+04 -5.255864E+04  2.661728E+04  8.360329E-11  2.772339E-10
       128  17  9.533574E+04 -7.963183E+04  8.348980E+02  5.963431E+04  3.410184E-10 -9.304216E-11
       128  18  7.717014E+04 -2.559498E+05  1.097149E+03  1.416103E+05 -3.385459E-10 -4.890272E-10
       128  19 -3.252528E+05 -1.171989E+06 -3.494483E+05  2.157280E+05  7.221483E+03  1.610475E+05
       128  20 -1.263768E+05 -9.921519E+05 -1.951523E+05  1.337141E+05  2.070638E+04  8.997815E+04
       128  21 -6.778360E+04 -8.566579E+05 -1.222571E+05  1.006542E+05  1.724992E+04  1.889420E+04
       128  22 -1.724349E+05 -5.564353E+05 -2.009825E+05  1.212201E+05  7.183510E+03  1.347452E+05
       128  23 -1.551527E+04 -5.359881E+05 -9.714696E+04  9.668869E+04  2.069630E+04  8.394381E+04
       128  24  4.695732E+03 -5.563461E+05 -6.057565E+04  1.211276E+05  1.726018E+04  3.314780E+04
       128  25 -1.961050E+04  5.948640E+04 -5.253646E+04  2.661790E+04  7.153586E+03  1.084167E+05
       128  26  9.533783E+04 -7.962520E+04  8.471085E+02  5.963561E+04  2.068694E+04  7.790508E+04
       128  27  7.717106E+04 -2.559474E+05  1.101934E+03  1.416110E+05  1.727137E+04  4.740819E+04
       129   1 -5.139174E+04 -7.350389E+05 -8.998743E+04  1.246353E+05 -1.054152E+04 -1.398278E+04
       129   2 -7.232631E+03 -5.747195E+05 -4.672868E+04  9.646733E+04 -1.776639E+03  6.515522E+03
       129   3  2.602430E+04 -4.198397E+05 -1.956929E+04  1.181430E+05  7.069375E+03  2.701858E+04
       129   4 -6.370297E+03 -5.484838E+05 -5.154085E+04  1.213403E+05 -1.054912E+04 -2.442822E+04
       129   5 -2.664038E+02 -5.457591E+05 -4.087567E+04  9.641759E+04 -1.784494E+03 -4.025011E+03
       129   6 -5.045905E+03 -5.484801E+05 -4.624057E+04  1.213392E+05  7.061403E+03  1.637795E+04
       129   7  3.864904E+04 -3.618953E+05 -1.309572E+04  1.180442E+05 -1.055660E+04 -3.487675E+04
       129   8  6.699831E+03 -5.167976E+05 -3.502230E+04  9.636785E+04 -1.792346E+03 -1.456603E+04
       129   9 -3.611706E+04 -6.771045E+05 -7.291232E+04  1.245348E+05  7.053321E+03  5.739493E+03
       129  10 -5.139191E+04 -7.350391E+05 -8.998801E+04  1.246352E+05  1.121273E-10 -1.257952E-10
       129  11 -7.232646E+03 -5.747196E+05 -4.672876E+04  9.646734E+04 -7.143242E-10 -5.434230E-11
       129  12  2.602405E+04 -4.198405E+05 -1.957076E+04  1.181428E+05  2.530027E-10  6.837284E-10
       129  13 -6.370577E+03 -5.484844E+05 -5.154218E+04  1.213401E+05 -7.587824E-10  2.936229E-10
       129  14 -2.664115E+02 -5.457591E+05 -4.087571E+04  9.641759E+04 -6.615999E-11  4.119250E-11
       129  15 -5.046031E+03 -5.484804E+05 -4.624117E+04  1.213391E+05 -1.894991E-10  5.821892E-11
       129  16  3.864860E+04 -3.618967E+05 -1.309822E+04  1.180439E+05 -2.497708E-10  2.838960E-10
       129  17  6.699771E+03 -5.167978E+05 -3.502270E+04  9.636783E+04 -1.334993E-10 -2.065102E-10
       129  18 -3.611712E+04 -6.771045E+05 -7.291248E+04  1.245348E+05  2.368534E-10 -6.226042E-10
       129  19 -5.139174E+04 -7.350389E+05 -8.998743E+04  1.246353E+05  1.054152E+04  1.398278E+04
       129  20 -7.232631E+03 -5.747195E+05 -4.672868E+04  9.646733E+04  1.776639E+03 -6.515522E+03
       129  21  2.602430E+04 -4.198397E+05 -1.956929E+04  1.181430E+05 -7.069375E+03 -2.701858E+04
       129  22 -6.370297E+03 -5.484838E+05 -5.154085E+04  1.213403E+05  1.054912E+04  2.442822E+04
       129  23 -2.664038E+02 -5.457591E+05 -4.087567E+04  9.641759E+04  1.784494E+03  4.025011E+03
       129  24 -5.045905E+03 -5.484801E+05 -4.624057E+04  1.213392E+05 -7.061403E+03 -1.637795E+04
       129  25  3.864904E+04 -3.618953E+05 -1.309572E+04  1.180442E+05  1.055660E+04  3.487675E+04
       129  26  6.699831E+03 -5.167976E+05 -3.502230E+04  9.636785E+04  1.792346E+03  1.456603E+04
       129  27 -3.611706E+04 -6.771045E+05 -7.291232E+04  1.245348E+05 -7.053321E+03 -5.739493E+03
       130   1  6.234456E+04 -3.122942E+05 -2.576373E+03  1.377314E+05  1.373398E+04  3.821729E+04
       130   2  8.424410E+04 -1.394956E+05  5.100295E+03  6.630644E+04  1.774354E+04  6.184517E+04
       130   3 -2.269047E+03  3.141578E+03 -2.971145E+04  4.393236E+04  6.277097E+03  8.548594E+04
       130   4  3.825017E+03 -5.547039E+05 -5.250890E+04  1.211495E+05  1.372288E+04  2.413111E+04
       130   5 -1.261360E+04 -5.380225E+05 -8.072910E+04  9.665889E+04  1.775021E+04  6.630033E+04
       130   6 -1.407329E+05 -5.547793E+05 -1.643430E+05  1.212300E+05  6.300620E+03  1.084753E+05
       130   7 -5.469710E+04 -7.970569E+05 -1.024437E+05  1.045742E+05  1.371254E+04  1.005034E+04
       130   8 -1.094783E+05 -9.363981E+05 -1.665673E+05  1.269916E+05  1.775733E+04  7.075266E+04
       130   9 -2.791967E+05 -1.112401E+06 -2.989916E+05  1.984579E+05  6.329884E+03  1.314440E+05
       130  10  6.234396E+04 -3.122958E+05 -2.579473E+03  1.377310E+05  6.665489E-10 -5.457526E-10
       130  11  8.424274E+04 -1.394998E+05  5.092515E+03  6.630555E+04  1.440488E-10 -2.615575E-10
       130  12 -2.271051E+03  3.133720E+03 -2.972526E+04  4.393192E+04 -2.554020E-11  3.327453E-10
       130  13  3.824658E+03 -5.547046E+05 -5.251035E+04  1.211492E+05  3.624170E-10  2.795876E-10
       130  14 -1.261512E+04 -5.380273E+05 -8.073796E+04  9.665794E+04  4.762439E-11 -1.856954E-10
       130  15 -1.407361E+05 -5.547920E+05 -1.643652E+05  1.212295E+05  1.728414E-10  3.920168E-11
       130  16 -5.469733E+04 -7.970571E+05 -1.024442E+05  1.045741E+05 -2.675359E-10  6.550201E-10
       130  17 -1.094799E+05 -9.364035E+05 -1.665773E+05  1.269905E+05  1.484879E-10  3.938281E-11
       130  18 -2.792013E+05 -1.112420E+06 -2.990242E+05  1.984572E+05 -2.913070E-10 -2.794503E-10
       130  19  6.234456E+04 -3.122942E+05 -2.576373E+03  1.377314E+05 -1.373398E+04 -3.821729E+04
       130  20  8.424410E+04 -1.394956E+05  5.100295E+03  6.630644E+04 -1.774354E+04 -6.184517E+04
       130  21 -2.269047E+03  3.141578E+03 -2.971145E+04  4.393236E+04 -6.277097E+03 -8.548594E+04
       130  22  3.825017E+03 -5.547039E+05 -5.250890E+04  1.211495E+05 -1.372288E+04 -2.413111E+04
       130  23 -1.261360E+04 -5.380225E+05 -8.072910E+04  9.665889E+04 -1.775021E+04 -6.630033E+04
       130  24 -1.407329E+05 -5.547793E+05 -1.643430E+05  1.212300E+05 -6.300620E+03 -1.084753E+05
       130  25 -5.469710E+04 -7.970569E+05 -1.024437E+05  1.045742E+05 -1.371254E+04 -1.005034E+04
       130  26 -1.094783E+05 -9.363981E+05 -1.665673E+05  1.269916E+05 -1.775733E+04 -7.075266E+04
       130  27 -2.791967E+05 -1.112401E+06 -2.989916E+05  1.984579E+05 -6.329884E+03 -1.314440E+05
       131   1  5.202782E+05  3.791506E+05  8.531695E+04  3.756689E+05  5.569476E+04  4.331204E+04
       131   2  5.234674E+05  3.028269E+05  3.401119E+04  4.097379E+05  3.524361E+04  3.118147E+04
       131   3  5.722990E+05  2.761465E+05  1.652664E+04  4.171713E+05  1.638655E+04  1.692230E+04
       131   4  6.420973E+05  3.811176E+05  1.091206E+05  3.970309E+05  5.944805E+04  4.611806E+04
       131   5  6.016682E+05  3.251506E+05  5.124151E+04  4.335043E+05  3.643281E+04  3.207088E+04
       131   6  6.074285E+05  3.193745E+05  2.939986E+04  4.433434E+05  1.501392E+04  1.589400E+04
       131   7  7.639386E+05  3.830879E+05  1.329253E+05  4.183935E+05  6.320245E+04  4.892393E+04
       131   8  6.798764E+05  3.474751E+05  6.847168E+04  4.572728E+05  3.762223E+04  3.296033E+04
       131   9  6.425592E+05  3.626047E+05  4.227275E+04  4.695173E+05  1.364120E+04  1.486556E+04
       131  10  5.202744E+05  3.791478E+05  8.530761E+04  3.756669E+05 -2.057443E-10 -3.929419E-11
       131  11  5.234658E+05  3.028255E+05  3.400704E+04  4.097370E+05  2.712850E-10  1.855595E-10
       131  12  5.722986E+05  2.761462E+05  1.652559E+04  4.171711E+05  4.132318E-10  2.974474E-10
       131  13  6.420929E+05  3.811144E+05  1.091100E+05  3.970287E+05  1.408078E-10  7.074735E-11
       131  14  6.016665E+05  3.251492E+05  5.123709E+04  4.335033E+05 -8.739552E-12  1.434574E-10
       131  15  6.074282E+05  3.193742E+05  2.939896E+04  4.433432E+05  5.905594E-10  5.938323E-11
       131  16  7.639337E+05  3.830842E+05  1.329134E+05  4.183910E+05  8.935791E-11  1.573168E-10
       131  17  6.798746E+05  3.474735E+05  6.846698E+04  4.572718E+05 -2.372717E-10 -7.472202E-12
       131  18  6.425589E+05  3.626044E+05  4.227198E+04  4.695171E+05 -1.176445E-10 -1.891290E-10
       131  19  5.202782E+05  3.791506E+05  8.531695E+04  3.756689E+05 -5.569476E+04 -4.331204E+04
       131  20  5.234674E+05  3.028269E+05  3.401119E+04  4.097379E+05 -3.524361E+04 -3.118147E+04
       131  21  5.722990E+05  2.761465E+05  1.652664E+04  4.171713E+05 -1.638655E+04 -1.692230E+04
       131  22  6.420973E+05  3.811176E+05  1.091206E+05  3.970309E+05 -5.944805E+04 -4.611806E+04
       131  23  6.016682E+05  3.251506E+05  5.124151E+04  4.335043E+05 -3.643281E+04 -3.207088E+04
       131  24  6.074285E+05  3.193745E+05  2.939986E+04  4.433434E+05 -1.501392E+04 -1.589400E+04
       131  25  7.639386E+05  3.830879E+05  1.329253E+05  4.183935E+05 -6.320245E+04 -4.892393E+04
       131  26  6.798764E+05  3.474751E+05  6.847168E+04  4.572728E+05 -3.762223E+04 -3.296033E+04
       131  27  6.425592E+05  3.626047E+05  4.227275E+04  4.695173E+05 -1.364120E+04 -1.486556E+04
       132   1  5.691531E+05  2.971100E+05  1.293223E+04  4.202235E+05  1.314105E+04  1.350868E+04
       132   2  5.785738E+05  3.055396E+05  6.911695E+03  4.286187E+05  8.504862E+03  8.812078E+03
       132   3  5.956780E+05  3.112061E+05  5.950472E+03  4.346565E+05  3.956370E+03  3.998141E+03
       132   4  6.067975E+05  3.217136E+05  2.317517E+04  4.381653E+05  1.227236E+04  1.285754E+04
       132   5  6.022364E+05  3.218243E+05  1.343139E+04  4.402869E+05  7.494917E+03  8.055129E+03
       132   6  6.053889E+05  3.192022E+05  8.868939E+03  4.400511E+05  2.805301E+03  3.135456E+03
       132   7  6.444435E+05  3.463179E+05  3.341800E+04  4.561082E+05  1.140359E+04  1.220634E+04
       132   8  6.258997E+05  3.381094E+05  1.995110E+04  4.519558E+05  6.484913E+03  7.298137E+03
       132   9  6.151000E+05  3.271985E+05  1.178745E+04  4.454458E+05  1.654194E+03  2.272739E+03
       132  10  5.691528E+05  2.971098E+05  1.293156E+04  4.202234E+05  5.199505E-11  1.675690E-11
       132  11  5.785737E+05  3.055395E+05  6.911414E+03  4.286186E+05 -1.602903E-10  1.222498E-10
       132  12  5.956780E+05  3.112061E+05  5.950413E+03  4.346565E+05  5.207175E-10  2.655136E-10
       132  13  6.067973E+05  3.217134E+05  2.317458E+04  4.381651E+05  4.173570E-10  9.052207E-11
       132  14  6.022363E+05  3.218242E+05  1.343116E+04  4.402869E+05 -9.579657E-11  2.745448E-10
       132  15  6.053889E+05  3.192022E+05  8.868906E+03  4.400511E+05 -1.545379E-10  6.198566E-11
       132  16  6.444433E+05  3.463177E+05  3.341747E+04  4.561081E+05  1.621975E-10  1.361102E-11
       132  17  6.258997E+05  3.381093E+05  1.995092E+04  4.519557E+05 -1.400298E-10 -9.163002E-11
       132  18  6.151000E+05  3.271985E+05  1.178744E+04  4.454457E+05 -6.338119E-10 -1.562065E-10
       132  19  5.691531E+05  2.971100E+05  1.293223E+04  4.202235E+05 -1.314105E+04 -1.350868E+04
       132  20  5.785738E+05  3.055396E+05  6.911695E+03  4.286187E+05 -8.504862E+03 -8.812078E+03
       132  21  5.956780E+05  3.112061E+05  5.950472E+03  4.346565E+05 -3.956370E+03 -3.998141E+03
       132  22  6.067975E+05  3.217136E+05  2.317517E+04  4.381653E+05 -1.227236E+04 -1.285754E+04
       132  23  6.022364E+05  3.218243E+05  1.343139E+04  4.402869E+05 -7.494917E+03 -8.055129E+03
       132  24  6.053889E+05  3.192022E+05  8.868939E+03  4.400511E+05 -2.805301E+03 -3.135456E+03
       132  25  6.444435E+05  3.463179E+05  3.341800E+04  4.561082E+05 -1.140359E+04 -1.220634E+04
       132  26  6.258997E+05  3.381094E+05  1.995110E+04  4.519558E+05 -6.484913E+03 -7.298137E+03
       132  27  6.151000E+05  3.271985E+05  1.178745E+04  4.454458E+05 -1.654194E+03 -2.272739E+03
       133   1  6.043858E+05  3.185004E+05  7.480318E+03  4.392807E+05  3.167533E+03  2.537977E+03
       133   2  6.143523E+05  3.303451E+05  1.040019E+04  4.466056E+05  1.064182E+03 -4.995759E+02
       133   3  6.302433E+05  3.371561E+05  1.568626E+04  4.524301E+05 -1.040593E+03 -3.535275E+03
       133   4  6.053172E+05  3.192711E+05  7.722005E+03  4.398066E+05  2.042379E+03  1.694712E+03
       133   5  6.023599E+05  3.217968E+05  7.074046E+03  4.405501E+05 -5.869596E+01 -1.341143E+03
       133   6  6.053267E+05  3.192885E+05  8.790450E+03  4.397931E+05 -2.161134E+03 -4.375100E+03
       133   7  6.062486E+05  3.200418E+05  7.963694E+03  4.403325E+05  9.172381E+02  8.514557E+02
       133   8  5.903678E+05  3.132487E+05  3.747928E+03  4.344948E+05 -1.181537E+03 -2.182682E+03
       133   9  5.804108E+05  3.014213E+05  1.894596E+03  4.271568E+05 -3.281613E+03 -5.214878E+03
       133  10  6.043857E+05  3.185004E+05  7.480287E+03  4.392806E+05  4.982324E-10  3.033073E-11
       133  11  6.143523E+05  3.303451E+05  1.040018E+04  4.466056E+05  3.084062E-10 -6.857870E-11
       133  12  6.302433E+05  3.371561E+05  1.568623E+04  4.524301E+05 -7.095593E-11  1.494133E-10
       133  13  6.053172E+05  3.192711E+05  7.721992E+03  4.398066E+05  2.803279E-10 -4.270200E-11
       133  14  6.023599E+05  3.217968E+05  7.074043E+03  4.405501E+05 -4.152836E-11  2.036452E-10
       133  15  6.053267E+05  3.192885E+05  8.790406E+03  4.397931E+05 -4.884043E-10  3.685031E-10
       133  16  6.062486E+05  3.200418E+05  7.963691E+03  4.403325E+05 -4.240624E-10  7.690190E-11
       133  17  5.903678E+05  3.132487E+05  3.747917E+03  4.344948E+05  1.634044E-10  3.319351E-10
       133  18  5.804108E+05  3.014213E+05  1.894524E+03  4.271568E+05  3.255861E-10  4.948768E-10
       133  19  6.043858E+05  3.185004E+05  7.480318E+03  4.392807E+05 -3.167533E+03 -2.537977E+03
       133  20  6.143523E+05  3.303451E+05  1.040019E+04  4.466056E+05 -1.064182E+03  4.995759E+02
       133  21  6.302433E+05  3.371561E+05  1.568626E+04  4.524301E+05  1.040593E+03  3.535275E+03
       133  22  6.053172E+05  3.192711E+05  7.722005E+03  4.398066E+05 -2.042379E+03 -1.694712E+03
       133  23  6.023599E+05  3.217968E+05  7.074046E+03  4.405501E+05  5.869596E+01  1.341143E+03
       133  24  6.053267E+05  3.192885E+05  8.790450E+03  4.397931E+05  2.161134E+03  4.375100E+03
       133  25  6.062486E+05  3.200418E+05  7.963694E+03  4.403325E+05 -9.172381E+02 -8.514557E+02
       133  26  5.903678E+05  3.132487E+05  3.747928E+03  4.344948E+05  1.181537E+03  2.182682E+03
       133  27  5.804108E+05  3.014213E+05  1.894596E+03  4.271568E+05  3.281613E+03  5.214878E+03
       134   1  6.389825E+05  3.444502E+05  2.013102E+04  4.576766E+05 -1.959899E+03 -5.095792E+03
       134   2  6.499682E+05  3.550727E+05  3.003294E+04  4.639595E+05 -8.208277E+03 -1.116226E+04
       134   3  6.693524E+05  3.637709E+05  4.662256E+04  4.676471E+05 -1.457242E+04 -1.707489E+04
       134   4  6.054366E+05  3.192033E+05  1.055934E+04  4.401250E+05 -3.116298E+03 -5.962507E+03
       134   5  6.021649E+05  3.218036E+05  1.683946E+04  4.402075E+05 -9.178997E+03 -1.188988E+04
       134   6  6.072515E+05  3.224394E+05  2.964693E+04  4.376943E+05 -1.535717E+04 -1.766322E+04
       134   7  5.718916E+05  2.939568E+05  9.874058E+02  4.225744E+05 -4.272627E+03 -6.829165E+03
       134   8  5.543641E+05  2.885357E+05  3.645770E+03  4.164575E+05 -1.014962E+04 -1.261743E+04
       134   9  5.451557E+05  2.811102E+05  1.267120E+04  4.077452E+05 -1.614180E+04 -1.825148E+04
       134  10  6.389825E+05  3.444501E+05  2.013096E+04  4.576766E+05  4.182063E-11  2.483889E-10
       134  11  6.499681E+05  3.550726E+05  3.003258E+04  4.639595E+05 -4.669668E-10 -9.277636E-11
       134  12  6.693520E+05  3.637706E+05  4.662161E+04  4.676469E+05 -6.283114E-10  3.974439E-11
       134  13  6.054366E+05  3.192032E+05  1.055925E+04  4.401250E+05 -6.950563E-10  3.066363E-10
       134  14  6.021648E+05  3.218034E+05  1.683904E+04  4.402074E+05 -5.267816E-10  2.624833E-10
       134  15  6.072512E+05  3.224390E+05  2.964590E+04  4.376941E+05  1.763348E-10  9.046609E-12
       134  16  5.718915E+05  2.939567E+05  9.872840E+02  4.225743E+05 -3.568605E-10  3.696727E-10
       134  17  5.543639E+05  2.885355E+05  3.645278E+03  4.164574E+05  1.753556E-10  2.954713E-10
       134  18  5.451553E+05  2.811098E+05  1.267008E+04  4.077450E+05  1.945719E-10  2.624768E-10
       134  19  6.389825E+05  3.444502E+05  2.013102E+04  4.576766E+05  1.959899E+03  5.095792E+03
       134  20  6.499682E+05  3.550727E+05  3.003294E+04  4.639595E+05  8.208277E+03  1.116226E+04
       134  21  6.693524E+05  3.637709E+05  4.662256E+04  4.676471E+05  1.457242E+04  1.707489E+04
       134  22  6.054366E+05  3.192033E+05  1.055934E+04  4.401250E+05  3.116298E+03  5.962507E+03
       134  23  6.021649E+05  3.218036E+05  1.683946E+04  4.402075E+05  9.178997E+03  1.188988E+04
       134  24  6.072515E+05  3.224394E+05  2.964693E+04  4.376943E+05  1.535717E+04  1.766322E+04
       134  25  5.718916E+05  2.939568E+05  9.874058E+02  4.225744E+05  4.272627E+03  6.829165E+03
       134  26  5.543641E+05  2.885357E+05  3.645770E+03  4.164575E+05  1.014962E+04  1.261743E+04
       134  27  5.451557E+05  2.811102E+05  1.267120E+04  4.077452E+05  1.614180E+04  1.825148E+04
       135   1  6.642138E+05  3.828890E+05  5.735695E+04  4.836087E+05 -1.753231E+04 -2.031552E+04
       135   2  7.094259E+05  3.598913E+05  9.029105E+04  4.656701E+05 -4.874723E+04 -4.340666E+04
       135   3  8.134361E+05  4.040098E+05  1.726509E+05  4.137959E+05 -8.206662E+04 -6.369326E+04
       135   4  6.080695E+05  3.194218E+05  3.776152E+04  4.443845E+05 -1.898051E+04 -2.140035E+04
       135   5  6.014235E+05  3.260885E+05  6.607798E+04  4.314494E+05 -4.682274E+04 -4.196755E+04
       135   6  6.528453E+05  3.991474E+05  1.409028E+05  3.845785E+05 -7.676560E+04 -5.973326E+04
       135   7  5.519291E+05  2.559603E+05  1.816573E+04  4.051652E+05 -2.042853E+04 -2.248494E+04
       135   8  4.934344E+05  2.922869E+05  4.186436E+04  3.972329E+05 -4.489870E+04 -4.052853E+04
       135   9  4.922880E+05  3.942903E+05  1.091556E+05  3.553617E+05 -7.146648E+04 -5.577292E+04
       135  10  6.642133E+05  3.828885E+05  5.735560E+04  4.836084E+05 -1.734685E-10  9.190380E-11
       135  11  7.094229E+05  3.598886E+05  9.028305E+04  4.656684E+05  4.404134E-11  5.079682E-11
       135  12  8.134277E+05  4.040036E+05  1.726306E+05  4.137917E+05 -1.263166E-10  2.950304E-11
       135  13  6.080690E+05  3.194212E+05  3.775999E+04  4.443841E+05 -5.877453E-11  1.232830E-10
       135  14  6.014207E+05  3.260860E+05  6.607056E+04  4.314478E+05  6.457935E-10  3.878778E-11
       135  15  6.528380E+05  3.991420E+05  1.408850E+05  3.845748E+05  6.080166E-11  1.620221E-11
       135  16  5.519285E+05  2.559596E+05  1.816400E+04  4.051648E+05  2.673747E-10  6.310787E-11
       135  17  4.934318E+05  2.922846E+05  4.185749E+04  3.972314E+05  2.016992E-10  1.510834E-10
       135  18  4.922817E+05  3.942856E+05  1.091401E+05  3.553585E+05  4.311312E-11 -1.453121E-11
       135  19  6.642138E+05  3.828890E+05  5.735695E+04  4.836087E+05  1.753231E+04  2.031552E+04
       135  20  7.094259E+05  3.598913E+05  9.029105E+04  4.656701E+05  4.874723E+04  4.340666E+04
       135  21  8.134361E+05  4.040098E+05  1.726509E+05  4.137959E+05  8.206662E+04  6.369326E+04
       135  22  6.080695E+05  3.194218E+05  3.776152E+04  4.443845E+05  1.898051E+04  2.140035E+04
       135  23  6.014235E+05  3.260885E+05  6.607798E+04  4.314494E+05  4.682274E+04  4.196755E+04
       135  24  6.528453E+05  3.991474E+05  1.409028E+05  3.845785E+05  7.676560E+04  5.973326E+04
       135  25  5.519291E+05  2.559603E+05  1.816573E+04  4.051652E+05  2.042853E+04  2.248494E+04
       135  26  4.934344E+05  2.922869E+05  4.186436E+04  3.972329E+05  4.489870E+04  4.052853E+04
       135  27  4.922880E+05  3.942903E+05  1.091556E+05  3.553617E+05  7.146648E+04  5.577292E+04
       136   1  9.649544E+05  1.338912E+05  1.425251E+05  7.403798E+04  6.557833E+04 -3.442696E+03
       136   2  9.073521E+05  6.017466E+04  8.402607E+04  4.439197E+04  3.769367E+04 -1.054281E+04
       136   3  8.668570E+05  4.035354E+04  5.713717E+04  2.985278E+04  9.811825E+03 -1.031241E+04
       136   4  6.915900E+05  6.615679E+04  7.693951E+04  3.771592E+04  5.263379E+04 -3.446032E+03
       136   5  6.838125E+05  5.987576E+03  3.642977E+04  3.016290E+04  3.356178E+04 -1.054398E+04
       136   6  6.916192E+05 -1.804838E+03  2.142417E+04  3.771518E+04  1.449017E+04 -1.031220E+04
       136   7  4.182971E+05 -1.578009E+03  1.134997E+04  1.409896E+03  3.969491E+04 -3.447857E+03
       136   8  4.603204E+05 -4.820199E+04 -1.116923E+04  1.593903E+04  2.943134E+04 -1.054495E+04
       136   9  5.164108E+05 -4.396489E+04 -1.429033E+04  4.557532E+04  1.916721E+04 -1.031187E+04
       136  10  9.649498E+05  1.338900E+05  1.425170E+05  7.403816E+04 -1.744745E-10  7.707031E-11
       136  11  9.073505E+05  6.017416E+04  8.402319E+04  4.439229E+04 -4.092349E-10  1.402356E-10
       136  12  8.668568E+05  4.035340E+04  5.713678E+04  2.985286E+04  5.607329E-10  3.800606E-11
       136  13  6.915870E+05  6.615603E+04  7.693428E+04  3.771607E+04 -3.156231E-10  6.480507E-11
       136  14  6.838113E+05  5.987154E+03  3.642745E+04  3.016319E+04  4.473259E-11  2.114598E-10
       136  15  6.916190E+05 -1.805008E+03  2.142357E+04  3.771530E+04 -5.096473E-11  1.299590E-10
       136  16  4.182954E+05 -1.578445E+03  1.134699E+04  1.410006E+03 -2.047984E-11  6.804014E-11
       136  17  4.603195E+05 -4.820234E+04 -1.117106E+04  1.593928E+04 -5.416288E-10  1.262105E-10
       136  18  5.164104E+05 -4.396510E+04 -1.429122E+04  4.557548E+04 -1.506786E-10  2.120077E-10
       136  19  9.649544E+05  1.338912E+05  1.425251E+05  7.403798E+04 -6.557833E+04  3.442696E+03
       136  20  9.073521E+05  6.017466E+04  8.402607E+04  4.439197E+04 -3.769367E+04  1.054281E+04
       136  21  8.668570E+05  4.035354E+04  5.713717E+04  2.985278E+04 -9.811825E+03  1.031241E+04
       136  22  6.915900E+05  6.615679E+04  7.693951E+04  3.771592E+04 -5.263379E+04  3.446032E+03
       136  23  6.838125E+05  5.987576E+03  3.642977E+04  3.016290E+04 -3.356178E+04  1.054398E+04
       136  24  6.916192E+05 -1.804838E+03  2.142417E+04  3.771518E+04 -1.449017E+04  1.031220E+04
       136  25  4.182971E+05 -1.578009E+03  1.134997E+04  1.409896E+03 -3.969491E+04  3.447857E+03
       136  26  4.603204E+05 -4.820199E+04 -1.116923E+04  1.593903E+04 -2.943134E+04  1.054495E+04
       136  27  5.164108E+05 -4.396489E+04 -1.429033E+04  4.557532E+04 -1.916721E+04  1.031187E+04
       137   1  8.283048E+05  3.624420E+04  4.585089E+04  3.873135E+04  8.560628E+03 -8.169570E+03
       137   2  7.787039E+05  2.188457E+04  2.961275E+04  3.034414E+04  2.505140E+03 -5.520446E+03
       137   3  7.305207E+05  1.003780E+04  1.794116E+04  3.741266E+04 -3.550143E+03 -2.484955E+03
       137   4  6.884520E+05  2.587493E+03  1.730121E+04  3.779343E+04  1.150980E+04 -8.169459E+03
       137   5  6.877867E+05  3.666417E+01  1.121554E+04  3.006567E+04  5.919375E+03 -5.520142E+03
       137   6  6.884567E+05 -8.147633E+01  9.374608E+03  3.779372E+04  3.286958E+02 -2.484439E+03
       137   7  5.486179E+05 -3.107043E+04 -1.124947E+04  3.685573E+04  1.445832E+04 -8.169357E+03
       137   8  5.968774E+05 -2.181175E+04 -7.182060E+03  2.978724E+04  9.333120E+03 -5.519842E+03
       137   9  6.463944E+05 -1.020086E+04  8.080170E+02  3.817476E+04  4.207276E+03 -2.483918E+03
       137  10  8.283047E+05  3.624411E+04  4.585062E+04  3.873140E+04  1.420613E-11  5.090382E-11
       137  11  7.787039E+05  2.188454E+04  2.961268E+04  3.034415E+04  2.366237E-10  9.252396E-11
       137  12  7.305207E+05  1.003779E+04  1.794113E+04  3.741265E+04  5.281240E-10  6.742203E-11
       137  13  6.884519E+05  2.587386E+03  1.730083E+04  3.779351E+04 -3.763428E-10  5.011079E-11
       137  14  6.877867E+05  3.662205E+01  1.121541E+04  3.006569E+04 -2.684000E-10  1.707145E-10
       137  15  6.884567E+05 -8.148299E+01  9.374596E+03  3.779372E+04 -1.762473E-10  8.956512E-12
       137  16  5.486176E+05 -3.107056E+04 -1.124999E+04  3.685582E+04 -1.052721E-10  1.405968E-10
       137  17  5.968773E+05 -2.181180E+04 -7.182281E+03  2.978728E+04 -3.994094E-10 -4.285110E-11
       137  18  6.463944E+05 -1.020087E+04  8.079722E+02  3.817477E+04 -3.280458E-10 -1.189096E-10
       137  19  8.283048E+05  3.624420E+04  4.585089E+04  3.873135E+04 -8.560628E+03  8.169570E+03
       137  20  7.787039E+05  2.188457E+04  2.961275E+04  3.034414E+04 -2.505140E+03  5.520446E+03
       137  21  7.305207E+05  1.003780E+04  1.794116E+04  3.741266E+04  3.550143E+03  2.484955E+03
       137  22  6.884520E+05  2.587493E+03  1.730121E+04  3.779343E+04 -1.150980E+04  8.169459E+03
       137  23  6.877867E+05  3.666417E+01  1.121554E+04  3.006567E+04 -5.919375E+03  5.520142E+03
       137  24  6.884567E+05 -8.147633E+01  9.374608E+03  3.779372E+04 -3.286958E+02  2.484439E+03
       137  25  5.486179E+05 -3.107043E+04 -1.124947E+04  3.685573E+04 -1.445832E+04  8.169357E+03
       137  26  5.968774E+05 -2.181175E+04 -7.182060E+03  2.978724E+04 -9.333120E+03  5.519842E+03
       137  27  6.463944E+05 -1.020086E+04  8.080170E+02  3.817476E+04 -4.207276E+03  2.483918E+03
       138   1  6.954367E+05  1.537444E+03  1.083061E+04  3.827988E+04 -5.204896E+03 -5.799788E+02
       138   2  6.458574E+05 -1.002147E+04  3.637523E+03  2.978604E+04 -1.089306E+04  2.477811E+03
       138   3  5.976901E+05 -1.889712E+04  8.153019E+02  3.674688E+04 -1.658061E+04  5.220983E+03
       138   4  6.884880E+05 -1.080431E+02  9.547258E+03  3.779346E+04 -1.342758E+03 -5.794316E+02
       138   5  6.877490E+05  5.630957E+01  1.216559E+04  3.006599E+04 -7.409268E+03  2.478225E+03
       138   6  6.884844E+05  2.969298E+03  1.941678E+04  3.779308E+04 -1.347558E+04  5.221267E+03
       138   7  6.815392E+05 -1.753524E+03  8.263959E+03  3.730704E+04  2.519337E+03 -5.788904E+02
       138   8  7.296423E+05  1.013399E+04  2.069361E+04  3.034596E+04 -3.925244E+03  2.478641E+03
       138   9  7.792865E+05  2.483521E+04  3.801785E+04  3.883942E+04 -1.037011E+04  5.221561E+03
       138  10  6.954367E+05  1.537436E+03  1.083056E+04  3.827988E+04  7.937305E-11  5.404443E-11
       138  11  6.458573E+05 -1.002151E+04  3.637289E+03  2.978606E+04  4.385840E-10  1.547925E-10
       138  12  5.976898E+05 -1.889722E+04  8.147345E+02  3.674695E+04  2.238363E-11  6.750125E-11
       138  13  6.884880E+05 -1.080440E+02  9.547254E+03  3.779346E+04  2.609036E-10 -9.261622E-11
       138  14  6.877490E+05  5.628825E+01  1.216547E+04  3.006601E+04 -2.516587E-10 -1.140317E-10
       138  15  6.884842E+05  2.969220E+03  1.941638E+04  3.779313E+04 -1.014370E-10 -6.089827E-11
       138  16  6.815392E+05 -1.753526E+03  8.263946E+03  3.730704E+04  1.490529E-10 -1.414129E-10
       138  17  7.296423E+05  1.013398E+04  2.069357E+04  3.034597E+04 -5.489555E-11 -1.622530E-10
       138  18  7.792864E+05  2.483515E+04  3.801760E+04  3.883947E+04 -1.720829E-10 -1.290794E-10
       138  19  6.954367E+05  1.537444E+03  1.083061E+04  3.827988E+04  5.204896E+03  5.799788E+02
       138  20  6.458574E+05 -1.002147E+04  3.637523E+03  2.978604E+04  1.089306E+04 -2.477811E+03
       138  21  5.976901E+05 -1.889712E+04  8.153019E+02  3.674688E+04  1.658061E+04 -5.220983E+03
       138  22  6.884880E+05 -1.080431E+02  9.547258E+03  3.779346E+04  1.342758E+03  5.794316E+02
       138  23  6.877490E+05  5.630957E+01  1.216559E+04  3.006599E+04  7.409268E+03 -2.478225E+03
       138  24  6.884844E+05  2.969298E+03  1.941678E+04  3.779308E+04  1.347558E+04 -5.221267E+03
       138  25  6.815392E+05 -1.753524E+03  8.263959E+03  3.730704E+04 -2.519337E+03  5.788904E+02
       138  26  7.296423E+05  1.013399E+04  2.069361E+04  3.034596E+04  3.925244E+03 -2.478641E+03
       138  27  7.792865E+05  2.483521E+04  3.801785E+04  3.883942E+04  1.037011E+04 -5.221561E+03
       139   1  5.660077E+05 -3.241257E+04 -1.554922E+03  4.673071E+04 -2.136518E+04  7.317842E+03
       139   2  5.087373E+05 -3.547116E+04  4.240192E+03  1.388984E+04 -3.579429E+04  8.055514E+03
       139   3  4.680094E+05  2.009689E+04  3.408295E+04 -3.794398E+03 -5.022239E+04  2.704894E+03
       139   4  6.921148E+05 -2.053896E+03  2.422977E+04  3.772698E+04 -1.682642E+04  7.318505E+03
       139   5  6.831981E+05  6.857677E+03  4.153196E+04  3.014792E+04 -3.857242E+04  8.054261E+03
       139   6  6.920838E+05  7.565365E+04  8.795383E+04  3.772426E+04 -6.031889E+04  2.701325E+03
       139   7  8.182372E+05  2.830410E+04  5.001375E+04  2.872139E+04 -1.228676E+04  7.319036E+03
       139   8  8.576882E+05  4.918552E+04  7.882214E+04  4.641063E+04 -4.135131E+04  8.052863E+03
       139   9  9.162080E+05  1.312133E+05  1.418224E+05  7.925794E+04 -7.041901E+04  2.696408E+03
       139  10  5.660072E+05 -3.241275E+04 -1.555880E+03  4.673084E+04  5.031107E-11  2.545238E-11
       139  11  5.087359E+05 -3.547157E+04  4.237665E+03  1.389007E+04 -8.320032E-11 -8.359342E-11
       139  12  4.680067E+05  2.009620E+04  3.407820E+04 -3.794289E+03 -7.091579E-11  4.987716E-12
       139  13  6.921144E+05 -2.054029E+03  2.422914E+04  3.772708E+04  5.127053E-10  4.506288E-11
       139  14  6.831965E+05  6.857208E+03  4.152905E+04  3.014817E+04  1.037803E-10  7.779827E-11
       139  15  6.920799E+05  7.565267E+04  8.794699E+04  3.772439E+04 -3.426709E-10  1.073010E-11
       139  16  8.182370E+05  2.830400E+04  5.001337E+04  2.872146E+04  1.248979E-10 -5.007577E-11
       139  17  8.576863E+05  4.918499E+04  7.881880E+04  4.641090E+04  5.536752E-10  5.488713E-11
       139  18  9.162027E+05  1.312120E+05  1.418131E+05  7.925809E+04 -5.968110E-11  2.068156E-11
       139  19  5.660077E+05 -3.241257E+04 -1.554922E+03  4.673071E+04  2.136518E+04 -7.317842E+03
       139  20  5.087373E+05 -3.547116E+04  4.240192E+03  1.388984E+04  3.579429E+04 -8.055514E+03
       139  21  4.680094E+05  2.009689E+04  3.408295E+04 -3.794398E+03  5.022239E+04 -2.704894E+03
       139  22  6.921148E+05 -2.053896E+03  2.422977E+04  3.772698E+04  1.682642E+04 -7.318505E+03
       139  23  6.831981E+05  6.857677E+03  4.153196E+04  3.014792E+04  3.857242E+04 -8.054261E+03
       139  24  6.920838E+05  7.565365E+04  8.795383E+04  3.772426E+04  6.031889E+04 -2.701325E+03
       139  25  8.182372E+05  2.830410E+04  5.001375E+04  2.872139E+04  1.228676E+04 -7.319036E+03
       139  26  8.576882E+05  4.918552E+04  7.882214E+04  4.641063E+04  4.135131E+04 -8.052863E+03
       139  27  9.162080E+05  1.312133E+05  1.418224E+05  7.925794E+04  7.041901E+04 -2.696408E+03
       140   1 -2.441331E+05 -8.892923E+05 -2.657832E+05  1.545481E+05 -4.608835E+03 -1.317382E+05
       140   2 -8.435287E+04 -7.750417E+05 -1.462085E+05  9.048865E+04 -1.335096E+04 -7.533279E+04
       140   3 -4.381062E+04 -6.979567E+05 -9.319992E+04  5.610376E+04 -1.142031E+04 -1.891921E+04
       140   4 -1.475247E+05 -5.000955E+05 -1.719724E+05  7.355640E+04 -4.586769E+03 -1.148656E+05
       140   5 -1.329870E+04 -4.826022E+05 -8.345544E+04  5.869156E+04 -1.334524E+04 -7.123843E+04
       140   6  3.934944E+03 -5.000439E+05 -5.259941E+04  7.351096E+04 -1.142424E+04 -2.761288E+04
       140   7 -5.090258E+04 -1.107453E+05 -7.816769E+04 -7.486333E+03 -4.569121E+03 -9.798234E+04
       140   8  5.775369E+04 -1.900799E+05 -2.070678E+04  2.687924E+04 -1.333993E+04 -6.714217E+04
       140   9  5.167922E+04 -3.020931E+05 -1.200054E+04  9.092381E+04 -1.142866E+04 -3.630928E+04
       140  10 -2.441378E+05 -8.893109E+05 -2.658159E+05  1.545476E+05 -3.461783E-10 -1.769587E-10
       140  11 -8.435458E+04 -7.750478E+05 -1.462195E+05  9.048784E+04  3.871734E-10  1.770296E-10
       140  12 -4.381086E+04 -6.979572E+05 -9.320084E+04  5.610359E+04 -9.591883E-11  8.465423E-10
       140  13 -1.475283E+05 -5.001097E+05 -1.719972E+05  7.355598E+04 -1.654373E-11 -8.306044E-12
       140  14 -1.330025E+04 -4.826077E+05 -8.346532E+04  5.869079E+04 -1.847635E-10 -1.119204E-10
       140  15  3.934599E+03 -5.000448E+05 -5.260109E+04  7.351071E+04  3.644638E-10  5.527581E-12
       140  16 -5.090518E+04 -1.107556E+05 -7.818577E+04 -7.486693E+03 -3.355429E-11  2.417783E-10
       140  17  5.775228E+04 -1.900848E+05 -2.071559E+04  2.687852E+04 -3.109813E-10 -2.886390E-10
       140  18  5.167873E+04 -3.020945E+05 -1.200326E+04  9.092348E+04  5.096519E-10 -9.246671E-10
       140  19 -2.441331E+05 -8.892923E+05 -2.657832E+05  1.545481E+05  4.608835E+03  1.317382E+05
       140  20 -8.435287E+04 -7.750417E+05 -1.462085E+05  9.048865E+04  1.335096E+04  7.533279E+04
       140  21 -4.381062E+04 -6.979567E+05 -9.319992E+04  5.610376E+04  1.142031E+04  1.891921E+04
       140  22 -1.475247E+05 -5.000955E+05 -1.719724E+05  7.355640E+04  4.586769E+03  1.148656E+05
       140  23 -1.329870E+04 -4.826022E+05 -8.345544E+04  5.869156E+04  1.334524E+04  7.123843E+04
       140  24  3.934944E+03 -5.000439E+05 -5.259941E+04  7.351096E+04  1.142424E+04  2.761288E+04
       140  25 -5.090258E+04 -1.107453E+05 -7.816769E+04 -7.486333E+03  4.569121E+03  9.798234E+04
       140  26  5.775369E+04 -1.900799E+05 -2.070678E+04  2.687924E+04  1.333993E+04  6.714217E+04
       140  27  5.167922E+04 -3.020931E+05 -1.200054E+04  9.092381E+04  1.142866E+04  3.630928E+04
       141   1 -3.658495E+04 -6.222437E+05 -7.166685E+04  7.662979E+04 -7.337527E+03 -1.370273E+04
       141   2 -8.308064E+03 -5.241769E+05 -4.360722E+04  5.853844E+04 -2.043254E+03  4.823116E+03
       141   3  1.009908E+04 -4.310066E+05 -3.009002E+04  7.068694E+04  3.344425E+03  2.335151E+04
       141   4 -5.493999E+03 -4.933668E+05 -4.515420E+04  7.364348E+04 -7.340162E+03 -1.998741E+04
       141   5 -3.094137E+02 -4.909229E+05 -3.688679E+04  5.852324E+04 -2.046092E+03 -1.571908E+03
       141   6 -4.974322E+03 -4.933645E+05 -4.308339E+04  7.364322E+04  3.341531E+03  1.684340E+04
       141   7  2.559596E+04 -3.644740E+05 -1.864229E+04  7.065654E+04 -7.342737E+03 -2.627337E+04
       141   8  7.689190E+03 -4.576677E+05 -3.016626E+04  5.850804E+04 -2.048930E+03 -7.967268E+03
       141   9 -2.004792E+04 -5.557186E+05 -5.607681E+04  7.659920E+04  3.338575E+03  1.033593E+04
       141  10 -3.658506E+04 -6.222439E+05 -7.166731E+04  7.662971E+04  5.348142E-10 -3.978075E-10
       141  11 -8.308075E+03 -5.241769E+05 -4.360727E+04  5.853845E+04  4.577856E-10 -2.845330E-10
       141  12  1.009892E+04 -4.310072E+05 -3.009107E+04  7.068688E+04  4.625793E-10  2.384871E-10
       141  13 -5.494165E+03 -4.933672E+05 -4.515505E+04  7.364336E+04  2.915369E-10  3.097298E-11
       141  14 -3.094188E+02 -4.909229E+05 -3.688680E+04  5.852324E+04  5.567449E-10 -7.182457E-11
       141  15 -4.974410E+03 -4.933648E+05 -4.308394E+04  7.364318E+04  2.349541E-10 -2.729103E-13
       141  16  2.559572E+04 -3.644748E+05 -1.864369E+04  7.065639E+04  9.485471E-10  5.109146E-10
       141  17  7.689168E+03 -4.576678E+05 -3.016638E+04  5.850803E+04  4.442930E-10  1.232474E-10
       141  18 -2.004796E+04 -5.557187E+05 -5.607703E+04  7.659917E+04  3.545465E-10 -3.646041E-10
       141  19 -3.658495E+04 -6.222437E+05 -7.166685E+04  7.662979E+04  7.337527E+03  1.370273E+04
       141  20 -8.308064E+03 -5.241769E+05 -4.360722E+04  5.853844E+04  2.043254E+03 -4.823116E+03
       141  21  1.009908E+04 -4.310066E+05 -3.009002E+04  7.068694E+04 -3.344425E+03 -2.335151E+04
       141  22 -5.493999E+03 -4.933668E+05 -4.515420E+04  7.364348E+04  7.340162E+03  1.998741E+04
       141  23 -3.094137E+02 -4.909229E+05 -3.688679E+04  5.852324E+04  2.046092E+03  1.571908E+03
       141  24 -4.974322E+03 -4.933645E+05 -4.308339E+04  7.364322E+04 -3.341531E+03 -1.684340E+04
       141  25  2.559596E+04 -3.644740E+05 -1.864229E+04  7.065654E+04  7.342737E+03  2.627337E+04
       141  26  7.689190E+03 -4.576677E+05 -3.016626E+04  5.850804E+04  2.048930E+03  7.967268E+03
       141  27 -2.004792E+04 -5.557186E+05 -5.607681E+04  7.659920E+04 -3.338575E+03 -1.033593E+04
       142   1  3.532341E+04 -3.680339E+05 -2.233461E+04  8.941571E+04  7.373963E+03  3.259076E+04
       142   2  4.281483E+04 -2.572680E+05 -2.826098E+04  2.946457E+04  9.968786E+03  6.207329E+04
       142   3 -5.500992E+04 -1.766640E+05 -7.971372E+04 -6.994849E+02  3.569381E+03  9.156285E+04
       142   4  3.598059E+03 -4.994018E+05 -4.944798E+04  7.353427E+04  7.369416E+03  2.409128E+04
       142   5 -1.216006E+04 -4.833931E+05 -7.704077E+04  5.866187E+04  9.972852E+03  6.434599E+04
       142   6 -1.351351E+05 -4.994465E+05 -1.576581E+05  7.358148E+04  3.584859E+03  1.046025E+05
       142   7 -2.812740E+04 -6.307525E+05 -7.656188E+04  5.765626E+04  7.365305E+03  1.559357E+04
       142   8 -6.713510E+04 -7.094683E+05 -1.258231E+05  8.784838E+04  9.977132E+03  6.661787E+04
       142   9 -2.152470E+05 -8.221216E+05 -2.356064E+05  1.478237E+05  3.603465E+03  1.176355E+05
       142  10  3.532306E+04 -3.680351E+05 -2.233671E+04  8.941551E+04  8.641823E-11  2.720904E-10
       142  11  4.281369E+04 -2.572722E+05 -2.826841E+04  2.946407E+04 -5.159793E-10 -2.564433E-12
       142  12 -5.501218E+04 -1.766730E+05 -7.972950E+04 -6.997482E+02 -1.702184E-10 -1.991432E-10
       142  13  3.597844E+03 -4.994024E+05 -4.944917E+04  7.353413E+04  3.399576E-10 -8.413647E-12
       142  14 -1.216128E+04 -4.833976E+05 -7.704874E+04  5.866135E+04  8.658862E-11 -1.353976E-10
       142  15 -1.351380E+05 -4.994583E+05 -1.576787E+05  7.358118E+04 -1.188047E-10 -3.620999E-12
       142  16 -2.812752E+04 -6.307528E+05 -7.656244E+04  5.765617E+04  2.165805E-10 -1.773804E-10
       142  17 -6.713640E+04 -7.094731E+05 -1.258316E+05  8.784784E+04  3.378801E-10 -1.867695E-10
       142  18 -2.152507E+05 -8.221365E+05 -2.356325E+05  1.478233E+05  1.390091E-10  8.278715E-11
       142  19  3.532341E+04 -3.680339E+05 -2.233461E+04  8.941571E+04 -7.373963E+03 -3.259076E+04
       142  20  4.281483E+04 -2.572680E+05 -2.826098E+04  2.946457E+04 -9.968786E+03 -6.207329E+04
       142  21 -5.500992E+04 -1.766640E+05 -7.971372E+04 -6.994849E+02 -3.569381E+03 -9.156285E+04
       142  22  3.598059E+03 -4.994018E+05 -4.944798E+04  7.353427E+04 -7.369416E+03 -2.409128E+04
       142  23 -1.216006E+04 -4.833931E+05 -7.704077E+04  5.866187E+04 -9.972852E+03 -6.434599E+04
       142  24 -1.351351E+05 -4.994465E+05 -1.576581E+05  7.358148E+04 -3.584859E+03 -1.046025E+05
       142  25 -2.812740E+04 -6.307525E+05 -7.656188E+04  5.765626E+04 -7.365305E+03 -1.559357E+04
       142  26 -6.713510E+04 -7.094683E+05 -1.258231E+05  8.784838E+04 -9.977132E+03 -6.661787E+04
       142  27 -2.152470E+05 -8.221216E+05 -2.356064E+05  1.478237E+05 -3.603465E+03 -1.176355E+05
       143   1  3.776256E+05  2.690792E+05  5.513944E+04  2.763158E+05  3.981140E+04  3.163014E+04
       143   2  3.822287E+05  2.146321E+05  1.857865E+04  3.031645E+05  2.479594E+04  2.411538E+04
       143   3  4.217695E+05  1.960258E+05  6.493686E+03  3.098165E+05  1.153352E+04  1.426202E+04
       143   4  4.947235E+05  2.891390E+05  8.148891E+04  3.052186E+05  4.410283E+04  3.484373E+04
       143   5  4.640000E+05  2.478645E+05  3.825047E+04  3.326091E+05  2.627416E+04  2.522253E+04
       143   6  4.688187E+05  2.430340E+05  2.192340E+04  3.398041E+05  1.019957E+04  1.326223E+04
       143   7  6.118373E+05  3.092001E+05  1.078381E+05  3.341237E+05  4.839536E+04  3.805731E+04
       143   8  5.457784E+05  2.810977E+05  5.792177E+04  3.620568E+05  2.775264E+04  2.632977E+04
       143   9  5.158705E+05  2.900452E+05  3.735286E+04  3.697947E+05  8.865493E+03  1.226229E+04
       143  10  3.776236E+05  2.690777E+05  5.513458E+04  2.763148E+05 -9.600733E-12  2.001047E-11
       143  11  3.822279E+05  2.146314E+05  1.857640E+04  3.031640E+05  3.555781E-11  1.156919E-10
       143  12  4.217693E+05  1.960256E+05  6.493054E+03  3.098163E+05  1.199215E-10  6.024116E-11
       143  13  4.947211E+05  2.891371E+05  8.148298E+04  3.052174E+05  2.299858E-10  5.793839E-11
       143  14  4.639990E+05  2.478636E+05  3.824798E+04  3.326085E+05  1.328057E-10  4.209791E-11
       143  15  4.688186E+05  2.430338E+05  2.192288E+04  3.398040E+05 -3.918358E-10 -9.064136E-11
       143  16  6.118344E+05  3.091979E+05  1.078310E+05  3.341222E+05 -2.932467E-10  2.585686E-11
       143  17  5.457774E+05  2.810967E+05  5.791903E+04  3.620562E+05  7.523935E-11 -1.183662E-10
       143  18  5.158704E+05  2.900450E+05  3.735243E+04  3.697946E+05  3.676109E-10 -2.462827E-10
       143  19  3.776256E+05  2.690792E+05  5.513944E+04  2.763158E+05 -3.981140E+04 -3.163014E+04
       143  20  3.822287E+05  2.146321E+05  1.857865E+04  3.031645E+05 -2.479594E+04 -2.411538E+04
       143  21  4.217695E+05  1.960258E+05  6.493686E+03  3.098165E+05 -1.153352E+04 -1.426202E+04
       143  22  4.947235E+05  2.891390E+05  8.148891E+04  3.052186E+05 -4.410283E+04 -3.484373E+04
       143  23  4.640000E+05  2.478645E+05  3.825047E+04  3.326091E+05 -2.627416E+04 -2.522253E+04
       143  24  4.688187E+05  2.430340E+05  2.192340E+04  3.398041E+05 -1.019957E+04 -1.326223E+04
       143  25  6.118373E+05  3.092001E+05  1.078381E+05  3.341237E+05 -4.839536E+04 -3.805731E+04
       143  26  5.457784E+05  2.810977E+05  5.792177E+04  3.620568E+05 -2.775264E+04 -2.632977E+04
       143  27  5.158705E+05  2.900452E+05  3.735286E+04  3.697947E+05 -8.865493E+03 -1.226229E+04
       144   1  4.213225E+05  2.130077E+05  4.315590E+03  3.130397E+05  9.041774E+03  1.144712E+04
       144   2  4.304254E+05  2.216933E+05  5.547144E+02  3.207701E+05  5.758189E+03  7.868642E+03
       144   3  4.463389E+05  2.272171E+05  5.051191E+02  3.264218E+05  2.570980E+03  4.161272E+03
       144   4  4.683588E+05  2.447700E+05  1.726375E+04  3.359330E+05  8.261120E+03  1.086183E+04
       144   5  4.644112E+05  2.453972E+05  9.953829E+03  3.376761E+05  4.822440E+03  7.167130E+03
       144   6  4.673071E+05  2.428958E+05  6.489199E+03  3.373404E+05  1.480283E+03  3.343653E+03
       144   7  5.153982E+05  2.765339E+05  3.021191E+04  3.588284E+05  7.480375E+03  1.027647E+04
       144   8  4.983982E+05  2.691017E+05  1.935284E+04  3.545832E+05  3.886621E+03  6.465567E+03
       144   9  4.882754E+05  2.585747E+05  1.247315E+04  3.482593E+05  3.895513E+02  2.526003E+03
       144  10  4.213224E+05  2.130075E+05  4.315191E+03  3.130396E+05 -1.289837E-10 -1.076667E-10
       144  11  4.304253E+05  2.216932E+05  5.545359E+02  3.207700E+05 -2.754727E-10 -1.305278E-10
       144  12  4.463389E+05  2.272171E+05  5.050742E+02  3.264218E+05 -2.397196E-10 -6.064459E-11
       144  13  4.683587E+05  2.447699E+05  1.726340E+04  3.359329E+05  2.524294E-10 -1.313877E-10
       144  14  4.644111E+05  2.453971E+05  9.953689E+03  3.376761E+05  3.333976E-10 -5.460821E-11
       144  15  4.673071E+05  2.428958E+05  6.489174E+03  3.373404E+05  2.643320E-10  2.971743E-11
       144  16  5.153981E+05  2.765338E+05  3.021160E+04  3.588283E+05  1.309749E-11 -9.894762E-11
       144  17  4.983982E+05  2.691016E+05  1.935273E+04  3.545831E+05  3.616003E-10  1.054354E-11
       144  18  4.882754E+05  2.585747E+05  1.247314E+04  3.482593E+05  3.819092E-10  6.103426E-11
       144  19  4.213225E+05  2.130077E+05  4.315590E+03  3.130397E+05 -9.041774E+03 -1.144712E+04
       144  20  4.304254E+05  2.216933E+05  5.547144E+02  3.207701E+05 -5.758189E+03 -7.868642E+03
       144  21  4.463389E+05  2.272171E+05  5.051191E+02  3.264218E+05 -2.570980E+03 -4.161272E+03
       144  22  4.683588E+05  2.447700E+05  1.726375E+04  3.359330E+05 -8.261120E+03 -1.086183E+04
       144  23  4.644112E+05  2.453972E+05  9.953829E+03  3.376761E+05 -4.822440E+03 -7.167130E+03
       144  24  4.673071E+05  2.428958E+05  6.489199E+03  3.373404E+05 -1.480283E+03 -3.343653E+03
       144  25  5.153982E+05  2.765339E+05  3.021191E+04  3.588284E+05 -7.480375E+03 -1.027647E+04
       144  26  4.983982E+05  2.691017E+05  1.935284E+04  3.545832E+05 -3.886621E+03 -6.465567E+03
       144  27  4.882754E+05  2.585747E+05  1.247315E+04  3.482593E+05 -3.895513E+02 -2.526003E+03
       145   1  4.547034E+05  2.339788E+05  2.136387E+03  3.308039E+05  2.078234E+03  2.968877E+03
       145   2  4.642074E+05  2.451991E+05  4.896999E+03  3.377359E+05  7.703081E+02  6.079421E+02
       145   3  4.791996E+05  2.515579E+05  9.320760E+03  3.432276E+05 -5.376047E+02 -1.753127E+03
       145   4  4.672509E+05  2.429467E+05  5.589940E+03  3.371553E+05  1.016818E+03  2.173216E+03
       145   5  4.645089E+05  2.453812E+05  4.975356E+03  3.378728E+05 -2.912480E+02 -1.878269E+02
       145   6  4.672550E+05  2.429540E+05  6.024000E+03  3.371499E+05 -1.599260E+03 -2.548976E+03
       145   7  4.797985E+05  2.519147E+05  9.043485E+03  3.435069E+05 -4.462788E+01  1.377533E+03
       145   8  4.648104E+05  2.455634E+05  5.053720E+03  3.380098E+05 -1.352812E+03 -9.836016E+02
       145   9  4.553104E+05  2.343501E+05  2.727179E+03  3.310722E+05 -2.660902E+03 -3.344814E+03
       145  10  4.547034E+05  2.339788E+05  2.136363E+03  3.308039E+05  1.740278E-11  1.095914E-11
       145  11  4.642074E+05  2.451991E+05  4.896997E+03  3.377359E+05  5.361515E-10 -2.913770E-11
       145  12  4.791996E+05  2.515579E+05  9.320754E+03  3.432276E+05  1.167644E-10 -4.050379E-11
       145  13  4.672509E+05  2.429467E+05  5.589929E+03  3.371553E+05 -3.557848E-10 -2.329146E-11
       145  14  4.645089E+05  2.453812E+05  4.975356E+03  3.378728E+05 -2.297317E-10 -1.208411E-10
       145  15  4.672550E+05  2.429540E+05  6.023983E+03  3.371499E+05  1.482478E-10  6.392931E-11
       145  16  4.797985E+05  2.519147E+05  9.043482E+03  3.435069E+05  1.897301E-11 -1.081071E-10
       145  17  4.648104E+05  2.455634E+05  5.053715E+03  3.380098E+05  3.368962E-10 -7.884467E-11
       145  18  4.553104E+05  2.343501E+05  2.727145E+03  3.310722E+05  3.609846E-10  5.702823E-11
       145  19  4.547034E+05  2.339788E+05  2.136387E+03  3.308039E+05 -2.078234E+03 -2.968877E+03
       145  20  4.642074E+05  2.451991E+05  4.896999E+03  3.377359E+05 -7.703081E+02 -6.079421E+02
       145  21  4.791996E+05  2.515579E+05  9.320760E+03  3.432276E+05  5.376047E+02  1.753127E+03
       145  22  4.672509E+05  2.429467E+05  5.589940E+03  3.371553E+05 -1.016818E+03 -2.173216E+03
       145  23  4.645089E+05  2.453812E+05  4.975356E+03  3.378728E+05  2.912480E+02  1.878269E+02
       145  24  4.672550E+05  2.429540E+05  6.024000E+03  3.371499E+05  1.599260E+03  2.548976E+03
       145  25  4.797985E+05  2.519147E+05  9.043485E+03  3.435069E+05  4.462788E+01 -1.377533E+03
       145  26  4.648104E+05  2.455634E+05  5.053720E+03  3.380098E+05  1.352812E+03  9.836016E+02
       145  27  4.553104E+05  2.343501E+05  2.727179E+03  3.310722E+05  2.660902E+03  3.344814E+03
       146   1  4.876343E+05  2.582770E+05  1.300464E+04  3.480359E+05 -1.050600E+03 -2.960699E+03
       146   2  4.978239E+05  2.686767E+05  2.058108E+04  3.542623E+05 -5.100137E+03 -7.314933E+03
       146   3  5.151478E+05  2.762963E+05  3.268266E+04  3.583138E+05 -9.245638E+03 -1.154125E+04
       146   4  4.673256E+05  2.428971E+05  7.175762E+03  3.373704E+05 -2.141236E+03 -3.778281E+03
       146   5  4.643837E+05  2.453883E+05  1.133836E+04  3.376435E+05 -6.036788E+03 -8.017115E+03
       146   6  4.685430E+05  2.450662E+05  1.989297E+04  3.357418E+05 -1.002820E+04 -1.212797E+04
       146   7  4.470176E+05  2.275177E+05  1.346944E+03  3.267055E+05 -3.231811E+03 -4.595813E+03
       146   8  4.309450E+05  2.221007E+05  2.095607E+03  3.210259E+05 -6.973363E+03 -8.719242E+03
       146   9  4.219406E+05  2.138373E+05  7.103081E+03  3.131717E+05 -1.081068E+04 -1.271464E+04
       146  10  4.876343E+05  2.582770E+05  1.300462E+04  3.480359E+05 -2.516324E-10  1.024398E-10
       146  11  4.978238E+05  2.686767E+05  2.058093E+04  3.542622E+05  4.231128E-10 -1.103956E-10
       146  12  5.151477E+05  2.762961E+05  3.268225E+04  3.583138E+05  2.409421E-10 -1.482714E-10
       146  13  4.673256E+05  2.428971E+05  7.175726E+03  3.373704E+05 -1.112834E-10 -7.989712E-11
       146  14  4.643836E+05  2.453882E+05  1.133817E+04  3.376435E+05 -2.768616E-10  1.404126E-10
       146  15  4.685429E+05  2.450661E+05  1.989250E+04  3.357417E+05 -9.600928E-11  2.513379E-11
       146  16  4.470175E+05  2.275177E+05  1.346884E+03  3.267055E+05 -5.433838E-11 -1.369418E-10
       146  17  4.309449E+05  2.221006E+05  2.095373E+03  3.210258E+05  2.299046E-10 -1.625011E-10
       146  18  4.219405E+05  2.138371E+05  7.102558E+03  3.131716E+05  5.405392E-11  5.533714E-12
       146  19  4.876343E+05  2.582770E+05  1.300464E+04  3.480359E+05  1.050600E+03  2.960699E+03
       146  20  4.978239E+05  2.686767E+05  2.058108E+04  3.542623E+05  5.100137E+03  7.314933E+03
       146  21  5.151478E+05  2.762963E+05  3.268266E+04  3.583138E+05  9.245638E+03  1.154125E+04
       146  22  4.673256E+05  2.428971E+05  7.175762E+03  3.373704E+05  2.141236E+03  3.778281E+03
       146  23  4.643837E+05  2.453883E+05  1.133836E+04  3.376435E+05  6.036788E+03  8.017115E+03
       146  24  4.685430E+05  2.450662E+05  1.989297E+04  3.357418E+05  1.002820E+04  1.212797E+04
       146  25  4.470176E+05  2.275177E+05  1.346944E+03  3.267055E+05  3.231811E+03  4.595813E+03
       146  26  4.309450E+05  2.221007E+05  2.095607E+03  3.210259E+05  6.973363E+03  8.719242E+03
       146  27  4.219406E+05  2.138373E+05  7.103081E+03  3.131717E+05  1.081068E+04  1.271464E+04
       147   1  5.142849E+05  2.909418E+05  4.059174E+04  3.703061E+05 -1.100077E+04 -1.380360E+04
       147   2  5.473959E+05  2.787981E+05  6.378586E+04  3.602728E+05 -3.239124E+04 -2.975749E+04
       147   3  6.214927E+05  3.102694E+05  1.205649E+05  3.270730E+05 -5.552608E+04 -4.338686E+04
       147   4  4.690829E+05  2.430505E+05  2.532039E+04  3.402262E+05 -1.233291E+04 -1.480200E+04
       147   5  4.638974E+05  2.482505E+05  4.427778E+04  3.317755E+05 -3.092936E+04 -2.866308E+04
       147   6  4.990925E+05  2.964636E+05  9.440070E+04  3.001585E+05 -5.126791E+04 -4.020062E+04
       147   7  4.238828E+05  1.951617E+05  1.004857E+04  3.101489E+05 -1.366494E+04 -1.580025E+04
       147   8  3.804070E+05  2.177039E+05  2.476939E+04  3.032814E+05 -2.946776E+04 -2.756875E+04
       147   9  3.767134E+05  2.826601E+05  6.823716E+04  2.732462E+05 -4.701100E+04 -3.701437E+04
       147  10  5.142847E+05  2.909415E+05  4.059115E+04  3.703059E+05  5.426075E-10  1.292320E-11
       147  11  5.473946E+05  2.787969E+05  6.378223E+04  3.602720E+05  1.852552E-10 -9.799542E-11
       147  12  6.214889E+05  3.102665E+05  1.205556E+05  3.270711E+05 -2.269494E-11 -1.219500E-10
       147  13  4.690827E+05  2.430502E+05  2.531969E+04  3.402260E+05  4.751268E-10 -2.748908E-11
       147  14  4.638961E+05  2.482494E+05  4.427444E+04  3.317748E+05  3.085774E-11 -4.249899E-11
       147  15  4.990892E+05  2.964611E+05  9.439274E+04  3.001568E+05  3.184042E-10 -8.309666E-12
       147  16  4.238826E+05  1.951614E+05  1.004775E+04  3.101487E+05  1.873303E-10 -6.225722E-11
       147  17  3.804059E+05  2.177029E+05  2.476633E+04  3.032807E+05  5.152553E-11 -3.263702E-11
       147  18  3.767107E+05  2.826580E+05  6.823044E+04  2.732448E+05  1.879101E-10  5.783656E-11
       147  19  5.142849E+05  2.909418E+05  4.059174E+04  3.703061E+05  1.100077E+04  1.380360E+04
       147  20  5.473959E+05  2.787981E+05  6.378586E+04  3.602728E+05  3.239124E+04  2.975749E+04
       147  21  6.214927E+05  3.102694E+05  1.205649E+05  3.270730E+05  5.552608E+04  4.338686E+04
       147  22  4.690829E+05  2.430505E+05  2.532039E+04  3.402262E+05  1.233291E+04  1.480200E+04
       147  23  4.638974E+05  2.482505E+05  4.427778E+04  3.317755E+05  3.092936E+04  2.866308E+04
       147  24  4.990925E+05  2.964636E+05  9.440070E+04  3.001585E+05  5.126791E+04  4.020062E+04
       147  25  4.238828E+05  1.951617E+05  1.004857E+04  3.101489E+05  1.366494E+04  1.580025E+04
       147  26  3.804070E+05  2.177039E+05  2.476939E+04  3.032814E+05  2.946776E+04  2.756875E+04
       147  27  3.767134E+05  2.826601E+05  6.823716E+04  2.732462E+05  4.701100E+04  3.701437E+04
       148   1  7.055937E+05  8.818719E+04  9.544195E+04  4.893733E+04  4.805894E+04 -1.851446E+03
       148   2  6.723479E+05  3.382570E+04  5.404024E+04  2.756677E+04  2.841807E+04 -5.664487E+03
       148   3  6.520860E+05  2.117740E+04  3.584428E+04  1.443887E+04  8.778347E+03 -5.520768E+03
       148   4  5.582119E+05  5.165859E+04  6.007068E+04  2.058019E+04  4.109952E+04 -1.853538E+03
       148   5  5.521395E+05  4.679315E+03  2.843520E+04  1.645932E+04  2.621286E+04 -5.665096E+03
       148   6  5.582281E+05 -1.407875E+03  1.670952E+04  2.058019E+04  1.132638E+04 -5.520639E+03
       148   7  4.108518E+05  1.513145E+04  2.469848E+04 -7.770192E+03  3.414173E+04 -1.854995E+03
       148   8  4.319448E+05 -2.446754E+04  2.829411E+03  5.354046E+03  2.400808E+04 -5.665626E+03
       148   9  4.643786E+05 -2.399356E+04 -2.425656E+03  2.672057E+04  1.387403E+04 -5.520459E+03
       148  10  7.055912E+05  8.818657E+04  9.543760E+04  4.893740E+04 -2.296572E-10 -1.144535E-11
       148  11  6.723471E+05  3.382545E+04  5.403866E+04  2.756690E+04 -7.249946E-11 -4.878447E-11
       148  12  6.520859E+05  2.117735E+04  3.584408E+04  1.443891E+04  8.464911E-11 -1.038765E-10
       148  13  5.582101E+05  5.165813E+04  6.006750E+04  2.058026E+04 -2.861451E-10  2.451740E-11
       148  14  5.521387E+05  4.679097E+03  2.843385E+04  1.645944E+04 -5.665859E-10  1.738543E-11
       148  15  5.582279E+05 -1.407942E+03  1.670922E+04  2.058024E+04 -2.905345E-10 -2.137266E-10
       148  16  4.108506E+05  1.513113E+04  2.469628E+04 -7.770141E+03 -1.377593E-11  8.667036E-11
       148  17  4.319442E+05 -2.446773E+04  2.828268E+03  5.354155E+03 -5.643040E-10  3.637949E-11
       148  18  4.643784E+05 -2.399364E+04 -2.426075E+03  2.672063E+04 -2.588769E-10 -2.477933E-10
       148  19  7.055937E+05  8.818719E+04  9.544195E+04  4.893733E+04 -4.805894E+04  1.851446E+03
       148  20  6.723479E+05  3.382570E+04  5.404024E+04  2.756677E+04 -2.841807E+04  5.664487E+03
       148  21  6.520860E+05  2.117740E+04  3.584428E+04  1.443887E+04 -8.778347E+03  5.520768E+03
       148  22  5.582119E+05  5.165859E+04  6.007068E+04  2.058019E+04 -4.109952E+04  1.853538E+03
       148  23  5.521395E+05  4.679315E+03  2.843520E+04  1.645932E+04 -2.621286E+04  5.665096E+03
       148  24  5.582281E+05 -1.407875E+03  1.670952E+04  2.058019E+04 -1.132638E+04  5.520639E+03
       148  25  4.108518E+05  1.513145E+04  2.469848E+04 -7.770192E+03 -3.414173E+04  1.854995E+03
       148  26  4.319448E+05 -2.446754E+04  2.829411E+03  5.354046E+03 -2.400808E+04  5.665626E+03
       148  27  4.643786E+05 -2.399356E+04 -2.425656E+03  2.672057E+04 -1.387403E+04  5.520459E+03
       149   1  6.303069E+05  1.996608E+04  2.870903E+04  2.135102E+04  7.388390E+03 -4.352829E+03
       149   2  6.030836E+05  1.152828E+04  1.840086E+04  1.661837E+04  2.793525E+03 -2.903386E+03
       149   3  5.769438E+05  5.030597E+03  1.156689E+04  2.032115E+04 -1.801148E+03 -1.245533E+03
       149   4  5.557553E+05  2.020763E+03  1.348474E+04  2.062331E+04  9.003583E+03 -4.352790E+03
       149   5  5.552367E+05  2.802441E+01  8.715440E+03  1.640566E+04  4.659398E+03 -2.903285E+03
       149   6  5.557573E+05 -6.801232E+01  7.246619E+03  2.062345E+04  3.152100E+02 -1.245370E+03
       149   7  4.812089E+05 -1.592489E+04 -1.739836E+03  1.989570E+04  1.061859E+04 -4.352755E+03
       149   8  5.073920E+05 -1.147238E+04 -9.700899E+02  1.619297E+04  6.525130E+03 -2.903186E+03
       149   9  5.345712E+05 -5.166647E+03  2.926342E+03  2.092573E+04  2.431498E+03 -1.245204E+03
       149  10  6.303069E+05  1.996604E+04  2.870890E+04  2.135104E+04 -3.283930E-10 -1.986438E-10
       149  11  6.030836E+05  1.152827E+04  1.840083E+04  1.661838E+04  1.069771E-10 -1.339032E-10
       149  12  5.769438E+05  5.030595E+03  1.156688E+04  2.032115E+04 -7.694501E-10  1.427016E-10
       149  13  5.557552E+05  2.020721E+03  1.348455E+04  2.062335E+04 -2.861410E-10 -2.590207E-10
       149  14  5.552367E+05  2.800953E+01  8.715383E+03  1.640567E+04 -2.671730E-10 -1.142697E-10
       149  15  5.557573E+05 -6.801401E+01  7.246616E+03  2.062345E+04 -4.609068E-10  5.151032E-11
       149  16  4.812088E+05 -1.592494E+04 -1.740083E+03  1.989573E+04  1.516730E-10 -3.152090E-10
       149  17  5.073919E+05 -1.147240E+04 -9.701856E+02  1.619299E+04  1.271121E-10 -1.179698E-10
       149  18  5.345712E+05 -5.166650E+03  2.926328E+03  2.092574E+04  6.203967E-10  8.046382E-11
       149  19  6.303069E+05  1.996608E+04  2.870903E+04  2.135102E+04 -7.388390E+03  4.352829E+03
       149  20  6.030836E+05  1.152828E+04  1.840086E+04  1.661837E+04 -2.793525E+03  2.903386E+03
       149  21  5.769438E+05  5.030597E+03  1.156689E+04  2.032115E+04  1.801148E+03  1.245533E+03
       149  22  5.557553E+05  2.020763E+03  1.348474E+04  2.062331E+04 -9.003583E+03  4.352790E+03
       149  23  5.552367E+05  2.802441E+01  8.715440E+03  1.640566E+04 -4.659398E+03  2.903285E+03
       149  24  5.557573E+05 -6.801232E+01  7.246619E+03  2.062345E+04 -3.152100E+02  1.245370E+03
       149  25  4.812089E+05 -1.592489E+04 -1.739836E+03  1.989570E+04 -1.061859E+04  4.352755E+03
       149  26  5.073920E+05 -1.147238E+04 -9.700899E+02  1.619297E+04 -6.525130E+03  2.903186E+03
       149  27  5.345712E+05 -5.166647E+03  2.926342E+03  2.092573E+04 -2.431498E+03  1.245204E+03
       150   1  5.577969E+05  3.870775E+02  7.702995E+03  2.099264E+04 -3.083242E+03 -2.056153E+02
       150   2  5.305745E+05 -5.886991E+03  4.320868E+03  1.619109E+04 -7.527173E+03  1.462816E+03
       150   3  5.044463E+05 -1.009536E+04  4.346314E+03  1.982497E+04 -1.197096E+04  2.956875E+03
       150   4  5.557776E+05 -8.541254E+01  7.358906E+03  2.062344E+04 -9.747417E+02 -2.054428E+02
       150   5  5.552116E+05  3.991467E+01  9.333077E+03  1.640567E+04 -5.628236E+03  1.462944E+03
       150   6  5.557758E+05  2.267349E+03  1.486022E+04  2.062328E+04 -1.028177E+04  2.956956E+03
       150   7  5.537583E+05 -5.578999E+02  7.014834E+03  2.025424E+04  1.133752E+03 -2.052729E+02
       150   8  5.798493E+05  5.966785E+03  1.434527E+04  1.662025E+04 -3.729225E+03  1.463074E+03
       150   9  6.071077E+05  1.462990E+04  2.537399E+04  2.142165E+04 -8.592449E+03  2.957042E+03
       150  10  5.577969E+05  3.870749E+02  7.702977E+03  2.099264E+04 -1.021624E-10  2.473418E-10
       150  11  5.305744E+05 -5.887009E+03  4.320757E+03  1.619110E+04 -2.264285E-10  5.519971E-11
       150  12  5.044462E+05 -1.009541E+04  4.346029E+03  1.982500E+04 -2.929726E-10  1.243826E-10
       150  13  5.557776E+05 -8.541284E+01  7.358904E+03  2.062344E+04  1.262323E-10  1.273752E-10
       150  14  5.552116E+05  3.990388E+01  9.333013E+03  1.640567E+04  9.105357E-10  9.827897E-11
       150  15  5.557757E+05  2.267312E+03  1.486000E+04  2.062330E+04 -3.534186E-10  1.697457E-10
       150  16  5.537583E+05 -5.579003E+02  7.014831E+03  2.025424E+04 -7.330240E-12  4.200697E-11
       150  17  5.798493E+05  5.966779E+03  1.434524E+04  1.662025E+04 -6.726365E-12  4.312178E-11
       150  18  6.071076E+05  1.462987E+04  2.537384E+04  2.142167E+04 -5.408864E-11  1.087127E-10
       150  19  5.577969E+05  3.870775E+02  7.702995E+03  2.099264E+04  3.083242E+03  2.056153E+02
       150  20  5.305745E+05 -5.886991E+03  4.320868E+03  1.619109E+04  7.527173E+03 -1.462816E+03
       150  21  5.044463E+05 -1.009536E+04  4.346314E+03  1.982497E+04  1.197096E+04 -2.956875E+03
       150  22  5.557776E+05 -8.541254E+01  7.358906E+03  2.062344E+04  9.747417E+02  2.054428E+02
       150  23  5.552116E+05  3.991467E+01  9.333077E+03  1.640567E+04  5.628236E+03 -1.462944E+03
       150  24  5.557758E+05  2.267349E+03  1.486022E+04  2.062328E+04  1.028177E+04 -2.956956E+03
       150  25  5.537583E+05 -5.578999E+02  7.014834E+03  2.025424E+04 -1.133752E+03  2.052729E+02
       150  26  5.798493E+05  5.966785E+03  1.434527E+04  1.662025E+04  3.729225E+03 -1.463074E+03
       150  27  6.071077E+05  1.462990E+04  2.537399E+04  2.142165E+04  8.592449E+03 -2.957042E+03
       151   1  4.879452E+05 -1.857054E+04  4.099593E+03  2.747129E+04 -1.532760E+04  4.103115E+03
       151   2  4.547508E+05 -1.829035E+04  1.102508E+04  4.026414E+03 -2.790586E+04  4.487356E+03
       151   3  4.344649E+05  2.706824E+04  3.740605E+04 -1.114963E+04 -4.048349E+04  1.503505E+03
       151   4  5.585499E+05 -1.571937E+03  1.853365E+04  2.058634E+04 -1.284519E+04  4.103396E+03
       151   5  5.517380E+05  5.242219E+03  3.175211E+04  1.645155E+04 -2.947047E+04  4.486696E+03
       151   6  5.585325E+05  5.783152E+04  6.723231E+04  2.058505E+04 -4.609577E+04  1.501361E+03
       151   7  6.291595E+05  1.542653E+04  3.296750E+04  1.370059E+04 -1.036249E+04  4.103622E+03
       151   8  6.487345E+05  2.877475E+04  5.247870E+04  2.887865E+04 -3.103532E+04  4.485974E+03
       151   9  6.826164E+05  8.859749E+04  9.705814E+04  5.232609E+04 -5.170917E+04  1.498644E+03
       151  10  4.879449E+05 -1.857062E+04  4.099120E+03  2.747134E+04  1.846734E-10  1.435653E-10
       151  11  4.547499E+05 -1.829058E+04  1.102357E+04  4.026515E+03 -4.956762E-10 -4.356466E-11
       151  12  4.344631E+05  2.706779E+04  3.740296E+04 -1.114958E+04 -3.732854E-10 -2.838791E-11
       151  13  5.585498E+05 -1.571999E+03  1.853331E+04  2.058638E+04 -3.313597E-10  9.228326E-11
       151  14  5.517371E+05  5.241964E+03  3.175045E+04  1.645166E+04  2.329648E-10 -4.126673E-11
       151  15  5.585302E+05  5.783095E+04  6.722832E+04  2.058510E+04 -1.124782E-10 -3.289251E-11
       151  16  6.291594E+05  1.542649E+04  3.296726E+04  1.370062E+04 -4.090567E-11  1.615848E-10
       151  17  6.487334E+05  2.877447E+04  5.247685E+04  2.887877E+04  2.993139E-11 -9.136125E-11
       151  18  6.826135E+05  8.859677E+04  9.705312E+04  5.232615E+04  3.537303E-10 -1.736432E-11
       151  19  4.879452E+05 -1.857054E+04  4.099593E+03  2.747129E+04  1.532760E+04 -4.103115E+03
       151  20  4.547508E+05 -1.829035E+04  1.102508E+04  4.026414E+03  2.790586E+04 -4.487356E+03
       151  21  4.344649E+05  2.706824E+04  3.740605E+04 -1.114963E+04  4.048349E+04 -1.503505E+03
       151  22  5.585499E+05 -1.571937E+03  1.853365E+04  2.058634E+04  1.284519E+04 -4.103396E+03
       151  23  5.517380E+05  5.242219E+03  3.175211E+04  1.645155E+04  2.947047E+04 -4.486696E+03
       151  24  5.585325E+05  5.783152E+04  6.723231E+04  2.058505E+04  4.609577E+04 -1.501361E+03
       151  25  6.291595E+05  1.542653E+04  3.296750E+04  1.370059E+04  1.036249E+04 -4.103622E+03
       151  26  6.487345E+05  2.877475E+04  5.247870E+04  2.887865E+04  3.103532E+04 -4.485974E+03
       151  27  6.826164E+05  8.859749E+04  9.705814E+04  5.232609E+04  5.170917E+04 -1.498644E+03
       152   1 -1.678540E+05 -5.661246E+05 -1.831035E+05  1.036301E+05 -3.105014E+03 -9.174235E+04
       152   2 -5.748082E+04 -4.922594E+05 -1.011288E+05  5.971018E+04 -9.104741E+03 -5.258594E+04
       152   3 -3.057114E+04 -4.443622E+05 -6.552689E+04  3.465500E+04 -8.006048E+03 -1.342555E+04
       152   4 -1.033567E+05 -3.062467E+05 -1.205121E+05  4.683650E+04 -3.094714E+03 -8.029405E+04
       152   5 -9.323747E+03 -2.939928E+05 -5.864377E+04  3.739242E+04 -9.102037E+03 -4.964295E+04
       152   6  2.734728E+03 -3.062247E+05 -3.722779E+04  4.681768E+04 -8.007613E+03 -1.899224E+04
       152   7 -3.885211E+04 -4.629972E+04 -5.792318E+04 -9.980963E+03 -3.086513E+03 -6.884097E+04
       152   8  3.883263E+04 -9.568804E+04 -1.616078E+04  1.506742E+04 -9.099545E+03 -4.669904E+04
       152   9  3.603997E+04 -1.680686E+05 -8.929504E+03  5.898312E+04 -8.009395E+03 -2.456015E+04
       152  10 -1.678563E+05 -5.661336E+05 -1.831194E+05  1.036299E+05 -3.593330E-10 -4.806034E-10
       152  11 -5.748165E+04 -4.922624E+05 -1.011341E+05  5.970980E+04 -1.141502E-10  1.116645E-10
       152  12 -3.057125E+04 -4.443625E+05 -6.552735E+04  3.465492E+04  3.706038E-11  8.025363E-10
       152  13 -1.033584E+05 -3.062536E+05 -1.205242E+05  4.683630E+04 -3.938155E-10 -9.621896E-11
       152  14 -9.324498E+03 -2.939954E+05 -5.864856E+04  3.739205E+04  4.978981E-10  1.715712E-10
       152  15  2.734562E+03 -3.062251E+05 -3.722859E+04  4.681756E+04  4.177488E-10 -1.043017E-10
       152  16 -3.885339E+04 -4.630481E+04 -5.793211E+04 -9.981134E+03  2.191164E-10  5.036562E-10
       152  17  3.883196E+04 -9.569040E+04 -1.616503E+04  1.506707E+04  1.090637E-10 -4.479928E-11
       152  18  3.603973E+04 -1.680693E+05 -8.930758E+03  5.898296E+04  1.882280E-10 -7.844673E-10
       152  19 -1.678540E+05 -5.661246E+05 -1.831035E+05  1.036301E+05  3.105014E+03  9.174235E+04
       152  20 -5.748082E+04 -4.922594E+05 -1.011288E+05  5.971018E+04  9.104741E+03  5.258594E+04
       152  21 -3.057114E+04 -4.443622E+05 -6.552689E+04  3.465500E+04  8.006048E+03  1.342555E+04
       152  22 -1.033567E+05 -3.062467E+05 -1.205121E+05  4.683650E+04  3.094714E+03  8.029405E+04
       152  23 -9.323747E+03 -2.939928E+05 -5.864377E+04  3.739242E+04  9.102037E+03  4.964295E+04
       152  24  2.734728E+03 -3.062247E+05 -3.722779E+04  4.681768E+04  8.007613E+03  1.899224E+04
       152  25 -3.885211E+04 -4.629972E+04 -5.792318E+04 -9.980963E+03  3.086513E+03  6.884097E+04
       152  26  3.883263E+04 -9.568804E+04 -1.616078E+04  1.506742E+04  9.099545E+03  4.669904E+04
       152  27  3.603997E+04 -1.680686E+05 -8.929504E+03  5.898312E+04  8.009395E+03  2.456015E+04
       153   1 -2.656558E+04 -3.957690E+05 -5.149071E+04  4.906555E+04 -5.398936E+03 -9.612280E+03
       153   2 -8.260602E+03 -3.331531E+05 -3.350309E+04  3.728140E+04 -2.049907E+03  3.862371E+03
       153   3  2.873398E+03 -2.740908E+05 -2.608653E+04  4.473516E+04  1.392765E+03  1.733816E+04
       153   4 -3.850982E+03 -3.015697E+05 -3.214703E+04  4.690329E+04 -5.399932E+03 -1.356973E+04
       153   5 -2.398730E+02 -2.998002E+05 -2.676411E+04  3.728424E+04 -2.051026E+03 -2.064138E+02
       153   6 -3.779871E+03 -3.015684E+05 -3.187403E+04  4.690325E+04  1.391604E+03  1.315677E+04
       153   7  1.886309E+04 -2.073619E+05 -1.280377E+04  4.474070E+04 -5.400900E+03 -1.752777E+04
       153   8  7.780796E+03 -2.664463E+05 -2.002514E+04  3.728708E+04 -2.052145E+03 -4.275414E+03
       153   9 -1.043316E+04 -3.290452E+05 -3.766152E+04  4.907125E+04  1.390413E+03  8.975556E+03
       153  10 -2.656564E+04 -3.957691E+05 -5.149093E+04  4.906551E+04  1.930810E-10 -7.369292E-10
       153  11 -8.260611E+03 -3.331531E+05 -3.350312E+04  3.728140E+04 -1.892609E-10  1.442932E-10
       153  12  2.873315E+03 -2.740912E+05 -2.608710E+04  4.473514E+04 -1.112890E-10  9.139445E-10
       153  13 -3.851062E+03 -3.015699E+05 -3.214743E+04  4.690323E+04 -5.415191E-11 -1.944534E-10
       153  14 -2.398776E+02 -2.998002E+05 -2.676412E+04  3.728424E+04 -1.524555E-12  2.583192E-10
       153  15 -3.779920E+03 -3.015686E+05 -3.187436E+04  4.690324E+04 -1.919595E-10 -8.412498E-11
       153  16  1.886297E+04 -2.073622E+05 -1.280440E+04  4.474062E+04 -1.264456E-10  7.263526E-10
       153  17  7.780787E+03 -2.664463E+05 -2.002518E+04  3.728707E+04  1.830001E-10 -6.073484E-12
       153  18 -1.043318E+04 -3.290452E+05 -3.766167E+04  4.907124E+04  1.544971E-10 -9.613256E-10
       153  19 -2.656558E+04 -3.957690E+05 -5.149071E+04  4.906555E+04  5.398936E+03  9.612280E+03
       153  20 -8.260602E+03 -3.331531E+05 -3.350309E+04  3.728140E+04  2.049907E+03 -3.862371E+03
       153  21  2.873398E+03 -2.740908E+05 -2.608653E+04  4.473516E+04 -1.392765E+03 -1.733816E+04
       153  22 -3.850982E+03 -3.015697E+05 -3.214703E+04  4.690329E+04  5.399932E+03  1.356973E+04
       153  23 -2.398730E+02 -2.998002E+05 -2.676411E+04  3.728424E+04  2.051026E+03  2.064138E+02
       153  24 -3.779871E+03 -3.015684E+05 -3.187403E+04  4.690325E+04 -1.391604E+03 -1.315677E+04
       153  25  1.886309E+04 -2.073619E+05 -1.280377E+04  4.474070E+04  5.400900E+03  1.752777E+04
       153  26  7.780796E+03 -2.664463E+05 -2.002514E+04  3.728708E+04  2.052145E+03  4.275414E+03
       153  27 -1.043316E+04 -3.290452E+05 -3.766152E+04  4.907125E+04 -1.390413E+03 -8.975556E+03
       154   1  1.993618E+04 -2.347647E+05 -2.203778E+04  5.879527E+04  3.944818E+03  2.390068E+04
       154   2  2.286153E+04 -1.623912E+05 -2.932632E+04  1.538125E+04  5.719619E+03  4.762249E+04
       154   3 -5.376175E+04 -1.129915E+05 -7.194705E+04 -9.061539E+03  2.082821E+03  7.134749E+04
       154   4  2.694084E+03 -3.061394E+05 -3.681262E+04  4.683987E+04  3.942857E+03  1.852951E+04
       154   5 -9.167970E+03 -2.940925E+05 -5.779795E+04  3.736465E+04  5.721670E+03  4.873539E+04
       154   6 -1.017188E+05 -3.061586E+05 -1.186260E+05  4.686262E+04  2.090958E+03  7.894181E+04
       154   7 -1.454778E+04 -3.775088E+05 -5.158756E+04  3.488586E+04  3.941104E+03  1.315896E+04
       154   8 -4.119680E+04 -4.257765E+05 -8.627034E+04  5.934332E+04  5.723801E+03  4.984805E+04
       154   9 -1.496667E+05 -4.992848E+05 -1.653057E+05  1.027693E+05  2.100466E+03  8.653378E+04
       154  10  1.993601E+04 -2.347653E+05 -2.203888E+04  5.879519E+04  7.223213E-11 -3.128096E-10
       154  11  2.286089E+04 -1.623936E+05 -2.933064E+04  1.538103E+04 -9.616867E-12  6.521194E-11
       154  12 -5.376312E+04 -1.129970E+05 -7.195663E+04 -9.061658E+03  1.605670E-10  3.154520E-10
       154  13  2.693975E+03 -3.061397E+05 -3.681330E+04  4.683981E+04  2.073180E-10 -2.000121E-10
       154  14 -9.168644E+03 -2.940951E+05 -5.780247E+04  3.736443E+04 -2.359860E-10  1.554635E-10
       154  15 -1.017204E+05 -3.061653E+05 -1.186377E+05  4.686248E+04 -5.875316E-11 -9.861475E-11
       154  16 -1.454785E+04 -3.775090E+05 -5.158791E+04  3.488582E+04  1.421724E-10  3.242542E-10
       154  17 -4.119750E+04 -4.257792E+05 -8.627507E+04  5.934309E+04  4.250212E-10  2.814654E-11
       154  18 -1.496687E+05 -4.992928E+05 -1.653198E+05  1.027692E+05 -1.301541E-11 -3.012561E-10
       154  19  1.993618E+04 -2.347647E+05 -2.203778E+04  5.879527E+04 -3.944818E+03 -2.390068E+04
       154  20  2.286153E+04 -1.623912E+05 -2.932632E+04  1.538125E+04 -5.719619E+03 -4.762249E+04
       154  21 -5.376175E+04 -1.129915E+05 -7.194705E+04 -9.061539E+03 -2.082821E+03 -7.134749E+04
       154  22  2.694084E+03 -3.061394E+05 -3.681262E+04  4.683987E+04 -3.942857E+03 -1.852951E+04
       154  23 -9.167970E+03 -2.940925E+05 -5.779795E+04  3.736465E+04 -5.721670E+03 -4.873539E+04
       154  24 -1.017188E+05 -3.061586E+05 -1.186260E+05  4.686262E+04 -2.090958E+03 -7.894181E+04
       154  25 -1.454778E+04 -3.775088E+05 -5.158756E+04  3.488586E+04 -3.941104E+03 -1.315896E+04
       154  26 -4.119680E+04 -4.257765E+05 -8.627034E+04  5.934332E+04 -5.723801E+03 -4.984805E+04
       154  27 -1.496667E+05 -4.992848E+05 -1.653057E+05  1.027693E+05 -2.100466E+03 -8.653378E+04
       155   1  2.684527E+05  1.844349E+05  3.087866E+04  1.991601E+05  2.325875E+04  1.867181E+04
       155   2  2.709828E+05  1.516882E+05  9.211186E+03  2.149921E+05  1.430385E+04  1.460069E+04
       155   3  2.941790E+05  1.404307E+05  1.976681E+03  2.188117E+05  6.522647E+03  8.963947E+03
       155   4  3.445566E+05  2.008379E+05  4.863486E+04  2.194953E+05  2.623402E+04  2.090149E+04
       155   5  3.262870E+05  1.761322E+05  2.282910E+04  2.358219E+05  1.539777E+04  1.542058E+04
       155   6  3.290894E+05  1.733214E+05  1.308683E+04  2.401365E+05  5.735531E+03  8.373824E+03
       155   7  4.206676E+05  2.172416E+05  6.639102E+04  2.398319E+05  2.920982E+04  2.313122E+04
       155   8  3.815950E+05  2.005769E+05  3.644693E+04  2.566535E+05  1.649184E+04  1.624052E+04
       155   9  3.640016E+05  2.062139E+05  2.419702E+04  2.614632E+05  4.948347E+03  7.783630E+03
       155  10  2.684521E+05  1.844344E+05  3.087699E+04  1.991598E+05 -2.441428E-10 -5.591402E-11
       155  11  2.709826E+05  1.516880E+05  9.210402E+03  2.149920E+05  8.554328E-11  3.910948E-10
       155  12  2.941790E+05  1.404306E+05  1.976450E+03  2.188117E+05 -4.989329E-11  4.658847E-10
       155  13  3.445557E+05  2.008373E+05  4.863275E+04  2.194948E+05 -1.433155E-10  7.638098E-11
       155  14  3.262867E+05  1.761319E+05  2.282821E+04  2.358217E+05 -1.521880E-10  2.090412E-10
       155  15  3.290893E+05  1.733213E+05  1.308664E+04  2.401365E+05 -2.032007E-10  2.431358E-10
       155  16  4.206665E+05  2.172407E+05  6.638842E+04  2.398313E+05 -2.471364E-10  2.109627E-10
       155  17  3.815946E+05  2.005765E+05  3.644593E+04  2.566533E+05 -2.589599E-10  8.561635E-11
       155  18  3.640016E+05  2.062138E+05  2.419686E+04  2.614632E+05 -3.087107E-10  2.142370E-11
       155  19  2.684527E+05  1.844349E+05  3.087866E+04  1.991601E+05 -2.325875E+04 -1.867181E+04
       155  20  2.709828E+05  1.516882E+05  9.211186E+03  2.149921E+05 -1.430385E+04 -1.460069E+04
       155  21  2.941790E+05  1.404307E+05  1.976681E+03  2.188117E+05 -6.522647E+03 -8.963947E+03
       155  22  3.445566E+05  2.008379E+05  4.863486E+04  2.194953E+05 -2.623402E+04 -2.090149E+04
       155  23  3.262870E+05  1.761322E+05  2.282910E+04  2.358219E+05 -1.539777E+04 -1.542058E+04
       155  24  3.290894E+05  1.733214E+05  1.308683E+04  2.401365E+05 -5.735531E+03 -8.373824E+03
       155  25  4.206676E+05  2.172416E+05  6.639102E+04  2.398319E+05 -2.920982E+04 -2.313122E+04
       155  26  3.815950E+05  2.005769E+05  3.644693E+04  2.566535E+05 -1.649184E+04 -1.624052E+04
       155  27  3.640016E+05  2.062139E+05  2.419702E+04  2.614632E+05 -4.948347E+03 -7.783630E+03
       156   1  2.936964E+05  1.504096E+05  6.107957E+02  2.206249E+05  4.990280E+03  7.260976E+03
       156   2  2.988796E+05  1.553067E+05 -1.702552E+03  2.250591E+05  3.011885E+03  5.167186E+03
       156   3  3.079929E+05  1.584476E+05 -1.807757E+03  2.282923E+05  1.098137E+03  2.987165E+03
       156   4  3.288186E+05  1.743554E+05  1.030753E+04  2.378256E+05  4.573270E+03  6.948265E+03
       156   5  3.265280E+05  1.746629E+05  5.948700E+03  2.388460E+05  2.491163E+03  4.776735E+03
       156   6  3.281899E+05  1.732365E+05  3.887894E+03  2.386654E+05  4.737258E+02  2.518989E+03
       156   7  3.639416E+05  1.983016E+05  2.000400E+04  2.550271E+05  4.156233E+03  6.635535E+03
       156   8  3.541770E+05  1.940193E+05  1.359982E+04  2.526335E+05  1.970413E+03  4.386263E+03
       156   9  3.483875E+05  1.880256E+05  9.583503E+03  2.490389E+05 -1.507125E+02  2.050792E+03
       156  10  2.936963E+05  1.504095E+05  6.106499E+02  2.206249E+05  1.558447E-11  3.915924E-10
       156  11  2.988796E+05  1.553067E+05 -1.702620E+03  2.250591E+05  4.313348E-10  1.269880E-10
       156  12  3.079929E+05  1.584476E+05 -1.807776E+03  2.282923E+05  2.603852E-10 -3.286949E-11
       156  13  3.288185E+05  1.743554E+05  1.030740E+04  2.378255E+05 -2.396966E-10  2.089510E-10
       156  14  3.265280E+05  1.746628E+05  5.948645E+03  2.388460E+05  3.405379E-10  9.544383E-11
       156  15  3.281899E+05  1.732365E+05  3.887881E+03  2.386654E+05  1.833046E-10 -9.375548E-11
       156  16  3.639416E+05  1.983016E+05  2.000388E+04  2.550271E+05 -4.291449E-11  1.577683E-11
       156  17  3.541770E+05  1.940193E+05  1.359977E+04  2.526335E+05 -2.658071E-10 -1.566071E-11
       156  18  3.483875E+05  1.880256E+05  9.583495E+03  2.490389E+05 -2.024541E-13 -7.389467E-11
       156  19  2.936964E+05  1.504096E+05  6.107957E+02  2.206249E+05 -4.990280E+03 -7.260976E+03
       156  20  2.988796E+05  1.553067E+05 -1.702552E+03  2.250591E+05 -3.011885E+03 -5.167186E+03
       156  21  3.079929E+05  1.584476E+05 -1.807757E+03  2.282923E+05 -1.098137E+03 -2.987165E+03
       156  22  3.288186E+05  1.743554E+05  1.030753E+04  2.378256E+05 -4.573270E+03 -6.948265E+03
       156  23  3.265280E+05  1.746629E+05  5.948700E+03  2.388460E+05 -2.491163E+03 -4.776735E+03
       156  24  3.281899E+05  1.732365E+05  3.887894E+03  2.386654E+05 -4.737258E+02 -2.518989E+03
       156  25  3.639416E+05  1.983016E+05  2.000400E+04  2.550271E+05 -4.156233E+03 -6.635535E+03
       156  26  3.541770E+05  1.940193E+05  1.359982E+04  2.526335E+05 -1.970413E+03 -4.386263E+03
       156  27  3.483875E+05  1.880256E+05  9.583503E+03  2.490389E+05  1.507125E+02 -2.050792E+03
       157   1  3.127586E+05  1.623240E+05 -8.936843E+02  2.307945E+05  7.895407E+02  2.284854E+03
       157   2  3.181789E+05  1.687328E+05  6.842217E+02  2.347531E+05 -2.084872E+01  8.896120E+02
       157   3  3.267454E+05  1.723734E+05  3.265553E+03  2.378915E+05 -8.302744E+02 -5.069958E+02
       157   4  3.281570E+05  1.732667E+05  3.356325E+03  2.385551E+05  1.849868E+02  1.831570E+03
       157   5  3.265853E+05  1.746532E+05  3.005081E+03  2.389633E+05 -6.270482E+02  4.350969E+02
       157   6  3.281599E+05  1.732719E+05  3.658633E+03  2.385513E+05 -1.438089E+03 -9.627143E+02
       157   7  3.435558E+05  1.842096E+05  7.606380E+03  2.463160E+05 -4.195949E+02  1.378266E+03
       157   8  3.349917E+05  1.805737E+05  5.325937E+03  2.431736E+05 -1.233259E+03 -1.942639E+01
       157   9  3.295744E+05  1.741704E+05  4.051710E+03  2.392111E+05 -2.045899E+03 -1.418428E+03
       157  10  3.127586E+05  1.623240E+05 -8.936953E+02  2.307945E+05  5.910603E-10  8.134139E-11
       157  11  3.181789E+05  1.687328E+05  6.842203E+02  2.347531E+05  4.565884E-10 -1.062284E-10
       157  12  3.267454E+05  1.723734E+05  3.265551E+03  2.378915E+05  6.617410E-10 -4.557360E-10
       157  13  3.281570E+05  1.732666E+05  3.356318E+03  2.385551E+05  4.898031E-10 -1.768959E-10
       157  14  3.265853E+05  1.746532E+05  3.005080E+03  2.389633E+05  2.527049E-10 -1.530936E-10
       157  15  3.281599E+05  1.732719E+05  3.658628E+03  2.385513E+05  4.758139E-10  1.956000E-12
       157  16  3.435558E+05  1.842096E+05  7.606376E+03  2.463160E+05  5.180954E-11 -3.602453E-10
       157  17  3.349917E+05  1.805737E+05  5.325934E+03  2.431736E+05  1.039212E-10 -3.048058E-10
       157  18  3.295744E+05  1.741704E+05  4.051698E+03  2.392111E+05 -3.001024E-10  4.155267E-10
       157  19  3.127586E+05  1.623240E+05 -8.936843E+02  2.307945E+05 -7.895407E+02 -2.284854E+03
       157  20  3.181789E+05  1.687328E+05  6.842217E+02  2.347531E+05  2.084872E+01 -8.896120E+02
       157  21  3.267454E+05  1.723734E+05  3.265553E+03  2.378915E+05  8.302744E+02  5.069958E+02
       157  22  3.281570E+05  1.732667E+05  3.356325E+03  2.385551E+05 -1.849868E+02 -1.831570E+03
       157  23  3.265853E+05  1.746532E+05  3.005081E+03  2.389633E+05  6.270482E+02 -4.350969E+02
       157  24  3.281599E+05  1.732719E+05  3.658633E+03  2.385513E+05  1.438089E+03  9.627143E+02
       157  25  3.435558E+05  1.842096E+05  7.606380E+03  2.463160E+05  4.195949E+02 -1.378266E+03
       157  26  3.349917E+05  1.805737E+05  5.325937E+03  2.431736E+05  1.233259E+03  1.942639E+01
       157  27  3.295744E+05  1.741704E+05  4.051710E+03  2.392111E+05  2.045899E+03  1.418428E+03
       158   1  3.315406E+05  1.762260E+05  5.418388E+03  2.406498E+05 -1.161310E+03 -1.224494E+03
       158   2  3.373729E+05  1.821263E+05  9.909090E+03  2.441751E+05 -3.629386E+03 -3.835729E+03
       158   3  3.473520E+05  1.865290E+05  1.714153E+04  2.464327E+05 -6.142813E+03 -6.386604E+03
       158   4  3.282028E+05  1.732378E+05  4.366080E+03  2.386864E+05 -1.782312E+03 -1.690096E+03
       158   5  3.265094E+05  1.746568E+05  6.913003E+03  2.388232E+05 -4.177783E+03 -4.246906E+03
       158   6  3.289470E+05  1.745625E+05  1.213873E+04  2.376922E+05 -6.618576E+03 -6.743340E+03
       158   7  3.248651E+05  1.702496E+05  3.313773E+03  2.367229E+05 -2.403309E+03 -2.155695E+03
       158   8  3.156460E+05  1.671873E+05  3.916881E+03  2.334713E+05 -4.726171E+03 -4.658076E+03
       158   9  3.105421E+05  1.625960E+05  7.135827E+03  2.289519E+05 -7.094327E+03 -7.100068E+03
       158  10  3.315406E+05  1.762260E+05  5.418382E+03  2.406498E+05  3.052404E-09  2.028607E-09
       158  11  3.373729E+05  1.821263E+05  9.909038E+03  2.441751E+05 -5.440609E-09 -3.568409E-09
       158  12  3.473519E+05  1.865289E+05  1.714138E+04  2.464326E+05 -8.072642E-09 -4.736061E-09
       158  13  3.282028E+05  1.732378E+05  4.366069E+03  2.386864E+05 -2.173528E-09 -1.423947E-09
       158  14  3.265094E+05  1.746568E+05  6.912936E+03  2.388232E+05 -5.783185E-09 -3.540553E-09
       158  15  3.289469E+05  1.745624E+05  1.213856E+04  2.376922E+05 -2.143121E-09 -1.229938E-09
       158  16  3.248651E+05  1.702496E+05  3.313753E+03  2.367229E+05 -8.210953E-09 -4.714466E-09
       158  17  3.156460E+05  1.671873E+05  3.916798E+03  2.334713E+05 -5.509851E-09 -3.441001E-09
       158  18  3.105421E+05  1.625959E+05  7.135638E+03  2.289519E+05  3.897134E-09  2.142740E-09
       158  19  3.315406E+05  1.762260E+05  5.418388E+03  2.406498E+05  1.161310E+03  1.224494E+03
       158  20  3.373729E+05  1.821263E+05  9.909090E+03  2.441751E+05  3.629386E+03  3.835729E+03
       158  21  3.473520E+05  1.865290E+05  1.714153E+04  2.464327E+05  6.142813E+03  6.386604E+03
       158  22  3.282028E+05  1.732378E+05  4.366080E+03  2.386864E+05  1.782312E+03  1.690096E+03
       158  23  3.265094E+05  1.746568E+05  6.913003E+03  2.388232E+05  4.177783E+03  4.246906E+03
       158  24  3.289470E+05  1.745625E+05  1.213873E+04  2.376922E+05  6.618576E+03  6.743340E+03
       158  25  3.248651E+05  1.702496E+05  3.313773E+03  2.367229E+05  2.403309E+03  2.155695E+03
       158  26  3.156460E+05  1.671873E+05  3.916881E+03  2.334713E+05  4.726171E+03  4.658076E+03
       158  27  3.105421E+05  1.625960E+05  7.135827E+03  2.289519E+05  7.094327E+03  7.100068E+03
       159   1  3.464664E+05  1.952112E+05  2.187819E+04  2.535690E+05 -7.313438E+03 -7.791617E+03
       159   2  3.662885E+05  1.873529E+05  3.578236E+04  2.471925E+05 -1.991137E+04 -1.733633E+04
       159   3  4.108618E+05  2.062280E+05  6.985639E+04  2.267275E+05 -3.333259E+04 -2.578305E+04
       159   4  3.292790E+05  1.733282E+05  1.545278E+04  2.404288E+05 -8.048490E+03 -8.342635E+03
       159   5  3.262098E+05  1.764081E+05  2.702713E+04  2.352435E+05 -1.932778E+04 -1.689933E+04
       159   6  3.476060E+05  2.059363E+05  5.762850E+04  2.159697E+05 -3.142974E+04 -2.435858E+04
       159   7  3.120922E+05  1.514461E+05  9.027446E+03  2.272893E+05 -8.783507E+03 -8.893604E+03
       159   8  2.861333E+05  1.654636E+05  1.827193E+04  2.232951E+05 -1.874425E+04 -1.646234E+04
       159   9  2.843558E+05  2.056455E+05  4.540086E+04  2.052121E+05 -2.952717E+04 -2.293405E+04
       159  10  3.464663E+05  1.952112E+05  2.187798E+04  2.535689E+05 -8.239125E-10  4.512683E-10
       159  11  3.662880E+05  1.873525E+05  3.578105E+04  2.471922E+05 -1.629035E-10 -1.870497E-10
       159  12  4.108604E+05  2.062270E+05  6.985305E+04  2.267268E+05 -9.109624E-11 -2.391629E-10
       159  13  3.292789E+05  1.733281E+05  1.545253E+04  2.404287E+05 -7.688816E-11  1.039420E-10
       159  14  3.262093E+05  1.764077E+05  2.702589E+04  2.352432E+05  8.289711E-12 -9.796096E-11
       159  15  3.476048E+05  2.059354E+05  5.762553E+04  2.159691E+05  1.289540E-10 -5.235877E-11
       159  16  3.120921E+05  1.514460E+05  9.027153E+03  2.272893E+05  9.607892E-10 -2.716181E-10
       159  17  2.861329E+05  1.654632E+05  1.827076E+04  2.232948E+05  8.040965E-10  8.562506E-12
       159  18  2.843548E+05  2.056447E+05  4.539823E+04  2.052115E+05  2.691609E-10  1.623990E-10
       159  19  3.464664E+05  1.952112E+05  2.187819E+04  2.535690E+05  7.313438E+03  7.791617E+03
       159  20  3.662885E+05  1.873529E+05  3.578236E+04  2.471925E+05  1.991137E+04  1.733633E+04
       159  21  4.108618E+05  2.062280E+05  6.985639E+04  2.267275E+05  3.333259E+04  2.578305E+04
       159  22  3.292790E+05  1.733282E+05  1.545278E+04  2.404288E+05  8.048490E+03  8.342635E+03
       159  23  3.262098E+05  1.764081E+05  2.702713E+04  2.352435E+05  1.932778E+04  1.689933E+04
       159  24  3.476060E+05  2.059363E+05  5.762850E+04  2.159697E+05  3.142974E+04  2.435858E+04
       159  25  3.120922E+05  1.514461E+05  9.027446E+03  2.272893E+05  8.783507E+03  8.893604E+03
       159  26  2.861333E+05  1.654636E+05  1.827193E+04  2.232951E+05  1.874425E+04  1.646234E+04
       159  27  2.843558E+05  2.056455E+05  4.540086E+04  2.052121E+05  2.952717E+04  2.293405E+04
       160   1  5.701039E+05  6.411043E+04  7.159683E+04  3.574306E+04  4.179314E+04 -7.628401E+02
       160   2  5.526203E+05  1.644375E+04  3.748215E+04  1.762481E+04  2.571618E+04 -2.325101E+03
       160   3  5.469939E+05  7.844954E+03  2.359457E+04  3.071354E+03  9.639827E+03 -2.238178E+03
       160   4  5.088475E+05  4.892515E+04  5.688922E+04  8.889596E+03  3.892642E+04 -7.646126E+02
       160   5  5.030968E+05  4.433531E+03  2.692556E+04  7.107430E+03  2.483014E+04 -2.325548E+03
       160   6  5.088600E+05 -1.333049E+03  1.581549E+04  8.889287E+03  1.073410E+04 -2.238086E+03
       160   7  4.475960E+05  3.374232E+04  4.218176E+04 -1.796121E+04  3.605998E+04 -7.661375E+02
       160   8  4.535758E+05 -7.576427E+03  1.636890E+04 -3.409099E+03  2.394418E+04 -2.325965E+03
       160   9  4.707276E+05 -1.051102E+04  8.036355E+03  1.470686E+04  1.182831E+04 -2.237973E+03
       160  10  5.701020E+05  6.410996E+04  7.159355E+04  3.574308E+04  7.054070E-11 -1.513107E-11
       160  11  5.526196E+05  1.644356E+04  3.748090E+04  1.762486E+04  2.060730E-10 -1.075080E-11
       160  12  5.469938E+05  7.844924E+03  2.359439E+04  3.071371E+03  1.536188E-10  1.445729E-10
       160  13  5.088458E+05  4.892474E+04  5.688637E+04  8.889620E+03 -6.592948E-11  1.559459E-11
       160  14  5.030961E+05  4.433360E+03  2.692440E+04  7.107477E+03  2.191212E-10  5.124835E-11
       160  15  5.088599E+05 -1.333085E+03  1.581526E+04  8.889306E+03  3.491897E-10  1.080999E-10
       160  16  4.475946E+05  3.374197E+04  4.217932E+04 -1.796118E+04  3.649423E-11  6.963354E-12
       160  17  4.535752E+05 -7.576587E+03  1.636781E+04 -3.409054E+03  4.522474E-11  3.210236E-11
       160  18  4.707275E+05 -1.051106E+04  8.036083E+03  1.470688E+04 -1.064591E-10  1.931345E-11
       160  19  5.701039E+05  6.411043E+04  7.159683E+04  3.574306E+04 -4.179314E+04  7.628401E+02
       160  20  5.526203E+05  1.644375E+04  3.748215E+04  1.762481E+04 -2.571618E+04  2.325101E+03
       160  21  5.469939E+05  7.844954E+03  2.359457E+04  3.071354E+03 -9.639827E+03  2.238178E+03
       160  22  5.088475E+05  4.892515E+04  5.688922E+04  8.889596E+03 -3.892642E+04  7.646126E+02
       160  23  5.030968E+05  4.433531E+03  2.692556E+04  7.107430E+03 -2.483014E+04  2.325548E+03
       160  24  5.088600E+05 -1.333049E+03  1.581549E+04  8.889287E+03 -1.073410E+04  2.238086E+03
       160  25  4.475960E+05  3.374232E+04  4.218176E+04 -1.796121E+04 -3.605998E+04  7.661375E+02
       160  26  4.535758E+05 -7.576427E+03  1.636890E+04 -3.409099E+03 -2.394418E+04  2.325965E+03
       160  27  4.707276E+05 -1.051102E+04  8.036355E+03  1.470686E+04 -1.182831E+04  2.237973E+03
       161   1  5.363119E+05  9.086449E+03  1.884626E+04  9.593960E+03  7.830532E+03 -1.735581E+03
       161   2  5.242820E+05  4.414383E+03  1.192992E+04  7.283451E+03  3.623377E+03 -1.104447E+03
       161   3  5.132526E+05  1.554981E+03  8.204072E+03  8.618817E+03 -5.837660E+02 -3.867830E+02
       161   4  5.065182E+05  1.913569E+03  1.275829E+04  8.907582E+03  8.536283E+03 -1.735585E+03
       161   5  5.060275E+05  2.597033E+01  8.231872E+03  7.084661E+03  4.433192E+03 -1.104434E+03
       161   6  5.065193E+05 -6.691244E+01  6.823899E+03  8.907621E+03  3.300405E+02 -3.867599E+02
       161   7  4.767252E+05 -5.259364E+03  6.670279E+03  8.221237E+03  9.242001E+03 -1.735590E+03
       161   8  4.877733E+05 -4.362463E+03  4.533809E+03  6.885877E+03  5.242985E+03 -1.104422E+03
       161   9  4.997861E+05 -1.688808E+03  5.443728E+03  9.196423E+03  1.243837E+03 -3.867358E+02
       161  10  5.363119E+05  9.086429E+03  1.884614E+04  9.593971E+03 -2.682272E-11  1.380567E-10
       161  11  5.242820E+05  4.414379E+03  1.192989E+04  7.283454E+03  1.053237E-10  3.678319E-11
       161  12  5.132526E+05  1.554981E+03  8.204071E+03  8.618817E+03  7.670608E-11 -3.049993E-12
       161  13  5.065181E+05  1.913547E+03  1.275815E+04  8.907594E+03  8.555139E-10  1.016728E-10
       161  14  5.060275E+05  2.596375E+01  8.231833E+03  7.084665E+03  2.064753E-10 -1.505653E-11
       161  15  5.065193E+05 -6.691263E+01  6.823899E+03  8.907621E+03 -2.112321E-10 -8.076548E-11
       161  16  4.767251E+05 -5.259390E+03  6.670113E+03  8.221250E+03 -1.538308E-10 -1.123948E-11
       161  17  4.877732E+05 -4.362472E+03  4.533755E+03  6.885882E+03  2.108893E-10 -8.363997E-11
       161  18  4.997861E+05 -1.688809E+03  5.443725E+03  9.196423E+03 -1.381564E-11 -1.003205E-10
       161  19  5.363119E+05  9.086449E+03  1.884626E+04  9.593960E+03 -7.830532E+03  1.735581E+03
       161  20  5.242820E+05  4.414383E+03  1.192992E+04  7.283451E+03 -3.623377E+03  1.104447E+03
       161  21  5.132526E+05  1.554981E+03  8.204072E+03  8.618817E+03  5.837660E+02  3.867830E+02
       161  22  5.065182E+05  1.913569E+03  1.275829E+04  8.907582E+03 -8.536283E+03  1.735585E+03
       161  23  5.060275E+05  2.597033E+01  8.231872E+03  7.084661E+03 -4.433192E+03  1.104434E+03
       161  24  5.065193E+05 -6.691244E+01  6.823899E+03  8.907621E+03 -3.300405E+02  3.867599E+02
       161  25  4.767252E+05 -5.259364E+03  6.670279E+03  8.221237E+03 -9.242001E+03  1.735590E+03
       161  26  4.877733E+05 -4.362463E+03  4.533809E+03  6.885877E+03 -5.242985E+03  1.104422E+03
       161  27  4.997861E+05 -1.688808E+03  5.443728E+03  9.196423E+03 -1.243837E+03  3.867358E+02
       162   1  5.049861E+05 -4.591026E+02  6.579767E+03  9.251622E+03 -1.795473E+03  6.268010E+01
       162   2  4.929353E+05 -3.108060E+03  6.095693E+03  6.883768E+03 -6.063209E+03  7.827141E+02
       162   3  4.819274E+05 -3.806429E+03  8.876192E+03  8.161714E+03 -1.033088E+04  1.423832E+03
       162   4  5.065364E+05 -8.157094E+01  6.918106E+03  8.907601E+03 -8.834210E+02  6.270516E+01
       162   5  5.060061E+05  3.551143E+01  8.749947E+03  7.084685E+03 -5.246004E+03  7.827285E+02
       162   6  5.065351E+05  2.119604E+03  1.391212E+04  8.907553E+03 -9.608593E+03  1.423829E+03
       162   7  5.080867E+05  2.959615E+02  7.256448E+03  8.563580E+03  2.863351E+01  6.272921E+01
       162   8  5.190771E+05  3.179072E+03  1.140420E+04  7.285606E+03 -4.428782E+03  7.827434E+02
       162   9  5.311434E+05  8.045601E+03  1.894801E+04  9.653422E+03 -8.886283E+03  1.423829E+03
       162  10  5.049861E+05 -4.591035E+02  6.579761E+03  9.251622E+03  2.387924E-10  1.036829E-10
       162  11  4.929352E+05 -3.108070E+03  6.095623E+03  6.883772E+03 -4.712067E-11  1.301926E-10
       162  12  4.819273E+05 -3.806460E+03  8.875988E+03  8.161726E+03  5.928342E-11 -1.356564E-10
       162  13  5.065364E+05 -8.157115E+01  6.918105E+03  8.907601E+03  2.693000E-10 -5.946523E-12
       162  14  5.060061E+05  3.550340E+01  8.749895E+03  7.084688E+03 -4.301992E-11  8.960043E-11
       162  15  5.065350E+05  2.119577E+03  1.391194E+04  8.907564E+03 -5.563422E-11 -9.361032E-11
       162  16  5.080867E+05  2.959615E+02  7.256448E+03  8.563580E+03  2.466702E-12 -9.571819E-11
       162  17  5.190771E+05  3.179066E+03  1.140416E+04  7.285609E+03 -1.179210E-10 -7.403298E-12
       162  18  5.311433E+05  8.045578E+03  1.894786E+04  9.653432E+03 -6.309513E-12  4.385799E-12
       162  19  5.049861E+05 -4.591026E+02  6.579767E+03  9.251622E+03  1.795473E+03 -6.268010E+01
       162  20  4.929353E+05 -3.108060E+03  6.095693E+03  6.883768E+03  6.063209E+03 -7.827141E+02
       162  21  4.819274E+05 -3.806429E+03  8.876192E+03  8.161714E+03  1.033088E+04 -1.423832E+03
       162  22  5.065364E+05 -8.157094E+01  6.918106E+03  8.907601E+03  8.834210E+02 -6.270516E+01
       162  23  5.060061E+05  3.551143E+01  8.749947E+03  7.084685E+03  5.246004E+03 -7.827285E+02
       162  24  5.065351E+05  2.119604E+03  1.391212E+04  8.907553E+03  9.608593E+03 -1.423829E+03
       162  25  5.080867E+05  2.959615E+02  7.256448E+03  8.563580E+03 -2.863351E+01 -6.272921E+01
       162  26  5.190771E+05  3.179072E+03  1.140420E+04  7.285606E+03  4.428782E+03 -7.827434E+02
       162  27  5.311434E+05  8.045601E+03  1.894801E+04  9.653422E+03  8.886283E+03 -1.423829E+03
       163   1  4.761890E+05 -9.401866E+03  1.061648E+04  1.533344E+04 -1.308769E+04  1.921415E+03
       163   2  4.584208E+05 -5.851871E+03  2.024052E+04 -4.516979E+03 -2.681972E+04  2.062911E+03
       163   3  4.530666E+05  4.020706E+04  4.942802E+04 -2.079633E+04 -4.055125E+04  6.879421E+02
       163   4  5.091299E+05 -1.471733E+03  1.734565E+04  8.890824E+03 -1.200803E+04  1.921560E+03
       163   5  5.027590E+05  4.904244E+03  2.970766E+04  7.105485E+03 -2.756274E+04  2.062397E+03
       163   6  5.091161E+05  5.410240E+04  6.289692E+04  8.890896E+03 -4.311723E+04  6.860184E+02
       163   7  5.420719E+05  6.458490E+03  2.407479E+04  2.447863E+03 -1.092832E+04  1.921682E+03
       163   8  5.470993E+05  1.566074E+04  3.917475E+04  1.872879E+04 -2.830582E+04  2.061854E+03
       163   9  5.651704E+05  6.800083E+04  7.636609E+04  3.858081E+04 -4.568344E+04  6.838496E+02
       163  10  4.761888E+05 -9.401916E+03  1.061615E+04  1.533346E+04 -1.357478E-10 -3.104240E-10
       163  11  4.584200E+05 -5.852069E+03  2.023916E+04 -4.516934E+03 -7.778491E-11 -2.426142E-10
       163  12  4.530648E+05  4.020662E+04  4.942493E+04 -2.079631E+04 -9.194364E-11 -8.913896E-11
       163  13  5.091298E+05 -1.471775E+03  1.734537E+04  8.890842E+03 -8.905870E-11 -1.992560E-10
       163  14  5.027582E+05  4.904035E+03  2.970622E+04  7.105531E+03  1.381125E-10 -1.889562E-10
       163  15  5.091141E+05  5.410190E+04  6.289342E+04  8.890920E+03 -1.517281E-10 -5.235938E-11
       163  16  5.420718E+05  6.458454E+03  2.407456E+04  2.447879E+03  3.059445E-10 -7.936876E-11
       163  17  5.470985E+05  1.566052E+04  3.917324E+04  1.872884E+04 -4.281713E-10 -1.139507E-10
       163  18  5.651682E+05  6.800027E+04  7.636217E+04  3.858083E+04  3.864297E-10 -2.895198E-11
       163  19  4.761890E+05 -9.401866E+03  1.061648E+04  1.533344E+04  1.308769E+04 -1.921415E+03
       163  20  4.584208E+05 -5.851871E+03  2.024052E+04 -4.516979E+03  2.681972E+04 -2.062911E+03
       163  21  4.530666E+05  4.020706E+04  4.942802E+04 -2.079633E+04  4.055125E+04 -6.879421E+02
       163  22  5.091299E+05 -1.471733E+03  1.734565E+04  8.890824E+03  1.200803E+04 -1.921560E+03
       163  23  5.027590E+05  4.904244E+03  2.970766E+04  7.105485E+03  2.756274E+04 -2.062397E+03
       163  24  5.091161E+05  5.410240E+04  6.289692E+04  8.890896E+03  4.311723E+04 -6.860184E+02
       163  25  5.420719E+05  6.458490E+03  2.407479E+04  2.447863E+03  1.092832E+04 -1.921682E+03
       163  26  5.470993E+05  1.566074E+04  3.917475E+04  1.872879E+04  2.830582E+04 -2.061854E+03
       163  27  5.651704E+05  6.800083E+04  7.636609E+04  3.858081E+04  4.568344E+04 -6.838496E+02
       164   1 -9.012942E+04 -2.281057E+05 -1.001570E+05  4.943139E+04 -1.279688E+03 -5.544503E+04
       164   2 -2.591912E+04 -2.024367E+05 -5.457403E+04  2.495425E+04 -3.912151E+03 -3.288499E+04
       164   3 -1.398457E+04 -1.927750E+05 -3.675033E+04  5.913032E+03 -3.850574E+03 -1.032402E+04
       164   4 -6.520139E+04 -1.275919E+05 -7.601880E+04  1.358203E+04 -1.276176E+03 -5.067057E+04
       164   5 -5.886645E+03 -1.198670E+05 -3.698175E+04  1.086088E+04 -3.911240E+03 -3.134146E+04
       164   6  1.715613E+03 -1.275874E+05 -2.345737E+04  1.357701E+04 -3.850845E+03 -1.201222E+04
       164   7 -4.026925E+04 -2.706606E+04 -5.188056E+04 -2.227316E+04 -1.273216E+03 -4.589534E+04
       164   8  1.414613E+04 -3.729052E+04 -1.938975E+04 -3.234380E+03 -3.910400E+03 -2.979772E+04
       164   9  1.741575E+04 -6.239556E+04 -1.016459E+04  2.124180E+04 -3.851157E+03 -1.370059E+04
       164  10 -9.013025E+04 -2.281090E+05 -1.001628E+05  4.943134E+04 -6.865201E-11 -2.472465E-10
       164  11 -2.591942E+04 -2.024378E+05 -5.457609E+04  2.495414E+04  1.325382E-10  1.554584E-10
       164  12 -1.398461E+04 -1.927751E+05 -3.675056E+04  5.913000E+03 -2.010192E-10  3.592456E-10
       164  13 -6.520208E+04 -1.275947E+05 -7.602363E+04  1.358198E+04 -2.009080E-10  3.386127E-12
       164  14 -5.886925E+03 -1.198681E+05 -3.698362E+04  1.086079E+04  7.361740E-11 -3.372756E-12
       164  15  1.715558E+03 -1.275875E+05 -2.345767E+04  1.357697E+04 -5.147345E-10  1.839285E-11
       164  16 -4.026981E+04 -2.706832E+04 -5.188452E+04 -2.227320E+04  2.607176E-10  2.081227E-10
       164  17  1.414588E+04 -3.729148E+04 -1.939144E+04 -3.234474E+03  2.387654E-11 -2.127485E-11
       164  18  1.741568E+04 -6.239576E+04 -1.016497E+04  2.124176E+04 -1.764947E-10 -4.899516E-10
       164  19 -9.012942E+04 -2.281057E+05 -1.001570E+05  4.943139E+04  1.279688E+03  5.544503E+04
       164  20 -2.591912E+04 -2.024367E+05 -5.457403E+04  2.495425E+04  3.912151E+03  3.288499E+04
       164  21 -1.398457E+04 -1.927750E+05 -3.675033E+04  5.913032E+03  3.850574E+03  1.032402E+04
       164  22 -6.520139E+04 -1.275919E+05 -7.601880E+04  1.358203E+04  1.276176E+03  5.067057E+04
       164  23 -5.886645E+03 -1.198670E+05 -3.698175E+04  1.086088E+04  3.911240E+03  3.134146E+04
       164  24  1.715613E+03 -1.275874E+05 -2.345737E+04  1.357701E+04  3.850845E+03  1.201222E+04
       164  25 -4.026925E+04 -2.706606E+04 -5.188056E+04 -2.227316E+04  1.273216E+03  4.589534E+04
       164  26  1.414613E+04 -3.729052E+04 -1.938975E+04 -3.234380E+03  3.910400E+03  2.979772E+04
       164  27  1.741575E+04 -6.239556E+04 -1.016459E+04  2.124180E+04  3.851157E+03  1.370059E+04
       165   1 -1.506874E+04 -1.770731E+05 -3.094973E+04  1.497557E+04 -3.073346E+03 -7.532645E+03
       165   2 -8.519947E+03 -1.583096E+05 -2.383844E+04  1.082041E+04 -2.137574E+03  9.801320E+02
       165   3 -6.486794E+03 -1.417845E+05 -2.339933E+04  1.224388E+04 -1.104298E+03  9.493097E+03
       165   4 -2.440735E+03 -1.246483E+05 -2.024155E+04  1.360944E+04 -3.073428E+03 -8.596107E+03
       165   5 -1.599130E+02 -1.235390E+05 -1.681438E+04  1.082011E+04 -2.137705E+03 -1.998337E+02
       165   6 -2.374313E+03 -1.246479E+05 -1.997814E+04  1.360942E+04 -1.104443E+03  8.196395E+03
       165   7  1.018711E+04 -7.222095E+04 -9.533516E+03  1.224320E+04 -3.073506E+03 -9.659657E+03
       165   8  8.200047E+03 -8.876721E+04 -9.790379E+03  1.081981E+04 -2.137837E+03 -1.379864E+03
       165   9  1.738158E+03 -1.075111E+05 -1.655696E+04  1.497500E+04 -1.104595E+03  6.899659E+03
       165  10 -1.506877E+04 -1.770732E+05 -3.094985E+04  1.497555E+04  1.834182E-10  1.063972E-10
       165  11 -8.519952E+03 -1.583096E+05 -2.383845E+04  1.082042E+04 -3.263822E-10  3.101594E-10
       165  12 -6.486819E+03 -1.417846E+05 -2.339950E+04  1.224389E+04 -4.161111E-11  1.799768E-10
       165  13 -2.440765E+03 -1.246484E+05 -2.024171E+04  1.360942E+04 -1.377267E-10  9.726605E-12
       165  14 -1.599179E+02 -1.235390E+05 -1.681439E+04  1.082011E+04  5.075968E-12  1.383963E-11
       165  15 -2.374332E+03 -1.246480E+05 -1.997827E+04  1.360943E+04  2.160900E-10  1.783985E-11
       165  16  1.018707E+04 -7.222106E+04 -9.533709E+03  1.224318E+04  8.089829E-11 -1.879338E-10
       165  17  8.200042E+03 -8.876721E+04 -9.790392E+03  1.081981E+04  3.078232E-10 -6.104513E-11
       165  18  1.738144E+03 -1.075111E+05 -1.655705E+04  1.497501E+04  2.954862E-10 -3.648098E-10
       165  19 -1.506874E+04 -1.770731E+05 -3.094973E+04  1.497557E+04  3.073346E+03  7.532645E+03
       165  20 -8.519947E+03 -1.583096E+05 -2.383844E+04  1.082041E+04  2.137574E+03 -9.801320E+02
       165  21 -6.486794E+03 -1.417845E+05 -2.339933E+04  1.224388E+04  1.104298E+03 -9.493097E+03
       165  22 -2.440735E+03 -1.246483E+05 -2.024155E+04  1.360944E+04  3.073428E+03  8.596107E+03
       165  23 -1.599130E+02 -1.235390E+05 -1.681438E+04  1.082011E+04  2.137705E+03  1.998337E+02
       165  24 -2.374313E+03 -1.246479E+05 -1.997814E+04  1.360942E+04  1.104443E+03 -8.196395E+03
       165  25  1.018711E+04 -7.222095E+04 -9.533516E+03  1.224320E+04  3.073506E+03  9.659657E+03
       165  26  8.200047E+03 -8.876721E+04 -9.790379E+03  1.081981E+04  2.137837E+03  1.379864E+03
       165  27  1.738158E+03 -1.075111E+05 -1.655696E+04  1.497500E+04  1.104595E+03 -6.899659E+03
       166   1  6.293784E+02 -1.319327E+05 -2.386019E+04  2.106605E+04 -3.857396E+02  1.304795E+04
       166   2 -2.520992E+03 -1.068336E+05 -3.318178E+04 -2.931615E+03  3.861964E+02  3.083081E+04
       166   3 -5.594465E+04 -9.661923E+04 -6.664971E+04 -2.138874E+04  2.252218E+02  4.861406E+04
       166   4  1.673287E+03 -1.275056E+05 -2.305653E+04  1.359934E+04 -3.860921E+02  1.156446E+04
       166   5 -5.741017E+03 -1.199671E+05 -3.616570E+04  1.083296E+04  3.868345E+02  3.046484E+04
       166   6 -6.362504E+04 -1.275093E+05 -7.419815E+04  1.360700E+04  2.280576E+02  4.936509E+04
       166   7  2.717406E+03 -1.230783E+05 -2.225282E+04  6.132566E+03 -3.864089E+02  1.008096E+04
       166   8 -8.960342E+03 -1.331000E+05 -3.914953E+04  2.459725E+04  3.874563E+02  3.009888E+04
       166   9 -7.130090E+04 -1.583959E+05 -8.174600E+04  4.860099E+04  2.309781E+02  5.011608E+04
       166  10  6.293325E+02 -1.319329E+05 -2.386051E+04  2.106606E+04  5.303874E-10 -1.698827E-10
       166  11 -2.521247E+03 -1.068347E+05 -3.318357E+04 -2.931625E+03  1.770900E-10  6.239017E-11
       166  12 -5.594528E+04 -9.662176E+04 -6.665415E+04 -2.138875E+04 -6.104783E-11 -9.031786E-11
       166  13  1.673251E+03 -1.275057E+05 -2.305678E+04  1.359934E+04  3.535663E-10 -3.192191E-11
       166  14 -5.741267E+03 -1.199681E+05 -3.616745E+04  1.083295E+04 -1.674618E-10 -2.350102E-11
       166  15 -6.362570E+04 -1.275119E+05 -7.420273E+04  1.360699E+04 -1.503736E-11  8.824410E-12
       166  16  2.717379E+03 -1.230784E+05 -2.225301E+04  6.132569E+03  2.706136E-10  5.410397E-11
       166  17 -8.960586E+03 -1.331010E+05 -3.915124E+04  2.459724E+04  6.510932E-11  1.811177E-10
       166  18 -7.130158E+04 -1.583986E+05 -8.175072E+04  4.860098E+04 -3.905457E-11 -8.413132E-11
       166  19  6.293784E+02 -1.319327E+05 -2.386019E+04  2.106605E+04  3.857396E+02 -1.304795E+04
       166  20 -2.520992E+03 -1.068336E+05 -3.318178E+04 -2.931615E+03 -3.861964E+02 -3.083081E+04
       166  21 -5.594465E+04 -9.661923E+04 -6.664971E+04 -2.138874E+04 -2.252218E+02 -4.861406E+04
       166  22  1.673287E+03 -1.275056E+05 -2.305653E+04  1.359934E+04  3.860921E+02 -1.156446E+04
       166  23 -5.741017E+03 -1.199671E+05 -3.616570E+04  1.083296E+04 -3.868345E+02 -3.046484E+04
       166  24 -6.362504E+04 -1.275093E+05 -7.419815E+04  1.360700E+04 -2.280576E+02 -4.936509E+04
       166  25  2.717406E+03 -1.230783E+05 -2.225282E+04  6.132566E+03  3.864089E+02 -1.008096E+04
       166  26 -8.960342E+03 -1.331000E+05 -3.914953E+04  2.459725E+04 -3.874563E+02 -3.009888E+04
       166  27 -7.130090E+04 -1.583959E+05 -8.174600E+04  4.860099E+04 -2.309781E+02 -5.011608E+04
       167   1  1.281556E+05  5.849773E+04 -1.072132E+04  1.011820E+05  2.938079E+03  3.903307E+03
       167   2  1.364884E+05  5.759108E+04 -1.210966E+04  1.107845E+05  1.054417E+03  6.098771E+03
       167   3  1.541128E+05  5.884942E+04 -1.108801E+04  1.157890E+05  8.316996E+02  6.079417E+03
       167   4  2.106371E+05  1.060907E+05  1.426776E+04  1.369248E+05  7.040140E+03  6.979386E+03
       167   5  2.034349E+05  1.006844E+05  6.708163E+03  1.422512E+05  2.497691E+03  7.180970E+03
       167   6  2.060999E+05  9.801945E+04  3.865257E+03  1.429797E+05 -3.838902E+02  5.167886E+03
       167   7  2.931269E+05  1.536863E+05  3.925651E+04  1.726729E+05  1.114300E+04  1.005593E+04
       167   8  2.703864E+05  1.437798E+05  2.552555E+04  1.737216E+05  3.941178E+03  8.263309E+03
       167   9  2.580894E+05  1.371908E+05  1.881802E+04  1.701728E+05 -1.599602E+03  4.256254E+03
       167  10  1.281556E+05  5.849771E+04 -1.072137E+04  1.011820E+05 -5.369590E-11 -1.877589E-11
       167  11  1.364884E+05  5.759104E+04 -1.210973E+04  1.107844E+05  3.269671E-10  1.212800E-10
       167  12  1.541128E+05  5.884938E+04 -1.108809E+04  1.157890E+05  8.969987E-11  8.169308E-11
       167  13  2.106370E+05  1.060906E+05  1.426757E+04  1.369248E+05  1.745488E-10  4.416736E-11
       167  14  2.034349E+05  1.006844E+05  6.708054E+03  1.422512E+05  1.621365E-10  3.419296E-11
       167  15  2.060999E+05  9.801942E+04  3.865207E+03  1.429797E+05  2.586343E-10 -3.264199E-11
       167  16  2.931267E+05  1.536862E+05  3.925609E+04  1.726728E+05  1.865691E-10  9.084650E-11
       167  17  2.703863E+05  1.437797E+05  2.552540E+04  1.737215E+05 -1.111226E-10  1.480224E-11
       167  18  2.580894E+05  1.371908E+05  1.881799E+04  1.701728E+05 -1.196317E-10 -1.207659E-10
       167  19  1.281556E+05  5.849773E+04 -1.072132E+04  1.011820E+05 -2.938079E+03 -3.903307E+03
       167  20  1.364884E+05  5.759108E+04 -1.210966E+04  1.107845E+05 -1.054417E+03 -6.098771E+03
       167  21  1.541128E+05  5.884942E+04 -1.108801E+04  1.157890E+05 -8.316996E+02 -6.079417E+03
       167  22  2.106371E+05  1.060907E+05  1.426776E+04  1.369248E+05 -7.040140E+03 -6.979386E+03
       167  23  2.034349E+05  1.006844E+05  6.708163E+03  1.422512E+05 -2.497691E+03 -7.180970E+03
       167  24  2.060999E+05  9.801945E+04  3.865257E+03  1.429797E+05  3.838902E+02 -5.167886E+03
       167  25  2.931269E+05  1.536863E+05  3.925651E+04  1.726729E+05 -1.114300E+04 -1.005593E+04
       167  26  2.703864E+05  1.437798E+05  2.552555E+04  1.737216E+05 -3.941178E+03 -8.263309E+03
       167  27  2.580894E+05  1.371908E+05  1.881802E+04  1.701728E+05  1.599602E+03 -4.256254E+03
       168   1  1.605682E+05  6.640117E+04 -9.654251E+03  1.196128E+05  2.983292E+02  4.818344E+03
       168   2  1.692802E+05  7.616946E+04 -7.689415E+03  1.260170E+05  2.008385E+02  3.748556E+03
       168   3  1.829145E+05  8.160809E+04 -5.156366E+03  1.309642E+05  1.949012E+02  2.556579E+03
       168   4  2.060449E+05  9.829908E+04  3.059807E+03  1.422947E+05 -3.940318E+02  4.299162E+03
       168   5  2.034758E+05  1.002839E+05  1.810634E+03  1.431466E+05 -6.382425E+02  3.119388E+03
       168   6  2.058605E+05  9.797077E+04  1.256899E+03  1.425413E+05 -7.908925E+02  1.817432E+03
       168   7  2.515238E+05  1.301982E+05  1.577367E+04  1.649785E+05 -1.086462E+03  3.779929E+03
       168   8  2.376728E+05  1.243993E+05  1.131065E+04  1.602774E+05 -1.477391E+03  2.490169E+03
       168   9  2.288074E+05  1.143340E+05  7.670221E+03  1.541191E+05 -1.776748E+03  1.078239E+03
       168  10  1.605682E+05  6.640114E+04 -9.654295E+03  1.196128E+05  4.068240E-12 -1.997389E-10
       168  11  1.692802E+05  7.616945E+04 -7.689442E+03  1.260170E+05  1.283626E-10 -1.574946E-10
       168  12  1.829145E+05  8.160808E+04 -5.156378E+03  1.309642E+05 -1.988838E-11 -2.694803E-11
       168  13  2.060448E+05  9.829906E+04  3.059772E+03  1.422947E+05  3.049073E-11 -5.048094E-11
       168  14  2.034758E+05  1.002839E+05  1.810615E+03  1.431466E+05  6.299095E-12 -1.232211E-10
       168  15  2.058605E+05  9.797076E+04  1.256892E+03  1.425413E+05  1.069614E-10 -4.524611E-11
       168  16  2.515238E+05  1.301982E+05  1.577364E+04  1.649785E+05  4.315270E-11  1.156891E-10
       168  17  2.376728E+05  1.243993E+05  1.131064E+04  1.602774E+05 -2.788288E-10  1.961316E-10
       168  18  2.288074E+05  1.143340E+05  7.670213E+03  1.541191E+05  6.464331E-11 -8.785121E-11
       168  19  1.605682E+05  6.640117E+04 -9.654251E+03  1.196128E+05 -2.983292E+02 -4.818344E+03
       168  20  1.692802E+05  7.616946E+04 -7.689415E+03  1.260170E+05 -2.008385E+02 -3.748556E+03
       168  21  1.829145E+05  8.160809E+04 -5.156366E+03  1.309642E+05 -1.949012E+02 -2.556579E+03
       168  22  2.060449E+05  9.829908E+04  3.059807E+03  1.422947E+05  3.940318E+02 -4.299162E+03
       168  23  2.034758E+05  1.002839E+05  1.810634E+03  1.431466E+05  6.382425E+02 -3.119388E+03
       168  24  2.058605E+05  9.797077E+04  1.256899E+03  1.425413E+05  7.908925E+02 -1.817432E+03
       168  25  2.515238E+05  1.301982E+05  1.577367E+04  1.649785E+05  1.086462E+03 -3.779929E+03
       168  26  2.376728E+05  1.243993E+05  1.131065E+04  1.602774E+05  1.477391E+03 -2.490169E+03
       168  27  2.288074E+05  1.143340E+05  7.670221E+03  1.541191E+05  1.776748E+03 -1.078239E+03
       169   1  1.908377E+05  8.736491E+04 -2.986400E+03  1.349682E+05  3.538941E+02  1.931578E+03
       169   2  1.995878E+05  9.755113E+04  7.658005E+01  1.412367E+05  4.978025E+02  7.920942E+02
       169   3  2.130742E+05  1.031455E+05  3.523529E+03  1.461601E+05  6.421545E+02 -3.480110E+02
       169   4  2.058540E+05  9.797960E+04  1.138579E+03  1.425110E+05 -6.042632E+02  1.213164E+03
       169   5  2.034877E+05  1.002788E+05  1.150391E+03  1.431808E+05 -4.611044E+02  7.312730E+01
       169   6  2.058578E+05  9.798652E+04  1.546897E+03  1.425057E+05 -3.174925E+02 -1.067526E+03
       169   7  2.208703E+05  1.085943E+05  5.263473E+03  1.500538E+05 -1.562439E+03  4.947356E+02
       169   8  2.073875E+05  1.030065E+05  2.224196E+03  1.451250E+05 -1.420013E+03 -6.458408E+02
       169   9  1.986415E+05  9.282753E+04 -4.297335E+02  1.388513E+05 -1.277124E+03 -1.787030E+03
       169  10  1.908377E+05  8.736491E+04 -2.986407E+03  1.349682E+05 -1.495497E-11  2.285701E-11
       169  11  1.995878E+05  9.755112E+04  7.657840E+01  1.412367E+05 -2.413544E-10  1.157982E-11
       169  12  2.130742E+05  1.031455E+05  3.523528E+03  1.461601E+05 -7.051246E-11 -1.357222E-10
       169  13  2.058540E+05  9.797960E+04  1.138575E+03  1.425110E+05  2.477287E-10 -1.608781E-10
       169  14  2.034877E+05  1.002788E+05  1.150390E+03  1.431808E+05  1.761934E-10 -1.622392E-10
       169  15  2.058578E+05  9.798651E+04  1.546894E+03  1.425057E+05  3.444501E-10 -9.854801E-11
       169  16  2.208703E+05  1.085943E+05  5.263468E+03  1.500538E+05 -5.663392E-11 -1.774168E-10
       169  17  2.073875E+05  1.030065E+05  2.224191E+03  1.451250E+05  2.109361E-11 -2.098765E-10
       169  18  1.986415E+05  9.282752E+04 -4.297426E+02  1.388513E+05  3.777282E-10 -1.042993E-10
       169  19  1.908377E+05  8.736491E+04 -2.986400E+03  1.349682E+05 -3.538941E+02 -1.931578E+03
       169  20  1.995878E+05  9.755113E+04  7.658005E+01  1.412367E+05 -4.978025E+02 -7.920942E+02
       169  21  2.130742E+05  1.031455E+05  3.523529E+03  1.461601E+05 -6.421545E+02  3.480110E+02
       169  22  2.058540E+05  9.797960E+04  1.138579E+03  1.425110E+05  6.042632E+02 -1.213164E+03
       169  23  2.034877E+05  1.002788E+05  1.150391E+03  1.431808E+05  4.611044E+02 -7.312730E+01
       169  24  2.058578E+05  9.798652E+04  1.546897E+03  1.425057E+05  3.174925E+02  1.067526E+03
       169  25  2.208703E+05  1.085943E+05  5.263473E+03  1.500538E+05  1.562439E+03 -4.947356E+02
       169  26  2.073875E+05  1.030065E+05  2.224196E+03  1.451250E+05  1.420013E+03  6.458408E+02
       169  27  1.986415E+05  9.282753E+04 -4.297335E+02  1.388513E+05  1.277124E+03  1.787030E+03
       170   1  2.209638E+05  1.089355E+05  6.167248E+03  1.502743E+05  7.792004E+02 -9.887098E+02
       170   2  2.298935E+05  1.188816E+05  1.045952E+04  1.563420E+05 -2.294250E+01 -2.784993E+03
       170   3  2.440497E+05  1.248553E+05  1.607669E+04  1.608622E+05 -9.077089E+02 -4.471142E+03
       170   4  2.058786E+05  9.797221E+04  1.902914E+03  1.425698E+05 -2.050938E+02 -1.726714E+03
       170   5  2.034499E+05  1.002759E+05  3.113158E+03  1.431160E+05 -8.749312E+02 -3.423826E+03
       170   6  2.062189E+05  9.857826E+04  5.533558E+03  1.421146E+05 -1.627347E+03 -5.010757E+03
       170   7  1.907934E+05  8.700895E+04 -2.361502E+03  1.348654E+05 -1.189368E+03 -2.464703E+03
       170   8  1.770071E+05  8.167062E+04 -4.233264E+03  1.298907E+05 -1.726871E+03 -4.062621E+03
       170   9  1.683901E+05  7.230232E+04 -5.009553E+03  1.233685E+05 -2.346918E+03 -5.550322E+03
       170  10  2.209638E+05  1.089355E+05  6.167245E+03  1.502743E+05  1.280478E-10  4.655475E-11
       170  11  2.298935E+05  1.188816E+05  1.045950E+04  1.563420E+05  2.216897E-10 -2.429653E-10
       170  12  2.440497E+05  1.248553E+05  1.607666E+04  1.608622E+05 -3.293697E-10 -3.413446E-10
       170  13  2.058786E+05  9.797221E+04  1.902909E+03  1.425698E+05  9.668650E-12 -9.681893E-11
       170  14  2.034499E+05  1.002759E+05  3.113135E+03  1.431160E+05 -2.928856E-10 -1.514133E-10
       170  15  2.062188E+05  9.857823E+04  5.533506E+03  1.421146E+05  9.133842E-11  9.061102E-12
       170  16  1.907934E+05  8.700894E+04 -2.361517E+03  1.348654E+05 -1.330584E-10 -2.453957E-10
       170  17  1.770071E+05  8.167060E+04 -4.233301E+03  1.298907E+05  3.438655E-11 -1.805828E-10
       170  18  1.683901E+05  7.230229E+04 -5.009621E+03  1.233685E+05  4.259587E-10  2.788984E-10
       170  19  2.209638E+05  1.089355E+05  6.167248E+03  1.502743E+05 -7.792004E+02  9.887098E+02
       170  20  2.298935E+05  1.188816E+05  1.045952E+04  1.563420E+05  2.294250E+01  2.784993E+03
       170  21  2.440497E+05  1.248553E+05  1.607669E+04  1.608622E+05  9.077089E+02  4.471142E+03
       170  22  2.058786E+05  9.797221E+04  1.902914E+03  1.425698E+05  2.050938E+02  1.726714E+03
       170  23  2.034499E+05  1.002759E+05  3.113158E+03  1.431160E+05  8.749312E+02  3.423826E+03
       170  24  2.062189E+05  9.857826E+04  5.533558E+03  1.421146E+05  1.627347E+03  5.010757E+03
       170  25  1.907934E+05  8.700895E+04 -2.361502E+03  1.348654E+05  1.189368E+03  2.464703E+03
       170  26  1.770071E+05  8.167062E+04 -4.233264E+03  1.298907E+05  1.726871E+03  4.062621E+03
       170  27  1.683901E+05  7.230232E+04 -5.009553E+03  1.233685E+05  2.346918E+03  5.550322E+03
       171   1  2.493530E+05  1.329073E+05  1.984788E+04  1.670159E+05 -7.958018E+02 -5.236057E+03
       171   2  2.646634E+05  1.364910E+05  2.894858E+04  1.684206E+05 -8.387764E+03 -1.091896E+04
       171   3  2.949261E+05  1.495078E+05  4.885107E+04  1.624286E+05 -1.747836E+04 -1.460399E+04
       171   4  2.063508E+05  9.803313E+04  7.061300E+03  1.433760E+05 -1.987440E+03 -6.129583E+03
       171   5  2.033366E+05  1.010505E+05  1.237913E+04  1.414683E+05 -7.180040E+03 -1.001352E+04
       171   6  2.147547E+05  1.129817E+05  2.641775E+04  1.321637E+05 -1.387103E+04 -1.189949E+04
       171   7  1.633506E+05  6.316046E+04 -5.725479E+03  1.197380E+05 -3.178969E+03 -7.023009E+03
       171   8  1.420135E+05  6.561105E+04 -4.190783E+03  1.145186E+05 -5.972471E+03 -9.108166E+03
       171   9  1.345895E+05  7.645637E+04  3.983665E+03  1.019019E+05 -1.026430E+04 -9.195217E+03
       171  10  2.493530E+05  1.329072E+05  1.984782E+04  1.670159E+05  1.709705E-12 -9.690858E-11
       171  11  2.646633E+05  1.364909E+05  2.894822E+04  1.684205E+05 -1.237049E-10  4.833161E-11
       171  12  2.949257E+05  1.495075E+05  4.885009E+04  1.624284E+05 -7.668994E-11  6.085560E-11
       171  13  2.063508E+05  9.803309E+04  7.061222E+03  1.433760E+05 -2.287852E-10  9.236064E-11
       171  14  2.033365E+05  1.010504E+05  1.237884E+04  1.414682E+05  9.059874E-11  2.654814E-11
       171  15  2.147545E+05  1.129815E+05  2.641712E+04  1.321635E+05 -1.088532E-10 -2.253472E-12
       171  16  1.633506E+05  6.316040E+04 -5.725591E+03  1.197380E+05  2.688258E-10  9.681144E-11
       171  17  1.420135E+05  6.561095E+04 -4.191006E+03  1.145185E+05  1.360564E-11  1.098985E-10
       171  18  1.345894E+05  7.645625E+04  3.983309E+03  1.019018E+05 -2.122353E-10 -3.216433E-11
       171  19  2.493530E+05  1.329073E+05  1.984788E+04  1.670159E+05  7.958018E+02  5.236057E+03
       171  20  2.646634E+05  1.364910E+05  2.894858E+04  1.684206E+05  8.387764E+03  1.091896E+04
       171  21  2.949261E+05  1.495078E+05  4.885107E+04  1.624286E+05  1.747836E+04  1.460399E+04
       171  22  2.063508E+05  9.803313E+04  7.061300E+03  1.433760E+05  1.987440E+03  6.129583E+03
       171  23  2.033366E+05  1.010505E+05  1.237913E+04  1.414683E+05  7.180040E+03  1.001352E+04
       171  24  2.147547E+05  1.129817E+05  2.641775E+04  1.321637E+05  1.387103E+04  1.189949E+04
       171  25  1.633506E+05  6.316046E+04 -5.725479E+03  1.197380E+05  3.178969E+03  7.023009E+03
       171  26  1.420135E+05  6.561105E+04 -4.190783E+03  1.145186E+05  5.972471E+03  9.108166E+03
       171  27  1.345895E+05  7.645637E+04  3.983665E+03  1.019019E+05  1.026430E+04  9.195217E+03
       172   1  5.532437E+05  7.001552E+04  7.581765E+04  4.163903E+04  3.805185E+04 -1.413002E+03
       172   2  5.233160E+05  2.590431E+04  4.212290E+04  2.407796E+04  2.242529E+04 -4.235544E+03
       172   3  5.037244E+05  1.500512E+04  2.689868E+04  1.417418E+04  6.799222E+03 -3.897047E+03
       172   4  4.367464E+05  4.112766E+04  4.781505E+04  1.906715E+04  3.276287E+04 -1.414475E+03
       172   5  4.319122E+05  3.726902E+03  2.259423E+04  1.523926E+04  2.093336E+04 -4.235960E+03
       172   6  4.367566E+05 -1.118321E+03  1.321075E+04  1.906821E+04  9.103698E+03 -3.896887E+03
       172   7  3.202627E+05  1.224075E+04  1.981185E+04 -3.500475E+03  2.747488E+04 -1.415564E+03
       172   8  3.405164E+05 -1.845075E+04  3.065136E+03  6.401883E+03  1.944165E+04 -4.236334E+03
       172   9  3.697932E+05 -1.724195E+04 -4.773786E+02  2.396171E+04  1.140793E+04 -3.896691E+03
       172  10  5.532421E+05  7.001513E+04  7.581493E+04  4.163907E+04 -7.690895E-11 -8.856952E-11
       172  11  5.233155E+05  2.590415E+04  4.212192E+04  2.407804E+04  1.296310E-10 -3.393867E-11
       172  12  5.037243E+05  1.500509E+04  2.689856E+04  1.417420E+04 -4.215913E-10  2.596389E-10
       172  13  4.367453E+05  4.112737E+04  4.781303E+04  1.906719E+04 -1.403706E-10 -5.695485E-11
       172  14  4.319117E+05  3.726765E+03  2.259338E+04  1.523934E+04  1.544719E-10 -2.940078E-11
       172  15  4.367565E+05 -1.118359E+03  1.321057E+04  1.906824E+04 -2.529374E-10  2.134975E-10
       172  16  3.202619E+05  1.224055E+04  1.981043E+04 -3.500444E+03 -1.315032E-10 -6.881459E-11
       172  17  3.405160E+05 -1.845088E+04  3.064392E+03  6.401950E+03  1.007407E-10 -3.056376E-12
       172  18  3.697931E+05 -1.724200E+04 -4.776515E+02  2.396175E+04  3.258890E-10  3.308798E-10
       172  19  5.532437E+05  7.001552E+04  7.581765E+04  4.163903E+04 -3.805185E+04  1.413002E+03
       172  20  5.233160E+05  2.590431E+04  4.212290E+04  2.407796E+04 -2.242529E+04  4.235544E+03
       172  21  5.037244E+05  1.500512E+04  2.689868E+04  1.417418E+04 -6.799222E+03  3.897047E+03
       172  22  4.367464E+05  4.112766E+04  4.781505E+04  1.906715E+04 -3.276287E+04  1.414475E+03
       172  23  4.319122E+05  3.726902E+03  2.259423E+04  1.523926E+04 -2.093336E+04  4.235960E+03
       172  24  4.367566E+05 -1.118321E+03  1.321075E+04  1.906821E+04 -9.103698E+03  3.896887E+03
       172  25  3.202627E+05  1.224075E+04  1.981185E+04 -3.500475E+03 -2.747488E+04  1.415564E+03
       172  26  3.405164E+05 -1.845075E+04  3.065136E+03  6.401883E+03 -1.944165E+04  4.236334E+03
       172  27  3.697932E+05 -1.724195E+04 -4.773786E+02  2.396171E+04 -1.140793E+04  3.896691E+03
       173   1  4.838920E+05  1.343988E+04  2.066635E+04  1.967448E+04  5.714211E+03 -2.833329E+03
       173   2  4.587571E+05  5.891466E+03  1.166968E+04  1.535257E+04  2.170421E+03 -1.451995E+03
       173   3  4.344664E+05 -1.238262E+02  5.361897E+03  1.884630E+04 -1.373265E+03  9.320009E+01
       173   4  4.347850E+05  1.612174E+03  1.060990E+04  1.910332E+04  7.274372E+03 -2.833244E+03
       173   5  4.343807E+05  2.732097E+01  6.713188E+03  1.519556E+04  3.927525E+03 -1.451873E+03
       173   6  4.347861E+05 -5.847315E+01  5.368886E+03  1.910344E+04  5.806450E+02  9.335849E+01
       173   7  3.856802E+05 -1.021568E+04  5.533310E+02  1.853221E+04  8.834412E+03 -2.833162E+03
       173   8  4.100050E+05 -5.836859E+03  1.756682E+03  1.503856E+04  5.684561E+03 -1.451753E+03
       173   9  4.351058E+05  6.882233E+00  5.375889E+03  1.936059E+04  2.534556E+03  9.351851E+01
       173  10  4.838919E+05  1.343986E+04  2.066627E+04  1.967450E+04  5.366145E-10  3.142977E-10
       173  11  4.587571E+05  5.891462E+03  1.166966E+04  1.535257E+04  4.274291E-10  5.167468E-11
       173  12  4.344664E+05 -1.238268E+02  5.361894E+03  1.884630E+04  5.462093E-11 -1.326468E-10
       173  13  4.347849E+05  1.612151E+03  1.060978E+04  1.910334E+04  3.445709E-11  3.248430E-10
       173  14  4.343807E+05  2.731456E+01  6.713156E+03  1.519557E+04  3.722231E-10  2.997234E-11
       173  15  4.347861E+05 -5.847325E+01  5.368885E+03  1.910344E+04  4.249989E-10 -1.608216E-10
       173  16  3.856801E+05 -1.021571E+04  5.531694E+02  1.853223E+04 -4.285095E-10  1.991436E-10
       173  17  4.100049E+05 -5.836870E+03  1.756617E+03  1.503857E+04 -1.026932E-10 -1.135445E-10
       173  18  4.351058E+05  6.880500E+00  5.375877E+03  1.936059E+04  1.342277E-10 -7.097310E-11
       173  19  4.838920E+05  1.343988E+04  2.066635E+04  1.967448E+04 -5.714211E+03  2.833329E+03
       173  20  4.587571E+05  5.891466E+03  1.166968E+04  1.535257E+04 -2.170421E+03  1.451995E+03
       173  21  4.344664E+05 -1.238262E+02  5.361897E+03  1.884630E+04  1.373265E+03 -9.320009E+01
       173  22  4.347850E+05  1.612174E+03  1.060990E+04  1.910332E+04 -7.274372E+03  2.833244E+03
       173  23  4.343807E+05  2.732097E+01  6.713188E+03  1.519556E+04 -3.927525E+03  1.451873E+03
       173  24  4.347861E+05 -5.847315E+01  5.368886E+03  1.910344E+04 -5.806450E+02 -9.335849E+01
       173  25  3.856802E+05 -1.021568E+04  5.533310E+02  1.853221E+04 -8.834412E+03  2.833162E+03
       173  26  4.100050E+05 -5.836859E+03  1.756682E+03  1.503856E+04 -5.684561E+03  1.451753E+03
       173  27  4.351058E+05  6.882233E+00  5.375889E+03  1.936059E+04 -2.534556E+03 -9.351851E+01
       174   1  4.167021E+05 -4.404764E+03  1.640658E+03  1.933807E+04 -2.324369E+03  1.056778E+03
       174   2  3.916153E+05 -1.025996E+04 -2.151328E+03  1.503880E+04 -5.340317E+03  2.593699E+03
       174   3  3.672695E+05 -1.472320E+04 -3.632750E+03  1.855527E+04 -8.356043E+03  3.939733E+03
       174   4  4.347794E+05 -5.279271E+01  5.332041E+03  1.910345E+04 -3.643050E+02  1.056933E+03
       174   5  4.343888E+05  2.318175E+01  6.510443E+03  1.519556E+04 -3.609663E+03  2.593798E+03
       174   6  4.347781E+05  1.530771E+03  1.015840E+04  1.910335E+04 -6.854913E+03  3.939779E+03
       174   7  4.528571E+05  4.299160E+03  9.023422E+03  1.886883E+04  1.595815E+03  1.057087E+03
       174   8  4.771641E+05  1.030621E+04  1.517213E+04  1.535233E+04 -1.878893E+03  2.593897E+03
       174   9  5.022909E+05  1.778446E+04  2.394932E+04  1.965149E+04 -5.353622E+03  3.939828E+03
       174  10  4.167021E+05 -4.404766E+03  1.640645E+03  1.933807E+04  9.265254E-11 -1.517566E-10
       174  11  3.916152E+05 -1.025997E+04 -2.151394E+03  1.503881E+04 -3.746564E-10 -1.459627E-10
       174  12  3.672695E+05 -1.472323E+04 -3.632910E+03  1.855529E+04  1.105586E-10 -5.736555E-11
       174  13  4.347794E+05 -5.279394E+01  5.332039E+03  1.910345E+04  2.390192E-10 -9.323283E-11
       174  14  4.343888E+05  2.317103E+01  6.510406E+03  1.519556E+04  4.737037E-10  1.953572E-11
       174  15  4.347780E+05  1.530742E+03  1.015828E+04  1.910337E+04  1.334471E-10 -6.767127E-11
       174  16  4.528571E+05  4.299158E+03  9.023415E+03  1.886883E+04 -4.300049E-11  3.791811E-12
       174  17  4.771641E+05  1.030620E+04  1.517211E+04  1.535233E+04  1.557499E-10  2.851373E-12
       174  18  5.022909E+05  1.778443E+04  2.394924E+04  1.965150E+04 -1.241075E-10  1.039559E-10
       174  19  4.167021E+05 -4.404764E+03  1.640658E+03  1.933807E+04  2.324369E+03 -1.056778E+03
       174  20  3.916153E+05 -1.025996E+04 -2.151328E+03  1.503880E+04  5.340317E+03 -2.593699E+03
       174  21  3.672695E+05 -1.472320E+04 -3.632750E+03  1.855527E+04  8.356043E+03 -3.939733E+03
       174  22  4.347794E+05 -5.279271E+01  5.332041E+03  1.910345E+04  3.643050E+02 -1.056933E+03
       174  23  4.343888E+05  2.318175E+01  6.510443E+03  1.519556E+04  3.609663E+03 -2.593798E+03
       174  24  4.347781E+05  1.530771E+03  1.015840E+04  1.910335E+04  6.854913E+03 -3.939779E+03
       174  25  4.528571E+05  4.299160E+03  9.023422E+03  1.886883E+04 -1.595815E+03 -1.057087E+03
       174  26  4.771641E+05  1.030621E+04  1.517213E+04  1.535233E+04  1.878893E+03 -2.593897E+03
       174  27  5.022909E+05  1.778446E+04  2.394932E+04  1.965149E+04  5.353622E+03 -3.939828E+03
       175   1  3.512626E+05 -2.161762E+04 -4.802864E+03  2.371186E+04 -1.096112E+04  5.020153E+03
       175   2  3.222559E+05 -2.308598E+04 -1.890322E+03  6.842431E+03 -1.786497E+04  5.170187E+03
       175   3  3.017006E+05  5.646041E+03  1.306614E+04 -2.393405E+03 -2.476868E+04  1.694187E+03
       175   4  4.366508E+05 -1.064957E+03  1.261206E+04  1.906285E+04 -8.605429E+03  5.020291E+03
       175   5  4.320435E+05  3.541668E+03  2.150564E+04  1.524601E+04 -1.986416E+04  5.169844E+03
       175   6  4.366407E+05  3.910084E+04  4.546434E+04  1.906253E+04 -3.112317E+04  1.693364E+03
       175   7  5.220459E+05  1.948733E+04  3.002663E+04  1.441318E+04 -6.249423E+03  5.020394E+03
       175   8  5.418425E+05  3.016880E+04  4.490096E+04  2.365109E+04 -2.186369E+04  5.169448E+03
       175   9  5.715985E+05  7.255606E+04  7.786165E+04  4.052314E+04 -3.747902E+04  1.692102E+03
       175  10  3.512625E+05 -2.161768E+04 -4.803137E+03  2.371191E+04 -1.034847E-10 -2.586743E-11
       175  11  3.222556E+05 -2.308610E+04 -1.890971E+03  6.842505E+03  8.877262E-11 -2.072002E-11
       175  12  3.017000E+05  5.645873E+03  1.306498E+04 -2.393371E+03 -2.098911E-12  3.336376E-11
       175  13  4.366507E+05 -1.065004E+03  1.261187E+04  1.906288E+04  3.955237E-10  8.036332E-12
       175  14  4.320430E+05  3.541533E+03  2.150485E+04  1.524609E+04  3.258549E-10 -6.397012E-12
       175  15  4.366397E+05  3.910057E+04  4.546252E+04  1.906257E+04  4.337903E-10 -3.411912E-11
       175  16  5.220459E+05  1.948730E+04  3.002651E+04  1.441321E+04 -4.507273E-13  1.203816E-10
       175  17  5.418420E+05  3.016865E+04  4.490001E+04  2.365118E+04 -8.485905E-11 -7.479848E-13
       175  18  5.715970E+05  7.255568E+04  7.785901E+04  4.052320E+04 -6.548595E-11 -7.278767E-12
       175  19  3.512626E+05 -2.161762E+04 -4.802864E+03  2.371186E+04  1.096112E+04 -5.020153E+03
       175  20  3.222559E+05 -2.308598E+04 -1.890322E+03  6.842431E+03  1.786497E+04 -5.170187E+03
       175  21  3.017006E+05  5.646041E+03  1.306614E+04 -2.393405E+03  2.476868E+04 -1.694187E+03
       175  22  4.366508E+05 -1.064957E+03  1.261206E+04  1.906285E+04  8.605429E+03 -5.020291E+03
       175  23  4.320435E+05  3.541668E+03  2.150564E+04  1.524601E+04  1.986416E+04 -5.169844E+03
       175  24  4.366407E+05  3.910084E+04  4.546434E+04  1.906253E+04  3.112317E+04 -1.693364E+03
       175  25  5.220459E+05  1.948733E+04  3.002663E+04  1.441318E+04  6.249423E+03 -5.020394E+03
       175  26  5.418425E+05  3.016880E+04  4.490096E+04  2.365109E+04  2.186369E+04 -5.169448E+03
       175  27  5.715985E+05  7.255606E+04  7.786165E+04  4.052314E+04  3.747902E+04 -1.692102E+03
       176   1 -5.816035E+04 -1.271389E+05 -6.904484E+04  2.754534E+04  2.516555E+02 -4.949142E+04
       176   2 -1.960141E+03 -1.299942E+05 -3.314223E+04  7.570867E+03  6.407561E+02 -3.125500E+04
       176   3  3.057504E+03 -1.480196E+05 -2.190853E+04 -1.566622E+04  2.697973E+02 -1.301867E+04
       176   4 -6.474124E+04 -1.536042E+05 -7.546343E+04 -8.050711E+03  2.544846E+02 -5.040946E+04
       176   5 -5.846858E+03 -1.459370E+05 -3.662741E+04 -6.420025E+03  6.414618E+02 -3.126339E+04
       176   6  1.704404E+03 -1.535996E+05 -2.309308E+04 -8.051562E+03  2.696400E+02 -1.211708E+04
       176   7 -7.131741E+04 -1.800661E+05 -8.188138E+04 -4.364524E+04  2.574192E+02 -5.132745E+04
       176   8 -9.732856E+03 -1.618792E+05 -4.011249E+04 -2.041055E+04  6.421678E+02 -3.127178E+04
       176   9  3.515211E+02 -1.591794E+05 -2.427761E+04 -4.369723E+02  2.695048E+02 -1.121550E+04
       176  10 -5.816101E+04 -1.271415E+05 -6.904945E+04  2.754535E+04  1.191734E-11  4.486392E-11
       176  11 -1.960403E+03 -1.299953E+05 -3.314407E+04  7.570883E+03 -1.824936E-11  2.073671E-11
       176  12  3.057459E+03 -1.480197E+05 -2.190885E+04 -1.566622E+04 -1.356828E-11  1.010473E-10
       176  13 -6.474192E+04 -1.536069E+05 -7.546821E+04 -8.050700E+03  1.482726E-10 -2.003602E-12
       176  14 -5.847120E+03 -1.459381E+05 -3.662924E+04 -6.420009E+03  2.498088E-10  3.657654E-11
       176  15  1.704365E+03 -1.535997E+05 -2.309336E+04 -8.051559E+03  8.140370E-11  1.372265E-11
       176  16 -7.131812E+04 -1.800689E+05 -8.188633E+04 -4.364523E+04 -4.486595E-11 -2.054937E-11
       176  17 -9.733119E+03 -1.618802E+05 -4.011433E+04 -2.041054E+04  1.212249E-10 -1.479961E-11
       176  18  3.514872E+02 -1.591796E+05 -2.427784E+04 -4.369698E+02 -7.418974E-12 -8.803358E-11
       176  19 -5.816035E+04 -1.271389E+05 -6.904484E+04  2.754534E+04 -2.516555E+02  4.949142E+04
       176  20 -1.960141E+03 -1.299942E+05 -3.314223E+04  7.570867E+03 -6.407561E+02  3.125500E+04
       176  21  3.057504E+03 -1.480196E+05 -2.190853E+04 -1.566622E+04 -2.697973E+02  1.301867E+04
       176  22 -6.474124E+04 -1.536042E+05 -7.546343E+04 -8.050711E+03 -2.544846E+02  5.040946E+04
       176  23 -5.846858E+03 -1.459370E+05 -3.662741E+04 -6.420025E+03 -6.414618E+02  3.126339E+04
       176  24  1.704404E+03 -1.535996E+05 -2.309308E+04 -8.051562E+03 -2.696400E+02  1.211708E+04
       176  25 -7.131741E+04 -1.800661E+05 -8.188138E+04 -4.364524E+04 -2.574192E+02  5.132745E+04
       176  26 -9.732856E+03 -1.618792E+05 -4.011249E+04 -2.041055E+04 -6.421678E+02  3.127178E+04
       176  27  3.515211E+02 -1.591794E+05 -2.427761E+04 -4.369723E+02 -2.695048E+02  1.121550E+04
       177   1 -2.894629E+03 -1.526142E+05 -2.018818E+04 -6.731030E+03 -1.619875E+02 -9.505891E+03
       177   2 -3.132554E+03 -1.619780E+05 -1.870969E+04 -6.399266E+03 -7.610205E+02 -1.370244E+03
       177   3 -7.712514E+03 -1.734867E+05 -2.361403E+04 -9.367056E+03 -1.325357E+03  6.765282E+03
       177   4 -2.433508E+03 -1.506687E+05 -1.982828E+04 -8.059625E+03 -1.619655E+02 -8.766362E+03
       177   5 -1.563921E+02 -1.495999E+05 -1.620914E+04 -6.409842E+03 -7.610146E+02 -6.723137E+02
       177   6 -2.214047E+03 -1.506688E+05 -1.894389E+04 -8.059630E+03 -1.325333E+03  7.421745E+03
       177   7 -1.972381E+03 -1.487233E+05 -1.946838E+04 -9.388224E+03 -1.619466E+02 -8.026831E+03
       177   8  2.819761E+03 -1.372217E+05 -1.370859E+04 -6.420417E+03 -7.610087E+02  2.563025E+01
       177   9  3.284393E+03 -1.278504E+05 -1.427377E+04 -6.752156E+03 -1.325307E+03  8.078232E+03
       177  10 -2.894653E+03 -1.526143E+05 -2.018835E+04 -6.731031E+03 -6.969302E-12 -2.702398E-10
       177  11 -3.132555E+03 -1.619780E+05 -1.870970E+04 -6.399267E+03 -1.674134E-10  2.021920E-11
       177  12 -7.712528E+03 -1.734867E+05 -2.361412E+04 -9.367049E+03 -1.378017E-10  3.027443E-10
       177  13 -2.433529E+03 -1.506688E+05 -1.982843E+04 -8.059626E+03 -1.421467E-10  2.216092E-11
       177  14 -1.563929E+02 -1.495999E+05 -1.620914E+04 -6.409842E+03 -2.568621E-10  3.101393E-11
       177  15 -2.214064E+03 -1.506688E+05 -1.894399E+04 -8.059622E+03  4.881508E-11  5.626031E-12
       177  16 -1.972398E+03 -1.487233E+05 -1.946850E+04 -9.388225E+03  5.056370E-11  2.958368E-10
       177  17  2.819760E+03 -1.372217E+05 -1.370859E+04 -6.420417E+03 -1.984323E-10  2.430162E-11
       177  18  3.284374E+03 -1.278504E+05 -1.427390E+04 -6.752147E+03  1.267853E-10 -2.958610E-10
       177  19 -2.894629E+03 -1.526142E+05 -2.018818E+04 -6.731030E+03  1.619875E+02  9.505891E+03
       177  20 -3.132554E+03 -1.619780E+05 -1.870969E+04 -6.399266E+03  7.610205E+02  1.370244E+03
       177  21 -7.712514E+03 -1.734867E+05 -2.361403E+04 -9.367056E+03  1.325357E+03 -6.765282E+03
       177  22 -2.433508E+03 -1.506687E+05 -1.982828E+04 -8.059625E+03  1.619655E+02  8.766362E+03
       177  23 -1.563921E+02 -1.495999E+05 -1.620914E+04 -6.409842E+03  7.610146E+02  6.723137E+02
       177  24 -2.214047E+03 -1.506688E+05 -1.894389E+04 -8.059630E+03  1.325333E+03 -7.421745E+03
       177  25 -1.972381E+03 -1.487233E+05 -1.946838E+04 -9.388224E+03  1.619466E+02  8.026831E+03
       177  26  2.819761E+03 -1.372217E+05 -1.370859E+04 -6.420417E+03  7.610087E+02 -2.563025E+01
       177  27  3.284393E+03 -1.278504E+05 -1.427377E+04 -6.752156E+03  1.325307E+03 -8.078232E+03
       178   1 -5.756598E+03 -1.836881E+05 -2.794972E+04 -1.076354E+03 -1.777863E+03  9.636717E+03
       178   2 -1.523687E+04 -1.869399E+05 -4.257323E+04 -1.930118E+04 -1.896730E+03  2.900652E+04
       178   3 -7.217284E+04 -2.045783E+05 -8.167296E+04 -4.075045E+04 -6.301687E+02  4.837565E+04
       178   4  1.557194E+03 -1.533260E+05 -2.174686E+04 -8.043571E+03 -1.777952E+03  1.061110E+04
       178   5 -5.365593E+03 -1.462793E+05 -3.388774E+04 -6.430001E+03 -1.896136E+03  2.831827E+04
       178   6 -5.945511E+04 -1.533304E+05 -6.934924E+04 -8.041872E+03 -6.276939E+02  4.602516E+04
       178   7  8.871110E+03 -1.229630E+05 -1.554401E+04 -1.501114E+04 -1.778064E+03  1.158553E+04
       178   8  4.506197E+03 -1.056168E+05 -2.520225E+04  6.442029E+03 -1.895570E+03  2.762998E+04
       178   9 -4.673355E+04 -1.020778E+05 -5.702511E+04  2.466942E+04 -6.254670E+02  4.367448E+04
       178  10 -5.756627E+03 -1.836882E+05 -2.794991E+04 -1.076340E+03 -7.118299E-11 -7.183206E-11
       178  11 -1.523710E+04 -1.869408E+05 -4.257482E+04 -1.930113E+04 -1.465919E-10  6.208717E-11
       178  12 -7.217347E+04 -2.045808E+05 -8.167736E+04 -4.075043E+04  1.369623E-12  1.682594E-10
       178  13  1.557160E+03 -1.533261E+05 -2.174707E+04 -8.043556E+03 -6.472163E-11 -2.039253E-11
       178  14 -5.365812E+03 -1.462802E+05 -3.388925E+04 -6.429958E+03 -3.766804E-10  4.905611E-11
       178  15 -5.945568E+04 -1.533327E+05 -6.935322E+04 -8.041849E+03  6.192623E-11  4.803085E-12
       178  16  8.871071E+03 -1.229631E+05 -1.554427E+04 -1.501112E+04 -1.195870E-11  9.103912E-11
       178  17  4.505988E+03 -1.056177E+05 -2.520369E+04  6.442071E+03  1.275750E-10 -1.016640E-11
       178  18 -4.673406E+04 -1.020798E+05 -5.702870E+04  2.466944E+04 -1.039526E-10 -1.852498E-10
       178  19 -5.756598E+03 -1.836881E+05 -2.794972E+04 -1.076354E+03  1.777863E+03 -9.636717E+03
       178  20 -1.523687E+04 -1.869399E+05 -4.257323E+04 -1.930118E+04  1.896730E+03 -2.900652E+04
       178  21 -7.217284E+04 -2.045783E+05 -8.167296E+04 -4.075045E+04  6.301687E+02 -4.837565E+04
       178  22  1.557194E+03 -1.533260E+05 -2.174686E+04 -8.043571E+03  1.777952E+03 -1.061110E+04
       178  23 -5.365593E+03 -1.462793E+05 -3.388774E+04 -6.430001E+03  1.896136E+03 -2.831827E+04
       178  24 -5.945511E+04 -1.533304E+05 -6.934924E+04 -8.041872E+03  6.276939E+02 -4.602516E+04
       178  25  8.871110E+03 -1.229630E+05 -1.554401E+04 -1.501114E+04  1.778064E+03 -1.158553E+04
       178  26  4.506197E+03 -1.056168E+05 -2.520225E+04  6.442029E+03  1.895570E+03 -2.762998E+04
       178  27 -4.673355E+04 -1.020778E+05 -5.702511E+04  2.466942E+04  6.254670E+02 -4.367448E+04
       179   1  1.013758E+05  3.028880E+04 -1.653209E+04  7.995540E+04  4.877425E+03  6.194596E+03
       179   2  1.171397E+05  3.219127E+04 -1.768441E+04  9.685731E+04  2.170400E+03  9.397368E+03
       179   3  1.487969E+05  3.593582E+04 -1.513709E+04  1.061971E+05  2.054599E+03  9.144805E+03
       179   4  2.287301E+05  1.037252E+05  2.209560E+04  1.351111E+05  1.097321E+04  1.076556E+04
       179   5  2.168210E+05  9.610482E+04  1.036504E+04  1.435806E+05  4.118115E+03  1.085765E+04
       179   6  2.217033E+05  9.122489E+04  5.932809E+03  1.444881E+05 -1.459287E+02  7.494833E+03
       179   7  3.561002E+05  1.771657E+05  6.072122E+04  1.902777E+05  1.707064E+04  1.533744E+04
       179   8  3.165125E+05  1.600223E+05  3.841330E+04  1.903117E+05  6.066242E+03  1.231821E+04
       179   9  2.946157E+05  1.465175E+05  2.700217E+04  1.827843E+05 -2.346803E+03  5.844577E+03
       179  10  1.013758E+05  3.028875E+04 -1.653221E+04  7.995537E+04  6.251301E-13  6.651578E-11
       179  11  1.171396E+05  3.219118E+04 -1.768459E+04  9.685729E+04 -1.051220E-10 -1.699759E-10
       179  12  1.487968E+05  3.593572E+04 -1.513726E+04  1.061971E+05  6.634075E-11 -2.307006E-10
       179  13  2.287299E+05  1.037250E+05  2.209516E+04  1.351111E+05  2.804728E-10 -2.890053E-11
       179  14  2.168209E+05  9.610469E+04  1.036479E+04  1.435805E+05  1.266425E-10 -1.113667E-10
       179  15  2.217033E+05  9.122483E+04  5.932704E+03  1.444881E+05 -3.142390E-10  1.097440E-10
       179  16  3.560998E+05  1.771654E+05  6.072023E+04  1.902774E+05 -1.678493E-10 -1.806353E-10
       179  17  3.165125E+05  1.600221E+05  3.841295E+04  1.903116E+05  3.711959E-10 -7.089936E-11
       179  18  2.946157E+05  1.465175E+05  2.700210E+04  1.827844E+05 -4.173456E-11  2.352210E-10
       179  19  1.013758E+05  3.028880E+04 -1.653209E+04  7.995540E+04 -4.877425E+03 -6.194596E+03
       179  20  1.171397E+05  3.219127E+04 -1.768441E+04  9.685731E+04 -2.170400E+03 -9.397368E+03
       179  21  1.487969E+05  3.593582E+04 -1.513709E+04  1.061971E+05 -2.054599E+03 -9.144805E+03
       179  22  2.287301E+05  1.037252E+05  2.209560E+04  1.351111E+05 -1.097321E+04 -1.076556E+04
       179  23  2.168210E+05  9.610482E+04  1.036504E+04  1.435806E+05 -4.118115E+03 -1.085765E+04
       179  24  2.217033E+05  9.122489E+04  5.932809E+03  1.444881E+05  1.459287E+02 -7.494833E+03
       179  25  3.561002E+05  1.771657E+05  6.072122E+04  1.902777E+05 -1.707064E+04 -1.533744E+04
       179  26  3.165125E+05  1.600223E+05  3.841330E+04  1.903117E+05 -6.066242E+03 -1.231821E+04
       179  27  2.946157E+05  1.465175E+05  2.700217E+04  1.827843E+05  2.346803E+03 -5.844577E+03
       180   1  1.613902E+05  4.946570E+04 -1.219502E+04  1.134170E+05  1.347333E+03  7.040610E+03
       180   2  1.777470E+05  6.789953E+04 -8.224021E+03  1.253700E+05  1.446212E+03  5.163845E+03
       180   3  2.032328E+05  7.811283E+04 -3.417429E+03  1.346217E+05  1.687770E+03  3.096545E+03
       180   4  2.216179E+05  9.165697E+04  4.665034E+03  1.434260E+05 -3.716748E+01  6.002503E+03
       180   5  2.168872E+05  9.548946E+04  2.670494E+03  1.449673E+05 -1.670915E+02  3.954248E+03
       180   6  2.213340E+05  9.115067E+04  1.709817E+03  1.438068E+05 -1.543025E+02  1.715510E+03
       180   7  2.818504E+05  1.338508E+05  2.152500E+04  1.734386E+05 -1.421867E+03  4.964250E+03
       180   8  2.560291E+05  1.230803E+05  1.356487E+04  1.645660E+05 -1.780533E+03  2.744548E+03
       180   9  2.394355E+05  1.041886E+05  6.836970E+03  1.529921E+05 -1.996424E+03  3.344370E+02
       180  10  1.613902E+05  4.946565E+04 -1.219512E+04  1.134170E+05  5.049228E-10  1.107545E-10
       180  11  1.777470E+05  6.789950E+04 -8.224075E+03  1.253700E+05  7.401760E-11 -6.304526E-11
       180  12  2.032328E+05  7.811282E+04 -3.417452E+03  1.346217E+05 -3.340351E-10 -3.116014E-10
       180  13  2.216179E+05  9.165694E+04  4.664966E+03  1.434260E+05  1.082990E-10 -7.576507E-11
       180  14  2.168872E+05  9.548945E+04  2.670464E+03  1.449673E+05 -4.992004E-11  1.123899E-10
       180  15  2.213340E+05  9.115067E+04  1.709811E+03  1.438068E+05  3.345794E-11 -1.869573E-11
       180  16  2.818504E+05  1.338508E+05  2.152495E+04  1.734386E+05 -6.716993E-10 -1.163414E-10
       180  17  2.560290E+05  1.230803E+05  1.356485E+04  1.645660E+05 -1.345423E-10 -5.366382E-11
       180  18  2.394355E+05  1.041886E+05  6.836962E+03  1.529921E+05  3.933696E-10  2.936224E-10
       180  19  1.613902E+05  4.946570E+04 -1.219502E+04  1.134170E+05 -1.347333E+03 -7.040610E+03
       180  20  1.777470E+05  6.789953E+04 -8.224021E+03  1.253700E+05 -1.446212E+03 -5.163845E+03
       180  21  2.032328E+05  7.811283E+04 -3.417429E+03  1.346217E+05 -1.687770E+03 -3.096545E+03
       180  22  2.216179E+05  9.165697E+04  4.665034E+03  1.434260E+05  3.716748E+01 -6.002503E+03
       180  23  2.168872E+05  9.548946E+04  2.670494E+03  1.449673E+05  1.670915E+02 -3.954248E+03
       180  24  2.213340E+05  9.115067E+04  1.709817E+03  1.438068E+05  1.543025E+02 -1.715510E+03
       180  25  2.818504E+05  1.338508E+05  2.152500E+04  1.734386E+05  1.421867E+03 -4.964250E+03
       180  26  2.560291E+05  1.230803E+05  1.356487E+04  1.645660E+05  1.780533E+03 -2.744548E+03
       180  27  2.394355E+05  1.041886E+05  6.836970E+03  1.529921E+05  1.996424E+03 -3.344370E+02
       181   1  2.181012E+05  8.885653E+04  6.091248E+02  1.421156E+05  2.089393E+03  2.005746E+03
       181   2  2.345359E+05  1.079448E+05  6.107775E+03  1.538670E+05  2.720167E+03  1.386848E+02
       181   3  2.597841E+05  1.183779E+05  1.202229E+04  1.630865E+05  3.348817E+03 -1.725492E+03
       181   4  2.213199E+05  9.116219E+04  1.450050E+03  1.437549E+05  2.893942E+02  6.562697E+02
       181   5  2.169134E+05  9.548982E+04  1.234618E+03  1.450215E+05  9.235862E+02 -1.208266E+03
       181   6  2.213192E+05  9.116101E+04  1.432058E+03  1.437557E+05  1.555675E+03 -3.069905E+03
       181   7  2.245386E+05  9.346786E+04  2.290994E+03  1.453943E+05 -1.510618E+03 -6.932166E+02
       181   8  1.992912E+05  8.303489E+04 -3.638590E+03  1.361762E+05 -8.729378E+02 -2.555174E+03
       181   9  1.828554E+05  6.394466E+04 -9.158465E+03  1.244261E+05 -2.373397E+02 -4.414224E+03
       181  10  2.181012E+05  8.885653E+04  6.091091E+02  1.421156E+05  7.286264E-11  6.938720E-12
       181  11  2.345359E+05  1.079448E+05  6.107761E+03  1.538670E+05 -1.469584E-10 -4.155540E-11
       181  12  2.597841E+05  1.183779E+05  1.202226E+04  1.630865E+05  5.879385E-11  1.147594E-11
       181  13  2.213199E+05  9.116219E+04  1.450049E+03  1.437549E+05 -3.399026E-10  6.095522E-11
       181  14  2.169134E+05  9.548981E+04  1.234614E+03  1.450215E+05 -8.510590E-12 -1.126500E-10
       181  15  2.213192E+05  9.116100E+04  1.432036E+03  1.437557E+05  4.344571E-11  5.315566E-11
       181  16  2.245386E+05  9.346785E+04  2.290988E+03  1.453943E+05  3.674589E-12 -2.070623E-11
       181  17  1.992912E+05  8.303488E+04 -3.638604E+03  1.361762E+05 -2.156727E-10 -1.963247E-11
       181  18  1.828554E+05  6.394464E+04 -9.158502E+03  1.244261E+05  6.023994E-11 -3.015060E-11
       181  19  2.181012E+05  8.885653E+04  6.091248E+02  1.421156E+05 -2.089393E+03 -2.005746E+03
       181  20  2.345359E+05  1.079448E+05  6.107775E+03  1.538670E+05 -2.720167E+03 -1.386848E+02
       181  21  2.597841E+05  1.183779E+05  1.202229E+04  1.630865E+05 -3.348817E+03  1.725492E+03
       181  22  2.213199E+05  9.116219E+04  1.450050E+03  1.437549E+05 -2.893942E+02 -6.562697E+02
       181  23  2.169134E+05  9.548982E+04  1.234618E+03  1.450215E+05 -9.235862E+02  1.208266E+03
       181  24  2.213192E+05  9.116101E+04  1.432058E+03  1.437557E+05 -1.555675E+03  3.069905E+03
       181  25  2.245386E+05  9.346786E+04  2.290994E+03  1.453943E+05  1.510618E+03  6.932166E+02
       181  26  1.992912E+05  8.303489E+04 -3.638590E+03  1.361762E+05  8.729378E+02  2.555174E+03
       181  27  1.828554E+05  6.394466E+04 -9.158465E+03  1.244261E+05  2.373397E+02  4.414224E+03
       182   1  2.746904E+05  1.291017E+05  1.655838E+04  1.706866E+05  3.853268E+03 -2.742374E+03
       182   2  2.912847E+05  1.480068E+05  2.327976E+04  1.822662E+05  3.578990E+03 -5.162826E+03
       182   3  3.171111E+05  1.587902E+05  3.126718E+04  1.911488E+05  3.121269E+03 -7.338453E+03
       182   4  2.213323E+05  9.114906E+04  1.681299E+03  1.438058E+05  2.004205E+03 -4.128765E+03
       182   5  2.168861E+05  9.548788E+04  2.613026E+03  1.449690E+05  2.023988E+03 -6.328856E+03
       182   6  2.216082E+05  9.164140E+04  4.556033E+03  1.434352E+05  1.860366E+03 -8.284071E+03
       182   7  1.679780E+05  5.319860E+04 -1.319580E+04  1.169280E+05  1.553806E+02 -5.514977E+03
       182   8  1.424941E+05  4.297251E+04 -1.805406E+04  1.076772E+05  4.692482E+02 -7.494691E+03
       182   9  1.261154E+05  2.449782E+04 -2.215599E+04  9.572982E+04  5.997244E+02 -9.229494E+03
       182  10  2.746904E+05  1.291017E+05  1.655834E+04  1.706866E+05  1.671570E-10 -1.095077E-10
       182  11  2.912847E+05  1.480067E+05  2.327968E+04  1.822662E+05  1.137017E-11  6.508071E-11
       182  12  3.171111E+05  1.587901E+05  3.126706E+04  1.911489E+05 -1.618332E-10 -1.391812E-11
       182  13  2.213323E+05  9.114904E+04  1.681259E+03  1.438058E+05 -1.657802E-10  3.936583E-11
       182  14  2.168861E+05  9.548783E+04  2.612943E+03  1.449690E+05  1.295826E-10 -1.928448E-11
       182  15  2.216081E+05  9.164133E+04  4.555897E+03  1.434352E+05 -1.368576E-10  2.087551E-11
       182  16  1.679780E+05  5.319857E+04 -1.319586E+04  1.169280E+05  1.141428E-10 -6.797553E-11
       182  17  1.424941E+05  4.297245E+04 -1.805416E+04  1.076772E+05 -1.897867E-10 -8.323137E-11
       182  18  1.261154E+05  2.449773E+04 -2.215615E+04  9.572983E+04  1.179109E-10  5.298034E-11
       182  19  2.746904E+05  1.291017E+05  1.655838E+04  1.706866E+05 -3.853268E+03  2.742374E+03
       182  20  2.912847E+05  1.480068E+05  2.327976E+04  1.822662E+05 -3.578990E+03  5.162826E+03
       182  21  3.171111E+05  1.587902E+05  3.126718E+04  1.911488E+05 -3.121269E+03  7.338453E+03
       182  22  2.213323E+05  9.114906E+04  1.681299E+03  1.438058E+05 -2.004205E+03  4.128765E+03
       182  23  2.168861E+05  9.548788E+04  2.613026E+03  1.449690E+05 -2.023988E+03  6.328856E+03
       182  24  2.216082E+05  9.164140E+04  4.556033E+03  1.434352E+05 -1.860366E+03  8.284071E+03
       182  25  1.679780E+05  5.319860E+04 -1.319580E+04  1.169280E+05 -1.553806E+02  5.514977E+03
       182  26  1.424941E+05  4.297251E+04 -1.805406E+04  1.076772E+05 -4.692482E+02  7.494691E+03
       182  27  1.261154E+05  2.449782E+04 -2.215599E+04  9.572982E+04 -5.997244E+02  9.229494E+03
       183   1  3.299558E+05  1.714506E+05  3.669199E+04  2.004812E+05  4.320578E+03 -8.068764E+03
       183   2  3.517105E+05  1.850665E+05  4.836359E+04  2.080275E+05 -5.467525E+03 -1.494846E+04
       183   3  3.911577E+05  2.023628E+05  7.177980E+04  2.081534E+05 -1.858415E+04 -1.739183E+04
       183   4  2.216777E+05  9.123359E+04  5.792207E+03  1.444762E+05  2.011147E+03 -9.800726E+03
       183   5  2.168367E+05  9.606855E+04  1.011501E+04  1.436109E+05 -2.448155E+03 -1.268445E+04
       183   6  2.285338E+05  1.034298E+05  2.156070E+04  1.353242E+05 -1.023562E+04 -1.113101E+04
       183   7  1.134112E+05  1.102310E+04 -2.510923E+04  8.848193E+04 -2.977698E+02 -1.153228E+04
       183   8  8.198298E+04  7.079246E+03 -2.813535E+04  7.920957E+04  5.703233E+02 -1.042105E+04
       183   9  6.594031E+04  4.507616E+03 -2.866039E+04  6.251582E+04 -1.890209E+03 -4.872090E+03
       183  10  3.299558E+05  1.714505E+05  3.669183E+04  2.004812E+05  1.409691E-10 -4.063234E-11
       183  11  3.517104E+05  1.850662E+05  4.836311E+04  2.080275E+05 -2.269943E-10 -9.187681E-11
       183  12  3.911573E+05  2.023624E+05  7.177858E+04  2.081531E+05 -1.801206E-10 -5.782806E-11
       183  13  2.216777E+05  9.123349E+04  5.792019E+03  1.444762E+05  1.212625E-10 -2.806136E-11
       183  14  2.168367E+05  9.606838E+04  1.011470E+04  1.436108E+05 -8.473221E-11 -1.318151E-10
       183  15  2.285337E+05  1.034296E+05  2.156027E+04  1.353241E+05 -1.502066E-10 -9.791296E-11
       183  16  1.134112E+05  1.102296E+04 -2.510948E+04  8.848193E+04  1.546650E-10  3.331029E-11
       183  17  8.198295E+04  7.079129E+03 -2.813556E+04  7.920958E+04  3.071592E-10  3.679979E-11
       183  18  6.594030E+04  4.507590E+03 -2.866044E+04  6.251582E+04  1.673480E-10  2.288992E-11
       183  19  3.299558E+05  1.714506E+05  3.669199E+04  2.004812E+05 -4.320578E+03  8.068764E+03
       183  20  3.517105E+05  1.850665E+05  4.836359E+04  2.080275E+05  5.467525E+03  1.494846E+04
       183  21  3.911577E+05  2.023628E+05  7.177980E+04  2.081534E+05  1.858415E+04  1.739183E+04
       183  22  2.216777E+05  9.123359E+04  5.792207E+03  1.444762E+05 -2.011147E+03  9.800726E+03
       183  23  2.168367E+05  9.606855E+04  1.011501E+04  1.436109E+05  2.448155E+03  1.268445E+04
       183  24  2.285338E+05  1.034298E+05  2.156070E+04  1.353242E+05  1.023562E+04  1.113101E+04
       183  25  1.134112E+05  1.102310E+04 -2.510923E+04  8.848193E+04  2.977698E+02  1.153228E+04
       183  26  8.198298E+04  7.079246E+03 -2.813535E+04  7.920957E+04 -5.703233E+02  1.042105E+04
       183  27  6.594031E+04  4.507616E+03 -2.866039E+04  6.251582E+04  1.890209E+03  4.872090E+03
       184   1  2.619706E+05  2.571844E+04  1.745502E+04  2.680861E+04 -1.958885E+04 -3.071237E+03
       184   2  2.032044E+05  4.442252E+04  2.085321E+04  3.012468E+04 -1.692365E+04 -9.012505E+03
       184   3  1.367630E+05  3.375768E+04  1.517665E+04  5.284427E+04 -1.425877E+04 -7.806141E+03
       184   4  1.128196E+03 -3.900197E+04 -4.534658E+04  4.819943E+04 -3.100182E+04 -3.072540E+03
       184   5  5.717802E+03 -3.533466E+03 -2.147247E+04  3.849560E+04 -1.976077E+04 -9.013204E+03
       184   6  1.135684E+03  1.071484E+03 -1.263116E+04  4.819680E+04 -8.519632E+03 -7.805319E+03
       184   7 -2.596507E+05 -1.037255E+05 -1.081523E+05  6.958123E+04 -4.241002E+04 -3.074631E+03
       184   8 -1.917320E+05 -5.149173E+04 -6.380035E+04  4.686382E+04 -2.259699E+04 -9.013980E+03
       184   9 -1.344741E+05 -3.161577E+04 -4.043982E+04  4.355035E+04 -2.781730E+03 -7.804582E+03
       184  10  2.619702E+05  2.571833E+04  1.745428E+04  2.680857E+04 -1.177386E-10  4.663426E-11
       184  11  2.032041E+05  4.442235E+04  2.085252E+04  3.012455E+04 -1.251841E-10  9.240029E-11
       184  12  1.367628E+05  3.375756E+04  1.517615E+04  5.284419E+04 -1.550901E-10 -8.218162E-12
       184  13  1.127162E+03 -3.900224E+04 -4.534841E+04  4.819935E+04  1.405724E-11  2.378865E-11
       184  14  5.717361E+03 -3.533658E+03 -2.147336E+04  3.849546E+04  1.433781E-10  1.432820E-10
       184  15  1.135590E+03  1.071399E+03 -1.263141E+04  4.819674E+04 -3.110545E-11  5.935059E-11
       184  16 -2.596526E+05 -1.037260E+05 -1.081557E+05  6.958112E+04 -1.483799E-10  3.016555E-11
       184  17 -1.917326E+05 -5.149196E+04 -6.380146E+04  4.686366E+04  5.374379E-11 -2.579464E-11
       184  18 -1.344741E+05 -3.161584E+04 -4.043994E+04  4.355033E+04 -3.162367E-11 -2.594608E-11
       184  19  2.619706E+05  2.571844E+04  1.745502E+04  2.680861E+04  1.958885E+04  3.071237E+03
       184  20  2.032044E+05  4.442252E+04  2.085321E+04  3.012468E+04  1.692365E+04  9.012505E+03
       184  21  1.367630E+05  3.375768E+04  1.517665E+04  5.284427E+04  1.425877E+04  7.806141E+03
       184  22  1.128196E+03 -3.900197E+04 -4.534658E+04  4.819943E+04  3.100182E+04  3.072540E+03
       184  23  5.717802E+03 -3.533466E+03 -2.147247E+04  3.849560E+04  1.976077E+04  9.013204E+03
       184  24  1.135684E+03  1.071484E+03 -1.263116E+04  4.819680E+04  8.519632E+03  7.805319E+03
       184  25 -2.596507E+05 -1.037255E+05 -1.081523E+05  6.958123E+04  4.241002E+04  3.074631E+03
       184  26 -1.917320E+05 -5.149173E+04 -6.380035E+04  4.686382E+04  2.259699E+04  9.013980E+03
       184  27 -1.344741E+05 -3.161577E+04 -4.043982E+04  4.355035E+04  2.781730E+03  7.804582E+03
       185   1  9.346708E+04  2.029708E+04  8.392711E+03  4.774054E+04 -1.082158E+04 -5.143503E+03
       185   2  3.129193E+04  6.717649E+03 -8.897166E+02  3.822994E+04 -7.955439E+03 -1.579879E+03
       185   3 -3.159395E+04 -8.216958E+03 -1.237763E+04  4.850328E+04 -5.089737E+03  2.348856E+03
       185   4  3.000008E+03 -1.514781E+03 -1.020598E+04  4.828146E+04 -6.763967E+03 -5.142903E+03
       185   5  3.396359E+03 -9.385967E+00 -6.630303E+03  3.838931E+04 -3.460304E+03 -1.579149E+03
       185   6  3.001076E+03  6.470675E+01 -5.564507E+03  4.828121E+04 -1.568059E+02  2.349730E+03
       185   7 -8.745926E+04 -2.332715E+04 -2.880504E+04  4.882230E+04 -2.706937E+03 -5.142294E+03
       185   8 -2.449843E+04 -6.736459E+03 -1.237085E+04  3.854868E+04  1.034633E+03 -1.578417E+03
       185   9  3.759730E+04  8.346312E+03  1.248652E+03  4.805913E+04  4.776394E+03  2.350602E+03
       185  10  9.346695E+04  2.029702E+04  8.392442E+03  4.774049E+04 -2.676984E-10  1.418464E-10
       185  11  3.129186E+04  6.717629E+03 -8.898402E+02  3.822993E+04 -8.052158E-11 -2.445605E-10
       185  12 -3.159398E+04 -8.216971E+03 -1.237769E+04  4.850329E+04  1.909380E-10  3.735999E-11
       185  13  2.999952E+03 -1.514822E+03 -1.020611E+04  4.828143E+04  1.346188E-10  5.895339E-11
       185  14  3.396345E+03 -9.391859E+00 -6.630330E+03  3.838931E+04  4.799354E-12 -3.064744E-11
       185  15  3.001075E+03  6.470082E+01 -5.564517E+03  4.828121E+04 -2.705858E-10 -5.207123E-11
       185  16 -8.745928E+04 -2.332718E+04 -2.880511E+04  4.882229E+04  2.986790E-10 -9.634300E-11
       185  17 -2.449843E+04 -6.736462E+03 -1.237086E+04  3.854868E+04 -1.227267E-11  1.333497E-11
       185  18  3.759728E+04  8.346300E+03  1.248599E+03  4.805912E+04 -2.701491E-10  1.148845E-10
       185  19  9.346708E+04  2.029708E+04  8.392711E+03  4.774054E+04  1.082158E+04  5.143503E+03
       185  20  3.129193E+04  6.717649E+03 -8.897166E+02  3.822994E+04  7.955439E+03  1.579879E+03
       185  21 -3.159395E+04 -8.216958E+03 -1.237763E+04  4.850328E+04  5.089737E+03 -2.348856E+03
       185  22  3.000008E+03 -1.514781E+03 -1.020598E+04  4.828146E+04  6.763967E+03  5.142903E+03
       185  23  3.396359E+03 -9.385967E+00 -6.630303E+03  3.838931E+04  3.460304E+03  1.579149E+03
       185  24  3.001076E+03  6.470675E+01 -5.564507E+03  4.828121E+04  1.568059E+02 -2.349730E+03
       185  25 -8.745926E+04 -2.332715E+04 -2.880504E+04  4.882230E+04  2.706937E+03  5.142294E+03
       185  26 -2.449843E+04 -6.736459E+03 -1.237085E+04  3.854868E+04 -1.034633E+03  1.578417E+03
       185  27  3.759730E+04  8.346312E+03  1.248652E+03  4.805913E+04 -4.776394E+03 -2.350602E+03
       186   1 -7.655829E+04 -1.905543E+04 -2.182398E+04  4.797682E+04 -4.135358E+03  4.788806E+03
       186   2 -1.385892E+05 -3.417845E+04 -3.600381E+04  3.854691E+04  1.278838E+02  8.665150E+03
       186   3 -2.016094E+05 -5.105728E+04 -5.339888E+04  4.889203E+04  4.391309E+03  1.200755E+04
       186   4  2.980239E+03  8.184272E+01 -5.680217E+03  4.827916E+04  8.351913E+02  4.789604E+03
       186   5  3.417770E+03 -2.777440E+01 -7.268633E+03  3.839189E+04  4.458354E+03  8.665541E+03
       186   6  2.974698E+03 -1.781309E+03 -1.162689E+04  4.827941E+04  8.082106E+03  1.200760E+04
       186   7  8.252484E+04  1.921874E+04  1.046331E+04  4.858153E+04  5.806365E+03  4.790407E+03
       186   8  1.454440E+05  3.412166E+04  2.146557E+04  3.823682E+04  8.789796E+03  8.665929E+03
       186   9  2.075986E+05  4.749205E+04  3.014294E+04  4.766657E+04  1.177410E+04  1.200764E+04
       186  10 -7.655831E+04 -1.905546E+04 -2.182406E+04  4.797684E+04  4.037266E-11  3.184632E-11
       186  11 -1.385892E+05 -3.417853E+04 -3.600395E+04  3.854691E+04 -6.932165E-11 -6.701852E-11
       186  12 -2.016095E+05 -5.105744E+04 -5.339919E+04  4.889199E+04  5.605947E-11 -1.282564E-10
       186  13  2.980232E+03  8.181790E+01 -5.680262E+03  4.827916E+04 -1.319900E-10 -3.616677E-11
       186  14  3.417729E+03 -2.786036E+01 -7.268811E+03  3.839185E+04  3.400114E-10 -1.053750E-10
       186  15  2.974589E+03 -1.781482E+03 -1.162729E+04  4.827933E+04  1.536360E-10  1.654016E-12
       186  16  8.252480E+04  1.921870E+04  1.046321E+04  4.858151E+04 -1.136992E-10 -3.233419E-11
       186  17  1.454439E+05  3.412156E+04  2.146529E+04  3.823676E+04  9.978272E-11  1.880313E-10
       186  18  2.075984E+05  4.749185E+04  3.014241E+04  4.766645E+04  1.825217E-11  1.462295E-10
       186  19 -7.655829E+04 -1.905543E+04 -2.182398E+04  4.797682E+04  4.135358E+03 -4.788806E+03
       186  20 -1.385892E+05 -3.417845E+04 -3.600381E+04  3.854691E+04 -1.278838E+02 -8.665150E+03
       186  21 -2.016094E+05 -5.105728E+04 -5.339888E+04  4.889203E+04 -4.391309E+03 -1.200755E+04
       186  22  2.980239E+03  8.184272E+01 -5.680217E+03  4.827916E+04 -8.351913E+02 -4.789604E+03
       186  23  3.417770E+03 -2.777440E+01 -7.268633E+03  3.839189E+04 -4.458354E+03 -8.665541E+03
       186  24  2.974698E+03 -1.781309E+03 -1.162689E+04  4.827941E+04 -8.082106E+03 -1.200760E+04
       186  25  8.252484E+04  1.921874E+04  1.046331E+04  4.858153E+04 -5.806365E+03 -4.790407E+03
       186  26  1.454440E+05  3.412166E+04  2.146557E+04  3.823682E+04 -8.789796E+03 -8.665929E+03
       186  27  2.075986E+05  4.749205E+04  3.014294E+04  4.766657E+04 -1.177410E+04 -1.200764E+04
       187   1 -2.490286E+05 -5.893175E+04 -6.544109E+04  4.275203E+04  4.031263E+03  1.477264E+04
       187   2 -3.052679E+05 -7.968072E+04 -9.119794E+04  4.828798E+04  2.910348E+04  1.480069E+04
       187   3 -3.742482E+05 -1.384326E+05 -1.427785E+05  7.306159E+04  5.417119E+04  4.792895E+03
       187   4  7.998417E+02  1.227132E+03 -1.451494E+04  4.816090E+04  1.008624E+04  1.477260E+04
       187   5  6.118201E+03 -4.131919E+03 -2.489964E+04  3.854051E+04  2.312492E+04  1.479981E+04
       187   6  7.880260E+02 -4.539432E+04 -5.274351E+04  4.815899E+04  3.616197E+04  4.792224E+03
       187   7  2.506878E+05  6.138224E+04  3.640808E+04  5.357199E+04  1.614361E+04  1.477266E+04
       187   8  3.175959E+05  7.141095E+04  4.139327E+04  2.878808E+04  1.714340E+04  1.479912E+04
       187   9  3.759551E+05  4.763629E+04  3.728300E+04  2.324127E+04  1.814191E+04  4.792999E+03
       187  10 -2.490287E+05 -5.893199E+04 -6.544153E+04  4.275198E+04 -2.340482E-10  2.584578E-11
       187  11 -3.052689E+05 -7.968118E+04 -9.119995E+04  4.828764E+04  8.605551E-11  3.380780E-10
       187  12 -3.742513E+05 -1.384335E+05 -1.427840E+05  7.306138E+04  2.799559E-10  1.528640E-10
       187  13  7.996739E+02  1.226871E+03 -1.451554E+04  4.816078E+04 -8.708008E-12 -5.122225E-12
       187  14  6.117568E+03 -4.132297E+03 -2.490106E+04  3.854024E+04  2.072395E-10  5.190792E-12
       187  15  7.866156E+02 -4.539469E+04 -5.274602E+04  4.815885E+04  6.701193E-11 -1.558171E-11
       187  16  2.506875E+05  6.138194E+04  3.640718E+04  5.357180E+04  2.653294E-10  1.149166E-10
       187  17  3.175956E+05  7.141064E+04  4.139231E+04  2.878788E+04  3.170731E-10 -8.520241E-11
       187  18  3.759547E+05  4.763618E+04  3.728233E+04  2.324120E+04 -1.537200E-10  1.116462E-10
       187  19 -2.490286E+05 -5.893175E+04 -6.544109E+04  4.275203E+04 -4.031263E+03 -1.477264E+04
       187  20 -3.052679E+05 -7.968072E+04 -9.119794E+04  4.828798E+04 -2.910348E+04 -1.480069E+04
       187  21 -3.742482E+05 -1.384326E+05 -1.427785E+05  7.306159E+04 -5.417119E+04 -4.792895E+03
       187  22  7.998417E+02  1.227132E+03 -1.451494E+04  4.816090E+04 -1.008624E+04 -1.477260E+04
       187  23  6.118201E+03 -4.131919E+03 -2.489964E+04  3.854051E+04 -2.312492E+04 -1.479981E+04
       187  24  7.880260E+02 -4.539432E+04 -5.274351E+04  4.815899E+04 -3.616197E+04 -4.792224E+03
       187  25  2.506878E+05  6.138224E+04  3.640808E+04  5.357199E+04 -1.614361E+04 -1.477266E+04
       187  26  3.175959E+05  7.141095E+04  4.139327E+04  2.878808E+04 -1.714340E+04 -1.479912E+04
       187  27  3.759551E+05  4.763629E+04  3.728300E+04  2.324127E+04 -1.814191E+04 -4.792999E+03
       188   1 -1.036067E+05 -3.360015E+05 -1.180391E+05  7.211766E+04 -4.968191E+02 -7.061639E+04
       188   2 -1.519585E+04 -2.950183E+05 -5.690121E+04  3.776797E+04 -1.011649E+03 -4.218404E+04
       188   3  2.470259E+03 -2.754274E+05 -3.196643E+04  1.290562E+04  2.440130E+02 -1.375005E+04
       188   4 -8.872501E+04 -2.761377E+05 -1.034479E+05  2.333461E+04 -4.911087E+02 -6.893066E+04
       188   5 -8.006058E+03 -2.656200E+05 -5.033588E+04  1.858593E+04 -1.010383E+03 -4.262290E+04
       188   6  2.336315E+03 -2.761259E+05 -3.194903E+04  2.332728E+04  2.435076E+02 -1.631494E+04
       188   7 -7.383463E+04 -2.162656E+05 -8.885559E+04 -2.545316E+04 -4.856637E+02 -6.724477E+04
       188   8 -8.149451E+02 -2.362200E+05 -4.377041E+04 -5.970305E+02 -1.009091E+03 -4.306179E+04
       188   9  2.202784E+03 -2.768242E+05 -3.193155E+04  3.374892E+04  2.429160E+02 -1.887984E+04
       188  10 -1.036080E+05 -3.360069E+05 -1.180485E+05  7.211763E+04 -1.039986E-10 -1.942616E-10
       188  11 -1.519632E+04 -2.950203E+05 -5.690456E+04  3.776794E+04 -3.183962E-10  4.934342E-11
       188  12  2.470208E+03 -2.754276E+05 -3.196679E+04  1.290563E+04 -1.697263E-10  2.394818E-10
       188  13 -8.872629E+04 -2.761428E+05 -1.034568E+05  2.333458E+04  1.134911E-10  4.448296E-11
       188  14 -8.006547E+03 -2.656219E+05 -5.033930E+04  1.858590E+04 -1.087647E-10 -5.775873E-11
       188  15  2.336244E+03 -2.761262E+05 -3.194953E+04  2.332728E+04 -3.143468E-10  1.132243E-10
       188  16 -7.383584E+04 -2.162704E+05 -8.886409E+04 -2.545318E+04 -4.461631E-11  9.046365E-11
       188  17 -8.154442E+02 -2.362220E+05 -4.377390E+04 -5.970655E+02  7.274633E-11  9.762215E-11
       188  18  2.202688E+03 -2.768245E+05 -3.193222E+04  3.374892E+04  1.589510E-10 -1.781639E-10
       188  19 -1.036067E+05 -3.360015E+05 -1.180391E+05  7.211766E+04  4.968191E+02  7.061639E+04
       188  20 -1.519585E+04 -2.950183E+05 -5.690121E+04  3.776797E+04  1.011649E+03  4.218404E+04
       188  21  2.470259E+03 -2.754274E+05 -3.196643E+04  1.290562E+04 -2.440130E+02  1.375005E+04
       188  22 -8.872501E+04 -2.761377E+05 -1.034479E+05  2.333461E+04  4.911087E+02  6.893066E+04
       188  23 -8.006058E+03 -2.656200E+05 -5.033588E+04  1.858593E+04  1.010383E+03  4.262290E+04
       188  24  2.336315E+03 -2.761259E+05 -3.194903E+04  2.332728E+04 -2.435076E+02  1.631494E+04
       188  25 -7.383463E+04 -2.162656E+05 -8.885559E+04 -2.545316E+04  4.856637E+02  6.724477E+04
       188  26 -8.149451E+02 -2.362200E+05 -4.377041E+04 -5.970305E+02  1.009091E+03  4.306179E+04
       188  27  2.202784E+03 -2.768242E+05 -3.193155E+04  3.374892E+04 -2.429160E+02  1.887984E+04
       189   1  2.077696E+03 -2.496222E+05 -2.311408E+04  2.521742E+04  1.481678E+03 -9.460044E+03
       189   2  1.246613E+04 -2.178616E+05 -1.229588E+04  1.856788E+04  3.243840E+03  1.824313E+03
       189   3  1.674731E+04 -1.890972E+05 -1.035297E+04  2.148672E+04  4.857764E+03  1.310930E+04
       189   4 -3.319380E+03 -2.721287E+05 -2.758407E+04  2.334613E+04  1.481479E+03 -1.166104E+04
       189   5 -2.190485E+02 -2.706152E+05 -2.295394E+04  1.856187E+04  3.243684E+03 -1.995731E+02
       189   6 -3.256969E+03 -2.721297E+05 -2.732240E+04  2.334615E+04  4.857709E+03  1.126200E+04
       189   7 -8.716472E+03 -2.946347E+05 -3.205407E+04  2.147491E+04  1.481294E+03 -1.386196E+04
       189   8 -1.290440E+04 -3.233661E+05 -3.361212E+04  1.855587E+04  3.243527E+03 -2.223291E+03
       189   9 -2.326166E+04 -3.551557E+05 -4.429219E+04  2.520532E+04  4.857644E+03  9.414934E+03
       189  10  2.077670E+03 -2.496223E+05 -2.311425E+04  2.521743E+04 -1.049015E-10 -2.103914E-10
       189  11  1.246612E+04 -2.178616E+05 -1.229591E+04  1.856787E+04 -1.881624E-10  8.053675E-11
       189  12  1.674723E+04 -1.890974E+05 -1.035334E+04  2.148667E+04  1.208487E-10  2.746386E-10
       189  13 -3.319419E+03 -2.721289E+05 -2.758433E+04  2.334614E+04 -2.099148E-11  7.012674E-11
       189  14 -2.190598E+02 -2.706152E+05 -2.295396E+04  1.856187E+04  4.528488E-11 -3.941821E-11
       189  15 -3.257028E+03 -2.721298E+05 -2.732269E+04  2.334610E+04  2.196027E-10  5.824619E-11
       189  16 -8.716526E+03 -2.946350E+05 -3.205443E+04  2.147492E+04  3.616589E-10  1.068964E-10
       189  17 -1.290441E+04 -3.233661E+05 -3.361215E+04  1.855588E+04  2.290168E-10  8.683909E-11
       189  18 -2.326171E+04 -3.551558E+05 -4.429240E+04  2.520528E+04 -6.808004E-11 -2.689818E-10
       189  19  2.077696E+03 -2.496222E+05 -2.311408E+04  2.521742E+04 -1.481678E+03  9.460044E+03
       189  20  1.246613E+04 -2.178616E+05 -1.229588E+04  1.856788E+04 -3.243840E+03 -1.824313E+03
       189  21  1.674731E+04 -1.890972E+05 -1.035297E+04  2.148672E+04 -4.857764E+03 -1.310930E+04
       189  22 -3.319380E+03 -2.721287E+05 -2.758407E+04  2.334613E+04 -1.481479E+03  1.166104E+04
       189  23 -2.190485E+02 -2.706152E+05 -2.295394E+04  1.856187E+04 -3.243684E+03  1.995731E+02
       189  24 -3.256969E+03 -2.721297E+05 -2.732240E+04  2.334615E+04 -4.857709E+03 -1.126200E+04
       189  25 -8.716472E+03 -2.946347E+05 -3.205407E+04  2.147491E+04 -1.481294E+03  1.386196E+04
       189  26 -1.290440E+04 -3.233661E+05 -3.361212E+04  1.855587E+04 -3.243527E+03  2.223291E+03
       189  27 -2.326166E+04 -3.551557E+05 -4.429219E+04  2.520532E+04 -4.857644E+03 -9.414934E+03
       190   1  2.756094E+04 -1.711257E+05 -1.014435E+04  3.352721E+04  6.185384E+03  1.874368E+04
       190   2  2.482897E+04 -1.309890E+05 -2.079869E+04 -2.236543E+02  6.355378E+03  3.929309E+04
       190   3 -4.610354E+04 -1.105719E+05 -6.188109E+04 -2.464730E+04  2.074642E+03  5.984336E+04
       190   4  2.289123E+03 -2.760456E+05 -3.155044E+04  2.329244E+04  6.184972E+03  1.586815E+04
       190   5 -7.869143E+03 -2.657257E+05 -4.952545E+04  1.862944E+04  6.356740E+03  4.175069E+04
       190   6 -8.716548E+04 -2.760592E+05 -1.016379E+05  2.329392E+04  2.079268E+03  6.763279E+04
       190   7 -2.298299E+04 -3.809548E+05 -5.295701E+04  1.305943E+04  6.184655E+03  1.299309E+04
       190   8 -4.056710E+04 -4.004445E+05 -7.825304E+04  3.747839E+04  6.358252E+03  4.420777E+04
       190   9 -1.282207E+05 -4.415163E+05 -1.413952E+05  7.122230E+04  2.085099E+03  7.542015E+04
       190  10  2.756081E+04 -1.711261E+05 -1.014509E+04  3.352712E+04  2.118458E-10 -4.007344E-10
       190  11  2.482851E+04 -1.309906E+05 -2.080167E+04 -2.238554E+02  1.000127E-10 -1.432584E-10
       190  12 -4.610450E+04 -1.105758E+05 -6.188783E+04 -2.464740E+04  1.179518E-10  9.506949E-11
       190  13  2.289015E+03 -2.760459E+05 -3.155098E+04  2.329236E+04  2.230691E-10  1.796330E-11
       190  14 -7.869654E+03 -2.657276E+05 -4.952880E+04  1.862923E+04  2.074915E-10 -1.440187E-11
       190  15 -8.716672E+04 -2.760641E+05 -1.016465E+05  2.329380E+04 -5.904306E-11 -7.157352E-11
       190  16 -2.298307E+04 -3.809550E+05 -5.295740E+04  1.305937E+04  2.219674E-10  3.472460E-10
       190  17 -4.056767E+04 -4.004466E+05 -7.825679E+04  3.747816E+04  1.326684E-10  1.175022E-10
       190  18 -1.282223E+05 -4.415224E+05 -1.414059E+05  7.122217E+04  1.078962E-11 -1.215672E-10
       190  19  2.756094E+04 -1.711257E+05 -1.014435E+04  3.352721E+04 -6.185384E+03 -1.874368E+04
       190  20  2.482897E+04 -1.309890E+05 -2.079869E+04 -2.236543E+02 -6.355378E+03 -3.929309E+04
       190  21 -4.610354E+04 -1.105719E+05 -6.188109E+04 -2.464730E+04 -2.074642E+03 -5.984336E+04
       190  22  2.289123E+03 -2.760456E+05 -3.155044E+04  2.329244E+04 -6.184972E+03 -1.586815E+04
       190  23 -7.869143E+03 -2.657257E+05 -4.952545E+04  1.862944E+04 -6.356740E+03 -4.175069E+04
       190  24 -8.716548E+04 -2.760592E+05 -1.016379E+05  2.329392E+04 -2.079268E+03 -6.763279E+04
       190  25 -2.298299E+04 -3.809548E+05 -5.295701E+04  1.305943E+04 -6.184655E+03 -1.299309E+04
       190  26 -4.056710E+04 -4.004445E+05 -7.825304E+04  3.747839E+04 -6.358252E+03 -4.420777E+04
       190  27 -1.282207E+05 -4.415163E+05 -1.413952E+05  7.122230E+04 -2.085099E+03 -7.542015E+04
       191   1  4.106775E+05  2.874313E+05  8.103602E+04  2.803867E+05  6.130472E+04  4.842169E+04
       191   2  4.318892E+05  2.213733E+05  3.089776E+04  3.311295E+05  3.963963E+04  3.662649E+04
       191   3  5.134227E+05  2.020708E+05  1.742331E+04  3.490800E+05  2.090604E+04  2.091791E+04
       191   4  5.950454E+05  3.227735E+05  1.234819E+05  3.275891E+05  6.709657E+04  5.275521E+04
       191   5  5.447540E+05  2.639598E+05  5.782389E+04  3.701937E+05  4.072146E+04  3.743504E+04
       191   6  5.557890E+05  2.529098E+05  3.290343E+04  3.800070E+05  1.728086E+04  1.820078E+04
       191   7  7.794560E+05  3.581194E+05  1.659276E+05  3.747991E+05  7.289086E+04  5.708887E+04
       191   8  6.576344E+05  3.065484E+05  8.474960E+04  4.092640E+05  4.180356E+04  3.824367E+04
       191   9  5.981582E+05  3.037532E+05  4.838365E+04  4.109376E+05  1.365532E+04  1.548314E+04
       191  10  4.106728E+05  2.874278E+05  8.102456E+04  2.803843E+05  1.052214E-10  7.996497E-11
       191  11  4.318872E+05  2.213714E+05  3.089229E+04  3.311283E+05  2.022289E-10  2.183056E-11
       191  12  5.134221E+05  2.020702E+05  1.742167E+04  3.490796E+05 -3.451556E-10 -1.076137E-10
       191  13  5.950398E+05  3.227693E+05  1.234682E+05  3.275863E+05 -2.124348E-12 -1.939399E-11
       191  14  5.447518E+05  2.639578E+05  5.781815E+04  3.701925E+05  5.036840E-10  4.470742E-11
       191  15  5.557886E+05  2.529093E+05  3.290224E+04  3.800068E+05 -4.380223E-10 -5.252856E-11
       191  16  7.794494E+05  3.581145E+05  1.659116E+05  3.747957E+05 -9.975143E-11 -1.546334E-10
       191  17  6.576321E+05  3.065464E+05  8.474357E+04  4.092627E+05  7.534499E-11 -1.592185E-10
       191  18  5.981580E+05  3.037529E+05  4.838285E+04  4.109374E+05  2.447837E-10  5.681607E-11
       191  19  4.106775E+05  2.874313E+05  8.103602E+04  2.803867E+05 -6.130472E+04 -4.842169E+04
       191  20  4.318892E+05  2.213733E+05  3.089776E+04  3.311295E+05 -3.963963E+04 -3.662649E+04
       191  21  5.134227E+05  2.020708E+05  1.742331E+04  3.490800E+05 -2.090604E+04 -2.091791E+04
       191  22  5.950454E+05  3.227735E+05  1.234819E+05  3.275891E+05 -6.709657E+04 -5.275521E+04
       191  23  5.447540E+05  2.639598E+05  5.782389E+04  3.701937E+05 -4.072146E+04 -3.743504E+04
       191  24  5.557890E+05  2.529098E+05  3.290343E+04  3.800070E+05 -1.728086E+04 -1.820078E+04
       191  25  7.794560E+05  3.581194E+05  1.659276E+05  3.747991E+05 -7.289086E+04 -5.708887E+04
       191  26  6.576344E+05  3.065484E+05  8.474960E+04  4.092640E+05 -4.180356E+04 -3.824367E+04
       191  27  5.981582E+05  3.037532E+05  4.838365E+04  4.109376E+05 -1.365532E+04 -1.548314E+04
       192   1  5.256230E+05  2.369025E+05  1.767166E+04  3.604058E+05  1.767741E+04  1.585867E+04
       192   2  5.536315E+05  2.664598E+05  1.652876E+04  3.822133E+05  1.399717E+04  9.418179E+03
       192   3  5.994099E+05  2.837022E+05  2.072780E+04  3.986641E+05  1.047844E+04  2.761734E+03
       192   4  5.550927E+05  2.555307E+05  2.572022E+04  3.741334E+05  1.497649E+04  1.383373E+04
       192   5  5.453851E+05  2.602439E+05  1.428370E+04  3.778756E+05  1.103654E+04  7.198572E+03
       192   6  5.535023E+05  2.526980E+05  8.413949E+03  3.762600E+05  7.258508E+03  3.477383E+02
       192   7  5.845631E+05  2.741589E+05  3.376861E+04  3.878616E+05  1.227544E+04  1.180870E+04
       192   8  5.371389E+05  2.540280E+05  1.203871E+04  3.735379E+05  8.075979E+03  4.979023E+03
       192   9  5.075970E+05  2.216949E+05 -3.900026E+03  3.538577E+05  4.038898E+03 -2.066029E+03
       192  10  5.256226E+05  2.369022E+05  1.767060E+04  3.604056E+05 -9.200508E-13  1.259870E-11
       192  11  5.536313E+05  2.664597E+05  1.652823E+04  3.822132E+05 -2.689726E-10  1.238692E-11
       192  12  5.994098E+05  2.837022E+05  2.072758E+04  3.986641E+05 -2.597011E-10  5.013932E-11
       192  13  5.550925E+05  2.555304E+05  2.571944E+04  3.741333E+05 -6.413571E-10 -2.218876E-11
       192  14  5.453850E+05  2.602438E+05  1.428338E+04  3.778755E+05 -5.096109E-10 -6.439806E-11
       192  15  5.535022E+05  2.526980E+05  8.413850E+03  3.762600E+05 -1.419235E-10 -3.289062E-13
       192  16  5.845629E+05  2.741588E+05  3.376806E+04  3.878615E+05  2.495340E-10 -2.023246E-11
       192  17  5.371388E+05  2.540280E+05  1.203855E+04  3.735379E+05  3.335558E-10 -1.002996E-10
       192  18  5.075970E+05  2.216949E+05 -3.900065E+03  3.538577E+05 -2.285937E-10 -4.606388E-11
       192  19  5.256230E+05  2.369025E+05  1.767166E+04  3.604058E+05 -1.767741E+04 -1.585867E+04
       192  20  5.536315E+05  2.664598E+05  1.652876E+04  3.822133E+05 -1.399717E+04 -9.418179E+03
       192  21  5.994099E+05  2.837022E+05  2.072780E+04  3.986641E+05 -1.047844E+04 -2.761734E+03
       192  22  5.550927E+05  2.555307E+05  2.572022E+04  3.741334E+05 -1.497649E+04 -1.383373E+04
       192  23  5.453851E+05  2.602439E+05  1.428370E+04  3.778756E+05 -1.103654E+04 -7.198572E+03
       192  24  5.535023E+05  2.526980E+05  8.413949E+03  3.762600E+05 -7.258508E+03 -3.477383E+02
       192  25  5.845631E+05  2.741589E+05  3.376861E+04  3.878616E+05 -1.227544E+04 -1.180870E+04
       192  26  5.371389E+05  2.540280E+05  1.203871E+04  3.735379E+05 -8.075979E+03 -4.979023E+03
       192  27  5.075970E+05  2.216949E+05 -3.900026E+03  3.538577E+05 -4.038898E+03  2.066029E+03
       193   1  6.249946E+05  3.030216E+05  2.642757E+04  4.117260E+05  1.054263E+04  3.742111E+02
       193   2  6.537454E+05  3.365000E+05  3.412298E+04  4.323966E+05  1.081180E+04 -3.541811E+03
       193   3  6.981237E+05  3.549047E+05  4.326095E+04  4.486524E+05  1.106895E+04 -7.441322E+03
       193   4  5.533994E+05  2.527596E+05  6.593596E+03  3.759525E+05  7.365427E+03 -2.007887E+03
       193   5  5.455694E+05  2.602672E+05  4.260650E+03  3.781829E+05  7.654495E+03 -5.909346E+03
       193   6  5.533611E+05  2.526953E+05  3.353036E+03  3.759969E+05  7.931692E+03 -9.794154E+03
       193   7  4.818089E+05  2.024998E+05 -1.324113E+04  3.401833E+05  4.188676E+03 -4.389648E+03
       193   8  4.374064E+05  1.840412E+05 -2.560275E+04  3.239800E+05  4.497935E+03 -8.276329E+03
       193   9  4.086237E+05  1.504993E+05 -3.655620E+04  3.033616E+05  4.795457E+03 -1.214622E+04
       193  10  6.249945E+05  3.030216E+05  2.642736E+04  4.117260E+05  4.800891E-10  2.440460E-10
       193  11  6.537453E+05  3.364999E+05  3.412274E+04  4.323967E+05 -1.756190E-10 -1.867562E-10
       193  12  6.981235E+05  3.549046E+05  4.326062E+04  4.486525E+05 -2.624375E-10 -1.192369E-10
       193  13  5.533993E+05  2.527595E+05  6.593487E+03  3.759526E+05  3.930584E-10  5.120710E-11
       193  14  5.455693E+05  2.602672E+05  4.260474E+03  3.781830E+05  3.427495E-10  3.218691E-11
       193  15  5.533610E+05  2.526952E+05  3.352738E+03  3.759969E+05 -1.007892E-10 -1.510069E-10
       193  16  4.818089E+05  2.024998E+05 -1.324120E+04  3.401833E+05 -4.907445E-10 -1.385572E-10
       193  17  4.374064E+05  1.840411E+05 -2.560291E+04  3.239800E+05  1.375649E-10 -1.577836E-11
       193  18  4.086236E+05  1.504991E+05 -3.655652E+04  3.033616E+05  1.987922E-11  7.882237E-11
       193  19  6.249946E+05  3.030216E+05  2.642757E+04  4.117260E+05 -1.054263E+04 -3.742111E+02
       193  20  6.537454E+05  3.365000E+05  3.412298E+04  4.323966E+05 -1.081180E+04  3.541811E+03
       193  21  6.981237E+05  3.549047E+05  4.326095E+04  4.486524E+05 -1.106895E+04  7.441322E+03
       193  22  5.533994E+05  2.527596E+05  6.593596E+03  3.759525E+05 -7.365427E+03  2.007887E+03
       193  23  5.455694E+05  2.602672E+05  4.260650E+03  3.781829E+05 -7.654495E+03  5.909346E+03
       193  24  5.533611E+05  2.526953E+05  3.353036E+03  3.759969E+05 -7.931692E+03  9.794154E+03
       193  25  4.818089E+05  2.024998E+05 -1.324113E+04  3.401833E+05 -4.188676E+03  4.389648E+03
       193  26  4.374064E+05  1.840412E+05 -2.560275E+04  3.239800E+05 -4.497935E+03  8.276329E+03
       193  27  4.086237E+05  1.504993E+05 -3.655620E+04  3.033616E+05 -4.795457E+03  1.214622E+04
       194   1  7.243385E+05  3.737275E+05  5.072605E+04  4.619681E+05  1.190409E+04 -9.273813E+03
       194   2  7.534594E+05  4.071432E+05  6.162123E+04  4.824401E+05  1.150710E+04 -1.339334E+04
       194   3  7.986789E+05  4.260582E+05  7.457703E+04  4.982728E+05  1.070022E+04 -1.696540E+04
       194   4  5.533636E+05  2.526670E+05  3.289381E+03  3.760388E+05  8.636326E+03 -1.172480E+04
       194   5  5.455567E+05  2.602957E+05  3.947304E+03  3.781261E+05  8.897631E+03 -1.535127E+04
       194   6  5.537047E+05  2.532801E+05  6.095825E+03  3.755727E+05  8.749128E+03 -1.843002E+04
       194   7  3.824211E+05  1.316234E+05 -4.415010E+04  2.901364E+05  5.369776E+03 -1.417488E+04
       194   8  3.377007E+05  1.134719E+05 -5.373127E+04  2.738511E+05  6.289326E+03 -1.730833E+04
       194   9  3.087938E+05  8.053372E+04 -6.239239E+04  2.529260E+05  6.799052E+03 -1.989388E+04
       194  10  7.243383E+05  3.737273E+05  5.072562E+04  4.619682E+05  2.208712E-11 -1.379893E-11
       194  11  7.534592E+05  4.071430E+05  6.162065E+04  4.824403E+05  5.611713E-10  8.226273E-11
       194  12  7.986787E+05  4.260579E+05  7.457627E+04  4.982730E+05  1.093161E-09 -5.317020E-10
       194  13  5.533634E+05  2.526669E+05  3.288982E+03  3.760389E+05  1.083581E-10 -4.366702E-11
       194  14  5.455566E+05  2.602954E+05  3.946712E+03  3.781262E+05  2.259417E-10 -2.258188E-10
       194  15  5.537045E+05  2.532797E+05  6.095043E+03  3.755728E+05  6.937162E-10 -1.529381E-10
       194  16  3.824210E+05  1.316232E+05 -4.415053E+04  2.901365E+05 -1.428408E-11 -8.293890E-11
       194  17  3.377006E+05  1.134715E+05 -5.373191E+04  2.738512E+05 -1.087709E-10 -5.097770E-10
       194  18  3.087937E+05  8.053328E+04 -6.239322E+04  2.529261E+05 -5.500366E-10 -1.263587E-09
       194  19  7.243385E+05  3.737275E+05  5.072605E+04  4.619681E+05 -1.190409E+04  9.273813E+03
       194  20  7.534594E+05  4.071432E+05  6.162123E+04  4.824401E+05 -1.150710E+04  1.339334E+04
       194  21  7.986789E+05  4.260582E+05  7.457703E+04  4.982728E+05 -1.070022E+04  1.696540E+04
       194  22  5.533636E+05  2.526670E+05  3.289381E+03  3.760388E+05 -8.636326E+03  1.172480E+04
       194  23  5.455567E+05  2.602957E+05  3.947304E+03  3.781261E+05 -8.897631E+03  1.535127E+04
       194  24  5.537047E+05  2.532801E+05  6.095825E+03  3.755727E+05 -8.749128E+03  1.843002E+04
       194  25  3.824211E+05  1.316234E+05 -4.415010E+04  2.901364E+05 -5.369776E+03  1.417488E+04
       194  26  3.377007E+05  1.134719E+05 -5.373127E+04  2.738511E+05 -6.289326E+03  1.730833E+04
       194  27  3.087938E+05  8.053372E+04 -6.239239E+04  2.529260E+05 -6.799052E+03  1.989388E+04
       195   1  8.224993E+05  4.475053E+05  8.336683E+04  5.139235E+05  1.365336E+04 -1.774249E+04
       195   2  8.581456E+05  4.742287E+05  1.024235E+05  5.290422E+05 -4.725419E+03 -2.935990E+04
       195   3  9.213774E+05  5.025532E+05  1.408457E+05  5.336341E+05 -3.057418E+04 -3.102885E+04
       195   4  5.537362E+05  2.528081E+05  7.549354E+03  3.768912E+05  9.345338E+03 -2.097570E+04
       195   5  5.455453E+05  2.609592E+05  1.283356E+04  3.764004E+05  2.929717E+03 -2.361724E+04
       195   6  5.623514E+05  2.681252E+05  2.711506E+04  3.653813E+05 -1.095639E+04 -1.630665E+04
       195   7  2.850568E+05  5.815731E+04 -6.827406E+04  2.399289E+05  5.039881E+03 -2.420693E+04
       195   8  2.330545E+05  4.774139E+04 -7.676547E+04  2.238453E+05  1.057958E+04 -1.787834E+04
       195   9  2.034630E+05  3.375315E+04 -8.662910E+04  1.972334E+05  8.645843E+03 -1.594860E+03
       195  10  8.224990E+05  4.475049E+05  8.336588E+04  5.139237E+05  2.859533E-10 -7.877086E-10
       195  11  8.581453E+05  4.742278E+05  1.024218E+05  5.290421E+05  4.534384E-10  5.519683E-10
       195  12  9.213761E+05  5.025520E+05  1.408421E+05  5.336334E+05  4.253179E-10  3.119317E-10
       195  13  5.537360E+05  2.528076E+05  7.548363E+03  3.768913E+05  9.317473E-11 -8.317760E-10
       195  14  5.455452E+05  2.609586E+05  1.283250E+04  3.764005E+05  8.019035E-10  2.374907E-09
       195  15  5.623512E+05  2.681249E+05  2.711433E+04  3.653812E+05 -5.164971E-11 -1.190480E-10
       195  16  2.850566E+05  5.815668E+04 -6.827521E+04  2.399290E+05  5.856344E-10 -5.592183E-11
       195  17  2.330543E+05  4.774101E+04 -7.676628E+04  2.238455E+05 -2.944303E-10  3.249481E-10
       195  18  2.034629E+05  3.375312E+04 -8.662925E+04  1.972334E+05 -5.369343E-10 -7.069123E-11
       195  19  8.224993E+05  4.475053E+05  8.336683E+04  5.139235E+05 -1.365336E+04  1.774249E+04
       195  20  8.581456E+05  4.742287E+05  1.024235E+05  5.290422E+05  4.725419E+03  2.935990E+04
       195  21  9.213774E+05  5.025532E+05  1.408457E+05  5.336341E+05  3.057418E+04  3.102885E+04
       195  22  5.537362E+05  2.528081E+05  7.549354E+03  3.768912E+05 -9.345338E+03  2.097570E+04
       195  23  5.455453E+05  2.609592E+05  1.283356E+04  3.764004E+05 -2.929717E+03  2.361724E+04
       195  24  5.623514E+05  2.681252E+05  2.711506E+04  3.653813E+05  1.095639E+04  1.630665E+04
       195  25  2.850568E+05  5.815731E+04 -6.827406E+04  2.399289E+05 -5.039881E+03  2.420693E+04
       195  26  2.330545E+05  4.774139E+04 -7.676547E+04  2.238453E+05 -1.057958E+04  1.787834E+04
       195  27  2.034630E+05  3.375315E+04 -8.662910E+04  1.972334E+05 -8.645843E+03  1.594860E+03
       196   1 -1.191030E+05 -1.609910E+05 -1.087562E+05  1.787780E+05 -6.163523E+03  1.245228E+04
       196   2 -8.993924E+04  9.771876E+04 -6.234653E+04  1.520181E+05 -1.532861E+04  2.330310E+04
       196   3 -3.135650E+04  3.624192E+05 -1.565599E+04  2.070532E+05 -5.854030E+03  3.415288E+04
       196   4  4.214617E+04  4.878558E+05  4.861214E+04  2.019773E+05 -6.149874E+03  3.465975E+04
       196   5  3.965767E+03  4.829951E+05  2.195670E+04  1.610957E+05 -1.532768E+04  2.313664E+04
       196   6 -9.217187E+02  4.879289E+05  1.110942E+04  2.019997E+05 -5.871592E+03  1.160786E+04
       196   7  2.033668E+05  1.137089E+06  2.059523E+05  2.252008E+05 -6.134576E+03  5.689034E+04
       196   8  9.786118E+04  8.684104E+05  1.062510E+05  1.701789E+05 -1.532677E+04  2.297008E+04
       196   9  2.951241E+04  6.134546E+05  3.787585E+04  1.969451E+05 -5.888784E+03 -1.094165E+04
       196  10 -1.191031E+05 -1.609911E+05 -1.087566E+05  1.787780E+05 -2.843285E-11  1.582876E-11
       196  11 -8.993964E+04  9.771811E+04 -6.234799E+04  1.520184E+05 -2.017432E-11  1.206075E-09
       196  12 -3.135685E+04  3.624180E+05 -1.565825E+04  2.070534E+05  4.873871E-11  2.285051E-10
       196  13  4.214581E+04  4.878545E+05  4.860982E+04  2.019775E+05 -1.709088E-10 -2.579034E-10
       196  14  3.965371E+03  4.829944E+05  2.195525E+04  1.610960E+05 -3.111187E-10 -6.362443E-11
       196  15 -9.217919E+02  4.879288E+05  1.110910E+04  2.019997E+05 -1.194509E-10 -6.155606E-10
       196  16  2.033659E+05  1.137086E+06  2.059462E+05  2.252011E+05 -2.885534E-11  4.115481E-10
       196  17  9.786079E+04  8.684098E+05  1.062495E+05  1.701792E+05 -1.054961E-11 -1.920130E-10
       196  18  2.951234E+04  6.134545E+05  3.787556E+04  1.969450E+05  1.413639E-10 -3.421098E-12
       196  19 -1.191030E+05 -1.609910E+05 -1.087562E+05  1.787780E+05  6.163523E+03 -1.245228E+04
       196  20 -8.993924E+04  9.771876E+04 -6.234653E+04  1.520181E+05  1.532861E+04 -2.330310E+04
       196  21 -3.135650E+04  3.624192E+05 -1.565599E+04  2.070532E+05  5.854030E+03 -3.415288E+04
       196  22  4.214617E+04  4.878558E+05  4.861214E+04  2.019773E+05  6.149874E+03 -3.465975E+04
       196  23  3.965767E+03  4.829951E+05  2.195670E+04  1.610957E+05  1.532768E+04 -2.313664E+04
       196  24 -9.217187E+02  4.879289E+05  1.110942E+04  2.019997E+05  5.871592E+03 -1.160786E+04
       196  25  2.033668E+05  1.137089E+06  2.059523E+05  2.252008E+05  6.134576E+03 -5.689034E+04
       196  26  9.786118E+04  8.684104E+05  1.062510E+05  1.701789E+05  1.532677E+04 -2.297008E+04
       196  27  2.951241E+04  6.134546E+05  3.787585E+04  1.969451E+05  5.888784E+03  1.094165E+04
       197   1  1.695284E+04  5.487967E+05  1.948859E+04  2.020031E+05  4.937270E+03  2.881156E+04
       197   2  7.812728E+04  8.102941E+05  6.648361E+04  1.608269E+05  1.995590E+04  2.723599E+04
       197   3  1.398028E+05  1.072149E+06  1.146112E+05  2.023247E+05  3.407018E+04  2.566503E+04
       197   4  1.975313E+03  4.857762E+05  7.581459E+03  2.021933E+05  4.922914E+03  1.022745E+04
       197   5  1.543436E+02  4.856993E+05  9.707163E+02  1.608561E+05  1.994519E+04  9.733485E+03
       197   6 -1.350237E+03  4.857251E+05 -5.259142E+03  2.021955E+05  3.406268E+04  9.244777E+03
       197   7 -1.300226E+04  4.227603E+05 -4.324546E+03  2.023834E+05  4.908545E+03 -8.354826E+03
       197   8 -7.782494E+04  1.612054E+05 -6.454645E+04  1.608852E+05  1.993448E+04 -7.760051E+03
       197   9 -1.425247E+05 -1.003722E+05 -1.251466E+05  2.020663E+05  3.405519E+04 -7.160275E+03
       197  10  1.695259E+04  5.487958E+05  1.948698E+04  2.020030E+05 -1.132321E-10 -4.973568E-11
       197  11  7.812665E+04  8.102932E+05  6.648147E+04  1.608265E+05  2.876641E-12  8.948486E-10
       197  12  1.398014E+05  1.072148E+06  1.146077E+05  2.023240E+05  1.998811E-11 -2.286178E-10
       197  13  1.975259E+03  4.857761E+05  7.581218E+03  2.021932E+05 -3.310070E-10 -5.302642E-10
       197  14  1.538910E+02  4.856990E+05  9.697909E+02  1.608559E+05  3.653405E-11 -7.239494E-11
       197  15 -1.351506E+03  4.857246E+05 -5.261483E+03  2.021952E+05 -2.020758E-10 -3.681615E-10
       197  16 -1.300230E+04  4.227602E+05 -4.324722E+03  2.023834E+05  2.794777E-10  6.807930E-10
       197  17 -7.782539E+04  1.612052E+05 -6.454731E+04  1.608853E+05 -9.529181E-11  1.425317E-10
       197  18 -1.425259E+05 -1.003726E+05 -1.251489E+05  2.020665E+05 -2.790312E-10  3.149105E-10
       197  19  1.695284E+04  5.487967E+05  1.948859E+04  2.020031E+05 -4.937270E+03 -2.881156E+04
       197  20  7.812728E+04  8.102941E+05  6.648361E+04  1.608269E+05 -1.995590E+04 -2.723599E+04
       197  21  1.398028E+05  1.072149E+06  1.146112E+05  2.023247E+05 -3.407018E+04 -2.566503E+04
       197  22  1.975313E+03  4.857762E+05  7.581459E+03  2.021933E+05 -4.922914E+03 -1.022745E+04
       197  23  1.543436E+02  4.856993E+05  9.707163E+02  1.608561E+05 -1.994519E+04 -9.733485E+03
       197  24 -1.350237E+03  4.857251E+05 -5.259142E+03  2.021955E+05 -3.406268E+04 -9.244777E+03
       197  25 -1.300226E+04  4.227603E+05 -4.324546E+03  2.023834E+05 -4.908545E+03  8.354826E+03
       197  26 -7.782494E+04  1.612054E+05 -6.454645E+04  1.608852E+05 -1.993448E+04  7.760051E+03
       197  27 -1.425247E+05 -1.003722E+05 -1.251466E+05  2.020663E+05 -3.405519E+04  7.160275E+03
       198   1  1.876526E+05  1.259635E+06  1.498383E+05  2.062963E+05  4.542627E+04  3.470357E+04
       198   2  2.474517E+05  1.522230E+06  2.028071E+05  1.541055E+05  4.824059E+04  1.928955E+03
       198   3  2.874110E+05  1.784439E+06  2.721666E+05  1.828613E+05  1.598031E+04 -3.086870E+04
       198   4  1.011269E+03  4.839222E+05 -8.421369E+03  2.018131E+05  4.541802E+04  1.020783E+04
       198   5 -3.331380E+03  4.877258E+05 -1.783045E+04  1.613361E+05  4.825042E+04  1.959667E+04
       198   6 -3.484059E+04  4.837633E+05 -4.009799E+04  2.018176E+05  1.598060E+04  2.897548E+04
       198   7 -1.856673E+05 -2.912177E+05 -1.667104E+05  1.973354E+05  4.541012E+04 -1.425793E+04
       198   8 -2.541837E+05 -5.457720E+05 -2.385285E+05  1.685544E+05  4.826068E+04  3.723542E+04
       198   9 -3.572117E+05 -8.153589E+05 -3.524690E+05  2.207339E+05  1.598454E+04  8.869500E+04
       198  10  1.876501E+05  1.259633E+06  1.498321E+05  2.062950E+05 -3.699176E-11  2.127780E-10
       198  11  2.474492E+05  1.522229E+06  2.028027E+05  1.541054E+05 -1.474454E-10 -1.375731E-10
       198  12  2.874104E+05  1.784438E+06  2.721643E+05  1.828617E+05 -6.691585E-11  6.712366E-12
       198  13  1.009025E+03  4.839216E+05 -8.425441E+03  2.018127E+05 -1.241419E-10 -1.639122E-10
       198  14 -3.333983E+03  4.877248E+05 -1.783554E+04  1.613354E+05 -1.283290E-10  6.124962E-11
       198  15 -3.484109E+04  4.837623E+05 -4.010004E+04  2.018172E+05 -1.486362E-10  4.522030E-10
       198  16 -1.856695E+05 -2.912185E+05 -1.667147E+05  1.973359E+05 -3.407385E-10  6.318416E-11
       198  17 -2.541866E+05 -5.457741E+05 -2.385355E+05  1.685529E+05 -2.556747E-11 -1.308324E-11
       198  18 -3.572141E+05 -8.153674E+05 -3.524843E+05  2.207327E+05  1.110532E-10 -2.613398E-10
       198  19  1.876526E+05  1.259635E+06  1.498383E+05  2.062963E+05 -4.542627E+04 -3.470357E+04
       198  20  2.474517E+05  1.522230E+06  2.028071E+05  1.541055E+05 -4.824059E+04 -1.928955E+03
       198  21  2.874110E+05  1.784439E+06  2.721666E+05  1.828613E+05 -1.598031E+04  3.086870E+04
       198  22  1.011269E+03  4.839222E+05 -8.421369E+03  2.018131E+05 -4.541802E+04 -1.020783E+04
       198  23 -3.331380E+03  4.877258E+05 -1.783045E+04  1.613361E+05 -4.825042E+04 -1.959667E+04
       198  24 -3.484059E+04  4.837633E+05 -4.009799E+04  2.018176E+05 -1.598060E+04 -2.897548E+04
       198  25 -1.856673E+05 -2.912177E+05 -1.667104E+05  1.973354E+05 -4.541012E+04  1.425793E+04
       198  26 -2.541837E+05 -5.457720E+05 -2.385285E+05  1.685544E+05 -4.826068E+04 -3.723542E+04
       198  27 -3.572117E+05 -8.153589E+05 -3.524690E+05  2.207339E+05 -1.598454E+04 -8.869500E+04
       199   1  1.626436E+05  6.015323E+04  5.303916E+04  3.033741E+04 -4.135040E+03 -4.469823E+03
       199   2  1.062909E+05  6.799751E+04  4.701044E+04  3.025484E+04 -7.623058E+03 -1.379549E+04
       199   3  4.566361E+04  5.675195E+04  3.848475E+04  4.814133E+04 -1.110550E+04 -1.376212E+04
       199   4 -1.872124E+05 -2.663230E+04 -3.093544E+04  4.506428E+04 -2.093881E+04 -4.461461E+03
       199   5 -1.840909E+05 -2.450839E+03 -1.480865E+04  3.608558E+04 -1.319663E+04 -1.379356E+04
       199   6 -1.871995E+05  6.860242E+02 -8.980091E+03  4.507696E+04 -5.448916E+03 -1.376453E+04
       199   7 -5.369551E+05 -1.134258E+05 -1.149175E+05  5.978284E+04 -3.773314E+04 -4.453894E+03
       199   8 -4.743932E+05 -7.290453E+04 -7.663245E+04  4.191355E+04 -1.876762E+04 -1.379173E+04
       199   9 -4.200109E+05 -5.538324E+04 -5.644766E+04  4.201375E+04  2.055862E+02 -1.376701E+04
       199  10  1.626435E+05  6.015320E+04  5.303909E+04  3.033739E+04  2.707414E-10 -2.357681E-11
       199  11  1.062908E+05  6.799729E+04  4.700998E+04  3.025475E+04 -2.055655E-11  1.200668E-11
       199  12  4.566342E+04  5.675172E+04  3.848416E+04  4.814121E+04  1.601953E-10  1.710598E-10
       199  13 -1.872128E+05 -2.663244E+04 -3.093630E+04  4.506421E+04  2.634315E-10 -3.860678E-11
       199  14 -1.840912E+05 -2.451090E+03 -1.480933E+04  3.608543E+04  5.978654E-10 -1.122072E-11
       199  15 -1.871995E+05  6.858128E+02 -8.980502E+03  4.507690E+04  2.454941E-10  1.729994E-10
       199  16 -5.369567E+05 -1.134262E+05 -1.149203E+05  5.978270E+04 -2.959418E-10  1.716971E-11
       199  17 -4.743936E+05 -7.290483E+04 -7.663347E+04  4.191334E+04  4.588594E-10  9.217294E-11
       199  18 -4.200109E+05 -5.538345E+04 -5.644801E+04  4.201376E+04  2.516984E-10  1.179402E-10
       199  19  1.626436E+05  6.015323E+04  5.303916E+04  3.033741E+04  4.135040E+03  4.469823E+03
       199  20  1.062909E+05  6.799751E+04  4.701044E+04  3.025484E+04  7.623058E+03  1.379549E+04
       199  21  4.566361E+04  5.675195E+04  3.848475E+04  4.814133E+04  1.110550E+04  1.376212E+04
       199  22 -1.872124E+05 -2.663230E+04 -3.093544E+04  4.506428E+04  2.093881E+04  4.461461E+03
       199  23 -1.840909E+05 -2.450839E+03 -1.480865E+04  3.608558E+04  1.319663E+04  1.379356E+04
       199  24 -1.871995E+05  6.860242E+02 -8.980091E+03  4.507696E+04  5.448916E+03  1.376453E+04
       199  25 -5.369551E+05 -1.134258E+05 -1.149175E+05  5.978284E+04  3.773314E+04  4.453894E+03
       199  26 -4.743932E+05 -7.290453E+04 -7.663245E+04  4.191355E+04  1.876762E+04  1.379173E+04
       199  27 -4.200109E+05 -5.538324E+04 -5.644766E+04  4.201375E+04 -2.055862E+02  1.376701E+04
       200   1  4.620861E+03  4.482740E+04  3.144365E+04  4.472693E+04 -7.623333E+03 -1.118009E+04
       200   2 -5.358463E+04  3.173720E+04  2.128711E+04  3.575226E+04 -5.512859E+03 -8.055977E+03
       200   3 -1.122731E+05  1.771380E+04  9.528305E+03  4.526253E+04 -3.402837E+03 -4.433492E+03
       200   4 -1.859428E+05 -1.071105E+03 -7.465660E+03  4.518846E+04 -4.171780E+03 -1.118152E+04
       200   5 -1.856452E+05 -2.335155E+01 -5.437431E+03  3.594602E+04 -1.464111E+03 -8.057361E+03
       200   6 -1.859378E+05 -1.248360E+01 -5.426599E+03  4.518879E+04  1.243297E+03 -4.434772E+03
       200   7 -3.764720E+05 -4.697188E+04 -4.637684E+04  4.564985E+04 -7.212668E+02 -1.118295E+04
       200   8 -3.176892E+05 -3.178497E+04 -3.216282E+04  3.613975E+04  2.583792E+03 -8.058742E+03
       200   9 -2.595973E+05 -1.773910E+04 -2.038171E+04  4.511507E+04  5.888891E+03 -4.436054E+03
       200  10  4.620765E+03  4.482725E+04  3.144331E+04  4.472686E+04  9.532583E-11  2.088517E-10
       200  11 -5.358468E+04  3.173712E+04  2.128694E+04  3.575223E+04 -2.692493E-11  6.916606E-11
       200  12 -1.122731E+05  1.771378E+04  9.528246E+03  4.526252E+04  5.257914E-10 -1.166333E-10
       200  13 -1.859429E+05 -1.071244E+03 -7.465928E+03  4.518842E+04  5.489969E-10  1.913942E-10
       200  14 -1.856453E+05 -2.342183E+01 -5.437557E+03  3.594602E+04  2.287878E-10  9.458675E-11
       200  15 -1.859378E+05 -1.250514E+01 -5.426639E+03  4.518880E+04  2.452977E-10 -1.558727E-10
       200  16 -3.764720E+05 -4.697201E+04 -4.637708E+04  4.564984E+04 -2.059831E-10  1.382399E-10
       200  17 -3.176892E+05 -3.178505E+04 -3.216295E+04  3.613976E+04  5.445621E-10  1.098778E-10
       200  18 -2.595974E+05 -1.773913E+04 -2.038181E+04  4.511509E+04 -1.037628E-10 -1.975132E-10
       200  19  4.620861E+03  4.482740E+04  3.144365E+04  4.472693E+04  7.623333E+03  1.118009E+04
       200  20 -5.358463E+04  3.173720E+04  2.128711E+04  3.575226E+04  5.512859E+03  8.055977E+03
       200  21 -1.122731E+05  1.771380E+04  9.528305E+03  4.526253E+04  3.402837E+03  4.433492E+03
       200  22 -1.859428E+05 -1.071105E+03 -7.465660E+03  4.518846E+04  4.171780E+03  1.118152E+04
       200  23 -1.856452E+05 -2.335155E+01 -5.437431E+03  3.594602E+04  1.464111E+03  8.057361E+03
       200  24 -1.859378E+05 -1.248360E+01 -5.426599E+03  4.518879E+04 -1.243297E+03  4.434772E+03
       200  25 -3.764720E+05 -4.697188E+04 -4.637684E+04  4.564985E+04  7.212668E+02  1.118295E+04
       200  26 -3.176892E+05 -3.178497E+04 -3.216282E+04  3.613975E+04 -2.583792E+03  8.058742E+03
       200  27 -2.595973E+05 -1.773910E+04 -2.038171E+04  4.511507E+04 -5.888891E+03  4.436054E+03
       201   1 -1.544000E+05  7.658047E+03  2.079473E+02  4.474541E+04 -2.357301E+03 -2.152871E+03
       201   2 -2.122744E+05 -6.533832E+03 -1.422146E+04  3.612262E+04  2.401686E+03  1.518358E+03
       201   3 -2.712977E+05 -2.292464E+04 -3.229583E+04  4.599562E+04  7.160116E+03  4.847274E+03
       201   4 -1.860461E+05  8.120169E+01 -6.022772E+03  4.519125E+04  2.254156E+03 -2.154076E+03
       201   5 -1.855061E+05 -7.747171E+01 -8.714486E+03  3.594302E+04  6.602406E+03  1.517204E+03
       201   6 -1.860476E+05 -2.363648E+03 -1.476577E+04  4.519059E+04  1.095054E+04  4.846180E+03
       201   7 -2.176912E+05 -7.495693E+03 -1.225346E+04  4.563706E+04  6.865383E+03 -2.155273E+03
       201   8 -1.587371E+05  6.378853E+03 -3.207484E+03  3.576341E+04  1.080330E+04  1.516049E+03
       201   9 -1.007905E+05  1.819690E+04  2.763948E+03  4.438544E+04  1.474147E+04  4.845076E+03
       201  10 -1.544000E+05  7.658041E+03  2.079281E+02  4.474540E+04 -1.712541E-10 -1.320151E-10
       201  11 -2.122744E+05 -6.533836E+03 -1.422148E+04  3.612262E+04 -3.909642E-10 -1.379163E-10
       201  12 -2.712978E+05 -2.292468E+04 -3.229597E+04  4.599559E+04 -1.817915E-10  7.587861E-11
       201  13 -1.860461E+05  8.119534E+01 -6.022790E+03  4.519125E+04  1.988894E-12 -1.508928E-10
       201  14 -1.855061E+05 -7.748589E+01 -8.714572E+03  3.594301E+04  2.229788E-10 -7.149144E-11
       201  15 -1.860477E+05 -2.363706E+03 -1.476604E+04  4.519054E+04  5.512261E-12  1.112347E-10
       201  16 -2.176912E+05 -7.495710E+03 -1.225356E+04  4.563708E+04  1.577285E-10 -1.978843E-10
       201  17 -1.587372E+05  6.378819E+03 -3.207708E+03  3.576339E+04  1.415177E-10  2.241436E-11
       201  18 -1.007908E+05  1.819681E+04  2.763496E+03  4.438538E+04  1.066904E-10  1.070021E-10
       201  19 -1.544000E+05  7.658047E+03  2.079473E+02  4.474541E+04  2.357301E+03  2.152871E+03
       201  20 -2.122744E+05 -6.533832E+03 -1.422146E+04  3.612262E+04 -2.401686E+03 -1.518358E+03
       201  21 -2.712977E+05 -2.292464E+04 -3.229583E+04  4.599562E+04 -7.160116E+03 -4.847274E+03
       201  22 -1.860461E+05  8.120169E+01 -6.022772E+03  4.519125E+04 -2.254156E+03  2.154076E+03
       201  23 -1.855061E+05 -7.747171E+01 -8.714486E+03  3.594302E+04 -6.602406E+03 -1.517204E+03
       201  24 -1.860476E+05 -2.363648E+03 -1.476577E+04  4.519059E+04 -1.095054E+04 -4.846180E+03
       201  25 -2.176912E+05 -7.495693E+03 -1.225346E+04  4.563706E+04 -6.865383E+03  2.155273E+03
       201  26 -1.587371E+05  6.378853E+03 -3.207484E+03  3.576341E+04 -1.080330E+04 -1.516049E+03
       201  27 -1.007905E+05  1.819690E+04  2.763948E+03  4.438544E+04 -1.474147E+04 -4.845076E+03
       202   1 -3.163679E+05 -2.914433E+04 -4.480287E+04  3.805503E+04  8.137978E+03  7.336560E+03
       202   2 -3.671772E+05 -5.042287E+04 -7.212707E+04  4.881212E+04  3.314707E+04  8.449911E+03
       202   3 -4.333164E+05 -1.200899E+05 -1.278316E+05  7.768620E+04  5.815103E+04  2.862575E+03
       202   4 -1.889042E+05  1.578659E+03 -1.866205E+04  4.511207E+04  1.350370E+04  7.334987E+03
       202   5 -1.819444E+05 -5.410883E+03 -3.241105E+04  3.604165E+04  3.047827E+04  8.449957E+03
       202   6 -1.889162E+05 -5.938620E+04 -6.895377E+04  4.508980E+04  4.745018E+04  2.863546E+03
       202   7 -6.142486E+04  3.230083E+04  7.478036E+03  5.217059E+04  1.887051E+04  7.333537E+03
       202   8  3.321033E+03  3.959947E+04  7.303083E+03  2.326731E+04  2.780869E+04  8.450113E+03
       202   9  5.554126E+04  1.317161E+03 -1.007925E+04  1.248052E+04  3.674513E+04  2.865641E+03
       202  10 -3.163680E+05 -2.914440E+04 -4.480309E+04  3.805498E+04  1.603627E-10  1.026269E-10
       202  11 -3.671784E+05 -5.042324E+04 -7.212927E+04  4.881190E+04 -2.681271E-10 -2.035174E-10
       202  12 -4.333201E+05 -1.200908E+05 -1.278379E+05  7.768607E+04 -1.264711E-10 -8.717611E-11
       202  13 -1.889044E+05  1.578553E+03 -1.866249E+04  4.511199E+04  2.634664E-10  6.830475E-11
       202  14 -1.819455E+05 -5.411209E+03 -3.241293E+04  3.604144E+04 -1.833732E-10  7.411062E-11
       202  15 -1.889186E+05 -5.938681E+04 -6.895802E+04  4.508969E+04 -3.980652E-11  1.796811E-11
       202  16 -6.142526E+04  3.230067E+04  7.477266E+03  5.217048E+04 -6.732110E-10  5.660498E-11
       202  17  3.320184E+03  3.959919E+04  7.301496E+03  2.326712E+04 -1.164399E-10 -4.041307E-12
       202  18  5.553981E+04  1.316790E+03 -1.008180E+04  1.248043E+04  2.164694E-10  1.784408E-11
       202  19 -3.163679E+05 -2.914433E+04 -4.480287E+04  3.805503E+04 -8.137978E+03 -7.336560E+03
       202  20 -3.671772E+05 -5.042287E+04 -7.212707E+04  4.881212E+04 -3.314707E+04 -8.449911E+03
       202  21 -4.333164E+05 -1.200899E+05 -1.278316E+05  7.768620E+04 -5.815103E+04 -2.862575E+03
       202  22 -1.889042E+05  1.578659E+03 -1.866205E+04  4.511207E+04 -1.350370E+04 -7.334987E+03
       202  23 -1.819444E+05 -5.410883E+03 -3.241105E+04  3.604165E+04 -3.047827E+04 -8.449957E+03
       202  24 -1.889162E+05 -5.938620E+04 -6.895377E+04  4.508980E+04 -4.745018E+04 -2.863546E+03
       202  25 -6.142486E+04  3.230083E+04  7.478036E+03  5.217059E+04 -1.887051E+04 -7.333537E+03
       202  26  3.321033E+03  3.959947E+04  7.303083E+03  2.326731E+04 -2.780869E+04 -8.450113E+03
       202  27  5.554126E+04  1.317161E+03 -1.007925E+04  1.248052E+04 -3.674513E+04 -2.865641E+03
       203   1 -5.285393E+04 -3.006586E+05 -5.736495E+04  3.348816E+04 -1.035917E+03 -2.862803E+04
       203   2 -1.867587E+04 -2.753170E+05 -3.128148E+04  1.971214E+04 -2.983553E+03 -1.672825E+04
       203   3 -9.792230E+03 -2.578590E+05 -1.927275E+04  1.258074E+04 -2.548369E+03 -4.829336E+03
       203   4 -3.129487E+04 -2.137016E+05 -3.641897E+04  1.635122E+04 -1.032681E+03 -2.485447E+04
       203   5 -2.819089E+03 -2.100060E+05 -1.727343E+04  1.301816E+04 -2.982745E+03 -1.581228E+04
       203   6  8.596974E+02 -2.136974E+05 -1.021647E+04  1.633029E+04 -2.549702E+03 -6.771449E+03
       203   7 -9.735255E+03 -1.267369E+05 -1.547331E+04 -7.881408E+02 -1.029653E+03 -2.108039E+04
       203   8  1.303758E+04 -1.446908E+05 -3.265590E+03  6.323468E+03 -2.981956E+03 -1.489621E+04
       203   9  1.151156E+04 -1.695340E+05 -1.160273E+03  2.008012E+04 -2.551058E+03 -8.713696E+03
       203  10 -5.285415E+04 -3.006595E+05 -5.736650E+04  3.348814E+04 -1.461737E-10  2.098746E-10
       203  11 -1.867595E+04 -2.753173E+05 -3.128203E+04  1.971210E+04  1.836529E-10  7.126650E-11
       203  12 -9.792244E+03 -2.578590E+05 -1.927281E+04  1.258073E+04  5.158812E-10  6.919575E-11
       203  13 -3.129504E+04 -2.137022E+05 -3.642013E+04  1.635120E+04 -3.903313E-10  2.651454E-11
       203  14 -2.819166E+03 -2.100063E+05 -1.727391E+04  1.301813E+04 -2.592262E-12 -7.990662E-11
       203  15  8.596782E+02 -2.136975E+05 -1.021657E+04  1.633028E+04  1.101583E-10 -9.507509E-12
       203  16 -9.735375E+03 -1.267374E+05 -1.547414E+04 -7.881582E+02 -7.912314E-11 -2.149900E-10
       203  17  1.303751E+04 -1.446911E+05 -3.266024E+03  6.323432E+03 -4.095585E-10 -1.317788E-10
       203  18  1.151153E+04 -1.695341E+05 -1.160428E+03  2.008010E+04  2.182037E-10 -1.122044E-10
       203  19 -5.285393E+04 -3.006586E+05 -5.736495E+04  3.348816E+04  1.035917E+03  2.862803E+04
       203  20 -1.867587E+04 -2.753170E+05 -3.128148E+04  1.971214E+04  2.983553E+03  1.672825E+04
       203  21 -9.792230E+03 -2.578590E+05 -1.927275E+04  1.258074E+04  2.548369E+03  4.829336E+03
       203  22 -3.129487E+04 -2.137016E+05 -3.641897E+04  1.635122E+04  1.032681E+03  2.485447E+04
       203  23 -2.819089E+03 -2.100060E+05 -1.727343E+04  1.301816E+04  2.982745E+03  1.581228E+04
       203  24  8.596974E+02 -2.136974E+05 -1.021647E+04  1.633029E+04  2.549702E+03  6.771449E+03
       203  25 -9.735255E+03 -1.267369E+05 -1.547331E+04 -7.881408E+02  1.029653E+03  2.108039E+04
       203  26  1.303758E+04 -1.446908E+05 -3.265590E+03  6.323468E+03  2.981956E+03  1.489621E+04
       203  27  1.151156E+04 -1.695340E+05 -1.160273E+03  2.008012E+04  2.551058E+03  8.713696E+03
       204   1 -8.121134E+03 -2.409516E+05 -1.420097E+04  1.683407E+04 -1.636093E+03 -3.945216E+03
       204   2 -1.804583E+03 -2.192095E+05 -6.987355E+03  1.301843E+04 -4.531670E+02 -1.174547E+03
       204   3  3.045330E+03 -1.982058E+05 -1.947504E+03  1.596072E+04  7.503595E+02  1.596196E+03
       204   4 -1.192250E+03 -2.122193E+05 -8.292246E+03  1.636001E+04 -1.637045E+03 -5.349808E+03
       204   5 -3.548574E+01 -2.118519E+05 -5.500917E+03  1.298076E+04 -4.541427E+02 -2.603775E+03
       204   6 -3.410214E+02 -2.122190E+05 -4.866132E+03  1.635943E+04  7.493621E+02  1.422397E+02
       204   7  5.736585E+03 -1.834862E+05 -2.383560E+03  1.588594E+04 -1.637994E+03 -6.754463E+03
       204   8  1.733609E+03 -2.044943E+05 -4.014475E+03  1.294308E+04 -4.551182E+02 -4.033020E+03
       204   9 -3.727383E+03 -2.262320E+05 -7.784762E+03  1.675813E+04  7.483628E+02 -1.311684E+03
       204  10 -8.121141E+03 -2.409516E+05 -1.420100E+04  1.683406E+04  4.380409E-10 -1.055663E-10
       204  11 -1.804584E+03 -2.192095E+05 -6.987358E+03  1.301843E+04  8.266583E-11  1.211063E-10
       204  12  3.045329E+03 -1.982058E+05 -1.947510E+03  1.596072E+04  1.762768E-10  3.144267E-10
       204  13 -1.192260E+03 -2.122193E+05 -8.292305E+03  1.636001E+04  1.302424E-11  1.462484E-11
       204  14 -3.548779E+01 -2.118519E+05 -5.500930E+03  1.298075E+04 -4.783457E-10 -5.777016E-11
       204  15 -3.410220E+02 -2.122190E+05 -4.866133E+03  1.635943E+04  3.556851E-11 -2.974904E-11
       204  16  5.736570E+03 -1.834863E+05 -2.383651E+03  1.588593E+04 -2.263757E-10  6.662579E-11
       204  17  1.733605E+03 -2.044943E+05 -4.014505E+03  1.294308E+04  2.934700E-10 -2.222373E-10
       204  18 -3.727384E+03 -2.262320E+05 -7.784767E+03  1.675813E+04 -2.624410E-10 -3.446152E-10
       204  19 -8.121134E+03 -2.409516E+05 -1.420097E+04  1.683407E+04  1.636093E+03  3.945216E+03
       204  20 -1.804583E+03 -2.192095E+05 -6.987355E+03  1.301843E+04  4.531670E+02  1.174547E+03
       204  21  3.045330E+03 -1.982058E+05 -1.947504E+03  1.596072E+04 -7.503595E+02 -1.596196E+03
       204  22 -1.192250E+03 -2.122193E+05 -8.292246E+03  1.636001E+04  1.637045E+03  5.349808E+03
       204  23 -3.548574E+01 -2.118519E+05 -5.500917E+03  1.298076E+04  4.541427E+02  2.603775E+03
       204  24 -3.410214E+02 -2.122190E+05 -4.866132E+03  1.635943E+04 -7.493621E+02 -1.422397E+02
       204  25  5.736585E+03 -1.834862E+05 -2.383560E+03  1.588594E+04  1.637994E+03  6.754463E+03
       204  26  1.733609E+03 -2.044943E+05 -4.014475E+03  1.294308E+04  4.551182E+02  4.033020E+03
       204  27 -3.727383E+03 -2.262320E+05 -7.784762E+03  1.675813E+04 -7.483628E+02  1.311684E+03
       205   1  7.396017E+03 -1.832015E+05  1.071851E+03  1.757301E+04  1.650390E+03  2.837588E+03
       205   2  1.135236E+04 -1.607132E+05  4.257438E+03  1.064600E+04  2.228805E+03  3.892385E+03
       205   3  7.108996E+03 -1.404222E+05  4.703905E+03  1.037889E+04  7.974170E+02  4.948495E+03
       205   4  2.909352E+02 -2.126372E+05 -5.001303E+03  1.633622E+04  1.649091E+03  9.387671E+02
       205   5 -9.526332E+02 -2.113298E+05 -6.659369E+03  1.300988E+04  2.229176E+03  4.404638E+03
       205   6 -1.081493E+04 -2.126389E+05 -1.273141E+04  1.634354E+04  7.993963E+02  7.871743E+03
       205   7 -6.814194E+03 -2.420721E+05 -1.107449E+04  1.509948E+04  1.647799E+03 -9.599649E+02
       205   8 -1.325777E+04 -2.619441E+05 -1.757632E+04  1.537357E+04  2.229551E+03  4.916850E+03
       205   9 -2.873909E+04 -2.848508E+05 -3.016706E+04  2.230749E+04  8.014318E+02  1.079465E+04
       205  10  7.396012E+03 -1.832015E+05  1.071831E+03  1.757301E+04  3.534189E-11 -3.005953E-10
       205  11  1.135235E+04 -1.607132E+05  4.257400E+03  1.064600E+04 -5.320546E-10  2.113244E-11
       205  12  7.108989E+03 -1.404223E+05  4.703858E+03  1.037888E+04 -5.139333E-11  3.725386E-10
       205  13  2.909320E+02 -2.126372E+05 -5.001310E+03  1.633621E+04 -1.036956E-10 -2.090932E-11
       205  14 -9.526438E+02 -2.113298E+05 -6.659415E+03  1.300988E+04 -1.848943E-10 -2.507793E-11
       205  15 -1.081494E+04 -2.126390E+05 -1.273153E+04  1.634353E+04  2.328742E-11 -3.045322E-12
       205  16 -6.814197E+03 -2.420721E+05 -1.107450E+04  1.509948E+04  2.016035E-10  2.651158E-10
       205  17 -1.325778E+04 -2.619441E+05 -1.757638E+04  1.537356E+04 -3.879534E-10  3.503514E-11
       205  18 -2.873912E+04 -2.848509E+05 -3.016728E+04  2.230748E+04 -1.789703E-10 -3.598490E-10
       205  19  7.396017E+03 -1.832015E+05  1.071851E+03  1.757301E+04 -1.650390E+03 -2.837588E+03
       205  20  1.135236E+04 -1.607132E+05  4.257438E+03  1.064600E+04 -2.228805E+03 -3.892385E+03
       205  21  7.108996E+03 -1.404222E+05  4.703905E+03  1.037889E+04 -7.974170E+02 -4.948495E+03
       205  22  2.909352E+02 -2.126372E+05 -5.001303E+03  1.633622E+04 -1.649091E+03 -9.387671E+02
       205  23 -9.526332E+02 -2.113298E+05 -6.659369E+03  1.300988E+04 -2.229176E+03 -4.404638E+03
       205  24 -1.081493E+04 -2.126389E+05 -1.273141E+04  1.634354E+04 -7.993963E+02 -7.871743E+03
       205  25 -6.814194E+03 -2.420721E+05 -1.107449E+04  1.509948E+04 -1.647799E+03  9.599649E+02
       205  26 -1.325777E+04 -2.619441E+05 -1.757632E+04  1.537357E+04 -2.229551E+03 -4.916850E+03
       205  27 -2.873909E+04 -2.848508E+05 -3.016706E+04  2.230749E+04 -8.014318E+02 -1.079465E+04
       206   1  2.448382E+05  2.319683E+05  9.375015E+04  1.563522E+05  4.039324E+04  2.784104E+04
       206   2  2.329862E+05  1.741817E+05  5.519249E+04  1.665584E+05  2.761521E+04  1.287740E+04
       206   3  2.410433E+05  1.513738E+05  3.960661E+04  1.638967E+05  1.266372E+04  8.167924E+02
       206   4  1.704538E+05  1.323448E+05  6.041130E+04  9.799703E+04  3.450305E+04  2.342592E+04
       206   5  1.512789E+05  9.812912E+04  2.833804E+04  1.172470E+05  2.521019E+04  1.107495E+04
       206   6  1.512603E+05  9.813833E+04  1.621566E+04  1.236282E+05  1.374379E+04  1.625962E+03
       206   7  9.607746E+04  3.273686E+04  2.707217E+04  3.965302E+04  2.861385E+04  1.901238E+04
       206   8  6.957969E+04  2.208448E+04  1.482994E+03  6.794429E+04  2.280562E+04  9.272951E+03
       206   9  6.148635E+04  4.490584E+04 -7.175946E+03  8.336584E+04  1.482364E+04  2.435006E+03
       206  10  2.448363E+05  2.319670E+05  9.374563E+04  1.563513E+05  9.459442E-11 -4.313502E-11
       206  11  2.329853E+05  1.741813E+05  5.519075E+04  1.665581E+05 -6.645687E-11  1.174260E-10
       206  12  2.410431E+05  1.513738E+05  3.960631E+04  1.638967E+05 -5.642273E-11  2.163291E-10
       206  13  1.704524E+05  1.323439E+05  6.040803E+04  9.799638E+04  2.386646E-10  8.117639E-11
       206  14  1.512782E+05  9.812881E+04  2.833662E+04  1.172468E+05 -3.227072E-10  1.153282E-10
       206  15  1.512601E+05  9.813827E+04  1.621530E+04  1.236282E+05 -6.565150E-11  4.630892E-11
       206  16  9.607648E+04  3.273626E+04  2.706995E+04  3.965258E+04 -3.359495E-11  1.658688E-10
       206  17  6.957911E+04  2.208424E+04  1.481856E+03  6.794411E+04 -6.618080E-10  9.263901E-11
       206  18  6.148611E+04  4.490578E+04 -7.176370E+03  8.336581E+04  2.698651E-10 -1.192807E-10
       206  19  2.448382E+05  2.319683E+05  9.375015E+04  1.563522E+05 -4.039324E+04 -2.784104E+04
       206  20  2.329862E+05  1.741817E+05  5.519249E+04  1.665584E+05 -2.761521E+04 -1.287740E+04
       206  21  2.410433E+05  1.513738E+05  3.960661E+04  1.638967E+05 -1.266372E+04 -8.167924E+02
       206  22  1.704538E+05  1.323448E+05  6.041130E+04  9.799703E+04 -3.450305E+04 -2.342592E+04
       206  23  1.512789E+05  9.812912E+04  2.833804E+04  1.172470E+05 -2.521019E+04 -1.107495E+04
       206  24  1.512603E+05  9.813833E+04  1.621566E+04  1.236282E+05 -1.374379E+04 -1.625962E+03
       206  25  9.607746E+04  3.273686E+04  2.707217E+04  3.965302E+04 -2.861385E+04 -1.901238E+04
       206  26  6.957969E+04  2.208448E+04  1.482994E+03  6.794429E+04 -2.280562E+04 -9.272951E+03
       206  27  6.148635E+04  4.490584E+04 -7.175946E+03  8.336584E+04 -1.482364E+04 -2.435006E+03
       207   1  2.276507E+05  1.548468E+05  3.441132E+04  1.597818E+05  1.122653E+04  4.803159E+02
       207   2  2.202008E+05  1.448611E+05  2.634378E+04  1.554585E+05  7.814680E+03 -1.436422E+03
       207   3  2.103985E+05  1.400611E+05  2.126690E+04  1.517751E+05  4.282757E+03 -3.192929E+03
       207   4  1.508566E+05  9.949003E+04  1.274889E+04  1.207762E+05  1.162122E+04  7.759044E+02
       207   5  1.516638E+05  9.622350E+04  7.291836E+03  1.209768E+05  8.402156E+03 -9.963468E+02
       207   6  1.500771E+05  9.810099E+04  4.658570E+03  1.218175E+05  5.062991E+03 -2.608378E+03
       207   7  7.406809E+04  4.413606E+04 -8.914458E+03  8.177561E+04  1.201585E+04  1.071446E+03
       207   8  8.313202E+04  4.758862E+04 -1.176057E+04  8.649957E+04  8.989544E+03 -5.563373E+02
       207   9  8.976053E+04  5.614340E+04 -1.194985E+04  9.186347E+04  5.843113E+03 -2.023910E+03
       207  10  2.276505E+05  1.548468E+05  3.441108E+04  1.597818E+05  2.164114E-12  6.350217E-11
       207  11  2.202007E+05  1.448611E+05  2.634366E+04  1.554585E+05 -7.882956E-10 -1.124794E-10
       207  12  2.103985E+05  1.400611E+05  2.126685E+04  1.517751E+05 -1.603655E-10 -2.302342E-11
       207  13  1.508564E+05  9.948999E+04  1.274864E+04  1.207762E+05  5.649639E-10  7.590264E-12
       207  14  1.516637E+05  9.622348E+04  7.291702E+03  1.209768E+05 -3.383762E-10 -5.487716E-11
       207  15  1.500771E+05  9.810097E+04  4.658509E+03  1.218175E+05  2.808113E-10  7.128680E-11
       207  16  7.406794E+04  4.413602E+04 -8.914731E+03  8.177560E+04 -3.871486E-12 -1.037611E-10
       207  17  8.313193E+04  4.758860E+04 -1.176072E+04  8.649957E+04 -9.461884E-11  5.970370E-11
       207  18  8.976050E+04  5.614339E+04 -1.194992E+04  9.186348E+04  3.949485E-10  1.672606E-10
       207  19  2.276507E+05  1.548468E+05  3.441132E+04  1.597818E+05 -1.122653E+04 -4.803159E+02
       207  20  2.202008E+05  1.448611E+05  2.634378E+04  1.554585E+05 -7.814680E+03  1.436422E+03
       207  21  2.103985E+05  1.400611E+05  2.126690E+04  1.517751E+05 -4.282757E+03  3.192929E+03
       207  22  1.508566E+05  9.949003E+04  1.274889E+04  1.207762E+05 -1.162122E+04 -7.759044E+02
       207  23  1.516638E+05  9.622350E+04  7.291836E+03  1.209768E+05 -8.402156E+03  9.963468E+02
       207  24  1.500771E+05  9.810099E+04  4.658570E+03  1.218175E+05 -5.062991E+03  2.608378E+03
       207  25  7.406809E+04  4.413606E+04 -8.914458E+03  8.177561E+04 -1.201585E+04 -1.071446E+03
       207  26  8.313202E+04  4.758862E+04 -1.176057E+04  8.649957E+04 -8.989544E+03  5.563373E+02
       207  27  8.976053E+04  5.614340E+04 -1.194985E+04  9.186347E+04 -5.843113E+03  2.023910E+03
       208   1  2.037474E+05  1.359829E+05  1.876031E+04  1.485864E+05  3.428559E+03 -3.246524E+03
       208   2  1.966808E+05  1.279508E+05  1.576340E+04  1.436658E+05  1.630420E+03 -3.622549E+03
       208   3  1.861912E+05  1.237682E+05  1.389175E+04  1.398577E+05 -1.732685E+02 -3.991225E+03
       208   4  1.500317E+05  9.813970E+04  3.943849E+03  1.216781E+05  4.170813E+03 -2.690409E+03
       208   5  1.517442E+05  9.621562E+04  3.340485E+03  1.211223E+05  2.381639E+03 -3.059681E+03
       208   6  1.500317E+05  9.813922E+04  3.854694E+03  1.216789E+05  5.868807E+02 -3.421626E+03
       208   7  9.631913E+04  6.029814E+04 -1.087289E+04  9.477238E+04  4.912980E+03 -2.134359E+03
       208   8  1.068095E+05  6.448140E+04 -9.082725E+03  9.858040E+04  3.132789E+03 -2.496864E+03
       208   9  1.138731E+05  7.251067E+04 -6.182650E+03  1.035010E+05  1.346980E+03 -2.852065E+03
       208  10  2.037474E+05  1.359829E+05  1.876027E+04  1.485864E+05 -4.341202E-11  2.259551E-10
       208  11  1.966808E+05  1.279508E+05  1.576337E+04  1.436658E+05  1.652730E-10 -1.829157E-11
       208  12  1.861912E+05  1.237682E+05  1.389172E+04  1.398577E+05 -1.793107E-10 -9.900652E-11
       208  13  1.500317E+05  9.813969E+04  3.943803E+03  1.216781E+05 -7.032710E-10 -2.931662E-12
       208  14  1.517442E+05  9.621561E+04  3.340457E+03  1.211223E+05 -3.730853E-10 -1.200515E-10
       208  15  1.500317E+05  9.813921E+04  3.854671E+03  1.216789E+05 -1.528042E-10  3.299031E-11
       208  16  9.631910E+04  6.029813E+04 -1.087295E+04  9.477239E+04 -2.108693E-10 -1.570214E-10
       208  17  1.068095E+05  6.448139E+04 -9.082755E+03  9.858041E+04 -2.613219E-10  3.144432E-12
       208  18  1.138731E+05  7.251066E+04 -6.182669E+03  1.035010E+05  1.441220E-10  2.439095E-10
       208  19  2.037474E+05  1.359829E+05  1.876031E+04  1.485864E+05 -3.428559E+03  3.246524E+03
       208  20  1.966808E+05  1.279508E+05  1.576340E+04  1.436658E+05 -1.630420E+03  3.622549E+03
       208  21  1.861912E+05  1.237682E+05  1.389175E+04  1.398577E+05  1.732685E+02  3.991225E+03
       208  22  1.500317E+05  9.813970E+04  3.943849E+03  1.216781E+05 -4.170813E+03  2.690409E+03
       208  23  1.517442E+05  9.621562E+04  3.340485E+03  1.211223E+05 -2.381639E+03  3.059681E+03
       208  24  1.500317E+05  9.813922E+04  3.854694E+03  1.216789E+05 -5.868807E+02  3.421626E+03
       208  25  9.631913E+04  6.029814E+04 -1.087289E+04  9.477238E+04 -4.912980E+03  2.134359E+03
       208  26  1.068095E+05  6.448140E+04 -9.082725E+03  9.858040E+04 -3.132789E+03  2.496864E+03
       208  27  1.138731E+05  7.251067E+04 -6.182650E+03  1.035010E+05 -1.346980E+03  2.852065E+03
       209   1  1.796552E+05  1.196106E+05  1.276242E+04  1.369441E+05 -1.048316E+03 -4.068517E+03
       209   2  1.730281E+05  1.110925E+05  1.286502E+04  1.315976E+05 -4.288808E+03 -5.521255E+03
       209   3  1.639462E+05  1.076480E+05  1.565600E+04  1.269099E+05 -7.512941E+03 -6.995664E+03
       209   4  1.500739E+05  9.810212E+04  4.517362E+03  1.218108E+05 -2.852461E+02 -3.496712E+03
       209   5  1.516720E+05  9.622760E+04  7.007397E+03  1.209830E+05 -3.551728E+03 -4.968919E+03
       209   6  1.508207E+05  9.943216E+04  1.220834E+04  1.208139E+05 -6.801917E+03 -6.462850E+03
       209   7  1.204941E+05  7.659442E+04 -3.727642E+03  1.066785E+05  4.777646E+02 -2.924953E+03
       209   8  1.303166E+05  8.136305E+04  1.149785E+03  1.103690E+05 -2.814687E+03 -4.416612E+03
       209   9  1.376954E+05  9.121643E+04  8.760677E+03  1.147181E+05 -6.090913E+03 -5.930050E+03
       209  10  1.796552E+05  1.196106E+05  1.276239E+04  1.369441E+05  8.360461E-11  2.348938E-10
       209  11  1.730280E+05  1.110925E+05  1.286493E+04  1.315976E+05 -5.134671E-11  1.080504E-10
       209  12  1.639462E+05  1.076479E+05  1.565581E+04  1.269099E+05  7.479819E-11 -7.464844E-11
       209  13  1.500739E+05  9.810211E+04  4.517339E+03  1.218108E+05 -4.705088E-10  1.358118E-10
       209  14  1.516720E+05  9.622757E+04  7.007327E+03  1.209830E+05  2.837774E-10 -1.800429E-10
       209  15  1.508207E+05  9.943211E+04  1.220818E+04  1.208139E+05  1.214925E-10 -1.055728E-10
       209  16  1.204941E+05  7.659441E+04 -3.727658E+03  1.066785E+05 -4.135664E-10 -4.453124E-11
       209  17  1.303166E+05  8.136302E+04  1.149734E+03  1.103690E+05 -3.519606E-10 -1.231021E-10
       209  18  1.376954E+05  9.121638E+04  8.760541E+03  1.147181E+05 -4.427271E-11 -1.445858E-10
       209  19  1.796552E+05  1.196106E+05  1.276242E+04  1.369441E+05  1.048316E+03  4.068517E+03
       209  20  1.730281E+05  1.110925E+05  1.286502E+04  1.315976E+05  4.288808E+03  5.521255E+03
       209  21  1.639462E+05  1.076480E+05  1.565600E+04  1.269099E+05  7.512941E+03  6.995664E+03
       209  22  1.500739E+05  9.810212E+04  4.517362E+03  1.218108E+05  2.852461E+02  3.496712E+03
       209  23  1.516720E+05  9.622760E+04  7.007397E+03  1.209830E+05  3.551728E+03  4.968919E+03
       209  24  1.508207E+05  9.943216E+04  1.220834E+04  1.208139E+05  6.801917E+03  6.462850E+03
       209  25  1.204941E+05  7.659442E+04 -3.727642E+03  1.066785E+05 -4.777646E+02  2.924953E+03
       209  26  1.303166E+05  8.136305E+04  1.149785E+03  1.103690E+05  2.814687E+03  4.416612E+03
       209  27  1.376954E+05  9.121643E+04  8.760677E+03  1.147181E+05  6.090913E+03  5.930050E+03
       210   1  1.516987E+05  1.082766E+05  1.718207E+04  1.283534E+05 -9.585924E+03 -7.950677E+03
       210   2  1.591161E+05  8.603379E+04  2.623894E+04  1.132043E+05 -2.081952E+04 -1.563223E+04
       210   3  1.844435E+05  9.670515E+04  5.395645E+04  8.583854E+04 -3.175517E+04 -2.371119E+04
       210   4  1.511745E+05  9.817256E+04  1.551725E+04  1.235497E+05 -8.781225E+03 -7.347497E+03
       210   5  1.513471E+05  9.801179E+04  2.709904E+04  1.174052E+05 -2.049245E+04 -1.538768E+04
       210   6  1.695322E+05  1.308678E+05  5.775580E+04  9.904432E+04 -3.190536E+04 -2.382591E+04
       210   7  1.506504E+05  8.806863E+04  1.385243E+04  1.187460E+05 -7.976515E+03 -6.744332E+03
       210   8  1.435784E+05  1.099902E+05  2.795920E+04  1.216061E+05 -2.016538E+04 -1.514312E+04
       210   9  1.546226E+05  1.650331E+05  6.155548E+04  1.122497E+05 -3.205554E+04 -2.394065E+04
       210  10  1.516986E+05  1.082765E+05  1.718178E+04  1.283533E+05  1.942317E-10 -9.774057E-11
       210  11  1.591156E+05  8.603341E+04  2.623767E+04  1.132040E+05  2.169429E-10  1.570347E-11
       210  12  1.844423E+05  9.670427E+04  5.395350E+04  8.583793E+04  9.497017E-11  1.103833E-10
       210  13  1.511744E+05  9.817248E+04  1.551701E+04  1.235497E+05 -2.313242E-10 -3.932661E-11
       210  14  1.513466E+05  9.801142E+04  2.709781E+04  1.174050E+05 -1.415489E-10  7.051950E-11
       210  15  1.695310E+05  1.308669E+05  5.775282E+04  9.904371E+04  3.622990E-11 -7.865765E-11
       210  16  1.506503E+05  8.806857E+04  1.385222E+04  1.187460E+05 -8.058310E-11 -2.246683E-11
       210  17  1.435779E+05  1.099898E+05  2.795800E+04  1.216059E+05 -1.261183E-10 -5.444011E-11
       210  18  1.546213E+05  1.650322E+05  6.155248E+04  1.122490E+05 -7.884423E-11 -4.294061E-11
       210  19  1.516987E+05  1.082766E+05  1.718207E+04  1.283534E+05  9.585924E+03  7.950677E+03
       210  20  1.591161E+05  8.603379E+04  2.623894E+04  1.132043E+05  2.081952E+04  1.563223E+04
       210  21  1.844435E+05  9.670515E+04  5.395645E+04  8.583854E+04  3.175517E+04  2.371119E+04
       210  22  1.511745E+05  9.817256E+04  1.551725E+04  1.235497E+05  8.781225E+03  7.347497E+03
       210  23  1.513471E+05  9.801179E+04  2.709904E+04  1.174052E+05  2.049245E+04  1.538768E+04
       210  24  1.695322E+05  1.308678E+05  5.775580E+04  9.904432E+04  3.190536E+04  2.382591E+04
       210  25  1.506504E+05  8.806863E+04  1.385243E+04  1.187460E+05  7.976515E+03  6.744332E+03
       210  26  1.435784E+05  1.099902E+05  2.795920E+04  1.216061E+05  2.016538E+04  1.514312E+04
       210  27  1.546226E+05  1.650331E+05  6.155548E+04  1.122497E+05  3.205554E+04  2.394065E+04
       211   1  5.945934E+05  1.242785E+05  1.142022E+05  6.800487E+04  4.754591E+03 -7.959573E+03
       211   2  4.852992E+05  1.222838E+05  9.245241E+04  6.153062E+04 -6.343633E+03 -2.440822E+04
       211   3  3.721636E+05  9.876488E+04  7.255508E+04  8.926844E+04 -1.743317E+04 -2.397786E+04
       211   4 -3.471113E+04 -3.176666E+04 -3.685800E+04  8.553094E+04 -2.511955E+04 -7.951350E+03
       211   5 -3.100531E+04 -2.946051E+03 -1.751988E+04  6.842665E+04 -1.595308E+04 -2.440818E+04
       211   6 -3.467517E+04  8.233570E+02 -1.040134E+04  8.553764E+04 -6.779713E+03 -2.397927E+04
       211   7 -6.636507E+05 -1.878390E+05 -1.879428E+05  1.030392E+05 -5.496354E+04 -7.944810E+03
       211   8 -5.470585E+05 -1.281930E+05 -1.275071E+05  7.531687E+04 -2.555465E+04 -2.440835E+04
       211   9 -4.413564E+05 -9.712840E+04 -9.336604E+04  8.180932E+04  3.866892E+03 -2.398081E+04
       211  10  5.945934E+05  1.242785E+05  1.142020E+05  6.800490E+04  1.097374E-10 -3.543037E-11
       211  11  4.852990E+05  1.222832E+05  9.245122E+04  6.153049E+04 -4.719516E-10 -2.333908E-10
       211  12  3.721632E+05  9.876418E+04  7.255343E+04  8.926810E+04 -3.631562E-11 -1.493374E-10
       211  13 -3.471182E+04 -3.176690E+04 -3.685931E+04  8.553077E+04  2.442726E-12  1.110466E-10
       211  14 -3.100574E+04 -2.946759E+03 -1.752147E+04  6.842634E+04  3.619798E-10 -1.376606E-10
       211  15 -3.467538E+04  8.227272E+02 -1.040251E+04  8.553751E+04  4.179366E-10 -1.605511E-11
       211  16 -6.636539E+05 -1.878399E+05 -1.879486E+05  1.030388E+05 -2.591062E-10  9.097193E-12
       211  17 -5.470594E+05 -1.281939E+05 -1.275095E+05  7.531636E+04  2.895214E-10  1.265887E-10
       211  18 -4.413566E+05 -9.712902E+04 -9.336715E+04  8.180939E+04  3.222160E-10  7.504957E-11
       211  19  5.945934E+05  1.242785E+05  1.142022E+05  6.800487E+04 -4.754591E+03  7.959573E+03
       211  20  4.852992E+05  1.222838E+05  9.245241E+04  6.153062E+04  6.343633E+03  2.440822E+04
       211  21  3.721636E+05  9.876488E+04  7.255508E+04  8.926844E+04  1.743317E+04  2.397786E+04
       211  22 -3.471113E+04 -3.176666E+04 -3.685800E+04  8.553094E+04  2.511955E+04  7.951350E+03
       211  23 -3.100531E+04 -2.946051E+03 -1.751988E+04  6.842665E+04  1.595308E+04  2.440818E+04
       211  24 -3.467517E+04  8.233570E+02 -1.040134E+04  8.553764E+04  6.779713E+03  2.397927E+04
       211  25 -6.636507E+05 -1.878390E+05 -1.879428E+05  1.030392E+05  5.496354E+04  7.944810E+03
       211  26 -5.470585E+05 -1.281930E+05 -1.275071E+05  7.531687E+04  2.555465E+04  2.440835E+04
       211  27 -4.413564E+05 -9.712840E+04 -9.336604E+04  8.180932E+04 -3.866892E+03  2.398081E+04
       212   1  2.933108E+05  7.735771E+04  5.819888E+04  8.526968E+04 -1.199821E+04 -1.910198E+04
       212   2  1.824771E+05  5.175992E+04  3.785652E+04  6.802734E+04 -1.021082E+04 -1.309655E+04
       212   3  7.119164E+04  2.516232E+04  1.610459E+04  8.590480E+04 -8.425097E+03 -6.197628E+03
       212   4 -3.316885E+04 -1.264528E+03 -8.485403E+03  8.573710E+04 -5.323839E+03 -1.910259E+04
       212   5 -3.283557E+04 -1.697850E+01 -5.735843E+03  6.817675E+04 -2.465819E+03 -1.309637E+04
       212   6 -3.315380E+04  4.478377E+01 -5.140303E+03  8.573702E+04  3.908245E+02 -6.196489E+03
       212   7 -3.595472E+05 -7.989342E+04 -7.517515E+04  8.620427E+04  1.347092E+03 -1.910319E+04
       212   8 -2.481040E+05 -5.179672E+04 -4.933038E+04  6.832610E+04  5.276549E+03 -1.309620E+04
       212   9 -1.374887E+05 -2.507339E+04 -2.638547E+04  8.556927E+04  9.205292E+03 -6.195355E+03
       212  10  2.933106E+05  7.735728E+04  5.819793E+04  8.526950E+04  2.335559E-10 -1.270201E-10
       212  11  1.824769E+05  5.175970E+04  3.785600E+04  6.802723E+04 -2.343586E-10  1.842094E-11
       212  12  7.119155E+04  2.516226E+04  1.610438E+04  8.590476E+04 -2.056998E-10  2.601686E-10
       212  13 -3.316897E+04 -1.264927E+03 -8.486142E+03  8.573702E+04 -2.870343E-12 -3.731179E-11
       212  14 -3.283562E+04 -1.716430E+01 -5.736176E+03  6.817672E+04 -2.791603E-10 -1.437374E-11
       212  15 -3.315381E+04  4.474250E+01 -5.140375E+03  8.573702E+04 -6.690419E-11  8.988738E-11
       212  16 -3.595473E+05 -7.989381E+04 -7.517584E+04  8.620429E+04 -2.646680E-10 -3.984084E-11
       212  17 -2.481040E+05 -5.179691E+04 -4.933076E+04  6.832616E+04  4.425306E-10 -1.201469E-10
       212  18 -1.374888E+05 -2.507345E+04 -2.638571E+04  8.556931E+04  4.969993E-10 -5.154922E-11
       212  19  2.933108E+05  7.735771E+04  5.819888E+04  8.526968E+04  1.199821E+04  1.910198E+04
       212  20  1.824771E+05  5.175992E+04  3.785652E+04  6.802734E+04  1.021082E+04  1.309655E+04
       212  21  7.119164E+04  2.516232E+04  1.610459E+04  8.590480E+04  8.425097E+03  6.197628E+03
       212  22 -3.316885E+04 -1.264528E+03 -8.485403E+03  8.573710E+04  5.323839E+03  1.910259E+04
       212  23 -3.283557E+04 -1.697850E+01 -5.735843E+03  6.817675E+04  2.465819E+03  1.309637E+04
       212  24 -3.315380E+04  4.478377E+01 -5.140303E+03  8.573702E+04 -3.908245E+02  6.196489E+03
       212  25 -3.595472E+05 -7.989342E+04 -7.517515E+04  8.620427E+04 -1.347092E+03  1.910319E+04
       212  26 -2.481040E+05 -5.179672E+04 -4.933038E+04  6.832610E+04 -5.276549E+03  1.309620E+04
       212  27 -1.374887E+05 -2.507339E+04 -2.638547E+04  8.556927E+04 -9.205292E+03  6.195355E+03
       213   1 -8.686580E+03  5.930978E+03 -7.578400E+02  8.540974E+04 -7.449864E+03 -1.864865E+03
       213   2 -1.192065E+05 -2.085018E+04 -2.496944E+04  6.832754E+04 -2.947919E+03  5.095391E+03
       213   3 -2.307639E+05 -4.949736E+04 -5.257966E+04  8.637734E+04  1.553825E+03  1.135259E+04
       213   4 -3.320701E+04  9.204424E+01 -5.432124E+03  8.573948E+04  1.322963E+03 -1.863578E+03
       213   5 -3.275976E+04 -3.280017E+01 -7.336742E+03  6.817371E+04  4.981149E+03  5.096221E+03
       213   6 -3.321308E+04 -1.875816E+03 -1.205286E+04  8.573971E+04  8.639898E+03  1.135304E+04
       213   7 -5.772670E+04 -5.746883E+03 -1.010615E+04  8.606921E+04  1.009545E+04 -1.862282E+03
       213   8  5.369426E+04  2.078414E+04  1.029580E+04  6.801985E+04  1.291130E+04  5.097048E+03
       213   9  1.643749E+05  4.574330E+04  2.847205E+04  8.510186E+04  1.572819E+04  1.135348E+04
       213  10 -8.686641E+03  5.930959E+03 -7.579508E+02  8.540973E+04  5.648285E-10  2.434116E-10
       213  11 -1.192066E+05 -2.085021E+04 -2.496951E+04  6.832755E+04  3.955172E-11 -6.473537E-11
       213  12 -2.307640E+05 -4.949750E+04 -5.257991E+04  8.637733E+04 -2.345545E-10  8.204411E-12
       213  13 -3.320702E+04  9.204004E+01 -5.432134E+03  8.573948E+04  2.733180E-10  5.963284E-11
       213  14 -3.275979E+04 -3.283472E+01 -7.336838E+03  6.817369E+04  1.308680E-10 -6.627029E-11
       213  15 -3.321320E+04 -1.875975E+03 -1.205324E+04  8.573963E+04  3.033477E-12 -1.143771E-10
       213  16 -5.772681E+04 -5.746914E+03 -1.010634E+04  8.606922E+04 -6.324576E-10 -6.003156E-11
       213  17  5.369407E+04  2.078407E+04  1.029544E+04  6.801980E+04 -2.660499E-10 -4.266923E-11
       213  18  1.643746E+05  4.574310E+04  2.847134E+04  8.510171E+04  5.363329E-10 -8.615947E-11
       213  19 -8.686580E+03  5.930978E+03 -7.578400E+02  8.540974E+04  7.449864E+03  1.864865E+03
       213  20 -1.192065E+05 -2.085018E+04 -2.496944E+04  6.832754E+04  2.947919E+03 -5.095391E+03
       213  21 -2.307639E+05 -4.949736E+04 -5.257966E+04  8.637734E+04 -1.553825E+03 -1.135259E+04
       213  22 -3.320701E+04  9.204424E+01 -5.432124E+03  8.573948E+04 -1.322963E+03  1.863578E+03
       213  23 -3.275976E+04 -3.280017E+01 -7.336742E+03  6.817371E+04 -4.981149E+03 -5.096221E+03
       213  24 -3.321308E+04 -1.875816E+03 -1.205286E+04  8.573971E+04 -8.639898E+03 -1.135304E+04
       213  25 -5.772670E+04 -5.746883E+03 -1.010615E+04  8.606921E+04 -1.009545E+04  1.862282E+03
       213  26  5.369426E+04  2.078414E+04  1.029580E+04  6.801985E+04 -1.291130E+04 -5.097048E+03
       213  27  1.643749E+05  4.574330E+04  2.847205E+04  8.510186E+04 -1.572819E+04 -1.135348E+04
       214   1 -3.132590E+05 -6.565228E+04 -7.199874E+04  7.988806E+04  4.275099E+02  1.611407E+04
       214   2 -4.173893E+05 -9.846128E+04 -1.090454E+05  7.862954E+04  3.045094E+04  1.787630E+04
       214   3 -5.355249E+05 -1.718617E+05 -1.757864E+05  1.117698E+05  6.046533E+04  6.006916E+03
       214   4 -3.550262E+04  1.283939E+03 -1.513371E+04  8.557851E+04  1.071922E+04  1.611421E+04
       214   5 -2.993192E+04 -4.362636E+03 -2.612013E+04  6.837614E+04  2.439965E+04  1.787522E+04
       214   6 -3.552995E+04 -4.774824E+04 -5.543931E+04  8.557434E+04  3.807686E+04  6.006929E+03
       214   7  2.423274E+05  6.821549E+04  4.172763E+04  9.127155E+04  2.101545E+04  1.611454E+04
       214   8  3.576671E+05  8.972661E+04  5.679661E+04  5.811623E+04  1.834462E+04  1.787435E+04
       214   9  4.646965E+05  7.634988E+04  6.489226E+04  5.935771E+04  1.567040E+04  6.008833E+03
       214  10 -3.132591E+05 -6.565256E+04 -7.199923E+04  7.988805E+04 -2.030566E-11  4.210660E-12
       214  11 -4.173904E+05 -9.846188E+04 -1.090477E+05  7.862911E+04 -7.985615E-11  2.157471E-11
       214  12 -5.355289E+05 -1.718628E+05 -1.757934E+05  1.117695E+05 -7.464021E-11 -8.982540E-11
       214  13 -3.550281E+04  1.283630E+03 -1.513442E+04  8.557837E+04  2.631954E-12  1.960134E-11
       214  14 -2.993265E+04 -4.363139E+03 -2.612185E+04  6.837578E+04  5.188404E-10  2.857583E-11
       214  15 -3.553151E+04 -4.774867E+04 -5.544210E+04  8.557415E+04 -2.234166E-10 -8.185527E-11
       214  16  2.423269E+05  6.821510E+04  4.172631E+04  9.127128E+04  4.215723E-11 -2.963053E-11
       214  17  3.576667E+05  8.972618E+04  5.679538E+04  5.811596E+04  8.587762E-11  8.479588E-11
       214  18  4.646962E+05  7.634977E+04  6.489173E+04  5.935763E+04 -7.517736E-11  6.158239E-11
       214  19 -3.132590E+05 -6.565228E+04 -7.199874E+04  7.988806E+04 -4.275099E+02 -1.611407E+04
       214  20 -4.173893E+05 -9.846128E+04 -1.090454E+05  7.862954E+04 -3.045094E+04 -1.787630E+04
       214  21 -5.355249E+05 -1.718617E+05 -1.757864E+05  1.117698E+05 -6.046533E+04 -6.006916E+03
       214  22 -3.550262E+04  1.283939E+03 -1.513371E+04  8.557851E+04 -1.071922E+04 -1.611421E+04
       214  23 -2.993192E+04 -4.362636E+03 -2.612013E+04  6.837614E+04 -2.439965E+04 -1.787522E+04
       214  24 -3.552995E+04 -4.774824E+04 -5.543931E+04  8.557434E+04 -3.807686E+04 -6.006929E+03
       214  25  2.423274E+05  6.821549E+04  4.172763E+04  9.127155E+04 -2.101545E+04 -1.611454E+04
       214  26  3.576671E+05  8.972661E+04  5.679661E+04  5.811623E+04 -1.834462E+04 -1.787435E+04
       214  27  4.646965E+05  7.634988E+04  6.489226E+04  5.935771E+04 -1.567040E+04 -6.008833E+03
       215   1 -1.387255E+05 -4.877306E+05 -1.436588E+05  1.094054E+05 -4.189914E+03 -5.141055E+04
       215   2 -6.846021E+04 -3.713598E+05 -8.219501E+04  7.714994E+04 -1.170574E+04 -2.575207E+04
       215   3 -3.634901E+04 -2.678940E+05 -4.698986E+04  7.910614E+04 -8.767903E+03 -9.402146E+01
       215   4 -4.539166E+04 -1.117809E+05 -5.289088E+04  8.463681E+04 -4.177911E+03 -3.611840E+04
       215   5 -4.045215E+03 -1.064038E+05 -2.507061E+04  6.751477E+04 -1.170305E+04 -2.299021E+04
       215   6  1.333117E+03 -1.117604E+05 -1.479552E+04  8.460665E+04 -8.775293E+03 -9.867422E+03
       215   7  4.793432E+04  2.642999E+05  3.786811E+04  5.985309E+04 -4.167133E+03 -2.081700E+04
       215   8  6.036552E+04  1.586183E+05  3.204974E+04  5.787543E+04 -1.170045E+04 -2.022718E+04
       215   9  3.901387E+04  4.439658E+04  1.739789E+04  9.010856E+04 -8.782854E+03 -1.964324E+04
       215  10 -1.387263E+05 -4.877334E+05 -1.436638E+05  1.094053E+05 -4.918451E-10 -3.678771E-09
       215  11 -6.846054E+04 -3.713606E+05 -8.219652E+04  7.714969E+04 -7.911625E-10  7.905197E-09
       215  12 -3.634910E+04 -2.678941E+05 -4.699001E+04  7.910614E+04 -1.626483E-09  1.754902E-08
       215  13 -4.539203E+04 -1.117823E+05 -5.289336E+04  8.463669E+04 -5.245053E-10 -2.594028E-11
       215  14 -4.045504E+03 -1.064045E+05 -2.507186E+04  6.751456E+04 -2.729098E-10  2.943821E-11
       215  15  1.333008E+03 -1.117606E+05 -1.479585E+04  8.460658E+04 -1.443128E-09  8.418824E-12
       215  16  4.793419E+04  2.642995E+05  3.786727E+04  5.985302E+04 -2.165895E-10  3.679452E-09
       215  17  6.036526E+04  1.586179E+05  3.204871E+04  5.787524E+04 -1.274782E-09 -8.164002E-09
       215  18  3.901368E+04  4.439615E+04  1.739702E+04  9.010842E+04 -1.117300E-09 -1.758652E-08
       215  19 -1.387255E+05 -4.877306E+05 -1.436588E+05  1.094054E+05  4.189914E+03  5.141055E+04
       215  20 -6.846021E+04 -3.713598E+05 -8.219501E+04  7.714994E+04  1.170574E+04  2.575207E+04
       215  21 -3.634901E+04 -2.678940E+05 -4.698986E+04  7.910614E+04  8.767903E+03  9.402146E+01
       215  22 -4.539166E+04 -1.117809E+05 -5.289088E+04  8.463681E+04  4.177911E+03  3.611840E+04
       215  23 -4.045215E+03 -1.064038E+05 -2.507061E+04  6.751477E+04  1.170305E+04  2.299021E+04
       215  24  1.333117E+03 -1.117604E+05 -1.479552E+04  8.460665E+04  8.775293E+03  9.867422E+03
       215  25  4.793432E+04  2.642999E+05  3.786811E+04  5.985309E+04  4.167133E+03  2.081700E+04
       215  26  6.036552E+04  1.586183E+05  3.204974E+04  5.787543E+04  1.170045E+04  2.022718E+04
       215  27  3.901387E+04  4.439658E+04  1.739789E+04  9.010856E+04  8.782854E+03  1.964324E+04
       216   1 -2.021884E+04 -1.864913E+05 -2.797353E+04  8.538914E+04 -4.142930E+03 -3.585688E+02
       216   2  7.940898E+03 -7.612334E+04 -1.234634E+03  6.744255E+04  2.028113E+03  3.466332E+03
       216   3  3.405242E+04  3.319211E+04  2.248663E+04  8.422232E+04  8.106625E+03  7.292164E+03
       216   4 -1.644435E+03 -1.096124E+05 -1.198699E+04  8.472700E+04 -4.148788E+03 -7.814701E+03
       216   5  1.923930E+01 -1.090720E+05 -7.890313E+03  6.736323E+04  2.022476E+03 -3.879012E+03
       216   6 -3.837541E+02 -1.096145E+05 -6.887494E+03  8.472603E+04  8.101176E+03  5.695677E+01
       216   7  1.692962E+04 -3.272777E+04  3.999434E+03  8.406478E+04 -4.154630E+03 -1.527174E+04
       216   8 -7.902458E+03 -1.420195E+05 -1.454584E+04  6.728390E+04  2.016840E+03 -1.122397E+04
       216   9 -3.482119E+04 -2.524017E+05 -3.626252E+04  8.522962E+04  8.095714E+03 -7.176616E+03
       216  10 -2.021885E+04 -1.864913E+05 -2.797356E+04  8.538914E+04 -1.672243E-09 -1.747789E-08
       216  11  7.940890E+03 -7.612336E+04 -1.234664E+03  6.744254E+04 -8.865721E-10 -7.756345E-09
       216  12  3.405234E+04  3.319203E+04  2.248641E+04  8.422227E+04  2.558310E-10  4.009445E-09
       216  13 -1.644470E+03 -1.096125E+05 -1.198714E+04  8.472698E+04 -1.824211E-09 -5.540419E-12
       216  14  1.923086E+01 -1.090720E+05 -7.890349E+03  6.736323E+04 -9.683804E-10  6.105081E-12
       216  15 -3.838246E+02 -1.096145E+05 -6.887617E+03  8.472603E+04  2.874669E-10  7.413005E-11
       216  16  1.692954E+04 -3.272803E+04  3.998963E+03  8.406473E+04 -1.042482E-09  1.755046E-08
       216  17 -7.902496E+03 -1.420196E+05 -1.454609E+04  6.728392E+04  2.054843E-10  7.749626E-09
       216  18 -3.482127E+04 -2.524017E+05 -3.626274E+04  8.522966E+04  8.083106E-10 -4.013032E-09
       216  19 -2.021884E+04 -1.864913E+05 -2.797353E+04  8.538914E+04  4.142930E+03  3.585688E+02
       216  20  7.940898E+03 -7.612334E+04 -1.234634E+03  6.744255E+04 -2.028113E+03 -3.466332E+03
       216  21  3.405242E+04  3.319211E+04  2.248663E+04  8.422232E+04 -8.106625E+03 -7.292164E+03
       216  22 -1.644435E+03 -1.096124E+05 -1.198699E+04  8.472700E+04  4.148788E+03  7.814701E+03
       216  23  1.923930E+01 -1.090720E+05 -7.890313E+03  6.736323E+04 -2.022476E+03  3.879012E+03
       216  24 -3.837541E+02 -1.096145E+05 -6.887494E+03  8.472603E+04 -8.101176E+03 -5.695677E+01
       216  25  1.692962E+04 -3.272777E+04  3.999434E+03  8.406478E+04  4.154630E+03  1.527174E+04
       216  26 -7.902458E+03 -1.420195E+05 -1.454584E+04  6.728390E+04 -2.016840E+03  1.122397E+04
       216  27 -3.482119E+04 -2.524017E+05 -3.626252E+04  8.522962E+04 -8.095714E+03  7.176616E+03
       217   1  5.401798E+04  1.119552E+05  3.851715E+04  8.639010E+04  1.278998E+04  1.114702E+04
       217   2  7.906859E+04  2.224469E+05  6.168862E+04  6.437823E+04  1.502747E+04  1.427298E+03
       217   3  9.476341E+04  3.318552E+05  8.884168E+04  7.647485E+04  5.145824E+03 -8.288225E+03
       217   4  4.777216E+02 -1.101841E+05 -7.032428E+03  8.458737E+04  1.278287E+04  1.179079E+03
       217   5 -1.280182E+03 -1.083859E+05 -9.273051E+03  6.753686E+04  1.503105E+04  6.005050E+03
       217   6 -1.492094E+04 -1.102075E+05 -1.763305E+04  8.459665E+04  5.157023E+03  1.083669E+04
       217   7 -5.306557E+04 -3.322764E+05 -5.258426E+04  8.278529E+04  1.277581E+04 -8.785355E+03
       217   8 -8.163607E+04 -4.391157E+05 -8.024102E+04  7.069375E+04  1.503468E+04  1.058040E+04
       217   9 -1.246191E+05 -5.520905E+05 -1.241203E+05  9.271261E+04  5.168727E+03  2.994805E+04
       217  10  5.401777E+04  1.119551E+05  3.851661E+04  8.638998E+04  4.433885E-10 -1.049432E-09
       217  11  7.906834E+04  2.224468E+05  6.168819E+04  6.437821E+04 -4.239170E-10 -4.576613E-10
       217  12  9.476336E+04  3.318551E+05  8.884150E+04  7.647489E+04 -1.786700E-10  4.708656E-11
       217  13  4.775458E+02 -1.101842E+05 -7.032737E+03  8.458736E+04  6.874785E-13 -2.330503E-11
       217  14 -1.280434E+03 -1.083860E+05 -9.273544E+03  6.753678E+04  3.479186E-10  3.363017E-11
       217  15 -1.492100E+04 -1.102076E+05 -1.763332E+04  8.459661E+04  1.529385E-10  7.789393E-12
       217  16 -5.306577E+04 -3.322765E+05 -5.258471E+04  8.278538E+04  1.211558E-09  9.757834E-10
       217  17 -8.163634E+04 -4.391158E+05 -8.024166E+04  7.069362E+04 -8.255090E-11  4.794790E-10
       217  18 -1.246194E+05 -5.520914E+05 -1.241221E+05  9.271249E+04 -2.458703E-10 -8.985485E-11
       217  19  5.401798E+04  1.119552E+05  3.851715E+04  8.639010E+04 -1.278998E+04 -1.114702E+04
       217  20  7.906859E+04  2.224469E+05  6.168862E+04  6.437823E+04 -1.502747E+04 -1.427298E+03
       217  21  9.476341E+04  3.318552E+05  8.884168E+04  7.647485E+04 -5.145824E+03  8.288225E+03
       217  22  4.777216E+02 -1.101841E+05 -7.032428E+03  8.458737E+04 -1.278287E+04 -1.179079E+03
       217  23 -1.280182E+03 -1.083859E+05 -9.273051E+03  6.753686E+04 -1.503105E+04 -6.005050E+03
       217  24 -1.492094E+04 -1.102075E+05 -1.763305E+04  8.459665E+04 -5.157023E+03 -1.083669E+04
       217  25 -5.306557E+04 -3.322764E+05 -5.258426E+04  8.278529E+04 -1.277581E+04  8.785355E+03
       217  26 -8.163607E+04 -4.391157E+05 -8.024102E+04  7.069375E+04 -1.503468E+04 -1.058040E+04
       217  27 -1.246191E+05 -5.520905E+05 -1.241203E+05  9.271261E+04 -5.168727E+03 -2.994805E+04
       218   1  4.993753E+05  4.283206E+05  1.423140E+05  3.371319E+05  6.316569E+04  4.414353E+04
       218   2  4.807978E+05  3.355447E+05  8.126902E+04  3.538362E+05  4.264135E+04  2.171981E+04
       218   3  4.943418E+05  2.989357E+05  5.653708E+04  3.497012E+05  1.919212E+04  3.201525E+03
       218   4  4.073345E+05  2.872575E+05  9.764049E+04  2.567332E+05  5.540001E+04  3.831739E+04
       218   5  3.762683E+05  2.320484E+05  4.583411E+04  2.878705E+05  3.956634E+04  1.941354E+04
       218   6  3.763129E+05  2.319943E+05  2.627762E+04  2.981666E+05  2.080794E+04  4.412647E+03
       218   7  3.153058E+05  1.462244E+05  5.296600E+04  1.763534E+05  4.763578E+04  3.249414E+04
       218   8  2.717505E+05  1.285655E+05  1.039756E+04  2.219190E+05  3.649199E+04  1.710804E+04
       218   9  2.582981E+05  1.650567E+05 -3.983408E+03  2.466413E+05  2.242336E+04  5.623551E+03
       218  10  4.993705E+05  4.283174E+05  1.423028E+05  3.371297E+05  9.827737E-11 -5.759233E-11
       218  11  4.807957E+05  3.355437E+05  8.126473E+04  3.538355E+05  3.352600E-10 -2.463992E-10
       218  12  4.943414E+05  2.989356E+05  5.653637E+04  3.497011E+05 -3.465625E-10 -1.775224E-10
       218  13  4.073308E+05  2.872551E+05  9.763197E+04  2.567315E+05 -2.698698E-10  9.605773E-11
       218  14  3.762665E+05  2.320475E+05  4.583047E+04  2.878699E+05  1.265142E-10 -2.671657E-10
       218  15  3.763124E+05  2.319942E+05  2.627677E+04  2.981665E+05 -6.241118E-10 -5.067938E-11
       218  16  3.153031E+05  1.462227E+05  5.295975E+04  1.763521E+05 -2.268336E-10  5.442495E-12
       218  17  2.717490E+05  1.285648E+05  1.039451E+04  2.219185E+05 -2.153753E-10  1.724100E-10
       218  18  2.582975E+05  1.650565E+05 -3.984412E+03  2.466412E+05  1.821957E-10 -1.086772E-10
       218  19  4.993753E+05  4.283206E+05  1.423140E+05  3.371319E+05 -6.316569E+04 -4.414353E+04
       218  20  4.807978E+05  3.355447E+05  8.126902E+04  3.538362E+05 -4.264135E+04 -2.171981E+04
       218  21  4.943418E+05  2.989357E+05  5.653708E+04  3.497012E+05 -1.919212E+04 -3.201525E+03
       218  22  4.073345E+05  2.872575E+05  9.764049E+04  2.567332E+05 -5.540001E+04 -3.831739E+04
       218  23  3.762683E+05  2.320484E+05  4.583411E+04  2.878705E+05 -3.956634E+04 -1.941354E+04
       218  24  3.763129E+05  2.319943E+05  2.627762E+04  2.981666E+05 -2.080794E+04 -4.412647E+03
       218  25  3.153058E+05  1.462244E+05  5.296600E+04  1.763534E+05 -4.763578E+04 -3.249414E+04
       218  26  2.717505E+05  1.285655E+05  1.039756E+04  2.219190E+05 -3.649199E+04 -1.710804E+04
       218  27  2.582981E+05  1.650567E+05 -3.983408E+03  2.466413E+05 -2.242336E+04 -5.623551E+03
       219   1  4.730988E+05  3.048062E+05  4.825147E+04  3.432397E+05  1.670923E+04  2.460079E+03
       219   2  4.614645E+05  2.891446E+05  3.548709E+04  3.365354E+05  1.116382E+04 -6.252383E+02
       219   3  4.462357E+05  2.816446E+05  2.756269E+04  3.308058E+05  5.457509E+03 -3.495508E+03
       219   4  3.756748E+05  2.341615E+05  2.069831E+04  2.935527E+05  1.740209E+04  2.979163E+03
       219   5  3.768706E+05  2.289862E+05  1.195134E+04  2.939085E+05  1.211567E+04  8.806432E+01
       219   6  3.744156E+05  2.319167E+05  7.820479E+03  2.952386E+05  6.668176E+03 -2.588116E+03
       219   7  2.782626E+05  1.635235E+05 -6.855356E+03  2.438753E+05  1.809479E+04  3.498126E+03
       219   8  2.922852E+05  1.688325E+05 -1.158490E+04  2.512884E+05  1.306735E+04  8.012299E+02
       219   9  3.026013E+05  1.821917E+05 -1.192220E+04  2.596761E+05  7.878655E+03 -1.680863E+03
       219  10  4.730985E+05  3.048061E+05  4.825093E+04  3.432397E+05 -4.025091E-10 -1.753881E-10
       219  11  4.614644E+05  2.891445E+05  3.548685E+04  3.365354E+05 -1.571819E-10 -1.283688E-10
       219  12  4.462356E+05  2.816446E+05  2.756261E+04  3.308058E+05 -1.765554E-10 -9.710849E-11
       219  13  3.756745E+05  2.341614E+05  2.069773E+04  2.935527E+05  9.530098E-11 -4.720144E-11
       219  14  3.768704E+05  2.289862E+05  1.195107E+04  2.939085E+05  3.865019E-10 -6.589737E-11
       219  15  3.744156E+05  2.319167E+05  7.820383E+03  2.952386E+05 -4.949601E-10 -2.426646E-11
       219  16  2.782622E+05  1.635234E+05 -6.855994E+03  2.438753E+05  8.693118E-11 -1.080884E-10
       219  17  2.922850E+05  1.688324E+05 -1.158523E+04  2.512884E+05 -1.527005E-10 -1.576344E-10
       219  18  3.026012E+05  1.821917E+05 -1.192232E+04  2.596762E+05  1.622823E-10 -5.152318E-11
       219  19  4.730988E+05  3.048062E+05  4.825147E+04  3.432397E+05 -1.670923E+04 -2.460079E+03
       219  20  4.614645E+05  2.891446E+05  3.548709E+04  3.365354E+05 -1.116382E+04  6.252383E+02
       219  21  4.462357E+05  2.816446E+05  2.756269E+04  3.308058E+05 -5.457509E+03  3.495508E+03
       219  22  3.756748E+05  2.341615E+05  2.069831E+04  2.935527E+05 -1.740209E+04 -2.979163E+03
       219  23  3.768706E+05  2.289862E+05  1.195134E+04  2.939085E+05 -1.211567E+04 -8.806432E+01
       219  24  3.744156E+05  2.319167E+05  7.820479E+03  2.952386E+05 -6.668176E+03  2.588116E+03
       219  25  2.782626E+05  1.635235E+05 -6.855356E+03  2.438753E+05 -1.809479E+04 -3.498126E+03
       219  26  2.922852E+05  1.688325E+05 -1.158490E+04  2.512884E+05 -1.306735E+04 -8.012299E+02
       219  27  3.026013E+05  1.821917E+05 -1.192220E+04  2.596761E+05 -7.878655E+03  1.680863E+03
       220   1  4.358656E+05  2.753254E+05  2.371196E+04  3.258462E+05  4.035417E+03 -3.650670E+03
       220   2  4.248380E+05  2.628257E+05  1.930159E+04  3.181848E+05  8.967436E+02 -4.489515E+03
       220   3  4.085426E+05  2.563624E+05  1.692757E+04  3.122625E+05 -2.247557E+03 -5.320906E+03
       220   4  3.743494E+05  2.319785E+05  6.757986E+03  2.950178E+05  5.194895E+03 -2.781601E+03
       220   5  3.769878E+05  2.289675E+05  6.067071E+03  2.941437E+05  2.065395E+03 -3.613510E+03
       220   6  3.743565E+05  2.319909E+05  7.404754E+03  2.950086E+05 -1.069769E+03 -4.437998E+03
       220   7  3.128367E+05  1.886332E+05 -1.019661E+04  2.641924E+05  6.354233E+03 -1.912637E+03
       220   8  3.291401E+05  1.951105E+05 -7.167658E+03  2.701047E+05  3.233926E+03 -2.737596E+03
       220   9  3.401721E+05  2.076203E+05 -2.118019E+03  2.777561E+05  1.079176E+02 -3.555168E+03
       220  10  4.358656E+05  2.753254E+05  2.371191E+04  3.258462E+05  8.475888E-11 -6.466765E-11
       220  11  4.248379E+05  2.628257E+05  1.930155E+04  3.181848E+05 -2.346890E-11  1.370655E-10
       220  12  4.085426E+05  2.563624E+05  1.692751E+04  3.122625E+05 -3.187130E-10  2.487226E-11
       220  13  3.743494E+05  2.319785E+05  6.757921E+03  2.950178E+05 -2.652803E-11 -2.051561E-10
       220  14  3.769878E+05  2.289674E+05  6.067038E+03  2.941437E+05  2.647152E-10  6.011611E-11
       220  15  3.743565E+05  2.319909E+05  7.404715E+03  2.950086E+05 -3.047555E-11  1.317209E-10
       220  16  3.128367E+05  1.886332E+05 -1.019669E+04  2.641924E+05 -5.813328E-11 -6.220552E-11
       220  17  3.291401E+05  1.951105E+05 -7.167692E+03  2.701047E+05  4.587824E-10  4.481832E-11
       220  18  3.401721E+05  2.076203E+05 -2.118043E+03  2.777561E+05  2.791011E-10  1.630829E-10
       220  19  4.358656E+05  2.753254E+05  2.371196E+04  3.258462E+05 -4.035417E+03  3.650670E+03
       220  20  4.248380E+05  2.628257E+05  1.930159E+04  3.181848E+05 -8.967436E+02  4.489515E+03
       220  21  4.085426E+05  2.563624E+05  1.692757E+04  3.122625E+05  2.247557E+03  5.320906E+03
       220  22  3.743494E+05  2.319785E+05  6.757986E+03  2.950178E+05 -5.194895E+03  2.781601E+03
       220  23  3.769878E+05  2.289675E+05  6.067071E+03  2.941437E+05 -2.065395E+03  3.613510E+03
       220  24  3.743565E+05  2.319909E+05  7.404754E+03  2.950086E+05  1.069769E+03  4.437998E+03
       220  25  3.128367E+05  1.886332E+05 -1.019661E+04  2.641924E+05 -6.354233E+03  1.912637E+03
       220  26  3.291401E+05  1.951105E+05 -7.167658E+03  2.701047E+05 -3.233926E+03  2.737596E+03
       220  27  3.401721E+05  2.076203E+05 -2.118019E+03  2.777561E+05 -1.079176E+02  3.555168E+03
       221   1  3.982635E+05  2.500160E+05  1.558034E+04  3.078361E+05 -3.846120E+03 -5.618034E+03
       221   2  3.880936E+05  2.365102E+05  1.702760E+04  2.993201E+05 -1.007945E+04 -8.795373E+03
       221   3  3.746520E+05  2.315491E+05  2.383493E+04  2.916301E+05 -1.626184E+04 -1.204053E+04
       221   4  3.744480E+05  2.319181E+05  8.843571E+03  2.952817E+05 -2.655509E+03 -4.725487E+03
       221   5  3.768296E+05  2.289806E+05  1.401458E+04  2.938605E+05 -8.970216E+03 -7.963837E+03
       221   6  3.759568E+05  2.346052E+05  2.461621E+04  2.932650E+05 -1.523418E+04 -1.127017E+04
       221   7  3.506331E+05  2.138206E+05  2.106754E+03  2.827280E+05 -1.464958E+03 -3.832991E+03
       221   8  3.655656E+05  2.214509E+05  1.100154E+04  2.884009E+05 -7.861007E+03 -7.132314E+03
       221   9  3.772617E+05  2.376614E+05  2.539751E+04  2.949000E+05 -1.420650E+04 -1.049979E+04
       221  10  3.982634E+05  2.500159E+05  1.558025E+04  3.078361E+05 -4.722944E-11  3.803596E-10
       221  11  3.880935E+05  2.365101E+05  1.702727E+04  2.993200E+05  1.370846E-10 -4.675325E-11
       221  12  3.746517E+05  2.315489E+05  2.383417E+04  2.916299E+05 -2.808880E-10  1.442957E-12
       221  13  3.744480E+05  2.319181E+05  8.843516E+03  2.952817E+05  1.538218E-10  6.304941E-11
       221  14  3.768295E+05  2.289805E+05  1.401431E+04  2.938604E+05 -4.395786E-10  1.684359E-10
       221  15  3.759566E+05  2.346050E+05  2.461554E+04  2.932649E+05  8.515381E-11  1.608241E-10
       221  16  3.506331E+05  2.138206E+05  2.106723E+03  2.827280E+05 -2.784569E-11 -9.737243E-12
       221  17  3.655655E+05  2.214508E+05  1.100133E+04  2.884009E+05  3.464524E-10  6.992206E-11
       221  18  3.772614E+05  2.376613E+05  2.539692E+04  2.948999E+05  2.698789E-10  1.552521E-10
       221  19  3.982635E+05  2.500160E+05  1.558034E+04  3.078361E+05  3.846120E+03  5.618034E+03
       221  20  3.880936E+05  2.365102E+05  1.702760E+04  2.993201E+05  1.007945E+04  8.795373E+03
       221  21  3.746520E+05  2.315491E+05  2.383493E+04  2.916301E+05  1.626184E+04  1.204053E+04
       221  22  3.744480E+05  2.319181E+05  8.843571E+03  2.952817E+05  2.655509E+03  4.725487E+03
       221  23  3.768296E+05  2.289806E+05  1.401458E+04  2.938605E+05  8.970216E+03  7.963837E+03
       221  24  3.759568E+05  2.346052E+05  2.461621E+04  2.932650E+05  1.523418E+04  1.127017E+04
       221  25  3.506331E+05  2.138206E+05  2.106754E+03  2.827280E+05  1.464958E+03  3.832991E+03
       221  26  3.655656E+05  2.214509E+05  1.100154E+04  2.884009E+05  7.861007E+03  7.132314E+03
       221  27  3.772617E+05  2.376614E+05  2.539751E+04  2.949000E+05  1.420650E+04  1.049979E+04
       222   1  3.528002E+05  2.348937E+05  2.780262E+04  2.960090E+05 -2.042844E+04 -1.419994E+04
       222   2  3.710593E+05  1.936080E+05  4.712525E+04  2.676876E+05 -4.228778E+04 -2.982982E+04
       222   3  4.271897E+05  2.170769E+05  1.037560E+05  2.141320E+05 -6.322562E+04 -4.668662E+04
       222   4  3.766788E+05  2.320555E+05  3.133907E+04  2.988014E+05 -1.911077E+04 -1.321152E+04
       222   5  3.761629E+05  2.325920E+05  5.481637E+04  2.866163E+05 -4.244703E+04 -2.995145E+04
       222   6  4.138332E+05  2.981959E+05  1.168813E+05  2.491976E+05 -6.486088E+04 -4.792120E+04
       222   7  4.005579E+05  2.292176E+05  3.487553E+04  3.015936E+05 -1.779305E+04 -1.222313E+04
       222   8  3.812673E+05  2.715787E+05  6.250760E+04  3.055454E+05 -4.260628E+04 -3.007310E+04
       222   9  4.004820E+05  3.793301E+05  1.300080E+05  2.842635E+05 -6.649607E+04 -4.915618E+04
       222  10  3.527997E+05  2.348934E+05  2.780146E+04  2.960087E+05  7.502385E-11  2.581983E-10
       222  11  3.710572E+05  1.936066E+05  4.712022E+04  2.676866E+05 -1.542043E-10 -8.582811E-11
       222  12  4.271848E+05  2.170735E+05  1.037444E+05  2.141297E+05 -2.518827E-10 -5.726901E-12
       222  13  3.766783E+05  2.320553E+05  3.133805E+04  2.988012E+05 -4.273859E-10  1.295539E-10
       222  14  3.761608E+05  2.325905E+05  5.481130E+04  2.866152E+05  3.090197E-10  2.817497E-10
       222  15  4.138280E+05  2.981923E+05  1.168691E+05  2.491951E+05  2.436709E-11 -1.050901E-11
       222  16  4.005576E+05  2.292174E+05  3.487465E+04  3.015935E+05 -1.597133E-10  7.918130E-11
       222  17  3.812651E+05  2.715772E+05  6.250249E+04  3.055443E+05  1.477072E-10  2.317064E-11
       222  18  4.004766E+05  3.793263E+05  1.299952E+05  2.842609E+05  2.701597E-10  1.279950E-10
       222  19  3.528002E+05  2.348937E+05  2.780262E+04  2.960090E+05  2.042844E+04  1.419994E+04
       222  20  3.710593E+05  1.936080E+05  4.712525E+04  2.676876E+05  4.228778E+04  2.982982E+04
       222  21  4.271897E+05  2.170769E+05  1.037560E+05  2.141320E+05  6.322562E+04  4.668662E+04
       222  22  3.766788E+05  2.320555E+05  3.133907E+04  2.988014E+05  1.911077E+04  1.321152E+04
       222  23  3.761629E+05  2.325920E+05  5.481637E+04  2.866163E+05  4.244703E+04  2.995145E+04
       222  24  4.138332E+05  2.981959E+05  1.168813E+05  2.491976E+05  6.486088E+04  4.792120E+04
       222  25  4.005579E+05  2.292176E+05  3.487553E+04  3.015936E+05  1.779305E+04  1.222313E+04
       222  26  3.812673E+05  2.715787E+05  6.250760E+04  3.055454E+05  4.260628E+04  3.007310E+04
       222  27  4.004820E+05  3.793301E+05  1.300080E+05  2.842635E+05  6.649607E+04  4.915618E+04
       223   1  8.833673E+05  1.572684E+05  1.546310E+05  8.891683E+04  3.711655E+04 -7.374471E+03
       223   2  7.730266E+05  1.169357E+05  1.083095E+05  6.848185E+04  1.478600E+04 -2.251911E+04
       223   3  6.688302E+05  8.928672E+04  7.969145E+04  8.107756E+04 -7.536318E+03 -2.190037E+04
       223   4  2.964101E+05  1.178399E+04  1.374946E+04  8.247424E+04  9.447897E+03 -7.371794E+03
       223   5  2.950013E+05  1.022257E+03  6.470280E+03  6.595827E+04  6.059274E+03 -2.252031E+04
       223   6  2.964435E+05 -3.358305E+02  3.755868E+03  8.247358E+04  2.674503E+03 -2.190024E+04
       223   7 -2.902304E+05 -1.337248E+05 -1.271537E+05  7.603774E+04 -1.819473E+04 -7.368544E+03
       223   8 -1.828089E+05 -1.149060E+05 -9.538178E+04  6.343665E+04 -2.660840E+03 -2.252143E+04
       223   9 -7.581117E+04 -8.996699E+04 -7.218662E+04  8.386875E+04  1.287932E+04 -2.190006E+04
       223  10  8.833658E+05  1.572679E+05  1.546283E+05  8.891705E+04  1.444234E-11 -9.094174E-11
       223  11  7.730262E+05  1.169351E+05  1.083081E+05  6.848212E+04 -1.005184E-10 -1.060770E-11
       223  12  6.688300E+05  8.928619E+04  7.969044E+04  8.107742E+04  1.373063E-10  8.538910E-12
       223  13  2.964100E+05  1.178390E+04  1.374919E+04  8.247429E+04 -2.232939E-11 -5.511300E-11
       223  14  2.950011E+05  1.021702E+03  6.469258E+03  6.595838E+04  1.147291E-10 -1.293621E-10
       223  15  2.964434E+05 -3.363475E+02  3.754953E+03  8.247363E+04  1.811649E-10 -4.757456E-11
       223  16 -2.902307E+05 -1.337250E+05 -1.271544E+05  7.603763E+04 -4.127052E-10 -1.828752E-10
       223  17 -1.828090E+05 -1.149065E+05 -9.538274E+04  6.343660E+04  2.063678E-10 -2.556907E-10
       223  18 -7.581148E+04 -8.996755E+04 -7.218784E+04  8.386897E+04  4.285400E-11 -5.874444E-13
       223  19  8.833673E+05  1.572684E+05  1.546310E+05  8.891683E+04 -3.711655E+04  7.374471E+03
       223  20  7.730266E+05  1.169357E+05  1.083095E+05  6.848185E+04 -1.478600E+04  2.251911E+04
       223  21  6.688302E+05  8.928672E+04  7.969145E+04  8.107756E+04  7.536318E+03  2.190037E+04
       223  22  2.964101E+05  1.178399E+04  1.374946E+04  8.247424E+04 -9.447897E+03  7.371794E+03
       223  23  2.950013E+05  1.022257E+03  6.470280E+03  6.595827E+04 -6.059274E+03  2.252031E+04
       223  24  2.964435E+05 -3.358305E+02  3.755868E+03  8.247358E+04 -2.674503E+03  2.190024E+04
       223  25 -2.902304E+05 -1.337248E+05 -1.271537E+05  7.603774E+04  1.819473E+04  7.368544E+03
       223  26 -1.828089E+05 -1.149060E+05 -9.538178E+04  6.343665E+04  2.660840E+03  2.252143E+04
       223  27 -7.581117E+04 -8.996699E+04 -7.218662E+04  8.386875E+04 -1.287932E+04  2.190006E+04
       224   1  5.908231E+05  7.147260E+04  6.323565E+04  8.283688E+04 -4.336928E+03 -1.721966E+04
       224   2  4.835969E+05  4.517803E+04  3.984830E+04  6.579174E+04 -6.238800E+03 -1.139666E+04
       224   3  3.767812E+05  1.948653E+04  1.784841E+04  8.258646E+04 -8.141613E+03 -4.742985E+03
       224   4  2.958711E+05  4.627175E+02  2.987718E+03  8.265363E+04  2.156497E+03 -1.721923E+04
       224   5  2.957633E+05  2.112628E+01  1.813522E+03  6.573344E+04  1.252006E+03 -1.139543E+04
       224   6  2.958839E+05  1.072802E+01  1.335515E+03  8.265373E+04  3.462726E+02 -4.740821E+03
       224   7  1.001872E+03 -7.055259E+04 -5.726465E+04  8.247045E+04  8.646897E+03 -1.721880E+04
       224   8  1.079635E+05 -4.513794E+04 -3.622287E+04  6.567515E+04  8.740591E+03 -1.139421E+04
       224   9  2.149930E+05 -1.946544E+04 -1.517745E+04  8.272098E+04  8.833073E+03 -4.738655E+03
       224  10  5.908230E+05  7.147228E+04  6.323506E+04  8.283682E+04  2.006643E-11 -4.340648E-11
       224  11  4.835968E+05  4.517788E+04  3.984798E+04  6.579168E+04 -1.880480E-10 -1.559250E-10
       224  12  3.767812E+05  1.948649E+04  1.784824E+04  8.258643E+04 -1.975192E-10 -2.284770E-10
       224  13  2.958711E+05  4.623978E+02  2.987152E+03  8.265366E+04  2.201140E-10  4.702696E-11
       224  14  2.957633E+05  2.098640E+01  1.813275E+03  6.573345E+04 -1.834986E-11  4.737621E-11
       224  15  2.958839E+05  1.070385E+01  1.335473E+03  8.265373E+04  1.029363E-10  4.242656E-11
       224  16  1.001712E+03 -7.055293E+04 -5.726535E+04  8.247057E+04 -2.073498E-10  1.049217E-10
       224  17  1.079633E+05 -4.513810E+04 -3.622326E+04  6.567523E+04  6.773443E-10  3.689495E-11
       224  18  2.149929E+05 -1.946549E+04 -1.517764E+04  8.272102E+04  2.277195E-10  4.369649E-11
       224  19  5.908231E+05  7.147260E+04  6.323565E+04  8.283688E+04  4.336928E+03  1.721966E+04
       224  20  4.835969E+05  4.517803E+04  3.984830E+04  6.579174E+04  6.238800E+03  1.139666E+04
       224  21  3.767812E+05  1.948653E+04  1.784841E+04  8.258646E+04  8.141613E+03  4.742985E+03
       224  22  2.958711E+05  4.627175E+02  2.987718E+03  8.265363E+04 -2.156497E+03  1.721923E+04
       224  23  2.957633E+05  2.112628E+01  1.813522E+03  6.573344E+04 -1.252006E+03  1.139543E+04
       224  24  2.958839E+05  1.072802E+01  1.335515E+03  8.265373E+04 -3.462726E+02  4.740821E+03
       224  25  1.001872E+03 -7.055259E+04 -5.726465E+04  8.247045E+04 -8.646897E+03  1.721880E+04
       224  26  1.079635E+05 -4.513794E+04 -3.622287E+04  6.567515E+04 -8.740591E+03  1.139421E+04
       224  27  2.149930E+05 -1.946544E+04 -1.517745E+04  8.272098E+04 -8.833073E+03  4.738655E+03
       225   1  2.998727E+05  9.358403E+02  1.813887E+03  8.268912E+04 -8.343091E+03 -5.701513E+02
       225   2  1.928729E+05 -2.474268E+04 -1.955143E+04  6.568318E+04 -8.185891E+03  6.124013E+03
       225   3  8.589433E+04 -5.028031E+04 -4.098649E+04  8.251973E+04 -8.028022E+03  1.211227E+04
       225   4  2.958695E+05  2.408955E+01  1.256995E+03  8.265409E+04  1.158948E+02 -5.678917E+02
       225   5  2.957873E+05  2.181036E+01  1.384244E+03  6.573300E+04 -5.749111E+02  6.125662E+03
       225   6  2.958625E+05  3.081684E+02  2.030532E+03  8.265402E+04 -1.265022E+03  1.211340E+04
       225   7  2.918664E+05 -8.876235E+02  7.003721E+02  8.261906E+04  8.574829E+03 -5.656331E+02
       225   8  3.987119E+05  2.478567E+04  2.231958E+04  6.578282E+04  7.037307E+03  6.127313E+03
       225   9  5.058727E+05  5.089390E+04  4.504538E+04  8.278836E+04  5.500225E+03  1.211453E+04
       225  10  2.998727E+05  9.358212E+02  1.813756E+03  8.268911E+04 -1.619013E-10 -1.416087E-10
       225  11  1.928728E+05 -2.474274E+04 -1.955163E+04  6.568322E+04 -1.559689E-10 -9.086862E-11
       225  12  8.589422E+04 -5.028048E+04 -4.098689E+04  8.251981E+04 -4.322490E-10 -5.229709E-11
       225  13  2.958695E+05  2.408920E+01  1.256995E+03  8.265409E+04  1.262629E-11  9.677624E-11
       225  14  2.957873E+05  2.176997E+01  1.384173E+03  6.573300E+04 -6.679156E-11 -1.242797E-10
       225  15  2.958625E+05  3.080104E+02  2.030254E+03  8.265404E+04 -3.272911E-10 -1.072205E-10
       225  16  2.918664E+05 -8.876435E+02  7.002334E+02  8.261906E+04 -2.760378E-10  9.264894E-11
       225  17  3.987118E+05  2.478562E+04  2.231942E+04  6.578278E+04  3.323964E-10  1.791075E-10
       225  18  5.058726E+05  5.089374E+04  4.504505E+04  8.278830E+04  1.280205E-10  6.025628E-11
       225  19  2.998727E+05  9.358403E+02  1.813887E+03  8.268912E+04  8.343091E+03  5.701513E+02
       225  20  1.928729E+05 -2.474268E+04 -1.955143E+04  6.568318E+04  8.185891E+03 -6.124013E+03
       225  21  8.589433E+04 -5.028031E+04 -4.098649E+04  8.251973E+04  8.028022E+03 -1.211227E+04
       225  22  2.958695E+05  2.408955E+01  1.256995E+03  8.265409E+04 -1.158948E+02  5.678917E+02
       225  23  2.957873E+05  2.181036E+01  1.384244E+03  6.573300E+04  5.749111E+02 -6.125662E+03
       225  24  2.958625E+05  3.081684E+02  2.030532E+03  8.265402E+04  1.265022E+03 -1.211340E+04
       225  25  2.918664E+05 -8.876235E+02  7.003721E+02  8.261906E+04 -8.574829E+03  5.656331E+02
       225  26  3.987119E+05  2.478567E+04  2.231958E+04  6.578282E+04 -7.037307E+03 -6.127313E+03
       225  27  5.058727E+05  5.089390E+04  4.504538E+04  8.278836E+04 -5.500225E+03 -1.211453E+04
       226   1  8.954909E+03 -6.939433E+04 -5.625889E+04  8.336544E+04 -1.158469E+04  1.671597E+04
       226   2 -9.770071E+04 -9.473937E+04 -7.984774E+04  6.429509E+04  2.587311E+03  1.821428E+04
       226   3 -2.053615E+05 -1.169265E+05 -1.118665E+05  7.837184E+04  1.675489E+04  6.087144E+03
       226   4  2.962242E+05 -2.010014E+02  2.485638E+03  8.249921E+04 -1.615689E+03  1.671715E+04
       226   5  2.953006E+05  6.559553E+02  4.163361E+03  6.592637E+04 -3.792265E+03  1.821301E+04
       226   6  2.961969E+05  7.507745E+03  8.762686E+03  8.249902E+04 -5.970552E+03  6.087432E+03
       226   7  5.835720E+05  6.898721E+04  6.122617E+04  8.163257E+04  8.357843E+03  1.671830E+04
       226   8  6.884473E+05  9.604123E+04  8.816567E+04  6.755868E+04 -1.017582E+04  1.821170E+04
       226   9  7.979867E+05  1.319240E+05  1.293760E+05  8.662953E+04 -2.871429E+04  6.087419E+03
       226  10  8.954690E+03 -6.939467E+04 -5.625967E+04  8.336560E+04 -3.339323E-10 -8.566470E-12
       226  11 -9.770081E+04 -9.473972E+04 -7.984837E+04  6.429505E+04 -2.856051E-10  9.706988E-11
       226  12 -2.053618E+05 -1.169266E+05 -1.118671E+05  7.837176E+04  1.390635E-10  1.969139E-11
       226  13  2.962241E+05 -2.013022E+02  2.485108E+03  8.249924E+04  3.435057E-10  1.054784E-10
       226  14  2.953005E+05  6.555952E+02  4.162710E+03  6.592642E+04  7.285172E-11  1.192736E-10
       226  15  2.961969E+05  7.507695E+03  8.762550E+03  8.249905E+04  2.989429E-10  1.647933E-11
       226  16  5.835719E+05  6.898689E+04  6.122551E+04  8.163246E+04  5.696309E-11 -3.970590E-12
       226  17  6.884471E+05  9.604084E+04  8.816485E+04  6.755883E+04  8.281981E-11  5.315915E-11
       226  18  7.979858E+05  1.319238E+05  1.293743E+05  8.662967E+04  1.156575E-13  2.331827E-11
       226  19  8.954909E+03 -6.939433E+04 -5.625889E+04  8.336544E+04  1.158469E+04 -1.671597E+04
       226  20 -9.770071E+04 -9.473937E+04 -7.984774E+04  6.429509E+04 -2.587311E+03 -1.821428E+04
       226  21 -2.053615E+05 -1.169265E+05 -1.118665E+05  7.837184E+04 -1.675489E+04 -6.087144E+03
       226  22  2.962242E+05 -2.010014E+02  2.485638E+03  8.249921E+04  1.615689E+03 -1.671715E+04
       226  23  2.953006E+05  6.559553E+02  4.163361E+03  6.592637E+04  3.792265E+03 -1.821301E+04
       226  24  2.961969E+05  7.507745E+03  8.762686E+03  8.249902E+04  5.970552E+03 -6.087432E+03
       226  25  5.835720E+05  6.898721E+04  6.122617E+04  8.163257E+04 -8.357843E+03 -1.671830E+04
       226  26  6.884473E+05  9.604123E+04  8.816567E+04  6.755868E+04  1.017582E+04 -1.821170E+04
       226  27  7.979867E+05  1.319240E+05  1.293760E+05  8.662953E+04  2.871429E+04 -6.087419E+03
       227   1 -2.286178E+05 -8.385032E+05 -2.406869E+05  1.682005E+05 -6.080090E+03 -9.713111E+04
       227   2 -1.020239E+05 -6.749322E+05 -1.361826E+05  1.129383E+05 -1.714060E+04 -5.138720E+04
       227   3 -5.412161E+04 -5.370039E+05 -8.116560E+04  1.045646E+05 -1.332154E+04 -5.636666E+03
       227   4 -9.534635E+04 -3.017521E+05 -1.111231E+05  1.160189E+05 -6.059726E+03 -7.495107E+04
       227   5 -8.553763E+03 -2.904532E+05 -5.337735E+04  9.254409E+04 -1.713544E+04 -4.702621E+04
       227   6  2.670469E+03 -3.017027E+05 -3.271159E+04  1.159652E+05 -1.333106E+04 -1.910680E+04
       227   7  3.791464E+04  2.352697E+05  1.842333E+04  6.379188E+04 -6.043107E+03 -5.275188E+04
       227   8  8.490826E+04  9.416571E+04  2.941952E+04  7.213705E+04 -1.713056E+04 -4.266254E+04
       227   9  5.945964E+04 -6.634826E+04  1.574019E+04  1.273702E+05 -1.334106E+04 -3.258196E+04
       227  10 -2.286204E+05 -8.385134E+05 -2.407047E+05  1.682001E+05  2.500665E-10 -2.730951E-10
       227  11 -1.020249E+05 -6.749351E+05 -1.361881E+05  1.129376E+05  3.460777E-10 -3.218328E-10
       227  12 -5.412181E+04 -5.370040E+05 -8.116599E+04  1.045646E+05  3.201413E-10  3.513384E-10
       227  13 -9.534789E+04 -3.017582E+05 -1.111338E+05  1.160185E+05 -2.358447E-10  2.022691E-10
       227  14 -8.554673E+03 -2.904557E+05 -5.338205E+04  9.254344E+04 -4.468765E-10 -7.979481E-11
       227  15  2.670181E+03 -3.017032E+05 -3.271261E+04  1.159650E+05 -2.484038E-10  3.218957E-11
       227  16  3.791385E+04  2.352667E+05  1.841804E+04  6.379162E+04 -2.391211E-10  3.045850E-10
       227  17  8.490745E+04  9.416368E+04  2.941555E+04  7.213646E+04 -9.414092E-10 -3.019502E-11
       227  18  5.945916E+04 -6.634945E+04  1.573786E+04  1.273698E+05 -1.794671E-10 -2.588817E-10
       227  19 -2.286178E+05 -8.385032E+05 -2.406869E+05  1.682005E+05  6.080090E+03  9.713111E+04
       227  20 -1.020239E+05 -6.749322E+05 -1.361826E+05  1.129383E+05  1.714060E+04  5.138720E+04
       227  21 -5.412161E+04 -5.370039E+05 -8.116560E+04  1.045646E+05  1.332154E+04  5.636666E+03
       227  22 -9.534635E+04 -3.017521E+05 -1.111231E+05  1.160189E+05  6.059726E+03  7.495107E+04
       227  23 -8.553763E+03 -2.904532E+05 -5.337735E+04  9.254409E+04  1.713544E+04  4.702621E+04
       227  24  2.670469E+03 -3.017027E+05 -3.271159E+04  1.159652E+05  1.333106E+04  1.910680E+04
       227  25  3.791464E+04  2.352697E+05  1.842333E+04  6.379188E+04  6.043107E+03  5.275188E+04
       227  26  8.490826E+04  9.416571E+04  2.941952E+04  7.213705E+04  1.713056E+04  4.266254E+04
       227  27  5.945964E+04 -6.634826E+04  1.574019E+04  1.273702E+05  1.334106E+04  3.258196E+04
       228   1 -3.405735E+04 -4.238778E+05 -5.364797E+04  1.178246E+05 -6.956484E+03 -4.293192E+03
       228   2  5.710233E+03 -2.718409E+05 -1.578400E+04  9.239840E+04  1.484650E+03  5.930249E+03
       228   3  4.001797E+04 -1.225416E+05  1.403800E+04  1.146126E+05  9.857868E+03  1.615635E+04
       228   4 -3.489904E+03 -2.973021E+05 -2.742297E+04  1.161417E+05 -6.964032E+03 -1.445070E+04
       228   5 -7.941840E+01 -2.959165E+05 -2.064845E+04  9.232067E+04  1.477301E+03 -4.145804E+03
       228   6 -2.141430E+03 -2.973039E+05 -2.197089E+04  1.161407E+05  9.850701E+03  6.159368E+03
       228   7  2.707659E+04 -1.707109E+05 -1.198455E+03  1.144583E+05 -6.971524E+03 -2.461024E+04
       228   8 -5.869051E+03 -3.199914E+05 -2.551254E+04  9.224294E+04  1.469953E+03 -1.422147E+04
       228   9 -4.430269E+04 -4.720370E+05 -5.798105E+04  1.176682E+05  9.843482E+03 -3.834853E+03
       228  10 -3.405740E+04 -4.238779E+05 -5.364810E+04  1.178246E+05 -1.899587E-10 -3.882533E-10
       228  11  5.710221E+03 -2.718409E+05 -1.578407E+04  9.239839E+04 -3.495838E-10 -2.796644E-10
       228  12  4.001779E+04 -1.225419E+05  1.403733E+04  1.146125E+05 -2.487281E-10  4.601320E-10
       228  13 -3.490012E+03 -2.973023E+05 -2.742346E+04  1.161416E+05 -1.503650E-10  3.787626E-10
       228  14 -7.942536E+01 -2.959165E+05 -2.064848E+04  9.232067E+04 -5.133440E-10  1.815892E-10
       228  15 -2.141544E+03 -2.973040E+05 -2.197115E+04  1.161406E+05  1.205362E-10  1.476257E-10
       228  16  2.707637E+04 -1.707116E+05 -1.199685E+03  1.144582E+05 -5.625855E-11  4.104703E-10
       228  17 -5.869108E+03 -3.199916E+05 -2.551292E+04  9.224296E+04  1.042311E-10 -3.766105E-11
       228  18 -4.430280E+04 -4.720371E+05 -5.798126E+04  1.176683E+05 -1.498188E-10 -4.905941E-10
       228  19 -3.405735E+04 -4.238778E+05 -5.364797E+04  1.178246E+05  6.956484E+03  4.293192E+03
       228  20  5.710233E+03 -2.718409E+05 -1.578400E+04  9.239840E+04 -1.484650E+03 -5.930249E+03
       228  21  4.001797E+04 -1.225416E+05  1.403800E+04  1.146126E+05 -9.857868E+03 -1.615635E+04
       228  22 -3.489904E+03 -2.973021E+05 -2.742297E+04  1.161417E+05  6.964032E+03  1.445070E+04
       228  23 -7.941840E+01 -2.959165E+05 -2.064845E+04  9.232067E+04 -1.477301E+03  4.145804E+03
       228  24 -2.141430E+03 -2.973039E+05 -2.197089E+04  1.161407E+05 -9.850701E+03 -6.159368E+03
       228  25  2.707659E+04 -1.707109E+05 -1.198455E+03  1.144583E+05  6.971524E+03  2.461024E+04
       228  26 -5.869051E+03 -3.199914E+05 -2.551254E+04  9.224294E+04 -1.469953E+03  1.422147E+04
       228  27 -4.430269E+04 -4.720370E+05 -5.798105E+04  1.176682E+05 -9.843482E+03  3.834853E+03
       229   1  7.013332E+04 -1.644839E+04  3.380029E+04  1.233869E+05  1.626691E+04  2.343507E+04
       229   2  9.951211E+04  1.401273E+05  5.642148E+04  7.906761E+04  1.955897E+04  2.317750E+04
       229   3  8.244737E+04  2.851461E+05  6.759720E+04  8.155880E+04  6.756990E+03  2.292587E+04
       229   4  1.756058E+03 -3.000172E+05 -2.441198E+04  1.159511E+05  1.625757E+04  9.820837E+03
       229   5 -5.597333E+03 -2.925708E+05 -3.648845E+04  9.255941E+04  1.956380E+04  2.886929E+04
       229   6 -6.276514E+04 -3.000665E+05 -7.342803E+04  1.159844E+05  6.770900E+03  4.792307E+04
       229   7 -6.662597E+04 -5.835091E+05 -8.262783E+04  1.085186E+05  1.624855E+04 -3.787288E+03
       229   8 -1.107183E+05 -7.250923E+05 -1.294091E+05  1.060416E+05  1.956888E+04  3.455716E+04
       229   9 -2.079978E+05 -8.849619E+05 -2.144747E+05  1.503775E+05  6.787591E+03  7.289678E+04
       229  10  7.013289E+04 -1.644905E+04  3.379876E+04  1.233866E+05  1.823766E-10 -1.954588E-10
       229  11  9.951155E+04  1.401266E+05  5.641975E+04  7.906724E+04 -4.033665E-10 -1.319984E-10
       229  12  8.244718E+04  2.851455E+05  6.759613E+04  8.155868E+04  3.968114E-11  4.818092E-10
       229  13  1.755748E+03 -3.000173E+05 -2.441266E+04  1.159509E+05 -4.970602E-10  2.996777E-10
       229  14 -5.597968E+03 -2.925717E+05 -3.649073E+04  9.255895E+04 -5.072642E-10 -2.038364E-12
       229  15 -6.276581E+04 -3.000690E+05 -7.343243E+04  1.159842E+05  2.048451E-10  9.385960E-11
       229  16 -6.662625E+04 -5.835092E+05 -8.262835E+04  1.085187E+05  5.782905E-11  1.475907E-10
       229  17 -1.107191E+05 -7.250937E+05 -1.294121E+05  1.060411E+05 -6.486872E-10  5.358804E-11
       229  18 -2.079993E+05 -8.849676E+05 -2.144848E+05  1.503771E+05 -1.681644E-10 -1.663499E-10
       229  19  7.013332E+04 -1.644839E+04  3.380029E+04  1.233869E+05 -1.626691E+04 -2.343507E+04
       229  20  9.951211E+04  1.401273E+05  5.642148E+04  7.906761E+04 -1.955897E+04 -2.317750E+04
       229  21  8.244737E+04  2.851461E+05  6.759720E+04  8.155880E+04 -6.756990E+03 -2.292587E+04
       229  22  1.756058E+03 -3.000172E+05 -2.441198E+04  1.159511E+05 -1.625757E+04 -9.820837E+03
       229  23 -5.597333E+03 -2.925708E+05 -3.648845E+04  9.255941E+04 -1.956380E+04 -2.886929E+04
       229  24 -6.276514E+04 -3.000665E+05 -7.342803E+04  1.159844E+05 -6.770900E+03 -4.792307E+04
       229  25 -6.662597E+04 -5.835091E+05 -8.262783E+04  1.085186E+05 -1.624855E+04  3.787288E+03
       229  26 -1.107183E+05 -7.250923E+05 -1.294091E+05  1.060416E+05 -1.956888E+04 -3.455716E+04
       229  27 -2.079978E+05 -8.849619E+05 -2.144747E+05  1.503775E+05 -6.787591E+03 -7.289678E+04
       230   1  5.191332E+05  4.229935E+05  1.268071E+05  3.603628E+05  6.523608E+04  4.781324E+04
       230   2  5.095594E+05  3.296444E+05  6.492144E+04  3.871899E+05  4.283925E+04  2.850973E+04
       230   3  5.417581E+05  2.944921E+05  4.145246E+04  3.883658E+05  1.951789E+04  1.043939E+04
       230   4  5.261830E+05  3.408248E+05  1.124501E+05  3.237224E+05  6.256677E+04  4.580386E+04
       230   5  4.875895E+05  2.800714E+05  5.278565E+04  3.604096E+05  4.164710E+04  2.761397E+04
       230   6  4.904482E+05  2.771931E+05  3.025566E+04  3.714452E+05  1.980479E+04  1.065492E+04
       230   7  5.332376E+05  2.586700E+05  9.809427E+04  2.870826E+05  5.989735E+04  4.379510E+04
       230   8  4.656209E+05  2.305026E+05  4.064991E+04  3.336312E+05  4.045499E+04  2.671837E+04
       230   9  4.391422E+05  2.598947E+05  1.905894E+04  3.545259E+05  2.009164E+04  1.087044E+04
       230  10  5.191280E+05  4.229899E+05  1.267948E+05  3.603603E+05  1.052208E-10 -7.550339E-11
       230  11  5.095572E+05  3.296431E+05  6.491647E+04  3.871889E+05  2.386481E-11  1.049697E-10
       230  12  5.417576E+05  2.944919E+05  4.145154E+04  3.883657E+05 -2.661061E-10  2.338276E-10
       230  13  5.261782E+05  3.408215E+05  1.124388E+05  3.237201E+05  2.136656E-11 -5.726826E-11
       230  14  4.875875E+05  2.800701E+05  5.278096E+04  3.604087E+05 -9.985354E-11  9.089255E-11
       230  15  4.904478E+05  2.771929E+05  3.025471E+04  3.714451E+05 -3.835765E-10  1.331826E-10
       230  16  5.332332E+05  2.586670E+05  9.808394E+04  2.870805E+05  1.195192E-10  2.145168E-10
       230  17  4.656189E+05  2.305014E+05  4.064550E+04  3.336303E+05  5.658756E-10  7.635308E-11
       230  18  4.391417E+05  2.598945E+05  1.905796E+04  3.545257E+05 -2.138886E-10  1.589728E-10
       230  19  5.191332E+05  4.229935E+05  1.268071E+05  3.603628E+05 -6.523608E+04 -4.781324E+04
       230  20  5.095594E+05  3.296444E+05  6.492144E+04  3.871899E+05 -4.283925E+04 -2.850973E+04
       230  21  5.417581E+05  2.944921E+05  4.145246E+04  3.883658E+05 -1.951789E+04 -1.043939E+04
       230  22  5.261830E+05  3.408248E+05  1.124501E+05  3.237224E+05 -6.256677E+04 -4.580386E+04
       230  23  4.875895E+05  2.800714E+05  5.278565E+04  3.604096E+05 -4.164710E+04 -2.761397E+04
       230  24  4.904482E+05  2.771931E+05  3.025566E+04  3.714452E+05 -1.980479E+04 -1.065492E+04
       230  25  5.332376E+05  2.586700E+05  9.809427E+04  2.870826E+05 -5.989735E+04 -4.379510E+04
       230  26  4.656209E+05  2.305026E+05  4.064991E+04  3.336312E+05 -4.045499E+04 -2.671837E+04
       230  27  4.391422E+05  2.598947E+05  1.905894E+04  3.545259E+05 -2.009164E+04 -1.087044E+04
       231   1  5.274485E+05  3.083485E+05  3.469198E+04  3.859865E+05  1.641739E+04  8.300544E+03
       231   2  5.251122E+05  3.030979E+05  2.403604E+04  3.861000E+05  1.082497E+04  4.156774E+03
       231   3  5.244013E+05  3.013842E+05  1.875883E+04  3.856342E+05  5.181922E+03  8.060532E+01
       231   4  4.897563E+05  2.796457E+05  2.382667E+04  3.661210E+05  1.641311E+04  8.297266E+03
       231   5  4.882262E+05  2.765923E+05  1.374203E+04  3.673819E+05  1.090229E+04  4.214704E+03
       231   6  4.883041E+05  2.770582E+05  8.965706E+03  3.680636E+05  5.340797E+03  1.996865E+02
       231   7  4.520656E+05  2.509439E+05  1.296120E+04  3.462569E+05  1.640884E+04  8.293989E+03
       231   8  4.513415E+05  2.500872E+05  3.447799E+03  3.486650E+05  1.097961E+04  4.272629E+03
       231   9  4.522078E+05  2.527326E+05 -8.276988E+02  3.504938E+05  5.499661E+03  3.187605E+02
       231  10  5.274482E+05  3.083483E+05  3.469135E+04  3.859864E+05 -3.551294E-10  6.455949E-11
       231  11  5.251121E+05  3.030979E+05  2.403579E+04  3.860999E+05 -5.152795E-11  8.113000E-12
       231  12  5.244013E+05  3.013842E+05  1.875878E+04  3.856342E+05  3.173106E-10 -7.521447E-12
       231  13  4.897560E+05  2.796455E+05  2.382603E+04  3.661209E+05 -5.651446E-11  8.426065E-11
       231  14  4.882261E+05  2.765922E+05  1.374177E+04  3.673818E+05  1.559975E-10 -2.275549E-10
       231  15  4.883040E+05  2.770582E+05  8.965652E+03  3.680636E+05  6.258222E-11 -1.864584E-10
       231  16  4.520653E+05  2.509437E+05  1.296057E+04  3.462568E+05 -1.134320E-12  1.212120E-10
       231  17  4.513414E+05  2.500872E+05  3.447538E+03  3.486649E+05 -4.548123E-10 -3.153900E-10
       231  18  4.522078E+05  2.527326E+05 -8.277558E+02  3.504938E+05 -3.937050E-10 -3.285468E-10
       231  19  5.274485E+05  3.083485E+05  3.469198E+04  3.859865E+05 -1.641739E+04 -8.300544E+03
       231  20  5.251122E+05  3.030979E+05  2.403604E+04  3.861000E+05 -1.082497E+04 -4.156774E+03
       231  21  5.244013E+05  3.013842E+05  1.875883E+04  3.856342E+05 -5.181922E+03 -8.060532E+01
       231  22  4.897563E+05  2.796457E+05  2.382667E+04  3.661210E+05 -1.641311E+04 -8.297266E+03
       231  23  4.882262E+05  2.765923E+05  1.374203E+04  3.673819E+05 -1.090229E+04 -4.214704E+03
       231  24  4.883041E+05  2.770582E+05  8.965706E+03  3.680636E+05 -5.340797E+03 -1.996865E+02
       231  25  4.520656E+05  2.509439E+05  1.296120E+04  3.462569E+05 -1.640884E+04 -8.293989E+03
       231  26  4.513415E+05  2.500872E+05  3.447799E+03  3.486650E+05 -1.097961E+04 -4.272629E+03
       231  27  4.522078E+05  2.527326E+05 -8.276988E+02  3.504938E+05 -5.499661E+03 -3.187605E+02
       232   1  5.224743E+05  3.011866E+05  1.716906E+04  3.849356E+05  3.956030E+03 -7.203869E+02
       232   2  5.207785E+05  2.995248E+05  1.585870E+04  3.839504E+05  1.130108E+03 -2.650519E+03
       232   3  5.188261E+05  2.989896E+05  1.685714E+04  3.832660E+05 -1.699512E+03 -4.575607E+03
       232   4  4.882272E+05  2.771276E+05  7.728253E+03  3.678080E+05  4.097729E+03 -6.141839E+02
       232   5  4.883592E+05  2.765703E+05  6.890884E+03  3.676537E+05  1.277993E+03 -2.539675E+03
       232   6  4.882332E+05  2.771382E+05  8.357053E+03  3.678001E+05 -1.545468E+03 -4.460141E+03
       232   7  4.539819E+05  2.530696E+05 -1.712508E+03  3.506817E+05  4.239416E+03 -5.079901E+02
       232   8  4.559413E+05  2.536165E+05 -2.076962E+03  3.513580E+05  1.425867E+03 -2.428840E+03
       232   9  4.576414E+05  2.552874E+05 -1.431217E+02  3.523351E+05 -1.391436E+03 -4.344683E+03
       232  10  5.224743E+05  3.011866E+05  1.716903E+04  3.849356E+05  8.713140E-11 -1.849512E-10
       232  11  5.207785E+05  2.995248E+05  1.585869E+04  3.839504E+05 -1.900682E-10  5.306209E-12
       232  12  5.188261E+05  2.989896E+05  1.685710E+04  3.832660E+05 -4.947735E-10 -1.231415E-11
       232  13  4.882272E+05  2.771276E+05  7.728221E+03  3.678080E+05 -1.583133E-12 -2.728602E-10
       232  14  4.883592E+05  2.765703E+05  6.890869E+03  3.676537E+05 -3.593862E-10  1.014299E-10
       232  15  4.882332E+05  2.771382E+05  8.357011E+03  3.678001E+05 -4.986427E-10  1.035971E-10
       232  16  4.539819E+05  2.530696E+05 -1.712543E+03  3.506817E+05 -2.066529E-10 -4.664290E-12
       232  17  4.559413E+05  2.536165E+05 -2.076977E+03  3.513580E+05 -2.019574E-10  7.535125E-11
       232  18  4.576414E+05  2.552874E+05 -1.431608E+02  3.523351E+05  3.587477E-11  3.905006E-10
       232  19  5.224743E+05  3.011866E+05  1.716906E+04  3.849356E+05 -3.956030E+03  7.203869E+02
       232  20  5.207785E+05  2.995248E+05  1.585870E+04  3.839504E+05 -1.130108E+03  2.650519E+03
       232  21  5.188261E+05  2.989896E+05  1.685714E+04  3.832660E+05  1.699512E+03  4.575607E+03
       232  22  4.882272E+05  2.771276E+05  7.728253E+03  3.678080E+05 -4.097729E+03  6.141839E+02
       232  23  4.883592E+05  2.765703E+05  6.890884E+03  3.676537E+05 -1.277993E+03  2.539675E+03
       232  24  4.882332E+05  2.771382E+05  8.357053E+03  3.678001E+05  1.545468E+03  4.460141E+03
       232  25  4.539819E+05  2.530696E+05 -1.712508E+03  3.506817E+05 -4.239416E+03  5.079901E+02
       232  26  4.559413E+05  2.536165E+05 -2.076962E+03  3.513580E+05 -1.425867E+03  2.428840E+03
       232  27  4.576414E+05  2.552874E+05 -1.431217E+02  3.523351E+05  1.391436E+03  4.344683E+03
       233   1  5.170010E+05  2.987400E+05  1.810858E+04  3.831622E+05 -3.044045E+03 -5.472376E+03
       233   2  5.162712E+05  2.959534E+05  2.344606E+04  3.812120E+05 -9.474203E+03 -1.007993E+04
       233   3  5.175457E+05  2.971359E+05  3.491688E+04  3.785391E+05 -1.592840E+04 -1.465568E+04
       233   4  4.883344E+05  2.770570E+05  9.960364E+03  3.681061E+05 -2.899130E+03 -5.363742E+03
       233   5  4.881825E+05  2.765839E+05  1.574774E+04  3.673358E+05 -9.290680E+03 -9.942369E+03
       233   6  4.900268E+05  2.800716E+05  2.763524E+04  3.658426E+05 -1.570620E+04 -1.448916E+04
       233   7  4.596684E+05  2.553743E+05  1.811942E+03  3.530507E+05 -2.754222E+03 -5.255113E+03
       233   8  4.600947E+05  2.572148E+05  8.049337E+03  3.534603E+05 -9.107168E+03 -9.804811E+03
       233   9  4.625090E+05  2.630078E+05  2.035364E+04  3.531470E+05 -1.548401E+04 -1.432265E+04
       233  10  5.170010E+05  2.987400E+05  1.810850E+04  3.831621E+05 -4.755355E-11  1.686479E-10
       233  11  5.162711E+05  2.959532E+05  2.344571E+04  3.812119E+05  6.432865E-10  7.846455E-11
       233  12  5.175454E+05  2.971356E+05  3.491601E+04  3.785389E+05  1.583606E-11 -1.389918E-10
       233  13  4.883344E+05  2.770570E+05  9.960294E+03  3.681061E+05 -7.606970E-10  1.750525E-10
       233  14  4.881824E+05  2.765837E+05  1.574739E+04  3.673357E+05 -3.363195E-10  9.857156E-11
       233  15  4.900264E+05  2.800713E+05  2.763438E+04  3.658425E+05  9.851815E-11 -9.469134E-11
       233  16  4.596684E+05  2.553743E+05  1.811876E+03  3.530507E+05 -3.900138E-10  8.504616E-11
       233  17  4.600946E+05  2.572147E+05  8.049001E+03  3.534602E+05 -5.891031E-10 -3.507827E-11
       233  18  4.625087E+05  2.630076E+05  2.035280E+04  3.531468E+05  1.884303E-10 -5.207088E-11
       233  19  5.170010E+05  2.987400E+05  1.810858E+04  3.831622E+05  3.044045E+03  5.472376E+03
       233  20  5.162712E+05  2.959534E+05  2.344606E+04  3.812120E+05  9.474203E+03  1.007993E+04
       233  21  5.175457E+05  2.971359E+05  3.491688E+04  3.785391E+05  1.592840E+04  1.465568E+04
       233  22  4.883344E+05  2.770570E+05  9.960364E+03  3.681061E+05  2.899130E+03  5.363742E+03
       233  23  4.881825E+05  2.765839E+05  1.574774E+04  3.673358E+05  9.290680E+03  9.942369E+03
       233  24  4.900268E+05  2.800716E+05  2.763524E+04  3.658426E+05  1.570620E+04  1.448916E+04
       233  25  4.596684E+05  2.553743E+05  1.811942E+03  3.530507E+05  2.754222E+03  5.255113E+03
       233  26  4.600947E+05  2.572148E+05  8.049337E+03  3.534603E+05  9.107168E+03  9.804811E+03
       233  27  4.625090E+05  2.630078E+05  2.035364E+04  3.531470E+05  1.548401E+04  1.432265E+04
       234   1  5.027652E+05  3.078219E+05  4.209679E+04  3.883578E+05 -1.966085E+04 -1.737571E+04
       234   2  5.339169E+05  2.737939E+05  6.819612E+04  3.640267E+05 -4.641421E+04 -3.686727E+04
       234   3  6.136049E+05  3.073887E+05  1.381985E+05  3.097631E+05 -7.360581E+04 -5.577446E+04
       234   4  4.908111E+05  2.772377E+05  3.517651E+04  3.720622E+05 -1.957697E+04 -1.731213E+04
       234   5  4.874673E+05  2.806054E+05  6.151735E+04  3.591946E+05 -4.562922E+04 -3.628163E+04
       234   6  5.325048E+05  3.514433E+05  1.311552E+05  3.163951E+05 -7.211749E+04 -5.467007E+04
       234   7  4.788573E+05  2.466552E+05  2.825626E+04  3.557671E+05 -1.949310E+04 -1.724855E+04
       234   8  4.410208E+05  2.874179E+05  5.483878E+04  3.543622E+05 -4.484431E+04 -3.569594E+04
       234   9  4.514175E+05  3.955081E+05  1.241137E+05  3.230238E+05 -7.062944E+04 -5.356543E+04
       234  10  5.027647E+05  3.078215E+05  4.209549E+04  3.883575E+05 -6.661845E-11 -1.127760E-10
       234  11  5.339143E+05  2.737919E+05  6.818952E+04  3.640253E+05 -3.115861E-11  1.069204E-10
       234  12  6.135983E+05  3.073839E+05  1.381825E+05  3.097598E+05  4.823595E-11 -4.591597E-12
       234  13  4.908106E+05  2.772373E+05  3.517522E+04  3.720619E+05 -4.227429E-10 -1.600388E-10
       234  14  4.874647E+05  2.806034E+05  6.151097E+04  3.591933E+05 -2.876679E-10 -5.170386E-11
       234  15  5.324984E+05  3.514387E+05  1.311398E+05  3.163919E+05  1.932780E-11  5.478898E-11
       234  16  4.788569E+05  2.466547E+05  2.825499E+04  3.557669E+05  2.345130E-10 -1.237922E-10
       234  17  4.410183E+05  2.874159E+05  5.483262E+04  3.543609E+05  1.479981E-10  1.489693E-11
       234  18  4.514113E+05  3.955037E+05  1.240990E+05  3.230208E+05  8.270073E-12  2.977003E-11
       234  19  5.027652E+05  3.078219E+05  4.209679E+04  3.883578E+05  1.966085E+04  1.737571E+04
       234  20  5.339169E+05  2.737939E+05  6.819612E+04  3.640267E+05  4.641421E+04  3.686727E+04
       234  21  6.136049E+05  3.073887E+05  1.381985E+05  3.097631E+05  7.360581E+04  5.577446E+04
       234  22  4.908111E+05  2.772377E+05  3.517651E+04  3.720622E+05  1.957697E+04  1.731213E+04
       234  23  4.874673E+05  2.806054E+05  6.151735E+04  3.591946E+05  4.562922E+04  3.628163E+04
       234  24  5.325048E+05  3.514433E+05  1.311552E+05  3.163951E+05  7.211749E+04  5.467007E+04
       234  25  4.788573E+05  2.466552E+05  2.825626E+04  3.557671E+05  1.949310E+04  1.724855E+04
       234  26  4.410208E+05  2.874179E+05  5.483878E+04  3.543622E+05  4.484431E+04  3.569594E+04
       234  27  4.514175E+05  3.955081E+05  1.241137E+05  3.230238E+05  7.062944E+04  5.356543E+04
       235   1  8.613470E+05  1.409461E+05  1.413634E+05  8.091393E+04  4.180814E+04 -5.854472E+03
       235   2  7.696428E+05  9.425118E+04  9.455106E+04  5.913748E+04  1.951482E+04 -1.783703E+04
       235   3  6.864651E+05  6.991678E+04  6.783354E+04  6.430953E+04 -2.773651E+03 -1.722831E+04
       235   4  3.931000E+05  2.488634E+04  2.895895E+04  6.725420E+04  1.984292E+04 -5.854600E+03
       235   5  3.901617E+05  2.231097E+03  1.368030E+04  5.378016E+04  1.268071E+04 -1.783826E+04
       235   6  3.931254E+05 -6.799828E+02  8.003777E+03  6.725439E+04  5.520166E+03 -1.722777E+04
       235   7 -7.494507E+04 -9.118838E+04 -8.345914E+04  5.360479E+04 -2.105819E+03 -5.853764E+03
       235   8  1.081630E+04 -8.979822E+04 -6.719856E+04  4.842614E+04  5.850713E+03 -1.783938E+04
       235   9  9.986757E+04 -7.128205E+04 -5.183026E+04  7.019783E+04  1.381014E+04 -1.722715E+04
       235  10  8.613451E+05  1.409456E+05  1.413600E+05  8.091412E+04 -2.757626E-10  8.236275E-11
       235  11  7.696423E+05  9.425073E+04  9.454974E+04  5.913776E+04 -1.726856E-10  3.506988E-11
       235  12  6.864650E+05  6.991645E+04  6.783297E+04  6.430949E+04  2.971084E-10  1.571336E-11
       235  13  3.930996E+05  2.488620E+04  2.895815E+04  6.725429E+04 -2.903224E-10  9.109198E-11
       235  14  3.901615E+05  2.230712E+03  1.367940E+04  5.378034E+04 -5.775435E-10  1.532772E-10
       235  15  3.931253E+05 -6.803097E+02  8.003162E+03  6.725447E+04  1.194531E-10  7.537338E-12
       235  16 -7.494508E+04 -9.118841E+04 -8.345921E+04  5.360478E+04  3.170019E-10  7.275372E-11
       235  17  1.081618E+04 -8.979857E+04 -6.719923E+04  4.842623E+04 -1.330104E-10  4.282537E-12
       235  18  9.986729E+04 -7.128242E+04 -5.183118E+04  7.019802E+04  8.164228E-11  8.069524E-11
       235  19  8.613470E+05  1.409461E+05  1.413634E+05  8.091393E+04 -4.180814E+04  5.854472E+03
       235  20  7.696428E+05  9.425118E+04  9.455106E+04  5.913748E+04 -1.951482E+04  1.783703E+04
       235  21  6.864651E+05  6.991678E+04  6.783354E+04  6.430953E+04  2.773651E+03  1.722831E+04
       235  22  3.931000E+05  2.488634E+04  2.895895E+04  6.725420E+04 -1.984292E+04  5.854600E+03
       235  23  3.901617E+05  2.231097E+03  1.368030E+04  5.378016E+04 -1.268071E+04  1.783826E+04
       235  24  3.931254E+05 -6.799828E+02  8.003777E+03  6.725439E+04 -5.520166E+03  1.722777E+04
       235  25 -7.494507E+04 -9.118838E+04 -8.345914E+04  5.360479E+04  2.105819E+03  5.853764E+03
       235  26  1.081630E+04 -8.979822E+04 -6.719856E+04  4.842614E+04 -5.850713E+03  1.783938E+04
       235  27  9.986757E+04 -7.128205E+04 -5.183026E+04  7.019783E+04 -1.381014E+04  1.722715E+04
       236   1  6.221656E+05  5.641037E+04  5.346664E+04  6.776327E+04 -9.139918E+02 -1.342246E+04
       236   2  5.346202E+05  3.439033E+04  3.301828E+04  5.371646E+04 -3.736889E+03 -8.657212E+03
       236   3  4.477102E+05  1.342152E+04  1.466802E+04  6.724985E+04 -6.560193E+03 -3.230078E+03
       236   4  3.919290E+05  9.817033E+02  6.427230E+03  6.739498E+04  4.410711E+03 -1.342188E+04
       236   5  3.916879E+05  2.861055E+01  4.066934E+03  5.360481E+04  2.382948E+03 -8.656098E+03
       236   6  3.919372E+05 -1.056866E+01  3.253562E+03  6.739519E+04  3.543945E+02 -3.228337E+03
       236   7  1.617427E+05 -5.445027E+04 -4.061488E+04  6.702683E+04  9.733476E+03 -1.342130E+04
       236   8  2.487751E+05 -3.433436E+04 -2.488533E+04  5.349318E+04  8.501403E+03 -8.654985E+03
       236   9  3.361674E+05 -1.344283E+04 -8.160880E+03  6.754052E+04  7.268373E+03 -3.226594E+03
       236  10  6.221656E+05  5.641018E+04  5.346630E+04  6.776326E+04 -2.544609E-10  1.165708E-10
       236  11  5.346202E+05  3.439025E+04  3.301811E+04  5.371644E+04 -1.321607E-11  1.670655E-10
       236  12  4.477101E+05  1.342150E+04  1.466792E+04  6.724983E+04  3.942947E-10 -2.171769E-10
       236  13  3.919289E+05  9.815046E+02  6.426855E+03  6.739503E+04 -8.324797E-11  9.384955E-11
       236  14  3.916878E+05  2.852855E+01  4.066783E+03  5.360483E+04  8.027678E-11  2.918085E-10
       236  15  3.919372E+05 -1.057989E+01  3.253542E+03  6.739519E+04  1.731997E-10 -4.638134E-11
       236  16  1.617426E+05 -5.445048E+04 -4.061539E+04  6.702693E+04  1.615892E-10  1.483516E-10
       236  17  2.487750E+05 -3.433446E+04 -2.488561E+04  5.349324E+04  2.396474E-10 -2.958313E-11
       236  18  3.361673E+05 -1.344285E+04 -8.160999E+03  6.754054E+04 -1.173812E-10 -1.005762E-10
       236  19  6.221656E+05  5.641037E+04  5.346664E+04  6.776327E+04  9.139918E+02  1.342246E+04
       236  20  5.346202E+05  3.439033E+04  3.301828E+04  5.371646E+04  3.736889E+03  8.657212E+03
       236  21  4.477102E+05  1.342152E+04  1.466802E+04  6.724985E+04  6.560193E+03  3.230078E+03
       236  22  3.919290E+05  9.817033E+02  6.427230E+03  6.739498E+04 -4.410711E+03  1.342188E+04
       236  23  3.916879E+05  2.861055E+01  4.066934E+03  5.360481E+04 -2.382948E+03  8.656098E+03
       236  24  3.919372E+05 -1.056866E+01  3.253562E+03  6.739519E+04 -3.543945E+02  3.228337E+03
       236  25  1.617427E+05 -5.445027E+04 -4.061488E+04  6.702683E+04 -9.733476E+03  1.342130E+04
       236  26  2.487751E+05 -3.433436E+04 -2.488533E+04  5.349318E+04 -8.501403E+03  8.654985E+03
       236  27  3.361674E+05 -1.344283E+04 -8.160880E+03  6.754052E+04 -7.268373E+03  3.226594E+03
       237   1  3.850376E+05 -1.702558E+03  1.642328E+03  6.753538E+04 -7.117140E+03  1.705520E+02
       237   2  2.976554E+05 -2.259224E+04 -1.516590E+04  5.349807E+04 -8.374107E+03  5.621025E+03
       237   3  2.106276E+05 -4.273240E+04 -3.097072E+04  6.704277E+04 -9.630349E+03  1.048136E+04
       237   4  3.919330E+05 -6.469749E+00  3.230657E+03  6.739545E+04 -2.192543E+02  1.723390E+02
       237   5  3.916960E+05  3.033242E+01  3.942158E+03  5.360449E+04 -2.185350E+03  5.622341E+03
       237   6  3.919275E+05  9.396617E+02  6.148820E+03  6.739524E+04 -4.150880E+03  1.048227E+04
       237   7  3.988286E+05  1.689641E+03  4.819162E+03  6.725552E+04  6.678708E+03  1.741228E+02
       237   8  4.857450E+05  2.265238E+04  2.304990E+04  5.371093E+04  4.004326E+03  5.623660E+03
       237   9  5.732586E+05  4.460968E+04  4.326673E+04  6.774781E+04  1.330159E+03  1.048319E+04
       237  10  3.850375E+05 -1.702572E+03  1.642232E+03  6.753538E+04 -1.802608E-10 -3.697141E-10
       237  11  2.976553E+05 -2.259230E+04 -1.516609E+04  5.349811E+04  1.977126E-10  1.077601E-10
       237  12  2.106275E+05 -4.273255E+04 -3.097110E+04  6.704285E+04 -1.764270E-10  2.205763E-11
       237  13  3.919330E+05 -6.469794E+00  3.230657E+03  6.739545E+04  1.472913E-10 -2.936758E-10
       237  14  3.916959E+05  3.029719E+01  3.942089E+03  5.360450E+04 -1.252146E-10 -2.320701E-10
       237  15  3.919274E+05  9.395390E+02  6.148581E+03  6.739528E+04 -1.921361E-10  1.207915E-10
       237  16  3.988285E+05  1.689629E+03  4.819078E+03  6.725552E+04  6.508665E-10 -2.483147E-10
       237  17  4.857449E+05  2.265234E+04  2.304981E+04  5.371091E+04  9.126526E-12 -1.360152E-10
       237  18  5.732586E+05  4.460956E+04  4.326652E+04  6.774780E+04  2.086764E-10  1.525275E-10
       237  19  3.850376E+05 -1.702558E+03  1.642328E+03  6.753538E+04  7.117140E+03 -1.705520E+02
       237  20  2.976554E+05 -2.259224E+04 -1.516590E+04  5.349807E+04  8.374107E+03 -5.621025E+03
       237  21  2.106276E+05 -4.273240E+04 -3.097072E+04  6.704277E+04  9.630349E+03 -1.048136E+04
       237  22  3.919330E+05 -6.469749E+00  3.230657E+03  6.739545E+04  2.192543E+02 -1.723390E+02
       237  23  3.916960E+05  3.033242E+01  3.942158E+03  5.360449E+04  2.185350E+03 -5.622341E+03
       237  24  3.919275E+05  9.396617E+02  6.148820E+03  6.739524E+04  4.150880E+03 -1.048227E+04
       237  25  3.988286E+05  1.689641E+03  4.819162E+03  6.725552E+04 -6.678708E+03 -1.741228E+02
       237  26  4.857450E+05  2.265238E+04  2.304990E+04  5.371093E+04 -4.004326E+03 -5.623660E+03
       237  27  5.732586E+05  4.460968E+04  4.326673E+04  6.774781E+04 -1.330159E+03 -1.048319E+04
       238   1  1.487410E+05 -5.947271E+04 -4.229872E+04  7.005615E+04 -1.336522E+04  1.424237E+04
       238   2  5.975036E+04 -7.807770E+04 -5.759627E+04  4.866615E+04 -6.538967E+03  1.535888E+04
       238   3 -2.600016E+04 -8.029394E+04 -7.323549E+04  5.428142E+04  2.856718E+02  5.114886E+03
       238   4  3.930623E+05 -6.372389E+02  7.634206E+03  6.726693E+04 -5.211785E+03  1.424346E+04
       238   5  3.902523E+05  2.128984E+03  1.300965E+04  5.376450E+04 -1.202115E+04  1.535775E+04
       238   6  3.930398E+05  2.364606E+04  2.750807E+04  6.726563E+04 -1.883147E+04  5.114447E+03
       238   7  6.374404E+05  5.819456E+04  5.756423E+04  6.447659E+04  2.944801E+03  1.424446E+04
       238   8  7.208572E+05  8.232866E+04  8.360939E+04  5.886559E+04 -1.750620E+04  1.535653E+04
       238   9  8.122416E+05  1.275741E+05  1.282406E+05  8.025864E+04 -3.796146E+04  5.113210E+03
       238  10  1.487408E+05 -5.947298E+04 -4.229944E+04  7.005631E+04  1.884551E-10  1.415482E-10
       238  11  5.975025E+04 -7.807797E+04 -5.759680E+04  4.866623E+04  9.368765E-11  1.210715E-10
       238  12 -2.600016E+04 -8.029397E+04 -7.323554E+04  5.428142E+04  6.975602E-11  7.081372E-11
       238  13  3.930622E+05 -6.374641E+02  7.633774E+03  6.726699E+04  1.357292E-10  3.231087E-10
       238  14  3.902521E+05  2.128692E+03  1.300894E+04  5.376465E+04 -6.210679E-11  1.964769E-10
       238  15  3.930394E+05  2.364594E+04  2.750736E+04  6.726571E+04  3.142146E-10  2.424861E-11
       238  16  6.374404E+05  5.819434E+04  5.756384E+04  6.447655E+04  1.606368E-10  2.636859E-10
       238  17  7.208568E+05  8.232833E+04  8.360837E+04  5.886581E+04  3.000579E-10  7.272791E-11
       238  18  8.122401E+05  1.275737E+05  1.282379E+05  8.025879E+04 -2.702237E-10 -1.549827E-11
       238  19  1.487410E+05 -5.947271E+04 -4.229872E+04  7.005615E+04  1.336522E+04 -1.424237E+04
       238  20  5.975036E+04 -7.807770E+04 -5.759627E+04  4.866615E+04  6.538967E+03 -1.535888E+04
       238  21 -2.600016E+04 -8.029394E+04 -7.323549E+04  5.428142E+04 -2.856718E+02 -5.114886E+03
       238  22  3.930623E+05 -6.372389E+02  7.634206E+03  6.726693E+04  5.211785E+03 -1.424346E+04
       238  23  3.902523E+05  2.128984E+03  1.300965E+04  5.376450E+04  1.202115E+04 -1.535775E+04
       238  24  3.930398E+05  2.364606E+04  2.750807E+04  6.726563E+04  1.883147E+04 -5.114447E+03
       238  25  6.374404E+05  5.819456E+04  5.756423E+04  6.447659E+04 -2.944801E+03 -1.424446E+04
       238  26  7.208572E+05  8.232866E+04  8.360939E+04  5.886559E+04  1.750620E+04 -1.535653E+04
       238  27  8.122416E+05  1.275741E+05  1.282406E+05  8.025864E+04  3.796146E+04 -5.113210E+03
       239   1 -2.364674E+05 -8.809581E+05 -2.526926E+05  1.671303E+05 -5.426273E+03 -1.118770E+05
       239   2 -9.400549E+04 -7.324315E+05 -1.403189E+05  1.070877E+05 -1.531832E+04 -6.128815E+04
       239   3 -4.778408E+04 -6.145616E+05 -8.497567E+04  8.846493E+04 -1.197800E+04 -1.069064E+04
       239   4 -1.178790E+05 -4.033608E+05 -1.374083E+05  1.024896E+05 -5.406501E+03 -9.209104E+04
       239   5 -1.060606E+04 -3.893857E+05 -6.644757E+04  8.175042E+04 -1.531333E+04 -5.734590E+04
       239   6  3.207103E+03 -4.033103E+05 -4.148068E+04  1.024401E+05 -1.198471E+04 -2.260393E+04
       239   7  7.086612E+02  7.445515E+04 -2.213673E+04  3.779892E+04 -5.390865E+03 -7.228988E+04
       239   8  7.278808E+04 -4.622780E+04  7.417219E+03  5.639891E+04 -1.530868E+04 -5.340148E+04
       239   9  5.419628E+04 -1.920159E+05  2.012555E+03  1.164201E+05 -1.199194E+04 -3.452121E+04
       239  10 -2.364708E+05 -8.809715E+05 -2.527162E+05  1.671299E+05 -2.428274E-10 -3.379847E-10
       239  11 -9.400676E+04 -7.324356E+05 -1.403264E+05  1.070869E+05 -2.493950E-10 -8.804800E-11
       239  12 -4.778427E+04 -6.145618E+05 -8.497615E+04  8.846482E+04 -3.348062E-10  3.241607E-10
       239  13 -1.178813E+05 -4.033699E+05 -1.374243E+05  1.024892E+05 -2.139322E-10  7.166428E-11
       239  14 -1.060719E+04 -3.893893E+05 -6.645420E+04  8.174971E+04 -4.923722E-10 -2.696008E-10
       239  15  3.206812E+03 -4.033109E+05 -4.148191E+04  1.024399E+05 -3.209431E-10 -5.258222E-12
       239  16  7.072273E+02  7.444953E+04 -2.214660E+04  3.779860E+04 -3.731640E-11  4.811725E-10
       239  17  7.278706E+04 -4.623092E+04  7.411420E+03  5.639825E+04 -3.455118E-10  3.760706E-11
       239  18  5.419580E+04 -1.920172E+05  2.010045E+03  1.164198E+05 -2.326680E-10 -5.731011E-10
       239  19 -2.364674E+05 -8.809581E+05 -2.526926E+05  1.671303E+05  5.426273E+03  1.118770E+05
       239  20 -9.400549E+04 -7.324315E+05 -1.403189E+05  1.070877E+05  1.531832E+04  6.128815E+04
       239  21 -4.778408E+04 -6.145616E+05 -8.497567E+04  8.846493E+04  1.197800E+04  1.069064E+04
       239  22 -1.178790E+05 -4.033608E+05 -1.374083E+05  1.024896E+05  5.406501E+03  9.209104E+04
       239  23 -1.060606E+04 -3.893857E+05 -6.644757E+04  8.175042E+04  1.531333E+04  5.734590E+04
       239  24  3.207103E+03 -4.033103E+05 -4.148068E+04  1.024401E+05  1.198471E+04  2.260393E+04
       239  25  7.086612E+02  7.445515E+04 -2.213673E+04  3.779892E+04  5.390865E+03  7.228988E+04
       239  26  7.278808E+04 -4.622780E+04  7.417219E+03  5.639891E+04  1.530868E+04  5.340148E+04
       239  27  5.419628E+04 -1.920159E+05  2.012555E+03  1.164201E+05  1.199194E+04  3.452121E+04
       240   1 -3.216856E+04 -5.131131E+05 -5.917941E+04  1.048823E+05 -6.349534E+03 -7.662993E+03
       240   2  4.126088E+03 -3.781254E+05 -2.448325E+04  8.159710E+04  1.107034E+03  6.307453E+03
       240   3  3.294399E+04 -2.468513E+05 -7.684044E+02  1.004105E+05  8.512926E+03  2.028096E+04
       240   4 -4.354609E+03 -3.979385E+05 -3.532746E+04  1.025988E+05 -6.354735E+03 -1.662758E+04
       240   5 -1.893230E+02 -3.960687E+05 -2.810910E+04  8.154902E+04  1.101943E+03 -2.596090E+03
       240   6 -3.510220E+03 -3.979396E+05 -3.191304E+04  1.025983E+05  8.507992E+03  1.143559E+04
       240   7  2.345856E+04 -2.827511E+05 -1.147594E+04  1.003150E+05 -6.359869E+03 -2.559380E+04
       240   8 -4.504712E+03 -4.140114E+05 -3.173466E+04  8.150094E+04  1.096853E+03 -1.149938E+04
       240   9 -3.996581E+04 -5.490060E+05 -6.305861E+04  1.047856E+05  8.502994E+03  2.592326E+03
       240  10 -3.216862E+04 -5.131132E+05 -5.917959E+04  1.048822E+05 -2.835200E-10 -1.655457E-10
       240  11  4.126076E+03 -3.781255E+05 -2.448333E+04  8.159709E+04 -2.307058E-10  3.491052E-10
       240  12  3.294380E+04 -2.468518E+05 -7.693137E+02  1.004104E+05 -2.978315E-12  8.921931E-10
       240  13 -4.354727E+03 -3.979388E+05 -3.532806E+04  1.025987E+05 -2.946479E-10  4.210431E-11
       240  14 -1.893261E+02 -3.960687E+05 -2.810911E+04  8.154902E+04  1.100382E-10 -2.443521E-10
       240  15 -3.510333E+03 -3.979398E+05 -3.191342E+04  1.025983E+05  5.072688E-10  6.071715E-11
       240  16  2.345834E+04 -2.827518E+05 -1.147724E+04  1.003148E+05 -1.557718E-10  2.614703E-10
       240  17 -4.504749E+03 -4.140116E+05 -3.173491E+04  8.150095E+04  9.858255E-11 -3.776262E-10
       240  18 -3.996589E+04 -5.490061E+05 -6.305875E+04  1.047856E+05  3.623967E-11 -9.669260E-10
       240  19 -3.216856E+04 -5.131131E+05 -5.917941E+04  1.048823E+05  6.349534E+03  7.662993E+03
       240  20  4.126088E+03 -3.781254E+05 -2.448325E+04  8.159710E+04 -1.107034E+03 -6.307453E+03
       240  21  3.294399E+04 -2.468513E+05 -7.684044E+02  1.004105E+05 -8.512926E+03 -2.028096E+04
       240  22 -4.354609E+03 -3.979385E+05 -3.532746E+04  1.025988E+05  6.354735E+03  1.662758E+04
       240  23 -1.893230E+02 -3.960687E+05 -2.810910E+04  8.154902E+04 -1.101943E+03  2.596090E+03
       240  24 -3.510220E+03 -3.979396E+05 -3.191304E+04  1.025983E+05 -8.507992E+03 -1.143559E+04
       240  25  2.345856E+04 -2.827511E+05 -1.147594E+04  1.003150E+05  6.359869E+03  2.559380E+04
       240  26 -4.504712E+03 -4.140114E+05 -3.173466E+04  8.150094E+04 -1.096853E+03  1.149938E+04
       240  27 -3.996581E+04 -5.490060E+05 -6.305861E+04  1.047856E+05 -8.502994E+03 -2.592326E+03
       241   1  6.226184E+04 -1.550297E+05  1.448540E+04  1.139219E+05  1.417455E+04  2.881063E+04
       241   2  8.331767E+04 -1.172547E+04  2.553075E+04  6.074026E+04  1.712169E+04  4.104274E+04
       241   3  3.001719E+04  1.114236E+05  1.002512E+04  4.892168E+04  5.926881E+03  5.328133E+04
       241   4  2.634017E+03 -4.022547E+05 -3.628300E+04  1.024289E+05  1.416780E+04  1.678914E+04
       241   5 -8.755171E+03 -3.907119E+05 -5.587107E+04  8.176324E+04  1.712605E+04  4.597547E+04
       241   6 -9.747399E+04 -4.023043E+05 -1.138015E+05  1.024676E+05  5.939729E+03  7.516483E+04
       241   7 -5.699709E+04 -6.494210E+05 -8.705405E+04  9.094044E+04  1.416149E+04  4.772346E+03
       241   8 -1.008357E+05 -7.695622E+05 -1.372810E+05  1.027732E+05  1.713075E+04  5.090523E+04
       241   9 -2.249734E+05 -9.157836E+05 -2.376436E+05  1.559690E+05  5.956361E+03  9.703026E+04
       241  10  6.226140E+04 -1.550307E+05  1.448346E+04  1.139216E+05 -1.181420E-10  5.713392E-11
       241  11  8.331690E+04 -1.172735E+04  2.552703E+04  6.073969E+04 -1.742186E-10  7.106899E-11
       241  12  3.001639E+04  1.114206E+05  1.001972E+04  4.892143E+04 -7.422119E-11  9.380053E-11
       241  13  2.633726E+03 -4.022551E+05 -3.628391E+04  1.024287E+05  4.913228E-11  1.013917E-10
       241  14 -8.756054E+03 -3.907142E+05 -5.587560E+04  8.176261E+04  2.194303E-10 -2.133855E-11
       241  15 -9.747555E+04 -4.023104E+05 -1.138122E+05  1.024672E+05 -1.311072E-10 -2.696641E-11
       241  16 -5.699731E+04 -6.494211E+05 -8.705447E+04  9.094039E+04  2.287537E-10  1.689570E-10
       241  17 -1.008368E+05 -7.695651E+05 -1.372864E+05  1.027725E+05  2.141217E-10  5.361694E-11
       241  18 -2.249760E+05 -9.157938E+05 -2.376614E+05  1.559685E+05 -4.465236E-11 -1.759262E-10
       241  19  6.226184E+04 -1.550297E+05  1.448540E+04  1.139219E+05 -1.417455E+04 -2.881063E+04
       241  20  8.331767E+04 -1.172547E+04  2.553075E+04  6.074026E+04 -1.712169E+04 -4.104274E+04
       241  21  3.001719E+04  1.114236E+05  1.002512E+04  4.892168E+04 -5.926881E+03 -5.328133E+04
       241  22  2.634017E+03 -4.022547E+05 -3.628300E+04  1.024289E+05 -1.416780E+04 -1.678914E+04
       241  23 -8.755171E+03 -3.907119E+05 -5.587107E+04  8.176324E+04 -1.712605E+04 -4.597547E+04
       241  24 -9.747399E+04 -4.023043E+05 -1.138015E+05  1.024676E+05 -5.939729E+03 -7.516483E+04
       241  25 -5.699709E+04 -6.494210E+05 -8.705405E+04  9.094044E+04 -1.416149E+04 -4.772346E+03
       241  26 -1.008357E+05 -7.695622E+05 -1.372810E+05  1.027732E+05 -1.713075E+04 -5.090523E+04
       241  27 -2.249734E+05 -9.157836E+05 -2.376436E+05  1.559690E+05 -5.956361E+03 -9.703026E+04
       242   1  4.783780E+05  3.792959E+05  1.062515E+05  3.376659E+05  6.021922E+04  4.534314E+04
       242   2  4.743555E+05  2.940226E+05  4.958809E+04  3.673489E+05  3.887302E+04  2.961731E+04
       242   3  5.133586E+05  2.627801E+05  2.889420E+04  3.711759E+05  1.779866E+04  1.352909E+04
       242   4  5.398162E+05  3.376081E+05  1.100858E+05  3.288037E+05  6.066045E+04  4.566605E+04
       242   5  5.007613E+05  2.794045E+05  5.166021E+04  3.650928E+05  3.887294E+04  2.961525E+04
       242   6  5.048245E+05  2.753215E+05  2.958327E+04  3.755268E+05  1.735899E+04  1.319999E+04
       242   7  6.012624E+05  2.959282E+05  1.139215E+05  3.199392E+05  6.110173E+04  4.598889E+04
       242   8  5.271684E+05  2.647876E+05  5.373253E+04  3.628364E+05  3.887286E+04  2.961320E+04
       242   9  4.962907E+05  2.878634E+05  3.027240E+04  3.798776E+05  1.691933E+04  1.287087E+04
       242  10  4.783736E+05  3.792927E+05  1.062408E+05  3.376637E+05 -4.285231E-10 -5.147275E-11
       242  11  4.743537E+05  2.940212E+05  4.958360E+04  3.673480E+05 -3.450852E-10  3.772750E-11
       242  12  5.133582E+05  2.627798E+05  2.889326E+04  3.711757E+05 -2.782580E-10  1.328239E-11
       242  13  5.398117E+05  3.376049E+05  1.100750E+05  3.288015E+05 -2.198363E-10 -1.350219E-12
       242  14  5.007595E+05  2.794032E+05  5.165573E+04  3.650919E+05 -1.677380E-10  9.900420E-12
       242  15  5.048241E+05  2.753212E+05  2.958237E+04  3.755266E+05 -2.541884E-10  1.033170E-10
       242  16  6.012579E+05  2.959249E+05  1.139105E+05  3.199369E+05  1.280144E-10  1.787061E-10
       242  17  5.271666E+05  2.647863E+05  5.372805E+04  3.628355E+05 -4.145028E-10  1.150409E-10
       242  18  4.962904E+05  2.878632E+05  3.027155E+04  3.798775E+05  3.516267E-10  1.250313E-10
       242  19  4.783780E+05  3.792959E+05  1.062515E+05  3.376659E+05 -6.021922E+04 -4.534314E+04
       242  20  4.743555E+05  2.940226E+05  4.958809E+04  3.673489E+05 -3.887302E+04 -2.961731E+04
       242  21  5.133586E+05  2.627801E+05  2.889420E+04  3.711759E+05 -1.779866E+04 -1.352909E+04
       242  22  5.398162E+05  3.376081E+05  1.100858E+05  3.288037E+05 -6.066045E+04 -4.566605E+04
       242  23  5.007613E+05  2.794045E+05  5.166021E+04  3.650928E+05 -3.887294E+04 -2.961525E+04
       242  24  5.048245E+05  2.753215E+05  2.958327E+04  3.755268E+05 -1.735899E+04 -1.319999E+04
       242  25  6.012624E+05  2.959282E+05  1.139215E+05  3.199392E+05 -6.110173E+04 -4.598889E+04
       242  26  5.271684E+05  2.647876E+05  5.373253E+04  3.628364E+05 -3.887286E+04 -2.961320E+04
       242  27  4.962907E+05  2.878634E+05  3.027240E+04  3.798776E+05 -1.691933E+04 -1.287087E+04
       243   1  5.039364E+05  2.795497E+05  2.351691E+04  3.711314E+05  1.464003E+04  1.083890E+04
       243   2  5.066430E+05  2.801785E+05  1.488060E+04  3.747752E+05  9.556336E+03  6.552553E+03
       243   3  5.135363E+05  2.816213E+05  1.139013E+04  3.770831E+05  4.487664E+03  2.246015E+03
       243   4  5.041669E+05  2.777014E+05  2.327541E+04  3.703077E+05  1.428673E+04  1.057399E+04
       243   5  5.013603E+05  2.760257E+05  1.336190E+04  3.719262E+05  9.178772E+03  6.269493E+03
       243   6  5.027454E+05  2.751693E+05  8.615106E+03  3.722087E+05  4.085971E+03  1.944878E+03
       243   7  5.043974E+05  2.758530E+05  2.303390E+04  3.694840E+05  1.393342E+04  1.030908E+04
       243   8  4.960775E+05  2.718730E+05  1.184319E+04  3.690772E+05  8.801213E+03  5.986437E+03
       243   9  4.919548E+05  2.687174E+05  5.840116E+03  3.673344E+05  3.684292E+03  1.643750E+03
       243  10  5.039362E+05  2.795495E+05  2.351629E+04  3.711313E+05 -5.316099E-10 -2.680920E-10
       243  11  5.066429E+05  2.801784E+05  1.488035E+04  3.747752E+05 -1.836160E-10 -3.054863E-11
       243  12  5.135363E+05  2.816213E+05  1.139008E+04  3.770831E+05  4.633109E-10  9.459215E-11
       243  13  5.041667E+05  2.777012E+05  2.327481E+04  3.703076E+05  9.335893E-11  2.016799E-11
       243  14  5.013602E+05  2.760256E+05  1.336167E+04  3.719262E+05 -6.154644E-10  3.749858E-11
       243  15  5.027454E+05  2.751693E+05  8.615067E+03  3.722087E+05  6.174789E-11  1.634562E-11
       243  16  5.043971E+05  2.758528E+05  2.303334E+04  3.694838E+05  2.913327E-10  3.524174E-10
       243  17  4.960774E+05  2.718729E+05  1.184298E+04  3.690771E+05 -4.160586E-10  1.504757E-10
       243  18  4.919548E+05  2.687174E+05  5.840085E+03  3.673344E+05 -5.797828E-11 -1.708697E-10
       243  19  5.039364E+05  2.795497E+05  2.351691E+04  3.711314E+05 -1.464003E+04 -1.083890E+04
       243  20  5.066430E+05  2.801785E+05  1.488060E+04  3.747752E+05 -9.556336E+03 -6.552553E+03
       243  21  5.135363E+05  2.816213E+05  1.139013E+04  3.770831E+05 -4.487664E+03 -2.246015E+03
       243  22  5.041669E+05  2.777014E+05  2.327541E+04  3.703077E+05 -1.428673E+04 -1.057399E+04
       243  23  5.013603E+05  2.760257E+05  1.336190E+04  3.719262E+05 -9.178772E+03 -6.269493E+03
       243  24  5.027454E+05  2.751693E+05  8.615106E+03  3.722087E+05 -4.085971E+03 -1.944878E+03
       243  25  5.043974E+05  2.758530E+05  2.303390E+04  3.694840E+05 -1.393342E+04 -1.030908E+04
       243  26  4.960775E+05  2.718730E+05  1.184319E+04  3.690772E+05 -8.801213E+03 -5.986437E+03
       243  27  4.919548E+05  2.687174E+05  5.840116E+03  3.673344E+05 -3.684292E+03 -1.643750E+03
       244   1  5.161537E+05  2.846087E+05  1.106626E+04  3.786507E+05  3.495690E+03  1.198247E+03
       244   2  5.194642E+05  2.887185E+05  1.133992E+04  3.812194E+05  1.216115E+03 -1.026186E+03
       244   3  5.251180E+05  2.912889E+05  1.374647E+04  3.833125E+05 -1.065496E+03 -3.247964E+03
       244   4  5.026672E+05  2.752369E+05  7.351470E+03  3.719560E+05  3.097635E+03  8.998289E+02
       244   5  5.014966E+05  2.760084E+05  6.371722E+03  3.721929E+05  8.213688E+02 -1.322132E+03
       244   6  5.026687E+05  2.752396E+05  7.522030E+03  3.719540E+05 -1.456923E+03 -3.541430E+03
       244   7  4.891809E+05  2.658653E+05  3.636661E+03  3.652615E+05  2.699591E+03  6.014194E+02
       244   8  4.835293E+05  2.632983E+05  1.403450E+03  3.631666E+05  4.266357E+02 -1.618068E+03
       244   9  4.802196E+05  2.591904E+05  1.297440E+03  3.605959E+05 -1.848337E+03 -3.834886E+03
       244  10  5.161537E+05  2.846087E+05  1.106623E+04  3.786507E+05 -4.312677E-10 -3.521735E-10
       244  11  5.194642E+05  2.887185E+05  1.133992E+04  3.812194E+05 -5.397041E-10 -4.070094E-11
       244  12  5.251180E+05  2.912889E+05  1.374645E+04  3.833125E+05 -3.774930E-10 -5.145221E-11
       244  13  5.026672E+05  2.752369E+05  7.351450E+03  3.719560E+05  2.932371E-10 -2.316719E-10
       244  14  5.014966E+05  2.760084E+05  6.371717E+03  3.721929E+05 -1.216157E-10  4.428380E-11
       244  15  5.026687E+05  2.752396E+05  7.522002E+03  3.719540E+05 -4.649464E-10  1.100505E-10
       244  16  4.891808E+05  2.658653E+05  3.636646E+03  3.652615E+05  7.404199E-10  1.630590E-10
       244  17  4.835293E+05  2.632983E+05  1.403445E+03  3.631666E+05 -1.495436E-10  9.666540E-11
       244  18  4.802196E+05  2.591904E+05  1.297406E+03  3.605959E+05 -3.486859E-11  2.947075E-10
       244  19  5.161537E+05  2.846087E+05  1.106626E+04  3.786507E+05 -3.495690E+03 -1.198247E+03
       244  20  5.194642E+05  2.887185E+05  1.133992E+04  3.812194E+05 -1.216115E+03  1.026186E+03
       244  21  5.251180E+05  2.912889E+05  1.374647E+04  3.833125E+05  1.065496E+03  3.247964E+03
       244  22  5.026672E+05  2.752369E+05  7.351470E+03  3.719560E+05 -3.097635E+03 -8.998289E+02
       244  23  5.014966E+05  2.760084E+05  6.371722E+03  3.721929E+05 -8.213688E+02  1.322132E+03
       244  24  5.026687E+05  2.752396E+05  7.522030E+03  3.719540E+05  1.456923E+03  3.541430E+03
       244  25  4.891809E+05  2.658653E+05  3.636661E+03  3.652615E+05 -2.699591E+03 -6.014194E+02
       244  26  4.835293E+05  2.632983E+05  1.403450E+03  3.631666E+05 -4.266357E+02  1.618068E+03
       244  27  4.802196E+05  2.591904E+05  1.297440E+03  3.605959E+05  1.848337E+03  3.834886E+03
       245   1  5.278913E+05  2.941731E+05  1.605244E+04  3.854146E+05 -2.064668E+03 -4.305059E+03
       245   2  5.320581E+05  2.972993E+05  2.235678E+04  3.871282E+05 -7.481455E+03 -8.840036E+03
       245   3  5.405445E+05  3.013812E+05  3.412117E+04  3.874664E+05 -1.295471E+04 -1.329967E+04
       245   4  5.027540E+05  2.751680E+05  8.884878E+03  3.722202E+05 -2.474176E+03 -4.612081E+03
       245   5  5.013471E+05  2.760236E+05  1.390590E+04  3.719140E+05 -7.800146E+03 -9.078992E+03
       245   6  5.042403E+05  2.778154E+05  2.430855E+04  3.702324E+05 -1.318255E+04 -1.347056E+04
       245   7  4.776176E+05  2.561635E+05  1.717370E+03  3.590266E+05 -2.883657E+03 -4.919081E+03
       245   8  4.706373E+05  2.547485E+05  5.455007E+03  3.567007E+05 -8.118814E+03 -9.317931E+03
       245   9  4.679376E+05  2.542502E+05  1.449582E+04  3.529994E+05 -1.341038E+04 -1.364144E+04
       245  10  5.278913E+05  2.941731E+05  1.605240E+04  3.854146E+05 -1.995247E-10 -5.793996E-11
       245  11  5.320580E+05  2.972992E+05  2.235652E+04  3.871282E+05  2.133163E-10 -1.168594E-10
       245  12  5.405442E+05  3.013809E+05  3.412053E+04  3.874663E+05  1.468454E-10 -5.644279E-11
       245  13  5.027540E+05  2.751680E+05  8.884826E+03  3.722202E+05 -3.204556E-10 -1.341386E-11
       245  14  5.013470E+05  2.760235E+05  1.390563E+04  3.719139E+05 -1.644758E-10 -1.440539E-10
       245  15  5.042400E+05  2.778152E+05  2.430789E+04  3.702322E+05  2.581096E-10 -1.790251E-10
       245  16  4.776176E+05  2.561635E+05  1.717309E+03  3.590265E+05 -6.290532E-11  2.115211E-10
       245  17  4.706372E+05  2.547484E+05  5.454720E+03  3.567006E+05  7.681685E-11 -9.398747E-11
       245  18  4.679373E+05  2.542500E+05  1.449513E+04  3.529993E+05  1.349704E-10 -2.562175E-10
       245  19  5.278913E+05  2.941731E+05  1.605244E+04  3.854146E+05  2.064668E+03  4.305059E+03
       245  20  5.320581E+05  2.972993E+05  2.235678E+04  3.871282E+05  7.481455E+03  8.840036E+03
       245  21  5.405445E+05  3.013812E+05  3.412117E+04  3.874664E+05  1.295471E+04  1.329967E+04
       245  22  5.027540E+05  2.751680E+05  8.884878E+03  3.722202E+05  2.474176E+03  4.612081E+03
       245  23  5.013471E+05  2.760236E+05  1.390590E+04  3.719140E+05  7.800146E+03  9.078992E+03
       245  24  5.042403E+05  2.778154E+05  2.430855E+04  3.702324E+05  1.318255E+04  1.347056E+04
       245  25  4.776176E+05  2.561635E+05  1.717370E+03  3.590266E+05  2.883657E+03  4.919081E+03
       245  26  4.706373E+05  2.547485E+05  5.455007E+03  3.567007E+05  8.118814E+03  9.317931E+03
       245  27  4.679376E+05  2.542502E+05  1.449582E+04  3.529994E+05  1.341038E+04  1.364144E+04
       246   1  5.319568E+05  3.138884E+05  4.164508E+04  3.982988E+05 -1.581825E+04 -1.582853E+04
       246   2  5.641137E+05  2.895588E+05  6.652648E+04  3.802974E+05 -4.027723E+04 -3.381424E+04
       246   3  6.416076E+05  3.223287E+05  1.308543E+05  3.352855E+05 -6.576529E+04 -5.042878E+04
       246   4  5.049175E+05  2.753377E+05  3.091819E+04  3.756962E+05 -1.637033E+04 -1.624196E+04
       246   5  5.007331E+05  2.795419E+05  5.402850E+04  3.647615E+05 -3.918177E+04 -3.299514E+04
       246   6  5.415274E+05  3.404902E+05  1.151594E+05  3.268171E+05 -6.301972E+04 -4.837921E+04
       246   7  4.778788E+05  2.367889E+05  2.019107E+04  3.530948E+05 -1.692238E+04 -1.665533E+04
       246   8  4.373578E+05  2.695256E+05  4.153058E+04  3.492265E+05 -3.808646E+04 -3.217605E+04
       246   9  4.414645E+05  3.586566E+05  9.946609E+04  3.183469E+05 -6.027483E+04 -4.632939E+04
       246  10  5.319565E+05  3.138881E+05  4.164414E+04  3.982986E+05  1.929156E-10 -1.011654E-10
       246  11  5.641117E+05  2.895571E+05  6.652129E+04  3.802963E+05 -1.967251E-10 -2.594372E-10
       246  12  6.416023E+05  3.223248E+05  1.308414E+05  3.352828E+05 -1.733327E-10 -2.395957E-10
       246  13  5.049171E+05  2.753374E+05  3.091720E+04  3.756959E+05  3.415895E-10 -1.912589E-10
       246  14  5.007312E+05  2.795403E+05  5.402358E+04  3.647605E+05 -1.573204E-10 -1.718948E-10
       246  15  5.415225E+05  3.404866E+05  1.151476E+05  3.268146E+05 -1.868509E-10 -1.158969E-10
       246  16  4.778784E+05  2.367885E+05  2.019001E+04  3.530945E+05  3.486200E-10 -2.818469E-10
       246  17  4.373559E+05  2.695241E+05  4.152591E+04  3.492255E+05  1.492931E-10 -3.655086E-11
       246  18  4.414600E+05  3.586533E+05  9.945524E+04  3.183447E+05  1.533035E-11  1.145076E-10
       246  19  5.319568E+05  3.138884E+05  4.164508E+04  3.982988E+05  1.581825E+04  1.582853E+04
       246  20  5.641137E+05  2.895588E+05  6.652648E+04  3.802974E+05  4.027723E+04  3.381424E+04
       246  21  6.416076E+05  3.223287E+05  1.308543E+05  3.352855E+05  6.576529E+04  5.042878E+04
       246  22  5.049175E+05  2.753377E+05  3.091819E+04  3.756962E+05  1.637033E+04  1.624196E+04
       246  23  5.007331E+05  2.795419E+05  5.402850E+04  3.647615E+05  3.918177E+04  3.299514E+04
       246  24  5.415274E+05  3.404902E+05  1.151594E+05  3.268171E+05  6.301972E+04  4.837921E+04
       246  25  4.778788E+05  2.367889E+05  2.019107E+04  3.530948E+05  1.692238E+04  1.665533E+04
       246  26  4.373578E+05  2.695256E+05  4.153058E+04  3.492265E+05  3.808646E+04  3.217605E+04
       246  27  4.414645E+05  3.586566E+05  9.946609E+04  3.183469E+05  6.027483E+04  4.632939E+04
       247   1  6.404481E+05  9.115996E+04  8.977797E+04  5.366258E+04  2.169409E+04 -4.199706E+03
       247   2  5.742144E+05  6.665191E+04  6.217889E+04  4.123261E+04  8.595065E+03 -1.276249E+04
       247   3  5.116712E+05  5.000794E+04  4.507028E+04  4.865570E+04 -4.501697E+03 -1.223713E+04
       247   4  3.030577E+05  7.514717E+03  8.756493E+03  4.953349E+04  5.951951E+03 -4.199632E+03
       247   5  3.021665E+05  6.682698E+02  4.172166E+03  3.960693E+04  3.768986E+03 -1.276312E+04
       247   6  3.030697E+05 -2.058815E+02  2.504179E+03  4.953361E+04  1.586841E+03 -1.223676E+04
       247   7 -3.422789E+04 -7.613860E+04 -7.227213E+04  4.540665E+04 -9.781671E+03 -4.199349E+03
       247   8  3.018835E+04 -6.532017E+04 -5.383874E+04  3.798196E+04 -1.055011E+03 -1.276372E+04
       247   9  9.450965E+04 -5.042240E+04 -4.006407E+04  5.041122E+04  7.673372E+03 -1.223637E+04
       247  10  6.404476E+05  9.115981E+04  8.977705E+04  5.366265E+04 -1.466122E-10  2.328291E-11
       247  11  5.742143E+05  6.665172E+04  6.217845E+04  4.123270E+04  1.547432E-10  5.048022E-11
       247  12  5.116711E+05  5.000778E+04  4.506996E+04  4.865566E+04  2.409760E-10 -1.179490E-10
       247  13  3.030577E+05  7.514689E+03  8.756393E+03  4.953351E+04 -4.200428E-12  6.476126E-11
       247  14  3.021665E+05  6.680910E+02  4.171833E+03  3.960696E+04 -1.685681E-10  1.149514E-10
       247  15  3.030697E+05 -2.060430E+02  2.503893E+03  4.953363E+04  3.424001E-10 -5.492228E-11
       247  16 -3.422799E+04 -7.613865E+04 -7.227234E+04  4.540662E+04 -4.883838E-11  4.489865E-11
       247  17  3.018830E+04 -6.532035E+04 -5.383905E+04  3.798195E+04 -1.884267E-10  2.136181E-10
       247  18  9.450954E+04 -5.042258E+04 -4.006447E+04  5.041130E+04 -1.513984E-10  2.010866E-11
       247  19  6.404481E+05  9.115996E+04  8.977797E+04  5.366258E+04 -2.169409E+04  4.199706E+03
       247  20  5.742144E+05  6.665191E+04  6.217889E+04  4.123261E+04 -8.595065E+03  1.276249E+04
       247  21  5.116712E+05  5.000794E+04  4.507028E+04  4.865570E+04  4.501697E+03  1.223713E+04
       247  22  3.030577E+05  7.514717E+03  8.756493E+03  4.953349E+04 -5.951951E+03  4.199632E+03
       247  23  3.021665E+05  6.682698E+02  4.172166E+03  3.960693E+04 -3.768986E+03  1.276312E+04
       247  24  3.030697E+05 -2.058815E+02  2.504179E+03  4.953361E+04 -1.586841E+03  1.223676E+04
       247  25 -3.422789E+04 -7.613860E+04 -7.227213E+04  4.540665E+04  9.781671E+03  4.199349E+03
       247  26  3.018835E+04 -6.532017E+04 -5.383874E+04  3.798196E+04  1.055011E+03  1.276372E+04
       247  27  9.450965E+04 -5.042240E+04 -4.006407E+04  5.041122E+04 -7.673372E+03  1.223637E+04
       248   1  4.648431E+05  3.933767E+04  3.519952E+04  4.976183E+04 -2.713421E+03 -9.440203E+03
       248   2  4.004585E+05  2.353155E+04  2.126594E+04  3.952708E+04 -4.002817E+03 -5.915013E+03
       248   3  3.363418E+05  8.113061E+03  8.267678E+03  4.960919E+04 -5.292469E+03 -1.913035E+03
       248   4  3.027108E+05  2.973090E+02  2.059098E+03  4.963668E+04  1.232953E+03 -9.439834E+03
       248   5  3.026309E+05  8.544004E+00  1.439418E+03  3.947818E+04  5.159384E+02 -5.914368E+03
       248   6  3.027148E+05  8.109269E+00  1.357688E+03  4.963673E+04 -2.014687E+02 -1.912065E+03
       248   7  1.406034E+05 -3.874469E+04 -3.108266E+04  4.951157E+04  5.178315E+03 -9.439466E+03
       248   8  2.048125E+05 -2.351505E+04 -1.838752E+04  3.942928E+04  5.033996E+03 -5.913723E+03
       248   9  2.690889E+05 -8.096900E+03 -5.552266E+03  4.966426E+04  4.889261E+03 -1.911094E+03
       248  10  4.648430E+05  3.933757E+04  3.519934E+04  4.976181E+04 -1.204474E-10 -3.034972E-10
       248  11  4.004584E+05  2.353151E+04  2.126584E+04  3.952706E+04 -7.368509E-11 -1.973706E-10
       248  12  3.363418E+05  8.113050E+03  8.267619E+03  4.960918E+04 -2.239577E-10 -4.586394E-11
       248  13  3.027107E+05  2.972129E+02  2.058928E+03  4.963669E+04  1.262271E-10 -1.114697E-10
       248  14  3.026309E+05  8.506365E+00  1.439352E+03  3.947818E+04  1.104982E-11 -1.944507E-10
       248  15  3.027148E+05  8.105331E+00  1.357681E+03  4.963673E+04  2.983723E-10 -1.480014E-10
       248  16  1.406034E+05 -3.874480E+04 -3.108287E+04  4.951161E+04  2.238542E-12 -2.693136E-11
       248  17  2.048124E+05 -2.351509E+04 -1.838763E+04  3.942931E+04  2.500214E-10 -2.940028E-10
       248  18  2.690889E+05 -8.096910E+03 -5.552318E+03  4.966427E+04  4.896757E-10 -3.634173E-11
       248  19  4.648431E+05  3.933767E+04  3.519952E+04  4.976183E+04  2.713421E+03  9.440203E+03
       248  20  4.004585E+05  2.353155E+04  2.126594E+04  3.952708E+04  4.002817E+03  5.915013E+03
       248  21  3.363418E+05  8.113061E+03  8.267678E+03  4.960919E+04  5.292469E+03  1.913035E+03
       248  22  3.027108E+05  2.973090E+02  2.059098E+03  4.963668E+04 -1.232953E+03  9.439834E+03
       248  23  3.026309E+05  8.544004E+00  1.439418E+03  3.947818E+04 -5.159384E+02  5.914368E+03
       248  24  3.027148E+05  8.109269E+00  1.357688E+03  4.963673E+04  2.014687E+02  1.912065E+03
       248  25  1.406034E+05 -3.874469E+04 -3.108266E+04  4.951157E+04 -5.178315E+03  9.439466E+03
       248  26  2.048125E+05 -2.351505E+04 -1.838752E+04  3.942928E+04 -5.033996E+03  5.913723E+03
       248  27  2.690889E+05 -8.096900E+03 -5.552266E+03  4.966426E+04 -4.889261E+03  1.911094E+03
       249   1  2.901946E+05 -3.050303E+03 -1.201396E+03  4.973214E+04 -5.535418E+03  5.923897E+02
       249   2  2.258725E+05 -1.843724E+04 -1.352813E+04  3.942803E+04 -6.023899E+03  4.604575E+03
       249   3  1.617140E+05 -3.342553E+04 -2.543868E+04  4.944190E+04 -6.512016E+03  8.170913E+03
       249   4  3.027349E+05 -9.045021E+00  1.468933E+03  4.963690E+04 -4.516648E+02  5.933747E+02
       249   5  3.026065E+05  2.102034E+01  2.051558E+03  3.947795E+04 -1.475613E+03  4.605285E+03
       249   6  3.027316E+05  5.430804E+02  3.422303E+03  4.963681E+04 -2.499254E+03  8.171386E+03
       249   7  3.152754E+05  3.032217E+03  4.139350E+03  4.954166E+04  4.632190E+03  5.943582E+02
       249   8  3.793462E+05  1.847893E+04  1.763102E+04  3.952787E+04  3.073224E+03  4.605996E+03
       249   9  4.437682E+05  3.451045E+04  3.228229E+04  4.983176E+04  1.514402E+03  8.171862E+03
       249  10  2.901946E+05 -3.050312E+03 -1.201455E+03  4.973214E+04  5.784447E-10  1.825566E-10
       249  11  2.258724E+05 -1.843728E+04 -1.352824E+04  3.942805E+04  1.606798E-10  8.789584E-13
       249  12  1.617139E+05 -3.342561E+04 -2.543889E+04  4.944194E+04 -1.700871E-10  4.059585E-11
       249  13  3.027349E+05 -9.045453E+00  1.468932E+03  4.963690E+04  1.262230E-10 -7.576121E-12
       249  14  3.026065E+05  2.099698E+01  2.051514E+03  3.947795E+04  2.685352E-10  1.074593E-11
       249  15  3.027316E+05  5.430070E+02  3.422165E+03  4.963682E+04  1.259419E-10  1.362911E-10
       249  16  3.152754E+05  3.032210E+03  4.139309E+03  4.954166E+04 -4.346962E-10 -1.283283E-10
       249  17  3.793462E+05  1.847890E+04  1.763096E+04  3.952786E+04 -1.846645E-10 -1.013789E-10
       249  18  4.437682E+05  3.451038E+04  3.228216E+04  4.983175E+04  1.566269E-11  5.073980E-11
       249  19  2.901946E+05 -3.050303E+03 -1.201396E+03  4.973214E+04  5.535418E+03 -5.923897E+02
       249  20  2.258725E+05 -1.843724E+04 -1.352813E+04  3.942803E+04  6.023899E+03 -4.604575E+03
       249  21  1.617140E+05 -3.342553E+04 -2.543868E+04  4.944190E+04  6.512016E+03 -8.170913E+03
       249  22  3.027349E+05 -9.045021E+00  1.468933E+03  4.963690E+04  4.516648E+02 -5.933747E+02
       249  23  3.026065E+05  2.102034E+01  2.051558E+03  3.947795E+04  1.475613E+03 -4.605285E+03
       249  24  3.027316E+05  5.430804E+02  3.422303E+03  4.963681E+04  2.499254E+03 -8.171386E+03
       249  25  3.152754E+05  3.032217E+03  4.139350E+03  4.954166E+04 -4.632190E+03 -5.943582E+02
       249  26  3.793462E+05  1.847893E+04  1.763102E+04  3.952787E+04 -3.073224E+03 -4.605996E+03
       249  27  4.437682E+05  3.451045E+04  3.228229E+04  4.983176E+04 -1.514402E+03 -8.171862E+03
       250   1  1.159401E+05 -4.550721E+04 -3.398488E+04  5.115456E+04 -9.118905E+03  1.094851E+04
       250   2  5.086065E+04 -5.966093E+04 -4.612035E+04  3.666473E+04 -2.753807E+03  1.169356E+04
       250   3 -1.277099E+04 -6.478339E+04 -6.013864E+04  4.205645E+04  3.610137E+03  3.880818E+03
       250   4  3.033891E+05 -3.669787E+02  4.311951E+03  4.953973E+04 -3.091549E+03  1.094905E+04
       250   5  3.017705E+05  1.227969E+03  7.459502E+03  3.959914E+04 -6.997147E+03  1.169294E+04
       250   6  3.033771E+05  1.363494E+04  1.585430E+04  4.953922E+04 -1.090327E+04  3.880691E+03
       250   7  4.908717E+05  4.477108E+04  4.260706E+04  4.792439E+04  2.937593E+03  1.094957E+04
       250   8  5.527397E+05  6.211281E+04  6.103579E+04  4.253475E+04 -1.124218E+04  1.169228E+04
       250   9  6.196172E+05  9.204632E+04  9.184095E+04  5.702581E+04 -2.542405E+04  3.880215E+03
       250  10  1.159399E+05 -4.550736E+04 -3.398526E+04  5.115464E+04 -2.938242E-11  1.289675E-10
       250  11  5.086060E+04 -5.966108E+04 -4.612063E+04  3.666476E+04 -2.670349E-10  3.865843E-11
       250  12 -1.277101E+04 -6.478341E+04 -6.013870E+04  4.205644E+04 -2.068047E-10  1.872042E-11
       250  13  3.033891E+05 -3.671100E+02  4.311708E+03  4.953975E+04 -2.304444E-10  3.951070E-11
       250  14  3.017704E+05  1.227810E+03  7.459153E+03  3.959920E+04  2.536641E-10  1.528191E-11
       250  15  3.033769E+05  1.363489E+04  1.585405E+04  4.953925E+04  5.660870E-10 -3.518942E-11
       250  16  4.908716E+05  4.477095E+04  4.260682E+04  4.792437E+04  1.469439E-10  2.392569E-10
       250  17  5.527395E+05  6.211263E+04  6.103530E+04  4.253485E+04 -5.711119E-12 -8.971667E-11
       250  18  6.196165E+05  9.204613E+04  9.183971E+04  5.702589E+04  2.203656E-10 -6.922495E-11
       250  19  1.159401E+05 -4.550721E+04 -3.398488E+04  5.115456E+04  9.118905E+03 -1.094851E+04
       250  20  5.086065E+04 -5.966093E+04 -4.612035E+04  3.666473E+04  2.753807E+03 -1.169356E+04
       250  21 -1.277099E+04 -6.478339E+04 -6.013864E+04  4.205645E+04 -3.610137E+03 -3.880818E+03
       250  22  3.033891E+05 -3.669787E+02  4.311951E+03  4.953973E+04  3.091549E+03 -1.094905E+04
       250  23  3.017705E+05  1.227969E+03  7.459502E+03  3.959914E+04  6.997147E+03 -1.169294E+04
       250  24  3.033771E+05  1.363494E+04  1.585430E+04  4.953922E+04  1.090327E+04 -3.880691E+03
       250  25  4.908717E+05  4.477108E+04  4.260706E+04  4.792439E+04 -2.937593E+03 -1.094957E+04
       250  26  5.527397E+05  6.211281E+04  6.103579E+04  4.253475E+04  1.124218E+04 -1.169228E+04
       250  27  6.196172E+05  9.204632E+04  9.184095E+04  5.702581E+04  2.542405E+04 -3.880215E+03
       251   1 -2.178596E+05 -7.839701E+05 -2.327388E+05  1.525667E+05 -5.039133E+03 -1.025706E+05
       251   2 -8.739949E+04 -6.487851E+05 -1.300386E+05  9.765962E+04 -1.430644E+04 -5.589834E+04
       251   3 -4.526969E+04 -5.417624E+05 -7.983425E+04  8.039725E+04 -1.135132E+04 -9.218140E+03
       251   4 -1.081516E+05 -3.421289E+05 -1.261159E+05  9.321083E+04 -5.023299E+03 -8.413915E+04
       251   5 -9.736496E+03 -3.293006E+05 -6.128252E+04  7.436645E+04 -1.430235E+04 -5.210429E+04
       251   6  2.915080E+03 -3.420877E+05 -3.875162E+04  9.317440E+04 -1.135638E+04 -2.007151E+04
       251   7  1.555549E+03  9.989938E+04 -1.950385E+04  3.381245E+04 -5.011003E+03 -6.569455E+04
       251   8  6.792185E+04 -9.718786E+03  7.467908E+03  5.106110E+04 -1.429854E+04 -4.830830E+04
       251   9  5.109801E+04 -1.423746E+05  2.329407E+03  1.059557E+05 -1.136189E+04 -3.092831E+04
       251  10 -2.178624E+05 -7.839814E+05 -2.327586E+05  1.525663E+05 -1.229543E-10 -2.006897E-10
       251  11 -8.740055E+04 -6.487885E+05 -1.300448E+05  9.765898E+04 -2.574169E-11  8.669586E-11
       251  12 -4.526985E+04 -5.417625E+05 -7.983465E+04  8.039717E+04 -1.984474E-10  3.562406E-10
       251  13 -1.081535E+05 -3.421365E+05 -1.261293E+05  9.321049E+04 -4.167507E-10 -1.691382E-10
       251  14 -9.737445E+03 -3.293035E+05 -6.128800E+04  7.436585E+04 -2.075214E-10  2.539812E-10
       251  15  2.914833E+03 -3.420882E+05 -3.875262E+04  9.317422E+04  1.013259E-13 -2.190436E-10
       251  16  1.554363E+03  9.989473E+04 -1.951200E+04  3.381218E+04 -1.901367E-10  1.987195E-10
       251  17  6.792100E+04 -9.721347E+03  7.463138E+03  5.106054E+04 -1.891996E-10  1.733711E-11
       251  18  5.109761E+04 -1.423757E+05  2.327367E+03  1.059554E+05  1.200273E-10 -4.659556E-10
       251  19 -2.178596E+05 -7.839701E+05 -2.327388E+05  1.525667E+05  5.039133E+03  1.025706E+05
       251  20 -8.739949E+04 -6.487851E+05 -1.300386E+05  9.765962E+04  1.430644E+04  5.589834E+04
       251  21 -4.526969E+04 -5.417624E+05 -7.983425E+04  8.039725E+04  1.135132E+04  9.218140E+03
       251  22 -1.081516E+05 -3.421289E+05 -1.261159E+05  9.321083E+04  5.023299E+03  8.413915E+04
       251  23 -9.736496E+03 -3.293006E+05 -6.128252E+04  7.436645E+04  1.430235E+04  5.210429E+04
       251  24  2.915080E+03 -3.420877E+05 -3.875162E+04  9.317440E+04  1.135638E+04  2.007151E+04
       251  25  1.555549E+03  9.989938E+04 -1.950385E+04  3.381245E+04  5.011003E+03  6.569455E+04
       251  26  6.792185E+04 -9.718786E+03  7.467908E+03  5.106110E+04  1.429854E+04  4.830830E+04
       251  27  5.109801E+04 -1.423746E+05  2.329407E+03  1.059557E+05  1.136189E+04  3.092831E+04
       252   1 -3.110124E+04 -4.495204E+05 -5.658783E+04  9.553160E+04 -6.228118E+03 -6.318054E+03
       252   2  1.892193E+03 -3.266647E+05 -2.573707E+04  7.419662E+04  5.393827E+02  7.379637E+03
       252   3  2.755897E+04 -2.074411E+05 -5.648529E+03  9.113524E+04  7.282293E+03  2.107997E+04
       252   4 -3.984761E+03 -3.372038E+05 -3.335898E+04  9.331960E+04 -6.232057E+03 -1.444281E+04
       252   5 -2.033619E+02 -3.353785E+05 -2.749784E+04  7.418252E+04  5.354908E+02 -7.153027E+02
       252   6 -3.752835E+03 -3.372044E+05 -3.241851E+04  9.331949E+04  7.278502E+03  1.301228E+04
       252   7  2.313097E+04 -2.248750E+05 -1.013056E+04  9.110720E+04 -6.235938E+03 -2.256900E+04
       252   8 -2.298887E+03 -3.440921E+05 -2.925836E+04  7.416842E+04  5.315992E+02 -8.810131E+03
       252   9 -3.506565E+04 -4.669515E+05 -5.918914E+04  9.550328E+04  7.274653E+03  4.946241E+03
       252  10 -3.110129E+04 -4.495205E+05 -5.658797E+04  9.553157E+04 -9.650975E-11 -8.337684E-11
       252  11  1.892178E+03 -3.266647E+05 -2.573717E+04  7.419662E+04 -1.060783E-11  2.933341E-10
       252  12  2.755880E+04 -2.074416E+05 -5.649464E+03  9.113511E+04  2.318870E-11  6.080978E-10
       252  13 -3.984859E+03 -3.372040E+05 -3.335944E+04  9.331953E+04 -1.258783E-10 -3.993204E-10
       252  14 -2.033624E+02 -3.353785E+05 -2.749784E+04  7.418252E+04  2.602673E-10  2.568328E-10
       252  15 -3.752937E+03 -3.372045E+05 -3.241892E+04  9.331942E+04  2.104156E-10 -1.613982E-10
       252  16  2.313080E+04 -2.248756E+05 -1.013159E+04  9.110708E+04  3.117388E-10  2.941439E-11
       252  17 -2.298908E+03 -3.440922E+05 -2.925851E+04  7.416842E+04  1.395936E-10 -1.259370E-10
       252  18 -3.506572E+04 -4.669515E+05 -5.918929E+04  9.550326E+04  1.003461E-10 -5.822236E-10
       252  19 -3.110124E+04 -4.495204E+05 -5.658783E+04  9.553160E+04  6.228118E+03  6.318054E+03
       252  20  1.892193E+03 -3.266647E+05 -2.573707E+04  7.419662E+04 -5.393827E+02 -7.379637E+03
       252  21  2.755897E+04 -2.074411E+05 -5.648529E+03  9.113524E+04 -7.282293E+03 -2.107997E+04
       252  22 -3.984761E+03 -3.372038E+05 -3.335898E+04  9.331960E+04  6.232057E+03  1.444281E+04
       252  23 -2.033619E+02 -3.353785E+05 -2.749784E+04  7.418252E+04 -5.354908E+02  7.153027E+02
       252  24 -3.752835E+03 -3.372044E+05 -3.241851E+04  9.331949E+04 -7.278502E+03 -1.301228E+04
       252  25  2.313097E+04 -2.248750E+05 -1.013056E+04  9.110720E+04  6.235938E+03  2.256900E+04
       252  26 -2.298887E+03 -3.440921E+05 -2.925836E+04  7.416842E+04 -5.315992E+02  8.810131E+03
       252  27 -3.506565E+04 -4.669515E+05 -5.918914E+04  9.550328E+04 -7.274653E+03 -4.946241E+03
       253   1  5.513506E+04 -1.246354E+05  7.294114E+03  1.052664E+05  1.242278E+04  2.937724E+04
       253   2  7.264412E+04  7.316081E+03  1.404139E+04  5.226033E+04  1.518033E+04  4.469682E+04
       253   3  1.149781E+04  1.176347E+05 -8.845941E+03  3.687269E+04  5.272506E+03  6.002215E+04
       253   4  2.756325E+03 -3.417972E+05 -3.731989E+04  9.316878E+04  1.241745E+04  1.846942E+04
       253   5 -9.228035E+03 -3.296670E+05 -5.836935E+04  7.437318E+04  1.518412E+04  4.897204E+04
       253   6 -1.025325E+05 -3.418387E+05 -1.196135E+05  9.320219E+04  5.283991E+03  7.947664E+04
       253   7 -4.962477E+04 -5.589136E+05 -8.193589E+04  8.107546E+04  1.241253E+04  7.565337E+03
       253   8 -9.110579E+04 -6.665423E+05 -1.307864E+05  9.647384E+04  1.518821E+04  5.324497E+04
       253   9 -2.165661E+05 -8.011114E+05 -2.303930E+05  1.494898E+05  5.299012E+03  9.891677E+04
       253  10  5.513467E+04 -1.246363E+05  7.292202E+03  1.052661E+05  1.113475E-10 -1.412282E-10
       253  11  7.264334E+04  7.313874E+03  1.403720E+04  5.225978E+04 -3.594078E-10 -9.898129E-12
       253  12  1.149681E+04  1.176309E+05 -8.852762E+03  3.687244E+04 -1.183111E-10  2.579812E-10
       253  13  2.756068E+03 -3.417976E+05 -3.732082E+04  9.316860E+04 -1.080944E-10 -3.300540E-10
       253  14 -9.228927E+03 -3.296697E+05 -5.837430E+04  7.437258E+04 -1.239048E-10  3.210925E-10
       253  15 -1.025342E+05 -3.418455E+05 -1.196254E+05  9.320185E+04 -1.417287E-11 -2.414254E-11
       253  16 -4.962495E+04 -5.589137E+05 -8.193628E+04  8.107538E+04 -1.559913E-10  2.715064E-10
       253  17 -9.110680E+04 -6.665454E+05 -1.307922E+05  9.647319E+04 -2.034029E-10  2.540630E-10
       253  18 -2.165688E+05 -8.011219E+05 -2.304114E+05  1.494894E+05  1.867345E-10 -2.854413E-10
       253  19  5.513506E+04 -1.246354E+05  7.294114E+03  1.052664E+05 -1.242278E+04 -2.937724E+04
       253  20  7.264412E+04  7.316081E+03  1.404139E+04  5.226033E+04 -1.518033E+04 -4.469682E+04
       253  21  1.149781E+04  1.176347E+05 -8.845941E+03  3.687269E+04 -5.272506E+03 -6.002215E+04
       253  22  2.756325E+03 -3.417972E+05 -3.731989E+04  9.316878E+04 -1.241745E+04 -1.846942E+04
       253  23 -9.228035E+03 -3.296670E+05 -5.836935E+04  7.437318E+04 -1.518412E+04 -4.897204E+04
       253  24 -1.025325E+05 -3.418387E+05 -1.196135E+05  9.320219E+04 -5.283991E+03 -7.947664E+04
       253  25 -4.962477E+04 -5.589136E+05 -8.193589E+04  8.107546E+04 -1.241253E+04 -7.565337E+03
       253  26 -9.110579E+04 -6.665423E+05 -1.307864E+05  9.647384E+04 -1.518821E+04 -5.324497E+04
       253  27 -2.165661E+05 -8.011114E+05 -2.303930E+05  1.494898E+05 -5.299012E+03 -9.891677E+04
       254   1  4.876043E+05  3.946874E+05  1.098081E+05  3.473681E+05  6.019292E+04  4.509469E+04
       254   2  4.789251E+05  3.049741E+05  5.154929E+04  3.734846E+05  3.871603E+04  2.892388E+04
       254   3  5.105004E+05  2.711884E+05  2.931718E+04  3.747404E+05  1.716666E+04  1.284951E+04
       254   4  5.339739E+05  3.432577E+05  1.088251E+05  3.315086E+05  6.009230E+04  4.501148E+04
       254   5  4.965608E+05  2.845235E+05  5.105130E+04  3.670343E+05  3.872623E+04  2.892958E+04
       254   6  4.993759E+05  2.816889E+05  2.920555E+04  3.776997E+05  1.728911E+04  1.294181E+04
       254   7  5.803504E+05  2.918365E+05  1.078435E+05  3.156471E+05  5.999167E+04  4.492829E+04
       254   8  5.141975E+05  2.640740E+05  5.055351E+04  3.605836E+05  3.873643E+04  2.893528E+04
       254   9  4.882517E+05  2.921900E+05  2.909399E+04  3.806589E+05  1.741155E+04  1.303411E+04
       254  10  4.875998E+05  3.946843E+05  1.097975E+05  3.473659E+05 -3.356024E-09 -2.194165E-09
       254  11  4.789233E+05  3.049728E+05  5.154491E+04  3.734837E+05  6.464627E-09  5.889406E-09
       254  12  5.105001E+05  2.711882E+05  2.931632E+04  3.747402E+05  1.554479E-08  1.390250E-08
       254  13  5.339695E+05  3.432545E+05  1.088145E+05  3.315064E+05 -2.453640E-10 -1.723645E-10
       254  14  4.965589E+05  2.845222E+05  5.104691E+04  3.670334E+05 -1.607077E-11  3.758067E-10
       254  15  4.993756E+05  2.816887E+05  2.920468E+04  3.776995E+05  9.552201E-10  2.515836E-09
       254  16  5.803460E+05  2.918334E+05  1.078330E+05  3.156450E+05  2.714764E-09  1.825875E-09
       254  17  5.141957E+05  2.640727E+05  5.054912E+04  3.605827E+05 -7.302203E-09 -5.323876E-09
       254  18  4.882513E+05  2.921897E+05  2.909311E+04  3.806588E+05 -1.362657E-08 -8.808560E-09
       254  19  4.876043E+05  3.946874E+05  1.098081E+05  3.473681E+05 -6.019292E+04 -4.509469E+04
       254  20  4.789251E+05  3.049741E+05  5.154929E+04  3.734846E+05 -3.871603E+04 -2.892388E+04
       254  21  5.105004E+05  2.711884E+05  2.931718E+04  3.747404E+05 -1.716666E+04 -1.284951E+04
       254  22  5.339739E+05  3.432577E+05  1.088251E+05  3.315086E+05 -6.009230E+04 -4.501148E+04
       254  23  4.965608E+05  2.845235E+05  5.105130E+04  3.670343E+05 -3.872623E+04 -2.892958E+04
       254  24  4.993759E+05  2.816889E+05  2.920555E+04  3.776997E+05 -1.728911E+04 -1.294181E+04
       254  25  5.803504E+05  2.918365E+05  1.078435E+05  3.156471E+05 -5.999167E+04 -4.492829E+04
       254  26  5.141975E+05  2.640740E+05  5.055351E+04  3.605836E+05 -3.873643E+04 -2.893528E+04
       254  27  4.882517E+05  2.921900E+05  2.909399E+04  3.806589E+05 -1.741155E+04 -1.303411E+04
       255   1  4.969980E+05  2.848159E+05  2.280589E+04  3.725997E+05  1.396240E+04  1.053774E+04
       255   2  4.950784E+05  2.801105E+05  1.260341E+04  3.729292E+05  8.655476E+03  6.693118E+03
       255   3  4.948699E+05  2.786429E+05  7.482233E+03  3.726449E+05  3.344725E+03  2.853906E+03
       255   4  4.987192E+05  2.840470E+05  2.295508E+04  3.725412E+05  1.406275E+04  1.061294E+04
       255   5  4.971619E+05  2.811781E+05  1.311123E+04  3.737873E+05  8.762141E+03  6.773091E+03
       255   6  4.973144E+05  2.815455E+05  8.343245E+03  3.744197E+05  3.457679E+03  2.938605E+03
       255   7  5.004403E+05  2.832782E+05  2.310427E+04  3.724826E+05  1.416309E+04  1.068813E+04
       255   8  4.992454E+05  2.822456E+05  1.361905E+04  3.746454E+05  8.868806E+03  6.853063E+03
       255   9  4.997589E+05  2.844480E+05  9.204255E+03  3.761945E+05  3.570634E+03  3.023305E+03
       255  10  4.969978E+05  2.848157E+05  2.280532E+04  3.725996E+05 -1.423111E-08 -8.841024E-09
       255  11  4.950783E+05  2.801105E+05  1.260318E+04  3.729292E+05 -6.992682E-09 -5.267040E-09
       255  12  4.948699E+05  2.786429E+05  7.482197E+03  3.726449E+05  3.463895E-09  1.680066E-09
       255  13  4.987189E+05  2.840468E+05  2.295450E+04  3.725410E+05  1.259354E-09  2.535566E-09
       255  14  4.971618E+05  2.811780E+05  1.311100E+04  3.737873E+05 -1.430674E-10  2.232884E-10
       255  15  4.973144E+05  2.815454E+05  8.343206E+03  3.744197E+05  4.121939E-11 -5.888956E-10
       255  16  5.004401E+05  2.832780E+05  2.310368E+04  3.724825E+05  1.605005E-08  1.399003E-08
       255  17  4.992453E+05  2.822455E+05  1.361881E+04  3.746454E+05  6.688213E-09  5.696249E-09
       255  18  4.997589E+05  2.844480E+05  9.204214E+03  3.761945E+05 -3.048021E-09 -2.839834E-09
       255  19  4.969980E+05  2.848159E+05  2.280589E+04  3.725997E+05 -1.396240E+04 -1.053774E+04
       255  20  4.950784E+05  2.801105E+05  1.260341E+04  3.729292E+05 -8.655476E+03 -6.693118E+03
       255  21  4.948699E+05  2.786429E+05  7.482233E+03  3.726449E+05 -3.344725E+03 -2.853906E+03
       255  22  4.987192E+05  2.840470E+05  2.295508E+04  3.725412E+05 -1.406275E+04 -1.061294E+04
       255  23  4.971619E+05  2.811781E+05  1.311123E+04  3.737873E+05 -8.762141E+03 -6.773091E+03
       255  24  4.973144E+05  2.815455E+05  8.343245E+03  3.744197E+05 -3.457679E+03 -2.938605E+03
       255  25  5.004403E+05  2.832782E+05  2.310427E+04  3.724826E+05 -1.416309E+04 -1.068813E+04
       255  26  4.992454E+05  2.822456E+05  1.361905E+04  3.746454E+05 -8.868806E+03 -6.853063E+03
       255  27  4.997589E+05  2.844480E+05  9.204255E+03  3.761945E+05 -3.570634E+03 -3.023305E+03
       256   1  4.932794E+05  2.786356E+05  5.912086E+03  3.720977E+05  2.212505E+03  2.090509E+03
       256   2  4.919694E+05  2.773734E+05  4.420788E+03  3.713625E+05 -1.923797E+02  4.323400E+02
       256   3  4.905146E+05  2.769981E+05  4.900537E+03  3.708624E+05 -2.596674E+03 -1.226661E+03
       256   4  4.972332E+05  2.816121E+05  7.038191E+03  3.741669E+05  2.324521E+03  2.174500E+03
       256   5  4.973041E+05  2.811659E+05  5.898963E+03  3.740513E+05 -8.137666E+01  5.155697E+02
       256   6  4.972304E+05  2.816069E+05  6.731641E+03  3.741708E+05 -2.486662E+03 -1.144174E+03
       256   7  5.011871E+05  2.845885E+05  8.164312E+03  3.762361E+05  2.436540E+03  2.258492E+03
       256   8  5.026389E+05  2.849585E+05  7.377135E+03  3.767401E+05  2.962767E+01  5.988003E+02
       256   9  5.039462E+05  2.862158E+05  8.562712E+03  3.774792E+05 -2.376650E+03 -1.061688E+03
       256  10  4.932794E+05  2.786356E+05  5.912069E+03  3.720977E+05  9.903312E-11 -6.823880E-10
       256  11  4.919694E+05  2.773734E+05  4.420787E+03  3.713625E+05  2.833597E-10 -3.697990E-10
       256  12  4.905146E+05  2.769981E+05  4.900521E+03  3.708624E+05 -3.277869E-11 -1.129063E-10
       256  13  4.972332E+05  2.816121E+05  7.038172E+03  3.741669E+05  9.627025E-10 -4.049069E-10
       256  14  4.973041E+05  2.811659E+05  5.898962E+03  3.740513E+05 -5.453093E-11 -2.153375E-10
       256  15  4.972304E+05  2.816069E+05  6.731627E+03  3.741708E+05  8.630960E-11  9.318745E-11
       256  16  5.011871E+05  2.845885E+05  8.164292E+03  3.762361E+05  8.656295E-10 -1.595951E-10
       256  17  5.026389E+05  2.849585E+05  7.377134E+03  3.767401E+05  3.755926E-10  1.146999E-10
       256  18  5.039462E+05  2.862158E+05  8.562700E+03  3.774792E+05 -2.116723E-10  2.574318E-10
       256  19  4.932794E+05  2.786356E+05  5.912086E+03  3.720977E+05 -2.212505E+03 -2.090509E+03
       256  20  4.919694E+05  2.773734E+05  4.420788E+03  3.713625E+05  1.923797E+02 -4.323400E+02
       256  21  4.905146E+05  2.769981E+05  4.900537E+03  3.708624E+05  2.596674E+03  1.226661E+03
       256  22  4.972332E+05  2.816121E+05  7.038191E+03  3.741669E+05 -2.324521E+03 -2.174500E+03
       256  23  4.973041E+05  2.811659E+05  5.898963E+03  3.740513E+05  8.137666E+01 -5.155697E+02
       256  24  4.972304E+05  2.816069E+05  6.731641E+03  3.741708E+05  2.486662E+03  1.144174E+03
       256  25  5.011871E+05  2.845885E+05  8.164312E+03  3.762361E+05 -2.436540E+03 -2.258492E+03
       256  26  5.026389E+05  2.849585E+05  7.377135E+03  3.767401E+05 -2.962767E+01 -5.988003E+02
       256  27  5.039462E+05  2.862158E+05  8.562712E+03  3.774792E+05  2.376650E+03  1.061688E+03
       257   1  4.891159E+05  2.768164E+05  5.761665E+03  3.707814E+05 -3.680160E+03 -1.952384E+03
       257   2  4.885480E+05  2.746963E+05  9.675293E+03  3.692975E+05 -8.562919E+03 -5.480341E+03
       257   3  4.894993E+05  2.755865E+05  1.825604E+04  3.672683E+05 -1.342948E+04 -9.030006E+03
       257   4  4.973006E+05  2.815450E+05  7.858274E+03  3.743986E+05 -3.564880E+03 -1.865944E+03
       257   5  4.971821E+05  2.811837E+05  1.213338E+04  3.738101E+05 -8.473735E+03 -5.413478E+03
       257   6  4.985884E+05  2.838384E+05  2.109815E+04  3.726764E+05 -1.336642E+04 -8.982767E+03
       257   7  5.054854E+05  2.862736E+05  9.954879E+03  3.780158E+05 -3.449598E+03 -1.779502E+03
       257   8  5.058163E+05  2.876712E+05  1.459148E+04  3.783228E+05 -8.384549E+03 -5.346613E+03
       257   9  5.076777E+05  2.920904E+05  2.394030E+04  3.780846E+05 -1.330337E+04 -8.935526E+03
       257  10  4.891158E+05  2.768164E+05  5.761633E+03  3.707814E+05 -1.228962E-10  6.690872E-11
       257  11  4.885479E+05  2.746962E+05  9.675099E+03  3.692975E+05  1.340165E-10  6.203608E-11
       257  12  4.894991E+05  2.755864E+05  1.825555E+04  3.672682E+05 -2.138043E-11  5.780639E-11
       257  13  4.973006E+05  2.815450E+05  7.858244E+03  3.743985E+05 -1.494461E-10  8.927170E-12
       257  14  4.971820E+05  2.811836E+05  1.213319E+04  3.738101E+05 -9.328231E-11  6.598999E-11
       257  15  4.985882E+05  2.838382E+05  2.109766E+04  3.726763E+05  1.695857E-10  1.011484E-10
       257  16  5.054854E+05  2.862736E+05  9.954850E+03  3.780158E+05 -4.284534E-10  6.305372E-11
       257  17  5.058163E+05  2.876711E+05  1.459130E+04  3.783228E+05 -2.333466E-10 -1.865570E-11
       257  18  5.076775E+05  2.920903E+05  2.393982E+04  3.780845E+05 -2.270022E-10  7.202533E-11
       257  19  4.891159E+05  2.768164E+05  5.761665E+03  3.707814E+05  3.680160E+03  1.952384E+03
       257  20  4.885480E+05  2.746963E+05  9.675293E+03  3.692975E+05  8.562919E+03  5.480341E+03
       257  21  4.894993E+05  2.755865E+05  1.825604E+04  3.672683E+05  1.342948E+04  9.030006E+03
       257  22  4.973006E+05  2.815450E+05  7.858274E+03  3.743986E+05  3.564880E+03  1.865944E+03
       257  23  4.971821E+05  2.811837E+05  1.213338E+04  3.738101E+05  8.473735E+03  5.413478E+03
       257  24  4.985884E+05  2.838384E+05  2.109815E+04  3.726764E+05  1.336642E+04  8.982767E+03
       257  25  5.054854E+05  2.862736E+05  9.954879E+03  3.780158E+05  3.449598E+03  1.779502E+03
       257  26  5.058163E+05  2.876712E+05  1.459148E+04  3.783228E+05  8.384549E+03  5.346613E+03
       257  27  5.076777E+05  2.920904E+05  2.394030E+04  3.780846E+05  1.330337E+04  8.935526E+03
       258   1  4.782406E+05  2.836814E+05  2.370837E+04  3.747094E+05 -1.649879E+04 -1.122407E+04
       258   2  5.019191E+05  2.578244E+05  4.319494E+04  3.562741E+05 -3.558905E+04 -2.563912E+04
       258   3  5.623235E+05  2.831151E+05  9.519624E+04  3.150717E+05 -5.438537E+04 -4.044522E+04
       258   4  4.991929E+05  2.816738E+05  2.680642E+04  3.774008E+05 -1.634281E+04 -1.110671E+04
       258   5  4.966286E+05  2.842553E+05  4.679435E+04  3.676243E+05 -3.590478E+04 -2.587747E+04
       258   6  5.308893E+05  3.380834E+05  9.970584E+04  3.350817E+05 -5.517170E+04 -4.104120E+04
       258   7  5.201457E+05  2.796663E+05  2.990446E+04  3.800920E+05 -1.618682E+04 -1.098936E+04
       258   8  4.913388E+05  3.106877E+05  5.039390E+04  3.789745E+05 -3.622051E+04 -2.611585E+04
       258   9  4.994600E+05  3.930603E+05  1.042166E+05  3.550906E+05 -5.595796E+04 -4.163731E+04
       258  10  4.782402E+05  2.836812E+05  2.370763E+04  3.747093E+05 -1.276115E-10  4.634268E-11
       258  11  5.019176E+05  2.578234E+05  4.319133E+04  3.562734E+05 -2.670697E-10  1.556017E-10
       258  12  5.623199E+05  2.831125E+05  9.518762E+04  3.150700E+05  1.542357E-10  1.859781E-10
       258  13  4.991926E+05  2.816735E+05  2.680569E+04  3.774006E+05 -6.185316E-10  5.177988E-11
       258  14  4.966271E+05  2.842543E+05  4.679067E+04  3.676236E+05  1.211567E-10  1.874832E-10
       258  15  5.308856E+05  3.380808E+05  9.969697E+04  3.350799E+05 -2.780905E-11  8.998489E-11
       258  16  5.201454E+05  2.796661E+05  2.990374E+04  3.800919E+05 -1.437828E-10  2.164315E-10
       258  17  4.913372E+05  3.106867E+05  5.039015E+04  3.789737E+05 -2.680648E-10  8.773620E-11
       258  18  4.994562E+05  3.930576E+05  1.042075E+05  3.550887E+05 -2.224809E-10 -7.875367E-11
       258  19  4.782406E+05  2.836814E+05  2.370837E+04  3.747094E+05  1.649879E+04  1.122407E+04
       258  20  5.019191E+05  2.578244E+05  4.319494E+04  3.562741E+05  3.558905E+04  2.563912E+04
       258  21  5.623235E+05  2.831151E+05  9.519624E+04  3.150717E+05  5.438537E+04  4.044522E+04
       258  22  4.991929E+05  2.816738E+05  2.680642E+04  3.774008E+05  1.634281E+04  1.110671E+04
       258  23  4.966286E+05  2.842553E+05  4.679435E+04  3.676243E+05  3.590478E+04  2.587747E+04
       258  24  5.308893E+05  3.380834E+05  9.970584E+04  3.350817E+05  5.517170E+04  4.104120E+04
       258  25  5.201457E+05  2.796663E+05  2.990446E+04  3.800920E+05  1.618682E+04  1.098936E+04
       258  26  4.913388E+05  3.106877E+05  5.039390E+04  3.789745E+05  3.622051E+04  2.611585E+04
       258  27  4.994600E+05  3.930603E+05  1.042166E+05  3.550906E+05  5.595796E+04  4.163731E+04
       259   1  4.674987E+05  5.316050E+04  5.471940E+04  2.850150E+04  2.026427E+04 -1.872682E+03
       259   2  4.399479E+05  3.098406E+04  3.510249E+04  1.906387E+04  1.070597E+04 -5.762142E+03
       259   3  4.171527E+05  2.283849E+04  2.521332E+04  1.736618E+04  1.148576E+03 -5.713619E+03
       259   4  3.203496E+05  1.668365E+04  1.941114E+04  1.934598E+04  1.322790E+04 -1.872598E+03
       259   5  3.183843E+05  1.506862E+03  9.226309E+03  1.547580E+04  8.398913E+03 -5.762217E+03
       259   6  3.203542E+05 -4.582799E+02  5.487649E+03  1.934532E+04  3.570336E+03 -5.713678E+03
       259   7  1.732207E+05 -1.979444E+04 -1.589843E+04  1.019263E+04  6.193184E+03 -1.872305E+03
       259   8  1.968347E+05 -2.797124E+04 -1.665069E+04  1.188844E+04  6.092304E+03 -5.762266E+03
       259   9  2.235645E+05 -2.375562E+04 -1.423849E+04  2.132414E+04  5.991726E+03 -5.713722E+03
       259  10  4.674983E+05  5.316039E+04  5.471862E+04  2.850153E+04 -1.272207E-10 -3.940738E-12
       259  11  4.399478E+05  3.098399E+04  3.510221E+04  1.906392E+04 -2.141333E-10 -3.397640E-11
       259  12  4.171527E+05  2.283846E+04  2.521325E+04  1.736619E+04  2.918799E-11 -1.990645E-11
       259  13  3.203494E+05  1.668360E+04  1.941080E+04  1.934600E+04 -2.552311E-10  8.445699E-11
       259  14  3.183843E+05  1.506808E+03  9.226114E+03  1.547584E+04 -4.590977E-10  5.615355E-11
       259  15  3.203541E+05 -4.583184E+02  5.487564E+03  1.934533E+04 -7.791370E-11 -3.569499E-11
       259  16  1.732206E+05 -1.979445E+04 -1.589851E+04  1.019264E+04 -1.257687E-10  2.233009E-12
       259  17  1.968347E+05 -2.797129E+04 -1.665082E+04  1.188847E+04  3.877900E-11  6.001488E-11
       259  18  2.235645E+05 -2.375566E+04 -1.423862E+04  2.132416E+04  5.387601E-11  1.373853E-11
       259  19  4.674987E+05  5.316050E+04  5.471940E+04  2.850150E+04 -2.026427E+04  1.872682E+03
       259  20  4.399479E+05  3.098406E+04  3.510249E+04  1.906387E+04 -1.070597E+04  5.762142E+03
       259  21  4.171527E+05  2.283849E+04  2.521332E+04  1.736618E+04 -1.148576E+03  5.713619E+03
       259  22  3.203496E+05  1.668365E+04  1.941114E+04  1.934598E+04 -1.322790E+04  1.872598E+03
       259  23  3.183843E+05  1.506862E+03  9.226309E+03  1.547580E+04 -8.398913E+03  5.762217E+03
       259  24  3.203542E+05 -4.582799E+02  5.487649E+03  1.934532E+04 -3.570336E+03  5.713678E+03
       259  25  1.732207E+05 -1.979444E+04 -1.589843E+04  1.019263E+04 -6.193184E+03  1.872305E+03
       259  26  1.968347E+05 -2.797124E+04 -1.665069E+04  1.188844E+04 -6.092304E+03  5.762266E+03
       259  27  2.235645E+05 -2.375562E+04 -1.423849E+04  2.132414E+04 -5.991726E+03  5.713722E+03
       260   1  3.981809E+05  1.957702E+04  2.052795E+04  1.963288E+04  1.307515E+03 -4.606664E+03
       260   2  3.728700E+05  1.286180E+04  1.385910E+04  1.550043E+04 -4.566032E+02 -3.258333E+03
       260   3  3.479565E+05  6.813690E+03  8.505065E+03  1.930843E+04 -2.220756E+03 -1.701231E+03
       260   4  3.195586E+05  6.492410E+02  4.479412E+03  1.939011E+04  2.800773E+03 -4.606687E+03
       260   5  3.193823E+05  4.222443E+00  3.037999E+03  1.541988E+04  1.287443E+03 -3.258309E+03
       260   6  3.195596E+05 -1.703738E+01  2.737543E+03  1.939013E+04 -2.259852E+02 -1.701151E+03
       260   7  2.409422E+05 -1.827892E+04 -1.156944E+04  1.914738E+04  4.293845E+03 -4.606710E+03
       260   8  2.658973E+05 -1.285354E+04 -7.783241E+03  1.533933E+04  3.031342E+03 -3.258285E+03
       260   9  2.911636E+05 -6.847813E+03 -3.030007E+03  1.947182E+04  1.768696E+03 -1.701070E+03
       260  10  3.981809E+05  1.957699E+04  2.052791E+04  1.963288E+04 -4.946273E-10 -1.909681E-11
       260  11  3.728700E+05  1.286179E+04  1.385908E+04  1.550043E+04  1.511446E-10  8.070864E-12
       260  12  3.479565E+05  6.813685E+03  8.505050E+03  1.930843E+04 -4.233884E-11  5.738234E-11
       260  13  3.195586E+05  6.492161E+02  4.479357E+03  1.939012E+04  2.666673E-10 -1.812920E-12
       260  14  3.193823E+05  4.210596E+00  3.037976E+03  1.541988E+04  2.396329E-10  3.841313E-11
       260  15  3.195596E+05 -1.704050E+01  2.737537E+03  1.939013E+04  8.268603E-11 -3.086814E-12
       260  16  2.409422E+05 -1.827895E+04 -1.156952E+04  1.914739E+04  9.648853E-11 -9.403718E-12
       260  17  2.658973E+05 -1.285355E+04 -7.783278E+03  1.533934E+04  3.411378E-10  8.298935E-12
       260  18  2.911636E+05 -6.847817E+03 -3.030018E+03  1.947183E+04 -2.288492E-13 -4.247078E-11
       260  19  3.981809E+05  1.957702E+04  2.052795E+04  1.963288E+04 -1.307515E+03  4.606664E+03
       260  20  3.728700E+05  1.286180E+04  1.385910E+04  1.550043E+04  4.566032E+02  3.258333E+03
       260  21  3.479565E+05  6.813690E+03  8.505065E+03  1.930843E+04  2.220756E+03  1.701231E+03
       260  22  3.195586E+05  6.492410E+02  4.479412E+03  1.939011E+04 -2.800773E+03  4.606687E+03
       260  23  3.193823E+05  4.222443E+00  3.037999E+03  1.541988E+04 -1.287443E+03  3.258309E+03
       260  24  3.195596E+05 -1.703738E+01  2.737543E+03  1.939013E+04  2.259852E+02  1.701151E+03
       260  25  2.409422E+05 -1.827892E+04 -1.156944E+04  1.914738E+04 -4.293845E+03  4.606710E+03
       260  26  2.658973E+05 -1.285354E+04 -7.783241E+03  1.533933E+04 -3.031342E+03  3.258285E+03
       260  27  2.911636E+05 -6.847813E+03 -3.030007E+03  1.947182E+04 -1.768696E+03  1.701070E+03
       261   1  3.299431E+05  2.432705E+03  4.922819E+03  1.956761E+04 -2.705480E+03 -7.220978E+02
       261   2  3.046109E+05 -3.527851E+03  9.114636E+02  1.533559E+04 -4.482116E+03  8.527955E+02
       261   3  2.797325E+05 -8.600342E+03 -1.721676E+03  1.904483E+04 -6.258665E+03  2.275918E+03
       261   4  3.195889E+05 -4.209843E+01  2.899258E+03  1.939030E+04 -7.237071E+02 -7.220063E+02
       261   5  3.193462E+05  2.141655E+01  3.927589E+03  1.541966E+04 -2.682611E+03  8.528641E+02
       261   6  3.195883E+05  1.004631E+03  6.460613E+03  1.939026E+04 -4.641497E+03  2.275966E+03
       261   7  3.092349E+05 -2.516906E+03  8.757066E+02  1.921299E+04  1.258034E+03 -7.219160E+02
       261   8  3.340817E+05  3.570672E+03  6.943714E+03  1.550373E+04 -8.830640E+02  8.529331E+02
       261   9  3.594456E+05  1.060951E+04  1.464283E+04  1.973571E+04 -3.024227E+03  2.276016E+03
       261  10  3.299431E+05  2.432703E+03  4.922805E+03  1.956760E+04  2.430271E-10  9.741799E-11
       261  11  3.046109E+05 -3.527857E+03  9.114245E+02  1.533559E+04  1.562631E-10 -2.087353E-11
       261  12  2.797325E+05 -8.600358E+03 -1.721759E+03  1.904484E+04  1.351563E-11 -8.449369E-11
       261  13  3.195889E+05 -4.209913E+01  2.899256E+03  1.939030E+04  2.776950E-10  9.353697E-12
       261  14  3.193462E+05  2.141383E+01  3.927574E+03  1.541966E+04  1.934329E-10 -4.741499E-11
       261  15  3.195883E+05  1.004620E+03  6.460563E+03  1.939026E+04 -1.822032E-10 -1.665135E-10
       261  16  3.092349E+05 -2.516907E+03  8.757026E+02  1.921299E+04  1.862671E-11 -6.916412E-11
       261  17  3.340817E+05  3.570671E+03  6.943711E+03  1.550373E+04 -2.134791E-11 -7.870625E-11
       261  18  3.594456E+05  1.060950E+04  1.464280E+04  1.973571E+04 -9.088120E-11 -1.864910E-10
       261  19  3.299431E+05  2.432705E+03  4.922819E+03  1.956761E+04  2.705480E+03  7.220978E+02
       261  20  3.046109E+05 -3.527851E+03  9.114636E+02  1.533559E+04  4.482116E+03 -8.527955E+02
       261  21  2.797325E+05 -8.600342E+03 -1.721676E+03  1.904483E+04  6.258665E+03 -2.275918E+03
       261  22  3.195889E+05 -4.209843E+01  2.899258E+03  1.939030E+04  7.237071E+02  7.220063E+02
       261  23  3.193462E+05  2.141655E+01  3.927589E+03  1.541966E+04  2.682611E+03 -8.528641E+02
       261  24  3.195883E+05  1.004631E+03  6.460613E+03  1.939026E+04  4.641497E+03 -2.275966E+03
       261  25  3.092349E+05 -2.516906E+03  8.757066E+02  1.921299E+04 -1.258034E+03  7.219160E+02
       261  26  3.340817E+05  3.570672E+03  6.943714E+03  1.550373E+04  8.830640E+02 -8.529331E+02
       261  27  3.594456E+05  1.060951E+04  1.464283E+04  1.973571E+04  3.024227E+03 -2.276016E+03
       262   1  2.628300E+05 -1.466354E+04 -3.761637E+03  2.240704E+04 -8.070546E+03  3.347519E+03
       262   2  2.349824E+05 -1.778899E+04 -3.730229E+03  9.972342E+03 -1.185231E+04  3.795972E+03
       262   3  2.125381E+05 -1.282506E+03  3.671273E+03  5.328577E+03 -1.563393E+04  1.286561E+03
       262   4  3.208179E+05 -6.945672E+02  8.115031E+03  1.935670E+04 -5.757473E+03  3.347607E+03
       262   5  3.178066E+05  2.317569E+03  1.400374E+04  1.546149E+04 -1.309063E+04  3.795821E+03
       262   6  3.208126E+05  2.557613E+04  2.972698E+04  1.935676E+04 -2.042378E+04  1.286244E+03
       262   7  3.788091E+05  1.327423E+04  1.999155E+04  1.630607E+04 -3.444188E+03  3.347672E+03
       262   8  4.006373E+05  2.242379E+04  3.173734E+04  2.095139E+04 -1.432912E+04  3.795647E+03
       262   9  4.290983E+05  5.243467E+04  5.578204E+04  3.338739E+04 -2.521447E+04  1.285711E+03
       262  10  2.628299E+05 -1.466356E+04 -3.761780E+03  2.240706E+04  4.187336E-10 -2.004738E-10
       262  11  2.349823E+05 -1.778904E+04 -3.730520E+03  9.972378E+03  6.918925E-11 -2.998618E-10
       262  12  2.125378E+05 -1.282573E+03  3.670810E+03  5.328593E+03 -2.470714E-10 -1.209348E-10
       262  13  3.208179E+05 -6.945882E+02  8.114948E+03  1.935671E+04 -8.428568E-11 -2.187170E-10
       262  14  3.178064E+05  2.317508E+03  1.400340E+04  1.546153E+04 -7.040132E-11 -2.057898E-10
       262  15  3.208122E+05  2.557602E+04  2.972619E+04  1.935678E+04 -2.011473E-11 -7.484626E-11
       262  16  3.788091E+05  1.327421E+04  1.999150E+04  1.630608E+04 -1.269347E-10 -2.295951E-10
       262  17  4.006371E+05  2.242372E+04  3.173693E+04  2.095143E+04  1.804560E-10 -1.493799E-10
       262  18  4.290976E+05  5.243449E+04  5.578084E+04  3.338742E+04  1.711291E-10 -5.172368E-11
       262  19  2.628300E+05 -1.466354E+04 -3.761637E+03  2.240704E+04  8.070546E+03 -3.347519E+03
       262  20  2.349824E+05 -1.778899E+04 -3.730229E+03  9.972342E+03  1.185231E+04 -3.795972E+03
       262  21  2.125381E+05 -1.282506E+03  3.671273E+03  5.328577E+03  1.563393E+04 -1.286561E+03
       262  22  3.208179E+05 -6.945672E+02  8.115031E+03  1.935670E+04  5.757473E+03 -3.347607E+03
       262  23  3.178066E+05  2.317569E+03  1.400374E+04  1.546149E+04  1.309063E+04 -3.795821E+03
       262  24  3.208126E+05  2.557613E+04  2.972698E+04  1.935676E+04  2.042378E+04 -1.286244E+03
       262  25  3.788091E+05  1.327423E+04  1.999155E+04  1.630607E+04  3.444188E+03 -3.347672E+03
       262  26  4.006373E+05  2.242379E+04  3.173734E+04  2.095139E+04  1.432912E+04 -3.795647E+03
       262  27  4.290983E+05  5.243467E+04  5.578204E+04  3.338739E+04  2.521447E+04 -1.285711E+03
       263   1 -1.641283E+05 -5.146147E+05 -1.696071E+05  1.165804E+05 -5.255401E+03 -5.946073E+04
       263   2 -8.630645E+04 -3.928656E+05 -1.020351E+05  8.148305E+04 -1.523523E+04 -2.896648E+04
       263   3 -5.235372E+04 -2.860425E+05 -6.529457E+04  8.186030E+04 -1.280841E+04  1.532081E+03
       263   4 -5.203536E+04 -6.305802E+04 -6.077226E+04  8.802010E+04 -5.247027E+03 -4.005613E+04
       263   5 -4.673693E+03 -5.687193E+04 -2.990898E+04  7.027343E+04 -1.523251E+04 -2.443091E+04
       263   6  1.415075E+03 -6.303281E+04 -1.953610E+04  8.800397E+04 -1.281267E+04 -8.807584E+03
       263   7  6.004595E+04  3.886879E+05  4.804982E+04  5.943889E+04 -5.240443E+03 -2.063746E+04
       263   8  7.695215E+04  2.792283E+05  4.221070E+04  5.905764E+04 -1.522995E+04 -1.989293E+04
       263   9  5.518094E+04  1.600245E+05  2.622014E+04  9.414987E+04 -1.281713E+04 -1.915090E+04
       263  10 -1.641292E+05 -5.146186E+05 -1.696138E+05  1.165802E+05  4.808749E-11 -5.293566E-11
       263  11 -8.630693E+04 -3.928666E+05 -1.020371E+05  8.148269E+04  1.348069E-12  2.433480E-10
       263  12 -5.235389E+04 -2.860426E+05 -6.529488E+04  8.186032E+04  2.070920E-10 -8.435164E-11
       263  13 -5.203582E+04 -6.305975E+04 -6.077533E+04  8.801993E+04  1.767625E-10 -3.122150E-11
       263  14 -4.674103E+03 -5.687263E+04 -2.991053E+04  7.027313E+04 -3.549261E-11 -1.908780E-11
       263  15  1.414878E+03 -6.303294E+04 -1.953656E+04  8.800388E+04  6.937100E-11  7.737934E-11
       263  16  6.004581E+04  3.886874E+05  4.804897E+04  5.943881E+04  1.013432E-10 -9.826048E-11
       263  17  7.695180E+04  2.792278E+05  4.220952E+04  5.905739E+04  3.683055E-11  1.891556E-10
       263  18  5.518066E+04  1.600240E+05  2.621914E+04  9.414968E+04  2.198398E-10 -4.145654E-10
       263  19 -1.641283E+05 -5.146147E+05 -1.696071E+05  1.165804E+05  5.255401E+03  5.946073E+04
       263  20 -8.630645E+04 -3.928656E+05 -1.020351E+05  8.148305E+04  1.523523E+04  2.896648E+04
       263  21 -5.235372E+04 -2.860425E+05 -6.529457E+04  8.186030E+04  1.280841E+04 -1.532081E+03
       263  22 -5.203536E+04 -6.305802E+04 -6.077226E+04  8.802010E+04  5.247027E+03  4.005613E+04
       263  23 -4.673693E+03 -5.687193E+04 -2.990898E+04  7.027343E+04  1.523251E+04  2.443091E+04
       263  24  1.415075E+03 -6.303281E+04 -1.953610E+04  8.800397E+04  1.281267E+04  8.807584E+03
       263  25  6.004595E+04  3.886879E+05  4.804982E+04  5.943889E+04  5.240443E+03  2.063746E+04
       263  26  7.695215E+04  2.792283E+05  4.221070E+04  5.905764E+04  1.522995E+04  1.989293E+04
       263  27  5.518094E+04  1.600245E+05  2.622014E+04  9.414987E+04  1.281713E+04  1.915090E+04
       264   1 -3.575560E+04 -2.013013E+05 -4.619856E+04  8.932831E+04 -7.947834E+03  1.633582E+03
       264   2 -6.429454E+03 -8.607214E+04 -2.073474E+04  7.005792E+04 -1.616096E+03  9.415125E+03
       264   3  1.878267E+04  2.710003E+04 -1.374408E+03  8.689217E+04  4.789668E+03  1.719783E+04
       264   4 -1.853083E+03 -6.073958E+04 -1.726242E+04  8.814648E+04 -7.951283E+03 -5.914935E+03
       264   5 -9.194079E+01 -5.971160E+04 -1.541014E+04  7.009422E+04 -1.619658E+03  1.777982E+03
       264   6 -2.428571E+03 -6.073771E+04 -1.959912E+04  8.814675E+04  4.785981E+03  9.470689E+03
       264   7  3.204823E+04  7.984104E+04  1.167287E+04  8.696437E+04 -7.954702E+03 -1.346513E+04
       264   8  6.245561E+03 -3.335028E+04 -1.008536E+04  7.013052E+04 -1.623221E+03 -5.859479E+03
       264   9 -2.364027E+04 -1.485680E+05 -3.782402E+04  8.940114E+04  4.782263E+03  1.744619E+03
       264  10 -3.575567E+04 -2.013013E+05 -4.619868E+04  8.932832E+04  8.720895E-11 -9.654406E-11
       264  11 -6.429480E+03 -8.607223E+04 -2.073491E+04  7.005793E+04 -3.527869E-10  3.814593E-10
       264  12  1.878257E+04  2.709971E+04 -1.375007E+03  8.689210E+04 -1.393235E-10 -3.006787E-10
       264  13 -1.853161E+03 -6.073963E+04 -1.726261E+04  8.814644E+04  2.336975E-10 -8.955782E-12
       264  14 -9.194446E+01 -5.971161E+04 -1.541015E+04  7.009422E+04  1.223638E-10 -2.637027E-11
       264  15 -2.428620E+03 -6.073781E+04 -1.959933E+04  8.814671E+04  1.699700E-10  1.126763E-10
       264  16  3.204811E+04  7.984083E+04  1.167241E+04  8.696428E+04  2.254443E-10 -2.770742E-10
       264  17  6.245549E+03 -3.335032E+04 -1.008543E+04  7.013052E+04  2.813708E-10  4.407396E-10
       264  18 -2.364029E+04 -1.485680E+05 -3.782407E+04  8.940114E+04 -1.652719E-10 -2.791766E-10
       264  19 -3.575560E+04 -2.013013E+05 -4.619856E+04  8.932831E+04  7.947834E+03 -1.633582E+03
       264  20 -6.429454E+03 -8.607214E+04 -2.073474E+04  7.005792E+04  1.616096E+03 -9.415125E+03
       264  21  1.878267E+04  2.710003E+04 -1.374408E+03  8.689217E+04 -4.789668E+03 -1.719783E+04
       264  22 -1.853083E+03 -6.073958E+04 -1.726242E+04  8.814648E+04  7.951283E+03  5.914935E+03
       264  23 -9.194079E+01 -5.971160E+04 -1.541014E+04  7.009422E+04  1.619658E+03 -1.777982E+03
       264  24 -2.428571E+03 -6.073771E+04 -1.959912E+04  8.814675E+04 -4.785981E+03 -9.470689E+03
       264  25  3.204823E+04  7.984104E+04  1.167287E+04  8.696437E+04  7.954702E+03  1.346513E+04
       264  26  6.245561E+03 -3.335028E+04 -1.008536E+04  7.013052E+04  1.623221E+03  5.859479E+03
       264  27 -2.364027E+04 -1.485680E+05 -3.782402E+04  8.940114E+04 -4.782263E+03 -1.744619E+03
       265   1  4.288486E+04  1.065128E+05  1.197704E+04  9.586283E+04  9.607649E+03  2.297826E+04
       265   2  6.294243E+04  2.274790E+05  2.389822E+04  5.607329E+04  1.256149E+04  2.912704E+04
       265   3  3.300746E+04  3.351599E+05  1.931853E+04  5.183478E+04  4.448289E+03  3.527959E+04
       265   4  1.810168E+03 -6.375448E+04 -2.309354E+04  8.802017E+04  9.602786E+03  1.278977E+04
       265   5 -5.936078E+03 -5.595968E+04 -3.714734E+04  7.025388E+04  1.256377E+04  3.221483E+04
       265   6 -6.599383E+04 -6.377626E+04 -7.692810E+04  8.804283E+04  4.455859E+03  5.164203E+04
       265   7 -3.926607E+04 -2.339939E+05 -5.816527E+04  8.017969E+04  9.598180E+03  2.604024E+03
       265   8 -7.481910E+04 -3.393224E+05 -9.819747E+04  8.442790E+04  1.256619E+04  3.530122E+04
       265   9 -1.650017E+05 -4.625636E+05 -1.731844E+05  1.242275E+05  4.465341E+03  6.799399E+04
       265  10  4.288462E+04  1.065122E+05  1.197588E+04  9.586265E+04 -1.853802E-10  6.687479E-11
       265  11  6.294203E+04  2.274780E+05  2.389633E+04  5.607300E+04 -4.028353E-10  4.374883E-10
       265  12  3.300711E+04  3.351586E+05  1.931616E+04  5.183465E+04  1.672700E-10 -1.127552E-11
       265  13  1.810025E+03 -6.375468E+04 -2.309403E+04  8.802007E+04 -3.179386E-10  1.428721E-11
       265  14 -5.936526E+03 -5.596084E+04 -3.714958E+04  7.025355E+04 -6.731184E-11  1.841873E-11
       265  15 -6.599456E+04 -6.377913E+04 -7.693314E+04  8.804264E+04 -9.066888E-11  5.786936E-11
       265  16 -3.926617E+04 -2.339939E+05 -5.816545E+04  8.017967E+04 -2.759542E-10 -4.375519E-10
       265  17 -7.481961E+04 -3.393238E+05 -9.820011E+04  8.442754E+04 -1.337038E-11  2.216266E-10
       265  18 -1.650029E+05 -4.625685E+05 -1.731931E+05  1.242273E+05  7.077500E-11 -3.262303E-10
       265  19  4.288486E+04  1.065128E+05  1.197704E+04  9.586283E+04 -9.607649E+03 -2.297826E+04
       265  20  6.294243E+04  2.274790E+05  2.389822E+04  5.607329E+04 -1.256149E+04 -2.912704E+04
       265  21  3.300746E+04  3.351599E+05  1.931853E+04  5.183478E+04 -4.448289E+03 -3.527959E+04
       265  22  1.810168E+03 -6.375448E+04 -2.309354E+04  8.802017E+04 -9.602786E+03 -1.278977E+04
       265  23 -5.936078E+03 -5.595968E+04 -3.714734E+04  7.025388E+04 -1.256377E+04 -3.221483E+04
       265  24 -6.599383E+04 -6.377626E+04 -7.692810E+04  8.804283E+04 -4.455859E+03 -5.164203E+04
       265  25 -3.926607E+04 -2.339939E+05 -5.816527E+04  8.017969E+04 -9.598180E+03 -2.604024E+03
       265  26 -7.481910E+04 -3.393224E+05 -9.819747E+04  8.442790E+04 -1.256619E+04 -3.530122E+04
       265  27 -1.650017E+05 -4.625636E+05 -1.731844E+05  1.242275E+05 -4.465341E+03 -6.799399E+04
       266   1  3.028684E+05  2.455643E+05  5.839593E+04  2.214906E+05  2.471486E+04  1.736611E+04
       266   2  2.876306E+05  1.996145E+05  3.112513E+04  2.226137E+05  1.597596E+04  8.604233E+03
       266   3  2.811274E+05  1.801576E+05  1.855083E+04  2.166466E+05  5.893508E+03  1.634576E+03
       266   4  2.611895E+05  1.858193E+05  3.882078E+04  1.870281E+05  2.194137E+04  1.528517E+04
       266   5  2.508817E+05  1.618256E+05  1.824975E+04  1.988102E+05  1.535426E+04  8.137727E+03
       266   6  2.488432E+05  1.638586E+05  1.050921E+04  2.035018E+05  7.423556E+03  2.782051E+03
       266   7  2.195124E+05  1.260789E+05  1.924513E+04  1.525687E+05  1.916808E+04  1.320463E+04
       266   8  2.141344E+05  1.240386E+05  5.374182E+03  1.750086E+05  1.473260E+04  7.671279E+03
       266   9  2.165606E+05  1.475600E+05  2.467662E+03  1.903578E+05  8.953476E+03  3.929461E+03
       266  10  3.028677E+05  2.455638E+05  5.839422E+04  2.214903E+05  2.706587E-11 -8.333159E-11
       266  11  2.876303E+05  1.996144E+05  3.112451E+04  2.226136E+05 -4.893280E-10  1.651391E-10
       266  12  2.811273E+05  1.801576E+05  1.855076E+04  2.166466E+05  4.440606E-11  2.034149E-10
       266  13  2.611889E+05  1.858189E+05  3.881944E+04  1.870278E+05  3.091636E-10  5.859129E-11
       266  14  2.508815E+05  1.618255E+05  1.824918E+04  1.988101E+05  1.769179E-11  1.241721E-10
       266  15  2.488431E+05  1.638586E+05  1.050910E+04  2.035017E+05  2.882867E-10  3.693982E-11
       266  16  2.195120E+05  1.260786E+05  1.924411E+04  1.525685E+05  1.385056E-11  1.730501E-10
       266  17  2.141342E+05  1.240385E+05  5.373664E+03  1.750085E+05 -2.881610E-10  9.803223E-11
       266  18  2.165605E+05  1.475600E+05  2.467483E+03  1.903577E+05 -3.961095E-10 -1.188840E-10
       266  19  3.028684E+05  2.455643E+05  5.839593E+04  2.214906E+05 -2.471486E+04 -1.736611E+04
       266  20  2.876306E+05  1.996145E+05  3.112513E+04  2.226137E+05 -1.597596E+04 -8.604233E+03
       266  21  2.811274E+05  1.801576E+05  1.855083E+04  2.166466E+05 -5.893508E+03 -1.634576E+03
       266  22  2.611895E+05  1.858193E+05  3.882078E+04  1.870281E+05 -2.194137E+04 -1.528517E+04
       266  23  2.508817E+05  1.618256E+05  1.824975E+04  1.988102E+05 -1.535426E+04 -8.137727E+03
       266  24  2.488432E+05  1.638586E+05  1.050921E+04  2.035018E+05 -7.423556E+03 -2.782051E+03
       266  25  2.195124E+05  1.260789E+05  1.924513E+04  1.525687E+05 -1.916808E+04 -1.320463E+04
       266  26  2.141344E+05  1.240386E+05  5.374182E+03  1.750086E+05 -1.473260E+04 -7.671279E+03
       266  27  2.165606E+05  1.475600E+05  2.467662E+03  1.903578E+05 -8.953476E+03 -3.929461E+03
       267   1  2.655877E+05  1.774747E+05  1.325791E+04  2.105237E+05  4.632505E+03  1.799683E+03
       267   2  2.531544E+05  1.622095E+05  5.541323E+03  2.023017E+05  1.827125E+03  1.213501E+03
       267   3  2.351742E+05  1.543256E+05 -1.867733E+02  1.956745E+05 -1.052141E+03  7.259526E+02
       267   4  2.485876E+05  1.647254E+05  8.315059E+03  2.016701E+05  5.739486E+03  2.629847E+03
       267   5  2.511223E+05  1.605999E+05  4.907316E+03  2.012087E+05  3.052547E+03  2.132497E+03
       267   6  2.480843E+05  1.638301E+05  3.385456E+03  2.023419E+05  2.916402E+02  1.733724E+03
       267   7  2.315878E+05  1.519762E+05  3.372177E+03  1.928167E+05  6.846426E+03  3.459978E+03
       267   8  2.490902E+05  1.589902E+05  4.273312E+03  2.001156E+05  4.277971E+03  3.051495E+03
       267   9  2.609947E+05  1.733347E+05  6.957739E+03  2.090096E+05  1.635476E+03  2.741538E+03
       267  10  2.655876E+05  1.774747E+05  1.325787E+04  2.105237E+05 -1.118445E-10 -7.393067E-11
       267  11  2.531544E+05  1.622095E+05  5.541314E+03  2.023017E+05 -2.344878E-11 -1.442340E-10
       267  12  2.351742E+05  1.543256E+05 -1.867764E+02  1.956745E+05  1.360074E-10 -1.309685E-10
       267  13  2.485875E+05  1.647254E+05  8.314984E+03  2.016700E+05  2.310220E-10 -7.709474E-11
       267  14  2.511223E+05  1.605999E+05  4.907290E+03  2.012087E+05  2.825707E-10  1.743429E-11
       267  15  2.480843E+05  1.638301E+05  3.385450E+03  2.023419E+05  2.615104E-10 -4.890015E-11
       267  16  2.315877E+05  1.519762E+05  3.372067E+03  1.928167E+05 -3.470422E-11 -6.828209E-12
       267  17  2.490902E+05  1.589902E+05  4.273260E+03  2.001156E+05  1.324752E-10  3.926090E-11
       267  18  2.609947E+05  1.733347E+05  6.957720E+03  2.090096E+05  2.228720E-10  1.027066E-10
       267  19  2.655877E+05  1.774747E+05  1.325791E+04  2.105237E+05 -4.632505E+03 -1.799683E+03
       267  20  2.531544E+05  1.622095E+05  5.541323E+03  2.023017E+05 -1.827125E+03 -1.213501E+03
       267  21  2.351742E+05  1.543256E+05 -1.867733E+02  1.956745E+05  1.052141E+03 -7.259526E+02
       267  22  2.485876E+05  1.647254E+05  8.315059E+03  2.016701E+05 -5.739486E+03 -2.629847E+03
       267  23  2.511223E+05  1.605999E+05  4.907316E+03  2.012087E+05 -3.052547E+03 -2.132497E+03
       267  24  2.480843E+05  1.638301E+05  3.385456E+03  2.023419E+05 -2.916402E+02 -1.733724E+03
       267  25  2.315878E+05  1.519762E+05  3.372177E+03  1.928167E+05 -6.846426E+03 -3.459978E+03
       267  26  2.490902E+05  1.589902E+05  4.273312E+03  2.001156E+05 -4.277971E+03 -3.051495E+03
       267  27  2.609947E+05  1.733347E+05  6.957739E+03  2.090096E+05 -1.635476E+03 -2.741538E+03
       268   1  2.239537E+05  1.468008E+05 -3.658326E+03  1.901574E+05 -1.978184E+03  1.048470E+03
       268   2  2.117260E+05  1.327716E+05 -7.843613E+03  1.815360E+05 -4.002582E+03  1.247669E+03
       268   3  1.933071E+05  1.253166E+05 -1.101520E+04  1.748218E+05 -6.022112E+03  1.440645E+03
       268   4  2.480606E+05  1.638584E+05  3.052342E+03  2.022601E+05 -6.547583E+02  2.040962E+03
       268   5  2.511597E+05  1.605783E+05  3.050103E+03  2.013006E+05 -2.686823E+03  2.234350E+03
       268   6  2.480689E+05  1.638738E+05  4.068083E+03  2.022478E+05 -4.714070E+03  2.421485E+03
       268   7  2.721677E+05  1.809160E+05  9.762854E+03  2.143631E+05  6.687199E+02  3.033492E+03
       268   8  2.905948E+05  1.883858E+05  1.394359E+04  2.210664E+05 -1.370960E+03  3.221108E+03
       268   9  3.028340E+05  2.024327E+05  1.915108E+04  2.296766E+05 -3.405873E+03  3.402441E+03
       268  10  2.239537E+05  1.468008E+05 -3.658335E+03  1.901574E+05  4.135018E-11  3.586694E-12
       268  11  2.117260E+05  1.327716E+05 -7.843646E+03  1.815360E+05 -2.433386E-10  6.476439E-13
       268  12  1.933071E+05  1.253166E+05 -1.101527E+04  1.748218E+05 -3.426914E-10 -4.480450E-11
       268  13  2.480606E+05  1.638584E+05  3.052333E+03  2.022601E+05 -1.240471E-10  7.966272E-12
       268  14  2.511596E+05  1.605783E+05  3.050080E+03  2.013006E+05  8.041147E-11  2.984847E-11
       268  15  2.480689E+05  1.638738E+05  4.068030E+03  2.022478E+05  5.120796E-11  3.260555E-11
       268  16  2.721677E+05  1.809160E+05  9.762836E+03  2.143631E+05  7.274120E-11 -1.011600E-11
       268  17  2.905948E+05  1.883858E+05  1.394356E+04  2.210664E+05  3.235410E-10  2.928873E-11
       268  18  3.028340E+05  2.024327E+05  1.915104E+04  2.296766E+05 -1.326761E-11  1.368502E-10
       268  19  2.239537E+05  1.468008E+05 -3.658326E+03  1.901574E+05  1.978184E+03 -1.048470E+03
       268  20  2.117260E+05  1.327716E+05 -7.843613E+03  1.815360E+05  4.002582E+03 -1.247669E+03
       268  21  1.933071E+05  1.253166E+05 -1.101520E+04  1.748218E+05  6.022112E+03 -1.440645E+03
       268  22  2.480606E+05  1.638584E+05  3.052342E+03  2.022601E+05  6.547583E+02 -2.040962E+03
       268  23  2.511597E+05  1.605783E+05  3.050103E+03  2.013006E+05  2.686823E+03 -2.234350E+03
       268  24  2.480689E+05  1.638738E+05  4.068083E+03  2.022478E+05  4.714070E+03 -2.421485E+03
       268  25  2.721677E+05  1.809160E+05  9.762854E+03  2.143631E+05 -6.687199E+02 -3.033492E+03
       268  26  2.905948E+05  1.883858E+05  1.394359E+04  2.210664E+05  1.370960E+03 -3.221108E+03
       268  27  3.028340E+05  2.024327E+05  1.915108E+04  2.296766E+05  3.405873E+03 -3.402441E+03
       269   1  1.820061E+05  1.178557E+05 -1.323043E+04  1.695862E+05 -7.207317E+03  1.576352E+03
       269   2  1.702381E+05  1.031988E+05 -1.433476E+04  1.604634E+05 -1.096341E+04  3.575189E+02
       269   3  1.534442E+05  9.658240E+04 -1.250173E+04  1.527133E+05 -1.455446E+04 -1.081130E+03
       269   4  2.481261E+05  1.638320E+05  4.992496E+03  2.024135E+05 -5.847869E+03  2.595700E+03
       269   5  2.510551E+05  1.605745E+05  8.147421E+03  2.011329E+05 -9.868491E+03  1.178408E+03
       269   6  2.490152E+05  1.654148E+05  1.446891E+04  2.012251E+05 -1.372412E+04 -4.587385E+02
       269   7  3.142517E+05  2.098112E+05  2.321530E+04  2.352451E+05 -4.488208E+03  3.615204E+03
       269   8  3.318794E+05  2.179540E+05  3.062897E+04  2.418086E+05 -8.773375E+03  1.999442E+03
       269   9  3.445951E+05  2.342519E+05  4.143821E+04  2.497448E+05 -1.289363E+04  1.637781E+02
       269  10  1.820060E+05  1.178557E+05 -1.323053E+04  1.695862E+05  3.305002E-10  1.293190E-10
       269  11  1.702379E+05  1.031987E+05 -1.433499E+04  1.604634E+05  2.736149E-10 -1.103841E-10
       269  12  1.534440E+05  9.658234E+04 -1.250213E+04  1.527133E+05  1.858321E-10 -2.084622E-10
       269  13  2.481260E+05  1.638319E+05  4.992419E+03  2.024135E+05 -1.306307E-10 -3.450482E-11
       269  14  2.510550E+05  1.605744E+05  8.147236E+03  2.011330E+05  1.943830E-10 -1.045295E-10
       269  15  2.490150E+05  1.654148E+05  1.446856E+04  2.012251E+05 -9.144890E-11 -6.905650E-11
       269  16  3.142517E+05  2.098112E+05  2.321523E+04  2.352452E+05 -2.858080E-10 -1.114462E-10
       269  17  3.318793E+05  2.179540E+05  3.062882E+04  2.418086E+05  4.300171E-10 -1.821111E-10
       269  18  3.445950E+05  2.342518E+05  4.143790E+04  2.497448E+05 -4.838652E-11 -1.086286E-10
       269  19  1.820061E+05  1.178557E+05 -1.323043E+04  1.695862E+05  7.207317E+03 -1.576352E+03
       269  20  1.702381E+05  1.031988E+05 -1.433476E+04  1.604634E+05  1.096341E+04 -3.575189E+02
       269  21  1.534442E+05  9.658240E+04 -1.250173E+04  1.527133E+05  1.455446E+04  1.081130E+03
       269  22  2.481261E+05  1.638320E+05  4.992496E+03  2.024135E+05  5.847869E+03 -2.595700E+03
       269  23  2.510551E+05  1.605745E+05  8.147421E+03  2.011329E+05  9.868491E+03 -1.178408E+03
       269  24  2.490152E+05  1.654148E+05  1.446891E+04  2.012251E+05  1.372412E+04  4.587385E+02
       269  25  3.142517E+05  2.098112E+05  2.321530E+04  2.352451E+05  4.488208E+03 -3.615204E+03
       269  26  3.318794E+05  2.179540E+05  3.062897E+04  2.418086E+05  8.773375E+03 -1.999442E+03
       269  27  3.445951E+05  2.342519E+05  4.143821E+04  2.497448E+05  1.289363E+04 -1.637781E+02
       270   1  1.352236E+05  9.473637E+04 -1.156494E+04  1.525951E+05 -1.809706E+04 -2.501318E+03
       270   2  1.402839E+05  6.377697E+04 -3.333112E+03  1.320326E+05 -2.647992E+04 -9.591591E+03
       270   3  1.640277E+05  7.308293E+04  2.353749E+04  9.739243E+04 -3.187225E+04 -2.067057E+04
       270   4  2.494838E+05  1.638653E+05  1.846016E+04  2.044848E+05 -1.632440E+04 -1.172232E+03
       270   5  2.506028E+05  1.627539E+05  3.235711E+04  1.968706E+05 -2.949824E+04 -1.185529E+04
       270   6  2.714386E+05  2.029397E+05  6.904616E+04  1.751798E+05 -3.968203E+04 -2.652758E+04
       270   7  3.637587E+05  2.329994E+05  4.848418E+04  2.563847E+05 -1.455129E+04  1.571240E+02
       270   8  3.609359E+05  2.617438E+05  6.804615E+04  2.617235E+05 -3.251728E+04 -1.411973E+04
       270   9  3.788645E+05  3.328216E+05  1.145538E+05  2.529873E+05 -4.749368E+04 -3.238728E+04
       270  10  1.352232E+05  9.473627E+04 -1.156557E+04  1.525950E+05  3.084785E-12 -1.746948E-10
       270  11  1.402831E+05  6.377668E+04 -3.334602E+03  1.320324E+05 -3.772325E-11  1.404189E-10
       270  12  1.640265E+05  7.308220E+04  2.353478E+04  9.739190E+04 -1.787376E-11  3.079176E-10
       270  13  2.494835E+05  1.638653E+05  1.845966E+04  2.044848E+05 -9.461593E-11 -1.747607E-10
       270  14  2.506018E+05  1.627535E+05  3.235522E+04  1.968703E+05 -1.013418E-10  6.782774E-11
       270  15  2.714367E+05  2.029386E+05  6.904188E+04  1.751789E+05  1.582774E-10  1.107771E-10
       270  16  3.637585E+05  2.329994E+05  4.848378E+04  2.563847E+05  2.109629E-10 -7.217220E-11
       270  17  3.609347E+05  2.617434E+05  6.804379E+04  2.617231E+05  3.588747E-11  9.553401E-12
       270  18  3.788618E+05  3.328199E+05  1.145476E+05  2.529861E+05 -4.863343E-11 -1.091119E-10
       270  19  1.352236E+05  9.473637E+04 -1.156494E+04  1.525951E+05  1.809706E+04  2.501318E+03
       270  20  1.402839E+05  6.377697E+04 -3.333112E+03  1.320326E+05  2.647992E+04  9.591591E+03
       270  21  1.640277E+05  7.308293E+04  2.353749E+04  9.739243E+04  3.187225E+04  2.067057E+04
       270  22  2.494838E+05  1.638653E+05  1.846016E+04  2.044848E+05  1.632440E+04  1.172232E+03
       270  23  2.506028E+05  1.627539E+05  3.235711E+04  1.968706E+05  2.949824E+04  1.185529E+04
       270  24  2.714386E+05  2.029397E+05  6.904616E+04  1.751798E+05  3.968203E+04  2.652758E+04
       270  25  3.637587E+05  2.329994E+05  4.848418E+04  2.563847E+05  1.455129E+04 -1.571240E+02
       270  26  3.609359E+05  2.617438E+05  6.804615E+04  2.617235E+05  3.251728E+04  1.411973E+04
       270  27  3.788645E+05  3.328216E+05  1.145538E+05  2.529873E+05  4.749368E+04  3.238728E+04
       271   1  5.679222E+05  7.296452E+04  8.259239E+04  3.471951E+04  5.178338E+04 -6.657372E+02
       271   2  5.594321E+05  1.623855E+04  4.317919E+04  1.394611E+04  3.264067E+04 -2.213964E+03
       271   3  5.657150E+05  8.648889E+03  2.850580E+04 -6.541623E+03  1.349781E+04 -2.611922E+03
       271   4  5.227237E+05  6.177814E+04  7.182081E+04  8.184542E+02  4.923347E+04 -6.684502E+02
       271   5  5.154649E+05  5.600138E+03  3.392365E+04  6.746397E+02  3.147165E+04 -2.214633E+03
       271   6  5.227395E+05 -1.680855E+03  1.980878E+04  8.163808E+02  1.370959E+04 -2.611781E+03
       271   7  4.775295E+05  5.059593E+04  6.104972E+04 -3.308013E+04  4.668375E+04 -6.708852E+02
       271   8  4.714998E+05 -5.037740E+03  2.466812E+04 -1.259588E+04  3.030270E+04 -2.215252E+03
       271   9  4.797660E+05 -1.201051E+04  1.111169E+04  8.173866E+03  1.392135E+04 -2.611635E+03
       271  10  5.679194E+05  7.296380E+04  8.258736E+04  3.471954E+04 -1.355190E-10  7.730978E-11
       271  11  5.594310E+05  1.623826E+04  4.317718E+04  1.394617E+04  4.158105E-10  1.320185E-10
       271  12  5.657148E+05  8.648833E+03  2.850544E+04 -6.541594E+03  1.278612E-11  1.200558E-10
       271  13  5.227211E+05  6.177749E+04  7.181626E+04  8.184807E+02  2.771956E-11 -1.525462E-11
       271  14  5.154638E+05  5.599868E+03  3.392179E+04  6.746958E+02  3.890263E-10  6.305247E-11
       271  15  5.227393E+05 -1.680913E+03  1.980841E+04  8.164096E+02 -2.938858E-10  1.407797E-10
       271  16  4.775272E+05  5.059534E+04  6.104562E+04 -3.308010E+04  4.180905E-10 -6.072206E-11
       271  17  4.714988E+05 -5.037992E+03  2.466638E+04 -1.259583E+04  3.309500E-10 -1.050895E-11
       271  18  4.797658E+05 -1.201057E+04  1.111131E+04  8.173895E+03  2.148508E-10  6.007174E-11
       271  19  5.679222E+05  7.296452E+04  8.259239E+04  3.471951E+04 -5.178338E+04  6.657372E+02
       271  20  5.594321E+05  1.623855E+04  4.317919E+04  1.394611E+04 -3.264067E+04  2.213964E+03
       271  21  5.657150E+05  8.648889E+03  2.850580E+04 -6.541623E+03 -1.349781E+04  2.611922E+03
       271  22  5.227237E+05  6.177814E+04  7.182081E+04  8.184542E+02 -4.923347E+04  6.684502E+02
       271  23  5.154649E+05  5.600138E+03  3.392365E+04  6.746397E+02 -3.147165E+04  2.214633E+03
       271  24  5.227395E+05 -1.680855E+03  1.980878E+04  8.163808E+02 -1.370959E+04  2.611781E+03
       271  25  4.775295E+05  5.059593E+04  6.104972E+04 -3.308013E+04 -4.668375E+04  6.708852E+02
       271  26  4.714998E+05 -5.037740E+03  2.466812E+04 -1.259588E+04 -3.030270E+04  2.215252E+03
       271  27  4.797660E+05 -1.201051E+04  1.111169E+04  8.173866E+03 -1.392135E+04  2.611635E+03
       272   1  5.619318E+05  1.255698E+04  2.444558E+04  1.679604E+03  1.102987E+04 -2.528923E+03
       272   2  5.602412E+05  9.903073E+03  1.826861E+04  8.887643E+02  5.966357E+03 -2.546020E+03
       272   3  5.597746E+05  9.509146E+03  1.595119E+04  4.361345E+02  9.028753E+02 -2.497311E+03
       272   4  5.197767E+05  2.419795E+03  1.588892E+04  8.285429E+02  1.096923E+04 -2.528951E+03
       272   5  5.191722E+05  3.989483E+01  9.996728E+03  6.594329E+02  5.985032E+03 -2.546035E+03
       272   6  5.197781E+05 -9.368540E+01  7.909224E+03  8.285341E+02  1.000851E+03 -2.497323E+03
       272   7  4.776232E+05 -7.717500E+03  7.332161E+03 -2.245887E+01  1.090860E+04 -2.528978E+03
       272   8  4.781048E+05 -9.823387E+03  1.724759E+03  4.301171E+02  6.003706E+03 -2.546051E+03
       272   9  4.797831E+05 -9.696615E+03 -1.328252E+02  1.220908E+03  1.098821E+03 -2.497335E+03
       272  10  5.619316E+05  1.255694E+04  2.444534E+04  1.679626E+03  1.076668E-10  1.115739E-10
       272  11  5.602412E+05  9.903056E+03  1.826853E+04  8.887765E+02 -5.876840E-11  9.939068E-11
       272  12  5.597746E+05  9.509140E+03  1.595118E+04  4.361363E+02  5.591347E-11  8.503434E-12
       272  13  5.197765E+05  2.419756E+03  1.588868E+04  8.285653E+02  3.383710E-10  6.482042E-11
       272  14  5.191722E+05  3.987826E+01  9.996649E+03  6.594452E+02  1.576798E-12  8.742489E-12
       272  15  5.197781E+05 -9.369237E+01  7.909210E+03  8.285361E+02 -2.164318E-10 -1.684963E-11
       272  16  4.776231E+05 -7.717538E+03  7.331925E+03 -2.243666E+01 -1.306784E-10  8.037950E-12
       272  17  4.781048E+05 -9.823404E+03  1.724680E+03  4.301294E+02  2.784763E-10 -1.211715E-10
       272  18  4.797831E+05 -9.696622E+03 -1.328392E+02  1.220910E+03 -1.975037E-10 -4.195703E-11
       272  19  5.619318E+05  1.255698E+04  2.444558E+04  1.679604E+03 -1.102987E+04  2.528923E+03
       272  20  5.602412E+05  9.903073E+03  1.826861E+04  8.887643E+02 -5.966357E+03  2.546020E+03
       272  21  5.597746E+05  9.509146E+03  1.595119E+04  4.361345E+02 -9.028753E+02  2.497311E+03
       272  22  5.197767E+05  2.419795E+03  1.588892E+04  8.285429E+02 -1.096923E+04  2.528951E+03
       272  23  5.191722E+05  3.989483E+01  9.996728E+03  6.594329E+02 -5.985032E+03  2.546035E+03
       272  24  5.197781E+05 -9.368540E+01  7.909224E+03  8.285341E+02 -1.000851E+03  2.497323E+03
       272  25  4.776232E+05 -7.717500E+03  7.332161E+03 -2.245887E+01 -1.090860E+04  2.528978E+03
       272  26  4.781048E+05 -9.823387E+03  1.724759E+03  4.301171E+02 -6.003706E+03  2.546051E+03
       272  27  4.797831E+05 -9.696615E+03 -1.328252E+02  1.220908E+03 -1.098821E+03  2.497335E+03
       273   1  5.589876E+05  9.340044E+03  1.568731E+04  1.160044E+03 -4.580491E+02 -2.455639E+03
       273   2  5.573601E+05  9.194183E+03  1.710471E+04  4.329775E+02 -5.215218E+03 -2.371075E+03
       273   3  5.568681E+05  1.111395E+04  2.213375E+04  4.360389E+01 -9.972330E+03 -2.236042E+03
       273   4  5.197591E+05 -7.740079E+01  7.804685E+03  8.284287E+02 -3.867290E+02 -2.455650E+03
       273   5  5.191960E+05  2.944965E+01  9.421872E+03  6.595678E+02 -5.083047E+03 -2.371086E+03
       273   6  5.197580E+05  2.191451E+03  1.460862E+04  8.283904E+02 -9.779316E+03 -2.236060E+03
       273   7  4.805322E+05 -9.494940E+03 -7.801676E+01  4.968350E+02 -3.154134E+02 -2.455662E+03
       273   8  4.810334E+05 -9.135373E+03  1.738963E+03  8.861438E+02 -4.950884E+03 -2.371097E+03
       273   9  4.826491E+05 -6.731135E+03  7.083405E+03  1.613129E+03 -9.586313E+03 -2.236077E+03
       273  10  5.589876E+05  9.340038E+03  1.568730E+04  1.160043E+03 -3.331645E-10 -6.789406E-11
       273  11  5.573600E+05  9.194170E+03  1.710464E+04  4.329676E+02 -3.818890E-10 -6.484895E-11
       273  12  5.568680E+05  1.111392E+04  2.213356E+04  4.358593E+01  1.141624E-10 -9.427447E-11
       273  13  5.197591E+05 -7.740731E+01  7.804673E+03  8.284279E+02 -1.616826E-10 -2.574214E-11
       273  14  5.191960E+05  2.943668E+01  9.421813E+03  6.595580E+02  2.044568E-10  2.647359E-11
       273  15  5.197578E+05  2.191420E+03  1.460843E+04  8.283728E+02 -7.114442E-10 -1.116323E-10
       273  16  4.805322E+05 -9.494947E+03 -7.802828E+01  4.968344E+02 -9.641442E-11  7.399525E-11
       273  17  4.810334E+05 -9.135386E+03  1.738907E+03  8.861343E+02 -2.989730E-10  7.742984E-11
       273  18  4.826490E+05 -6.731165E+03  7.083223E+03  1.613112E+03 -4.914995E-10  1.527761E-11
       273  19  5.589876E+05  9.340044E+03  1.568731E+04  1.160044E+03  4.580491E+02  2.455639E+03
       273  20  5.573601E+05  9.194183E+03  1.710471E+04  4.329775E+02  5.215218E+03  2.371075E+03
       273  21  5.568681E+05  1.111395E+04  2.213375E+04  4.360389E+01  9.972330E+03  2.236042E+03
       273  22  5.197591E+05 -7.740079E+01  7.804685E+03  8.284287E+02  3.867290E+02  2.455650E+03
       273  23  5.191960E+05  2.944965E+01  9.421872E+03  6.595678E+02  5.083047E+03  2.371086E+03
       273  24  5.197580E+05  2.191451E+03  1.460862E+04  8.283904E+02  9.779316E+03  2.236060E+03
       273  25  4.805322E+05 -9.494940E+03 -7.801676E+01  4.968350E+02  3.154134E+02  2.455662E+03
       273  26  4.810334E+05 -9.135373E+03  1.738963E+03  8.861438E+02  4.950884E+03  2.371097E+03
       273  27  4.826491E+05 -6.731135E+03  7.083405E+03  1.613129E+03  9.586313E+03  2.236077E+03
       274   1  5.588243E+05  7.216721E+03  2.546254E+04  7.502025E+03 -1.228571E+04 -2.226274E+03
       274   2  5.511030E+05  1.360530E+04  3.823531E+04 -1.139627E+04 -2.945733E+04 -1.807378E+03
       274   3  5.567461E+05  6.452289E+04  7.331326E+04 -2.991862E+04 -4.662924E+04 -5.319351E+02
       274   4  5.224401E+05 -1.526648E+03  1.811088E+04  8.375437E+02 -1.229595E+04 -2.226153E+03
       274   5  5.158400E+05  5.078235E+03  3.083661E+04  6.480973E+02 -2.843949E+04 -1.807912E+03
       274   6  5.224258E+05  5.603377E+04  6.515451E+04  8.351552E+02 -4.458330E+04 -5.341368E+02
       274   7  4.860574E+05 -1.026993E+04  1.075917E+04 -5.826540E+03 -1.230619E+04 -2.226032E+03
       274   8  4.805785E+05 -3.448369E+03  2.343792E+04  1.269177E+04 -2.742172E+04 -1.808407E+03
       274   9  4.881087E+05  4.754813E+04  5.699619E+04  3.158723E+04 -4.253747E+04 -5.361360E+02
       274  10  5.588241E+05  7.216675E+03  2.546224E+04  7.502003E+03  1.269408E-11 -1.356440E-10
       274  11  5.511021E+05  1.360507E+04  3.823368E+04 -1.139631E+04 -2.718023E-10 -9.455228E-11
       274  12  5.567438E+05  6.452230E+04  7.330918E+04 -2.991864E+04 -2.282582E-10 -6.273977E-11
       274  13  5.224400E+05 -1.526694E+03  1.811058E+04  8.375216E+02 -1.346490E-10 -9.569006E-11
       274  14  5.158391E+05  5.078015E+03  3.083509E+04  6.480559E+02 -2.208233E-10 -1.251811E-10
       274  15  5.224237E+05  5.603324E+04  6.515078E+04  8.351360E+02  2.555543E-10  4.716687E-11
       274  16  4.860572E+05 -1.026998E+04  1.075888E+04 -5.826562E+03 -1.805180E-10 -6.468236E-11
       274  17  4.805777E+05 -3.448574E+03  2.343650E+04  1.269173E+04 -2.343288E-10 -1.834959E-10
       274  18  4.881067E+05  4.754764E+04  5.699280E+04  3.158721E+04  1.982124E-10 -3.386889E-12
       274  19  5.588243E+05  7.216721E+03  2.546254E+04  7.502025E+03  1.228571E+04  2.226274E+03
       274  20  5.511030E+05  1.360530E+04  3.823531E+04 -1.139627E+04  2.945733E+04  1.807378E+03
       274  21  5.567461E+05  6.452289E+04  7.331326E+04 -2.991862E+04  4.662924E+04  5.319351E+02
       274  22  5.224401E+05 -1.526648E+03  1.811088E+04  8.375437E+02  1.229595E+04  2.226153E+03
       274  23  5.158400E+05  5.078235E+03  3.083661E+04  6.480973E+02  2.843949E+04  1.807912E+03
       274  24  5.224258E+05  5.603377E+04  6.515451E+04  8.351552E+02  4.458330E+04  5.341368E+02
       274  25  4.860574E+05 -1.026993E+04  1.075917E+04 -5.826540E+03  1.230619E+04  2.226032E+03
       274  26  4.805785E+05 -3.448369E+03  2.343792E+04  1.269177E+04  2.742172E+04  1.808407E+03
       274  27  4.881087E+05  4.754813E+04  5.699619E+04  3.158723E+04  4.253747E+04  5.361360E+02
       275   1 -4.703057E+04 -5.774020E+04 -5.114153E+04  6.605730E+03 -1.225531E+03 -2.838822E+04
       275   2 -2.250849E+04 -6.666697E+04 -3.360167E+04 -1.315476E+03 -4.363963E+03 -1.775872E+04
       275   3 -2.197734E+04 -8.297335E+04 -2.897931E+04 -1.332932E+04 -5.850381E+03 -7.129222E+03
       275   4 -2.984840E+04  1.175915E+04 -3.472280E+04 -9.774046E+03 -1.224586E+03 -2.363186E+04
       275   5 -2.704763E+03  1.527627E+04 -1.652376E+04 -7.728875E+03 -4.363564E+03 -1.498416E+04
       275   6  7.932797E+02  1.175822E+04 -9.865274E+03 -9.776275E+03 -5.850286E+03 -6.336347E+03
       275   7 -1.266555E+04  8.126357E+04 -1.830417E+04 -2.615567E+04 -1.223892E+03 -1.887497E+04
       275   8  1.709869E+04  9.722597E+04  5.538374E+02 -1.414313E+04 -4.363222E+03 -1.220924E+04
       275   9  2.356339E+04  1.064984E+05  9.248307E+03 -6.222676E+03 -5.850183E+03 -5.543353E+03
       275  10 -4.703079E+04 -5.774107E+04 -5.114305E+04  6.605702E+03 -2.134006E-10 -2.775785E-10
       275  11 -2.250859E+04 -6.666731E+04 -3.360230E+04 -1.315538E+03  7.414203E-11  1.962804E-11
       275  12 -2.197739E+04 -8.297341E+04 -2.897947E+04 -1.332935E+04 -9.583134E-12  4.433557E-10
       275  13 -2.984855E+04  1.175855E+04 -3.472385E+04 -9.774069E+03 -2.333705E-10 -8.030890E-12
       275  14 -2.704844E+03  1.527603E+04 -1.652421E+04 -7.728928E+03 -2.423065E-10  5.426784E-11
       275  15  7.932322E+02  1.175817E+04 -9.865414E+03 -9.776304E+03  2.864068E-11 -1.844407E-11
       275  16 -1.266565E+04  8.126319E+04 -1.830484E+04 -2.615568E+04 -1.387457E-10  3.274845E-10
       275  17  1.709863E+04  9.722581E+04  5.535216E+02 -1.414318E+04 -2.297466E-10  3.401239E-11
       275  18  2.356334E+04  1.064983E+05  9.248185E+03 -6.222702E+03  1.092070E-11 -4.760343E-10
       275  19 -4.703057E+04 -5.774020E+04 -5.114153E+04  6.605730E+03  1.225531E+03  2.838822E+04
       275  20 -2.250849E+04 -6.666697E+04 -3.360167E+04 -1.315476E+03  4.363963E+03  1.775872E+04
       275  21 -2.197734E+04 -8.297335E+04 -2.897931E+04 -1.332932E+04  5.850381E+03  7.129222E+03
       275  22 -2.984840E+04  1.175915E+04 -3.472280E+04 -9.774046E+03  1.224586E+03  2.363186E+04
       275  23 -2.704763E+03  1.527627E+04 -1.652376E+04 -7.728875E+03  4.363564E+03  1.498416E+04
       275  24  7.932797E+02  1.175822E+04 -9.865274E+03 -9.776275E+03  5.850286E+03  6.336347E+03
       275  25 -1.266555E+04  8.126357E+04 -1.830417E+04 -2.615567E+04  1.223892E+03  1.887497E+04
       275  26  1.709869E+04  9.722597E+04  5.538374E+02 -1.414313E+04  4.363222E+03  1.220924E+04
       275  27  2.356339E+04  1.064984E+05  9.248307E+03 -6.222676E+03  5.850183E+03  5.543353E+03
       276   1 -2.611476E+04 -9.059979E+04 -2.910710E+04 -9.275728E+03 -6.286384E+03 -6.189247E+03
       276   2 -2.803235E+04 -1.028372E+05 -2.905829E+04 -7.733894E+03 -7.153227E+03 -3.024577E+03
       276   3 -3.150344E+04 -1.158707E+05 -3.145733E+04 -1.018676E+04 -7.694143E+03  1.400760E+02
       276   4 -1.155988E+03  1.315937E+04 -8.076784E+03 -9.753976E+03 -6.286178E+03 -4.953880E+03
       276   5 -5.831586E+01  1.352307E+04 -5.554700E+03 -7.756696E+03 -7.153013E+03 -2.179850E+03
       276   6 -4.461499E+02  1.315842E+04 -5.208946E+03 -9.754079E+03 -7.693946E+03  5.942248E+02
       276   7  2.380211E+04  1.169288E+05  1.295298E+04 -1.023230E+04 -6.285974E+03 -3.718311E+03
       276   8  2.791488E+04  1.298962E+05  1.794820E+04 -7.779502E+03 -7.152799E+03 -1.334967E+03
       276   9  3.061010E+04  1.422034E+05  2.103857E+04 -9.321307E+03 -7.693749E+03  1.048466E+03
       276  10 -2.611481E+04 -9.059984E+04 -2.910725E+04 -9.275759E+03  1.039700E-10 -4.237563E-11
       276  11 -2.803240E+04 -1.028372E+05 -2.905840E+04 -7.733911E+03 -1.346680E-10  1.525122E-10
       276  12 -3.150350E+04 -1.158708E+05 -3.145745E+04 -1.018676E+04  2.310842E-10  4.678939E-10
       276  13 -1.156037E+03  1.315933E+04 -8.076904E+03 -9.754001E+03 -1.224022E-11 -5.244107E-13
       276  14 -5.837208E+01  1.352305E+04 -5.554805E+03 -7.756708E+03  2.575158E-10  1.282525E-10
       276  15 -4.462136E+02  1.315841E+04 -5.209058E+03 -9.754075E+03  3.061719E-11  4.892900E-12
       276  16  2.380207E+04  1.169288E+05  1.295288E+04 -1.023232E+04  2.101829E-10  1.696906E-10
       276  17  2.791482E+04  1.298962E+05  1.794810E+04 -7.779510E+03 -3.612273E-10  7.404170E-11
       276  18  3.061004E+04  1.422034E+05  2.103846E+04 -9.321301E+03 -8.412843E-11 -5.305798E-10
       276  19 -2.611476E+04 -9.059979E+04 -2.910710E+04 -9.275728E+03  6.286384E+03  6.189247E+03
       276  20 -2.803235E+04 -1.028372E+05 -2.905829E+04 -7.733894E+03  7.153227E+03  3.024577E+03
       276  21 -3.150344E+04 -1.158707E+05 -3.145733E+04 -1.018676E+04  7.694143E+03 -1.400760E+02
       276  22 -1.155988E+03  1.315937E+04 -8.076784E+03 -9.753976E+03  6.286178E+03  4.953880E+03
       276  23 -5.831586E+01  1.352307E+04 -5.554700E+03 -7.756696E+03  7.153013E+03  2.179850E+03
       276  24 -4.461499E+02  1.315842E+04 -5.208946E+03 -9.754079E+03  7.693946E+03 -5.942248E+02
       276  25  2.380211E+04  1.169288E+05  1.295298E+04 -1.023230E+04  6.285974E+03  3.718311E+03
       276  26  2.791488E+04  1.298962E+05  1.794820E+04 -7.779502E+03  7.152799E+03  1.334967E+03
       276  27  3.061010E+04  1.422034E+05  2.103857E+04 -9.321307E+03  7.693749E+03 -1.048466E+03
       277   1 -3.294820E+04 -1.256012E+05 -3.355667E+04 -8.273288E+03 -8.328656E+03 -2.409327E+01
       277   2 -3.760923E+04 -1.363135E+05 -3.945273E+04 -1.063078E+04 -7.433693E+03  9.054046E+03
       277   3 -5.325911E+04 -1.509486E+05 -5.400554E+04 -1.675207E+04 -2.289758E+03  1.813062E+04
       277   4  3.136960E+02  1.264482E+04 -5.499562E+03 -9.703402E+03 -8.328251E+03  1.453326E+03
       277   5 -1.147583E+03  1.416291E+04 -7.639479E+03 -7.820036E+03 -7.434292E+03  5.434406E+03
       277   6 -1.271140E+04  1.264375E+04 -1.489547E+04 -9.700613E+03 -2.291705E+03  9.414240E+03
       277   7  3.357441E+04  1.509090E+05  2.255656E+04 -1.113384E+04 -8.327853E+03  2.931067E+03
       277   8  3.531264E+04  1.646608E+05  2.417254E+04 -5.008606E+03 -7.434924E+03  1.813902E+03
       277   9  2.783459E+04  1.762609E+05  2.421304E+04 -2.647296E+03 -2.293849E+03  6.955696E+02
       277  10 -3.294827E+04 -1.256012E+05 -3.355680E+04 -8.273288E+03 -4.287454E-11 -9.071027E-11
       277  11 -3.760931E+04 -1.363136E+05 -3.945299E+04 -1.063072E+04 -3.439033E-10 -1.654576E-10
       277  12 -5.325920E+04 -1.509490E+05 -5.400617E+04 -1.675203E+04 -1.301632E-10  1.707614E-11
       277  13  3.136209E+02  1.264480E+04 -5.499696E+03 -9.703392E+03 -2.146345E-10 -6.710212E-12
       277  14 -1.147650E+03  1.416287E+04 -7.639638E+03 -7.820004E+03 -2.295900E-10  2.022950E-10
       277  15 -1.271143E+04  1.264365E+04 -1.489564E+04 -9.700596E+03 -3.282702E-10 -5.835588E-11
       277  16  3.357433E+04  1.509090E+05  2.255641E+04 -1.113382E+04  2.199264E-10  3.149310E-10
       277  17  3.531258E+04  1.646608E+05  2.417243E+04 -5.008595E+03 -1.845298E-11  4.931946E-10
       277  18  2.783458E+04  1.762609E+05  2.421302E+04 -2.647294E+03  1.632422E-11 -1.331020E-10
       277  19 -3.294820E+04 -1.256012E+05 -3.355667E+04 -8.273288E+03  8.328656E+03  2.409327E+01
       277  20 -3.760923E+04 -1.363135E+05 -3.945273E+04 -1.063078E+04  7.433693E+03 -9.054046E+03
       277  21 -5.325911E+04 -1.509486E+05 -5.400554E+04 -1.675207E+04  2.289758E+03 -1.813062E+04
       277  22  3.136960E+02  1.264482E+04 -5.499562E+03 -9.703402E+03  8.328251E+03 -1.453326E+03
       277  23 -1.147583E+03  1.416291E+04 -7.639479E+03 -7.820036E+03  7.434292E+03 -5.434406E+03
       277  24 -1.271140E+04  1.264375E+04 -1.489547E+04 -9.700613E+03  2.291705E+03 -9.414240E+03
       277  25  3.357441E+04  1.509090E+05  2.255656E+04 -1.113384E+04  8.327853E+03 -2.931067E+03
       277  26  3.531264E+04  1.646608E+05  2.417254E+04 -5.008606E+03  7.434924E+03 -1.813902E+03
       277  27  2.783459E+04  1.762609E+05  2.421304E+04 -2.647296E+03  2.293849E+03 -6.955696E+02
       278   1  1.299668E+04 -4.054736E+04 -3.734349E+04  1.342717E+04 -1.613619E+04 -1.139290E+04
       278   2  2.243676E+04 -1.102589E+04 -1.966610E+04  1.231160E+04 -1.049119E+04 -5.827466E+03
       278   3  2.588813E+04  1.407552E+03 -1.151335E+04  1.593647E+04 -4.030076E+03 -1.350259E+03
       278   4  3.740536E+04 -3.443556E+03 -2.546548E+04  3.457688E+04 -1.445998E+04 -1.013640E+04
       278   5  4.431122E+04  1.216694E+04 -1.187668E+04  2.680095E+04 -1.012087E+04 -5.549892E+03
       278   6  4.551226E+04  1.097323E+04 -6.678707E+03  2.376535E+04 -4.965654E+03 -2.051793E+03
       278   7  6.181456E+04  3.366184E+04 -1.358772E+04  5.572763E+04 -1.278370E+04 -8.879743E+03
       278   8  6.618609E+04  3.536034E+04 -4.087392E+03  4.129090E+04 -9.750536E+03 -5.272298E+03
       278   9  6.513682E+04  2.053900E+04 -1.844090E+03  3.159446E+04 -5.901271E+03 -2.753345E+03
       278  10  1.299636E+04 -4.054757E+04 -3.734422E+04  1.342702E+04 -3.206789E-11  4.327010E-11
       278  11  2.243663E+04 -1.102596E+04 -1.966637E+04  1.231155E+04  6.189374E-11 -2.648911E-10
       278  12  2.588811E+04  1.407545E+03 -1.151338E+04  1.593646E+04  8.855986E-11 -2.176941E-10
       278  13  3.740510E+04 -3.443723E+03 -2.546607E+04  3.457676E+04  1.535501E-10 -3.365098E-11
       278  14  4.431110E+04  1.216688E+04 -1.187693E+04  2.680090E+04 -3.715317E-10 -1.604640E-10
       278  15  4.551223E+04  1.097322E+04 -6.678761E+03  2.376534E+04 -2.149721E-11  1.390091E-10
       278  16  6.181436E+04  3.366171E+04 -1.358817E+04  5.572754E+04  2.334071E-11 -4.751242E-11
       278  17  6.618598E+04  3.536028E+04 -4.087623E+03  4.129086E+04 -7.464668E-11 -4.140587E-11
       278  18  6.513678E+04  2.053898E+04 -1.844170E+03  3.159444E+04  3.392587E-10  2.206226E-10
       278  19  1.299668E+04 -4.054736E+04 -3.734349E+04  1.342717E+04  1.613619E+04  1.139290E+04
       278  20  2.243676E+04 -1.102589E+04 -1.966610E+04  1.231160E+04  1.049119E+04  5.827466E+03
       278  21  2.588813E+04  1.407552E+03 -1.151335E+04  1.593647E+04  4.030076E+03  1.350259E+03
       278  22  3.740536E+04 -3.443556E+03 -2.546548E+04  3.457688E+04  1.445998E+04  1.013640E+04
       278  23  4.431122E+04  1.216694E+04 -1.187668E+04  2.680095E+04  1.012087E+04  5.549892E+03
       278  24  4.551226E+04  1.097323E+04 -6.678707E+03  2.376535E+04  4.965654E+03  2.051793E+03
       278  25  6.181456E+04  3.366184E+04 -1.358772E+04  5.572763E+04  1.278370E+04  8.879743E+03
       278  26  6.618609E+04  3.536034E+04 -4.087392E+03  4.129090E+04  9.750536E+03  5.272298E+03
       278  27  6.513682E+04  2.053900E+04 -1.844090E+03  3.159446E+04  5.901271E+03  2.753345E+03
       279   1  3.559927E+04  2.827200E+03 -8.094629E+03  1.971292E+04 -3.243417E+03 -1.439863E+03
       279   2  4.319146E+04  1.223143E+04 -2.980556E+03  2.472769E+04 -1.653348E+03 -1.177805E+03
       279   3  5.416898E+04  1.709153E+04  1.008389E+03  2.879277E+04 -1.836322E+01 -9.755629E+02
       279   4  4.568333E+04  1.040699E+04 -5.157376E+03  2.497125E+04 -3.922129E+03 -1.948804E+03
       279   5  4.414639E+04  1.296200E+04 -2.680655E+03  2.522817E+04 -2.403851E+03 -1.740580E+03
       279   6  4.601019E+04  1.098834E+04 -1.266729E+03  2.453528E+04 -8.406965E+02 -1.592195E+03
       279   7  5.576763E+04  1.798695E+04 -2.220087E+03  3.022974E+04 -4.600865E+03 -2.457763E+03
       279   8  4.510132E+04  1.369257E+04 -2.380750E+03  2.572865E+04 -3.154356E+03 -2.303355E+03
       279   9  3.785157E+04  4.885274E+03 -3.541812E+03  2.027790E+04 -1.663005E+03 -2.208809E+03
       279  10  3.559926E+04  2.827195E+03 -8.094652E+03  1.971292E+04  5.407881E-10  2.157146E-12
       279  11  4.319146E+04  1.223143E+04 -2.980563E+03  2.472769E+04  1.436932E-10 -9.412360E-11
       279  12  5.416898E+04  1.709152E+04  1.008387E+03  2.879277E+04 -9.991896E-11 -3.097281E-10
       279  13  4.568331E+04  1.040698E+04 -5.157412E+03  2.497124E+04  2.247410E-10 -1.384535E-10
       279  14  4.414638E+04  1.296200E+04 -2.680671E+03  2.522817E+04  1.061471E-10  1.342497E-11
       279  15  4.601018E+04  1.098834E+04 -1.266735E+03  2.453528E+04 -1.133278E-11 -1.099734E-10
       279  16  5.576760E+04  1.798694E+04 -2.220138E+03  3.022973E+04 -7.348997E-11 -1.351054E-10
       279  17  4.510131E+04  1.369257E+04 -2.380779E+03  2.572865E+04  1.738338E-10 -1.502483E-10
       279  18  3.785156E+04  4.885268E+03 -3.541827E+03  2.027790E+04  3.232464E-10  2.247893E-10
       279  19  3.559927E+04  2.827200E+03 -8.094629E+03  1.971292E+04  3.243417E+03  1.439863E+03
       279  20  4.319146E+04  1.223143E+04 -2.980556E+03  2.472769E+04  1.653348E+03  1.177805E+03
       279  21  5.416898E+04  1.709153E+04  1.008389E+03  2.879277E+04  1.836322E+01  9.755629E+02
       279  22  4.568333E+04  1.040699E+04 -5.157376E+03  2.497125E+04  3.922129E+03  1.948804E+03
       279  23  4.414639E+04  1.296200E+04 -2.680655E+03  2.522817E+04  2.403851E+03  1.740580E+03
       279  24  4.601019E+04  1.098834E+04 -1.266729E+03  2.453528E+04  8.406965E+02  1.592195E+03
       279  25  5.576763E+04  1.798695E+04 -2.220087E+03  3.022974E+04  4.600865E+03  2.457763E+03
       279  26  4.510132E+04  1.369257E+04 -2.380750E+03  2.572865E+04  3.154356E+03  2.303355E+03
       279  27  3.785157E+04  4.885274E+03 -3.541812E+03  2.027790E+04  1.663005E+03  2.208809E+03
       280   1  6.104192E+04  2.171690E+04  3.456482E+03  3.219518E+04  4.081357E+02 -1.278304E+03
       280   2  6.843125E+04  3.029292E+04  6.957515E+03  3.744900E+04  8.282269E+02 -2.014384E+03
       280   3  7.974800E+04  3.496983E+04  1.053010E+04  4.156409E+04  1.245234E+03 -2.746297E+03
       280   4  4.604163E+04  1.097630E+04 -7.407053E+02  2.460696E+04 -4.017406E+02 -1.885599E+03
       280   5  4.408754E+04  1.294251E+04  2.006288E+02  2.516429E+04  2.333792E+01 -2.617961E+03
       280   6  4.605966E+04  1.100845E+04  1.209193E+03  2.458279E+04  4.453349E+02 -3.346157E+03
       280   7  3.104158E+04  2.358252E+02 -4.937913E+03  1.701894E+04 -1.211591E+03 -2.492874E+03
       280   8  1.974433E+04 -4.407668E+03 -6.556368E+03  1.288006E+04 -7.815139E+02 -3.221510E+03
       280   9  1.237214E+04 -1.295259E+04 -8.111974E+03  7.602338E+03 -3.545162E+02 -3.945980E+03
       280  10  6.104192E+04  2.171690E+04  3.456478E+03  3.219518E+04  4.294054E-10 -4.418889E-12
       280  11  6.843125E+04  3.029291E+04  6.957506E+03  3.744900E+04  6.996221E-11 -1.647169E-11
       280  12  7.974800E+04  3.496982E+04  1.053008E+04  4.156409E+04 -4.190316E-10 -2.664025E-11
       280  13  4.604163E+04  1.097630E+04 -7.407123E+02  2.460696E+04 -6.284254E-11  1.711897E-11
       280  14  4.408754E+04  1.294250E+04  2.006160E+02  2.516429E+04 -2.869634E-10  1.291901E-11
       280  15  4.605966E+04  1.100844E+04  1.209171E+03  2.458280E+04 -2.567804E-10  2.919877E-10
       280  16  3.104157E+04  2.358181E+02 -4.937928E+03  1.701894E+04 -3.253265E-10  2.110556E-11
       280  17  1.974432E+04 -4.407679E+03 -6.556389E+03  1.288006E+04 -3.318791E-10  1.491055E-10
       280  18  1.237214E+04 -1.295261E+04 -8.112003E+03  7.602336E+03  9.518489E-11  4.568353E-10
       280  19  6.104192E+04  2.171690E+04  3.456482E+03  3.219518E+04 -4.081357E+02  1.278304E+03
       280  20  6.843125E+04  3.029292E+04  6.957515E+03  3.744900E+04 -8.282269E+02  2.014384E+03
       280  21  7.974800E+04  3.496983E+04  1.053010E+04  4.156409E+04 -1.245234E+03  2.746297E+03
       280  22  4.604163E+04  1.097630E+04 -7.407053E+02  2.460696E+04  4.017406E+02  1.885599E+03
       280  23  4.408754E+04  1.294251E+04  2.006288E+02  2.516429E+04 -2.333792E+01  2.617961E+03
       280  24  4.605966E+04  1.100845E+04  1.209193E+03  2.458279E+04 -4.453349E+02  3.346157E+03
       280  25  3.104158E+04  2.358252E+02 -4.937913E+03  1.701894E+04  1.211591E+03  2.492874E+03
       280  26  1.974433E+04 -4.407668E+03 -6.556368E+03  1.288006E+04  7.815139E+02  3.221510E+03
       280  27  1.237214E+04 -1.295259E+04 -8.111974E+03  7.602338E+03  3.545162E+02  3.945980E+03
       281   1  8.634940E+04  3.987338E+04  1.305964E+04  4.506678E+04  1.364751E+03 -3.283279E+03
       281   2  9.390717E+04  4.811747E+04  1.738437E+04  5.008040E+04  2.562842E+02 -5.090932E+03
       281   3  1.060610E+05  5.328716E+04  2.324533E+04  5.371382E+04 -9.536378E+02 -6.763243E+03
       281   4  4.609353E+04  1.099407E+04  1.817855E+03  2.467131E+04  5.335971E+02 -3.906595E+03
       281   5  4.402204E+04  1.292054E+04  3.539434E+03  2.508243E+04 -4.122970E+02 -5.592366E+03
       281   6  4.651143E+04  1.173756E+04  6.656349E+03  2.411339E+04 -1.459629E+03 -7.142777E+03
       281   7  5.839995E+03 -1.788390E+04 -9.423900E+03  4.277628E+03 -2.974733E+02 -4.529847E+03
       281   8 -5.859982E+03 -2.227473E+04 -1.030562E+04  8.692721E+01 -1.080801E+03 -6.093742E+03
       281   9 -1.303417E+04 -2.981006E+04 -9.932965E+03 -5.483813E+03 -1.965554E+03 -7.522262E+03
       281  10  8.634940E+04  3.987337E+04  1.305961E+04  4.506679E+04  1.120538E-10  6.691357E-10
       281  11  9.390716E+04  4.811744E+04  1.738432E+04  5.008040E+04 -2.285137E-09 -9.656163E-10
       281  12  1.060610E+05  5.328711E+04  2.324524E+04  5.371381E+04 -3.678349E-10 -5.813164E-10
       281  13  4.609353E+04  1.099405E+04  1.817826E+03  2.467131E+04 -9.805945E-10 -1.140558E-10
       281  14  4.402203E+04  1.292051E+04  3.539375E+03  2.508243E+04 -1.355842E-10 -9.408340E-11
       281  15  4.651142E+04  1.173750E+04  6.656249E+03  2.411338E+04  3.845455E-09  2.389109E-09
       281  16  5.839990E+03 -1.788392E+04 -9.423939E+03  4.277626E+03 -1.458158E-09 -1.045681E-09
       281  17 -5.859994E+03 -2.227477E+04 -1.030570E+04  8.692190E+01  2.157212E-09  7.959071E-10
       281  18 -1.303419E+04 -2.981012E+04 -9.933078E+03 -5.483824E+03  8.047711E-09  5.339200E-09
       281  19  8.634940E+04  3.987338E+04  1.305964E+04  4.506678E+04 -1.364751E+03  3.283279E+03
       281  20  9.390717E+04  4.811747E+04  1.738437E+04  5.008040E+04 -2.562842E+02  5.090932E+03
       281  21  1.060610E+05  5.328716E+04  2.324533E+04  5.371382E+04  9.536378E+02  6.763243E+03
       281  22  4.609353E+04  1.099407E+04  1.817855E+03  2.467131E+04 -5.335971E+02  3.906595E+03
       281  23  4.402204E+04  1.292054E+04  3.539434E+03  2.508243E+04  4.122970E+02  5.592366E+03
       281  24  4.651143E+04  1.173756E+04  6.656349E+03  2.411339E+04  1.459629E+03  7.142777E+03
       281  25  5.839995E+03 -1.788390E+04 -9.423900E+03  4.277628E+03  2.974733E+02  4.529847E+03
       281  26 -5.859982E+03 -2.227473E+04 -1.030562E+04  8.692721E+01  1.080801E+03  6.093742E+03
       281  27 -1.303417E+04 -2.981006E+04 -9.932965E+03 -5.483813E+03  1.965554E+03  7.522262E+03
       282   1  1.094483E+05  6.098638E+04  2.703873E+04  5.972375E+04 -9.381790E+02 -7.507273E+03
       282   2  1.248538E+05  6.138217E+04  3.711973E+04  5.898407E+04 -1.049011E+04 -1.417051E+04
       282   3  1.568555E+05  7.524104E+04  6.048628E+04  4.965851E+04 -2.187837E+04 -1.838638E+04
       282   4  4.667537E+04  1.106737E+04  8.584895E+03  2.567097E+04 -2.021996E+03 -8.320149E+03
       282   5  4.387876E+04  1.386881E+04  1.520645E+04  2.305188E+04 -8.635354E+03 -1.277969E+04
       282   6  5.704164E+04  2.949724E+04  3.256423E+04  1.184654E+04 -1.708459E+04 -1.479169E+04
       282   7 -1.609393E+04 -3.884926E+04 -9.869646E+03 -8.378088E+03 -3.105680E+03 -9.132907E+03
       282   8 -3.708902E+04 -3.364221E+04 -6.707405E+03 -1.287544E+04 -6.780927E+03 -1.138906E+04
       282   9 -4.275987E+04 -1.624411E+04  4.641857E+03 -2.595948E+04 -1.229194E+04 -1.119748E+04
       282  10  1.094482E+05  6.098632E+04  2.703862E+04  5.972374E+04  8.161027E-09  5.224018E-09
       282  11  1.248537E+05  6.138192E+04  3.711914E+04  5.898395E+04  2.089871E-09  7.574904E-10
       282  12  1.568549E+05  7.524055E+04  6.048474E+04  4.965819E+04 -1.210786E-09 -1.190761E-09
       282  13  4.667534E+04  1.106729E+04  8.584757E+03  2.567096E+04  4.036478E-09  2.366963E-09
       282  14  4.387864E+04  1.386862E+04  1.520600E+04  2.305179E+04  3.224399E-10 -2.449865E-10
       282  15  5.704127E+04  2.949693E+04  3.256327E+04  1.184633E+04 -1.742700E-10 -4.126367E-10
       282  16 -1.609397E+04 -3.884935E+04 -9.869821E+03 -8.378111E+03 -6.157923E-10 -4.928181E-10
       282  17 -3.708910E+04 -3.364236E+04 -6.707735E+03 -1.287551E+04 -2.137644E-09 -1.053045E-09
       282  18 -4.276007E+04 -1.624429E+04  4.641338E+03 -2.595959E+04  2.343453E-10  4.535584E-10
       282  19  1.094483E+05  6.098638E+04  2.703873E+04  5.972375E+04  9.381790E+02  7.507273E+03
       282  20  1.248538E+05  6.138217E+04  3.711973E+04  5.898407E+04  1.049011E+04  1.417051E+04
       282  21  1.568555E+05  7.524104E+04  6.048628E+04  4.965851E+04  2.187837E+04  1.838638E+04
       282  22  4.667537E+04  1.106737E+04  8.584895E+03  2.567097E+04  2.021996E+03  8.320149E+03
       282  23  4.387876E+04  1.386881E+04  1.520645E+04  2.305188E+04  8.635354E+03  1.277969E+04
       282  24  5.704164E+04  2.949724E+04  3.256423E+04  1.184654E+04  1.708459E+04  1.479169E+04
       282  25 -1.609393E+04 -3.884926E+04 -9.869646E+03 -8.378088E+03  3.105680E+03  9.132907E+03
       282  26 -3.708902E+04 -3.364221E+04 -6.707405E+03 -1.287544E+04  6.780927E+03  1.138906E+04
       282  27 -4.275987E+04 -1.624411E+04  4.641857E+03 -2.595948E+04  1.229194E+04  1.119748E+04
       283   1  8.788714E+05  1.298099E+05  1.436264E+05  5.132329E+04  8.379760E+04 -2.175168E+03
       283   2  8.677705E+05  4.354237E+04  8.155140E+04  2.008531E+04  5.262569E+04 -7.342760E+03
       283   3  8.795020E+05  3.239310E+04  5.853334E+04 -1.146232E+04  2.145391E+04 -8.862409E+03
       283   4  7.340350E+05  9.396400E+04  1.091568E+05 -2.312804E+02  7.539741E+04 -2.182691E+03
       283   5  7.230147E+05  8.528662E+03  5.113622E+04 -7.079443E+01  4.860953E+04 -7.345002E+03
       283   6  7.340688E+05 -2.543199E+03  2.913544E+04 -2.207977E+02  2.182148E+04 -8.862134E+03
       283   7  5.892238E+05  5.812663E+04  7.468730E+04 -5.177378E+04  6.699916E+04 -2.188821E+03
       283   8  5.782794E+05 -2.648486E+04  2.072015E+04 -2.022213E+04  4.459430E+04 -7.346984E+03
       283   9  5.886560E+05 -3.748033E+04 -2.634892E+02  1.101805E+04  2.218896E+04 -8.861846E+03
       283  10  8.788638E+05  1.298080E+05  1.436132E+05  5.132344E+04 -2.905830E-10 -6.000128E-11
       283  11  8.677676E+05  4.354157E+04  8.154610E+04  2.008562E+04  4.626027E-10  1.429203E-10
       283  12  8.795015E+05  3.239289E+04  5.853233E+04 -1.146217E+04  1.629840E-10 -1.925827E-10
       283  13  7.340289E+05  9.396247E+04  1.091461E+05 -2.311479E+02  3.939691E-10  1.438850E-10
       283  14  7.230121E+05  8.527971E+03  5.113169E+04 -7.050697E+01  3.929121E-10  2.619623E-10
       283  15  7.340683E+05 -2.543411E+03  2.913440E+04 -2.206420E+02  2.684493E-10 -1.549576E-11
       283  16  5.892190E+05  5.812542E+04  7.467886E+04 -5.177367E+04  3.596525E-10  4.484290E-11
       283  17  5.782773E+05 -2.648545E+04  2.071631E+04 -2.022186E+04 -2.257290E-10 -3.008415E-11
       283  18  5.886554E+05 -3.748055E+04 -2.645612E+02  1.101820E+04 -1.253897E-10 -4.599034E-11
       283  19  8.788714E+05  1.298099E+05  1.436264E+05  5.132329E+04 -8.379760E+04  2.175168E+03
       283  20  8.677705E+05  4.354237E+04  8.155140E+04  2.008531E+04 -5.262569E+04  7.342760E+03
       283  21  8.795020E+05  3.239310E+04  5.853334E+04 -1.146232E+04 -2.145391E+04  8.862409E+03
       283  22  7.340350E+05  9.396400E+04  1.091568E+05 -2.312804E+02 -7.539741E+04  2.182691E+03
       283  23  7.230147E+05  8.528662E+03  5.113622E+04 -7.079443E+01 -4.860953E+04  7.345002E+03
       283  24  7.340688E+05 -2.543199E+03  2.913544E+04 -2.207977E+02 -2.182148E+04  8.862134E+03
       283  25  5.892238E+05  5.812663E+04  7.468730E+04 -5.177378E+04 -6.699916E+04  2.188821E+03
       283  26  5.782794E+05 -2.648486E+04  2.072015E+04 -2.022213E+04 -4.459430E+04  7.346984E+03
       283  27  5.886560E+05 -3.748033E+04 -2.634892E+02  1.101805E+04 -2.218896E+04  8.861846E+03
       284   1  8.751028E+05  3.869512E+04  5.232970E+04  1.035057E+03  1.836403E+04 -8.747161E+03
       284   2  8.746771E+05  3.514979E+04  4.213700E+04  1.266070E+02  1.174190E+04 -9.055083E+03
       284   3  8.759512E+05  3.494276E+04  3.708693E+04 -9.278375E+02  5.119885E+03 -9.151864E+03
       284   4  7.295267E+05  3.700928E+03  2.280509E+04 -1.867333E+02  1.786569E+04 -8.747437E+03
       284   5  7.287005E+05  1.038992E+02  1.275232E+04 -1.133278E+02  1.149852E+04 -9.055304E+03
       284   6  7.295302E+05 -1.985634E+02  7.666067E+03 -1.859287E+02  5.131468E+03 -9.152027E+03
       284   7  5.839708E+05 -3.129458E+04 -6.720628E+03 -1.408233E+03  1.736747E+04 -8.747712E+03
       284   8  5.827442E+05 -3.494331E+04 -1.663346E+04 -3.532061E+02  1.125520E+04 -9.055525E+03
       284   9  5.831297E+05 -3.534121E+04 -2.175589E+04  5.558007E+02  5.143049E+03 -9.152189E+03
       284  10  8.751024E+05  3.869495E+04  5.232893E+04  1.035186E+03 -2.926424E-11  4.833314E-11
       284  11  8.746769E+05  3.514967E+04  4.213658E+04  1.266926E+02 -3.771781E-10 -2.600685E-10
       284  12  8.759511E+05  3.494267E+04  3.708672E+04 -9.277998E+02  4.157816E-10  3.492277E-11
       284  13  7.295263E+05  3.700760E+03  2.280435E+04 -1.866075E+02  1.346651E-10 -1.352670E-11
       284  14  7.287003E+05  1.037757E+02  1.275191E+04 -1.132439E+02 -3.031845E-10 -8.754308E-12
       284  15  7.295302E+05 -1.986604E+02  7.665860E+03 -1.858909E+02 -1.222429E-10 -8.548881E-11
       284  16  5.839704E+05 -3.129474E+04 -6.721338E+03 -1.408110E+03  2.446623E-10 -1.089899E-10
       284  17  5.827440E+05 -3.494343E+04 -1.663385E+04 -3.531241E+02 -2.772536E-10 -1.091079E-11
       284  18  5.831297E+05 -3.534131E+04 -2.175609E+04  5.558386E+02 -3.132662E-10  1.687396E-10
       284  19  8.751028E+05  3.869512E+04  5.232970E+04  1.035057E+03 -1.836403E+04  8.747161E+03
       284  20  8.746771E+05  3.514979E+04  4.213700E+04  1.266070E+02 -1.174190E+04  9.055083E+03
       284  21  8.759512E+05  3.494276E+04  3.708693E+04 -9.278375E+02 -5.119885E+03  9.151864E+03
       284  22  7.295267E+05  3.700928E+03  2.280509E+04 -1.867333E+02 -1.786569E+04  8.747437E+03
       284  23  7.287005E+05  1.038992E+02  1.275232E+04 -1.133278E+02 -1.149852E+04  9.055304E+03
       284  24  7.295302E+05 -1.985634E+02  7.666067E+03 -1.859287E+02 -5.131468E+03  9.152027E+03
       284  25  5.839708E+05 -3.129458E+04 -6.720628E+03 -1.408233E+03 -1.736747E+04  8.747712E+03
       284  26  5.827442E+05 -3.494331E+04 -1.663346E+04 -3.532061E+02 -1.125520E+04  9.055525E+03
       284  27  5.831297E+05 -3.534121E+04 -2.175589E+04  5.558007E+02 -5.143049E+03  9.152189E+03
       285   1  8.760125E+05  3.526457E+04  3.561892E+04 -2.921126E+02  4.001132E+03 -9.170552E+03
       285   2  8.763148E+05  3.530385E+04  3.393736E+04 -2.610142E+02  1.608623E+03 -9.134705E+03
       285   3  8.770645E+05  3.587021E+04  3.394473E+04 -3.836225E+02 -7.839923E+02 -8.880645E+03
       285   4  7.292515E+05  4.083667E+01  6.127474E+03 -1.878125E+02  3.913219E+03 -9.170746E+03
       285   5  7.290507E+05 -5.118756E+01  4.291793E+03 -1.109992E+02  1.783302E+03 -9.134825E+03
       285   6  7.292519E+05  3.384115E+02  3.963106E+03 -1.878940E+02 -3.467167E+02 -8.880668E+03
       285   7  5.825111E+05 -3.518423E+04 -2.336507E+04 -8.353869E+01  3.825326E+03 -9.170940E+03
       285   8  5.818073E+05 -3.540757E+04 -2.535489E+04  3.897818E+01  1.957939E+03 -9.134945E+03
       285   9  5.814600E+05 -3.519474E+04 -2.601966E+04  7.785454E+00  9.045681E+01 -8.880690E+03
       285  10  8.760125E+05  3.526448E+04  3.561873E+04 -2.920831E+02  9.920168E-11 -7.589141E-11
       285  11  8.763148E+05  3.530376E+04  3.393720E+04 -2.610024E+02  4.456658E-10 -2.985572E-10
       285  12  8.770644E+05  3.587012E+04  3.394459E+04 -3.836281E+02  4.715361E-10 -5.476547E-10
       285  13  7.292515E+05  4.074223E+01  6.127288E+03 -1.877836E+02 -2.523824E-11 -7.110258E-11
       285  14  7.290507E+05 -5.127805E+01  4.291630E+03 -1.109860E+02  1.069174E-10 -2.444017E-10
       285  15  7.292518E+05  3.383267E+02  3.962958E+03 -1.878964E+02  2.383948E-10 -3.701196E-10
       285  16  5.825110E+05 -3.518432E+04 -2.336525E+04 -8.351044E+01  4.562206E-11  5.506237E-11
       285  17  5.818073E+05 -3.540766E+04 -2.535505E+04  3.899259E+01  1.183302E-10  5.874691E-10
       285  18  5.814600E+05 -3.519483E+04 -2.601981E+04  7.786101E+00 -5.207843E-11 -3.711766E-11
       285  19  8.760125E+05  3.526457E+04  3.561892E+04 -2.921126E+02 -4.001132E+03  9.170552E+03
       285  20  8.763148E+05  3.530385E+04  3.393736E+04 -2.610142E+02 -1.608623E+03  9.134705E+03
       285  21  8.770645E+05  3.587021E+04  3.394473E+04 -3.836225E+02  7.839923E+02  8.880645E+03
       285  22  7.292515E+05  4.083667E+01  6.127474E+03 -1.878125E+02 -3.913219E+03  9.170746E+03
       285  23  7.290507E+05 -5.118756E+01  4.291793E+03 -1.109992E+02 -1.783302E+03  9.134825E+03
       285  24  7.292519E+05  3.384115E+02  3.963106E+03 -1.878940E+02  3.467167E+02  8.880668E+03
       285  25  5.825111E+05 -3.518423E+04 -2.336507E+04 -8.353869E+01 -3.825326E+03  9.170940E+03
       285  26  5.818073E+05 -3.540757E+04 -2.535489E+04  3.897818E+01 -1.957939E+03  9.134945E+03
       285  27  5.814600E+05 -3.519474E+04 -2.601966E+04  7.785454E+00 -9.045681E+01  8.880690E+03
       286   1  8.780163E+05  3.536456E+04  3.414119E+04  9.400113E+02 -5.456163E+02 -9.036885E+03
       286   2  8.771539E+05  3.678075E+04  3.693927E+04 -2.197253E+03 -8.054897E+03 -7.534070E+03
       286   3  8.793364E+05  4.645577E+04  4.668672E+04 -5.322048E+03 -1.556596E+04 -2.253744E+03
       286   4  7.296649E+05 -2.784862E+02  4.146914E+03 -1.501300E+02 -1.005847E+03 -9.037216E+03
       286   5  7.285340E+05  8.382015E+02  5.701985E+03 -1.582453E+02 -3.976606E+03 -7.532644E+03
       286   6  7.296616E+05  9.427545E+03  1.105832E+04 -1.538470E+02 -6.949097E+03 -2.250225E+03
       286   7  5.813344E+05 -3.592289E+04 -2.584850E+04 -1.240008E+03 -1.465969E+03 -9.037547E+03
       286   8  5.799350E+05 -3.510574E+04 -2.553647E+04  1.880265E+03  1.007261E+02 -7.531191E+03
       286   9  5.800075E+05 -2.760215E+04 -2.457135E+04  5.013102E+03  1.665704E+03 -2.246561E+03
       286  10  8.780163E+05  3.536447E+04  3.414103E+04  9.400074E+02  6.844570E-11 -8.139226E-10
       286  11  8.771539E+05  3.678067E+04  3.693904E+04 -2.197302E+03 -7.335200E-10 -1.233495E-09
       286  12  8.793361E+05  4.645570E+04  4.668626E+04 -5.322077E+03 -9.826732E-10 -4.088665E-10
       286  13  7.296648E+05 -2.785742E+02  4.146758E+03 -1.501373E+02 -9.393434E-10 -1.869181E-09
       286  14  7.285340E+05  8.381363E+02  5.701849E+03 -1.582694E+02  9.671973E-10  4.750164E-10
       286  15  7.296615E+05  9.427527E+03  1.105822E+04 -1.538596E+02  9.259186E-11 -9.572028E-11
       286  16  5.813343E+05 -3.592298E+04 -2.584865E+04 -1.240019E+03  1.719076E-10 -4.889459E-10
       286  17  5.799350E+05 -3.510580E+04 -2.553658E+04  1.880266E+03  9.182830E-10  2.101578E-10
       286  18  5.800075E+05 -2.760216E+04 -2.457136E+04  5.013105E+03  6.971770E-10 -5.067073E-10
       286  19  8.780163E+05  3.536456E+04  3.414119E+04  9.400113E+02  5.456163E+02  9.036885E+03
       286  20  8.771539E+05  3.678075E+04  3.693927E+04 -2.197253E+03  8.054897E+03  7.534070E+03
       286  21  8.793364E+05  4.645577E+04  4.668672E+04 -5.322048E+03  1.556596E+04  2.253744E+03
       286  22  7.296649E+05 -2.784862E+02  4.146914E+03 -1.501300E+02  1.005847E+03  9.037216E+03
       286  23  7.285340E+05  8.382015E+02  5.701985E+03 -1.582453E+02  3.976606E+03  7.532644E+03
       286  24  7.296616E+05  9.427545E+03  1.105832E+04 -1.538470E+02  6.949097E+03  2.250225E+03
       286  25  5.813344E+05 -3.592289E+04 -2.584850E+04 -1.240008E+03  1.465969E+03  9.037547E+03
       286  26  5.799350E+05 -3.510574E+04 -2.553647E+04  1.880265E+03 -1.007261E+02  7.531191E+03
       286  27  5.800075E+05 -2.760215E+04 -2.457135E+04  5.013102E+03 -1.665704E+03  2.246561E+03
       287   1 -2.016839E+04  2.297801E+04 -3.263905E+04 -2.024443E+03  2.223193E+03 -4.632512E+04
       287   2  2.836534E+04 -2.083475E+04 -6.863529E+03 -1.687213E+04  6.401131E+03 -3.314149E+04
       287   3  2.391116E+04 -7.960588E+04 -2.916053E+03 -4.765087E+04  5.228994E+03 -1.995942E+04
       287   4 -6.833630E+04 -1.710976E+05 -7.942611E+04 -3.948571E+04  2.227124E+03 -5.453749E+04
       287   5 -6.187919E+03 -1.630525E+05 -3.742375E+04 -3.151458E+04  6.402316E+03 -3.494023E+04
       287   6  1.849917E+03 -1.710877E+05 -2.170901E+04 -3.947578E+04  5.227847E+03 -1.534317E+04
       287   7 -1.165016E+05 -3.651356E+05 -1.262149E+05 -7.693523E+04  2.232047E+03 -6.274730E+04
       287   8 -4.074170E+04 -3.052507E+05 -6.798503E+04 -4.615364E+04  6.403585E+03 -3.673857E+04
       287   9 -2.021159E+04 -2.625613E+05 -4.050230E+04 -3.130193E+04  5.226820E+03 -1.072760E+04
       287  10 -2.016897E+04  2.297571E+04 -3.264309E+04 -2.024360E+03  5.814006E-12 -3.229247E-09
       287  11  2.836500E+04 -2.083594E+04 -6.865670E+03 -1.687196E+04 -6.325184E-10  7.945052E-09
       287  12  2.391103E+04 -7.960632E+04 -2.916853E+03 -4.765078E+04 -1.439811E-09  1.705523E-08
       287  13 -6.833710E+04 -1.711008E+05 -7.943172E+04 -3.948561E+04 -7.180538E-11 -6.206331E-11
       287  14 -6.188291E+03 -1.630538E+05 -3.742613E+04 -3.151440E+04 -4.276816E-10  1.204423E-10
       287  15  1.849824E+03 -1.710879E+05 -2.170950E+04 -3.947572E+04 -1.532445E-09 -1.979345E-10
       287  16 -1.165027E+05 -3.651398E+05 -1.262223E+05 -7.693511E+04  1.670269E-10  3.358647E-09
       287  17 -4.074210E+04 -3.052522E+05 -6.798765E+04 -4.615345E+04 -1.237326E-11 -8.158726E-09
       287  18 -2.021165E+04 -2.625615E+05 -4.050257E+04 -3.130188E+04 -1.417236E-09 -1.717316E-08
       287  19 -2.016839E+04  2.297801E+04 -3.263905E+04 -2.024443E+03 -2.223193E+03  4.632512E+04
       287  20  2.836534E+04 -2.083475E+04 -6.863529E+03 -1.687213E+04 -6.401131E+03  3.314149E+04
       287  21  2.391116E+04 -7.960588E+04 -2.916053E+03 -4.765087E+04 -5.228994E+03  1.995942E+04
       287  22 -6.833630E+04 -1.710976E+05 -7.942611E+04 -3.948571E+04 -2.227124E+03  5.453749E+04
       287  23 -6.187919E+03 -1.630525E+05 -3.742375E+04 -3.151458E+04 -6.402316E+03  3.494023E+04
       287  24  1.849917E+03 -1.710877E+05 -2.170901E+04 -3.947578E+04 -5.227847E+03  1.534317E+04
       287  25 -1.165016E+05 -3.651356E+05 -1.262149E+05 -7.693523E+04 -2.232047E+03  6.274730E+04
       287  26 -4.074170E+04 -3.052507E+05 -6.798503E+04 -4.615364E+04 -6.403585E+03  3.673857E+04
       287  27 -2.021159E+04 -2.625613E+05 -4.050230E+04 -3.130193E+04 -5.226820E+03  1.072760E+04
       288   1  1.048643E+04 -1.133440E+05 -6.058177E+03 -3.857367E+04  3.054053E+03 -1.577902E+04
       288   2  6.862207E+02 -1.638954E+05 -9.912249E+03 -3.132387E+04  2.008336E+02 -1.051407E+04
       288   3 -1.193295E+04 -2.158400E+05 -1.790059E+04 -4.027711E+04 -2.661270E+03 -5.249511E+03
       288   4 -2.658717E+03 -1.678247E+05 -1.729734E+04 -3.953797E+04  3.053361E+03 -1.236192E+04
       288   5 -9.035668E+01 -1.671254E+05 -1.056483E+04 -3.143615E+04  2.001157E+02 -7.086878E+03
       288   6 -3.427330E+02 -1.678241E+05 -7.974050E+03 -3.953747E+04 -2.662007E+03 -1.811818E+03
       288   7 -1.580404E+04 -2.223025E+05 -2.853661E+04 -4.050218E+04  3.052659E+03 -8.945116E+03
       288   8 -8.669284E+02 -1.703555E+05 -1.121738E+04 -3.154844E+04  1.993966E+02 -3.659707E+03
       288   9  1.124734E+04 -1.198060E+05  1.952410E+03 -3.879777E+04 -2.662737E+03  1.626137E+03
       288  10  1.048635E+04 -1.133442E+05 -6.058663E+03 -3.857363E+04 -1.315651E-09 -1.716701E-08
       288  11  6.861910E+02 -1.638955E+05 -9.912457E+03 -3.132386E+04 -2.447969E-10 -8.011691E-09
       288  12 -1.193296E+04 -2.158401E+05 -1.790066E+04 -4.027712E+04  4.544100E-10  3.608805E-09
       288  13 -2.658768E+03 -1.678248E+05 -1.729764E+04 -3.953794E+04 -1.211788E-09 -1.786342E-10
       288  14 -9.037021E+01 -1.671255E+05 -1.056493E+04 -3.143615E+04 -6.398812E-10  1.139936E-10
       288  15 -3.427415E+02 -1.678241E+05 -7.974070E+03 -3.953747E+04  7.143156E-10 -2.178335E-10
       288  16 -1.580407E+04 -2.223026E+05 -2.853678E+04 -4.050216E+04 -1.314655E-09  1.739777E-08
       288  17 -8.669320E+02 -1.703555E+05 -1.121740E+04 -3.154844E+04 -4.109759E-10  7.566583E-09
       288  18  1.124734E+04 -1.198060E+05  1.952391E+03 -3.879777E+04  4.980533E-10 -3.734699E-09
       288  19  1.048643E+04 -1.133440E+05 -6.058177E+03 -3.857367E+04 -3.054053E+03  1.577902E+04
       288  20  6.862207E+02 -1.638954E+05 -9.912249E+03 -3.132387E+04 -2.008336E+02  1.051407E+04
       288  21 -1.193295E+04 -2.158400E+05 -1.790059E+04 -4.027711E+04  2.661270E+03  5.249511E+03
       288  22 -2.658717E+03 -1.678247E+05 -1.729734E+04 -3.953797E+04 -3.053361E+03  1.236192E+04
       288  23 -9.035668E+01 -1.671254E+05 -1.056483E+04 -3.143615E+04 -2.001157E+02  7.086878E+03
       288  24 -3.427330E+02 -1.678241E+05 -7.974050E+03 -3.953747E+04  2.662007E+03  1.811818E+03
       288  25 -1.580404E+04 -2.223025E+05 -2.853661E+04 -4.050218E+04 -3.052659E+03  8.945116E+03
       288  26 -8.669284E+02 -1.703555E+05 -1.121738E+04 -3.154844E+04 -1.993966E+02  3.659707E+03
       288  27  1.124734E+04 -1.198060E+05  1.952410E+03 -3.879777E+04  2.662737E+03 -1.626137E+03
       289   1 -2.020152E+04 -2.532114E+05 -2.500069E+04 -3.812372E+04 -4.829662E+03 -5.126562E+03
       289   2 -3.410543E+04 -3.024017E+05 -3.774544E+04 -3.434615E+04 -6.069621E+03  5.518403E+03
       289   3 -5.917647E+04 -3.557680E+05 -6.021477E+04 -4.650859E+04 -2.124621E+03  1.616277E+04
       289   4  3.016009E+02 -1.682028E+05 -7.517275E+03 -3.947877E+04 -4.830552E+03 -5.316831E+02
       289   5 -1.109309E+03 -1.666563E+05 -8.541180E+03 -3.150959E+04 -6.069226E+03  3.894224E+03
       289   6 -1.260607E+04 -1.682081E+05 -1.496897E+04 -3.948063E+04 -2.123310E+03  8.320537E+03
       289   7  2.080428E+04 -8.318731E+04  9.965831E+03 -4.083402E+04 -4.831463E+03  4.063814E+03
       289   8  3.188563E+04 -3.089367E+04  2.066202E+04 -2.867240E+04 -6.068845E+03  2.269695E+03
       289   9  3.396199E+04  1.938430E+04  3.027457E+04 -3.245053E+04 -2.122176E+03  4.759389E+02
       289  10 -2.020155E+04 -2.532115E+05 -2.500078E+04 -3.812374E+04  3.276160E-10 -4.980453E-10
       289  11 -3.410548E+04 -3.024017E+05 -3.774557E+04 -3.434613E+04  9.145127E-11 -4.436761E-10
       289  12 -5.917655E+04 -3.557683E+05 -6.021527E+04 -4.650856E+04 -2.078245E-10 -3.353396E-10
       289  13  3.015758E+02 -1.682028E+05 -7.517320E+03 -3.947878E+04  3.703495E-10 -1.205521E-10
       289  14 -1.109353E+03 -1.666564E+05 -8.541277E+03 -3.150957E+04  4.659515E-10  1.047065E-10
       289  15 -1.260609E+04 -1.682081E+05 -1.496911E+04 -3.948061E+04 -7.663098E-11 -7.384732E-11
       289  16  2.080425E+04 -8.318733E+04  9.965756E+03 -4.083400E+04  9.098377E-10  7.077297E-10
       289  17  3.188559E+04 -3.089368E+04  2.066194E+04 -2.867239E+04  2.053544E-10  1.594925E-10
       289  18  3.396199E+04  1.938429E+04  3.027456E+04 -3.245053E+04 -2.106181E-11  2.886705E-10
       289  19 -2.020152E+04 -2.532114E+05 -2.500069E+04 -3.812372E+04  4.829662E+03  5.126562E+03
       289  20 -3.410543E+04 -3.024017E+05 -3.774544E+04 -3.434615E+04  6.069621E+03 -5.518403E+03
       289  21 -5.917647E+04 -3.557680E+05 -6.021477E+04 -4.650859E+04  2.124621E+03 -1.616277E+04
       289  22  3.016009E+02 -1.682028E+05 -7.517275E+03 -3.947877E+04  4.830552E+03  5.316831E+02
       289  23 -1.109309E+03 -1.666563E+05 -8.541180E+03 -3.150959E+04  6.069226E+03 -3.894224E+03
       289  24 -1.260607E+04 -1.682081E+05 -1.496897E+04 -3.948063E+04  2.123310E+03 -8.320537E+03
       289  25  2.080428E+04 -8.318731E+04  9.965831E+03 -4.083402E+04  4.831463E+03 -4.063814E+03
       289  26  3.188563E+04 -3.089367E+04  2.066202E+04 -2.867240E+04  6.068845E+03 -2.269695E+03
       289  27  3.396199E+04  1.938430E+04  3.027457E+04 -3.245053E+04  2.122176E+03 -4.759389E+02
       290   1  1.534919E+05  5.787273E+04  1.497663E+03  9.119711E+04 -4.238568E+03 -4.938754E+03
       290   2  1.634800E+05  8.204504E+04  1.168556E+04  9.362894E+04 -4.769094E+02 -6.677958E+03
       290   3  1.723891E+05  9.296850E+04  1.777961E+04  9.855367E+04  2.179147E+03 -6.942934E+03
       290   4  8.835071E+04  2.480769E+04 -1.708469E+04  6.499850E+04 -8.625542E+03 -8.229360E+03
       290   5  9.180180E+04  3.645802E+04 -7.971702E+03  6.012577E+04 -3.094795E+03 -8.641741E+03
       290   6  9.378943E+04  3.447459E+04 -4.488321E+03  5.774607E+04  1.330303E+03 -7.579800E+03
       290   7  2.321414E+04 -8.256349E+03 -3.566733E+04  3.880251E+04 -1.301188E+04 -1.151967E+04
       290   8  2.012879E+04 -9.127047E+03 -2.762957E+04  2.662657E+04 -5.712287E+03 -1.060527E+04
       290   9  1.519556E+04 -2.401607E+04 -2.675724E+04  1.694397E+04  4.815935E+02 -8.216559E+03
       290  10  1.534919E+05  5.787270E+04  1.497584E+03  9.119709E+04 -1.588091E-10 -4.283942E-11
       290  11  1.634800E+05  8.204499E+04  1.168547E+04  9.362893E+04  2.872267E-11  1.671309E-10
       290  12  1.723891E+05  9.296845E+04  1.777951E+04  9.855369E+04  6.934146E-11 -1.009141E-10
       290  13  8.835061E+04  2.480760E+04 -1.708495E+04  6.499844E+04 -1.019198E-11  1.709316E-11
       290  14  9.180177E+04  3.645794E+04 -7.971860E+03  6.012575E+04 -3.948144E-11  3.693719E-10
       290  15  9.378941E+04  3.447453E+04 -4.488433E+03  5.774607E+04  2.485272E-12 -3.030896E-10
       290  16  2.321392E+04 -8.256537E+03 -3.566789E+04  3.880239E+04  7.740458E-11  4.346773E-11
       290  17  2.012872E+04 -9.127176E+03 -2.762984E+04  2.662652E+04  1.784108E-10  1.170212E-11
       290  18  1.519555E+04 -2.401614E+04 -2.675737E+04  1.694397E+04 -1.708944E-10 -4.149859E-11
       290  19  1.534919E+05  5.787273E+04  1.497663E+03  9.119711E+04  4.238568E+03  4.938754E+03
       290  20  1.634800E+05  8.204504E+04  1.168556E+04  9.362894E+04  4.769094E+02  6.677958E+03
       290  21  1.723891E+05  9.296850E+04  1.777961E+04  9.855367E+04 -2.179147E+03  6.942934E+03
       290  22  8.835071E+04  2.480769E+04 -1.708469E+04  6.499850E+04  8.625542E+03  8.229360E+03
       290  23  9.180180E+04  3.645802E+04 -7.971702E+03  6.012577E+04  3.094795E+03  8.641741E+03
       290  24  9.378943E+04  3.447459E+04 -4.488321E+03  5.774607E+04 -1.330303E+03  7.579800E+03
       290  25  2.321414E+04 -8.256349E+03 -3.566733E+04  3.880251E+04  1.301188E+04  1.151967E+04
       290  26  2.012879E+04 -9.127047E+03 -2.762957E+04  2.662657E+04  5.712287E+03  1.060527E+04
       290  27  1.519556E+04 -2.401607E+04 -2.675724E+04  1.694397E+04 -4.815935E+02  8.216559E+03
       291   1  1.826155E+05  9.660867E+04  2.121331E+04  1.029628E+05  3.338363E+03 -6.756742E+03
       291   2  1.918624E+05  1.077500E+05  2.590992E+04  1.093257E+05  4.683894E+03 -7.242397E+03
       291   3  2.056410E+05  1.136472E+05  2.997370E+04  1.144047E+05  5.967724E+03 -7.645569E+03
       291   4  9.387283E+04  3.412436E+04 -3.470612E+03  5.856348E+04  2.140938E+03 -7.655159E+03
       291   5  9.172648E+04  3.695061E+04 -1.817750E+03  5.905981E+04  3.585303E+03 -8.066773E+03
       291   6  9.409024E+04  3.451149E+04 -8.834563E+02  5.827218E+04  4.967951E+03 -8.395909E+03
       291   7  5.140092E+03 -2.835466E+04 -2.815489E+04  1.417198E+04  9.437585E+02 -8.553391E+03
       291   8 -8.397620E+03 -3.384249E+04 -2.954615E+04  8.803479E+03  2.486958E+03 -8.890965E+03
       291   9 -1.744659E+04 -4.461694E+04 -3.174179E+04  2.151204E+03  3.968420E+03 -9.146066E+03
       291  10  1.826155E+05  9.660862E+04  2.121320E+04  1.029628E+05  2.791046E-10  9.651139E-11
       291  11  1.918624E+05  1.077499E+05  2.590978E+04  1.093258E+05 -1.321083E-10 -2.054655E-10
       291  12  2.056409E+05  1.136471E+05  2.997352E+04  1.144047E+05 -2.812901E-10  3.116768E-11
       291  13  9.387281E+04  3.412429E+04 -3.470730E+03  5.856349E+04  8.037996E-11 -4.587942E-10
       291  14  9.172645E+04  3.695054E+04 -1.817897E+03  5.905984E+04 -2.813376E-11 -5.145078E-10
       291  15  9.409019E+04  3.451141E+04 -8.836351E+02  5.827221E+04  1.780496E-11  4.202762E-11
       291  16  5.140071E+03 -2.835474E+04 -2.815503E+04  1.417199E+04 -2.587753E-10  1.554238E-10
       291  17 -8.397648E+03 -3.384257E+04 -2.954631E+04  8.803497E+03  2.523607E-10  3.804316E-10
       291  18 -1.744663E+04 -4.461703E+04 -3.174198E+04  2.151233E+03  2.471590E-10 -1.049494E-10
       291  19  1.826155E+05  9.660867E+04  2.121331E+04  1.029628E+05 -3.338363E+03  6.756742E+03
       291  20  1.918624E+05  1.077500E+05  2.590992E+04  1.093257E+05 -4.683894E+03  7.242397E+03
       291  21  2.056410E+05  1.136472E+05  2.997370E+04  1.144047E+05 -5.967724E+03  7.645569E+03
       291  22  9.387283E+04  3.412436E+04 -3.470612E+03  5.856348E+04 -2.140938E+03  7.655159E+03
       291  23  9.172648E+04  3.695061E+04 -1.817750E+03  5.905981E+04 -3.585303E+03  8.066773E+03
       291  24  9.409024E+04  3.451149E+04 -8.834563E+02  5.827218E+04 -4.967951E+03  8.395909E+03
       291  25  5.140092E+03 -2.835466E+04 -2.815489E+04  1.417198E+04 -9.437585E+02  8.553391E+03
       291  26 -8.397620E+03 -3.384249E+04 -2.954615E+04  8.803479E+03 -2.486958E+03  8.890965E+03
       291  27 -1.744659E+04 -4.461694E+04 -3.174179E+04  2.151204E+03 -3.968420E+03  9.146066E+03
       292   1  2.140578E+05  1.194522E+05  3.269963E+04  1.185970E+05  6.457594E+03 -8.040852E+03
       292   2  2.232048E+05  1.300783E+05  3.646055E+04  1.251175E+05  7.040387E+03 -8.919467E+03
       292   3  2.372157E+05  1.358682E+05  4.026543E+04  1.302303E+05  7.606750E+03 -9.775880E+03
       292   4  9.411041E+04  3.450395E+04 -5.409331E+02  5.832068E+04  5.433914E+03 -8.809202E+03
       292   5  9.168523E+04  3.693338E+04  5.677055E+01  5.901745E+04  6.043295E+03 -9.668005E+03
       292   6  9.411822E+04  3.452024E+04  6.753679E+02  5.830611E+04  6.636241E+03 -1.050459E+04
       292   7 -2.582242E+04 -5.043705E+04 -3.378340E+04 -1.943087E+03  4.410488E+03 -9.577362E+03
       292   8 -3.981510E+04 -5.620155E+04 -3.634868E+04 -7.066634E+03  5.046487E+03 -1.041633E+04
       292   9 -4.895464E+04 -6.681462E+04 -3.891604E+04 -1.359821E+04  5.666046E+03 -1.123307E+04
       292  10  2.140577E+05  1.194521E+05  3.269943E+04  1.185970E+05  3.103441E-10  9.302326E-10
       292  11  2.232048E+05  1.300782E+05  3.646031E+04  1.251176E+05 -4.322775E-11 -5.661245E-11
       292  12  2.372156E+05  1.358681E+05  4.026514E+04  1.302303E+05  2.875638E-10  6.016629E-12
       292  13  9.411036E+04  3.450385E+04 -5.411345E+02  5.832072E+04  1.758684E-10  5.072497E-10
       292  14  9.168517E+04  3.693327E+04  5.652625E+01  5.901749E+04  7.957319E-11  5.216123E-10
       292  15  9.411814E+04  3.452011E+04  6.750777E+02  5.830617E+04 -1.137538E-10 -4.317049E-10
       292  16 -2.582247E+04 -5.043715E+04 -3.378361E+04 -1.943053E+03 -7.527230E-10 -5.152846E-10
       292  17 -3.981516E+04 -5.620167E+04 -3.634893E+04 -7.066592E+03 -4.058584E-10 -6.547406E-12
       292  18 -4.895471E+04 -6.681476E+04 -3.891634E+04 -1.359816E+04 -6.231142E-11 -1.404204E-10
       292  19  2.140578E+05  1.194522E+05  3.269963E+04  1.185970E+05 -6.457594E+03  8.040852E+03
       292  20  2.232048E+05  1.300783E+05  3.646055E+04  1.251175E+05 -7.040387E+03  8.919467E+03
       292  21  2.372157E+05  1.358682E+05  4.026543E+04  1.302303E+05 -7.606750E+03  9.775880E+03
       292  22  9.411041E+04  3.450395E+04 -5.409331E+02  5.832068E+04 -5.433914E+03  8.809202E+03
       292  23  9.168523E+04  3.693338E+04  5.677055E+01  5.901745E+04 -6.043295E+03  9.668005E+03
       292  24  9.411822E+04  3.452024E+04  6.753679E+02  5.830611E+04 -6.636241E+03  1.050459E+04
       292  25 -2.582242E+04 -5.043705E+04 -3.378340E+04 -1.943087E+03 -4.410488E+03  9.577362E+03
       292  26 -3.981510E+04 -5.620155E+04 -3.634868E+04 -7.066634E+03 -5.046487E+03  1.041633E+04
       292  27 -4.895464E+04 -6.681462E+04 -3.891604E+04 -1.359821E+04 -5.666046E+03  1.123307E+04
       293   1  2.454779E+05  1.418649E+05  4.300897E+04  1.344922E+05  7.941538E+03 -1.030996E+04
       293   2  2.547234E+05  1.523019E+05  4.731671E+04  1.408599E+05  7.262537E+03 -1.193226E+04
       293   3  2.692819E+05  1.584619E+05  5.277971E+04  1.456841E+05  6.340494E+03 -1.323054E+04
       293   4  9.413684E+04  3.451444E+04  1.041724E+03  5.836036E+04  6.892979E+03 -1.109734E+04
       293   5  9.164416E+04  3.691143E+04  2.062539E+03  5.896929E+04  6.603244E+03 -1.242762E+04
       293   6  9.437985E+04  3.494692E+04  3.901000E+03  5.803466E+04  6.070455E+03 -1.343381E+04
       293   7 -5.717875E+04 -7.282275E+04 -4.092777E+04 -1.775030E+04  5.844765E+03 -1.188445E+04
       293   8 -7.140656E+04 -7.846455E+04 -4.319460E+04 -2.289727E+04  5.944182E+03 -1.292281E+04
       293   9 -8.049048E+04 -8.855221E+04 -4.498152E+04 -2.958777E+04  5.800515E+03 -1.363700E+04
       293  10  2.454778E+05  1.418647E+05  4.300865E+04  1.344923E+05  2.116004E-10  8.793371E-11
       293  11  2.547233E+05  1.523018E+05  4.731634E+04  1.408599E+05  1.779661E-10  2.814797E-10
       293  12  2.692818E+05  1.584617E+05  5.277930E+04  1.456842E+05  8.095978E-10 -6.415011E-10
       293  13  9.413676E+04  3.451430E+04  1.041403E+03  5.836042E+04  2.449613E-10 -4.820462E-11
       293  14  9.164407E+04  3.691125E+04  2.062167E+03  5.896936E+04  1.550245E-10 -1.477897E-10
       293  15  9.437976E+04  3.494671E+04  3.900592E+03  5.803473E+04  4.884221E-10  3.252836E-10
       293  16 -5.717882E+04 -7.282291E+04 -4.092810E+04 -1.775025E+04 -3.584867E-11 -1.728346E-10
       293  17 -7.140664E+04 -7.846474E+04 -4.319498E+04 -2.289721E+04  7.760420E-10 -5.909158E-10
       293  18 -8.049057E+04 -8.855241E+04 -4.498193E+04 -2.958770E+04  5.724537E-11 -1.386524E-09
       293  19  2.454779E+05  1.418649E+05  4.300897E+04  1.344922E+05 -7.941538E+03  1.030996E+04
       293  20  2.547234E+05  1.523019E+05  4.731671E+04  1.408599E+05 -7.262537E+03  1.193226E+04
       293  21  2.692819E+05  1.584619E+05  5.277971E+04  1.456841E+05 -6.340494E+03  1.323054E+04
       293  22  9.413684E+04  3.451444E+04  1.041724E+03  5.836036E+04 -6.892979E+03  1.109734E+04
       293  23  9.164416E+04  3.691143E+04  2.062539E+03  5.896929E+04 -6.603244E+03  1.242762E+04
       293  24  9.437985E+04  3.494692E+04  3.901000E+03  5.803466E+04 -6.070455E+03  1.343381E+04
       293  25 -5.717875E+04 -7.282275E+04 -4.092777E+04 -1.775030E+04 -5.844765E+03  1.188445E+04
       293  26 -7.140656E+04 -7.846455E+04 -4.319460E+04 -2.289727E+04 -5.944182E+03  1.292281E+04
       293  27 -8.049048E+04 -8.855221E+04 -4.498152E+04 -2.958777E+04 -5.800515E+03  1.363700E+04
       294   1  2.757256E+05  1.662486E+05  5.616220E+04  1.515197E+05  7.707357E+03 -1.330001E+04
       294   2  2.894964E+05  1.719087E+05  6.539175E+04  1.541435E+05 -4.222619E+03 -1.983499E+04
       294   3  3.164506E+05  1.843585E+05  8.702814E+04  1.510687E+05 -2.054772E+04 -2.051818E+04
       294   4  9.441313E+04  3.461262E+04  5.035405E+03  5.896673E+04  6.054505E+03 -1.454149E+04
       294   5  9.163153E+04  3.738737E+04  8.925549E+03  5.775428E+04  1.152597E+03 -1.579968E+04
       294   6  1.005101E+05  4.542970E+04  1.912339E+04  5.084275E+04 -8.144890E+03 -1.120497E+04
       294   7 -8.686041E+04 -9.700153E+04 -4.609386E+04 -3.355387E+04  4.402325E+03 -1.578244E+04
       294   8 -1.061889E+05 -9.711301E+04 -4.754407E+04 -3.860004E+04  6.525453E+03 -1.176605E+04
       294   9 -1.153804E+05 -9.347951E+04 -4.878607E+04 -4.934579E+04  4.252015E+03 -1.895659E+03
       294  10  2.757255E+05  1.662484E+05  5.616176E+04  1.515198E+05  5.413188E-11 -5.120587E-10
       294  11  2.894963E+05  1.719083E+05  6.539098E+04  1.541434E+05  3.544942E-10  6.202152E-10
       294  12  3.164500E+05  1.843579E+05  8.702655E+04  1.510684E+05  3.194811E-10  2.528764E-10
       294  13  9.441304E+04  3.461239E+04  5.034939E+03  5.896680E+04  6.519680E-10 -8.793630E-10
       294  14  9.163146E+04  3.738710E+04  8.925077E+03  5.775430E+04 -1.895129E-11  3.207800E-09
       294  15  1.005100E+05  4.542955E+04  1.912303E+04  5.084268E+04  2.351371E-10 -1.921834E-10
       294  16 -8.686049E+04 -9.700181E+04 -4.609436E+04 -3.355381E+04  6.910416E-10  2.190208E-11
       294  17 -1.061890E+05 -9.711317E+04 -4.754441E+04 -3.859998E+04 -2.836135E-10  8.445335E-10
       294  18 -1.153805E+05 -9.347952E+04 -4.878611E+04 -4.934578E+04 -4.352744E-10  5.720058E-11
       294  19  2.757256E+05  1.662486E+05  5.616220E+04  1.515197E+05 -7.707357E+03  1.330001E+04
       294  20  2.894964E+05  1.719087E+05  6.539175E+04  1.541435E+05  4.222619E+03  1.983499E+04
       294  21  3.164506E+05  1.843585E+05  8.702814E+04  1.510687E+05  2.054772E+04  2.051818E+04
       294  22  9.441313E+04  3.461262E+04  5.035405E+03  5.896673E+04 -6.054505E+03  1.454149E+04
       294  23  9.163153E+04  3.738737E+04  8.925549E+03  5.775428E+04 -1.152597E+03  1.579968E+04
       294  24  1.005101E+05  4.542970E+04  1.912339E+04  5.084275E+04  8.144890E+03  1.120497E+04
       294  25 -8.686041E+04 -9.700153E+04 -4.609386E+04 -3.355387E+04 -4.402325E+03  1.578244E+04
       294  26 -1.061889E+05 -9.711301E+04 -4.754407E+04 -3.860004E+04 -6.525453E+03  1.176605E+04
       294  27 -1.153804E+05 -9.347951E+04 -4.878607E+04 -4.934579E+04 -4.252015E+03  1.895659E+03
       295   1  2.128920E+06  3.427369E+05  3.398514E+05  1.483018E+05  9.508961E+04 -1.590019E+04
       295   2  1.960604E+06  2.566014E+05  2.456661E+05  1.093556E+05  4.401865E+04 -5.027576E+04
       295   3  1.809473E+06  2.121235E+05  1.951052E+05  1.190588E+05 -7.053113E+03 -5.285118E+04
       295   4  9.221551E+05  4.403139E+04  5.115402E+04  1.234157E+05  3.461298E+04 -1.594991E+04
       295   5  9.169391E+05  3.956925E+03  2.449082E+04  9.911245E+04  2.183367E+04 -5.030438E+04
       295   6  9.222774E+05 -1.055577E+03  1.494234E+04  1.234581E+05  9.038221E+03 -5.283695E+04
       295   7 -2.832705E+05 -2.547753E+05 -2.376321E+05  9.857773E+04 -2.574697E+04 -1.599487E+04
       295   8 -1.257001E+05 -2.487573E+05 -1.967446E+05  8.888638E+04 -3.147034E+02 -5.033231E+04
       295   9  3.582933E+04 -2.142834E+05 -1.652606E+05  1.278506E+05  2.510704E+04 -5.282249E+04
       295  10  2.128910E+06  3.427343E+05  3.398340E+05  1.483030E+05  9.488031E-10 -3.291102E-10
       295  11  1.960601E+06  2.565982E+05  2.456577E+05  1.093574E+05  2.013215E-10 -2.156183E-09
       295  12  1.809472E+06  2.121205E+05  1.950998E+05  1.190585E+05  5.094297E-10 -2.220482E-09
       295  13  9.221537E+05  4.403080E+04  5.115129E+04  1.234162E+05  3.290884E-10  3.124768E-10
       295  14  9.169379E+05  3.954078E+03  2.448517E+04  9.911334E+04  7.244229E-11 -1.191690E-09
       295  15  9.222766E+05 -1.058599E+03  1.493694E+04  1.234584E+05  5.097383E-10 -7.959657E-11
       295  16 -2.832712E+05 -2.547757E+05 -2.376338E+05  9.857740E+04 -8.353446E-10  7.469253E-11
       295  17 -1.257008E+05 -2.487601E+05 -1.967494E+05  8.888637E+04 -8.720283E-10 -2.899190E-09
       295  18  3.582790E+04 -2.142865E+05 -1.652670E+05  1.278517E+05 -4.275044E-10 -3.288731E-09
       295  19  2.128920E+06  3.427369E+05  3.398514E+05  1.483018E+05 -9.508961E+04  1.590019E+04
       295  20  1.960604E+06  2.566014E+05  2.456661E+05  1.093556E+05 -4.401865E+04  5.027576E+04
       295  21  1.809473E+06  2.121235E+05  1.951052E+05  1.190588E+05  7.053113E+03  5.285118E+04
       295  22  9.221551E+05  4.403139E+04  5.115402E+04  1.234157E+05 -3.461298E+04  1.594991E+04
       295  23  9.169391E+05  3.956925E+03  2.449082E+04  9.911245E+04 -2.183367E+04  5.030438E+04
       295  24  9.222774E+05 -1.055577E+03  1.494234E+04  1.234581E+05 -9.038221E+03  5.283695E+04
       295  25 -2.832705E+05 -2.547753E+05 -2.376321E+05  9.857773E+04  2.574697E+04  1.599487E+04
       295  26 -1.257001E+05 -2.487573E+05 -1.967446E+05  8.888638E+04  3.147034E+02  5.033231E+04
       295  27  3.582933E+04 -2.142834E+05 -1.652606E+05  1.278506E+05 -2.510704E+04  5.282249E+04
       296   1  1.692059E+06  1.874599E+05  1.695101E+05  1.252230E+05 -1.665763E+03 -4.560162E+04
       296   2  1.532644E+06  1.473324E+05  1.328034E+05  9.965058E+04 -8.308426E+03 -3.762993E+04
       296   3  1.374578E+06  1.094108E+05  1.009422E+05  1.242095E+05 -1.495747E+04 -2.794294E+04
       296   4  9.201843E+05  1.902167E+03  1.245591E+04  1.237788E+05  6.894266E+03 -4.559426E+04
       296   5  9.197300E+05  1.946857E+02  9.178773E+03  9.871291E+04  2.318051E+03 -3.761676E+04
       296   6  9.202464E+05  3.382947E+02  9.318850E+03  1.237813E+05 -2.266153E+03 -2.792310E+04
       296   7  1.488748E+05 -1.836926E+05 -1.446292E+05  1.223362E+05  1.544387E+04 -4.558693E+04
       296   8  3.071732E+05 -1.469662E+05 -1.144647E+05  9.777603E+04  1.293426E+04 -3.760361E+04
       296   9  4.661115E+05 -1.087469E+05 -8.231454E+04  1.233533E+05  1.041607E+04 -2.790326E+04
       296  10  1.692059E+06  1.874576E+05  1.695062E+05  1.252229E+05 -2.541217E-09 -2.655939E-09
       296  11  1.532644E+06  1.473309E+05  1.328006E+05  9.965033E+04 -7.324714E-10  1.386289E-09
       296  12  1.374577E+06  1.094099E+05  1.009403E+05  1.242091E+05 -1.452683E-09  1.643780E-09
       296  13  9.201837E+05  1.899921E+03  1.245191E+04  1.237790E+05  8.597362E-11 -1.584786E-09
       296  14  9.197296E+05  1.931641E+02  9.176103E+03  9.871299E+04  3.215181E-10 -1.336743E-10
       296  15  9.202462E+05  3.374557E+02  9.317375E+03  1.237812E+05 -5.479918E-10 -1.209202E-09
       296  16  1.488740E+05 -1.836949E+05 -1.446336E+05  1.223367E+05  2.786716E-09 -1.439941E-10
       296  17  3.071727E+05 -1.469678E+05 -1.144677E+05  9.777643E+04  8.425793E-10  4.655191E-10
       296  18  4.661112E+05 -1.087478E+05 -8.231621E+04  1.233535E+05  1.398963E-09  9.729146E-10
       296  19  1.692059E+06  1.874599E+05  1.695101E+05  1.252230E+05  1.665763E+03  4.560162E+04
       296  20  1.532644E+06  1.473324E+05  1.328034E+05  9.965058E+04  8.308426E+03  3.762993E+04
       296  21  1.374578E+06  1.094108E+05  1.009422E+05  1.242095E+05  1.495747E+04  2.794294E+04
       296  22  9.201843E+05  1.902167E+03  1.245591E+04  1.237788E+05 -6.894266E+03  4.559426E+04
       296  23  9.197300E+05  1.946857E+02  9.178773E+03  9.871291E+04 -2.318051E+03  3.761676E+04
       296  24  9.202464E+05  3.382947E+02  9.318850E+03  1.237813E+05  2.266153E+03  2.792310E+04
       296  25  1.488748E+05 -1.836926E+05 -1.446292E+05  1.223362E+05 -1.544387E+04  4.558693E+04
       296  26  3.071732E+05 -1.469662E+05 -1.144647E+05  9.777603E+04 -1.293426E+04  3.760361E+04
       296  27  4.661115E+05 -1.087469E+05 -8.231454E+04  1.233533E+05 -1.041607E+04  2.790326E+04
       297   1  1.260886E+06  8.179815E+04  7.842233E+04  1.249698E+05 -1.643757E+04 -2.177107E+04
       297   2  1.101705E+06  4.407807E+04  5.152181E+04  9.866059E+04 -2.335614E+04 -1.172820E+04
       297   3  9.441916E+05  1.008660E+04  3.000346E+04  1.224297E+05 -3.027409E+04 -2.240988E+03
       297   4  9.204400E+05  1.854421E+02  1.040201E+04  1.237700E+05 -4.019190E+03 -2.175026E+04
       297   5  9.195680E+05  4.227354E+02  1.516973E+04  9.872681E+04 -1.160500E+04 -1.170762E+04
       297   6  9.204534E+05  4.505856E+03  2.578274E+04  1.237624E+05 -1.919190E+04 -2.220640E+03
       297   7  5.801049E+05 -8.143428E+04 -5.762358E+04  1.225709E+05  8.392531E+03 -2.172950E+04
       297   8  7.374624E+05 -4.323455E+04 -2.118351E+04  9.879300E+04  1.427559E+02 -1.168702E+04
       297   9  8.967160E+05 -1.074841E+03  2.156246E+04  1.250951E+05 -8.110113E+03 -2.200243E+03
       297  10  1.260885E+06  8.179757E+04  7.842094E+04  1.249695E+05 -7.440275E-10  2.454776E-09
       297  11  1.101705E+06  4.407777E+04  5.152053E+04  9.866037E+04  8.571718E-10  1.991372E-09
       297  12  9.441907E+05  1.008634E+04  3.000173E+04  1.224297E+05  2.075816E-09 -8.443160E-10
       297  13  9.204399E+05  1.849296E+02  1.040109E+04  1.237700E+05 -6.204344E-10 -1.649090E-09
       297  14  9.195678E+05  4.225521E+02  1.516921E+04  9.872670E+04  3.032271E-10  1.516574E-09
       297  15  9.204530E+05  4.505752E+03  2.578204E+04  1.237624E+05  3.153955E-10  2.764654E-09
       297  16  5.801047E+05 -8.143481E+04 -5.762460E+04  1.225711E+05  1.246806E-09  2.434662E-09
       297  17  7.374624E+05 -4.323470E+04 -2.118376E+04  9.879300E+04 -1.003284E-09  2.473807E-09
       297  18  8.967159E+05 -1.074864E+03  2.156233E+04  1.250951E+05 -2.644218E-09  7.195474E-10
       297  19  1.260886E+06  8.179815E+04  7.842233E+04  1.249698E+05  1.643757E+04  2.177107E+04
       297  20  1.101705E+06  4.407807E+04  5.152181E+04  9.866059E+04  2.335614E+04  1.172820E+04
       297  21  9.441916E+05  1.008660E+04  3.000346E+04  1.224297E+05  3.027409E+04  2.240988E+03
       297  22  9.204400E+05  1.854421E+02  1.040201E+04  1.237700E+05  4.019190E+03  2.175026E+04
       297  23  9.195680E+05  4.227354E+02  1.516973E+04  9.872681E+04  1.160500E+04  1.170762E+04
       297  24  9.204534E+05  4.505856E+03  2.578274E+04  1.237624E+05  1.919190E+04  2.220640E+03
       297  25  5.801049E+05 -8.143428E+04 -5.762358E+04  1.225709E+05 -8.392531E+03  2.172950E+04
       297  26  7.374624E+05 -4.323455E+04 -2.118351E+04  9.879300E+04 -1.427559E+02  1.168702E+04
       297  27  8.967160E+05 -1.074841E+03  2.156246E+04  1.250951E+05  8.110113E+03  2.200243E+03
       298   1  8.351064E+05 -2.421791E+04  1.342663E+04  1.359182E+05 -3.748580E+04  4.248434E+03
       298   2  6.658521E+05 -5.061236E+04  2.614304E+03  7.629541E+04 -5.311329E+04  9.887179E+03
       298   3  5.184407E+05  2.815752E+03  2.188615E+04  6.607203E+04 -6.871804E+04  3.838940E+03
       298   4  9.254526E+05 -2.383894E+03  3.260565E+04  1.236489E+05 -2.366809E+04  4.274527E+03
       298   5  9.133008E+05  9.732291E+03  5.664308E+04  9.886444E+04 -5.334481E+04  9.884582E+03
       298   6  9.253814E+05  1.040839E+05  1.204976E+05  1.234698E+05 -8.300292E+04  3.808024E+03
       298   7  1.015807E+06  1.945027E+04  5.178499E+04  1.113778E+05 -9.848405E+03  4.300072E+03
       298   8  1.160808E+06  7.007475E+04  1.106684E+05  1.214425E+05 -5.357641E+04  9.881968E+03
       298   9  1.332481E+06  2.053522E+05  2.190996E+05  1.809052E+05 -9.729713E+04  3.774481E+03
       298  10  8.351048E+05 -2.421831E+04  1.342396E+04  1.359184E+05  1.383362E-09 -6.015243E-10
       298  11  6.658490E+05 -5.061322E+04  2.608825E+03  7.629583E+04  1.636971E-09  4.411382E-09
       298  12  5.184356E+05  2.814470E+03  2.187725E+04  6.607224E+04  2.862908E-10  1.665525E-09
       298  13  9.254520E+05 -2.384064E+03  3.260456E+04  1.236490E+05 -9.153681E-12  7.658000E-10
       298  14  9.132978E+05  9.731423E+03  5.663756E+04  9.886486E+04  8.416505E-10  3.369435E-09
       298  15  9.253740E+05  1.040820E+05  1.204846E+05  1.234700E+05 -1.526480E-10 -4.108352E-10
       298  16  1.015807E+06  1.945022E+04  5.178478E+04  1.113779E+05 -1.185870E-09  9.950077E-10
       298  17  1.160805E+06  7.007388E+04  1.106629E+05  1.214430E+05 -1.439207E-09 -5.366859E-11
       298  18  1.332470E+06  2.053497E+05  2.190818E+05  1.809055E+05 -3.023778E-10 -1.281625E-09
       298  19  8.351064E+05 -2.421791E+04  1.342663E+04  1.359182E+05  3.748580E+04 -4.248434E+03
       298  20  6.658521E+05 -5.061236E+04  2.614304E+03  7.629541E+04  5.311329E+04 -9.887179E+03
       298  21  5.184407E+05  2.815752E+03  2.188615E+04  6.607203E+04  6.871804E+04 -3.838940E+03
       298  22  9.254526E+05 -2.383894E+03  3.260565E+04  1.236489E+05  2.366809E+04 -4.274527E+03
       298  23  9.133008E+05  9.732291E+03  5.664308E+04  9.886444E+04  5.334481E+04 -9.884582E+03
       298  24  9.253814E+05  1.040839E+05  1.204976E+05  1.234698E+05  8.300292E+04 -3.808024E+03
       298  25  1.015807E+06  1.945027E+04  5.178499E+04  1.113778E+05  9.848405E+03 -4.300072E+03
       298  26  1.160808E+06  7.007475E+04  1.106684E+05  1.214425E+05  5.357641E+04 -9.881968E+03
       298  27  1.332481E+06  2.053522E+05  2.190996E+05  1.809052E+05  9.729713E+04 -3.774481E+03
       299   1 -4.316497E+04  3.919902E+05 -5.563617E+04  3.715676E+04  1.746597E+03 -5.245974E+04
       299   2  2.098409E+04  3.973083E+05 -1.409333E+04  1.343770E+04  5.750603E+03 -3.605717E+04
       299   3  2.877770E+04  3.864085E+05  2.689540E+03 -1.099889E+04  6.770536E+03 -1.965591E+04
       299   4 -7.208897E+04  2.750069E+05 -8.351332E+04 -2.239191E+03  1.752927E+03 -5.905577E+04
       299   5 -6.562323E+03  2.834229E+05 -3.807034E+04 -1.862886E+03  5.753023E+03 -3.907535E+04
       299   6  1.980202E+03  2.749963E+05 -1.987413E+04 -2.203316E+03  6.770070E+03 -1.909594E+04
       299   7 -1.010081E+05  1.580395E+05 -1.113904E+05 -4.162769E+04  1.760094E+03 -6.565055E+04
       299   8 -3.410868E+04  1.695504E+05 -6.204791E+04 -1.716062E+04  5.755592E+03 -4.209299E+04
       299   9 -2.481778E+04  1.635961E+05 -4.243840E+04  6.590650E+03  6.769619E+03 -1.853606E+04
       299  10 -4.316571E+04  3.919873E+05 -5.564134E+04  3.715683E+04  2.121959E-10 -1.758254E-10
       299  11  2.098370E+04  3.973069E+05 -1.409584E+04  1.343787E+04  2.058516E-10 -1.409383E-09
       299  12  2.877755E+04  3.864080E+05  2.688728E+03 -1.099878E+04 -4.366647E-11 -1.969179E-10
       299  13 -7.208991E+04  2.750031E+05 -8.351987E+04 -2.239108E+03  1.204025E-10  5.233881E-10
       299  14 -6.562768E+03  2.834213E+05 -3.807327E+04 -1.862705E+03  3.180618E-10  4.876311E-12
       299  15  1.980055E+03  2.749959E+05 -1.987490E+04 -2.203212E+03  1.302036E-10  5.711357E-10
       299  16 -1.010093E+05  1.580349E+05 -1.113985E+05 -4.162760E+04  1.728154E-10 -5.770901E-10
       299  17 -3.410919E+04  1.695485E+05 -6.205130E+04 -1.716043E+04  7.936884E-10  9.069362E-11
       299  18 -2.481792E+04  1.635958E+05 -4.243913E+04  6.590751E+03  2.617626E-10 -1.543620E-10
       299  19 -4.316497E+04  3.919902E+05 -5.563617E+04  3.715676E+04 -1.746597E+03  5.245974E+04
       299  20  2.098409E+04  3.973083E+05 -1.409333E+04  1.343770E+04 -5.750603E+03  3.605717E+04
       299  21  2.877770E+04  3.864085E+05  2.689540E+03 -1.099889E+04 -6.770536E+03  1.965591E+04
       299  22 -7.208897E+04  2.750069E+05 -8.351332E+04 -2.239191E+03 -1.752927E+03  5.905577E+04
       299  23 -6.562323E+03  2.834229E+05 -3.807034E+04 -1.862886E+03 -5.753023E+03  3.907535E+04
       299  24  1.980202E+03  2.749963E+05 -1.987413E+04 -2.203316E+03 -6.770070E+03  1.909594E+04
       299  25 -1.010081E+05  1.580395E+05 -1.113904E+05 -4.162769E+04 -1.760094E+03  6.565055E+04
       299  26 -3.410868E+04  1.695504E+05 -6.204791E+04 -1.716062E+04 -5.755592E+03  4.209299E+04
       299  27 -2.481778E+04  1.635961E+05 -4.243840E+04  6.590650E+03 -6.769619E+03  1.853606E+04
       300   1  2.337174E+04  3.880043E+05  8.089495E+03 -1.750156E+03  6.562725E+03 -1.640400E+04
       300   2  2.558877E+04  3.855115E+05  1.781732E+04 -1.624425E+03  6.560569E+03 -1.490716E+04
       300   3  2.687707E+04  3.825930E+05  2.633935E+04 -2.353452E+03  6.260312E+03 -1.341048E+04
       300   4 -2.936226E+03  2.786320E+05 -1.412285E+04 -2.242462E+03  6.562922E+03 -1.657928E+04
       300   5 -3.614340E+01  2.788751E+05 -3.712684E+03 -1.813743E+03  6.560563E+03 -1.472484E+04
       300   6  1.873034E+03  2.786303E+05  5.243270E+03 -2.239794E+03  6.260080E+03 -1.287057E+04
       300   7 -2.924493E+04  1.692710E+05 -3.633583E+04 -2.734678E+03  6.563120E+03 -1.675452E+04
       300   8 -2.566176E+04  1.722495E+05 -2.524328E+04 -2.003026E+03  6.560557E+03 -1.454256E+04
       300   9 -2.313167E+04  1.746779E+05 -1.585337E+04 -2.126153E+03  6.259848E+03 -1.233075E+04
       300  10  2.337162E+04  3.880040E+05  8.088909E+03 -1.750069E+03  4.469703E-11  3.031759E-10
       300  11  2.558866E+04  3.855112E+05  1.781682E+04 -1.624347E+03  4.102132E-10 -1.529478E-09
       300  12  2.687698E+04  3.825927E+05  2.633893E+04 -2.353385E+03 -1.283516E-10 -3.895298E-10
       300  13 -2.936346E+03  2.786317E+05 -1.412345E+04 -2.242374E+03  1.621236E-10  5.834094E-10
       300  14 -3.624780E+01  2.788748E+05 -3.713172E+03 -1.813665E+03 -4.701630E-10  5.471861E-11
       300  15  1.872948E+03  2.786301E+05  5.242885E+03 -2.239729E+03 -1.550442E-10  5.333360E-10
       300  16 -2.924505E+04  1.692707E+05 -3.633643E+04 -2.734590E+03  2.124703E-11 -1.176466E-09
       300  17 -2.566186E+04  1.722493E+05 -2.524375E+04 -2.002949E+03 -1.173434E-11  6.406611E-11
       300  18 -2.313176E+04  1.746777E+05 -1.585373E+04 -2.126091E+03  7.877386E-11 -1.126793E-10
       300  19  2.337174E+04  3.880043E+05  8.089495E+03 -1.750156E+03 -6.562725E+03  1.640400E+04
       300  20  2.558877E+04  3.855115E+05  1.781732E+04 -1.624425E+03 -6.560569E+03  1.490716E+04
       300  21  2.687707E+04  3.825930E+05  2.633935E+04 -2.353452E+03 -6.260312E+03  1.341048E+04
       300  22 -2.936226E+03  2.786320E+05 -1.412285E+04 -2.242462E+03 -6.562922E+03  1.657928E+04
       300  23 -3.614340E+01  2.788751E+05 -3.712684E+03 -1.813743E+03 -6.560563E+03  1.472484E+04
       300  24  1.873034E+03  2.786303E+05  5.243270E+03 -2.239794E+03 -6.260080E+03  1.287057E+04
       300  25 -2.924493E+04  1.692710E+05 -3.633583E+04 -2.734678E+03 -6.563120E+03  1.675452E+04
       300  26 -2.566176E+04  1.722495E+05 -2.524328E+04 -2.003026E+03 -6.560557E+03  1.454256E+04
       300  27 -2.313167E+04  1.746779E+05 -1.585337E+04 -2.126153E+03 -6.259848E+03  1.233075E+04
       301   1  2.331721E+04  3.830866E+05  3.025570E+04 -7.730069E+03  6.237619E+03 -1.381891E+04
       301   2  2.797912E+04  3.751389E+05  4.274966E+04  7.367102E+03  5.093091E+03 -2.826907E+04
       301   3  6.758095E+04  3.778062E+05  7.338262E+04  2.149745E+04  1.523071E+03 -4.272068E+04
       301   4 -1.233014E+03  2.809864E+05  9.605452E+03 -2.271331E+03  6.237622E+03 -1.388908E+04
       301   5  3.992827E+03  2.759281E+05  2.192461E+04 -1.774190E+03  5.091808E+03 -2.542654E+04
       301   6  4.365522E+04  2.809804E+05  5.036214E+04 -2.243769E+03  1.521006E+03 -3.696544E+04
       301   7 -2.578377E+04  1.788962E+05 -1.104532E+04  3.186494E+03  6.237623E+03 -1.395924E+04
       301   8 -1.999378E+04  1.767269E+05  1.099092E+03 -1.091400E+04  5.090442E+03 -2.258445E+04
       301   9  1.973095E+04  1.841645E+05  2.734143E+04 -2.598127E+04  1.518501E+03 -3.121108E+04
       301  10  2.331711E+04  3.830864E+05  3.025527E+04 -7.730000E+03 -1.815413E-10 -1.933477E-10
       301  11  2.797888E+04  3.751380E+05  4.274811E+04  7.367218E+03 -4.298011E-11 -1.677194E-09
       301  12  6.758045E+04  3.778042E+05  7.337919E+04  2.149750E+04 -3.054935E-11 -3.947253E-11
       301  13 -1.233108E+03  2.809862E+05  9.605016E+03 -2.271261E+03 -1.990924E-10  5.875700E-10
       301  14  3.992625E+03  2.759274E+05  2.192335E+04 -1.774085E+03 -1.465733E-10 -2.356668E-10
       301  15  4.365485E+04  2.809789E+05  5.035957E+04 -2.243724E+03 -4.779118E-11  6.271103E-10
       301  16 -2.578386E+04  1.788959E+05 -1.104576E+04  3.186564E+03 -2.268369E-10 -8.629808E-10
       301  17 -1.999394E+04  1.767264E+05  1.098085E+03 -1.091390E+04 -7.664119E-11 -4.860392E-11
       301  18  1.973069E+04  1.841634E+05  2.733960E+04 -2.598123E+04 -1.288094E-11 -4.534628E-10
       301  19  2.331721E+04  3.830866E+05  3.025570E+04 -7.730069E+03 -6.237619E+03  1.381891E+04
       301  20  2.797912E+04  3.751389E+05  4.274966E+04  7.367102E+03 -5.093091E+03  2.826907E+04
       301  21  6.758095E+04  3.778062E+05  7.338262E+04  2.149745E+04 -1.523071E+03  4.272068E+04
       301  22 -1.233014E+03  2.809864E+05  9.605452E+03 -2.271331E+03 -6.237622E+03  1.388908E+04
       301  23  3.992827E+03  2.759281E+05  2.192461E+04 -1.774190E+03 -5.091808E+03  2.542654E+04
       301  24  4.365522E+04  2.809804E+05  5.036214E+04 -2.243769E+03 -1.521006E+03  3.696544E+04
       301  25 -2.578377E+04  1.788962E+05 -1.104532E+04  3.186494E+03 -6.237623E+03  1.395924E+04
       301  26 -1.999378E+04  1.767269E+05  1.099092E+03 -1.091400E+04 -5.090442E+03  2.258445E+04
       301  27  1.973095E+04  1.841645E+05  2.734143E+04 -2.598127E+04 -1.518501E+03  3.121108E+04
       302   1  9.623060E+05  7.225105E+05  1.898174E+05  6.446436E+05  5.262780E+04  2.860508E+04
       302   2  9.216682E+05  6.483663E+05  1.390502E+05  6.304762E+05  4.076771E+04 -4.452134E+03
       302   3  8.813134E+05  6.146248E+05  1.147241E+05  6.126500E+05  1.898609E+04 -2.428790E+04
       302   4  5.170478E+05  3.758404E+05  3.814532E+04  4.102496E+05  2.610576E+04  8.687408E+03
       302   5  5.125565E+05  3.465898E+05  1.805510E+04  4.201798E+05  3.014653E+04 -1.243254E+04
       302   6  5.049132E+05  3.543058E+05  1.062898E+04  4.264474E+05  2.425971E+04 -2.032817E+04
       302   7  7.199405E+04  2.930026E+04 -1.135529E+05  1.760494E+05 -3.908240E+02 -1.120875E+04
       302   8  1.036285E+05  4.491770E+04 -1.029578E+05  2.100436E+05  1.953479E+04 -2.040548E+04
       302   9  1.286751E+05  9.406686E+04 -9.347809E+04  2.403742E+05  2.952895E+04 -1.637163E+04
       302  10  9.623028E+05  7.225088E+05  1.898107E+05  6.446423E+05  3.040223E-10 -1.486676E-10
       302  11  9.216664E+05  6.483658E+05  1.390470E+05  6.304763E+05 -2.038353E-10 -1.714585E-09
       302  12  8.813129E+05  6.146241E+05  1.147223E+05  6.126504E+05 -2.629859E-10 -8.102036E-10
       302  13  5.170470E+05  3.758401E+05  3.814390E+04  4.102494E+05  2.413722E-10  1.404825E-09
       302  14  5.125555E+05  3.465894E+05  1.805310E+04  4.201801E+05  1.735743E-10 -1.942145E-09
       302  15  5.049124E+05  3.543052E+05  1.062710E+04  4.264478E+05  2.319514E-10  6.612995E-10
       302  16  7.199402E+04  2.930013E+04 -1.135531E+05  1.760494E+05 -6.932191E-11  1.817744E-10
       302  17  1.036280E+05  4.491715E+04 -1.029593E+05  2.100440E+05  8.321967E-11  1.136195E-09
       302  18  1.286741E+05  9.406634E+04 -9.348023E+04  2.403746E+05 -6.890528E-11  2.440486E-10
       302  19  9.623060E+05  7.225105E+05  1.898174E+05  6.446436E+05 -5.262780E+04 -2.860508E+04
       302  20  9.216682E+05  6.483663E+05  1.390502E+05  6.304762E+05 -4.076771E+04  4.452134E+03
       302  21  8.813134E+05  6.146248E+05  1.147241E+05  6.126500E+05 -1.898609E+04  2.428790E+04
       302  22  5.170478E+05  3.758404E+05  3.814532E+04  4.102496E+05 -2.610576E+04 -8.687408E+03
       302  23  5.125565E+05  3.465898E+05  1.805510E+04  4.201798E+05 -3.014653E+04  1.243254E+04
       302  24  5.049132E+05  3.543058E+05  1.062898E+04  4.264474E+05 -2.425971E+04  2.032817E+04
       302  25  7.199405E+04  2.930026E+04 -1.135529E+05  1.760494E+05  3.908240E+02  1.120875E+04
       302  26  1.036285E+05  4.491770E+04 -1.029578E+05  2.100436E+05 -1.953479E+04  2.040548E+04
       302  27  1.286751E+05  9.406686E+04 -9.347809E+04  2.403742E+05 -2.952895E+04  1.637163E+04
       303   1  8.448698E+05  5.972736E+05  1.039940E+05  5.960687E+05  1.918741E+04 -2.049919E+04
       303   2  8.097779E+05  5.558540E+05  8.802818E+04  5.718658E+05  1.448199E+04 -2.067746E+04
       303   3  7.574937E+05  5.338666E+05  7.492556E+04  5.527192E+05  9.230120E+03 -2.013037E+04
       303   4  5.045372E+05  3.553003E+05  8.586570E+03  4.246865E+05  2.132909E+04 -1.889191E+04
       303   5  5.129915E+05  3.452508E+05  5.572525E+03  4.224870E+05  1.749734E+04 -1.841278E+04
       303   6  5.040616E+05  3.544449E+05  4.664882E+03  4.253426E+05  1.311866E+04 -1.720826E+04
       303   7  1.643328E+05  1.133939E+05 -8.683244E+04  2.534113E+05  2.346919E+04 -1.728584E+04
       303   8  2.163011E+05  1.346971E+05 -7.689236E+04  2.731887E+05  2.051077E+04 -1.614954E+04
       303   9  2.506976E+05  1.750578E+05 -6.560308E+04  2.980237E+05  1.700512E+04 -1.428772E+04
       303  10  8.448693E+05  5.972731E+05  1.039926E+05  5.960690E+05 -5.922612E-10  2.608589E-10
       303  11  8.097776E+05  5.558535E+05  8.802698E+04  5.718661E+05  3.590693E-11  3.571255E-10
       303  12  7.574935E+05  5.338662E+05  7.492464E+04  5.527193E+05  1.819343E-09  5.749239E-10
       303  13  5.045366E+05  3.552998E+05  8.585044E+03  4.246868E+05 -3.411541E-10  2.861198E-10
       303  14  5.129911E+05  3.452503E+05  5.571312E+03  4.224873E+05  1.162396E-11  4.043325E-10
       303  15  5.040613E+05  3.544445E+05  4.664002E+03  4.253428E+05  4.321845E-10 -1.363681E-09
       303  16  1.643322E+05  1.133935E+05 -8.683404E+04  2.534116E+05 -1.025708E-11 -1.716320E-10
       303  17  2.163006E+05  1.346967E+05 -7.689364E+04  2.731890E+05 -5.434492E-10 -6.098153E-10
       303  18  2.506972E+05  1.750575E+05 -6.560401E+04  2.980239E+05 -1.190558E-09 -1.065325E-09
       303  19  8.448698E+05  5.972736E+05  1.039940E+05  5.960687E+05 -1.918741E+04  2.049919E+04
       303  20  8.097779E+05  5.558540E+05  8.802818E+04  5.718658E+05 -1.448199E+04  2.067746E+04
       303  21  7.574937E+05  5.338666E+05  7.492556E+04  5.527192E+05 -9.230120E+03  2.013037E+04
       303  22  5.045372E+05  3.553003E+05  8.586570E+03  4.246865E+05 -2.132909E+04  1.889191E+04
       303  23  5.129915E+05  3.452508E+05  5.572525E+03  4.224870E+05 -1.749734E+04  1.841278E+04
       303  24  5.040616E+05  3.544449E+05  4.664882E+03  4.253426E+05 -1.311866E+04  1.720826E+04
       303  25  1.643328E+05  1.133939E+05 -8.683244E+04  2.534113E+05 -2.346919E+04  1.728584E+04
       303  26  2.163011E+05  1.346971E+05 -7.689236E+04  2.731887E+05 -2.051077E+04  1.614954E+04
       303  27  2.506976E+05  1.750578E+05 -6.560308E+04  2.980237E+05 -1.700512E+04  1.428772E+04
       304   1  7.259415E+05  5.119351E+05  6.608879E+04  5.370134E+05  7.325674E+03 -1.863553E+04
       304   2  6.913010E+05  4.719950E+05  5.547488E+04  5.124502E+05  2.555604E+03 -1.736600E+04
       304   3  6.388721E+05  4.506396E+05  4.692382E+04  4.932402E+05 -2.235098E+03 -1.607003E+04
       304   4  5.040701E+05  3.544723E+05  4.765675E+03  4.252789E+05  1.103813E+04 -1.584525E+04
       304   5  5.129992E+05  3.452328E+05  6.078888E+03  4.225703E+05  6.300650E+03 -1.455059E+04
       304   6  5.041293E+05  3.545696E+05  9.426576E+03  4.252129E+05  1.542277E+03 -1.322963E+04
       304   7  2.822565E+05  1.970402E+05 -5.656111E+04  3.135915E+05  1.474875E+04 -1.305636E+04
       304   8  3.347341E+05  2.184900E+05 -4.331968E+04  3.327205E+05  1.004422E+04 -1.173628E+04
       304   9  3.694069E+05  2.585104E+05 -2.807233E+04  3.572025E+05  5.318544E+03 -1.039006E+04
       304  10  7.259414E+05  5.119347E+05  6.608804E+04  5.370135E+05  2.262184E-09  8.985489E-10
       304  11  6.913009E+05  4.719947E+05  5.547430E+04  5.124503E+05  7.386887E-10 -3.571930E-09
       304  12  6.388720E+05  4.506393E+05  4.692332E+04  4.932402E+05 -1.340324E-09 -1.283759E-09
       304  13  5.040699E+05  3.544720E+05  4.764974E+03  4.252791E+05  1.278084E-09  1.388479E-10
       304  14  5.129991E+05  3.452326E+05  6.078415E+03  4.225704E+05  1.734767E-09  5.847191E-09
       304  15  5.041293E+05  3.545695E+05  9.426243E+03  4.252129E+05  6.468632E-10 -1.068436E-10
       304  16  2.822562E+05  1.970400E+05 -5.656184E+04  3.135916E+05 -6.134762E-10 -1.908489E-09
       304  17  3.347340E+05  2.184898E+05 -4.332013E+04  3.327206E+05  1.863736E-09  3.634431E-09
       304  18  3.694068E+05  2.585103E+05 -2.807259E+04  3.572025E+05  2.305919E-09  1.539424E-09
       304  19  7.259415E+05  5.119351E+05  6.608879E+04  5.370134E+05 -7.325674E+03  1.863553E+04
       304  20  6.913010E+05  4.719950E+05  5.547488E+04  5.124502E+05 -2.555604E+03  1.736600E+04
       304  21  6.388721E+05  4.506396E+05  4.692382E+04  4.932402E+05  2.235098E+03  1.607003E+04
       304  22  5.040701E+05  3.544723E+05  4.765675E+03  4.252789E+05 -1.103813E+04  1.584525E+04
       304  23  5.129992E+05  3.452328E+05  6.078888E+03  4.225703E+05 -6.300650E+03  1.455059E+04
       304  24  5.041293E+05  3.545696E+05  9.426576E+03  4.252129E+05 -1.542277E+03  1.322963E+04
       304  25  2.822565E+05  1.970402E+05 -5.656111E+04  3.135915E+05 -1.474875E+04  1.305636E+04
       304  26  3.347341E+05  2.184900E+05 -4.331968E+04  3.327205E+05 -1.004422E+04  1.173628E+04
       304  27  3.694069E+05  2.585104E+05 -2.807233E+04  3.572025E+05 -5.318544E+03  1.039006E+04
       305   1  6.069409E+05  4.293016E+05  4.060736E+04  4.782803E+05 -5.169720E+03 -1.538854E+04
       305   2  5.735579E+05  3.878096E+05  3.710276E+04  4.525059E+05 -1.542765E+04 -1.828320E+04
       305   3  5.255809E+05  3.687879E+05  4.137815E+04  4.307063E+05 -2.555086E+04 -2.135647E+04
       305   4  5.042976E+05  3.544631E+05  1.203467E+04  4.256475E+05 -1.362570E+03 -1.252543E+04
       305   5  5.127166E+05  3.452301E+05  2.043943E+04  4.221365E+05 -1.183479E+04 -1.558107E+04
       305   6  5.065865E+05  3.585129E+05  3.681041E+04  4.225984E+05 -2.217287E+04 -1.881586E+04
       305   7  4.016648E+05  2.796302E+05 -1.653942E+04  3.730241E+05  2.443780E+03 -9.662953E+03
       305   8  4.518796E+05  3.026527E+05  3.775822E+03  3.917704E+05 -8.242401E+03 -1.287929E+04
       305   9  4.875929E+05  3.482383E+05  3.224279E+04  4.144908E+05 -1.879506E+04 -1.627535E+04
       305  10  6.069408E+05  4.293014E+05  4.060687E+04  4.782802E+05 -1.738042E-09  5.523717E-11
       305  11  5.735575E+05  3.878092E+05  3.710169E+04  4.525057E+05 -2.251550E-09  1.664025E-09
       305  12  5.255801E+05  3.687872E+05  4.137607E+04  4.307058E+05  5.640443E-10 -5.318937E-10
       305  13  5.042975E+05  3.544629E+05  1.203437E+04  4.256475E+05  3.888172E-10  2.531315E-10
       305  14  5.127164E+05  3.452298E+05  2.043871E+04  4.221363E+05 -1.160470E-09 -1.556872E-10
       305  15  5.065859E+05  3.585124E+05  3.680883E+04  4.225980E+05 -1.028812E-09 -5.480536E-11
       305  16  4.016648E+05  2.796301E+05 -1.653960E+04  3.730241E+05  1.108555E-09  3.181562E-09
       305  17  4.518794E+05  3.026525E+05  3.775383E+03  3.917704E+05 -1.622312E-10 -9.071923E-10
       305  18  4.875924E+05  3.482379E+05  3.224163E+04  4.144906E+05 -1.674991E-09 -6.076995E-10
       305  19  6.069409E+05  4.293016E+05  4.060736E+04  4.782803E+05  5.169720E+03  1.538854E+04
       305  20  5.735579E+05  3.878096E+05  3.710276E+04  4.525059E+05  1.542765E+04  1.828320E+04
       305  21  5.255809E+05  3.687879E+05  4.137815E+04  4.307063E+05  2.555086E+04  2.135647E+04
       305  22  5.042976E+05  3.544631E+05  1.203467E+04  4.256475E+05  1.362570E+03  1.252543E+04
       305  23  5.127166E+05  3.452301E+05  2.043943E+04  4.221365E+05  1.183479E+04  1.558107E+04
       305  24  5.065865E+05  3.585129E+05  3.681041E+04  4.225984E+05  2.217287E+04  1.881586E+04
       305  25  4.016648E+05  2.796302E+05 -1.653942E+04  3.730241E+05 -2.443780E+03  9.662953E+03
       305  26  4.518796E+05  3.026527E+05  3.775822E+03  3.917704E+05  8.242401E+03  1.287929E+04
       305  27  4.875929E+05  3.482383E+05  3.224279E+04  4.144908E+05  1.879506E+04  1.627535E+04
       306   1  4.760673E+05  3.621517E+05  4.281888E+04  4.289868E+05 -3.288369E+04 -2.382004E+04
       306   2  4.857822E+05  2.786163E+05  6.545063E+04  3.735090E+05 -6.502946E+04 -4.512283E+04
       306   3  5.430220E+05  3.020292E+05  1.430213E+05  2.825512E+05 -9.474615E+04 -6.964951E+04
       306   4  5.076796E+05  3.546686E+05  4.709261E+04  4.309767E+05 -2.874548E+04 -2.070601E+04
       306   5  5.117054E+05  3.506702E+05  8.276433E+04  4.111733E+05 -6.477270E+04 -4.493495E+04
       306   6  5.640831E+05  4.544424E+05  1.767392E+05  3.558891E+05 -9.837051E+04 -7.239513E+04
       306   7  5.392936E+05  3.471861E+05  5.136660E+04  4.329665E+05 -2.460695E+04 -1.759213E+04
       306   8  5.376313E+05  4.227338E+05  1.000784E+05  4.488411E+05 -6.451592E+04 -4.474701E+04
       306   9  5.851563E+05  6.069031E+05  2.104599E+05  4.292369E+05 -1.019950E+05 -7.514237E+04
       306  10  4.760660E+05  3.621508E+05  4.281578E+04  4.289862E+05 -4.917515E-10  2.416058E-10
       306  11  4.857771E+05  2.786130E+05  6.543887E+04  3.735066E+05  1.132934E-11  1.464634E-10
       306  12  5.430110E+05  3.020216E+05  1.429954E+05  2.825458E+05  7.227783E-10  2.754319E-09
       306  13  5.076786E+05  3.546679E+05  4.709025E+04  4.309763E+05 -3.162585E-10 -3.208311E-09
       306  14  5.117004E+05  3.506669E+05  8.275267E+04  4.111709E+05 -3.945114E-10  9.845946E-10
       306  15  5.640713E+05  4.544342E+05  1.767112E+05  3.558834E+05 -8.961599E-11  7.962237E-11
       306  16  5.392929E+05  3.471856E+05  5.136488E+04  4.329661E+05  2.469934E-10  1.407146E-09
       306  17  5.376263E+05  4.227305E+05  1.000668E+05  4.488388E+05 -9.541349E-10  1.235831E-09
       306  18  5.851436E+05  6.068942E+05  2.104298E+05  4.292308E+05 -1.742498E-09 -1.150089E-09
       306  19  4.760673E+05  3.621517E+05  4.281888E+04  4.289868E+05  3.288369E+04  2.382004E+04
       306  20  4.857822E+05  2.786163E+05  6.545063E+04  3.735090E+05  6.502946E+04  4.512283E+04
       306  21  5.430220E+05  3.020292E+05  1.430213E+05  2.825512E+05  9.474615E+04  6.964951E+04
       306  22  5.076796E+05  3.546686E+05  4.709261E+04  4.309767E+05  2.874548E+04  2.070601E+04
       306  23  5.117054E+05  3.506702E+05  8.276433E+04  4.111733E+05  6.477270E+04  4.493495E+04
       306  24  5.640831E+05  4.544424E+05  1.767392E+05  3.558891E+05  9.837051E+04  7.239513E+04
       306  25  5.392936E+05  3.471861E+05  5.136660E+04  4.329665E+05  2.460695E+04  1.759213E+04
       306  26  5.376313E+05  4.227338E+05  1.000784E+05  4.488411E+05  6.451592E+04  4.474701E+04
       306  27  5.851563E+05  6.069031E+05  2.104599E+05  4.292369E+05  1.019950E+05  7.514237E+04
       307   1  6.670395E+05  7.439304E+04  7.448690E+04  3.990587E+04  2.201194E+04 -3.116767E+03
       307   2  6.235291E+05  5.091276E+04  5.104212E+04  2.916448E+04  1.019733E+04 -9.706643E+03
       307   3  5.844666E+05  3.923336E+04  3.823170E+04  3.110220E+04 -1.626528E+03 -9.702267E+03
       307   4  4.202828E+05  1.320607E+04  1.529185E+04  3.240050E+04  1.015809E+04 -3.135525E+03
       307   5  4.187496E+05  1.255667E+03  7.471479E+03  2.607166E+04  6.264604E+03 -9.713226E+03
       307   6  4.202907E+05 -2.657197E+02  4.790248E+03  3.242191E+04  2.361114E+03 -9.695862E+03
       307   7  1.735823E+05 -4.798505E+04 -4.390696E+04  2.489810E+04 -1.691067E+03 -3.154000E+03
       307   8  2.140096E+05 -4.840411E+04 -3.610151E+04  2.297986E+04  2.333152E+03 -9.719772E+03
       307   9  2.561405E+05 -3.976647E+04 -2.865256E+04  3.374124E+04  6.347721E+03 -9.689439E+03
       307  10  6.670389E+05  7.439290E+04  7.448597E+04  3.990593E+04  3.191021E-09 -1.458073E-09
       307  11  6.235290E+05  5.091263E+04  5.104175E+04  2.916456E+04  1.210852E-09 -1.740345E-09
       307  12  5.844666E+05  3.923326E+04  3.823152E+04  3.110219E+04 -2.336670E-09 -3.344815E-09
       307  13  4.202827E+05  1.320603E+04  1.529164E+04  3.240053E+04  2.959401E-10  2.797124E-09
       307  14  4.187496E+05  1.255555E+03  7.471228E+03  2.607171E+04  3.662396E-10 -5.883719E-10
       307  15  4.202907E+05 -2.658222E+02  4.790061E+03  3.242193E+04 -4.443965E-11 -2.821467E-09
       307  16  1.735823E+05 -4.798506E+04 -4.390699E+04  2.489809E+04 -2.815937E-09  2.826569E-10
       307  17  2.140096E+05 -4.840421E+04 -3.610170E+04  2.297988E+04 -1.466131E-09 -2.525213E-09
       307  18  2.561404E+05 -3.976658E+04 -2.865281E+04  3.374129E+04  2.128716E-09 -2.173625E-09
       307  19  6.670395E+05  7.439304E+04  7.448690E+04  3.990587E+04 -2.201194E+04  3.116767E+03
       307  20  6.235291E+05  5.091276E+04  5.104212E+04  2.916448E+04 -1.019733E+04  9.706643E+03
       307  21  5.844666E+05  3.923336E+04  3.823170E+04  3.110220E+04  1.626528E+03  9.702267E+03
       307  22  4.202828E+05  1.320607E+04  1.529185E+04  3.240050E+04 -1.015809E+04  3.135525E+03
       307  23  4.187496E+05  1.255667E+03  7.471479E+03  2.607166E+04 -6.264604E+03  9.713226E+03
       307  24  4.202907E+05 -2.657197E+02  4.790248E+03  3.242191E+04 -2.361114E+03  9.695862E+03
       307  25  1.735823E+05 -4.798505E+04 -4.390696E+04  2.489810E+04  1.691067E+03  3.154000E+03
       307  26  2.140096E+05 -4.840411E+04 -3.610151E+04  2.297986E+04 -2.333152E+03  9.719772E+03
       307  27  2.561405E+05 -3.976647E+04 -2.865256E+04  3.374124E+04 -6.347721E+03  9.689439E+03
       308   1  5.540351E+05  3.294225E+04  3.158842E+04  3.289632E+04 -7.810650E+02 -7.880714E+03
       308   2  5.126511E+05  2.244923E+04  2.239874E+04  2.622764E+04 -2.977249E+03 -5.683949E+03
       308   3  4.716686E+05  1.262108E+04  1.479148E+04  3.257846E+04 -5.174094E+03 -3.137062E+03
       308   4  4.196817E+05  6.023170E+02  4.174241E+03  3.249276E+04  1.650779E+03 -7.876762E+03
       308   5  4.195194E+05  6.515432E+01  3.564628E+03  2.598336E+04 -1.247682E+02 -5.679171E+03
       308   6  4.196841E+05  1.200499E+02  4.245685E+03  3.249357E+04 -1.901117E+03 -3.131429E+03
       308   7  2.853454E+05 -3.173874E+04 -2.324087E+04  3.208928E+04  4.082106E+03 -7.872812E+03
       308   8  3.263960E+05 -2.231945E+04 -1.526991E+04  2.573912E+04  2.727293E+03 -5.674394E+03
       308   9  3.677022E+05 -1.238115E+04 -6.300206E+03  3.240870E+04  1.371591E+03 -3.125796E+03
       308  10  5.540351E+05  3.294218E+04  3.158830E+04  3.289632E+04  6.798613E-10 -5.716273E-10
       308  11  5.126511E+05  2.244919E+04  2.239867E+04  2.622763E+04  7.216015E-10 -9.307720E-10
       308  12  4.716686E+05  1.262107E+04  1.479141E+04  3.257844E+04  7.071631E-10  4.976195E-10
       308  13  4.196816E+05  6.022496E+02  4.174120E+03  3.249277E+04  1.457764E-11 -2.041726E-09
       308  14  4.195194E+05  6.511967E+01  3.564567E+03  2.598336E+04  2.191199E-10 -1.873421E-09
       308  15  4.196841E+05  1.200384E+02  4.245660E+03  3.249357E+04 -4.130462E-11  4.877911E-10
       308  16  2.853454E+05 -3.173881E+04 -2.324101E+04  3.208931E+04  1.552426E-11  1.619990E-10
       308  17  3.263960E+05 -2.231949E+04 -1.526998E+04  2.573913E+04 -1.525782E-09 -7.143523E-09
       308  18  3.677022E+05 -1.238116E+04 -6.300228E+03  3.240870E+04 -9.739728E-10 -2.260375E-10
       308  19  5.540351E+05  3.294225E+04  3.158842E+04  3.289632E+04  7.810650E+02  7.880714E+03
       308  20  5.126511E+05  2.244923E+04  2.239874E+04  2.622764E+04  2.977249E+03  5.683949E+03
       308  21  4.716686E+05  1.262108E+04  1.479148E+04  3.257846E+04  5.174094E+03  3.137062E+03
       308  22  4.196817E+05  6.023170E+02  4.174241E+03  3.249276E+04 -1.650779E+03  7.876762E+03
       308  23  4.195194E+05  6.515432E+01  3.564628E+03  2.598336E+04  1.247682E+02  5.679171E+03
       308  24  4.196841E+05  1.200499E+02  4.245685E+03  3.249357E+04  1.901117E+03  3.131429E+03
       308  25  2.853454E+05 -3.173874E+04 -2.324087E+04  3.208928E+04 -4.082106E+03  7.872812E+03
       308  26  3.263960E+05 -2.231945E+04 -1.526991E+04  2.573912E+04 -2.727293E+03  5.674394E+03
       308  27  3.677022E+05 -1.238115E+04 -6.300206E+03  3.240870E+04 -1.371591E+03  3.125796E+03
       309   1  4.422255E+05  5.358602E+03  9.442054E+03  3.296763E+04 -5.971229E+03 -1.533061E+03
       309   2  4.006020E+05 -4.370208E+03  4.049219E+03  2.581450E+04 -9.630488E+03  1.045365E+03
       309   3  3.598986E+05 -1.211416E+04  1.520313E+03  3.168060E+04 -1.328903E+04  3.382888E+03
       309   4  4.198270E+05 -2.352828E+00  5.034352E+03  3.249422E+04 -2.723326E+03 -1.527432E+03
       309   5  4.193422E+05  1.474256E+02  7.902495E+03  2.598263E+04 -6.672066E+03  1.050458E+03
       309   6  4.198253E+05  2.332120E+03  1.383513E+04  3.249019E+04 -1.062032E+04  3.387447E+03
       309   7  3.974290E+05 -5.363332E+03  6.266647E+02  3.202083E+04  5.244617E+02 -1.521809E+03
       309   8  4.380828E+05  4.665042E+03  1.175579E+04  2.615077E+04 -3.713555E+03  1.055552E+03
       309   9  4.797554E+05  1.677818E+04  2.614978E+04  3.329986E+04 -7.951354E+03  3.392012E+03
       309  10  4.422255E+05  5.358590E+03  9.441983E+03  3.296762E+04  4.144305E-08  5.170950E-09
       309  11  4.006019E+05 -4.370234E+03  4.049043E+03  2.581450E+04  5.611306E-11  4.674839E-09
       309  12  3.598984E+05 -1.211422E+04  1.519960E+03  3.168063E+04 -4.117261E-08  3.339034E-09
       309  13  4.198270E+05 -2.357323E+00  5.034333E+03  3.249422E+04  4.191200E-11  3.239654E-09
       309  14  4.193422E+05  1.474125E+02  7.902410E+03  2.598263E+04  2.577950E-10  4.488140E-09
       309  15  4.198252E+05  2.332078E+03  1.383489E+04  3.249022E+04 -1.420272E-10  5.492773E-10
       309  16  3.974290E+05 -5.363334E+03  6.266599E+02  3.202083E+04 -4.089413E-08  3.852646E-09
       309  17  4.380828E+05  4.665037E+03  1.175576E+04  2.615077E+04 -7.838984E-10  2.905639E-09
       309  18  4.797553E+05  1.677815E+04  2.614964E+04  3.329988E+04  4.082560E-08 -2.611667E-09
       309  19  4.422255E+05  5.358602E+03  9.442054E+03  3.296763E+04  5.971229E+03  1.533061E+03
       309  20  4.006020E+05 -4.370208E+03  4.049219E+03  2.581450E+04  9.630488E+03 -1.045365E+03
       309  21  3.598986E+05 -1.211416E+04  1.520313E+03  3.168060E+04  1.328903E+04 -3.382888E+03
       309  22  4.198270E+05 -2.352828E+00  5.034352E+03  3.249422E+04  2.723326E+03  1.527432E+03
       309  23  4.193422E+05  1.474256E+02  7.902495E+03  2.598263E+04  6.672066E+03 -1.050458E+03
       309  24  4.198253E+05  2.332120E+03  1.383513E+04  3.249019E+04  1.062032E+04 -3.387447E+03
       309  25  3.974290E+05 -5.363332E+03  6.266647E+02  3.202083E+04 -5.244617E+02  1.521809E+03
       309  26  4.380828E+05  4.665042E+03  1.175579E+04  2.615077E+04  3.713555E+03 -1.055552E+03
       309  27  4.797554E+05  1.677818E+04  2.614978E+04  3.329986E+04  7.951354E+03 -3.392012E+03
       310   1  3.328732E+05 -2.299656E+04 -7.719950E+02  3.908772E+04 -1.679741E+04  5.128878E+03
       310   2  2.855725E+05 -2.649197E+04  2.829439E+03  1.376859E+04 -2.725498E+04  5.903440E+03
       310   3  2.505250E+05  1.376781E+04  2.416595E+04  1.180246E+03 -3.770428E+04  1.966424E+03
       310   4  4.225508E+05 -1.421066E+03  1.760245E+04  3.244773E+04 -1.302050E+04  5.135470E+03
       310   5  4.159285E+05  5.205398E+03  3.076815E+04  2.603465E+04 -2.913749E+04  5.899664E+03
       310   6  4.225360E+05  5.656273E+04  6.559435E+04  3.235156E+04 -4.524713E+04  1.952091E+03
       310   7  5.122362E+05  2.015410E+04  3.597655E+04  2.580677E+04 -9.243045E+03  5.141980E+03
       310   8  5.463008E+05  3.690222E+04  5.870596E+04  3.830331E+04 -3.102039E+04  5.895815E+03
       310   9  5.945762E+05  9.935916E+04  1.070214E+05  6.353153E+04 -5.279206E+04  1.937004E+03
       310  10  3.328729E+05 -2.299666E+04 -7.725744E+02  3.908779E+04 -4.037601E-09  1.784211E-09
       310  11  2.855717E+05 -2.649221E+04  2.827978E+03  1.376872E+04 -1.449339E-09 -2.223734E-09
       310  12  2.505235E+05  1.376743E+04  2.416327E+04  1.180305E+03 -1.322495E-09  2.504980E-10
       310  13  4.225507E+05 -1.421140E+03  1.760208E+04  3.244779E+04  2.892358E-10  1.970512E-09
       310  14  4.159276E+05  5.205133E+03  3.076649E+04  2.603479E+04 -3.893165E-11 -4.890117E-09
       310  15  4.225338E+05  5.656218E+04  6.559050E+04  3.235163E+04  1.066032E-10  7.253706E-10
       310  16  5.122361E+05  2.015405E+04  3.597634E+04  2.580680E+04  4.814462E-09  1.010967E-09
       310  17  5.462998E+05  3.690192E+04  5.870409E+04  3.830346E+04  1.084695E-09 -7.099946E-10
       310  18  5.945732E+05  9.935841E+04  1.070161E+05  6.353161E+04  1.077892E-09 -6.872186E-10
       310  19  3.328732E+05 -2.299656E+04 -7.719950E+02  3.908772E+04  1.679741E+04 -5.128878E+03
       310  20  2.855725E+05 -2.649197E+04  2.829439E+03  1.376859E+04  2.725498E+04 -5.903440E+03
       310  21  2.505250E+05  1.376781E+04  2.416595E+04  1.180246E+03  3.770428E+04 -1.966424E+03
       310  22  4.225508E+05 -1.421066E+03  1.760245E+04  3.244773E+04  1.302050E+04 -5.135470E+03
       310  23  4.159285E+05  5.205398E+03  3.076815E+04  2.603465E+04  2.913749E+04 -5.899664E+03
       310  24  4.225360E+05  5.656273E+04  6.559435E+04  3.235156E+04  4.524713E+04 -1.952091E+03
       310  25  5.122362E+05  2.015410E+04  3.597655E+04  2.580677E+04  9.243045E+03 -5.141980E+03
       310  26  5.463008E+05  3.690222E+04  5.870596E+04  3.830331E+04  3.102039E+04 -5.895815E+03
       310  27  5.945762E+05  9.935916E+04  1.070214E+05  6.353153E+04  5.279206E+04 -1.937004E+03
       311   1 -2.940132E+05 -1.061951E+06 -3.131801E+05  1.789627E+05 -6.994737E+03 -1.424356E+05
       311   2 -1.257509E+05 -9.167835E+05 -1.807995E+05  1.103675E+05 -2.133554E+04 -8.036452E+04
       311   3 -7.752459E+04 -8.095495E+05 -1.188656E+05  8.072528E+04 -1.965777E+04 -1.825605E+04
       311   4 -1.473962E+05 -4.725855E+05 -1.712442E+05  9.766932E+04 -7.009919E+03 -1.157891E+05
       311   5 -1.353115E+04 -4.552579E+05 -8.204254E+04  7.827988E+04 -2.133907E+04 -7.288755E+04
       311   6  3.673812E+03 -4.725167E+05 -4.992547E+04  9.785463E+04 -1.964518E+04 -2.996301E+04
       311   7 -7.793961E+02  1.171144E+05 -2.932705E+04  1.629843E+04 -7.032089E+03 -8.911733E+04
       311   8  9.867855E+04  6.470820E+03  1.670278E+04  4.616808E+04 -2.134337E+04 -6.540509E+04
       311   9  8.486628E+04 -1.353750E+05  1.900933E+04  1.149935E+05 -1.963323E+04 -4.167621E+04
       311  10 -2.940187E+05 -1.061973E+06 -3.132183E+05  1.789619E+05 -2.271905E-10 -1.026578E-09
       311  11 -1.257531E+05 -9.167906E+05 -1.808125E+05  1.103661E+05 -1.231930E-09  2.777358E-09
       311  12 -7.752509E+04 -8.095499E+05 -1.188670E+05  8.072499E+04 -5.124360E-10  7.165135E-10
       311  13 -1.473998E+05 -4.725999E+05 -1.712695E+05  9.766867E+04  1.741892E-11 -3.360827E-09
       311  14 -1.353306E+04 -4.552637E+05 -8.205339E+04  7.827863E+04 -1.084835E-09  5.173586E-10
       311  15  3.673157E+03 -4.725178E+05 -4.992788E+04  9.785415E+04  2.841119E-10  1.507999E-09
       311  16 -7.815809E+02  1.171058E+05 -2.934206E+04  1.629793E+04 -5.249489E-10  1.933556E-09
       311  17  9.867692E+04  6.466105E+03  1.669389E+04  4.616695E+04 -1.023478E-10 -4.077430E-09
       311  18  8.486540E+04 -1.353770E+05  1.900534E+04  1.149928E+05  6.577966E-10 -1.251385E-09
       311  19 -2.940132E+05 -1.061951E+06 -3.131801E+05  1.789627E+05  6.994737E+03  1.424356E+05
       311  20 -1.257509E+05 -9.167835E+05 -1.807995E+05  1.103675E+05  2.133554E+04  8.036452E+04
       311  21 -7.752459E+04 -8.095495E+05 -1.188656E+05  8.072528E+04  1.965777E+04  1.825605E+04
       311  22 -1.473962E+05 -4.725855E+05 -1.712442E+05  9.766932E+04  7.009919E+03  1.157891E+05
       311  23 -1.353115E+04 -4.552579E+05 -8.204254E+04  7.827988E+04  2.133907E+04  7.288755E+04
       311  24  3.673812E+03 -4.725167E+05 -4.992547E+04  9.785463E+04  1.964518E+04  2.996301E+04
       311  25 -7.793961E+02  1.171144E+05 -2.932705E+04  1.629843E+04  7.032089E+03  8.911733E+04
       311  26  9.867855E+04  6.470820E+03  1.670278E+04  4.616808E+04  2.134337E+04  6.540509E+04
       311  27  8.486628E+04 -1.353750E+05  1.900933E+04  1.149935E+05  1.963323E+04  4.167621E+04
       312   1 -6.511203E+04 -7.114268E+05 -9.195838E+04  1.008391E+05 -1.420645E+04 -1.482691E+04
       312   2 -2.918244E+04 -5.831221E+05 -5.473165E+04  7.827661E+04 -7.344888E+03  8.586972E+02
       312   3 -1.603095E+03 -4.588142E+05 -2.978469E+04  9.565628E+04 -1.478940E+02  1.654696E+04
       312   4 -5.854073E+03 -4.657006E+05 -4.159244E+04  9.802946E+04 -1.419786E+04 -2.287681E+04
       312   5 -4.623952E+02 -4.637246E+05 -3.060135E+04  7.805951E+04 -7.336413E+03 -7.589688E+03
       312   6 -3.349329E+03 -4.656898E+05 -3.160943E+04  9.803183E+04 -1.394818E+02  7.697019E+03
       312   7  5.340015E+04 -2.199169E+05  8.770531E+03  9.521866E+04 -1.418920E+04 -3.092983E+04
       312   8  2.825681E+04 -3.443134E+05 -6.471532E+03  7.784238E+04 -7.327932E+03 -1.603967E+04
       312   9 -5.095502E+03 -4.725652E+05 -3.343389E+04  1.004073E+05 -1.311373E+02 -1.152827E+03
       312  10 -6.511231E+04 -7.114271E+05 -9.195917E+04  1.008390E+05 -3.656794E-10 -1.799909E-09
       312  11 -2.918250E+04 -5.831221E+05 -5.473175E+04  7.827661E+04  1.794571E-10  2.329196E-09
       312  12 -1.603169E+03 -4.588145E+05 -2.978520E+04  9.565628E+04  5.398273E-10  1.141180E-09
       312  13 -5.854430E+03 -4.657013E+05 -4.159380E+04  9.802920E+04  6.403007E-11 -2.797751E-09
       312  14 -4.624684E+02 -4.637247E+05 -3.060156E+04  7.805947E+04 -1.321628E-09  1.234983E-10
       312  15 -3.349344E+03 -4.656899E+05 -3.160955E+04  9.803183E+04  5.734296E-10  1.832442E-09
       312  16  5.339968E+04 -2.199179E+05  8.768355E+03  9.521831E+04  3.132519E-10  2.238870E-09
       312  17  2.825668E+04 -3.443137E+05 -6.472117E+03  7.784228E+04 -1.410654E-09 -3.992087E-09
       312  18 -5.095503E+03 -4.725652E+05 -3.343389E+04  1.004073E+05  5.857215E-10 -1.568344E-09
       312  19 -6.511203E+04 -7.114268E+05 -9.195838E+04  1.008391E+05  1.420645E+04  1.482691E+04
       312  20 -2.918244E+04 -5.831221E+05 -5.473165E+04  7.827661E+04  7.344888E+03 -8.586972E+02
       312  21 -1.603095E+03 -4.588142E+05 -2.978469E+04  9.565628E+04  1.478940E+02 -1.654696E+04
       312  22 -5.854073E+03 -4.657006E+05 -4.159244E+04  9.802946E+04  1.419786E+04  2.287681E+04
       312  23 -4.623952E+02 -4.637246E+05 -3.060135E+04  7.805951E+04  7.336413E+03  7.589688E+03
       312  24 -3.349329E+03 -4.656898E+05 -3.160943E+04  9.803183E+04  1.394818E+02 -7.697019E+03
       312  25  5.340015E+04 -2.199169E+05  8.770531E+03  9.521866E+04  1.418920E+04  3.092983E+04
       312  26  2.825681E+04 -3.443134E+05 -6.471532E+03  7.784238E+04  7.327932E+03  1.603967E+04
       312  27 -5.095502E+03 -4.725652E+05 -3.343389E+04  1.004073E+05  1.311373E+02  1.152827E+03
       313   1  2.574414E+04 -3.713878E+05 -1.421789E+04  1.079772E+05  5.098003E+03  2.396694E+04
       313   2  4.640638E+04 -2.357438E+05 -2.528731E+03  5.896347E+04  9.273249E+03  3.870543E+04
       313   3 -3.771118E+02 -1.187325E+05 -1.726910E+04  4.933962E+04  3.487114E+03  5.343519E+04
       313   4  2.049111E+03 -4.694208E+05 -3.473282E+04  9.793169E+04  5.108143E+03  1.296248E+04
       313   5 -8.042464E+03 -4.590720E+05 -5.111765E+04  7.818540E+04  9.273727E+03  3.964126E+04
       313   6 -8.767039E+04 -4.694576E+05 -1.022361E+05  9.783455E+04  3.477689E+03  6.630788E+04
       313   7 -2.164608E+04 -5.674441E+05 -5.524779E+04  8.788780E+04  5.118641E+03  1.959733E+03
       313   8 -6.249324E+04 -6.823527E+05 -9.970936E+04  9.740032E+04  9.274263E+03  4.057676E+04
       313   9 -1.749638E+05 -8.200648E+05 -1.872101E+05  1.463020E+05  3.470273E+03  7.917332E+04
       313  10  2.574395E+04 -3.713884E+05 -1.421901E+04  1.079771E+05  1.569070E-10 -2.133688E-09
       313  11  4.640589E+04 -2.357454E+05 -2.531709E+03  5.896318E+04 -4.474321E-10  1.970263E-09
       313  12 -3.778916E+02 -1.187356E+05 -1.727449E+04  4.933947E+04 -2.210651E-10  3.175838E-10
       313  13  2.049038E+03 -4.694209E+05 -3.473319E+04  9.793164E+04  6.610607E-10 -2.637814E-09
       313  14 -8.042978E+03 -4.590737E+05 -5.112077E+04  7.818510E+04 -6.248799E-10 -4.885180E-12
       313  15 -8.767159E+04 -4.694623E+05 -1.022444E+05  9.783437E+04 -1.731487E-10  1.812697E-09
       313  16 -2.164611E+04 -5.674442E+05 -5.524784E+04  8.788779E+04  8.689585E-10  2.757213E-09
       313  17 -6.249378E+04 -6.823545E+05 -9.971262E+04  9.740002E+04 -4.280654E-10 -3.083010E-09
       313  18 -1.749655E+05 -8.200716E+05 -1.872220E+05  1.463018E+05 -7.284106E-10 -6.023143E-10
       313  19  2.574414E+04 -3.713878E+05 -1.421789E+04  1.079772E+05 -5.098003E+03 -2.396694E+04
       313  20  4.640638E+04 -2.357438E+05 -2.528731E+03  5.896347E+04 -9.273249E+03 -3.870543E+04
       313  21 -3.771118E+02 -1.187325E+05 -1.726910E+04  4.933962E+04 -3.487114E+03 -5.343519E+04
       313  22  2.049111E+03 -4.694208E+05 -3.473282E+04  9.793169E+04 -5.108143E+03 -1.296248E+04
       313  23 -8.042464E+03 -4.590720E+05 -5.111765E+04  7.818540E+04 -9.273727E+03 -3.964126E+04
       313  24 -8.767039E+04 -4.694576E+05 -1.022361E+05  9.783455E+04 -3.477689E+03 -6.630788E+04
       313  25 -2.164608E+04 -5.674441E+05 -5.524779E+04  8.788780E+04 -5.118641E+03 -1.959733E+03
       313  26 -6.249324E+04 -6.823527E+05 -9.970936E+04  9.740032E+04 -9.274263E+03 -4.057676E+04
       313  27 -1.749638E+05 -8.200648E+05 -1.872101E+05  1.463020E+05 -3.470273E+03 -7.917332E+04
       314   1  2.676029E+05  1.636794E+05  1.320104E+04  2.013443E+05  1.449779E+04  1.230190E+04
       314   2  2.731109E+05  1.453402E+05  5.268247E+02  2.148921E+05  8.600960E+03  1.081299E+04
       314   3  2.946782E+05  1.398389E+05 -2.864886E+03  2.195607E+05  4.076858E+03  7.499306E+03
       314   4  3.454651E+05  1.929862E+05  3.379011E+04  2.279571E+05  1.785523E+04  1.482705E+04
       314   5  3.318050E+05  1.767972E+05  1.594655E+04  2.395708E+05  9.766415E+03  1.168951E+04
       314   6  3.346787E+05  1.739202E+05  9.288225E+03  2.423056E+05  3.050480E+03  6.727259E+03
       314   7  4.233333E+05  2.222934E+05  5.437857E+04  2.545723E+05  2.121321E+04  1.735234E+04
       314   8  3.905025E+05  2.082550E+05  3.136588E+04  2.642516E+05  1.093201E+04  1.256610E+04
       314   9  3.746809E+05  2.080029E+05  2.144116E+04  2.650524E+05  2.024013E+03  5.955129E+03
       314  10  2.676027E+05  1.636792E+05  1.320036E+04  2.013442E+05  1.394468E-09 -3.901284E-10
       314  11  2.731108E+05  1.453401E+05  5.264662E+02  2.148920E+05  6.281596E-10 -1.064960E-09
       314  12  2.946782E+05  1.398388E+05 -2.865023E+03  2.195607E+05 -3.591708E-10 -2.124563E-09
       314  13  3.454647E+05  1.929859E+05  3.378909E+04  2.279569E+05  2.351981E-10 -6.309179E-10
       314  14  3.318049E+05  1.767970E+05  1.594611E+04  2.395707E+05  1.587268E-09  2.979669E-09
       314  15  3.346787E+05  1.739201E+05  9.288123E+03  2.423056E+05  9.698001E-10  5.549559E-10
       314  16  4.233327E+05  2.222929E+05  5.437716E+04  2.545720E+05 -1.308710E-09 -4.327574E-10
       314  17  3.905023E+05  2.082548E+05  3.136536E+04  2.642515E+05  8.057297E-10 -3.161136E-09
       314  18  3.746809E+05  2.080029E+05  2.144108E+04  2.650523E+05  1.301680E-09 -2.087938E-10
       314  19  2.676029E+05  1.636794E+05  1.320104E+04  2.013443E+05 -1.449779E+04 -1.230190E+04
       314  20  2.731109E+05  1.453402E+05  5.268247E+02  2.148921E+05 -8.600960E+03 -1.081299E+04
       314  21  2.946782E+05  1.398389E+05 -2.864886E+03  2.195607E+05 -4.076858E+03 -7.499306E+03
       314  22  3.454651E+05  1.929862E+05  3.379011E+04  2.279571E+05 -1.785523E+04 -1.482705E+04
       314  23  3.318050E+05  1.767972E+05  1.594655E+04  2.395708E+05 -9.766415E+03 -1.168951E+04
       314  24  3.346787E+05  1.739202E+05  9.288225E+03  2.423056E+05 -3.050480E+03 -6.727259E+03
       314  25  4.233333E+05  2.222934E+05  5.437857E+04  2.545723E+05 -2.121321E+04 -1.735234E+04
       314  26  3.905025E+05  2.082550E+05  3.136588E+04  2.642516E+05 -1.093201E+04 -1.256610E+04
       314  27  3.746809E+05  2.080029E+05  2.144116E+04  2.650524E+05 -2.024013E+03 -5.955129E+03
       315   1  2.976563E+05  1.491124E+05 -2.816103E+03  2.224715E+05  2.970941E+03  5.937591E+03
       315   2  3.048389E+05  1.567378E+05 -2.895851E+03  2.281272E+05  1.660232E+03  4.096616E+03
       315   3  3.166816E+05  1.612306E+05 -1.324456E+03  2.324153E+05  4.250716E+02  2.155053E+03
       315   4  3.345092E+05  1.746252E+05  7.432200E+03  2.406991E+05  2.375891E+03  5.489958E+03
       315   5  3.319455E+05  1.757879E+05  4.624516E+03  2.416771E+05  9.443158E+02  3.558085E+03
       315   6  3.340678E+05  1.738441E+05  3.572755E+03  2.412875E+05 -4.116599E+02  1.525671E+03
       315   7  3.713640E+05  2.001390E+05  1.768053E+04  2.589281E+05  1.780787E+03  5.042284E+03
       315   8  3.590529E+05  1.948384E+05  1.214481E+04  2.552277E+05  2.283570E+02  3.019522E+03
       315   9  3.514542E+05  1.864577E+05  8.469863E+03  2.501599E+05 -1.248413E+03  8.962723E+02
       315  10  2.976563E+05  1.491123E+05 -2.816186E+03  2.224715E+05 -8.767097E-10 -3.293650E-09
       315  11  3.048389E+05  1.567377E+05 -2.895888E+03  2.281272E+05  9.409672E-10  1.557633E-10
       315  12  3.166816E+05  1.612306E+05 -1.324465E+03  2.324153E+05  2.194987E-09  3.232990E-09
       315  13  3.345092E+05  1.746251E+05  7.432133E+03  2.406991E+05  2.875029E-10  5.353926E-11
       315  14  3.319455E+05  1.757878E+05  4.624490E+03  2.416771E+05  2.981031E-10 -2.230825E-09
       315  15  3.340678E+05  1.738441E+05  3.572750E+03  2.412875E+05  1.378436E-09  2.022194E-09
       315  16  3.713640E+05  2.001390E+05  1.768048E+04  2.589281E+05  2.779230E-10  2.009707E-09
       315  17  3.590529E+05  1.948384E+05  1.214480E+04  2.552277E+05 -8.183586E-11  3.541648E-09
       315  18  3.514542E+05  1.864577E+05  8.469858E+03  2.501599E+05 -1.326775E-09 -2.110009E-09
       315  19  2.976563E+05  1.491124E+05 -2.816103E+03  2.224715E+05 -2.970941E+03 -5.937591E+03
       315  20  3.048389E+05  1.567378E+05 -2.895851E+03  2.281272E+05 -1.660232E+03 -4.096616E+03
       315  21  3.166816E+05  1.612306E+05 -1.324456E+03  2.324153E+05 -4.250716E+02 -2.155053E+03
       315  22  3.345092E+05  1.746252E+05  7.432200E+03  2.406991E+05 -2.375891E+03 -5.489958E+03
       315  23  3.319455E+05  1.757879E+05  4.624516E+03  2.416771E+05 -9.443158E+02 -3.558085E+03
       315  24  3.340678E+05  1.738441E+05  3.572755E+03  2.412875E+05  4.116599E+02 -1.525671E+03
       315  25  3.713640E+05  2.001390E+05  1.768053E+04  2.589281E+05 -1.780787E+03 -5.042284E+03
       315  26  3.590529E+05  1.948384E+05  1.214481E+04  2.552277E+05 -2.283570E+02 -3.019522E+03
       315  27  3.514542E+05  1.864577E+05  8.469863E+03  2.501599E+05  1.248413E+03 -8.962723E+02
       316   1  3.232648E+05  1.662876E+05  5.312002E+02  2.358253E+05  2.026817E+02  1.354752E+03
       316   2  3.305429E+05  1.749374E+05  3.739153E+03  2.411314E+05 -9.087690E+02 -5.427929E+02
       316   3  3.420585E+05  1.798661E+05  8.317626E+03  2.453478E+05 -2.020087E+03 -2.440597E+03
       316   4  3.340601E+05  1.738702E+05  3.484478E+03  2.412268E+05 -6.112185E+02  7.425517E+02
       316   5  3.319536E+05  1.757525E+05  4.099742E+03  2.417553E+05 -1.722956E+03 -1.155210E+03
       316   6  3.340846E+05  1.739136E+05  6.085759E+03  2.411940E+05 -2.834537E+03 -3.053215E+03
       316   7  3.448555E+05  1.814529E+05  6.437751E+03  2.466285E+05 -1.425138E+03  1.303374E+02
       316   8  3.333644E+05  1.765676E+05  4.460339E+03  2.423792E+05 -2.537151E+03 -1.767632E+03
       316   9  3.261106E+05  1.679611E+05  3.853852E+03  2.370401E+05 -3.648984E+03 -3.665829E+03
       316  10  3.232648E+05  1.662876E+05  5.311966E+02  2.358253E+05 -1.514429E-09  1.242668E-09
       316  11  3.305429E+05  1.749374E+05  3.739150E+03  2.411314E+05 -9.405994E-10  1.351834E-09
       316  12  3.420584E+05  1.798661E+05  8.317607E+03  2.453478E+05  1.799547E-09  2.722627E-10
       316  13  3.340601E+05  1.738702E+05  3.484476E+03  2.412268E+05  9.618894E-10 -4.733570E-10
       316  14  3.319536E+05  1.757525E+05  4.099734E+03  2.417553E+05 -1.202574E-09 -1.133146E-08
       316  15  3.340845E+05  1.739136E+05  6.085726E+03  2.411940E+05  1.237214E-09  6.303321E-09
       316  16  3.448555E+05  1.814529E+05  6.437747E+03  2.466285E+05  2.727072E-09  8.186655E-10
       316  17  3.333644E+05  1.765676E+05  4.460321E+03  2.423792E+05 -9.049397E-11 -2.294221E-09
       316  18  3.261106E+05  1.679610E+05  3.853802E+03  2.370401E+05 -1.534642E-09 -1.530985E-09
       316  19  3.232648E+05  1.662876E+05  5.312002E+02  2.358253E+05 -2.026817E+02 -1.354752E+03
       316  20  3.305429E+05  1.749374E+05  3.739153E+03  2.411314E+05  9.087690E+02  5.427929E+02
       316  21  3.420585E+05  1.798661E+05  8.317626E+03  2.453478E+05  2.020087E+03  2.440597E+03
       316  22  3.340601E+05  1.738702E+05  3.484478E+03  2.412268E+05  6.112185E+02 -7.425517E+02
       316  23  3.319536E+05  1.757525E+05  4.099742E+03  2.417553E+05  1.722956E+03  1.155210E+03
       316  24  3.340846E+05  1.739136E+05  6.085759E+03  2.411940E+05  2.834537E+03  3.053215E+03
       316  25  3.448555E+05  1.814529E+05  6.437751E+03  2.466285E+05  1.425138E+03 -1.303374E+02
       316  26  3.333644E+05  1.765676E+05  4.460339E+03  2.423792E+05  2.537151E+03  1.767632E+03
       316  27  3.261106E+05  1.679611E+05  3.853852E+03  2.370401E+05  3.648984E+03  3.665829E+03
       317   1  3.483775E+05  1.852084E+05  1.186469E+04  2.492011E+05 -2.668142E+03 -3.560862E+03
       317   2  3.563883E+05  1.928337E+05  1.971990E+04  2.536925E+05 -7.452726E+03 -8.174672E+03
       317   3  3.706621E+05  1.992635E+05  3.270932E+04  2.562398E+05 -1.230998E+04 -1.269195E+04
       317   4  3.341799E+05  1.738523E+05  7.687779E+03  2.414681E+05 -3.504299E+03 -4.189807E+03
       317   5  3.317802E+05  1.757348E+05  1.292220E+04  2.414821E+05 -8.172685E+03 -8.716239E+03
       317   6  3.356184E+05  1.763969E+05  2.319027E+04  2.395521E+05 -1.291366E+04 -1.314610E+04
       317   7  3.199828E+05  1.624966E+05  3.510921E+03  2.337355E+05 -4.340419E+03 -4.818721E+03
       317   8  3.071730E+05  1.586364E+05  6.124508E+03  2.292724E+05 -8.892600E+03 -9.257775E+03
       317   9  3.005761E+05  1.535308E+05  1.367112E+04  2.228654E+05 -1.351729E+04 -1.360023E+04
       317  10  3.483775E+05  1.852083E+05  1.186465E+04  2.492011E+05  5.697905E-10 -2.753118E-09
       317  11  3.563883E+05  1.928336E+05  1.971967E+04  2.536924E+05 -8.600076E-10 -1.601407E-09
       317  12  3.706619E+05  1.992633E+05  3.270874E+04  2.562397E+05 -1.805201E-09  7.632474E-10
       317  13  3.341799E+05  1.738523E+05  7.687723E+03  2.414681E+05  1.508672E-09 -7.022875E-10
       317  14  3.317802E+05  1.757347E+05  1.292193E+04  2.414820E+05  9.954766E-10  4.790878E-09
       317  15  3.356182E+05  1.763966E+05  2.318964E+04  2.395520E+05 -2.464555E-10  1.116890E-09
       317  16  3.199828E+05  1.624966E+05  3.510842E+03  2.337354E+05  6.525224E-10 -7.866597E-10
       317  17  3.071729E+05  1.586363E+05  6.124198E+03  2.292723E+05  1.496269E-09  3.672856E-09
       317  18  3.005759E+05  1.535305E+05  1.367043E+04  2.228653E+05  1.240576E-09  1.572301E-09
       317  19  3.483775E+05  1.852084E+05  1.186469E+04  2.492011E+05  2.668142E+03  3.560862E+03
       317  20  3.563883E+05  1.928337E+05  1.971990E+04  2.536925E+05  7.452726E+03  8.174672E+03
       317  21  3.706621E+05  1.992635E+05  3.270932E+04  2.562398E+05  1.230998E+04  1.269195E+04
       317  22  3.341799E+05  1.738523E+05  7.687779E+03  2.414681E+05  3.504299E+03  4.189807E+03
       317  23  3.317802E+05  1.757348E+05  1.292220E+04  2.414821E+05  8.172685E+03  8.716239E+03
       317  24  3.356184E+05  1.763969E+05  2.319027E+04  2.395521E+05  1.291366E+04  1.314610E+04
       317  25  3.199828E+05  1.624966E+05  3.510921E+03  2.337355E+05  4.340419E+03  4.818721E+03
       317  26  3.071730E+05  1.586364E+05  6.124508E+03  2.292724E+05  8.892600E+03  9.257775E+03
       317  27  3.005761E+05  1.535308E+05  1.367112E+04  2.228654E+05  1.351729E+04  1.360023E+04
       318   1  3.659541E+05  2.139473E+05  4.107287E+04  2.684901E+05 -1.476203E+04 -1.526256E+04
       318   2  4.010087E+05  1.949889E+05  6.673687E+04  2.539890E+05 -3.868720E+04 -3.321451E+04
       318   3  4.821125E+05  2.291266E+05  1.309148E+05  2.127857E+05 -6.393275E+04 -4.941315E+04
       318   4  3.362517E+05  1.740289E+05  2.964786E+04  2.448383E+05 -1.577977E+04 -1.602767E+04
       318   5  3.312100E+05  1.790914E+05  5.207212E+04  2.345716E+05 -3.759842E+04 -3.239760E+04
       318   6  3.717596E+05  2.367952E+05  1.111842E+05  1.976034E+05 -6.073474E+04 -4.701592E+04
       318   7  3.065501E+05  1.341124E+05  1.822258E+04  2.211879E+05 -1.679746E+04 -1.679268E+04
       318   8  2.614175E+05  1.631944E+05  3.740732E+04  2.151557E+05 -3.650981E+04 -3.158071E+04
       318   9  2.614260E+05  2.444677E+05  9.145486E+04  1.824204E+05 -5.753759E+04 -4.461849E+04
       318  10  3.659538E+05  2.139469E+05  4.107202E+04  2.684899E+05 -7.662920E-11  1.645852E-09
       318  11  4.010068E+05  1.949873E+05  6.673199E+04  2.539879E+05 -8.604725E-10  1.535281E-09
       318  12  4.821075E+05  2.291228E+05  1.309025E+05  2.127832E+05 -3.146743E-10 -2.072048E-09
       318  13  3.362514E+05  1.740286E+05  2.964691E+04  2.448381E+05 -2.625931E-10 -2.751674E-09
       318  14  3.312082E+05  1.790899E+05  5.206749E+04  2.345707E+05  3.628655E-11  2.475690E-09
       318  15  3.717550E+05  2.367918E+05  1.111731E+05  1.976011E+05 -6.584719E-11  1.849185E-09
       318  16  3.065497E+05  1.341121E+05  1.822152E+04  2.211877E+05 -1.349674E-09  8.946099E-10
       318  17  2.614158E+05  1.631929E+05  3.740295E+04  2.151547E+05 -4.420577E-11 -2.253056E-09
       318  18  2.614219E+05  2.444647E+05  9.144491E+04  1.824184E+05  5.874970E-10  2.690724E-09
       318  19  3.659541E+05  2.139473E+05  4.107287E+04  2.684901E+05  1.476203E+04  1.526256E+04
       318  20  4.010087E+05  1.949889E+05  6.673687E+04  2.539890E+05  3.868720E+04  3.321451E+04
       318  21  4.821125E+05  2.291266E+05  1.309148E+05  2.127857E+05  6.393275E+04  4.941315E+04
       318  22  3.362517E+05  1.740289E+05  2.964786E+04  2.448383E+05  1.577977E+04  1.602767E+04
       318  23  3.312100E+05  1.790914E+05  5.207212E+04  2.345716E+05  3.759842E+04  3.239760E+04
       318  24  3.717596E+05  2.367952E+05  1.111842E+05  1.976034E+05  6.073474E+04  4.701592E+04
       318  25  3.065501E+05  1.341124E+05  1.822258E+04  2.211879E+05  1.679746E+04  1.679268E+04
       318  26  2.614175E+05  1.631944E+05  3.740732E+04  2.151557E+05  3.650981E+04  3.158071E+04
       318  27  2.614260E+05  2.444677E+05  9.145486E+04  1.824204E+05  5.753759E+04  4.461849E+04
       319   1  3.265752E+05  5.255606E+04  5.175263E+04  3.069160E+04  1.267058E+04 -2.385493E+03
       319   2  2.895889E+05  3.832723E+04  3.598716E+04  2.354085E+04  5.030736E+03 -7.325203E+03
       319   3  2.547801E+05  2.898338E+04  2.641200E+04  2.745128E+04 -2.616941E+03 -7.088038E+03
       319   4  1.342118E+05  4.842882E+03  5.552183E+03  2.783508E+04  3.647827E+03 -2.400401E+03
       319   5  1.336647E+05  4.968478E+02  2.744104E+03  2.230853E+04  2.223320E+03 -7.330056E+03
       319   6  1.342156E+05 -4.217694E+01  1.812053E+03  2.784321E+04  7.905112E+02 -7.082287E+03
       319   7 -5.811744E+04 -4.287291E+04 -4.065058E+04  2.497943E+04 -5.372144E+03 -2.415228E+03
       319   8 -2.223667E+04 -3.733511E+04 -3.050032E+04  2.107652E+04 -5.834019E+02 -7.334898E+03
       319   9  1.366496E+04 -2.906864E+04 -2.278862E+04  2.823506E+04  4.197314E+03 -7.076531E+03
       319  10  3.265750E+05  5.255601E+04  5.175231E+04  3.069162E+04 -3.334882E-09  1.003082E-09
       319  11  2.895889E+05  3.832717E+04  3.598701E+04  2.354088E+04  6.835947E-11  4.784810E-09
       319  12  2.547801E+05  2.898332E+04  2.641190E+04  2.745126E+04  1.710946E-09 -1.112500E-10
       319  13  1.342118E+05  4.842872E+03  5.552147E+03  2.783508E+04 -1.095014E-10 -3.741030E-09
       319  14  1.336647E+05  4.967887E+02  2.743994E+03  2.230854E+04  7.743619E-12 -5.319911E-09
       319  15  1.342156E+05 -4.223097E+01  1.811957E+03  2.784322E+04 -1.733377E-10 -2.747098E-10
       319  16 -5.811747E+04 -4.287293E+04 -4.065064E+04  2.497942E+04  3.619036E-09 -1.582082E-10
       319  17 -2.223668E+04 -3.733517E+04 -3.050042E+04  2.107651E+04 -6.180091E-10  1.116716E-09
       319  18  1.366492E+04 -2.906869E+04 -2.278875E+04  2.823508E+04 -2.126535E-09  2.551081E-10
       319  19  3.265752E+05  5.255606E+04  5.175263E+04  3.069160E+04 -1.267058E+04  2.385493E+03
       319  20  2.895889E+05  3.832723E+04  3.598716E+04  2.354085E+04 -5.030736E+03  7.325203E+03
       319  21  2.547801E+05  2.898338E+04  2.641200E+04  2.745128E+04  2.616941E+03  7.088038E+03
       319  22  1.342118E+05  4.842882E+03  5.552183E+03  2.783508E+04 -3.647827E+03  2.400401E+03
       319  23  1.336647E+05  4.968478E+02  2.744104E+03  2.230853E+04 -2.223320E+03  7.330056E+03
       319  24  1.342156E+05 -4.217694E+01  1.812053E+03  2.784321E+04 -7.905112E+02  7.082287E+03
       319  25 -5.811744E+04 -4.287291E+04 -4.065058E+04  2.497943E+04  5.372144E+03  2.415228E+03
       319  26 -2.223667E+04 -3.733511E+04 -3.050032E+04  2.107652E+04  5.834019E+02  7.334898E+03
       319  27  1.366496E+04 -2.906864E+04 -2.278862E+04  2.823506E+04 -4.197314E+03  7.076531E+03
       320   1  2.286366E+05  2.306599E+04  2.095922E+04  2.811738E+04 -1.672548E+03 -5.522286E+03
       320   2  1.927106E+05  1.419858E+04  1.338461E+04  2.236737E+04 -2.736454E+03 -3.565234E+03
       320   3  1.569530E+05  5.634940E+03  6.566805E+03  2.795223E+04 -3.800871E+03 -1.335858E+03
       320   4  1.339971E+05  2.727911E+02  1.616168E+03  2.790221E+04  5.152836E+02 -5.518553E+03
       320   5  1.339428E+05  6.529063E+01  1.476920E+03  2.223489E+04 -2.217437E+02 -3.560869E+03
       320   6  1.339984E+05  1.047697E+02  1.867454E+03  2.790250E+04 -9.593466E+02 -1.330843E+03
       320   7  3.936615E+04 -2.252097E+04 -1.772734E+04  2.768706E+04  2.702788E+03 -5.514821E+03
       320   8  7.517835E+04 -1.406821E+04 -1.043092E+04  2.210241E+04  2.292733E+03 -3.556504E+03
       320   9  1.110444E+05 -5.425429E+03 -2.831894E+03  2.785277E+04  1.882075E+03 -1.325828E+03
       320  10  2.286366E+05  2.306596E+04  2.095916E+04  2.811737E+04 -6.684046E-10 -2.222596E-09
       320  11  1.927106E+05  1.419857E+04  1.338457E+04  2.236736E+04  1.068863E-09  2.515656E-09
       320  12  1.569530E+05  5.634934E+03  6.566774E+03  2.795222E+04  2.271216E-09  4.727815E-09
       320  13  1.339971E+05  2.727583E+02  1.616110E+03  2.790221E+04  8.726050E-11  5.498296E-09
       320  14  1.339428E+05  6.527700E+01  1.476896E+03  2.223489E+04 -1.560056E-10 -1.148415E-08
       320  15  1.339984E+05  1.047676E+02  1.867449E+03  2.790249E+04  5.298951E-11  4.593615E-09
       320  16  3.936613E+04 -2.252100E+04 -1.772741E+04  2.768707E+04  7.745561E-10 -3.949695E-09
       320  17  7.517834E+04 -1.406823E+04 -1.043095E+04  2.210242E+04 -1.575735E-09 -3.117286E-09
       320  18  1.110444E+05 -5.425432E+03 -2.831904E+03  2.785277E+04 -2.310860E-09  1.386609E-09
       320  19  2.286366E+05  2.306599E+04  2.095922E+04  2.811738E+04  1.672548E+03  5.522286E+03
       320  20  1.927106E+05  1.419858E+04  1.338461E+04  2.236737E+04  2.736454E+03  3.565234E+03
       320  21  1.569530E+05  5.634940E+03  6.566805E+03  2.795223E+04  3.800871E+03  1.335858E+03
       320  22  1.339971E+05  2.727911E+02  1.616168E+03  2.790221E+04 -5.152836E+02  5.518553E+03
       320  23  1.339428E+05  6.529063E+01  1.476920E+03  2.223489E+04  2.217437E+02  3.560869E+03
       320  24  1.339984E+05  1.047697E+02  1.867454E+03  2.790250E+04  9.593466E+02  1.330843E+03
       320  25  3.936615E+04 -2.252097E+04 -1.772734E+04  2.768706E+04 -2.702788E+03  5.514821E+03
       320  26  7.517835E+04 -1.406821E+04 -1.043092E+04  2.210241E+04 -2.292733E+03  3.556504E+03
       320  27  1.110444E+05 -5.425429E+03 -2.831894E+03  2.785277E+04 -1.882075E+03  1.325828E+03
       321   1  1.312643E+05 -6.452195E+02  1.609993E+03  2.810803E+04 -4.160718E+03  6.154792E+01
       321   2  9.523839E+04 -9.187267E+03 -4.229051E+03  2.211902E+04 -5.679817E+03  2.299559E+03
       321   3  5.958984E+04 -1.682016E+04 -8.864215E+03  2.746555E+04 -7.198364E+03  4.294895E+03
       321   4  1.340690E+05  4.417931E+01  2.257032E+03  2.790300E+04 -1.325965E+03  6.656009E+01
       321   5  1.338549E+05  1.051696E+02  3.619570E+03  2.223430E+04 -3.136470E+03  2.304006E+03
       321   6  1.340680E+05  1.126038E+03  6.388369E+03  2.790109E+04 -4.946511E+03  4.298787E+03
       321   7  1.368738E+05  7.335820E+02  2.904102E+03  2.769796E+04  1.508800E+03  7.157038E+01
       321   8  1.724729E+05  9.397517E+03  1.146814E+04  2.234959E+04 -5.929671E+02  2.308454E+03
       321   9  2.085514E+05  1.907189E+04  2.164068E+04  2.833668E+04 -2.694393E+03  4.302681E+03
       321  10  1.312643E+05 -6.452241E+02  1.609960E+03  2.810803E+04  4.314689E-09 -2.257519E-09
       321  11  9.523836E+04 -9.187282E+03 -4.229121E+03  2.211903E+04  1.070514E-09 -1.037472E-09
       321  12  5.958978E+04 -1.682020E+04 -8.864347E+03  2.746558E+04 -2.608649E-09 -9.380545E-10
       321  13  1.340690E+05  4.417883E+01  2.257029E+03  2.790300E+04  9.157990E-11 -6.617596E-10
       321  14  1.338549E+05  1.051613E+02  3.619542E+03  2.223431E+04  1.971495E-10 -1.965586E-09
       321  15  1.340680E+05  1.126012E+03  6.388288E+03  2.790111E+04 -2.265025E-11 -1.511450E-09
       321  16  1.368738E+05  7.335814E+02  2.904097E+03  2.769796E+04 -3.879354E-09 -3.880320E-09
       321  17  1.724729E+05  9.397511E+03  1.146813E+04  2.234959E+04 -1.474456E-09  4.338507E-10
       321  18  2.085514E+05  1.907187E+04  2.164063E+04  2.833669E+04  2.624907E-09  3.282682E-09
       321  19  1.312643E+05 -6.452195E+02  1.609993E+03  2.810803E+04  4.160718E+03 -6.154792E+01
       321  20  9.523839E+04 -9.187267E+03 -4.229051E+03  2.211902E+04  5.679817E+03 -2.299559E+03
       321  21  5.958984E+04 -1.682016E+04 -8.864215E+03  2.746555E+04  7.198364E+03 -4.294895E+03
       321  22  1.340690E+05  4.417931E+01  2.257032E+03  2.790300E+04  1.325965E+03 -6.656009E+01
       321  23  1.338549E+05  1.051696E+02  3.619570E+03  2.223430E+04  3.136470E+03 -2.304006E+03
       321  24  1.340680E+05  1.126038E+03  6.388369E+03  2.790109E+04  4.946511E+03 -4.298787E+03
       321  25  1.368738E+05  7.335820E+02  2.904102E+03  2.769796E+04 -1.508800E+03 -7.157038E+01
       321  26  1.724729E+05  9.397517E+03  1.146814E+04  2.234959E+04  5.929671E+02 -2.308454E+03
       321  27  2.085514E+05  1.907189E+04  2.164068E+04  2.833668E+04  2.694393E+03 -4.302681E+03
       322   1  3.494334E+04 -2.478205E+04 -1.237820E+04  3.085356E+04 -9.406310E+03  5.837022E+03
       322   2 -3.490083E+03 -3.053063E+04 -1.475956E+04  1.651455E+04 -1.126914E+04  6.292562E+03
       322   3 -3.677445E+04 -1.649316E+04 -1.099022E+04  1.324557E+04 -1.312418E+04  2.080308E+03
       322   4  1.353321E+05 -6.150010E+02  8.140933E+03  2.785225E+04 -6.056133E+03  5.842807E+03
       322   5  1.322704E+05  2.445026E+03  1.425198E+04  2.229490E+04 -1.352161E+04  6.288537E+03
       322   6  1.353274E+05  2.626100E+04  3.040279E+04  2.780701E+04 -2.097946E+04  2.066880E+03
       322   7  2.357304E+05  2.355146E+04  2.865958E+04  2.485045E+04 -2.705425E+03  5.848560E+03
       322   8  2.680483E+05  3.541960E+04  4.326249E+04  2.807652E+04 -1.577456E+04  6.284470E+03
       322   9  3.074570E+05  6.901382E+04  7.179404E+04  4.237249E+04 -2.883691E+04  2.053086E+03
       322  10  3.494324E+04 -2.478211E+04 -1.237843E+04  3.085360E+04  5.193040E-09 -5.812741E-09
       322  11 -3.490230E+03 -3.053070E+04 -1.475987E+04  1.651461E+04 -1.288553E-10 -5.738659E-10
       322  12 -3.677464E+04 -1.649321E+04 -1.099056E+04  1.324559E+04 -4.726827E-09 -1.140488E-09
       322  13  1.353320E+05 -6.150475E+02  8.140800E+03  2.785228E+04  5.137074E-11  5.611933E-10
       322  14  1.322702E+05  2.444935E+03  1.425156E+04  2.229497E+04  1.020345E-10 -6.894396E-09
       322  15  1.353269E+05  2.626087E+04  3.040196E+04  2.780704E+04 -6.275480E-11 -3.160380E-09
       322  16  2.357304E+05  2.355142E+04  2.865950E+04  2.485046E+04 -4.823351E-09  3.593169E-10
       322  17  2.680481E+05  3.541949E+04  4.326195E+04  2.807660E+04 -2.180463E-10  2.665910E-09
       322  18  3.074561E+05  6.901359E+04  7.179247E+04  4.237254E+04  4.626885E-09  5.264977E-10
       322  19  3.494334E+04 -2.478205E+04 -1.237820E+04  3.085356E+04  9.406310E+03 -5.837022E+03
       322  20 -3.490083E+03 -3.053063E+04 -1.475956E+04  1.651455E+04  1.126914E+04 -6.292562E+03
       322  21 -3.677445E+04 -1.649316E+04 -1.099022E+04  1.324557E+04  1.312418E+04 -2.080308E+03
       322  22  1.353321E+05 -6.150010E+02  8.140933E+03  2.785225E+04  6.056133E+03 -5.842807E+03
       322  23  1.322704E+05  2.445026E+03  1.425198E+04  2.229490E+04  1.352161E+04 -6.288537E+03
       322  24  1.353274E+05  2.626100E+04  3.040279E+04  2.780701E+04  2.097946E+04 -2.066880E+03
       322  25  2.357304E+05  2.355146E+04  2.865958E+04  2.485045E+04  2.705425E+03 -5.848560E+03
       322  26  2.680483E+05  3.541960E+04  4.326249E+04  2.807652E+04  1.577456E+04 -6.284470E+03
       322  27  3.074570E+05  6.901382E+04  7.179404E+04  4.237249E+04  2.883691E+04 -2.053086E+03
       323   1 -1.784942E+05 -7.565290E+05 -1.913342E+05  1.113883E+05 -3.880847E+03 -8.934603E+04
       323   2 -7.143048E+04 -6.687330E+05 -1.086297E+05  6.795723E+04 -1.181041E+04 -5.050223E+04
       323   3 -4.174306E+04 -6.052462E+05 -7.056774E+04  4.789608E+04 -1.062199E+04 -1.163869E+04
       323   4 -9.529169E+04 -4.222124E+05 -1.107865E+05  5.878775E+04 -3.894956E+03 -7.445652E+04
       323   5 -8.739194E+03 -4.109936E+05 -5.341981E+04  4.717047E+04 -1.181395E+04 -4.653450E+04
       323   6  2.350094E+03 -4.221811E+05 -3.309207E+04  5.892783E+04 -1.061269E+04 -1.859815E+04
       323   7 -1.208688E+04 -8.778706E+04 -3.024442E+04  6.158737E+03 -3.911589E+03 -5.955901E+04
       323   8  5.394936E+04 -1.531908E+05  1.786531E+03  2.637497E+04 -1.181776E+04 -4.256514E+04
       323   9  4.644163E+04 -2.390838E+05  4.382072E+03  6.996291E+04 -1.060363E+04 -2.555962E+04
       323  10 -1.784964E+05 -7.565376E+05 -1.913492E+05  1.113880E+05 -1.165887E-10  3.045362E-09
       323  11 -7.143131E+04 -6.687358E+05 -1.086348E+05  6.795675E+04 -8.229866E-10 -6.246653E-10
       323  12 -4.174321E+04 -6.052464E+05 -7.056821E+04  4.789598E+04  3.490197E-10 -1.499843E-09
       323  13 -9.529320E+04 -4.222183E+05 -1.107969E+05  5.878752E+04  6.759690E-10  3.388570E-09
       323  14 -8.739926E+03 -4.109960E+05 -5.342415E+04  4.717003E+04  2.973153E-10 -1.095281E-09
       323  15  2.349880E+03 -4.221815E+05 -3.309293E+04  5.892767E+04  2.428903E-11  4.894582E-10
       323  16 -1.208785E+04 -8.779088E+04 -3.025112E+04  6.158549E+03  6.073252E-10  8.920456E-10
       323  17  5.394872E+04 -1.531928E+05  1.782864E+03  2.637457E+04  2.277017E-09  1.515798E-09
       323  18  4.644133E+04 -2.390845E+05  4.380633E+03  6.996269E+04 -6.288492E-10  1.304738E-09
       323  19 -1.784942E+05 -7.565290E+05 -1.913342E+05  1.113883E+05  3.880847E+03  8.934603E+04
       323  20 -7.143048E+04 -6.687330E+05 -1.086297E+05  6.795723E+04  1.181041E+04  5.050223E+04
       323  21 -4.174306E+04 -6.052462E+05 -7.056774E+04  4.789608E+04  1.062199E+04  1.163869E+04
       323  22 -9.529169E+04 -4.222124E+05 -1.107865E+05  5.878775E+04  3.894956E+03  7.445652E+04
       323  23 -8.739194E+03 -4.109936E+05 -5.341981E+04  4.717047E+04  1.181395E+04  4.653450E+04
       323  24  2.350094E+03 -4.221811E+05 -3.309207E+04  5.892783E+04  1.061269E+04  1.859815E+04
       323  25 -1.208688E+04 -8.778706E+04 -3.024442E+04  6.158737E+03  3.911589E+03  5.955901E+04
       323  26  5.394936E+04 -1.531908E+05  1.786531E+03  2.637497E+04  1.181776E+04  4.256514E+04
       323  27  4.644163E+04 -2.390838E+05  4.382072E+03  6.996291E+04  1.060363E+04  2.555962E+04
       324   1 -3.472419E+04 -5.461597E+05 -5.433215E+04  6.097136E+04 -7.372402E+03 -8.958590E+03
       324   2 -1.299149E+04 -4.690368E+05 -3.241117E+04  4.715401E+04 -3.238708E+03  2.097180E+03
       324   3  2.816753E+03 -3.947447E+05 -1.915300E+04  5.727522E+04  1.042734E+03  1.315424E+04
       324   4 -3.770320E+03 -4.178246E+05 -2.799765E+04  5.902170E+04 -7.365863E+03 -1.384615E+04
       324   5 -3.361997E+02 -4.164205E+05 -2.177839E+04  4.705299E+04 -3.232082E+03 -2.966344E+03
       324   6 -2.795181E+03 -4.178216E+05 -2.409846E+04  5.902294E+04  1.049488E+03  7.913460E+03
       324   7  2.718254E+04 -2.894739E+05 -1.663938E+03  5.707163E+04 -7.359293E+03 -1.873470E+04
       324   8  1.231893E+04 -3.638016E+05 -1.114565E+04  4.695196E+04 -3.225454E+03 -8.030289E+03
       324   9 -8.407123E+03 -4.408979E+05 -2.904384E+04  6.077058E+04  1.056214E+03  2.672869E+03
       324  10 -3.472427E+04 -5.461598E+05 -5.433240E+04  6.097130E+04  6.205657E-10  4.914369E-09
       324  11 -1.299150E+04 -4.690368E+05 -3.241120E+04  4.715402E+04  3.052482E-10 -5.602138E-10
       324  12  2.816705E+03 -3.947449E+05 -1.915333E+04  5.727521E+04  4.750773E-10 -2.072356E-09
       324  13 -3.770430E+03 -4.178248E+05 -2.799811E+04  5.902162E+04 -1.334317E-10  3.588902E-09
       324  14 -3.362133E+02 -4.164205E+05 -2.177842E+04  4.705298E+04 -8.022851E-10 -4.000097E-10
       324  15 -2.795199E+03 -4.178217E+05 -2.409858E+04  5.902293E+04 -2.233609E-10  9.360818E-10
       324  16  2.718239E+04 -2.894743E+05 -1.664699E+03  5.707152E+04 -9.135571E-10 -1.121743E-09
       324  17  1.231890E+04 -3.638016E+05 -1.114580E+04  4.695194E+04  1.420611E-11 -6.372184E-10
       324  18 -8.407126E+03 -4.408980E+05 -2.904386E+04  6.077058E+04 -8.684018E-10  9.505421E-10
       324  19 -3.472419E+04 -5.461597E+05 -5.433215E+04  6.097136E+04  7.372402E+03  8.958590E+03
       324  20 -1.299149E+04 -4.690368E+05 -3.241117E+04  4.715401E+04  3.238708E+03 -2.097180E+03
       324  21  2.816753E+03 -3.947447E+05 -1.915300E+04  5.727522E+04 -1.042734E+03 -1.315424E+04
       324  22 -3.770320E+03 -4.178246E+05 -2.799765E+04  5.902170E+04  7.365863E+03  1.384615E+04
       324  23 -3.361997E+02 -4.164205E+05 -2.177839E+04  4.705299E+04  3.232082E+03  2.966344E+03
       324  24 -2.795181E+03 -4.178216E+05 -2.409846E+04  5.902294E+04 -1.049488E+03 -7.913460E+03
       324  25  2.718254E+04 -2.894739E+05 -1.663938E+03  5.707163E+04  7.359293E+03  1.873470E+04
       324  26  1.231893E+04 -3.638016E+05 -1.114565E+04  4.695196E+04  3.225454E+03  8.030289E+03
       324  27 -8.407123E+03 -4.408979E+05 -2.904384E+04  6.077058E+04 -1.056214E+03 -2.672869E+03
       325   1  2.046671E+04 -3.432352E+05 -1.101994E+04  6.725629E+04  4.199995E+03  1.860517E+04
       325   2  3.063200E+04 -2.597336E+05 -8.237819E+03  3.139403E+04  6.498846E+03  3.246441E+04
       325   3 -1.490496E+04 -1.918657E+05 -2.838580E+04  1.909037E+04  2.346772E+03  4.631607E+04
       325   4  1.711171E+03 -4.209727E+05 -2.715766E+04  5.896117E+04  4.208357E+03  1.195417E+04
       325   5 -6.602007E+03 -4.124889E+05 -4.134072E+04  4.713017E+04  6.498334E+03  3.354629E+04
       325   6 -7.197038E+04 -4.209942E+05 -8.383105E+04  5.886014E+04  2.337738E+03  5.512887E+04
       325   7 -1.704447E+04 -4.987041E+05 -4.329551E+04  5.066711E+04  4.216898E+03  5.303996E+03
       325   8 -4.383664E+04 -5.652218E+05 -7.444488E+04  6.286240E+04  6.497877E+03  3.462791E+04
       325   9 -1.290337E+05 -6.500712E+05 -1.392789E+05  9.861520E+04  2.329831E+03  6.393842E+04
       325  10  2.046660E+04 -3.432356E+05 -1.102062E+04  6.725623E+04  2.360778E-10  3.702721E-09
       325  11  3.063167E+04 -2.597348E+05 -8.239880E+03  3.139386E+04 -6.465902E-10 -1.315080E-09
       325  12 -1.490554E+04 -1.918680E+05 -2.838984E+04  1.909028E+04 -5.935072E-10 -2.221511E-09
       325  13  1.711114E+03 -4.209728E+05 -2.715796E+04  5.896113E+04 -1.465391E-10  3.023561E-09
       325  14 -6.602355E+03 -4.124902E+05 -4.134292E+04  4.713000E+04 -6.075496E-10  5.335799E-10
       325  15 -7.197120E+04 -4.209975E+05 -8.383677E+04  5.886004E+04  3.164938E-10  2.619854E-09
       325  16 -1.704449E+04 -4.987041E+05 -4.329559E+04  5.066709E+04 -1.120980E-09  1.167848E-09
       325  17 -4.383700E+04 -5.652231E+05 -7.444721E+04  6.286222E+04  8.101408E-10  7.589345E-10
       325  18 -1.290348E+05 -6.500756E+05 -1.392866E+05  9.861508E+04 -2.276670E-10  1.582997E-09
       325  19  2.046671E+04 -3.432352E+05 -1.101994E+04  6.725629E+04 -4.199995E+03 -1.860517E+04
       325  20  3.063200E+04 -2.597336E+05 -8.237819E+03  3.139403E+04 -6.498846E+03 -3.246441E+04
       325  21 -1.490496E+04 -1.918657E+05 -2.838580E+04  1.909037E+04 -2.346772E+03 -4.631607E+04
       325  22  1.711171E+03 -4.209727E+05 -2.715766E+04  5.896117E+04 -4.208357E+03 -1.195417E+04
       325  23 -6.602007E+03 -4.124889E+05 -4.134072E+04  4.713017E+04 -6.498334E+03 -3.354629E+04
       325  24 -7.197038E+04 -4.209942E+05 -8.383105E+04  5.886014E+04 -2.337738E+03 -5.512887E+04
       325  25 -1.704447E+04 -4.987041E+05 -4.329551E+04  5.066711E+04 -4.216898E+03 -5.303996E+03
       325  26 -4.383664E+04 -5.652218E+05 -7.444488E+04  6.286240E+04 -6.497877E+03 -3.462791E+04
       325  27 -1.290337E+05 -6.500712E+05 -1.392789E+05  9.861520E+04 -2.329831E+03 -6.393842E+04
       326   1  1.610828E+05  1.252871E+05  3.100269E+04  1.173600E+05  1.947369E+04  1.514684E+04
       326   2  1.604729E+05  9.682444E+04  1.240859E+04  1.281177E+05  1.222029E+04  1.076115E+04
       326   3  1.749676E+05  8.651142E+04  5.734712E+03  1.298454E+05  5.428554E+03  5.761627E+03
       326   4  1.996031E+05  1.232491E+05  3.800212E+04  1.229583E+05  2.066551E+04  1.604274E+04
       326   5  1.859009E+05  1.033712E+05  1.786361E+04  1.355438E+05  1.267453E+04  1.110271E+04
       326   6  1.874626E+05  1.018023E+05  1.028546E+04  1.390994E+05  5.145432E+03  5.548649E+03
       326   7  2.381260E+05  1.212115E+05  4.500175E+04  1.285565E+05  2.185745E+04  1.693862E+04
       326   8  2.113299E+05  1.099180E+05  2.331869E+04  1.429701E+05  1.312880E+04  1.144428E+04
       326   9  1.999579E+05  1.170937E+05  1.483625E+04  1.483537E+05  4.862301E+03  5.335657E+03
       326  10  1.610823E+05  1.252868E+05  3.100155E+04  1.173598E+05 -2.737635E-09 -3.802286E-09
       326  11  1.604727E+05  9.682428E+04  1.240809E+04  1.281176E+05  3.399652E-09  2.824314E-09
       326  12  1.749675E+05  8.651138E+04  5.734595E+03  1.298454E+05  1.319506E-08  1.137607E-08
       326  13  1.996026E+05  1.232487E+05  3.800084E+04  1.229580E+05 -6.046654E-10 -8.634654E-10
       326  14  1.859007E+05  1.033710E+05  1.786308E+04  1.355437E+05 -1.205201E-09 -2.604332E-09
       326  15  1.874625E+05  1.018023E+05  1.028535E+04  1.390994E+05  4.601530E-09  3.904254E-09
       326  16  2.381254E+05  1.212111E+05  4.500031E+04  1.285562E+05  1.659324E-09 -2.647974E-09
       326  17  2.113297E+05  1.099178E+05  2.331812E+04  1.429700E+05 -5.431454E-09 -3.043221E-09
       326  18  1.999579E+05  1.170937E+05  1.483615E+04  1.483537E+05 -5.330968E-09 -3.858574E-09
       326  19  1.610828E+05  1.252871E+05  3.100269E+04  1.173600E+05 -1.947369E+04 -1.514684E+04
       326  20  1.604729E+05  9.682444E+04  1.240859E+04  1.281177E+05 -1.222029E+04 -1.076115E+04
       326  21  1.749676E+05  8.651142E+04  5.734712E+03  1.298454E+05 -5.428554E+03 -5.761627E+03
       326  22  1.996031E+05  1.232491E+05  3.800212E+04  1.229583E+05 -2.066551E+04 -1.604274E+04
       326  23  1.859009E+05  1.033712E+05  1.786361E+04  1.355438E+05 -1.267453E+04 -1.110271E+04
       326  24  1.874626E+05  1.018023E+05  1.028546E+04  1.390994E+05 -5.145432E+03 -5.548649E+03
       326  25  2.381260E+05  1.212115E+05  4.500175E+04  1.285565E+05 -2.185745E+04 -1.693862E+04
       326  26  2.113299E+05  1.099180E+05  2.331869E+04  1.429701E+05 -1.312880E+04 -1.144428E+04
       326  27  1.999579E+05  1.170937E+05  1.483625E+04  1.483537E+05 -4.862301E+03 -5.335657E+03
       327   1  1.723849E+05  9.276373E+04  4.081596E+03  1.301470E+05  4.254165E+03  4.679544E+03
       327   2  1.740158E+05  9.381498E+04  1.468009E+03  1.319079E+05  2.480998E+03  3.138494E+03
       327   3  1.774692E+05  9.477132E+04  6.641193E+02  1.331071E+05  7.333279E+02  1.563611E+03
       327   4  1.872506E+05  1.026127E+05  8.137189E+03  1.372952E+05  4.116054E+03  4.575614E+03
       327   5  1.860875E+05  1.022186E+05  4.799869E+03  1.379052E+05  2.302189E+03  3.003949E+03
       327   6  1.867558E+05  1.017383E+05  3.307589E+03  1.379534E+05  5.138213E+02  1.398448E+03
       327   7  2.021163E+05  1.124616E+05  1.219270E+04  1.444435E+05  3.977939E+03  4.471682E+03
       327   8  1.981592E+05  1.106221E+05  8.131687E+03  1.439025E+05  2.123376E+03  2.869401E+03
       327   9  1.960424E+05  1.087054E+05  5.951048E+03  1.427998E+05  2.943105E+02  1.233282E+03
       327  10  1.723849E+05  9.276370E+04  4.081521E+03  1.301469E+05 -5.952171E-09  8.078756E-10
       327  11  1.740158E+05  9.381497E+04  1.467979E+03  1.319079E+05 -4.997319E-09  2.622323E-09
       327  12  1.774692E+05  9.477132E+04  6.641137E+02  1.331071E+05  7.065705E-10  6.555388E-10
       327  13  1.872506E+05  1.026127E+05  8.137118E+03  1.372952E+05  3.881404E-09  5.557131E-09
       327  14  1.860875E+05  1.022185E+05  4.799842E+03  1.379052E+05  4.209730E-10  5.872162E-09
       327  15  1.867557E+05  1.017383E+05  3.307584E+03  1.379534E+05 -9.512974E-10 -1.722578E-09
       327  16  2.021163E+05  1.124616E+05  1.219263E+04  1.444435E+05  1.354260E-08  1.373126E-08
       327  17  1.981592E+05  1.106221E+05  8.131663E+03  1.439025E+05  5.959611E-09 -1.864712E-09
       327  18  1.960424E+05  1.087054E+05  5.951045E+03  1.427998E+05 -2.128613E-09 -3.066808E-09
       327  19  1.723849E+05  9.276373E+04  4.081596E+03  1.301470E+05 -4.254165E+03 -4.679544E+03
       327  20  1.740158E+05  9.381498E+04  1.468009E+03  1.319079E+05 -2.480998E+03 -3.138494E+03
       327  21  1.774692E+05  9.477132E+04  6.641193E+02  1.331071E+05 -7.333279E+02 -1.563611E+03
       327  22  1.872506E+05  1.026127E+05  8.137189E+03  1.372952E+05 -4.116054E+03 -4.575614E+03
       327  23  1.860875E+05  1.022186E+05  4.799869E+03  1.379052E+05 -2.302189E+03 -3.003949E+03
       327  24  1.867558E+05  1.017383E+05  3.307589E+03  1.379534E+05 -5.138213E+02 -1.398448E+03
       327  25  2.021163E+05  1.124616E+05  1.219270E+04  1.444435E+05 -3.977939E+03 -4.471682E+03
       327  26  1.981592E+05  1.106221E+05  8.131687E+03  1.439025E+05 -2.123376E+03 -2.869401E+03
       327  27  1.960424E+05  1.087054E+05  5.951048E+03  1.427998E+05 -2.943105E+02 -1.233282E+03
       328   1  1.790112E+05  9.627117E+04  8.439941E+02  1.339789E+05  3.582379E+02  1.115489E+03
       328   2  1.808210E+05  9.850911E+04  1.514510E+03  1.353600E+05 -6.829761E+02  5.520208E+01
       328   3  1.838654E+05  9.988648E+04  3.177958E+03  1.364815E+05 -1.723565E+03 -1.005963E+03
       328   4  1.867348E+05  1.017634E+05  2.979513E+03  1.378722E+05  1.465665E+02  9.562219E+02
       328   5  1.861220E+05  1.022018E+05  2.971739E+03  1.379958E+05 -8.957023E+02 -1.048588E+02
       328   6  1.867440E+05  1.017798E+05  3.957791E+03  1.378599E+05 -1.937327E+03 -1.166800E+03
       328   7  1.944586E+05  1.072558E+05  5.115060E+03  1.417655E+05 -6.511105E+01  7.969499E+02
       328   8  1.914231E+05  1.058945E+05  4.428966E+03  1.406316E+05 -1.108431E+03 -2.649214E+02
       328   9  1.896227E+05  1.036731E+05  4.737611E+03  1.392382E+05 -2.151087E+03 -1.327636E+03
       328  10  1.790112E+05  9.627116E+04  8.439915E+02  1.339789E+05 -2.827433E-09 -1.243160E-09
       328  11  1.808210E+05  9.850911E+04  1.514509E+03  1.353600E+05 -1.889896E-09  5.718560E-09
       328  12  1.838654E+05  9.988647E+04  3.177950E+03  1.364815E+05  3.082586E-09  3.364670E-09
       328  13  1.867348E+05  1.017634E+05  2.979511E+03  1.378722E+05  1.094368E-10  2.839219E-09
       328  14  1.861220E+05  1.022018E+05  2.971738E+03  1.379958E+05 -7.070745E-10 -1.366377E-09
       328  15  1.867440E+05  1.017798E+05  3.957781E+03  1.378599E+05  4.359088E-10 -2.740442E-09
       328  16  1.944586E+05  1.072558E+05  5.115059E+03  1.417655E+05  1.745810E-09 -1.240644E-09
       328  17  1.914231E+05  1.058945E+05  4.428963E+03  1.406316E+05 -4.165449E-10  1.599233E-09
       328  18  1.896227E+05  1.036731E+05  4.737599E+03  1.392382E+05 -2.198539E-09 -9.002178E-09
       328  19  1.790112E+05  9.627117E+04  8.439941E+02  1.339789E+05 -3.582379E+02 -1.115489E+03
       328  20  1.808210E+05  9.850911E+04  1.514510E+03  1.353600E+05  6.829761E+02 -5.520208E+01
       328  21  1.838654E+05  9.988648E+04  3.177958E+03  1.364815E+05  1.723565E+03  1.005963E+03
       328  22  1.867348E+05  1.017634E+05  2.979513E+03  1.378722E+05 -1.465665E+02 -9.562219E+02
       328  23  1.861220E+05  1.022018E+05  2.971739E+03  1.379958E+05  8.957023E+02  1.048588E+02
       328  24  1.867440E+05  1.017798E+05  3.957791E+03  1.378599E+05  1.937327E+03  1.166800E+03
       328  25  1.944586E+05  1.072558E+05  5.115060E+03  1.417655E+05  6.511105E+01 -7.969499E+02
       328  26  1.914231E+05  1.058945E+05  4.428966E+03  1.406316E+05  1.108431E+03  2.649214E+02
       328  27  1.896227E+05  1.036731E+05  4.737611E+03  1.392382E+05  2.151087E+03  1.327636E+03
       329   1  1.853414E+05  1.014612E+05  4.583338E+03  1.376355E+05 -2.264315E+03 -1.577776E+03
       329   2  1.876125E+05  1.030928E+05  8.330306E+03  1.385218E+05 -5.315028E+03 -4.143092E+03
       329   3  1.923035E+05  1.053521E+05  1.517363E+04  1.386293E+05 -8.379061E+03 -6.690807E+03
       329   4  1.867981E+05  1.017414E+05  4.855153E+03  1.380214E+05 -2.481797E+03 -1.741410E+03
       329   5  1.860254E+05  1.021987E+05  7.920518E+03  1.378319E+05 -5.511313E+03 -4.290782E+03
       329   6  1.876683E+05  1.032792E+05  1.406382E+04  1.368638E+05 -8.554146E+03 -6.822561E+03
       329   7  1.882547E+05  1.020217E+05  5.126969E+03  1.384073E+05 -2.699280E+03 -1.905044E+03
       329   8  1.844384E+05  1.013047E+05  7.510727E+03  1.371421E+05 -5.707598E+03 -4.438472E+03
       329   9  1.830330E+05  1.012062E+05  1.295400E+04  1.350982E+05 -8.729231E+03 -6.954316E+03
       329  10  1.853414E+05  1.014612E+05  4.583324E+03  1.376355E+05 -3.138525E-09 -1.532749E-09
       329  11  1.876124E+05  1.030928E+05  8.330221E+03  1.385217E+05 -4.212847E-09  7.076142E-09
       329  12  1.923035E+05  1.053521E+05  1.517341E+04  1.386293E+05 -5.336312E-09 -2.161797E-09
       329  13  1.867980E+05  1.017414E+05  4.855136E+03  1.380214E+05  1.291938E-09  6.159702E-10
       329  14  1.860254E+05  1.021987E+05  7.920427E+03  1.378319E+05 -1.453807E-09 -4.215413E-09
       329  15  1.876682E+05  1.032791E+05  1.406360E+04  1.368637E+05 -2.908448E-09  2.471927E-09
       329  16  1.882547E+05  1.020217E+05  5.126948E+03  1.384073E+05  4.083665E-09  5.215136E-10
       329  17  1.844384E+05  1.013047E+05  7.510629E+03  1.371420E+05  1.360141E-09  1.500115E-09
       329  18  1.830329E+05  1.012061E+05  1.295377E+04  1.350981E+05  1.885607E-09  1.289565E-09
       329  19  1.853414E+05  1.014612E+05  4.583338E+03  1.376355E+05  2.264315E+03  1.577776E+03
       329  20  1.876125E+05  1.030928E+05  8.330306E+03  1.385218E+05  5.315028E+03  4.143092E+03
       329  21  1.923035E+05  1.053521E+05  1.517363E+04  1.386293E+05  8.379061E+03  6.690807E+03
       329  22  1.867981E+05  1.017414E+05  4.855153E+03  1.380214E+05  2.481797E+03  1.741410E+03
       329  23  1.860254E+05  1.021987E+05  7.920518E+03  1.378319E+05  5.511313E+03  4.290782E+03
       329  24  1.876683E+05  1.032792E+05  1.406382E+04  1.368638E+05  8.554146E+03  6.822561E+03
       329  25  1.882547E+05  1.020217E+05  5.126969E+03  1.384073E+05  2.699280E+03  1.905044E+03
       329  26  1.844384E+05  1.013047E+05  7.510727E+03  1.371421E+05  5.707598E+03  4.438472E+03
       329  27  1.830330E+05  1.012062E+05  1.295400E+04  1.350982E+05  8.729231E+03  6.954316E+03
       330   1  1.871195E+05  1.125394E+05  1.955407E+04  1.448361E+05 -1.016391E+04 -8.215767E+03
       330   2  2.057276E+05  9.814496E+04  3.385603E+04  1.343228E+05 -2.367670E+04 -1.845837E+04
       330   3  2.506314E+05  1.169229E+05  7.064643E+04  1.080705E+05 -3.743115E+04 -2.837942E+04
       330   4  1.880576E+05  1.018400E+05  1.794276E+04  1.400513E+05 -1.041470E+04 -8.404290E+03
       330   5  1.856738E+05  1.042377E+05  3.145072E+04  1.336655E+05 -2.354201E+04 -1.835778E+04
       330   6  2.095013E+05  1.397234E+05  6.711265E+04  1.115409E+05 -3.691036E+04 -2.799056E+04
       330   7  1.889956E+05  9.114102E+04  1.633150E+04  1.352666E+05 -1.066550E+04 -8.592801E+03
       330   8  1.656208E+05  1.103307E+05  2.904550E+04  1.330080E+05 -2.340734E+04 -1.825718E+04
       330   9  1.683748E+05  1.625263E+05  6.357940E+04  1.150104E+05 -3.638962E+04 -2.760166E+04
       330  10  1.871194E+05  1.125393E+05  1.955375E+04  1.448360E+05 -2.398408E-08 -1.741459E-08
       330  11  2.057269E+05  9.814445E+04  3.385434E+04  1.343224E+05  1.581145E-09  1.167054E-09
       330  12  2.506297E+05  1.169217E+05  7.064229E+04  1.080696E+05  2.243258E-08  1.417534E-08
       330  13  1.880574E+05  1.018399E+05  1.794242E+04  1.400512E+05  1.775006E-09  4.427989E-09
       330  14  1.856731E+05  1.042372E+05  3.144904E+04  1.336651E+05  4.063634E-09  3.950870E-09
       330  15  2.094996E+05  1.397222E+05  6.710862E+04  1.115400E+05  1.298652E-09 -5.229436E-09
       330  16  1.889955E+05  9.114091E+04  1.633115E+04  1.352665E+05  2.453876E-08  2.101735E-08
       330  17  1.656201E+05  1.103302E+05  2.904384E+04  1.330077E+05  5.562998E-09 -3.064606E-09
       330  18  1.683732E+05  1.625251E+05  6.357548E+04  1.150096E+05 -1.937798E-08 -1.738401E-08
       330  19  1.871195E+05  1.125394E+05  1.955407E+04  1.448361E+05  1.016391E+04  8.215767E+03
       330  20  2.057276E+05  9.814496E+04  3.385603E+04  1.343228E+05  2.367670E+04  1.845837E+04
       330  21  2.506314E+05  1.169229E+05  7.064643E+04  1.080705E+05  3.743115E+04  2.837942E+04
       330  22  1.880576E+05  1.018400E+05  1.794276E+04  1.400513E+05  1.041470E+04  8.404290E+03
       330  23  1.856738E+05  1.042377E+05  3.145072E+04  1.336655E+05  2.354201E+04  1.835778E+04
       330  24  2.095013E+05  1.397234E+05  6.711265E+04  1.115409E+05  3.691036E+04  2.799056E+04
       330  25  1.889956E+05  9.114102E+04  1.633150E+04  1.352666E+05  1.066550E+04  8.592801E+03
       330  26  1.656208E+05  1.103307E+05  2.904550E+04  1.330080E+05  2.340734E+04  1.825718E+04
       330  27  1.683748E+05  1.625263E+05  6.357940E+04  1.150104E+05  3.638962E+04  2.760166E+04
       331   1  9.160385E+04  2.371989E+04  2.381530E+04  1.578169E+04  6.849371E+03 -9.245184E+02
       331   2  7.364586E+04  1.507846E+04  1.542072E+04  1.164542E+04  2.997579E+03 -2.778929E+03
       331   3  5.714918E+04  1.035691E+04  1.051127E+04  1.283829E+04 -8.574715E+02 -2.514836E+03
       331   4  1.382367E+04  4.412284E+03  5.100521E+03  1.328087E+04  3.359928E+03 -9.302602E+02
       331   5  1.331422E+04  4.272475E+02  2.512696E+03  1.062000E+04  2.050821E+03 -2.780515E+03
       331   6  1.382433E+04 -7.914775E+01  1.644512E+03  1.328824E+04  7.383043E+02 -2.512192E+03
       331   7 -6.395093E+04 -1.489573E+04 -1.361464E+04  1.078036E+04 -1.290808E+02 -9.359743E+02
       331   8 -4.701398E+04 -1.422420E+04 -1.039554E+04  9.594687E+03  1.104154E+03 -2.782098E+03
       331   9 -2.949872E+04 -1.051532E+04 -7.222337E+03  1.373816E+04  2.333971E+03 -2.509545E+03
       331  10  9.160380E+04  2.371987E+04  2.381521E+04  1.578169E+04  2.502502E-09  1.072557E-10
       331  11  7.364584E+04  1.507845E+04  1.542069E+04  1.164543E+04  7.056230E-11 -1.215349E-09
       331  12  5.714918E+04  1.035690E+04  1.051126E+04  1.283829E+04 -3.393461E-09 -1.107514E-09
       331  13  1.382366E+04  4.412280E+03  5.100498E+03  1.328087E+04  4.116588E-11  3.905517E-09
       331  14  1.331422E+04  4.272381E+02  2.512673E+03  1.062001E+04  2.393865E-10 -4.501732E-10
       331  15  1.382433E+04 -7.915468E+01  1.644499E+03  1.328825E+04 -3.097580E-11 -1.994594E-09
       331  16 -6.395093E+04 -1.489573E+04 -1.361464E+04  1.078036E+04 -2.023360E-09 -8.278044E-10
       331  17 -4.701398E+04 -1.422421E+04 -1.039556E+04  9.594690E+03 -5.959869E-10 -6.331614E-09
       331  18 -2.949873E+04 -1.051533E+04 -7.222360E+03  1.373817E+04  3.133177E-09 -3.977790E-09
       331  19  9.160385E+04  2.371989E+04  2.381530E+04  1.578169E+04 -6.849371E+03  9.245184E+02
       331  20  7.364586E+04  1.507846E+04  1.542072E+04  1.164542E+04 -2.997579E+03  2.778929E+03
       331  21  5.714918E+04  1.035691E+04  1.051127E+04  1.283829E+04  8.574715E+02  2.514836E+03
       331  22  1.382367E+04  4.412284E+03  5.100521E+03  1.328087E+04 -3.359928E+03  9.302602E+02
       331  23  1.331422E+04  4.272475E+02  2.512696E+03  1.062000E+04 -2.050821E+03  2.780515E+03
       331  24  1.382433E+04 -7.914775E+01  1.644512E+03  1.328824E+04 -7.383043E+02  2.512192E+03
       331  25 -6.395093E+04 -1.489573E+04 -1.361464E+04  1.078036E+04  1.290808E+02  9.359743E+02
       331  26 -4.701398E+04 -1.422420E+04 -1.039554E+04  9.594687E+03 -1.104154E+03  2.782098E+03
       331  27 -2.949872E+04 -1.051532E+04 -7.222337E+03  1.373816E+04 -2.333971E+03  2.509545E+03
       332   1  4.451043E+04  7.653910E+03  7.791882E+03  1.343392E+04 -6.062907E+02 -1.776289E+03
       332   2  2.722977E+04  3.316583E+03  4.093142E+03  1.065538E+04 -1.388545E+03 -8.084372E+02
       332   3  1.008578E+04 -7.911678E+02  9.554540E+02  1.332224E+04 -2.170984E+03  2.687558E+02
       332   4  1.362326E+04  2.093411E+02  1.457205E+03  1.331243E+04  4.911235E+02 -1.774461E+03
       332   5  1.356640E+04  2.653866E+01  1.307107E+03  1.058985E+04 -1.599021E+02 -8.063827E+02
       332   6  1.362341E+04  5.061578E+01  1.627020E+03  1.331269E+04 -8.111314E+02  2.710386E+02
       332   7 -1.726301E+04 -7.235287E+03 -4.877519E+03  1.319094E+04  1.588484E+03 -1.772633E+03
       332   8 -9.679284E+01 -3.263517E+03 -1.478931E+03  1.052433E+04  1.068714E+03 -8.043285E+02
       332   9  1.716105E+04  8.923996E+02  2.298592E+03  1.330315E+04  5.487292E+02  2.733215E+02
       332  10  4.451043E+04  7.653907E+03  7.791876E+03  1.343392E+04 -6.780827E-09 -6.357227E-11
       332  11  2.722977E+04  3.316582E+03  4.093137E+03  1.065537E+04 -1.204893E-09 -4.875781E-09
       332  12  1.008577E+04 -7.911691E+02  9.554450E+02  1.332224E+04  2.844711E-09  6.668809E-10
       332  13  1.362326E+04  2.093376E+02  1.457198E+03  1.331243E+04 -5.019580E-11 -5.519006E-11
       332  14  1.356640E+04  2.653795E+01  1.307106E+03  1.058985E+04  3.195917E-10  4.453594E-09
       332  15  1.362340E+04  5.061552E+01  1.627018E+03  1.331269E+04 -8.889384E-11  1.041320E-09
       332  16 -1.726301E+04 -7.235291E+03 -4.877530E+03  1.319095E+04  7.180267E-09  4.616464E-09
       332  17 -9.679424E+01 -3.263518E+03 -1.478935E+03  1.052433E+04  6.972574E-10 -1.016677E-09
       332  18  1.716105E+04  8.923994E+02  2.298591E+03  1.330314E+04 -3.012623E-09  1.640832E-09
       332  19  4.451043E+04  7.653910E+03  7.791882E+03  1.343392E+04  6.062907E+02  1.776289E+03
       332  20  2.722977E+04  3.316583E+03  4.093142E+03  1.065538E+04  1.388545E+03  8.084372E+02
       332  21  1.008578E+04 -7.911678E+02  9.554540E+02  1.332224E+04  2.170984E+03 -2.687558E+02
       332  22  1.362326E+04  2.093411E+02  1.457205E+03  1.331243E+04 -4.911235E+02  1.774461E+03
       332  23  1.356640E+04  2.653866E+01  1.307107E+03  1.058985E+04  1.599021E+02  8.063827E+02
       332  24  1.362341E+04  5.061578E+01  1.627020E+03  1.331269E+04  8.111314E+02 -2.710386E+02
       332  25 -1.726301E+04 -7.235287E+03 -4.877519E+03  1.319094E+04 -1.588484E+03  1.772633E+03
       332  26 -9.679284E+01 -3.263517E+03 -1.478931E+03  1.052433E+04 -1.068714E+03  8.043285E+02
       332  27  1.716105E+04  8.923996E+02  2.298592E+03  1.330315E+04 -5.487292E+02 -2.733215E+02
       333   1 -2.226554E+03 -3.830081E+03 -1.282757E+03  1.347146E+04 -2.494862E+03  9.397590E+02
       333   2 -1.961565E+04 -7.903085E+03 -3.581676E+03  1.049247E+04 -3.889099E+03  2.006979E+03
       333   3 -3.664972E+04 -1.119402E+04 -4.782921E+03  1.295694E+04 -5.283041E+03  2.936119E+03
       333   4  1.368327E+04 -8.468784E-01  1.957067E+03  1.331256E+04 -1.128611E+03  9.420495E+02
       333   5  1.349135E+04  5.942058E+01  3.122135E+03  1.059007E+04 -2.688635E+03  2.008971E+03
       333   6  1.368290E+04  9.305135E+02  5.499944E+03  1.331100E+04 -4.248401E+03  2.937816E+03
       333   7  2.959333E+04  3.828373E+03  5.196885E+03  1.315365E+04  2.376743E+02  9.443394E+02
       333   8  4.659939E+04  8.021859E+03  9.825894E+03  1.068766E+04 -1.488107E+03  2.010964E+03
       333   9  6.401793E+04  1.305489E+04  1.578268E+04  1.366509E+04 -3.213678E+03  2.939514E+03
       333  10 -2.226561E+03 -3.830084E+03 -1.282770E+03  1.347146E+04 -1.449734E-08 -1.799279E-09
       333  11 -1.961567E+04 -7.903093E+03 -3.581712E+03  1.049248E+04  1.515057E-09  1.962371E-10
       333  12 -3.664975E+04 -1.119404E+04 -4.782989E+03  1.295695E+04  1.758780E-08 -2.702249E-09
       333  13  1.368326E+04 -8.481733E-01  1.957063E+03  1.331256E+04  3.929618E-12 -5.885600E-09
       333  14  1.349134E+04  5.941431E+01  3.122113E+03  1.059007E+04  2.644436E-10  3.243913E-09
       333  15  1.368288E+04  9.304994E+02  5.499894E+03  1.331101E+04 -4.663046E-11 -1.488081E-09
       333  16  2.959333E+04  3.828372E+03  5.196883E+03  1.315365E+04  1.491543E-08 -6.229208E-09
       333  17  4.659939E+04  8.021854E+03  9.825882E+03  1.068767E+04 -2.021650E-09 -9.272360E-09
       333  18  6.401792E+04  1.305488E+04  1.578264E+04  1.366510E+04 -1.776518E-08  3.350346E-10
       333  19 -2.226554E+03 -3.830081E+03 -1.282757E+03  1.347146E+04  2.494862E+03 -9.397590E+02
       333  20 -1.961565E+04 -7.903085E+03 -3.581676E+03  1.049247E+04  3.889099E+03 -2.006979E+03
       333  21 -3.664972E+04 -1.119402E+04 -4.782921E+03  1.295694E+04  5.283041E+03 -2.936119E+03
       333  22  1.368327E+04 -8.468784E-01  1.957067E+03  1.331256E+04  1.128611E+03 -9.420495E+02
       333  23  1.349135E+04  5.942058E+01  3.122135E+03  1.059007E+04  2.688635E+03 -2.008971E+03
       333  24  1.368290E+04  9.305135E+02  5.499944E+03  1.331100E+04  4.248401E+03 -2.937816E+03
       333  25  2.959333E+04  3.828373E+03  5.196885E+03  1.315365E+04 -2.376743E+02 -9.443394E+02
       333  26  4.659939E+04  8.021859E+03  9.825894E+03  1.068766E+04  1.488107E+03 -2.010964E+03
       333  27  6.401793E+04  1.305489E+04  1.578268E+04  1.366509E+04  3.213678E+03 -2.939514E+03
       334   1 -4.802351E+04 -1.567616E+04 -5.799348E+03  1.590045E+04 -6.851562E+03  3.689149E+03
       334   2 -6.760107E+04 -1.728962E+04 -4.730827E+03  5.701396E+03 -1.014132E+04  3.753637E+03
       334   3 -8.244500E+04 -1.606457E+03  2.799985E+03  7.892530E+02 -1.342674E+04  1.208207E+03
       334   4  1.476987E+04 -5.666247E+02  7.006061E+03  1.328471E+04 -5.202362E+03  3.691874E+03
       334   5  1.213140E+04  2.074873E+03  1.226146E+04  1.062262E+04 -1.162453E+04  3.751104E+03
       334   6  1.476896E+04  2.255531E+04  2.615374E+04  1.324715E+04 -1.804244E+04  1.200489E+03
       334   7  7.756701E+04  1.454269E+04  1.981128E+04  1.066870E+04 -3.553000E+03  3.694584E+03
       334   8  9.186991E+04  2.143904E+04  2.925341E+04  1.554449E+04 -1.310793E+04  3.748549E+03
       334   9  1.119920E+05  4.671697E+04  4.950699E+04  2.570701E+04 -2.265886E+04  1.192587E+03
       334  10 -4.802357E+04 -1.567619E+04 -5.799462E+03  1.590047E+04  1.767219E-09 -2.058450E-10
       334  11 -6.760119E+04 -1.728966E+04 -4.731047E+03  5.701427E+03  3.907577E-09  3.284191E-09
       334  12 -8.244520E+04 -1.606507E+03  2.799643E+03  7.892661E+02  4.651268E-09  4.617471E-09
       334  13  1.476983E+04 -5.666466E+02  7.005984E+03  1.328472E+04  1.520625E-11 -1.277426E-09
       334  14  1.213125E+04  2.074821E+03  1.226118E+04  1.062266E+04  2.785584E-10  2.475673E-09
       334  15  1.476861E+04  2.255522E+04  2.615313E+04  1.324717E+04 -4.172546E-11  3.158497E-09
       334  16  7.756700E+04  1.454267E+04  1.981123E+04  1.066871E+04 -1.337301E-09  1.824266E-09
       334  17  9.186973E+04  2.143898E+04  2.925306E+04  1.554453E+04 -4.366704E-09  4.159058E-09
       334  18  1.119914E+05  4.671683E+04  4.950602E+04  2.570703E+04 -4.892716E-09  2.119844E-10
       334  19 -4.802351E+04 -1.567616E+04 -5.799348E+03  1.590045E+04  6.851562E+03 -3.689149E+03
       334  20 -6.760107E+04 -1.728962E+04 -4.730827E+03  5.701396E+03  1.014132E+04 -3.753637E+03
       334  21 -8.244500E+04 -1.606457E+03  2.799985E+03  7.892530E+02  1.342674E+04 -1.208207E+03
       334  22  1.476987E+04 -5.666247E+02  7.006061E+03  1.328471E+04  5.202362E+03 -3.691874E+03
       334  23  1.213140E+04  2.074873E+03  1.226146E+04  1.062262E+04  1.162453E+04 -3.751104E+03
       334  24  1.476896E+04  2.255531E+04  2.615374E+04  1.324715E+04  1.804244E+04 -1.200489E+03
       334  25  7.756701E+04  1.454269E+04  1.981128E+04  1.066870E+04  3.553000E+03 -3.694584E+03
       334  26  9.186991E+04  2.143904E+04  2.925341E+04  1.554449E+04  1.310793E+04 -3.748549E+03
       334  27  1.119920E+05  4.671697E+04  4.950699E+04  2.570701E+04  2.265886E+04 -1.192587E+03
       335   1 -1.055383E+05 -5.152236E+05 -1.123886E+05  6.831860E+04 -2.457644E+03 -5.001489E+04
       335   2 -4.440093E+04 -4.578509E+05 -6.443018E+04  4.306379E+04 -7.414375E+03 -2.757090E+04
       335   3 -2.591044E+04 -4.139992E+05 -4.174608E+04  3.346758E+04 -6.518204E+03 -5.115372E+03
       335   4 -5.229902E+04 -3.012267E+05 -6.081969E+04  3.939468E+04 -2.469661E+03 -4.060765E+04
       335   5 -4.810414E+03 -2.950698E+05 -2.953251E+04  3.160505E+04 -7.417301E+03 -2.517908E+04
       335   6  1.255503E+03 -3.012140E+05 -1.864063E+04  3.947574E+04 -6.511471E+03 -9.741068E+03
       335   7  9.400509E+02 -8.718593E+04 -9.253260E+03  1.046076E+04 -2.482553E+03 -3.119719E+04
       335   8  3.477886E+04 -1.322634E+05  5.363697E+03  2.014327E+04 -7.420315E+03 -2.278664E+04
       335   9  2.842079E+04 -1.884165E+05  4.464256E+03  4.548501E+04 -6.504828E+03 -1.436759E+04
       335  10 -1.055389E+05 -5.152262E+05 -1.123933E+05  6.831850E+04  6.273637E-10  1.955997E-08
       335  11 -4.440119E+04 -4.578518E+05 -6.443171E+04  4.306362E+04  5.771317E-10  1.885526E-09
       335  12 -2.591049E+04 -4.139992E+05 -4.174621E+04  3.346755E+04 -8.946473E-10 -2.234690E-08
       335  13 -5.229947E+04 -3.012285E+05 -6.082280E+04  3.939460E+04  1.166702E-09  1.122441E-09
       335  14 -4.810643E+03 -2.950705E+05 -2.953381E+04  3.160490E+04  1.403420E-09  1.059752E-08
       335  15  1.255432E+03 -3.012141E+05 -1.864088E+04  3.947569E+04 -1.358518E-10 -1.310269E-09
       335  16  9.397830E+02 -8.718698E+04 -9.255101E+03  1.046070E+04  7.803082E-10 -2.287322E-08
       335  17  3.477866E+04 -1.322640E+05  5.362618E+03  2.014313E+04  2.935760E-09  9.452315E-10
       335  18  2.842069E+04 -1.884168E+05  4.463788E+03  4.548494E+04  2.951073E-10  2.051038E-08
       335  19 -1.055383E+05 -5.152236E+05 -1.123886E+05  6.831860E+04  2.457644E+03  5.001489E+04
       335  20 -4.440093E+04 -4.578509E+05 -6.443018E+04  4.306379E+04  7.414375E+03  2.757090E+04
       335  21 -2.591044E+04 -4.139992E+05 -4.174608E+04  3.346758E+04  6.518204E+03  5.115372E+03
       335  22 -5.229902E+04 -3.012267E+05 -6.081969E+04  3.939468E+04  2.469661E+03  4.060765E+04
       335  23 -4.810414E+03 -2.950698E+05 -2.953251E+04  3.160505E+04  7.417301E+03  2.517908E+04
       335  24  1.255503E+03 -3.012140E+05 -1.864063E+04  3.947574E+04  6.511471E+03  9.741068E+03
       335  25  9.400509E+02 -8.718593E+04 -9.253260E+03  1.046076E+04  2.482553E+03  3.119719E+04
       335  26  3.477886E+04 -1.322634E+05  5.363697E+03  2.014327E+04  7.420315E+03  2.278664E+04
       335  27  2.842079E+04 -1.884165E+05  4.464256E+03  4.548501E+04  6.504828E+03  1.436759E+04
       336   1 -2.045345E+04 -3.750413E+05 -3.167170E+04  4.069582E+04 -4.352790E+03 -3.730843E+03
       336   2 -6.360841E+03 -3.235547E+05 -1.830090E+04  3.156630E+04 -1.574842E+03  2.919958E+03
       336   3  4.154129E+03 -2.737658E+05 -1.014164E+04  3.844681E+04  1.274782E+03  9.571313E+03
       336   4 -2.076375E+03 -2.988545E+05 -1.602145E+04  3.953549E+04 -4.348013E+03 -7.031820E+03
       336   5 -2.181382E+02 -2.980116E+05 -1.313989E+04  3.153056E+04 -1.569986E+03 -4.666367E+02
       336   6 -1.922393E+03 -2.988537E+05 -1.541000E+04  3.953570E+04  1.279731E+03  6.098581E+03
       336   7  1.630034E+04 -2.226622E+05 -3.714686E+02  3.837503E+04 -4.343225E+03 -1.033320E+04
       336   8  5.924530E+03 -2.724677E+05 -7.978863E+03  3.149481E+04 -1.565130E+03 -3.853368E+03
       336   9 -7.998944E+03 -3.239409E+05 -2.067836E+04  4.062455E+04  1.284668E+03  2.625987E+03
       336  10 -2.045347E+04 -3.750413E+05 -3.167176E+04  4.069580E+04 -1.552929E-09  1.987364E-10
       336  11 -6.360846E+03 -3.235548E+05 -1.830092E+04  3.156630E+04  5.881216E-10  1.460049E-09
       336  12  4.154103E+03 -2.737659E+05 -1.014182E+04  3.844680E+04 -6.845295E-10 -1.347567E-10
       336  13 -2.076409E+03 -2.988546E+05 -1.602158E+04  3.953547E+04 -6.256714E-10 -2.146056E-09
       336  14 -2.181409E+02 -2.980116E+05 -1.313989E+04  3.153056E+04  1.111544E-09  9.661806E-09
       336  15 -1.922404E+03 -2.988537E+05 -1.541008E+04  3.953570E+04 -3.689552E-10 -1.626338E-09
       336  16  1.630030E+04 -2.226623E+05 -3.717048E+02  3.837499E+04 -1.035168E-10 -3.999330E-09
       336  17  5.924524E+03 -2.724677E+05 -7.978895E+03  3.149481E+04  3.288453E-10 -4.302681E-10
       336  18 -7.998948E+03 -3.239409E+05 -2.067837E+04  4.062455E+04  1.925344E-10 -2.775639E-09
       336  19 -2.045345E+04 -3.750413E+05 -3.167170E+04  4.069582E+04  4.352790E+03  3.730843E+03
       336  20 -6.360841E+03 -3.235547E+05 -1.830090E+04  3.156630E+04  1.574842E+03 -2.919958E+03
       336  21  4.154129E+03 -2.737658E+05 -1.014164E+04  3.844681E+04 -1.274782E+03 -9.571313E+03
       336  22 -2.076375E+03 -2.988545E+05 -1.602145E+04  3.953549E+04  4.348013E+03  7.031820E+03
       336  23 -2.181382E+02 -2.980116E+05 -1.313989E+04  3.153056E+04  1.569986E+03  4.666367E+02
       336  24 -1.922393E+03 -2.988537E+05 -1.541000E+04  3.953570E+04 -1.279731E+03 -6.098581E+03
       336  25  1.630034E+04 -2.226622E+05 -3.714686E+02  3.837503E+04  4.343225E+03  1.033320E+04
       336  26  5.924530E+03 -2.724677E+05 -7.978863E+03  3.149481E+04  1.565130E+03  3.853368E+03
       336  27 -7.998944E+03 -3.239409E+05 -2.067836E+04  4.062455E+04 -1.284668E+03 -2.625987E+03
       337   1  1.602131E+04 -2.393710E+05 -4.962089E+03  4.511254E+04  3.393804E+03  1.317259E+04
       337   2  2.276385E+04 -1.835010E+05 -3.472730E+03  2.095835E+04  4.831981E+03  2.215038E+04
       337   3 -8.077347E+03 -1.381302E+05 -1.721106E+04  1.254474E+04  1.712043E+03  3.112190E+04
       337   4  1.156861E+03 -3.010242E+05 -1.771014E+04  3.949231E+04  3.400093E+03  8.696231E+03
       337   5 -4.472843E+03 -2.953025E+05 -2.763822E+04  3.158460E+04  4.830976E+03  2.313980E+04
       337   6 -4.864021E+04 -3.010347E+05 -5.659308E+04  3.941848E+04  1.703842E+03  3.757620E+04
       337   7 -1.370770E+04 -3.626736E+05 -3.045830E+04  3.387265E+04  3.406462E+03  4.220306E+03
       337   8 -3.170994E+04 -4.070920E+05 -5.180438E+04  4.220892E+04  4.830005E+03  2.412904E+04
       337   9 -8.920230E+04 -4.639134E+05 -9.597647E+04  6.628514E+04  1.696199E+03  4.402881E+04
       337  10  1.602125E+04 -2.393712E+05 -4.962437E+03  4.511250E+04 -1.378239E-09 -2.171426E-08
       337  11  2.276370E+04 -1.835015E+05 -3.473696E+03  2.095826E+04  7.090048E-10  2.936621E-09
       337  12 -8.077610E+03 -1.381312E+05 -1.721288E+04  1.254470E+04  2.685719E-10  2.361886E-08
       337  13  1.156828E+03 -3.010242E+05 -1.771030E+04  3.949228E+04 -3.675001E-10  1.243230E-11
       337  14 -4.473012E+03 -2.953031E+05 -2.763927E+04  3.158451E+04  2.581210E-10  7.113586E-09
       337  15 -4.864060E+04 -3.010362E+05 -5.659574E+04  3.941842E+04  5.872726E-10  1.234156E-09
       337  16 -1.370771E+04 -3.626736E+05 -3.045836E+04  3.387264E+04 -8.072409E-10  1.893458E-08
       337  17 -3.171012E+04 -4.070927E+05 -5.180552E+04  4.220882E+04  9.689846E-10  6.213126E-10
       337  18 -8.920283E+04 -4.639155E+05 -9.598012E+04  6.628508E+04  4.036371E-10 -2.298597E-08
       337  19  1.602131E+04 -2.393710E+05 -4.962089E+03  4.511254E+04 -3.393804E+03 -1.317259E+04
       337  20  2.276385E+04 -1.835010E+05 -3.472730E+03  2.095835E+04 -4.831981E+03 -2.215038E+04
       337  21 -8.077347E+03 -1.381302E+05 -1.721106E+04  1.254474E+04 -1.712043E+03 -3.112190E+04
       337  22  1.156861E+03 -3.010242E+05 -1.771014E+04  3.949231E+04 -3.400093E+03 -8.696231E+03
       337  23 -4.472843E+03 -2.953025E+05 -2.763822E+04  3.158460E+04 -4.830976E+03 -2.313980E+04
       337  24 -4.864021E+04 -3.010347E+05 -5.659308E+04  3.941848E+04 -1.703842E+03 -3.757620E+04
       337  25 -1.370770E+04 -3.626736E+05 -3.045830E+04  3.387265E+04 -3.406462E+03 -4.220306E+03
       337  26 -3.170994E+04 -4.070920E+05 -5.180438E+04  4.220892E+04 -4.830005E+03 -2.412904E+04
       337  27 -8.920230E+04 -4.639134E+05 -9.597647E+04  6.628514E+04 -1.696199E+03 -4.402881E+04
       338   1  3.924569E+04  4.236157E+04  1.561773E+04  3.050879E+04  1.143811E+04  9.254391E+03
       338   2  3.879937E+04  2.413677E+04  4.208871E+03  3.723562E+04  6.856373E+03  7.280170E+03
       338   3  4.779349E+04  1.748610E+04  3.283234E+01  3.823471E+04  2.831595E+03  4.565717E+03
       338   4  7.645548E+04  5.010284E+04  2.421973E+04  4.036491E+04  1.301229E+04  1.043864E+04
       338   5  6.776920E+04  3.738496E+04  1.138093E+04  4.837216E+04  7.541770E+03  7.795833E+03
       338   6  6.871583E+04  3.643371E+04  6.546874E+03  5.065181E+04  2.628307E+03  4.412761E+03
       338   7  1.136671E+05  5.784428E+04  3.282175E+04  5.022139E+04  1.458661E+04  1.162290E+04
       338   8  9.673986E+04  5.063326E+04  1.855290E+04  5.950913E+04  8.227209E+03  8.311511E+03
       338   9  8.963845E+04  5.538157E+04  1.306078E+04  6.306932E+04  2.425011E+03  4.259798E+03
       338  10  3.924553E+04  4.236144E+04  1.561732E+04  3.050870E+04 -4.135342E-11 -2.518978E-10
       338  11  3.879931E+04  2.413670E+04  4.208684E+03  3.723558E+04 -7.821553E-10  3.999137E-11
       338  12  4.779347E+04  1.748608E+04  3.277810E+01  3.823470E+04 -7.989956E-10 -1.187330E-09
       338  13  7.645527E+04  5.010268E+04  2.421921E+04  4.036480E+04 -6.822813E-11 -4.558229E-09
       338  14  6.776912E+04  3.738488E+04  1.138071E+04  4.837211E+04  8.872100E-10 -1.820451E-09
       338  15  6.871581E+04  3.643368E+04  6.546825E+03  5.065180E+04  5.333206E-10 -4.655852E-10
       338  16  1.136668E+05  5.784408E+04  3.282110E+04  5.022126E+04 -1.283749E-11 -4.193979E-10
       338  17  9.673977E+04  5.063317E+04  1.855264E+04  5.950907E+04  7.685186E-10  2.021715E-09
       338  18  8.963843E+04  5.538155E+04  1.306074E+04  6.306932E+04  8.331469E-10  5.513580E-10
       338  19  3.924569E+04  4.236157E+04  1.561773E+04  3.050879E+04 -1.143811E+04 -9.254391E+03
       338  20  3.879937E+04  2.413677E+04  4.208871E+03  3.723562E+04 -6.856373E+03 -7.280170E+03
       338  21  4.779349E+04  1.748610E+04  3.283234E+01  3.823471E+04 -2.831595E+03 -4.565717E+03
       338  22  7.645548E+04  5.010284E+04  2.421973E+04  4.036491E+04 -1.301229E+04 -1.043864E+04
       338  23  6.776920E+04  3.738496E+04  1.138093E+04  4.837216E+04 -7.541770E+03 -7.795833E+03
       338  24  6.871583E+04  3.643371E+04  6.546874E+03  5.065181E+04 -2.628307E+03 -4.412761E+03
       338  25  1.136671E+05  5.784428E+04  3.282175E+04  5.022139E+04 -1.458661E+04 -1.162290E+04
       338  26  9.673986E+04  5.063326E+04  1.855290E+04  5.950913E+04 -8.227209E+03 -8.311511E+03
       338  27  8.963845E+04  5.538157E+04  1.306078E+04  6.306932E+04 -2.425011E+03 -4.259798E+03
       339   1  4.603620E+04  2.138231E+04 -1.068403E+03  3.836813E+04  2.006057E+03  3.810077E+03
       339   2  4.694346E+04  2.189646E+04 -2.763164E+03  3.939035E+04  8.773223E+02  2.891374E+03
       339   3  4.893209E+04  2.241852E+04 -3.331189E+03  4.007539E+04 -2.205794E+02  1.931673E+03
       339   4  6.858564E+04  3.694510E+04  5.174702E+03  4.950015E+04  1.977610E+03  3.788661E+03
       339   5  6.788190E+04  3.665727E+04  3.038945E+03  4.987836E+04  7.996354E+02  2.832909E+03
       339   6  6.827024E+04  3.638800E+04  2.072675E+03  4.991938E+04 -3.475100E+02  1.836157E+03
       339   7  9.113565E+04  5.250817E+04  1.141776E+04  6.063263E+04  1.949161E+03  3.767243E+03
       339   8  8.882098E+04  5.141844E+04  8.841060E+03  6.036684E+04  7.219444E+02  2.774441E+03
       339   9  8.760906E+04  5.035790E+04  7.476591E+03  5.976385E+04 -4.744476E+02  1.740635E+03
       339  10  4.603619E+04  2.138229E+04 -1.068437E+03  3.836812E+04  4.967738E-10 -3.940908E-09
       339  11  4.694346E+04  2.189645E+04 -2.763182E+03  3.939035E+04  4.198497E-10 -3.451410E-09
       339  12  4.893209E+04  2.241852E+04 -3.331197E+03  4.007539E+04 -2.016880E-09  1.642770E-09
       339  13  6.858563E+04  3.694508E+04  5.174667E+03  4.950014E+04  1.410315E-09  5.078775E-09
       339  14  6.788190E+04  3.665727E+04  3.038928E+03  4.987836E+04  1.989901E-10  1.499803E-10
       339  15  6.827024E+04  3.638800E+04  2.072669E+03  4.991938E+04  9.149048E-10  1.342846E-09
       339  16  9.113564E+04  5.250816E+04  1.141773E+04  6.063263E+04  2.737479E-10 -2.144593E-09
       339  17  8.882098E+04  5.141843E+04  8.841045E+03  6.036684E+04  2.275233E-09 -3.423424E-10
       339  18  8.760905E+04  5.035790E+04  7.476585E+03  5.976385E+04  8.893000E-10 -2.217369E-09
       339  19  4.603620E+04  2.138231E+04 -1.068403E+03  3.836813E+04 -2.006057E+03 -3.810077E+03
       339  20  4.694346E+04  2.189646E+04 -2.763164E+03  3.939035E+04 -8.773223E+02 -2.891374E+03
       339  21  4.893209E+04  2.241852E+04 -3.331189E+03  4.007539E+04  2.205794E+02 -1.931673E+03
       339  22  6.858564E+04  3.694510E+04  5.174702E+03  4.950015E+04 -1.977610E+03 -3.788661E+03
       339  23  6.788190E+04  3.665727E+04  3.038945E+03  4.987836E+04 -7.996354E+02 -2.832909E+03
       339  24  6.827024E+04  3.638800E+04  2.072675E+03  4.991938E+04  3.475100E+02 -1.836157E+03
       339  25  9.113565E+04  5.250817E+04  1.141776E+04  6.063263E+04 -1.949161E+03 -3.767243E+03
       339  26  8.882098E+04  5.141844E+04  8.841060E+03  6.036684E+04 -7.219444E+02 -2.774441E+03
       339  27  8.760906E+04  5.035790E+04  7.476591E+03  5.976385E+04  4.744476E+02 -1.740635E+03
       340   1  4.979125E+04  2.328522E+04 -3.263790E+03  4.056803E+04 -4.635835E+02  1.653624E+03
       340   2  5.081006E+04  2.455129E+04 -2.917681E+03  4.135011E+04 -1.102599E+03  1.017774E+03
       340   3  5.253636E+04  2.533722E+04 -1.968077E+03  4.198702E+04 -1.739454E+03  3.790666E+02
       340   4  6.825662E+04  3.640377E+04  1.852408E+03  4.986708E+04 -5.806438E+02  1.565536E+03
       340   5  6.790497E+04  3.664790E+04  1.812979E+03  4.993630E+04 -1.223120E+03  9.270840E+02
       340   6  6.826160E+04  3.641263E+04  2.380049E+03  4.986034E+04 -1.863438E+03  2.857738E+02
       340   7  8.672213E+04  4.952234E+04  6.968490E+03  5.916632E+04 -6.977074E+02  1.477445E+03
       340   8  8.500009E+04  4.874460E+04  6.543571E+03  5.852269E+04 -1.343645E+03  8.363915E+02
       340   9  8.398711E+04  4.748818E+04  6.728149E+03  5.773389E+04 -1.987426E+03  1.924779E+02
       340  10  4.979125E+04  2.328522E+04 -3.263795E+03  4.056803E+04  2.368289E-09  3.700877E-09
       340  11  5.081006E+04  2.455129E+04 -2.917686E+03  4.135012E+04 -9.475426E-12 -1.442348E-09
       340  12  5.253636E+04  2.533721E+04 -1.968083E+03  4.198702E+04 -3.029270E-09 -2.376138E-09
       340  13  6.825662E+04  3.640377E+04  1.852403E+03  4.986708E+04  5.532968E-10 -1.943054E-09
       340  14  6.790497E+04  3.664790E+04  1.812974E+03  4.993630E+04  5.091444E-10  3.296825E-09
       340  15  6.826160E+04  3.641263E+04  2.380042E+03  4.986034E+04 -2.064636E-10 -1.067277E-09
       340  16  8.672212E+04  4.952234E+04  6.968485E+03  5.916632E+04 -2.933956E-09 -2.474185E-09
       340  17  8.500008E+04  4.874459E+04  6.543566E+03  5.852269E+04  1.058388E-09 -2.156970E-10
       340  18  8.398711E+04  4.748818E+04  6.728141E+03  5.773389E+04  1.570261E-09  5.673743E-09
       340  19  4.979125E+04  2.328522E+04 -3.263790E+03  4.056803E+04  4.635835E+02 -1.653624E+03
       340  20  5.081006E+04  2.455129E+04 -2.917681E+03  4.135011E+04  1.102599E+03 -1.017774E+03
       340  21  5.253636E+04  2.533722E+04 -1.968077E+03  4.198702E+04  1.739454E+03 -3.790666E+02
       340  22  6.825662E+04  3.640377E+04  1.852408E+03  4.986708E+04  5.806438E+02 -1.565536E+03
       340  23  6.790497E+04  3.664790E+04  1.812979E+03  4.993630E+04  1.223120E+03 -9.270840E+02
       340  24  6.826160E+04  3.641263E+04  2.380049E+03  4.986034E+04  1.863438E+03 -2.857738E+02
       340  25  8.672213E+04  4.952234E+04  6.968490E+03  5.916632E+04  6.977074E+02 -1.477445E+03
       340  26  8.500009E+04  4.874460E+04  6.543571E+03  5.852269E+04  1.343645E+03 -8.363915E+02
       340  27  8.398711E+04  4.748818E+04  6.728149E+03  5.773389E+04  1.987426E+03 -1.924779E+02
       341   1  5.336309E+04  2.623795E+04 -1.152313E+03  4.264751E+04 -2.072652E+03  3.606886E+01
       341   2  5.465812E+04  2.714505E+04  1.040488E+03  4.313681E+04 -3.861759E+03 -1.476732E+03
       341   3  5.735961E+04  2.844831E+04  5.055667E+03  4.317127E+04 -5.642062E+03 -3.001311E+03
       341   4  6.829366E+04  3.638932E+04  2.907407E+03  4.995594E+04 -2.193314E+03 -5.472281E+01
       341   5  6.784796E+04  3.664727E+04  4.722142E+03  4.983907E+04 -3.996586E+03 -1.578182E+03
       341   6  6.881174E+04  3.730446E+04  8.371537E+03  4.926736E+04 -5.791023E+03 -3.113398E+03
       341   7  8.322467E+04  4.654094E+04  6.967169E+03  5.726467E+04 -2.313982E+03 -1.455184E+02
       341   8  8.103800E+04  4.614959E+04  8.403779E+03  5.654149E+04 -4.131416E+03 -1.679635E+03
       341   9  8.026387E+04  4.616060E+04  1.168734E+04  5.536352E+04 -5.939986E+03 -3.225487E+03
       341  10  5.336309E+04  2.623795E+04 -1.152321E+03  4.264751E+04  3.110158E-09  3.868474E-09
       341  11  5.465810E+04  2.714505E+04  1.040456E+03  4.313680E+04  2.863426E-09  3.984780E-09
       341  12  5.735957E+04  2.844829E+04  5.055590E+03  4.317125E+04  7.528952E-10  8.745562E-10
       341  13  6.829366E+04  3.638932E+04  2.907398E+03  4.995594E+04  6.681322E-10  7.533383E-10
       341  14  6.784794E+04  3.664726E+04  4.722107E+03  4.983906E+04  3.669856E-10  3.460411E-09
       341  15  6.881170E+04  3.730444E+04  8.371455E+03  4.926735E+04 -3.091843E-10 -2.154219E-09
       341  16  8.322467E+04  4.654094E+04  6.967159E+03  5.726467E+04 -4.565050E-09  2.625882E-09
       341  17  8.103798E+04  4.614958E+04  8.403741E+03  5.654149E+04 -3.035617E-09  2.782333E-09
       341  18  8.026383E+04  4.616057E+04  1.168726E+04  5.536350E+04 -1.331115E-10 -2.252169E-09
       341  19  5.336309E+04  2.623795E+04 -1.152313E+03  4.264751E+04  2.072652E+03 -3.606886E+01
       341  20  5.465812E+04  2.714505E+04  1.040488E+03  4.313681E+04  3.861759E+03  1.476732E+03
       341  21  5.735961E+04  2.844831E+04  5.055667E+03  4.317127E+04  5.642062E+03  3.001311E+03
       341  22  6.829366E+04  3.638932E+04  2.907407E+03  4.995594E+04  2.193314E+03  5.472281E+01
       341  23  6.784796E+04  3.664727E+04  4.722142E+03  4.983907E+04  3.996586E+03  1.578182E+03
       341  24  6.881174E+04  3.730446E+04  8.371537E+03  4.926736E+04  5.791023E+03  3.113398E+03
       341  25  8.322467E+04  4.654094E+04  6.967169E+03  5.726467E+04  2.313982E+03  1.455184E+02
       341  26  8.103800E+04  4.614959E+04  8.403779E+03  5.654149E+04  4.131416E+03  1.679635E+03
       341  27  8.026387E+04  4.616060E+04  1.168734E+04  5.536352E+04  5.939986E+03  3.225487E+03
       342   1  5.421738E+04  3.267309E+04  7.654321E+03  4.682794E+04 -6.812204E+03 -3.962753E+03
       342   2  6.523709E+04  2.406371E+04  1.599085E+04  4.057038E+04 -1.424866E+04 -9.851996E+03
       342   3  9.179230E+04  3.508758E+04  3.728772E+04  2.495098E+04 -2.152674E+04 -1.595185E+04
       342   4  6.904843E+04  3.644246E+04  1.067717E+04  5.116188E+04 -6.911419E+03 -4.037340E+03
       342   5  6.763256E+04  3.786721E+04  1.870995E+04  4.736342E+04 -1.460086E+04 -1.011725E+04
       342   6  8.180651E+04  5.897987E+04  3.992283E+04  3.420325E+04 -2.213175E+04 -1.640808E+04
       342   7  8.387976E+04  4.021186E+04  1.370002E+04  5.549590E+04 -7.010637E+03 -4.111926E+03
       342   8  7.002814E+04  5.167117E+04  2.142909E+04  5.415658E+04 -1.495307E+04 -1.038252E+04
       342   9  7.182131E+04  8.287396E+04  4.255816E+04  4.345553E+04 -2.273675E+04 -1.686436E+04
       342  10  5.421732E+04  3.267307E+04  7.654204E+03  4.682792E+04  6.388708E-11  6.754677E-10
       342  11  6.523685E+04  2.406355E+04  1.599029E+04  4.057027E+04 -7.380139E-10  1.217873E-09
       342  12  9.179174E+04  3.508719E+04  3.728638E+04  2.495070E+04 -1.718851E-10 -3.877764E-09
       342  13  6.904837E+04  3.644243E+04  1.067705E+04  5.116186E+04  1.456835E-09 -3.357588E-09
       342  14  6.763230E+04  3.786704E+04  1.870936E+04  4.736330E+04 -1.802696E-10  8.570185E-10
       342  15  8.180592E+04  5.897945E+04  3.992141E+04  3.420296E+04 -2.607937E-10 -3.571991E-09
       342  16  8.387970E+04  4.021183E+04  1.369990E+04  5.549587E+04  5.751207E-11 -2.892931E-09
       342  17  7.002787E+04  5.167100E+04  2.142846E+04  5.415646E+04  1.328964E-12 -1.535363E-09
       342  18  7.182068E+04  8.287351E+04  4.255666E+04  4.345522E+04 -3.299829E-10 -2.548144E-09
       342  19  5.421738E+04  3.267309E+04  7.654321E+03  4.682794E+04  6.812204E+03  3.962753E+03
       342  20  6.523709E+04  2.406371E+04  1.599085E+04  4.057038E+04  1.424866E+04  9.851996E+03
       342  21  9.179230E+04  3.508758E+04  3.728772E+04  2.495098E+04  2.152674E+04  1.595185E+04
       342  22  6.904843E+04  3.644246E+04  1.067717E+04  5.116188E+04  6.911419E+03  4.037340E+03
       342  23  6.763256E+04  3.786721E+04  1.870995E+04  4.736342E+04  1.460086E+04  1.011725E+04
       342  24  8.180651E+04  5.897987E+04  3.992283E+04  3.420325E+04  2.213175E+04  1.640808E+04
       342  25  8.387976E+04  4.021186E+04  1.370002E+04  5.549590E+04  7.010637E+03  4.111926E+03
       342  26  7.002814E+04  5.167117E+04  2.142909E+04  5.415658E+04  1.495307E+04  1.038252E+04
       342  27  7.182131E+04  8.287396E+04  4.255816E+04  4.345553E+04  2.273675E+04  1.686436E+04
       343   1 -4.710981E+04 -3.357020E+05 -5.012258E+04  2.767083E+04 -1.163802E+03 -2.224896E+04
       343   2 -2.094040E+04 -3.138275E+05 -2.973615E+04  1.707421E+04 -3.612316E+03 -1.223230E+04
       343   3 -1.361426E+04 -2.979455E+05 -2.058208E+04  1.229155E+04 -3.452660E+03 -2.211056E+03
       343   4 -2.308529E+04 -2.390847E+05 -2.688625E+04  1.488051E+04 -1.170291E+03 -1.776747E+04
       343   5 -2.115051E+03 -2.363583E+05 -1.319553E+04  1.199157E+04 -3.614261E+03 -1.087857E+04
       343   6  5.562312E+02 -2.390811E+05 -8.563446E+03  1.491695E+04 -3.449960E+03 -3.985487E+03
       343   7  9.391824E+02 -1.424583E+05 -3.650418E+03  2.088199E+03 -1.176964E+03 -1.328528E+04
       343   8  1.671000E+04 -1.588834E+05  3.344762E+03  6.908293E+03 -3.616229E+03 -9.524683E+03
       343   9  1.472653E+04 -1.802133E+05  3.455019E+03  1.754261E+04 -3.447274E+03 -5.760083E+03
       343  10 -4.710995E+04 -3.357026E+05 -5.012352E+04  2.767081E+04  4.207431E-10  1.472322E-09
       343  11 -2.094045E+04 -3.138276E+05 -2.973646E+04  1.707418E+04  1.305559E-10  2.442827E-09
       343  12 -1.361427E+04 -2.979455E+05 -2.058211E+04  1.229154E+04 -4.711076E-10 -2.716076E-09
       343  13 -2.308537E+04 -2.390850E+05 -2.688685E+04  1.488050E+04  3.691859E-10  1.100322E-09
       343  14 -2.115097E+03 -2.363584E+05 -1.319578E+04  1.199154E+04 -3.921506E-10 -5.473457E-10
       343  15  5.562141E+02 -2.390811E+05 -8.563498E+03  1.491694E+04 -2.070932E-10 -1.183392E-09
       343  16  9.391335E+02 -1.424585E+05 -3.650752E+03  2.088186E+03 -4.891979E-10  7.674825E-10
       343  17  1.670996E+04 -1.588835E+05  3.344567E+03  6.908266E+03 -2.174061E-11 -3.463172E-09
       343  18  1.472651E+04 -1.802134E+05  3.454934E+03  1.754259E+04 -6.911191E-10  3.559997E-10
       343  19 -4.710981E+04 -3.357020E+05 -5.012258E+04  2.767083E+04  1.163802E+03  2.224896E+04
       343  20 -2.094040E+04 -3.138275E+05 -2.973615E+04  1.707421E+04  3.612316E+03  1.223230E+04
       343  21 -1.361426E+04 -2.979455E+05 -2.058208E+04  1.229155E+04  3.452660E+03  2.211056E+03
       343  22 -2.308529E+04 -2.390847E+05 -2.688625E+04  1.488051E+04  1.170291E+03  1.776747E+04
       343  23 -2.115051E+03 -2.363583E+05 -1.319553E+04  1.199157E+04  3.614261E+03  1.087857E+04
       343  24  5.562312E+02 -2.390811E+05 -8.563446E+03  1.491695E+04  3.449960E+03  3.985487E+03
       343  25  9.391824E+02 -1.424583E+05 -3.650418E+03  2.088199E+03  1.176964E+03  1.328528E+04
       343  26  1.671000E+04 -1.588834E+05  3.344762E+03  6.908293E+03  3.616229E+03  9.524683E+03
       343  27  1.472653E+04 -1.802133E+05  3.455019E+03  1.754261E+04  3.447274E+03  5.760083E+03
       344   1 -1.179118E+04 -2.832580E+05 -1.677282E+04  1.552451E+04 -2.631020E+03 -1.545201E+03
       344   2 -6.424202E+03 -2.639349E+05 -1.193043E+04  1.197891E+04 -1.619956E+03  1.848510E+03
       344   3 -2.860359E+03 -2.454812E+05 -9.743387E+03  1.440477E+04 -5.351206E+02  5.242402E+03
       344   4 -8.977148E+02 -2.380601E+05 -7.526816E+03  1.494394E+04 -2.629236E+03 -2.720062E+03
       344   5 -9.946530E+01 -2.376328E+05 -6.616433E+03  1.195807E+04 -1.618055E+03  5.852975E+02
       344   6 -1.088933E+03 -2.380598E+05 -8.299913E+03  1.494365E+04 -5.330994E+02  3.890739E+03
       344   7  9.995621E+03 -1.928602E+05  1.719086E+03  1.436333E+04 -2.627449E+03 -3.895007E+03
       344   8  6.225230E+03 -2.113300E+05 -1.302461E+03  1.193722E+04 -1.616153E+03 -6.779676E+02
       344   9  6.824911E+02 -2.306384E+05 -6.856434E+03  1.548254E+04 -5.310806E+02  2.539060E+03
       344  10 -1.179118E+04 -2.832580E+05 -1.677284E+04  1.552451E+04 -5.618651E-10  3.880215E-10
       344  11 -6.424206E+03 -2.639349E+05 -1.193045E+04  1.197892E+04  1.269844E-09  2.809049E-09
       344  12 -2.860367E+03 -2.454812E+05 -9.743439E+03  1.440477E+04 -9.085760E-10 -2.007253E-09
       344  13 -8.977242E+02 -2.380601E+05 -7.526843E+03  1.494394E+04 -6.051246E-10 -2.148352E-09
       344  14 -9.946820E+01 -2.376328E+05 -6.616439E+03  1.195807E+04 -4.986368E-10  1.086727E-09
       344  15 -1.088938E+03 -2.380599E+05 -8.299942E+03  1.494365E+04 -3.235737E-10  4.048704E-10
       344  16  9.995609E+03 -1.928602E+05  1.719044E+03  1.436332E+04 -1.059496E-09  1.235112E-09
       344  17  6.225227E+03 -2.113300E+05 -1.302467E+03  1.193722E+04 -2.881362E-09 -9.283900E-10
       344  18  6.824890E+02 -2.306384E+05 -6.856447E+03  1.548254E+04  2.370819E-10  2.077864E-09
       344  19 -1.179118E+04 -2.832580E+05 -1.677282E+04  1.552451E+04  2.631020E+03  1.545201E+03
       344  20 -6.424202E+03 -2.639349E+05 -1.193043E+04  1.197891E+04  1.619956E+03 -1.848510E+03
       344  21 -2.860359E+03 -2.454812E+05 -9.743387E+03  1.440477E+04  5.351206E+02 -5.242402E+03
       344  22 -8.977148E+02 -2.380601E+05 -7.526816E+03  1.494394E+04  2.629236E+03  2.720062E+03
       344  23 -9.946530E+01 -2.376328E+05 -6.616433E+03  1.195807E+04  1.618055E+03 -5.852975E+02
       344  24 -1.088933E+03 -2.380598E+05 -8.299913E+03  1.494365E+04  5.330994E+02 -3.890739E+03
       344  25  9.995621E+03 -1.928602E+05  1.719086E+03  1.436333E+04  2.627449E+03  3.895007E+03
       344  26  6.225230E+03 -2.113300E+05 -1.302461E+03  1.193722E+04  1.616153E+03  6.779676E+02
       344  27  6.824911E+02 -2.306384E+05 -6.856434E+03  1.548254E+04  5.310806E+02 -2.539060E+03
       345   1  2.187104E+03 -2.331110E+05 -8.385953E+03  1.818681E+04  2.404251E+02  6.917540E+03
       345   2  3.576549E+03 -2.111089E+05 -1.010020E+04  5.968945E+03  9.436050E+02  1.354037E+04
       345   3 -1.671849E+04 -1.953677E+05 -2.154301E+04 -3.600507E+02  3.719256E+02  2.016138E+04
       345   4  6.857631E+02 -2.393200E+05 -9.740336E+03  1.493480E+04  2.428057E+02  5.297154E+03
       345   5 -2.534270E+03 -2.360582E+05 -1.559052E+04  1.196890E+04  9.438754E+02  1.344890E+04
       345   6 -2.770509E+04 -2.393236E+05 -3.223164E+04  1.489195E+04  3.702596E+02  2.159860E+04
       345   7 -8.155387E+02 -2.455290E+05 -1.109471E+04  1.168281E+04  2.452033E+02  3.676784E+03
       345   8 -8.644996E+03 -2.610068E+05 -2.108086E+04  1.796860E+04  9.441439E+02  1.335744E+04
       345   9 -3.869096E+04 -2.832772E+05 -4.292028E+04  3.014287E+04  3.686641E+02  2.303571E+04
       345  10  2.187091E+03 -2.331110E+05 -8.386043E+03  1.818681E+04 -1.733772E-09  7.029952E-10
       345  11  3.576499E+03 -2.111090E+05 -1.010055E+04  5.968935E+03  1.148200E-09  2.388464E-09
       345  12 -1.671860E+04 -1.953681E+05 -2.154378E+04 -3.600567E+02  5.508802E-10 -3.311438E-10
       345  13  6.857555E+02 -2.393201E+05 -9.740389E+03  1.493480E+04  4.757693E-11 -1.053989E-09
       345  14 -2.534319E+03 -2.360584E+05 -1.559086E+04  1.196889E+04 -2.743766E-10 -1.077176E-09
       345  15 -2.770521E+04 -2.393241E+05 -3.223252E+04  1.489194E+04  7.288288E-11 -1.323417E-09
       345  16 -8.155424E+02 -2.455290E+05 -1.109473E+04  1.168281E+04  1.580641E-10 -1.914664E-10
       345  17 -8.645045E+03 -2.610070E+05 -2.108119E+04  1.796859E+04 -7.417376E-10 -7.017038E-10
       345  18 -3.869110E+04 -2.832778E+05 -4.292128E+04  3.014286E+04 -9.583172E-10 -2.518297E-10
       345  19  2.187104E+03 -2.331110E+05 -8.385953E+03  1.818681E+04 -2.404251E+02 -6.917540E+03
       345  20  3.576549E+03 -2.111089E+05 -1.010020E+04  5.968945E+03 -9.436050E+02 -1.354037E+04
       345  21 -1.671849E+04 -1.953677E+05 -2.154301E+04 -3.600507E+02 -3.719256E+02 -2.016138E+04
       345  22  6.857631E+02 -2.393200E+05 -9.740336E+03  1.493480E+04 -2.428057E+02 -5.297154E+03
       345  23 -2.534270E+03 -2.360582E+05 -1.559052E+04  1.196890E+04 -9.438754E+02 -1.344890E+04
       345  24 -2.770509E+04 -2.393236E+05 -3.223164E+04  1.489195E+04 -3.702596E+02 -2.159860E+04
       345  25 -8.155387E+02 -2.455290E+05 -1.109471E+04  1.168281E+04 -2.452033E+02 -3.676784E+03
       345  26 -8.644996E+03 -2.610068E+05 -2.108086E+04  1.796860E+04 -9.441439E+02 -1.335744E+04
       345  27 -3.869096E+04 -2.832772E+05 -4.292028E+04  3.014287E+04 -3.686641E+02 -2.303571E+04
       346   1  1.740317E+05  8.464928E+04  7.995654E+04  3.969149E+04  1.083302E+04 -4.955925E+03
       346   2  1.152935E+05  7.713252E+04  6.282935E+04  3.404045E+04  1.568482E+03 -1.539732E+04
       346   3  5.636094E+04  6.382644E+04  5.029058E+04  4.642450E+04 -7.689275E+03 -1.567009E+04
       346   4 -2.078201E+05 -1.004819E+04 -1.164136E+04  4.532938E+04 -7.804171E+03 -4.946244E+03
       346   5 -2.066556E+05 -9.546187E+02 -5.633096E+03  3.631388E+04 -4.864132E+03 -1.539502E+04
       346   6 -2.078074E+05  2.294028E+02 -3.511987E+03  4.533417E+04 -1.918001E+03 -1.567269E+04
       346   7 -5.895377E+05 -1.047559E+05 -1.032483E+05  5.096379E+04 -2.642995E+04 -4.936900E+03
       346   8 -5.285069E+05 -7.904845E+04 -7.410133E+04  3.858611E+04 -1.129346E+04 -1.539276E+04
       346   9 -4.719093E+05 -6.337197E+04 -5.731809E+04  4.424430E+04  3.850863E+03 -1.567530E+04
       346  10  1.740316E+05  8.464922E+04  7.995627E+04  3.969154E+04  9.095624E-11  4.824692E-12
       346  11  1.152934E+05  7.713226E+04  6.282890E+04  3.404047E+04  9.462164E-12  8.716260E-11
       346  12  5.636081E+04  6.382616E+04  5.029001E+04  4.642441E+04 -1.659071E-10  5.183452E-11
       346  13 -2.078202E+05 -1.004823E+04 -1.164152E+04  4.532935E+04 -3.182419E-10 -3.020991E-11
       346  14 -2.066557E+05 -9.548795E+02 -5.633586E+03  3.631382E+04  6.204874E-10  1.628037E-11
       346  15 -2.078075E+05  2.291381E+02 -3.512455E+03  4.533414E+04 -1.539097E-10  3.960726E-11
       346  16 -5.895384E+05 -1.047562E+05 -1.032496E+05  5.096369E+04 -8.836744E-11 -3.800419E-11
       346  17 -5.285071E+05 -7.904874E+04 -7.410201E+04  3.858597E+04 -1.744081E-10 -9.257308E-11
       346  18 -4.719094E+05 -6.337224E+04 -5.731858E+04  4.424435E+04  1.922058E-10  2.818198E-11
       346  19  1.740317E+05  8.464928E+04  7.995654E+04  3.969149E+04 -1.083302E+04  4.955925E+03
       346  20  1.152935E+05  7.713252E+04  6.282935E+04  3.404045E+04 -1.568482E+03  1.539732E+04
       346  21  5.636094E+04  6.382644E+04  5.029058E+04  4.642450E+04  7.689275E+03  1.567009E+04
       346  22 -2.078201E+05 -1.004819E+04 -1.164136E+04  4.532938E+04  7.804171E+03  4.946244E+03
       346  23 -2.066556E+05 -9.546187E+02 -5.633096E+03  3.631388E+04  4.864132E+03  1.539502E+04
       346  24 -2.078074E+05  2.294028E+02 -3.511987E+03  4.533417E+04  1.918001E+03  1.567269E+04
       346  25 -5.895377E+05 -1.047559E+05 -1.032483E+05  5.096379E+04  2.642995E+04  4.936900E+03
       346  26 -5.285069E+05 -7.904845E+04 -7.410133E+04  3.858611E+04  1.129346E+04  1.539276E+04
       346  27 -4.719093E+05 -6.337197E+04 -5.731809E+04  4.424430E+04 -3.850863E+03  1.567530E+04
       347   1  1.425894E+04  5.294030E+04  4.221832E+04  4.523049E+04 -4.783321E+03 -1.304605E+04
       347   2 -4.447280E+04  3.911532E+04  3.052770E+04  3.604272E+04 -4.251723E+03 -9.961226E+03
       347   3 -1.033226E+05  2.498989E+04  1.842117E+04  4.544622E+04 -3.720535E+03 -6.330836E+03
       347   4 -2.073408E+05 -4.266162E+02 -2.993847E+03  4.545656E+04 -1.408303E+03 -1.304751E+04
       347   5 -2.072202E+05 -2.047331E+01 -2.381586E+03  3.616083E+04 -2.225065E+02 -9.962606E+03
       347   6 -2.073347E+05 -2.824809E+01 -2.639693E+03  4.545668E+04  9.629274E+02 -6.332054E+03
       347   7 -4.288938E+05 -5.379660E+04 -4.820856E+04  4.568255E+04  1.965533E+03 -1.304897E+04
       347   8 -3.699424E+05 -3.915790E+04 -3.529218E+04  3.627891E+04  3.805674E+03 -9.963985E+03
       347   9 -3.113365E+05 -2.504705E+04 -2.370104E+04  4.546715E+04  5.645620E+03 -6.333272E+03
       347  10  1.425887E+04  5.294011E+04  4.221796E+04  4.523044E+04  2.016221E-10  5.703158E-11
       347  11 -4.447284E+04  3.911520E+04  3.052748E+04  3.604268E+04  2.360943E-10  5.341961E-11
       347  12 -1.033226E+05  2.498984E+04  1.842107E+04  4.544620E+04 -1.329096E-11 -2.823778E-11
       347  13 -2.073408E+05 -4.267995E+02 -2.994171E+03  4.545655E+04 -2.081985E-10  3.476842E-11
       347  14 -2.072203E+05 -2.057990E+01 -2.381773E+03  3.616083E+04  4.083378E-10  5.048132E-12
       347  15 -2.073347E+05 -2.829139E+01 -2.639770E+03  4.545669E+04  1.328706E-10 -4.132150E-11
       347  16 -4.288938E+05 -5.379679E+04 -4.820889E+04  4.568257E+04 -3.210163E-12 -8.327609E-12
       347  17 -3.699424E+05 -3.915801E+04 -3.529239E+04  3.627894E+04  2.542433E-10 -1.617234E-10
       347  18 -3.113365E+05 -2.504710E+04 -2.370117E+04  4.546717E+04  2.267467E-10 -2.725071E-11
       347  19  1.425894E+04  5.294030E+04  4.221832E+04  4.523049E+04  4.783321E+03  1.304605E+04
       347  20 -4.447280E+04  3.911532E+04  3.052770E+04  3.604272E+04  4.251723E+03  9.961226E+03
       347  21 -1.033226E+05  2.498989E+04  1.842117E+04  4.544622E+04  3.720535E+03  6.330836E+03
       347  22 -2.073408E+05 -4.266162E+02 -2.993847E+03  4.545656E+04  1.408303E+03  1.304751E+04
       347  23 -2.072202E+05 -2.047331E+01 -2.381586E+03  3.616083E+04  2.225065E+02  9.962606E+03
       347  24 -2.073347E+05 -2.824809E+01 -2.639693E+03  4.545668E+04 -9.629274E+02  6.332054E+03
       347  25 -4.288938E+05 -5.379660E+04 -4.820856E+04  4.568255E+04 -1.965533E+03  1.304897E+04
       347  26 -3.699424E+05 -3.915790E+04 -3.529218E+04  3.627891E+04 -3.805674E+03  9.963985E+03
       347  27 -3.113365E+05 -2.504705E+04 -2.370104E+04  4.546715E+04 -5.645620E+03  6.333272E+03
       348   1 -1.456668E+05  1.484571E+04  9.230827E+03  4.519536E+04 -3.163195E+03 -4.036577E+03
       348   2 -2.041459E+05  6.392734E+02 -4.170711E+03  3.624297E+04 -4.781090E+02 -3.289885E+02
       348   3 -2.632642E+05 -1.480084E+04 -1.962575E+04  4.589927E+04  2.206569E+03  3.078501E+03
       348   4 -2.074101E+05  3.753465E+01 -3.053957E+03  4.546055E+04  1.465807E+03 -4.037674E+03
       348   5 -2.071198E+05 -5.290392E+01 -4.657221E+03  3.615603E+04  3.790624E+03 -3.299981E+02
       348   6 -2.074103E+05 -1.314459E+03 -8.063835E+03  4.546024E+04  6.115283E+03  3.077586E+03
       348   7 -2.691496E+05 -1.477086E+04 -1.533885E+04  4.572572E+04  6.094357E+03 -4.038767E+03
       348   8 -2.100937E+05 -7.450719E+02 -5.143662E+03  3.606909E+04  8.059337E+03 -3.310089E+02
       348   9 -1.515534E+05  1.217174E+04  3.497967E+03  4.502117E+04  1.002434E+04  3.076665E+03
       348  10 -1.456668E+05  1.484569E+04  9.230777E+03  4.519535E+04 -1.938552E-11  2.168583E-11
       348  11 -2.041459E+05  6.392732E+02 -4.170712E+03  3.624297E+04 -1.780405E-10 -3.093622E-12
       348  12 -2.632642E+05 -1.480085E+04 -1.962578E+04  4.589926E+04 -4.941526E-11  3.335233E-12
       348  13 -2.074101E+05  3.751657E+01 -3.053991E+03  4.546056E+04  2.448074E-10  7.205220E-12
       348  14 -2.071199E+05 -5.290789E+01 -4.657248E+03  3.615603E+04  6.365255E-10  9.765308E-11
       348  15 -2.074103E+05 -1.314479E+03 -8.063923E+03  4.546022E+04 -4.082424E-11  4.096485E-12
       348  16 -2.691497E+05 -1.477089E+04 -1.533895E+04  4.572574E+04  8.797978E-11  8.142425E-11
       348  17 -2.100938E+05 -7.450894E+02 -5.143785E+03  3.606909E+04  1.410059E-10  8.879065E-11
       348  18 -1.515535E+05  1.217170E+04  3.497760E+03  4.502114E+04  1.663183E-10  3.096262E-11
       348  19 -1.456668E+05  1.484571E+04  9.230827E+03  4.519536E+04  3.163195E+03  4.036577E+03
       348  20 -2.041459E+05  6.392734E+02 -4.170711E+03  3.624297E+04  4.781090E+02  3.289885E+02
       348  21 -2.632642E+05 -1.480084E+04 -1.962575E+04  4.589927E+04 -2.206569E+03 -3.078501E+03
       348  22 -2.074101E+05  3.753465E+01 -3.053957E+03  4.546055E+04 -1.465807E+03  4.037674E+03
       348  23 -2.071198E+05 -5.290392E+01 -4.657221E+03  3.615603E+04 -3.790624E+03  3.299981E+02
       348  24 -2.074103E+05 -1.314459E+03 -8.063835E+03  4.546024E+04 -6.115283E+03 -3.077586E+03
       348  25 -2.691496E+05 -1.477086E+04 -1.533885E+04  4.572572E+04 -6.094357E+03  4.038767E+03
       348  26 -2.100937E+05 -7.450719E+02 -5.143662E+03  3.606909E+04 -8.059337E+03  3.310089E+02
       348  27 -1.515534E+05  1.217174E+04  3.497967E+03  4.502117E+04 -1.002434E+04 -3.076665E+03
       349   1 -3.072828E+05 -2.284882E+04 -3.047589E+04  4.149411E+04  2.197028E+03  5.556154E+03
       349   2 -3.616464E+05 -4.104400E+04 -5.153107E+04  4.329721E+04  1.872741E+04  6.988854E+03
       349   3 -4.249368E+05 -8.642161E+04 -9.014410E+04  6.337891E+04  3.525413E+04  2.436854E+03
       349   4 -2.089888E+05  8.611700E+02 -1.023670E+04  4.538955E+04  7.511083E+03  5.554825E+03
       349   5 -2.051534E+05 -2.995658E+03 -1.785774E+04  3.624467E+04  1.686447E+04  6.989045E+03
       349   6 -2.089978E+05 -3.278446E+04 -3.804812E+04  4.537909E+04  2.621576E+04  2.438664E+03
       349   7 -1.106855E+05  2.457063E+04  1.000209E+04  4.928562E+04  1.282596E+04  5.553563E+03
       349   8 -4.863727E+04  3.505127E+04  1.581418E+04  2.919033E+04  1.500106E+04  6.989278E+03
       349   9  6.984699E+03  2.085054E+04  1.404500E+04  2.737298E+04  1.717425E+04  2.440999E+03
       349  10 -3.072828E+05 -2.284886E+04 -3.047595E+04  4.149410E+04 -6.932269E-11 -1.151936E-12
       349  11 -3.616468E+05 -4.104415E+04 -5.153182E+04  4.329710E+04  1.177333E-10 -9.943019E-11
       349  12 -4.249381E+05 -8.642195E+04 -9.014645E+04  6.337884E+04 -1.519243E-10 -6.214370E-11
       349  13 -2.089888E+05  8.611217E+02 -1.023686E+04  4.538952E+04 -4.976251E-11 -8.169476E-11
       349  14 -2.051537E+05 -2.995786E+03 -1.785837E+04  3.624458E+04 -6.764491E-11  5.875349E-11
       349  15 -2.089986E+05 -3.278465E+04 -3.804942E+04  4.537904E+04 -5.105386E-11  1.169148E-10
       349  16 -1.106857E+05  2.457055E+04  1.000172E+04  4.928557E+04  1.019602E-10 -3.387770E-11
       349  17 -4.863753E+04  3.505115E+04  1.581367E+04  2.919025E+04  4.392924E-11 -1.037253E-10
       349  18  6.984381E+03  2.085045E+04  1.404444E+04  2.737295E+04 -5.836886E-11 -7.059410E-12
       349  19 -3.072828E+05 -2.284882E+04 -3.047589E+04  4.149411E+04 -2.197028E+03 -5.556154E+03
       349  20 -3.616464E+05 -4.104400E+04 -5.153107E+04  4.329721E+04 -1.872741E+04 -6.988854E+03
       349  21 -4.249368E+05 -8.642161E+04 -9.014410E+04  6.337891E+04 -3.525413E+04 -2.436854E+03
       349  22 -2.089888E+05  8.611700E+02 -1.023670E+04  4.538955E+04 -7.511083E+03 -5.554825E+03
       349  23 -2.051534E+05 -2.995658E+03 -1.785774E+04  3.624467E+04 -1.686447E+04 -6.989045E+03
       349  24 -2.089978E+05 -3.278446E+04 -3.804812E+04  4.537909E+04 -2.621576E+04 -2.438664E+03
       349  25 -1.106855E+05  2.457063E+04  1.000209E+04  4.928562E+04 -1.282596E+04 -5.553563E+03
       349  26 -4.863727E+04  3.505127E+04  1.581418E+04  2.919033E+04 -1.500106E+04 -6.989278E+03
       349  27  6.984699E+03  2.085054E+04  1.404500E+04  2.737298E+04 -1.717425E+04 -2.440999E+03
       350   1 -1.521834E+05 -8.259724E+05 -1.551833E+05  1.136427E+05 -5.266838E+03 -5.168015E+04
       350   2 -8.474482E+04 -6.994939E+05 -9.208429E+04  8.192023E+04 -1.507309E+04 -2.598917E+04
       350   3 -5.066236E+04 -5.847374E+05 -5.407338E+04  8.768327E+04 -1.229212E+04 -3.012648E+02
       350   4 -3.887290E+04 -3.696182E+05 -4.510459E+04  9.264080E+04 -5.249147E+03 -3.236577E+04
       350   5 -3.451200E+03 -3.650480E+05 -2.018196E+04  7.388053E+04 -1.506841E+04 -2.175686E+04
       350   6  1.245798E+03 -3.695858E+05 -9.856557E+03  9.260740E+04 -1.230244E+04 -1.115656E+04
       350   7  7.442427E+04  8.692851E+04  6.496090E+04  7.162333E+04 -5.232771E+03 -1.303722E+04
       350   8  7.783533E+04 -3.049664E+04  5.171393E+04  6.583640E+04 -1.506384E+04 -1.752230E+04
       350   9  5.315119E+04 -1.543898E+05  3.435824E+04  9.753325E+04 -1.231293E+04 -2.201555E+04
       350  10 -1.521842E+05 -8.259753E+05 -1.551884E+05  1.136425E+05 -1.056923E-10 -4.132188E-12
       350  11 -8.474525E+04 -6.994947E+05 -9.208598E+04  8.191992E+04 -5.019367E-11 -5.676756E-11
       350  12 -5.066252E+04 -5.847375E+05 -5.407366E+04  8.768327E+04 -5.845006E-10 -8.906276E-12
       350  13 -3.887321E+04 -3.696193E+05 -4.510661E+04  9.264066E+04 -3.122130E-10  6.104440E-11
       350  14 -3.451570E+03 -3.650485E+05 -2.018327E+04  7.388027E+04  8.963784E-10 -1.136221E-10
       350  15  1.245602E+03 -3.695859E+05 -9.857075E+03  9.260729E+04 -2.401898E-10 -1.276576E-11
       350  16  7.442419E+04  8.692832E+04  6.496053E+04  7.162328E+04 -3.829138E-11  1.287181E-11
       350  17  7.783501E+04 -3.049703E+04  5.171292E+04  6.583619E+04  3.173417E-10  4.189583E-11
       350  18  5.315090E+04 -1.543904E+05  3.435705E+04  9.753303E+04  1.870372E-10  5.054612E-11
       350  19 -1.521834E+05 -8.259724E+05 -1.551833E+05  1.136427E+05  5.266838E+03  5.168015E+04
       350  20 -8.474482E+04 -6.994939E+05 -9.208429E+04  8.192023E+04  1.507309E+04  2.598917E+04
       350  21 -5.066236E+04 -5.847374E+05 -5.407338E+04  8.768327E+04  1.229212E+04  3.012648E+02
       350  22 -3.887290E+04 -3.696182E+05 -4.510459E+04  9.264080E+04  5.249147E+03  3.236577E+04
       350  23 -3.451200E+03 -3.650480E+05 -2.018196E+04  7.388053E+04  1.506841E+04  2.175686E+04
       350  24  1.245798E+03 -3.695858E+05 -9.856557E+03  9.260740E+04  1.230244E+04  1.115656E+04
       350  25  7.442427E+04  8.692851E+04  6.496090E+04  7.162333E+04  5.232771E+03  1.303722E+04
       350  26  7.783533E+04 -3.049664E+04  5.171393E+04  6.583640E+04  1.506384E+04  1.752230E+04
       350  27  5.315119E+04 -1.543898E+05  3.435824E+04  9.753325E+04  1.231293E+04  2.201555E+04
       351   1 -3.237935E+04 -4.956870E+05 -3.286555E+04  9.281324E+04 -7.178269E+03 -1.950178E+03
       351   2 -1.679081E+03 -3.751043E+05 -1.353641E+03  7.384784E+04 -4.670131E+02 -2.018199E+03
       351   3  2.912558E+04 -2.545528E+05  3.020660E+04  9.300724E+04  6.264886E+03 -2.086302E+03
       351   4 -1.454746E+03 -3.675654E+05 -6.425687E+03  9.275675E+04 -7.186245E+03 -9.987696E+03
       351   5  1.386536E+02 -3.675444E+05  1.739341E+02  7.369271E+04 -4.750213E+02 -1.008056E+04
       351   6  1.841937E+03 -3.675632E+05  6.840491E+03  9.275344E+04  6.256802E+03 -1.017350E+04
       351   7  2.946886E+04 -2.394281E+05  2.001353E+04  9.270023E+04 -7.194219E+03 -1.802684E+04
       351   8  1.956419E+03 -3.599843E+05  1.701751E+03  7.353757E+04 -4.830254E+02 -1.814302E+04
       351   9 -2.544248E+04 -4.805614E+05 -1.652606E+04  9.249967E+04  6.248723E+03 -1.825925E+04
       351  10 -3.237941E+04 -4.956871E+05 -3.286566E+04  9.281323E+04 -1.396952E-10  4.163782E-10
       351  11 -1.679082E+03 -3.751043E+05 -1.353649E+03  7.384784E+04 -1.781079E-10  3.016543E-10
       351  12  2.912553E+04 -2.545528E+05  3.020652E+04  9.300725E+04  4.037359E-10  1.345147E-10
       351  13 -1.454828E+03 -3.675655E+05 -6.425972E+03  9.275669E+04 -9.324803E-11 -1.675225E-11
       351  14  1.386261E+02 -3.675445E+05  1.737426E+02  7.369270E+04 -6.731659E-10  1.166138E-10
       351  15  1.841868E+03 -3.675633E+05  6.840222E+03  9.275349E+04 -4.745662E-10  7.220065E-11
       351  16  2.946871E+04 -2.394284E+05  2.001283E+04  9.270013E+04 -1.365668E-11 -4.167629E-10
       351  17  1.956331E+03 -3.599846E+05  1.701132E+03  7.353757E+04  5.113983E-10 -2.802458E-10
       351  18 -2.544261E+04 -4.805617E+05 -1.652676E+04  9.249976E+04  4.075250E-10 -2.023279E-10
       351  19 -3.237935E+04 -4.956870E+05 -3.286555E+04  9.281324E+04  7.178269E+03  1.950178E+03
       351  20 -1.679081E+03 -3.751043E+05 -1.353641E+03  7.384784E+04  4.670131E+02  2.018199E+03
       351  21  2.912558E+04 -2.545528E+05  3.020660E+04  9.300724E+04 -6.264886E+03  2.086302E+03
       351  22 -1.454746E+03 -3.675654E+05 -6.425687E+03  9.275675E+04  7.186245E+03  9.987696E+03
       351  23  1.386536E+02 -3.675444E+05  1.739341E+02  7.369271E+04  4.750213E+02  1.008056E+04
       351  24  1.841937E+03 -3.675632E+05  6.840491E+03  9.275344E+04 -6.256802E+03  1.017350E+04
       351  25  2.946886E+04 -2.394281E+05  2.001353E+04  9.270023E+04  7.194219E+03  1.802684E+04
       351  26  1.956419E+03 -3.599843E+05  1.701751E+03  7.353757E+04  4.830254E+02  1.814302E+04
       351  27 -2.544248E+04 -4.805614E+05 -1.652606E+04  9.249967E+04 -6.248723E+03  1.825925E+04
       352   1  4.728837E+04 -1.654073E+05  5.148535E+04  8.783202E+04  1.136785E+04 -6.160048E+02
       352   2  8.143649E+04 -5.074614E+04  8.963823E+04  8.260513E+04  1.425657E+04 -2.623921E+04
       352   3  1.500390E+05  7.582724E+04  1.530750E+05  1.148620E+05  4.949218E+03 -5.185865E+04
       352   4 -9.563274E+02 -3.654796E+05  1.033690E+04  9.261866E+04  1.135747E+04 -1.142488E+04
       352   5  3.775187E+03 -3.701706E+05  2.091804E+04  7.386003E+04  1.426089E+04 -2.240939E+04
       352   6  4.043013E+04 -3.654957E+05  4.662229E+04  9.258379E+04  4.966525E+03 -3.338507E+04
       352   7 -4.920339E+04 -5.655136E+05 -3.081324E+04  9.740371E+04  1.134691E+04 -2.223033E+04
       352   8 -7.389253E+04 -6.894989E+05 -4.780805E+04  6.511947E+04  1.426511E+04 -1.858150E+04
       352   9 -6.919096E+04 -8.066387E+05 -5.984278E+04  7.032141E+04  4.982513E+03 -1.492456E+04
       352  10  4.728823E+04 -1.654074E+05  5.148511E+04  8.783202E+04 -9.453774E-12 -1.654285E-10
       352  11  8.143608E+04 -5.074693E+04  8.963655E+04  8.260543E+04 -1.664461E-10 -1.183492E-10
       352  12  1.500383E+05  7.582434E+04  1.530699E+05  1.148622E+05  1.516117E-10  1.248797E-11
       352  13 -9.565010E+02 -3.654798E+05  1.033641E+04  9.261876E+04  6.746084E-10 -7.647691E-11
       352  14  3.774834E+03 -3.701712E+05  2.091671E+04  7.386029E+04 -3.918269E-10  5.107176E-11
       352  15  4.042981E+04 -3.654969E+05  4.662015E+04  9.258392E+04  1.425689E-10 -2.967084E-11
       352  16 -4.920366E+04 -5.655141E+05 -3.081441E+04  9.740392E+04 -5.563551E-11  2.389257E-10
       352  17 -7.389284E+04 -6.894994E+05 -4.780908E+04  6.511968E+04 -2.097018E-10  2.029013E-10
       352  18 -6.919104E+04 -8.066390E+05 -5.984324E+04  7.032147E+04  1.840946E-10 -5.268945E-11
       352  19  4.728837E+04 -1.654073E+05  5.148535E+04  8.783202E+04 -1.136785E+04  6.160048E+02
       352  20  8.143649E+04 -5.074614E+04  8.963823E+04  8.260513E+04 -1.425657E+04  2.623921E+04
       352  21  1.500390E+05  7.582724E+04  1.530750E+05  1.148620E+05 -4.949218E+03  5.185865E+04
       352  22 -9.563274E+02 -3.654796E+05  1.033690E+04  9.261866E+04 -1.135747E+04  1.142488E+04
       352  23  3.775187E+03 -3.701706E+05  2.091804E+04  7.386003E+04 -1.426089E+04  2.240939E+04
       352  24  4.043013E+04 -3.654957E+05  4.662229E+04  9.258379E+04 -4.966525E+03  3.338507E+04
       352  25 -4.920339E+04 -5.655136E+05 -3.081324E+04  9.740371E+04 -1.134691E+04  2.223033E+04
       352  26 -7.389253E+04 -6.894989E+05 -4.780805E+04  6.511947E+04 -1.426511E+04  1.858150E+04
       352  27 -6.919096E+04 -8.066387E+05 -5.984278E+04  7.032141E+04 -4.982513E+03  1.492456E+04
       353   1  2.230857E+05  2.336625E+05  1.107865E+05  1.326130E+05  4.722294E+04  3.234418E+04
       353   2  2.102438E+05  1.680342E+05  6.638540E+04  1.450186E+05  3.250358E+04  1.448994E+04
       353   3  2.208846E+05  1.422991E+05  4.870789E+04  1.424575E+05  1.511309E+04  2.035934E+02
       353   4  1.289375E+05  1.128701E+05  6.962944E+04  6.119110E+04  3.982820E+04  2.680117E+04
       353   5  1.065979E+05  7.367508E+04  3.271266E+04  8.344425E+04  2.939232E+04  1.215812E+04
       353   6  1.068163E+05  7.344729E+04  1.880684E+04  9.072931E+04  1.628518E+04  1.081678E+03
       353   7  3.480150E+04 -7.900079E+03  2.847175E+04 -1.021401E+04  3.243501E+04  2.126053E+04
       353   8  2.964779E+03 -2.067212E+04 -9.611093E+02  2.188340E+04  2.628177E+04  9.827045E+03
       353   9 -7.237347E+03  4.600620E+03 -1.109528E+04  3.901118E+04  1.745698E+04  1.959584E+03
       353  10  2.230830E+05  2.336608E+05  1.107804E+05  1.326118E+05  1.560483E-10  2.787478E-11
       353  11  2.102426E+05  1.680337E+05  6.638302E+04  1.450182E+05  1.985971E-10 -5.502520E-11
       353  12  2.208844E+05  1.422990E+05  4.870746E+04  1.424575E+05  3.650215E-10 -1.366724E-10
       353  13  1.289356E+05  1.128689E+05  6.962511E+04  6.119024E+04 -1.800318E-10 -4.626614E-11
       353  14  1.065970E+05  7.367469E+04  3.271075E+04  8.344396E+04  2.445291E-10 -8.422108E-11
       353  15  1.068160E+05  7.344721E+04  1.880634E+04  9.072930E+04  2.073573E-10 -1.369235E-10
       353  16  3.480025E+04 -7.900847E+03  2.846892E+04 -1.021457E+04 -7.203043E-11 -6.290526E-11
       353  17  2.964012E+03 -2.067241E+04 -9.625887E+02  2.188319E+04  3.354974E-11 -1.282608E-10
       353  18 -7.237675E+03  4.600534E+03 -1.109586E+04  3.901116E+04 -7.355454E-11 -1.750878E-10
       353  19  2.230857E+05  2.336625E+05  1.107865E+05  1.326130E+05 -4.722294E+04 -3.234418E+04
       353  20  2.102438E+05  1.680342E+05  6.638540E+04  1.450186E+05 -3.250358E+04 -1.448994E+04
       353  21  2.208846E+05  1.422991E+05  4.870789E+04  1.424575E+05 -1.511309E+04 -2.035934E+02
       353  22  1.289375E+05  1.128701E+05  6.962944E+04  6.119110E+04 -3.982820E+04 -2.680117E+04
       353  23  1.065979E+05  7.367508E+04  3.271266E+04  8.344425E+04 -2.939232E+04 -1.215812E+04
       353  24  1.068163E+05  7.344729E+04  1.880684E+04  9.072931E+04 -1.628518E+04 -1.081678E+03
       353  25  3.480150E+04 -7.900079E+03  2.847175E+04 -1.021401E+04 -3.243501E+04 -2.126053E+04
       353  26  2.964779E+03 -2.067212E+04 -9.611093E+02  2.188340E+04 -2.628177E+04 -9.827045E+03
       353  27 -7.237347E+03  4.600620E+03 -1.109528E+04  3.901118E+04 -1.745698E+04 -1.959584E+03
       354   1  2.062356E+05  1.468658E+05  4.299790E+04  1.381119E+05  1.351768E+04 -1.991763E+02
       354   2  1.985003E+05  1.363678E+05  3.411576E+04  1.337521E+05  9.526902E+03 -2.604570E+03
       354   3  1.885341E+05  1.313974E+05  2.878966E+04  1.300028E+05  5.388422E+03 -4.812877E+03
       354   4  1.063501E+05  7.501003E+04  1.485633E+04  8.744529E+04  1.384765E+04  4.784762E+01
       354   5  1.070409E+05  7.146982E+04  8.699175E+03  8.774124E+04  1.009413E+04 -2.179717E+03
       354   6  1.054498E+05  7.340582E+04  5.892778E+03  8.864774E+04  6.192877E+03 -4.210207E+03
       354   7  6.474530E+03  3.159335E+03 -1.328669E+04  3.678741E+04  1.417755E+04  2.948195E+02
       354   8  1.559085E+04  6.576665E+03 -1.671822E+04  4.173818E+04  1.066125E+04 -1.754950E+03
       354   9  2.237417E+04  1.541882E+04 -1.700440E+04  4.729943E+04  6.997178E+03 -3.607651E+03
       354  10  2.062354E+05  1.468657E+05  4.299756E+04  1.381119E+05  9.371934E-12 -1.883088E-10
       354  11  1.985002E+05  1.363678E+05  3.411557E+04  1.337521E+05  3.598972E-10 -1.625565E-10
       354  12  1.885341E+05  1.313974E+05  2.878956E+04  1.300029E+05 -2.788483E-10 -5.097090E-11
       354  13  1.063499E+05  7.500998E+04  1.485597E+04  8.744529E+04  1.168617E-10 -1.652740E-10
       354  14  1.070408E+05  7.146978E+04  8.698974E+03  8.774126E+04 -3.853993E-10 -1.520208E-10
       354  15  1.054497E+05  7.340580E+04  5.892672E+03  8.864776E+04  4.772471E-11 -5.705040E-13
       354  16  6.474314E+03  3.159281E+03 -1.328707E+04  3.678741E+04  5.262783E-11 -1.578127E-10
       354  17  1.559073E+04  6.576632E+03 -1.671844E+04  4.173819E+04  5.076871E-10 -8.237019E-11
       354  18  2.237411E+04  1.541879E+04 -1.700452E+04  4.729945E+04  4.778137E-10  9.872763E-11
       354  19  2.062356E+05  1.468658E+05  4.299790E+04  1.381119E+05 -1.351768E+04  1.991763E+02
       354  20  1.985003E+05  1.363678E+05  3.411576E+04  1.337521E+05 -9.526902E+03  2.604570E+03
       354  21  1.885341E+05  1.313974E+05  2.878966E+04  1.300028E+05 -5.388422E+03  4.812877E+03
       354  22  1.063501E+05  7.501003E+04  1.485633E+04  8.744529E+04 -1.384765E+04 -4.784762E+01
       354  23  1.070409E+05  7.146982E+04  8.699175E+03  8.774124E+04 -1.009413E+04  2.179717E+03
       354  24  1.054498E+05  7.340582E+04  5.892778E+03  8.864774E+04 -6.192877E+03  4.210207E+03
       354  25  6.474530E+03  3.159335E+03 -1.328669E+04  3.678741E+04 -1.417755E+04 -2.948195E+02
       354  26  1.559085E+04  6.576665E+03 -1.671822E+04  4.173818E+04 -1.066125E+04  1.754950E+03
       354  27  2.237417E+04  1.541882E+04 -1.700440E+04  4.729943E+04 -6.997178E+03  3.607651E+03
       355   1  1.816563E+05  1.272738E+05  2.629656E+04  1.267377E+05  4.353916E+03 -4.984478E+03
       355   2  1.743294E+05  1.190203E+05  2.365932E+04  1.216758E+05  1.859642E+03 -5.859544E+03
       355   3  1.636003E+05  1.148156E+05  2.272654E+04  1.177773E+05 -6.430051E+02 -6.723521E+03
       355   4  1.054061E+05  7.345418E+04  5.238005E+03  8.849688E+04  5.111295E+03 -4.417049E+03
       355   5  1.071156E+05  7.144311E+04  5.059119E+03  8.790656E+04  2.630633E+03 -5.281862E+03
       355   6  1.054199E+05  7.347811E+04  6.573048E+03  8.847961E+04  1.415453E+02 -6.135619E+03
       355   7  2.916226E+04  1.963785E+04 -1.582112E+04  5.026141E+04  5.868549E+03 -3.849714E+03
       355   8  3.990642E+04  2.386822E+04 -1.354167E+04  5.414126E+04  3.401518E+03 -4.704260E+03
       355   9  4.724251E+04  3.214206E+04 -9.581036E+03  5.918467E+04  9.260067E+02 -5.547784E+03
       355  10  1.816563E+05  1.272738E+05  2.629647E+04  1.267377E+05  2.430158E-11  2.291689E-10
       355  11  1.743294E+05  1.190202E+05  2.365925E+04  1.216758E+05 -1.783633E-10  1.301117E-11
       355  12  1.636003E+05  1.148155E+05  2.272646E+04  1.177773E+05 -4.157560E-10 -1.253999E-11
       355  13  1.054060E+05  7.345415E+04  5.237919E+03  8.849690E+04  8.342653E-11  1.538209E-11
       355  14  1.071156E+05  7.144307E+04  5.059054E+03  8.790657E+04  4.257831E-10  1.383549E-10
       355  15  1.054199E+05  7.347807E+04  6.572977E+03  8.847961E+04  2.902249E-10  9.422932E-11
       355  16  2.916222E+04  1.963782E+04 -1.582121E+04  5.026143E+04 -1.771412E-10 -8.957955E-11
       355  17  3.990640E+04  2.386819E+04 -1.354174E+04  5.414127E+04  5.898934E-10  1.030529E-10
       355  18  4.724250E+04  3.214203E+04 -9.581096E+03  5.918467E+04  2.603018E-10  1.577530E-10
       355  19  1.816563E+05  1.272738E+05  2.629656E+04  1.267377E+05 -4.353916E+03  4.984478E+03
       355  20  1.743294E+05  1.190203E+05  2.365932E+04  1.216758E+05 -1.859642E+03  5.859544E+03
       355  21  1.636003E+05  1.148156E+05  2.272654E+04  1.177773E+05  6.430051E+02  6.723521E+03
       355  22  1.054061E+05  7.345418E+04  5.238005E+03  8.849688E+04 -5.111295E+03  4.417049E+03
       355  23  1.071156E+05  7.144311E+04  5.059119E+03  8.790656E+04 -2.630633E+03  5.281862E+03
       355  24  1.054199E+05  7.347811E+04  6.573048E+03  8.847961E+04 -1.415453E+02  6.135619E+03
       355  25  2.916226E+04  1.963785E+04 -1.582112E+04  5.026141E+04 -5.868549E+03  3.849714E+03
       355  26  3.990642E+04  2.386822E+04 -1.354167E+04  5.414126E+04 -3.401518E+03  4.704260E+03
       355  27  4.724251E+04  3.214206E+04 -9.581036E+03  5.918467E+04 -9.260067E+02  5.547784E+03
       356   1  1.566818E+05  1.107785E+05  2.231807E+04  1.149878E+05 -1.955271E+03 -7.115092E+03
       356   2  1.501271E+05  1.015597E+05  2.483364E+04  1.091221E+05 -7.633658E+03 -1.034906E+04
       356   3  1.420827E+05  9.879194E+04  3.239282E+04  1.035707E+05 -1.331961E+04 -1.357269E+04
       356   4  1.055082E+05  7.341252E+04  8.004452E+03  8.873991E+04 -1.175841E+03 -6.530995E+03
       356   5  1.069607E+05  7.144574E+04  1.295791E+04  8.764051E+04 -6.841537E+03 -9.755433E+03
       356   6  1.069206E+05  7.592719E+04  2.294414E+04  8.685528E+04 -1.251491E+04 -1.296965E+04
       356   7  5.433816E+04  3.604870E+04 -6.309190E+03  6.249490E+04 -3.965087E+02 -5.946972E+03
       356   8  6.379666E+04  4.133304E+04  1.082108E+03  6.616079E+04 -6.049495E+03 -9.161868E+03
       356   9  7.175994E+04  5.306303E+04  1.349536E+04  7.014085E+04 -1.171028E+04 -1.236665E+04
       356  10  1.566818E+05  1.107784E+05  2.231797E+04  1.149877E+05  9.028138E-11  1.515817E-10
       356  11  1.501270E+05  1.015596E+05  2.483332E+04  1.091220E+05 -2.400883E-10 -4.551439E-11
       356  12  1.420825E+05  9.879170E+04  3.239214E+04  1.035706E+05  1.140126E-10 -7.150986E-11
       356  13  1.055082E+05  7.341248E+04  8.004369E+03  8.873990E+04 -2.681605E-10  1.639312E-10
       356  14  1.069606E+05  7.144563E+04  1.295764E+04  8.764046E+04 -2.348686E-10 -1.865651E-10
       356  15  1.069204E+05  7.592697E+04  2.294353E+04  8.685515E+04 -3.439378E-11 -5.241639E-11
       356  16  5.433815E+04  3.604866E+04 -6.309257E+03  6.249490E+04 -1.095116E-11 -1.772449E-11
       356  17  6.379659E+04  4.133294E+04  1.081882E+03  6.616074E+04  6.930080E-11 -8.637991E-11
       356  18  7.175976E+04  5.306283E+04  1.349481E+04  7.014074E+04  1.370858E-10 -1.923455E-10
       356  19  1.566818E+05  1.107785E+05  2.231807E+04  1.149878E+05  1.955271E+03  7.115092E+03
       356  20  1.501271E+05  1.015597E+05  2.483364E+04  1.091221E+05  7.633658E+03  1.034906E+04
       356  21  1.420827E+05  9.879194E+04  3.239282E+04  1.035707E+05  1.331961E+04  1.357269E+04
       356  22  1.055082E+05  7.341252E+04  8.004452E+03  8.873991E+04  1.175841E+03  6.530995E+03
       356  23  1.069607E+05  7.144574E+04  1.295791E+04  8.764051E+04  6.841537E+03  9.755433E+03
       356  24  1.069206E+05  7.592719E+04  2.294414E+04  8.685528E+04  1.251491E+04  1.296965E+04
       356  25  5.433816E+04  3.604870E+04 -6.309190E+03  6.249490E+04  3.965087E+02  5.946972E+03
       356  26  6.379666E+04  4.133304E+04  1.082108E+03  6.616079E+04  6.049495E+03  9.161868E+03
       356  27  7.175994E+04  5.306303E+04  1.349536E+04  7.014085E+04  1.171028E+04  1.236665E+04
       357   1  1.243427E+05  1.038561E+05  3.686160E+04  1.090452E+05 -1.673738E+04 -1.555353E+04
       357   2  1.443495E+05  6.861361E+04  5.648913E+04  8.454096E+04 -3.897929E+04 -3.109038E+04
       357   3  2.016174E+05  9.283482E+04  1.124076E+05  3.599308E+04 -6.135744E+04 -4.644490E+04
       357   4  1.075791E+05  7.355727E+04  2.925655E+04  9.204164E+04 -1.597581E+04 -1.498224E+04
       357   5  1.063586E+05  7.480133E+04  5.125607E+04  8.086231E+04 -3.799989E+04 -3.035834E+04
       357   6  1.423497E+05  1.354605E+05  1.093586E+05  4.563958E+04 -6.015879E+04 -4.555449E+04
       357   7  9.081592E+04  4.325963E+04  2.165140E+04  7.503866E+04 -1.521426E+04 -1.441100E+04
       357   8  6.836980E+04  8.098975E+04  4.602317E+04  7.718343E+04 -3.702057E+04 -2.962626E+04
       357   9  8.309046E+04  1.780935E+05  1.063110E+05  5.528378E+04 -5.896033E+04 -4.466389E+04
       357  10  1.243423E+05  1.038558E+05  3.686062E+04  1.090450E+05 -4.572278E-11 -1.204624E-10
       357  11  1.443476E+05  6.861216E+04  5.648446E+04  8.453998E+04 -1.669621E-10 -8.410004E-11
       357  12  2.016128E+05  9.283150E+04  1.123965E+05  3.599078E+04 -9.844726E-12 -1.095291E-10
       357  13  1.075788E+05  7.355696E+04  2.925565E+04  9.204145E+04 -1.879602E-10 -1.557994E-10
       357  14  1.063568E+05  7.479995E+04  5.125162E+04  8.086139E+04 -1.572362E-10 -3.090674E-10
       357  15  1.423452E+05  1.354573E+05  1.093479E+05  4.563738E+04  1.002313E-10 -1.726920E-10
       357  16  9.081562E+04  4.325935E+04  2.165057E+04  7.503848E+04  2.031029E-10 -5.824816E-11
       357  17  6.836809E+04  8.098844E+04  4.601894E+04  7.718254E+04  3.573576E-10 -1.090140E-11
       357  18  8.308620E+04  1.780904E+05  1.063007E+05  5.528166E+04  3.979092E-10  1.234294E-10
       357  19  1.243427E+05  1.038561E+05  3.686160E+04  1.090452E+05  1.673738E+04  1.555353E+04
       357  20  1.443495E+05  6.861361E+04  5.648913E+04  8.454096E+04  3.897929E+04  3.109038E+04
       357  21  2.016174E+05  9.283482E+04  1.124076E+05  3.599308E+04  6.135744E+04  4.644490E+04
       357  22  1.075791E+05  7.355727E+04  2.925655E+04  9.204164E+04  1.597581E+04  1.498224E+04
       357  23  1.063586E+05  7.480133E+04  5.125607E+04  8.086231E+04  3.799989E+04  3.035834E+04
       357  24  1.423497E+05  1.354605E+05  1.093586E+05  4.563958E+04  6.015879E+04  4.555449E+04
       357  25  9.081592E+04  4.325963E+04  2.165140E+04  7.503866E+04  1.521426E+04  1.441100E+04
       357  26  6.836980E+04  8.098975E+04  4.602317E+04  7.718343E+04  3.702057E+04  2.962626E+04
       357  27  8.309046E+04  1.780935E+05  1.063110E+05  5.528378E+04  5.896033E+04  4.466389E+04
       358   1  2.250794E+05  7.572304E+04  6.650448E+04  3.959565E+04 -6.414858E+03 -5.679766E+03
       358   2  1.514228E+05  8.624778E+04  5.921517E+04  3.954509E+04 -1.066191E+04 -1.748423E+04
       358   3  7.207667E+04  7.159223E+04  4.840236E+04  6.301178E+04 -1.490428E+04 -1.732776E+04
       358   4 -2.214251E+05 -3.502917E+04 -4.068436E+04  5.888302E+04 -2.775070E+04 -5.674250E+03
       358   5 -2.173184E+05 -3.211363E+03 -1.931239E+04  4.712735E+04 -1.764547E+04 -1.748377E+04
       358   6 -2.214039E+05  9.256422E+02 -1.143512E+04  5.889090E+04 -7.535884E+03 -1.732899E+04
       358   7 -6.677453E+05 -1.457942E+05 -1.478854E+05  7.815647E+04 -4.907127E+04 -5.670058E+03
       358   8 -5.859313E+05 -9.267912E+04 -9.784756E+04  5.470504E+04 -2.462494E+04 -1.748348E+04
       358   9 -5.148025E+05 -6.974623E+04 -7.127691E+04  5.477201E+04 -1.709047E+02 -1.733032E+04
       358  10  2.250793E+05  7.572300E+04  6.650434E+04  3.959562E+04 -1.881820E-10  3.124971E-11
       358  11  1.514226E+05  8.624742E+04  5.921438E+04  3.954494E+04 -6.402706E-11  3.517178E-12
       358  12  7.207635E+04  7.159184E+04  4.840137E+04  6.301157E+04 -1.494149E-10  1.662170E-10
       358  13 -2.214260E+05 -3.502941E+04 -4.068586E+04  5.888289E+04 -3.157960E-10  9.210520E-11
       358  14 -2.173188E+05 -3.211774E+03 -1.931355E+04  4.712710E+04  2.975522E-11  1.392971E-10
       358  15 -2.214041E+05  9.253045E+02 -1.143579E+04  5.889080E+04 -1.392160E-10  1.537785E-10
       358  16 -6.677479E+05 -1.457949E+05 -1.478900E+05  7.815625E+04  8.144904E-11  4.782069E-11
       358  17 -5.859320E+05 -9.267961E+04 -9.784927E+04  5.470470E+04  3.249607E-11  8.266657E-11
       358  18 -5.148026E+05 -6.974656E+04 -7.127747E+04  5.477201E+04  8.433975E-11  1.936759E-10
       358  19  2.250794E+05  7.572304E+04  6.650448E+04  3.959565E+04  6.414858E+03  5.679766E+03
       358  20  1.514228E+05  8.624778E+04  5.921517E+04  3.954509E+04  1.066191E+04  1.748423E+04
       358  21  7.207667E+04  7.159223E+04  4.840236E+04  6.301178E+04  1.490428E+04  1.732776E+04
       358  22 -2.214251E+05 -3.502917E+04 -4.068436E+04  5.888302E+04  2.775070E+04  5.674250E+03
       358  23 -2.173184E+05 -3.211363E+03 -1.931239E+04  4.712735E+04  1.764547E+04  1.748377E+04
       358  24 -2.214039E+05  9.256422E+02 -1.143512E+04  5.889090E+04  7.535884E+03  1.732899E+04
       358  25 -6.677453E+05 -1.457942E+05 -1.478854E+05  7.815647E+04  4.907127E+04  5.670058E+03
       358  26 -5.859313E+05 -9.267912E+04 -9.784756E+04  5.470504E+04  2.462494E+04  1.748348E+04
       358  27 -5.148025E+05 -6.974623E+04 -7.127691E+04  5.477201E+04  1.709047E+02  1.733032E+04
       359   1  1.842949E+04  5.597785E+04  3.934158E+04  5.851535E+04 -1.048883E+04 -1.395938E+04
       359   2 -5.772736E+04  3.885541E+04  2.651102E+04  4.677896E+04 -8.155362E+03 -9.850929E+03
       359   3 -1.344609E+05  2.056089E+04  1.187140E+04  5.921951E+04 -5.822847E+03 -5.106999E+03
       359   4 -2.197370E+05 -1.388798E+03 -9.300447E+03  5.903522E+04 -5.938340E+03 -1.396005E+04
       359   5 -2.193750E+05 -2.329748E+01 -6.210987E+03  4.694654E+04 -2.843611E+03 -9.851250E+03
       359   6 -2.197290E+05  3.764605E+01 -5.460189E+03  5.903525E+04  2.504274E+02 -5.106875E+03
       359   7 -4.578495E+05 -5.875899E+04 -5.794540E+04  5.955488E+04 -1.389561E+03 -1.396071E+04
       359   8 -3.809976E+05 -3.890362E+04 -3.893424E+04  4.711408E+04  2.466782E+03 -9.851568E+03
       359   9 -3.049900E+05 -2.048603E+04 -2.279202E+04  5.885102E+04  6.322883E+03 -5.106755E+03
       359  10  1.842932E+04  5.597761E+04  3.934101E+04  5.851523E+04  8.435351E-11  8.388507E-11
       359  11 -5.772746E+04  3.885529E+04  2.651071E+04  4.677889E+04 -3.092099E-10 -1.572124E-10
       359  12 -1.344610E+05  2.056085E+04  1.187129E+04  5.921949E+04 -3.795942E-10 -7.260677E-12
       359  13 -2.197371E+05 -1.389017E+03 -9.300879E+03  5.903515E+04 -8.546273E-11 -1.883778E-11
       359  14 -2.193750E+05 -2.340385E+01 -6.211185E+03  4.694652E+04 -9.315330E-11 -1.831341E-10
       359  15 -2.197290E+05  3.761803E+01 -5.460238E+03  5.903525E+04 -1.261638E-10 -7.463373E-11
       359  16 -4.578496E+05 -5.875920E+04 -5.794577E+04  5.955487E+04 -8.274700E-11  1.953344E-10
       359  17 -3.809976E+05 -3.890372E+04 -3.893443E+04  4.711410E+04 -8.277528E-11 -6.313634E-12
       359  18 -3.049900E+05 -2.048607E+04 -2.279214E+04  5.885104E+04  1.891974E-10 -3.197348E-12
       359  19  1.842949E+04  5.597785E+04  3.934158E+04  5.851535E+04  1.048883E+04  1.395938E+04
       359  20 -5.772736E+04  3.885541E+04  2.651102E+04  4.677896E+04  8.155362E+03  9.850929E+03
       359  21 -1.344609E+05  2.056089E+04  1.187140E+04  5.921951E+04  5.822847E+03  5.106999E+03
       359  22 -2.197370E+05 -1.388798E+03 -9.300447E+03  5.903522E+04  5.938340E+03  1.396005E+04
       359  23 -2.193750E+05 -2.329748E+01 -6.210987E+03  4.694654E+04  2.843611E+03  9.851250E+03
       359  24 -2.197290E+05  3.764605E+01 -5.460189E+03  5.903525E+04 -2.504274E+02  5.106875E+03
       359  25 -4.578495E+05 -5.875899E+04 -5.794540E+04  5.955488E+04  1.389561E+03  1.396071E+04
       359  26 -3.809976E+05 -3.890362E+04 -3.893424E+04  4.711408E+04 -2.466782E+03  9.851568E+03
       359  27 -3.049900E+05 -2.048603E+04 -2.279202E+04  5.885102E+04 -6.322883E+03  5.106755E+03
       360   1 -1.894669E+05  7.325216E+03  2.064457E+02  5.870544E+04 -4.798905E+03 -2.123593E+03
       360   2 -2.654017E+05 -1.114811E+04 -1.703753E+04  4.710923E+04 -4.516009E+02  2.675002E+03
       360   3 -3.423586E+05 -3.148615E+04 -3.757840E+04  5.970366E+04  3.895396E+03  7.009313E+03
       360   4 -2.197751E+05  7.823216E+01 -5.713490E+03  5.903818E+04  1.236217E+03 -2.123376E+03
       360   5 -2.193116E+05 -4.041028E+01 -7.601612E+03  4.694291E+04  5.026492E+03  2.675075E+03
       360   6 -2.197778E+05 -1.926262E+03 -1.239900E+04  5.903821E+04  8.816968E+03  7.009271E+03
       360   7 -2.500823E+05 -7.168787E+03 -1.163333E+04  5.937090E+04  7.271052E+03 -2.123153E+03
       360   8 -1.732195E+05  1.106717E+04  1.834302E+03  4.677658E+04  1.050499E+04  2.675146E+03
       360   9 -9.718262E+04  2.763270E+04  1.277969E+04  5.837263E+04  1.373949E+04  7.009218E+03
       360  10 -1.894669E+05  7.325205E+03  2.063940E+02  5.870543E+04  5.859241E-11  5.510405E-11
       360  11 -2.654017E+05 -1.114812E+04 -1.703754E+04  4.710923E+04 -5.029940E-11  9.929143E-11
       360  12 -3.423586E+05 -3.148621E+04 -3.757853E+04  5.970363E+04  1.840096E-10 -1.077345E-11
       360  13 -2.197751E+05  7.822691E+01 -5.713502E+03  5.903818E+04 -1.890243E-11  9.619111E-11
       360  14 -2.193117E+05 -4.042475E+01 -7.601673E+03  4.694290E+04 -3.644186E-11  1.061833E-10
       360  15 -2.197779E+05 -1.926335E+03 -1.239924E+04  5.903816E+04 -2.427522E-11 -1.531103E-10
       360  16 -2.500823E+05 -7.168806E+03 -1.163344E+04  5.937091E+04  2.781377E-11 -1.321997E-10
       360  17 -1.732197E+05  1.106714E+04  1.834082E+03  4.677655E+04 -1.864911E-11 -1.728279E-10
       360  18 -9.718283E+04  2.763259E+04  1.277924E+04  5.837255E+04  1.126682E-11 -3.703199E-11
       360  19 -1.894669E+05  7.325216E+03  2.064457E+02  5.870544E+04  4.798905E+03  2.123593E+03
       360  20 -2.654017E+05 -1.114811E+04 -1.703753E+04  4.710923E+04  4.516009E+02 -2.675002E+03
       360  21 -3.423586E+05 -3.148615E+04 -3.757840E+04  5.970366E+04 -3.895396E+03 -7.009313E+03
       360  22 -2.197751E+05  7.823216E+01 -5.713490E+03  5.903818E+04 -1.236217E+03  2.123376E+03
       360  23 -2.193116E+05 -4.041028E+01 -7.601612E+03  4.694291E+04 -5.026492E+03 -2.675075E+03
       360  24 -2.197778E+05 -1.926262E+03 -1.239900E+04  5.903821E+04 -8.816968E+03 -7.009271E+03
       360  25 -2.500823E+05 -7.168787E+03 -1.163333E+04  5.937090E+04 -7.271052E+03  2.123153E+03
       360  26 -1.732195E+05  1.106717E+04  1.834302E+03  4.677658E+04 -1.050499E+04 -2.675146E+03
       360  27 -9.718262E+04  2.763270E+04  1.277969E+04  5.837263E+04 -1.373949E+04 -7.009218E+03
       361   1 -3.999158E+05 -4.153962E+04 -5.198127E+04  5.310819E+04  3.908183E+03  1.027561E+04
       361   2 -4.697214E+05 -6.599348E+04 -8.105664E+04  5.758594E+04  2.877727E+04  1.162625E+04
       361   3 -5.528894E+05 -1.310384E+05 -1.364746E+05  8.575767E+04  5.364112E+04  3.931665E+03
       361   4 -2.221245E+05  1.318050E+03 -1.554517E+04  5.892975E+04  1.095595E+04  1.027536E+04
       361   5 -2.163942E+05 -4.451031E+03 -2.678291E+04  4.707913E+04  2.498079E+04  1.162572E+04
       361   6 -2.221418E+05 -4.891882E+04 -5.682351E+04  5.892417E+04  3.900374E+04  3.931214E+03
       361   7 -4.430304E+04  4.417388E+04  2.088946E+04  6.475300E+04  1.800570E+04  1.027524E+04
       361   8  3.699372E+04  5.708764E+04  2.748721E+04  3.656797E+04  2.118278E+04  1.162531E+04
       361   9  1.087080E+05  3.319565E+04  2.282097E+04  3.207630E+04  2.435859E+04  3.932031E+03
       361  10 -3.999159E+05 -4.153973E+04 -5.198150E+04  5.310816E+04 -1.830502E-10 -1.180218E-10
       361  11 -4.697223E+05 -6.599385E+04 -8.105846E+04  5.758567E+04 -1.644398E-10 -2.904182E-11
       361  12 -5.528925E+05 -1.310392E+05 -1.364800E+05  8.575750E+04 -1.903241E-10 -1.060323E-11
       361  13 -2.221247E+05  1.317904E+03 -1.554559E+04  5.892966E+04 -5.895528E-11  5.754187E-11
       361  14 -2.163949E+05 -4.451344E+03 -2.678434E+04  4.707890E+04  2.503136E-11 -1.491285E-10
       361  15 -2.221434E+05 -4.891924E+04 -5.682640E+04  5.892404E+04 -1.871946E-10  3.963823E-11
       361  16 -4.430341E+04  4.417368E+04  2.088865E+04  6.475285E+04  4.734194E-11  4.972131E-11
       361  17  3.699320E+04  5.708738E+04  2.748611E+04  3.656777E+04  2.242997E-10  7.212805E-11
       361  18  1.087074E+05  3.319547E+04  2.281982E+04  3.207623E+04  5.397528E-11  6.476065E-12
       361  19 -3.999158E+05 -4.153962E+04 -5.198127E+04  5.310819E+04 -3.908183E+03 -1.027561E+04
       361  20 -4.697214E+05 -6.599348E+04 -8.105664E+04  5.758594E+04 -2.877727E+04 -1.162625E+04
       361  21 -5.528894E+05 -1.310384E+05 -1.364746E+05  8.575767E+04 -5.364112E+04 -3.931665E+03
       361  22 -2.221245E+05  1.318050E+03 -1.554517E+04  5.892975E+04 -1.095595E+04 -1.027536E+04
       361  23 -2.163942E+05 -4.451031E+03 -2.678291E+04  4.707913E+04 -2.498079E+04 -1.162572E+04
       361  24 -2.221418E+05 -4.891882E+04 -5.682351E+04  5.892417E+04 -3.900374E+04 -3.931214E+03
       361  25 -4.430304E+04  4.417388E+04  2.088946E+04  6.475300E+04 -1.800570E+04 -1.027524E+04
       361  26  3.699372E+04  5.708764E+04  2.748721E+04  3.656797E+04 -2.118278E+04 -1.162531E+04
       361  27  1.087080E+05  3.319565E+04  2.282097E+04  3.207630E+04 -2.435859E+04 -3.932031E+03
       362   1 -1.177372E+05 -5.301864E+05 -1.179745E+05  1.016390E+05 -4.389069E+03 -3.223804E+04
       362   2 -6.934951E+04 -4.079626E+05 -6.937376E+04  7.685599E+04 -1.223231E+04 -1.401985E+04
       362   3 -3.811053E+04 -2.924155E+05 -3.693399E+04  8.908721E+04 -8.977190E+03  4.197002E+03
       362   4 -1.880307E+04 -1.318186E+05 -2.176037E+04  9.153919E+04 -4.378920E+03 -1.616930E+04
       362   5 -1.657819E+03 -1.296195E+05 -9.316391E+03  7.302617E+04 -1.223003E+04 -1.125704E+04
       362   6  6.550213E+02 -1.317967E+05 -3.784434E+03  9.152765E+04 -8.984675E+03 -6.349943E+03
       362   7  8.011998E+04  2.666952E+05  7.444340E+04  8.143285E+04 -4.369298E+03 -9.027519E+01
       362   8  6.602883E+04  1.487964E+05  5.073645E+04  6.919458E+04 -1.222780E+04 -8.493003E+03
       362   9  3.941902E+04  2.884678E+04  2.936415E+04  9.396873E+04 -8.992242E+03 -1.689957E+04
       362  10 -1.177375E+05 -5.301875E+05 -1.179765E+05  1.016389E+05 -4.064157E-11  1.050164E-10
       362  11 -6.934972E+04 -4.079628E+05 -6.937441E+04  7.685586E+04  1.044789E-10  7.937723E-11
       362  12 -3.811062E+04 -2.924155E+05 -3.693418E+04  8.908724E+04 -3.076001E-10 -8.694192E-11
       362  13 -1.880316E+04 -1.318189E+05 -2.176090E+04  9.153914E+04 -1.532654E-10 -1.189005E-11
       362  14 -1.658013E+03 -1.296197E+05 -9.316911E+03  7.302606E+04  5.486316E-10 -4.751286E-11
       362  15  6.549238E+02 -1.317968E+05 -3.784662E+03  9.152760E+04 -3.474779E-10 -2.299680E-11
       362  16  8.011996E+04  2.666952E+05  7.444337E+04  8.143285E+04  9.370476E-11 -1.489040E-10
       362  17  6.602865E+04  1.487962E+05  5.073603E+04  6.919450E+04  1.642142E-10 -9.144126E-11
       362  18  3.941886E+04  2.884645E+04  2.936346E+04  9.396861E+04  2.036042E-10  5.381812E-12
       362  19 -1.177372E+05 -5.301864E+05 -1.179745E+05  1.016390E+05  4.389069E+03  3.223804E+04
       362  20 -6.934951E+04 -4.079626E+05 -6.937376E+04  7.685599E+04  1.223231E+04  1.401985E+04
       362  21 -3.811053E+04 -2.924155E+05 -3.693399E+04  8.908721E+04  8.977190E+03 -4.197002E+03
       362  22 -1.880307E+04 -1.318186E+05 -2.176037E+04  9.153919E+04  4.378920E+03  1.616930E+04
       362  23 -1.657819E+03 -1.296195E+05 -9.316391E+03  7.302617E+04  1.223003E+04  1.125704E+04
       362  24  6.550213E+02 -1.317967E+05 -3.784434E+03  9.152765E+04  8.984675E+03  6.349943E+03
       362  25  8.011998E+04  2.666952E+05  7.444340E+04  8.143285E+04  4.369298E+03  9.027519E+01
       362  26  6.602883E+04  1.487964E+05  5.073645E+04  6.919458E+04  1.222780E+04  8.493003E+03
       362  27  3.941902E+04  2.884678E+04  2.936415E+04  9.396873E+04  8.992242E+03  1.689957E+04
       363   1 -1.880591E+04 -2.056402E+05 -1.737733E+04  9.152731E+04 -3.982502E+03  2.101986E+03
       363   2  1.067891E+04 -8.698230E+04  1.138147E+04  7.300617E+04  2.700298E+03  6.967479E+02
       363   3  4.090158E+04  3.200398E+04  4.122454E+04  9.205036E+04  9.259704E+03 -7.083809E+02
       363   4 -7.035349E+02 -1.307558E+05 -1.765089E+03  9.165278E+04 -3.988502E+03 -5.991169E+03
       363   5  1.192461E+02 -1.309022E+05  2.509455E+03  7.286919E+04  2.694595E+03 -7.248642E+03
       363   6  1.655259E+03 -1.307586E+05  7.766623E+03  9.165105E+04  9.254252E+03 -8.505747E+03
       363   7  1.739852E+04 -5.586595E+04  1.384709E+04  9.177827E+04 -3.994505E+03 -1.408528E+04
       363   8 -1.044051E+04 -1.748201E+05 -6.362423E+03  7.273223E+04  2.688895E+03 -1.519348E+04
       363   9 -3.759270E+04 -2.934960E+05 -2.569249E+04  9.125184E+04  9.248808E+03 -1.630110E+04
       363  10 -1.880593E+04 -2.056402E+05 -1.737737E+04  9.152731E+04 -7.441987E-11  2.495119E-10
       363  11  1.067891E+04 -8.698230E+04  1.138146E+04  7.300617E+04 -6.955531E-11  8.949504E-11
       363  12  4.090149E+04  3.200395E+04  4.122438E+04  9.205037E+04  3.119279E-10 -1.314330E-12
       363  13 -7.035616E+02 -1.307558E+05 -1.765186E+03  9.165276E+04  9.426656E-12  5.047464E-11
       363  14  1.192242E+02 -1.309022E+05  2.509343E+03  7.286921E+04 -4.898102E-10  6.718634E-11
       363  15  1.655148E+03 -1.307587E+05  7.766326E+03  9.165111E+04 -4.295478E-10  4.700442E-11
       363  16  1.739845E+04 -5.586617E+04  1.384668E+04  9.177822E+04 -2.133837E-11 -2.672372E-10
       363  17 -1.044058E+04 -1.748203E+05 -6.362871E+03  7.273226E+04  5.814388E-10 -6.119067E-11
       363  18 -3.759286E+04 -2.934963E+05 -2.569315E+04  9.125196E+04  1.767238E-10 -8.026199E-11
       363  19 -1.880591E+04 -2.056402E+05 -1.737733E+04  9.152731E+04  3.982502E+03 -2.101986E+03
       363  20  1.067891E+04 -8.698230E+04  1.138147E+04  7.300617E+04 -2.700298E+03 -6.967479E+02
       363  21  4.090158E+04  3.200398E+04  4.122454E+04  9.205036E+04 -9.259704E+03  7.083809E+02
       363  22 -7.035349E+02 -1.307558E+05 -1.765089E+03  9.165278E+04  3.988502E+03  5.991169E+03
       363  23  1.192461E+02 -1.309022E+05  2.509455E+03  7.286919E+04 -2.694595E+03  7.248642E+03
       363  24  1.655259E+03 -1.307586E+05  7.766623E+03  9.165105E+04 -9.254252E+03  8.505747E+03
       363  25  1.739852E+04 -5.586595E+04  1.384709E+04  9.177827E+04  3.994505E+03  1.408528E+04
       363  26 -1.044051E+04 -1.748201E+05 -6.362423E+03  7.273223E+04 -2.688895E+03  1.519348E+04
       363  27 -3.759270E+04 -2.934960E+05 -2.569249E+04  9.125184E+04 -9.248808E+03  1.630110E+04
       364   1  5.896229E+04  1.197478E+05  6.167768E+04  8.700861E+04  1.433067E+04  9.170963E+02
       364   2  9.244937E+04  2.328177E+05  9.871623E+04  8.131850E+04  1.665816E+04 -2.567378E+04
       364   3  1.588838E+05  3.575821E+05  1.612945E+05  1.125058E+05  5.668308E+03 -5.226447E+04
       364   4 -9.401279E+02 -1.288495E+05  1.072579E+04  9.150255E+04  1.432364E+04 -9.886461E+03
       364   5  3.515447E+03 -1.333192E+05  2.021333E+04  7.305384E+04  1.666227E+04 -2.048689E+04
       364   6  3.815440E+04 -1.288738E+05  4.414477E+04  9.148146E+04  5.681088E+03 -3.108193E+04
       364   7 -6.084629E+04 -3.773878E+05 -4.022892E+04  9.599464E+04  1.431645E+04 -2.068577E+04
       364   8 -8.542699E+04 -4.993299E+05 -5.829725E+04  6.479409E+04  1.666624E+04 -1.530301E+04
       364   9 -8.259042E+04 -6.151114E+05 -7.301991E+04  7.047357E+04  5.692440E+03 -9.915907E+03
       364  10  5.896207E+04  1.197477E+05  6.167729E+04  8.700860E+04  1.044155E-11 -9.562154E-11
       364  11  9.244890E+04  2.328169E+05  9.871447E+04  8.131885E+04 -7.675132E-11  6.986375E-12
       364  12  1.588831E+05  3.575791E+05  1.612893E+05  1.125061E+05  9.282317E-11 -1.234774E-11
       364  13 -9.403745E+02 -1.288496E+05  1.072523E+04  9.150266E+04  5.739637E-10  4.435930E-11
       364  14  3.515036E+03 -1.333198E+05  2.021202E+04  7.305411E+04 -2.688143E-10  2.497078E-11
       364  15  3.815410E+04 -1.288749E+05  4.414289E+04  9.148160E+04  3.485977E-11 -4.642831E-11
       364  16 -6.084662E+04 -3.773883E+05 -4.023011E+04  9.599488E+04 -2.014801E-11  2.237457E-10
       364  17 -8.542735E+04 -4.993303E+05 -5.829821E+04  6.479429E+04 -1.453173E-10  9.392008E-11
       364  18 -8.259048E+04 -6.151115E+05 -7.302016E+04  7.047362E+04  1.343829E-10 -6.344652E-11
       364  19  5.896229E+04  1.197478E+05  6.167768E+04  8.700861E+04 -1.433067E+04 -9.170963E+02
       364  20  9.244937E+04  2.328177E+05  9.871623E+04  8.131850E+04 -1.665816E+04  2.567378E+04
       364  21  1.588838E+05  3.575821E+05  1.612945E+05  1.125058E+05 -5.668308E+03  5.226447E+04
       364  22 -9.401279E+02 -1.288495E+05  1.072579E+04  9.150255E+04 -1.432364E+04  9.886461E+03
       364  23  3.515447E+03 -1.333192E+05  2.021333E+04  7.305384E+04 -1.666227E+04  2.048689E+04
       364  24  3.815440E+04 -1.288738E+05  4.414477E+04  9.148146E+04 -5.681088E+03  3.108193E+04
       364  25 -6.084629E+04 -3.773878E+05 -4.022892E+04  9.599464E+04 -1.431645E+04  2.068577E+04
       364  26 -8.542699E+04 -4.993299E+05 -5.829725E+04  6.479409E+04 -1.666624E+04  1.530301E+04
       364  27 -8.259042E+04 -6.151114E+05 -7.301991E+04  7.047357E+04 -5.692440E+03  9.915907E+03
       365   1  2.812561E+05  2.630046E+05  1.043154E+05  1.792126E+05  4.233488E+04  2.852788E+04
       365   2  2.662134E+05  2.019629E+05  6.366679E+04  1.872640E+05  2.929125E+04  1.165485E+04
       365   3  2.696387E+05  1.774124E+05  4.685254E+04  1.830064E+05  1.334677E+04 -1.345957E+03
       365   4  1.729672E+05  1.396301E+05  5.991900E+04  1.042466E+05  3.455059E+04  2.269127E+04
       365   5  1.547129E+05  1.049307E+05  2.815449E+04  1.231132E+05  2.615701E+04  9.304920E+03
       365   6  1.539222E+05  1.057179E+05  1.619377E+04  1.296694E+05  1.486221E+04 -2.101432E+02
       365   7  6.469175E+04  1.627611E+04  1.552088E+04  2.929879E+04  2.676808E+04  1.685711E+04
       365   8  4.322536E+04  7.909433E+03 -7.359565E+03  5.897632E+04  2.302349E+04  6.955707E+03
       365   9  3.821902E+04  3.402804E+04 -1.446664E+04  7.634246E+04  1.637729E+04  9.254444E+02
       365  10  2.812539E+05  2.630032E+05  1.043106E+05  1.792116E+05 -4.580152E-11 -3.870050E-11
       365  11  2.662125E+05  2.019626E+05  6.366492E+04  1.872637E+05  9.199727E-11  9.714355E-11
       365  12  2.696386E+05  1.774123E+05  4.685220E+04  1.830064E+05  7.033736E-11  1.265727E-10
       365  13  1.729658E+05  1.396292E+05  5.991579E+04  1.042460E+05  3.012160E-11  1.591307E-10
       365  14  1.547121E+05  1.049304E+05  2.815304E+04  1.231130E+05 -4.343851E-11  1.385688E-10
       365  15  1.539219E+05  1.057178E+05  1.619336E+04  1.296694E+05  6.593600E-11 -1.081263E-10
       365  16  6.469091E+04  1.627561E+04  1.551900E+04  2.929843E+04 -2.054819E-10  8.628765E-12
       365  17  4.322478E+04  7.909239E+03 -7.360651E+03  5.897619E+04 -7.613414E-11 -2.572058E-10
       365  18  3.821873E+04  3.402797E+04 -1.446714E+04  7.634245E+04  6.037252E-11 -5.140822E-10
       365  19  2.812561E+05  2.630046E+05  1.043154E+05  1.792126E+05 -4.233488E+04 -2.852788E+04
       365  20  2.662134E+05  2.019629E+05  6.366679E+04  1.872640E+05 -2.929125E+04 -1.165485E+04
       365  21  2.696387E+05  1.774124E+05  4.685254E+04  1.830064E+05 -1.334677E+04  1.345957E+03
       365  22  1.729672E+05  1.396301E+05  5.991900E+04  1.042466E+05 -3.455059E+04 -2.269127E+04
       365  23  1.547129E+05  1.049307E+05  2.815449E+04  1.231132E+05 -2.615701E+04 -9.304920E+03
       365  24  1.539222E+05  1.057179E+05  1.619377E+04  1.296694E+05 -1.486221E+04  2.101432E+02
       365  25  6.469175E+04  1.627611E+04  1.552088E+04  2.929879E+04 -2.676808E+04 -1.685711E+04
       365  26  4.322536E+04  7.909433E+03 -7.359565E+03  5.897632E+04 -2.302349E+04 -6.955707E+03
       365  27  3.821902E+04  3.402804E+04 -1.446664E+04  7.634246E+04 -1.637729E+04 -9.254444E+02
       366   1  2.535551E+05  1.789001E+05  4.097605E+04  1.775256E+05  1.198853E+04 -1.319939E+03
       366   2  2.430983E+05  1.654679E+05  3.197174E+04  1.710775E+05  8.278230E+03 -3.151159E+03
       366   3  2.287323E+05  1.588059E+05  2.608049E+04  1.657389E+05  4.407768E+03 -4.768571E+03
       366   4  1.535110E+05  1.070707E+05  1.279706E+04  1.268448E+05  1.258942E+04 -8.697145E+02
       366   5  1.551067E+05  1.030239E+05  7.508653E+03  1.268079E+05  9.136299E+03 -2.508074E+03
       366   6  1.527371E+05  1.056917E+05  5.110613E+03  1.278804E+05  5.522896E+03 -3.932694E+03
       366   7  5.347929E+04  3.524822E+04 -1.538249E+04  7.617400E+04  1.319017E+04 -4.195953E+02
       366   8  6.712431E+04  4.058489E+04 -1.695498E+04  8.254589E+04  9.994199E+03 -1.865116E+03
       366   9  7.674843E+04  5.258084E+04 -1.585980E+04  9.002728E+04  6.637840E+03 -3.096952E+03
       366  10  2.535549E+05  1.789001E+05  4.097578E+04  1.775256E+05 -3.278967E-10 -6.747354E-11
       366  11  2.430983E+05  1.654678E+05  3.197160E+04  1.710775E+05  8.303555E-11 -4.550991E-11
       366  12  2.287323E+05  1.588059E+05  2.608041E+04  1.657389E+05 -1.376477E-10 -2.609115E-11
       366  13  1.535108E+05  1.070707E+05  1.279676E+04  1.268448E+05  9.767225E-11 -7.035680E-11
       366  14  1.551066E+05  1.030239E+05  7.508484E+03  1.268080E+05 -8.013146E-12  2.580870E-10
       366  15  1.527371E+05  1.056917E+05  5.110527E+03  1.278804E+05  1.992548E-10  1.776438E-10
       366  16  5.347910E+04  3.524818E+04 -1.538282E+04  7.617400E+04  4.401505E-10 -2.351022E-10
       366  17  6.712420E+04  4.058486E+04 -1.695518E+04  8.254590E+04  7.835180E-11  5.629169E-12
       366  18  7.674838E+04  5.258081E+04 -1.585990E+04  9.002730E+04  1.078905E-10  1.425474E-10
       366  19  2.535551E+05  1.789001E+05  4.097605E+04  1.775256E+05 -1.198853E+04  1.319939E+03
       366  20  2.430983E+05  1.654679E+05  3.197174E+04  1.710775E+05 -8.278230E+03  3.151159E+03
       366  21  2.287323E+05  1.588059E+05  2.608049E+04  1.657389E+05 -4.407768E+03  4.768571E+03
       366  22  1.535110E+05  1.070707E+05  1.279706E+04  1.268448E+05 -1.258942E+04  8.697145E+02
       366  23  1.551067E+05  1.030239E+05  7.508653E+03  1.268079E+05 -9.136299E+03  2.508074E+03
       366  24  1.527371E+05  1.056917E+05  5.110613E+03  1.278804E+05 -5.522896E+03  3.932694E+03
       366  25  5.347929E+04  3.524822E+04 -1.538249E+04  7.617400E+04 -1.319017E+04  4.195953E+02
       366  26  6.712431E+04  4.058489E+04 -1.695498E+04  8.254589E+04 -9.994199E+03  1.865116E+03
       366  27  7.674843E+04  5.258084E+04 -1.585980E+04  9.002728E+04 -6.637840E+03  3.096952E+03
       367   1  2.193711E+05  1.528215E+05  2.296392E+04  1.612052E+05  3.367541E+03 -4.709480E+03
       367   2  2.092811E+05  1.413353E+05  1.942289E+04  1.541524E+05  9.285378E+02 -5.145715E+03
       367   3  1.942659E+05  1.353400E+05  1.737772E+04  1.486851E+05 -1.517170E+03 -5.573096E+03
       367   4  1.527003E+05  1.057336E+05  4.559688E+03  1.277512E+05  4.432205E+03 -3.911386E+03
       367   5  1.551704E+05  1.030006E+05  4.444436E+03  1.269501E+05  2.004019E+03 -4.339448E+03
       367   6  1.527131E+05  1.057562E+05  5.815815E+03  1.277343E+05 -4.308946E+02 -4.758681E+03
       367   7  8.603352E+04  5.864762E+04 -1.384526E+04  9.430080E+04  5.496728E+03 -3.113396E+03
       367   8  1.010629E+05  6.466767E+04 -1.053429E+04  9.975043E+04  3.079373E+03 -3.533277E+03
       367   9  1.111627E+05  7.617380E+04 -5.746069E+03  1.067855E+05  6.552693E+02 -3.944350E+03
       367  10  2.193711E+05  1.528214E+05  2.296386E+04  1.612052E+05 -2.910382E-10  9.648454E-11
       367  11  2.092811E+05  1.413353E+05  1.942284E+04  1.541524E+05 -2.830868E-10  2.544162E-10
       367  12  1.942659E+05  1.353400E+05  1.737765E+04  1.486851E+05 -1.433042E-10  1.159864E-10
       367  13  1.527003E+05  1.057335E+05  4.559623E+03  1.277512E+05  2.225101E-10 -2.927620E-11
       367  14  1.551704E+05  1.030006E+05  4.444393E+03  1.269501E+05  2.672577E-10 -1.526988E-10
       367  15  1.527131E+05  1.057562E+05  5.815772E+03  1.277343E+05 -4.199910E-10 -7.872380E-13
       367  16  8.603349E+04  5.864760E+04 -1.384533E+04  9.430081E+04  6.486375E-11 -8.424712E-11
       367  17  1.010629E+05  6.466766E+04 -1.053434E+04  9.975044E+04  7.656864E-11 -1.453953E-10
       367  18  1.111627E+05  7.617379E+04 -5.746099E+03  1.067855E+05  5.129974E-11 -6.198340E-11
       367  19  2.193711E+05  1.528215E+05  2.296392E+04  1.612052E+05 -3.367541E+03  4.709480E+03
       367  20  2.092811E+05  1.413353E+05  1.942289E+04  1.541524E+05 -9.285378E+02  5.145715E+03
       367  21  1.942659E+05  1.353400E+05  1.737772E+04  1.486851E+05  1.517170E+03  5.573096E+03
       367  22  1.527003E+05  1.057336E+05  4.559688E+03  1.277512E+05 -4.432205E+03  3.911386E+03
       367  23  1.551704E+05  1.030006E+05  4.444436E+03  1.269501E+05 -2.004019E+03  4.339448E+03
       367  24  1.527131E+05  1.057562E+05  5.815815E+03  1.277343E+05  4.308946E+02  4.758681E+03
       367  25  8.603352E+04  5.864762E+04 -1.384526E+04  9.430080E+04 -5.496728E+03  3.113396E+03
       367  26  1.010629E+05  6.466767E+04 -1.053429E+04  9.975043E+04 -3.079373E+03  3.533277E+03
       367  27  1.111627E+05  7.617380E+04 -5.746069E+03  1.067855E+05 -6.552693E+02  3.944350E+03
       368   1  1.848586E+05  1.294425E+05  1.609279E+04  1.445728E+05 -2.838578E+03 -5.734558E+03
       368   2  1.754549E+05  1.170972E+05  1.708643E+04  1.368103E+05 -8.047227E+03 -8.252460E+03
       368   3  1.628207E+05  1.123665E+05  2.250459E+04  1.298775E+05 -1.322071E+04 -1.081720E+04
       368   4  1.527932E+05  1.056979E+05  7.097687E+03  1.279668E+05 -1.744218E+03 -4.914053E+03
       368   5  1.550308E+05  1.030026E+05  1.151584E+04  1.267134E+05 -7.008945E+03 -7.473990E+03
       368   6  1.540499E+05  1.079340E+05  2.040720E+04  1.262896E+05 -1.223865E+04 -1.008089E+04
       368   7  1.207289E+05  8.195398E+04 -1.897518E+03  1.113617E+05 -6.499339E+02 -4.093609E+03
       368   8  1.346071E+05  8.890806E+04  5.945165E+03  1.166168E+05 -5.970701E+03 -6.695548E+03
       368   9  1.452792E+05  1.035015E+05  1.830977E+04  1.227017E+05 -1.125659E+04 -9.344572E+03
       368  10  1.848586E+05  1.294425E+05  1.609271E+04  1.445728E+05  7.178295E-11  1.243777E-10
       368  11  1.754548E+05  1.170971E+05  1.708618E+04  1.368103E+05  1.883190E-10  4.823336E-13
       368  12  1.628204E+05  1.123663E+05  2.250404E+04  1.298774E+05  2.488783E-11  1.800235E-10
       368  13  1.527932E+05  1.056979E+05  7.097636E+03  1.279668E+05 -3.819197E-10 -1.361332E-11
       368  14  1.550307E+05  1.030025E+05  1.151564E+04  1.267134E+05 -1.082843E-10  1.334613E-10
       368  15  1.540498E+05  1.079338E+05  2.040673E+04  1.262895E+05 -5.461650E-11 -2.703890E-11
       368  16  1.207289E+05  8.195396E+04 -1.897550E+03  1.113617E+05 -5.721297E-12 -7.941574E-11
       368  17  1.346070E+05  8.890800E+04  5.945014E+03  1.166168E+05 -3.227161E-11  2.038838E-10
       368  18  1.452791E+05  1.035013E+05  1.830937E+04  1.227016E+05  6.960657E-11  2.492842E-11
       368  19  1.848586E+05  1.294425E+05  1.609279E+04  1.445728E+05  2.838578E+03  5.734558E+03
       368  20  1.754549E+05  1.170972E+05  1.708643E+04  1.368103E+05  8.047227E+03  8.252460E+03
       368  21  1.628207E+05  1.123665E+05  2.250459E+04  1.298775E+05  1.322071E+04  1.081720E+04
       368  22  1.527932E+05  1.056979E+05  7.097687E+03  1.279668E+05  1.744218E+03  4.914053E+03
       368  23  1.550308E+05  1.030026E+05  1.151584E+04  1.267134E+05  7.008945E+03  7.473990E+03
       368  24  1.540499E+05  1.079340E+05  2.040720E+04  1.262896E+05  1.223865E+04  1.008089E+04
       368  25  1.207289E+05  8.195398E+04 -1.897518E+03  1.113617E+05  6.499339E+02  4.093609E+03
       368  26  1.346071E+05  8.890806E+04  5.945165E+03  1.166168E+05  5.970701E+03  6.695548E+03
       368  27  1.452792E+05  1.035015E+05  1.830977E+04  1.227017E+05  1.125659E+04  9.344572E+03
       369   1  1.437704E+05  1.145430E+05  2.557745E+04  1.330944E+05 -1.667054E+04 -1.253110E+04
       369   2  1.580239E+05  7.907406E+04  4.143205E+04  1.088403E+05 -3.517696E+04 -2.553106E+04
       369   3  2.033461E+05  9.807094E+04  8.851983E+04  6.372387E+04 -5.304452E+04 -3.938149E+04
       369   4  1.546482E+05  1.058133E+05  2.602563E+04  1.309006E+05 -1.548756E+04 -1.164368E+04
       369   5  1.544786E+05  1.060025E+05  4.560195E+04  1.206862E+05 -3.501716E+04 -2.541281E+04
       369   6  1.855961E+05  1.608747E+05  9.729856E+04  8.960993E+04 -5.390720E+04 -4.003440E+04
       369   7  1.655263E+05  9.708398E+04  2.647388E+04  1.287066E+05 -1.430456E+04 -1.075630E+04
       369   8  1.509339E+05  1.329323E+05  4.977195E+04  1.325320E+05 -3.485736E+04 -2.529456E+04
       369   9  1.678501E+05  2.236874E+05  1.060782E+05  1.154955E+05 -5.476982E+04 -4.068748E+04
       369  10  1.437700E+05  1.145428E+05  2.557663E+04  1.330943E+05  2.816426E-11  1.464536E-10
       369  11  1.580224E+05  7.907303E+04  4.142851E+04  1.088396E+05  2.380663E-11 -7.281570E-11
       369  12  2.033427E+05  9.806852E+04  8.851163E+04  6.372219E+04  2.106502E-10 -8.849032E-11
       369  13  1.546479E+05  1.058131E+05  2.602493E+04  1.309004E+05  1.439058E-11  3.862532E-11
       369  14  1.544771E+05  1.060015E+05  4.559844E+04  1.206855E+05 -1.302935E-10 -1.071734E-10
       369  15  1.855925E+05  1.608722E+05  9.729009E+04  8.960820E+04  1.124126E-10 -5.007743E-11
       369  16  1.655260E+05  9.708380E+04  2.647328E+04  1.287065E+05 -7.471950E-11 -1.090687E-10
       369  17  1.509324E+05  1.329313E+05  4.976847E+04  1.325313E+05 -1.981249E-11  6.436295E-11
       369  18  1.678464E+05  2.236848E+05  1.060695E+05  1.154937E+05 -5.689447E-11  3.485315E-11
       369  19  1.437704E+05  1.145430E+05  2.557745E+04  1.330944E+05  1.667054E+04  1.253110E+04
       369  20  1.580239E+05  7.907406E+04  4.143205E+04  1.088403E+05  3.517696E+04  2.553106E+04
       369  21  2.033461E+05  9.807094E+04  8.851983E+04  6.372387E+04  5.304452E+04  3.938149E+04
       369  22  1.546482E+05  1.058133E+05  2.602563E+04  1.309006E+05  1.548756E+04  1.164368E+04
       369  23  1.544786E+05  1.060025E+05  4.560195E+04  1.206862E+05  3.501716E+04  2.541281E+04
       369  24  1.855961E+05  1.608747E+05  9.729856E+04  8.960993E+04  5.390720E+04  4.003440E+04
       369  25  1.655263E+05  9.708398E+04  2.647388E+04  1.287066E+05  1.430456E+04  1.075630E+04
       369  26  1.509339E+05  1.329323E+05  4.977195E+04  1.325320E+05  3.485736E+04  2.529456E+04
       369  27  1.678501E+05  2.236874E+05  1.060782E+05  1.154955E+05  5.476982E+04  4.068748E+04
       370   1  4.499998E+05  1.037761E+05  9.809698E+04  5.838452E+04  1.241080E+04 -5.897237E+03
       370   2  3.653522E+05  9.158336E+04  7.457640E+04  4.947371E+04  9.066129E+02 -1.803399E+04
       370   3  2.804698E+05  7.227269E+04  5.676876E+04  6.665951E+04 -1.059324E+04 -1.759000E+04
       370   4 -1.836864E+04 -1.236706E+04 -1.435992E+04  6.519782E+04 -9.710511E+03 -5.894813E+03
       370   5 -1.692580E+04 -1.148430E+03 -6.884247E+03  5.214916E+04 -6.109833E+03 -1.803462E+04
       370   6 -1.834849E+04  3.281821E+02 -4.182681E+03  6.519854E+04 -2.506604E+03 -1.759002E+04
       370   7 -4.865351E+05 -1.285257E+05 -1.268305E+05  7.200595E+04 -3.181521E+04 -5.892874E+03
       370   8 -3.990661E+05 -9.388968E+04 -8.835312E+04  5.482293E+04 -1.312202E+04 -1.803530E+04
       370   9 -3.170818E+05 -7.162187E+04 -6.513858E+04  6.373828E+04  5.576214E+03 -1.759007E+04
       370  10  4.499996E+05  1.037760E+05  9.809663E+04  5.838458E+04  1.237373E-10 -1.604657E-10
       370  11  3.653522E+05  9.158301E+04  7.457579E+04  4.947372E+04 -2.756563E-10 -2.031381E-10
       370  12  2.804696E+05  7.227233E+04  5.676797E+04  6.665936E+04 -2.390494E-11  4.636996E-11
       370  13 -1.836875E+04 -1.236712E+04 -1.436017E+04  6.519777E+04 -3.899866E-10 -9.638458E-11
       370  14 -1.692592E+04 -1.148790E+03 -6.884929E+03  5.214907E+04  2.059835E-10 -1.960420E-10
       370  15 -1.834858E+04  3.278482E+02 -4.183274E+03  6.519851E+04 -2.257944E-11 -2.322311E-10
       370  16 -4.865362E+05 -1.285260E+05 -1.268325E+05  7.200580E+04 -1.325489E-10 -1.107059E-10
       370  17 -3.990664E+05 -9.389007E+04 -8.835406E+04  5.482274E+04  1.222812E-11 -9.353176E-11
       370  18 -3.170819E+05 -7.162221E+04 -6.513922E+04  6.373836E+04  1.663537E-10 -1.354335E-10
       370  19  4.499998E+05  1.037761E+05  9.809698E+04  5.838452E+04 -1.241080E+04  5.897237E+03
       370  20  3.653522E+05  9.158336E+04  7.457640E+04  4.947371E+04 -9.066129E+02  1.803399E+04
       370  21  2.804698E+05  7.227269E+04  5.676876E+04  6.665951E+04  1.059324E+04  1.759000E+04
       370  22 -1.836864E+04 -1.236706E+04 -1.435992E+04  6.519782E+04  9.710511E+03  5.894813E+03
       370  23 -1.692580E+04 -1.148430E+03 -6.884247E+03  5.214916E+04  6.109833E+03  1.803462E+04
       370  24 -1.834849E+04  3.281821E+02 -4.182681E+03  6.519854E+04  2.506604E+03  1.759002E+04
       370  25 -4.865351E+05 -1.285257E+05 -1.268305E+05  7.200595E+04  3.181521E+04  5.892874E+03
       370  26 -3.990661E+05 -9.388968E+04 -8.835312E+04  5.482293E+04  1.312202E+04  1.803530E+04
       370  27 -3.170818E+05 -7.162187E+04 -6.513858E+04  6.373828E+04 -5.576214E+03  1.759007E+04
       371   1  2.198149E+05  5.673810E+04  4.505589E+04  6.516976E+04 -7.033833E+03 -1.388333E+04
       371   2  1.352374E+05  3.677027E+04  2.839623E+04  5.189722E+04 -6.554485E+03 -9.284063E+03
       371   3  5.052219E+04  1.646626E+04  1.134037E+04  6.539611E+04 -6.075977E+03 -4.020503E+03
       371   4 -1.776755E+04 -4.809882E+02 -3.486868E+03  6.534805E+04 -1.911665E+03 -1.388314E+04
       371   5 -1.762263E+04  8.548642E+00 -2.563707E+03  5.196209E+04 -6.356627E+02 -9.283382E+03
       371   6 -1.775942E+04  2.422521E+01 -2.589664E+03  6.534799E+04  6.395750E+02 -4.019225E+03
       371   7 -2.552963E+05 -5.770360E+04 -5.203251E+04  6.552628E+04  3.208580E+03 -1.388296E+04
       371   8 -1.704604E+05 -3.675461E+04 -3.352472E+04  5.202695E+04  5.281731E+03 -9.282699E+03
       371   9 -8.603650E+04 -1.641808E+04 -1.651978E+04  6.529987E+04  7.354402E+03 -4.017947E+03
       371  10  2.198148E+05  5.673788E+04  4.505544E+04  6.516968E+04  2.503913E-11  2.254592E-10
       371  11  1.352373E+05  3.677017E+04  2.839598E+04  5.189717E+04 -7.426883E-11  8.047730E-11
       371  12  5.052215E+04  1.646624E+04  1.134027E+04  6.539609E+04  4.050419E-10 -3.768835E-11
       371  13 -1.776761E+04 -4.811962E+02 -3.487237E+03  6.534803E+04  2.757010E-10  3.282444E-11
       371  14 -1.762266E+04  8.455992E+00 -2.563870E+03  5.196209E+04  1.052304E-10  1.884777E-10
       371  15 -1.775942E+04  2.420775E+01 -2.589695E+03  6.534799E+04  5.715246E-10  2.300817E-11
       371  16 -2.552964E+05 -5.770381E+04 -5.203289E+04  6.552631E+04  2.418976E-10 -1.474829E-10
       371  17 -1.704604E+05 -3.675471E+04 -3.352494E+04  5.202699E+04 -3.099263E-10 -1.121244E-10
       371  18 -8.603656E+04 -1.641811E+04 -1.651991E+04  6.529990E+04 -2.475998E-10 -2.547390E-10
       371  19  2.198149E+05  5.673810E+04  4.505589E+04  6.516976E+04  7.033833E+03  1.388333E+04
       371  20  1.352374E+05  3.677027E+04  2.839623E+04  5.189722E+04  6.554485E+03  9.284063E+03
       371  21  5.052219E+04  1.646626E+04  1.134037E+04  6.539611E+04  6.075977E+03  4.020503E+03
       371  22 -1.776755E+04 -4.809882E+02 -3.486868E+03  6.534805E+04  1.911665E+03  1.388314E+04
       371  23 -1.762263E+04  8.548642E+00 -2.563707E+03  5.196209E+04  6.356627E+02  9.283382E+03
       371  24 -1.775942E+04  2.422521E+01 -2.589664E+03  6.534799E+04 -6.395750E+02  4.019225E+03
       371  25 -2.552963E+05 -5.770360E+04 -5.203251E+04  6.552628E+04 -3.208580E+03  1.388296E+04
       371  26 -1.704604E+05 -3.675461E+04 -3.352472E+04  5.202695E+04 -5.281731E+03  9.282699E+03
       371  27 -8.603650E+04 -1.641808E+04 -1.651978E+04  6.529987E+04 -7.354402E+03  4.017947E+03
       372   1 -1.037127E+04  1.820337E+03 -1.589080E+03  6.513452E+04 -5.567948E+03 -7.181408E+02
       372   2 -9.468566E+04 -1.858469E+04 -1.991709E+04  5.203666E+04 -2.804496E+03  4.581647E+03
       372   3 -1.796400E+05 -4.012748E+04 -4.033049E+04  6.571592E+04 -4.100374E+01  9.328964E+03
       372   4 -1.781395E+04  7.176805E+01 -2.889648E+03  6.534910E+04  1.122280E+03 -7.167979E+02
       372   5 -1.755030E+04 -1.556340E+01 -4.211711E+03  5.196073E+04  3.222679E+03  4.582631E+03
       372   6 -1.781807E+04 -1.125009E+03 -7.158325E+03  6.534931E+04  5.323481E+03  9.329641E+03
       372   7 -2.525649E+04 -1.676780E+03 -4.190050E+03  6.556368E+04  7.812430E+03 -7.154503E+02
       372   8  5.959079E+04  1.855322E+04  1.149349E+04  5.188479E+04  9.250588E+03  4.583614E+03
       372   9  1.440288E+05  3.787584E+04  2.601256E+04  6.498260E+04  1.068934E+04  9.330313E+03
       372  10 -1.037130E+04  1.820328E+03 -1.589139E+03  6.513452E+04  4.711143E-11 -8.392217E-11
       372  11 -9.468567E+04 -1.858472E+04 -1.991714E+04  5.203667E+04  6.873749E-11  1.337610E-10
       372  12 -1.796400E+05 -4.012758E+04 -4.033066E+04  6.571592E+04 -2.560447E-11 -7.207157E-11
       372  13 -1.781396E+04  7.176716E+01 -2.889651E+03  6.534910E+04  1.838926E-10 -3.465451E-11
       372  14 -1.755032E+04 -1.558874E+01 -4.211770E+03  5.196072E+04  4.379416E-10 -5.318281E-11
       372  15 -1.781812E+04 -1.125110E+03 -7.158542E+03  6.534927E+04  3.349133E-10 -1.039975E-11
       372  16 -2.525656E+04 -1.676797E+03 -4.190165E+03  6.556369E+04  4.830695E-12 -1.352358E-10
       372  17  5.959070E+04  1.855317E+04  1.149329E+04  5.188476E+04 -1.594094E-10 -6.753247E-11
       372  18  1.440286E+05  3.787571E+04  2.601218E+04  6.498252E+04 -1.423540E-11  5.465059E-11
       372  19 -1.037127E+04  1.820337E+03 -1.589080E+03  6.513452E+04  5.567948E+03  7.181408E+02
       372  20 -9.468566E+04 -1.858469E+04 -1.991709E+04  5.203666E+04  2.804496E+03 -4.581647E+03
       372  21 -1.796400E+05 -4.012748E+04 -4.033049E+04  6.571592E+04  4.100374E+01 -9.328964E+03
       372  22 -1.781395E+04  7.176805E+01 -2.889648E+03  6.534910E+04 -1.122280E+03  7.167979E+02
       372  23 -1.755030E+04 -1.556340E+01 -4.211711E+03  5.196073E+04 -3.222679E+03 -4.582631E+03
       372  24 -1.781807E+04 -1.125009E+03 -7.158325E+03  6.534931E+04 -5.323481E+03 -9.329641E+03
       372  25 -2.525649E+04 -1.676780E+03 -4.190050E+03  6.556368E+04 -7.812430E+03  7.154503E+02
       372  26  5.959079E+04  1.855322E+04  1.149349E+04  5.188479E+04 -9.250588E+03 -4.583614E+03
       372  27  1.440288E+05  3.787584E+04  2.601256E+04  6.498260E+04 -1.068934E+04 -9.330313E+03
       373   1 -2.421701E+05 -5.294069E+04 -5.467155E+04  6.176646E+04 -1.314744E+03  1.296797E+04
       373   2 -3.224017E+05 -7.706625E+04 -8.130288E+04  5.828990E+04  1.972764E+04  1.419670E+04
       373   3 -4.116002E+05 -1.262118E+05 -1.278889E+05  8.102258E+04  4.076549E+04  4.752311E+03
       373   4 -1.920419E+04  7.841691E+02 -9.052302E+03  6.522340E+04  6.560110E+03  1.296864E+04
       373   5 -1.583868E+04 -2.628412E+03 -1.573645E+04  5.211858E+04  1.480311E+04  1.419575E+04
       373   6 -1.922048E+04 -2.883161E+04 -3.348073E+04  6.522381E+04  2.304487E+04  4.751478E+03
       373   7  2.038092E+05  5.450599E+04  3.656455E+04  6.868159E+04  1.443774E+04  1.296940E+04
       373   8  2.908130E+05  7.180344E+04  4.982465E+04  4.594416E+04  9.876187E+03  1.419491E+04
       373   9  3.733014E+05  6.853846E+04  6.091774E+04  4.941500E+04  5.313078E+03  4.751549E+03
       373  10 -2.421702E+05 -5.294088E+04 -5.467186E+04  6.176648E+04 -9.762562E-11 -4.461356E-11
       373  11 -3.224022E+05 -7.706657E+04 -8.130399E+04  5.828967E+04  2.122605E-10 -6.124931E-12
       373  12 -4.116020E+05 -1.262123E+05 -1.278920E+05  8.102243E+04  4.142916E-10 -1.371724E-12
       373  13 -1.920428E+04  7.839769E+02 -9.052699E+03  6.522333E+04  4.105872E-10 -6.109260E-11
       373  14 -1.583897E+04 -2.628687E+03 -1.573724E+04  5.211841E+04  5.029809E-10  1.593221E-10
       373  15 -1.922106E+04 -2.883178E+04 -3.348177E+04  6.522372E+04 -4.284851E-10  4.736608E-11
       373  16  2.038089E+05  5.450576E+04  3.656384E+04  6.868144E+04  1.714517E-10 -2.874862E-11
       373  17  2.908128E+05  7.180320E+04  4.982409E+04  4.594405E+04 -4.521365E-10  1.283490E-10
       373  18  3.733014E+05  6.853843E+04  6.091764E+04  4.941498E+04 -3.114994E-10  9.626204E-11
       373  19 -2.421701E+05 -5.294069E+04 -5.467155E+04  6.176646E+04  1.314744E+03 -1.296797E+04
       373  20 -3.224017E+05 -7.706625E+04 -8.130288E+04  5.828990E+04 -1.972764E+04 -1.419670E+04
       373  21 -4.116002E+05 -1.262118E+05 -1.278889E+05  8.102258E+04 -4.076549E+04 -4.752311E+03
       373  22 -1.920419E+04  7.841691E+02 -9.052302E+03  6.522340E+04 -6.560110E+03 -1.296864E+04
       373  23 -1.583868E+04 -2.628412E+03 -1.573645E+04  5.211858E+04 -1.480311E+04 -1.419575E+04
       373  24 -1.922048E+04 -2.883161E+04 -3.348073E+04  6.522381E+04 -2.304487E+04 -4.751478E+03
       373  25  2.038092E+05  5.450599E+04  3.656455E+04  6.868159E+04 -1.443774E+04 -1.296940E+04
       373  26  2.908130E+05  7.180344E+04  4.982465E+04  4.594416E+04 -9.876187E+03 -1.419491E+04
       373  27  3.733014E+05  6.853846E+04  6.091774E+04  4.941500E+04 -5.313078E+03 -4.751549E+03
       374   1 -1.302858E+05 -5.345253E+05 -1.340681E+05  1.072282E+05 -4.040657E+03 -4.608562E+04
       374   2 -6.569131E+04 -4.170742E+05 -7.610523E+04  7.689011E+04 -1.120462E+04 -2.281007E+04
       374   3 -3.388573E+04 -3.108587E+05 -4.150616E+04  8.137800E+04 -8.080931E+03  4.669629E+02
       374   4 -3.871945E+04 -1.658163E+05 -4.499684E+04  8.611636E+04 -4.032662E+03 -3.132228E+04
       374   5 -3.473619E+03 -1.612559E+05 -2.087512E+04  6.869398E+04 -1.120282E+04 -2.037823E+04
       374   6  1.133473E+03 -1.657954E+05 -1.154247E+04  8.609934E+04 -8.086268E+03 -9.437283E+03
       374   7  5.283880E+04  2.030184E+05  4.406575E+04  6.499191E+04 -4.025675E+03 -1.655019E+04
       374   8  5.874002E+04  9.462410E+04  3.435118E+04  6.049441E+04 -1.120108E+04 -1.794540E+04
       374   9  3.615148E+04 -2.071195E+04  1.842046E+04  9.082181E+04 -8.091755E+03 -1.934380E+04
       374  10 -1.302864E+05 -5.345275E+05 -1.340721E+05  1.072281E+05 -8.045059E-11 -7.457825E-11
       374  11 -6.569158E+04 -4.170748E+05 -7.610644E+04  7.688991E+04 -5.274665E-11 -2.305011E-10
       374  12 -3.388580E+04 -3.108587E+05 -4.150628E+04  8.137800E+04 -2.825667E-10  1.936808E-11
       374  13 -3.871973E+04 -1.658174E+05 -4.499871E+04  8.611626E+04 -1.033136E-10  3.088355E-10
       374  14 -3.473866E+03 -1.612564E+05 -2.087614E+04  6.869380E+04  6.823846E-10 -1.238453E-10
       374  15  1.133378E+03 -1.657956E+05 -1.154276E+04  8.609928E+04  1.335977E-10  2.101640E-10
       374  16  5.283871E+04  2.030181E+05  4.406520E+04  6.499186E+04 -1.228251E-11  8.152280E-11
       374  17  5.873979E+04  9.462372E+04  3.435034E+04  6.049425E+04  1.172348E-10  1.033637E-10
       374  18  3.615130E+04 -2.071236E+04  1.841964E+04  9.082168E+04  4.426071E-10  1.711083E-10
       374  19 -1.302858E+05 -5.345253E+05 -1.340681E+05  1.072282E+05  4.040657E+03  4.608562E+04
       374  20 -6.569131E+04 -4.170742E+05 -7.610523E+04  7.689011E+04  1.120462E+04  2.281007E+04
       374  21 -3.388573E+04 -3.108587E+05 -4.150616E+04  8.137800E+04  8.080931E+03 -4.669629E+02
       374  22 -3.871945E+04 -1.658163E+05 -4.499684E+04  8.611636E+04  4.032662E+03  3.132228E+04
       374  23 -3.473619E+03 -1.612559E+05 -2.087512E+04  6.869398E+04  1.120282E+04  2.037823E+04
       374  24  1.133473E+03 -1.657954E+05 -1.154247E+04  8.609934E+04  8.086268E+03  9.437283E+03
       374  25  5.283880E+04  2.030184E+05  4.406575E+04  6.499191E+04  4.025675E+03  1.655019E+04
       374  26  5.874002E+04  9.462410E+04  3.435118E+04  6.049441E+04  1.120108E+04  1.794540E+04
       374  27  3.615148E+04 -2.071195E+04  1.842046E+04  9.082181E+04  8.091755E+03  1.934380E+04
       375   1 -1.704079E+04 -2.283174E+05 -2.222425E+04  8.661975E+04 -3.386467E+03 -2.764521E+02
       375   2  1.140651E+04 -1.162820E+05  5.461189E+03  6.865750E+04  2.910607E+03  1.608732E+03
       375   3  3.881201E+04 -4.775116E+03  3.164807E+04  8.603236E+04  9.074731E+03  3.494612E+03
       375   4 -1.461599E+03 -1.638963E+05 -8.760863E+03  8.621619E+04 -3.390789E+03 -7.909850E+03
       375   5  2.619098E+01 -1.636140E+05 -4.100416E+03  6.854700E+04  2.906562E+03 -5.865397E+03
       375   6  4.453885E+02 -1.638992E+05 -1.048305E+03  8.621513E+04  9.070923E+03 -3.820573E+03
       375   7  1.411736E+04 -9.947120E+04  4.702512E+03  8.581258E+04 -3.395101E+03 -1.554403E+04
       375   8 -1.135424E+04 -2.109437E+05 -1.366193E+04  6.843650E+04  2.902520E+03 -1.333897E+04
       375   9 -3.792280E+04 -3.229992E+05 -3.374583E+04  8.639786E+04  9.067110E+03 -1.113392E+04
       375  10 -1.704080E+04 -2.283174E+05 -2.222427E+04  8.661975E+04  3.893443E-11  5.747231E-11
       375  11  1.140650E+04 -1.162820E+05  5.461168E+03  6.865749E+04 -2.473746E-10  1.106210E-10
       375  12  3.881192E+04 -4.775152E+03  3.164789E+04  8.603233E+04  2.145183E-10  3.020689E-10
       375  13 -1.461628E+03 -1.638964E+05 -8.761003E+03  8.621617E+04  2.401578E-10  2.384389E-10
       375  14  2.617267E+01 -1.636140E+05 -4.100497E+03  6.854701E+04 -4.148406E-10  1.451210E-10
       375  15  4.452962E+02 -1.638993E+05 -1.048487E+03  8.621516E+04 -1.600208E-10  2.322004E-10
       375  16  1.411728E+04 -9.947146E+04  4.702036E+03  8.581254E+04  4.614325E-11  5.221209E-11
       375  17 -1.135430E+04 -2.109439E+05 -1.366228E+04  6.843653E+04 -1.844781E-11 -2.422753E-10
       375  18 -3.792292E+04 -3.229993E+05 -3.374622E+04  8.639794E+04  1.670213E-10 -2.516419E-10
       375  19 -1.704079E+04 -2.283174E+05 -2.222425E+04  8.661975E+04  3.386467E+03  2.764521E+02
       375  20  1.140651E+04 -1.162820E+05  5.461189E+03  6.865750E+04 -2.910607E+03 -1.608732E+03
       375  21  3.881201E+04 -4.775116E+03  3.164807E+04  8.603236E+04 -9.074731E+03 -3.494612E+03
       375  22 -1.461599E+03 -1.638963E+05 -8.760863E+03  8.621619E+04  3.390789E+03  7.909850E+03
       375  23  2.619098E+01 -1.636140E+05 -4.100416E+03  6.854700E+04 -2.906562E+03  5.865397E+03
       375  24  4.453885E+02 -1.638992E+05 -1.048305E+03  8.621513E+04 -9.070923E+03  3.820573E+03
       375  25  1.411736E+04 -9.947120E+04  4.702512E+03  8.581258E+04  3.395101E+03  1.554403E+04
       375  26 -1.135424E+04 -2.109437E+05 -1.366193E+04  6.843650E+04 -2.902520E+03  1.333897E+04
       375  27 -3.792280E+04 -3.229992E+05 -3.374583E+04  8.639786E+04 -9.067110E+03  1.113392E+04
       376   1  5.764390E+04  7.645382E+04  4.934874E+04  8.517964E+04  1.385069E+04  6.481247E+03
       376   2  8.581325E+04  1.861643E+05  7.812745E+04  7.031075E+04  1.598608E+04 -1.034820E+04
       376   3  1.224104E+05  3.001842E+05  1.199664E+05  9.012472E+04  5.440394E+03 -2.717764E+04
       376   4 -1.598857E+02 -1.634112E+05  1.985415E+02  8.607061E+04  1.384587E+04 -3.700533E+03
       376   5  7.084989E+02 -1.642525E+05  3.017912E+03  6.872741E+04  1.598886E+04 -5.307640E+03
       376   6  7.365743E+03 -1.634348E+05  8.329498E+03  8.606779E+04  5.447677E+03 -6.911805E+03
       376   7 -5.796723E+04 -4.032213E+05 -4.895433E+04  8.696123E+04  1.384101E+04 -1.387845E+04
       376   8 -8.440427E+04 -5.145537E+05 -7.209869E+04  6.714496E+04  1.599162E+04 -2.698818E+02
       376   9 -1.076943E+05 -6.268563E+05 -1.033211E+05  8.201387E+04  5.454699E+03  1.333896E+04
       376  10  5.764368E+04  7.645372E+04  4.934830E+04  8.517956E+04  1.425400E-10 -4.129977E-11
       376  11  8.581295E+04  1.861641E+05  7.812677E+04  7.031089E+04 -1.138744E-10 -4.299381E-10
       376  12  1.224101E+05  3.001834E+05  1.199649E+05  9.012484E+04  6.232682E-11  4.058313E-11
       376  13 -1.600953E+02 -1.634112E+05  1.981555E+02  8.607065E+04  4.996432E-10  1.576202E-10
       376  14  7.082169E+02 -1.642526E+05  3.017379E+03  6.872748E+04 -2.167034E-10  6.346978E-11
       376  15  7.365698E+03 -1.634349E+05  8.329353E+03  8.606782E+04  1.530378E-10 -2.085998E-10
       376  16 -5.796748E+04 -4.032215E+05 -4.895505E+04  8.696138E+04 -4.859272E-11  2.519093E-10
       376  17 -8.440455E+04 -5.145538E+05 -7.209917E+04  6.714497E+04 -1.659506E-10  2.580209E-10
       376  18 -1.076943E+05 -6.268565E+05 -1.033215E+05  8.201381E+04  7.058442E-11  2.411114E-11
       376  19  5.764390E+04  7.645382E+04  4.934874E+04  8.517964E+04 -1.385069E+04 -6.481247E+03
       376  20  8.581325E+04  1.861643E+05  7.812745E+04  7.031075E+04 -1.598608E+04  1.034820E+04
       376  21  1.224104E+05  3.001842E+05  1.199664E+05  9.012472E+04 -5.440394E+03  2.717764E+04
       376  22 -1.598857E+02 -1.634112E+05  1.985415E+02  8.607061E+04 -1.384587E+04  3.700533E+03
       376  23  7.084989E+02 -1.642525E+05  3.017912E+03  6.872741E+04 -1.598886E+04  5.307640E+03
       376  24  7.365743E+03 -1.634348E+05  8.329498E+03  8.606779E+04 -5.447677E+03  6.911805E+03
       376  25 -5.796723E+04 -4.032213E+05 -4.895433E+04  8.696123E+04 -1.384101E+04  1.387845E+04
       376  26 -8.440427E+04 -5.145537E+05 -7.209869E+04  6.714496E+04 -1.599162E+04  2.698818E+02
       376  27 -1.076943E+05 -6.268563E+05 -1.033211E+05  8.201387E+04 -5.454699E+03 -1.333896E+04
       377   1  3.223031E+05  2.822040E+05  1.002454E+05  2.136051E+05  4.506257E+04  3.157026E+04
       377   2  3.110731E+05  2.181106E+05  5.743337E+04  2.270476E+05  3.051758E+04  1.570490E+04
       377   3  3.239177E+05  1.931619E+05  4.048052E+04  2.252273E+05  1.400524E+04  2.464438E+03
       377   4  2.617411E+05  1.848915E+05  7.001184E+04  1.586503E+05  3.967173E+04  2.752543E+04
       377   5  2.389135E+05  1.458505E+05  3.286654E+04  1.811370E+05  2.827833E+04  1.402519E+04
       377   6  2.394799E+05  1.452729E+05  1.884805E+04  1.883597E+05  1.491802E+04  3.148848E+03
       377   7  2.011838E+05  8.759226E+04  3.977754E+04  1.037036E+05  3.428147E+04  2.348193E+04
       377   8  1.667598E+05  7.359730E+04  8.299055E+03  1.352334E+05  2.603941E+04  1.234589E+04
       377   9  1.550513E+05  9.738699E+04 -2.784643E+03  1.514978E+05  1.583062E+04  3.833155E+03
       377  10  3.223007E+05  2.822024E+05  1.002397E+05  2.136040E+05  1.117663E-10  1.162480E-10
       377  11  3.110720E+05  2.181100E+05  5.743116E+04  2.270472E+05 -1.667834E-10  1.020578E-10
       377  12  3.239175E+05  1.931618E+05  4.048014E+04  2.252272E+05 -1.843598E-10 -1.334913E-11
       377  13  2.617392E+05  1.848902E+05  7.000747E+04  1.586495E+05 -2.431316E-11  5.859185E-11
       377  14  2.389126E+05  1.458500E+05  3.286466E+04  1.811366E+05  3.181029E-10 -1.687218E-10
       377  15  2.394797E+05  1.452729E+05  1.884761E+04  1.883597E+05 -2.542466E-10 -4.416771E-11
       377  16  2.011824E+05  8.759136E+04  3.977430E+04  1.037029E+05  9.506244E-11 -9.419885E-11
       377  17  1.667591E+05  7.359695E+04  8.297495E+03  1.352332E+05 -3.111466E-11 -3.318844E-10
       377  18  1.550510E+05  9.738691E+04 -2.785141E+03  1.514978E+05 -1.925830E-10  2.472653E-11
       377  19  3.223031E+05  2.822040E+05  1.002454E+05  2.136051E+05 -4.506257E+04 -3.157026E+04
       377  20  3.110731E+05  2.181106E+05  5.743337E+04  2.270476E+05 -3.051758E+04 -1.570490E+04
       377  21  3.239177E+05  1.931619E+05  4.048052E+04  2.252273E+05 -1.400524E+04 -2.464438E+03
       377  22  2.617411E+05  1.848915E+05  7.001184E+04  1.586503E+05 -3.967173E+04 -2.752543E+04
       377  23  2.389135E+05  1.458505E+05  3.286654E+04  1.811370E+05 -2.827833E+04 -1.402519E+04
       377  24  2.394799E+05  1.452729E+05  1.884805E+04  1.883597E+05 -1.491802E+04 -3.148848E+03
       377  25  2.011838E+05  8.759226E+04  3.977754E+04  1.037036E+05 -3.428147E+04 -2.348193E+04
       377  26  1.667598E+05  7.359730E+04  8.299055E+03  1.352334E+05 -2.603941E+04 -1.234589E+04
       377  27  1.550513E+05  9.738699E+04 -2.784643E+03  1.514978E+05 -1.583062E+04 -3.833155E+03
       378   1  3.105574E+05  1.986886E+05  3.507059E+04  2.215269E+05  1.226958E+04  1.784551E+03
       378   2  3.042662E+05  1.898295E+05  2.664681E+04  2.181798E+05  8.429160E+03 -5.997877E+02
       378   3  2.964789E+05  1.857400E+05  2.169067E+04  2.152146E+05  4.480247E+03 -2.839403E+03
       378   4  2.390258E+05  1.468264E+05  1.485108E+04  1.850519E+05  1.256227E+04  2.003880E+03
       378   5  2.393404E+05  1.436550E+05  8.587883E+03  1.854655E+05  8.896100E+03 -2.497661E+02
       378   6  2.381212E+05  1.452156E+05  5.641583E+03  1.862611E+05  5.121361E+03 -2.358741E+03
       378   7  1.674999E+05  9.496724E+04 -5.368957E+03  1.485817E+05  1.285491E+04  2.223174E+03
       378   8  1.744189E+05  9.748258E+04 -9.471602E+03  1.527549E+05  9.362978E+03  1.002080E+02
       378   9  1.797665E+05  1.046927E+05 -1.040808E+04  1.573102E+05  5.762403E+03 -1.878132E+03
       378  10  3.105572E+05  1.986885E+05  3.507030E+04  2.215269E+05  2.280208E-10 -7.912451E-11
       378  11  3.042661E+05  1.898295E+05  2.664667E+04  2.181798E+05  2.608941E-10 -1.552087E-10
       378  12  2.964788E+05  1.857400E+05  2.169061E+04  2.152146E+05 -3.671540E-11 -4.522147E-11
       378  13  2.390257E+05  1.468263E+05  1.485078E+04  1.850519E+05 -1.350682E-11  2.713641E-11
       378  14  2.393403E+05  1.436550E+05  8.587734E+03  1.854655E+05 -3.203190E-10 -6.273716E-11
       378  15  2.381211E+05  1.452156E+05  5.641524E+03  1.862611E+05  1.405721E-10 -6.712141E-11
       378  16  1.674998E+05  9.496719E+04 -5.369277E+03  1.485817E+05 -1.355232E-10  2.027770E-10
       378  17  1.744188E+05  9.748256E+04 -9.471767E+03  1.527549E+05 -1.412863E-10 -6.655136E-11
       378  18  1.797665E+05  1.046927E+05 -1.040815E+04  1.573102E+05  2.184393E-10  4.482289E-11
       378  19  3.105574E+05  1.986886E+05  3.507059E+04  2.215269E+05 -1.226958E+04 -1.784551E+03
       378  20  3.042662E+05  1.898295E+05  2.664681E+04  2.181798E+05 -8.429160E+03  5.997877E+02
       378  21  2.964789E+05  1.857400E+05  2.169067E+04  2.152146E+05 -4.480247E+03  2.839403E+03
       378  22  2.390258E+05  1.468264E+05  1.485108E+04  1.850519E+05 -1.256227E+04 -2.003880E+03
       378  23  2.393404E+05  1.436550E+05  8.587883E+03  1.854655E+05 -8.896100E+03  2.497661E+02
       378  24  2.381212E+05  1.452156E+05  5.641583E+03  1.862611E+05 -5.121361E+03  2.358741E+03
       378  25  1.674999E+05  9.496724E+04 -5.368957E+03  1.485817E+05 -1.285491E+04 -2.223174E+03
       378  26  1.744189E+05  9.748258E+04 -9.471602E+03  1.527549E+05 -9.362978E+03 -1.002080E+02
       378  27  1.797665E+05  1.046927E+05 -1.040808E+04  1.573102E+05 -5.762403E+03  1.878132E+03
       379   1  2.909051E+05  1.825263E+05  1.947295E+04  2.125914E+05  3.535486E+03 -3.066317E+03
       379   2  2.850372E+05  1.759254E+05  1.705077E+04  2.085528E+05  1.390573E+03 -3.879817E+03
       379   3  2.764780E+05  1.725782E+05  1.611794E+04  2.054456E+05 -7.598500E+02 -4.685904E+03
       379   4  2.380732E+05  1.452601E+05  4.890985E+03  1.861030E+05  4.141834E+03 -2.611704E+03
       379   5  2.394230E+05  1.436393E+05  4.430378E+03  1.856337E+05  2.005945E+03 -3.418415E+03
       379   6  2.380792E+05  1.452703E+05  5.451343E+03  1.860957E+05 -1.354960E+02 -4.217739E+03
       379   7  1.852451E+05  1.079959E+05 -9.691012E+03  1.596174E+05  4.748105E+03 -2.157150E+03
       379   8  1.938114E+05  1.113547E+05 -8.190110E+03  1.627167E+05  2.621251E+03 -2.957062E+03
       379   9  1.996821E+05  1.179632E+05 -5.215386E+03  1.667473E+05  4.888056E+02 -3.749613E+03
       379  10  2.909051E+05  1.825263E+05  1.947291E+04  2.125914E+05 -3.015300E-10 -8.802415E-11
       379  11  2.850372E+05  1.759254E+05  1.705074E+04  2.085528E+05 -2.901261E-10  1.235884E-13
       379  12  2.764780E+05  1.725782E+05  1.611789E+04  2.054456E+05 -3.137021E-10 -1.695901E-10
       379  13  2.380732E+05  1.452601E+05  4.890940E+03  1.861030E+05 -1.467771E-11 -1.164719E-10
       379  14  2.394230E+05  1.436393E+05  4.430348E+03  1.856337E+05  8.366201E-11  8.917228E-11
       379  15  2.380792E+05  1.452703E+05  5.451309E+03  1.860957E+05  2.831672E-10 -6.473744E-11
       379  16  1.852451E+05  1.079959E+05 -9.691063E+03  1.596174E+05  1.586329E-10  6.390083E-11
       379  17  1.938114E+05  1.113546E+05 -8.190139E+03  1.627167E+05  2.180770E-10  9.409661E-11
       379  18  1.996821E+05  1.179632E+05 -5.215413E+03  1.667473E+05 -7.470039E-11  1.471230E-10
       379  19  2.909051E+05  1.825263E+05  1.947295E+04  2.125914E+05 -3.535486E+03  3.066317E+03
       379  20  2.850372E+05  1.759254E+05  1.705077E+04  2.085528E+05 -1.390573E+03  3.879817E+03
       379  21  2.764780E+05  1.725782E+05  1.611794E+04  2.054456E+05  7.598500E+02  4.685904E+03
       379  22  2.380732E+05  1.452601E+05  4.890985E+03  1.861030E+05 -4.141834E+03  2.611704E+03
       379  23  2.394230E+05  1.436393E+05  4.430378E+03  1.856337E+05 -2.005945E+03  3.418415E+03
       379  24  2.380792E+05  1.452703E+05  5.451343E+03  1.860957E+05  1.354960E+02  4.217739E+03
       379  25  1.852451E+05  1.079959E+05 -9.691012E+03  1.596174E+05 -4.748105E+03  2.157150E+03
       379  26  1.938114E+05  1.113547E+05 -8.190110E+03  1.627167E+05 -2.621251E+03  2.957062E+03
       379  27  1.996821E+05  1.179632E+05 -5.215386E+03  1.667473E+05 -4.888056E+02  3.749613E+03
       380   1  2.709528E+05  1.693541E+05  1.572613E+04  2.032134E+05 -1.835456E+03 -5.019474E+03
       380   2  2.657201E+05  1.620064E+05  1.762531E+04  1.985394E+05 -6.360898E+03 -7.605762E+03
       380   3  2.592899E+05  1.597896E+05  2.354237E+04  1.941206E+05 -1.088320E+04 -1.019631E+04
       380   4  2.381471E+05  1.452170E+05  6.527787E+03  1.862990E+05 -1.212342E+03 -4.552218E+03
       380   5  2.393053E+05  1.436474E+05  1.037531E+04  1.854237E+05 -5.742709E+03 -7.142190E+03
       380   6  2.392672E+05  1.472098E+05  1.824515E+04  1.848034E+05 -1.026993E+04 -9.736445E+03
       380   7  2.053423E+05  1.210803E+05 -2.670811E+03  1.693854E+05 -5.892636E+02 -4.084991E+03
       380   8  2.128913E+05  1.252888E+05  3.125253E+03  1.723085E+05 -5.124555E+03 -6.678643E+03
       380   9  2.192452E+05  1.346305E+05  1.294798E+04  1.754868E+05 -9.656704E+03 -9.276601E+03
       380  10  2.709528E+05  1.693541E+05  1.572608E+04  2.032134E+05 -5.259310E-10 -2.325258E-10
       380  11  2.657200E+05  1.620063E+05  1.762513E+04  1.985394E+05 -1.257432E-10  9.915075E-11
       380  12  2.592898E+05  1.597894E+05  2.354195E+04  1.941205E+05  2.520465E-10  1.538504E-10
       380  13  2.381471E+05  1.452170E+05  6.527745E+03  1.862990E+05 -1.547642E-10 -3.264863E-11
       380  14  2.393052E+05  1.436473E+05  1.037516E+04  1.854236E+05 -2.458050E-10  6.023829E-11
       380  15  2.392671E+05  1.472097E+05  1.824477E+04  1.848034E+05  1.439871E-10 -8.162069E-11
       380  16  2.053423E+05  1.210802E+05 -2.670843E+03  1.693854E+05  4.005227E-10  2.425847E-10
       380  17  2.128912E+05  1.252888E+05  3.125120E+03  1.723085E+05  7.637666E-12  8.101234E-11
       380  18  2.192451E+05  1.346304E+05  1.294765E+04  1.754867E+05 -3.801696E-11 -3.314283E-10
       380  19  2.709528E+05  1.693541E+05  1.572613E+04  2.032134E+05  1.835456E+03  5.019474E+03
       380  20  2.657201E+05  1.620064E+05  1.762531E+04  1.985394E+05  6.360898E+03  7.605762E+03
       380  21  2.592899E+05  1.597896E+05  2.354237E+04  1.941206E+05  1.088320E+04  1.019631E+04
       380  22  2.381471E+05  1.452170E+05  6.527787E+03  1.862990E+05  1.212342E+03  4.552218E+03
       380  23  2.393053E+05  1.436474E+05  1.037531E+04  1.854237E+05  5.742709E+03  7.142190E+03
       380  24  2.392672E+05  1.472098E+05  1.824515E+04  1.848034E+05  1.026993E+04  9.736445E+03
       380  25  2.053423E+05  1.210803E+05 -2.670811E+03  1.693854E+05  5.892636E+02  4.084991E+03
       380  26  2.128913E+05  1.252888E+05  3.125253E+03  1.723085E+05  5.124555E+03  6.678643E+03
       380  27  2.192452E+05  1.346305E+05  1.294798E+04  1.754868E+05  9.656704E+03  9.276601E+03
       381   1  2.451900E+05  1.637777E+05  2.706579E+04  1.984332E+05 -1.365929E+04 -1.180244E+04
       381   2  2.610314E+05  1.357987E+05  4.250671E+04  1.790138E+05 -3.096310E+04 -2.401772E+04
       381   3  3.063539E+05  1.548844E+05  8.648521E+04  1.405340E+05 -4.820833E+04 -3.631076E+04
       381   4  2.397897E+05  1.453306E+05  2.323333E+04  1.889133E+05 -1.302793E+04 -1.132865E+04
       381   5  2.388277E+05  1.463102E+05  4.064833E+04  1.800488E+05 -3.042582E+04 -2.361606E+04
       381   6  2.673654E+05  1.943738E+05  8.668286E+04  1.521238E+05 -4.776446E+04 -3.598285E+04
       381   7  2.343895E+05  1.268842E+05  1.940089E+04  1.793936E+05 -1.239659E+04 -1.085489E+04
       381   8  2.166248E+05  1.568224E+05  3.879006E+04  1.810835E+05 -2.988856E+04 -2.321438E+04
       381   9  2.283810E+05  2.338690E+05  8.688142E+04  1.637125E+05 -4.732063E+04 -3.565487E+04
       381  10  2.451897E+05  1.637775E+05  2.706517E+04  1.984331E+05 -5.162127E-11 -2.255047E-10
       381  11  2.610303E+05  1.357978E+05  4.250383E+04  1.790132E+05  2.815849E-10  2.651862E-10
       381  12  3.063511E+05  1.548823E+05  8.647837E+04  1.405326E+05  1.574897E-10  2.059711E-10
       381  13  2.397894E+05  1.453304E+05  2.323277E+04  1.889132E+05 -3.960223E-12 -1.773189E-10
       381  14  2.388266E+05  1.463093E+05  4.064554E+04  1.800482E+05 -3.445817E-10  1.715603E-10
       381  15  2.673626E+05  1.943718E+05  8.667615E+04  1.521224E+05 -1.694945E-10  1.344294E-10
       381  16  2.343893E+05  1.268840E+05  1.940038E+04  1.793935E+05  2.968252E-10 -2.306501E-12
       381  17  2.166237E+05  1.568216E+05  3.878737E+04  1.810829E+05  2.363355E-10 -6.969895E-11
       381  18  2.283782E+05  2.338671E+05  8.687482E+04  1.637111E+05 -2.311829E-10 -1.975285E-10
       381  19  2.451900E+05  1.637777E+05  2.706579E+04  1.984332E+05  1.365929E+04  1.180244E+04
       381  20  2.610314E+05  1.357987E+05  4.250671E+04  1.790138E+05  3.096310E+04  2.401772E+04
       381  21  3.063539E+05  1.548844E+05  8.648521E+04  1.405340E+05  4.820833E+04  3.631076E+04
       381  22  2.397897E+05  1.453306E+05  2.323333E+04  1.889133E+05  1.302793E+04  1.132865E+04
       381  23  2.388277E+05  1.463102E+05  4.064833E+04  1.800488E+05  3.042582E+04  2.361606E+04
       381  24  2.673654E+05  1.943738E+05  8.668286E+04  1.521238E+05  4.776446E+04  3.598285E+04
       381  25  2.343895E+05  1.268842E+05  1.940089E+04  1.793936E+05  1.239659E+04  1.085489E+04
       381  26  2.166248E+05  1.568224E+05  3.879006E+04  1.810835E+05  2.988856E+04  2.321438E+04
       381  27  2.283810E+05  2.338690E+05  8.688142E+04  1.637125E+05  4.732063E+04  3.565487E+04
       382   1  6.579507E+05  1.229314E+05  1.216591E+05  7.164612E+04  3.141213E+04 -5.512741E+03
       382   2  5.715069E+05  8.782331E+04  8.338870E+04  5.430676E+04  1.332381E+04 -1.677128E+04
       382   3  4.907175E+05  6.578894E+04  6.015865E+04  6.274667E+04 -4.760890E+03 -1.612924E+04
       382   4  2.159120E+05  1.334027E+04  1.551171E+04  6.432579E+04  1.074120E+04 -5.512944E+03
       382   5  2.143358E+05  1.191639E+03  7.240029E+03  5.143625E+04  6.948557E+03 -1.677245E+04
       382   6  2.159319E+05 -3.587278E+02  4.090916E+03  6.432623E+04  3.157136E+03 -1.612854E+04
       382   7 -2.259470E+05 -9.626464E+04 -9.064789E+04  5.701068E+04 -9.915074E+03 -5.512660E+03
       382   8 -1.427151E+05 -8.544829E+04 -6.891584E+04  4.856742E+04  5.769144E+02 -1.677356E+04
       382   9 -5.878178E+04 -6.651107E+04 -5.198056E+04  6.590507E+04  1.107172E+04 -1.612780E+04
       382  10  6.579497E+05  1.229311E+05  1.216572E+05  7.164626E+04 -3.733492E-10  9.271001E-12
       382  11  5.715066E+05  8.782296E+04  8.338784E+04  5.430694E+04 -6.327966E-10  1.092726E-10
       382  12  4.907174E+05  6.578865E+04  6.015812E+04  6.274661E+04 -1.928655E-10  1.480978E-10
       382  13  2.159119E+05  1.334021E+04  1.551144E+04  6.432583E+04 -6.639536E-11  3.655607E-11
       382  14  2.143357E+05  1.191324E+03  7.239409E+03  5.143635E+04  1.467044E-10  1.249327E-10
       382  15  2.159318E+05 -3.590099E+02  4.090409E+03  6.432627E+04  1.081685E-10  7.761870E-11
       382  16 -2.259471E+05 -9.626470E+04 -9.064813E+04  5.701063E+04  2.083249E-10  4.963915E-12
       382  17 -1.427152E+05 -8.544859E+04 -6.891637E+04  4.856742E+04 -2.075247E-10  1.897922E-11
       382  18 -5.878198E+04 -6.651138E+04 -5.198128E+04  6.590522E+04  7.177883E-11  2.248693E-11
       382  19  6.579507E+05  1.229314E+05  1.216591E+05  7.164612E+04 -3.141213E+04  5.512741E+03
       382  20  5.715069E+05  8.782331E+04  8.338870E+04  5.430676E+04 -1.332381E+04  1.677128E+04
       382  21  4.907175E+05  6.578894E+04  6.015865E+04  6.274667E+04  4.760890E+03  1.612924E+04
       382  22  2.159120E+05  1.334027E+04  1.551171E+04  6.432579E+04 -1.074120E+04  5.512944E+03
       382  23  2.143358E+05  1.191639E+03  7.240029E+03  5.143625E+04 -6.948557E+03  1.677245E+04
       382  24  2.159319E+05 -3.587278E+02  4.090916E+03  6.432623E+04 -3.157136E+03  1.612854E+04
       382  25 -2.259470E+05 -9.626464E+04 -9.064789E+04  5.701068E+04  9.915074E+03  5.512660E+03
       382  26 -1.427151E+05 -8.544829E+04 -6.891584E+04  4.856742E+04 -5.769144E+02  1.677356E+04
       382  27 -5.878178E+04 -6.651107E+04 -5.198056E+04  6.590507E+04 -1.107172E+04  1.612780E+04
       383   1  4.297063E+05  5.217121E+04  4.699683E+04  6.465321E+04 -2.508296E+03 -1.249286E+04
       383   2  3.460718E+05  3.150858E+04  2.820999E+04  5.130782E+04 -4.100367E+03 -7.921310E+03
       383   3  2.627973E+05  1.144445E+04  1.060723E+04  6.435356E+04 -5.692940E+03 -2.724627E+03
       383   4  2.152825E+05  5.370611E+02  3.170547E+03  6.446218E+04  2.604888E+03 -1.249219E+04
       383   5  2.151743E+05  3.228136E+01  1.683965E+03  5.126652E+04  1.763293E+03 -7.920151E+03
       383   6  2.152895E+05 -3.726469E+00  8.609016E+02  6.446232E+04  9.209898E+02 -2.722898E+03
       383   7  9.024293E+02 -5.109995E+04 -4.065807E+04  6.427122E+04  7.716338E+03 -1.249152E+04
       383   8  8.429328E+04 -3.144506E+04 -2.484282E+04  5.122522E+04  7.625741E+03 -7.918994E+03
       383   9  1.677839E+05 -1.145203E+04 -8.885387E+03  6.457106E+04  7.534423E+03 -2.721167E+03
       383  10  4.297063E+05  5.217104E+04  4.699652E+04  6.465319E+04 -8.925304E-11  1.412836E-10
       383  11  3.460718E+05  3.150850E+04  2.820984E+04  5.130779E+04 -4.090550E-11 -1.423638E-10
       383  12  2.627973E+05  1.144444E+04  1.060716E+04  6.435355E+04  3.527833E-10 -1.756197E-10
       383  13  2.152825E+05  5.368917E+02  3.170241E+03  6.446221E+04  1.318678E-10  7.116051E-11
       383  14  2.151743E+05  3.221316E+01  1.683841E+03  5.126653E+04  1.110308E-10  7.472644E-11
       383  15  2.152895E+05 -3.734659E+00  8.608861E+02  6.446232E+04  2.880874E-11 -8.030692E-11
       383  16  9.023235E+02 -5.110014E+04 -4.065847E+04  6.427130E+04  2.437459E-10  1.412537E-11
       383  17  8.429320E+04 -3.144514E+04 -2.484305E+04  5.122527E+04 -3.944436E-10 -1.928029E-10
       383  18  1.677839E+05 -1.145205E+04 -8.885508E+03  6.457108E+04 -1.766818E-10 -1.955124E-11
       383  19  4.297063E+05  5.217121E+04  4.699683E+04  6.465321E+04  2.508296E+03  1.249286E+04
       383  20  3.460718E+05  3.150858E+04  2.820999E+04  5.130782E+04  4.100367E+03  7.921310E+03
       383  21  2.627973E+05  1.144445E+04  1.060723E+04  6.435356E+04  5.692940E+03  2.724627E+03
       383  22  2.152825E+05  5.370611E+02  3.170547E+03  6.446218E+04 -2.604888E+03  1.249219E+04
       383  23  2.151743E+05  3.228136E+01  1.683965E+03  5.126652E+04 -1.763293E+03  7.920151E+03
       383  24  2.152895E+05 -3.726469E+00  8.609016E+02  6.446232E+04 -9.209898E+02  2.722898E+03
       383  25  9.024293E+02 -5.109995E+04 -4.065807E+04  6.427122E+04 -7.716338E+03  1.249152E+04
       383  26  8.429328E+04 -3.144506E+04 -2.484282E+04  5.122522E+04 -7.625741E+03  7.918994E+03
       383  27  1.677839E+05 -1.145203E+04 -8.885387E+03  6.457106E+04 -7.534423E+03  2.721167E+03
       384   1  2.027760E+05 -2.989285E+03 -2.130099E+03  6.440664E+04 -5.808351E+03  5.299866E+02
       384   2  1.194021E+05 -2.305237E+04 -1.938781E+04  5.123523E+04 -5.158477E+03  5.743904E+03
       384   3  3.589954E+04 -4.330000E+04 -3.711689E+04  6.445746E+04 -4.508163E+03  1.038429E+04
       384   4  2.152365E+05  4.210248E+01  5.689963E+02  6.446272E+04  7.936520E+02  5.317453E+02
       384   5  2.152426E+05  5.674824E+00  7.948568E+01  5.126604E+04  7.547839E+02  5.745204E+03
       384   6  2.152316E+05 -9.568957E+01 -4.034032E+02  6.446276E+04  7.164509E+02  1.038519E+04
       384   7  2.276973E+05  3.073503E+03  3.268246E+03  6.451880E+04  7.395786E+03  5.335053E+02
       384   8  3.110919E+05  2.306316E+04  1.954644E+04  5.129686E+04  6.668940E+03  5.746503E+03
       384   9  3.945942E+05  4.310662E+04  3.630848E+04  6.446805E+04  5.942546E+03  1.038610E+04
       384  10  2.027760E+05 -2.989295E+03 -2.130163E+03  6.440664E+04 -2.994160E-10 -2.388254E-10
       384  11  1.194021E+05 -2.305241E+04 -1.938792E+04  5.123525E+04 -6.199188E-11  3.918390E-10
       384  12  3.589949E+04 -4.330012E+04 -3.711713E+04  6.445750E+04  1.774790E-10  1.790676E-10
       384  13  2.152365E+05  4.210201E+01  5.689946E+02  6.446272E+04  3.489540E-10 -1.849462E-10
       384  14  2.152426E+05  5.639224E+00  7.942258E+01  5.126604E+04 -4.198866E-10 -1.041934E-10
       384  15  2.152316E+05 -9.580553E+01 -4.036068E+02  6.446275E+04 -1.818131E-10  2.346559E-10
       384  16  2.276973E+05  3.073488E+03  3.268143E+03  6.451880E+04  3.226538E-10 -1.044822E-10
       384  17  3.110918E+05  2.306311E+04  1.954629E+04  5.129683E+04 -1.684539E-10 -5.070481E-11
       384  18  3.945942E+05  4.310650E+04  3.630821E+04  6.446800E+04 -1.844802E-10  1.632122E-10
       384  19  2.027760E+05 -2.989285E+03 -2.130099E+03  6.440664E+04  5.808351E+03 -5.299866E+02
       384  20  1.194021E+05 -2.305237E+04 -1.938781E+04  5.123523E+04  5.158477E+03 -5.743904E+03
       384  21  3.589954E+04 -4.330000E+04 -3.711689E+04  6.445746E+04  4.508163E+03 -1.038429E+04
       384  22  2.152365E+05  4.210248E+01  5.689963E+02  6.446272E+04 -7.936520E+02 -5.317453E+02
       384  23  2.152426E+05  5.674824E+00  7.948568E+01  5.126604E+04 -7.547839E+02 -5.745204E+03
       384  24  2.152316E+05 -9.568957E+01 -4.034032E+02  6.446276E+04 -7.164509E+02 -1.038519E+04
       384  25  2.276973E+05  3.073503E+03  3.268246E+03  6.451880E+04 -7.395786E+03 -5.335053E+02
       384  26  3.110919E+05  2.306316E+04  1.954644E+04  5.129686E+04 -6.668940E+03 -5.746503E+03
       384  27  3.945942E+05  4.310662E+04  3.630848E+04  6.446805E+04 -5.942546E+03 -1.038610E+04
       385   1 -2.453650E+04 -5.763915E+04 -4.962195E+04  6.397689E+04 -7.029086E+03  1.398886E+04
       385   2 -1.066595E+05 -7.842312E+04 -7.016998E+04  5.197318E+04  6.918449E+03  1.499662E+04
       385   3 -1.916702E+05 -1.036022E+05 -1.008940E+05  6.579014E+04  2.086357E+04  4.983818E+03
       385   4  2.150976E+05  7.772437E+01 -6.491322E+02  6.433532E+04  7.891158E+02  1.398989E+04
       385   5  2.153876E+05 -2.583294E+02 -1.377611E+03  5.142539E+04  1.514807E+03  1.499552E+04
       385   6  2.150812E+05 -2.692198E+03 -3.099187E+03  6.433550E+04  2.239838E+03  4.983127E+03
       385   7  4.547863E+05  5.779103E+04  4.832088E+04  6.469388E+04  8.610280E+03  1.399093E+04
       385   8  5.375325E+05  7.789971E+04  6.740887E+04  5.087730E+04 -3.891597E+03  1.499443E+04
       385   9  6.219847E+05  9.820592E+04  9.468516E+04  6.287990E+04 -1.639605E+04  4.982524E+03
       385  10 -2.453661E+04 -5.763937E+04 -4.962241E+04  6.397697E+04  2.576761E-10  2.359154E-10
       385  11 -1.066596E+05 -7.842337E+04 -7.017050E+04  5.197310E+04 -2.856868E-10  7.738647E-11
       385  12 -1.916706E+05 -1.036023E+05 -1.008949E+05  6.579005E+04 -4.390557E-11  9.175832E-12
       385  13  2.150975E+05  7.751402E+01 -6.495012E+02  6.433531E+04  1.167870E-10  2.810988E-10
       385  14  2.153876E+05 -2.585715E+02 -1.378038E+03  5.142537E+04  1.221756E-10  1.543198E-10
       385  15  2.150812E+05 -2.692226E+03 -3.099243E+03  6.433549E+04  7.983801E-11 -6.437684E-11
       385  16  4.547862E+05  5.779080E+04  4.832037E+04  6.469378E+04  7.466391E-11  2.898544E-10
       385  17  5.375324E+05  7.789947E+04  6.740842E+04  5.087735E+04  1.616006E-10  7.609314E-11
       385  18  6.219844E+05  9.820583E+04  9.468461E+04  6.287996E+04  1.269240E-11 -2.565953E-12
       385  19 -2.453650E+04 -5.763915E+04 -4.962195E+04  6.397689E+04  7.029086E+03 -1.398886E+04
       385  20 -1.066595E+05 -7.842312E+04 -7.016998E+04  5.197318E+04 -6.918449E+03 -1.499662E+04
       385  21 -1.916702E+05 -1.036022E+05 -1.008940E+05  6.579014E+04 -2.086357E+04 -4.983818E+03
       385  22  2.150976E+05  7.772437E+01 -6.491322E+02  6.433532E+04 -7.891158E+02 -1.398989E+04
       385  23  2.153876E+05 -2.583294E+02 -1.377611E+03  5.142539E+04 -1.514807E+03 -1.499552E+04
       385  24  2.150812E+05 -2.692198E+03 -3.099187E+03  6.433550E+04 -2.239838E+03 -4.983127E+03
       385  25  4.547863E+05  5.779103E+04  4.832088E+04  6.469388E+04 -8.610280E+03 -1.399093E+04
       385  26  5.375325E+05  7.789971E+04  6.740887E+04  5.087730E+04  3.891597E+03 -1.499443E+04
       385  27  6.219847E+05  9.820592E+04  9.468516E+04  6.287990E+04  1.639605E+04 -4.982524E+03
       386   1 -1.446221E+05 -5.472606E+05 -1.538646E+05  1.122306E+05 -3.307643E+03 -6.608315E+04
       386   2 -5.689379E+04 -4.413195E+05 -8.325849E+04  7.424833E+04 -9.043172E+03 -3.582695E+04
       386   3 -2.528282E+04 -3.533531E+05 -4.639463E+04  6.647557E+04 -6.197557E+03 -5.567137E+03
       386   4 -6.854673E+04 -2.409401E+05 -7.981848E+04  7.465513E+04 -3.299902E+03 -5.405903E+04
       386   5 -6.175620E+03 -2.328351E+05 -3.817300E+04  5.953797E+04 -9.041498E+03 -3.408644E+04
       386   6  1.874673E+03 -2.409198E+05 -2.311510E+04  7.463403E+04 -6.201025E+03 -1.411537E+04
       386   7  7.527202E+03  6.546951E+04 -5.777834E+03  3.706106E+04 -3.293620E+03 -4.202899E+04
       386   8  4.454050E+04 -2.430948E+04  6.910039E+03  4.482260E+04 -9.039907E+03 -3.234535E+04
       386   9  2.903165E+04 -1.284743E+05  1.640439E+02  8.279400E+04 -6.204717E+03 -2.266512E+04
       386  10 -1.446233E+05 -5.472653E+05 -1.538728E+05  1.122304E+05  3.088623E-11 -1.242402E-10
       386  11 -5.689422E+04 -4.413209E+05 -8.326106E+04  7.424807E+04 -6.161830E-11 -1.537591E-10
       386  12 -2.528287E+04 -3.533531E+05 -4.639476E+04  6.647555E+04 -1.556434E-10  4.944107E-11
       386  13 -6.854752E+04 -2.409433E+05 -7.982399E+04  7.465498E+04 -1.943317E-10  1.035780E-10
       386  14 -6.176020E+03 -2.328364E+05 -3.817534E+04  5.953772E+04  1.642058E-10 -3.350737E-10
       386  15  1.874578E+03 -2.409200E+05 -2.311555E+04  7.463396E+04 -9.536616E-11  6.201100E-11
       386  16  7.526717E+03  6.546761E+04 -5.781173E+03  3.706094E+04 -3.456307E-11  2.108435E-10
       386  17  4.454013E+04 -2.431062E+04  6.907920E+03  4.482236E+04 -2.694064E-10 -1.396249E-12
       386  18  2.903147E+04 -1.284748E+05  1.630061E+02  8.279388E+04  7.265713E-11 -1.059546E-10
       386  19 -1.446221E+05 -5.472606E+05 -1.538646E+05  1.122306E+05  3.307643E+03  6.608315E+04
       386  20 -5.689379E+04 -4.413195E+05 -8.325849E+04  7.424833E+04  9.043172E+03  3.582695E+04
       386  21 -2.528282E+04 -3.533531E+05 -4.639463E+04  6.647557E+04  6.197557E+03  5.567137E+03
       386  22 -6.854673E+04 -2.409401E+05 -7.981848E+04  7.465513E+04  3.299902E+03  5.405903E+04
       386  23 -6.175620E+03 -2.328351E+05 -3.817300E+04  5.953797E+04  9.041498E+03  3.408644E+04
       386  24  1.874673E+03 -2.409198E+05 -2.311510E+04  7.463403E+04  6.201025E+03  1.411537E+04
       386  25  7.527202E+03  6.546951E+04 -5.777834E+03  3.706106E+04  3.293620E+03  4.202899E+04
       386  26  4.454050E+04 -2.430948E+04  6.910039E+03  4.482260E+04  9.039907E+03  3.234535E+04
       386  27  2.903165E+04 -1.284743E+05  1.640439E+02  8.279400E+04  6.204717E+03  2.266512E+04
       387   1 -1.287800E+04 -2.802615E+05 -2.813821E+04  7.591222E+04 -2.137819E+03 -4.185946E+03
       387   2  1.297427E+04 -1.824621E+05 -2.892648E+03  5.949014E+04  3.342441E+03  2.556241E+03
       387   3  3.516391E+04 -8.646714E+04  1.704039E+04  7.370423E+04  8.670012E+03  9.299807E+03
       387   4 -2.577197E+03 -2.377310E+05 -1.917119E+04  7.473232E+04 -2.140591E+03 -1.084861E+04
       387   5 -9.385600E+01 -2.368100E+05 -1.387241E+04  5.941381E+04  3.339919E+03 -3.923563E+03
       387   6 -1.304382E+03 -2.377340E+05 -1.401262E+04  7.473182E+04  8.667729E+03  3.001854E+03
       387   7  7.723519E+03 -1.951987E+05 -1.020411E+04  7.355233E+04 -2.143338E+03 -1.751173E+04
       387   8 -1.316214E+04 -2.911551E+05 -2.485217E+04  5.933749E+04  3.337398E+03 -1.040281E+04
       387   9 -3.777408E+04 -3.889790E+05 -4.506671E+04  7.575916E+04  8.665425E+03 -3.294592E+03
       387  10 -1.287801E+04 -2.802615E+05 -2.813826E+04  7.591222E+04 -1.660118E-10 -4.948072E-10
       387  11  1.297425E+04 -1.824621E+05 -2.892681E+03  5.949013E+04 -3.950427E-10 -1.992560E-10
       387  12  3.516380E+04 -8.646725E+04  1.704009E+04  7.370417E+04  1.719745E-10  2.618683E-10
       387  13 -2.577233E+03 -2.377311E+05 -1.917142E+04  7.473230E+04  6.141712E-11  6.522597E-11
       387  14 -9.387211E+01 -2.368101E+05 -1.387246E+04  5.941382E+04 -4.829400E-10  5.141009E-11
       387  15 -1.304465E+03 -2.377340E+05 -1.401278E+04  7.473180E+04 -3.603189E-10  1.720675E-10
       387  16  7.723432E+03 -1.951991E+05 -1.020469E+04  7.355230E+04  1.958366E-10  5.983300E-10
       387  17 -1.316218E+04 -2.911552E+05 -2.485239E+04  5.933752E+04  1.876315E-10  6.121257E-11
       387  18 -3.777417E+04 -3.889790E+05 -4.506687E+04  7.575918E+04 -2.006645E-10 -4.578681E-10
       387  19 -1.287800E+04 -2.802615E+05 -2.813821E+04  7.591222E+04  2.137819E+03  4.185946E+03
       387  20  1.297427E+04 -1.824621E+05 -2.892648E+03  5.949014E+04 -3.342441E+03 -2.556241E+03
       387  21  3.516391E+04 -8.646714E+04  1.704039E+04  7.370423E+04 -8.670012E+03 -9.299807E+03
       387  22 -2.577197E+03 -2.377310E+05 -1.917119E+04  7.473232E+04  2.140591E+03  1.084861E+04
       387  23 -9.385600E+01 -2.368100E+05 -1.387241E+04  5.941381E+04 -3.339919E+03  3.923563E+03
       387  24 -1.304382E+03 -2.377340E+05 -1.401262E+04  7.473182E+04 -8.667729E+03 -3.001854E+03
       387  25  7.723519E+03 -1.951987E+05 -1.020411E+04  7.355233E+04  2.143338E+03  1.751173E+04
       387  26 -1.316214E+04 -2.911551E+05 -2.485217E+04  5.933749E+04 -3.337398E+03  1.040281E+04
       387  27 -3.777408E+04 -3.889790E+05 -4.506671E+04  7.575916E+04 -8.665425E+03  3.294592E+03
       388   1  5.433112E+04 -1.805674E+04  3.005050E+04  7.900762E+04  1.282278E+04  1.419532E+04
       388   2  7.361076E+04  8.222165E+04  4.572025E+04  5.140588E+04  1.454249E+04  1.217532E+04
       388   3  6.530794E+04  1.758875E+05  5.581101E+04  5.384899E+04  4.927944E+03  1.015645E+04
       388   4  1.005382E+03 -2.393258E+05 -1.526187E+04  7.459927E+04  1.281981E+04  5.327389E+03
       388   5 -3.384617E+03 -2.348441E+05 -2.219295E+04  5.958012E+04  1.454449E+04  1.690573E+04
       388   6 -3.772601E+04 -2.393491E+05 -4.415091E+04  7.460828E+04  4.932207E+03  2.848515E+04
       388   7 -5.232332E+04 -4.605481E+05 -6.057655E+04  7.019251E+04  1.281697E+04 -3.537440E+03
       388   8 -8.038631E+04 -5.518151E+05 -9.011188E+04  6.775012E+04  1.454661E+04  2.163375E+04
       388   9 -1.407707E+05 -6.544263E+05 -1.441236E+05  9.535362E+04  4.937699E+03  4.680163E+04
       388  10  5.433089E+04 -1.805700E+04  3.004981E+04  7.900747E+04 -4.005702E-11  1.118232E-10
       388  11  7.361049E+04  8.222143E+04  4.571957E+04  5.140573E+04  7.744434E-11 -8.513789E-11
       388  12  6.530789E+04  1.758874E+05  5.581077E+04  5.384895E+04 -9.969259E-12  1.776140E-11
       388  13  1.005198E+03 -2.393259E+05 -1.526224E+04  7.459921E+04 -3.193272E-11  9.518994E-11
       388  14 -3.384921E+03 -2.348445E+05 -2.219388E+04  5.957992E+04 -7.358186E-11  1.602486E-10
       388  15 -3.772625E+04 -2.393500E+05 -4.415248E+04  7.460817E+04  1.826717E-10 -3.105111E-11
       388  16 -5.232350E+04 -4.605482E+05 -6.057688E+04  7.019255E+04 -1.485965E-10 -5.852463E-11
       388  17 -8.038666E+04 -5.518156E+05 -9.011315E+04  6.774986E+04 -5.040160E-11 -1.745386E-11
       388  18 -1.407713E+05 -6.544287E+05 -1.441278E+05  9.535344E+04  2.269143E-10  1.119566E-11
       388  19  5.433112E+04 -1.805674E+04  3.005050E+04  7.900762E+04 -1.282278E+04 -1.419532E+04
       388  20  7.361076E+04  8.222165E+04  4.572025E+04  5.140588E+04 -1.454249E+04 -1.217532E+04
       388  21  6.530794E+04  1.758875E+05  5.581101E+04  5.384899E+04 -4.927944E+03 -1.015645E+04
       388  22  1.005382E+03 -2.393258E+05 -1.526187E+04  7.459927E+04 -1.281981E+04 -5.327389E+03
       388  23 -3.384617E+03 -2.348441E+05 -2.219295E+04  5.958012E+04 -1.454449E+04 -1.690573E+04
       388  24 -3.772601E+04 -2.393491E+05 -4.415091E+04  7.460828E+04 -4.932207E+03 -2.848515E+04
       388  25 -5.232332E+04 -4.605481E+05 -6.057655E+04  7.019251E+04 -1.281697E+04  3.537440E+03
       388  26 -8.038631E+04 -5.518151E+05 -9.011188E+04  6.775012E+04 -1.454661E+04 -2.163375E+04
       388  27 -1.407707E+05 -6.544263E+05 -1.441236E+05  9.535362E+04 -4.937699E+03 -4.680163E+04
       389   1  3.418621E+05  2.770997E+05  8.499958E+04  2.350720E+05  4.418340E+04  3.240605E+04
       389   2  3.371877E+05  2.159660E+05  4.380117E+04  2.545319E+05  2.916293E+04  1.939452E+04
       389   3  3.617446E+05  1.932883E+05  2.852310E+04  2.563318E+05  1.358904E+04  7.121698E+03
       389   4  3.493269E+05  2.233463E+05  7.618143E+04  2.115892E+05  4.239803E+04  3.106349E+04
       389   5  3.226940E+05  1.826618E+05  3.572952E+04  2.365856E+05  2.826238E+04  1.871831E+04
       389   6  3.251007E+05  1.802399E+05  2.042990E+04  2.439219E+05  1.357402E+04  7.110655E+03
       389   7  3.567938E+05  1.696003E+05  6.736401E+04  1.881070E+05  4.061263E+04  2.972123E+04
       389   8  3.082010E+05  1.493597E+05  2.765797E+04  2.186402E+05  2.736186E+04  1.804219E+04
       389   9  2.884585E+05  1.671918E+05  1.233664E+04  2.315126E+05  1.355899E+04  7.099613E+03
       389  10  3.418597E+05  2.770980E+05  8.499394E+04  2.350708E+05 -1.390562E-12  7.691544E-11
       389  11  3.371867E+05  2.159653E+05  4.379887E+04  2.545314E+05 -1.037736E-10  7.345839E-11
       389  12  3.617444E+05  1.932881E+05  2.852266E+04  2.563318E+05  2.208734E-10 -6.780518E-11
       389  13  3.493247E+05  2.233448E+05  7.617624E+04  2.115882E+05 -1.262997E-10  4.364334E-11
       389  14  3.226931E+05  1.826612E+05  3.572736E+04  2.365851E+05  3.105022E-10  4.632446E-11
       389  15  3.251005E+05  1.802398E+05  2.042946E+04  2.439219E+05 -7.619363E-12  6.974167E-11
       389  16  3.567918E+05  1.695989E+05  6.735926E+04  1.881060E+05 -2.062265E-10  2.192799E-12
       389  17  3.082001E+05  1.493592E+05  2.765595E+04  2.186398E+05  1.946182E-10 -5.340318E-11
       389  18  2.884582E+05  1.671917E+05  1.233620E+04  2.315126E+05  1.273624E-10 -3.967352E-12
       389  19  3.418621E+05  2.770997E+05  8.499958E+04  2.350720E+05 -4.418340E+04 -3.240605E+04
       389  20  3.371877E+05  2.159660E+05  4.380117E+04  2.545319E+05 -2.916293E+04 -1.939452E+04
       389  21  3.617446E+05  1.932883E+05  2.852310E+04  2.563318E+05 -1.358904E+04 -7.121698E+03
       389  22  3.493269E+05  2.233463E+05  7.618143E+04  2.115892E+05 -4.239803E+04 -3.106349E+04
       389  23  3.226940E+05  1.826618E+05  3.572952E+04  2.365856E+05 -2.826238E+04 -1.871831E+04
       389  24  3.251007E+05  1.802399E+05  2.042990E+04  2.439219E+05 -1.357402E+04 -7.110655E+03
       389  25  3.567938E+05  1.696003E+05  6.736401E+04  1.881070E+05 -4.061263E+04 -2.972123E+04
       389  26  3.082010E+05  1.493597E+05  2.765797E+04  2.186402E+05 -2.736186E+04 -1.804219E+04
       389  27  2.884585E+05  1.671918E+05  1.233664E+04  2.315126E+05 -1.355899E+04 -7.099613E+03
       390   1  3.536914E+05  2.038332E+05  2.438418E+04  2.555367E+05  1.155291E+04  5.564405E+03
       390   2  3.539191E+05  2.023599E+05  1.772069E+04  2.568963E+05  7.955043E+03  2.652652E+03
       390   3  3.561916E+05  2.023241E+05  1.464279E+04  2.575808E+05  4.326670E+03 -2.184815E+02
       390   4  3.246335E+05  1.818997E+05  1.604977E+04  2.403128E+05  1.136354E+04  5.422379E+03
       390   5  3.231243E+05  1.803105E+05  9.144431E+03  2.413075E+05  7.814652E+03  2.547364E+03
       390   6  3.236494E+05  1.801482E+05  5.782279E+03  2.416271E+05  4.235315E+03 -2.869977E+02
       390   7  2.955762E+05  1.599664E+05  7.715148E+03  2.250895E+05  1.117418E+04  5.280361E+03
       390   8  2.923306E+05  1.582617E+05  5.680824E+02  2.257196E+05  7.674269E+03  2.442082E+03
       390   9  2.911088E+05  1.579732E+05 -3.078194E+03  2.256745E+05  4.143969E+03 -3.555083E+02
       390  10  3.536912E+05  2.038331E+05  2.438387E+04  2.555366E+05  1.679920E-10  6.961414E-11
       390  11  3.539190E+05  2.023599E+05  1.772055E+04  2.568963E+05  4.633841E-10 -3.976144E-11
       390  12  3.561915E+05  2.023240E+05  1.464276E+04  2.575808E+05  2.135996E-10 -1.511538E-10
       390  13  3.246334E+05  1.818996E+05  1.604947E+04  2.403127E+05  2.355601E-10  7.803474E-11
       390  14  3.231243E+05  1.803105E+05  9.144304E+03  2.413075E+05  9.075678E-11 -1.015833E-10
       390  15  3.236494E+05  1.801482E+05  5.782245E+03  2.416271E+05  3.813413E-10 -4.551309E-12
       390  16  2.955761E+05  1.599663E+05  7.714861E+03  2.250895E+05 -2.035824E-10 -1.212554E-10
       390  17  2.923306E+05  1.582617E+05  5.679606E+02  2.257196E+05 -9.772652E-11 -3.184377E-11
       390  18  2.911088E+05  1.579732E+05 -3.078226E+03  2.256745E+05  4.747345E-10  1.047763E-10
       390  19  3.536914E+05  2.038332E+05  2.438418E+04  2.555367E+05 -1.155291E+04 -5.564405E+03
       390  20  3.539191E+05  2.023599E+05  1.772069E+04  2.568963E+05 -7.955043E+03 -2.652652E+03
       390  21  3.561916E+05  2.023241E+05  1.464279E+04  2.575808E+05 -4.326670E+03  2.184815E+02
       390  22  3.246335E+05  1.818997E+05  1.604977E+04  2.403128E+05 -1.136354E+04 -5.422379E+03
       390  23  3.231243E+05  1.803105E+05  9.144431E+03  2.413075E+05 -7.814652E+03 -2.547364E+03
       390  24  3.236494E+05  1.801482E+05  5.782279E+03  2.416271E+05 -4.235315E+03  2.869977E+02
       390  25  2.955762E+05  1.599664E+05  7.715148E+03  2.250895E+05 -1.117418E+04 -5.280361E+03
       390  26  2.923306E+05  1.582617E+05  5.680824E+02  2.257196E+05 -7.674269E+03 -2.442082E+03
       390  27  2.911088E+05  1.579732E+05 -3.078194E+03  2.256745E+05 -4.143969E+03  3.555083E+02
       391   1  3.565184E+05  2.033353E+05  1.393832E+04  2.579168E+05  3.616941E+03 -8.215107E+02
       391   2  3.571962E+05  2.042934E+05  1.338610E+04  2.585367E+05  2.089249E+03 -2.095669E+03
       391   3  3.586073E+05  2.050255E+05  1.417625E+04  2.590742E+05  5.575363E+02 -3.364483E+03
       391   4  3.235924E+05  1.801939E+05  4.850601E+03  2.414489E+05  3.514762E+03 -8.981484E+02
       391   5  3.232247E+05  1.803045E+05  3.997166E+03  2.414926E+05  1.993611E+03 -2.167406E+03
       391   6  3.235890E+05  1.801877E+05  4.480488E+03  2.414538E+05  4.684337E+02 -3.431322E+03
       391   7  2.906676E+05  1.570532E+05 -4.237232E+03  2.249821E+05  3.412590E+03 -9.747806E+02
       391   8  2.892543E+05  1.563161E+05 -5.391963E+03  2.244494E+05  1.897980E+03 -2.239138E+03
       391   9  2.885716E+05  1.553502E+05 -5.215553E+03  2.238342E+05  3.793367E+02 -3.498158E+03
       391  10  3.565184E+05  2.033352E+05  1.393830E+04  2.579168E+05  2.026491E-10 -2.328072E-11
       391  11  3.571962E+05  2.042934E+05  1.338609E+04  2.585367E+05  2.417565E-11  4.059223E-11
       391  12  3.586073E+05  2.050254E+05  1.417623E+04  2.590742E+05 -1.468445E-10  6.542412E-12
       391  13  3.235924E+05  1.801939E+05  4.850576E+03  2.414489E+05  2.730175E-11  6.224950E-11
       391  14  3.232247E+05  1.803045E+05  3.997149E+03  2.414926E+05  2.759107E-10 -1.772240E-11
       391  15  3.235890E+05  1.801876E+05  4.480465E+03  2.414538E+05  2.575369E-10 -1.545292E-11
       391  16  2.906676E+05  1.570532E+05 -4.237256E+03  2.249821E+05 -1.016419E-11  1.566714E-10
       391  17  2.892543E+05  1.563161E+05 -5.391980E+03  2.244494E+05  4.628473E-10  8.724450E-11
       391  18  2.885716E+05  1.553502E+05 -5.215576E+03  2.238342E+05  1.302588E-10 -1.146428E-10
       391  19  3.565184E+05  2.033353E+05  1.393832E+04  2.579168E+05 -3.616941E+03  8.215107E+02
       391  20  3.571962E+05  2.042934E+05  1.338610E+04  2.585367E+05 -2.089249E+03  2.095669E+03
       391  21  3.586073E+05  2.050255E+05  1.417625E+04  2.590742E+05 -5.575363E+02  3.364483E+03
       391  22  3.235924E+05  1.801939E+05  4.850601E+03  2.414489E+05 -3.514762E+03  8.981484E+02
       391  23  3.232247E+05  1.803045E+05  3.997166E+03  2.414926E+05 -1.993611E+03  2.167406E+03
       391  24  3.235890E+05  1.801877E+05  4.480488E+03  2.414538E+05 -4.684337E+02  3.431322E+03
       391  25  2.906676E+05  1.570532E+05 -4.237232E+03  2.249821E+05 -3.412590E+03  9.747806E+02
       391  26  2.892543E+05  1.563161E+05 -5.391963E+03  2.244494E+05 -1.897980E+03  2.239138E+03
       391  27  2.885716E+05  1.553502E+05 -5.215553E+03  2.238342E+05 -3.793367E+02  3.498158E+03
       392   1  3.591077E+05  2.059093E+05  1.512200E+04  2.597299E+05 -7.668898E+01 -3.917594E+03
       392   2  3.602924E+05  2.063284E+05  1.822024E+04  2.598650E+05 -3.291223E+03 -6.415302E+03
       392   3  3.633131E+05  2.079159E+05  2.446175E+04  2.594052E+05 -6.553590E+03 -8.849145E+03
       392   4  3.236345E+05  1.801456E+05  5.196713E+03  2.416010E+05 -1.818857E+02 -3.996502E+03
       392   5  3.231461E+05  1.803195E+05  7.963768E+03  2.413357E+05 -3.319536E+03 -6.436561E+03
       392   6  3.244772E+05  1.816452E+05  1.380758E+04  2.404755E+05 -6.505028E+03 -8.812770E+03
       392   7  2.881631E+05  1.543831E+05 -4.728532E+03  2.234736E+05 -2.870729E+02 -4.075404E+03
       392   8  2.860016E+05  1.543115E+05 -2.292750E+03  2.228078E+05 -3.347846E+03 -6.457819E+03
       392   9  2.856430E+05  1.553754E+05  3.153271E+03  2.215471E+05 -6.456471E+03 -8.776397E+03
       392  10  3.591077E+05  2.059093E+05  1.512197E+04  2.597299E+05 -2.361762E-10 -1.852131E-10
       392  11  3.602924E+05  2.063283E+05  1.822014E+04  2.598650E+05  1.303282E-10 -1.846115E-10
       392  12  3.633130E+05  2.079158E+05  2.446153E+04  2.594051E+05  2.144107E-10  3.176737E-11
       392  13  3.236345E+05  1.801456E+05  5.196683E+03  2.416010E+05  3.515506E-10 -9.330001E-11
       392  14  3.231461E+05  1.803194E+05  7.963670E+03  2.413357E+05  1.834629E-10 -6.385323E-11
       392  15  3.244771E+05  1.816451E+05  1.380736E+04  2.404754E+05 -2.588114E-10 -3.872609E-11
       392  16  2.881631E+05  1.543830E+05 -4.728563E+03  2.234736E+05  4.227154E-10 -2.823321E-11
       392  17  2.860016E+05  1.543115E+05 -2.292849E+03  2.228078E+05  2.779056E-10 -1.851570E-11
       392  18  2.856429E+05  1.553753E+05  3.153048E+03  2.215470E+05  2.185975E-10 -9.573741E-12
       392  19  3.591077E+05  2.059093E+05  1.512200E+04  2.597299E+05  7.668898E+01  3.917594E+03
       392  20  3.602924E+05  2.063284E+05  1.822024E+04  2.598650E+05  3.291223E+03  6.415302E+03
       392  21  3.633131E+05  2.079159E+05  2.446175E+04  2.594052E+05  6.553590E+03  8.849145E+03
       392  22  3.236345E+05  1.801456E+05  5.196713E+03  2.416010E+05  1.818857E+02  3.996502E+03
       392  23  3.231461E+05  1.803195E+05  7.963768E+03  2.413357E+05  3.319536E+03  6.436561E+03
       392  24  3.244772E+05  1.816452E+05  1.380758E+04  2.404755E+05  6.505028E+03  8.812770E+03
       392  25  2.881631E+05  1.543831E+05 -4.728532E+03  2.234736E+05  2.870729E+02  4.075404E+03
       392  26  2.860016E+05  1.543115E+05 -2.292750E+03  2.228078E+05  3.347846E+03  6.457819E+03
       392  27  2.856430E+05  1.553754E+05  3.153271E+03  2.215471E+05  6.456471E+03  8.776397E+03
       393   1  3.573968E+05  2.142560E+05  2.839229E+04  2.650114E+05 -8.125826E+03 -1.016810E+04
       393   2  3.744186E+05  1.991243E+05  4.219042E+04  2.539658E+05 -2.262788E+04 -2.043284E+04
       393   3  4.165605E+05  2.170474E+05  7.871788E+04  2.278220E+05 -3.799873E+04 -2.953954E+04
       393   4  3.248532E+05  1.802479E+05  1.753308E+04  2.435688E+05 -8.351223E+03 -1.033699E+04
       393   5  3.228087E+05  1.823043E+05  3.058920E+04  2.372881E+05 -2.146214E+04 -1.955934E+04
       393   6  3.455828E+05  2.171151E+05  6.516918E+04  2.159091E+05 -3.544107E+04 -2.762431E+04
       393   7  2.923105E+05  1.462410E+05  6.673600E+03  2.221275E+05 -8.576608E+03 -1.050586E+04
       393   8  2.712017E+05  1.654846E+05  1.898784E+04  2.206114E+05 -2.029654E+04 -1.868586E+04
       393   9  2.746123E+05  2.171840E+05  5.162082E+04  2.039962E+05 -3.288384E+04 -2.570900E+04
       393  10  3.573967E+05  2.142559E+05  2.839197E+04  2.650113E+05  2.515229E-10  1.235121E-10
       393  11  3.744180E+05  1.991237E+05  4.218868E+04  2.539654E+05 -9.097324E-11  9.440201E-11
       393  12  4.165587E+05  2.170460E+05  7.871353E+04  2.278211E+05  7.990180E-11  1.420241E-11
       393  13  3.248531E+05  1.802477E+05  1.753274E+04  2.435687E+05  4.976464E-11  3.026943E-11
       393  14  3.228081E+05  1.823038E+05  3.058762E+04  2.372878E+05  8.712638E-11  4.800751E-11
       393  15  3.455812E+05  2.171139E+05  6.516538E+04  2.159083E+05 -6.666500E-12 -1.354174E-10
       393  16  2.923104E+05  1.462409E+05  6.673255E+03  2.221274E+05 -8.488476E-11 -6.576581E-12
       393  17  2.712012E+05  1.654841E+05  1.898641E+04  2.206111E+05  1.260854E-11 -2.478550E-11
       393  18  2.746110E+05  2.171830E+05  5.161755E+04  2.039955E+05 -6.876472E-11 -4.453075E-11
       393  19  3.573968E+05  2.142560E+05  2.839229E+04  2.650114E+05  8.125826E+03  1.016810E+04
       393  20  3.744186E+05  1.991243E+05  4.219042E+04  2.539658E+05  2.262788E+04  2.043284E+04
       393  21  4.165605E+05  2.170474E+05  7.871788E+04  2.278220E+05  3.799873E+04  2.953954E+04
       393  22  3.248532E+05  1.802479E+05  1.753308E+04  2.435688E+05  8.351223E+03  1.033699E+04
       393  23  3.228087E+05  1.823043E+05  3.058920E+04  2.372881E+05  2.146214E+04  1.955934E+04
       393  24  3.455828E+05  2.171151E+05  6.516918E+04  2.159091E+05  3.544107E+04  2.762431E+04
       393  25  2.923105E+05  1.462410E+05  6.673600E+03  2.221275E+05  8.576608E+03  1.050586E+04
       393  26  2.712017E+05  1.654846E+05  1.898784E+04  2.206114E+05  2.029654E+04  1.868586E+04
       393  27  2.746123E+05  2.171840E+05  5.162082E+04  2.039962E+05  3.288384E+04  2.570900E+04
       394   1  7.475948E+05  1.242747E+05  1.224688E+05  7.773459E+04  2.954583E+04 -5.626485E+03
       394   2  6.515727E+05  8.923926E+04  8.340881E+04  5.978829E+04  1.164705E+04 -1.695440E+04
       394   3  5.606522E+05  6.516219E+04  5.873555E+04  7.070723E+04 -6.248201E+03 -1.587281E+04
       394   4  2.888361E+05  1.053311E+04  1.224398E+04  7.193703E+04  8.485821E+03 -5.627855E+03
       394   5  2.875922E+05  9.422883E+02  5.709823E+03  5.750468E+04  5.495285E+03 -1.695592E+04
       394   6  2.888587E+05 -2.724196E+02  3.220085E+03  7.193797E+04  2.505433E+03 -1.587141E+04
       394   7 -1.697292E+05 -1.032234E+05 -9.799414E+04  6.614375E+04 -1.255870E+04 -5.628834E+03
       394   8 -7.626359E+04 -8.736328E+04 -7.199668E+04  5.522243E+04 -6.529320E+02 -1.695741E+04
       394   9  1.713544E+04 -6.571160E+04 -5.229899E+04  7.316816E+04  1.125531E+04 -1.586997E+04
       394  10  7.475938E+05  1.242744E+05  1.224671E+05  7.773472E+04 -2.668628E-10  2.231363E-11
       394  11  6.515725E+05  8.923892E+04  8.340802E+04  5.978844E+04 -4.324439E-10 -8.684705E-11
       394  12  5.606521E+05  6.516191E+04  5.873500E+04  7.070715E+04  5.010733E-10 -1.429357E-10
       394  13  2.888360E+05  1.053306E+04  1.224378E+04  7.193707E+04  7.437814E-11  8.422676E-11
       394  14  2.875921E+05  9.419714E+02  5.709226E+03  5.750476E+04 -2.940630E-10 -6.770303E-11
       394  15  2.888586E+05 -2.726919E+02  3.219600E+03  7.193800E+04 -2.088787E-10 -1.446059E-10
       394  16 -1.697293E+05 -1.032235E+05 -9.799450E+04  6.614369E+04 -4.685330E-11  7.066706E-11
       394  17 -7.626367E+04 -8.736359E+04 -7.199722E+04  5.522242E+04 -1.713618E-11  7.171961E-11
       394  18  1.713524E+04 -6.571191E+04 -5.229970E+04  7.316831E+04 -6.412835E-10 -2.288841E-10
       394  19  7.475948E+05  1.242747E+05  1.224688E+05  7.773459E+04 -2.954583E+04  5.626485E+03
       394  20  6.515727E+05  8.923926E+04  8.340881E+04  5.978829E+04 -1.164705E+04  1.695440E+04
       394  21  5.606522E+05  6.516219E+04  5.873555E+04  7.070723E+04  6.248201E+03  1.587281E+04
       394  22  2.888361E+05  1.053311E+04  1.224398E+04  7.193703E+04 -8.485821E+03  5.627855E+03
       394  23  2.875922E+05  9.422883E+02  5.709823E+03  5.750468E+04 -5.495285E+03  1.695592E+04
       394  24  2.888587E+05 -2.724196E+02  3.220085E+03  7.193797E+04 -2.505433E+03  1.587141E+04
       394  25 -1.697292E+05 -1.032234E+05 -9.799414E+04  6.614375E+04  1.255870E+04  5.628834E+03
       394  26 -7.626359E+04 -8.736328E+04 -7.199668E+04  5.522243E+04  6.529320E+02  1.695741E+04
       394  27  1.713544E+04 -6.571160E+04 -5.229899E+04  7.316816E+04 -1.125531E+04  1.586997E+04
       395   1  4.926960E+05  4.965211E+04  4.430501E+04  7.224153E+04 -3.758676E+03 -1.183984E+04
       395   2  3.992527E+05  2.673371E+04  2.383750E+04  5.736498E+04 -5.187211E+03 -6.661470E+03
       395   3  3.061235E+05  4.322917E+03  4.423728E+03  7.198941E+04 -6.616217E+03 -8.364681E+02
       395   4  2.883450E+05  4.369779E+02  2.489271E+03  7.207907E+04  2.070819E+03 -1.183864E+04
       395   5  2.882634E+05  3.785429E+01  1.304158E+03  5.732849E+04  1.418423E+03 -6.659743E+03
       395   6  2.883517E+05  1.186828E+01  6.340401E+02  7.207920E+04  7.653373E+02 -8.341391E+02
       395   7  8.403363E+04 -4.878076E+04 -3.932855E+04  7.191667E+04  7.898431E+03 -1.183743E+04
       395   8  1.772859E+05 -2.665874E+04 -2.122966E+04  5.729201E+04  8.022899E+03 -6.658015E+03
       395   9  2.705802E+05 -4.299171E+03 -3.155461E+03  7.216899E+04  8.146684E+03 -8.318080E+02
       395  10  4.926960E+05  4.965196E+04  4.430472E+04  7.224149E+04 -1.097911E-10 -3.325094E-10
       395  11  3.992527E+05  2.673365E+04  2.383736E+04  5.736495E+04  1.828726E-10 -3.113348E-11
       395  12  3.061235E+05  4.322904E+03  4.423644E+03  7.198940E+04 -2.181027E-10  1.046218E-10
       395  13  2.883449E+05  4.368262E+02  2.488999E+03  7.207909E+04  6.876786E-11 -2.602291E-10
       395  14  2.882634E+05  3.780612E+01  1.304071E+03  5.732850E+04 -2.859190E-10 -1.925951E-10
       395  15  2.883517E+05  1.186737E+01  6.340377E+02  7.207920E+04 -1.104340E-10 -2.220700E-11
       395  16  8.403353E+04 -4.878093E+04 -3.932894E+04  7.191675E+04 -3.919400E-11 -1.411876E-10
       395  17  1.772858E+05 -2.665881E+04 -2.122986E+04  5.729205E+04 -1.327093E-10 -3.742296E-10
       395  18  2.705801E+05 -4.299190E+03 -3.155587E+03  7.216900E+04  3.146581E-10  1.300943E-10
       395  19  4.926960E+05  4.965211E+04  4.430501E+04  7.224153E+04  3.758676E+03  1.183984E+04
       395  20  3.992527E+05  2.673371E+04  2.383750E+04  5.736498E+04  5.187211E+03  6.661470E+03
       395  21  3.061235E+05  4.322917E+03  4.423728E+03  7.198941E+04  6.616217E+03  8.364681E+02
       395  22  2.883450E+05  4.369779E+02  2.489271E+03  7.207907E+04 -2.070819E+03  1.183864E+04
       395  23  2.882634E+05  3.785429E+01  1.304158E+03  5.732849E+04 -1.418423E+03  6.659743E+03
       395  24  2.883517E+05  1.186828E+01  6.340401E+02  7.207920E+04 -7.653373E+02  8.341391E+02
       395  25  8.403363E+04 -4.878076E+04 -3.932855E+04  7.191667E+04 -7.898431E+03  1.183743E+04
       395  26  1.772859E+05 -2.665874E+04 -2.122966E+04  5.729201E+04 -8.022899E+03  6.658015E+03
       395  27  2.705802E+05 -4.299171E+03 -3.155461E+03  7.216899E+04 -8.146684E+03  8.318080E+02
       396   1  2.390463E+05 -1.182391E+04 -9.732264E+03  7.201881E+04 -6.718157E+03  2.801521E+03
       396   2  1.458529E+05 -3.425103E+04 -2.892142E+04  5.729388E+04 -5.863595E+03  8.613569E+03
       396   3  5.249410E+04 -5.689905E+04 -4.872515E+04  7.206950E+04 -5.008267E+03  1.373249E+04
       396   4  2.883073E+05  4.966973E+01  3.889441E+02  7.207892E+04  6.735674E+02  2.803821E+03
       396   5  2.883171E+05  1.041144E+01 -4.449831E+01  5.732887E+04  6.958481E+02  8.615153E+03
       396   6  2.882990E+05 -1.044292E+02 -5.141301E+02  7.207896E+04  7.190069E+02  1.373346E+04
       396   7  3.375707E+05  1.192313E+04  1.051023E+04  7.213903E+04  8.065868E+03  2.806122E+03
       396   8  4.308006E+05  3.427062E+04  2.883153E+04  5.736387E+04  7.256768E+03  8.616738E+03
       396   9  5.241568E+05  5.668672E+04  4.769407E+04  7.208842E+04  6.448416E+03  1.373443E+04
       396  10  2.390463E+05 -1.182393E+04 -9.732364E+03  7.201882E+04  6.804067E-10  3.783922E-10
       396  11  1.458529E+05 -3.425112E+04 -2.892162E+04  5.729392E+04 -1.239135E-10 -7.659720E-11
       396  12  5.249403E+04 -5.689926E+04 -4.872556E+04  7.206956E+04 -3.878566E-10 -8.360451E-11
       396  13  2.883073E+05  4.966117E+01  3.889284E+02  7.207891E+04  3.714118E-10  1.633600E-10
       396  14  2.883170E+05  1.033160E+01 -4.463871E+01  5.732887E+04 -9.781399E-11  6.246669E-11
       396  15  2.882990E+05 -1.046319E+02 -5.144856E+02  7.207895E+04 -9.211550E-12  1.035812E-11
       396  16  3.375706E+05  1.192310E+04  1.051009E+04  7.213901E+04 -6.510829E-10  1.342749E-11
       396  17  4.308006E+05  3.427052E+04  2.883129E+04  5.736382E+04 -9.187434E-11 -9.198998E-11
       396  18  5.241567E+05  5.668651E+04  4.769364E+04  7.208835E+04  3.219894E-10 -1.414533E-10
       396  19  2.390463E+05 -1.182391E+04 -9.732264E+03  7.201881E+04  6.718157E+03 -2.801521E+03
       396  20  1.458529E+05 -3.425103E+04 -2.892142E+04  5.729388E+04  5.863595E+03 -8.613569E+03
       396  21  5.249410E+04 -5.689905E+04 -4.872515E+04  7.206950E+04  5.008267E+03 -1.373249E+04
       396  22  2.883073E+05  4.966973E+01  3.889441E+02  7.207892E+04 -6.735674E+02 -2.803821E+03
       396  23  2.883171E+05  1.041144E+01 -4.449831E+01  5.732887E+04 -6.958481E+02 -8.615153E+03
       396  24  2.882990E+05 -1.044292E+02 -5.141301E+02  7.207896E+04 -7.190069E+02 -1.373346E+04
       396  25  3.375707E+05  1.192313E+04  1.051023E+04  7.213903E+04 -8.065868E+03 -2.806122E+03
       396  26  4.308006E+05  3.427062E+04  2.883153E+04  5.736387E+04 -7.256768E+03 -8.616738E+03
       396  27  5.241568E+05  5.668672E+04  4.769407E+04  7.208842E+04 -6.448416E+03 -1.373443E+04
       397   1 -1.509281E+04 -7.293823E+04 -6.266115E+04  7.153388E+04 -8.029172E+03  1.779398E+04
       397   2 -1.068506E+05 -9.621180E+04 -8.585670E+04  5.811821E+04  8.630994E+03  1.855627E+04
       397   3 -2.019959E+05 -1.245265E+05 -1.211530E+05  7.352725E+04  2.528726E+04  6.104658E+03
       397   4  2.881549E+05  8.262645E+01 -7.627800E+02  7.192866E+04  8.096336E+02  1.779507E+04
       397   5  2.884648E+05 -2.906969E+02 -1.532750E+03  5.751681E+04  1.616907E+03  1.855475E+04
       397   6  2.881325E+05 -2.950943E+03 -3.393803E+03  7.192884E+04  2.422898E+03  6.104275E+03
       397   7  5.914902E+05  7.309777E+04  6.113103E+04  7.232363E+04  9.652677E+03  1.779617E+04
       397   8  6.839275E+05  9.562025E+04  8.278237E+04  5.691501E+04 -5.401582E+03  1.855324E+04
       397   9  7.784819E+05  1.186074E+05  1.143503E+05  7.032915E+04 -2.045945E+04  6.104011E+03
       397  10 -1.509296E+04 -7.293858E+04 -6.266187E+04  7.153399E+04 -1.219932E-10  5.258651E-11
       397  11 -1.068508E+05 -9.621219E+04 -8.585749E+04  5.811808E+04 -2.203216E-10 -2.047280E-11
       397  12 -2.019966E+05 -1.245267E+05 -1.211542E+05  7.352713E+04 -2.002371E-10  2.537616E-11
       397  13  2.881548E+05  8.228619E+01 -7.633764E+02  7.192865E+04 -3.362434E-10 -1.120502E-10
       397  14  2.884647E+05 -2.910673E+02 -1.533402E+03  5.751678E+04 -2.657350E-12 -2.166822E-12
       397  15  2.881325E+05 -2.950985E+03 -3.393884E+03  7.192883E+04  1.880409E-11 -3.282386E-11
       397  16  5.914900E+05  7.309740E+04  6.113026E+04  7.232349E+04  1.113026E-10  1.319713E-10
       397  17  6.839274E+05  9.561988E+04  8.278167E+04  5.691509E+04 -1.476351E-10 -7.748026E-11
       397  18  7.784815E+05  1.186073E+05  1.143494E+05  7.032925E+04  5.594930E-10 -7.294991E-11
       397  19 -1.509281E+04 -7.293823E+04 -6.266115E+04  7.153388E+04  8.029172E+03 -1.779398E+04
       397  20 -1.068506E+05 -9.621180E+04 -8.585670E+04  5.811821E+04 -8.630994E+03 -1.855627E+04
       397  21 -2.019959E+05 -1.245265E+05 -1.211530E+05  7.352725E+04 -2.528726E+04 -6.104658E+03
       397  22  2.881549E+05  8.262645E+01 -7.627800E+02  7.192866E+04 -8.096336E+02 -1.779507E+04
       397  23  2.884648E+05 -2.906969E+02 -1.532750E+03  5.751681E+04 -1.616907E+03 -1.855475E+04
       397  24  2.881325E+05 -2.950943E+03 -3.393803E+03  7.192884E+04 -2.422898E+03 -6.104275E+03
       397  25  5.914902E+05  7.309777E+04  6.113103E+04  7.232363E+04 -9.652677E+03 -1.779617E+04
       397  26  6.839275E+05  9.562025E+04  8.278237E+04  5.691501E+04  5.401582E+03 -1.855324E+04
       397  27  7.784819E+05  1.186074E+05  1.143503E+05  7.032915E+04  2.045945E+04 -6.104011E+03
       398   1 -1.588167E+05 -5.582348E+05 -1.730921E+05  1.164108E+05 -2.703557E+03 -8.447388E+04
       398   2 -4.991631E+04 -4.634036E+05 -9.106169E+04  7.149589E+04 -7.299394E+03 -4.755166E+04
       398   3 -1.861880E+04 -3.927878E+05 -5.248617E+04  5.236604E+04 -4.784772E+03 -1.062490E+04
       398   4 -9.596901E+04 -3.051748E+05 -1.118903E+05  6.369311E+04 -2.694016E+03 -7.469746E+04
       398   5 -8.648135E+03 -2.937968E+05 -5.433418E+04  5.078666E+04 -7.297321E+03 -4.629562E+04
       398   6  2.559783E+03 -3.051526E+05 -3.430231E+04  6.367052E+04 -4.787237E+03 -1.789456E+04
       398   7 -3.311549E+04 -5.205006E+04 -5.069118E+04  1.095382E+04 -2.686140E+03 -6.491706E+04
       398   8  3.261976E+04 -1.241621E+05 -1.760813E+04  3.007168E+04 -7.295333E+03 -4.503924E+04
       398   9  2.373838E+04 -2.175097E+05 -1.611860E+04  7.497663E+04 -4.789968E+03 -2.516522E+04
       398  10 -1.588186E+05 -5.582425E+05 -1.731056E+05  1.164106E+05 -1.276937E-10 -6.395208E-11
       398  11 -4.991698E+04 -4.634061E+05 -9.106605E+04  7.149561E+04 -1.823840E-10  9.531439E-12
       398  12 -1.861885E+04 -3.927879E+05 -5.248642E+04  5.236600E+04 -5.732684E-11  9.910333E-12
       398  13 -9.597051E+04 -3.051808E+05 -1.119008E+05  6.369295E+04  6.027187E-12 -4.905115E-11
       398  14 -8.648768E+03 -2.937991E+05 -5.433831E+04  5.078639E+04  2.497691E-10  4.463123E-11
       398  15  2.559672E+03 -3.051529E+05 -3.430295E+04  6.367045E+04 -2.125473E-10 -5.996825E-11
       398  16 -3.311663E+04 -5.205458E+04 -5.069911E+04  1.095368E+04  6.930546E-12  8.498497E-11
       398  17  3.261916E+04 -1.241643E+05 -1.761205E+04  3.007142E+04  1.661449E-10  1.617626E-10
       398  18  2.373819E+04 -2.175104E+05 -1.611983E+04  7.497653E+04  2.418363E-11  3.619892E-12
       398  19 -1.588167E+05 -5.582348E+05 -1.730921E+05  1.164108E+05  2.703557E+03  8.447388E+04
       398  20 -4.991631E+04 -4.634036E+05 -9.106169E+04  7.149589E+04  7.299394E+03  4.755166E+04
       398  21 -1.861880E+04 -3.927878E+05 -5.248617E+04  5.236604E+04  4.784772E+03  1.062490E+04
       398  22 -9.596901E+04 -3.051748E+05 -1.118903E+05  6.369311E+04  2.694016E+03  7.469746E+04
       398  23 -8.648135E+03 -2.937968E+05 -5.433418E+04  5.078666E+04  7.297321E+03  4.629562E+04
       398  24  2.559783E+03 -3.051526E+05 -3.430231E+04  6.367052E+04  4.787237E+03  1.789456E+04
       398  25 -3.311549E+04 -5.205006E+04 -5.069118E+04  1.095382E+04  2.686140E+03  6.491706E+04
       398  26  3.261976E+04 -1.241621E+05 -1.760813E+04  3.007168E+04  7.295333E+03  4.503924E+04
       398  27  2.373838E+04 -2.175097E+05 -1.611860E+04  7.497663E+04  4.789968E+03  2.516522E+04
       399   1 -1.036455E+04 -3.288125E+05 -3.545424E+04  6.572820E+04 -1.327261E+03 -7.203011E+03
       399   2  1.293485E+04 -2.445607E+05 -1.315349E+04  5.070656E+04  3.361990E+03  4.693506E+03
       399   3  2.980461E+04 -1.634711E+05 -2.113711E+02  6.182432E+04  7.897610E+03  1.659185E+04
       399   4 -3.570634E+03 -3.008126E+05 -2.948678E+04  6.375256E+04 -1.329110E+03 -1.291555E+04
       399   5 -2.074489E+02 -2.992135E+05 -2.419564E+04  5.068263E+04  3.360333E+03 -8.353079E+02
       399   6 -3.305655E+03 -3.008153E+05 -2.839060E+04  6.375250E+04  7.896192E+03  1.124524E+04
       399   7  3.223264E+03 -2.728119E+05 -2.351924E+04  6.177683E+04 -1.330923E+03 -1.862834E+04
       399   8 -1.334991E+04 -3.538635E+05 -3.523784E+04  5.065871E+04  3.358675E+03 -6.363645E+03
       399   9 -3.641707E+04 -4.381415E+05 -5.657073E+04  6.568025E+04  7.894740E+03  5.899786E+03
       399  10 -1.036457E+04 -3.288125E+05 -3.545434E+04  6.572819E+04 -2.578070E-10 -1.228949E-10
       399  11  1.293483E+04 -2.445607E+05 -1.315355E+04  5.070655E+04 -7.432898E-11  1.216302E-10
       399  12  2.980447E+04 -1.634715E+05 -2.120057E+02  6.182421E+04  1.858578E-11  2.422841E-10
       399  13 -3.570681E+03 -3.008128E+05 -2.948710E+04  6.375255E+04 -4.689526E-12 -1.408038E-10
       399  14 -2.074612E+02 -2.992135E+05 -2.419567E+04  5.068264E+04 -3.250635E-10  2.665918E-10
       399  15 -3.305755E+03 -3.008155E+05 -2.839096E+04  6.375243E+04 -2.128971E-10 -2.668805E-11
       399  16  3.223169E+03 -2.728123E+05 -2.351990E+04  6.177681E+04 -3.233909E-11  1.050103E-10
       399  17 -1.334994E+04 -3.538635E+05 -3.523794E+04  5.065872E+04  1.862345E-10  1.915644E-10
       399  18 -3.641715E+04 -4.381416E+05 -5.657091E+04  6.568022E+04  1.761995E-10 -2.714235E-10
       399  19 -1.036455E+04 -3.288125E+05 -3.545424E+04  6.572820E+04  1.327261E+03  7.203011E+03
       399  20  1.293485E+04 -2.445607E+05 -1.315349E+04  5.070656E+04 -3.361990E+03 -4.693506E+03
       399  21  2.980461E+04 -1.634711E+05 -2.113711E+02  6.182432E+04 -7.897610E+03 -1.659185E+04
       399  22 -3.570634E+03 -3.008126E+05 -2.948678E+04  6.375256E+04  1.329110E+03  1.291555E+04
       399  23 -2.074489E+02 -2.992135E+05 -2.419564E+04  5.068263E+04 -3.360333E+03  8.353079E+02
       399  24 -3.305655E+03 -3.008153E+05 -2.839060E+04  6.375250E+04 -7.896192E+03 -1.124524E+04
       399  25  3.223264E+03 -2.728119E+05 -2.351924E+04  6.177683E+04  1.330923E+03  1.862834E+04
       399  26 -1.334991E+04 -3.538635E+05 -3.523784E+04  5.065871E+04 -3.358675E+03  6.363645E+03
       399  27 -3.641707E+04 -4.381415E+05 -5.657073E+04  6.568025E+04 -7.894740E+03 -5.899786E+03
       400   1  4.986514E+04 -1.077433E+05  7.709371E+03  7.415517E+04  1.144890E+04  2.361679E+04
       400   2  5.962571E+04 -1.545970E+04  8.745190E+03  3.150872E+04  1.283273E+04  3.838468E+04
       400   3  5.363531E+02  5.771026E+04 -1.704218E+04  1.447949E+04  4.331498E+03  5.315538E+04
       400   4  2.367112E+03 -3.048153E+05 -3.263291E+04  6.363438E+04  1.144669E+04  1.602421E+04
       400   5 -8.066985E+03 -2.942334E+05 -5.093893E+04  5.083160E+04  1.283519E+04  4.264267E+04
       400   6 -8.942937E+04 -3.048422E+05 -1.043092E+05  6.364932E+04  4.338034E+03  6.926137E+04
       400   7 -4.513291E+04 -5.018500E+05 -7.297698E+04  5.311698E+04  1.144474E+04  8.434002E+03
       400   8 -7.576335E+04 -5.729331E+05 -1.106273E+05  7.014568E+04  1.283791E+04  4.689878E+04
       400   9 -1.793954E+05 -6.672686E+05 -1.915833E+05  1.127903E+05  4.347124E+03  8.535798E+04
       400  10  4.986485E+04 -1.077440E+05  7.708077E+03  7.415495E+04  4.809903E-11 -1.507420E-10
       400  11  5.962514E+04 -1.546133E+04  8.742111E+03  3.150832E+04  2.362612E-10 -1.430947E-11
       400  12  5.355745E+02  5.770722E+04 -1.704752E+04  1.447931E+04  7.053260E-11  9.705891E-12
       400  13  2.366903E+03 -3.048156E+05 -3.263364E+04  6.363423E+04  1.883907E-10 -3.308713E-10
       400  14 -8.067650E+03 -2.942354E+05 -5.094266E+04  5.083116E+04 -4.014182E-10  1.557086E-10
       400  15 -8.943068E+04 -3.048474E+05 -1.043183E+05  6.364908E+04  4.101407E-11 -8.440335E-11
       400  16 -4.513307E+04 -5.018501E+05 -7.297736E+04  5.311690E+04 -1.579774E-10  1.564889E-10
       400  17 -7.576412E+04 -5.729355E+05 -1.106317E+05  7.014520E+04 -5.228420E-11  2.572572E-10
       400  18 -1.793974E+05 -6.672764E+05 -1.915971E+05  1.127900E+05 -5.537672E-12  1.990165E-11
       400  19  4.986514E+04 -1.077433E+05  7.709371E+03  7.415517E+04 -1.144890E+04 -2.361679E+04
       400  20  5.962571E+04 -1.545970E+04  8.745190E+03  3.150872E+04 -1.283273E+04 -3.838468E+04
       400  21  5.363531E+02  5.771026E+04 -1.704218E+04  1.447949E+04 -4.331498E+03 -5.315538E+04
       400  22  2.367112E+03 -3.048153E+05 -3.263291E+04  6.363438E+04 -1.144669E+04 -1.602421E+04
       400  23 -8.066985E+03 -2.942334E+05 -5.093893E+04  5.083160E+04 -1.283519E+04 -4.264267E+04
       400  24 -8.942937E+04 -3.048422E+05 -1.043092E+05  6.364932E+04 -4.338034E+03 -6.926137E+04
       400  25 -4.513291E+04 -5.018500E+05 -7.297698E+04  5.311698E+04 -1.144474E+04 -8.434002E+03
       400  26 -7.576335E+04 -5.729331E+05 -1.106273E+05  7.014568E+04 -1.283791E+04 -4.689878E+04
       400  27 -1.793954E+05 -6.672686E+05 -1.915833E+05  1.127903E+05 -4.347124E+03 -8.535798E+04
       401   1  4.069868E+05  3.131760E+05  8.515848E+04  2.880196E+05  5.335288E+04  4.104481E+04
       401   2  4.094483E+05  2.413162E+05  3.632951E+04  3.196169E+05  3.420027E+04  2.870085E+04
       401   3  4.544980E+05  2.161300E+05  1.955041E+04  3.263770E+05  1.618716E+04  1.483574E+04
       401   4  5.040279E+05  3.031329E+05  1.019268E+05  2.996989E+05  5.582777E+04  4.289391E+04
       401   5  4.663342E+05  2.507639E+05  4.775354E+04  3.337498E+05  3.484267E+04  2.918079E+04
       401   6  4.716201E+05  2.454596E+05  2.721461E+04  3.429644E+05  1.499872E+04  1.394515E+04
       401   7  6.010834E+05  2.930933E+05  1.186961E+05  3.113772E+05  5.830322E+04  4.474285E+04
       401   8  5.232247E+05  2.602120E+05  5.917768E+04  3.478834E+05  3.548515E+04  2.966074E+04
       401   9  4.887430E+05  2.747910E+05  3.487893E+04  3.595528E+05  1.381022E+04  1.305447E+04
       401  10  4.069832E+05  3.131734E+05  8.514997E+04  2.880178E+05  2.905928E-11  2.024411E-11
       401  11  4.094468E+05  2.413150E+05  3.632577E+04  3.196161E+05  1.261760E-10 -5.075319E-11
       401  12  4.544976E+05  2.161297E+05  1.954951E+04  3.263768E+05  7.472924E-10 -1.743015E-10
       401  13  5.040241E+05  3.031301E+05  1.019175E+05  2.996970E+05  7.536917E-11 -6.758518E-11
       401  14  4.663327E+05  2.507626E+05  4.774966E+04  3.337490E+05  3.177424E-10 -1.034812E-10
       401  15  4.716198E+05  2.454594E+05  2.721383E+04  3.429642E+05  3.540989E-10 -1.774016E-10
       401  16  6.010792E+05  2.930903E+05  1.186859E+05  3.113751E+05 -1.905462E-10 -1.586074E-10
       401  17  5.232231E+05  2.602108E+05  5.917366E+04  3.478826E+05 -6.523635E-11 -1.497551E-10
       401  18  4.887427E+05  2.747908E+05  3.487826E+04  3.595526E+05 -2.605889E-11 -1.679928E-10
       401  19  4.069868E+05  3.131760E+05  8.515848E+04  2.880196E+05 -5.335288E+04 -4.104481E+04
       401  20  4.094483E+05  2.413162E+05  3.632951E+04  3.196169E+05 -3.420027E+04 -2.870085E+04
       401  21  4.544980E+05  2.161300E+05  1.955041E+04  3.263770E+05 -1.618716E+04 -1.483574E+04
       401  22  5.040279E+05  3.031329E+05  1.019268E+05  2.996989E+05 -5.582777E+04 -4.289391E+04
       401  23  4.663342E+05  2.507639E+05  4.775354E+04  3.337498E+05 -3.484267E+04 -2.918079E+04
       401  24  4.716201E+05  2.454596E+05  2.721461E+04  3.429644E+05 -1.499872E+04 -1.394515E+04
       401  25  6.010834E+05  2.930933E+05  1.186961E+05  3.113772E+05 -5.830322E+04 -4.474285E+04
       401  26  5.232247E+05  2.602120E+05  5.917768E+04  3.478834E+05 -3.548515E+04 -2.966074E+04
       401  27  4.887430E+05  2.747910E+05  3.487893E+04  3.595528E+05 -1.381022E+04 -1.305447E+04
       402   1  4.511920E+05  2.354620E+05  1.601287E+04  3.290385E+05  1.328273E+04  1.179970E+04
       402   2  4.596381E+05  2.428851E+05  9.947120E+03  3.366108E+05  9.166590E+03  7.569940E+03
       402   3  4.750406E+05  2.479139E+05  8.435066E+03  3.420241E+05  5.113257E+03  3.256393E+03
       402   4  4.710236E+05  2.476466E+05  2.130714E+04  3.381240E+05  1.245404E+04  1.117834E+04
       402   5  4.668778E+05  2.476633E+05  1.193059E+04  3.400816E+05  8.237025E+03  6.873007E+03
       402   6  4.697102E+05  2.453075E+05  7.195071E+03  3.398801E+05  4.082920E+03  2.483931E+03
       402   7  4.908554E+05  2.598311E+05  2.660129E+04  3.472097E+05  1.162532E+04  1.055698E+04
       402   8  4.741175E+05  2.524415E+05  1.391404E+04  3.435524E+05  7.307451E+03  6.176069E+03
       402   9  4.643798E+05  2.427012E+05  5.955082E+03  3.377362E+05  3.052595E+03  1.711476E+03
       402  10  4.511918E+05  2.354618E+05  1.601228E+04  3.290384E+05  2.479519E-10 -3.435706E-10
       402  11  4.596380E+05  2.428850E+05  9.946855E+03  3.366107E+05  4.922207E-12 -4.057161E-12
       402  12  4.750406E+05  2.479138E+05  8.434997E+03  3.420241E+05 -2.283242E-10 -3.413006E-11
       402  13  4.710234E+05  2.476464E+05  2.130661E+04  3.381239E+05  1.181806E-10 -1.520048E-10
       402  14  4.668777E+05  2.476632E+05  1.193037E+04  3.400815E+05 -1.798897E-10  6.624276E-11
       402  15  4.697102E+05  2.453075E+05  7.195028E+03  3.398801E+05 -2.998313E-10  1.164439E-10
       402  16  4.908552E+05  2.598310E+05  2.660083E+04  3.472096E+05 -2.206535E-10  1.445527E-11
       402  17  4.741175E+05  2.524414E+05  1.391386E+04  3.435524E+05  1.703619E-10  3.435382E-11
       402  18  4.643798E+05  2.427011E+05  5.955059E+03  3.377362E+05 -8.007102E-11  2.263278E-10
       402  19  4.511920E+05  2.354620E+05  1.601287E+04  3.290385E+05 -1.328273E+04 -1.179970E+04
       402  20  4.596381E+05  2.428851E+05  9.947120E+03  3.366108E+05 -9.166590E+03 -7.569940E+03
       402  21  4.750406E+05  2.479139E+05  8.435066E+03  3.420241E+05 -5.113257E+03 -3.256393E+03
       402  22  4.710236E+05  2.476466E+05  2.130714E+04  3.381240E+05 -1.245404E+04 -1.117834E+04
       402  23  4.668778E+05  2.476633E+05  1.193059E+04  3.400816E+05 -8.237025E+03 -6.873007E+03
       402  24  4.697102E+05  2.453075E+05  7.195071E+03  3.398801E+05 -4.082920E+03 -2.483931E+03
       402  25  4.908554E+05  2.598311E+05  2.660129E+04  3.472097E+05 -1.162532E+04 -1.055698E+04
       402  26  4.741175E+05  2.524415E+05  1.391404E+04  3.435524E+05 -7.307451E+03 -6.176069E+03
       402  27  4.643798E+05  2.427012E+05  5.955082E+03  3.377362E+05 -3.052595E+03 -1.711476E+03
       403   1  4.828342E+05  2.544498E+05  9.415347E+03  3.461415E+05  4.550875E+03  2.055763E+03
       403   2  4.918795E+05  2.650961E+05  1.094198E+04  3.527423E+05  3.554773E+03 -5.146752E+00
       403   3  5.060969E+05  2.710888E+05  1.384199E+04  3.579676E+05  2.555795E+03 -2.062285E+03
       403   4  4.696256E+05  2.453641E+05  5.773224E+03  3.396315E+05  3.538128E+03  1.296474E+03
       403   5  4.670305E+05  2.476747E+05  4.095944E+03  3.403320E+05  2.546624E+03 -7.610189E+02
       403   6  4.696065E+05  2.453303E+05  3.787999E+03  3.396567E+05  1.552301E+03 -2.814688E+03
       403   7  4.564170E+05  2.362785E+05  2.131033E+03  3.331216E+05  2.525397E+03  5.371961E+02
       403   8  4.421823E+05  2.302536E+05 -2.750147E+03  3.279222E+05  1.538530E+03 -1.516851E+03
       403   9  4.331180E+05  2.195729E+05 -6.265954E+03  3.213472E+05  5.488995E+02 -3.567022E+03
       403  10  4.828342E+05  2.544498E+05  9.415300E+03  3.461414E+05  1.656591E-10  2.332397E-10
       403  11  4.918794E+05  2.650961E+05  1.094196E+04  3.527423E+05  1.318455E-10  1.386636E-10
       403  12  5.060969E+05  2.710888E+05  1.384197E+04  3.579677E+05  1.028762E-10  3.104872E-12
       403  13  4.696256E+05  2.453641E+05  5.773197E+03  3.396315E+05  6.317566E-11  1.203038E-10
       403  14  4.670305E+05  2.476747E+05  4.095931E+03  3.403320E+05  2.366331E-10  4.562288E-11
       403  15  4.696064E+05  2.453303E+05  3.787980E+03  3.396567E+05 -1.173549E-10 -1.085041E-10
       403  16  4.564170E+05  2.362785E+05  2.131021E+03  3.331216E+05 -3.980123E-10  3.174506E-11
       403  17  4.421823E+05  2.302536E+05 -2.750156E+03  3.279222E+05  6.629708E-11 -9.393684E-11
       403  18  4.331180E+05  2.195728E+05 -6.265978E+03  3.213472E+05  9.062997E-11 -9.609585E-11
       403  19  4.828342E+05  2.544498E+05  9.415347E+03  3.461415E+05 -4.550875E+03 -2.055763E+03
       403  20  4.918795E+05  2.650961E+05  1.094198E+04  3.527423E+05 -3.554773E+03  5.146752E+00
       403  21  5.060969E+05  2.710888E+05  1.384199E+04  3.579676E+05 -2.555795E+03  2.062285E+03
       403  22  4.696256E+05  2.453641E+05  5.773224E+03  3.396315E+05 -3.538128E+03 -1.296474E+03
       403  23  4.670305E+05  2.476747E+05  4.095944E+03  3.403320E+05 -2.546624E+03  7.610189E+02
       403  24  4.696065E+05  2.453303E+05  3.787999E+03  3.396567E+05 -1.552301E+03  2.814688E+03
       403  25  4.564170E+05  2.362785E+05  2.131033E+03  3.331216E+05 -2.525397E+03 -5.371961E+02
       403  26  4.421823E+05  2.302536E+05 -2.750147E+03  3.279222E+05 -1.538530E+03  1.516851E+03
       403  27  4.331180E+05  2.195729E+05 -6.265954E+03  3.213472E+05 -5.488995E+02  3.567022E+03
       404   1  5.142903E+05  2.772646E+05  1.651240E+04  3.623444E+05  2.410339E+03 -2.955487E+03
       404   2  5.237356E+05  2.876060E+05  2.131677E+04  3.686137E+05  5.741563E+02 -5.561427E+03
       404   3  5.390276E+05  2.941691E+05  2.842833E+04  3.731622E+05 -1.381899E+03 -8.007536E+03
       404   4  4.696254E+05  2.452992E+05  4.054713E+03  3.397424E+05  1.369279E+03 -3.736078E+03
       404   5  4.670007E+05  2.477037E+05  5.598186E+03  3.402314E+05 -2.746296E+02 -6.197910E+03
       404   6  4.701809E+05  2.462884E+05  9.282307E+03  3.389994E+05 -2.038367E+03 -8.499869E+03
       404   7  4.249628E+05  2.133349E+05 -8.403169E+03  3.171422E+05  3.283190E+02 -4.516593E+03
       404   8  4.102690E+05  2.078030E+05 -1.012084E+04  3.118518E+05 -1.123317E+03 -6.834320E+03
       404   9  4.013385E+05  1.984096E+05 -9.864486E+03  3.048404E+05 -2.694745E+03 -8.992137E+03
       404  10  5.142903E+05  2.772646E+05  1.651237E+04  3.623444E+05 -3.160211E-11 -3.876992E-11
       404  11  5.237356E+05  2.876059E+05  2.131672E+04  3.686137E+05  4.597325E-11 -6.197026E-11
       404  12  5.390276E+05  2.941690E+05  2.842821E+04  3.731622E+05  1.847911E-10 -2.676107E-11
       404  13  4.696254E+05  2.452991E+05  4.054683E+03  3.397424E+05 -3.634524E-11 -1.343858E-10
       404  14  4.670007E+05  2.477037E+05  5.598114E+03  3.402314E+05 -1.297126E-10 -1.444126E-10
       404  15  4.701808E+05  2.462883E+05  9.282164E+03  3.389994E+05 -1.204460E-10 -1.481413E-10
       404  16  4.249628E+05  2.133349E+05 -8.403208E+03  3.171422E+05 -4.698368E-12 -1.136497E-10
       404  17  4.102690E+05  2.078030E+05 -1.012093E+04  3.118518E+05 -9.061153E-11 -1.724929E-10
       404  18  4.013385E+05  1.984095E+05 -9.864652E+03  3.048404E+05  2.558746E-10 -4.313109E-11
       404  19  5.142903E+05  2.772646E+05  1.651240E+04  3.623444E+05 -2.410339E+03  2.955487E+03
       404  20  5.237356E+05  2.876060E+05  2.131677E+04  3.686137E+05 -5.741563E+02  5.561427E+03
       404  21  5.390276E+05  2.941691E+05  2.842833E+04  3.731622E+05  1.381899E+03  8.007536E+03
       404  22  4.696254E+05  2.452992E+05  4.054713E+03  3.397424E+05 -1.369279E+03  3.736078E+03
       404  23  4.670007E+05  2.477037E+05  5.598186E+03  3.402314E+05  2.746296E+02  6.197910E+03
       404  24  4.701809E+05  2.462884E+05  9.282307E+03  3.389994E+05  2.038367E+03  8.499869E+03
       404  25  4.249628E+05  2.133349E+05 -8.403169E+03  3.171422E+05 -3.283190E+02  4.516593E+03
       404  26  4.102690E+05  2.078030E+05 -1.012084E+04  3.118518E+05  1.123317E+03  6.834320E+03
       404  27  4.013385E+05  1.984096E+05 -9.864486E+03  3.048404E+05  2.694745E+03  8.992137E+03
       405   1  5.430789E+05  3.040049E+05  3.317150E+04  3.808601E+05 -1.527206E+03 -9.055931E+03
       405   2  5.629350E+05  3.040557E+05  4.597107E+04  3.796113E+05 -1.372856E+04 -1.768412E+04
       405   3  6.043427E+05  3.219366E+05  7.597502E+04  3.671310E+05 -2.811001E+04 -2.340594E+04
       405   4  4.703982E+05  2.453939E+05  1.167848E+04  3.410393E+05 -2.871348E+03 -1.006390E+04
       405   5  4.668152E+05  2.489805E+05  2.018728E+04  3.375576E+05 -1.158008E+04 -1.607342E+04
       405   6  4.840282E+05  2.696426E+05  4.287358E+04  3.228442E+05 -2.246838E+04 -1.917655E+04
       405   7  3.977242E+05  1.867877E+05 -9.814812E+03  3.012245E+05 -4.215266E+03 -1.107167E+04
       405   8  3.707066E+05  1.939091E+05 -5.596966E+03  2.955111E+05 -9.432082E+03 -1.446299E+04
       405   9  3.637311E+05  2.173516E+05  9.771573E+03  2.785655E+05 -1.682833E+04 -1.494777E+04
       405  10  5.430789E+05  3.040048E+05  3.317134E+04  3.808601E+05  2.612223E-10  4.026345E-11
       405  11  5.629348E+05  3.040553E+05  4.597013E+04  3.796111E+05  6.867377E-11  6.449502E-11
       405  12  6.043417E+05  3.219358E+05  7.597251E+04  3.671304E+05  4.478006E-10  2.284428E-10
       405  13  4.703982E+05  2.453938E+05  1.167828E+04  3.410393E+05  5.543254E-11 -1.172863E-10
       405  14  4.668149E+05  2.489802E+05  2.018654E+04  3.375575E+05  1.883941E-10 -1.173439E-11
       405  15  4.840275E+05  2.696421E+05  4.287195E+04  3.228439E+05  2.291386E-10  8.753715E-11
       405  16  3.977241E+05  1.867875E+05 -9.815075E+03  3.012245E+05 -6.867497E-12 -1.677582E-12
       405  17  3.707064E+05  1.939088E+05 -5.597526E+03  2.955110E+05 -2.767123E-10 -9.817705E-11
       405  18  3.637308E+05  2.173513E+05  9.770622E+03  2.785653E+05 -1.170179E-10 -1.404314E-11
       405  19  5.430789E+05  3.040049E+05  3.317150E+04  3.808601E+05  1.527206E+03  9.055931E+03
       405  20  5.629350E+05  3.040557E+05  4.597107E+04  3.796113E+05  1.372856E+04  1.768412E+04
       405  21  6.043427E+05  3.219366E+05  7.597502E+04  3.671310E+05  2.811001E+04  2.340594E+04
       405  22  4.703982E+05  2.453939E+05  1.167848E+04  3.410393E+05  2.871348E+03  1.006390E+04
       405  23  4.668152E+05  2.489805E+05  2.018728E+04  3.375576E+05  1.158008E+04  1.607342E+04
       405  24  4.840282E+05  2.696426E+05  4.287358E+04  3.228442E+05  2.246838E+04  1.917655E+04
       405  25  3.977242E+05  1.867877E+05 -9.814812E+03  3.012245E+05  4.215266E+03  1.107167E+04
       405  26  3.707066E+05  1.939091E+05 -5.596966E+03  2.955111E+05  9.432082E+03  1.446299E+04
       405  27  3.637311E+05  2.173516E+05  9.771573E+03  2.785655E+05  1.682833E+04  1.494777E+04
       406   1  2.069981E+05  6.782213E+03 -8.945028E+03  1.647075E+04 -4.880525E+04 -4.231919E+03
       406   2  1.364995E+05  5.895803E+04  1.426874E+04  3.124468E+04 -3.721962E+04 -1.258531E+04
       406   3  4.904314E+04  4.920141E+04  1.446518E+04  7.045352E+04 -2.563508E+04 -1.131204E+04
       406   4 -1.460498E+05 -8.082449E+04 -9.389570E+04  6.079325E+04 -6.458233E+04 -4.235117E+03
       406   5 -1.365499E+05 -7.337010E+03 -4.416198E+04  4.857384E+04 -4.145404E+04 -1.258690E+04
       406   6 -1.460312E+05  2.195272E+03 -2.547195E+04  6.079308E+04 -1.832514E+04 -1.131111E+04
       406   7 -4.989789E+05 -1.684328E+05 -1.788533E+05  1.050905E+05 -8.035047E+04 -4.240568E+03
       406   8 -4.095284E+05 -7.363579E+04 -1.025968E+05  6.589527E+04 -4.568663E+04 -1.258872E+04
       406   9 -3.410691E+05 -4.481287E+04 -6.541086E+04  5.113571E+04 -1.101746E+04 -1.131041E+04
       406  10  2.069956E+05  6.781555E+03 -8.949537E+03  1.647058E+04  1.154079E-10 -6.625204E-11
       406  11  1.364980E+05  5.895749E+04  1.426584E+04  3.124430E+04 -3.640758E-10 -2.080715E-10
       406  12  4.904240E+04  4.920109E+04  1.446370E+04  7.045329E+04 -2.969322E-10 -6.319498E-11
       406  13 -1.460543E+05 -8.082562E+04 -9.390358E+04  6.079303E+04 -1.562077E-10  1.288691E-11
       406  14 -1.365517E+05 -7.337641E+03 -4.416551E+04  4.857342E+04  7.547528E-11 -1.918804E-10
       406  15 -1.460316E+05  2.195044E+03 -2.547283E+04  6.079291E+04 -2.522982E-10  9.454424E-12
       406  16 -4.989859E+05 -1.684345E+05 -1.788654E+05  1.050902E+05 -1.675399E-10 -7.690678E-11
       406  17 -4.095307E+05 -7.363652E+04 -1.026010E+05  6.589481E+04  8.479433E-12 -1.794670E-10
       406  18 -3.410692E+05 -4.481304E+04 -6.541132E+04  5.113561E+04  1.958390E-10 -8.642564E-11
       406  19  2.069981E+05  6.782213E+03 -8.945028E+03  1.647075E+04  4.880525E+04  4.231919E+03
       406  20  1.364995E+05  5.895803E+04  1.426874E+04  3.124468E+04  3.721962E+04  1.258531E+04
       406  21  4.904314E+04  4.920141E+04  1.446518E+04  7.045352E+04  2.563508E+04  1.131204E+04
       406  22 -1.460498E+05 -8.082449E+04 -9.389570E+04  6.079325E+04  6.458233E+04  4.235117E+03
       406  23 -1.365499E+05 -7.337010E+03 -4.416198E+04  4.857384E+04  4.145404E+04  1.258690E+04
       406  24 -1.460312E+05  2.195272E+03 -2.547195E+04  6.079308E+04  1.832514E+04  1.131111E+04
       406  25 -4.989789E+05 -1.684328E+05 -1.788533E+05  1.050905E+05  8.035047E+04  4.240568E+03
       406  26 -4.095284E+05 -7.363579E+04 -1.025968E+05  6.589527E+04  4.568663E+04  1.258872E+04
       406  27 -3.410691E+05 -4.481287E+04 -6.541086E+04  5.113571E+04  1.101746E+04  1.131041E+04
       407   1 -4.077444E+03  3.010983E+04  8.137349E+03  5.984411E+04 -1.988132E+04 -7.930167E+03
       407   2 -8.228172E+04  1.417187E+04  4.721017E+01  4.818727E+04 -1.448190E+04 -3.479156E+03
       407   3 -1.618803E+05 -4.547934E+03 -1.225433E+04  6.149477E+04 -9.083302E+03  1.467862E+03
       407   4 -1.421441E+05 -3.170514E+03 -2.018921E+04  6.090958E+04 -1.483701E+04 -7.929656E+03
       407   5 -1.413909E+05 -6.387857E+01 -1.201571E+04  4.842705E+04 -8.843942E+03 -3.478396E+03
       407   6 -1.421407E+05  1.580177E+02 -8.466639E+03  6.090910E+04 -2.851030E+03  1.468899E+03
       407   7 -2.801926E+05 -3.645204E+04 -4.851669E+04  6.197481E+04 -9.793799E+03 -7.929128E+03
       407   8 -2.004967E+05 -1.429982E+04 -2.407870E+04  4.866680E+04 -3.206512E+03 -3.477631E+03
       407   9 -1.224006E+05  4.863969E+03 -4.678818E+03  6.032342E+04  3.381435E+03  1.469924E+03
       407  10 -4.077885E+03  3.010966E+04  8.136488E+03  5.984398E+04  2.239657E-10 -7.555631E-11
       407  11 -8.228195E+04  1.417180E+04  4.679328E+01  4.818723E+04 -4.852885E-11 -1.098017E-11
       407  12 -1.618804E+05 -4.547959E+03 -1.225449E+04  6.149478E+04 -2.293798E-10 -5.290998E-11
       407  13 -1.421443E+05 -3.170641E+03 -2.018974E+04  6.090949E+04 -3.370667E-11  3.886227E-11
       407  14 -1.413910E+05 -6.391256E+01 -1.201588E+04  4.842702E+04 -9.838611E-11  1.336417E-10
       407  15 -1.421407E+05  1.580132E+02 -8.466659E+03  6.090911E+04 -1.376819E-10 -4.041649E-11
       407  16 -2.801927E+05 -3.645213E+04 -4.851699E+04  6.197475E+04 -2.792209E-11 -1.366258E-10
       407  17 -2.004967E+05 -1.429984E+04 -2.407874E+04  4.866679E+04 -1.031361E-10  7.598383E-11
       407  18 -1.224006E+05  4.863963E+03 -4.678843E+03  6.032341E+04  1.250026E-10  1.019908E-10
       407  19 -4.077444E+03  3.010983E+04  8.137349E+03  5.984411E+04  1.988132E+04  7.930167E+03
       407  20 -8.228172E+04  1.417187E+04  4.721017E+01  4.818727E+04  1.448190E+04  3.479156E+03
       407  21 -1.618803E+05 -4.547934E+03 -1.225433E+04  6.149477E+04  9.083302E+03 -1.467862E+03
       407  22 -1.421441E+05 -3.170514E+03 -2.018921E+04  6.090958E+04  1.483701E+04  7.929656E+03
       407  23 -1.413909E+05 -6.387857E+01 -1.201571E+04  4.842705E+04  8.843942E+03  3.478396E+03
       407  24 -1.421407E+05  1.580177E+02 -8.466639E+03  6.090910E+04  2.851030E+03 -1.468899E+03
       407  25 -2.801926E+05 -3.645204E+04 -4.851669E+04  6.197481E+04  9.793799E+03  7.929128E+03
       407  26 -2.004967E+05 -1.429982E+04 -2.407870E+04  4.866680E+04  3.206512E+03  3.477631E+03
       407  27 -1.224006E+05  4.863969E+03 -4.678818E+03  6.032342E+04 -3.381435E+03 -1.469924E+03
       408   1 -2.184607E+05 -1.836273E+04 -2.330254E+04  6.073813E+04 -7.685151E+03  4.547068E+03
       408   2 -2.968314E+05 -3.734871E+04 -3.946023E+04  4.864914E+04 -2.929321E+03  9.449816E+03
       408   3 -3.762327E+05 -5.802183E+04 -5.913666E+04  6.151564E+04  1.826643E+03  1.371375E+04
       408   4 -1.420085E+05  4.365062E+01 -7.738899E+03  6.090704E+04 -1.421599E+03  4.548014E+03
       408   5 -1.415609E+05  2.121986E+00 -8.015519E+03  4.842955E+04  2.568355E+03  9.450228E+03
       408   6 -1.420164E+05 -1.592911E+03 -1.127828E+04  6.090720E+04  6.559026E+03  1.371372E+04
       408   7 -6.555068E+04  1.844968E+04  7.824579E+03  6.107598E+04  4.842711E+03  4.548964E+03
       408   8  1.373265E+04  3.735147E+04  2.342806E+04  4.820991E+04  8.067380E+03  9.450637E+03
       408   9  9.225209E+04  5.483258E+04  3.657728E+04  6.029853E+04  1.129316E+04  1.371368E+04
       408  10 -2.184608E+05 -1.836276E+04 -2.330269E+04  6.073816E+04  1.469497E-10  1.339310E-10
       408  11 -2.968315E+05 -3.734881E+04 -3.946042E+04  4.864917E+04 -9.645900E-11  8.089614E-11
       408  12 -3.762327E+05 -5.802203E+04 -5.913702E+04  6.151561E+04 -1.637595E-10  1.923894E-10
       408  13 -1.420085E+05  4.362787E+01 -7.738942E+03  6.090705E+04  2.679185E-11  2.536447E-11
       408  14 -1.415609E+05  2.024324E+00 -8.015699E+03  4.842953E+04  3.026096E-10  6.014038E-11
       408  15 -1.420165E+05 -1.593124E+03 -1.127872E+04  6.090713E+04 -1.050164E-10  2.382263E-11
       408  16 -6.555071E+04  1.844965E+04  7.824496E+03  6.107596E+04 -7.067487E-11  5.301012E-11
       408  17  1.373256E+04  3.735136E+04  2.342777E+04  4.820984E+04  4.139738E-11 -7.382719E-11
       408  18  9.225190E+04  5.483234E+04  3.657669E+04  6.029841E+04  4.314004E-10 -8.601928E-11
       408  19 -2.184607E+05 -1.836273E+04 -2.330254E+04  6.073813E+04  7.685151E+03 -4.547068E+03
       408  20 -2.968314E+05 -3.734871E+04 -3.946023E+04  4.864914E+04  2.929321E+03 -9.449816E+03
       408  21 -3.762327E+05 -5.802183E+04 -5.913666E+04  6.151564E+04 -1.826643E+03 -1.371375E+04
       408  22 -1.420085E+05  4.365062E+01 -7.738899E+03  6.090704E+04  1.421599E+03 -4.548014E+03
       408  23 -1.415609E+05  2.121986E+00 -8.015519E+03  4.842955E+04 -2.568355E+03 -9.450228E+03
       408  24 -1.420164E+05 -1.592911E+03 -1.127828E+04  6.090720E+04 -6.559026E+03 -1.371372E+04
       408  25 -6.555068E+04  1.844968E+04  7.824579E+03  6.107598E+04 -4.842711E+03 -4.548964E+03
       408  26  1.373265E+04  3.735147E+04  2.342806E+04  4.820991E+04 -8.067380E+03 -9.450637E+03
       408  27  9.225209E+04  5.483258E+04  3.657728E+04  6.029853E+04 -1.129316E+04 -1.371368E+04
       409   1 -4.352230E+05 -6.905288E+04 -7.307426E+04  5.594316E+04  9.186027E+02  1.718109E+04
       409   2 -5.081260E+05 -9.327058E+04 -1.013078E+05  5.742064E+04  2.724085E+04  1.746207E+04
       409   3 -5.931209E+05 -1.523008E+05 -1.553828E+05  8.319761E+04  5.355618E+04  5.684176E+03
       409   4 -1.439505E+05  1.105529E+03 -1.365366E+04  6.076282E+04  8.489466E+03  1.718077E+04
       409   5 -1.391706E+05 -3.723671E+03 -2.267614E+04  4.861057E+04  2.035572E+04  1.746133E+04
       409   6 -1.439713E+05 -4.084369E+04 -4.749046E+04  6.075912E+04  3.221899E+04  5.685119E+03
       409   7  1.474029E+05  7.125875E+04  4.576270E+04  6.558478E+04  1.606382E+04  1.718056E+04
       409   8  2.299133E+05  8.581469E+04  5.594790E+04  3.979518E+04  1.346655E+04  1.746080E+04
       409   9  3.053652E+05  7.060086E+04  6.038952E+04  3.830433E+04  1.086642E+04  5.687606E+03
       409  10 -4.352231E+05 -6.905320E+04 -7.307482E+04  5.594314E+04  1.173211E-10  1.263476E-10
       409  11 -5.081269E+05 -9.327111E+04 -1.013098E+05  5.742026E+04 -2.312060E-10 -1.156370E-10
       409  12 -5.931240E+05 -1.523016E+05 -1.553882E+05  8.319736E+04 -4.422038E-10 -1.360028E-10
       409  13 -1.439507E+05  1.105193E+03 -1.365435E+04  6.076270E+04  6.637767E-11  1.382973E-11
       409  14 -1.391711E+05 -3.724110E+03 -2.267750E+04  4.861028E+04  1.781360E-11 -1.006882E-10
       409  15 -1.439724E+05 -4.084401E+04 -4.749247E+04  6.075898E+04 -1.988890E-10  2.422851E-11
       409  16  1.474026E+05  7.125836E+04  4.576166E+04  6.558456E+04  3.971803E-11 -1.175807E-10
       409  17  2.299131E+05  8.581431E+04  5.594699E+04  3.979499E+04 -1.481574E-10 -4.241219E-11
       409  18  3.053651E+05  7.060080E+04  6.038924E+04  3.830428E+04  5.473415E-10 -2.011871E-10
       409  19 -4.352230E+05 -6.905288E+04 -7.307426E+04  5.594316E+04 -9.186027E+02 -1.718109E+04
       409  20 -5.081260E+05 -9.327058E+04 -1.013078E+05  5.742064E+04 -2.724085E+04 -1.746207E+04
       409  21 -5.931209E+05 -1.523008E+05 -1.553828E+05  8.319761E+04 -5.355618E+04 -5.684176E+03
       409  22 -1.439505E+05  1.105529E+03 -1.365366E+04  6.076282E+04 -8.489466E+03 -1.718077E+04
       409  23 -1.391706E+05 -3.723671E+03 -2.267614E+04  4.861057E+04 -2.035572E+04 -1.746133E+04
       409  24 -1.439713E+05 -4.084369E+04 -4.749046E+04  6.075912E+04 -3.221899E+04 -5.685119E+03
       409  25  1.474029E+05  7.125875E+04  4.576270E+04  6.558478E+04 -1.606382E+04 -1.718056E+04
       409  26  2.299133E+05  8.581469E+04  5.594790E+04  3.979518E+04 -1.346655E+04 -1.746080E+04
       409  27  3.053652E+05  7.060086E+04  6.038952E+04  3.830433E+04 -1.086642E+04 -5.687606E+03
       410   1 -2.178762E+05 -7.614882E+05 -2.357560E+05  1.632009E+05 -4.170274E+03 -1.085182E+05
       410   2 -7.450942E+04 -6.207573E+05 -1.265594E+05  1.031346E+05 -1.128980E+04 -5.893113E+04
       410   3 -2.995108E+04 -5.111955E+05 -7.437838E+04  8.207169E+04 -7.528967E+03 -9.335320E+03
       410   4 -1.216134E+05 -3.738967E+05 -1.420210E+05  9.634645E+04 -4.153297E+03 -9.345910E+04
       410   5 -1.092453E+04 -3.594246E+05 -6.999151E+04  7.681942E+04 -1.128615E+04 -5.690262E+04
       410   6  3.240681E+03 -3.738556E+05 -4.590120E+04  9.630494E+04 -7.534236E+03 -2.034817E+04
       410   7 -2.534458E+04  1.384236E+04 -4.829348E+04  2.945010E+04 -4.139575E+03 -7.839055E+04
       410   8  5.265847E+04 -9.802621E+04 -1.342729E+04  5.049294E+04 -1.128268E+04 -5.487327E+04
       410   9  3.643207E+04 -2.364971E+05 -1.742450E+04  1.105414E+05 -7.540010E+03 -3.136341E+04
       410  10 -2.178794E+05 -7.615009E+05 -2.357782E+05  1.632005E+05  1.652801E-10  1.734271E-10
       410  11 -7.451049E+04 -6.207611E+05 -1.265662E+05  1.031341E+05  1.429526E-10  2.816069E-10
       410  12 -2.995116E+04 -5.111956E+05 -7.437865E+04  8.207163E+04  1.591077E-10 -4.019737E-10
       410  13 -1.216157E+05 -3.739061E+05 -1.420375E+05  9.634614E+04 -7.011279E-13  6.203551E-11
       410  14 -1.092553E+04 -3.594281E+05 -6.999783E+04  7.681890E+04  5.651587E-10 -1.366929E-10
       410  15  3.240509E+03 -3.738560E+05 -4.590209E+04  9.630482E+04  2.708319E-10  8.357256E-11
       410  16 -2.534625E+04  1.383575E+04 -4.830506E+04  2.944984E+04  6.456041E-11 -3.568282E-10
       410  17  5.265752E+04 -9.802947E+04 -1.343318E+04  5.049245E+04  1.846991E-10  3.005814E-10
       410  18  3.643174E+04 -2.364982E+05 -1.742645E+04  1.105412E+05 -9.547458E-11 -1.386616E-10
       410  19 -2.178762E+05 -7.614882E+05 -2.357560E+05  1.632009E+05  4.170274E+03  1.085182E+05
       410  20 -7.450942E+04 -6.207573E+05 -1.265594E+05  1.031346E+05  1.128980E+04  5.893113E+04
       410  21 -2.995108E+04 -5.111955E+05 -7.437838E+04  8.207169E+04  7.528967E+03  9.335320E+03
       410  22 -1.216134E+05 -3.738967E+05 -1.420210E+05  9.634645E+04  4.153297E+03  9.345910E+04
       410  23 -1.092453E+04 -3.594246E+05 -6.999151E+04  7.681942E+04  1.128615E+04  5.690262E+04
       410  24  3.240681E+03 -3.738556E+05 -4.590120E+04  9.630494E+04  7.534236E+03  2.034817E+04
       410  25 -2.534458E+04  1.384236E+04 -4.829348E+04  2.945010E+04  4.139575E+03  7.839055E+04
       410  26  5.265847E+04 -9.802621E+04 -1.342729E+04  5.049294E+04  1.128268E+04  5.487327E+04
       410  27  3.643207E+04 -2.364971E+05 -1.742450E+04  1.105414E+05  7.540010E+03  3.136341E+04
       411   1 -1.582093E+04 -4.156261E+05 -5.067292E+04  9.932210E+04 -2.292732E+03 -4.908017E+03
       411   2  1.844576E+04 -2.881551E+05 -2.087940E+04  7.660436E+04  4.798478E+03  1.311609E+04
       411   3  4.298276E+04 -1.654750E+05 -5.264639E+03  9.343530E+04  1.167062E+04  3.114425E+04
       411   4 -4.398030E+03 -3.685107E+05 -4.067816E+04  9.643213E+04 -2.296877E+03 -1.353488E+04
       411   5 -2.956747E+02 -3.660880E+05 -3.662618E+04  7.665772E+04  4.794772E+03  4.750428E+03
       411   6 -5.968227E+03 -3.685174E+05 -4.693462E+04  9.643291E+04  1.166746E+04  2.303630E+04
       411   7  7.024801E+03 -3.213930E+05 -3.068325E+04  9.354193E+04 -2.300942E+03 -2.216238E+04
       411   8 -1.903745E+04 -4.440151E+05 -5.237300E+04  7.671108E+04  4.791065E+03 -3.614201E+03
       411   9 -5.492174E+04 -5.715205E+05 -8.860655E+04  9.942951E+04  1.166423E+04  1.493096E+04
       411  10 -1.582095E+04 -4.156261E+05 -5.067297E+04  9.932210E+04  2.562994E-10  9.725322E-11
       411  11  1.844569E+04 -2.881553E+05 -2.087977E+04  7.660431E+04 -1.757469E-10  7.125397E-10
       411  12  4.298235E+04 -1.654760E+05 -5.266717E+03  9.343501E+04  1.816694E-10  1.761676E-10
       411  13 -4.398085E+03 -3.685109E+05 -4.067852E+04  9.643210E+04  1.708402E-10 -1.467624E-11
       411  14 -2.957054E+02 -3.660881E+05 -3.662626E+04  7.665771E+04  7.637718E-10 -1.620697E-10
       411  15 -5.968516E+03 -3.685180E+05 -4.693588E+04  9.643269E+04 -3.797854E-10  1.569133E-10
       411  16  7.024664E+03 -3.213935E+05 -3.068418E+04  9.354189E+04 -1.347233E-10 -4.825927E-10
       411  17 -1.903748E+04 -4.440151E+05 -5.237307E+04  7.671109E+04  6.976908E-11  6.568444E-11
       411  18 -5.492194E+04 -5.715208E+05 -8.860723E+04  9.942937E+04  1.895421E-10 -6.615351E-10
       411  19 -1.582093E+04 -4.156261E+05 -5.067292E+04  9.932210E+04  2.292732E+03  4.908017E+03
       411  20  1.844576E+04 -2.881551E+05 -2.087940E+04  7.660436E+04 -4.798478E+03 -1.311609E+04
       411  21  4.298276E+04 -1.654750E+05 -5.264639E+03  9.343530E+04 -1.167062E+04 -3.114425E+04
       411  22 -4.398030E+03 -3.685107E+05 -4.067816E+04  9.643213E+04  2.296877E+03  1.353488E+04
       411  23 -2.956747E+02 -3.660880E+05 -3.662618E+04  7.665772E+04 -4.794772E+03 -4.750428E+03
       411  24 -5.968227E+03 -3.685174E+05 -4.693462E+04  9.643291E+04 -1.166746E+04 -2.303630E+04
       411  25  7.024801E+03 -3.213930E+05 -3.068325E+04  9.354193E+04  2.300942E+03  2.216238E+04
       411  26 -1.903745E+04 -4.440151E+05 -5.237300E+04  7.671108E+04 -4.791065E+03  3.614201E+03
       411  27 -5.492174E+04 -5.715205E+05 -8.860655E+04  9.942951E+04 -1.166423E+04 -1.493096E+04
       412   1  7.498556E+04 -8.238980E+04  4.653182E+03  1.150991E+05  1.704235E+04  4.246966E+04
       412   2  8.689309E+04  5.999889E+04 -7.217116E+01  4.264573E+04  1.918380E+04  7.142815E+04
       412   3 -2.411019E+04  1.679449E+05 -5.436541E+04  8.948577E+03  6.483075E+03  1.003946E+05
       412   4  4.257946E+03 -3.757956E+05 -5.542253E+04  9.625129E+04  1.703702E+04  3.099054E+04
       412   5 -1.436574E+04 -3.570344E+05 -8.937181E+04  7.688837E+04  1.919052E+04  7.772935E+04
       412   6 -1.590449E+05 -3.758550E+05 -1.852663E+05  9.629022E+04  6.502296E+03  1.244689E+05
       412   7 -6.647367E+04 -6.691186E+05 -1.155021E+05  7.741255E+04  1.703238E+04  1.951675E+04
       412   8 -1.156315E+05 -7.739015E+05 -1.786808E+05  1.111077E+05  1.919794E+04  8.402637E+04
       412   9 -2.939721E+05 -9.193666E+05 -3.161821E+05  1.835551E+05  6.528307E+03  1.485221E+05
       412  10  7.498476E+04 -8.239182E+04  4.649247E+03  1.150985E+05  5.018970E-11  6.154613E-11
       412  11  8.689132E+04  5.999331E+04 -8.244929E+01  4.264463E+04 -3.513900E-11  2.895198E-10
       412  12 -2.411294E+04  1.679341E+05 -5.438442E+04  8.948053E+03  2.343490E-11  2.283026E-11
       412  13  4.257376E+03 -3.757967E+05 -5.542488E+04  9.625087E+04  2.197630E-10 -7.657437E-11
       412  14 -1.436776E+04 -3.570410E+05 -8.938386E+04  7.688717E+04  1.821917E-10 -7.234654E-11
       412  15 -1.590491E+05 -3.758716E+05 -1.852955E+05  9.628957E+04 -2.667924E-11 -3.149642E-11
       412  16 -6.647408E+04 -6.691190E+05 -1.155034E+05  7.741228E+04 -2.051834E-11 -2.767814E-10
       412  17 -1.156338E+05 -7.739091E+05 -1.786948E+05  1.111064E+05  8.445215E-11  2.278305E-10
       412  18 -2.939781E+05 -9.193904E+05 -3.162237E+05  1.835543E+05  1.164692E-11 -1.081575E-10
       412  19  7.498556E+04 -8.238980E+04  4.653182E+03  1.150991E+05 -1.704235E+04 -4.246966E+04
       412  20  8.689309E+04  5.999889E+04 -7.217116E+01  4.264573E+04 -1.918380E+04 -7.142815E+04
       412  21 -2.411019E+04  1.679449E+05 -5.436541E+04  8.948577E+03 -6.483075E+03 -1.003946E+05
       412  22  4.257946E+03 -3.757956E+05 -5.542253E+04  9.625129E+04 -1.703702E+04 -3.099054E+04
       412  23 -1.436574E+04 -3.570344E+05 -8.937181E+04  7.688837E+04 -1.919052E+04 -7.772935E+04
       412  24 -1.590449E+05 -3.758550E+05 -1.852663E+05  9.629022E+04 -6.502296E+03 -1.244689E+05
       412  25 -6.647367E+04 -6.691186E+05 -1.155021E+05  7.741255E+04 -1.703238E+04 -1.951675E+04
       412  26 -1.156315E+05 -7.739015E+05 -1.786808E+05  1.111077E+05 -1.919794E+04 -8.402637E+04
       412  27 -2.939721E+05 -9.193666E+05 -3.161821E+05  1.835551E+05 -6.528307E+03 -1.485221E+05
       413   1  7.721469E+05  6.597907E+05  1.981869E+05  5.541308E+05  1.132718E+05  8.599458E+04
       413   2  7.562790E+05  4.870031E+05  8.734680E+04  6.050288E+05  7.187966E+04  5.744994E+04
       413   3  8.182768E+05  4.219603E+05  4.499402E+04  6.077137E+05  3.126825E+04  2.786246E+04
       413   4  9.063889E+05  5.916918E+05  2.107804E+05  5.453985E+05  1.158553E+05  8.790312E+04
       413   5  8.338425E+05  4.780790E+05  9.892809E+04  6.142408E+05  7.318761E+04  5.842334E+04
       413   6  8.394241E+05  4.724656E+05  5.665391E+04  6.348735E+05  3.130704E+04  2.789333E+04
       413   7  1.040669E+06  5.236161E+05  2.233792E+05  5.366574E+05  1.184397E+05  8.981102E+04
       413   8  9.114154E+05  4.691573E+05  1.105100E+05  6.234521E+05  7.449579E+04  5.939666E+04
       413   9  8.605724E+05  5.229747E+05  6.831370E+04  6.620347E+05  3.134583E+04  2.792421E+04
       413  10  7.721312E+05  6.597793E+05  1.981490E+05  5.541230E+05  1.645634E-10  9.030449E-11
       413  11  7.562725E+05  4.869982E+05  8.733092E+04  6.050255E+05 -3.356555E-10 -2.701894E-10
       413  12  8.182755E+05  4.219592E+05  4.499073E+04  6.077130E+05 -6.456049E-10 -3.327343E-10
       413  13  9.063724E+05  5.916799E+05  2.107407E+05  5.453903E+05  3.385686E-10  1.557261E-11
       413  14  8.338359E+05  4.780739E+05  9.891164E+04  6.142374E+05  4.646495E-10  8.692173E-11
       413  15  8.394228E+05  4.724645E+05  5.665061E+04  6.348728E+05 -3.379528E-11  1.093668E-10
       413  16  1.040652E+06  5.236037E+05  2.233378E+05  5.366488E+05 -2.217781E-10 -1.608137E-10
       413  17  9.114085E+05  4.691521E+05  1.104930E+05  6.234486E+05  3.081429E-10  2.269833E-11
       413  18  8.605711E+05  5.229736E+05  6.831039E+04  6.620340E+05  6.103176E-10  5.070924E-10
       413  19  7.721469E+05  6.597907E+05  1.981869E+05  5.541308E+05 -1.132718E+05 -8.599458E+04
       413  20  7.562790E+05  4.870031E+05  8.734680E+04  6.050288E+05 -7.187966E+04 -5.744994E+04
       413  21  8.182768E+05  4.219603E+05  4.499402E+04  6.077137E+05 -3.126825E+04 -2.786246E+04
       413  22  9.063889E+05  5.916918E+05  2.107804E+05  5.453985E+05 -1.158553E+05 -8.790312E+04
       413  23  8.338425E+05  4.780790E+05  9.892809E+04  6.142408E+05 -7.318761E+04 -5.842334E+04
       413  24  8.394241E+05  4.724656E+05  5.665391E+04  6.348735E+05 -3.130704E+04 -2.789333E+04
       413  25  1.040669E+06  5.236161E+05  2.233792E+05  5.366574E+05 -1.184397E+05 -8.981102E+04
       413  26  9.114154E+05  4.691573E+05  1.105100E+05  6.234521E+05 -7.449579E+04 -5.939666E+04
       413  27  8.605724E+05  5.229747E+05  6.831370E+04  6.620347E+05 -3.134583E+04 -2.792421E+04
       414   1  7.926891E+05  4.487308E+05  3.252841E+04  6.038557E+05  2.480668E+04  2.307737E+04
       414   2  7.895432E+05  4.402918E+05  1.314294E+04  6.048907E+05  1.449654E+04  1.567663E+04
       414   3  7.899963E+05  4.378153E+05  3.589339E+03  6.046567E+05  4.229279E+03  8.218984E+03
       414   4  8.381602E+05  4.770173E+05  4.457438E+04  6.248825E+05  2.509594E+04  2.329403E+04
       414   5  8.349942E+05  4.716061E+05  2.559227E+04  6.273376E+05  1.471635E+04  1.584135E+04
       414   6  8.354422E+05  4.721720E+05  1.650166E+04  6.285236E+05  4.379579E+03  8.331640E+03
       414   7  8.836335E+05  5.053048E+05  5.662017E+04  6.459109E+05  2.538523E+04  2.351071E+04
       414   8  8.804479E+05  5.029217E+05  3.804152E+04  6.497864E+05  1.493618E+04  1.600610E+04
       414   9  8.808909E+05  5.065305E+05  2.941398E+04  6.523929E+05  4.529896E+03  8.444308E+03
       414  10  7.926883E+05  4.487300E+05  3.252625E+04  6.038553E+05 -9.156155E-11  1.501729E-10
       414  11  7.895429E+05  4.402915E+05  1.314208E+04  6.048906E+05 -1.611930E-10 -4.961356E-10
       414  12  7.899962E+05  4.378153E+05  3.589179E+03  6.046567E+05 -2.183256E-10 -5.429315E-10
       414  13  8.381593E+05  4.770166E+05  4.457218E+04  6.248820E+05 -4.319114E-10  6.422975E-11
       414  14  8.349939E+05  4.716058E+05  2.559140E+04  6.273374E+05  4.630298E-10 -2.133207E-10
       414  15  8.354421E+05  4.721719E+05  1.650149E+04  6.285236E+05  3.103761E-10 -3.477296E-10
       414  16  8.836327E+05  5.053040E+05  5.661793E+04  6.459104E+05 -8.209293E-11 -3.784394E-11
       414  17  8.804476E+05  5.029214E+05  3.804062E+04  6.497862E+05  1.094277E-10 -1.529721E-10
       414  18  8.808909E+05  5.065304E+05  2.941381E+04  6.523929E+05  8.368231E-10 -2.325991E-10
       414  19  7.926891E+05  4.487308E+05  3.252841E+04  6.038557E+05 -2.480668E+04 -2.307737E+04
       414  20  7.895432E+05  4.402918E+05  1.314294E+04  6.048907E+05 -1.449654E+04 -1.567663E+04
       414  21  7.899963E+05  4.378153E+05  3.589339E+03  6.046567E+05 -4.229279E+03 -8.218984E+03
       414  22  8.381602E+05  4.770173E+05  4.457438E+04  6.248825E+05 -2.509594E+04 -2.329403E+04
       414  23  8.349942E+05  4.716061E+05  2.559227E+04  6.273376E+05 -1.471635E+04 -1.584135E+04
       414  24  8.354422E+05  4.721720E+05  1.650166E+04  6.285236E+05 -4.379579E+03 -8.331640E+03
       414  25  8.836335E+05  5.053048E+05  5.662017E+04  6.459109E+05 -2.538523E+04 -2.351071E+04
       414  26  8.804479E+05  5.029217E+05  3.804152E+04  6.497864E+05 -1.493618E+04 -1.600610E+04
       414  27  8.808909E+05  5.065305E+05  2.941398E+04  6.523929E+05 -4.529896E+03 -8.444308E+03
       415   1  7.874149E+05  4.381749E+05  7.987810E+02  6.038613E+05  1.983449E+03  6.651675E+03
       415   2  7.853630E+05  4.363314E+05 -1.577970E+03  6.028008E+05 -2.943545E+03  3.169121E+03
       415   3  7.833569E+05  4.359757E+05  1.160120E+02  6.021261E+05 -7.865285E+03 -3.202011E+02
       415   4  8.352865E+05  4.723078E+05  1.408122E+04  6.280421E+05  2.150211E+03  6.776644E+03
       415   5  8.352641E+05  4.715656E+05  1.220335E+04  6.278471E+05 -2.785479E+03  3.287562E+03
       415   6  8.352892E+05  4.723129E+05  1.440348E+04  6.280379E+05 -7.715965E+03 -2.083220E+02
       415   7  8.831601E+05  5.064416E+05  2.736322E+04  6.522247E+05  2.316987E+03  6.901626E+03
       415   8  8.851676E+05  5.068010E+05  2.598432E+04  6.528956E+05 -2.627396E+03  3.406015E+03
       415   9  8.872245E+05  5.086516E+05  2.869069E+04  6.539523E+05 -7.566628E+03 -9.643037E+01
       415  10  7.874149E+05  4.381748E+05  7.986906E+02  6.038613E+05 -7.810524E-10 -6.659680E-10
       415  11  7.853630E+05  4.363314E+05 -1.578005E+03  6.028008E+05 -5.234842E-10 -3.461996E-12
       415  12  7.833568E+05  4.359757E+05  1.158957E+02  6.021261E+05 -2.019318E-10 -9.854954E-12
       415  13  8.352865E+05  4.723078E+05  1.408112E+04  6.280421E+05  8.616750E-11 -2.779998E-10
       415  14  8.352641E+05  4.715656E+05  1.220332E+04  6.278471E+05  1.387943E-09  1.743003E-10
       415  15  8.352891E+05  4.723129E+05  1.440337E+04  6.280379E+05  2.435546E-10  1.457429E-10
       415  16  8.831600E+05  5.064415E+05  2.736312E+04  6.522246E+05  1.109680E-09  8.062094E-11
       415  17  8.851676E+05  5.068010E+05  2.598428E+04  6.528956E+05  3.798733E-10  1.647614E-10
       415  18  8.872244E+05  5.086516E+05  2.869058E+04  6.539523E+05  2.533269E-10  2.538858E-10
       415  19  7.874149E+05  4.381749E+05  7.987810E+02  6.038613E+05 -1.983449E+03 -6.651675E+03
       415  20  7.853630E+05  4.363314E+05 -1.577970E+03  6.028008E+05  2.943545E+03 -3.169121E+03
       415  21  7.833569E+05  4.359757E+05  1.160120E+02  6.021261E+05  7.865285E+03  3.202011E+02
       415  22  8.352865E+05  4.723078E+05  1.408122E+04  6.280421E+05 -2.150211E+03 -6.776644E+03
       415  23  8.352641E+05  4.715656E+05  1.220335E+04  6.278471E+05  2.785479E+03 -3.287562E+03
       415  24  8.352892E+05  4.723129E+05  1.440348E+04  6.280379E+05  7.715965E+03  2.083220E+02
       415  25  8.831601E+05  5.064416E+05  2.736322E+04  6.522247E+05 -2.316987E+03 -6.901626E+03
       415  26  8.851676E+05  5.068010E+05  2.598432E+04  6.528956E+05  2.627396E+03 -3.406015E+03
       415  27  8.872245E+05  5.086516E+05  2.869069E+04  6.539523E+05  7.566628E+03  9.643037E+01
       416   1  7.809871E+05  4.360742E+05  2.342280E+03  6.023077E+05 -1.018426E+04 -1.929828E+03
       416   2  7.805041E+05  4.322712E+05  1.139748E+04  5.995772E+05 -2.077566E+04 -9.715613E+03
       416   3  7.837632E+05  4.346946E+05  3.065080E+04  5.955183E+05 -3.129611E+04 -1.759657E+04
       416   4  8.354473E+05  4.721814E+05  1.701161E+04  6.285486E+05 -1.000986E+04 -1.799129E+03
       416   5  8.349839E+05  4.715880E+05  2.662026E+04  6.273103E+05 -2.071668E+04 -9.671486E+03
       416   6  8.382871E+05  4.772457E+05  4.652629E+04  6.247436E+05 -3.135242E+04 -1.763901E+04
       416   7  8.899114E+05  5.082904E+05  3.168090E+04  6.547925E+05 -9.835434E+03 -1.668415E+03
       416   8  8.894669E+05  5.109066E+05  4.184275E+04  6.550461E+05 -2.065769E+04 -9.627353E+03
       416   9  8.928136E+05  5.197984E+05  6.240123E+04  6.539716E+05 -3.140874E+04 -1.768145E+04
       416  10  7.809870E+05  4.360742E+05  2.342078E+03  6.023076E+05  4.744681E-10  7.007739E-12
       416  11  7.805036E+05  4.322710E+05  1.139649E+04  5.995770E+05  3.879364E-10 -4.184916E-10
       416  12  7.837621E+05  4.346940E+05  3.064838E+04  5.955179E+05  1.682049E-10 -5.519204E-10
       416  13  8.354472E+05  4.721813E+05  1.701141E+04  6.285486E+05 -1.787707E-10 -1.223100E-10
       416  14  8.349834E+05  4.715878E+05  2.661928E+04  6.273101E+05 -2.724445E-10 -2.713888E-10
       416  15  8.382860E+05  4.772451E+05  4.652387E+04  6.247432E+05 -2.350363E-10 -2.643431E-10
       416  16  8.899113E+05  5.082904E+05  3.168071E+04  6.547925E+05 -2.886787E-10 -4.011862E-11
       416  17  8.894665E+05  5.109064E+05  4.184178E+04  6.550460E+05  4.259573E-10 -1.271603E-10
       416  18  8.928125E+05  5.197978E+05  6.239879E+04  6.539712E+05  5.598291E-10  8.248869E-11
       416  19  7.809871E+05  4.360742E+05  2.342280E+03  6.023077E+05  1.018426E+04  1.929828E+03
       416  20  7.805041E+05  4.322712E+05  1.139748E+04  5.995772E+05  2.077566E+04  9.715613E+03
       416  21  7.837632E+05  4.346946E+05  3.065080E+04  5.955183E+05  3.129611E+04  1.759657E+04
       416  22  8.354473E+05  4.721814E+05  1.701161E+04  6.285486E+05  1.000986E+04  1.799129E+03
       416  23  8.349839E+05  4.715880E+05  2.662026E+04  6.273103E+05  2.071668E+04  9.671486E+03
       416  24  8.382871E+05  4.772457E+05  4.652629E+04  6.247436E+05  3.135242E+04  1.763901E+04
       416  25  8.899114E+05  5.082904E+05  3.168090E+04  6.547925E+05  9.835434E+03  1.668415E+03
       416  26  8.894669E+05  5.109066E+05  4.184275E+04  6.550461E+05  2.065769E+04  9.627353E+03
       416  27  8.928136E+05  5.197984E+05  6.240123E+04  6.539716E+05  3.140874E+04  1.768145E+04
       417   1  7.595355E+05  4.530323E+05  4.294496E+04  6.122843E+05 -3.827272E+04 -2.260279E+04
       417   2  8.126080E+05  3.967541E+05  8.598655E+04  5.720938E+05 -7.909199E+04 -5.407973E+04
       417   3  9.470264E+05  4.528511E+05  1.999503E+05  4.814651E+05 -1.186098E+05 -8.729236E+04
       417   4  8.396393E+05  4.724569E+05  5.917573E+04  6.351808E+05 -3.791650E+04 -2.233385E+04
       417   5  8.337393E+05  4.783905E+05  1.034032E+05  6.136291E+05 -8.083190E+04 -5.539159E+04
       417   6  9.096187E+05  5.971371E+05  2.203658E+05  5.416453E+05 -1.224404E+05 -9.019390E+04
       417   7  9.197512E+05  4.918822E+05  7.540646E+04  6.580791E+05 -3.756022E+04 -2.206492E+04
       417   8  8.548739E+05  5.600401E+05  1.208206E+05  6.551683E+05 -8.257189E+04 -5.670386E+04
       417   9  8.722303E+05  7.414753E+05  2.407870E+05  6.018255E+05 -1.262705E+05 -9.309716E+04
       417  10  7.595338E+05  4.530314E+05  4.294125E+04  6.122836E+05  3.302237E-10 -2.278479E-10
       417  11  8.126006E+05  3.967492E+05  8.596933E+04  5.720904E+05 -6.082759E-10 -1.164018E-10
       417  12  9.470092E+05  4.528391E+05  1.999096E+05  4.814568E+05 -7.117588E-11  6.428290E-12
       417  13  8.396376E+05  4.724560E+05  5.917210E+04  6.351801E+05 -4.006582E-10 -1.943903E-10
       417  14  8.337315E+05  4.783855E+05  1.033852E+05  6.136255E+05 -3.016358E-11 -2.951596E-10
       417  15  9.096004E+05  5.971243E+05  2.203224E+05  5.416364E+05  4.284285E-10  7.353286E-12
       417  16  9.197495E+05  4.918813E+05  7.540290E+04  6.580784E+05  8.305064E-10 -2.525983E-10
       417  17  8.548657E+05  5.600348E+05  1.208018E+05  6.551645E+05  5.466900E-10  9.836503E-12
       417  18  8.722109E+05  7.414617E+05  2.407408E+05  6.018160E+05  6.593218E-10 -4.457960E-11
       417  19  7.595355E+05  4.530323E+05  4.294496E+04  6.122843E+05  3.827272E+04  2.260279E+04
       417  20  8.126080E+05  3.967541E+05  8.598655E+04  5.720938E+05  7.909199E+04  5.407973E+04
       417  21  9.470264E+05  4.528511E+05  1.999503E+05  4.814651E+05  1.186098E+05  8.729236E+04
       417  22  8.396393E+05  4.724569E+05  5.917573E+04  6.351808E+05  3.791650E+04  2.233385E+04
       417  23  8.337393E+05  4.783905E+05  1.034032E+05  6.136291E+05  8.083190E+04  5.539159E+04
       417  24  9.096187E+05  5.971371E+05  2.203658E+05  5.416453E+05  1.224404E+05  9.019390E+04
       417  25  9.197512E+05  4.918822E+05  7.540646E+04  6.580791E+05  3.756022E+04  2.206492E+04
       417  26  8.548739E+05  5.600401E+05  1.208206E+05  6.551683E+05  8.257189E+04  5.670386E+04
       417  27  8.722303E+05  7.414753E+05  2.407870E+05  6.018255E+05  1.262705E+05  9.309716E+04
       418   1  9.860042E+04  1.985658E+04  1.087412E+04 -4.889161E+03 -2.073824E+04 -3.445025E+03
       418   2  7.904415E+04  5.091235E+04  2.482021E+04  5.644449E+03 -1.653506E+04 -1.108602E+04
       418   3  5.094458E+04  4.992234E+04  2.802099E+04  2.333565E+04 -1.233038E+04 -1.218894E+04
       418   4 -1.518391E+05 -4.223084E+04 -4.904415E+04  1.829612E+04 -3.382081E+04 -3.442866E+03
       418   5 -1.468813E+05 -3.842242E+03 -2.300058E+04  1.472109E+04 -2.177507E+04 -1.108564E+04
       418   6 -1.518327E+05  1.131821E+03 -1.315225E+04  1.830385E+04 -9.727362E+03 -1.218946E+04
       418   7 -4.022196E+05 -1.043207E+05 -1.089659E+05  4.147201E+04 -4.689813E+04 -3.441684E+03
       418   8 -3.727584E+05 -5.859981E+04 -7.082412E+04  2.379437E+04 -2.701320E+04 -1.108541E+04
       418   9 -3.545709E+05 -4.766116E+04 -5.432760E+04  1.327372E+04 -7.125183E+03 -1.219002E+04
       418  10  9.859995E+04  1.985646E+04  1.087329E+04 -4.889218E+03 -3.290114E-10  2.563577E-10
       418  11  7.904383E+04  5.091214E+04  2.481946E+04  5.644302E+03  2.670985E-10 -3.024841E-11
       418  12  5.094437E+04  4.992214E+04  2.802043E+04  2.333553E+04  9.000883E-10 -1.534528E-11
       418  13 -1.518403E+05 -4.223116E+04 -4.904632E+04  1.829603E+04  7.463327E-11 -1.414266E-10
       418  14 -1.468819E+05 -3.842501E+03 -2.300170E+04  1.472089E+04  2.601481E-10  1.329909E-11
       418  15 -1.518329E+05  1.131636E+03 -1.315271E+04  1.830375E+04  2.654135E-10  2.005031E-11
       418  16 -4.022219E+05 -1.043213E+05 -1.089701E+05  4.147188E+04  1.589910E-10 -1.562297E-10
       418  17 -3.727593E+05 -5.860014E+04 -7.082573E+04  2.379413E+04 -3.896888E-10 -7.964268E-11
       418  18 -3.545710E+05 -4.766134E+04 -5.432798E+04  1.327365E+04 -6.466034E-10 -3.663773E-10
       418  19  9.860042E+04  1.985658E+04  1.087412E+04 -4.889161E+03  2.073824E+04  3.445025E+03
       418  20  7.904415E+04  5.091235E+04  2.482021E+04  5.644449E+03  1.653506E+04  1.108602E+04
       418  21  5.094458E+04  4.992234E+04  2.802099E+04  2.333565E+04  1.233038E+04  1.218894E+04
       418  22 -1.518391E+05 -4.223084E+04 -4.904415E+04  1.829612E+04  3.382081E+04  3.442866E+03
       418  23 -1.468813E+05 -3.842242E+03 -2.300058E+04  1.472109E+04  2.177507E+04  1.108564E+04
       418  24 -1.518327E+05  1.131821E+03 -1.315225E+04  1.830385E+04  9.727362E+03  1.218946E+04
       418  25 -4.022196E+05 -1.043207E+05 -1.089659E+05  4.147201E+04  4.689813E+04  3.441684E+03
       418  26 -3.727584E+05 -5.859981E+04 -7.082412E+04  2.379437E+04  2.701320E+04  1.108541E+04
       418  27 -3.545709E+05 -4.766116E+04 -5.432760E+04  1.327372E+04  7.125183E+03  1.219002E+04
       419   1  3.566919E+04  4.297036E+04  2.740892E+04  1.782112E+04 -8.997557E+03 -1.104055E+04
       419   2  1.220386E+04  3.879755E+04  2.672076E+04  1.450823E+04 -6.490730E+03 -9.977869E+03
       419   3 -1.193362E+04  3.321154E+04  2.404907E+04  1.871411E+04 -3.984177E+03 -8.552595E+03
       419   4 -1.497961E+05 -1.673516E+03 -1.033428E+04  1.838231E+04 -7.937989E+03 -1.104091E+04
       419   5 -1.494205E+05 -5.232411E+01 -5.892902E+03  1.462289E+04 -4.996847E+03 -9.978150E+03
       419   6 -1.497934E+05  8.001945E+01 -3.737172E+03  1.838237E+04 -2.055884E+03 -8.552754E+03
       419   7 -3.352286E+05 -4.631954E+04 -4.807929E+04  1.894332E+04 -6.878732E+03 -1.104127E+04
       419   8 -3.110200E+05 -3.890381E+04 -3.850790E+04  1.473751E+04 -3.503345E+03 -9.978430E+03
       419   9 -2.876350E+05 -3.305268E+04 -3.152438E+04  1.805070E+04 -1.280115E+02 -8.552914E+03
       419  10  3.566907E+04  4.297021E+04  2.740854E+04  1.782104E+04 -3.113974E-10 -1.553965E-11
       419  11  1.220379E+04  3.879743E+04  2.672049E+04  1.450818E+04 -8.634307E-11  1.281423E-10
       419  12 -1.193365E+04  3.321146E+04  2.404890E+04  1.871409E+04  3.560804E-10  8.742953E-11
       419  13 -1.497962E+05 -1.673664E+03 -1.033463E+04  1.838224E+04  1.383587E-11 -2.361655E-10
       419  14 -1.494206E+05 -5.243772E+01 -5.893136E+03  1.462285E+04  2.980179E-10  9.045407E-11
       419  15 -1.497934E+05  7.993977E+01 -3.737318E+03  1.838236E+04  3.007167E-10  2.335408E-10
       419  16 -3.352287E+05 -4.631968E+04 -4.807960E+04  1.894326E+04  3.226889E-10 -2.322188E-10
       419  17 -3.110201E+05 -3.890392E+04 -3.850811E+04  1.473748E+04 -2.435878E-10  6.150400E-11
       419  18 -2.876350E+05 -3.305275E+04 -3.152451E+04  1.805070E+04 -8.394073E-11  2.312488E-10
       419  19  3.566919E+04  4.297036E+04  2.740892E+04  1.782112E+04  8.997557E+03  1.104055E+04
       419  20  1.220386E+04  3.879755E+04  2.672076E+04  1.450823E+04  6.490730E+03  9.977869E+03
       419  21 -1.193362E+04  3.321154E+04  2.404907E+04  1.871411E+04  3.984177E+03  8.552595E+03
       419  22 -1.497961E+05 -1.673516E+03 -1.033428E+04  1.838231E+04  7.937989E+03  1.104091E+04
       419  23 -1.494205E+05 -5.232411E+01 -5.892902E+03  1.462289E+04  4.996847E+03  9.978150E+03
       419  24 -1.497934E+05  8.001945E+01 -3.737172E+03  1.838237E+04  2.055884E+03  8.552754E+03
       419  25 -3.352286E+05 -4.631954E+04 -4.807929E+04  1.894332E+04  6.878732E+03  1.104127E+04
       419  26 -3.110200E+05 -3.890381E+04 -3.850790E+04  1.473751E+04  3.503345E+03  9.978430E+03
       419  27 -2.876350E+05 -3.305268E+04 -3.152438E+04  1.805070E+04  1.280115E+02  8.552914E+03
       420   1 -2.894109E+04  2.898547E+04  2.109292E+04  1.840408E+04 -3.292155E+03 -7.623642E+03
       420   2 -5.262617E+04  2.329794E+04  1.687829E+04  1.471076E+04 -2.020029E+03 -6.077663E+03
       420   3 -7.657189E+04  1.721941E+04  1.173819E+04  1.856063E+04 -7.481192E+02 -4.511569E+03
       420   4 -1.496852E+05 -1.225628E+01 -3.140134E+03  1.838776E+04 -1.448930E+03 -7.623734E+03
       420   5 -1.495516E+05  1.353629E+01 -2.607662E+03  1.461613E+04 -1.529186E+02 -6.077671E+03
       420   6 -1.496837E+05 -3.559269E+02 -3.017452E+03  1.838776E+04  1.142924E+03 -4.511490E+03
       420   7 -2.704154E+05 -2.901088E+04 -2.737391E+04  1.837144E+04  3.939427E+02 -7.623826E+03
       420   8 -2.464681E+05 -2.327145E+04 -2.209408E+04  1.452151E+04  1.713906E+03 -6.077680E+03
       420   9 -2.227905E+05 -1.793160E+04 -1.777336E+04  1.821491E+04  3.033748E+03 -4.511413E+03
       420  10 -2.894112E+04  2.898540E+04  2.109279E+04  1.840406E+04  4.311594E-11  2.455058E-11
       420  11 -5.262619E+04  2.329790E+04  1.687821E+04  1.471075E+04  1.147715E-10  2.151400E-11
       420  12 -7.657190E+04  1.721939E+04  1.173815E+04  1.856063E+04  9.201274E-11 -1.511226E-11
       420  13 -1.496852E+05 -1.231925E+01 -3.140247E+03  1.838775E+04  3.158713E-10  1.101593E-10
       420  14 -1.495516E+05  1.349662E+01 -2.607732E+03  1.461612E+04 -7.129041E-11  5.812142E-11
       420  15 -1.496838E+05 -3.559491E+02 -3.017493E+03  1.838777E+04 -6.457629E-11 -1.606557E-10
       420  16 -2.704154E+05 -2.901094E+04 -2.737402E+04  1.837144E+04  1.958498E-10  1.602545E-10
       420  17 -2.464681E+05 -2.327149E+04 -2.209415E+04  1.452152E+04 -5.114246E-11 -3.760033E-11
       420  18 -2.227905E+05 -1.793162E+04 -1.777341E+04  1.821492E+04  9.766302E-11 -7.363022E-11
       420  19 -2.894109E+04  2.898547E+04  2.109292E+04  1.840408E+04  3.292155E+03  7.623642E+03
       420  20 -5.262617E+04  2.329794E+04  1.687829E+04  1.471076E+04  2.020029E+03  6.077663E+03
       420  21 -7.657189E+04  1.721941E+04  1.173819E+04  1.856063E+04  7.481192E+02  4.511569E+03
       420  22 -1.496852E+05 -1.225628E+01 -3.140134E+03  1.838776E+04  1.448930E+03  7.623734E+03
       420  23 -1.495516E+05  1.353629E+01 -2.607662E+03  1.461613E+04  1.529186E+02  6.077671E+03
       420  24 -1.496837E+05 -3.559269E+02 -3.017452E+03  1.838776E+04 -1.142924E+03  4.511490E+03
       420  25 -2.704154E+05 -2.901088E+04 -2.737391E+04  1.837144E+04 -3.939427E+02  7.623826E+03
       420  26 -2.464681E+05 -2.327145E+04 -2.209408E+04  1.452151E+04 -1.713906E+03  6.077680E+03
       420  27 -2.227905E+05 -1.793160E+04 -1.777336E+04  1.821491E+04 -3.033748E+03  4.511413E+03
       421   1 -9.411940E+04  1.370361E+04  7.744464E+03  1.730314E+04 -2.343615E+02 -3.594043E+03
       421   2 -1.168319E+05  6.886533E+03  1.108594E+03  1.665213E+04  2.568447E+03 -2.022451E+03
       421   3 -1.417672E+05 -7.358944E+03 -9.209696E+03  2.354913E+04  5.371152E+03 -4.547981E+02
       421   4 -1.501179E+05  2.638274E+02 -3.449232E+03  1.838872E+04  1.653367E+03 -3.593931E+03
       421   5 -1.490070E+05 -8.427745E+02 -5.356224E+03  1.461497E+04  4.451280E+03 -2.022320E+03
       421   6 -1.501181E+05 -9.377009E+03 -1.094218E+04  1.838933E+04  7.249187E+03 -4.546747E+02
       421   7 -2.061135E+05 -1.317614E+04 -1.464307E+04  1.947420E+04  3.540928E+03 -3.593812E+03
       421   8 -1.811811E+05 -8.572128E+03 -1.182108E+04  1.257792E+04  6.334018E+03 -2.022201E+03
       421   9 -1.584689E+05 -1.139498E+04 -1.267463E+04  1.322961E+04  9.127197E+03 -4.545824E+02
       421  10 -9.411940E+04  1.370359E+04  7.744439E+03  1.730314E+04 -5.521377E-11 -7.386215E-11
       421  11 -1.168319E+05  6.886526E+03  1.108574E+03  1.665214E+04 -1.777868E-10 -1.659022E-10
       421  12 -1.417672E+05 -7.358952E+03 -9.209751E+03  2.354913E+04 -8.362933E-11 -1.071757E-10
       421  13 -1.501179E+05  2.638128E+02 -3.449262E+03  1.838872E+04  1.633754E-10 -1.137938E-10
       421  14 -1.490070E+05 -8.427842E+02 -5.356269E+03  1.461498E+04 -1.347737E-10 -1.533932E-10
       421  15 -1.501182E+05 -9.377023E+03 -1.094228E+04  1.838934E+04  2.440153E-10  7.440907E-11
       421  16 -2.061135E+05 -1.317615E+04 -1.464312E+04  1.947421E+04  1.553676E-10 -1.048216E-10
       421  17 -1.811811E+05 -8.572143E+03 -1.182116E+04  1.257793E+04 -2.541761E-11 -1.981693E-10
       421  18 -1.584690E+05 -1.139500E+04 -1.267479E+04  1.322961E+04  1.851029E-11 -8.468092E-12
       421  19 -9.411940E+04  1.370361E+04  7.744464E+03  1.730314E+04  2.343615E+02  3.594043E+03
       421  20 -1.168319E+05  6.886533E+03  1.108594E+03  1.665213E+04 -2.568447E+03  2.022451E+03
       421  21 -1.417672E+05 -7.358944E+03 -9.209696E+03  2.354913E+04 -5.371152E+03  4.547981E+02
       421  22 -1.501179E+05  2.638274E+02 -3.449232E+03  1.838872E+04 -1.653367E+03  3.593931E+03
       421  23 -1.490070E+05 -8.427745E+02 -5.356224E+03  1.461497E+04 -4.451280E+03  2.022320E+03
       421  24 -1.501181E+05 -9.377009E+03 -1.094218E+04  1.838933E+04 -7.249187E+03  4.546747E+02
       421  25 -2.061135E+05 -1.317614E+04 -1.464307E+04  1.947420E+04 -3.540928E+03  3.593812E+03
       421  26 -1.811811E+05 -8.572128E+03 -1.182108E+04  1.257792E+04 -6.334018E+03  2.022201E+03
       421  27 -1.584689E+05 -1.139498E+04 -1.267463E+04  1.322961E+04 -9.127197E+03  4.545824E+02
       422   1 -2.635520E+05 -9.414254E+05 -2.515196E+05  2.159354E+05 -1.339753E+04 -3.001375E+04
       422   2 -2.061450E+05 -6.430583E+05 -1.713718E+05  1.778033E+05 -3.876530E+04  1.482103E+03
       422   3 -1.360340E+05 -3.454962E+05 -1.085681E+05  2.322223E+05 -3.224531E+04  3.297905E+04
       422   4  2.427148E+04  2.176196E+05  2.792293E+04  2.297365E+05 -1.335998E+04  1.955830E+04
       422   5  2.340522E+03  2.148290E+05  1.287367E+04  1.834765E+05 -3.875086E+04  1.283064E+04
       422   6 -2.530468E+02  2.177810E+05  7.039275E+03  2.297562E+05 -3.227472E+04  6.088453E+03
       422   7  3.119989E+05  1.377900E+06  3.072788E+05  2.435631E+05 -1.332026E+04  6.922264E+04
       422   8  2.107779E+05  1.073409E+06  1.970766E+05  1.891574E+05 -3.873622E+04  2.419463E+04
       422   9  1.355083E+05  7.813611E+05  1.226324E+05  2.272877E+05 -3.230391E+04 -2.082611E+04
       422  10 -2.635525E+05 -9.414264E+05 -2.515217E+05  2.159351E+05 -7.688096E-12  8.319390E-12
       422  11 -2.061466E+05 -6.430587E+05 -1.713746E+05  1.778033E+05 -7.965014E-11 -4.282064E-10
       422  12 -1.360354E+05 -3.454976E+05 -1.085721E+05  2.322232E+05 -3.171631E-10 -2.120705E-10
       422  13  2.427118E+04  2.176191E+05  2.792187E+04  2.297367E+05 -2.877106E-10 -6.240332E-11
       422  14  2.338865E+03  2.148284E+05  1.287054E+04  1.834769E+05  8.188729E-10  7.265749E-10
       422  15 -2.541755E+02  2.177807E+05  7.037247E+03  2.297564E+05 -1.974324E-11 -1.117045E-10
       422  16  3.119974E+05  1.377895E+06  3.072695E+05  2.435638E+05 -3.971927E-13  3.499108E-10
       422  17  2.107762E+05  1.073408E+06  1.970727E+05  1.891581E+05 -3.787365E-10  1.059170E-09
       422  18  1.355071E+05  7.813604E+05  1.226296E+05  2.272871E+05  3.224381E-10 -6.695618E-11
       422  19 -2.635520E+05 -9.414254E+05 -2.515196E+05  2.159354E+05  1.339753E+04  3.001375E+04
       422  20 -2.061450E+05 -6.430583E+05 -1.713718E+05  1.778033E+05  3.876530E+04 -1.482103E+03
       422  21 -1.360340E+05 -3.454962E+05 -1.085681E+05  2.322223E+05  3.224531E+04 -3.297905E+04
       422  22  2.427148E+04  2.176196E+05  2.792293E+04  2.297365E+05  1.335998E+04 -1.955830E+04
       422  23  2.340522E+03  2.148290E+05  1.287367E+04  1.834765E+05  3.875086E+04 -1.283064E+04
       422  24 -2.530468E+02  2.177810E+05  7.039275E+03  2.297562E+05  3.227472E+04 -6.088453E+03
       422  25  3.119989E+05  1.377900E+06  3.072788E+05  2.435631E+05  1.332026E+04 -6.922264E+04
       422  26  2.107779E+05  1.073409E+06  1.970766E+05  1.891574E+05  3.873622E+04 -2.419463E+04
       422  27  1.355083E+05  7.813611E+05  1.226324E+05  2.272877E+05  3.230391E+04  2.082611E+04
       423   1 -8.260200E+04 -1.317873E+05 -6.650540E+04  2.295873E+05 -1.959978E+04  2.487959E+04
       423   2 -1.176287E+04  1.658833E+05 -8.053680E+03  1.829395E+05 -3.082099E+03  2.395607E+04
       423   3  5.977527E+04  4.637460E+05  5.111820E+04  2.304130E+05  1.357800E+04  2.303113E+04
       423   4  1.419514E+03  2.165754E+05  5.244904E+03  2.301034E+05 -1.962341E+04  5.144244E+03
       423   5  4.056854E+02  2.165120E+05  2.169245E+03  1.830439E+05 -3.106295E+03  4.044501E+03
       423   6  1.257908E+02  2.165852E+05 -6.364443E+01  2.301050E+05  1.355296E+04  2.943762E+03
       423   7  8.543358E+04  5.650541E+05  7.699015E+04  2.306198E+05 -1.964707E+04 -1.460199E+04
       423   8  1.257429E+04  2.671439E+05  1.239353E+04  1.831483E+05 -3.130496E+03 -1.586866E+04
       423   9 -5.952734E+04 -3.051686E+04 -5.124730E+04  2.297971E+05  1.352794E+04 -1.713575E+04
       423  10 -8.260258E+04 -1.317881E+05 -6.650729E+04  2.295877E+05 -1.170560E-10 -1.725930E-10
       423  11 -1.176303E+04  1.658827E+05 -8.054776E+03  1.829395E+05 -5.976889E-10 -5.762537E-10
       423  12  5.977493E+04  4.637454E+05  5.111686E+04  2.304128E+05  1.632086E-10  9.572360E-11
       423  13  1.419093E+03  2.165753E+05  5.244130E+03  2.301035E+05 -9.407833E-11 -2.097224E-12
       423  14  4.056707E+02  2.165119E+05  2.169196E+03  1.830439E+05 -1.026747E-09  9.717517E-10
       423  15  1.255912E+02  2.165852E+05 -6.400585E+01  2.301050E+05 -1.003279E-09 -1.802325E-10
       423  16  8.543311E+04  5.650537E+05  7.698902E+04  2.306196E+05  2.309037E-10  1.123039E-09
       423  17  1.257422E+04  2.671436E+05  1.239304E+04  1.831482E+05  6.121106E-10  1.860809E-09
       423  18 -5.952762E+04 -3.051723E+04 -5.124819E+04  2.297973E+05  3.593464E-10 -4.963684E-10
       423  19 -8.260200E+04 -1.317873E+05 -6.650540E+04  2.295873E+05  1.959978E+04 -2.487959E+04
       423  20 -1.176287E+04  1.658833E+05 -8.053680E+03  1.829395E+05  3.082099E+03 -2.395607E+04
       423  21  5.977527E+04  4.637460E+05  5.111820E+04  2.304130E+05 -1.357800E+04 -2.303113E+04
       423  22  1.419514E+03  2.165754E+05  5.244904E+03  2.301034E+05  1.962341E+04 -5.144244E+03
       423  23  4.056854E+02  2.165120E+05  2.169245E+03  1.830439E+05  3.106295E+03 -4.044501E+03
       423  24  1.257908E+02  2.165852E+05 -6.364443E+01  2.301050E+05 -1.355296E+04 -2.943762E+03
       423  25  8.543358E+04  5.650541E+05  7.699015E+04  2.306198E+05  1.964707E+04  1.460199E+04
       423  26  1.257429E+04  2.671439E+05  1.239353E+04  1.831483E+05  3.130496E+03  1.586866E+04
       423  27 -5.952734E+04 -3.051686E+04 -5.124730E+04  2.297971E+05 -1.352794E+04  1.713575E+04
       424   1  1.120624E+05  6.782926E+05  9.403256E+04  2.311379E+05  2.614993E+04  2.958861E+04
       424   2  1.834500E+05  9.742849E+05  1.593635E+05  1.823712E+05  3.362498E+04 -3.706249E+03
       424   3  2.551870E+05  1.274757E+06  2.464196E+05  2.262778E+05  1.181244E+04 -3.700073E+04
       424   4  6.630368E+02  2.161452E+05 -1.044375E+03  2.297835E+05  2.611908E+04  2.968851E+03
       424   5 -4.994439E+02  2.169262E+05 -3.571098E+03  1.834464E+05  3.363646E+04  4.860945E+03
       424   6 -7.411224E+03  2.160059E+05 -8.785462E+03  2.297904E+05  1.184982E+04  6.768976E+03
       424   7 -1.107494E+05 -2.457981E+05 -9.613011E+04  2.284302E+05  2.608834E+04 -2.363146E+04
       424   8 -1.844865E+05 -5.398940E+05 -1.665391E+05  1.845201E+05  3.364799E+04  1.341784E+04
       424   9 -2.700901E+05 -8.417169E+05 -2.640634E+05  2.332967E+05  1.188774E+04  5.046441E+04
       424  10  1.120615E+05  6.782915E+05  9.402963E+04  2.311372E+05 -1.138958E-10  8.586975E-11
       424  11  1.834488E+05  9.742846E+05  1.593614E+05  1.823713E+05 -1.425020E-10 -4.631226E-10
       424  12  2.551865E+05  1.274755E+06  2.464168E+05  2.262781E+05  1.315550E-10 -9.102818E-11
       424  13  6.623019E+02  2.161450E+05 -1.045674E+03  2.297835E+05  6.810133E-10  5.605809E-11
       424  14 -5.006652E+02  2.169258E+05 -3.573268E+03  1.834463E+05 -3.892797E-10  6.929405E-10
       424  15 -7.411387E+03  2.160058E+05 -8.785812E+03  2.297904E+05  1.650835E-10 -3.909473E-11
       424  16 -1.107503E+05 -2.457989E+05 -9.613244E+04  2.284307E+05 -1.819801E-10  7.970082E-10
       424  17 -1.844878E+05 -5.398945E+05 -1.665415E+05  1.845197E+05 -8.861542E-11  1.429423E-09
       424  18 -2.700910E+05 -8.417197E+05 -2.640685E+05  2.332962E+05  2.105790E-10 -5.196823E-11
       424  19  1.120624E+05  6.782926E+05  9.403256E+04  2.311379E+05 -2.614993E+04 -2.958861E+04
       424  20  1.834500E+05  9.742849E+05  1.593635E+05  1.823712E+05 -3.362498E+04  3.706249E+03
       424  21  2.551870E+05  1.274757E+06  2.464196E+05  2.262778E+05 -1.181244E+04  3.700073E+04
       424  22  6.630368E+02  2.161452E+05 -1.044375E+03  2.297835E+05 -2.611908E+04 -2.968851E+03
       424  23 -4.994439E+02  2.169262E+05 -3.571098E+03  1.834464E+05 -3.363646E+04 -4.860945E+03
       424  24 -7.411224E+03  2.160059E+05 -8.785462E+03  2.297904E+05 -1.184982E+04 -6.768976E+03
       424  25 -1.107494E+05 -2.457981E+05 -9.613011E+04  2.284302E+05 -2.608834E+04  2.363146E+04
       424  26 -1.844865E+05 -5.398940E+05 -1.665391E+05  1.845201E+05 -3.364799E+04 -1.341784E+04
       424  27 -2.700901E+05 -8.417169E+05 -2.640634E+05  2.332967E+05 -1.188774E+04 -5.046441E+04
       425   1  1.980580E+05  1.575420E+05  5.108176E+04  1.265634E+05  1.502308E+04  8.476792E+03
       425   2  1.889087E+05  1.377282E+05  3.718214E+04  1.247434E+05  1.140450E+04 -4.630703E+02
       425   3  1.817527E+05  1.290608E+05  3.106970E+04  1.210522E+05  5.301301E+03 -6.087587E+03
       425   4  8.751329E+04  6.895394E+04  1.293456E+04  6.723444E+04  8.246271E+03  3.396557E+03
       425   5  8.489645E+04  6.016057E+04  6.281975E+03  7.090851E+04  8.608010E+03 -2.559697E+03
       425   6  8.341015E+04  6.165108E+04  3.963916E+03  7.271109E+04  6.484673E+03 -5.200559E+03
       425   7 -2.301699E+04 -1.962405E+04 -2.521363E+04  7.918771E+03  1.471186E+03 -1.682179E+03
       425   8 -1.910323E+04 -1.739957E+04 -2.461911E+04  1.708449E+04  5.812168E+03 -4.655802E+03
       425   9 -1.492160E+04 -5.753447E+03 -2.314278E+04  2.437861E+04  7.667791E+03 -4.313714E+03
       425  10  1.980577E+05  1.575419E+05  5.108120E+04  1.265633E+05 -2.364963E-11  1.974428E-10
       425  11  1.889086E+05  1.377282E+05  3.718190E+04  1.247434E+05  5.623557E-11 -2.852720E-10
       425  12  1.817527E+05  1.290607E+05  3.106958E+04  1.210522E+05 -6.996476E-11 -2.243715E-10
       425  13  8.751321E+04  6.895391E+04  1.293441E+04  6.723442E+04  8.925533E-12 -5.649765E-11
       425  14  8.489637E+04  6.016054E+04  6.281823E+03  7.090853E+04  2.716537E-10 -2.714113E-10
       425  15  8.341009E+04  6.165104E+04  3.963786E+03  7.271112E+04  6.310619E-11  3.984768E-10
       425  16 -2.301700E+04 -1.962406E+04 -2.521364E+04  7.918773E+03 -2.366988E-11  1.256687E-10
       425  17 -1.910327E+04 -1.739960E+04 -2.461921E+04  1.708451E+04  1.703208E-10 -3.514535E-10
       425  18 -1.492167E+04 -5.753483E+03 -2.314292E+04  2.437864E+04  3.510722E-10  3.355845E-10
       425  19  1.980580E+05  1.575420E+05  5.108176E+04  1.265634E+05 -1.502308E+04 -8.476792E+03
       425  20  1.889087E+05  1.377282E+05  3.718214E+04  1.247434E+05 -1.140450E+04  4.630703E+02
       425  21  1.817527E+05  1.290608E+05  3.106970E+04  1.210522E+05 -5.301301E+03  6.087587E+03
       425  22  8.751329E+04  6.895394E+04  1.293456E+04  6.723444E+04 -8.246271E+03 -3.396557E+03
       425  23  8.489645E+04  6.016057E+04  6.281975E+03  7.090851E+04 -8.608010E+03  2.559697E+03
       425  24  8.341015E+04  6.165108E+04  3.963916E+03  7.271109E+04 -6.484673E+03  5.200559E+03
       425  25 -2.301699E+04 -1.962405E+04 -2.521363E+04  7.918771E+03 -1.471186E+03  1.682179E+03
       425  26 -1.910323E+04 -1.739957E+04 -2.461911E+04  1.708449E+04 -5.812168E+03  4.655802E+03
       425  27 -1.492160E+04 -5.753447E+03 -2.314278E+04  2.437861E+04 -7.667791E+03  4.313714E+03
       426   1  1.733668E+05  1.259714E+05  2.866255E+04  1.174308E+05  5.233269E+03 -5.331677E+03
       426   2  1.657135E+05  1.169261E+05  2.522590E+04  1.122792E+05  3.582433E+03 -5.905215E+03
       426   3  1.545153E+05  1.122086E+05  2.298616E+04  1.082151E+05  1.794128E+03 -6.295519E+03
       426   4  8.329708E+04  6.198256E+04  3.410660E+03  7.212046E+04  5.633570E+03 -5.031697E+03
       426   5  8.500607E+04  5.968745E+04  2.797127E+03  7.169321E+04  4.202895E+03 -5.440116E+03
       426   6  8.312269E+04  6.167225E+04  3.189621E+03  7.235325E+04  2.634732E+03 -5.665296E+03
       426   7 -6.764806E+03 -2.002421E+03 -2.184243E+04  2.681711E+04  6.033798E+03 -4.731772E+03
       426   8  4.305872E+03  2.452533E+03 -1.963228E+04  3.111321E+04  4.823249E+03 -4.975099E+03
       426   9  1.173662E+04  1.113947E+04 -1.660710E+04  3.649658E+04  3.475195E+03 -5.035178E+03
       426  10  1.733668E+05  1.259714E+05  2.866245E+04  1.174308E+05  7.634056E-11  2.056532E-11
       426  11  1.657135E+05  1.169261E+05  2.522581E+04  1.122792E+05  1.757882E-10 -1.369020E-10
       426  12  1.545153E+05  1.122086E+05  2.298608E+04  1.082151E+05 -1.474827E-10 -3.206988E-10
       426  13  8.329704E+04  6.198253E+04  3.410553E+03  7.212048E+04  1.409750E-10 -1.198073E-10
       426  14  8.500604E+04  5.968742E+04  2.797038E+03  7.169322E+04 -1.481490E-11  2.390608E-10
       426  15  8.312268E+04  6.167221E+04  3.189548E+03  7.235326E+04  1.615478E-10 -2.833965E-11
       426  16 -6.764851E+03 -2.002455E+03 -2.184254E+04  2.681714E+04  1.825699E-11 -6.266011E-12
       426  17  4.305841E+03  2.452500E+03 -1.963237E+04  3.111323E+04  1.724479E-10  2.919563E-11
       426  18  1.173660E+04  1.113944E+04 -1.660717E+04  3.649659E+04  4.672580E-10  3.240533E-10
       426  19  1.733668E+05  1.259714E+05  2.866255E+04  1.174308E+05 -5.233269E+03  5.331677E+03
       426  20  1.657135E+05  1.169261E+05  2.522590E+04  1.122792E+05 -3.582433E+03  5.905215E+03
       426  21  1.545153E+05  1.122086E+05  2.298616E+04  1.082151E+05 -1.794128E+03  6.295519E+03
       426  22  8.329708E+04  6.198256E+04  3.410660E+03  7.212046E+04 -5.633570E+03  5.031697E+03
       426  23  8.500607E+04  5.968745E+04  2.797127E+03  7.169321E+04 -4.202895E+03  5.440116E+03
       426  24  8.312269E+04  6.167225E+04  3.189621E+03  7.235325E+04 -2.634732E+03  5.665296E+03
       426  25 -6.764806E+03 -2.002421E+03 -2.184243E+04  2.681711E+04 -6.033798E+03  4.731772E+03
       426  26  4.305872E+03  2.452533E+03 -1.963228E+04  3.111321E+04 -4.823249E+03  4.975099E+03
       426  27  1.173662E+04  1.113947E+04 -1.660710E+04  3.649658E+04 -3.475195E+03  5.035178E+03
       427   1  1.476634E+05  1.075748E+05  2.161257E+04  1.048788E+05  1.035030E+03 -6.233070E+03
       427   2  1.399839E+05  9.894898E+04  2.106888E+04  9.954181E+04 -1.764679E+03 -7.287975E+03
       427   3  1.287666E+05  9.459618E+04  2.246738E+04  9.542809E+04 -4.571275E+03 -8.333763E+03
       427   4  8.314921E+04  6.169624E+04  3.743736E+03  7.236451E+04  1.832204E+03 -5.635381E+03
       427   5  8.494816E+04  5.961179E+04  5.776504E+03  7.171494E+04 -9.562960E+02 -6.681832E+03
       427   6  8.320671E+04  6.179803E+04  9.741855E+03  7.228858E+04 -3.751747E+03 -7.719208E+03
       427   7  1.863964E+04  1.582011E+04 -1.412551E+04  3.985410E+04  2.629266E+03 -5.037775E+03
       427   8  2.991542E+04  2.027612E+04 -9.516291E+03  4.389071E+04 -1.480045E+02 -6.075759E+03
       427   9  3.764853E+04  2.900069E+04 -2.984080E+03  4.915073E+04 -2.932290E+03 -7.104708E+03
       427  10  1.476634E+05  1.075747E+05  2.161250E+04  1.048788E+05  6.479709E-11  6.040373E-11
       427  11  1.399839E+05  9.894892E+04  2.106877E+04  9.954180E+04  1.460902E-10 -2.470233E-11
       427  12  1.287666E+05  9.459610E+04  2.246721E+04  9.542806E+04 -2.627962E-10 -2.728201E-12
       427  13  8.314919E+04  6.169620E+04  3.743670E+03  7.236451E+04  1.018823E-10  6.085303E-11
       427  14  8.494814E+04  5.961174E+04  5.776419E+03  7.171493E+04  2.671156E-10 -1.593377E-10
       427  15  8.320668E+04  6.179796E+04  9.741717E+03  7.228856E+04  1.100877E-10  6.396711E-11
       427  16  1.863963E+04  1.582008E+04 -1.412557E+04  3.985411E+04  8.642106E-11 -5.975299E-11
       427  17  2.991541E+04  2.027608E+04 -9.516361E+03  4.389071E+04  2.437118E-10 -1.220582E-10
       427  18  3.764851E+04  2.900064E+04 -2.984191E+03  4.915072E+04  1.528294E-10  4.870251E-12
       427  19  1.476634E+05  1.075748E+05  2.161257E+04  1.048788E+05 -1.035030E+03  6.233070E+03
       427  20  1.399839E+05  9.894898E+04  2.106888E+04  9.954181E+04  1.764679E+03  7.287975E+03
       427  21  1.287666E+05  9.459618E+04  2.246738E+04  9.542809E+04  4.571275E+03  8.333763E+03
       427  22  8.314921E+04  6.169624E+04  3.743736E+03  7.236451E+04 -1.832204E+03  5.635381E+03
       427  23  8.494816E+04  5.961179E+04  5.776504E+03  7.171494E+04  9.562960E+02  6.681832E+03
       427  24  8.320671E+04  6.179803E+04  9.741855E+03  7.228858E+04  3.751747E+03  7.719208E+03
       427  25  1.863964E+04  1.582011E+04 -1.412551E+04  3.985410E+04 -2.629266E+03  5.037775E+03
       427  26  2.991542E+04  2.027612E+04 -9.516291E+03  4.389071E+04  1.480045E+02  6.075759E+03
       427  27  3.764853E+04  2.900069E+04 -2.984080E+03  4.915073E+04  2.932290E+03  7.104708E+03
       428   1  1.212243E+05  9.069453E+04  2.347429E+04  9.281753E+04 -6.454621E+03 -9.124010E+03
       428   2  1.147566E+05  8.027883E+04  3.016149E+04  8.609509E+04 -1.570707E+04 -1.500570E+04
       428   3  1.082649E+05  7.849770E+04  4.540205E+04  7.913142E+04 -2.494973E+04 -2.090006E+04
       428   4  8.338369E+04  6.169266E+04  1.267808E+04  7.276972E+04 -5.634493E+03 -8.508961E+03
       428   5  8.462872E+04  5.956897E+04  2.193129E+04  7.124411E+04 -1.490188E+04 -1.440188E+04
       428   6  8.585273E+04  6.608295E+04  3.975097E+04  6.947701E+04 -2.415967E+04 -2.030768E+04
       428   7  4.554515E+04  3.269217E+04  1.881907E+03  5.272362E+04 -4.814442E+03 -7.893975E+03
       428   8  5.450202E+04  3.885975E+04  1.370108E+04  5.639405E+04 -1.409674E+04 -1.379810E+04
       428   9  6.344116E+04  5.366836E+04  3.409986E+04  5.982297E+04 -2.336964E+04 -1.971532E+04
       428  10  1.212243E+05  9.069443E+04  2.347406E+04  9.281749E+04 -2.013374E-11  1.471730E-11
       428  11  1.147563E+05  8.027852E+04  3.016060E+04  8.609490E+04 -3.032267E-10 -3.707973E-11
       428  12  1.082641E+05  7.849706E+04  4.540006E+04  7.913100E+04  3.364923E-11  3.201233E-12
       428  13  8.338364E+04  6.169257E+04  1.267789E+04  7.276968E+04 -2.152366E-10  4.632110E-11
       428  14  8.462842E+04  5.956869E+04  2.193048E+04  7.124394E+04 -2.454524E-10 -1.901301E-11
       428  15  8.585199E+04  6.608235E+04  3.974910E+04  6.947662E+04 -4.385806E-10 -3.908723E-11
       428  16  4.554511E+04  3.269210E+04  1.881747E+03  5.272359E+04  2.709026E-11  2.510858E-11
       428  17  5.450176E+04  3.885949E+04  1.370035E+04  5.639389E+04  7.683536E-11  3.909038E-11
       428  18  6.344047E+04  5.366780E+04  3.409811E+04  5.982260E+04 -1.511206E-10  3.160610E-11
       428  19  1.212243E+05  9.069453E+04  2.347429E+04  9.281753E+04  6.454621E+03  9.124010E+03
       428  20  1.147566E+05  8.027883E+04  3.016149E+04  8.609509E+04  1.570707E+04  1.500570E+04
       428  21  1.082649E+05  7.849770E+04  4.540205E+04  7.913142E+04  2.494973E+04  2.090006E+04
       428  22  8.338369E+04  6.169266E+04  1.267808E+04  7.276972E+04  5.634493E+03  8.508961E+03
       428  23  8.462872E+04  5.956897E+04  2.193129E+04  7.124411E+04  1.490188E+04  1.440188E+04
       428  24  8.585273E+04  6.608295E+04  3.975097E+04  6.947701E+04  2.415967E+04  2.030768E+04
       428  25  4.554515E+04  3.269217E+04  1.881907E+03  5.272362E+04  4.814442E+03  7.893975E+03
       428  26  5.450202E+04  3.885975E+04  1.370108E+04  5.639405E+04  1.409674E+04  1.379810E+04
       428  27  6.344116E+04  5.366836E+04  3.409986E+04  5.982297E+04  2.336964E+04  1.971532E+04
       429   1  8.171049E+04  9.054328E+04  5.464408E+04  9.095250E+04 -3.082528E+04 -2.467461E+04
       429   2  1.217365E+05  3.457789E+04  9.068292E+04  5.166570E+04 -6.852858E+04 -5.202772E+04
       429   3  2.295432E+05  7.989629E+04  1.896456E+05 -3.051076E+04 -1.060595E+05 -7.960934E+04
       429   4  8.701315E+04  6.193544E+04  5.091693E+04  7.856139E+04 -2.998080E+04 -2.403970E+04
       429   5  8.355996E+04  6.543097E+04  8.960183E+04  5.938005E+04 -6.796304E+04 -5.160968E+04
       429   6  1.479383E+05  1.702638E+05  1.914540E+05 -2.688743E+03 -1.057684E+05 -7.941516E+04
       429   7  9.231656E+04  3.332925E+04  4.718994E+04  6.617019E+04 -2.913629E+04 -2.340486E+04
       429   8  4.538700E+04  9.628780E+04  8.852139E+04  6.709339E+04 -6.739755E+04 -5.119159E+04
       429   9  6.635495E+04  2.606581E+05  1.932668E+05  2.512721E+04 -1.054774E+05 -7.922091E+04
       429  10  8.170930E+04  9.054237E+04  5.464115E+04  9.095189E+04 -1.945049E-11  4.698729E-11
       429  11  1.217308E+05  3.457373E+04  9.066902E+04  5.166283E+04  1.928429E-10  4.121866E-11
       429  12  2.295295E+05  7.988647E+04  1.896126E+05 -3.051755E+04 -1.070463E-10  4.502580E-12
       429  13  8.701203E+04  6.193458E+04  5.091416E+04  7.856081E+04 -4.400728E-11 -4.367871E-11
       429  14  8.355429E+04  6.542687E+04  8.958814E+04  5.937722E+04 -1.314778E-10 -7.804874E-11
       429  15  1.479246E+05  1.702541E+05  1.914211E+05 -2.695506E+03 -1.375135E-10  1.612996E-11
       429  16  9.231550E+04  3.332843E+04  4.718732E+04  6.616964E+04 -2.406319E-10 -7.325073E-11
       429  17  4.538142E+04  9.628377E+04  8.850793E+04  6.709061E+04 -3.508851E-10 -1.878790E-10
       429  18  6.634132E+04  2.606484E+05  1.932341E+05  2.512048E+04  3.134225E-12  2.911382E-11
       429  19  8.171049E+04  9.054328E+04  5.464408E+04  9.095250E+04  3.082528E+04  2.467461E+04
       429  20  1.217365E+05  3.457789E+04  9.068292E+04  5.166570E+04  6.852858E+04  5.202772E+04
       429  21  2.295432E+05  7.989629E+04  1.896456E+05 -3.051076E+04  1.060595E+05  7.960934E+04
       429  22  8.701315E+04  6.193544E+04  5.091693E+04  7.856139E+04  2.998080E+04  2.403970E+04
       429  23  8.355996E+04  6.543097E+04  8.960183E+04  5.938005E+04  6.796304E+04  5.160968E+04
       429  24  1.479383E+05  1.702638E+05  1.914540E+05 -2.688743E+03  1.057684E+05  7.941516E+04
       429  25  9.231656E+04  3.332925E+04  4.718994E+04  6.617019E+04  2.913629E+04  2.340486E+04
       429  26  4.538700E+04  9.628780E+04  8.852139E+04  6.709339E+04  6.739755E+04  5.119159E+04
       429  27  6.635495E+04  2.606581E+05  1.932668E+05  2.512721E+04  1.054774E+05  7.922091E+04
       430   1  6.297451E+04  4.435831E+04  4.025593E+04 -6.223995E+03  3.778503E+03 -3.421991E+03
       430   2  6.320155E+04  5.364726E+04  4.085559E+04 -2.163539E+03  3.950620E+02 -1.147606E+04
       430   3  6.182056E+04  5.469928E+04  4.160168E+04  1.739934E+03 -2.988581E+03 -1.378808E+04
       430   4 -1.642978E+05 -1.192668E+04 -1.389104E+04  3.109277E+02 -9.330073E+03 -3.423053E+03
       430   5 -1.628947E+05 -1.085441E+03 -6.705350E+03  3.885791E+02 -5.823089E+03 -1.147722E+04
       430   6 -1.642968E+05  3.208341E+02 -4.159209E+03  3.091349E+02 -2.316279E+03 -1.378834E+04
       430   7 -3.915222E+05 -6.821514E+04 -6.804096E+04  6.843446E+03 -2.243387E+04 -3.424391E+03
       430   8 -3.889426E+05 -5.582138E+04 -5.426901E+04  2.939751E+03 -1.203901E+04 -1.147843E+04
       430   9 -3.903655E+05 -5.406078E+04 -4.992274E+04 -1.121136E+03 -1.644217E+03 -1.378860E+04
       430  10  6.297449E+04  4.435829E+04  4.025588E+04 -6.223984E+03 -4.251506E-10  4.471049E-11
       430  11  6.320151E+04  5.364711E+04  4.085534E+04 -2.163535E+03 -3.950338E-10  3.354063E-10
       430  12  6.182050E+04  5.469908E+04  4.160130E+04  1.739901E+03  7.897988E-11 -2.844686E-11
       430  13 -1.642979E+05 -1.192672E+04 -1.389122E+04  3.109020E+02 -2.054663E-10  2.633349E-10
       430  14 -1.628948E+05 -1.085591E+03 -6.705661E+03  3.885253E+02 -1.892096E-10  4.716204E-10
       430  15 -1.642969E+05  3.206285E+02 -4.159576E+03  3.091092E+02  3.797692E-11  1.281417E-10
       430  16 -3.915227E+05 -6.821529E+04 -6.804192E+04  6.843384E+03  1.923212E-10  1.998319E-10
       430  17 -3.889428E+05 -5.582156E+04 -5.426953E+04  2.939640E+03  2.867618E-10  1.424014E-10
       430  18 -3.903655E+05 -5.406099E+04 -4.992310E+04 -1.121154E+03 -1.114524E-10 -3.975036E-11
       430  19  6.297451E+04  4.435831E+04  4.025593E+04 -6.223995E+03 -3.778503E+03  3.421991E+03
       430  20  6.320155E+04  5.364726E+04  4.085559E+04 -2.163539E+03 -3.950620E+02  1.147606E+04
       430  21  6.182056E+04  5.469928E+04  4.160168E+04  1.739934E+03  2.988581E+03  1.378808E+04
       430  22 -1.642978E+05 -1.192668E+04 -1.389104E+04  3.109277E+02  9.330073E+03  3.423053E+03
       430  23 -1.628947E+05 -1.085441E+03 -6.705350E+03  3.885791E+02  5.823089E+03  1.147722E+04
       430  24 -1.642968E+05  3.208341E+02 -4.159209E+03  3.091349E+02  2.316279E+03  1.378834E+04
       430  25 -3.915222E+05 -6.821514E+04 -6.804096E+04  6.843446E+03  2.243387E+04  3.424391E+03
       430  26 -3.889426E+05 -5.582138E+04 -5.426901E+04  2.939751E+03  1.203901E+04  1.147843E+04
       430  27 -3.903655E+05 -5.406078E+04 -4.992274E+04 -1.121136E+03  1.644217E+03  1.378860E+04
       431   1  6.179950E+04  5.379982E+04  4.226450E+04  2.229542E+02 -1.029161E+03 -1.356243E+04
       431   2  6.134800E+04  5.405401E+04  4.256727E+04  2.604338E+02 -5.896978E+01 -1.396670E+04
       431   3  6.067972E+04  5.390537E+04  4.214033E+04  4.558907E+02  9.111347E+02 -1.403507E+04
       431   4 -1.637373E+05 -4.678912E+02 -3.527026E+03  3.795746E+02 -1.715705E+03 -1.356298E+04
       431   5 -1.635938E+05 -1.814356E+00 -2.759514E+03  3.005137E+02 -3.428142E+02 -1.396718E+04
       431   6 -1.637372E+05 -8.595075E+00 -3.001597E+03  3.794353E+02  1.029985E+03 -1.403543E+04
       431   7 -3.892256E+05 -5.473877E+04 -4.932120E+04  5.361344E+02 -2.402005E+03 -1.356352E+04
       431   8 -3.884874E+05 -5.406077E+04 -4.808890E+04  3.405755E+02 -6.265577E+02 -1.396767E+04
       431   9 -3.881060E+05 -5.392567E+04 -4.814610E+04  3.030041E+02  1.148794E+03 -1.403580E+04
       431  10  6.179945E+04  5.379962E+04  4.226415E+04  2.229429E+02 -6.598893E-10  2.360846E-10
       431  11  6.134795E+04  5.405380E+04  4.256691E+04  2.604332E+02 -1.971869E-10 -5.178590E-10
       431  12  6.067967E+04  5.390516E+04  4.213996E+04  4.559010E+02  5.794616E-10 -1.595015E-10
       431  13 -1.637373E+05 -4.680896E+02 -3.527377E+03  3.795559E+02  3.865201E-10  4.716267E-11
       431  14 -1.635939E+05 -2.023856E+00 -2.759881E+03  3.005099E+02 -2.280831E-10 -1.056233E-10
       431  15 -1.637372E+05 -8.806881E+00 -3.001969E+03  3.794470E+02 -1.604574E-10 -3.209517E-10
       431  16 -3.892257E+05 -5.473897E+04 -4.932156E+04  5.361082E+02  7.704602E-10 -2.453541E-10
       431  17 -3.884874E+05 -5.406098E+04 -4.808926E+04  3.405684E+02 -3.721723E-11 -1.779576E-11
       431  18 -3.881061E+05 -5.392588E+04 -4.814647E+04  3.030171E+02 -7.285326E-10  7.714297E-11
       431  19  6.179950E+04  5.379982E+04  4.226450E+04  2.229542E+02  1.029161E+03  1.356243E+04
       431  20  6.134800E+04  5.405401E+04  4.256727E+04  2.604338E+02  5.896978E+01  1.396670E+04
       431  21  6.067972E+04  5.390537E+04  4.214033E+04  4.558907E+02 -9.111347E+02  1.403507E+04
       431  22 -1.637373E+05 -4.678912E+02 -3.527026E+03  3.795746E+02  1.715705E+03  1.356298E+04
       431  23 -1.635938E+05 -1.814356E+00 -2.759514E+03  3.005137E+02  3.428142E+02  1.396718E+04
       431  24 -1.637372E+05 -8.595075E+00 -3.001597E+03  3.794353E+02 -1.029985E+03  1.403543E+04
       431  25 -3.892256E+05 -5.473877E+04 -4.932120E+04  5.361344E+02  2.402005E+03  1.356352E+04
       431  26 -3.884874E+05 -5.406077E+04 -4.808890E+04  3.405755E+02  6.265577E+02  1.396767E+04
       431  27 -3.881060E+05 -5.392567E+04 -4.814610E+04  3.030041E+02 -1.148794E+03  1.403580E+04
       432   1  6.018633E+04  5.387508E+04  4.160845E+04  1.740843E+02  1.627847E+03 -1.401240E+04
       432   2  5.988929E+04  5.363427E+04  3.979677E+04  4.594713E+02  3.836723E+03 -1.387111E+04
       432   3  5.900935E+04  5.217231E+04  3.624428E+04  9.503940E+02  6.045445E+03 -1.340205E+04
       432   4 -1.638181E+05  6.098725E+01 -3.447823E+03  3.898843E+02  1.599334E+03 -1.401281E+04
       432   5 -1.634926E+05 -4.645563E+01 -5.213535E+03  2.874301E+02  4.200766E+03 -1.387135E+04
       432   6 -1.638183E+05 -1.443493E+03 -8.993132E+03  3.905101E+02  6.802049E+03 -1.340206E+04
       432   7 -3.877747E+05 -5.375620E+04 -4.850666E+04  6.056007E+02  1.570831E+03 -1.401323E+04
       432   8 -3.868269E+05 -5.373027E+04 -5.022640E+04  1.154469E+02  4.564680E+03 -1.387159E+04
       432   9 -3.865987E+05 -5.506239E+04 -5.423313E+04 -1.691748E+02  7.558386E+03 -1.340208E+04
       432  10  6.018628E+04  5.387487E+04  4.160808E+04  1.741026E+02  1.375531E-11 -1.823410E-10
       432  11  5.988922E+04  5.363406E+04  3.979638E+04  4.595142E+02 -4.841667E-11 -2.725368E-10
       432  12  5.900926E+04  5.217211E+04  3.624387E+04  9.504592E+02  4.353937E-10 -6.348614E-10
       432  13 -1.638182E+05  6.077572E+01 -3.448197E+03  3.899024E+02  2.054906E-10 -3.112577E-10
       432  14 -1.634926E+05 -4.666698E+01 -5.213930E+03  2.874770E+02 -2.990025E-10 -3.867916E-10
       432  15 -1.638184E+05 -1.443698E+03 -8.993556E+03  3.905835E+02  2.375699E-10 -3.389624E-10
       432  16 -3.877748E+05 -5.375641E+04 -4.850704E+04  6.056184E+02 -1.878872E-10 -2.079088E-10
       432  17 -3.868269E+05 -5.373048E+04 -5.022680E+04  1.154979E+02 -5.528304E-10  7.058667E-10
       432  18 -3.865988E+05 -5.506260E+04 -5.423357E+04 -1.690932E+02 -4.519539E-10  1.941082E-10
       432  19  6.018633E+04  5.387508E+04  4.160845E+04  1.740843E+02 -1.627847E+03  1.401240E+04
       432  20  5.988929E+04  5.363427E+04  3.979677E+04  4.594713E+02 -3.836723E+03  1.387111E+04
       432  21  5.900935E+04  5.217231E+04  3.624428E+04  9.503940E+02 -6.045445E+03  1.340205E+04
       432  22 -1.638181E+05  6.098725E+01 -3.447823E+03  3.898843E+02 -1.599334E+03  1.401281E+04
       432  23 -1.634926E+05 -4.645563E+01 -5.213535E+03  2.874301E+02 -4.200766E+03  1.387135E+04
       432  24 -1.638183E+05 -1.443493E+03 -8.993132E+03  3.905101E+02 -6.802049E+03  1.340206E+04
       432  25 -3.877747E+05 -5.375620E+04 -4.850666E+04  6.056007E+02 -1.570831E+03  1.401323E+04
       432  26 -3.868269E+05 -5.373027E+04 -5.022640E+04  1.154469E+02 -4.564680E+03  1.387159E+04
       432  27 -3.865987E+05 -5.506239E+04 -5.423313E+04 -1.691748E+02 -7.558386E+03  1.340208E+04
       433   1  5.700884E+04  5.450130E+04  3.363001E+04 -3.814187E+03  8.923709E+03 -1.357605E+04
       433   2  6.011946E+04  5.029561E+04  2.667758E+04  8.114213E+03  1.263759E+04 -1.125051E+04
       433   3  5.583511E+04  1.840550E+04  1.038789E+04  2.056780E+04  1.634783E+04 -3.339215E+03
       433   4 -1.655756E+05  9.799018E+02 -1.140838E+04  4.568195E+02  8.358177E+03 -1.357667E+04
       433   5 -1.612964E+05 -3.313418E+03 -1.988624E+04  2.046902E+02  1.877262E+04 -1.124743E+04
       433   6 -1.655784E+05 -3.646037E+04 -4.235732E+04  4.780178E+02  2.918326E+04 -3.331681E+03
       433   7 -3.881128E+05 -5.254450E+04 -5.644932E+04  4.726259E+03  7.792844E+03 -1.357730E+04
       433   8 -3.826657E+05 -5.692534E+04 -6.645263E+04 -7.701974E+03  2.490549E+04 -1.124451E+04
       433   9 -3.869456E+05 -9.132819E+04 -9.510513E+04 -1.960457E+04  4.201413E+04 -3.324976E+03
       433  10  5.700870E+04  5.450108E+04  3.362952E+04 -3.814089E+03  2.508585E-10 -1.106692E-09
       433  11  6.011925E+04  5.029543E+04  2.667704E+04  8.114328E+03 -6.312755E-10 -1.843213E-09
       433  12  5.583482E+04  1.840542E+04  1.038737E+04  2.056784E+04 -9.731618E-10 -5.101752E-10
       433  13 -1.655757E+05  9.796852E+02 -1.140885E+04  4.569109E+02  8.548603E-10 -2.482049E-09
       433  14 -1.612968E+05 -3.313649E+03 -1.988714E+04  2.048602E+02 -6.141021E-10  1.043070E-09
       433  15 -1.655793E+05 -3.646061E+04 -4.235894E+04  4.780961E+02  2.413029E-10 -5.119978E-11
       433  16 -3.881129E+05 -5.254472E+04 -5.644978E+04  4.726345E+03 -2.449840E-10 -2.766010E-10
       433  17 -3.826664E+05 -5.692565E+04 -6.645404E+04 -7.701748E+03  2.956510E-10  8.943933E-10
       433  18 -3.869475E+05 -9.132868E+04 -9.510847E+04 -1.960446E+04  1.063465E-09 -6.082376E-10
       433  19  5.700884E+04  5.450130E+04  3.363001E+04 -3.814187E+03 -8.923709E+03  1.357605E+04
       433  20  6.011946E+04  5.029561E+04  2.667758E+04  8.114213E+03 -1.263759E+04  1.125051E+04
       433  21  5.583511E+04  1.840550E+04  1.038789E+04  2.056780E+04 -1.634783E+04  3.339215E+03
       433  22 -1.655756E+05  9.799018E+02 -1.140838E+04  4.568195E+02 -8.358177E+03  1.357667E+04
       433  23 -1.612964E+05 -3.313418E+03 -1.988624E+04  2.046902E+02 -1.877262E+04  1.124743E+04
       433  24 -1.655784E+05 -3.646037E+04 -4.235732E+04  4.780178E+02 -2.918326E+04  3.331681E+03
       433  25 -3.881128E+05 -5.254450E+04 -5.644932E+04  4.726259E+03 -7.792844E+03  1.357730E+04
       433  26 -3.826657E+05 -5.692534E+04 -6.645263E+04 -7.701974E+03 -2.490549E+04  1.124451E+04
       433  27 -3.869456E+05 -9.132819E+04 -9.510513E+04 -1.960457E+04 -4.201413E+04  3.324976E+03
       434   1 -1.279101E+05 -6.107327E+05 -1.233018E+05  9.732410E+04 -6.098953E+03 -2.474443E+04
       434   2 -9.507098E+04 -4.818150E+05 -8.021987E+04  7.794001E+04 -1.783277E+04 -9.519013E+03
       434   3 -6.386616E+04 -3.552470E+05 -4.746251E+04  9.819223E+04 -1.529234E+04  5.709664E+03
       434   4  1.388506E+03 -8.994519E+04  2.185748E+03  9.838224E+04 -6.095542E+03 -2.113489E+03
       434   5  7.175128E+01 -9.023343E+04  3.778096E+03  7.856492E+04 -1.783072E+04 -4.003486E+03
       434   6  9.485590E+01 -8.991401E+04  6.939212E+03  9.838236E+04 -1.529573E+04 -5.893732E+03
       434   7  1.306676E+05  4.310917E+05  1.276559E+05  9.944125E+04 -6.092057E+03  2.053638E+04
       434   8  9.520446E+04  3.014925E+05  8.776723E+04  7.919021E+04 -1.782865E+04  1.515473E+03
       434   9  6.405152E+04  1.754862E+05  6.133769E+04  9.857256E+04 -1.529913E+04 -1.750200E+04
       434  10 -1.279103E+05 -6.107334E+05 -1.233031E+05  9.732397E+04 -3.048236E-11  1.728228E-10
       434  11 -9.507135E+04 -4.818151E+05 -8.022063E+04  7.793988E+04  1.851087E-10  1.915494E-10
       434  12 -6.386642E+04 -3.552471E+05 -4.746301E+04  9.819230E+04 -1.700861E-11  1.842718E-10
       434  13  1.388465E+03 -8.994520E+04  2.185670E+03  9.838223E+04 -5.940849E-11 -2.067044E-11
       434  14  7.140560E+01 -9.023353E+04  3.777468E+03  7.856486E+04 -1.359396E-10 -1.418833E-10
       434  15  9.459538E+01 -8.991411E+04  6.938707E+03  9.838228E+04 -7.745398E-11  2.490170E-10
       434  16  1.306675E+05  4.310913E+05  1.276550E+05  9.944136E+04 -2.704390E-11 -1.256848E-10
       434  17  9.520411E+04  3.014924E+05  8.776663E+04  7.919023E+04  9.657247E-11  8.619940E-11
       434  18  6.405118E+04  1.754858E+05  6.133668E+04  9.857234E+04  6.672815E-11  4.039831E-11
       434  19 -1.279101E+05 -6.107327E+05 -1.233018E+05  9.732410E+04  6.098953E+03  2.474443E+04
       434  20 -9.507098E+04 -4.818150E+05 -8.021987E+04  7.794001E+04  1.783277E+04  9.519013E+03
       434  21 -6.386616E+04 -3.552470E+05 -4.746251E+04  9.819223E+04  1.529234E+04 -5.709664E+03
       434  22  1.388506E+03 -8.994519E+04  2.185748E+03  9.838224E+04  6.095542E+03  2.113489E+03
       434  23  7.175128E+01 -9.023343E+04  3.778096E+03  7.856492E+04  1.783072E+04  4.003486E+03
       434  24  9.485590E+01 -8.991401E+04  6.939212E+03  9.838236E+04  1.529573E+04  5.893732E+03
       434  25  1.306676E+05  4.310917E+05  1.276559E+05  9.944125E+04  6.092057E+03 -2.053638E+04
       434  26  9.520446E+04  3.014925E+05  8.776723E+04  7.919021E+04  1.782865E+04 -1.515473E+03
       434  27  6.405152E+04  1.754862E+05  6.133769E+04  9.857256E+04  1.529913E+04  1.750200E+04
       435   1 -4.190623E+04 -2.627173E+05 -2.640465E+04  9.743836E+04 -9.846930E+03  1.075371E+03
       435   2 -1.073208E+04 -1.361022E+05  6.961226E+03  7.859653E+04 -2.798213E+03 -6.837045E+03
       435   3  2.474768E+04 -7.383979E+03  4.654851E+04  1.001175E+05  4.376751E+03 -1.475147E+04
       435   4 -1.483828E+02 -8.957065E+04  9.197674E+03  9.854431E+04 -9.849811E+03 -7.309158E+03
       435   5  2.014097E+02 -9.062599E+04  1.614777E+04  7.836218E+04 -2.801308E+03 -1.537416E+04
       435   6  4.884474E+03 -8.956616E+04  2.942647E+04  9.854243E+04  4.373422E+03 -2.343962E+04
       435   7  4.160762E+04  8.360466E+04  4.479865E+04  9.965057E+04 -9.852722E+03 -1.569598E+04
       435   8  1.113481E+04 -4.514768E+04  2.533447E+04  7.812781E+04 -2.804397E+03 -2.391190E+04
       435   9 -1.497911E+04 -1.717418E+05  1.230433E+04  9.696754E+04  4.370136E+03 -3.212664E+04
       435  10 -4.190634E+04 -2.627174E+05 -2.640483E+04  9.743837E+04 -6.810919E-12 -3.590393E-10
       435  11 -1.073210E+04 -1.361022E+05  6.961124E+03  7.859652E+04 -2.162491E-10  3.266186E-10
       435  12  2.474760E+04 -7.384218E+03  4.654807E+04  1.001176E+05  2.335991E-10  6.883252E-10
       435  13 -1.485013E+02 -8.957074E+04  9.197391E+03  9.854425E+04 -5.475105E-11  2.046939E-10
       435  14  2.013378E+02 -9.062624E+04  1.614731E+04  7.836215E+04  2.015486E-10 -2.953452E-10
       435  15  4.884306E+03 -8.956676E+04  2.942540E+04  9.854252E+04 -2.133663E-10  4.041091E-10
       435  16  4.160745E+04  8.360437E+04  4.479801E+04  9.965045E+04 -4.422904E-11  1.757297E-11
       435  17  1.113464E+04 -4.514830E+04  2.533338E+04  7.812776E+04 -1.909344E-10  3.288928E-10
       435  18 -1.497941E+04 -1.717429E+05  1.230236E+04  9.696765E+04  1.972186E-10 -4.619869E-10
       435  19 -4.190623E+04 -2.627173E+05 -2.640465E+04  9.743836E+04  9.846930E+03 -1.075371E+03
       435  20 -1.073208E+04 -1.361022E+05  6.961226E+03  7.859653E+04  2.798213E+03  6.837045E+03
       435  21  2.474768E+04 -7.383979E+03  4.654851E+04  1.001175E+05 -4.376751E+03  1.475147E+04
       435  22 -1.483828E+02 -8.957065E+04  9.197674E+03  9.854431E+04  9.849811E+03  7.309158E+03
       435  23  2.014097E+02 -9.062599E+04  1.614777E+04  7.836218E+04  2.801308E+03  1.537416E+04
       435  24  4.884474E+03 -8.956616E+04  2.942647E+04  9.854243E+04 -4.373422E+03  2.343962E+04
       435  25  4.160762E+04  8.360466E+04  4.479865E+04  9.965057E+04  9.852722E+03  1.569598E+04
       435  26  1.113481E+04 -4.514768E+04  2.533447E+04  7.812781E+04  2.804397E+03  2.391190E+04
       435  27 -1.497911E+04 -1.717418E+05  1.230433E+04  9.696754E+04 -4.370136E+03  3.212664E+04
       436   1  3.879659E+04  9.068062E+04  7.369288E+04  8.379769E+04  9.744395E+03 -1.721459E+04
       436   2  8.427158E+04  2.028213E+05  1.313380E+05  1.047589E+05  1.319455E+04 -6.638481E+04
       436   3  2.290570E+05  3.462031E+05  2.458162E+05  1.654918E+05  4.681919E+03 -1.155638E+05
       436   4 -3.250453E+03 -8.365190E+04  3.773109E+04  9.841479E+04  9.739970E+03 -2.854695E+04
       436   5  1.110984E+04 -9.803694E+04  6.645358E+04  7.851867E+04  1.319868E+04 -6.335081E+04
       436   6  1.223105E+05 -8.366898E+04  1.420515E+05  9.838633E+04  4.698442E+03 -9.815287E+04
       436   7 -4.529854E+04 -2.579549E+05  1.768249E+03  1.130277E+05  9.735010E+03 -3.987618E+04
       436   8 -6.205528E+04 -3.988086E+05  1.564272E+03  5.229135E+04  1.320255E+04 -6.031824E+04
       436   9  1.556768E+04 -5.133619E+05  3.827705E+04  3.132741E+04  4.711212E+03 -8.075389E+04
       436  10  3.879641E+04  9.068027E+04  7.369215E+04  8.379782E+04  8.223084E-11 -2.941815E-10
       436  11  8.427021E+04  2.028165E+05  1.313294E+05  1.047596E+05 -3.157651E-10  9.236060E-11
       436  12  2.290534E+05  3.461888E+05  2.457911E+05  1.654923E+05 -9.577006E-11  1.961128E-10
       436  13 -3.250773E+03 -8.365280E+04  3.772938E+04  9.841501E+04  2.059975E-10  2.119567E-10
       436  14  1.110857E+04 -9.804129E+04  6.644571E+04  7.851934E+04  2.930302E-10 -1.707006E-10
       436  15  1.223079E+05 -8.367933E+04  1.420333E+05  9.838670E+04 -2.302539E-10  8.303215E-11
       436  16 -4.529907E+04 -2.579566E+05  1.765082E+03  1.130280E+05 -2.368320E-10 -8.901888E-12
       436  17 -6.205645E+04 -3.988126E+05  1.557103E+03  5.229199E+04  8.577834E-11  3.661577E-10
       436  18  1.556590E+04 -5.133689E+05  3.826474E+04  3.132772E+04 -1.179576E-11 -1.768509E-10
       436  19  3.879659E+04  9.068062E+04  7.369288E+04  8.379769E+04 -9.744395E+03  1.721459E+04
       436  20  8.427158E+04  2.028213E+05  1.313380E+05  1.047589E+05 -1.319455E+04  6.638481E+04
       436  21  2.290570E+05  3.462031E+05  2.458162E+05  1.654918E+05 -4.681919E+03  1.155638E+05
       436  22 -3.250453E+03 -8.365190E+04  3.773109E+04  9.841479E+04 -9.739970E+03  2.854695E+04
       436  23  1.110984E+04 -9.803694E+04  6.645358E+04  7.851867E+04 -1.319868E+04  6.335081E+04
       436  24  1.223105E+05 -8.366898E+04  1.420515E+05  9.838633E+04 -4.698442E+03  9.815287E+04
       436  25 -4.529854E+04 -2.579549E+05  1.768249E+03  1.130277E+05 -9.735010E+03  3.987618E+04
       436  26 -6.205528E+04 -3.988086E+05  1.564272E+03  5.229135E+04 -1.320255E+04  6.031824E+04
       436  27  1.556768E+04 -5.133619E+05  3.827705E+04  3.132741E+04 -4.711212E+03  8.075389E+04
       437   1  1.280350E+05  1.204148E+05  6.578485E+04  5.834334E+04  1.633037E+04  7.758281E+03
       437   2  1.190359E+05  1.058499E+05  5.290233E+04  5.509351E+04  1.382185E+04 -4.377831E+03
       437   3  1.101450E+05  9.927922E+04  4.744550E+04  5.147914E+04  7.461171E+03 -1.137782E+04
       437   4 -5.135969E+04 -1.194418E+04  6.132501E+03 -3.269164E+04  5.371624E+03 -4.625807E+02
       437   5 -5.171772E+04 -1.700177E+04  3.031846E+03 -3.121132E+04  9.028615E+03 -7.974347E+03
       437   6 -5.330488E+04 -1.540189E+04  2.006063E+03 -3.009574E+04  8.832613E+03 -1.034926E+04
       437   7 -2.307202E+05 -1.442842E+05 -5.352356E+04 -1.236965E+05 -5.582812E+03 -8.680051E+03
       437   8 -2.224404E+05 -1.398371E+05 -4.684205E+04 -1.174895E+05  4.237128E+03 -1.156952E+04
       437   9 -2.167272E+05 -1.300695E+05 -4.343671E+04 -1.116473E+05  1.020359E+04 -9.321044E+03
       437  10  1.280347E+05  1.204147E+05  6.578424E+04  5.834324E+04 -3.127447E-09 -2.218569E-09
       437  11  1.190356E+05  1.058498E+05  5.290193E+04  5.509356E+04  5.474611E-09  4.140004E-09
       437  12  1.101449E+05  9.927907E+04  4.744516E+04  5.147921E+04  8.528929E-09  5.109935E-09
       437  13 -5.135972E+04 -1.194419E+04  6.132447E+03 -3.269163E+04  2.100687E-09  1.585603E-09
       437  14 -5.171783E+04 -1.700186E+04  3.031573E+03 -3.121126E+04  5.340072E-09  3.717833E-09
       437  15 -5.330499E+04 -1.540203E+04  2.005715E+03 -3.009566E+04  2.150307E-09  9.497226E-10
       437  16 -2.307203E+05 -1.442843E+05 -5.352376E+04 -1.236966E+05  7.330310E-09  5.305026E-09
       437  17 -2.224404E+05 -1.398373E+05 -4.684234E+04 -1.174895E+05  4.931869E-09  3.682094E-09
       437  18 -2.167273E+05 -1.300696E+05 -4.343707E+04 -1.116472E+05 -4.255477E-09 -2.305890E-09
       437  19  1.280350E+05  1.204148E+05  6.578485E+04  5.834334E+04 -1.633037E+04 -7.758281E+03
       437  20  1.190359E+05  1.058499E+05  5.290233E+04  5.509351E+04 -1.382185E+04  4.377831E+03
       437  21  1.101450E+05  9.927922E+04  4.744550E+04  5.147914E+04 -7.461171E+03  1.137782E+04
       437  22 -5.135969E+04 -1.194418E+04  6.132501E+03 -3.269164E+04 -5.371624E+03  4.625807E+02
       437  23 -5.171772E+04 -1.700177E+04  3.031846E+03 -3.121132E+04 -9.028615E+03  7.974347E+03
       437  24 -5.330488E+04 -1.540189E+04  2.006063E+03 -3.009574E+04 -8.832613E+03  1.034926E+04
       437  25 -2.307202E+05 -1.442842E+05 -5.352356E+04 -1.236965E+05  5.582812E+03  8.680051E+03
       437  26 -2.224404E+05 -1.398371E+05 -4.684205E+04 -1.174895E+05 -4.237128E+03  1.156952E+04
       437  27 -2.167272E+05 -1.300695E+05 -4.343671E+04 -1.116473E+05 -1.020359E+04  9.321044E+03
       438   1  1.025506E+05  9.535451E+04  4.544723E+04  4.797684E+04  7.999272E+03 -1.007312E+04
       438   2  9.503384E+04  8.660566E+04  4.236281E+04  4.283199E+04  6.798724E+03 -1.054441E+04
       438   3  8.389926E+04  8.198069E+04  4.015680E+04  3.879655E+04  5.384353E+03 -1.073091E+04
       438   4 -5.340871E+04 -1.519274E+04  1.791818E+03 -3.036040E+04  8.158306E+03 -9.954217E+03
       438   5 -5.160366E+04 -1.729172E+04  1.643549E+03 -3.085854E+04  7.299812E+03 -1.016877E+04
       438   6 -5.349111E+04 -1.534094E+04  2.076790E+03 -3.024735E+04  6.227434E+03 -1.009850E+04
       438   7 -2.093390E+05 -1.257245E+05 -4.186530E+04 -1.086742E+05  8.317283E+03 -9.835361E+03
       438   8 -1.982162E+05 -1.211760E+05 -3.907747E+04 -1.045287E+05  7.800738E+03 -9.793246E+03
       438   9 -1.908604E+05 -1.126516E+05 -3.600502E+04 -9.927377E+04  7.070263E+03 -9.466281E+03
       438  10  1.025505E+05  9.535438E+04  4.544692E+04  4.797691E+04  7.370361E-10 -4.903336E-10
       438  11  9.503376E+04  8.660553E+04  4.236252E+04  4.283205E+04  6.763916E-11  8.795316E-11
       438  12  8.389920E+04  8.198056E+04  4.015653E+04  3.879660E+04  3.337609E-10  5.531561E-10
       438  13 -5.340880E+04 -1.519286E+04  1.791506E+03 -3.036033E+04 -5.262580E-12 -7.172487E-10
       438  14 -5.160375E+04 -1.729185E+04  1.643254E+03 -3.085848E+04 -2.730443E-10 -5.711227E-10
       438  15 -5.349118E+04 -1.534106E+04  2.076526E+03 -3.024730E+04 -6.888769E-10  7.817259E-11
       438  16 -2.093391E+05 -1.257246E+05 -4.186562E+04 -1.086741E+05 -9.103022E-10  8.201559E-10
       438  17 -1.982163E+05 -1.211761E+05 -3.907776E+04 -1.045286E+05 -4.852441E-10  6.493397E-10
       438  18 -1.908605E+05 -1.126517E+05 -3.600529E+04 -9.927371E+04 -6.535353E-10 -6.593568E-10
       438  19  1.025506E+05  9.535451E+04  4.544723E+04  4.797684E+04 -7.999272E+03  1.007312E+04
       438  20  9.503384E+04  8.660566E+04  4.236281E+04  4.283199E+04 -6.798724E+03  1.054441E+04
       438  21  8.389926E+04  8.198069E+04  4.015680E+04  3.879655E+04 -5.384353E+03  1.073091E+04
       438  22 -5.340871E+04 -1.519274E+04  1.791818E+03 -3.036040E+04 -8.158306E+03  9.954217E+03
       438  23 -5.160366E+04 -1.729172E+04  1.643549E+03 -3.085854E+04 -7.299812E+03  1.016877E+04
       438  24 -5.349111E+04 -1.534094E+04  2.076790E+03 -3.024735E+04 -6.227434E+03  1.009850E+04
       438  25 -2.093390E+05 -1.257245E+05 -4.186530E+04 -1.086742E+05 -8.317283E+03  9.835361E+03
       438  26 -1.982162E+05 -1.211760E+05 -3.907747E+04 -1.045287E+05 -7.800738E+03  9.793246E+03
       438  27 -1.908604E+05 -1.126516E+05 -3.600502E+04 -9.927377E+04 -7.070263E+03  9.466281E+03
       439   1  7.715974E+04  7.734130E+04  3.869682E+04  3.548586E+04  4.818294E+03 -1.052527E+04
       439   2  6.963106E+04  6.880895E+04  3.766023E+04  3.021573E+04  2.701029E+03 -1.108916E+04
       439   3  5.849208E+04  6.441420E+04  3.799918E+04  2.613253E+04  5.680411E+02 -1.163232E+04
       439   4 -5.347260E+04 -1.532119E+04  2.521736E+03 -3.023026E+04  5.593312E+03 -9.943871E+03
       439   5 -5.164329E+04 -1.734899E+04  4.042175E+03 -3.085224E+04  3.501334E+03 -1.048868E+04
       439   6 -5.342944E+04 -1.524484E+04  6.916425E+03 -3.028737E+04  1.393621E+03 -1.101277E+04
       439   7 -1.840876E+05 -1.079750E+05 -3.365557E+04 -9.593138E+04  6.368120E+03 -9.362635E+03
       439   8 -1.729013E+05 -1.034984E+05 -2.957730E+04 -9.190655E+04  4.301428E+03 -9.888366E+03
       439   9 -1.653356E+05 -9.489554E+04 -2.416705E+04 -8.669493E+04  2.218990E+03 -1.039339E+04
       439  10  7.715969E+04  7.734117E+04  3.869657E+04  3.548590E+04  4.682485E-10  1.152250E-09
       439  11  6.963102E+04  6.880881E+04  3.765999E+04  3.021575E+04  2.207788E-10  2.862358E-12
       439  12  5.849204E+04  6.441405E+04  3.799892E+04  2.613254E+04  3.841466E-11  2.927169E-10
       439  13 -5.347266E+04 -1.532131E+04  2.521491E+03 -3.023021E+04 -3.761191E-10  6.795483E-10
       439  14 -5.164334E+04 -1.734911E+04  4.041946E+03 -3.085221E+04 -9.243417E-10  8.221312E-10
       439  15 -5.342948E+04 -1.524497E+04  6.916194E+03 -3.028736E+04 -7.136581E-11 -3.694693E-10
       439  16 -1.840876E+05 -1.079751E+05 -3.365581E+04 -9.593133E+04 -6.305595E-10 -7.057187E-10
       439  17 -1.729013E+05 -1.034985E+05 -2.957752E+04 -9.190652E+04 -8.468493E-10  8.539099E-11
       439  18 -1.653356E+05 -9.489566E+04 -2.416727E+04 -8.669491E+04 -3.902546E-10 -1.276342E-10
       439  19  7.715974E+04  7.734130E+04  3.869682E+04  3.548586E+04 -4.818294E+03  1.052527E+04
       439  20  6.963106E+04  6.880895E+04  3.766023E+04  3.021573E+04 -2.701029E+03  1.108916E+04
       439  21  5.849208E+04  6.441420E+04  3.799918E+04  2.613253E+04 -5.680411E+02  1.163232E+04
       439  22 -5.347260E+04 -1.532119E+04  2.521736E+03 -3.023026E+04 -5.593312E+03  9.943871E+03
       439  23 -5.164329E+04 -1.734899E+04  4.042175E+03 -3.085224E+04 -3.501334E+03  1.048868E+04
       439  24 -5.342944E+04 -1.524484E+04  6.916425E+03 -3.028737E+04 -1.393621E+03  1.101277E+04
       439  25 -1.840876E+05 -1.079750E+05 -3.365557E+04 -9.593138E+04 -6.368120E+03  9.362635E+03
       439  26 -1.729013E+05 -1.034984E+05 -2.957730E+04 -9.190655E+04 -4.301428E+03  9.888366E+03
       439  27 -1.653356E+05 -9.489554E+04 -2.416705E+04 -8.669493E+04 -2.218990E+03  1.039339E+04
       440   1  5.124007E+04  6.030936E+04  3.819650E+04  2.333605E+04 -8.266745E+02 -1.206811E+04
       440   2  4.456835E+04  5.047753E+04  4.232423E+04  1.706127E+04 -7.724323E+03 -1.613356E+04
       440   3  3.681649E+04  4.794174E+04  5.266860E+04  1.092863E+04 -1.468995E+04 -2.010864E+04
       440   4 -5.330443E+04 -1.531620E+04  9.028952E+03 -2.994107E+04 -2.579250E+01 -1.146704E+04
       440   5 -5.186698E+04 -1.738249E+04  1.566349E+04 -3.119014E+04 -6.813757E+03 -1.545008E+04
       440   6 -5.153336E+04 -1.217597E+04  2.842012E+04 -3.229719E+04 -1.366985E+04 -1.934289E+04
       440   7 -1.578368E+05 -9.093513E+04 -2.013968E+04 -8.320785E+04  7.749082E+02 -1.086611E+04
       440   8 -1.482926E+05 -8.523769E+04 -1.099838E+04 -7.943333E+04 -5.903376E+03 -1.476674E+04
       440   9 -1.398757E+05 -7.229041E+04  4.170503E+03 -7.551667E+04 -1.264993E+04 -1.857726E+04
       440  10  5.124003E+04  6.030920E+04  3.819622E+04  2.333604E+04 -3.939684E-10  2.259699E-10
       440  11  4.456822E+04  5.047723E+04  4.232363E+04  1.706117E+04 -4.938805E-10  5.848819E-10
       440  12  3.681615E+04  4.794125E+04  5.266744E+04  1.092839E+04  4.833822E-10 -3.694907E-11
       440  13 -5.330447E+04 -1.531634E+04  9.028705E+03 -2.994107E+04  1.400368E-10  1.904169E-10
       440  14 -5.186710E+04 -1.738276E+04  1.566295E+04 -3.119022E+04 -2.433076E-10  8.124952E-11
       440  15 -5.153366E+04 -1.217642E+04  2.841906E+04 -3.229740E+04  5.294342E-10  6.877197E-10
       440  16 -1.578368E+05 -9.093526E+04 -2.013990E+04 -8.320785E+04  2.099609E-10  1.724278E-10
       440  17 -1.482927E+05 -8.523793E+04 -1.099885E+04 -7.943341E+04  5.773592E-11 -2.616950E-10
       440  18 -1.398759E+05 -7.229082E+04  4.169554E+03 -7.551686E+04 -2.312470E-10 -1.535815E-09
       440  19  5.124007E+04  6.030936E+04  3.819650E+04  2.333605E+04  8.266745E+02  1.206811E+04
       440  20  4.456835E+04  5.047753E+04  4.232423E+04  1.706127E+04  7.724323E+03  1.613356E+04
       440  21  3.681649E+04  4.794174E+04  5.266860E+04  1.092863E+04  1.468995E+04  2.010864E+04
       440  22 -5.330443E+04 -1.531620E+04  9.028952E+03 -2.994107E+04  2.579250E+01  1.146704E+04
       440  23 -5.186698E+04 -1.738249E+04  1.566349E+04 -3.119014E+04  6.813757E+03  1.545008E+04
       440  24 -5.153336E+04 -1.217597E+04  2.842012E+04 -3.229719E+04  1.366985E+04  1.934289E+04
       440  25 -1.578368E+05 -9.093513E+04 -2.013968E+04 -8.320785E+04 -7.749082E+02  1.086611E+04
       440  26 -1.482926E+05 -8.523769E+04 -1.099838E+04 -7.943333E+04  5.903376E+03  1.476674E+04
       440  27 -1.398757E+05 -7.229041E+04  4.170503E+03 -7.551667E+04  1.264993E+04  1.857726E+04
       441   1  1.596973E+04  5.530450E+04  5.870420E+04  1.847586E+04 -1.850110E+04 -2.244588E+04
       441   2  4.253713E+04  1.278222E+04  8.443945E+04 -1.120769E+04 -4.829582E+04 -4.272001E+04
       441   3  1.168878E+05  4.434907E+04  1.570524E+05 -7.123449E+04 -7.930931E+04 -6.136969E+04
       441   4 -5.073789E+04 -1.511147E+04  3.640946E+04 -2.578937E+04 -1.786369E+04 -2.196657E+04
       441   5 -5.258720E+04 -1.322983E+04  6.408413E+04 -3.968586E+04 -4.570877E+04 -4.078067E+04
       441   6 -7.076630E+03  6.231820E+04  1.369474E+05 -8.392647E+04 -7.477032E+04 -5.797415E+04
       441   7 -1.174395E+05 -8.551986E+04  1.411451E+04 -7.004761E+04 -1.722638E+04 -2.148738E+04
       441   8 -1.476993E+05 -3.924057E+04  4.372893E+04 -6.816072E+04 -4.312231E+04 -3.884144E+04
       441   9 -1.310157E+05  8.029396E+04  1.168444E+05 -9.662057E+04 -7.023270E+04 -5.457817E+04
       441  10  1.596922E+04  5.530387E+04  5.870261E+04  1.847552E+04  1.169736E-10 -9.812950E-12
       441  11  4.253414E+04  1.277964E+04  8.443164E+04 -1.120935E+04  1.805459E-10 -5.557120E-10
       441  12  1.168800E+05  4.434334E+04  1.570335E+05 -7.123841E+04 -5.665149E-10 -6.901414E-10
       441  13 -5.073836E+04 -1.511207E+04  3.640796E+04 -2.578969E+04  1.941518E-10 -9.874539E-10
       441  14 -5.258989E+04 -1.323218E+04  6.407708E+04 -3.968736E+04  4.346638E-11  2.657014E-09
       441  15 -7.083535E+03  6.231309E+04  1.369305E+05 -8.392996E+04 -3.315670E-10 -2.812956E-10
       441  16 -1.174400E+05 -8.552043E+04  1.411308E+04 -7.004791E+04  3.632050E-10 -3.340727E-10
       441  17 -1.477017E+05 -3.924269E+04  4.372260E+04 -6.816207E+04  9.476838E-11  1.147390E-09
       441  18 -1.310218E+05  8.028943E+04  1.168296E+05 -9.662365E+04  2.179795E-10  5.922354E-10
       441  19  1.596973E+04  5.530450E+04  5.870420E+04  1.847586E+04  1.850110E+04  2.244588E+04
       441  20  4.253713E+04  1.278222E+04  8.443945E+04 -1.120769E+04  4.829582E+04  4.272001E+04
       441  21  1.168878E+05  4.434907E+04  1.570524E+05 -7.123449E+04  7.930931E+04  6.136969E+04
       441  22 -5.073789E+04 -1.511147E+04  3.640946E+04 -2.578937E+04  1.786369E+04  2.196657E+04
       441  23 -5.258720E+04 -1.322983E+04  6.408413E+04 -3.968586E+04  4.570877E+04  4.078067E+04
       441  24 -7.076630E+03  6.231820E+04  1.369474E+05 -8.392647E+04  7.477032E+04  5.797415E+04
       441  25 -1.174395E+05 -8.551986E+04  1.411451E+04 -7.004761E+04  1.722638E+04  2.148738E+04
       441  26 -1.476993E+05 -3.924057E+04  4.372893E+04 -6.816072E+04  4.312231E+04  3.884144E+04
       441  27 -1.310157E+05  8.029396E+04  1.168444E+05 -9.662057E+04  7.023270E+04  5.457817E+04
       442   1  3.443131E+05  1.056368E+05  8.693063E+04  3.475966E+04 -2.483390E+04 -9.774864E+03
       442   2  2.510049E+05  1.471716E+05  9.247148E+04  4.523722E+04 -2.598986E+04 -3.069458E+04
       442   3  1.436207E+05  1.316461E+05  8.451793E+04  8.634544E+04 -2.716013E+04 -3.207151E+04
       442   4 -3.939569E+05 -7.732841E+04 -9.000005E+04  7.675739E+04 -6.162818E+04 -9.807827E+03
       442   5 -3.848412E+05 -6.966762E+03 -4.253156E+04  6.140148E+04 -3.934144E+04 -3.071071E+04
       442   6 -3.939029E+05  2.229003E+03 -2.485533E+04  7.668142E+04 -1.706872E+04 -3.206167E+04
       442   7 -1.131721E+06 -2.603257E+05 -2.669633E+05  1.187049E+05 -9.837887E+04 -9.845790E+03
       442   8 -1.020305E+06 -1.611303E+05 -1.775569E+05  7.754882E+04 -5.267953E+04 -3.072756E+04
       442   9 -9.311512E+05 -1.272058E+05 -1.342433E+05  6.702582E+04 -6.985878E+03 -3.205214E+04
       442  10  3.443124E+05  1.056365E+05  8.692929E+04  3.475947E+04  7.974049E-10 -2.035585E-10
       442  11  2.510039E+05  1.471704E+05  9.246845E+04  4.523658E+04  5.673112E-10 -1.772984E-09
       442  12  1.436197E+05  1.316448E+05  8.451461E+04  8.634474E+04  1.207635E-09 -1.787800E-09
       442  13 -3.939610E+05 -7.732954E+04 -9.000737E+04  7.675690E+04  2.481881E-10  5.462173E-10
       442  14 -3.848431E+05 -6.968190E+03 -4.253625E+04  6.140050E+04 -6.631502E-10 -9.567887E-10
       442  15 -3.939034E+05  2.227821E+03 -2.485781E+04  7.668098E+04  1.726363E-10 -3.912960E-13
       442  16 -1.131731E+06 -2.603284E+05 -2.669817E+05  1.187041E+05 -9.891912E-10  2.201971E-10
       442  17 -1.020308E+06 -1.611320E+05 -1.775639E+05  7.754752E+04 -5.748808E-10 -2.703345E-09
       442  18 -9.311515E+05 -1.272069E+05 -1.342453E+05  6.702564E+04 -8.075014E-10 -3.409584E-09
       442  19  3.443131E+05  1.056368E+05  8.693063E+04  3.475966E+04  2.483390E+04  9.774864E+03
       442  20  2.510049E+05  1.471716E+05  9.247148E+04  4.523722E+04  2.598986E+04  3.069458E+04
       442  21  1.436207E+05  1.316461E+05  8.451793E+04  8.634544E+04  2.716013E+04  3.207151E+04
       442  22 -3.939569E+05 -7.732841E+04 -9.000005E+04  7.675739E+04  6.162818E+04  9.807827E+03
       442  23 -3.848412E+05 -6.966762E+03 -4.253156E+04  6.140148E+04  3.934144E+04  3.071071E+04
       442  24 -3.939029E+05  2.229003E+03 -2.485533E+04  7.668142E+04  1.706872E+04  3.206167E+04
       442  25 -1.131721E+06 -2.603257E+05 -2.669633E+05  1.187049E+05  9.837887E+04  9.845790E+03
       442  26 -1.020305E+06 -1.611303E+05 -1.775569E+05  7.754882E+04  5.267953E+04  3.072756E+04
       442  27 -9.311512E+05 -1.272058E+05 -1.342433E+05  6.702582E+04  6.985878E+03  3.205214E+04
       443   1  7.467022E+04  1.090441E+05  7.480050E+04  7.628057E+04 -1.911894E+04 -2.750709E+04
       443   2 -2.494903E+04  8.771351E+04  6.100823E+04  6.113175E+04 -1.409502E+04 -2.240750E+04
       443   3 -1.259096E+05  6.386290E+04  4.329924E+04  7.769319E+04 -9.075171E+03 -1.624727E+04
       443   4 -3.901997E+05 -2.894852E+03 -1.996481E+04  7.693741E+04 -1.363611E+04 -2.750202E+04
       443   5 -3.894020E+05  7.912078E+01 -1.263427E+04  6.107954E+04 -7.343854E+03 -2.239973E+04
       443   6 -3.901755E+05  3.124536E+02 -1.010348E+04  7.693320E+04 -1.054865E+03 -1.623648E+04
       443   7 -8.548640E+05 -1.148473E+05 -1.147414E+05  7.759368E+04 -8.157309E+03 -2.749693E+04
       443   8 -7.537282E+05 -8.756349E+04 -8.628345E+04  6.102732E+04 -5.965778E+02 -2.239195E+04
       443   9 -6.543746E+05 -6.324229E+04 -6.350957E+04  7.617350E+04  6.962091E+03 -1.622571E+04
       443  10  7.466962E+04  1.090432E+05  7.479839E+04  7.628015E+04 -2.390845E-09 -2.293743E-09
       443  11 -2.494938E+04  8.771292E+04  6.100691E+04  6.113149E+04 -1.748939E-09  1.183591E-09
       443  12 -1.259098E+05  6.386259E+04  4.329859E+04  7.769307E+04 -2.187769E-10  1.498798E-09
       443  13 -3.902001E+05 -2.895714E+03 -1.996658E+04  7.693711E+04  7.379058E-10 -1.800858E-09
       443  14 -3.894022E+05  7.856761E+01 -1.263531E+04  6.107941E+04 -5.716773E-10  1.236593E-10
       443  15 -3.901755E+05  3.121702E+02 -1.010398E+04  7.693318E+04  6.323158E-10 -1.779158E-09
       443  16 -8.548643E+05 -1.148482E+05 -1.147429E+05  7.759350E+04  2.163157E-09 -5.975213E-10
       443  17 -7.537284E+05 -8.756402E+04 -8.628439E+04  6.102731E+04  9.024203E-10  5.442274E-10
       443  18 -6.543747E+05 -6.324258E+04 -6.351015E+04  7.617359E+04 -1.018533E-11 -1.759014E-10
       443  19  7.467022E+04  1.090441E+05  7.480050E+04  7.628057E+04  1.911894E+04  2.750709E+04
       443  20 -2.494903E+04  8.771351E+04  6.100823E+04  6.113175E+04  1.409502E+04  2.240750E+04
       443  21 -1.259096E+05  6.386290E+04  4.329924E+04  7.769319E+04  9.075171E+03  1.624727E+04
       443  22 -3.901997E+05 -2.894852E+03 -1.996481E+04  7.693741E+04  1.363611E+04  2.750202E+04
       443  23 -3.894020E+05  7.912078E+01 -1.263427E+04  6.107954E+04  7.343854E+03  2.239973E+04
       443  24 -3.901755E+05  3.124536E+02 -1.010348E+04  7.693320E+04  1.054865E+03  1.623648E+04
       443  25 -8.548640E+05 -1.148473E+05 -1.147414E+05  7.759368E+04  8.157309E+03  2.749693E+04
       443  26 -7.537282E+05 -8.756349E+04 -8.628345E+04  6.102732E+04  5.965778E+02  2.239195E+04
       443  27 -6.543746E+05 -6.324229E+04 -6.350957E+04  7.617350E+04 -6.962091E+03  1.622571E+04
       444   1 -1.980327E+05  4.643069E+04  2.838535E+04  7.670297E+04 -7.154346E+03 -1.232929E+04
       444   2 -2.975721E+05  2.216261E+04  6.046363E+03  6.145289E+04 -5.882260E+02 -5.950472E+03
       444   3 -3.987360E+05 -4.803274E+03 -2.127043E+04  7.797247E+04  5.976741E+03  4.530278E+01
       444   4 -3.901647E+05  3.082007E+02 -1.003919E+04  7.694616E+04  7.165520E+02 -1.231821E+04
       444   5 -3.893855E+05  1.288591E+02 -1.226798E+04  6.106329E+04  6.821652E+03 -5.939742E+03
       444   6 -3.901601E+05 -2.667821E+03 -1.915441E+04  7.695046E+04  1.292662E+04  5.567516E+01
       444   7 -5.822614E+05 -4.581652E+04 -4.846536E+04  7.718926E+04  8.585062E+03 -1.230713E+04
       444   8 -4.811908E+05 -2.190538E+04 -3.058255E+04  6.067374E+04  1.423046E+04 -5.929020E+03
       444   9 -3.815841E+05 -5.323427E+02 -1.703821E+04  7.592843E+04  1.987660E+04  6.602456E+01
       444  10 -1.980328E+05  4.643051E+04  2.838496E+04  7.670290E+04 -1.902252E-09  2.341228E-09
       444  11 -2.975721E+05  2.216257E+04  6.046295E+03  6.145288E+04 -4.777478E-10  1.740684E-09
       444  12 -3.987360E+05 -4.803284E+03 -2.127049E+04  7.797247E+04  2.587844E-09 -5.842521E-10
       444  13 -3.901648E+05  3.080377E+02 -1.003948E+04  7.694617E+04  1.121823E-09 -1.663312E-09
       444  14 -3.893856E+05  1.288087E+02 -1.226814E+04  6.106332E+04 -3.185305E-10  1.811406E-09
       444  15 -3.901603E+05 -2.667866E+03 -1.915472E+04  7.695045E+04  1.494721E-10  2.579422E-09
       444  16 -5.822616E+05 -4.581670E+04 -4.846579E+04  7.718935E+04  1.733853E-09  1.170468E-09
       444  17 -4.811910E+05 -2.190547E+04 -3.058300E+04  6.067381E+04 -3.748170E-10  2.680565E-09
       444  18 -3.815845E+05 -5.324489E+02 -1.703895E+04  7.592843E+04 -2.539679E-09  1.021818E-09
       444  19 -1.980327E+05  4.643069E+04  2.838535E+04  7.670297E+04  7.154346E+03  1.232929E+04
       444  20 -2.975721E+05  2.216261E+04  6.046363E+03  6.145289E+04  5.882260E+02  5.950472E+03
       444  21 -3.987360E+05 -4.803274E+03 -2.127043E+04  7.797247E+04 -5.976741E+03 -4.530278E+01
       444  22 -3.901647E+05  3.082007E+02 -1.003919E+04  7.694616E+04 -7.165520E+02  1.231821E+04
       444  23 -3.893855E+05  1.288591E+02 -1.226798E+04  6.106329E+04 -6.821652E+03  5.939742E+03
       444  24 -3.901601E+05 -2.667821E+03 -1.915441E+04  7.695046E+04 -1.292662E+04 -5.567516E+01
       444  25 -5.822614E+05 -4.581652E+04 -4.846536E+04  7.718926E+04 -8.585062E+03  1.230713E+04
       444  26 -4.811908E+05 -2.190538E+04 -3.058255E+04  6.067374E+04 -1.423046E+04  5.929020E+03
       444  27 -3.815841E+05 -5.323427E+02 -1.703821E+04  7.592843E+04 -1.987660E+04 -6.602456E+01
       445   1 -4.746041E+05 -1.738491E+04 -4.075719E+04  6.797827E+04  7.386727E+03  4.199082E+03
       445   2 -5.655103E+05 -5.043785E+04 -7.982849E+04  7.685134E+04  3.823887E+04  7.594305E+03
       445   3 -6.755318E+05 -1.435039E+05 -1.540251E+05  1.171123E+05  6.909577E+04  2.967276E+03
       445   4 -3.936913E+05  2.230933E+03 -2.378446E+04  7.684314E+04  1.621728E+04  4.212276E+03
       445   5 -3.849804E+05 -6.514671E+03 -4.057090E+04  6.119948E+04  3.745165E+04  7.592041E+03
       445   6 -3.937167E+05 -7.359388E+04 -8.579322E+04  7.694796E+04  5.869614E+04  2.948171E+03
       445   7 -3.127719E+05  2.184669E+04 -6.811761E+03  8.570917E+04  2.504896E+04  4.225722E+03
       445   8 -2.044194E+05  3.740728E+04 -1.315122E+03  4.554300E+04  3.666421E+04  7.589817E+03
       445   9 -1.118253E+05 -3.683558E+03 -1.756578E+04  3.676532E+04  4.829181E+04  2.930419E+03
       445  10 -4.746042E+05 -1.738494E+04 -4.075733E+04  6.797825E+04  6.027039E-10 -3.585352E-10
       445  11 -5.655119E+05 -5.043830E+04 -7.983135E+04  7.685111E+04 -4.045353E-10  3.964383E-09
       445  12 -6.755369E+05 -1.435052E+05 -1.540341E+05  1.171121E+05  2.920262E-10  1.526338E-09
       445  13 -3.936916E+05  2.230843E+03 -2.378499E+04  7.684308E+04  9.933599E-10  1.716855E-10
       445  14 -3.849819E+05 -6.515109E+03 -4.057364E+04  6.119925E+04 -8.433842E-10  3.482583E-09
       445  15 -3.937204E+05 -7.359482E+04 -8.579971E+04  7.694782E+04  3.477230E-10 -5.978717E-10
       445  16 -3.127726E+05  2.184650E+04 -6.812974E+03  8.570909E+04 -7.019080E-10  5.873526E-10
       445  17 -2.044208E+05  3.740685E+04 -1.317757E+03  4.554278E+04 -3.240533E-10  3.674947E-10
       445  18 -1.118278E+05 -3.684193E+03 -1.757018E+04  3.676521E+04 -3.810330E-10 -9.732936E-10
       445  19 -4.746041E+05 -1.738491E+04 -4.075719E+04  6.797827E+04 -7.386727E+03 -4.199082E+03
       445  20 -5.655103E+05 -5.043785E+04 -7.982849E+04  7.685134E+04 -3.823887E+04 -7.594305E+03
       445  21 -6.755318E+05 -1.435039E+05 -1.540251E+05  1.171123E+05 -6.909577E+04 -2.967276E+03
       445  22 -3.936913E+05  2.230933E+03 -2.378446E+04  7.684314E+04 -1.621728E+04 -4.212276E+03
       445  23 -3.849804E+05 -6.514671E+03 -4.057090E+04  6.119948E+04 -3.745165E+04 -7.592041E+03
       445  24 -3.937167E+05 -7.359388E+04 -8.579322E+04  7.694796E+04 -5.869614E+04 -2.948171E+03
       445  25 -3.127719E+05  2.184669E+04 -6.811761E+03  8.570917E+04 -2.504896E+04 -4.225722E+03
       445  26 -2.044194E+05  3.740728E+04 -1.315122E+03  4.554300E+04 -3.666421E+04 -7.589817E+03
       445  27 -1.118253E+05 -3.683558E+03 -1.756578E+04  3.676532E+04 -4.829181E+04 -2.930419E+03
       446   1 -1.356919E+05 -4.994773E+05 -1.299075E+05  1.103802E+05 -6.531623E+03 -2.354063E+04
       446   2 -1.015818E+05 -3.512917E+05 -8.354036E+04  8.924816E+04 -1.892266E+04 -8.114614E+03
       446   3 -6.609787E+04 -2.046541E+05 -4.686641E+04  1.139012E+05 -1.566911E+04  7.324217E+03
       446   4  5.433391E+03  6.897684E+04  7.130985E+03  1.135303E+05 -6.541614E+03  6.945503E+02
       446   5  3.391869E+02  6.815171E+04  6.552788E+03  9.063769E+04 -1.892356E+04 -2.641440E+03
       446   6 -1.223264E+02  6.901534E+04  9.316352E+03  1.135279E+05 -1.566578E+04 -5.968670E+03
       446   7  1.465354E+05  6.377280E+05  1.441486E+05  1.166833E+05 -6.551356E+03  2.495185E+04
       446   8  1.022487E+05  4.877606E+05  9.663577E+04  9.202817E+04 -1.892443E+04  2.835382E+03
       446   9  6.584860E+04  3.427563E+05  6.549578E+04  1.131545E+05 -1.566243E+04 -1.926731E+04
       446  10 -1.356921E+05 -4.994779E+05 -1.299086E+05  1.103801E+05  2.116057E-10 -3.705131E-10
       446  11 -1.015822E+05 -3.512919E+05 -8.354116E+04  8.924804E+04  9.086799E-11 -1.171809E-09
       446  12 -6.609815E+04 -2.046542E+05 -4.686697E+04  1.139013E+05  2.665643E-10  2.547285E-11
       446  13  5.433344E+03  6.897682E+04  7.130903E+03  1.135303E+05  1.554011E-10  7.530612E-10
       446  14  3.388005E+02  6.815161E+04  6.552102E+03  9.063765E+04  1.949274E-10  9.141106E-11
       446  15 -1.225995E+02  6.901524E+04  9.315824E+03  1.135279E+05 -1.530646E-11  5.822139E-10
       446  16  1.465352E+05  6.377273E+05  1.441473E+05  1.166834E+05  2.774988E-10 -6.592341E-10
       446  17  1.022483E+05  4.877605E+05  9.663508E+04  9.202821E+04  3.603021E-10 -1.285574E-10
       446  18  6.584824E+04  3.427558E+05  6.549462E+04  1.131542E+05 -7.885140E-11 -2.246972E-10
       446  19 -1.356919E+05 -4.994773E+05 -1.299075E+05  1.103802E+05  6.531623E+03  2.354063E+04
       446  20 -1.015818E+05 -3.512917E+05 -8.354036E+04  8.924816E+04  1.892266E+04  8.114614E+03
       446  21 -6.609787E+04 -2.046541E+05 -4.686641E+04  1.139012E+05  1.566911E+04 -7.324217E+03
       446  22  5.433391E+03  6.897684E+04  7.130985E+03  1.135303E+05  6.541614E+03 -6.945503E+02
       446  23  3.391869E+02  6.815171E+04  6.552788E+03  9.063769E+04  1.892356E+04  2.641440E+03
       446  24 -1.223264E+02  6.901534E+04  9.316352E+03  1.135279E+05  1.566578E+04  5.968670E+03
       446  25  1.465354E+05  6.377280E+05  1.441486E+05  1.166833E+05  6.551356E+03 -2.495185E+04
       446  26  1.022487E+05  4.877606E+05  9.663577E+04  9.202817E+04  1.892443E+04 -2.835382E+03
       446  27  6.584860E+04  3.427563E+05  6.549578E+04  1.131545E+05  1.566243E+04  1.926731E+04
       447   1 -4.050829E+04 -9.811213E+04 -2.279754E+04  1.124400E+05 -9.412062E+03  2.000366E+03
       447   2 -4.680076E+03  4.788985E+04  1.531946E+04  9.070133E+04 -1.230597E+03 -7.601665E+03
       447   3  3.627598E+04  1.964901E+05  6.097728E+04  1.155281E+05  7.005602E+03 -1.720616E+04
       447   4 -1.441685E+02  6.922547E+04  1.168453E+04  1.137018E+05 -9.410126E+03 -7.782311E+03
       447   5  1.375031E+02  6.793086E+04  1.936725E+04  9.041986E+04 -1.228711E+03 -1.745118E+04
       447   6  5.560322E+03  6.922711E+04  3.463897E+04  1.137029E+05  7.007420E+03 -2.712031E+04
       447   7  4.021825E+04  2.365898E+05  4.616546E+04  1.149640E+05 -9.408231E+03 -1.756758E+04
       447   8  4.955110E+03  8.797247E+04  2.341538E+04  9.013839E+04 -1.226815E+03 -2.730100E+04
       447   9 -2.515630E+04 -5.802030E+04  8.300147E+03  1.118780E+05  7.009296E+03 -3.703247E+04
       447  10 -4.050839E+04 -9.811216E+04 -2.279771E+04  1.124400E+05 -4.516356E-11 -2.520368E-10
       447  11 -4.680093E+03  4.788979E+04  1.531935E+04  9.070132E+04  8.803743E-11 -8.921630E-10
       447  12  3.627585E+04  1.964898E+05  6.097664E+04  1.155282E+05 -3.247796E-10  2.895133E-10
       447  13 -1.442798E+02  6.922538E+04  1.168425E+04  1.137018E+05  1.134332E-10  4.012814E-10
       447  14  1.374198E+02  6.793054E+04  1.936667E+04  9.041985E+04  2.222972E-10  1.575150E-11
       447  15  5.560071E+03  6.922631E+04  3.463750E+04  1.137030E+05  4.090406E-10  4.607104E-10
       447  16  4.021807E+04  2.365895E+05  4.616472E+04  1.149639E+05 -8.042542E-11 -3.484588E-10
       447  17  4.954908E+03  8.797167E+04  2.341397E+04  9.013836E+04 -1.596804E-10 -7.193692E-11
       447  18 -2.515672E+04 -5.802179E+04  8.297477E+03  1.118782E+05 -3.310759E-10 -6.103318E-10
       447  19 -4.050829E+04 -9.811213E+04 -2.279754E+04  1.124400E+05  9.412062E+03 -2.000366E+03
       447  20 -4.680076E+03  4.788985E+04  1.531946E+04  9.070133E+04  1.230597E+03  7.601665E+03
       447  21  3.627598E+04  1.964901E+05  6.097728E+04  1.155281E+05 -7.005602E+03  1.720616E+04
       447  22 -1.441685E+02  6.922547E+04  1.168453E+04  1.137018E+05  9.410126E+03  7.782311E+03
       447  23  1.375031E+02  6.793086E+04  1.936725E+04  9.041986E+04  1.228711E+03  1.745118E+04
       447  24  5.560322E+03  6.922711E+04  3.463897E+04  1.137029E+05 -7.007420E+03  2.712031E+04
       447  25  4.021825E+04  2.365898E+05  4.616546E+04  1.149640E+05  9.408231E+03  1.756758E+04
       447  26  4.955110E+03  8.797247E+04  2.341538E+04  9.013839E+04  1.226815E+03  2.730100E+04
       447  27 -2.515630E+04 -5.802030E+04  8.300147E+03  1.118780E+05 -7.009296E+03  3.703247E+04
       448   1  5.240211E+04  3.097045E+05  9.231227E+04  9.638781E+04  1.322652E+04 -1.995553E+04
       448   2  1.050578E+05  4.388620E+05  1.593370E+05  1.211030E+05  1.690839E+04 -7.819621E+04
       448   3  2.737225E+05  6.046930E+05  2.932808E+05  1.917147E+05  5.970131E+03 -1.364585E+05
       448   4 -3.925574E+03  7.611881E+04  4.425820E+04  1.135380E+05  1.322891E+04 -3.312414E+04
       448   5  1.285443E+04  5.928269E+04  7.767349E+04  9.062233E+04  1.691165E+04 -7.379950E+04
       448   6  1.426303E+05  7.608084E+04  1.658395E+05  1.135923E+05  5.979147E+03 -1.144818E+05
       448   7 -6.025550E+04 -1.574141E+05 -3.797995E+03  1.306817E+05  1.323057E+04 -4.628787E+04
       448   8 -7.935488E+04 -3.201593E+05 -3.997910E+03  6.016053E+04  1.691448E+04 -6.940543E+04
       448   9  1.154085E+04 -4.522618E+05  3.838332E+04  3.553655E+04  5.982647E+03 -9.252376E+04
       448  10  5.240182E+04  3.097040E+05  9.231119E+04  9.638802E+04 -2.293470E-10 -4.418597E-11
       448  11  1.050558E+05  4.388554E+05  1.593250E+05  1.211041E+05 -1.441418E-12 -1.089717E-09
       448  12  2.737174E+05  6.046730E+05  2.932458E+05  1.917153E+05 -2.921427E-10  2.472172E-10
       448  13 -3.926056E+03  7.611758E+04  4.425581E+04  1.135384E+05 -5.862071E-10  5.232120E-10
       448  14  1.285266E+04  5.927677E+04  7.766272E+04  9.062333E+04  1.673137E-10  2.200044E-11
       448  15  1.426267E+05  7.606676E+04  1.658148E+05  1.135928E+05  9.022206E-12  7.668878E-10
       448  16 -6.025626E+04 -1.574165E+05 -3.802352E+03  1.306822E+05 -1.271511E-10 -5.953142E-10
       448  17 -7.935648E+04 -3.201645E+05 -4.007505E+03  6.016147E+04  2.292316E-11 -4.666573E-11
       448  18  1.153851E+04 -4.522710E+05  3.836715E+04  3.553700E+04 -8.018555E-11 -5.989782E-10
       448  19  5.240211E+04  3.097045E+05  9.231227E+04  9.638781E+04 -1.322652E+04  1.995553E+04
       448  20  1.050578E+05  4.388620E+05  1.593370E+05  1.211030E+05 -1.690839E+04  7.819621E+04
       448  21  2.737225E+05  6.046930E+05  2.932808E+05  1.917147E+05 -5.970131E+03  1.364585E+05
       448  22 -3.925574E+03  7.611881E+04  4.425820E+04  1.135380E+05 -1.322891E+04  3.312414E+04
       448  23  1.285443E+04  5.928269E+04  7.767349E+04  9.062233E+04 -1.691165E+04  7.379950E+04
       448  24  1.426303E+05  7.608084E+04  1.658395E+05  1.135923E+05 -5.979147E+03  1.144818E+05
       448  25 -6.025550E+04 -1.574141E+05 -3.797995E+03  1.306817E+05 -1.323057E+04  4.628787E+04
       448  26 -7.935488E+04 -3.201593E+05 -3.997910E+03  6.016053E+04 -1.691448E+04  6.940543E+04
       448  27  1.154085E+04 -4.522618E+05  3.838332E+04  3.553655E+04 -5.982647E+03  9.252376E+04
       449   1  4.819107E+05  4.286118E+05  1.624476E+05  3.015386E+05  5.346822E+04  3.256952E+04
       449   2  4.522387E+05  3.529738E+05  1.111885E+05  2.998002E+05  3.923942E+04  5.040035E+03
       449   3  4.346317E+05  3.206244E+05  8.843142E+04  2.883468E+05  1.812692E+04 -1.332039E+04
       449   4  1.871047E+05  1.741741E+05  5.720706E+04  1.349801E+05  3.502120E+04  1.870940E+04
       449   5  1.731469E+05  1.375655E+05  2.699119E+04  1.519817E+05  3.181000E+04 -5.436047E+02
       449   6  1.688746E+05  1.418649E+05  1.572346E+04  1.592646E+05  2.171233E+04 -1.062725E+04
       449   7 -1.076124E+05 -8.019041E+04 -4.804614E+04 -3.148345E+04  1.658575E+04  4.860477E+03
       449   8 -1.058593E+05 -7.778835E+04 -5.721473E+04  4.241659E+03  2.438507E+04 -6.123473E+03
       449   9 -9.680057E+04 -3.685660E+04 -5.698997E+04  3.024556E+04  2.529562E+04 -7.935592E+03
       449  10  4.819074E+05  4.286099E+05  1.624403E+05  3.015372E+05 -5.809066E-10 -2.943722E-10
       449  11  4.522370E+05  3.529734E+05  1.111856E+05  2.998000E+05 -5.912610E-10 -1.406548E-09
       449  12  4.346313E+05  3.206241E+05  8.843047E+04  2.883469E+05 -8.792341E-10 -3.324854E-10
       449  13  1.871033E+05  1.741734E+05  5.720410E+04  1.349795E+05 -1.934023E-10  1.822031E-09
       449  14  1.731458E+05  1.375653E+05  2.698929E+04  1.519817E+05 -6.356194E-10 -1.508479E-09
       449  15  1.688740E+05  1.418646E+05  1.572236E+04  1.592648E+05 -5.882556E-10  1.116382E-09
       449  16 -1.076127E+05 -8.019051E+04 -4.804670E+04 -3.148352E+04  1.398527E-10  8.727734E-10
       449  17 -1.058600E+05 -7.778855E+04 -5.721591E+04  4.241780E+03 -2.305514E-10  1.930789E-09
       449  18 -9.680128E+04 -3.685684E+04 -5.699129E+04  3.024572E+04 -1.530079E-10  6.833289E-10
       449  19  4.819107E+05  4.286118E+05  1.624476E+05  3.015386E+05 -5.346822E+04 -3.256952E+04
       449  20  4.522387E+05  3.529738E+05  1.111885E+05  2.998002E+05 -3.923942E+04 -5.040035E+03
       449  21  4.346317E+05  3.206244E+05  8.843142E+04  2.883468E+05 -1.812692E+04  1.332039E+04
       449  22  1.871047E+05  1.741741E+05  5.720706E+04  1.349801E+05 -3.502120E+04 -1.870940E+04
       449  23  1.731469E+05  1.375655E+05  2.699119E+04  1.519817E+05 -3.181000E+04  5.436047E+02
       449  24  1.688746E+05  1.418649E+05  1.572346E+04  1.592646E+05 -2.171233E+04  1.062725E+04
       449  25 -1.076124E+05 -8.019041E+04 -4.804614E+04 -3.148345E+04 -1.658575E+04 -4.860477E+03
       449  26 -1.058593E+05 -7.778835E+04 -5.721473E+04  4.241659E+03 -2.438507E+04  6.123473E+03
       449  27 -9.680057E+04 -3.685660E+04 -5.698997E+04  3.024556E+04 -2.529562E+04  7.935592E+03
       450   1  4.063630E+05  3.130239E+05  7.941988E+04  2.766532E+05  1.736996E+04 -1.141631E+04
       450   2  3.823402E+05  2.839580E+05  6.587442E+04  2.605827E+05  1.256406E+04 -1.278141E+04
       450   3  3.473362E+05  2.688369E+05  5.583385E+04  2.477165E+05  7.377721E+03 -1.364095E+04
       450   4  1.684230E+05  1.432295E+05  1.258101E+04  1.565911E+05  1.878858E+04 -1.035119E+04
       450   5  1.736122E+05  1.356681E+05  7.825776E+03  1.554845E+05  1.459138E+04 -1.125839E+04
       450   6  1.676871E+05  1.419202E+05  6.048122E+03  1.575818E+05  1.001340E+04 -1.166012E+04
       450   7 -6.945420E+04 -2.653185E+04 -5.426354E+04  3.658155E+04  2.020646E+04 -9.286631E+03
       450   8 -3.506875E+04 -1.259754E+04 -5.022759E+04  5.042601E+04  1.661780E+04 -9.736067E+03
       450   9 -1.192838E+04  1.502041E+04 -4.374151E+04  6.747564E+04  1.264807E+04 -9.680039E+03
       450  10  4.063627E+05  3.130237E+05  7.941907E+04  2.766534E+05 -2.318069E-09 -6.690140E-10
       450  11  3.823400E+05  2.839578E+05  6.587382E+04  2.605828E+05  6.628742E-10  1.430862E-09
       450  12  3.473360E+05  2.688367E+05  5.583340E+04  2.477165E+05  1.113984E-09  5.317373E-10
       450  13  1.684226E+05  1.432293E+05  1.258015E+04  1.565912E+05  3.995861E-10  1.444212E-09
       450  14  1.736119E+05  1.356679E+05  7.825138E+03  1.554846E+05 -1.120554E-09  1.427792E-09
       450  15  1.676869E+05  1.419201E+05  6.047678E+03  1.575819E+05 -2.942740E-09 -3.821961E-09
       450  16 -6.945466E+04 -2.653205E+04 -5.426447E+04  3.658170E+04  2.739941E-09  2.917133E-09
       450  17 -3.506907E+04 -1.259772E+04 -5.022829E+04  5.042614E+04 -3.295444E-09  5.376999E-10
       450  18 -1.192858E+04  1.502026E+04 -4.374198E+04  6.747574E+04 -8.788072E-09 -5.562913E-09
       450  19  4.063630E+05  3.130239E+05  7.941988E+04  2.766532E+05 -1.736996E+04  1.141631E+04
       450  20  3.823402E+05  2.839580E+05  6.587442E+04  2.605827E+05 -1.256406E+04  1.278141E+04
       450  21  3.473362E+05  2.688369E+05  5.583385E+04  2.477165E+05 -7.377721E+03  1.364095E+04
       450  22  1.684230E+05  1.432295E+05  1.258101E+04  1.565911E+05 -1.878858E+04  1.035119E+04
       450  23  1.736122E+05  1.356681E+05  7.825776E+03  1.554845E+05 -1.459138E+04  1.125839E+04
       450  24  1.676871E+05  1.419202E+05  6.048122E+03  1.575818E+05 -1.001340E+04  1.166012E+04
       450  25 -6.945420E+04 -2.653185E+04 -5.426354E+04  3.658155E+04 -2.020646E+04  9.286631E+03
       450  26 -3.506875E+04 -1.259754E+04 -5.022759E+04  5.042601E+04 -1.661780E+04  9.736067E+03
       450  27 -1.192838E+04  1.502041E+04 -4.374151E+04  6.747564E+04 -1.264807E+04  9.680039E+03
       451   1  3.257376E+05  2.541685E+05  4.961805E+04  2.370589E+05  5.691087E+03 -1.292300E+04
       451   2  3.020960E+05  2.270233E+05  4.255723E+04  2.203782E+05  1.337755E+03 -1.290037E+04
       451   3  2.665628E+05  2.126630E+05  3.784017E+04  2.073683E+05 -3.031386E+03 -1.285701E+04
       451   4  1.676701E+05  1.419680E+05  5.897528E+03  1.574774E+05  8.206986E+03 -1.103195E+04
       451   5  1.736442E+05  1.356203E+05  6.938707E+03  1.556131E+05  3.879165E+03 -1.098983E+04
       451   6  1.677194E+05  1.420513E+05  1.030158E+04  1.574186E+05 -4.646691E+02 -1.092711E+04
       451   7  9.632517E+03  2.978347E+04 -3.782466E+04  7.792011E+04  1.072199E+04 -9.141578E+03
       451   8  4.521174E+04  4.422744E+04 -2.868107E+04  9.086378E+04  6.419848E+03 -9.079844E+03
       451   9  6.888706E+04  7.144531E+04 -1.723792E+04  1.074780E+05  2.101495E+03 -8.997630E+03
       451  10  3.257375E+05  2.541683E+05  4.961768E+04  2.370590E+05 -2.892782E-08 -2.331024E-08
       451  11  3.020959E+05  2.270232E+05  4.255691E+04  2.203782E+05  2.539521E-09 -4.423674E-09
       451  12  2.665627E+05  2.126629E+05  3.783984E+04  2.073683E+05  2.677970E-08  1.785406E-08
       451  13  1.676700E+05  1.419678E+05  5.897173E+03  1.574775E+05 -9.175744E-10 -2.510848E-09
       451  14  1.736442E+05  1.356201E+05  6.938452E+03  1.556131E+05  4.447977E-09  5.287689E-09
       451  15  1.677194E+05  1.420511E+05  1.030136E+04  1.574186E+05  2.635623E-09  3.048003E-10
       451  16  9.632371E+03  2.978335E+04 -3.782503E+04  7.792019E+04  2.684282E-08  1.701339E-08
       451  17  4.521167E+04  4.422734E+04 -2.868131E+04  9.086383E+04  7.148623E-09  4.422899E-09
       451  18  6.888703E+04  7.144522E+04 -1.723808E+04  1.074781E+05 -2.076180E-08 -1.709831E-08
       451  19  3.257376E+05  2.541685E+05  4.961805E+04  2.370589E+05 -5.691087E+03  1.292300E+04
       451  20  3.020960E+05  2.270233E+05  4.255723E+04  2.203782E+05 -1.337755E+03  1.290037E+04
       451  21  2.665628E+05  2.126630E+05  3.784017E+04  2.073683E+05  3.031386E+03  1.285701E+04
       451  22  1.676701E+05  1.419680E+05  5.897528E+03  1.574774E+05 -8.206986E+03  1.103195E+04
       451  23  1.736442E+05  1.356203E+05  6.938707E+03  1.556131E+05 -3.879165E+03  1.098983E+04
       451  24  1.677194E+05  1.420513E+05  1.030158E+04  1.574186E+05  4.646691E+02  1.092711E+04
       451  25  9.632517E+03  2.978347E+04 -3.782466E+04  7.792011E+04 -1.072199E+04  9.141578E+03
       451  26  4.521174E+04  4.422744E+04 -2.868107E+04  9.086378E+04 -6.419848E+03  9.079844E+03
       451  27  6.888706E+04  7.144531E+04 -1.723792E+04  1.074780E+05 -2.101495E+03  8.997630E+03
       452   1  2.445617E+05  1.984830E+05  3.448323E+04  1.974762E+05 -5.641140E+03 -1.285678E+04
       452   2  2.222003E+05  1.696306E+05  3.524883E+04  1.794487E+05 -1.581531E+04 -1.722336E+04
       452   3  1.913165E+05  1.577408E+05  4.442264E+04  1.636358E+05 -2.590676E+04 -2.169959E+04
       452   4  1.678867E+05  1.419437E+05  1.301322E+04  1.578810E+05 -3.055776E+03 -1.091268E+04
       452   5  1.733535E+05  1.356054E+05  2.187448E+04  1.551517E+05 -1.336118E+04 -1.537788E+04
       452   6  1.703258E+05  1.462577E+05  3.925823E+04  1.546360E+05 -2.358427E+04 -1.995310E+04
       452   7  9.121721E+04  8.540749E+04 -8.457661E+03  1.182910E+05 -4.708102E+02 -8.968909E+03
       452   8  1.245093E+05  1.015814E+05  8.499952E+03  1.308568E+05 -1.090732E+04 -1.353259E+04
       452   9  1.493359E+05  1.347748E+05  3.409391E+04  1.456366E+05 -2.126190E+04 -1.820670E+04
       452  10  2.445616E+05  1.984828E+05  3.448286E+04  1.974761E+05  3.552538E-09  3.329749E-09
       452  11  2.222000E+05  1.696302E+05  3.524780E+04  1.794485E+05 -5.411247E-09 -1.361479E-09
       452  12  1.913157E+05  1.577402E+05  4.442049E+04  1.636354E+05 -1.581116E-08 -1.117182E-08
       452  13  1.678866E+05  1.419436E+05  1.301298E+04  1.578810E+05  9.361978E-10  1.060028E-09
       452  14  1.733532E+05  1.356051E+05  2.187370E+04  1.551515E+05 -3.977584E-10 -1.228278E-10
       452  15  1.703251E+05  1.462571E+05  3.925644E+04  1.546356E+05 -5.341747E-09 -3.128415E-09
       452  16  9.121719E+04  8.540740E+04 -8.457813E+03  1.182910E+05 -3.287497E-09  1.001830E-09
       452  17  1.245091E+05  1.015812E+05  8.499385E+03  1.308567E+05  3.043996E-09  3.905918E-09
       452  18  1.493353E+05  1.347744E+05  3.409244E+04  1.456363E+05  3.061407E-09  2.986979E-09
       452  19  2.445617E+05  1.984830E+05  3.448323E+04  1.974762E+05  5.641140E+03  1.285678E+04
       452  20  2.222003E+05  1.696306E+05  3.524883E+04  1.794487E+05  1.581531E+04  1.722336E+04
       452  21  1.913165E+05  1.577408E+05  4.442264E+04  1.636358E+05  2.590676E+04  2.169959E+04
       452  22  1.678867E+05  1.419437E+05  1.301322E+04  1.578810E+05  3.055776E+03  1.091268E+04
       452  23  1.733535E+05  1.356054E+05  2.187448E+04  1.551517E+05  1.336118E+04  1.537788E+04
       452  24  1.703258E+05  1.462577E+05  3.925823E+04  1.546360E+05  2.358427E+04  1.995310E+04
       452  25  9.121721E+04  8.540749E+04 -8.457661E+03  1.182910E+05  4.708102E+02  8.968909E+03
       452  26  1.245093E+05  1.015814E+05  8.499952E+03  1.308568E+05  1.090732E+04  1.353259E+04
       452  27  1.493359E+05  1.347748E+05  3.409391E+04  1.456366E+05  2.126190E+04  1.820670E+04
       453   1  1.505926E+05  1.592240E+05  4.933452E+04  1.678615E+05 -3.280907E+04 -2.482680E+04
       453   2  1.740848E+05  8.556212E+04  7.851174E+04  1.180849E+05 -6.831941E+04 -4.944275E+04
       453   3  2.554901E+05  1.192971E+05  1.677343E+05  2.852204E+04 -1.023329E+05 -7.604465E+04
       453   4  1.714667E+05  1.421783E+05  5.019069E+04  1.635654E+05 -3.001830E+04 -2.272640E+04
       453   5  1.723072E+05  1.413753E+05  8.815902E+04  1.434818E+05 -6.792032E+04 -4.914853E+04
       453   6  2.315667E+05  2.484734E+05  1.882473E+05  8.361268E+04 -1.043235E+05 -7.756450E+04
       453   7  1.923419E+05  1.251337E+05  5.104710E+04  1.592690E+05 -2.722739E+04 -2.062617E+04
       453   8  1.705315E+05  1.971956E+05  9.780691E+04  1.688795E+05 -6.752124E+04 -4.885425E+04
       453   9  2.076569E+05  3.776900E+05  2.087644E+05  1.387047E+05 -1.063141E+05 -7.908515E+04
       453  10  1.505913E+05  1.592230E+05  4.933134E+04  1.678609E+05  5.955592E-09  8.459608E-09
       453  11  1.740792E+05  8.555824E+04  7.849838E+04  1.180822E+05  4.448236E-09  6.776786E-09
       453  12  2.554773E+05  1.192881E+05  1.677038E+05  2.851578E+04 -2.319250E-09  2.129469E-09
       453  13  1.714656E+05  1.421775E+05  5.018803E+04  1.635649E+05 -6.187613E-09 -6.759360E-09
       453  14  1.723016E+05  1.413715E+05  8.814582E+04  1.434791E+05  7.321340E-10 -3.708992E-10
       453  15  2.315534E+05  2.484640E+05  1.882156E+05  8.360617E+04  1.470205E-10  1.852568E-10
       453  16  1.923410E+05  1.251330E+05  5.104491E+04  1.592686E+05 -1.716302E-08 -1.506095E-08
       453  17  1.705260E+05  1.971918E+05  9.779386E+04  1.688769E+05 -5.607944E-09 -6.078090E-09
       453  18  2.076430E+05  3.776803E+05  2.087314E+05  1.386979E+05  3.005650E-09  4.863494E-10
       453  19  1.505926E+05  1.592240E+05  4.933452E+04  1.678615E+05  3.280907E+04  2.482680E+04
       453  20  1.740848E+05  8.556212E+04  7.851174E+04  1.180849E+05  6.831941E+04  4.944275E+04
       453  21  2.554901E+05  1.192971E+05  1.677343E+05  2.852204E+04  1.023329E+05  7.604465E+04
       453  22  1.714667E+05  1.421783E+05  5.019069E+04  1.635654E+05  3.001830E+04  2.272640E+04
       453  23  1.723072E+05  1.413753E+05  8.815902E+04  1.434818E+05  6.792032E+04  4.914853E+04
       453  24  2.315667E+05  2.484734E+05  1.882473E+05  8.361268E+04  1.043235E+05  7.756450E+04
       453  25  1.923419E+05  1.251337E+05  5.104710E+04  1.592690E+05  2.722739E+04  2.062617E+04
       453  26  1.705315E+05  1.971956E+05  9.780691E+04  1.688795E+05  6.752124E+04  4.885425E+04
       453  27  2.076569E+05  3.776900E+05  2.087644E+05  1.387047E+05  1.063141E+05  7.908515E+04
       454   1  4.401645E+05  1.177315E+05  1.072814E+05  6.108888E+04  2.499455E+03 -7.772371E+03
       454   2  3.396157E+05  1.195493E+05  8.909616E+04  5.637148E+04 -7.419429E+03 -2.398338E+04
       454   3  2.345658E+05  9.837685E+04  7.162080E+04  8.326191E+04 -1.735836E+04 -2.388988E+04
       454   4 -1.692804E+05 -3.332679E+04 -3.896697E+04  7.882080E+04 -2.671754E+04 -7.814348E+03
       454   5 -1.653064E+05 -2.894434E+03 -1.838694E+04  6.298954E+04 -1.706572E+04 -2.399977E+04
       454   6 -1.692455E+05  1.140211E+03 -1.068983E+04  7.876890E+04 -7.435086E+03 -2.387433E+04
       454   7 -7.783826E+05 -1.844104E+05 -1.852383E+05  9.653511E+04 -5.590598E+04 -7.858016E+03
       454   8 -6.699881E+05 -1.253545E+05 -1.258843E+05  6.960203E+04 -2.670427E+04 -2.401637E+04
       454   9 -5.729015E+05 -9.610650E+04 -9.300866E+04  7.427880E+04  2.481852E+03 -2.385892E+04
       454  10  4.401644E+05  1.177314E+05  1.072813E+05  6.108889E+04  2.564006E-09 -1.125323E-09
       454  11  3.396155E+05  1.195487E+05  8.909498E+04  5.637134E+04 -4.698726E-10 -8.139396E-10
       454  12  2.345653E+05  9.837616E+04  7.161916E+04  8.326157E+04 -2.896197E-09 -1.582081E-09
       454  13 -1.692812E+05 -3.332705E+04 -3.896842E+04  7.882063E+04  5.776909E-10  2.466598E-09
       454  14 -1.653069E+05 -2.895131E+03 -1.838857E+04  6.298921E+04 -4.798386E-10 -3.556567E-10
       454  15 -1.692457E+05  1.139584E+03 -1.069100E+04  7.876876E+04  3.634999E-10 -2.464514E-09
       454  16 -7.783860E+05 -1.844113E+05 -1.852443E+05  9.653476E+04 -3.010218E-09  1.924333E-10
       454  17 -6.699891E+05 -1.253554E+05 -1.258867E+05  6.960152E+04 -2.815985E-10 -1.290988E-09
       454  18 -5.729016E+05 -9.610711E+04 -9.300974E+04  7.427885E+04  2.797053E-09 -2.526309E-09
       454  19  4.401645E+05  1.177315E+05  1.072814E+05  6.108888E+04 -2.499455E+03  7.772371E+03
       454  20  3.396157E+05  1.195493E+05  8.909616E+04  5.637148E+04  7.419429E+03  2.398338E+04
       454  21  2.345658E+05  9.837685E+04  7.162080E+04  8.326191E+04  1.735836E+04  2.388988E+04
       454  22 -1.692804E+05 -3.332679E+04 -3.896697E+04  7.882080E+04  2.671754E+04  7.814348E+03
       454  23 -1.653064E+05 -2.894434E+03 -1.838694E+04  6.298954E+04  1.706572E+04  2.399977E+04
       454  24 -1.692455E+05  1.140211E+03 -1.068983E+04  7.876890E+04  7.435086E+03  2.387433E+04
       454  25 -7.783826E+05 -1.844104E+05 -1.852383E+05  9.653511E+04  5.590598E+04  7.858016E+03
       454  26 -6.699881E+05 -1.253545E+05 -1.258843E+05  6.960203E+04  2.670427E+04  2.401637E+04
       454  27 -5.729015E+05 -9.610650E+04 -9.300866E+04  7.427880E+04 -2.481852E+03  2.385892E+04
       455   1  1.618874E+05  7.828749E+04  5.873528E+04  7.893359E+04 -1.205023E+04 -1.934866E+04
       455   2  5.949994E+04  5.471498E+04  4.059645E+04  6.291421E+04 -1.045892E+04 -1.384784E+04
       455   3 -4.343824E+04  3.021930E+04  2.116057E+04  7.936214E+04 -8.870655E+03 -7.479662E+03
       455   4 -1.676411E+05 -1.072703E+03 -8.546490E+03  7.897109E+04 -5.969940E+03 -1.933894E+04
       455   5 -1.672627E+05  1.821260E+02 -5.293393E+03  6.273579E+04 -3.339364E+03 -1.383558E+04
       455   6 -1.676262E+05  3.335322E+02 -4.059744E+03  7.896860E+04 -7.115785E+02 -7.464690E+03
       455   7 -4.970662E+05 -8.043968E+04 -7.583386E+04  7.900851E+04  1.071801E+02 -1.932921E+04
       455   8 -3.939763E+05 -5.435389E+04 -5.118571E+04  6.255742E+04  3.777640E+03 -1.382333E+04
       455   9 -2.917993E+05 -2.955316E+04 -2.928061E+04  7.857512E+04  7.445896E+03 -7.449727E+03
       455  10  1.618871E+05  7.828705E+04  5.873431E+04  7.893340E+04 -2.711004E-09  1.226260E-09
       455  11  5.949977E+04  5.471474E+04  4.059588E+04  6.291409E+04 -3.215449E-09  1.428018E-09
       455  12 -4.343834E+04  3.021922E+04  2.116032E+04  7.936209E+04 -2.859655E-09  2.642520E-09
       455  13 -1.676412E+05 -1.073114E+03 -8.547260E+03  7.897099E+04  1.125136E-09 -1.142924E-10
       455  14 -1.672628E+05  1.819174E+02 -5.293774E+03  6.273575E+04 -4.217614E-10  1.684755E-09
       455  15 -1.676262E+05  3.334722E+02 -4.059850E+03  7.896859E+04  5.738391E-10  2.438890E-09
       455  16 -4.970663E+05 -8.044008E+04 -7.583456E+04  7.900851E+04  2.440798E-09  1.082687E-09
       455  17 -3.939763E+05 -5.435410E+04 -5.118609E+04  6.255746E+04  2.681374E-09 -3.781895E-09
       455  18 -2.917994E+05 -2.955324E+04 -2.928082E+04  7.857517E+04  2.966836E-09 -4.126259E-10
       455  19  1.618874E+05  7.828749E+04  5.873528E+04  7.893359E+04  1.205023E+04  1.934866E+04
       455  20  5.949994E+04  5.471498E+04  4.059645E+04  6.291421E+04  1.045892E+04  1.384784E+04
       455  21 -4.343824E+04  3.021930E+04  2.116057E+04  7.936214E+04  8.870655E+03  7.479662E+03
       455  22 -1.676411E+05 -1.072703E+03 -8.546490E+03  7.897109E+04  5.969940E+03  1.933894E+04
       455  23 -1.672627E+05  1.821260E+02 -5.293393E+03  6.273579E+04  3.339364E+03  1.383558E+04
       455  24 -1.676262E+05  3.335322E+02 -4.059744E+03  7.896860E+04  7.115785E+02  7.464690E+03
       455  25 -4.970662E+05 -8.043968E+04 -7.583386E+04  7.900851E+04 -1.071801E+02  1.932921E+04
       455  26 -3.939763E+05 -5.435389E+04 -5.118571E+04  6.255742E+04 -3.777640E+03  1.382333E+04
       455  27 -2.917993E+05 -2.955316E+04 -2.928061E+04  7.857512E+04 -7.445896E+03  7.449727E+03
       456   1 -1.172148E+05  1.237446E+04  5.965424E+03  7.889285E+04 -8.115267E+03 -3.472394E+03
       456   2 -2.194864E+05 -1.237522E+04 -1.530869E+04  6.277507E+04 -5.108449E+03  2.980902E+03
       456   3 -3.225255E+05 -3.812100E+04 -3.882536E+04  7.914273E+04 -2.100832E+03  8.825084E+03
       456   4 -1.676035E+05  3.160040E+02 -3.932802E+03  7.897253E+04 -1.402786E+01 -3.457334E+03
       456   5 -1.672793E+05  2.118280E+02 -4.590268E+03  6.273086E+04  2.261493E+03  2.994412E+03
       456   6 -1.676071E+05 -7.612086E+02 -6.982486E+03  7.897449E+04  4.538306E+03  8.837099E+03
       456   7 -2.179897E+05 -1.174257E+04 -1.383091E+04  7.905219E+04  8.086568E+03 -3.442271E+03
       456   8 -1.150695E+05  1.279873E+04  6.128207E+03  6.268665E+04  9.632045E+03  3.007921E+03
       456   9 -1.266573E+04  3.659709E+04  2.485927E+04  7.880619E+04  1.117907E+04  8.849109E+03
       456  10 -1.172148E+05  1.237443E+04  5.965277E+03  7.889283E+04 -6.003487E-09  5.732384E-09
       456  11 -2.194864E+05 -1.237523E+04 -1.530875E+04  6.277508E+04 -2.412208E-09  3.341144E-09
       456  12 -3.225256E+05 -3.812108E+04 -3.882551E+04  7.914274E+04  1.363305E-10  3.371775E-09
       456  13 -1.676035E+05  3.159912E+02 -3.932825E+03  7.897253E+04  1.194995E-09  3.290417E-09
       456  14 -1.672793E+05  2.118170E+02 -4.590295E+03  6.273086E+04 -1.066015E-09  4.057345E-09
       456  15 -1.676071E+05 -7.612980E+02 -6.982671E+03  7.897446E+04  1.762042E-10  1.924662E-11
       456  16 -2.179898E+05 -1.174260E+04 -1.383105E+04  7.905222E+04  5.866639E-09  3.166796E-09
       456  17 -1.150696E+05  1.279870E+04  6.128016E+03  6.268663E+04  1.978498E-09  2.194171E-09
       456  18 -1.266589E+04  3.659697E+04  2.485889E+04  7.880611E+04 -5.123059E-10 -2.697562E-09
       456  19 -1.172148E+05  1.237446E+04  5.965424E+03  7.889285E+04  8.115267E+03  3.472394E+03
       456  20 -2.194864E+05 -1.237522E+04 -1.530869E+04  6.277507E+04  5.108449E+03 -2.980902E+03
       456  21 -3.225255E+05 -3.812100E+04 -3.882536E+04  7.914273E+04  2.100832E+03 -8.825084E+03
       456  22 -1.676035E+05  3.160040E+02 -3.932802E+03  7.897253E+04  1.402786E+01  3.457334E+03
       456  23 -1.672793E+05  2.118280E+02 -4.590268E+03  6.273086E+04 -2.261493E+03 -2.994412E+03
       456  24 -1.676071E+05 -7.612086E+02 -6.982486E+03  7.897449E+04 -4.538306E+03 -8.837099E+03
       456  25 -2.179897E+05 -1.174257E+04 -1.383091E+04  7.905219E+04 -8.086568E+03  3.442271E+03
       456  26 -1.150695E+05  1.279873E+04  6.128207E+03  6.268665E+04 -9.632045E+03 -3.007921E+03
       456  27 -1.266573E+04  3.659709E+04  2.485927E+04  7.880619E+04 -1.117907E+04 -8.849109E+03
       457   1 -3.979063E+05 -5.423804E+04 -5.558064E+04  7.537406E+04 -3.705231E+03  1.319952E+04
       457   2 -4.962568E+05 -8.248810E+04 -8.545961E+04  6.819182E+04  1.821155E+04  1.515365E+04
       457   3 -6.033972E+05 -1.340838E+05 -1.354754E+05  9.287376E+04  4.014314E+04  5.206466E+03
       457   4 -1.688709E+05  9.907847E+02 -8.617244E+03  7.882638E+04  5.730256E+03  1.321617E+04
       457   5 -1.657255E+05 -2.209412E+03 -1.461328E+04  6.291683E+04  1.337757E+04  1.514461E+04
       457   6 -1.688943E+05 -2.626905E+04 -3.082752E+04  7.887188E+04  2.104332E+04  5.173989E+03
       457   7  6.021447E+04  5.621640E+04  3.834370E+04  8.227996E+04  1.516916E+04  1.323292E+04
       457   8  1.649089E+05  7.806224E+04  5.622679E+04  5.763895E+04  8.541047E+03  1.513566E+04
       457   9  2.657827E+05  8.153291E+04  7.380836E+04  6.486006E+04  1.930175E+03  5.142387E+03
       457  10 -3.979063E+05 -5.423823E+04 -5.558099E+04  7.537410E+04 -4.764253E-08  1.298252E-09
       457  11 -4.962573E+05 -8.248843E+04 -8.546066E+04  6.819159E+04 -2.962218E-09 -3.249788E-09
       457  12 -6.033989E+05 -1.340843E+05 -1.354785E+05  9.287360E+04  4.102615E-08 -1.376872E-09
       457  13 -1.688710E+05  9.905883E+02 -8.617634E+03  7.882632E+04  7.587595E-10  2.345454E-09
       457  14 -1.657257E+05 -2.209706E+03 -1.461405E+04  6.291667E+04 -9.151027E-10 -5.388089E-09
       457  15 -1.688947E+05 -2.626920E+04 -3.082840E+04  7.887179E+04  7.453063E-10  1.326489E-09
       457  16  6.021418E+04  5.621615E+04  3.834293E+04  8.227980E+04  4.734174E-08  1.445417E-09
       457  17  1.649087E+05  7.806198E+04  5.622622E+04  5.763884E+04  2.580181E-09  6.918551E-10
       457  18  2.657827E+05  8.153288E+04  7.380830E+04  6.486006E+04 -4.088372E-08 -1.306552E-09
       457  19 -3.979063E+05 -5.423804E+04 -5.558064E+04  7.537406E+04  3.705231E+03 -1.319952E+04
       457  20 -4.962568E+05 -8.248810E+04 -8.545961E+04  6.819182E+04 -1.821155E+04 -1.515365E+04
       457  21 -6.033972E+05 -1.340838E+05 -1.354754E+05  9.287376E+04 -4.014314E+04 -5.206466E+03
       457  22 -1.688709E+05  9.907847E+02 -8.617244E+03  7.882638E+04 -5.730256E+03 -1.321617E+04
       457  23 -1.657255E+05 -2.209412E+03 -1.461328E+04  6.291683E+04 -1.337757E+04 -1.514461E+04
       457  24 -1.688943E+05 -2.626905E+04 -3.082752E+04  7.887188E+04 -2.104332E+04 -5.173989E+03
       457  25  6.021447E+04  5.621640E+04  3.834370E+04  8.227996E+04 -1.516916E+04 -1.323292E+04
       457  26  1.649089E+05  7.806224E+04  5.622679E+04  5.763895E+04 -8.541047E+03 -1.513566E+04
       457  27  2.657827E+05  8.153291E+04  7.380836E+04  6.486006E+04 -1.930175E+03 -5.142387E+03
       458   1 -2.542868E+05 -1.067365E+06 -2.540657E+05  1.986924E+05 -9.714486E+03 -7.101949E+04
       458   2 -1.562465E+05 -8.325134E+05 -1.552743E+05  1.493696E+05 -2.810178E+04 -3.184063E+04
       458   3 -9.570833E+04 -6.118359E+05 -9.136458E+04  1.708139E+05 -2.286087E+04  7.380349E+03
       458   4 -4.161188E+04 -2.114285E+05 -4.754650E+04  1.756734E+05 -9.743575E+03 -3.488905E+04
       458   5 -4.083402E+03 -2.067373E+05 -2.070283E+04  1.403076E+05 -2.810524E+04 -2.401034E+04
       458   6  8.855364E+02 -2.113354E+05 -9.049460E+03  1.757099E+05 -2.284772E+04 -1.310505E+04
       458   7  1.710121E+05  6.451833E+05  1.589255E+05  1.526227E+05 -9.775333E+03  1.291122E+03
       458   8  1.480543E+05  4.194075E+05  1.138460E+05  1.312363E+05 -2.810893E+04 -1.617224E+04
       458   9  9.746961E+04  1.893185E+05  7.325867E+04  1.806091E+05 -2.283489E+04 -3.360344E+04
       458  10 -2.542882E+05 -1.067371E+06 -2.540754E+05  1.986918E+05 -2.399513E-10  2.204407E-09
       458  11 -1.562476E+05 -8.325147E+05 -1.552777E+05  1.493689E+05  2.119808E-10 -5.640502E-09
       458  12 -9.570890E+04 -6.118361E+05 -9.136567E+04  1.708141E+05  1.839073E-09 -1.626124E-08
       458  13 -4.161231E+04 -2.114298E+05 -4.754896E+04  1.756732E+05  4.413174E-10 -2.808999E-09
       458  14 -4.084405E+03 -2.067382E+05 -2.070539E+04  1.403070E+05 -9.720480E-10  1.954209E-10
       458  15  8.849299E+02 -2.113357E+05 -9.050763E+03  1.757097E+05  1.923860E-09  6.177260E-10
       458  16  1.710120E+05  6.451833E+05  1.589253E+05  1.526227E+05 -5.038419E-10 -1.692067E-09
       458  17  1.480534E+05  4.194070E+05  1.138440E+05  1.312359E+05 -9.315502E-10  4.756186E-09
       458  18  9.746875E+04  1.893172E+05  7.325557E+04  1.806085E+05  1.092109E-09  1.565943E-08
       458  19 -2.542868E+05 -1.067365E+06 -2.540657E+05  1.986924E+05  9.714486E+03  7.101949E+04
       458  20 -1.562465E+05 -8.325134E+05 -1.552743E+05  1.493696E+05  2.810178E+04  3.184063E+04
       458  21 -9.570833E+04 -6.118359E+05 -9.136458E+04  1.708139E+05  2.286087E+04 -7.380349E+03
       458  22 -4.161188E+04 -2.114285E+05 -4.754650E+04  1.756734E+05  9.743575E+03  3.488905E+04
       458  23 -4.083402E+03 -2.067373E+05 -2.070283E+04  1.403076E+05  2.810524E+04  2.401034E+04
       458  24  8.855364E+02 -2.113354E+05 -9.049460E+03  1.757099E+05  2.284772E+04  1.310505E+04
       458  25  1.710121E+05  6.451833E+05  1.589255E+05  1.526227E+05  9.775333E+03 -1.291122E+03
       458  26  1.480543E+05  4.194075E+05  1.138460E+05  1.312363E+05  2.810893E+04  1.617224E+04
       458  27  9.746961E+04  1.893185E+05  7.325867E+04  1.806091E+05  2.283489E+04  3.360344E+04
       459   1 -5.901252E+04 -4.452417E+05 -5.367694E+04  1.760342E+05 -1.320187E+04  3.055297E+03
       459   2 -2.181837E+03 -2.178273E+05  1.815353E+03  1.401997E+05 -5.184986E+02  1.337018E+03
       459   3  5.545540E+04  1.022037E+04  5.865850E+04  1.763690E+05  1.218703E+04 -3.819813E+02
       459   4 -2.021939E+03 -2.091188E+05 -4.936201E+03  1.759749E+05 -1.319334E+04 -1.214518E+04
       459   5 -1.582998E+02 -2.094130E+05  3.515351E+03  1.399744E+05 -5.099419E+02 -1.389126E+04
       459   6  2.520493E+03 -2.091163E+05  1.334060E+04  1.759774E+05  1.219546E+04 -1.563745E+04
       459   7  5.496524E+04  2.705756E+04  4.380240E+04  1.759156E+05 -1.318482E+04 -2.735133E+04
       459   8  1.865358E+03 -2.009980E+05  5.216217E+03  1.397490E+05 -5.013742E+02 -2.911974E+04
       459   9 -5.041734E+04 -4.284068E+05 -3.197903E+04  1.755859E+05  1.220391E+04 -3.088763E+04
       459  10 -5.901271E+04 -4.452418E+05 -5.367729E+04  1.760343E+05  1.721296E-09  1.576178E-08
       459  11 -2.181838E+03 -2.178273E+05  1.815349E+03  1.401997E+05  6.670076E-10  8.928510E-09
       459  12  5.545524E+04  1.022033E+04  5.865822E+04  1.763690E+05 -5.374797E-10 -3.338604E-09
       459  13 -2.022166E+03 -2.091190E+05 -4.936806E+03  1.759748E+05  2.137683E-09 -2.341069E-09
       459  14 -1.583519E+02 -2.094132E+05  3.514988E+03  1.399744E+05 -5.387301E-10 -2.300324E-10
       459  15  2.520268E+03 -2.091166E+05  1.333986E+04  1.759775E+05  2.206064E-10  1.184285E-09
       459  16  5.496486E+04  2.705671E+04  4.380067E+04  1.759153E+05  1.921531E-09 -1.655312E-08
       459  17  1.865130E+03 -2.009990E+05  5.214623E+03  1.397490E+05 -2.255386E-10 -1.009864E-08
       459  18 -5.041775E+04 -4.284078E+05 -3.198111E+04  1.755862E+05 -3.288633E-10  2.487740E-09
       459  19 -5.901252E+04 -4.452417E+05 -5.367694E+04  1.760342E+05  1.320187E+04 -3.055297E+03
       459  20 -2.181837E+03 -2.178273E+05  1.815353E+03  1.401997E+05  5.184986E+02 -1.337018E+03
       459  21  5.545540E+04  1.022037E+04  5.865850E+04  1.763690E+05 -1.218703E+04  3.819813E+02
       459  22 -2.021939E+03 -2.091188E+05 -4.936201E+03  1.759749E+05  1.319334E+04  1.214518E+04
       459  23 -1.582998E+02 -2.094130E+05  3.515351E+03  1.399744E+05  5.099419E+02  1.389126E+04
       459  24  2.520493E+03 -2.091163E+05  1.334060E+04  1.759774E+05 -1.219546E+04  1.563745E+04
       459  25  5.496524E+04  2.705756E+04  4.380240E+04  1.759156E+05  1.318482E+04  2.735133E+04
       459  26  1.865358E+03 -2.009980E+05  5.216217E+03  1.397490E+05  5.013742E+02  2.911974E+04
       459  27 -5.041734E+04 -4.284068E+05 -3.197903E+04  1.755859E+05 -1.220391E+04  3.088763E+04
       460   1  9.040004E+04  1.780918E+05  9.766502E+04  1.672508E+05  2.182370E+04  2.421120E+03
       460   2  1.539106E+05  3.955718E+05  1.669351E+05  1.543984E+05  2.729624E+04 -4.424870E+04
       460   3  2.759578E+05  6.340595E+05  2.812605E+05  2.124192E+05  9.594093E+03 -9.096146E+04
       460   4 -2.145802E+03 -2.056787E+05  1.877122E+04  1.757102E+05  2.183656E+04 -1.801257E+04
       460   5  5.876798E+03 -2.137958E+05  3.592115E+04  1.403054E+05  2.729365E+04 -3.684515E+04
       460   6  6.763967E+04 -2.057572E+05  7.882121E+04  1.757697E+05  9.569153E+03 -5.570300E+04
       460   7 -9.470043E+04 -5.893084E+05 -6.012886E+04  1.841644E+05  2.184886E+04 -3.843385E+04
       460   8 -1.421806E+05 -8.228140E+05 -9.511423E+04  1.262265E+05  2.729072E+04 -2.944875E+04
       460   9 -1.407241E+05 -1.044924E+06 -1.236631E+05  1.391700E+05  9.540043E+03 -2.049199E+04
       460  10  9.039953E+04  1.780917E+05  9.766412E+04  1.672507E+05 -4.302908E-10 -1.104157E-09
       460  11  1.539092E+05  3.955695E+05  1.669300E+05  1.543994E+05 -5.236700E-10  1.918982E-09
       460  12  2.759555E+05  6.340506E+05  2.812448E+05  2.124199E+05 -4.671573E-10  1.088307E-09
       460  13 -2.146402E+03 -2.056792E+05  1.876972E+04  1.757106E+05 -1.563325E-09 -1.923447E-09
       460  14  5.875633E+03 -2.137975E+05  3.591720E+04  1.403062E+05 -1.856399E-09 -7.147896E-10
       460  15  6.763874E+04 -2.057606E+05  7.881521E+04  1.757702E+05 -6.233566E-10  2.070589E-09
       460  16 -9.470134E+04 -5.893101E+05 -6.013253E+04  1.841651E+05 -7.434243E-10  1.217480E-09
       460  17 -1.421816E+05 -8.228151E+05 -9.511726E+04  1.262272E+05 -1.395434E-09 -3.205330E-09
       460  18 -1.407244E+05 -1.044924E+06 -1.236640E+05  1.391702E+05 -7.651761E-10 -9.092750E-10
       460  19  9.040004E+04  1.780918E+05  9.766502E+04  1.672508E+05 -2.182370E+04 -2.421120E+03
       460  20  1.539106E+05  3.955718E+05  1.669351E+05  1.543984E+05 -2.729624E+04  4.424870E+04
       460  21  2.759578E+05  6.340595E+05  2.812605E+05  2.124192E+05 -9.594093E+03  9.096146E+04
       460  22 -2.145802E+03 -2.056787E+05  1.877122E+04  1.757102E+05 -2.183656E+04  1.801257E+04
       460  23  5.876798E+03 -2.137958E+05  3.592115E+04  1.403054E+05 -2.729365E+04  3.684515E+04
       460  24  6.763967E+04 -2.057572E+05  7.882121E+04  1.757697E+05 -9.569153E+03  5.570300E+04
       460  25 -9.470043E+04 -5.893084E+05 -6.012886E+04  1.841644E+05 -2.184886E+04  3.843385E+04
       460  26 -1.421806E+05 -8.228140E+05 -9.511423E+04  1.262265E+05 -2.729072E+04  2.944875E+04
       460  27 -1.407241E+05 -1.044924E+06 -1.236631E+05  1.391700E+05 -9.540043E+03  2.049199E+04
       461   1  4.241544E+05  3.852203E+05  1.436471E+05  2.780423E+05  6.253648E+04  4.350080E+04
       461   2  4.062529E+05  2.953370E+05  8.383086E+04  2.946992E+05  4.254265E+04  2.059165E+04
       461   3  4.199954E+05  2.599235E+05  5.981805E+04  2.909860E+05  1.936918E+04  1.913768E+03
       461   4  3.189763E+05  2.363804E+05  9.498873E+04  1.920207E+05  5.395355E+04  3.703935E+04
       461   5  2.885426E+05  1.828852E+05  4.465893E+04  2.223781E+05  3.904102E+04  1.795625E+04
       461   6  2.886565E+05  1.827610E+05  2.572466E+04  2.323634E+05  2.094886E+04  3.101986E+03
       461   7  2.138141E+05  8.757496E+04  4.632964E+04  1.060225E+05  4.537259E+04  3.058132E+04
       461   8  1.708488E+05  7.045054E+04  5.485607E+03  1.500755E+05  3.554030E+04  1.532184E+04
       461   9  1.573370E+05  1.056049E+05 -8.370114E+03  1.737539E+05  2.252807E+04  4.289937E+03
       461  10  4.241497E+05  3.852172E+05  1.436362E+05  2.780402E+05  2.326053E-10  2.355319E-10
       461  11  4.062509E+05  2.953361E+05  8.382667E+04  2.946985E+05 -5.415546E-10  2.179124E-09
       461  12  4.199950E+05  2.599234E+05  5.981734E+04  2.909859E+05  1.948474E-10  1.974454E-10
       461  13  3.189728E+05  2.363782E+05  9.498069E+04  1.920191E+05  6.669070E-10 -3.573252E-10
       461  14  2.885409E+05  1.828844E+05  4.465546E+04  2.223776E+05 -5.329872E-10  8.348454E-09
       461  15  2.886560E+05  1.827609E+05  2.572382E+04  2.323634E+05 -7.528029E-10  5.050966E-10
       461  16  2.138117E+05  8.757341E+04  4.632402E+04  1.060214E+05 -5.189079E-10 -8.068753E-10
       461  17  1.708474E+05  7.044995E+04  5.482794E+03  1.500750E+05  9.802120E-11 -3.972721E-09
       461  18  1.573365E+05  1.056047E+05 -8.371102E+03  1.737538E+05 -1.775171E-10 -1.876392E-09
       461  19  4.241544E+05  3.852203E+05  1.436471E+05  2.780423E+05 -6.253648E+04 -4.350080E+04
       461  20  4.062529E+05  2.953370E+05  8.383086E+04  2.946992E+05 -4.254265E+04 -2.059165E+04
       461  21  4.199954E+05  2.599235E+05  5.981805E+04  2.909860E+05 -1.936918E+04 -1.913768E+03
       461  22  3.189763E+05  2.363804E+05  9.498873E+04  1.920207E+05 -5.395355E+04 -3.703935E+04
       461  23  2.885426E+05  1.828852E+05  4.465893E+04  2.223781E+05 -3.904102E+04 -1.795625E+04
       461  24  2.886565E+05  1.827610E+05  2.572466E+04  2.323634E+05 -2.094886E+04 -3.101986E+03
       461  25  2.138141E+05  8.757496E+04  4.632964E+04  1.060225E+05 -4.537259E+04 -3.058132E+04
       461  26  1.708488E+05  7.045054E+04  5.485607E+03  1.500755E+05 -3.554030E+04 -1.532184E+04
       461  27  1.573370E+05  1.056049E+05 -8.370114E+03  1.737539E+05 -2.252807E+04 -4.289937E+03
       462   1  3.996377E+05  2.658293E+05  5.191668E+04  2.848041E+05  1.703164E+04  1.242040E+03
       462   2  3.886498E+05  2.509637E+05  3.976497E+04  2.785328E+05  1.150143E+04 -1.976343E+03
       462   3  3.743685E+05  2.438813E+05  3.247999E+04  2.731493E+05  5.795949E+03 -4.961721E+03
       462   4  2.880495E+05  1.848637E+05  2.035983E+04  2.278762E+05  1.761195E+04  1.678288E+03
       462   5  2.891092E+05  1.799109E+05  1.203346E+04  2.282544E+05  1.236254E+04 -1.328763E+03
       462   6  2.868151E+05  1.826807E+05  8.330805E+03  2.295203E+05  6.937777E+03 -4.102860E+03
       462   7  1.764736E+05  1.039047E+05 -1.119877E+04  1.709594E+05  1.819212E+04  2.114431E+03
       462   8  1.895796E+05  1.088639E+05 -1.569902E+04  1.779853E+05  1.322346E+04 -6.813241E+02
       462   9  1.992715E+05  1.214851E+05 -1.581873E+04  1.858987E+05  8.079373E+03 -3.244169E+03
       462  10  3.996374E+05  2.658292E+05  5.191614E+04  2.848041E+05 -9.197534E-10 -3.037195E-09
       462  11  3.886497E+05  2.509636E+05  3.976472E+04  2.785328E+05  7.479700E-10  5.302490E-10
       462  12  3.743684E+05  2.438813E+05  3.247988E+04  2.731493E+05  2.675764E-09  2.922740E-09
       462  13  2.880491E+05  1.848636E+05  2.035924E+04  2.278762E+05  1.013915E-10  1.120964E-10
       462  14  2.891090E+05  1.799108E+05  1.203317E+04  2.282544E+05  5.823894E-10 -1.052812E-09
       462  15  2.868151E+05  1.826806E+05  8.330683E+03  2.295203E+05  9.987878E-10  1.745231E-09
       462  16  1.764733E+05  1.039046E+05 -1.119940E+04  1.709594E+05 -1.441600E-10  1.689875E-09
       462  17  1.895794E+05  1.088639E+05 -1.569935E+04  1.779853E+05 -1.090240E-09  2.712883E-09
       462  18  1.992714E+05  1.214850E+05 -1.581888E+04  1.858988E+05 -2.378418E-09 -1.865720E-09
       462  19  3.996377E+05  2.658293E+05  5.191668E+04  2.848041E+05 -1.703164E+04 -1.242040E+03
       462  20  3.886498E+05  2.509637E+05  3.976497E+04  2.785328E+05 -1.150143E+04  1.976343E+03
       462  21  3.743685E+05  2.438813E+05  3.247999E+04  2.731493E+05 -5.795949E+03  4.961721E+03
       462  22  2.880495E+05  1.848637E+05  2.035983E+04  2.278762E+05 -1.761195E+04 -1.678288E+03
       462  23  2.891092E+05  1.799109E+05  1.203346E+04  2.282544E+05 -1.236254E+04  1.328763E+03
       462  24  2.868151E+05  1.826807E+05  8.330805E+03  2.295203E+05 -6.937777E+03  4.102860E+03
       462  25  1.764736E+05  1.039047E+05 -1.119877E+04  1.709594E+05 -1.819212E+04 -2.114431E+03
       462  26  1.895796E+05  1.088639E+05 -1.569902E+04  1.779853E+05 -1.322346E+04  6.813241E+02
       462  27  1.992715E+05  1.214851E+05 -1.581873E+04  1.858987E+05 -8.079373E+03  3.244169E+03
       463   1  3.645958E+05  2.379562E+05  2.905510E+04  2.684895E+05  4.310353E+03 -5.219026E+03
       463   2  3.541547E+05  2.261529E+05  2.559231E+04  2.612624E+05  6.183061E+02 -6.572142E+03
       463   3  3.388744E+05  2.201513E+05  2.467296E+04  2.556793E+05 -3.081497E+03 -7.915013E+03
       463   4  2.867633E+05  1.827454E+05  7.530727E+03  2.293189E+05  5.396414E+03 -4.402067E+03
       463   5  2.891976E+05  1.798687E+05  7.572178E+03  2.284800E+05  1.717086E+03 -5.745541E+03
       463   6  2.867896E+05  1.827911E+05  1.014627E+04  2.292851E+05 -1.970104E+03 -7.078839E+03
       463   7  2.089376E+05  1.275381E+05 -1.399424E+04  1.901539E+05  6.482292E+03 -3.585247E+03
       463   8  2.242447E+05  1.335867E+05 -1.044850E+04  1.957014E+05  2.815717E+03 -4.919052E+03
       463   9  2.347071E+05  1.454320E+05 -4.380909E+03  2.028931E+05 -8.588232E+02 -6.242751E+03
       463  10  3.645958E+05  2.379562E+05  2.905501E+04  2.684895E+05 -1.364812E-09  3.261622E-10
       463  11  3.541547E+05  2.261529E+05  2.559222E+04  2.612624E+05 -1.022004E-09  3.905790E-10
       463  12  3.388744E+05  2.201513E+05  2.467282E+04  2.556793E+05  2.979988E-09 -1.414926E-09
       463  13  2.867633E+05  1.827454E+05  7.530635E+03  2.293189E+05  7.928014E-10 -4.882668E-10
       463  14  2.891976E+05  1.798687E+05  7.572111E+03  2.284801E+05 -3.669880E-09 -1.200608E-08
       463  15  2.867896E+05  1.827911E+05  1.014617E+04  2.292851E+05  5.979652E-10  6.836268E-09
       463  16  2.089376E+05  1.275381E+05 -1.399434E+04  1.901539E+05  2.809339E-09  3.829046E-10
       463  17  2.242447E+05  1.335866E+05 -1.044856E+04  1.957014E+05  6.945962E-12 -2.432658E-09
       463  18  2.347071E+05  1.454320E+05 -4.380984E+03  2.028931E+05 -3.722182E-09 -6.113219E-10
       463  19  3.645958E+05  2.379562E+05  2.905510E+04  2.684895E+05 -4.310353E+03  5.219026E+03
       463  20  3.541547E+05  2.261529E+05  2.559231E+04  2.612624E+05 -6.183061E+02  6.572142E+03
       463  21  3.388744E+05  2.201513E+05  2.467296E+04  2.556793E+05  3.081497E+03  7.915013E+03
       463  22  2.867633E+05  1.827454E+05  7.530727E+03  2.293189E+05 -5.396414E+03  4.402067E+03
       463  23  2.891976E+05  1.798687E+05  7.572178E+03  2.284800E+05 -1.717086E+03  5.745541E+03
       463  24  2.867896E+05  1.827911E+05  1.014627E+04  2.292851E+05  1.970104E+03  7.078839E+03
       463  25  2.089376E+05  1.275381E+05 -1.399424E+04  1.901539E+05 -6.482292E+03  3.585247E+03
       463  26  2.242447E+05  1.335867E+05 -1.044850E+04  1.957014E+05 -2.815717E+03  4.919052E+03
       463  27  2.347071E+05  1.454320E+05 -4.380909E+03  2.028931E+05  8.588232E+02  6.242751E+03
       464   1  3.289558E+05  2.144526E+05  2.437285E+04  2.517595E+05 -5.093562E+03 -8.581172E+03
       464   2  3.197261E+05  2.011134E+05  2.878844E+04  2.432785E+05 -1.386892E+04 -1.375501E+04
       464   3  3.087032E+05  1.973722E+05  4.108869E+04  2.351002E+05 -2.261927E+04 -1.896159E+04
       464   4  2.869323E+05  1.826892E+05  1.246814E+04  2.297002E+05 -3.977920E+03 -7.741750E+03
       464   5  2.889450E+05  1.798657E+05  2.037681E+04  2.280584E+05 -1.279241E+04 -1.294504E+04
       464   6  2.891726E+05  1.866485E+05  3.620422E+04  2.267191E+05 -2.158213E+04 -1.818132E+04
       464   7  2.449112E+05  1.509274E+05  5.634456E+02  2.076429E+05 -2.862395E+03 -6.902423E+03
       464   8  2.581652E+05  1.586187E+05  1.196517E+04  2.128394E+05 -1.171597E+04 -1.213513E+04
       464   9  2.696425E+05  1.759249E+05  3.131972E+04  2.183383E+05 -2.054503E+04 -1.740106E+04
       464  10  3.289558E+05  2.144525E+05  2.437267E+04  2.517594E+05  1.888737E-09 -3.224416E-09
       464  11  3.197259E+05  2.011131E+05  2.878772E+04  2.432783E+05  1.085568E-09 -2.681953E-09
       464  12  3.087026E+05  1.973717E+05  4.108706E+04  2.350998E+05 -1.885087E-09  6.934996E-10
       464  13  2.869322E+05  1.826891E+05  1.246800E+04  2.297002E+05  2.086579E-09 -1.058683E-09
       464  14  2.889448E+05  1.798655E+05  2.037619E+04  2.280583E+05  2.006660E-09  5.859984E-09
       464  15  2.891720E+05  1.866480E+05  3.620272E+04  2.267188E+05  3.794928E-10  1.487275E-09
       464  16  2.449112E+05  1.509274E+05  5.633407E+02  2.076429E+05 -4.476748E-10  8.219234E-11
       464  17  2.581650E+05  1.586185E+05  1.196463E+04  2.128393E+05  5.434792E-10  1.795307E-09
       464  18  2.696420E+05  1.759245E+05  3.131836E+04  2.183380E+05  6.536228E-10  1.843129E-09
       464  19  3.289558E+05  2.144526E+05  2.437285E+04  2.517595E+05  5.093562E+03  8.581172E+03
       464  20  3.197261E+05  2.011134E+05  2.878844E+04  2.432785E+05  1.386892E+04  1.375501E+04
       464  21  3.087032E+05  1.973722E+05  4.108869E+04  2.351002E+05  2.261927E+04  1.896159E+04
       464  22  2.869323E+05  1.826892E+05  1.246814E+04  2.297002E+05  3.977920E+03  7.741750E+03
       464  23  2.889450E+05  1.798657E+05  2.037681E+04  2.280584E+05  1.279241E+04  1.294504E+04
       464  24  2.891726E+05  1.866485E+05  3.620422E+04  2.267191E+05  2.158213E+04  1.818132E+04
       464  25  2.449112E+05  1.509274E+05  5.634456E+02  2.076429E+05  2.862395E+03  6.902423E+03
       464  26  2.581652E+05  1.586187E+05  1.196517E+04  2.128394E+05  1.171597E+04  1.213513E+04
       464  27  2.696425E+05  1.759249E+05  3.131972E+04  2.183383E+05  2.054503E+04  1.740106E+04
       465   1  2.816174E+05  2.060865E+05  4.847333E+04  2.441594E+05 -2.819664E+04 -2.228208E+04
       465   2  3.144919E+05  1.515418E+05  7.956454E+04  2.064487E+05 -6.188939E+04 -4.655993E+04
       465   3  4.067907E+05  1.899480E+05  1.670728E+05  1.304951E+05 -9.513594E+04 -7.142905E+04
       465   4  2.901970E+05  1.829248E+05  4.619606E+04  2.349200E+05 -2.701982E+04 -2.139528E+04
       465   5  2.880143E+05  1.851418E+05  8.098594E+04  2.173341E+05 -6.142703E+04 -4.621699E+04
       465   6  3.454023E+05  2.804576E+05  1.728137E+05  1.615072E+05 -9.538475E+04 -7.163583E+04
       465   7  2.987773E+05  1.597642E+05  4.391893E+04  2.256805E+05 -2.584295E+04 -2.050856E+04
       465   8  2.615390E+05  2.187455E+05  8.240789E+04  2.282190E+05 -6.096469E+04 -4.587401E+04
       465   9  2.840295E+05  3.709913E+05  1.785582E+05  1.925151E+05 -9.563353E+04 -7.184267E+04
       465  10  2.816165E+05  2.060857E+05  4.847091E+04  2.441589E+05  5.075529E-10  5.131897E-09
       465  11  3.144873E+05  1.515385E+05  7.955328E+04  2.064463E+05  2.143549E-09  5.900029E-10
       465  12  4.067796E+05  1.899401E+05  1.670462E+05  1.304897E+05  3.687204E-10 -1.917056E-09
       465  13  2.901961E+05  1.829241E+05  4.619383E+04  2.349196E+05 -3.777851E-10 -2.928399E-09
       465  14  2.880097E+05  1.851385E+05  8.097485E+04  2.173319E+05  5.715833E-10  3.670055E-09
       465  15  3.453912E+05  2.804497E+05  1.727870E+05  1.615017E+05 -6.046818E-10  1.517188E-09
       465  16  2.987765E+05  1.597636E+05  4.391689E+04  2.256800E+05 -1.356183E-09  1.801315E-09
       465  17  2.615345E+05  2.187423E+05  8.239696E+04  2.282167E+05 -1.733604E-09 -9.084222E-10
       465  18  2.840183E+05  3.709833E+05  1.785313E+05  1.925096E+05 -9.488436E-10  3.030058E-09
       465  19  2.816174E+05  2.060865E+05  4.847333E+04  2.441594E+05  2.819664E+04  2.228208E+04
       465  20  3.144919E+05  1.515418E+05  7.956454E+04  2.064487E+05  6.188939E+04  4.655993E+04
       465  21  4.067907E+05  1.899480E+05  1.670728E+05  1.304951E+05  9.513594E+04  7.142905E+04
       465  22  2.901970E+05  1.829248E+05  4.619606E+04  2.349200E+05  2.701982E+04  2.139528E+04
       465  23  2.880143E+05  1.851418E+05  8.098594E+04  2.173341E+05  6.142703E+04  4.621699E+04
       465  24  3.454023E+05  2.804576E+05  1.728137E+05  1.615072E+05  9.538475E+04  7.163583E+04
       465  25  2.987773E+05  1.597642E+05  4.391893E+04  2.256805E+05  2.584295E+04  2.050856E+04
       465  26  2.615390E+05  2.187455E+05  8.240789E+04  2.282190E+05  6.096469E+04  4.587401E+04
       465  27  2.840295E+05  3.709913E+05  1.785582E+05  1.925151E+05  9.563353E+04  7.184267E+04
       466   1  3.011636E+05  8.510664E+04  7.970285E+04  4.844682E+04  8.149397E+03 -4.967337E+03
       466   2  2.296496E+05  7.724330E+04  6.154727E+04  4.168932E+04 -8.039508E+02 -1.522733E+04
       466   3  1.572028E+05  6.122061E+04  4.717605E+04  5.710724E+04 -9.772471E+03 -1.484728E+04
       466   4 -9.478666E+04 -1.306240E+04 -1.537588E+04  5.522468E+04 -1.053161E+04 -4.997290E+03
       466   5 -9.320114E+04 -1.072126E+03 -7.260941E+03  4.412523E+04 -6.713042E+03 -1.523780E+04
       466   6 -9.477164E+04  5.395170E+02 -4.230484E+03  5.520229E+04 -2.910656E+03 -1.483564E+04
       466   7 -4.905926E+05 -1.112425E+05 -1.104644E+05  6.199813E+04 -2.920076E+04 -5.027660E+03
       466   8 -4.159537E+05 -7.939429E+04 -7.607502E+04  4.655982E+04 -1.261911E+04 -1.524832E+04
       466   9 -3.466856E+05 -6.014552E+04 -5.564019E+04  5.329810E+04  3.948425E+03 -1.482404E+04
       466  10  3.011635E+05  8.510659E+04  7.970268E+04  4.844685E+04 -4.549993E-09  6.007221E-10
       466  11  2.296496E+05  7.724305E+04  6.154683E+04  4.168931E+04 -1.205372E-09  6.027549E-09
       466  12  1.572027E+05  6.122035E+04  4.717546E+04  5.710712E+04  2.126388E-09  1.311366E-09
       466  13 -9.478679E+04 -1.306246E+04 -1.537614E+04  5.522463E+04  7.371637E-10 -2.233556E-09
       466  14 -9.320125E+04 -1.072387E+03 -7.261462E+03  4.412515E+04 -5.531024E-10 -4.107859E-09
       466  15 -9.477170E+04  5.392784E+02 -4.230913E+03  5.520225E+04  3.682450E-10 -2.150834E-10
       466  16 -4.905935E+05 -1.112427E+05 -1.104661E+05  6.199802E+04  4.536560E-09  4.879342E-10
       466  17 -4.159539E+05 -7.939459E+04 -7.607576E+04  4.655967E+04  2.742702E-10  3.913785E-09
       466  18 -3.466857E+05 -6.014576E+04 -5.564063E+04  5.329814E+04 -2.770641E-09 -7.099599E-11
       466  19  3.011636E+05  8.510664E+04  7.970285E+04  4.844682E+04 -8.149397E+03  4.967337E+03
       466  20  2.296496E+05  7.724330E+04  6.154727E+04  4.168932E+04  8.039508E+02  1.522733E+04
       466  21  1.572028E+05  6.122061E+04  4.717605E+04  5.710724E+04  9.772471E+03  1.484728E+04
       466  22 -9.478666E+04 -1.306240E+04 -1.537588E+04  5.522468E+04  1.053161E+04  4.997290E+03
       466  23 -9.320114E+04 -1.072126E+03 -7.260941E+03  4.412523E+04  6.713042E+03  1.523780E+04
       466  24 -9.477164E+04  5.395170E+02 -4.230484E+03  5.520229E+04  2.910656E+03  1.483564E+04
       466  25 -4.905926E+05 -1.112425E+05 -1.104644E+05  6.199813E+04  2.920076E+04  5.027660E+03
       466  26 -4.159537E+05 -7.939429E+04 -7.607502E+04  4.655982E+04  1.261911E+04  1.524832E+04
       466  27 -3.466856E+05 -6.014552E+04 -5.564019E+04  5.329810E+04 -3.948425E+03  1.482404E+04
       467   1  1.058456E+05  4.783693E+04  3.747803E+04  5.541643E+04 -6.687793E+03 -1.169571E+04
       467   2  3.406678E+04  3.094021E+04  2.381651E+04  4.408807E+04 -6.310875E+03 -7.785496E+03
       467   3 -3.792110E+04  1.375968E+04  9.815446E+03  5.549467E+04 -5.935513E+03 -3.313579E+03
       467   4 -9.413936E+04 -3.327523E+02 -3.389684E+03  5.533150E+04 -2.332391E+03 -1.168819E+04
       467   5 -9.397035E+04  1.445445E+02 -2.120371E+03  4.396337E+04 -1.281939E+03 -7.776477E+03
       467   6 -9.413352E+04  2.210158E+02 -1.658748E+03  5.533050E+04 -2.330107E+02 -3.302993E+03
       467   7 -2.940862E+05 -4.850493E+04 -4.425944E+04  5.524658E+04  2.021634E+03 -1.168067E+04
       467   8 -2.219918E+05 -3.065212E+04 -2.805801E+04  4.383869E+04  3.745980E+03 -7.767460E+03
       467   9 -1.503429E+05 -1.331783E+04 -1.313299E+04  5.516635E+04  5.468984E+03 -3.292409E+03
       467  10  1.058455E+05  4.783677E+04  3.747769E+04  5.541637E+04 -1.243409E-09 -1.221280E-09
       467  11  3.406672E+04  3.094013E+04  2.381632E+04  4.408803E+04 -8.469117E-10  1.904908E-09
       467  12 -3.792114E+04  1.375966E+04  9.815359E+03  5.549466E+04  2.131566E-09  3.934478E-09
       467  13 -9.413940E+04 -3.329005E+02 -3.389951E+03  5.533148E+04  5.701066E-10  6.187432E-09
       467  14 -9.397036E+04  1.444791E+02 -2.120487E+03  4.396336E+04 -3.189226E-10 -1.177196E-08
       467  15 -9.413352E+04  2.210040E+02 -1.658768E+03  5.533050E+04  2.942394E-10  3.936949E-09
       467  16 -2.940863E+05 -4.850507E+04 -4.425970E+04  5.524660E+04  8.438096E-10 -2.450347E-09
       467  17 -2.219918E+05 -3.065219E+04 -2.805815E+04  4.383871E+04  2.022436E-10 -9.624700E-10
       467  18 -1.503429E+05 -1.331785E+04 -1.313306E+04  5.516636E+04 -2.067736E-09  1.742261E-09
       467  19  1.058456E+05  4.783693E+04  3.747803E+04  5.541643E+04  6.687793E+03  1.169571E+04
       467  20  3.406678E+04  3.094021E+04  2.381651E+04  4.408807E+04  6.310875E+03  7.785496E+03
       467  21 -3.792110E+04  1.375968E+04  9.815446E+03  5.549467E+04  5.935513E+03  3.313579E+03
       467  22 -9.413936E+04 -3.327523E+02 -3.389684E+03  5.533150E+04  2.332391E+03  1.168819E+04
       467  23 -9.397035E+04  1.445445E+02 -2.120371E+03  4.396337E+04  1.281939E+03  7.776477E+03
       467  24 -9.413352E+04  2.210158E+02 -1.658748E+03  5.533050E+04  2.330107E+02  3.302993E+03
       467  25 -2.940862E+05 -4.850493E+04 -4.425944E+04  5.524658E+04 -2.021634E+03  1.168067E+04
       467  26 -2.219918E+05 -3.065212E+04 -2.805801E+04  4.383869E+04 -3.745980E+03  7.767460E+03
       467  27 -1.503429E+05 -1.331783E+04 -1.313299E+04  5.516635E+04 -5.468984E+03  3.292409E+03
       468   1 -8.958579E+04  1.274113E+03 -8.799336E+02  5.527080E+04 -5.630696E+03 -5.082757E+02
       468   2 -1.612600E+05 -1.604658E+04 -1.563988E+04  4.391727E+04 -4.104379E+03  3.994535E+03
       468   3 -2.333382E+05 -3.380777E+04 -3.152940E+04  5.530488E+04 -2.577109E+03  8.025381E+03
       468   4 -9.412779E+04  2.165671E+02 -1.626662E+03  5.533180E+04  5.155885E+01 -4.976799E+02
       468   5 -9.397466E+04  1.518969E+02 -1.942700E+03  4.396174E+04  1.011459E+03  4.003907E+03
       468   6 -9.413088E+04 -2.543332E+02 -2.994468E+03  5.533266E+04  1.972474E+03  8.033569E+03
       468   7 -9.866971E+04 -8.409625E+02 -2.373270E+03  5.539281E+04  5.733773E+03 -4.870829E+02
       468   8 -2.668491E+04  1.635010E+04  1.175434E+04  4.400622E+04  6.127840E+03  4.013279E+03
       468   9  4.509492E+04  3.329790E+04  2.553951E+04  5.536044E+04  6.523059E+03  8.041757E+03
       468  10 -8.958582E+04  1.274104E+03 -8.799937E+02  5.527080E+04  1.252189E-09 -2.161986E-09
       468  11 -1.612601E+05 -1.604660E+04 -1.563994E+04  4.391728E+04 -3.976039E-10 -9.540869E-10
       468  12 -2.333382E+05 -3.380785E+04 -3.152953E+04  5.530490E+04 -1.300164E-09 -1.952094E-09
       468  13 -9.412779E+04  2.165668E+02 -1.626663E+03  5.533180E+04  1.093499E-09  4.729620E-11
       468  14 -9.397466E+04  1.518794E+02 -1.942732E+03  4.396174E+04 -7.721658E-10 -1.036530E-09
       468  15 -9.413090E+04 -2.544036E+02 -2.994596E+03  5.533265E+04  7.500375E-10 -2.519567E-09
       468  16 -9.866974E+04 -8.409716E+02 -2.373332E+03  5.539281E+04 -1.552996E-09 -3.506642E-09
       468  17 -2.668495E+04  1.635008E+04  1.175424E+04  4.400620E+04  3.481079E-10  6.622859E-10
       468  18  4.509485E+04  3.329782E+04  2.553931E+04  5.536040E+04  1.192735E-09  4.007743E-09
       468  19 -8.958579E+04  1.274113E+03 -8.799336E+02  5.527080E+04  5.630696E+03  5.082757E+02
       468  20 -1.612600E+05 -1.604658E+04 -1.563988E+04  4.391727E+04  4.104379E+03 -3.994535E+03
       468  21 -2.333382E+05 -3.380777E+04 -3.152940E+04  5.530488E+04  2.577109E+03 -8.025381E+03
       468  22 -9.412779E+04  2.165671E+02 -1.626662E+03  5.533180E+04 -5.155885E+01  4.976799E+02
       468  23 -9.397466E+04  1.518969E+02 -1.942700E+03  4.396174E+04 -1.011459E+03 -4.003907E+03
       468  24 -9.413088E+04 -2.543332E+02 -2.994468E+03  5.533266E+04 -1.972474E+03 -8.033569E+03
       468  25 -9.866971E+04 -8.409625E+02 -2.373270E+03  5.539281E+04 -5.733773E+03  4.870829E+02
       468  26 -2.668491E+04  1.635010E+04  1.175434E+04  4.400622E+04 -6.127840E+03 -4.013279E+03
       468  27  4.509492E+04  3.329790E+04  2.553951E+04  5.536044E+04 -6.523059E+03 -8.041757E+03
       469   1 -2.858073E+05 -4.556049E+04 -4.281198E+04  5.360464E+04 -4.209713E+03  1.111466E+04
       469   2 -3.554319E+05 -6.454016E+04 -6.236469E+04  4.622099E+04  1.001560E+04  1.216358E+04
       469   3 -4.297028E+05 -9.439880E+04 -9.391886E+04  6.110184E+04  2.425376E+04  4.103662E+03
       469   4 -9.467711E+04  5.014451E+02 -3.706726E+03  5.522224E+04  2.481698E+03  1.112647E+04
       469   5 -9.330734E+04 -8.994330E+02 -6.307326E+03  4.410007E+04  5.782641E+03  1.215583E+04
       469   6 -9.468937E+04 -1.127931E+04 -1.331902E+04  5.524230E+04  9.098170E+03  4.077921E+03
       469   7  9.648786E+04  4.656113E+04  3.539676E+04  5.684034E+04  9.175133E+03  1.113831E+04
       469   8  1.688820E+05  6.273683E+04  4.974612E+04  4.197820E+04  1.547916E+03  1.214812E+04
       469   9  2.404274E+05  7.183226E+04  6.727371E+04  4.937954E+04 -6.065575E+03  4.052475E+03
       469  10 -2.858073E+05 -4.556063E+04 -4.281225E+04  5.360467E+04  3.632006E-09 -5.067296E-09
       469  11 -3.554321E+05 -6.454034E+04 -6.236515E+04  4.622090E+04 -1.814870E-09  1.387604E-09
       469  12 -4.297034E+05 -9.439898E+04 -9.391999E+04  6.110176E+04 -3.868202E-09 -2.586181E-10
       469  13 -9.467715E+04  5.013105E+02 -3.706971E+03  5.522222E+04  1.057758E-09 -5.578447E-10
       469  14 -9.330741E+04 -8.996006E+02 -6.307666E+03  4.410001E+04 -4.097227E-10 -5.272453E-09
       469  15 -9.468946E+04 -1.127935E+04 -1.331921E+04  5.524227E+04  3.399991E-10 -3.992974E-09
       469  16  9.648774E+04  4.656097E+04  3.539637E+04  5.684026E+04 -3.117097E-09  3.072192E-10
       469  17  1.688820E+05  6.273667E+04  4.974584E+04  4.197819E+04  1.232471E-09  2.186356E-09
       469  18  2.404273E+05  7.183223E+04  6.727361E+04  4.937956E+04  3.511028E-09  2.082001E-11
       469  19 -2.858073E+05 -4.556049E+04 -4.281198E+04  5.360464E+04  4.209713E+03 -1.111466E+04
       469  20 -3.554319E+05 -6.454016E+04 -6.236469E+04  4.622099E+04 -1.001560E+04 -1.216358E+04
       469  21 -4.297028E+05 -9.439880E+04 -9.391886E+04  6.110184E+04 -2.425376E+04 -4.103662E+03
       469  22 -9.467711E+04  5.014451E+02 -3.706726E+03  5.522224E+04 -2.481698E+03 -1.112647E+04
       469  23 -9.330734E+04 -8.994330E+02 -6.307326E+03  4.410007E+04 -5.782641E+03 -1.215583E+04
       469  24 -9.468937E+04 -1.127931E+04 -1.331902E+04  5.524230E+04 -9.098170E+03 -4.077921E+03
       469  25  9.648786E+04  4.656113E+04  3.539676E+04  5.684034E+04 -9.175133E+03 -1.113831E+04
       469  26  1.688820E+05  6.273683E+04  4.974612E+04  4.197820E+04 -1.547916E+03 -1.214812E+04
       469  27  2.404274E+05  7.183226E+04  6.727371E+04  4.937954E+04  6.065575E+03 -4.052475E+03
       470   1 -2.003036E+05 -9.064740E+05 -2.041920E+05  1.593181E+05 -6.543354E+03 -6.686443E+04
       470   2 -1.078905E+05 -7.305098E+05 -1.194844E+05  1.154618E+05 -1.873113E+04 -3.229094E+04
       470   3 -6.067854E+04 -5.701205E+05 -6.858255E+04  1.238968E+05 -1.447338E+04  2.315701E+03
       470   4 -5.301193E+04 -3.139627E+05 -6.111273E+04  1.299483E+05 -6.569693E+03 -4.246786E+04
       470   5 -5.061874E+03 -3.078538E+05 -2.841031E+04  1.038337E+05 -1.873493E+04 -2.759431E+04
       470   6  1.129051E+03 -3.139103E+05 -1.580588E+04  1.300136E+05 -1.445774E+04 -1.269778E+04
       470   7  9.425762E+04  2.788730E+05  8.194405E+04  1.005504E+05 -6.598334E+03 -1.804804E+04
       470   8  9.775549E+04  1.149706E+05  6.265340E+04  9.219768E+04 -1.873891E+04 -2.289452E+04
       470   9  6.293276E+04 -5.763725E+04  3.696813E+04  1.361331E+05 -1.444240E+04 -2.771735E+04
       470  10 -2.003049E+05 -9.064788E+05 -2.042005E+05  1.593177E+05 -3.642920E-10  2.179574E-09
       470  11 -1.078911E+05 -7.305110E+05 -1.194870E+05  1.154613E+05 -2.562561E-10 -6.900070E-10
       470  12 -6.067877E+04 -5.701206E+05 -6.858295E+04  1.238968E+05  1.311863E-09  1.792425E-10
       470  13 -5.301246E+04 -3.139647E+05 -6.111620E+04  1.299481E+05  1.169565E-09  2.108053E-09
       470  14 -5.062455E+03 -3.078547E+05 -2.841240E+04  1.038333E+05 -4.846088E-10 -1.455971E-09
       470  15  1.128783E+03 -3.139106E+05 -1.580657E+04  1.300135E+05 -3.520933E-11  4.585440E-10
       470  16  9.425749E+04  2.788726E+05  8.194336E+04  1.005503E+05  7.784008E-10  6.318783E-10
       470  17  9.775498E+04  1.149699E+05  6.265176E+04  9.219733E+04  1.489239E-09 -2.239967E-10
       470  18  6.293233E+04 -5.763813E+04  3.696630E+04  1.361327E+05 -3.857361E-10 -1.241929E-09
       470  19 -2.003036E+05 -9.064740E+05 -2.041920E+05  1.593181E+05  6.543354E+03  6.686443E+04
       470  20 -1.078905E+05 -7.305098E+05 -1.194844E+05  1.154618E+05  1.873113E+04  3.229094E+04
       470  21 -6.067854E+04 -5.701205E+05 -6.858255E+04  1.238968E+05  1.447338E+04 -2.315701E+03
       470  22 -5.301193E+04 -3.139627E+05 -6.111273E+04  1.299483E+05  6.569693E+03  4.246786E+04
       470  23 -5.061874E+03 -3.078538E+05 -2.841031E+04  1.038337E+05  1.873493E+04  2.759431E+04
       470  24  1.129051E+03 -3.139103E+05 -1.580588E+04  1.300136E+05  1.445774E+04  1.269778E+04
       470  25  9.425762E+04  2.788730E+05  8.194405E+04  1.005504E+05  6.598334E+03  1.804804E+04
       470  26  9.775549E+04  1.149706E+05  6.265340E+04  9.219768E+04  1.873891E+04  2.289452E+04
       470  27  6.293276E+04 -5.763725E+04  3.696813E+04  1.361331E+05  1.444240E+04  2.771735E+04
       471   1 -3.495208E+04 -4.461639E+05 -4.004046E+04  1.309083E+05 -7.373740E+03  7.722456E+02
       471   2  7.730469E+03 -2.776871E+05  8.327910E+02  1.037007E+05  2.045717E+03  3.617352E+03
       471   3  4.872064E+04 -1.098104E+05  3.946596E+04  1.296683E+05  1.137110E+04  6.463423E+03
       471   4 -2.382276E+03 -3.113417E+05 -1.207970E+04  1.301938E+05 -7.362486E+03 -1.058635E+04
       471   5 -2.850492E+02 -3.110201E+05 -5.902042E+03  1.036072E+05  2.057082E+03 -7.628888E+03
       471   6  1.022452E+02 -3.113442E+05 -2.040686E+03  1.301963E+05  1.138249E+04 -4.671203E+03
       471   7  3.018644E+04 -1.765020E+05  1.588054E+04  1.294791E+05 -7.351208E+03 -2.194736E+04
       471   8 -8.300568E+03 -3.443518E+05 -1.263646E+04  1.035138E+05  2.068450E+03 -1.887454E+04
       471   9 -4.851865E+04 -5.128392E+05 -4.354905E+04  1.307241E+05  1.139387E+04 -1.580228E+04
       471  10 -3.495214E+04 -4.461639E+05 -4.004056E+04  1.309083E+05  6.737503E-10  3.848405E-09
       471  11  7.730461E+03 -2.776871E+05  8.327585E+02  1.037007E+05 -7.362537E-10 -1.106641E-09
       471  12  4.872049E+04 -1.098105E+05  3.946564E+04  1.296682E+05 -2.320101E-10 -5.617155E-10
       471  13 -2.382364E+03 -3.113418E+05 -1.208002E+04  1.301937E+05  4.258571E-10  3.668731E-09
       471  14 -2.850694E+02 -3.110202E+05 -5.902159E+03  1.036073E+05  1.103101E-11 -1.847499E-10
       471  15  1.021002E+02 -3.113443E+05 -2.040970E+03  1.301963E+05  1.831771E-10  1.338366E-10
       471  16  3.018626E+04 -1.765025E+05  1.587954E+04  1.294790E+05 -6.720242E-10 -1.175683E-09
       471  17 -8.300668E+03 -3.443522E+05 -1.263713E+04  1.035139E+05  1.494282E-10 -7.574886E-10
       471  18 -4.851885E+04 -5.128395E+05 -4.354976E+04  1.307242E+05 -7.846656E-10  4.607518E-10
       471  19 -3.495208E+04 -4.461639E+05 -4.004046E+04  1.309083E+05  7.373740E+03 -7.722456E+02
       471  20  7.730469E+03 -2.776871E+05  8.327910E+02  1.037007E+05 -2.045717E+03 -3.617352E+03
       471  21  4.872064E+04 -1.098104E+05  3.946596E+04  1.296683E+05 -1.137110E+04 -6.463423E+03
       471  22 -2.382276E+03 -3.113417E+05 -1.207970E+04  1.301938E+05  7.362486E+03  1.058635E+04
       471  23 -2.850492E+02 -3.110201E+05 -5.902042E+03  1.036072E+05 -2.057082E+03  7.628888E+03
       471  24  1.022452E+02 -3.113442E+05 -2.040686E+03  1.301963E+05 -1.138249E+04  4.671203E+03
       471  25  3.018644E+04 -1.765020E+05  1.588054E+04  1.294791E+05  7.351208E+03  2.194736E+04
       471  26 -8.300568E+03 -3.443518E+05 -1.263646E+04  1.035138E+05 -2.068450E+03  1.887454E+04
       471  27 -4.851865E+04 -5.128392E+05 -4.354905E+04  1.307241E+05 -1.139387E+04  1.580228E+04
       472   1  7.731870E+04  1.219535E+04  6.576327E+04  1.286993E+05  1.851917E+04  1.081810E+04
       472   2  1.192864E+05  1.776841E+05  1.077551E+05  1.048708E+05  2.215736E+04 -1.237269E+04
       472   3  1.706837E+05  3.488059E+05  1.672467E+05  1.332848E+05  7.673966E+03 -3.559584E+04
       472   4 -5.518856E+02 -3.108060E+05 -5.236146E+02  1.299864E+05  1.853570E+04 -4.391276E+03
       472   5  3.850535E+02 -3.117489E+05  2.690018E+03  1.038690E+05  2.215096E+04 -5.829004E+03
       472   6  6.981315E+03 -3.108558E+05  8.300969E+03  1.299958E+05  7.638353E+03 -7.292918E+03
       472   7 -7.842891E+04 -6.337078E+05 -6.681520E+04  1.312729E+05  1.855217E+04 -1.959288E+04
       472   8 -1.185319E+05 -8.009566E+05 -1.023889E+05  1.028680E+05  2.214454E+04  7.096037E+02
       472   9 -1.567523E+05 -9.701177E+05 -1.506728E+05  1.267105E+05  7.602423E+03  2.098005E+04
       472  10  7.731830E+04  1.219513E+04  6.576241E+04  1.286991E+05  1.529130E-10  2.812631E-09
       472  11  1.192858E+05  1.776838E+05  1.077539E+05  1.048710E+05 -1.597385E-09 -3.750899E-10
       472  12  1.706833E+05  3.488045E+05  1.672442E+05  1.332850E+05 -8.205806E-10 -1.989995E-09
       472  13 -5.522597E+02 -3.108061E+05 -5.242965E+02  1.299865E+05 -1.412733E-09  2.654233E-09
       472  14  3.845175E+02 -3.117491E+05  2.689032E+03  1.038691E+05  1.150841E-09 -4.816593E-10
       472  15  6.981238E+03 -3.108559E+05  8.300760E+03  1.299959E+05 -9.661942E-10  2.758855E-09
       472  16 -7.842938E+04 -6.337083E+05 -6.681657E+04  1.312732E+05 -1.356173E-10  3.497126E-10
       472  17 -1.185325E+05 -8.009567E+05 -1.023898E+05  1.028680E+05  1.061214E-09 -1.386593E-10
       472  18 -1.567525E+05 -9.701182E+05 -1.506737E+05  1.267103E+05  3.928590E-10 -1.064231E-11
       472  19  7.731870E+04  1.219535E+04  6.576327E+04  1.286993E+05 -1.851917E+04 -1.081810E+04
       472  20  1.192864E+05  1.776841E+05  1.077551E+05  1.048708E+05 -2.215736E+04  1.237269E+04
       472  21  1.706837E+05  3.488059E+05  1.672467E+05  1.332848E+05 -7.673966E+03  3.559584E+04
       472  22 -5.518856E+02 -3.108060E+05 -5.236146E+02  1.299864E+05 -1.853570E+04  4.391276E+03
       472  23  3.850535E+02 -3.117489E+05  2.690018E+03  1.038690E+05 -2.215096E+04  5.829004E+03
       472  24  6.981315E+03 -3.108558E+05  8.300969E+03  1.299958E+05 -7.638353E+03  7.292918E+03
       472  25 -7.842891E+04 -6.337078E+05 -6.681520E+04  1.312729E+05 -1.855217E+04  1.959288E+04
       472  26 -1.185319E+05 -8.009566E+05 -1.023889E+05  1.028680E+05 -2.214454E+04 -7.096037E+02
       472  27 -1.567523E+05 -9.701177E+05 -1.506728E+05  1.267105E+05 -7.602423E+03 -2.098005E+04
       473   1  2.789637E+05  2.628649E+05  1.012932E+05  1.845269E+05  4.762234E+04  3.409622E+04
       473   2  2.678223E+05  1.936050E+05  5.555043E+04  2.002047E+05  3.177462E+04  1.831242E+04
       473   3  2.836625E+05  1.667715E+05  3.752953E+04  1.988391E+05  1.435865E+04  4.613746E+03
       473   4  2.410667E+05  1.757142E+05  7.733351E+04  1.381915E+05  4.341135E+04  3.092381E+04
       473   5  2.154955E+05  1.329482E+05  3.631520E+04  1.631376E+05  3.006619E+04  1.702594E+04
       473   6  2.163648E+05  1.320668E+05  2.084616E+04  1.710396E+05  1.515317E+04  5.211720E+03
       473   7  2.031733E+05  8.857631E+04  5.337389E+04  9.186152E+04  3.920067E+04  2.775240E+04
       473   8  1.631718E+05  7.229625E+04  1.707947E+04  1.260747E+05  2.835794E+04  1.573970E+04
       473   9  1.490713E+05  9.736293E+04  4.162210E+03  1.432426E+05  1.594758E+04  5.809644E+03
       473  10  2.789610E+05  2.628631E+05  1.012868E+05  1.845256E+05 -3.106429E-09 -3.514029E-09
       473  11  2.678211E+05  1.936043E+05  5.554791E+04  2.002043E+05 -2.561148E-09  5.682801E-10
       473  12  2.836623E+05  1.667715E+05  3.752910E+04  1.988391E+05 -9.457282E-12 -1.983599E-09
       473  13  2.410645E+05  1.757127E+05  7.732817E+04  1.381904E+05  3.199446E-10  1.467447E-11
       473  14  2.154945E+05  1.329477E+05  3.631296E+04  1.631372E+05 -2.282238E-09 -2.297590E-09
       473  15  2.163646E+05  1.320668E+05  2.084568E+04  1.710395E+05 -3.855908E-10 -3.212628E-10
       473  16  2.031715E+05  8.857507E+04  5.336955E+04  9.186064E+04  1.316842E-09  2.743977E-09
       473  17  1.631708E+05  7.229577E+04  1.707749E+04  1.260743E+05  1.825376E-10  1.050068E-09
       473  18  1.490711E+05  9.736283E+04  4.161669E+03  1.432425E+05 -1.930819E-09 -1.046559E-09
       473  19  2.789637E+05  2.628649E+05  1.012932E+05  1.845269E+05 -4.762234E+04 -3.409622E+04
       473  20  2.678223E+05  1.936050E+05  5.555043E+04  2.002047E+05 -3.177462E+04 -1.831242E+04
       473  21  2.836625E+05  1.667715E+05  3.752953E+04  1.988391E+05 -1.435865E+04 -4.613746E+03
       473  22  2.410667E+05  1.757142E+05  7.733351E+04  1.381915E+05 -4.341135E+04 -3.092381E+04
       473  23  2.154955E+05  1.329482E+05  3.631520E+04  1.631376E+05 -3.006619E+04 -1.702594E+04
       473  24  2.163648E+05  1.320668E+05  2.084616E+04  1.710396E+05 -1.515317E+04 -5.211720E+03
       473  25  2.031733E+05  8.857631E+04  5.337389E+04  9.186152E+04 -3.920067E+04 -2.775240E+04
       473  26  1.631718E+05  7.229625E+04  1.707947E+04  1.260747E+05 -2.835794E+04 -1.573970E+04
       473  27  1.490713E+05  9.736293E+04  4.162210E+03  1.432426E+05 -1.594758E+04 -5.809644E+03
       474   1  2.699773E+05  1.735920E+05  3.183811E+04  1.952417E+05  1.231360E+04  3.622828E+03
       474   2  2.641655E+05  1.651036E+05  2.301445E+04  1.923434E+05  8.132618E+03  9.621227E+02
       474   3  2.572805E+05  1.612831E+05  1.799613E+04  1.896860E+05  3.865228E+03 -1.583483E+03
       474   4  2.158863E+05  1.337590E+05  1.644157E+04  1.673787E+05  1.261577E+04  3.850119E+03
       474   5  2.159356E+05  1.305520E+05  9.554739E+03  1.679271E+05  8.573259E+03  1.293639E+03
       474   6  2.148815E+05  1.319831E+05  6.353294E+03  1.687164E+05  4.444257E+03 -1.147806E+03
       474   7  1.617992E+05  9.392833E+04  1.044974E+03  1.395189E+05  1.291790E+04  4.077379E+03
       474   8  1.677085E+05  9.600209E+04 -3.905086E+03  1.435132E+05  9.013851E+03  1.625118E+03
       474   9  1.724846E+05  1.026841E+05 -5.289700E+03  1.477484E+05  5.023232E+03 -7.121676E+02
       474  10  2.699771E+05  1.735920E+05  3.183781E+04  1.952416E+05 -6.757173E-10  3.397895E-09
       474  11  2.641654E+05  1.651036E+05  2.301432E+04  1.923434E+05 -3.012322E-09  4.382602E-09
       474  12  2.572805E+05  1.612831E+05  1.799609E+04  1.896860E+05 -2.839721E-09 -1.800609E-09
       474  13  2.158861E+05  1.337589E+05  1.644124E+04  1.673787E+05 -3.324046E-10  4.466831E-10
       474  14  2.159355E+05  1.305520E+05  9.554598E+03  1.679271E+05  9.705889E-10  4.489011E-09
       474  15  2.148815E+05  1.319831E+05  6.353255E+03  1.687164E+05 -3.780799E-12  1.424755E-09
       474  16  1.617991E+05  9.392827E+04  1.044629E+03  1.395189E+05  1.338867E-10  6.327706E-10
       474  17  1.677084E+05  9.600207E+04 -3.905243E+03  1.435132E+05  2.799955E-09 -4.243226E-09
       474  18  1.724846E+05  1.026840E+05 -5.289749E+03  1.477484E+05  2.077523E-09  2.868051E-09
       474  19  2.699773E+05  1.735920E+05  3.183811E+04  1.952417E+05 -1.231360E+04 -3.622828E+03
       474  20  2.641655E+05  1.651036E+05  2.301445E+04  1.923434E+05 -8.132618E+03 -9.621227E+02
       474  21  2.572805E+05  1.612831E+05  1.799613E+04  1.896860E+05 -3.865228E+03  1.583483E+03
       474  22  2.158863E+05  1.337590E+05  1.644157E+04  1.673787E+05 -1.261577E+04 -3.850119E+03
       474  23  2.159356E+05  1.305520E+05  9.554739E+03  1.679271E+05 -8.573259E+03 -1.293639E+03
       474  24  2.148815E+05  1.319831E+05  6.353294E+03  1.687164E+05 -4.444257E+03  1.147806E+03
       474  25  1.617992E+05  9.392833E+04  1.044974E+03  1.395189E+05 -1.291790E+04 -4.077379E+03
       474  26  1.677085E+05  9.600209E+04 -3.905086E+03  1.435132E+05 -9.013851E+03 -1.625118E+03
       474  27  1.724846E+05  1.026841E+05 -5.289700E+03  1.477484E+05 -5.023232E+03  7.121676E+02
       475   1  2.521435E+05  1.584451E+05  1.587393E+04  1.872952E+05  2.836642E+03 -1.920857E+03
       475   2  2.467769E+05  1.524298E+05  1.370643E+04  1.836261E+05  4.360303E+02 -3.003586E+03
       475   3  2.390411E+05  1.494387E+05  1.327493E+04  1.808084E+05 -1.968355E+03 -4.081337E+03
       475   4  2.148316E+05  1.320331E+05  5.563876E+03  1.685445E+05  3.388348E+03 -1.505726E+03
       475   5  2.160214E+05  1.305299E+05  5.175519E+03  1.681126E+05  9.938400E+02 -2.583843E+03
       475   6  2.148408E+05  1.320494E+05  6.517975E+03  1.685321E+05 -1.404444E+03 -3.656986E+03
       475   7  1.775208E+05  1.056215E+05 -4.746472E+03  1.497950E+05  3.940017E+03 -1.090623E+03
       475   8  1.852670E+05  1.086305E+05 -3.355478E+03  1.526001E+05  1.551612E+03 -2.164128E+03
       475   9  1.906415E+05  1.146608E+05 -2.389344E+02  1.562565E+05 -8.405697E+02 -3.232664E+03
       475  10  2.521434E+05  1.584451E+05  1.587391E+04  1.872952E+05 -1.628110E-08 -1.425669E-08
       475  11  2.467769E+05  1.524298E+05  1.370641E+04  1.836261E+05 -7.701576E-09 -2.784079E-09
       475  12  2.390411E+05  1.494386E+05  1.327490E+04  1.808084E+05  1.138817E-08  1.297058E-08
       475  13  2.148316E+05  1.320331E+05  5.563851E+03  1.685445E+05 -3.135082E-09  3.620756E-09
       475  14  2.160214E+05  1.305299E+05  5.175504E+03  1.681126E+05 -9.902832E-09 -7.575887E-09
       475  15  2.148408E+05  1.320494E+05  6.517947E+03  1.685321E+05 -2.480986E-09 -3.716289E-09
       475  16  1.775208E+05  1.056215E+05 -4.746504E+03  1.497950E+05  1.044439E-08  8.880739E-09
       475  17  1.852670E+05  1.086305E+05 -3.355491E+03  1.526001E+05 -7.709362E-09 -5.945641E-09
       475  18  1.906415E+05  1.146608E+05 -2.389554E+02  1.562565E+05 -1.625367E-08 -2.362084E-08
       475  19  2.521435E+05  1.584451E+05  1.587393E+04  1.872952E+05 -2.836642E+03  1.920857E+03
       475  20  2.467769E+05  1.524298E+05  1.370643E+04  1.836261E+05 -4.360303E+02  3.003586E+03
       475  21  2.390411E+05  1.494387E+05  1.327493E+04  1.808084E+05  1.968355E+03  4.081337E+03
       475  22  2.148316E+05  1.320331E+05  5.563876E+03  1.685445E+05 -3.388348E+03  1.505726E+03
       475  23  2.160214E+05  1.305299E+05  5.175519E+03  1.681126E+05 -9.938400E+02  2.583843E+03
       475  24  2.148408E+05  1.320494E+05  6.517975E+03  1.685321E+05  1.404444E+03  3.656986E+03
       475  25  1.775208E+05  1.056215E+05 -4.746472E+03  1.497950E+05 -3.940017E+03  1.090623E+03
       475  26  1.852670E+05  1.086305E+05 -3.355478E+03  1.526001E+05 -1.551612E+03  2.164128E+03
       475  27  1.906415E+05  1.146608E+05 -2.389344E+02  1.562565E+05  8.405697E+02  3.232664E+03
       476   1  2.339112E+05  1.466299E+05  1.328673E+04  1.788840E+05 -3.197016E+03 -4.575018E+03
       476   2  2.293020E+05  1.396846E+05  1.624618E+04  1.744399E+05 -8.545052E+03 -7.875708E+03
       476   3  2.241555E+05  1.380621E+05  2.407256E+04  1.700243E+05 -1.387794E+04 -1.119655E+04
       476   4  2.149237E+05  1.319865E+05  7.862674E+03  1.687823E+05 -2.630016E+03 -4.148330E+03
       476   5  2.158756E+05  1.305342E+05  1.259837E+04  1.678557E+05 -8.002095E+03 -7.467118E+03
       476   6  2.162956E+05  1.344100E+05  2.222191E+04  1.669574E+05 -1.335911E+04 -1.080615E+04
       476   7  1.959365E+05  1.173433E+05  2.438583E+03  1.586810E+05 -2.063038E+03 -3.721662E+03
       476   8  2.024494E+05  1.213839E+05  8.950508E+03  1.612715E+05 -7.459149E+03 -7.058536E+03
       476   9  2.084356E+05  1.307580E+05  2.037122E+04  1.638905E+05 -1.284029E+04 -1.041574E+04
       476  10  2.339112E+05  1.466299E+05  1.328667E+04  1.788840E+05 -7.809841E-09 -3.646386E-09
       476  11  2.293019E+05  1.396845E+05  1.624593E+04  1.744399E+05  1.069813E-08  1.663801E-08
       476  12  2.241553E+05  1.380619E+05  2.407196E+04  1.700241E+05  1.354304E-08  1.023275E-08
       476  13  2.149237E+05  1.319865E+05  7.862629E+03  1.687823E+05  5.433642E-09  1.212113E-09
       476  14  2.158756E+05  1.305341E+05  1.259814E+04  1.678556E+05  1.058491E-08  1.251232E-09
       476  15  2.162954E+05  1.344099E+05  2.222135E+04  1.669573E+05  3.394753E-09  5.256528E-09
       476  16  1.959365E+05  1.173433E+05  2.438549E+03  1.586810E+05  1.719032E-08  4.554893E-09
       476  17  2.024493E+05  1.213838E+05  8.950310E+03  1.612715E+05  1.064596E-08  5.124931E-09
       476  18  2.084354E+05  1.307578E+05  2.037071E+04  1.638904E+05 -9.101975E-09 -3.453845E-09
       476  19  2.339112E+05  1.466299E+05  1.328673E+04  1.788840E+05  3.197016E+03  4.575018E+03
       476  20  2.293020E+05  1.396846E+05  1.624618E+04  1.744399E+05  8.545052E+03  7.875708E+03
       476  21  2.241555E+05  1.380621E+05  2.407256E+04  1.700243E+05  1.387794E+04  1.119655E+04
       476  22  2.149237E+05  1.319865E+05  7.862674E+03  1.687823E+05  2.630016E+03  4.148330E+03
       476  23  2.158756E+05  1.305342E+05  1.259837E+04  1.678557E+05  8.002095E+03  7.467118E+03
       476  24  2.162956E+05  1.344100E+05  2.222191E+04  1.669574E+05  1.335911E+04  1.080615E+04
       476  25  1.959365E+05  1.173433E+05  2.438583E+03  1.586810E+05  2.063038E+03  3.721662E+03
       476  26  2.024494E+05  1.213839E+05  8.950508E+03  1.612715E+05  7.459149E+03  7.058536E+03
       476  27  2.084356E+05  1.307580E+05  2.037122E+04  1.638905E+05  1.284029E+04  1.041574E+04
       477   1  2.085314E+05  1.440687E+05  2.884217E+04  1.760421E+05 -1.725714E+04 -1.329049E+04
       477   2  2.296841E+05  1.119088E+05  4.819160E+04  1.537195E+05 -3.780435E+04 -2.824815E+04
       477   3  2.877492E+05  1.360628E+05  1.020647E+05  1.078400E+05 -5.807694E+04 -4.356953E+04
       477   4  2.169197E+05  1.321314E+05  2.831420E+04  1.719744E+05 -1.665215E+04 -1.283471E+04
       477   5  2.153094E+05  1.337627E+05  4.956734E+04  1.612957E+05 -3.763810E+04 -2.812489E+04
       477   6  2.507035E+05  1.917993E+05  1.057253E+05  1.270609E+05 -5.834822E+04 -4.378098E+04
       477   7  2.253082E+05  1.201946E+05  2.778630E+04  1.679066E+05 -1.604715E+04 -1.237897E+04
       477   8  2.009358E+05  1.556178E+05  5.094327E+04  1.688716E+05 -3.747186E+04 -2.800162E+04
       477   9  2.136638E+05  2.475444E+05  1.093871E+05  1.462801E+05 -5.861948E+04 -4.399248E+04
       477  10  2.085311E+05  1.440684E+05  2.884128E+04  1.760419E+05  5.740007E-09  1.471764E-09
       477  11  2.296824E+05  1.119076E+05  4.818741E+04  1.537187E+05  2.308378E-09  2.227084E-09
       477  12  2.877451E+05  1.360599E+05  1.020548E+05  1.078379E+05 -3.524678E-09 -4.410066E-09
       477  13  2.169194E+05  1.321311E+05  2.831337E+04  1.719742E+05  5.933538E-10  5.553999E-09
       477  14  2.153077E+05  1.337615E+05  4.956319E+04  1.612949E+05  8.215139E-10 -1.103402E-09
       477  15  2.506993E+05  1.917964E+05  1.057153E+05  1.270588E+05  6.874185E-11 -6.403091E-09
       477  16  2.253079E+05  1.201944E+05  2.778553E+04  1.679064E+05 -7.443499E-09 -5.429174E-10
       477  17  2.009340E+05  1.556166E+05  5.093916E+04  1.688707E+05 -2.698022E-10 -9.606622E-09
       477  18  2.136596E+05  2.475414E+05  1.093770E+05  1.462780E+05  4.453347E-09  6.283840E-10
       477  19  2.085314E+05  1.440687E+05  2.884217E+04  1.760421E+05  1.725714E+04  1.329049E+04
       477  20  2.296841E+05  1.119088E+05  4.819160E+04  1.537195E+05  3.780435E+04  2.824815E+04
       477  21  2.877492E+05  1.360628E+05  1.020647E+05  1.078400E+05  5.807694E+04  4.356953E+04
       477  22  2.169197E+05  1.321314E+05  2.831420E+04  1.719744E+05  1.665215E+04  1.283471E+04
       477  23  2.153094E+05  1.337627E+05  4.956734E+04  1.612957E+05  3.763810E+04  2.812489E+04
       477  24  2.507035E+05  1.917993E+05  1.057253E+05  1.270609E+05  5.834822E+04  4.378098E+04
       477  25  2.253082E+05  1.201946E+05  2.778630E+04  1.679066E+05  1.604715E+04  1.237897E+04
       477  26  2.009358E+05  1.556178E+05  5.094327E+04  1.688716E+05  3.747186E+04  2.800162E+04
       477  27  2.136638E+05  2.475444E+05  1.093871E+05  1.462801E+05  5.861948E+04  4.399248E+04
       478   1  1.267903E+05  4.144212E+04  3.894573E+04  2.733364E+04  3.919031E+03 -2.324090E+03
       478   2  8.739418E+04  3.607338E+04  2.896052E+04  2.315230E+04 -5.970139E+02 -7.003530E+03
       478   3  4.765001E+04  2.712534E+04  2.101621E+04  3.120180E+04 -5.120887E+03 -6.514589E+03
       478   4 -6.386957E+04 -5.844092E+03 -6.894135E+03  3.035470E+04 -4.788928E+03 -2.338236E+03
       478   5 -6.315401E+04 -4.639295E+02 -3.204138E+03  2.423413E+04 -3.102047E+03 -7.007804E+03
       478   6 -6.386567E+04  2.595277E+02 -1.780834E+03  3.034469E+04 -1.423369E+03 -6.508396E+03
       478   7 -2.544960E+05 -5.313287E+04 -5.273629E+04  3.337482E+04 -1.349422E+04 -2.352470E+03
       478   8 -2.136808E+05 -3.700271E+04 -3.537008E+04  2.531567E+04 -5.606482E+03 -7.012088E+03
       478   9 -1.753695E+05 -2.660705E+04 -2.457848E+04  2.948773E+04  2.273496E+03 -6.502213E+03
       478  10  1.267903E+05  4.144211E+04  3.894569E+04  2.733365E+04  2.983783E-11  1.296557E-09
       478  11  8.739417E+04  3.607332E+04  2.896042E+04  2.315230E+04 -1.126956E-09 -7.773082E-10
       478  12  4.764997E+04  2.712529E+04  2.101608E+04  3.120177E+04 -2.872501E-09 -1.131917E-09
       478  13 -6.386960E+04 -5.844104E+03 -6.894189E+03  3.035470E+04  5.248226E-10  3.470554E-09
       478  14 -6.315403E+04 -4.639848E+02 -3.204248E+03  2.423411E+04 -1.133985E-09 -3.789614E-09
       478  15 -6.386569E+04  2.594816E+02 -1.780918E+03  3.034468E+04  3.132115E-10 -1.654095E-09
       478  16 -2.544962E+05 -5.313293E+04 -5.273665E+04  3.337480E+04 -3.119890E-10  3.644175E-10
       478  17 -2.136809E+05 -3.700277E+04 -3.537023E+04  2.531564E+04  8.611701E-10 -4.818633E-09
       478  18 -1.753695E+05 -2.660710E+04 -2.457857E+04  2.948775E+04  2.523316E-09 -4.721073E-09
       478  19  1.267903E+05  4.144212E+04  3.894573E+04  2.733364E+04 -3.919031E+03  2.324090E+03
       478  20  8.739418E+04  3.607338E+04  2.896052E+04  2.315230E+04  5.970139E+02  7.003530E+03
       478  21  4.765001E+04  2.712534E+04  2.101621E+04  3.120180E+04  5.120887E+03  6.514589E+03
       478  22 -6.386957E+04 -5.844092E+03 -6.894135E+03  3.035470E+04  4.788928E+03  2.338236E+03
       478  23 -6.315401E+04 -4.639295E+02 -3.204138E+03  2.423413E+04  3.102047E+03  7.007804E+03
       478  24 -6.386567E+04  2.595277E+02 -1.780834E+03  3.034469E+04  1.423369E+03  6.508396E+03
       478  25 -2.544960E+05 -5.313287E+04 -5.273629E+04  3.337482E+04  1.349422E+04  2.352470E+03
       478  26 -2.136808E+05 -3.700271E+04 -3.537008E+04  2.531567E+04  5.606482E+03  7.012088E+03
       478  27 -1.753695E+05 -2.660705E+04 -2.457848E+04  2.948773E+04 -2.273496E+03  6.502213E+03
       479   1  1.937698E+04  1.985457E+04  1.562979E+04  3.044316E+04 -3.670676E+03 -4.806486E+03
       479   2 -2.010548E+04  1.051781E+04  8.163075E+03  2.420559E+04 -3.667474E+03 -2.604461E+03
       479   3 -5.966530E+04  1.077672E+03  6.554836E+02  3.047102E+04 -3.664820E+03 -1.335594E+02
       479   4 -6.357724E+04 -1.343240E+02 -1.359075E+03  3.040739E+04 -1.189487E+03 -4.802287E+03
       479   5 -6.350953E+04  7.217529E+01 -6.586642E+02  2.415565E+04 -8.637365E+02 -2.599657E+03
       479   6 -6.357614E+04  1.195071E+02 -2.229886E+02  3.040695E+04 -5.385291E+02 -1.281359E+02
       479   7 -1.465249E+05 -2.012364E+04 -1.834828E+04  3.037163E+04  1.291378E+03 -4.798089E+03
       479   8 -1.069118E+05 -1.037357E+04 -9.480472E+03  2.410571E+04  1.939809E+03 -2.594853E+03
       479   9 -6.748693E+04 -8.386539E+02 -1.101425E+03  3.034289E+04  2.587743E+03 -1.227131E+02
       479  10  1.937696E+04  1.985454E+04  1.562972E+04  3.044314E+04 -2.763055E-08 -3.078134E-09
       479  11 -2.010549E+04  1.051780E+04  8.163037E+03  2.420558E+04 -1.560487E-09 -5.994522E-09
       479  12 -5.966532E+04  1.077669E+03  6.554583E+02  3.047102E+04  2.584299E-08 -4.363078E-09
       479  13 -6.357724E+04 -1.343491E+02 -1.359121E+03  3.040739E+04  7.496489E-10 -1.960574E-09
       479  14 -6.350954E+04  7.216783E+01 -6.586783E+02  2.415564E+04 -6.544867E-10 -8.804847E-10
       479  15 -6.357614E+04  1.195070E+02 -2.229892E+02  3.040695E+04  4.184842E-10 -3.037205E-11
       479  16 -1.465249E+05 -2.012367E+04 -1.834833E+04  3.037163E+04  2.764671E-08  1.745252E-09
       479  17 -1.069118E+05 -1.037358E+04 -9.480492E+03  2.410571E+04  1.019561E-09 -2.928011E-09
       479  18 -6.748694E+04 -8.386557E+02 -1.101438E+03  3.034289E+04 -2.608964E-08  7.522359E-10
       479  19  1.937698E+04  1.985457E+04  1.562979E+04  3.044316E+04  3.670676E+03  4.806486E+03
       479  20 -2.010548E+04  1.051781E+04  8.163075E+03  2.420559E+04  3.667474E+03  2.604461E+03
       479  21 -5.966530E+04  1.077672E+03  6.554836E+02  3.047102E+04  3.664820E+03  1.335594E+02
       479  22 -6.357724E+04 -1.343240E+02 -1.359075E+03  3.040739E+04  1.189487E+03  4.802287E+03
       479  23 -6.350953E+04  7.217529E+01 -6.586642E+02  2.415565E+04  8.637365E+02  2.599657E+03
       479  24 -6.357614E+04  1.195071E+02 -2.229886E+02  3.040695E+04  5.385291E+02  1.281359E+02
       479  25 -1.465249E+05 -2.012364E+04 -1.834828E+04  3.037163E+04 -1.291378E+03  4.798089E+03
       479  26 -1.069118E+05 -1.037357E+04 -9.480472E+03  2.410571E+04 -1.939809E+03  2.594853E+03
       479  27 -6.748693E+04 -8.386539E+02 -1.101425E+03  3.034289E+04 -2.587743E+03  1.227131E+02
       480   1 -8.803974E+04 -5.811950E+03 -5.062624E+03  3.042081E+04 -3.650727E+03  1.408510E+03
       480   2 -1.275337E+05 -1.530251E+04 -1.264057E+04  2.407577E+04 -3.460530E+03  3.870360E+03
       480   3 -1.670756E+05 -2.468618E+04 -2.032865E+04  3.023166E+04 -3.269699E+03  6.032841E+03
       480   4 -6.354355E+04  9.142665E+01 -4.343561E+01  3.040663E+04 -5.177440E+02  1.413936E+03
       480   5 -6.355077E+04  8.946504E+01  3.285847E+02  2.415607E+04 -6.868418E+02  3.875077E+03
       480   6 -6.354512E+04  2.568536E+02  8.399988E+02  3.040634E+04 -8.552945E+02  6.036867E+03
       480   7 -3.904677E+04  5.994771E+03  4.975758E+03  3.039246E+04  2.615361E+03  1.419361E+03
       480   8  4.360206E+02  1.548119E+04  1.329755E+04  2.423637E+04  2.087126E+03  3.879794E+03
       480   9  3.999551E+04  2.519922E+04  2.200810E+04  3.058105E+04  1.559505E+03  6.040895E+03
       480  10 -8.803975E+04 -5.811956E+03 -5.062653E+03  3.042081E+04  1.763585E-09 -8.004350E-10
       480  11 -1.275337E+05 -1.530253E+04 -1.264062E+04  2.407578E+04 -9.195746E-10  6.500869E-09
       480  12 -1.670756E+05 -2.468623E+04 -2.032874E+04  3.023168E+04  2.052275E-10  7.627773E-10
       480  13 -6.354355E+04  9.142443E+01 -4.343987E+01  3.040663E+04  9.517746E-10 -5.523207E-09
       480  14 -6.355078E+04  8.944879E+01  3.285556E+02  2.415607E+04 -4.310141E-10  2.570327E-09
       480  15 -6.354513E+04  2.568143E+02  8.399290E+02  3.040635E+04  8.212703E-10  4.445858E-10
       480  16 -3.904678E+04  5.994767E+03  4.975741E+03  3.039245E+04 -1.986286E-09 -4.234821E-09
       480  17  4.360119E+02  1.548118E+04  1.329752E+04  2.423636E+04  6.939726E-10 -3.681226E-09
       480  18  3.999550E+04  2.519918E+04  2.200803E+04  3.058105E+04  3.599121E-11  1.130756E-09
       480  19 -8.803974E+04 -5.811950E+03 -5.062624E+03  3.042081E+04  3.650727E+03 -1.408510E+03
       480  20 -1.275337E+05 -1.530251E+04 -1.264057E+04  2.407577E+04  3.460530E+03 -3.870360E+03
       480  21 -1.670756E+05 -2.468618E+04 -2.032865E+04  3.023166E+04  3.269699E+03 -6.032841E+03
       480  22 -6.354355E+04  9.142665E+01 -4.343561E+01  3.040663E+04  5.177440E+02 -1.413936E+03
       480  23 -6.355077E+04  8.946504E+01  3.285847E+02  2.415607E+04  6.868418E+02 -3.875077E+03
       480  24 -6.354512E+04  2.568536E+02  8.399988E+02  3.040634E+04  8.552945E+02 -6.036867E+03
       480  25 -3.904677E+04  5.994771E+03  4.975758E+03  3.039246E+04 -2.615361E+03 -1.419361E+03
       480  26  4.360206E+02  1.548119E+04  1.329755E+04  2.423637E+04 -2.087126E+03 -3.879794E+03
       480  27  3.999551E+04  2.519922E+04  2.200810E+04  3.058105E+04 -1.559505E+03 -6.040895E+03
       481   1 -1.954579E+05 -3.182408E+04 -2.583100E+04  3.064926E+04 -4.759285E+03  7.754593E+03
       481   2 -2.348656E+05 -4.109017E+04 -3.438983E+04  2.319110E+04  9.659246E+02  8.048205E+03
       481   3 -2.745664E+05 -4.838534E+04 -4.619284E+04  2.792819E+04  6.699527E+03  2.652171E+03
       481   4 -6.335162E+04 -7.058635E+00  1.135669E+03  3.033987E+04 -1.005875E+03  7.760783E+03
       481   5 -6.379863E+04  4.305988E+02  2.098677E+03  2.423911E+04 -2.106326E+03  8.043017E+03
       481   6 -6.335568E+04  4.023997E+03  4.558229E+03  3.033333E+04 -3.197916E+03  2.636339E+03
       481   7  6.877132E+04  3.180888E+04  2.810147E+04  3.003040E+04  2.748319E+03  7.766970E+03
       481   8  1.072959E+05  4.194946E+04  3.858553E+04  2.528740E+04 -5.179410E+03  8.037820E+03
       481   9  1.478961E+05  5.643016E+04  5.530649E+04  3.273927E+04 -1.309871E+04  2.620433E+03
       481  10 -1.954580E+05 -3.182415E+04 -2.583115E+04  3.064929E+04  1.797955E-09 -1.245669E-09
       481  11 -2.348656E+05 -4.109024E+04 -3.438996E+04  2.319109E+04  2.573121E-09  1.952578E-09
       481  12 -2.745664E+05 -4.838536E+04 -4.619293E+04  2.792818E+04  3.276873E-09  5.318815E-09
       481  13 -6.335164E+04 -7.123581E+00  1.135554E+03  3.033987E+04  1.007385E-09  1.985298E-09
       481  14 -6.379865E+04  4.305282E+02  2.098547E+03  2.423912E+04 -4.944374E-11 -4.697500E-10
       481  15 -6.335569E+04  4.023987E+03  4.558196E+03  3.033333E+04  2.566938E-10  1.439771E-09
       481  16  6.877130E+04  3.180881E+04  2.810134E+04  3.003038E+04 -1.912533E-09  5.634803E-09
       481  17  1.072959E+05  4.194939E+04  3.858536E+04  2.528743E+04 -3.266681E-09  7.665117E-09
       481  18  1.478959E+05  5.643011E+04  5.530616E+04  3.273929E+04 -3.517291E-09  1.136643E-09
       481  19 -1.954579E+05 -3.182408E+04 -2.583100E+04  3.064926E+04  4.759285E+03 -7.754593E+03
       481  20 -2.348656E+05 -4.109017E+04 -3.438983E+04  2.319110E+04 -9.659246E+02 -8.048205E+03
       481  21 -2.745664E+05 -4.838534E+04 -4.619284E+04  2.792819E+04 -6.699527E+03 -2.652171E+03
       481  22 -6.335162E+04 -7.058635E+00  1.135669E+03  3.033987E+04  1.005875E+03 -7.760783E+03
       481  23 -6.379863E+04  4.305988E+02  2.098677E+03  2.423911E+04  2.106326E+03 -8.043017E+03
       481  24 -6.335568E+04  4.023997E+03  4.558229E+03  3.033333E+04  3.197916E+03 -2.636339E+03
       481  25  6.877132E+04  3.180888E+04  2.810147E+04  3.003040E+04 -2.748319E+03 -7.766970E+03
       481  26  1.072959E+05  4.194946E+04  3.858553E+04  2.528740E+04  5.179410E+03 -8.037820E+03
       481  27  1.478961E+05  5.643016E+04  5.530649E+04  3.273927E+04  1.309871E+04 -2.620433E+03
       482   1 -1.244259E+05 -5.863403E+05 -1.276114E+05  1.000703E+05 -3.850912E+03 -4.320027E+04
       482   2 -6.413318E+04 -4.779635E+05 -7.382160E+04  7.182230E+04 -1.097538E+04 -2.092656E+04
       482   3 -3.474963E+04 -3.800780E+05 -4.225247E+04  7.564890E+04 -8.269786E+03  1.366118E+03
       482   4 -3.656524E+04 -2.329108E+05 -4.225180E+04  7.976948E+04 -3.869570E+03 -2.880797E+04
       482   5 -3.477939E+03 -2.286758E+05 -2.006449E+04  6.375746E+04 -1.097832E+04 -1.831673E+04
       482   6  7.543900E+02 -2.328906E+05 -1.190475E+04  7.982156E+04 -8.257912E+03 -7.810594E+03
       482   7  5.128789E+04  1.206343E+05  4.309980E+04  5.945710E+04 -3.889165E+03 -1.440749E+04
       482   8  5.717345E+04  2.067050E+04  3.368901E+04  5.568935E+04 -1.098132E+04 -1.570587E+04
       482   9  3.625716E+04 -8.568249E+04  1.844213E+04  8.399524E+04 -8.246163E+03 -1.698944E+04
       482  10 -1.244264E+05 -5.863423E+05 -1.276149E+05  1.000702E+05  1.570634E-09 -4.095876E-08
       482  11 -6.413343E+04 -4.779640E+05 -7.382265E+04  7.182211E+04  3.689717E-09  5.494437E-09
       482  12 -3.474971E+04 -3.800780E+05 -4.225261E+04  7.564890E+04  1.585757E-09  4.811413E-08
       482  13 -3.656548E+04 -2.329117E+05 -4.225338E+04  7.976939E+04  2.684910E-09  2.415613E-11
       482  14 -3.478159E+03 -2.286762E+05 -2.006535E+04  6.375729E+04  2.127783E-09  8.879704E-09
       482  15  7.543004E+02 -2.328907E+05 -1.190499E+04  7.982151E+04  1.459669E-09  1.296481E-09
       482  16  5.128782E+04  1.206341E+05  4.309938E+04  5.945705E+04  1.875697E-09  3.740862E-08
       482  17  5.717326E+04  2.067020E+04  3.368832E+04  5.568921E+04  3.940498E-09 -2.961715E-09
       482  18  3.625701E+04 -8.568282E+04  1.844146E+04  8.399513E+04  1.641490E-09 -5.078015E-08
       482  19 -1.244259E+05 -5.863403E+05 -1.276114E+05  1.000703E+05  3.850912E+03  4.320027E+04
       482  20 -6.413318E+04 -4.779635E+05 -7.382160E+04  7.182230E+04  1.097538E+04  2.092656E+04
       482  21 -3.474963E+04 -3.800780E+05 -4.225247E+04  7.564890E+04  8.269786E+03 -1.366118E+03
       482  22 -3.656524E+04 -2.329108E+05 -4.225180E+04  7.976948E+04  3.869570E+03  2.880797E+04
       482  23 -3.477939E+03 -2.286758E+05 -2.006449E+04  6.375746E+04  1.097832E+04  1.831673E+04
       482  24  7.543900E+02 -2.328906E+05 -1.190475E+04  7.982156E+04  8.257912E+03  7.810594E+03
       482  25  5.128789E+04  1.206343E+05  4.309980E+04  5.945710E+04  3.889165E+03  1.440749E+04
       482  26  5.717345E+04  2.067050E+04  3.368901E+04  5.568935E+04  1.098132E+04  1.570587E+04
       482  27  3.625716E+04 -8.568249E+04  1.844213E+04  8.399524E+04  8.246163E+03  1.698944E+04
       483   1 -1.920249E+04 -3.039363E+05 -2.482265E+04  8.057660E+04 -3.925839E+03  8.532785E+02
       483   2  7.065198E+03 -2.004470E+05 -3.869289E+02  6.364074E+04  1.860861E+03  4.014032E+03
       483   3  3.151410E+04 -9.769664E+04  2.156270E+04  7.930779E+04  7.562323E+03  7.175357E+03
       483   4 -1.619260E+03 -2.311804E+05 -9.693802E+03  7.992670E+04 -3.916988E+03 -6.144661E+03
       483   5 -2.327245E+02 -2.307980E+05 -6.518719E+03  6.362574E+04  1.869699E+03 -2.881913E+03
       483   6 -6.820312E+02 -2.311821E+05 -5.900028E+03  7.992790E+04  7.571120E+03  3.809047E+02
       483   7  1.596367E+04 -1.584195E+05  5.434944E+03  7.927672E+04 -3.908124E+03 -1.314341E+04
       483   8 -7.530678E+03 -2.611480E+05 -1.265038E+04  6.361074E+04  1.878538E+03 -9.777526E+03
       483   9 -3.287926E+04 -3.646506E+05 -3.336354E+04  8.054787E+04  7.579905E+03 -6.412112E+03
       483  10 -1.920251E+04 -3.039363E+05 -2.482268E+04  8.057660E+04 -4.797342E-10  6.151832E-09
       483  11  7.065190E+03 -2.004470E+05 -3.869657E+02  6.364074E+04 -3.803984E-10  6.168546E-09
       483  12  3.151402E+04 -9.769671E+04  2.156250E+04  7.930775E+04 -3.422911E-09  6.078662E-09
       483  13 -1.619287E+03 -2.311805E+05 -9.693902E+03  7.992668E+04 -5.449538E-10 -4.176714E-13
       483  14 -2.327305E+02 -2.307980E+05 -6.518741E+03  6.362575E+04 -5.855810E-10  9.676786E-09
       483  15 -6.820928E+02 -2.311821E+05 -5.900136E+03  7.992789E+04 -1.653346E-09  1.505063E-09
       483  16  1.596360E+04 -1.584197E+05  5.434590E+03  7.927668E+04 -1.300257E-10 -7.932551E-09
       483  17 -7.530708E+03 -2.611481E+05 -1.265056E+04  6.361076E+04 -2.493745E-09 -3.416171E-09
       483  18 -3.287933E+04 -3.646507E+05 -3.336373E+04  8.054791E+04 -3.192055E-09 -6.302160E-09
       483  19 -1.920249E+04 -3.039363E+05 -2.482265E+04  8.057660E+04  3.925839E+03 -8.532785E+02
       483  20  7.065198E+03 -2.004470E+05 -3.869289E+02  6.364074E+04 -1.860861E+03 -4.014032E+03
       483  21  3.151410E+04 -9.769664E+04  2.156270E+04  7.930779E+04 -7.562323E+03 -7.175357E+03
       483  22 -1.619260E+03 -2.311804E+05 -9.693802E+03  7.992670E+04  3.916988E+03  6.144661E+03
       483  23 -2.327245E+02 -2.307980E+05 -6.518719E+03  6.362574E+04 -1.869699E+03  2.881913E+03
       483  24 -6.820312E+02 -2.311821E+05 -5.900028E+03  7.992790E+04 -7.571120E+03 -3.809047E+02
       483  25  1.596367E+04 -1.584195E+05  5.434944E+03  7.927672E+04  3.908124E+03  1.314341E+04
       483  26 -7.530678E+03 -2.611480E+05 -1.265038E+04  6.361074E+04 -1.878538E+03  9.777526E+03
       483  27 -3.287926E+04 -3.646506E+05 -3.336354E+04  8.054787E+04 -7.579905E+03  6.412112E+03
       484   1  5.024279E+04 -2.374507E+04  3.652202E+04  8.113236E+04  1.195188E+04  1.071051E+04
       484   2  7.388865E+04  7.982789E+04  5.819152E+04  6.044978E+04  1.407750E+04  1.405903E+03
       484   3  8.896959E+04  1.826231E+05  8.380664E+04  7.177123E+04  4.838836E+03 -7.917786E+03
       484   4  1.169409E+02 -2.317180E+05 -6.129335E+03  7.979929E+04  1.196433E+04  1.354689E+03
       484   5 -1.422884E+03 -2.301509E+05 -8.311765E+03  6.378643E+04  1.407207E+04  5.687570E+03
       484   6 -1.389705E+04 -2.317394E+05 -1.602027E+04  7.977921E+04  4.812817E+03  1.000269E+04
       484   7 -5.001157E+04 -4.396497E+05 -4.878267E+04  7.846668E+04  1.197683E+04 -7.998057E+03
       484   8 -7.674066E+04 -5.400393E+05 -7.482058E+04  6.712142E+04  1.406669E+04  9.967128E+03
       484   9 -1.167758E+05 -6.459440E+05 -1.158582E+05  8.778187E+04  4.787251E+03  2.791125E+04
       484  10  5.024261E+04 -2.374523E+04  3.652154E+04  8.113226E+04 -2.802342E-09  4.188907E-09
       484  11  7.388843E+04  7.982783E+04  5.819114E+04  6.044976E+04 -1.711456E-09  6.132530E-09
       484  12  8.896955E+04  1.826230E+05  8.380648E+04  7.177126E+04 -6.430872E-10  2.718674E-09
       484  13  1.167867E+02 -2.317181E+05 -6.129607E+03  7.979928E+04 -3.948589E-09 -1.125211E-09
       484  14 -1.423106E+03 -2.301510E+05 -8.312198E+03  6.378637E+04 -1.403186E-09  9.835911E-09
       484  15 -1.389710E+04 -2.317395E+05 -1.602050E+04  7.977917E+04 -5.307498E-10  1.778458E-09
       484  16 -5.001174E+04 -4.396499E+05 -4.878306E+04  7.846675E+04 -2.767264E-09 -5.432208E-09
       484  17 -7.674090E+04 -5.400395E+05 -7.482114E+04  6.712131E+04 -1.661253E-09 -1.995490E-09
       484  18 -1.167761E+05 -6.459449E+05 -1.158597E+05  8.778177E+04 -9.388459E-10 -5.218568E-09
       484  19  5.024279E+04 -2.374507E+04  3.652202E+04  8.113236E+04 -1.195188E+04 -1.071051E+04
       484  20  7.388865E+04  7.982789E+04  5.819152E+04  6.044978E+04 -1.407750E+04 -1.405903E+03
       484  21  8.896959E+04  1.826231E+05  8.380664E+04  7.177123E+04 -4.838836E+03  7.917786E+03
       484  22  1.169409E+02 -2.317180E+05 -6.129335E+03  7.979929E+04 -1.196433E+04 -1.354689E+03
       484  23 -1.422884E+03 -2.301509E+05 -8.311765E+03  6.378643E+04 -1.407207E+04 -5.687570E+03
       484  24 -1.389705E+04 -2.317394E+05 -1.602027E+04  7.977921E+04 -4.812817E+03 -1.000269E+04
       484  25 -5.001157E+04 -4.396497E+05 -4.878267E+04  7.846668E+04 -1.197683E+04  7.998057E+03
       484  26 -7.674066E+04 -5.400393E+05 -7.482058E+04  6.712142E+04 -1.406669E+04 -9.967128E+03
       484  27 -1.167758E+05 -6.459440E+05 -1.158582E+05  8.778187E+04 -4.787251E+03 -2.791125E+04
       485   1  1.398272E+05  1.394312E+05  5.516196E+04  9.494499E+04  2.861309E+04  2.119300E+04
       485   2  1.343363E+05  9.646912E+04  2.728145E+04  1.061261E+05  1.857428E+04  1.292264E+04
       485   3  1.468650E+05  8.004553E+04  1.643245E+04  1.060313E+05  8.202105E+03  5.095166E+03
       485   4  1.474160E+05  1.058571E+05  5.016896E+04  8.086315E+04  2.779952E+04  2.057913E+04
       485   5  1.304486E+05  7.848718E+04  2.354015E+04  9.715631E+04  1.829143E+04  1.270939E+04
       485   6  1.313854E+05  7.754009E+04  1.348131E+04  1.021734E+05  8.450397E+03  5.282093E+03
       485   7  1.550060E+05  7.228525E+04  4.517617E+04  6.678113E+04  2.698592E+04  1.996534E+04
       485   8  1.265611E+05  6.050587E+04  1.979888E+04  8.818665E+04  1.800858E+04  1.249615E+04
       485   9  1.159063E+05  7.503472E+04  1.053022E+04  9.831570E+04  8.698676E+03  5.469018E+03
       485  10  1.398262E+05  1.394305E+05  5.515958E+04  9.494450E+04 -2.213679E-09 -5.806525E-10
       485  11  1.343359E+05  9.646885E+04  2.728049E+04  1.061259E+05 -9.331426E-10  2.859308E-09
       485  12  1.468650E+05  8.004548E+04  1.643228E+04  1.060313E+05  3.671549E-09 -5.516729E-10
       485  13  1.474151E+05  1.058565E+05  5.016671E+04  8.086269E+04 -2.416823E-10 -3.042487E-09
       485  14  1.304482E+05  7.848692E+04  2.353922E+04  9.715612E+04  2.227629E-10 -3.858473E-09
       485  15  1.313853E+05  7.754004E+04  1.348113E+04  1.021734E+05  5.887204E-10 -4.830862E-10
       485  16  1.550051E+05  7.228463E+04  4.517405E+04  6.678069E+04  1.032596E-09 -1.143075E-09
       485  17  1.265607E+05  6.050561E+04  1.979798E+04  8.818647E+04 -1.195778E-09  4.943070E-10
       485  18  1.159062E+05  7.503467E+04  1.053003E+04  9.831566E+04 -1.757330E-09 -5.288672E-09
       485  19  1.398272E+05  1.394312E+05  5.516196E+04  9.494499E+04 -2.861309E+04 -2.119300E+04
       485  20  1.343363E+05  9.646912E+04  2.728145E+04  1.061261E+05 -1.857428E+04 -1.292264E+04
       485  21  1.468650E+05  8.004553E+04  1.643245E+04  1.060313E+05 -8.202105E+03 -5.095166E+03
       485  22  1.474160E+05  1.058571E+05  5.016896E+04  8.086315E+04 -2.779952E+04 -2.057913E+04
       485  23  1.304486E+05  7.848718E+04  2.354015E+04  9.715631E+04 -1.829143E+04 -1.270939E+04
       485  24  1.313854E+05  7.754009E+04  1.348131E+04  1.021734E+05 -8.450397E+03 -5.282093E+03
       485  25  1.550060E+05  7.228525E+04  4.517617E+04  6.678113E+04 -2.698592E+04 -1.996534E+04
       485  26  1.265611E+05  6.050587E+04  1.979888E+04  8.818665E+04 -1.800858E+04 -1.249615E+04
       485  27  1.159063E+05  7.503472E+04  1.053022E+04  9.831570E+04 -8.698676E+03 -5.469018E+03
       486   1  1.394065E+05  8.545477E+04  1.309801E+04  1.044035E+05  6.753670E+03  4.182106E+03
       486   2  1.371718E+05  8.172179E+04  7.922737E+03  1.036023E+05  4.195283E+03  2.463930E+03
       486   3  1.350248E+05  8.019887E+04  5.129945E+03  1.027231E+05  1.618537E+03  7.701602E+02
       486   4  1.310866E+05  7.862610E+04  1.060813E+04  9.979464E+04  6.897520E+03  4.290337E+03
       486   5  1.307200E+05  7.694845E+04  6.093385E+03  1.002671E+05  4.368477E+03  2.594251E+03
       486   6  1.304348E+05  7.747455E+04  3.935688E+03  1.006615E+05  1.821050E+03  9.225470E+02
       486   7  1.227668E+05  7.179748E+04  8.118231E+03  9.518588E+04  7.041369E+03  4.398567E+03
       486   8  1.242682E+05  7.217511E+04  4.264014E+03  9.693186E+04  4.541670E+03  2.724570E+03
       486   9  1.258447E+05  7.475020E+04  2.741410E+03  9.859989E+04  2.023564E+03  1.074934E+03
       486  10  1.394065E+05  8.545474E+04  1.309789E+04  1.044035E+05 -4.635183E-09 -8.036482E-09
       486  11  1.371718E+05  8.172178E+04  7.922693E+03  1.036023E+05  7.056858E-09  5.387410E-09
       486  12  1.350248E+05  8.019887E+04  5.129939E+03  1.027231E+05  1.719824E-08  1.664998E-08
       486  13  1.310866E+05  7.862606E+04  1.060800E+04  9.979462E+04  4.810895E-10  1.122667E-09
       486  14  1.307200E+05  7.694844E+04  6.093337E+03  1.002670E+05  9.929807E-10  4.831531E-10
       486  15  1.304348E+05  7.747455E+04  3.935680E+03  1.006615E+05  5.012656E-10  5.935616E-09
       486  16  1.227667E+05  7.179744E+04  8.118101E+03  9.518585E+04  6.385410E-09 -4.088883E-10
       486  17  1.242682E+05  7.217510E+04  4.263961E+03  9.693185E+04 -7.173296E-09 -6.121396E-09
       486  18  1.258447E+05  7.475020E+04  2.741400E+03  9.859989E+04 -1.568793E-08 -1.403347E-08
       486  19  1.394065E+05  8.545477E+04  1.309801E+04  1.044035E+05 -6.753670E+03 -4.182106E+03
       486  20  1.371718E+05  8.172179E+04  7.922737E+03  1.036023E+05 -4.195283E+03 -2.463930E+03
       486  21  1.350248E+05  8.019887E+04  5.129945E+03  1.027231E+05 -1.618537E+03 -7.701602E+02
       486  22  1.310866E+05  7.862610E+04  1.060813E+04  9.979464E+04 -6.897520E+03 -4.290337E+03
       486  23  1.307200E+05  7.694845E+04  6.093385E+03  1.002671E+05 -4.368477E+03 -2.594251E+03
       486  24  1.304348E+05  7.747455E+04  3.935688E+03  1.006615E+05 -1.821050E+03 -9.225470E+02
       486  25  1.227668E+05  7.179748E+04  8.118231E+03  9.518588E+04 -7.041369E+03 -4.398567E+03
       486  26  1.242682E+05  7.217511E+04  4.264014E+03  9.693186E+04 -4.541670E+03 -2.724570E+03
       486  27  1.258447E+05  7.475020E+04  2.741410E+03  9.859989E+04 -2.023564E+03 -1.074934E+03
       487   1  1.330738E+05  7.933232E+04  4.087427E+03  1.018605E+05  1.032761E+03  4.826975E+02
       487   2  1.311221E+05  7.718921E+04  3.024554E+03  1.005630E+05 -2.491973E+02 -2.248088E+02
       487   3  1.284059E+05  7.617965E+04  2.941373E+03  9.958098E+04 -1.531182E+03 -9.322209E+02
       487   4  1.303991E+05  7.750567E+04  3.363774E+03  1.005465E+05  1.229772E+03  6.309442E+02
       487   5  1.307819E+05  7.693984E+04  2.929011E+03  1.003881E+05 -5.209529E+01 -7.649553E+01
       487   6  1.304001E+05  7.750752E+04  3.473855E+03  1.005451E+05 -1.334003E+03 -7.838501E+02
       487   7  1.277244E+05  7.567905E+04  2.640133E+03  9.923258E+04  1.426781E+03  7.791882E+02
       487   8  1.304416E+05  7.669048E+04  2.833469E+03  1.002132E+05  1.450052E+02  7.181660E+01
       487   9  1.323944E+05  7.883539E+04  4.006337E+03  1.015093E+05 -1.136824E+03 -6.354788E+02
       487  10  1.330738E+05  7.933232E+04  4.087424E+03  1.018605E+05 -1.140260E-08 -5.517907E-09
       487  11  1.311221E+05  7.718921E+04  3.024554E+03  1.005630E+05 -7.556268E-09 -6.480495E-09
       487  12  1.284059E+05  7.617965E+04  2.941367E+03  9.958098E+04 -8.954178E-10 -1.064536E-09
       487  13  1.303991E+05  7.750567E+04  3.363771E+03  1.005465E+05  1.201477E-09 -1.569965E-09
       487  14  1.307819E+05  7.693984E+04  2.929011E+03  1.003881E+05 -1.900804E-09  6.908069E-10
       487  15  1.304001E+05  7.750752E+04  3.473851E+03  1.005451E+05 -1.349065E-09  4.740966E-12
       487  16  1.277244E+05  7.567905E+04  2.640128E+03  9.923258E+04  1.269061E-08  1.028715E-08
       487  17  1.304416E+05  7.669048E+04  2.833469E+03  1.002132E+05  6.369872E-09  5.429879E-09
       487  18  1.323944E+05  7.883539E+04  4.006334E+03  1.015093E+05 -2.351848E-09  2.023723E-09
       487  19  1.330738E+05  7.933232E+04  4.087427E+03  1.018605E+05 -1.032761E+03 -4.826975E+02
       487  20  1.311221E+05  7.718921E+04  3.024554E+03  1.005630E+05  2.491973E+02  2.248088E+02
       487  21  1.284059E+05  7.617965E+04  2.941373E+03  9.958098E+04  1.531182E+03  9.322209E+02
       487  22  1.303991E+05  7.750567E+04  3.363774E+03  1.005465E+05 -1.229772E+03 -6.309442E+02
       487  23  1.307819E+05  7.693984E+04  2.929011E+03  1.003881E+05  5.209529E+01  7.649553E+01
       487  24  1.304001E+05  7.750752E+04  3.473855E+03  1.005451E+05  1.334003E+03  7.838501E+02
       487  25  1.277244E+05  7.567905E+04  2.640133E+03  9.923258E+04 -1.426781E+03 -7.791882E+02
       487  26  1.304416E+05  7.669048E+04  2.833469E+03  1.002132E+05 -1.450052E+02 -7.181660E+01
       487  27  1.323944E+05  7.883539E+04  4.006337E+03  1.015093E+05  1.136824E+03  6.354788E+02
       488   1  1.265130E+05  7.526389E+04  3.106208E+03  9.896110E+04 -2.147569E+03 -1.242757E+03
       488   2  1.249546E+05  7.265766E+04  4.806489E+03  9.726910E+04 -4.807408E+03 -2.998394E+03
       488   3  1.235375E+05  7.232848E+04  8.978109E+03  9.547457E+04 -7.449712E+03 -4.777392E+03
       488   4  1.304396E+05  7.747481E+04  4.109816E+03  1.006691E+05 -1.945180E+03 -1.090464E+03
       488   5  1.307130E+05  7.694633E+04  6.444539E+03  1.002588E+05 -4.633083E+03 -2.867222E+03
       488   6  1.311337E+05  7.870102E+04  1.127498E+04  9.974609E+04 -7.303429E+03 -4.667331E+03
       488   7  1.343663E+05  7.968576E+04  5.113440E+03  1.023771E+05 -1.742788E+03 -9.381681E+02
       488   8  1.364714E+05  8.123502E+04  8.082585E+03  1.032486E+05 -4.458757E+03 -2.736048E+03
       488   9  1.387299E+05  8.507352E+04  1.357181E+04  1.040176E+05 -7.157146E+03 -4.557269E+03
       488  10  1.265129E+05  7.526389E+04  3.106196E+03  9.896110E+04  2.629240E-08  2.190214E-08
       488  11  1.249545E+05  7.265764E+04  4.806429E+03  9.726908E+04 -8.471433E-11 -2.888239E-09
       488  12  1.235374E+05  7.232844E+04  8.977962E+03  9.547454E+04 -4.100840E-08 -3.958505E-08
       488  13  1.304396E+05  7.747481E+04  4.109807E+03  1.006691E+05  3.919513E-09  4.124235E-09
       488  14  1.307129E+05  7.694631E+04  6.444483E+03  1.002588E+05  9.323035E-09  7.721725E-09
       488  15  1.311336E+05  7.870098E+04  1.127484E+04  9.974606E+04 -1.209482E-09 -6.876575E-09
       488  16  1.343663E+05  7.968576E+04  5.113432E+03  1.023771E+05 -2.067800E-08 -8.010707E-09
       488  17  1.364714E+05  8.123500E+04  8.082534E+03  1.032486E+05  1.718765E-08  1.719900E-08
       488  18  1.387298E+05  8.507349E+04  1.357167E+04  1.040176E+05  3.700634E-08  2.665740E-08
       488  19  1.265130E+05  7.526389E+04  3.106208E+03  9.896110E+04  2.147569E+03  1.242757E+03
       488  20  1.249546E+05  7.265766E+04  4.806489E+03  9.726910E+04  4.807408E+03  2.998394E+03
       488  21  1.235375E+05  7.232848E+04  8.978109E+03  9.547457E+04  7.449712E+03  4.777392E+03
       488  22  1.304396E+05  7.747481E+04  4.109816E+03  1.006691E+05  1.945180E+03  1.090464E+03
       488  23  1.307130E+05  7.694633E+04  6.444539E+03  1.002588E+05  4.633083E+03  2.867222E+03
       488  24  1.311337E+05  7.870102E+04  1.127498E+04  9.974609E+04  7.303429E+03  4.667331E+03
       488  25  1.343663E+05  7.968576E+04  5.113440E+03  1.023771E+05  1.742788E+03  9.381681E+02
       488  26  1.364714E+05  8.123502E+04  8.082585E+03  1.032486E+05  4.458757E+03  2.736048E+03
       488  27  1.387299E+05  8.507352E+04  1.357181E+04  1.040176E+05  7.157146E+03  4.557269E+03
       489   1  1.163375E+05  7.585536E+04  1.158437E+04  9.886424E+04 -9.194514E+03 -5.914797E+03
       489   2  1.278059E+05  6.051236E+04  2.152739E+04  8.815355E+04 -1.917339E+04 -1.343296E+04
       489   3  1.582978E+05  7.314870E+04  4.867862E+04  6.541248E+04 -2.883404E+04 -2.137399E+04
       489   4  1.314516E+05  7.754509E+04  1.434291E+04  1.022808E+05 -8.948405E+03 -5.729492E+03
       489   5  1.304241E+05  7.858371E+04  2.506909E+04  9.694468E+04 -1.943533E+04 -1.363053E+04
       489   6  1.485295E+05  1.077113E+05  5.344472E+04  7.957838E+04 -2.960380E+04 -2.195502E+04
       489   7  1.465660E+05  7.923485E+04  1.710147E+04  1.056974E+05 -8.702287E+03 -5.544186E+03
       489   8  1.330426E+05  9.665584E+04  2.861085E+04  1.057360E+05 -1.969727E+04 -1.382811E+04
       489   9  1.387622E+05  1.422772E+05  5.821121E+04  9.374439E+04 -3.037354E+04 -2.253614E+04
       489  10  1.163374E+05  7.585530E+04  1.158414E+04  9.886420E+04  2.167262E-08  9.859769E-09
       489  11  1.278055E+05  6.051207E+04  2.152636E+04  8.815334E+04  1.388198E-08  8.120264E-09
       489  12  1.582968E+05  7.314799E+04  4.867620E+04  6.541199E+04 -5.554179E-09 -8.357955E-09
       489  13  1.314515E+05  7.754503E+04  1.434270E+04  1.022808E+05 -4.043479E-09 -1.112896E-08
       489  14  1.304237E+05  7.858341E+04  2.506803E+04  9.694446E+04  1.444244E-09  1.962009E-10
       489  15  1.485284E+05  1.077105E+05  5.344217E+04  7.957786E+04 -1.902176E-11  1.616924E-09
       489  16  1.465659E+05  7.923480E+04  1.710127E+04  1.056974E+05 -3.021986E-08 -2.959908E-08
       489  17  1.330421E+05  9.665553E+04  2.860976E+04  1.057358E+05 -9.689701E-09 -9.660593E-09
       489  18  1.387611E+05  1.422764E+05  5.820853E+04  9.374384E+04  7.417838E-09  5.590965E-10
       489  19  1.163375E+05  7.585536E+04  1.158437E+04  9.886424E+04  9.194514E+03  5.914797E+03
       489  20  1.278059E+05  6.051236E+04  2.152739E+04  8.815355E+04  1.917339E+04  1.343296E+04
       489  21  1.582978E+05  7.314870E+04  4.867862E+04  6.541248E+04  2.883404E+04  2.137399E+04
       489  22  1.314516E+05  7.754509E+04  1.434291E+04  1.022808E+05  8.948405E+03  5.729492E+03
       489  23  1.304241E+05  7.858371E+04  2.506909E+04  9.694468E+04  1.943533E+04  1.363053E+04
       489  24  1.485295E+05  1.077113E+05  5.344472E+04  7.957838E+04  2.960380E+04  2.195502E+04
       489  25  1.465660E+05  7.923485E+04  1.710147E+04  1.056974E+05  8.702287E+03  5.544186E+03
       489  26  1.330426E+05  9.665584E+04  2.861085E+04  1.057360E+05  1.969727E+04  1.382811E+04
       489  27  1.387622E+05  1.422772E+05  5.821121E+04  9.374439E+04  3.037354E+04  2.253614E+04
       490   1 -5.320355E+04 -3.165032E+05 -5.385084E+04  4.440510E+04 -1.829663E+03 -1.554125E+04
       490   2 -2.985155E+04 -2.657576E+05 -3.215038E+04  3.292620E+04 -5.201715E+03 -6.471101E+03
       490   3 -1.661899E+04 -2.186619E+05 -1.887863E+04  3.666466E+04 -3.916271E+03  2.606925E+03
       490   4 -1.158060E+04 -1.489932E+05 -1.340434E+04  3.790136E+04 -1.839414E+03 -8.719849E+03
       490   5 -1.122648E+03 -1.476502E+05 -6.685597E+03  3.030113E+04 -5.203386E+03 -5.235655E+03
       490   6  1.870461E+02 -1.489888E+05 -4.514328E+03  3.791847E+04 -3.910150E+03 -1.744405E+03
       490   7  3.004048E+04  1.854261E+04  2.704035E+04  3.139586E+04 -1.849306E+03 -1.896617E+03
       490   8  2.760536E+04 -2.952954E+04  1.877837E+04  2.767557E+04 -5.205068E+03 -3.999976E+03
       490   9  1.699279E+04 -7.931102E+04  9.849781E+03  3.917243E+04 -3.904048E+03 -6.096215E+03
       490  10 -5.320362E+04 -3.165035E+05 -5.385130E+04  4.440508E+04  6.760880E-10  4.455427E-10
       490  11 -2.985159E+04 -2.657577E+05 -3.215051E+04  3.292617E+04  5.393849E-10  1.558247E-09
       490  12 -1.661901E+04 -2.186619E+05 -1.887867E+04  3.666467E+04 -9.717756E-10 -5.926974E-09
       490  13 -1.158062E+04 -1.489933E+05 -1.340449E+04  3.790134E+04  1.057064E-09  1.111291E-09
       490  14 -1.122685E+03 -1.476502E+05 -6.685700E+03  3.030111E+04 -2.630086E-09 -5.951741E-10
       490  15  1.870289E+02 -1.489888E+05 -4.514362E+03  3.791847E+04 -1.445472E-09 -3.101801E-09
       490  16  3.004048E+04  1.854261E+04  2.704034E+04  3.139586E+04 -1.938732E-10 -4.199713E-10
       490  17  2.760532E+04 -2.952956E+04  1.877829E+04  2.767555E+04 -1.395590E-09 -2.664072E-09
       490  18  1.699276E+04 -7.931107E+04  9.849682E+03  3.917241E+04 -2.293740E-09  5.026638E-09
       490  19 -5.320355E+04 -3.165032E+05 -5.385084E+04  4.440510E+04  1.829663E+03  1.554125E+04
       490  20 -2.985155E+04 -2.657576E+05 -3.215038E+04  3.292620E+04  5.201715E+03  6.471101E+03
       490  21 -1.661899E+04 -2.186619E+05 -1.887863E+04  3.666466E+04  3.916271E+03 -2.606925E+03
       490  22 -1.158060E+04 -1.489932E+05 -1.340434E+04  3.790136E+04  1.839414E+03  8.719849E+03
       490  23 -1.122648E+03 -1.476502E+05 -6.685597E+03  3.030113E+04  5.203386E+03  5.235655E+03
       490  24  1.870461E+02 -1.489888E+05 -4.514328E+03  3.791847E+04  3.910150E+03  1.744405E+03
       490  25  3.004048E+04  1.854261E+04  2.704035E+04  3.139586E+04  1.849306E+03  1.896617E+03
       490  26  2.760536E+04 -2.952954E+04  1.877837E+04  2.767557E+04  5.205068E+03  3.999976E+03
       490  27  1.699279E+04 -7.931102E+04  9.849781E+03  3.917243E+04  3.904048E+03  6.096215E+03
       491   1 -8.829549E+03 -1.828726E+05 -1.123783E+04  3.830990E+04 -1.856435E+03  2.259066E+03
       491   2  3.367934E+03 -1.337398E+05 -9.791293E+02  3.020829E+04  8.869367E+02  4.168120E+03
       491   3  1.448214E+04 -8.506692E+04  7.779348E+03  3.756723E+04  3.589637E+03  6.077298E+03
       491   4 -5.224317E+02 -1.484968E+05 -4.089907E+03  3.796880E+04 -1.851816E+03 -1.059936E+03
       491   5 -1.236994E+02 -1.482617E+05 -3.912754E+03  3.023829E+04  8.915156E+02  8.978039E+02
       491   6 -8.165830E+02 -1.484973E+05 -5.269609E+03  3.796839E+04  3.594170E+03  2.855525E+03
       491   7  7.784617E+03 -1.141199E+05  3.057991E+03  3.762769E+04 -1.847193E+03 -4.379119E+03
       491   8 -3.615340E+03 -1.627834E+05 -6.846349E+03  3.026830E+04  8.960942E+02 -2.372437E+03
       491   9 -1.611556E+04 -2.119238E+05 -1.831874E+04  3.836952E+04  3.598699E+03 -3.659261E+02
       491  10 -8.829554E+03 -1.828726E+05 -1.123784E+04  3.830990E+04 -1.766888E-09  4.330366E-09
       491  11  3.367928E+03 -1.337399E+05 -9.791634E+02  3.020828E+04  1.822486E-09 -7.546386E-09
       491  12  1.448212E+04 -8.506697E+04  7.779255E+03  3.756721E+04  5.757046E-10 -2.066000E-08
       491  13 -5.224357E+02 -1.484968E+05 -4.089915E+03  3.796880E+04 -1.158822E-09 -1.074567E-09
       491  14 -1.237004E+02 -1.482617E+05 -3.912757E+03  3.023829E+04  1.274980E-09  5.802606E-10
       491  15 -8.165991E+02 -1.484973E+05 -5.269649E+03  3.796839E+04  2.678583E-09  2.939864E-10
       491  16  7.784608E+03 -1.141199E+05  3.057949E+03  3.762768E+04 -1.004669E-09 -5.460583E-09
       491  17 -3.615342E+03 -1.627834E+05 -6.846361E+03  3.026830E+04  6.515088E-10  7.234656E-09
       491  18 -1.611557E+04 -2.119238E+05 -1.831877E+04  3.836952E+04  2.829606E-09  1.977288E-08
       491  19 -8.829549E+03 -1.828726E+05 -1.123783E+04  3.830990E+04  1.856435E+03 -2.259066E+03
       491  20  3.367934E+03 -1.337398E+05 -9.791293E+02  3.020829E+04 -8.869367E+02 -4.168120E+03
       491  21  1.448214E+04 -8.506692E+04  7.779348E+03  3.756723E+04 -3.589637E+03 -6.077298E+03
       491  22 -5.224317E+02 -1.484968E+05 -4.089907E+03  3.796880E+04  1.851816E+03  1.059936E+03
       491  23 -1.236994E+02 -1.482617E+05 -3.912754E+03  3.023829E+04 -8.915156E+02 -8.978039E+02
       491  24 -8.165830E+02 -1.484973E+05 -5.269609E+03  3.796839E+04 -3.594170E+03 -2.855525E+03
       491  25  7.784617E+03 -1.141199E+05  3.057991E+03  3.762769E+04  1.847193E+03  4.379119E+03
       491  26 -3.615340E+03 -1.627834E+05 -6.846349E+03  3.026830E+04 -8.960942E+02  2.372437E+03
       491  27 -1.611556E+04 -2.119238E+05 -1.831874E+04  3.836952E+04 -3.598699E+03  3.659261E+02
       492   1  2.417786E+04 -5.059717E+04  1.394144E+04  3.999425E+04  5.670598E+03  8.192603E+03
       492   2  3.398581E+04 -7.596037E+01  2.122439E+04  2.615820E+04  6.672813E+03  7.132400E+03
       492   3  3.020162E+04  4.724967E+04  2.581281E+04  2.749058E+04  2.281979E+03  6.063918E+03
       492   4  3.813642E+02 -1.493542E+05 -6.309936E+03  3.790988E+04  5.676893E+03  3.755284E+03
       492   5 -1.767707E+03 -1.471961E+05 -1.034037E+04  3.031139E+04  6.670023E+03  9.165829E+03
       492   6 -1.863411E+04 -1.493600E+05 -2.156010E+04  3.788189E+04  2.269506E+03  1.456804E+04
       492   7 -2.341572E+04 -2.481018E+05 -2.656176E+04  3.582584E+04  5.683218E+03 -6.813418E+02
       492   8 -3.752257E+04 -2.942958E+05 -4.190638E+04  3.446358E+04  6.667261E+03  1.119878E+04
       492   9 -6.747223E+04 -3.459339E+05 -6.893544E+04  4.826992E+04  2.257316E+03  2.306948E+04
       492  10  2.417781E+04 -5.059725E+04  1.394126E+04  3.999421E+04  5.090306E-10  1.996520E-08
       492  11  3.398574E+04 -7.602695E+01  2.122421E+04  2.615816E+04  1.475430E-09  9.971272E-09
       492  12  3.020161E+04  4.724963E+04  2.581274E+04  2.749057E+04  7.551923E-11 -5.524287E-09
       492  13  3.813258E+02 -1.493542E+05 -6.310023E+03  3.790986E+04  5.538436E-10  1.034994E-09
       492  14 -1.767777E+03 -1.471962E+05 -1.034061E+04  3.031134E+04  2.277589E-09 -1.049066E-09
       492  15 -1.863417E+04 -1.493602E+05 -2.156051E+04  3.788187E+04 -8.859213E-10 -1.614279E-09
       492  16 -2.341576E+04 -2.481018E+05 -2.656182E+04  3.582585E+04  2.721427E-09 -1.837266E-08
       492  17 -3.752265E+04 -2.942959E+05 -4.190670E+04  3.446352E+04  7.347876E-10 -9.377708E-09
       492  18 -6.747238E+04 -3.459345E+05 -6.893646E+04  4.826987E+04 -9.563789E-10  5.220297E-09
       492  19  2.417786E+04 -5.059717E+04  1.394144E+04  3.999425E+04 -5.670598E+03 -8.192603E+03
       492  20  3.398581E+04 -7.596037E+01  2.122439E+04  2.615820E+04 -6.672813E+03 -7.132400E+03
       492  21  3.020162E+04  4.724967E+04  2.581281E+04  2.749058E+04 -2.281979E+03 -6.063918E+03
       492  22  3.813642E+02 -1.493542E+05 -6.309936E+03  3.790988E+04 -5.676893E+03 -3.755284E+03
       492  23 -1.767707E+03 -1.471961E+05 -1.034037E+04  3.031139E+04 -6.670023E+03 -9.165829E+03
       492  24 -1.863411E+04 -1.493600E+05 -2.156010E+04  3.788189E+04 -2.269506E+03 -1.456804E+04
       492  25 -2.341572E+04 -2.481018E+05 -2.656176E+04  3.582584E+04 -5.683218E+03  6.813418E+02
       492  26 -3.752257E+04 -2.942958E+05 -4.190638E+04  3.446358E+04 -6.667261E+03 -1.119878E+04
       492  27 -6.747223E+04 -3.459339E+05 -6.893544E+04  4.826992E+04 -2.257316E+03 -2.306948E+04
       493   1 -3.605777E+05  7.272416E+04  6.218480E+04  2.862125E+04 -1.002845E+04 -6.032498E+03
       493   2 -4.236206E+05  9.151204E+04  6.040599E+04  3.233751E+04 -1.262581E+04 -1.887867E+04
       493   3 -4.938491E+05  7.995954E+04  5.274167E+04  5.643806E+04 -1.521577E+04 -1.947961E+04
       493   4 -8.213262E+05 -4.162631E+04 -4.836578E+04  5.160274E+04 -3.276630E+04 -6.021239E+03
       493   5 -8.164363E+05 -3.818224E+03 -2.311426E+04  4.141936E+04 -2.068194E+04 -1.887627E+04
       493   6 -8.212932E+05  1.087553E+03 -1.395665E+04  5.162192E+04 -8.589990E+03 -1.948245E+04
       493   7 -1.281878E+06 -1.559900E+05 -1.589292E+05  7.456711E+04 -5.548732E+04 -6.011661E+03
       493   8 -1.209106E+06 -9.915818E+04 -1.066431E+05  5.049539E+04 -2.873305E+04 -1.887411E+04
       493   9 -1.148635E+06 -7.779103E+04 -8.066042E+04  4.680837E+04 -1.967636E+03 -1.948540E+04
       493  10 -3.605779E+05  7.272410E+04  6.218454E+04  2.862120E+04 -1.042873E-10 -1.051605E-11
       493  11 -4.236209E+05  9.151161E+04  6.040502E+04  3.233732E+04  2.540543E-10 -6.214457E-11
       493  12 -4.938494E+05  7.995907E+04  5.274053E+04  5.643783E+04  2.236673E-10 -1.021361E-10
       493  13 -8.213274E+05 -4.162664E+04 -4.836787E+04  5.160258E+04  1.051692E-11  5.210087E-12
       493  14 -8.164368E+05 -3.818722E+03 -2.311574E+04  4.141905E+04  2.586649E-10 -1.270423E-11
       493  15 -8.212934E+05  1.087126E+03 -1.395750E+04  5.162179E+04 -1.975717E-11 -6.351125E-11
       493  16 -1.281881E+06 -1.559908E+05 -1.589351E+05  7.456684E+04 -4.222565E-10 -2.502953E-11
       493  17 -1.209107E+06 -9.915879E+04 -1.066453E+05  5.049495E+04 -2.305250E-10  1.832941E-11
       493  18 -1.148635E+06 -7.779144E+04 -8.066114E+04  4.680834E+04 -2.412543E-10 -8.876365E-11
       493  19 -3.605777E+05  7.272416E+04  6.218480E+04  2.862125E+04  1.002845E+04  6.032498E+03
       493  20 -4.236206E+05  9.151204E+04  6.040599E+04  3.233751E+04  1.262581E+04  1.887867E+04
       493  21 -4.938491E+05  7.995954E+04  5.274167E+04  5.643806E+04  1.521577E+04  1.947961E+04
       493  22 -8.213262E+05 -4.162631E+04 -4.836578E+04  5.160274E+04  3.276630E+04  6.021239E+03
       493  23 -8.164363E+05 -3.818224E+03 -2.311426E+04  4.141936E+04  2.068194E+04  1.887627E+04
       493  24 -8.212932E+05  1.087553E+03 -1.395665E+04  5.162192E+04  8.589990E+03  1.948245E+04
       493  25 -1.281878E+06 -1.559900E+05 -1.589292E+05  7.456711E+04  5.548732E+04  6.011661E+03
       493  26 -1.209106E+06 -9.915818E+04 -1.066431E+05  5.049539E+04  2.873305E+04  1.887411E+04
       493  27 -1.148635E+06 -7.779103E+04 -8.066042E+04  4.680837E+04  1.967636E+03  1.948540E+04
       494   1 -5.402175E+05  6.559391E+04  4.539774E+04  5.108286E+04 -1.035699E+04 -1.647558E+04
       494   2 -6.066019E+05  5.104492E+04  3.463281E+04  4.093791E+04 -7.018273E+03 -1.302442E+04
       494   3 -6.737566E+05  3.503155E+04  2.133293E+04  5.191378E+04 -3.680519E+03 -8.910526E+03
       494   4 -8.193263E+05 -1.661702E+03 -1.155896E+04  5.178084E+04 -6.612640E+03 -1.647722E+04
       494   5 -8.188649E+05 -2.784324E+01 -8.298884E+03  4.122038E+04 -2.480932E+03 -1.302583E+04
       494   6 -8.193163E+05  3.649017E+00 -8.125741E+03  5.178123E+04  1.650161E+03 -8.911600E+03
       494   7 -1.098361E+06 -6.892218E+04 -6.851972E+04  5.247850E+04 -2.869945E+03 -1.647885E+04
       494   8 -1.031085E+06 -5.110340E+04 -5.123283E+04  4.150276E+04  2.054886E+03 -1.302724E+04
       494   9 -9.648557E+05 -3.502556E+04 -3.758541E+04  5.164871E+04  6.979614E+03 -8.912676E+03
       494  10 -5.402177E+05  6.559359E+04  4.539703E+04  5.108272E+04  2.720299E-11 -1.323696E-11
       494  11 -6.066020E+05  5.104473E+04  3.463240E+04  4.093784E+04  1.631266E-10  2.260290E-11
       494  12 -6.737567E+05  3.503146E+04  2.133276E+04  5.191375E+04  1.820342E-10 -7.936616E-11
       494  13 -8.193264E+05 -1.662005E+03 -1.155956E+04  5.178075E+04  4.879310E-11 -7.851397E-11
       494  14 -8.188650E+05 -2.802702E+01 -8.299215E+03  4.122036E+04  2.486001E-10  5.092597E-11
       494  15 -8.193163E+05  3.563035E+00 -8.125895E+03  5.178124E+04 -4.528965E-11 -9.660872E-11
       494  16 -1.098361E+06 -6.892248E+04 -6.852025E+04  5.247846E+04 -2.904894E-10 -1.375487E-10
       494  17 -1.031085E+06 -5.110358E+04 -5.123316E+04  4.150278E+04 -1.712161E-10 -1.159352E-11
       494  18 -9.648558E+05 -3.502565E+04 -3.758565E+04  5.164876E+04 -2.346857E-10 -1.778769E-11
       494  19 -5.402175E+05  6.559391E+04  4.539774E+04  5.108286E+04  1.035699E+04  1.647558E+04
       494  20 -6.066019E+05  5.104492E+04  3.463281E+04  4.093791E+04  7.018273E+03  1.302442E+04
       494  21 -6.737566E+05  3.503155E+04  2.133293E+04  5.191378E+04  3.680519E+03  8.910526E+03
       494  22 -8.193263E+05 -1.661702E+03 -1.155896E+04  5.178084E+04  6.612640E+03  1.647722E+04
       494  23 -8.188649E+05 -2.784324E+01 -8.298884E+03  4.122038E+04  2.480932E+03  1.302583E+04
       494  24 -8.193163E+05  3.649017E+00 -8.125741E+03  5.178123E+04 -1.650161E+03  8.911600E+03
       494  25 -1.098361E+06 -6.892218E+04 -6.851972E+04  5.247850E+04  2.869945E+03  1.647885E+04
       494  26 -1.031085E+06 -5.110340E+04 -5.123283E+04  4.150276E+04 -2.054886E+03  1.302724E+04
       494  27 -9.648557E+05 -3.502556E+04 -3.758541E+04  5.164871E+04 -6.979614E+03  8.912676E+03
       495   1 -7.219642E+05  2.354567E+04  1.052779E+04  5.114389E+04 -2.096576E+03 -6.301337E+03
       495   2 -7.879919E+05  7.257797E+03 -6.745631E+03  4.146069E+04  4.650323E+03 -2.071228E+03
       495   3 -8.556724E+05 -1.219538E+04 -2.920408E+04  5.294585E+04  1.139616E+04  1.858721E+03
       495   4 -8.194655E+05  1.336034E+02 -8.945662E+03  5.179180E+04  3.156120E+03 -6.302219E+03
       495   5 -8.186690E+05 -9.481377E+01 -1.280419E+04  4.120725E+04  9.542567E+03 -2.071987E+03
       495   6 -8.194677E+05 -3.425875E+03 -2.159726E+04  5.179124E+04  1.592866E+04  1.858071E+03
       495   7 -9.169576E+05 -2.327903E+04 -2.841949E+04  5.243960E+04  8.408007E+03 -6.303091E+03
       495   8 -8.493452E+05 -7.447469E+03 -1.886271E+04  4.095383E+04  1.443457E+04 -2.072751E+03
       495   9 -7.832617E+05  5.343557E+03 -1.399044E+04  5.063657E+04  2.046142E+04  1.857405E+03
       495  10 -7.219642E+05  2.354562E+04  1.052771E+04  5.114388E+04  7.189134E-11 -5.457245E-12
       495  11 -7.879919E+05  7.257787E+03 -6.745679E+03  4.146070E+04  4.632100E-11 -4.042353E-11
       495  12 -8.556725E+05 -1.219541E+04 -2.920433E+04  5.294584E+04  2.751277E-11 -9.142599E-11
       495  13 -8.194655E+05  1.335581E+02 -8.945756E+03  5.179181E+04  3.525475E-11 -1.771335E-12
       495  14 -8.186691E+05 -9.484286E+01 -1.280437E+04  4.120727E+04  1.257177E-10  3.845359E-11
       495  15 -8.194679E+05 -3.425947E+03 -2.159775E+04  5.179122E+04 -6.564529E-11 -6.564640E-11
       495  16 -9.169577E+05 -2.327909E+04 -2.841970E+04  5.243964E+04 -2.137661E-10 -1.339428E-10
       495  17 -8.493454E+05 -7.447530E+03 -1.886311E+04  4.095386E+04 -1.070719E-10  4.684658E-11
       495  18 -7.832621E+05  5.343440E+03 -1.399124E+04  5.063654E+04 -1.231414E-10  1.779163E-11
       495  19 -7.219642E+05  2.354567E+04  1.052779E+04  5.114389E+04  2.096576E+03  6.301337E+03
       495  20 -7.879919E+05  7.257797E+03 -6.745631E+03  4.146069E+04 -4.650323E+03  2.071228E+03
       495  21 -8.556724E+05 -1.219538E+04 -2.920408E+04  5.294585E+04 -1.139616E+04 -1.858721E+03
       495  22 -8.194655E+05  1.336034E+02 -8.945662E+03  5.179180E+04 -3.156120E+03  6.302219E+03
       495  23 -8.186690E+05 -9.481377E+01 -1.280419E+04  4.120725E+04 -9.542567E+03  2.071987E+03
       495  24 -8.194677E+05 -3.425875E+03 -2.159726E+04  5.179124E+04 -1.592866E+04 -1.858071E+03
       495  25 -9.169576E+05 -2.327903E+04 -2.841949E+04  5.243960E+04 -8.408007E+03  6.303091E+03
       495  26 -8.493452E+05 -7.447469E+03 -1.886271E+04  4.095383E+04 -1.443457E+04  2.072751E+03
       495  27 -7.832617E+05  5.343557E+03 -1.399044E+04  5.063657E+04 -2.046142E+04 -1.857405E+03
       496   1 -9.080876E+05 -1.806852E+04 -4.476726E+04  4.138655E+04  1.369178E+04  4.652911E+03
       496   2 -9.641266E+05 -4.454788E+04 -7.988885E+04  5.988212E+04  4.580008E+04  6.565441E+03
       496   3 -1.041809E+06 -1.409082E+05 -1.534039E+05  9.918933E+04  7.790345E+04  2.360278E+03
       496   4 -8.236353E+05  2.333459E+03 -2.727089E+04  5.171755E+04  1.965945E+04  4.652220E+03
       496   5 -8.134732E+05 -7.864644E+03 -4.731969E+04  4.130032E+04  4.443688E+04  6.564213E+03
       496   6 -8.236766E+05 -8.666202E+04 -1.006592E+05  5.169784E+04  6.921297E+04  2.356193E+03
       496   7 -7.391759E+05  2.273540E+04 -9.774712E+03  6.204997E+04  2.562793E+04  4.651727E+03
       496   8 -6.627978E+05  2.881839E+04 -1.475168E+04  2.271394E+04  4.307335E+04  6.563068E+03
       496   9 -6.054960E+05 -3.241079E+04 -4.791643E+04  4.189586E+03  6.051943E+04  2.353440E+03
       496  10 -9.080878E+05 -1.806859E+04 -4.476765E+04  4.138650E+04 -2.315334E-11 -3.969269E-11
       496  11 -9.641288E+05 -4.454849E+04 -7.989288E+04  5.988187E+04 -1.286410E-10 -5.756243E-11
       496  12 -1.041815E+06 -1.409099E+05 -1.534153E+05  9.918919E+04 -2.610904E-11  4.575125E-11
       496  13 -8.236357E+05  2.333332E+03 -2.727165E+04  5.171747E+04 -4.467107E-11 -3.636952E-11
       496  14 -8.134754E+05 -7.865222E+03 -4.732348E+04  4.130008E+04  1.326916E-10  1.373785E-10
       496  15 -8.236818E+05 -8.666332E+04 -1.006682E+05  5.169771E+04 -6.528554E-11 -2.854821E-11
       496  16 -7.391766E+05  2.273520E+04 -9.775988E+03  6.204988E+04 -2.151373E-10 -5.558867E-11
       496  17 -6.627998E+05  2.881785E+04 -1.475525E+04  2.271372E+04 -1.080781E-10  3.095087E-12
       496  18 -6.055000E+05 -3.241178E+04 -4.792333E+04  4.189471E+03 -7.132711E-11 -7.948636E-12
       496  19 -9.080876E+05 -1.806852E+04 -4.476726E+04  4.138655E+04 -1.369178E+04 -4.652911E+03
       496  20 -9.641266E+05 -4.454788E+04 -7.988885E+04  5.988212E+04 -4.580008E+04 -6.565441E+03
       496  21 -1.041809E+06 -1.409082E+05 -1.534039E+05  9.918933E+04 -7.790345E+04 -2.360278E+03
       496  22 -8.236353E+05  2.333459E+03 -2.727089E+04  5.171755E+04 -1.965945E+04 -4.652220E+03
       496  23 -8.134732E+05 -7.864644E+03 -4.731969E+04  4.130032E+04 -4.443688E+04 -6.564213E+03
       496  24 -8.236766E+05 -8.666202E+04 -1.006592E+05  5.169784E+04 -6.921297E+04 -2.356193E+03
       496  25 -7.391759E+05  2.273540E+04 -9.774712E+03  6.204997E+04 -2.562793E+04 -4.651727E+03
       496  26 -6.627978E+05  2.881839E+04 -1.475168E+04  2.271394E+04 -4.307335E+04 -6.563068E+03
       496  27 -6.054960E+05 -3.241079E+04 -4.791643E+04  4.189586E+03 -6.051943E+04 -2.353440E+03
       497   1 -3.201202E+05  2.299053E+04  1.312983E+04  7.788455E+03 -2.320409E+04 -3.628833E+03
       497   2 -3.586664E+05  5.311276E+04  2.453953E+04  1.670815E+04 -1.869972E+04 -1.130212E+04
       497   3 -4.066010E+05  4.794166E+04  2.419573E+04  3.888186E+04 -1.419365E+04 -1.150198E+04
       497   4 -6.004437E+05 -4.657605E+04 -5.414973E+04  3.337665E+04 -3.687766E+04 -3.626509E+03
       497   5 -5.949577E+05 -4.229800E+03 -2.573311E+04  2.675400E+04 -2.341373E+04 -1.130184E+04
       497   6 -6.004236E+05  1.258248E+03 -1.529988E+04  3.338643E+04 -9.947592E+03 -1.150268E+04
       497   7 -8.806933E+05 -1.161458E+05 -1.214338E+05  5.895324E+04 -5.054507E+04 -3.625313E+03
       497   8 -8.311960E+05 -6.157560E+04 -7.600881E+04  3.679597E+04 -2.812597E+04 -1.130171E+04
       497   9 -7.942104E+05 -4.542739E+04 -5.479738E+04  2.789276E+04 -5.702838E+03 -1.150345E+04
       497  10 -3.201208E+05  2.299037E+04  1.312879E+04  7.788387E+03  1.124944E-11  7.178271E-11
       497  11 -3.586668E+05  5.311253E+04  2.453863E+04  1.670798E+04 -1.404062E-11 -9.652508E-11
       497  12 -4.066013E+05  4.794147E+04  2.419511E+04  3.888173E+04  6.015264E-11 -2.783669E-10
       497  13 -6.004452E+05 -4.657643E+04 -5.415231E+04  3.337654E+04  4.061129E-11  1.136227E-10
       497  14 -5.949583E+05 -4.230085E+03 -2.573438E+04  2.675379E+04  2.172385E-10  5.873735E-11
       497  15 -6.004238E+05  1.258079E+03 -1.530031E+04  3.338634E+04  6.413949E-11  3.141513E-12
       497  16 -8.806961E+05 -1.161465E+05 -1.214386E+05  5.895309E+04 -2.228733E-10 -6.286054E-11
       497  17 -8.311969E+05 -6.157595E+04 -7.601054E+04  3.679572E+04  1.469111E-11  9.979119E-11
       497  18 -7.942104E+05 -4.542754E+04 -5.479769E+04  2.789271E+04 -6.974848E-11 -8.925925E-12
       497  19 -3.201202E+05  2.299053E+04  1.312983E+04  7.788455E+03  2.320409E+04  3.628833E+03
       497  20 -3.586664E+05  5.311276E+04  2.453953E+04  1.670815E+04  1.869972E+04  1.130212E+04
       497  21 -4.066010E+05  4.794166E+04  2.419573E+04  3.888186E+04  1.419365E+04  1.150198E+04
       497  22 -6.004437E+05 -4.657605E+04 -5.414973E+04  3.337665E+04  3.687766E+04  3.626509E+03
       497  23 -5.949577E+05 -4.229800E+03 -2.573311E+04  2.675400E+04  2.341373E+04  1.130184E+04
       497  24 -6.004236E+05  1.258248E+03 -1.529988E+04  3.338643E+04  9.947592E+03  1.150268E+04
       497  25 -8.806933E+05 -1.161458E+05 -1.214338E+05  5.895324E+04  5.054507E+04  3.625313E+03
       497  26 -8.311960E+05 -6.157560E+04 -7.600881E+04  3.679597E+04  2.812597E+04  1.130171E+04
       497  27 -7.942104E+05 -4.542739E+04 -5.479738E+04  2.789276E+04  5.702838E+03  1.150345E+04
       498   1 -4.357099E+05  3.732330E+04  2.068192E+04  3.278899E+04 -1.029142E+04 -9.570206E+03
       498   2 -4.785449E+05  2.865007E+04  1.564228E+04  2.640348E+04 -6.555004E+03 -7.297232E+03
       498   3 -5.222716E+05  1.831708E+04  7.755867E+03  3.370807E+04 -2.819140E+03 -4.622600E+03
       498   4 -5.982068E+05 -1.829013E+03 -1.248854E+04  3.348082E+04 -7.804385E+03 -9.570665E+03
       498   5 -5.977156E+05 -2.031781E+01 -8.467184E+03  2.663574E+04 -3.587292E+03 -7.297571E+03
       498   6 -5.982025E+05  4.476217E+01 -7.627376E+03  3.348096E+04  6.294979E+02 -4.622781E+03
       498   7 -7.606785E+05 -4.098297E+04 -4.566037E+04  3.417246E+04 -5.317993E+03 -9.571118E+03
       498   8 -7.168728E+05 -2.869158E+04 -3.257735E+04  2.686795E+04 -6.201391E+02 -7.297907E+03
       498   9 -6.741278E+05 -1.822791E+04 -2.301087E+04  3.325388E+04  4.077721E+03 -4.622965E+03
       498  10 -4.357100E+05  3.732317E+04  2.068155E+04  3.278891E+04 -1.449075E-11 -1.515869E-10
       498  11 -4.785449E+05  2.865000E+04  1.564210E+04  2.640344E+04 -1.127443E-10 -2.049390E-11
       498  12 -5.222716E+05  1.831706E+04  7.755812E+03  3.370806E+04 -1.702163E-10  1.078573E-10
       498  13 -5.982068E+05 -1.829127E+03 -1.248883E+04  3.348076E+04 -4.546625E-11 -5.520864E-11
       498  14 -5.977156E+05 -2.037844E+01 -8.467308E+03  2.663572E+04 -5.229766E-11 -1.193574E-10
       498  15 -5.982025E+05  4.473913E+01 -7.627417E+03  3.348096E+04  7.082172E-11  9.599671E-11
       498  16 -7.606786E+05 -4.098308E+04 -4.566060E+04  3.417242E+04 -5.408497E-11  5.905713E-12
       498  17 -7.168728E+05 -2.869164E+04 -3.257745E+04  2.686795E+04 -2.806193E-11  2.534804E-11
       498  18 -6.741278E+05 -1.822794E+04 -2.301094E+04  3.325390E+04  1.571403E-10  4.682916E-11
       498  19 -4.357099E+05  3.732330E+04  2.068192E+04  3.278899E+04  1.029142E+04  9.570206E+03
       498  20 -4.785449E+05  2.865007E+04  1.564228E+04  2.640348E+04  6.555004E+03  7.297232E+03
       498  21 -5.222716E+05  1.831708E+04  7.755867E+03  3.370807E+04  2.819140E+03  4.622600E+03
       498  22 -5.982068E+05 -1.829013E+03 -1.248854E+04  3.348082E+04  7.804385E+03  9.570665E+03
       498  23 -5.977156E+05 -2.031781E+01 -8.467184E+03  2.663574E+04  3.587292E+03  7.297571E+03
       498  24 -5.982025E+05  4.476217E+01 -7.627376E+03  3.348096E+04 -6.294979E+02  4.622781E+03
       498  25 -7.606785E+05 -4.098297E+04 -4.566037E+04  3.417246E+04  5.317993E+03  9.571118E+03
       498  26 -7.168728E+05 -2.869158E+04 -3.257735E+04  2.686795E+04  6.201391E+02  7.297907E+03
       498  27 -6.741278E+05 -1.822791E+04 -2.301087E+04  3.325388E+04 -4.077721E+03  4.622965E+03
       499   1 -5.534910E+05  1.086324E+04  8.367601E+02  3.298954E+04 -1.394486E+03 -2.932056E+03
       499   2 -5.961046E+05  2.847586E+02 -1.072481E+04  2.686367E+04  4.329240E+03 -1.999857E+02
       499   3 -6.401136E+05 -1.290903E+04 -2.666875E+04  3.444861E+04  1.005261E+04  2.310089E+03
       499   4 -5.982844E+05  1.157286E+02 -8.078204E+03  3.348553E+04  2.015064E+03 -2.932180E+03
       499   5 -5.976103E+05 -6.067428E+01 -1.094531E+04  2.663005E+04  7.472462E+03 -2.001009E+02
       499   6 -5.982863E+05 -2.805787E+03 -1.800935E+04  3.348542E+04  1.292988E+04  2.309974E+03
       499   7 -6.430758E+05 -1.063189E+04 -1.699322E+04  3.398149E+04  5.424372E+03 -2.932298E+03
       499   8 -5.991159E+05 -4.061017E+02 -1.116577E+04  2.639643E+04  1.061568E+04 -2.002185E+02
       499   9 -5.564573E+05  7.297354E+03 -9.350022E+03  3.252217E+04  1.580735E+04  2.309851E+03
       499  10 -5.534910E+05  1.086323E+04  8.367403E+02  3.298954E+04  3.711631E-10  1.196090E-10
       499  11 -5.961046E+05  2.847535E+02 -1.072485E+04  2.686367E+04  8.027709E-11 -2.353198E-10
       499  12 -6.401138E+05 -1.290906E+04 -2.666895E+04  3.444859E+04  3.456494E-11 -1.237269E-10
       499  13 -5.982844E+05  1.157183E+02 -8.078227E+03  3.348554E+04  3.699155E-11  1.365882E-10
       499  14 -5.976103E+05 -6.068933E+01 -1.094542E+04  2.663005E+04  1.467352E-10 -1.508729E-10
       499  15 -5.982865E+05 -2.805837E+03 -1.800968E+04  3.348540E+04  1.370645E-10  1.266966E-11
       499  16 -6.430758E+05 -1.063191E+04 -1.699329E+04  3.398150E+04 -4.068954E-10 -9.127449E-12
       499  17 -5.991161E+05 -4.061321E+02 -1.116598E+04  2.639643E+04  4.378575E-12  4.032588E-11
       499  18 -5.564576E+05  7.297281E+03 -9.350502E+03  3.252214E+04  1.364973E-10 -7.109154E-12
       499  19 -5.534910E+05  1.086324E+04  8.367601E+02  3.298954E+04  1.394486E+03  2.932056E+03
       499  20 -5.961046E+05  2.847586E+02 -1.072481E+04  2.686367E+04 -4.329240E+03  1.999857E+02
       499  21 -6.401136E+05 -1.290903E+04 -2.666875E+04  3.444861E+04 -1.005261E+04 -2.310089E+03
       499  22 -5.982844E+05  1.157286E+02 -8.078204E+03  3.348553E+04 -2.015064E+03  2.932180E+03
       499  23 -5.976103E+05 -6.067428E+01 -1.094531E+04  2.663005E+04 -7.472462E+03  2.001009E+02
       499  24 -5.982863E+05 -2.805787E+03 -1.800935E+04  3.348542E+04 -1.292988E+04 -2.309974E+03
       499  25 -6.430758E+05 -1.063189E+04 -1.699322E+04  3.398149E+04 -5.424372E+03  2.932298E+03
       499  26 -5.991159E+05 -4.061017E+02 -1.116577E+04  2.639643E+04 -1.061568E+04  2.002185E+02
       499  27 -5.564573E+05  7.297354E+03 -9.350022E+03  3.252217E+04 -1.580735E+04 -2.309851E+03
       500   1 -6.748046E+05 -1.570325E+04 -3.767608E+04  2.492765E+04  1.212081E+04  4.136268E+03
       500   2 -7.092741E+05 -3.466375E+04 -6.399905E+04  4.199959E+04  3.787059E+04  5.187077E+03
       500   3 -7.614486E+05 -1.110342E+05 -1.214507E+05  7.252986E+04  6.361784E+04  1.811430E+03
       500   4 -6.017133E+05  1.935202E+03 -2.262199E+04  3.343150E+04  1.603754E+04  4.136244E+03
       500   5 -5.933348E+05 -6.465536E+03 -3.904547E+04  2.669797E+04  3.648117E+04  5.186173E+03
       500   6 -6.017374E+05 -7.134999E+04 -8.290625E+04  3.342479E+04  5.692423E+04  1.808043E+03
       500   7 -5.286167E+05  1.957359E+04 -7.568093E+03  4.193636E+04  1.995471E+04  4.136327E+03
       500   8 -4.773823E+05  2.173268E+04 -1.409254E+04  1.139346E+04  3.509150E+04  5.185338E+03
       500   9 -4.419995E+05 -3.166184E+04 -4.436265E+04 -5.690383E+03  5.022891E+04  1.805502E+03
       500  10 -6.748048E+05 -1.570331E+04 -3.767639E+04  2.492761E+04 -1.218371E-10 -1.118452E-10
       500  11 -7.092756E+05 -3.466417E+04 -6.400180E+04  4.199943E+04  6.816654E-11  1.382427E-10
       500  12 -7.614529E+05 -1.110353E+05 -1.214583E+05  7.252977E+04  9.641587E-11  1.007250E-10
       500  13 -6.017136E+05  1.935114E+03 -2.262251E+04  3.343144E+04 -8.409880E-12  5.064288E-11
       500  14 -5.933362E+05 -6.465923E+03 -3.904802E+04  2.669782E+04 -1.086820E-10  9.678155E-11
       500  15 -6.017409E+05 -7.135087E+04 -8.291235E+04  3.342471E+04  6.707693E-11  6.675310E-11
       500  16 -5.286171E+05  1.957347E+04 -7.568874E+03  4.193630E+04 -6.564768E-12  5.995127E-11
       500  17 -4.773837E+05  2.173232E+04 -1.409491E+04  1.139332E+04  3.261547E-11  1.068388E-10
       500  18 -4.420022E+05 -3.166252E+04 -4.436740E+04 -5.690456E+03 -6.807050E-11 -8.060515E-11
       500  19 -6.748046E+05 -1.570325E+04 -3.767608E+04  2.492765E+04 -1.212081E+04 -4.136268E+03
       500  20 -7.092741E+05 -3.466375E+04 -6.399905E+04  4.199959E+04 -3.787059E+04 -5.187077E+03
       500  21 -7.614486E+05 -1.110342E+05 -1.214507E+05  7.252986E+04 -6.361784E+04 -1.811430E+03
       500  22 -6.017133E+05  1.935202E+03 -2.262199E+04  3.343150E+04 -1.603754E+04 -4.136244E+03
       500  23 -5.933348E+05 -6.465536E+03 -3.904547E+04  2.669797E+04 -3.648117E+04 -5.186173E+03
       500  24 -6.017374E+05 -7.134999E+04 -8.290625E+04  3.342479E+04 -5.692423E+04 -1.808043E+03
       500  25 -5.286167E+05  1.957359E+04 -7.568093E+03  4.193636E+04 -1.995471E+04 -4.136327E+03
       500  26 -4.773823E+05  2.173268E+04 -1.409254E+04  1.139346E+04 -3.509150E+04 -5.185338E+03
       500  27 -4.419995E+05 -3.166184E+04 -4.436265E+04 -5.690383E+03 -5.022891E+04 -1.805502E+03
       501   1 -5.116546E+04  4.598915E+04  4.038300E+04  2.281607E+04 -3.506368E+03 -3.460222E+03
       501   2 -9.411444E+04  5.261117E+04  3.609757E+04  2.297013E+04 -6.032308E+03 -1.068977E+04
       501   3 -1.404980E+05  4.411301E+04  2.967930E+04  3.684416E+04 -8.557102E+03 -1.069555E+04
       501   4 -3.213028E+05 -2.102120E+04 -2.446191E+04  3.437008E+04 -1.651089E+04 -3.459241E+03
       501   5 -3.188261E+05 -1.909466E+03 -1.174163E+04  2.751023E+04 -1.037045E+04 -1.068994E+04
       501   6 -3.212933E+05  5.738144E+02 -7.175498E+03  3.437115E+04 -4.229109E+03 -1.069565E+04
       501   7 -5.913727E+05 -8.803627E+04 -8.931130E+04  4.591905E+04 -2.950978E+04 -3.458743E+03
       501   8 -5.434900E+05 -5.643330E+04 -5.958364E+04  3.204867E+04 -1.470705E+04 -1.069019E+04
       501   9 -5.020575E+05 -4.296740E+04 -4.403194E+04  3.189888E+04  9.764638E+01 -1.069578E+04
       501  10 -5.116547E+04  4.598913E+04  4.038296E+04  2.281606E+04  1.765182E-10 -9.032707E-11
       501  11 -9.411451E+04  5.261104E+04  3.609729E+04  2.297007E+04 -4.698009E-11 -2.738018E-10
       501  12 -1.404981E+05  4.411287E+04  2.967895E+04  3.684409E+04 -2.056088E-10 -1.332869E-11
       501  13 -3.213031E+05 -2.102129E+04 -2.446245E+04  3.437003E+04  2.854505E-11 -1.996216E-10
       501  14 -3.188262E+05 -1.909617E+03 -1.174204E+04  2.751014E+04  4.844638E-11 -1.746133E-10
       501  15 -3.212934E+05  5.736868E+02 -7.175746E+03  3.437112E+04 -2.368678E-11  2.304327E-11
       501  16 -5.913737E+05 -8.803652E+04 -8.931296E+04  4.591897E+04 -3.514668E-10 -4.475328E-11
       501  17 -5.434903E+05 -5.643348E+04 -5.958426E+04  3.204855E+04  8.869240E-11 -1.790009E-10
       501  18 -5.020576E+05 -4.296752E+04 -4.403216E+04  3.189888E+04  3.335349E-10 -6.205154E-11
       501  19 -5.116546E+04  4.598915E+04  4.038300E+04  2.281607E+04  3.506368E+03  3.460222E+03
       501  20 -9.411444E+04  5.261117E+04  3.609757E+04  2.297013E+04  6.032308E+03  1.068977E+04
       501  21 -1.404980E+05  4.411301E+04  2.967930E+04  3.684416E+04  8.557102E+03  1.069555E+04
       501  22 -3.213028E+05 -2.102120E+04 -2.446191E+04  3.437008E+04  1.651089E+04  3.459241E+03
       501  23 -3.188261E+05 -1.909466E+03 -1.174163E+04  2.751023E+04  1.037045E+04  1.068994E+04
       501  24 -3.212933E+05  5.738144E+02 -7.175498E+03  3.437115E+04  4.229109E+03  1.069565E+04
       501  25 -5.913727E+05 -8.803627E+04 -8.931130E+04  4.591905E+04  2.950978E+04  3.458743E+03
       501  26 -5.434900E+05 -5.643330E+04 -5.958364E+04  3.204867E+04  1.470705E+04  1.069019E+04
       501  27 -5.020575E+05 -4.296740E+04 -4.403194E+04  3.189888E+04 -9.764638E+01  1.069578E+04
       502   1 -1.718170E+05  3.495353E+04  2.431338E+04  3.413334E+04 -5.830858E+03 -8.719347E+03
       502   2 -2.162604E+05  2.497364E+04  1.651844E+04  2.726601E+04 -4.059924E+03 -6.337391E+03
       502   3 -2.611157E+05  1.425602E+04  7.386030E+03  3.452207E+04 -2.289364E+03 -3.570168E+03
       502   4 -3.203026E+05 -8.155321E+02 -6.006460E+03  3.446037E+04 -3.203868E+03 -8.719380E+03
       502   5 -3.200543E+05  7.636921E+00 -4.486993E+03  2.739857E+04 -9.712190E+02 -6.337255E+03
       502   6 -3.202995E+05  1.305886E+01 -4.625758E+03  3.446031E+04  1.261187E+03 -3.569826E+03
       502   7 -4.687671E+05 -3.658597E+04 -3.632744E+04  3.478731E+04 -5.774952E+02 -8.719411E+03
       502   8 -4.238379E+05 -2.495903E+04 -2.549294E+04  2.753110E+04  2.116979E+03 -6.337117E+03
       502   9 -3.794799E+05 -1.423011E+04 -1.663768E+04  3.439856E+04  4.811404E+03 -3.569486E+03
       502  10 -1.718171E+05  3.495344E+04  2.431317E+04  3.413330E+04  3.297077E-10  7.560016E-11
       502  11 -2.162605E+05  2.497359E+04  1.651833E+04  2.726599E+04  2.759645E-11 -1.224345E-10
       502  12 -2.611157E+05  1.425600E+04  7.385996E+03  3.452206E+04 -1.195072E-10 -1.999192E-11
       502  13 -3.203026E+05 -8.156165E+02 -6.006623E+03  3.446034E+04  3.352994E-10  1.452349E-10
       502  14 -3.200543E+05  7.593549E+00 -4.487070E+03  2.739856E+04 -1.207805E-10  1.849863E-10
       502  15 -3.202995E+05  1.304475E+01 -4.625785E+03  3.446032E+04 -2.345204E-11  1.298980E-10
       502  16 -4.687672E+05 -3.658605E+04 -3.632758E+04  3.478731E+04 -1.756673E-10  9.501265E-11
       502  17 -4.238379E+05 -2.495907E+04 -2.549303E+04  2.753111E+04  8.991856E-11 -3.737223E-11
       502  18 -3.794799E+05 -1.423013E+04 -1.663775E+04  3.439858E+04  1.219646E-10  1.253129E-10
       502  19 -1.718170E+05  3.495353E+04  2.431338E+04  3.413334E+04  5.830858E+03  8.719347E+03
       502  20 -2.162604E+05  2.497364E+04  1.651844E+04  2.726601E+04  4.059924E+03  6.337391E+03
       502  21 -2.611157E+05  1.425602E+04  7.386030E+03  3.452207E+04  2.289364E+03  3.570168E+03
       502  22 -3.203026E+05 -8.155321E+02 -6.006460E+03  3.446037E+04  3.203868E+03  8.719380E+03
       502  23 -3.200543E+05  7.636921E+00 -4.486993E+03  2.739857E+04  9.712190E+02  6.337255E+03
       502  24 -3.202995E+05  1.305886E+01 -4.625758E+03  3.446031E+04 -1.261187E+03  3.569826E+03
       502  25 -4.687671E+05 -3.658597E+04 -3.632744E+04  3.478731E+04  5.774952E+02  8.719411E+03
       502  26 -4.238379E+05 -2.495903E+04 -2.549294E+04  2.753110E+04 -2.116979E+03  6.337117E+03
       502  27 -3.794799E+05 -1.423011E+04 -1.663768E+04  3.439856E+04 -4.811404E+03  3.569486E+03
       503   1 -2.933259E+05  6.589939E+03  1.414159E+02  3.406851E+04 -1.394102E+03 -1.827137E+03
       503   2 -3.374747E+05 -4.283539E+03 -1.128569E+04  2.754450E+04  2.736487E+03  9.810048E+02
       503   3 -3.826433E+05 -1.708535E+04 -2.588576E+04  3.515403E+04  6.866825E+03  3.531840E+03
       503   4 -3.204043E+05  1.035595E+02 -5.203202E+03  3.446251E+04  2.128211E+03 -1.826757E+03
       503   5 -3.199210E+05 -4.676928E+01 -7.661781E+03  2.739584E+04  5.950139E+03  9.813232E+02
       503   6 -3.204056E+05 -2.071623E+03 -1.307868E+04  3.446273E+04  9.772103E+03  3.532098E+03
       503   7 -3.474820E+05 -6.382857E+03 -1.054781E+04  3.485650E+04  5.650374E+03 -1.826372E+03
       503   8 -3.023671E+05  4.189986E+03 -4.037853E+03  2.724719E+04  9.163881E+03  9.816400E+02
       503   9 -2.581643E+05  1.294186E+04 -2.717777E+02  3.377137E+04  1.267767E+04  3.532351E+03
       503  10 -2.933259E+05  6.589935E+03  1.414060E+02  3.406851E+04  9.798724E-11 -1.373716E-10
       503  11 -3.374747E+05 -4.283542E+03 -1.128570E+04  2.754449E+04  3.109938E-11 -1.351655E-10
       503  12 -3.826433E+05 -1.708537E+04 -2.588587E+04  3.515401E+04 -4.947573E-11  7.865436E-11
       503  13 -3.204043E+05  1.035547E+02 -5.203217E+03  3.446252E+04 -2.145220E-10  9.194555E-11
       503  14 -3.199211E+05 -4.677983E+01 -7.661850E+03  2.739584E+04 -3.415882E-11  4.484963E-11
       503  15 -3.204057E+05 -2.071662E+03 -1.307888E+04  3.446271E+04  4.881563E-11 -8.963160E-11
       503  16 -3.474820E+05 -6.382869E+03 -1.054788E+04  3.485651E+04 -1.982861E-10  6.116543E-12
       503  17 -3.023672E+05  4.189963E+03 -4.038012E+03  2.724718E+04  3.515257E-11 -1.735359E-11
       503  18 -2.581644E+05  1.294181E+04 -2.721033E+02  3.377133E+04  1.499730E-10  1.048074E-10
       503  19 -2.933259E+05  6.589939E+03  1.414159E+02  3.406851E+04  1.394102E+03  1.827137E+03
       503  20 -3.374747E+05 -4.283539E+03 -1.128569E+04  2.754450E+04 -2.736487E+03 -9.810048E+02
       503  21 -3.826433E+05 -1.708535E+04 -2.588576E+04  3.515403E+04 -6.866825E+03 -3.531840E+03
       503  22 -3.204043E+05  1.035595E+02 -5.203202E+03  3.446251E+04 -2.128211E+03  1.826757E+03
       503  23 -3.199210E+05 -4.676928E+01 -7.661781E+03  2.739584E+04 -5.950139E+03 -9.813232E+02
       503  24 -3.204056E+05 -2.071623E+03 -1.307868E+04  3.446273E+04 -9.772103E+03 -3.532098E+03
       503  25 -3.474820E+05 -6.382857E+03 -1.054781E+04  3.485650E+04 -5.650374E+03  1.826372E+03
       503  26 -3.023671E+05  4.189986E+03 -4.037853E+03  2.724719E+04 -9.163881E+03 -9.816400E+02
       503  27 -2.581643E+05  1.294186E+04 -2.717777E+02  3.377137E+04 -1.267767E+04 -3.532351E+03
       504   1 -4.174303E+05 -2.134915E+04 -3.594337E+04  2.809348E+04  7.941780E+03  5.431655E+03
       504   2 -4.553858E+05 -3.846720E+04 -5.853305E+04  3.877389E+04  2.907291E+04  6.319897E+03
       504   3 -5.067948E+05 -9.840104E+04 -1.055901E+05  6.331105E+04  5.020195E+04  2.161541E+03
       504   4 -3.229463E+05  1.434340E+03 -1.655496E+04  3.440135E+04  1.203313E+04  5.432037E+03
       504   5 -3.167516E+05 -4.781889E+03 -2.879490E+04  2.747302E+04  2.711324E+04  6.319166E+03
       504   6 -3.229585E+05 -5.275855E+04 -6.129508E+04  3.440304E+04  4.219304E+04  2.159007E+03
       504   7 -2.284538E+05  2.421743E+04  2.833060E+03  4.071020E+04  1.612508E+04  5.432502E+03
       504   8 -1.780991E+05  2.890264E+04  9.422128E+02  1.616958E+04  2.515315E+04  6.318507E+03
       504   9 -1.390893E+05 -7.115352E+03 -1.700180E+04  5.486432E+03  3.418176E+04  2.157221E+03
       504  10 -4.174304E+05 -2.134920E+04 -3.594354E+04  2.809344E+04  1.047213E-10  9.280130E-11
       504  11 -4.553867E+05 -3.846747E+04 -5.853471E+04  3.877374E+04  1.904352E-10  9.317324E-11
       504  12 -5.067975E+05 -9.840172E+04 -1.055948E+05  6.331097E+04 -4.042672E-12 -3.546718E-11
       504  13 -3.229465E+05  1.434270E+03 -1.655528E+04  3.440130E+04  7.436923E-11  1.176276E-10
       504  14 -3.167524E+05 -4.782130E+03 -2.879636E+04  2.747288E+04  1.891014E-10  1.931056E-10
       504  15 -3.229604E+05 -5.275903E+04 -6.129844E+04  3.440297E+04 -3.633471E-11 -2.732856E-11
       504  16 -2.284540E+05  2.421733E+04  2.832515E+03  4.071013E+04 -9.576760E-11  1.177352E-10
       504  17 -1.780998E+05  2.890243E+04  9.409485E+02  1.616945E+04 -4.485796E-11  4.045144E-11
       504  18 -1.390905E+05 -7.115671E+03 -1.700401E+04  5.486373E+03 -1.195359E-10  4.583067E-11
       504  19 -4.174303E+05 -2.134915E+04 -3.594337E+04  2.809348E+04 -7.941780E+03 -5.431655E+03
       504  20 -4.553858E+05 -3.846720E+04 -5.853305E+04  3.877389E+04 -2.907291E+04 -6.319897E+03
       504  21 -5.067948E+05 -9.840104E+04 -1.055901E+05  6.331105E+04 -5.020195E+04 -2.161541E+03
       504  22 -3.229463E+05  1.434340E+03 -1.655496E+04  3.440135E+04 -1.203313E+04 -5.432037E+03
       504  23 -3.167516E+05 -4.781889E+03 -2.879490E+04  2.747302E+04 -2.711324E+04 -6.319166E+03
       504  24 -3.229585E+05 -5.275855E+04 -6.129508E+04  3.440304E+04 -4.219304E+04 -2.159007E+03
       504  25 -2.284538E+05  2.421743E+04  2.833060E+03  4.071020E+04 -1.612508E+04 -5.432502E+03
       504  26 -1.780991E+05  2.890264E+04  9.422128E+02  1.616958E+04 -2.515315E+04 -6.318507E+03
       504  27 -1.390893E+05 -7.115352E+03 -1.700180E+04  5.486432E+03 -3.418176E+04 -2.157221E+03
       505   1  2.820166E+05  7.162599E+04  7.209500E+04  4.016184E+04  2.257180E+04 -2.905754E+03
       505   2  2.376782E+05  4.701193E+04  4.778093E+04  2.890604E+04  1.111960E+04 -8.884947E+03
       505   3  1.979960E+05  3.503006E+04  3.407956E+04  3.059158E+04 -3.317544E+02 -8.654763E+03
       505   4  5.092000E+04  1.431736E+04  1.660277E+04  3.231910E+04  1.166558E+04 -2.906317E+03
       505   5  4.924134E+04  1.298662E+03  7.621656E+03  2.584881E+04  7.668705E+03 -8.885418E+03
       505   6  5.092524E+04 -3.795015E+02  4.078923E+03  3.231981E+04  3.671929E+03 -8.654466E+03
       505   7 -1.801273E+05 -4.299485E+04 -3.889277E+04  2.447928E+04  7.634047E+02 -2.906606E+03
       505   8 -1.391621E+05 -4.441688E+04 -3.253962E+04  2.279252E+04  4.218841E+03 -8.885855E+03
       505   9 -9.612488E+04 -3.579039E+04 -2.592280E+04  3.404762E+04  7.674682E+03 -8.654146E+03
       505  10  2.820160E+05  7.162584E+04  7.209403E+04  4.016189E+04 -1.168970E-10 -5.337620E-12
       505  11  2.376781E+05  4.701182E+04  4.778055E+04  2.890612E+04 -2.111792E-10 -1.679493E-10
       505  12  1.979959E+05  3.502998E+04  3.407942E+04  3.059158E+04 -5.352298E-11 -4.264889E-11
       505  13  5.091985E+04  1.431732E+04  1.660250E+04  3.231912E+04 -7.867364E-13  7.313629E-11
       505  14  4.924125E+04  1.298562E+03  7.621397E+03  2.584887E+04 -2.294951E-10 -7.569513E-11
       505  15  5.092521E+04 -3.795855E+02  4.078757E+03  3.231983E+04  2.352723E-10 -5.436252E-11
       505  16 -1.801273E+05 -4.299486E+04 -3.889279E+04  2.447929E+04  1.811990E-10  9.659946E-11
       505  17 -1.391621E+05 -4.441697E+04 -3.253980E+04  2.279255E+04 -5.358990E-11 -3.294133E-11
       505  18 -9.612497E+04 -3.579049E+04 -2.592305E+04  3.404767E+04 -6.634818E-11  1.114401E-10
       505  19  2.820166E+05  7.162599E+04  7.209500E+04  4.016184E+04 -2.257180E+04  2.905754E+03
       505  20  2.376782E+05  4.701193E+04  4.778093E+04  2.890604E+04 -1.111960E+04  8.884947E+03
       505  21  1.979960E+05  3.503006E+04  3.407956E+04  3.059158E+04  3.317544E+02  8.654763E+03
       505  22  5.092000E+04  1.431736E+04  1.660277E+04  3.231910E+04 -1.166558E+04  2.906317E+03
       505  23  4.924134E+04  1.298662E+03  7.621656E+03  2.584881E+04 -7.668705E+03  8.885418E+03
       505  24  5.092524E+04 -3.795015E+02  4.078923E+03  3.231981E+04 -3.671929E+03  8.654466E+03
       505  25 -1.801273E+05 -4.299485E+04 -3.889277E+04  2.447928E+04 -7.634047E+02  2.906606E+03
       505  26 -1.391621E+05 -4.441688E+04 -3.253962E+04  2.279252E+04 -4.218841E+03  8.885855E+03
       505  27 -9.612488E+04 -3.579039E+04 -2.592280E+04  3.404762E+04 -7.674682E+03  8.654146E+03
       506   1  1.669472E+05  2.869020E+04  2.683196E+04  3.255243E+04  6.054926E+02 -6.818691E+03
       506   2  1.248731E+05  1.801364E+04  1.619390E+04  2.575159E+04 -3.184690E+02 -4.537610E+03
       506   3  8.305116E+04  7.865803E+03  6.288767E+03  3.221756E+04 -1.242584E+03 -1.928851E+03
       506   4  5.022014E+04  5.775320E+02  2.981119E+03  3.239204E+04  3.146475E+03 -6.818450E+03
       506   5  5.012996E+04  3.876061E+01  1.055014E+03  2.575864E+04  2.615849E+03 -4.537219E+03
       506   6  5.022216E+04 -3.939931E+01 -4.110951E+02  3.239215E+04  2.085010E+03 -1.928285E+03
       506   7 -6.649397E+04 -2.753598E+04 -2.087042E+04  3.223168E+04  5.686988E+03 -6.818211E+03
       506   8 -2.460781E+04 -1.793646E+04 -1.408413E+04  2.576569E+04  5.549821E+03 -4.536827E+03
       506   9  1.739420E+04 -7.944663E+03 -7.110973E+03  3.256672E+04  5.412431E+03 -1.927718E+03
       506  10  1.669472E+05  2.869015E+04  2.683187E+04  3.255243E+04  1.391935E-10 -5.190685E-11
       506  11  1.248731E+05  1.801362E+04  1.619386E+04  2.575158E+04 -2.155869E-10 -5.532453E-11
       506  12  8.305116E+04  7.865798E+03  6.288757E+03  3.221756E+04  9.285967E-11  7.826295E-12
       506  13  5.022011E+04  5.774794E+02  2.981013E+03  3.239206E+04  1.266582E-10 -1.527088E-10
       506  14  5.012994E+04  3.873667E+01  1.054963E+03  2.575865E+04  2.939829E-10 -1.076602E-10
       506  15  5.022215E+04 -3.940447E+01 -4.111103E+02  3.239215E+04  1.229585E-10 -9.752229E-11
       506  16 -6.649402E+04 -2.753604E+04 -2.087057E+04  3.223171E+04  1.079094E-10 -5.102698E-11
       506  17 -2.460785E+04 -1.793649E+04 -1.408422E+04  2.576571E+04  8.737915E-11  1.107251E-10
       506  18  1.739417E+04 -7.944675E+03 -7.111035E+03  3.256673E+04 -6.751838E-12 -9.477762E-11
       506  19  1.669472E+05  2.869020E+04  2.683196E+04  3.255243E+04 -6.054926E+02  6.818691E+03
       506  20  1.248731E+05  1.801364E+04  1.619390E+04  2.575159E+04  3.184690E+02  4.537610E+03
       506  21  8.305116E+04  7.865803E+03  6.288767E+03  3.221756E+04  1.242584E+03  1.928851E+03
       506  22  5.022014E+04  5.775320E+02  2.981119E+03  3.239204E+04 -3.146475E+03  6.818450E+03
       506  23  5.012996E+04  3.876061E+01  1.055014E+03  2.575864E+04 -2.615849E+03  4.537219E+03
       506  24  5.022216E+04 -3.939931E+01 -4.110951E+02  3.239215E+04 -2.085010E+03  1.928285E+03
       506  25 -6.649397E+04 -2.753598E+04 -2.087042E+04  3.223168E+04 -5.686988E+03  6.818211E+03
       506  26 -2.460781E+04 -1.793646E+04 -1.408413E+04  2.576569E+04 -5.549821E+03  4.536827E+03
       506  27  1.739420E+04 -7.944663E+03 -7.110973E+03  3.256672E+04 -5.412431E+03  1.927718E+03
       507   1  5.276967E+04  6.993944E+02 -7.028335E+02  3.214217E+04 -1.093842E+03 -2.924248E+02
       507   2  1.106219E+04 -9.477499E+03 -1.096420E+04  2.578508E+04  7.252551E+02  2.333295E+03
       507   3 -3.111775E+04 -2.059323E+04 -2.264552E+04  3.269754E+04  2.544326E+03  4.683832E+03
       507   4  5.008911E+04  7.506043E+01 -1.144604E+03  3.239267E+04  2.221977E+03 -2.918445E+02
       507   5  5.029730E+04 -3.361426E+01 -2.978508E+03  2.575801E+04  3.710842E+03  2.333760E+03
       507   6  5.008817E+04 -1.023794E+03 -6.003046E+03  3.239286E+04  5.199805E+03  4.684195E+03
       507   7  4.740859E+04 -5.492678E+02 -1.586333E+03  3.264318E+04  5.537782E+03 -2.912615E+02
       507   8  8.953390E+04  9.410179E+03  5.007140E+03  2.573094E+04  6.696614E+03  2.334226E+03
       507   9  1.313004E+05  1.854523E+04  1.063910E+04  3.208814E+04  7.855625E+03  4.684555E+03
       507  10  5.276966E+04  6.993940E+02 -7.028359E+02  3.214217E+04 -7.682534E-11 -1.190515E-10
       507  11  1.106219E+04 -9.477505E+03 -1.096421E+04  2.578508E+04 -1.201827E-10  6.975837E-11
       507  12 -3.111776E+04 -2.059326E+04 -2.264558E+04  3.269753E+04  2.628362E-11 -2.295708E-11
       507  13  5.008911E+04  7.505901E+01 -1.144613E+03  3.239267E+04  1.052579E-12 -9.372431E-11
       507  14  5.029729E+04 -3.362380E+01 -2.978544E+03  2.575800E+04 -1.002273E-11 -3.931475E-10
       507  15  5.008814E+04 -1.023825E+03 -6.003138E+03  3.239284E+04 -1.788418E-10 -6.472018E-11
       507  16  4.740856E+04 -5.492761E+02 -1.586391E+03  3.264318E+04  7.864540E-11 -1.928965E-11
       507  17  8.953385E+04  9.410161E+03  5.007045E+03  2.573093E+04  9.454649E-11 -9.014270E-11
       507  18  1.313003E+05  1.854519E+04  1.063895E+04  3.208811E+04 -1.128939E-10 -1.193075E-10
       507  19  5.276967E+04  6.993944E+02 -7.028335E+02  3.214217E+04  1.093842E+03  2.924248E+02
       507  20  1.106219E+04 -9.477499E+03 -1.096420E+04  2.578508E+04 -7.252551E+02 -2.333295E+03
       507  21 -3.111775E+04 -2.059323E+04 -2.264552E+04  3.269754E+04 -2.544326E+03 -4.683832E+03
       507  22  5.008911E+04  7.506043E+01 -1.144604E+03  3.239267E+04 -2.221977E+03  2.918445E+02
       507  23  5.029730E+04 -3.361426E+01 -2.978508E+03  2.575801E+04 -3.710842E+03 -2.333760E+03
       507  24  5.008817E+04 -1.023794E+03 -6.003046E+03  3.239286E+04 -5.199805E+03 -4.684195E+03
       507  25  4.740859E+04 -5.492678E+02 -1.586333E+03  3.264318E+04 -5.537782E+03  2.912615E+02
       507  26  8.953390E+04  9.410179E+03  5.007140E+03  2.573094E+04 -6.696614E+03 -2.334226E+03
       507  27  1.313004E+05  1.854523E+04  1.063910E+04  3.208814E+04 -7.855625E+03 -4.684555E+03
       508   1 -6.268710E+04 -2.616024E+04 -3.064615E+04  2.919209E+04  2.339305E+03  6.488011E+03
       508   2 -1.010786E+05 -3.949177E+04 -4.674567E+04  3.138471E+04  1.607304E+04  7.087267E+03
       508   3 -1.466754E+05 -7.450558E+04 -7.720736E+04  4.656512E+04  2.980608E+04  2.372689E+03
       508   4  4.882462E+04  7.053348E+02 -7.836065E+03  3.232990E+04  6.245114E+03  6.488482E+03
       508   5  5.187177E+04 -2.361234E+03 -1.404237E+04  2.583693E+04  1.360434E+04  7.086753E+03
       508   6  4.882135E+04 -2.600031E+04 -3.018194E+04  3.233208E+04  2.096379E+04  2.371399E+03
       508   7  1.603482E+05  2.757017E+04  1.497342E+04  3.546828E+04  1.015161E+04  6.488991E+03
       508   8  2.048443E+05  3.476789E+04  1.865961E+04  2.028776E+04  1.113503E+04  7.086284E+03
       508   9  2.443537E+05  2.250297E+04  1.684117E+04  1.809454E+04  1.211873E+04  2.370514E+03
       508  10 -6.268712E+04 -2.616028E+04 -3.064624E+04  2.919208E+04 -5.894365E-11  2.975803E-11
       508  11 -1.010789E+05 -3.949189E+04 -4.674625E+04  3.138462E+04 -7.042688E-11  3.101076E-11
       508  12 -1.466763E+05 -7.450582E+04 -7.720904E+04  4.656506E+04  7.060090E-11  2.158274E-12
       508  13  4.882456E+04  7.052792E+02 -7.836218E+03  3.232987E+04 -1.083798E-10  1.564985E-10
       508  14  5.187156E+04 -2.361338E+03 -1.404282E+04  2.583685E+04 -1.296961E-10  3.140090E-10
       508  15  4.882088E+04 -2.600044E+04 -3.018277E+04  3.233204E+04  2.220391E-11 -4.377954E-13
       508  16  1.603481E+05  2.757010E+04  1.497315E+04  3.546823E+04  2.604985E-10  4.991656E-11
       508  17  2.048441E+05  3.476781E+04  1.865928E+04  2.028769E+04  5.488571E-11  1.246136E-10
       508  18  2.443535E+05  2.250293E+04  1.684088E+04  1.809452E+04 -1.410341E-10  6.646231E-11
       508  19 -6.268710E+04 -2.616024E+04 -3.064615E+04  2.919209E+04 -2.339305E+03 -6.488011E+03
       508  20 -1.010786E+05 -3.949177E+04 -4.674567E+04  3.138471E+04 -1.607304E+04 -7.087267E+03
       508  21 -1.466754E+05 -7.450558E+04 -7.720736E+04  4.656512E+04 -2.980608E+04 -2.372689E+03
       508  22  4.882462E+04  7.053348E+02 -7.836065E+03  3.232990E+04 -6.245114E+03 -6.488482E+03
       508  23  5.187177E+04 -2.361234E+03 -1.404237E+04  2.583693E+04 -1.360434E+04 -7.086753E+03
       508  24  4.882135E+04 -2.600031E+04 -3.018194E+04  3.233208E+04 -2.096379E+04 -2.371399E+03
       508  25  1.603482E+05  2.757017E+04  1.497342E+04  3.546828E+04 -1.015161E+04 -6.488991E+03
       508  26  2.048443E+05  3.476789E+04  1.865961E+04  2.028776E+04 -1.113503E+04 -7.086284E+03
       508  27  2.443537E+05  2.250297E+04  1.684117E+04  1.809454E+04 -1.211873E+04 -2.370514E+03
       509   1  7.380663E+05  1.129142E+05  1.204769E+05  6.521199E+04  5.657139E+04 -2.757771E+03
       509   2  6.870158E+05  4.864455E+04  6.946356E+04  3.924802E+04  3.294577E+04 -8.371115E+03
       509   3  6.507411E+05  3.117740E+04  4.552014E+04  2.675876E+04  9.321890E+03 -7.960827E+03
       509   4  5.147410E+05  5.754946E+04  6.684426E+04  3.363778E+04  4.620725E+04 -2.761405E+03
       509   5  5.079891E+05  5.223620E+03  3.128039E+04  2.690388E+04  2.982045E+04 -8.372285E+03
       509   6  5.147604E+05 -1.548771E+03  1.776876E+04  3.364325E+04  1.343348E+04 -7.960210E+03
       509   7  2.914635E+05  2.184852E+03  1.320901E+04  2.074956E+03  3.584682E+04 -2.763987E+03
       509   8  3.289929E+05 -3.819882E+04 -6.904520E+03  1.456334E+04  2.669601E+04 -8.373331E+03
       509   9  3.787974E+05 -3.427591E+04 -9.983505E+03  4.052619E+04  1.754419E+04 -7.959502E+03
       509  10  7.380629E+05  1.129134E+05  1.204709E+05  6.521212E+04  7.674244E-11  9.005211E-11
       509  11  6.870146E+05  4.864418E+04  6.946139E+04  3.924825E+04 -1.717867E-10 -9.200752E-11
       509  12  6.507410E+05  3.117731E+04  4.551986E+04  2.675882E+04  5.972778E-11 -2.696572E-10
       509  13  5.147387E+05  5.754887E+04  6.684024E+04  3.363788E+04  1.325476E-10 -7.021011E-11
       509  14  5.079881E+05  5.223306E+03  3.127858E+04  2.690408E+04 -3.661845E-10 -1.644412E-10
       509  15  5.147602E+05 -1.548887E+03  1.776830E+04  3.364333E+04 -1.558746E-11 -1.370491E-10
       509  16  2.914622E+05  2.184499E+03  1.320658E+04  2.075036E+03 -4.596487E-11 -3.199352E-11
       509  17  3.289921E+05 -3.819908E+04 -6.905991E+03  1.456352E+04 -4.735262E-11 -6.685124E-11
       509  18  3.787970E+05 -3.427606E+04 -9.984202E+03  4.052630E+04 -7.518017E-11 -1.035067E-10
       509  19  7.380663E+05  1.129142E+05  1.204769E+05  6.521199E+04 -5.657139E+04  2.757771E+03
       509  20  6.870158E+05  4.864455E+04  6.946356E+04  3.924802E+04 -3.294577E+04  8.371115E+03
       509  21  6.507411E+05  3.117740E+04  4.552014E+04  2.675876E+04 -9.321890E+03  7.960827E+03
       509  22  5.147410E+05  5.754946E+04  6.684426E+04  3.363778E+04 -4.620725E+04  2.761405E+03
       509  23  5.079891E+05  5.223620E+03  3.128039E+04  2.690388E+04 -2.982045E+04  8.372285E+03
       509  24  5.147604E+05 -1.548771E+03  1.776876E+04  3.364325E+04 -1.343348E+04  7.960210E+03
       509  25  2.914635E+05  2.184852E+03  1.320901E+04  2.074956E+03 -3.584682E+04  2.763987E+03
       509  26  3.289929E+05 -3.819882E+04 -6.904520E+03  1.456334E+04 -2.669601E+04  8.373331E+03
       509  27  3.787974E+05 -3.427591E+04 -9.983505E+03  4.052619E+04 -1.754419E+04  7.959502E+03
       510   1  6.164532E+05  2.743286E+04  3.522371E+04  3.445160E+04  8.334680E+03 -6.069804E+03
       510   2  5.723612E+05  1.471507E+04  1.997011E+04  2.695367E+04  4.146607E+03 -3.670281E+03
       510   3  5.293319E+05  4.074983E+03  7.959447E+03  3.322919E+04 -4.129614E+01 -9.556487E+02
       510   4  5.119759E+05  2.278573E+03  1.386448E+04  3.370886E+04  1.102688E+04 -6.069420E+03
       510   5  5.114801E+05  7.765990E+01  7.627276E+03  2.682235E+04  7.217724E+03 -3.669739E+03
       510   6  5.119792E+05 -1.111012E+02  4.370468E+03  3.370933E+04  3.408445E+03 -9.549369E+02
       510   7  4.075090E+05 -2.287639E+04 -7.495297E+03  3.296625E+04  1.371864E+04 -6.069042E+03
       510   8  4.506025E+05 -1.455997E+04 -4.715713E+03  2.669105E+04  1.028855E+04 -3.669199E+03
       510   9  4.946267E+05 -4.297198E+03  7.815175E+02  3.418945E+04  6.858091E+03 -9.542197E+02
       510  10  6.164531E+05  2.743280E+04  3.522351E+04  3.445164E+04  2.060760E-12 -2.890791E-10
       510  11  5.723611E+05  1.471505E+04  1.997005E+04  2.695368E+04  9.882759E-11  6.607736E-11
       510  12  5.293319E+05  4.074982E+03  7.959445E+03  3.322919E+04 -7.452125E-11 -9.421176E-11
       510  13  5.119758E+05  2.278501E+03  1.386418E+04  3.370892E+04  8.417580E-11 -1.215457E-10
       510  14  5.114800E+05  7.763146E+01  7.627153E+03  2.682237E+04 -2.150207E-10 -1.756067E-10
       510  15  5.119791E+05 -1.111053E+02  4.370444E+03  3.370933E+04 -2.145280E-10 -1.501661E-10
       510  16  4.075088E+05 -2.287648E+04 -7.495719E+03  3.296632E+04  3.305813E-10  7.167872E-11
       510  17  4.506024E+05 -1.456002E+04 -4.715937E+03  2.669108E+04 -2.255024E-10 -1.763940E-10
       510  18  4.946267E+05 -4.297211E+03  7.814275E+02  3.418945E+04  1.223806E-10  3.701777E-11
       510  19  6.164532E+05  2.743286E+04  3.522371E+04  3.445160E+04 -8.334680E+03  6.069804E+03
       510  20  5.723612E+05  1.471507E+04  1.997011E+04  2.695367E+04 -4.146607E+03  3.670281E+03
       510  21  5.293319E+05  4.074983E+03  7.959447E+03  3.322919E+04  4.129614E+01  9.556487E+02
       510  22  5.119759E+05  2.278573E+03  1.386448E+04  3.370886E+04 -1.102688E+04  6.069420E+03
       510  23  5.114801E+05  7.765990E+01  7.627276E+03  2.682235E+04 -7.217724E+03  3.669739E+03
       510  24  5.119792E+05 -1.111012E+02  4.370468E+03  3.370933E+04 -3.408445E+03  9.549369E+02
       510  25  4.075090E+05 -2.287639E+04 -7.495297E+03  3.296625E+04 -1.371864E+04  6.069042E+03
       510  26  4.506025E+05 -1.455997E+04 -4.715713E+03  2.669105E+04 -1.028855E+04  3.669199E+03
       510  27  4.946267E+05 -4.297198E+03  7.815175E+02  3.418945E+04 -6.858091E+03  9.542197E+02
       511   1  4.978459E+05 -3.316504E+03  4.219131E+02  3.357842E+04 -7.202008E+02  7.424709E+02
       511   2  4.542486E+05 -1.384636E+04 -9.774126E+03  2.671557E+04 -1.280268E+03  3.459453E+03
       511   3  4.107308E+05 -2.433947E+04 -1.959796E+04  3.362645E+04 -1.840118E+03  5.866426E+03
       511   4  5.117898E+05  5.154226E+01  3.325773E+03  3.370927E+04  2.728384E+03  7.431840E+02
       511   5  5.117177E+05 -2.737735E+01  1.882498E+03  2.682246E+04  1.796017E+03  3.460003E+03
       511   6  5.117886E+05 -4.657083E+00  1.070081E+03  3.370930E+04  8.638245E+02  5.866833E+03
       511   7  5.257340E+05  3.419582E+03  6.229666E+03  3.384013E+04  6.177045E+03  7.438986E+02
       511   8  5.691901E+05  1.379141E+04  1.353899E+04  2.692936E+04  4.872582E+03  3.460554E+03
       511   9  6.128561E+05  2.432952E+04  2.173761E+04  3.379217E+04  3.568199E+03  5.867239E+03
       511  10  4.978459E+05 -3.316504E+03  4.219111E+02  3.357842E+04  2.757529E-10  1.594352E-10
       511  11  4.542486E+05 -1.384638E+04 -9.774152E+03  2.671558E+04 -6.412848E-11  7.868965E-12
       511  12  4.107307E+05 -2.433950E+04 -1.959803E+04  3.362646E+04 -4.345541E-10  4.904514E-11
       511  13  5.117898E+05  5.153967E+01  3.325758E+03  3.370927E+04  5.891171E-11 -7.356377E-11
       511  14  5.117177E+05 -2.739107E+01  1.882469E+03  2.682246E+04 -4.750071E-11  1.532840E-11
       511  15  5.117886E+05 -4.694253E+00  1.070015E+03  3.370930E+04 -4.672721E-11  1.015001E-10
       511  16  5.257340E+05  3.419571E+03  6.229593E+03  3.384012E+04 -8.477718E-11 -3.814817E-11
       511  17  5.691900E+05  1.379139E+04  1.353892E+04  2.692935E+04  1.150730E-10 -4.004550E-11
       511  18  6.128561E+05  2.432948E+04  2.173752E+04  3.379215E+04  3.184503E-10  6.856679E-11
       511  19  4.978459E+05 -3.316504E+03  4.219131E+02  3.357842E+04  7.202008E+02 -7.424709E+02
       511  20  4.542486E+05 -1.384636E+04 -9.774126E+03  2.671557E+04  1.280268E+03 -3.459453E+03
       511  21  4.107308E+05 -2.433947E+04 -1.959796E+04  3.362645E+04  1.840118E+03 -5.866426E+03
       511  22  5.117898E+05  5.154226E+01  3.325773E+03  3.370927E+04 -2.728384E+03 -7.431840E+02
       511  23  5.117177E+05 -2.737735E+01  1.882498E+03  2.682246E+04 -1.796017E+03 -3.460003E+03
       511  24  5.117886E+05 -4.657083E+00  1.070081E+03  3.370930E+04 -8.638245E+02 -5.866833E+03
       511  25  5.257340E+05  3.419582E+03  6.229666E+03  3.384013E+04 -6.177045E+03 -7.438986E+02
       511  26  5.691901E+05  1.379141E+04  1.353899E+04  2.692936E+04 -4.872582E+03 -3.460554E+03
       511  27  6.128561E+05  2.432952E+04  2.173761E+04  3.379217E+04 -3.568199E+03 -5.867239E+03
       512   1  3.792202E+05 -3.191884E+04 -2.626157E+04  3.359732E+04 -3.408283E+03  7.754433E+03
       512   2  3.361438E+05 -4.259209E+04 -3.703950E+04  2.682414E+04  3.507824E+03  8.203847E+03
       512   3  2.918952E+05 -5.437889E+04 -5.259574E+04  3.352824E+04  1.042359E+04  2.713907E+03
       512   4  5.117694E+05 -9.671349E+00  8.006859E+02  3.364339E+04  6.951796E+02  7.754961E+03
       512   5  5.117354E+05  3.518170E+00  4.288924E+02  2.690485E+04  4.814042E+02  8.203339E+03
       512   6  5.117647E+05  1.406236E+02  2.278538E+02  3.364338E+04  2.677886E+02  2.713120E+03
       512   7  6.443353E+05  3.189841E+04  2.786208E+04  3.368948E+04  4.799502E+03  7.755491E+03
       512   8  6.873561E+05  4.259712E+04  3.789554E+04  2.698559E+04 -2.545859E+03  8.202829E+03
       512   9  7.316787E+05  5.465668E+04  5.304840E+04  3.375857E+04 -9.891591E+03  2.712330E+03
       512  10  3.792202E+05 -3.191891E+04 -2.626171E+04  3.359734E+04  5.182637E-11  7.619202E-11
       512  11  3.361437E+05 -4.259216E+04 -3.703965E+04  2.682412E+04 -2.075530E-10  2.571811E-13
       512  12  2.918951E+05 -5.437893E+04 -5.259596E+04  3.352822E+04 -1.405259E-10  9.244861E-12
       512  13  5.117694E+05 -9.736072E+00  8.005719E+02  3.364339E+04 -2.522252E-10 -3.229799E-11
       512  14  5.117354E+05  3.445828E+00  4.287655E+02  2.690485E+04  1.283938E-10  1.792563E-12
       512  15  5.117647E+05  1.406156E+02  2.278399E+02  3.364338E+04  1.691010E-10 -3.909850E-13
       512  16  6.443353E+05  3.189834E+04  2.786192E+04  3.368945E+04  1.451971E-10  3.733749E-10
       512  17  6.873560E+05  4.259705E+04  3.789540E+04  2.698561E+04  2.267744E-10 -5.028400E-11
       512  18  7.316786E+05  5.465665E+04  5.304820E+04  3.375859E+04  3.439506E-10 -9.145906E-12
       512  19  3.792202E+05 -3.191884E+04 -2.626157E+04  3.359732E+04  3.408283E+03 -7.754433E+03
       512  20  3.361438E+05 -4.259209E+04 -3.703950E+04  2.682414E+04 -3.507824E+03 -8.203847E+03
       512  21  2.918952E+05 -5.437889E+04 -5.259574E+04  3.352824E+04 -1.042359E+04 -2.713907E+03
       512  22  5.117694E+05 -9.671349E+00  8.006859E+02  3.364339E+04 -6.951796E+02 -7.754961E+03
       512  23  5.117354E+05  3.518170E+00  4.288924E+02  2.690485E+04 -4.814042E+02 -8.203339E+03
       512  24  5.117647E+05  1.406236E+02  2.278538E+02  3.364338E+04 -2.677886E+02 -2.713120E+03
       512  25  6.443353E+05  3.189841E+04  2.786208E+04  3.368948E+04 -4.799502E+03 -7.755491E+03
       512  26  6.873561E+05  4.259712E+04  3.789554E+04  2.698559E+04  2.545859E+03 -8.202829E+03
       512  27  7.316787E+05  5.465668E+04  5.304840E+04  3.375857E+04  9.891591E+03 -2.712330E+03
       513   1  1.639250E+06  2.334300E+05  2.498207E+05  1.574919E+05  1.152702E+05 -5.188098E+03
       513   2  1.505677E+06  9.233523E+04  1.385751E+05  9.885099E+04  6.532422E+04 -1.506449E+04
       513   3  1.403131E+06  4.936690E+04  8.431718E+04  7.685568E+04  1.538825E+04 -1.242656E+04
       513   4  1.184442E+06  1.206973E+05  1.403769E+05  9.111077E+04  9.585619E+04 -5.204156E+03
       513   5  1.170278E+06  1.095339E+04  6.663626E+04  7.280487E+04  6.097432E+04 -1.506892E+04
       513   6  1.184537E+06 -3.248102E+03  3.946422E+04  9.113613E+04  2.609197E+04 -1.242278E+04
       513   7  7.298337E+05  7.966364E+03  3.092225E+04  2.477829E+04  7.645628E+04 -5.216082E+03
       513   8  8.349859E+05 -7.043326E+04 -5.308657E+03  4.677297E+04  5.662673E+04 -1.507299E+04
       513   9  9.659890E+05 -5.586527E+04 -5.390755E+03  1.054115E+05  3.679200E+04 -1.241851E+04
       513  10  1.639236E+06  2.334264E+05  2.497957E+05  1.574924E+05  3.586125E-10 -1.400003E-11
       513  11  1.505673E+06  9.233384E+04  1.385666E+05  9.885178E+04  2.189044E-10  1.262166E-10
       513  12  1.403130E+06  4.936667E+04  8.431645E+04  7.685584E+04 -2.020733E-10  3.975079E-10
       513  13  1.184433E+06  1.206948E+05  1.403597E+05  9.111117E+04 -4.677601E-10 -2.048534E-10
       513  14  1.170274E+06  1.095215E+04  6.662886E+04  7.280560E+04 -1.737281E-10 -3.830291E-10
       513  15  1.184536E+06 -3.248450E+03  3.946265E+04  9.113639E+04  6.726615E-10  6.609409E-10
       513  16  7.298274E+05  7.964768E+03  3.091122E+04  2.477861E+04 -2.770785E-10 -1.011586E-10
       513  17  8.349824E+05 -7.043436E+04 -5.315102E+03  4.677366E+04 -3.432753E-10 -2.746009E-10
       513  18  9.659875E+05 -5.586580E+04 -5.393585E+03  1.054118E+05  4.752261E-10  2.606943E-10
       513  19  1.639250E+06  2.334300E+05  2.498207E+05  1.574919E+05 -1.152702E+05  5.188098E+03
       513  20  1.505677E+06  9.233523E+04  1.385751E+05  9.885099E+04 -6.532422E+04  1.506449E+04
       513  21  1.403131E+06  4.936690E+04  8.431718E+04  7.685568E+04 -1.538825E+04  1.242656E+04
       513  22  1.184442E+06  1.206973E+05  1.403769E+05  9.111077E+04 -9.585619E+04  5.204156E+03
       513  23  1.170278E+06  1.095339E+04  6.663626E+04  7.280487E+04 -6.097432E+04  1.506892E+04
       513  24  1.184537E+06 -3.248102E+03  3.946422E+04  9.113613E+04 -2.609197E+04  1.242278E+04
       513  25  7.298337E+05  7.966364E+03  3.092225E+04  2.477829E+04 -7.645628E+04  5.216082E+03
       513  26  8.349859E+05 -7.043326E+04 -5.308657E+03  4.677297E+04 -5.662673E+04  1.507299E+04
       513  27  9.659890E+05 -5.586527E+04 -5.390755E+03  1.054115E+05 -3.679200E+04  1.241851E+04
       514   1  1.312327E+06  3.693814E+04  5.959540E+04  9.302841E+04  1.280998E+04 -7.452328E+03
       514   2  1.193221E+06  3.898917E+03  2.477046E+04  7.319694E+04  1.387030E+03 -6.828111E+02
       514   3  1.076748E+06 -2.451582E+04 -1.479802E+03  9.060556E+04 -1.003414E+04  6.720155E+03
       514   4  1.178770E+06  4.759621E+03  3.207987E+04  9.126528E+04  2.056839E+04 -7.449556E+03
       514   5  1.177529E+06  8.729112E+01  2.138651E+04  7.264615E+04  9.907853E+03 -6.796880E+02
       514   6  1.178777E+06 -9.091151E+01  1.874166E+04  9.126698E+04 -7.529750E+02  6.723636E+03
       514   7  1.045231E+06 -2.741998E+04  4.563605E+03  8.950254E+04  2.832517E+04 -7.446828E+03
       514   8  1.161837E+06 -3.724311E+03  1.800282E+04  7.209538E+04  1.842846E+04 -6.765799E+02
       514   9  1.280816E+06  2.433342E+04  3.896293E+04  9.192851E+04  8.529679E+03  6.727137E+03
       514  10  1.312327E+06  3.693804E+04  5.959498E+04  9.302849E+04  3.651324E-10  3.998349E-11
       514  11  1.193221E+06  3.898916E+03  2.477046E+04  7.319694E+04  4.206227E-10  1.039640E-10
       514  12  1.076748E+06 -2.451590E+04 -1.480076E+03  9.060561E+04 -3.778945E-11  6.961183E-11
       514  13  1.178770E+06  4.759448E+03  3.207897E+04  9.126541E+04  4.575435E-10  5.921336E-10
       514  14  1.177529E+06  8.726433E+01  2.138633E+04  7.264616E+04  6.827037E-10  4.203179E-10
       514  15  1.178777E+06 -9.096023E+01  1.874157E+04  9.126699E+04 -7.615876E-11 -1.176483E-10
       514  16  1.045230E+06 -2.742026E+04  4.561995E+03  8.950271E+04 -5.740777E-10  8.578249E-11
       514  17  1.161836E+06 -3.724403E+03  1.800218E+04  7.209539E+04  4.057060E-10  4.238524E-10
       514  18  1.280816E+06  2.433335E+04  3.896270E+04  9.192847E+04  3.325840E-10  8.807111E-11
       514  19  1.312327E+06  3.693814E+04  5.959540E+04  9.302841E+04 -1.280998E+04  7.452328E+03
       514  20  1.193221E+06  3.898917E+03  2.477046E+04  7.319694E+04 -1.387030E+03  6.828111E+02
       514  21  1.076748E+06 -2.451582E+04 -1.479802E+03  9.060556E+04  1.003414E+04 -6.720155E+03
       514  22  1.178770E+06  4.759621E+03  3.207987E+04  9.126528E+04 -2.056839E+04  7.449556E+03
       514  23  1.177529E+06  8.729112E+01  2.138651E+04  7.264615E+04 -9.907853E+03  6.796880E+02
       514  24  1.178777E+06 -9.091151E+01  1.874166E+04  9.126698E+04  7.529750E+02 -6.723636E+03
       514  25  1.045231E+06 -2.741998E+04  4.563605E+03  8.950254E+04 -2.832517E+04  7.446828E+03
       514  26  1.161837E+06 -3.724311E+03  1.800282E+04  7.209538E+04 -1.842846E+04  6.765799E+02
       514  27  1.280816E+06  2.433342E+04  3.896293E+04  9.192851E+04 -8.529679E+03 -6.727137E+03
       515   1  9.922720E+05 -4.506300E+04 -1.819347E+04  9.235174E+04 -1.352008E+04  1.131014E+04
       515   2  8.728430E+05 -7.298747E+04 -3.555344E+04  7.202478E+04 -2.519358E+04  1.858797E+04
       515   3  7.564025E+05 -9.512172E+04 -4.387275E+04  8.896876E+04 -3.686286E+04  2.481180E+04
       515   4  1.178928E+06 -2.244257E+02  1.957318E+04  9.127354E+04 -4.140431E+03  1.131331E+04
       515   5  1.177316E+06  1.389798E+02  2.594924E+04  7.263782E+04 -1.708637E+04  1.858943E+04
       515   6  1.178897E+06  6.511677E+03  4.224466E+04  9.127158E+04 -3.003022E+04  2.481177E+04
       515   7  1.365618E+06  4.461204E+04  5.733836E+04  9.019500E+04  5.241977E+03  1.131645E+04
       515   8  1.481878E+06  7.325973E+04  8.744739E+04  7.325116E+04 -8.975258E+03  1.859091E+04
       515   9  1.601561E+06  1.081340E+05  1.283529E+05  9.357598E+04 -2.319302E+04  2.481180E+04
       515  10  9.922718E+05 -4.506319E+04 -1.819406E+04  9.235186E+04  7.534830E-10  5.027385E-10
       515  11  8.728422E+05 -7.298801E+04 -3.555529E+04  7.202516E+04 -2.984084E-11 -1.852909E-10
       515  12  7.564009E+05 -9.512274E+04 -4.387646E+04  8.896949E+04 -2.654661E-10 -4.701496E-10
       515  13  1.178928E+06 -2.245678E+02  1.957291E+04  9.127357E+04  1.683883E-10  1.294565E-11
       515  14  1.177316E+06  1.385303E+02  2.594804E+04  7.263808E+04  1.582603E-10 -1.611481E-10
       515  15  1.178896E+06  6.510774E+03  4.224181E+04  9.127218E+04 -1.510420E-10 -4.373740E-10
       515  16  1.365618E+06  4.461190E+04  5.733806E+04  9.019495E+04 -1.325038E-10 -7.253784E-11
       515  17  1.481878E+06  7.325934E+04  8.744659E+04  7.325129E+04  1.553437E-10 -2.799004E-10
       515  18  1.601560E+06  1.081332E+05  1.283507E+05  9.357645E+04  4.625780E-10 -3.155435E-10
       515  19  9.922720E+05 -4.506300E+04 -1.819347E+04  9.235174E+04  1.352008E+04 -1.131014E+04
       515  20  8.728430E+05 -7.298747E+04 -3.555344E+04  7.202478E+04  2.519358E+04 -1.858797E+04
       515  21  7.564025E+05 -9.512172E+04 -4.387275E+04  8.896876E+04  3.686286E+04 -2.481180E+04
       515  22  1.178928E+06 -2.244257E+02  1.957318E+04  9.127354E+04  4.140431E+03 -1.131331E+04
       515  23  1.177316E+06  1.389798E+02  2.594924E+04  7.263782E+04  1.708637E+04 -1.858943E+04
       515  24  1.178897E+06  6.511677E+03  4.224466E+04  9.127158E+04  3.003022E+04 -2.481177E+04
       515  25  1.365618E+06  4.461204E+04  5.733836E+04  9.019500E+04 -5.241977E+03 -1.131645E+04
       515  26  1.481878E+06  7.325973E+04  8.744739E+04  7.325116E+04  8.975258E+03 -1.859091E+04
       515  27  1.601561E+06  1.081340E+05  1.283529E+05  9.357598E+04  2.319302E+04 -2.481180E+04
       516   1  6.789532E+05 -1.266939E+05 -5.041327E+04  1.108754E+05 -4.884533E+04  3.005658E+04
       516   2  5.427626E+05 -1.363019E+05 -4.158090E+04  3.718994E+04 -7.272040E+04  2.975321E+04
       516   3  4.417019E+05 -1.831113E+04  1.471384E+04 -6.648430E+01 -9.659459E+04  9.623762E+03
       516   4  1.186895E+06 -4.542331E+03  5.294804E+04  9.107899E+04 -3.733239E+04  3.005782E+04
       516   5  1.167225E+06  1.501260E+04  9.114305E+04  7.287511E+04 -8.505701E+04  2.974718E+04
       516   6  1.186754E+06  1.662191E+05  1.933054E+05  9.109018E+04 -1.327869E+05  9.615190E+03
       516   7  1.695084E+06  1.175947E+05  1.562965E+05  7.126607E+04 -2.581021E+04  3.005834E+04
       516   8  1.792057E+06  1.663067E+05  2.238459E+05  1.085966E+05 -9.740579E+04  2.973973E+04
       516   9  1.932334E+06  3.507411E+05  3.718670E+05  1.823566E+05 -1.690224E+05  9.596015E+03
       516  10  6.789504E+05 -1.266955E+05 -5.041945E+04  1.108766E+05  7.825638E-11 -5.791239E-10
       516  11  5.427567E+05 -1.363043E+05 -4.159249E+04  3.719169E+04  2.608233E-10 -5.328309E-10
       516  12  4.416918E+05 -1.831373E+04  1.469615E+04 -6.573575E+01 -2.905085E-10 -2.954438E-10
       516  13  1.186894E+06 -4.543675E+03  5.294372E+04  9.107989E+04 -8.197736E-10 -6.498906E-10
       516  14  1.167217E+06  1.500971E+04  9.112782E+04  7.287714E+04  1.021922E-10 -5.171875E-10
       516  15  1.186735E+06  1.662143E+05  1.932721E+05  9.109121E+04 -1.840645E-10 -5.251588E-11
       516  16  1.695083E+06  1.175935E+05  1.562936E+05  7.126669E+04 -2.040565E-10 -4.265127E-10
       516  17  1.792047E+06  1.663032E+05  2.238265E+05  1.085990E+05 -6.061711E-10 -4.001126E-10
       516  18  1.932303E+06  3.507333E+05  3.718133E+05  1.823579E+05  8.412034E-10 -2.751527E-10
       516  19  6.789532E+05 -1.266939E+05 -5.041327E+04  1.108754E+05  4.884533E+04 -3.005658E+04
       516  20  5.427626E+05 -1.363019E+05 -4.158090E+04  3.718994E+04  7.272040E+04 -2.975321E+04
       516  21  4.417019E+05 -1.831113E+04  1.471384E+04 -6.648430E+01  9.659459E+04 -9.623762E+03
       516  22  1.186895E+06 -4.542331E+03  5.294804E+04  9.107899E+04  3.733239E+04 -3.005782E+04
       516  23  1.167225E+06  1.501260E+04  9.114305E+04  7.287511E+04  8.505701E+04 -2.974718E+04
       516  24  1.186754E+06  1.662191E+05  1.933054E+05  9.109018E+04  1.327869E+05 -9.615190E+03
       516  25  1.695084E+06  1.175947E+05  1.562965E+05  7.126607E+04  2.581021E+04 -3.005834E+04
       516  26  1.792057E+06  1.663067E+05  2.238459E+05  1.085966E+05  9.740579E+04 -2.973973E+04
       516  27  1.932334E+06  3.507411E+05  3.718670E+05  1.823566E+05  1.690224E+05 -9.596015E+03
       517   1 -1.402272E+06 -2.787598E+05 -3.376584E+05 -1.684742E+05 -2.638505E+05 -3.676519E+03
       517   2 -1.390638E+06  2.941269E+04 -1.370626E+05 -5.648645E+04 -1.730090E+05 -1.223623E+04
       517   3 -1.459448E+06  6.316911E+04 -6.427587E+04  6.412073E+04 -8.217054E+04 -1.338933E+04
       517   4 -1.682594E+06 -3.485850E+05 -4.048889E+05  2.244480E+04 -2.783309E+05 -3.753247E+03
       517   5 -1.641431E+06 -3.152928E+04 -1.902696E+05  1.818685E+04 -1.786970E+05 -1.225596E+04
       517   6 -1.682308E+06  9.468072E+03 -1.096200E+05  2.253967E+04 -7.905986E+04 -1.338480E+04
       517   7 -1.962766E+06 -4.182787E+05 -4.721046E+05  2.132770E+05 -2.928048E+05 -3.838933E+03
       517   8 -1.892154E+06 -9.245433E+04 -2.434770E+05  9.282947E+04 -1.843828E+05 -1.227707E+04
       517   9 -1.905117E+06 -4.422955E+04 -1.549658E+05 -1.902615E+04 -7.595027E+04 -1.338068E+04
       517  10 -1.402346E+06 -2.787785E+05 -3.377895E+05 -1.684749E+05 -4.999862E-10  4.434137E-10
       517  11 -1.390670E+06  2.940447E+04 -1.371192E+05 -5.648815E+04 -3.751102E-10 -1.765386E-10
       517  12 -1.459456E+06  6.316710E+04 -6.428893E+04  6.411984E+04  1.732996E-09 -1.721991E-10
       517  13 -1.682678E+06 -3.486059E+05 -4.050349E+05  2.244396E+04 -5.037192E-10 -1.792310E-10
       517  14 -1.641466E+06 -3.153804E+04 -1.903300E+05  1.818509E+04 -4.177412E-10  4.671818E-11
       517  15 -1.682315E+06  9.466196E+03 -1.096321E+05  2.253882E+04  6.747747E-10 -2.448832E-10
       517  16 -1.962858E+06 -4.183018E+05 -4.722663E+05  2.132761E+05 -2.324101E-10 -2.146734E-11
       517  17 -1.892190E+06 -9.246365E+04 -2.435414E+05  9.282764E+04 -1.005726E-09 -1.985543E-13
       517  18 -1.905123E+06 -4.423130E+04 -1.549770E+05 -1.902697E+04 -2.391914E-09 -1.088988E-09
       517  19 -1.402272E+06 -2.787598E+05 -3.376584E+05 -1.684742E+05  2.638505E+05  3.676519E+03
       517  20 -1.390638E+06  2.941269E+04 -1.370626E+05 -5.648645E+04  1.730090E+05  1.223623E+04
       517  21 -1.459448E+06  6.316911E+04 -6.427587E+04  6.412073E+04  8.217054E+04  1.338933E+04
       517  22 -1.682594E+06 -3.485850E+05 -4.048889E+05  2.244480E+04  2.783309E+05  3.753247E+03
       517  23 -1.641431E+06 -3.152928E+04 -1.902696E+05  1.818685E+04  1.786970E+05  1.225596E+04
       517  24 -1.682308E+06  9.468072E+03 -1.096200E+05  2.253967E+04  7.905986E+04  1.338480E+04
       517  25 -1.962766E+06 -4.182787E+05 -4.721046E+05  2.132770E+05  2.928048E+05  3.838933E+03
       517  26 -1.892154E+06 -9.245433E+04 -2.434770E+05  9.282947E+04  1.843828E+05  1.227707E+04
       517  27 -1.905117E+06 -4.422955E+04 -1.549658E+05 -1.902615E+04  7.595027E+04  1.338068E+04
       518   1 -1.463722E+06  3.494007E+04 -4.562665E+04  1.799690E+04 -6.546090E+04 -1.200985E+04
       518   2 -1.489551E+06  4.126840E+04 -1.642385E+04  1.700551E+04 -4.034313E+04 -1.067020E+04
       518   3 -1.521737E+06  3.524073E+04 -6.685799E+03  2.519204E+04 -1.522604E+04 -8.918189E+03
       518   4 -1.665548E+06 -1.372897E+04 -8.678342E+04  2.264382E+04 -6.408383E+04 -1.201087E+04
       518   5 -1.662310E+06 -3.302593E+02 -5.135177E+04  1.805546E+04 -3.848003E+04 -1.067073E+04
       518   6 -1.665517E+06  6.252512E+02 -3.572798E+04  2.264540E+04 -1.287576E+04 -8.918465E+03
       518   7 -1.867335E+06 -6.240048E+04 -1.279423E+05  2.728920E+04 -6.270719E+04 -1.201187E+04
       518   8 -1.835041E+06 -4.193077E+04 -8.628122E+04  1.910512E+04 -3.661743E+04 -1.067125E+04
       518   9 -1.809278E+06 -3.399149E+04 -6.477120E+04  2.009938E+04 -1.052601E+04 -8.918761E+03
       518  10 -1.463727E+06  3.493877E+04 -4.563499E+04  1.799627E+04 -6.884569E-12 -4.091454E-10
       518  11 -1.489553E+06  4.126784E+04 -1.642713E+04  1.700516E+04 -4.521148E-10 -2.715548E-10
       518  12 -1.521737E+06  3.524058E+04 -6.686385E+03  2.519193E+04  9.788134E-12  5.403521E-10
       518  13 -1.665552E+06 -1.373023E+04 -8.679143E+04  2.264320E+04 -4.964834E-10 -8.232110E-10
       518  14 -1.662312E+06 -3.307803E+02 -5.135477E+04  1.805513E+04 -7.104468E-10 -1.486930E-10
       518  15 -1.665518E+06  6.251212E+02 -3.572844E+04  2.264531E+04  6.065333E-10  4.125093E-10
       518  16 -1.867339E+06 -6.240169E+04 -1.279500E+05  2.728860E+04  2.150728E-10 -8.336075E-10
       518  17 -1.835042E+06 -4.193125E+04 -8.628396E+04  1.910481E+04 -3.186298E-10  8.523615E-11
       518  18 -1.809278E+06 -3.399160E+04 -6.477156E+04  2.009930E+04  2.510115E-10  6.315210E-11
       518  19 -1.463722E+06  3.494007E+04 -4.562665E+04  1.799690E+04  6.546090E+04  1.200985E+04
       518  20 -1.489551E+06  4.126840E+04 -1.642385E+04  1.700551E+04  4.034313E+04  1.067020E+04
       518  21 -1.521737E+06  3.524073E+04 -6.685799E+03  2.519204E+04  1.522604E+04  8.918189E+03
       518  22 -1.665548E+06 -1.372897E+04 -8.678342E+04  2.264382E+04  6.408383E+04  1.201087E+04
       518  23 -1.662310E+06 -3.302593E+02 -5.135177E+04  1.805546E+04  3.848003E+04  1.067073E+04
       518  24 -1.665517E+06  6.252512E+02 -3.572798E+04  2.264540E+04  1.287576E+04  8.918465E+03
       518  25 -1.867335E+06 -6.240048E+04 -1.279423E+05  2.728920E+04  6.270719E+04  1.201187E+04
       518  26 -1.835041E+06 -4.193077E+04 -8.628122E+04  1.910512E+04  3.661743E+04  1.067125E+04
       518  27 -1.809278E+06 -3.399149E+04 -6.477120E+04  2.009938E+04  1.052601E+04  8.918761E+03
       519   1 -1.542088E+06  2.964364E+04 -7.676050E+03  2.207245E+04 -9.142205E+03 -7.779725E+03
       519   2 -1.569469E+06  2.253499E+04 -1.397474E+04  1.897875E+04  7.196191E+03 -5.893581E+03
       519   3 -1.600544E+06  9.164279E+03 -3.249399E+04  2.514959E+04  2.353333E+04 -4.016974E+03
       519   4 -1.664905E+06  9.958974E+01 -3.235803E+04  2.266424E+04 -6.875252E+03 -7.779980E+03
       519   5 -1.663062E+06  1.515591E+01 -3.281168E+04  1.803171E+04  9.449142E+03 -5.893740E+03
       519   6 -1.664912E+06 -6.329575E+03 -4.547748E+04  2.266392E+04  2.577302E+04 -4.017116E+03
       519   7 -1.787707E+06 -2.944539E+04 -5.704077E+04  2.325591E+04 -4.608740E+03 -7.780231E+03
       519   8 -1.756646E+06 -2.250521E+04 -5.164905E+04  1.708483E+04  1.170176E+04 -5.893906E+03
       519   9 -1.729275E+06 -2.182366E+04 -5.846116E+04  2.017851E+04  2.801248E+04 -4.017276E+03
       519  10 -1.542088E+06  2.964355E+04 -7.676321E+03  2.207240E+04  9.434021E-10  5.604452E-10
       519  11 -1.569469E+06  2.253494E+04 -1.397490E+04  1.897878E+04  1.544113E-09  3.984874E-10
       519  12 -1.600545E+06  9.164113E+03 -3.249506E+04  2.514967E+04  1.015885E-10  2.617425E-10
       519  13 -1.664905E+06  9.951206E+01 -3.235824E+04  2.266420E+04  6.494078E-10  2.809143E-10
       519  14 -1.663062E+06  1.509459E+01 -3.281191E+04  1.803176E+04  1.381709E-10  3.871363E-11
       519  15 -1.664912E+06 -6.329772E+03 -4.547876E+04  2.266400E+04  1.085390E-09 -1.050469E-11
       519  16 -1.787707E+06 -2.944546E+04 -5.704092E+04  2.325588E+04  5.494460E-11 -1.836383E-10
       519  17 -1.756646E+06 -2.250529E+04 -5.164937E+04  1.708488E+04  4.282117E-10 -2.265253E-10
       519  18 -1.729276E+06 -2.182389E+04 -5.846267E+04  2.017860E+04  6.442675E-12 -3.294680E-10
       519  19 -1.542088E+06  2.964364E+04 -7.676050E+03  2.207245E+04  9.142205E+03  7.779725E+03
       519  20 -1.569469E+06  2.253499E+04 -1.397474E+04  1.897875E+04 -7.196191E+03  5.893581E+03
       519  21 -1.600544E+06  9.164279E+03 -3.249399E+04  2.514959E+04 -2.353333E+04  4.016974E+03
       519  22 -1.664905E+06  9.958974E+01 -3.235803E+04  2.266424E+04  6.875252E+03  7.779980E+03
       519  23 -1.663062E+06  1.515591E+01 -3.281168E+04  1.803171E+04 -9.449142E+03  5.893740E+03
       519  24 -1.664912E+06 -6.329575E+03 -4.547748E+04  2.266392E+04 -2.577302E+04  4.017116E+03
       519  25 -1.787707E+06 -2.944539E+04 -5.704077E+04  2.325591E+04  4.608740E+03  7.780231E+03
       519  26 -1.756646E+06 -2.250521E+04 -5.164905E+04  1.708483E+04 -1.170176E+04  5.893906E+03
       519  27 -1.729275E+06 -2.182366E+04 -5.846116E+04  2.017851E+04 -2.801248E+04  4.017276E+03
       520   1 -1.629335E+06  1.488751E+04 -4.623786E+04  3.433255E+03  3.115202E+04 -2.864952E+03
       520   2 -1.639395E+06 -1.136311E+04 -8.808865E+04  5.310248E+04  7.935308E+04 -1.188125E+03
       520   3 -1.688081E+06 -1.668806E+05 -1.936930E+05  1.120233E+05  1.275529E+05 -1.543628E+02
       520   4 -1.672626E+06  4.491083E+03 -5.484386E+04  2.266302E+04  3.354301E+04 -2.863997E+03
       520   5 -1.653445E+06 -1.469753E+04 -9.067526E+04  1.803366E+04  8.096306E+04 -1.192619E+03
       520   6 -1.672759E+06 -1.630287E+05 -1.897176E+05  2.266046E+04  1.283840E+05 -1.727628E+02
       520   7 -1.715915E+06 -5.904060E+03 -6.344973E+04  4.189142E+04  3.593383E+04 -2.862893E+03
       520   8 -1.667493E+06 -1.802732E+04 -9.326121E+04 -1.703435E+04  8.257300E+04 -1.197295E+03
       520   9 -1.657419E+06 -1.591467E+05 -1.857378E+05 -6.670461E+04  1.292151E+05 -1.914022E+02
       520  10 -1.629336E+06  1.488724E+04 -4.623971E+04  3.433327E+03 -1.398467E-10  1.671750E-10
       520  11 -1.639402E+06 -1.136481E+04 -8.810052E+04  5.310256E+04  1.662520E-10 -5.494965E-11
       520  12 -1.688099E+06 -1.668850E+05 -1.937237E+05  1.120234E+05  7.302616E-10 -9.021512E-11
       520  13 -1.672627E+06  4.490771E+03 -5.484600E+04  2.266310E+04  5.046028E-11  6.926827E-11
       520  14 -1.653452E+06 -1.469930E+04 -9.068762E+04  1.803374E+04  4.813825E-10  2.169956E-10
       520  15 -1.672777E+06 -1.630331E+05 -1.897486E+05  2.266048E+04 -4.725534E-10  7.033627E-11
       520  16 -1.715917E+06 -5.904416E+03 -6.345218E+04  4.189150E+04 -2.795172E-11 -1.612988E-10
       520  17 -1.667500E+06 -1.802916E+04 -9.327406E+04 -1.703427E+04  6.317213E-10  3.220878E-10
       520  18 -1.657437E+06 -1.591512E+05 -1.857693E+05 -6.670459E+04 -3.285773E-10  1.148615E-10
       520  19 -1.629335E+06  1.488751E+04 -4.623786E+04  3.433255E+03 -3.115202E+04  2.864952E+03
       520  20 -1.639395E+06 -1.136311E+04 -8.808865E+04  5.310248E+04 -7.935308E+04  1.188125E+03
       520  21 -1.688081E+06 -1.668806E+05 -1.936930E+05  1.120233E+05 -1.275529E+05  1.543628E+02
       520  22 -1.672626E+06  4.491083E+03 -5.484386E+04  2.266302E+04 -3.354301E+04  2.863997E+03
       520  23 -1.653445E+06 -1.469753E+04 -9.067526E+04  1.803366E+04 -8.096306E+04  1.192619E+03
       520  24 -1.672759E+06 -1.630287E+05 -1.897176E+05  2.266046E+04 -1.283840E+05  1.727628E+02
       520  25 -1.715915E+06 -5.904060E+03 -6.344973E+04  4.189142E+04 -3.593383E+04  2.862893E+03
       520  26 -1.667493E+06 -1.802732E+04 -9.326121E+04 -1.703435E+04 -8.257300E+04  1.197295E+03
       520  27 -1.657419E+06 -1.591467E+05 -1.857378E+05 -6.670461E+04 -1.292151E+05  1.914022E+02
       521   1 -1.045400E+06 -2.116159E+04 -4.547843E+04 -4.235403E+04 -7.823486E+04 -5.936212E+03
       521   2 -1.067180E+06  8.285347E+04  1.264848E+04 -5.384758E+03 -5.504023E+04 -1.920866E+04
       521   3 -1.116465E+06  8.884592E+04  3.116115E+04  4.219769E+04 -3.184776E+04 -2.138384E+04
       521   4 -1.470944E+06 -1.267726E+05 -1.473692E+05  2.708400E+04 -1.007376E+05 -5.946291E+03
       521   5 -1.455975E+06 -1.147342E+04 -6.968414E+04  2.176782E+04 -6.426742E+04 -1.921329E+04
       521   6 -1.470844E+06  3.453982E+03 -4.086615E+04  2.706561E+04 -2.779705E+04 -2.138304E+04
       521   7 -1.896310E+06 -2.323783E+05 -2.492683E+05  9.647414E+04 -1.232250E+05 -5.961420E+03
       521   8 -1.844625E+06 -1.058073E+05 -1.520246E+05  4.890310E+04 -7.348891E+04 -1.921874E+04
       521   9 -1.825102E+06 -8.194493E+04 -1.128998E+05  1.194234E+04 -2.374860E+04 -2.138244E+04
       521  10 -1.045406E+06 -2.116327E+04 -4.549002E+04 -4.235441E+04 -1.487329E-10  1.243086E-10
       521  11 -1.067183E+06  8.285226E+04  1.264208E+04 -5.385610E+03 -8.960790E-10  3.835275E-10
       521  12 -1.116466E+06  8.884516E+04  3.115839E+04  4.219714E+04  2.383910E-11  3.198533E-10
       521  13 -1.470955E+06 -1.267754E+05 -1.473884E+05  2.708351E+04 -1.200666E-09  1.151367E-10
       521  14 -1.455979E+06 -1.147492E+04 -6.969261E+04  2.176682E+04 -1.161348E-09  5.792520E-10
       521  15 -1.470845E+06  3.453284E+03 -4.086846E+04  2.706514E+04 -1.378404E-11  4.516876E-10
       521  16 -1.896326E+06 -2.323825E+05 -2.492970E+05  9.647355E+04 -4.607629E-10  1.503144E-10
       521  17 -1.844631E+06 -1.058091E+05 -1.520355E+05  4.890196E+04  5.345903E-10  1.597001E-10
       521  18 -1.825103E+06 -8.194558E+04 -1.129018E+05  1.194193E+04  1.732200E-10  2.442082E-10
       521  19 -1.045400E+06 -2.116159E+04 -4.547843E+04 -4.235403E+04  7.823486E+04  5.936212E+03
       521  20 -1.067180E+06  8.285347E+04  1.264848E+04 -5.384758E+03  5.504023E+04  1.920866E+04
       521  21 -1.116465E+06  8.884592E+04  3.116115E+04  4.219769E+04  3.184776E+04  2.138384E+04
       521  22 -1.470944E+06 -1.267726E+05 -1.473692E+05  2.708400E+04  1.007376E+05  5.946291E+03
       521  23 -1.455975E+06 -1.147342E+04 -6.968414E+04  2.176782E+04  6.426742E+04  1.921329E+04
       521  24 -1.470844E+06  3.453982E+03 -4.086615E+04  2.706561E+04  2.779705E+04  2.138304E+04
       521  25 -1.896310E+06 -2.323783E+05 -2.492683E+05  9.647414E+04  1.232250E+05  5.961420E+03
       521  26 -1.844625E+06 -1.058073E+05 -1.520246E+05  4.890310E+04  7.348891E+04  1.921874E+04
       521  27 -1.825102E+06 -8.194493E+04 -1.128998E+05  1.194234E+04  2.374860E+04  2.138244E+04
       522   1 -1.136441E+06  7.417317E+04  3.396678E+04  2.553209E+04 -2.357847E+04 -1.960837E+04
       522   2 -1.171165E+06  7.029630E+04  3.793635E+04  2.112796E+04 -1.380018E+04 -1.809515E+04
       522   3 -1.208281E+06  6.191577E+04  3.440809E+04  2.807576E+04 -4.023292E+03 -1.595533E+04
       522   4 -1.464783E+06 -4.967642E+03 -3.292558E+04  2.723383E+04 -2.213599E+04 -1.960883E+04
       522   5 -1.463513E+06 -7.147953E+01 -2.112646E+04  2.155666E+04 -1.161180E+04 -1.809504E+04
       522   6 -1.464768E+06  1.896719E+02 -1.734703E+04  2.723185E+04 -1.088487E+03 -1.595454E+04
       522   7 -1.793021E+06 -8.411519E+04 -9.982360E+04  2.893463E+04 -2.069425E+04 -1.960929E+04
       522   8 -1.755780E+06 -7.044457E+04 -8.019366E+04  2.198514E+04 -9.424441E+03 -1.809493E+04
       522   9 -1.721193E+06 -6.154050E+04 -6.910551E+04  2.638830E+04  1.845126E+03 -1.595376E+04
       522  10 -1.136442E+06  7.417261E+04  3.396501E+04  2.553172E+04  4.698612E-11  5.634206E-10
       522  11 -1.171166E+06  7.029590E+04  3.793537E+04  2.112776E+04  9.460692E-10 -8.602144E-10
       522  12 -1.208281E+06  6.191549E+04  3.440758E+04  2.807571E+04  2.308737E-10 -5.898632E-10
       522  13 -1.464783E+06 -4.968186E+03 -3.292723E+04  2.723348E+04 -6.134984E-14  2.678841E-10
       522  14 -1.463514E+06 -7.186719E+01 -2.112733E+04  2.155649E+04  3.706525E-10 -3.006192E-10
       522  15 -1.464768E+06  1.893985E+02 -1.734751E+04  2.723184E+04  3.578959E-10 -4.974559E-10
       522  16 -1.793022E+06 -8.411572E+04 -9.982513E+04  2.893431E+04  6.456714E-10 -1.607796E-10
       522  17 -1.755780E+06 -7.044494E+04 -8.019444E+04  2.198501E+04  6.122227E-10 -2.462526E-10
       522  18 -1.721193E+06 -6.154078E+04 -6.910599E+04  2.638832E+04 -4.388363E-10  3.423817E-10
       522  19 -1.136441E+06  7.417317E+04  3.396678E+04  2.553209E+04  2.357847E+04  1.960837E+04
       522  20 -1.171165E+06  7.029630E+04  3.793635E+04  2.112796E+04  1.380018E+04  1.809515E+04
       522  21 -1.208281E+06  6.191577E+04  3.440809E+04  2.807576E+04  4.023292E+03  1.595533E+04
       522  22 -1.464783E+06 -4.967642E+03 -3.292558E+04  2.723383E+04  2.213599E+04  1.960883E+04
       522  23 -1.463513E+06 -7.147953E+01 -2.112646E+04  2.155666E+04  1.161180E+04  1.809504E+04
       522  24 -1.464768E+06  1.896719E+02 -1.734703E+04  2.723185E+04  1.088487E+03  1.595454E+04
       522  25 -1.793021E+06 -8.411519E+04 -9.982360E+04  2.893463E+04  2.069425E+04  1.960929E+04
       522  26 -1.755780E+06 -7.044457E+04 -8.019366E+04  2.198514E+04  9.424441E+03  1.809493E+04
       522  27 -1.721193E+06 -6.154050E+04 -6.910551E+04  2.638830E+04 -1.845126E+03  1.595376E+04
       523   1 -1.234279E+06  5.565848E+04  2.885786E+04  2.649747E+04 -7.997642E+02 -1.454333E+04
       523   2 -1.269214E+06  4.666753E+04  1.718412E+04  2.209966E+04  1.001154E+04 -1.216304E+04
       523   3 -1.306786E+06  3.279034E+04 -2.761990E+03  2.920036E+04  2.082180E+04 -9.677351E+03
       523   4 -1.464796E+06  2.153803E+02 -1.749728E+04  2.726419E+04  1.982616E+03 -1.454242E+04
       523   5 -1.463468E+06 -6.992926E+01 -2.194809E+04  2.151620E+04  1.291699E+04 -1.216182E+04
       523   6 -1.464800E+06 -5.263578E+03 -3.475821E+04  2.726698E+04  2.385091E+04 -9.675849E+03
       523   7 -1.695262E+06 -5.523100E+04 -6.385511E+04  2.803061E+04  4.763982E+03 -1.454150E+04
       523   8 -1.657686E+06 -4.680973E+04 -6.108220E+04  2.093291E+04  1.582154E+04 -1.216061E+04
       523   9 -1.622791E+06 -4.331904E+04 -6.675569E+04  2.533410E+04  2.687927E+04 -9.674366E+03
       523  10 -1.234279E+06  5.565825E+04  2.885746E+04  2.649746E+04  2.509250E-10 -5.064492E-10
       523  11 -1.269214E+06  4.666735E+04  1.718365E+04  2.209976E+04 -3.682563E-10 -2.767907E-10
       523  12 -1.306786E+06  3.279013E+04 -2.762983E+03  2.920052E+04  9.348305E-11 -9.177663E-10
       523  13 -1.464796E+06  2.151523E+02 -1.749769E+04  2.726421E+04 -1.343602E-10 -4.742851E-10
       523  14 -1.463468E+06 -7.013291E+01 -2.194868E+04  2.151632E+04 -5.796352E-11 -6.917377E-10
       523  15 -1.464801E+06 -5.263832E+03 -3.475946E+04  2.726717E+04  4.141930E-11 -4.676332E-10
       523  16 -1.695262E+06 -5.523123E+04 -6.385555E+04  2.803067E+04  2.797762E-10 -3.049567E-10
       523  17 -1.657686E+06 -4.680995E+04 -6.108295E+04  2.093307E+04 -7.282352E-10  2.579501E-10
       523  18 -1.622791E+06 -4.331933E+04 -6.675723E+04  2.533431E+04 -6.871276E-10  3.442578E-10
       523  19 -1.234279E+06  5.565848E+04  2.885786E+04  2.649747E+04  7.997642E+02  1.454333E+04
       523  20 -1.269214E+06  4.666753E+04  1.718412E+04  2.209966E+04 -1.001154E+04  1.216304E+04
       523  21 -1.306786E+06  3.279034E+04 -2.761990E+03  2.920036E+04 -2.082180E+04  9.677351E+03
       523  22 -1.464796E+06  2.153803E+02 -1.749728E+04  2.726419E+04 -1.982616E+03  1.454242E+04
       523  23 -1.463468E+06 -6.992926E+01 -2.194809E+04  2.151620E+04 -1.291699E+04  1.216182E+04
       523  24 -1.464800E+06 -5.263578E+03 -3.475821E+04  2.726698E+04 -2.385091E+04  9.675849E+03
       523  25 -1.695262E+06 -5.523100E+04 -6.385511E+04  2.803061E+04 -4.763982E+03  1.454150E+04
       523  26 -1.657686E+06 -4.680973E+04 -6.108220E+04  2.093291E+04 -1.582154E+04  1.216061E+04
       523  27 -1.622791E+06 -4.331904E+04 -6.675569E+04  2.533410E+04 -2.687927E+04  9.674366E+03
       524   1 -1.339334E+06  3.542363E+04 -1.677414E+04  1.128154E+04  2.708044E+04 -8.313422E+03
       524   2 -1.360083E+06  1.089008E+04 -5.447964E+04  5.047985E+04  6.446639E+04 -5.403186E+03
       524   3 -1.412399E+06 -1.202924E+05 -1.432285E+05  1.013426E+05  1.018497E+05 -1.318654E+03
       524   4 -1.471265E+06  3.713625E+03 -4.329806E+04  2.728644E+04  2.983179E+04 -8.311203E+03
       524   5 -1.455404E+06 -1.217290E+04 -7.410119E+04  2.149330E+04  6.861332E+04 -5.403682E+03
       524   6 -1.471360E+06 -1.349664E+05 -1.569222E+05  2.736929E+04  1.073941E+05 -1.327208E+03
       524   7 -1.603178E+06 -2.799649E+04 -6.982270E+04  4.328787E+04  3.258258E+04 -8.308841E+03
       524   8 -1.550714E+06 -3.523328E+04 -9.372271E+04 -7.488711E+03  7.275962E+04 -5.404565E+03
       524   9 -1.530306E+06 -1.496199E+05 -1.706132E+05 -4.659692E+04  1.129379E+05 -1.337086E+03
       524  10 -1.339334E+06  3.542336E+04 -1.677565E+04  1.128172E+04  1.158822E-09 -1.430638E-09
       524  11 -1.360087E+06  1.088893E+04 -5.448752E+04  5.048013E+04  2.418127E-10 -2.022884E-09
       524  12 -1.412410E+06 -1.202952E+05 -1.432480E+05  1.013427E+05 -1.045084E-09 -5.239627E-10
       524  13 -1.471265E+06  3.713311E+03 -4.329987E+04  2.728664E+04  1.829656E-09 -2.635027E-09
       524  14 -1.455409E+06 -1.217420E+04 -7.411011E+04  2.149360E+04 -1.938429E-09  1.184325E-09
       524  15 -1.471372E+06 -1.349695E+05 -1.569440E+05  2.736941E+04  6.429930E-11  5.283811E-11
       524  16 -1.603179E+06 -2.799685E+04 -6.982483E+04  4.328809E+04 -6.750117E-10  5.222248E-11
       524  17 -1.550720E+06 -3.523474E+04 -9.373274E+04 -7.488394E+03 -1.198841E-09  9.379750E-10
       524  18 -1.530319E+06 -1.496234E+05 -1.706372E+05 -4.659680E+04  1.253497E-09 -7.215988E-10
       524  19 -1.339334E+06  3.542363E+04 -1.677414E+04  1.128154E+04 -2.708044E+04  8.313422E+03
       524  20 -1.360083E+06  1.089008E+04 -5.447964E+04  5.047985E+04 -6.446639E+04  5.403186E+03
       524  21 -1.412399E+06 -1.202924E+05 -1.432285E+05  1.013426E+05 -1.018497E+05  1.318654E+03
       524  22 -1.471265E+06  3.713625E+03 -4.329806E+04  2.728644E+04 -2.983179E+04  8.311203E+03
       524  23 -1.455404E+06 -1.217290E+04 -7.410119E+04  2.149330E+04 -6.861332E+04  5.403682E+03
       524  24 -1.471360E+06 -1.349664E+05 -1.569222E+05  2.736929E+04 -1.073941E+05  1.327208E+03
       524  25 -1.603178E+06 -2.799649E+04 -6.982270E+04  4.328787E+04 -3.258258E+04  8.308841E+03
       524  26 -1.550714E+06 -3.523328E+04 -9.372271E+04 -7.488711E+03 -7.275962E+04  5.404565E+03
       524  27 -1.530306E+06 -1.496199E+05 -1.706132E+05 -4.659692E+04 -1.129379E+05  1.337086E+03
       525   1 -7.510567E+05  4.079047E+04  1.446068E+04 -4.205008E+03 -6.693399E+04 -9.083791E+03
       525   2 -8.242459E+05  1.314176E+05  5.504126E+04  2.500333E+04 -5.170199E+04 -2.859646E+04
       525   3 -9.236072E+05  1.251704E+05  6.149795E+04  8.051937E+04 -3.648550E+04 -3.019706E+04
       525   4 -1.428160E+06 -1.271591E+05 -1.479301E+05  6.513036E+04 -1.010000E+05 -9.118110E+03
       525   5 -1.413128E+06 -1.146447E+04 -7.004617E+04  5.191558E+04 -6.432692E+04 -2.861224E+04
       525   6 -1.428039E+06  3.569690E+03 -4.122563E+04  6.501422E+04 -2.766610E+04 -3.018870E+04
       525   7 -2.104829E+06 -2.951232E+05 -3.103464E+05  1.343896E+05 -1.350290E+05 -9.160074E+03
       525   8 -2.001680E+06 -1.543662E+05 -1.951524E+05  7.880181E+04 -7.694001E+04 -2.862914E+04
       525   9 -1.932228E+06 -1.180460E+05 -1.439622E+05  4.952185E+04 -1.885374E+04 -3.018077E+04
       525  10 -7.510615E+05  4.078917E+04  1.445210E+04 -4.205498E+03  1.256222E-09 -3.328945E-10
       525  11 -8.242490E+05  1.314160E+05  5.503470E+04  2.500214E+04  5.410511E-10 -1.847765E-09
       525  12 -9.236089E+05  1.251690E+05  6.149373E+04  8.051848E+04  7.184815E-10 -1.977654E-09
       525  13 -1.428171E+06 -1.271619E+05 -1.479494E+05  6.512962E+04 -3.369267E-10  4.932666E-10
       525  14 -1.413132E+06 -1.146646E+04 -7.005550E+04  5.191410E+04 -4.315093E-10 -1.205778E-09
       525  15 -1.428040E+06  3.568506E+03 -4.122878E+04  6.501355E+04 -8.559697E-10 -2.834658E-10
       525  16 -2.104849E+06 -2.951282E+05 -3.103809E+05  1.343886E+05 -7.316355E-10 -1.752129E-10
       525  17 -2.001687E+06 -1.543687E+05 -1.951651E+05  7.880003E+04  9.599424E-10 -3.335970E-09
       525  18 -1.932229E+06 -1.180471E+05 -1.439645E+05  4.952139E+04  7.400124E-10 -3.453817E-09
       525  19 -7.510567E+05  4.079047E+04  1.446068E+04 -4.205008E+03  6.693399E+04  9.083791E+03
       525  20 -8.242459E+05  1.314176E+05  5.504126E+04  2.500333E+04  5.170199E+04  2.859646E+04
       525  21 -9.236072E+05  1.251704E+05  6.149795E+04  8.051937E+04  3.648550E+04  3.019706E+04
       525  22 -1.428160E+06 -1.271591E+05 -1.479301E+05  6.513036E+04  1.010000E+05  9.118110E+03
       525  23 -1.413128E+06 -1.146447E+04 -7.004617E+04  5.191558E+04  6.432692E+04  2.861224E+04
       525  24 -1.428039E+06  3.569690E+03 -4.122563E+04  6.501422E+04  2.766610E+04  3.018870E+04
       525  25 -2.104829E+06 -2.951232E+05 -3.103464E+05  1.343896E+05  1.350290E+05  9.160074E+03
       525  26 -2.001680E+06 -1.543662E+05 -1.951524E+05  7.880181E+04  7.694001E+04  2.862914E+04
       525  27 -1.932228E+06 -1.180460E+05 -1.439622E+05  4.952185E+04  1.885374E+04  3.018077E+04
       526   1 -9.802386E+05  1.016137E+05  5.678920E+04  6.385804E+04 -2.655224E+04 -2.621491E+04
       526   2 -1.065721E+06  8.547589E+04  5.005832E+04  5.135053E+04 -1.690787E+04 -2.187542E+04
       526   3 -1.153608E+06  6.492091E+04  3.592499E+04  6.627070E+04 -7.267464E+03 -1.655269E+04
       526   4 -1.421967E+06 -4.870099E+03 -3.333505E+04  6.528810E+04 -2.194316E+04 -2.621121E+04
       526   5 -1.420644E+06  3.771310E+01 -2.172294E+04  5.157051E+04 -1.112736E+04 -2.186938E+04
       526   6 -1.421940E+06  3.233073E+02 -1.833175E+04  6.528173E+04 -3.142032E+02 -1.654407E+04
       526   7 -1.863509E+06 -1.113661E+05 -1.234695E+05  6.671707E+04 -1.733730E+04 -2.620749E+04
       526   8 -1.775448E+06 -8.540828E+04 -9.351058E+04  5.179032E+04 -5.350097E+03 -2.186334E+04
       526   9 -1.690203E+06 -6.427874E+04 -7.259203E+04  6.429317E+04  6.636105E+03 -1.653548E+04
       526  10 -9.802396E+05  1.016128E+05  5.678658E+04  6.385748E+04 -1.998428E-09 -2.468133E-09
       526  11 -1.065721E+06  8.547530E+04  5.005688E+04  5.135023E+04 -1.416348E-09  1.006197E-09
       526  12 -1.153608E+06  6.492060E+04  3.592438E+04  6.627061E+04 -3.112501E-10  1.585608E-09
       526  13 -1.421967E+06 -4.870966E+03 -3.333725E+04  6.528764E+04  5.397226E-10 -1.523240E-09
       526  14 -1.420645E+06  3.716655E+01 -2.172407E+04  5.157031E+04  2.075860E-10 -1.253314E-10
       526  15 -1.421940E+06  3.230135E+02 -1.833226E+04  6.528173E+04  7.312473E-10 -1.049087E-09
       526  16 -1.863509E+06 -1.113670E+05 -1.234714E+05  6.671670E+04  2.940581E-09 -3.535450E-10
       526  17 -1.775448E+06 -8.540880E+04 -9.351154E+04  5.179023E+04  1.064549E-09  6.938416E-10
       526  18 -1.690203E+06 -6.427904E+04 -7.259262E+04  6.429326E+04  2.473069E-10  2.972763E-10
       526  19 -9.802386E+05  1.016137E+05  5.678920E+04  6.385804E+04  2.655224E+04  2.621491E+04
       526  20 -1.065721E+06  8.547589E+04  5.005832E+04  5.135053E+04  1.690787E+04  2.187542E+04
       526  21 -1.153608E+06  6.492091E+04  3.592499E+04  6.627070E+04  7.267464E+03  1.655269E+04
       526  22 -1.421967E+06 -4.870099E+03 -3.333505E+04  6.528810E+04  2.194316E+04  2.621121E+04
       526  23 -1.420644E+06  3.771310E+01 -2.172294E+04  5.157051E+04  1.112736E+04  2.186938E+04
       526  24 -1.421940E+06  3.233073E+02 -1.833175E+04  6.528173E+04  3.142032E+02  1.654407E+04
       526  25 -1.863509E+06 -1.113661E+05 -1.234695E+05  6.671707E+04  1.733730E+04  2.620749E+04
       526  26 -1.775448E+06 -8.540828E+04 -9.351058E+04  5.179032E+04  5.350097E+03  2.186334E+04
       526  27 -1.690203E+06 -6.427874E+04 -7.259203E+04  6.429317E+04 -6.636105E+03  1.653548E+04
       527   1 -1.216181E+06  4.987666E+04  2.248850E+04  6.452957E+04 -3.852167E+03 -1.315410E+04
       527   2 -1.301641E+06  2.861023E+04 -3.281044E+02  5.219834E+04  8.502997E+03 -7.593793E+03
       527   3 -1.390164E+06  1.856612E+03 -3.259451E+04  6.743012E+04  2.085603E+04 -2.304210E+03
       527   4 -1.422021E+06  3.978395E+02 -1.877527E+04  6.531119E+04  2.952134E+03 -1.314523E+04
       527   5 -1.420517E+06  3.214973E+01 -2.415127E+04  5.153362E+04  1.498024E+04 -7.585013E+03
       527   6 -1.422025E+06 -5.763863E+03 -3.875009E+04  6.531957E+04  2.700788E+04 -2.295577E+03
       527   7 -1.627821E+06 -4.908357E+04 -6.004102E+04  6.609253E+04  9.754220E+03 -1.313635E+04
       527   8 -1.539379E+06 -2.854677E+04 -4.797500E+04  5.086902E+04  2.145626E+04 -7.576245E+03
       527   9 -1.453884E+06 -1.338436E+04 -4.490558E+04  6.320912E+04  3.315942E+04 -2.286986E+03
       527  10 -1.216181E+06  4.987647E+04  2.248815E+04  6.452952E+04 -1.605955E-09  2.346888E-09
       527  11 -1.301642E+06  2.861014E+04 -3.283489E+02  5.219839E+04 -1.174834E-09  1.765701E-09
       527  12 -1.390164E+06  1.856489E+03 -3.259534E+04  6.743016E+04  1.925689E-09 -3.182207E-10
       527  13 -1.422021E+06  3.976518E+02 -1.877561E+04  6.531122E+04  1.292785E-09 -1.590492E-09
       527  14 -1.420517E+06  3.202756E+01 -2.415180E+04  5.153371E+04 -6.856876E-10  1.938915E-09
       527  15 -1.422025E+06 -5.764065E+03 -3.875148E+04  6.531962E+04 -4.096744E-10  3.294030E-09
       527  16 -1.627821E+06 -4.908378E+04 -6.004152E+04  6.609263E+04  2.391890E-09  1.068018E-09
       527  17 -1.539379E+06 -2.854696E+04 -4.797597E+04  5.086915E+04  1.111114E-09  2.383461E-09
       527  18 -1.453885E+06 -1.338466E+04 -4.490766E+04  6.320918E+04 -1.007964E-09  1.429173E-09
       527  19 -1.216181E+06  4.987666E+04  2.248850E+04  6.452957E+04  3.852167E+03  1.315410E+04
       527  20 -1.301641E+06  2.861023E+04 -3.281044E+02  5.219834E+04 -8.502997E+03  7.593793E+03
       527  21 -1.390164E+06  1.856612E+03 -3.259451E+04  6.743012E+04 -2.085603E+04  2.304210E+03
       527  22 -1.422021E+06  3.978395E+02 -1.877527E+04  6.531119E+04 -2.952134E+03  1.314523E+04
       527  23 -1.420517E+06  3.214973E+01 -2.415127E+04  5.153362E+04 -1.498024E+04  7.585013E+03
       527  24 -1.422025E+06 -5.763863E+03 -3.875009E+04  6.531957E+04 -2.700788E+04  2.295577E+03
       527  25 -1.627821E+06 -4.908357E+04 -6.004102E+04  6.609253E+04 -9.754220E+03  1.313635E+04
       527  26 -1.539379E+06 -2.854677E+04 -4.797500E+04  5.086902E+04 -2.145626E+04  7.576245E+03
       527  27 -1.453884E+06 -1.338436E+04 -4.490558E+04  6.320912E+04 -3.315942E+04  2.286986E+03
       528   1 -1.460130E+06 -3.278571E+03 -5.518036E+04  4.714833E+04  2.612497E+04  1.272222E+03
       528   2 -1.528839E+06 -4.212916E+04 -1.089150E+05  8.401526E+04  7.676602E+04  4.661442E+03
       528   3 -1.634557E+06 -2.021878E+05 -2.259985E+05  1.482230E+05  1.274067E+05  2.084665E+03
       528   4 -1.429288E+06  4.313654E+03 -4.841032E+04  6.522591E+04  3.367542E+04  1.283672E+03
       528   5 -1.411462E+06 -1.355940E+04 -8.309813E+04  5.165439E+04  7.716784E+04  4.657905E+03
       528   6 -1.429401E+06 -1.513918E+05 -1.761529E+05  6.543344E+04  1.206673E+05  2.058406E+03
       528   7 -1.398445E+06  1.190707E+04 -4.163995E+04  8.330441E+04  4.122625E+04  1.295562E+03
       528   8 -1.294071E+06  1.501340E+04 -5.728150E+04  1.928730E+04  7.756974E+04  4.654327E+03
       528   9 -1.224192E+06 -1.005729E+05 -1.263063E+05 -1.738360E+04  1.139258E+05  2.033954E+03
       528  10 -1.460130E+06 -3.278756E+03 -5.518165E+04  4.714831E+04  1.764711E-09 -7.169720E-10
       528  11 -1.528845E+06 -4.213077E+04 -1.089262E+05  8.401498E+04 -8.622908E-10  3.086143E-09
       528  12 -1.634574E+06 -2.021922E+05 -2.260291E+05  1.482228E+05 -8.683198E-10  1.247061E-09
       528  13 -1.429289E+06  4.313347E+03 -4.841246E+04  6.522588E+04  3.299073E-11  1.060030E-09
       528  14 -1.411469E+06 -1.356102E+04 -8.310938E+04  5.165410E+04 -1.675282E-09  2.899743E-09
       528  15 -1.429417E+06 -1.513957E+05 -1.761803E+05  6.543324E+04  6.467804E-10 -5.954838E-10
       528  16 -1.398447E+06  1.190661E+04 -4.164315E+04  8.330436E+04 -6.212997E-10  1.099415E-09
       528  17 -1.294077E+06  1.501176E+04 -5.729287E+04  1.928701E+04  1.894375E-10  7.036462E-11
       528  18 -1.224206E+06 -1.005764E+05 -1.263308E+05 -1.738379E+04  4.148713E-10 -8.898990E-10
       528  19 -1.460130E+06 -3.278571E+03 -5.518036E+04  4.714833E+04 -2.612497E+04 -1.272222E+03
       528  20 -1.528839E+06 -4.212916E+04 -1.089150E+05  8.401526E+04 -7.676602E+04 -4.661442E+03
       528  21 -1.634557E+06 -2.021878E+05 -2.259985E+05  1.482230E+05 -1.274067E+05 -2.084665E+03
       528  22 -1.429288E+06  4.313654E+03 -4.841032E+04  6.522591E+04 -3.367542E+04 -1.283672E+03
       528  23 -1.411462E+06 -1.355940E+04 -8.309813E+04  5.165439E+04 -7.716784E+04 -4.657905E+03
       528  24 -1.429401E+06 -1.513918E+05 -1.761529E+05  6.543344E+04 -1.206673E+05 -2.058406E+03
       528  25 -1.398445E+06  1.190707E+04 -4.163995E+04  8.330441E+04 -4.122625E+04 -1.295562E+03
       528  26 -1.294071E+06  1.501340E+04 -5.728150E+04  1.928730E+04 -7.756974E+04 -4.654327E+03
       528  27 -1.224192E+06 -1.005729E+05 -1.263063E+05 -1.738360E+04 -1.139258E+05 -2.033954E+03
       529   1 -4.799596E+05  5.708767E+04  3.935723E+04  2.085899E+04 -3.691043E+04 -7.254111E+03
       529   2 -5.578439E+05  1.063878E+05  5.496086E+04  3.450123E+04 -3.127434E+04 -2.245157E+04
       529   3 -6.516911E+05  9.491512E+04  5.170644E+04  7.451459E+04 -2.565862E+04 -2.282980E+04
       529   4 -1.035567E+06 -8.065960E+04 -9.400119E+04  6.459913E+04 -6.399255E+04 -7.294556E+03
       529   5 -1.025998E+06 -7.189318E+03 -4.466436E+04  5.135101E+04 -4.060056E+04 -2.246761E+04
       529   6 -1.035501E+06  2.394345E+03 -2.654225E+04  6.447751E+04 -1.722725E+04 -2.281687E+04
       529   7 -1.590886E+06 -2.184217E+05 -2.273777E+05  1.082998E+05 -9.105048E+04 -7.338841E+03
       529   8 -1.493944E+06 -1.207795E+05 -1.443017E+05  6.818781E+04 -4.991985E+04 -2.248417E+04
       529   9 -1.419170E+06 -9.013525E+04 -1.047984E+05  5.444670E+04 -8.801007E+03 -2.280420E+04
       529  10 -4.799610E+05  5.708725E+04  3.935457E+04  2.085877E+04  3.249694E-09 -1.525043E-09
       529  11 -5.578451E+05  1.063870E+05  5.495807E+04  3.450066E+04 -6.470864E-10 -1.284357E-09
       529  12 -6.516919E+05  9.491438E+04  5.170422E+04  7.451412E+04 -4.033084E-09 -1.183029E-09
       529  13 -1.035572E+06 -8.066076E+04 -9.400900E+04  6.459875E+04 -7.266880E-10  1.939217E-09
       529  14 -1.026000E+06 -7.190304E+03 -4.466841E+04  5.135028E+04 -8.505384E-10 -1.006168E-09
       529  15 -1.035502E+06  2.393706E+03 -2.654379E+04  6.447720E+04  5.305585E-10 -1.567939E-09
       529  16 -1.590895E+06 -2.184239E+05 -2.273934E+05  1.082993E+05 -3.092674E-09  4.955303E-10
       529  17 -1.493947E+06 -1.207808E+05 -1.443073E+05  6.818691E+04  2.613200E-10 -3.140717E-09
       529  18 -1.419171E+06 -9.013583E+04 -1.047995E+05  5.444654E+04  4.604843E-09 -1.876404E-09
       529  19 -4.799596E+05  5.708767E+04  3.935723E+04  2.085899E+04  3.691043E+04  7.254111E+03
       529  20 -5.578439E+05  1.063878E+05  5.496086E+04  3.450123E+04  3.127434E+04  2.245157E+04
       529  21 -6.516911E+05  9.491512E+04  5.170644E+04  7.451459E+04  2.565862E+04  2.282980E+04
       529  22 -1.035567E+06 -8.065960E+04 -9.400119E+04  6.459913E+04  6.399255E+04  7.294556E+03
       529  23 -1.025998E+06 -7.189318E+03 -4.466436E+04  5.135101E+04  4.060056E+04  2.246761E+04
       529  24 -1.035501E+06  2.394345E+03 -2.654225E+04  6.447751E+04  1.722725E+04  2.281687E+04
       529  25 -1.590886E+06 -2.184217E+05 -2.273777E+05  1.082998E+05  9.105048E+04  7.338841E+03
       529  26 -1.493944E+06 -1.207795E+05 -1.443017E+05  6.818781E+04  4.991985E+04  2.248417E+04
       529  27 -1.419170E+06 -9.013525E+04 -1.047984E+05  5.444670E+04  8.801007E+03  2.280420E+04
       530   1 -7.100283E+05  7.455938E+04  4.402151E+04  6.391448E+04 -1.846488E+04 -1.898035E+04
       530   2 -7.952215E+05  5.682952E+04  3.300562E+04  5.099521E+04 -1.212195E+04 -1.444913E+04
       530   3 -8.820238E+05  3.633513E+04  1.714165E+04  6.528729E+04 -5.782331E+03 -9.119810E+03
       530   4 -1.031656E+06 -2.960447E+03 -2.165929E+04  6.469096E+04 -1.351882E+04 -1.897289E+04
       530   5 -1.030756E+06  1.412571E+02 -1.466650E+04  5.108211E+04 -6.222615E+03 -1.443942E+04
       530   6 -1.031640E+06  3.121677E+02 -1.318647E+04  6.468535E+04  1.071146E+03 -9.107699E+03
       530   7 -1.353184E+06 -8.048674E+04 -8.734545E+04  6.546699E+04 -8.575285E+03 -1.896542E+04
       530   8 -1.266238E+06 -5.655043E+04 -6.234136E+04  5.116896E+04 -3.254720E+02 -1.442970E+04
       530   9 -1.181234E+06 -3.571216E+04 -4.351558E+04  6.408355E+04  7.923001E+03 -9.095600E+03
       530  10 -7.100287E+05  7.455890E+04  4.402019E+04  6.391420E+04 -5.314493E-10  1.337974E-09
       530  11 -7.952217E+05  5.682925E+04  3.300495E+04  5.099507E+04 -1.721371E-09  4.817463E-10
       530  12 -8.820238E+05  3.633503E+04  1.714143E+04  6.528725E+04 -3.034218E-09  1.904960E-09
       530  13 -1.031656E+06 -2.960882E+03 -2.166031E+04  6.469076E+04 -3.116748E-10  6.108996E-11
       530  14 -1.030756E+06  1.410230E+02 -1.466696E+04  5.108204E+04 -1.987793E-10  6.381593E-10
       530  15 -1.031640E+06  3.120783E+02 -1.318663E+04  6.468536E+04 -2.438929E-11  1.545525E-09
       530  16 -1.353185E+06 -8.048715E+04 -8.734626E+04  6.546686E+04  1.075978E-09  1.550076E-09
       530  17 -1.266238E+06 -5.655066E+04 -6.234175E+04  5.116895E+04  3.420715E-09 -4.685258E-09
       530  18 -1.181234E+06 -3.571227E+04 -4.351585E+04  6.408361E+04  3.637188E-09  3.415126E-10
       530  19 -7.100283E+05  7.455938E+04  4.402151E+04  6.391448E+04  1.846488E+04  1.898035E+04
       530  20 -7.952215E+05  5.682952E+04  3.300562E+04  5.099521E+04  1.212195E+04  1.444913E+04
       530  21 -8.820238E+05  3.633513E+04  1.714165E+04  6.528729E+04  5.782331E+03  9.119810E+03
       530  22 -1.031656E+06 -2.960447E+03 -2.165929E+04  6.469096E+04  1.351882E+04  1.897289E+04
       530  23 -1.030756E+06  1.412571E+02 -1.466650E+04  5.108211E+04  6.222615E+03  1.443942E+04
       530  24 -1.031640E+06  3.121677E+02 -1.318647E+04  6.468535E+04 -1.071146E+03  9.107699E+03
       530  25 -1.353184E+06 -8.048674E+04 -8.734545E+04  6.546699E+04  8.575285E+03  1.896542E+04
       530  26 -1.266238E+06 -5.655043E+04 -6.234136E+04  5.116896E+04  3.254720E+02  1.442970E+04
       530  27 -1.181234E+06 -3.571216E+04 -4.351558E+04  6.408355E+04 -7.923001E+03  9.095600E+03
       531   1 -9.440642E+05  2.148625E+04  3.508035E+03  6.396293E+04 -3.319606E+03 -5.753608E+03
       531   2 -1.028911E+06  4.511873E+02 -1.871513E+04  5.147375E+04  6.617031E+03 -3.024259E+02
       531   3 -1.116269E+06 -2.501210E+04 -4.855197E+04  6.625183E+04  1.655282E+04  4.705749E+03
       531   4 -1.031780E+06  4.346289E+02 -1.395439E+04  6.469685E+04  3.458160E+03 -5.741413E+03
       531   5 -1.030569E+06  8.345305E+01 -1.888476E+04  5.106766E+04  1.286325E+04 -2.911927E+02
       531   6 -1.031785E+06 -4.603265E+03 -3.105899E+04  6.470589E+04  2.226884E+04  4.716004E+03
       531   7 -1.119488E+06 -2.061743E+04 -3.141703E+04  6.543067E+04  1.023499E+04 -5.729200E+03
       531   8 -1.032227E+06 -2.842597E+02 -1.905425E+04  5.066157E+04  1.910946E+04 -2.799677E+02
       531   9 -9.472948E+05  1.580514E+04 -1.356627E+04  6.315974E+04  2.798562E+04  4.726229E+03
       531  10 -9.440642E+05  2.148621E+04  3.507952E+03  6.396291E+04 -3.001667E-09  5.198510E-09
       531  11 -1.028911E+06  4.511754E+02 -1.871522E+04  5.147376E+04 -6.680018E-10  2.618196E-09
       531  12 -1.116269E+06 -2.501220E+04 -4.855253E+04  6.625177E+04  2.685239E-09  3.792902E-09
       531  13 -1.031780E+06  4.345903E+02 -1.395448E+04  6.469687E+04  8.032189E-10  2.527012E-09
       531  14 -1.030569E+06  8.340845E+01 -1.888508E+04  5.106766E+04 -1.455415E-09  2.427771E-09
       531  15 -1.031786E+06 -4.603423E+03 -3.105996E+04  6.470581E+04  8.038007E-10 -2.455097E-10
       531  16 -1.119488E+06 -2.061750E+04 -3.141729E+04  6.543072E+04  4.301777E-09  1.714109E-09
       531  17 -1.032228E+06 -2.843580E+02 -1.905493E+04  5.066157E+04  1.404458E-09  5.783244E-10
       531  18 -9.472956E+05  1.580491E+04 -1.356778E+04  6.315963E+04 -1.958089E-09 -4.161249E-09
       531  19 -9.440642E+05  2.148625E+04  3.508035E+03  6.396293E+04  3.319606E+03  5.753608E+03
       531  20 -1.028911E+06  4.511873E+02 -1.871513E+04  5.147375E+04 -6.617031E+03  3.024259E+02
       531  21 -1.116269E+06 -2.501210E+04 -4.855197E+04  6.625183E+04 -1.655282E+04 -4.705749E+03
       531  22 -1.031780E+06  4.346289E+02 -1.395439E+04  6.469685E+04 -3.458160E+03  5.741413E+03
       531  23 -1.030569E+06  8.345305E+01 -1.888476E+04  5.106766E+04 -1.286325E+04  2.911927E+02
       531  24 -1.031785E+06 -4.603265E+03 -3.105899E+04  6.470589E+04 -2.226884E+04 -4.716004E+03
       531  25 -1.119488E+06 -2.061743E+04 -3.141703E+04  6.543067E+04 -1.023499E+04  5.729200E+03
       531  26 -1.032227E+06 -2.842597E+02 -1.905425E+04  5.066157E+04 -1.910946E+04  2.799677E+02
       531  27 -9.472948E+05  1.580514E+04 -1.356627E+04  6.315974E+04 -2.798562E+04 -4.726229E+03
       532   1 -1.184272E+06 -3.188442E+04 -6.922273E+04  4.970666E+04  1.982884E+04  8.344959E+03
       532   2 -1.255057E+06 -6.726376E+04 -1.172285E+05  7.730553E+04  6.565922E+04  1.050425E+04
       532   3 -1.356722E+06 -2.018216E+05 -2.199307E+05  1.317639E+05  1.114976E+05  3.826146E+03
       532   4 -1.037692E+06  3.573219E+03 -3.900989E+04  6.456863E+04  2.761923E+04  8.359244E+03
       532   5 -1.023213E+06 -1.096418E+04 -6.732896E+04  5.124253E+04  6.286539E+04  1.049635E+04
       532   6 -1.037768E+06 -1.228237E+05 -1.429712E+05  6.478186E+04  9.812628E+04  3.791497E+03
       532   7 -8.910914E+05  3.903035E+04 -8.797858E+03  7.943417E+04  3.541143E+04  8.373901E+03
       532   8 -7.913182E+05  4.533445E+04 -1.743221E+04  2.516961E+04  6.007053E+04  1.048869E+04
       532   9 -7.187097E+05 -4.381605E+04 -6.601590E+04 -2.234815E+03  8.474813E+04  3.759750E+03
       532  10 -1.184272E+06 -3.188460E+04 -6.922360E+04  4.970653E+04 -1.143447E-09  3.089399E-09
       532  11 -1.255061E+06 -6.726504E+04 -1.172368E+05  7.730497E+04 -1.217163E-10 -6.419523E-10
       532  12 -1.356735E+06 -2.018250E+05 -2.199542E+05  1.317636E+05  5.998186E-10  1.731816E-11
       532  13 -1.037693E+06  3.572938E+03 -3.901145E+04  6.456844E+04 -7.225609E-10  4.097541E-09
       532  14 -1.023218E+06 -1.096536E+04 -6.733661E+04  5.124199E+04  3.971436E-10 -4.280628E-09
       532  15 -1.037778E+06 -1.228263E+05 -1.429894E+05  6.478156E+04 -4.529163E-10  2.188600E-09
       532  16 -8.910928E+05  3.902994E+04 -8.800349E+03  7.943393E+04  2.024993E-09  1.142779E-09
       532  17 -7.913221E+05  4.533336E+04 -1.743921E+04  2.516911E+04  1.302313E-10  8.653258E-10
       532  18 -7.187174E+05 -4.381800E+04 -6.602943E+04 -2.235072E+03 -2.134088E-10 -9.094211E-10
       532  19 -1.184272E+06 -3.188442E+04 -6.922273E+04  4.970666E+04 -1.982884E+04 -8.344959E+03
       532  20 -1.255057E+06 -6.726376E+04 -1.172285E+05  7.730553E+04 -6.565922E+04 -1.050425E+04
       532  21 -1.356722E+06 -2.018216E+05 -2.199307E+05  1.317639E+05 -1.114976E+05 -3.826146E+03
       532  22 -1.037692E+06  3.573219E+03 -3.900989E+04  6.456863E+04 -2.761923E+04 -8.359244E+03
       532  23 -1.023213E+06 -1.096418E+04 -6.732896E+04  5.124253E+04 -6.286539E+04 -1.049635E+04
       532  24 -1.037768E+06 -1.228237E+05 -1.429712E+05  6.478186E+04 -9.812628E+04 -3.791497E+03
       532  25 -8.910914E+05  3.903035E+04 -8.797858E+03  7.943417E+04 -3.541143E+04 -8.373901E+03
       532  26 -7.913182E+05  4.533445E+04 -1.743221E+04  2.516961E+04 -6.007053E+04 -1.048869E+04
       532  27 -7.187097E+05 -4.381605E+04 -6.601590E+04 -2.234815E+03 -8.474813E+04 -3.759750E+03
       533   1 -2.270906E+05  4.452018E+04  3.619798E+04  2.452333E+04 -1.243397E+04 -4.058411E+03
       533   2 -2.812920E+05  6.044042E+04  3.636293E+04  2.723278E+04 -1.257138E+04 -1.238593E+04
       533   3 -3.419803E+05  5.054943E+04  3.016227E+04  4.765283E+04 -1.272250E+04 -1.211215E+04
       533   4 -5.471541E+05 -3.482242E+04 -4.068149E+04  4.331304E+04 -2.757371E+04 -4.083750E+03
       533   5 -5.430016E+05 -3.053611E+03 -1.942842E+04  3.442691E+04 -1.739628E+04 -1.239468E+04
       533   6 -5.471353E+05  1.105702E+03 -1.171094E+04  4.325269E+04 -7.232441E+03 -1.210265E+04
       533   7 -8.671224E+05 -1.141710E+05 -1.175672E+05  6.209297E+04 -4.270567E+04 -4.110012E+03
       533   8 -8.046464E+05 -6.655189E+04 -7.522361E+04  4.161794E+04 -2.221918E+04 -1.240353E+04
       533   9 -7.522500E+05 -4.834057E+04 -5.358625E+04  3.885402E+04 -1.744161E+03 -1.209322E+04
       533  10 -2.270908E+05  4.452012E+04  3.619766E+04  2.452329E+04 -4.975834E-09  1.760399E-09
       533  11 -2.812922E+05  6.044021E+04  3.636234E+04  2.723265E+04 -2.311572E-09  5.275216E-09
       533  12 -3.419805E+05  5.054923E+04  3.016169E+04  4.765270E+04  2.712665E-10  3.416449E-09
       533  13 -5.471549E+05 -3.482264E+04 -4.068295E+04  4.331294E+04  6.674669E-10 -2.179858E-09
       533  14 -5.430019E+05 -3.053857E+03 -1.942928E+04  3.442674E+04 -3.159023E-10 -6.072877E-09
       533  15 -5.471354E+05  1.105531E+03 -1.171131E+04  4.325262E+04  6.459318E-10  1.507748E-09
       533  16 -8.671243E+05 -1.141715E+05 -1.175706E+05  6.209283E+04  6.179257E-09 -2.065813E-10
       533  17 -8.046470E+05 -6.655219E+04 -7.522482E+04  4.161772E+04  2.582095E-09  4.100445E-09
       533  18 -7.522501E+05 -4.834073E+04 -5.358653E+04  3.885401E+04 -2.126430E-10  3.922311E-10
       533  19 -2.270906E+05  4.452018E+04  3.619798E+04  2.452333E+04  1.243397E+04  4.058411E+03
       533  20 -2.812920E+05  6.044042E+04  3.636293E+04  2.723278E+04  1.257138E+04  1.238593E+04
       533  21 -3.419803E+05  5.054943E+04  3.016227E+04  4.765283E+04  1.272250E+04  1.211215E+04
       533  22 -5.471541E+05 -3.482242E+04 -4.068149E+04  4.331304E+04  2.757371E+04  4.083750E+03
       533  23 -5.430016E+05 -3.053611E+03 -1.942842E+04  3.442691E+04  1.739628E+04  1.239468E+04
       533  24 -5.471353E+05  1.105702E+03 -1.171094E+04  4.325269E+04  7.232441E+03  1.210265E+04
       533  25 -8.671224E+05 -1.141710E+05 -1.175672E+05  6.209297E+04  4.270567E+04  4.110012E+03
       533  26 -8.046464E+05 -6.655189E+04 -7.522361E+04  4.161794E+04  2.221918E+04  1.240353E+04
       533  27 -7.522500E+05 -4.834057E+04 -5.358625E+04  3.885402E+04  1.744161E+03  1.209322E+04
       534   1 -3.818331E+05  3.822656E+04  2.377212E+04  4.305885E+04 -9.046570E+03 -9.588439E+03
       534   2 -4.388829E+05  2.567208E+04  1.460897E+04  3.422980E+04 -6.159818E+03 -6.466319E+03
       534   3 -4.966760E+05  1.194211E+04  3.252924E+03  4.356814E+04 -3.274517E+03 -2.888773E+03
       534   4 -5.454792E+05 -1.208536E+03 -9.682185E+03  4.336757E+04 -5.580224E+03 -9.582406E+03
       534   5 -5.450558E+05  1.234379E+02 -6.905849E+03  3.428251E+04 -2.148152E+03 -6.459108E+03
       534   6 -5.454747E+05  1.849440E+02 -6.701992E+03  4.336505E+04  1.282722E+03 -2.880340E+03
       534   7 -7.090998E+05 -4.064531E+04 -4.313786E+04  4.367620E+04 -2.114777E+03 -9.576369E+03
       534   8 -6.512179E+05 -2.542589E+04 -2.842120E+04  3.433520E+04  1.862842E+03 -6.451896E+03
       534   9 -5.942711E+05 -1.157236E+04 -1.665696E+04  4.316198E+04  5.839608E+03 -2.871910E+03
       534  10 -3.818332E+05  3.822644E+04  2.377179E+04  4.305878E+04 -2.181181E-08 -1.583580E-10
       534  11 -4.388830E+05  2.567202E+04  1.460882E+04  3.422977E+04 -1.061389E-09  3.306570E-09
       534  12 -4.966761E+05  1.194210E+04  3.252888E+03  4.356813E+04  2.221435E-08  3.834598E-09
       534  13 -5.454793E+05 -1.208643E+03 -9.682416E+03  4.336753E+04  1.464744E-10  5.722767E-09
       534  14 -5.450558E+05  1.233918E+02 -6.905936E+03  3.428250E+04  1.036478E-09 -1.229522E-08
       534  15 -5.454747E+05  1.849347E+02 -6.702011E+03  4.336506E+04 -3.190998E-10  4.583211E-09
       534  16 -7.090998E+05 -4.064541E+04 -4.313804E+04  4.367618E+04  2.357979E-08 -5.088186E-09
       534  17 -6.512179E+05 -2.542594E+04 -2.842128E+04  3.433521E+04  1.510107E-09 -3.903132E-09
       534  18 -5.942712E+05 -1.157238E+04 -1.665704E+04  4.316200E+04 -2.293591E-08  8.412174E-10
       534  19 -3.818331E+05  3.822656E+04  2.377212E+04  4.305885E+04  9.046570E+03  9.588439E+03
       534  20 -4.388829E+05  2.567208E+04  1.460897E+04  3.422980E+04  6.159818E+03  6.466319E+03
       534  21 -4.966760E+05  1.194211E+04  3.252924E+03  4.356814E+04  3.274517E+03  2.888773E+03
       534  22 -5.454792E+05 -1.208536E+03 -9.682185E+03  4.336757E+04  5.580224E+03  9.582406E+03
       534  23 -5.450558E+05  1.234379E+02 -6.905849E+03  3.428251E+04  2.148152E+03  6.459108E+03
       534  24 -5.454747E+05  1.849440E+02 -6.701992E+03  4.336505E+04 -1.282722E+03  2.880340E+03
       534  25 -7.090998E+05 -4.064531E+04 -4.313786E+04  4.367620E+04  2.114777E+03  9.576369E+03
       534  26 -6.512179E+05 -2.542589E+04 -2.842120E+04  3.433520E+04 -1.862842E+03  6.451896E+03
       534  27 -5.942711E+05 -1.157236E+04 -1.665696E+04  4.316198E+04 -5.839608E+03  2.871910E+03
       535   1 -5.380873E+05  2.061164E+03 -5.972133E+03  4.286351E+04 -2.020847E+03 -6.442455E+02
       535   2 -5.947952E+05 -1.195535E+04 -2.063022E+04  3.442394E+04  3.635632E+03  2.965355E+03
       535   3 -6.529516E+05 -2.850427E+04 -3.962727E+04  4.416232E+04  9.292480E+03  6.203298E+03
       535   4 -5.455922E+05  2.862050E+02 -7.348680E+03  4.336669E+04  2.518066E+03 -6.358132E+02
       535   5 -5.449075E+05  6.149669E+01 -1.046174E+04  3.428040E+04  7.729086E+03  2.972860E+03
       535   6 -5.455958E+05 -2.617610E+03 -1.760348E+04  4.337203E+04  1.294097E+04  6.209888E+03
       535   7 -5.530970E+05 -1.488745E+03 -8.725152E+03  4.386986E+04  7.056925E+03 -6.273735E+02
       535   8 -4.950174E+05  1.207819E+04 -2.933260E+02  3.413685E+04  1.182286E+04  2.980362E+03
       535   9 -4.382291E+05  2.326834E+04  4.419743E+03  4.258159E+04  1.659009E+04  6.216467E+03
       535  10 -5.380873E+05  2.061162E+03 -5.972142E+03  4.286351E+04  5.705573E-09 -2.473470E-09
       535  11 -5.947952E+05 -1.195536E+04 -2.063026E+04  3.442393E+04 -8.462262E-09 -2.334910E-09
       535  12 -6.529517E+05 -2.850434E+04 -3.962750E+04  4.416228E+04 -1.820715E-08 -2.478207E-09
       535  13 -5.455922E+05  2.862029E+02 -7.348693E+03  4.336669E+04 -2.832657E-10 -1.563206E-09
       535  14 -5.449076E+05  6.147115E+01 -1.046187E+04  3.428038E+04 -7.630003E-10 -2.516012E-09
       535  15 -5.455960E+05 -2.617696E+03 -1.760387E+04  4.337197E+04  7.754360E-10 -4.430506E-09
       535  16 -5.530970E+05 -1.488759E+03 -8.725246E+03  4.386986E+04 -4.241589E-09 -1.655277E-09
       535  17 -4.950176E+05  1.207815E+04 -2.936056E+02  3.413682E+04  7.991755E-09  2.303996E-09
       535  18 -4.382294E+05  2.326822E+04  4.419153E+03  4.258151E+04  1.861860E-08  3.653160E-09
       535  19 -5.380873E+05  2.061164E+03 -5.972133E+03  4.286351E+04  2.020847E+03  6.442455E+02
       535  20 -5.947952E+05 -1.195535E+04 -2.063022E+04  3.442394E+04 -3.635632E+03 -2.965355E+03
       535  21 -6.529516E+05 -2.850427E+04 -3.962727E+04  4.416232E+04 -9.292480E+03 -6.203298E+03
       535  22 -5.455922E+05  2.862050E+02 -7.348680E+03  4.336669E+04 -2.518066E+03  6.358132E+02
       535  23 -5.449075E+05  6.149669E+01 -1.046174E+04  3.428040E+04 -7.729086E+03 -2.972860E+03
       535  24 -5.455958E+05 -2.617610E+03 -1.760348E+04  4.337203E+04 -1.294097E+04 -6.209888E+03
       535  25 -5.530970E+05 -1.488745E+03 -8.725152E+03  4.386986E+04 -7.056925E+03  6.273735E+02
       535  26 -4.950174E+05  1.207819E+04 -2.933260E+02  3.413685E+04 -1.182286E+04 -2.980362E+03
       535  27 -4.382291E+05  2.326834E+04  4.419743E+03  4.258159E+04 -1.659009E+04 -6.216467E+03
       536   1 -6.977964E+05 -3.384671E+04 -5.269174E+04  3.464858E+04  1.064063E+04  8.673619E+03
       536   2 -7.462430E+05 -5.614914E+04 -8.251371E+04  4.925168E+04  3.942257E+04  9.582718E+03
       536   3 -8.128273E+05 -1.357182E+05 -1.454206E+05  8.169132E+04  6.821345E+04  3.309727E+03
       536   4 -5.489877E+05  2.067721E+03 -2.221639E+04  4.326828E+04  1.597722E+04  8.683280E+03
       536   5 -5.406817E+05 -6.273100E+03 -3.852966E+04  3.441163E+04  3.615195E+04  9.575783E+03
       536   6 -5.490142E+05 -7.037604E+04 -8.193966E+04  4.339380E+04  5.633859E+04  3.285092E+03
       536   7 -4.001578E+05  3.798105E+04  8.257927E+03  5.189008E+04  2.131508E+04  8.693087E+03
       536   8 -3.350801E+05  4.360102E+04  5.452106E+03  1.956656E+04  3.288026E+04  9.569005E+03
       536   9 -2.851338E+05 -5.033294E+03 -1.846233E+04  5.079904E+03  4.445869E+04  3.261929E+03
       536  10 -6.977965E+05 -3.384682E+04 -5.269209E+04  3.464851E+04  2.363654E-08 -6.114634E-09
       536  11 -7.462447E+05 -5.614965E+04 -8.251681E+04  4.925138E+04  7.108331E-09 -1.301578E-09
       536  12 -8.128323E+05 -1.357195E+05 -1.454294E+05  8.169114E+04 -7.397956E-09 -1.812523E-09
       536  13 -5.489880E+05  2.067571E+03 -2.221701E+04  4.326817E+04 -2.946211E-10 -2.111758E-09
       536  14 -5.406831E+05 -6.273550E+03 -3.853229E+04  3.441135E+04 -5.197961E-10 -7.967486E-09
       536  15 -5.490176E+05 -7.037690E+04 -8.194566E+04  4.339365E+04  1.918713E-10 -3.807926E-09
       536  16 -4.001583E+05  3.798085E+04  8.256931E+03  5.188993E+04 -2.256243E-08  2.847648E-10
       536  17 -3.350812E+05  4.360063E+04  5.449901E+03  1.956631E+04 -7.750296E-09  2.816229E-09
       536  18 -2.851359E+05 -5.033836E+03 -1.846607E+04  5.079788E+03  7.619949E-09  6.623276E-10
       536  19 -6.977964E+05 -3.384671E+04 -5.269174E+04  3.464858E+04 -1.064063E+04 -8.673619E+03
       536  20 -7.462430E+05 -5.614914E+04 -8.251371E+04  4.925168E+04 -3.942257E+04 -9.582718E+03
       536  21 -8.128273E+05 -1.357182E+05 -1.454206E+05  8.169132E+04 -6.821345E+04 -3.309727E+03
       536  22 -5.489877E+05  2.067721E+03 -2.221639E+04  4.326828E+04 -1.597722E+04 -8.683280E+03
       536  23 -5.406817E+05 -6.273100E+03 -3.852966E+04  3.441163E+04 -3.615195E+04 -9.575783E+03
       536  24 -5.490142E+05 -7.037604E+04 -8.193966E+04  4.339380E+04 -5.633859E+04 -3.285092E+03
       536  25 -4.001578E+05  3.798105E+04  8.257927E+03  5.189008E+04 -2.131508E+04 -8.693087E+03
       536  26 -3.350801E+05  4.360102E+04  5.452106E+03  1.956656E+04 -3.288026E+04 -9.569005E+03
       536  27 -2.851338E+05 -5.033294E+03 -1.846233E+04  5.079904E+03 -4.445869E+04 -3.261929E+03
       537   1 -6.214802E+04  2.635482E+04  2.396536E+04  1.974686E+04  1.624272E-01 -1.641890E+03
       537   2 -9.305095E+04  2.502591E+04  1.820411E+04  1.744480E+04 -2.183225E+03 -4.863016E+03
       537   3 -1.250547E+05  1.829921E+04  1.251093E+04  2.488879E+04 -4.372628E+03 -4.327569E+03
       537   4 -1.997284E+05 -7.771095E+03 -9.148402E+03  2.388867E+04 -6.113456E+03 -1.652107E+03
       537   5 -1.987844E+05 -6.455132E+02 -4.435793E+03  1.900875E+04 -3.789547E+03 -4.865799E+03
       537   6 -1.997255E+05  2.990119E+02 -2.785988E+03  2.387513E+04 -1.471822E+03 -4.322611E+03
       537   7 -3.372913E+05 -4.189830E+04 -4.226336E+04  2.802955E+04 -1.222572E+04 -1.662407E+03
       537   8 -3.045072E+05 -2.631766E+04 -2.707633E+04  2.057243E+04 -5.395599E+03 -4.868591E+03
       537   9 -2.743911E+05 -1.770153E+04 -1.808317E+04  2.286160E+04  1.428642E+03 -4.317661E+03
       537  10 -6.214802E+04  2.635482E+04  2.396535E+04  1.974686E+04  1.927906E-09  9.555932E-10
       537  11 -9.305096E+04  2.502589E+04  1.820405E+04  1.744480E+04 -1.306465E-09 -2.575835E-09
       537  12 -1.250547E+05  1.829918E+04  1.251086E+04  2.488877E+04 -3.238362E-09 -1.402063E-09
       537  13 -1.997284E+05 -7.771108E+03 -9.148477E+03  2.388867E+04 -1.367601E-10  5.366459E-09
       537  14 -1.987844E+05 -6.455425E+02 -4.435864E+03  1.900874E+04 -3.493232E-10  3.888747E-10
       537  15 -1.997255E+05  2.989913E+02 -2.786027E+03  2.387513E+04 -3.910625E-10 -2.295175E-09
       537  16 -3.372915E+05 -4.189834E+04 -4.226365E+04  2.802954E+04 -4.475477E-10  5.948274E-10
       537  17 -3.045073E+05 -2.631769E+04 -2.707643E+04  2.057241E+04  1.799389E-09 -7.706343E-09
       537  18 -2.743911E+05 -1.770155E+04 -1.808321E+04  2.286160E+04  3.156186E-09 -1.514087E-09
       537  19 -6.214802E+04  2.635482E+04  2.396536E+04  1.974686E+04 -1.624272E-01  1.641890E+03
       537  20 -9.305095E+04  2.502591E+04  1.820411E+04  1.744480E+04  2.183225E+03  4.863016E+03
       537  21 -1.250547E+05  1.829921E+04  1.251093E+04  2.488879E+04  4.372628E+03  4.327569E+03
       537  22 -1.997284E+05 -7.771095E+03 -9.148402E+03  2.388867E+04  6.113456E+03  1.652107E+03
       537  23 -1.987844E+05 -6.455132E+02 -4.435793E+03  1.900875E+04  3.789547E+03  4.865799E+03
       537  24 -1.997255E+05  2.990119E+02 -2.785988E+03  2.387513E+04  1.471822E+03  4.322611E+03
       537  25 -3.372913E+05 -4.189830E+04 -4.226336E+04  2.802955E+04  1.222572E+04  1.662407E+03
       537  26 -3.045072E+05 -2.631766E+04 -2.707633E+04  2.057243E+04  5.395599E+03  4.868591E+03
       537  27 -2.743911E+05 -1.770153E+04 -1.808317E+04  2.286160E+04 -1.428642E+03  4.317661E+03
       538   1 -1.473827E+05  1.231187E+04  8.283409E+03  2.385645E+04 -3.086082E+03 -2.981631E+03
       538   2 -1.787056E+05  5.020306E+03  2.263425E+03  1.891222E+04 -2.358614E+03 -1.202181E+03
       538   3 -2.102262E+05 -2.516325E+03 -4.302057E+03  2.391082E+04 -1.631535E+03  7.704593E+02
       538   4 -1.993591E+05 -2.192671E+02 -2.387918E+03  2.392186E+04 -1.068516E+03 -2.978160E+03
       538   5 -1.992396E+05  7.312925E+01 -1.935134E+03  1.895018E+04 -1.093543E+02 -1.198289E+03
       538   6 -1.993587E+05  8.038191E+01 -2.188672E+03  2.392135E+04  8.494594E+02  7.747775E+02
       538   7 -2.513329E+05 -1.275057E+04 -1.305937E+04  2.398727E+04  9.488827E+02 -2.974688E+03
       538   8 -2.197733E+05 -4.874071E+03 -6.133697E+03  1.898814E+04  2.139833E+03 -1.194397E+03
       538   9 -1.884910E+05  2.677085E+03 -7.527031E+01  2.393189E+04  3.330496E+03  7.790959E+02
       538  10 -1.473827E+05  1.231185E+04  8.283375E+03  2.385645E+04 -4.652282E-09 -3.576134E-10
       538  11 -1.787056E+05  5.020303E+03  2.263412E+03  1.891222E+04 -2.214665E-09 -3.096889E-09
       538  12 -2.102262E+05 -2.516327E+03 -4.302063E+03  2.391082E+04  2.930000E-09 -5.455647E-10
       538  13 -1.993591E+05 -2.192769E+02 -2.387937E+03  2.392186E+04 -2.728627E-10 -3.379157E-10
       538  14 -1.992396E+05  7.312770E+01 -1.935137E+03  1.895018E+04 -6.445828E-10  9.987231E-10
       538  15 -1.993587E+05  8.038107E+01 -2.188675E+03  2.392135E+04  3.452852E-10 -1.442578E-10
       538  16 -2.513329E+05 -1.275058E+04 -1.305939E+04  2.398727E+04  6.564449E-09  2.012118E-09
       538  17 -2.197733E+05 -4.874074E+03 -6.133709E+03  1.898814E+04  2.470890E-09 -4.860079E-09
       538  18 -1.884910E+05  2.677082E+03 -7.529230E+01  2.393188E+04 -2.628945E-09  6.055752E-10
       538  19 -1.473827E+05  1.231187E+04  8.283409E+03  2.385645E+04  3.086082E+03  2.981631E+03
       538  20 -1.787056E+05  5.020306E+03  2.263425E+03  1.891222E+04  2.358614E+03  1.202181E+03
       538  21 -2.102262E+05 -2.516325E+03 -4.302057E+03  2.391082E+04  1.631535E+03 -7.704593E+02
       538  22 -1.993591E+05 -2.192671E+02 -2.387918E+03  2.392186E+04  1.068516E+03  2.978160E+03
       538  23 -1.992396E+05  7.312925E+01 -1.935134E+03  1.895018E+04  1.093543E+02  1.198289E+03
       538  24 -1.993587E+05  8.038191E+01 -2.188672E+03  2.392135E+04 -8.494594E+02 -7.747775E+02
       538  25 -2.513329E+05 -1.275057E+04 -1.305937E+04  2.398727E+04 -9.488827E+02  2.974688E+03
       538  26 -2.197733E+05 -4.874071E+03 -6.133697E+03  1.898814E+04 -2.139833E+03  1.194397E+03
       538  27 -1.884910E+05  2.677085E+03 -7.527031E+01  2.393189E+04 -3.330496E+03 -7.790959E+02
       539   1 -2.328778E+05 -7.917582E+03 -9.353354E+03  2.366130E+04 -1.230053E+03  1.997383E+03
       539   2 -2.640028E+05 -1.556239E+04 -1.705073E+04  1.894112E+04  1.033754E+03  3.952062E+03
       539   3 -2.957130E+05 -2.420762E+04 -2.648293E+04  2.415979E+04  3.297998E+03  5.647922E+03
       539   4 -1.994242E+05  1.364867E+02 -2.549795E+03  2.392011E+04  1.265446E+03  2.001711E+03
       539   5 -1.991588E+05  3.550556E+01 -3.921604E+03  1.895169E+04  3.218906E+03  3.955781E+03
       539   6 -1.994257E+05 -1.011859E+03 -6.812472E+03  2.392209E+04  5.172914E+03  5.651047E+03
       539   7 -1.659694E+05  8.190489E+03  4.253730E+03  2.417893E+04  3.761077E+03  2.006040E+03
       539   8 -1.343109E+05  1.563314E+04  9.207325E+03  1.896227E+04  5.404281E+03  3.959500E+03
       539   9 -1.031296E+05  2.218332E+04  1.285751E+04  2.368433E+04  7.048116E+03  5.654171E+03
       539  10 -2.328778E+05 -7.917586E+03 -9.353364E+03  2.366130E+04  4.267459E-09 -2.077973E-09
       539  11 -2.640028E+05 -1.556241E+04 -1.705076E+04  1.894111E+04  6.158872E-10  7.627922E-10
       539  12 -2.957130E+05 -2.420766E+04 -2.648301E+04  2.415978E+04  5.399904E-10 -3.882924E-09
       539  13 -1.994242E+05  1.364819E+02 -2.549805E+03  2.392011E+04  4.214429E-10 -6.813187E-09
       539  14 -1.991588E+05  3.548598E+01 -3.921653E+03  1.895168E+04 -1.928378E-09 -1.945684E-10
       539  15 -1.994258E+05 -1.011901E+03 -6.812582E+03  2.392206E+04 -1.517072E-10 -5.700815E-10
       539  16 -1.659694E+05  8.190481E+03  4.253696E+03  2.417893E+04 -2.873182E-09 -2.840717E-09
       539  17 -1.343109E+05  1.563312E+04  9.207241E+03  1.896225E+04  2.249416E-10 -7.327068E-09
       539  18 -1.031296E+05  2.218328E+04  1.285735E+04  2.368430E+04  8.594223E-10 -6.929580E-10
       539  19 -2.328778E+05 -7.917582E+03 -9.353354E+03  2.366130E+04  1.230053E+03 -1.997383E+03
       539  20 -2.640028E+05 -1.556239E+04 -1.705073E+04  1.894112E+04 -1.033754E+03 -3.952062E+03
       539  21 -2.957130E+05 -2.420762E+04 -2.648293E+04  2.415979E+04 -3.297998E+03 -5.647922E+03
       539  22 -1.994242E+05  1.364867E+02 -2.549795E+03  2.392011E+04 -1.265446E+03 -2.001711E+03
       539  23 -1.991588E+05  3.550556E+01 -3.921604E+03  1.895169E+04 -3.218906E+03 -3.955781E+03
       539  24 -1.994257E+05 -1.011859E+03 -6.812472E+03  2.392209E+04 -5.172914E+03 -5.651047E+03
       539  25 -1.659694E+05  8.190489E+03  4.253730E+03  2.417893E+04 -3.761077E+03 -2.006040E+03
       539  26 -1.343109E+05  1.563314E+04  9.207325E+03  1.896227E+04 -5.404281E+03 -3.959500E+03
       539  27 -1.031296E+05  2.218332E+04  1.285751E+04  2.368433E+04 -7.048116E+03 -5.654171E+03
       540   1 -3.197625E+05 -2.784665E+04 -3.292698E+04  2.039378E+04  3.326348E+03  7.031354E+03
       540   2 -3.474545E+05 -3.882022E+04 -4.705024E+04  2.478211E+04  1.708675E+04  7.135274E+03
       540   3 -3.827028E+05 -7.271109E+04 -7.587173E+04  3.886796E+04  3.085384E+04  2.361931E+03
       540   4 -2.007614E+05  8.289266E+02 -8.653709E+03  2.385800E+04  6.349465E+03  7.036370E+03
       540   5 -1.974943E+05 -2.452899E+03 -1.510537E+04  1.903225E+04  1.426092E+04  7.130328E+03
       540   6 -2.007671E+05 -2.763352E+04 -3.219047E+04  2.390459E+04  2.217996E+04  2.347146E+03
       540   7 -8.174676E+04  2.950367E+04  1.561885E+04  2.732289E+04  9.373151E+03  7.041420E+03
       540   8 -4.751274E+04  3.391309E+04  1.683825E+04  1.328098E+04  1.143443E+04  7.125435E+03
       540   9 -1.880035E+04  1.744255E+04  1.148885E+04  8.936790E+03  1.350355E+04  2.332782E+03
       540  10 -3.197625E+05 -2.784671E+04 -3.292709E+04  2.039376E+04 -1.696246E-10 -2.424141E-09
       540  11 -3.474549E+05 -3.882035E+04 -4.705088E+04  2.478201E+04  4.695520E-10  1.203588E-09
       540  12 -3.827039E+05 -7.271136E+04 -7.587353E+04  3.886791E+04  3.350839E-09  4.270067E-09
       540  13 -2.007614E+05  8.288626E+02 -8.653878E+03  2.385797E+04 -2.684076E-10  2.971410E-09
       540  14 -1.974945E+05 -2.453008E+03 -1.510585E+04  1.903217E+04 -3.314734E-10  3.363683E-09
       540  15 -2.007676E+05 -2.763366E+04 -3.219140E+04  2.390454E+04  7.383213E-11  3.524474E-09
       540  16 -8.174687E+04  2.950359E+04  1.561859E+04  2.732284E+04  2.211754E-09  1.761082E-09
       540  17 -4.751289E+04  3.391300E+04  1.683791E+04  1.328092E+04 -6.226117E-10  7.460342E-09
       540  18 -1.880055E+04  1.744249E+04  1.148850E+04  8.936765E+03 -3.281028E-09 -1.117304E-09
       540  19 -3.197625E+05 -2.784665E+04 -3.292698E+04  2.039378E+04 -3.326348E+03 -7.031354E+03
       540  20 -3.474545E+05 -3.882022E+04 -4.705024E+04  2.478211E+04 -1.708675E+04 -7.135274E+03
       540  21 -3.827028E+05 -7.271109E+04 -7.587173E+04  3.886796E+04 -3.085384E+04 -2.361931E+03
       540  22 -2.007614E+05  8.289266E+02 -8.653709E+03  2.385800E+04 -6.349465E+03 -7.036370E+03
       540  23 -1.974943E+05 -2.452899E+03 -1.510537E+04  1.903225E+04 -1.426092E+04 -7.130328E+03
       540  24 -2.007671E+05 -2.763352E+04 -3.219047E+04  2.390459E+04 -2.217996E+04 -2.347146E+03
       540  25 -8.174676E+04  2.950367E+04  1.561885E+04  2.732289E+04 -9.373151E+03 -7.041420E+03
       540  26 -4.751274E+04  3.391309E+04  1.683825E+04  1.328098E+04 -1.143443E+04 -7.125435E+03
       540  27 -1.880035E+04  1.744255E+04  1.148885E+04  8.936790E+03 -1.350355E+04 -2.332782E+03
