    1C
    1UUSER                                                              
    1UDATE              21.september.2022                               
    1UTIME              15:06:54                                        
    1UHOST                                                              
    1UPGM               CalculiX                                        
    1UVERSION           Version 2.19                             
    1UCOMPILETIME       Fri Dec 17 13:15:26 CET 2021                    
    1UDIR                                                               
    1UDBN                                                               
    1UMAT    1MESH_MATERIAL                                             
    2C                           641                                     1
 -1         1 0.00000E+00 0.00000E+00 0.00000E+00
 -1         2 8.33333E-03 0.00000E+00 0.00000E+00
 -1         3 1.66667E-02 0.00000E+00 0.00000E+00
 -1         4 2.50000E-02 0.00000E+00 0.00000E+00
 -1         5 3.33333E-02 0.00000E+00 0.00000E+00
 -1         6 4.16667E-02 0.00000E+00 0.00000E+00
 -1         7 5.00000E-02 0.00000E+00 0.00000E+00
 -1         8 5.83333E-02 0.00000E+00 0.00000E+00
 -1         9 6.66667E-02 0.00000E+00 0.00000E+00
 -1        14 0.00000E+00 6.25000E-03 0.00000E+00
 -1        15 8.33333E-03 6.25000E-03 0.00000E+00
 -1        16 1.66667E-02 6.25000E-03 0.00000E+00
 -1        17 2.50000E-02 6.25000E-03 0.00000E+00
 -1        18 3.33333E-02 6.25000E-03 0.00000E+00
 -1        19 4.16667E-02 6.25000E-03 0.00000E+00
 -1        20 5.00000E-02 6.25000E-03 0.00000E+00
 -1        21 5.83333E-02 6.25000E-03 0.00000E+00
 -1        22 6.66667E-02 6.25000E-03 0.00000E+00
 -1        27 0.00000E+00 1.25000E-02 0.00000E+00
 -1        28 8.33333E-03 1.25000E-02 0.00000E+00
 -1        29 1.66667E-02 1.25000E-02 0.00000E+00
 -1        30 2.50000E-02 1.25000E-02 0.00000E+00
 -1        31 3.33333E-02 1.25000E-02 0.00000E+00
 -1        32 4.16667E-02 1.25000E-02 0.00000E+00
 -1        33 5.00000E-02 1.25000E-02 0.00000E+00
 -1        34 5.83333E-02 1.25000E-02 0.00000E+00
 -1        35 6.66667E-02 1.25000E-02 0.00000E+00
 -1        36 7.50000E-02 1.25000E-02 0.00000E+00
 -1        37 8.33333E-02 1.25000E-02 0.00000E+00
 -1        38 9.16667E-02 1.25000E-02 0.00000E+00
 -1        39 1.00000E-01 1.25000E-02 0.00000E+00
 -1        40 0.00000E+00 1.87500E-02 0.00000E+00
 -1        41 8.33333E-03 1.87500E-02 0.00000E+00
 -1        42 1.66667E-02 1.87500E-02 0.00000E+00
 -1        43 2.50000E-02 1.87500E-02 0.00000E+00
 -1        44 3.33333E-02 1.87500E-02 0.00000E+00
 -1        45 4.16667E-02 1.87500E-02 0.00000E+00
 -1        46 5.00000E-02 1.87500E-02 0.00000E+00
 -1        47 5.83333E-02 1.87500E-02 0.00000E+00
 -1        48 6.66667E-02 1.87500E-02 0.00000E+00
 -1        49 7.50000E-02 1.87500E-02 0.00000E+00
 -1        50 8.33333E-02 1.87500E-02 0.00000E+00
 -1        51 9.16667E-02 1.87500E-02 0.00000E+00
 -1        52 1.00000E-01 1.87500E-02 0.00000E+00
 -1        53 0.00000E+00 2.50000E-02 0.00000E+00
 -1        54 8.33333E-03 2.50000E-02 0.00000E+00
 -1        55 1.66667E-02 2.50000E-02 0.00000E+00
 -1        56 2.50000E-02 2.50000E-02 0.00000E+00
 -1        57 3.33333E-02 2.50000E-02 0.00000E+00
 -1        58 4.16667E-02 2.50000E-02 0.00000E+00
 -1        59 5.00000E-02 2.50000E-02 0.00000E+00
 -1        60 5.83333E-02 2.50000E-02 0.00000E+00
 -1        61 6.66667E-02 2.50000E-02 0.00000E+00
 -1        62 7.50000E-02 2.50000E-02 0.00000E+00
 -1        63 8.33333E-02 2.50000E-02 0.00000E+00
 -1        64 9.16667E-02 2.50000E-02 0.00000E+00
 -1        65 1.00000E-01 2.50000E-02 0.00000E+00
 -1        66 1.04167E-03 0.00000E+00 0.00000E+00
 -1        67 2.08333E-03 0.00000E+00 0.00000E+00
 -1        68 3.12500E-03 0.00000E+00 0.00000E+00
 -1        69 4.16667E-03 0.00000E+00 0.00000E+00
 -1        70 5.20833E-03 0.00000E+00 0.00000E+00
 -1        71 6.25000E-03 0.00000E+00 0.00000E+00
 -1        72 7.29167E-03 0.00000E+00 0.00000E+00
 -1        73 0.00000E+00 1.04167E-03 0.00000E+00
 -1        74 0.00000E+00 2.08333E-03 0.00000E+00
 -1        75 0.00000E+00 3.12500E-03 0.00000E+00
 -1        76 0.00000E+00 4.16667E-03 0.00000E+00
 -1        77 0.00000E+00 5.20833E-03 0.00000E+00
 -1        78 9.37500E-03 0.00000E+00 0.00000E+00
 -1        79 1.04167E-02 0.00000E+00 0.00000E+00
 -1        80 1.14583E-02 0.00000E+00 0.00000E+00
 -1        81 1.25000E-02 0.00000E+00 0.00000E+00
 -1        82 1.35417E-02 0.00000E+00 0.00000E+00
 -1        83 1.45833E-02 0.00000E+00 0.00000E+00
 -1        84 1.56250E-02 0.00000E+00 0.00000E+00
 -1        85 8.33333E-03 1.04167E-03 0.00000E+00
 -1        86 8.33333E-03 2.08333E-03 0.00000E+00
 -1        87 8.33333E-03 3.12500E-03 0.00000E+00
 -1        88 8.33333E-03 4.16667E-03 0.00000E+00
 -1        89 8.33333E-03 5.20833E-03 0.00000E+00
 -1        90 1.77083E-02 0.00000E+00 0.00000E+00
 -1        91 1.87500E-02 0.00000E+00 0.00000E+00
 -1        92 1.97917E-02 0.00000E+00 0.00000E+00
 -1        93 2.08333E-02 0.00000E+00 0.00000E+00
 -1        94 2.18750E-02 0.00000E+00 0.00000E+00
 -1        95 2.29167E-02 0.00000E+00 0.00000E+00
 -1        96 2.39583E-02 0.00000E+00 0.00000E+00
 -1        97 1.66667E-02 1.04167E-03 0.00000E+00
 -1        98 1.66667E-02 2.08333E-03 0.00000E+00
 -1        99 1.66667E-02 3.12500E-03 0.00000E+00
 -1       100 1.66667E-02 4.16667E-03 0.00000E+00
 -1       101 1.66667E-02 5.20833E-03 0.00000E+00
 -1       102 2.60417E-02 0.00000E+00 0.00000E+00
 -1       103 2.70833E-02 0.00000E+00 0.00000E+00
 -1       104 2.81250E-02 0.00000E+00 0.00000E+00
 -1       105 2.91667E-02 0.00000E+00 0.00000E+00
 -1       106 3.02083E-02 0.00000E+00 0.00000E+00
 -1       107 3.12500E-02 0.00000E+00 0.00000E+00
 -1       108 3.22917E-02 0.00000E+00 0.00000E+00
 -1       109 2.50000E-02 1.04167E-03 0.00000E+00
 -1       110 2.50000E-02 2.08333E-03 0.00000E+00
 -1       111 2.50000E-02 3.12500E-03 0.00000E+00
 -1       112 2.50000E-02 4.16667E-03 0.00000E+00
 -1       113 2.50000E-02 5.20833E-03 0.00000E+00
 -1       114 3.43750E-02 0.00000E+00 0.00000E+00
 -1       115 3.54167E-02 0.00000E+00 0.00000E+00
 -1       116 3.64583E-02 0.00000E+00 0.00000E+00
 -1       117 3.75000E-02 0.00000E+00 0.00000E+00
 -1       118 3.85417E-02 0.00000E+00 0.00000E+00
 -1       119 3.95833E-02 0.00000E+00 0.00000E+00
 -1       120 4.06250E-02 0.00000E+00 0.00000E+00
 -1       121 3.33333E-02 1.04167E-03 0.00000E+00
 -1       122 3.33333E-02 2.08333E-03 0.00000E+00
 -1       123 3.33333E-02 3.12500E-03 0.00000E+00
 -1       124 3.33333E-02 4.16667E-03 0.00000E+00
 -1       125 3.33333E-02 5.20833E-03 0.00000E+00
 -1       126 4.27083E-02 0.00000E+00 0.00000E+00
 -1       127 4.37500E-02 0.00000E+00 0.00000E+00
 -1       128 4.47917E-02 0.00000E+00 0.00000E+00
 -1       129 4.58333E-02 0.00000E+00 0.00000E+00
 -1       130 4.68750E-02 0.00000E+00 0.00000E+00
 -1       131 4.79167E-02 0.00000E+00 0.00000E+00
 -1       132 4.89583E-02 0.00000E+00 0.00000E+00
 -1       133 4.16667E-02 1.04167E-03 0.00000E+00
 -1       134 4.16667E-02 2.08333E-03 0.00000E+00
 -1       135 4.16667E-02 3.12500E-03 0.00000E+00
 -1       136 4.16667E-02 4.16667E-03 0.00000E+00
 -1       137 4.16667E-02 5.20833E-03 0.00000E+00
 -1       138 5.10417E-02 0.00000E+00 0.00000E+00
 -1       139 5.20833E-02 0.00000E+00 0.00000E+00
 -1       140 5.31250E-02 0.00000E+00 0.00000E+00
 -1       141 5.41667E-02 0.00000E+00 0.00000E+00
 -1       142 5.52083E-02 0.00000E+00 0.00000E+00
 -1       143 5.62500E-02 0.00000E+00 0.00000E+00
 -1       144 5.72917E-02 0.00000E+00 0.00000E+00
 -1       145 5.00000E-02 1.04167E-03 0.00000E+00
 -1       146 5.00000E-02 2.08333E-03 0.00000E+00
 -1       147 5.00000E-02 3.12500E-03 0.00000E+00
 -1       148 5.00000E-02 4.16667E-03 0.00000E+00
 -1       149 5.00000E-02 5.20833E-03 0.00000E+00
 -1       150 5.93750E-02 0.00000E+00 0.00000E+00
 -1       151 6.04167E-02 0.00000E+00 0.00000E+00
 -1       152 6.14583E-02 0.00000E+00 0.00000E+00
 -1       153 6.25000E-02 0.00000E+00 0.00000E+00
 -1       154 6.35417E-02 0.00000E+00 0.00000E+00
 -1       155 6.45833E-02 0.00000E+00 0.00000E+00
 -1       156 6.56250E-02 0.00000E+00 0.00000E+00
 -1       157 5.83333E-02 1.04167E-03 0.00000E+00
 -1       158 5.83333E-02 2.08333E-03 0.00000E+00
 -1       159 5.83333E-02 3.12500E-03 0.00000E+00
 -1       160 5.83333E-02 4.16667E-03 0.00000E+00
 -1       161 5.83333E-02 5.20833E-03 0.00000E+00
 -1       169 6.66667E-02 1.04167E-03 0.00000E+00
 -1       170 6.66667E-02 2.08333E-03 0.00000E+00
 -1       171 6.66667E-02 3.12500E-03 0.00000E+00
 -1       172 6.66667E-02 4.16667E-03 0.00000E+00
 -1       173 6.66667E-02 5.20833E-03 0.00000E+00
 -1       215 1.04167E-03 6.25000E-03 0.00000E+00
 -1       216 2.08333E-03 6.25000E-03 0.00000E+00
 -1       217 3.12500E-03 6.25000E-03 0.00000E+00
 -1       218 4.16667E-03 6.25000E-03 0.00000E+00
 -1       219 5.20833E-03 6.25000E-03 0.00000E+00
 -1       220 6.25000E-03 6.25000E-03 0.00000E+00
 -1       221 7.29167E-03 6.25000E-03 0.00000E+00
 -1       222 0.00000E+00 7.29167E-03 0.00000E+00
 -1       223 0.00000E+00 8.33333E-03 0.00000E+00
 -1       224 0.00000E+00 9.37500E-03 0.00000E+00
 -1       225 0.00000E+00 1.04167E-02 0.00000E+00
 -1       226 0.00000E+00 1.14583E-02 0.00000E+00
 -1       227 9.37500E-03 6.25000E-03 0.00000E+00
 -1       228 1.04167E-02 6.25000E-03 0.00000E+00
 -1       229 1.14583E-02 6.25000E-03 0.00000E+00
 -1       230 1.25000E-02 6.25000E-03 0.00000E+00
 -1       231 1.35417E-02 6.25000E-03 0.00000E+00
 -1       232 1.45833E-02 6.25000E-03 0.00000E+00
 -1       233 1.56250E-02 6.25000E-03 0.00000E+00
 -1       234 8.33333E-03 7.29167E-03 0.00000E+00
 -1       235 8.33333E-03 8.33333E-03 0.00000E+00
 -1       236 8.33333E-03 9.37500E-03 0.00000E+00
 -1       237 8.33333E-03 1.04167E-02 0.00000E+00
 -1       238 8.33333E-03 1.14583E-02 0.00000E+00
 -1       239 1.77083E-02 6.25000E-03 0.00000E+00
 -1       240 1.87500E-02 6.25000E-03 0.00000E+00
 -1       241 1.97917E-02 6.25000E-03 0.00000E+00
 -1       242 2.08333E-02 6.25000E-03 0.00000E+00
 -1       243 2.18750E-02 6.25000E-03 0.00000E+00
 -1       244 2.29167E-02 6.25000E-03 0.00000E+00
 -1       245 2.39583E-02 6.25000E-03 0.00000E+00
 -1       246 1.66667E-02 7.29167E-03 0.00000E+00
 -1       247 1.66667E-02 8.33333E-03 0.00000E+00
 -1       248 1.66667E-02 9.37500E-03 0.00000E+00
 -1       249 1.66667E-02 1.04167E-02 0.00000E+00
 -1       250 1.66667E-02 1.14583E-02 0.00000E+00
 -1       251 2.60417E-02 6.25000E-03 0.00000E+00
 -1       252 2.70833E-02 6.25000E-03 0.00000E+00
 -1       253 2.81250E-02 6.25000E-03 0.00000E+00
 -1       254 2.91667E-02 6.25000E-03 0.00000E+00
 -1       255 3.02083E-02 6.25000E-03 0.00000E+00
 -1       256 3.12500E-02 6.25000E-03 0.00000E+00
 -1       257 3.22917E-02 6.25000E-03 0.00000E+00
 -1       258 2.50000E-02 7.29167E-03 0.00000E+00
 -1       259 2.50000E-02 8.33333E-03 0.00000E+00
 -1       260 2.50000E-02 9.37500E-03 0.00000E+00
 -1       261 2.50000E-02 1.04167E-02 0.00000E+00
 -1       262 2.50000E-02 1.14583E-02 0.00000E+00
 -1       263 3.43750E-02 6.25000E-03 0.00000E+00
 -1       264 3.54167E-02 6.25000E-03 0.00000E+00
 -1       265 3.64583E-02 6.25000E-03 0.00000E+00
 -1       266 3.75000E-02 6.25000E-03 0.00000E+00
 -1       267 3.85417E-02 6.25000E-03 0.00000E+00
 -1       268 3.95833E-02 6.25000E-03 0.00000E+00
 -1       269 4.06250E-02 6.25000E-03 0.00000E+00
 -1       270 3.33333E-02 7.29167E-03 0.00000E+00
 -1       271 3.33333E-02 8.33333E-03 0.00000E+00
 -1       272 3.33333E-02 9.37500E-03 0.00000E+00
 -1       273 3.33333E-02 1.04167E-02 0.00000E+00
 -1       274 3.33333E-02 1.14583E-02 0.00000E+00
 -1       275 4.27083E-02 6.25000E-03 0.00000E+00
 -1       276 4.37500E-02 6.25000E-03 0.00000E+00
 -1       277 4.47917E-02 6.25000E-03 0.00000E+00
 -1       278 4.58333E-02 6.25000E-03 0.00000E+00
 -1       279 4.68750E-02 6.25000E-03 0.00000E+00
 -1       280 4.79167E-02 6.25000E-03 0.00000E+00
 -1       281 4.89583E-02 6.25000E-03 0.00000E+00
 -1       282 4.16667E-02 7.29167E-03 0.00000E+00
 -1       283 4.16667E-02 8.33333E-03 0.00000E+00
 -1       284 4.16667E-02 9.37500E-03 0.00000E+00
 -1       285 4.16667E-02 1.04167E-02 0.00000E+00
 -1       286 4.16667E-02 1.14583E-02 0.00000E+00
 -1       287 5.10417E-02 6.25000E-03 0.00000E+00
 -1       288 5.20833E-02 6.25000E-03 0.00000E+00
 -1       289 5.31250E-02 6.25000E-03 0.00000E+00
 -1       290 5.41667E-02 6.25000E-03 0.00000E+00
 -1       291 5.52083E-02 6.25000E-03 0.00000E+00
 -1       292 5.62500E-02 6.25000E-03 0.00000E+00
 -1       293 5.72917E-02 6.25000E-03 0.00000E+00
 -1       294 5.00000E-02 7.29167E-03 0.00000E+00
 -1       295 5.00000E-02 8.33333E-03 0.00000E+00
 -1       296 5.00000E-02 9.37500E-03 0.00000E+00
 -1       297 5.00000E-02 1.04167E-02 0.00000E+00
 -1       298 5.00000E-02 1.14583E-02 0.00000E+00
 -1       299 5.93750E-02 6.25000E-03 0.00000E+00
 -1       300 6.04167E-02 6.25000E-03 0.00000E+00
 -1       301 6.14583E-02 6.25000E-03 0.00000E+00
 -1       302 6.25000E-02 6.25000E-03 0.00000E+00
 -1       303 6.35417E-02 6.25000E-03 0.00000E+00
 -1       304 6.45833E-02 6.25000E-03 0.00000E+00
 -1       305 6.56250E-02 6.25000E-03 0.00000E+00
 -1       306 5.83333E-02 7.29167E-03 0.00000E+00
 -1       307 5.83333E-02 8.33333E-03 0.00000E+00
 -1       308 5.83333E-02 9.37500E-03 0.00000E+00
 -1       309 5.83333E-02 1.04167E-02 0.00000E+00
 -1       310 5.83333E-02 1.14583E-02 0.00000E+00
 -1       318 6.66667E-02 7.29167E-03 0.00000E+00
 -1       319 6.66667E-02 8.33333E-03 0.00000E+00
 -1       320 6.66667E-02 9.37500E-03 0.00000E+00
 -1       321 6.66667E-02 1.04167E-02 0.00000E+00
 -1       322 6.66667E-02 1.14583E-02 0.00000E+00
 -1       364 1.04167E-03 1.25000E-02 0.00000E+00
 -1       365 2.08333E-03 1.25000E-02 0.00000E+00
 -1       366 3.12500E-03 1.25000E-02 0.00000E+00
 -1       367 4.16667E-03 1.25000E-02 0.00000E+00
 -1       368 5.20833E-03 1.25000E-02 0.00000E+00
 -1       369 6.25000E-03 1.25000E-02 0.00000E+00
 -1       370 7.29167E-03 1.25000E-02 0.00000E+00
 -1       371 0.00000E+00 1.35417E-02 0.00000E+00
 -1       372 0.00000E+00 1.45833E-02 0.00000E+00
 -1       373 0.00000E+00 1.56250E-02 0.00000E+00
 -1       374 0.00000E+00 1.66667E-02 0.00000E+00
 -1       375 0.00000E+00 1.77083E-02 0.00000E+00
 -1       376 9.37500E-03 1.25000E-02 0.00000E+00
 -1       377 1.04167E-02 1.25000E-02 0.00000E+00
 -1       378 1.14583E-02 1.25000E-02 0.00000E+00
 -1       379 1.25000E-02 1.25000E-02 0.00000E+00
 -1       380 1.35417E-02 1.25000E-02 0.00000E+00
 -1       381 1.45833E-02 1.25000E-02 0.00000E+00
 -1       382 1.56250E-02 1.25000E-02 0.00000E+00
 -1       383 8.33333E-03 1.35417E-02 0.00000E+00
 -1       384 8.33333E-03 1.45833E-02 0.00000E+00
 -1       385 8.33333E-03 1.56250E-02 0.00000E+00
 -1       386 8.33333E-03 1.66667E-02 0.00000E+00
 -1       387 8.33333E-03 1.77083E-02 0.00000E+00
 -1       388 1.77083E-02 1.25000E-02 0.00000E+00
 -1       389 1.87500E-02 1.25000E-02 0.00000E+00
 -1       390 1.97917E-02 1.25000E-02 0.00000E+00
 -1       391 2.08333E-02 1.25000E-02 0.00000E+00
 -1       392 2.18750E-02 1.25000E-02 0.00000E+00
 -1       393 2.29167E-02 1.25000E-02 0.00000E+00
 -1       394 2.39583E-02 1.25000E-02 0.00000E+00
 -1       395 1.66667E-02 1.35417E-02 0.00000E+00
 -1       396 1.66667E-02 1.45833E-02 0.00000E+00
 -1       397 1.66667E-02 1.56250E-02 0.00000E+00
 -1       398 1.66667E-02 1.66667E-02 0.00000E+00
 -1       399 1.66667E-02 1.77083E-02 0.00000E+00
 -1       400 2.60417E-02 1.25000E-02 0.00000E+00
 -1       401 2.70833E-02 1.25000E-02 0.00000E+00
 -1       402 2.81250E-02 1.25000E-02 0.00000E+00
 -1       403 2.91667E-02 1.25000E-02 0.00000E+00
 -1       404 3.02083E-02 1.25000E-02 0.00000E+00
 -1       405 3.12500E-02 1.25000E-02 0.00000E+00
 -1       406 3.22917E-02 1.25000E-02 0.00000E+00
 -1       407 2.50000E-02 1.35417E-02 0.00000E+00
 -1       408 2.50000E-02 1.45833E-02 0.00000E+00
 -1       409 2.50000E-02 1.56250E-02 0.00000E+00
 -1       410 2.50000E-02 1.66667E-02 0.00000E+00
 -1       411 2.50000E-02 1.77083E-02 0.00000E+00
 -1       412 3.43750E-02 1.25000E-02 0.00000E+00
 -1       413 3.54167E-02 1.25000E-02 0.00000E+00
 -1       414 3.64583E-02 1.25000E-02 0.00000E+00
 -1       415 3.75000E-02 1.25000E-02 0.00000E+00
 -1       416 3.85417E-02 1.25000E-02 0.00000E+00
 -1       417 3.95833E-02 1.25000E-02 0.00000E+00
 -1       418 4.06250E-02 1.25000E-02 0.00000E+00
 -1       419 3.33333E-02 1.35417E-02 0.00000E+00
 -1       420 3.33333E-02 1.45833E-02 0.00000E+00
 -1       421 3.33333E-02 1.56250E-02 0.00000E+00
 -1       422 3.33333E-02 1.66667E-02 0.00000E+00
 -1       423 3.33333E-02 1.77083E-02 0.00000E+00
 -1       424 4.27083E-02 1.25000E-02 0.00000E+00
 -1       425 4.37500E-02 1.25000E-02 0.00000E+00
 -1       426 4.47917E-02 1.25000E-02 0.00000E+00
 -1       427 4.58333E-02 1.25000E-02 0.00000E+00
 -1       428 4.68750E-02 1.25000E-02 0.00000E+00
 -1       429 4.79167E-02 1.25000E-02 0.00000E+00
 -1       430 4.89583E-02 1.25000E-02 0.00000E+00
 -1       431 4.16667E-02 1.35417E-02 0.00000E+00
 -1       432 4.16667E-02 1.45833E-02 0.00000E+00
 -1       433 4.16667E-02 1.56250E-02 0.00000E+00
 -1       434 4.16667E-02 1.66667E-02 0.00000E+00
 -1       435 4.16667E-02 1.77083E-02 0.00000E+00
 -1       436 5.10417E-02 1.25000E-02 0.00000E+00
 -1       437 5.20833E-02 1.25000E-02 0.00000E+00
 -1       438 5.31250E-02 1.25000E-02 0.00000E+00
 -1       439 5.41667E-02 1.25000E-02 0.00000E+00
 -1       440 5.52083E-02 1.25000E-02 0.00000E+00
 -1       441 5.62500E-02 1.25000E-02 0.00000E+00
 -1       442 5.72917E-02 1.25000E-02 0.00000E+00
 -1       443 5.00000E-02 1.35417E-02 0.00000E+00
 -1       444 5.00000E-02 1.45833E-02 0.00000E+00
 -1       445 5.00000E-02 1.56250E-02 0.00000E+00
 -1       446 5.00000E-02 1.66667E-02 0.00000E+00
 -1       447 5.00000E-02 1.77083E-02 0.00000E+00
 -1       448 5.93750E-02 1.25000E-02 0.00000E+00
 -1       449 6.04167E-02 1.25000E-02 0.00000E+00
 -1       450 6.14583E-02 1.25000E-02 0.00000E+00
 -1       451 6.25000E-02 1.25000E-02 0.00000E+00
 -1       452 6.35417E-02 1.25000E-02 0.00000E+00
 -1       453 6.45833E-02 1.25000E-02 0.00000E+00
 -1       454 6.56250E-02 1.25000E-02 0.00000E+00
 -1       455 5.83333E-02 1.35417E-02 0.00000E+00
 -1       456 5.83333E-02 1.45833E-02 0.00000E+00
 -1       457 5.83333E-02 1.56250E-02 0.00000E+00
 -1       458 5.83333E-02 1.66667E-02 0.00000E+00
 -1       459 5.83333E-02 1.77083E-02 0.00000E+00
 -1       460 6.77083E-02 1.25000E-02 0.00000E+00
 -1       461 6.87500E-02 1.25000E-02 0.00000E+00
 -1       462 6.97917E-02 1.25000E-02 0.00000E+00
 -1       463 7.08333E-02 1.25000E-02 0.00000E+00
 -1       464 7.18750E-02 1.25000E-02 0.00000E+00
 -1       465 7.29167E-02 1.25000E-02 0.00000E+00
 -1       466 7.39583E-02 1.25000E-02 0.00000E+00
 -1       467 6.66667E-02 1.35417E-02 0.00000E+00
 -1       468 6.66667E-02 1.45833E-02 0.00000E+00
 -1       469 6.66667E-02 1.56250E-02 0.00000E+00
 -1       470 6.66667E-02 1.66667E-02 0.00000E+00
 -1       471 6.66667E-02 1.77083E-02 0.00000E+00
 -1       472 7.60417E-02 1.25000E-02 0.00000E+00
 -1       473 7.70833E-02 1.25000E-02 0.00000E+00
 -1       474 7.81250E-02 1.25000E-02 0.00000E+00
 -1       475 7.91667E-02 1.25000E-02 0.00000E+00
 -1       476 8.02083E-02 1.25000E-02 0.00000E+00
 -1       477 8.12500E-02 1.25000E-02 0.00000E+00
 -1       478 8.22917E-02 1.25000E-02 0.00000E+00
 -1       479 7.50000E-02 1.35417E-02 0.00000E+00
 -1       480 7.50000E-02 1.45833E-02 0.00000E+00
 -1       481 7.50000E-02 1.56250E-02 0.00000E+00
 -1       482 7.50000E-02 1.66667E-02 0.00000E+00
 -1       483 7.50000E-02 1.77083E-02 0.00000E+00
 -1       484 8.43750E-02 1.25000E-02 0.00000E+00
 -1       485 8.54167E-02 1.25000E-02 0.00000E+00
 -1       486 8.64583E-02 1.25000E-02 0.00000E+00
 -1       487 8.75000E-02 1.25000E-02 0.00000E+00
 -1       488 8.85417E-02 1.25000E-02 0.00000E+00
 -1       489 8.95833E-02 1.25000E-02 0.00000E+00
 -1       490 9.06250E-02 1.25000E-02 0.00000E+00
 -1       491 8.33333E-02 1.35417E-02 0.00000E+00
 -1       492 8.33333E-02 1.45833E-02 0.00000E+00
 -1       493 8.33333E-02 1.56250E-02 0.00000E+00
 -1       494 8.33333E-02 1.66667E-02 0.00000E+00
 -1       495 8.33333E-02 1.77083E-02 0.00000E+00
 -1       496 9.27083E-02 1.25000E-02 0.00000E+00
 -1       497 9.37500E-02 1.25000E-02 0.00000E+00
 -1       498 9.47917E-02 1.25000E-02 0.00000E+00
 -1       499 9.58333E-02 1.25000E-02 0.00000E+00
 -1       500 9.68750E-02 1.25000E-02 0.00000E+00
 -1       501 9.79167E-02 1.25000E-02 0.00000E+00
 -1       502 9.89583E-02 1.25000E-02 0.00000E+00
 -1       503 9.16667E-02 1.35417E-02 0.00000E+00
 -1       504 9.16667E-02 1.45833E-02 0.00000E+00
 -1       505 9.16667E-02 1.56250E-02 0.00000E+00
 -1       506 9.16667E-02 1.66667E-02 0.00000E+00
 -1       507 9.16667E-02 1.77083E-02 0.00000E+00
 -1       508 1.00000E-01 1.35417E-02 0.00000E+00
 -1       509 1.00000E-01 1.45833E-02 0.00000E+00
 -1       510 1.00000E-01 1.56250E-02 0.00000E+00
 -1       511 1.00000E-01 1.66667E-02 0.00000E+00
 -1       512 1.00000E-01 1.77083E-02 0.00000E+00
 -1       513 1.04167E-03 1.87500E-02 0.00000E+00
 -1       514 2.08333E-03 1.87500E-02 0.00000E+00
 -1       515 3.12500E-03 1.87500E-02 0.00000E+00
 -1       516 4.16667E-03 1.87500E-02 0.00000E+00
 -1       517 5.20833E-03 1.87500E-02 0.00000E+00
 -1       518 6.25000E-03 1.87500E-02 0.00000E+00
 -1       519 7.29167E-03 1.87500E-02 0.00000E+00
 -1       520 0.00000E+00 1.97917E-02 0.00000E+00
 -1       521 0.00000E+00 2.08333E-02 0.00000E+00
 -1       522 0.00000E+00 2.18750E-02 0.00000E+00
 -1       523 0.00000E+00 2.29167E-02 0.00000E+00
 -1       524 0.00000E+00 2.39583E-02 0.00000E+00
 -1       525 9.37500E-03 1.87500E-02 0.00000E+00
 -1       526 1.04167E-02 1.87500E-02 0.00000E+00
 -1       527 1.14583E-02 1.87500E-02 0.00000E+00
 -1       528 1.25000E-02 1.87500E-02 0.00000E+00
 -1       529 1.35417E-02 1.87500E-02 0.00000E+00
 -1       530 1.45833E-02 1.87500E-02 0.00000E+00
 -1       531 1.56250E-02 1.87500E-02 0.00000E+00
 -1       532 8.33333E-03 1.97917E-02 0.00000E+00
 -1       533 8.33333E-03 2.08333E-02 0.00000E+00
 -1       534 8.33333E-03 2.18750E-02 0.00000E+00
 -1       535 8.33333E-03 2.29167E-02 0.00000E+00
 -1       536 8.33333E-03 2.39583E-02 0.00000E+00
 -1       537 1.77083E-02 1.87500E-02 0.00000E+00
 -1       538 1.87500E-02 1.87500E-02 0.00000E+00
 -1       539 1.97917E-02 1.87500E-02 0.00000E+00
 -1       540 2.08333E-02 1.87500E-02 0.00000E+00
 -1       541 2.18750E-02 1.87500E-02 0.00000E+00
 -1       542 2.29167E-02 1.87500E-02 0.00000E+00
 -1       543 2.39583E-02 1.87500E-02 0.00000E+00
 -1       544 1.66667E-02 1.97917E-02 0.00000E+00
 -1       545 1.66667E-02 2.08333E-02 0.00000E+00
 -1       546 1.66667E-02 2.18750E-02 0.00000E+00
 -1       547 1.66667E-02 2.29167E-02 0.00000E+00
 -1       548 1.66667E-02 2.39583E-02 0.00000E+00
 -1       549 2.60417E-02 1.87500E-02 0.00000E+00
 -1       550 2.70833E-02 1.87500E-02 0.00000E+00
 -1       551 2.81250E-02 1.87500E-02 0.00000E+00
 -1       552 2.91667E-02 1.87500E-02 0.00000E+00
 -1       553 3.02083E-02 1.87500E-02 0.00000E+00
 -1       554 3.12500E-02 1.87500E-02 0.00000E+00
 -1       555 3.22917E-02 1.87500E-02 0.00000E+00
 -1       556 2.50000E-02 1.97917E-02 0.00000E+00
 -1       557 2.50000E-02 2.08333E-02 0.00000E+00
 -1       558 2.50000E-02 2.18750E-02 0.00000E+00
 -1       559 2.50000E-02 2.29167E-02 0.00000E+00
 -1       560 2.50000E-02 2.39583E-02 0.00000E+00
 -1       561 3.43750E-02 1.87500E-02 0.00000E+00
 -1       562 3.54167E-02 1.87500E-02 0.00000E+00
 -1       563 3.64583E-02 1.87500E-02 0.00000E+00
 -1       564 3.75000E-02 1.87500E-02 0.00000E+00
 -1       565 3.85417E-02 1.87500E-02 0.00000E+00
 -1       566 3.95833E-02 1.87500E-02 0.00000E+00
 -1       567 4.06250E-02 1.87500E-02 0.00000E+00
 -1       568 3.33333E-02 1.97917E-02 0.00000E+00
 -1       569 3.33333E-02 2.08333E-02 0.00000E+00
 -1       570 3.33333E-02 2.18750E-02 0.00000E+00
 -1       571 3.33333E-02 2.29167E-02 0.00000E+00
 -1       572 3.33333E-02 2.39583E-02 0.00000E+00
 -1       573 4.27083E-02 1.87500E-02 0.00000E+00
 -1       574 4.37500E-02 1.87500E-02 0.00000E+00
 -1       575 4.47917E-02 1.87500E-02 0.00000E+00
 -1       576 4.58333E-02 1.87500E-02 0.00000E+00
 -1       577 4.68750E-02 1.87500E-02 0.00000E+00
 -1       578 4.79167E-02 1.87500E-02 0.00000E+00
 -1       579 4.89583E-02 1.87500E-02 0.00000E+00
 -1       580 4.16667E-02 1.97917E-02 0.00000E+00
 -1       581 4.16667E-02 2.08333E-02 0.00000E+00
 -1       582 4.16667E-02 2.18750E-02 0.00000E+00
 -1       583 4.16667E-02 2.29167E-02 0.00000E+00
 -1       584 4.16667E-02 2.39583E-02 0.00000E+00
 -1       585 5.10417E-02 1.87500E-02 0.00000E+00
 -1       586 5.20833E-02 1.87500E-02 0.00000E+00
 -1       587 5.31250E-02 1.87500E-02 0.00000E+00
 -1       588 5.41667E-02 1.87500E-02 0.00000E+00
 -1       589 5.52083E-02 1.87500E-02 0.00000E+00
 -1       590 5.62500E-02 1.87500E-02 0.00000E+00
 -1       591 5.72917E-02 1.87500E-02 0.00000E+00
 -1       592 5.00000E-02 1.97917E-02 0.00000E+00
 -1       593 5.00000E-02 2.08333E-02 0.00000E+00
 -1       594 5.00000E-02 2.18750E-02 0.00000E+00
 -1       595 5.00000E-02 2.29167E-02 0.00000E+00
 -1       596 5.00000E-02 2.39583E-02 0.00000E+00
 -1       597 5.93750E-02 1.87500E-02 0.00000E+00
 -1       598 6.04167E-02 1.87500E-02 0.00000E+00
 -1       599 6.14583E-02 1.87500E-02 0.00000E+00
 -1       600 6.25000E-02 1.87500E-02 0.00000E+00
 -1       601 6.35417E-02 1.87500E-02 0.00000E+00
 -1       602 6.45833E-02 1.87500E-02 0.00000E+00
 -1       603 6.56250E-02 1.87500E-02 0.00000E+00
 -1       604 5.83333E-02 1.97917E-02 0.00000E+00
 -1       605 5.83333E-02 2.08333E-02 0.00000E+00
 -1       606 5.83333E-02 2.18750E-02 0.00000E+00
 -1       607 5.83333E-02 2.29167E-02 0.00000E+00
 -1       608 5.83333E-02 2.39583E-02 0.00000E+00
 -1       609 6.77083E-02 1.87500E-02 0.00000E+00
 -1       610 6.87500E-02 1.87500E-02 0.00000E+00
 -1       611 6.97917E-02 1.87500E-02 0.00000E+00
 -1       612 7.08333E-02 1.87500E-02 0.00000E+00
 -1       613 7.18750E-02 1.87500E-02 0.00000E+00
 -1       614 7.29167E-02 1.87500E-02 0.00000E+00
 -1       615 7.39583E-02 1.87500E-02 0.00000E+00
 -1       616 6.66667E-02 1.97917E-02 0.00000E+00
 -1       617 6.66667E-02 2.08333E-02 0.00000E+00
 -1       618 6.66667E-02 2.18750E-02 0.00000E+00
 -1       619 6.66667E-02 2.29167E-02 0.00000E+00
 -1       620 6.66667E-02 2.39583E-02 0.00000E+00
 -1       621 7.60417E-02 1.87500E-02 0.00000E+00
 -1       622 7.70833E-02 1.87500E-02 0.00000E+00
 -1       623 7.81250E-02 1.87500E-02 0.00000E+00
 -1       624 7.91667E-02 1.87500E-02 0.00000E+00
 -1       625 8.02083E-02 1.87500E-02 0.00000E+00
 -1       626 8.12500E-02 1.87500E-02 0.00000E+00
 -1       627 8.22917E-02 1.87500E-02 0.00000E+00
 -1       628 7.50000E-02 1.97917E-02 0.00000E+00
 -1       629 7.50000E-02 2.08333E-02 0.00000E+00
 -1       630 7.50000E-02 2.18750E-02 0.00000E+00
 -1       631 7.50000E-02 2.29167E-02 0.00000E+00
 -1       632 7.50000E-02 2.39583E-02 0.00000E+00
 -1       633 8.43750E-02 1.87500E-02 0.00000E+00
 -1       634 8.54167E-02 1.87500E-02 0.00000E+00
 -1       635 8.64583E-02 1.87500E-02 0.00000E+00
 -1       636 8.75000E-02 1.87500E-02 0.00000E+00
 -1       637 8.85417E-02 1.87500E-02 0.00000E+00
 -1       638 8.95833E-02 1.87500E-02 0.00000E+00
 -1       639 9.06250E-02 1.87500E-02 0.00000E+00
 -1       640 8.33333E-02 1.97917E-02 0.00000E+00
 -1       641 8.33333E-02 2.08333E-02 0.00000E+00
 -1       642 8.33333E-02 2.18750E-02 0.00000E+00
 -1       643 8.33333E-02 2.29167E-02 0.00000E+00
 -1       644 8.33333E-02 2.39583E-02 0.00000E+00
 -1       645 9.27083E-02 1.87500E-02 0.00000E+00
 -1       646 9.37500E-02 1.87500E-02 0.00000E+00
 -1       647 9.47917E-02 1.87500E-02 0.00000E+00
 -1       648 9.58333E-02 1.87500E-02 0.00000E+00
 -1       649 9.68750E-02 1.87500E-02 0.00000E+00
 -1       650 9.79167E-02 1.87500E-02 0.00000E+00
 -1       651 9.89583E-02 1.87500E-02 0.00000E+00
 -1       652 9.16667E-02 1.97917E-02 0.00000E+00
 -1       653 9.16667E-02 2.08333E-02 0.00000E+00
 -1       654 9.16667E-02 2.18750E-02 0.00000E+00
 -1       655 9.16667E-02 2.29167E-02 0.00000E+00
 -1       656 9.16667E-02 2.39583E-02 0.00000E+00
 -1       657 1.00000E-01 1.97917E-02 0.00000E+00
 -1       658 1.00000E-01 2.08333E-02 0.00000E+00
 -1       659 1.00000E-01 2.18750E-02 0.00000E+00
 -1       660 1.00000E-01 2.29167E-02 0.00000E+00
 -1       661 1.00000E-01 2.39583E-02 0.00000E+00
 -1       662 1.04167E-03 2.50000E-02 0.00000E+00
 -1       663 2.08333E-03 2.50000E-02 0.00000E+00
 -1       664 3.12500E-03 2.50000E-02 0.00000E+00
 -1       665 4.16667E-03 2.50000E-02 0.00000E+00
 -1       666 5.20833E-03 2.50000E-02 0.00000E+00
 -1       667 6.25000E-03 2.50000E-02 0.00000E+00
 -1       668 7.29167E-03 2.50000E-02 0.00000E+00
 -1       669 9.37500E-03 2.50000E-02 0.00000E+00
 -1       670 1.04167E-02 2.50000E-02 0.00000E+00
 -1       671 1.14583E-02 2.50000E-02 0.00000E+00
 -1       672 1.25000E-02 2.50000E-02 0.00000E+00
 -1       673 1.35417E-02 2.50000E-02 0.00000E+00
 -1       674 1.45833E-02 2.50000E-02 0.00000E+00
 -1       675 1.56250E-02 2.50000E-02 0.00000E+00
 -1       676 1.77083E-02 2.50000E-02 0.00000E+00
 -1       677 1.87500E-02 2.50000E-02 0.00000E+00
 -1       678 1.97917E-02 2.50000E-02 0.00000E+00
 -1       679 2.08333E-02 2.50000E-02 0.00000E+00
 -1       680 2.18750E-02 2.50000E-02 0.00000E+00
 -1       681 2.29167E-02 2.50000E-02 0.00000E+00
 -1       682 2.39583E-02 2.50000E-02 0.00000E+00
 -1       683 2.60417E-02 2.50000E-02 0.00000E+00
 -1       684 2.70833E-02 2.50000E-02 0.00000E+00
 -1       685 2.81250E-02 2.50000E-02 0.00000E+00
 -1       686 2.91667E-02 2.50000E-02 0.00000E+00
 -1       687 3.02083E-02 2.50000E-02 0.00000E+00
 -1       688 3.12500E-02 2.50000E-02 0.00000E+00
 -1       689 3.22917E-02 2.50000E-02 0.00000E+00
 -1       690 3.43750E-02 2.50000E-02 0.00000E+00
 -1       691 3.54167E-02 2.50000E-02 0.00000E+00
 -1       692 3.64583E-02 2.50000E-02 0.00000E+00
 -1       693 3.75000E-02 2.50000E-02 0.00000E+00
 -1       694 3.85417E-02 2.50000E-02 0.00000E+00
 -1       695 3.95833E-02 2.50000E-02 0.00000E+00
 -1       696 4.06250E-02 2.50000E-02 0.00000E+00
 -1       697 4.27083E-02 2.50000E-02 0.00000E+00
 -1       698 4.37500E-02 2.50000E-02 0.00000E+00
 -1       699 4.47917E-02 2.50000E-02 0.00000E+00
 -1       700 4.58333E-02 2.50000E-02 0.00000E+00
 -1       701 4.68750E-02 2.50000E-02 0.00000E+00
 -1       702 4.79167E-02 2.50000E-02 0.00000E+00
 -1       703 4.89583E-02 2.50000E-02 0.00000E+00
 -1       704 5.10417E-02 2.50000E-02 0.00000E+00
 -1       705 5.20833E-02 2.50000E-02 0.00000E+00
 -1       706 5.31250E-02 2.50000E-02 0.00000E+00
 -1       707 5.41667E-02 2.50000E-02 0.00000E+00
 -1       708 5.52083E-02 2.50000E-02 0.00000E+00
 -1       709 5.62500E-02 2.50000E-02 0.00000E+00
 -1       710 5.72917E-02 2.50000E-02 0.00000E+00
 -1       711 5.93750E-02 2.50000E-02 0.00000E+00
 -1       712 6.04167E-02 2.50000E-02 0.00000E+00
 -1       713 6.14583E-02 2.50000E-02 0.00000E+00
 -1       714 6.25000E-02 2.50000E-02 0.00000E+00
 -1       715 6.35417E-02 2.50000E-02 0.00000E+00
 -1       716 6.45833E-02 2.50000E-02 0.00000E+00
 -1       717 6.56250E-02 2.50000E-02 0.00000E+00
 -1       718 6.77083E-02 2.50000E-02 0.00000E+00
 -1       719 6.87500E-02 2.50000E-02 0.00000E+00
 -1       720 6.97917E-02 2.50000E-02 0.00000E+00
 -1       721 7.08333E-02 2.50000E-02 0.00000E+00
 -1       722 7.18750E-02 2.50000E-02 0.00000E+00
 -1       723 7.29167E-02 2.50000E-02 0.00000E+00
 -1       724 7.39583E-02 2.50000E-02 0.00000E+00
 -1       725 7.60417E-02 2.50000E-02 0.00000E+00
 -1       726 7.70833E-02 2.50000E-02 0.00000E+00
 -1       727 7.81250E-02 2.50000E-02 0.00000E+00
 -1       728 7.91667E-02 2.50000E-02 0.00000E+00
 -1       729 8.02083E-02 2.50000E-02 0.00000E+00
 -1       730 8.12500E-02 2.50000E-02 0.00000E+00
 -1       731 8.22917E-02 2.50000E-02 0.00000E+00
 -1       732 8.43750E-02 2.50000E-02 0.00000E+00
 -1       733 8.54167E-02 2.50000E-02 0.00000E+00
 -1       734 8.64583E-02 2.50000E-02 0.00000E+00
 -1       735 8.75000E-02 2.50000E-02 0.00000E+00
 -1       736 8.85417E-02 2.50000E-02 0.00000E+00
 -1       737 8.95833E-02 2.50000E-02 0.00000E+00
 -1       738 9.06250E-02 2.50000E-02 0.00000E+00
 -1       739 9.27083E-02 2.50000E-02 0.00000E+00
 -1       740 9.37500E-02 2.50000E-02 0.00000E+00
 -1       741 9.47917E-02 2.50000E-02 0.00000E+00
 -1       742 9.58333E-02 2.50000E-02 0.00000E+00
 -1       743 9.68750E-02 2.50000E-02 0.00000E+00
 -1       744 9.79167E-02 2.50000E-02 0.00000E+00
 -1       745 9.89583E-02 2.50000E-02 0.00000E+00
 -3
    3C                           340                                     1
 -1         1   12    0    1
 -2         1        67        66
 -1         2   12    0    1
 -2        67        69        68
 -1         3   12    0    1
 -2        69        71        70
 -1         4   12    0    1
 -2        71         2        72
 -1         5   12    0    1
 -2         1        74        73
 -1         6   12    0    1
 -2        74        76        75
 -1         7   12    0    1
 -2        76        14        77
 -1         8   12    0    1
 -2         2        79        78
 -1         9   12    0    1
 -2        79        81        80
 -1        10   12    0    1
 -2        81        83        82
 -1        11   12    0    1
 -2        83         3        84
 -1        12   12    0    1
 -2         2        86        85
 -1        13   12    0    1
 -2        86        88        87
 -1        14   12    0    1
 -2        88        15        89
 -1        15   12    0    1
 -2         3        91        90
 -1        16   12    0    1
 -2        91        93        92
 -1        17   12    0    1
 -2        93        95        94
 -1        18   12    0    1
 -2        95         4        96
 -1        19   12    0    1
 -2         3        98        97
 -1        20   12    0    1
 -2        98       100        99
 -1        21   12    0    1
 -2       100        16       101
 -1        22   12    0    1
 -2         4       103       102
 -1        23   12    0    1
 -2       103       105       104
 -1        24   12    0    1
 -2       105       107       106
 -1        25   12    0    1
 -2       107         5       108
 -1        26   12    0    1
 -2         4       110       109
 -1        27   12    0    1
 -2       110       112       111
 -1        28   12    0    1
 -2       112        17       113
 -1        29   12    0    1
 -2         5       115       114
 -1        30   12    0    1
 -2       115       117       116
 -1        31   12    0    1
 -2       117       119       118
 -1        32   12    0    1
 -2       119         6       120
 -1        33   12    0    1
 -2         5       122       121
 -1        34   12    0    1
 -2       122       124       123
 -1        35   12    0    1
 -2       124        18       125
 -1        36   12    0    1
 -2         6       127       126
 -1        37   12    0    1
 -2       127       129       128
 -1        38   12    0    1
 -2       129       131       130
 -1        39   12    0    1
 -2       131         7       132
 -1        40   12    0    1
 -2         6       134       133
 -1        41   12    0    1
 -2       134       136       135
 -1        42   12    0    1
 -2       136        19       137
 -1        43   12    0    1
 -2         7       139       138
 -1        44   12    0    1
 -2       139       141       140
 -1        45   12    0    1
 -2       141       143       142
 -1        46   12    0    1
 -2       143         8       144
 -1        47   12    0    1
 -2         7       146       145
 -1        48   12    0    1
 -2       146       148       147
 -1        49   12    0    1
 -2       148        20       149
 -1        50   12    0    1
 -2         8       151       150
 -1        51   12    0    1
 -2       151       153       152
 -1        52   12    0    1
 -2       153       155       154
 -1        53   12    0    1
 -2       155         9       156
 -1        54   12    0    1
 -2         8       158       157
 -1        55   12    0    1
 -2       158       160       159
 -1        56   12    0    1
 -2       160        21       161
 -1        57   12    0    1
 -2         9       170       169
 -1        58   12    0    1
 -2       170       172       171
 -1        59   12    0    1
 -2       172        22       173
 -1        60   12    0    1
 -2        14       216       215
 -1        61   12    0    1
 -2       216       218       217
 -1        62   12    0    1
 -2       218       220       219
 -1        63   12    0    1
 -2       220        15       221
 -1        64   12    0    1
 -2        14       223       222
 -1        65   12    0    1
 -2       223       225       224
 -1        66   12    0    1
 -2       225        27       226
 -1        67   12    0    1
 -2        15       228       227
 -1        68   12    0    1
 -2       228       230       229
 -1        69   12    0    1
 -2       230       232       231
 -1        70   12    0    1
 -2       232        16       233
 -1        71   12    0    1
 -2        15       235       234
 -1        72   12    0    1
 -2       235       237       236
 -1        73   12    0    1
 -2       237        28       238
 -1        74   12    0    1
 -2        16       240       239
 -1        75   12    0    1
 -2       240       242       241
 -1        76   12    0    1
 -2       242       244       243
 -1        77   12    0    1
 -2       244        17       245
 -1        78   12    0    1
 -2        16       247       246
 -1        79   12    0    1
 -2       247       249       248
 -1        80   12    0    1
 -2       249        29       250
 -1        81   12    0    1
 -2        17       252       251
 -1        82   12    0    1
 -2       252       254       253
 -1        83   12    0    1
 -2       254       256       255
 -1        84   12    0    1
 -2       256        18       257
 -1        85   12    0    1
 -2        17       259       258
 -1        86   12    0    1
 -2       259       261       260
 -1        87   12    0    1
 -2       261        30       262
 -1        88   12    0    1
 -2        18       264       263
 -1        89   12    0    1
 -2       264       266       265
 -1        90   12    0    1
 -2       266       268       267
 -1        91   12    0    1
 -2       268        19       269
 -1        92   12    0    1
 -2        18       271       270
 -1        93   12    0    1
 -2       271       273       272
 -1        94   12    0    1
 -2       273        31       274
 -1        95   12    0    1
 -2        19       276       275
 -1        96   12    0    1
 -2       276       278       277
 -1        97   12    0    1
 -2       278       280       279
 -1        98   12    0    1
 -2       280        20       281
 -1        99   12    0    1
 -2        19       283       282
 -1       100   12    0    1
 -2       283       285       284
 -1       101   12    0    1
 -2       285        32       286
 -1       102   12    0    1
 -2        20       288       287
 -1       103   12    0    1
 -2       288       290       289
 -1       104   12    0    1
 -2       290       292       291
 -1       105   12    0    1
 -2       292        21       293
 -1       106   12    0    1
 -2        20       295       294
 -1       107   12    0    1
 -2       295       297       296
 -1       108   12    0    1
 -2       297        33       298
 -1       109   12    0    1
 -2        21       300       299
 -1       110   12    0    1
 -2       300       302       301
 -1       111   12    0    1
 -2       302       304       303
 -1       112   12    0    1
 -2       304        22       305
 -1       113   12    0    1
 -2        21       307       306
 -1       114   12    0    1
 -2       307       309       308
 -1       115   12    0    1
 -2       309        34       310
 -1       116   12    0    1
 -2        22       319       318
 -1       117   12    0    1
 -2       319       321       320
 -1       118   12    0    1
 -2       321        35       322
 -1       119   12    0    1
 -2        27       365       364
 -1       120   12    0    1
 -2       365       367       366
 -1       121   12    0    1
 -2       367       369       368
 -1       122   12    0    1
 -2       369        28       370
 -1       123   12    0    1
 -2        27       372       371
 -1       124   12    0    1
 -2       372       374       373
 -1       125   12    0    1
 -2       374        40       375
 -1       126   12    0    1
 -2        28       377       376
 -1       127   12    0    1
 -2       377       379       378
 -1       128   12    0    1
 -2       379       381       380
 -1       129   12    0    1
 -2       381        29       382
 -1       130   12    0    1
 -2        28       384       383
 -1       131   12    0    1
 -2       384       386       385
 -1       132   12    0    1
 -2       386        41       387
 -1       133   12    0    1
 -2        29       389       388
 -1       134   12    0    1
 -2       389       391       390
 -1       135   12    0    1
 -2       391       393       392
 -1       136   12    0    1
 -2       393        30       394
 -1       137   12    0    1
 -2        29       396       395
 -1       138   12    0    1
 -2       396       398       397
 -1       139   12    0    1
 -2       398        42       399
 -1       140   12    0    1
 -2        30       401       400
 -1       141   12    0    1
 -2       401       403       402
 -1       142   12    0    1
 -2       403       405       404
 -1       143   12    0    1
 -2       405        31       406
 -1       144   12    0    1
 -2        30       408       407
 -1       145   12    0    1
 -2       408       410       409
 -1       146   12    0    1
 -2       410        43       411
 -1       147   12    0    1
 -2        31       413       412
 -1       148   12    0    1
 -2       413       415       414
 -1       149   12    0    1
 -2       415       417       416
 -1       150   12    0    1
 -2       417        32       418
 -1       151   12    0    1
 -2        31       420       419
 -1       152   12    0    1
 -2       420       422       421
 -1       153   12    0    1
 -2       422        44       423
 -1       154   12    0    1
 -2        32       425       424
 -1       155   12    0    1
 -2       425       427       426
 -1       156   12    0    1
 -2       427       429       428
 -1       157   12    0    1
 -2       429        33       430
 -1       158   12    0    1
 -2        32       432       431
 -1       159   12    0    1
 -2       432       434       433
 -1       160   12    0    1
 -2       434        45       435
 -1       161   12    0    1
 -2        33       437       436
 -1       162   12    0    1
 -2       437       439       438
 -1       163   12    0    1
 -2       439       441       440
 -1       164   12    0    1
 -2       441        34       442
 -1       165   12    0    1
 -2        33       444       443
 -1       166   12    0    1
 -2       444       446       445
 -1       167   12    0    1
 -2       446        46       447
 -1       168   12    0    1
 -2        34       449       448
 -1       169   12    0    1
 -2       449       451       450
 -1       170   12    0    1
 -2       451       453       452
 -1       171   12    0    1
 -2       453        35       454
 -1       172   12    0    1
 -2        34       456       455
 -1       173   12    0    1
 -2       456       458       457
 -1       174   12    0    1
 -2       458        47       459
 -1       175   12    0    1
 -2        35       461       460
 -1       176   12    0    1
 -2       461       463       462
 -1       177   12    0    1
 -2       463       465       464
 -1       178   12    0    1
 -2       465        36       466
 -1       179   12    0    1
 -2        35       468       467
 -1       180   12    0    1
 -2       468       470       469
 -1       181   12    0    1
 -2       470        48       471
 -1       182   12    0    1
 -2        36       473       472
 -1       183   12    0    1
 -2       473       475       474
 -1       184   12    0    1
 -2       475       477       476
 -1       185   12    0    1
 -2       477        37       478
 -1       186   12    0    1
 -2        36       480       479
 -1       187   12    0    1
 -2       480       482       481
 -1       188   12    0    1
 -2       482        49       483
 -1       189   12    0    1
 -2        37       485       484
 -1       190   12    0    1
 -2       485       487       486
 -1       191   12    0    1
 -2       487       489       488
 -1       192   12    0    1
 -2       489        38       490
 -1       193   12    0    1
 -2        37       492       491
 -1       194   12    0    1
 -2       492       494       493
 -1       195   12    0    1
 -2       494        50       495
 -1       196   12    0    1
 -2        38       497       496
 -1       197   12    0    1
 -2       497       499       498
 -1       198   12    0    1
 -2       499       501       500
 -1       199   12    0    1
 -2       501        39       502
 -1       200   12    0    1
 -2        38       504       503
 -1       201   12    0    1
 -2       504       506       505
 -1       202   12    0    1
 -2       506        51       507
 -1       203   12    0    1
 -2        39       509       508
 -1       204   12    0    1
 -2       509       511       510
 -1       205   12    0    1
 -2       511        52       512
 -1       206   12    0    1
 -2        40       514       513
 -1       207   12    0    1
 -2       514       516       515
 -1       208   12    0    1
 -2       516       518       517
 -1       209   12    0    1
 -2       518        41       519
 -1       210   12    0    1
 -2        40       521       520
 -1       211   12    0    1
 -2       521       523       522
 -1       212   12    0    1
 -2       523        53       524
 -1       213   12    0    1
 -2        41       526       525
 -1       214   12    0    1
 -2       526       528       527
 -1       215   12    0    1
 -2       528       530       529
 -1       216   12    0    1
 -2       530        42       531
 -1       217   12    0    1
 -2        41       533       532
 -1       218   12    0    1
 -2       533       535       534
 -1       219   12    0    1
 -2       535        54       536
 -1       220   12    0    1
 -2        42       538       537
 -1       221   12    0    1
 -2       538       540       539
 -1       222   12    0    1
 -2       540       542       541
 -1       223   12    0    1
 -2       542        43       543
 -1       224   12    0    1
 -2        42       545       544
 -1       225   12    0    1
 -2       545       547       546
 -1       226   12    0    1
 -2       547        55       548
 -1       227   12    0    1
 -2        43       550       549
 -1       228   12    0    1
 -2       550       552       551
 -1       229   12    0    1
 -2       552       554       553
 -1       230   12    0    1
 -2       554        44       555
 -1       231   12    0    1
 -2        43       557       556
 -1       232   12    0    1
 -2       557       559       558
 -1       233   12    0    1
 -2       559        56       560
 -1       234   12    0    1
 -2        44       562       561
 -1       235   12    0    1
 -2       562       564       563
 -1       236   12    0    1
 -2       564       566       565
 -1       237   12    0    1
 -2       566        45       567
 -1       238   12    0    1
 -2        44       569       568
 -1       239   12    0    1
 -2       569       571       570
 -1       240   12    0    1
 -2       571        57       572
 -1       241   12    0    1
 -2        45       574       573
 -1       242   12    0    1
 -2       574       576       575
 -1       243   12    0    1
 -2       576       578       577
 -1       244   12    0    1
 -2       578        46       579
 -1       245   12    0    1
 -2        45       581       580
 -1       246   12    0    1
 -2       581       583       582
 -1       247   12    0    1
 -2       583        58       584
 -1       248   12    0    1
 -2        46       586       585
 -1       249   12    0    1
 -2       586       588       587
 -1       250   12    0    1
 -2       588       590       589
 -1       251   12    0    1
 -2       590        47       591
 -1       252   12    0    1
 -2        46       593       592
 -1       253   12    0    1
 -2       593       595       594
 -1       254   12    0    1
 -2       595        59       596
 -1       255   12    0    1
 -2        47       598       597
 -1       256   12    0    1
 -2       598       600       599
 -1       257   12    0    1
 -2       600       602       601
 -1       258   12    0    1
 -2       602        48       603
 -1       259   12    0    1
 -2        47       605       604
 -1       260   12    0    1
 -2       605       607       606
 -1       261   12    0    1
 -2       607        60       608
 -1       262   12    0    1
 -2        48       610       609
 -1       263   12    0    1
 -2       610       612       611
 -1       264   12    0    1
 -2       612       614       613
 -1       265   12    0    1
 -2       614        49       615
 -1       266   12    0    1
 -2        48       617       616
 -1       267   12    0    1
 -2       617       619       618
 -1       268   12    0    1
 -2       619        61       620
 -1       269   12    0    1
 -2        49       622       621
 -1       270   12    0    1
 -2       622       624       623
 -1       271   12    0    1
 -2       624       626       625
 -1       272   12    0    1
 -2       626        50       627
 -1       273   12    0    1
 -2        49       629       628
 -1       274   12    0    1
 -2       629       631       630
 -1       275   12    0    1
 -2       631        62       632
 -1       276   12    0    1
 -2        50       634       633
 -1       277   12    0    1
 -2       634       636       635
 -1       278   12    0    1
 -2       636       638       637
 -1       279   12    0    1
 -2       638        51       639
 -1       280   12    0    1
 -2        50       641       640
 -1       281   12    0    1
 -2       641       643       642
 -1       282   12    0    1
 -2       643        63       644
 -1       283   12    0    1
 -2        51       646       645
 -1       284   12    0    1
 -2       646       648       647
 -1       285   12    0    1
 -2       648       650       649
 -1       286   12    0    1
 -2       650        52       651
 -1       287   12    0    1
 -2        51       653       652
 -1       288   12    0    1
 -2       653       655       654
 -1       289   12    0    1
 -2       655        64       656
 -1       290   12    0    1
 -2        52       658       657
 -1       291   12    0    1
 -2       658       660       659
 -1       292   12    0    1
 -2       660        65       661
 -1       293   12    0    1
 -2        53       663       662
 -1       294   12    0    1
 -2       663       665       664
 -1       295   12    0    1
 -2       665       667       666
 -1       296   12    0    1
 -2       667        54       668
 -1       297   12    0    1
 -2        54       670       669
 -1       298   12    0    1
 -2       670       672       671
 -1       299   12    0    1
 -2       672       674       673
 -1       300   12    0    1
 -2       674        55       675
 -1       301   12    0    1
 -2        55       677       676
 -1       302   12    0    1
 -2       677       679       678
 -1       303   12    0    1
 -2       679       681       680
 -1       304   12    0    1
 -2       681        56       682
 -1       305   12    0    1
 -2        56       684       683
 -1       306   12    0    1
 -2       684       686       685
 -1       307   12    0    1
 -2       686       688       687
 -1       308   12    0    1
 -2       688        57       689
 -1       309   12    0    1
 -2        57       691       690
 -1       310   12    0    1
 -2       691       693       692
 -1       311   12    0    1
 -2       693       695       694
 -1       312   12    0    1
 -2       695        58       696
 -1       313   12    0    1
 -2        58       698       697
 -1       314   12    0    1
 -2       698       700       699
 -1       315   12    0    1
 -2       700       702       701
 -1       316   12    0    1
 -2       702        59       703
 -1       317   12    0    1
 -2        59       705       704
 -1       318   12    0    1
 -2       705       707       706
 -1       319   12    0    1
 -2       707       709       708
 -1       320   12    0    1
 -2       709        60       710
 -1       321   12    0    1
 -2        60       712       711
 -1       322   12    0    1
 -2       712       714       713
 -1       323   12    0    1
 -2       714       716       715
 -1       324   12    0    1
 -2       716        61       717
 -1       325   12    0    1
 -2        61       719       718
 -1       326   12    0    1
 -2       719       721       720
 -1       327   12    0    1
 -2       721       723       722
 -1       328   12    0    1
 -2       723        62       724
 -1       329   12    0    1
 -2        62       726       725
 -1       330   12    0    1
 -2       726       728       727
 -1       331   12    0    1
 -2       728       730       729
 -1       332   12    0    1
 -2       730        63       731
 -1       333   12    0    1
 -2        63       733       732
 -1       334   12    0    1
 -2       733       735       734
 -1       335   12    0    1
 -2       735       737       736
 -1       336   12    0    1
 -2       737        64       738
 -1       337   12    0    1
 -2        64       740       739
 -1       338   12    0    1
 -2       740       742       741
 -1       339   12    0    1
 -2       742       744       743
 -1       340   12    0    1
 -2       744        65       745
 -3
    1PSTEP                         1           1           1          
  100CL  101 1.000000000         641                     0    1           1
 -4  DISP        4    1
 -5  D1          1    2    1    0
 -5  D2          1    2    2    0
 -5  D3          1    2    3    0
 -5  ALL         1    2    0    0    1ALL
 -1         1-9.41119E-05 0.00000E+00 0.00000E+00
 -1         2-8.33611E-05 0.00000E+00 0.00000E+00
 -1         3-7.51659E-05 0.00000E+00 0.00000E+00
 -1         4-6.88404E-05 0.00000E+00 0.00000E+00
 -1         5-6.39654E-05 0.00000E+00 0.00000E+00
 -1         6-6.02877E-05 0.00000E+00 0.00000E+00
 -1         7-5.76632E-05 0.00000E+00 0.00000E+00
 -1         8-5.60196E-05 0.00000E+00 0.00000E+00
 -1         9-5.53748E-05 0.00000E+00 0.00000E+00
 -1        14-6.32855E-05 1.69848E-06 0.00000E+00
 -1        15-6.11162E-05-5.52124E-07 0.00000E+00
 -1        16-5.82483E-05-2.79735E-07 0.00000E+00
 -1        17-5.52727E-05-1.53559E-07 0.00000E+00
 -1        18-5.24716E-05-6.20813E-08 0.00000E+00
 -1        19-4.99863E-05 1.19809E-08 0.00000E+00
 -1        20-4.78892E-05-3.88386E-08 0.00000E+00
 -1        21-4.62493E-05-9.18597E-08 0.00000E+00
 -1        22-4.51856E-05 1.31118E-08 0.00000E+00
 -1        27-3.74457E-05 2.02847E-06 0.00000E+00
 -1        28-3.72471E-05-8.01258E-07 0.00000E+00
 -1        29-3.65795E-05-4.65955E-07 0.00000E+00
 -1        30-3.55750E-05-2.48941E-07 0.00000E+00
 -1        31-3.43127E-05-9.39538E-08 0.00000E+00
 -1        32-3.28318E-05 3.51366E-08 0.00000E+00
 -1        33-3.10884E-05-7.88840E-08 0.00000E+00
 -1        34-2.88627E-05-3.97299E-07 0.00000E+00
 -1        35-2.58862E-05 8.11259E-07 0.00000E+00
 -1        36-2.21629E-05 1.53722E-05 0.00000E+00
 -1        37-2.00143E-05 3.10366E-05 0.00000E+00
 -1        38-1.90180E-05 4.21827E-05 0.00000E+00
 -1        39-1.87261E-05 4.76774E-05 0.00000E+00
 -1        40-1.78449E-05 1.41593E-06 0.00000E+00
 -1        41-1.80807E-05-1.01318E-06 0.00000E+00
 -1        42-1.82139E-05-5.81669E-07 0.00000E+00
 -1        43-1.80790E-05-2.96280E-07 0.00000E+00
 -1        44-1.76687E-05-8.66378E-08 0.00000E+00
 -1        45-1.70899E-05 1.05244E-07 0.00000E+00
 -1        46-1.65996E-05-7.78472E-08 0.00000E+00
 -1        47-1.66162E-05-6.62959E-07 0.00000E+00
 -1        48-1.68156E-05 1.43647E-06 0.00000E+00
 -1        49-1.72245E-05 1.52440E-05 0.00000E+00
 -1        50-1.73961E-05 3.06605E-05 0.00000E+00
 -1        51-1.74867E-05 4.18221E-05 0.00000E+00
 -1        52-1.75228E-05 4.73056E-05 0.00000E+00
 -1        53 0.00000E+00 0.00000E+00 0.00000E+00
 -1        54-3.00592E-06-1.17755E-06 0.00000E+00
 -1        55-4.69847E-06-6.40362E-07 0.00000E+00
 -1        56-5.22257E-06-3.14565E-07 0.00000E+00
 -1        57-4.64743E-06-6.81278E-08 0.00000E+00
 -1        58-2.94081E-06 1.74304E-07 0.00000E+00
 -1        59 0.00000E+00 0.00000E+00 0.00000E+00
 -1        60-5.49077E-06-8.35786E-07 0.00000E+00
 -1        61-9.99325E-06 1.66066E-06 0.00000E+00
 -1        62-1.33562E-05 1.51586E-05 0.00000E+00
 -1        63-1.53839E-05 3.05025E-05 0.00000E+00
 -1        64-1.63210E-05 4.16710E-05 0.00000E+00
 -1        65-1.65925E-05 4.71711E-05 0.00000E+00
 -1        66-9.27865E-05-5.34690E-21 0.00000E+00
 -1        67-9.14379E-05-7.14684E-21 0.00000E+00
 -1        68-9.00871E-05-3.00432E-21-5.29396E-23
 -1        69-8.87342E-05-8.24534E-21 0.00000E+00
 -1        70-8.73814E-05-6.22040E-21 0.00000E+00
 -1        71-8.60310E-05 5.29396E-22 1.32349E-23
 -1        72-8.46831E-05-5.16161E-22 2.64698E-23
 -1        73-9.18806E-05 3.14357E-07 1.15805E-23
 -1        74-8.75128E-05 6.01324E-07 5.37667E-24
 -1        75-8.17343E-05 8.80803E-07 3.30872E-24
 -1        76-7.52810E-05 1.15417E-06 0.00000E+00
 -1        77-6.88880E-05 1.42660E-06 0.00000E+00
 -1        78-8.23445E-05-2.75286E-21-2.64698E-23
 -1        79-8.13163E-05-4.49986E-21-1.32349E-23
 -1        80-8.02870E-05-6.53804E-21 0.00000E+00
 -1        81-7.92568E-05-6.26010E-21 0.00000E+00
 -1        82-7.82269E-05-5.67777E-21 2.64698E-23
 -1        83-7.71988E-05-4.23516E-22 0.00000E+00
 -1        84-7.61728E-05 2.72639E-21 0.00000E+00
 -1        85-8.15921E-05-5.46519E-08 1.15805E-23
 -1        86-7.82299E-05-1.49138E-07-1.65436E-24
 -1        87-7.38839E-05-2.49774E-07 0.00000E+00
 -1        88-6.91720E-05-3.54714E-07 0.00000E+00
 -1        89-6.47119E-05-4.59171E-07 0.00000E+00
 -1        90-7.43811E-05-2.29625E-21 2.64698E-23
 -1        91-7.35875E-05 4.10282E-22 0.00000E+00
 -1        92-7.27931E-05 6.26010E-21-2.64698E-23
 -1        93-7.19980E-05 2.38228E-21-1.32349E-23
 -1        94-7.12031E-05 2.08450E-21-2.64698E-23
 -1        95-7.04096E-05-5.29396E-22-1.32349E-23
 -1        96-6.96177E-05 1.91906E-22 0.00000E+00
 -1        97-7.38600E-05-1.97906E-08 2.48154E-24
 -1        98-7.13550E-05-6.89746E-08-1.65436E-24
 -1        99-6.80930E-05-1.22276E-07 1.65436E-24
 -1       100-6.45228E-05-1.78428E-07 0.00000E+00
 -1       101-6.10930E-05-2.34240E-07 6.61744E-24
 -1       102-6.82354E-05 4.63221E-23 0.00000E+00
 -1       103-6.76238E-05-9.83352E-21-6.61744E-24
 -1       104-6.70115E-05-1.16136E-20-1.32349E-23
 -1       105-6.63988E-05-6.87553E-21 0.00000E+00
 -1       106-6.57862E-05 2.77271E-21 0.00000E+00
 -1       107-6.51747E-05 4.24178E-21 6.61744E-24
 -1       108-6.45643E-05 4.09620E-21 0.00000E+00
 -1       109-6.78158E-05-5.84899E-09-2.89513E-24
 -1       110-6.58365E-05-3.38921E-08 0.00000E+00
 -1       111-6.32452E-05-6.48466E-08 0.00000E+00
 -1       112-6.03896E-05-9.77363E-08 0.00000E+00
 -1       113-5.76171E-05-1.30290E-07 0.00000E+00
 -1       114-6.35086E-05-1.48562E-21 0.00000E+00
 -1       115-6.30471E-05-4.55280E-21 6.61744E-24
 -1       116-6.25852E-05-2.36243E-21 0.00000E+00
 -1       117-6.21230E-05-1.80325E-21 6.61744E-24
 -1       118-6.16609E-05-1.22754E-21-1.32349E-23
 -1       119-6.11997E-05-1.29371E-21-6.61744E-24
 -1       120-6.07393E-05-8.63577E-22-1.32349E-23
 -1       121-6.31117E-05 4.13667E-09 4.13590E-24
 -1       122-6.14538E-05-8.35167E-09-8.27181E-25
 -1       123-5.92742E-05-2.29591E-08 1.65436E-24
 -1       124-5.68599E-05-3.88997E-08-8.27181E-25
 -1       125-5.44975E-05-5.45063E-08 3.30872E-24
 -1       126-5.99611E-05-9.59530E-23-6.61744E-24
 -1       127-5.96316E-05 1.69407E-21-6.61744E-24
 -1       128-5.93019E-05 7.30897E-21 1.32349E-23
 -1       129-5.89720E-05 7.85822E-21-6.61744E-24
 -1       130-5.86422E-05 5.68769E-21 6.61744E-24
 -1       131-5.83132E-05 6.28657E-22-3.30872E-24
 -1       132-5.79848E-05-1.11835E-21 0.00000E+00
 -1       133-5.95320E-05 1.22550E-08 8.27181E-25
 -1       134-5.80584E-05 1.25232E-08-8.27181E-25
 -1       135-5.61153E-05 1.12404E-08 0.00000E+00
 -1       136-5.39546E-05 9.04878E-09-8.27181E-25
 -1       137-5.18282E-05 7.17900E-09 3.30872E-24
 -1       138-5.74579E-05-3.96054E-21 0.00000E+00
 -1       139-5.72514E-05-4.05980E-21 3.30872E-24
 -1       140-5.70447E-05-5.69266E-21-6.61744E-24
 -1       141-5.68381E-05-6.14761E-21 0.00000E+00
 -1       142-5.66315E-05-4.10116E-21-6.61744E-24
 -1       143-5.64255E-05-5.77372E-21-3.30872E-24
 -1       144-5.62200E-05-2.76940E-21 0.00000E+00
 -1       145-5.69548E-05 5.78951E-10 1.65436E-24
 -1       146-5.55679E-05-7.26766E-09 0.00000E+00
 -1       147-5.37336E-05-1.62733E-08 0.00000E+00
 -1       148-5.16864E-05-2.58887E-08 0.00000E+00
 -1       149-4.96606E-05-3.51857E-08 0.00000E+00
 -1       150-5.59382E-05-8.03192E-22 0.00000E+00
 -1       151-5.58571E-05-2.95221E-21 0.00000E+00
 -1       152-5.57762E-05-5.57851E-21 0.00000E+00
 -1       153-5.56953E-05-4.86548E-21 1.65436E-24
 -1       154-5.56145E-05-3.39558E-21-1.65436E-24
 -1       155-5.55339E-05-3.81744E-21 0.00000E+00
 -1       156-5.54535E-05-3.84474E-21-1.65436E-24
 -1       157-5.53021E-05-1.11269E-08 0.00000E+00
 -1       158-5.39031E-05-2.72791E-08 0.00000E+00
 -1       159-5.20591E-05-4.42818E-08 0.00000E+00
 -1       160-5.00094E-05-6.16872E-08 0.00000E+00
 -1       161-4.79936E-05-7.88078E-08 0.00000E+00
 -1       169-5.48062E-05 3.80643E-09 0.00000E+00
 -1       170-5.35829E-05 5.56039E-09 0.00000E+00
 -1       171-5.18556E-05 6.70855E-09 0.00000E+00
 -1       172-4.97780E-05 7.55225E-09 0.00000E+00
 -1       173-4.75036E-05 8.40587E-09 0.00000E+00
 -1       215-6.30201E-05-9.02832E-07 0.00000E+00
 -1       216-6.27482E-05-1.98152E-06-1.32349E-23
 -1       217-6.24746E-05-1.96373E-06 0.00000E+00
 -1       218-6.22006E-05-1.28204E-06-6.61744E-24
 -1       219-6.19267E-05-3.68462E-07 0.00000E+00
 -1       220-6.16534E-05 3.45065E-07 2.48154E-24
 -1       221-6.13810E-05 4.26261E-07 8.27181E-25
 -1       222-5.87920E-05 1.76022E-06 0.00000E+00
 -1       223-5.40855E-05 1.81439E-06 1.65436E-24
 -1       224-4.93810E-05 1.86775E-06 0.00000E+00
 -1       225-4.48955E-05 1.92094E-06 0.00000E+00
 -1       226-4.08458E-05 1.97518E-06 0.00000E+00
 -1       227-6.07676E-05-1.76010E-06 0.00000E+00
 -1       228-6.04076E-05-1.99113E-06 0.00000E+00
 -1       229-6.00463E-05-1.55390E-06 1.32349E-23
 -1       230-5.96840E-05-7.61138E-07 6.61744E-24
 -1       231-5.93217E-05 7.47591E-08 0.00000E+00
 -1       232-5.89601E-05 6.41434E-07-4.96308E-24
 -1       233-5.85995E-05 6.26212E-07-6.61744E-24
 -1       234-5.77917E-05-5.85200E-07 0.00000E+00
 -1       235-5.36112E-05-6.27974E-07 0.00000E+00
 -1       236-4.90185E-05-6.72837E-07-3.10193E-25
 -1       237-4.44621E-05-7.18147E-07 0.00000E+00
 -1       238-4.03905E-05-7.61913E-07 0.00000E+00
 -1       239-5.78847E-05-1.29848E-06 0.00000E+00
 -1       240-5.75111E-05-1.49728E-06 0.00000E+00
 -1       241-5.71364E-05-1.13632E-06 1.32349E-23
 -1       242-5.67609E-05-4.79237E-07-6.61744E-24
 -1       243-5.63854E-05 2.10664E-07-6.61744E-24
 -1       244-5.60107E-05 6.70085E-07-6.61744E-24
 -1       245-5.56369E-05 6.35452E-07-3.30872E-24
 -1       246-5.53191E-05-3.01551E-07 0.00000E+00
 -1       247-5.15556E-05-3.33961E-07 0.00000E+00
 -1       248-4.73768E-05-3.68423E-07 0.00000E+00
 -1       249-4.32062E-05-4.03466E-07 0.00000E+00
 -1       250-3.94675E-05-4.37205E-07 0.00000E+00
 -1       251-5.49295E-05-1.02005E-06-1.32349E-23
 -1       252-5.45778E-05-1.17925E-06 0.00000E+00
 -1       253-5.42252E-05-8.57656E-07 0.00000E+00
 -1       254-5.38719E-05-2.84741E-07-6.61744E-24
 -1       255-5.35186E-05 3.10280E-07 0.00000E+00
 -1       256-5.31661E-05 6.98215E-07 3.30872E-24
 -1       257-5.28145E-05 6.49616E-07-3.30872E-24
 -1       258-5.26796E-05-1.60911E-07 0.00000E+00
 -1       259-4.92936E-05-1.78160E-07 0.00000E+00
 -1       260-4.55005E-05-1.97256E-07 0.00000E+00
 -1       261-4.16904E-05-2.16919E-07 0.00000E+00
 -1       262-3.82533E-05-2.35485E-07 0.00000E+00
 -1       263-5.21666E-05-8.22901E-07 0.00000E+00
 -1       264-5.18546E-05-9.50327E-07 0.00000E+00
 -1       265-5.15417E-05-6.49453E-07 0.00000E+00
 -1       266-5.12284E-05-1.28099E-07-3.30872E-24
 -1       267-5.09150E-05 4.06134E-07 0.00000E+00
 -1       268-5.06023E-05 7.45651E-07 0.00000E+00
 -1       269-5.02904E-05 6.82650E-07 0.00000E+00
 -1       270-5.01193E-05-5.99904E-08 3.30872E-24
 -1       271-4.70163E-05-6.66826E-08 8.27181E-25
 -1       272-4.35217E-05-7.49838E-08-4.13590E-25
 -1       273-3.99982E-05-8.37382E-08 0.00000E+00
 -1       274-3.68089E-05-9.14928E-08 0.00000E+00
 -1       275-4.97284E-05-6.88521E-07 0.00000E+00
 -1       276-4.94650E-05-8.01870E-07 0.00000E+00
 -1       277-4.92010E-05-5.20951E-07 6.61744E-24
 -1       278-4.89365E-05-4.12623E-08 0.00000E+00
 -1       279-4.86721E-05 4.41911E-07-6.61744E-24
 -1       280-4.84083E-05 7.33268E-07 1.65436E-24
 -1       281-4.81453E-05 6.37323E-07-4.96308E-24
 -1       282-4.77806E-05 2.18576E-08 0.00000E+00
 -1       283-4.48562E-05 2.42572E-08 0.00000E+00
 -1       284-4.15542E-05 2.52773E-08 0.00000E+00
 -1       285-3.82200E-05 2.60187E-08 0.00000E+00
 -1       286-3.51987E-05 2.77565E-08 0.00000E+00
 -1       287-4.76874E-05-7.27497E-07 6.61744E-24
 -1       288-4.74812E-05-8.43374E-07 0.00000E+00
 -1       289-4.72745E-05-5.73907E-07 6.61744E-24
 -1       290-4.70675E-05-1.09121E-07 0.00000E+00
 -1       291-4.68606E-05 3.61134E-07 3.30872E-24
 -1       292-4.66542E-05 6.47020E-07 2.48154E-24
 -1       293-4.64486E-05 5.58509E-07 3.30872E-24
 -1       294-4.57191E-05-4.08294E-08 0.00000E+00
 -1       295-4.28413E-05-4.93127E-08 0.00000E+00
 -1       296-3.95959E-05-5.89922E-08 4.13590E-25
 -1       297-3.63266E-05-6.86882E-08 0.00000E+00
 -1       298-3.33774E-05-7.72239E-08-6.61744E-24
 -1       299-4.61190E-05-5.91877E-07 0.00000E+00
 -1       300-4.59855E-05-4.36351E-07 6.61744E-24
 -1       301-4.58517E-05 1.22125E-07 6.61744E-24
 -1       302-4.57176E-05 8.27781E-07 1.65436E-24
 -1       303-4.55835E-05 1.42501E-06 2.89513E-24
 -1       304-4.54495E-05 1.65822E-06 0.00000E+00
 -1       305-4.53161E-05 1.27156E-06-3.30872E-24
 -1       306-4.40348E-05-1.38817E-07 0.00000E+00
 -1       307-4.10453E-05-1.92293E-07 0.00000E+00
 -1       308-3.76552E-05-2.46959E-07 0.00000E+00
 -1       309-3.42429E-05-3.01338E-07 0.00000E+00
 -1       310-3.11873E-05-3.54164E-07 0.00000E+00
 -1       318-4.21396E-05 1.42993E-07-8.27181E-25
 -1       319-3.84842E-05 2.73472E-07 1.65436E-24
 -1       320-3.46236E-05 4.03802E-07-6.61744E-24
 -1       321-3.09659E-05 5.35600E-07 1.32349E-23
 -1       322-2.79190E-05 6.69585E-07 0.00000E+00
 -1       364-3.74239E-05 2.77370E-07 0.00000E+00
 -1       365-3.73992E-05-4.68073E-07 0.00000E+00
 -1       366-3.73737E-05-5.08242E-07 0.00000E+00
 -1       367-3.73479E-05-1.48243E-07 0.00000E+00
 -1       368-3.73221E-05 3.07036E-07 0.00000E+00
 -1       369-3.72964E-05 5.52688E-07 0.00000E+00
 -1       370-3.72710E-05 2.83601E-07 0.00000E+00
 -1       371-3.43087E-05 1.93118E-06 0.00000E+00
 -1       372-3.08962E-05 1.82885E-06 0.00000E+00
 -1       373-2.73750E-05 1.72571E-06 1.65436E-24
 -1       374-2.39140E-05 1.62218E-06-8.27181E-25
 -1       375-2.06818E-05 1.51906E-06-4.13590E-25
 -1       376-3.71675E-05-1.86204E-06 0.00000E+00
 -1       377-3.70838E-05-2.02352E-06 0.00000E+00
 -1       378-3.69994E-05-1.57532E-06 0.00000E+00
 -1       379-3.69147E-05-8.11298E-07 0.00000E+00
 -1       380-3.68300E-05-2.50512E-08 4.13590E-25
 -1       381-3.67454E-05 4.89796E-07 0.00000E+00
 -1       382-3.66612E-05 4.39417E-07 0.00000E+00
 -1       383-3.44440E-05-8.33828E-07 0.00000E+00
 -1       384-3.10389E-05-8.69722E-07 1.65436E-24
 -1       385-2.73644E-05-9.06551E-07 6.20385E-25
 -1       386-2.37565E-05-9.43365E-07 0.00000E+00
 -1       387-2.05513E-05-9.79165E-07 0.00000E+00
 -1       388-3.64580E-05-1.42768E-06 0.00000E+00
 -1       389-3.63319E-05-1.57090E-06 0.00000E+00
 -1       390-3.62053E-05-1.16135E-06 0.00000E+00
 -1       391-3.60783E-05-4.68590E-07 0.00000E+00
 -1       392-3.59513E-05 2.38075E-07 1.65436E-24
 -1       393-3.58245E-05 6.89313E-07-1.24077E-24
 -1       394-3.56981E-05 6.15586E-07 0.00000E+00
 -1       395-3.39333E-05-4.81868E-07 0.00000E+00
 -1       396-3.06663E-05-5.01753E-07 0.00000E+00
 -1       397-2.71183E-05-5.22634E-07 0.00000E+00
 -1       398-2.36321E-05-5.43578E-07 0.00000E+00
 -1       399-2.05510E-05-5.63562E-07 0.00000E+00
 -1       400-3.54213E-05-1.15441E-06-6.61744E-24
 -1       401-3.52630E-05-1.29503E-06 0.00000E+00
 -1       402-3.51040E-05-9.19057E-07 0.00000E+00
 -1       403-3.49447E-05-2.78216E-07 1.65436E-24
 -1       404-3.47853E-05 3.75968E-07-3.30872E-24
 -1       405-3.46262E-05 7.91991E-07-9.30578E-25
 -1       406-3.44676E-05 7.18116E-07 0.00000E+00
 -1       407-3.30724E-05-2.53055E-07 0.00000E+00
 -1       408-2.99690E-05-2.61632E-07 0.00000E+00
 -1       409-2.65898E-05-2.71203E-07 0.00000E+00
 -1       410-2.32634E-05-2.80886E-07 0.00000E+00
 -1       411-2.03182E-05-2.89683E-07 0.00000E+00
 -1       412-3.41320E-05-9.39901E-07 0.00000E+00
 -1       413-3.39462E-05-1.06857E-06 0.00000E+00
 -1       414-3.37599E-05-7.13521E-07 6.61744E-24
 -1       415-3.35731E-05-1.11589E-07 0.00000E+00
 -1       416-3.33863E-05 5.00616E-07 6.61744E-24
 -1       417-3.31998E-05 8.86483E-07-2.06795E-24
 -1       418-3.30138E-05 8.09199E-07 4.13590E-25
 -1       419-3.19560E-05-8.86588E-08 0.00000E+00
 -1       420-2.90205E-05-8.81836E-08 0.00000E+00
 -1       421-2.58136E-05-8.86924E-08-8.27181E-25
 -1       422-2.26462E-05-8.93626E-08 1.65436E-24
 -1       423-1.98288E-05-8.92307E-08 0.00000E+00
 -1       424-3.26186E-05-7.80665E-07-1.32349E-23
 -1       425-3.23999E-05-9.30085E-07 0.00000E+00
 -1       426-3.21806E-05-6.30043E-07-6.61744E-24
 -1       427-3.19608E-05-1.00472E-07-3.30872E-24
 -1       428-3.17410E-05 4.38931E-07-3.30872E-24
 -1       429-3.15215E-05 7.68449E-07-3.30872E-24
 -1       430-3.13026E-05 6.68171E-07-5.79026E-24
 -1       431-3.06215E-05 5.12869E-08 0.00000E+00
 -1       432-2.78716E-05 6.23255E-08 0.00000E+00
 -1       433-2.48614E-05 7.23902E-08 0.00000E+00
 -1       434-2.18734E-05 8.21871E-08 0.00000E+00
 -1       435-1.91899E-05 9.26255E-08 6.61744E-24
 -1       436-3.08164E-05-8.60612E-07 0.00000E+00
 -1       437-3.05371E-05-1.02091E-06 0.00000E+00
 -1       438-3.02569E-05-7.62910E-07-1.32349E-23
 -1       439-2.99762E-05-2.92469E-07 0.00000E+00
 -1       440-2.96954E-05 1.84763E-07-6.61744E-24
 -1       441-2.94152E-05 4.63155E-07 1.65436E-24
 -1       442-2.91356E-05 3.36852E-07 1.65436E-24
 -1       443-2.90805E-05-7.29131E-08 1.65436E-24
 -1       444-2.66083E-05-7.31754E-08 0.00000E+00
 -1       445-2.38967E-05-7.44799E-08 0.00000E+00
 -1       446-2.11734E-05-7.63217E-08 0.00000E+00
 -1       447-1.86660E-05-7.78291E-08 0.00000E+00
 -1       448-2.85009E-05-1.13368E-06 0.00000E+00
 -1       449-2.81283E-05-1.23036E-06-6.61744E-24
 -1       450-2.77545E-05-8.78923E-07 0.00000E+00
 -1       451-2.73797E-05-2.73522E-07-6.61744E-24
 -1       452-2.70048E-05 3.91925E-07 1.32349E-23
 -1       453-2.66301E-05 9.23527E-07-3.30872E-24
 -1       454-2.62557E-05 1.12723E-06 0.00000E+00
 -1       455-2.70151E-05-4.33532E-07 0.00000E+00
 -1       456-2.48258E-05-4.78466E-07 0.00000E+00
 -1       457-2.24922E-05-5.24502E-07 2.06795E-25
 -1       458-2.02136E-05-5.71241E-07 0.00000E+00
 -1       459-1.81893E-05-6.17760E-07 0.00000E+00
 -1       460-2.54265E-05 8.40400E-07 1.32349E-23
 -1       461-2.49582E-05 1.88685E-06 0.00000E+00
 -1       462-2.44897E-05 3.69992E-06 0.00000E+00
 -1       463-2.40213E-05 6.02509E-06 6.61744E-24
 -1       464-2.35534E-05 8.60848E-06 0.00000E+00
 -1       465-2.30864E-05 1.11963E-05-6.61744E-24
 -1       466-2.26200E-05 1.35347E-05 0.00000E+00
 -1       467-2.44767E-05 9.23968E-07 0.00000E+00
 -1       468-2.27264E-05 1.02884E-06 0.00000E+00
 -1       469-2.08594E-05 1.13264E-06-3.30872E-24
 -1       470-1.91016E-05 1.23534E-06 0.00000E+00
 -1       471-1.76792E-05 1.33772E-06 0.00000E+00
 -1       472-2.18936E-05 1.69590E-05 0.00000E+00
 -1       473-2.16234E-05 1.89213E-05-6.61744E-24
 -1       474-2.13536E-05 2.11254E-05-6.61744E-24
 -1       475-2.10839E-05 2.34358E-05 0.00000E+00
 -1       476-2.08145E-05 2.57173E-05 0.00000E+00
 -1       477-2.05454E-05 2.78346E-05 0.00000E+00
 -1       478-2.02766E-05 2.96522E-05 3.30872E-24
 -1       479-2.23062E-05 1.53620E-05 0.00000E+00
 -1       480-2.15606E-05 1.53405E-05 0.00000E+00
 -1       481-2.03008E-05 1.53176E-05 0.00000E+00
 -1       482-1.89059E-05 1.52934E-05 0.00000E+00
 -1       483-1.77552E-05 1.52688E-05 0.00000E+00
 -1       484-1.98893E-05 3.22575E-05 0.00000E+00
 -1       485-1.97639E-05 3.37152E-05 0.00000E+00
 -1       486-1.96387E-05 3.53167E-05-3.30872E-24
 -1       487-1.95135E-05 3.69676E-05-1.65436E-24
 -1       488-1.93884E-05 3.85738E-05 0.00000E+00
 -1       489-1.92636E-05 4.00410E-05 0.00000E+00
 -1       490-1.91389E-05 4.12749E-05 0.00000E+00
 -1       491-2.02198E-05 3.09808E-05 0.00000E+00
 -1       492-1.98014E-05 3.09176E-05 1.65436E-24
 -1       493-1.90329E-05 3.08536E-05 0.00000E+00
 -1       494-1.81916E-05 3.07888E-05-6.72084E-25
 -1       495-1.75545E-05 3.07240E-05 0.00000E+00
 -1       496-1.89811E-05 4.28939E-05 0.00000E+00
 -1       497-1.89442E-05 4.36899E-05 8.27181E-25
 -1       498-1.89073E-05 4.45251E-05 0.00000E+00
 -1       499-1.88704E-05 4.53534E-05-2.06795E-25
 -1       500-1.88336E-05 4.61287E-05 5.68687E-25
 -1       501-1.87969E-05 4.68051E-05-2.06795E-25
 -1       502-1.87604E-05 4.73364E-05 0.00000E+00
 -1       503-1.91560E-05 4.21262E-05 0.00000E+00
 -1       504-1.89119E-05 4.20655E-05-1.65436E-24
 -1       505-1.84535E-05 4.20045E-05-1.65436E-24
 -1       506-1.79503E-05 4.19432E-05-2.06795E-25
 -1       507-1.75720E-05 4.18819E-05 0.00000E+00
 -1       508-1.87051E-05 4.76171E-05 0.00000E+00
 -1       509-1.85185E-05 4.75547E-05-2.48154E-24
 -1       510-1.82362E-05 4.74921E-05-1.65436E-24
 -1       511-1.79291E-05 4.74294E-05 8.27181E-25
 -1       512-1.76679E-05 4.73667E-05 0.00000E+00
 -1       513-1.78801E-05-1.27227E-07 0.00000E+00
 -1       514-1.79100E-05-8.09653E-07 0.00000E+00
 -1       515-1.79389E-05-8.82188E-07 0.00000E+00
 -1       516-1.79673E-05-5.99754E-07-2.06795E-25
 -1       517-1.79955E-05-2.17115E-07 0.00000E+00
 -1       518-1.80237E-05 1.09317E-08 0.00000E+00
 -1       519-1.80520E-05-1.70567E-07 0.00000E+00
 -1       520-1.49560E-05 1.18602E-06 1.32349E-23
 -1       521-1.17377E-05 9.50217E-07 0.00000E+00
 -1       522-8.41055E-06 7.13465E-07 6.61744E-24
 -1       523-5.19727E-06 4.76129E-07-3.30872E-24
 -1       524-2.32052E-06 2.39113E-07-6.61744E-24
 -1       525-1.80984E-05-1.85158E-06 0.00000E+00
 -1       526-1.81151E-05-1.96376E-06 0.00000E+00
 -1       527-1.81317E-05-1.58325E-06 0.00000E+00
 -1       528-1.81481E-05-9.47112E-07 2.06795E-25
 -1       529-1.81646E-05-2.92248E-07 0.00000E+00
 -1       530-1.81810E-05 1.44420E-07 0.00000E+00
 -1       531-1.81974E-05 1.25836E-07 0.00000E+00
 -1       532-1.57647E-05-1.03783E-06 0.00000E+00
 -1       533-1.29541E-05-1.06349E-06 0.00000E+00
 -1       534-9.95963E-06-1.08984E-06 8.27181E-25
 -1       535-7.09494E-06-1.11676E-06-8.27181E-25
 -1       536-4.67373E-06-1.14369E-06 0.00000E+00
 -1       537-1.81985E-05-1.33295E-06 6.61744E-24
 -1       538-1.81816E-05-1.42484E-06 0.00000E+00
 -1       539-1.81645E-05-1.07271E-06 0.00000E+00
 -1       540-1.81473E-05-4.95138E-07 0.00000E+00
 -1       541-1.81301E-05 8.94633E-08 0.00000E+00
 -1       542-1.81128E-05 4.62664E-07 0.00000E+00
 -1       543-1.80957E-05 4.05894E-07 0.00000E+00
 -1       544-1.61306E-05-5.89874E-07 0.00000E+00
 -1       545-1.36097E-05-5.98977E-07 0.00000E+00
 -1       546-1.09274E-05-6.08548E-07-4.13590E-25
 -1       547-8.36272E-06-6.18314E-07 0.00000E+00
 -1       548-6.19457E-06-6.27813E-07 0.00000E+00
 -1       549-1.80296E-05-1.01705E-06 0.00000E+00
 -1       550-1.79782E-05-1.10528E-06 0.00000E+00
 -1       551-1.79264E-05-7.68748E-07 0.00000E+00
 -1       552-1.78746E-05-2.18231E-07-8.27181E-25
 -1       553-1.78227E-05 3.35629E-07-4.13590E-25
 -1       554-1.77708E-05 6.82208E-07 8.27181E-25
 -1       555-1.77192E-05 6.10710E-07 0.00000E+00
 -1       556-1.60913E-05-2.98313E-07 0.00000E+00
 -1       557-1.36933E-05-3.01783E-07 0.00000E+00
 -1       558-1.11453E-05-3.05613E-07 0.00000E+00
 -1       559-8.70963E-06-3.09293E-07 0.00000E+00
 -1       560-6.64894E-06-3.12369E-07 0.00000E+00
 -1       561-1.75983E-05-7.85932E-07-6.61744E-24
 -1       562-1.75256E-05-8.60959E-07 0.00000E+00
 -1       563-1.74527E-05-5.18773E-07 0.00000E+00
 -1       564-1.73796E-05 3.06124E-08 8.27181E-25
 -1       565-1.73065E-05 5.77333E-07 8.27181E-25
 -1       566-1.72335E-05 9.11525E-07-8.27181E-25
 -1       567-1.71608E-05 8.23173E-07 0.00000E+00
 -1       568-1.56842E-05-8.31440E-08 0.00000E+00
 -1       569-1.32668E-05-8.15887E-08 0.00000E+00
 -1       570-1.06844E-05-8.03344E-08 1.65436E-24
 -1       571-8.20732E-06-7.85646E-08-1.65436E-24
 -1       572-6.10598E-06-7.57758E-08 0.00000E+00
 -1       573-1.70295E-05-6.09677E-07 0.00000E+00
 -1       574-1.69678E-05-7.01406E-07 0.00000E+00
 -1       575-1.69058E-05-3.80899E-07 0.00000E+00
 -1       576-1.68438E-05 1.37879E-07 8.27181E-25
 -1       577-1.67819E-05 6.41132E-07 8.27181E-25
 -1       578-1.67201E-05 9.15053E-07 0.00000E+00
 -1       579-1.66586E-05 7.45682E-07 0.00000E+00
 -1       580-1.49945E-05 1.16034E-07 0.00000E+00
 -1       581-1.23916E-05 1.24839E-07-4.13590E-25
 -1       582-9.58169E-06 1.33393E-07 0.00000E+00
 -1       583-6.86821E-06 1.42925E-07 0.00000E+00
 -1       584-4.55464E-06 1.54024E-07 0.00000E+00
 -1       585-1.66010E-05-9.81592E-07 0.00000E+00
 -1       586-1.66028E-05-1.28794E-06 0.00000E+00
 -1       587-1.66046E-05-1.17524E-06 0.00000E+00
 -1       588-1.66064E-05-8.24666E-07 0.00000E+00
 -1       589-1.66084E-05-4.17275E-07 0.00000E+00
 -1       590-1.66104E-05-1.34139E-07 0.00000E+00
 -1       591-1.66127E-05-1.56450E-07 0.00000E+00
 -1       592-1.42475E-05-6.23576E-08 0.00000E+00
 -1       593-1.12667E-05-4.82978E-08 0.00000E+00
 -1       594-8.00273E-06-3.50989E-08 0.00000E+00
 -1       595-4.80484E-06-2.23210E-08 0.00000E+00
 -1       596-2.02218E-06-9.19287E-09 0.00000E+00
 -1       597-1.66418E-05-1.22885E-06 0.00000E+00
 -1       598-1.66671E-05-1.28737E-06 0.00000E+00
 -1       599-1.66924E-05-9.72443E-07 0.00000E+00
 -1       600-1.67177E-05-4.20361E-07-2.06795E-25
 -1       601-1.67429E-05 2.32681E-07 0.00000E+00
 -1       602-1.67680E-05 8.50432E-07 0.00000E+00
 -1       603-1.67927E-05 1.29659E-06 0.00000E+00
 -1       604-1.49914E-05-6.86129E-07 0.00000E+00
 -1       605-1.29517E-05-7.10192E-07 0.00000E+00
 -1       606-1.07385E-05-7.35179E-07 0.00000E+00
 -1       607-8.59540E-06-7.62011E-07-1.24077E-24
 -1       608-6.76588E-06-7.90294E-07-3.30872E-24
 -1       609-1.68630E-05 2.01850E-06 0.00000E+00
 -1       610-1.69137E-05 3.42821E-06 0.00000E+00
 -1       611-1.69653E-05 5.41759E-06 1.65436E-24
 -1       612-1.70179E-05 7.73458E-06-8.27181E-25
 -1       613-1.70706E-05 1.01274E-05 0.00000E+00
 -1       614-1.71229E-05 1.23440E-05 0.00000E+00
 -1       615-1.71746E-05 1.41324E-05-6.61744E-24
 -1       616-1.59245E-05 1.47770E-06 0.00000E+00
 -1       617-1.45714E-05 1.51938E-06 0.00000E+00
 -1       618-1.30278E-05 1.56043E-06 0.00000E+00
 -1       619-1.15680E-05 1.59995E-06-8.27181E-25
 -1       620-1.04661E-05 1.63807E-06 2.48154E-24
 -1       621-1.72451E-05 1.63217E-05 0.00000E+00
 -1       622-1.72661E-05 1.80911E-05 0.00000E+00
 -1       623-1.72879E-05 2.03295E-05 0.00000E+00
 -1       624-1.73100E-05 2.28113E-05-4.13590E-25
 -1       625-1.73322E-05 2.53107E-05 3.30872E-24
 -1       626-1.73540E-05 2.76020E-05 0.00000E+00
 -1       627-1.73752E-05 2.94595E-05 0.00000E+00
 -1       628-1.68335E-05 1.52321E-05 0.00000E+00
 -1       629-1.59162E-05 1.52206E-05 1.65436E-24
 -1       630-1.47899E-05 1.52087E-05-2.06795E-25
 -1       631-1.37750E-05 1.51959E-05 8.27181E-25
 -1       632-1.31915E-05 1.51822E-05-1.65436E-24
 -1       633-1.74078E-05 3.16211E-05 0.00000E+00
 -1       634-1.74189E-05 3.30008E-05 0.00000E+00
 -1       635-1.74303E-05 3.46535E-05 0.00000E+00
 -1       636-1.74418E-05 3.64308E-05 0.00000E+00
 -1       637-1.74532E-05 3.81843E-05 0.00000E+00
 -1       638-1.74644E-05 3.97659E-05 0.00000E+00
 -1       639-1.74754E-05 4.10272E-05 0.00000E+00
 -1       640-1.72880E-05 3.06354E-05 0.00000E+00
 -1       641-1.67452E-05 3.06104E-05 0.00000E+00
 -1       642-1.60245E-05 3.05853E-05 8.27181E-25
 -1       643-1.53851E-05 3.05597E-05 0.00000E+00
 -1       644-1.50861E-05 3.05336E-05 0.00000E+00
 -1       645-1.74918E-05 4.23697E-05 0.00000E+00
 -1       646-1.74961E-05 4.31112E-05 0.00000E+00
 -1       647-1.75004E-05 4.39699E-05-1.03398E-25
 -1       648-1.75047E-05 4.48681E-05 0.00000E+00
 -1       649-1.75089E-05 4.57283E-05 0.00000E+00
 -1       650-1.75132E-05 4.64729E-05 0.00000E+00
 -1       651-1.75175E-05 4.70241E-05-3.30872E-24
 -1       652-1.74335E-05 4.17974E-05 0.00000E+00
 -1       653-1.71145E-05 4.17726E-05 0.00000E+00
 -1       654-1.66861E-05 4.17478E-05 4.13590E-25
 -1       655-1.63061E-05 4.17229E-05-4.13590E-25
 -1       656-1.61324E-05 4.16977E-05 0.00000E+00
 -1       657-1.73987E-05 4.72829E-05 1.65436E-24
 -1       658-1.71779E-05 4.72606E-05 4.13590E-25
 -1       659-1.69233E-05 4.72383E-05-8.27181E-25
 -1       660-1.66986E-05 4.72160E-05-2.58494E-26
 -1       661-1.65674E-05 4.71937E-05 0.00000E+00
 -1       662-3.74891E-07-1.12476E-06-6.61744E-24
 -1       663-7.52353E-07-1.63741E-06-3.30872E-24
 -1       664-1.12983E-06-1.70232E-06-6.61744E-24
 -1       665-1.50744E-06-1.48712E-06 0.00000E+00
 -1       666-1.88488E-06-1.15947E-06 0.00000E+00
 -1       667-2.26156E-06-8.87129E-07 0.00000E+00
 -1       668-2.63748E-06-8.37958E-07 1.32349E-23
 -1       669-3.21844E-06-1.58397E-06 3.30872E-24
 -1       670-3.43116E-06-1.60434E-06 0.00000E+00
 -1       671-3.64384E-06-1.36283E-06 6.61744E-24
 -1       672-3.85647E-06-9.85607E-07 0.00000E+00
 -1       673-4.06893E-06-5.98794E-07-6.61744E-24
 -1       674-4.28081E-06-3.28521E-07 0.00000E+00
 -1       675-4.49217E-06-3.00960E-07 6.61744E-24
 -1       676-4.76613E-06-1.00944E-06 1.79653E-24
 -1       677-4.83238E-06-1.03415E-06 5.16988E-25
 -1       678-4.89844E-06-8.27108E-07 0.00000E+00
 -1       679-4.96430E-06-5.02657E-07-8.27181E-25
 -1       680-5.03001E-06-1.75052E-07 0.00000E+00
 -1       681-5.09535E-06 4.14371E-08 3.30872E-24
 -1       682-5.16040E-06 3.24792E-08 3.30872E-24
 -1       683-5.15429E-06-6.67778E-07 3.30872E-24
 -1       684-5.08279E-06-6.88482E-07 0.00000E+00
 -1       685-5.01092E-06-4.87135E-07 3.30872E-24
 -1       686-4.93870E-06-1.75779E-07 0.00000E+00
 -1       687-4.86633E-06 1.33627E-07-1.65436E-24
 -1       688-4.79377E-06 3.29132E-07 2.06795E-25
 -1       689-4.72109E-06 2.98692E-07 3.30872E-24
 -1       690-4.43948E-06-4.19598E-07 6.61744E-24
 -1       691-4.22625E-06-4.25720E-07-3.30872E-24
 -1       692-4.01244E-06-2.03708E-07-6.61744E-24
 -1       693-3.79809E-06 1.27658E-07-3.30872E-24
 -1       694-3.58357E-06 4.49702E-07 6.61744E-24
 -1       695-3.36901E-06 6.43745E-07 1.65436E-24
 -1       696-3.15452E-06 5.90997E-07 3.30872E-24
 -1       697-2.57646E-06-2.01331E-07 0.00000E+00
 -1       698-2.20440E-06-1.97717E-07-6.61744E-24
 -1       699-1.83169E-06 4.70534E-08 1.32349E-23
 -1       700-1.45859E-06 3.93208E-07-6.61744E-24
 -1       701-1.08594E-06 7.01122E-07 1.32349E-23
 -1       702-7.15432E-07 8.31140E-07 3.30872E-24
 -1       703-3.47171E-07 6.43428E-07 2.48154E-24
 -1       704-6.61924E-07-7.12945E-07 0.00000E+00
 -1       705-1.34967E-06-1.02507E-06 6.61744E-24
 -1       706-2.03998E-06-1.04834E-06 1.32349E-23
 -1       707-2.73289E-06-8.97128E-07 0.00000E+00
 -1       708-3.42629E-06-6.85876E-07-2.64698E-23
 -1       709-4.11896E-06-5.29140E-07-2.64698E-23
 -1       710-4.81065E-06-5.41498E-07 2.64698E-23
 -1       711-6.04974E-06-1.17040E-06 1.32349E-23
 -1       712-6.61474E-06-1.17427E-06-6.61744E-24
 -1       713-7.18028E-06-9.19200E-07-1.32349E-23
 -1       714-7.74630E-06-4.78803E-07-6.61744E-24
 -1       715-8.31218E-06 7.32195E-08 0.00000E+00
 -1       716-8.87699E-06 6.62974E-07 0.00000E+00
 -1       717-9.44067E-06 1.21653E-06 0.00000E+00
 -1       718-1.04098E-05 2.46204E-06-1.32349E-23
 -1       719-1.08314E-05 3.82865E-06-6.61744E-24
 -1       720-1.12539E-05 5.60633E-06 0.00000E+00
 -1       721-1.16772E-05 7.63785E-06-6.61744E-24
 -1       722-1.21005E-05 9.76602E-06 0.00000E+00
 -1       723-1.25229E-05 1.18335E-05 6.61744E-24
 -1       724-1.29440E-05 1.36827E-05 0.00000E+00
 -1       725-1.36091E-05 1.66169E-05 0.00000E+00
 -1       726-1.38636E-05 1.84782E-05 3.30872E-24
 -1       727-1.41186E-05 2.06079E-05 0.00000E+00
 -1       728-1.43739E-05 2.28693E-05 3.30872E-24
 -1       729-1.46290E-05 2.51259E-05 0.00000E+00
 -1       730-1.48833E-05 2.72410E-05 0.00000E+00
 -1       731-1.51366E-05 2.90780E-05 0.00000E+00
 -1       732-1.55022E-05 3.17561E-05 0.00000E+00
 -1       733-1.56200E-05 3.32281E-05 1.65436E-24
 -1       734-1.57379E-05 3.48303E-05 3.30872E-24
 -1       735-1.58557E-05 3.64734E-05 1.65436E-24
 -1       736-1.59734E-05 3.80682E-05 0.00000E+00
 -1       737-1.60906E-05 3.95252E-05-3.30872E-24
 -1       738-1.62072E-05 4.07554E-05 0.00000E+00
 -1       739-1.63561E-05 4.23929E-05 1.65436E-24
 -1       740-1.63903E-05 4.31890E-05 4.13590E-25
 -1       741-1.64243E-05 4.40176E-05 0.00000E+00
 -1       742-1.64582E-05 4.48365E-05 0.00000E+00
 -1       743-1.64920E-05 4.56034E-05 0.00000E+00
 -1       744-1.65257E-05 4.62761E-05 0.00000E+00
 -1       745-1.65592E-05 4.68125E-05 0.00000E+00
 -3
    1PSTEP                         2           1           1          
  100CL  101 1.000000000         641                     0    1           1
 -4  STRESS      6    1
 -5  SXX         1    4    1    1
 -5  SYY         1    4    2    2
 -5  SZZ         1    4    3    3
 -5  SXY         1    4    1    2
 -5  SYZ         1    4    2    3
 -5  SZX         1    4    3    1
 -1         1 1.76430E+06 6.12096E+05-3.65766E+03 6.92733E+05-1.74623E-10 1.96678E-09
 -1         2 2.08919E+06 1.02554E+05-2.27105E+03 3.85557E+05 3.88051E-11 4.84458E-10
 -1         3 1.60224E+06 9.46168E+04-1.62815E+03 2.80143E+05 1.35818E-10-2.89310E-09
 -1         4 1.23674E+06 7.99200E+04-1.22620E+03 2.17154E+05 2.03727E-10-3.96312E-09
 -1         5 9.45301E+05 6.79330E+04-9.85196E+02 1.79205E+05-2.95889E-10-1.28133E-09
 -1         6 6.97716E+05 5.78450E+04-8.18343E+02 1.57492E+05-3.10441E-10-1.60147E-09
 -1         7 4.71235E+05 3.30348E+04-7.42844E+02 1.46553E+05-4.36557E-11-2.09123E-09
 -1         8 2.50550E+05 8.84990E+03-6.96815E+02 1.49708E+05 4.17155E-10 1.59995E-09
 -1         9 1.01962E+05 1.70769E+04-1.05476E+03 1.43806E+05-9.09495E-11 2.26873E-09
 -1        14 2.58195E+05 3.47381E+05-4.91544E+03 8.69761E+05-1.13990E-10-2.71045E-09
 -1        15 3.97870E+05-3.51213E+04-5.75264E+03 8.50586E+05 8.73115E-11 4.18504E-09
 -1        16 4.65030E+05 7.88713E+03-4.00887E+03 6.80418E+05-2.38288E-10-2.64666E-09
 -1        17 4.61089E+05 3.01539E+04-3.05666E+03 5.78188E+05 1.14596E-10 1.20703E-09
 -1        18 4.23202E+05 4.19568E+04-2.42276E+03 5.10641E+05 1.16779E-09-1.29212E-09
 -1        19 3.68407E+05 4.91048E+04-1.97549E+03 4.69972E+05-4.38376E-10 1.24773E-09
 -1        20 2.99357E+05 2.89733E+04-1.76485E+03 4.52648E+05 6.53017E-10-2.25844E-09
 -1        21 2.12605E+05-1.46038E+04-1.96992E+03 4.99434E+05-2.87400E-10-2.37023E-10
 -1        22 1.21891E+05 1.41125E+05-1.78975E+03 5.12524E+05 1.31574E-09-9.27393E-10
 -1        27 2.22254E+04-2.86441E+04-1.71924E+03 4.31785E+05 4.17155E-10 2.06669E-09
 -1        28 6.91281E+04-3.38766E+04-2.35609E+03 6.48977E+05 8.91305E-10-1.14949E-09
 -1        29 1.34875E+05-1.03614E+04-2.28856E+03 6.24091E+05 1.45519E-10-5.22391E-11
 -1        30 1.83600E+05 1.13483E+04-2.04539E+03 5.81944E+05 2.21917E-10-2.77538E-10
 -1        31 2.22523E+05 2.79324E+04-1.81675E+03 5.45596E+05 1.28603E-09 3.21583E-09
 -1        32 2.62048E+05 4.49374E+04-1.53777E+03 5.09120E+05-3.78350E-10 2.55676E-09
 -1        33 3.19440E+05 3.82598E+04-1.24108E+03 4.68254E+05 1.27329E-09-6.11976E-10
 -1        34 4.10123E+05-6.16538E+03-1.23401E+03 4.59174E+05-6.82121E-10 7.20789E-10
 -1        35 5.59769E+05 2.24721E+05-4.91078E+02 5.09624E+05 8.69477E-10-9.77465E-10
 -1        36 6.51927E+05 3.87305E+04-6.38137E+02 4.82609E+05-6.11180E-09 3.29086E-10
 -1        37 3.41545E+05-2.16827E+04-5.64624E+02 3.17679E+05 3.24508E-09 2.55568E-10
 -1        38 1.35083E+05-3.72421E+04-3.13901E+02 1.94070E+05 7.82893E-09-2.51362E-09
 -1        39 3.66074E+04-7.35793E+04-3.08125E+02 1.09617E+05 4.71482E-09-7.08951E-10
 -1        40-4.36638E+04-2.95845E+05-9.09458E+02 4.03157E+05-3.71074E-10 1.82318E-09
 -1        41-2.89266E+04-3.66480E+04-5.83709E+02 5.35489E+05-1.45519E-10 9.20437E-10
 -1        42 1.76719E+03-1.34059E+04-9.65508E+02 5.05515E+05-5.22050E-10 1.83374E-09
 -1        43 4.58678E+04 1.91677E+03-1.21462E+03 4.78795E+05-1.61890E-10 2.22457E-10
 -1        44 8.20627E+04 1.46632E+04-1.51449E+03 4.70170E+05 8.13088E-10-4.09273E-12
 -1        45 8.97552E+04 2.62945E+04-1.88563E+03 4.73933E+05-1.10595E-09 1.06220E-09
 -1        46 4.23300E+04 1.72536E+04-8.80098E+02 4.56072E+05 7.53062E-10-1.00461E-09
 -1        47-2.07475E+04-4.38307E+04 1.93068E+02 3.56572E+05-8.44011E-10-6.79549E-10
 -1        48-3.36287E+04 8.82549E+04-1.37566E+02 4.16984E+05-2.92857E-10 1.49043E-10
 -1        49-4.57429E+04-2.61933E+04-1.36552E+03 5.52374E+05-3.17232E-09-1.04734E-10
 -1        50-2.53994E+04-5.81509E+04-9.51434E+02 4.27149E+05 3.02862E-09-2.72919E-09
 -1        51-1.56562E+04-5.54452E+04-4.65197E+02 2.59682E+05 1.24328E-09-3.19815E-10
 -1        52-9.31233E+03-7.56222E+04-2.70005E+02 1.32665E+05 5.48001E-09 8.59103E-10
 -1        53-5.14675E+05-3.57087E+05-1.91251E+03 3.64367E+05-3.31056E-10 1.09503E-09
 -1        54-5.21733E+05-6.03998E+04-9.87044E+02 3.79570E+05-2.61934E-10 7.03343E-10
 -1        55-2.45104E+05-2.48149E+04-6.91970E+02 3.24602E+05-9.09040E-10 8.97368E-11
 -1        56 6.43829E+03 2.05966E+02-5.99622E+02 3.05724E+05 3.67815E-10 1.23206E-09
 -1        57 2.54163E+05 2.48102E+04-5.81456E+02 3.13580E+05-4.51337E-10 2.49808E-10
 -1        58 5.21717E+05 5.37427E+04-8.17658E+01 3.51890E+05-8.20213E-10-1.69772E-10
 -1        59-2.77242E+05-8.33976E+03-1.07940E+03 3.77300E+05 8.17370E-10-1.94753E-09
 -1        60-1.11203E+06-1.10768E+05-1.51875E+03 2.69269E+05-8.85431E-10-1.64922E-10
 -1        61-8.62369E+05-3.71484E+04-9.36292E+02 3.14912E+05 4.57968E-11-1.04046E-09
 -1        62-5.95418E+05-5.64185E+04-9.86113E+02 3.82792E+05-5.11341E-09 3.26448E-09
 -1        63-3.28998E+05-4.57349E+04-5.80068E+02 3.02665E+05 6.25077E-09-7.51849E-10
 -1        64-1.35676E+05-3.04102E+04-1.82291E+02 1.80733E+05 3.44198E-09 6.42710E-11
 -1        65-4.59259E+04-3.34673E+04 3.86216E+01 9.91668E+04 2.87793E-09-5.02951E-10
 -1        66 3.86985E+06 2.51526E+04 1.51948E+05 3.87081E-09-6.99722E-10-4.66389E-09
 -1        67 3.90722E+06 1.98669E+04 8.68776E+04-7.06859E-09 3.29281E-10-1.16943E-08
 -1        68 3.88648E+06 1.47512E+02 4.65782E+04 3.24756E-08 4.49972E-10 2.64026E-09
 -1        69 3.89089E+06 1.39549E+03 3.97123E+04 1.40728E-08 4.27334E-10 6.34708E-09
 -1        70 3.88635E+06 2.04615E+02 4.96756E+04 9.16503E-09-6.32027E-10 4.99313E-09
 -1        71 3.90935E+06 2.20965E+04 9.55808E+04 8.05812E-10-9.33948E-10-6.17001E-09
 -1        72 3.86782E+06 2.79844E+04 1.68578E+05 9.89894E-09 1.06757E-09 2.83762E-10
 -1        73-2.83407E+04 8.65654E+05-1.53358E+05 9.78150E+05 1.45519E-10 1.51340E-09
 -1        74-8.80658E+03 8.16951E+05-7.92576E+04 1.38921E+06 3.63798E-10-7.27596E-11
 -1        75 9.96020E+03 8.30255E+05-3.07694E+04 9.75541E+05 3.16504E-10-9.02219E-10
 -1        76 2.01990E+04 8.23915E+05-4.90609E+03 1.39023E+06-1.52795E-10 2.42628E-09
 -1        77 1.36372E+04 8.27219E+05 1.45374E+04 9.76990E+05 6.91216E-11 1.24055E-09
 -1        78 2.94840E+06 1.26274E+04 7.69161E+04-4.28372E-09 6.30715E-10-6.29370E-10
 -1        79 2.96718E+06 1.00018E+04 4.48780E+04-1.44937E-08 1.50448E-09-6.12545E-10
 -1        80 2.95672E+06 2.84104E+01 2.58110E+04 8.43934E-09-6.68340E-10 2.22826E-10
 -1        81 2.95930E+06 8.79278E+02 2.49681E+04-1.83921E-08 2.56104E-10-5.66888E-09
 -1        82 2.95634E+06 1.92195E+02 3.47106E+04 1.97298E-08 4.08468E-10 5.55974E-09
 -1        83 2.97332E+06 1.64156E+04 6.98931E+04 1.09167E-08 1.23943E-09 2.37651E-09
 -1        84 2.94258E+06 2.07465E+04 1.24694E+05-6.66478E-09-2.23383E-10 1.85537E-09
 -1        85-4.17195E+04-2.47951E+05-2.48331E+05 8.15297E+05-1.01863E-09-1.65892E-09
 -1        86-2.50533E+04-3.16666E+05-1.40092E+05 1.16028E+06 2.52840E-10 3.20142E-09
 -1        87 5.93811E+03-2.85358E+05-7.38486E+04 8.13151E+05-1.52431E-09 2.67028E-09
 -1        88 1.01962E+03-3.01561E+05-6.34925E+04 1.16098E+06 8.00355E-10-9.66793E-10
 -1        89-5.91254E+03-2.77373E+05-7.65944E+04 8.14643E+05-1.40062E-09 5.87170E-09
 -1        90 2.27467E+06 9.59563E+03 5.85112E+04 6.28643E-09 6.28852E-10-7.37782E-09
 -1        91 2.28895E+06 7.61166E+03 3.41492E+04-9.44965E-10 4.31122E-10-1.24437E-08
 -1        92 2.28099E+06 2.08106E+01 1.96570E+04 5.02482E-09 1.64813E-09-5.58430E-10
 -1        93 2.28295E+06 6.71918E+02 1.90500E+04 9.94808E-09-6.97085E-10 1.50578E-09
 -1        94 2.28070E+06 1.46962E+02 2.65217E+04 1.48712E-08 1.12630E-09 4.30919E-09
 -1        95 2.29369E+06 1.25626E+04 5.34492E+04-1.61062E-08 1.89910E-10-5.18139E-09
 -1        96 2.27018E+06 1.58515E+04 9.53680E+04-6.24277E-09-2.25510E-09-1.06957E-09
 -1        97-3.11318E+04-1.28952E+05-1.86200E+05 5.92495E+05-5.67525E-10 8.44011E-10
 -1        98-2.04763E+04-1.79023E+05-1.06635E+05 8.42882E+05-1.00408E-09 1.93904E-09
 -1        99 3.03440E+03-1.54800E+05-5.87324E+04 5.90877E+05-5.96629E-10 3.52884E-10
 -1       100-3.18984E+03-1.68544E+05-5.53252E+04 8.43512E+05-1.68802E-09 5.82077E-11
 -1       101-7.47197E+03-1.48189E+05-7.11897E+04 5.91910E+05-4.31100E-10-3.49974E-09
 -1       102 1.75255E+06 7.21685E+03 4.40644E+04 1.99088E-09 2.02310E-10 1.69530E-09
 -1       103 1.76329E+06 5.73202E+03 2.57558E+04-2.27101E-08 1.39251E-09-5.09317E-10
 -1       104 1.75730E+06 1.35742E+01 1.48971E+04 3.18312E-08-7.40920E-10-3.96790E-09
 -1       105 1.75879E+06 5.13972E+02 1.45544E+04 9.16442E-09 3.16162E-10-7.96052E-09
 -1       106 1.75707E+06 1.14320E+02 2.03854E+04 2.22085E-08-2.58995E-10-1.93631E-09
 -1       107 1.76708E+06 9.69234E+03 4.11885E+04 5.86169E-09 2.17728E-10-3.91083E-09
 -1       108 1.74896E+06 1.22155E+04 7.35347E+04 1.33950E-08 9.17805E-10-4.28554E-09
 -1       109-2.36578E+04-7.33227E+04-1.42137E+05 4.59322E+05-9.53150E-10 2.21917E-09
 -1       110-1.62815E+04-1.10968E+05-8.24713E+04 6.53267E+05-4.15093E-09-2.85036E-09
 -1       111 1.74688E+03-9.21100E+04-4.72555E+04 4.58026E+05-2.77760E-09 6.20275E-10
 -1       112-4.64047E+03-1.03862E+05-4.78612E+04 6.53825E+05-4.80213E-09 8.23979E-09
 -1       113-7.72838E+03-8.62450E+04-6.45517E+04 4.58799E+05-2.67391E-09-2.60115E-09
 -1       114 1.32185E+06 5.09554E+03 3.11875E+04 1.68588E-08-1.52203E-09 1.20235E-09
 -1       115 1.32944E+06 4.05154E+03 1.83242E+04-2.11344E-09-2.14132E-10 9.01309E-10
 -1       116 1.32520E+06 4.66020E+00 1.07805E+04 1.28223E-08 4.41854E-10 3.49564E-09
 -1       117 1.32630E+06 3.82440E+02 1.08191E+04 1.48322E-08-3.70948E-10 1.07866E-09
 -1       118 1.32501E+06 9.02757E+01 1.54479E+04 6.41850E-09 6.25675E-10-1.17325E-10
 -1       119 1.33267E+06 7.42113E+03 3.14504E+04 1.41290E-08 1.23233E-09-8.30369E-10
 -1       120 1.31881E+06 9.34330E+03 5.62508E+04 1.86164E-08-2.32926E-10-2.77214E-09
 -1       121-1.77864E+04-3.10505E+04-1.07147E+05 3.79084E+05 3.27418E-09-4.85306E-09
 -1       122-1.24389E+04-5.92739E+04-6.28407E+04 5.39039E+05 4.77849E-09-2.10457E-09
 -1       123 1.16068E+03-4.49316E+04-3.72316E+04 3.77985E+05 7.50151E-09-3.80169E-10
 -1       124-4.62151E+03-5.47274E+04-3.98484E+04 5.39544E+05 5.44605E-09 8.86496E-09
 -1       125-7.03955E+03-3.98551E+04-5.55730E+04 3.78604E+05 7.51243E-09 1.53159E-09
 -1       126 9.43497E+05 3.09094E+03 1.90491E+04 2.16373E-08-5.76235E-10 5.50244E-10
 -1       127 9.48110E+05 2.46052E+03 1.13996E+04-6.53267E-09-1.26783E-09-3.20642E-09
 -1       128 9.45520E+05-7.83228E+00 7.10266E+03 2.80626E-09-5.84649E-10-4.12217E-09
 -1       129 9.46281E+05 2.73735E+02 7.73697E+03 1.45058E-08-1.21404E-10-3.78651E-09
 -1       130 9.45331E+05 7.55910E+01 1.16545E+04 7.17051E-09-4.45521E-10-2.72394E-10
 -1       131 9.51258E+05 5.74806E+03 2.42026E+04-9.23001E-09 1.49335E-09-4.58886E-09
 -1       132 9.40528E+05 7.23110E+03 4.34935E+04-4.02997E-09-1.11051E-10 1.03682E-09
 -1       133-1.28485E+04 4.53335E+03-7.74271E+04 3.33172E+05 4.65661E-10 1.56433E-09
 -1       134-8.88812E+03-1.59424E+04-4.58864E+04 4.73673E+05 3.60160E-10 3.44335E-09
 -1       135 9.13503E+02-5.60125E+03-2.81292E+04 3.32184E+05 4.05635E-10 2.66482E-09
 -1       136-3.88344E+03-1.35012E+04-3.16882E+04 4.74148E+05-8.51287E-10-1.98986E-09
 -1       137-5.87047E+03-1.37096E+03-4.55234E+04 3.32716E+05 3.23780E-10-1.51886E-09
 -1       138 5.91336E+05 1.41607E+03 8.89747E+03 9.35802E-09-3.57803E-10-2.00089E-09
 -1       139 5.93462E+05 1.12941E+03 5.60667E+03-8.96301E-09-6.18434E-10-3.44050E-09
 -1       140 5.92251E+05-1.81370E+01 4.02304E+03-3.84635E-09 5.31162E-10 1.30943E-09
 -1       141 5.92732E+05 1.82356E+02 5.15002E+03 5.61087E-09 4.58480E-10 2.20729E-09
 -1       142 5.92067E+05 6.31726E+01 8.46282E+03 2.40993E-08-4.86534E-10-3.36286E-09
 -1       143 5.96534E+05 4.33714E+03 1.80958E+04 1.27379E-08-8.27261E-10 2.48838E-09
 -1       144 5.88442E+05 5.45269E+03 3.27420E+04-7.98354E-09-1.19502E-10 2.94312E-09
 -1       145-9.04292E+03-1.89191E+04-5.43905E+04 3.10032E+05 1.31695E-09-2.99042E-09
 -1       146-6.00970E+03-3.34984E+04-3.27138E+04 4.40738E+05 1.05501E-09 1.74805E-09
 -1       147 8.32401E+02-2.63387E+04-2.10448E+04 3.09088E+05 2.63753E-09 2.47383E-09
 -1       148-3.11335E+03-3.28151E+04-2.53084E+04 4.41212E+05 2.85218E-09 2.23038E-09
 -1       149-4.85530E+03-2.27529E+04-3.76653E+04 3.09572E+05 2.56841E-09-5.10772E-09
 -1       150 2.31823E+05-4.80106E+02-2.73543E+03-6.19104E-09 4.43988E-11 4.10887E-09
 -1       151 2.31109E+05-3.81226E+02-1.25034E+03-1.10301E-08 1.44351E-09 7.41898E-09
 -1       152 2.31493E+05-1.86809E+01-5.25023E+01 1.32511E-09-9.48799E-10 2.40999E-09
 -1       153 2.31541E+05 3.52397E+01 9.94399E+02-1.69567E-08 3.09932E-10-1.03228E-09
 -1       154 2.31390E+05 2.73676E+01 2.46344E+03 2.11947E-08-9.12785E-11 1.68961E-09
 -1       155 2.32850E+05 1.43728E+03 5.82784E+03 1.10608E-08-4.91803E-11-8.96080E-10
 -1       156 2.30184E+05 1.80588E+03 1.07770E+04 8.91646E-09-2.85955E-10-1.38016E-09
 -1       157-5.35580E+03-4.22579E+04-3.18478E+04 3.16648E+05 2.37560E-09 2.78305E-09
 -1       158-2.97860E+03-5.12564E+04-1.94038E+04 4.50167E+05 1.65892E-09 1.03500E-09
 -1       159 9.42405E+02-4.73320E+04-1.31501E+04 3.15684E+05 6.49561E-09 4.97312E-09
 -1       160-1.54305E+03-5.18998E+04-1.68258E+04 4.50632E+05 1.08048E-09 3.07762E-09
 -1       161-3.07973E+03-4.47203E+04-2.59000E+04 3.16190E+05 6.68751E-09-1.31331E-09
 -1       169-2.41838E+03 8.61030E+03-1.29638E+04 2.03382E+05 4.38740E-09-3.52884E-09
 -1       170-1.21270E+03 4.92266E+03-9.29076E+03 2.88509E+05 5.97902E-09 5.30417E-09
 -1       171 3.85766E+02 6.17022E+03-8.93727E+03 2.02515E+05 1.10576E-08 1.09139E-11
 -1       172-2.27556E+03 1.77882E+03-1.52279E+04 2.89301E+05 8.06540E-09 3.28146E-09
 -1       173-3.36854E+03 8.36177E+03-2.60080E+04 2.02601E+05 1.39007E-08-1.44792E-09
 -1       215 7.95086E+05-3.99216E+03 1.51872E+04 5.72591E+05-6.83940E-10-7.34872E-10
 -1       216 7.96813E+05-3.24169E+02 1.02428E+04 8.13469E+05-1.08048E-09-3.77622E-09
 -1       217 7.88490E+05-6.31654E+02 6.37592E+03 5.70670E+05 7.63976E-10-3.01225E-09
 -1       218 7.87323E+05 1.64005E+03 7.49822E+03 8.15388E+05-1.66892E-09 7.63976E-11
 -1       219 7.86457E+05 8.00563E+02 1.09850E+04 5.70686E+05-1.49521E-09-4.96948E-09
 -1       220 7.94376E+05 5.62182E+03 2.26978E+04 8.13845E+05-2.20098E-10-3.87081E-09
 -1       221 7.86833E+05 3.92345E+03 3.94850E+04 5.72243E+05 5.60249E-10-2.37196E-09
 -1       222-4.68015E+03 1.83085E+05-4.16914E+04 2.87169E+05 6.36646E-11-4.98221E-09
 -1       223-1.80602E+03 1.71442E+05-2.09552E+04 4.08926E+05-1.27329E-10-1.71974E-09
 -1       224 2.35111E+03 1.78237E+05-5.84268E+03 2.86709E+05-3.87445E-10 4.11092E-09
 -1       225 5.32905E+03 1.79963E+05 4.90182E+03 4.08442E+05-5.42059E-10-2.17005E-09
 -1       226 4.25656E+03 1.77551E+05 1.58513E+04 2.87610E+05 4.07454E-10-1.48793E-09
 -1       227 1.03737E+06 8.38045E+03 6.51365E+04 4.14454E+05-1.07684E-09 1.12050E-09
 -1       228 1.05224E+06 8.20517E+03 3.73334E+04 5.88873E+05-6.25732E-10 1.81899E-10
 -1       229 1.04087E+06 2.64412E+02 1.92102E+04 4.13140E+05-1.67347E-10-2.94676E-09
 -1       230 1.04191E+06 1.57488E+03 1.52367E+04 5.90131E+05 9.79981E-11 2.18279E-09
 -1       231 1.04070E+06 4.11073E+02 1.73178E+04 4.13145E+05 1.01863E-10 8.73115E-10
 -1       232 1.05017E+06 7.19081E+03 3.19424E+04 5.88943E+05-1.59343E-09-3.76167E-09
 -1       233 1.03789E+06 7.15992E+03 5.49113E+04 4.14367E+05 1.26602E-09-1.52249E-09
 -1       234-5.12664E+03-9.91118E+04-4.85049E+04 5.92160E+05-1.58980E-09 3.10683E-09
 -1       235 8.17810E+02-1.15046E+05-2.71313E+04 8.43084E+05 4.51109E-10-8.94943E-10
 -1       236 4.97212E+03-1.07509E+05-1.45314E+04 5.90794E+05-2.11367E-09 2.91220E-09
 -1       237 4.87965E+03-1.10629E+05-1.28984E+04 8.42990E+05 1.81899E-10-2.88128E-09
 -1       238 4.13712E+01-1.02505E+05-1.67960E+04 5.92242E+05-1.13687E-09-4.48927E-09
 -1       239 1.07446E+06 7.99192E+03 5.86377E+04 3.49369E+05-1.96451E-09-2.40834E-09
 -1       240 1.08806E+06 7.44255E+03 3.36903E+04 4.96414E+05 3.67436E-10-3.27782E-09
 -1       241 1.07831E+06 1.92723E+02 1.76841E+04 3.48266E+05 5.78439E-10 4.91127E-10
 -1       242 1.07946E+06 1.24050E+03 1.45974E+04 4.97471E+05 4.28713E-10-3.89264E-10
 -1       243 1.07816E+06 3.04043E+02 1.74130E+04 3.48272E+05-5.31145E-10-3.00861E-09
 -1       244 1.08739E+06 7.47271E+03 3.28839E+04 4.96470E+05-5.51154E-10-3.36877E-09
 -1       245 1.07419E+06 8.06636E+03 5.71421E+04 3.49302E+05 2.47383E-10-4.03270E-09
 -1       246-7.07485E+03-7.37447E+04-5.68974E+04 5.59380E+05-1.03319E-09-7.27596E-11
 -1       247-1.36492E+03-9.13264E+04-3.23656E+04 7.96308E+05-1.55342E-09 6.66478E-09
 -1       248 4.23225E+03-8.28456E+04-1.80516E+04 5.58069E+05-5.60249E-10 3.73961E-09
 -1       249 3.09067E+03-8.70563E+04-1.73932E+04 7.96277E+05-2.40107E-09 2.38288E-09
 -1       250-1.28928E+03-7.77974E+04-2.34895E+04 5.59398E+05 5.57520E-10-1.09139E-09
 -1       251 1.01059E+06 7.13440E+03 5.08575E+04 3.04057E+05 3.60160E-10-7.53062E-10
 -1       252 1.02247E+06 6.49539E+03 2.92727E+04 4.32071E+05 2.18279E-10-1.29694E-09
 -1       253 1.01422E+06 1.57772E+02 1.55481E+04 3.03112E+05-1.46974E-09 2.90856E-09
 -1       254 1.01533E+06 1.01190E+03 1.31304E+04 4.32984E+05-1.86117E-09-2.40107E-10
 -1       255 1.01411E+06 2.35419E+02 1.60634E+04 3.03114E+05-7.45786E-11-5.27507E-10
 -1       256 1.02254E+06 6.99996E+03 3.06964E+04 4.32097E+05 1.16415E-09-2.53931E-09
 -1       257 1.00999E+06 7.79237E+03 5.36030E+04 3.04028E+05 1.00772E-09-5.57702E-09
 -1       258-7.18178E+03-3.38628E+04-5.46571E+04 5.15289E+05-2.93221E-09-2.96859E-09
 -1       259-2.12297E+03-5.03829E+04-3.14980E+04 7.33422E+05-6.03904E-09-5.29690E-09
 -1       260 3.51846E+03-4.23849E+04-1.82380E+04 5.14061E+05-4.26735E-09 1.55751E-09
 -1       261 1.78888E+03-4.70240E+04-1.87864E+04 7.33450E+05-6.42103E-09-4.80213E-10
 -1       262-2.02252E+03-3.76446E+04-2.62560E+04 5.15251E+05-3.58341E-09-1.84809E-09
 -1       263 8.96369E+05 5.97142E+03 4.23093E+04 2.75302E+05-6.33008E-10-3.35785E-09
 -1       264 9.06245E+05 5.42158E+03 2.44045E+04 3.91221E+05-3.63798E-10 4.34738E-10
 -1       265 8.99431E+05 1.36969E+02 1.30759E+04 2.74446E+05 4.54747E-11-3.07409E-10
 -1       266 9.00392E+05 8.45977E+02 1.12309E+04 3.92054E+05 1.48623E-09 5.37148E-09
 -1       267 8.99345E+05 1.89350E+02 1.39708E+04 2.74446E+05-6.25732E-10-2.24099E-09
 -1       268 9.06714E+05 6.13778E+03 2.69079E+04 3.91240E+05-1.01863E-10-4.11092E-09
 -1       269 8.95645E+05 6.88494E+03 4.71034E+04 2.75282E+05 6.33008E-10-2.85672E-09
 -1       270-6.57170E+03-6.09911E+03-4.92159E+04 4.79564E+05 8.65475E-09 5.63887E-10
 -1       271-2.14910E+03-2.08767E+04-2.88373E+04 6.82504E+05 7.83621E-09-6.19366E-09
 -1       272 3.00211E+03-1.36959E+04-1.75698E+04 4.78412E+05 1.21254E-08-4.91082E-09
 -1       273 7.65844E+02-1.85939E+04-1.96100E+04 6.82561E+05 7.06495E-09-4.19459E-09
 -1       274-2.68215E+03-9.04331E+03-2.85774E+04 4.79501E+05 9.70522E-09-3.38332E-09
 -1       275 7.56614E+05 4.61507E+03 3.32993E+04 2.58878E+05 9.74978E-10-8.91305E-09
 -1       276 7.64326E+05 4.25942E+03 1.93390E+04 3.67905E+05-4.47471E-10-1.90994E-09
 -1       277 7.58891E+05 1.15580E+02 1.05856E+04 2.58068E+05-6.07542E-10 3.31056E-10
 -1       278 7.59689E+05 7.21745E+02 9.47097E+03 3.68697E+05 1.37402E-09-3.83261E-09
 -1       279 7.58811E+05 1.54587E+02 1.22156E+04 2.58069E+05 1.55887E-09 6.31189E-10
 -1       280 7.65415E+05 5.45463E+03 2.39204E+04 3.67914E+05-4.03816E-10 4.06726E-09
 -1       281 7.55516E+05 6.12246E+03 4.20502E+04 2.58871E+05-7.93079E-10-4.49518E-09
 -1       282-5.51605E+03 1.84601E+04-4.19971E+04 4.56260E+05 8.07631E-10 1.97906E-09
 -1       283-1.63437E+03 5.72404E+03-2.52183E+04 6.49292E+05-2.54659E-11 6.76664E-09
 -1       284 2.69245E+03 1.19101E+04-1.65449E+04 4.55161E+05 6.98492E-10 3.80987E-09
 -1       285-3.73353E+01 6.75740E+03-2.04045E+04 6.49360E+05-1.58980E-09-2.93949E-09
 -1       286-3.34064E+03 1.67226E+04-3.12078E+04 4.56189E+05 3.31966E-10-3.98722E-09
 -1       287 5.92583E+05 3.42525E+03 2.59057E+04 2.51546E+05-5.42059E-10 1.07320E-09
 -1       288 5.98498E+05 3.28272E+03 1.52101E+04 3.57498E+05 1.28239E-09 3.03044E-09
 -1       289 5.94110E+05 9.50690E+01 8.58559E+03 2.50755E+05 7.34872E-10 1.34787E-09
 -1       290 5.94754E+05 6.52341E+02 8.11973E+03 3.58278E+05 6.54609E-10-5.63341E-09
 -1       291 5.93994E+05 1.52323E+02 1.09487E+04 2.50754E+05 5.82077E-10-2.71575E-09
 -1       292 6.00074E+05 5.01708E+03 2.18520E+04 3.57500E+05 4.01997E-10 1.45519E-10
 -1       293 5.90989E+05 5.61277E+03 3.85931E+04 2.51551E+05-1.64437E-09-1.73077E-09
 -1       294-4.55390E+03-1.31494E+04-3.65488E+04 4.54366E+05 3.29237E-09-4.27826E-09
 -1       295-9.67946E+02-2.44758E+04-2.29941E+04 6.46655E+05 3.15049E-09-6.00267E-11
 -1       296 2.62429E+03-1.89217E+04-1.70656E+04 4.53278E+05 4.35830E-09-9.30868E-10
 -1       297-1.18090E+03-2.50015E+04-2.40675E+04 6.46708E+05 4.30009E-09-1.79625E-09
 -1       298-4.76499E+03-1.31399E+04-3.89129E+04 4.54313E+05 3.22780E-09-1.92085E-09
 -1       299 3.84748E+05 2.00374E+03 1.77317E+04 3.38379E+05 1.47338E-09 2.95040E-09
 -1       300 3.88294E+05 2.55798E+03 1.02242E+04 4.81187E+05 8.67658E-10 3.10683E-09
 -1       301 3.84911E+05 3.63744E+02 5.12745E+03 3.37413E+05-2.80397E-09-2.38106E-09
 -1       302 3.85215E+05 7.95911E+02 3.83306E+03 4.82141E+05-8.39464E-10-3.28146E-09
 -1       303 3.85472E+05-3.17149E+01 3.88386E+03 3.37417E+05-4.14730E-10 4.16549E-09
 -1       304 3.88988E+05 9.35920E+02 6.86670E+03 4.80963E+05 1.12050E-09 3.75439E-09
 -1       305 3.87007E+05-1.54834E+02 1.11791E+04 3.38595E+05-2.05910E-09-1.82263E-09
 -1       306-4.41511E+03-1.40940E+05-3.72101E+04 4.99821E+05 8.00719E-09-2.21189E-09
 -1       307-4.59439E+02-1.52804E+05-2.48713E+04 7.11514E+05 2.50293E-09-3.59978E-09
 -1       308 2.99872E+03-1.46998E+05-2.11158E+04 4.98618E+05 1.15797E-08-3.66094E-09
 -1       309-2.90137E+03-1.55402E+05-3.33634E+04 7.11570E+05 9.13133E-10-2.94676E-09
 -1       310-7.53271E+03-1.38866E+05-5.61328E+04 4.99770E+05 9.56425E-09-5.81713E-09
 -1       318 4.80602E+03 3.90090E+05 1.04114E+04 5.40576E+05 1.82297E-08-5.71163E-10
 -1       319 7.24120E+03 3.89954E+05 2.57600E+03 7.69368E+05 1.31840E-08 3.95630E-09
 -1       320 3.68037E+03 3.90333E+05-6.03343E+03 5.39571E+05 2.05764E-08-1.22782E-09
 -1       321-3.88491E+02 3.86203E+05-1.91105E+04 7.68973E+05 9.99717E-09 8.29459E-10
 -1       322-5.83922E+03 3.99077E+05-3.83309E+04 5.41000E+05 1.36561E-08-4.00178E-10
 -1       364 7.81060E+04-1.76514E+03 6.81206E+03 4.03528E+05-7.27596E-12 1.32786E-09
 -1       365 7.88213E+04-9.63409E+01 4.28366E+03 5.73280E+05 6.91216E-11 5.43878E-09
 -1       366 7.51404E+04-2.39140E+02 2.07074E+03 4.02117E+05 2.54659E-11 1.47338E-09
 -1       367 7.46063E+04 6.02211E+02 1.60387E+03 5.74706E+05-7.51697E-10-3.86717E-09
 -1       368 7.46337E+04 1.39530E+02 1.42158E+03 4.02107E+05-1.30058E-09 2.43745E-10
 -1       369 7.67439E+04 1.92021E+02 2.30957E+03 5.73498E+05 7.09406E-10-2.44108E-09
 -1       370 7.70127E+04-1.27826E+03 3.19225E+03 4.03323E+05 8.87667E-10 9.09495E-10
 -1       371-3.28120E+03-2.77838E+05-2.68420E+04 2.21830E+05-1.54614E-10 2.04091E-09
 -1       372-1.43571E+03-2.85337E+05-1.40152E+04 3.16262E+05 2.00089E-11-7.19047E-09
 -1       373 1.41998E+03-2.81211E+05-5.06439E+03 2.21356E+05-1.90994E-11-4.27508E-09
 -1       374 2.65757E+03-2.81135E+05 4.91210E+01 3.16114E+05-3.38332E-10 7.87622E-10
 -1       375 1.97861E+03-2.81397E+05 4.51866E+03 2.21958E+05-4.23825E-10 2.94676E-09
 -1       376 2.44964E+05 1.28010E+03 1.97781E+04 3.88730E+05 5.02041E-10 1.70985E-10
 -1       377 2.48791E+05 2.37817E+03 1.14859E+04 5.52405E+05-3.32875E-10-2.54659E-11
 -1       378 2.44041E+05 2.37622E+02 5.66695E+03 3.87450E+05-7.31234E-10-2.32831E-10
 -1       379 2.43929E+05 1.07436E+03 4.16199E+03 5.53676E+05-4.03816E-10-2.29193E-09
 -1       380 2.43987E+05 2.95952E+02 4.06120E+03 3.87449E+05 5.18412E-10-8.25821E-10
 -1       381 2.47314E+05 1.38784E+03 6.93533E+03 5.52458E+05-3.63798E-10 8.80391E-10
 -1       382 2.45669E+05 6.28508E+01 1.11237E+04 3.88673E+05 3.71074E-10 2.68301E-09
 -1       383-1.49297E+02-8.74570E+04-1.26317E+04 4.43574E+05-1.63891E-09 1.04046E-09
 -1       384 2.73101E+03-9.27886E+04-6.72921E+03 6.31633E+05 6.07542E-10-9.05402E-09
 -1       385 3.01137E+03-9.03864E+04-3.30074E+03 4.42602E+05-1.42973E-09-4.59931E-09
 -1       386 3.75385E+03-9.09431E+04-2.32911E+03 6.31478E+05-1.74623E-10 2.28283E-09
 -1       387 1.00387E+03-8.78916E+04-2.89527E+03 4.43729E+05-1.20235E-09 4.17276E-09
 -1       388 3.65146E+05 2.16159E+03 2.30668E+04 3.56677E+05-1.49885E-09-2.09548E-09
 -1       389 3.69944E+05 2.85646E+03 1.33297E+04 5.06864E+05 1.92813E-09-3.30692E-09
 -1       390 3.65098E+05 2.10934E+02 6.72119E+03 3.55513E+05 2.25373E-09-2.31739E-09
 -1       391 3.65206E+05 9.51703E+02 5.14670E+03 5.08014E+05 2.00885E-10 3.56522E-10
 -1       392 3.65082E+05 2.38028E+02 5.45186E+03 3.55514E+05-1.72804E-09 6.00267E-10
 -1       393 3.68856E+05 2.03687E+03 9.73982E+03 5.06904E+05-3.58341E-10 1.31695E-09
 -1       394 3.65777E+05 1.14659E+03 1.62319E+04 3.56633E+05 5.89353E-10 4.85670E-10
 -1       395-1.02071E+03-4.27876E+04-1.72154E+04 4.53094E+05-9.44056E-10-8.73115E-10
 -1       396 2.05032E+03-4.92927E+04-9.32700E+03 6.45108E+05-1.29876E-09-3.49337E-09
 -1       397 2.95559E+03-4.63149E+04-4.67398E+03 4.52099E+05-7.49424E-10-1.94814E-09
 -1       398 3.51121E+03-4.70869E+04-3.52097E+03 6.44965E+05-2.34650E-09-1.75532E-09
 -1       399 7.13483E+02-4.36544E+04-4.33573E+03 4.53237E+05-3.00133E-10 2.93949E-09
 -1       400 4.57130E+05 2.74125E+03 2.53500E+04 3.33165E+05 2.18279E-11 2.35377E-09
 -1       401 4.62602E+05 3.17049E+03 1.46179E+04 4.73471E+05-1.71531E-09 2.02635E-09
 -1       402 4.57656E+05 1.84530E+02 7.46522E+03 3.32096E+05-1.03500E-09 5.40240E-10
 -1       403 4.57903E+05 8.73112E+02 5.85759E+03 4.74527E+05-1.67256E-09-2.59024E-09
 -1       404 4.57635E+05 2.11466E+02 6.47025E+03 3.32095E+05 3.27418E-11 1.09139E-10
 -1       405 4.61725E+05 2.53914E+03 1.18019E+04 4.73492E+05 2.98314E-10 1.17507E-09
 -1       406 4.57603E+05 1.96160E+03 1.99910E+04 3.33141E+05 6.51198E-10 1.65164E-09
 -1       407-1.86668E+03-1.18591E+04-2.12967E+04 4.34013E+05-2.77396E-09 2.35377E-09
 -1       408 1.12174E+03-1.92017E+04-1.18637E+04 6.17885E+05-5.98811E-09-2.12822E-09
 -1       409 2.67961E+03-1.57034E+04-6.36504E+03 4.33054E+05-3.89628E-09-2.77896E-09
 -1       410 2.75527E+03-1.69929E+04-5.65821E+03 6.17762E+05-5.58794E-09-3.42880E-09
 -1       411 1.24792E+02-1.29761E+04-7.51020E+03 4.34133E+05-3.43061E-09-1.31695E-09
 -1       412 5.35153E+05 3.30858E+03 2.77202E+04 3.13484E+05-1.19326E-09-5.96629E-10
 -1       413 5.41294E+05 3.50629E+03 1.59292E+04 4.45496E+05-1.60071E-10 2.07365E-10
 -1       414 5.36205E+05 1.72376E+02 8.15309E+03 3.12484E+05 6.12999E-10-9.82254E-11
 -1       415 5.36568E+05 8.14325E+02 6.40672E+03 4.46479E+05 2.10730E-09 1.89175E-09
 -1       416 5.36202E+05 1.86598E+02 7.14429E+03 3.12485E+05 8.91305E-11 2.93585E-09
 -1       417 5.40460E+05 2.84087E+03 1.30791E+04 4.45517E+05-6.74845E-10-1.22236E-09
 -1       418 5.35683E+05 2.48174E+03 2.22911E+04 3.13458E+05-2.36469E-10-9.68612E-10
 -1       419-2.57552E+03 1.26706E+04-2.44792E+04 4.10574E+05 8.80755E-09-2.65572E-10
 -1       420 2.84729E+02 4.73100E+03-1.38740E+04 5.84460E+05 7.24685E-09-8.97126E-09
 -1       421 2.39204E+03 8.61150E+03-7.74334E+03 4.09658E+05 1.10631E-08-2.43290E-09
 -1       422 2.04945E+03 6.85735E+03-7.45927E+03 5.84368E+05 6.22094E-09 3.15777E-09
 -1       423-3.71314E+02 1.13150E+04-1.02060E+04 4.10663E+05 8.27094E-09-5.45697E-11
 -1       424 6.29077E+05 4.11208E+03 3.16363E+04 2.91152E+05 7.56700E-10-1.60071E-10
 -1       425 6.36282E+05 4.01459E+03 1.81340E+04 4.13756E+05-1.81899E-10-1.59343E-09
 -1       426 6.30827E+05 1.40516E+02 9.34018E+03 2.90224E+05 9.82254E-11-3.88718E-09
 -1       427 6.31362E+05 7.45944E+02 7.41743E+03 4.14667E+05 1.01545E-09-1.99361E-09
 -1       428 6.30824E+05 1.53063E+02 8.43981E+03 2.90225E+05 1.22964E-09 1.63163E-09
 -1       429 6.35538E+05 3.42052E+03 1.55904E+04 4.13782E+05-3.31056E-10-1.55342E-09
 -1       430 6.29551E+05 3.37335E+03 2.67905E+04 2.91122E+05 2.61934E-10 2.28283E-10
 -1       431-3.24711E+03 4.14773E+04-2.71222E+04 3.73191E+05 5.45697E-10-2.57569E-09
 -1       432-6.01477E+02 3.31513E+04-1.52952E+04 5.31174E+05-6.69388E-10-9.13678E-09
 -1       433 2.03291E+03 3.72982E+04-8.23420E+03 3.72344E+05 3.71074E-10-9.34051E-10
 -1       434 1.68830E+03 3.55239E+04-7.40164E+03 5.31121E+05-1.41881E-09 2.00725E-09
 -1       435-3.08444E+02 3.94969E+04-9.52409E+03 3.73239E+05-2.04636E-10 2.51021E-09
 -1       436 8.02514E+05 6.30990E+03 4.41426E+04 2.72605E+05-2.72848E-10 2.62662E-09
 -1       437 8.12882E+05 5.66009E+03 2.52313E+04 3.87419E+05 9.29504E-10 2.85399E-09
 -1       438 8.05848E+05 1.30861E+02 1.30961E+04 2.71753E+05 5.40240E-10-5.67525E-10
 -1       439 8.06795E+05 7.76671E+02 1.05332E+04 3.88249E+05 2.97689E-10 1.39880E-09
 -1       440 8.05856E+05 1.34395E+02 1.22626E+04 2.71753E+05 2.25555E-10-3.35240E-09
 -1       441 8.12227E+05 5.09451E+03 2.28797E+04 3.87426E+05 1.12777E-09-5.86442E-09
 -1       442 8.02984E+05 5.60409E+03 3.96601E+04 2.72596E+05-6.58474E-10-7.43967E-10
 -1       443-4.97611E+03 7.14862E+03-3.53286E+04 3.00782E+05 3.05590E-09-3.35422E-09
 -1       444-2.54369E+03-2.76816E+03-1.96106E+04 4.28063E+05 2.98860E-09-4.71846E-09
 -1       445 1.45249E+03 2.34577E+03-9.65228E+03 3.00064E+05 3.82352E-09-1.03717E-09
 -1       446 1.27999E+03 6.68770E+02-7.01398E+03 4.28084E+05 3.72529E-09-2.07729E-09
 -1       447 3.72019E+01 3.54129E+03-7.19624E+03 3.00752E+05 2.82853E-09 6.07542E-10
 -1       448 1.06995E+06 9.99035E+03 6.60184E+04 2.57455E+05 1.86628E-09-2.59024E-09
 -1       449 1.08579E+06 8.58366E+03 3.69532E+04 3.65679E+05 2.58296E-10 9.14952E-10
 -1       450 1.07573E+06 1.98265E+02 1.78371E+04 2.56610E+05-2.35559E-09-4.44015E-09
 -1       451 1.07686E+06 9.09893E+02 1.20049E+04 3.66482E+05-1.32786E-09-4.02906E-09
 -1       452 1.07580E+06 2.31561E+02 1.11067E+04 2.56618E+05-3.12866E-10 3.83807E-10
 -1       453 1.08049E+06 4.02790E+03 1.79647E+04 3.65777E+05-1.22054E-09-9.60426E-10
 -1       454 1.07373E+06 4.29978E+03 2.98202E+04 2.57327E+05-1.36424E-09-2.10093E-10
 -1       455-7.96936E+03-1.22902E+05-5.27704E+04 2.63039E+05 6.61748E-09 1.39153E-09
 -1       456-5.34104E+03-1.36829E+05-2.92254E+04 3.74639E+05 1.33696E-09-5.61022E-09
 -1       457 1.00659E+03-1.29196E+05-1.39833E+04 2.62475E+05 8.32915E-09-1.50749E-09
 -1       458 4.86129E+02-1.30988E+05-9.35953E+03 3.74505E+05 9.24047E-10 1.92813E-09
 -1       459-4.54508E+02-1.28054E+05-8.46566E+03 2.63159E+05 6.13363E-09 4.80213E-10
 -1       460 1.34868E+06 7.63142E+03 5.61648E+04 3.39545E+05-4.53292E-09-2.01544E-09
 -1       461 1.36139E+06 7.89942E+03 3.26012E+04 4.81140E+05-4.60932E-09-6.36646E-10
 -1       462 1.35143E+06 8.09496E+02 1.75152E+04 3.38341E+05 8.03993E-09-9.29504E-10
 -1       463 1.35171E+06 2.76206E+03 1.53399E+04 4.82254E+05-4.27735E-09-4.78758E-09
 -1       464 1.35015E+06 1.72603E+03 1.93608E+04 3.38392E+05-1.49125E-08-4.47471E-09
 -1       465 1.35898E+06 1.09471E+04 3.74580E+04 4.81447E+05-2.49001E-08-5.32964E-09
 -1       466 1.34403E+06 1.17525E+04 6.57794E+04 3.39134E+05-1.03901E-08-3.57613E-09
 -1       467-7.22596E+03 3.04009E+05-4.60845E+04 2.99262E+05 8.46194E-09 4.47471E-10
 -1       468-4.61478E+03 2.91710E+05-2.27354E+04 4.26027E+05 6.23913E-09-3.33785E-09
 -1       469 9.41384E+02 2.98110E+05-5.42690E+03 2.98696E+05 1.00590E-08-3.54703E-11
 -1       470 4.23115E+03 3.00898E+05 7.78954E+03 4.25782E+05 4.72392E-09 9.82254E-10
 -1       471 4.12823E+03 2.96367E+05 2.19694E+04 2.99501E+05 5.61704E-09 4.25644E-10
 -1       472 7.79026E+05 1.83957E+03 9.53216E+03 1.80758E+05-1.25146E-09-1.82445E-09
 -1       473 7.80767E+05 2.16478E+03 6.32132E+03 2.56369E+05 1.20817E-08-6.42103E-10
 -1       474 7.79418E+05 7.14837E+02 4.93970E+03 1.80248E+05-6.90670E-09-2.63935E-09
 -1       475 7.79673E+05 1.39133E+03 6.84940E+03 2.56881E+05-2.56364E-10-2.15914E-09
 -1       476 7.79214E+05 7.83985E+02 1.15885E+04 1.80244E+05-2.74667E-09-2.14823E-09
 -1       477 7.85585E+05 6.86510E+03 2.50431E+04 2.56309E+05 6.86668E-10-2.41562E-09
 -1       478 7.74896E+05 7.74101E+03 4.52571E+04 1.80815E+05 1.10595E-09-1.74441E-09
 -1       479-1.37751E+04-5.73044E+04-7.51617E+04 5.01170E+05 6.03904E-10 8.44011E-10
 -1       480-8.73158E+03-7.79443E+04-4.04625E+04 7.13081E+05-3.27418E-11 1.12777E-09
 -1       481 1.00983E+03-6.90570E+04-1.77465E+04 4.99909E+05-1.05501E-09-1.55524E-10
 -1       482 1.58108E+03-7.04363E+04-8.44920E+03 7.13365E+05-4.14002E-09-8.57654E-10
 -1       483 1.02926E+02-6.80479E+04-3.50039E+03 5.00922E+05-2.65391E-09-2.25555E-10
 -1       484 3.61856E+05 9.08231E+02 4.49196E+03 1.25193E+05-4.38013E-09-1.82263E-09
 -1       485 3.62661E+05 1.06349E+03 3.08198E+03 1.77846E+05-1.80808E-09-3.51065E-10
 -1       486 3.62062E+05 3.59977E+02 2.59130E+03 1.24846E+05-4.40150E-09 3.36513E-10
 -1       487 3.62250E+05 6.97923E+02 3.80047E+03 1.78191E+05-7.50333E-10-4.66571E-10
 -1       488 3.61974E+05 3.76376E+02 6.58436E+03 1.24847E+05 1.68075E-09 3.20142E-10
 -1       489 3.65661E+05 3.83885E+03 1.43366E+04 1.77749E+05-7.77800E-09 3.70164E-10
 -1       490 3.59474E+05 4.38109E+03 2.59572E+04 1.25287E+05 2.23190E-09-1.41199E-09
 -1       491-9.03852E+03-1.79217E+05-5.06277E+04 3.66126E+05-4.03816E-09 1.44428E-09
 -1       492-6.15516E+03-1.92766E+05-2.83012E+04 5.20995E+05 1.34605E-10-3.34694E-10
 -1       493 3.85545E+02-1.86401E+05-1.43728E+04 3.65209E+05-3.61979E-10-2.28647E-09
 -1       494-7.84172E+02-1.88596E+05-1.13409E+04 5.21157E+05-2.83035E-09 3.02862E-10
 -1       495-1.86472E+03-1.84661E+05-1.26877E+04 3.65981E+05 9.06766E-10-1.63709E-09
 -1       496 1.06566E+05 2.12313E+02 1.00817E+03 6.09548E+04 4.30737E-09-7.45331E-10
 -1       497 1.06734E+05 2.48843E+02 8.76423E+02 8.67483E+04 4.19959E-09-8.29004E-10
 -1       498 1.06615E+05 8.20033E+01 1.04637E+03 6.08132E+04-1.11027E-09 8.43102E-10
 -1       499 1.06761E+05 1.97250E+02 1.86496E+03 8.68850E+04-3.70960E-09 1.53568E-09
 -1       500 1.06560E+05 9.34799E+01 3.46467E+03 6.08180E+04-1.80898E-09-1.10867E-09
 -1       501 1.08545E+05 1.93321E+03 7.69258E+03 8.66258E+04 4.11683E-09-1.14414E-09
 -1       502 1.05118E+05 2.31916E+03 1.40082E+04 6.10725E+04 4.14184E-09-2.26987E-09
 -1       503-4.78836E+03-1.73010E+05-2.76625E+04 2.24154E+05 9.58607E-10-2.26282E-09
 -1       504-3.46027E+03-1.80236E+05-1.59644E+04 3.18951E+05 5.89353E-09-1.01136E-09
 -1       505 1.04555E+02-1.76584E+05-8.99785E+03 2.23583E+05 4.20005E-09-1.03682E-10
 -1       506-1.22292E+03-1.78466E+05-8.86247E+03 3.19054E+05 6.95218E-09-1.77897E-09
 -1       507-1.80628E+03-1.75258E+05-1.17779E+04 2.24056E+05 2.37651E-09 5.52973E-10
 -1       508-2.40579E+03-1.78674E+05-1.46791E+04 9.35672E+04-1.31331E-09 1.27784E-09
 -1       509-1.88259E+03-1.82380E+05-8.87249E+03 1.33123E+05-1.72713E-09 1.18780E-09
 -1       510-5.25223E+00-1.80304E+05-5.69328E+03 9.33191E+04-2.37287E-09 4.03134E-10
 -1       511-1.24862E+03-1.81863E+05-6.84281E+03 1.33181E+05-1.31604E-09 2.61480E-09
 -1       512-1.56395E+03-1.79302E+05-1.01407E+04 9.35097E+04-6.07088E-10 1.50067E-10
 -1       513-7.98017E+04 2.01172E+03 2.48087E+04 3.37168E+05 5.82077E-11 1.93904E-09
 -1       514-7.42774E+04 2.52127E+03 1.38795E+04 4.78866E+05 1.36424E-10 6.00267E-10
 -1       515-7.97231E+04-1.66267E+02 6.12110E+03 3.35920E+05-2.91038E-10-3.25599E-10
 -1       516-7.97843E+04 4.79413E+02 3.17895E+03 4.80114E+05-2.29193E-10-2.98314E-10
 -1       517-7.99936E+04 8.88424E+01 1.30759E+03 3.35907E+05 1.47338E-10-1.13869E-09
 -1       518-7.90409E+04-2.93299E+02 2.06598E+02 4.79120E+05 3.61979E-10 2.83762E-10
 -1       519-7.80000E+04-1.41521E+03-1.16448E+03 3.36913E+05-5.45697E-11 4.65661E-10
 -1       520-3.84415E+03-6.61197E+05-3.10488E+04 2.91864E+05-1.09139E-10 2.24099E-09
 -1       521-1.46360E+03-6.69976E+05-1.49484E+04 4.16571E+05-1.12777E-10 1.72622E-09
 -1       522 1.76262E+03-6.65311E+05-2.82859E+03 2.91275E+05 8.73115E-11-2.46473E-09
 -1       523 4.85035E+03-6.63105E+05 7.17405E+03 4.16268E+05 3.67436E-10-3.26145E-09
 -1       524 4.18415E+03-6.66457E+05 1.82447E+04 2.92145E+05 5.45697E-11-3.39060E-09
 -1       525-4.46266E+04-9.96748E+02 1.72208E+03 3.13414E+05-1.12777E-10 2.91402E-09
 -1       526-4.48856E+04 9.77849E+01 1.13323E+03 4.45390E+05-2.85581E-10 8.84029E-10
 -1       527-4.64445E+04 1.53017E+02 3.56651E+02 3.12362E+05-7.27596E-10-4.91127E-11
 -1       528-4.68388E+04 6.19548E+02-2.38489E+01 4.46446E+05 3.45608E-10 8.07631E-10
 -1       529-4.64844E+04 1.94212E+02-6.50581E+02 3.12360E+05-1.30967E-10 6.91216E-11
 -1       530-4.58316E+04-5.14766E+02-1.72324E+03 4.45438E+05-6.42103E-10 1.48430E-09
 -1       531-4.42020E+04-1.74733E+03-3.70824E+03 3.13366E+05 3.45608E-10 3.20142E-10
 -1       532 1.62003E+03-6.23791E+04 2.91285E+03 4.14194E+05-9.19499E-10 1.77170E-09
 -1       533 3.73623E+03-6.33319E+04 6.61781E+03 5.89944E+05 4.65661E-10 1.15051E-09
 -1       534 2.37359E+03-6.36870E+04 1.25404E+04 4.13368E+05-1.26602E-09-3.73802E-09
 -1       535 9.63894E+03-5.62280E+04 2.80645E+04 5.89631E+05 2.36469E-10-2.93767E-09
 -1       536 8.99822E+03-6.69105E+04 5.06479E+04 4.14510E+05-1.08776E-09-2.66664E-09
 -1       537 5.09960E+04-9.37999E+01 5.80669E+03 2.89023E+05-3.56522E-10-6.42103E-10
 -1       538 5.18454E+04 6.74900E+02 3.40201E+03 4.10746E+05 3.94721E-10-1.11686E-09
 -1       539 4.99647E+04 1.44156E+02 1.53015E+03 2.88064E+05-2.36469E-11 2.76486E-10
 -1       540 4.97605E+04 5.48264E+02 8.88239E+02 4.11703E+05-1.17041E-09 1.60071E-10
 -1       541 4.99822E+04 1.44524E+02 4.22863E+02 2.88064E+05-2.91038E-11-4.94765E-10
 -1       542 5.09928E+04-8.55578E+01 2.78864E+02 4.10771E+05 1.48975E-09-6.87578E-10
 -1       543 5.16370E+04-1.04286E+03-1.47685E+02 2.88995E+05 6.54836E-10 4.72937E-10
 -1       544 1.15101E+03-1.74318E+04 6.23790E+02 3.68415E+05-6.28461E-10-3.12866E-10
 -1       545 2.77643E+03-1.86011E+04 2.86585E+03 5.24702E+05-8.84029E-10 1.38562E-09
 -1       546 1.85067E+03-1.84424E+04 5.94083E+03 3.67687E+05-6.47560E-10-3.60978E-09
 -1       547 5.55958E+03-1.47064E+04 1.35848E+04 5.24428E+05-1.58616E-09-2.76123E-09
 -1       548 4.51855E+03-1.92573E+04 2.44307E+04 3.68692E+05-2.51021E-10-2.80124E-09
 -1       549 1.49748E+05 6.18202E+02 9.63162E+03 2.78779E+05 3.56522E-10 7.82165E-10
 -1       550 1.51578E+05 1.18584E+03 5.58544E+03 3.96211E+05 0.00000E+00-5.02041E-10
 -1       551 1.49261E+05 1.38516E+02 2.72653E+03 2.77873E+05-9.40418E-10 8.34916E-10
 -1       552 1.49204E+05 5.43492E+02 1.94769E+03 3.97115E+05-1.45145E-09-6.54836E-11
 -1       553 1.49286E+05 1.31212E+02 1.80920E+03 2.77872E+05-5.47516E-10-4.16549E-10
 -1       554 1.50904E+05 5.41151E+02 3.00104E+03 3.96214E+05 5.47516E-10-1.72076E-09
 -1       555 1.50309E+05-1.89049E+02 4.70150E+03 2.78775E+05 5.45697E-10 3.85626E-10
 -1       556 2.78326E+02-2.54702E+03-5.15911E+03 3.46824E+05-2.25009E-09-6.25732E-10
 -1       557 1.75869E+03-4.99960E+03-2.71596E+03 4.93943E+05-4.44197E-09-1.20463E-09
 -1       558 1.58991E+03-3.77538E+03-1.37587E+03 3.46142E+05-2.77760E-09-1.80444E-09
 -1       559 1.86747E+03-3.71541E+03-1.03757E+03 4.93687E+05-3.56522E-09 1.64437E-09
 -1       560 1.79756E+02-1.97008E+03-1.52720E+03 3.47082E+05-1.89902E-09-5.89353E-10
 -1       561 2.10374E+05 8.13522E+02 1.06725E+04 2.77796E+05-5.74801E-10-6.18456E-10
 -1       562 2.12456E+05 1.33371E+03 6.23965E+03 3.94821E+05-3.65617E-10 1.20053E-09
 -1       563 2.10026E+05 1.42809E+02 3.20083E+03 2.76903E+05 4.32919E-10 1.03319E-09
 -1       564 2.10042E+05 5.60058E+02 2.55758E+03 3.95710E+05 1.62549E-09-2.01362E-09
 -1       565 2.10053E+05 1.28229E+02 2.81493E+03 2.76903E+05-9.64064E-11-3.25599E-10
 -1       566 2.12220E+05 1.04019E+03 5.15683E+03 3.94816E+05-3.05590E-10 1.66983E-09
 -1       567 2.10655E+05 4.42146E+02 8.60240E+03 2.77800E+05-2.94676E-10 3.07409E-10
 -1       568-3.01635E+02 1.16056E+04-9.98437E+03 3.57190E+05 7.17318E-09-6.07542E-10
 -1       569 1.25337E+03 7.88872E+03-7.70184E+03 5.08663E+05 5.84987E-09 5.93900E-10
 -1       570 1.59951E+03 1.00766E+04-8.35752E+03 3.56477E+05 8.68022E-09-2.60934E-09
 -1       571-1.42123E+03 6.55163E+03-1.53260E+04 5.08431E+05 4.78758E-09 2.37196E-09
 -1       572-4.02571E+03 1.47399E+04-2.71170E+04 3.57426E+05 5.95992E-09-1.81535E-09
 -1       573 1.79176E+05-6.89738E+01 5.48644E+03 2.82968E+05 3.45608E-10-3.16504E-10
 -1       574 1.79953E+05 6.36617E+02 3.47366E+03 4.02210E+05 1.09139E-10-1.49157E-09
 -1       575 1.78234E+05 1.25132E+02 2.10617E+03 2.82067E+05-1.23691E-10-9.44056E-10
 -1       576 1.78212E+05 5.30695E+02 2.27111E+03 4.03108E+05 8.12463E-10 1.07320E-10
 -1       577 1.78249E+05 1.00643E+02 3.20787E+03 2.82069E+05 1.44973E-09-1.72804E-10
 -1       578 1.80901E+05 1.34632E+03 6.59006E+03 4.02180E+05-3.49246E-10 1.60071E-10
 -1       579 1.78631E+05 8.08876E+02 1.14188E+04 2.83000E+05 4.14730E-10-2.00635E-09
 -1       580-1.21273E+02 3.33326E+04-1.12287E+04 4.01010E+05 8.49468E-10 4.14730E-10
 -1       581 1.66927E+03 2.89890E+04-1.08095E+04 5.70982E+05-2.03727E-10 5.91172E-11
 -1       582 1.92479E+03 3.16954E+04-1.47523E+04 4.00187E+05 3.67436E-10-2.05455E-09
 -1       583-4.45374E+03 2.44873E+04-2.98665E+04 5.70781E+05-1.86992E-09-3.59069E-09
 -1       584-8.35273E+03 3.96853E+04-5.38847E+04 4.01219E+05-5.47061E-10-2.31739E-09
 -1       585-2.91993E+03-2.06483E+03-6.54751E+03 2.39602E+05-6.65750E-10 4.70027E-09
 -1       586-4.92548E+03-1.14306E+03-3.27094E+03 3.40395E+05 7.31234E-10 2.13549E-09
 -1       587-4.97291E+03-4.75756E+01-1.16959E+03 2.38763E+05 6.25732E-10-1.39153E-09
 -1       588-5.30038E+03 2.84037E+02 5.73608E+01 3.41246E+05 4.37467E-10 6.20275E-10
 -1       589-5.25818E+03 1.33492E+02 1.16888E+03 2.38755E+05 6.29370E-10-1.32422E-09
 -1       590-3.88262E+03 8.15869E+02 3.25618E+03 3.40524E+05 1.11595E-09-2.32467E-09
 -1       591-4.97939E+03 4.40355E+02 5.96540E+03 2.39486E+05-6.69388E-10-2.51930E-09
 -1       592 1.42070E+03 5.28413E+04 6.01519E+02 4.61548E+05 3.67072E-09-1.23327E-09
 -1       593 4.08952E+03 5.08027E+04 3.78905E+03 6.57029E+05 3.35058E-09-3.34694E-10
 -1       594 2.87741E+03 5.07891E+04 7.94813E+03 4.60544E+05 4.34738E-09-3.08273E-09
 -1       595 8.11639E+03 5.54600E+04 1.82107E+04 6.56872E+05 5.07498E-09 3.02680E-09
 -1       596 6.49287E+03 4.96394E+04 3.27153E+04 4.61704E+05 3.15413E-09-1.31331E-09
 -1       597-7.09917E+04-6.87913E+02-6.90952E+02 1.80284E+05 1.81899E-09-8.58563E-10
 -1       598-7.13722E+04-1.84598E+02-5.43411E+02 2.55943E+05 1.47338E-10 7.54881E-10
 -1       599-7.19161E+04 3.62663E+01-8.16057E+02 1.79578E+05-1.97542E-09 1.81899E-10
 -1       600-7.23189E+04 2.47151E+02-1.51114E+03 2.56665E+05-1.22554E-09 1.10049E-09
 -1       601-7.20814E+04 1.82392E+02-2.93203E+03 1.79563E+05-6.48697E-10 1.87356E-10
 -1       602-7.36080E+04-1.35576E+03-6.56683E+03 2.56197E+05-2.16551E-09-1.14414E-09
 -1       603-7.03306E+04-2.10051E+03-1.21189E+04 1.80044E+05-2.51021E-10-2.51202E-09
 -1       604 8.09295E+02-6.15579E+04 5.78233E+03 3.21669E+05 5.61886E-09 8.94943E-10
 -1       605 2.53699E+03-6.11791E+04 1.39268E+04 4.58071E+05 1.24419E-09 2.27737E-09
 -1       606 1.57574E+03-6.30964E+04 2.75765E+04 3.20990E+05 7.39510E-09-1.92949E-09
 -1       607 1.68322E+04-4.72436E+04 6.22311E+04 4.57884E+05 6.18456E-10-3.44153E-09
 -1       608 1.93503E+04-7.43942E+04 1.13610E+05 3.21850E+05 4.73665E-09-1.96815E-09
 -1       609-1.39389E+05-3.96615E+03-1.98499E+04 3.32984E+05-6.60657E-09 1.98997E-09
 -1       610-1.45518E+05-1.46308E+03-1.06924E+04 4.73141E+05-4.89854E-09-2.87764E-09
 -1       611-1.44097E+05 1.08563E+03-5.10109E+03 3.31792E+05 8.15635E-09-1.05138E-09
 -1       612-1.45563E+05 2.09961E+03-3.15792E+03 4.74341E+05-4.69527E-09 6.65750E-10
 -1       613-1.44541E+05 1.38369E+03-2.82565E+03 3.31780E+05-1.33678E-08-7.62157E-10
 -1       614-1.45012E+05 6.80488E+02-4.38699E+03 4.73335E+05-2.13131E-08 7.38510E-10
 -1       615-1.41865E+05-1.19397E+03-7.71608E+03 3.32803E+05-7.17409E-09-2.33194E-09
 -1       616 1.47171E+03 1.23812E+05 1.16670E+04 3.62481E+05 4.85670E-09-1.12414E-09
 -1       617 2.92574E+03 1.25662E+05 1.59519E+04 5.16076E+05 5.14046E-09-2.11003E-10
 -1       618 1.24987E+03 1.22927E+05 2.59842E+04 3.61732E+05 7.34326E-09-1.77442E-09
 -1       619 1.46035E+04 1.37407E+05 5.58171E+04 5.15865E+05 3.81988E-09 2.40470E-09
 -1       620 1.65484E+04 1.13526E+05 1.00620E+05 3.62712E+05 3.33239E-09 7.31234E-10
 -1       621-5.40163E+04 1.07058E+02 1.25131E+03 2.98457E+05-5.85715E-10-2.17369E-09
 -1       622-5.47870E+04 1.56646E+03 9.88332E+02 4.24182E+05 6.97037E-09-5.02769E-09
 -1       623-5.57094E+04 1.20325E+03 5.73810E+02 2.97450E+05-7.26686E-09-1.98088E-09
 -1       624-5.64674E+04 2.11749E+03 6.49101E+02 4.25183E+05-2.84672E-09 2.25555E-10
 -1       625-5.57912E+04 1.26061E+03 7.85703E+02 2.97447E+05 8.18545E-11-2.57387E-09
 -1       626-5.48633E+04 1.82357E+03 1.56428E+03 4.24218E+05 6.20275E-10 1.17507E-09
 -1       627-5.43616E+04 4.46775E+02 2.37120E+03 2.98423E+05-9.09495E-11-3.45972E-09
 -1       628 5.89169E+02-2.97441E+04 6.63224E+03 4.23092E+05 3.09228E-10-5.16593E-10
 -1       629 2.10494E+03-2.92199E+04 9.59301E+03 6.02500E+05-5.63887E-10-5.22050E-10
 -1       630 9.54393E+02-3.09307E+04 1.57307E+04 4.22228E+05-2.43017E-09-6.35737E-10
 -1       631 8.93438E+03-2.14622E+04 3.38928E+04 6.02227E+05-1.02591E-09 2.34650E-10
 -1       632 9.21819E+03-3.52478E+04 6.07609E+04 4.23391E+05-1.05138E-09-1.21145E-09
 -1       633-2.86540E+04 9.78182E+02 5.28206E+03 1.96063E+05-4.75484E-09-2.75213E-09
 -1       634-2.78357E+04 1.44022E+03 3.07873E+03 2.78737E+05-7.93898E-09-1.91358E-09
 -1       635-2.87742E+04 6.09298E+02 1.57080E+03 1.95442E+05-9.99989E-09-1.26056E-09
 -1       636-2.89503E+04 1.01624E+03 1.23405E+03 2.79353E+05-2.26009E-10 2.72848E-11
 -1       637-2.86998E+04 5.57650E+02 1.32851E+03 1.95445E+05 5.56247E-09-1.46247E-09
 -1       638-2.78065E+04 1.17327E+03 2.41492E+03 2.78680E+05-2.70666E-09-2.69392E-09
 -1       639-2.83132E+04 6.28132E+02 3.99683E+03 1.96118E+05 2.23372E-09-2.09729E-09
 -1       640 5.44462E+00-6.96504E+04 2.44721E+03 3.42399E+05-3.85080E-09-2.21917E-10
 -1       641 9.55091E+02-6.97284E+04 4.31241E+03 4.87574E+05-9.34961E-10-4.48381E-10
 -1       642 4.79294E+02-7.05496E+04 7.53854E+03 3.41690E+05 1.24237E-09-3.37786E-09
 -1       643 4.34874E+03-6.57391E+04 1.65362E+04 4.87378E+05-1.56797E-09 1.28421E-09
 -1       644 4.26408E+03-7.23088E+04 2.96607E+04 3.42605E+05 6.91216E-11-1.52795E-10
 -1       645-1.14253E+04 1.02925E+03 5.92794E+03 1.02622E+05 2.79942E-09 1.60344E-09
 -1       646-1.00885E+04 9.92401E+02 3.42869E+03 1.45962E+05 2.01317E-09-1.17325E-10
 -1       647-1.09397E+04 1.71746E+02 1.86675E+03 1.02325E+05 1.93631E-09-1.39426E-09
 -1       648-1.08106E+04 3.09967E+02 1.64806E+03 1.46254E+05 2.94676E-10-8.51287E-10
 -1       649-1.08952E+04 1.36366E+02 2.10287E+03 1.02330E+05 1.97815E-09-1.23509E-09
 -1       650-9.75938E+03 1.08596E+03 4.10807E+03 1.45871E+05-3.14321E-09-3.34694E-10
 -1       651-1.14251E+04 1.13440E+03 7.20974E+03 1.02709E+05-1.43700E-10-6.57565E-10
 -1       652-8.05888E+01-7.01631E+04 3.64288E+02 2.08515E+05-1.02227E-09-1.43700E-09
 -1       653 2.77870E+02-7.03216E+04 1.14689E+03 2.96922E+05 1.65164E-09-1.52249E-09
 -1       654 1.69036E+02-7.05386E+04 2.28061E+03 2.08083E+05-9.14952E-10-4.37467E-10
 -1       655 1.38320E+03-6.89911E+04 5.16284E+03 2.96808E+05 3.19596E-09-2.30102E-10
 -1       656 1.29983E+03-7.10113E+04 9.30143E+03 2.08631E+05-1.99361E-09 3.03771E-10
 -1       657 3.44621E+02-6.37442E+04 2.08710E+03 8.40193E+04 2.65072E-09 4.15639E-10
 -1       658 3.35900E+02-6.32622E+04 1.29973E+03 1.19672E+05 3.17232E-09 2.16539E-09
 -1       659 4.36215E+01-6.35688E+04 8.76683E+02 8.38571E+04-7.69433E-10 1.06616E-09
 -1       660 2.57414E+02-6.32588E+04 1.12336E+03 1.19603E+05-1.26602E-09-3.67436E-10
 -1       661 2.26540E+02-6.36277E+04 1.68586E+03 8.40886E+04-1.72804E-10-4.60204E-10
 -1       662-1.07678E+06-4.61979E+03-2.19861E+04 2.21595E+05 2.61934E-10 1.59071E-09
 -1       663-1.08236E+06-3.26848E+03-1.29771E+04 3.14456E+05 3.51065E-10 1.27329E-11
 -1       664-1.08039E+06-1.35535E+02-8.08782E+03 2.20654E+05 3.09228E-10 2.87400E-10
 -1       665-1.08156E+06-1.34447E+02-8.72646E+03 3.15456E+05 3.71529E-10-4.03816E-10
 -1       666-1.08053E+06 2.43384E+01-1.31977E+04 2.20612E+05 1.22327E-10-5.82077E-11
 -1       667-1.08696E+06-6.47639E+03-2.74549E+04 3.14841E+05 1.69166E-10 2.94676E-10
 -1       668-1.07443E+06-8.55914E+03-4.95245E+04 2.21253E+05 8.36735E-11 2.91038E-10
 -1       669-6.07611E+05-8.04280E+02-3.14035E+03 1.66585E+05 4.36557E-11 4.22006E-10
 -1       670-6.08503E+05-3.84226E+02-2.39754E+03 2.36735E+05 4.27463E-11 3.63798E-12
 -1       671-6.08453E+05 8.54554E+01-2.62079E+03 1.65992E+05-1.20963E-10-2.47383E-10
 -1       672-6.08948E+05 3.47783E+01-4.46230E+03 2.37332E+05 2.11458E-10-1.05501E-10
 -1       673-6.08243E+05-1.43836E+00-8.26569E+03 1.65990E+05 4.18368E-11-8.36735E-11
 -1       674-6.12483E+05-4.43640E+03-1.82889E+04 2.36769E+05-3.71074E-10 7.06677E-10
 -1       675-6.04002E+05-5.88256E+03-3.34683E+04 1.66546E+05 6.54836E-11 5.34783E-10
 -1       676-1.88786E+05 1.04751E+03 7.72544E+03 1.51104E+05-9.82254E-11 3.00133E-10
 -1       677-1.86989E+05 1.04178E+03 3.84999E+03 2.14740E+05 1.09139E-10-3.01952E-10
 -1       678-1.88340E+05 8.22396E+01 8.22607E+02 1.50589E+05 3.09228E-11-1.76442E-10
 -1       679-1.88479E+05 1.02108E+02-1.36462E+03 2.15254E+05 2.20950E-10-6.52108E-10
 -1       680-1.88141E+05-4.50598E+00-4.18608E+03 1.50589E+05-2.69210E-10-6.31189E-10
 -1       681-1.90478E+05-2.57065E+03-1.02449E+04 2.14756E+05-4.72937E-10 1.89175E-10
 -1       682-1.85544E+05-3.48751E+03-1.91792E+04 1.51082E+05 4.00178E-11 3.52884E-10
 -1       683 2.05420E+05 3.02206E+03 1.95874E+04 1.48203E+05-3.63798E-11-1.09139E-10
 -1       684 2.10129E+05 2.60312E+03 1.06085E+04 2.10632E+05-2.29193E-10-1.12323E-09
 -1       685 2.07185E+05 9.41409E+01 4.40208E+03 1.47723E+05-2.86491E-10-9.09495E-12
 -1       686 2.07383E+05 1.98298E+02 1.61973E+03 2.11107E+05-1.49953E-10 5.78439E-10
 -1       687 2.07393E+05 9.97467E-01-5.27631E+02 1.47723E+05 2.54659E-11 6.36646E-12
 -1       688 2.06729E+05-9.65787E+02-3.25950E+03 2.10629E+05-8.91305E-11 2.31012E-10
 -1       689 2.08643E+05-1.46519E+03-6.88849E+03 1.48200E+05-3.09228E-11 5.54792E-10
 -1       690 6.11354E+05 5.22650E+03 3.30175E+04 1.57266E+05-4.58385E-10-1.12777E-10
 -1       691 6.19339E+05 4.37764E+03 1.82126E+04 2.23518E+05-3.09228E-11-3.29237E-10
 -1       692 6.14551E+05 1.21327E+02 8.31734E+03 1.56781E+05 1.05501E-10 3.28328E-10
 -1       693 6.15092E+05 3.23437E+02 4.69365E+03 2.23994E+05 9.61791E-10 2.40107E-10
 -1       694 6.14791E+05 9.10569E+00 3.00285E+03 1.56781E+05-7.00311E-11-2.79215E-10
 -1       695 6.15725E+05 5.09074E+02 3.26872E+03 2.23505E+05-2.61934E-10 7.27596E-12
 -1       696 6.14876E+05 3.53864E+02 4.48119E+03 1.57272E+05-3.12866E-10 2.91038E-11
 -1       697 1.06700E+06 7.83165E+03 5.05996E+04 1.85202E+05 1.74623E-10-2.76486E-10
 -1       698 1.07912E+06 6.51968E+03 3.07847E+04 2.63280E+05 3.63798E-10 7.04858E-11
 -1       699 1.07174E+06 3.28871E+01 1.99697E+04 1.84673E+05-1.58252E-10-2.85581E-10
 -1       700 1.07404E+06 9.96710E+02 2.29110E+04 2.63797E+05 4.37012E-10 5.82077E-10
 -1       701 1.07120E+06 2.45645E+02 3.54935E+04 1.84666E+05 4.96584E-10 7.02130E-10
 -1       702 1.09015E+06 1.75886E+04 7.44703E+04 2.63211E+05-9.02219E-10 4.47471E-10
 -1       703 1.05717E+06 2.17643E+04 1.34012E+05 1.85314E+05-3.60160E-10-1.19326E-09
 -1       704-1.96594E+06-2.83186E+04-1.68456E+05 1.50959E+05-9.09495E-10 9.82254E-10
 -1       705-2.00776E+06-2.24890E+04-9.37886E+04 2.14317E+05-2.90129E-10 3.45790E-09
 -1       706-1.98503E+06-3.35941E+02-4.52869E+04 1.50361E+05 5.60249E-10 2.83762E-10
 -1       707-1.98902E+06-9.97188E+02-3.03570E+04 2.15020E+05 6.55291E-10 1.11049E-09
 -1       708-1.98585E+06 6.41690E+01-2.83818E+04 1.50324E+05 5.27052E-10-1.76260E-09
 -1       709-1.99641E+06-1.00605E+04-4.62251E+04 2.14550E+05 4.97494E-10-3.32307E-09
 -1       710-1.97729E+06-1.27665E+04-7.76881E+04 1.50809E+05 1.20053E-10-1.74623E-09
 -1       711-1.61478E+06-6.82990E+03-4.04882E+04 9.69293E+04 1.56433E-09 1.73031E-09
 -1       712-1.62468E+06-5.33435E+03-2.37089E+04 1.37481E+05 1.12777E-09-2.40834E-09
 -1       713-1.61943E+06-1.71745E+01-1.38794E+04 9.64060E+04-1.42063E-09 1.36970E-09
 -1       714-1.62096E+06-3.75691E+02-1.38104E+04 1.38073E+05-1.06638E-09 2.03727E-10
 -1       715-1.61934E+06-1.17470E+01-1.96395E+04 9.63483E+04-1.49248E-09-7.53403E-10
 -1       716-1.62914E+06-9.29160E+03-3.99655E+04 1.37921E+05-2.28965E-09 1.17882E-09
 -1       717-1.61146E+06-1.17468E+04-7.14721E+04 9.65616E+04 1.77170E-09-1.26965E-09
 -1       718-1.20194E+06-5.26424E+03-3.12216E+04 2.05684E+05-6.63204E-09 1.36151E-09
 -1       719-1.21008E+06-3.38674E+03-1.81724E+04 2.92750E+05-3.84898E-09-2.53203E-09
 -1       720-1.20638E+06 6.02126E+02-1.06524E+04 2.04784E+05 7.69433E-09-3.31238E-09
 -1       721-1.20804E+06 8.15168E+02-1.05678E+04 2.93688E+05-3.56886E-09-3.41970E-10
 -1       722-1.20648E+06 7.25184E+02-1.50820E+04 2.04745E+05-1.24960E-08 1.04592E-09
 -1       723-1.21400E+06-6.19687E+03-3.07176E+04 2.93098E+05-1.99143E-08 2.82444E-09
 -1       724-1.19984E+06-8.72134E+03-5.50881E+04 2.05386E+05-9.02401E-09-8.69477E-10
 -1       725-7.22913E+05-9.38183E+02-7.64750E+03 1.79068E+05-1.68438E-09-1.96087E-09
 -1       726-7.25223E+05-5.16218E+01-4.87550E+03 2.55072E+05 6.99856E-09-5.91535E-09
 -1       727-7.24314E+05 7.34733E+02-3.77102E+03 1.78435E+05-5.20868E-09-3.03953E-09
 -1       728-7.25170E+05 9.52423E+02-5.14721E+03 2.55700E+05 1.66244E-09-1.15142E-09
 -1       729-7.24096E+05 6.34199E+02-8.78774E+03 1.78437E+05-1.11868E-10-1.59889E-09
 -1       730-7.28663E+05-3.69859E+03-1.89902E+04 2.55058E+05 6.74845E-10-3.59978E-09
 -1       731-7.19616E+05-5.51503E+03-3.45934E+04 1.79087E+05 2.96131E-09-3.58341E-09
 -1       732-3.34104E+05 8.95032E+02 3.85186E+03 1.17473E+05-4.41651E-09-2.17005E-09
 -1       733-3.33330E+05 1.02439E+03 1.76354E+03 1.67297E+05-2.01226E-09-1.64982E-09
 -1       734-3.33838E+05 3.86813E+02 2.12457E+01 1.17128E+05-7.10907E-09 3.09228E-11
 -1       735-3.34060E+05 4.72894E+02-1.53222E+03 1.67632E+05-9.22228E-10-1.06138E-09
 -1       736-3.33603E+05 2.59487E+02-3.77119E+03 1.17139E+05 1.58707E-09-2.75395E-09
 -1       737-3.35715E+05-1.83123E+03-8.88573E+03 1.67167E+05-8.64384E-09 5.37511E-10
 -1       738-3.31412E+05-2.70761E+03-1.64992E+04 1.17596E+05 4.22733E-09-6.49379E-10
 -1       739-9.66962E+04 1.23034E+03 6.92801E+03 5.56913E+04 1.27784E-10-8.79481E-10
 -1       740-9.50118E+04 1.04937E+03 3.75805E+03 7.93311E+04 7.18046E-09-2.59206E-10
 -1       741-9.59455E+04 1.04269E+02 1.60221E+03 5.55645E+04 3.20347E-09-4.67935E-10
 -1       742-9.58410E+04 1.42237E+02 6.76726E+02 7.94516E+04-1.08819E-08 3.01952E-10
 -1       743-9.58405E+04 4.60398E+01 2.94155E+01 5.55720E+04-4.67753E-09-2.09229E-09
 -1       744-9.59780E+04-1.45149E+02-6.56055E+02 7.92024E+04 3.11866E-09-5.81622E-10
 -1       745-9.55581E+04-2.79260E+02-1.50994E+03 5.58140E+04 4.03270E-09-1.34514E-09
 -3
 9999
