    1C
    1UUSER                                                              
    1UDATE              11.october.2022                                 
    1UTIME              19:09:46                                        
    1UHOST                                                              
    1UPGM               CalculiX                                        
    1UVERSION           Version 2.20                             
    1UCOMPILETIME       Sun Jul 31 18:08:37 CEST 2022                    
    1UDIR                                                               
    1UDBN                                                               
    1UMAT    1MESH_MATERIAL                                             
    2C                           409                                     1
 -1         1 0.00000E+00 0.00000E+00 0.00000E+00
 -1         2 1.66667E-02 0.00000E+00 0.00000E+00
 -1         3 3.33333E-02 0.00000E+00 0.00000E+00
 -1         5 6.66667E-02 0.00000E+00 0.00000E+00
 -1         8 0.00000E+00 6.25000E-03 0.00000E+00
 -1         9 1.66667E-02 6.25000E-03 0.00000E+00
 -1        10 3.33333E-02 6.25000E-03 0.00000E+00
 -1        12 6.66667E-02 6.25000E-03 0.00000E+00
 -1        15 0.00000E+00 1.25000E-02 0.00000E+00
 -1        16 1.66667E-02 1.25000E-02 0.00000E+00
 -1        17 3.33333E-02 1.25000E-02 0.00000E+00
 -1        18 5.00000E-02 1.25000E-02 0.00000E+00
 -1        19 6.66667E-02 1.25000E-02 0.00000E+00
 -1        20 8.33333E-02 1.25000E-02 0.00000E+00
 -1        21 1.00000E-01 1.25000E-02 0.00000E+00
 -1        24 3.33333E-02 1.87500E-02 0.00000E+00
 -1        25 5.00000E-02 1.87500E-02 0.00000E+00
 -1        26 6.66667E-02 1.87500E-02 0.00000E+00
 -1        27 8.33333E-02 1.87500E-02 0.00000E+00
 -1        28 1.00000E-01 1.87500E-02 0.00000E+00
 -1        32 5.00000E-02 2.50000E-02 0.00000E+00
 -1        33 6.66667E-02 2.50000E-02 0.00000E+00
 -1        34 8.33333E-02 2.50000E-02 0.00000E+00
 -1        35 1.00000E-01 2.50000E-02 0.00000E+00
 -1        51 0.00000E+00 1.04167E-03 0.00000E+00
 -1        52 0.00000E+00 2.08333E-03 0.00000E+00
 -1        53 0.00000E+00 3.12500E-03 0.00000E+00
 -1        54 0.00000E+00 4.16667E-03 0.00000E+00
 -1        55 0.00000E+00 5.20833E-03 0.00000E+00
 -1        56 1.04167E-03 3.90630E-04 0.00000E+00
 -1        57 2.08333E-03 7.81250E-04 0.00000E+00
 -1        58 3.12500E-03 1.17188E-03 0.00000E+00
 -1        59 4.16667E-03 1.56250E-03 0.00000E+00
 -1        60 5.20833E-03 1.95312E-03 0.00000E+00
 -1        61 6.25000E-03 2.34375E-03 0.00000E+00
 -1        62 7.29167E-03 2.73438E-03 0.00000E+00
 -1        63 8.33333E-03 3.12500E-03 0.00000E+00
 -1        64 9.37500E-03 3.51563E-03 0.00000E+00
 -1        65 1.04167E-02 3.90625E-03 0.00000E+00
 -1        66 1.14583E-02 4.29688E-03 0.00000E+00
 -1        67 1.25000E-02 4.68750E-03 0.00000E+00
 -1        68 1.35417E-02 5.07813E-03 0.00000E+00
 -1        69 1.45833E-02 5.46875E-03 0.00000E+00
 -1        70 1.56250E-02 5.85938E-03 0.00000E+00
 -1        86 1.66667E-02 1.04167E-03 0.00000E+00
 -1        87 1.66667E-02 2.08333E-03 0.00000E+00
 -1        88 1.66667E-02 3.12500E-03 0.00000E+00
 -1        89 1.66667E-02 4.16667E-03 0.00000E+00
 -1        90 1.66667E-02 5.20833E-03 0.00000E+00
 -1       121 3.33333E-02 1.04167E-03 0.00000E+00
 -1       122 3.33333E-02 2.08333E-03 0.00000E+00
 -1       123 3.33333E-02 3.12500E-03 0.00000E+00
 -1       124 3.33333E-02 4.16667E-03 0.00000E+00
 -1       125 3.33333E-02 5.20833E-03 0.00000E+00
 -1       191 6.66667E-02 1.04167E-03 0.00000E+00
 -1       192 6.66667E-02 2.08333E-03 0.00000E+00
 -1       193 6.66667E-02 3.12500E-03 0.00000E+00
 -1       194 6.66667E-02 4.16667E-03 0.00000E+00
 -1       195 6.66667E-02 5.20833E-03 0.00000E+00
 -1       251 1.04167E-03 6.25000E-03 0.00000E+00
 -1       252 2.08333E-03 6.25000E-03 0.00000E+00
 -1       253 3.12500E-03 6.25000E-03 0.00000E+00
 -1       254 4.16667E-03 6.25000E-03 0.00000E+00
 -1       255 5.20833E-03 6.25000E-03 0.00000E+00
 -1       256 6.25000E-03 6.25000E-03 0.00000E+00
 -1       257 7.29167E-03 6.25000E-03 0.00000E+00
 -1       258 8.33333E-03 6.25000E-03 0.00000E+00
 -1       259 9.37500E-03 6.25000E-03 0.00000E+00
 -1       260 1.04167E-02 6.25000E-03 0.00000E+00
 -1       261 1.14583E-02 6.25000E-03 0.00000E+00
 -1       262 1.25000E-02 6.25000E-03 0.00000E+00
 -1       263 1.35417E-02 6.25000E-03 0.00000E+00
 -1       264 1.45833E-02 6.25000E-03 0.00000E+00
 -1       265 1.56250E-02 6.25000E-03 0.00000E+00
 -1       266 0.00000E+00 7.29167E-03 0.00000E+00
 -1       267 0.00000E+00 8.33333E-03 0.00000E+00
 -1       268 0.00000E+00 9.37500E-03 0.00000E+00
 -1       269 0.00000E+00 1.04167E-02 0.00000E+00
 -1       270 0.00000E+00 1.14583E-02 0.00000E+00
 -1       271 1.04167E-03 6.64063E-03 0.00000E+00
 -1       272 2.08333E-03 7.03125E-03 0.00000E+00
 -1       273 3.12500E-03 7.42188E-03 0.00000E+00
 -1       274 4.16667E-03 7.81250E-03 0.00000E+00
 -1       275 5.20833E-03 8.20313E-03 0.00000E+00
 -1       276 6.25000E-03 8.59375E-03 0.00000E+00
 -1       277 7.29167E-03 8.98438E-03 0.00000E+00
 -1       278 8.33333E-03 9.37500E-03 0.00000E+00
 -1       279 9.37500E-03 9.76562E-03 0.00000E+00
 -1       280 1.04167E-02 1.01562E-02 0.00000E+00
 -1       281 1.14583E-02 1.05469E-02 0.00000E+00
 -1       282 1.25000E-02 1.09375E-02 0.00000E+00
 -1       283 1.35417E-02 1.13281E-02 0.00000E+00
 -1       284 1.45833E-02 1.17188E-02 0.00000E+00
 -1       285 1.56250E-02 1.21094E-02 0.00000E+00
 -1       301 1.66667E-02 7.29167E-03 0.00000E+00
 -1       302 1.66667E-02 8.33333E-03 0.00000E+00
 -1       303 1.66667E-02 9.37500E-03 0.00000E+00
 -1       304 1.66667E-02 1.04167E-02 0.00000E+00
 -1       305 1.66667E-02 1.14583E-02 0.00000E+00
 -1       306 1.77083E-02 6.64063E-03 0.00000E+00
 -1       307 1.87500E-02 7.03125E-03 0.00000E+00
 -1       308 1.97917E-02 7.42188E-03 0.00000E+00
 -1       309 2.08333E-02 7.81250E-03 0.00000E+00
 -1       310 2.18750E-02 8.20313E-03 0.00000E+00
 -1       311 2.29167E-02 8.59375E-03 0.00000E+00
 -1       312 2.39583E-02 8.98438E-03 0.00000E+00
 -1       313 2.50000E-02 9.37500E-03 0.00000E+00
 -1       314 2.60417E-02 9.76562E-03 0.00000E+00
 -1       315 2.70833E-02 1.01562E-02 0.00000E+00
 -1       316 2.81250E-02 1.05469E-02 0.00000E+00
 -1       317 2.91667E-02 1.09375E-02 0.00000E+00
 -1       318 3.02083E-02 1.13281E-02 0.00000E+00
 -1       319 3.12500E-02 1.17188E-02 0.00000E+00
 -1       320 3.22917E-02 1.21094E-02 0.00000E+00
 -1       336 3.33333E-02 7.29167E-03 0.00000E+00
 -1       337 3.33333E-02 8.33333E-03 0.00000E+00
 -1       338 3.33333E-02 9.37500E-03 0.00000E+00
 -1       339 3.33333E-02 1.04167E-02 0.00000E+00
 -1       340 3.33333E-02 1.14583E-02 0.00000E+00
 -1       406 6.66667E-02 7.29167E-03 0.00000E+00
 -1       407 6.66667E-02 8.33333E-03 0.00000E+00
 -1       408 6.66667E-02 9.37500E-03 0.00000E+00
 -1       409 6.66667E-02 1.04167E-02 0.00000E+00
 -1       410 6.66667E-02 1.14583E-02 0.00000E+00
 -1       521 1.77083E-02 1.28906E-02 0.00000E+00
 -1       522 1.87500E-02 1.32813E-02 0.00000E+00
 -1       523 1.97917E-02 1.36719E-02 0.00000E+00
 -1       524 2.08333E-02 1.40625E-02 0.00000E+00
 -1       525 2.18750E-02 1.44531E-02 0.00000E+00
 -1       526 2.29167E-02 1.48437E-02 0.00000E+00
 -1       527 2.39583E-02 1.52344E-02 0.00000E+00
 -1       528 2.50000E-02 1.56250E-02 0.00000E+00
 -1       529 2.60417E-02 1.60156E-02 0.00000E+00
 -1       530 2.70833E-02 1.64062E-02 0.00000E+00
 -1       531 2.81250E-02 1.67969E-02 0.00000E+00
 -1       532 2.91667E-02 1.71875E-02 0.00000E+00
 -1       533 3.02083E-02 1.75781E-02 0.00000E+00
 -1       534 3.12500E-02 1.79687E-02 0.00000E+00
 -1       535 3.22917E-02 1.83594E-02 0.00000E+00
 -1       536 3.43750E-02 1.25000E-02 0.00000E+00
 -1       537 3.54167E-02 1.25000E-02 0.00000E+00
 -1       538 3.64583E-02 1.25000E-02 0.00000E+00
 -1       539 3.75000E-02 1.25000E-02 0.00000E+00
 -1       540 3.85417E-02 1.25000E-02 0.00000E+00
 -1       541 3.95833E-02 1.25000E-02 0.00000E+00
 -1       542 4.06250E-02 1.25000E-02 0.00000E+00
 -1       543 4.16667E-02 1.25000E-02 0.00000E+00
 -1       544 4.27083E-02 1.25000E-02 0.00000E+00
 -1       545 4.37500E-02 1.25000E-02 0.00000E+00
 -1       546 4.47917E-02 1.25000E-02 0.00000E+00
 -1       547 4.58333E-02 1.25000E-02 0.00000E+00
 -1       548 4.68750E-02 1.25000E-02 0.00000E+00
 -1       549 4.79167E-02 1.25000E-02 0.00000E+00
 -1       550 4.89583E-02 1.25000E-02 0.00000E+00
 -1       551 3.33333E-02 1.35417E-02 0.00000E+00
 -1       552 3.33333E-02 1.45833E-02 0.00000E+00
 -1       553 3.33333E-02 1.56250E-02 0.00000E+00
 -1       554 3.33333E-02 1.66667E-02 0.00000E+00
 -1       555 3.33333E-02 1.77083E-02 0.00000E+00
 -1       556 3.43750E-02 1.28906E-02 0.00000E+00
 -1       557 3.54167E-02 1.32813E-02 0.00000E+00
 -1       558 3.64583E-02 1.36719E-02 0.00000E+00
 -1       559 3.75000E-02 1.40625E-02 0.00000E+00
 -1       560 3.85417E-02 1.44531E-02 0.00000E+00
 -1       561 3.95833E-02 1.48437E-02 0.00000E+00
 -1       562 4.06250E-02 1.52344E-02 0.00000E+00
 -1       563 4.16667E-02 1.56250E-02 0.00000E+00
 -1       564 4.27083E-02 1.60156E-02 0.00000E+00
 -1       565 4.37500E-02 1.64062E-02 0.00000E+00
 -1       566 4.47917E-02 1.67969E-02 0.00000E+00
 -1       567 4.58333E-02 1.71875E-02 0.00000E+00
 -1       568 4.68750E-02 1.75781E-02 0.00000E+00
 -1       569 4.79167E-02 1.79687E-02 0.00000E+00
 -1       570 4.89583E-02 1.83594E-02 0.00000E+00
 -1       571 5.10417E-02 1.25000E-02 0.00000E+00
 -1       572 5.20833E-02 1.25000E-02 0.00000E+00
 -1       573 5.31250E-02 1.25000E-02 0.00000E+00
 -1       574 5.41667E-02 1.25000E-02 0.00000E+00
 -1       575 5.52083E-02 1.25000E-02 0.00000E+00
 -1       576 5.62500E-02 1.25000E-02 0.00000E+00
 -1       577 5.72917E-02 1.25000E-02 0.00000E+00
 -1       578 5.83333E-02 1.25000E-02 0.00000E+00
 -1       579 5.93750E-02 1.25000E-02 0.00000E+00
 -1       580 6.04167E-02 1.25000E-02 0.00000E+00
 -1       581 6.14583E-02 1.25000E-02 0.00000E+00
 -1       582 6.25000E-02 1.25000E-02 0.00000E+00
 -1       583 6.35417E-02 1.25000E-02 0.00000E+00
 -1       584 6.45833E-02 1.25000E-02 0.00000E+00
 -1       585 6.56250E-02 1.25000E-02 0.00000E+00
 -1       586 5.00000E-02 1.35417E-02 0.00000E+00
 -1       587 5.00000E-02 1.45833E-02 0.00000E+00
 -1       588 5.00000E-02 1.56250E-02 0.00000E+00
 -1       589 5.00000E-02 1.66667E-02 0.00000E+00
 -1       590 5.00000E-02 1.77083E-02 0.00000E+00
 -1       591 5.10417E-02 1.28906E-02 0.00000E+00
 -1       592 5.20833E-02 1.32813E-02 0.00000E+00
 -1       593 5.31250E-02 1.36719E-02 0.00000E+00
 -1       594 5.41667E-02 1.40625E-02 0.00000E+00
 -1       595 5.52083E-02 1.44531E-02 0.00000E+00
 -1       596 5.62500E-02 1.48437E-02 0.00000E+00
 -1       597 5.72917E-02 1.52344E-02 0.00000E+00
 -1       598 5.83333E-02 1.56250E-02 0.00000E+00
 -1       599 5.93750E-02 1.60156E-02 0.00000E+00
 -1       600 6.04167E-02 1.64062E-02 0.00000E+00
 -1       601 6.14583E-02 1.67969E-02 0.00000E+00
 -1       602 6.25000E-02 1.71875E-02 0.00000E+00
 -1       603 6.35417E-02 1.75781E-02 0.00000E+00
 -1       604 6.45833E-02 1.79687E-02 0.00000E+00
 -1       605 6.56250E-02 1.83594E-02 0.00000E+00
 -1       606 6.77083E-02 1.25000E-02 0.00000E+00
 -1       607 6.87500E-02 1.25000E-02 0.00000E+00
 -1       608 6.97917E-02 1.25000E-02 0.00000E+00
 -1       609 7.08333E-02 1.25000E-02 0.00000E+00
 -1       610 7.18750E-02 1.25000E-02 0.00000E+00
 -1       611 7.29167E-02 1.25000E-02 0.00000E+00
 -1       612 7.39583E-02 1.25000E-02 0.00000E+00
 -1       613 7.50000E-02 1.25000E-02 0.00000E+00
 -1       614 7.60417E-02 1.25000E-02 0.00000E+00
 -1       615 7.70833E-02 1.25000E-02 0.00000E+00
 -1       616 7.81250E-02 1.25000E-02 0.00000E+00
 -1       617 7.91667E-02 1.25000E-02 0.00000E+00
 -1       618 8.02083E-02 1.25000E-02 0.00000E+00
 -1       619 8.12500E-02 1.25000E-02 0.00000E+00
 -1       620 8.22917E-02 1.25000E-02 0.00000E+00
 -1       621 6.66667E-02 1.35417E-02 0.00000E+00
 -1       622 6.66667E-02 1.45833E-02 0.00000E+00
 -1       623 6.66667E-02 1.56250E-02 0.00000E+00
 -1       624 6.66667E-02 1.66667E-02 0.00000E+00
 -1       625 6.66667E-02 1.77083E-02 0.00000E+00
 -1       626 6.77083E-02 1.28906E-02 0.00000E+00
 -1       627 6.87500E-02 1.32813E-02 0.00000E+00
 -1       628 6.97917E-02 1.36719E-02 0.00000E+00
 -1       629 7.08333E-02 1.40625E-02 0.00000E+00
 -1       630 7.18750E-02 1.44531E-02 0.00000E+00
 -1       631 7.29167E-02 1.48437E-02 0.00000E+00
 -1       632 7.39583E-02 1.52344E-02 0.00000E+00
 -1       633 7.50000E-02 1.56250E-02 0.00000E+00
 -1       634 7.60417E-02 1.60156E-02 0.00000E+00
 -1       635 7.70833E-02 1.64062E-02 0.00000E+00
 -1       636 7.81250E-02 1.67969E-02 0.00000E+00
 -1       637 7.91667E-02 1.71875E-02 0.00000E+00
 -1       638 8.02083E-02 1.75781E-02 0.00000E+00
 -1       639 8.12500E-02 1.79687E-02 0.00000E+00
 -1       640 8.22917E-02 1.83594E-02 0.00000E+00
 -1       656 8.33333E-02 1.35417E-02 0.00000E+00
 -1       657 8.33333E-02 1.45833E-02 0.00000E+00
 -1       658 8.33333E-02 1.56250E-02 0.00000E+00
 -1       659 8.33333E-02 1.66667E-02 0.00000E+00
 -1       660 8.33333E-02 1.77083E-02 0.00000E+00
 -1       661 8.43750E-02 1.28906E-02 0.00000E+00
 -1       662 8.54167E-02 1.32813E-02 0.00000E+00
 -1       663 8.64583E-02 1.36719E-02 0.00000E+00
 -1       664 8.75000E-02 1.40625E-02 0.00000E+00
 -1       665 8.85417E-02 1.44531E-02 0.00000E+00
 -1       666 8.95833E-02 1.48437E-02 0.00000E+00
 -1       667 9.06250E-02 1.52344E-02 0.00000E+00
 -1       668 9.16667E-02 1.56250E-02 0.00000E+00
 -1       669 9.27083E-02 1.60156E-02 0.00000E+00
 -1       670 9.37500E-02 1.64062E-02 0.00000E+00
 -1       671 9.47917E-02 1.67969E-02 0.00000E+00
 -1       672 9.58333E-02 1.71875E-02 0.00000E+00
 -1       673 9.68750E-02 1.75781E-02 0.00000E+00
 -1       674 9.79167E-02 1.79687E-02 0.00000E+00
 -1       675 9.89583E-02 1.83594E-02 0.00000E+00
 -1       676 1.00000E-01 1.35417E-02 0.00000E+00
 -1       677 1.00000E-01 1.45833E-02 0.00000E+00
 -1       678 1.00000E-01 1.56250E-02 0.00000E+00
 -1       679 1.00000E-01 1.66667E-02 0.00000E+00
 -1       680 1.00000E-01 1.77083E-02 0.00000E+00
 -1       771 3.43750E-02 1.91406E-02 0.00000E+00
 -1       772 3.54167E-02 1.95312E-02 0.00000E+00
 -1       773 3.64583E-02 1.99219E-02 0.00000E+00
 -1       774 3.75000E-02 2.03125E-02 0.00000E+00
 -1       775 3.85417E-02 2.07031E-02 0.00000E+00
 -1       776 3.95833E-02 2.10938E-02 0.00000E+00
 -1       777 4.06250E-02 2.14844E-02 0.00000E+00
 -1       778 4.16667E-02 2.18750E-02 0.00000E+00
 -1       779 4.27083E-02 2.22656E-02 0.00000E+00
 -1       780 4.37500E-02 2.26563E-02 0.00000E+00
 -1       781 4.47917E-02 2.30469E-02 0.00000E+00
 -1       782 4.58333E-02 2.34375E-02 0.00000E+00
 -1       783 4.68750E-02 2.38281E-02 0.00000E+00
 -1       784 4.79167E-02 2.42187E-02 0.00000E+00
 -1       785 4.89583E-02 2.46094E-02 0.00000E+00
 -1       786 5.10417E-02 1.87500E-02 0.00000E+00
 -1       787 5.20833E-02 1.87500E-02 0.00000E+00
 -1       788 5.31250E-02 1.87500E-02 0.00000E+00
 -1       789 5.41667E-02 1.87500E-02 0.00000E+00
 -1       790 5.52083E-02 1.87500E-02 0.00000E+00
 -1       791 5.62500E-02 1.87500E-02 0.00000E+00
 -1       792 5.72917E-02 1.87500E-02 0.00000E+00
 -1       793 5.83333E-02 1.87500E-02 0.00000E+00
 -1       794 5.93750E-02 1.87500E-02 0.00000E+00
 -1       795 6.04167E-02 1.87500E-02 0.00000E+00
 -1       796 6.14583E-02 1.87500E-02 0.00000E+00
 -1       797 6.25000E-02 1.87500E-02 0.00000E+00
 -1       798 6.35417E-02 1.87500E-02 0.00000E+00
 -1       799 6.45833E-02 1.87500E-02 0.00000E+00
 -1       800 6.56250E-02 1.87500E-02 0.00000E+00
 -1       801 5.00000E-02 1.97917E-02 0.00000E+00
 -1       802 5.00000E-02 2.08333E-02 0.00000E+00
 -1       803 5.00000E-02 2.18750E-02 0.00000E+00
 -1       804 5.00000E-02 2.29167E-02 0.00000E+00
 -1       805 5.00000E-02 2.39583E-02 0.00000E+00
 -1       806 5.10417E-02 1.91406E-02 0.00000E+00
 -1       807 5.20833E-02 1.95312E-02 0.00000E+00
 -1       808 5.31250E-02 1.99219E-02 0.00000E+00
 -1       809 5.41667E-02 2.03125E-02 0.00000E+00
 -1       810 5.52083E-02 2.07031E-02 0.00000E+00
 -1       811 5.62500E-02 2.10938E-02 0.00000E+00
 -1       812 5.72917E-02 2.14844E-02 0.00000E+00
 -1       813 5.83333E-02 2.18750E-02 0.00000E+00
 -1       814 5.93750E-02 2.22656E-02 0.00000E+00
 -1       815 6.04167E-02 2.26563E-02 0.00000E+00
 -1       816 6.14583E-02 2.30469E-02 0.00000E+00
 -1       817 6.25000E-02 2.34375E-02 0.00000E+00
 -1       818 6.35417E-02 2.38281E-02 0.00000E+00
 -1       819 6.45833E-02 2.42187E-02 0.00000E+00
 -1       820 6.56250E-02 2.46094E-02 0.00000E+00
 -1       821 6.77083E-02 1.87500E-02 0.00000E+00
 -1       822 6.87500E-02 1.87500E-02 0.00000E+00
 -1       823 6.97917E-02 1.87500E-02 0.00000E+00
 -1       824 7.08333E-02 1.87500E-02 0.00000E+00
 -1       825 7.18750E-02 1.87500E-02 0.00000E+00
 -1       826 7.29167E-02 1.87500E-02 0.00000E+00
 -1       827 7.39583E-02 1.87500E-02 0.00000E+00
 -1       828 7.50000E-02 1.87500E-02 0.00000E+00
 -1       829 7.60417E-02 1.87500E-02 0.00000E+00
 -1       830 7.70833E-02 1.87500E-02 0.00000E+00
 -1       831 7.81250E-02 1.87500E-02 0.00000E+00
 -1       832 7.91667E-02 1.87500E-02 0.00000E+00
 -1       833 8.02083E-02 1.87500E-02 0.00000E+00
 -1       834 8.12500E-02 1.87500E-02 0.00000E+00
 -1       835 8.22917E-02 1.87500E-02 0.00000E+00
 -1       836 6.66667E-02 1.97917E-02 0.00000E+00
 -1       837 6.66667E-02 2.08333E-02 0.00000E+00
 -1       838 6.66667E-02 2.18750E-02 0.00000E+00
 -1       839 6.66667E-02 2.29167E-02 0.00000E+00
 -1       840 6.66667E-02 2.39583E-02 0.00000E+00
 -1       856 8.43750E-02 1.87500E-02 0.00000E+00
 -1       857 8.54167E-02 1.87500E-02 0.00000E+00
 -1       858 8.64583E-02 1.87500E-02 0.00000E+00
 -1       859 8.75000E-02 1.87500E-02 0.00000E+00
 -1       860 8.85417E-02 1.87500E-02 0.00000E+00
 -1       861 8.95833E-02 1.87500E-02 0.00000E+00
 -1       862 9.06250E-02 1.87500E-02 0.00000E+00
 -1       863 9.16667E-02 1.87500E-02 0.00000E+00
 -1       864 9.27083E-02 1.87500E-02 0.00000E+00
 -1       865 9.37500E-02 1.87500E-02 0.00000E+00
 -1       866 9.47917E-02 1.87500E-02 0.00000E+00
 -1       867 9.58333E-02 1.87500E-02 0.00000E+00
 -1       868 9.68750E-02 1.87500E-02 0.00000E+00
 -1       869 9.79167E-02 1.87500E-02 0.00000E+00
 -1       870 9.89583E-02 1.87500E-02 0.00000E+00
 -1       871 8.33333E-02 1.97917E-02 0.00000E+00
 -1       872 8.33333E-02 2.08333E-02 0.00000E+00
 -1       873 8.33333E-02 2.18750E-02 0.00000E+00
 -1       874 8.33333E-02 2.29167E-02 0.00000E+00
 -1       875 8.33333E-02 2.39583E-02 0.00000E+00
 -1       876 8.43750E-02 1.91406E-02 0.00000E+00
 -1       877 8.54167E-02 1.95312E-02 0.00000E+00
 -1       878 8.64583E-02 1.99219E-02 0.00000E+00
 -1       879 8.75000E-02 2.03125E-02 0.00000E+00
 -1       880 8.85417E-02 2.07031E-02 0.00000E+00
 -1       881 8.95833E-02 2.10938E-02 0.00000E+00
 -1       882 9.06250E-02 2.14844E-02 0.00000E+00
 -1       883 9.16667E-02 2.18750E-02 0.00000E+00
 -1       884 9.27083E-02 2.22656E-02 0.00000E+00
 -1       885 9.37500E-02 2.26563E-02 0.00000E+00
 -1       886 9.47917E-02 2.30469E-02 0.00000E+00
 -1       887 9.58333E-02 2.34375E-02 0.00000E+00
 -1       888 9.68750E-02 2.38281E-02 0.00000E+00
 -1       889 9.79167E-02 2.42187E-02 0.00000E+00
 -1       890 9.89583E-02 2.46094E-02 0.00000E+00
 -1       891 1.00000E-01 1.97917E-02 0.00000E+00
 -1       892 1.00000E-01 2.08333E-02 0.00000E+00
 -1       893 1.00000E-01 2.18750E-02 0.00000E+00
 -1       894 1.00000E-01 2.29167E-02 0.00000E+00
 -1       895 1.00000E-01 2.39583E-02 0.00000E+00
 -1       956 6.77083E-02 2.50000E-02 0.00000E+00
 -1       957 6.87500E-02 2.50000E-02 0.00000E+00
 -1       958 6.97917E-02 2.50000E-02 0.00000E+00
 -1       959 7.08333E-02 2.50000E-02 0.00000E+00
 -1       960 7.18750E-02 2.50000E-02 0.00000E+00
 -1       961 7.29167E-02 2.50000E-02 0.00000E+00
 -1       962 7.39583E-02 2.50000E-02 0.00000E+00
 -1       963 7.50000E-02 2.50000E-02 0.00000E+00
 -1       964 7.60417E-02 2.50000E-02 0.00000E+00
 -1       965 7.70833E-02 2.50000E-02 0.00000E+00
 -1       966 7.81250E-02 2.50000E-02 0.00000E+00
 -1       967 7.91667E-02 2.50000E-02 0.00000E+00
 -1       968 8.02083E-02 2.50000E-02 0.00000E+00
 -1       969 8.12500E-02 2.50000E-02 0.00000E+00
 -1       970 8.22917E-02 2.50000E-02 0.00000E+00
 -1       971 8.43750E-02 2.50000E-02 0.00000E+00
 -1       972 8.54167E-02 2.50000E-02 0.00000E+00
 -1       973 8.64583E-02 2.50000E-02 0.00000E+00
 -1       974 8.75000E-02 2.50000E-02 0.00000E+00
 -1       975 8.85417E-02 2.50000E-02 0.00000E+00
 -1       976 8.95833E-02 2.50000E-02 0.00000E+00
 -1       977 9.06250E-02 2.50000E-02 0.00000E+00
 -1       978 9.16667E-02 2.50000E-02 0.00000E+00
 -1       979 9.27083E-02 2.50000E-02 0.00000E+00
 -1       980 9.37500E-02 2.50000E-02 0.00000E+00
 -1       981 9.47917E-02 2.50000E-02 0.00000E+00
 -1       982 9.58333E-02 2.50000E-02 0.00000E+00
 -1       983 9.68750E-02 2.50000E-02 0.00000E+00
 -1       984 9.79167E-02 2.50000E-02 0.00000E+00
 -1       985 9.89583E-02 2.50000E-02 0.00000E+00
 -3
    3C                           211                                     1
 -1         1   12    0    1
 -2         1        52        51
 -1         2   12    0    1
 -2        52        54        53
 -1         3   12    0    1
 -2        54         8        55
 -1         4   12    0    1
 -2         1        57        56
 -1         5   12    0    1
 -2        57        59        58
 -1         6   12    0    1
 -2        59        61        60
 -1         7   12    0    1
 -2        61        63        62
 -1         8   12    0    1
 -2        63        65        64
 -1         9   12    0    1
 -2        65        67        66
 -1        10   12    0    1
 -2        67        69        68
 -1        11   12    0    1
 -2        69         9        70
 -1        12   12    0    1
 -2         2        87        86
 -1        13   12    0    1
 -2        87        89        88
 -1        14   12    0    1
 -2        89         9        90
 -1        15   12    0    1
 -2         3       122       121
 -1        16   12    0    1
 -2       122       124       123
 -1        17   12    0    1
 -2       124        10       125
 -1        18   12    0    1
 -2         5       192       191
 -1        19   12    0    1
 -2       192       194       193
 -1        20   12    0    1
 -2       194        12       195
 -1        21   12    0    1
 -2         8       252       251
 -1        22   12    0    1
 -2       252       254       253
 -1        23   12    0    1
 -2       254       256       255
 -1        24   12    0    1
 -2       256       258       257
 -1        25   12    0    1
 -2       258       260       259
 -1        26   12    0    1
 -2       260       262       261
 -1        27   12    0    1
 -2       262       264       263
 -1        28   12    0    1
 -2       264         9       265
 -1        29   12    0    1
 -2         8       267       266
 -1        30   12    0    1
 -2       267       269       268
 -1        31   12    0    1
 -2       269        15       270
 -1        32   12    0    1
 -2         8       272       271
 -1        33   12    0    1
 -2       272       274       273
 -1        34   12    0    1
 -2       274       276       275
 -1        35   12    0    1
 -2       276       278       277
 -1        36   12    0    1
 -2       278       280       279
 -1        37   12    0    1
 -2       280       282       281
 -1        38   12    0    1
 -2       282       284       283
 -1        39   12    0    1
 -2       284        16       285
 -1        40   12    0    1
 -2         9       302       301
 -1        41   12    0    1
 -2       302       304       303
 -1        42   12    0    1
 -2       304        16       305
 -1        43   12    0    1
 -2         9       307       306
 -1        44   12    0    1
 -2       307       309       308
 -1        45   12    0    1
 -2       309       311       310
 -1        46   12    0    1
 -2       311       313       312
 -1        47   12    0    1
 -2       313       315       314
 -1        48   12    0    1
 -2       315       317       316
 -1        49   12    0    1
 -2       317       319       318
 -1        50   12    0    1
 -2       319        17       320
 -1        51   12    0    1
 -2        10       337       336
 -1        52   12    0    1
 -2       337       339       338
 -1        53   12    0    1
 -2       339        17       340
 -1        54   12    0    1
 -2        12       407       406
 -1        55   12    0    1
 -2       407       409       408
 -1        56   12    0    1
 -2       409        19       410
 -1        57   12    0    1
 -2        16       522       521
 -1        58   12    0    1
 -2       522       524       523
 -1        59   12    0    1
 -2       524       526       525
 -1        60   12    0    1
 -2       526       528       527
 -1        61   12    0    1
 -2       528       530       529
 -1        62   12    0    1
 -2       530       532       531
 -1        63   12    0    1
 -2       532       534       533
 -1        64   12    0    1
 -2       534        24       535
 -1        65   12    0    1
 -2        17       537       536
 -1        66   12    0    1
 -2       537       539       538
 -1        67   12    0    1
 -2       539       541       540
 -1        68   12    0    1
 -2       541       543       542
 -1        69   12    0    1
 -2       543       545       544
 -1        70   12    0    1
 -2       545       547       546
 -1        71   12    0    1
 -2       547       549       548
 -1        72   12    0    1
 -2       549        18       550
 -1        73   12    0    1
 -2        17       552       551
 -1        74   12    0    1
 -2       552       554       553
 -1        75   12    0    1
 -2       554        24       555
 -1        76   12    0    1
 -2        17       557       556
 -1        77   12    0    1
 -2       557       559       558
 -1        78   12    0    1
 -2       559       561       560
 -1        79   12    0    1
 -2       561       563       562
 -1        80   12    0    1
 -2       563       565       564
 -1        81   12    0    1
 -2       565       567       566
 -1        82   12    0    1
 -2       567       569       568
 -1        83   12    0    1
 -2       569        25       570
 -1        84   12    0    1
 -2        18       572       571
 -1        85   12    0    1
 -2       572       574       573
 -1        86   12    0    1
 -2       574       576       575
 -1        87   12    0    1
 -2       576       578       577
 -1        88   12    0    1
 -2       578       580       579
 -1        89   12    0    1
 -2       580       582       581
 -1        90   12    0    1
 -2       582       584       583
 -1        91   12    0    1
 -2       584        19       585
 -1        92   12    0    1
 -2        18       587       586
 -1        93   12    0    1
 -2       587       589       588
 -1        94   12    0    1
 -2       589        25       590
 -1        95   12    0    1
 -2        18       592       591
 -1        96   12    0    1
 -2       592       594       593
 -1        97   12    0    1
 -2       594       596       595
 -1        98   12    0    1
 -2       596       598       597
 -1        99   12    0    1
 -2       598       600       599
 -1       100   12    0    1
 -2       600       602       601
 -1       101   12    0    1
 -2       602       604       603
 -1       102   12    0    1
 -2       604        26       605
 -1       103   12    0    1
 -2        19       607       606
 -1       104   12    0    1
 -2       607       609       608
 -1       105   12    0    1
 -2       609       611       610
 -1       106   12    0    1
 -2       611       613       612
 -1       107   12    0    1
 -2       613       615       614
 -1       108   12    0    1
 -2       615       617       616
 -1       109   12    0    1
 -2       617       619       618
 -1       110   12    0    1
 -2       619        20       620
 -1       111   12    0    1
 -2        19       622       621
 -1       112   12    0    1
 -2       622       624       623
 -1       113   12    0    1
 -2       624        26       625
 -1       114   12    0    1
 -2        19       627       626
 -1       115   12    0    1
 -2       627       629       628
 -1       116   12    0    1
 -2       629       631       630
 -1       117   12    0    1
 -2       631       633       632
 -1       118   12    0    1
 -2       633       635       634
 -1       119   12    0    1
 -2       635       637       636
 -1       120   12    0    1
 -2       637       639       638
 -1       121   12    0    1
 -2       639        27       640
 -1       122   12    0    1
 -2        20       657       656
 -1       123   12    0    1
 -2       657       659       658
 -1       124   12    0    1
 -2       659        27       660
 -1       125   12    0    1
 -2        20       662       661
 -1       126   12    0    1
 -2       662       664       663
 -1       127   12    0    1
 -2       664       666       665
 -1       128   12    0    1
 -2       666       668       667
 -1       129   12    0    1
 -2       668       670       669
 -1       130   12    0    1
 -2       670       672       671
 -1       131   12    0    1
 -2       672       674       673
 -1       132   12    0    1
 -2       674        28       675
 -1       133   12    0    1
 -2        21       677       676
 -1       134   12    0    1
 -2       677       679       678
 -1       135   12    0    1
 -2       679        28       680
 -1       136   12    0    1
 -2        24       772       771
 -1       137   12    0    1
 -2       772       774       773
 -1       138   12    0    1
 -2       774       776       775
 -1       139   12    0    1
 -2       776       778       777
 -1       140   12    0    1
 -2       778       780       779
 -1       141   12    0    1
 -2       780       782       781
 -1       142   12    0    1
 -2       782       784       783
 -1       143   12    0    1
 -2       784        32       785
 -1       144   12    0    1
 -2        25       787       786
 -1       145   12    0    1
 -2       787       789       788
 -1       146   12    0    1
 -2       789       791       790
 -1       147   12    0    1
 -2       791       793       792
 -1       148   12    0    1
 -2       793       795       794
 -1       149   12    0    1
 -2       795       797       796
 -1       150   12    0    1
 -2       797       799       798
 -1       151   12    0    1
 -2       799        26       800
 -1       152   12    0    1
 -2        25       802       801
 -1       153   12    0    1
 -2       802       804       803
 -1       154   12    0    1
 -2       804        32       805
 -1       155   12    0    1
 -2        25       807       806
 -1       156   12    0    1
 -2       807       809       808
 -1       157   12    0    1
 -2       809       811       810
 -1       158   12    0    1
 -2       811       813       812
 -1       159   12    0    1
 -2       813       815       814
 -1       160   12    0    1
 -2       815       817       816
 -1       161   12    0    1
 -2       817       819       818
 -1       162   12    0    1
 -2       819        33       820
 -1       163   12    0    1
 -2        26       822       821
 -1       164   12    0    1
 -2       822       824       823
 -1       165   12    0    1
 -2       824       826       825
 -1       166   12    0    1
 -2       826       828       827
 -1       167   12    0    1
 -2       828       830       829
 -1       168   12    0    1
 -2       830       832       831
 -1       169   12    0    1
 -2       832       834       833
 -1       170   12    0    1
 -2       834        27       835
 -1       171   12    0    1
 -2        26       837       836
 -1       172   12    0    1
 -2       837       839       838
 -1       173   12    0    1
 -2       839        33       840
 -1       174   12    0    1
 -2        27       857       856
 -1       175   12    0    1
 -2       857       859       858
 -1       176   12    0    1
 -2       859       861       860
 -1       177   12    0    1
 -2       861       863       862
 -1       178   12    0    1
 -2       863       865       864
 -1       179   12    0    1
 -2       865       867       866
 -1       180   12    0    1
 -2       867       869       868
 -1       181   12    0    1
 -2       869        28       870
 -1       182   12    0    1
 -2        27       872       871
 -1       183   12    0    1
 -2       872       874       873
 -1       184   12    0    1
 -2       874        34       875
 -1       185   12    0    1
 -2        27       877       876
 -1       186   12    0    1
 -2       877       879       878
 -1       187   12    0    1
 -2       879       881       880
 -1       188   12    0    1
 -2       881       883       882
 -1       189   12    0    1
 -2       883       885       884
 -1       190   12    0    1
 -2       885       887       886
 -1       191   12    0    1
 -2       887       889       888
 -1       192   12    0    1
 -2       889        35       890
 -1       193   12    0    1
 -2        28       892       891
 -1       194   12    0    1
 -2       892       894       893
 -1       195   12    0    1
 -2       894        35       895
 -1       196   12    0    1
 -2        33       957       956
 -1       197   12    0    1
 -2       957       959       958
 -1       198   12    0    1
 -2       959       961       960
 -1       199   12    0    1
 -2       961       963       962
 -1       200   12    0    1
 -2       963       965       964
 -1       201   12    0    1
 -2       965       967       966
 -1       202   12    0    1
 -2       967       969       968
 -1       203   12    0    1
 -2       969        34       970
 -1       204   12    0    1
 -2        34       972       971
 -1       205   12    0    1
 -2       972       974       973
 -1       206   12    0    1
 -2       974       976       975
 -1       207   12    0    1
 -2       976       978       977
 -1       208   12    0    1
 -2       978       980       979
 -1       209   12    0    1
 -2       980       982       981
 -1       210   12    0    1
 -2       982       984       983
 -1       211   12    0    1
 -2       984        35       985
 -3
    1PSTEP                         1           1           1          
  100CL  101 2.50000E-01         409                     0    1           1
 -4  DISP        4    1
 -5  D1          1    2    1    0
 -5  D2          1    2    2    0
 -5  D3          1    2    3    0
 -5  ALL         1    2    0    0    1ALL
 -1         1 6.52357E-05 0.00000E+00 0.00000E+00
 -1         2 6.02683E-05 1.96651E-29-1.65436E-24
 -1         3 5.54704E-05-2.58745E-27 0.00000E+00
 -1         5 4.00370E-05 5.02281E-26 1.65436E-24
 -1         8 5.20698E-05-4.68843E-07 0.00000E+00
 -1         9 5.28940E-05 3.09982E-07 0.00000E+00
 -1        10 5.14304E-05-7.59711E-07-1.65436E-24
 -1        12 3.97504E-05 2.72223E-07 0.00000E+00
 -1        15 3.64078E-05-5.01461E-07-2.06795E-25
 -1        16 3.76674E-05 2.49391E-07 0.00000E+00
 -1        17 3.83743E-05-1.59168E-06 0.00000E+00
 -1        18 3.83640E-05 7.32068E-08 0.00000E+00
 -1        19 3.88908E-05 5.42973E-07 0.00000E+00
 -1        20 3.89627E-05 8.10195E-06 0.00000E+00
 -1        21 3.86671E-05 1.53403E-05 8.27181E-25
 -1        24 9.81931E-06-2.11650E-06 0.00000E+00
 -1        25 3.74477E-05 1.35459E-07 0.00000E+00
 -1        26 3.79432E-05 7.56577E-07 0.00000E+00
 -1        27 3.71914E-05 6.89135E-06 0.00000E+00
 -1        28 3.69410E-05 1.51075E-05 0.00000E+00
 -1        32 0.00000E+00 0.00000E+00 0.00000E+00
 -1        33 3.63456E-05 1.01476E-06 0.00000E+00
 -1        34 3.56176E-05 6.88055E-06 0.00000E+00
 -1        35 3.49254E-05 1.49821E-05 0.00000E+00
 -1        51 6.43790E-05-7.81424E-08 0.00000E+00
 -1        52 6.27915E-05-1.53929E-07 0.00000E+00
 -1        53 6.06171E-05-2.29961E-07 0.00000E+00
 -1        54 5.80054E-05-3.06949E-07 0.00000E+00
 -1        55 5.51062E-05-3.85420E-07-1.13737E-24
 -1        56 6.46332E-05-3.64433E-07 0.00000E+00
 -1        57 6.40905E-05-9.55869E-07-6.61744E-24
 -1        58 6.36094E-05-1.70797E-06 0.00000E+00
 -1        59 6.31623E-05-2.56244E-06 0.00000E+00
 -1        60 6.27291E-05-3.45441E-06-2.64698E-23
 -1        61 6.22853E-05-4.32004E-06 1.32349E-23
 -1        62 6.18077E-05-5.09601E-06-2.64698E-23
 -1        63 6.12734E-05-5.72063E-06 1.32349E-23
 -1        64 6.06611E-05-6.13704E-06-2.64698E-23
 -1        65 5.99507E-05-6.29162E-06 1.32349E-23
 -1        66 5.91251E-05-6.13920E-06-2.64698E-23
 -1        67 5.81698E-05-5.63929E-06 0.00000E+00
 -1        68 5.70730E-05-4.76290E-06 0.00000E+00
 -1        69 5.58292E-05-3.48557E-06 0.00000E+00
 -1        70 5.44296E-05-1.79856E-06 0.00000E+00
 -1        86 6.00719E-05 5.52422E-08 0.00000E+00
 -1        87 5.94823E-05 1.10043E-07-8.27181E-25
 -1        88 5.84875E-05 1.64492E-07 8.27181E-25
 -1        89 5.70748E-05 2.16620E-07-5.16988E-26
 -1        90 5.52190E-05 2.68671E-07 0.00000E+00
 -1       121 5.53579E-05-1.26284E-07 0.00000E+00
 -1       122 5.50205E-05-2.52620E-07 1.65436E-24
 -1       123 5.44584E-05-3.79058E-07 0.00000E+00
 -1       124 5.36722E-05-5.05669E-07-1.65436E-24
 -1       125 5.26625E-05-6.32468E-07 0.00000E+00
 -1       191 4.00291E-05 4.53736E-08-1.65436E-24
 -1       192 4.00052E-05 9.07464E-08 0.00000E+00
 -1       193 3.99654E-05 1.36119E-07 0.00000E+00
 -1       194 3.99096E-05 1.81490E-07 8.27181E-25
 -1       195 3.98380E-05 2.26858E-07 1.65436E-24
 -1       251 5.21106E-05 1.69855E-06 0.00000E+00
 -1       252 5.21622E-05 2.99387E-06-5.16988E-26
 -1       253 5.22139E-05 3.56002E-06 0.00000E+00
 -1       254 5.22676E-05 3.53819E-06 0.00000E+00
 -1       255 5.23212E-05 3.05294E-06-1.65436E-24
 -1       256 5.23750E-05 2.22777E-06-8.27181E-25
 -1       257 5.24286E-05 1.17652E-06 1.65436E-24
 -1       258 5.24821E-05 1.25218E-08 8.27181E-25
 -1       259 5.25357E-05-1.15415E-06-1.65436E-24
 -1       260 5.25893E-05-2.21339E-06 8.27181E-25
 -1       261 5.26430E-05-3.05202E-06 0.00000E+00
 -1       262 5.26966E-05-3.55640E-06-8.27181E-25
 -1       263 5.27502E-05-3.60336E-06-8.27181E-25
 -1       264 5.28019E-05-3.06868E-06 1.03398E-25
 -1       265 5.28536E-05-1.81168E-06 1.65436E-24
 -1       266 4.94595E-05-4.80770E-07-3.30872E-24
 -1       267 4.68492E-05-4.85415E-07 8.27181E-25
 -1       268 4.42388E-05-4.90522E-07 0.00000E+00
 -1       269 4.16285E-05-4.94262E-07-2.06795E-25
 -1       270 3.90182E-05-4.97970E-07 2.06795E-25
 -1       271 5.04857E-05 1.47059E-06-1.32349E-23
 -1       272 4.91434E-05 2.69248E-06 0.00000E+00
 -1       273 4.80365E-05 3.29161E-06 0.00000E+00
 -1       274 4.71254E-05 3.35769E-06-1.32349E-23
 -1       275 4.63771E-05 2.98900E-06 2.64698E-23
 -1       276 4.57530E-05 2.28664E-06 0.00000E+00
 -1       277 4.52145E-05 1.35553E-06 0.00000E+00
 -1       278 4.47214E-05 3.02646E-07 0.00000E+00
 -1       279 4.42333E-05-7.63744E-07 0.00000E+00
 -1       280 4.37098E-05-1.73522E-06 0.00000E+00
 -1       281 4.31107E-05-2.50441E-06-2.64698E-23
 -1       282 4.23968E-05-2.96587E-06-1.32349E-23
 -1       283 4.15294E-05-3.01747E-06-2.64698E-23
 -1       284 4.04738E-05-2.56020E-06 0.00000E+00
 -1       285 3.91917E-05-1.50232E-06 0.00000E+00
 -1       301 5.03158E-05 2.96767E-07 3.30872E-24
 -1       302 4.77379E-05 2.91360E-07 0.00000E+00
 -1       303 4.51722E-05 2.86179E-07-1.65436E-24
 -1       304 4.26306E-05 2.80129E-07 1.65436E-24
 -1       305 4.01251E-05 2.72853E-07 0.00000E+00
 -1       306 5.12644E-05 2.18897E-06-1.32349E-23
 -1       307 4.98917E-05 3.30528E-06 1.32349E-23
 -1       308 4.87906E-05 3.70468E-06-2.64698E-23
 -1       309 4.79342E-05 3.43794E-06 0.00000E+00
 -1       310 4.72869E-05 2.61274E-06-2.64698E-23
 -1       311 4.68028E-05 1.34883E-06 0.00000E+00
 -1       312 4.64246E-05-1.98478E-07 0.00000E+00
 -1       313 4.60916E-05-1.86714E-06-1.32349E-23
 -1       314 4.57396E-05-3.48510E-06 2.64698E-23
 -1       315 4.53051E-05-4.88156E-06 0.00000E+00
 -1       316 4.47307E-05-5.90389E-06-2.64698E-23
 -1       317 4.39635E-05-6.40845E-06 1.32349E-23
 -1       318 4.29640E-05-6.29339E-06 2.64698E-23
 -1       319 4.17044E-05-5.47012E-06-1.32349E-23
 -1       320 4.01654E-05-3.91090E-06 0.00000E+00
 -1       336 4.99471E-05-8.97258E-07-3.30872E-24
 -1       337 4.81841E-05-1.03543E-06-1.65436E-24
 -1       338 4.61429E-05-1.17407E-06 3.30872E-24
 -1       339 4.38258E-05-1.31310E-06 0.00000E+00
 -1       340 4.12353E-05-1.45279E-06 0.00000E+00
 -1       406 3.96469E-05 3.17581E-07 0.00000E+00
 -1       407 3.95275E-05 3.62923E-07 0.00000E+00
 -1       408 3.93921E-05 4.08234E-07-3.30872E-24
 -1       409 3.92408E-05 4.53461E-07 0.00000E+00
 -1       410 3.90737E-05 4.98512E-07-1.65436E-24
 -1       521 3.54013E-05 1.64678E-06 0.00000E+00
 -1       522 3.34225E-05 2.13081E-06 2.64698E-23
 -1       523 3.17662E-05 1.76548E-06-5.29396E-23
 -1       524 3.03896E-05 6.27767E-07 0.00000E+00
 -1       525 2.92368E-05-1.10912E-06-5.29396E-23
 -1       526 2.82330E-05-3.24952E-06 0.00000E+00
 -1       527 2.72888E-05-5.55008E-06 0.00000E+00
 -1       528 2.63109E-05-7.76112E-06 2.64698E-23
 -1       529 2.52100E-05-9.64311E-06 0.00000E+00
 -1       530 2.39023E-05-1.09708E-05-2.64698E-23
 -1       531 2.23268E-05-1.15834E-05 0.00000E+00
 -1       532 2.04357E-05-1.13505E-05 0.00000E+00
 -1       533 1.82146E-05-1.02406E-05-5.29396E-23
 -1       534 1.56736E-05-8.25627E-06 0.00000E+00
 -1       535 1.28402E-05-5.50833E-06 0.00000E+00
 -1       536 3.83663E-05 1.07178E-06 0.00000E+00
 -1       537 3.83639E-05 3.07435E-06-4.13590E-25
 -1       538 3.83622E-05 4.48479E-06-4.13590E-25
 -1       539 3.83618E-05 5.37186E-06 1.03398E-25
 -1       540 3.83618E-05 5.80412E-06 1.03398E-25
 -1       541 3.83620E-05 5.85009E-06 0.00000E+00
 -1       542 3.83622E-05 5.57811E-06 0.00000E+00
 -1       543 3.83623E-05 5.05650E-06 0.00000E+00
 -1       544 3.83624E-05 4.35342E-06-6.46235E-27
 -1       545 3.83623E-05 3.53702E-06-6.46235E-27
 -1       546 3.83623E-05 2.67542E-06 0.00000E+00
 -1       547 3.83623E-05 1.83670E-06 0.00000E+00
 -1       548 3.83623E-05 1.08897E-06 0.00000E+00
 -1       549 3.83626E-05 5.00322E-07-5.16988E-26
 -1       550 3.83629E-05 1.39000E-07 2.06795E-25
 -1       551 3.45853E-05-1.67258E-06 0.00000E+00
 -1       552 3.00525E-05-1.75518E-06 4.13590E-25
 -1       553 2.50409E-05-1.84011E-06 0.00000E+00
 -1       554 1.98194E-05-1.92735E-06 0.00000E+00
 -1       555 1.46566E-05-2.01576E-06 6.61744E-24
 -1       556 3.73834E-05 9.81263E-07 6.61744E-24
 -1       557 3.66267E-05 2.94599E-06 0.00000E+00
 -1       558 3.60785E-05 4.35876E-06 0.00000E+00
 -1       559 3.57158E-05 5.28020E-06 0.00000E+00
 -1       560 3.55151E-05 5.77080E-06 0.00000E+00
 -1       561 3.54535E-05 5.89134E-06 0.00000E+00
 -1       562 3.55079E-05 5.70265E-06 0.00000E+00
 -1       563 3.56555E-05 5.26559E-06 0.00000E+00
 -1       564 3.58732E-05 4.64107E-06 0.00000E+00
 -1       565 3.61383E-05 3.88998E-06 0.00000E+00
 -1       566 3.64281E-05 3.07325E-06 4.13590E-25
 -1       567 3.67195E-05 2.25182E-06 2.06795E-25
 -1       568 3.69900E-05 1.48660E-06 0.00000E+00
 -1       569 3.72166E-05 8.38435E-07 0.00000E+00
 -1       570 3.73766E-05 3.68215E-07 0.00000E+00
 -1       571 3.83960E-05 1.23484E-07-2.06795E-25
 -1       572 3.84287E-05 1.52054E-07-2.06795E-25
 -1       573 3.84615E-05 1.62778E-07 8.27181E-25
 -1       574 3.84945E-05 1.59725E-07-4.13590E-25
 -1       575 3.85275E-05 1.46977E-07 0.00000E+00
 -1       576 3.85606E-05 1.28648E-07 0.00000E+00
 -1       577 3.85936E-05 1.08850E-07-8.27181E-25
 -1       578 3.86266E-05 9.17025E-08 0.00000E+00
 -1       579 3.86597E-05 8.13228E-08 0.00000E+00
 -1       580 3.86927E-05 8.18292E-08 0.00000E+00
 -1       581 3.87258E-05 9.73391E-08 1.65436E-24
 -1       582 3.87588E-05 1.31965E-07 0.00000E+00
 -1       583 3.87919E-05 1.89816E-07-1.65436E-24
 -1       584 3.88249E-05 2.74958E-07 0.00000E+00
 -1       585 3.88579E-05 3.91434E-07 0.00000E+00
 -1       586 3.81999E-05 8.42347E-08 0.00000E+00
 -1       587 3.80220E-05 9.49818E-08-2.06795E-25
 -1       588 3.78438E-05 1.05609E-07 0.00000E+00
 -1       589 3.76795E-05 1.16066E-07 0.00000E+00
 -1       590 3.75430E-05 1.26237E-07 0.00000E+00
 -1       591 3.83299E-05 1.40171E-07-1.03398E-25
 -1       592 3.83013E-05 1.89143E-07 0.00000E+00
 -1       593 3.82780E-05 2.23545E-07 0.00000E+00
 -1       594 3.82589E-05 2.46463E-07 0.00000E+00
 -1       595 3.82429E-05 2.61022E-07-4.13590E-25
 -1       596 3.82289E-05 2.70325E-07 0.00000E+00
 -1       597 3.82156E-05 2.77473E-07 0.00000E+00
 -1       598 3.82020E-05 2.85563E-07-1.03398E-25
 -1       599 3.81869E-05 2.97695E-07 0.00000E+00
 -1       600 3.81691E-05 3.16966E-07 1.03398E-25
 -1       601 3.81474E-05 3.46474E-07 0.00000E+00
 -1       602 3.81208E-05 3.89322E-07-1.03398E-25
 -1       603 3.80881E-05 4.48610E-07 1.03398E-25
 -1       604 3.80482E-05 5.27465E-07 5.16988E-26
 -1       605 3.79999E-05 6.28973E-07 0.00000E+00
 -1       606 3.88969E-05 7.69585E-07 1.65436E-24
 -1       607 3.89019E-05 1.04340E-06 0.00000E+00
 -1       608 3.89066E-05 1.36166E-06 0.00000E+00
 -1       609 3.89110E-05 1.72123E-06 0.00000E+00
 -1       610 3.89155E-05 2.11897E-06 0.00000E+00
 -1       611 3.89199E-05 2.55171E-06-8.27181E-25
 -1       612 3.89242E-05 3.01624E-06 0.00000E+00
 -1       613 3.89286E-05 3.50940E-06 0.00000E+00
 -1       614 3.89329E-05 4.02797E-06 0.00000E+00
 -1       615 3.89372E-05 4.56878E-06-4.13590E-25
 -1       616 3.89416E-05 5.12864E-06 0.00000E+00
 -1       617 3.89459E-05 5.70436E-06 0.00000E+00
 -1       618 3.89501E-05 6.29273E-06 0.00000E+00
 -1       619 3.89544E-05 6.89058E-06 0.00000E+00
 -1       620 3.89586E-05 7.49472E-06 0.00000E+00
 -1       621 3.87104E-05 5.78600E-07 8.27181E-25
 -1       622 3.85425E-05 6.14399E-07 0.00000E+00
 -1       623 3.83845E-05 6.50192E-07 8.27181E-25
 -1       624 3.82338E-05 6.85929E-07 0.00000E+00
 -1       625 3.80876E-05 7.21603E-07 0.00000E+00
 -1       626 3.88440E-05 7.80795E-07 1.65436E-24
 -1       627 3.87828E-05 1.05772E-06 0.00000E+00
 -1       628 3.87083E-05 1.37012E-06 0.00000E+00
 -1       629 3.86220E-05 1.71414E-06 8.27181E-25
 -1       630 3.85254E-05 2.08591E-06 0.00000E+00
 -1       631 3.84197E-05 2.48152E-06 0.00000E+00
 -1       632 3.83066E-05 2.89708E-06 0.00000E+00
 -1       633 3.81875E-05 3.32869E-06 8.27181E-25
 -1       634 3.80638E-05 3.77245E-06 0.00000E+00
 -1       635 3.79370E-05 4.22446E-06 0.00000E+00
 -1       636 3.78085E-05 4.68083E-06 0.00000E+00
 -1       637 3.76799E-05 5.13764E-06-4.13590E-25
 -1       638 3.75525E-05 5.59101E-06 0.00000E+00
 -1       639 3.74278E-05 6.03703E-06-4.13590E-25
 -1       640 3.73072E-05 6.47179E-06-8.27181E-25
 -1       656 3.84582E-05 7.90502E-06 0.00000E+00
 -1       657 3.81317E-05 7.70018E-06 0.00000E+00
 -1       658 3.79137E-05 7.49597E-06 3.30872E-24
 -1       659 3.77338E-05 7.29192E-06 0.00000E+00
 -1       660 3.75177E-05 7.08722E-06 3.30872E-24
 -1       661 3.87757E-05 8.69746E-06-4.13590E-25
 -1       662 3.85996E-05 9.26849E-06 0.00000E+00
 -1       663 3.84323E-05 9.81541E-06 8.27181E-25
 -1       664 3.82740E-05 1.03392E-05 4.13590E-25
 -1       665 3.81241E-05 1.08408E-05 0.00000E+00
 -1       666 3.79823E-05 1.13208E-05-4.13590E-25
 -1       667 3.78483E-05 1.17803E-05-8.27181E-25
 -1       668 3.77217E-05 1.22198E-05 4.13590E-25
 -1       669 3.76023E-05 1.26403E-05 0.00000E+00
 -1       670 3.74897E-05 1.30424E-05-4.13590E-25
 -1       671 3.73838E-05 1.34269E-05 0.00000E+00
 -1       672 3.72842E-05 1.37945E-05 0.00000E+00
 -1       673 3.71906E-05 1.41457E-05 8.27181E-25
 -1       674 3.71025E-05 1.44813E-05-4.13590E-25
 -1       675 3.70202E-05 1.48020E-05 0.00000E+00
 -1       676 3.83790E-05 1.53013E-05-8.27181E-25
 -1       677 3.80910E-05 1.52623E-05-4.13590E-25
 -1       678 3.78032E-05 1.52233E-05 0.00000E+00
 -1       679 3.75155E-05 1.51844E-05-4.13590E-25
 -1       680 3.72281E-05 1.51456E-05 8.27181E-25
 -1       771 7.87685E-06 1.55761E-06 0.00000E+00
 -1       772 6.18445E-06 4.55739E-06 0.00000E+00
 -1       773 4.73128E-06 6.92344E-06 0.00000E+00
 -1       774 3.50083E-06 8.69808E-06 0.00000E+00
 -1       775 2.47700E-06 9.92410E-06 0.00000E+00
 -1       776 1.64314E-06 1.06451E-05 6.61744E-24
 -1       777 9.82487E-07 1.09051E-05 0.00000E+00
 -1       778 4.78072E-07 1.07487E-05 6.61744E-24
 -1       779 1.12843E-07 1.02212E-05 1.32349E-23
 -1       780-1.30422E-07 9.36789E-06 6.61744E-24
 -1       781-2.68975E-07 8.23482E-06 1.32349E-23
 -1       782-3.20201E-07 6.86824E-06 6.61744E-24
 -1       783-3.01500E-07 5.31460E-06 0.00000E+00
 -1       784-2.30330E-07 3.62070E-06 6.61744E-24
 -1       785-1.24202E-07 1.83342E-06 1.32349E-23
 -1       786 3.74769E-05 1.36162E-07-4.13590E-25
 -1       787 3.75078E-05 1.37420E-07-4.13590E-25
 -1       788 3.75386E-05 1.39850E-07-8.27181E-25
 -1       789 3.75697E-05 1.44069E-07 0.00000E+00
 -1       790 3.76008E-05 1.50820E-07-8.27181E-25
 -1       791 3.76320E-05 1.60853E-07 4.13590E-25
 -1       792 3.76632E-05 1.75143E-07 0.00000E+00
 -1       793 3.76944E-05 1.94677E-07 0.00000E+00
 -1       794 3.77256E-05 2.20808E-07-8.27181E-25
 -1       795 3.77568E-05 2.54899E-07 0.00000E+00
 -1       796 3.77880E-05 2.98872E-07 8.27181E-25
 -1       797 3.78192E-05 3.54667E-07 0.00000E+00
 -1       798 3.78504E-05 4.25052E-07 0.00000E+00
 -1       799 3.78815E-05 5.12817E-07 0.00000E+00
 -1       800 3.79126E-05 6.21978E-07 0.00000E+00
 -1       801 3.49188E-05 1.38279E-07 0.00000E+00
 -1       802 2.73972E-05 1.17023E-07-4.13590E-25
 -1       803 1.75145E-05 7.69288E-08 0.00000E+00
 -1       804 7.90201E-06 3.57732E-08 0.00000E+00
 -1       805 1.18717E-06 1.72334E-08 0.00000E+00
 -1       806 3.74089E-05 1.15272E-07 0.00000E+00
 -1       807 3.73684E-05 9.53123E-08-4.13590E-25
 -1       808 3.73266E-05 7.79994E-08 8.27181E-25
 -1       809 3.72829E-05 6.53831E-08 0.00000E+00
 -1       810 3.72366E-05 5.95093E-08 1.65436E-24
 -1       811 3.71870E-05 6.23936E-08-4.13590E-25
 -1       812 3.71333E-05 7.60494E-08 0.00000E+00
 -1       813 3.70749E-05 1.02485E-07 4.13590E-25
 -1       814 3.70109E-05 1.43710E-07 1.65436E-24
 -1       815 3.69406E-05 2.01730E-07 4.13590E-25
 -1       816 3.68632E-05 2.78551E-07 8.27181E-25
 -1       817 3.67781E-05 3.76180E-07 8.27181E-25
 -1       818 3.66844E-05 4.96621E-07-8.27181E-25
 -1       819 3.65815E-05 6.41872E-07 4.13590E-25
 -1       820 3.64686E-05 8.13934E-07 0.00000E+00
 -1       821 3.78989E-05 9.20533E-07 0.00000E+00
 -1       822 3.78519E-05 1.11784E-06-4.13590E-25
 -1       823 3.78050E-05 1.35324E-06 0.00000E+00
 -1       824 3.77576E-05 1.63141E-06 8.27181E-25
 -1       825 3.77102E-05 1.95269E-06 0.00000E+00
 -1       826 3.76627E-05 2.31733E-06 0.00000E+00
 -1       827 3.76151E-05 2.72119E-06 1.65436E-24
 -1       828 3.75675E-05 3.16005E-06 8.27181E-25
 -1       829 3.75199E-05 3.62613E-06-1.65436E-24
 -1       830 3.74723E-05 4.11160E-06 8.27181E-25
 -1       831 3.74247E-05 4.60668E-06 1.65436E-24
 -1       832 3.73772E-05 5.10155E-06-8.27181E-25
 -1       833 3.73297E-05 5.58642E-06 0.00000E+00
 -1       834 3.72828E-05 6.05151E-06-4.13590E-25
 -1       835 3.72357E-05 6.48906E-06 0.00000E+00
 -1       836 3.77490E-05 7.99551E-07-8.27181E-25
 -1       837 3.74980E-05 8.43481E-07 0.00000E+00
 -1       838 3.72112E-05 8.87332E-07 8.27181E-25
 -1       839 3.69096E-05 9.30904E-07 0.00000E+00
 -1       840 3.66141E-05 9.74408E-07 2.06795E-25
 -1       856 3.71775E-05 7.30405E-06-1.03398E-25
 -1       857 3.71620E-05 7.76927E-06-1.03398E-25
 -1       858 3.71466E-05 8.27866E-06 0.00000E+00
 -1       859 3.71308E-05 8.82390E-06 0.00000E+00
 -1       860 3.71151E-05 9.39660E-06 0.00000E+00
 -1       861 3.70993E-05 9.98836E-06 2.06795E-25
 -1       862 3.70834E-05 1.05908E-05 4.13590E-25
 -1       863 3.70676E-05 1.11955E-05 0.00000E+00
 -1       864 3.70518E-05 1.17941E-05 4.13590E-25
 -1       865 3.70359E-05 1.23781E-05 2.06795E-25
 -1       866 3.70201E-05 1.29391E-05 0.00000E+00
 -1       867 3.70043E-05 1.34688E-05 0.00000E+00
 -1       868 3.69885E-05 1.39589E-05 0.00000E+00
 -1       869 3.69727E-05 1.44009E-05-2.06795E-25
 -1       870 3.69569E-05 1.47865E-05 4.13590E-25
 -1       871 3.68764E-05 6.89096E-06 0.00000E+00
 -1       872 3.66111E-05 6.88953E-06 0.00000E+00
 -1       873 3.63742E-05 6.88791E-06 0.00000E+00
 -1       874 3.61441E-05 6.88605E-06-2.58494E-26
 -1       875 3.58990E-05 6.88395E-06 3.10193E-25
 -1       876 3.70823E-05 7.30790E-06 0.00000E+00
 -1       877 3.69649E-05 7.74956E-06-8.27181E-25
 -1       878 3.68392E-05 8.21333E-06-1.65436E-24
 -1       879 3.67064E-05 8.69643E-06 0.00000E+00
 -1       880 3.65674E-05 9.19603E-06 1.65436E-24
 -1       881 3.64233E-05 9.70934E-06-8.27181E-25
 -1       882 3.62751E-05 1.02336E-05 0.00000E+00
 -1       883 3.61238E-05 1.07660E-05 0.00000E+00
 -1       884 3.59706E-05 1.13037E-05 1.65436E-24
 -1       885 3.58163E-05 1.18440E-05 0.00000E+00
 -1       886 3.56621E-05 1.23840E-05 1.65436E-24
 -1       887 3.55091E-05 1.29210E-05 0.00000E+00
 -1       888 3.53581E-05 1.34522E-05 0.00000E+00
 -1       889 3.52101E-05 1.39748E-05 0.00000E+00
 -1       890 3.50662E-05 1.44859E-05-4.13590E-25
 -1       891 3.66638E-05 1.50866E-05 0.00000E+00
 -1       892 3.63773E-05 1.50655E-05-2.06795E-25
 -1       893 3.60709E-05 1.50444E-05 0.00000E+00
 -1       894 3.57339E-05 1.50234E-05 0.00000E+00
 -1       895 3.53556E-05 1.50024E-05 0.00000E+00
 -1       956 3.63009E-05 1.27436E-06 0.00000E+00
 -1       957 3.62555E-05 1.56311E-06-4.13590E-25
 -1       958 3.62100E-05 1.87796E-06-8.27181E-25
 -1       959 3.61644E-05 2.21572E-06 4.13590E-25
 -1       960 3.61188E-05 2.57318E-06-8.27181E-25
 -1       961 3.60731E-05 2.94709E-06 8.27181E-25
 -1       962 3.60274E-05 3.33424E-06-8.27181E-25
 -1       963 3.59817E-05 3.73138E-06 0.00000E+00
 -1       964 3.59360E-05 4.13529E-06-1.65436E-24
 -1       965 3.58903E-05 4.54272E-06 0.00000E+00
 -1       966 3.58447E-05 4.95044E-06 0.00000E+00
 -1       967 3.57990E-05 5.35523E-06 0.00000E+00
 -1       968 3.57534E-05 5.75385E-06 1.65436E-24
 -1       969 3.57078E-05 6.14307E-06 1.65436E-24
 -1       970 3.56624E-05 6.51967E-06 0.00000E+00
 -1       971 3.55749E-05 7.25113E-06-8.27181E-25
 -1       972 3.55316E-05 7.66014E-06 4.13590E-25
 -1       973 3.54882E-05 8.10336E-06-8.27181E-25
 -1       974 3.54447E-05 8.57642E-06-4.13590E-25
 -1       975 3.54012E-05 9.07493E-06 8.27181E-25
 -1       976 3.53577E-05 9.59450E-06 4.13590E-25
 -1       977 3.53142E-05 1.01307E-05 1.65436E-24
 -1       978 3.52706E-05 1.06792E-05 0.00000E+00
 -1       979 3.52271E-05 1.12356E-05 0.00000E+00
 -1       980 3.51836E-05 1.17955E-05 0.00000E+00
 -1       981 3.51400E-05 1.23545E-05 0.00000E+00
 -1       982 3.50966E-05 1.29082E-05 8.27181E-25
 -1       983 3.50531E-05 1.34521E-05-1.65436E-24
 -1       984 3.50099E-05 1.39820E-05 0.00000E+00
 -1       985 3.49669E-05 1.44934E-05 0.00000E+00
 -3
    1PSTEP                         2           1           1          
  100CL  101 2.50000E-01         409                     0    1           1
 -4  STRESS      6    1
 -5  SXX         1    4    1    1
 -5  SYY         1    4    2    2
 -5  SZZ         1    4    3    3
 -5  SXY         1    4    1    2
 -5  SYZ         1    4    2    3
 -5  SZX         1    4    3    1
 -1         1-8.63906E+05-3.98585E+05-1.75233E+05-5.58306E+05 2.72848E-10-1.01863E-09
 -1         2 1.44473E+03 1.59914E+05 4.70696E+03 2.67228E+02-7.12532E-11 2.99201E-09
 -1         3-1.82475E+01-3.60993E+05 8.29992E+01-6.58653E+01-8.41629E-11-2.25555E-10
 -1         5-2.14302E+00 1.29818E+05 3.39812E+00-5.15160E-02 5.35325E-11-6.63294E-09
 -1         8-4.07008E+05-1.77336E+05-1.38781E+04-3.08515E+05 1.47338E-10 1.25146E-09
 -1         9-6.98526E+05-1.82664E+05-6.93965E+04-2.42747E+05 1.78698E-09 2.78524E-09
 -1        10-2.67806E+02-3.76083E+05-4.78152E+02-4.36341E+02-1.58320E-09 9.24562E-09
 -1        12-7.48090E-01 1.29825E+05 1.10146E+02-1.07161E-01 1.12507E-10 1.25874E-09
 -1        15 1.07553E+03 5.91057E+02 3.47662E+03 1.21404E+00-1.32216E-08-5.27887E-06
 -1        16-1.96249E+06-6.33010E+05-3.05149E+05-6.44102E+05 5.81592E-09-2.99769E-09
 -1        17-4.32433E+05-2.68027E+05-8.31130E+04-2.53402E+05-3.07118E-09-1.66619E-09
 -1        18 1.65509E+04 1.70683E+03-5.83902E+03-3.05406E+04 4.17515E-10 1.81922E-09
 -1        19 4.06969E+04 4.85202E+04-2.24346E+02 7.97823E+03-3.74985E-10 2.96786E-09
 -1        20-1.69181E+04-1.92359E+05-4.24158E+04 1.43324E+04 2.25032E-09-8.29156E-10
 -1        21-1.80002E+01-1.11627E+05-3.56026E+02-2.20554E+01-1.81596E-09 3.55621E-09
 -1        24-1.72164E+06-6.03025E+05-2.45941E+05-7.35749E+05-7.57548E-09-4.80941E-09
 -1        25 1.47530E+04-3.61341E+03 8.70416E+03-5.51267E+04 1.98588E-10 6.03723E-10
 -1        26-9.40770E+03 3.31606E+04-6.58033E+03-4.73049E+03 7.67614E-10 3.44049E-09
 -1        27-3.09209E+04-1.05601E+05-3.96410E+04 2.37886E+04 2.65542E-09 9.75585E-10
 -1        28 8.27897E+03-3.11698E+04 6.31114E+03 9.90566E+03 2.38710E-09 8.28646E-10
 -1        32-4.12955E+05-6.50090E+04 1.76725E+05-2.77038E+05-8.06904E-09 7.96655E-09
 -1        33-6.04049E+04 3.10478E+04 1.10089E+04-1.80209E+04 5.86586E-10 1.16340E-09
 -1        34-7.84421E+04-7.82461E+03 1.84467E+02 2.40427E+04 1.58894E-09-2.10965E-09
 -1        35-8.77929E+03-1.27097E+04-5.75168E+02 1.94542E+04 4.09281E-09-2.37499E-09
 -1        51 8.24138E+03-2.04643E+05 1.98529E+04-5.03528E+05 2.18279E-11 8.73115E-10
 -1        52 3.99436E+03-2.02592E+05 1.30353E+04-5.87269E+05 1.74623E-10 4.05998E-09
 -1        53 2.40205E+03-2.07359E+05 1.13525E+04-5.01825E+05 4.87489E-10 1.19398E-08
 -1        54 7.88660E+03-2.05268E+05 1.82958E+04-5.89086E+05 3.09228E-10 1.82154E-08
 -1        55 1.81377E+04-2.11868E+05 3.29158E+04-5.01616E+05 2.32831E-10 9.92441E-09
 -1        56-1.65949E+06-1.87755E+05-1.29607E+05-6.40153E+05 5.49335E-10 6.59929E-09
 -1        57-1.71218E+06-3.04314E+05-8.73495E+04-6.34463E+05 5.95264E-10 5.48243E-09
 -1        58-1.68526E+06-2.29057E+05-3.05154E+04-6.32355E+05-1.66028E-09 4.46198E-09
 -1        59-1.68238E+06-2.55895E+05-1.82172E+04-6.43835E+05-2.31523E-09-8.28322E-10
 -1        60-1.68905E+06-2.34793E+05-7.13387E+03-6.31279E+05-1.51965E-09 2.60798E-10
 -1        61-1.67827E+06-2.48901E+05-4.05756E+03-6.44765E+05 7.92056E-10 6.27551E-10
 -1        62-1.68931E+06-2.35877E+05-1.95510E+03-6.31480E+05-1.65869E-10-1.29897E-09
 -1        63-1.67859E+06-2.47157E+05-1.61163E+03-6.43821E+05-5.64853E-10-1.34608E-09
 -1        64-1.68870E+06-2.36532E+05-1.84669E+03-6.32214E+05 4.41105E-10-8.87212E-10
 -1        65-1.68061E+06-2.46311E+05-3.70628E+03-6.41867E+05 3.68573E-10-4.28281E-09
 -1        66-1.68728E+06-2.36759E+05-6.51016E+03-6.33407E+05 3.67550E-10 1.54023E-09
 -1        67-1.68654E+06-2.50401E+05-1.65340E+04-6.38405E+05-4.80696E-10-2.71916E-09
 -1        68-1.68278E+06-2.32620E+05-2.77415E+04-6.35602E+05 5.20004E-10-1.66801E-09
 -1        69-1.71551E+06-2.92461E+05-7.93198E+04-6.27710E+05 8.56971E-10-4.73483E-09
 -1        70-1.65852E+06-1.95955E+05-1.17748E+05-6.43646E+05-5.74801E-10 4.78758E-09
 -1        86-7.23811E+02 1.58514E+05 5.05319E+03-1.33621E+02 6.51312E-10 2.92570E-09
 -1        87 4.80649E+03 1.61550E+05 1.05282E+04 5.46811E+02 1.08639E-09 4.08144E-09
 -1        88-4.07566E+03 1.56879E+05 1.61344E+04-4.13203E+02 1.60344E-09-2.35863E-09
 -1        89 3.03759E+04 1.73446E+05 4.34886E+04 1.16545E+03 2.44745E-09-1.07038E-08
 -1        90-2.62094E+04 1.46623E+05 6.14521E+04-7.52085E+02 2.76850E-09-5.04633E-09
 -1       121-3.46433E+01-3.61110E+05 8.29754E+01 3.29132E+01 2.06153E-10 1.40062E-10
 -1       122 9.03304E+00-3.60975E+05 1.81864E+02-1.31878E+02-6.49093E-10 1.56115E-09
 -1       123-5.46909E+01-3.61130E+05 2.99039E+02 9.88516E+01 5.16735E-10-4.53656E-09
 -1       124 3.44652E+02-3.60767E+05 7.64452E+02-3.26936E+02-1.30831E-09-5.64705E-09
 -1       125-2.73397E+02-3.61320E+05 1.17694E+03 2.27993E+02 9.01537E-10-3.21688E-09
 -1       191-2.36266E+00 1.29829E+05 4.07772E+00 2.55979E-02 8.00742E-11-2.90311E-09
 -1       192-2.45489E+00 1.29818E+05 7.19455E+00 1.57107E-01 1.15196E-10-1.45246E-09
 -1       193-3.19216E+00 1.29829E+05 1.33959E+01-1.83828E-01 1.48880E-10-6.62112E-10
 -1       194-3.45871E+00 1.29819E+05 2.72133E+01 4.94889E-01 5.64326E-11-7.36691E-10
 -1       195-4.78671E+00 1.29828E+05 5.32477E+01-3.14198E-01 2.20762E-10-1.75442E-09
 -1       251 1.43061E+05-2.53685E+04 5.93100E+04 2.15004E+03-9.56106E-11-1.81899E-10
 -1       252 1.69620E+05 2.93650E+04 4.20032E+04-7.51033E+03-1.63709E-10 2.00043E-09
 -1       253 1.53169E+05-3.92924E+03 1.53541E+04 1.62183E+03 1.54614E-11-3.75530E-09
 -1       254 1.57755E+05 4.54279E+03 9.68369E+03-6.67110E+03-4.19220E-11-4.15548E-09
 -1       255 1.54893E+05-6.07488E+02 3.96738E+03 1.31093E+03 5.92593E-11-1.05774E-09
 -1       256 1.55705E+05 7.19763E+02 2.40757E+03-6.21025E+03 1.28082E-10 7.06422E-10
 -1       257 1.55203E+05-1.06555E+02 1.24106E+03 1.16097E+03 1.08294E-10-3.29777E-10
 -1       258 1.55391E+05 2.23299E+02 1.10070E+03-6.05845E+03-2.19680E-10 4.12116E-09
 -1       259 1.55202E+05-1.08817E+02 1.26246E+03 1.15913E+03-6.89013E-11 8.04960E-10
 -1       260 1.55713E+05 7.39598E+02 2.46845E+03-6.20342E+03-6.71463E-12-2.31913E-09
 -1       261 1.54886E+05-6.24843E+02 4.07858E+03 1.30593E+03 5.26654E-10 1.77283E-09
 -1       262 1.57814E+05 4.67371E+03 9.95826E+03-6.65636E+03 1.68839E-10-2.97496E-09
 -1       263 1.53116E+05-4.04206E+03 1.57968E+04 1.61208E+03-4.21210E-11-7.33053E-10
 -1       264 1.70006E+05 3.02097E+04 4.32061E+04-7.48673E+03-1.16302E-09 3.81215E-09
 -1       265 1.42726E+05-2.60965E+04 6.10208E+04 2.13618E+03-3.80737E-10-1.11686E-09
 -1       266-1.94708E+04-9.10518E+03 4.56811E+04-2.59758E+01-2.07347E-08-8.30006E-06
 -1       267 2.25718E+04 1.06113E+04 3.22882E+04 2.99725E+01-4.10710E-08-1.64075E-05
 -1       268-3.02685E+03-1.50291E+03 1.20013E+04-3.81890E+00-3.29710E-08-1.31501E-05
 -1       269 3.57381E+03 1.79860E+03 7.80073E+03 4.44856E+00-2.48141E-08-9.90120E-06
 -1       270-5.36433E+02-2.95527E+02 3.76552E+03-6.03677E-01-1.82780E-08-7.30297E-06
 -1       271-1.91281E+06-2.37683E+05-1.47079E+05-7.43903E+05 6.53017E-10 1.28784E-09
 -1       272-1.95253E+06-3.58186E+05-9.45790E+04-7.57832E+05-6.60407E-10-1.87720E-09
 -1       273-1.94047E+06-2.74335E+05-3.47395E+04-7.37396E+05 7.38055E-10-6.54109E-09
 -1       274-1.92037E+06-3.13122E+05-1.94645E+04-7.67742E+05 1.72440E-09 4.18140E-09
 -1       275-1.94456E+06-2.77862E+05-8.08118E+03-7.35964E+05 1.42700E-09 5.62477E-09
 -1       276-1.91557E+06-3.08936E+05-4.30274E+03-7.70033E+05 3.64480E-10 3.71165E-09
 -1       277-1.94541E+06-2.77907E+05-2.10397E+03-7.35436E+05 1.91676E-10 1.01261E-09
 -1       278-1.91474E+06-3.08806E+05-1.53159E+03-7.70665E+05 3.25798E-10-7.09974E-10
 -1       279-1.94546E+06-2.77899E+05-1.64246E+03-7.35406E+05-9.13928E-10-1.67552E-09
 -1       280-1.91530E+06-3.08811E+05-3.00974E+03-7.70181E+05-1.17416E-09-3.96096E-09
 -1       281-1.94479E+06-2.77970E+05-5.49661E+03-7.35862E+05-9.54969E-12-1.81899E-10
 -1       282-1.91880E+06-3.11320E+05-1.31356E+04-7.68242E+05-1.07320E-09-1.35560E-09
 -1       283-1.94181E+06-2.75842E+05-2.34288E+04-7.37081E+05-2.66482E-10-9.27685E-10
 -1       284-1.94096E+06-3.41101E+05-6.37141E+04-7.60837E+05-2.04636E-12-3.16595E-09
 -1       285-1.92281E+06-2.51544E+05-9.91385E+04-7.41870E+05 9.27685E-10-3.46336E-09
 -1       301 7.33931E+03-4.64643E+03 5.73876E+04-1.42746E+04-4.60204E-10 5.34510E-09
 -1       302 7.87877E+03 9.92615E+03 4.14458E+04-2.09906E+04 8.78572E-10 5.60641E-09
 -1       303 3.29868E+02 5.07490E+02 3.81583E+04-1.42960E+04-5.21140E-10-2.37151E-10
 -1       304 1.48777E+04 1.63791E+04 6.41948E+04-2.09354E+04 6.72117E-10-6.51562E-09
 -1       305 1.47495E+04-1.10694E+04 1.07724E+05-1.42995E+04-5.09317E-10-3.16527E-09
 -1       306-2.06384E+06-2.36046E+05-1.57194E+05-8.03066E+05 6.83940E-10-3.95084E-09
 -1       307-2.13863E+06-3.75286E+05-1.07204E+05-7.83194E+05 8.31278E-10-5.52973E-10
 -1       308-2.09863E+06-2.85767E+05-3.69780E+04-7.89347E+05 8.71296E-10 5.07498E-10
 -1       309-2.09627E+06-3.19519E+05-2.24327E+04-8.01767E+05 8.35740E-10 8.69477E-10
 -1       310-2.10603E+06-2.90857E+05-8.67599E+03-7.84844E+05-3.75630E-10-9.14042E-11
 -1       311-2.08688E+06-3.14522E+05-5.04259E+03-8.08140E+05 2.60820E-09 5.27962E-10
 -1       312-2.10806E+06-2.90588E+05-2.46345E+03-7.83065E+05-1.60938E-10 3.51241E-09
 -1       313-2.08512E+06-3.14530E+05-2.22283E+03-8.09650E+05-4.76582E-10-2.78607E-09
 -1       314-2.10781E+06-2.90817E+05-2.66813E+03-7.83356E+05-9.88564E-10-3.84534E-09
 -1       315-2.08789E+06-3.13791E+05-5.63892E+03-8.07009E+05-4.61000E-10-4.26553E-10
 -1       316-2.10525E+06-2.91375E+05-9.80050E+03-7.85669E+05 2.06362E-09 3.09228E-09
 -1       317-2.09877E+06-3.19257E+05-2.53866E+04-7.99578E+05 1.33878E-09 2.64345E-09
 -1       318-2.09690E+06-2.85547E+05-4.18627E+04-7.90690E+05-2.12231E-09 5.53518E-09
 -1       319-2.14639E+06-3.82827E+05-1.21402E+05-7.79068E+05-1.24419E-09 1.19690E-09
 -1       320-2.05783E+06-2.28869E+05-1.77967E+05-8.05796E+05 4.59477E-09-3.79077E-09
 -1       336 2.93860E+02-3.90926E+05-2.06914E+03 2.08175E+02-3.41072E-09 1.71167E-09
 -1       337-7.41706E+02-3.91527E+05-2.26768E+03-5.87295E+02-6.34242E-09-2.23963E-09
 -1       338 1.94787E+02-3.90988E+05-2.84153E+03 3.78314E+02-4.62626E-09-3.28328E-09
 -1       339-2.93723E+03-3.92867E+05-6.22805E+03-9.25161E+02-8.33609E-09 6.56291E-09
 -1       340 2.00983E+03-3.89596E+05-9.58720E+03 5.44312E+02-5.51336E-09 8.06904E-09
 -1       406 7.67854E+00 1.29823E+05 2.17479E+02 4.16745E-01 3.05803E-10-1.52754E-08
 -1       407 7.50708E+01 1.29863E+05 4.62202E+02-5.65671E+00 1.64988E-11-3.52932E-08
 -1       408 2.37174E+02 1.29790E+05 9.23154E+02 5.28878E+00 3.43903E-10-1.93545E-08
 -1       409 9.97477E+02 1.30158E+05 2.07834E+03-4.74588E+01 5.87761E-11-7.04745E-09
 -1       410 2.86728E+03 1.29527E+05 4.24292E+03 4.30808E+01 3.56067E-10-2.21235E-10
 -1       521-3.88767E+06-4.47698E+05-2.90906E+05-1.51036E+06 3.33239E-09-5.16593E-09
 -1       522-4.02703E+06-6.99866E+05-1.97743E+05-1.47276E+06 4.66571E-10-8.24002E-10
 -1       523-3.95241E+06-5.37710E+05-6.83941E+04-1.48460E+06 1.38334E-09-8.18545E-10
 -1       524-3.94826E+06-5.98667E+05-4.12842E+04-1.50753E+06 5.75255E-10 1.02182E-09
 -1       525-3.96595E+06-5.46694E+05-1.59843E+04-1.47634E+06 1.13346E-10 8.79481E-10
 -1       526-3.93215E+06-5.88665E+05-9.22044E+03-1.51782E+06 8.14666E-10-2.18392E-10
 -1       527-3.96852E+06-5.47333E+05-4.42578E+03-1.47447E+06 1.08128E-09 2.36594E-09
 -1       528-3.93219E+06-5.85200E+05-3.79484E+03-1.51645E+06-1.11811E-10-2.90811E-10
 -1       529-3.96585E+06-5.50148E+05-4.44462E+03-1.47769E+06-1.19212E-09 1.41722E-09
 -1       530-3.94188E+06-5.78425E+05-9.08488E+03-1.50584E+06-1.45883E-09 6.09361E-10
 -1       531-3.95869E+06-5.54248E+05-1.59369E+04-1.48496E+06 7.59997E-10 2.38924E-09
 -1       532-3.96509E+06-5.81217E+05-4.09094E+04-1.48756E+06-4.41190E-10-5.37921E-09
 -1       533-3.94268E+06-5.47712E+05-6.78871E+04-1.49584E+06 1.65892E-09-4.91855E-09
 -1       534-4.04566E+06-6.79780E+05-1.96244E+05-1.45130E+06-5.85715E-10 3.06318E-09
 -1       535-3.87882E+06-4.57725E+05-2.88601E+05-1.52062E+06-5.58794E-09 4.16185E-09
 -1       536-4.51321E+03-1.10562E+04 2.54884E+04 2.64402E+02-7.27056E-10 2.16460E-09
 -1       537 7.13566E+03 1.27940E+04 1.81340E+04-1.00697E+03-3.76910E-09 5.51790E-09
 -1       538-1.61281E+02-1.73265E+03 6.57930E+03 2.41955E+02 3.08930E-10 4.15093E-09
 -1       539 2.01449E+03 2.00097E+03 4.18517E+03-9.81111E+02 1.40176E-09 3.62337E-09
 -1       540 6.03524E+02-2.69696E+02 1.66406E+03 2.38546E+02 2.76003E-10 1.24555E-09
 -1       541 1.08628E+03 3.09082E+02 9.86345E+02-9.76305E+02-3.68605E-10 2.92073E-09
 -1       542 7.64281E+02-4.01731E+01 4.01428E+02 2.37146E+02-5.02602E-11 3.19062E-10
 -1       543 8.76414E+02 3.93522E+01 2.02466E+02-9.74184E+02-5.89537E-11-6.88715E-10
 -1       544 8.11711E+02 1.06005E+00 3.68798E+01 2.36425E+02-5.35767E-11-9.84528E-11
 -1       545 7.99529E+02-4.35710E+01-1.00333E+02-9.73314E+02-2.87066E-10-1.32275E-09
 -1       546 8.40408E+02 4.32476E+01-2.44848E+02 2.36276E+02 8.12759E-11-1.43436E-09
 -1       547 6.68588E+02-3.21878E+02-6.53812E+02-9.73539E+02-8.09436E-10-7.01178E-10
 -1       548 9.42811E+02 2.79055E+02-1.06217E+03 2.36649E+02-1.25204E-09-2.10355E-09
 -1       549-9.06856E+01-2.05785E+03-2.90105E+03-9.74301E+02-5.47047E-10-2.49082E-09
 -1       550 1.60079E+03 1.77708E+03-4.12901E+03 2.37037E+02-1.04237E-11 2.85627E-09
 -1       551 2.97860E+03-2.06460E+05 1.16044E+04-3.54335E+05-1.53996E-08-5.10772E-09
 -1       552 5.83892E+03-2.05795E+05 1.48393E+04-5.04110E+05-1.16815E-08-6.87578E-10
 -1       553 3.57781E+03-2.08513E+05 2.31334E+04-3.53226E+05-1.92776E-08 7.03949E-10
 -1       554 1.69033E+04-1.97805E+05 4.91089E+04-5.04590E+05-1.27275E-08 1.37709E-09
 -1       555 1.78836E+04-2.17987E+05 8.83664E+04-3.53734E+05-1.90485E-08-2.80670E-09
 -1       556 2.80277E+04-6.54595E+04 2.29922E+04-8.83032E+04-3.42334E-09-5.12955E-10
 -1       557 5.46718E+04-8.79824E+04 1.20062E+04-1.10209E+05-4.32919E-10 2.40152E-09
 -1       558 2.85021E+04-6.88458E+04 4.95482E+03-8.53532E+04-2.53931E-09 7.87622E-10
 -1       559 5.17135E+04-9.13354E+04 2.48130E+03-1.11358E+05 2.09548E-09-1.59162E-10
 -1       560 2.81479E+04-6.85917E+04 1.07794E+03-8.55376E+04 4.87489E-10 4.23734E-09
 -1       561 5.10032E+04-9.12479E+04 5.49026E+02-1.11797E+05 1.74259E-09 1.44425E-08
 -1       562 2.78292E+04-6.83626E+04 2.30443E+02-8.57722E+04-2.54659E-10 4.22813E-09
 -1       563 5.06109E+04-9.10824E+04 1.27136E+02-1.12047E+05 3.24962E-09 4.20516E-09
 -1       564 2.76297E+04-6.82293E+04 4.80320E+01-8.59164E+04 2.58660E-09 1.75532E-09
 -1       565 5.04100E+04-9.09985E+04 2.00735E+01-1.12171E+05 1.05911E-09 3.30510E-09
 -1       566 2.75628E+04-6.81819E+04-1.78781E+01-8.59668E+04-6.63476E-10 1.64255E-09
 -1       567 5.03775E+04-9.09821E+04-6.78631E+01-1.12158E+05 2.86491E-09-6.60293E-10
 -1       568 2.76456E+04-6.82383E+04-1.69112E+02-8.59397E+04-8.52197E-10 1.66801E-09
 -1       569 5.01748E+04-9.08701E+04-4.00981E+02-1.11719E+05-8.80846E-10 1.77897E-09
 -1       570 2.81595E+04-6.87580E+04-8.13833E+02-8.60318E+04 1.19508E-09-3.16049E-09
 -1       571 9.41963E+04 3.41584E+03 5.05835E+03-2.36050E+04-2.52385E-11 1.10299E-09
 -1       572 9.49507E+04 1.18836E+03 2.47802E+03-2.58752E+04 2.11685E-10 1.17166E-09
 -1       573 9.45030E+04 2.83361E+02 1.10081E+03-2.35434E+04 1.81444E-10 3.18300E-09
 -1       574 9.45935E+04 9.13986E+01 5.51375E+02-2.59444E+04-2.79215E-10 3.51974E-09
 -1       575 9.45393E+04 1.17178E+01 2.59826E+02-2.35352E+04 3.26395E-10 2.24600E-09
 -1       576 9.45459E+04 2.14099E+00 1.32157E+02-2.59537E+04-1.73301E-10-1.49612E-10
 -1       577 9.45446E+04-2.93147E+00 6.50509E+01-2.35342E+04 2.34706E-10 1.07866E-09
 -1       578 9.45401E+04-1.76598E+00 3.53578E+01-2.59548E+04-1.20053E-10 1.88993E-09
 -1       579 9.45480E+04-2.61536E+00 2.15809E+01-2.35342E+04-4.66116E-10-1.99634E-10
 -1       580 9.45437E+04-2.58014E+00 1.99723E+01-2.59533E+04-6.51198E-10 2.63935E-09
 -1       581 9.45530E+04-3.36738E+00 2.71546E+01-2.35357E+04-5.04770E-10 2.68369E-09
 -1       582 9.45550E+04 2.00426E+00 5.14939E+01-2.59391E+04 6.57110E-10 6.55518E-10
 -1       583 9.45576E+04 1.67404E+01 9.91848E+01-2.35483E+04 3.87445E-10 2.13277E-10
 -1       584 9.45969E+04 9.54893E+01 2.22014E+02-2.58339E+04-8.85848E-10-2.35519E-09
 -1       585 9.45394E+04 2.92810E+02 4.51536E+02-2.36410E+04 4.18368E-10 1.92995E-09
 -1       586-1.18439E+03 3.06268E+04-1.55483E+03-8.05460E+04 2.72621E-10-3.68425E-09
 -1       587-2.71448E+02 3.04212E+04-1.90867E+02-8.86344E+04 4.43379E-10 1.85992E-09
 -1       588 3.05583E+02 3.04602E+04 1.06560E+03-8.04970E+04 2.48292E-10 1.21531E-09
 -1       589 1.58682E+03 3.10400E+04 3.12679E+03-8.85610E+04 3.85626E-10-2.48656E-09
 -1       590 4.58949E+03 3.00574E+04 6.70624E+03-8.06197E+04 1.94177E-10 1.10322E-09
 -1       591-2.04309E+04-5.87322E+03-6.83372E+03-1.06210E+04-7.30154E-10-2.07820E-10
 -1       592-2.10684E+04-7.55414E+03-3.70142E+03-1.24060E+04-2.32149E-10-2.63890E-09
 -1       593-2.11216E+04-5.36979E+03-1.54092E+03-1.11141E+04 1.03012E-09 1.04467E-09
 -1       594-2.01157E+04-6.56105E+03-7.68555E+02-1.24531E+04 9.86574E-10-2.89532E-10
 -1       595-2.11743E+04-5.36767E+03-3.53202E+02-1.11367E+04-4.34852E-10-5.77018E-10
 -1       596-2.00510E+04-6.51561E+03-1.80060E+02-1.24462E+04 3.62377E-10 3.68125E-10
 -1       597-2.11809E+04-5.37209E+03-9.91258E+01-1.11375E+04-1.19392E-09 5.58231E-10
 -1       598-2.00449E+04-6.51386E+03-8.16600E+01-1.24444E+04-3.74143E-10 1.38238E-09
 -1       599-2.11806E+04-5.37202E+03-1.06740E+02-1.11374E+04-9.84983E-10-5.14456E-09
 -1       600-2.00521E+04-6.51612E+03-2.00282E+02-1.24463E+04-2.08740E-09-5.23698E-10
 -1       601-2.11725E+04-5.36704E+03-3.96070E+02-1.11362E+04-9.39281E-10 2.52282E-09
 -1       602-2.01250E+04-6.56703E+03-8.63855E+02-1.24535E+04-2.32149E-09-3.39855E-09
 -1       603-2.11128E+04-5.37010E+03-1.73257E+03-1.11111E+04-5.72572E-09 3.80021E-09
 -1       604-2.12000E+04-7.67977E+03-4.16214E+03-1.23957E+04-1.23049E-08 6.48197E-09
 -1       605-2.03317E+04-5.93943E+03-7.68413E+03-1.05605E+04-4.67804E-09 5.83941E-09
 -1       606 1.34505E+04-4.53208E+03-8.16608E+03 1.31930E+04-1.99179E-09 1.53705E-10
 -1       607 1.20522E+04-1.46171E+03-4.06649E+03 1.48099E+04 7.63976E-11-3.51446E-09
 -1       608 1.28512E+04-2.45464E+02-1.82043E+03 1.30877E+04 2.25009E-09-5.13523E-10
 -1       609 1.26953E+04-6.60342E+01-9.19694E+02 1.49264E+04 1.41881E-10 1.81126E-09
 -1       610 1.27837E+04 9.63495E+00-4.38881E+02 1.30759E+04-3.51974E-10-1.59662E-09
 -1       611 1.27563E+04 1.26046E+01-2.21515E+02 1.49392E+04-2.58956E-09 3.33250E-09
 -1       612 1.27691E+04 1.38206E+01-1.05734E+02 1.30748E+04 1.18234E-11 3.05351E-09
 -1       613 1.27602E+04 1.37674E+01-4.83194E+01 1.49407E+04-1.52613E-09-4.28145E-09
 -1       614 1.27624E+04 1.17186E+01-1.33840E+01 1.30743E+04 1.70089E-08 1.93756E-09
 -1       615 1.27586E+04 1.41447E+01 1.49445E+01 1.49410E+04 3.74516E-08 4.88103E-09
 -1       616 1.27572E+04 1.25823E+01 4.97755E+01 1.30745E+04 1.52986E-08 2.35104E-10
 -1       617 1.27644E+04 2.50679E+01 1.15318E+02 1.49408E+04 6.24141E-10-3.17777E-09
 -1       618 1.27469E+04 4.60668E+01 2.33192E+02 1.30745E+04 2.75531E-09-1.38846E-09
 -1       619 1.28466E+04 2.05659E+02 5.24084E+02 1.49405E+04 2.95995E-09 3.40162E-09
 -1       620 1.26692E+04 5.99670E+02 1.05357E+03 1.30743E+04 2.59723E-09-1.98497E-10
 -1       621 1.64449E+02 1.02539E+05 1.41692E+03 3.22999E+03-1.29386E-10-2.00498E-09
 -1       622 1.87945E+02 1.02890E+05 1.20210E+03 4.71279E+03-3.93356E-11-8.25651E-11
 -1       623 8.39296E+00 1.02640E+05 1.38186E+03 3.21469E+03-1.00925E-10-3.19403E-09
 -1       624 6.25773E+02 1.03292E+05 2.62359E+03 4.72789E+03-3.23439E-11-2.68273E-09
 -1       625 6.27927E+02 1.02135E+05 4.56077E+03 3.21500E+03-2.68301E-11-2.19191E-09
 -1       626 8.46566E+04 2.34882E+04 1.69533E+03 4.58049E+04-8.93124E-10 4.38376E-09
 -1       627 8.34953E+04 2.43422E+04 8.16539E+02 4.76630E+04-4.09227E-09-3.72785E-09
 -1       628 8.47250E+04 2.26843E+04 3.45202E+02 4.60624E+04 1.25738E-09-1.44655E-09
 -1       629 8.32550E+04 2.41482E+04 1.69007E+02 4.77779E+04 2.88924E-09-1.82038E-09
 -1       630 8.47328E+04 2.26443E+04 7.83107E+01 4.60714E+04-5.90262E-10 3.11397E-09
 -1       631 8.32287E+04 2.41426E+04 4.19898E+01 4.77816E+04-4.97607E-09-4.94857E-09
 -1       632 8.47313E+04 2.26459E+04 2.77683E+01 4.60693E+04-3.04271E-09-4.07417E-09
 -1       633 8.32248E+04 2.41442E+04 3.08882E+01 4.77801E+04-5.20345E-10-1.01181E-11
 -1       634 8.47281E+04 2.26454E+04 5.00367E+01 4.60680E+04 8.08541E-10-6.77295E-09
 -1       635 8.32279E+04 2.41445E+04 1.01438E+02 4.77807E+04 4.11956E-09 1.28591E-09
 -1       636 8.47232E+04 2.26447E+04 2.04965E+02 4.60668E+04 3.04908E-10 2.27146E-10
 -1       637 8.32696E+04 2.41772E+04 4.50523E+02 4.77785E+04-3.00124E-09-6.47606E-09
 -1       638 8.47049E+04 2.27456E+04 9.26063E+02 4.60201E+04-9.23706E-11 5.09317E-11
 -1       639 8.37526E+04 2.48552E+04 2.19086E+03 4.76337E+04-1.99560E-09 2.07228E-09
 -1       640 8.46381E+04 2.47634E+04 4.54686E+03 4.51634E+04-4.83169E-11-1.14187E-09
 -1       656 2.29416E+04-5.80759E+05-5.53977E+04-4.99425E+02-2.11003E-10 2.93628E-09
 -1       657-3.03130E+04-6.05788E+05-4.58143E+04 3.81092E+03 4.74756E-10 1.14589E-09
 -1       658 7.27317E+03-5.87904E+05-2.81177E+04-7.81976E+02 4.95845E-10-1.54046E-09
 -1       659-3.24995E+04-6.06815E+05-4.86858E+04 3.99620E+03-4.32919E-10-3.81599E-09
 -1       660 2.51218E+04-5.79734E+05-6.03438E+04-6.84698E+02 4.83851E-10 3.24493E-09
 -1       661 8.25157E+04 8.94942E+03 7.90914E+03 3.21973E+04 8.06040E-10-1.50249E-09
 -1       662 8.65810E+04 1.52065E+04 5.32939E+03 3.08827E+04 7.58490E-10-2.58007E-09
 -1       663 8.40617E+04 1.14937E+04 1.86429E+03 3.17546E+04-6.57735E-10-3.05192E-09
 -1       664 8.47946E+04 1.22255E+04 1.11450E+03 3.14181E+04 1.66119E-09-3.20739E-09
 -1       665 8.42904E+04 1.18469E+04 4.39728E+02 3.16934E+04-2.71068E-09-2.52186E-09
 -1       666 8.45289E+04 1.18168E+04 2.56396E+02 3.14940E+04-4.73699E-09 3.84339E-09
 -1       667 8.43260E+04 1.18918E+04 1.35363E+02 3.16826E+04-1.35751E-09-9.19265E-12
 -1       668 8.44935E+04 1.17779E+04 1.35716E+02 3.15080E+04 1.52810E-09 2.34109E-09
 -1       669 8.43257E+04 1.18847E+04 1.82141E+02 3.16798E+04 1.55141E-09 4.87248E-10
 -1       670 8.45446E+04 1.18690E+04 3.94898E+02 3.15017E+04 3.90357E-09-3.38527E-09
 -1       671 8.42750E+04 1.18026E+04 7.00742E+02 3.16882E+04-1.13381E-09-2.76049E-09
 -1       672 8.49581E+04 1.25457E+04 1.79240E+03 3.13974E+04-1.17237E-09 7.44080E-11
 -1       673 8.39145E+04 1.12251E+04 3.00365E+03 3.17777E+04 7.07985E-10-1.47111E-10
 -1       674 8.78224E+04 1.73668E+04 8.59022E+03 3.05518E+04 6.44121E-10-1.64698E-09
 -1       675 8.14294E+04 7.11639E+03 1.27501E+04 3.24831E+04 3.31511E-10-4.55566E-09
 -1       676 9.23592E+00-1.11598E+05-4.29099E+02 1.10280E+01-8.21629E-10 2.17571E-09
 -1       677-1.13903E+02-1.11701E+05-7.85260E+02-2.20548E+01-3.50950E-09-1.72355E-10
 -1       678 7.60412E+01-1.11524E+05-1.38811E+03 1.10193E+01-1.01966E-09 2.09696E-09
 -1       679-1.38824E+03-1.12539E+05-3.29728E+03-2.20110E+01-2.03772E-09-7.50702E-11
 -1       680 8.28406E+02-1.10760E+05-5.31417E+03 1.08589E+01-2.02135E-10-4.53427E-10
 -1       771-1.20096E+06-2.08275E+05-2.90873E+04-4.96863E+05-3.29237E-09-8.58563E-10
 -1       772-1.19330E+06-2.24803E+05-1.56586E+04-5.15265E+05-2.38651E-09 1.72167E-09
 -1       773-1.20469E+06-2.05395E+05-6.66733E+03-4.98491E+05-1.38607E-09 2.52658E-09
 -1       774-1.18901E+06-2.21227E+05-3.27110E+03-5.16618E+05-3.09228E-11-4.76211E-09
 -1       775-1.20534E+06-2.05025E+05-1.59352E+03-4.98583E+05-9.89530E-10 6.96673E-10
 -1       776-1.18884E+06-2.21170E+05-7.50787E+02-5.17183E+05-9.29504E-10 6.19366E-10
 -1       777-1.20573E+06-2.04764E+05-4.27295E+02-4.98614E+05 4.25644E-10 6.98492E-10
 -1       778-1.18892E+06-2.21240E+05-2.01323E+02-5.17643E+05 1.10595E-09 1.80080E-09
 -1       779-1.20603E+06-2.04540E+05-1.78396E+02-4.98640E+05-1.07684E-09-1.34605E-09
 -1       780-1.18902E+06-2.21306E+05-1.56541E+02-5.18016E+05-1.85537E-09-1.60071E-10
 -1       781-1.20624E+06-2.04357E+05-2.73484E+02-4.98656E+05-3.66890E-09-7.87850E-10
 -1       782-1.18913E+06-2.21383E+05-5.21435E+02-5.18292E+05-4.52201E-09-1.55160E-09
 -1       783-1.20636E+06-2.04241E+05-1.04076E+03-4.98655E+05-4.06544E-10-2.18398E-09
 -1       784-1.18980E+06-2.22080E+05-2.47516E+03-5.18432E+05-2.88674E-09-1.79625E-10
 -1       785-1.20598E+06-2.04510E+05-4.57405E+03-4.98325E+05-5.06952E-09 5.52973E-10
 -1       786 8.71453E+04-4.66024E+03 1.07807E+04 2.11217E+00 4.22454E-08 9.32687E-10
 -1       787 9.18169E+04 5.39506E+03 7.62736E+03-8.73018E+00 8.35560E-08 3.42118E-09
 -1       788 8.89477E+04-7.30540E+02 2.79030E+03 2.60003E+00 1.35223E-07 1.29830E-10
 -1       789 8.97173E+04 8.45275E+02 1.75317E+03-1.02728E+01 1.86925E-07 5.60286E-09
 -1       790 8.92451E+04-1.14122E+02 7.13344E+02 3.65480E+00 2.68625E-07-2.58143E-09
 -1       791 8.93702E+04 1.32594E+02 4.18832E+02-1.30978E+01 3.50214E-07 3.12747E-09
 -1       792 8.92949E+04-1.83927E+01 1.91164E+02 5.42512E+00 5.01507E-07-2.63222E-09
 -1       793 8.93141E+04 2.58389E+01 1.25299E+02-1.76135E+01 6.53763E-07 1.94831E-09
 -1       794 8.93013E+04-7.43569E+00 9.28668E+01 8.17053E+00 9.59293E-07-7.51011E-09
 -1       795 8.93196E+04 3.83863E+01 1.34405E+02-2.44734E+01 1.26290E-06 6.11015E-09
 -1       796 8.92894E+04-3.09315E+01 2.01382E+02 1.22852E+01 6.31495E-07-3.42201E-09
 -1       797 8.94109E+04 2.26740E+02 4.74861E+02-3.46633E+01 1.78474E-09 3.85084E-09
 -1       798 8.92099E+04-1.95651E+02 7.49605E+02 1.83606E+01-1.83534E-10-3.74428E-10
 -1       799 8.99730E+04 1.44458E+03 2.04351E+03-4.97474E+01-3.50462E-10-3.86439E-09
 -1       800 8.87272E+04-1.24778E+03 2.88679E+03 2.73694E+01 5.36531E-11 1.71974E-09
 -1       801-4.62188E+03 9.43625E+03 8.37403E+03 9.21262E+03 5.11318E-09-1.07138E-09
 -1       802 1.28800E+04 4.04870E+04 2.46986E+04-3.79330E+04 1.37181E-08-1.09253E-10
 -1       803-8.00555E+03 1.93813E+04 3.26054E+04 8.87157E+03 1.07775E-08 1.14527E-08
 -1       804 6.29243E+04 6.63484E+04 9.01863E+04-3.82592E+04 1.27047E-08 1.02930E-08
 -1       805-5.46701E+04-1.63343E+04 1.19479E+05 9.53833E+03 4.46744E-09 1.22579E-08
 -1       806-1.02722E+05-2.19913E+04-8.72110E+03-4.27598E+04 1.13914E-10-3.29646E-09
 -1       807-1.03236E+05-2.07410E+04-4.28445E+03-4.50708E+04 6.52847E-10-5.12750E-09
 -1       808-1.02969E+05-1.88406E+04-1.81753E+03-4.42395E+04 6.76664E-10 2.29534E-10
 -1       809-1.02322E+05-1.95513E+04-8.88562E+02-4.51944E+04-1.75078E-11 6.91443E-10
 -1       810-1.03008E+05-1.87292E+04-4.06851E+02-4.43049E+04-4.32010E-12 1.37459E-09
 -1       811-1.02253E+05-1.95042E+04-2.01784E+02-4.51844E+04 3.60956E-10-6.02768E-10
 -1       812-1.03016E+05-1.87371E+04-1.00644E+02-4.43051E+04 5.27052E-10 3.94834E-10
 -1       813-1.02244E+05-1.95052E+04-6.35081E+01-4.51797E+04 5.28416E-10-2.67119E-09
 -1       814-1.03016E+05-1.87397E+04-5.94633E+01-4.43041E+04-6.01403E-10-2.26066E-09
 -1       815-1.02246E+05-1.95061E+04-9.31978E+01-4.51790E+04 8.60155E-10-4.06180E-09
 -1       816-1.03011E+05-1.87384E+04-1.74519E+02-4.43033E+04-7.81256E-10 8.96989E-10
 -1       817-1.02277E+05-1.95225E+04-3.74455E+02-4.51769E+04 9.99648E-10 1.50044E-09
 -1       818-1.02989E+05-1.87902E+04-7.62991E+02-4.42790E+04 9.83164E-10-6.27551E-11
 -1       819-1.02699E+05-1.99804E+04-1.79618E+03-4.50761E+04-2.29420E-10-8.40373E-10
 -1       820-1.02845E+05-2.01479E+04-3.65530E+03-4.37007E+04 3.78350E-10 6.45741E-11
 -1       821-1.32547E+05 7.36115E+03-1.70263E+04-7.41161E-01-3.25874E-10 8.91305E-10
 -1       822-1.39925E+05-8.52177E+03-1.20478E+04-9.42381E+01-1.32627E-09 1.52613E-09
 -1       823-1.35394E+05 1.15397E+03-4.40988E+03-2.45752E+01 8.86802E-10 1.76374E-09
 -1       824-1.36608E+05-1.33567E+03-2.77529E+03-4.31948E+01-5.94164E-10-1.52602E-09
 -1       825-1.35864E+05 1.80700E+02-1.13998E+03-5.17862E+01-1.60523E-09-7.14067E-10
 -1       826-1.36062E+05-2.13120E+02-6.89734E+02 8.81469E+00-2.63909E-09-1.12397E-09
 -1       827-1.35940E+05 3.22442E+01-3.55693E+02-7.65858E+01-2.62049E-09-8.99433E-10
 -1       828-1.35987E+05-6.51678E+01-3.15981E+02 5.08533E+01 2.88023E-08 1.33272E-09
 -1       829-1.35939E+05 3.28621E+01-3.61117E+02-9.38255E+01 9.45874E-06-8.60373E-09
 -1       830-1.36067E+05-2.18379E+02-7.05940E+02 7.42015E+01 1.88267E-05-8.39663E-09
 -1       831-1.35860E+05 1.85362E+02-1.16849E+03-9.99346E+01-1.20681E-06-5.13921E-10
 -1       832-1.36627E+05-1.37028E+03-2.84725E+03 7.41886E+01-2.12334E-05 9.91463E-09
 -1       833-1.35379E+05 1.18393E+03-4.52410E+03-9.38122E+01-1.06647E-05 1.52111E-08
 -1       834-1.40029E+05-8.74309E+03-1.23609E+04 5.16744E+01-3.46941E-08-8.44921E-10
 -1       835-1.32459E+05 7.55235E+03-1.74687E+04-7.74177E+01 1.32575E-09 1.59162E-10
 -1       836-4.42663E+02 1.25822E+05 7.57407E+03-1.10319E+04 9.09495E-10 1.56342E-09
 -1       837 1.66146E+03 1.28171E+05 6.46352E+03-2.21776E+04 1.33980E-09-3.41061E-12
 -1       838-1.65880E+02 1.26479E+05 6.66281E+03-1.09929E+04 1.23850E-09 3.36286E-10
 -1       839 4.26909E+03 1.30121E+05 1.26805E+04-2.21924E+04 1.61890E-09-1.95475E-09
 -1       840-1.28905E+03 1.23863E+05 2.02518E+04-1.10166E+04 1.11049E-09 4.27690E-10
 -1       856-4.30114E+04 3.60668E+03-9.50331E+03-1.99636E+02-1.79364E-09 2.36605E-09
 -1       857-4.69380E+04-4.23105E+03-6.54323E+03 2.18880E+03-8.73825E-10-1.71531E-09
 -1       858-4.45628E+04 5.05586E+02-2.46635E+03-2.05636E+02-2.05313E-09-1.37561E-10
 -1       859-4.51553E+04-5.89216E+02-1.48985E+03 2.19811E+03 5.25887E-10 1.78395E-09
 -1       860-4.47950E+04 7.04829E+01-6.26477E+02-2.08982E+02 4.96172E-10 4.65309E-09
 -1       861-4.48874E+04-7.95395E+01-3.49213E+02 2.20261E+03-3.66848E-09 6.95728E-10
 -1       862-4.48311E+04 9.50838E+00-1.54263E+02-2.10139E+02 3.68518E-09-2.30229E-09
 -1       863-4.48447E+04-7.75843E+00-7.68486E+01 2.20311E+03 2.93823E-09 5.58224E-10
 -1       864-4.48377E+04 2.39949E-01-2.52401E+01-2.09488E+02 1.25182E-09-1.34195E-09
 -1       865-4.48332E+04 8.24750E+00 1.11932E+01 2.19974E+03 2.31341E-09-7.25658E-09
 -1       866-4.48423E+04-6.50660E+00 4.66828E+01-2.06765E+02 5.40012E-13-2.57881E-09
 -1       867-4.48062E+04 5.52279E+01 1.29766E+02 2.19240E+03-6.46878E-11 2.68223E-09
 -1       868-4.48639E+04-4.61050E+01 2.19936E+02-2.02152E+02-6.88090E-10 9.40176E-10
 -1       869-4.46426E+04 3.83803E+02 5.90107E+02 2.17958E+03-9.14312E-10-4.43521E-09
 -1       870-4.50047E+04-3.26449E+02 8.56809E+02-1.93944E+02 7.92738E-10-2.72621E-10
 -1       871-1.92537E+03-4.07498E+03-6.31062E+03 4.12423E+04 1.01682E-09 2.48883E-09
 -1       872-8.30816E+02-5.48314E+03-2.57116E+03 5.34663E+04 2.10935E-09 5.37966E-10
 -1       873-9.88274E+00-4.81329E+03 3.74223E+02 4.11503E+04 7.61361E-10 5.64341E-10
 -1       874 9.85075E+02-3.89642E+03 3.59665E+03 5.34859E+04 2.56352E-09 4.59664E-09
 -1       875 2.32167E+03-5.67451E+03 7.97412E+03 4.12249E+04 7.07132E-10-1.51499E-09
 -1       876 1.03953E+05 1.78443E+04 5.58826E+03 4.20803E+04-2.28155E-09-3.49246E-10
 -1       877 1.04296E+05 1.90469E+04 2.98415E+03 4.37071E+04-2.59752E-09-3.02157E-09
 -1       878 1.04476E+05 1.72250E+04 1.25029E+03 4.25391E+04 5.76847E-10-5.16536E-09
 -1       879 1.03536E+05 1.82899E+04 6.22741E+02 4.37479E+04 2.98314E-10 8.11042E-10
 -1       880 1.04515E+05 1.72174E+04 2.89939E+02 4.25579E+04 1.38050E-09 2.41744E-09
 -1       881 1.03486E+05 1.82580E+04 1.54307E+02 4.37411E+04 4.03554E-09 1.24227E-09
 -1       882 1.04519E+05 1.72215E+04 9.78991E+01 4.25584E+04 3.56010E-09-1.66409E-10
 -1       883 1.03482E+05 1.82566E+04 1.03876E+02 4.37394E+04 3.63912E-10 3.80006E-09
 -1       884 1.04518E+05 1.72202E+04 1.64049E+02 4.25585E+04 9.57357E-10 1.65562E-09
 -1       885 1.03495E+05 1.82589E+04 3.29085E+02 4.37437E+04 1.93731E-09-3.79941E-10
 -1       886 1.04505E+05 1.72106E+04 6.62951E+02 4.25572E+04-1.58839E-09-5.76023E-09
 -1       887 1.03612E+05 1.83353E+04 1.44806E+03 4.37602E+04-3.08364E-09-2.59917E-09
 -1       888 1.04413E+05 1.72270E+04 2.91795E+03 4.25109E+04 3.33031E-10 2.86946E-10
 -1       889 1.05350E+05 2.01411E+04 6.97108E+03 4.37048E+04 4.30666E-10 1.67279E-09
 -1       890 1.03223E+05 1.86396E+04 1.30559E+04 4.13982E+04 1.52943E-09-3.19415E-09
 -1       891-5.88662E+01-6.02163E+04-7.55219E+02 1.10780E+04-8.57085E-10 4.24450E-10
 -1       892-1.18289E+02-6.04042E+04-8.04357E+02 1.70499E+04 1.29626E-09 4.29964E-10
 -1       893-1.11272E+01-6.02460E+04-1.12614E+03 1.10798E+04 1.65085E-09 2.57023E-09
 -1       894-6.13879E+02-6.08391E+04-2.32879E+03 1.69903E+04 3.38173E-09-1.44269E-10
 -1       895-4.08593E+02-5.97648E+04-4.07639E+03 1.11372E+04 1.56911E-09-9.83164E-10
 -1       956-1.30034E+05-1.87600E+03-4.72205E+03 8.58746E+03-1.68552E-09-1.97861E-09
 -1       957-1.30966E+05-6.34354E+02-2.42432E+03 1.03350E+04-6.91898E-10-2.67056E-09
 -1       958-1.30450E+05-5.18733E+01-1.09203E+03 8.53197E+03 1.01636E-09-2.14550E-09
 -1       959-1.30523E+05-1.19100E+01-5.57896E+02 1.03950E+04-1.60003E-09-6.63135E-10
 -1       960-1.30485E+05 1.27521E+01-2.71832E+02 8.52698E+03-2.11230E-09-3.48450E-10
 -1       961-1.30489E+05 1.02472E+01-1.44182E+02 1.04005E+04-2.38845E-09-1.65687E-09
 -1       962-1.30491E+05 9.80624E+00-8.22750E+01 8.52640E+03-1.28239E-10 4.38934E-09
 -1       963-1.30486E+05 1.00392E+01-6.56774E+01 1.04013E+04-1.69712E-09-6.52051E-10
 -1       964-1.30492E+05 1.02269E+01-7.91795E+01 8.52620E+03-7.16113E-10 2.11577E-09
 -1       965-1.30490E+05 1.12377E+01-1.36366E+02 1.04013E+04 8.04025E-10 7.20092E-10
 -1       966-1.30488E+05 1.39647E+01-2.55641E+02 8.52645E+03-1.55023E-09 7.54369E-10
 -1       967-1.30525E+05-8.53913E+00-5.24148E+02 1.03982E+04-1.07957E-09-1.95655E-10
 -1       968-1.30457E+05-4.57548E+01-1.02552E+03 8.52932E+03-3.87672E-10-1.30441E-10
 -1       969-1.30942E+05-5.92230E+02-2.27692E+03 1.03632E+04 5.80599E-10 4.43609E-09
 -1       970-1.30067E+05-1.75834E+03-4.43468E+03 8.56217E+03 5.53769E-10 2.41016E-10
 -1       971-1.23719E+05-6.55645E+02-3.64534E+03 6.03881E+03-2.44609E-09 1.70671E-09
 -1       972-1.24605E+05-4.72498E+02-1.98560E+03 8.42073E+03-1.07514E-09-3.29578E-10
 -1       973-1.24122E+05-5.88417E+00-8.88722E+02 5.98956E+03-1.53932E-09 5.03974E-10
 -1       974-1.24182E+05-8.54423E+00-4.60559E+02 8.47341E+03 6.01176E-10 1.12868E-09
 -1       975-1.24151E+05 9.51029E+00-2.29468E+02 5.98579E+03 7.96945E-10 2.49599E-09
 -1       976-1.24154E+05 9.05119E+00-1.31468E+02 8.47768E+03-2.42881E-09-3.42317E-09
 -1       977-1.24155E+05 8.31206E+00-9.35033E+01 5.98526E+03 3.12298E-10-9.37064E-10
 -1       978-1.24154E+05 1.03099E+01-1.06958E+02 8.47842E+03 5.65694E-09 7.61361E-10
 -1       979-1.24155E+05 1.06920E+01-1.69601E+02 5.98506E+03 2.74130E-09-1.74003E-09
 -1       980-1.24166E+05 1.11404E+01-3.26069E+02 8.47848E+03 3.08835E-09 3.11536E-09
 -1       981-1.24144E+05 1.89027E+01-6.30677E+02 5.98519E+03-1.97417E-10 8.72546E-12
 -1       982-1.24253E+05-3.49677E+01-1.30312E+03 8.47635E+03-1.97520E-09 2.30218E-09
 -1       983-1.24066E+05-2.07250E+01-2.53154E+03 5.98724E+03 1.50465E-09-1.54614E-10
 -1       984-1.25472E+05-1.35579E+03-5.66884E+03 8.44355E+03 5.61045E-10 2.02874E-09
 -1       985-1.22921E+05-1.87232E+03-1.04097E+04 6.01939E+03 1.34287E-09-1.37788E-10
 -3
    1PSTEP                         3           2           1          
  100CL  102 3.12500E-01         409                     0    2           1
 -4  DISP        4    1
 -5  D1          1    2    1    0
 -5  D2          1    2    2    0
 -5  D3          1    2    3    0
 -5  ALL         1    2    0    0    1ALL
 -1         1 8.16621E-05 0.00000E+00 0.00000E+00
 -1         2 7.53878E-05 1.51205E-29-1.65436E-24
 -1         3 6.96204E-05-2.94603E-27-3.30872E-24
 -1         5 5.01399E-05 4.70298E-26 0.00000E+00
 -1         8 6.51888E-05-5.91544E-07 0.00000E+00
 -1         9 6.62403E-05 3.93728E-07 0.00000E+00
 -1        10 6.45257E-05-9.52198E-07 3.30872E-24
 -1        12 4.97850E-05 3.40516E-07-1.65436E-24
 -1        15 4.55887E-05-6.38524E-07 0.00000E+00
 -1        16 4.71603E-05 3.12475E-07 0.00000E+00
 -1        17 4.81099E-05-1.99897E-06 0.00000E+00
 -1        18 4.80616E-05 1.33966E-07 0.00000E+00
 -1        19 4.87203E-05 6.79173E-07 0.00000E+00
 -1        20 4.88096E-05 1.00907E-05 0.00000E+00
 -1        21 4.84417E-05 1.90999E-05 0.00000E+00
 -1        24 1.22977E-05-2.67558E-06 0.00000E+00
 -1        25 4.69294E-05 2.11960E-07 0.00000E+00
 -1        26 4.75507E-05 9.46328E-07 0.00000E+00
 -1        27 4.66099E-05 8.57697E-06 0.00000E+00
 -1        28 4.62966E-05 1.88088E-05 0.00000E+00
 -1        32 0.00000E+00 0.00000E+00 0.00000E+00
 -1        33 4.55675E-05 1.26911E-06 0.00000E+00
 -1        34 4.46571E-05 8.56337E-06 0.00000E+00
 -1        35 4.37912E-05 1.86519E-05 0.00000E+00
 -1        51 8.05904E-05-9.81365E-08 0.00000E+00
 -1        52 7.86043E-05-1.93468E-07 0.00000E+00
 -1        53 7.58838E-05-2.89322E-07 0.00000E+00
 -1        54 7.26160E-05-3.86608E-07 0.00000E+00
 -1        55 6.89883E-05-4.85930E-07 4.54949E-24
 -1        56 8.09133E-05-4.65317E-07 1.32349E-23
 -1        57 8.02464E-05-1.23339E-06 0.00000E+00
 -1        58 7.96620E-05-2.21715E-06-2.64698E-23
 -1        59 7.91237E-05-3.33844E-06 0.00000E+00
 -1        60 7.86038E-05-4.50954E-06-2.64698E-23
 -1        61 7.80691E-05-5.64376E-06 1.32349E-23
 -1        62 7.74885E-05-6.65548E-06 2.64698E-23
 -1        63 7.68309E-05-7.46180E-06 0.00000E+00
 -1        64 7.60683E-05-7.98795E-06 0.00000E+00
 -1        65 7.51747E-05-8.16467E-06 0.00000E+00
 -1        66 7.41294E-05-7.93674E-06 0.00000E+00
 -1        67 7.29151E-05-7.25669E-06 0.00000E+00
 -1        68 7.15198E-05-6.09561E-06 0.00000E+00
 -1        69 6.99402E-05-4.43224E-06-1.32349E-23
 -1        70 6.81703E-05-2.26905E-06 0.00000E+00
 -1        86 7.51470E-05 7.03906E-08-1.65436E-24
 -1        87 7.44239E-05 1.40191E-07-8.27181E-25
 -1        88 7.31997E-05 2.09467E-07-8.27181E-25
 -1        89 7.14544E-05 2.75696E-07-5.16988E-26
 -1        90 6.91483E-05 3.41609E-07-3.30872E-24
 -1       121 6.94784E-05-1.58186E-07-3.30872E-24
 -1       122 6.90527E-05-3.16453E-07-1.65436E-24
 -1       123 6.83436E-05-4.74881E-07 0.00000E+00
 -1       124 6.73520E-05-6.33575E-07 1.65436E-24
 -1       125 6.60788E-05-7.92569E-07-3.30872E-24
 -1       191 5.01301E-05 5.67569E-08 0.00000E+00
 -1       192 5.01005E-05 1.13513E-07 0.00000E+00
 -1       193 5.00512E-05 1.70268E-07 0.00000E+00
 -1       194 4.99822E-05 2.27021E-07 0.00000E+00
 -1       195 4.98934E-05 2.83771E-07 0.00000E+00
 -1       251 6.52404E-05 2.11594E-06 3.30872E-24
 -1       252 6.53062E-05 3.72338E-06-5.16988E-26
 -1       253 6.53724E-05 4.41717E-06 0.00000E+00
 -1       254 6.54410E-05 4.38099E-06 0.00000E+00
 -1       255 6.55095E-05 3.77203E-06 0.00000E+00
 -1       256 6.55781E-05 2.74584E-06 0.00000E+00
 -1       257 6.56465E-05 1.44276E-06 0.00000E+00
 -1       258 6.57148E-05 2.32937E-09 0.00000E+00
 -1       259 6.57830E-05-1.44099E-06 0.00000E+00
 -1       260 6.58514E-05-2.75268E-06-8.27181E-25
 -1       261 6.59200E-05-3.79342E-06-1.65436E-24
 -1       262 6.59885E-05-4.42316E-06 0.00000E+00
 -1       263 6.60571E-05-4.48679E-06 0.00000E+00
 -1       264 6.61231E-05-3.82759E-06 0.00000E+00
 -1       265 6.61890E-05-2.26263E-06 3.30872E-24
 -1       266 6.19221E-05-6.07489E-07 3.30872E-24
 -1       267 5.86554E-05-6.14330E-07 0.00000E+00
 -1       268 5.53888E-05-6.21747E-07 8.27181E-25
 -1       269 5.21220E-05-6.27456E-07-2.06795E-25
 -1       270 4.88554E-05-6.33126E-07 0.00000E+00
 -1       271 6.32038E-05 1.84010E-06 0.00000E+00
 -1       272 6.15200E-05 3.37869E-06 0.00000E+00
 -1       273 6.01312E-05 4.13758E-06-2.64698E-23
 -1       274 5.89890E-05 4.22575E-06 0.00000E+00
 -1       275 5.80524E-05 3.76465E-06 2.64698E-23
 -1       276 5.72734E-05 2.88068E-06 0.00000E+00
 -1       277 5.66028E-05 1.70618E-06 2.64698E-23
 -1       278 5.59901E-05 3.76816E-07 0.00000E+00
 -1       279 5.53837E-05-9.69689E-07 0.00000E+00
 -1       280 5.47323E-05-2.19537E-06 0.00000E+00
 -1       281 5.39847E-05-3.16395E-06-2.64698E-23
 -1       282 5.30916E-05-3.74218E-06-1.32349E-23
 -1       283 5.20043E-05-3.80209E-06 0.00000E+00
 -1       284 5.06800E-05-3.22092E-06-1.32349E-23
 -1       285 4.90712E-05-1.88670E-06 2.64698E-23
 -1       301 6.30081E-05 3.76275E-07 0.00000E+00
 -1       302 5.97772E-05 3.68569E-07-1.65436E-24
 -1       303 5.65622E-05 3.61155E-07 3.30872E-24
 -1       304 5.33780E-05 3.52671E-07 0.00000E+00
 -1       305 5.02392E-05 3.42680E-07 6.61744E-24
 -1       306 6.41937E-05 2.76905E-06 2.64698E-23
 -1       307 6.24607E-05 4.21216E-06 0.00000E+00
 -1       308 6.10711E-05 4.74947E-06 2.64698E-23
 -1       309 6.00005E-05 4.41951E-06 1.32349E-23
 -1       310 5.92063E-05 3.35142E-06 2.64698E-23
 -1       311 5.86309E-05 1.69492E-06-1.32349E-23
 -1       312 5.81972E-05-3.41200E-07-2.64698E-23
 -1       313 5.78228E-05-2.53674E-06 0.00000E+00
 -1       314 5.74196E-05-4.65528E-06 0.00000E+00
 -1       315 5.69006E-05-6.46282E-06-1.32349E-23
 -1       316 5.61898E-05-7.75680E-06 0.00000E+00
 -1       317 5.52180E-05-8.35022E-06 0.00000E+00
 -1       318 5.39397E-05-8.12613E-06 0.00000E+00
 -1       319 5.23260E-05-6.99029E-06-1.32349E-23
 -1       320 5.03662E-05-4.94409E-06 0.00000E+00
 -1       336 6.26569E-05-1.12484E-06 0.00000E+00
 -1       337 6.04370E-05-1.29842E-06 1.65436E-24
 -1       338 5.78686E-05-1.47274E-06-6.61744E-24
 -1       339 5.49553E-05-1.64773E-06-3.30872E-24
 -1       340 5.17008E-05-1.82376E-06 0.00000E+00
 -1       406 4.96568E-05 3.97252E-07 0.00000E+00
 -1       407 4.95088E-05 4.53966E-07 0.00000E+00
 -1       408 4.93412E-05 5.10644E-07-3.30872E-24
 -1       409 4.91538E-05 5.67213E-07 3.30872E-24
 -1       410 4.89468E-05 6.23563E-07 0.00000E+00
 -1       521 4.43441E-05 2.00749E-06-5.29396E-23
 -1       522 4.19360E-05 2.43121E-06 2.64698E-23
 -1       523 3.99839E-05 1.65209E-06-5.29396E-23
 -1       524 3.84309E-05-2.25897E-07-2.64698E-23
 -1       525 3.71869E-05-2.93246E-06 5.29396E-23
 -1       526 3.61336E-05-6.15674E-06 0.00000E+00
 -1       527 3.51289E-05-9.51214E-06 0.00000E+00
 -1       528 3.40263E-05-1.26058E-05 0.00000E+00
 -1       529 3.26936E-05-1.50822E-05 0.00000E+00
 -1       530 3.10104E-05-1.66194E-05 2.64698E-23
 -1       531 2.89055E-05-1.70310E-05 0.00000E+00
 -1       532 2.63320E-05-1.61907E-05 2.64698E-23
 -1       533 2.33071E-05-1.41532E-05 0.00000E+00
 -1       534 1.98848E-05-1.10336E-05 0.00000E+00
 -1       535 1.61532E-05-7.11044E-06-5.29396E-23
 -1       536 4.80968E-05 1.34795E-06 0.00000E+00
 -1       537 4.80911E-05 3.87689E-06-4.13590E-25
 -1       538 4.80866E-05 5.66848E-06 0.00000E+00
 -1       539 4.80840E-05 6.80344E-06 0.00000E+00
 -1       540 4.80818E-05 7.36509E-06 0.00000E+00
 -1       541 4.80801E-05 7.43681E-06 0.00000E+00
 -1       542 4.80783E-05 7.10383E-06 0.00000E+00
 -1       543 4.80763E-05 6.45141E-06-2.58494E-26
 -1       544 4.80743E-05 5.56601E-06 0.00000E+00
 -1       545 4.80721E-05 4.53409E-06 0.00000E+00
 -1       546 4.80698E-05 3.44268E-06 2.58494E-26
 -1       547 4.80676E-05 2.37881E-06 0.00000E+00
 -1       548 4.80656E-05 1.42938E-06 0.00000E+00
 -1       549 4.80639E-05 6.81308E-07 5.16988E-26
 -1       550 4.80622E-05 2.20789E-07 2.06795E-25
 -1       551 4.33597E-05-2.10235E-06-3.30872E-24
 -1       552 3.76777E-05-2.20869E-06 0.00000E+00
 -1       553 3.13950E-05-2.31856E-06-1.65436E-24
 -1       554 2.48474E-05-2.43165E-06 0.00000E+00
 -1       555 1.83706E-05-2.54612E-06-1.32349E-23
 -1       556 4.68655E-05 1.22927E-06 0.00000E+00
 -1       557 4.59149E-05 3.69575E-06 6.61744E-24
 -1       558 4.52259E-05 5.47079E-06 0.00000E+00
 -1       559 4.47694E-05 6.63027E-06 0.00000E+00
 -1       560 4.45161E-05 7.24983E-06 0.00000E+00
 -1       561 4.44373E-05 7.40553E-06-3.30872E-24
 -1       562 4.45039E-05 7.17349E-06 0.00000E+00
 -1       563 4.46873E-05 6.62989E-06 0.00000E+00
 -1       564 4.49588E-05 5.85095E-06 3.30872E-24
 -1       565 4.52899E-05 4.91291E-06-8.27181E-25
 -1       566 4.56520E-05 3.89203E-06-8.27181E-25
 -1       567 4.60165E-05 2.86459E-06 2.06795E-25
 -1       568 4.63550E-05 1.90684E-06 0.00000E+00
 -1       569 4.66389E-05 1.09497E-06 0.00000E+00
 -1       570 4.68396E-05 5.05171E-07 0.00000E+00
 -1       571 4.81016E-05 1.94272E-07 2.06795E-25
 -1       572 4.81424E-05 2.27376E-07-1.03398E-25
 -1       573 4.81835E-05 2.38117E-07 8.27181E-25
 -1       574 4.82248E-05 2.31590E-07-4.13590E-25
 -1       575 4.82661E-05 2.12915E-07 1.65436E-24
 -1       576 4.83074E-05 1.87242E-07 4.13590E-25
 -1       577 4.83487E-05 1.59727E-07-1.65436E-24
 -1       578 4.83900E-05 1.35529E-07-8.27181E-25
 -1       579 4.84313E-05 1.19808E-07 3.30872E-24
 -1       580 4.84726E-05 1.17725E-07-8.27181E-25
 -1       581 4.85139E-05 1.34438E-07 1.65436E-24
 -1       582 4.85552E-05 1.75100E-07 0.00000E+00
 -1       583 4.85965E-05 2.44860E-07 0.00000E+00
 -1       584 4.86378E-05 3.48814E-07 0.00000E+00
 -1       585 4.86791E-05 4.92028E-07 0.00000E+00
 -1       586 4.78588E-05 1.47779E-07 8.27181E-25
 -1       587 4.76386E-05 1.61242E-07-2.06795E-25
 -1       588 4.74182E-05 1.74555E-07 0.00000E+00
 -1       589 4.72149E-05 1.87657E-07 0.00000E+00
 -1       590 4.70464E-05 2.00401E-07 0.00000E+00
 -1       591 4.80199E-05 2.15191E-07-5.16988E-26
 -1       592 4.79850E-05 2.73880E-07-2.06795E-25
 -1       593 4.79568E-05 3.14321E-07 0.00000E+00
 -1       594 4.79339E-05 3.40374E-07-2.06795E-25
 -1       595 4.79148E-05 3.55953E-07 0.00000E+00
 -1       596 4.78982E-05 3.64939E-07-2.06795E-25
 -1       597 4.78826E-05 3.71214E-07-4.13590E-25
 -1       598 4.78665E-05 3.78658E-07 2.06795E-25
 -1       599 4.78486E-05 3.91149E-07-4.13590E-25
 -1       600 4.78273E-05 4.12563E-07 2.06795E-25
 -1       601 4.78012E-05 4.46780E-07 4.13590E-25
 -1       602 4.77689E-05 4.97681E-07-2.06795E-25
 -1       603 4.77289E-05 5.69149E-07 1.03398E-25
 -1       604 4.76800E-05 6.65097E-07-5.16988E-26
 -1       605 4.76205E-05 7.89387E-07 0.00000E+00
 -1       606 4.87279E-05 9.60260E-07 0.00000E+00
 -1       607 4.87341E-05 1.30033E-06 0.00000E+00
 -1       608 4.87399E-05 1.69592E-06 0.00000E+00
 -1       609 4.87455E-05 2.14313E-06 0.00000E+00
 -1       610 4.87510E-05 2.63803E-06 0.00000E+00
 -1       611 4.87565E-05 3.17665E-06 0.00000E+00
 -1       612 4.87619E-05 3.75500E-06 0.00000E+00
 -1       613 4.87673E-05 4.36911E-06 0.00000E+00
 -1       614 4.87727E-05 5.01498E-06 0.00000E+00
 -1       615 4.87781E-05 5.68863E-06 0.00000E+00
 -1       616 4.87834E-05 6.38608E-06 8.27181E-25
 -1       617 4.87887E-05 7.10334E-06 0.00000E+00
 -1       618 4.87940E-05 7.83641E-06 0.00000E+00
 -1       619 4.87993E-05 8.58133E-06 0.00000E+00
 -1       620 4.88045E-05 9.33410E-06 0.00000E+00
 -1       621 4.84970E-05 7.23730E-07 0.00000E+00
 -1       622 4.82895E-05 7.68503E-07 0.00000E+00
 -1       623 4.80945E-05 8.13271E-07 1.65436E-24
 -1       624 4.79087E-05 8.57967E-07-8.27181E-25
 -1       625 4.77285E-05 9.02586E-07-8.27181E-25
 -1       626 4.86625E-05 9.74274E-07 3.30872E-24
 -1       627 4.85869E-05 1.31822E-06 0.00000E+00
 -1       628 4.84946E-05 1.70648E-06 0.00000E+00
 -1       629 4.83876E-05 2.13424E-06 0.00000E+00
 -1       630 4.82676E-05 2.59664E-06 0.00000E+00
 -1       631 4.81364E-05 3.08883E-06 8.27181E-25
 -1       632 4.79959E-05 3.60593E-06-1.65436E-24
 -1       633 4.78478E-05 4.14307E-06 0.00000E+00
 -1       634 4.76941E-05 4.69538E-06-1.65436E-24
 -1       635 4.75364E-05 5.25798E-06 0.00000E+00
 -1       636 4.73768E-05 5.82601E-06-1.65436E-24
 -1       637 4.72168E-05 6.39461E-06-8.27181E-25
 -1       638 4.70585E-05 6.95887E-06 0.00000E+00
 -1       639 4.69036E-05 7.51396E-06 4.13590E-25
 -1       640 4.67536E-05 8.05497E-06 0.00000E+00
 -1       656 4.81810E-05 9.84446E-06 0.00000E+00
 -1       657 4.77745E-05 9.58833E-06 0.00000E+00
 -1       658 4.75039E-05 9.33298E-06 0.00000E+00
 -1       659 4.72821E-05 9.07784E-06 0.00000E+00
 -1       660 4.70151E-05 8.82190E-06 3.30872E-24
 -1       661 4.85768E-05 1.08326E-05 8.27181E-25
 -1       662 4.83574E-05 1.15438E-05 4.13590E-25
 -1       663 4.81494E-05 1.22248E-05 0.00000E+00
 -1       664 4.79525E-05 1.28769E-05 0.00000E+00
 -1       665 4.77660E-05 1.35011E-05 0.00000E+00
 -1       666 4.75897E-05 1.40986E-05-8.27181E-25
 -1       667 4.74231E-05 1.46703E-05-1.65436E-24
 -1       668 4.72658E-05 1.52172E-05 0.00000E+00
 -1       669 4.71174E-05 1.57404E-05-1.65436E-24
 -1       670 4.69776E-05 1.62407E-05 0.00000E+00
 -1       671 4.68460E-05 1.67190E-05 1.65436E-24
 -1       672 4.67223E-05 1.71762E-05-4.13590E-25
 -1       673 4.66061E-05 1.76132E-05-8.27181E-25
 -1       674 4.64968E-05 1.80305E-05 4.13590E-25
 -1       675 4.63947E-05 1.84291E-05 0.00000E+00
 -1       676 4.80836E-05 1.90511E-05 1.65436E-24
 -1       677 4.77256E-05 1.90023E-05 0.00000E+00
 -1       678 4.73678E-05 1.89536E-05 0.00000E+00
 -1       679 4.70103E-05 1.89049E-05 8.27181E-25
 -1       680 4.66532E-05 1.88564E-05-8.27181E-25
 -1       771 9.85630E-06 1.94458E-06 0.00000E+00
 -1       772 7.72889E-06 5.72042E-06-1.32349E-23
 -1       773 5.90214E-06 8.70159E-06 2.64698E-23
 -1       774 4.35553E-06 1.09402E-05 0.00000E+00
 -1       775 3.06903E-06 1.24890E-05 0.00000E+00
 -1       776 2.02186E-06 1.34022E-05 1.32349E-23
 -1       777 1.19304E-06 1.37346E-05 2.64698E-23
 -1       778 5.61304E-07 1.35420E-05 0.00000E+00
 -1       779 1.05239E-07 1.28807E-05 2.64698E-23
 -1       780-1.96825E-07 1.18081E-05 0.00000E+00
 -1       781-3.66613E-07 1.03818E-05 2.64698E-23
 -1       782-4.26052E-07 8.66028E-06 0.00000E+00
 -1       783-3.97103E-07 6.70207E-06 2.64698E-23
 -1       784-3.01820E-07 4.56633E-06 0.00000E+00
 -1       785-1.62335E-07 2.31238E-06 0.00000E+00
 -1       786 4.69660E-05 2.10950E-07 4.13590E-25
 -1       787 4.70047E-05 2.11286E-07 4.13590E-25
 -1       788 4.70433E-05 2.13482E-07 8.27181E-25
 -1       789 4.70823E-05 2.18054E-07-4.13590E-25
 -1       790 4.71213E-05 2.25732E-07 0.00000E+00
 -1       791 4.71604E-05 2.37249E-07 4.13590E-25
 -1       792 4.71995E-05 2.53678E-07 8.27181E-25
 -1       793 4.72387E-05 2.76105E-07-8.27181E-25
 -1       794 4.72778E-05 3.06144E-07-1.65436E-24
 -1       795 4.73169E-05 3.45424E-07-8.27181E-25
 -1       796 4.73560E-05 3.96397E-07 0.00000E+00
 -1       797 4.73951E-05 4.61533E-07 4.13590E-25
 -1       798 4.74342E-05 5.44560E-07 0.00000E+00
 -1       799 4.74732E-05 6.49238E-07 0.00000E+00
 -1       800 4.75122E-05 7.81251E-07 0.00000E+00
 -1       801 4.37600E-05 2.14956E-07 0.00000E+00
 -1       802 3.43294E-05 1.80169E-07-4.13590E-25
 -1       803 2.19393E-05 1.15838E-07 0.00000E+00
 -1       804 9.89032E-06 5.10263E-08 0.00000E+00
 -1       805 1.47749E-06 2.13796E-08 0.00000E+00
 -1       806 4.68817E-05 1.84433E-07 0.00000E+00
 -1       807 4.68320E-05 1.57099E-07-8.27181E-25
 -1       808 4.67807E-05 1.32991E-07-1.65436E-24
 -1       809 4.67270E-05 1.14683E-07 0.00000E+00
 -1       810 4.66701E-05 1.04743E-07 0.00000E+00
 -1       811 4.66091E-05 1.05700E-07 0.00000E+00
 -1       812 4.65430E-05 1.20082E-07 0.00000E+00
 -1       813 4.64710E-05 1.50409E-07 4.13590E-25
 -1       814 4.63920E-05 1.99203E-07-1.65436E-24
 -1       815 4.63051E-05 2.68982E-07 0.00000E+00
 -1       816 4.62095E-05 3.62262E-07-1.65436E-24
 -1       817 4.61041E-05 4.81561E-07 4.13590E-25
 -1       818 4.59880E-05 6.29394E-07 8.27181E-25
 -1       819 4.58603E-05 8.08268E-07 4.13590E-25
 -1       820 4.57203E-05 1.02069E-06 0.00000E+00
 -1       821 4.74952E-05 1.14377E-06 4.13590E-25
 -1       822 4.74364E-05 1.37304E-06-4.13590E-25
 -1       823 4.73778E-05 1.64451E-06-1.65436E-24
 -1       824 4.73185E-05 1.96844E-06 0.00000E+00
 -1       825 4.72591E-05 2.34849E-06 1.65436E-24
 -1       826 4.71997E-05 2.78817E-06-8.27181E-25
 -1       827 4.71401E-05 3.28351E-06 0.00000E+00
 -1       828 4.70806E-05 3.83039E-06-8.27181E-25
 -1       829 4.70210E-05 4.41820E-06 1.65436E-24
 -1       830 4.69614E-05 5.03623E-06 0.00000E+00
 -1       831 4.69018E-05 5.66998E-06 0.00000E+00
 -1       832 4.68424E-05 6.30491E-06 8.27181E-25
 -1       833 4.67830E-05 6.92630E-06 0.00000E+00
 -1       834 4.67242E-05 7.51951E-06-4.13590E-25
 -1       835 4.66653E-05 8.07341E-06 0.00000E+00
 -1       836 4.73102E-05 1.00006E-06 0.00000E+00
 -1       837 4.69988E-05 1.05498E-06 0.00000E+00
 -1       838 4.66425E-05 1.10980E-06 1.65436E-24
 -1       839 4.62677E-05 1.16428E-06-4.13590E-25
 -1       840 4.59007E-05 1.21866E-06 0.00000E+00
 -1       856 4.65924E-05 9.09041E-06 1.03398E-25
 -1       857 4.65730E-05 9.66948E-06 1.03398E-25
 -1       858 4.65537E-05 1.03038E-05 0.00000E+00
 -1       859 4.65341E-05 1.09829E-05 2.06795E-25
 -1       860 4.65144E-05 1.16964E-05 4.13590E-25
 -1       861 4.64946E-05 1.24337E-05 0.00000E+00
 -1       862 4.64747E-05 1.31844E-05 4.13590E-25
 -1       863 4.64549E-05 1.39379E-05 0.00000E+00
 -1       864 4.64351E-05 1.46837E-05 8.27181E-25
 -1       865 4.64152E-05 1.54113E-05 4.13590E-25
 -1       866 4.63954E-05 1.61102E-05 8.27181E-25
 -1       867 4.63756E-05 1.67700E-05 0.00000E+00
 -1       868 4.63559E-05 1.73801E-05 0.00000E+00
 -1       869 4.63361E-05 1.79302E-05 0.00000E+00
 -1       870 4.63164E-05 1.84099E-05-8.27181E-25
 -1       871 4.62186E-05 8.57646E-06-4.13590E-25
 -1       872 4.58894E-05 8.57466E-06 0.00000E+00
 -1       873 4.55957E-05 8.57263E-06 2.06795E-25
 -1       874 4.53104E-05 8.57028E-06-1.03398E-25
 -1       875 4.50064E-05 8.56764E-06 0.00000E+00
 -1       876 4.64744E-05 9.09523E-06 1.65436E-24
 -1       877 4.63284E-05 9.64489E-06 8.27181E-25
 -1       878 4.61722E-05 1.02222E-05-1.65436E-24
 -1       879 4.60071E-05 1.08236E-05 0.00000E+00
 -1       880 4.58342E-05 1.14457E-05-1.65436E-24
 -1       881 4.56549E-05 1.20850E-05-8.27181E-25
 -1       882 4.54705E-05 1.27379E-05 0.00000E+00
 -1       883 4.52823E-05 1.34009E-05 0.00000E+00
 -1       884 4.50916E-05 1.40707E-05-1.65436E-24
 -1       885 4.48997E-05 1.47436E-05 0.00000E+00
 -1       886 4.47078E-05 1.54163E-05-1.65436E-24
 -1       887 4.45173E-05 1.60852E-05 8.27181E-25
 -1       888 4.43295E-05 1.67468E-05 0.00000E+00
 -1       889 4.41454E-05 1.73976E-05-4.13590E-25
 -1       890 4.39663E-05 1.80340E-05 8.27181E-25
 -1       891 4.59523E-05 1.87826E-05-8.27181E-25
 -1       892 4.55966E-05 1.87562E-05 0.00000E+00
 -1       893 4.52159E-05 1.87299E-05-8.27181E-25
 -1       894 4.47970E-05 1.87036E-05-4.13590E-25
 -1       895 4.43265E-05 1.86774E-05 0.00000E+00
 -1       956 4.55116E-05 1.59108E-06-1.65436E-24
 -1       957 4.54549E-05 1.94951E-06 8.27181E-25
 -1       958 4.53979E-05 2.34062E-06-8.27181E-25
 -1       959 4.53409E-05 2.76038E-06 8.27181E-25
 -1       960 4.52838E-05 3.20480E-06-1.65436E-24
 -1       961 4.52267E-05 3.66982E-06-8.27181E-25
 -1       962 4.51696E-05 4.15140E-06 0.00000E+00
 -1       963 4.51125E-05 4.64549E-06-8.27181E-25
 -1       964 4.50553E-05 5.14805E-06 0.00000E+00
 -1       965 4.49982E-05 5.65502E-06-8.27181E-25
 -1       966 4.49410E-05 6.16238E-06-1.65436E-24
 -1       967 4.48839E-05 6.66606E-06-8.27181E-25
 -1       968 4.48269E-05 7.16201E-06 0.00000E+00
 -1       969 4.47699E-05 7.64621E-06 0.00000E+00
 -1       970 4.47131E-05 8.11463E-06 0.00000E+00
 -1       971 4.46036E-05 9.02421E-06 8.27181E-25
 -1       972 4.45495E-05 9.53308E-06-8.27181E-25
 -1       973 4.44952E-05 1.00847E-05 0.00000E+00
 -1       974 4.44408E-05 1.06736E-05 0.00000E+00
 -1       975 4.43864E-05 1.12944E-05 1.65436E-24
 -1       976 4.43320E-05 1.19414E-05 0.00000E+00
 -1       977 4.42775E-05 1.26093E-05 0.00000E+00
 -1       978 4.42231E-05 1.32925E-05 0.00000E+00
 -1       979 4.41686E-05 1.39856E-05 0.00000E+00
 -1       980 4.41141E-05 1.46831E-05 0.00000E+00
 -1       981 4.40597E-05 1.53794E-05-1.65436E-24
 -1       982 4.40053E-05 1.60691E-05 8.27181E-25
 -1       983 4.39510E-05 1.67467E-05 1.65436E-24
 -1       984 4.38969E-05 1.74066E-05 8.27181E-25
 -1       985 4.38430E-05 1.80435E-05 0.00000E+00
 -3
    1PSTEP                         4           2           1          
  100CL  102 3.12500E-01         409                     0    2           1
 -4  STRESS      6    1
 -5  SXX         1    4    1    1
 -5  SYY         1    4    2    2
 -5  SZZ         1    4    3    3
 -5  SXY         1    4    1    2
 -5  SYZ         1    4    2    3
 -5  SZX         1    4    3    1
 -1         1-1.07898E+06-4.96989E+05-2.19387E+05-6.97923E+05 8.73115E-11-6.15546E-09
 -1         2 1.81007E+03 2.03788E+05 5.90842E+03 4.17742E+02-9.79696E-11-8.09669E-09
 -1         3-3.09546E+01-4.52107E+05 1.04480E+02-1.03269E+02-6.86580E-11-9.24047E-10
 -1         5-3.18717E+00 1.62392E+05 4.25253E+00-2.28845E-02 8.79407E-11 3.30838E-08
 -1         8-5.08079E+05-2.21440E+05-1.71924E+04-3.85565E+05 1.70985E-10-2.92857E-09
 -1         9-8.72192E+05-2.25761E+05-8.63372E+04-3.01504E+05 2.37196E-09-1.65892E-10
 -1        10-3.43443E+02-4.71002E+05-6.01880E+02-6.89811E+02-2.17801E-09 1.07806E-08
 -1        12-1.44206E+00 1.62401E+05 1.37869E+02 1.11317E-01 1.58010E-10-4.20891E-09
 -1        15 1.34461E+03 7.38934E+02 4.34643E+03 1.89944E+00-2.11077E-09-6.67139E-07
 -1        16-2.45638E+06-7.89960E+05-3.81897E+05-8.02960E+05 7.28081E-09-2.50293E-09
 -1        17-5.41676E+05-3.34198E+05-1.04223E+05-3.15206E+05-3.66927E-09 2.02272E-10
 -1        18 1.91758E+04 1.77119E+03-7.67618E+03-3.82307E+04 4.99540E-10-1.94063E-09
 -1        19 5.08895E+04 6.06865E+04-2.81649E+02 9.96922E+03-4.12001E-10 2.38069E-09
 -1        20-2.11681E+04-2.40496E+05-5.30355E+04 1.78722E+04 2.38060E-09 2.58812E-09
 -1        21-2.24890E+01-1.39534E+05-4.45052E+02-3.42753E+01-6.04795E-09-5.71394E-11
 -1        24-2.15776E+06-7.49251E+05-3.07975E+05-9.13416E+05-1.04458E-08-5.12227E-09
 -1        25 1.91075E+04-2.41112E+03 1.13935E+04-6.90497E+04 2.45291E-10 2.59442E-09
 -1        26-1.17263E+04 4.14822E+04-8.21461E+03-5.94060E+03 1.08666E-09 7.67108E-10
 -1        27-3.86724E+04-1.32025E+05-4.95633E+04 2.97391E+04 3.08789E-09-1.93010E-09
 -1        28 1.03574E+04-3.89564E+04 7.89078E+03 1.23825E+04 1.59713E-09 1.46930E-09
 -1        32-5.14542E+05-7.51631E+04 2.22448E+05-3.46909E+05-1.02009E-08 8.31717E-09
 -1        33-7.54960E+04 3.88201E+04 1.37631E+04-2.25594E+04 6.77668E-10 3.18384E-09
 -1        34-9.80636E+04-9.78024E+03 2.29461E+02 3.00500E+04 1.81712E-09-2.25911E-09
 -1        35-1.09803E+04-1.58802E+04-7.19754E+02 2.43194E+04 4.38725E-09-3.24386E-09
 -1        51 9.89747E+03-2.54346E+05 2.43958E+04-6.29739E+05-7.27596E-11-2.68483E-09
 -1        52 5.22750E+03-2.52397E+05 1.61619E+04-7.34476E+05 1.49157E-10-2.85218E-09
 -1        53 3.43633E+03-2.59022E+05 1.41182E+04-6.27593E+05 4.03816E-10-9.20409E-09
 -1        54 1.07530E+04-2.56920E+05 2.28850E+04-7.36752E+05 2.18279E-10-2.78778E-08
 -1        55 2.35488E+04-2.65324E+05 4.11777E+04-6.27307E+05 5.09317E-10-8.97126E-09
 -1        56-2.07236E+06-2.34244E+05-1.61933E+05-7.99200E+05-1.54614E-09 2.60479E-09
 -1        57-2.13742E+06-3.80670E+05-1.09141E+05-7.92951E+05 9.74069E-10 2.23918E-09
 -1        58-2.10476E+06-2.85649E+05-3.81192E+04-7.89204E+05 1.13641E-09-4.73847E-09
 -1        59-2.09993E+06-3.20412E+05-2.27562E+04-8.04966E+05 1.29410E-09-4.89604E-09
 -1        60-2.10954E+06-2.92771E+05-8.90873E+03-7.87804E+05 2.42380E-10 4.32101E-09
 -1        61-2.09487E+06-3.11593E+05-5.06605E+03-8.06035E+05 1.39153E-10-3.70636E-09
 -1        62-2.10975E+06-2.94253E+05-2.44240E+03-7.88200E+05 8.26503E-10-2.43799E-09
 -1        63-2.09565E+06-3.09015E+05-2.00818E+03-8.04385E+05-2.68983E-10 2.20624E-09
 -1        64-2.10871E+06-2.95350E+05-2.31026E+03-7.89433E+05 2.47837E-10-6.77494E-09
 -1        65-2.09879E+06-3.07311E+05-4.62115E+03-8.01188E+05-5.20686E-10-1.03955E-09
 -1        66-2.10656E+06-2.96011E+05-8.13696E+03-7.91354E+05 4.53610E-11-1.53204E-09
 -1        67-2.10697E+06-3.11647E+05-2.06445E+04-7.95972E+05 7.40783E-10-6.77437E-09
 -1        68-2.10054E+06-2.91240E+05-3.46586E+04-7.94556E+05 9.28139E-10-2.46109E-09
 -1        69-2.14397E+06-3.63447E+05-9.90978E+04-7.81755E+05 1.46929E-09-9.85892E-09
 -1        70-2.06987E+06-2.45772E+05-1.47108E+05-8.05016E+05-1.22418E-09-7.38510E-09
 -1        86-9.07656E+02 2.01979E+05 6.33208E+03-2.08883E+02 7.95580E-10-1.14630E-09
 -1        87 6.02451E+03 2.05847E+05 1.32082E+04 8.58185E+02 1.34264E-09 6.44945E-09
 -1        88-5.11010E+03 1.99921E+05 2.02241E+04-6.49330E+02 1.99816E-09-2.02158E-09
 -1        89 3.80831E+04 2.20789E+05 5.45378E+04 1.84429E+03 3.01861E-09-6.87749E-09
 -1        90-3.28622E+04 1.87046E+05 7.70410E+04-1.19471E+03 3.45608E-09-3.59654E-09
 -1       121-5.42399E+01-4.52279E+05 9.90225E+01 5.15956E+01 2.40448E-10-8.75661E-09
 -1       122 3.40001E+00-4.52084E+05 2.28208E+02-2.06661E+02-8.51461E-10-2.84354E-09
 -1       123-7.91693E+01-4.52303E+05 3.69483E+02 1.54837E+02 7.06422E-10 1.56160E-09
 -1       124 4.24275E+02-4.51826E+05 9.57369E+02-4.92379E+02-1.55910E-09-3.66890E-09
 -1       125-3.52752E+02-4.52541E+05 1.46826E+03 3.37301E+02 1.12209E-09-3.36331E-09
 -1       191-3.48696E+00 1.62406E+05 5.07742E+00 1.11573E-02 1.15114E-10 8.24139E-09
 -1       192-3.57772E+00 1.62392E+05 9.00465E+00 2.76241E-01 1.50109E-10-6.46651E-09
 -1       193-4.52560E+00 1.62405E+05 1.67412E+01-2.89359E-01 1.66327E-10-4.72437E-09
 -1       194-4.83472E+00 1.62393E+05 3.40624E+01 7.76124E-01 7.18496E-11-2.80602E-09
 -1       195-6.52200E+00 1.62404E+05 6.66238E+01-4.92063E-01 2.69495E-10-4.99222E-09
 -1       251 1.82997E+05-3.18913E+04 7.45095E+04 2.93192E+03-1.83036E-10-1.88811E-09
 -1       252 2.16677E+05 3.69054E+04 5.28193E+04-9.77083E+03-3.86535E-12 5.71799E-09
 -1       253 1.95776E+05-4.93849E+03 1.92862E+04 2.08701E+03-4.78735E-10 6.54836E-11
 -1       254 2.01644E+05 5.70735E+03 1.21804E+04-8.43467E+03-3.22672E-10-2.21007E-09
 -1       255 1.97977E+05-7.63098E+02 4.98327E+03 1.59592E+03 4.79304E-10 4.45789E-09
 -1       256 1.99019E+05 9.05188E+02 3.02762E+03-7.70871E+03 7.49239E-10 7.76254E-10
 -1       257 1.98377E+05-1.33587E+02 1.55912E+03 1.36103E+03-2.70717E-11 1.23248E-09
 -1       258 1.98612E+05 2.81989E+02 1.38209E+03-7.47129E+03-3.37286E-12-1.42215E-10
 -1       259 1.98376E+05-1.36258E+02 1.58438E+03 1.35851E+03-8.93436E-11-6.42854E-09
 -1       260 1.99029E+05 9.28632E+02 3.09940E+03-7.69920E+03 3.07956E-10-1.24555E-09
 -1       261 1.97968E+05-7.83586E+02 5.11456E+03 1.58894E+03 1.30839E-09-6.35737E-10
 -1       262 2.01713E+05 5.86194E+03 1.25042E+04-8.41410E+03 3.16732E-10 5.87715E-09
 -1       263 1.95715E+05-5.07162E+03 1.98088E+04 2.07342E+03-3.74655E-10 3.65162E-09
 -1       264 2.17130E+05 3.79023E+04 5.42383E+04-9.73769E+03-2.03264E-09 2.11003E-10
 -1       265 1.82604E+05-3.27503E+04 7.65292E+04 2.91236E+03-8.59814E-10-2.33558E-09
 -1       266-2.43418E+04-1.13823E+04 5.71127E+04-4.06422E+01-3.25599E-09-1.05048E-06
 -1       267 2.82190E+04 1.32662E+04 4.03665E+04 4.68929E+01-6.49970E-09-2.07114E-06
 -1       268-3.78411E+03-1.87887E+03 1.50040E+04-5.97498E+00-5.19776E-09-1.66386E-06
 -1       269 4.46792E+03 2.24860E+03 9.75239E+03 6.95995E+00-3.91299E-09-1.24839E-06
 -1       270-6.70641E+02-3.69463E+02 4.70762E+03-9.44512E-01-2.89947E-09-9.22913E-07
 -1       271-2.39227E+06-2.97897E+05-1.84092E+05-9.31218E+05 1.81899E-12 3.05590E-09
 -1       272-2.44325E+06-4.47277E+05-1.18357E+05-9.46921E+05 5.63887E-10-6.66114E-09
 -1       273-2.42725E+06-3.43386E+05-4.34837E+04-9.22644E+05 6.83713E-10 5.33146E-09
 -1       274-2.40243E+06-3.91495E+05-2.43458E+04-9.60120E+05 3.68732E-09 2.05000E-09
 -1       275-2.43264E+06-3.47511E+05-1.01148E+04-9.20547E+05 4.45652E-10 3.66072E-10
 -1       276-2.39607E+06-3.86654E+05-5.37823E+03-9.63505E+05-5.37057E-10-6.71662E-10
 -1       277-2.43386E+06-3.47408E+05-2.63045E+03-9.19724E+05 5.22959E-11 9.74069E-09
 -1       278-2.39491E+06-3.86639E+05-1.91344E+03-9.64491E+05 7.97797E-10 1.41029E-09
 -1       279-2.43393E+06-3.47389E+05-2.05295E+03-9.19676E+05-7.87281E-10 8.94261E-10
 -1       280-2.39571E+06-3.86530E+05-3.76158E+03-9.63733E+05-6.44604E-10 3.42152E-09
 -1       281-2.43296E+06-3.47618E+05-6.88121E+03-9.20392E+05 6.21640E-10 3.88582E-09
 -1       282-2.40041E+06-3.89300E+05-1.64289E+04-9.60825E+05 2.91948E-10 3.29192E-09
 -1       283-2.42897E+06-3.45230E+05-2.93327E+04-9.22205E+05 1.05774E-09 1.69166E-10
 -1       284-2.42869E+06-4.25980E+05-7.97339E+04-9.50794E+05 5.05906E-11-4.09818E-09
 -1       285-2.40484E+06-3.15195E+05-1.24110E+05-9.28612E+05 7.00311E-10 1.13505E-09
 -1       301 9.18176E+03-5.60932E+03 7.16398E+04-1.76314E+04-6.07542E-10-2.04301E-09
 -1       302 9.86572E+03 1.25708E+04 5.17640E+04-2.59449E+04 8.70614E-10 1.70581E-09
 -1       303 4.32853E+02 8.20385E+02 4.77002E+04-1.76687E+04-4.18368E-10-6.18911E-10
 -1       304 1.86412E+04 2.06655E+04 8.02922E+04-2.58736E+04 9.54969E-10 2.16528E-09
 -1       305 1.84751E+04-1.36570E+04 1.34772E+05-1.76551E+04-6.40284E-10 8.49786E-09
 -1       306-2.57452E+06-2.96255E+05-1.96290E+05-1.00432E+06 1.52431E-09-4.39468E-09
 -1       307-2.67213E+06-4.65730E+05-1.33841E+05-9.74394E+05 7.45786E-10 3.49246E-09
 -1       308-2.61914E+06-3.57203E+05-4.61848E+04-9.85858E+05-1.93722E-10 3.36877E-09
 -1       309-2.61698E+06-3.98324E+05-2.79773E+04-1.00017E+06-9.95897E-10 2.21007E-09
 -1       310-2.62944E+06-3.62461E+05-1.08391E+04-9.78976E+05-1.04269E-09 3.87445E-10
 -1       311-2.60369E+06-3.93746E+05-6.28335E+03-1.01009E+06 3.33603E-09 4.11228E-09
 -1       312-2.63251E+06-3.61535E+05-3.07209E+03-9.76074E+05 2.34053E-10 1.52750E-09
 -1       313-2.60111E+06-3.94177E+05-2.76986E+03-1.01248E+06-2.79974E-09 2.27601E-09
 -1       314-2.63205E+06-3.61982E+05-3.33077E+03-9.76623E+05-1.04433E-09 1.64505E-10
 -1       315-2.60549E+06-3.92255E+05-7.01920E+03-1.00799E+06 1.50010E-10 4.30350E-09
 -1       316-2.62806E+06-3.63535E+05-1.22462E+04-9.80494E+05 2.18128E-09-2.78396E-09
 -1       317-2.62102E+06-3.97040E+05-3.16532E+04-9.96328E+05 3.99183E-10-3.29055E-09
 -1       318-2.61646E+06-3.57464E+05-5.22719E+04-9.88144E+05-3.90946E-09 6.86850E-09
 -1       319-2.68282E+06-4.74143E+05-1.51542E+05-9.68137E+05-1.14596E-09-7.06495E-09
 -1       320-2.56655E+06-2.87754E+05-2.22167E+05-1.00823E+06 5.56247E-09-2.64845E-09
 -1       336 3.54570E+02-4.89620E+05-2.60521E+03 3.52068E+02-4.37194E-09 3.83625E-09
 -1       337-9.38891E+02-4.90342E+05-2.85398E+03-9.49543E+02-8.11633E-09 2.34968E-09
 -1       338 2.33415E+02-4.89697E+05-3.59230E+03 5.95955E+02-5.67047E-09-3.00133E-11
 -1       339-3.71424E+03-4.92043E+05-7.86611E+03-1.43294E+03-1.01811E-08-2.77760E-09
 -1       340 2.52778E+03-4.87939E+05-1.21193E+04 8.32692E+02-6.82985E-09-1.10686E-09
 -1       406 9.08130E+00 1.62398E+05 2.72187E+02 3.72935E-01 3.73319E-10-1.44596E-08
 -1       407 9.34629E+01 1.62448E+05 5.78524E+02-6.68278E+00 1.20224E-11-2.22053E-08
 -1       408 2.96344E+02 1.62356E+05 1.15544E+03 6.38464E+00 4.20073E-10-1.30317E-08
 -1       409 1.24803E+03 1.62818E+05 2.60133E+03-5.83651E+01-1.25056E-11 9.74978E-10
 -1       410 3.58840E+03 1.62028E+05 5.31056E+03 5.33914E+01 4.29281E-10 1.50771E-09
 -1       521-4.86021E+06-5.61450E+05-3.63964E+05-1.89075E+06 2.91038E-09-7.17409E-09
 -1       522-5.03625E+06-8.74637E+05-2.47315E+05-1.84078E+06-5.47516E-10-1.66256E-09
 -1       523-4.94489E+06-6.70371E+05-8.55743E+04-1.85418E+06 3.90173E-10-7.63976E-11
 -1       524-4.93180E+06-7.54072E+05-5.15776E+04-1.89147E+06 9.25411E-11-2.64754E-09
 -1       525-4.96406E+06-6.79178E+05-1.99759E+04-1.84104E+06 1.21349E-09-3.13776E-10
 -1       526-4.90980E+06-7.43610E+05-1.15130E+04-1.90685E+06 1.41210E-09 6.28006E-10
 -1       527-4.96695E+06-6.80289E+05-5.52741E+03-1.83905E+06 1.73657E-09 4.52667E-09
 -1       528-4.91292E+06-7.35958E+05-4.69421E+03-1.90119E+06-1.58798E-09 2.27323E-09
 -1       529-4.96076E+06-6.86884E+05-5.61364E+03-1.84660E+06-1.86969E-09 1.33423E-09
 -1       530-4.93201E+06-7.20171E+05-1.12554E+04-1.87934E+06-2.48519E-10 1.97610E-09
 -1       531-4.94755E+06-6.96350E+05-2.00065E+04-1.86065E+06-9.62473E-10 5.96629E-10
 -1       532-4.96893E+06-7.15970E+05-5.10884E+04-1.84778E+06-3.50980E-10-6.08998E-09
 -1       533-4.92398E+06-6.91493E+05-8.49236E+04-1.87805E+06 4.49290E-10-2.92857E-09
 -1       534-5.07422E+06-8.35517E+05-2.45582E+05-1.79834E+06-1.91267E-09 4.51109E-09
 -1       535-4.84346E+06-5.79212E+05-3.61038E+05-1.90954E+06-7.05768E-09 4.20550E-09
 -1       536-1.14375E+04-1.35871E+04 3.12968E+04 2.96661E+02-9.34534E-10 2.20643E-09
 -1       537 3.04944E+03 1.57211E+04 2.22984E+04-1.20174E+03-4.72519E-09-6.45741E-11
 -1       538-6.07207E+03-2.12943E+03 8.07278E+03 2.82359E+02 8.83915E-11 4.43788E-09
 -1       539-3.28053E+03 2.45812E+03 5.15482E+03-1.19772E+03 2.59011E-09 4.44470E-09
 -1       540-5.11426E+03-3.31393E+02 2.03818E+03 2.92647E+02 8.20968E-10 1.60333E-09
 -1       541-4.45496E+03 3.79068E+02 1.21769E+03-1.21684E+03-3.84887E-10 1.05729E-11
 -1       542-4.90179E+03-4.90443E+01 4.88259E+02 3.01475E+02 1.64604E-10-6.79847E-10
 -1       543-4.73831E+03 4.68395E+01 2.45781E+02-1.23086E+03 4.58435E-10 4.08566E-09
 -1       544-4.83361E+03 2.54968E+00 3.47748E+01 3.06666E+02-5.47512E-10 5.06745E-10
 -1       545-4.84844E+03-6.11527E+01-1.46166E+02-1.23742E+03-6.82586E-10 5.13170E-09
 -1       546-4.79289E+03 5.97793E+01-3.40656E+02 3.08036E+02 5.26771E-10 1.21844E-09
 -1       547-5.02690E+03-4.42891E+02-9.00948E+02-1.23627E+03-1.32647E-09-5.99073E-09
 -1       548-4.65492E+03 3.83841E+02-1.46253E+03 3.05513E+02-1.51484E-09-1.19553E-09
 -1       549-6.06122E+03-2.82966E+03-3.98841E+03-1.22645E+03-7.75746E-10 6.48515E-09
 -1       550-3.75680E+03 2.44344E+03-5.68181E+03 2.98212E+02 1.33383E-10-2.11094E-09
 -1       551 4.25101E+03-2.57746E+05 1.43335E+04-4.42308E+05-1.95832E-08-5.43514E-09
 -1       552 8.66925E+03-2.57648E+05 1.85560E+04-6.29373E+05-1.49957E-08 1.15506E-09
 -1       553 5.52898E+03-2.61034E+05 2.89324E+04-4.40900E+05-2.38470E-08 2.40289E-09
 -1       554 2.27648E+04-2.48154E+05 6.14502E+04-6.29974E+05-1.45665E-08 6.92580E-10
 -1       555 2.33769E+04-2.72814E+05 1.10493E+05-4.41506E+05-2.38979E-08-4.34738E-09
 -1       556 3.57875E+04-8.22115E+04 2.85979E+04-1.10109E+05-5.26779E-09 2.18279E-11
 -1       557 6.91872E+04-1.10303E+05 1.49589E+04-1.37520E+05 1.37879E-09-1.12686E-09
 -1       558 3.61936E+04-8.63201E+04 6.13761E+03-1.06541E+05-3.52156E-09 2.32831E-10
 -1       559 6.52579E+04-1.14402E+05 3.08567E+03-1.39110E+05 3.46336E-09-5.99084E-09
 -1       560 3.56025E+04-8.59100E+04 1.32199E+03-1.06877E+05 3.23780E-10 1.95723E-09
 -1       561 6.41934E+04-1.14216E+05 6.81562E+02-1.39774E+05-4.67116E-09-4.31123E-09
 -1       562 3.50965E+04-8.55567E+04 2.78516E+02-1.07246E+05 2.43381E-09 9.17908E-10
 -1       563 6.35834E+04-1.13956E+05 1.59503E+02-1.40164E+05 9.64792E-09-1.70189E-10
 -1       564 3.47814E+04-8.53491E+04 5.92115E+01-1.07472E+05 6.29552E-09-5.43878E-10
 -1       565 6.32706E+04-1.13825E+05 2.79929E+01-1.40358E+05 8.24912E-10 8.90486E-09
 -1       566 3.46741E+04-8.52750E+04-2.02793E+01-1.07552E+05-9.54060E-10 2.27374E-10
 -1       567 6.32266E+04-1.13802E+05-8.20823E+01-1.40345E+05 4.57601E-09 3.49974E-09
 -1       568 3.47961E+04-8.53569E+04-2.12555E+02-1.07505E+05-2.88219E-09-5.28780E-09
 -1       569 6.30296E+04-1.13684E+05-5.01711E+02-1.39761E+05-1.02864E-09 6.11726E-09
 -1       570 3.54958E+04-8.60418E+04-1.03231E+03-1.07580E+05 8.33097E-10 1.84946E-09
 -1       571 1.17780E+05 4.27016E+03 6.32515E+03-2.95784E+04 1.83718E-10 9.84528E-10
 -1       572 1.18723E+05 1.48529E+03 3.09869E+03-3.24230E+04 3.40151E-10-7.97468E-09
 -1       573 1.18162E+05 3.53988E+02 1.37654E+03-2.95012E+04 1.82354E-10 6.32099E-10
 -1       574 1.18274E+05 1.14399E+02 6.89537E+02-3.25096E+04-6.30735E-10 6.62340E-10
 -1       575 1.18206E+05 1.49241E+01 3.24940E+02-2.94909E+04-1.04592E-10 1.49043E-09
 -1       576 1.18214E+05 3.15447E+00 1.65307E+02-3.25212E+04 2.15664E-10-3.05772E-09
 -1       577 1.18213E+05-3.29844E+00 8.13718E+01-2.94895E+04-7.28733E-11 4.86170E-09
 -1       578 1.18207E+05-1.91398E+00 4.42453E+01-3.25226E+04-4.51109E-10 2.20462E-09
 -1       579 1.18218E+05-3.36010E+00 2.69734E+01-2.94895E+04-3.20370E-10-7.54881E-10
 -1       580 1.18213E+05-3.68076E+00 2.49528E+01-3.25208E+04 1.61890E-10 1.28625E-09
 -1       581 1.18226E+05-5.31783E+00 3.38054E+01-2.94914E+04 1.08002E-09 1.77374E-09
 -1       582 1.18230E+05 7.14846E-01 6.41403E+01-3.25031E+04 7.50333E-10-2.30420E-09
 -1       583 1.18234E+05 1.81714E+01 1.23324E+02-2.95072E+04-6.02995E-10-1.72884E-09
 -1       584 1.18285E+05 1.15387E+02 2.76186E+02-3.23713E+04-1.93722E-09 2.30864E-09
 -1       585 1.18214E+05 3.60187E+02 5.61403E+02-2.96233E+04-1.85082E-10 1.16324E-09
 -1       586-1.46654E+03 3.83771E+04-1.93413E+03-1.00781E+05 3.28328E-10-1.41858E-09
 -1       587-3.27692E+02 3.81198E+04-2.33774E+02-1.10901E+05 5.68434E-10-1.01943E-08
 -1       588 3.89615E+02 3.81696E+04 1.33359E+03-1.00719E+05 3.03771E-10 1.98952E-09
 -1       589 1.98953E+03 3.88979E+04 3.90817E+03-1.10809E+05 4.62023E-10 6.36646E-10
 -1       590 5.73696E+03 3.76761E+04 8.37917E+03-1.00873E+05 2.36469E-10 2.28511E-09
 -1       591-2.56279E+04-7.35940E+03-8.55274E+03-1.33148E+04 5.67411E-10-2.10503E-09
 -1       592-2.64255E+04-9.46327E+03-4.63252E+03-1.55490E+04 1.28625E-09 1.10686E-09
 -1       593-2.64924E+04-6.72927E+03-1.92855E+03-1.39321E+04 4.68208E-09 3.00145E-09
 -1       594-2.52333E+04-8.22033E+03-9.61877E+02-1.56081E+04 4.76734E-09-3.69141E-09
 -1       595-2.65585E+04-6.72653E+03-4.42045E+02-1.39604E+04 4.57317E-09 9.19954E-10
 -1       596-2.51524E+04-8.16344E+03-2.25345E+02-1.55996E+04 2.51498E-09 2.49526E-09
 -1       597-2.65668E+04-6.73204E+03-1.24052E+02-1.39615E+04 1.82476E-09 1.14392E-09
 -1       598-2.51448E+04-8.16125E+03-1.02188E+02-1.55973E+04-2.10946E-10 5.77757E-10
 -1       599-2.65663E+04-6.73199E+03-1.33579E+02-1.39613E+04-4.66588E-09-7.18705E-09
 -1       600-2.51536E+04-8.16411E+03-2.50630E+02-1.55996E+04-2.44358E-09-1.30701E-08
 -1       601-2.65560E+04-6.72586E+03-4.95659E+02-1.39597E+04 4.90218E-10-1.67813E-09
 -1       602-2.52446E+04-8.22788E+03-1.08102E+03-1.56084E+04-2.95643E-10-4.82652E-09
 -1       603-2.64812E+04-6.72983E+03-2.16817E+03-1.39282E+04-3.75132E-09-2.35514E-09
 -1       604-2.65896E+04-9.62045E+03-5.20849E+03-1.55358E+04-1.11149E-08 1.92688E-09
 -1       605-2.55035E+04-7.44239E+03-9.61593E+03-1.32390E+04-4.69225E-09-1.65301E-09
 -1       606 1.68222E+04-5.66946E+03-1.02138E+04 1.64855E+04-2.76123E-09-2.59206E-11
 -1       607 1.50732E+04-1.82854E+03-5.08609E+03 1.85059E+04-8.06267E-10 5.50699E-10
 -1       608 1.60705E+04-3.07314E+02-2.27711E+03 1.63539E+04 5.03860E-10 2.72837E-09
 -1       609 1.58746E+04-8.16103E+01-1.15032E+03 1.86513E+04-2.95768E-09 1.94632E-09
 -1       610 1.59839E+04 1.31160E+01-5.49105E+02 1.63393E+04-3.37241E-09 2.01680E-10
 -1       611 1.59485E+04 1.80666E+01-2.77092E+02 1.86673E+04-3.73802E-09-3.95380E-09
 -1       612 1.59637E+04 1.95380E+01-1.32373E+02 1.63378E+04-1.77351E-10-2.73258E-09
 -1       613 1.59515E+04 2.06164E+01-6.04570E+01 1.86692E+04-2.97518E-09-1.12232E-09
 -1       614 1.59537E+04 1.78605E+01-1.68155E+01 1.63373E+04-1.33755E-08 1.82035E-09
 -1       615 1.59479E+04 2.19405E+01 1.86826E+01 1.86696E+04-1.93968E-08-1.67302E-09
 -1       616 1.59461E+04 1.96535E+01 6.22155E+01 1.63375E+04-1.24010E-08-1.57797E-09
 -1       617 1.59541E+04 3.62082E+01 1.44220E+02 1.86693E+04 2.11003E-10-9.04379E-10
 -1       618 1.59324E+04 6.20026E+01 2.91618E+02 1.63375E+04 9.84528E-11-2.87969E-09
 -1       619 1.60563E+04 2.62413E+02 6.55415E+02 1.86689E+04 7.80915E-10-2.37492E-09
 -1       620 1.58349E+04 7.54558E+02 1.31756E+03 1.63371E+04 6.91784E-10 1.95882E-09
 -1       621 2.05578E+02 1.28258E+05 1.77467E+03 4.07210E+03-1.96692E-10 3.70085E-09
 -1       622 2.34904E+02 1.28698E+05 1.50528E+03 5.94366E+03-1.87129E-10 6.47998E-09
 -1       623 1.01826E+01 1.28385E+05 1.72990E+03 4.05288E+03-2.07763E-11 4.32749E-10
 -1       624 7.82816E+02 1.29201E+05 3.28396E+03 5.96255E+03-6.12488E-11 1.88348E-09
 -1       625 7.85706E+02 1.27753E+05 5.70853E+03 4.05337E+03-5.13865E-11-1.72264E-10
 -1       626 1.05836E+05 2.93636E+04 2.11502E+03 5.72664E+04-2.75350E-10 4.19095E-09
 -1       627 1.04384E+05 3.04326E+04 1.01881E+03 5.95875E+04-4.00178E-11 5.58430E-10
 -1       628 1.05920E+05 2.83612E+04 4.30590E+02 5.75868E+04 2.07001E-09-2.08320E-09
 -1       629 1.04082E+05 3.01912E+04 2.10888E+02 5.97297E+04 2.45927E-09 1.93251E-09
 -1       630 1.05928E+05 2.83121E+04 9.76527E+01 5.75971E+04-1.20099E-09-1.08213E-09
 -1       631 1.04048E+05 3.01848E+04 5.24167E+01 5.97332E+04-6.02927E-09-4.72446E-09
 -1       632 1.05925E+05 2.83146E+04 3.46535E+01 5.75938E+04-4.91173E-09-1.56197E-09
 -1       633 1.04042E+05 3.01872E+04 3.86174E+01 5.97306E+04-3.93982E-09 2.08524E-09
 -1       634 1.05921E+05 2.83144E+04 6.25577E+01 5.75919E+04-9.74524E-10-5.19913E-09
 -1       635 1.04046E+05 3.01878E+04 1.26846E+02 5.97310E+04 1.70343E-09-1.36879E-10
 -1       636 1.05914E+05 2.83137E+04 2.56277E+02 5.75902E+04-1.14928E-08 3.37627E-09
 -1       637 1.04098E+05 3.02287E+04 5.63296E+02 5.97283E+04-2.65422E-08-6.57133E-09
 -1       638 1.05892E+05 2.84396E+04 1.15782E+03 5.75319E+04-1.02950E-08 4.40627E-09
 -1       639 1.04702E+05 3.10762E+04 2.73911E+03 5.95475E+04-1.28887E-09 8.20933E-10
 -1       640 1.05809E+05 3.09620E+04 5.68460E+03 5.64609E+04-1.57206E-09 1.75010E-09
 -1       656 2.86854E+04-7.26090E+05-6.92618E+04-5.11499E+02 1.10958E-09 1.14052E-09
 -1       657-3.79029E+04-7.57374E+05-5.72796E+04 4.75368E+03-6.54836E-11-4.09422E-09
 -1       658 9.09441E+03-7.35019E+05-3.51527E+04-9.54078E+02 5.91399E-10-2.47676E-09
 -1       659-4.06367E+04-7.58661E+05-6.08699E+04 5.04493E+03-2.58296E-10 1.38495E-09
 -1       660 3.14116E+04-7.24806E+05-7.54436E+04-8.02744E+02-4.03816E-10 5.19421E-10
 -1       661 1.03128E+05 1.11978E+04 9.88608E+03 4.02579E+04 2.45291E-09 2.48929E-09
 -1       662 1.08220E+05 1.90081E+04 6.66152E+03 3.86027E+04 1.48640E-09-2.59524E-09
 -1       663 1.05062E+05 1.43767E+04 2.33028E+03 3.97030E+04-6.47958E-10 8.99604E-10
 -1       664 1.05985E+05 1.52845E+04 1.39312E+03 3.92746E+04 8.69136E-10 3.02333E-09
 -1       665 1.05348E+05 1.48170E+04 5.49636E+02 3.96253E+04-5.71077E-10-2.43332E-10
 -1       666 1.05651E+05 1.47757E+04 3.20512E+02 3.93719E+04-5.79183E-09 2.35675E-09
 -1       667 1.05394E+05 1.48723E+04 1.69188E+02 3.96107E+04-1.42346E-09 7.75797E-09
 -1       668 1.05604E+05 1.47290E+04 1.69660E+02 3.93916E+04 2.01609E-09 5.57692E-09
 -1       669 1.05394E+05 1.48625E+04 2.27660E+02 3.96061E+04 2.24381E-09 3.96224E-09
 -1       670 1.05666E+05 1.48446E+04 4.93621E+02 3.93857E+04 3.16367E-09-1.15504E-09
 -1       671 1.05332E+05 1.47590E+04 8.75887E+02 3.96157E+04 1.01696E-09-6.09424E-09
 -1       672 1.06182E+05 1.56920E+04 2.24040E+03 3.92571E+04-2.27570E-09-4.69510E-09
 -1       673 1.04882E+05 1.40365E+04 3.75439E+03 3.97266E+04-2.56580E-09 2.61480E-11
 -1       674 1.09760E+05 2.17193E+04 1.07371E+04 3.82017E+04-1.83064E-09 2.55909E-09
 -1       675 1.01777E+05 8.90030E+03 1.59368E+04 4.06076E+04 5.53655E-10-1.67347E-10
 -1       676 1.15478E+01-1.39497E+05-5.36399E+02 1.71380E+01-1.06856E-09-2.54342E-09
 -1       677-1.42381E+02-1.39626E+05-9.81634E+02-3.42705E+01-2.80681E-09-2.96183E-09
 -1       678 9.50650E+01-1.39404E+05-1.73525E+03 1.71207E+01-7.40101E-10 2.88402E-09
 -1       679-1.73546E+03-1.40674E+05-4.12192E+03-3.41910E+01-1.76874E-09-2.38182E-09
 -1       680 1.03564E+03-1.38450E+05-6.64321E+03 1.68641E+01 6.79847E-10-1.80099E-09
 -1       771-1.50056E+06-2.60804E+05-3.64851E+04-6.21052E+05-8.02902E-09-8.49104E-09
 -1       772-1.49117E+06-2.81053E+05-1.96142E+04-6.43601E+05-3.69619E-09 5.80076E-09
 -1       773-1.50535E+06-2.57100E+05-8.39943E+03-6.23096E+05-6.26460E-09 4.26007E-09
 -1       774-1.48583E+06-2.76634E+05-4.10723E+03-6.45494E+05-5.33328E-09-2.98769E-09
 -1       775-1.50629E+06-2.56534E+05-2.03470E+03-6.23218E+05-4.47835E-09 2.08638E-09
 -1       776-1.48566E+06-2.76600E+05-9.49080E+02-6.46382E+05-3.61615E-09 1.38516E-09
 -1       777-1.50689E+06-2.56116E+05-5.62496E+02-6.23265E+05-2.91038E-10 1.22782E-09
 -1       778-1.48580E+06-2.76714E+05-2.57734E+02-6.47112E+05 1.16779E-09 2.41653E-09
 -1       779-1.50735E+06-2.55760E+05-2.40153E+02-6.23306E+05-1.71713E-09-1.56797E-09
 -1       780-1.48595E+06-2.76816E+05-1.98689E+02-6.47703E+05-1.27329E-09 3.30601E-10
 -1       781-1.50770E+06-2.55472E+05-3.50762E+02-6.23333E+05-6.25369E-09-5.66615E-10
 -1       782-1.48612E+06-2.76926E+05-6.53615E+02-6.48138E+05-5.80440E-09-2.21576E-09
 -1       783-1.50789E+06-2.55287E+05-1.30633E+03-6.23338E+05 7.02130E-10-5.22772E-09
 -1       784-1.48698E+06-2.77807E+05-3.10070E+03-6.48368E+05-2.95177E-09-3.14230E-10
 -1       785-1.50744E+06-2.55604E+05-5.73164E+03-6.22928E+05-7.11771E-09 1.14642E-09
 -1       786 1.09260E+05-5.83327E+03 1.34946E+04 1.48767E+00 9.38791E-08-1.00681E-09
 -1       787 1.15108E+05 6.75308E+03 9.54739E+03-7.29433E+00 1.86401E-07-3.25599E-10
 -1       788 1.11517E+05-9.14428E+02 3.49274E+03 2.46766E+00 2.66707E-07-2.93858E-09
 -1       789 1.12480E+05 1.05805E+03 2.19454E+03-9.89578E+00 3.47175E-07 2.35283E-09
 -1       790 1.11889E+05-1.42849E+02 8.92957E+02 4.08915E+00 4.73991E-07-2.92300E-09
 -1       791 1.12045E+05 1.65977E+02 5.24329E+02-1.40785E+01 6.01287E-07 8.49916E-09
 -1       792 1.11951E+05-2.30282E+01 2.39392E+02 6.65044E+00 8.39783E-07-5.11253E-09
 -1       793 1.11975E+05 3.23865E+01 1.57063E+02-2.06117E+01 1.07677E-06 7.01628E-09
 -1       794 1.11959E+05-9.34646E+00 1.16640E+02 1.06224E+01 5.38435E-07-4.40731E-09
 -1       795 1.11982E+05 4.83354E+01 1.69150E+02-3.06862E+01 1.94350E-09 2.72535E-09
 -1       796 1.11944E+05-3.89651E+01 2.53636E+02 1.67252E+01-9.75724E-11-1.91608E-09
 -1       797 1.12097E+05 2.85663E+02 5.98252E+02-4.61310E+01-2.05020E-11-5.53067E-09
 -1       798 1.11844E+05-2.46499E+02 9.44416E+02 2.60675E+01-1.20250E-10-1.15284E-09
 -1       799 1.12806E+05 1.82003E+03 2.57467E+03-6.99009E+01-6.44770E-10 2.72220E-09
 -1       800 1.11236E+05-1.57209E+03 3.63707E+03 4.04952E+01-1.09730E-10 2.91629E-09
 -1       801-6.32062E+03 1.03333E+04 9.85379E+03 1.16003E+04 6.41512E-09-1.33150E-09
 -1       802 1.65598E+04 5.69001E+04 3.18447E+04-4.77751E+04 1.71858E-08-8.70571E-10
 -1       803-9.84161E+03 2.68560E+04 4.09230E+04 1.10101E+04 1.35497E-08 1.39649E-08
 -1       804 7.92076E+04 9.01748E+04 1.13916E+05-4.82954E+04 1.60562E-08 1.38197E-08
 -1       805-6.89879E+04-2.27981E+04 1.48578E+05 1.21195E+04 5.66797E-09 1.47310E-08
 -1       806-1.28381E+05-2.75127E+04-1.09132E+04-5.34695E+04 3.65162E-10-2.64890E-09
 -1       807-1.29022E+05-2.59509E+04-5.36137E+03-5.63643E+04 8.78572E-10 7.91232E-10
 -1       808-1.28691E+05-2.35700E+04-2.27435E+03-5.53208E+04 2.87173E-10-2.75946E-09
 -1       809-1.27878E+05-2.44623E+04-1.11188E+03-5.65191E+04-8.90566E-10 1.53955E-09
 -1       810-1.28740E+05-2.34307E+04-5.09107E+02-5.54026E+04-3.10911E-09-5.46413E-09
 -1       811-1.27791E+05-2.44033E+04-2.52491E+02-5.65064E+04 5.22505E-10-6.87572E-09
 -1       812-1.28749E+05-2.34407E+04-1.25949E+02-5.54027E+04 2.87037E-09 4.27838E-09
 -1       813-1.27780E+05-2.44047E+04-7.94542E+01-5.65002E+04 4.04725E-10 7.00311E-11
 -1       814-1.28748E+05-2.34442E+04-7.44069E+01-5.54013E+04 3.75849E-10 5.61386E-10
 -1       815-1.27782E+05-2.44059E+04-1.16539E+02-5.64989E+04 5.40240E-10-4.65241E-09
 -1       816-1.28741E+05-2.34428E+04-2.18251E+02-5.54001E+04-6.73936E-10 3.70869E-09
 -1       817-1.27820E+05-2.44266E+04-4.68155E+02-5.64958E+04 9.64064E-10 6.15864E-09
 -1       818-1.28714E+05-2.35079E+04-9.53974E+02-5.53695E+04 1.59935E-09 4.43379E-11
 -1       819-1.28348E+05-2.49990E+04-2.24559E+03-5.63692E+04 2.35468E-09 4.99585E-09
 -1       820-1.28534E+05-2.52055E+04-4.56997E+03-5.46462E+04 1.52068E-09 3.36854E-10
 -1       821-1.65793E+05 9.20625E+03-2.12932E+04 9.43475E+00-5.48842E-10-6.17547E-10
 -1       822-1.75019E+05-1.06578E+04-1.50673E+04-1.84969E+02-9.83679E-10-4.14684E-09
 -1       823-1.69354E+05 1.44320E+03-5.51504E+03-2.34562E+01 8.06613E-10-2.18211E-09
 -1       824-1.70871E+05-1.67046E+03-3.47062E+03-1.07762E+02 9.03615E-11 4.70760E-09
 -1       825-1.69941E+05 2.25963E+02-1.42576E+03-6.77748E+01-2.39704E-09-6.85191E-10
 -1       826-1.70188E+05-2.66517E+02-8.62340E+02-1.94203E+01-4.25837E-09-2.42505E-09
 -1       827-1.70036E+05 4.02865E+01-4.44920E+02-1.11800E+02-2.43408E-09-2.52510E-09
 -1       828-1.70094E+05-8.14668E+01-3.95001E+02 5.70189E+01-2.57534E-09 2.81460E-10
 -1       829-1.70035E+05 4.10623E+01-4.51629E+02-1.44215E+02-1.27202E-10 6.83727E-10
 -1       830-1.70194E+05-2.73070E+02-8.82778E+02 1.01925E+02 1.20581E-09 1.05729E-11
 -1       831-1.69936E+05 2.31787E+02-1.46125E+03-1.56707E+02-1.16090E-09 1.97332E-09
 -1       832-1.70895E+05-1.71365E+03-3.56067E+03 1.04037E+02 6.29805E-10 2.15397E-09
 -1       833-1.69334E+05 1.48059E+03-5.65773E+03-1.46327E+02-1.25081E-10 3.49974E-09
 -1       834-1.75149E+05-1.09342E+04-1.54584E+04 6.41083E+01 2.91023E-10 6.68479E-10
 -1       835-1.65683E+05 9.44504E+03-2.18460E+04-1.16774E+02 3.79708E-09 3.29510E-09
 -1       836-5.53230E+02 1.57337E+05 9.47201E+03-1.38335E+04 1.18507E-09-1.11527E-09
 -1       837 2.08113E+03 1.60272E+05 8.08294E+03-2.78009E+04 1.70064E-09-2.33570E-09
 -1       838-2.05556E+02 1.58157E+05 8.33112E+03-1.37854E+04 1.48566E-09 3.66640E-10
 -1       839 5.34132E+03 1.62708E+05 1.58544E+04-2.78187E+04 1.99998E-09 3.63923E-09
 -1       840-1.60978E+03 1.54887E+05 2.53203E+04-1.38150E+04 1.41245E-09 1.84912E-09
 -1       856-5.37102E+04 4.50650E+03-1.18747E+04-2.55014E+02-2.51464E-09 1.09549E-09
 -1       857-5.86164E+04-5.28624E+03-8.17586E+03 2.72627E+03 1.40119E-11 4.47289E-09
 -1       858-5.56486E+04 6.31638E+02-3.08181E+03-2.63881E+02-2.12367E-09-2.12140E-09
 -1       859-5.63894E+04-7.35549E+02-1.86156E+03 2.74018E+03 6.74277E-10 3.01509E-09
 -1       860-5.59386E+04 8.79907E+01-7.82800E+02-2.68991E+02 7.76694E-10 6.24681E-10
 -1       861-5.60549E+04-9.86241E+01-4.36329E+02 2.74710E+03-2.30463E-09-4.00878E-09
 -1       862-5.59837E+04 1.18110E+01-1.92729E+02-2.70806E+02 3.34809E-09-1.42020E-09
 -1       863-5.60016E+04-8.91819E+00-9.59750E+01 2.74788E+03 5.59423E-09-3.95836E-09
 -1       864-5.59920E+04 2.19350E-01-3.14608E+01-2.69777E+02 2.95140E-09-2.07259E-09
 -1       865-5.59870E+04 1.10663E+01 1.41955E+01 2.74265E+03 3.08440E-09-2.38443E-09
 -1       866-5.59978E+04-8.26534E+00 5.86165E+01-2.65575E+02-6.92864E-10-2.88824E-09
 -1       867-5.59526E+04 6.99276E+01 1.62993E+02 2.73130E+03 1.13839E-09 1.80457E-09
 -1       868-5.60251E+04-5.80148E+01 2.75987E+02-2.58428E+02 1.11564E-09-4.72363E-09
 -1       869-5.57465E+04 4.82259E+02 7.40894E+02 2.71193E+03-4.03847E-09-1.00667E-08
 -1       870-5.62020E+04-4.10018E+02 1.07530E+03-2.46208E+02 1.71042E-10-2.89469E-09
 -1       871-2.41641E+03-5.09932E+03-7.89159E+03 5.15599E+04 2.31648E-09 3.65526E-09
 -1       872-1.04682E+03-6.86102E+03-3.21513E+03 6.68425E+04 2.90856E-09-1.41608E-09
 -1       873-1.80501E+01-6.02743E+03 4.67200E+02 5.14453E+04 1.48191E-09 2.39390E-09
 -1       874 1.22411E+03-4.87905E+03 4.49550E+03 6.68669E+04 2.92869E-09 6.30507E-09
 -1       875 2.89453E+03-7.10128E+03 9.96653E+03 5.15390E+04 1.15688E-09-3.72074E-09
 -1       876 1.29936E+05 2.23186E+04 6.98533E+03 5.26164E+04-1.90636E-09 1.00499E-09
 -1       877 1.30364E+05 2.38233E+04 3.73022E+03 5.46507E+04-1.14517E-09 5.16820E-10
 -1       878 1.30590E+05 2.15449E+04 1.56285E+03 5.31901E+04 1.25260E-09-4.72960E-09
 -1       879 1.29414E+05 2.28769E+04 7.78444E+02 5.47013E+04 7.43171E-10-2.85215E-09
 -1       880 1.30638E+05 2.15356E+04 3.62415E+02 5.32135E+04 1.33980E-09-8.19512E-10
 -1       881 1.29351E+05 2.28369E+04 1.92894E+02 5.46924E+04 2.34189E-09 1.62208E-09
 -1       882 1.30644E+05 2.15409E+04 1.22377E+02 5.32142E+04 3.83488E-09 8.99067E-10
 -1       883 1.29347E+05 2.28352E+04 1.29861E+02 5.46902E+04 2.28601E-09 5.93309E-09
 -1       884 1.30641E+05 2.15393E+04 2.05083E+02 5.32143E+04 5.81110E-10-3.78549E-10
 -1       885 1.29363E+05 2.28381E+04 4.11394E+02 5.46954E+04 5.57239E-09 3.33387E-11
 -1       886 1.30625E+05 2.15273E+04 8.28750E+02 5.32127E+04 6.50019E-09-1.28910E-09
 -1       887 1.29509E+05 2.29336E+04 1.81019E+03 5.47161E+04-2.71139E-09-2.50719E-09
 -1       888 1.30511E+05 2.15477E+04 3.64763E+03 5.31547E+04-1.51539E-09 9.26320E-10
 -1       889 1.31682E+05 2.51908E+04 8.71420E+03 5.46471E+04 2.17574E-09-1.91790E-09
 -1       890 1.29024E+05 2.33133E+04 1.63207E+04 5.17634E+04 1.35947E-09-3.31784E-09
 -1       891-7.54995E+01-7.52687E+04-9.44548E+02 1.38573E+04-7.88532E-10-5.24528E-09
 -1       892-1.51029E+02-7.55022E+04-1.00573E+03 2.13248E+04 2.09627E-09-4.22926E-09
 -1       893-1.65054E+01-7.53050E+04-1.40798E+03 1.38597E+04 1.66597E-09-2.43335E-09
 -1       894-7.71624E+02-7.60434E+04-2.91124E+03 2.12499E+04 3.05658E-09 2.05091E-09
 -1       895-5.14817E+02-7.47017E+04-5.09631E+03 1.39315E+04 2.10667E-09 5.08635E-09
 -1       956-1.62554E+05-2.34534E+03-5.90495E+03 1.07308E+04-3.01270E-09 1.46156E-09
 -1       957-1.63720E+05-7.92108E+02-3.03156E+03 1.29166E+04-6.78483E-10 2.59888E-09
 -1       958-1.63076E+05-6.38661E+01-1.36562E+03 1.06611E+04 2.26146E-09 1.22827E-09
 -1       959-1.63167E+05-1.31957E+01-6.97629E+02 1.29919E+04-3.87445E-10-7.37828E-11
 -1       960-1.63120E+05 1.74426E+01-3.39946E+02 1.06548E+04-2.48156E-09 4.09273E-12
 -1       961-1.63125E+05 1.49504E+01-1.80284E+02 1.29990E+04-4.97846E-09-1.31195E-09
 -1       962-1.63128E+05 1.41004E+01-1.02879E+02 1.06540E+04-3.67390E-09 1.68257E-11
 -1       963-1.63122E+05 1.49589E+01-8.20978E+01 1.30001E+04-3.67828E-09 6.78347E-09
 -1       964-1.63129E+05 1.48008E+01-9.89716E+01 1.06537E+04-5.26086E-10 4.41946E-09
 -1       965-1.63128E+05 1.65520E+01-1.70446E+02 1.30001E+04 1.33419E-09 1.53818E-09
 -1       966-1.63124E+05 1.94813E+01-3.19548E+02 1.06540E+04-1.49890E-09-8.32074E-10
 -1       967-1.63170E+05-8.24813E+00-6.55190E+02 1.29962E+04-2.07194E-10-2.29426E-09
 -1       968-1.63085E+05-5.53244E+01-1.28195E+03 1.06576E+04 3.96767E-10 4.33803E-09
 -1       969-1.63692E+05-7.38139E+02-2.84627E+03 1.29523E+04 1.69564E-09 5.20865E-09
 -1       970-1.62598E+05-2.19638E+03-5.54367E+03 1.06990E+04 1.56138E-09 5.01086E-09
 -1       971-1.54656E+05-8.19092E+02-4.55687E+03 7.52887E+03-3.68800E-09 1.07734E-09
 -1       972-1.55765E+05-5.89166E+02-2.48200E+03 1.05043E+04-2.69301E-09 3.22780E-09
 -1       973-1.55161E+05-6.35847E+00-1.11101E+03 7.46695E+03-1.39607E-09-1.25283E-09
 -1       974-1.55236E+05-8.64380E+00-5.75703E+02 1.05706E+04 3.97904E-10-4.34534E-09
 -1       975-1.55198E+05 1.33698E+01-2.86888E+02 7.46200E+03 7.15545E-10 6.23004E-11
 -1       976-1.55203E+05 1.37871E+01-1.64329E+02 1.05764E+04-1.77988E-09-1.94115E-09
 -1       977-1.55204E+05 1.21935E+01-1.16889E+02 7.46118E+03 1.40449E-09 1.72554E-09
 -1       978-1.55203E+05 1.56161E+01-1.33684E+02 1.05775E+04 7.07672E-09 4.15514E-09
 -1       979-1.55203E+05 1.53209E+01-2.11995E+02 7.46086E+03 2.79937E-09-6.28120E-11
 -1       980-1.55218E+05 1.67267E+01-4.07584E+02 1.05776E+04 2.72283E-09-1.17274E-09
 -1       981-1.55190E+05 2.55675E+01-7.88376E+02 7.46104E+03-8.03482E-10 2.47127E-09
 -1       982-1.55327E+05-4.10254E+01-1.62899E+03 1.05749E+04-2.49565E-09 4.92570E-10
 -1       983-1.55092E+05-2.41531E+01-3.16465E+03 7.46370E+03 1.07525E-09-1.60526E-10
 -1       984-1.56851E+05-1.69250E+03-7.08660E+03 1.05337E+04-6.18343E-10 8.04789E-10
 -1       985-1.53661E+05-2.33903E+03-1.30132E+04 7.50441E+03 1.93722E-09 2.07456E-09
 -3
    1PSTEP                         5           3           1          
  100CL  103 3.75000E-01         409                     0    3           1
 -4  DISP        4    1
 -5  D1          1    2    1    0
 -5  D2          1    2    2    0
 -5  D3          1    2    3    0
 -5  ALL         1    2    0    0    1ALL
 -1         1 9.81709E-05 0.00000E+00 0.00000E+00
 -1         2 9.05552E-05 1.09194E-29 0.00000E+00
 -1         3 8.39377E-05-5.22591E-28 0.00000E+00
 -1         5 6.03103E-05 5.74611E-27 0.00000E+00
 -1         8 7.83867E-05-7.16260E-07 0.00000E+00
 -1         9 7.96650E-05 4.79517E-07 0.00000E+00
 -1        10 7.77657E-05-1.14674E-06 6.61744E-24
 -1        12 5.98886E-05 4.08914E-07 0.00000E+00
 -1        15 5.48428E-05-7.80100E-07 0.00000E+00
 -1        16 5.67282E-05 3.75019E-07 0.00000E+00
 -1        17 5.79379E-05-2.41229E-06 0.00000E+00
 -1        18 5.78332E-05 2.16135E-07 0.00000E+00
 -1        19 5.86238E-05 8.15577E-07 0.00000E+00
 -1        20 5.87303E-05 1.20608E-05 0.00000E+00
 -1        21 5.82909E-05 2.28207E-05 0.00000E+00
 -1        24 1.47874E-05-3.24969E-06 0.00000E+00
 -1        25 5.64921E-05 3.09951E-07 0.00000E+00
 -1        26 5.72397E-05 1.13635E-06 0.00000E+00
 -1        27 5.61094E-05 1.02436E-05 0.00000E+00
 -1        28 5.57332E-05 2.24714E-05 0.00000E+00
 -1        32 0.00000E+00 0.00000E+00 0.00000E+00
 -1        33 5.48782E-05 1.52376E-06 0.00000E+00
 -1        34 5.37852E-05 1.02272E-05 0.00000E+00
 -1        35 5.27454E-05 2.22829E-05 0.00000E+00
 -1        51 9.68841E-05-1.18284E-07 0.00000E+00
 -1        52 9.44990E-05-2.33369E-07 0.00000E+00
 -1        53 9.12319E-05-3.49341E-07 0.00000E+00
 -1        54 8.73073E-05-4.67314E-07 0.00000E+00
 -1        55 8.29503E-05-5.87950E-07 1.96455E-24
 -1        56 9.72777E-05-5.71426E-07 0.00000E+00
 -1        57 9.64922E-05-1.53129E-06 0.00000E+00
 -1        58 9.58129E-05-2.76959E-06-2.64698E-23
 -1        59 9.51936E-05-4.18552E-06-1.32349E-23
 -1        60 9.45978E-05-5.66493E-06 0.00000E+00
 -1        61 9.39823E-05-7.09456E-06-1.32349E-23
 -1        62 9.33063E-05-8.36306E-06 2.64698E-23
 -1        63 9.25298E-05-9.36326E-06 0.00000E+00
 -1        64 9.16174E-05-1.00007E-05-2.64698E-23
 -1        65 9.05370E-05-1.01897E-05-1.32349E-23
 -1        66 8.92641E-05-9.86573E-06 2.64698E-23
 -1        67 8.77797E-05-8.97652E-06 0.00000E+00
 -1        68 8.60732E-05-7.49721E-06 0.00000E+00
 -1        69 8.41450E-05-5.41480E-06 0.00000E+00
 -1        70 8.19944E-05-2.74941E-06-2.64698E-23
 -1        86 9.02719E-05 8.59905E-08-1.65436E-24
 -1        87 8.94210E-05 1.71230E-07 0.00000E+00
 -1        88 8.79756E-05 2.55747E-07-1.65436E-24
 -1        89 8.59064E-05 3.36438E-07-5.16988E-26
 -1        90 8.31562E-05 4.16481E-07 0.00000E+00
 -1       121 8.37656E-05-1.90387E-07-6.61744E-24
 -1       122 8.32496E-05-3.80893E-07 0.00000E+00
 -1       123 8.23902E-05-5.71632E-07 0.00000E+00
 -1       124 8.11886E-05-7.62753E-07 0.00000E+00
 -1       125 7.96464E-05-9.54316E-07 6.61744E-24
 -1       191 6.02986E-05 6.81578E-08-3.30872E-24
 -1       192 6.02635E-05 1.36314E-07 0.00000E+00
 -1       193 6.02049E-05 2.04470E-07 0.00000E+00
 -1       194 6.01229E-05 2.72623E-07 0.00000E+00
 -1       195 6.00175E-05 3.40772E-07-3.30872E-24
 -1       251 7.84490E-05 2.53026E-06 0.00000E+00
 -1       252 7.85290E-05 4.44513E-06 0.00000E+00
 -1       253 7.86095E-05 5.26123E-06-1.65436E-24
 -1       254 7.86931E-05 5.20741E-06-8.27181E-25
 -1       255 7.87765E-05 4.47401E-06 1.65436E-24
 -1       256 7.88600E-05 3.24899E-06 0.00000E+00
 -1       257 7.89431E-05 1.69842E-06 0.00000E+00
 -1       258 7.90261E-05-1.27970E-08 1.65436E-24
 -1       259 7.91091E-05-1.72696E-06 0.00000E+00
 -1       260 7.91922E-05-3.28633E-06 0.00000E+00
 -1       261 7.92756E-05-4.52626E-06-1.65436E-24
 -1       262 7.93590E-05-5.28103E-06 0.00000E+00
 -1       263 7.94426E-05-5.36324E-06 0.00000E+00
 -1       264 7.95230E-05-4.58317E-06 1.03398E-25
 -1       265 7.96030E-05-2.71287E-06-3.30872E-24
 -1       266 7.44628E-05-7.36637E-07 0.00000E+00
 -1       267 7.05388E-05-7.46090E-07 8.27181E-25
 -1       268 6.66148E-05-7.56235E-07-8.27181E-25
 -1       269 6.26908E-05-7.64331E-07 0.00000E+00
 -1       270 5.87668E-05-7.72379E-07 0.00000E+00
 -1       271 7.59992E-05 2.21073E-06 2.64698E-23
 -1       272 7.39715E-05 4.07171E-06-1.32349E-23
 -1       273 7.22984E-05 4.99634E-06-2.64698E-23
 -1       274 7.09232E-05 5.11126E-06 0.00000E+00
 -1       275 6.97973E-05 4.56030E-06 0.00000E+00
 -1       276 6.88629E-05 3.49491E-06 1.32349E-23
 -1       277 6.80610E-05 2.07513E-06-2.64698E-23
 -1       278 6.73296E-05 4.65947E-07 0.00000E+00
 -1       279 6.66063E-05-1.16466E-06 0.00000E+00
 -1       280 6.58281E-05-2.64836E-06 1.32349E-23
 -1       281 6.49331E-05-3.81923E-06 0.00000E+00
 -1       282 6.38612E-05-4.51584E-06 0.00000E+00
 -1       283 6.25541E-05-4.58439E-06 0.00000E+00
 -1       284 6.09606E-05-3.87896E-06 0.00000E+00
 -1       285 5.90251E-05-2.26869E-06 0.00000E+00
 -1       301 7.57752E-05 4.57377E-07 0.00000E+00
 -1       302 7.18884E-05 4.46921E-07 1.65436E-24
 -1       303 6.80225E-05 4.36831E-07 0.00000E+00
 -1       304 6.41954E-05 4.25483E-07 0.00000E+00
 -1       305 6.04247E-05 4.12364E-07 0.00000E+00
 -1       306 7.71982E-05 3.36087E-06-2.64698E-23
 -1       307 7.50994E-05 5.14730E-06-1.32349E-23
 -1       308 7.34187E-05 5.83175E-06 0.00000E+00
 -1       309 7.21384E-05 5.42898E-06 0.00000E+00
 -1       310 7.12096E-05 4.08762E-06 2.64698E-23
 -1       311 7.05624E-05 1.98849E-06 0.00000E+00
 -1       312 7.00966E-05-5.97166E-07 0.00000E+00
 -1       313 6.97041E-05-3.38044E-06-2.64698E-23
 -1       314 6.92688E-05-6.04854E-06 0.00000E+00
 -1       315 6.86758E-05-8.29303E-06-1.32349E-23
 -1       316 6.78285E-05-9.85628E-06 2.64698E-23
 -1       317 6.66407E-05-1.05056E-05 0.00000E+00
 -1       318 6.50635E-05-1.01169E-05 2.64698E-23
 -1       319 6.30713E-05-8.60161E-06 0.00000E+00
 -1       320 6.06694E-05-6.01050E-06-2.64698E-23
 -1       336 7.55039E-05-1.35497E-06 0.00000E+00
 -1       337 7.28187E-05-1.56449E-06-3.30872E-24
 -1       338 6.97140E-05-1.77511E-06 0.00000E+00
 -1       339 6.61951E-05-1.98676E-06 3.30872E-24
 -1       340 6.22675E-05-2.19989E-06-6.61744E-24
 -1       406 5.97363E-05 4.77045E-07 0.00000E+00
 -1       407 5.95606E-05 5.45150E-07 0.00000E+00
 -1       408 5.93614E-05 6.13209E-07-3.30872E-24
 -1       409 5.91388E-05 6.81137E-07 1.65436E-24
 -1       410 5.88929E-05 7.48803E-07 0.00000E+00
 -1       521 5.34243E-05 2.19801E-06 5.29396E-23
 -1       522 5.07713E-05 2.06695E-06 0.00000E+00
 -1       523 4.88068E-05 1.13087E-07-5.29396E-23
 -1       524 4.74272E-05-3.44903E-06 0.00000E+00
 -1       525 4.64591E-05-8.11921E-06 0.00000E+00
 -1       526 4.56886E-05-1.33301E-05 0.00000E+00
 -1       527 4.48730E-05-1.84201E-05-5.29396E-23
 -1       528 4.37701E-05-2.27364E-05 0.00000E+00
 -1       529 4.21858E-05-2.57589E-05 5.29396E-23
 -1       530 3.99558E-05-2.70521E-05 0.00000E+00
 -1       531 3.70245E-05-2.64775E-05-5.29396E-23
 -1       532 3.33838E-05-2.40171E-05 0.00000E+00
 -1       533 2.91439E-05-1.99770E-05-5.29396E-23
 -1       534 2.44704E-05-1.47598E-05 0.00000E+00
 -1       535 1.95767E-05-8.97949E-06 0.00000E+00
 -1       536 5.79183E-05 1.63138E-06 0.00000E+00
 -1       537 5.79078E-05 4.70970E-06 0.00000E+00
 -1       538 5.78993E-05 6.90936E-06 0.00000E+00
 -1       539 5.78932E-05 8.31729E-06-2.06795E-25
 -1       540 5.78879E-05 9.02887E-06 0.00000E+00
 -1       541 5.78831E-05 9.13965E-06 0.00000E+00
 -1       542 5.78782E-05 8.75146E-06 0.00000E+00
 -1       543 5.78731E-05 7.96623E-06 0.00000E+00
 -1       544 5.78678E-05 6.89005E-06 1.03398E-25
 -1       545 5.78623E-05 5.62903E-06 0.00000E+00
 -1       546 5.78568E-05 4.29123E-06 0.00000E+00
 -1       547 5.78513E-05 2.98474E-06 0.00000E+00
 -1       548 5.78460E-05 1.81728E-06 0.00000E+00
 -1       549 5.78412E-05 8.96585E-07 0.00000E+00
 -1       550 5.78365E-05 3.27839E-07-4.13590E-25
 -1       551 5.22177E-05-2.53913E-06 0.00000E+00
 -1       552 4.53762E-05-2.67054E-06 0.00000E+00
 -1       553 3.78102E-05-2.80697E-06 0.00000E+00
 -1       554 2.99223E-05-2.94765E-06-3.30872E-24
 -1       555 2.21148E-05-3.08993E-06 0.00000E+00
 -1       556 5.64367E-05 1.47871E-06 0.00000E+00
 -1       557 5.52894E-05 4.45332E-06 0.00000E+00
 -1       558 5.44573E-05 6.59601E-06 1.32349E-23
 -1       559 5.39054E-05 7.99792E-06 0.00000E+00
 -1       560 5.35983E-05 8.74992E-06 0.00000E+00
 -1       561 5.35011E-05 8.94344E-06 0.00000E+00
 -1       562 5.35792E-05 8.66994E-06 0.00000E+00
 -1       563 5.37980E-05 8.02100E-06 0.00000E+00
 -1       564 5.41231E-05 7.08824E-06 0.00000E+00
 -1       565 5.45201E-05 5.96330E-06-8.27181E-25
 -1       566 5.49547E-05 4.73789E-06 0.00000E+00
 -1       567 5.53926E-05 3.50371E-06 4.13590E-25
 -1       568 5.57994E-05 2.35243E-06 0.00000E+00
 -1       569 5.61410E-05 1.37564E-06 0.00000E+00
 -1       570 5.63831E-05 6.64958E-07 0.00000E+00
 -1       571 5.78811E-05 2.85164E-07-6.20385E-25
 -1       572 5.79302E-05 3.21466E-07 4.13590E-25
 -1       573 5.79795E-05 3.30865E-07-4.13590E-25
 -1       574 5.80290E-05 3.19489E-07 4.13590E-25
 -1       575 5.80786E-05 2.93497E-07-8.27181E-25
 -1       576 5.81282E-05 2.59086E-07 0.00000E+00
 -1       577 5.81777E-05 2.22457E-07 0.00000E+00
 -1       578 5.82273E-05 1.89819E-07 8.27181E-25
 -1       579 5.82769E-05 1.67377E-07 0.00000E+00
 -1       580 5.83265E-05 1.61340E-07 0.00000E+00
 -1       581 5.83761E-05 1.77914E-07 3.30872E-24
 -1       582 5.84257E-05 2.23299E-07 0.00000E+00
 -1       583 5.84753E-05 3.03689E-07 0.00000E+00
 -1       584 5.85248E-05 4.25214E-07 0.00000E+00
 -1       585 5.85743E-05 5.93969E-07 0.00000E+00
 -1       586 5.75929E-05 2.32745E-07 8.27181E-25
 -1       587 5.73316E-05 2.48938E-07 0.00000E+00
 -1       588 5.70699E-05 2.64951E-07 4.13590E-25
 -1       589 5.68289E-05 2.80710E-07 0.00000E+00
 -1       590 5.66295E-05 2.96042E-07 0.00000E+00
 -1       591 5.77843E-05 3.10343E-07 0.00000E+00
 -1       592 5.77436E-05 3.77461E-07 0.00000E+00
 -1       593 5.77110E-05 4.22639E-07 0.00000E+00
 -1       594 5.76847E-05 4.50514E-07 2.06795E-25
 -1       595 5.76630E-05 4.65789E-07 4.13590E-25
 -1       596 5.76443E-05 4.73128E-07 0.00000E+00
 -1       597 5.76268E-05 4.77197E-07 4.13590E-25
 -1       598 5.76088E-05 4.82656E-07 2.06795E-25
 -1       599 5.75885E-05 4.94164E-07-4.13590E-25
 -1       600 5.75642E-05 5.16381E-07 2.06795E-25
 -1       601 5.75342E-05 5.53967E-07-4.13590E-25
 -1       602 5.74966E-05 6.11586E-07 1.03398E-25
 -1       603 5.74499E-05 6.93903E-07-5.16988E-26
 -1       604 5.73924E-05 8.05620E-07 0.00000E+00
 -1       605 5.73223E-05 9.51376E-07 0.00000E+00
 -1       606 5.86330E-05 1.15004E-06 0.00000E+00
 -1       607 5.86404E-05 1.55525E-06 0.00000E+00
 -1       608 5.86473E-05 2.02704E-06 0.00000E+00
 -1       609 5.86540E-05 2.56074E-06 0.00000E+00
 -1       610 5.86606E-05 3.15165E-06 0.00000E+00
 -1       611 5.86671E-05 3.79498E-06 0.00000E+00
 -1       612 5.86736E-05 4.48597E-06 0.00000E+00
 -1       613 5.86800E-05 5.21984E-06 0.00000E+00
 -1       614 5.86864E-05 5.99181E-06 0.00000E+00
 -1       615 5.86928E-05 6.79709E-06 0.00000E+00
 -1       616 5.86992E-05 7.63092E-06 0.00000E+00
 -1       617 5.87055E-05 8.48851E-06 0.00000E+00
 -1       618 5.87118E-05 9.36506E-06 0.00000E+00
 -1       619 5.87181E-05 1.02558E-05 0.00000E+00
 -1       620 5.87243E-05 1.11560E-05 0.00000E+00
 -1       621 5.83588E-05 8.69074E-07-1.65436E-24
 -1       622 5.81129E-05 9.22834E-07 0.00000E+00
 -1       623 5.78822E-05 9.76586E-07-1.65436E-24
 -1       624 5.76625E-05 1.03025E-06 0.00000E+00
 -1       625 5.74497E-05 1.08383E-06 0.00000E+00
 -1       626 5.85556E-05 1.16686E-06 3.30872E-24
 -1       627 5.84658E-05 1.57671E-06 0.00000E+00
 -1       628 5.83562E-05 2.03971E-06 0.00000E+00
 -1       629 5.82289E-05 2.55004E-06 0.00000E+00
 -1       630 5.80860E-05 3.10192E-06 0.00000E+00
 -1       631 5.79297E-05 3.68950E-06 1.65436E-24
 -1       632 5.77622E-05 4.30694E-06 0.00000E+00
 -1       633 5.75857E-05 4.94841E-06 0.00000E+00
 -1       634 5.74023E-05 5.60805E-06-1.65436E-24
 -1       635 5.72143E-05 6.28002E-06 8.27181E-25
 -1       636 5.70239E-05 6.95849E-06 0.00000E+00
 -1       637 5.68331E-05 7.63761E-06 0.00000E+00
 -1       638 5.66443E-05 8.31154E-06 0.00000E+00
 -1       639 5.64595E-05 8.97443E-06-8.27181E-25
 -1       640 5.62808E-05 9.62044E-06-8.27181E-25
 -1       656 5.79787E-05 1.17651E-05 3.30872E-24
 -1       657 5.74930E-05 1.14577E-05-3.30872E-24
 -1       658 5.71710E-05 1.11512E-05 0.00000E+00
 -1       659 5.69086E-05 1.08449E-05 3.30872E-24
 -1       660 5.65923E-05 1.05377E-05 0.00000E+00
 -1       661 5.84521E-05 1.29478E-05-8.27181E-25
 -1       662 5.81901E-05 1.37978E-05 0.00000E+00
 -1       663 5.79416E-05 1.46115E-05 0.00000E+00
 -1       664 5.77066E-05 1.53905E-05 0.00000E+00
 -1       665 5.74842E-05 1.61361E-05 0.00000E+00
 -1       666 5.72739E-05 1.68496E-05 0.00000E+00
 -1       667 5.70751E-05 1.75322E-05 0.00000E+00
 -1       668 5.68875E-05 1.81853E-05-8.27181E-25
 -1       669 5.67106E-05 1.88099E-05-1.65436E-24
 -1       670 5.65440E-05 1.94072E-05 8.27181E-25
 -1       671 5.63872E-05 1.99782E-05-1.65436E-24
 -1       672 5.62397E-05 2.05239E-05 0.00000E+00
 -1       673 5.61014E-05 2.10454E-05 0.00000E+00
 -1       674 5.59713E-05 2.15432E-05 0.00000E+00
 -1       675 5.58498E-05 2.20187E-05 4.13590E-25
 -1       676 5.78638E-05 2.27621E-05 0.00000E+00
 -1       677 5.74368E-05 2.27036E-05 0.00000E+00
 -1       678 5.70101E-05 2.26451E-05-1.65436E-24
 -1       679 5.65838E-05 2.25867E-05-8.27181E-25
 -1       680 5.61581E-05 2.25284E-05 0.00000E+00
 -1       771 1.18385E-05 2.33590E-06-2.64698E-23
 -1       772 9.26866E-06 6.90514E-06 0.00000E+00
 -1       773 7.06207E-06 1.05164E-05 0.00000E+00
 -1       774 5.19426E-06 1.32312E-05 0.00000E+00
 -1       775 3.64127E-06 1.51123E-05-2.64698E-23
 -1       776 2.37816E-06 1.62243E-05 0.00000E+00
 -1       777 1.37973E-06 1.66326E-05 2.64698E-23
 -1       778 6.20305E-07 1.64044E-05-1.32349E-23
 -1       779 7.40560E-08 1.56074E-05 0.00000E+00
 -1       780-2.85238E-07 1.43110E-05 0.00000E+00
 -1       781-4.83879E-07 1.25847E-05-2.64698E-23
 -1       782-5.48461E-07 1.04995E-05-1.32349E-23
 -1       783-5.05626E-07 8.12633E-06 2.64698E-23
 -1       784-3.82165E-07 5.53719E-06 0.00000E+00
 -1       785-2.04967E-07 2.80416E-06 0.00000E+00
 -1       786 5.65361E-05 3.06117E-07-4.13590E-25
 -1       787 5.65827E-05 3.04621E-07 0.00000E+00
 -1       788 5.66291E-05 3.05791E-07-1.65436E-24
 -1       789 5.66761E-05 3.09964E-07 0.00000E+00
 -1       790 5.67230E-05 3.17795E-07-1.65436E-24
 -1       791 5.67701E-05 3.29951E-07 0.00000E+00
 -1       792 5.68171E-05 3.47561E-07 0.00000E+00
 -1       793 5.68642E-05 3.71767E-07 0.00000E+00
 -1       794 5.69113E-05 4.04422E-07 0.00000E+00
 -1       795 5.69584E-05 4.47393E-07 8.27181E-25
 -1       796 5.70055E-05 5.03659E-07 1.65436E-24
 -1       797 5.70525E-05 5.76228E-07-8.27181E-25
 -1       798 5.70996E-05 6.69858E-07-1.65436E-24
 -1       799 5.71465E-05 7.89352E-07 8.27181E-25
 -1       800 5.71934E-05 9.42298E-07-8.27181E-25
 -1       801 5.26764E-05 3.12333E-07-4.13590E-25
 -1       802 4.13177E-05 2.59940E-07 0.00000E+00
 -1       803 2.63955E-05 1.64764E-07 0.00000E+00
 -1       804 1.18878E-05 7.00689E-08-3.30872E-24
 -1       805 1.76399E-06 2.60178E-08 0.00000E+00
 -1       806 5.64360E-05 2.73848E-07 1.65436E-24
 -1       807 5.63775E-05 2.37874E-07 0.00000E+00
 -1       808 5.63171E-05 2.05682E-07 0.00000E+00
 -1       809 5.62540E-05 1.80372E-07 0.00000E+00
 -1       810 5.61870E-05 1.65037E-07-1.65436E-24
 -1       811 5.61150E-05 1.62726E-07 8.27181E-25
 -1       812 5.60371E-05 1.76482E-07 0.00000E+00
 -1       813 5.59519E-05 2.09343E-07 0.00000E+00
 -1       814 5.58585E-05 2.64345E-07-1.65436E-24
 -1       815 5.57556E-05 3.44521E-07 8.27181E-25
 -1       816 5.56421E-05 4.52902E-07 1.65436E-24
 -1       817 5.55169E-05 5.92520E-07-8.27181E-25
 -1       818 5.53790E-05 7.66404E-07-8.27181E-25
 -1       819 5.52271E-05 9.77571E-07-8.27181E-25
 -1       820 5.50603E-05 1.22904E-06-8.27181E-25
 -1       821 5.71731E-05 1.36239E-06 0.00000E+00
 -1       822 5.71025E-05 1.61166E-06 0.00000E+00
 -1       823 5.70320E-05 1.90294E-06-1.65436E-24
 -1       824 5.69609E-05 2.25488E-06 0.00000E+00
 -1       825 5.68896E-05 2.67707E-06 0.00000E+00
 -1       826 5.68182E-05 3.17884E-06 8.27181E-25
 -1       827 5.67467E-05 3.75764E-06 0.00000E+00
 -1       828 5.66751E-05 4.41068E-06 8.27181E-25
 -1       829 5.66035E-05 5.12404E-06 1.65436E-24
 -1       830 5.65319E-05 5.88361E-06 8.27181E-25
 -1       831 5.64603E-05 6.66839E-06 1.65436E-24
 -1       832 5.63889E-05 7.45726E-06-8.27181E-25
 -1       833 5.63175E-05 8.22851E-06 0.00000E+00
 -1       834 5.62469E-05 8.96050E-06 0.00000E+00
 -1       835 5.61760E-05 9.63742E-06-8.27181E-25
 -1       836 5.69543E-05 1.20084E-06-1.65436E-24
 -1       837 5.65836E-05 1.26676E-06-8.27181E-25
 -1       838 5.61591E-05 1.33256E-06-1.65436E-24
 -1       839 5.57123E-05 1.39794E-06 0.00000E+00
 -1       840 5.52748E-05 1.46321E-06-2.06795E-25
 -1       856 5.60885E-05 1.08566E-05 0.00000E+00
 -1       857 5.60653E-05 1.15482E-05 0.00000E+00
 -1       858 5.60421E-05 1.23062E-05 0.00000E+00
 -1       859 5.60184E-05 1.31179E-05 0.00000E+00
 -1       860 5.59948E-05 1.39709E-05 0.00000E+00
 -1       861 5.59710E-05 1.48526E-05 4.13590E-25
 -1       862 5.59471E-05 1.57503E-05 8.27181E-25
 -1       863 5.59233E-05 1.66514E-05 0.00000E+00
 -1       864 5.58995E-05 1.75432E-05 8.27181E-25
 -1       865 5.58756E-05 1.84132E-05 0.00000E+00
 -1       866 5.58518E-05 1.92488E-05-8.27181E-25
 -1       867 5.58281E-05 2.00373E-05 4.13590E-25
 -1       868 5.58043E-05 2.07663E-05 8.27181E-25
 -1       869 5.57806E-05 2.14232E-05 4.13590E-25
 -1       870 5.57570E-05 2.19957E-05-8.27181E-25
 -1       871 5.56431E-05 1.02430E-05 0.00000E+00
 -1       872 5.52513E-05 1.02408E-05 0.00000E+00
 -1       873 5.49020E-05 1.02384E-05 2.06795E-25
 -1       874 5.45628E-05 1.02355E-05-1.03398E-25
 -1       875 5.42013E-05 1.02323E-05-6.20385E-25
 -1       876 5.59480E-05 1.08624E-05 0.00000E+00
 -1       877 5.57741E-05 1.15188E-05 0.00000E+00
 -1       878 5.55878E-05 1.22084E-05 1.65436E-24
 -1       879 5.53907E-05 1.29269E-05-8.27181E-25
 -1       880 5.51845E-05 1.36703E-05 0.00000E+00
 -1       881 5.49705E-05 1.44342E-05 0.00000E+00
 -1       882 5.47503E-05 1.52145E-05 0.00000E+00
 -1       883 5.45256E-05 1.60070E-05 8.27181E-25
 -1       884 5.42979E-05 1.68075E-05 0.00000E+00
 -1       885 5.40687E-05 1.76119E-05-8.27181E-25
 -1       886 5.38396E-05 1.84159E-05 0.00000E+00
 -1       887 5.36122E-05 1.92154E-05 8.27181E-25
 -1       888 5.33879E-05 2.00062E-05 0.00000E+00
 -1       889 5.31681E-05 2.07840E-05 8.27181E-25
 -1       890 5.29544E-05 2.15446E-05 0.00000E+00
 -1       891 5.53232E-05 2.24398E-05 8.27181E-25
 -1       892 5.48993E-05 2.24082E-05 0.00000E+00
 -1       893 5.44456E-05 2.23766E-05 4.13590E-25
 -1       894 5.39460E-05 2.23450E-05-2.06795E-25
 -1       895 5.33845E-05 2.23135E-05 2.06795E-25
 -1       956 5.48111E-05 1.90682E-06 8.27181E-25
 -1       957 5.47430E-05 2.33369E-06-4.13590E-25
 -1       958 5.46747E-05 2.79981E-06-1.65436E-24
 -1       959 5.46062E-05 3.30036E-06 8.27181E-25
 -1       960 5.45377E-05 3.83053E-06 1.65436E-24
 -1       961 5.44691E-05 4.38545E-06 8.27181E-25
 -1       962 5.44005E-05 4.96027E-06 0.00000E+00
 -1       963 5.43319E-05 5.55013E-06-8.27181E-25
 -1       964 5.42633E-05 6.15016E-06 1.65436E-24
 -1       965 5.41947E-05 6.75550E-06 0.00000E+00
 -1       966 5.41261E-05 7.36129E-06 0.00000E+00
 -1       967 5.40576E-05 7.96268E-06 8.27181E-25
 -1       968 5.39890E-05 8.55478E-06 0.00000E+00
 -1       969 5.39206E-05 9.13277E-06 0.00000E+00
 -1       970 5.38524E-05 9.69181E-06 0.00000E+00
 -1       971 5.37211E-05 1.07771E-05 0.00000E+00
 -1       972 5.36560E-05 1.13846E-05 0.00000E+00
 -1       973 5.35909E-05 1.20434E-05 1.65436E-24
 -1       974 5.35256E-05 1.27469E-05 0.00000E+00
 -1       975 5.34602E-05 1.34886E-05 1.65436E-24
 -1       976 5.33949E-05 1.42619E-05 0.00000E+00
 -1       977 5.33295E-05 1.50602E-05 0.00000E+00
 -1       978 5.32640E-05 1.58770E-05 8.27181E-25
 -1       979 5.31986E-05 1.67055E-05-1.65436E-24
 -1       980 5.31332E-05 1.75393E-05 8.27181E-25
 -1       981 5.30678E-05 1.83717E-05-1.65436E-24
 -1       982 5.30025E-05 1.91962E-05 0.00000E+00
 -1       983 5.29372E-05 2.00061E-05 1.65436E-24
 -1       984 5.28723E-05 2.07949E-05 8.27181E-25
 -1       985 5.28076E-05 2.15560E-05 1.65436E-24
 -3
    1PSTEP                         6           3           1          
  100CL  103 3.75000E-01         409                     0    3           1
 -4  STRESS      6    1
 -5  SXX         1    4    1    1
 -5  SYY         1    4    2    2
 -5  SZZ         1    4    3    3
 -5  SXY         1    4    1    2
 -5  SYZ         1    4    2    3
 -5  SZX         1    4    3    1
 -1         1-1.29409E+06-5.95021E+05-2.63783E+05-8.37617E+05 1.16415E-10-9.07312E-09
 -1         2 2.17683E+03 2.48976E+05 7.11878E+03 6.00585E+02-1.13573E-10-1.26954E-09
 -1         3-4.73452E+01-5.44042E+05 1.26357E+02-1.49847E+02-1.32539E-10-7.16227E-09
 -1         5-4.40468E+00 1.95018E+05 5.10910E+00 2.14986E-02 8.54732E-11-1.67756E-09
 -1         8-6.09132E+05-2.65454E+05-2.05291E+04-4.62462E+05 4.36557E-10 4.36921E-09
 -1         9-1.04584E+06-2.67890E+05-1.03157E+05-3.59559E+05 2.86091E-09-3.43425E-09
 -1        10-4.22850E+02-5.66777E+05-7.28884E+02-1.00606E+03-2.60434E-09-6.97676E-08
 -1        12-2.30916E+00 1.95029E+05 1.65670E+02 4.22511E-01 1.84542E-10 3.69596E-09
 -1        15 1.61342E+03 8.86663E+02 5.21536E+03 2.73778E+00-3.16248E-10-7.53995E-08
 -1        16-2.94998E+06-9.47539E+05-4.58767E+05-9.62441E+05 8.75540E-09-1.20296E-09
 -1        17-6.51427E+05-4.00039E+05-1.25468E+05-3.76209E+05-4.25862E-09-7.71252E-10
 -1        18 2.10126E+04 1.64627E+03-9.70973E+03-4.59492E+04 6.20048E-10 1.09799E-09
 -1        19 6.10912E+04 7.28685E+04-3.39539E+02 1.19588E+04-4.43288E-10-1.89248E-09
 -1        20-2.54310E+04-2.88660E+05-6.36634E+04 2.13926E+04 2.89810E-09 5.32661E-09
 -1        21-2.69696E+01-1.67440E+05-5.34082E+02-4.90561E+01-9.27163E-09-4.61441E-09
 -1        24-2.59866E+06-8.91584E+05-3.70290E+05-1.08617E+06-1.26432E-08-5.82077E-09
 -1        25 2.36624E+04-6.77184E+02 1.42145E+04-8.30578E+04 2.78033E-10 4.84451E-09
 -1        26-1.40344E+04 4.98163E+04-9.84503E+03-7.16123E+03 1.27402E-09 7.36526E-10
 -1        27-4.64311E+04-1.58462E+05-5.94913E+04 3.56924E+04 4.65169E-09-4.28645E-09
 -1        28 1.24392E+04-4.67412E+04 9.47117E+03 1.48587E+04 3.45987E-09 3.14493E-10
 -1        32-6.15604E+05-8.36401E+04 2.68626E+05-4.17128E+05-1.22891E-08 1.15385E-08
 -1        33-9.05859E+04 4.65972E+04 1.65184E+04-2.71096E+04 8.74991E-10-2.07820E-09
 -1        34-1.17692E+05-1.17362E+04 2.74036E+02 3.60574E+04 2.76080E-09 1.42306E-09
 -1        35-1.31837E+04-1.90482E+04-8.64668E+02 2.91852E+04 8.47265E-09-1.26480E-09
 -1        51 1.13957E+04-3.03369E+05 2.87805E+04-7.55956E+05 7.27596E-11 1.96451E-09
 -1        52 6.55570E+03-3.01768E+05 1.92400E+04-8.81693E+05 2.18279E-10-2.88856E-09
 -1        53 4.64427E+03-3.10519E+05 1.68557E+04-7.53360E+05 6.76664E-10 9.03674E-09
 -1        54 1.39775E+04-3.08612E+05 2.74776E+04-8.84426E+05 1.89175E-10 1.01936E-08
 -1        55 2.93082E+04-3.18880E+05 4.94454E+04-7.52986E+05 3.85626E-10 1.47556E-08
 -1        56-2.48523E+06-2.80615E+05-1.94306E+05-9.58129E+05-8.94943E-10-8.29459E-09
 -1        57-2.56229E+06-4.57352E+05-1.30965E+05-9.51760E+05 4.69299E-10 3.83261E-09
 -1        58-2.52438E+06-3.42025E+05-4.57312E+04-9.45792E+05-1.22236E-09 5.53155E-09
 -1        59-2.51696E+06-3.85373E+05-2.72996E+04-9.66593E+05-3.26963E-09-1.50067E-09
 -1        60-2.53018E+06-3.50510E+05-1.06843E+04-9.44037E+05 1.11640E-10 6.13272E-09
 -1        61-2.51099E+06-3.74673E+05-6.07415E+03-9.67740E+05-9.59801E-10 3.41504E-09
 -1        62-2.53026E+06-3.52467E+05-2.93087E+03-9.44717E+05 1.07752E-09-2.99498E-09
 -1        63-2.51245E+06-3.71028E+05-2.40182E+03-9.65107E+05-1.79466E-09-6.05382E-10
 -1        64-2.52864E+06-3.54166E+05-2.77710E+03-9.46633E+05-4.72937E-11-5.36215E-09
 -1        65-2.51706E+06-3.68112E+05-5.53156E+03-9.60256E+05 4.22574E-10-8.84597E-09
 -1        66-2.52558E+06-3.55459E+05-9.76823E+03-9.49506E+05 1.23168E-09 4.34648E-09
 -1        67-2.52787E+06-3.72316E+05-2.47533E+04-9.52857E+05 2.64720E-10 2.09639E-09
 -1        68-2.51785E+06-3.50236E+05-4.15821E+04-9.53920E+05 2.30557E-10 5.44424E-09
 -1        69-2.57321E+06-4.33581E+05-1.18896E+05-9.34796E+05-4.93674E-09 4.26371E-09
 -1        70-2.48065E+06-2.96057E+05-1.76494E+05-9.66921E+05-2.05182E-09-4.46744E-09
 -1        86-1.09244E+03 2.46739E+05 7.61748E+03-3.00310E+02 9.52923E-10 9.40815E-10
 -1        87 7.24854E+03 2.51464E+05 1.59066E+04 1.23899E+03 1.57820E-09-1.42791E-09
 -1        88-6.15035E+03 2.44253E+05 2.43358E+04-9.38726E+02 2.39470E-09 9.96528E-09
 -1        89 4.58339E+04 2.69488E+05 6.56572E+04 2.68554E+03 3.63798E-09-1.91048E-09
 -1        90-3.95544E+04 2.28731E+05 9.27171E+04-1.74649E+03 4.10728E-09-1.38505E-09
 -1       121-7.87966E+01-5.44280E+05 1.13021E+02 7.48547E+01 2.72571E-10-3.92083E-09
 -1       122-5.71819E+00-5.44014E+05 2.75103E+02-2.99755E+02-1.01067E-09 4.10273E-09
 -1       123-1.08524E+02-5.44309E+05 4.38259E+02 2.24493E+02 9.23364E-10 8.20728E-09
 -1       124 5.01571E+02-5.43706E+05 1.15180E+03-6.94444E+02-1.95848E-09 3.32511E-09
 -1       125-4.37236E+02-5.44596E+05 1.75934E+03 4.69456E+02 1.37697E-09-7.32598E-09
 -1       191-4.79326E+00 1.95035E+05 6.07099E+00-1.12052E-02 1.22389E-10-2.21280E-09
 -1       192-4.87426E+00 1.95019E+05 1.08197E+01 4.25284E-01 1.90024E-10-1.52431E-09
 -1       193-6.04186E+00 1.95034E+05 2.00871E+01-4.17172E-01 2.10842E-10 1.24510E-09
 -1       194-6.38548E+00 1.95020E+05 4.09309E+01 1.11609E+00 1.04009E-10 1.86249E-08
 -1       195-8.44161E+00 1.95033E+05 8.00291E+01-7.07068E-01 3.11069E-10 9.88894E-09
 -1       251 2.22972E+05-3.84178E+04 8.96951E+04 3.80986E+03 1.73827E-10 1.11686E-09
 -1       252 2.63904E+05 4.44455E+04 6.36483E+04-1.21784E+04 1.40830E-10-6.72117E-10
 -1       253 2.38461E+05-5.94752E+03 2.32142E+04 2.57313E+03-2.56762E-10-2.23736E-09
 -1       254 2.45648E+05 6.87081E+03 1.46806E+04-1.02318E+04 1.67830E-10-1.56615E-09
 -1       255 2.41149E+05-9.18410E+02 5.99828E+03 1.86344E+03 3.14486E-10 3.98359E-10
 -1       256 2.42430E+05 1.09072E+03 3.64820E+03-9.18554E+03 3.39071E-10 5.02536E-09
 -1       257 2.41645E+05-1.60445E+02 1.87711E+03 1.52688E+03 6.92921E-11 2.65732E-09
 -1       258 2.41925E+05 3.41151E+02 1.66330E+03-8.84585E+03-1.48343E-10-2.71460E-09
 -1       259 2.41644E+05-1.63509E+02 1.90606E+03 1.52375E+03-2.24233E-10 3.75871E-09
 -1       260 2.42441E+05 1.11761E+03 3.73041E+03-9.17364E+03 1.77636E-12 6.11561E-09
 -1       261 2.41139E+05-9.41896E+02 6.14876E+03 1.85466E+03 1.64675E-10-3.51906E-09
 -1       262 2.45727E+05 7.04801E+03 1.50515E+04-1.02059E+04 4.50768E-10-2.93994E-09
 -1       263 2.38391E+05-6.10006E+03 2.38131E+04 2.55600E+03-6.25221E-10-2.48474E-09
 -1       264 2.64420E+05 4.55878E+04 6.52737E+04-1.21364E+04-2.44597E-09 1.54978E-09
 -1       265 2.22524E+05-3.94019E+04 9.20101E+04 3.78499E+03-8.09109E-10 5.25324E-09
 -1       266-2.92079E+04-1.36567E+04 6.85340E+04-5.85831E+01-4.03816E-10-1.22138E-07
 -1       267 3.38604E+04 1.59185E+04 4.84367E+04 6.75893E+01-9.47693E-10-2.57535E-07
 -1       268-4.54060E+03-2.25443E+03 1.80038E+04-8.61228E+00-7.91260E-10-2.16115E-07
 -1       269 5.36113E+03 2.69815E+03 1.17021E+04 1.00318E+01-5.66274E-10-1.64885E-07
 -1       270-8.04713E+02-4.43325E+02 5.64877E+03-1.36139E+00-4.24052E-10-1.14251E-07
 -1       271-2.87143E+06-3.58329E+05-2.21135E+05-1.11876E+06 1.30240E-09 3.15777E-09
 -1       272-2.93427E+06-5.35969E+05-1.42148E+05-1.13548E+06-2.63981E-10 2.56478E-10
 -1       273-2.91390E+06-4.12513E+05-5.22369E+04-1.10795E+06-1.08957E-09 2.09184E-09
 -1       274-2.88453E+06-4.69715E+05-2.92246E+04-1.15229E+06-1.08093E-09 8.64384E-09
 -1       275-2.92070E+06-4.17113E+05-1.21508E+04-1.10506E+06 1.25510E-10 9.34961E-10
 -1       276-2.87647E+06-4.64390E+05-6.45155E+03-1.15699E+06 8.80391E-10-2.97860E-09
 -1       277-2.92235E+06-4.16795E+05-3.15617E+03-1.10387E+06-8.66066E-10-8.64247E-10
 -1       278-2.87492E+06-4.64556E+05-2.29390E+03-1.15842E+06 1.99222E-09 3.86649E-09
 -1       279-2.92244E+06-4.16758E+05-2.46222E+03-1.10380E+06-6.59838E-10 3.42652E-10
 -1       280-2.87600E+06-4.64286E+05-4.51080E+03-1.15732E+06-1.30967E-10-1.19690E-09
 -1       281-2.92112E+06-4.17205E+05-8.26608E+03-1.10483E+06-4.92946E-10-1.94814E-09
 -1       282-2.88203E+06-4.67164E+05-1.97158E+04-1.15324E+06 1.85537E-10 1.80626E-09
 -1       283-2.91601E+06-4.14671E+05-3.52375E+04-1.10736E+06 1.74168E-10-1.60071E-09
 -1       284-2.91665E+06-5.10496E+05-9.57412E+04-1.14028E+06 4.24620E-10-5.93900E-09
 -1       285-2.88661E+06-3.79050E+05-1.49079E+05-1.11555E+06 1.36060E-09-3.73257E-09
 -1       301 1.10308E+04-6.67143E+03 8.58571E+04-2.13697E+04-4.76575E-10 1.56200E-09
 -1       302 1.18643E+04 1.51015E+04 6.20647E+04-3.14673E+04 1.45701E-09 9.98261E-09
 -1       303 5.46689E+02 1.03001E+03 5.72392E+04-2.14273E+04-6.91216E-10 1.11913E-09
 -1       304 2.24234E+04 2.48477E+04 9.63988E+04-3.13762E+04 7.02130E-10 2.33194E-09
 -1       305 2.22152E+04-1.63472E+04 1.61847E+05-2.13925E+04-8.22183E-10 1.63845E-09
 -1       306-3.08210E+06-3.56911E+05-2.35195E+05-1.20546E+06 1.39335E-09-6.12636E-09
 -1       307-3.20432E+06-5.54483E+05-1.60334E+05-1.16324E+06 2.91993E-09-3.82533E-09
 -1       308-3.13707E+06-4.28529E+05-5.53566E+04-1.18170E+06 1.10731E-09 4.83851E-09
 -1       309-3.13533E+06-4.76589E+05-3.34744E+04-1.19743E+06 1.51370E-09 4.88808E-09
 -1       310-3.15080E+06-4.33366E+05-1.29979E+04-1.17177E+06-1.23009E-10-6.40284E-10
 -1       311-3.11732E+06-4.73318E+05-7.51006E+03-1.21194E+06 4.00854E-09 3.09194E-09
 -1       312-3.15519E+06-4.31470E+05-3.67572E+03-1.16739E+06-1.53449E-10 3.73132E-09
 -1       313-3.11380E+06-4.74326E+05-3.31045E+03-1.21539E+06-4.12714E-09 7.77658E-09
 -1       314-3.15439E+06-4.32287E+05-3.99246E+03-1.16837E+06-8.87781E-10-1.03864E-09
 -1       315-3.12039E+06-4.70540E+05-8.37760E+03-1.20825E+06-2.89674E-10 6.29461E-09
 -1       316-3.14846E+06-4.35379E+05-1.46926E+04-1.17443E+06 2.35696E-09 3.95994E-09
 -1       317-3.14170E+06-4.73467E+05-3.78664E+04-1.19100E+06-1.30126E-09-7.32462E-09
 -1       318-3.13298E+06-4.29709E+05-6.26394E+04-1.18543E+06-2.91584E-09 3.04135E-09
 -1       319-3.21873E+06-5.63036E+05-1.81534E+05-1.15405E+06-2.04545E-09-3.19415E-09
 -1       320-3.07187E+06-3.47370E+05-2.66146E+05-1.21087E+06 6.50471E-09-3.17232E-09
 -1       336 4.10310E+02-5.89216E+05-3.15361E+03 5.35710E+02-5.30758E-09-3.84625E-09
 -1       337-1.14190E+03-5.90050E+05-3.45522E+03-1.40483E+03-9.94373E-09 1.64664E-09
 -1       338 2.68872E+02-5.89307E+05-4.37062E+03 8.66542E+02-6.80552E-09 9.37689E-10
 -1       339-4.51975E+03-5.92130E+05-9.56355E+03-2.05929E+03-1.23855E-08-2.90311E-09
 -1       340 3.06129E+03-5.87170E+05-1.47475E+04 1.18606E+03-8.37508E-09 5.23323E-09
 -1       406 1.03086E+01 1.95026E+05 3.27042E+02 2.72519E-01 3.76673E-10-7.28551E-09
 -1       407 1.11737E+02 1.95086E+05 6.95173E+02-7.55428E+00 1.69962E-11-6.71434E-10
 -1       408 3.55505E+02 1.94976E+05 1.38837E+03 7.38733E+00 4.98289E-10 7.30779E-10
 -1       409 1.49912E+03 1.95530E+05 3.12577E+03-6.88417E+01 4.43379E-11 5.70799E-09
 -1       410 4.31138E+03 1.94581E+05 6.38114E+03 6.34670E+01 5.42968E-10 2.17415E-09
 -1       521-5.83618E+06-6.74146E+05-4.37397E+05-2.27029E+06 4.03088E-09-3.40515E-09
 -1       522-6.03934E+06-1.05638E+06-2.96842E+05-2.21684E+06-1.71258E-09-7.10133E-09
 -1       523-5.94543E+06-7.97120E+05-1.02878E+05-2.21723E+06 1.47702E-09-1.24419E-09
 -1       524-5.90366E+06-9.22698E+05-6.18339E+04-2.29129E+06 3.24326E-09 9.70431E-10
 -1       525-5.97145E+06-8.04103E+05-2.39419E+04-2.19729E+06 1.79944E-09-1.25510E-09
 -1       526-5.87732E+06-9.10376E+05-1.37787E+04-2.31031E+06 3.44733E-09 2.25612E-09
 -1       527-5.97195E+06-8.08679E+05-6.67736E+03-2.19861E+06 4.97039E-09 6.59884E-09
 -1       528-5.89153E+06-8.89593E+05-5.42692E+03-2.28952E+06 2.18506E-10 2.91982E-09
 -1       529-5.95657E+06-8.25270E+05-6.98352E+03-2.21762E+06-1.32513E-09 5.21595E-10
 -1       530-5.93160E+06-8.52815E+05-1.32032E+04-2.24248E+06-4.26189E-09 1.99407E-09
 -1       531-5.93124E+06-8.45983E+05-2.42261E+04-2.24515E+06-5.54064E-09 1.41154E-09
 -1       532-5.99141E+06-8.33453E+05-6.12098E+04-2.18896E+06-3.08873E-09-9.86893E-09
 -1       533-5.89741E+06-8.44812E+05-1.01951E+05-2.27134E+06 1.15324E-09-1.01936E-08
 -1       534-6.12104E+06-9.75246E+05-2.95093E+05-2.12814E+06 8.47649E-10 9.54242E-09
 -1       535-5.80363E+06-7.06767E+05-4.33652E+05-2.30572E+06-8.10542E-09 8.03266E-09
 -1       536-2.13739E+04-1.59987E+04 3.68237E+04 2.87661E+02-1.45531E-09 4.47289E-09
 -1       537-4.12142E+03 1.85103E+04 2.62724E+04-1.32873E+03-6.18837E-09 2.53885E-09
 -1       538-1.50454E+04-2.50802E+03 9.49039E+03 2.99620E+02-3.63983E-10 5.87625E-09
 -1       539-1.16063E+04 2.89394E+03 6.08556E+03-1.38086E+03 2.72257E-09 4.26871E-09
 -1       540-1.38982E+04-3.90432E+02 2.39080E+03 3.39787E+02 7.40002E-10 5.08578E-09
 -1       541-1.30292E+04 4.45661E+02 1.44204E+03-1.45212E+03-3.21375E-10 5.02871E-09
 -1       542-1.36284E+04-5.74290E+01 5.67859E+02 3.70862E+02-5.90774E-10-2.72809E-09
 -1       543-1.33976E+04 5.32064E+01 2.85814E+02-1.50145E+03 8.36184E-10-4.33397E-09
 -1       544-1.35338E+04 4.66375E+00 2.66823E+01 3.89118E+02 3.64256E-10-2.59391E-09
 -1       545-1.35501E+04-8.22290E+01-2.02716E+02-1.52458E+03-9.82094E-10-1.88223E-09
 -1       546-1.34780E+04 7.93156E+01-4.54499E+02 3.93997E+02 6.08627E-10 6.32787E-09
 -1       547-1.37841E+04-5.85068E+02-1.19174E+03-1.52079E+03-1.48676E-09 6.71609E-09
 -1       548-1.32995E+04 5.06899E+02-1.93332E+03 3.85325E+02-1.97156E-09 7.67386E-11
 -1       549-1.51374E+04-3.73578E+03-5.26467E+03-1.48860E+03-1.10060E-09 1.06076E-09
 -1       550-1.21220E+04 3.22570E+03-7.50647E+03 3.61802E+02-4.78053E-11 5.64978E-09
 -1       551 5.73210E+03-3.08985E+05 1.69873E+04-5.29881E+05-2.35450E-08-7.19592E-09
 -1       552 1.20525E+04-3.09752E+05 2.22730E+04-7.54102E+05-1.76369E-08-2.32831E-10
 -1       553 7.90852E+03-3.13807E+05 3.47372E+04-5.28162E+05-2.85945E-08 2.40834E-09
 -1       554 2.92969E+04-2.98971E+05 7.38195E+04-7.54827E+05-1.80225E-08 4.81532E-09
 -1       555 2.92978E+04-3.27887E+05 1.32641E+05-5.28852E+05-2.87473E-08-2.56841E-09
 -1       556 4.38977E+04-9.91634E+04 3.41502E+04-1.31849E+05-4.49654E-09-6.76664E-09
 -1       557 8.41079E+04-1.32811E+05 1.78944E+04-1.64790E+05-8.29459E-10-7.16909E-10
 -1       558 4.41586E+04-1.03944E+05 7.29831E+03-1.27711E+05-1.68802E-09 9.02946E-09
 -1       559 7.91116E+04-1.37619E+05 3.68398E+03-1.66888E+05 3.83443E-09 1.07138E-09
 -1       560 4.32692E+04-1.03340E+05 1.55563E+03-1.28242E+05-6.54836E-10-8.40373E-10
 -1       561 7.76192E+04-1.37303E+05 8.12218E+02-1.67824E+05 7.34872E-10 7.69842E-09
 -1       562 4.25311E+04-1.02834E+05 3.22572E+02-1.28777E+05-1.00299E-08 2.70211E-09
 -1       563 7.67415E+04-1.36928E+05 1.92107E+02-1.68385E+05-2.56987E-08-1.52307E-08
 -1       564 4.20726E+04-1.02535E+05 6.99974E+01-1.29105E+05-6.21912E-09-9.01309E-10
 -1       565 7.62905E+04-1.36737E+05 3.71238E+01-1.68667E+05 1.40608E-09 4.94765E-10
 -1       566 4.19146E+04-1.02428E+05-2.17825E+01-1.29220E+05-2.40289E-09-4.67662E-09
 -1       567 7.62327E+04-1.36708E+05-9.50575E+01-1.68654E+05 6.02995E-09 2.31557E-09
 -1       568 4.20827E+04-1.02540E+05-2.56212E+02-1.29149E+05-3.56158E-09-5.57520E-09
 -1       569 7.60640E+04-1.36592E+05-6.02138E+02-1.67913E+05-1.58980E-09 2.09184E-09
 -1       570 4.29913E+04-1.03404E+05-1.25590E+03-1.29191E+05-1.10595E-09-8.27595E-09
 -1       571 1.41383E+05 5.12510E+03 7.59343E+03-3.55855E+04 7.62611E-10 4.46948E-09
 -1       572 1.42514E+05 1.78239E+03 3.72014E+03-3.90075E+04 1.11595E-09 2.93267E-09
 -1       573 1.41839E+05 4.24652E+02 1.65261E+03-3.54924E+04 6.05723E-10-3.85012E-09
 -1       574 1.41974E+05 1.37575E+02 8.27893E+02-3.91117E+04-1.26238E-09 1.10958E-10
 -1       575 1.41891E+05 1.83386E+01 3.90149E+02-3.54801E+04-2.09411E-10 6.09816E-10
 -1       576 1.41900E+05 4.46733E+00 1.98517E+02-3.91257E+04-3.46404E-10 3.63843E-09
 -1       577 1.41899E+05-3.42271E+00 9.77248E+01-3.54784E+04-6.91216E-10 8.92624E-09
 -1       578 1.41893E+05-1.83979E+00 5.31578E+01-3.91273E+04 5.79007E-10 9.41327E-10
 -1       579 1.41906E+05-4.05115E+00 3.23697E+01-3.54784E+04 1.00135E-09-3.18096E-09
 -1       580 1.41901E+05-4.86881E+00 2.99354E+01-3.91252E+04-6.84395E-11 4.73392E-10
 -1       581 1.41917E+05-7.63471E+00 4.04122E+01-3.54806E+04-1.49157E-10 4.77030E-10
 -1       582 1.41924E+05-1.20973E+00 7.67199E+01-3.91040E+04 8.54925E-11-4.39309E-09
 -1       583 1.41930E+05 1.85686E+01 1.47245E+02-3.54996E+04-6.12090E-10 2.61036E-09
 -1       584 1.41994E+05 1.33800E+02 3.29928E+02-3.89456E+04-1.30558E-09 1.06297E-10
 -1       585 1.41911E+05 4.25412E+02 6.70268E+02-3.56392E+04 6.00267E-11 2.72030E-09
 -1       586-1.74299E+03 4.61703E+04-2.30905E+03-1.21072E+05 3.59023E-10 5.84350E-10
 -1       587-3.79391E+02 4.58609E+04-2.74324E+02-1.33229E+05 6.09361E-10 6.20298E-09
 -1       588 4.76580E+02 4.59220E+04 1.60264E+03-1.20998E+05 3.49246E-10 2.81852E-09
 -1       589 2.39475E+03 4.68006E+04 4.69023E+03-1.33119E+05 5.39330E-10-3.78350E-09
 -1       590 6.88522E+03 4.53417E+04 1.00522E+04-1.21183E+05 2.31921E-10 1.46701E-09
 -1       591-3.08632E+04-8.85281E+03-1.02762E+04-1.60247E+04 1.04632E-09-4.04725E-09
 -1       592-3.18215E+04-1.13806E+04-5.56603E+03-1.87092E+04-1.66665E-10-1.64891E-09
 -1       593-3.19021E+04-8.09560E+03-2.31719E+03-1.67665E+04 2.09957E-09-4.44277E-09
 -1       594-3.03892E+04-9.88713E+03-1.15570E+03-1.87803E+04 1.27026E-08 4.80051E-09
 -1       595-3.19816E+04-8.09222E+03-5.31119E+02-1.68005E+04 3.47893E-09-6.85674E-10
 -1       596-3.02922E+04-9.81874E+03-2.70743E+02-1.87702E+04-4.44118E-10 1.54532E-09
 -1       597-3.19917E+04-8.09881E+03-1.49039E+02-1.68019E+04 9.68825E-10-8.25622E-10
 -1       598-3.02830E+04-9.81612E+03-1.22763E+02-1.87674E+04 7.42602E-10-4.44652E-09
 -1       599-3.19910E+04-8.09880E+03-1.60482E+02-1.68017E+04 1.00994E-09 8.46285E-10
 -1       600-3.02935E+04-9.81958E+03-3.01094E+02-1.87701E+04 6.65068E-12 2.77396E-11
 -1       601-3.19785E+04-8.09154E+03-5.95489E+02-1.67997E+04-1.79739E-10 2.49838E-09
 -1       602-3.04026E+04-9.89627E+03-1.29870E+03-1.87804E+04-1.84991E-09-2.67733E-09
 -1       603-3.18883E+04-8.09650E+03-2.60481E+03-1.67617E+04-6.11317E-09-1.15854E-08
 -1       604-3.20180E+04-1.15694E+04-6.25729E+03-1.86928E+04-5.01996E-09 5.85464E-09
 -1       605-3.07136E+04-8.95264E+03-1.15523E+04-1.59334E+04-2.66834E-09 3.68118E-09
 -1       606 2.01964E+04-6.80889E+03-1.22644E+04 1.97744E+04-2.31466E-09 1.85082E-10
 -1       607 1.80960E+04-2.19605E+03-6.10712E+03 2.21978E+04-6.45741E-10-8.45148E-10
 -1       608 1.92911E+04-3.69409E+02-2.73452E+03 1.96166E+04 3.04772E-09 1.43814E-09
 -1       609 1.90549E+04-9.68643E+01-1.38128E+03 2.23721E+04 3.80169E-10-1.93995E-09
 -1       610 1.91844E+04 1.69848E+01-6.59557E+02 1.95990E+04-4.51746E-09 4.46016E-09
 -1       611 1.91407E+04 2.44023E+01-3.32761E+02 2.23912E+04-8.62519E-09 6.63431E-09
 -1       612 1.91578E+04 2.61155E+01-1.59099E+02 1.95972E+04-6.67023E-09 1.01318E-09
 -1       613 1.91420E+04 2.87740E+01-7.26199E+01 2.23935E+04-7.55063E-09-3.49519E-09
 -1       614 1.91440E+04 2.52390E+01-2.02806E+01 1.95966E+04-1.01227E-08 1.69530E-09
 -1       615 1.91358E+04 3.13826E+01 2.24244E+01 2.23938E+04-1.06247E-08 6.12272E-09
 -1       616 1.91335E+04 2.82443E+01 7.46610E+01 1.95968E+04-8.17136E-09-3.19528E-09
 -1       617 1.91420E+04 4.92398E+01 1.73168E+02 2.23935E+04-5.52973E-10-9.03151E-09
 -1       618 1.91162E+04 7.96579E+01 3.50126E+02 1.95969E+04-2.35946E-09 1.71690E-09
 -1       619 1.92639E+04 3.21267E+02 7.86937E+02 2.23930E+04-1.14392E-09-2.77691E-09
 -1       620 1.89987E+04 9.11456E+02 1.58193E+03 1.95963E+04-2.81375E-10 1.67142E-09
 -1       621 2.46684E+02 1.54013E+05 2.13365E+03 4.93236E+03-1.23109E-10 1.40608E-09
 -1       622 2.81830E+02 1.54542E+05 1.80944E+03 7.20181E+03-1.26818E-10-6.23857E-10
 -1       623 1.18515E+01 1.54166E+05 2.07897E+03 4.90916E+03-1.99691E-10 1.02580E-09
 -1       624 9.40130E+02 1.55146E+05 3.94619E+03 7.22451E+03-3.46574E-10 6.35129E-09
 -1       625 9.43833E+02 1.53406E+05 6.85948E+03 4.90989E+03-2.03727E-10-1.61859E-09
 -1       626 1.27027E+05 3.52402E+04 2.53318E+03 6.87329E+04-3.22871E-10-4.40650E-09
 -1       627 1.25284E+05 3.65248E+04 1.22039E+03 7.15162E+04-7.91260E-10 4.31100E-10
 -1       628 1.27126E+05 3.40402E+04 5.15640E+02 6.91155E+04 1.89721E-09 1.95269E-09
 -1       629 1.24920E+05 3.62364E+04 2.52633E+02 7.16849E+04 1.98361E-09 7.89771E-09
 -1       630 1.27134E+05 3.39823E+04 1.16907E+02 6.91267E+04 3.93811E-10 7.09292E-10
 -1       631 1.24878E+05 3.62294E+04 6.28184E+01 7.16880E+04-3.84102E-09-1.02520E-08
 -1       632 1.27129E+05 3.39861E+04 4.15179E+01 6.91219E+04-3.20779E-09-5.43932E-09
 -1       633 1.24870E+05 3.62327E+04 4.63512E+01 7.16840E+04-1.73100E-09 6.75982E-10
 -1       634 1.27122E+05 3.39862E+04 7.50859E+01 6.91192E+04 3.20097E-09 3.07523E-10
 -1       635 1.24873E+05 3.62337E+04 1.52278E+02 7.16840E+04 2.68346E-09 3.05113E-09
 -1       636 1.27114E+05 3.39855E+04 3.07627E+02 6.91170E+04-7.03335E-09 6.40739E-09
 -1       637 1.24936E+05 3.62828E+04 6.76148E+02 7.16807E+04-4.19312E-09 2.56298E-08
 -1       638 1.27087E+05 3.41366E+04 1.38971E+03 6.90472E+04 4.23938E-10-1.57161E-09
 -1       639 1.25662E+05 3.72998E+04 3.28769E+03 7.14641E+04 6.82263E-09-1.55351E-08
 -1       640 1.26989E+05 3.71636E+04 6.82298E+03 6.77617E+04 1.09549E-09-1.09009E-08
 -1       656 3.44332E+04-8.71498E+05-8.31334E+04-4.78926E+02-6.18456E-11 5.17076E-10
 -1       657-4.54984E+04-9.09037E+05-6.87510E+04 5.69080E+03-6.05269E-10 9.73834E-09
 -1       658 1.09170E+04-8.82209E+05-4.21908E+04-1.11785E+03 2.27942E-10-4.79879E-10
 -1       659-4.87798E+04-9.10586E+05-7.30608E+04 6.11282E+03-2.11912E-10 5.42866E-09
 -1       660 3.77060E+04-8.69952E+05-9.05511E+04-9.00927E+02-4.62023E-10-3.65499E-09
 -1       661 1.23725E+05 1.34496E+04 1.18623E+04 4.83197E+04 8.42874E-10 7.20138E-09
 -1       662 1.29848E+05 2.28081E+04 7.99317E+03 4.63191E+04-6.85702E-10 4.36557E-11
 -1       663 1.26047E+05 1.72623E+04 2.79611E+03 4.76520E+04 9.27457E-10-8.60723E-10
 -1       664 1.27163E+05 1.83431E+04 1.67165E+03 4.71287E+04-4.08420E-11 1.47573E-09
 -1       665 1.26392E+05 1.77893E+04 6.59502E+02 4.75574E+04-8.54413E-10 4.16091E-09
 -1       666 1.26760E+05 1.77351E+04 3.84616E+02 4.72482E+04-1.99827E-09 8.14135E-10
 -1       667 1.26448E+05 1.78544E+04 2.02998E+02 4.75384E+04 1.16357E-09-5.12339E-09
 -1       668 1.26702E+05 1.76813E+04 2.03601E+02 4.72744E+04 1.69703E-09 2.47357E-09
 -1       669 1.26450E+05 1.78416E+04 2.73161E+02 4.75318E+04 2.24041E-09 6.51457E-09
 -1       670 1.26774E+05 1.78222E+04 5.92320E+02 4.72696E+04 4.64838E-09 3.48885E-09
 -1       671 1.26376E+05 1.77164E+04 1.05098E+03 4.75421E+04 1.78854E-09-5.03576E-10
 -1       672 1.27391E+05 1.88408E+04 2.68827E+03 4.71175E+04-1.81222E-09 3.73987E-09
 -1       673 1.25837E+05 1.68486E+04 4.50488E+03 4.76741E+04-1.27670E-09 8.92896E-10
 -1       674 1.31683E+05 2.60744E+04 1.28833E+04 4.58530E+04-1.61668E-09-8.61928E-09
 -1       675 1.22112E+05 1.06851E+04 1.91225E+04 4.87304E+04 4.91127E-11-8.14180E-09
 -1       676 1.38611E+01-1.67396E+05-6.43704E+02 2.45286E+01-2.06430E-09-1.47634E-09
 -1       677-1.70855E+02-1.67551E+05-1.17802E+03-4.90437E+01-2.19298E-09-7.85469E-11
 -1       678 1.14094E+02-1.67285E+05-2.08241E+03 2.44984E+01-9.47239E-10 3.68572E-09
 -1       679-2.08272E+03-1.68808E+05-4.94664E+03-4.89135E+01-6.72458E-10 3.28836E-09
 -1       680 1.24292E+03-1.66139E+05-7.97237E+03 2.41205E+01 2.41289E-09-2.77766E-09
 -1       771-1.79985E+06-3.13600E+05-4.39273E+04-7.45319E+05-6.62112E-09-9.46602E-09
 -1       772-1.78878E+06-3.37425E+05-2.35826E+04-7.71858E+05-5.20595E-09-1.57161E-09
 -1       773-1.80575E+06-3.09031E+05-1.01583E+04-7.47779E+05-1.37516E-09 5.49335E-10
 -1       774-1.78241E+06-3.32190E+05-4.95065E+03-7.74376E+05 1.15979E-08-3.43061E-09
 -1       775-1.80704E+06-3.08225E+05-2.49489E+03-7.47933E+05 4.17640E-09-1.11686E-09
 -1       776-1.78225E+06-3.32194E+05-1.15212E+03-7.75664E+05-4.00178E-11 1.40881E-09
 -1       777-1.80790E+06-3.07611E+05-7.10773E+02-7.48001E+05 1.29148E-09 9.73159E-10
 -1       778-1.78246E+06-3.32365E+05-3.16993E+02-7.76732E+05 3.50337E-09 2.87673E-09
 -1       779-1.80857E+06-3.07088E+05-3.09928E+02-7.48061E+05-5.78439E-10-2.07820E-09
 -1       780-1.78269E+06-3.32511E+05-2.42168E+02-7.77595E+05-1.41517E-09 3.11502E-11
 -1       781-1.80908E+06-3.06668E+05-4.31997E+02-7.48104E+05-6.35555E-09-8.33097E-10
 -1       782-1.78292E+06-3.32657E+05-7.86040E+02-7.78231E+05-8.41192E-09-2.21746E-09
 -1       783-1.80938E+06-3.06395E+05-1.57317E+03-7.48117E+05 3.70528E-09 5.15274E-09
 -1       784-1.78398E+06-3.33725E+05-3.72625E+03-7.78576E+05 1.03682E-10 4.40423E-09
 -1       785-1.80887E+06-3.06751E+05-6.89000E+03-7.47629E+05-7.95262E-09 9.82254E-10
 -1       786 1.31498E+05-7.00949E+03 1.62160E+04 3.07769E-01 1.83154E-07-2.83762E-10
 -1       787 1.38524E+05 8.11478E+03 1.14727E+04-4.78970E+00 3.63969E-07 8.72615E-09
 -1       788 1.34209E+05-1.09881E+03 4.19713E+03 2.00999E+00 4.73060E-07-2.18301E-09
 -1       789 1.35366E+05 1.27139E+03 2.63712E+03-8.79248E+00 5.81719E-07 4.56384E-09
 -1       790 1.34656E+05-1.71654E+02 1.07308E+03 4.31058E+00 7.58856E-07-9.69465E-10
 -1       791 1.34844E+05 1.99453E+02 6.30139E+02-1.45157E+01 9.36316E-07 6.86134E-09
 -1       792 1.34731E+05-2.76783E+01 2.87791E+02 7.73336E+00 1.28150E-06-6.59448E-09
 -1       793 1.34760E+05 3.89682E+01 1.88995E+02-2.32432E+01 1.62350E-06 8.04767E-09
 -1       794 1.34741E+05-1.12756E+01 1.40624E+02 1.30382E+01 8.12129E-07-3.13463E-09
 -1       795 1.34769E+05 5.84155E+01 2.04320E+02-3.68995E+01 2.52925E-09 3.70092E-09
 -1       796 1.34723E+05-4.71114E+01 3.06603E+02 2.13899E+01 4.10783E-12-1.48445E-09
 -1       797 1.34908E+05 3.45418E+02 7.23384E+02-5.84887E+01-6.97968E-11 1.86481E-09
 -1       798 1.34601E+05-2.98066E+02 1.14199E+03 3.46277E+01-2.92943E-10-5.05190E-09
 -1       799 1.35765E+05 2.20080E+03 3.11339E+03-9.29720E+01-5.98350E-10 3.84580E-09
 -1       800 1.33866E+05-1.90100E+03 4.39798E+03 5.58735E+01 8.14886E-11-2.19529E-09
 -1       801-8.18428E+03 8.92839E+03 1.09154E+04 1.40472E+04 7.72798E-09-2.37446E-09
 -1       802 2.03492E+04 7.42366E+04 3.92758E+04-5.78176E+04 2.07729E-08-5.21163E-09
 -1       803-1.15863E+04 3.37467E+04 4.92365E+04 1.31409E+04 1.63545E-08 1.37899E-08
 -1       804 9.56444E+04 1.15344E+05 1.38029E+05-5.85766E+04 1.92576E-08 1.54652E-08
 -1       805-8.35211E+04-3.19703E+04 1.77194E+05 1.48042E+04 6.84668E-09 1.85062E-08
 -1       806-1.54037E+05-3.30425E+04-1.31095E+04-6.41870E+04 7.64658E-10 1.58707E-09
 -1       807-1.54804E+05-3.11695E+04-6.44040E+03-6.76679E+04 1.17080E-09 3.13247E-09
 -1       808-1.54409E+05-2.83063E+04-2.73205E+03-6.64107E+04-8.50719E-10 1.26631E-09
 -1       809-1.53430E+05-2.93815E+04-1.33563E+03-6.78539E+04-1.37840E-09-2.79726E-09
 -1       810-1.54468E+05-2.81390E+04-6.11562E+02-6.65089E+04-2.41744E-09-2.01123E-09
 -1       811-1.53325E+05-2.93107E+04-3.03293E+02-6.78385E+04 1.12834E-09-3.16368E-09
 -1       812-1.54478E+05-2.81512E+04-1.51309E+02-6.65088E+04 6.84167E-10 3.03180E-09
 -1       813-1.53311E+05-2.93125E+04-9.54262E+01-6.78306E+04 2.50907E-10-9.80435E-10
 -1       814-1.54477E+05-2.81557E+04-8.93815E+01-6.65069E+04 5.78439E-10-4.04316E-09
 -1       815-1.53313E+05-2.93140E+04-1.39899E+02-6.78287E+04 3.26736E-10 6.81894E-10
 -1       816-1.54468E+05-2.81543E+04-2.62030E+02-6.65053E+04-4.99949E-09-1.15833E-08
 -1       817-1.53359E+05-2.93389E+04-5.61902E+02-6.78244E+04 6.01631E-10 2.42107E-09
 -1       818-1.54435E+05-2.82328E+04-1.14507E+03-6.64683E+04-1.24601E-09-2.39970E-09
 -1       819-1.53991E+05-3.00260E+04-2.69520E+03-6.76716E+04-8.51287E-10 4.31578E-09
 -1       820-1.54218E+05-3.02706E+04-5.48508E+03-6.55999E+04 8.83483E-09 2.25821E-08
 -1       821-1.99083E+05 1.10533E+04-2.55643E+04 2.75119E+01-5.11601E-10-5.47516E-10
 -1       822-2.10161E+05-1.27961E+04-1.80899E+04-3.13855E+02-1.85924E-09 1.89652E-09
 -1       823-2.03358E+05 1.73277E+03-6.62128E+03-1.15353E+01 8.96735E-10-3.02589E-09
 -1       824-2.05178E+05-2.00563E+03-4.16653E+03-2.08185E+02 1.03985E-10-2.80193E-09
 -1       825-2.04064E+05 2.71257E+02-1.71191E+03-7.81616E+01-2.38257E-09-6.29825E-10
 -1       826-2.04357E+05-3.19953E+02-1.03486E+03-6.83910E+01-4.83916E-09-6.10125E-09
 -1       827-2.04179E+05 4.82975E+01-5.34366E+02-1.51332E+02-3.76710E-09-2.72505E-09
 -1       828-2.04245E+05-9.77454E+01-4.73891E+02 6.21246E+01-4.14612E-09 2.42484E-09
 -1       829-2.04177E+05 4.92395E+01-5.42286E+02-2.08680E+02-2.36242E-10-2.79385E-11
 -1       830-2.04367E+05-3.27786E+02-1.05973E+03 1.43492E+02 2.01801E-09-1.90900E-09
 -1       831-2.04057E+05 2.78239E+02-1.75428E+03-2.32701E+02-1.24002E-09 4.94674E-09
 -1       832-2.05209E+05-2.05734E+03-4.27477E+03 1.51246E+02-4.14033E-10 7.11623E-09
 -1       833-2.03335E+05 1.77754E+03-6.79250E+03-2.16433E+02-8.15660E-10 5.44333E-10
 -1       834-2.10315E+05-1.31274E+04-1.85588E+04 8.47919E+01-8.41914E-10-3.82738E-09
 -1       835-1.98952E+05 1.13397E+04-2.62278E+04-1.66241E+02 4.10564E-09 2.07001E-09
 -1       836-6.63806E+02 1.88877E+05 1.13719E+04-1.66508E+04 1.38743E-09 2.84126E-09
 -1       837 2.50249E+03 1.92399E+05 9.70393E+03-3.34521E+04 1.96610E-09 7.34860E-09
 -1       838-2.44546E+02 1.89860E+05 1.00006E+04-1.65937E+04 1.74896E-09 1.09138E-08
 -1       839 6.41558E+03 1.95320E+05 1.90301E+04-3.34728E+04 2.31557E-09 2.99372E-09
 -1       840-1.92996E+03 1.85935E+05 3.03915E+04-1.66291E+04 1.69348E-09 1.93177E-09
 -1       856-6.43801E+04 5.40542E+03-1.42439E+04-3.12476E+02-2.74486E-09 9.44056E-10
 -1       857-7.02647E+04-6.34022E+03-9.80691E+03 3.25992E+03-3.67822E-09-1.94086E-09
 -1       858-6.67050E+04 7.57527E+02-3.69670E+03-3.24755E+02-3.20892E-09-4.48563E-09
 -1       859-6.75940E+04-8.81476E+02-2.23290E+03 3.27936E+03 2.02670E-09-8.72112E-09
 -1       860-6.70527E+04 1.05448E+02-9.38974E+02-3.32000E+02-3.74470E-10-3.06511E-09
 -1       861-6.71931E+04-1.17394E+02-5.23351E+02 3.28920E+03-4.14482E-09-6.28006E-10
 -1       862-6.71068E+04 1.40813E+01-2.31144E+02-3.34619E+02 3.79440E-09-1.24032E-09
 -1       863-6.71292E+04-9.77376E+00-1.15057E+02 3.29033E+03 7.75612E-09-1.79386E-09
 -1       864-6.71167E+04 1.63788E-01-3.76318E+01-3.33128E+02 3.99557E-09-3.23571E-09
 -1       865-6.71114E+04 1.41843E+01 1.73076E+01 3.28284E+03 3.89485E-09 4.22884E-09
 -1       866-6.71238E+04-1.00839E+01 7.07043E+01-3.27129E+02-5.99556E-10-2.04164E-09
 -1       867-6.70695E+04 8.50191E+01 1.96650E+02 3.26661E+03 1.14255E-10-6.70488E-09
 -1       868-6.71569E+04-7.01177E+01 3.32656E+02-3.16900E+02 1.94217E-09-1.87798E-09
 -1       869-6.68201E+04 5.82033E+02 8.93488E+02 3.23937E+03-1.79496E-09-4.47270E-09
 -1       870-6.73705E+04-4.94646E+02 1.29624E+03-2.99892E+02 1.03421E-09-2.52442E-10
 -1       871-2.91129E+03-6.12710E+03-9.47424E+03 6.18831E+04 2.36196E-09 3.00042E-09
 -1       872-1.26600E+03-8.24307E+03-3.85974E+03 8.02261E+04 3.23053E-09 5.22505E-09
 -1       873-2.83524E+01-7.24713E+03 5.59903E+02 6.17461E+04 2.59502E-09-9.39849E-10
 -1       874 1.46046E+03-5.86636E+03 5.39426E+03 8.02552E+04 3.52929E-09 5.61056E-09
 -1       875 3.46455E+03-8.53255E+03 1.19586E+04 6.18589E+04 1.29330E-09 3.62570E-09
 -1       876 1.55921E+05 2.67985E+04 8.38244E+03 6.31597E+04-4.14656E-09 4.84306E-10
 -1       877 1.56433E+05 2.86056E+04 4.47632E+03 6.56019E+04-6.04666E-09-1.70121E-09
 -1       878 1.56705E+05 2.58704E+04 1.87542E+03 6.38483E+04 1.51931E-09-5.54678E-10
 -1       879 1.55293E+05 2.74700E+04 9.34158E+02 6.56620E+04 5.80258E-10 5.66624E-09
 -1       880 1.56762E+05 2.58596E+04 4.34888E+02 6.38764E+04 3.25235E-09 3.52696E-09
 -1       881 1.55217E+05 2.74219E+04 2.31487E+02 6.56509E+04 3.31426E-09-1.03408E-09
 -1       882 1.56768E+05 2.58661E+04 1.46856E+02 6.38772E+04 4.90866E-09 7.62675E-09
 -1       883 1.55212E+05 2.74197E+04 1.55854E+02 6.56480E+04 1.89652E-09 4.43811E-09
 -1       884 1.56766E+05 2.58642E+04 2.46127E+02 6.38773E+04 3.33699E-09 4.81265E-09
 -1       885 1.55231E+05 2.74232E+04 4.93725E+02 6.56542E+04 4.09354E-09 8.33251E-09
 -1       886 1.56746E+05 2.58498E+04 9.94587E+02 6.38753E+04-2.03251E-09-6.04575E-09
 -1       887 1.55406E+05 2.75378E+04 2.17239E+03 6.56792E+04-2.13086E-09-5.02467E-09
 -1       888 1.56609E+05 2.58743E+04 4.37745E+03 6.38058E+04-6.80586E-10-5.98970E-09
 -1       889 1.58014E+05 3.02466E+04 1.04576E+04 6.55965E+04 1.93132E-09-2.01817E-09
 -1       890 1.54825E+05 2.79927E+04 1.95860E+04 6.21357E+04 2.72712E-09-5.30781E-09
 -1       891-9.28638E+01-9.03215E+04-1.13410E+03 1.66401E+04 1.48134E-10-1.63254E-09
 -1       892-1.84981E+02-9.06000E+04-1.20723E+03 2.56038E+04 2.39584E-09 5.11045E-09
 -1       893-2.28846E+01-9.03639E+04-1.68997E+03 1.66430E+04 4.57931E-10 9.24501E-10
 -1       894-9.31033E+02-9.12466E+04-3.49384E+03 2.55136E+04 2.58842E-09 9.84755E-10
 -1       895-6.22642E+02-8.96376E+04-6.11664E+03 1.67293E+04 1.69945E-09-4.77939E-10
 -1       956-1.95083E+05-2.81489E+03-7.08887E+03 1.28737E+04-1.95041E-09-1.09389E-09
 -1       957-1.96483E+05-9.49579E+02-3.63930E+03 1.54985E+04-1.13459E-09-3.11547E-09
 -1       958-1.95710E+05-7.55019E+01-1.63946E+03 1.27898E+04 7.88987E-10-1.16745E-09
 -1       959-1.95821E+05-1.38408E+01-8.37475E+02 1.55892E+04 3.30374E-10 5.91990E-09
 -1       960-1.95765E+05 2.27048E+01-4.08128E+02 1.27820E+04-2.21689E-09-5.87761E-11
 -1       961-1.95771E+05 2.04769E+01-2.16410E+02 1.55980E+04-6.41262E-09-1.06866E-09
 -1       962-1.95775E+05 1.91041E+01-1.23499E+02 1.27809E+04-2.91107E-09-2.76088E-09
 -1       963-1.95768E+05 2.08107E+01-9.85204E+01 1.55994E+04-3.85489E-09-2.51987E-09
 -1       964-1.95777E+05 2.01552E+01-1.18765E+02 1.27805E+04-5.06532E-10-2.52635E-09
 -1       965-1.95775E+05 2.28371E+01-2.04526E+02 1.55994E+04 3.10435E-09 4.86125E-10
 -1       966-1.95771E+05 2.57819E+01-3.83463E+02 1.27809E+04-2.50253E-09-9.93282E-10
 -1       967-1.95826E+05-7.01923E+00-7.86253E+02 1.55947E+04-4.33829E-10 4.56407E-09
 -1       968-1.95723E+05-6.41757E+01-1.53844E+03 1.27853E+04 2.23736E-10 2.04803E-09
 -1       969-1.96452E+05-8.83243E+02-3.41576E+03 1.55419E+04 1.27056E-09-1.95431E-09
 -1       970-1.95138E+05-2.63391E+03-6.65295E+03 1.28353E+04 8.60609E-10 1.53614E-09
 -1       971-1.85599E+05-9.82372E+02-5.46845E+03 9.01114E+03-2.98496E-09-1.82678E-09
 -1       972-1.86929E+05-7.05282E+02-2.97838E+03 1.25793E+04-2.65027E-09-5.79348E-09
 -1       973-1.86205E+05-6.46091E+00-1.33334E+03 8.93641E+03-2.81489E-09 4.47699E-10
 -1       974-1.86297E+05-7.96545E+00-6.90844E+02 1.26595E+04-1.26852E-09-7.13271E-10
 -1       975-1.86251E+05 1.77945E+01-3.44326E+02 8.93019E+03 8.77890E-10 2.54590E-09
 -1       976-1.86257E+05 1.94752E+01-1.97187E+02 1.26668E+04-2.57262E-09-4.28656E-09
 -1       977-1.86259E+05 1.67685E+01-1.40279E+02 8.92903E+03 1.45519E-09 3.06056E-09
 -1       978-1.86258E+05 2.19768E+01-1.60405E+02 1.26684E+04 8.83750E-09 3.25923E-09
 -1       979-1.86258E+05 2.07042E+01-2.54390E+02 8.92855E+03 3.80612E-09 6.46145E-09
 -1       980-1.86277E+05 2.33966E+01-4.89105E+02 1.26686E+04 3.84964E-09 1.61123E-09
 -1       981-1.86242E+05 3.29803E+01-9.46101E+02 8.92877E+03 1.33468E-10-4.38513E-09
 -1       982-1.86407E+05-4.60471E+01-1.95491E+03 1.26652E+04-2.91175E-09-6.36359E-09
 -1       983-1.86124E+05-2.69082E+01-3.79790E+03 8.93210E+03 1.96246E-09-2.51964E-09
 -1       984-1.88235E+05-2.02838E+03-8.50469E+03 1.26155E+04-2.18813E-09 1.24317E-09
 -1       985-1.84406E+05-2.80525E+03-1.56173E+04 8.98156E+03 2.78737E-09 4.91036E-09
 -3
    1PSTEP                         7           4           1          
  100CL  104 4.68750E-01         409                     0    4           1
 -4  DISP        4    1
 -5  D1          1    2    1    0
 -5  D2          1    2    2    0
 -5  D3          1    2    3    0
 -5  ALL         1    2    0    0    1ALL
 -1         1 1.27097E-04 0.00000E+00 0.00000E+00
 -1         2 1.16520E-04 6.35646E-30 0.00000E+00
 -1         3 1.10139E-04 1.40009E-27-6.61744E-24
 -1         5 7.79901E-05 7.16103E-27 3.30872E-24
 -1         8 1.02690E-04-8.86053E-07 0.00000E+00
 -1         9 1.03384E-04 4.52908E-07 0.00000E+00
 -1        10 1.01915E-04-1.50233E-06 0.00000E+00
 -1        12 7.75021E-05 5.12307E-07 0.00000E+00
 -1        15 7.36258E-05-9.77557E-07 0.00000E+00
 -1        16 7.62677E-05 2.98158E-07 0.00000E+00
 -1        17 7.56367E-05-3.17266E-06 0.00000E+00
 -1        18 7.50469E-05 7.82243E-07 0.00000E+00
 -1        19 7.60385E-05 1.02179E-06 0.00000E+00
 -1        20 7.61700E-05 1.46081E-05 0.00000E+00
 -1        21 7.56226E-05 2.75405E-05 0.00000E+00
 -1        24 1.86443E-05-4.31992E-06 0.00000E+00
 -1        25 7.35657E-05 9.00642E-07 0.00000E+00
 -1        26 7.44939E-05 1.42303E-06 0.00000E+00
 -1        27 7.30767E-05 1.23314E-05 0.00000E+00
 -1        28 7.26106E-05 2.71037E-05 0.00000E+00
 -1        32 0.00000E+00 0.00000E+00 0.00000E+00
 -1        33 7.17365E-05 1.90742E-06 0.00000E+00
 -1        34 7.03671E-05 1.23105E-05 0.00000E+00
 -1        35 6.90649E-05 2.68678E-05 0.00000E+00
 -1        51 1.25511E-04-1.45655E-07 0.00000E+00
 -1        52 1.22570E-04-2.87395E-07 0.00000E+00
 -1        53 1.18540E-04-4.30624E-07 0.00000E+00
 -1        54 1.13698E-04-5.76778E-07 3.30872E-24
 -1        55 1.08322E-04-7.26583E-07 0.00000E+00
 -1        56 1.25954E-04-7.43480E-07 2.64698E-23
 -1        57 1.24956E-04-2.00579E-06 0.00000E+00
 -1        58 1.24101E-04-3.64114E-06 2.64698E-23
 -1        59 1.23325E-04-5.51279E-06 0.00000E+00
 -1        60 1.22579E-04-7.46329E-06 0.00000E+00
 -1        61 1.21801E-04-9.33591E-06 0.00000E+00
 -1        62 1.20938E-04-1.09781E-05-5.29396E-23
 -1        63 1.19934E-04-1.22447E-05 2.64698E-23
 -1        64 1.18743E-04-1.30136E-05-5.29396E-23
 -1        65 1.17326E-04-1.31777E-05-2.64698E-23
 -1        66 1.15656E-04-1.26672E-05 0.00000E+00
 -1        67 1.13714E-04-1.14323E-05 0.00000E+00
 -1        68 1.11498E-04-9.46831E-06 0.00000E+00
 -1        69 1.09018E-04-6.78999E-06-1.32349E-23
 -1        70 1.06290E-04-3.46124E-06 0.00000E+00
 -1        86 1.16178E-04 8.33939E-08 0.00000E+00
 -1        87 1.15150E-04 1.65797E-07 0.00000E+00
 -1        88 1.13404E-04 2.47161E-07 0.00000E+00
 -1        89 1.10906E-04 3.23605E-07 4.13590E-25
 -1        90 1.07590E-04 3.98897E-07 0.00000E+00
 -1       121 1.09910E-04-2.49120E-07 0.00000E+00
 -1       122 1.09221E-04-4.98447E-07 3.30872E-24
 -1       123 1.08075E-04-7.48187E-07 0.00000E+00
 -1       124 1.06474E-04-9.98584E-07 0.00000E+00
 -1       125 1.04419E-04-1.24977E-06 0.00000E+00
 -1       191 7.79765E-05 8.53917E-08 3.30872E-24
 -1       192 7.79358E-05 1.70782E-07-1.65436E-24
 -1       193 7.78681E-05 2.56171E-07 6.61744E-24
 -1       194 7.77732E-05 3.41556E-07 0.00000E+00
 -1       195 7.76512E-05 4.26936E-07-3.30872E-24
 -1       251 1.02713E-04 3.14224E-06 0.00000E+00
 -1       252 1.02756E-04 5.56395E-06 0.00000E+00
 -1       253 1.02801E-04 6.63845E-06 5.16988E-26
 -1       254 1.02849E-04 6.62210E-06 0.00000E+00
 -1       255 1.02897E-04 5.74364E-06 0.00000E+00
 -1       256 1.02944E-04 4.23004E-06-8.27181E-25
 -1       257 1.02991E-04 2.29198E-06 1.65436E-24
 -1       258 1.03038E-04 1.39294E-07 0.00000E+00
 -1       259 1.03085E-04-2.02379E-06 0.00000E+00
 -1       260 1.03132E-04-3.99299E-06 8.27181E-25
 -1       261 1.03179E-04-5.55904E-06 8.27181E-25
 -1       262 1.03227E-04-6.51190E-06 4.13590E-25
 -1       263 1.03275E-04-6.62576E-06 0.00000E+00
 -1       264 1.03319E-04-5.67308E-06 0.00000E+00
 -1       265 1.03362E-04-3.39933E-06 0.00000E+00
 -1       266 9.78464E-05-9.13253E-07 0.00000E+00
 -1       267 9.30023E-05-9.27048E-07 0.00000E+00
 -1       268 8.81582E-05-9.41691E-07 0.00000E+00
 -1       269 8.33140E-05-9.53819E-07 0.00000E+00
 -1       270 7.84699E-05-9.65888E-07-4.13590E-25
 -1       271 9.97420E-05 2.76630E-06-2.64698E-23
 -1       272 9.72197E-05 5.15483E-06-1.32349E-23
 -1       273 9.51238E-05 6.41909E-06 5.29396E-23
 -1       274 9.33905E-05 6.69835E-06 0.00000E+00
 -1       275 9.19651E-05 6.15616E-06 5.29396E-23
 -1       276 9.07802E-05 4.96824E-06 0.00000E+00
 -1       277 8.97660E-05 3.32326E-06 0.00000E+00
 -1       278 8.88489E-05 1.41781E-06 0.00000E+00
 -1       279 8.79537E-05-5.46508E-07 0.00000E+00
 -1       280 8.70050E-05-2.36697E-06-2.64698E-23
 -1       281 8.59280E-05-3.84376E-06 0.00000E+00
 -1       282 8.46507E-05-4.78308E-06 2.64698E-23
 -1       283 8.31035E-05-5.00171E-06-5.29396E-23
 -1       284 8.12263E-05-4.32769E-06 0.00000E+00
 -1       285 7.89543E-05-2.60973E-06 0.00000E+00
 -1       301 9.86860E-05 4.20118E-07 0.00000E+00
 -1       302 9.40093E-05 4.02505E-07-1.65436E-24
 -1       303 8.93918E-05 3.85581E-07 0.00000E+00
 -1       304 8.48708E-05 3.67442E-07 0.00000E+00
 -1       305 8.04839E-05 3.47470E-07 0.00000E+00
 -1       306 1.00341E-04 3.85344E-06 2.64698E-23
 -1       307 9.77747E-05 5.83760E-06 0.00000E+00
 -1       308 9.57677E-05 6.34876E-06-5.29396E-23
 -1       309 9.43078E-05 5.37569E-06 2.64698E-23
 -1       310 9.33215E-05 3.13550E-06 0.00000E+00
 -1       311 9.27035E-05-9.80556E-08 2.64698E-23
 -1       312 9.22974E-05-3.90169E-06 0.00000E+00
 -1       313 9.19357E-05-7.82559E-06-2.64698E-23
 -1       314 9.14445E-05-1.14014E-05 5.29396E-23
 -1       315 9.06561E-05-1.41772E-05 2.64698E-23
 -1       316 8.94455E-05-1.58220E-05 0.00000E+00
 -1       317 8.77092E-05-1.60576E-05 0.00000E+00
 -1       318 8.54177E-05-1.48172E-05 5.29396E-23
 -1       319 8.25799E-05-1.20997E-05-2.64698E-23
 -1       320 7.92639E-05-8.13224E-06 0.00000E+00
 -1       336 9.89057E-05-1.77592E-06-6.61744E-24
 -1       337 9.53376E-05-2.05165E-06 3.30872E-24
 -1       338 9.12172E-05-2.32932E-06 0.00000E+00
 -1       339 8.65535E-05-2.60888E-06 0.00000E+00
 -1       340 8.13562E-05-2.89101E-06 0.00000E+00
 -1       406 7.73259E-05 5.97664E-07 0.00000E+00
 -1       407 7.71225E-05 6.82988E-07 0.00000E+00
 -1       408 7.68921E-05 7.68255E-07 6.61744E-24
 -1       409 7.66345E-05 8.53358E-07 0.00000E+00
 -1       410 7.63499E-05 9.38130E-07 0.00000E+00
 -1       521 7.44541E-05-3.55880E-06 0.00000E+00
 -1       522 7.74215E-05-2.08124E-05 0.00000E+00
 -1       523 8.40954E-05-4.85562E-05 0.00000E+00
 -1       524 9.30619E-05-8.30432E-05-5.29396E-23
 -1       525 1.02552E-04-1.19074E-04 0.00000E+00
 -1       526 1.10755E-04-1.51322E-04 0.00000E+00
 -1       527 1.16080E-04-1.75276E-04 0.00000E+00
 -1       528 1.17083E-04-1.87122E-04-5.29396E-23
 -1       529 1.13138E-04-1.85618E-04-1.05879E-22
 -1       530 1.03989E-04-1.70610E-04 0.00000E+00
 -1       531 9.05239E-05-1.44758E-04 1.05879E-22
 -1       532 7.40584E-05-1.11562E-04 5.29396E-23
 -1       533 5.66281E-05-7.60300E-05-1.05879E-22
 -1       534 4.03935E-05-4.33392E-05-2.64698E-23
 -1       535 2.71894E-05-1.81053E-05 5.29396E-23
 -1       536 7.55809E-05 2.31502E-06 0.00000E+00
 -1       537 7.55364E-05 6.82664E-06-8.27181E-25
 -1       538 7.54953E-05 1.03294E-05-1.65436E-24
 -1       539 7.54584E-05 1.27922E-05-8.27181E-25
 -1       540 7.54234E-05 1.42591E-05 8.27181E-25
 -1       541 7.53896E-05 1.47758E-05 0.00000E+00
 -1       542 7.53559E-05 1.44565E-05 0.00000E+00
 -1       543 7.53218E-05 1.34168E-05 4.13590E-25
 -1       544 7.52870E-05 1.18244E-05-8.27181E-25
 -1       545 7.52516E-05 9.84764E-06 0.00000E+00
 -1       546 7.52158E-05 7.68275E-06 0.00000E+00
 -1       547 7.51802E-05 5.52622E-06-4.13590E-25
 -1       548 7.51450E-05 3.57392E-06 0.00000E+00
 -1       549 7.51109E-05 2.02142E-06 0.00000E+00
 -1       550 7.50774E-05 1.03556E-06-5.16988E-26
 -1       551 6.81195E-05-3.34363E-06 0.00000E+00
 -1       552 5.91300E-05-3.52314E-06-1.65436E-24
 -1       553 4.91744E-05-3.71118E-06-4.96308E-24
 -1       554 3.87665E-05-3.90582E-06 0.00000E+00
 -1       555 2.84197E-05-4.10257E-06 0.00000E+00
 -1       556 7.36499E-05 1.97197E-06 0.00000E+00
 -1       557 7.21266E-05 5.92013E-06 0.00000E+00
 -1       558 7.10164E-05 8.78113E-06 0.00000E+00
 -1       559 7.02734E-05 1.06730E-05 0.00000E+00
 -1       560 6.98515E-05 1.17134E-05 0.00000E+00
 -1       561 6.97054E-05 1.20208E-05 0.00000E+00
 -1       562 6.97899E-05 1.17137E-05 0.00000E+00
 -1       563 7.00603E-05 1.09109E-05 0.00000E+00
 -1       564 7.04717E-05 9.73118E-06 0.00000E+00
 -1       565 7.09796E-05 8.29331E-06 0.00000E+00
 -1       566 7.15396E-05 6.71623E-06 0.00000E+00
 -1       567 7.21071E-05 5.11886E-06 4.13590E-25
 -1       568 7.26379E-05 3.62010E-06 0.00000E+00
 -1       569 7.30874E-05 2.33871E-06 0.00000E+00
 -1       570 7.34111E-05 1.39350E-06 0.00000E+00
 -1       571 7.51070E-05 8.34997E-07 0.00000E+00
 -1       572 7.51685E-05 8.46645E-07 6.20385E-25
 -1       573 7.52304E-05 8.24554E-07 0.00000E+00
 -1       574 7.52925E-05 7.76478E-07 0.00000E+00
 -1       575 7.53547E-05 7.10203E-07 1.65436E-24
 -1       576 7.54168E-05 6.33565E-07 0.00000E+00
 -1       577 7.54790E-05 5.54409E-07 0.00000E+00
 -1       578 7.55412E-05 4.80584E-07 0.00000E+00
 -1       579 7.56034E-05 4.19938E-07 0.00000E+00
 -1       580 7.56656E-05 3.80323E-07-1.65436E-24
 -1       581 7.57278E-05 3.69587E-07 0.00000E+00
 -1       582 7.57900E-05 3.95571E-07 0.00000E+00
 -1       583 7.58522E-05 4.66107E-07 0.00000E+00
 -1       584 7.59144E-05 5.88950E-07 0.00000E+00
 -1       585 7.59765E-05 7.71806E-07 0.00000E+00
 -1       586 7.47777E-05 8.03194E-07 0.00000E+00
 -1       587 7.44823E-05 8.23630E-07-2.06795E-25
 -1       588 7.41870E-05 8.43844E-07 0.00000E+00
 -1       589 7.39182E-05 8.63738E-07 0.00000E+00
 -1       590 7.37025E-05 8.83091E-07 0.00000E+00
 -1       591 7.49979E-05 8.67232E-07-1.03398E-25
 -1       592 7.49591E-05 9.18684E-07 0.00000E+00
 -1       593 7.49303E-05 9.42993E-07 0.00000E+00
 -1       594 7.49092E-05 9.45913E-07 0.00000E+00
 -1       595 7.48939E-05 9.33280E-07-4.13590E-25
 -1       596 7.48822E-05 9.10880E-07 0.00000E+00
 -1       597 7.48720E-05 8.84502E-07 4.13590E-25
 -1       598 7.48611E-05 8.59927E-07 0.00000E+00
 -1       599 7.48474E-05 8.42937E-07 4.13590E-25
 -1       600 7.48287E-05 8.39313E-07 0.00000E+00
 -1       601 7.48028E-05 8.54836E-07-4.13590E-25
 -1       602 7.47676E-05 8.95294E-07 0.00000E+00
 -1       603 7.47209E-05 9.66472E-07-1.03398E-25
 -1       604 7.46609E-05 1.07421E-06 0.00000E+00
 -1       605 7.45851E-05 1.22425E-06-4.13590E-25
 -1       606 7.60499E-05 1.41342E-06 0.00000E+00
 -1       607 7.60591E-05 1.89292E-06 0.00000E+00
 -1       608 7.60677E-05 2.45513E-06 0.00000E+00
 -1       609 7.60760E-05 3.09422E-06 0.00000E+00
 -1       610 7.60842E-05 3.80436E-06 0.00000E+00
 -1       611 7.60922E-05 4.57963E-06 0.00000E+00
 -1       612 7.61002E-05 5.41407E-06 0.00000E+00
 -1       613 7.61082E-05 6.30178E-06 0.00000E+00
 -1       614 7.61161E-05 7.23681E-06 0.00000E+00
 -1       615 7.61240E-05 8.21320E-06 0.00000E+00
 -1       616 7.61318E-05 9.22505E-06-1.65436E-24
 -1       617 7.61396E-05 1.02664E-05 0.00000E+00
 -1       618 7.61473E-05 1.13313E-05-8.27181E-25
 -1       619 7.61551E-05 1.24139E-05 0.00000E+00
 -1       620 7.61627E-05 1.35081E-05 0.00000E+00
 -1       621 7.57348E-05 1.08871E-06 0.00000E+00
 -1       622 7.54569E-05 1.15595E-06 8.27181E-25
 -1       623 7.51994E-05 1.22319E-06 0.00000E+00
 -1       624 7.49567E-05 1.29032E-06 0.00000E+00
 -1       625 7.47234E-05 1.35733E-06 0.00000E+00
 -1       626 7.59633E-05 1.43456E-06 3.30872E-24
 -1       627 7.58614E-05 1.91996E-06 0.00000E+00
 -1       628 7.57349E-05 2.47123E-06 0.00000E+00
 -1       629 7.55864E-05 3.08115E-06 0.00000E+00
 -1       630 7.54187E-05 3.74249E-06 3.30872E-24
 -1       631 7.52344E-05 4.44799E-06 1.65436E-24
 -1       632 7.50362E-05 5.19037E-06 0.00000E+00
 -1       633 7.48269E-05 5.96235E-06 1.65436E-24
 -1       634 7.46092E-05 6.75668E-06-3.30872E-24
 -1       635 7.43858E-05 7.56606E-06 0.00000E+00
 -1       636 7.41595E-05 8.38325E-06 0.00000E+00
 -1       637 7.39330E-05 9.20096E-06-8.27181E-25
 -1       638 7.37089E-05 1.00119E-05 0.00000E+00
 -1       639 7.34900E-05 1.08089E-05 0.00000E+00
 -1       640 7.32787E-05 1.15845E-05-8.27181E-25
 -1       656 7.52603E-05 1.42376E-05 0.00000E+00
 -1       657 7.46813E-05 1.38524E-05 3.30872E-24
 -1       658 7.43077E-05 1.34684E-05 0.00000E+00
 -1       659 7.40110E-05 1.30847E-05 3.30872E-24
 -1       660 7.36481E-05 1.26998E-05 6.61744E-24
 -1       661 7.58335E-05 1.56855E-05 0.00000E+00
 -1       662 7.55176E-05 1.67160E-05-8.27181E-25
 -1       663 7.52187E-05 1.77006E-05 1.65436E-24
 -1       664 7.49368E-05 1.86416E-05 0.00000E+00
 -1       665 7.46706E-05 1.95406E-05 1.65436E-24
 -1       666 7.44197E-05 2.03994E-05-8.27181E-25
 -1       667 7.41832E-05 2.12197E-05 0.00000E+00
 -1       668 7.39606E-05 2.20031E-05 0.00000E+00
 -1       669 7.37514E-05 2.27510E-05-1.65436E-24
 -1       670 7.35549E-05 2.34650E-05-8.27181E-25
 -1       671 7.33706E-05 2.41463E-05-1.65436E-24
 -1       672 7.31980E-05 2.47962E-05 0.00000E+00
 -1       673 7.30366E-05 2.54160E-05 0.00000E+00
 -1       674 7.28855E-05 2.60066E-05-8.27181E-25
 -1       675 7.27451E-05 2.65693E-05 0.00000E+00
 -1       676 7.51194E-05 2.74672E-05-1.65436E-24
 -1       677 7.46164E-05 2.73940E-05 0.00000E+00
 -1       678 7.41138E-05 2.73209E-05 0.00000E+00
 -1       679 7.36118E-05 2.72479E-05 0.00000E+00
 -1       680 7.31107E-05 2.71750E-05 1.65436E-24
 -1       771 1.47363E-05 3.22083E-06 0.00000E+00
 -1       772 1.13403E-05 9.39769E-06 0.00000E+00
 -1       773 8.43532E-06 1.42858E-05-2.64698E-23
 -1       774 5.98871E-06 1.79654E-05 0.00000E+00
 -1       775 3.96851E-06 2.05190E-05 0.00000E+00
 -1       776 2.34131E-06 2.20317E-05 1.32349E-23
 -1       777 1.07323E-06 2.25908E-05 0.00000E+00
 -1       778 1.29704E-07 2.22859E-05-1.32349E-23
 -1       779-5.24147E-07 2.12081E-05 0.00000E+00
 -1       780-9.23818E-07 1.94506E-05-1.32349E-23
 -1       781-1.10494E-06 1.71077E-05 0.00000E+00
 -1       782-1.10362E-06 1.42753E-05-1.32349E-23
 -1       783-9.56063E-07 1.10502E-05 0.00000E+00
 -1       784-6.98722E-07 7.53028E-06-1.32349E-23
 -1       785-3.68181E-07 3.81379E-06-2.64698E-23
 -1       786 7.36203E-05 8.59868E-07 0.00000E+00
 -1       787 7.36782E-05 8.25092E-07 0.00000E+00
 -1       788 7.37359E-05 7.95853E-07 1.65436E-24
 -1       789 7.37941E-05 7.71707E-07 8.27181E-25
 -1       790 7.38524E-05 7.52893E-07 0.00000E+00
 -1       791 7.39108E-05 7.39664E-07 8.27181E-25
 -1       792 7.39693E-05 7.33027E-07-1.65436E-24
 -1       793 7.40277E-05 7.34003E-07-8.27181E-25
 -1       794 7.40862E-05 7.44642E-07 0.00000E+00
 -1       795 7.41446E-05 7.67018E-07 8.27181E-25
 -1       796 7.42031E-05 8.04784E-07-1.65436E-24
 -1       797 7.42615E-05 8.61636E-07 8.27181E-25
 -1       798 7.43199E-05 9.43838E-07-1.65436E-24
 -1       799 7.43782E-05 1.05772E-06 0.00000E+00
 -1       800 7.44365E-05 1.21388E-06 1.65436E-24
 -1       801 6.85959E-05 8.40841E-07 0.00000E+00
 -1       802 5.37168E-05 6.84607E-07-1.65436E-24
 -1       803 3.41870E-05 4.55604E-07 0.00000E+00
 -1       804 1.52751E-05 2.31281E-07 0.00000E+00
 -1       805 2.15635E-06 9.29501E-08-1.32349E-23
 -1       806 7.35092E-05 8.18594E-07 1.65436E-24
 -1       807 7.34494E-05 7.37688E-07 0.00000E+00
 -1       808 7.33869E-05 6.62431E-07-1.65436E-24
 -1       809 7.33205E-05 5.96630E-07 0.00000E+00
 -1       810 7.32491E-05 5.44084E-07-1.65436E-24
 -1       811 7.31712E-05 5.08534E-07 8.27181E-25
 -1       812 7.30855E-05 4.93718E-07-1.65436E-24
 -1       813 7.29907E-05 5.03364E-07 8.27181E-25
 -1       814 7.28853E-05 5.41197E-07-1.65436E-24
 -1       815 7.27679E-05 6.10939E-07 8.27181E-25
 -1       816 7.26371E-05 7.16309E-07-1.65436E-24
 -1       817 7.24916E-05 8.61025E-07 0.00000E+00
 -1       818 7.23300E-05 1.04880E-06 1.65436E-24
 -1       819 7.21510E-05 1.28334E-06 4.13590E-25
 -1       820 7.19533E-05 1.56834E-06-8.27181E-25
 -1       821 7.44105E-05 1.65243E-06 8.27181E-25
 -1       822 7.43219E-05 1.87008E-06 0.00000E+00
 -1       823 7.42337E-05 2.11562E-06-1.65436E-24
 -1       824 7.41445E-05 2.42862E-06-1.65436E-24
 -1       825 7.40553E-05 2.83613E-06 3.30872E-24
 -1       826 7.39658E-05 3.36481E-06 0.00000E+00
 -1       827 7.38762E-05 4.01890E-06 0.00000E+00
 -1       828 7.37865E-05 4.80213E-06-1.65436E-24
 -1       829 7.36967E-05 5.69430E-06 0.00000E+00
 -1       830 7.36068E-05 6.67478E-06 0.00000E+00
 -1       831 7.35169E-05 7.70661E-06 3.30872E-24
 -1       832 7.34272E-05 8.75259E-06 0.00000E+00
 -1       833 7.33376E-05 9.77289E-06 0.00000E+00
 -1       834 7.32490E-05 1.07278E-05 0.00000E+00
 -1       835 7.31602E-05 1.15898E-05 0.00000E+00
 -1       836 7.41702E-05 1.50367E-06 0.00000E+00
 -1       837 7.37402E-05 1.58610E-06 0.00000E+00
 -1       838 7.32427E-05 1.66836E-06 1.65436E-24
 -1       839 7.27169E-05 1.75010E-06 8.27181E-25
 -1       840 7.22018E-05 1.83171E-06 2.06795E-25
 -1       856 7.30508E-05 1.30654E-05-2.06795E-25
 -1       857 7.30220E-05 1.38978E-05-2.06795E-25
 -1       858 7.29933E-05 1.48130E-05 8.27181E-25
 -1       859 7.29641E-05 1.57955E-05-4.13590E-25
 -1       860 7.29347E-05 1.68295E-05 0.00000E+00
 -1       861 7.29052E-05 1.78994E-05-4.13590E-25
 -1       862 7.28757E-05 1.89894E-05-8.27181E-25
 -1       863 7.28461E-05 2.00836E-05 0.00000E+00
 -1       864 7.28166E-05 2.11664E-05 0.00000E+00
 -1       865 7.27871E-05 2.22218E-05-4.13590E-25
 -1       866 7.27576E-05 2.32343E-05 8.27181E-25
 -1       867 7.27281E-05 2.41879E-05-4.13590E-25
 -1       868 7.26987E-05 2.50672E-05 0.00000E+00
 -1       869 7.26694E-05 2.58566E-05 0.00000E+00
 -1       870 7.26401E-05 2.65405E-05 0.00000E+00
 -1       871 7.25263E-05 1.23306E-05 0.00000E+00
 -1       872 7.20693E-05 1.23278E-05 0.00000E+00
 -1       873 7.16656E-05 1.23247E-05 0.00000E+00
 -1       874 7.12744E-05 1.23211E-05 0.00000E+00
 -1       875 7.08550E-05 1.23170E-05 2.06795E-25
 -1       876 7.28870E-05 1.30728E-05 0.00000E+00
 -1       877 7.26817E-05 1.38612E-05 1.65436E-24
 -1       878 7.24609E-05 1.46911E-05 0.00000E+00
 -1       879 7.22267E-05 1.55573E-05 0.00000E+00
 -1       880 7.19810E-05 1.64543E-05 0.00000E+00
 -1       881 7.17256E-05 1.73771E-05 1.65436E-24
 -1       882 7.14625E-05 1.83204E-05 0.00000E+00
 -1       883 7.11937E-05 1.92789E-05 0.00000E+00
 -1       884 7.09211E-05 2.02475E-05 0.00000E+00
 -1       885 7.06467E-05 2.12209E-05 0.00000E+00
 -1       886 7.03724E-05 2.21939E-05 0.00000E+00
 -1       887 7.01002E-05 2.31612E-05 0.00000E+00
 -1       888 6.98319E-05 2.41177E-05-1.65436E-24
 -1       889 6.95692E-05 2.50580E-05 0.00000E+00
 -1       890 6.93141E-05 2.59768E-05 8.27181E-25
 -1       891 7.21294E-05 2.70642E-05 8.27181E-25
 -1       892 7.16310E-05 2.70247E-05-4.13590E-25
 -1       893 7.10952E-05 2.69851E-05-8.27181E-25
 -1       894 7.05023E-05 2.69456E-05 0.00000E+00
 -1       895 6.98320E-05 2.69061E-05 2.06795E-25
 -1       956 7.16525E-05 2.35690E-06 0.00000E+00
 -1       957 7.15671E-05 2.86124E-06-1.65436E-24
 -1       958 7.14815E-05 3.41472E-06 3.30872E-24
 -1       959 7.13957E-05 4.01127E-06-1.65436E-24
 -1       960 7.13099E-05 4.64484E-06-1.65436E-24
 -1       961 7.12240E-05 5.30932E-06-8.27181E-25
 -1       962 7.11380E-05 5.99860E-06 1.65436E-24
 -1       963 7.10521E-05 6.70659E-06 0.00000E+00
 -1       964 7.09661E-05 7.42716E-06 0.00000E+00
 -1       965 7.08802E-05 8.15419E-06-1.65436E-24
 -1       966 7.07942E-05 8.88160E-06-3.30872E-24
 -1       967 7.07083E-05 9.60325E-06 0.00000E+00
 -1       968 7.06225E-05 1.03130E-05 3.30872E-24
 -1       969 7.05368E-05 1.10049E-05 1.65436E-24
 -1       970 7.04513E-05 1.16727E-05 0.00000E+00
 -1       971 7.02868E-05 1.29662E-05-1.65436E-24
 -1       972 7.02054E-05 1.36937E-05 0.00000E+00
 -1       973 7.01238E-05 1.44853E-05 1.65436E-24
 -1       974 7.00420E-05 1.53328E-05 0.00000E+00
 -1       975 6.99602E-05 1.62279E-05-1.65436E-24
 -1       976 6.98783E-05 1.71624E-05-1.65436E-24
 -1       977 6.97964E-05 1.81282E-05-1.65436E-24
 -1       978 6.97145E-05 1.91170E-05 8.27181E-25
 -1       979 6.96325E-05 2.01205E-05-3.30872E-24
 -1       980 6.95506E-05 2.11306E-05 1.65436E-24
 -1       981 6.94687E-05 2.21390E-05 3.30872E-24
 -1       982 6.93868E-05 2.31375E-05-1.65436E-24
 -1       983 6.93051E-05 2.41178E-05-3.30872E-24
 -1       984 6.92238E-05 2.50717E-05 0.00000E+00
 -1       985 6.91428E-05 2.59911E-05 0.00000E+00
 -3
    1PSTEP                         8           4           1          
  100CL  104 4.68750E-01         409                     0    4           1
 -4  STRESS      6    1
 -5  SXX         1    4    1    1
 -5  SYY         1    4    2    2
 -5  SZZ         1    4    3    3
 -5  SXY         1    4    1    2
 -5  SYZ         1    4    2    3
 -5  SZX         1    4    3    1
 -1         1-1.66231E+06-7.54122E+05-3.41810E+05-1.05172E+06 2.00089E-10 3.01225E-09
 -1         2 2.65833E+03 2.42311E+05 8.71178E+03 7.05389E+02-1.43586E-10-4.27292E-09
 -1         3-8.82095E+01-7.11622E+05 1.66341E+02-2.59912E+02-1.37851E-10-1.36497E-08
 -1         5-5.85106E+00 2.44338E+05 6.40087E+00 1.10022E-01 3.86494E-11 4.45289E-09
 -1         8-7.84263E+05-3.32714E+05-3.40261E+04-5.65306E+05 1.45519E-10-1.38243E-09
 -1         9-1.37671E+06-3.63502E+05-1.40798E+05-4.61590E+05 3.76313E-09-2.77651E-09
 -1        10-5.77799E+02-7.41360E+05-9.84110E+02-1.75378E+03-3.44426E-09-1.48511E-08
 -1        12-3.22818E+00 2.44352E+05 2.07563E+02 9.96831E-01 8.91802E-11 3.58978E-09
 -1        15 1.97985E+03 1.08805E+03 6.39987E+03 4.14736E+00-5.16422E-11-2.95555E-09
 -1        16-3.52222E+06-1.21074E+06-5.55567E+05-1.24176E+06 1.10352E-08-2.36711E-09
 -1        17-8.49000E+05-5.15046E+05-1.64455E+05-4.75600E+05-5.32455E-09 4.48199E-10
 -1        18 5.97352E+03-2.87103E+03-1.71812E+04-5.81650E+04 7.59201E-10 2.69256E-09
 -1        19 7.65738E+04 9.12149E+04-4.39803E+02 1.49583E+04-5.56793E-10-8.96034E-10
 -1        20-3.23291E+04-3.61720E+05-7.98177E+04 2.64795E+04 3.56674E-09 6.52896E-09
 -1        21-3.36624E+01-2.09299E+05-6.67198E+02-7.22429E+01-7.55769E-09-7.75440E-09
 -1        24-3.25431E+06-1.02222E+06-4.49768E+05-1.25933E+06-1.96645E-08-8.85727E-09
 -1        25 2.28911E+04-3.28279E+04 1.01588E+04-1.05031E+05 3.67618E-10 1.04857E-08
 -1        26-1.79638E+04 6.22248E+04-1.23855E+04-8.78653E+03 1.37043E-09-2.73322E-09
 -1        27-5.79949E+04-1.98494E+05-7.44979E+04 4.47101E+04 5.87708E-09 2.48838E-09
 -1        28 1.55615E+04-5.84642E+04 1.18461E+04 1.84951E+04 5.98888E-10-6.07004E-09
 -1        32-7.84696E+05-1.81853E+05 3.18974E+05-5.24303E+05-1.65164E-08 1.21964E-08
 -1        33-1.13552E+05 5.82991E+04 2.06727E+04-3.37185E+04 1.08628E-09 3.67239E-09
 -1        34-1.47356E+05-1.47137E+04 3.43153E+02 4.52122E+04 3.41244E-09-1.73926E-09
 -1        35-1.64888E+04-2.38154E+04-1.08379E+03 3.64849E+04 8.62284E-09 1.71106E-09
 -1        51 1.40496E+04-3.66903E+05 3.63642E+04-9.31468E+05 2.03727E-10 1.42609E-09
 -1        52 8.82659E+03-3.65872E+05 2.43236E+04-1.08640E+06 5.38421E-10-2.61934E-09
 -1        53 6.64593E+03-3.78219E+05 2.10125E+04-9.28230E+05 6.25732E-10-9.60426E-09
 -1        54 1.90751E+04-3.76899E+05 3.40756E+04-1.08977E+06 1.60071E-10-1.56178E-08
 -1        55 3.79169E+04-3.89892E+05 6.10584E+04-9.27711E+05 3.92902E-10 4.83487E-09
 -1        56-3.19008E+06-3.59186E+05-2.51168E+05-1.22966E+06 1.30967E-09-7.24685E-09
 -1        57-3.28910E+06-5.88301E+05-1.69305E+05-1.22204E+06 4.69936E-09-3.84898E-09
 -1        58-3.24121E+06-4.38059E+05-5.90948E+04-1.21306E+06-5.00222E-10 1.56433E-10
 -1        59-3.22988E+06-4.95834E+05-3.52754E+04-1.24197E+06 2.62389E-10-8.05312E-09
 -1        60-3.24877E+06-4.48945E+05-1.37978E+04-1.21068E+06-1.55137E-09-8.90259E-09
 -1        61-3.22245E+06-4.81682E+05-7.83758E+03-1.24308E+06 2.11912E-09 9.79622E-09
 -1        62-3.24849E+06-4.51883E+05-3.78237E+03-1.21203E+06 9.68612E-10 8.89038E-09
 -1        63-3.22545E+06-4.75794E+05-3.07189E+03-1.23829E+06-1.12948E-09-4.32357E-09
 -1        64-3.24564E+06-4.54869E+05-3.56777E+03-1.21540E+06 4.13820E-10 4.18140E-10
 -1        65-3.23306E+06-4.70299E+05-7.04986E+03-1.23005E+06 3.77895E-10 7.72411E-09
 -1        66-3.24077E+06-4.57490E+05-1.24925E+04-1.22018E+06 1.72122E-10 1.97360E-09
 -1        67-3.24873E+06-4.73867E+05-3.16129E+04-1.21856E+06-1.75442E-09-7.43603E-09
 -1        68-3.23003E+06-4.51640E+05-5.31307E+04-1.22677E+06 1.16961E-09-5.08953E-09
 -1        69-3.30811E+06-5.50926E+05-1.51970E+05-1.19409E+06-4.37012E-10-2.18279E-10
 -1        70-3.18202E+06-3.82774E+05-2.25546E+05-1.24388E+06-2.00453E-09 7.27596E-11
 -1        86-1.33569E+03 2.39462E+05 9.30002E+03-3.52721E+02 1.15278E-09 6.89937E-09
 -1        87 8.85517E+03 2.45358E+05 1.94506E+04 1.45633E+03 1.92745E-09 2.37179E-10
 -1        88-7.51606E+03 2.36418E+05 2.97265E+04-1.10369E+03 2.87400E-09 9.46716E-09
 -1        89 5.60038E+04 2.67405E+05 8.02447E+04 3.17736E+03 4.34284E-09 9.85324E-10
 -1        90-4.83341E+04 2.17439E+05 1.13284E+05-2.07323E+03 5.01313E-09-2.62730E-10
 -1       121-1.38282E+02-7.12015E+05 1.31149E+02 1.29793E+02 3.97321E-10 5.37329E-09
 -1       122-3.28531E+01-7.11588E+05 3.59896E+02-5.19652E+02-1.40749E-09 1.46511E-08
 -1       123-1.76282E+02-7.12054E+05 5.54499E+02 3.88889E+02 1.21923E-09-1.61890E-10
 -1       124 6.33237E+02-7.11190E+05 1.50132E+03-1.16347E+03-2.73531E-09 7.78891E-09
 -1       125-6.04496E+02-7.12430E+05 2.27302E+03 7.73218E+02 1.58161E-09 6.09361E-10
 -1       191-6.35436E+00 2.44359E+05 7.58904E+00-5.57053E-02 1.36161E-10 6.65750E-10
 -1       192-6.43979E+00 2.44339E+05 1.35557E+01 6.62031E-01 2.39673E-10-8.03448E-09
 -1       193-7.91943E+00 2.44358E+05 2.51499E+01-6.11008E-01 2.12325E-10-1.71381E-08
 -1       194-8.33426E+00 2.44341E+05 5.12818E+01 1.63103E+00 1.10475E-10-2.50134E-08
 -1       195-1.09271E+01 2.44357E+05 1.00250E+02-1.03223E+00 4.22034E-10-1.56601E-08
 -1       251 1.19782E+05-4.12644E+04 9.61826E+04 3.90427E+03 3.08205E-10 2.96131E-09
 -1       252 1.64580E+05 4.77124E+04 6.84070E+04-1.37117E+04 2.76259E-10 8.34734E-09
 -1       253 1.36551E+05-6.39027E+03 2.48741E+04 2.96525E+03 9.57243E-11-2.17278E-09
 -1       254 1.44701E+05 7.37328E+03 1.58031E+04-1.22463E+04-1.02204E-09-6.02176E-09
 -1       255 1.39546E+05-9.87223E+02 6.42845E+03 2.43897E+03 2.26123E-10 2.48133E-09
 -1       256 1.41060E+05 1.17660E+03 3.93946E+03-1.14655E+04 5.82659E-10 6.51863E-09
 -1       257 1.40136E+05-1.73382E+02 2.03593E+03 2.18448E+03 2.96041E-10 1.23936E-09
 -1       258 1.40455E+05 3.83675E+02 1.83518E+03-1.12046E+04-6.80581E-10 6.55821E-09
 -1       259 1.40134E+05-1.83897E+02 2.13573E+03 2.17811E+03-1.62174E-10-9.02600E-09
 -1       260 1.41092E+05 1.26925E+03 4.22146E+03-1.14409E+04 4.85613E-10-2.05318E-09
 -1       261 1.39515E+05-1.06789E+03 6.94666E+03 2.42070E+03 1.15483E-09 8.33506E-09
 -1       262 1.44964E+05 7.98308E+03 1.70777E+04-1.21948E+04 8.68596E-10-7.28369E-09
 -1       263 1.36315E+05-6.91484E+03 2.69350E+04 2.93201E+03-1.56547E-09-7.09406E-10
 -1       264 1.66351E+05 5.16411E+04 7.39977E+04-1.36360E+04-4.21710E-09-2.73212E-09
 -1       265 1.18242E+05-4.46497E+04 1.04146E+05 3.86175E+03-2.30523E-09 1.16415E-09
 -1       266-3.58409E+04-1.67566E+04 8.41052E+04-8.87519E+01 5.45697E-11-3.22080E-09
 -1       267 4.15506E+04 1.95342E+04 5.94381E+04 1.02388E+02 1.31877E-10-1.57343E-08
 -1       268-5.57181E+03-2.76636E+03 2.20932E+04-1.30468E+01 2.09184E-11-1.48197E-08
 -1       269 6.57873E+03 3.31099E+03 1.43599E+04 1.51967E+01-2.34195E-11-5.51632E-09
 -1       270-9.87475E+02-5.44011E+02 6.93173E+03-2.06234E+00-9.32232E-11-5.22806E-09
 -1       271-3.50726E+06-4.38837E+05-2.69921E+05-1.36789E+06 1.10958E-09 6.27188E-09
 -1       272-3.58893E+06-6.50480E+05-1.73485E+05-1.38218E+06 7.42602E-10-7.03585E-09
 -1       273-3.55975E+06-5.04323E+05-6.37681E+04-1.35392E+06-1.09139E-10 5.45697E-11
 -1       274-3.52706E+06-5.70778E+05-3.56425E+04-1.40414E+06 1.95359E-09 6.62749E-09
 -1       275-3.56860E+06-5.09369E+05-1.48366E+04-1.34978E+06-7.23958E-10 4.20823E-09
 -1       276-3.51643E+06-5.65148E+05-7.85886E+03-1.41098E+06 1.01409E-09-6.21912E-09
 -1       277-3.57096E+06-5.08598E+05-3.84726E+03-1.34792E+06-2.14777E-09-1.92301E-09
 -1       278-3.51414E+06-5.65818E+05-2.78625E+03-1.41333E+06 3.82749E-09 4.55520E-09
 -1       279-3.57121E+06-5.08413E+05-2.98329E+03-1.34769E+06-6.46992E-10-1.00931E-08
 -1       280-3.51543E+06-5.65505E+05-5.46476E+03-1.41202E+06-7.97399E-10-8.28118E-09
 -1       281-3.56949E+06-5.09077E+05-1.00177E+04-1.34908E+06 3.56522E-10-1.43973E-09
 -1       282-3.52314E+06-5.68561E+05-2.38910E+04-1.40652E+06-8.58563E-10 6.55518E-09
 -1       283-3.56297E+06-5.06359E+05-4.27233E+04-1.35252E+06 4.44288E-10-5.77711E-09
 -1       284-3.56589E+06-6.20299E+05-1.16078E+05-1.38980E+06 1.38243E-10-1.12086E-08
 -1       285-3.52682E+06-4.63672E+05-1.80774E+05-1.36303E+06 1.96997E-09-4.14730E-09
 -1       301 1.44196E+04-1.74677E+04 1.10189E+05-4.48343E+04-8.76753E-10-3.19460E-09
 -1       302 1.55217E+04 1.03995E+04 7.88164E+04-6.60220E+04 1.35924E-09-1.94359E-09
 -1       303 8.64044E+02-7.44069E+03 7.14032E+04-4.49371E+04-9.27685E-10-1.41972E-09
 -1       304 2.78024E+04 2.18422E+04 1.18867E+05-6.57955E+04 1.30967E-09 7.94398E-09
 -1       305 2.74057E+04-2.86563E+04 1.98837E+05-4.49860E+04-5.60249E-10 9.52605E-09
 -1       306-3.92450E+06-4.58124E+05-2.98092E+05-1.53891E+06 1.84809E-09-1.09576E-08
 -1       307-4.08571E+06-7.01490E+05-2.03102E+05-1.47718E+06 2.34286E-09-1.04592E-08
 -1       308-3.99775E+06-5.45445E+05-7.02082E+04-1.50479E+06 1.27238E-09 8.63292E-09
 -1       309-3.99178E+06-6.09286E+05-4.23204E+04-1.52809E+06-8.56460E-10 1.52463E-08
 -1       310-4.01802E+06-5.48472E+05-1.64842E+04-1.48863E+06-1.44325E-09-1.85628E-09
 -1       311-3.96556E+06-6.08953E+05-9.49406E+03-1.55109E+06 3.50485E-09 1.51431E-10
 -1       312-4.02424E+06-5.45256E+05-4.64217E+03-1.48213E+06-1.12497E-09-1.04435E-08
 -1       313-3.96237E+06-6.08863E+05-4.16935E+03-1.55387E+06-5.42099E-09-2.97672E-09
 -1       314-4.02125E+06-5.48490E+05-5.11798E+03-1.48591E+06-3.79032E-10-2.66982E-09
 -1       315-3.97650E+06-5.97775E+05-1.05365E+04-1.53729E+06-1.09594E-09 1.32695E-08
 -1       316-4.00977E+06-5.56628E+05-1.88005E+04-1.49844E+06 1.60014E-09 1.99452E-09
 -1       317-4.01176E+06-5.93301E+05-4.80561E+04-1.50590E+06-3.00531E-10-8.29459E-10
 -1       318-3.98586E+06-5.53436E+05-7.97768E+04-1.51703E+06-5.96810E-09 4.87853E-09
 -1       319-4.11634E+06-7.01633E+05-2.31109E+05-1.45267E+06-4.32738E-09-1.04228E-08
 -1       320-3.90604E+06-4.50127E+05-3.38735E+05-1.55123E+06 1.00481E-08-7.65431E-09
 -1       336 4.96547E+02-7.70797E+05-4.20957E+03 9.78163E+02-6.86146E-09-3.56704E-09
 -1       337-1.53806E+03-7.71814E+05-4.65513E+03-2.48713E+03-1.31114E-08-3.89082E-09
 -1       338 3.34582E+02-7.70902E+05-5.98708E+03 1.50329E+03-9.23092E-09-1.89902E-08
 -1       339-6.20943E+03-7.74720E+05-1.31248E+04-3.52247E+03-1.66995E-08-1.37952E-08
 -1       340 4.18028E+03-7.67967E+05-2.02816E+04 2.00598E+03-1.15142E-08 6.86305E-09
 -1       406 1.25647E+01 2.44347E+05 4.09717E+02 1.73495E-02 4.35904E-10 4.17003E-10
 -1       407 1.39656E+02 2.44423E+05 8.70935E+02-8.06796E+00 6.14762E-11 7.97718E-09
 -1       408 4.45047E+02 2.44285E+05 1.73936E+03 8.20283E+00 6.19366E-10-1.83627E-09
 -1       409 1.87780E+03 2.44979E+05 3.91594E+03-7.87925E+01-7.27596E-11-1.02991E-08
 -1       410 5.40102E+03 2.43790E+05 7.99420E+03 7.35065E+01 5.17502E-10-9.34324E-09
 -1       521-7.36711E+06-7.74910E+05-5.67108E+05-2.72070E+06 2.10639E-09-7.47968E-09
 -1       522-7.08119E+06-1.58112E+06-3.49632E+05-3.07567E+06-2.57060E-08-9.53150E-09
 -1       523-7.58036E+06-7.77261E+05-1.31555E+05-2.48361E+06 6.01904E-09-1.45446E-08
 -1       524-6.87931E+06-1.54674E+06-7.24010E+04-3.37707E+06 3.37972E-08-3.21497E-08
 -1       525-7.60691E+06-7.76678E+05-2.94031E+04-2.44810E+06 1.46665E-08-1.63595E-08
 -1       526-6.89908E+06-1.42039E+06-4.18556E+03-3.23204E+06-1.11140E-09-7.34462E-09
 -1       527-7.53579E+06-9.20942E+05-2.66978E+04-2.61171E+06 2.51748E-08-7.81802E-09
 -1       528-7.12282E+06-1.09219E+06 2.03302E+04-2.79438E+06 2.52767E-08 8.65475E-09
 -1       529-7.34315E+06-1.13349E+06-3.22004E+04-2.85543E+06 6.08270E-09-1.63709E-11
 -1       530-7.56398E+06-7.08954E+05 2.82930E+03-2.38826E+06-2.05910E-08 1.85537E-08
 -1       531-7.11683E+06-1.28789E+06-3.49604E+04-3.03265E+06-2.43854E-08 3.32875E-10
 -1       532-7.90293E+06-5.19566E+05-7.10806E+04-2.20337E+06 2.46330E-08-3.32893E-08
 -1       533-7.04499E+06-1.29469E+06-1.24877E+05-3.07258E+06 1.53559E-08-4.94510E-08
 -1       534-7.89313E+06-8.10981E+05-3.52133E+05-2.23235E+06-8.41101E-09 4.09891E-08
 -1       535-7.11045E+06-1.01310E+06-5.54483E+05-2.98802E+06-8.62929E-09 2.74158E-08
 -1       536-1.04531E+05-1.75263E+04 4.03554E+04-6.37049E+02-5.57293E-10 9.92259E-09
 -1       537-8.55181E+04 2.02882E+04 2.88139E+04 7.70845E+00-9.39470E-09 8.83620E-09
 -1       538-9.78274E+04-2.75852E+03 1.03574E+04-2.45036E+02 7.27880E-11 5.94855E-09
 -1       539-9.34284E+04 3.18465E+03 6.75029E+03-8.23654E+02 3.35621E-09 9.28742E-09
 -1       540-9.66255E+04-4.36683E+02 2.56188E+03 1.94329E+02 7.35909E-10 6.71105E-09
 -1       541-9.50129E+04 4.94086E+02 1.64307E+03-1.63627E+03 1.77238E-10 1.37493E-09
 -1       542-9.62504E+04-6.47890E+01 5.55358E+02 5.67536E+02-3.62206E-10 2.37986E-09
 -1       543-9.56223E+04 4.45912E+01 2.80137E+02-2.25632E+03-6.31672E-10 3.55186E-10
 -1       544-9.60257E+04 1.95080E+01-1.15750E+02 8.14383E+02-1.14497E-09-1.10040E-09
 -1       545-9.60066E+04-1.91349E+02-5.26038E+02-2.58729E+03-6.42366E-10 8.40359E-10
 -1       546-9.58728E+04 1.75809E+02-1.03333E+03 8.98518E+02 8.86309E-11 9.64235E-10
 -1       547-9.65332E+04-1.27916E+03-2.62220E+03-2.58051E+03-2.73691E-09 2.07342E-09
 -1       548-9.54991E+04 1.10641E+03-4.23375E+03 8.07605E+02-3.43836E-09 4.05680E-09
 -1       549-9.94433E+04-8.15282E+03-1.14890E+04-2.23186E+03-1.95685E-09 5.53246E-09
 -1       550-9.29561E+04 7.03915E+03-1.63996E+04 5.49843E+02 1.18007E-10 9.62427E-09
 -1       551 8.69545E+03-3.98634E+05 2.08163E+04-6.75270E+05-3.03626E-08-5.26052E-09
 -1       552 1.91812E+04-4.01753E+05 2.77890E+04-9.61214E+05-2.34068E-08 7.51243E-09
 -1       553 1.30808E+04-4.06953E+05 4.31622E+04-6.72953E+05-3.74348E-08 6.86850E-09
 -1       554 4.15359E+04-3.90362E+05 9.17268E+04-9.62215E+05-2.32103E-08 9.92031E-10
 -1       555 3.97586E+04-4.24593E+05 1.64568E+05-6.73700E+05-3.85407E-08-6.28643E-09
 -1       556 6.10555E+04-1.29115E+05 4.36990E+04-1.68947E+05-8.30914E-09-1.03173E-08
 -1       557 1.13331E+05-1.72443E+05 2.29730E+04-2.11621E+05-2.32831E-10-1.73759E-09
 -1       558 6.08525E+04-1.34930E+05 9.26177E+03-1.63941E+05-2.61934E-09-4.52201E-09
 -1       559 1.06219E+05-1.78399E+05 4.71095E+03-2.14788E+05 6.03904E-09 2.51566E-09
 -1       560 5.92751E+04-1.33883E+05 1.93183E+03-1.64933E+05 3.47063E-09 6.15819E-09
 -1       561 1.03776E+05-1.77768E+05 1.03394E+03-2.16334E+05 4.51109E-10-1.67392E-09
 -1       562 5.80054E+04-1.33033E+05 3.85880E+02-1.65848E+05 4.24188E-09 4.55293E-09
 -1       563 1.02286E+05-1.77128E+05 2.49258E+02-2.17288E+05 4.06362E-09-1.05613E-08
 -1       564 5.72127E+04-1.32522E+05 8.72795E+01-1.66411E+05 9.99717E-09 6.96309E-09
 -1       565 1.01507E+05-1.76794E+05 5.89358E+01-2.17777E+05 4.86034E-09 4.43561E-09
 -1       566 5.69252E+04-1.32331E+05-1.56446E+01-1.66618E+05 8.54925E-11-4.19277E-09
 -1       567 1.01400E+05-1.76742E+05-9.97600E+01-2.17782E+05 4.62160E-09-9.61882E-09
 -1       568 5.71749E+04-1.32496E+05-3.01607E+02-1.66503E+05-8.29459E-10 2.11912E-09
 -1       569 1.01338E+05-1.76633E+05-7.05734E+02-2.16751E+05-2.16096E-09 7.21229E-09
 -1       570 5.84762E+04-1.33669E+05-1.51963E+03-1.66467E+05 1.58616E-09-7.91260E-10
 -1       571 1.77339E+05 6.45102E+03 9.55775E+03-4.50090E+04 6.14364E-10 6.43240E-10
 -1       572 1.78761E+05 2.24492E+03 4.68270E+03-4.93383E+04 6.16410E-10 6.97696E-09
 -1       573 1.77909E+05 5.36494E+02 2.08023E+03-4.48918E+04 1.82763E-09 6.54791E-09
 -1       574 1.78077E+05 1.76455E+02 1.04225E+03-4.94693E+04 5.38876E-11 2.85218E-09
 -1       575 1.77972E+05 2.64350E+01 4.91200E+02-4.48764E+04-1.00408E-09 4.41105E-09
 -1       576 1.77983E+05 9.68331E+00 2.50033E+02-4.94868E+04-7.67557E-10 6.10635E-09
 -1       577 1.77981E+05-8.45698E-01 1.23146E+02-4.48743E+04 2.72735E-10 4.60750E-09
 -1       578 1.77974E+05 1.17750E+00 6.71330E+01-4.94889E+04-4.42469E-10-1.38289E-09
 -1       579 1.77992E+05-2.86849E+00 4.09955E+01-4.48743E+04-6.17547E-10-1.62072E-09
 -1       580 1.77989E+05-4.55222E+00 3.82192E+01-4.94862E+04-1.45064E-10-8.36735E-10
 -1       581 1.78011E+05-9.89201E+00 5.16641E+01-4.48770E+04-6.86668E-10-3.73939E-09
 -1       582 1.78023E+05-2.89513E+00 9.84443E+01-4.94595E+04-2.11003E-10-1.51022E-09
 -1       583 1.78034E+05 2.02053E+01 1.88582E+02-4.49010E+04 9.14952E-10 3.80851E-10
 -1       584 1.78121E+05 1.66496E+02 4.22967E+02-4.92586E+04-1.46019E-09 1.62208E-09
 -1       585 1.78016E+05 5.38631E+02 8.58619E+02-4.50782E+04 7.27596E-12 3.73620E-09
 -1       586-2.12622E+03 5.82877E+04-2.81730E+03-1.53301E+05 3.31511E-10 7.91488E-10
 -1       587-4.43525E+02 5.79089E+04-2.95182E+02-1.68697E+05 7.25777E-10-3.35149E-10
 -1       588 6.16217E+02 5.79811E+04 2.05019E+03-1.53209E+05 3.85626E-10-1.84582E-09
 -1       589 3.03588E+03 5.91052E+04 5.94463E+03-1.68555E+05 5.67525E-10-2.12904E-08
 -1       590 8.70508E+03 5.72723E+04 1.27184E+04-1.53444E+05 3.35604E-10-2.40652E-09
 -1       591-3.89057E+04-1.10798E+04-1.28756E+04-2.01057E+04 1.08031E-09 1.85537E-09
 -1       592-4.01271E+04-1.42263E+04-6.97399E+03-2.34458E+04 5.13228E-09 1.01121E-08
 -1       593-4.02075E+04-1.01312E+04-2.90334E+03-2.10357E+04-3.36513E-10 5.85169E-09
 -1       594-3.83331E+04-1.23546E+04-1.44802E+03-2.35350E+04 6.31815E-10 3.42304E-09
 -1       595-4.03073E+04-1.01268E+04-6.65453E+02-2.10785E+04 9.69749E-10 7.42108E-09
 -1       596-3.82117E+04-1.22689E+04-3.39200E+02-2.35224E+04 2.94210E-09 2.45416E-09
 -1       597-4.03199E+04-1.01351E+04-1.86702E+02-2.10802E+04-1.48010E-09-1.49834E-09
 -1       598-3.82001E+04-1.22656E+04-1.53749E+02-2.35188E+04-1.84883E-10-6.71321E-10
 -1       599-4.03190E+04-1.01351E+04-2.00970E+02-2.10799E+04 6.34600E-10-8.11247E-09
 -1       600-3.82130E+04-1.22700E+04-3.77011E+02-2.35220E+04-1.51852E-09-2.99394E-09
 -1       601-4.03031E+04-1.01262E+04-7.45677E+02-2.10772E+04 3.62093E-10 1.53977E-09
 -1       602-3.83492E+04-1.23661E+04-1.62615E+03-2.35345E+04-4.79986E-10 1.13505E-09
 -1       603-4.01897E+04-1.01328E+04-3.26165E+03-2.10295E+04-5.77074E-10-3.18732E-09
 -1       604-4.03710E+04-1.44616E+04-7.83497E+03-2.34246E+04 3.36672E-09-2.81943E-10
 -1       605-3.87186E+04-1.12047E+04-1.44650E+04-1.99917E+04 2.20382E-09 2.55159E-09
 -1       606 2.51376E+04-8.54578E+03-1.53876E+04 2.45646E+04-3.13048E-09-2.21735E-09
 -1       607 2.25022E+04-2.75705E+03-7.66211E+03 2.75752E+04-1.00772E-09 1.98349E-09
 -1       608 2.39972E+04-4.65132E+02-3.43127E+03 2.43688E+04 1.64437E-09-1.64255E-09
 -1       609 2.36992E+04-1.20660E+02-1.73303E+03 2.77914E+04-1.83627E-09-8.75843E-10
 -1       610 2.38586E+04 2.24997E+01-8.27869E+02 2.43469E+04-3.90173E-09-1.10958E-10
 -1       611 2.38018E+04 3.42354E+01-4.17549E+02 2.78150E+04-7.20729E-09 7.01675E-09
 -1       612 2.38213E+04 3.64278E+01-1.99846E+02 2.43447E+04-2.20007E-09 9.39804E-09
 -1       613 2.37993E+04 4.20012E+01-9.10984E+01 2.78178E+04-6.87260E-09 3.44244E-10
 -1       614 2.38008E+04 3.73064E+01-2.54870E+01 2.43440E+04-1.31913E-08-4.70436E-10
 -1       615 2.37885E+04 4.70474E+01 2.83514E+01 2.78183E+04-1.60198E-08-2.03431E-09
 -1       616 2.37852E+04 4.25627E+01 9.40515E+01 2.43442E+04-1.16520E-08 5.27712E-09
 -1       617 2.37940E+04 7.07924E+01 2.18209E+02 2.78178E+04-7.10315E-10-3.60160E-10
 -1       618 2.37618E+04 1.08309E+02 4.41109E+02 2.43443E+04-4.58840E-10-6.78483E-10
 -1       619 2.39462E+04 4.14248E+02 9.91450E+02 2.78171E+04 1.53898E-09 3.13776E-11
 -1       620 2.36130E+04 1.15673E+03 1.99299E+03 2.43433E+04 1.48555E-09 3.51361E-09
 -1       621 3.03730E+02 1.92659E+05 2.64247E+03 6.63530E+03-1.99648E-10 1.75373E-09
 -1       622 3.47827E+02 1.93313E+05 2.25029E+03 9.68926E+03-8.33325E-11 9.75524E-09
 -1       623 1.41510E+01 1.92846E+05 2.59757E+03 6.60422E+03-1.77437E-10 7.50913E-09
 -1       624 1.17711E+03 1.94074E+05 4.94109E+03 9.71963E+03-2.33314E-10 4.58164E-09
 -1       625 1.18233E+03 1.91893E+05 8.59386E+03 6.60524E+03-1.50976E-10-5.37341E-10
 -1       626 1.59321E+05 4.40659E+04 3.17918E+03 8.60279E+04-1.97997E-09 5.40058E-09
 -1       627 1.57151E+05 4.56607E+04 1.53189E+03 8.94987E+04-2.61889E-09-6.61475E-09
 -1       628 1.59439E+05 4.25625E+04 6.47007E+02 8.65078E+04-2.99769E-09-1.72147E-08
 -1       629 1.56692E+05 4.52985E+04 3.17142E+02 8.97061E+04 2.90402E-09 7.37839E-09
 -1       630 1.59446E+05 4.24916E+04 1.46619E+02 8.65203E+04-9.54060E-10-6.53927E-10
 -1       631 1.56636E+05 4.52907E+04 7.88788E+01 8.97076E+04-2.11003E-10 7.35540E-09
 -1       632 1.59438E+05 4.24975E+04 5.20542E+01 8.65130E+04-2.30420E-09 9.44721E-09
 -1       633 1.56624E+05 4.52955E+04 5.81824E+01 8.97011E+04-2.85627E-09-2.53135E-09
 -1       634 1.59428E+05 4.24984E+04 9.41781E+01 8.65087E+04 4.30873E-09 1.04187E-08
 -1       635 1.56627E+05 4.52971E+04 1.90993E+02 8.97004E+04 4.70936E-09 8.40305E-09
 -1       636 1.59418E+05 4.24978E+04 3.85758E+02 8.65057E+04-3.53043E-09-3.74257E-10
 -1       637 1.56706E+05 4.53586E+04 8.47837E+02 8.96964E+04 3.09755E-09 5.86442E-09
 -1       638 1.59384E+05 4.26869E+04 1.74246E+03 8.64184E+04-2.95074E-09 8.52015E-09
 -1       639 1.57617E+05 4.66333E+04 4.12215E+03 8.94254E+04-2.48351E-08 8.54925E-10
 -1       640 1.59262E+05 4.64813E+04 8.55453E+03 8.48071E+04-9.62200E-09 1.04978E-08
 -1       656 4.31288E+04-1.09169E+06-1.04116E+05-3.66787E+02 1.12050E-09-1.64772E-09
 -1       657-5.69913E+04-1.13869E+06-8.61062E+04 7.04011E+03 2.07365E-10 2.45416E-09
 -1       658 1.36765E+04-1.10509E+06-5.28426E+04-1.36963E+03-2.25214E-10-6.78494E-09
 -1       659-6.11142E+04-1.14064E+06-9.15213E+04 7.70895E+03-9.84983E-10-4.94019E-09
 -1       660 4.72416E+04-1.08974E+06-1.13431E+05-1.03562E+03 1.28057E-09 5.12701E-09
 -1       661 1.53771E+05 1.67347E+04 1.47664E+04 6.00931E+04 3.52952E-09-1.02773E-10
 -1       662 1.61428E+05 2.83501E+04 9.95005E+03 5.75644E+04 2.65618E-09-1.42654E-09
 -1       663 1.56665E+05 2.14776E+04 3.48063E+03 5.92586E+04 9.45306E-10-3.74939E-10
 -1       664 1.58080E+05 2.27976E+04 2.08099E+03 5.85784E+04-3.97279E-10 5.08749E-10
 -1       665 1.57097E+05 2.21312E+04 8.20955E+02 5.91379E+04-3.02805E-09-4.09926E-09
 -1       666 1.57573E+05 2.20455E+04 4.78869E+02 5.87326E+04-5.01706E-09 1.85988E-10
 -1       667 1.57169E+05 2.22100E+04 2.52731E+02 5.91118E+04-5.89381E-10-2.26569E-09
 -1       668 1.57497E+05 2.19829E+04 2.53629E+02 5.87699E+04 4.03531E-09-1.19651E-08
 -1       669 1.57173E+05 2.21920E+04 3.40274E+02 5.91012E+04-6.02100E-10-2.14243E-09
 -1       670 1.57584E+05 2.21622E+04 7.37984E+02 5.87684E+04 3.47051E-09 5.03557E-09
 -1       671 1.57083E+05 2.20343E+04 1.30937E+03 5.91120E+04 2.89487E-09 5.98862E-09
 -1       672 1.58348E+05 2.34347E+04 3.34925E+03 5.85828E+04-5.80786E-09-3.49104E-09
 -1       673 1.56413E+05 2.09515E+04 5.61249E+03 5.92746E+04-8.80277E-10-1.96951E-09
 -1       674 1.63692E+05 3.24495E+04 1.60507E+04 5.70108E+04 3.65276E-09-3.37445E-09
 -1       675 1.51773E+05 1.32716E+04 2.38241E+04 6.05889E+04 8.61291E-10-3.53430E-09
 -1       676 1.73215E+01-2.09243E+05-8.04144E+02 3.61223E+01-1.00809E-09-7.14701E-09
 -1       677-2.13427E+02-2.09438E+05-1.47166E+03-7.22125E+01-4.32073E-09-6.44275E-09
 -1       678 1.42551E+02-2.09105E+05-2.60151E+03 3.60656E+01 9.67589E-10 2.53885E-09
 -1       679-2.60200E+03-2.11008E+05-6.17984E+03-7.19841E+01-1.44792E-09 2.80129E-09
 -1       680 1.55289E+03-2.07674E+05-9.95986E+03 3.54857E+01 1.04410E-09 3.56196E-09
 -1       771-2.24591E+06-3.98065E+05-5.57069E+04-9.36908E+05-1.13869E-08-1.15833E-08
 -1       772-2.23052E+06-4.28584E+05-2.98034E+04-9.71005E+05-6.89761E-09 3.30328E-09
 -1       773-2.25381E+06-3.91906E+05-1.30287E+04-9.40007E+05-3.87809E-09 6.51198E-10
 -1       774-2.22265E+06-4.22194E+05-6.29715E+03-9.74924E+05 6.95582E-09-1.56251E-09
 -1       775-2.25588E+06-3.90529E+05-3.30765E+03-9.40268E+05-2.67028E-09 9.78616E-10
 -1       776-2.22265E+06-4.22279E+05-1.49094E+03-9.77173E+05-3.64525E-09 1.65164E-09
 -1       777-2.25738E+06-3.89434E+05-1.00670E+03-9.40427E+05 1.70257E-09 1.27511E-09
 -1       778-2.22311E+06-4.22538E+05-4.19853E+02-9.79055E+05 2.37196E-09 3.74712E-09
 -1       779-2.25858E+06-3.88503E+05-4.52433E+02-9.40570E+05-2.15368E-09 8.95852E-10
 -1       780-2.22359E+06-4.22749E+05-3.01500E+02-9.80578E+05-2.80852E-09-9.73159E-11
 -1       781-2.25950E+06-3.87760E+05-5.47997E+02-9.40680E+05-9.89530E-09-1.13369E-09
 -1       782-2.22403E+06-4.22943E+05-9.26335E+02-9.81698E+05-1.15633E-08-2.84626E-09
 -1       783-2.26007E+06-3.87268E+05-1.86015E+03-9.40738E+05 3.44517E-09 4.08158E-09
 -1       784-2.22537E+06-4.24207E+05-4.37506E+03-9.82331E+05-4.83124E-09-5.85032E-10
 -1       785-2.25958E+06-3.87600E+05-8.09685E+03-9.40190E+05-1.10349E-08 1.61617E-09
 -1       786 1.63242E+05-8.75126E+03 2.02461E+04-9.18659E+00 9.49896E-07 7.60519E-09
 -1       787 1.72015E+05 1.01312E+04 1.43237E+04 1.71186E+00 1.89142E-06 8.21251E-09
 -1       788 1.66627E+05-1.37186E+03 5.24023E+03-4.65863E+00 1.99944E-06-7.48582E-09
 -1       789 1.68073E+05 1.58732E+03 3.29248E+03-6.99761E+00 2.10382E-06 4.40900E-09
 -1       790 1.67186E+05-2.14306E+02 1.33970E+03-4.77324E-01 2.33819E-06-8.87673E-09
 -1       791 1.67421E+05 2.48991E+02 7.86569E+02-1.63174E+01 2.57425E-06 1.47428E-08
 -1       792 1.67279E+05-3.45343E+01 3.58965E+02 4.66134E+00 3.15462E-06-1.13724E-08
 -1       793 1.67315E+05 4.84867E+01 2.35176E+02-2.89903E+01 3.72975E-06 7.37560E-09
 -1       794 1.67291E+05-1.39344E+01 1.74132E+02 1.21957E+01 1.86635E-06-9.47872E-09
 -1       795 1.67326E+05 7.18636E+01 2.51773E+02-4.85280E+01 6.00517E-09 9.62192E-09
 -1       796 1.67269E+05-5.78942E+01 3.77063E+02 2.41994E+01 1.36998E-10 4.82152E-09
 -1       797 1.67497E+05 4.24412E+02 8.89020E+02-8.03137E+01-8.40271E-10 5.79291E-09
 -1       798 1.67120E+05-3.66224E+02 1.40323E+03 4.39820E+01 3.24674E-11-2.15948E-10
 -1       799 1.68550E+05 2.70409E+03 3.82551E+03-1.33401E+02-1.18431E-09-5.57503E-09
 -1       800 1.66216E+05-2.33574E+03 5.40369E+03 7.72867E+01-1.12292E-10-3.16891E-09
 -1       801-4.94421E+03-1.74311E+05-5.31623E+03 1.88674E+04 1.01754E-08-9.59517E-11
 -1       802 1.77151E+04-7.41168E+04 3.86201E+04-7.27808E+04 2.71175E-08-3.86194E-09
 -1       803-1.19084E+04-1.31735E+05 5.40278E+04 2.11427E+04 2.14459E-08 2.10280E-08
 -1       804 1.12375E+05-1.96535E+04 1.63074E+05-7.30897E+04 2.52167E-08 2.11491E-08
 -1       805-9.97249E+04-2.28411E+05 2.02624E+05 1.91723E+04 8.87667E-09 2.07895E-08
 -1       806-1.93130E+05-4.12202E+04-1.63529E+04-8.02568E+04 2.15687E-09 1.84809E-09
 -1       807-1.94107E+05-3.88637E+04-8.03381E+03-8.45757E+04 2.36190E-09 3.71256E-09
 -1       808-1.93593E+05-3.53135E+04-3.40793E+03-8.30316E+04-2.57842E-09-6.23436E-09
 -1       809-1.92394E+05-3.66319E+04-1.66605E+03-8.48057E+04-5.99243E-10 2.67210E-09
 -1       810-1.93665E+05-3.51053E+04-7.62881E+02-8.31540E+04-9.70886E-11 4.31010E-09
 -1       811-1.92262E+05-3.65437E+04-3.78356E+02-8.47858E+04 6.41649E-10 5.48630E-09
 -1       812-1.93678E+05-3.51209E+04-1.88869E+02-8.31536E+04 5.29781E-10 1.24987E-09
 -1       813-1.92245E+05-3.65459E+04-1.19188E+02-8.47752E+04-1.35515E-09-4.73574E-09
 -1       814-1.93675E+05-3.51269E+04-1.11880E+02-8.31509E+04-1.46883E-10-9.89075E-10
 -1       815-1.92247E+05-3.65480E+04-1.75138E+02-8.47719E+04-8.70159E-10-1.12630E-09
 -1       816-1.93663E+05-3.51258E+04-3.28217E+02-8.31485E+04-2.06592E-09 4.09000E-09
 -1       817-1.92303E+05-3.65794E+04-7.03590E+02-8.47655E+04 1.45701E-09 1.89266E-09
 -1       818-1.93621E+05-3.52248E+04-1.43397E+03-8.31016E+04 4.23870E-09 1.94677E-09
 -1       819-1.93094E+05-3.74401E+04-3.37477E+03-8.45733E+04-1.35742E-10-7.60338E-09
 -1       820-1.93348E+05-3.77765E+04-6.86832E+03-8.20136E+04 2.38470E-09 1.13249E-08
 -1       821-2.49491E+05 1.38391E+04-3.20055E+04 8.61850E+01-4.77477E-10 1.94814E-09
 -1       822-2.63362E+05-1.60211E+04-2.26485E+04-6.06331E+02-1.65119E-09 1.42959E-08
 -1       823-2.54845E+05 2.16962E+03-8.28951E+03 5.46491E+01 1.00082E-09 2.27101E-09
 -1       824-2.57120E+05-2.51125E+03-5.21574E+03-4.62378E+02 8.42643E-10-2.09411E-10
 -1       825-2.55731E+05 3.39539E+02-2.14386E+03-5.77722E+01-2.41140E-09 2.82796E-09
 -1       826-2.56087E+05-4.00458E+02-1.29403E+03-2.00678E+02-4.56342E-09-9.20863E-12
 -1       827-2.55876E+05 6.02290E+01-6.70039E+02-2.07056E+02-3.84328E-09-5.42970E-09
 -1       828-2.55947E+05-1.22173E+02-5.92104E+02 7.83664E+01-5.62990E-09 1.99360E-09
 -1       829-2.55871E+05 6.15090E+01-6.79855E+02-3.36821E+02-5.54900E-10 8.74036E-09
 -1       830-2.56105E+05-4.10553E+02-1.32739E+03 2.69375E+02 1.35428E-09 2.42672E-09
 -1       831-2.55719E+05 3.48583E+02-2.19817E+03-3.98069E+02-1.99804E-09-3.15754E-09
 -1       832-2.57161E+05-2.57793E+03-5.35649E+03 3.00801E+02-1.56268E-09 7.37828E-10
 -1       833-2.54815E+05 2.22736E+03-8.51179E+03-3.68246E+02-2.17779E-09 9.68384E-09
 -1       834-2.63556E+05-1.64501E+04-2.32554E+04 1.63016E+02-6.41016E-10-9.31777E-10
 -1       835-2.49326E+05 1.42099E+04-3.28669E+04-2.60274E+02 4.27686E-09-6.71207E-10
 -1       836-8.31246E+02 2.36195E+05 1.42321E+04-2.06250E+04 1.57524E-09-3.25463E-09
 -1       837 3.13645E+03 2.40600E+05 1.21457E+04-4.14208E+04 2.50111E-09-1.83172E-09
 -1       838-3.03407E+02 2.37421E+05 1.25169E+04-2.05553E+04 2.09639E-09 6.31724E-09
 -1       839 8.03525E+03 2.44253E+05 2.38179E+04-4.14456E+04 2.55295E-09-9.25141E-10
 -1       840-2.41254E+03 2.32510E+05 3.80380E+04-2.05986E+04 1.93904E-09 1.04205E-09
 -1       856-7.95284E+04 6.73329E+03-1.77439E+04-3.99476E+02-3.21694E-09 1.74350E-09
 -1       857-8.68581E+04-7.89703E+03-1.22164E+04 4.05312E+03-6.40071E-10-1.69532E-08
 -1       858-8.24243E+04 9.43435E+02-4.60509E+03-4.17794E+02-1.82541E-09-5.40240E-10
 -1       859-8.35324E+04-1.09673E+03-2.78139E+03 4.08235E+03 3.34487E-09 1.33610E-09
 -1       860-8.28572E+04 1.31190E+02-1.16960E+03-4.28834E+02 1.56922E-09-3.47052E-09
 -1       861-8.30337E+04-1.44737E+02-6.51708E+02 4.09742E+03-5.60163E-09-4.65434E-09
 -1       862-8.29246E+04 1.73845E+01-2.87523E+02-4.32897E+02 4.55902E-09 1.44637E-09
 -1       863-8.29541E+04-1.05542E+01-1.42455E+02 4.09917E+03 1.05810E-08-8.35112E-10
 -1       864-8.29370E+04-5.23271E-02-4.52823E+01-4.30583E+02 2.73214E-09-5.10860E-09
 -1       865-8.29309E+04 1.98925E+01 2.51945E+01 4.08767E+03 6.28199E-09-2.24339E-09
 -1       866-8.29464E+04-1.34887E+01 9.43703E+01-4.21394E+02-8.35115E-10-3.00446E-10
 -1       867-8.28749E+04 1.13073E+02 2.60304E+02 4.06277E+03 1.28591E-09-3.02384E-09
 -1       868-8.29903E+04-9.28004E+01 4.39250E+02-4.05686E+02 3.20182E-09 4.30822E-09
 -1       869-8.25445E+04 7.68994E+02 1.17994E+03 4.02166E+03-4.04157E-10-6.02506E-09
 -1       870-8.32726E+04-6.53414E+02 1.71093E+03-3.80289E+02 2.14084E-09-3.42607E-09
 -1       871-3.66699E+03-7.76553E+03-1.18854E+04 7.76595E+04 2.69029E-09-4.16640E-09
 -1       872-1.60000E+03-1.04232E+04-4.84412E+03 1.00680E+05 4.15048E-09-9.89689E-09
 -1       873-4.40370E+01-9.18130E+03 6.94504E+02 7.74884E+04 3.24781E-09-2.52430E-09
 -1       874 1.81707E+03-7.44967E+03 6.74773E+03 1.00716E+05 3.90219E-09 4.82032E-11
 -1       875 4.32303E+03-1.07838E+04 1.49626E+04 7.76310E+04 1.69894E-09 8.19455E-10
 -1       876 1.95159E+05 3.35567E+04 1.04812E+04 7.90741E+04-3.17220E-09-1.96724E-09
 -1       877 1.95799E+05 3.58168E+04 5.59714E+03 8.21270E+04-7.44058E-09-1.70803E-09
 -1       878 1.96138E+05 3.23970E+04 2.34494E+03 7.99354E+04 2.86332E-09 7.57245E-09
 -1       879 1.94373E+05 3.43965E+04 1.16809E+03 8.22011E+04 1.24237E-09 3.40498E-09
 -1       880 1.96210E+05 3.23839E+04 5.43763E+02 7.99705E+04 1.38516E-09 6.60356E-09
 -1       881 1.94279E+05 3.43362E+04 2.89495E+02 8.21864E+04 3.01895E-09-1.62152E-09
 -1       882 1.96217E+05 3.23924E+04 1.83686E+02 7.99715E+04 3.88525E-09 8.29019E-09
 -1       883 1.94272E+05 3.43334E+04 1.95028E+02 8.21822E+04 1.15102E-09 1.14930E-08
 -1       884 1.96213E+05 3.23903E+04 3.08041E+02 7.99716E+04-1.24203E-10-3.15640E-09
 -1       885 1.94296E+05 3.43378E+04 6.17949E+02 8.21899E+04 7.26934E-09-3.48859E-09
 -1       886 1.96189E+05 3.23723E+04 1.24482E+03 7.99692E+04 9.31718E-09-3.30374E-10
 -1       887 1.94515E+05 3.44812E+04 2.71890E+03 8.22213E+04-2.35308E-09-4.95015E-09
 -1       888 1.96017E+05 3.24026E+04 5.47863E+03 7.98821E+04-1.28378E-09 2.43108E-09
 -1       889 1.97779E+05 3.78713E+04 1.30880E+04 8.21184E+04 2.36638E-09-3.26213E-09
 -1       890 1.93786E+05 3.50533E+04 2.45128E+04 7.77910E+04 2.10321E-09 7.92443E-09
 -1       891-1.19393E+02-1.12993E+05-1.42123E+03 2.07869E+04-2.24804E-09 8.37701E-09
 -1       892-2.36859E+02-1.13339E+05-1.51179E+03 3.19799E+04 2.28601E-09-1.64869E-09
 -1       893-3.32361E+01-1.13044E+05-2.11563E+03 2.07908E+04 2.15528E-09 1.76124E-09
 -1       894-1.17274E+03-1.14142E+05-4.37263E+03 3.18666E+04 5.69253E-09 3.69710E-09
 -1       895-7.86995E+02-1.12131E+05-7.65583E+03 2.08986E+04 2.06558E-09-1.07957E-09
 -1       956-2.44334E+05-3.52188E+03-8.87071E+03 1.61551E+04-3.62115E-09 1.41472E-09
 -1       957-2.46086E+05-1.18660E+03-4.55392E+03 1.94535E+04-3.29101E-09-3.13685E-09
 -1       958-2.45120E+05-9.29874E+01-2.05163E+03 1.60496E+04 1.08503E-09-8.83711E-09
 -1       959-2.45260E+05-1.44121E+01-1.04793E+03 1.95675E+04-4.97721E-10-2.10503E-09
 -1       960-2.45190E+05 3.10377E+01-5.10765E+02 1.60396E+04-3.57204E-09 3.05931E-09
 -1       961-2.45200E+05 2.95309E+01-2.70791E+02 1.95788E+04-7.10224E-09 4.46948E-09
 -1       962-2.45204E+05 2.73061E+01-1.54573E+02 1.60381E+04-4.84761E-10-4.03134E-10
 -1       963-2.45197E+05 3.05501E+01-1.23311E+02 1.95809E+04-2.57296E-09 5.55031E-09
 -1       964-2.45207E+05 2.90064E+01-1.48719E+02 1.60375E+04-1.64835E-09 1.39846E-09
 -1       965-2.45206E+05 3.32803E+01-2.56161E+02 1.95810E+04 1.02806E-09 5.19003E-09
 -1       966-2.45200E+05 3.60439E+01-4.80356E+02 1.60380E+04-3.04499E-09 2.60923E-09
 -1       967-2.45270E+05-4.33960E+00-9.84968E+02 1.95749E+04 1.75874E-10 6.50402E-10
 -1       968-2.45140E+05-7.70468E+01-1.92737E+03 1.60437E+04-4.31032E-09-7.28733E-11
 -1       969-2.46052E+05-1.10269E+03-4.27932E+03 1.95081E+04-8.88986E-09 7.19245E-09
 -1       970-2.44405E+05-3.29704E+03-8.33509E+03 1.61073E+04-4.78758E-09 6.11817E-09
 -1       971-2.32263E+05-1.22703E+03-6.83296E+03 1.12125E+04-5.20322E-09 2.07208E-10
 -1       972-2.33926E+05-8.78862E+02-3.72133E+03 1.56629E+04-1.55615E-09 5.04042E-09
 -1       973-2.33022E+05-6.49350E+00-1.66619E+03 1.11184E+04-2.80988E-09 8.51514E-10
 -1       974-2.33138E+05-6.31858E+00-8.63195E+02 1.57641E+04-6.18456E-11 2.09627E-09
 -1       975-2.33080E+05 2.48920E+01-4.30363E+02 1.11101E+04 1.55524E-09 1.09696E-09
 -1       976-2.33091E+05 2.89400E+01-2.46421E+02 1.57741E+04-1.36470E-09 6.08338E-09
 -1       977-2.33091E+05 2.43283E+01-1.75413E+02 1.11083E+04 3.35626E-09-6.05894E-09
 -1       978-2.33093E+05 3.26381E+01-2.00631E+02 1.57767E+04 1.13604E-08-7.91545E-09
 -1       979-2.33091E+05 2.95947E+01-3.18314E+02 1.11075E+04 5.34391E-09-8.73229E-10
 -1       980-2.33116E+05 3.45769E+01-6.12089E+02 1.57771E+04 5.58422E-09 7.28124E-09
 -1       981-2.33071E+05 4.49226E+01-1.18410E+03 1.11078E+04-1.75169E-09 2.44896E-09
 -1       982-2.33279E+05-5.25898E+01-2.44675E+03 1.57726E+04-1.79080E-09 1.04910E-09
 -1       983-2.32923E+05-3.04382E+01-4.75356E+03 1.11122E+04 1.82558E-09-1.36959E-09
 -1       984-2.35566E+05-2.53446E+03-1.06448E+04 1.57101E+04 3.16959E-10 2.88219E-09
 -1       985-2.30772E+05-3.50836E+03-1.95473E+04 1.11750E+04 5.64592E-09 2.25464E-09
 -3
    1PSTEP                         9           5           1          
  100CL  105 5.03906E-01         409                     0    5           1
 -4  DISP        4    1
 -5  D1          1    2    1    0
 -5  D2          1    2    2    0
 -5  D3          1    2    3    0
 -5  ALL         1    2    0    0    1ALL
 -1         1 1.52998E-04 0.00000E+00 0.00000E+00
 -1         2 1.37938E-04-1.23876E-30 0.00000E+00
 -1         3 1.35477E-04 2.52130E-28-6.61744E-24
 -1         5 9.22379E-05-4.93051E-27 0.00000E+00
 -1         8 1.28012E-04-8.82722E-07 0.00000E+00
 -1         9 1.25462E-04-6.63370E-08 0.00000E+00
 -1        10 1.25013E-04-1.83239E-06-6.61744E-24
 -1        12 9.18427E-05 5.52923E-07 0.00000E+00
 -1        15 9.82291E-05-9.77852E-07 4.13590E-25
 -1        16 1.02025E-04-2.43755E-07 0.00000E+00
 -1        17 9.17513E-05-3.88844E-06 0.00000E+00
 -1        18 8.95788E-05 2.53318E-06 0.00000E+00
 -1        19 9.06570E-05 1.10287E-06 0.00000E+00
 -1        20 9.07962E-05 1.41291E-05 0.00000E+00
 -1        21 9.02006E-05 2.62680E-05 0.00000E+00
 -1        24 2.04413E-05-5.36850E-06 0.00000E+00
 -1        25 8.86709E-05 2.66294E-06 0.00000E+00
 -1        26 8.96165E-05 1.53375E-06 0.00000E+00
 -1        27 8.80860E-05 1.16642E-05 0.00000E+00
 -1        28 8.76059E-05 2.57987E-05 0.00000E+00
 -1        32 0.00000E+00 0.00000E+00 0.00000E+00
 -1        33 8.73241E-05 2.05450E-06 0.00000E+00
 -1        34 8.58420E-05 1.16412E-05 0.00000E+00
 -1        35 8.44373E-05 2.55446E-05 0.00000E+00
 -1        51 1.51376E-04-1.45897E-07 0.00000E+00
 -1        52 1.48366E-04-2.86902E-07 0.00000E+00
 -1        53 1.44241E-04-4.29289E-07 0.00000E+00
 -1        54 1.39285E-04-5.74626E-07 0.00000E+00
 -1        55 1.33780E-04-7.23719E-07 4.34270E-24
 -1        56 1.51635E-04-8.02422E-07 0.00000E+00
 -1        57 1.50395E-04-2.08815E-06 0.00000E+00
 -1        58 1.49284E-04-3.71240E-06-5.29396E-23
 -1        59 1.48240E-04-5.54271E-06 0.00000E+00
 -1        60 1.47216E-04-7.42447E-06 0.00000E+00
 -1        61 1.46151E-04-9.20493E-06 0.00000E+00
 -1        62 1.44994E-04-1.07379E-05 5.29396E-23
 -1        63 1.43693E-04-1.18865E-05-2.64698E-23
 -1        64 1.42207E-04-1.25414E-05 0.00000E+00
 -1        65 1.40501E-04-1.26106E-05 0.00000E+00
 -1        66 1.38556E-04-1.20443E-05 0.00000E+00
 -1        67 1.36364E-04-1.08147E-05-2.64698E-23
 -1        68 1.33929E-04-8.94250E-06 0.00000E+00
 -1        69 1.31275E-04-6.46785E-06 0.00000E+00
 -1        70 1.28424E-04-3.48034E-06 0.00000E+00
 -1        86 1.37590E-04-3.57349E-09-8.27181E-25
 -1        87 1.36548E-04-8.14610E-09 0.00000E+00
 -1        88 1.34813E-04-1.37219E-08-1.65436E-24
 -1        89 1.32385E-04-2.40489E-08-1.65436E-24
 -1        90 1.29267E-04-3.50746E-08-6.61744E-24
 -1       121 1.35184E-04-3.03388E-07 0.00000E+00
 -1       122 1.34308E-04-6.07110E-07-3.30872E-24
 -1       123 1.32849E-04-9.11497E-07 6.61744E-24
 -1       124 1.30810E-04-1.21692E-06 3.30872E-24
 -1       125 1.28197E-04-1.52362E-06 0.00000E+00
 -1       191 9.22269E-05 9.21598E-08 3.30872E-24
 -1       192 9.21940E-05 1.84318E-07 0.00000E+00
 -1       193 9.21391E-05 2.76476E-07-3.30872E-24
 -1       194 9.20622E-05 3.68631E-07-1.65436E-24
 -1       195 9.19634E-05 4.60780E-07 0.00000E+00
 -1       251 1.27840E-04 3.39892E-06-6.61744E-24
 -1       252 1.27679E-04 6.31813E-06 3.30872E-24
 -1       253 1.27521E-04 7.94419E-06-6.61744E-24
 -1       254 1.27366E-04 8.35443E-06 3.30872E-24
 -1       255 1.27210E-04 7.72214E-06 0.00000E+00
 -1       256 1.27054E-04 6.22721E-06 0.00000E+00
 -1       257 1.26897E-04 4.11750E-06-6.61744E-24
 -1       258 1.26739E-04 1.64477E-06-3.30872E-24
 -1       259 1.26581E-04-9.10687E-07 6.61744E-24
 -1       260 1.26423E-04-3.26798E-06 0.00000E+00
 -1       261 1.26266E-04-5.16182E-06 6.61744E-24
 -1       262 1.26110E-04-6.32995E-06 0.00000E+00
 -1       263 1.25954E-04-6.56723E-06 0.00000E+00
 -1       264 1.25796E-04-5.67442E-06 0.00000E+00
 -1       265 1.25637E-04-3.54153E-06 0.00000E+00
 -1       266 1.23048E-04-9.10647E-07 0.00000E+00
 -1       267 1.18085E-04-9.25031E-07 0.00000E+00
 -1       268 1.13121E-04-9.40272E-07 0.00000E+00
 -1       269 1.08157E-04-9.52973E-07-4.13590E-25
 -1       270 1.03193E-04-9.65615E-07-4.13590E-25
 -1       271 1.25015E-04 2.93474E-06 0.00000E+00
 -1       272 1.22419E-04 5.55549E-06 1.32349E-23
 -1       273 1.20232E-04 7.09908E-06 0.00000E+00
 -1       274 1.18398E-04 7.68396E-06-2.64698E-23
 -1       275 1.16871E-04 7.45209E-06-5.29396E-23
 -1       276 1.15590E-04 6.55744E-06 2.64698E-23
 -1       277 1.14495E-04 5.16710E-06-5.29396E-23
 -1       278 1.13520E-04 3.45669E-06-2.64698E-23
 -1       279 1.12596E-04 1.60795E-06-5.29396E-23
 -1       280 1.11655E-04-1.94874E-07 2.64698E-23
 -1       281 1.10628E-04-1.76855E-06 5.29396E-23
 -1       282 1.09450E-04-2.93378E-06 0.00000E+00
 -1       283 1.08055E-04-3.51925E-06 5.29396E-23
 -1       284 1.06386E-04-3.36232E-06 2.64698E-23
 -1       285 1.04383E-04-2.31798E-06-2.64698E-23
 -1       301 1.21243E-04-1.06685E-07 6.61744E-24
 -1       302 1.17068E-04-1.28317E-07-3.30872E-24
 -1       303 1.12997E-04-1.48775E-07 0.00000E+00
 -1       304 1.09092E-04-1.69844E-07 3.30872E-24
 -1       305 1.05415E-04-1.92365E-07 0.00000E+00
 -1       306 1.22472E-04 2.24133E-06 0.00000E+00
 -1       307 1.20295E-04 2.20848E-06 0.00000E+00
 -1       308 1.18945E-04-1.91598E-08 5.29396E-23
 -1       309 1.18309E-04-4.19895E-06 2.64698E-23
 -1       310 1.18174E-04-9.73214E-06-5.29396E-23
 -1       311 1.18289E-04-1.59464E-05 0.00000E+00
 -1       312 1.18361E-04-2.20464E-05 5.29396E-23
 -1       313 1.18100E-04-2.72444E-05 0.00000E+00
 -1       314 1.17271E-04-3.09132E-05-5.29396E-23
 -1       315 1.15671E-04-3.25136E-05 0.00000E+00
 -1       316 1.13232E-04-3.18765E-05 0.00000E+00
 -1       317 1.09935E-04-2.89598E-05 0.00000E+00
 -1       318 1.05909E-04-2.41279E-05 5.29396E-23
 -1       319 1.01345E-04-1.78481E-05 0.00000E+00
 -1       320 9.65033E-05-1.08550E-05-2.64698E-23
 -1       336 1.21191E-04-2.16729E-06-6.61744E-24
 -1       337 1.16664E-04-2.50546E-06-6.61744E-24
 -1       338 1.11442E-04-2.84678E-06 6.61744E-24
 -1       339 1.05538E-04-3.19122E-06 0.00000E+00
 -1       340 9.89691E-05-3.53969E-06 0.00000E+00
 -1       406 9.16999E-05 6.45052E-07-3.30872E-24
 -1       407 9.15352E-05 7.37147E-07 0.00000E+00
 -1       408 9.13485E-05 8.29183E-07-3.30872E-24
 -1       409 9.11398E-05 9.21046E-07 0.00000E+00
 -1       410 9.09093E-05 1.01256E-06 0.00000E+00
 -1       521 1.03558E-04-1.34768E-05 5.29396E-23
 -1       522 1.15253E-04-5.63716E-05 5.29396E-23
 -1       523 1.34181E-04-1.21812E-04-1.05879E-22
 -1       524 1.57127E-04-2.00704E-04-5.29396E-23
 -1       525 1.80476E-04-2.80959E-04 0.00000E+00
 -1       526 2.00595E-04-3.50367E-04 0.00000E+00
 -1       527 2.14202E-04-3.99144E-04-1.05879E-22
 -1       528 2.18113E-04-4.19340E-04 0.00000E+00
 -1       529 2.10768E-04-4.09200E-04 0.00000E+00
 -1       530 1.91482E-04-3.69497E-04 0.00000E+00
 -1       531 1.62410E-04-3.07128E-04 0.00000E+00
 -1       532 1.26929E-04-2.30674E-04-5.29396E-23
 -1       533 9.02064E-05-1.51535E-04 0.00000E+00
 -1       534 5.76069E-05-8.12857E-05 5.29396E-23
 -1       535 3.32933E-05-2.97603E-05 5.29396E-23
 -1       536 9.16018E-05 4.53790E-06 0.00000E+00
 -1       537 9.14416E-05 1.47271E-05 1.65436E-24
 -1       538 9.12752E-05 2.55163E-05 0.00000E+00
 -1       539 9.11154E-05 3.57401E-05 1.65436E-24
 -1       540 9.09699E-05 4.43588E-05 0.00000E+00
 -1       541 9.08431E-05 5.03406E-05-1.65436E-24
 -1       542 9.07292E-05 5.32424E-05 3.30872E-24
 -1       543 9.06192E-05 5.26362E-05 0.00000E+00
 -1       544 9.05028E-05 4.88762E-05 0.00000E+00
 -1       545 9.03727E-05 4.23318E-05 0.00000E+00
 -1       546 9.02301E-05 3.39943E-05 3.30872E-24
 -1       547 9.00811E-05 2.48634E-05 1.65436E-24
 -1       548 8.99353E-05 1.61165E-05 0.00000E+00
 -1       549 8.98026E-05 8.92927E-06-8.27181E-25
 -1       550 8.96829E-05 4.12955E-06 0.00000E+00
 -1       551 8.23419E-05-4.10659E-06 0.00000E+00
 -1       552 7.11229E-05-4.33849E-06 1.65436E-24
 -1       553 5.87043E-05-4.58324E-06-3.30872E-24
 -1       554 4.57057E-05-4.83710E-06 0.00000E+00
 -1       555 3.27463E-05-5.09322E-06 1.32349E-23
 -1       556 8.92345E-05 2.62881E-06 0.00000E+00
 -1       557 8.72892E-05 7.67601E-06 0.00000E+00
 -1       558 8.58540E-05 1.13845E-05 0.00000E+00
 -1       559 8.48732E-05 1.38965E-05 0.00000E+00
 -1       560 8.42909E-05 1.53535E-05 0.00000E+00
 -1       561 8.40522E-05 1.58985E-05-6.61744E-24
 -1       562 8.41025E-05 1.56741E-05 0.00000E+00
 -1       563 8.43875E-05 1.48234E-05 0.00000E+00
 -1       564 8.48533E-05 1.34897E-05 6.61744E-24
 -1       565 8.54461E-05 1.18161E-05 0.00000E+00
 -1       566 8.61123E-05 9.94609E-06 0.00000E+00
 -1       567 8.67983E-05 8.02301E-06-1.03398E-25
 -1       568 8.74506E-05 6.19022E-06 0.00000E+00
 -1       569 8.80157E-05 4.59096E-06 0.00000E+00
 -1       570 8.84399E-05 3.36847E-06 0.00000E+00
 -1       571 8.96442E-05 2.47585E-06-4.13590E-25
 -1       572 8.97111E-05 2.37439E-06-2.06795E-25
 -1       573 8.97784E-05 2.23696E-06 1.65436E-24
 -1       574 8.98459E-05 2.07211E-06-8.27181E-25
 -1       575 8.99134E-05 1.88845E-06 0.00000E+00
 -1       576 8.99810E-05 1.69464E-06-8.27181E-25
 -1       577 9.00487E-05 1.49935E-06 3.30872E-24
 -1       578 9.01163E-05 1.31123E-06 0.00000E+00
 -1       579 9.01839E-05 1.13896E-06 0.00000E+00
 -1       580 9.02516E-05 9.91211E-07 0.00000E+00
 -1       581 9.03192E-05 8.76653E-07-3.30872E-24
 -1       582 9.03868E-05 8.03944E-07 0.00000E+00
 -1       583 9.04545E-05 7.81736E-07 0.00000E+00
 -1       584 9.05221E-05 8.18594E-07 0.00000E+00
 -1       585 9.05896E-05 9.23025E-07 0.00000E+00
 -1       586 8.93972E-05 2.55614E-06 8.27181E-25
 -1       587 8.91885E-05 2.57856E-06-4.13590E-25
 -1       588 8.89821E-05 2.60074E-06 0.00000E+00
 -1       589 8.88074E-05 2.62257E-06 0.00000E+00
 -1       590 8.86942E-05 2.64378E-06 0.00000E+00
 -1       591 8.95679E-05 2.51304E-06-1.03398E-25
 -1       592 8.95672E-05 2.45886E-06 0.00000E+00
 -1       593 8.95766E-05 2.37725E-06 0.00000E+00
 -1       594 8.95937E-05 2.27415E-06 0.00000E+00
 -1       595 8.96166E-05 2.15556E-06 8.27181E-25
 -1       596 8.96429E-05 2.02745E-06-2.06795E-25
 -1       597 8.96706E-05 1.89577E-06 4.13590E-25
 -1       598 8.96974E-05 1.76648E-06 0.00000E+00
 -1       599 8.97211E-05 1.64554E-06 0.00000E+00
 -1       600 8.97394E-05 1.53889E-06 2.06795E-25
 -1       601 8.97502E-05 1.45250E-06-4.13590E-25
 -1       602 8.97512E-05 1.39231E-06 2.06795E-25
 -1       603 8.97402E-05 1.36429E-06-3.10193E-25
 -1       604 8.97152E-05 1.37446E-06 0.00000E+00
 -1       605 8.96738E-05 1.42872E-06 0.00000E+00
 -1       606 9.06692E-05 1.43624E-06 0.00000E+00
 -1       607 9.06789E-05 1.86195E-06 0.00000E+00
 -1       608 9.06880E-05 2.37456E-06 0.00000E+00
 -1       609 9.06968E-05 2.96798E-06-1.65436E-24
 -1       610 9.07054E-05 3.63606E-06 0.00000E+00
 -1       611 9.07140E-05 4.37258E-06 0.00000E+00
 -1       612 9.07224E-05 5.17128E-06 0.00000E+00
 -1       613 9.07308E-05 6.02596E-06 0.00000E+00
 -1       614 9.07392E-05 6.93035E-06 0.00000E+00
 -1       615 9.07475E-05 7.87822E-06 0.00000E+00
 -1       616 9.07558E-05 8.86334E-06 0.00000E+00
 -1       617 9.07641E-05 9.87946E-06-4.13590E-25
 -1       618 9.07723E-05 1.09203E-05 0.00000E+00
 -1       619 9.07804E-05 1.19797E-05 0.00000E+00
 -1       620 9.07885E-05 1.30514E-05 0.00000E+00
 -1       621 9.04218E-05 1.17476E-06 0.00000E+00
 -1       622 9.02208E-05 1.24697E-06 8.27181E-25
 -1       623 9.00471E-05 1.31917E-06 0.00000E+00
 -1       624 8.98932E-05 1.39125E-06 8.27181E-25
 -1       625 8.97521E-05 1.46321E-06-1.65436E-24
 -1       626 9.06097E-05 1.45942E-06-3.30872E-24
 -1       627 9.05346E-05 1.89192E-06 0.00000E+00
 -1       628 9.04337E-05 2.39316E-06 3.30872E-24
 -1       629 9.03100E-05 2.95549E-06 3.30872E-24
 -1       630 9.01663E-05 3.57125E-06-3.30872E-24
 -1       631 9.00054E-05 4.23273E-06 0.00000E+00
 -1       632 8.98302E-05 4.93219E-06 0.00000E+00
 -1       633 8.96436E-05 5.66194E-06-1.65436E-24
 -1       634 8.94486E-05 6.41426E-06-3.30872E-24
 -1       635 8.92480E-05 7.18142E-06 1.65436E-24
 -1       636 8.90447E-05 7.95573E-06 1.65436E-24
 -1       637 8.88415E-05 8.72947E-06 0.00000E+00
 -1       638 8.86414E-05 9.49492E-06 1.65436E-24
 -1       639 8.84472E-05 1.02444E-05 8.27181E-25
 -1       640 8.82615E-05 1.09701E-05 0.00000E+00
 -1       656 8.99209E-05 1.37280E-05-6.61744E-24
 -1       657 8.93984E-05 1.33110E-05 0.00000E+00
 -1       658 8.90964E-05 1.28952E-05 0.00000E+00
 -1       659 8.88790E-05 1.24798E-05 3.30872E-24
 -1       660 8.85929E-05 1.20630E-05 0.00000E+00
 -1       661 9.04726E-05 1.51817E-05 0.00000E+00
 -1       662 9.01716E-05 1.61822E-05 8.27181E-25
 -1       663 8.98895E-05 1.71321E-05-1.65436E-24
 -1       664 8.96260E-05 1.80339E-05-8.27181E-25
 -1       665 8.93798E-05 1.88896E-05 0.00000E+00
 -1       666 8.91502E-05 1.97015E-05-8.27181E-25
 -1       667 8.89364E-05 2.04714E-05 1.65436E-24
 -1       668 8.87376E-05 2.12014E-05 8.27181E-25
 -1       669 8.85532E-05 2.18931E-05 0.00000E+00
 -1       670 8.83824E-05 2.25485E-05 8.27181E-25
 -1       671 8.82247E-05 2.31689E-05-1.65436E-24
 -1       672 8.80793E-05 2.37561E-05 0.00000E+00
 -1       673 8.79459E-05 2.43116E-05 0.00000E+00
 -1       674 8.78231E-05 2.48364E-05 8.27181E-25
 -1       675 8.77114E-05 2.53322E-05 4.13590E-25
 -1       676 8.97670E-05 2.61893E-05 0.00000E+00
 -1       677 8.93336E-05 2.61107E-05 0.00000E+00
 -1       678 8.89006E-05 2.60321E-05 0.00000E+00
 -1       679 8.84682E-05 2.59537E-05 0.00000E+00
 -1       680 8.80365E-05 2.58754E-05 0.00000E+00
 -1       771 1.56521E-05 4.24728E-06 0.00000E+00
 -1       772 1.15198E-05 1.21276E-05-2.64698E-23
 -1       773 8.01600E-06 1.83660E-05 5.29396E-23
 -1       774 5.09902E-06 2.30635E-05 0.00000E+00
 -1       775 2.72781E-06 2.63236E-05 0.00000E+00
 -1       776 8.59516E-07 2.82543E-05 0.00000E+00
 -1       777-5.49213E-07 2.89660E-05 5.29396E-23
 -1       778-1.54269E-06 2.85724E-05 0.00000E+00
 -1       779-2.16554E-06 2.71897E-05 0.00000E+00
 -1       780-2.46321E-06 2.49364E-05 1.32349E-23
 -1       781-2.48128E-06 2.19331E-05 0.00000E+00
 -1       782-2.26595E-06 1.83025E-05 0.00000E+00
 -1       783-1.86353E-06 1.41682E-05 0.00000E+00
 -1       784-1.32068E-06 9.65549E-06-1.32349E-23
 -1       785-6.84152E-07 4.89045E-06 0.00000E+00
 -1       786 8.87264E-05 2.49111E-06 4.13590E-25
 -1       787 8.87854E-05 2.33392E-06 4.13590E-25
 -1       788 8.88441E-05 2.18911E-06 0.00000E+00
 -1       789 8.89034E-05 2.05448E-06 8.27181E-25
 -1       790 8.89628E-05 1.92920E-06 0.00000E+00
 -1       791 8.90223E-05 1.81249E-06-8.27181E-25
 -1       792 8.90818E-05 1.70473E-06 1.65436E-24
 -1       793 8.91414E-05 1.60632E-06 0.00000E+00
 -1       794 8.92009E-05 1.51896E-06-1.65436E-24
 -1       795 8.92605E-05 1.44437E-06-8.27181E-25
 -1       796 8.93200E-05 1.38601E-06 0.00000E+00
 -1       797 8.93795E-05 1.34741E-06 0.00000E+00
 -1       798 8.94391E-05 1.33480E-06 1.65436E-24
 -1       799 8.94984E-05 1.35448E-06 0.00000E+00
 -1       800 8.95578E-05 1.41718E-06-1.65436E-24
 -1       801 8.26668E-05 2.35356E-06-6.61744E-24
 -1       802 6.43788E-05 1.88932E-06 3.30872E-24
 -1       803 4.04855E-05 1.31855E-06 0.00000E+00
 -1       804 1.77428E-05 7.66230E-07 6.61744E-24
 -1       805 2.24616E-06 3.40981E-07 2.64698E-23
 -1       806 8.86576E-05 2.44579E-06 1.65436E-24
 -1       807 8.86389E-05 2.23472E-06-8.27181E-25
 -1       808 8.86156E-05 2.03421E-06 1.65436E-24
 -1       809 8.85866E-05 1.84798E-06-1.65436E-24
 -1       810 8.85508E-05 1.67974E-06 3.30872E-24
 -1       811 8.85069E-05 1.53314E-06-8.27181E-25
 -1       812 8.84534E-05 1.41182E-06 3.30872E-24
 -1       813 8.83891E-05 1.31939E-06 8.27181E-25
 -1       814 8.83126E-05 1.25949E-06-1.65436E-24
 -1       815 8.82225E-05 1.23574E-06 0.00000E+00
 -1       816 8.81175E-05 1.25175E-06 1.65436E-24
 -1       817 8.79963E-05 1.31114E-06 0.00000E+00
 -1       818 8.78575E-05 1.41752E-06 1.65436E-24
 -1       819 8.76999E-05 1.57449E-06 8.27181E-25
 -1       820 8.75221E-05 1.78565E-06 1.65436E-24
 -1       821 8.95263E-05 1.65859E-06-8.27181E-25
 -1       822 8.94307E-05 1.74705E-06 8.27181E-25
 -1       823 8.93355E-05 1.85157E-06 3.30872E-24
 -1       824 8.92392E-05 2.02452E-06 0.00000E+00
 -1       825 8.91428E-05 2.30462E-06 0.00000E+00
 -1       826 8.90462E-05 2.73015E-06 0.00000E+00
 -1       827 8.89494E-05 3.31041E-06 0.00000E+00
 -1       828 8.88526E-05 4.05406E-06-1.65436E-24
 -1       829 8.87556E-05 4.93720E-06 0.00000E+00
 -1       830 8.86586E-05 5.93534E-06-1.65436E-24
 -1       831 8.85615E-05 7.00112E-06 3.30872E-24
 -1       832 8.84646E-05 8.08686E-06-1.65436E-24
 -1       833 8.83678E-05 9.14088E-06 3.30872E-24
 -1       834 8.82721E-05 1.01117E-05 8.27181E-25
 -1       835 8.81762E-05 1.09643E-05 8.27181E-25
 -1       836 8.93819E-05 1.62044E-06 1.65436E-24
 -1       837 8.90357E-05 1.70906E-06-8.27181E-25
 -1       838 8.86172E-05 1.79751E-06 1.65436E-24
 -1       839 8.81661E-05 1.88540E-06 0.00000E+00
 -1       840 8.77219E-05 1.97314E-06 0.00000E+00
 -1       856 8.80595E-05 1.23440E-05 2.06795E-25
 -1       857 8.80299E-05 1.31294E-05 0.00000E+00
 -1       858 8.80003E-05 1.40036E-05 0.00000E+00
 -1       859 8.79701E-05 1.49499E-05 0.00000E+00
 -1       860 8.79399E-05 1.59517E-05 0.00000E+00
 -1       861 8.79095E-05 1.69919E-05 4.13590E-25
 -1       862 8.78791E-05 1.80538E-05 0.00000E+00
 -1       863 8.78486E-05 1.91204E-05 0.00000E+00
 -1       864 8.78182E-05 2.01748E-05 0.00000E+00
 -1       865 8.77878E-05 2.12000E-05-4.13590E-25
 -1       866 8.77574E-05 2.21792E-05 0.00000E+00
 -1       867 8.77270E-05 2.30956E-05-4.13590E-25
 -1       868 8.76968E-05 2.39323E-05 0.00000E+00
 -1       869 8.76665E-05 2.46728E-05 4.13590E-25
 -1       870 8.76363E-05 2.53004E-05 0.00000E+00
 -1       871 8.76053E-05 1.16632E-05-4.13590E-25
 -1       872 8.72261E-05 1.16602E-05 0.00000E+00
 -1       873 8.69045E-05 1.16567E-05 4.13590E-25
 -1       874 8.65962E-05 1.16527E-05 1.55096E-25
 -1       875 8.62567E-05 1.16483E-05-8.27181E-25
 -1       876 8.79236E-05 1.23522E-05 0.00000E+00
 -1       877 8.77443E-05 1.30906E-05 0.00000E+00
 -1       878 8.75485E-05 1.38736E-05 0.00000E+00
 -1       879 8.73383E-05 1.46954E-05 1.65436E-24
 -1       880 8.71157E-05 1.55504E-05-3.30872E-24
 -1       881 8.68828E-05 1.64330E-05 1.65436E-24
 -1       882 8.66416E-05 1.73377E-05 0.00000E+00
 -1       883 8.63942E-05 1.82587E-05 1.65436E-24
 -1       884 8.61427E-05 1.91906E-05-3.30872E-24
 -1       885 8.58893E-05 2.01277E-05 1.65436E-24
 -1       886 8.56360E-05 2.10644E-05 0.00000E+00
 -1       887 8.53848E-05 2.19952E-05 1.65436E-24
 -1       888 8.51378E-05 2.29144E-05 1.65436E-24
 -1       889 8.48968E-05 2.38163E-05 8.27181E-25
 -1       890 8.46640E-05 2.46954E-05 8.27181E-25
 -1       891 8.71952E-05 2.57562E-05 8.27181E-25
 -1       892 8.67660E-05 2.57136E-05 0.00000E+00
 -1       893 8.62970E-05 2.56709E-05-8.27181E-25
 -1       894 8.57667E-05 2.56284E-05-4.13590E-25
 -1       895 8.51538E-05 2.55859E-05-2.06795E-25
 -1       956 8.72332E-05 2.44131E-06 1.65436E-24
 -1       957 8.71408E-05 2.88710E-06 8.27181E-25
 -1       958 8.70481E-05 3.38564E-06-1.65436E-24
 -1       959 8.69553E-05 3.93031E-06 8.27181E-25
 -1       960 8.68623E-05 4.51449E-06 3.30872E-24
 -1       961 8.67693E-05 5.13152E-06 8.27181E-25
 -1       962 8.66763E-05 5.77472E-06 0.00000E+00
 -1       963 8.65833E-05 6.43743E-06 0.00000E+00
 -1       964 8.64903E-05 7.11299E-06-3.30872E-24
 -1       965 8.63973E-05 7.79470E-06 0.00000E+00
 -1       966 8.63043E-05 8.47590E-06-3.30872E-24
 -1       967 8.62113E-05 9.14992E-06 0.00000E+00
 -1       968 8.61184E-05 9.81008E-06-3.30872E-24
 -1       969 8.60256E-05 1.04497E-05 0.00000E+00
 -1       970 8.59331E-05 1.10622E-05 3.30872E-24
 -1       971 8.57553E-05 1.22380E-05-1.65436E-24
 -1       972 8.56675E-05 1.29118E-05-1.65436E-24
 -1       973 8.55795E-05 1.36541E-05 3.30872E-24
 -1       974 8.54913E-05 1.44562E-05-8.27181E-25
 -1       975 8.54030E-05 1.53094E-05 3.30872E-24
 -1       976 8.53147E-05 1.62047E-05 8.27181E-25
 -1       977 8.52263E-05 1.71335E-05 0.00000E+00
 -1       978 8.51380E-05 1.80870E-05 0.00000E+00
 -1       979 8.50496E-05 1.90562E-05 3.30872E-24
 -1       980 8.49612E-05 2.00325E-05 0.00000E+00
 -1       981 8.48728E-05 2.10070E-05 0.00000E+00
 -1       982 8.47846E-05 2.19708E-05 1.65436E-24
 -1       983 8.46964E-05 2.29153E-05 0.00000E+00
 -1       984 8.46087E-05 2.38316E-05 0.00000E+00
 -1       985 8.45213E-05 2.47109E-05 0.00000E+00
 -3
    1PSTEP                        10           5           1          
  100CL  105 5.03906E-01         409                     0    5           1
 -4  STRESS      6    1
 -5  SXX         1    4    1    1
 -5  SYY         1    4    2    2
 -5  SZZ         1    4    3    3
 -5  SXY         1    4    1    2
 -5  SYZ         1    4    2    3
 -5  SZX         1    4    3    1
 -1         1-1.94899E+06-8.55090E+05-4.06925E+05-1.14604E+06 3.27418E-10 1.44064E-09
 -1         2 2.64708E+03-6.51183E+03 8.65551E+03-2.39362E+01-1.12976E-10-6.44678E-09
 -1         3-1.47473E+02-8.66289E+05 2.04845E+02-4.01604E+02-1.22077E-10 2.27374E-09
 -1         5-4.11846E+00 2.63699E+05 6.88001E+00 1.16206E-01 7.03878E-11 3.13626E-08
 -1         8-9.26667E+05-3.63490E+05-6.67376E+04-5.64437E+05 1.12777E-10 1.81899E-10
 -1         9-1.77023E+06-5.22843E+05-2.03603E+05-5.56405E+05 4.01633E-09 2.91038E-09
 -1        10-7.37195E+02-9.02492E+05-1.21962E+03-2.71552E+03-4.48290E-09-3.54186E-09
 -1        12-1.29796E+00 2.63713E+05 2.22941E+02 9.70189E-01 2.15795E-10 7.03949E-10
 -1        15 1.99991E+03 1.09907E+03 6.46471E+03 4.29294E+00-5.79803E-11 2.34460E-08
 -1        16-3.21323E+06-1.25162E+06-5.15981E+05-1.30615E+06 1.14330E-08 3.33724E-09
 -1        17-1.06761E+06-6.25660E+05-2.08884E+05-5.61879E+05-5.38421E-09 1.53377E-09
 -1        18-4.48646E+04-1.55601E+04-3.12715E+04-6.54879E+04 2.31307E-09 2.61889E-09
 -1        19 8.30164E+04 9.82094E+04-5.26079E+02 1.61812E+04-4.88399E-10 4.98694E-09
 -1        20-3.68425E+04-3.92169E+05-8.66639E+04 2.77468E+04 2.91038E-09 2.08699E-09
 -1        21-3.61269E+01-2.24996E+05-7.15366E+02-6.69159E+01-6.50734E-09-7.32859E-10
 -1        24-3.22549E+06-9.05669E+05-4.08906E+05-1.18628E+06-3.02073E-08-1.49788E-08
 -1        25-8.06333E+03-1.78542E+05-2.33438E+04-1.14246E+05 3.58705E-10 8.32461E-09
 -1        26-2.15966E+04 6.63589E+04-1.38147E+04-8.43031E+03 1.52868E-09 7.17712E-09
 -1        27-6.19013E+04-2.14883E+05-8.05227E+04 4.84167E+04 5.09764E-09-1.76775E-09
 -1        28 1.67080E+04-6.30565E+04 1.27486E+04 1.95500E+04 3.31606E-09 7.52167E-09
 -1        32-9.19826E+05-5.49819E+05 2.63035E+05-5.58622E+05-2.01617E-08 9.22049E-09
 -1        33-1.23521E+05 6.28118E+04 2.23135E+04-3.51708E+04 8.16821E-10-1.41366E-09
 -1        34-1.59328E+05-1.60001E+04 3.81040E+02 4.92182E+04 3.16384E-09 9.21076E-09
 -1        35-1.77109E+04-2.56818E+04-1.17069E+03 3.92216E+04 6.67422E-09-6.72177E-09
 -1        51 1.72829E+04-3.62516E+05 4.33947E+04-9.52232E+05 0.00000E+00 9.73523E-09
 -1        52 1.00473E+04-3.60455E+05 2.80265E+04-1.11058E+06 3.34694E-10 8.80391E-09
 -1        53 7.02396E+03-3.73924E+05 2.28997E+04-9.48901E+05 4.43833E-10 3.01225E-09
 -1        54 1.97842E+04-3.72592E+05 3.55823E+04-1.11404E+06 1.96451E-10-6.23186E-09
 -1        55 3.90456E+04-3.86012E+05 6.28092E+04-9.48360E+05 7.13044E-10 6.22822E-09
 -1        56-3.73277E+06-4.18892E+05-2.99230E+05-1.44036E+06-1.26602E-09 3.09956E-09
 -1        57-3.85642E+06-6.86474E+05-2.01752E+05-1.42490E+06 7.63976E-10 4.34375E-09
 -1        58-3.79342E+06-5.13212E+05-7.03864E+04-1.42089E+06 2.69210E-10 3.17959E-09
 -1        59-3.78624E+06-5.75765E+05-4.20180E+04-1.44806E+06-1.99861E-10 2.93767E-10
 -1        60-3.80224E+06-5.26391E+05-1.64246E+04-1.41829E+06 1.10822E-09-4.08363E-10
 -1        61-3.77767E+06-5.58607E+05-9.31901E+03-1.44905E+06-7.67614E-10-2.46246E-10
 -1        62-3.80181E+06-5.29979E+05-4.47224E+03-1.41999E+06 9.95215E-10-2.86178E-09
 -1        63-3.78129E+06-5.51577E+05-3.59987E+03-1.44338E+06 1.47838E-09-2.18033E-08
 -1        64-3.79849E+06-5.33445E+05-4.11112E+03-1.42389E+06-1.44564E-09-2.11844E-09
 -1        65-3.78997E+06-5.45394E+05-8.11710E+03-1.43413E+06-7.18819E-09 7.88259E-09
 -1        66-3.79306E+06-5.36260E+05-1.43097E+04-1.42916E+06-6.47901E-10 6.83303E-09
 -1        67-3.80735E+06-5.50172E+05-3.62946E+04-1.42178E+06-2.12717E-09-3.85626E-10
 -1        68-3.78123E+06-5.29028E+05-6.09131E+04-1.43615E+06 2.65572E-10-4.40195E-09
 -1        69-3.87414E+06-6.40030E+05-1.74412E+05-1.39530E+06 1.48066E-09-5.12955E-10
 -1        70-3.72705E+06-4.49084E+05-2.58747E+05-1.45479E+06-2.41562E-09-4.38013E-09
 -1        86-1.33043E+03-9.38836E+03 9.23281E+03 1.19468E+01 1.15460E-09-1.12229E-08
 -1        87 8.80632E+03-3.53664E+03 1.93125E+04-3.66464E+01 1.92017E-09 1.38883E-09
 -1        88-7.47001E+03-1.23626E+04 2.95311E+04 2.46515E+01 2.81580E-09-7.92056E-10
 -1        89 5.56428E+04 1.81843E+04 7.96667E+04 3.53640E+01 4.25280E-09-1.15972E-09
 -1        90-4.80066E+04-3.10904E+04 1.12561E+05-5.95618E+01 4.54020E-09-2.16471E-09
 -1       121-2.22070E+02-8.66893E+05 1.35106E+02 2.00466E+02 4.87766E-10-1.19198E-08
 -1       122-7.85095E+01-8.66251E+05 4.39777E+02-8.02677E+02-1.82592E-09 3.47791E-09
 -1       123-2.66826E+02-8.66942E+05 6.49467E+02 6.00209E+02 1.47287E-09 1.28239E-08
 -1       124 7.36872E+02-8.65777E+05 1.82566E+03-1.76012E+03-3.45744E-09-2.15550E-09
 -1       125-7.85227E+02-8.67402E+05 2.73600E+03 1.15685E+03 2.19097E-09-9.00582E-09
 -1       191-4.55240E+00 2.63721E+05 8.26692E+00-5.85345E-02 1.20661E-10 9.80390E-09
 -1       192-4.75025E+00 2.63699E+05 1.45649E+01 5.90693E-01 1.65978E-10-8.84688E-09
 -1       193-6.23234E+00 2.63721E+05 2.71287E+01-5.35193E-01 1.81357E-10-1.59030E-08
 -1       194-6.78347E+00 2.63701E+05 5.50853E+01 1.42996E+00 7.82592E-11-2.68440E-08
 -1       195-9.46087E+00 2.63719E+05 1.07791E+02-9.03314E-01 3.62711E-10-1.42486E-08
 -1       251-4.53032E+05-1.95865E+04 4.54597E+04-1.27522E+03-4.00178E-11-8.95670E-09
 -1       252-4.30731E+05 2.26324E+04 3.25377E+04-4.90332E+03-1.18007E-10-7.28460E-09
 -1       253-4.45237E+05-3.05857E+03 1.16839E+04 1.11216E+03-8.85962E-10-1.16856E-08
 -1       254-4.40184E+05 3.50710E+03 7.63123E+03-9.25779E+03 6.36646E-10-2.47599E-09
 -1       255-4.43646E+05-4.83851E+02 3.01209E+03 3.07908E+03 1.34776E-10 3.95983E-09
 -1       256-4.42335E+05 5.82111E+02 1.97657E+03-1.23878E+04 1.52028E-10 8.65455E-09
 -1       257-4.43156E+05-9.26017E+01 1.05686E+03 4.24219E+03 6.22094E-10 1.65338E-09
 -1       258-4.42883E+05 2.52161E+02 1.09866E+03-1.37069E+04 1.09708E-11 2.72387E-11
 -1       259-4.43134E+05-1.28677E+02 1.41923E+03 4.39826E+03-7.77746E-10-7.44723E-09
 -1       260-4.42321E+05 9.14566E+02 2.96391E+03-1.29875E+04-2.18705E-11-5.35294E-10
 -1       261-4.43698E+05-7.67882E+02 4.87301E+03 3.52267E+03 9.58380E-10-7.61861E-09
 -1       262-4.39318E+05 5.68179E+03 1.21637E+04-1.03565E+04-7.15403E-10-1.36838E-08
 -1       263-4.46071E+05-4.92719E+03 1.90367E+04 1.76726E+03-2.16278E-09 8.14089E-09
 -1       264-4.24269E+05 3.66509E+04 5.25126E+04-6.34045E+03-2.69759E-09-3.39151E-09
 -1       265-4.58662E+05-3.16796E+04 7.38345E+04-4.93413E+02-1.62777E-09 1.45083E-08
 -1       266-3.62039E+04-1.69263E+04 8.49575E+04-9.18677E+01-1.81899E-11-6.15464E-09
 -1       267 4.19715E+04 1.97321E+04 6.00402E+04 1.05982E+02-3.63798E-12-3.58538E-09
 -1       268-5.62825E+03-2.79438E+03 2.23170E+04-1.35048E+01 2.09184E-11-3.73560E-09
 -1       269 6.64537E+03 3.34453E+03 1.45054E+04 1.57302E+01 5.09317E-11-2.48311E-09
 -1       270-9.97478E+02-5.49523E+02 7.00196E+03-2.13473E+00 1.50067E-11 1.28397E-08
 -1       271-3.47702E+06-4.35056E+05-2.65960E+05-1.35543E+06-5.45697E-11-2.37196E-09
 -1       272-3.56276E+06-6.38514E+05-1.70969E+05-1.36366E+06 4.38604E-10-1.27766E-08
 -1       273-3.52860E+06-4.99769E+05-6.28338E+04-1.34181E+06 1.21645E-09 2.75395E-09
 -1       274-3.50179E+06-5.59863E+05-3.51256E+04-1.38506E+06 1.01863E-09 1.27238E-09
 -1       275-3.53732E+06-5.04763E+05-1.46283E+04-1.33772E+06-5.69344E-10-5.34510E-09
 -1       276-3.49111E+06-5.54475E+05-7.74174E+03-1.39193E+06-1.52249E-09-1.65119E-08
 -1       277-3.53979E+06-5.03862E+05-3.79819E+03-1.33573E+06-3.11502E-10-7.20274E-09
 -1       278-3.48847E+06-5.55544E+05-2.74047E+03-1.39474E+06 1.30422E-09 4.16252E-09
 -1       279-3.54031E+06-5.03386E+05-2.92528E+03-1.33520E+06-9.87484E-10-5.34305E-09
 -1       280-3.48920E+06-5.55864E+05-5.36412E+03-1.39429E+06 1.31536E-10-1.27238E-09
 -1       281-3.53901E+06-5.03622E+05-9.79390E+03-1.33613E+06 1.31513E-09-4.36830E-09
 -1       282-3.49608E+06-5.59662E+05-2.34248E+04-1.38996E+06-7.66022E-10-1.44109E-09
 -1       283-3.53309E+06-5.00455E+05-4.18104E+04-1.33900E+06 1.55842E-09-5.38421E-09
 -1       284-3.53715E+06-6.11317E+05-1.13753E+05-1.37479E+06-1.35194E-09-5.76983E-09
 -1       285-3.49820E+06-4.58065E+05-1.77034E+05-1.34872E+06 2.08820E-09-5.55156E-09
 -1       301 1.76962E+04-3.51549E+04 1.32234E+05-7.37226E+04-8.58563E-10 3.99359E-09
 -1       302 1.88200E+04-1.70940E+03 9.08649E+04-1.08506E+05 1.50362E-09-6.20730E-10
 -1       303 1.03393E+03-2.25383E+04 7.65281E+04-7.38449E+04-8.94943E-10 6.62112E-09
 -1       304 2.79751E+04 7.10399E+03 1.21030E+05-1.08120E+05 7.56700E-10 7.82984E-09
 -1       305 2.73008E+04-4.33397E+04 1.98977E+05-7.40999E+04-5.96629E-10 6.73026E-09
 -1       306-4.73070E+06-5.45003E+05-3.56693E+05-1.84314E+06 2.51748E-09-6.98492E-09
 -1       307-4.89326E+06-8.62335E+05-2.42408E+05-1.79930E+06-1.11322E-09 3.72529E-09
 -1       308-4.82552E+06-6.41133E+05-8.40212E+04-1.79278E+06 1.19144E-10-6.73026E-10
 -1       309-4.77418E+06-7.61018E+05-5.05388E+04-1.87165E+06 3.11996E-09 7.11952E-09
 -1       310-4.84992E+06-6.43601E+05-1.95661E+04-1.77204E+06-8.38781E-10-1.85264E-09
 -1       311-4.74969E+06-7.54002E+05-1.13529E+04-1.89175E+06 6.28734E-09 4.40969E-09
 -1       312-4.85039E+06-6.47460E+05-5.62373E+03-1.77314E+06 2.49474E-09 1.15475E-08
 -1       313-4.76400E+06-7.33366E+05-4.62296E+03-1.87020E+06-1.19940E-09 1.04174E-08
 -1       314-4.83486E+06-6.64705E+05-6.58702E+03-1.79306E+06 2.77259E-09-1.29444E-08
 -1       315-4.80516E+06-6.94706E+05-1.21081E+04-1.82066E+06 1.83422E-09-2.37105E-09
 -1       316-4.80844E+06-6.86734E+05-2.29527E+04-1.82207E+06-5.15274E-09-2.95040E-09
 -1       317-4.86726E+06-6.71962E+05-5.76122E+04-1.76441E+06 3.69492E-09-8.50105E-09
 -1       318-4.77338E+06-6.87498E+05-9.58671E+04-1.84956E+06-8.92851E-09 1.56688E-08
 -1       319-4.99447E+06-8.03303E+05-2.78282E+05-1.70271E+06-5.49699E-09-1.16270E-08
 -1       320-4.68308E+06-5.57080E+05-4.07407E+05-1.88383E+06 1.05574E-08-2.51748E-09
 -1       336 5.42609E+02-9.38459E+05-5.20308E+03 1.55335E+03-8.98945E-09-4.66025E-09
 -1       337-1.91430E+03-9.39574E+05-5.76371E+03-3.88232E+03-1.66031E-08-1.78989E-09
 -1       338 3.66500E+02-9.38580E+05-7.50045E+03 2.31795E+03-1.17309E-08 5.83714E-09
 -1       339-7.77398E+03-9.43270E+05-1.64265E+04-5.38487E+03-2.07492E-08 1.50903E-08
 -1       340 5.19365E+03-9.34909E+05-2.54301E+04 3.04393E+03-1.40708E-08 2.07801E-08
 -1       406 1.57716E+01 2.63709E+05 4.40184E+02-7.94651E-02 4.05151E-10-1.86537E-09
 -1       407 1.52157E+02 2.63790E+05 9.35450E+02-6.31965E+00 9.09495E-12-4.04634E-09
 -1       408 4.80258E+02 2.63642E+05 1.86833E+03 6.53568E+00 5.07612E-10-7.19365E-09
 -1       409 2.01887E+03 2.64387E+05 4.20605E+03-6.35487E+01-6.29825E-11-1.34098E-08
 -1       410 5.80289E+03 2.63111E+05 8.58652E+03 5.95558E+01 4.92037E-10-3.28828E-09
 -1       521-7.80675E+06-7.58580E+05-6.72471E+05-2.62920E+06-3.09228E-09 7.71252E-09
 -1       522-6.37749E+06-1.92451E+06-2.84352E+05-3.59810E+06-5.50499E-08-3.10501E-08
 -1       523-7.96710E+06-5.12385E+05-1.44114E+05-2.10670E+06-7.38873E-09-3.37677E-08
 -1       524-6.39522E+06-2.03069E+06-5.63104E+04-4.27687E+06 7.92352E-08-6.56582E-08
 -1       525-7.97658E+06-5.10933E+05-3.49589E+04-2.07163E+06 5.73782E-08-2.34813E-08
 -1       526-6.25410E+06-1.76296E+06 5.71646E+04-3.75868E+06 5.78548E-08-4.79304E-10
 -1       527-7.94925E+06-8.95369E+05-1.11366E+05-2.52525E+06 3.68309E-08-1.26674E-08
 -1       528-6.54736E+06-1.01152E+06 1.33840E+05-2.59423E+06-1.76369E-08-1.52068E-08
 -1       529-7.50229E+06-1.39000E+06-1.24530E+05-3.09169E+06 2.13913E-09-9.31323E-09
 -1       530-7.79090E+06-1.15240E+05 7.39188E+04-1.80545E+06-4.58422E-08 5.52227E-08
 -1       531-6.85522E+06-1.68252E+06-4.80424E+04-3.40888E+06-5.54792E-08 8.28004E-09
 -1       532-8.72662E+06 3.07785E+05-5.31017E+04-1.61062E+06 6.10412E-08-6.26160E-08
 -1       533-6.74658E+06-1.68909E+06-1.27348E+05-3.44359E+06 2.67028E-08-1.04035E-07
 -1       534-8.23325E+06-1.66818E+05-2.88837E+05-1.68195E+06-4.06872E-08 8.27422E-08
 -1       535-7.22909E+06-1.29477E+06-6.40588E+05-3.22807E+06-1.00117E-08 6.02158E-08
 -1       536-3.20295E+05-1.37528E+04 3.09476E+04-6.40072E+03-1.49819E-09 2.47201E-09
 -1       537-3.03929E+05 1.58997E+04 2.24187E+04 1.29438E+04-2.06450E-08 7.12816E-10
 -1       538-3.13604E+05-2.06013E+03 8.08729E+03-7.28531E+03 2.02495E-09 1.55715E-08
 -1       539-3.08167E+05 2.54445E+03 5.68660E+03 1.15249E+04 2.18899E-08 1.86690E-08
 -1       540-3.16009E+05-4.45908E+02 1.36497E+03-4.98103E+03 1.95382E-09 1.28500E-08
 -1       541-3.03107E+05 6.73099E+02 2.96365E+03 4.72972E+03-2.58981E-09 5.83192E-09
 -1       542-3.18509E+05-3.18218E+02-8.28839E+02-4.89118E+02 2.29642E-09 2.18284E-09
 -1       543-3.02896E+05 2.89008E+02 1.88412E+03-4.37248E+03-1.42725E-09-1.61585E-09
 -1       544-3.16213E+05-7.32481E+01-1.20696E+03 4.11974E+03 3.01839E-10-4.86219E-09
 -1       545-3.09031E+05-3.86438E+02-5.81450E+02-1.15766E+04-2.33285E-09-1.15399E-08
 -1       546-3.12526E+05 4.81494E+02-2.36337E+03 6.71525E+03 3.57636E-09-1.56297E-08
 -1       547-3.12874E+05-2.84660E+03-5.64890E+03-1.36211E+04-1.59984E-08-4.37376E-09
 -1       548-3.12438E+05 2.44393E+03-9.54190E+03 6.16508E+03-1.44452E-08-7.94216E-09
 -1       549-3.14890E+05-1.75435E+04-2.42480E+04-9.56446E+03-7.96537E-09-7.50333E-11
 -1       550-3.10388E+05 1.50636E+04-3.71659E+04 2.65736E+03 6.08452E-10-1.60799E-09
 -1       551 1.22567E+04-4.85789E+05 2.25443E+04-8.12996E+05-3.78204E-08-5.18048E-09
 -1       552 2.77080E+04-4.92501E+05 2.97457E+04-1.15756E+06-2.94021E-08 1.19799E-08
 -1       553 1.94222E+04-4.98211E+05 4.49521E+04-8.10062E+05-4.73010E-08 1.70185E-08
 -1       554 5.21447E+04-4.84278E+05 9.49211E+04-1.15881E+06-3.02389E-08 1.67706E-08
 -1       555 4.70458E+04-5.16558E+05 1.69559E+05-8.10878E+05-4.63988E-08 6.94854E-10
 -1       556 8.22809E+04-1.55724E+05 5.28821E+04-1.99947E+05-1.14087E-08-4.18368E-09
 -1       557 1.45687E+05-2.07626E+05 2.78879E+04-2.51176E+05-1.02664E-08 1.02646E-08
 -1       558 8.14450E+04-1.62435E+05 1.11083E+04-1.94215E+05-1.07830E-08 2.59024E-09
 -1       559 1.36260E+05-2.14612E+05 5.69260E+03-2.55551E+05-1.44792E-09-5.69617E-09
 -1       560 7.90346E+04-1.60856E+05 2.25724E+03-1.95780E+05 1.22964E-09 9.82800E-09
 -1       561 1.32680E+05-2.13583E+05 1.23979E+03-2.57829E+05 1.30967E-10 1.17143E-09
 -1       562 7.71101E+04-1.59587E+05 4.25105E+02-1.97164E+05 2.04454E-09 2.04000E-09
 -1       563 1.30421E+05-2.12608E+05 3.02584E+02-2.59274E+05 2.48838E-09-1.74509E-11
 -1       564 7.58826E+04-1.58802E+05 9.84262E+01-1.98035E+05 4.67480E-09 7.88987E-09
 -1       565 1.29192E+05-2.12078E+05 8.89020E+01-2.60049E+05 5.75892E-09 4.97721E-09
 -1       566 7.53888E+04-1.58480E+05 8.12964E+00-1.98387E+05-4.82032E-10-9.71522E-09
 -1       567 1.28951E+05-2.11963E+05-6.32323E+01-2.60130E+05 9.99546E-09-3.75621E-09
 -1       568 7.56641E+04-1.58662E+05-2.62344E+02-1.98263E+05-8.25821E-10 3.42152E-09
 -1       569 1.29018E+05-2.11825E+05-6.19680E+02-2.58883E+05-3.87263E-09 1.48138E-08
 -1       570 7.72751E+04-1.60031E+05-1.41596E+03-1.98171E+05 4.45652E-09 2.06182E-09
 -1       571 1.92852E+05 7.09206E+03 1.04923E+04-4.97302E+04 5.08862E-10 4.30600E-09
 -1       572 1.94411E+05 2.47622E+03 5.14070E+03-5.45199E+04 1.92404E-09 2.28260E-09
 -1       573 1.93476E+05 5.99940E+02 2.28374E+03-4.96044E+04 2.29738E-09 7.59792E-09
 -1       574 1.93659E+05 2.06122E+02 1.14429E+03-5.46613E+04 6.52108E-10 1.35469E-09
 -1       575 1.93545E+05 4.02770E+01 5.39375E+02-4.95879E+04 3.36968E-10 3.55658E-09
 -1       576 1.93556E+05 2.29545E+01 2.74715E+02-5.46802E+04-1.76897E-10-2.61934E-10
 -1       577 1.93556E+05 9.84885E+00 1.35546E+02-4.95857E+04 3.47882E-11 4.63160E-09
 -1       578 1.93548E+05 1.27365E+01 7.44050E+01-5.46825E+04-1.38948E-09-3.31602E-09
 -1       579 1.93570E+05 6.36186E+00 4.62689E+01-4.95856E+04 9.00263E-09-3.98859E-09
 -1       580 1.93567E+05 4.87071E+00 4.46245E+01-5.46796E+04 1.99461E-08 9.64974E-10
 -1       581 1.93594E+05-3.04587E+00 6.17962E+01-4.95886E+04 1.00017E-08 4.18413E-09
 -1       582 1.93610E+05 6.09296E+00 1.19045E+02-5.46497E+04-1.83718E-10-8.34780E-09
 -1       583 1.93623E+05 3.27579E+01 2.28585E+02-4.96155E+04 1.39062E-09 8.21728E-10
 -1       584 1.93731E+05 2.11009E+02 5.13188E+02-5.44245E+04 5.54792E-11 1.38994E-09
 -1       585 1.93602E+05 6.61584E+02 1.04183E+03-4.98141E+04-5.58430E-10 4.89854E-09
 -1       586-2.23291E+03 6.39384E+04-2.89004E+03-1.70886E+05 1.89630E-10 3.52770E-09
 -1       587-4.65274E+02 6.35590E+04-1.93353E+02-1.88060E+05 4.56566E-10 4.04623E-09
 -1       588 6.77447E+02 6.36161E+04 2.37060E+03-1.70789E+05 2.49202E-10 6.56382E-09
 -1       589 3.38586E+03 6.49007E+04 6.72600E+03-1.87891E+05-1.05501E-10-1.90039E-09
 -1       590 9.76487E+03 6.28382E+04 1.43368E+04-1.71059E+05-1.66438E-10-5.00495E-09
 -1       591-4.21367E+04-1.17485E+04-1.38741E+04-2.14530E+04-2.96893E-10 2.94585E-09
 -1       592-4.35518E+04-1.50401E+04-7.51485E+03-2.49398E+04 2.51703E-10-8.66407E-10
 -1       593-4.35380E+04-1.07278E+04-3.12848E+03-2.24567E+04 7.64544E-10-1.97065E-09
 -1       594-4.16204E+04-1.30216E+04-1.56031E+03-2.50339E+04-2.15340E-09 5.26006E-09
 -1       595-4.36454E+04-1.07231E+04-7.17019E+02-2.25028E+04-1.10504E-09 3.65503E-10
 -1       596-4.14895E+04-1.29291E+04-3.65443E+02-2.50201E+04 9.90610E-10 2.07569E-09
 -1       597-4.36590E+04-1.07321E+04-2.01046E+02-2.25046E+04 5.09473E-10 1.67802E-10
 -1       598-4.14770E+04-1.29256E+04-1.65380E+02-2.50163E+04 2.02127E-09 6.63226E-09
 -1       599-4.36580E+04-1.07322E+04-2.15958E+02-2.25042E+04-2.78442E-09-4.53088E-09
 -1       600-4.14908E+04-1.29303E+04-4.04946E+02-2.50196E+04-5.45697E-10-1.65310E-08
 -1       601-4.36409E+04-1.07226E+04-8.00851E+02-2.25014E+04-2.30375E-09-4.81111E-09
 -1       602-4.16370E+04-1.30336E+04-1.74640E+03-2.50330E+04-3.45563E-09 9.50308E-09
 -1       603-4.35192E+04-1.07296E+04-3.50284E+03-2.24501E+04-3.30238E-09 5.04019E-09
 -1       604-4.38070E+04-1.52853E+04-8.41431E+03-2.49165E+04-5.46925E-09-1.39062E-09
 -1       605-4.19403E+04-1.18798E+04-1.55346E+04-2.13344E+04-3.59000E-09 4.00541E-09
 -1       606 2.64904E+04-9.28822E+03-1.67171E+04 2.58156E+04-4.25825E-09-1.74168E-09
 -1       607 2.36278E+04-2.99970E+03-8.32413E+03 2.89806E+04-4.14911E-09-1.03191E-08
 -1       608 2.52509E+04-5.09236E+02-3.72778E+03 2.56105E+04 6.11180E-10 2.32603E-10
 -1       609 2.49277E+04-1.35284E+02-1.88276E+03 2.92077E+04-1.57161E-09 1.34942E-08
 -1       610 2.50999E+04 2.08065E+01-8.99405E+02 2.55875E+04-1.11668E-08 1.29244E-08
 -1       611 2.50387E+04 3.32546E+01-4.53571E+02 2.92325E+04-2.30830E-08-5.27598E-09
 -1       612 2.50590E+04 3.61704E+01-2.17014E+02 2.55853E+04-1.31649E-08 6.08338E-09
 -1       613 2.50356E+04 4.19016E+01-9.87206E+01 2.92355E+04-7.55063E-09 4.41287E-09
 -1       614 2.50364E+04 3.72951E+01-2.72061E+01 2.55845E+04-2.34559E-09 5.51950E-09
 -1       615 2.50236E+04 4.75448E+01 3.18205E+01 2.92359E+04 4.90718E-09 6.48652E-09
 -1       616 2.50192E+04 4.31506E+01 1.04179E+02 2.55848E+04-1.97679E-09-1.59798E-09
 -1       617 2.50297E+04 7.38031E+01 2.41270E+02 2.92354E+04 1.15710E-09-6.34304E-09
 -1       618 2.49934E+04 1.15818E+02 4.87540E+02 2.55849E+04-7.30779E-10-2.50725E-09
 -1       619 2.51979E+04 4.53366E+02 1.09570E+03 2.92347E+04 5.63205E-10-1.81899E-11
 -1       620 2.48289E+04 1.27445E+03 2.20252E+03 2.55838E+04 1.84218E-09 5.11909E-09
 -1       621 3.06743E+02 2.06834E+05 2.70286E+03 8.72276E+03-2.63981E-10-7.79028E-09
 -1       622 3.55318E+02 2.07502E+05 2.34360E+03 1.27237E+04-1.35515E-10 8.56062E-11
 -1       623 1.53542E+01 2.07018E+05 2.75965E+03 8.68173E+03-1.90553E-10 1.75146E-09
 -1       624 1.26609E+03 2.08335E+05 5.29665E+03 1.27643E+04-2.81460E-10 3.67572E-09
 -1       625 1.27230E+03 2.05992E+05 9.23449E+03 8.68231E+03-4.04725E-11 5.55173E-09
 -1       626 1.73378E+05 4.74172E+04 3.51657E+03 9.28621E+04-2.10821E-09 3.87445E-09
 -1       627 1.71090E+05 4.90703E+04 1.69455E+03 9.65749E+04-5.42059E-09-4.30657E-09
 -1       628 1.73502E+05 4.57612E+04 7.15721E+02 9.34007E+04-3.79623E-09 5.49335E-09
 -1       629 1.70589E+05 4.86621E+04 3.50772E+02 9.67957E+04 3.06136E-09 8.55027E-09
 -1       630 1.73509E+05 4.56834E+04 1.62125E+02 9.34152E+04-6.03904E-10-6.20912E-09
 -1       631 1.70528E+05 4.86527E+04 8.71127E+01 9.67966E+04-1.98725E-09-6.97668E-10
 -1       632 1.73500E+05 4.56899E+04 5.72032E+01 9.34073E+04-4.58385E-09-1.35128E-08
 -1       633 1.70515E+05 4.86579E+04 6.35522E+01 9.67895E+04-1.95132E-09-8.52174E-09
 -1       634 1.73490E+05 4.56909E+04 1.02499E+02 9.34028E+04 1.40476E-08 1.22968E-08
 -1       635 1.70519E+05 4.86595E+04 2.07602E+02 9.67888E+04 5.88579E-09 2.33649E-09
 -1       636 1.73479E+05 4.56901E+04 4.19175E+02 9.33997E+04-1.19257E-09-8.69909E-09
 -1       637 1.70605E+05 4.87262E+04 9.21232E+02 9.67847E+04-4.08832E-10-4.43742E-09
 -1       638 1.73443E+05 4.58954E+04 1.89321E+03 9.33052E+04 4.88569E-09-1.44005E-08
 -1       639 1.71596E+05 5.01107E+04 4.47877E+03 9.64904E+04 2.20219E-08 7.37964E-09
 -1       640 1.73311E+05 5.00183E+04 9.29451E+03 9.15554E+04 6.68479E-09-7.87486E-09
 -1       656 4.66552E+04-1.18200E+06-1.12626E+05-3.84589E+02 3.49246E-10 4.75251E-09
 -1       657-6.16586E+04-1.23284E+06-9.31599E+04 7.35860E+03 6.52108E-10-5.90612E-09
 -1       658 1.48030E+04-1.19649E+06-5.71910E+04-1.54820E+03 5.67979E-10 2.11538E-09
 -1       659-6.61741E+04-1.23498E+06-9.90908E+04 8.14900E+03-2.21098E-09-7.64873E-09
 -1       660 5.11599E+04-1.17987E+06-1.22827E+05-1.17498E+03-1.25874E-09 3.30886E-10
 -1       661 1.61729E+05 1.75713E+04 1.56178E+04 6.32166E+04 1.28603E-09-2.01999E-09
 -1       662 1.69880E+05 2.98047E+04 1.05239E+04 6.04831E+04 7.38396E-11-3.06136E-09
 -1       663 1.64790E+05 2.25864E+04 3.68133E+03 6.23325E+04-1.54694E-09 4.10273E-09
 -1       664 1.66336E+05 2.39345E+04 2.20107E+03 6.15583E+04 8.13429E-11 1.64334E-09
 -1       665 1.65249E+05 2.32766E+04 8.68330E+02 6.22036E+04-4.09949E-09-4.83536E-09
 -1       666 1.65798E+05 2.31411E+04 5.06647E+02 6.17237E+04-2.36815E-09-9.44397E-09
 -1       667 1.65326E+05 2.33590E+04 2.67536E+02 6.21749E+04 1.39849E-09-1.24384E-09
 -1       668 1.65715E+05 2.30767E+04 2.68855E+02 6.17651E+04 6.71660E-09-3.10640E-09
 -1       669 1.65331E+05 2.33391E+04 3.60980E+02 6.21629E+04 1.96719E-09-6.52764E-09
 -1       670 1.65806E+05 2.32684E+04 7.83188E+02 6.17649E+04 7.52635E-09-1.33746E-08
 -1       671 1.65236E+05 2.31711E+04 1.38965E+03 6.21736E+04 2.32607E-10-8.13247E-09
 -1       672 1.66616E+05 2.46200E+04 3.55467E+03 6.15691E+04-3.12665E-09 3.67021E-09
 -1       673 1.64525E+05 2.20214E+04 5.95673E+03 6.23457E+04-1.06195E-09-5.19890E-09
 -1       674 1.72287E+05 3.41885E+04 1.70351E+04 5.99018E+04-8.22183E-10-7.66704E-09
 -1       675 1.59601E+05 1.38701E+04 2.52854E+04 6.37400E+04 1.81626E-09 8.36735E-10
 -1       676 1.85688E+01-2.24936E+05-8.62201E+02 3.34587E+01-2.33510E-09-4.28115E-09
 -1       677-2.28877E+02-2.25144E+05-1.57792E+03-6.68834E+01-4.79386E-09-1.08443E-08
 -1       678 1.52846E+02-2.24788E+05-2.78935E+03 3.34020E+01-1.55956E-09-9.90703E-10
 -1       679-2.78997E+03-2.26828E+05-6.62612E+03-6.66584E+01-3.40515E-09 7.48746E-09
 -1       680 1.66508E+03-2.23253E+05-1.06791E+04 3.28568E+01 7.09406E-11-2.49475E-09
 -1       771-2.40608E+06-4.43677E+05-6.31965E+04-1.02261E+06-8.57835E-09-1.21508E-08
 -1       772-2.38412E+06-4.81078E+05-3.36387E+04-1.06466E+06-5.38421E-09-3.15231E-09
 -1       773-2.41571E+06-4.36127E+05-1.50210E+04-1.02617E+06-1.14960E-09 7.27596E-11
 -1       774-2.37571E+06-4.74084E+05-7.17482E+03-1.07014E+06 1.04847E-08-1.94996E-09
 -1       775-2.41870E+06-4.34074E+05-3.98490E+03-1.02669E+06-1.64437E-09 1.26238E-09
 -1       776-2.37623E+06-4.74133E+05-1.73773E+03-1.07350E+06-5.28598E-09 2.29193E-09
 -1       777-2.42097E+06-4.32398E+05-1.30767E+03-1.02708E+06 2.53931E-09 1.64800E-09
 -1       778-2.37724E+06-4.74350E+05-4.95650E+02-1.07633E+06 3.29965E-09 4.24279E-09
 -1       779-2.42283E+06-4.30973E+05-5.90051E+02-1.02743E+06-4.72210E-09-3.20324E-09
 -1       780-2.37818E+06-4.74514E+05-2.92706E+02-1.07861E+06-3.81988E-09 5.52063E-10
 -1       781-2.42426E+06-4.29841E+05-5.39589E+02-1.02770E+06-1.09430E-08-1.24601E-09
 -1       782-2.37897E+06-4.74654E+05-7.56678E+02-1.08029E+06-1.31658E-08-3.94402E-09
 -1       783-2.42519E+06-4.29084E+05-1.52965E+03-1.02787E+06-2.27737E-09-5.31156E-09
 -1       784-2.38032E+06-4.75655E+05-3.52326E+03-1.08127E+06-7.72434E-09 2.34377E-09
 -1       785-2.42504E+06-4.29168E+05-6.53603E+03-1.02750E+06-1.35824E-08 1.87993E-09
 -1       786 1.66163E+05-9.23669E+03 2.13693E+04-3.87075E+01 5.73470E-06 2.12040E-08
 -1       787 1.75423E+05 1.06932E+04 1.51183E+04 8.78923E+00 1.14238E-05 1.64064E-08
 -1       788 1.69735E+05-1.44795E+03 5.53075E+03-2.80299E+01 1.05612E-05-1.21597E-08
 -1       789 1.71262E+05 1.67534E+03 3.47476E+03-9.42608E+00 9.67290E-06 3.05486E-08
 -1       790 1.70325E+05-2.26165E+02 1.41330E+03-2.04933E+01 9.11737E-06-1.33322E-08
 -1       791 1.70573E+05 2.62603E+02 8.28660E+02-2.40787E+01 8.55405E-06 7.74605E-10
 -1       792 1.70424E+05-3.62758E+01 3.75971E+02-1.33772E+01 4.28066E-06-1.01358E-08
 -1       793 1.70462E+05 4.98632E+01 2.41832E+02-3.99705E+01 1.28620E-08 1.09376E-08
 -1       794 1.70437E+05-1.35637E+01 1.72200E+02-4.60129E+00 1.35750E-09-5.97228E-09
 -1       795 1.70469E+05 6.73363E+01 2.39058E+02-6.16485E+01-1.42885E-09-1.28653E-09
 -1       796 1.70417E+05-5.37327E+01 3.52019E+02 8.30124E+00 9.53347E-10-3.02525E-09
 -1       797 1.70627E+05 3.93293E+02 8.25005E+02-9.51959E+01-5.31739E-10 8.83891E-09
 -1       798 1.70279E+05-3.39283E+02 1.30059E+03 2.89467E+01-4.22360E-11 9.36336E-09
 -1       799 1.71602E+05 2.50507E+03 3.54425E+03-1.50244E+02-5.39745E-10 8.00742E-09
 -1       800 1.69441E+05-2.16381E+03 5.00597E+03 6.33499E+01-3.62821E-11 8.69841E-09
 -1       801 1.98667E+04-9.12550E+05-7.62341E+04 2.47903E+04 1.23546E-08-8.25457E-09
 -1       802-1.51356E+04-7.90628E+05-7.49194E+03-7.16767E+04 3.33284E-08-2.58353E-10
 -1       803-4.24324E+03-8.52567E+05 2.68164E+04 4.64613E+04 2.64445E-08 2.32912E-08
 -1       804 8.74824E+04-7.30858E+05 1.27731E+05-6.63270E+04 3.01916E-08 2.69660E-08
 -1       805-8.30656E+04-9.71798E+05 1.49372E+05 1.94348E+04 1.10667E-08 2.28858E-08
 -1       806-2.10331E+05-4.37627E+04-1.73178E+04-8.62314E+04-2.76259E-09-9.25866E-10
 -1       807-2.11473E+05-4.11595E+04-8.50794E+03-9.06819E+04-1.41779E-09-4.31476E-09
 -1       808-2.10815E+05-3.75135E+04-3.60908E+03-8.91761E+04-1.16870E-09-1.01268E-09
 -1       809-2.09665E+05-3.87890E+04-1.76446E+03-9.09167E+04-8.71296E-10 2.77510E-10
 -1       810-2.10890E+05-3.72939E+04-8.08042E+02-8.93061E+04 1.02273E-09 7.36031E-09
 -1       811-2.09526E+05-3.86948E+04-4.00923E+02-9.08944E+04-1.24351E-09-1.12320E-08
 -1       812-2.10903E+05-3.73108E+04-2.00515E+02-8.93058E+04-1.05638E-09 1.29762E-09
 -1       813-2.09507E+05-3.86971E+04-1.27080E+02-9.08827E+04-3.84080E-09 3.53702E-09
 -1       814-2.10900E+05-3.73173E+04-1.20270E+02-8.93029E+04-8.27640E-10 4.26621E-09
 -1       815-2.09510E+05-3.86991E+04-1.89126E+02-9.08790E+04 2.32285E-09 1.75078E-09
 -1       816-2.10887E+05-3.73161E+04-3.55041E+02-8.93003E+04 4.97039E-10 7.71024E-09
 -1       817-2.09570E+05-3.87331E+04-7.61238E+02-9.08720E+04 1.08639E-09 1.03162E-08
 -1       818-2.10841E+05-3.74232E+04-1.55163E+03-8.92497E+04 8.88576E-10-3.06136E-09
 -1       819-2.10425E+05-3.96658E+04-3.65157E+03-9.06660E+04-1.45519E-10 1.34992E-09
 -1       820-2.10548E+05-4.01826E+04-7.43174E+03-8.80711E+04-1.27966E-09-2.71302E-09
 -1       821-2.69519E+05 1.49160E+04-3.44957E+04 1.51882E+02 2.41289E-10-6.71753E-09
 -1       822-2.84468E+05-1.72679E+04-2.44107E+04-7.51992E+02-2.08242E-09-9.01537E-09
 -1       823-2.75288E+05 2.33858E+03-8.93440E+03 1.32789E+02 6.76208E-10-8.82164E-09
 -1       824-2.77738E+05-2.70670E+03-5.62114E+03-5.95068E+02 3.59706E-10-9.75956E-09
 -1       825-2.76247E+05 3.65922E+02-2.31126E+03-5.04548E+00-2.27091E-09 7.41238E-11
 -1       826-2.76621E+05-4.31473E+02-1.39361E+03-2.58250E+02-4.30694E-09-7.04864E-09
 -1       827-2.76405E+05 6.47744E+01-7.23519E+02-2.04035E+02-4.08867E-09-1.01672E-08
 -1       828-2.76471E+05-1.31693E+02-6.37995E+02 1.20199E+02-4.92151E-09-1.56421E-09
 -1       829-2.76397E+05 6.64232E+01-7.35251E+02-3.83502E+02 2.85194E-11-8.70784E-10
 -1       830-2.76646E+05-4.43933E+02-1.43498E+03 3.86770E+02 2.50325E-09-6.00500E-09
 -1       831-2.76230E+05 3.77075E+02-2.37734E+03-4.70611E+02-2.82906E-09-3.54703E-10
 -1       832-2.77790E+05-2.78822E+03-5.79325E+03 4.33873E+02-1.48932E-09 1.50249E-09
 -1       833-2.75254E+05 2.40908E+03-9.20639E+03-4.30605E+02-2.01228E-09-2.06865E-09
 -1       834-2.84702E+05-1.77921E+04-2.51519E+04 2.44031E+02-5.81668E-10 1.56069E-09
 -1       835-2.69319E+05 1.53692E+04-3.55491E+04-2.80757E+02 4.55769E-09 6.47196E-09
 -1       836-8.99888E+02 2.53846E+05 1.53307E+04-2.08657E+04 1.36060E-09 1.39153E-09
 -1       837 3.36955E+03 2.58596E+05 1.30910E+04-4.19119E+04 1.95405E-09 5.41979E-09
 -1       838-3.31882E+02 2.55165E+05 1.35019E+04-2.07939E+04 1.72713E-09-2.26828E-09
 -1       839 8.66314E+03 2.62541E+05 2.57025E+04-4.19402E+04 2.29193E-09-9.65323E-09
 -1       840-2.60703E+03 2.49863E+05 4.10531E+04-2.08359E+04 1.51340E-09-9.69544E-09
 -1       856-8.19707E+04 7.15533E+03-1.88563E+04-4.21015E+02-2.80176E-09-2.32194E-09
 -1       857-8.97588E+04-8.39243E+03-1.29821E+04 4.34766E+03-1.73236E-09-5.15752E-09
 -1       858-8.50480E+04 1.00256E+03-4.89374E+03-4.41449E+02-3.87928E-09-7.39556E-09
 -1       859-8.62251E+04-1.16572E+03-2.95552E+03 4.38021E+03 1.71519E-09 1.11186E-10
 -1       860-8.55080E+04 1.39423E+02-1.24256E+03-4.53688E+02 2.50117E-09-6.03495E-09
 -1       861-8.56954E+04-1.53931E+02-6.91761E+02 4.39694E+03-5.81326E-09-1.09543E-09
 -1       862-8.55796E+04 1.84496E+01-3.04023E+02-4.58209E+02 4.94399E-09-5.72226E-09
 -1       863-8.56105E+04-1.09505E+01-1.48128E+02 4.39892E+03 8.96529E-09-2.04666E-09
 -1       864-8.55930E+04-4.12600E-01-4.20475E+01-4.55670E+02 6.68490E-09-8.08074E-09
 -1       865-8.55841E+04 2.40887E+01 4.03178E+01 4.38625E+03 6.16159E-09-4.87535E-09
 -1       866-8.56045E+04-1.70599E+01 1.24406E+02-4.45539E+02 1.85915E-09 2.18130E-09
 -1       867-8.55138E+04 1.42631E+02 3.34083E+02 4.35878E+03 2.78499E-09 6.05338E-09
 -1       868-8.56602E+04-1.18147E+02 5.61660E+02-4.28198E+02 2.94995E-09-3.52762E-09
 -1       869-8.50933E+04 9.79793E+02 1.50603E+03 4.31350E+03-1.39786E-09-3.93629E-09
 -1       870-8.60202E+04-8.33426E+02 2.18392E+03-4.00264E+02-2.28624E-10 6.72037E-09
 -1       871-3.97682E+03-8.73411E+03-1.29266E+04 8.47080E+04 2.15641E-09-8.69841E-09
 -1       872-1.72339E+03-1.16312E+04-5.27851E+03 1.09819E+05 4.29554E-09 4.38649E-09
 -1       873-3.54654E+01-1.02777E+04 7.29359E+02 8.45218E+04 1.74759E-09 6.43786E-09
 -1       874 1.97864E+03-8.41158E+03 7.27778E+03 1.09857E+05 1.69348E-09 2.75327E-09
 -1       875 4.67919E+03-1.20053E+04 1.61553E+04 8.46775E+04 1.74077E-09 4.47926E-10
 -1       876 2.10919E+05 3.62062E+04 1.12798E+04 8.53909E+04-4.54691E-09 2.88856E-09
 -1       877 2.11617E+05 3.86289E+04 6.02366E+03 8.86659E+04-6.21867E-09-3.60035E-09
 -1       878 2.11972E+05 3.49583E+04 2.52362E+03 8.63179E+04 3.42470E-09-3.42993E-09
 -1       879 2.10083E+05 3.71001E+04 1.25714E+03 8.87450E+04 1.17734E-09-5.28979E-09
 -1       880 2.12049E+05 3.49444E+04 5.85242E+02 8.63557E+04 1.92404E-09-8.27902E-09
 -1       881 2.09981E+05 3.70351E+04 3.11677E+02 8.87289E+04 4.47653E-09 8.57108E-09
 -1       882 2.12057E+05 3.49537E+04 1.97920E+02 8.63568E+04 5.93491E-09 1.14492E-08
 -1       883 2.09974E+05 3.70320E+04 2.10407E+02 8.87242E+04 4.42515E-09 3.98683E-09
 -1       884 2.12052E+05 3.49514E+04 3.32569E+02 8.63569E+04 1.75100E-09-1.70417E-09
 -1       885 2.10000E+05 3.70367E+04 6.67303E+02 8.87325E+04 4.84107E-09 1.66722E-09
 -1       886 2.12026E+05 3.49320E+04 1.34430E+03 8.63543E+04 4.09861E-09-3.33443E-10
 -1       887 2.10237E+05 3.71916E+04 2.93621E+03 8.87664E+04-3.37320E-09 1.07070E-08
 -1       888 2.11841E+05 3.49647E+04 5.91650E+03 8.62602E+04-2.59877E-09-4.32010E-09
 -1       889 2.13761E+05 4.08529E+04 1.41340E+04 8.86558E+04-6.47439E-10-7.88441E-09
 -1       890 2.09431E+05 3.78272E+04 2.64719E+04 8.40019E+04 5.17321E-09-6.07542E-10
 -1       891-1.26152E+02-1.21862E+05-1.53852E+03 2.22075E+04-1.32434E-09-7.77618E-09
 -1       892-2.51633E+02-1.22238E+05-1.63437E+03 3.41697E+04 6.11180E-10-1.31627E-08
 -1       893-3.32548E+01-1.21917E+05-2.28498E+03 2.22118E+04 2.53794E-09-6.25232E-09
 -1       894-1.26217E+03-1.23103E+05-4.72086E+03 3.40482E+04 3.70756E-09-4.06544E-09
 -1       895-8.47948E+02-1.20930E+05-8.26515E+03 2.23274E+04 8.60325E-10-4.44743E-10
 -1       956-2.64577E+05-3.79513E+03-9.55264E+03 1.76502E+04-4.58158E-09-5.05679E-09
 -1       957-2.66463E+05-1.28039E+03-4.90393E+03 2.12548E+04 8.36735E-10-1.24903E-08
 -1       958-2.65424E+05-1.02155E+02-2.20937E+03 1.75367E+04 2.99769E-09-6.31940E-09
 -1       959-2.65575E+05-1.75352E+01-1.12848E+03 2.13778E+04-1.06957E-09 3.54339E-09
 -1       960-2.65500E+05 3.19015E+01-5.50079E+02 1.75259E+04-4.00223E-09 2.75281E-09
 -1       961-2.65510E+05 3.01972E+01-2.91690E+02 2.13902E+04-2.92721E-09-1.69848E-10
 -1       962-2.65516E+05 2.81804E+01-1.66651E+02 1.75242E+04-1.35333E-09-2.73531E-09
 -1       963-2.65508E+05 3.14928E+01-1.33202E+02 2.13924E+04-4.49256E-09 7.65158E-09
 -1       964-2.65519E+05 3.01119E+01-1.60993E+02 1.75236E+04-4.01508E-09 8.43215E-10
 -1       965-2.65518E+05 3.44178E+01-2.77597E+02 2.13925E+04 2.09377E-09-2.82171E-09
 -1       966-2.65511E+05 3.76039E+01-5.20752E+02 1.75242E+04-1.84025E-09 2.07785E-09
 -1       967-2.65586E+05-6.62430E+00-1.06789E+03 2.13857E+04-4.84988E-10 5.08203E-09
 -1       968-2.65445E+05-8.53554E+01-2.08975E+03 1.75306E+04-5.45424E-09 8.69846E-10
 -1       969-2.66434E+05-1.19793E+03-4.63983E+03 2.13109E+04-1.01445E-08 4.59821E-09
 -1       970-2.64648E+05-3.57704E+03-9.03739E+03 1.76013E+04-2.94813E-09 1.10394E-08
 -1       971-2.50728E+05-1.31893E+03-7.33331E+03 1.20046E+04-2.85081E-09-4.11387E-09
 -1       972-2.52511E+05-9.45458E+02-3.99375E+03 1.67651E+04-9.78616E-10-3.55908E-09
 -1       973-2.51543E+05-8.60688E+00-1.78827E+03 1.19038E+04-1.72304E-09 3.49894E-09
 -1       974-2.51667E+05-8.59402E+00-9.26447E+02 1.68739E+04 7.19410E-10-2.75691E-09
 -1       975-2.51606E+05 2.54725E+01-4.62032E+02 1.18947E+04 4.53383E-10 1.86037E-09
 -1       976-2.51616E+05 2.96008E+01-2.64707E+02 1.68850E+04-5.32054E-10 1.27898E-09
 -1       977-2.51618E+05 2.51390E+01-1.88760E+02 1.18926E+04 4.02679E-09 5.45504E-09
 -1       978-2.51619E+05 3.37879E+01-2.16323E+02 1.68879E+04 1.82167E-08-4.85682E-09
 -1       979-2.51617E+05 3.09539E+01-3.43611E+02 1.18917E+04 1.13831E-08-6.22629E-09
 -1       980-2.51644E+05 3.59410E+01-6.60987E+02 1.68884E+04 1.03232E-08-3.37047E-09
 -1       981-2.51596E+05 4.75026E+01-1.27885E+03 1.18921E+04 1.03614E-09-5.78666E-10
 -1       982-2.51820E+05-5.82838E+01-2.64262E+03 1.68835E+04-2.13083E-09-3.36493E-09
 -1       983-2.51436E+05-3.40221E+01-5.13418E+03 1.18968E+04 1.93950E-09-4.59909E-09
 -1       984-2.54290E+05-2.73913E+03-1.14972E+04 1.68165E+04-1.46611E-09-9.61791E-11
 -1       985-2.49112E+05-3.79058E+03-2.11126E+04 1.19638E+04 1.42336E-10 4.32738E-09
 -3
    1PSTEP                        11           6           1          
  100CL  106 5.39062E-01         409                     0    6           1
 -4  DISP        4    1
 -5  D1          1    2    1    0
 -5  D2          1    2    2    0
 -5  D3          1    2    3    0
 -5  ALL         1    2    0    0    1ALL
 -1         1 1.83158E-04 0.00000E+00 0.00000E+00
 -1         2 1.62689E-04-4.40457E-30 0.00000E+00
 -1         3 1.63619E-04 2.87218E-27 1.32349E-23
 -1         5 1.07191E-04 5.50609E-26-3.30872E-24
 -1         8 1.57746E-04-8.71085E-07 0.00000E+00
 -1         9 1.51554E-04-6.44689E-07 0.00000E+00
 -1        10 1.50557E-04-2.19920E-06 0.00000E+00
 -1        12 1.06928E-04 5.92391E-07 1.65436E-24
 -1        15 1.27428E-04-9.68854E-07 0.00000E+00
 -1        16 1.32472E-04-8.44154E-07 0.00000E+00
 -1        17 1.09268E-04-4.69351E-06 0.00000E+00
 -1        18 1.04969E-04 4.79553E-06 0.00000E+00
 -1        19 1.06138E-04 1.18169E-06 0.00000E+00
 -1        20 1.06284E-04 1.31329E-05 0.00000E+00
 -1        21 1.05636E-04 2.38727E-05-3.30872E-24
 -1        24 2.23271E-05-6.57126E-06 0.00000E+00
 -1        25 1.04895E-04 4.93542E-06 0.00000E+00
 -1        26 1.05797E-04 1.64107E-06 0.00000E+00
 -1        27 1.04161E-04 1.04717E-05 0.00000E+00
 -1        28 1.03677E-04 2.33709E-05 0.00000E+00
 -1        32 0.00000E+00 0.00000E+00 0.00000E+00
 -1        33 1.04214E-04 2.19863E-06 0.00000E+00
 -1        34 1.02614E-04 1.04463E-05 0.00000E+00
 -1        35 1.01104E-04 2.30982E-05 0.00000E+00
 -1        51 1.81509E-04-1.44911E-07 0.00000E+00
 -1        52 1.78449E-04-2.83859E-07 0.00000E+00
 -1        53 1.74255E-04-4.24034E-07 0.00000E+00
 -1        54 1.69215E-04-5.67141E-07 0.00000E+00
 -1        55 1.63615E-04-7.14069E-07-6.41065E-24
 -1        56 1.81554E-04-8.48029E-07 0.00000E+00
 -1        57 1.80036E-04-2.10836E-06-2.64698E-23
 -1        58 1.78624E-04-3.64282E-06 0.00000E+00
 -1        59 1.77257E-04-5.33061E-06 2.64698E-23
 -1        60 1.75895E-04-7.02963E-06-5.29396E-23
 -1        61 1.74483E-04-8.60166E-06 2.64698E-23
 -1        62 1.72975E-04-9.91816E-06-5.29396E-23
 -1        63 1.71327E-04-1.08617E-05 2.64698E-23
 -1        64 1.69507E-04-1.13455E-05-5.29396E-23
 -1        65 1.67489E-04-1.13016E-05-2.64698E-23
 -1        66 1.65263E-04-1.07058E-05 5.29396E-23
 -1        67 1.62831E-04-9.55592E-06 0.00000E+00
 -1        68 1.60206E-04-7.89652E-06 5.29396E-23
 -1        69 1.57422E-04-5.78933E-06 0.00000E+00
 -1        70 1.54506E-04-3.34022E-06 0.00000E+00
 -1        86 1.62355E-04-1.00657E-07 0.00000E+00
 -1        87 1.61355E-04-2.02269E-07 1.65436E-24
 -1        88 1.59724E-04-3.04751E-07 0.00000E+00
 -1        89 1.57501E-04-4.11650E-07 0.00000E+00
 -1        90 1.54754E-04-5.18670E-07 1.32349E-23
 -1       121 1.63254E-04-3.63447E-07 1.32349E-23
 -1       122 1.62158E-04-7.27414E-07 6.61744E-24
 -1       123 1.60335E-04-1.09241E-06-1.32349E-23
 -1       124 1.57790E-04-1.45901E-06-6.61744E-24
 -1       125 1.54528E-04-1.82758E-06 0.00000E+00
 -1       191 1.07184E-04 9.87366E-08 6.61744E-24
 -1       192 1.07162E-04 1.97472E-07 1.65436E-24
 -1       193 1.07125E-04 2.96207E-07 0.00000E+00
 -1       194 1.07074E-04 3.94940E-07 1.65436E-24
 -1       195 1.07008E-04 4.93669E-07 3.30872E-24
 -1       251 1.57355E-04 3.86195E-06 0.00000E+00
 -1       252 1.56964E-04 7.92272E-06 6.61744E-24
 -1       253 1.56577E-04 1.10107E-05 0.00000E+00
 -1       254 1.56192E-04 1.28406E-05 0.00000E+00
 -1       255 1.55809E-04 1.33633E-05 0.00000E+00
 -1       256 1.55425E-04 1.25501E-05 0.00000E+00
 -1       257 1.55040E-04 1.06234E-05 0.00000E+00
 -1       258 1.54653E-04 7.82272E-06 0.00000E+00
 -1       259 1.54265E-04 4.55187E-06 0.00000E+00
 -1       260 1.53876E-04 1.22200E-06 6.61744E-24
 -1       261 1.53489E-04-1.74464E-06 0.00000E+00
 -1       262 1.53103E-04-3.93157E-06 6.61744E-24
 -1       263 1.52719E-04-5.06868E-06 0.00000E+00
 -1       264 1.52334E-04-4.90234E-06 6.61744E-24
 -1       265 1.51948E-04-3.42376E-06-1.32349E-23
 -1       266 1.52693E-04-8.99483E-07-6.61744E-24
 -1       267 1.47640E-04-9.14303E-07 1.65436E-24
 -1       268 1.42587E-04-9.29982E-07 1.65436E-24
 -1       269 1.37534E-04-9.43114E-07 0.00000E+00
 -1       270 1.32481E-04-9.56186E-07 0.00000E+00
 -1       271 1.54725E-04 3.08638E-06 2.64698E-23
 -1       272 1.52080E-04 5.91587E-06 0.00000E+00
 -1       273 1.49826E-04 7.71763E-06 5.29396E-23
 -1       274 1.47914E-04 8.58999E-06 2.64698E-23
 -1       275 1.46306E-04 8.65381E-06-5.29396E-23
 -1       276 1.44950E-04 8.04157E-06 0.00000E+00
 -1       277 1.43792E-04 6.89884E-06 5.29396E-23
 -1       278 1.42776E-04 5.38019E-06 0.00000E+00
 -1       279 1.41839E-04 3.64721E-06 5.29396E-23
 -1       280 1.40920E-04 1.86526E-06-2.64698E-23
 -1       281 1.39958E-04 2.00521E-07 0.00000E+00
 -1       282 1.38892E-04-1.18276E-06 0.00000E+00
 -1       283 1.37661E-04-2.12580E-06 5.29396E-23
 -1       284 1.36213E-04-2.47588E-06 1.32349E-23
 -1       285 1.34490E-04-2.09480E-06-2.64698E-23
 -1       301 1.48020E-04-6.92397E-07 6.61744E-24
 -1       302 1.44516E-04-7.17681E-07 0.00000E+00
 -1       303 1.41124E-04-7.41448E-07-1.32349E-23
 -1       304 1.37930E-04-7.65373E-07 0.00000E+00
 -1       305 1.35018E-04-7.90585E-07 0.00000E+00
 -1       306 1.49634E-04-2.24879E-06 5.29396E-23
 -1       307 1.50684E-04-1.21085E-05 2.64698E-23
 -1       308 1.54126E-04-2.85584E-05 0.00000E+00
 -1       309 1.59153E-04-4.95060E-05-2.64698E-23
 -1       310 1.64690E-04-7.18982E-05 0.00000E+00
 -1       311 1.69623E-04-9.25848E-05 0.00000E+00
 -1       312 1.72953E-04-1.08778E-04 5.29396E-23
 -1       313 1.73760E-04-1.18004E-04 0.00000E+00
 -1       314 1.71616E-04-1.19263E-04-5.29396E-23
 -1       315 1.66277E-04-1.12096E-04-2.64698E-23
 -1       316 1.58181E-04-9.78099E-05 5.29396E-23
 -1       317 1.47978E-04-7.81788E-05 2.64698E-23
 -1       318 1.36795E-04-5.60853E-05 5.29396E-23
 -1       319 1.25858E-04-3.45638E-05 0.00000E+00
 -1       320 1.16306E-04-1.65471E-05-5.29396E-23
 -1       336 1.45794E-04-2.60287E-06 0.00000E+00
 -1       337 1.40159E-04-3.01143E-06 6.61744E-24
 -1       338 1.33667E-04-3.42484E-06-1.32349E-23
 -1       339 1.26339E-04-3.84316E-06 0.00000E+00
 -1       340 1.18198E-04-4.26757E-06 6.61744E-24
 -1       406 1.06833E-04 6.91101E-07 3.30872E-24
 -1       407 1.06723E-04 7.89778E-07 0.00000E+00
 -1       408 1.06599E-04 8.88393E-07 0.00000E+00
 -1       409 1.06460E-04 9.86828E-07-1.65436E-24
 -1       410 1.06306E-04 1.08489E-06 3.30872E-24
 -1       521 1.36467E-04-2.11479E-05 0.00000E+00
 -1       522 1.54168E-04-8.29857E-05 0.00000E+00
 -1       523 1.81204E-04-1.76189E-04 1.05879E-22
 -1       524 2.13163E-04-2.87716E-04 0.00000E+00
 -1       525 2.45421E-04-4.00378E-04 0.00000E+00
 -1       526 2.73352E-04-4.96877E-04-5.29396E-23
 -1       527 2.92545E-04-5.63597E-04 1.05879E-22
 -1       528 2.98451E-04-5.89661E-04 0.00000E+00
 -1       529 2.88501E-04-5.73037E-04-1.05879E-22
 -1       530 2.61382E-04-5.15329E-04 0.00000E+00
 -1       531 2.20048E-04-4.26517E-04 0.00000E+00
 -1       532 1.69452E-04-3.18812E-04 5.29396E-23
 -1       533 1.17352E-04-2.08094E-04 0.00000E+00
 -1       534 7.17619E-05-1.10418E-04 5.29396E-23
 -1       535 3.86750E-05-3.93571E-05 5.29396E-23
 -1       536 1.09055E-04 7.98602E-06 0.00000E+00
 -1       537 1.08746E-04 2.73559E-05 0.00000E+00
 -1       538 1.08359E-04 5.05943E-05-3.30872E-24
 -1       539 1.07949E-04 7.48590E-05-1.65436E-24
 -1       540 1.07585E-04 9.70393E-05-3.30872E-24
 -1       541 1.07319E-04 1.14036E-04 1.65436E-24
 -1       542 1.07141E-04 1.24080E-04 3.30872E-24
 -1       543 1.07011E-04 1.25442E-04 1.65436E-24
 -1       544 1.06860E-04 1.18590E-04-3.30872E-24
 -1       545 1.06629E-04 1.04039E-04 1.65436E-24
 -1       546 1.06315E-04 8.42629E-05 0.00000E+00
 -1       547 1.05946E-04 6.17639E-05 1.65436E-24
 -1       548 1.05587E-04 3.97469E-05 0.00000E+00
 -1       549 1.05300E-04 2.14148E-05 1.65436E-24
 -1       550 1.05099E-04 9.02381E-06 0.00000E+00
 -1       551 9.77259E-05-4.96754E-06 6.61744E-24
 -1       552 8.40303E-05-5.26220E-06 0.00000E+00
 -1       553 6.89065E-05-5.57523E-06-4.96308E-24
 -1       554 5.30911E-05-5.90031E-06 0.00000E+00
 -1       555 3.73207E-05-6.22753E-06 0.00000E+00
 -1       556 1.06140E-04 3.39340E-06 0.00000E+00
 -1       557 1.03705E-04 9.70573E-06 0.00000E+00
 -1       558 1.01889E-04 1.43988E-05 0.00000E+00
 -1       559 1.00625E-04 1.76407E-05 0.00000E+00
 -1       560 9.98468E-05 1.95994E-05 0.00000E+00
 -1       561 9.94891E-05 2.04439E-05 0.00000E+00
 -1       562 9.94866E-05 2.03436E-05 0.00000E+00
 -1       563 9.97748E-05 1.94679E-05 0.00000E+00
 -1       564 1.00290E-04 1.79866E-05 0.00000E+00
 -1       565 1.00967E-04 1.60696E-05 0.00000E+00
 -1       566 1.01744E-04 1.38869E-05 0.00000E+00
 -1       567 1.02556E-04 1.16086E-05-3.61892E-25
 -1       568 1.03341E-04 9.40474E-06 0.00000E+00
 -1       569 1.04035E-04 7.44523E-06 0.00000E+00
 -1       570 1.04573E-04 5.89998E-06 0.00000E+00
 -1       571 1.05040E-04 4.58899E-06 8.27181E-25
 -1       572 1.05112E-04 4.33640E-06 2.06795E-25
 -1       573 1.05185E-04 4.04665E-06-1.65436E-24
 -1       574 1.05258E-04 3.72909E-06-8.27181E-25
 -1       575 1.05332E-04 3.39311E-06 0.00000E+00
 -1       576 1.05405E-04 3.04814E-06 8.27181E-25
 -1       577 1.05478E-04 2.70365E-06 0.00000E+00
 -1       578 1.05552E-04 2.36907E-06 0.00000E+00
 -1       579 1.05625E-04 2.05387E-06 0.00000E+00
 -1       580 1.05699E-04 1.76750E-06 1.65436E-24
 -1       581 1.05772E-04 1.51941E-06 0.00000E+00
 -1       582 1.05845E-04 1.31906E-06 0.00000E+00
 -1       583 1.05919E-04 1.17587E-06 0.00000E+00
 -1       584 1.05992E-04 1.09919E-06 0.00000E+00
 -1       585 1.06065E-04 1.09828E-06 0.00000E+00
 -1       586 1.04917E-04 4.82034E-06 1.65436E-24
 -1       587 1.04838E-04 4.84456E-06-3.10193E-25
 -1       588 1.04764E-04 4.86852E-06-8.27181E-25
 -1       589 1.04728E-04 4.89207E-06 0.00000E+00
 -1       590 1.04761E-04 4.91491E-06 0.00000E+00
 -1       591 1.05011E-04 4.63187E-06-2.58494E-26
 -1       592 1.05062E-04 4.43562E-06 0.00000E+00
 -1       593 1.05123E-04 4.21339E-06 0.00000E+00
 -1       594 1.05192E-04 3.97104E-06 0.00000E+00
 -1       595 1.05265E-04 3.71450E-06 0.00000E+00
 -1       596 1.05342E-04 3.44967E-06 0.00000E+00
 -1       597 1.05419E-04 3.18244E-06 4.13590E-25
 -1       598 1.05495E-04 2.91870E-06-4.13590E-25
 -1       599 1.05568E-04 2.66431E-06-4.13590E-25
 -1       600 1.05635E-04 2.42517E-06-2.06795E-25
 -1       601 1.05693E-04 2.20716E-06 4.13590E-25
 -1       602 1.05742E-04 2.01617E-06-1.03398E-25
 -1       603 1.05779E-04 1.85807E-06 1.03398E-25
 -1       604 1.05802E-04 1.73883E-06 0.00000E+00
 -1       605 1.05807E-04 1.66428E-06 0.00000E+00
 -1       606 1.06151E-04 1.42985E-06 0.00000E+00
 -1       607 1.06161E-04 1.77380E-06 0.00000E+00
 -1       608 1.06171E-04 2.20794E-06 0.00000E+00
 -1       609 1.06180E-04 2.72590E-06 1.65436E-24
 -1       610 1.06189E-04 3.32133E-06 0.00000E+00
 -1       611 1.06198E-04 3.98776E-06 0.00000E+00
 -1       612 1.06207E-04 4.71872E-06 0.00000E+00
 -1       613 1.06216E-04 5.50774E-06 0.00000E+00
 -1       614 1.06224E-04 6.34834E-06 0.00000E+00
 -1       615 1.06233E-04 7.23404E-06 0.00000E+00
 -1       616 1.06242E-04 8.15839E-06-1.65436E-24
 -1       617 1.06250E-04 9.11489E-06 0.00000E+00
 -1       618 1.06259E-04 1.00971E-05 8.27181E-25
 -1       619 1.06268E-04 1.10984E-05-4.13590E-25
 -1       620 1.06276E-04 1.21126E-05 0.00000E+00
 -1       621 1.06000E-04 1.25837E-06 1.65436E-24
 -1       622 1.05906E-04 1.33535E-06 8.27181E-25
 -1       623 1.05848E-04 1.41233E-06 1.65436E-24
 -1       624 1.05817E-04 1.48917E-06 0.00000E+00
 -1       625 1.05803E-04 1.56587E-06 1.65436E-24
 -1       626 1.06129E-04 1.45530E-06 0.00000E+00
 -1       627 1.06092E-04 1.80717E-06 0.00000E+00
 -1       628 1.06028E-04 2.22971E-06 0.00000E+00
 -1       629 1.05940E-04 2.71486E-06-1.65436E-24
 -1       630 1.05832E-04 3.25458E-06-3.30872E-24
 -1       631 1.05707E-04 3.84073E-06 0.00000E+00
 -1       632 1.05567E-04 4.46520E-06-3.30872E-24
 -1       633 1.05416E-04 5.11990E-06 0.00000E+00
 -1       634 1.05257E-04 5.79670E-06 0.00000E+00
 -1       635 1.05092E-04 6.48749E-06 0.00000E+00
 -1       636 1.04925E-04 7.18417E-06 3.30872E-24
 -1       637 1.04759E-04 7.87862E-06-1.65436E-24
 -1       638 1.04597E-04 8.56273E-06 3.30872E-24
 -1       639 1.04442E-04 9.22839E-06-8.27181E-25
 -1       640 1.04296E-04 9.86747E-06 0.00000E+00
 -1       656 1.05477E-04 1.26999E-05-6.61744E-24
 -1       657 1.05044E-04 1.22497E-05 0.00000E+00
 -1       658 1.04846E-04 1.18008E-05 0.00000E+00
 -1       659 1.04742E-04 1.13522E-05 0.00000E+00
 -1       660 1.04567E-04 1.09023E-05 0.00000E+00
 -1       661 1.05986E-04 1.41252E-05-8.27181E-25
 -1       662 1.05713E-04 1.50595E-05 0.00000E+00
 -1       663 1.05460E-04 1.59376E-05 0.00000E+00
 -1       664 1.05229E-04 1.67627E-05 0.00000E+00
 -1       665 1.05016E-04 1.75372E-05 0.00000E+00
 -1       666 1.04821E-04 1.82638E-05 8.27181E-25
 -1       667 1.04644E-04 1.89447E-05 0.00000E+00
 -1       668 1.04482E-04 1.95825E-05 0.00000E+00
 -1       669 1.04336E-04 2.01791E-05 0.00000E+00
 -1       670 1.04205E-04 2.07369E-05 0.00000E+00
 -1       671 1.04088E-04 2.12578E-05 0.00000E+00
 -1       672 1.03983E-04 2.17436E-05 8.27181E-25
 -1       673 1.03891E-04 2.21963E-05 0.00000E+00
 -1       674 1.03810E-04 2.26175E-05 0.00000E+00
 -1       675 1.03741E-04 2.30090E-05-4.13590E-25
 -1       676 1.05308E-04 2.37886E-05-3.30872E-24
 -1       677 1.04981E-04 2.37045E-05-1.65436E-24
 -1       678 1.04654E-04 2.36204E-05 0.00000E+00
 -1       679 1.04328E-04 2.35366E-05 8.27181E-25
 -1       680 1.04002E-04 2.34528E-05 0.00000E+00
 -1       771 1.66086E-05 5.22969E-06 5.29396E-23
 -1       772 1.16998E-05 1.49073E-05-2.64698E-23
 -1       773 7.56484E-06 2.25734E-05 0.00000E+00
 -1       774 4.15227E-06 2.83500E-05 0.00000E+00
 -1       775 1.41146E-06 3.23626E-05 0.00000E+00
 -1       776-7.10429E-07 3.47424E-05 0.00000E+00
 -1       777-2.26678E-06 3.56237E-05 5.29396E-23
 -1       778-3.31220E-06 3.51456E-05 0.00000E+00
 -1       779-3.90162E-06 3.34499E-05 5.29396E-23
 -1       780-4.09099E-06 3.06823E-05 0.00000E+00
 -1       781-3.93638E-06 2.69905E-05 0.00000E+00
 -1       782-3.49466E-06 2.25253E-05 0.00000E+00
 -1       783-2.82274E-06 1.74389E-05 2.64698E-23
 -1       784-1.97808E-06 1.18855E-05 0.00000E+00
 -1       785-1.01811E-06 6.02048E-06 2.64698E-23
 -1       786 1.04948E-04 4.59189E-06 0.00000E+00
 -1       787 1.05004E-04 4.27414E-06-4.13590E-25
 -1       788 1.05060E-04 3.97774E-06 0.00000E+00
 -1       789 1.05117E-04 3.69835E-06 0.00000E+00
 -1       790 1.05173E-04 3.43381E-06 0.00000E+00
 -1       791 1.05230E-04 3.18203E-06 0.00000E+00
 -1       792 1.05287E-04 2.94256E-06 0.00000E+00
 -1       793 1.05344E-04 2.71500E-06 0.00000E+00
 -1       794 1.05400E-04 2.50050E-06 0.00000E+00
 -1       795 1.05457E-04 2.30024E-06 0.00000E+00
 -1       796 1.05514E-04 2.11729E-06 1.65436E-24
 -1       797 1.05571E-04 1.95472E-06 8.27181E-25
 -1       798 1.05628E-04 1.81830E-06-1.65436E-24
 -1       799 1.05684E-04 1.71387E-06 0.00000E+00
 -1       800 1.05741E-04 1.65142E-06 1.65436E-24
 -1       801 9.76360E-05 4.30325E-06-1.32349E-23
 -1       802 7.51574E-05 3.42987E-06 6.61744E-24
 -1       803 4.61940E-05 2.40750E-06 0.00000E+00
 -1       804 1.96668E-05 1.44206E-06 0.00000E+00
 -1       805 2.15732E-06 6.58272E-07 0.00000E+00
 -1       806 1.04940E-04 4.54255E-06 0.00000E+00
 -1       807 1.04976E-04 4.16267E-06 8.27181E-25
 -1       808 1.05005E-04 3.80008E-06 1.65436E-24
 -1       809 1.05026E-04 3.45823E-06-8.27181E-25
 -1       810 1.05038E-04 3.14055E-06 1.65436E-24
 -1       811 1.05039E-04 2.85041E-06-1.65436E-24
 -1       812 1.05029E-04 2.59116E-06 1.65436E-24
 -1       813 1.05006E-04 2.36615E-06 0.00000E+00
 -1       814 1.04969E-04 2.17872E-06 3.30872E-24
 -1       815 1.04917E-04 2.03220E-06 1.65436E-24
 -1       816 1.04848E-04 1.92994E-06 1.65436E-24
 -1       817 1.04761E-04 1.87526E-06 0.00000E+00
 -1       818 1.04656E-04 1.87148E-06 3.30872E-24
 -1       819 1.04530E-04 1.92192E-06-1.65436E-24
 -1       820 1.04382E-04 2.02989E-06 0.00000E+00
 -1       821 1.05701E-04 1.62126E-06 0.00000E+00
 -1       822 1.05599E-04 1.53163E-06 0.00000E+00
 -1       823 1.05497E-04 1.44063E-06-3.30872E-24
 -1       824 1.05394E-04 1.41673E-06 0.00000E+00
 -1       825 1.05291E-04 1.51414E-06 3.30872E-24
 -1       826 1.05188E-04 1.78650E-06 0.00000E+00
 -1       827 1.05084E-04 2.25039E-06-3.30872E-24
 -1       828 1.04981E-04 2.92148E-06-1.65436E-24
 -1       829 1.04877E-04 3.77153E-06 0.00000E+00
 -1       830 1.04773E-04 4.77145E-06 1.65436E-24
 -1       831 1.04669E-04 5.86044E-06-3.30872E-24
 -1       832 1.04566E-04 6.97723E-06 1.65436E-24
 -1       833 1.04462E-04 8.05465E-06 0.00000E+00
 -1       834 1.04360E-04 9.02576E-06 8.27181E-25
 -1       835 1.04257E-04 9.84606E-06 8.27181E-25
 -1       836 1.05691E-04 1.73388E-06-1.65436E-24
 -1       837 1.05471E-04 1.82877E-06 0.00000E+00
 -1       838 1.05176E-04 1.92349E-06 1.65436E-24
 -1       839 1.04842E-04 2.01760E-06 8.27181E-25
 -1       840 1.04509E-04 2.11155E-06 0.00000E+00
 -1       856 1.04134E-04 1.10601E-05-2.06795E-25
 -1       857 1.04105E-04 1.17609E-05 2.06795E-25
 -1       858 1.04075E-04 1.25565E-05 0.00000E+00
 -1       859 1.04044E-04 1.34291E-05 0.00000E+00
 -1       860 1.04014E-04 1.43609E-05 8.27181E-25
 -1       861 1.03983E-04 1.53338E-05 0.00000E+00
 -1       862 1.03953E-04 1.63299E-05 8.27181E-25
 -1       863 1.03922E-04 1.73311E-05-4.13590E-25
 -1       864 1.03891E-04 1.83194E-05-8.27181E-25
 -1       865 1.03861E-04 1.92769E-05 4.13590E-25
 -1       866 1.03830E-04 2.01855E-05 0.00000E+00
 -1       867 1.03799E-04 2.10272E-05-4.13590E-25
 -1       868 1.03769E-04 2.17844E-05 0.00000E+00
 -1       869 1.03738E-04 2.24391E-05 0.00000E+00
 -1       870 1.03708E-04 2.29737E-05 0.00000E+00
 -1       871 1.03788E-04 1.04706E-05-4.13590E-25
 -1       872 1.03525E-04 1.04672E-05 0.00000E+00
 -1       873 1.03325E-04 1.04633E-05 4.13590E-25
 -1       874 1.03138E-04 1.04589E-05 0.00000E+00
 -1       875 1.02917E-04 1.04540E-05-2.06795E-25
 -1       876 1.04040E-04 1.10691E-05 3.30872E-24
 -1       877 1.03901E-04 1.17203E-05 0.00000E+00
 -1       878 1.03745E-04 1.24189E-05-3.30872E-24
 -1       879 1.03573E-04 1.31590E-05 1.65436E-24
 -1       880 1.03388E-04 1.39345E-05 3.30872E-24
 -1       881 1.03191E-04 1.47394E-05 0.00000E+00
 -1       882 1.02986E-04 1.55679E-05 0.00000E+00
 -1       883 1.02775E-04 1.64140E-05 1.65436E-24
 -1       884 1.02559E-04 1.72716E-05 0.00000E+00
 -1       885 1.02341E-04 1.81349E-05 0.00000E+00
 -1       886 1.02123E-04 1.89980E-05 0.00000E+00
 -1       887 1.01907E-04 1.98548E-05 1.65436E-24
 -1       888 1.01695E-04 2.06994E-05 1.65436E-24
 -1       889 1.01490E-04 2.15257E-05 0.00000E+00
 -1       890 1.01294E-04 2.23278E-05 0.00000E+00
 -1       891 1.03373E-04 2.33253E-05-8.27181E-25
 -1       892 1.03049E-04 2.32795E-05 0.00000E+00
 -1       893 1.02683E-04 2.32337E-05 1.65436E-24
 -1       894 1.02252E-04 2.31881E-05 0.00000E+00
 -1       895 1.01733E-04 2.31425E-05-4.13590E-25
 -1       956 1.04115E-04 2.49230E-06 0.00000E+00
 -1       957 1.04016E-04 2.84899E-06 0.00000E+00
 -1       958 1.03916E-04 3.26190E-06 1.65436E-24
 -1       959 1.03815E-04 3.72381E-06-8.27181E-25
 -1       960 1.03715E-04 4.22750E-06 0.00000E+00
 -1       961 1.03615E-04 4.76570E-06 1.65436E-24
 -1       962 1.03514E-04 5.33115E-06 0.00000E+00
 -1       963 1.03414E-04 5.91656E-06 1.65436E-24
 -1       964 1.03313E-04 6.51468E-06 0.00000E+00
 -1       965 1.03213E-04 7.11821E-06 0.00000E+00
 -1       966 1.03113E-04 7.71988E-06 0.00000E+00
 -1       967 1.03012E-04 8.31242E-06 0.00000E+00
 -1       968 1.02912E-04 8.88854E-06 0.00000E+00
 -1       969 1.02812E-04 9.44101E-06 0.00000E+00
 -1       970 1.02712E-04 9.96258E-06 0.00000E+00
 -1       971 1.02520E-04 1.09474E-05 1.65436E-24
 -1       972 1.02426E-04 1.15304E-05 0.00000E+00
 -1       973 1.02331E-04 1.21863E-05 1.65436E-24
 -1       974 1.02237E-04 1.29058E-05 8.27181E-25
 -1       975 1.02142E-04 1.36796E-05-3.30872E-24
 -1       976 1.02047E-04 1.44983E-05 0.00000E+00
 -1       977 1.01952E-04 1.53526E-05 0.00000E+00
 -1       978 1.01857E-04 1.62331E-05 0.00000E+00
 -1       979 1.01762E-04 1.71305E-05 3.30872E-24
 -1       980 1.01667E-04 1.80355E-05-1.65436E-24
 -1       981 1.01572E-04 1.89385E-05-3.30872E-24
 -1       982 1.01477E-04 1.98303E-05-1.65436E-24
 -1       983 1.01383E-04 2.07015E-05 0.00000E+00
 -1       984 1.01288E-04 2.15427E-05 1.65436E-24
 -1       985 1.01194E-04 2.23447E-05 1.65436E-24
 -3
    1PSTEP                        12           6           1          
  100CL  106 5.39062E-01         409                     0    6           1
 -4  STRESS      6    1
 -5  SXX         1    4    1    1
 -5  SYY         1    4    2    2
 -5  SZZ         1    4    3    3
 -5  SXY         1    4    1    2
 -5  SYZ         1    4    2    3
 -5  SZX         1    4    3    1
 -1         1-2.25488E+06-9.61381E+05-4.76660E+05-1.24200E+06 6.54836E-10-1.41154E-08
 -1         2 2.61631E+03-2.84281E+05 8.52811E+03-8.14903E+02-9.13758E-11 1.58898E-08
 -1         3-2.35127E+02-1.03728E+06 2.48917E+02-5.99546E+02-3.43725E-10 1.09867E-09
 -1         5-2.26908E+00 2.82512E+05 7.29583E+00 9.49168E-02 3.64298E-11 3.52079E-08
 -1         8-1.07864E+06-3.95311E+05-1.02985E+05-5.57651E+05 6.54836E-11-7.15954E-09
 -1         9-2.17560E+06-7.10357E+05-2.71151E+05-6.72820E+05 4.88071E-09-1.05938E-09
 -1        10-9.26773E+02-1.08064E+06-1.48289E+03-4.05714E+03-5.36056E-09-4.84354E-09
 -1        12 7.24108E-01 2.82527E+05 2.36263E+02 7.51509E-01 1.92415E-11 2.49906E-09
 -1        15 2.00530E+03 1.10203E+03 6.48212E+03 4.38186E+00-2.71513E-10-9.20885E-09
 -1        16-2.84382E+06-1.24724E+06-4.62594E+05-1.32291E+06 1.08848E-08-4.26856E-10
 -1        17-1.27164E+06-7.17053E+05-2.45226E+05-6.36627E+05-5.77711E-09 2.53785E-09
 -1        18-4.03059E+04-1.46644E+04-3.18641E+04-7.35190E+04 5.49051E-09-3.24690E-09
 -1        19 8.97224E+04 1.05029E+05-6.33076E+02 1.75525E+04-2.77942E-10 1.67856E-09
 -1        20-4.23729E+04-4.24160E+05-9.39120E+04 2.86730E+04 3.36286E-09-1.27893E-08
 -1        21-3.85560E+01-2.40692E+05-7.62587E+02-5.40440E+01-6.62990E-09-3.45418E-08
 -1        24-3.10119E+06-7.88140E+05-3.53305E+05-1.12242E+06-3.82182E-08-1.93443E-08
 -1        25-5.13015E+04-3.62828E+05-6.63396E+04-1.20039E+05 1.30240E-10-2.05400E-09
 -1        26-2.70808E+04 7.00364E+04-1.57372E+04-7.36319E+03 1.58761E-09 4.73180E-09
 -1        27-6.52372E+04-2.31877E+05-8.66687E+04 5.23009E+04 5.65774E-09-6.67508E-09
 -1        28 1.78410E+04-6.77549E+04 1.36577E+04 2.04375E+04 2.11421E-09-5.65249E-09
 -1        32-1.07956E+06-1.02235E+06 1.82724E+05-5.74697E+05-2.41635E-08 5.20265E-09
 -1        33-1.34274E+05 6.74515E+04 2.40190E+04-3.58154E+04 6.42880E-10 6.50683E-09
 -1        34-1.71758E+05-1.73696E+04 4.25391E+02 5.35259E+04 1.79585E-09-1.45157E-08
 -1        35-1.89233E+04-2.75916E+04-1.26016E+03 4.19582E+04 5.08787E-09 7.10012E-10
 -1        51 2.08109E+04-3.54721E+05 5.09686E+04-9.67207E+05-1.74623E-10-7.27596E-11
 -1        52 1.13127E+04-3.51462E+05 3.19617E+04-1.12801E+06 1.67347E-10-2.38942E-08
 -1        53 7.34838E+03-3.66013E+05 2.48302E+04-9.63802E+05 7.20320E-10 1.22091E-08
 -1        54 2.03252E+04-3.64629E+05 3.69646E+04-1.13153E+06-4.36557E-10 1.89139E-08
 -1        55 3.98908E+04-3.78398E+05 6.42254E+04-9.63244E+05 6.98492E-10 1.49412E-08
 -1        56-4.31098E+06-4.82607E+05-3.50710E+05-1.66519E+06-1.22236E-09-1.04628E-08
 -1        57-4.46208E+06-7.90420E+05-2.36521E+05-1.64015E+06-1.84718E-09-4.00178E-10
 -1        58-4.38154E+06-5.93794E+05-8.24761E+04-1.64300E+06-2.17369E-09-2.37196E-09
 -1        59-4.38059E+06-6.59707E+05-4.92379E+04-1.66626E+06-2.93949E-09 4.84579E-09
 -1        60-4.39156E+06-6.09580E+05-1.92355E+04-1.64032E+06 3.16049E-09-2.08065E-08
 -1        61-4.37089E+06-6.39222E+05-1.09044E+04-1.66701E+06-1.47907E-10-8.36144E-09
 -1        62-4.39101E+06-6.13817E+05-5.20645E+03-1.64234E+06 3.15640E-09-1.21259E-08
 -1        63-4.37491E+06-6.31259E+05-4.16543E+03-1.66075E+06-1.35037E-09 4.39724E-09
 -1        64-4.38743E+06-6.17544E+05-4.68014E+03-1.64653E+06-2.34422E-10-3.72074E-09
 -1        65-4.38406E+06-6.25009E+05-9.25040E+03-1.65121E+06-1.87720E-09-4.57248E-10
 -1        66-4.38182E+06-6.20146E+05-1.62210E+04-1.65184E+06 7.13612E-10 7.23321E-09
 -1        67-4.40231E+06-6.32008E+05-4.12418E+04-1.63899E+06 3.14003E-10 1.58166E-08
 -1        68-4.36938E+06-6.10935E+05-6.91291E+04-1.65866E+06 1.77351E-09-2.16824E-09
 -1        69-4.47583E+06-7.36441E+05-1.98121E+05-1.61154E+06 4.71482E-09 2.75031E-09
 -1        70-4.30921E+06-5.18775E+05-2.93832E+05-1.67835E+06-7.27596E-12-7.53789E-09
 -1        86-1.31437E+03-2.87099E+05 9.10395E+03 4.07439E+02 1.11845E-09 3.23780E-09
 -1        87 8.69254E+03-2.81396E+05 1.90274E+04-1.57479E+03 1.81535E-09 1.11324E-08
 -1        88-7.36796E+03-2.89985E+05 2.91280E+04 1.16734E+03 2.60479E-09-4.93833E-09
 -1        89 5.48807E+04-2.60100E+05 7.85197E+04-2.88974E+03 4.00451E-09-2.33659E-08
 -1        90-4.73362E+04-3.08375E+05 1.11025E+05 1.72282E+03 3.89264E-09-1.38476E-09
 -1       121-3.44393E+02-1.03818E+06 1.26199E+02 2.99118E+02 5.98490E-10-1.19780E-08
 -1       122-1.49777E+02-1.03724E+06 5.29511E+02-1.19796E+03-2.04318E-09-1.82263E-09
 -1       123-3.95356E+02-1.03825E+06 7.41553E+02 8.94945E+02 1.86128E-09-1.76442E-10
 -1       124 8.34572E+02-1.03669E+06 2.18524E+03-2.58408E+03-4.26303E-09 9.97807E-09
 -1       125-1.01108E+03-1.03880E+06 3.23542E+03 1.68286E+03 2.65391E-09-3.85080E-09
 -1       191-2.62573E+00 2.82537E+05 8.87270E+00-4.76521E-02 8.09333E-11 1.21836E-08
 -1       192-2.93797E+00 2.82512E+05 1.54397E+01 4.28626E-01 1.13913E-10-4.36103E-10
 -1       193-4.40480E+00 2.82536E+05 2.88612E+01-3.82447E-01 1.34149E-10-7.64339E-09
 -1       194-5.09080E+00 2.82515E+05 5.83806E+01 1.02275E+00 7.66098E-11-3.29539E-08
 -1       195-7.82390E+00 2.82534E+05 1.14342E+02-6.44998E-01 1.53015E-10-1.25483E-08
 -1       251-1.09320E+06 5.00895E+03-1.19314E+04-9.27037E+03-5.25290E-10-1.23309E-08
 -1       252-1.09718E+06-5.76637E+03-8.18982E+03 1.14344E+04 8.52452E-10-9.43282E-09
 -1       253-1.09575E+06 7.18036E+02-3.22676E+03-4.71879E+03-4.20755E-10-1.51292E-08
 -1       254-1.09413E+06-8.54302E+02-1.58115E+03 7.80158E+02-2.02090E-09 7.19427E-09
 -1       255-1.09618E+06 5.93740E+01-9.23862E+02 1.38397E+03-1.70758E-10 6.47248E-09
 -1       256-1.09418E+06-8.00872E+01-1.28183E+02-1.05214E+04-2.16079E-09 3.28697E-09
 -1       257-1.09574E+06-2.12317E+01-1.06997E+02 6.58259E+03-4.36557E-11 2.58450E-09
 -1       258-1.09505E+06 1.21095E+02 3.07970E+02-1.79123E+04-1.46774E-09 3.34472E-09
 -1       259-1.09540E+06-6.93202E+01 6.10080E+02 8.77519E+03-6.20037E-10 2.04940E-09
 -1       260-1.09491E+06 5.34634E+02 1.51059E+03-1.84110E+04-8.09067E-10-6.23754E-09
 -1       261-1.09588E+06-4.26811E+02 2.51556E+03 7.08138E+03 1.94177E-09-7.87759E-09
 -1       262-1.09273E+06 3.06264E+03 6.55723E+03-1.18203E+04 9.29731E-10-4.54759E-09
 -1       263-1.09749E+06-2.65818E+03 9.97852E+03 2.18420E+03-2.82284E-10-3.17505E-09
 -1       264-1.08451E+06 1.95043E+04 2.80212E+04-8.37959E+02-9.16458E-10-9.93487E-09
 -1       265-1.10402E+06-1.68579E+04 3.90787E+04-3.90090E+03-1.30649E-09 8.29823E-09
 -1       266-3.63014E+04-1.69718E+04 8.51864E+04-9.37706E+01-1.01863E-10-1.32949E-08
 -1       267 4.20845E+04 1.97852E+04 6.02019E+04 1.08177E+02-2.20098E-10-4.62400E-08
 -1       268-5.64340E+03-2.80191E+03 2.23772E+04-1.37845E+01-2.54659E-10-5.55199E-08
 -1       269 6.66327E+03 3.35355E+03 1.45444E+04 1.60560E+01-1.08002E-10-4.83765E-08
 -1       270-1.00016E+03-5.51001E+02 7.02081E+03-2.17895E+00-1.72577E-10-2.48850E-08
 -1       271-3.41254E+06-4.27055E+05-2.59171E+05-1.32960E+06 7.42148E-10 4.99131E-09
 -1       272-3.50087E+06-6.20708E+05-1.66629E+05-1.33233E+06-1.29489E-09-5.02951E-09
 -1       273-3.46267E+06-4.90297E+05-6.12322E+04-1.31648E+06-4.89308E-10 4.01269E-09
 -1       274-3.44147E+06-5.43933E+05-3.42346E+04-1.35293E+06 2.45109E-10 1.42936E-08
 -1       275-3.47116E+06-4.95193E+05-1.42646E+04-1.31249E+06 1.14596E-10 4.31373E-09
 -1       276-3.43088E+06-5.38820E+05-7.54226E+03-1.35973E+06 1.27329E-09-1.16627E-08
 -1       277-3.47370E+06-4.94189E+05-3.71040E+03-1.31040E+06-3.36968E-10-2.67687E-09
 -1       278-3.42794E+06-5.40248E+05-2.66600E+03-1.36294E+06-4.75893E-10 5.42379E-09
 -1       279-3.47446E+06-4.93450E+05-2.84344E+03-1.30959E+06-1.75191E-09-5.00916E-09
 -1       280-3.42813E+06-5.41166E+05-5.21191E+03-1.36328E+06-8.89315E-10-8.53277E-09
 -1       281-3.47358E+06-4.93281E+05-9.48914E+03-1.31009E+06-2.00544E-10-1.34423E-09
 -1       282-3.43413E+06-5.45640E+05-2.27434E+04-1.36011E+06 6.25732E-10 8.92032E-09
 -1       283-3.46829E+06-4.89718E+05-4.05321E+04-1.31237E+06-4.69527E-10-1.83900E-09
 -1       284-3.47316E+06-5.96713E+05-1.10396E+05-1.34658E+06-6.23118E-10 3.39787E-09
 -1       285-3.43495E+06-4.48029E+05-1.71714E+05-1.32123E+06-2.76486E-10 4.93310E-09
 -1       301 2.11558E+04-5.27025E+04 1.56161E+05-1.01348E+05-5.45697E-10-5.50381E-09
 -1       302 2.22476E+04-1.31747E+04 1.03754E+05-1.49010E+05 1.29239E-09-1.27811E-08
 -1       303 1.12107E+03-3.72748E+04 8.16334E+04-1.01438E+05-6.87578E-10 5.20595E-09
 -1       304 2.77426E+04-7.48848E+03 1.22289E+05-1.48550E+05 9.02219E-10 9.65156E-09
 -1       305 2.68098E+04-5.73955E+04 1.97134E+05-1.01849E+05-4.94765E-10 1.48775E-08
 -1       306-5.67782E+06-6.12457E+05-4.29734E+05-2.14089E+06 1.89175E-10-3.69619E-09
 -1       307-5.63039E+06-1.15372E+06-2.79598E+05-2.28989E+06-2.34650E-08 1.54250E-08
 -1       308-5.82741E+06-6.63131E+05-1.00779E+05-2.00881E+06-4.62762E-09 6.12636E-09
 -1       309-5.46818E+06-1.09104E+06-5.84299E+04-2.45915E+06 1.06779E-08-8.95670E-09
 -1       310-5.85147E+06-6.63720E+05-2.27552E+04-1.98124E+06 3.01497E-09 4.70845E-09
 -1       311-5.47594E+06-1.02833E+06-9.34859E+03-2.40964E+06 3.59623E-08 2.03117E-08
 -1       312-5.81394E+06-7.29438E+05-1.23325E+04-2.05446E+06 1.34060E-09 9.38689E-09
 -1       313-5.59534E+06-8.64965E+05 4.33574E+03-2.20346E+06-3.95721E-09 8.15999E-09
 -1       314-5.71901E+06-8.36366E+05-1.60883E+04-2.17771E+06 5.41695E-09 2.36014E-09
 -1       315-5.80873E+06-6.68368E+05-6.72958E+03-1.98091E+06-2.71320E-08 1.45556E-08
 -1       316-5.60447E+06-9.23239E+05-2.96374E+04-2.27950E+06-2.89074E-08-1.03246E-08
 -1       317-5.99627E+06-5.66298E+05-6.68241E+04-1.85207E+06 2.77992E-08-3.19897E-08
 -1       318-5.54505E+06-9.29379E+05-1.12878E+05-2.31681E+06-2.97168E-08 1.07393E-08
 -1       319-6.08800E+06-7.70410E+05-3.27016E+05-1.82998E+06-1.26493E-08 4.92946E-09
 -1       320-5.51207E+06-7.23216E+05-4.88672E+05-2.29940E+06 1.74332E-08-6.28643E-09
 -1       336 5.61838E+02-1.12389E+06-6.32526E+03 2.36352E+03-1.09685E-08-6.51198E-10
 -1       337-2.33640E+03-1.12506E+06-7.00299E+03-5.83168E+03-2.00771E-08-3.91447E-09
 -1       338 3.78242E+02-1.12403E+06-9.21578E+03 3.44791E+03-1.43732E-08-5.13683E-09
 -1       339-9.52440E+03-1.12968E+06-2.01467E+04-7.95445E+03-2.67319E-08 6.14000E-09
 -1       340 6.31873E+03-1.11954E+06-3.12464E+04 4.46819E+03-1.74205E-08 2.41380E-09
 -1       406 1.89170E+01 2.82524E+05 4.66592E+02-1.13388E-01 2.40902E-10 1.34023E-08
 -1       407 1.63333E+02 2.82609E+05 9.91331E+02-4.06908E+00-3.45892E-11 2.15243E-08
 -1       408 5.11120E+02 2.82452E+05 1.98007E+03 4.28152E+00 2.42267E-10 4.45266E-09
 -1       409 2.14138E+03 2.83242E+05 4.45734E+03-4.21446E+01-3.42197E-11-1.11104E-08
 -1       410 6.15127E+03 2.81890E+05 9.09959E+03 3.96609E+01 2.75577E-10-4.31623E-09
 -1       521-8.17524E+06-7.90968E+05-7.90807E+05-2.55326E+06-8.49832E-09 2.08383E-08
 -1       522-5.66682E+06-2.10004E+06-2.02612E+05-3.95281E+06-9.28449E-08-1.92886E-08
 -1       523-8.17381E+06-3.38013E+05-1.55708E+05-1.79651E+06-5.84987E-09-4.76211E-08
 -1       524-6.03669E+06-2.27805E+06-3.55518E+04-4.96026E+06 1.00327E-07-1.09926E-07
 -1       525-8.17372E+06-3.37549E+05-4.32110E+04-1.76554E+06 4.73374E-08-8.59945E-08
 -1       526-5.58127E+06-1.94439E+06 1.34049E+05-4.10029E+06 4.87926E-08-8.13270E-09
 -1       527-8.29502E+06-9.17231E+05-2.15759E+05-2.46079E+06 4.95638E-08 6.65023E-09
 -1       528-5.75608E+06-8.97556E+05 2.71608E+05-2.31235E+06 6.98492E-10 1.85282E-08
 -1       529-7.65720E+06-1.62417E+06-2.34814E+05-3.26903E+06 2.46800E-08 8.03993E-09
 -1       530-7.76728E+06 4.03145E+05 1.58553E+05-1.32085E+06-9.31323E-09 6.82594E-08
 -1       531-6.59810E+06-1.98665E+06-6.21061E+04-3.64357E+06-1.10755E-07 3.17959E-09
 -1       532-9.30347E+06 9.99627E+05-3.02381E+04-1.23149E+06 9.72359E-08-1.03771E-07
 -1       533-6.45600E+06-1.99228E+06-1.30214E+05-3.67158E+06 2.11949E-08-1.50145E-07
 -1       534-8.31139E+06 4.05017E+05-2.06119E+05-1.23350E+06-4.08836E-08 1.06746E-07
 -1       535-7.34902E+06-1.55977E+06-7.40024E+05-3.40714E+06-1.55123E-08 7.47677E-08
 -1       536-3.90401E+05-1.90843E+04 3.32457E+04-1.33760E+04-3.55283E-09 1.84682E-08
 -1       537-3.31354E+05 2.14030E+04 3.13288E+04 3.20674E+04-3.59838E-08 4.33138E-08
 -1       538-3.61706E+05-2.06774E+03 9.95760E+03-1.95549E+04 8.57123E-09 3.72497E-08
 -1       539-3.48645E+05 3.04855E+03 8.20783E+03 3.49685E+04 5.00964E-08 2.58131E-08
 -1       540-3.73343E+05-5.38438E+02 3.81906E+01-1.62839E+04 6.81246E-09 2.97508E-08
 -1       541-3.12172E+05 1.98888E+03 1.10487E+04 2.00004E+04 3.40378E-09 2.45981E-08
 -1       542-3.97197E+05-1.82340E+03-6.88992E+03-4.56698E+03 1.05924E-08 1.28495E-08
 -1       543-2.95920E+05 2.22261E+03 1.30081E+04-5.98257E+03-1.12050E-09-1.07616E-09
 -1       544-3.89177E+05-1.13609E+03-6.23467E+03 9.67980E+03-6.62033E-09-1.27034E-08
 -1       545-3.30696E+05 1.14583E+02 4.51120E+03-2.88228E+04-3.96028E-10-3.21038E-08
 -1       546-3.63319E+05 1.02910E+03-3.10372E+03 1.82694E+04 3.08091E-11-2.68474E-08
 -1       547-3.55115E+05-3.39449E+03-5.29619E+03-3.66428E+04-2.92921E-08-2.92584E-08
 -1       548-3.65355E+05 2.88013E+03-1.17469E+04 1.75147E+04-3.31105E-08-3.27832E-08
 -1       549-3.32148E+05-1.72209E+04-2.09389E+04-2.59297E+04-2.26335E-08-5.11773E-09
 -1       550-3.85510E+05 1.41930E+04-4.80395E+04 7.53851E+03 1.75828E-09-3.28146E-09
 -1       551 1.72610E+04-5.80203E+05 2.43840E+04-9.65345E+05-4.75338E-08 7.20320E-09
 -1       552 3.91997E+04-5.91816E+05 3.18105E+04-1.37496E+06-3.56522E-08 2.91620E-08
 -1       553 2.79386E+04-5.97771E+05 4.65821E+04-9.61710E+05-5.62286E-08 1.90776E-08
 -1       554 6.58421E+04-5.87578E+05 9.75953E+04-1.37639E+06-3.67872E-08 6.00539E-09
 -1       555 5.61192E+04-6.16422E+05 1.73348E+05-9.62654E+05-5.90517E-08-6.59566E-09
 -1       556 1.00527E+05-1.86143E+05 6.21347E+04-2.35254E+05-8.44011E-09 3.20142E-10
 -1       557 1.76081E+05-2.47206E+05 3.28912E+04-2.95807E+05 2.10275E-09 1.81899E-09
 -1       558 9.87049E+04-1.93559E+05 1.29076E+04-2.28962E+05-7.34872E-09-3.99450E-09
 -1       559 1.63872E+05-2.55128E+05 6.67529E+03-3.01736E+05 7.50151E-09-1.75351E-09
 -1       560 9.51664E+04-1.91265E+05 2.53406E+03-2.31313E+05 4.20550E-09 1.08703E-08
 -1       561 1.58788E+05-2.53551E+05 1.43810E+03-3.04994E+05-1.07684E-09 6.75118E-09
 -1       562 9.23542E+04-1.89432E+05 4.35021E+02-2.33333E+05 5.29690E-09-1.91358E-09
 -1       563 1.55485E+05-2.52121E+05 3.52023E+02-3.07111E+05 1.15615E-08 8.61746E-11
 -1       564 9.05261E+04-1.88269E+05 9.57599E+01-2.34627E+05 1.32495E-08 5.02951E-10
 -1       565 1.53625E+05-2.51316E+05 1.13550E+02-3.08287E+05 2.19188E-09-1.38243E-10
 -1       566 8.97298E+04-1.87754E+05 1.62035E+01-2.35191E+05-1.08412E-09 1.59889E-09
 -1       567 1.53162E+05-2.51103E+05-5.90685E+01-3.08500E+05 1.10883E-08-4.01633E-09
 -1       568 9.00057E+04-1.87938E+05-2.95831E+02-2.35077E+05 2.33922E-09-5.80985E-09
 -1       569 1.53326E+05-2.50983E+05-7.11554E+02-3.07028E+05 8.03811E-09 1.99943E-08
 -1       570 9.19932E+04-1.89595E+05-1.66946E+03-2.34862E+05 7.37055E-09-4.15275E-09
 -1       571 2.09272E+05 7.70848E+03 1.13811E+04-5.42584E+04 3.21052E-10 1.04751E-09
 -1       572 2.10961E+05 2.70360E+03 5.57623E+03-5.94950E+04-1.12368E-09 3.30056E-09
 -1       573 2.09948E+05 6.66964E+02 2.47729E+03-5.41272E+04 1.04137E-09 9.28412E-09
 -1       574 2.10145E+05 2.41477E+02 1.24137E+03-5.96438E+04-3.94721E-10-6.72117E-09
 -1       575 2.10023E+05 5.97172E+01 5.85268E+02-5.41099E+04 1.50294E-10-7.05768E-10
 -1       576 2.10034E+05 4.22190E+01 2.98334E+02-5.96637E+04-2.52346E-09-3.50610E-09
 -1       577 2.10036E+05 2.57217E+01 1.47605E+02-5.41076E+04-1.70439E-09 7.68432E-09
 -1       578 2.10028E+05 2.97158E+01 8.18824E+01-5.96661E+04-2.89924E-09 4.97539E-09
 -1       579 2.10054E+05 2.01143E+01 5.23458E+01-5.41075E+04 5.25688E-10-7.07905E-09
 -1       580 2.10053E+05 1.90973E+01 5.29647E+01-5.96630E+04-4.05635E-10 1.75032E-09
 -1       581 2.10085E+05 7.86245E+00 7.58042E+01-5.41107E+04 8.13088E-10 1.20963E-10
 -1       582 2.10107E+05 2.05420E+01 1.48033E+02-5.96298E+04 7.45786E-11-3.45062E-09
 -1       583 2.10120E+05 5.28272E+01 2.85264E+02-5.41407E+04 5.63887E-10-6.63999E-09
 -1       584 2.10256E+05 2.77055E+02 6.41099E+02-5.93789E+04 2.94676E-10-3.34830E-09
 -1       585 2.10093E+05 8.39388E+02 1.30187E+03-5.43621E+04 1.43882E-09 8.78572E-10
 -1       586-2.49657E+03 6.90808E+04-3.15199E+03-1.86562E+05-6.73026E-11-1.61543E-08
 -1       587-5.52906E+02 6.86776E+04-1.56752E+02-2.05327E+05 4.03816E-10-1.95597E-08
 -1       588 7.22872E+02 6.87304E+04 2.71759E+03-1.86463E+05-3.87445E-10-1.65628E-08
 -1       589 3.78323E+03 7.02044E+04 7.64587E+03-2.05129E+05-9.84073E-10-8.23047E-09
 -1       590 1.10207E+04 6.78639E+04 1.62732E+04-1.86767E+05-4.76575E-10-7.42239E-09
 -1       591-4.44971E+04-1.21036E+04-1.48869E+04-2.22179E+04 2.68312E-09-8.93397E-09
 -1       592-4.61966E+04-1.54550E+04-8.06348E+03-2.57534E+04-9.33937E-11-6.47242E-09
 -1       593-4.59978E+04-1.10113E+04-3.35680E+03-2.32978E+04 3.50053E-09-6.24618E-09
 -1       594-4.41269E+04-1.32861E+04-1.67419E+03-2.58505E+04 6.94263E-09-1.53600E-08
 -1       595-4.61127E+04-1.10066E+04-7.69251E+02-2.33472E+04 4.95254E-09-3.06391E-09
 -1       596-4.39864E+04-1.31868E+04-3.91931E+02-2.58355E+04 2.33945E-09 2.06968E-08
 -1       597-4.61273E+04-1.10163E+04-2.15314E+02-2.33492E+04 3.56513E-09 7.30284E-09
 -1       598-4.39729E+04-1.31830E+04-1.76567E+02-2.58312E+04-6.21867E-10 6.02753E-09
 -1       599-4.61261E+04-1.10164E+04-2.29895E+02-2.33488E+04-1.71440E-10-1.81876E-09
 -1       600-4.39875E+04-1.31880E+04-4.30546E+02-2.58347E+04 1.45434E-09-1.20502E-08
 -1       601-4.61080E+04-1.10063E+04-8.51205E+02-2.33458E+04-4.57248E-10-1.05820E-08
 -1       602-4.41429E+04-1.32979E+04-1.85605E+03-2.58491E+04-1.86265E-09-1.24737E-08
 -1       603-4.59789E+04-1.10135E+04-3.72268E+03-2.32913E+04 2.82307E-09-1.58184E-09
 -1       604-4.64472E+04-1.56929E+04-8.94242E+03-2.57280E+04 6.45696E-09 8.28572E-09
 -1       605-4.43029E+04-1.22340E+04-1.65095E+04-2.21037E+04 2.92528E-09 1.65528E-10
 -1       606 2.75688E+04-1.00591E+04-1.80957E+04 2.67858E+04-1.17070E-08 4.24552E-09
 -1       607 2.44708E+04-3.25269E+03-9.01064E+03 3.00713E+04-2.12676E-08 9.56788E-10
 -1       608 2.62272E+04-5.56167E+02-4.03520E+03 2.65741E+04-7.99082E-09 5.81008E-09
 -1       609 2.58781E+04-1.52163E+02-2.03801E+03 3.03070E+04-2.92766E-09 3.39060E-09
 -1       610 2.60639E+04 1.74936E+01-9.73522E+02 2.65503E+04-4.88035E-09 8.51583E-09
 -1       611 2.59985E+04 3.01708E+01-4.90880E+02 3.03327E+04-7.21593E-09 1.95569E-08
 -1       612 2.60198E+04 3.40287E+01-2.34713E+02 2.65480E+04-1.67620E-09 4.70459E-09
 -1       613 2.59953E+04 3.94360E+01-1.06475E+02 3.03358E+04-1.89993E-09 2.06887E-09
 -1       614 2.59954E+04 3.51449E+01-2.86860E+01 2.65472E+04 9.99353E-09 1.01024E-08
 -1       615 2.59825E+04 4.54672E+01 3.60000E+01 3.03362E+04 2.08856E-08 5.43105E-09
 -1       616 2.59768E+04 4.14342E+01 1.15833E+02 2.65475E+04 3.20188E-09-6.02722E-09
 -1       617 2.59896E+04 7.43642E+01 2.67576E+02 3.03357E+04 5.64796E-10 4.06931E-09
 -1       618 2.59485E+04 1.21805E+02 5.40425E+02 2.65476E+04 1.60026E-09-8.18613E-09
 -1       619 2.61763E+04 4.94893E+02 1.21439E+03 3.03349E+04 3.26281E-09 1.36220E-09
 -1       620 2.57664E+04 1.40582E+03 2.44104E+03 2.65465E+04 4.91161E-09 4.71709E-09
 -1       621 3.00138E+02 2.20473E+05 2.68777E+03 1.13034E+04-1.18689E-10 4.35421E-10
 -1       622 3.53968E+02 2.21135E+05 2.38901E+03 1.64714E+04-4.66116E-11-4.56475E-09
 -1       623 1.73878E+01 2.20646E+05 2.88755E+03 1.12498E+04 3.41061E-12-5.87283E-09
 -1       624 1.34719E+03 2.22040E+05 5.60567E+03 1.65254E+04 6.95763E-11-2.81938E-09
 -1       625 1.35410E+03 2.19553E+05 9.80284E+03 1.12493E+04 7.95808E-11-1.45877E-09
 -1       626 1.88439E+05 5.08132E+04 3.93590E+03 9.98797E+04-1.38334E-09-4.24188E-09
 -1       627 1.86057E+05 5.24860E+04 1.89668E+03 1.03833E+05 3.54703E-10-1.04317E-08
 -1       628 1.88569E+05 4.89701E+04 8.01172E+02 1.00495E+05 5.08044E-09 1.11261E-08
 -1       629 1.85509E+05 5.20173E+04 3.92525E+02 1.04068E+05 4.32419E-09 4.20334E-09
 -1       630 1.88577E+05 4.88836E+04 1.81361E+02 1.00513E+05-8.31096E-09 2.67238E-09
 -1       631 1.85443E+05 5.20054E+04 9.72041E+01 1.04068E+05-2.07547E-08 3.95409E-09
 -1       632 1.88567E+05 4.88906E+04 6.33007E+01 1.00504E+05-1.14701E-08 1.87782E-09
 -1       633 1.85429E+05 5.20107E+04 6.95527E+01 1.04061E+05-1.35424E-09-2.54090E-11
 -1       634 1.88557E+05 4.88916E+04 1.11468E+02 1.00500E+05 6.68979E-09-1.08571E-09
 -1       635 1.85433E+05 5.20122E+04 2.25267E+02 1.04060E+05 4.83192E-09-5.42263E-09
 -1       636 1.88545E+05 4.88903E+04 4.54612E+02 1.00497E+05-2.96740E-09-3.01725E-09
 -1       637 1.85527E+05 5.20843E+04 9.99017E+02 1.04056E+05-1.13434E-09-1.14192E-08
 -1       638 1.88507E+05 4.91126E+04 2.05292E+03 1.00395E+05-1.68734E-09 4.85579E-09
 -1       639 1.86603E+05 5.35848E+04 4.85663E+03 1.03737E+05-3.81897E-09 1.79275E-08
 -1       640 1.88363E+05 5.35839E+04 1.00785E+04 9.84986E+04-2.07046E-09 7.48969E-10
 -1       656 5.03138E+04-1.27619E+06-1.21456E+05-4.34776E+02 1.67347E-09-3.25440E-09
 -1       657-6.65042E+04-1.33101E+06-1.00486E+05 7.57481E+03 1.55069E-09-8.75432E-09
 -1       658 1.59756E+04-1.29181E+06-6.17173E+04-1.77301E+03-5.42173E-10-5.66765E-09
 -1       659-7.14539E+04-1.33336E+06-1.06987E+05 8.50526E+03-7.79437E-10 8.37386E-09
 -1       660 5.52519E+04-1.27385E+06-1.32637E+05-1.36521E+03 1.09139E-10-5.81880E-09
 -1       661 1.67894E+05 1.81947E+04 1.63400E+04 6.56417E+04 2.36787E-09-1.63345E-09
 -1       662 1.76495E+05 3.09221E+04 1.10106E+04 6.26999E+04-1.19991E-09 2.78715E-09
 -1       663 1.71099E+05 2.34404E+04 3.85153E+03 6.47151E+04-1.17052E-09-3.41402E-09
 -1       664 1.72785E+05 2.47832E+04 2.30296E+03 6.38278E+04 1.82922E-10-1.08290E-09
 -1       665 1.71581E+05 2.41612E+04 9.08533E+02 6.45788E+04-1.15296E-09 1.62512E-09
 -1       666 1.72219E+05 2.39555E+04 5.30307E+02 6.40035E+04-7.18359E-09-2.40252E-09
 -1       667 1.71662E+05 2.42463E+04 2.80250E+02 6.45476E+04-2.74318E-09 9.55190E-09
 -1       668 1.72131E+05 2.38901E+04 2.82163E+02 6.40489E+04 9.13190E-10-3.16331E-09
 -1       669 1.71668E+05 2.42246E+04 3.79269E+02 6.45341E+04-1.01346E-09 2.90007E-09
 -1       670 1.72225E+05 2.40929E+04 8.23292E+02 6.40501E+04 6.77181E-09-1.29084E-09
 -1       671 1.71568E+05 2.40475E+04 1.46093E+03 6.45448E+04-6.44995E-10-7.54193E-09
 -1       672 1.73076E+05 2.55148E+04 3.73711E+03 6.38452E+04-7.09579E-09-2.54113E-09
 -1       673 1.70822E+05 2.28385E+04 6.26248E+03 6.47253E+04-3.40356E-09 5.62409E-09
 -1       674 1.79037E+05 3.55751E+04 1.79094E+04 6.20932E+04 1.15136E-09-2.73030E-09
 -1       675 1.65646E+05 1.42685E+04 2.65833E+04 6.61907E+04 3.06045E-09-1.48611E-09
 -1       676 1.97908E+01-2.40629E+05-9.19115E+02 2.70226E+01 1.67489E-10-6.79552E-09
 -1       677-2.44037E+02-2.40851E+05-1.68210E+03-5.40143E+01-6.63817E-10-1.02952E-08
 -1       678 1.62938E+02-2.40471E+05-2.97351E+03 2.69734E+01 1.96326E-09-1.86264E-09
 -1       679-2.97427E+03-2.42646E+05-7.06364E+03-5.38213E+01 1.22736E-09-5.07711E-10
 -1       680 1.77507E+03-2.38835E+05-1.13842E+04 2.65265E+01 4.95220E-10 6.36161E-09
 -1       771-2.56521E+06-4.90846E+05-7.15228E+04-1.10885E+06-1.55851E-08-1.22818E-08
 -1       772-2.53630E+06-5.35129E+05-3.78629E+04-1.15891E+06-1.16852E-08 6.40284E-09
 -1       773-2.57682E+06-4.81702E+05-1.72977E+04-1.11302E+06-5.39876E-09 5.20959E-09
 -1       774-2.52748E+06-5.27437E+05-8.16030E+03-1.16625E+06 1.10012E-08-5.02223E-09
 -1       775-2.58095E+06-4.78813E+05-4.79886E+03-1.11391E+06 8.29459E-10 1.85537E-10
 -1       776-2.52875E+06-5.27393E+05-2.02539E+03-1.17100E+06 7.12316E-09 4.93674E-09
 -1       777-2.58421E+06-4.76407E+05-1.68688E+03-1.11465E+06 8.49832E-09 5.42059E-10
 -1       778-2.53051E+06-5.27509E+05-5.87224E+02-1.17501E+06-1.00044E-09 4.71209E-09
 -1       779-2.58691E+06-4.74358E+05-7.66579E+02-1.11529E+06-7.10861E-09-3.25781E-09
 -1       780-2.53211E+06-5.27571E+05-2.76363E+02-1.17825E+06-4.03452E-09 1.67347E-10
 -1       781-2.58899E+06-4.72730E+05-5.21272E+02-1.11579E+06-2.54804E-08 2.78396E-09
 -1       782-2.53338E+06-5.27608E+05-5.17219E+02-1.18064E+06-4.23715E-08-1.73873E-09
 -1       783-2.59039E+06-4.71632E+05-1.06263E+03-1.11613E+06-1.66074E-08-2.14436E-09
 -1       784-2.53475E+06-5.28222E+05-2.32447E+03-1.18206E+06-1.34714E-08-2.09889E-09
 -1       785-2.59069E+06-4.71385E+05-4.33802E+03-1.11600E+06-1.47738E-08 8.27004E-09
 -1       786 1.58325E+05-9.44306E+03 2.18466E+04-7.39406E+01 1.11214E-09 7.85622E-09
 -1       787 1.67794E+05 1.09321E+04 1.54559E+04 1.79749E+01 2.05995E-09 1.13066E-08
 -1       788 1.61977E+05-1.48028E+03 5.65389E+03-5.60665E+01 7.60106E-10 1.35217E-08
 -1       789 1.63539E+05 1.71270E+03 3.55159E+03-1.13769E+01-5.56529E-10 1.16679E-08
 -1       790 1.62580E+05-2.31151E+02 1.44330E+03-4.45912E+01-1.85309E-10 3.52037E-09
 -1       791 1.62835E+05 2.68042E+02 8.43873E+02-3.22108E+01-8.51127E-10 4.76280E-09
 -1       792 1.62682E+05-3.67042E+01 3.78170E+02-3.52326E+01-4.96368E-10-6.71416E-09
 -1       793 1.62719E+05 4.81765E+01 2.33615E+02-5.14765E+01-4.72669E-10-5.27234E-09
 -1       794 1.62696E+05-1.14272E+01 1.51344E+02-2.53252E+01 1.22255E-09-5.67805E-09
 -1       795 1.62718E+05 5.06947E+01 1.87548E+02-7.44989E+01-4.41085E-10 3.14164E-09
 -1       796 1.62682E+05-3.92173E+01 2.61953E+02-1.22099E+01 5.78948E-10 5.17898E-09
 -1       797 1.62832E+05 2.85610E+02 6.01969E+02-1.07427E+02 1.56723E-10-2.73012E-10
 -1       798 1.62582E+05-2.46172E+02 9.45102E+02 7.60380E+00 6.60250E-11 1.74344E-09
 -1       799 1.63540E+05 1.81740E+03 2.57206E+03-1.59153E+02-1.51205E-10 6.90557E-09
 -1       800 1.61975E+05-1.56978E+03 3.63180E+03 3.95172E+01-2.52358E-11 8.40259E-09
 -1       801 5.10685E+04-1.86800E+06-1.68966E+05 3.41901E+04 1.49594E-08 1.32422E-09
 -1       802-5.68957E+04-1.70382E+06-6.57304E+04-6.17219E+04 4.05016E-08-1.52886E-09
 -1       803 5.16460E+03-1.78032E+06-9.78911E+03 8.71957E+04 3.17013E-08 3.11534E-08
 -1       804 5.21882E+04-1.65000E+06 7.79206E+04-4.18456E+04 3.45608E-08 3.06868E-08
 -1       805-5.87355E+04-1.92120E+06 7.70364E+04 1.43058E+04 1.28784E-08 2.15632E-08
 -1       806-2.29146E+05-4.60545E+04-1.80730E+04-9.23146E+04 8.86394E-09-3.13639E-09
 -1       807-2.30485E+05-4.31894E+04-8.87898E+03-9.67892E+04 2.09127E-08-9.84070E-09
 -1       808-2.29642E+05-3.95413E+04-3.76656E+03-9.53963E+04 7.69842E-09 1.01863E-09
 -1       809-2.28608E+05-4.07060E+04-1.84157E+03-9.70224E+04 7.66931E-10 9.67657E-09
 -1       810-2.29719E+05-3.93131E+04-8.43538E+02-9.55326E+04 2.35696E-09 4.11706E-09
 -1       811-2.28463E+05-4.06067E+04-4.18822E+02-9.69975E+04 3.86376E-09 8.80061E-09
 -1       812-2.29732E+05-3.93312E+04-2.10122E+02-9.55324E+04-1.86128E-09-7.52448E-09
 -1       813-2.28444E+05-4.06087E+04-1.34147E+02-9.69848E+04 3.84716E-10 3.75167E-10
 -1       814-2.29729E+05-3.93380E+04-1.28674E+02-9.55295E+04 1.83536E-09 1.45594E-08
 -1       815-2.28447E+05-4.06106E+04-2.03901E+02-9.69808E+04 2.27783E-09 6.79688E-09
 -1       816-2.29715E+05-3.93366E+04-3.83852E+02-9.55270E+04-1.38607E-09 1.75714E-09
 -1       817-2.28513E+05-4.06472E+04-8.23382E+02-9.69736E+04-5.70708E-10 2.31557E-09
 -1       818-2.29667E+05-3.94519E+04-1.67857E+03-9.54723E+04 1.12323E-09-4.64524E-09
 -1       819-2.29435E+05-4.16589E+04-3.95028E+03-9.67546E+04 6.40284E-10-2.11912E-09
 -1       820-2.29352E+05-4.24342E+04-8.03974E+03-9.41950E+04 1.06775E-09-1.77567E-09
 -1       821-2.88261E+05 1.59490E+04-3.68847E+04 2.42810E+02 1.03736E-09-5.09499E-09
 -1       822-3.04243E+05-1.84637E+04-2.61010E+04-9.22546E+02-1.44502E-09-1.42245E-09
 -1       823-2.94428E+05 2.50073E+03-9.55297E+03 2.45951E+02-3.60620E-10-3.65299E-09
 -1       824-2.97045E+05-2.89415E+03-6.00981E+03-7.58625E+02 3.76748E-10 1.53432E-09
 -1       825-2.95457E+05 3.91194E+02-2.47219E+03 7.88872E+01-1.48127E-09-2.17688E-09
 -1       826-2.95842E+05-4.61072E+02-1.48828E+03-3.28129E+02-3.33037E-09 1.10754E-09
 -1       827-2.95629E+05 6.90056E+01-7.75649E+02-1.84552E+02-3.20663E-09-1.00840E-09
 -1       828-2.95682E+05-1.40745E+02-6.81390E+02 1.81523E+02-4.51953E-09 1.02305E-09
 -1       829-2.95617E+05 7.11650E+01-7.89502E+02-4.30774E+02-3.24064E-10-4.71269E-09
 -1       830-2.95877E+05-4.76483E+02-1.53950E+03 5.50360E+02 1.90841E-09 1.05711E-08
 -1       831-2.95435E+05 4.04957E+02-2.55210E+03-5.53396E+02-2.83852E-09 4.00178E-11
 -1       832-2.97107E+05-2.99340E+03-6.21923E+03 6.19610E+02-2.27278E-09 3.29499E-09
 -1       833-2.94388E+05 2.58638E+03-9.88422E+03-5.00025E+02-1.76240E-09 6.34782E-09
 -1       834-3.04522E+05-1.91011E+04-2.70014E+04 3.59884E+02-2.80524E-10 7.86895E-09
 -1       835-2.88021E+05 1.64999E+04-3.81667E+04-2.93657E+02 5.50198E-09-1.61526E-09
 -1       836-9.70218E+02 2.71706E+05 1.64398E+04-1.99838E+04 7.45786E-10 3.12593E-09
 -1       837 3.60030E+03 2.76807E+05 1.40532E+04-4.01532E+04 1.35219E-09 5.36465E-09
 -1       838-3.63713E+02 2.73119E+05 1.45161E+04-1.99126E+04 1.27011E-09 7.33598E-09
 -1       839 9.30944E+03 2.81061E+05 2.76543E+04-4.01856E+04 1.71349E-09-2.37961E-11
 -1       840-2.81056E+03 2.67410E+05 4.41810E+04-1.99501E+04 1.08776E-09 8.47956E-09
 -1       856-8.26605E+04 7.53660E+03-1.98613E+04-4.37328E+02-2.02635E-09 8.51287E-10
 -1       857-9.08622E+04-8.84035E+03-1.36737E+04 4.63962E+03-3.33250E-09 2.65845E-09
 -1       858-8.59016E+04 1.05600E+03-5.15447E+03-4.59655E+02-2.83995E-09 1.04592E-10
 -1       859-8.71408E+04-1.22841E+03-3.11271E+03 4.67507E+03 9.20821E-10-4.62887E-09
 -1       860-8.63861E+04 1.46892E+02-1.30824E+03-4.72889E+02 8.39577E-10 1.03478E-09
 -1       861-8.65830E+04-1.62557E+02-7.27472E+02 4.69317E+03-4.36636E-09-1.75844E-09
 -1       862-8.64615E+04 1.94207E+01-3.18025E+02-4.77788E+02 5.13104E-09 3.18627E-09
 -1       863-8.64933E+04-1.14016E+01-1.51319E+02 4.69537E+03 8.09013E-09-5.73086E-09
 -1       864-8.64760E+04-9.24636E-01-3.55128E+01-4.75085E+02 4.22865E-09 8.59920E-10
 -1       865-8.64630E+04 2.94006E+01 6.20221E+01 4.68180E+03 3.08997E-09-3.09686E-09
 -1       866-8.64902E+04-2.18732E+01 1.65892E+02-4.64218E+02-7.44649E-11-1.61810E-08
 -1       867-8.63735E+04 1.82496E+02 4.34868E+02 4.65231E+03 4.81441E-09-1.90716E-08
 -1       868-8.65619E+04-1.52607E+02 7.28682E+02-4.45593E+02 1.65096E-09-1.17866E-08
 -1       869-8.58306E+04 1.26673E+03 1.95044E+03 4.60372E+03 3.14031E-10-1.11194E-08
 -1       870-8.70276E+04-1.07863E+03 2.82871E+03-4.15630E+02 2.51782E-09-5.06623E-09
 -1       871-4.29973E+03-9.86334E+03-1.40397E+04 9.23683E+04 1.17961E-09 9.80435E-10
 -1       872-1.84449E+03-1.30193E+04-5.74677E+03 1.19752E+05 1.47656E-09-1.78602E-09
 -1       873-1.82658E+01-1.15440E+04 7.56787E+02 9.21655E+04 1.05956E-09-1.31502E-09
 -1       874 2.15655E+03-9.54164E+03 7.82137E+03 1.19792E+05 2.31012E-09 6.56121E-09
 -1       875 5.05506E+03-1.34001E+04 1.73859E+04 9.23356E+04 7.34872E-10-1.06274E-08
 -1       876 2.27245E+05 3.89159E+04 1.20838E+04 9.18942E+04-5.78439E-09-2.11185E-09
 -1       877 2.28009E+05 4.14965E+04 6.45304E+03 9.53866E+04-3.62752E-09 2.11003E-09
 -1       878 2.28374E+05 3.75793E+04 2.70350E+03 9.28874E+04-4.14047E-10-1.52590E-09
 -1       879 2.26365E+05 3.98584E+04 1.34680E+03 9.54706E+04 1.43768E-09 1.57797E-09
 -1       880 2.28456E+05 3.75647E+04 6.27027E+02 9.29279E+04 5.41081E-09 2.86946E-09
 -1       881 2.26256E+05 3.97887E+04 3.34069E+02 9.54531E+04 5.05736E-09 9.23578E-10
 -1       882 2.28464E+05 3.75747E+04 2.12372E+02 9.29291E+04 2.88105E-09-4.50024E-09
 -1       883 2.26249E+05 3.97853E+04 2.26153E+02 9.54478E+04 2.15215E-09 2.62594E-09
 -1       884 2.28459E+05 3.75724E+04 3.57803E+02 9.29292E+04 1.88106E-09 8.49809E-11
 -1       885 2.26277E+05 3.97904E+04 7.18154E+02 9.54566E+04 3.26622E-10-2.37918E-09
 -1       886 2.28431E+05 3.75514E+04 1.44684E+03 9.29264E+04 2.76806E-10-3.39094E-09
 -1       887 2.26531E+05 3.99571E+04 3.16020E+03 9.54932E+04-3.44161E-09-3.60933E-09
 -1       888 2.28232E+05 3.75866E+04 6.36785E+03 9.28251E+04 2.28417E-09 2.20098E-09
 -1       889 2.30324E+05 4.38981E+04 1.52121E+04 9.53748E+04 3.38569E-09-5.30963E-09
 -1       890 2.25638E+05 4.06675E+04 2.84913E+04 9.03945E+04 4.58999E-09-1.75623E-09
 -1       891-1.31272E+02-1.30929E+05-1.66103E+03 2.35552E+04-1.90880E-10-7.67022E-09
 -1       892-2.64001E+02-1.31338E+05-1.76147E+03 3.62503E+04 2.84217E-09-1.98520E-09
 -1       893-3.12549E+01-1.30989E+05-2.45959E+03 2.35600E+04 3.01861E-09-5.96901E-09
 -1       894-1.35104E+03-1.32266E+05-5.07918E+03 3.61209E+04 5.19594E-09-4.52746E-09
 -1       895-9.08571E+02-1.29926E+05-8.89180E+03 2.36830E+04 7.01561E-10-1.69439E-09
 -1       956-2.85779E+05-4.06911E+03-1.02328E+04 1.92656E+04-2.05728E-09-3.19062E-09
 -1       957-2.87799E+05-1.37560E+03-5.25300E+03 2.32009E+04-1.39653E-09-8.51469E-09
 -1       958-2.86688E+05-1.12640E+02-2.36668E+03 1.91445E+04 2.13731E-09-7.69865E-09
 -1       959-2.86849E+05-2.22316E+01-1.20883E+03 2.33329E+04-5.13637E-10 6.48015E-09
 -1       960-2.86770E+05 3.14985E+01-5.89310E+02 1.91327E+04-9.38599E-10 4.24529E-09
 -1       961-2.86781E+05 2.93268E+01-3.12595E+02 2.33463E+04-2.58797E-09 8.60246E-09
 -1       962-2.86787E+05 2.78062E+01-1.78830E+02 1.91309E+04 1.78034E-09 9.04924E-09
 -1       963-2.86778E+05 3.08854E+01-1.43355E+02 2.33487E+04 3.68198E-09 1.15745E-08
 -1       964-2.86791E+05 2.99368E+01-1.73811E+02 1.91303E+04 1.14721E-09 7.32598E-09
 -1       965-2.86789E+05 3.39349E+01-3.00167E+02 2.33487E+04 3.24518E-09 7.23685E-09
 -1       966-2.86782E+05 3.78082E+01-5.63397E+02 1.91310E+04 2.04068E-09-7.35952E-09
 -1       967-2.86862E+05-1.08512E+01-1.15548E+03 2.33409E+04 8.58449E-10 3.97677E-09
 -1       968-2.86710E+05-9.57221E+01-2.26130E+03 1.91382E+04 2.95586E-10 3.42251E-09
 -1       969-2.87778E+05-1.30053E+03-5.02071E+03 2.32568E+04 1.46247E-09 3.84986E-09
 -1       970-2.85846E+05-3.87460E+03-9.77941E+03 1.92171E+04 8.32642E-10 7.37600E-10
 -1       971-2.69714E+05-1.41106E+03-7.82856E+03 1.27815E+04-3.65890E-09-1.06456E-09
 -1       972-2.71617E+05-1.01296E+03-4.26340E+03 1.78419E+04-6.50289E-11-1.17052E-09
 -1       973-2.70585E+05-1.18260E+01-1.90913E+03 1.26742E+04-3.83716E-09-3.66322E-09
 -1       974-2.70716E+05-1.23972E+01-9.89083E+02 1.79582E+04-5.80053E-09 3.18551E-10
 -1       975-2.70653E+05 2.49570E+01-4.93441E+02 1.26643E+04-3.37332E-09 1.91960E-09
 -1       976-2.70663E+05 2.87366E+01-2.82929E+02 1.79703E+04-9.72341E-09-3.83466E-10
 -1       977-2.70666E+05 2.48808E+01-2.02215E+02 1.26620E+04-1.22864E-08 6.39045E-09
 -1       978-2.70666E+05 3.34320E+01-2.32350E+02 1.79737E+04-9.61700E-09-1.61447E-09
 -1       979-2.70666E+05 3.12698E+01-3.69629E+02 1.26610E+04-5.84379E-09 5.12398E-09
 -1       980-2.70694E+05 3.58099E+01-7.11390E+02 1.79743E+04 4.13291E-09 5.55326E-09
 -1       981-2.70643E+05 4.90813E+01-1.37657E+03 1.26613E+04-1.44519E-09-4.34153E-09
 -1       982-2.70883E+05-6.56936E+01-2.84467E+03 1.79690E+04-4.43367E-09-5.33036E-09
 -1       983-2.70470E+05-3.88001E+01-5.52683E+03 1.26665E+04 2.84581E-09 1.08298E-09
 -1       984-2.73541E+05-2.95180E+03-1.23766E+04 1.78976E+04 2.47928E-09 1.87049E-09
 -1       985-2.67968E+05-4.08279E+03-2.27274E+04 1.27374E+04 3.48473E-09-4.85670E-10
 -3
    1PSTEP                        13           7           1          
  100CL  107 5.74219E-01         409                     0    7           1
 -4  DISP        4    1
 -5  D1          1    2    1    0
 -5  D2          1    2    2    0
 -5  D3          1    2    3    0
 -5  ALL         1    2    0    0    1ALL
 -1         1 5.32960E-04 0.00000E+00 0.00000E+00
 -1         2 4.92090E-04-4.93443E-31-1.32349E-23
 -1         3 2.15172E-04-1.74138E-27 0.00000E+00
 -1         5 1.29512E-04 1.87392E-26 0.00000E+00
 -1         8 5.10124E-04-7.45290E-07 0.00000E+00
 -1         9 4.92258E-04-1.89144E-06 0.00000E+00
 -1        10 1.96689E-04-2.81374E-06-1.32349E-23
 -1        12 1.29683E-04 6.38307E-07 0.00000E+00
 -1        15 4.82831E-04-8.26202E-07-2.06795E-25
 -1        16 4.89067E-04-2.33001E-06 0.00000E+00
 -1        17 1.38810E-04-6.08425E-06 0.00000E+00
 -1        18 1.28908E-04 1.10179E-05 0.00000E+00
 -1        19 1.30196E-04 1.27337E-06 0.00000E+00
 -1        20 1.30343E-04 8.44425E-06 0.00000E+00
 -1        21 1.29619E-04 1.36539E-05 0.00000E+00
 -1        24 2.47556E-05-8.58375E-06 0.00000E+00
 -1        25 1.31281E-04 1.11726E-05 0.00000E+00
 -1        26 1.32002E-04 1.76403E-06 0.00000E+00
 -1        27 1.30250E-04 5.54379E-06 0.00000E+00
 -1        28 1.29809E-04 1.31197E-05 0.00000E+00
 -1        32 0.00000E+00 0.00000E+00 0.00000E+00
 -1        33 1.32706E-04 2.36423E-06 0.00000E+00
 -1        34 1.30965E-04 5.51340E-06 0.00000E+00
 -1        35 1.29339E-04 1.28268E-05 0.00000E+00
 -1        51 5.31480E-04-1.27994E-07 0.00000E+00
 -1        52 5.28733E-04-2.47128E-07 0.00000E+00
 -1        53 5.24965E-04-3.66402E-07 0.00000E+00
 -1        54 5.20436E-04-4.87663E-07 0.00000E+00
 -1        55 5.15403E-04-6.12033E-07-1.24077E-24
 -1        56 5.30734E-04-7.27195E-07 0.00000E+00
 -1        57 5.28352E-04-1.28337E-06-2.64698E-23
 -1        58 5.25895E-04-1.62493E-06 0.00000E+00
 -1        59 5.23344E-04-1.75842E-06 0.00000E+00
 -1        60 5.20720E-04-1.70106E-06 0.00000E+00
 -1        61 5.18035E-04-1.48596E-06 2.64698E-23
 -1        62 5.15308E-04-1.16205E-06 0.00000E+00
 -1        63 5.12561E-04-7.84892E-07 0.00000E+00
 -1        64 5.09816E-04-4.15403E-07 0.00000E+00
 -1        65 5.07098E-04-1.14105E-07-2.64698E-23
 -1        66 5.04425E-04 6.56619E-08-5.29396E-23
 -1        67 5.01818E-04 7.76690E-08-2.64698E-23
 -1        68 4.99286E-04-1.07505E-07 0.00000E+00
 -1        69 4.96846E-04-5.03969E-07 0.00000E+00
 -1        70 4.94482E-04-1.11291E-06 0.00000E+00
 -1        86 4.92096E-04-3.11626E-07-1.32349E-23
 -1        87 4.92114E-04-6.23654E-07 0.00000E+00
 -1        88 4.92141E-04-9.35743E-07 0.00000E+00
 -1        89 4.92177E-04-1.25037E-06 6.61744E-24
 -1        90 4.92217E-04-1.56414E-06 0.00000E+00
 -1       121 2.14654E-04-4.62901E-07 1.32349E-23
 -1       122 2.13101E-04-9.26838E-07 0.00000E+00
 -1       123 2.10519E-04-1.39283E-06 1.32349E-23
 -1       124 2.06915E-04-1.86196E-06 0.00000E+00
 -1       125 2.02300E-04-2.33505E-06 0.00000E+00
 -1       191 1.29517E-04 1.06389E-07 0.00000E+00
 -1       192 1.29531E-04 2.12776E-07 1.65436E-24
 -1       193 1.29555E-04 3.19164E-07 3.30872E-24
 -1       194 1.29588E-04 4.25550E-07 0.00000E+00
 -1       195 1.29631E-04 5.31931E-07 3.30872E-24
 -1       251 5.09519E-04-5.40228E-06 0.00000E+00
 -1       252 5.08661E-04-2.83082E-05 0.00000E+00
 -1       253 5.07427E-04-6.48473E-05 1.32349E-23
 -1       254 5.05849E-04-1.10068E-04 0.00000E+00
 -1       255 5.04217E-04-1.56561E-04 0.00000E+00
 -1       256 5.02842E-04-1.96885E-04-6.61744E-24
 -1       257 5.01846E-04-2.25353E-04 1.32349E-23
 -1       258 5.01180E-04-2.36566E-04 0.00000E+00
 -1       259 5.00551E-04-2.29950E-04-1.32349E-23
 -1       260 4.99653E-04-2.05374E-04 0.00000E+00
 -1       261 4.98377E-04-1.67720E-04 0.00000E+00
 -1       262 4.96786E-04-1.22191E-04-6.61744E-24
 -1       263 4.95176E-04-7.62230E-05 1.32349E-23
 -1       264 4.93852E-04-3.72646E-05 6.61744E-24
 -1       265 4.92907E-04-1.07696E-05 0.00000E+00
 -1       266 5.05576E-04-7.69424E-07 0.00000E+00
 -1       267 5.01027E-04-7.81612E-07 0.00000E+00
 -1       268 4.96478E-04-7.94556E-07 8.27181E-25
 -1       269 4.91929E-04-8.05258E-07 2.06795E-25
 -1       270 4.87380E-04-8.15909E-07 0.00000E+00
 -1       271 5.07394E-04 3.02218E-06 2.64698E-23
 -1       272 5.04886E-04 6.08794E-06 0.00000E+00
 -1       273 5.02637E-04 8.47416E-06 2.64698E-23
 -1       274 5.00633E-04 1.01960E-05-1.32349E-23
 -1       275 4.98867E-04 1.12838E-05 0.00000E+00
 -1       276 4.97324E-04 1.17750E-05-1.32349E-23
 -1       277 4.95988E-04 1.17171E-05-2.64698E-23
 -1       278 4.94837E-04 1.11654E-05-1.32349E-23
 -1       279 4.93846E-04 1.01833E-05 0.00000E+00
 -1       280 4.92991E-04 8.84032E-06 0.00000E+00
 -1       281 4.92243E-04 7.21186E-06 0.00000E+00
 -1       282 4.91573E-04 5.37758E-06 0.00000E+00
 -1       283 4.90948E-04 3.42026E-06 0.00000E+00
 -1       284 4.90342E-04 1.42582E-06 0.00000E+00
 -1       285 4.89717E-04-5.22096E-07-2.64698E-23
 -1       301 4.91691E-04-1.98180E-06 0.00000E+00
 -1       302 4.90756E-04-2.04703E-06 0.00000E+00
 -1       303 4.89738E-04-2.11072E-06 6.61744E-24
 -1       304 4.88926E-04-2.17429E-06 0.00000E+00
 -1       305 4.88608E-04-2.23942E-06 1.32349E-23
 -1       306 5.06588E-04-5.28587E-05-5.29396E-23
 -1       307 5.47370E-04-2.00950E-04 0.00000E+00
 -1       308 6.02397E-04-4.21672E-04 5.29396E-23
 -1       309 6.63009E-04-6.83295E-04-2.64698E-23
 -1       310 7.23421E-04-9.43366E-04 0.00000E+00
 -1       311 7.77708E-04-1.15957E-03 2.64698E-23
 -1       312 8.16944E-04-1.30106E-03-1.05879E-22
 -1       313 8.28735E-04-1.34445E-03 5.29396E-23
 -1       314 8.02495E-04-1.28869E-03-1.05879E-22
 -1       315 7.31151E-04-1.14183E-03 5.29396E-23
 -1       316 6.21252E-04-9.29664E-04 5.29396E-23
 -1       317 4.86896E-04-6.81214E-04 2.64698E-23
 -1       318 3.51968E-04-4.31933E-04-5.29396E-23
 -1       319 2.40487E-04-2.17282E-04 0.00000E+00
 -1       320 1.67058E-04-6.65816E-05 0.00000E+00
 -1       336 1.89970E-04-3.33560E-06 0.00000E+00
 -1       337 1.82035E-04-3.86662E-06 0.00000E+00
 -1       338 1.72913E-04-4.40713E-06 1.32349E-23
 -1       339 1.62640E-04-4.95719E-06-6.61744E-24
 -1       340 1.51258E-04-5.51888E-06 0.00000E+00
 -1       406 1.29745E-04 7.44670E-07-3.30872E-24
 -1       407 1.29816E-04 8.50999E-07 0.00000E+00
 -1       408 1.29897E-04 9.57264E-07 3.30872E-24
 -1       409 1.29987E-04 1.06334E-06 0.00000E+00
 -1       410 1.30087E-04 1.16902E-06 0.00000E+00
 -1       521 5.05400E-04-6.23679E-05 1.05879E-22
 -1       522 5.50280E-04-2.33574E-04 5.29396E-23
 -1       523 6.09412E-04-4.88277E-04 0.00000E+00
 -1       524 6.73340E-04-7.89389E-04 0.00000E+00
 -1       525 7.37047E-04-1.08819E-03 0.00000E+00
 -1       526 7.95282E-04-1.33619E-03-5.29396E-23
 -1       527 8.38064E-04-1.49759E-03 0.00000E+00
 -1       528 8.50718E-04-1.54639E-03 0.00000E+00
 -1       529 8.19303E-04-1.48113E-03-1.05879E-22
 -1       530 7.34630E-04-1.31252E-03 5.29396E-23
 -1       531 6.03490E-04-1.06983E-03 0.00000E+00
 -1       532 4.42726E-04-7.86437E-04-5.29396E-23
 -1       533 2.81041E-04-5.01806E-04 1.05879E-22
 -1       534 1.47363E-04-2.55427E-04 5.29396E-23
 -1       535 5.93577E-05-8.10357E-05 0.00000E+00
 -1       536 1.38474E-04 1.37086E-05 0.00000E+00
 -1       537 1.37799E-04 4.70888E-05 0.00000E+00
 -1       538 1.36826E-04 8.89059E-05-3.30872E-24
 -1       539 1.35718E-04 1.33964E-04 1.65436E-24
 -1       540 1.34728E-04 1.76163E-04 0.00000E+00
 -1       541 1.34062E-04 2.09418E-04-1.65436E-24
 -1       542 1.33715E-04 2.30073E-04 0.00000E+00
 -1       543 1.33563E-04 2.34545E-04-1.65436E-24
 -1       544 1.33363E-04 2.23429E-04-3.30872E-24
 -1       545 1.32897E-04 1.97419E-04 0.00000E+00
 -1       546 1.32132E-04 1.61098E-04 3.30872E-24
 -1       547 1.31152E-04 1.19108E-04 0.00000E+00
 -1       548 1.30194E-04 7.76484E-05 0.00000E+00
 -1       549 1.29484E-04 4.29193E-05 0.00000E+00
 -1       550 1.29075E-04 1.92788E-05 0.00000E+00
 -1       551 1.23328E-04-6.44090E-06 6.61744E-24
 -1       552 1.05354E-04-6.83162E-06-3.30872E-24
 -1       553 8.56928E-05-7.25083E-06-1.15805E-23
 -1       554 6.51618E-05-7.68829E-06 0.00000E+00
 -1       555 4.45786E-05-8.12944E-06-2.64698E-23
 -1       556 1.34414E-04 5.24859E-06 0.00000E+00
 -1       557 1.30946E-04 1.42160E-05 0.00000E+00
 -1       558 1.28312E-04 2.10175E-05 0.00000E+00
 -1       559 1.26424E-04 2.58689E-05 0.00000E+00
 -1       560 1.25195E-04 2.89858E-05 0.00000E+00
 -1       561 1.24540E-04 3.05855E-05 0.00000E+00
 -1       562 1.24375E-04 3.08857E-05 0.00000E+00
 -1       563 1.24616E-04 3.01044E-05 0.00000E+00
 -1       564 1.25179E-04 2.84601E-05 1.32349E-23
 -1       565 1.25983E-04 2.61716E-05 0.00000E+00
 -1       566 1.26946E-04 2.34579E-05 3.30872E-24
 -1       567 1.27985E-04 2.05380E-05 0.00000E+00
 -1       568 1.29020E-04 1.76310E-05 1.65436E-24
 -1       569 1.29969E-04 1.49558E-05 0.00000E+00
 -1       570 1.30749E-04 1.27314E-05 0.00000E+00
 -1       571 1.28986E-04 1.03937E-05-1.65436E-24
 -1       572 1.29066E-04 9.72215E-06 4.13590E-25
 -1       573 1.29147E-04 9.01330E-06 0.00000E+00
 -1       574 1.29227E-04 8.27780E-06-8.27181E-25
 -1       575 1.29308E-04 7.52633E-06-3.30872E-24
 -1       576 1.29389E-04 6.76960E-06 0.00000E+00
 -1       577 1.29469E-04 6.01836E-06 0.00000E+00
 -1       578 1.29550E-04 5.28334E-06-1.65436E-24
 -1       579 1.29631E-04 4.57529E-06 0.00000E+00
 -1       580 1.29712E-04 3.90495E-06 0.00000E+00
 -1       581 1.29792E-04 3.28306E-06 0.00000E+00
 -1       582 1.29873E-04 2.72035E-06-3.30872E-24
 -1       583 1.29954E-04 2.22754E-06 0.00000E+00
 -1       584 1.30035E-04 1.81523E-06-3.30872E-24
 -1       585 1.30116E-04 1.49396E-06-6.61744E-24
 -1       586 1.29249E-04 1.10454E-05 0.00000E+00
 -1       587 1.29564E-04 1.10723E-05 4.13590E-25
 -1       588 1.29889E-04 1.10989E-05 0.00000E+00
 -1       589 1.30260E-04 1.11250E-05 0.00000E+00
 -1       590 1.30713E-04 1.11502E-05 0.00000E+00
 -1       591 1.29102E-04 1.04481E-05-1.03398E-25
 -1       592 1.29302E-04 9.85229E-06 0.00000E+00
 -1       593 1.29509E-04 9.23653E-06-4.13590E-25
 -1       594 1.29721E-04 8.60590E-06 0.00000E+00
 -1       595 1.29937E-04 7.96565E-06 0.00000E+00
 -1       596 1.30155E-04 7.32091E-06 4.13590E-25
 -1       597 1.30372E-04 6.67688E-06-4.13590E-25
 -1       598 1.30587E-04 6.03870E-06 2.06795E-25
 -1       599 1.30798E-04 5.41153E-06 4.13590E-25
 -1       600 1.31003E-04 4.80052E-06 4.13590E-25
 -1       601 1.31200E-04 4.21084E-06 4.13590E-25
 -1       602 1.31387E-04 3.64764E-06 2.06795E-25
 -1       603 1.31562E-04 3.11609E-06-2.06795E-25
 -1       604 1.31724E-04 2.62142E-06 5.16988E-26
 -1       605 1.31870E-04 2.16874E-06 0.00000E+00
 -1       606 1.30209E-04 1.23126E-06 3.30872E-24
 -1       607 1.30220E-04 1.28334E-06 0.00000E+00
 -1       608 1.30229E-04 1.42406E-06 0.00000E+00
 -1       609 1.30238E-04 1.64719E-06 0.00000E+00
 -1       610 1.30247E-04 1.94648E-06 0.00000E+00
 -1       611 1.30256E-04 2.31555E-06 1.65436E-24
 -1       612 1.30265E-04 2.74804E-06 0.00000E+00
 -1       613 1.30274E-04 3.23761E-06 0.00000E+00
 -1       614 1.30283E-04 3.77787E-06 0.00000E+00
 -1       615 1.30292E-04 4.36245E-06 0.00000E+00
 -1       616 1.30300E-04 4.98500E-06 0.00000E+00
 -1       617 1.30309E-04 5.63914E-06 4.13590E-25
 -1       618 1.30318E-04 6.31849E-06 0.00000E+00
 -1       619 1.30327E-04 7.01671E-06 0.00000E+00
 -1       620 1.30335E-04 7.72742E-06 0.00000E+00
 -1       621 1.30367E-04 1.35535E-06 1.65436E-24
 -1       622 1.30609E-04 1.43760E-06 0.00000E+00
 -1       623 1.30908E-04 1.51981E-06 1.65436E-24
 -1       624 1.31250E-04 1.60186E-06 0.00000E+00
 -1       625 1.31619E-04 1.68375E-06 0.00000E+00
 -1       626 1.30304E-04 1.25996E-06 3.30872E-24
 -1       627 1.30384E-04 1.32193E-06 0.00000E+00
 -1       628 1.30439E-04 1.45153E-06 0.00000E+00
 -1       629 1.30472E-04 1.64055E-06-1.65436E-24
 -1       630 1.30486E-04 1.88078E-06 6.61744E-24
 -1       631 1.30483E-04 2.16398E-06 3.30872E-24
 -1       632 1.30468E-04 2.48188E-06 0.00000E+00
 -1       633 1.30443E-04 2.82626E-06 1.65436E-24
 -1       634 1.30411E-04 3.18884E-06-3.30872E-24
 -1       635 1.30375E-04 3.56139E-06 0.00000E+00
 -1       636 1.30338E-04 3.93566E-06-3.30872E-24
 -1       637 1.30304E-04 4.30339E-06-8.27181E-25
 -1       638 1.30275E-04 4.65634E-06-1.65436E-24
 -1       639 1.30255E-04 4.98625E-06 8.27181E-25
 -1       640 1.30246E-04 5.28485E-06 1.65436E-24
 -1       656 1.29847E-04 7.97242E-06-6.61744E-24
 -1       657 1.29739E-04 7.48168E-06 0.00000E+00
 -1       658 1.29879E-04 6.99237E-06 0.00000E+00
 -1       659 1.30124E-04 6.50344E-06-6.61744E-24
 -1       660 1.30304E-04 6.01299E-06 0.00000E+00
 -1       661 1.30160E-04 9.12819E-06 0.00000E+00
 -1       662 1.30005E-04 9.74492E-06-8.27181E-25
 -1       663 1.29874E-04 1.02971E-05 0.00000E+00
 -1       664 1.29767E-04 1.07888E-05 0.00000E+00
 -1       665 1.29681E-04 1.12233E-05 0.00000E+00
 -1       666 1.29615E-04 1.16041E-05 8.27181E-25
 -1       667 1.29568E-04 1.19343E-05-1.65436E-24
 -1       668 1.29539E-04 1.22173E-05 8.27181E-25
 -1       669 1.29527E-04 1.24560E-05 0.00000E+00
 -1       670 1.29530E-04 1.26533E-05 8.27181E-25
 -1       671 1.29547E-04 1.28122E-05 0.00000E+00
 -1       672 1.29578E-04 1.29352E-05 0.00000E+00
 -1       673 1.29621E-04 1.30252E-05 1.65436E-24
 -1       674 1.29675E-04 1.30844E-05 0.00000E+00
 -1       675 1.29740E-04 1.31156E-05-4.13590E-25
 -1       676 1.29651E-04 1.35643E-05 3.30872E-24
 -1       677 1.29682E-04 1.34748E-05 0.00000E+00
 -1       678 1.29714E-04 1.33853E-05 0.00000E+00
 -1       679 1.29746E-04 1.32961E-05 0.00000E+00
 -1       680 1.29778E-04 1.32069E-05 1.65436E-24
 -1       771 1.72959E-05 7.44523E-06 0.00000E+00
 -1       772 1.09475E-05 2.05984E-05 0.00000E+00
 -1       773 5.65860E-06 3.10230E-05 0.00000E+00
 -1       774 1.35814E-06 3.88815E-05 0.00000E+00
 -1       775-2.02387E-06 4.43414E-05 0.00000E+00
 -1       776-4.56032E-06 4.75786E-05 0.00000E+00
 -1       777-6.32454E-06 4.87740E-05 0.00000E+00
 -1       778-7.39152E-06 4.81151E-05 0.00000E+00
 -1       779-7.83641E-06 4.57939E-05 0.00000E+00
 -1       780-7.73575E-06 4.20077E-05 2.64698E-23
 -1       781-7.16599E-06 3.69572E-05 0.00000E+00
 -1       782-6.20469E-06 3.08475E-05 2.64698E-23
 -1       783-4.92925E-06 2.38859E-05-5.29396E-23
 -1       784-3.41789E-06 1.62828E-05 0.00000E+00
 -1       785-1.74856E-06 8.24981E-06 0.00000E+00
 -1       786 1.31322E-04 1.03791E-05-1.03398E-25
 -1       787 1.31367E-04 9.63102E-06-4.13590E-25
 -1       788 1.31412E-04 8.92076E-06-8.27181E-25
 -1       789 1.31457E-04 8.24083E-06 0.00000E+00
 -1       790 1.31502E-04 7.58688E-06-1.65436E-24
 -1       791 1.31547E-04 6.95461E-06 8.27181E-25
 -1       792 1.31593E-04 6.34198E-06 0.00000E+00
 -1       793 1.31638E-04 5.74701E-06-8.27181E-25
 -1       794 1.31684E-04 5.16951E-06-1.65436E-24
 -1       795 1.31729E-04 4.60937E-06 0.00000E+00
 -1       796 1.31775E-04 4.06827E-06 0.00000E+00
 -1       797 1.31820E-04 3.54792E-06 0.00000E+00
 -1       798 1.31866E-04 3.05219E-06 0.00000E+00
 -1       799 1.31911E-04 2.58503E-06 0.00000E+00
 -1       800 1.31957E-04 2.15331E-06 0.00000E+00
 -1       801 1.13734E-04 9.69805E-06 2.64698E-23
 -1       802 5.97851E-05 6.93168E-06 0.00000E+00
 -1       803 6.12143E-06 4.17962E-06-2.64698E-23
 -1       804-1.05587E-05 2.66455E-06-1.32349E-23
 -1       805-6.69855E-06 1.34021E-06 0.00000E+00
 -1       806 1.31485E-04 1.03254E-05-1.65436E-24
 -1       807 1.31676E-04 9.50467E-06 1.65436E-24
 -1       808 1.31855E-04 8.71410E-06-1.65436E-24
 -1       809 1.32021E-04 7.95635E-06 0.00000E+00
 -1       810 1.32174E-04 7.23409E-06-3.30872E-24
 -1       811 1.32313E-04 6.54989E-06-8.27181E-25
 -1       812 1.32436E-04 5.90634E-06 1.65436E-24
 -1       813 1.32543E-04 5.30600E-06-1.65436E-24
 -1       814 1.32633E-04 4.75141E-06-1.65436E-24
 -1       815 1.32705E-04 4.24514E-06-8.27181E-25
 -1       816 1.32758E-04 3.78973E-06-1.65436E-24
 -1       817 1.32791E-04 3.38771E-06 0.00000E+00
 -1       818 1.32803E-04 3.04164E-06-1.65436E-24
 -1       819 1.32793E-04 2.75403E-06 1.65436E-24
 -1       820 1.32761E-04 2.52740E-06-1.65436E-24
 -1       821 1.31899E-04 1.33387E-06 8.27181E-25
 -1       822 1.31789E-04 7.81181E-07 0.00000E+00
 -1       823 1.31680E-04 1.99249E-07 3.30872E-24
 -1       824 1.31569E-04-3.18480E-07-1.65436E-24
 -1       825 1.31459E-04-6.93142E-07 0.00000E+00
 -1       826 1.31348E-04-8.46569E-07-1.65436E-24
 -1       827 1.31237E-04-7.50602E-07 0.00000E+00
 -1       828 1.31127E-04-3.78319E-07 0.00000E+00
 -1       829 1.31016E-04 2.34744E-07 0.00000E+00
 -1       830 1.30905E-04 1.05186E-06 0.00000E+00
 -1       831 1.30794E-04 1.99020E-06 0.00000E+00
 -1       832 1.30683E-04 2.96630E-06 0.00000E+00
 -1       833 1.30572E-04 3.88817E-06 0.00000E+00
 -1       834 1.30463E-04 4.66409E-06-8.27181E-25
 -1       835 1.30353E-04 5.23523E-06 0.00000E+00
 -1       836 1.32288E-04 1.86388E-06 0.00000E+00
 -1       837 1.32466E-04 1.96602E-06-3.30872E-24
 -1       838 1.32565E-04 2.06801E-06 0.00000E+00
 -1       839 1.32618E-04 2.16936E-06 0.00000E+00
 -1       840 1.32654E-04 2.27053E-06 0.00000E+00
 -1       856 1.30226E-04 5.78446E-06 4.13590E-25
 -1       857 1.30199E-04 6.14421E-06 1.03398E-25
 -1       858 1.30172E-04 6.60435E-06 0.00000E+00
 -1       859 1.30144E-04 7.14611E-06 4.13590E-25
 -1       860 1.30117E-04 7.75061E-06 0.00000E+00
 -1       861 1.30089E-04 8.39893E-06 0.00000E+00
 -1       862 1.30061E-04 9.07209E-06-8.27181E-25
 -1       863 1.30033E-04 9.75108E-06 0.00000E+00
 -1       864 1.30005E-04 1.04169E-05-8.27181E-25
 -1       865 1.29977E-04 1.10505E-05 4.13590E-25
 -1       866 1.29949E-04 1.16330E-05 0.00000E+00
 -1       867 1.29921E-04 1.21455E-05 4.13590E-25
 -1       868 1.29894E-04 1.25691E-05 0.00000E+00
 -1       869 1.29866E-04 1.28850E-05-4.13590E-25
 -1       870 1.29838E-04 1.30747E-05 0.00000E+00
 -1       871 1.30245E-04 5.54218E-06 4.13590E-25
 -1       872 1.30361E-04 5.53800E-06 0.00000E+00
 -1       873 1.30545E-04 5.53334E-06 0.00000E+00
 -1       874 1.30743E-04 5.52807E-06-1.55096E-25
 -1       875 1.30901E-04 5.52226E-06-8.27181E-25
 -1       876 1.30267E-04 5.79480E-06-3.30872E-24
 -1       877 1.30266E-04 6.10286E-06 0.00000E+00
 -1       878 1.30246E-04 6.46116E-06 0.00000E+00
 -1       879 1.30210E-04 6.86341E-06 0.00000E+00
 -1       880 1.30159E-04 7.30327E-06 0.00000E+00
 -1       881 1.30097E-04 7.77445E-06 0.00000E+00
 -1       882 1.30026E-04 8.27069E-06 0.00000E+00
 -1       883 1.29947E-04 8.78569E-06-1.65436E-24
 -1       884 1.29864E-04 9.31320E-06 0.00000E+00
 -1       885 1.29779E-04 9.84695E-06-1.65436E-24
 -1       886 1.29693E-04 1.03807E-05 3.30872E-24
 -1       887 1.29610E-04 1.09081E-05-1.65436E-24
 -1       888 1.29531E-04 1.14229E-05 0.00000E+00
 -1       889 1.29459E-04 1.19187E-05 8.27181E-25
 -1       890 1.29396E-04 1.23893E-05-1.65436E-24
 -1       891 1.29862E-04 1.30706E-05 0.00000E+00
 -1       892 1.29894E-04 1.30214E-05 0.00000E+00
 -1       893 1.29881E-04 1.29722E-05-1.65436E-24
 -1       894 1.29800E-04 1.29232E-05 0.00000E+00
 -1       895 1.29627E-04 1.28743E-05 4.13590E-25
 -1       956 1.32599E-04 2.33337E-06 3.30872E-24
 -1       957 1.32491E-04 2.37053E-06 8.27181E-25
 -1       958 1.32382E-04 2.46803E-06-1.65436E-24
 -1       959 1.32273E-04 2.61774E-06 8.27181E-25
 -1       960 1.32163E-04 2.81155E-06 0.00000E+00
 -1       961 1.32054E-04 3.04126E-06 1.65436E-24
 -1       962 1.31945E-04 3.29871E-06 0.00000E+00
 -1       963 1.31836E-04 3.57570E-06 1.65436E-24
 -1       964 1.31726E-04 3.86406E-06 3.30872E-24
 -1       965 1.31617E-04 4.15558E-06 0.00000E+00
 -1       966 1.31508E-04 4.44208E-06 3.30872E-24
 -1       967 1.31399E-04 4.71537E-06-1.65436E-24
 -1       968 1.31289E-04 4.96727E-06 3.30872E-24
 -1       969 1.31180E-04 5.18962E-06-1.65436E-24
 -1       970 1.31072E-04 5.37428E-06-3.30872E-24
 -1       971 1.30864E-04 5.66641E-06 3.30872E-24
 -1       972 1.30762E-04 5.90530E-06 0.00000E+00
 -1       973 1.30660E-04 6.22068E-06-1.65436E-24
 -1       974 1.30558E-04 6.60280E-06 0.00000E+00
 -1       975 1.30456E-04 7.04188E-06-3.30872E-24
 -1       976 1.30354E-04 7.52812E-06 0.00000E+00
 -1       977 1.30252E-04 8.05174E-06 3.30872E-24
 -1       978 1.30150E-04 8.60292E-06-1.65436E-24
 -1       979 1.30047E-04 9.17183E-06-3.30872E-24
 -1       980 1.29945E-04 9.74868E-06-1.65436E-24
 -1       981 1.29843E-04 1.03236E-05 0.00000E+00
 -1       982 1.29741E-04 1.08869E-05 0.00000E+00
 -1       983 1.29639E-04 1.14286E-05 3.30872E-24
 -1       984 1.29537E-04 1.19390E-05 0.00000E+00
 -1       985 1.29436E-04 1.24082E-05 0.00000E+00
 -3
    1PSTEP                        14           7           1          
  100CL  107 5.74219E-01         409                     0    7           1
 -4  STRESS      6    1
 -5  SXX         1    4    1    1
 -5  SYY         1    4    2    2
 -5  SZZ         1    4    3    3
 -5  SXY         1    4    1    2
 -5  SYZ         1    4    2    3
 -5  SZX         1    4    3    1
 -1         1-2.94130E+06-1.18348E+06-6.35033E+05-1.37274E+06 1.81899E-10 2.61789E-08
 -1         2 1.99789E+03-8.88688E+05 6.44982E+03 4.49071E+01 5.49392E-11 4.60233E-08
 -1         3-4.84034E+02-1.31965E+06 3.16811E+02-1.07911E+03-3.00073E-10 1.15324E-09
 -1         5-1.44174E+00 3.04407E+05 7.72223E+00-7.49123E-02-9.56905E-11 1.19421E-08
 -1         8-1.03730E+06-3.59082E+05-1.11394E+05-5.12759E+05 2.58296E-10-1.29694E-08
 -1         9-5.27395E+05-8.22117E+05-6.84070E+01-7.79361E+05 1.80094E-08 4.02215E-08
 -1        10-1.33730E+03-1.37491E+06-2.33404E+03-7.29912E+03-8.22183E-09-2.84095E-08
 -1        12 1.72769E+00 3.04423E+05 2.49995E+02-5.67635E-01-6.05382E-11 3.66908E-08
 -1        15 1.76437E+03 9.69624E+02 5.70331E+03 3.47065E+00-4.72369E-11 4.15607E-08
 -1        16 1.17020E+06-9.40760E+05 1.44890E+05-1.20796E+06 1.37176E-08 2.93367E-08
 -1        17-7.79762E+03 8.65235E+04 8.21359E+04 2.05036E+05-2.61934E-11 1.30618E-08
 -1        18 2.13772E+03-4.06631E+03-2.37069E+04-8.51915E+04 8.41248E-09 7.47332E-09
 -1        19 9.81447E+04 1.12708E+05-8.12567E+02 1.91876E+04 4.80213E-11 3.28655E-09
 -1        20-5.28287E+04-4.64237E+05-1.03235E+05 2.79700E+04 1.53538E-09-4.75726E-09
 -1        21-4.07829E+01-2.56388E+05-8.05396E+02 5.59782E+00-2.24069E-05-2.33076E-08
 -1        24-5.37625E+05 8.12646E+05 2.61472E+05 4.77394E+05-7.39286E-08-3.18202E-08
 -1        25-1.02691E+05-5.77852E+05-1.15855E+05-1.83281E+05-7.90806E-10 3.21179E-09
 -1        26-3.81156E+04 7.32416E+04-1.90075E+04-3.93080E+03 1.22782E-09-1.00167E-08
 -1        27-6.74070E+04-2.52561E+05-9.38148E+04 5.69690E+04 5.25840E-09-7.27626E-09
 -1        28 1.88967E+04-7.29490E+04 1.45940E+04 2.05537E+04-3.45523E-10 7.21691E-09
 -1        32-1.39709E+06-2.20960E+06-6.26673E+04-3.83722E+05-2.86054E-08-2.83521E-09
 -1        33-1.47976E+05 7.30940E+04 2.60782E+04-3.43410E+04-4.19504E-11 7.80650E-09
 -1        34-1.86309E+05-1.92493E+04 4.99284E+02 5.93571E+04 9.27580E-10-6.27733E-09
 -1        35-2.00873E+04-2.97002E+04-1.36112E+03 4.46878E+04 4.17707E-09-3.99571E-09
 -1        51 3.00829E+04-3.03828E+05 6.90656E+04-8.67112E+05 2.47383E-10 7.24685E-09
 -1        52 1.34046E+04-2.96027E+05 4.03441E+04-1.01118E+06 4.43833E-10-3.74712E-08
 -1        53 6.56305E+03-3.10767E+05 2.74947E+04-8.64030E+05 4.43833E-10-2.87400E-08
 -1        54 1.74143E+04-3.08563E+05 3.56938E+04-1.01437E+06 5.16593E-10 7.63976E-11
 -1        55 3.48970E+04-3.21027E+05 5.86819E+04-8.63555E+05 6.40284E-10 1.28894E-08
 -1        56-5.59814E+06-6.26501E+05-4.68334E+05-2.17042E+06-3.15049E-09 4.74392E-09
 -1        57-5.82665E+06-1.01170E+06-3.15999E+05-2.10656E+06-1.04774E-08 1.97615E-08
 -1        58-5.68729E+06-7.80365E+05-1.10092E+05-2.14662E+06-5.36238E-09-3.40005E-08
 -1        59-5.72479E+06-8.29681E+05-6.57267E+04-2.13311E+06-2.82762E-09-2.56905E-08
 -1        60-5.69856E+06-8.03560E+05-2.56597E+04-2.14542E+06-2.02408E-09-5.06152E-08
 -1        61-5.71243E+06-8.01778E+05-1.45594E+04-2.13362E+06 3.04476E-09 1.40813E-09
 -1        62-5.69935E+06-8.07604E+05-6.92150E+03-2.14627E+06-3.43096E-09 1.78625E-09
 -1        63-5.71146E+06-7.97680E+05-5.60940E+03-2.13289E+06-1.84037E-09 4.06768E-08
 -1        64-5.69949E+06-8.07581E+05-6.21993E+03-2.14616E+06 4.61159E-09-3.01246E-08
 -1        65-5.71171E+06-8.01460E+05-1.24739E+04-2.13405E+06-1.06909E-08-1.21521E-08
 -1        66-5.69914E+06-8.03888E+05-2.17332E+04-2.14510E+06 8.37281E-09 1.17343E-08
 -1        67-5.72144E+06-8.25646E+05-5.54858E+04-2.13437E+06-2.33922E-09 2.69574E-09
 -1        68-5.69001E+06-7.83957E+05-9.28977E+04-2.14570E+06-4.07817E-09 1.15760E-08
 -1        69-5.80665E+06-9.79900E+05-2.66576E+05-2.11280E+06 1.26602E-09 3.84389E-08
 -1        70-5.61518E+06-6.53838E+05-3.95206E+05-2.16539E+06 5.21686E-09 3.02971E-08
 -1        86-9.96475E+02-8.90414E+05 6.98544E+03-2.24541E+01 9.32232E-12-1.80882E-08
 -1        87 6.63881E+03-8.86444E+05 1.44783E+04 8.22417E+01-1.23237E-10-3.76152E-08
 -1        88-5.62270E+03-8.92653E+05 2.22769E+04-5.97910E+01-6.36646E-12-4.26332E-08
 -1        89 4.19309E+04-8.70066E+05 5.99582E+04 1.36466E+02-7.82165E-11 5.73766E-09
 -1        90-3.61690E+04-9.06752E+05 8.48496E+04-7.66837E+01 9.45874E-11 4.61187E-08
 -1       121-6.85959E+02-1.32138E+06 3.42697E+01 5.37694E+02 9.87896E-10-1.20672E-08
 -1       122-3.65726E+02-1.31962E+06 6.58685E+02-2.15582E+03-3.10816E-09-1.67056E-08
 -1       123-7.41054E+02-1.32147E+06 7.84425E+02 1.60705E+03 2.47712E-09 3.09228E-10
 -1       124 9.12710E+02-1.31899E+06 2.68504E+03-4.56389E+03-5.60885E-09 7.24685E-09
 -1       125-1.50393E+03-1.32218E+06 3.80929E+03 2.93801E+03 3.80260E-09-6.18456E-09
 -1       191-1.77188E+00 3.04434E+05 9.43980E+00 3.75564E-02-6.41516E-11 7.53425E-09
 -1       192-2.14920E+00 3.04408E+05 1.63395E+01-3.05011E-01-8.96243E-11 1.33274E-08
 -1       193-3.65376E+00 3.04434E+05 3.05902E+01 2.68269E-01-1.36987E-10 1.23418E-09
 -1       194-4.42624E+00 3.04410E+05 6.17761E+01-7.17512E-01-7.16156E-11-1.84363E-08
 -1       195-7.27035E+00 3.04432E+05 1.21040E+02 4.52073E-01-1.78474E-10 2.31285E-09
 -1       251-1.83481E+06 9.55374E+03-1.11702E+05 5.11852E+04 4.74756E-10-4.57658E-09
 -1       252-1.52056E+06-1.22518E+04-1.24001E+04-2.00138E+05-2.11548E-09-4.14093E-09
 -1       253-1.71462E+06-1.83368E+03-2.58858E+04 1.49013E+05 3.96722E-09-1.77934E-08
 -1       254-1.67412E+06 1.42291E+04-4.43788E+03-3.05837E+05 8.16965E-09-3.00133E-10
 -1       255-1.69740E+06-3.63201E+03-7.00149E+03 1.57576E+05-1.38366E-08-8.24139E-09
 -1       256-1.54835E+06 1.47797E+04 2.73203E+04-2.31382E+05-1.46247E-09-9.95044E-09
 -1       257-1.82818E+06-1.23501E+04-3.16169E+04 7.39701E+04-1.09121E-08 7.10043E-09
 -1       258-1.38936E+06 1.15960E+04 5.87772E+04-1.48403E+04-2.36869E-08-3.76990E-08
 -1       259-1.84076E+06-1.32060E+04-3.32274E+04-5.86830E+04 1.79352E-09-7.02150E-09
 -1       260-1.52049E+06 1.50698E+04 3.55125E+04 2.11388E+05-1.49885E-09-4.18358E-08
 -1       261-1.70999E+06-5.25182E+03-3.88550E+03-1.51766E+05-2.92207E-08-1.47621E-08
 -1       262-1.67187E+06 2.09181E+04 9.61345E+03 3.06738E+05 1.36679E-08-2.48692E-08
 -1       263-1.70438E+06-6.78071E+03-1.07102E+02-1.54698E+05-1.51704E-09 3.74821E-08
 -1       264-1.52712E+06 3.22009E+04 4.50989E+04 2.22181E+05-6.43358E-08 7.37655E-08
 -1       265-1.84110E+06-2.76252E+04-2.06005E+04-6.65784E+04-2.26410E-08 1.62008E-08
 -1       266-3.19402E+04-1.49338E+04 7.49481E+04-7.42674E+01 2.25555E-10 1.32854E-08
 -1       267 3.70282E+04 1.74079E+04 5.29686E+04 8.56820E+01 2.69210E-10 1.39147E-08
 -1       268-4.96539E+03-2.46532E+03 1.96884E+04-1.09178E+01 1.90994E-10 5.44130E-08
 -1       269 5.86271E+03 2.95061E+03 1.27969E+04 1.27171E+01 2.15095E-10-8.50156E-11
 -1       270-8.79997E+02-4.84801E+02 6.17727E+03-1.72583E+00 1.83263E-10 1.64190E-08
 -1       271-2.92714E+06-3.63420E+05-2.19965E+05-1.13592E+06-3.95084E-09 1.97906E-08
 -1       272-3.02093E+06-5.09819E+05-1.41541E+05-1.11777E+06-2.00475E-09 1.69748E-08
 -1       273-2.96870E+06-4.18236E+05-5.19509E+04-1.12590E+06 5.77927E-09-2.46146E-08
 -1       274-2.97155E+06-4.43223E+05-2.90953E+04-1.13331E+06 3.35694E-09 7.32462E-09
 -1       275-2.97542E+06-4.22969E+05-1.21110E+04-1.12303E+06 6.26824E-09-5.08862E-09
 -1       276-2.96261E+06-4.38550E+05-6.39275E+03-1.13841E+06-2.14641E-09 1.50012E-08
 -1       277-2.97765E+06-4.22099E+05-3.15387E+03-1.12116E+06-2.18824E-09 1.71385E-08
 -1       278-2.95928E+06-4.40498E+05-2.19051E+03-1.14186E+06 1.79307E-09-1.57155E-08
 -1       279-2.97894E+06-4.20841E+05-2.31196E+03-1.11974E+06-3.60615E-10-5.38466E-08
 -1       280-2.95771E+06-4.42999E+05-4.11690E+03-1.14429E+06-2.56864E-09-6.21605E-09
 -1       281-2.97940E+06-4.19522E+05-7.46915E+03-1.11884E+06 4.55657E-09-3.46990E-08
 -1       282-2.96008E+06-4.49108E+05-1.78883E+04-1.14505E+06-1.90175E-09 1.48648E-08
 -1       283-2.97678E+06-4.15097E+05-3.17896E+04-1.11891E+06-3.94675E-09-1.63436E-08
 -1       284-2.98775E+06-4.92562E+05-8.67465E+04-1.13861E+06-3.02816E-09 1.75487E-08
 -1       285-2.95248E+06-3.80360E+05-1.34741E+05-1.12375E+06-2.80306E-09 3.11920E-08
 -1       301 2.31871E+04-1.82029E+05 1.72476E+05-3.46475E+05 1.38243E-10 2.68319E-08
 -1       302 2.46376E+04-1.38745E+05 1.10418E+05-5.07311E+05 1.72804E-11 5.52254E-08
 -1       303 1.04251E+03-1.64911E+05 7.95358E+04-3.45819E+05-3.09228E-10 2.78123E-09
 -1       304 2.37324E+04-1.37372E+05 1.09862E+05-5.06824E+05 5.67525E-10 5.97774E-08
 -1       305 2.15911E+04-1.79969E+05 1.71017E+05-3.47030E+05-2.98314E-10 5.35365E-08
 -1       306-9.95283E+06-1.29557E+06-1.64829E+06-2.03689E+06-3.07045E-08 2.64263E-08
 -1       307 1.78631E+05-1.88273E+06 6.17690E+05-4.78541E+06-3.37663E-07 4.19459E-08
 -1       308-7.60172E+06 2.26205E+05-2.12815E+05-2.61760E+04-6.92526E-08 1.11788E-07
 -1       309-3.74037E+06-2.09373E+06 1.73332E+05-7.44146E+06 1.08921E-07 2.90856E-08
 -1       310-7.68492E+06 1.97694E+05-1.47972E+05-6.85959E+04 2.21189E-08 2.05255E-08
 -1       311 3.84044E+05-1.88887E+06 8.91648E+05-4.58403E+06 2.87910E-07-2.28410E-08
 -1       312-9.97912E+06-1.33359E+06-1.13307E+06-2.14188E+06 1.58034E-08 3.14612E-08
 -1       313 2.16786E+06 5.17318E+05 1.55409E+06 7.64744E+05-5.46570E-08-6.89979E-08
 -1       314-8.22806E+06-3.06807E+06-1.12935E+06-4.07235E+06 4.96802E-08-3.86499E-08
 -1       315-5.24385E+06 3.69569E+06 8.82786E+05 1.61380E+06-1.94799E-07-1.69093E-08
 -1       316-4.21802E+06-3.24652E+06-1.46812E+05-3.90730E+06-3.08850E-07-1.19806E-07
 -1       317-1.04088E+07 4.56481E+06 1.61391E+05-1.39397E+04 3.39091E-07-2.31961E-07
 -1       318-4.15131E+06-3.23718E+06-2.37773E+05-3.89307E+06-2.64205E-07-2.83035E-09
 -1       319-5.46263E+06 3.74201E+06 5.67666E+05 1.56117E+06-6.56873E-08 5.85133E-08
 -1       320-8.12455E+06-3.09070E+06-1.73688E+06-4.08406E+06 7.06059E-08 2.50293E-09
 -1       336 4.70452E+02-1.43045E+06-9.08266E+03 4.32957E+03-1.52795E-08-2.51785E-08
 -1       337-3.42086E+03-1.43171E+06-1.08676E+04-1.05395E+04-2.83767E-08-2.22644E-09
 -1       338 5.48414E+02-1.43043E+06-1.54196E+04 6.15708E+03-2.05323E-08 1.59343E-09
 -1       339-1.62393E+04-1.44013E+06-3.44200E+04-1.41060E+04-3.59869E-08 1.14651E-08
 -1       340 1.08434E+04-1.42268E+06-5.37036E+04 7.85412E+03-2.41416E-08 1.82736E-08
 -1       406 2.10259E+01 3.04420E+05 4.93759E+02 1.19695E-01-1.98952E-10 8.85234E-09
 -1       407 1.73781E+02 3.04510E+05 1.04894E+03 2.53837E+00-1.25326E-10-1.12394E-08
 -1       408 5.41820E+02 3.04345E+05 2.09519E+03-2.72694E+00-2.64322E-10-6.64704E-09
 -1       409 2.26669E+03 3.05179E+05 4.71634E+03 2.72474E+01-1.29148E-10 4.16730E-09
 -1       410 6.50948E+03 3.03749E+05 9.62835E+03-2.57573E+01-5.09999E-10 9.33267E-09
 -1       521-1.21713E+07-1.76270E+06-2.23648E+06-2.28169E+06-4.16767E-08 5.89644E-08
 -1       522 6.54788E+05-2.20498E+06 7.61980E+05-6.29501E+06-2.64161E-07-7.61684E-08
 -1       523-9.18253E+06 2.39589E+05-2.71905E+05 2.05293E+05 3.36149E-09-1.42492E-07
 -1       524-4.88756E+06-2.07259E+06 2.42169E+05-9.71657E+06 3.85939E-07-2.79540E-07
 -1       525-9.31902E+06 1.87736E+05-1.98653E+05 1.39782E+05 2.58529E-07-1.81764E-07
 -1       526 1.04226E+06-2.22744E+06 1.14049E+06-5.95348E+06 1.60158E-07-2.35450E-08
 -1       527-1.22197E+07-1.84136E+06-1.55935E+06-2.44977E+06 2.06404E-07-3.15922E-08
 -1       528 3.62572E+06 7.20107E+05 1.95918E+06 1.35555E+06 2.34926E-07-1.12341E-08
 -1       529-9.94332E+06-4.08886E+06-1.55063E+06-4.92890E+06 1.04541E-07-7.30797E-08
 -1       530-6.44830E+06 5.19290E+06 1.13156E+06 2.19392E+06-1.42551E-07 5.66215E-08
 -1       531-4.87023E+06-4.22777E+06-1.86605E+05-4.73799E+06-3.34054E-07 1.55269E-08
 -1       532-1.32885E+07 6.33139E+06 2.48613E+05-4.36676E+05 1.04326E-07-2.04042E-07
 -1       533-4.76451E+06-4.21487E+06-2.69720E+05-4.71311E+06-1.87720E-09-3.91243E-07
 -1       534-6.79125E+06 5.34637E+06 8.04735E+05 2.07012E+06-7.43821E-08 3.00388E-07
 -1       535-9.80669E+06-4.18763E+06-2.19755E+06-4.94073E+06-2.67755E-09 1.93813E-07
 -1       536-4.74036E+05-2.91285E+04 2.31677E+04-2.47749E+04-5.39853E-09 2.70466E-08
 -1       537-2.75137E+05 3.08991E+04 4.94569E+04 6.09354E+04-6.15277E-08 6.45186E-08
 -1       538-3.78026E+05-1.28090E+03 1.08576E+04-3.75335E+04 1.57921E-08 6.25714E-08
 -1       539-3.39674E+05 3.32432E+03 1.32681E+04 6.97343E+04 9.22380E-08 4.53038E-08
 -1       540-4.10918E+05-4.19496E+02-4.26208E+03-3.36489E+04-3.49041E-09 5.01150E-08
 -1       541-2.13435E+05 5.48272E+03 3.37221E+04 4.40571E+04-1.83627E-08 4.69275E-08
 -1       542-5.00881E+05-6.21002E+03-2.49952E+04-1.17204E+04 2.81343E-08 1.96961E-08
 -1       543-1.41423E+05 8.14993E+03 4.68851E+04-8.36275E+03 2.82303E-08-8.57312E-10
 -1       544-4.81021E+05-4.64525E+03-2.19864E+04 1.86567E+04-1.06870E-08-2.24181E-08
 -1       545-2.58516E+05 2.06796E+03 2.14875E+04-5.56623E+04-1.79790E-08-4.59020E-08
 -1       546-3.86882E+05 2.39630E+03-4.93925E+03 3.55356E+04 2.49154E-08-3.92465E-08
 -1       547-3.49291E+05-4.01940E+03-1.97158E+03-7.17048E+04-6.25497E-08-6.40014E-08
 -1       548-3.92626E+05 3.38661E+03-1.48928E+04 3.48061E+04-6.05291E-08-4.83324E-08
 -1       549-2.50602E+05-9.86432E+03-2.13077E+03-5.23801E+04-4.27626E-08-2.54076E-08
 -1       550-4.82822E+05 5.98355E+03-6.80275E+04 1.60935E+04 2.02999E-09-1.55324E-08
 -1       551 2.46675E+04-6.71207E+05 2.06637E+04-1.06810E+06-6.21585E-08-6.72298E-09
 -1       552 5.48158E+04-6.90340E+05 3.03567E+04-1.52211E+06-4.53583E-08 2.01617E-08
 -1       553 3.99067E+04-6.94752E+05 4.56729E+04-1.06367E+06-7.62302E-08 1.88302E-08
 -1       554 8.44181E+04-6.91474E+05 9.69230E+04-1.52380E+06-4.85743E-08 9.92077E-09
 -1       555 6.89557E+04-7.14720E+05 1.72156E+05-1.06438E+06-7.56991E-08-1.26784E-08
 -1       556 1.36248E+05-2.46739E+05 6.30297E+04-2.96918E+05-1.19471E-08-4.81668E-09
 -1       557 2.31440E+05-3.23360E+05 3.38600E+04-3.76214E+05-1.96451E-09-3.67527E-09
 -1       558 1.30817E+05-2.52123E+05 1.25247E+04-2.91913E+05-7.36327E-09-1.23873E-08
 -1       559 2.15011E+05-3.30680E+05 6.72012E+03-3.85776E+05 2.20316E-08-8.06176E-09
 -1       560 1.24449E+05-2.48052E+05 2.10299E+03-2.96281E+05 9.66247E-09-2.40834E-09
 -1       561 2.06445E+05-3.27666E+05 1.38331E+03-3.91388E+05-2.60479E-09-9.16862E-09
 -1       562 1.19439E+05-2.44856E+05 1.81012E+02-2.99875E+05 8.58563E-10-1.26602E-09
 -1       563 2.00563E+05-3.25106E+05 3.37957E+02-3.95179E+05 1.14960E-09-5.04269E-09
 -1       564 1.16075E+05-2.42736E+05 4.71364E+00-3.02249E+05 8.64384E-09 2.64663E-10
 -1       565 1.97040E+05-3.23576E+05 1.30529E+02-3.97414E+05 1.90448E-08 5.78439E-10
 -1       566 1.14424E+05-2.41681E+05-6.40004E-01-3.03410E+05 1.31695E-09 2.42471E-09
 -1       567 1.95846E+05-3.23044E+05-8.41250E+01-3.98074E+05 9.92713E-09 1.07539E-08
 -1       568 1.14534E+05-2.41764E+05-4.22668E+02-3.03425E+05-1.19326E-09 1.52795E-09
 -1       569 1.96037E+05-3.22973E+05-1.05278E+03-3.96311E+05-7.91078E-09 1.96087E-09
 -1       570 1.17178E+05-2.43968E+05-2.47678E+03-3.02937E+05 4.54747E-09-8.14362E-09
 -1       571 2.30834E+05 8.48805E+03 1.24568E+04-6.17143E+04-1.87811E-10 9.36780E-09
 -1       572 2.32676E+05 3.01577E+03 6.10345E+03-6.76946E+04-3.23962E-09 1.64437E-09
 -1       573 2.31573E+05 7.81661E+02 2.71168E+03-6.15801E+04-1.17825E-09 3.60160E-10
 -1       574 2.31782E+05 3.20939E+02 1.35902E+03-6.78514E+04 1.21872E-09-7.19319E-09
 -1       575 2.31656E+05 1.15978E+02 6.41023E+02-6.15622E+04-1.58803E-08 3.35149E-09
 -1       576 2.31665E+05 1.00900E+02 3.27291E+02-6.78723E+04-3.71691E-08 9.30413E-10
 -1       577 2.31676E+05 7.58943E+01 1.62798E+02-6.15598E+04-1.96742E-08 9.03583E-10
 -1       578 2.31665E+05 8.33701E+01 9.21964E+01-6.78750E+04-1.19053E-09-1.28694E-09
 -1       579 2.31703E+05 6.50189E+01 6.19797E+01-6.15596E+04-3.44698E-10 1.23541E-08
 -1       580 2.31703E+05 6.64092E+01 6.79699E+01-6.78715E+04-3.59660E-09 2.60843E-09
 -1       581 2.31746E+05 4.63579E+01 1.02136E+02-6.15634E+04 1.10231E-09 5.95037E-09
 -1       582 2.31779E+05 6.74625E+01 2.03467E+02-6.78323E+04-5.78439E-10 5.68889E-09
 -1       583 2.31795E+05 1.08261E+02 3.93909E+02-6.15989E+04-4.23825E-10 7.70729E-09
 -1       584 2.31985E+05 4.22539E+02 8.86712E+02-6.75342E+04 1.04046E-09-2.11003E-09
 -1       585 2.31756E+05 1.19785E+03 1.80120E+03-6.18617E+04-5.85715E-10 3.71620E-09
 -1       586-2.92541E+03 7.70170E+04-3.44838E+03-2.06262E+05-1.25328E-09 1.08605E-09
 -1       587-7.61930E+02 7.66059E+04-3.17485E+01-2.27038E+05-3.56158E-09-1.27291E-08
 -1       588 7.17388E+02 7.66312E+04 3.31565E+03-2.06166E+05-2.81943E-09 7.19047E-09
 -1       589 4.34206E+03 7.84260E+04 9.16937E+03-2.26796E+05-1.19326E-09-7.69887E-09
 -1       590 1.29972E+04 7.56161E+04 1.94576E+04-2.06522E+05-1.74532E-09-9.06221E-09
 -1       591-4.76585E+04-1.20785E+04-1.62580E+04-2.25756E+04-2.95188E-09-4.14457E-09
 -1       592-4.99681E+04-1.52863E+04-8.80632E+03-2.59207E+04 8.35513E-10 3.70653E-09
 -1       593-4.92905E+04-1.08925E+04-3.66587E+03-2.37618E+04 8.47535E-10 1.10617E-08
 -1       594-4.77146E+04-1.29102E+04-1.82835E+03-2.60172E+04 1.68640E-09 4.92608E-09
 -1       595-4.94152E+04-1.08880E+04-8.39823E+02-2.38159E+04 6.98037E-11 6.72755E-09
 -1       596-4.75610E+04-1.28015E+04-4.27516E+02-2.59998E+04 6.17506E-09 2.39115E-09
 -1       597-4.94308E+04-1.08989E+04-2.34025E+02-2.38179E+04 7.48571E-10-4.40514E-09
 -1       598-4.75460E+04-1.27973E+04-1.90388E+02-2.59949E+04-2.20638E-09 2.39632E-09
 -1       599-4.94297E+04-1.08991E+04-2.46013E+02-2.38175E+04 2.08911E-09 4.78053E-10
 -1       600-4.75617E+04-1.28025E+04-4.59261E+02-2.59987E+04 1.09350E-09-3.43925E-09
 -1       601-4.94107E+04-1.08882E+04-9.07185E+02-2.38146E+04 3.41811E-09-5.95901E-09
 -1       602-4.77275E+04-1.29196E+04-1.97772E+03-2.60149E+04-1.26136E-09 1.05729E-11
 -1       603-4.92738E+04-1.08953E+04-3.96647E+03-2.37565E+04-3.77986E-09-6.99401E-10
 -1       604-5.01780E+04-1.54768E+04-9.52817E+03-2.58928E+04 1.55705E-09 2.01890E-08
 -1       605-4.74932E+04-1.21910E+04-1.75907E+04-2.24867E+04 2.71416E-09 1.14997E-08
 -1       606 2.73924E+04-1.10830E+04-1.99169E+04 2.63307E+04-1.44155E-09-3.78895E-09
 -1       607 2.39846E+04-3.59431E+03-9.91777E+03 2.95651E+04 2.45564E-11-8.43102E-10
 -1       608 2.59195E+04-6.24627E+02-4.44098E+03 2.61261E+04-8.45830E-10 4.78076E-09
 -1       609 2.55388E+04-1.84065E+02-2.24309E+03 2.97973E+04-2.52385E-09-4.83737E-09
 -1       610 2.57437E+04 4.35820E+00-1.07109E+03 2.61029E+04-1.92631E-09-4.00860E-10
 -1       611 2.56756E+04 1.42536E+01-5.40007E+02 2.98226E+04-4.16776E-09 4.07795E-09
 -1       612 2.56985E+04 2.04225E+01-2.57666E+02 2.61006E+04-8.81300E-09-6.06178E-09
 -1       613 2.56756E+04 2.24655E+01-1.16239E+02 2.98256E+04-1.87738E-08-1.02098E-08
 -1       614 2.56743E+04 1.98814E+01-2.96402E+01 2.60998E+04-1.01181E-08 5.42173E-09
 -1       615 2.56644E+04 2.75509E+01 4.33287E+01 2.98260E+04 1.91903E-09 9.40554E-09
 -1       616 2.56558E+04 2.55420E+01 1.34824E+02 2.61001E+04-3.66663E-09-3.14276E-09
 -1       617 2.56753E+04 5.95063E+01 3.09738E+02 2.98255E+04 1.22509E-09 1.47293E-09
 -1       618 2.56250E+04 1.17309E+02 6.24981E+02 2.61002E+04 3.16504E-10 1.22484E-08
 -1       619 2.58928E+04 5.44767E+02 1.40398E+03 2.98247E+04-1.29114E-09 9.00968E-09
 -1       620 2.54154E+04 1.60112E+03 2.82203E+03 2.60994E+04-3.03658E-10-3.15822E-09
 -1       621 2.77781E+02 2.35607E+05 2.53193E+03 1.76418E+04-1.81899E-12-5.92945E-09
 -1       622 3.44829E+02 2.36223E+05 2.36461E+03 2.56660E+04 1.39607E-10 5.92991E-09
 -1       623 2.77044E+01 2.35746E+05 2.99857E+03 1.75577E+04 1.76840E-10 1.30422E-09
 -1       624 1.45267E+03 2.37219E+05 5.93869E+03 2.57518E+04 1.86191E-10 6.78949E-09
 -1       625 1.45698E+03 2.34574E+05 1.04389E+04 1.75551E+04 3.12866E-10-1.47344E-08
 -1       626 2.08381E+05 5.42071E+04 4.54241E+03 1.07673E+05-4.98130E-09-4.87671E-09
 -1       627 2.06012E+05 5.57600E+04 2.18893E+03 1.11808E+05-2.18415E-09 1.00563E-08
 -1       628 2.08515E+05 5.21020E+04 9.24979E+02 1.08410E+05-7.65340E-09 2.02183E-08
 -1       629 2.05410E+05 5.51920E+04 4.52839E+02 1.12053E+05-6.38784E-09 1.96979E-08
 -1       630 2.08525E+05 5.20022E+04 2.09262E+02 1.08436E+05-5.67616E-09-1.70590E-09
 -1       631 2.05340E+05 5.51744E+04 1.11709E+02 1.12054E+05-5.37693E-09-9.31740E-09
 -1       632 2.08517E+05 5.20087E+04 7.18896E+01 1.08428E+05-3.34649E-09-5.64512E-09
 -1       633 2.05327E+05 5.51790E+04 7.76430E+01 1.12047E+05-1.00931E-09-7.72980E-09
 -1       634 2.08508E+05 5.20090E+04 1.23255E+02 1.08425E+05 8.57744E-09 1.45881E-08
 -1       635 2.05334E+05 5.51797E+04 2.48189E+02 1.12048E+05-1.01318E-09 7.50379E-09
 -1       636 2.08497E+05 5.20066E+04 5.00512E+02 1.08422E+05-4.01658E-09 7.29869E-10
 -1       637 2.05439E+05 5.52585E+04 1.09979E+03 1.12045E+05 2.41960E-09 1.40867E-08
 -1       638 2.08456E+05 5.22507E+04 2.25978E+03 1.08311E+05-4.11546E-11-1.30558E-09
 -1       639 2.06625E+05 5.69090E+04 5.34614E+03 1.11693E+05-3.45767E-09-6.13863E-09
 -1       640 2.08296E+05 5.71748E+04 1.10943E+04 1.06227E+05-1.32559E-09 1.56888E-09
 -1       656 5.46857E+04-1.39104E+06-1.32013E+05-7.62275E+02-6.18456E-10-4.51732E-09
 -1       657-7.23071E+04-1.45065E+06-1.09274E+05 7.23914E+03-6.54836E-10-1.28554E-08
 -1       658 1.73915E+04-1.40801E+06-6.71862E+04-2.29535E+03-2.06910E-11 2.15559E-09
 -1       659-7.78804E+04-1.45330E+06-1.16595E+05 8.36340E+03-1.13232E-09 6.56332E-09
 -1       660 6.02462E+04-1.38841E+06-1.44602E+05-1.88651E+03-1.11322E-09-1.95809E-09
 -1       661 1.65799E+05 1.78225E+04 1.64726E+04 6.48335E+04 7.51697E-10-8.30096E-09
 -1       662 1.74640E+05 3.04855E+04 1.11003E+04 6.16752E+04 3.53776E-09-9.19772E-09
 -1       663 1.69031E+05 2.31093E+04 3.88275E+03 6.38976E+04-2.17517E-09 1.17029E-09
 -1       664 1.70896E+05 2.42997E+04 2.32191E+03 6.28156E+04 2.72240E-09-3.16174E-09
 -1       665 1.69518E+05 2.38344E+04 9.16049E+02 6.37584E+04-8.96762E-10 2.42579E-10
 -1       666 1.70322E+05 2.34682E+04 5.35174E+02 6.29958E+04-5.94480E-09-6.53682E-09
 -1       667 1.69602E+05 2.39191E+04 2.83413E+02 6.37255E+04 1.75294E-09-8.23949E-09
 -1       668 1.70232E+05 2.34045E+04 2.86664E+02 6.30438E+04-2.10318E-09-6.12414E-09
 -1       669 1.69608E+05 2.38962E+04 3.86434E+02 6.37110E+04 1.14268E-09 4.11589E-09
 -1       670 1.70327E+05 2.36125E+04 8.39878E+02 6.30457E+04 3.04289E-09 1.19423E-08
 -1       671 1.69507E+05 2.37153E+04 1.49071E+03 6.37218E+04 3.46372E-10-7.22764E-09
 -1       672 1.71195E+05 2.50634E+04 3.81358E+03 6.28365E+04 1.30231E-09-1.06331E-08
 -1       673 1.68745E+05 2.24818E+04 6.39073E+03 6.39063E+04-1.29353E-09-1.57518E-08
 -1       674 1.77278E+05 3.53300E+04 1.82762E+04 6.10487E+04 2.40277E-10-1.21790E-08
 -1       675 1.63463E+05 1.37359E+04 2.71279E+04 6.54014E+04-2.08729E-10 1.36970E-09
 -1       676 2.08952E+01-2.56322E+05-9.70712E+02-2.79898E+00-2.80295E-10 2.59717E-09
 -1       677-2.57806E+02-2.56556E+05-1.77654E+03 5.59438E+00 7.98565E-10 1.10964E-09
 -1       678 1.72086E+02-2.56155E+05-3.14046E+03-2.79353E+00-4.28827E-10-9.97262E-09
 -1       679-3.14139E+03-2.58452E+05-7.46029E+03 5.57308E+00-4.50314E-10-5.99796E-09
 -1       680 1.87479E+03-2.54427E+05-1.20235E+04-2.74656E+00-1.26147E-09 7.32756E-09
 -1       771-2.71155E+06-5.60856E+05-8.79888E+04-1.21402E+06-2.16241E-08-1.55414E-08
 -1       772-2.66795E+06-6.18119E+05-4.60657E+04-1.27937E+06-1.26311E-08 8.74570E-09
 -1       773-2.72734E+06-5.48379E+05-2.20239E+04-1.21978E+06-9.32778E-09 1.37152E-08
 -1       774-2.65919E+06-6.08877E+05-1.01423E+04-1.29084E+06 8.81118E-09 7.36327E-09
 -1       775-2.73412E+06-5.43575E+05-6.62702E+03-1.22180E+06-8.96398E-09 4.42378E-09
 -1       776-2.66265E+06-6.08356E+05-2.64108E+03-1.29877E+06-9.89530E-09 3.11775E-09
 -1       777-2.73972E+06-5.39467E+05-2.59648E+03-1.22355E+06 6.79574E-09 7.96717E-09
 -1       778-2.66656E+06-6.07988E+05-7.96101E+02-1.30549E+06 1.57161E-09 5.74983E-09
 -1       779-2.74441E+06-5.35950E+05-1.20484E+03-1.22506E+06-5.71890E-09-3.24690E-09
 -1       780-2.67002E+06-6.07600E+05-2.32613E+02-1.31094E+06-3.14321E-09 1.30058E-09
 -1       781-2.74808E+06-5.33151E+05-4.78502E+02-1.22624E+06-1.66838E-08-6.05723E-10
 -1       782-2.67267E+06-6.07235E+05 8.17850E+01-1.31495E+06-2.44145E-08-8.49377E-09
 -1       783-2.75063E+06-5.31240E+05 1.03575E+02-1.22708E+06-2.51748E-09-5.87579E-09
 -1       784-2.67417E+06-6.06793E+05 6.74919E+02-1.31740E+06-1.11195E-08-6.33008E-10
 -1       785-2.75204E+06-5.30174E+05 1.16197E+03-1.22759E+06-2.18351E-08 4.10910E-09
 -1       786 1.26318E+05-9.05986E+03 2.09595E+04-1.34157E+02 4.87827E-10 1.41754E-08
 -1       787 1.35406E+05 1.04885E+04 1.48283E+04 2.24390E+01 2.42804E-09 1.90164E-08
 -1       788 1.29822E+05-1.42013E+03 5.42337E+03-1.07571E+02 1.34344E-09 2.20598E-09
 -1       789 1.31323E+05 1.64303E+03 3.40559E+03-2.04209E+01 9.17431E-11 7.18114E-09
 -1       790 1.30401E+05-2.21586E+02 1.38106E+03-9.13022E+01-1.38636E-09 7.24452E-09
 -1       791 1.30647E+05 2.56167E+02 8.01962E+02-4.86904E+01-2.14205E-09 1.12489E-08
 -1       792 1.30499E+05-3.43062E+01 3.48409E+02-7.93017E+01-1.00420E-09-3.88022E-09
 -1       793 1.30533E+05 3.97194E+01 1.92508E+02-7.13327E+01-4.86363E-10-1.41449E-08
 -1       794 1.30516E+05-5.27595E+00 8.78347E+01-6.86596E+01 1.68578E-09 4.72964E-09
 -1       795 1.30513E+05 6.50592E+00 4.79217E+01-9.35538E+01-1.84032E-09 1.14468E-08
 -1       796 1.30519E+05-1.10920E+00 2.39189E+01-5.70803E+01 9.03427E-10-5.78490E-09
 -1       797 1.30511E+05 3.56085E+00 1.68131E+01-1.20100E+02 4.14788E-10 2.62042E-10
 -1       798 1.30518E+05-2.33455E+00 1.37892E+01-4.21125E+01 6.93950E-10-7.86656E-09
 -1       799 1.30517E+05 1.67795E+01 2.61718E+01-1.56628E+02 1.40558E-09-4.46935E-09
 -1       800 1.30512E+05-1.43275E+01 3.37294E+01-2.05516E+01 1.23061E-10 6.45394E-09
 -1       801 7.58456E+04-4.34742E+06-4.61447E+05 2.21568E+05 3.60305E-08-1.25874E-08
 -1       802-5.34003E+04-2.56167E+06 3.88066E+04-2.08596E+05 9.98771E-08-1.27447E-08
 -1       803-2.46987E+04-4.41382E+06-2.28733E+05 2.21199E+05 4.52346E-08 2.76432E-08
 -1       804-2.49556E+04-3.14854E+06 5.07843E+04 1.71438E+05-6.35282E-09-2.42653E-09
 -1       805 3.82178E+04-3.76578E+06-5.59037E+04-1.58244E+05-3.39060E-09 2.52047E-09
 -1       806-2.53797E+05-4.79093E+04-1.84871E+04-9.91378E+04-4.80668E-09 2.57796E-09
 -1       807-2.55454E+05-4.46888E+04-9.08247E+03-1.03383E+05 3.07136E-09 7.79837E-09
 -1       808-2.54289E+05-4.12626E+04-3.85318E+03-1.02307E+05-5.27507E-11 7.66522E-09
 -1       809-2.53553E+05-4.21291E+04-1.88414E+03-1.03598E+05-3.53202E-09 3.43834E-09
 -1       810-2.54366E+05-4.10309E+04-8.63484E+02-1.02448E+05 1.33195E-09 3.33853E-09
 -1       811-2.53408E+05-4.20253E+04-4.29315E+02-1.03570E+05 1.89266E-09 4.96652E-09
 -1       812-2.54379E+05-4.10500E+04-2.16780E+02-1.02448E+05 1.03046E-09-5.93150E-09
 -1       813-2.53389E+05-4.20263E+04-1.40450E+02-1.03557E+05 1.05274E-09-8.81528E-09
 -1       814-2.54376E+05-4.10566E+04-1.38286E+02-1.02446E+05-2.01544E-09-7.18728E-09
 -1       815-2.53394E+05-4.20276E+04-2.22363E+02-1.03553E+05-2.54340E-09 8.81164E-09
 -1       816-2.54362E+05-4.10545E+04-4.20782E+02-1.02444E+05 1.83445E-09 6.33872E-09
 -1       817-2.53467E+05-4.20672E+04-9.03445E+02-1.03546E+05 9.10859E-10-1.30449E-08
 -1       818-2.54310E+05-4.11800E+04-1.84230E+03-1.02385E+05 7.55244E-09-1.62026E-09
 -1       819-2.54476E+05-4.31826E+04-4.33570E+03-1.03314E+05 4.31510E-09-1.49528E-08
 -1       820-2.53971E+05-4.44478E+04-8.82422E+03-1.00979E+05-1.89993E-09-1.20937E-08
 -1       821-3.08927E+05 1.70841E+04-3.95120E+04 4.49553E+02 5.11734E-07-2.97223E-08
 -1       822-3.26039E+05-1.97776E+04-2.79589E+04-1.12110E+03 1.03048E-06 8.07495E-09
 -1       823-3.15528E+05 2.67893E+03-1.02330E+04 4.91949E+02 5.11321E-07 5.36238E-09
 -1       824-3.18325E+05-3.09979E+03-6.43658E+03-9.51880E+02 1.62866E-09 6.09452E-09
 -1       825-3.16638E+05 4.18765E+02-2.65001E+03 2.80334E+02 1.10885E-09-6.03427E-09
 -1       826-3.17021E+05-4.93102E+02-1.59039E+03-3.72595E+02 5.84635E-11 8.17641E-09
 -1       827-3.16830E+05 7.33668E+01-8.35032E+02-8.73450E+01-1.05102E-09 3.06801E-09
 -1       828-3.16849E+05-1.50683E+02-7.27941E+02 3.50073E+02-3.29942E-09-2.00347E-10
 -1       829-3.16811E+05 7.66509E+01-8.52193E+02-4.42346E+02 7.02620E-11 3.21802E-09
 -1       830-3.17074E+05-5.14214E+02-1.65869E+03 8.83835E+02 3.05977E-10 5.41570E-09
 -1       831-3.16605E+05 4.37441E+02-2.75289E+03-6.21118E+02-2.91782E-09-3.78714E-09
 -1       832-3.18406E+05-3.22976E+03-6.70861E+03 9.83145E+02-1.27743E-09-3.60933E-09
 -1       833-3.15481E+05 2.79046E+03-1.06641E+04-5.41656E+02-2.02708E-09 7.10088E-09
 -1       834-3.26392E+05-2.06060E+04-2.91263E+04 5.99260E+02-1.51151E-09 2.38106E-09
 -1       835-3.08621E+05 1.77997E+04-4.11781E+04-2.37220E+02 5.30818E-09 4.51109E-10
 -1       836-1.06099E+03 2.92466E+05 1.77879E+04-1.62489E+04-1.03319E-09 9.40872E-09
 -1       837 3.86511E+03 2.98003E+05 1.52183E+04-3.27189E+04-8.58108E-10 2.13822E-09
 -1       838-4.10413E+02 2.93997E+05 1.57395E+04-1.61841E+04-4.67935E-10 3.76826E-09
 -1       839 1.00708E+04 3.02629E+05 3.00043E+04-3.27590E+04 1.59616E-10 2.36855E-09
 -1       840-3.06268E+03 2.87797E+05 4.79460E+04-1.62086E+04-1.76442E-10 8.16880E-09
 -1       856-7.53370E+04 7.72695E+03-2.03628E+04-4.26871E+02-6.06576E-10-8.43102E-09
 -1       857-8.37419E+04-9.06652E+03-1.40187E+04 4.93069E+03-2.53800E-09-1.54780E-08
 -1       858-7.86597E+04 1.08287E+03-5.28436E+03-4.49886E+02-3.39242E-10 8.95170E-10
 -1       859-7.99272E+04-1.26231E+03-3.19053E+03 4.96674E+03-1.10812E-09 1.81394E-08
 -1       860-7.91563E+04 1.50844E+02-1.33990E+03-4.62955E+02 1.20491E-09 1.37084E-09
 -1       861-7.93556E+04-1.69284E+02-7.42884E+02 4.98462E+03-4.09695E-09-5.17215E-09
 -1       862-7.92337E+04 2.00091E+01-3.20403E+02-4.67779E+02 2.87208E-09 5.53651E-09
 -1       863-7.92627E+04-1.28958E+01-1.43041E+02 4.98691E+03 6.24562E-09-8.48317E-09
 -1       864-7.92495E+04-2.07143E+00-1.38140E+01-4.65254E+02 3.69711E-09-9.18031E-09
 -1       865-7.92253E+04 3.90419E+01 1.13886E+02 4.97394E+03 7.04132E-09-9.40507E-09
 -1       866-7.92693E+04-3.23056E+01 2.59861E+02-4.54805E+02 1.50760E-09-9.81899E-10
 -1       867-7.90946E+04 2.68838E+02 6.59338E+02 4.94555E+03 1.06775E-09 1.13961E-08
 -1       868-7.93762E+04-2.28724E+02 1.10011E+03-4.36861E+02 2.91664E-10 1.35532E-08
 -1       869-7.82816E+04 1.90176E+03 2.93683E+03 4.89854E+03 3.11303E-10-7.75856E-10
 -1       870-8.00761E+04-1.62234E+03 4.26063E+03-4.07794E+02-1.20451E-09 3.94903E-09
 -1       871-4.67403E+03-1.21646E+04-1.55110E+04 1.02864E+05 2.78305E-10 2.14850E-08
 -1       872-1.93938E+03-1.56784E+04-6.38822E+03 1.33364E+05-5.12046E-10 1.35456E-08
 -1       873 5.26863E+01-1.40242E+04 7.37255E+02 1.02639E+05-2.35104E-10 3.70085E-09
 -1       874 2.42452E+03-1.18860E+04 8.40958E+03 1.33403E+05-1.00317E-09 1.86719E-09
 -1       875 5.52895E+03-1.60224E+04 1.87627E+04 1.02828E+05-5.71163E-10 2.27647E-09
 -1       876 2.46191E+05 4.19081E+04 1.29279E+04 9.92628E+04-2.44802E-09-9.82436E-09
 -1       877 2.47044E+05 4.46328E+04 6.90386E+03 1.02961E+05 2.40470E-09 1.09635E-08
 -1       878 2.47399E+05 4.04781E+04 2.89239E+03 1.00325E+05 1.26693E-09 6.75982E-09
 -1       879 2.45287E+05 4.28795E+04 1.44098E+03 1.03050E+05 1.36060E-09 1.84999E-08
 -1       880 2.47486E+05 4.04628E+04 6.71003E+02 1.00368E+05 4.37922E-09 1.28820E-08
 -1       881 2.45170E+05 4.28047E+04 3.57803E+02 1.03031E+05 1.13753E-08 3.97979E-09
 -1       882 2.47494E+05 4.04737E+04 2.28006E+02 1.00370E+05 6.74436E-09 2.07796E-09
 -1       883 2.45162E+05 4.28010E+04 2.43675E+02 1.03025E+05-9.23956E-09-1.10191E-10
 -1       884 2.47489E+05 4.04712E+04 3.86333E+02 1.00370E+05-4.50450E-09-3.66344E-09
 -1       885 2.45193E+05 4.28064E+04 7.75927E+02 1.03034E+05 1.46036E-09 3.83545E-09
 -1       886 2.47459E+05 4.04485E+04 1.56348E+03 1.00367E+05 7.20659E-09 4.65411E-09
 -1       887 2.45467E+05 4.29866E+04 3.41507E+03 1.03074E+05 3.26790E-09-3.55749E-09
 -1       888 2.47243E+05 4.04865E+04 6.88145E+03 1.00257E+05-1.12877E-10 6.86259E-09
 -1       889 2.49565E+05 4.72465E+04 1.64388E+04 1.02947E+05 3.03878E-10-6.49811E-09
 -1       890 2.44440E+05 4.38168E+04 3.07891E+04 9.76317E+04 2.08411E-09 1.08230E-09
 -1       891-1.25776E+02-1.40917E+05-1.80679E+03 2.45508E+04-3.58000E-10 3.80783E-09
 -1       892-2.60485E+02-1.41371E+05-1.90907E+03 3.78082E+04-5.77757E-10 1.45542E-09
 -1       893-1.66694E+01-1.40983E+05-2.65830E+03 2.45561E+04-2.65118E-10 1.25137E-08
 -1       894-1.43225E+03-1.42371E+05-5.48417E+03 3.76721E+04 3.10592E-10 1.49466E-08
 -1       895-9.63826E+02-1.39835E+05-9.59860E+03 2.46858E+04 2.28624E-10 7.48514E-10
 -1       956-3.11406E+05-4.38322E+03-1.09879E+04 2.17717E+04-1.82808E-09-6.18047E-09
 -1       957-3.13572E+05-1.49289E+03-5.64055E+03 2.62130E+04-1.30512E-10 2.97860E-09
 -1       958-3.12384E+05-1.33692E+02-2.54135E+03 2.16420E+04 4.62023E-10 5.14819E-09
 -1       959-3.12554E+05-3.86768E+01-1.29803E+03 2.63565E+04-1.27693E-09 5.61772E-09
 -1       960-3.12474E+05 2.19526E+01-6.32905E+02 2.16292E+04 9.47239E-10 2.89197E-09
 -1       961-3.12482E+05 1.73217E+01-3.35927E+02 2.63712E+04 7.03949E-10-2.97860E-10
 -1       962-3.12492E+05 1.83729E+01-1.92618E+02 2.16272E+04 2.79942E-09 6.92944E-09
 -1       963-3.12479E+05 1.91321E+01-1.55225E+02 2.63737E+04 6.40375E-09 6.46310E-09
 -1       964-3.12496E+05 2.05928E+01-1.89259E+02 2.16266E+04 3.11928E-09-5.00677E-09
 -1       965-3.12490E+05 2.20490E+01-3.27744E+02 2.63735E+04 2.64356E-09-4.10887E-09
 -1       966-3.12485E+05 2.85567E+01-6.15750E+02 2.16275E+04 1.71576E-09 1.87242E-09
 -1       967-3.12569E+05-2.78246E+01-1.26309E+03 2.63640E+04-6.46537E-10-4.79076E-09
 -1       968-3.12404E+05-1.18532E+02-2.47218E+03 2.16362E+04-6.18002E-10 1.55845E-09
 -1       969-3.13568E+05-1.43898E+03-5.48880E+03 2.62635E+04 4.90218E-10-6.25025E-09
 -1       970-3.11458E+05-4.25100E+03-1.06915E+04 2.17283E+04 1.28102E-09 1.18489E-08
 -1       971-2.91104E+05-1.50307E+03-8.28590E+03 1.34830E+04-3.66708E-09 3.23593E-09
 -1       972-2.93113E+05-1.08506E+03-4.51244E+03 1.87857E+04-3.84171E-09-4.54315E-09
 -1       973-2.92026E+05-2.17418E+01-2.02081E+03 1.33709E+04-4.90581E-09 4.61569E-09
 -1       974-2.92160E+05-2.57994E+01-1.04708E+03 1.89084E+04 7.27596E-12 1.07417E-08
 -1       975-2.92098E+05 1.74977E+01-5.22764E+02 1.33603E+04-8.74252E-09 1.64061E-09
 -1       976-2.92105E+05 1.80036E+01-3.00420E+02 1.89216E+04-1.49491E-08-9.72443E-09
 -1       977-2.92112E+05 1.76539E+01-2.15949E+02 1.33576E+04-5.24392E-09 2.59195E-09
 -1       978-2.92109E+05 2.31677E+01-2.49828E+02 1.89254E+04 5.24551E-09 1.03880E-08
 -1       979-2.92112E+05 2.46596E+01-3.98925E+02 1.33565E+04 2.77396E-10 1.17727E-08
 -1       980-2.92138E+05 2.57791E+01-7.68717E+02 1.89262E+04 5.36755E-09 6.55666E-09
 -1       981-2.92087E+05 4.39327E+01-1.48800E+03 1.33569E+04 6.11749E-10-8.18670E-09
 -1       982-2.92343E+05-8.39696E+01-3.07522E+03 1.89205E+04-1.81171E-09-2.42638E-09
 -1       983-2.91900E+05-5.11097E+01-5.97491E+03 1.33623E+04-1.56911E-09-9.09495E-11
 -1       984-2.95217E+05-3.20417E+03-1.33802E+04 1.88454E+04-4.41855E-09 1.87026E-09
 -1       985-2.89196E+05-4.42299E+03-2.45703E+04 1.34345E+04 3.60160E-10 1.13068E-08
 -3
    1PSTEP                        15           8           1          
  100CL  108 6.09375E-01         409                     0    8           1
 -4  DISP        4    1
 -5  D1          1    2    1    0
 -5  D2          1    2    2    0
 -5  D3          1    2    3    0
 -5  ALL         1    2    0    0    1ALL
 -1         1 1.30195E-03 0.00000E+00 0.00000E+00
 -1         2 1.22690E-03 5.71377E-28 1.32349E-23
 -1         3 2.69062E-04 4.37047E-27 1.32349E-23
 -1         5 1.49513E-04-2.42869E-26 3.30872E-24
 -1         8 1.28242E-03-6.15931E-07 0.00000E+00
 -1         9 1.25090E-03-3.71104E-06 0.00000E+00
 -1        10 2.44806E-04-3.24198E-06 0.00000E+00
 -1        12 1.50380E-04 7.07259E-07-1.65436E-24
 -1        15 1.25899E-03-6.77739E-07-2.06795E-25
 -1        16 1.26582E-03-4.51203E-06 0.00000E+00
 -1        17 1.69326E-04-7.13597E-06 0.00000E+00
 -1        18 1.51568E-04 2.07161E-05 0.00000E+00
 -1        19 1.52984E-04 1.41041E-06 0.00000E+00
 -1        20 1.53129E-04 7.91578E-07 0.00000E+00
 -1        21 1.52317E-04-2.63750E-06 3.30872E-24
 -1        24 2.71928E-05-1.03268E-05 0.00000E+00
 -1        25 1.57439E-04 2.09011E-05 0.00000E+00
 -1        26 1.58139E-04 1.95433E-06 0.00000E+00
 -1        27 1.56211E-04-2.37317E-06 0.00000E+00
 -1        28 1.55820E-04-3.20546E-06 0.00000E+00
 -1        32 0.00000E+00 0.00000E+00 0.00000E+00
 -1        33 1.62241E-04 2.61754E-06 0.00000E+00
 -1        34 1.60351E-04-2.41299E-06 0.00000E+00
 -1        35 1.58605E-04-3.52003E-06 0.00000E+00
 -1        51 1.30069E-03-1.11078E-07 0.00000E+00
 -1        52 1.29834E-03-2.10005E-07 0.00000E+00
 -1        53 1.29512E-03-3.07835E-07 0.00000E+00
 -1        54 1.29125E-03-4.06566E-07 0.00000E+00
 -1        55 1.28694E-03-5.07568E-07 2.48154E-24
 -1        56 1.29893E-03-3.60704E-07 0.00000E+00
 -1        57 1.29530E-03 5.62345E-07-2.64698E-23
 -1        58 1.29126E-03 2.61541E-06 0.00000E+00
 -1        59 1.28687E-03 5.51829E-06 0.00000E+00
 -1        60 1.28230E-03 8.89211E-06 0.00000E+00
 -1        61 1.27771E-03 1.23191E-05 0.00000E+00
 -1        62 1.27327E-03 1.53758E-05 1.05879E-22
 -1        63 1.26911E-03 1.76621E-05 5.29396E-23
 -1        64 1.26535E-03 1.88820E-05 1.05879E-22
 -1        65 1.26208E-03 1.88104E-05 5.29396E-23
 -1        66 1.25932E-03 1.73960E-05 0.00000E+00
 -1        67 1.25705E-03 1.46781E-05 0.00000E+00
 -1        68 1.25518E-03 1.08701E-05 0.00000E+00
 -1        69 1.25363E-03 6.26541E-06 2.64698E-23
 -1        70 1.25222E-03 1.25214E-06 0.00000E+00
 -1        86 1.22796E-03-6.09231E-07 0.00000E+00
 -1        87 1.23113E-03-1.22287E-06 0.00000E+00
 -1        88 1.23577E-03-1.84185E-06-2.64698E-23
 -1        89 1.24121E-03-2.46553E-06 0.00000E+00
 -1        90 1.24655E-03-3.08844E-06 0.00000E+00
 -1       121 2.68381E-04-5.30021E-07 0.00000E+00
 -1       122 2.66341E-04-1.06182E-06 6.61744E-24
 -1       123 2.62949E-04-1.59717E-06 0.00000E+00
 -1       124 2.58217E-04-2.13784E-06-6.61744E-24
 -1       125 2.52162E-04-2.68532E-06 0.00000E+00
 -1       191 1.49537E-04 1.17894E-07 1.65436E-24
 -1       192 1.49609E-04 2.35784E-07 0.00000E+00
 -1       193 1.49730E-04 3.53670E-07 0.00000E+00
 -1       194 1.49898E-04 4.71548E-07-8.27181E-25
 -1       195 1.50115E-04 5.89412E-07-1.65436E-24
 -1       251 1.28174E-03-1.14176E-05-1.32349E-23
 -1       252 1.28034E-03-5.13077E-05-6.61744E-24
 -1       253 1.27795E-03-1.12447E-04 1.32349E-23
 -1       254 1.27471E-03-1.86469E-04 0.00000E+00
 -1       255 1.27142E-03-2.61279E-04 1.32349E-23
 -1       256 1.26888E-03-3.24766E-04 6.61744E-24
 -1       257 1.26734E-03-3.68104E-04-1.32349E-23
 -1       258 1.26660E-03-3.82961E-04 0.00000E+00
 -1       259 1.26588E-03-3.68928E-04 1.32349E-23
 -1       260 1.26437E-03-3.26346E-04 0.00000E+00
 -1       261 1.26187E-03-2.63496E-04 0.00000E+00
 -1       262 1.25861E-03-1.89156E-04 6.61744E-24
 -1       263 1.25539E-03-1.15438E-04-1.32349E-23
 -1       264 1.25300E-03-5.44396E-05 1.32349E-23
 -1       265 1.25160E-03-1.45670E-05-2.64698E-23
 -1       266 1.27851E-03-6.35178E-07 0.00000E+00
 -1       267 1.27461E-03-6.44389E-07-8.27181E-25
 -1       268 1.27071E-03-6.54235E-07 0.00000E+00
 -1       269 1.26680E-03-6.62199E-07 2.06795E-25
 -1       270 1.26290E-03-6.70119E-07-2.06795E-25
 -1       271 1.28002E-03 2.86725E-06 0.00000E+00
 -1       272 1.27765E-03 6.15169E-06-1.32349E-23
 -1       273 1.27539E-03 9.16547E-06-2.64698E-23
 -1       274 1.27326E-03 1.18255E-05 1.32349E-23
 -1       275 1.27129E-03 1.40572E-05 0.00000E+00
 -1       276 1.26951E-03 1.57895E-05 1.32349E-23
 -1       277 1.26794E-03 1.69581E-05 0.00000E+00
 -1       278 1.26661E-03 1.75054E-05 1.32349E-23
 -1       279 1.26552E-03 1.73822E-05 0.00000E+00
 -1       280 1.26471E-03 1.65474E-05 0.00000E+00
 -1       281 1.26417E-03 1.49690E-05 0.00000E+00
 -1       282 1.26392E-03 1.26246E-05-1.32349E-23
 -1       283 1.26395E-03 9.50126E-06-2.64698E-23
 -1       284 1.26429E-03 5.59714E-06 0.00000E+00
 -1       285 1.26490E-03 9.18019E-07 0.00000E+00
 -1       301 1.25357E-03-3.86442E-06 0.00000E+00
 -1       302 1.25549E-03-3.98968E-06 0.00000E+00
 -1       303 1.25715E-03-4.11244E-06 1.32349E-23
 -1       304 1.25908E-03-4.23516E-06-1.32349E-23
 -1       305 1.26180E-03-4.36135E-06 0.00000E+00
 -1       306 1.27731E-03-1.00715E-04-1.05879E-22
 -1       307 1.33744E-03-3.74762E-04 0.00000E+00
 -1       308 1.40519E-03-7.81834E-04 0.00000E+00
 -1       309 1.46961E-03-1.26157E-03 0.00000E+00
 -1       310 1.53455E-03-1.73234E-03 0.00000E+00
 -1       311 1.60219E-03-2.11341E-03 0.00000E+00
 -1       312 1.65738E-03-2.34936E-03 1.05879E-22
 -1       313 1.67103E-03-2.40370E-03 0.00000E+00
 -1       314 1.60960E-03-2.27843E-03 0.00000E+00
 -1       315 1.45067E-03-1.99967E-03 0.00000E+00
 -1       316 1.20405E-03-1.61642E-03 0.00000E+00
 -1       317 9.02150E-04-1.17998E-03-5.29396E-23
 -1       318 6.03795E-04-7.46844E-04 0.00000E+00
 -1       319 3.66868E-04-3.73815E-04 0.00000E+00
 -1       320 2.20105E-04-1.11434E-04 0.00000E+00
 -1       336 2.36006E-04-3.85175E-06 1.32349E-23
 -1       337 2.25625E-04-4.47669E-06 6.61744E-24
 -1       338 2.13710E-04-5.11771E-06 1.32349E-23
 -1       339 2.00313E-04-5.77500E-06-6.61744E-24
 -1       340 1.85496E-04-6.45163E-06 0.00000E+00
 -1       406 1.50694E-04 8.25079E-07-1.65436E-24
 -1       407 1.51055E-04 9.42845E-07-8.27181E-25
 -1       408 1.51465E-04 1.06052E-06 1.65436E-24
 -1       409 1.51923E-04 1.17797E-06-1.65436E-24
 -1       410 1.52430E-04 1.29495E-06-3.30872E-24
 -1       521 1.29347E-03-1.09979E-04 0.00000E+00
 -1       522 1.35453E-03-4.03485E-04 0.00000E+00
 -1       523 1.42090E-03-8.38430E-04 0.00000E+00
 -1       524 1.48184E-03-1.34911E-03-5.29396E-23
 -1       525 1.54362E-03-1.84959E-03 0.00000E+00
 -1       526 1.61052E-03-2.25496E-03 0.00000E+00
 -1       527 1.66657E-03-2.50495E-03-1.05879E-22
 -1       528 1.67982E-03-2.56164E-03 0.00000E+00
 -1       529 1.61189E-03-2.42643E-03 1.05879E-22
 -1       530 1.43783E-03-2.12976E-03 5.29396E-23
 -1       531 1.16735E-03-1.72364E-03 1.05879E-22
 -1       532 8.36435E-04-1.26289E-03 5.29396E-23
 -1       533 5.08895E-04-8.05076E-04 0.00000E+00
 -1       534 2.47607E-04-4.08096E-04 0.00000E+00
 -1       535 8.50926E-05-1.26275E-04 0.00000E+00
 -1       536 1.68825E-04 1.95686E-05 0.00000E+00
 -1       537 1.67641E-04 6.59327E-05 0.00000E+00
 -1       538 1.65843E-04 1.24758E-04-3.30872E-24
 -1       539 1.63739E-04 1.88782E-04 0.00000E+00
 -1       540 1.61844E-04 2.49209E-04 0.00000E+00
 -1       541 1.60596E-04 2.97262E-04 1.65436E-24
 -1       542 1.59996E-04 3.27664E-04 0.00000E+00
 -1       543 1.59813E-04 3.35246E-04 1.65436E-24
 -1       544 1.59559E-04 3.20683E-04-3.30872E-24
 -1       545 1.58787E-04 2.84804E-04 1.65436E-24
 -1       546 1.57412E-04 2.33998E-04 3.30872E-24
 -1       547 1.55589E-04 1.74745E-04 0.00000E+00
 -1       548 1.53792E-04 1.15962E-04 0.00000E+00
 -1       549 1.52486E-04 6.65657E-05 1.65436E-24
 -1       550 1.51785E-04 3.27761E-05 1.65436E-24
 -1       551 1.49747E-04-7.58028E-06 0.00000E+00
 -1       552 1.27368E-04-8.07598E-06-3.30872E-24
 -1       553 1.03050E-04-8.61273E-06 3.01792E-24
 -1       554 7.76663E-05-9.17604E-06 0.00000E+00
 -1       555 5.20908E-05-9.74637E-06-2.64698E-23
 -1       556 1.63563E-04 7.67662E-06 0.00000E+00
 -1       557 1.58953E-04 1.95625E-05 0.00000E+00
 -1       558 1.55387E-04 2.87584E-05 0.00000E+00
 -1       559 1.52758E-04 3.55202E-05 0.00000E+00
 -1       560 1.50961E-04 4.01038E-05 0.00000E+00
 -1       561 1.49893E-04 4.27670E-05 0.00000E+00
 -1       562 1.49453E-04 4.37686E-05-2.64698E-23
 -1       563 1.49540E-04 4.33676E-05 0.00000E+00
 -1       564 1.50056E-04 4.18240E-05 0.00000E+00
 -1       565 1.50901E-04 3.93978E-05 6.61744E-24
 -1       566 1.51977E-04 3.63496E-05 0.00000E+00
 -1       567 1.53189E-04 3.29402E-05 0.00000E+00
 -1       568 1.54437E-04 2.94303E-05-1.24077E-24
 -1       569 1.55626E-04 2.60807E-05 0.00000E+00
 -1       570 1.56659E-04 2.31522E-05 0.00000E+00
 -1       571 1.51654E-04 1.94677E-05 8.27181E-25
 -1       572 1.51742E-04 1.81645E-05 8.27181E-25
 -1       573 1.51830E-04 1.68189E-05 1.65436E-24
 -1       574 1.51919E-04 1.54440E-05 0.00000E+00
 -1       575 1.52007E-04 1.40527E-05-3.30872E-24
 -1       576 1.52096E-04 1.26582E-05 0.00000E+00
 -1       577 1.52184E-04 1.12734E-05 0.00000E+00
 -1       578 1.52273E-04 9.91162E-06 0.00000E+00
 -1       579 1.52362E-04 8.58580E-06 6.61744E-24
 -1       580 1.52450E-04 7.30910E-06-6.61744E-24
 -1       581 1.52539E-04 6.09464E-06 6.61744E-24
 -1       582 1.52628E-04 4.95546E-06 0.00000E+00
 -1       583 1.52717E-04 3.90467E-06 0.00000E+00
 -1       584 1.52806E-04 2.95519E-06 3.30872E-24
 -1       585 1.52895E-04 2.11986E-06-6.61744E-24
 -1       586 1.52497E-04 2.07489E-05 0.00000E+00
 -1       587 1.53395E-04 2.07810E-05 4.13590E-25
 -1       588 1.54299E-04 2.08128E-05 0.00000E+00
 -1       589 1.55249E-04 2.08440E-05 0.00000E+00
 -1       590 1.56283E-04 2.08742E-05 0.00000E+00
 -1       591 1.51985E-04 1.95383E-05 1.03398E-25
 -1       592 1.52406E-04 1.83373E-05 2.06795E-25
 -1       593 1.52833E-04 1.71190E-05-8.27181E-25
 -1       594 1.53265E-04 1.58884E-05 4.13590E-25
 -1       595 1.53700E-04 1.46503E-05 0.00000E+00
 -1       596 1.54135E-04 1.34098E-05 0.00000E+00
 -1       597 1.54569E-04 1.21718E-05 0.00000E+00
 -1       598 1.55001E-04 1.09411E-05-4.13590E-25
 -1       599 1.55427E-04 9.72283E-06 0.00000E+00
 -1       600 1.55848E-04 8.52175E-06 0.00000E+00
 -1       601 1.56260E-04 7.34284E-06-4.13590E-25
 -1       602 1.56662E-04 6.19100E-06 0.00000E+00
 -1       603 1.57053E-04 5.07119E-06-4.13590E-25
 -1       604 1.57430E-04 3.98839E-06 2.58494E-26
 -1       605 1.57791E-04 2.94748E-06 0.00000E+00
 -1       606 1.52997E-04 9.01554E-07 0.00000E+00
 -1       607 1.53007E-04 4.83031E-07 0.00000E+00
 -1       608 1.53016E-04 1.49536E-07-3.30872E-24
 -1       609 1.53025E-04-1.04910E-07 0.00000E+00
 -1       610 1.53034E-04-2.86332E-07-3.30872E-24
 -1       611 1.53043E-04-4.00825E-07 0.00000E+00
 -1       612 1.53052E-04-4.54490E-07 0.00000E+00
 -1       613 1.53060E-04-4.53438E-07 0.00000E+00
 -1       614 1.53069E-04-4.03778E-07 0.00000E+00
 -1       615 1.53078E-04-3.11622E-07 0.00000E+00
 -1       616 1.53087E-04-1.83078E-07 0.00000E+00
 -1       617 1.53095E-04-2.42584E-08 0.00000E+00
 -1       618 1.53104E-04 1.58725E-07 0.00000E+00
 -1       619 1.53113E-04 3.59767E-07 0.00000E+00
 -1       620 1.53121E-04 5.72754E-07 0.00000E+00
 -1       621 1.53648E-04 1.50137E-06 0.00000E+00
 -1       622 1.54420E-04 1.59262E-06 8.27181E-25
 -1       623 1.55277E-04 1.68377E-06 1.65436E-24
 -1       624 1.56198E-04 1.77471E-06 8.27181E-25
 -1       625 1.57159E-04 1.86545E-06 0.00000E+00
 -1       626 1.53275E-04 9.33329E-07 3.30872E-24
 -1       627 1.53540E-04 5.26186E-07 0.00000E+00
 -1       628 1.53783E-04 1.81200E-07 0.00000E+00
 -1       629 1.54005E-04-1.09784E-07-1.65436E-24
 -1       630 1.54211E-04-3.54940E-07-3.30872E-24
 -1       631 1.54402E-04-5.62468E-07 0.00000E+00
 -1       632 1.54582E-04-7.40570E-07-3.30872E-24
 -1       633 1.54754E-04-8.97453E-07-1.65436E-24
 -1       634 1.54922E-04-1.04132E-06-3.30872E-24
 -1       635 1.55087E-04-1.18037E-06 0.00000E+00
 -1       636 1.55254E-04-1.32280E-06-3.30872E-24
 -1       637 1.55425E-04-1.47683E-06 8.27181E-25
 -1       638 1.55604E-04-1.65065E-06-1.65436E-24
 -1       639 1.55792E-04-1.85248E-06 0.00000E+00
 -1       640 1.55994E-04-2.09055E-06-1.65436E-24
 -1       656 1.53136E-04 2.76950E-07 6.61744E-24
 -1       657 1.53542E-04-2.58435E-07 6.61744E-24
 -1       658 1.54209E-04-7.92406E-07 0.00000E+00
 -1       659 1.54993E-04-1.32601E-06 0.00000E+00
 -1       660 1.55718E-04-1.86124E-06 6.61744E-24
 -1       661 1.53133E-04 9.72910E-07 0.00000E+00
 -1       662 1.53169E-04 1.07757E-06 0.00000E+00
 -1       663 1.53232E-04 1.10919E-06-1.65436E-24
 -1       664 1.53320E-04 1.07266E-06 0.00000E+00
 -1       665 1.53433E-04 9.72260E-07 1.65436E-24
 -1       666 1.53569E-04 8.12335E-07 0.00000E+00
 -1       667 1.53725E-04 5.97007E-07 0.00000E+00
 -1       668 1.53900E-04 3.30341E-07 8.27181E-25
 -1       669 1.54093E-04 1.62345E-08-1.65436E-24
 -1       670 1.54303E-04-3.41499E-07 0.00000E+00
 -1       671 1.54527E-04-7.39166E-07 0.00000E+00
 -1       672 1.54765E-04-1.17318E-06-8.27181E-25
 -1       673 1.55015E-04-1.64001E-06-1.65436E-24
 -1       674 1.55275E-04-2.13646E-06 8.27181E-25
 -1       675 1.55546E-04-2.65876E-06 4.13590E-25
 -1       676 1.52902E-04-2.73271E-06 0.00000E+00
 -1       677 1.53488E-04-2.82788E-06 0.00000E+00
 -1       678 1.54073E-04-2.92300E-06 3.30872E-24
 -1       679 1.54656E-04-3.01783E-06 1.65436E-24
 -1       680 1.55239E-04-3.11266E-06-1.65436E-24
 -1       771 1.78606E-05 1.02109E-05 0.00000E+00
 -1       772 9.96672E-06 2.70712E-05-5.29396E-23
 -1       773 3.44266E-06 4.04378E-05 0.00000E+00
 -1       774-1.80442E-06 5.05146E-05 0.00000E+00
 -1       775-5.86584E-06 5.75126E-05 0.00000E+00
 -1       776-8.83658E-06 6.16545E-05 0.00000E+00
 -1       777-1.08119E-05 6.31699E-05 0.00000E+00
 -1       778-1.18890E-05 6.22978E-05-2.64698E-23
 -1       779-1.21650E-05 5.92831E-05 0.00000E+00
 -1       780-1.17390E-05 5.43785E-05 2.64698E-23
 -1       781-1.07092E-05 4.78413E-05 0.00000E+00
 -1       782-9.17565E-06 3.99349E-05 0.00000E+00
 -1       783-7.23760E-06 3.09259E-05 5.29396E-23
 -1       784-4.99551E-06 2.10849E-05 0.00000E+00
 -1       785-2.54926E-06 1.06848E-05 0.00000E+00
 -1       786 1.57479E-04 1.95010E-05 0.00000E+00
 -1       787 1.57522E-04 1.81485E-05-4.13590E-25
 -1       788 1.57565E-04 1.68358E-05 8.27181E-25
 -1       789 1.57609E-04 1.55551E-05 0.00000E+00
 -1       790 1.57653E-04 1.43018E-05 1.65436E-24
 -1       791 1.57697E-04 1.30714E-05 8.27181E-25
 -1       792 1.57741E-04 1.18618E-05 1.65436E-24
 -1       793 1.57785E-04 1.06708E-05 0.00000E+00
 -1       794 1.57829E-04 9.49828E-06 1.65436E-24
 -1       795 1.57873E-04 8.34401E-06 0.00000E+00
 -1       796 1.57917E-04 7.20968E-06 0.00000E+00
 -1       797 1.57961E-04 6.09701E-06 0.00000E+00
 -1       798 1.58005E-04 5.00994E-06-1.65436E-24
 -1       799 1.58050E-04 3.95246E-06 0.00000E+00
 -1       800 1.58094E-04 2.93156E-06 0.00000E+00
 -1       801 1.24881E-04 1.85592E-05 0.00000E+00
 -1       802 2.59671E-05 1.20025E-05-1.32349E-23
 -1       803-6.11320E-05 6.33873E-06 5.29396E-23
 -1       804-5.92349E-05 4.30027E-06-2.64698E-23
 -1       805-2.04029E-05 1.89895E-06 0.00000E+00
 -1       806 1.57862E-04 1.94413E-05 1.65436E-24
 -1       807 1.58271E-04 1.80082E-05-1.65436E-24
 -1       808 1.58668E-04 1.66061E-05 0.00000E+00
 -1       809 1.59052E-04 1.52381E-05 1.65436E-24
 -1       810 1.59422E-04 1.39075E-05 0.00000E+00
 -1       811 1.59777E-04 1.26174E-05-8.27181E-25
 -1       812 1.60115E-04 1.13708E-05 3.30872E-24
 -1       813 1.60436E-04 1.01708E-05-1.65436E-24
 -1       814 1.60738E-04 9.02057E-06 1.65436E-24
 -1       815 1.61021E-04 7.92310E-06-1.65436E-24
 -1       816 1.61283E-04 6.88148E-06 1.65436E-24
 -1       817 1.61522E-04 5.89874E-06-1.65436E-24
 -1       818 1.61739E-04 4.97795E-06-1.65436E-24
 -1       819 1.61932E-04 4.12215E-06 1.65436E-24
 -1       820 1.62099E-04 3.33435E-06 0.00000E+00
 -1       821 1.58025E-04 8.57918E-07 8.27181E-25
 -1       822 1.57903E-04-5.18175E-07 1.65436E-24
 -1       823 1.57782E-04-2.02164E-06 3.30872E-24
 -1       824 1.57660E-04-3.49943E-06 0.00000E+00
 -1       825 1.57538E-04-4.80500E-06-3.30872E-24
 -1       826 1.57416E-04-5.79271E-06 0.00000E+00
 -1       827 1.57294E-04-6.39525E-06 0.00000E+00
 -1       828 1.57172E-04-6.54742E-06-1.65436E-24
 -1       829 1.57051E-04-6.29502E-06 0.00000E+00
 -1       830 1.56929E-04-5.68602E-06 0.00000E+00
 -1       831 1.56807E-04-4.85628E-06 0.00000E+00
 -1       832 1.56686E-04-3.94285E-06 1.65436E-24
 -1       833 1.56564E-04-3.10345E-06 0.00000E+00
 -1       834 1.56444E-04-2.49537E-06-8.27181E-25
 -1       835 1.56324E-04-2.21907E-06 8.27181E-25
 -1       836 1.59009E-04 2.06451E-06-3.30872E-24
 -1       837 1.59763E-04 2.17733E-06 1.65436E-24
 -1       838 1.60433E-04 2.29002E-06 0.00000E+00
 -1       839 1.61048E-04 2.40204E-06 8.27181E-25
 -1       840 1.61641E-04 2.51389E-06 0.00000E+00
 -1       856 1.56190E-04-2.67548E-06-4.13590E-25
 -1       857 1.56166E-04-2.85152E-06 5.16988E-26
 -1       858 1.56142E-04-2.92105E-06-4.13590E-25
 -1       859 1.56117E-04-2.90386E-06 0.00000E+00
 -1       860 1.56093E-04-2.81989E-06-8.27181E-25
 -1       861 1.56068E-04-2.68908E-06 0.00000E+00
 -1       862 1.56044E-04-2.53146E-06-8.27181E-25
 -1       863 1.56019E-04-2.36706E-06 0.00000E+00
 -1       864 1.55994E-04-2.21592E-06-8.27181E-25
 -1       865 1.55970E-04-2.09806E-06 0.00000E+00
 -1       866 1.55945E-04-2.03349E-06-8.27181E-25
 -1       867 1.55920E-04-2.04217E-06 4.13590E-25
 -1       868 1.55895E-04-2.14395E-06 8.27181E-25
 -1       869 1.55870E-04-2.35866E-06 0.00000E+00
 -1       870 1.55846E-04-2.70597E-06 8.27181E-25
 -1       871 1.56770E-04-2.37595E-06-4.13590E-25
 -1       872 1.57461E-04-2.38164E-06 0.00000E+00
 -1       873 1.58224E-04-2.38790E-06 4.13590E-25
 -1       874 1.59000E-04-2.39482E-06-2.06795E-25
 -1       875 1.59728E-04-2.40229E-06-1.24077E-24
 -1       876 1.56440E-04-2.66376E-06 3.30872E-24
 -1       877 1.56649E-04-2.89354E-06 1.65436E-24
 -1       878 1.56839E-04-3.06975E-06-3.30872E-24
 -1       879 1.57011E-04-3.19904E-06 0.00000E+00
 -1       880 1.57168E-04-3.28814E-06-3.30872E-24
 -1       881 1.57312E-04-3.34371E-06 0.00000E+00
 -1       882 1.57447E-04-3.37240E-06 0.00000E+00
 -1       883 1.57574E-04-3.38086E-06 0.00000E+00
 -1       884 1.57696E-04-3.37574E-06 3.30872E-24
 -1       885 1.57815E-04-3.36366E-06-1.65436E-24
 -1       886 1.57934E-04-3.35128E-06 0.00000E+00
 -1       887 1.58055E-04-3.34524E-06 1.65436E-24
 -1       888 1.58181E-04-3.35220E-06-3.30872E-24
 -1       889 1.58314E-04-3.37895E-06 8.27181E-25
 -1       890 1.58456E-04-3.43210E-06 0.00000E+00
 -1       891 1.56421E-04-3.25820E-06 0.00000E+00
 -1       892 1.57001E-04-3.31113E-06-4.13590E-25
 -1       893 1.57534E-04-3.36398E-06 1.65436E-24
 -1       894 1.57995E-04-3.41665E-06-8.27181E-25
 -1       895 1.58360E-04-3.46916E-06 4.13590E-25
 -1       956 1.62125E-04 2.04995E-06 0.00000E+00
 -1       957 1.62007E-04 1.55989E-06 8.27181E-25
 -1       958 1.61889E-04 1.13841E-06 1.65436E-24
 -1       959 1.61770E-04 7.76096E-07 0.00000E+00
 -1       960 1.61652E-04 4.63485E-07 0.00000E+00
 -1       961 1.61533E-04 1.91083E-07 0.00000E+00
 -1       962 1.61415E-04-5.06117E-08-3.30872E-24
 -1       963 1.61296E-04-2.71115E-07 0.00000E+00
 -1       964 1.61178E-04-4.79938E-07 0.00000E+00
 -1       965 1.61059E-04-6.86593E-07 0.00000E+00
 -1       966 1.60940E-04-9.00601E-07 0.00000E+00
 -1       967 1.60822E-04-1.13147E-06-1.65436E-24
 -1       968 1.60703E-04-1.38871E-06 0.00000E+00
 -1       969 1.60585E-04-1.68180E-06 0.00000E+00
 -1       970 1.60467E-04-2.02019E-06-3.30872E-24
 -1       971 1.60243E-04-2.79769E-06 1.65436E-24
 -1       972 1.60133E-04-3.09326E-06 1.65436E-24
 -1       973 1.60024E-04-3.30946E-06 0.00000E+00
 -1       974 1.59914E-04-3.45642E-06 0.00000E+00
 -1       975 1.59804E-04-3.54426E-06-3.30872E-24
 -1       976 1.59695E-04-3.58316E-06 0.00000E+00
 -1       977 1.59585E-04-3.58328E-06 3.30872E-24
 -1       978 1.59475E-04-3.55480E-06 0.00000E+00
 -1       979 1.59365E-04-3.50793E-06-3.30872E-24
 -1       980 1.59256E-04-3.45283E-06 0.00000E+00
 -1       981 1.59146E-04-3.39972E-06 0.00000E+00
 -1       982 1.59036E-04-3.35877E-06 0.00000E+00
 -1       983 1.58927E-04-3.34018E-06-3.30872E-24
 -1       984 1.58818E-04-3.35411E-06 1.65436E-24
 -1       985 1.58709E-04-3.41075E-06 1.65436E-24
 -3
    1PSTEP                        16           8           1          
  100CL  108 6.09375E-01         409                     0    8           1
 -4  STRESS      6    1
 -5  SXX         1    4    1    1
 -5  SYY         1    4    2    2
 -5  SZZ         1    4    3    3
 -5  SXY         1    4    1    2
 -5  SYZ         1    4    2    3
 -5  SZX         1    4    3    1
 -1         1-3.72521E+06-1.43763E+06-8.15162E+05-1.51053E+06-1.96451E-10 9.34233E-09
 -1         2 8.06571E+02-1.73369E+06 2.89043E+03 1.57457E+04 6.29043E-10 3.30731E-08
 -1         3-8.47301E+02-1.50887E+06 3.67474E+02-1.62121E+03-5.87683E-10-2.14277E-08
 -1         5-1.72933E+01 3.37396E+05 8.65991E+00-4.81160E-01-2.21456E-10 2.83171E-08
 -1         8-8.02284E+05-2.74648E+05-7.58868E+04-4.52415E+05 4.67480E-10-4.51219E-08
 -1         9 3.70829E+06-6.98725E+05 6.82263E+05-7.94426E+05 2.71830E-08-5.77420E-09
 -1        10-1.76071E+03-1.57219E+06-3.20890E+03-1.09582E+04-9.68430E-09-1.44592E-08
 -1        12-1.37685E+01 3.37414E+05 2.81416E+02-3.46718E+00-3.31760E-10 6.21640E-10
 -1        15 1.48223E+03 8.14566E+02 4.79128E+03 2.50245E+00-1.19542E-10-9.83691E-08
 -1        16 9.32625E+06-3.93388E+05 1.34351E+06-1.07998E+06 1.39698E-08-1.40086E-08
 -1        17 3.21883E+06 2.11675E+06 8.83540E+05 2.18430E+06 7.05477E-09 2.90107E-08
 -1        18 6.19037E+04 1.18869E+04-1.16943E+04-9.95005E+04 1.21793E-08-9.34142E-09
 -1        19 1.07960E+05 1.24350E+05-8.65305E+02 2.03003E+04 7.46513E-10 3.34403E-09
 -1        20-6.48977E+04-5.08462E+05-1.13558E+05 2.67058E+04 2.16460E-10 2.65936E-09
 -1        21-4.26929E+01-2.72085E+05-8.47183E+02 1.09301E+02-2.79394E-06-1.44603E-08
 -1        24 5.02677E+06 4.51409E+06 1.58548E+06 4.11897E+06-1.18540E-07-4.33453E-08
 -1        25-8.24252E+03-2.22921E+05-2.55121E+04-3.69195E+05-4.82123E-10 1.92431E-09
 -1        26-4.60399E+04 8.06874E+04-2.14855E+04-1.58239E+03 7.47968E-10 5.83573E-09
 -1        27-7.12416E+04-2.75880E+05-1.01825E+05 6.17261E+04 4.56718E-09-4.44349E-09
 -1        28 1.98907E+04-7.82568E+04 1.55279E+04 2.05169E+04-1.84878E-09-5.13401E-09
 -1        32-1.53444E+06-2.69097E+06-1.39289E+05-3.16579E+04-3.27163E-08-7.21860E-09
 -1        33-1.60296E+05 8.11177E+04 2.86202E+04-3.58621E+04-1.37834E-09 4.96918E-09
 -1        34-2.01331E+05-2.16086E+04 5.76085E+02 6.58894E+04-1.74475E-09 2.04697E-09
 -1        35-2.12341E+04-3.18393E+04-1.46464E+03 4.73972E+04-9.43577E-10 6.89761E-09
 -1        51 4.06033E+04-2.52542E+05 8.95618E+04-7.37811E+05 2.03727E-10-9.37143E-09
 -1        52 1.57748E+04-2.39606E+05 4.97394E+04-8.60296E+05 8.00355E-11 8.89340E-08
 -1        53 5.65497E+03-2.54553E+05 3.02717E+04-7.35154E+05 6.91216E-10-3.05299E-08
 -1        54 1.39527E+04-2.51542E+05 3.36942E+04-8.63049E+05 3.05590E-10-7.17118E-08
 -1        55 2.87095E+04-2.62326E+05 5.12819E+04-7.34770E+05 1.03319E-09 5.60831E-08
 -1        56-7.06198E+06-7.95321E+05-6.02297E+05-2.75156E+06-1.89757E-08-6.68224E-08
 -1        57-7.39302E+06-1.25197E+06-4.06194E+05-2.62485E+06 2.44527E-08-1.10409E-07
 -1        58-7.16428E+06-1.00516E+06-1.41528E+05-2.73438E+06 2.40107E-10 8.07850E-08
 -1        59-7.27859E+06-1.00201E+06-8.44028E+04-2.64187E+06 1.11695E-08-1.58068E-07
 -1        60-7.17489E+06-1.03853E+06-3.29198E+04-2.73683E+06-1.26374E-09 5.15956E-08
 -1        61-7.26003E+06-9.68787E+05-1.86644E+04-2.64564E+06-2.50098E-09 5.04913E-08
 -1        62-7.18242E+06-1.03751E+06-8.99077E+03-2.73081E+06-1.75219E-08-3.62734E-08
 -1        63-7.23750E+06-9.83812E+05-7.11807E+03-2.66707E+06 1.17898E-08 9.43169E-08
 -1        64-7.19679E+06-1.02378E+06-8.41139E+03-2.71501E+06-1.00999E-08 3.30607E-08
 -1        65-7.20745E+06-1.01860E+06-1.62232E+04-2.70212E+06 1.79316E-08-4.20033E-09
 -1        66-7.21216E+06-1.00305E+06-2.90014E+04-2.69549E+06 7.82438E-09 2.99033E-08
 -1        67-7.19382E+06-1.07793E+06-7.33510E+04-2.73425E+06 4.75848E-09 3.31738E-08
 -1        68-7.21117E+06-9.64962E+05-1.23176E+05-2.68298E+06-1.35333E-08-5.80185E-08
 -1        69-7.29411E+06-1.29663E+06-3.53572E+05-2.72240E+06-2.37196E-08-2.86673E-08
 -1        70-7.11431E+06-7.89545E+05-5.24018E+05-2.70614E+06-1.05283E-08 5.52973E-08
 -1        86-5.02085E+02-1.74071E+06 1.75852E+03-7.87259E+03-3.50593E-09 4.19686E-09
 -1        87 2.33782E+03-1.73508E+06 5.04999E+03 2.66075E+04-6.12960E-09 6.41378E-08
 -1        88-1.85837E+03-1.73953E+06 7.01537E+03-1.87347E+04-6.08497E-09-1.09007E-08
 -1        89 1.36684E+04-1.73176E+06 1.91439E+04 3.67423E+04-9.56265E-09-4.92523E-08
 -1        90-1.16406E+04-1.74421E+06 2.67912E+04-1.80086E+04-5.38239E-09 3.30841E-08
 -1       121-1.17823E+03-1.51176E+06-1.55307E+02 8.06393E+02 1.15504E-09-8.25821E-10
 -1       122-6.95869E+02-1.50887E+06 7.40120E+02-3.24003E+03-4.08089E-09 4.55475E-09
 -1       123-1.22525E+03-1.51187E+06 6.64813E+02 2.40858E+03 3.31863E-09-1.60071E-09
 -1       124 8.09908E+02-1.50825E+06 2.96011E+03-6.79647E+03-7.63157E-09-2.80143E-08
 -1       125-2.06465E+03-1.51270E+06 3.94876E+03 4.34398E+03 5.11682E-09-8.47649E-09
 -1       191-1.84372E+01 3.37422E+05 9.79274E+00 2.43895E-01-2.55539E-10 2.85308E-08
 -1       192-1.80963E+01 3.37396E+05 1.83622E+01-1.74407E+00-3.14182E-10 3.52306E-08
 -1       193-2.05681E+01 3.37422E+05 3.36052E+01 1.52133E+00-5.22547E-10 2.22071E-08
 -1       194-2.06783E+01 3.37399E+05 6.95180E+01-4.03322E+00-2.97068E-10-1.47593E-08
 -1       195-2.46617E+01 3.37419E+05 1.35433E+02 2.56109E+00-7.46116E-10-1.29539E-08
 -1       251-2.08204E+06-2.07393E+04-1.81039E+05 1.00076E+05 1.14960E-09 5.08589E-08
 -1       252-1.25760E+06 2.29791E+04 3.83688E+04-3.50767E+05-9.87484E-09 3.33253E-08
 -1       253-1.74613E+06-1.13487E+04-3.62624E+04 2.49832E+05 1.50485E-08-4.16367E-08
 -1       254-1.65090E+06 4.66082E+04 5.72252E+03-5.02411E+05-4.65107E-09-4.80982E-08
 -1       255-1.72822E+06-1.18790E+04-1.43350E+04 2.54584E+05 9.88621E-10 2.27533E-09
 -1       256-1.28958E+06 3.96837E+04 8.18704E+04-3.70160E+05-1.22336E-08 1.09733E-08
 -1       257-2.07192E+06-3.35971E+04-8.44879E+04 1.14890E+05-1.63909E-08-2.51619E-08
 -1       258-9.05873E+05 3.05481E+04 1.55069E+05-1.33386E+03 4.35102E-09-6.08252E-08
 -1       259-2.07404E+06-3.37788E+04-8.34433E+04-1.12612E+05 1.76442E-08-1.02549E-07
 -1       260-1.28428E+06 4.06459E+04 8.68793E+04 3.68656E+05-1.81717E-08-1.19343E-07
 -1       261-1.73097E+06-1.30033E+04-7.11388E+03-2.53391E+05-5.30054E-08 1.17284E-07
 -1       262-1.64622E+06 5.52255E+04 2.46790E+04 5.02914E+05 1.54139E-08 4.75387E-08
 -1       263-1.74806E+06-1.87976E+04-5.33152E+03-2.49557E+05-2.63544E-08-7.42566E-08
 -1       264-1.23466E+06 8.11482E+04 1.20652E+05 3.54255E+05-1.05521E-07 3.21675E-08
 -1       265-2.10342E+06-7.09169E+04-6.26594E+04-1.01915E+05-3.33785E-08 1.05265E-08
 -1       266-2.68330E+04-1.25467E+04 6.29598E+04-5.35461E+01 9.45874E-11 1.24492E-07
 -1       267 3.11071E+04 1.46241E+04 4.44981E+04 6.17797E+01-9.64064E-11-1.56869E-07
 -1       268-4.17140E+03-2.07114E+03 1.65398E+04-7.87191E+00 1.17325E-10-4.55137E-08
 -1       269 4.92520E+03 2.47876E+03 1.07505E+04 9.16949E+00-5.02496E-11-2.69933E-08
 -1       270-7.39279E+02-4.07278E+02 5.18944E+03-1.24437E+00 5.34328E-12 4.62765E-09
 -1       271-2.44000E+06-2.98279E+05-1.82328E+05-9.40451E+05-1.21872E-09 1.04155E-07
 -1       272-2.54425E+06-3.93677E+05-1.17394E+05-8.96055E+05 3.43425E-09 5.62941E-08
 -1       273-2.47344E+06-3.44798E+05-4.30374E+04-9.33302E+05-3.90310E-09 7.62157E-09
 -1       274-2.50458E+06-3.36991E+05-2.41441E+04-9.07050E+05 2.29829E-08-6.05996E-08
 -1       275-2.47851E+06-3.49284E+05-1.00328E+04-9.31464E+05 6.62112E-09-1.02091E-08
 -1       276-2.49727E+06-3.32749E+05-5.28550E+03-9.10571E+05 2.69688E-08 1.91430E-08
 -1       277-2.48040E+06-3.48599E+05-2.63243E+03-9.29825E+05 5.88807E-09-7.07550E-08
 -1       278-2.49351E+06-3.35079E+05-1.74081E+03-9.13947E+05 1.62709E-08-7.65897E-08
 -1       279-2.48204E+06-3.47045E+05-1.90097E+03-9.27945E+05-1.42027E-08-1.32495E-07
 -1       280-2.49018E+06-3.38885E+05-3.14570E+03-9.17738E+05 1.29403E-08 2.41853E-08
 -1       281-2.48356E+06-3.44929E+05-5.88540E+03-9.25905E+05 5.97720E-09-7.15409E-08
 -1       282-2.48905E+06-3.46397E+05-1.37403E+04-9.21426E+05-8.34916E-09 1.05154E-07
 -1       283-2.48315E+06-3.39925E+05-2.46463E+04-9.24080E+05-1.42954E-08 4.73519E-08
 -1       284-2.50667E+06-3.83559E+05-6.68204E+04-9.20739E+05 1.12241E-08-5.34337E-08
 -1       285-2.46649E+06-3.11090E+05-1.04025E+05-9.25410E+05-1.11395E-08-5.55083E-08
 -1       301 1.94562E+04-3.44782E+05 1.73021E+05-6.24651E+05 1.05501E-09-1.51122E-08
 -1       302 2.09342E+04-3.01154E+05 1.07672E+05-9.13712E+05-1.30240E-09 8.66294E-09
 -1       303-1.88977E+03-3.28736E+05 7.12176E+04-6.23200E+05 3.71074E-10 2.04418E-08
 -1       304 1.36719E+04-3.02637E+05 8.97012E+04-9.13054E+05-5.89353E-10 1.91161E-07
 -1       305 1.02499E+04-3.35216E+05 1.32701E+05-6.25288E+05 2.83762E-10-3.95012E-08
 -1       306-1.78556E+07-3.25726E+06-4.32292E+06-1.85240E+06-4.37140E-08 1.51340E-09
 -1       307 1.10093E+07-5.64731E+05 2.59293E+06-8.08119E+06-5.75848E-07 1.47847E-08
 -1       308-8.17364E+06 1.07123E+05-4.05668E+05 2.38453E+06-1.59023E-07 2.04633E-07
 -1       309-3.22523E+06 8.15678E+05 8.27085E+05-1.32071E+07 1.94266E-07 1.31889E-07
 -1       310-9.17982E+06-5.52203E+04-6.04186E+05 2.19446E+06 3.77768E-08 1.04519E-08
 -1       311 1.33027E+07-1.25845E+06 3.09355E+06-6.50170E+06 2.71830E-07-1.36912E-07
 -1       312-1.80945E+07-3.23758E+06-3.78777E+06-2.79144E+06-1.74507E-07 1.41328E-07
 -1       313 2.00117E+07 4.42684E+06 5.02787E+06 8.37990E+06 1.21363E-08 3.09665E-08
 -1       314-1.28040E+07-7.79152E+06-3.59154E+06-7.33350E+06 3.21073E-07-3.31493E-08
 -1       315-2.25069E+06 1.24084E+07 2.79923E+06 6.61156E+06-2.30597E-07-1.07568E-07
 -1       316-1.97661E+06-6.26758E+06-3.49802E+05-4.35096E+06-7.15023E-07-2.85494E-07
 -1       317-1.45300E+07 1.20740E+07 8.06985E+05-1.42933E+06 4.93190E-07-3.79554E-07
 -1       318-2.46898E+06-6.54464E+06-6.81632E+05-4.54712E+06-6.14440E-07 8.11124E-08
 -1       319-5.28418E+05 1.27905E+07 2.81411E+06 7.16226E+06-5.46206E-08 1.00714E-07
 -1       320-1.37298E+07-8.09453E+06-4.63618E+06-7.20427E+06 1.28464E-07-8.61473E-09
 -1       336 1.41099E+02-1.63654E+06-1.16918E+04 6.54181E+03-1.97269E-08-1.57888E-09
 -1       337-4.46300E+03-1.63752E+06-1.47931E+04-1.58435E+04-3.77167E-08 1.56306E-08
 -1       338 6.26701E+02-1.63628E+06-2.21537E+04 9.18881E+03-2.57096E-08-3.81624E-09
 -1       339-2.35258E+04-1.65031E+06-5.00100E+04-2.10068E+04-4.71173E-08 1.29512E-08
 -1       340 1.57356E+04-1.62498E+06-7.83605E+04 1.16280E+04-3.17341E-08 2.91548E-08
 -1       406 7.18402E+00 3.37407E+05 5.55004E+02 9.79276E-01-8.76355E-10 8.09905E-09
 -1       407 1.80009E+02 3.37511E+05 1.18078E+03 1.21020E+01-3.31667E-10 2.15482E-08
 -1       408 5.93682E+02 3.37321E+05 2.35751E+03-1.34089E+01-1.26272E-09 8.13998E-09
 -1       409 2.53712E+03 3.38264E+05 5.30849E+03 1.37247E+02-1.48503E-10-1.20544E-08
 -1       410 7.31419E+03 3.36649E+05 1.08365E+04-1.30826E+02-1.44792E-09 4.53201E-09
 -1       521-1.98472E+07-4.07269E+06-5.22996E+06-1.80225E+06-7.47386E-08 4.65661E-10
 -1       522 1.17705E+07-5.10387E+05 2.71876E+06-1.03391E+07-3.10014E-07-2.79528E-07
 -1       523-9.39084E+06-3.89582E+04-4.57112E+05 2.78950E+06-9.10950E-09-4.04179E-07
 -1       524-5.25971E+06 1.98339E+06 9.44044E+05-1.59681E+07 3.87579E-07-5.74541E-07
 -1       525-1.05425E+07-2.84127E+05-6.96613E+05 2.57497E+06 4.44270E-07-2.15390E-07
 -1       526 1.48265E+07-1.42107E+06 3.39044E+06-8.39678E+06-2.46509E-08-3.08501E-09
 -1       527-2.01757E+07-4.16119E+06-4.50692E+06-2.88380E+06 6.02449E-08 2.97878E-08
 -1       528 2.26883E+07 4.90647E+06 5.45623E+06 9.77339E+06-2.46218E-07-1.83718E-07
 -1       529-1.42037E+07-9.30009E+06-4.26665E+06-7.96036E+06 1.72760E-07-3.52156E-08
 -1       530-3.87316E+06 1.51171E+07 3.08118E+06 7.15421E+06-4.38886E-08 3.09490E-07
 -1       531-2.28926E+06-7.44178E+06-3.84747E+05-4.89763E+06-5.79777E-07 1.11875E-07
 -1       532-1.77618E+07 1.44371E+07 9.45118E+05-3.13516E+06 4.39853E-07-4.95886E-07
 -1       533-2.76235E+06-7.71993E+06-7.37072E+05-5.06531E+06-2.87546E-08-6.75820E-07
 -1       534-2.09478E+06 1.55628E+07 3.07250E+06 7.76016E+06-7.93661E-08 5.28147E-07
 -1       535-1.51597E+07-9.68336E+06-5.42194E+06-7.80796E+06 4.56348E-08 3.31813E-07
 -1       536-5.77273E+05-3.83913E+04-3.59468E+03-3.76318E+04-4.96402E-09 4.00814E-08
 -1       537-1.80252E+05 3.86964E+04 6.73325E+04 8.98985E+04-9.74858E-08 6.42576E-08
 -1       538-3.87523E+05 4.70341E+02 8.69477E+03-5.43505E+04 1.94370E-08 8.61342E-08
 -1       539-3.12426E+05 3.11024E+03 1.86083E+04 1.02830E+05 1.36092E-07 9.34367E-08
 -1       540-4.48277E+05-2.04742E+02-1.09451E+04-5.08020E+04 1.42816E-08 9.69046E-08
 -1       541-6.28037E+04 1.02615E+04 6.46330E+04 6.89165E+04-1.39999E-08 7.42819E-08
 -1       542-6.30448E+05-1.22152E+04-5.02990E+04-2.00433E+04 5.45074E-08 3.71609E-08
 -1       543 9.06271E+04 1.64330E+04 9.44752E+04-1.05216E+04-3.95994E-08-1.30567E-08
 -1       544-5.97620E+05-9.73591E+03-4.45734E+04 2.83249E+04-8.16090E-09-3.47766E-08
 -1       545-1.38282E+05 5.12662E+03 4.62644E+04-8.25301E+04 3.51001E-08-6.21091E-08
 -1       546-4.07636E+05 4.10423E+03-7.88840E+03 5.18181E+04 1.12960E-08-7.21124E-08
 -1       547-3.25330E+05-4.52380E+03 3.21065E+03-1.05218E+05-9.67214E-08-9.95402E-08
 -1       548-4.15546E+05 4.02552E+03-1.87654E+04 5.13256E+04-8.44550E-08-8.10292E-08
 -1       549-1.23730E+05 1.14920E+03 2.47961E+04-7.96640E+04-4.44852E-08-5.11495E-08
 -1       550-6.03799E+05-6.06553E+03-9.43824E+04 2.59328E+04 3.94766E-09-4.10018E-08
 -1       551 3.11256E+04-7.30309E+05 7.45835E+03-1.13870E+06-7.96645E-08-2.04163E-08
 -1       552 6.98181E+04-7.59211E+05 2.29771E+04-1.62341E+06-5.95319E-08 5.58794E-09
 -1       553 5.22471E+04-7.60576E+05 4.07013E+04-1.13343E+06-9.47766E-08 1.90485E-08
 -1       554 1.02864E+05-7.66041E+05 9.10646E+04-1.62530E+06-5.74219E-08 2.58115E-08
 -1       555 8.16007E+04-7.81978E+05 1.63197E+05-1.13378E+06-9.71049E-08-1.10631E-08
 -1       556 1.70930E+05-3.02664E+05 5.20452E+04-3.45377E+05-1.83209E-08-8.44011E-09
 -1       557 2.81440E+05-3.91387E+05 2.87631E+04-4.41532E+05-3.49246E-09-5.16047E-09
 -1       558 1.60793E+05-3.03754E+05 9.37628E+03-3.43416E+05-1.32422E-08 0.00000E+00
 -1       559 2.61512E+05-3.96418E+05 5.44496E+03-4.55191E+05 1.54250E-08-5.02769E-09
 -1       560 1.51098E+05-2.97615E+05 9.21456E+02-3.50221E+05 1.13505E-09 1.38971E-09
 -1       561 2.48957E+05-3.91671E+05 9.93397E+02-4.63578E+05-1.12050E-08 2.88292E-08
 -1       562 1.43458E+05-2.92809E+05-3.30721E+02-3.55718E+05-1.14960E-08 3.32147E-09
 -1       563 2.39934E+05-3.87736E+05 2.20107E+02-4.69428E+05 3.92902E-10-4.02406E-09
 -1       564 1.38154E+05-2.89487E+05-2.00803E+02-3.59466E+05 9.15315E-09 1.46670E-08
 -1       565 2.34210E+05-3.85246E+05 9.53456E+01-4.73072E+05 5.09317E-10 9.40372E-09
 -1       566 1.35271E+05-2.87655E+05-9.41729E+01-3.61486E+05-9.99717E-09-1.28894E-08
 -1       567 2.31785E+05-3.84186E+05-2.03861E+02-4.74502E+05 1.87138E-08 1.64364E-08
 -1       568 1.34872E+05-2.87422E+05-7.20110E+02-3.61860E+05 2.23281E-09 3.87809E-09
 -1       569 2.31520E+05-3.84159E+05-1.81623E+03-4.72818E+05-6.21367E-09 8.22911E-09
 -1       570 1.37864E+05-2.90079E+05-4.06053E+03-3.61125E+05 1.83354E-09 2.44927E-09
 -1       571 2.55054E+05 9.28496E+03 1.34815E+04-7.53898E+04 1.03437E-08-2.16619E-09
 -1       572 2.57032E+05 3.37554E+03 6.60609E+03-8.27054E+04 1.65837E-08-1.32195E-09
 -1       573 2.55844E+05 9.48924E+02 2.93512E+03-7.52382E+04 8.17590E-09 2.53158E-09
 -1       574 2.56058E+05 4.62508E+02 1.47138E+03-8.28893E+04 6.07997E-10-6.11635E-10
 -1       575 2.55932E+05 2.29707E+02 6.94208E+02-7.52178E+04-1.45406E-08 1.45710E-08
 -1       576 2.55932E+05 2.23352E+02 3.54865E+02-8.29138E+04-4.21611E-08 4.93674E-09
 -1       577 2.55958E+05 1.82928E+02 1.76838E+02-7.52150E+04-2.11335E-08 1.01190E-08
 -1       578 2.55943E+05 1.98496E+02 1.01070E+02-8.29171E+04-6.22822E-09 1.20999E-08
 -1       579 2.56001E+05 1.62947E+02 6.87863E+01-7.52147E+04 1.18380E-08 2.74576E-09
 -1       580 2.56003E+05 1.69506E+02 7.75547E+01-8.29129E+04 1.34414E-08 4.26553E-10
 -1       581 2.56070E+05 1.30260E+02 1.17173E+02-7.52194E+04 1.88265E-09 8.99217E-09
 -1       582 2.56115E+05 1.57732E+02 2.35588E+02-8.28644E+04-1.61763E-08-4.16821E-09
 -1       583 2.56151E+05 1.87743E+02 4.54692E+02-7.52635E+04 1.02955E-09 1.42450E-09
 -1       584 2.56385E+05 5.53888E+02 1.02574E+03-8.24929E+04 2.20516E-08 5.69230E-09
 -1       585 2.56133E+05 1.43756E+03 2.08107E+03-7.55907E+04 9.68430E-09 1.05865E-09
 -1       586-3.09963E+03 9.32684E+04-3.22220E+03-2.24300E+05-2.72576E-09-3.93470E-09
 -1       587-9.68946E+02 9.29239E+04 3.04025E+02-2.46877E+05-3.15049E-09 1.13793E-08
 -1       588 6.13597E+02 9.28614E+04 3.91578E+03-2.24188E+05-3.16140E-09 1.08894E-08
 -1       589 4.68150E+03 9.49346E+04 1.04871E+04-2.46638E+05-4.07817E-09-1.41954E-08
 -1       590 1.45249E+04 9.17128E+04 2.21286E+04-2.24573E+05-2.79306E-09 1.48557E-08
 -1       591-5.88278E+04-1.36427E+04-1.88111E+04-2.63763E+04-1.93882E-09-6.17092E-09
 -1       592-6.18771E+04-1.69778E+04-1.01894E+04-2.98182E+04-1.22554E-09-5.06998E-09
 -1       593-6.07121E+04-1.22746E+04-4.24148E+03-2.77526E+04 1.01605E-09 8.76776E-09
 -1       594-5.92749E+04-1.42229E+04-2.11538E+03-2.99231E+04 2.14470E-09 1.21424E-08
 -1       595-6.08559E+04-1.22698E+04-9.71416E+02-2.78153E+04-3.36721E-09 9.21938E-09
 -1       596-5.90971E+04-1.40969E+04-4.94067E+02-2.99025E+04 7.14422E-09-5.21729E-09
 -1       597-6.08740E+04-1.22825E+04-2.69539E+02-2.78176E+04 4.53269E-09-3.99928E-09
 -1       598-5.90796E+04-1.40920E+04-2.17608E+02-2.98967E+04 7.98593E-10-3.12212E-09
 -1       599-6.08728E+04-1.22828E+04-2.79125E+02-2.78173E+04 3.13605E-09-7.24901E-09
 -1       600-5.90975E+04-1.40977E+04-5.19448E+02-2.99010E+04-6.61657E-11-1.08519E-08
 -1       601-6.08515E+04-1.22704E+04-1.02523E+03-2.78141E+04-1.34696E-09-1.24655E-08
 -1       602-5.92850E+04-1.42300E+04-2.23464E+03-2.99196E+04 7.67045E-10 1.65314E-08
 -1       603-6.06973E+04-1.22780E+04-4.48150E+03-2.77485E+04 2.89265E-09-1.14374E-08
 -1       604-6.20491E+04-1.71245E+04-1.07655E+04-2.97880E+04 7.33689E-09-3.29169E-09
 -1       605-5.86893E+04-1.37385E+04-1.98747E+04-2.63105E+04 7.30665E-10 1.42973E-09
 -1       606 2.69837E+04-1.24022E+04-2.22596E+04 2.52475E+04 2.43926E-09-9.34324E-09
 -1       607 2.31777E+04-4.03659E+03-1.10847E+04 2.83574E+04 9.16771E-10-1.55046E-09
 -1       608 2.53427E+04-7.15160E+02-4.96290E+03 2.50578E+04-3.51065E-10 3.13548E-10
 -1       609 2.49223E+04-2.28516E+02-2.50691E+03 2.85810E+04-6.25732E-10-1.29917E-08
 -1       610 2.51519E+04-1.56193E+01-1.19658E+03 2.50359E+04 8.99581E-09-5.64705E-09
 -1       611 2.50813E+04-1.02328E+01-6.03288E+02 2.86052E+04 2.14477E-08-1.60555E-08
 -1       612 2.51062E+04-6.88816E-01-2.87329E+02 2.50337E+04 1.05929E-08-2.00430E-09
 -1       613 2.50863E+04-3.85874E+00-1.29181E+02 2.86081E+04 3.23325E-10 1.44109E-09
 -1       614 2.50831E+04-3.76123E+00-3.16021E+01 2.50330E+04 2.90493E-09 6.38511E-09
 -1       615 2.50777E+04-3.61701E-01 5.11847E+01 2.86086E+04 3.54976E-09 1.68368E-08
 -1       616 2.50652E+04 7.63627E-01 1.56172E+02 2.50333E+04-5.33873E-10-3.40265E-09
 -1       617 2.50935E+04 3.47284E+01 3.57486E+02 2.86081E+04 1.49157E-10-2.16774E-08
 -1       618 2.50320E+04 1.05209E+02 7.20929E+02 2.50335E+04-5.31600E-10 5.84373E-09
 -1       619 2.53463E+04 5.93288E+02 1.61920E+03 2.86073E+04-1.02250E-09 1.94893E-08
 -1       620 2.47914E+04 1.81574E+03 3.25458E+03 2.50335E+04-7.57950E-10 7.32098E-09
 -1       621 3.61987E+02 2.62117E+05 3.07265E+03 2.73056E+04 5.05452E-10 1.11713E-08
 -1       622 4.60899E+02 2.62851E+05 2.79891E+03 3.96817E+04 7.30097E-10-5.30326E-09
 -1       623 6.19360E+01 2.62282E+05 3.46063E+03 2.71790E+04 8.07859E-10 5.63341E-09
 -1       624 1.70593E+03 2.63944E+05 6.78613E+03 3.98082E+04 7.68694E-10-7.43375E-09
 -1       625 1.69477E+03 2.60942E+05 1.18965E+04 2.71762E+04 9.20863E-10-1.79693E-09
 -1       626 2.29727E+05 5.70620E+04 4.78564E+03 1.15320E+05 3.51292E-09 9.47512E-09
 -1       627 2.27390E+05 5.85386E+04 2.30614E+03 1.19501E+05 4.33056E-09 1.60230E-09
 -1       628 2.29858E+05 5.48573E+04 9.74898E+02 1.16114E+05 7.57791E-09-1.25774E-08
 -1       629 2.26775E+05 5.79228E+04 4.77206E+02 1.19744E+05 2.23081E-08 3.78931E-09
 -1       630 2.29870E+05 5.47519E+04 2.20948E+02 1.16145E+05 1.24573E-08-1.09819E-08
 -1       631 2.26706E+05 5.79017E+04 1.18393E+02 1.19745E+05 1.30512E-08-1.05900E-08
 -1       632 2.29864E+05 5.47573E+04 7.70191E+01 1.16139E+05 2.16473E-08 2.15249E-08
 -1       633 2.26695E+05 5.79050E+04 8.44247E+01 1.19739E+05 5.96901E-09 1.50233E-08
 -1       634 2.29857E+05 5.47562E+04 1.35207E+02 1.16136E+05 5.71572E-09 6.37033E-09
 -1       635 2.26706E+05 5.79047E+04 2.72884E+02 1.19742E+05-1.90187E-09-3.17095E-09
 -1       636 2.29846E+05 5.47525E+04 5.50707E+02 1.16135E+05 1.58229E-09 1.58420E-08
 -1       637 2.26823E+05 5.79908E+04 1.21044E+03 1.19740E+05-2.76759E-09 3.76804E-09
 -1       638 2.29802E+05 5.50205E+04 2.48708E+03 1.16013E+05 1.89902E-09 6.46060E-09
 -1       639 2.28129E+05 5.98075E+04 5.88417E+03 1.19354E+05 5.54473E-09 4.65502E-09
 -1       640 2.29624E+05 6.04426E+04 1.22107E+04 1.13723E+05 2.38197E-09-1.53418E-08
 -1       656 5.94778E+04-1.51733E+06-1.43580E+05-1.42434E+03 0.00000E+00-1.36065E-08
 -1       657-7.86619E+04-1.58218E+06-1.18896E+05 6.45623E+03-4.72937E-11 2.42429E-09
 -1       658 1.89375E+04-1.53576E+06-7.31619E+04-3.16704E+03 3.31511E-10-1.03300E-09
 -1       659-8.48871E+04-1.58514E+06-1.27074E+05 7.80915E+03-9.49512E-10-3.92846E-09
 -1       660 6.56889E+04-1.51438E+06-1.57643E+05-2.77724E+03-1.25874E-09 6.51343E-09
 -1       661 1.62042E+05 1.72249E+04 1.65055E+04 6.33530E+04 7.23048E-10 5.17957E-09
 -1       662 1.71079E+05 2.97379E+04 1.11229E+04 5.99857E+04 2.43244E-09-6.49493E-09
 -1       663 1.65282E+05 2.25215E+04 3.89044E+03 6.24141E+04-1.18689E-10 8.47058E-09
 -1       664 1.67325E+05 2.35419E+04 2.32683E+03 6.11311E+04 1.53591E-10-2.59513E-09
 -1       665 1.65772E+05 2.32467E+04 9.18016E+02 6.22730E+04 2.05148E-10-2.17145E-09
 -1       666 1.66747E+05 2.27113E+04 5.36831E+02 6.13143E+04 1.84113E-09-8.02561E-10
 -1       667 1.65857E+05 2.33305E+04 2.84893E+02 6.22388E+04 1.66588E-09-1.19521E-08
 -1       668 1.66655E+05 2.26496E+04 2.89521E+02 6.13642E+04-1.24923E-09-6.20859E-09
 -1       669 1.65864E+05 2.33066E+04 3.91425E+02 6.22236E+04-3.53896E-09 9.32840E-09
 -1       670 1.66751E+05 2.28612E+04 8.51781E+02 6.13666E+04-6.65432E-09 8.63785E-09
 -1       671 1.65761E+05 2.31231E+04 1.51220E+03 6.22345E+04 1.24444E-10-7.47150E-09
 -1       672 1.67631E+05 2.43330E+04 3.86884E+03 6.11540E+04 1.95774E-09-5.58896E-09
 -1       673 1.64987E+05 2.18719E+04 6.48344E+03 6.24220E+04-1.25885E-09 9.19954E-09
 -1       674 1.73802E+05 3.47492E+04 1.85413E+04 5.93410E+04-1.91864E-09 1.39446E-08
 -1       675 1.59630E+05 1.29985E+04 2.75216E+04 6.39379E+04-3.88809E-10 4.55293E-09
 -1       676 2.20041E+01-2.72015E+05-1.02108E+03-5.46519E+01 3.71671E-10-1.64414E-09
 -1       677-2.70985E+02-2.72261E+05-1.86873E+03 1.09227E+02 3.83625E-09-6.66699E-09
 -1       678 1.81045E+02-2.71839E+05-3.30343E+03-5.45386E+01 3.88468E-10-3.13289E-09
 -1       679-3.30428E+03-2.74255E+05-7.84750E+03 1.08785E+02 3.46006E-09-4.37001E-09
 -1       680 1.97217E+03-2.70022E+05-1.26475E+04-5.36085E+01 2.66027E-10-9.69372E-09
 -1       771-2.85125E+06-6.36245E+05-1.15584E+05-1.31825E+06-2.66882E-08-2.66300E-08
 -1       772-2.79315E+06-7.07169E+05-6.00199E+04-1.39972E+06-1.84664E-08 7.19592E-09
 -1       773-2.87290E+06-6.19214E+05-2.96787E+04-1.32697E+06-5.29690E-09 1.11395E-08
 -1       774-2.78413E+06-6.94751E+05-1.34362E+04-1.41653E+06 1.88884E-08-1.57524E-09
 -1       775-2.88325E+06-6.11896E+05-9.44099E+03-1.33074E+06-2.03727E-09 2.44472E-09
 -1       776-2.79077E+06-6.93366E+05-3.63113E+03-1.42869E+06-5.93718E-09 4.43470E-09
 -1       777-2.89202E+06-6.05514E+05-3.95566E+03-1.33404E+06 4.80213E-09 2.50293E-09
 -1       778-2.79785E+06-6.92165E+05-1.15360E+03-1.43906E+06 2.08820E-09 6.27188E-09
 -1       779-2.89946E+06-6.00004E+05-1.91091E+03-1.33688E+06-1.01863E-10-6.67205E-09
 -1       780-2.80407E+06-6.91006E+05-3.25815E+02-1.44749E+06 1.16415E-08 1.47702E-09
 -1       781-2.90531E+06-5.95597E+05-7.26021E+02-1.33910E+06-1.33296E-08-6.50834E-09
 -1       782-2.80884E+06-6.89999E+05 2.66471E+02-1.45370E+06-2.70302E-08-5.96538E-09
 -1       783-2.90941E+06-5.92563E+05 4.23326E+02-1.34066E+06-3.94357E-09-9.27389E-09
 -1       784-2.81143E+06-6.88864E+05 1.72432E+03-1.45752E+06-1.50321E-08 2.99224E-10
 -1       785-2.91182E+06-5.90768E+05 3.04559E+03-1.34167E+06-2.73649E-08 9.54424E-09
 -1       786 1.23714E+05-9.30438E+03 2.15256E+04-2.11074E+02 2.49066E-09 5.39330E-10
 -1       787 1.33049E+05 1.07718E+04 1.52286E+04-4.20245E+01 4.08884E-09 1.50021E-08
 -1       788 1.27313E+05-1.45832E+03 5.56951E+03-1.81171E+02 2.93418E-09 5.97083E-10
 -1       789 1.28855E+05 1.68741E+03 3.49688E+03-8.91487E+01-7.27878E-10-2.90873E-09
 -1       790 1.27907E+05-2.27379E+02 1.41703E+03-1.63960E+02-1.52433E-09 2.76293E-09
 -1       791 1.28161E+05 2.62808E+02 8.20794E+02-1.18856E+02-4.58561E-09 5.65551E-09
 -1       792 1.28008E+05-3.47836E+01 3.52509E+02-1.51465E+02-2.27152E-09 1.45665E-08
 -1       793 1.28042E+05 3.85013E+01 1.86034E+02-1.42366E+02-2.25285E-10-1.67027E-08
 -1       794 1.28026E+05-3.21432E+00 6.90386E+01-1.40450E+02 1.85360E-09 5.49727E-09
 -1       795 1.28014E+05-8.74125E+00 4.94492E-01-1.65286E+02-3.25673E-09-7.10241E-10
 -1       796 1.28035E+05 1.24337E+01-5.93625E+01-1.28545E+02 2.41951E-09-1.68426E-09
 -1       797 1.27971E+05-9.60147E+01-1.89671E+02-1.92486E+02 1.76086E-09 8.74579E-09
 -1       798 1.28070E+05 8.39929E+01-3.15411E+02-1.13249E+02 9.55149E-10 4.23439E-09
 -1       799 1.27729E+05-6.19927E+02-8.74180E+02-2.29813E+02 4.07624E-09-4.18078E-09
 -1       800 1.28277E+05 5.35912E+02-1.23895E+03-9.12169E+01 5.41478E-10 2.05932E-08
 -1       801-1.39816E+04-6.80025E+06-8.60178E+05 6.96945E+05 6.60657E-08-3.54412E-08
 -1       802 2.63306E+05 9.79362E+05 9.34652E+05-7.96295E+05 1.83689E-07-1.78534E-08
 -1       803-2.43292E+05-8.59109E+06-9.25021E+05 4.60354E+05 5.94846E-08 1.79989E-08
 -1       804 9.59607E+04-9.33922E+05 6.56431E+05 4.19007E+05-7.38801E-08-5.75053E-08
 -1       805 1.17745E+05-4.90051E+06-1.46824E+05-5.15888E+05-3.03517E-08-3.93220E-08
 -1       806-2.76090E+05-5.26316E+04-2.02041E+04-1.08486E+05-3.55658E-09-6.13272E-09
 -1       807-2.77807E+05-4.92062E+04-9.92606E+03-1.13237E+05 8.08632E-09 1.06379E-08
 -1       808-2.76635E+05-4.53605E+04-4.21103E+03-1.11941E+05 7.26141E-09 1.51134E-08
 -1       809-2.75726E+05-4.64120E+04-2.05912E+03-1.13476E+05 1.25754E-08-7.03903E-09
 -1       810-2.76719E+05-4.51072E+04-9.43752E+02-1.12094E+05 1.03200E-08-5.58657E-09
 -1       811-2.75566E+05-4.62991E+04-4.69302E+02-1.13445E+05 1.18553E-09 1.08898E-08
 -1       812-2.76732E+05-4.51285E+04-2.37221E+02-1.12094E+05-4.13820E-09 3.72938E-09
 -1       813-2.75545E+05-4.63005E+04-1.54046E+02-1.13429E+05-7.07541E-09 4.11183E-09
 -1       814-2.76728E+05-4.51362E+04-1.52331E+02-1.12091E+05-2.16278E-09 5.04042E-09
 -1       815-2.75549E+05-4.63021E+04-2.45387E+02-1.13424E+05 3.76485E-09 6.29507E-09
 -1       816-2.76711E+05-4.51345E+04-4.64805E+02-1.12089E+05 9.44056E-09 2.63231E-08
 -1       817-2.75630E+05-4.63461E+04-9.97863E+02-1.13415E+05-1.46292E-09 2.04043E-08
 -1       818-2.76653E+05-4.52740E+04-2.03505E+03-1.12023E+05 1.71985E-09-5.87534E-09
 -1       819-2.76744E+05-4.75770E+04-4.78894E+03-1.13156E+05 1.19308E-08 2.48012E-08
 -1       820-2.76274E+05-4.88868E+04-9.74691E+03-1.10473E+05 3.39969E-09 2.63321E-09
 -1       821-3.39331E+05 1.87253E+04-4.33232E+04 8.64060E+02 6.60955E-09-9.78616E-10
 -1       822-3.58037E+05-2.16779E+04-3.06459E+04-1.63043E+03 7.20802E-10-1.28766E-08
 -1       823-3.46533E+05 2.93718E+03-1.12175E+04 1.06720E+03-4.12764E-09-2.18643E-09
 -1       824-3.49589E+05-3.39702E+03-7.05306E+03-1.55305E+03 2.88274E-10 9.95192E-09
 -1       825-3.47776E+05 4.58104E+02-2.90940E+03 7.86693E+02 6.29330E-09 1.13735E-08
 -1       826-3.48096E+05-5.37419E+02-1.72743E+03-6.48867E+02 6.76622E-09 1.56365E-08
 -1       827-3.48022E+05 7.74807E+01-9.26735E+02 1.63003E+02 1.87585E-09 2.60320E-09
 -1       828-3.47888E+05-1.62206E+02-7.77899E+02 6.29882E+02-1.99972E-09-5.40956E-09
 -1       829-3.47983E+05 8.28638E+01-9.40765E+02-4.92076E+02 8.97181E-10-6.11618E-09
 -1       830-3.48192E+05-5.63533E+02-1.80786E+03 1.64232E+03 1.35049E-09 1.61198E-08
 -1       831-3.47721E+05 4.80634E+02-3.01299E+03-8.49455E+02-2.90847E-09-9.05357E-09
 -1       832-3.49675E+05-3.53656E+03-7.33985E+03 1.87989E+03-1.69487E-09 8.80755E-09
 -1       833-3.46502E+05 3.05455E+03-1.16740E+04-7.29643E+02-1.79148E-09 1.99279E-08
 -1       834-3.58362E+05-2.25483E+04-3.18635E+04 1.21274E+03-1.56339E-09 1.53163E-08
 -1       835-3.39035E+05 1.94760E+04-4.50790E+04-1.82294E+02 5.06176E-09 4.33101E-09
 -1       836-1.20382E+03 3.23762E+05 1.98600E+04-1.60369E+04-3.49064E-09 4.26235E-09
 -1       837 4.27690E+03 3.29962E+05 1.69010E+04-3.24673E+04-3.92913E-09 5.38330E-09
 -1       838-4.70217E+02 3.25488E+05 1.73547E+04-1.59697E+04-2.90902E-09 1.05347E-08
 -1       839 1.10181E+04 3.34985E+05 3.29621E+04-3.25127E+04-2.68255E-09 2.01021E-09
 -1       840-3.37653E+03 3.18689E+05 5.26201E+04-1.59935E+04-2.82671E-09-9.75575E-10
 -1       856-6.66001E+04 7.86916E+03-2.07373E+04-4.08562E+02 5.21254E-10 6.80302E-10
 -1       857-7.51531E+04-9.23838E+03-1.42760E+04 5.24482E+03 2.29852E-09-1.53109E-08
 -1       858-6.99837E+04 1.10313E+03-5.38124E+03-4.32482E+02 1.06218E-09-9.58153E-10
 -1       859-7.12691E+04-1.29060E+03-3.24833E+03 5.28153E+03-2.44809E-09 1.03807E-08
 -1       860-7.04894E+04 1.54015E+02-1.36302E+03-4.45186E+02 6.38209E-10-2.01038E-09
 -1       861-7.06872E+04-1.77188E+02-7.53287E+02 5.29889E+03-3.37934E-11 1.72545E-09
 -1       862-7.05683E+04 2.06196E+01-3.20076E+02-4.49845E+02 3.20995E-10 1.45292E-09
 -1       863-7.05917E+04-1.63596E+01-1.32363E+02 5.30130E+03 2.93296E-09-6.05647E-09
 -1       864-7.05853E+04-3.20958E+00 1.07892E+01-4.47596E+02-1.14457E-09 9.49100E-10
 -1       865-7.05468E+04 4.76516E+01 1.71308E+02 5.28931E+03-1.56319E-10-1.22868E-08
 -1       866-7.06112E+04-4.36352E+01 3.63399E+02-4.37861E+02-1.88487E-09-4.75620E-09
 -1       867-7.03707E+04 3.61789E+02 9.06304E+02 5.26284E+03 3.20142E-10 2.10133E-09
 -1       868-7.07570E+04-3.12294E+02 1.50867E+03-4.21124E+02-3.59535E-10 2.68199E-09
 -1       869-6.92607E+04 2.59816E+03 4.02169E+03 5.21898E+03 6.00352E-10 7.02414E-09
 -1       870-7.17144E+04-2.22017E+03 5.83549E+03-3.93967E+02-1.94768E-09-7.39010E-09
 -1       871-5.03254E+03-1.59849E+04-1.71344E+04 1.13978E+05-1.86992E-09-1.03046E-09
 -1       872-1.97660E+03-1.99087E+04-7.11418E+03 1.47781E+05-4.50746E-09-4.64752E-09
 -1       873 1.81095E+02-1.80389E+04 6.70860E+02 1.13729E+05-2.69119E-09 1.08730E-09
 -1       874 2.76102E+03-1.57889E+04 8.95392E+03 1.47816E+05-5.19503E-09 1.54662E-08
 -1       875 6.04444E+03-2.01712E+04 2.00813E+04 1.13938E+05-2.21371E-09 1.26965E-09
 -1       876 2.65678E+05 4.49751E+04 1.38278E+04 1.06826E+05-6.19616E-09 1.15124E-08
 -1       877 2.66617E+05 4.78632E+04 7.38450E+03 1.10757E+05-1.46565E-08 1.89875E-08
 -1       878 2.66970E+05 4.34448E+04 3.09375E+03 1.07961E+05-1.64523E-08 1.42916E-08
 -1       879 2.64737E+05 4.59874E+04 1.54138E+03 1.10851E+05-7.18592E-09-1.27147E-08
 -1       880 2.67063E+05 4.34286E+04 7.17825E+02 1.08007E+05-9.64178E-09 7.56080E-09
 -1       881 2.64613E+05 4.59072E+04 3.82988E+02 1.10830E+05-1.45045E-08 1.13081E-09
 -1       882 2.67072E+05 4.34405E+04 2.44426E+02 1.08009E+05-5.54019E-09 1.30965E-08
 -1       883 2.64604E+05 4.59032E+04 2.61829E+02 1.10824E+05-4.49126E-09 1.10294E-08
 -1       884 2.67066E+05 4.34379E+04 4.15667E+02 1.08009E+05-7.08019E-09-3.93777E-09
 -1       885 2.64637E+05 4.59089E+04 8.35188E+02 1.10834E+05-4.65215E-09 1.72131E-08
 -1       886 2.67034E+05 4.34136E+04 1.68305E+03 1.08006E+05-4.18058E-09-6.97696E-10
 -1       887 2.64933E+05 4.61029E+04 3.67630E+03 1.10876E+05 5.88329E-09-5.37284E-10
 -1       888 2.66802E+05 4.34545E+04 7.40785E+03 1.07888E+05-2.86413E-09 9.58426E-09
 -1       889 2.69342E+05 5.06894E+04 1.76962E+04 1.10741E+05-2.10916E-09 1.47247E-09
 -1       890 2.63782E+05 4.70418E+04 3.31443E+04 1.05064E+05-1.43064E-09-1.37352E-08
 -1       891-1.09740E+02-1.51097E+05-1.95514E+03 2.54298E+04-2.36992E-09-1.27288E-08
 -1       892-2.40835E+02-1.51603E+05-2.05979E+03 3.92059E+04-3.44653E-09-2.36078E-08
 -1       893 8.59007E+00-1.51169E+05-2.86175E+03 2.54360E+04-1.73100E-09-3.40515E-09
 -1       894-1.49962E+03-1.52676E+05-5.89921E+03 3.90632E+04-2.65641E-09 1.15829E-08
 -1       895-1.01003E+03-1.49935E+05-1.03231E+04 2.55725E+04-8.70159E-10-7.16318E-09
 -1       956-3.37919E+05-4.80622E+03-1.19763E+04 2.54584E+04 1.51431E-09 5.16138E-09
 -1       957-3.40276E+05-1.65982E+03-6.14764E+03 3.06265E+04 1.50067E-11-3.31556E-09
 -1       958-3.38989E+05-1.72315E+02-2.77002E+03 2.53130E+04 1.32331E-09 1.10913E-09
 -1       959-3.39171E+05-7.27327E+01-1.41466E+03 3.07910E+04 8.67976E-09 1.83879E-08
 -1       960-3.39090E+05-6.89560E-01-6.89801E+02 2.52985E+04 3.49110E-09 2.06776E-08
 -1       961-3.39095E+05-1.01016E+01-3.65957E+02 3.08079E+04 8.71387E-09-4.03065E-09
 -1       962-3.39112E+05-3.46655E+00-2.09694E+02 2.52961E+04 3.14049E-09-3.06159E-09
 -1       963-3.39094E+05-7.42568E+00-1.68700E+02 3.08109E+04 3.94493E-09 1.08284E-08
 -1       964-3.39116E+05-8.23891E-01-2.05443E+02 2.52955E+04 9.33625E-10-7.45831E-09
 -1       965-3.39105E+05-4.46852E+00-3.55571E+02 3.08105E+04-4.79986E-09-1.48980E-08
 -1       966-3.39103E+05 7.16726E+00-6.68047E+02 2.52966E+04 1.08685E-10 1.66574E-09
 -1       967-3.39188E+05-5.96911E+01-1.37028E+03 3.07990E+04-1.18894E-09-2.80465E-09
 -1       968-3.39014E+05-1.53934E+02-2.68218E+03 2.53069E+04 3.79168E-09-1.61697E-09
 -1       969-3.40268E+05-1.59242E+03-5.95477E+03 3.06789E+04 1.42154E-09 7.84675E-09
 -1       970-3.37984E+05-4.63924E+03-1.15996E+04 2.54137E+04-1.35196E-09 1.18116E-08
 -1       971-3.12958E+05-1.59184E+03-8.69318E+03 1.41457E+04-9.83164E-10-1.05513E-08
 -1       972-3.15059E+05-1.15882E+03-4.73425E+03 1.96486E+04 3.38332E-09-1.28030E-08
 -1       973-3.13926E+05-3.73869E+01-2.12030E+03 1.40303E+04 1.41426E-09-9.44624E-09
 -1       974-3.14061E+05-4.73742E+01-1.09885E+03 1.97766E+04 3.52725E-09-4.58454E-09
 -1       975-3.14002E+05 4.01932E+00-5.49099E+02 1.40190E+04-1.10231E-09 9.84414E-10
 -1       976-3.14002E+05-1.22509E+00-3.16462E+02 1.97908E+04-1.63709E-11-1.09685E-09
 -1       977-3.14017E+05 4.37888E+00-2.29099E+02 1.40161E+04 4.82260E-10 6.48026E-09
 -1       978-3.14007E+05 4.35081E+00-2.67274E+02 1.97950E+04 2.00430E-10 1.98363E-08
 -1       979-3.14016E+05 1.19879E+01-4.28721E+02 1.40148E+04 5.58401E-09 5.33441E-09
 -1       980-3.14039E+05 7.17677E+00-8.27354E+02 1.97959E+04 8.08112E-09 2.52498E-10
 -1       981-3.13990E+05 3.27569E+01-1.60214E+03 1.40152E+04 4.67355E-09 1.49464E-09
 -1       982-3.14259E+05-1.11004E+02-3.31147E+03 1.97900E+04 1.92597E-09-1.04421E-08
 -1       983-3.13789E+05-6.95916E+01-6.43410E+03 1.40208E+04 3.22416E-10-5.75506E-09
 -1       984-3.17354E+05-3.47104E+03-1.44088E+04 1.97116E+04-3.02543E-09-1.30285E-10
 -1       985-3.10876E+05-4.77745E+03-2.64589E+04 1.40921E+04 1.60117E-09 1.15597E-08
 -3
    1PSTEP                        17           9           1          
  100CL  109 6.44531E-01         409                     0    9           1
 -4  DISP        4    1
 -5  D1          1    2    1    0
 -5  D2          1    2    2    0
 -5  D3          1    2    3    0
 -5  ALL         1    2    0    0    1ALL
 -1         1 2.12514E-03 0.00000E+00 0.00000E+00
 -1         2 1.84192E-03 2.31009E-28 2.64698E-23
 -1         3 3.16015E-04-3.35440E-27-1.32349E-23
 -1         5 1.67194E-04 2.22093E-26 2.68834E-24
 -1         8 2.10826E-03-5.15371E-07 0.00000E+00
 -1         9 2.06652E-03-1.07423E-05 0.00000E+00
 -1        10 2.86765E-04-3.50920E-06 0.00000E+00
 -1        12 1.68664E-04 7.72783E-07-7.23783E-25
 -1        15 2.08795E-03-5.63571E-07 2.06795E-25
 -1        16 2.09731E-03-1.19352E-05 0.00000E+00
 -1        17 1.96083E-04-7.86630E-06 0.00000E+00
 -1        18 1.71543E-04 2.91739E-05 0.00000E+00
 -1        19 1.73074E-04 1.54017E-06 0.00000E+00
 -1        20 1.73217E-04-5.72622E-06 0.00000E+00
 -1        21 1.72316E-04-1.65402E-05-3.30872E-24
 -1        24 2.95077E-05-1.17352E-05 0.00000E+00
 -1        25 1.80435E-04 2.93852E-05 0.00000E+00
 -1        26 1.81130E-04 2.13365E-06 0.00000E+00
 -1        27 1.79030E-04-9.14393E-06 0.00000E+00
 -1        28 1.78673E-04-1.71432E-05 0.00000E+00
 -1        32 0.00000E+00 0.00000E+00 0.00000E+00
 -1        33 1.88158E-04 2.85560E-06 0.00000E+00
 -1        34 1.86122E-04-9.19368E-06 0.00000E+00
 -1        35 1.84255E-04-1.74802E-05 0.00000E+00
 -1        51 2.12405E-03-9.81698E-08 6.61744E-24
 -1        52 2.12202E-03-1.81345E-07 0.00000E+00
 -1        53 2.11924E-03-2.62439E-07 0.00000E+00
 -1        54 2.11590E-03-3.43602E-07 0.00000E+00
 -1        55 2.11217E-03-4.26402E-07 2.48154E-24
 -1        56 2.12117E-03 5.92753E-07 5.29396E-23
 -1        57 2.11574E-03 4.64690E-06 0.00000E+00
 -1        58 2.10925E-03 1.15228E-05 0.00000E+00
 -1        59 2.10200E-03 2.02955E-05-5.29396E-23
 -1        60 2.09449E-03 2.97606E-05 0.00000E+00
 -1        61 2.08719E-03 3.86507E-05-5.29396E-23
 -1        62 2.08057E-03 4.57903E-05-1.05879E-22
 -1        63 2.07501E-03 5.01397E-05-5.29396E-23
 -1        64 2.07074E-03 5.11006E-05 1.05879E-22
 -1        65 2.06786E-03 4.83416E-05 5.29396E-23
 -1        66 2.06628E-03 4.21225E-05-1.05879E-22
 -1        67 2.06577E-03 3.29794E-05 5.29396E-23
 -1        68 2.06596E-03 2.19139E-05-1.05879E-22
 -1        69 2.06645E-03 1.00896E-05-5.29396E-23
 -1        70 2.06675E-03-1.22239E-06-5.29396E-23
 -1        86 1.85520E-03-1.09380E-06 2.64698E-23
 -1        87 1.89448E-03-2.84495E-06 0.00000E+00
 -1        88 1.94794E-03-5.19445E-06 0.00000E+00
 -1        89 2.00315E-03-7.63520E-06 1.32349E-23
 -1        90 2.04692E-03-9.55905E-06 2.64698E-23
 -1       121 3.15193E-04-5.69964E-07 0.00000E+00
 -1       122 3.12732E-04-1.14252E-06 0.00000E+00
 -1       123 3.08639E-04-1.72022E-06 0.00000E+00
 -1       124 3.02931E-04-2.30562E-06 0.00000E+00
 -1       125 2.95630E-04-2.90091E-06 0.00000E+00
 -1       191 1.67235E-04 1.28839E-07-2.17135E-24
 -1       192 1.67358E-04 2.57670E-07 3.10193E-25
 -1       193 1.67562E-04 3.86489E-07 1.96455E-24
 -1       194 1.67847E-04 5.15287E-07 2.06795E-25
 -1       195 1.68215E-04 6.44055E-07-9.30578E-25
 -1       251 2.10751E-03-1.48888E-05 1.32349E-23
 -1       252 2.10568E-03-6.43577E-05 6.61744E-24
 -1       253 2.10237E-03-1.39312E-04-1.32349E-23
 -1       254 2.09785E-03-2.29502E-04 0.00000E+00
 -1       255 2.09329E-03-3.20186E-04-1.32349E-23
 -1       256 2.08987E-03-3.96617E-04 0.00000E+00
 -1       257 2.08793E-03-4.48251E-04 0.00000E+00
 -1       258 2.08714E-03-4.65166E-04 0.00000E+00
 -1       259 2.08632E-03-4.47081E-04 0.00000E+00
 -1       260 2.08435E-03-3.94658E-04 0.00000E+00
 -1       261 2.08092E-03-3.18114E-04 0.00000E+00
 -1       262 2.07643E-03-2.28263E-04 0.00000E+00
 -1       263 2.07206E-03-1.39854E-04-2.64698E-23
 -1       264 2.06893E-03-6.76077E-05 1.32349E-23
 -1       265 2.06725E-03-2.14698E-05 0.00000E+00
 -1       266 2.10487E-03-5.31001E-07 3.30872E-24
 -1       267 2.10149E-03-5.38108E-07-8.27181E-25
 -1       268 2.09810E-03-5.45755E-07-8.27181E-25
 -1       269 2.09472E-03-5.51804E-07 0.00000E+00
 -1       270 2.09133E-03-5.57814E-07 0.00000E+00
 -1       271 2.10614E-03 2.68644E-06 1.32349E-23
 -1       272 2.10394E-03 5.99721E-06-1.32349E-23
 -1       273 2.10177E-03 9.27753E-06 2.64698E-23
 -1       274 2.09965E-03 1.23759E-05-1.32349E-23
 -1       275 2.09766E-03 1.51462E-05 0.00000E+00
 -1       276 2.09585E-03 1.74440E-05 1.32349E-23
 -1       277 2.09426E-03 1.91306E-05 0.00000E+00
 -1       278 2.09296E-03 2.00729E-05 1.32349E-23
 -1       279 2.09199E-03 2.01464E-05 0.00000E+00
 -1       280 2.09138E-03 1.92353E-05 0.00000E+00
 -1       281 2.09118E-03 1.72345E-05 2.64698E-23
 -1       282 2.09142E-03 1.40499E-05 0.00000E+00
 -1       283 2.09213E-03 9.60069E-06 0.00000E+00
 -1       284 2.09334E-03 3.81960E-06-1.32349E-23
 -1       285 2.09506E-03-3.34797E-06 2.64698E-23
 -1       301 2.07208E-03-1.09649E-05 0.00000E+00
 -1       302 2.07652E-03-1.11543E-05-3.30872E-24
 -1       303 2.08055E-03-1.13395E-05-1.32349E-23
 -1       304 2.08488E-03-1.15249E-05 0.00000E+00
 -1       305 2.09023E-03-1.17168E-05 0.00000E+00
 -1       306 2.10006E-03-1.41999E-04-1.05879E-22
 -1       307 2.16464E-03-5.05697E-04 5.29396E-23
 -1       308 2.22242E-03-1.04406E-03 1.05879E-22
 -1       309 2.26401E-03-1.67505E-03 0.00000E+00
 -1       310 2.30889E-03-2.28837E-03 0.00000E+00
 -1       311 2.37186E-03-2.77536E-03 0.00000E+00
 -1       312 2.43144E-03-3.06314E-03 0.00000E+00
 -1       313 2.44100E-03-3.11052E-03 0.00000E+00
 -1       314 2.34242E-03-2.92312E-03 0.00000E+00
 -1       315 2.09945E-03-2.54815E-03 5.29396E-23
 -1       316 1.72424E-03-2.05204E-03 1.05879E-22
 -1       317 1.26714E-03-1.49961E-03 5.29396E-23
 -1       318 8.20448E-04-9.54084E-04-1.05879E-22
 -1       319 4.73410E-04-4.80322E-04 0.00000E+00
 -1       320 2.65374E-04-1.43766E-04 1.05879E-22
 -1       336 2.76164E-04-4.17877E-06 0.00000E+00
 -1       337 2.63671E-04-4.86992E-06 0.00000E+00
 -1       338 2.49342E-04-5.58427E-06 1.32349E-23
 -1       339 2.33247E-04-6.32222E-06 0.00000E+00
 -1       340 2.15466E-04-7.08772E-06 0.00000E+00
 -1       406 1.69195E-04 9.01458E-07-2.89513E-24
 -1       407 1.69807E-04 1.03005E-06-1.55096E-25
 -1       408 1.70502E-04 1.15851E-06-3.30872E-24
 -1       409 1.71278E-04 1.28667E-06 4.13590E-25
 -1       410 1.72135E-04 1.41429E-06 1.65436E-24
 -1       521 2.13171E-03-1.52015E-04 0.00000E+00
 -1       522 2.19551E-03-5.34731E-04-5.29396E-23
 -1       523 2.24882E-03-1.09942E-03-1.05879E-22
 -1       524 2.28339E-03-1.75806E-03-5.29396E-23
 -1       525 2.32201E-03-2.39739E-03 0.00000E+00
 -1       526 2.38213E-03-2.90600E-03-5.29396E-23
 -1       527 2.44151E-03-3.20531E-03 0.00000E+00
 -1       528 2.44978E-03-3.25297E-03-5.29396E-23
 -1       529 2.34255E-03-3.05408E-03 1.05879E-22
 -1       530 2.08111E-03-2.66187E-03 5.29396E-23
 -1       531 1.67775E-03-2.14608E-03 0.00000E+00
 -1       532 1.18774E-03-1.57464E-03 0.00000E+00
 -1       533 7.08216E-04-1.00968E-03 1.05879E-22
 -1       534 3.33203E-04-5.15035E-04-5.29396E-23
 -1       535 1.07081E-04-1.59973E-04 0.00000E+00
 -1       536 1.95426E-04 2.41227E-05 0.00000E+00
 -1       537 1.93786E-04 7.96570E-05 0.00000E+00
 -1       538 1.91259E-04 1.50177E-04-3.30872E-24
 -1       539 1.88283E-04 2.27046E-04 1.65436E-24
 -1       540 1.85602E-04 2.99685E-04 3.30872E-24
 -1       541 1.83852E-04 3.57536E-04 0.00000E+00
 -1       542 1.83035E-04 3.94330E-04 0.00000E+00
 -1       543 1.82826E-04 4.03934E-04 0.00000E+00
 -1       544 1.82528E-04 3.87087E-04 0.00000E+00
 -1       545 1.81503E-04 3.44722E-04-1.65436E-24
 -1       546 1.79617E-04 2.84385E-04 0.00000E+00
 -1       547 1.77079E-04 2.13728E-04 0.00000E+00
 -1       548 1.74568E-04 1.43483E-04 0.00000E+00
 -1       549 1.72753E-04 8.43812E-05 0.00000E+00
 -1       550 1.71803E-04 4.38434E-05-1.65436E-24
 -1       551 1.72949E-04-8.39514E-06 0.00000E+00
 -1       552 1.46734E-04-8.99304E-06 0.00000E+00
 -1       553 1.18352E-04-9.64482E-06 8.27181E-24
 -1       554 8.87342E-05-1.03319E-05 3.30872E-24
 -1       555 5.88107E-05-1.10297E-05 0.00000E+00
 -1       556 1.89131E-04 9.94330E-06 5.29396E-23
 -1       557 1.83531E-04 2.43419E-05-2.64698E-23
 -1       558 1.79158E-04 3.55983E-05 0.00000E+00
 -1       559 1.75888E-04 4.40030E-05 0.00000E+00
 -1       560 1.73600E-04 4.98464E-05 0.00000E+00
 -1       561 1.72177E-04 5.34215E-05 0.00000E+00
 -1       562 1.71502E-04 5.50222E-05 0.00000E+00
 -1       563 1.71459E-04 5.49432E-05 0.00000E+00
 -1       564 1.71935E-04 5.34800E-05 0.00000E+00
 -1       565 1.72817E-04 5.09287E-05 0.00000E+00
 -1       566 1.73994E-04 4.75858E-05-6.61744E-24
 -1       567 1.75356E-04 4.37482E-05 0.00000E+00
 -1       568 1.76791E-04 3.97128E-05 8.27181E-25
 -1       569 1.78189E-04 3.57766E-05 0.00000E+00
 -1       570 1.79440E-04 3.22366E-05 0.00000E+00
 -1       571 1.71636E-04 2.73830E-05-1.65436E-24
 -1       572 1.71730E-04 2.55302E-05-1.24077E-24
 -1       573 1.71826E-04 2.36302E-05 1.65436E-24
 -1       574 1.71921E-04 2.16981E-05 0.00000E+00
 -1       575 1.72017E-04 1.97489E-05 3.30872E-24
 -1       576 1.72113E-04 1.77978E-05 0.00000E+00
 -1       577 1.72208E-04 1.58603E-05 0.00000E+00
 -1       578 1.72304E-04 1.39514E-05 0.00000E+00
 -1       579 1.72400E-04 1.20865E-05 0.00000E+00
 -1       580 1.72496E-04 1.02808E-05-6.61744E-24
 -1       581 1.72592E-04 8.54963E-06-6.61744E-24
 -1       582 1.72688E-04 6.90811E-06 0.00000E+00
 -1       583 1.72784E-04 5.37152E-06 0.00000E+00
 -1       584 1.72881E-04 3.95493E-06 0.00000E+00
 -1       585 1.72977E-04 2.67326E-06 0.00000E+00
 -1       586 1.72981E-04 2.92112E-05-1.65436E-24
 -1       587 1.74381E-04 2.92478E-05-4.13590E-25
 -1       588 1.75785E-04 2.92842E-05 0.00000E+00
 -1       589 1.77234E-04 2.93199E-05 0.00000E+00
 -1       590 1.78771E-04 2.93544E-05 0.00000E+00
 -1       591 1.72152E-04 2.74680E-05-1.03398E-25
 -1       592 1.72765E-04 2.57407E-05-2.06795E-25
 -1       593 1.73384E-04 2.39981E-05 0.00000E+00
 -1       594 1.74006E-04 2.22447E-05-4.13590E-25
 -1       595 1.74630E-04 2.04856E-05 0.00000E+00
 -1       596 1.75255E-04 1.87256E-05 4.13590E-25
 -1       597 1.75878E-04 1.69694E-05 0.00000E+00
 -1       598 1.76497E-04 1.52220E-05 0.00000E+00
 -1       599 1.77112E-04 1.34880E-05 0.00000E+00
 -1       600 1.77720E-04 1.17724E-05 0.00000E+00
 -1       601 1.78319E-04 1.00798E-05 8.27181E-25
 -1       602 1.78908E-04 8.41520E-06-2.06795E-25
 -1       603 1.79485E-04 6.78331E-06 4.13590E-25
 -1       604 1.80048E-04 5.18908E-06-1.16322E-25
 -1       605 1.80596E-04 3.63723E-06-4.13590E-25
 -1       606 1.73087E-04 6.28546E-07 0.00000E+00
 -1       607 1.73097E-04-1.95173E-07 0.00000E+00
 -1       608 1.73106E-04-9.36149E-07 0.00000E+00
 -1       609 1.73115E-04-1.60020E-06 1.65436E-24
 -1       610 1.73123E-04-2.19320E-06 0.00000E+00
 -1       611 1.73132E-04-2.72107E-06 0.00000E+00
 -1       612 1.73141E-04-3.18976E-06 0.00000E+00
 -1       613 1.73149E-04-3.60522E-06 0.00000E+00
 -1       614 1.73158E-04-3.97339E-06 0.00000E+00
 -1       615 1.73166E-04-4.30022E-06 0.00000E+00
 -1       616 1.73175E-04-4.59166E-06 0.00000E+00
 -1       617 1.73184E-04-4.85366E-06 0.00000E+00
 -1       618 1.73192E-04-5.09217E-06 0.00000E+00
 -1       619 1.73201E-04-5.31313E-06-2.06795E-25
 -1       620 1.73209E-04-5.52250E-06-2.06795E-25
 -1       621 1.74165E-04 1.63954E-06 1.65436E-24
 -1       622 1.75396E-04 1.73917E-06-8.27181E-25
 -1       623 1.76737E-04 1.83865E-06 0.00000E+00
 -1       624 1.78160E-04 1.93785E-06-1.65436E-24
 -1       625 1.79634E-04 2.03679E-06 1.65436E-24
 -1       626 1.73523E-04 6.63112E-07 3.30872E-24
 -1       627 1.73949E-04-1.47993E-07 3.30872E-24
 -1       628 1.74354E-04-9.00996E-07 0.00000E+00
 -1       629 1.74740E-04-1.60408E-06-1.65436E-24
 -1       630 1.75110E-04-2.26548E-06 0.00000E+00
 -1       631 1.75468E-04-2.89340E-06-1.65436E-24
 -1       632 1.75816E-04-3.49608E-06 3.30872E-24
 -1       633 1.76158E-04-4.08178E-06-1.65436E-24
 -1       634 1.76497E-04-4.65871E-06-3.30872E-24
 -1       635 1.76835E-04-5.23510E-06 0.00000E+00
 -1       636 1.77176E-04-5.81921E-06-3.30872E-24
 -1       637 1.77524E-04-6.41926E-06 1.65436E-24
 -1       638 1.77880E-04-7.04349E-06 3.30872E-24
 -1       639 1.78248E-04-7.70016E-06-8.27181E-25
 -1       640 1.78631E-04-8.39752E-06 3.30872E-24
 -1       656 1.73651E-04-6.28181E-06-6.61744E-24
 -1       657 1.74499E-04-6.85992E-06 6.61744E-24
 -1       658 1.75621E-04-7.43662E-06 0.00000E+00
 -1       659 1.76871E-04-8.01297E-06 6.61744E-24
 -1       660 1.78068E-04-8.59107E-06 6.61744E-24
 -1       661 1.73380E-04-5.97168E-06-8.27181E-25
 -1       662 1.73578E-04-6.30243E-06 0.00000E+00
 -1       663 1.73806E-04-6.71401E-06-1.65436E-24
 -1       664 1.74063E-04-7.20072E-06 0.00000E+00
 -1       665 1.74346E-04-7.75748E-06 0.00000E+00
 -1       666 1.74654E-04-8.37915E-06-8.27181E-25
 -1       667 1.74984E-04-9.06084E-06 0.00000E+00
 -1       668 1.75334E-04-9.79771E-06 0.00000E+00
 -1       669 1.75704E-04-1.05851E-05 0.00000E+00
 -1       670 1.76091E-04-1.14185E-05-8.27181E-25
 -1       671 1.76493E-04-1.22933E-05 0.00000E+00
 -1       672 1.76909E-04-1.32054E-05-8.27181E-25
 -1       673 1.77337E-04-1.41503E-05 0.00000E+00
 -1       674 1.77775E-04-1.51242E-05 0.00000E+00
 -1       675 1.78223E-04-1.61226E-05 0.00000E+00
 -1       676 1.73379E-04-1.66413E-05 0.00000E+00
 -1       677 1.74441E-04-1.67423E-05-1.65436E-24
 -1       678 1.75503E-04-1.68433E-05 3.30872E-24
 -1       679 1.76562E-04-1.69440E-05 0.00000E+00
 -1       680 1.77619E-04-1.70446E-05 1.65436E-24
 -1       771 1.85306E-05 1.26931E-05 0.00000E+00
 -1       772 9.27731E-06 3.27567E-05 0.00000E+00
 -1       773 1.66549E-06 4.86686E-05 0.00000E+00
 -1       774-4.41721E-06 6.06670E-05 0.00000E+00
 -1       775-9.08088E-06 6.89987E-05-5.29396E-23
 -1       776-1.24401E-05 7.39258E-05 2.64698E-23
 -1       777-1.46093E-05 7.57189E-05-5.29396E-23
 -1       778-1.57056E-05 7.46610E-05 0.00000E+00
 -1       779-1.58453E-05 7.10423E-05-5.29396E-23
 -1       780-1.51470E-05 6.51635E-05 0.00000E+00
 -1       781-1.37283E-05 5.73306E-05 0.00000E+00
 -1       782-1.17086E-05 4.78580E-05 0.00000E+00
 -1       783-9.20638E-06 3.70637E-05 0.00000E+00
 -1       784-6.34132E-06 2.52714E-05-2.64698E-23
 -1       785-3.23236E-06 1.28074E-05-5.29396E-23
 -1       786 1.80474E-04 2.74593E-05-5.16988E-26
 -1       787 1.80517E-04 2.55824E-05 0.00000E+00
 -1       788 1.80560E-04 2.37464E-05-8.27181E-25
 -1       789 1.80603E-04 2.19432E-05 0.00000E+00
 -1       790 1.80647E-04 2.01681E-05 0.00000E+00
 -1       791 1.80690E-04 1.84166E-05 0.00000E+00
 -1       792 1.80734E-04 1.66864E-05-1.65436E-24
 -1       793 1.80778E-04 1.49755E-05-8.27181E-25
 -1       794 1.80822E-04 1.32836E-05-1.65436E-24
 -1       795 1.80865E-04 1.16106E-05 0.00000E+00
 -1       796 1.80909E-04 9.95839E-06 1.65436E-24
 -1       797 1.80953E-04 8.32876E-06-8.27181E-25
 -1       798 1.80997E-04 6.72593E-06 0.00000E+00
 -1       799 1.81041E-04 5.15417E-06 0.00000E+00
 -1       800 1.81085E-04 3.62090E-06 0.00000E+00
 -1       801 1.39211E-04 2.63269E-05 2.64698E-23
 -1       802 1.43732E-05 1.65829E-05 2.64698E-23
 -1       803-9.30552E-05 8.47601E-06 0.00000E+00
 -1       804-8.39064E-05 5.85707E-06 0.00000E+00
 -1       805-2.78981E-05 2.38290E-06 5.29396E-23
 -1       806 1.81047E-04 2.73938E-05 1.65436E-24
 -1       807 1.81645E-04 2.54287E-05-1.65436E-24
 -1       808 1.82230E-04 2.34946E-05-3.30872E-24
 -1       809 1.82803E-04 2.15954E-05 0.00000E+00
 -1       810 1.83360E-04 1.97348E-05 0.00000E+00
 -1       811 1.83902E-04 1.79165E-05-1.65436E-24
 -1       812 1.84427E-04 1.61441E-05 0.00000E+00
 -1       813 1.84933E-04 1.44212E-05 0.00000E+00
 -1       814 1.85419E-04 1.27516E-05-1.65436E-24
 -1       815 1.85884E-04 1.11387E-05 8.27181E-25
 -1       816 1.86327E-04 9.58621E-06 1.65436E-24
 -1       817 1.86746E-04 8.09774E-06-8.27181E-25
 -1       818 1.87139E-04 6.67687E-06 0.00000E+00
 -1       819 1.87506E-04 5.32721E-06-1.65436E-24
 -1       820 1.87846E-04 4.05228E-06 3.30872E-24
 -1       821 1.81006E-04 3.29413E-07 0.00000E+00
 -1       822 1.80873E-04-2.15102E-06 0.00000E+00
 -1       823 1.80739E-04-5.02637E-06 3.30872E-24
 -1       824 1.80604E-04-8.01295E-06-1.65436E-24
 -1       825 1.80469E-04-1.07980E-05 0.00000E+00
 -1       826 1.80336E-04-1.30700E-05 0.00000E+00
 -1       827 1.80203E-04-1.46530E-05 3.30872E-24
 -1       828 1.80071E-04-1.53752E-05-1.65436E-24
 -1       829 1.79940E-04-1.52925E-05 0.00000E+00
 -1       830 1.79808E-04-1.44655E-05 1.65436E-24
 -1       831 1.79676E-04-1.31516E-05 0.00000E+00
 -1       832 1.79544E-04-1.16111E-05-1.65436E-24
 -1       833 1.79412E-04-1.01644E-05 3.30872E-24
 -1       834 1.79282E-04-9.13106E-06 1.65436E-24
 -1       835 1.79152E-04-8.72192E-06 8.27181E-25
 -1       836 1.82504E-04 2.25345E-06 0.00000E+00
 -1       837 1.83755E-04 2.37621E-06 1.65436E-24
 -1       838 1.84915E-04 2.49889E-06 0.00000E+00
 -1       839 1.86014E-04 2.62087E-06 8.27181E-25
 -1       840 1.87084E-04 2.74268E-06 0.00000E+00
 -1       856 1.79011E-04-9.91124E-06 0.00000E+00
 -1       857 1.78989E-04-1.05450E-05-2.58494E-26
 -1       858 1.78967E-04-1.10662E-05 0.00000E+00
 -1       859 1.78945E-04-1.14955E-05-2.06795E-25
 -1       860 1.78923E-04-1.18539E-05-8.27181E-25
 -1       861 1.78901E-04-1.21626E-05 0.00000E+00
 -1       862 1.78878E-04-1.24425E-05 0.00000E+00
 -1       863 1.78856E-04-1.27148E-05 0.00000E+00
 -1       864 1.78833E-04-1.30005E-05 8.27181E-25
 -1       865 1.78811E-04-1.33208E-05 4.13590E-25
 -1       866 1.78788E-04-1.36967E-05 0.00000E+00
 -1       867 1.78766E-04-1.41492E-05 0.00000E+00
 -1       868 1.78743E-04-1.46993E-05 8.27181E-25
 -1       869 1.78720E-04-1.53678E-05 0.00000E+00
 -1       870 1.78697E-04-1.61756E-05 8.27181E-25
 -1       871 1.80074E-04-9.14799E-06 0.00000E+00
 -1       872 1.81260E-04-9.15528E-06 0.00000E+00
 -1       873 1.82523E-04-9.16322E-06 0.00000E+00
 -1       874 1.83797E-04-9.17187E-06 1.55096E-25
 -1       875 1.85019E-04-9.18109E-06 1.03398E-24
 -1       876 1.79441E-04-9.89835E-06-3.30872E-24
 -1       877 1.79831E-04-1.05882E-05 0.00000E+00
 -1       878 1.80200E-04-1.12212E-05-3.30872E-24
 -1       879 1.80551E-04-1.18043E-05 1.65436E-24
 -1       880 1.80886E-04-1.23447E-05 0.00000E+00
 -1       881 1.81208E-04-1.28494E-05 0.00000E+00
 -1       882 1.81518E-04-1.33253E-05 0.00000E+00
 -1       883 1.81821E-04-1.37797E-05 0.00000E+00
 -1       884 1.82118E-04-1.42194E-05 3.30872E-24
 -1       885 1.82413E-04-1.46515E-05 0.00000E+00
 -1       886 1.82707E-04-1.50830E-05 3.30872E-24
 -1       887 1.83003E-04-1.55209E-05 0.00000E+00
 -1       888 1.83304E-04-1.59723E-05 3.30872E-24
 -1       889 1.83612E-04-1.64444E-05-1.65436E-24
 -1       890 1.83930E-04-1.69440E-05 0.00000E+00
 -1       891 1.79748E-04-1.71997E-05 0.00000E+00
 -1       892 1.80799E-04-1.72565E-05 0.00000E+00
 -1       893 1.81801E-04-1.73132E-05-8.27181E-25
 -1       894 1.82728E-04-1.73696E-05-4.13590E-25
 -1       895 1.83554E-04-1.74258E-05-4.13590E-25
 -1       956 1.88033E-04 1.82439E-06-1.65436E-24
 -1       957 1.87906E-04 8.79644E-07 1.65436E-24
 -1       958 1.87778E-04 1.12807E-08 3.30872E-24
 -1       959 1.87651E-04-7.91332E-07 0.00000E+00
 -1       960 1.87523E-04-1.53887E-06 0.00000E+00
 -1       961 1.87395E-04-2.24205E-06 0.00000E+00
 -1       962 1.87267E-04-2.91157E-06 0.00000E+00
 -1       963 1.87140E-04-3.55820E-06 1.65436E-24
 -1       964 1.87012E-04-4.19265E-06-3.30872E-24
 -1       965 1.86884E-04-4.82566E-06 1.65436E-24
 -1       966 1.86757E-04-5.46797E-06 0.00000E+00
 -1       967 1.86629E-04-6.13031E-06-1.65436E-24
 -1       968 1.86502E-04-6.82341E-06 3.30872E-24
 -1       969 1.86374E-04-7.55796E-06-1.65436E-24
 -1       970 1.86247E-04-8.34464E-06 0.00000E+00
 -1       971 1.86006E-04-1.00395E-05-3.30872E-24
 -1       972 1.85889E-04-1.07927E-05 1.65436E-24
 -1       973 1.85772E-04-1.14634E-05-3.30872E-24
 -1       974 1.85655E-04-1.20621E-05 0.00000E+00
 -1       975 1.85537E-04-1.25993E-05 3.30872E-24
 -1       976 1.85420E-04-1.30857E-05-1.65436E-24
 -1       977 1.85303E-04-1.35318E-05-3.30872E-24
 -1       978 1.85185E-04-1.39481E-05 0.00000E+00
 -1       979 1.85068E-04-1.43454E-05 0.00000E+00
 -1       980 1.84951E-04-1.47341E-05 0.00000E+00
 -1       981 1.84834E-04-1.51249E-05 3.30872E-24
 -1       982 1.84716E-04-1.55283E-05 0.00000E+00
 -1       983 1.84599E-04-1.59550E-05 0.00000E+00
 -1       984 1.84483E-04-1.64156E-05 1.65436E-24
 -1       985 1.84367E-04-1.69205E-05 0.00000E+00
 -3
    1PSTEP                        18           9           1          
  100CL  109 6.44531E-01         409                     0    9           1
 -4  STRESS      6    1
 -5  SXX         1    4    1    1
 -5  SYY         1    4    2    2
 -5  SZZ         1    4    3    3
 -5  SXY         1    4    1    2
 -5  SYZ         1    4    2    3
 -5  SZX         1    4    3    1
 -1         1-4.42962E+06-1.65127E+06-9.74362E+05-1.62388E+06 4.80213E-10-3.67581E-08
 -1         2 3.01978E+04-2.13493E+06 1.25888E+05 3.29442E+05 5.15411E-09 1.15671E-07
 -1         3-1.24263E+03-1.62026E+06 4.06078E+02-2.10249E+03-4.47773E-10-1.15688E-09
 -1         5-4.80186E+01 3.68844E+05 9.52077E+00-9.77840E-01-3.34852E-10-5.58248E-09
 -1         8-6.21586E+05-2.09497E+05-4.91773E+04-4.00597E+05-1.34605E-10 1.13163E-07
 -1         9 8.09546E+06-6.71751E+05 1.35486E+06-1.01666E+06 2.78465E-08 3.14554E-08
 -1        10-2.13268E+03-1.68841E+06-3.86913E+03-1.42073E+04-1.21054E-08-2.40819E-08
 -1        12-4.42143E+01 3.68864E+05 3.11361E+02-6.79059E+00-7.14461E-10 1.08957E-08
 -1        15 1.25876E+03 6.91755E+02 4.06892E+03 1.84231E+00-3.74001E-10 2.52704E-07
 -1        16 1.75964E+07-1.51073E+05 2.47683E+06-1.43395E+06 5.62674E-09-1.16415E-09
 -1        17 6.31880E+06 4.50812E+06 1.70240E+06 4.42718E+06 1.45839E-08 3.85218E-08
 -1        18 1.12843E+05 2.55335E+04-1.68001E+03-1.12230E+05 1.44380E-08 1.36256E-08
 -1        19 1.17247E+05 1.35493E+05-9.13348E+02 2.13868E+04 1.27111E-09-1.17747E-08
 -1        20-7.56541E+04-5.50365E+05-1.23293E+05 2.58369E+04-1.58358E-09 1.65164E-09
 -1        21-4.43466E+01-2.87781E+05-8.90053E+02 2.09860E+02-1.64257E-07-1.17019E-08
 -1        24 1.03403E+07 8.81589E+06 2.92709E+06 8.20057E+06-1.44840E-07-5.11257E-08
 -1        25 7.41696E+04 8.06882E+04 5.22235E+04-5.36302E+05 9.11314E-11 1.26984E-08
 -1        26-5.23577E+04 8.80543E+04-2.35866E+04 1.82549E+02 4.68208E-10 1.08543E-08
 -1        27-7.48266E+04-2.97990E+05-1.09423E+05 6.63479E+04 4.87110E-09-7.79437E-10
 -1        28 2.08906E+04-8.34413E+04 1.64528E+04 2.06747E+04-4.23651E-09 9.64611E-09
 -1        32-1.62981E+06-2.99592E+06-1.74403E+05 2.62224E+05-3.85626E-08-6.05610E-09
 -1        33-1.71999E+05 8.87339E+04 3.10423E+04-3.76726E+04-2.41475E-09-3.32511E-09
 -1        34-2.15792E+05-2.38194E+04 6.44949E+02 7.20152E+04-3.86916E-09 7.76375E-09
 -1        35-2.23861E+04-3.39335E+04-1.56536E+03 5.01053E+04-4.97680E-09 8.71660E-09
 -1        51 4.97306E+04-2.11642E+05 1.07545E+05-6.34965E+05 1.01863E-10 1.09372E-07
 -1        52 1.80157E+04-1.94471E+05 5.80826E+04-7.40303E+05 2.58296E-10 2.20258E-07
 -1        53 5.10289E+03-2.09956E+05 3.28694E+04-6.32651E+05 5.16593E-10 1.00154E-07
 -1        54 1.14770E+04-2.06411E+05 3.23186E+04-7.42701E+05-4.36557E-11-1.09794E-07
 -1        55 2.40536E+04-2.15915E+05 4.55109E+04-6.32334E+05 3.05590E-10 2.70047E-08
 -1        56-8.35201E+06-9.59370E+05-7.22398E+05-3.28204E+06-1.71858E-08-1.80735E-08
 -1        57-8.82284E+06-1.41977E+06-4.85230E+05-3.03449E+06 1.99070E-08 2.21451E-07
 -1        58-8.44552E+06-1.23574E+06-1.69595E+05-3.29028E+06 1.89539E-09 1.73750E-07
 -1        59-8.72214E+06-1.09010E+06-1.00711E+05-3.02494E+06 1.46902E-08-1.12181E-07
 -1        60-8.45394E+06-1.27871E+06-3.92517E+04-3.29670E+06 8.13588E-09 6.34427E-08
 -1        61-8.67886E+06-1.06877E+06-2.17337E+04-3.04840E+06 2.07233E-08 4.11210E-08
 -1        62-8.48678E+06-1.25698E+06-1.17368E+04-3.26594E+06-3.42880E-08 2.28592E-08
 -1        63-8.58680E+06-1.14498E+06-7.09422E+03-3.13494E+06 1.41372E-08-8.84120E-08
 -1        64-8.54137E+06-1.20547E+06-1.18909E+04-3.20682E+06 3.12502E-09-1.01444E-07
 -1        65-8.48343E+06-1.25452E+06-1.82618E+04-3.25489E+06-8.76644E-08 1.18119E-07
 -1        66-8.58997E+06-1.14774E+06-3.60800E+04-3.14586E+06 4.74865E-08-2.47555E-08
 -1        67-8.43126E+06-1.36945E+06-8.86317E+04-3.34903E+06-5.41040E-08 3.49992E-08
 -1        68-8.59857E+06-1.08840E+06-1.49506E+05-3.11579E+06-3.01952E-09 4.09491E-08
 -1        69-8.55763E+06-1.63313E+06-4.29726E+05-3.33378E+06-2.41780E-08-1.07138E-07
 -1        70-8.46795E+06-8.89566E+05-6.37514E+05-3.16061E+06-8.44011E-10 1.04745E-07
 -1        86-3.10276E+04-3.09773E+06-7.37304E+04-1.64004E+05-4.37942E-08 1.58219E-07
 -1        87 3.75644E+04-2.51613E+06 5.14107E+04 4.89014E+05-7.26473E-08-3.37582E-08
 -1        88-1.38260E+03-2.75719E+06-7.80094E+03-3.24527E+05-6.64604E-08 1.29573E-07
 -1        89 3.62846E+04-2.57019E+06 2.03827E+04 5.21253E+05-9.76524E-08-8.96055E-08
 -1        90-2.46438E+04-3.04934E+06-1.13890E+05-1.96510E+05-2.77087E-08-2.05941E-07
 -1       121-1.71137E+03-1.62440E+06-3.80173E+02 1.04385E+03 1.24598E-09 2.63390E-09
 -1       122-1.06109E+03-1.62030E+06 7.91956E+02-4.20456E+03-4.99492E-09 1.14778E-09
 -1       123-1.74340E+03-1.62453E+06 4.73797E+02 3.11674E+03 4.17879E-09-1.35769E-08
 -1       124 6.08324E+02-1.61975E+06 3.09993E+03-8.77883E+03-9.27776E-09 9.93532E-09
 -1       125-2.60769E+03-1.62545E+06 3.86947E+03 5.58391E+03 5.87352E-09-4.10000E-09
 -1       191-5.07081E+01 3.68866E+05 9.29827E+00 5.03695E-01-4.69625E-10 1.16197E-08
 -1       192-4.89209E+01 3.68844E+05 2.02588E+01-3.26137E+00-5.14086E-10 3.24035E-08
 -1       193-5.30921E+01 3.68866E+05 3.56509E+01 2.84886E+00-8.56842E-10 9.92259E-09
 -1       194-5.18176E+01 3.68847E+05 7.68731E+01-7.44550E+00-5.13111E-10 4.89945E-09
 -1       195-5.76696E+01 3.68863E+05 1.48334E+02 4.79202E+00-1.31352E-09 4.76757E-09
 -1       251-2.27309E+06-4.33704E+04-2.34163E+05 1.31199E+05 5.41695E-09 1.14538E-07
 -1       252-1.06784E+06 4.99260E+04 7.56305E+04-4.39997E+05-8.87030E-09-3.37714E-08
 -1       253-1.77391E+06-1.88506E+04-4.40956E+04 3.08649E+05 9.93168E-10 4.59013E-08
 -1       254-1.63755E+06 7.21942E+04 1.37501E+04-6.15114E+05 3.01876E-09 2.15949E-08
 -1       255-1.76011E+06-1.87949E+04-2.06914E+04 3.11393E+05-1.00044E-08 1.48139E-07
 -1       256-1.09291E+06 5.90452E+04 1.24438E+05-4.52216E+05-6.21703E-08 3.07343E-07
 -1       257-2.26480E+06-5.00359E+04-1.25163E+05 1.40839E+05 3.69982E-09 7.51506E-08
 -1       258-5.47064E+05 4.50014E+04 2.27702E+05 9.34032E+03-2.06637E-09-1.61325E-07
 -1       259-2.25194E+06-4.91510E+04-1.20492E+05-1.47042E+05 4.09491E-08-6.83464E-08
 -1       260-1.12029E+06 6.03449E+04 1.24195E+05 4.64617E+05 4.69299E-09-7.19720E-08
 -1       261-1.74849E+06-1.85854E+04-8.46663E+03-3.11636E+05-7.69560E-08-3.38364E-08
 -1       262-1.62896E+06 8.16606E+04 3.72771E+04 6.16474E+05 6.04870E-08 1.16084E-07
 -1       263-1.79394E+06-2.86196E+04-1.00032E+04-3.03521E+05-2.58106E-08 1.32879E-07
 -1       264-1.00487E+06 1.19425E+05 1.82572E+05 4.30926E+05-1.08706E-07 1.87193E-07
 -1       265-2.31308E+06-1.05243E+05-9.22645E+04-1.21037E+05-4.15021E-08 1.12203E-07
 -1       266-2.27877E+04-1.06558E+04 5.34654E+04-3.94191E+01 1.01863E-10 1.81858E-07
 -1       267 2.64172E+04 1.24192E+04 3.77891E+04 4.54826E+01 3.63798E-12-2.24484E-07
 -1       268-3.54251E+03-1.75892E+03 1.40460E+04-5.79523E+00 2.94676E-10-8.28901E-08
 -1       269 4.18265E+03 2.10503E+03 9.12971E+03 6.75062E+00-7.83302E-11 1.35161E-07
 -1       270-6.27822E+02-3.45874E+02 4.40704E+03-9.16105E-01 1.21418E-10 1.58334E-07
 -1       271-2.05174E+06-2.46687E+05-1.52384E+05-7.84896E+05-2.92493E-09 1.11031E-07
 -1       272-2.16179E+06-3.03523E+05-9.81086E+04-7.22012E+05-4.87271E-08-9.96006E-08
 -1       273-2.07917E+06-2.86052E+05-3.59559E+04-7.79533E+05-1.14505E-09 1.62019E-07
 -1       274-2.12936E+06-2.55443E+05-2.01790E+04-7.30357E+05-8.78558E-08 7.25668E-08
 -1       275-2.08321E+06-2.90032E+05-8.38097E+03-7.78216E+05 9.79207E-09 8.76580E-08
 -1       276-2.12309E+06-2.51858E+05-4.39130E+03-7.33048E+05 7.15227E-09 5.11482E-08
 -1       277-2.08489E+06-2.89430E+05-2.22042E+03-7.76695E+05 2.01890E-08-1.55918E-07
 -1       278-2.11899E+06-2.54421E+05-1.36397E+03-7.36217E+05 1.17871E-08-1.89557E-07
 -1       279-2.08665E+06-2.87832E+05-1.59490E+03-7.74603E+05-2.71102E-08-1.47835E-07
 -1       280-2.11450E+06-2.58812E+05-2.32785E+03-7.40369E+05 2.74349E-08 1.41752E-07
 -1       281-2.08865E+06-2.85517E+05-4.67117E+03-7.72023E+05 2.28847E-08 2.24613E-07
 -1       282-2.11105E+06-2.66629E+05-1.03224E+04-7.45151E+05-1.09021E-08 2.13462E-07
 -1       283-2.08946E+06-2.80710E+05-1.89916E+04-7.69251E+05-7.18501E-09-1.92115E-07
 -1       284-2.12126E+06-2.97511E+05-5.05869E+04-7.47432E+05-1.83036E-08 1.15326E-07
 -1       285-2.07829E+06-2.57511E+05-7.93714E+04-7.68476E+05-1.21945E-08 1.53730E-07
 -1       301 1.30141E+04-4.97632E+05 1.73749E+05-8.63596E+05 1.60071E-09 7.66013E-08
 -1       302 1.42533E+04-4.53147E+05 1.05707E+05-1.26237E+06-1.96451E-09-1.33350E-08
 -1       303-6.80877E+03-4.83661E+05 6.42807E+04-8.61440E+05 7.56700E-10 1.40721E-07
 -1       304 1.36523E+03-4.56916E+05 7.25907E+04-1.26160E+06-1.52795E-10 2.78662E-07
 -1       305-2.99025E+03-4.81290E+05 9.96086E+04-8.64141E+05-3.23780E-10 4.45143E-08
 -1       306-2.56807E+07-5.17943E+06-7.03794E+06-1.27220E+06-7.84639E-08-1.68831E-07
 -1       307 2.08626E+07 1.59321E+06 4.52353E+06-1.20485E+07-7.44709E-07-1.94254E-07
 -1       308-7.89510E+06-6.23153E+05-5.56770E+05 4.28134E+06-2.66213E-07 1.51289E-07
 -1       309-3.57573E+06 5.59903E+06 1.65516E+06-1.78926E+07 3.89584E-07 3.42668E-07
 -1       310-1.06951E+07-1.04640E+06-1.28011E+06 4.14138E+06-8.27713E-08-2.11483E-07
 -1       311 2.73277E+07-3.15010E+05 5.48528E+06-8.55324E+06 4.59113E-07 5.23141E-08
 -1       312-2.64887E+07-5.19175E+06-6.59298E+06-3.63006E+06-9.62755E-08 2.21218E-07
 -1       313 3.69209E+07 9.58152E+06 8.50242E+06 1.69526E+07-2.94327E-07 1.59620E-07
 -1       314-1.64433E+07-1.33303E+07-6.07567E+06-1.06300E+07 4.13274E-07-2.10886E-07
 -1       315-7.38044E+05 2.25074E+07 4.67842E+06 1.02777E+07-2.96408E-07-6.67642E-08
 -1       316-2.61862E+04-8.78638E+06-5.15068E+05-3.70934E+06-9.66029E-07-2.54397E-07
 -1       317-1.68264E+07 1.87526E+07 1.62509E+06-5.15998E+06 5.01808E-07-7.82988E-07
 -1       318-1.36888E+06-9.98193E+06-1.33723E+06-4.48163E+06-8.78907E-07-2.59315E-08
 -1       319 4.06072E+06 2.35910E+07 5.24686E+06 1.27294E+07-6.48215E-08 1.94297E-07
 -1       320-1.91327E+07-1.36762E+07-7.71921E+06-1.05256E+07 1.81724E-07-6.09434E-08
 -1       336-3.07763E+02-1.75848E+06-1.36623E+04 8.49559E+03-2.33640E-08-5.60249E-10
 -1       337-5.24206E+03-1.75890E+06-1.77449E+04-2.05473E+04-4.48445E-08 1.26456E-08
 -1       338 5.53367E+02-1.75804E+06-2.74246E+04 1.18605E+04-3.20679E-08 8.14907E-09
 -1       339-2.91225E+04-1.77528E+06-6.21148E+04-2.71128E+04-5.80330E-08 3.99668E-08
 -1       340 1.94407E+04-1.74399E+06-9.75994E+04 1.49490E+04-3.82061E-08 4.64861E-08
 -1       406-2.24593E+01 3.68849E+05 6.12565E+02 2.29063E+00-1.60371E-09 1.34496E-08
 -1       407 1.70353E+02 3.68972E+05 1.30647E+03 1.92834E+01-3.10266E-10 1.28484E-08
 -1       408 6.26896E+02 3.68754E+05 2.60653E+03-2.19827E+01-1.77295E-09 7.29779E-09
 -1       409 2.78048E+03 3.69804E+05 5.87234E+03 2.30900E+02-3.59137E-10-1.19508E-08
 -1       410 8.06784E+03 3.68007E+05 1.19862E+04-2.21772E+02-2.52840E-09-1.37225E-08
 -1       521-2.73151E+07-6.36282E+06-8.24363E+06-9.97148E+05-1.19326E-07-6.81030E-09
 -1       522 2.16495E+07 2.14523E+06 4.60933E+06-1.50111E+07-4.62984E-07-4.28874E-07
 -1       523-8.71333E+06-8.90386E+05-5.80851E+05 4.72776E+06-1.82190E-08-3.14976E-07
 -1       524-6.55974E+06 7.89235E+06 1.80266E+06-2.08044E+07 6.16757E-07-3.60800E-07
 -1       525-1.17115E+07-1.49263E+06-1.41362E+06 4.57551E+06 4.76604E-07-1.97717E-07
 -1       526 2.96854E+07-3.44599E+05 5.79403E+06-1.09537E+07-7.24685E-09-4.18804E-08
 -1       527-2.83109E+07-6.54301E+06-7.60697E+06-3.55111E+06 5.92554E-08 1.76224E-08
 -1       528 4.05041E+07 1.04971E+07 8.90828E+06 1.92363E+07-1.69792E-07-3.14612E-08
 -1       529-1.75266E+07-1.52077E+07-6.98521E+06-1.09002E+07 3.36673E-07-1.69035E-07
 -1       530-2.87704E+06 2.63729E+07 4.96577E+06 1.04107E+07-1.61337E-07 6.94010E-07
 -1       531-1.29987E+05-9.94230E+06-5.24796E+05-3.91845E+06-6.24103E-07 3.74770E-07
 -1       532-1.98715E+07 2.10801E+07 1.79509E+06-8.30421E+06 5.19387E-07-5.50866E-07
 -1       533-1.46899E+06-1.11499E+07-1.41446E+06-4.61583E+06-1.32859E-07-8.65781E-07
 -1       534 2.16407E+06 2.75534E+07 5.49264E+06 1.32609E+07-1.19617E-07 6.68806E-07
 -1       535-2.03193E+07-1.56686E+07-8.83644E+06-1.07789E+07 7.77654E-08 4.17669E-07
 -1       536-6.59918E+05-4.50042E+04-2.87614E+04-4.83533E+04-4.55066E-09 5.05606E-08
 -1       537-9.99673E+04 4.39972E+04 8.01021E+04 1.11661E+05-1.06970E-07 8.59400E-08
 -1       538-3.92372E+05 2.08667E+03 6.21110E+03-6.60032E+04 2.48599E-08 9.97638E-08
 -1       539-2.85480E+05 3.09004E+03 2.30068E+04 1.26134E+05 1.64363E-07 1.10825E-07
 -1       540-4.78997E+05-2.93560E+02-1.71834E+04-6.32435E+04-7.78164E-09 9.10322E-08
 -1       541 6.88446E+04 1.44791E+04 9.10240E+04 8.74907E+04-1.49505E-08 5.30008E-08
 -1       542-7.37164E+05-1.72372E+04-7.17002E+04-2.66786E+04 7.85826E-08 4.16609E-08
 -1       543 2.89357E+05 2.33462E+04 1.34647E+05-1.23169E+04 1.97408E-08-1.43914E-08
 -1       544-6.93609E+05-1.40382E+04-6.36941E+04 3.60383E+04-1.11154E-08-4.09273E-08
 -1       545-3.29741E+04 7.84645E+03 6.74315E+04-1.02501E+05-1.13754E-08-9.21675E-08
 -1       546-4.23464E+05 5.40178E+03-1.05838E+04 6.32398E+04 1.21183E-08-8.44284E-08
 -1       547-3.01616E+05-4.68269E+03 7.81591E+03-1.28845E+05-8.13726E-08-9.68738E-08
 -1       548-4.32163E+05 4.48909E+03-2.20004E+04 6.29212E+04-9.14260E-08-8.97962E-08
 -1       549-1.50645E+04 1.05524E+04 4.74031E+04-1.00080E+05-6.88370E-08-5.94200E-08
 -1       550-7.02339E+05-1.62299E+04-1.16319E+05 3.39124E+04-2.93312E-10-3.06427E-08
 -1       551 3.73321E+04-7.69134E+05-6.28804E+03-1.20996E+06-9.35106E-08-1.60362E-08
 -1       552 8.46328E+04-8.07942E+05 1.53699E+04-1.72546E+06-6.74190E-08 2.08165E-08
 -1       553 6.44872E+04-8.06274E+05 3.57181E+04-1.20383E+06-1.11089E-07 2.20462E-08
 -1       554 1.21233E+05-8.20306E+05 8.54192E+04-1.72742E+06-6.62112E-08 1.09812E-08
 -1       555 9.41247E+04-8.29027E+05 1.54675E+05-1.20387E+06-1.12726E-07-1.40135E-08
 -1       556 2.03341E+05-3.52834E+05 3.88901E+04-3.85273E+05-1.89466E-08-8.20728E-09
 -1       557 3.27007E+05-4.51636E+05 2.25572E+04-4.96339E+05-4.32192E-09-1.18198E-08
 -1       558 1.88441E+05-3.49357E+05 5.71685E+03-3.86814E+05-1.68511E-08 1.09503E-08
 -1       559 3.03680E+05-4.54030E+05 3.92592E+03-5.14117E+05 1.85682E-08 4.40923E-09
 -1       560 1.75361E+05-3.41127E+05-4.04919E+02-3.96153E+05 1.92085E-08 2.00998E-08
 -1       561 2.87063E+05-4.47508E+05 5.39452E+02-5.25360E+05-1.04774E-09 1.03228E-08
 -1       562 1.65025E+05-3.34677E+05-8.97132E+02-4.03619E+05-3.15777E-09 5.56975E-09
 -1       563 2.74806E+05-4.42164E+05 8.14892E+01-5.33344E+05-2.96859E-09 3.34694E-10
 -1       564 1.57712E+05-3.30112E+05-4.31835E+02-4.08796E+05 1.14960E-08-4.50200E-10
 -1       565 2.66788E+05-4.38674E+05 5.59302E+01-5.38460E+05 9.36416E-09 1.50239E-08
 -1       566 1.53529E+05-3.27463E+05-1.92402E+02-4.11723E+05-1.10595E-09-9.96442E-09
 -1       567 2.63043E+05-4.37043E+05-3.04039E+02-5.40718E+05 2.42908E-08-7.99628E-09
 -1       568 1.52557E+05-3.26872E+05-9.75937E+02-4.12499E+05 3.50610E-10-1.04301E-08
 -1       569 2.62272E+05-4.37002E+05-2.46633E+03-5.39172E+05-1.48975E-09 3.50701E-09
 -1       570 1.55819E+05-3.29901E+05-5.42208E+03-4.11576E+05 7.93807E-09-1.11322E-09
 -1       571 2.77790E+05 1.00626E+04 1.44563E+04-8.78964E+04-8.90213E-09 2.10230E-08
 -1       572 2.79895E+05 3.73971E+03 7.08440E+03-9.64295E+04-1.79098E-08 1.46410E-08
 -1       573 2.78628E+05 1.12818E+03 3.14776E+03-8.77285E+04-9.72886E-09 5.98448E-10
 -1       574 2.78843E+05 6.19653E+02 1.57835E+03-9.66392E+04 2.36469E-11-1.88948E-08
 -1       575 2.78719E+05 3.58242E+02 7.44837E+02-8.77057E+04-1.12023E-08 8.82665E-09
 -1       576 2.78710E+05 3.62160E+02 3.81121E+02-9.66671E+04-2.36947E-08 2.24109E-08
 -1       577 2.78754E+05 3.04563E+02 1.90133E+02-8.77026E+04-1.17698E-08 5.44514E-09
 -1       578 2.78733E+05 3.29407E+02 1.09389E+02-9.66710E+04-2.22281E-09 5.66070E-09
 -1       579 2.78814E+05 2.74623E+02 7.48809E+01-8.77023E+04 4.83305E-09 3.52975E-09
 -1       580 2.78818E+05 2.87229E+02 8.59683E+01-9.66664E+04-1.01945E-08 9.71431E-09
 -1       581 2.78910E+05 2.26428E+02 1.29879E+02-8.77077E+04 2.78487E-09 2.08156E-08
 -1       582 2.78968E+05 2.60238E+02 2.62964E+02-9.66095E+04 2.22644E-09 1.90221E-08
 -1       583 2.79027E+05 2.75362E+02 5.05775E+02-8.77597E+04-8.52378E-09 7.97286E-09
 -1       584 2.79302E+05 6.86062E+02 1.14319E+03-9.61719E+04-1.69566E-08 4.11364E-09
 -1       585 2.79035E+05 1.65679E+03 2.31656E+03-8.81448E+04-1.02373E-08-4.32919E-10
 -1       586-3.29631E+03 1.08229E+05-3.03704E+03-2.41248E+05-3.76258E-09 3.12275E-09
 -1       587-1.18873E+03 1.07943E+05 5.97288E+02-2.65517E+05-2.91038E-09 1.20172E-08
 -1       588 4.92597E+02 1.07800E+05 4.45160E+03-2.41119E+05-2.25009E-09-1.49994E-08
 -1       589 4.95694E+03 1.10127E+05 1.16701E+04-2.65281E+05-5.75346E-09-6.41376E-08
 -1       590 1.58705E+04 1.06533E+05 2.45292E+04-2.41533E+05-2.73758E-09-1.25910E-08
 -1       591-6.91501E+04-1.51641E+04-2.11880E+04-2.99862E+04-8.87439E-09-8.51560E-09
 -1       592-7.28505E+04-1.86552E+04-1.14771E+04-3.35611E+04-6.01256E-09-2.08869E-08
 -1       593-7.12703E+04-1.36255E+04-4.77738E+03-3.15387E+04 5.79985E-09-6.64204E-09
 -1       594-6.99231E+04-1.55483E+04-2.38262E+03-3.36745E+04 4.77829E-09 1.17402E-08
 -1       595-7.14320E+04-1.36203E+04-1.09395E+03-3.16093E+04-1.22433E-09 1.65011E-08
 -1       596-6.97228E+04-1.54062E+04-5.56074E+02-3.36509E+04 5.17743E-09 3.38888E-08
 -1       597-7.14523E+04-1.36347E+04-3.02709E+02-3.16119E+04-1.93495E-10 2.64396E-09
 -1       598-6.97030E+04-1.54006E+04-2.43181E+02-3.36443E+04-6.28353E-09 9.42998E-09
 -1       599-7.14511E+04-1.36352E+04-3.10432E+02-3.16116E+04-5.10863E-09-1.80955E-08
 -1       600-6.97229E+04-1.54069E+04-5.76521E+02-3.36490E+04-6.20952E-09 4.71454E-09
 -1       601-7.14276E+04-1.36214E+04-1.13726E+03-3.16082E+04-6.27006E-09-9.21091E-10
 -1       602-6.99310E+04-1.55536E+04-2.47850E+03-3.36699E+04-1.21011E-08-3.28214E-10
 -1       603-7.12568E+04-1.36296E+04-4.97040E+03-3.15355E+04-4.22347E-09 9.66384E-09
 -1       604-7.29932E+04-1.87676E+04-1.19400E+04-3.35286E+04-2.85945E-09-3.16154E-08
 -1       605-6.90320E+04-1.52471E+04-2.20428E+04-2.99386E+04 3.82647E-09 1.66983E-09
 -1       606 2.68867E+04-1.36370E+04-2.44558E+04 2.45614E+04 4.28463E-09 5.82872E-09
 -1       607 2.27071E+04-4.44885E+03-1.21787E+04 2.75956E+04-3.71074E-10-1.08209E-08
 -1       608 2.50874E+04-7.97942E+02-5.45227E+03 2.43837E+04-4.55111E-09 3.13275E-09
 -1       609 2.46291E+04-2.67360E+02-2.75426E+03 2.78140E+04-4.80759E-09 1.04228E-09
 -1       610 2.48818E+04-3.18000E+01-1.31429E+03 2.43628E+04 5.02041E-09 3.64298E-09
 -1       611 2.48081E+04-2.99132E+01-6.62644E+02 2.78377E+04 1.00990E-08 7.92920E-09
 -1       612 2.48350E+04-1.75312E+01-3.15218E+02 2.43607E+04-5.76983E-09 2.11489E-08
 -1       613 2.48171E+04-2.48901E+01-1.41400E+02 2.78404E+04-1.90930E-08-1.00972E-08
 -1       614 2.48123E+04-2.26499E+01-3.36211E+01 2.43600E+04 4.24734E-10-7.02585E-10
 -1       615 2.48105E+04-2.25921E+01 5.82302E+01 2.78409E+04 1.89730E-08 8.52106E-09
 -1       616 2.47947E+04-1.89503E+01 1.75550E+02 2.43603E+04 9.09540E-09-1.25819E-08
 -1       617 2.48304E+04 1.55353E+01 4.00940E+02 2.78404E+04-1.52977E-09-9.54219E-09
 -1       618 2.47590E+04 9.71841E+01 8.08283E+02 2.43605E+04-1.04137E-10 2.63412E-09
 -1       619 2.51150E+04 6.40951E+02 1.81517E+03 2.78397E+04-4.64786E-09 2.17779E-09
 -1       620 2.44901E+04 2.01424E+03 3.64845E+03 2.43614E+04 1.64573E-09 3.79259E-10
 -1       621 4.53242E+02 2.87416E+05 3.59511E+03 3.58315E+04 7.54881E-10 5.60522E-09
 -1       622 5.91059E+02 2.88258E+05 3.21585E+03 5.20373E+04 1.02636E-09 1.31399E-08
 -1       623 1.07659E+02 2.87603E+05 3.89924E+03 3.56682E+04 1.16324E-09 2.70484E-08
 -1       624 1.96626E+03 2.89434E+05 7.58647E+03 5.21989E+04 9.18533E-10 2.08568E-08
 -1       625 1.93393E+03 2.86101E+05 1.32707E+04 3.56652E+04 1.18280E-09-2.75077E-09
 -1       626 2.49757E+05 5.99420E+04 5.00744E+03 1.22768E+05 3.33785E-10-1.50467E-08
 -1       627 2.47425E+05 6.13742E+04 2.41304E+03 1.27019E+05-7.51697E-10-9.84153E-09
 -1       628 2.49886E+05 5.76451E+04 1.02038E+03 1.23611E+05-3.25781E-09 1.70689E-08
 -1       629 2.46795E+05 6.07168E+04 4.99441E+02 1.27260E+05-4.47289E-09-9.73117E-10
 -1       630 2.49900E+05 5.75346E+04 2.31585E+02 1.23646E+05 4.67298E-09 3.89443E-09
 -1       631 2.46727E+05 6.06927E+04 1.24513E+02 1.27262E+05 6.81712E-09-7.17102E-09
 -1       632 2.49895E+05 5.75391E+04 8.17441E+01 1.23641E+05 2.12481E-08-3.16049E-11
 -1       633 2.46718E+05 6.06951E+04 9.07567E+01 1.27258E+05 2.45900E-08-4.19914E-09
 -1       634 2.49890E+05 5.75370E+04 1.46397E+02 1.23640E+05 6.21264E-09-4.59795E-09
 -1       635 2.46730E+05 6.06939E+04 2.96074E+02 1.27262E+05-1.04071E-08-1.67311E-08
 -1       636 2.49880E+05 5.75319E+04 5.97839E+02 1.23639E+05-2.12276E-09-4.74347E-09
 -1       637 2.46859E+05 6.07871E+04 1.31436E+03 1.27261E+05-3.75007E-09-1.81808E-09
 -1       638 2.49833E+05 5.78225E+04 2.70056E+03 1.23507E+05 2.95859E-09-4.38240E-09
 -1       639 2.48277E+05 6.27600E+04 6.38951E+03 1.26843E+05 6.51949E-09-5.47902E-09
 -1       640 2.49638E+05 6.37124E+04 1.32594E+04 1.21023E+05 1.37347E-08 3.32238E-09
 -1       656 6.40599E+04-1.63758E+06-1.54638E+05-2.09707E+03-1.05501E-09-9.75433E-11
 -1       657-8.47371E+04-1.70745E+06-1.28089E+05 5.71293E+03-7.20320E-10-1.25632E-08
 -1       658 2.04122E+04-1.65743E+06-7.88635E+04-4.06003E+03 1.77806E-10 7.43618E-09
 -1       659-9.15660E+04-1.71070E+06-1.37062E+05 7.30341E+03-1.09776E-09 2.73406E-09
 -1       660 7.08735E+04-1.63435E+06-1.70066E+05-3.68754E+03-1.17871E-09 1.09694E-08
 -1       661 1.60385E+05 1.68831E+04 1.66867E+04 6.26970E+04-3.27873E-09 3.68891E-09
 -1       662 1.69670E+05 2.93874E+04 1.12453E+04 5.91233E+04 2.50111E-10-2.18624E-08
 -1       663 1.63662E+05 2.22371E+04 3.93309E+03 6.17467E+04 1.75078E-11-1.58186E-08
 -1       664 1.65872E+05 2.31256E+04 2.35263E+03 6.02836E+04-4.19857E-09-2.77367E-10
 -1       665 1.64158E+05 2.29690E+04 9.28198E+02 6.16025E+04-1.28080E-09 5.19353E-09
 -1       666 1.65285E+05 2.22881E+04 5.43227E+02 6.04714E+04 6.42476E-09-9.97438E-10
 -1       667 1.64245E+05 2.30527E+04 2.88777E+02 6.15668E+04 5.38108E-10-8.10708E-10
 -1       668 1.65190E+05 2.22277E+04 2.94615E+02 6.05236E+04 2.29136E-10 4.83990E-09
 -1       669 1.64253E+05 2.30277E+04 3.99245E+02 6.15507E+04-2.42269E-09 2.96017E-08
 -1       670 1.65287E+05 2.24446E+04 8.69681E+02 6.05267E+04-7.13757E-09-6.07491E-09
 -1       671 1.64148E+05 2.28402E+04 1.54427E+03 6.15617E+04-7.45324E-10-1.14579E-08
 -1       672 1.66187E+05 2.39477E+04 3.95112E+03 6.03095E+04 6.61524E-09 3.59501E-09
 -1       673 1.63358E+05 2.15626E+04 6.62141E+03 6.17533E+04 4.40070E-09 6.77846E-09
 -1       674 1.72488E+05 3.45864E+04 1.89359E+04 5.84588E+04-3.49019E-10-7.12316E-09
 -1       675 1.57887E+05 1.24994E+04 2.81075E+04 6.33006E+04-4.10910E-09 3.06500E-09
 -1       676 2.31779E+01-2.87707E+05-1.07275E+03-1.04933E+02 5.17133E-10-7.54667E-11
 -1       677-2.84202E+02-2.87966E+05-1.96331E+03 2.09704E+02 6.86757E-09-1.91489E-08
 -1       678 1.90273E+02-2.87523E+05-3.47064E+03-1.04702E+02 2.92630E-10-1.45643E-09
 -1       679-3.47109E+03-2.90062E+05-8.24476E+03 2.08809E+02 5.22982E-09 7.11809E-09
 -1       680 2.07212E+03-2.85613E+05-1.32878E+04-1.02891E+02 1.50703E-09 6.08594E-09
 -1       771-2.99237E+06-7.06352E+05-1.44445E+05-1.41457E+06-2.90020E-08-2.68046E-08
 -1       772-2.92209E+06-7.88447E+05-7.46150E+04-1.50928E+06-2.14641E-08 8.93124E-09
 -1       773-3.01986E+06-6.84832E+05-3.77163E+04-1.42659E+06-1.42318E-08 1.02882E-08
 -1       774-2.91288E+06-7.72601E+05-1.68936E+04-1.53149E+06 2.40543E-08-2.08820E-09
 -1       775-3.03387E+06-6.74967E+05-1.24213E+04-1.43228E+06-5.82077E-10 9.92441E-09
 -1       776-2.92290E+06-7.70267E+05-4.67962E+03-1.54805E+06-2.05328E-08 2.51748E-09
 -1       777-3.04593E+06-6.66232E+05-5.41027E+03-1.43730E+06-4.48199E-09 8.78208E-09
 -1       778-2.93341E+06-7.68129E+05-1.54105E+03-1.56224E+06 5.18048E-09 5.82440E-09
 -1       779-3.05625E+06-6.58633E+05-2.67918E+03-1.44159E+06-6.78119E-09-6.22822E-09
 -1       780-2.94265E+06-7.66086E+05-4.46256E+02-1.57380E+06-5.99539E-09-4.07454E-10
 -1       781-3.06443E+06-6.52526E+05-1.03317E+03-1.44494E+06-2.82016E-08-8.62201E-10
 -1       782-2.94976E+06-7.64341E+05 3.78234E+02-1.58232E+06-2.73503E-08-7.73571E-09
 -1       783-3.07018E+06-6.48296E+05 5.93065E+02-1.44730E+06-5.00586E-09-1.59362E-08
 -1       784-2.95367E+06-7.62535E+05 2.43545E+03-1.58757E+06-2.61098E-08-1.66801E-08
 -1       785-3.07357E+06-6.45778E+05 4.30082E+03-1.44880E+06-3.16832E-08 5.90808E-09
 -1       786 1.24816E+05-9.64577E+03 2.23160E+04-2.81923E+02 2.24534E-09 9.98716E-09
 -1       787 1.34494E+05 1.11674E+04 1.57877E+04-1.01828E+02 3.34626E-09 6.02154E-09
 -1       788 1.28548E+05-1.51165E+03 5.77381E+03-2.48663E+02 4.60835E-09 1.55399E-08
 -1       789 1.30147E+05 1.74945E+03 3.62482E+03-1.53281E+02-1.12203E-10 1.68293E-08
 -1       790 1.29164E+05-2.35502E+02 1.46816E+03-2.30484E+02-2.89644E-09 1.24004E-08
 -1       791 1.29427E+05 2.72357E+02 8.49015E+02-1.84488E+02-6.89746E-09 1.57328E-08
 -1       792 1.29268E+05-3.56638E+01 3.61854E+02-2.17459E+02-3.65255E-09 1.82041E-09
 -1       793 1.29303E+05 3.84549E+01 1.84947E+02-2.09013E+02 1.17226E-10-3.22356E-08
 -1       794 1.29288E+05-1.74792E+00 5.72163E+01-2.05958E+02 3.85643E-09 2.11450E-09
 -1       795 1.29270E+05-1.94234E+01-3.25340E+01-2.33029E+02-4.22652E-09 7.24311E-09
 -1       796 1.29301E+05 2.21826E+01-1.18469E+02-1.93443E+02 3.13042E-09-7.87994E-09
 -1       797 1.29197E+05-1.67038E+02-3.36995E+02-2.61771E+02 3.24492E-09-1.14660E-08
 -1       798 1.29361E+05 1.45755E+02-5.50539E+02-1.77215E+02 1.99401E-09 1.75716E-08
 -1       799 1.28778E+05-1.07474E+03-1.51744E+03-3.01755E+02 5.27929E-09 2.04803E-08
 -1       800 1.29720E+05 9.29139E+02-2.14829E+03-1.53460E+02 4.75746E-10 1.68025E-08
 -1       801-1.06179E+05-8.78744E+06-1.19006E+06 1.12821E+06 8.46339E-08-4.57148E-08
 -1       802 5.52026E+05 4.05978E+06 1.70657E+06-1.36220E+06 2.32219E-07-3.08528E-08
 -1       803-4.26698E+05-1.21136E+07-1.52299E+06 7.18376E+05 7.15117E-08 1.45956E-08
 -1       804 2.14575E+05 1.12779E+06 1.20283E+06 5.82483E+05-1.04028E-07-9.59101E-08
 -1       805 1.64491E+05-5.87062E+06-2.32508E+05-8.11860E+05-4.40486E-08-5.41586E-08
 -1       806-2.97150E+05-5.72426E+04-2.19088E+04-1.17466E+05-3.12593E-09 1.65383E-08
 -1       807-2.98915E+05-5.36251E+04-1.07635E+04-1.22733E+05 1.01973E-08 7.54696E-09
 -1       808-2.97748E+05-4.93506E+04-4.56626E+03-1.21204E+05-4.82578E-09-7.69808E-09
 -1       809-2.96654E+05-5.05991E+04-2.23280E+03-1.22996E+05-1.10131E-08 1.03350E-08
 -1       810-2.97839E+05-4.90758E+04-1.02339E+03-1.21369E+05 2.19507E-09 9.17180E-09
 -1       811-2.96479E+05-5.04773E+04-5.08931E+02-1.22962E+05 2.78305E-09 1.61435E-08
 -1       812-2.97853E+05-4.90992E+04-2.57385E+02-1.21369E+05-7.03403E-09 1.51840E-08
 -1       813-2.96456E+05-5.04792E+04-1.67302E+02-1.22944E+05-1.89584E-09 1.25383E-08
 -1       814-2.97847E+05-4.91082E+04-1.65787E+02-1.21365E+05-4.58749E-09 1.21781E-09
 -1       815-2.96460E+05-5.04812E+04-2.67204E+02-1.22938E+05 4.54929E-09 1.21956E-08
 -1       816-2.97827E+05-4.91070E+04-5.06401E+02-1.21362E+05 5.90717E-09-1.69848E-09
 -1       817-2.96546E+05-5.05294E+04-1.08696E+03-1.22927E+05-4.42969E-09 8.95102E-09
 -1       818-2.97762E+05-4.92599E+04-2.21693E+03-1.21290E+05-6.34282E-09-9.04856E-09
 -1       819-2.97760E+05-5.18692E+04-5.21652E+03-1.22641E+05-1.04678E-08 9.68953E-09
 -1       820-2.97346E+05-5.31988E+04-1.06174E+04-1.19605E+05-5.47334E-09 1.88652E-09
 -1       821-3.66754E+05 2.02118E+04-4.68529E+04 1.50853E+03 1.04190E-08-1.52450E-08
 -1       822-3.86612E+05-2.34036E+04-3.30772E+04-2.92344E+03 2.28266E-09-8.73115E-09
 -1       823-3.74352E+05 3.17552E+03-1.21206E+04 2.19789E+03-8.60853E-09 1.78361E-08
 -1       824-3.77600E+05-3.66816E+03-7.61000E+03-3.25749E+03 1.19864E-09 8.24127E-09
 -1       825-3.75765E+05 4.93555E+02-3.15716E+03 1.84262E+03 1.37151E-08 1.92357E-08
 -1       826-3.75726E+05-5.68781E+02-1.80260E+03-1.69724E+03 1.62074E-08-8.20069E-09
 -1       827-3.76214E+05 7.04378E+01-1.05200E+03 6.37585E+02 5.73382E-09-2.86538E-08
 -1       828-3.75365E+05-1.59718E+02-7.48786E+02 9.15871E+02 2.32170E-10-1.24750E-08
 -1       829-3.76122E+05 8.16050E+01-1.05544E+03-7.70523E+02-6.65068E-11-9.92262E-09
 -1       830-3.75934E+05-6.07077E+02-1.90923E+03 3.17535E+03 1.22697E-09 1.76930E-08
 -1       831-3.75655E+05 5.25001E+02-3.25276E+03-1.62192E+03-4.17509E-09-7.48344E-09
 -1       832-3.77687E+05-3.82087E+03-7.90825E+03 3.86279E+03-2.04791E-09 4.53053E-09
 -1       833-3.74375E+05 3.29726E+03-1.26041E+04-1.45798E+03-2.00481E-09-5.14001E-09
 -1       834-3.86827E+05-2.43050E+04-3.43150E+04 2.58481E+03-1.92180E-09 9.72250E-10
 -1       835-3.66510E+05 2.09866E+04-4.86846E+04-3.43905E+02 5.29441E-09 8.02902E-09
 -1       836-1.33843E+03 3.53618E+05 2.18183E+04-1.62424E+04-5.69435E-09 1.72986E-08
 -1       837 4.66758E+03 3.60444E+05 1.84952E+04-3.30641E+04-6.29916E-09 1.07584E-08
 -1       838-5.26155E+02 3.55527E+05 1.88904E+04-1.61721E+04-4.87898E-09-3.55794E-09
 -1       839 1.19230E+04 3.65848E+05 3.57802E+04-3.31139E+04-5.02541E-09-1.88368E-08
 -1       840-3.67481E+03 3.48157E+05 5.70760E+04-1.61968E+04-4.80941E-09-1.01467E-08
 -1       856-5.99568E+04 8.06277E+03-2.12473E+04-4.03102E+02 3.10649E-09 1.52077E-08
 -1       857-6.87138E+04-9.47040E+03-1.46267E+04 5.55295E+03 2.98121E-09 7.74207E-09
 -1       858-6.34234E+04 1.13054E+03-5.51336E+03-4.28091E+02-4.49063E-10-3.44153E-09
 -1       859-6.47352E+04-1.32709E+03-3.32749E+03 5.59066E+03-2.89036E-09 1.39225E-08
 -1       860-6.39414E+04 1.58142E+02-1.39530E+03-4.40605E+02-1.12297E-09 7.33303E-09
 -1       861-6.41394E+04-1.86043E+02-7.69139E+02 5.60773E+03 2.15476E-09 1.18502E-08
 -1       862-6.40223E+04 2.13425E+01-3.22849E+02-4.45153E+02-3.20153E-09-9.13789E-09
 -1       863-6.40407E+04-1.99741E+01-1.24708E+02 5.61022E+03-1.56567E-09 7.46056E-09
 -1       864-6.40405E+04-4.17407E+00 3.14290E+01-4.43094E+02-5.79337E-09 6.87095E-11
 -1       865-6.39890E+04 5.47116E+01 2.20878E+02 5.59891E+03-2.30328E-09-8.60393E-09
 -1       866-6.40719E+04-5.34971E+01 4.53279E+02-4.33849E+02-1.32650E-09 2.32924E-09
 -1       867-6.37733E+04 4.42214E+02 1.12111E+03 5.57379E+03-3.31738E-10 1.08216E-08
 -1       868-6.42514E+04-3.85026E+02 1.86405E+03-4.17973E+02-1.42791E-09 1.84082E-08
 -1       869-6.24046E+04 3.20357E+03 4.96559E+03 5.53238E+03 1.02787E-09-8.96438E-09
 -1       870-6.54329E+04-2.74036E+03 7.20562E+03-3.92367E+02-3.27884E-09 1.44287E-08
 -1       871-5.35934E+03-1.94278E+04-1.86599E+04 1.24363E+05-3.81442E-09-2.77123E-09
 -1       872-1.99657E+03-2.37413E+04-7.79174E+03 1.61252E+05-7.43057E-09-1.27352E-08
 -1       873 3.13663E+02-2.16664E+04 6.19408E+02 1.24090E+05-4.01542E-09-8.34007E-10
 -1       874 3.09832E+03-1.93084E+04 9.49082E+03 1.61283E+05-8.96125E-09 2.28454E-08
 -1       875 6.55320E+03-2.39280E+04 2.13684E+04 1.24318E+05-3.70164E-09-9.79435E-09
 -1       876 2.84511E+05 4.79546E+04 1.47146E+04 1.14152E+05 6.72037E-09-1.50658E-08
 -1       877 2.85530E+05 5.10077E+04 7.85813E+03 1.18317E+05 5.44242E-09-5.06782E-09
 -1       878 2.85886E+05 4.63256E+04 3.29216E+03 1.15359E+05-6.25278E-09-1.26870E-08
 -1       879 2.83530E+05 4.90111E+04 1.64029E+03 1.18416E+05-7.42511E-09 5.68434E-09
 -1       880 2.85985E+05 4.63086E+04 7.63939E+02 1.15408E+05-1.13191E-08-1.07613E-08
 -1       881 2.83398E+05 4.89257E+04 4.07760E+02 1.18394E+05-5.15138E-09-1.12495E-08
 -1       882 2.85994E+05 4.63214E+04 2.60510E+02 1.15410E+05-5.68684E-09-2.69281E-10
 -1       883 2.83388E+05 4.89212E+04 2.79514E+02 1.18386E+05-7.97286E-09 1.24844E-08
 -1       884 2.85988E+05 4.63187E+04 4.44152E+02 1.15410E+05-2.49395E-09-1.49095E-09
 -1       885 2.83424E+05 4.89274E+04 8.92677E+02 1.18397E+05-4.93282E-09 1.45519E-09
 -1       886 2.85953E+05 4.62927E+04 1.79902E+03 1.15406E+05-6.33057E-09 2.35559E-09
 -1       887 2.83740E+05 4.91347E+04 3.92963E+03 1.18442E+05 9.53082E-09 3.51724E-09
 -1       888 2.85705E+05 4.63366E+04 7.91833E+03 1.15281E+05-1.88807E-09 2.91811E-09
 -1       889 2.88453E+05 5.40379E+04 1.89154E+04 1.18299E+05-9.74797E-09-1.63755E-08
 -1       890 2.82475E+05 5.01732E+04 3.54281E+04 1.12264E+05-1.00499E-10-1.45519E-09
 -1       891-9.49507E+01-1.61045E+05-2.09698E+03 2.63852E+04-2.04523E-09 2.08663E-08
 -1       892-2.22974E+02-1.61599E+05-2.20497E+03 4.07203E+04-5.67252E-09 2.03690E-08
 -1       893 3.19718E+01-1.61122E+05-3.05896E+03 2.63921E+04-2.44268E-09 1.22677E-08
 -1       894-1.56692E+03-1.62743E+05-6.30238E+03 4.05707E+04-5.20231E-09 2.50093E-08
 -1       895-1.05640E+03-1.59803E+05-1.10273E+04 2.65359E+04-2.64947E-09 1.09803E-08
 -1       956-3.63291E+05-5.21864E+03-1.29304E+04 2.88660E+04 3.30056E-09-2.42176E-09
 -1       957-3.65832E+05-1.82560E+03-6.63715E+03 3.47028E+04 9.43601E-10-6.64477E-09
 -1       958-3.64451E+05-2.13403E+02-2.99079E+03 2.87062E+04-8.32097E-09-2.23736E-10
 -1       959-3.64643E+05-1.09968E+02-1.52724E+03 3.48870E+04-9.82254E-09 3.20622E-08
 -1       960-3.64563E+05-2.60931E+01-7.44727E+02 2.86899E+04-1.47520E-09 1.22295E-08
 -1       961-3.64564E+05-4.07218E+01-3.94923E+02 3.49062E+04 9.00513E-09-1.23243E-08
 -1       962-3.64588E+05-2.79388E+01-2.26144E+02 2.86872E+04 2.28056E-09-2.46928E-10
 -1       963-3.64563E+05-3.71036E+01-1.81634E+02 3.49096E+04 5.65342E-09 6.24914E-09
 -1       964-3.64593E+05-2.48397E+01-2.20933E+02 2.86864E+04-2.98573E-09-6.55677E-09
 -1       965-3.64575E+05-3.41108E+01-3.82167E+02 3.49090E+04-6.95809E-09 7.07564E-09
 -1       966-3.64578E+05-1.68835E+01-7.18026E+02 2.86878E+04 2.75600E-09-6.59361E-09
 -1       967-3.64663E+05-9.45641E+01-1.47269E+03 3.48957E+04 1.22691E-09-1.49116E-08
 -1       968-3.64480E+05-1.91549E+02-2.88287E+03 2.86996E+04 1.70076E-09-8.90407E-09
 -1       969-3.65820E+05-1.74367E+03-6.40006E+03 3.47578E+04 4.92946E-09-1.24269E-08
 -1       970-3.63369E+05-5.01428E+03-1.24674E+04 2.88194E+04-1.21645E-09 5.69344E-09
 -1       971-3.34192E+05-1.68215E+03-9.11319E+03 1.48499E+04 4.27281E-09-1.24429E-08
 -1       972-3.36390E+05-1.23302E+03-4.96297E+03 2.05702E+04 3.02998E-09-1.09903E-08
 -1       973-3.35207E+05-5.22371E+01-2.22288E+03 1.47308E+04 2.12458E-09-1.20394E-09
 -1       974-3.35343E+05-6.76809E+01-1.15217E+03 2.07040E+04-3.99882E-09 1.98818E-08
 -1       975-3.35287E+05-8.54134E+00-5.76154E+02 1.47188E+04-2.71575E-09 5.86328E-09
 -1       976-3.35282E+05-1.90625E+01-3.32783E+02 2.07192E+04 2.66914E-09-7.08144E-09
 -1       977-3.35303E+05-7.94233E+00-2.42221E+02 1.47155E+04-1.93450E-09-1.72123E-08
 -1       978-3.35287E+05-1.30402E+01-2.84368E+02 2.07239E+04-3.97768E-09-2.10684E-09
 -1       979-3.35303E+05 2.73945E-01-4.57682E+02 1.47141E+04-2.57228E-09-7.90851E-09
 -1       980-3.35322E+05-9.99440E+00-8.84212E+02 2.07249E+04-2.64390E-09-1.73748E-08
 -1       981-3.35275E+05 2.24866E+01-1.71276E+03 1.47145E+04-1.32900E-10 2.38458E-09
 -1       982-3.35557E+05-1.36369E+02-3.54039E+03 2.07187E+04 6.27551E-10 4.66797E-09
 -1       983-3.35059E+05-8.69782E+01-6.87904E+03 1.47203E+04-1.05888E-09 2.45041E-09
 -1       984-3.38866E+05-3.72886E+03-1.54054E+04 2.06367E+04 4.36739E-09 6.77323E-09
 -1       985-3.31945E+05-5.12042E+03-2.82890E+04 1.47911E+04 2.27374E-12 1.25510E-09
 -3
    1PSTEP                        19          10           1          
  100CL  110 6.53320E-01         409                     0   10           1
 -4  DISP        4    1
 -5  D1          1    2    1    0
 -5  D2          1    2    2    0
 -5  D3          1    2    3    0
 -5  ALL         1    2    0    0    1ALL
 -1         1 2.38248E-03 0.00000E+00 0.00000E+00
 -1         2 1.43631E-03 1.24280E-26-2.64698E-23
 -1         3 3.28364E-04-2.40880E-28 0.00000E+00
 -1         5 1.71794E-04 8.02337E-27-2.48154E-24
 -1         8 2.36752E-03-4.76028E-07 0.00000E+00
 -1         9 2.34909E-03-9.02450E-05 0.00000E+00
 -1        10 2.97848E-04-3.47709E-06 6.61744E-24
 -1        12 1.73435E-04 7.89923E-07 1.13737E-24
 -1        15 2.34985E-03-5.15090E-07 0.00000E+00
 -1        16 2.38778E-03-9.16185E-05 0.00000E+00
 -1        17 2.03184E-04-7.85169E-06 0.00000E+00
 -1        18 1.76800E-04 3.15673E-05 0.00000E+00
 -1        19 1.78360E-04 1.57400E-06 0.00000E+00
 -1        20 1.78502E-04-7.61034E-06 0.00000E+00
 -1        21 1.77575E-04-2.05517E-05 3.30872E-24
 -1        24 3.00357E-05-1.18863E-05 0.00000E+00
 -1        25 1.86554E-04 3.17855E-05 0.00000E+00
 -1        26 1.87243E-04 2.18012E-06 0.00000E+00
 -1        27 1.85096E-04-1.10943E-05 0.00000E+00
 -1        28 1.84751E-04-2.11638E-05 0.00000E+00
 -1        32 0.00000E+00 0.00000E+00 0.00000E+00
 -1        33 1.95108E-04 2.91715E-06 0.00000E+00
 -1        34 1.93033E-04-1.11471E-05 0.00000E+00
 -1        35 1.91135E-04-2.15069E-05 0.00000E+00
 -1        51 2.38151E-03-9.33777E-08-6.61744E-24
 -1        52 2.37970E-03-1.70596E-07 0.00000E+00
 -1        53 2.37722E-03-2.45242E-07 0.00000E+00
 -1        54 2.37425E-03-3.19496E-07 0.00000E+00
 -1        55 2.37096E-03-3.95001E-07-1.03398E-24
 -1        56 2.37806E-03 1.20270E-06-5.29396E-23
 -1        57 2.37176E-03 6.90964E-06 5.29396E-23
 -1        58 2.36431E-03 1.56558E-05 0.00000E+00
 -1        59 2.35635E-03 2.56559E-05 0.00000E+00
 -1        60 2.34867E-03 3.49382E-05-1.05879E-22
 -1        61 2.34200E-03 4.15799E-05 0.00000E+00
 -1        62 2.33690E-03 4.40997E-05 0.00000E+00
 -1        63 2.33378E-03 4.13557E-05 0.00000E+00
 -1        64 2.33270E-03 3.30888E-05 1.05879E-22
 -1        65 2.33357E-03 1.95037E-05 0.00000E+00
 -1        66 2.33595E-03 1.70439E-06 1.05879E-22
 -1        67 2.33931E-03-1.88462E-05 0.00000E+00
 -1        68 2.34297E-03-4.02180E-05 1.05879E-22
 -1        69 2.34623E-03-6.04027E-05 0.00000E+00
 -1        70 2.34841E-03-7.76079E-05 0.00000E+00
 -1        86 1.49327E-03-3.30378E-06 5.29396E-23
 -1        87 1.66007E-03-1.85128E-05-1.32349E-23
 -1        88 1.88435E-03-4.41050E-05 2.64698E-23
 -1        89 2.11113E-03-7.02621E-05 1.32349E-23
 -1        90 2.28408E-03-8.64461E-05 0.00000E+00
 -1       121 3.27507E-04-5.63318E-07 1.32349E-23
 -1       122 3.24939E-04-1.12946E-06 0.00000E+00
 -1       123 3.20669E-04-1.70118E-06 0.00000E+00
 -1       124 3.14715E-04-2.28129E-06 0.00000E+00
 -1       125 3.07098E-04-2.87216E-06 0.00000E+00
 -1       191 1.71839E-04 1.31705E-07-8.27181E-25
 -1       192 1.71976E-04 2.63401E-07-8.27181E-25
 -1       193 1.72204E-04 3.95081E-07 3.30872E-24
 -1       194 1.72523E-04 5.26735E-07 1.03398E-25
 -1       195 1.72934E-04 6.58353E-07-4.13590E-25
 -1       251 2.36688E-03-7.14419E-06 1.32349E-23
 -1       252 2.36593E-03-3.29247E-05-6.61744E-24
 -1       253 2.36452E-03-7.33738E-05 0.00000E+00
 -1       254 2.36268E-03-1.23668E-04 0.00000E+00
 -1       255 2.36074E-03-1.76077E-04 0.00000E+00
 -1       256 2.35907E-03-2.22818E-04 6.61744E-24
 -1       257 2.35785E-03-2.57793E-04-1.32349E-23
 -1       258 2.35707E-03-2.75199E-04 6.61744E-24
 -1       259 2.35643E-03-2.74365E-04 0.00000E+00
 -1       260 2.35561E-03-2.55092E-04-6.61744E-24
 -1       261 2.35448E-03-2.22558E-04 0.00000E+00
 -1       262 2.35308E-03-1.82276E-04 0.00000E+00
 -1       263 2.35168E-03-1.42062E-04 0.00000E+00
 -1       264 2.35055E-03-1.09729E-04 1.32349E-23
 -1       265 2.34974E-03-9.07458E-05 0.00000E+00
 -1       266 2.36458E-03-4.89560E-07 0.00000E+00
 -1       267 2.36163E-03-4.95215E-07 8.27181E-25
 -1       268 2.35869E-03-5.01368E-07 8.27181E-25
 -1       269 2.35574E-03-5.06044E-07 0.00000E+00
 -1       270 2.35279E-03-5.10684E-07-2.06795E-25
 -1       271 2.36593E-03 1.58844E-06 0.00000E+00
 -1       272 2.36477E-03 2.42002E-06-1.32349E-23
 -1       273 2.36408E-03 2.03295E-06-2.64698E-23
 -1       274 2.36382E-03 4.42919E-07 1.32349E-23
 -1       275 2.36401E-03-2.31985E-06-2.64698E-23
 -1       276 2.36461E-03-6.21553E-06 1.32349E-23
 -1       277 2.36562E-03-1.11927E-05-2.64698E-23
 -1       278 2.36700E-03-1.71901E-05 1.32349E-23
 -1       279 2.36873E-03-2.41362E-05 2.64698E-23
 -1       280 2.37079E-03-3.19507E-05 0.00000E+00
 -1       281 2.37312E-03-4.05445E-05 0.00000E+00
 -1       282 2.37571E-03-4.98216E-05 1.32349E-23
 -1       283 2.37851E-03-5.96788E-05 0.00000E+00
 -1       284 2.38148E-03-7.00069E-05 0.00000E+00
 -1       285 2.38458E-03-8.06937E-05-2.64698E-23
 -1       301 2.35610E-03-9.04994E-05 6.61744E-24
 -1       302 2.36181E-03-9.07181E-05 0.00000E+00
 -1       303 2.36703E-03-9.09314E-05 0.00000E+00
 -1       304 2.37257E-03-9.11451E-05 0.00000E+00
 -1       305 2.37922E-03-9.13674E-05 0.00000E+00
 -1       306 2.38439E-03-2.30948E-04 0.00000E+00
 -1       307 2.44892E-03-6.17157E-04-5.29396E-23
 -1       308 2.50207E-03-1.18653E-03 0.00000E+00
 -1       309 2.53579E-03-1.85061E-03-5.29396E-23
 -1       310 2.57444E-03-2.49174E-03-1.05879E-22
 -1       311 2.63571E-03-2.99431E-03 0.00000E+00
 -1       312 2.69472E-03-3.28166E-03-1.05879E-22
 -1       313 2.69851E-03-3.31360E-03 0.00000E+00
 -1       314 2.58177E-03-3.09838E-03 1.05879E-22
 -1       315 2.30569E-03-2.69085E-03 0.00000E+00
 -1       316 1.88493E-03-2.16229E-03 0.00000E+00
 -1       317 1.37670E-03-1.58003E-03 5.29396E-23
 -1       318 8.83486E-04-1.00667E-03 0.00000E+00
 -1       319 5.03328E-04-5.07567E-04 0.00000E+00
 -1       320 2.77714E-04-1.52105E-04 0.00000E+00
 -1       336 2.86787E-04-4.14424E-06 0.00000E+00
 -1       337 2.73749E-04-4.83483E-06-6.61744E-24
 -1       338 2.58793E-04-5.55074E-06 0.00000E+00
 -1       339 2.41992E-04-6.29254E-06 0.00000E+00
 -1       340 2.23426E-04-7.06442E-06 0.00000E+00
 -1       406 1.74028E-04 9.21430E-07 1.65436E-24
 -1       407 1.74712E-04 1.05284E-06-1.24077E-24
 -1       408 1.75488E-04 1.18410E-06 1.65436E-24
 -1       409 1.76354E-04 1.31505E-06 1.26662E-24
 -1       410 1.77312E-04 1.44542E-06-8.27181E-25
 -1       521 2.42385E-03-2.41366E-04-1.05879E-22
 -1       522 2.48719E-03-6.46768E-04-5.29396E-23
 -1       523 2.53512E-03-1.24242E-03 0.00000E+00
 -1       524 2.56107E-03-1.93368E-03-5.29396E-23
 -1       525 2.59291E-03-2.60018E-03 0.00000E+00
 -1       526 2.65106E-03-3.12387E-03 0.00000E+00
 -1       527 2.70974E-03-3.42204E-03 0.00000E+00
 -1       528 2.71187E-03-3.45344E-03-5.29396E-23
 -1       529 2.58537E-03-3.22595E-03 0.00000E+00
 -1       530 2.28914E-03-2.80114E-03-5.29396E-23
 -1       531 1.83820E-03-2.25367E-03-1.05879E-22
 -1       532 1.29524E-03-1.65372E-03 5.29396E-23
 -1       533 7.67554E-04-1.06218E-03-1.05879E-22
 -1       534 3.57899E-04-5.42751E-04 0.00000E+00
 -1       535 1.13260E-04-1.68771E-04-1.05879E-22
 -1       536 2.02482E-04 2.55006E-05-6.61744E-24
 -1       537 2.00715E-04 8.33266E-05 0.00000E+00
 -1       538 1.97988E-04 1.56735E-04 3.30872E-24
 -1       539 1.94774E-04 2.36753E-04 0.00000E+00
 -1       540 1.91880E-04 3.12369E-04 0.00000E+00
 -1       541 1.89995E-04 3.72592E-04 1.65436E-24
 -1       542 1.89119E-04 4.10924E-04 3.30872E-24
 -1       543 1.88903E-04 4.21008E-04 1.65436E-24
 -1       544 1.88594E-04 4.03598E-04-3.30872E-24
 -1       545 1.87501E-04 3.59658E-04 0.00000E+00
 -1       546 1.85477E-04 2.97005E-04 0.00000E+00
 -1       547 1.82746E-04 2.23575E-04-1.65436E-24
 -1       548 1.80043E-04 1.50540E-04 3.30872E-24
 -1       549 1.78090E-04 8.90751E-05 1.65436E-24
 -1       550 1.77072E-04 4.68885E-05 1.65436E-24
 -1       551 1.79096E-04-8.39975E-06 0.00000E+00
 -1       552 1.51851E-04-9.02203E-06 0.00000E+00
 -1       553 1.22378E-04-9.70193E-06 9.92617E-24
 -1       554 9.16226E-05-1.04197E-05-6.61744E-24
 -1       555 6.05283E-05-1.11495E-05 0.00000E+00
 -1       556 1.95911E-04 1.07633E-05 0.00000E+00
 -1       557 1.90045E-04 2.58360E-05 0.00000E+00
 -1       558 1.85454E-04 3.76441E-05 0.00000E+00
 -1       559 1.82012E-04 4.64872E-05 0.00000E+00
 -1       560 1.79594E-04 5.26652E-05 0.00000E+00
 -1       561 1.78077E-04 5.64806E-05 0.00000E+00
 -1       562 1.77340E-04 5.82367E-05 0.00000E+00
 -1       563 1.77264E-04 5.82380E-05 0.00000E+00
 -1       564 1.77732E-04 5.67896E-05 0.00000E+00
 -1       565 1.78628E-04 5.41973E-05 0.00000E+00
 -1       566 1.79835E-04 5.07675E-05 0.00000E+00
 -1       567 1.81240E-04 4.68067E-05 0.00000E+00
 -1       568 1.82727E-04 4.26218E-05 0.00000E+00
 -1       569 1.84185E-04 3.85195E-05 0.00000E+00
 -1       570 1.85498E-04 3.48066E-05 0.00000E+00
 -1       571 1.76894E-04 2.96224E-05-1.65436E-24
 -1       572 1.76991E-04 2.76139E-05 0.00000E+00
 -1       573 1.77088E-04 2.55568E-05 1.65436E-24
 -1       574 1.77186E-04 2.34668E-05-8.27181E-25
 -1       575 1.77283E-04 2.13597E-05 3.30872E-24
 -1       576 1.77380E-04 1.92512E-05 0.00000E+00
 -1       577 1.77478E-04 1.71573E-05 3.30872E-24
 -1       578 1.77575E-04 1.50937E-05 0.00000E+00
 -1       579 1.77673E-04 1.30763E-05 0.00000E+00
 -1       580 1.77771E-04 1.11209E-05 0.00000E+00
 -1       581 1.77869E-04 9.24345E-06 0.00000E+00
 -1       582 1.77967E-04 7.45964E-06 0.00000E+00
 -1       583 1.78065E-04 5.78534E-06 0.00000E+00
 -1       584 1.78163E-04 4.23618E-06 0.00000E+00
 -1       585 1.78262E-04 2.82768E-06 0.00000E+00
 -1       586 1.78383E-04 3.16057E-05 1.65436E-24
 -1       587 1.79926E-04 3.16436E-05 4.13590E-25
 -1       588 1.81473E-04 3.16811E-05 0.00000E+00
 -1       589 1.83065E-04 3.17180E-05 0.00000E+00
 -1       590 1.84745E-04 3.17536E-05 0.00000E+00
 -1       591 1.77464E-04 2.97114E-05 0.00000E+00
 -1       592 1.78131E-04 2.78349E-05 0.00000E+00
 -1       593 1.78804E-04 2.59435E-05 0.00000E+00
 -1       594 1.79480E-04 2.40420E-05-4.13590E-25
 -1       595 1.80158E-04 2.21354E-05 0.00000E+00
 -1       596 1.80837E-04 2.02283E-05 0.00000E+00
 -1       597 1.81513E-04 1.83254E-05-8.27181E-25
 -1       598 1.82186E-04 1.64317E-05 0.00000E+00
 -1       599 1.82854E-04 1.45518E-05 8.27181E-25
 -1       600 1.83515E-04 1.26904E-05 4.13590E-25
 -1       601 1.84167E-04 1.08524E-05 0.00000E+00
 -1       602 1.84809E-04 9.04245E-06 2.06795E-25
 -1       603 1.85439E-04 7.26535E-06 4.13590E-25
 -1       604 1.86055E-04 5.52594E-06 2.06795E-25
 -1       605 1.86656E-04 3.82890E-06 0.00000E+00
 -1       606 1.78373E-04 5.47318E-07 3.30872E-24
 -1       607 1.78383E-04-3.92384E-07 0.00000E+00
 -1       608 1.78392E-04-1.25021E-06 0.00000E+00
 -1       609 1.78401E-04-2.03191E-06-1.65436E-24
 -1       610 1.78409E-04-2.74331E-06 0.00000E+00
 -1       611 1.78418E-04-3.39027E-06 0.00000E+00
 -1       612 1.78426E-04-3.97867E-06 0.00000E+00
 -1       613 1.78435E-04-4.51439E-06 0.00000E+00
 -1       614 1.78443E-04-5.00333E-06 1.65436E-24
 -1       615 1.78452E-04-5.45136E-06 0.00000E+00
 -1       616 1.78460E-04-5.86439E-06-1.65436E-24
 -1       617 1.78469E-04-6.24828E-06-4.13590E-25
 -1       618 1.78477E-04-6.60894E-06 0.00000E+00
 -1       619 1.78486E-04-6.95225E-06 0.00000E+00
 -1       620 1.78494E-04-7.28409E-06 2.06795E-25
 -1       621 1.79574E-04 1.67553E-06-1.65436E-24
 -1       622 1.80935E-04 1.77731E-06-8.27181E-25
 -1       623 1.82414E-04 1.87891E-06-3.30872E-24
 -1       624 1.83979E-04 1.98021E-06-1.65436E-24
 -1       625 1.85599E-04 2.08123E-06-1.65436E-24
 -1       626 1.78855E-04 5.82617E-07-3.30872E-24
 -1       627 1.79327E-04-3.44136E-07 0.00000E+00
 -1       628 1.79777E-04-1.21411E-06-6.61744E-24
 -1       629 1.80210E-04-2.03548E-06-1.65436E-24
 -1       630 1.80627E-04-2.81647E-06 0.00000E+00
 -1       631 1.81032E-04-3.56528E-06 0.00000E+00
 -1       632 1.81429E-04-4.29015E-06 0.00000E+00
 -1       633 1.81819E-04-4.99930E-06 1.65436E-24
 -1       634 1.82207E-04-5.70097E-06 3.30872E-24
 -1       635 1.82595E-04-6.40336E-06-1.65436E-24
 -1       636 1.82986E-04-7.11473E-06 0.00000E+00
 -1       637 1.83384E-04-7.84328E-06-1.65436E-24
 -1       638 1.83791E-04-8.59725E-06 3.30872E-24
 -1       639 1.84211E-04-9.38489E-06 1.65436E-24
 -1       640 1.84645E-04-1.02144E-05-3.30872E-24
 -1       656 1.79060E-04-8.17664E-06 0.00000E+00
 -1       657 1.80034E-04-8.76594E-06 6.61744E-24
 -1       658 1.81286E-04-9.35383E-06 0.00000E+00
 -1       659 1.82669E-04-9.94137E-06 0.00000E+00
 -1       660 1.84000E-04-1.05307E-05 0.00000E+00
 -1       661 1.78711E-04-7.97952E-06-8.27181E-25
 -1       662 1.78956E-04-8.43632E-06 0.00000E+00
 -1       663 1.79231E-04-8.97607E-06-1.65436E-24
 -1       664 1.79536E-04-9.59282E-06 0.00000E+00
 -1       665 1.79868E-04-1.02813E-05 0.00000E+00
 -1       666 1.80225E-04-1.10361E-05 0.00000E+00
 -1       667 1.80605E-04-1.18522E-05 0.00000E+00
 -1       668 1.81006E-04-1.27245E-05-8.27181E-25
 -1       669 1.81426E-04-1.36480E-05 0.00000E+00
 -1       670 1.81864E-04-1.46181E-05-8.27181E-25
 -1       671 1.82317E-04-1.56301E-05 0.00000E+00
 -1       672 1.82784E-04-1.66795E-05-8.27181E-25
 -1       673 1.83263E-04-1.77616E-05 0.00000E+00
 -1       674 1.83752E-04-1.88725E-05 8.27181E-25
 -1       675 1.84250E-04-2.00074E-05-4.13590E-25
 -1       676 1.78775E-04-2.06543E-05 0.00000E+00
 -1       677 1.79975E-04-2.07569E-05 1.65436E-24
 -1       678 1.81173E-04-2.08594E-05 0.00000E+00
 -1       679 1.82368E-04-2.09616E-05 1.65436E-24
 -1       680 1.83561E-04-2.10637E-05 1.65436E-24
 -1       771 1.86124E-05 1.35942E-05 5.29396E-23
 -1       772 8.99180E-06 3.45222E-05 0.00000E+00
 -1       773 1.08762E-06 5.11185E-05-5.29396E-23
 -1       774-5.21787E-06 6.36302E-05 0.00000E+00
 -1       775-1.00400E-05 7.23142E-05 5.29396E-23
 -1       776-1.34989E-05 7.74429E-05 2.64698E-23
 -1       777-1.57143E-05 7.92983E-05 0.00000E+00
 -1       778-1.68086E-05 7.81753E-05 0.00000E+00
 -1       779-1.69038E-05 7.43766E-05 0.00000E+00
 -1       780-1.61236E-05 6.82158E-05-2.64698E-23
 -1       781-1.45912E-05 6.00125E-05 5.29396E-23
 -1       782-1.24311E-05 5.00949E-05-2.64698E-23
 -1       783-9.76713E-06 3.87953E-05 5.29396E-23
 -1       784-6.72426E-06 2.64519E-05 0.00000E+00
 -1       785-3.42662E-06 1.34058E-05 0.00000E+00
 -1       786 1.86593E-04 2.97101E-05 0.00000E+00
 -1       787 1.86635E-04 2.76842E-05-4.13590E-25
 -1       788 1.86677E-04 2.56997E-05 8.27181E-25
 -1       789 1.86720E-04 2.37483E-05-8.27181E-25
 -1       790 1.86763E-04 2.18254E-05-1.65436E-24
 -1       791 1.86807E-04 1.99262E-05 8.27181E-25
 -1       792 1.86850E-04 1.80487E-05-1.65436E-24
 -1       793 1.86893E-04 1.61906E-05 0.00000E+00
 -1       794 1.86937E-04 1.43518E-05 0.00000E+00
 -1       795 1.86980E-04 1.25321E-05 8.27181E-25
 -1       796 1.87024E-04 1.07334E-05 0.00000E+00
 -1       797 1.87067E-04 8.95748E-06 0.00000E+00
 -1       798 1.87111E-04 7.20863E-06 0.00000E+00
 -1       799 1.87155E-04 5.49112E-06 0.00000E+00
 -1       800 1.87199E-04 3.81242E-06 0.00000E+00
 -1       801 1.43189E-04 2.85258E-05 2.64698E-23
 -1       802 1.19622E-05 1.78826E-05 0.00000E+00
 -1       803-1.00536E-04 9.08732E-06 0.00000E+00
 -1       804-8.98290E-05 6.30191E-06 2.64698E-23
 -1       805-2.97567E-05 2.52047E-06-5.29396E-23
 -1       806 1.87219E-04 2.96431E-05 1.65436E-24
 -1       807 1.87871E-04 2.75269E-05 0.00000E+00
 -1       808 1.88510E-04 2.54420E-05 0.00000E+00
 -1       809 1.89136E-04 2.33922E-05-1.65436E-24
 -1       810 1.89747E-04 2.13815E-05 0.00000E+00
 -1       811 1.90342E-04 1.94136E-05 1.65436E-24
 -1       812 1.90920E-04 1.74923E-05-3.30872E-24
 -1       813 1.91479E-04 1.56214E-05-1.65436E-24
 -1       814 1.92017E-04 1.38046E-05 1.65436E-24
 -1       815 1.92534E-04 1.20457E-05 0.00000E+00
 -1       816 1.93028E-04 1.03485E-05 3.30872E-24
 -1       817 1.93498E-04 8.71659E-06 8.27181E-25
 -1       818 1.93942E-04 7.15382E-06 1.65436E-24
 -1       819 1.94359E-04 5.66387E-06-8.27181E-25
 -1       820 1.94747E-04 4.25044E-06-1.65436E-24
 -1       821 1.87116E-04 1.34258E-07 0.00000E+00
 -1       822 1.86980E-04-2.78064E-06 0.00000E+00
 -1       823 1.86843E-04-6.22351E-06 0.00000E+00
 -1       824 1.86703E-04-9.85004E-06 0.00000E+00
 -1       825 1.86564E-04-1.32671E-05-3.30872E-24
 -1       826 1.86427E-04-1.60827E-05-1.65436E-24
 -1       827 1.86292E-04-1.80663E-05 0.00000E+00
 -1       828 1.86158E-04-1.89926E-05 1.65436E-24
 -1       829 1.86024E-04-1.89199E-05 0.00000E+00
 -1       830 1.85890E-04-1.79125E-05 0.00000E+00
 -1       831 1.85755E-04-1.62857E-05 0.00000E+00
 -1       832 1.85620E-04-1.43584E-05 0.00000E+00
 -1       833 1.85486E-04-1.25303E-05 0.00000E+00
 -1       834 1.85353E-04-1.12006E-05-1.65436E-24
 -1       835 1.85221E-04-1.06349E-05 0.00000E+00
 -1       836 1.88761E-04 2.30239E-06 3.30872E-24
 -1       837 1.90154E-04 2.42770E-06 0.00000E+00
 -1       838 1.91454E-04 2.55293E-06 0.00000E+00
 -1       839 1.92692E-04 2.67747E-06 0.00000E+00
 -1       840 1.93899E-04 2.80185E-06-8.27181E-25
 -1       856 1.85079E-04-1.19953E-05 8.27181E-25
 -1       857 1.85057E-04-1.27610E-05 1.29247E-26
 -1       858 1.85036E-04-1.34125E-05 0.00000E+00
 -1       859 1.85015E-04-1.39710E-05 0.00000E+00
 -1       860 1.84993E-04-1.44576E-05-4.13590E-25
 -1       861 1.84971E-04-1.48936E-05 0.00000E+00
 -1       862 1.84950E-04-1.53004E-05-8.27181E-25
 -1       863 1.84928E-04-1.56993E-05 0.00000E+00
 -1       864 1.84906E-04-1.61117E-05-8.27181E-25
 -1       865 1.84885E-04-1.65590E-05 0.00000E+00
 -1       866 1.84863E-04-1.70624E-05 0.00000E+00
 -1       867 1.84841E-04-1.76432E-05 0.00000E+00
 -1       868 1.84819E-04-1.83227E-05-8.27181E-25
 -1       869 1.84797E-04-1.91219E-05 0.00000E+00
 -1       870 1.84774E-04-2.00620E-05 0.00000E+00
 -1       871 1.86280E-04-1.10987E-05 8.27181E-25
 -1       872 1.87607E-04-1.11065E-05 0.00000E+00
 -1       873 1.89013E-04-1.11150E-05 0.00000E+00
 -1       874 1.90430E-04-1.11241E-05 3.10193E-25
 -1       875 1.91792E-04-1.11339E-05-2.06795E-25
 -1       876 1.85560E-04-1.19821E-05 3.30872E-24
 -1       877 1.86002E-04-1.28045E-05 0.00000E+00
 -1       878 1.86423E-04-1.35691E-05 0.00000E+00
 -1       879 1.86825E-04-1.42832E-05 0.00000E+00
 -1       880 1.87210E-04-1.49538E-05 0.00000E+00
 -1       881 1.87583E-04-1.55882E-05-1.65436E-24
 -1       882 1.87944E-04-1.61935E-05 0.00000E+00
 -1       883 1.88297E-04-1.67768E-05 0.00000E+00
 -1       884 1.88645E-04-1.73451E-05-3.30872E-24
 -1       885 1.88990E-04-1.79057E-05 0.00000E+00
 -1       886 1.89334E-04-1.84656E-05-3.30872E-24
 -1       887 1.89681E-04-1.90319E-05 1.65436E-24
 -1       888 1.90032E-04-1.96118E-05 3.30872E-24
 -1       889 1.90391E-04-2.02126E-05 0.00000E+00
 -1       890 1.90759E-04-2.08413E-05-1.65436E-24
 -1       891 1.85961E-04-2.12214E-05-1.65436E-24
 -1       892 1.87147E-04-2.12792E-05 0.00000E+00
 -1       893 1.88283E-04-2.13368E-05 0.00000E+00
 -1       894 1.89343E-04-2.13943E-05 0.00000E+00
 -1       895 1.90302E-04-2.14515E-05 4.13590E-25
 -1       956 1.94980E-04 1.75360E-06 3.30872E-24
 -1       957 1.94851E-04 6.78891E-07 0.00000E+00
 -1       958 1.94721E-04-3.17372E-07 3.30872E-24
 -1       959 1.94591E-04-1.24615E-06 1.65436E-24
 -1       960 1.94461E-04-2.11845E-06 3.30872E-24
 -1       961 1.94330E-04-2.94530E-06 0.00000E+00
 -1       962 1.94200E-04-3.73776E-06-3.30872E-24
 -1       963 1.94070E-04-4.50690E-06-1.65436E-24
 -1       964 1.93940E-04-5.26378E-06 0.00000E+00
 -1       965 1.93810E-04-6.01946E-06 0.00000E+00
 -1       966 1.93680E-04-6.78502E-06-3.30872E-24
 -1       967 1.93550E-04-7.57151E-06 0.00000E+00
 -1       968 1.93420E-04-8.38998E-06 0.00000E+00
 -1       969 1.93290E-04-9.25147E-06 1.65436E-24
 -1       970 1.93161E-04-1.01670E-05-3.30872E-24
 -1       971 1.92915E-04-1.21253E-05 0.00000E+00
 -1       972 1.92796E-04-1.30102E-05 0.00000E+00
 -1       973 1.92677E-04-1.38117E-05-3.30872E-24
 -1       974 1.92558E-04-1.45407E-05-1.65436E-24
 -1       975 1.92438E-04-1.52077E-05 0.00000E+00
 -1       976 1.92319E-04-1.58234E-05 0.00000E+00
 -1       977 1.92200E-04-1.63984E-05 0.00000E+00
 -1       978 1.92081E-04-1.69434E-05 1.65436E-24
 -1       979 1.91961E-04-1.74692E-05 0.00000E+00
 -1       980 1.91842E-04-1.79863E-05 0.00000E+00
 -1       981 1.91723E-04-1.85056E-05 3.30872E-24
 -1       982 1.91604E-04-1.90376E-05-1.65436E-24
 -1       983 1.91485E-04-1.95931E-05-3.30872E-24
 -1       984 1.91366E-04-2.01827E-05-1.65436E-24
 -1       985 1.91248E-04-2.08172E-05 0.00000E+00
 -3
    1PSTEP                        20          10           1          
  100CL  110 6.53320E-01         409                     0   10           1
 -4  STRESS      6    1
 -5  SXX         1    4    1    1
 -5  SYY         1    4    2    2
 -5  SZZ         1    4    3    3
 -5  SXY         1    4    1    2
 -5  SYZ         1    4    2    3
 -5  SZX         1    4    3    1
 -1         1-4.75555E+06-1.68005E+06-1.03578E+06-1.59452E+06-8.29459E-10-6.63567E-09
 -1         2 6.12877E+05 8.39921E+06 2.31382E+06 2.77138E+06 1.85537E-08-1.20053E-07
 -1         3-1.35474E+03-1.60054E+06 4.07556E+02-2.16785E+03-6.57600E-10-6.31917E-09
 -1         5-5.96714E+01 3.77092E+05 9.73876E+00-1.13969E+00-6.37173E-10 4.24552E-08
 -1         8-7.90494E+05-2.55856E+05-9.89810E+04-3.33072E+05 1.57343E-10 1.06047E-08
 -1         9 9.58180E+06 1.32214E+06 1.96285E+06-7.20329E+05 1.71363E-08 3.32948E-09
 -1        10-2.21342E+03-1.66788E+06-3.92477E+03-1.46565E+04-1.32059E-08-4.00363E-08
 -1        12-5.58089E+01 3.77113E+05 3.19205E+02-7.84503E+00-4.73641E-10 1.49375E-08
 -1        15 1.16351E+03 6.39408E+02 3.76101E+03 1.48251E+00-1.15392E-11 3.47953E-08
 -1        16 1.99742E+07-2.08455E+05 2.77120E+06-1.73640E+06 1.19714E-08 6.23210E-08
 -1        17 7.26154E+06 5.29493E+06 1.95671E+06 5.13547E+06 2.27243E-08 3.53088E-08
 -1        18 1.26455E+05 2.92096E+04 1.00248E+03-1.15631E+05 1.12996E-08-2.94767E-09
 -1        19 1.19683E+05 1.38401E+05-9.27837E+02 2.16635E+04 1.47720E-09-6.08343E-09
 -1        20-7.86444E+04-5.61341E+05-1.25855E+05 2.55137E+04-1.36424E-09 4.95493E-09
 -1        21-4.46639E+01-2.91705E+05-9.00496E+02 2.40089E+02 2.13218E-09 1.08932E-08
 -1        24 1.19807E+07 1.02238E+07 3.34844E+06 9.49723E+06-1.55337E-07-5.34152E-08
 -1        25 9.73496E+04 1.65996E+05 7.40603E+04-5.85766E+05-6.12090E-10-4.85088E-09
 -1        26-5.38948E+04 9.00170E+04-2.41044E+04 6.99600E+02 1.07684E-10 7.59451E-09
 -1        27-7.54619E+04-3.03705E+05-1.11336E+05 6.75748E+04 3.91522E-09 1.02248E-08
 -1        28 2.11324E+04-8.47679E+04 1.66852E+04 2.06674E+04-4.20144E-09-1.73601E-09
 -1        32-1.65373E+06-3.08015E+06-1.84637E+05 3.50224E+05-4.10218E-08-8.08132E-09
 -1        33-1.75064E+05 9.07382E+04 3.16763E+04-3.80696E+04-2.86006E-09 1.45528E-08
 -1        34-2.19534E+05-2.44112E+04 6.63830E+02 7.36481E+04-5.50701E-09-3.33436E-09
 -1        35-2.26699E+04-3.44697E+04-1.59125E+03 5.07809E+04-5.76470E-09-5.43878E-09
 -1        51 5.34962E+04-1.97562E+05 1.14641E+05-5.77729E+05-2.76486E-10 5.97574E-08
 -1        52 1.89140E+04-1.78599E+05 6.13088E+04-6.73657E+05-4.36557E-11 4.80577E-09
 -1        53 4.83275E+03-1.94010E+05 3.37915E+04-5.75668E+05 4.98403E-10-1.54570E-07
 -1        54 1.02104E+04-1.90123E+05 3.15148E+04-6.75750E+05-7.27596E-12-1.42823E-07
 -1        55 2.17238E+04-1.98889E+05 4.27241E+04-5.75440E+05 3.41970E-10 9.36270E-08
 -1        56-8.84163E+06-1.03603E+06-7.69615E+05-3.50178E+06 1.36060E-08 4.16476E-08
 -1        57-9.48408E+06-1.37811E+06-5.15711E+05-3.07583E+06-8.21819E-09 1.73801E-07
 -1        58-8.93422E+06-1.33168E+06-1.79809E+05-3.51373E+06-3.24508E-09-1.85362E-07
 -1        59-9.35775E+06-1.04758E+06-1.06740E+05-3.08828E+06-6.13409E-09-2.98518E-07
 -1        60-8.96954E+06-1.35532E+06-4.25595E+04-3.49501E+06-2.49356E-08-1.68409E-07
 -1        61-9.23518E+06-1.08852E+06-2.10997E+04-3.17665E+06-6.20730E-09-2.95870E-07
 -1        62-9.04731E+06-1.29566E+06-1.53449E+04-3.41897E+06 2.17551E-08-1.36115E-08
 -1        63-9.06075E+06-1.24206E+06-5.05183E+03-3.35133E+06-9.82254E-09 2.67427E-07
 -1        64-9.13662E+06-1.20667E+06-1.46108E+04-3.31520E+06 2.39015E-08-3.60887E-09
 -1        65-8.92126E+06-1.40070E+06-1.86613E+04-3.54083E+06-6.20057E-08-2.63605E-07
 -1        66-9.19371E+06-1.13244E+06-3.81969E+04-3.23454E+06 1.73750E-08 1.08477E-07
 -1        67-8.88225E+06-1.51447E+06-9.50906E+04-3.63894E+06-1.27975E-08 8.42301E-08
 -1        68-9.18545E+06-1.08750E+06-1.60268E+05-3.22342E+06-9.59517E-09-2.04454E-09
 -1        69-9.06196E+06-1.74166E+06-4.59570E+05-3.54910E+06 6.33008E-09-2.37058E-07
 -1        70-9.01235E+06-9.15593E+05-6.86554E+05-3.31939E+06 1.37225E-08-3.31784E-09
 -1        86-6.22426E+05-8.75323E+06-1.26196E+06-1.32806E+06-1.83127E-07-4.01487E-08
 -1        87 8.96463E+05 1.44212E+06 1.04825E+06 2.93266E+06-3.05517E-07-9.51804E-08
 -1        88-1.27297E+05-2.59930E+06 8.38296E+04-1.57609E+06-2.64477E-07-2.22988E-08
 -1        89 1.21467E+06 1.31007E+06 1.05067E+06 3.00807E+06-3.97389E-07 2.73026E-08
 -1        90-9.07348E+05-8.65170E+06-1.38942E+06-1.41008E+06-8.68604E-08-6.48288E-09
 -1       121-1.86104E+03-1.60503E+06-4.54712E+02 1.07553E+03 1.51091E-09-1.72549E-08
 -1       122-1.17015E+03-1.60059E+06 7.85287E+02-4.33707E+03-4.93834E-09 2.59388E-08
 -1       123-1.88751E+03-1.60517E+06 3.82757E+02 3.21160E+03 4.39411E-09 1.77606E-08
 -1       124 4.93375E+02-1.60009E+06 3.04665E+03-9.06152E+03-9.80799E-09-4.07017E-08
 -1       125-2.73083E+03-1.60608E+06 3.70633E+03 5.76062E+03 6.33008E-09 1.34060E-08
 -1       191-6.29436E+01 3.77113E+05 8.97706E+00 5.90221E-01-5.31424E-10-2.30648E-09
 -1       192-6.06018E+01 3.77093E+05 2.07486E+01-3.72981E+00-6.46896E-10-2.94913E-08
 -1       193-6.53978E+01 3.77113E+05 3.59959E+01 3.26481E+00-1.02276E-09 4.73119E-09
 -1       194-6.35869E+01 3.77096E+05 7.87946E+01-8.49003E+00-6.48378E-10 1.18634E-08
 -1       195-7.01093E+01 3.77110E+05 1.51525E+02 5.49059E+00-1.46952E-09 6.34827E-10
 -1       251-1.92504E+06 2.15160E+04-1.47907E+05 5.15057E+04-6.35191E-09 1.57735E-07
 -1       252-1.58364E+06-2.53279E+04-2.99294E+04-1.84930E+05 8.29277E-09 2.02264E-07
 -1       253-1.80311E+06-1.60267E+03-3.63582E+04 1.62014E+05-8.94488E-09 1.33885E-07
 -1       254-1.75349E+06 1.66041E+04-8.10052E+03-3.09323E+05 3.01083E-08-1.07614E-07
 -1       255-1.77281E+06-4.44005E+03-8.11889E+03 1.76788E+05 6.36646E-12 1.32604E-07
 -1       256-1.63213E+06 1.82966E+04 2.65305E+04-2.38646E+05-1.75805E-08 1.39131E-07
 -1       257-1.91366E+06-1.38109E+04-3.31214E+04 9.06777E+04-1.31258E-08 7.84406E-08
 -1       258-1.45760E+06 1.25870E+04 6.14908E+04-1.03008E+04 5.35738E-09 2.49485E-07
 -1       259-1.93095E+06-1.33575E+04-3.46089E+04-5.14520E+04 2.42544E-08-4.63036E-08
 -1       260-1.59286E+06 1.43084E+04 3.81410E+04 2.32085E+05 2.66664E-09-3.31610E-07
 -1       261-1.79109E+06-3.18532E+03-1.25007E+03-1.51032E+05-4.51751E-08-3.88052E-08
 -1       262-1.74445E+06 2.14533E+04 1.57742E+04 3.30643E+05 1.55512E-08 1.27176E-07
 -1       263-1.79392E+06-7.03884E+03 6.85946E+03-1.50519E+05-6.27142E-09 1.73356E-07
 -1       264-1.57635E+06 4.63678E+04 7.15225E+04 2.30793E+05-4.60232E-08 4.22040E-07
 -1       265-1.94457E+06-4.18040E+04 7.02225E+03-5.06765E+04-1.69584E-08 1.59373E-07
 -1       266-2.10634E+04-9.84973E+03 4.94186E+04-3.17201E+01 1.27329E-10 6.20811E-08
 -1       267 2.44182E+04 1.14793E+04 3.49295E+04 3.66001E+01-8.77662E-11-6.68286E-08
 -1       268-3.27444E+03-1.62583E+03 1.29831E+04-4.66341E+00 6.27551E-11 2.67438E-07
 -1       269 3.86615E+03 1.94573E+03 8.43884E+03 5.43226E+00 7.36691E-11 2.51083E-07
 -1       270-5.80312E+02-3.19700E+02 4.07355E+03-7.37191E-01 9.77707E-11 1.09914E-07
 -1       271-1.83306E+06-2.25464E+05-1.35237E+05-7.06473E+05 1.05501E-09 1.39829E-07
 -1       272-1.88842E+06-3.15295E+05-8.66883E+04-6.95499E+05-3.17027E-08-7.10279E-08
 -1       273-1.85960E+06-2.57951E+05-3.21265E+04-6.99140E+05 2.15205E-08-1.55755E-07
 -1       274-1.85625E+06-2.76535E+05-1.77342E+04-7.07457E+05-2.98714E-08-1.43561E-07
 -1       275-1.86472E+06-2.59820E+05-7.63833E+03-6.96247E+05 2.76978E-08 7.39510E-08
 -1       276-1.84906E+06-2.75581E+05-3.79368E+03-7.13026E+05-4.93828E-08 3.54094E-07
 -1       277-1.86706E+06-2.58256E+05-2.05491E+03-6.93975E+05 1.37861E-08-2.29566E-08
 -1       278-1.84545E+06-2.78593E+05-1.13486E+03-7.17580E+05-1.98115E-08 7.28639E-08
 -1       279-1.86878E+06-2.56485E+05-1.28954E+03-6.92028E+05-2.84545E-08 1.53636E-07
 -1       280-1.84298E+06-2.81757E+05-1.87488E+03-7.21438E+05 3.93707E-08-1.07668E-07
 -1       281-1.87002E+06-2.54796E+05-3.53430E+03-6.90459E+05-3.15176E-08-3.44937E-08
 -1       282-1.84256E+06-2.86340E+05-8.16980E+03-7.24239E+05 3.68786E-08 3.81387E-08
 -1       283-1.86970E+06-2.51816E+05-1.46147E+04-6.89478E+05-3.63189E-08-3.23616E-08
 -1       284-1.85391E+06-3.07787E+05-3.97119E+04-7.23418E+05-1.32918E-08-1.56965E-07
 -1       285-1.85933E+06-2.35113E+05-6.17297E+04-6.90819E+05-5.53518E-09-3.94211E-08
 -1       301 8.34245E+03-5.57906E+05 1.70848E+05-9.73017E+05 2.40107E-09 2.37596E-07
 -1       302 9.35615E+03-5.13633E+05 1.03410E+05-1.42191E+06-2.05182E-09-1.71349E-09
 -1       303-9.98338E+03-5.45735E+05 6.11078E+04-9.70540E+05-1.04046E-09 1.36231E-07
 -1       304-5.21538E+03-5.17711E+05 6.61672E+04-1.42110E+06-1.20781E-09 9.98552E-08
 -1       305-9.80364E+03-5.39327E+05 8.74483E+04-9.73479E+05 6.13727E-09-1.34984E-07
 -1       306-2.77930E+07-5.67688E+06-7.78110E+06-9.85687E+05-6.00703E-08 1.14669E-08
 -1       307 2.31479E+07 2.30413E+06 5.00434E+06-1.34384E+07-7.35105E-07 1.13156E-07
 -1       308-7.55217E+06-8.14325E+05-5.30377E+05 4.73317E+06 1.90630E-08 3.53553E-07
 -1       309-3.47063E+06 7.02434E+06 1.93559E+06-1.91955E+07 1.15648E-07 7.24685E-08
 -1       310-1.14660E+07-1.43059E+06-1.59374E+06 4.63762E+06 2.19443E-08 5.80330E-08
 -1       311 3.22338E+07-1.48941E+05 6.28483E+06-8.77193E+06 3.33879E-07 1.59809E-07
 -1       312-2.89946E+07-5.88921E+06-7.47485E+06-4.20181E+06 1.09314E-07 3.53364E-07
 -1       313 4.10709E+07 1.18598E+07 9.50468E+06 1.99973E+07-7.42730E-08 3.28786E-07
 -1       314-1.69370E+07-1.53041E+07-6.75411E+06-1.15517E+07 4.10771E-07 1.33296E-08
 -1       315-1.10985E+06 2.57987E+07 5.15076E+06 1.06086E+07-3.28422E-07-5.23869E-08
 -1       316 6.41029E+05-9.34475E+06-4.94572E+05-3.23180E+06-1.10913E-06-8.57108E-08
 -1       317-1.70880E+07 2.05127E+07 1.90022E+06-6.75224E+06 8.39413E-07-5.80490E-07
 -1       318-1.20429E+06-1.12237E+07-1.63859E+06-4.39686E+06-9.25851E-07 1.11060E-07
 -1       319 5.54018E+06 2.72880E+07 6.05466E+06 1.45030E+07-3.33457E-08 2.31841E-07
 -1       320-2.07436E+07-1.54665E+07-8.69104E+06-1.15676E+07 1.72528E-07-4.82250E-08
 -1       336-4.96783E+02-1.73751E+06-1.38104E+04 8.74960E+03-2.54986E-08-2.97223E-09
 -1       337-5.33472E+03-1.73757E+06-1.79840E+04-2.11959E+04-4.68838E-08-1.09467E-08
 -1       338 4.41811E+02-1.73703E+06-2.80308E+04 1.22289E+04-3.29037E-08-1.01536E-08
 -1       339-2.97535E+04-1.75442E+06-6.34401E+04-2.79950E+04-6.01076E-08 4.41541E-08
 -1       340 1.97601E+04-1.72269E+06-9.97902E+04 1.54280E+04-3.91883E-08 3.19742E-08
 -1       406-3.40228E+01 3.77096E+05 6.27458E+02 2.75141E+00-1.66686E-09-2.36469E-10
 -1       407 1.64224E+02 3.77224E+05 1.33940E+03 2.11906E+01-3.97350E-10-1.31186E-08
 -1       408 6.31853E+02 3.76998E+05 2.67154E+03-2.43269E+01-2.19734E-09-1.01136E-09
 -1       409 2.84091E+03 3.78077E+05 6.01994E+03 2.57428E+02-4.85102E-10 1.02173E-08
 -1       410 8.26222E+03 3.76231E+05 1.22871E+04-2.47722E+02-2.45927E-09 5.30235E-09
 -1       521-2.93245E+07-6.96755E+06-9.07276E+06-6.56522E+05-1.06753E-07-5.96046E-08
 -1       522 2.38996E+07 3.03583E+06 5.08296E+06-1.66181E+07-4.49654E-07 4.55184E-08
 -1       523-8.25998E+06-1.09744E+06-5.38701E+05 5.17219E+06 1.70548E-08-3.00439E-07
 -1       524-6.68915E+06 9.61733E+06 2.09284E+06-2.21457E+07 8.37972E-07-6.09045E-07
 -1       525-1.23776E+07-1.94840E+06-1.75002E+06 5.06773E+06 5.94009E-07-4.56406E-07
 -1       526 3.49790E+07-2.03905E+05 6.59878E+06-1.12726E+07 3.43600E-07-3.15107E-07
 -1       527-3.07591E+07-7.38055E+06-8.59303E+06-4.08810E+06 3.67872E-08-1.05007E-07
 -1       528 4.48319E+07 1.30441E+07 9.90805E+06 2.26357E+07 9.63919E-08-4.21103E-07
 -1       529-1.79312E+07-1.72854E+07-7.73092E+06-1.16973E+07 2.43308E-07-3.02040E-07
 -1       530-3.41799E+06 3.00066E+07 5.44244E+06 1.04611E+07-1.94079E-07 5.91739E-07
 -1       531 5.80956E+05-1.04601E+07-4.88037E+05-3.33400E+06-9.53602E-07 2.85101E-07
 -1       532-1.99345E+07 2.26898E+07 2.07927E+06-1.03714E+07 4.26458E-07-7.61516E-07
 -1       533-1.27391E+06-1.23645E+07-1.73158E+06-4.39329E+06-2.24973E-07-9.95118E-07
 -1       534 3.56836E+06 3.16559E+07 6.29881E+06 1.50172E+07-8.73406E-08 6.95058E-07
 -1       535-2.18834E+07-1.75903E+07-9.92564E+06-1.17119E+07 9.37143E-08 4.43717E-07
 -1       536-6.81336E+05-4.59660E+04-3.73459E+04-5.12614E+04-1.27784E-09 5.89243E-08
 -1       537-7.90710E+04 4.44952E+04 8.21350E+04 1.17312E+05-1.03695E-07 9.57953E-08
 -1       538-3.93363E+05 2.64290E+03 5.07786E+03-6.89042E+04 1.64234E-08 9.87479E-08
 -1       539-2.77961E+05 2.99583E+03 2.39356E+04 1.32012E+05 1.58226E-07 9.25444E-08
 -1       540-4.87403E+05-3.47459E+02-1.90516E+04-6.64320E+04-3.49019E-09 9.72429E-08
 -1       541 1.04634E+05 1.56241E+04 9.81053E+04 9.23223E+04-4.28004E-08 6.42078E-08
 -1       542-7.65658E+05-1.85756E+04-7.74746E+04-2.84462E+04 6.76177E-08 3.34754E-08
 -1       543 3.42817E+05 2.51846E+04 1.45405E+05-1.28006E+04-3.11127E-08-1.71494E-08
 -1       544-7.19206E+05-1.51905E+04-6.88297E+04 3.81005E+04-8.52151E-09-4.85925E-08
 -1       545-4.46708E+03 8.59591E+03 7.31319E+04-1.07663E+05-1.57901E-08-7.87634E-08
 -1       546-4.27686E+05 5.72759E+03-1.13353E+04 6.61136E+04 3.10997E-08-7.97290E-08
 -1       547-2.94989E+05-4.68164E+03 9.08445E+03-1.34790E+05-1.07075E-07-9.61322E-08
 -1       548-4.36480E+05 4.59903E+03-2.28684E+04 6.58359E+04-1.01960E-07-1.00705E-07
 -1       549 1.40951E+04 1.30929E+04 5.34524E+04-1.05368E+05-6.90688E-08-6.01258E-08
 -1       550-7.28495E+05-1.89554E+04-1.22162E+05 3.60600E+04 5.12591E-09-4.58404E-08
 -1       551 3.89755E+04-7.63963E+05-1.05884E+04-1.22808E+06-9.82254E-08-5.50062E-09
 -1       552 8.86678E+04-8.05613E+05 1.29556E+04-1.75125E+06-7.02566E-08 3.23053E-08
 -1       553 6.78709E+04-8.03047E+05 3.41252E+04-1.22172E+06-1.13301E-07 2.83471E-08
 -1       554 1.26282E+05-8.19536E+05 8.35863E+04-1.75320E+06-6.93544E-08 9.67702E-09
 -1       555 9.75665E+04-8.26192E+05 1.51912E+05-1.22166E+06-1.15455E-07-1.38243E-08
 -1       556 2.12636E+05-3.66980E+05 3.32471E+04-3.95565E+05-2.43017E-08-5.52973E-09
 -1       557 3.39554E+05-4.68380E+05 1.98139E+04-5.10915E+05 7.13044E-10 3.63616E-09
 -1       558 1.96241E+05-3.61863E+05 4.24826E+03-3.98376E+05-1.04192E-08 1.19107E-08
 -1       559 3.15426E+05-4.69762E+05 3.28657E+03-5.29905E+05 2.39233E-08 6.34464E-09
 -1       560 1.82153E+05-3.53013E+05-8.86993E+02-4.08478E+05 1.46101E-08 2.73940E-09
 -1       561 2.97622E+05-4.62709E+05 3.61752E+02-5.41995E+05 1.39698E-09 2.79397E-09
 -1       562 1.71018E+05-3.46079E+05-1.08732E+03-4.16531E+05 1.10595E-09-6.74845E-09
 -1       563 2.84407E+05-4.56947E+05 2.98636E+01-5.50613E+05-1.94268E-09 1.64164E-09
 -1       564 1.63106E+05-3.41145E+05-5.06884E+02-4.22134E+05-7.13044E-10 5.35965E-09
 -1       565 2.75705E+05-4.53158E+05 4.18994E+01-5.56170E+05 5.00950E-09-1.33878E-09
 -1       566 1.58534E+05-3.38250E+05-2.22778E+02-4.25333E+05 2.32831E-09-2.48219E-08
 -1       567 2.71560E+05-4.51354E+05-3.31265E+02-5.58677E+05 2.62007E-08 1.34933E-08
 -1       568 1.57384E+05-3.37548E+05-1.04561E+03-4.26233E+05-3.60251E-09 5.48971E-09
 -1       569 2.70633E+05-4.51301E+05-2.64193E+03-5.57181E+05-5.00768E-09 1.58761E-08
 -1       570 1.60713E+05-3.40675E+05-5.79158E+03-4.25264E+05 4.09636E-09-1.06102E-08
 -1       571 2.83792E+05 1.02718E+04 1.47099E+04-9.13068E+04-8.20637E-09 7.84848E-09
 -1       572 2.85929E+05 3.84227E+03 7.20881E+03-1.00172E+05-1.62759E-08-2.13458E-09
 -1       573 2.84642E+05 1.18198E+03 3.20307E+03-9.11348E+04-8.15362E-09 2.15732E-08
 -1       574 2.84857E+05 6.68479E+02 1.60619E+03-1.00388E+05-1.74987E-09 3.12866E-10
 -1       575 2.84734E+05 3.98841E+02 7.58024E+02-9.11114E+04 4.90576E-09-2.81580E-09
 -1       576 2.84722E+05 4.06091E+02 3.87980E+02-1.00417E+05 1.40255E-08 2.75577E-10
 -1       577 2.84771E+05 3.43122E+02 1.93618E+02-9.11082E+04 1.53850E-08-5.28325E-09
 -1       578 2.84748E+05 3.70910E+02 1.11613E+02-1.00421E+05 1.58138E-08-1.71876E-08
 -1       579 2.84837E+05 3.10102E+02 7.65379E+01-9.11079E+04 1.82063E-08-8.55107E-09
 -1       580 2.84841E+05 3.24690E+02 8.83388E+01-1.00417E+05-7.55972E-09-1.19844E-08
 -1       581 2.84941E+05 2.57168E+02 1.33473E+02-9.11135E+04 5.19140E-09 3.01316E-09
 -1       582 2.85003E+05 2.93003E+02 2.70780E+02-1.00358E+05-4.25644E-09 2.38924E-09
 -1       583 2.85069E+05 3.03290E+02 5.20320E+02-9.11676E+04-1.38280E-08 8.18977E-09
 -1       584 2.85356E+05 7.26911E+02 1.17670E+03-9.99018E+04-1.43682E-08-9.58062E-09
 -1       585 2.85084E+05 1.72204E+03 2.38369E+03-9.15687E+04-8.55653E-09 1.64437E-09
 -1       586-3.35490E+03 1.12284E+05-2.98203E+03-2.45711E+05-3.91765E-09-3.01634E-09
 -1       587-1.25673E+03 1.12015E+05 6.78606E+02-2.70426E+05-5.70981E-09 2.61549E-08
 -1       588 4.51105E+02 1.11849E+05 4.59655E+03-2.45577E+05-6.95400E-09 5.27507E-09
 -1       589 5.02070E+03 1.14244E+05 1.19881E+04-2.70191E+05-8.08359E-09-2.30939E-08
 -1       590 1.62223E+04 1.10551E+05 2.51736E+04-2.46000E+05-3.84262E-09-9.39326E-09
 -1       591-7.19036E+04-1.55493E+04-2.18204E+04-3.09219E+04-4.53542E-09 1.66256E-09
 -1       592-7.57858E+04-1.90734E+04-1.18196E+04-3.45223E+04 1.76973E-09 4.97153E-09
 -1       593-7.40864E+04-1.39654E+04-4.91996E+03-3.25212E+04-3.41037E-09-4.78167E-09
 -1       594-7.27719E+04-1.58726E+04-2.45371E+03-3.46378E+04-1.36169E-08-6.37303E-09
 -1       595-7.42529E+04-1.39601E+04-1.12655E+03-3.25939E+04-6.99725E-09 2.75637E-08
 -1       596-7.25657E+04-1.57263E+04-5.72563E+02-3.46134E+04 6.74299E-09 8.36303E-09
 -1       597-7.42738E+04-1.39750E+04-3.11517E+02-3.25967E+04-9.11484E-10-2.11656E-09
 -1       598-7.25453E+04-1.57205E+04-2.49948E+02-3.46065E+04-6.99566E-09-3.70409E-09
 -1       599-7.42725E+04-1.39755E+04-3.18685E+02-3.25963E+04 4.50734E-09-2.78560E-08
 -1       600-7.25657E+04-1.57269E+04-5.91539E+02-3.46113E+04 1.36639E-08-8.09604E-09
 -1       601-7.42485E+04-1.39613E+04-1.16673E+03-3.25929E+04 5.29576E-09-2.02092E-08
 -1       602-7.27793E+04-1.58774E+04-2.54264E+03-3.46329E+04-5.44605E-09-2.24294E-08
 -1       603-7.40734E+04-1.39697E+04-5.09897E+03-3.25183E+04 6.38011E-10-5.54564E-09
 -1       604-7.59198E+04-1.91756E+04-1.22489E+04-3.44891E+04 1.51208E-08 1.46213E-08
 -1       605-7.17917E+04-1.56285E+04-2.26130E+04-3.08797E+04 8.18304E-09 2.53040E-08
 -1       606 2.67861E+04-1.39646E+04-2.50386E+04 2.43020E+04 5.31418E-09 1.80569E-08
 -1       607 2.25074E+04-4.55816E+03-1.24690E+04 2.73069E+04-8.35826E-10 1.99161E-08
 -1       608 2.49450E+04-8.19832E+02-5.58211E+03 2.41283E+04-2.35559E-09 9.06743E-09
 -1       609 2.44766E+04-2.77669E+02-2.81989E+03 2.75233E+04 3.51974E-10-4.37467E-10
 -1       610 2.47356E+04-3.61078E+01-1.34551E+03 2.41079E+04 6.32099E-09-1.97679E-09
 -1       611 2.46611E+04-3.52242E+01-6.78388E+02 2.75467E+04 7.57564E-09-3.01475E-09
 -1       612 2.46886E+04-2.20942E+01-3.22601E+02 2.41058E+04 1.08230E-10 4.90923E-09
 -1       613 2.46713E+04-3.06333E+01-1.44623E+02 2.75495E+04 5.29781E-10-1.00340E-09
 -1       614 2.46662E+04-2.78207E+01-3.41166E+01 2.41051E+04-4.82032E-10 1.36235E-08
 -1       615 2.46653E+04-2.87109E+01 6.01725E+01 2.75499E+04 2.87764E-09 2.92016E-08
 -1       616 2.46486E+04-2.43875E+01 1.80836E+02 2.41054E+04 6.55791E-09 3.97222E-09
 -1       617 2.46865E+04 1.02062E+01 4.12769E+02 2.75494E+04 8.23547E-10-1.19262E-08
 -1       618 2.46123E+04 9.48985E+01 8.32054E+02 2.41056E+04-3.05226E-09 1.16083E-08
 -1       619 2.49798E+04 6.53790E+02 1.86849E+03 2.75488E+04-4.83374E-09-1.18066E-08
 -1       620 2.43358E+04 2.06813E+03 3.75561E+03 2.41068E+04-1.44041E-09-8.12543E-09
 -1       621 4.79531E+02 2.94028E+05 3.73042E+03 3.82413E+04 1.01318E-09-7.12407E-09
 -1       622 6.30024E+02 2.94896E+05 3.32438E+03 5.55279E+04 1.13732E-09-1.47388E-08
 -1       623 1.23235E+02 2.94218E+05 4.01373E+03 3.80676E+04 9.53378E-10 6.79938E-09
 -1       624 2.04029E+03 2.96092E+05 7.79590E+03 5.56993E+04 8.39123E-10 7.50151E-09
 -1       625 2.00066E+03 2.92674E+05 1.36304E+04 3.80646E+04 1.18780E-09 8.41828E-09
 -1       626 2.55043E+05 6.06493E+04 5.06517E+03 1.24664E+05 2.67710E-09 1.12595E-09
 -1       627 2.52717E+05 6.20642E+04 2.44086E+03 1.28927E+05 2.89992E-09-2.40872E-08
 -1       628 2.55172E+05 5.83287E+04 1.03222E+03 1.25521E+05-1.50976E-09-2.15307E-08
 -1       629 2.52084E+05 6.13955E+04 5.05227E+02 1.29168E+05-4.40878E-09-6.69336E-09
 -1       630 2.55186E+05 5.82168E+04 2.34356E+02 1.25556E+05-6.41649E-10-7.25299E-09
 -1       631 2.52017E+05 6.13705E+04 1.26109E+02 1.29169E+05 3.46995E-09-1.19778E-08
 -1       632 2.55182E+05 5.82211E+04 8.29753E+01 1.25552E+05-9.86802E-11-7.41943E-09
 -1       633 2.52008E+05 6.13726E+04 9.24124E+01 1.29165E+05-1.18216E-08 2.25348E-08
 -1       634 2.55177E+05 5.82186E+04 1.49324E+02 1.25551E+05-2.01228E-08-4.93856E-09
 -1       635 2.52022E+05 6.13712E+04 3.02146E+02 1.29170E+05-8.73024E-09 3.73348E-09
 -1       636 2.55167E+05 5.82132E+04 6.10180E+02 1.25550E+05 1.09003E-09 2.33936E-08
 -1       637 2.52153E+05 6.14662E+04 1.34159E+03 1.29170E+05-4.86807E-10 2.24484E-08
 -1       638 2.55119E+05 5.85097E+04 2.75648E+03 1.25416E+05 1.78443E-09 1.47061E-08
 -1       639 2.53601E+05 6.34800E+04 6.52189E+03 1.28743E+05 5.19685E-09 6.84940E-09
 -1       640 2.54920E+05 6.45224E+04 1.35341E+04 1.22882E+05 4.25462E-09 8.83756E-09
 -1       656 6.52499E+04-1.66894E+06-1.57510E+05-2.30542E+03 2.91038E-10-2.28947E-08
 -1       657-8.63158E+04-1.74011E+06-1.30478E+05 5.46798E+03 9.27685E-11-6.61131E-09
 -1       658 2.07958E+04-1.68915E+06-8.03473E+04-4.32579E+03 5.33191E-10-3.51974E-10
 -1       659-9.33067E+04-1.74343E+06-1.39665E+05 7.12419E+03-1.38243E-09-7.54934E-09
 -1       660 7.22251E+04-1.66562E+06-1.73304E+05-3.96161E+03-1.97178E-09 7.81256E-10
 -1       661 1.59473E+05 1.67381E+04 1.66966E+04 6.23388E+04 8.44011E-10-2.41107E-09
 -1       662 1.68807E+05 2.92074E+04 1.12522E+04 5.87136E+04 1.51209E-09-2.83153E-08
 -1       663 1.62752E+05 2.20951E+04 3.93542E+03 6.13876E+04-1.49498E-10-6.72594E-09
 -1       664 1.65006E+05 2.29423E+04 2.35411E+03 5.98751E+04 8.36224E-10-2.59001E-09
 -1       665 1.63249E+05 2.28272E+04 9.28784E+02 6.12430E+04 1.39914E-09-6.39821E-09
 -1       666 1.64418E+05 2.21049E+04 5.43701E+02 6.00637E+04 2.11344E-09 1.88486E-08
 -1       667 1.63336E+05 2.29107E+04 2.89176E+02 6.12070E+04 1.14940E-09 1.32253E-08
 -1       668 1.64322E+05 2.20449E+04 2.95360E+02 6.01163E+04-8.13225E-09-1.59847E-08
 -1       669 1.63344E+05 2.28855E+04 4.00533E+02 6.11907E+04-4.09088E-09-6.87962E-09
 -1       670 1.64420E+05 2.22628E+04 8.72743E+02 6.01195E+04-1.13991E-08-1.38066E-08
 -1       671 1.63238E+05 2.26973E+04 1.54980E+03 6.12018E+04-3.10244E-09-3.35422E-09
 -1       672 1.65322E+05 2.37713E+04 3.96532E+03 5.99014E+04 8.83425E-09 2.20136E-08
 -1       673 1.62445E+05 2.14151E+04 6.64525E+03 6.13941E+04 2.22576E-09 6.99629E-09
 -1       674 1.71646E+05 3.44485E+04 1.90041E+04 5.80443E+04-1.88470E-09 8.72728E-09
 -1       675 1.56955E+05 1.23191E+04 2.82087E+04 6.29468E+04-1.80353E-09-1.92995E-09
 -1       676 2.34739E+01-2.91631E+05-1.08534E+03-1.20048E+02 8.39464E-10 1.92766E-08
 -1       677-2.87336E+02-2.91893E+05-1.98635E+03 2.39907E+02 8.53012E-09 1.00269E-08
 -1       678 1.92531E+02-2.91444E+05-3.51137E+03-1.19781E+02 4.42697E-10-8.78870E-10
 -1       679-3.51164E+03-2.94012E+05-8.34153E+03 2.38869E+02 5.85612E-09-2.26655E-08
 -1       680 2.09648E+03-2.89512E+05-1.34437E+04-1.17701E+02-1.18871E-09-3.98416E-10
 -1       771-3.02642E+06-7.25258E+05-1.53885E+05-1.43891E+06-3.58996E-08-2.27010E-08
 -1       772-2.95299E+06-8.10429E+05-7.94147E+04-1.53727E+06-3.34694E-08 1.04737E-08
 -1       773-3.05570E+06-7.02379E+05-4.03115E+04-1.45203E+06-2.06637E-08 8.52742E-09
 -1       774-2.94365E+06-7.93415E+05-1.80205E+04-1.56108E+06 2.33995E-08 1.45519E-10
 -1       775-3.07080E+06-6.91761E+05-1.33637E+04-1.45832E+06-5.61704E-09 4.52565E-09
 -1       776-2.95470E+06-7.90774E+05-5.01596E+03-1.57895E+06-3.65253E-09 2.70666E-09
 -1       777-3.08385E+06-6.82324E+05-5.86248E+03-1.46387E+06 2.64845E-09 4.20550E-09
 -1       778-2.96627E+06-7.88335E+05-1.66350E+03-1.59429E+06 2.47383E-09 7.91078E-09
 -1       779-3.09504E+06-6.74098E+05-2.91634E+03-1.46862E+06-1.07102E-08-3.27418E-11
 -1       780-2.97645E+06-7.86007E+05-4.84522E+02-1.60678E+06-1.30749E-08-9.49512E-10
 -1       781-3.10393E+06-6.67477E+05-1.12859E+03-1.47233E+06-1.80589E-08 1.51158E-09
 -1       782-2.98428E+06-7.84024E+05 4.10526E+02-1.61600E+06-2.52985E-08-9.88030E-09
 -1       783-3.11017E+06-6.62884E+05 6.41539E+02-1.47493E+06-2.75031E-09-1.15997E-08
 -1       784-2.98861E+06-7.82007E+05 2.64525E+03-1.62168E+06-1.74769E-08 5.72982E-11
 -1       785-3.11387E+06-6.60148E+05 4.67065E+03-1.47659E+06-3.58523E-08 7.26686E-09
 -1       786 1.24416E+05-9.70911E+03 2.24628E+04-3.00834E+02 4.57248E-09 1.37479E-08
 -1       787 1.34158E+05 1.12408E+04 1.58915E+04-1.17607E+02 8.10727E-09 4.43220E-09
 -1       788 1.28172E+05-1.52151E+03 5.81170E+03-2.66692E+02 5.86541E-09-4.17913E-09
 -1       789 1.29782E+05 1.76098E+03 3.64850E+03-1.70186E+02-1.77667E-09 4.75552E-09
 -1       790 1.28792E+05-2.36975E+02 1.47752E+03-2.48271E+02-1.85836E-09 3.05863E-09
 -1       791 1.29056E+05 2.74116E+02 8.53965E+02-2.01758E+02-7.93600E-09-1.95444E-08
 -1       792 1.28897E+05-3.57660E+01 3.63045E+02-2.35122E+02-4.01173E-09 4.91751E-09
 -1       793 1.28931E+05 3.82265E+01 1.83551E+02-2.26505E+02-3.77183E-10-6.06274E-09
 -1       794 1.28917E+05-1.23489E+00 5.28552E+01-2.23523E+02 5.51460E-09 6.60187E-10
 -1       795 1.28896E+05-2.29702E+01-4.36514E+01-2.50716E+02-4.06858E-09 3.54325E-09
 -1       796 1.28932E+05 2.53967E+01-1.38031E+02-2.10911E+02 4.28736E-09-1.49502E-09
 -1       797 1.28814E+05-1.90408E+02-3.85522E+02-2.79683E+02 3.57115E-09-3.10649E-10
 -1       798 1.29000E+05 1.66077E+02-6.27916E+02-1.94556E+02 2.66329E-09 5.29977E-09
 -1       799 1.28337E+05-1.22436E+03-1.72907E+03-3.20066E+02 6.77239E-09-1.24677E-08
 -1       800 1.29409E+05 1.05850E+03-2.44744E+03-1.70528E+02 6.49075E-10 9.05084E-09
 -1       801-1.35017E+05-9.34008E+06-1.28269E+06 1.25703E+06 8.63511E-08-5.13610E-08
 -1       802 6.36080E+05 4.92216E+06 1.92316E+06-1.53427E+06 2.44989E-07-3.24872E-08
 -1       803-4.77094E+05-1.30966E+07-1.69060E+06 7.98395E+05 7.32689E-08 2.20261E-08
 -1       804 2.47796E+05 1.70635E+06 1.35562E+06 6.26072E+05-1.12312E-07-9.61631E-08
 -1       805 1.76123E+05-6.13915E+06-2.56981E+05-8.98180E+05-4.68644E-08-5.78730E-08
 -1       806-3.02694E+05-5.84271E+04-2.23538E+04-1.19795E+05-1.70348E-09-4.16821E-09
 -1       807-3.04474E+05-5.47561E+04-1.09822E+04-1.25192E+05 1.11731E-08-4.51519E-09
 -1       808-3.03305E+05-5.03730E+04-4.65901E+03-1.23606E+05-3.32102E-09-1.55057E-09
 -1       809-3.02167E+05-5.16695E+04-2.27814E+03-1.25461E+05-1.39050E-08-8.46046E-09
 -1       810-3.03398E+05-5.00926E+04-1.04419E+03-1.23774E+05 2.68028E-09-4.88717E-09
 -1       811-3.01988E+05-5.15454E+04-5.19283E+02-1.25427E+05 1.62800E-09 8.71569E-09
 -1       812-3.03412E+05-5.01166E+04-2.62660E+02-1.23774E+05 5.89353E-10 3.14640E-09
 -1       813-3.01964E+05-5.15474E+04-1.70777E+02-1.25408E+05-3.31829E-09-9.87893E-09
 -1       814-3.03405E+05-5.01260E+04-1.69332E+02-1.23770E+05-1.90357E-09-1.66119E-09
 -1       815-3.01967E+05-5.15495E+04-2.72957E+02-1.25401E+05 2.35696E-09 9.16316E-11
 -1       816-3.03385E+05-5.01249E+04-5.17378E+02-1.23766E+05 5.31600E-09 1.07202E-08
 -1       817-3.02056E+05-5.15988E+04-1.11046E+03-1.25390E+05-6.45014E-09-3.31124E-09
 -1       818-3.03318E+05-5.02814E+04-2.26493E+03-1.23693E+05 1.62436E-09-7.29733E-09
 -1       819-3.03295E+05-5.29673E+04-5.32933E+03-1.25097E+05 1.52795E-08 5.35965E-09
 -1       820-3.02892E+05-5.43064E+04-1.08471E+04-1.21972E+05 6.68388E-09-3.56681E-09
 -1       821-3.72925E+05 2.05462E+04-4.76974E+04 1.76921E+03 1.20798E-08 5.73345E-09
 -1       822-3.92842E+05-2.37944E+04-3.36209E+04-3.54722E+03 3.72125E-09 1.99216E-08
 -1       823-3.80518E+05 3.23183E+03-1.23320E+04 2.70819E+03-1.00028E-08 6.34691E-09
 -1       824-3.83778E+05-3.73075E+03-7.73455E+03-4.11050E+03 1.01128E-11 1.16036E-08
 -1       825-3.81991E+05 5.02014E+02-3.21994E+03 2.33256E+03 1.51779E-08 5.90774E-09
 -1       826-3.81697E+05-5.70967E+02-1.79089E+03-2.25609E+03 2.27666E-08-2.12765E-08
 -1       827-3.82583E+05 6.24769E+01-1.10576E+03 8.53695E+02 1.08199E-08-1.63331E-08
 -1       828-3.81218E+05-1.51007E+02-6.96189E+02 9.99430E+02-2.21320E-09 1.50434E-08
 -1       829-3.82463E+05 7.67484E+01-1.10352E+03-9.22993E+02 2.52892E-09 8.60018E-09
 -1       830-3.81962E+05-6.15744E+02-1.91036E+03 3.87704E+03 1.69192E-09 1.36404E-08
 -1       831-3.81854E+05 5.38131E+02-3.31054E+03-2.02395E+03-3.08045E-09 1.09876E-08
 -1       832-3.83864E+05-3.88945E+03-8.03589E+03 4.80166E+03-2.28180E-09 1.80846E-08
 -1       833-3.80571E+05 3.35494E+03-1.28256E+04-1.84763E+03-1.67240E-09-1.23146E-08
 -1       834-3.92998E+05-2.47045E+04-3.48582E+04 3.23953E+03-2.62342E-09 4.33283E-09
 -1       835-3.72710E+05 2.13269E+04-4.95522E+04-4.61766E+02 5.94636E-09 1.07721E-08
 -1       836-1.37398E+03 3.61440E+05 2.23326E+04-1.62095E+04-6.15728E-09 4.68481E-09
 -1       837 4.76958E+03 3.68430E+05 1.89134E+04-3.30545E+04-6.72412E-09 2.28220E-08
 -1       838-5.41106E+02 3.63398E+05 1.92927E+04-1.61386E+04-5.67479E-09-4.58249E-09
 -1       839 1.21592E+04 3.73934E+05 3.65179E+04-3.31056E+04-6.07588E-09-7.76868E-09
 -1       840-3.75313E+03 3.55878E+05 5.82422E+04-1.61634E+04-5.38421E-09 1.60045E-08
 -1       856-5.78278E+04 8.09981E+03-2.13449E+04-4.01842E+02 2.96541E-09 4.79395E-09
 -1       857-6.66232E+04-9.51533E+03-1.46938E+04 5.62878E+03 6.68845E-09-1.81781E-08
 -1       858-6.13103E+04 1.13582E+03-5.53861E+03-4.26995E+02 3.23308E-09-1.23403E-08
 -1       859-6.26266E+04-1.33462E+03-3.34256E+03 5.66654E+03 2.02192E-09 1.56099E-08
 -1       860-6.18306E+04 1.58967E+02-1.40135E+03-4.39365E+02 1.26045E-09-7.77055E-09
 -1       861-6.20281E+04-1.88258E+02-7.71896E+02 5.68340E+03 1.77802E-09 9.16799E-09
 -1       862-6.19119E+04 2.15033E+01-3.22853E+02-4.43843E+02-1.70327E-09 1.11043E-08
 -1       863-6.19287E+04-2.10536E+01-1.22117E+02 5.68589E+03-1.65680E-09-1.38765E-09
 -1       864-6.19304E+04-4.44949E+00 3.74816E+01-4.41853E+02 9.49711E-11 1.04368E-08
 -1       865-6.18751E+04 5.66153E+01 2.35044E+02 5.67486E+03-2.48279E-09-3.67405E-09
 -1       866-6.19633E+04-5.62895E+01 4.78833E+02-4.32814E+02 1.32468E-09-6.19343E-09
 -1       867-6.16482E+04 4.64933E+02 1.18207E+03 5.65032E+03 3.36865E-09-4.97096E-09
 -1       868-6.21524E+04-4.05653E+02 1.96491E+03-4.17307E+02-1.85275E-09-7.12157E-09
 -1       869-6.02062E+04 3.37525E+03 5.23341E+03 5.60995E+03-5.47061E-10 1.63271E-08
 -1       870-6.33975E+04-2.88794E+03 7.59440E+03-3.92358E+02-1.91642E-09 1.75928E-08
 -1       871-5.43995E+03-2.03849E+04-1.90641E+04 1.27132E+05-4.53838E-09 6.41194E-09
 -1       872-1.99414E+03-2.48035E+04-7.97230E+03 1.64843E+05-1.10513E-08-7.76890E-09
 -1       873 3.54624E+02-2.26724E+04 6.03115E+02 1.26852E+05-5.47425E-09-3.75667E-09
 -1       874 3.19380E+03-2.02888E+04 9.62683E+03 1.64874E+05-1.07484E-08 1.49748E-08
 -1       875 6.69025E+03-2.49667E+04 2.16973E+04 1.27085E+05-4.54202E-09-2.04518E-08
 -1       876 2.89380E+05 4.87143E+04 1.49397E+04 1.16033E+05 2.13754E-09-1.50576E-08
 -1       877 2.90420E+05 5.18080E+04 7.97836E+03 1.20256E+05 1.28184E-08-2.31717E-09
 -1       878 2.90776E+05 4.70601E+04 3.34253E+03 1.17258E+05-5.90853E-09 3.44789E-09
 -1       879 2.88390E+05 4.97807E+04 1.66541E+03 1.20357E+05 1.03296E-09 2.24674E-09
 -1       880 2.90877E+05 4.70430E+04 7.75650E+02 1.17308E+05-2.94176E-09 6.22987E-09
 -1       881 2.88256E+05 4.96940E+04 4.14059E+02 1.20334E+05-5.39421E-09 1.07519E-09
 -1       882 2.90886E+05 4.70560E+04 2.64614E+02 1.17310E+05-9.23137E-10 2.19636E-08
 -1       883 2.88246E+05 4.96894E+04 2.84048E+02 1.20326E+05-2.55869E-09 2.59386E-08
 -1       884 2.90879E+05 4.70533E+04 4.51475E+02 1.17310E+05 1.92699E-09-1.11028E-08
 -1       885 2.88282E+05 4.96957E+04 9.07468E+02 1.20337E+05 2.46547E-09-5.18105E-09
 -1       886 2.90844E+05 4.70269E+04 1.82886E+03 1.17306E+05 3.73809E-10 1.64669E-08
 -1       887 2.88603E+05 4.99064E+04 3.99483E+03 1.20383E+05 8.58768E-09 1.11243E-09
 -1       888 2.90591E+05 4.70715E+04 8.04969E+03 1.17179E+05 2.33342E-11-1.61817E-08
 -1       889 2.93394E+05 5.48911E+04 1.92292E+04 1.20237E+05-4.90826E-09 6.67478E-09
 -1       890 2.87307E+05 5.09724E+04 3.60158E+04 1.14113E+05-6.00130E-09 1.38352E-08
 -1       891-9.02441E+01-1.63587E+05-2.13370E+03 2.65995E+04-5.12750E-09 2.00214E-08
 -1       892-2.16973E+02-1.64155E+05-2.24242E+03 4.10633E+04-7.38100E-09-7.26163E-09
 -1       893 3.89273E+01-1.63666E+05-3.10970E+03 2.66066E+04-4.24689E-09-2.40834E-09
 -1       894-1.58274E+03-1.65317E+05-6.40600E+03 4.09120E+04-5.28962E-09 1.29876E-09
 -1       895-1.06732E+03-1.62326E+05-1.12083E+04 2.67522E+04-1.94461E-09 4.17731E-09
 -1       956-3.69900E+05-5.32747E+03-1.31780E+04 2.97932E+04 4.28554E-09 6.54495E-09
 -1       957-3.72487E+05-1.87073E+03-6.76415E+03 3.58110E+04-5.41149E-11 9.28185E-09
 -1       958-3.71083E+05-2.25799E+02-3.04808E+03 2.96296E+04-2.83671E-09 1.88015E-09
 -1       959-3.71277E+05-1.21668E+02-1.55644E+03 3.60006E+04 3.88081E-09 6.85304E-10
 -1       960-3.71197E+05-3.43434E+01-7.58978E+02 2.96129E+04 4.43015E-09 1.70733E-08
 -1       961-3.71197E+05-5.06475E+01-4.02437E+02 3.60203E+04 1.05988E-08 1.10847E-08
 -1       962-3.71224E+05-3.59098E+01-2.30414E+02 2.96101E+04-5.00677E-09 1.56469E-08
 -1       963-3.71197E+05-4.67664E+01-1.84995E+02 3.60238E+04-9.01912E-09-7.82461E-09
 -1       964-3.71229E+05-3.26938E+01-2.24970E+02 2.96094E+04-5.23045E-10-3.03589E-09
 -1       965-3.71209E+05-4.37866E+01-3.89106E+02 3.60232E+04-3.63548E-09 4.45721E-09
 -1       966-3.71214E+05-2.47872E+01-7.31077E+02 2.96108E+04 1.23032E-09 2.52589E-09
 -1       967-3.71298E+05-1.05666E+02-1.49944E+03 3.60094E+04-2.12549E-09 3.11024E-09
 -1       968-3.71113E+05-2.03073E+02-2.93528E+03 2.96230E+04 2.76168E-09-6.35725E-09
 -1       969-3.72475E+05-1.78525E+03-6.51634E+03 3.58666E+04 9.96761E-09 1.26468E-09
 -1       970-3.69981E+05-5.11401E+03-1.26941E+04 2.97462E+04-1.93359E-09 8.04812E-09
 -1       971-3.39644E+05-1.70481E+03-9.21509E+03 1.50245E+04 7.55153E-09-1.02063E-08
 -1       972-3.41864E+05-1.25205E+03-5.01846E+03 2.07953E+04 1.28780E-08-3.42043E-08
 -1       973-3.40670E+05-5.65850E+01-2.24777E+03 1.49046E+04 7.51515E-09 1.21258E-09
 -1       974-3.40806E+05-7.36504E+01-1.16512E+03 2.09305E+04-3.52247E-09-5.92308E-09
 -1       975-3.40751E+05-1.23360E+01-5.82742E+02 1.48925E+04 1.48657E-09-2.21132E-09
 -1       976-3.40745E+05-2.44362E+01-3.36793E+02 2.09460E+04 5.93718E-09-9.72364E-10
 -1       977-3.40767E+05-1.16788E+01-2.45506E+02 1.48891E+04-1.58161E-09-5.77541E-09
 -1       978-3.40750E+05-1.83057E+01-2.88722E+02 2.09508E+04-3.91674E-09-9.52764E-09
 -1       979-3.40767E+05-3.30847E+00-4.65116E+02 1.48877E+04-4.03713E-09-1.76511E-08
 -1       980-3.40785E+05-1.52049E+01-8.98840E+02 2.09519E+04-8.12337E-09 7.71706E-09
 -1       981-3.40739E+05 1.92768E+01-1.74123E+03 1.48881E+04 1.28898E-09 2.44881E-10
 -1       982-3.41024E+05-1.43686E+02-3.59933E+03 2.09456E+04 2.80488E-09 3.91115E-09
 -1       983-3.40520E+05-9.20150E+01-6.99360E+03 1.48939E+04-5.49835E-09 5.68389E-09
 -1       984-3.44389E+05-3.79602E+03-1.56620E+04 2.08627E+04-6.54381E-09 7.52084E-09
 -1       985-3.37354E+05-5.20928E+03-2.87602E+04 1.49643E+04-4.47017E-09-2.71939E-09
 -3
    1PSTEP                        21          11           1          
  100CL  111 6.62109E-01         409                     0   11           1
 -4  DISP        4    1
 -5  D1          1    2    1    0
 -5  D2          1    2    2    0
 -5  D3          1    2    3    0
 -5  ALL         1    2    0    0    1ALL
 -1         1 2.73512E-03 0.00000E+00 0.00000E+00
 -1         2 1.26382E-03 5.36004E-27 5.29396E-23
 -1         3 3.42246E-04 6.64098E-28 0.00000E+00
 -1         5 1.76922E-04-5.40549E-27-1.65436E-24
 -1         8 2.72485E-03-3.91019E-07 0.00000E+00
 -1         9 2.71753E-03-2.21660E-04 0.00000E+00
 -1        10 3.10356E-04-3.36605E-06 6.61744E-24
 -1        12 1.78769E-04 8.08378E-07-1.65436E-24
 -1        15 2.71324E-03-4.12648E-07 1.03398E-25
 -1        16 2.79610E-03-2.23663E-04 0.00000E+00
 -1        17 2.11241E-04-7.68254E-06 0.00000E+00
 -1        18 1.82719E-04 3.44080E-05 0.00000E+00
 -1        19 1.84311E-04 1.61034E-06 0.00000E+00
 -1        20 1.84450E-04-9.90150E-06 0.00000E+00
 -1        21 1.83495E-04-2.54186E-05-3.30872E-24
 -1        24 3.05436E-05-1.18889E-05 0.00000E+00
 -1        25 1.93504E-04 3.46336E-05 0.00000E+00
 -1        26 1.94181E-04 2.22980E-06 0.00000E+00
 -1        27 1.91985E-04-1.34562E-05 0.00000E+00
 -1        28 1.91653E-04-2.60400E-05 0.00000E+00
 -1        32 0.00000E+00 0.00000E+00 0.00000E+00
 -1        33 2.03052E-04 2.98280E-06 0.00000E+00
 -1        34 2.00935E-04-1.35127E-05 0.00000E+00
 -1        35 1.99003E-04-2.63896E-05 0.00000E+00
 -1        51 2.73442E-03-8.29329E-08-1.65436E-24
 -1        52 2.73315E-03-1.47274E-07-3.30872E-24
 -1        53 2.73144E-03-2.08049E-07 0.00000E+00
 -1        54 2.72940E-03-2.67486E-07 8.27181E-25
 -1        55 2.72716E-03-3.27353E-07 8.27181E-25
 -1        56 2.72614E-03 1.16179E-05 0.00000E+00
 -1        57 2.70734E-03 4.72238E-05 0.00000E+00
 -1        58 2.68153E-03 9.93823E-05 0.00000E+00
 -1        59 2.65237E-03 1.59114E-04 5.29396E-23
 -1        60 2.62439E-03 2.16144E-04-1.05879E-22
 -1        61 2.60195E-03 2.60411E-04 5.29396E-23
 -1        62 2.58798E-03 2.84121E-04 0.00000E+00
 -1        63 2.58431E-03 2.81299E-04-5.29396E-23
 -1        64 2.59054E-03 2.50856E-04 0.00000E+00
 -1        65 2.60538E-03 1.94358E-04 0.00000E+00
 -1        66 2.62624E-03 1.18377E-04 0.00000E+00
 -1        67 2.65028E-03 3.14480E-05 5.29396E-23
 -1        68 2.67440E-03-5.57311E-05 1.05879E-22
 -1        69 2.69550E-03-1.32432E-04 0.00000E+00
 -1        70 2.71070E-03-1.89995E-04 1.05879E-22
 -1        86 1.35531E-03-6.87912E-06-5.29396E-23
 -1        87 1.61913E-03-4.37726E-05 0.00000E+00
 -1        88 1.97398E-03-1.07433E-04-5.29396E-23
 -1        89 2.33406E-03-1.73029E-04 1.32349E-23
 -1        90 2.61051E-03-2.13211E-04-5.29396E-23
 -1       121 3.41350E-04-5.43343E-07 0.00000E+00
 -1       122 3.38668E-04-1.08976E-06 0.00000E+00
 -1       123 3.34207E-04-1.64228E-06 1.32349E-23
 -1       124 3.27986E-04-2.20393E-06 0.00000E+00
 -1       125 3.20025E-04-2.77736E-06-1.32349E-23
 -1       191 1.76973E-04 1.34794E-07-3.30872E-24
 -1       192 1.77127E-04 2.69575E-07-8.27181E-25
 -1       193 1.77383E-04 4.04338E-07-1.65436E-24
 -1       194 1.77742E-04 5.39067E-07 1.65436E-24
 -1       195 1.78204E-04 6.73752E-07-2.48154E-24
 -1       251 2.72454E-03 1.61127E-06 0.00000E+00
 -1       252 2.72423E-03 3.63990E-06 0.00000E+00
 -1       253 2.72392E-03 4.53325E-06 0.00000E+00
 -1       254 2.72361E-03 3.14413E-06 0.00000E+00
 -1       255 2.72328E-03-1.32122E-06 0.00000E+00
 -1       256 2.72294E-03-9.61723E-06 0.00000E+00
 -1       257 2.72255E-03-2.19057E-05 0.00000E+00
 -1       258 2.72211E-03-3.82972E-05-6.61744E-24
 -1       259 2.72161E-03-5.82685E-05 0.00000E+00
 -1       260 2.72104E-03-8.12497E-05-6.61744E-24
 -1       261 2.72043E-03-1.06206E-04-1.32349E-23
 -1       262 2.71979E-03-1.32076E-04-6.61744E-24
 -1       263 2.71917E-03-1.57660E-04-1.32349E-23
 -1       264 2.71857E-03-1.81757E-04 0.00000E+00
 -1       265 2.71803E-03-2.03403E-04 0.00000E+00
 -1       266 2.72292E-03-4.00040E-07 1.65436E-24
 -1       267 2.72098E-03-4.02985E-07 0.00000E+00
 -1       268 2.71904E-03-4.06314E-07 4.13590E-25
 -1       269 2.71711E-03-4.08504E-07 0.00000E+00
 -1       270 2.71517E-03-4.10667E-07-2.06795E-25
 -1       271 2.72415E-03-2.26013E-07 0.00000E+00
 -1       272 2.72455E-03-3.05345E-06 0.00000E+00
 -1       273 2.72600E-03-8.68669E-06 0.00000E+00
 -1       274 2.72839E-03-1.69246E-05 0.00000E+00
 -1       275 2.73166E-03-2.75435E-05 0.00000E+00
 -1       276 2.73570E-03-4.03037E-05 0.00000E+00
 -1       277 2.74042E-03-5.49475E-05 0.00000E+00
 -1       278 2.74572E-03-7.12037E-05 0.00000E+00
 -1       279 2.75149E-03-8.87884E-05 1.32349E-23
 -1       280 2.75763E-03-1.07408E-04 0.00000E+00
 -1       281 2.76403E-03-1.26759E-04 0.00000E+00
 -1       282 2.77058E-03-1.46535E-04 0.00000E+00
 -1       283 2.77718E-03-1.66424E-04 0.00000E+00
 -1       284 2.78370E-03-1.86115E-04 0.00000E+00
 -1       285 2.79004E-03-2.05297E-04-1.32349E-23
 -1       301 2.73178E-03-2.22032E-04 1.32349E-23
 -1       302 2.74430E-03-2.22354E-04 3.30872E-24
 -1       303 2.75604E-03-2.22663E-04 0.00000E+00
 -1       304 2.76794E-03-2.22972E-04 6.61744E-24
 -1       305 2.78098E-03-2.23297E-04 0.00000E+00
 -1       306 2.75596E-03-3.78600E-04 0.00000E+00
 -1       307 2.81983E-03-7.94413E-04-5.29396E-23
 -1       308 2.86648E-03-1.40005E-03 0.00000E+00
 -1       309 2.89081E-03-2.09901E-03 0.00000E+00
 -1       310 2.92299E-03-2.76556E-03 1.05879E-22
 -1       311 2.98301E-03-3.27682E-03 0.00000E+00
 -1       312 3.04020E-03-3.55275E-03 1.05879E-22
 -1       313 3.03318E-03-3.55654E-03 0.00000E+00
 -1       314 2.88822E-03-3.30115E-03 0.00000E+00
 -1       315 2.56516E-03-2.85164E-03-5.29396E-23
 -1       316 2.08341E-03-2.28469E-03 0.00000E+00
 -1       317 1.50976E-03-1.66926E-03 0.00000E+00
 -1       318 9.58787E-04-1.06549E-03 0.00000E+00
 -1       319 5.38381E-04-5.38185E-04 0.00000E+00
 -1       320 2.91940E-04-1.61483E-04-1.05879E-22
 -1       336 2.98790E-04-4.01705E-06 0.00000E+00
 -1       337 2.85151E-04-4.69367E-06-6.61744E-24
 -1       338 2.69499E-04-5.39813E-06-1.32349E-23
 -1       339 2.51908E-04-6.13129E-06 0.00000E+00
 -1       340 2.32459E-04-6.89761E-06 1.32349E-23
 -1       406 1.79436E-04 9.42928E-07-1.65436E-24
 -1       407 1.80206E-04 1.07736E-06 1.65436E-24
 -1       408 1.81078E-04 1.21163E-06-8.27181E-25
 -1       409 1.82054E-04 1.34557E-06 8.27181E-25
 -1       410 1.83131E-04 1.47889E-06-1.65436E-24
 -1       521 2.83509E-03-3.89968E-04 1.05879E-22
 -1       522 2.89710E-03-8.26801E-04-5.29396E-23
 -1       523 2.93699E-03-1.46156E-03-1.05879E-22
 -1       524 2.95163E-03-2.19078E-03 0.00000E+00
 -1       525 2.97553E-03-2.88550E-03-1.05879E-22
 -1       526 3.03193E-03-3.41994E-03 0.00000E+00
 -1       527 3.08877E-03-3.70689E-03 0.00000E+00
 -1       528 3.07928E-03-3.70861E-03 5.29396E-23
 -1       529 2.92148E-03-3.43819E-03 0.00000E+00
 -1       530 2.57285E-03-2.96909E-03 0.00000E+00
 -1       531 2.05373E-03-2.38196E-03 0.00000E+00
 -1       532 1.43766E-03-1.74839E-03 0.00000E+00
 -1       533 8.45121E-04-1.12580E-03 0.00000E+00
 -1       534 3.89621E-04-5.76591E-04 0.00000E+00
 -1       535 1.21020E-04-1.79503E-04-2.11758E-22
 -1       536 2.10487E-04 2.72093E-05-6.61744E-24
 -1       537 2.08572E-04 8.76006E-05-1.65436E-24
 -1       538 2.05613E-04 1.64231E-04 0.00000E+00
 -1       539 2.02122E-04 2.47756E-04 1.65436E-24
 -1       540 1.98980E-04 3.26681E-04 0.00000E+00
 -1       541 1.96938E-04 3.89535E-04 1.65436E-24
 -1       542 1.95996E-04 4.29568E-04 0.00000E+00
 -1       543 1.95771E-04 4.40179E-04 1.65436E-24
 -1       544 1.95449E-04 4.22144E-04 3.30872E-24
 -1       545 1.94278E-04 3.76454E-04 0.00000E+00
 -1       546 1.92096E-04 3.11231E-04 0.00000E+00
 -1       547 1.89141E-04 2.34717E-04 0.00000E+00
 -1       548 1.86214E-04 1.58580E-04-3.30872E-24
 -1       549 1.84103E-04 9.44873E-05-1.65436E-24
 -1       550 1.83005E-04 5.04634E-05-1.65436E-24
 -1       551 1.86067E-04-8.24893E-06 0.00000E+00
 -1       552 1.57651E-04-8.89565E-06 0.00000E+00
 -1       553 1.26933E-04-9.60455E-06-6.61744E-24
 -1       554 9.48718E-05-1.03546E-05 0.00000E+00
 -1       555 6.24242E-05-1.11184E-05 0.00000E+00
 -1       556 2.03601E-04 1.18519E-05 0.00000E+00
 -1       557 1.97430E-04 2.76940E-05 0.00000E+00
 -1       558 1.92591E-04 4.01314E-05 0.00000E+00
 -1       559 1.88953E-04 4.94744E-05 0.00000E+00
 -1       560 1.86386E-04 5.60334E-05 0.00000E+00
 -1       561 1.84763E-04 6.01217E-05 0.00000E+00
 -1       562 1.83956E-04 6.20536E-05 0.00000E+00
 -1       563 1.83844E-04 6.21444E-05 0.00000E+00
 -1       564 1.84304E-04 6.07104E-05 0.00000E+00
 -1       565 1.85215E-04 5.80682E-05 0.00000E+00
 -1       566 1.86457E-04 5.45355E-05 0.00000E+00
 -1       567 1.87913E-04 5.04298E-05-3.30872E-24
 -1       568 1.89463E-04 4.60693E-05 0.00000E+00
 -1       569 1.90990E-04 4.17719E-05 0.00000E+00
 -1       570 1.92376E-04 3.78555E-05 0.00000E+00
 -1       571 1.82816E-04 3.22798E-05 1.65436E-24
 -1       572 1.82914E-04 3.00861E-05 1.24077E-24
 -1       573 1.83013E-04 2.78423E-05 0.00000E+00
 -1       574 1.83113E-04 2.55650E-05 8.27181E-25
 -1       575 1.83212E-04 2.32705E-05 0.00000E+00
 -1       576 1.83311E-04 2.09752E-05 1.65436E-24
 -1       577 1.83411E-04 1.86958E-05 3.30872E-24
 -1       578 1.83510E-04 1.64486E-05 0.00000E+00
 -1       579 1.83610E-04 1.42503E-05 6.61744E-24
 -1       580 1.83710E-04 1.21172E-05 6.61744E-24
 -1       581 1.83809E-04 1.00660E-05 0.00000E+00
 -1       582 1.83909E-04 8.11313E-06 0.00000E+00
 -1       583 1.84010E-04 6.27500E-06 0.00000E+00
 -1       584 1.84110E-04 4.56796E-06 0.00000E+00
 -1       585 1.84211E-04 3.00815E-06 0.00000E+00
 -1       586 1.84476E-04 3.44477E-05 0.00000E+00
 -1       587 1.86191E-04 3.44869E-05-4.13590E-25
 -1       588 1.87908E-04 3.45257E-05 0.00000E+00
 -1       589 1.89671E-04 3.45638E-05 0.00000E+00
 -1       590 1.91522E-04 3.46007E-05 0.00000E+00
 -1       591 1.83449E-04 3.23735E-05 0.00000E+00
 -1       592 1.84181E-04 3.03192E-05 2.06795E-25
 -1       593 1.84919E-04 2.82511E-05 0.00000E+00
 -1       594 1.85659E-04 2.61736E-05-4.13590E-25
 -1       595 1.86401E-04 2.40917E-05 8.27181E-25
 -1       596 1.87143E-04 2.20099E-05 4.13590E-25
 -1       597 1.87883E-04 1.99330E-05 8.27181E-25
 -1       598 1.88619E-04 1.78655E-05 0.00000E+00
 -1       599 1.89350E-04 1.58123E-05 0.00000E+00
 -1       600 1.90074E-04 1.37779E-05 0.00000E+00
 -1       601 1.90790E-04 1.17670E-05 8.27181E-25
 -1       602 1.91495E-04 9.78423E-06 0.00000E+00
 -1       603 1.92188E-04 7.83431E-06-4.13590E-25
 -1       604 1.92867E-04 5.92202E-06-1.03398E-25
 -1       605 1.93531E-04 4.05190E-06 0.00000E+00
 -1       606 1.84324E-04 4.45566E-07-3.30872E-24
 -1       607 1.84334E-04-6.33643E-07 0.00000E+00
 -1       608 1.84342E-04-1.63230E-06 0.00000E+00
 -1       609 1.84351E-04-2.55608E-06 0.00000E+00
 -1       610 1.84359E-04-3.41069E-06 0.00000E+00
 -1       611 1.84367E-04-4.20192E-06 0.00000E+00
 -1       612 1.84376E-04-4.93553E-06 0.00000E+00
 -1       613 1.84384E-04-5.61733E-06 0.00000E+00
 -1       614 1.84392E-04-6.25312E-06 0.00000E+00
 -1       615 1.84401E-04-6.84866E-06-8.27181E-25
 -1       616 1.84409E-04-7.40978E-06 0.00000E+00
 -1       617 1.84417E-04-7.94225E-06 4.13590E-25
 -1       618 1.84426E-04-8.45186E-06 0.00000E+00
 -1       619 1.84434E-04-8.94441E-06 0.00000E+00
 -1       620 1.84442E-04-9.42570E-06 0.00000E+00
 -1       621 1.85670E-04 1.71415E-06 1.65436E-24
 -1       622 1.87188E-04 1.81821E-06 1.65436E-24
 -1       623 1.88832E-04 1.92205E-06-1.65436E-24
 -1       624 1.90567E-04 2.02556E-06 8.27181E-25
 -1       625 1.92362E-04 2.12878E-06-1.65436E-24
 -1       626 1.84860E-04 4.81660E-07 0.00000E+00
 -1       627 1.85386E-04-5.84220E-07 0.00000E+00
 -1       628 1.85892E-04-1.59513E-06 0.00000E+00
 -1       629 1.86380E-04-2.55921E-06 0.00000E+00
 -1       630 1.86854E-04-3.48465E-06 3.30872E-24
 -1       631 1.87316E-04-4.37962E-06 1.65436E-24
 -1       632 1.87771E-04-5.25232E-06 0.00000E+00
 -1       633 1.88220E-04-6.11094E-06 0.00000E+00
 -1       634 1.88667E-04-6.96367E-06 0.00000E+00
 -1       635 1.89114E-04-7.81868E-06-1.65436E-24
 -1       636 1.89566E-04-8.68420E-06-3.30872E-24
 -1       637 1.90024E-04-9.56840E-06-1.65436E-24
 -1       638 1.90493E-04-1.04795E-05-1.65436E-24
 -1       639 1.90974E-04-1.14256E-05 0.00000E+00
 -1       640 1.91471E-04-1.24151E-05-1.65436E-24
 -1       656 1.85158E-04-1.04793E-05 0.00000E+00
 -1       657 1.86285E-04-1.10805E-05-6.61744E-24
 -1       658 1.87692E-04-1.16803E-05 0.00000E+00
 -1       659 1.89234E-04-1.22799E-05-6.61744E-24
 -1       660 1.90726E-04-1.28812E-05 0.00000E+00
 -1       661 1.84714E-04-1.04216E-05 0.00000E+00
 -1       662 1.85016E-04-1.10319E-05 8.27181E-25
 -1       663 1.85349E-04-1.17275E-05 0.00000E+00
 -1       664 1.85713E-04-1.25022E-05 0.00000E+00
 -1       665 1.86104E-04-1.33505E-05 0.00000E+00
 -1       666 1.86520E-04-1.42667E-05 0.00000E+00
 -1       667 1.86960E-04-1.52455E-05 1.65436E-24
 -1       668 1.87422E-04-1.62816E-05-8.27181E-25
 -1       669 1.87903E-04-1.73698E-05 0.00000E+00
 -1       670 1.88401E-04-1.85051E-05-8.27181E-25
 -1       671 1.88915E-04-1.96826E-05 0.00000E+00
 -1       672 1.89443E-04-2.08976E-05 0.00000E+00
 -1       673 1.89983E-04-2.21452E-05 1.65436E-24
 -1       674 1.90533E-04-2.34210E-05-4.13590E-25
 -1       675 1.91092E-04-2.47202E-05 2.06795E-25
 -1       676 1.84859E-04-2.55227E-05 0.00000E+00
 -1       677 1.86223E-04-2.56268E-05-1.65436E-24
 -1       678 1.87585E-04-2.57309E-05-3.30872E-24
 -1       679 1.88944E-04-2.58347E-05 1.65436E-24
 -1       680 1.90301E-04-2.59384E-05 0.00000E+00
 -1       771 1.85976E-05 1.48293E-05 0.00000E+00
 -1       772 8.54811E-06 3.67719E-05 0.00000E+00
 -1       773 3.04398E-07 5.41690E-05 0.00000E+00
 -1       774-6.25786E-06 6.72787E-05 0.00000E+00
 -1       775-1.12603E-05 7.63694E-05-5.29396E-23
 -1       776-1.48296E-05 8.17263E-05-2.64698E-23
 -1       777-1.70919E-05 8.36445E-05 0.00000E+00
 -1       778-1.81762E-05 8.24331E-05-2.64698E-23
 -1       779-1.82108E-05 7.84097E-05 0.00000E+00
 -1       780-1.73260E-05 7.19032E-05 2.64698E-23
 -1       781-1.56511E-05 6.32494E-05-5.29396E-23
 -1       782-1.33170E-05 5.27928E-05-2.64698E-23
 -1       783-1.04539E-05 4.08827E-05-5.29396E-23
 -1       784-7.19284E-06 2.78745E-05 2.64698E-23
 -1       785-3.66420E-06 1.41267E-05 0.00000E+00
 -1       786 1.93542E-04 3.23804E-05 0.00000E+00
 -1       787 1.93584E-04 3.01772E-05 4.13590E-25
 -1       788 1.93625E-04 2.80159E-05-8.27181E-25
 -1       789 1.93668E-04 2.58883E-05 8.27181E-25
 -1       790 1.93710E-04 2.37897E-05-1.65436E-24
 -1       791 1.93752E-04 2.17152E-05 8.27181E-25
 -1       792 1.93795E-04 1.96626E-05-1.65436E-24
 -1       793 1.93838E-04 1.76298E-05-8.27181E-25
 -1       794 1.93880E-04 1.56166E-05-1.65436E-24
 -1       795 1.93923E-04 1.36227E-05 8.27181E-25
 -1       796 1.93966E-04 1.16500E-05-1.65436E-24
 -1       797 1.94009E-04 9.70039E-06 0.00000E+00
 -1       798 1.94051E-04 7.77801E-06 0.00000E+00
 -1       799 1.94094E-04 5.88714E-06 0.00000E+00
 -1       800 1.94138E-04 4.03522E-06 1.65436E-24
 -1       801 1.47726E-04 3.11355E-05 0.00000E+00
 -1       802 9.31174E-06 1.94267E-05 0.00000E+00
 -1       803-1.08901E-04 9.81700E-06 5.29396E-23
 -1       804-9.65001E-05 6.83351E-06 0.00000E+00
 -1       805-3.18808E-05 2.68470E-06-5.29396E-23
 -1       806 1.94234E-04 3.23117E-05 1.65436E-24
 -1       807 1.94950E-04 3.00160E-05 0.00000E+00
 -1       808 1.95653E-04 2.77519E-05 0.00000E+00
 -1       809 1.96343E-04 2.55232E-05-1.65436E-24
 -1       810 1.97017E-04 2.33342E-05 0.00000E+00
 -1       811 1.97676E-04 2.11886E-05 0.00000E+00
 -1       812 1.98317E-04 1.90905E-05-3.30872E-24
 -1       813 1.98938E-04 1.70437E-05 1.65436E-24
 -1       814 1.99539E-04 1.50521E-05 3.30872E-24
 -1       815 2.00118E-04 1.31196E-05 8.27181E-25
 -1       816 2.00674E-04 1.12501E-05-1.65436E-24
 -1       817 2.01204E-04 9.44752E-06-8.27181E-25
 -1       818 2.01708E-04 7.71564E-06-1.65436E-24
 -1       819 2.02185E-04 6.05836E-06 0.00000E+00
 -1       820 2.02633E-04 4.47949E-06-1.65436E-24
 -1       821 1.94052E-04-1.20076E-07 0.00000E+00
 -1       822 1.93912E-04-3.59997E-06-1.65436E-24
 -1       823 1.93770E-04-7.78898E-06 3.30872E-24
 -1       824 1.93625E-04-1.22617E-05 1.65436E-24
 -1       825 1.93482E-04-1.65163E-05 0.00000E+00
 -1       826 1.93340E-04-2.00520E-05 1.65436E-24
 -1       827 1.93202E-04-2.25637E-05 0.00000E+00
 -1       828 1.93065E-04-2.37526E-05-1.65436E-24
 -1       829 1.92930E-04-2.36796E-05 0.00000E+00
 -1       830 1.92794E-04-2.24133E-05-1.65436E-24
 -1       831 1.92656E-04-2.03468E-05 0.00000E+00
 -1       832 1.92518E-04-1.78782E-05-1.65436E-24
 -1       833 1.92380E-04-1.55150E-05 0.00000E+00
 -1       834 1.92245E-04-1.37640E-05-1.65436E-24
 -1       835 1.92111E-04-1.29661E-05 0.00000E+00
 -1       836 1.95872E-04 2.35466E-06 0.00000E+00
 -1       837 1.97436E-04 2.48268E-06 0.00000E+00
 -1       838 1.98904E-04 2.61063E-06 0.00000E+00
 -1       839 2.00308E-04 2.73788E-06 0.00000E+00
 -1       840 2.01680E-04 2.86497E-06-8.27181E-25
 -1       856 1.91968E-04-1.45189E-05 0.00000E+00
 -1       857 1.91947E-04-1.54444E-05 0.00000E+00
 -1       858 1.91927E-04-1.62542E-05-4.13590E-25
 -1       859 1.91906E-04-1.69697E-05 0.00000E+00
 -1       860 1.91886E-04-1.76123E-05-4.13590E-25
 -1       861 1.91865E-04-1.82036E-05 0.00000E+00
 -1       862 1.91844E-04-1.87651E-05 0.00000E+00
 -1       863 1.91823E-04-1.93185E-05-4.13590E-25
 -1       864 1.91803E-04-1.98854E-05 0.00000E+00
 -1       865 1.91782E-04-2.04874E-05 0.00000E+00
 -1       866 1.91761E-04-2.11460E-05-8.27181E-25
 -1       867 1.91740E-04-2.18829E-05 0.00000E+00
 -1       868 1.91719E-04-2.27193E-05 0.00000E+00
 -1       869 1.91697E-04-2.36768E-05 0.00000E+00
 -1       870 1.91676E-04-2.47766E-05-8.27181E-25
 -1       871 1.93335E-04-1.34612E-05 0.00000E+00
 -1       872 1.94833E-04-1.34696E-05 0.00000E+00
 -1       873 1.96410E-04-1.34786E-05 0.00000E+00
 -1       874 1.97998E-04-1.34885E-05-1.80946E-25
 -1       875 1.99529E-04-1.34989E-05 4.13590E-25
 -1       876 1.92511E-04-1.45054E-05-3.30872E-24
 -1       877 1.93015E-04-1.54881E-05 1.65436E-24
 -1       878 1.93498E-04-1.64122E-05 0.00000E+00
 -1       879 1.93962E-04-1.72850E-05 0.00000E+00
 -1       880 1.94409E-04-1.81138E-05 0.00000E+00
 -1       881 1.94843E-04-1.89058E-05-1.65436E-24
 -1       882 1.95265E-04-1.96681E-05 3.30872E-24
 -1       883 1.95679E-04-2.04081E-05 0.00000E+00
 -1       884 1.96088E-04-2.11329E-05-3.30872E-24
 -1       885 1.96493E-04-2.18497E-05 0.00000E+00
 -1       886 1.96898E-04-2.25658E-05 0.00000E+00
 -1       887 1.97306E-04-2.32883E-05-1.65436E-24
 -1       888 1.97718E-04-2.40244E-05-3.30872E-24
 -1       889 1.98138E-04-2.47816E-05 0.00000E+00
 -1       890 1.98567E-04-2.55669E-05-1.65436E-24
 -1       891 1.93026E-04-2.60987E-05 0.00000E+00
 -1       892 1.94374E-04-2.61576E-05-8.27181E-25
 -1       893 1.95672E-04-2.62164E-05 1.65436E-24
 -1       894 1.96893E-04-2.62749E-05 0.00000E+00
 -1       895 1.98012E-04-2.63332E-05 0.00000E+00
 -1       956 2.02921E-04 1.66052E-06 1.65436E-24
 -1       957 2.02789E-04 4.29680E-07-1.65436E-24
 -1       958 2.02656E-04-7.20451E-07-3.30872E-24
 -1       959 2.02524E-04-1.80120E-06 1.65436E-24
 -1       960 2.02391E-04-2.82395E-06 0.00000E+00
 -1       961 2.02258E-04-3.80010E-06-1.65436E-24
 -1       962 2.02126E-04-4.74107E-06 3.30872E-24
 -1       963 2.01993E-04-5.65831E-06 0.00000E+00
 -1       964 2.01860E-04-6.56324E-06-3.30872E-24
 -1       965 2.01728E-04-7.46729E-06 0.00000E+00
 -1       966 2.01595E-04-8.38192E-06 0.00000E+00
 -1       967 2.01463E-04-9.31855E-06-1.65436E-24
 -1       968 2.01330E-04-1.02886E-05 6.61744E-24
 -1       969 2.01198E-04-1.13035E-05 0.00000E+00
 -1       970 2.01065E-04-1.23745E-05-3.30872E-24
 -1       971 2.00815E-04-1.46508E-05-3.30872E-24
 -1       972 2.00694E-04-1.56948E-05 1.65436E-24
 -1       973 2.00573E-04-1.66548E-05 3.30872E-24
 -1       974 2.00451E-04-1.75418E-05 0.00000E+00
 -1       975 2.00330E-04-1.83662E-05-3.30872E-24
 -1       976 2.00209E-04-1.91390E-05 1.65436E-24
 -1       977 2.00087E-04-1.98707E-05 0.00000E+00
 -1       978 1.99966E-04-2.05723E-05 0.00000E+00
 -1       979 1.99844E-04-2.12544E-05-3.30872E-24
 -1       980 1.99723E-04-2.19279E-05 1.65436E-24
 -1       981 1.99602E-04-2.26035E-05 0.00000E+00
 -1       982 1.99481E-04-2.32919E-05 1.65436E-24
 -1       983 1.99360E-04-2.40040E-05 0.00000E+00
 -1       984 1.99239E-04-2.47506E-05 1.65436E-24
 -1       985 1.99119E-04-2.55422E-05 0.00000E+00
 -3
    1PSTEP                        22          11           1          
  100CL  111 6.62109E-01         409                     0   11           1
 -4  STRESS      6    1
 -5  SXX         1    4    1    1
 -5  SYY         1    4    2    2
 -5  SZZ         1    4    3    3
 -5  SXY         1    4    1    2
 -5  SYZ         1    4    2    3
 -5  SZX         1    4    3    1
 -1         1-5.34089E+06-1.49697E+06-1.12537E+06-1.22996E+06 2.47383E-10 1.09139E-07
 -1         2 1.72234E+06 2.50251E+07 5.74921E+06 7.65612E+06 3.00352E-08 1.24128E-08
 -1         3-1.48183E+03-1.54268E+06 4.02464E+02-2.18512E+03-5.10809E-10-7.61065E-09
 -1         5-7.53192E+01 3.85994E+05 9.96876E+00-1.34026E+00-5.82300E-10-7.23412E-09
 -1         8-5.44073E+05-1.98764E+05-6.31895E+04-2.34575E+05 2.72848E-11 2.67115E-07
 -1         9 1.19345E+07 4.40968E+06 2.92937E+06-1.62858E+05-6.14673E-09-1.19535E-07
 -1        10-2.29459E+03-1.60758E+06-3.90675E+03-1.47884E+04-1.34733E-08-3.38133E-08
 -1        12-7.14060E+01 3.86015E+05 3.27710E+02-9.13783E+00-5.36510E-10 1.02373E-08
 -1        15 8.97420E+02 4.93178E+02 2.90088E+03 7.51020E-01-2.84288E-10-2.61102E-07
 -1        16 2.29172E+07-3.60133E+05 3.11200E+06-2.36770E+06-1.48624E-08 3.54523E-07
 -1        17 8.40603E+06 6.28609E+06 2.26864E+06 6.00966E+06 2.52912E-08 2.50526E-08
 -1        18 1.42053E+05 3.34503E+04 4.11436E+03-1.19434E+05 1.46863E-08 1.11672E-08
 -1        19 1.22306E+05 1.41517E+05-9.44725E+02 2.19445E+04 1.68748E-09 6.74372E-09
 -1        20-8.21003E+04-5.73112E+05-1.28620E+05 2.50325E+04-2.01271E-09 3.53612E-09
 -1        21-4.48806E+01-2.95630E+05-9.10526E+02 2.76662E+02 1.32562E-08-7.74287E-09
 -1        24 1.41530E+07 1.21587E+07 3.91270E+06 1.12554E+07-1.62923E-07-5.14944E-08
 -1        25 1.24673E+05 2.66766E+05 9.98152E+04-6.45644E+05-4.65207E-10 1.93919E-08
 -1        26-5.54794E+04 9.21590E+04-2.46361E+04 1.35187E+03-2.62662E-10 3.16808E-09
 -1        27-7.58203E+04-3.09749E+05-1.13301E+05 6.88891E+04 3.73757E-09 3.28813E-09
 -1        28 2.13637E+04-8.61404E+04 1.69195E+04 2.05895E+04-5.70097E-09 2.87905E-09
 -1        32-1.67872E+06-3.17967E+06-1.97800E+05 4.58506E+05-4.21351E-08-1.37528E-08
 -1        33-1.78327E+05 9.29084E+04 3.23566E+04-3.84008E+04-2.99254E-09-4.87277E-09
 -1        34-2.23469E+05-2.50639E+04 6.85299E+02 7.54359E+04-5.33080E-09-5.21535E-09
 -1        35-2.29483E+04-3.50243E+04-1.61819E+03 5.14548E+04-6.29947E-09 1.84191E-08
 -1        51 6.12659E+04-1.66442E+05 1.29380E+05-4.21053E+05 1.45519E-10-9.68139E-08
 -1        52 2.06503E+04-1.43718E+05 6.77255E+04-4.91106E+05 4.03816E-10-1.55615E-07
 -1        53 4.09519E+03-1.59014E+05 3.50016E+04-4.19624E+05 2.49202E-10-3.97122E-08
 -1        54 7.00869E+03-1.54788E+05 2.82261E+04-4.92490E+05 1.09139E-10-9.81399E-08
 -1        55 1.53139E+04-1.61544E+05 3.37052E+04-4.19556E+05 4.98403E-10-7.53644E-08
 -1        56-9.87097E+06-1.48333E+06-9.60500E+05-4.18602E+06 1.89175E-09 1.58849E-07
 -1        57-1.12914E+07-5.52928E+05-5.32105E+05-2.48718E+06 5.05461E-08 1.38651E-07
 -1        58-9.53298E+06-1.98973E+06-2.03723E+05-4.43529E+06-9.75706E-09-5.54937E-08
 -1        59-1.16484E+07 5.64515E+04-1.01969E+05-2.40658E+06-3.17741E-08-1.20403E-07
 -1        60-9.64670E+06-1.99107E+06-6.35658E+04-4.38338E+06 2.41707E-08-1.78465E-07
 -1        61-1.07409E+07-3.90267E+05 4.11396E+04-2.66494E+06 4.03379E-08 3.21179E-07
 -1        62-1.02261E+07-1.68834E+06-1.15560E+05-4.00219E+06-1.43336E-08 1.98321E-07
 -1        63-9.50828E+06-1.31993E+06 9.42082E+04-3.53118E+06-5.89644E-08-6.02158E-08
 -1        64-1.06990E+07-1.19082E+06-1.06770E+05-3.40643E+06-5.09026E-08 1.95520E-07
 -1        65-9.11350E+06-2.07938E+06 3.56299E+04-4.74643E+06-6.07033E-08 1.83537E-07
 -1        66-1.08231E+07-7.88354E+05-5.02919E+04-2.94143E+06 4.62751E-09-5.95355E-09
 -1        67-9.21477E+06-2.37551E+06-9.12821E+04-5.33611E+06-6.49597E-08 7.72707E-08
 -1        68-1.08030E+07-7.48701E+05-1.91503E+05-2.94004E+06-9.00218E-08-1.61730E-07
 -1        69-9.30758E+06-2.41560E+06-4.68624E+05-4.71717E+06-8.85484E-09-3.95652E-07
 -1        70-1.05363E+07-8.97947E+05-8.88106E+05-3.43989E+06 1.64255E-08-3.83588E-08
 -1        86-1.75834E+06-1.71932E+07-3.15136E+06-3.58458E+06-2.89419E-07-1.47484E-07
 -1        87 2.80872E+06 7.37977E+06 2.61916E+06 6.43812E+06-4.95253E-07 5.08226E-08
 -1        88-5.50956E+05-1.76067E+06 2.53036E+05-2.76700E+06-4.34631E-07-1.17316E-07
 -1        89 3.75667E+06 7.01511E+06 2.68784E+06 6.67051E+06-6.34900E-07-4.37949E-08
 -1        90-2.58979E+06-1.69201E+07-3.39499E+06-3.85576E+06-1.70061E-07 3.53772E-07
 -1       121-2.02962E+03-1.54756E+06-5.46957E+02 1.08299E+03 1.42529E-09-4.04616E-08
 -1       122-1.29823E+03-1.54274E+06 7.62388E+02-4.37458E+03-5.49356E-09-8.17818E-09
 -1       123-2.04946E+03-1.54769E+06 2.52660E+02 3.23458E+03 4.63751E-09 1.59198E-08
 -1       124 3.20537E+02-1.54229E+06 2.91957E+03-9.15972E+03-1.01818E-08 1.98197E-08
 -1       125-2.85061E+03-1.54858E+06 3.41864E+03 5.82236E+03 6.71207E-09-4.86034E-09
 -1       191-7.93717E+01 3.86012E+05 8.46846E+00 6.98907E-01-5.85648E-10 7.38328E-09
 -1       192-7.62817E+01 3.85994E+05 2.12735E+01-4.30092E+00-7.08027E-10 5.82077E-11
 -1       193-8.19053E+01 3.86012E+05 3.62101E+01 3.77821E+00-1.07473E-09-2.28738E-08
 -1       194-7.93677E+01 3.85998E+05 8.08733E+01-9.76121E+00-6.55056E-10-2.37760E-08
 -1       195-8.67682E+01 3.86009E+05 1.54826E+02 6.35270E+00-1.51650E-09-7.67250E-09
 -1       251-8.84311E+05 1.75256E+04-4.08915E+04-1.63425E+04 1.60851E-09 1.96978E-07
 -1       252-8.99705E+05-2.02884E+04-2.84363E+04 5.88751E+04 7.04460E-10-2.57573E-08
 -1       253-8.93571E+05 2.71053E+03-1.10434E+04-1.20119E+04-3.92879E-09 1.73605E-07
 -1       254-8.84122E+05-3.30170E+03-4.72005E+03 4.27927E+04 6.92762E-09-1.10492E-08
 -1       255-8.99121E+05 1.36854E+01-4.03976E+03-2.64960E+02-4.20459E-09 2.62278E-07
 -1       256-8.77031E+05-2.96094E+02 1.70918E+03 1.57754E+04 7.87747E-09 3.03860E-07
 -1       257-9.00054E+05-7.46264E+02-1.84200E+03 1.49886E+04-4.68481E-09 7.11161E-08
 -1       258-8.80431E+05 1.09858E+03 3.24329E+03-1.30703E+04-1.36083E-10-6.18979E-08
 -1       259-8.96008E+05-1.15488E+03 1.12048E+03 2.85763E+04-5.49289E-09-2.83724E-08
 -1       260-8.88958E+05 3.32808E+03 5.73924E+03-3.40558E+04 1.50960E-08-9.84937E-09
 -1       261-8.92350E+05-2.33619E+03 8.57809E+03 3.59975E+04 1.26946E-08 1.40974E-07
 -1       262-8.88655E+05 1.22030E+04 2.13777E+04-4.03103E+04-3.58970E-08-2.48438E-07
 -1       263-8.96652E+05-9.73089E+03 3.37638E+04 3.48449E+04 2.13960E-08 1.03368E-07
 -1       264-8.56897E+05 6.70123E+04 9.39143E+04-2.96564E+04 2.30489E-09 1.19584E-07
 -1       265-9.23485E+05-5.73784E+04 1.30027E+05 2.53250E+04 2.37278E-08 2.06652E-07
 -1       266-1.62465E+04-7.59772E+03 3.81148E+04-1.60680E+01 1.96451E-10 1.44992E-07
 -1       267 1.88339E+04 8.85398E+03 2.69411E+04 1.85411E+01 3.23780E-10 1.44257E-07
 -1       268-2.52560E+03-1.25404E+03 1.00138E+04-2.36236E+00 2.45564E-11-4.33457E-08
 -1       269 2.98198E+03 1.50074E+03 6.50889E+03 2.75190E+00-2.45564E-11 3.64580E-08
 -1       270-4.47595E+02-2.46584E+02 3.14193E+03-3.73448E-01 6.25278E-11 4.87552E-09
 -1       271-1.41546E+06-1.82184E+05-1.06905E+05-5.52152E+05-2.84017E-08 1.40040E-07
 -1       272-1.39882E+06-2.99726E+05-6.66272E+04-5.99940E+05 2.03599E-08-2.50830E-07
 -1       273-1.43836E+06-2.04048E+05-2.61198E+04-5.44065E+05 3.71474E-08 2.17140E-07
 -1       274-1.37346E+06-2.73170E+05-1.32887E+04-6.15851E+05 1.55287E-08 7.24740E-08
 -1       275-1.44403E+06-2.03114E+05-6.61831E+03-5.40168E+05-6.69388E-10-1.52670E-07
 -1       276-1.36841E+06-2.74403E+05-2.62475E+03-6.25208E+05-1.24783E-08 9.42346E-08
 -1       277-1.44697E+06-2.00216E+05-1.86203E+03-5.37351E+05 1.07466E-08 1.64406E-07
 -1       278-1.36666E+06-2.77642E+05-6.10506E+02-6.32060E+05-1.38316E-08-1.76481E-08
 -1       279-1.44883E+06-1.97922E+05-7.94606E+02-5.35404E+05 2.23499E-08-2.31791E-07
 -1       280-1.36594E+06-2.79976E+05-8.01378E+02-6.36471E+05-3.49646E-08-4.00883E-09
 -1       281-1.44979E+06-1.96554E+05-1.49373E+03-5.34348E+05-2.44390E-08 2.60907E-07
 -1       282-1.36632E+06-2.81838E+05-3.45685E+03-6.38168E+05-3.16446E-08-2.02813E-07
 -1       283-1.44936E+06-1.95577E+05-6.16456E+03-5.34277E+05 2.17790E-09-1.73864E-07
 -1       284-1.37189E+06-2.89664E+05-1.67697E+04-6.35937E+05-8.56980E-08-2.35732E-07
 -1       285-1.44392E+06-1.89833E+05-2.62956E+04-5.36005E+05-1.05410E-09-1.53384E-07
 -1       301-1.25494E+04-6.57439E+05 1.65944E+05-1.16235E+06 5.34055E-09-1.67580E-07
 -1       302-1.57571E+04-6.09272E+05 9.98861E+04-1.69582E+06-1.60071E-08-1.33034E-07
 -1       303-2.61877E+04-6.51223E+05 5.61511E+04-1.15908E+06-1.00408E-08 4.13547E-08
 -1       304-3.13144E+04-6.17441E+05 5.60042E+04-1.69535E+06-9.53150E-09 3.92971E-07
 -1       305-3.08053E+04-6.39741E+05 6.81863E+04-1.16215E+06 1.66365E-08 2.07030E-07
 -1       306-3.00125E+07-6.18142E+06-8.56688E+06-4.45709E+05-1.13039E-07-2.34577E-07
 -1       307 2.50028E+07 3.28814E+06 5.46421E+06-1.53244E+07-8.22474E-07 5.47443E-08
 -1       308-6.83480E+06-9.75151E+05-4.05571E+05 5.19056E+06-3.03087E-07 4.75411E-07
 -1       309-3.07406E+06 8.64391E+06 2.29555E+06-2.06954E+07 2.10825E-07 2.75257E-07
 -1       310-1.27795E+07-1.95677E+06-2.09802E+06 5.18876E+06 1.34052E-07-2.43017E-07
 -1       311 3.88901E+07-4.61862E+04 7.33991E+06-8.51939E+06 3.51836E-07-2.95462E-07
 -1       312-3.19546E+07-6.86899E+06-8.57322E+06-5.21662E+06 2.68803E-07-1.03202E-07
 -1       313 4.51384E+07 1.53664E+07 1.06772E+07 2.40409E+07-3.86877E-07 9.28703E-08
 -1       314-1.70061E+07-1.79061E+07-7.49980E+06-1.25037E+07 3.88478E-07 7.37491E-08
 -1       315-2.11618E+06 2.97901E+07 5.63346E+06 1.02636E+07-2.95113E-07 7.92788E-08
 -1       316 1.47726E+06-9.77584E+06-4.04499E+05-2.44607E+06-1.26180E-06-2.20229E-07
 -1       317-1.70459E+07 2.23980E+07 2.24624E+06-8.92124E+06 9.51542E-07-9.62493E-07
 -1       318-1.12177E+06-1.29001E+07-2.08834E+06-4.25689E+06-9.26899E-07 1.73168E-07
 -1       319 7.38735E+06 3.21125E+07 7.08742E+06 1.67418E+07-8.77408E-08 2.58471E-07
 -1       320-2.26588E+07-1.76824E+07-9.88612E+06-1.28405E+07 1.67987E-07-4.88653E-08
 -1       336-7.57158E+02-1.67528E+06-1.37161E+04 8.79697E+03-2.64808E-08 1.09867E-08
 -1       337-5.37139E+03-1.67478E+06-1.78851E+04-2.13835E+04-5.00195E-08 4.90400E-09
 -1       338 2.52772E+02-1.67477E+06-2.81863E+04 1.23362E+04-3.49119E-08-1.06193E-08
 -1       339-2.99176E+04-1.69184E+06-6.36808E+04-2.83202E+04-6.23750E-08 2.63099E-08
 -1       340 1.96736E+04-1.66038E+06-1.00330E+05 1.56034E+04-4.18549E-08 3.80969E-08
 -1       406-4.97358E+01 3.85995E+05 6.43448E+02 3.33854E+00-1.89081E-09 5.10772E-09
 -1       407 1.54569E+02 3.86129E+05 1.37510E+03 2.34364E+01-5.59218E-10-2.45964E-08
 -1       408 6.34095E+02 3.85894E+05 2.74184E+03-2.70940E+01-2.48883E-09 6.67205E-09
 -1       409 2.90365E+03 3.87004E+05 6.17988E+03 2.89157E+02-3.53793E-10 3.19869E-09
 -1       410 8.47039E+03 3.85105E+05 1.26129E+04-2.78808E+02-2.88492E-09-7.58700E-09
 -1       521-3.16775E+07-7.67294E+06-1.00640E+07-4.45980E+04-1.26893E-07 7.77072E-08
 -1       522 2.59957E+07 4.37954E+06 5.60464E+06-1.89146E+07-5.99888E-07-4.36325E-07
 -1       523-7.40466E+06-1.29785E+06-3.97081E+05 5.66092E+06 2.47965E-08-1.43045E-07
 -1       524-6.57278E+06 1.17994E+07 2.49922E+06-2.38463E+07 9.75757E-07-6.58794E-07
 -1       525-1.35934E+07-2.62368E+06-2.31970E+06 5.67083E+06 3.38187E-07-2.38069E-07
 -1       526 4.27217E+07-1.58091E+05 7.73850E+06-1.11848E+07 2.69909E-07-5.68107E-08
 -1       527-3.39366E+07-8.61015E+06-9.93367E+06-5.09578E+06 8.14907E-08 2.37662E-07
 -1       528 4.95099E+07 1.72684E+07 1.11910E+07 2.74989E+07-5.97909E-07 9.58971E-08
 -1       529-1.79780E+07-2.02254E+07-8.64330E+06-1.25664E+07-4.65661E-10-9.54606E-09
 -1       530-4.61012E+06 3.47743E+07 5.99464E+06 9.67184E+06-5.04951E-08 5.24393E-07
 -1       531 1.50223E+06-1.08709E+07-3.74901E+05-2.36213E+06-9.13322E-07 4.82891E-07
 -1       532-1.95260E+07 2.44637E+07 2.47113E+06-1.33484E+07 3.30503E-07-6.45414E-07
 -1       533-1.15586E+06-1.41125E+07-2.24050E+06-4.03631E+06-2.66649E-07-9.66073E-07
 -1       534 5.43561E+06 3.74946E+07 7.41559E+06 1.74103E+07-3.49246E-08 7.45698E-07
 -1       535-2.39203E+07-2.01889E+07-1.13943E+07-1.29570E+07 1.47964E-07 4.71424E-07
 -1       536-7.05639E+05-4.64520E+04-4.86812E+04-5.46321E+04-1.23055E-09 6.07060E-08
 -1       537-5.54005E+04 4.43552E+04 8.34329E+04 1.23761E+05-1.16092E-07 9.16248E-08
 -1       538-3.94386E+05 3.37974E+03 3.40307E+03-7.21610E+04 2.47251E-08 1.05582E-07
 -1       539-2.69214E+05 2.80273E+03 2.47968E+04 1.38656E+05 1.71457E-07 1.09638E-07
 -1       540-4.97199E+05-4.18342E+02-2.13333E+04-7.00608E+04-1.19062E-08 9.39428E-08
 -1       541 1.46067E+05 1.69440E+04 1.06246E+05 9.78583E+04-8.20855E-08 7.24049E-08
 -1       542-7.98478E+05-2.01130E+04-8.41563E+04-3.04897E+04 5.35092E-08 2.52547E-08
 -1       543 4.04495E+05 2.72959E+04 1.57796E+05-1.33533E+04 2.33442E-08-2.34400E-08
 -1       544-7.48696E+05-1.65193E+04-7.47588E+04 4.04823E+04-1.87820E-08-4.72727E-08
 -1       545 2.85111E+04 9.47200E+03 7.97195E+04-1.13546E+05-3.15155E-08-8.01765E-08
 -1       546-4.32592E+05 6.09082E+03-1.22177E+04 6.93577E+04 1.13039E-08-8.67183E-08
 -1       547-2.87248E+05-4.65600E+03 1.05669E+04-1.41498E+05-9.75204E-08-1.07804E-07
 -1       548-4.41426E+05 4.71750E+03-2.38658E+04 6.91241E+04-1.09095E-07-8.77753E-08
 -1       549 4.76842E+04 1.60387E+04 6.04289E+04-1.11406E+05-4.61665E-08-7.36600E-08
 -1       550-7.58561E+05-2.21036E+04-1.28868E+05 3.85505E+04 9.81890E-09-3.10429E-08
 -1       551 4.06243E+04-7.44950E+05-1.59570E+04-1.24502E+06-1.03275E-07-2.83762E-08
 -1       552 9.29601E+04-7.89821E+05 9.83820E+03-1.77517E+06-7.26577E-08 2.89874E-08
 -1       553 7.15477E+04-7.86262E+05 3.19317E+04-1.23838E+06-1.18118E-07 2.86527E-08
 -1       554 1.31698E+05-8.05715E+05 8.08447E+04-1.77712E+06-7.23230E-08 1.44064E-08
 -1       555 1.01257E+05-8.09909E+05 1.47671E+05-1.23821E+06-1.22462E-07-1.51485E-08
 -1       556 2.23544E+05-3.83469E+05 2.51660E+04-4.06908E+05-2.42144E-08-7.71252E-09
 -1       557 3.53891E+05-4.87726E+05 1.58407E+04-5.27326E+05 1.20781E-09 3.41242E-09
 -1       558 2.05305E+05-3.76173E+05 2.20069E+03-4.11405E+05-2.11003E-08-4.36557E-11
 -1       559 3.28980E+05-4.87726E+05 2.37771E+03-5.47751E+05 2.04745E-08-4.16912E-09
 -1       560 1.90018E+05-3.66586E+05-1.52962E+03-4.22420E+05 1.04483E-08 1.65965E-08
 -1       561 3.09781E+05-4.80037E+05 1.16601E+02-5.60844E+05 4.19095E-09-1.21618E-08
 -1       562 1.77933E+05-3.59079E+05-1.33070E+03-4.31170E+05 6.03904E-09 4.14002E-09
 -1       563 2.95428E+05-4.73780E+05-3.98109E+01-5.70218E+05-6.25005E-09 6.56109E-09
 -1       564 1.69309E+05-3.53706E+05-6.01216E+02-4.37281E+05 7.13044E-10 5.78393E-09
 -1       565 2.85909E+05-4.69634E+05 2.30900E+01-5.76300E+05 1.48430E-09 2.41726E-08
 -1       566 1.64268E+05-3.50517E+05-2.60325E+02-4.40806E+05-9.62609E-09-8.67476E-09
 -1       567 2.81283E+05-4.67622E+05-3.63063E+02-5.79109E+05 2.25118E-08 9.90985E-09
 -1       568 1.62902E+05-3.49680E+05-1.12617E+03-4.41858E+05 5.56611E-09 8.17454E-09
 -1       569 2.80163E+05-4.67549E+05-2.84393E+03-5.77679E+05-7.58155E-09 6.82849E-09
 -1       570 1.66301E+05-3.52914E+05-6.21650E+03-4.40838E+05 1.11977E-08 1.05310E-08
 -1       571 2.90299E+05 1.05003E+04 1.49783E+04-9.51843E+04-6.65477E-09 1.46883E-09
 -1       572 2.92470E+05 3.95855E+03 7.34056E+03-1.04427E+05-1.91976E-08-1.27648E-08
 -1       573 2.91161E+05 1.24599E+03 3.26165E+03-9.50080E+04-7.31961E-09 2.04182E-09
 -1       574 2.91375E+05 7.27971E+02 1.63570E+03-1.04651E+05 1.25760E-09-9.00400E-10
 -1       575 2.91255E+05 4.48849E+02 7.72007E+02-9.49839E+04-1.22612E-08 1.51385E-08
 -1       576 2.91239E+05 4.60267E+02 3.95274E+02-1.04681E+05-2.85968E-08 2.66600E-08
 -1       577 2.91295E+05 3.90722E+02 1.97340E+02-9.49806E+04-1.75623E-08 2.11166E-08
 -1       578 2.91270E+05 4.22150E+02 1.14037E+02-1.04685E+05-3.68709E-09 1.02091E-08
 -1       579 2.91367E+05 3.53965E+02 7.83848E+01-9.49803E+04 5.97902E-09-1.12987E-08
 -1       580 2.91372E+05 3.71056E+02 9.10730E+01-1.04681E+05-1.01927E-08 4.32192E-09
 -1       581 2.91481E+05 2.95334E+02 1.37654E+02-9.49862E+04 4.63297E-09-1.26720E-08
 -1       582 2.91547E+05 3.33713E+02 2.79931E+02-1.04619E+05 1.70621E-09-1.89721E-09
 -1       583 2.91622E+05 3.38012E+02 5.37341E+02-9.50428E+04 1.36788E-09 9.76570E-10
 -1       584 2.91923E+05 7.76946E+02 1.21595E+03-1.04142E+05 2.22644E-09-1.04410E-09
 -1       585 2.91647E+05 1.80040E+03 2.46230E+03-9.54621E+04-3.42880E-09-4.52201E-09
 -1       586-3.42081E+03 1.16866E+05-2.90972E+03-2.50509E+05-3.70528E-09-8.31233E-09
 -1       587-1.33873E+03 1.16618E+05 7.74647E+02-2.75704E+05-1.00263E-08-1.41874E-08
 -1       588 3.97576E+02 1.16425E+05 4.76057E+03-2.50371E+05-6.55200E-09-2.77851E-09
 -1       589 5.08343E+03 1.18898E+05 1.23440E+04-2.75471E+05-8.59472E-09-2.52112E-09
 -1       590 1.66069E+04 1.15091E+05 2.58929E+04-2.50803E+05-8.80937E-09 1.80225E-08
 -1       591-7.49824E+04-1.59550E+04-2.25196E+04-3.19358E+04 3.53475E-09-1.44646E-08
 -1       592-7.90764E+04-1.95047E+04-1.21984E+04-3.55520E+04 1.21929E-08-3.08237E-08
 -1       593-7.72345E+04-1.43211E+04-5.07760E+03-3.35871E+04 8.89020E-09 1.75692E-09
 -1       594-7.59672E+04-1.62001E+04-2.53232E+03-3.56696E+04 1.60707E-09 7.21289E-09
 -1       595-7.74062E+04-1.43157E+04-1.16259E+03-3.36621E+04 4.50589E-09-5.24082E-09
 -1       596-7.57543E+04-1.60489E+04-5.90784E+02-3.56442E+04 8.94846E-09-6.12440E-09
 -1       597-7.74277E+04-1.43311E+04-3.21232E+02-3.36650E+04 7.37623E-09-1.53768E-08
 -1       598-7.57334E+04-1.60430E+04-2.57376E+02-3.56371E+04 8.02231E-10-4.88981E-09
 -1       599-7.74265E+04-1.43316E+04-3.27699E+02-3.36646E+04 9.25252E-09-9.85892E-10
 -1       600-7.57544E+04-1.60495E+04-6.07904E+02-3.56421E+04 4.11910E-09 1.27966E-09
 -1       601-7.74018E+04-1.43171E+04-1.19882E+03-3.36612E+04 5.24096E-09-3.55180E-09
 -1       602-7.59739E+04-1.62042E+04-2.61247E+03-3.56643E+04-3.75474E-09-1.86277E-08
 -1       603-7.72220E+04-1.43255E+04-5.23896E+03-3.35846E+04 1.28407E-08 8.23775E-09
 -1       604-7.91995E+04-1.95941E+04-1.25852E+04-3.55182E+04 3.00390E-08-4.99767E-09
 -1       605-7.48784E+04-1.60292E+04-2.32338E+04-3.19003E+04 1.89985E-08 1.90121E-08
 -1       606 2.65705E+04-1.43227E+04-2.56759E+04 2.39046E+04 4.59113E-09-1.81312E-08
 -1       607 2.21834E+04-4.67768E+03-1.27865E+04 2.68638E+04-1.47884E-09-2.37924E-08
 -1       608 2.46839E+04-8.43756E+02-5.72408E+03 2.37366E+04-2.37014E-09-1.36642E-08
 -1       609 2.42046E+04-2.89055E+02-2.89166E+03 2.70772E+04 5.66706E-09 2.06571E-08
 -1       610 2.44705E+04-4.09384E+01-1.37963E+03 2.37166E+04 4.40286E-09 1.75692E-09
 -1       611 2.43953E+04-4.12755E+01-6.95596E+02 2.71002E+04 8.80618E-09-3.08614E-09
 -1       612 2.44236E+04-2.73207E+01-3.30652E+02 2.37146E+04 1.99634E-09-5.54587E-09
 -1       613 2.44071E+04-3.72654E+01-1.48122E+02 2.71029E+04 3.18823E-09-2.81495E-08
 -1       614 2.44015E+04-3.38072E+01-3.46045E+01 2.37139E+04 1.44973E-09-1.03948E-08
 -1       615 2.44019E+04-3.58382E+01 6.23929E+01 2.71033E+04-1.97542E-09-3.47154E-09
 -1       616 2.43842E+04-3.07348E+01 1.86810E+02 2.37142E+04-7.88532E-10-4.89763E-10
 -1       617 2.44245E+04 3.91503E+00 4.26100E+02 2.71029E+04-2.56705E-09 9.53150E-10
 -1       618 2.43473E+04 9.20589E+01 8.58833E+02 2.37144E+04-1.22991E-08 3.99837E-09
 -1       619 2.47277E+04 6.67930E+02 1.92855E+03 2.71023E+04-1.51767E-08-9.40145E-09
 -1       620 2.40621E+04 2.12854E+03 3.87632E+03 2.37160E+04-8.11019E-09-2.03386E-08
 -1       621 5.10332E+02 3.01150E+05 3.87766E+03 4.10890E+04 9.77707E-10-7.96626E-09
 -1       622 6.76717E+02 3.02045E+05 3.44258E+03 5.96519E+04 1.36424E-09-1.52304E-08
 -1       623 1.43226E+02 3.01344E+05 4.13822E+03 4.09031E+04 1.15870E-09 3.94903E-09
 -1       624 2.12575E+03 3.03262E+05 8.02363E+03 5.98350E+04 1.34975E-09 1.70203E-08
 -1       625 2.07668E+03 2.99752E+05 1.40215E+04 4.08999E+04 1.40471E-09-1.20456E-08
 -1       626 2.60766E+05 6.13360E+04 5.12457E+03 1.26614E+05 5.05133E-09-3.03953E-09
 -1       627 2.58456E+05 6.27242E+04 2.46949E+03 1.30880E+05-7.29869E-10-2.02324E-08
 -1       628 2.60894E+05 5.89917E+04 1.04442E+03 1.27486E+05-5.84077E-09-1.35631E-08
 -1       629 2.57821E+05 6.20430E+04 5.11179E+02 1.31119E+05-5.49335E-09 6.81229E-09
 -1       630 2.60908E+05 5.88784E+04 2.37220E+02 1.27523E+05-1.27784E-09 1.58566E-08
 -1       631 2.57755E+05 6.20170E+04 1.27768E+02 1.31121E+05 7.91078E-09-9.18362E-09
 -1       632 2.60905E+05 5.88823E+04 8.42697E+01 1.27519E+05 4.45198E-09-2.19984E-08
 -1       633 2.57746E+05 6.20188E+04 9.41780E+01 1.31118E+05 8.75389E-10 1.58884E-08
 -1       634 2.60901E+05 5.88794E+04 1.52461E+02 1.27518E+05-3.10530E-09 2.15375E-08
 -1       635 2.57761E+05 6.20170E+04 3.08668E+02 1.31123E+05-4.77021E-09 1.03842E-08
 -1       636 2.60891E+05 5.88736E+04 6.23442E+02 1.27518E+05-9.64974E-10 3.10683E-09
 -1       637 2.57896E+05 6.21140E+04 1.37085E+03 1.31123E+05 6.15591E-09 1.08184E-08
 -1       638 2.60843E+05 5.91764E+04 2.81660E+03 1.27381E+05 5.82077E-11 5.80712E-10
 -1       639 2.59375E+05 6.41718E+04 6.66423E+03 1.30687E+05 6.54586E-09-2.56114E-09
 -1       640 2.60638E+05 6.53212E+04 1.38294E+04 1.24792E+05 4.47881E-09-3.16959E-10
 -1       656 6.65112E+04-1.70234E+06-1.60555E+05-2.56241E+03-5.16593E-10-7.30995E-09
 -1       657-8.79903E+04-1.77489E+06-1.33013E+05 5.14846E+03-9.90440E-10-1.80013E-08
 -1       658 2.12032E+04-1.72294E+06-8.19241E+04-4.64155E+03 1.30740E-10 2.57702E-09
 -1       659-9.51600E+04-1.77830E+06-1.42436E+05 6.87676E+03-1.92267E-09-1.38002E-08
 -1       660 7.36649E+04-1.69894E+06-1.76754E+05-4.29071E+03-1.89175E-09 6.13724E-09
 -1       661 1.57804E+05 1.65023E+04 1.66531E+04 6.16852E+04 6.68479E-10-1.45792E-09
 -1       662 1.67166E+05 2.88868E+04 1.12230E+04 5.80086E+04-8.37474E-10 1.16646E-08
 -1       663 1.61074E+05 2.18453E+04 3.92514E+03 6.07363E+04-6.93376E-10 9.89917E-09
 -1       664 1.63374E+05 2.26385E+04 2.34807E+03 5.91676E+04 3.45639E-09 1.96215E-09
 -1       665 1.61570E+05 2.25752E+04 9.26404E+02 6.05917E+04 2.43040E-09 1.59119E-09
 -1       666 1.62788E+05 2.18038E+04 5.42470E+02 5.93562E+04 6.12718E-09 1.65792E-09
 -1       667 1.61657E+05 2.26581E+04 2.88706E+02 6.05555E+04-1.10211E-09 1.45616E-08
 -1       668 1.62692E+05 2.17444E+04 2.95303E+02 5.94091E+04-4.88002E-09-2.23993E-08
 -1       669 1.61665E+05 2.26328E+04 4.00804E+02 6.05392E+04-2.70197E-09 1.12710E-08
 -1       670 1.62789E+05 2.19626E+04 8.73656E+02 5.94122E+04-7.80181E-09-1.73566E-09
 -1       671 1.61560E+05 2.24445E+04 1.55153E+03 6.05503E+04 2.06500E-09-1.65817E-08
 -1       672 1.63693E+05 2.34728E+04 3.96984E+03 5.91938E+04 3.46387E-09-1.38522E-08
 -1       673 1.60766E+05 2.11609E+04 6.65286E+03 6.07430E+04 1.41790E-09-8.73888E-09
 -1       674 1.70024E+05 3.41624E+04 1.90259E+04 5.73347E+04 2.70234E-10-1.86235E-08
 -1       675 1.55269E+05 1.20542E+04 2.82411E+04 6.22971E+04-1.51977E-09-1.25801E-08
 -1       676 2.37685E+01-2.95554E+05-1.09742E+03-1.38335E+02 9.10944E-10 3.16401E-09
 -1       677-2.90259E+02-2.95819E+05-2.00847E+03 2.76447E+02 9.85355E-09-1.78758E-08
 -1       678 1.94709E+02-2.95365E+05-3.55049E+03-1.38023E+02 9.96579E-10-9.04292E-09
 -1       679-3.55051E+03-2.97962E+05-8.43448E+03 2.75235E+02 9.55595E-09 1.34896E-08
 -1       680 2.11988E+03-2.93412E+05-1.35935E+04-1.35618E+02 4.32010E-09 2.27145E-08
 -1       771-3.05851E+06-7.46737E+05-1.66388E+05-1.46445E+06-3.33530E-08-2.58151E-08
 -1       772-2.98149E+06-8.35664E+05-8.57984E+04-1.56725E+06-1.97761E-08 1.42936E-08
 -1       773-3.09005E+06-7.22152E+05-4.37108E+04-1.47904E+06-1.89175E-08 9.54606E-09
 -1       774-2.97191E+06-8.17055E+05-1.95075E+04-1.59302E+06 2.00234E-08 5.06770E-09
 -1       775-3.10650E+06-7.10614E+05-1.45743E+04-1.48610E+06-1.41445E-08 8.07631E-09
 -1       776-2.98426E+06-8.14008E+05-5.45316E+03-1.61251E+06-2.06201E-08 1.30713E-08
 -1       777-3.12077E+06-7.00317E+05-6.43337E+03-1.49232E+06-9.02219E-09 2.36469E-09
 -1       778-2.99716E+06-8.11179E+05-1.82003E+03-1.62925E+06-2.64845E-09 8.89122E-09
 -1       779-3.13304E+06-6.91319E+05-3.21302E+03-1.49764E+06-1.17579E-08-5.14410E-09
 -1       780-3.00852E+06-8.08482E+05-5.32917E+02-1.64289E+06-1.19326E-08 1.09139E-11
 -1       781-3.14279E+06-6.84066E+05-1.24733E+03-1.50180E+06-3.36004E-08-3.19596E-09
 -1       782-3.01727E+06-8.06192E+05 4.51201E+02-1.65296E+06-4.13420E-08-4.85943E-09
 -1       783-3.14966E+06-6.79026E+05 7.03222E+02-1.50471E+06-1.08630E-08-1.48684E-08
 -1       784-3.02212E+06-8.03904E+05 2.90969E+03-1.65917E+06-1.61381E-08-8.13998E-10
 -1       785-3.15372E+06-6.76018E+05 5.13723E+03-1.50656E+06-3.76895E-08 7.19774E-09
 -1       786 1.23149E+05-9.74581E+03 2.25479E+04-3.21353E+02 3.15278E-09-1.23036E-08
 -1       787 1.32928E+05 1.12835E+04 1.59517E+04-1.34802E+02 6.48471E-09-1.57988E-08
 -1       788 1.26919E+05-1.52719E+03 5.83361E+03-2.86312E+02 3.68112E-09 7.26732E-09
 -1       789 1.28535E+05 1.76769E+03 3.66212E+03-1.88497E+02-2.55007E-09 2.85013E-09
 -1       790 1.27542E+05-2.37778E+02 1.48271E+03-2.67675E+02-4.18453E-09 1.50283E-09
 -1       791 1.27807E+05 2.75107E+02 8.56345E+02-2.20384E+02-1.06474E-08-1.90411E-08
 -1       792 1.27647E+05-3.57282E+01 3.62814E+02-2.54427E+02-2.93466E-09-8.51345E-09
 -1       793 1.27681E+05 3.77146E+01 1.80716E+02-2.45290E+02 2.46370E-09-8.76953E-09
 -1       794 1.27668E+05-5.35573E-01 4.66528E+01-2.42769E+02 6.38514E-09-1.55979E-08
 -1       795 1.27644E+05-2.76856E+01-5.85526E+01-2.69584E+02-5.06137E-09-1.94188E-09
 -1       796 1.27684E+05 2.96354E+01-1.63938E+02-2.30133E+02 4.27594E-09 1.25823E-08
 -1       797 1.27549E+05-2.21240E+02-4.49573E+02-2.98566E+02 3.08771E-09 8.08143E-10
 -1       798 1.27763E+05 1.92873E+02-7.29975E+02-2.13788E+02 2.98400E-09-3.45057E-09
 -1       799 1.26995E+05-1.42168E+03-2.00815E+03-3.39001E+02 5.75110E-09-9.46056E-09
 -1       800 1.28238E+05 1.22910E+03-2.84190E+03-1.89699E+02 8.55920E-10 3.79418E-09
 -1       801-1.70726E+05-9.99095E+06-1.39227E+06 1.41388E+06 9.10368E-08-4.90909E-08
 -1       802 7.37181E+05 5.94100E+06 2.17929E+06-1.74516E+06 2.57154E-07-3.43089E-08
 -1       803-5.36107E+05-1.42574E+07-1.88905E+06 8.96794E+05 7.74780E-08 2.28465E-08
 -1       804 2.86837E+05 2.39036E+06 1.53574E+06 6.77008E+05-1.20122E-07-8.98954E-08
 -1       805 1.89288E+05-6.45442E+06-2.86563E+05-1.00263E+06-5.02550E-08-6.35691E-08
 -1       806-3.08642E+05-5.96764E+04-2.28261E+04-1.22268E+05-6.03586E-09 1.19899E-08
 -1       807-3.10441E+05-5.59469E+04-1.12143E+04-1.27803E+05 2.92403E-09-8.43083E-09
 -1       808-3.09268E+05-5.14502E+04-4.75745E+03-1.26157E+05-6.78438E-09-5.97993E-11
 -1       809-3.08083E+05-5.27957E+04-2.32627E+03-1.28078E+05-8.01447E-09-1.57413E-08
 -1       810-3.09363E+05-5.11638E+04-1.06627E+03-1.26329E+05 8.20910E-09 3.69801E-09
 -1       811-3.07901E+05-5.26691E+04-5.30276E+02-1.28042E+05 2.44836E-09-1.09922E-08
 -1       812-3.09377E+05-5.11885E+04-2.68276E+02-1.26329E+05-1.95087E-09-1.28030E-08
 -1       813-3.07876E+05-5.26712E+04-1.74492E+02-1.28024E+05-3.23462E-09-2.20703E-08
 -1       814-3.09370E+05-5.11982E+04-1.73151E+02-1.26324E+05 2.72848E-10-2.03754E-08
 -1       815-3.07879E+05-5.26735E+04-2.79180E+02-1.28016E+05-1.91449E-10-8.34757E-09
 -1       816-3.09349E+05-5.11973E+04-5.29268E+02-1.26321E+05 2.72848E-11-1.12277E-09
 -1       817-3.07969E+05-5.27239E+04-1.13593E+03-1.28005E+05-1.12964E-08 3.21852E-08
 -1       818-3.09280E+05-5.13577E+04-2.31692E+03-1.26245E+05-1.26693E-09-7.11225E-09
 -1       819-3.09237E+05-5.41237E+04-5.45154E+03-1.27704E+05 4.66844E-09-7.90351E-09
 -1       820-3.08843E+05-5.54759E+04-1.10959E+04-1.24486E+05-3.57068E-09-1.17529E-08
 -1       821-3.78590E+05 2.08516E+04-4.85276E+04 2.10707E+03 1.41585E-08-1.06993E-08
 -1       822-3.98323E+05-2.41547E+04-3.41129E+04-4.38665E+03 5.43238E-09-2.51021E-09
 -1       823-3.86069E+05 3.28627E+03-1.25353E+04 3.38878E+03-1.19154E-08 9.67020E-09
 -1       824-3.89303E+05-3.78994E+03-7.84759E+03-5.27111E+03 6.92657E-10 1.83686E-08
 -1       825-3.87617E+05 5.10587E+02-3.28480E+03 2.99166E+03 2.11789E-08 8.50332E-09
 -1       826-3.86899E+05-5.67752E+02-1.74865E+03-3.02762E+03 2.70492E-08-1.99366E-08
 -1       827-3.88449E+05 4.81058E+01-1.18357E+03 1.14515E+03 1.28187E-08-1.32236E-08
 -1       828-3.86213E+05-1.33728E+02-5.95747E+02 1.09634E+03-3.02082E-09 2.46106E-08
 -1       829-3.88290E+05 6.69165E+01-1.17321E+03-1.13233E+03 1.33747E-09 1.78315E-09
 -1       830-3.87243E+05-6.22120E+02-1.88601E+03 4.81662E+03-7.59940E-10 3.42652E-10
 -1       831-3.87441E+05 5.53582E+02-3.36797E+03-2.57515E+03-9.00529E-09 1.18041E-08
 -1       832-3.89384E+05-3.95729E+03-8.15218E+03 6.06962E+03-4.12128E-09 3.81840E-09
 -1       833-3.86165E+05 3.41119E+03-1.30416E+04-2.38538E+03-3.05397E-09-4.99313E-10
 -1       834-3.98393E+05-2.50742E+04-3.53452E+04 4.12650E+03-2.67545E-09 2.20753E-08
 -1       835-3.78416E+05 2.16381E+04-5.04088E+04-6.31955E+02 5.14402E-09 3.47791E-09
 -1       836-1.41267E+03 3.69869E+05 2.28896E+04-1.60712E+04-6.99492E-09 1.13946E-08
 -1       837 4.87951E+03 3.77038E+05 1.93652E+04-3.28453E+04-7.59826E-09 1.66442E-08
 -1       838-5.57495E+02 3.71879E+05 1.97256E+04-1.59998E+04-6.44241E-09 5.09317E-09
 -1       839 1.24119E+04 3.82648E+05 3.73097E+04-3.28978E+04-6.85259E-09-1.99486E-08
 -1       840-3.83740E+03 3.64199E+05 5.94931E+04-1.60245E+04-6.41376E-09-2.20512E-08
 -1       856-5.49782E+04 8.11922E+03-2.13960E+04-4.00018E+02 4.26553E-09-8.77844E-09
 -1       857-6.37924E+04-9.53988E+03-1.47288E+04 5.70348E+03 5.49102E-09 7.65226E-09
 -1       858-5.84690E+04 1.13864E+03-5.55178E+03-4.25197E+02 2.29937E-09 1.24755E-08
 -1       859-5.97865E+04-1.33959E+03-3.35030E+03 5.74103E+03-2.57809E-09 1.23632E-08
 -1       860-5.89905E+04 1.59469E+02-1.40425E+03-4.37291E+02 1.72886E-09-2.72786E-09
 -1       861-5.91867E+04-1.90400E+02-7.72780E+02 5.75750E+03 3.14657E-09-1.30437E-08
 -1       862-5.90720E+04 2.16306E+01-3.21790E+02-4.41645E+02-2.40953E-09 8.84609E-09
 -1       863-5.90868E+04-2.23335E+01-1.18481E+02 5.75996E+03-9.34920E-09 2.36892E-09
 -1       864-5.90909E+04-4.77989E+00 4.49072E+01-4.39753E+02-3.25832E-09-8.54379E-09
 -1       865-5.90310E+04 5.88021E+01 2.51933E+02 5.74936E+03-1.85608E-09-2.67511E-08
 -1       866-5.91255E+04-5.95858E+01 5.09124E+02-4.31039E+02-1.77755E-09-4.96655E-09
 -1       867-5.87909E+04 4.91737E+02 1.25420E+03 5.72572E+03 1.37732E-09 9.97699E-09
 -1       868-5.93259E+04-4.30035E+02 2.08421E+03-4.16111E+02-1.84878E-09 1.80481E-08
 -1       869-5.72622E+04 3.57823E+03 5.55013E+03 5.68695E+03-1.91696E-09-2.80841E-09
 -1       870-6.06462E+04-3.06245E+03 8.05419E+03-3.92174E+02-3.58386E-09-6.52290E-09
 -1       871-5.52161E+03-2.14950E+04-1.95036E+04 1.30163E+05-4.69299E-09-6.86123E-09
 -1       872-1.98393E+03-2.60296E+04-8.17029E+03 1.68775E+05-9.72614E-09-5.92081E-10
 -1       873 4.04828E+02-2.38355E+04 5.81316E+02 1.29876E+05-5.29235E-09-3.67174E-09
 -1       874 3.30279E+03-2.14279E+04 9.76520E+03 1.68805E+05-1.17698E-08 1.95041E-08
 -1       875 6.83967E+03-2.61632E+04 2.20368E+04 1.30115E+05-4.65479E-09-2.96677E-09
 -1       876 2.94490E+05 4.94987E+04 1.51702E+04 1.17992E+05 7.97036E-09 1.57033E-08
 -1       877 2.95555E+05 5.26323E+04 8.10148E+03 1.22274E+05 8.51105E-09-5.73823E-09
 -1       878 2.95909E+05 4.78188E+04 3.39411E+03 1.19236E+05-7.91488E-09-8.64839E-09
 -1       879 2.93494E+05 5.05736E+04 1.69113E+03 1.22375E+05 6.99856E-10 5.41098E-09
 -1       880 2.96010E+05 4.78014E+04 7.87650E+02 1.19287E+05-2.04227E-09 1.18664E-08
 -1       881 2.93357E+05 5.04855E+04 4.20523E+02 1.22352E+05-6.68751E-09-1.76141E-08
 -1       882 2.96020E+05 4.78147E+04 2.68846E+02 1.19288E+05-1.34469E-09 3.27033E-09
 -1       883 2.93347E+05 5.04809E+04 2.88755E+02 1.22344E+05-1.85196E-09 6.20173E-09
 -1       884 2.96013E+05 4.78120E+04 4.59104E+02 1.19288E+05 4.93537E-09-3.23922E-09
 -1       885 2.93384E+05 5.04872E+04 9.22895E+02 1.22355E+05-3.96767E-10-2.25657E-08
 -1       886 2.95977E+05 4.77852E+04 1.85999E+03 1.19285E+05-1.51338E-10-1.84330E-08
 -1       887 2.93710E+05 5.07016E+04 4.06285E+03 1.22402E+05 5.60112E-09 1.49388E-08
 -1       888 2.95720E+05 4.78305E+04 8.18676E+03 1.19155E+05-1.80764E-09 7.10634E-09
 -1       889 2.98582E+05 5.57713E+04 1.95565E+04 1.22254E+05-5.23505E-09-1.48975E-08
 -1       890 2.92380E+05 5.17987E+04 3.66291E+04 1.16038E+05-4.08818E-10-3.27236E-09
 -1       891-8.42529E+01-1.66214E+05-2.17241E+03 2.67784E+04-4.95379E-09 1.08469E-08
 -1       892-2.09026E+02-1.66796E+05-2.28168E+03 4.13548E+04-6.49129E-09 1.66565E-08
 -1       893 4.73398E+01-1.66294E+05-3.16262E+03 2.67857E+04-3.79464E-09 4.74711E-09
 -1       894-1.59738E+03-1.67978E+05-6.51391E+03 4.12019E+04-1.05974E-08-5.64251E-09
 -1       895-1.07744E+03-1.64932E+05-1.13966E+04 2.69330E+04-4.27167E-09 7.56700E-09
 -1       956-3.76913E+05-5.44465E+03-1.34405E+04 3.08385E+04 4.93765E-09-1.28066E-08
 -1       957-3.79550E+05-1.92067E+03-6.89878E+03 3.70597E+04-3.49246E-09 2.38742E-10
 -1       958-3.78121E+05-2.40663E+02-3.10881E+03 3.06709E+04-3.73257E-09 5.19140E-09
 -1       959-3.78318E+05-1.36105E+02-1.58740E+03 3.72551E+04 3.16641E-09-1.69657E-08
 -1       960-3.78239E+05-4.47468E+01-7.74086E+02 3.06537E+04 5.99903E-09 7.32848E-09
 -1       961-3.78237E+05-6.31561E+01-4.10400E+02 3.72755E+04 1.25503E-08 1.49369E-08
 -1       962-3.78267E+05-4.59873E+01-2.34940E+02 3.06508E+04 6.21640E-09-8.12634E-09
 -1       963-3.78238E+05-5.89844E+01-1.88561E+02 3.72792E+04 5.34544E-09-7.54744E-09
 -1       964-3.78272E+05-4.26531E+01-2.29257E+02 3.06500E+04-2.74811E-09 3.29601E-09
 -1       965-3.78250E+05-5.60428E+01-3.96481E+02 3.72785E+04-7.85525E-09 2.15387E-08
 -1       966-3.78256E+05-3.48401E+01-7.44957E+02 3.06515E+04 6.76027E-09-6.03609E-09
 -1       967-3.78339E+05-1.19498E+02-1.52788E+03 3.72641E+04-1.33468E-10-3.19117E-08
 -1       968-3.78152E+05-2.17050E+02-2.99103E+03 3.06642E+04-1.39880E-09-2.67079E-09
 -1       969-3.79538E+05-1.83157E+03-6.64000E+03 3.71157E+04-1.58661E-09-6.27188E-09
 -1       970-3.76998E+05-5.22189E+03-1.29351E+04 3.07914E+04-1.85264E-09-2.83944E-09
 -1       971-3.45314E+05-1.72738E+03-9.31201E+03 1.51939E+04 4.68390E-09-9.08578E-10
 -1       972-3.47556E+05-1.27158E+03-5.07125E+03 2.10090E+04 2.39288E-09-2.47519E-09
 -1       973-3.46352E+05-6.17457E+01-2.27146E+03 1.50734E+04 4.51837E-09-3.54044E-09
 -1       974-3.46487E+05-8.07760E+01-1.17746E+03 2.11454E+04 1.29148E-10-6.09134E-09
 -1       975-3.46434E+05-1.69795E+01-5.89047E+02 1.50611E+04 1.65983E-10 6.69718E-09
 -1       976-3.46425E+05-3.10049E+01-3.40691E+02 2.11612E+04 4.05726E-09-1.45185E-08
 -1       977-3.46450E+05-1.62706E+01-2.48794E+02 1.50577E+04-3.79555E-09 7.22434E-09
 -1       978-3.46431E+05-2.47742E+01-2.93197E+02 2.11661E+04-1.08198E-08 2.30482E-08
 -1       979-3.46450E+05-7.74469E+00-4.72843E+02 1.50562E+04-6.17285E-09-3.41720E-09
 -1       980-3.46466E+05-2.16191E+01-9.14098E+02 2.11672E+04-4.80669E-09-7.89976E-09
 -1       981-3.46421E+05 1.52313E+01-1.77096E+03 1.50566E+04-4.71266E-09 7.57916E-09
 -1       982-3.46710E+05-1.52294E+02-3.66087E+03 2.11609E+04-3.82670E-09 1.39423E-08
 -1       983-3.46198E+05-9.79587E+01-7.11322E+03 1.50625E+04-9.82300E-09 7.16227E-09
 -1       984-3.50131E+05-3.86710E+03-1.59299E+04 2.10773E+04-1.17241E-08-1.83877E-09
 -1       985-3.42978E+05-5.30273E+03-2.92522E+04 1.51321E+04-6.88487E-09 2.43745E-08
 -3
    1PSTEP                        23          12           1          
  100CL  112 6.62659E-01         409                     0   12           1
 -4  DISP        4    1
 -5  D1          1    2    1    0
 -5  D2          1    2    2    0
 -5  D3          1    2    3    0
 -5  ALL         1    2    0    0    1ALL
 -1         1 2.73120E-03 0.00000E+00 0.00000E+00
 -1         2 1.30383E-03 7.67737E-27 5.29396E-23
 -1         3 3.42610E-04-1.09486E-27 0.00000E+00
 -1         5 1.77075E-04-1.32679E-27-8.27181E-25
 -1         8 2.72068E-03-3.97030E-07 0.00000E+00
 -1         9 2.71374E-03-2.08703E-04 0.00000E+00
 -1        10 3.10673E-04-3.38359E-06 0.00000E+00
 -1        12 1.78924E-04 8.09109E-07-4.13590E-25
 -1        15 2.70873E-03-4.19482E-07 0.00000E+00
 -1        16 2.78703E-03-2.10627E-04 0.00000E+00
 -1        17 2.11438E-04-7.72051E-06 0.00000E+00
 -1        18 1.82878E-04 3.44404E-05 0.00000E+00
 -1        19 1.84471E-04 1.61179E-06 0.00000E+00
 -1        20 1.84610E-04-9.91244E-06 0.00000E+00
 -1        21 1.83655E-04-2.54448E-05-3.30872E-24
 -1        24 3.05843E-05-1.19376E-05 0.00000E+00
 -1        25 1.93673E-04 3.46663E-05 0.00000E+00
 -1        26 1.94351E-04 2.23182E-06 0.00000E+00
 -1        27 1.92153E-04-1.34701E-05 0.00000E+00
 -1        28 1.91821E-04-2.60668E-05 0.00000E+00
 -1        32 0.00000E+00 0.00000E+00 0.00000E+00
 -1        33 2.03230E-04 2.98550E-06 0.00000E+00
 -1        34 2.01111E-04-1.35266E-05 0.00000E+00
 -1        35 1.99178E-04-2.64167E-05 0.00000E+00
 -1        51 2.73049E-03-8.38117E-08 1.65436E-24
 -1        52 2.72919E-03-1.49098E-07 3.30872E-24
 -1        53 2.72744E-03-2.10851E-07 0.00000E+00
 -1        54 2.72535E-03-2.71306E-07-1.65436E-24
 -1        55 2.72305E-03-3.32228E-07 3.30872E-24
 -1        56 2.72275E-03 1.03252E-05 0.00000E+00
 -1        57 2.70550E-03 4.22450E-05 5.29396E-23
 -1        58 2.68203E-03 8.90340E-05 1.05879E-22
 -1        59 2.65562E-03 1.42566E-04 0.00000E+00
 -1        60 2.63030E-03 1.93560E-04-1.05879E-22
 -1        61 2.60994E-03 2.32936E-04 5.29396E-23
 -1        62 2.59719E-03 2.53684E-04 0.00000E+00
 -1        63 2.59370E-03 2.50452E-04 5.29396E-23
 -1        64 2.59917E-03 2.22300E-04 0.00000E+00
 -1        65 2.61249E-03 1.70666E-04 0.00000E+00
 -1        66 2.63132E-03 1.01487E-04-1.05879E-22
 -1        67 2.65309E-03 2.24466E-05 5.29396E-23
 -1        68 2.67495E-03-5.68353E-05-1.05879E-22
 -1        69 2.69402E-03-1.26708E-04 0.00000E+00
 -1        70 2.70769E-03-1.79370E-04 0.00000E+00
 -1        86 1.39253E-03-6.52973E-06-5.29396E-23
 -1        87 1.64868E-03-4.13319E-05 0.00000E+00
 -1        88 1.99316E-03-1.01279E-04-5.29396E-23
 -1        89 2.34252E-03-1.62974E-04 0.00000E+00
 -1        90 2.61046E-03-2.00746E-04 0.00000E+00
 -1       121 3.41713E-04-5.46214E-07-1.32349E-23
 -1       122 3.39027E-04-1.09551E-06 6.61744E-24
 -1       123 3.34560E-04-1.65093E-06-1.32349E-23
 -1       124 3.28329E-04-2.21551E-06-6.61744E-24
 -1       125 3.20356E-04-2.79189E-06 1.32349E-23
 -1       191 1.77126E-04 1.34915E-07-1.65436E-24
 -1       192 1.77280E-04 2.69819E-07 8.27181E-25
 -1       193 1.77537E-04 4.04703E-07 1.65436E-24
 -1       194 1.77896E-04 5.39554E-07 8.27181E-25
 -1       195 1.78359E-04 6.74360E-07-2.48154E-24
 -1       251 2.72038E-03 1.58681E-06-6.61744E-24
 -1       252 2.72007E-03 3.45483E-06-3.30872E-24
 -1       253 2.71977E-03 4.15298E-06-6.61744E-24
 -1       254 2.71946E-03 2.64177E-06 0.00000E+00
 -1       255 2.71915E-03-1.78326E-06 0.00000E+00
 -1       256 2.71881E-03-9.79009E-06-3.30872E-24
 -1       257 2.71844E-03-2.15039E-05 0.00000E+00
 -1       258 2.71802E-03-3.70035E-05 0.00000E+00
 -1       259 2.71754E-03-5.57945E-05-6.61744E-24
 -1       260 2.71701E-03-7.73409E-05 0.00000E+00
 -1       261 2.71645E-03-1.00689E-04 0.00000E+00
 -1       262 2.71586E-03-1.24864E-04-6.61744E-24
 -1       263 2.71528E-03-1.48764E-04-1.32349E-23
 -1       264 2.71472E-03-1.71291E-04-6.61744E-24
 -1       265 2.71422E-03-1.91558E-04-1.32349E-23
 -1       266 2.71869E-03-4.06276E-07-1.65436E-24
 -1       267 2.71670E-03-4.09348E-07 0.00000E+00
 -1       268 2.71470E-03-4.12810E-07 0.00000E+00
 -1       269 2.71271E-03-4.15114E-07 0.00000E+00
 -1       270 2.71072E-03-4.17390E-07 0.00000E+00
 -1       271 2.71992E-03-9.18422E-08-1.32349E-23
 -1       272 2.72019E-03-2.61531E-06 0.00000E+00
 -1       273 2.72145E-03-7.79463E-06-1.32349E-23
 -1       274 2.72362E-03-1.54434E-05 0.00000E+00
 -1       275 2.72661E-03-2.53538E-05 0.00000E+00
 -1       276 2.73035E-03-3.73017E-05 0.00000E+00
 -1       277 2.73473E-03-5.10465E-05 1.32349E-23
 -1       278 2.73967E-03-6.63336E-05 6.61744E-24
 -1       279 2.74506E-03-8.28967E-05 0.00000E+00
 -1       280 2.75081E-03-1.00459E-04-6.61744E-24
 -1       281 2.75682E-03-1.18736E-04-1.32349E-23
 -1       282 2.76297E-03-1.37439E-04 0.00000E+00
 -1       283 2.76918E-03-1.56273E-04 0.00000E+00
 -1       284 2.77532E-03-1.74943E-04 0.00000E+00
 -1       285 2.78131E-03-1.93159E-04 1.32349E-23
 -1       301 2.72705E-03-2.09060E-04 6.61744E-24
 -1       302 2.73867E-03-2.09369E-04 6.61744E-24
 -1       303 2.74952E-03-2.09666E-04 0.00000E+00
 -1       304 2.76057E-03-2.09963E-04 0.00000E+00
 -1       305 2.77276E-03-2.10275E-04-2.64698E-23
 -1       306 2.75198E-03-3.64850E-04 0.00000E+00
 -1       307 2.81584E-03-7.80319E-04 0.00000E+00
 -1       308 2.86241E-03-1.38631E-03 1.05879E-22
 -1       309 2.88640E-03-2.08642E-03 0.00000E+00
 -1       310 2.91812E-03-2.75479E-03 0.00000E+00
 -1       311 2.97789E-03-3.26835E-03 0.00000E+00
 -1       312 3.03534E-03-3.54678E-03 0.00000E+00
 -1       313 3.02916E-03-3.55287E-03 0.00000E+00
 -1       314 2.88548E-03-3.29927E-03 0.00000E+00
 -1       315 2.56378E-03-2.85095E-03 0.00000E+00
 -1       316 2.08312E-03-2.28466E-03-1.05879E-22
 -1       317 1.51007E-03-1.66951E-03 0.00000E+00
 -1       318 9.59261E-04-1.06582E-03 0.00000E+00
 -1       319 5.38773E-04-5.38449E-04 5.29396E-23
 -1       320 2.92195E-04-1.61610E-04 0.00000E+00
 -1       336 2.99091E-04-4.03788E-06 0.00000E+00
 -1       337 2.85434E-04-4.71784E-06 6.61744E-24
 -1       338 2.69762E-04-5.42570E-06-1.32349E-23
 -1       339 2.52150E-04-6.16231E-06 0.00000E+00
 -1       340 2.32678E-04-6.93212E-06-1.32349E-23
 -1       406 1.79592E-04 9.43779E-07-8.27181E-25
 -1       407 1.80362E-04 1.07834E-06 1.24077E-24
 -1       408 1.81236E-04 1.21273E-06 8.27181E-25
 -1       409 1.82212E-04 1.34678E-06 0.00000E+00
 -1       410 1.83291E-04 1.48022E-06 2.89513E-24
 -1       521 2.82585E-03-3.76102E-04 1.05879E-22
 -1       522 2.88787E-03-8.12290E-04 0.00000E+00
 -1       523 2.92779E-03-1.44690E-03 0.00000E+00
 -1       524 2.94225E-03-2.17662E-03 0.00000E+00
 -1       525 2.96582E-03-2.87254E-03 1.05879E-22
 -1       526 3.02199E-03-3.40884E-03-5.29396E-23
 -1       527 3.07905E-03-3.69811E-03 0.00000E+00
 -1       528 3.07047E-03-3.70223E-03-5.29396E-23
 -1       529 2.91425E-03-3.43393E-03-2.11758E-22
 -1       530 2.56757E-03-2.96641E-03 0.00000E+00
 -1       531 2.05036E-03-2.38033E-03 0.00000E+00
 -1       532 1.43585E-03-1.74741E-03 5.29396E-23
 -1       533 8.44365E-04-1.12527E-03 0.00000E+00
 -1       534 3.89426E-04-5.76407E-04 0.00000E+00
 -1       535 1.21023E-04-1.79502E-04 0.00000E+00
 -1       536 2.10684E-04 2.72019E-05 6.61744E-24
 -1       537 2.08766E-04 8.76409E-05 0.00000E+00
 -1       538 2.05802E-04 1.64330E-04 0.00000E+00
 -1       539 2.02306E-04 2.47917E-04 0.00000E+00
 -1       540 1.99160E-04 3.26901E-04 0.00000E+00
 -1       541 1.97115E-04 3.89801E-04 1.65436E-24
 -1       542 1.96172E-04 4.29864E-04-3.30872E-24
 -1       543 1.95947E-04 4.40486E-04 0.00000E+00
 -1       544 1.95624E-04 4.22440E-04 0.00000E+00
 -1       545 1.94452E-04 3.76720E-04 0.00000E+00
 -1       546 1.92267E-04 3.11454E-04 3.30872E-24
 -1       547 1.89309E-04 2.34888E-04 0.00000E+00
 -1       548 1.86378E-04 1.58699E-04 0.00000E+00
 -1       549 1.84263E-04 9.45615E-05 1.65436E-24
 -1       550 1.83165E-04 5.05072E-05 0.00000E+00
 -1       551 1.86240E-04-8.28853E-06 0.00000E+00
 -1       552 1.57798E-04-8.93700E-06 0.00000E+00
 -1       553 1.27052E-04-9.64773E-06 6.61744E-24
 -1       554 9.49630E-05-1.03996E-05 3.30872E-24
 -1       555 6.24890E-05-1.11653E-05 0.00000E+00
 -1       556 2.03791E-04 1.18337E-05 5.29396E-23
 -1       557 1.97612E-04 2.76923E-05 0.00000E+00
 -1       558 1.92769E-04 4.01434E-05 0.00000E+00
 -1       559 1.89126E-04 4.94973E-05-2.64698E-23
 -1       560 1.86556E-04 5.60649E-05 0.00000E+00
 -1       561 1.84930E-04 6.01595E-05 0.00000E+00
 -1       562 1.84122E-04 6.20958E-05 0.00000E+00
 -1       563 1.84009E-04 6.21892E-05 1.32349E-23
 -1       564 1.84468E-04 6.07563E-05 0.00000E+00
 -1       565 1.85379E-04 5.81140E-05 0.00000E+00
 -1       566 1.86622E-04 5.45801E-05 0.00000E+00
 -1       567 1.88078E-04 5.04726E-05 0.00000E+00
 -1       568 1.89629E-04 4.61097E-05 1.65436E-24
 -1       569 1.91157E-04 4.18096E-05-8.27181E-25
 -1       570 1.92544E-04 3.78905E-05 0.00000E+00
 -1       571 1.82975E-04 3.23103E-05 2.48154E-24
 -1       572 1.83074E-04 3.01145E-05-4.13590E-25
 -1       573 1.83173E-04 2.78687E-05-1.65436E-24
 -1       574 1.83272E-04 2.55892E-05 0.00000E+00
 -1       575 1.83372E-04 2.32926E-05 0.00000E+00
 -1       576 1.83471E-04 2.09952E-05-1.65436E-24
 -1       577 1.83570E-04 1.87136E-05 3.30872E-24
 -1       578 1.83670E-04 1.64644E-05 0.00000E+00
 -1       579 1.83770E-04 1.42639E-05 0.00000E+00
 -1       580 1.83870E-04 1.21288E-05 3.30872E-24
 -1       581 1.83969E-04 1.00757E-05 0.00000E+00
 -1       582 1.84070E-04 8.12089E-06 0.00000E+00
 -1       583 1.84170E-04 6.28099E-06 0.00000E+00
 -1       584 1.84270E-04 4.57230E-06-3.30872E-24
 -1       585 1.84371E-04 3.01097E-06 0.00000E+00
 -1       586 1.84636E-04 3.44802E-05-1.65436E-24
 -1       587 1.86353E-04 3.45194E-05-4.13590E-25
 -1       588 1.88072E-04 3.45582E-05 0.00000E+00
 -1       589 1.89836E-04 3.45964E-05 0.00000E+00
 -1       590 1.91689E-04 3.46333E-05 0.00000E+00
 -1       591 1.83609E-04 3.24041E-05 1.03398E-25
 -1       592 1.84342E-04 3.03479E-05-2.06795E-25
 -1       593 1.85080E-04 2.82778E-05-8.27181E-25
 -1       594 1.85821E-04 2.61984E-05 0.00000E+00
 -1       595 1.86564E-04 2.41145E-05 0.00000E+00
 -1       596 1.87306E-04 2.20308E-05 4.13590E-25
 -1       597 1.88047E-04 1.99518E-05 0.00000E+00
 -1       598 1.88784E-04 1.78825E-05-4.13590E-25
 -1       599 1.89516E-04 1.58272E-05 0.00000E+00
 -1       600 1.90240E-04 1.37909E-05 0.00000E+00
 -1       601 1.90956E-04 1.17781E-05 8.27181E-25
 -1       602 1.91662E-04 9.79341E-06-2.06795E-25
 -1       603 1.92356E-04 7.84164E-06-4.13590E-25
 -1       604 1.93035E-04 5.92752E-06 1.03398E-25
 -1       605 1.93700E-04 4.05564E-06 0.00000E+00
 -1       606 1.84485E-04 4.45863E-07 0.00000E+00
 -1       607 1.84494E-04-6.34427E-07 0.00000E+00
 -1       608 1.84503E-04-1.63410E-06-3.30872E-24
 -1       609 1.84511E-04-2.55882E-06 0.00000E+00
 -1       610 1.84520E-04-3.41433E-06-3.30872E-24
 -1       611 1.84528E-04-4.20639E-06 0.00000E+00
 -1       612 1.84536E-04-4.94079E-06 0.00000E+00
 -1       613 1.84545E-04-5.62333E-06 0.00000E+00
 -1       614 1.84553E-04-6.25982E-06 1.65436E-24
 -1       615 1.84561E-04-6.85603E-06 0.00000E+00
 -1       616 1.84570E-04-7.41779E-06 1.65436E-24
 -1       617 1.84578E-04-7.95087E-06 0.00000E+00
 -1       618 1.84586E-04-8.46108E-06 0.00000E+00
 -1       619 1.84595E-04-8.95421E-06-2.06795E-25
 -1       620 1.84603E-04-9.43607E-06 0.00000E+00
 -1       621 1.85832E-04 1.71570E-06 0.00000E+00
 -1       622 1.87351E-04 1.81985E-06-1.65436E-24
 -1       623 1.88996E-04 1.92379E-06-1.65436E-24
 -1       624 1.90734E-04 2.02740E-06-1.65436E-24
 -1       625 1.92530E-04 2.13071E-06 3.30872E-24
 -1       626 1.85021E-04 4.81985E-07-6.61744E-24
 -1       627 1.85547E-04-5.84967E-07 3.30872E-24
 -1       628 1.86054E-04-1.59690E-06 6.61744E-24
 -1       629 1.86542E-04-2.56197E-06-1.65436E-24
 -1       630 1.87017E-04-3.48836E-06-3.30872E-24
 -1       631 1.87480E-04-4.38426E-06 0.00000E+00
 -1       632 1.87935E-04-5.25786E-06 0.00000E+00
 -1       633 1.88384E-04-6.11737E-06 1.65436E-24
 -1       634 1.88831E-04-6.97098E-06 0.00000E+00
 -1       635 1.89279E-04-7.82688E-06-1.65436E-24
 -1       636 1.89731E-04-8.69329E-06 3.30872E-24
 -1       637 1.90190E-04-9.57840E-06 0.00000E+00
 -1       638 1.90659E-04-1.04904E-05-1.65436E-24
 -1       639 1.91141E-04-1.14375E-05 1.65436E-24
 -1       640 1.91638E-04-1.24280E-05 1.65436E-24
 -1       656 1.85319E-04-1.04907E-05 0.00000E+00
 -1       657 1.86448E-04-1.10924E-05 6.61744E-24
 -1       658 1.87856E-04-1.16928E-05 0.00000E+00
 -1       659 1.89399E-04-1.22928E-05 6.61744E-24
 -1       660 1.90893E-04-1.28946E-05 6.61744E-24
 -1       661 1.84875E-04-1.04331E-05 8.27181E-25
 -1       662 1.85177E-04-1.10441E-05-8.27181E-25
 -1       663 1.85511E-04-1.17404E-05 1.65436E-24
 -1       664 1.85875E-04-1.25160E-05 0.00000E+00
 -1       665 1.86266E-04-1.33651E-05-1.65436E-24
 -1       666 1.86683E-04-1.42822E-05 0.00000E+00
 -1       667 1.87123E-04-1.52620E-05 0.00000E+00
 -1       668 1.87585E-04-1.62991E-05 0.00000E+00
 -1       669 1.88067E-04-1.73883E-05 1.65436E-24
 -1       670 1.88565E-04-1.85247E-05 0.00000E+00
 -1       671 1.89080E-04-1.97034E-05-1.65436E-24
 -1       672 1.89609E-04-2.09195E-05 8.27181E-25
 -1       673 1.90149E-04-2.21683E-05-1.65436E-24
 -1       674 1.90700E-04-2.34453E-05 0.00000E+00
 -1       675 1.91259E-04-2.47457E-05-2.06795E-25
 -1       676 1.85020E-04-2.55491E-05 0.00000E+00
 -1       677 1.86385E-04-2.56533E-05 0.00000E+00
 -1       678 1.87749E-04-2.57574E-05 3.30872E-24
 -1       679 1.89109E-04-2.58613E-05 0.00000E+00
 -1       680 1.90467E-04-2.59651E-05 0.00000E+00
 -1       771 1.86292E-05 1.47999E-05 0.00000E+00
 -1       772 8.57176E-06 3.67588E-05 0.00000E+00
 -1       773 3.21325E-07 5.41697E-05 0.00000E+00
 -1       774-6.24656E-06 6.72906E-05 0.00000E+00
 -1       775-1.12536E-05 7.63899E-05-5.29396E-23
 -1       776-1.48265E-05 8.17530E-05 5.29396E-23
 -1       777-1.70916E-05 8.36753E-05 5.29396E-23
 -1       778-1.81780E-05 8.24659E-05 0.00000E+00
 -1       779-1.82139E-05 7.84427E-05-5.29396E-23
 -1       780-1.73298E-05 7.19346E-05 0.00000E+00
 -1       781-1.56551E-05 6.32779E-05 0.00000E+00
 -1       782-1.33208E-05 5.28171E-05 5.29396E-23
 -1       783-1.04570E-05 4.09018E-05 0.00000E+00
 -1       784-7.19508E-06 2.78877E-05 0.00000E+00
 -1       785-3.66537E-06 1.41334E-05-5.29396E-23
 -1       786 1.93711E-04 3.24111E-05 0.00000E+00
 -1       787 1.93753E-04 3.02061E-05 0.00000E+00
 -1       788 1.93794E-04 2.80430E-05-8.27181E-25
 -1       789 1.93837E-04 2.59135E-05 0.00000E+00
 -1       790 1.93879E-04 2.38129E-05 0.00000E+00
 -1       791 1.93922E-04 2.17364E-05-8.27181E-25
 -1       792 1.93964E-04 1.96819E-05 0.00000E+00
 -1       793 1.94007E-04 1.76471E-05 0.00000E+00
 -1       794 1.94050E-04 1.56319E-05 0.00000E+00
 -1       795 1.94092E-04 1.36360E-05 0.00000E+00
 -1       796 1.94135E-04 1.16614E-05-1.65436E-24
 -1       797 1.94178E-04 9.70978E-06-8.27181E-25
 -1       798 1.94221E-04 7.78546E-06 0.00000E+00
 -1       799 1.94264E-04 5.89270E-06-8.27181E-25
 -1       800 1.94307E-04 4.03896E-06 0.00000E+00
 -1       801 1.47865E-04 3.11654E-05-2.64698E-23
 -1       802 9.36327E-06 1.94434E-05 2.64698E-23
 -1       803-1.08930E-04 9.82267E-06 5.29396E-23
 -1       804-9.65385E-05 6.83746E-06 0.00000E+00
 -1       805-3.18947E-05 2.68617E-06-5.29396E-23
 -1       806 1.94403E-04 3.23424E-05 3.30872E-24
 -1       807 1.95120E-04 3.00448E-05 1.65436E-24
 -1       808 1.95824E-04 2.77786E-05 0.00000E+00
 -1       809 1.96514E-04 2.55480E-05 0.00000E+00
 -1       810 1.97189E-04 2.33570E-05 0.00000E+00
 -1       811 1.97848E-04 2.12094E-05-1.65436E-24
 -1       812 1.98490E-04 1.91093E-05 3.30872E-24
 -1       813 1.99112E-04 1.70605E-05-1.65436E-24
 -1       814 1.99713E-04 1.50670E-05 3.30872E-24
 -1       815 2.00293E-04 1.31326E-05 8.27181E-25
 -1       816 2.00849E-04 1.12612E-05 1.65436E-24
 -1       817 2.01380E-04 9.45681E-06 8.27181E-25
 -1       818 2.01885E-04 7.72317E-06 0.00000E+00
 -1       819 2.02362E-04 6.06420E-06 8.27181E-25
 -1       820 2.02810E-04 4.48372E-06 3.30872E-24
 -1       821 1.94222E-04-1.25879E-07 1.65436E-24
 -1       822 1.94082E-04-3.62588E-06-1.65436E-24
 -1       823 1.93940E-04-7.84359E-06 3.30872E-24
 -1       824 1.93795E-04-1.23499E-05 0.00000E+00
 -1       825 1.93651E-04-1.66378E-05-3.30872E-24
 -1       826 1.93509E-04-2.02014E-05 1.65436E-24
 -1       827 1.93370E-04-2.27321E-05 0.00000E+00
 -1       828 1.93234E-04-2.39276E-05 0.00000E+00
 -1       829 1.93099E-04-2.38489E-05 0.00000E+00
 -1       830 1.92962E-04-2.25647E-05 0.00000E+00
 -1       831 1.92825E-04-2.04718E-05-3.30872E-24
 -1       832 1.92686E-04-1.79718E-05 1.65436E-24
 -1       833 1.92549E-04-1.55773E-05 0.00000E+00
 -1       834 1.92413E-04-1.38003E-05 1.65436E-24
 -1       835 1.92279E-04-1.29850E-05-8.27181E-25
 -1       836 1.96043E-04 2.35680E-06 3.30872E-24
 -1       837 1.97608E-04 2.48493E-06 0.00000E+00
 -1       838 1.99078E-04 2.61300E-06 3.30872E-24
 -1       839 2.00484E-04 2.74036E-06 8.27181E-25
 -1       840 2.01857E-04 2.86757E-06 0.00000E+00
 -1       856 1.92136E-04-1.45338E-05 0.00000E+00
 -1       857 1.92115E-04-1.54603E-05 0.00000E+00
 -1       858 1.92095E-04-1.62709E-05 4.13590E-25
 -1       859 1.92074E-04-1.69871E-05 0.00000E+00
 -1       860 1.92054E-04-1.76304E-05 4.13590E-25
 -1       861 1.92033E-04-1.82223E-05-2.06795E-25
 -1       862 1.92012E-04-1.87845E-05-8.27181E-25
 -1       863 1.91991E-04-1.93385E-05 4.13590E-25
 -1       864 1.91970E-04-1.99060E-05 0.00000E+00
 -1       865 1.91949E-04-2.05087E-05 4.13590E-25
 -1       866 1.91929E-04-2.11680E-05 0.00000E+00
 -1       867 1.91908E-04-2.19056E-05-4.13590E-25
 -1       868 1.91886E-04-2.27429E-05-8.27181E-25
 -1       869 1.91865E-04-2.37013E-05 0.00000E+00
 -1       870 1.91844E-04-2.48022E-05 8.27181E-25
 -1       871 1.93505E-04-1.34751E-05 0.00000E+00
 -1       872 1.95004E-04-1.34835E-05 0.00000E+00
 -1       873 1.96582E-04-1.34926E-05 0.00000E+00
 -1       874 1.98171E-04-1.35024E-05-3.87741E-25
 -1       875 1.99704E-04-1.35128E-05-8.27181E-25
 -1       876 1.92679E-04-1.45203E-05 3.30872E-24
 -1       877 1.93184E-04-1.55040E-05 0.00000E+00
 -1       878 1.93667E-04-1.64290E-05 3.30872E-24
 -1       879 1.94131E-04-1.73027E-05 0.00000E+00
 -1       880 1.94579E-04-1.81323E-05 3.30872E-24
 -1       881 1.95013E-04-1.89251E-05 0.00000E+00
 -1       882 1.95436E-04-1.96883E-05 0.00000E+00
 -1       883 1.95851E-04-2.04290E-05-1.65436E-24
 -1       884 1.96260E-04-2.11546E-05 0.00000E+00
 -1       885 1.96665E-04-2.18721E-05 1.65436E-24
 -1       886 1.97071E-04-2.25889E-05-3.30872E-24
 -1       887 1.97479E-04-2.33122E-05 0.00000E+00
 -1       888 1.97892E-04-2.40491E-05 0.00000E+00
 -1       889 1.98311E-04-2.48070E-05-1.65436E-24
 -1       890 1.98741E-04-2.55932E-05-1.65436E-24
 -1       891 1.93194E-04-2.61255E-05 0.00000E+00
 -1       892 1.94544E-04-2.61845E-05-8.27181E-25
 -1       893 1.95843E-04-2.62433E-05 1.65436E-24
 -1       894 1.97066E-04-2.63019E-05-4.13590E-25
 -1       895 1.98186E-04-2.63602E-05-4.13590E-25
 -1       956 2.03099E-04 1.66187E-06-3.30872E-24
 -1       957 2.02967E-04 4.29775E-07 8.27181E-25
 -1       958 2.02834E-04-7.21538E-07-3.30872E-24
 -1       959 2.02701E-04-1.80340E-06 0.00000E+00
 -1       960 2.02569E-04-2.82720E-06 3.30872E-24
 -1       961 2.02436E-04-3.80436E-06 0.00000E+00
 -1       962 2.02303E-04-4.74630E-06-3.30872E-24
 -1       963 2.02170E-04-5.66448E-06 1.65436E-24
 -1       964 2.02037E-04-6.57033E-06 3.30872E-24
 -1       965 2.01905E-04-7.47530E-06 0.00000E+00
 -1       966 2.01772E-04-8.39085E-06 3.30872E-24
 -1       967 2.01639E-04-9.32842E-06 0.00000E+00
 -1       968 2.01506E-04-1.02994E-05 0.00000E+00
 -1       969 2.01374E-04-1.13153E-05 0.00000E+00
 -1       970 2.01242E-04-1.23874E-05 3.30872E-24
 -1       971 2.00991E-04-1.46659E-05 3.30872E-24
 -1       972 2.00870E-04-1.57108E-05 0.00000E+00
 -1       973 2.00749E-04-1.66718E-05 0.00000E+00
 -1       974 2.00627E-04-1.75597E-05-1.65436E-24
 -1       975 2.00506E-04-1.83849E-05 0.00000E+00
 -1       976 2.00384E-04-1.91585E-05-1.65436E-24
 -1       977 2.00263E-04-1.98910E-05-3.30872E-24
 -1       978 2.00141E-04-2.05933E-05 0.00000E+00
 -1       979 2.00020E-04-2.12762E-05 3.30872E-24
 -1       980 1.99898E-04-2.19503E-05 0.00000E+00
 -1       981 1.99777E-04-2.26266E-05 0.00000E+00
 -1       982 1.99656E-04-2.33158E-05 0.00000E+00
 -1       983 1.99535E-04-2.40287E-05-3.30872E-24
 -1       984 1.99414E-04-2.47760E-05 1.65436E-24
 -1       985 1.99294E-04-2.55685E-05-3.30872E-24
 -3
    1PSTEP                        24          12           1          
  100CL  112 6.62659E-01         409                     0   12           1
 -4  STRESS      6    1
 -5  SXX         1    4    1    1
 -5  SYY         1    4    2    2
 -5  SZZ         1    4    3    3
 -5  SXY         1    4    1    2
 -5  SYZ         1    4    2    3
 -5  SZX         1    4    3    1
 -1         1-5.34835E+06-1.54301E+06-1.13039E+06-1.28828E+06-2.70666E-09 2.63448E-07
 -1         2 1.60628E+06 2.34564E+07 5.42342E+06 7.12961E+06 2.82889E-08 5.55156E-08
 -1         3-1.48629E+03-1.55084E+06 4.04271E+02-2.19992E+03-5.38829E-10-3.17523E-08
 -1         5-7.54662E+01 3.86343E+05 9.97857E+00-1.34385E+00-4.04381E-10 1.70621E-08
 -1         8-5.47859E+05-1.99329E+05-6.25884E+04-2.39327E+05 2.97405E-10-1.40972E-08
 -1         9 1.18672E+07 4.12453E+06 2.86299E+06-2.49526E+05-1.33296E-08 1.73692E-07
 -1        10-2.30080E+03-1.61609E+06-3.92820E+03-1.48873E+04-1.36533E-08-3.72735E-08
 -1        12-7.15496E+01 3.86365E+05 3.28037E+02-9.16010E+00-8.38771E-10 2.69138E-08
 -1        15 9.12110E+02 5.01250E+02 2.94836E+03 7.85847E-01-2.66027E-10 2.18076E-07
 -1        16 2.29354E+07-3.45409E+05 3.11804E+06-2.32690E+06 5.12227E-09 1.81686E-07
 -1        17 8.40417E+06 6.29316E+06 2.26936E+06 6.01817E+06 2.17347E-08 2.64845E-08
 -1        18 1.42351E+05 3.35254E+04 4.16157E+03-1.19540E+05 1.22616E-08 8.76798E-09
 -1        19 1.22408E+05 1.41646E+05-9.45023E+02 2.19609E+04 1.56870E-09 4.49909E-09
 -1        20-8.21657E+04-5.73585E+05-1.28726E+05 2.50525E+04-2.63875E-09-5.37693E-09
 -1        21-4.49157E+01-2.95875E+05-9.11283E+02 2.77158E+02 1.45311E-08-9.57274E-09
 -1        24 1.41170E+07 1.21447E+07 3.90536E+06 1.12433E+07-1.64330E-07-5.75480E-08
 -1        25 1.25100E+05 2.68160E+05 1.00190E+05-6.46358E+05-2.75995E-09 1.58770E-08
 -1        26-5.54703E+04 9.22586E+04-2.46436E+04 1.34159E+03-2.16824E-10-6.07395E-10
 -1        27-7.58601E+04-3.10000E+05-1.13388E+05 6.89486E+04 4.53262E-09-7.71918E-09
 -1        28 2.13811E+04-8.62116E+04 1.69334E+04 2.06072E+04-5.45978E-09-1.97394E-09
 -1        32-1.67986E+06-3.18126E+06-1.97726E+05 4.59244E+05-4.23606E-08-7.68591E-09
 -1        33-1.78466E+05 9.29918E+04 3.23844E+04-3.84460E+04-3.18569E-09 7.07253E-09
 -1        34-2.23653E+05-2.50856E+04 6.85809E+02 7.54987E+04-5.68022E-09-9.75312E-09
 -1        35-2.29673E+04-3.50533E+04-1.61954E+03 5.14974E+04-6.41106E-09-4.73059E-09
 -1        51 6.10580E+04-1.68869E+05 1.29016E+05-4.28472E+05 8.73115E-11 2.49245E-07
 -1        52 2.06141E+04-1.46255E+05 6.75895E+04-4.99742E+05-1.62800E-10 7.40110E-08
 -1        53 4.13055E+03-1.61587E+05 3.50203E+04-4.27009E+05 4.27463E-10-1.75423E-07
 -1        54 7.15366E+03-1.57366E+05 2.84218E+04-5.01167E+05 1.81899E-10-2.40612E-07
 -1        55 1.56132E+04-1.64223E+05 3.41550E+04-4.26931E+05 4.07454E-10-9.42109E-08
 -1        56-9.83763E+06-1.43135E+06-9.39488E+05-4.14159E+06-7.71252E-09 2.50293E-09
 -1        57-1.11984E+07-6.81354E+05-5.40266E+05-2.59577E+06 3.78132E-08-6.41085E-08
 -1        58-9.56915E+06-1.91989E+06-2.02702E+05-4.36442E+06-1.96014E-08-1.15841E-07
 -1        59-1.14690E+07-1.06363E+05-1.05161E+05-2.51664E+06-5.33973E-08 1.77912E-07
 -1        60-9.67354E+06-1.92243E+06-6.06698E+04-4.31421E+06-1.60435E-08 1.21174E-07
 -1        61-1.06828E+07-5.02135E+05 2.88299E+04-2.77424E+06 2.68046E-08-5.23869E-08
 -1        62-1.01790E+07-1.64356E+06-9.66148E+04-3.96485E+06 4.58385E-08-2.47484E-07
 -1        63-9.60511E+06-1.33257E+06 7.48739E+04-3.56773E+06-2.13913E-08-2.43035E-08
 -1        64-1.06059E+07-1.19592E+06-8.90894E+04-3.43023E+06-9.63337E-09-8.47831E-08
 -1        65-9.21312E+06-2.02368E+06 2.45300E+04-4.64110E+06-4.46744E-08-1.70174E-07
 -1        66-1.07362E+07-8.37634E+05-4.87868E+04-3.01705E+06 2.89801E-08 1.22209E-07
 -1        67-9.26902E+06-2.30387E+06-9.44138E+04-5.15693E+06-8.57781E-08-1.24892E-07
 -1        68-1.07163E+07-7.98072E+05-1.89390E+05-3.01608E+06-3.48591E-08-4.12110E-08
 -1        69-9.40682E+06-2.36180E+06-4.78180E+05-4.60986E+06 5.43514E-09-1.93504E-07
 -1        70-1.04425E+07-9.01826E+05-8.65874E+05-3.46465E+06 6.47669E-08 1.63389E-07
 -1        86-1.63937E+06-1.64035E+07-2.97071E+06-3.34333E+06-2.76668E-07 9.66247E-09
 -1        87 2.59798E+06 6.84274E+06 2.47000E+06 6.09138E+06-4.69074E-07 1.68147E-08
 -1        88-4.99525E+05-1.85819E+06 2.36113E+05-2.66672E+06-4.38253E-07 1.26674E-07
 -1        89 3.47670E+06 6.51287E+06 2.53315E+06 6.30349E+06-6.52159E-07-1.45625E-07
 -1        90-2.41311E+06-1.61573E+07-3.20365E+06-3.58918E+06-1.66914E-07-2.18963E-07
 -1       121-2.03585E+03-1.55574E+06-5.47920E+02 1.09034E+03 1.44706E-09-2.24827E-09
 -1       122-1.30150E+03-1.55091E+06 7.66073E+02-4.40407E+03-5.35096E-09-2.60443E-08
 -1       123-2.05560E+03-1.55587E+06 2.55946E+02 3.25646E+03 4.15173E-09-8.14907E-10
 -1       124 3.26490E+02-1.55046E+06 2.93456E+03-9.21843E+03-1.03259E-08-1.09576E-08
 -1       125-2.86064E+03-1.55677E+06 3.43856E+03 5.85878E+03 6.80848E-09-7.74889E-10
 -1       191-7.95264E+01 3.86361E+05 8.47311E+00 7.00789E-01-6.46803E-10 7.28323E-09
 -1       192-7.64298E+01 3.86344E+05 2.12946E+01-4.30960E+00-7.77938E-10 9.01764E-09
 -1       193-8.20626E+01 3.86361E+05 3.62425E+01 3.78552E+00-1.07539E-09-8.81482E-09
 -1       194-7.95190E+01 3.86347E+05 8.09540E+01-9.77968E+00-6.07062E-10-1.13514E-08
 -1       195-8.69306E+01 3.86358E+05 1.54977E+02 6.36494E+00-1.58108E-09-5.61704E-09
 -1       251-8.65601E+05 1.65291E+04-3.85736E+04-1.49994E+04 8.55473E-09-5.68325E-08
 -1       252-8.80085E+05-1.91351E+04-2.68168E+04 5.34749E+04-6.33031E-09-2.35856E-07
 -1       253-8.74320E+05 2.53996E+03-1.04166E+04-1.06307E+04-8.10360E-10-1.78190E-07
 -1       254-8.65921E+05-3.09324E+03-4.53956E+03 3.82173E+04 6.33236E-09-1.46673E-08
 -1       255-8.79090E+05 3.44246E+01-3.69973E+03 2.53859E+02-3.70164E-10 1.26083E-07
 -1       256-8.60011E+05-2.76489E+02 1.38895E+03 1.34675E+04 4.16208E-09 2.55660E-07
 -1       257-8.79738E+05-6.41927E+02-1.54262E+03 1.41057E+04-4.73392E-09 8.08999E-08
 -1       258-8.63112E+05 9.86521E+02 2.90288E+03-1.26134E+04-9.51036E-09-2.75768E-07
 -1       259-8.76259E+05-1.02079E+03 1.29716E+03 2.63319E+04 7.37259E-09 5.29899E-08
 -1       260-8.70262E+05 3.09624E+03 5.65578E+03-3.14548E+04 8.54743E-09-6.89173E-08
 -1       261-8.73290E+05-2.21006E+03 8.67429E+03 3.29660E+04 2.32934E-08 3.49110E-08
 -1       262-8.69266E+05 1.19982E+04 2.15684E+04-3.69964E+04-1.74978E-08 2.15207E-07
 -1       263-8.77538E+05-9.67109E+03 3.41389E+04 3.18846E+04 6.60373E-09 1.46514E-07
 -1       264-8.38184E+05 6.73762E+04 9.46602E+04-2.73175E+04 3.09188E-08-1.29638E-07
 -1       265-9.03831E+05-5.77535E+04 1.31567E+05 2.32726E+04 3.19175E-08 1.62188E-07
 -1       266-1.65124E+04-7.72206E+03 3.87389E+04-1.68131E+01-5.27507E-11-1.94745E-07
 -1       267 1.91422E+04 8.99892E+03 2.73821E+04 1.94008E+01 7.45786E-11-4.65926E-07
 -1       268-2.56694E+03-1.27456E+03 1.01777E+04-2.47190E+00-1.15051E-10-2.18504E-07
 -1       269 3.03079E+03 1.52531E+03 6.61544E+03 2.87950E+00-9.40190E-11-2.75194E-07
 -1       270-4.54922E+02-2.50620E+02 3.19336E+03-3.90765E-01-4.70664E-11 6.10448E-08
 -1       271-1.44633E+06-1.85090E+05-1.09097E+05-5.63483E+05-3.65562E-08 1.60871E-07
 -1       272-1.43585E+06-3.00557E+05-6.82715E+04-6.06616E+05-4.72628E-08-8.00355E-08
 -1       273-1.46953E+06-2.07846E+05-2.65507E+04-5.55432E+05-4.65661E-09 3.85273E-07
 -1       274-1.40978E+06-2.73050E+05-1.36682E+04-6.22128E+05 5.90007E-08 1.26749E-07
 -1       275-1.47516E+06-2.07170E+05-6.66867E+03-5.51604E+05 3.28546E-08 3.22689E-09
 -1       276-1.40443E+06-2.74127E+05-2.73320E+03-6.31093E+05-5.04151E-08 2.28306E-08
 -1       277-1.47803E+06-2.04415E+05-1.86064E+03-5.48836E+05-4.08909E-09-1.10924E-07
 -1       278-1.40247E+06-2.77341E+05-6.61208E+02-6.37666E+05 7.05222E-08-2.93783E-07
 -1       279-1.47985E+06-2.02202E+05-8.27569E+02-5.46910E+05-2.21135E-08-1.68582E-07
 -1       280-1.40160E+06-2.79705E+05-8.93285E+02-6.41936E+05 1.55792E-08-9.64588E-08
 -1       281-1.48081E+06-2.00848E+05-1.65636E+03-5.45849E+05 8.70568E-09 1.12349E-07
 -1       282-1.40197E+06-2.81716E+05-3.84328E+03-6.43626E+05-8.92487E-09 1.30074E-08
 -1       283-1.48035E+06-1.99750E+05-6.84604E+03-5.45755E+05-3.54846E-08 1.04256E-07
 -1       284-1.40814E+06-2.90549E+05-1.86375E+04-6.41416E+05 1.83597E-08 1.51802E-07
 -1       285-1.47445E+06-1.93154E+05-2.91581E+04-5.47514E+05 8.79118E-09-5.44806E-08
 -1       301-9.93550E+03-6.53058E+05 1.66432E+05-1.15113E+06-4.83124E-09 1.74288E-07
 -1       302-1.24269E+04-6.05574E+05 1.00166E+05-1.67982E+06-1.97542E-08-1.05549E-07
 -1       303-2.40417E+04-6.46247E+05 5.64279E+04-1.14793E+06-3.63070E-09 6.94799E-08
 -1       304-2.81387E+04-6.13227E+05 5.64928E+04-1.67929E+06-1.87574E-08 2.81143E-07
 -1       305-2.85481E+04-6.34849E+05 6.90690E+04-1.15101E+06-4.52928E-10 3.18614E-07
 -1       306-3.00974E+07-6.20587E+06-8.59736E+06-4.69126E+05-5.23869E-08-4.10946E-08
 -1       307 2.51840E+07 3.29435E+06 5.49308E+06-1.53067E+07-7.74002E-07-1.43511E-07
 -1       308-6.88063E+06-9.99237E+05-4.23483E+05 5.20545E+06-1.47847E-07-4.56639E-08
 -1       309-3.14283E+06 8.71380E+06 2.29729E+06-2.07115E+07 4.83662E-07 1.40109E-07
 -1       310-1.27106E+07-1.95934E+06-2.07967E+06 5.21077E+06 1.74623E-08 4.98112E-08
 -1       311 3.87989E+07-1.90329E+04 7.33083E+06-8.64155E+06 1.83238E-07 9.51695E-08
 -1       312-3.19926E+07-6.84354E+06-8.57587E+06-5.15638E+06 2.78233E-07-7.75908E-08
 -1       313 4.53302E+07 1.52746E+07 1.06931E+07 2.40030E+07 4.49276E-07-6.73463E-08
 -1       314-1.71012E+07-1.78981E+07-7.52286E+06-1.25322E+07 5.51459E-07-1.36439E-07
 -1       315-2.01092E+06 2.98326E+07 5.65680E+06 1.03788E+07-1.61162E-07-2.15368E-07
 -1       316 1.45661E+06-9.81021E+06-4.18177E+05-2.46920E+06-1.24212E-06-2.08529E-07
 -1       317-1.70750E+07 2.24385E+07 2.24953E+06-8.91552E+06 9.12958E-07-7.36509E-07
 -1       318-1.10027E+06-1.28802E+07-2.07668E+06-4.24748E+06-8.96311E-07 1.06404E-07
 -1       319 7.34349E+06 3.21304E+07 7.08404E+06 1.67262E+07-4.73010E-08 2.05124E-07
 -1       320-2.26638E+07-1.77008E+07-9.89230E+06-1.28501E+07 2.13622E-07-4.33065E-08
 -1       336-7.53472E+02-1.68414E+06-1.37859E+04 8.85881E+03-2.65227E-08 8.17090E-09
 -1       337-5.39219E+03-1.68366E+06-1.79826E+04-2.15269E+04-4.80595E-08-7.50879E-09
 -1       338 2.62803E+02-1.68363E+06-2.83353E+04 1.24171E+04-3.38223E-08 1.63163E-08
 -1       339-3.00719E+04-1.70081E+06-6.40285E+04-2.84992E+04-6.27924E-08 4.14184E-09
 -1       340 1.97908E+04-1.66915E+06-1.00871E+05 1.57004E+04-4.11674E-08 1.57597E-08
 -1       406-4.98614E+01 3.86344E+05 6.44087E+02 3.35016E+00-1.90042E-09 1.72295E-08
 -1       407 1.54651E+02 3.86478E+05 1.37648E+03 2.34419E+01-6.90740E-10-1.69621E-09
 -1       408 6.34653E+02 3.86244E+05 2.74457E+03-2.71110E+01-2.59251E-09-1.67456E-08
 -1       409 2.90648E+03 3.87355E+05 6.18604E+03 2.89419E+02-2.62730E-10-3.53511E-08
 -1       410 8.47879E+03 3.85453E+05 1.26254E+04-2.79085E+02-2.99042E-09-8.28913E-09
 -1       521-3.17166E+07-7.68731E+06-1.00788E+07-7.04451E+04-8.78936E-08 2.66708E-07
 -1       522 2.61291E+07 4.36488E+06 5.62137E+06-1.88704E+07-4.86674E-07-1.28959E-07
 -1       523-7.45077E+06-1.31863E+06-4.14885E+05 5.66731E+06 1.15077E-07-3.35378E-07
 -1       524-6.64814E+06 1.18402E+07 2.49487E+06-2.38292E+07 9.32967E-07-4.75429E-07
 -1       525-1.35161E+07-2.61568E+06-2.29431E+06 5.68119E+06 1.10688E-06-2.93570E-07
 -1       526 4.25206E+07-1.23624E+05 7.71515E+06-1.13038E+07-1.30385E-08-4.38304E-08
 -1       527-3.39238E+07-8.57124E+06-9.91712E+06-5.02800E+06-1.11759E-07 1.35580E-07
 -1       528 4.96339E+07 1.71120E+07 1.11866E+07 2.73947E+07 3.98140E-08-1.71713E-07
 -1       529-1.80608E+07-2.01784E+07-8.65278E+06-1.25800E+07 1.04541E-07-1.21421E-07
 -1       530-4.50338E+06 3.47530E+07 6.00682E+06 9.80064E+06-3.20957E-07 6.60482E-07
 -1       531 1.47246E+06-1.08959E+07-3.89245E+05-2.39499E+06-7.35352E-07 4.38711E-07
 -1       532-1.95640E+07 2.44788E+07 2.46833E+06-1.33029E+07 4.66942E-07-6.39120E-07
 -1       533-1.13770E+06-1.40685E+07-2.22161E+06-4.03447E+06-2.67115E-07-1.00408E-06
 -1       534 5.36782E+06 3.74272E+07 7.39677E+06 1.73587E+07-1.17579E-07 7.92730E-07
 -1       535-2.38943E+07-2.01682E+07-1.13789E+07-1.29465E+07 7.99773E-08 4.52099E-07
 -1       536-7.06123E+05-4.66198E+04-4.85076E+04-5.46952E+04-2.63162E-09 5.98438E-08
 -1       537-5.49136E+04 4.45376E+04 8.37136E+04 1.23876E+05-1.14828E-07 9.93141E-08
 -1       538-3.94408E+05 3.36767E+03 3.47028E+03-7.22171E+04 3.61539E-08 1.09359E-07
 -1       539-2.69038E+05 2.82924E+03 2.48729E+04 1.38770E+05 1.98254E-07 1.26172E-07
 -1       540-4.97378E+05-4.24515E+02-2.13509E+04-7.01243E+04 2.35359E-08 1.08340E-07
 -1       541 1.46815E+05 1.69727E+04 1.06406E+05 9.79538E+04-4.47099E-08 8.13412E-08
 -1       542-7.99056E+05-2.01409E+04-8.42684E+04-3.05256E+04 8.15012E-08 4.83554E-08
 -1       543 4.05586E+05 2.73336E+04 1.58017E+05-1.33643E+04 3.50155E-09-6.71571E-09
 -1       544-7.49208E+05-1.65424E+04-7.48611E+04 4.05239E+04-2.05487E-08-4.78236E-08
 -1       545 2.90913E+04 9.48702E+03 7.98352E+04-1.13650E+05 4.50386E-08-8.52874E-08
 -1       546-4.32673E+05 6.09743E+03-1.22329E+04 6.94134E+04 5.81817E-08-1.05995E-07
 -1       547-2.87108E+05-4.65605E+03 1.05924E+04-1.41615E+05-1.09716E-07-1.02802E-07
 -1       548-4.41511E+05 4.71989E+03-2.38849E+04 6.91804E+04-9.62261E-08-9.60176E-08
 -1       549 4.82795E+04 1.60879E+04 6.05484E+04-1.11511E+05-7.55515E-08-6.83171E-08
 -1       550-7.59085E+05-2.21567E+04-1.28991E+05 3.85933E+04 3.23780E-09-3.50265E-08
 -1       551 4.07297E+04-7.47932E+05-1.59534E+04-1.24633E+06-1.04657E-07-1.44937E-08
 -1       552 9.31622E+04-7.92888E+05 9.86500E+03-1.77707E+06-7.22794E-08 3.18760E-08
 -1       553 7.16960E+04-7.89304E+05 3.19783E+04-1.23968E+06-1.16939E-07 2.38215E-08
 -1       554 1.31941E+05-8.08799E+05 8.09471E+04-1.77902E+06-7.56336E-08 1.96960E-08
 -1       555 1.01426E+05-8.12959E+05 1.47848E+05-1.23951E+06-1.24091E-07-1.17234E-08
 -1       556 2.23749E+05-3.83755E+05 2.54116E+04-4.07214E+05-2.12458E-08-5.15138E-09
 -1       557 3.54256E+05-4.88097E+05 1.59727E+04-5.27692E+05 4.88944E-09 1.25037E-08
 -1       558 2.05497E+05-3.76488E+05 2.24858E+03-4.11697E+05-1.88593E-08 9.05129E-09
 -1       559 3.29277E+05-4.88121E+05 2.40347E+03-5.48147E+05 2.10130E-08 6.30098E-09
 -1       560 1.90186E+05-3.66887E+05-1.52258E+03-4.22730E+05 7.68341E-09 5.81349E-09
 -1       561 3.10044E+05-4.80421E+05 1.21505E+02-5.61262E+05-3.44880E-09 1.66638E-08
 -1       562 1.78081E+05-3.59367E+05-1.33107E+03-4.31495E+05-6.06815E-09-2.29193E-10
 -1       563 2.95667E+05-4.74152E+05-3.89409E+01-5.70653E+05 2.84490E-09 8.58290E-09
 -1       564 1.69442E+05-3.53984E+05-6.02016E+02-4.37617E+05 8.60018E-09 9.27139E-09
 -1       565 2.86131E+05-4.69999E+05 2.33038E+01-5.76746E+05 3.16504E-09 9.31323E-09
 -1       566 1.64392E+05-3.50790E+05-2.60722E+02-4.41149E+05 3.05590E-09-2.71757E-09
 -1       567 2.81496E+05-4.67983E+05-3.63416E+02-5.79561E+05 2.37487E-08-3.16868E-09
 -1       568 1.63021E+05-3.49950E+05-1.12748E+03-4.42204E+05 1.00554E-08 8.21819E-09
 -1       569 2.80372E+05-4.67910E+05-2.84738E+03-5.78132E+05 9.30595E-09 2.92493E-09
 -1       570 1.66423E+05-3.53187E+05-6.22412E+03-4.41183E+05 1.97906E-08 9.25229E-09
 -1       571 2.90538E+05 1.05088E+04 1.49899E+04-9.52777E+04-5.82077E-10 2.22708E-08
 -1       572 2.92710E+05 3.96209E+03 7.34625E+03-1.04530E+05 1.86219E-09-5.80440E-09
 -1       573 2.91401E+05 1.24740E+03 3.26418E+03-9.51012E+04 3.51065E-10 4.47108E-09
 -1       574 2.91615E+05 7.29051E+02 1.63697E+03-1.04754E+05-1.12937E-09 1.13369E-08
 -1       575 2.91495E+05 4.49670E+02 7.72607E+02-9.50771E+04-2.96990E-09 1.39689E-08
 -1       576 2.91479E+05 4.61148E+02 3.95582E+02-1.04784E+05-8.16704E-09 4.26553E-10
 -1       577 2.91535E+05 3.91490E+02 1.97491E+02-9.50738E+04-6.68297E-09-9.75888E-10
 -1       578 2.91510E+05 4.22977E+02 1.14122E+02-1.04788E+05-5.76983E-09-7.34326E-09
 -1       579 2.91607E+05 3.54664E+02 7.84337E+01-9.50734E+04 3.82352E-09-3.20051E-08
 -1       580 2.91612E+05 3.71784E+02 9.11207E+01-1.04783E+05-9.87984E-09-7.94898E-09
 -1       581 2.91721E+05 2.95911E+02 1.37708E+02-9.50794E+04 8.85666E-09 8.98308E-09
 -1       582 2.91788E+05 3.34305E+02 2.80042E+02-1.04722E+05 6.97037E-09 1.67902E-08
 -1       583 2.91862E+05 3.38467E+02 5.37533E+02-9.51360E+04 1.69894E-09 1.88941E-08
 -1       584 2.92164E+05 7.77555E+02 1.21640E+03-1.04245E+05 6.68842E-09-1.71212E-09
 -1       585 2.91888E+05 1.80128E+03 2.46318E+03-9.55557E+04 1.30422E-09 7.45786E-09
 -1       586-3.42338E+03 1.16983E+05-2.91072E+03-2.50699E+05-7.44240E-09-9.57493E-09
 -1       587-1.34026E+03 1.16736E+05 7.75890E+02-2.75913E+05-9.42055E-09-3.86665E-08
 -1       588 3.97250E+02 1.16542E+05 4.76457E+03-2.50561E+05-5.90808E-09 1.01772E-09
 -1       589 5.08664E+03 1.19017E+05 1.23538E+04-2.75680E+05-8.11087E-09-3.48155E-09
 -1       590 1.66191E+04 1.15207E+05 2.59132E+04-2.50993E+05-4.86671E-09 3.01043E-08
 -1       591-7.50645E+04-1.59731E+04-2.25412E+04-3.19721E+04-1.19330E-08 1.42063E-09
 -1       592-7.91618E+04-1.95268E+04-1.22101E+04-3.55925E+04-1.46441E-08-7.70478E-09
 -1       593-7.73188E+04-1.43376E+04-5.08245E+03-3.36249E+04-5.78656E-09 6.43922E-09
 -1       594-7.60496E+04-1.62191E+04-2.53475E+03-3.57102E+04-2.82746E-10 2.87565E-09
 -1       595-7.74906E+04-1.43322E+04-1.16370E+03-3.37000E+04-4.99227E-09 1.15752E-08
 -1       596-7.58365E+04-1.60678E+04-5.91350E+02-3.56849E+04 7.50120E-09 2.60761E-08
 -1       597-7.75122E+04-1.43476E+04-3.21541E+02-3.37029E+04 2.88026E-09 6.05780E-09
 -1       598-7.58155E+04-1.60618E+04-2.57625E+02-3.56778E+04-4.26621E-09 1.06075E-08
 -1       599-7.75109E+04-1.43481E+04-3.28019E+02-3.37026E+04 1.23578E-09 3.11502E-10
 -1       600-7.58365E+04-1.60683E+04-6.08500E+02-3.56827E+04-1.22192E-08-8.39407E-09
 -1       601-7.74863E+04-1.43336E+04-1.19999E+03-3.36991E+04-4.53974E-09-8.34780E-09
 -1       602-7.60562E+04-1.62232E+04-2.61503E+03-3.57050E+04-3.58807E-09-1.68986E-08
 -1       603-7.73062E+04-1.43420E+04-5.24410E+03-3.36224E+04-4.27690E-09-2.01953E-09
 -1       604-7.92850E+04-1.96164E+04-1.25976E+04-3.55587E+04-2.57387E-09 2.82830E-09
 -1       605-7.49603E+04-1.60474E+04-2.32566E+04-3.19365E+04-1.42501E-09 1.04556E-08
 -1       606 2.65936E+04-1.43351E+04-2.56980E+04 2.39250E+04 7.90260E-09 7.12612E-09
 -1       607 2.22027E+04-4.68180E+03-1.27975E+04 2.68867E+04-1.39607E-09 1.17977E-08
 -1       608 2.47053E+04-8.44554E+02-5.72902E+03 2.37568E+04-2.99951E-09-6.90920E-09
 -1       609 2.42257E+04-2.89372E+02-2.89415E+03 2.71002E+04-3.11047E-10-3.08364E-09
 -1       610 2.44918E+04-4.10314E+01-1.38082E+03 2.37368E+04 1.36988E-08 1.06279E-08
 -1       611 2.44165E+04-4.13674E+01-6.96197E+02 2.71233E+04 2.63499E-08-1.06638E-10
 -1       612 2.44448E+04-2.73914E+01-3.30939E+02 2.37348E+04 1.04683E-09-1.50817E-08
 -1       613 2.44282E+04-3.73440E+01-1.48251E+02 2.71260E+04-1.73386E-08-2.18831E-08
 -1       614 2.44227E+04-3.38748E+01-3.46377E+01 2.37341E+04-8.65293E-09 7.77868E-09
 -1       615 2.44231E+04-3.59079E+01 6.24411E+01 2.71264E+04-2.75759E-09 7.29551E-09
 -1       616 2.44053E+04-3.07934E+01 1.86960E+02 2.37344E+04 1.76124E-09 2.48065E-09
 -1       617 2.44456E+04 3.88320E+00 4.26445E+02 2.71260E+04 3.95084E-09-1.63795E-08
 -1       618 2.43684E+04 9.21042E+01 8.59529E+02 2.37347E+04-9.85256E-09-7.87168E-10
 -1       619 2.47491E+04 6.68440E+02 1.93011E+03 2.71254E+04-2.06392E-08-8.71614E-09
 -1       620 2.40829E+04 2.13024E+03 3.87946E+03 2.37362E+04-8.72001E-09-1.32773E-08
 -1       621 5.11163E+02 3.01433E+05 3.88331E+03 4.11284E+04 7.78073E-10 1.48475E-08
 -1       622 6.77789E+02 3.02329E+05 3.44697E+03 5.97090E+04 1.06593E-09 1.32368E-08
 -1       623 1.43480E+02 3.01627E+05 4.14269E+03 4.09423E+04 1.14119E-09 8.39827E-09
 -1       624 2.12801E+03 3.03546E+05 8.03162E+03 5.98921E+04 1.31513E-09-3.31920E-09
 -1       625 2.07882E+03 3.00033E+05 1.40351E+04 4.09391E+04 1.41563E-09 1.22754E-08
 -1       626 2.60977E+05 6.13849E+04 5.12726E+03 1.26717E+05 2.95358E-09-7.62975E-09
 -1       627 2.58665E+05 6.27748E+04 2.47078E+03 1.30986E+05-4.07454E-10-1.04247E-08
 -1       628 2.61105E+05 5.90394E+04 1.04497E+03 1.27589E+05-6.62749E-09-1.88518E-08
 -1       629 2.58030E+05 6.20932E+04 5.11449E+02 1.31226E+05-5.30599E-09 1.09290E-08
 -1       630 2.61119E+05 5.89260E+04 2.37346E+02 1.27626E+05-1.80898E-09 5.94400E-09
 -1       631 2.57963E+05 6.20672E+04 1.27839E+02 1.31228E+05 3.21597E-09-9.62314E-09
 -1       632 2.61116E+05 5.89299E+04 8.43232E+01 1.27622E+05 7.39101E-09-1.85339E-08
 -1       633 2.57955E+05 6.20690E+04 9.42471E+01 1.31224E+05 3.73757E-09-9.27071E-09
 -1       634 2.61111E+05 5.89271E+04 1.52581E+02 1.27622E+05-2.76350E-09-4.54384E-09
 -1       635 2.57969E+05 6.20673E+04 3.08915E+02 1.31230E+05-4.37106E-09 1.95300E-08
 -1       636 2.61102E+05 5.89213E+04 6.23944E+02 1.27621E+05 8.55107E-09-5.94537E-09
 -1       637 2.58104E+05 6.21643E+04 1.37196E+03 1.31229E+05 1.94873E-08 2.22099E-09
 -1       638 2.61054E+05 5.92243E+04 2.81887E+03 1.27485E+05 1.14837E-08-3.19005E-09
 -1       639 2.59585E+05 6.42238E+04 6.66960E+03 1.30793E+05 5.31577E-09-2.01908E-09
 -1       640 2.60849E+05 6.53741E+04 1.38406E+04 1.24893E+05 5.54792E-09 1.46133E-09
 -1       656 6.65663E+04-1.70375E+06-1.60688E+05-2.56530E+03 5.09317E-11-1.71877E-09
 -1       657-8.80632E+04-1.77636E+06-1.33123E+05 5.14957E+03 9.27685E-11 1.01048E-09
 -1       658 2.12207E+04-1.72437E+06-8.19918E+04-4.64794E+03 8.61746E-11 3.29909E-09
 -1       659-9.52386E+04-1.77977E+06-1.42553E+05 6.88082E+03-1.15688E-09 1.70917E-08
 -1       660 7.37257E+04-1.70035E+06-1.76900E+05-4.29654E+03-2.29920E-09 1.53514E-09
 -1       661 1.57941E+05 1.65166E+04 1.66674E+04 6.17387E+04-1.18189E-09 7.21775E-09
 -1       662 1.67312E+05 2.89118E+04 1.12326E+04 5.80589E+04-1.53943E-09-4.66719E-09
 -1       663 1.61214E+05 2.18642E+04 3.92851E+03 6.07890E+04-6.21185E-10-1.50021E-08
 -1       664 1.63517E+05 2.26581E+04 2.35009E+03 5.92190E+04-3.51665E-09-2.23392E-09
 -1       665 1.61711E+05 2.25947E+04 9.27199E+02 6.06443E+04 1.47242E-09 2.28738E-10
 -1       666 1.62929E+05 2.18228E+04 5.42936E+02 5.94078E+04 5.69480E-09-1.42582E-08
 -1       667 1.61798E+05 2.26777E+04 2.88953E+02 6.06080E+04 8.41709E-10 1.59170E-09
 -1       668 1.62833E+05 2.17634E+04 2.95556E+02 5.94607E+04-6.22616E-09 3.09038E-09
 -1       669 1.61806E+05 2.26523E+04 4.01145E+02 6.05916E+04-4.88578E-09-1.39983E-09
 -1       670 1.62931E+05 2.19818E+04 8.74400E+02 5.94639E+04-7.23190E-09-3.12554E-09
 -1       671 1.61700E+05 2.24638E+04 1.55285E+03 6.06028E+04 4.44452E-10-9.85801E-09
 -1       672 1.63835E+05 2.34932E+04 3.97322E+03 5.92453E+04 9.98118E-09-2.30461E-08
 -1       673 1.60906E+05 2.11792E+04 6.65852E+03 6.07956E+04 5.25415E-09 2.88355E-09
 -1       674 1.70172E+05 3.41919E+04 1.90421E+04 5.73847E+04-5.82224E-09-2.43290E-10
 -1       675 1.55405E+05 1.20648E+04 2.82651E+04 6.23510E+04-1.11459E-09 1.12923E-08
 -1       676 2.37885E+01-2.95799E+05-1.09834E+03-1.38583E+02 9.83846E-10 1.02092E-08
 -1       677-2.90498E+02-2.96064E+05-2.01015E+03 2.76942E+02 1.10715E-08 7.22932E-09
 -1       678 1.94872E+02-2.95610E+05-3.55344E+03-1.38270E+02 6.41649E-10 5.41001E-09
 -1       679-3.55346E+03-2.98210E+05-8.44150E+03 2.75726E+02 8.67124E-09 9.20051E-09
 -1       680 2.12165E+03-2.93655E+05-1.36048E+04-1.35860E+02-4.19277E-10-5.69220E-09
 -1       771-3.06107E+06-7.47305E+05-1.66264E+05-1.46561E+06-3.40224E-08-2.67755E-08
 -1       772-2.98395E+06-8.36236E+05-8.57261E+04-1.56843E+06-2.48692E-08 1.26274E-08
 -1       773-3.09261E+06-7.22715E+05-4.36906E+04-1.48019E+06-1.17579E-08 1.51922E-08
 -1       774-2.97440E+06-8.17654E+05-1.94949E+04-1.59422E+06 2.29775E-08-1.33878E-09
 -1       775-3.10908E+06-7.11164E+05-1.45759E+04-1.48726E+06-5.79166E-09 4.92582E-09
 -1       776-2.98677E+06-8.14608E+05-5.45192E+03-1.61373E+06-7.14499E-09 1.12414E-08
 -1       777-3.12337E+06-7.00854E+05-6.43794E+03-1.49349E+06 1.57161E-09 1.63564E-08
 -1       778-2.99968E+06-8.11777E+05-1.82065E+03-1.63050E+06-8.29459E-09 9.37143E-09
 -1       779-3.13565E+06-6.91844E+05-3.21655E+03-1.49881E+06-1.17434E-08-8.13816E-09
 -1       780-3.01105E+06-8.09077E+05-5.33491E+02-1.64416E+06-1.36788E-08-1.76442E-09
 -1       781-3.14541E+06-6.84581E+05-1.24934E+03-1.50298E+06-2.80997E-08 4.80577E-09
 -1       782-3.01982E+06-8.06785E+05 4.50788E+02-1.65424E+06-3.36804E-08-2.65391E-09
 -1       783-3.15229E+06-6.79534E+05 7.01994E+02-1.50589E+06-1.82627E-09-1.71699E-08
 -1       784-3.02467E+06-8.04495E+05 2.90833E+03-1.66046E+06-8.12724E-09 3.53612E-09
 -1       785-3.15636E+06-6.76523E+05 5.13439E+03-1.50775E+06-3.22725E-08 6.50471E-09
 -1       786 1.23385E+05-9.75787E+03 2.25758E+04-3.22148E+02 1.80726E-09 6.47833E-09
 -1       787 1.33176E+05 1.12974E+04 1.59714E+04-1.35447E+02 8.42081E-09 1.47270E-09
 -1       788 1.27160E+05-1.52908E+03 5.84084E+03-2.87050E+02 3.58436E-09 6.03040E-09
 -1       789 1.28778E+05 1.76988E+03 3.66666E+03-1.89222E+02 1.51121E-09-3.76781E-09
 -1       790 1.27783E+05-2.38071E+02 1.48456E+03-2.68391E+02-8.90985E-11 7.22810E-09
 -1       791 1.28049E+05 2.75452E+02 8.57432E+02-2.21147E+02-6.09321E-09 1.09814E-08
 -1       792 1.27889E+05-3.57742E+01 3.63313E+02-2.55128E+02-5.47876E-09-2.26370E-09
 -1       793 1.27923E+05 3.77855E+01 1.81049E+02-2.46084E+02-1.31225E-09-1.67190E-08
 -1       794 1.27909E+05-5.54699E-01 4.69095E+01-2.43453E+02 4.58324E-09-1.05433E-08
 -1       795 1.27886E+05-2.75719E+01-5.81675E+01-2.70423E+02-6.19564E-09 1.19573E-08
 -1       796 1.27926E+05 2.95467E+01-1.63352E+02-2.30789E+02 4.34045E-09 1.86393E-08
 -1       797 1.27790E+05-2.20574E+02-4.48186E+02-2.99480E+02 4.69001E-09-6.18336E-10
 -1       798 1.28004E+05 1.92302E+02-7.27783E+02-2.14395E+02 2.61332E-09-1.61203E-08
 -1       799 1.27238E+05-1.41745E+03-2.00217E+03-3.40050E+02 5.03372E-09 9.70999E-09
 -1       800 1.28478E+05 1.22545E+03-2.83346E+03-1.90220E+02-7.24167E-11 1.49373E-08
 -1       801-1.71249E+05-9.99860E+06-1.39360E+06 1.41565E+06 9.26084E-08-4.72974E-08
 -1       802 7.38397E+05 5.95196E+06 2.18210E+06-1.74760E+06 2.58420E-07-3.09074E-08
 -1       803-5.36735E+05-1.42689E+07-1.89095E+06 8.98215E+05 7.76563E-08 2.31958E-08
 -1       804 2.87259E+05 2.39659E+06 1.53756E+06 6.77345E+05-1.21112E-07-1.04001E-07
 -1       805 1.89385E+05-6.45733E+06-2.86561E+05-1.00363E+06-4.96802E-08-7.49333E-08
 -1       806-3.08881E+05-5.97349E+04-2.28474E+04-1.22377E+05-6.28779E-09-1.50521E-08
 -1       807-3.10681E+05-5.60035E+04-1.12247E+04-1.27919E+05 1.14869E-08 6.39518E-09
 -1       808-3.09509E+05-5.15009E+04-4.76187E+03-1.26270E+05-4.50927E-09 5.43560E-09
 -1       809-3.08321E+05-5.28494E+04-2.32843E+03-1.28194E+05-1.71804E-08 1.61857E-08
 -1       810-3.09603E+05-5.12143E+04-1.06726E+03-1.26442E+05 1.39562E-09-4.21005E-09
 -1       811-3.08138E+05-5.27227E+04-5.30768E+02-1.28159E+05 5.31554E-09-1.55287E-08
 -1       812-3.09617E+05-5.12390E+04-2.68522E+02-1.26441E+05-4.99222E-09-3.70937E-09
 -1       813-3.08113E+05-5.27249E+04-1.74650E+02-1.28140E+05-5.92627E-09 1.07907E-08
 -1       814-3.09610E+05-5.12487E+04-1.73303E+02-1.26437E+05-5.11409E-09-1.15597E-08
 -1       815-3.08117E+05-5.27271E+04-2.79418E+02-1.28133E+05 8.34461E-09-1.47429E-09
 -1       816-3.09589E+05-5.12478E+04-5.29718E+02-1.26433E+05 3.48609E-09-3.42698E-09
 -1       817-3.08207E+05-5.27776E+04-1.13689E+03-1.28121E+05-1.17143E-08 7.28596E-09
 -1       818-3.09520E+05-5.14083E+04-2.31888E+03-1.26358E+05-9.37416E-09-1.09408E-08
 -1       819-3.09476E+05-5.41786E+04-5.45615E+03-1.27820E+05-5.64933E-09 6.03177E-09
 -1       820-3.09083E+05-5.55300E+04-1.11053E+04-1.24597E+05-5.25961E-09 1.52309E-08
 -1       821-3.78802E+05 2.08634E+04-4.85615E+04 2.12019E+03 1.40751E-08 1.34969E-09
 -1       822-3.98520E+05-2.41687E+04-3.41317E+04-4.42764E+03 5.51023E-09 1.18062E-08
 -1       823-3.86273E+05 3.28850E+03-1.25434E+04 3.41824E+03-1.17885E-08 3.53293E-09
 -1       824-3.89505E+05-3.79235E+03-7.85194E+03-5.32776E+03 1.16079E-09 2.23175E-08
 -1       825-3.87824E+05 5.10985E+02-3.28750E+03 3.02043E+03 1.88365E-08 1.69119E-08
 -1       826-3.87084E+05-5.67514E+02-1.74610E+03-3.06657E+03 2.83648E-08-3.56707E-09
 -1       827-3.88669E+05 4.73543E+01-1.18742E+03 1.15691E+03 9.46272E-09-1.06861E-08
 -1       828-3.86387E+05-1.32763E+02-5.90276E+02 1.09789E+03-1.52932E-09-2.93033E-10
 -1       829-3.88508E+05 6.63515E+01-1.17669E+03-1.14406E+03 2.87599E-10 1.07212E-08
 -1       830-3.87432E+05-6.22246E+02-1.88424E+03 4.85791E+03-2.54815E-09 1.57385E-08
 -1       831-3.87646E+05 5.54240E+02-3.37029E+03-2.60313E+03-6.30663E-09 8.34234E-10
 -1       832-3.89585E+05-3.95994E+03-8.15655E+03 6.12684E+03-2.56218E-09-1.37389E-08
 -1       833-3.86371E+05 3.41340E+03-1.30501E+04-2.41304E+03-2.60026E-09 1.75714E-08
 -1       834-3.98586E+05-2.50882E+04-3.53633E+04 4.16645E+03-3.30191E-09 3.13921E-08
 -1       835-3.78629E+05 2.16499E+04-5.04431E+04-6.42655E+02 5.62142E-09-7.78527E-10
 -1       836-1.41407E+03 3.70206E+05 2.29103E+04-1.61007E+04-6.98310E-09-8.44921E-10
 -1       837 4.88372E+03 3.77382E+05 1.93825E+04-3.29057E+04-7.72661E-09 1.55087E-08
 -1       838-5.58067E+02 3.72218E+05 1.97428E+04-1.60292E+04-6.42058E-09 3.62706E-09
 -1       839 1.24225E+04 3.82996E+05 3.73420E+04-3.29582E+04-6.56473E-09-2.81534E-09
 -1       840-3.84079E+03 3.64532E+05 5.95445E+04-1.60540E+04-6.08998E-09 1.34387E-08
 -1       856-5.50317E+04 8.12611E+03-2.14141E+04-4.00285E+02 3.96403E-09-1.82081E-09
 -1       857-6.38534E+04-9.54798E+03-1.47413E+04 5.70832E+03 3.58955E-09-8.90668E-09
 -1       858-5.85254E+04 1.13960E+03-5.55648E+03-4.25505E+02 5.06162E-09 7.66181E-09
 -1       859-5.98441E+04-1.34073E+03-3.35314E+03 5.74593E+03-1.76897E-09 3.29599E-08
 -1       860-5.90474E+04 1.59604E+02-1.40544E+03-4.37620E+02 3.46262E-10 1.92765E-08
 -1       861-5.92437E+04-1.90568E+02-7.73437E+02 5.76243E+03 2.05596E-09-1.34909E-08
 -1       862-5.91290E+04 2.16497E+01-3.22066E+02-4.41982E+02-1.88795E-09-1.71414E-09
 -1       863-5.91437E+04-2.23606E+01-1.18590E+02 5.76490E+03-2.48801E-09-2.02114E-10
 -1       864-5.91478E+04-4.78251E+00 4.49304E+01-4.40086E+02-1.38647E-09-1.03398E-08
 -1       865-5.90879E+04 5.88364E+01 2.52114E+02 5.75427E+03-2.68325E-09 5.42217E-09
 -1       866-5.91825E+04-5.96297E+01 5.09496E+02-4.31357E+02-2.96666E-10-1.63362E-08
 -1       867-5.88477E+04 4.92089E+02 1.25513E+03 5.73059E+03 2.92053E-09 1.38500E-08
 -1       868-5.93831E+04-4.30353E+02 2.08574E+03-4.16402E+02-4.33346E-09 4.52712E-09
 -1       869-5.73178E+04 3.58086E+03 5.55423E+03 5.69176E+03 2.58660E-09-2.14745E-08
 -1       870-6.07044E+04-3.06471E+03 8.06013E+03-3.92427E+02-4.17015E-09-2.10466E-08
 -1       871-5.52589E+03-2.15160E+04-1.95197E+04 1.30269E+05-3.89264E-09-1.56433E-10
 -1       872-1.98512E+03-2.60546E+04-8.17708E+03 1.68913E+05-1.07011E-08-1.86010E-08
 -1       873 4.05518E+02-2.38585E+04 5.81725E+02 1.29982E+05-5.98311E-09 1.26870E-08
 -1       874 3.30594E+03-2.14491E+04 9.77311E+03 1.68942E+05-1.16788E-08 2.29350E-08
 -1       875 6.84554E+03-2.61881E+04 2.20547E+04 1.30221E+05-4.75120E-09-1.71894E-09
 -1       876 2.94733E+05 4.95395E+04 1.51830E+04 1.18089E+05 7.38260E-09-6.09271E-09
 -1       877 2.95798E+05 5.26758E+04 8.10827E+03 1.22374E+05 7.93261E-09-7.79892E-10
 -1       878 2.96153E+05 4.78581E+04 3.39696E+03 1.19334E+05-5.86124E-09-4.55793E-09
 -1       879 2.93735E+05 5.06153E+04 1.69255E+03 1.22476E+05 7.32325E-09 1.42086E-08
 -1       880 2.96254E+05 4.78408E+04 7.88310E+02 1.19385E+05 9.20863E-10-1.06336E-08
 -1       881 2.93598E+05 5.05272E+04 4.20875E+02 1.22453E+05-1.30021E-08 9.35216E-10
 -1       882 2.96264E+05 4.78541E+04 2.69070E+02 1.19386E+05-1.03637E-09 9.14021E-10
 -1       883 2.93589E+05 5.05225E+04 2.88994E+02 1.22445E+05 2.62668E-09 6.91813E-10
 -1       884 2.96257E+05 4.78514E+04 4.59483E+02 1.19387E+05-5.27143E-09-2.12180E-08
 -1       885 2.93625E+05 5.05288E+04 9.23656E+02 1.22456E+05-1.15369E-09-9.67884E-09
 -1       886 2.96221E+05 4.78245E+04 1.86153E+03 1.19383E+05 1.50627E-09 2.93608E-09
 -1       887 2.93952E+05 5.07434E+04 4.06620E+03 1.22503E+05 7.36736E-09 3.13003E-09
 -1       888 2.95964E+05 4.78699E+04 8.19351E+03 1.19253E+05-2.53340E-09 3.17868E-09
 -1       889 2.98828E+05 5.58173E+04 1.95727E+04 1.22355E+05-4.19712E-09-1.03955E-08
 -1       890 2.92621E+05 5.18413E+04 3.66592E+04 1.16133E+05-6.03768E-09-9.77525E-09
 -1       891-8.42539E+01-1.66352E+05-2.17417E+03 2.68005E+04-4.86102E-09-8.42647E-09
 -1       892-2.09097E+02-1.66934E+05-2.28355E+03 4.13890E+04-8.52060E-09-7.30370E-09
 -1       893 4.74324E+01-1.66432E+05-3.16523E+03 2.68078E+04-5.10727E-09-1.54459E-08
 -1       894-1.59862E+03-1.68117E+05-6.51929E+03 4.12360E+04-5.41149E-09 8.31096E-09
 -1       895-1.07830E+03-1.65068E+05-1.14060E+04 2.69553E+04-3.93902E-09 1.25983E-08
 -1       956-3.77223E+05-5.44955E+03-1.34523E+04 3.08667E+04 6.91034E-09-1.03762E-08
 -1       957-3.79862E+05-1.92248E+03-6.90485E+03 3.70936E+04-3.18323E-10-2.41535E-08
 -1       958-3.78432E+05-2.40964E+02-3.11155E+03 3.06990E+04 5.43878E-10-1.49507E-08
 -1       959-3.78628E+05-1.36317E+02-1.58880E+03 3.72891E+04 8.10087E-09-1.37334E-09
 -1       960-3.78550E+05-4.48584E+01-7.74768E+02 3.06818E+04 1.07357E-08-2.58569E-09
 -1       961-3.78548E+05-6.32894E+01-4.10759E+02 3.73096E+04 1.47709E-08 1.76883E-08
 -1       962-3.78577E+05-4.60888E+01-2.35144E+02 3.06789E+04 3.65753E-09 1.26558E-08
 -1       963-3.78548E+05-5.91057E+01-1.88720E+02 3.73132E+04 4.98073E-09-1.31156E-08
 -1       964-3.78583E+05-4.27470E+01-2.29446E+02 3.06781E+04 3.88468E-10 3.92924E-09
 -1       965-3.78560E+05-5.61598E+01-3.96804E+02 3.73125E+04-3.22632E-09 9.21887E-09
 -1       966-3.78567E+05-3.49291E+01-7.45562E+02 3.06796E+04 4.41651E-09 2.92312E-09
 -1       967-3.78650E+05-1.19671E+02-1.52912E+03 3.72981E+04-2.28306E-09-4.08181E-09
 -1       968-3.78463E+05-2.17295E+02-2.99346E+03 3.06923E+04-1.32331E-10 5.28030E-09
 -1       969-3.79849E+05-1.83314E+03-6.64539E+03 3.71496E+04 2.05910E-09 9.44880E-09
 -1       970-3.77307E+05-5.22621E+03-1.29456E+04 3.08196E+04-1.67984E-09 3.10138E-09
 -1       971-3.45599E+05-1.72884E+03-9.31964E+03 1.52067E+04 5.67616E-09 6.02545E-09
 -1       972-3.47842E+05-1.27267E+03-5.07540E+03 2.10266E+04-2.32831E-10-6.79393E-10
 -1       973-3.46637E+05-6.18326E+01-2.27332E+03 1.50861E+04 4.37194E-09-1.47861E-09
 -1       974-3.46772E+05-8.08834E+01-1.17842E+03 2.11631E+04 2.84217E-11-3.86353E-09
 -1       975-3.46719E+05-1.70220E+01-5.89530E+02 1.50738E+04-3.11729E-09 5.41286E-09
 -1       976-3.46711E+05-3.10646E+01-3.40970E+02 2.11789E+04 3.72825E-09-1.74009E-09
 -1       977-3.46736E+05-1.63074E+01-2.48998E+02 1.50704E+04-2.99860E-09 1.20235E-08
 -1       978-3.46716E+05-2.48247E+01-2.93438E+02 2.11838E+04-1.06260E-08 1.50424E-08
 -1       979-3.46735E+05-7.77205E+00-4.73232E+02 1.50689E+04-4.38865E-09-3.55033E-09
 -1       980-3.46752E+05-2.16660E+01-9.14850E+02 2.11849E+04-4.09727E-09 1.41282E-08
 -1       981-3.46706E+05 1.52226E+01-1.77241E+03 1.50693E+04 7.20695E-09 1.91387E-08
 -1       982-3.46995E+05-1.52450E+02-3.66388E+03 2.11786E+04 1.65461E-08-9.82322E-09
 -1       983-3.46483E+05-9.80636E+01-7.11908E+03 1.50752E+04-3.65162E-10-1.56385E-08
 -1       984-3.50420E+05-3.87032E+03-1.59431E+04 2.10949E+04 1.88811E-09-9.71727E-09
 -1       985-3.43260E+05-5.30713E+03-2.92763E+04 1.51448E+04-1.74896E-09 7.48514E-09
 -3
    1PSTEP                        25          13           1          
  100CL  113 6.62796E-01         409                     0   13           1
 -4  DISP        4    1
 -5  D1          1    2    1    0
 -5  D2          1    2    2    0
 -5  D3          1    2    3    0
 -5  ALL         1    2    0    0    1ALL
 -1         1 2.72934E-03 0.00000E+00 0.00000E+00
 -1         2 1.31557E-03-3.41164E-27 0.00000E+00
 -1         3 3.42685E-04-3.29426E-28 0.00000E+00
 -1         5 1.77108E-04-1.93426E-27 0.00000E+00
 -1         8 2.71874E-03-3.98973E-07 0.00000E+00
 -1         9 2.71190E-03-2.04771E-04 0.00000E+00
 -1        10 3.10737E-04-3.38880E-06 6.61744E-24
 -1        12 1.78957E-04 8.09277E-07 0.00000E+00
 -1        15 2.70668E-03-4.21702E-07 0.00000E+00
 -1        16 2.78360E-03-2.06671E-04 0.00000E+00
 -1        17 2.11478E-04-7.73165E-06 0.00000E+00
 -1        18 1.82911E-04 3.44437E-05 0.00000E+00
 -1        19 1.84505E-04 1.61213E-06 0.00000E+00
 -1        20 1.84644E-04-9.91078E-06 0.00000E+00
 -1        21 1.83688E-04-2.54422E-05 3.30872E-24
 -1        24 3.05947E-05-1.19514E-05 0.00000E+00
 -1        25 1.93706E-04 3.46696E-05 0.00000E+00
 -1        26 1.94385E-04 2.23229E-06 0.00000E+00
 -1        27 1.92186E-04-1.34691E-05 0.00000E+00
 -1        28 1.91854E-04-2.60642E-05 0.00000E+00
 -1        32 0.00000E+00 0.00000E+00 0.00000E+00
 -1        33 2.03264E-04 2.98613E-06 0.00000E+00
 -1        34 2.01145E-04-1.35257E-05 0.00000E+00
 -1        35 1.99211E-04-2.64142E-05 0.00000E+00
 -1        51 2.72863E-03-8.40910E-08 0.00000E+00
 -1        52 2.72732E-03-1.49681E-07 3.30872E-24
 -1        53 2.72556E-03-2.11752E-07 0.00000E+00
 -1        54 2.72345E-03-2.72537E-07-1.65436E-24
 -1        55 2.72114E-03-3.33801E-07-3.30872E-24
 -1        56 2.72106E-03 9.91814E-06 5.29396E-23
 -1        57 2.70430E-03 4.06758E-05 5.29396E-23
 -1        58 2.68156E-03 8.57703E-05 0.00000E+00
 -1        59 2.65601E-03 1.37345E-04 0.00000E+00
 -1        60 2.63152E-03 1.86430E-04-1.05879E-22
 -1        61 2.61182E-03 2.24258E-04 0.00000E+00
 -1        62 2.59945E-03 2.44067E-04 0.00000E+00
 -1        63 2.59602E-03 2.40698E-04 0.00000E+00
 -1        64 2.60126E-03 2.13258E-04-1.05879E-22
 -1        65 2.61409E-03 1.63145E-04-5.29396E-23
 -1        66 2.63228E-03 9.60947E-05 0.00000E+00
 -1        67 2.65334E-03 1.95231E-05 0.00000E+00
 -1        68 2.67447E-03-5.72878E-05 1.05879E-22
 -1        69 2.69290E-03-1.25026E-04 5.29396E-23
 -1        70 2.70608E-03-1.76158E-04-5.29396E-23
 -1        86 1.40340E-03-6.42366E-06 0.00000E+00
 -1        87 1.65717E-03-4.05896E-05-2.64698E-23
 -1        88 1.99842E-03-9.94088E-05-2.64698E-23
 -1        89 2.34446E-03-1.59920E-04 0.00000E+00
 -1        90 2.60977E-03-1.96962E-04-5.29396E-23
 -1       121 3.41788E-04-5.47072E-07 1.32349E-23
 -1       122 3.39100E-04-1.09723E-06 6.61744E-24
 -1       123 3.34631E-04-1.65351E-06-1.32349E-23
 -1       124 3.28398E-04-2.21896E-06 0.00000E+00
 -1       125 3.20423E-04-2.79623E-06 0.00000E+00
 -1       191 1.77159E-04 1.34943E-07 8.27181E-25
 -1       192 1.77313E-04 2.69875E-07-1.24077E-24
 -1       193 1.77570E-04 4.04787E-07-2.48154E-24
 -1       194 1.77929E-04 5.39667E-07 0.00000E+00
 -1       195 1.78392E-04 6.74501E-07-1.65436E-24
 -1       251 2.71844E-03 1.59220E-06-6.61744E-24
 -1       252 2.71814E-03 3.44673E-06-3.30872E-24
 -1       253 2.71784E-03 4.13475E-06 6.61744E-24
 -1       254 2.71753E-03 2.64085E-06 0.00000E+00
 -1       255 2.71722E-03-1.72061E-06 0.00000E+00
 -1       256 2.71688E-03-9.59951E-06-3.30872E-24
 -1       257 2.71651E-03-2.11145E-05 6.61744E-24
 -1       258 2.71610E-03-3.63387E-05 3.30872E-24
 -1       259 2.71563E-03-5.47859E-05 0.00000E+00
 -1       260 2.71511E-03-7.59288E-05 0.00000E+00
 -1       261 2.71455E-03-9.88333E-05 0.00000E+00
 -1       262 2.71398E-03-1.22544E-04 6.61744E-24
 -1       263 2.71341E-03-1.45983E-04 0.00000E+00
 -1       264 2.71286E-03-1.68075E-04 6.61744E-24
 -1       265 2.71236E-03-1.87952E-04-1.32349E-23
 -1       266 2.71673E-03-4.08295E-07 0.00000E+00
 -1       267 2.71472E-03-4.11409E-07 0.00000E+00
 -1       268 2.71271E-03-4.14915E-07 0.00000E+00
 -1       269 2.71070E-03-4.17257E-07 0.00000E+00
 -1       270 2.70869E-03-4.19572E-07-2.06795E-25
 -1       271 2.71796E-03-4.98507E-08 0.00000E+00
 -1       272 2.71819E-03-2.47972E-06-6.61744E-24
 -1       273 2.71940E-03-7.51999E-06 0.00000E+00
 -1       274 2.72150E-03-1.49889E-05-6.61744E-24
 -1       275 2.72441E-03-2.46831E-05-2.64698E-23
 -1       276 2.72805E-03-3.63837E-05 0.00000E+00
 -1       277 2.73233E-03-4.98549E-05 0.00000E+00
 -1       278 2.73715E-03-6.48476E-05-6.61744E-24
 -1       279 2.74243E-03-8.11006E-05 0.00000E+00
 -1       280 2.74806E-03-9.83426E-05 6.61744E-24
 -1       281 2.75395E-03-1.16294E-04 1.32349E-23
 -1       282 2.75999E-03-1.34672E-04 0.00000E+00
 -1       283 2.76607E-03-1.53187E-04-1.32349E-23
 -1       284 2.77210E-03-1.71550E-04 0.00000E+00
 -1       285 2.77798E-03-1.89473E-04 0.00000E+00
 -1       301 2.72492E-03-2.05123E-04-1.32349E-23
 -1       302 2.73626E-03-2.05428E-04-3.30872E-24
 -1       303 2.74685E-03-2.05721E-04 0.00000E+00
 -1       304 2.75765E-03-2.06015E-04 6.61744E-24
 -1       305 2.76958E-03-2.06324E-04 0.00000E+00
 -1       306 2.75008E-03-3.60658E-04 0.00000E+00
 -1       307 2.81394E-03-7.75967E-04 5.29396E-23
 -1       308 2.86049E-03-1.38199E-03 1.05879E-22
 -1       309 2.88441E-03-2.08235E-03-5.29396E-23
 -1       310 2.91601E-03-2.75118E-03 0.00000E+00
 -1       311 2.97571E-03-3.26538E-03 0.00000E+00
 -1       312 3.03324E-03-3.54454E-03 2.11758E-22
 -1       313 3.02733E-03-3.55135E-03 0.00000E+00
 -1       314 2.88406E-03-3.29834E-03 0.00000E+00
 -1       315 2.56285E-03-2.85044E-03 0.00000E+00
 -1       316 2.08263E-03-2.28441E-03 0.00000E+00
 -1       317 1.50988E-03-1.66940E-03-5.29396E-23
 -1       318 9.59239E-04-1.06579E-03 0.00000E+00
 -1       319 5.38812E-04-5.38462E-04 0.00000E+00
 -1       320 2.92237E-04-1.61627E-04 1.05879E-22
 -1       336 2.99151E-04-4.04406E-06 1.32349E-23
 -1       337 2.85490E-04-4.72500E-06-6.61744E-24
 -1       338 2.69815E-04-5.43385E-06 1.32349E-23
 -1       339 2.52198E-04-6.17146E-06 0.00000E+00
 -1       340 2.32722E-04-6.94228E-06 0.00000E+00
 -1       406 1.79624E-04 9.43976E-07 8.27181E-25
 -1       407 1.80395E-04 1.07856E-06-1.65436E-24
 -1       408 1.81269E-04 1.21298E-06-1.65436E-24
 -1       409 1.82245E-04 1.34706E-06 1.24077E-24
 -1       410 1.83324E-04 1.48053E-06-8.27181E-25
 -1       521 2.82236E-03-3.71877E-04-1.05879E-22
 -1       522 2.88439E-03-8.07817E-04 0.00000E+00
 -1       523 2.92433E-03-1.44230E-03 1.05879E-22
 -1       524 2.93877E-03-2.17208E-03 0.00000E+00
 -1       525 2.96226E-03-2.86829E-03 1.05879E-22
 -1       526 3.01838E-03-3.40509E-03 0.00000E+00
 -1       527 3.07550E-03-3.69505E-03 0.00000E+00
 -1       528 3.06721E-03-3.69991E-03 0.00000E+00
 -1       529 2.91149E-03-3.43230E-03-2.11758E-22
 -1       530 2.56548E-03-2.96533E-03-5.29396E-23
 -1       531 2.04896E-03-2.37961E-03 0.00000E+00
 -1       532 1.43504E-03-1.74695E-03-5.29396E-23
 -1       533 8.43989E-04-1.12500E-03 1.05879E-22
 -1       534 3.89304E-04-5.76287E-04-5.29396E-23
 -1       535 1.21007E-04-1.79480E-04 2.11758E-22
 -1       536 2.10723E-04 2.71963E-05 0.00000E+00
 -1       537 2.08804E-04 8.76435E-05 1.65436E-24
 -1       538 2.05840E-04 1.64342E-04-3.30872E-24
 -1       539 2.02343E-04 2.47940E-04 1.65436E-24
 -1       540 1.99196E-04 3.26934E-04-3.30872E-24
 -1       541 1.97151E-04 3.89842E-04-1.65436E-24
 -1       542 1.96207E-04 4.29910E-04 0.00000E+00
 -1       543 1.95982E-04 4.40533E-04 0.00000E+00
 -1       544 1.95660E-04 4.22486E-04-3.30872E-24
 -1       545 1.94487E-04 3.76761E-04 0.00000E+00
 -1       546 1.92302E-04 3.11488E-04 3.30872E-24
 -1       547 1.89343E-04 2.34914E-04 1.65436E-24
 -1       548 1.86411E-04 1.58716E-04 0.00000E+00
 -1       549 1.84296E-04 9.45714E-05 0.00000E+00
 -1       550 1.83198E-04 5.05122E-05 0.00000E+00
 -1       551 1.86275E-04-8.30010E-06 0.00000E+00
 -1       552 1.57827E-04-8.94901E-06 0.00000E+00
 -1       553 1.27076E-04-9.66020E-06 9.92617E-24
 -1       554 9.49821E-05-1.04126E-05 6.61744E-24
 -1       555 6.25034E-05-1.11787E-05 0.00000E+00
 -1       556 2.03829E-04 1.18262E-05 0.00000E+00
 -1       557 1.97649E-04 2.76880E-05 0.00000E+00
 -1       558 1.92804E-04 4.01416E-05 0.00000E+00
 -1       559 1.89161E-04 4.94976E-05 0.00000E+00
 -1       560 1.86590E-04 5.60668E-05 0.00000E+00
 -1       561 1.84963E-04 6.01627E-05 0.00000E+00
 -1       562 1.84155E-04 6.20998E-05 0.00000E+00
 -1       563 1.84042E-04 6.21938E-05 0.00000E+00
 -1       564 1.84501E-04 6.07611E-05 0.00000E+00
 -1       565 1.85412E-04 5.81189E-05 0.00000E+00
 -1       566 1.86655E-04 5.45849E-05 0.00000E+00
 -1       567 1.88111E-04 5.04772E-05 0.00000E+00
 -1       568 1.89662E-04 4.61139E-05-1.65436E-24
 -1       569 1.91190E-04 4.18135E-05 0.00000E+00
 -1       570 1.92577E-04 3.78941E-05 0.00000E+00
 -1       571 1.83008E-04 3.23134E-05-8.27181E-25
 -1       572 1.83107E-04 3.01174E-05 1.24077E-24
 -1       573 1.83206E-04 2.78714E-05-1.65436E-24
 -1       574 1.83305E-04 2.55918E-05 0.00000E+00
 -1       575 1.83404E-04 2.32949E-05 0.00000E+00
 -1       576 1.83504E-04 2.09973E-05 1.65436E-24
 -1       577 1.83603E-04 1.87155E-05-3.30872E-24
 -1       578 1.83703E-04 1.64660E-05 0.00000E+00
 -1       579 1.83803E-04 1.42653E-05 0.00000E+00
 -1       580 1.83903E-04 1.21301E-05 0.00000E+00
 -1       581 1.84003E-04 1.00767E-05 0.00000E+00
 -1       582 1.84103E-04 8.12173E-06 0.00000E+00
 -1       583 1.84203E-04 6.28167E-06 0.00000E+00
 -1       584 1.84303E-04 4.57284E-06 0.00000E+00
 -1       585 1.84404E-04 3.01139E-06 0.00000E+00
 -1       586 1.84669E-04 3.44835E-05-1.65436E-24
 -1       587 1.86386E-04 3.45227E-05 0.00000E+00
 -1       588 1.88105E-04 3.45615E-05 0.00000E+00
 -1       589 1.89870E-04 3.45997E-05 0.00000E+00
 -1       590 1.91723E-04 3.46366E-05 0.00000E+00
 -1       591 1.83641E-04 3.24072E-05 0.00000E+00
 -1       592 1.84375E-04 3.03509E-05 2.06795E-25
 -1       593 1.85113E-04 2.82806E-05 0.00000E+00
 -1       594 1.85854E-04 2.62010E-05 0.00000E+00
 -1       595 1.86597E-04 2.41169E-05 8.27181E-25
 -1       596 1.87339E-04 2.20330E-05-4.13590E-25
 -1       597 1.88080E-04 1.99538E-05-8.27181E-25
 -1       598 1.88817E-04 1.78843E-05 0.00000E+00
 -1       599 1.89549E-04 1.58289E-05 8.27181E-25
 -1       600 1.90274E-04 1.37923E-05 0.00000E+00
 -1       601 1.90990E-04 1.17793E-05 0.00000E+00
 -1       602 1.91696E-04 9.79447E-06 0.00000E+00
 -1       603 1.92389E-04 7.84254E-06-8.27181E-25
 -1       604 1.93069E-04 5.92826E-06-1.55096E-25
 -1       605 1.93734E-04 4.05623E-06 0.00000E+00
 -1       606 1.84518E-04 4.46159E-07 0.00000E+00
 -1       607 1.84527E-04-6.34148E-07 0.00000E+00
 -1       608 1.84536E-04-1.63382E-06 0.00000E+00
 -1       609 1.84545E-04-2.55851E-06 0.00000E+00
 -1       610 1.84553E-04-3.41397E-06 3.30872E-24
 -1       611 1.84561E-04-4.20597E-06 0.00000E+00
 -1       612 1.84569E-04-4.94029E-06 0.00000E+00
 -1       613 1.84578E-04-5.62274E-06 0.00000E+00
 -1       614 1.84586E-04-6.25912E-06 0.00000E+00
 -1       615 1.84594E-04-6.85522E-06 8.27181E-25
 -1       616 1.84603E-04-7.41684E-06 0.00000E+00
 -1       617 1.84611E-04-7.94979E-06 0.00000E+00
 -1       618 1.84619E-04-8.45986E-06 0.00000E+00
 -1       619 1.84628E-04-8.95285E-06 0.00000E+00
 -1       620 1.84636E-04-9.43456E-06 0.00000E+00
 -1       621 1.85865E-04 1.71606E-06 3.30872E-24
 -1       622 1.87384E-04 1.82023E-06-8.27181E-25
 -1       623 1.89030E-04 1.92419E-06-3.30872E-24
 -1       624 1.90767E-04 2.02782E-06 8.27181E-25
 -1       625 1.92564E-04 2.13116E-06 1.65436E-24
 -1       626 1.85054E-04 4.82287E-07 3.30872E-24
 -1       627 1.85580E-04-5.84680E-07 3.30872E-24
 -1       628 1.86087E-04-1.59661E-06 0.00000E+00
 -1       629 1.86576E-04-2.56166E-06 0.00000E+00
 -1       630 1.87050E-04-3.48802E-06 0.00000E+00
 -1       631 1.87513E-04-4.38388E-06-1.65436E-24
 -1       632 1.87968E-04-5.25743E-06-3.30872E-24
 -1       633 1.88417E-04-6.11688E-06 1.65436E-24
 -1       634 1.88864E-04-6.97043E-06 3.30872E-24
 -1       635 1.89313E-04-7.82627E-06 0.00000E+00
 -1       636 1.89765E-04-8.69261E-06 0.00000E+00
 -1       637 1.90223E-04-9.57764E-06 0.00000E+00
 -1       638 1.90692E-04-1.04896E-05 1.65436E-24
 -1       639 1.91174E-04-1.14366E-05 0.00000E+00
 -1       640 1.91672E-04-1.24271E-05-3.30872E-24
 -1       656 1.85352E-04-1.04891E-05 6.61744E-24
 -1       657 1.86481E-04-1.10910E-05 0.00000E+00
 -1       658 1.87889E-04-1.16914E-05 0.00000E+00
 -1       659 1.89433E-04-1.22916E-05-6.61744E-24
 -1       660 1.90926E-04-1.28935E-05 0.00000E+00
 -1       661 1.84908E-04-1.04313E-05 8.27181E-25
 -1       662 1.85210E-04-1.10422E-05 0.00000E+00
 -1       663 1.85544E-04-1.17384E-05-1.65436E-24
 -1       664 1.85908E-04-1.25138E-05 0.00000E+00
 -1       665 1.86299E-04-1.33629E-05 0.00000E+00
 -1       666 1.86716E-04-1.42799E-05-8.27181E-25
 -1       667 1.87156E-04-1.52596E-05 0.00000E+00
 -1       668 1.87618E-04-1.62966E-05 0.00000E+00
 -1       669 1.88100E-04-1.73858E-05 0.00000E+00
 -1       670 1.88599E-04-1.85222E-05 0.00000E+00
 -1       671 1.89113E-04-1.97008E-05 1.65436E-24
 -1       672 1.89642E-04-2.09169E-05 0.00000E+00
 -1       673 1.90182E-04-2.21657E-05 0.00000E+00
 -1       674 1.90733E-04-2.34428E-05 0.00000E+00
 -1       675 1.91292E-04-2.47432E-05 2.06795E-25
 -1       676 1.85053E-04-2.55464E-05 0.00000E+00
 -1       677 1.86418E-04-2.56507E-05 0.00000E+00
 -1       678 1.87782E-04-2.57548E-05 0.00000E+00
 -1       679 1.89142E-04-2.58587E-05 0.00000E+00
 -1       680 1.90500E-04-2.59626E-05 0.00000E+00
 -1       771 1.86381E-05 1.47889E-05 5.29396E-23
 -1       772 8.57939E-06 3.67504E-05 0.00000E+00
 -1       773 3.27758E-07 5.41635E-05-5.29396E-23
 -1       774-6.24119E-06 6.72863E-05 0.00000E+00
 -1       775-1.12492E-05 7.63872E-05-5.29396E-23
 -1       776-1.48229E-05 8.17517E-05-2.64698E-23
 -1       777-1.70887E-05 8.36750E-05-5.29396E-23
 -1       778-1.81756E-05 8.24663E-05 2.64698E-23
 -1       779-1.82121E-05 7.84436E-05 0.00000E+00
 -1       780-1.73284E-05 7.19359E-05 2.64698E-23
 -1       781-1.56540E-05 6.32792E-05 1.05879E-22
 -1       782-1.33200E-05 5.28184E-05 0.00000E+00
 -1       783-1.04565E-05 4.09029E-05 0.00000E+00
 -1       784-7.19473E-06 2.78885E-05-2.64698E-23
 -1       785-3.66520E-06 1.41338E-05 0.00000E+00
 -1       786 1.93744E-04 3.24143E-05-6.46235E-27
 -1       787 1.93786E-04 3.02091E-05 0.00000E+00
 -1       788 1.93828E-04 2.80458E-05-8.27181E-25
 -1       789 1.93870E-04 2.59161E-05 0.00000E+00
 -1       790 1.93912E-04 2.38154E-05 0.00000E+00
 -1       791 1.93955E-04 2.17387E-05 0.00000E+00
 -1       792 1.93998E-04 1.96840E-05 0.00000E+00
 -1       793 1.94040E-04 1.76491E-05-8.27181E-25
 -1       794 1.94083E-04 1.56336E-05 0.00000E+00
 -1       795 1.94126E-04 1.36375E-05-8.27181E-25
 -1       796 1.94169E-04 1.16627E-05 0.00000E+00
 -1       797 1.94212E-04 9.71089E-06 8.27181E-25
 -1       798 1.94255E-04 7.78638E-06-1.65436E-24
 -1       799 1.94298E-04 5.89345E-06 0.00000E+00
 -1       800 1.94341E-04 4.03956E-06-1.65436E-24
 -1       801 1.47895E-04 3.11684E-05 0.00000E+00
 -1       802 9.38290E-06 1.94449E-05 0.00000E+00
 -1       803-1.08921E-04 9.82277E-06-5.29396E-23
 -1       804-9.65360E-05 6.83748E-06 0.00000E+00
 -1       805-3.18943E-05 2.68625E-06 0.00000E+00
 -1       806 1.94437E-04 3.23455E-05 3.30872E-24
 -1       807 1.95153E-04 3.00478E-05 0.00000E+00
 -1       808 1.95857E-04 2.77814E-05 0.00000E+00
 -1       809 1.96547E-04 2.55506E-05 0.00000E+00
 -1       810 1.97223E-04 2.33594E-05-3.30872E-24
 -1       811 1.97882E-04 2.12116E-05-1.65436E-24
 -1       812 1.98523E-04 1.91113E-05 3.30872E-24
 -1       813 1.99145E-04 1.70623E-05 1.65436E-24
 -1       814 1.99747E-04 1.50686E-05-3.30872E-24
 -1       815 2.00327E-04 1.31340E-05-8.27181E-25
 -1       816 2.00883E-04 1.12625E-05-1.65436E-24
 -1       817 2.01414E-04 9.45792E-06-8.27181E-25
 -1       818 2.01919E-04 7.72413E-06-3.30872E-24
 -1       819 2.02396E-04 6.06504E-06 8.27181E-25
 -1       820 2.02844E-04 4.48444E-06 3.30872E-24
 -1       821 1.94256E-04-1.26972E-07-1.65436E-24
 -1       822 1.94115E-04-3.63143E-06 0.00000E+00
 -1       823 1.93973E-04-7.85562E-06 0.00000E+00
 -1       824 1.93828E-04-1.23695E-05 0.00000E+00
 -1       825 1.93684E-04-1.66650E-05 3.30872E-24
 -1       826 1.93543E-04-2.02349E-05-1.65436E-24
 -1       827 1.93404E-04-2.27699E-05-3.30872E-24
 -1       828 1.93268E-04-2.39667E-05-1.65436E-24
 -1       829 1.93132E-04-2.38864E-05 0.00000E+00
 -1       830 1.92996E-04-2.25978E-05-1.65436E-24
 -1       831 1.92858E-04-2.04983E-05 0.00000E+00
 -1       832 1.92720E-04-1.79907E-05 0.00000E+00
 -1       833 1.92582E-04-1.55886E-05 3.30872E-24
 -1       834 1.92447E-04-1.38051E-05 0.00000E+00
 -1       835 1.92312E-04-1.29855E-05-8.27181E-25
 -1       836 1.96077E-04 2.35730E-06 0.00000E+00
 -1       837 1.97642E-04 2.48545E-06 0.00000E+00
 -1       838 1.99112E-04 2.61355E-06-3.30872E-24
 -1       839 2.00518E-04 2.74094E-06 0.00000E+00
 -1       840 2.01891E-04 2.86817E-06 0.00000E+00
 -1       856 1.92169E-04-1.45328E-05 0.00000E+00
 -1       857 1.92148E-04-1.54592E-05 0.00000E+00
 -1       858 1.92128E-04-1.62697E-05-4.13590E-25
 -1       859 1.92107E-04-1.69858E-05 2.06795E-25
 -1       860 1.92087E-04-1.76290E-05 0.00000E+00
 -1       861 1.92066E-04-1.82208E-05-2.06795E-25
 -1       862 1.92045E-04-1.87828E-05 0.00000E+00
 -1       863 1.92024E-04-1.93367E-05 0.00000E+00
 -1       864 1.92004E-04-1.99040E-05 8.27181E-25
 -1       865 1.91983E-04-2.05065E-05-4.13590E-25
 -1       866 1.91962E-04-2.11657E-05 8.27181E-25
 -1       867 1.91941E-04-2.19032E-05 4.13590E-25
 -1       868 1.91920E-04-2.27404E-05-8.27181E-25
 -1       869 1.91898E-04-2.36988E-05 0.00000E+00
 -1       870 1.91877E-04-2.47997E-05 8.27181E-25
 -1       871 1.93538E-04-1.34741E-05 0.00000E+00
 -1       872 1.95037E-04-1.34825E-05 0.00000E+00
 -1       873 1.96615E-04-1.34916E-05 0.00000E+00
 -1       874 1.98205E-04-1.35014E-05 0.00000E+00
 -1       875 1.99737E-04-1.35118E-05-1.03398E-24
 -1       876 1.92713E-04-1.45193E-05-3.30872E-24
 -1       877 1.93217E-04-1.55029E-05 0.00000E+00
 -1       878 1.93700E-04-1.64279E-05 0.00000E+00
 -1       879 1.94165E-04-1.73015E-05 0.00000E+00
 -1       880 1.94612E-04-1.81310E-05 0.00000E+00
 -1       881 1.95046E-04-1.89237E-05 0.00000E+00
 -1       882 1.95469E-04-1.96867E-05-3.30872E-24
 -1       883 1.95884E-04-2.04274E-05-1.65436E-24
 -1       884 1.96293E-04-2.11528E-05 0.00000E+00
 -1       885 1.96699E-04-2.18703E-05-1.65436E-24
 -1       886 1.97104E-04-2.25870E-05 0.00000E+00
 -1       887 1.97512E-04-2.33101E-05 0.00000E+00
 -1       888 1.97925E-04-2.40469E-05 0.00000E+00
 -1       889 1.98345E-04-2.48047E-05-1.65436E-24
 -1       890 1.98774E-04-2.55908E-05-1.65436E-24
 -1       891 1.93228E-04-2.61230E-05 1.65436E-24
 -1       892 1.94577E-04-2.61820E-05 0.00000E+00
 -1       893 1.95876E-04-2.62408E-05 1.65436E-24
 -1       894 1.97099E-04-2.62994E-05 0.00000E+00
 -1       895 1.98219E-04-2.63578E-05 0.00000E+00
 -1       956 2.03133E-04 1.66245E-06-3.30872E-24
 -1       957 2.03001E-04 4.30319E-07-1.65436E-24
 -1       958 2.02868E-04-7.21009E-07 0.00000E+00
 -1       959 2.02735E-04-1.80287E-06 1.65436E-24
 -1       960 2.02602E-04-2.82666E-06 0.00000E+00
 -1       961 2.02469E-04-3.80379E-06 0.00000E+00
 -1       962 2.02337E-04-4.74570E-06 0.00000E+00
 -1       963 2.02204E-04-5.66383E-06-1.65436E-24
 -1       964 2.02071E-04-6.56964E-06 3.30872E-24
 -1       965 2.01938E-04-7.47456E-06 1.65436E-24
 -1       966 2.01806E-04-8.39007E-06-3.30872E-24
 -1       967 2.01673E-04-9.32758E-06 0.00000E+00
 -1       968 2.01540E-04-1.02985E-05 0.00000E+00
 -1       969 2.01408E-04-1.13144E-05 0.00000E+00
 -1       970 2.01275E-04-1.23864E-05-3.30872E-24
 -1       971 2.01025E-04-1.46649E-05-3.30872E-24
 -1       972 2.00904E-04-1.57098E-05 1.65436E-24
 -1       973 2.00782E-04-1.66708E-05 0.00000E+00
 -1       974 2.00661E-04-1.75585E-05 1.65436E-24
 -1       975 2.00539E-04-1.83837E-05-3.30872E-24
 -1       976 2.00418E-04-1.91571E-05 0.00000E+00
 -1       977 2.00296E-04-1.98895E-05 3.30872E-24
 -1       978 2.00175E-04-2.05917E-05 0.00000E+00
 -1       979 2.00053E-04-2.12744E-05 3.30872E-24
 -1       980 1.99932E-04-2.19485E-05 1.65436E-24
 -1       981 1.99810E-04-2.26247E-05 0.00000E+00
 -1       982 1.99689E-04-2.33137E-05 1.65436E-24
 -1       983 1.99568E-04-2.40265E-05 3.30872E-24
 -1       984 1.99447E-04-2.47737E-05 0.00000E+00
 -1       985 1.99327E-04-2.55661E-05 0.00000E+00
 -3
    1PSTEP                        26          13           1          
  100CL  113 6.62796E-01         409                     0   13           1
 -4  STRESS      6    1
 -5  SXX         1    4    1    1
 -5  SYY         1    4    2    2
 -5  SZZ         1    4    3    3
 -5  SXY         1    4    1    2
 -5  SYZ         1    4    2    3
 -5  SZX         1    4    3    1
 -1         1-5.34854E+06-1.55667E+06-1.13154E+06-1.30593E+06-2.45927E-09 2.43017E-07
 -1         2 1.57137E+06 2.29776E+07 5.32407E+06 6.97164E+06 2.41271E-08 1.47091E-07
 -1         3-1.48729E+03-1.55329E+06 4.04795E+02-2.20410E+03-4.68486E-10-2.11439E-08
 -1         5-7.54734E+01 3.86424E+05 9.98088E+00-1.34444E+00-4.99227E-10 3.03044E-09
 -1         8-5.49828E+05-1.99713E+05-6.25706E+04-2.40796E+05-1.54614E-11-6.55200E-08
 -1         9 1.18432E+07 4.03749E+06 2.84217E+06-2.74674E+05 1.25729E-09 2.15997E-07
 -1        10-2.30239E+03-1.61864E+06-3.93433E+03-1.49152E+04-1.37934E-08 5.11216E-09
 -1        12-7.15560E+01 3.86445E+05 3.28112E+02-9.16366E+00-7.12028E-10 5.58975E-09
 -1        15 9.17010E+02 5.03942E+02 2.96421E+03 7.97524E-01-2.80579E-10-3.20349E-07
 -1        16 2.29343E+07-3.40893E+05 3.11903E+06-2.31390E+06-8.49832E-09-3.40709E-08
 -1        17 8.40128E+06 6.29305E+06 2.26891E+06 6.01873E+06 2.21888E-08 3.21888E-08
 -1        18 1.42403E+05 3.35379E+04 4.16852E+03-1.19563E+05 1.68795E-08 1.11354E-08
 -1        19 1.22432E+05 1.41675E+05-9.45073E+02 2.19650E+04 1.63473E-09-5.29071E-09
 -1        20-8.21770E+04-5.73695E+05-1.28750E+05 2.50592E+04-2.25418E-09-2.46613E-08
 -1        21-4.49252E+01-2.95936E+05-9.11477E+02 2.77221E+02 1.76835E-08 6.71746E-09
 -1        24 1.41023E+07 1.21366E+07 3.90210E+06 1.12361E+07-1.70287E-07-5.19212E-08
 -1        25 1.25164E+05 2.68345E+05 1.00243E+05-6.46435E+05-2.05209E-09 3.19596E-10
 -1        26-5.54647E+04 9.22822E+04-2.46447E+04 1.33734E+03-1.12414E-10 4.05545E-09
 -1        27-7.58709E+04-3.10058E+05-1.13409E+05 6.89627E+04 4.21081E-09 1.35139E-08
 -1        28 2.13855E+04-8.62289E+04 1.69369E+04 2.06123E+04-4.59352E-09 4.02302E-09
 -1        32-1.68013E+06-3.18150E+06-1.97678E+05 4.59225E+05-4.19823E-08-1.01774E-08
 -1        33-1.78499E+05 9.30109E+04 3.23909E+04-3.84582E+04-3.28214E-09 1.78958E-09
 -1        34-2.23697E+05-2.50903E+04 6.85909E+02 7.55128E+04-5.05247E-09-1.17460E-08
 -1        35-2.29721E+04-3.50603E+04-1.61986E+03 5.15081E+04-6.70102E-09 8.96883E-09
 -1        51 6.09788E+04-1.69649E+05 1.28874E+05-4.30995E+05-2.91038E-11-9.74978E-09
 -1        52 2.05992E+04-1.47076E+05 6.75341E+04-5.02680E+05 2.39197E-10-3.94357E-07
 -1        53 4.14238E+03-1.62417E+05 3.50227E+04-4.29521E+05 3.45608E-10-2.69523E-07
 -1        54 7.20296E+03-1.58198E+05 2.84864E+04-5.04118E+05-1.67347E-10-3.31416E-07
 -1        55 1.57150E+04-1.65090E+05 3.43073E+04-4.29439E+05 2.58296E-10-4.48563E-09
 -1        56-9.82584E+06-1.41529E+06-9.33097E+05-4.12694E+06-2.16532E-08 1.44879E-07
 -1        57-1.11664E+07-7.20598E+05-5.42504E+05-2.62898E+06 4.96948E-09 9.93023E-08
 -1        58-9.57846E+06-1.89777E+06-2.02357E+05-4.34116E+06-4.17931E-08 3.54485E-08
 -1        59-1.14110E+07-1.56523E+05-1.06070E+05-2.55113E+06 8.23275E-09-1.25572E-07
 -1        60-9.68004E+06-1.90070E+06-5.98101E+04-4.29151E+06 1.86119E-08-6.14164E-08
 -1        61-1.06613E+07-5.36435E+05 2.52201E+04-2.80747E+06 3.14321E-09 1.34096E-07
 -1        62-1.01630E+07-1.62962E+06-9.10514E+04-3.95241E+06 8.86212E-09 2.16321E-07
 -1        63-9.63089E+06-1.33594E+06 6.92028E+04-3.57752E+06 4.78758E-08 1.77075E-07
 -1        64-1.05753E+07-1.19770E+06-8.39016E+04-3.43697E+06-1.08266E-08 1.59085E-07
 -1        65-9.24153E+06-2.00518E+06 2.12770E+04-4.60715E+06-3.58850E-08 1.31936E-07
 -1        66-1.07068E+07-8.53158E+05-4.83407E+04-3.03989E+06 1.51558E-08 7.61593E-08
 -1        67-9.28497E+06-2.27986E+06-9.53081E+04-5.10033E+06-5.93682E-08-4.58895E-08
 -1        68-1.06869E+07-8.13625E+05-1.88723E+05-3.03902E+06-7.41493E-08 2.24652E-07
 -1        69-9.43505E+06-2.34379E+06-4.80832E+05-4.57538E+06-2.09930E-08-1.65950E-07
 -1        70-1.04118E+07-9.03303E+05-8.59121E+05-3.47162E+06 4.26153E-08-7.85803E-08
 -1        86-1.60358E+06-1.61623E+07-2.91568E+06-3.27087E+06-2.65325E-07-7.49424E-08
 -1        87 2.53492E+06 6.67774E+06 2.42450E+06 5.98629E+06-4.66556E-07-1.43258E-07
 -1        88-4.84326E+05-1.88732E+06 2.30975E+05-2.63572E+06-4.20872E-07-8.55525E-08
 -1        89 3.39294E+06 6.35813E+06 2.48597E+06 6.19240E+06-5.98957E-07-3.98184E-07
 -1        90-2.36001E+06-1.59240E+07-3.14540E+06-3.50927E+06-1.59067E-07-1.55662E-07
 -1       121-2.03726E+03-1.55819E+06-5.47999E+02 1.09243E+03 1.51157E-09-2.71248E-08
 -1       122-1.30216E+03-1.55335E+06 7.67168E+02-4.41240E+03-5.42676E-09-3.55794E-09
 -1       123-2.05700E+03-1.55832E+06 2.57154E+02 3.26266E+03 4.30828E-09-1.52068E-08
 -1       124 3.28550E+02-1.55290E+06 2.93908E+03-9.23497E+03-1.06834E-08-4.31246E-08
 -1       125-2.86324E+03-1.55921E+06 3.44483E+03 5.86904E+03 6.38647E-09 4.91491E-09
 -1       191-7.95340E+01 3.86442E+05 8.47558E+00 7.01087E-01-5.79970E-10 1.82081E-09
 -1       192-7.64372E+01 3.86424E+05 2.12995E+01-4.31084E+00-7.00385E-10-4.68572E-09
 -1       193-8.20708E+01 3.86441E+05 3.62513E+01 3.78649E+00-1.05668E-09-1.89357E-08
 -1       194-7.95272E+01 3.86427E+05 8.09725E+01-9.78223E+00-5.89033E-10-3.96176E-08
 -1       195-8.69400E+01 3.86439E+05 1.55013E+02 6.36657E+00-1.55532E-09-2.22790E-08
 -1       251-8.62636E+05 1.63219E+04-3.80957E+04-1.47045E+04 1.50471E-09-6.40794E-08
 -1       252-8.76958E+05-1.88941E+04-2.64870E+04 5.22356E+04 2.90146E-09-1.30459E-07
 -1       253-8.71218E+05 2.50529E+03-1.02820E+04-1.03632E+04-4.01542E-10-4.01819E-08
 -1       254-8.63127E+05-3.04848E+03-4.51471E+03 3.72170E+04 1.72975E-09 1.44510E-08
 -1       255-8.75816E+05 4.08623E+01-3.62210E+03 3.10010E+02-2.65686E-09-7.72484E-08
 -1       256-8.57459E+05-2.73713E+02 1.30996E+03 1.29937E+04 6.34566E-09 3.37747E-07
 -1       257-8.76417E+05-6.16798E+02-1.47587E+03 1.38475E+04-1.36129E-09 8.51552E-08
 -1       258-8.60465E+05 9.57842E+02 2.82425E+03-1.24767E+04 2.87059E-10-9.34679E-08
 -1       259-8.73073E+05-9.88001E+02 1.33350E+03 2.57778E+04-2.74440E-10-1.60268E-07
 -1       260-8.67301E+05 3.03818E+03 5.63174E+03-3.08542E+04 1.77629E-08 7.91900E-08
 -1       261-8.70257E+05-2.17684E+03 8.68548E+03 3.22428E+04 2.38119E-08-1.63978E-07
 -1       262-8.66156E+05 1.19359E+04 2.15861E+04-3.62429E+04 8.34870E-11-1.81954E-07
 -1       263-8.74487E+05-9.64404E+03 3.41823E+04 3.11769E+04-2.87940E-09 7.97972E-08
 -1       264-8.35256E+05 6.73758E+04 9.47167E+04-2.67758E+04 1.19096E-08-2.75184E-07
 -1       265-9.00633E+05-5.77679E+04 1.31755E+05 2.27622E+04 2.47262E-08 7.84858E-08
 -1       266-1.66012E+04-7.76356E+03 3.89472E+04-1.70631E+01 7.27596E-11 5.37493E-08
 -1       267 1.92451E+04 9.04730E+03 2.75293E+04 1.96892E+01 2.36469E-11-2.45721E-07
 -1       268-2.58074E+03-1.28142E+03 1.02324E+04-2.50865E+00 1.17325E-10 5.92034E-08
 -1       269 3.04708E+03 1.53351E+03 6.65100E+03 2.92230E+00 1.16756E-10-1.11932E-07
 -1       270-4.57371E+02-2.51971E+02 3.21053E+03-3.96573E-01-8.41283E-11-3.69583E-08
 -1       271-1.45620E+06-1.86040E+05-1.09797E+05-5.67117E+05 4.16730E-09-1.69493E-07
 -1       272-1.44761E+06-3.00885E+05-6.87903E+04-6.08820E+05-4.67917E-08-3.91356E-07
 -1       273-1.47950E+06-2.09074E+05-2.66906E+04-5.59076E+05-3.19960E-08-2.86100E-07
 -1       274-1.42131E+06-2.73077E+05-1.37871E+04-6.24216E+05-4.18222E-08 4.51910E-08
 -1       275-1.48511E+06-2.08476E+05-6.68669E+03-5.55270E+05 5.46061E-09 5.37366E-08
 -1       276-1.41588E+06-2.74105E+05-2.76670E+03-6.33063E+05-2.13549E-08 3.10174E-08
 -1       277-1.48797E+06-2.05764E+05-1.86124E+03-5.52517E+05-6.28643E-09-1.72654E-07
 -1       278-1.41385E+06-2.77311E+05-6.76864E+02-6.39554E+05-2.16869E-08 1.08234E-07
 -1       279-1.48978E+06-2.03575E+05-8.38359E+02-5.50597E+05 6.44650E-09-4.50973E-09
 -1       280-1.41294E+06-2.79684E+05-9.22272E+02-6.43784E+05-8.74911E-08 7.51005E-08
 -1       281-1.49073E+06-2.02225E+05-1.70791E+03-5.49533E+05 1.04683E-09-2.93661E-08
 -1       282-1.41332E+06-2.81744E+05-3.96569E+03-6.45473E+05-3.10615E-08-8.65680E-09
 -1       283-1.49026E+06-2.01087E+05-7.06212E+03-5.49431E+05 1.15864E-08-3.14910E-07
 -1       284-1.41967E+06-2.90896E+05-1.92292E+04-6.43269E+05 2.60176E-08-4.80890E-07
 -1       285-1.48422E+06-1.94222E+05-3.00660E+04-5.51200E+05-1.32941E-08-9.91495E-08
 -1       301-9.14701E+03-6.51564E+05 1.66578E+05-1.14746E+06-4.23461E-09 8.56962E-08
 -1       302-1.14292E+04-6.04280E+05 1.00250E+05-1.67456E+06-3.31711E-08-2.52330E-08
 -1       303-2.33995E+04-6.44566E+05 5.65173E+04-1.14428E+06 1.74696E-08-2.35139E-07
 -1       304-2.71836E+04-6.11771E+05 5.66560E+04-1.67402E+06-7.01402E-09 7.11952E-08
 -1       305-2.78637E+04-6.33203E+05 6.93670E+04-1.14737E+06 1.19580E-08 7.30506E-09
 -1       306-3.01170E+07-6.21177E+06-8.60440E+06-4.77017E+05-6.68224E-08 7.70960E-08
 -1       307 2.52320E+07 3.29390E+06 5.50035E+06-1.52977E+07-7.88248E-07 1.32364E-07
 -1       308-6.89532E+06-1.00575E+06-4.28879E+05 5.20879E+06-2.20956E-07 4.52739E-07
 -1       309-3.16312E+06 8.73016E+06 2.29703E+06-2.07129E+07 5.35088E-07 2.78782E-07
 -1       310-1.26882E+07-1.95892E+06-2.07336E+06 5.21580E+06-1.39640E-07-4.27390E-08
 -1       311 3.87587E+07-1.14324E+04 7.32601E+06-8.67681E+06 4.44939E-07 7.94535E-08
 -1       312-3.19972E+07-6.83428E+06-8.57430E+06-5.13703E+06-9.47621E-08-1.08412E-08
 -1       313 4.53766E+07 1.52408E+07 1.06951E+07 2.39835E+07-4.62227E-07-8.78645E-08
 -1       314-1.71284E+07-1.78902E+07-7.52786E+06-1.25384E+07 5.48782E-07-1.82248E-07
 -1       315-1.97873E+06 2.98362E+07 5.66244E+06 1.04127E+07-3.77928E-07 2.17755E-07
 -1       316 1.44907E+06-9.81926E+06-4.22277E+05-2.47753E+06-1.23926E-06-2.31463E-07
 -1       317-1.70837E+07 2.24463E+07 2.24973E+06-8.90914E+06 8.89275E-07-8.31882E-07
 -1       318-1.09429E+06-1.28710E+07-2.07239E+06-4.24518E+06-8.10396E-07 6.69388E-09
 -1       319 7.32737E+06 3.21250E+07 7.08091E+06 1.67171E+07-3.98431E-08 2.30939E-07
 -1       320-2.26613E+07-1.77013E+07-9.89154E+06-1.28502E+07 2.17464E-07-6.43195E-08
 -1       336-7.51870E+02-1.68679E+06-1.38060E+04 8.87635E+03-2.62626E-08 7.63976E-09
 -1       337-5.39801E+03-1.68631E+06-1.80105E+04-2.15674E+04-4.91568E-08-2.50056E-08
 -1       338 2.66062E+02-1.68628E+06-2.83773E+04 1.24399E+04-3.49064E-08-1.21800E-08
 -1       339-3.01155E+04-1.70350E+06-6.41268E+04-2.85496E+04-6.29589E-08 1.79170E-09
 -1       340 1.98243E+04-1.67178E+06-1.01024E+05 1.57277E+04-4.11637E-08 1.46720E-08
 -1       406-4.98623E+01 3.86424E+05 6.44234E+02 3.35217E+00-1.81373E-09-1.63254E-08
 -1       407 1.54696E+02 3.86559E+05 1.37679E+03 2.34388E+01-6.56989E-10 2.00998E-09
 -1       408 6.34808E+02 3.86324E+05 2.74520E+03-2.71102E+01-2.54522E-09 2.56714E-08
 -1       409 2.90715E+03 3.87435E+05 6.18746E+03 2.89427E+02-3.32875E-10 2.79306E-09
 -1       410 8.48073E+03 3.85534E+05 1.26283E+04-2.79098E+02-2.88674E-09 9.74978E-10
 -1       521-3.17228E+07-7.68991E+06-1.00809E+07-7.91322E+04-1.34576E-07 1.31840E-07
 -1       522 2.61628E+07 4.35775E+06 5.62505E+06-1.88530E+07-5.16418E-07-2.33995E-07
 -1       523-7.46577E+06-1.32410E+06-4.20264E+05 5.66817E+06-3.14321E-09-4.00760E-07
 -1       524-6.66967E+06 1.18471E+07 2.49277E+06-2.38208E+07 8.31227E-07-4.41669E-07
 -1       525-1.34915E+07-2.61193E+06-2.28588E+06 5.68282E+06 4.68979E-07 7.22648E-08
 -1       526 4.24469E+07-1.13842E+05 7.70611E+06-1.13376E+07 2.39757E-07 1.32335E-07
 -1       527-3.39134E+07-8.55764E+06-9.90959E+06-5.00656E+06-8.12579E-08 4.34811E-08
 -1       528 4.96596E+07 1.70584E+07 1.11827E+07 2.73547E+07 3.69037E-08-8.61473E-08
 -1       529-1.80844E+07-2.01588E+07-8.65355E+06-1.25822E+07 1.85857E-07-1.03377E-07
 -1       530-4.47044E+06 3.47368E+07 6.00912E+06 9.83928E+06 9.60717E-08 4.39759E-07
 -1       531 1.46219E+06-1.09024E+07-3.93574E+05-2.40647E+06-8.68487E-07 3.03437E-07
 -1       532-1.95761E+07 2.44797E+07 2.46669E+06-1.32835E+07 4.78234E-07-7.02974E-07
 -1       533-1.13273E+06-1.40523E+07-2.21515E+06-4.03480E+06-2.56638E-07-9.35106E-07
 -1       534 5.34491E+06 3.73954E+07 7.38907E+06 1.73391E+07-7.53789E-08 7.96048E-07
 -1       535-2.38827E+07-2.01568E+07-1.13714E+07-1.29408E+07 1.02096E-07 4.70842E-07
 -1       536-7.06210E+05-4.66666E+04-4.84346E+04-5.47061E+04-3.71347E-09 6.37629E-08
 -1       537-5.48243E+04 4.45898E+04 8.37907E+04 1.23895E+05-1.16641E-07 8.84384E-08
 -1       538-3.94412E+05 3.36270E+03 3.49288E+03-7.22264E+04 3.11211E-08 1.07057E-07
 -1       539-2.69007E+05 2.83715E+03 2.48928E+04 1.38789E+05 1.52557E-07 1.27352E-07
 -1       540-4.97408E+05-4.26093E+02-2.13511E+04-7.01349E+04-1.21968E-08 1.09308E-07
 -1       541 1.46941E+05 1.69781E+04 1.06435E+05 9.79694E+04-5.25297E-08 7.89541E-08
 -1       542-7.99152E+05-2.01456E+04-8.42864E+04-3.05316E+04 6.87460E-08 3.55231E-08
 -1       543 4.05767E+05 2.73399E+04 1.58055E+05-1.33663E+04-1.43207E-08 1.23237E-09
 -1       544-7.49293E+05-1.65462E+04-7.48778E+04 4.05307E+04-7.54517E-09-4.38268E-08
 -1       545 2.91875E+04 9.48946E+03 7.98543E+04-1.13667E+05 1.85049E-08-6.98244E-08
 -1       546-4.32686E+05 6.09856E+03-1.22354E+04 6.94225E+04 3.67497E-08-8.89900E-08
 -1       547-2.87084E+05-4.65614E+03 1.05965E+04-1.41634E+05-8.98425E-08-1.19301E-07
 -1       548-4.41524E+05 4.72033E+03-2.38882E+04 6.91897E+04-1.14292E-07-1.10105E-07
 -1       549 4.83787E+04 1.60958E+04 6.05679E+04-1.11529E+05-7.75599E-08-7.78655E-08
 -1       550-7.59172E+05-2.21652E+04-1.29012E+05 3.86003E+04 5.11500E-09-3.54521E-08
 -1       551 4.07562E+04-7.48820E+05-1.59412E+04-1.24666E+06-1.02533E-07-1.25146E-09
 -1       552 9.32106E+04-7.93793E+05 9.87912E+03-1.77755E+06-6.94999E-08 5.52754E-08
 -1       553 7.17304E+04-7.90204E+05 3.19960E+04-1.24002E+06-1.17900E-07 3.73839E-08
 -1       554 1.31999E+05-8.09705E+05 8.09818E+04-1.77950E+06-7.28178E-08 2.50293E-08
 -1       555 1.01466E+05-8.13860E+05 1.47908E+05-1.23984E+06-1.22571E-07-1.27002E-08
 -1       556 2.23785E+05-3.83802E+05 2.54984E+04-4.07277E+05-2.16824E-08-3.37313E-08
 -1       557 3.54330E+05-4.88162E+05 1.60185E+04-5.27762E+05-1.74623E-09 1.08557E-08
 -1       558 2.05532E+05-3.76547E+05 2.26651E+03-4.11753E+05-2.70084E-08 1.78989E-09
 -1       559 3.29333E+05-4.88196E+05 2.41270E+03-5.48223E+05 2.02417E-08 4.74392E-09
 -1       560 1.90217E+05-3.66944E+05-1.51922E+03-4.22789E+05 4.04543E-09 1.13578E-08
 -1       561 3.10094E+05-4.80493E+05 1.23415E+02-5.61342E+05 1.16415E-09-3.87081E-09
 -1       562 1.78109E+05-3.59421E+05-1.33065E+03-4.31557E+05 1.41154E-09-1.10304E-08
 -1       563 2.95712E+05-4.74223E+05-3.85460E+01-5.70735E+05 1.92085E-09-1.95705E-08
 -1       564 1.69467E+05-3.54037E+05-6.02041E+02-4.37681E+05 1.18598E-08 1.54082E-08
 -1       565 2.86173E+05-4.70068E+05 2.34043E+01-5.76830E+05 9.86620E-09 9.97625E-09
 -1       566 1.64415E+05-3.50841E+05-2.60755E+02-4.41214E+05-6.19912E-09-1.00044E-09
 -1       567 2.81536E+05-4.68052E+05-3.63451E+02-5.79647E+05 1.65273E-08 8.12361E-09
 -1       568 1.63044E+05-3.50001E+05-1.12769E+03-4.42269E+05-9.27685E-10 1.52759E-08
 -1       569 2.80412E+05-4.67979E+05-2.84794E+03-5.78217E+05-5.31145E-09 2.13913E-08
 -1       570 1.66446E+05-3.53239E+05-6.22540E+03-4.41248E+05 1.07029E-08-2.04664E-08
 -1       571 2.90593E+05 1.05107E+04 1.49926E+04-9.52961E+04 2.28465E-09 1.53841E-09
 -1       572 2.92765E+05 3.96285E+03 7.34758E+03-1.04550E+05 3.91128E-09-8.90032E-09
 -1       573 2.91455E+05 1.24767E+03 3.26477E+03-9.51196E+04 6.27188E-09-1.44346E-08
 -1       574 2.91669E+05 7.29230E+02 1.63726E+03-1.04774E+05 6.56109E-09-9.64155E-09
 -1       575 2.91549E+05 4.49796E+02 7.72748E+02-9.50954E+04-5.67721E-09-1.39789E-09
 -1       576 2.91533E+05 4.61282E+02 3.95654E+02-1.04804E+05-1.01402E-08 1.87356E-09
 -1       577 2.91589E+05 3.91606E+02 1.97527E+02-9.50921E+04-3.27054E-09 9.92986E-09
 -1       578 2.91564E+05 4.23102E+02 1.14141E+02-1.04808E+05-3.99086E-09-4.26371E-09
 -1       579 2.91662E+05 3.54768E+02 7.84437E+01-9.50918E+04 5.81895E-09 8.76571E-09
 -1       580 2.91666E+05 3.71892E+02 9.11285E+01-1.04804E+05-7.53153E-09 1.42063E-09
 -1       581 2.91776E+05 2.95993E+02 1.37715E+02-9.50977E+04 5.54428E-09-4.25553E-09
 -1       582 2.91842E+05 3.34386E+02 2.80055E+02-1.04742E+05 5.09317E-10-2.95313E-08
 -1       583 2.91917E+05 3.38521E+02 5.37552E+02-9.51544E+04 1.38607E-09-1.02013E-08
 -1       584 2.92218E+05 7.77622E+02 1.21645E+03-1.04265E+05 8.74388E-09-1.05340E-08
 -1       585 2.91943E+05 1.80137E+03 2.46327E+03-9.55741E+04 1.40062E-10-6.04996E-09
 -1       586-3.42396E+03 1.17007E+05-2.91115E+03-2.50743E+05-2.52385E-09 1.68159E-08
 -1       587-1.34051E+03 1.16760E+05 7.76044E+02-2.75961E+05-4.22733E-09 2.22138E-08
 -1       588 3.97272E+02 1.16566E+05 4.76537E+03-2.50605E+05-3.19415E-09 1.66492E-08
 -1       589 5.08742E+03 1.19041E+05 1.23558E+04-2.75728E+05-5.14774E-09-1.96505E-08
 -1       590 1.66218E+04 1.15231E+05 2.59174E+04-2.51037E+05-8.07449E-09-3.67436E-10
 -1       591-7.50814E+04-1.59774E+04-2.25458E+04-3.19803E+04-2.58797E-09 2.54204E-09
 -1       592-7.91792E+04-1.95322E+04-1.22126E+04-3.56019E+04-5.30317E-09 1.97196E-08
 -1       593-7.73361E+04-1.43415E+04-5.08350E+03-3.36335E+04-2.25442E-09 1.49337E-08
 -1       594-7.60663E+04-1.62238E+04-2.53527E+03-3.57196E+04-7.68431E-10 9.86304E-09
 -1       595-7.75080E+04-1.43361E+04-1.16394E+03-3.37086E+04-4.31896E-09 2.99478E-09
 -1       596-7.58532E+04-1.60725E+04-5.91472E+02-3.56943E+04 4.96379E-09-8.38503E-09
 -1       597-7.75296E+04-1.43515E+04-3.21608E+02-3.37114E+04 1.30359E-09 6.79483E-09
 -1       598-7.58322E+04-1.60665E+04-2.57681E+02-3.56871E+04-1.07357E-08-3.63494E-09
 -1       599-7.75283E+04-1.43521E+04-3.28091E+02-3.37111E+04 4.72130E-09-1.65032E-08
 -1       600-7.58532E+04-1.60730E+04-6.08635E+02-3.56921E+04 1.01745E-08 1.29377E-08
 -1       601-7.75037E+04-1.43375E+04-1.20026E+03-3.37076E+04 3.83966E-09 3.99132E-09
 -1       602-7.60730E+04-1.62279E+04-2.61561E+03-3.57144E+04-5.16854E-09-5.07998E-09
 -1       603-7.73236E+04-1.43460E+04-5.24527E+03-3.36309E+04-8.96762E-10 1.12464E-08
 -1       604-7.93025E+04-1.96219E+04-1.26004E+04-3.55680E+04-1.57536E-09-7.56222E-09
 -1       605-7.49772E+04-1.60517E+04-2.32618E+04-3.19447E+04 8.19398E-10 1.58789E-08
 -1       606 2.66006E+04-1.43379E+04-2.57030E+04 2.39316E+04 9.65520E-09-1.80039E-08
 -1       607 2.22088E+04-4.68271E+03-1.28000E+04 2.68941E+04 3.21779E-09-9.38235E-09
 -1       608 2.47119E+04-8.44730E+02-5.73012E+03 2.37634E+04-5.64069E-09 1.50999E-08
 -1       609 2.42322E+04-2.89439E+02-2.89471E+03 2.71077E+04 8.69477E-10 1.01171E-08
 -1       610 2.44983E+04-4.10480E+01-1.38109E+03 2.37434E+04-8.14271E-09 1.80364E-08
 -1       611 2.44231E+04-4.13811E+01-6.96331E+02 2.71308E+04-1.25906E-08 1.66506E-08
 -1       612 2.44513E+04-2.74007E+01-3.31003E+02 2.37413E+04-6.83485E-09-4.08431E-09
 -1       613 2.44348E+04-3.73527E+01-1.48281E+02 2.71335E+04 5.81713E-09 6.83258E-10
 -1       614 2.44292E+04-3.38818E+01-3.46461E+01 2.37406E+04 2.87582E-09 1.85703E-08
 -1       615 2.44296E+04-3.59131E+01 6.24502E+01 2.71339E+04-4.80213E-10-9.04470E-09
 -1       616 2.44119E+04-3.07971E+01 1.86990E+02 2.37409E+04-1.19599E-10 3.54407E-09
 -1       617 2.44522E+04 3.88699E+00 4.26515E+02 2.71334E+04 8.22183E-10 6.42353E-09
 -1       618 2.43749E+04 9.21227E+01 8.59670E+02 2.37412E+04-2.41062E-09-1.05297E-09
 -1       619 2.47557E+04 6.68554E+02 1.93043E+03 2.71328E+04-3.28657E-09 5.81531E-09
 -1       620 2.40894E+04 2.13060E+03 3.88010E+03 2.37428E+04 1.30069E-09 6.88851E-09
 -1       621 5.11333E+02 3.01498E+05 3.88461E+03 4.11336E+04 1.00454E-09 4.04998E-09
 -1       622 6.77993E+02 3.02394E+05 3.44796E+03 5.97165E+04 1.20781E-09-1.22272E-08
 -1       623 1.43509E+02 3.01692E+05 4.14370E+03 4.09476E+04 1.35469E-09-1.48448E-08
 -1       624 2.12847E+03 3.03612E+05 8.03342E+03 5.98997E+04 1.35708E-09-1.31540E-08
 -1       625 2.07927E+03 3.00098E+05 1.40382E+04 4.09443E+04 1.28148E-09 2.99542E-09
 -1       626 2.61025E+05 6.13974E+04 5.12790E+03 1.26742E+05-2.08092E-09 2.36541E-08
 -1       627 2.58712E+05 6.27878E+04 2.47109E+03 1.31012E+05-4.15093E-09 1.76327E-08
 -1       628 2.61153E+05 5.90515E+04 1.04510E+03 1.27615E+05-1.14287E-08 1.26283E-08
 -1       629 2.58077E+05 6.21061E+04 5.11514E+02 1.31252E+05-7.84485E-09-9.50088E-09
 -1       630 2.61167E+05 5.89382E+04 2.37376E+02 1.27652E+05-2.96041E-10 1.33734E-08
 -1       631 2.58010E+05 6.20801E+04 1.27856E+02 1.31254E+05 4.72960E-09-5.42724E-09
 -1       632 2.61164E+05 5.89421E+04 8.43357E+01 1.27647E+05 4.34920E-09-1.44657E-08
 -1       633 2.58002E+05 6.20819E+04 9.42631E+01 1.31250E+05-7.16227E-11 1.21963E-08
 -1       634 2.61159E+05 5.89392E+04 1.52609E+02 1.27647E+05 2.74554E-10-7.34190E-09
 -1       635 2.58016E+05 6.20802E+04 3.08972E+02 1.31256E+05-2.76302E-09 6.02904E-09
 -1       636 2.61150E+05 5.89334E+04 6.24058E+02 1.27647E+05-3.09342E-09 5.00631E-09
 -1       637 2.58151E+05 6.21772E+04 1.37221E+03 1.31255E+05-3.75621E-10-2.35918E-08
 -1       638 2.61102E+05 5.92365E+04 2.81939E+03 1.27510E+05 3.40060E-09-5.85942E-09
 -1       639 2.59632E+05 6.42370E+04 6.67083E+03 1.30819E+05 8.60473E-09 9.48421E-09
 -1       640 2.60896E+05 6.53874E+04 1.38431E+04 1.24918E+05 8.71205E-09 2.52771E-09
 -1       656 6.65793E+04-1.70408E+06-1.60719E+05-2.56558E+03 4.14730E-10 2.12520E-09
 -1       657-8.80804E+04-1.77670E+06-1.33149E+05 5.15056E+03 1.03319E-09 6.81121E-09
 -1       658 2.12248E+04-1.72470E+06-8.20077E+04-4.64908E+03 3.40378E-10 4.62678E-09
 -1       659-9.52570E+04-1.78011E+06-1.42581E+05 6.88249E+03-1.81171E-09 1.72647E-08
 -1       660 7.37400E+04-1.70068E+06-1.76934E+05-4.29749E+03-2.73576E-09 1.99564E-08
 -1       661 1.57983E+05 1.65212E+04 1.66715E+04 6.17552E+04-2.00498E-09 6.15728E-10
 -1       662 1.67356E+05 2.89195E+04 1.12354E+04 5.80747E+04-1.91937E-09-1.39203E-08
 -1       663 1.61257E+05 2.18700E+04 3.92949E+03 6.08053E+04-4.38718E-10-9.95215E-09
 -1       664 1.63560E+05 2.26643E+04 2.35067E+03 5.92350E+04-1.55455E-09 1.64324E-08
 -1       665 1.61754E+05 2.26007E+04 9.27429E+02 6.06605E+04 6.48413E-10-3.27714E-09
 -1       666 1.62973E+05 2.18288E+04 5.43070E+02 5.94239E+04 9.35694E-09 2.93887E-09
 -1       667 1.61841E+05 2.26838E+04 2.89023E+02 6.06242E+04 5.68861E-10 8.11937E-10
 -1       668 1.62877E+05 2.17694E+04 2.95627E+02 5.94768E+04-3.59371E-09-2.66290E-08
 -1       669 1.61849E+05 2.26584E+04 4.01241E+02 6.06079E+04-5.90060E-09 8.89912E-10
 -1       670 1.62974E+05 2.19878E+04 8.74609E+02 5.94801E+04-9.31745E-09 3.88411E-10
 -1       671 1.61743E+05 2.24699E+04 1.55322E+03 6.06190E+04 1.20369E-09-4.74950E-09
 -1       672 1.63879E+05 2.34996E+04 3.97417E+03 5.92614E+04 6.59493E-09-9.15816E-09
 -1       673 1.60949E+05 2.11849E+04 6.66010E+03 6.08119E+04 1.81581E-09-4.84624E-09
 -1       674 1.70217E+05 3.42009E+04 1.90466E+04 5.74003E+04-4.40764E-09 8.12474E-09
 -1       675 1.55446E+05 1.20683E+04 2.82719E+04 6.23677E+04-5.16638E-09 4.18004E-09
 -1       676 2.37936E+01-2.95860E+05-1.09857E+03-1.38615E+02 2.26305E-09 3.16603E-09
 -1       677-2.90560E+02-2.96126E+05-2.01057E+03 2.77005E+02 9.65269E-09-2.43222E-08
 -1       678 1.94913E+02-2.95671E+05-3.55420E+03-1.38301E+02 3.15526E-09-5.77939E-09
 -1       679-3.55422E+03-2.98271E+05-8.44329E+03 2.75789E+02 9.85528E-09 2.47836E-08
 -1       680 2.12210E+03-2.93716E+05-1.36077E+04-1.35891E+02 9.90440E-10 1.59338E-09
 -1       771-3.06173E+06-7.47421E+05-1.66202E+05-1.46589E+06-3.49828E-08-3.14612E-08
 -1       772-2.98459E+06-8.36345E+05-8.56921E+04-1.56870E+06-2.68192E-08 8.41464E-09
 -1       773-3.09327E+06-7.22833E+05-4.36777E+04-1.48046E+06-1.50758E-08 9.05129E-09
 -1       774-2.97505E+06-8.17775E+05-1.94882E+04-1.59449E+06 2.63244E-08-2.12458E-09
 -1       775-3.10974E+06-7.11281E+05-1.45737E+04-1.48753E+06-1.28057E-09 7.76345E-09
 -1       776-2.98742E+06-8.14730E+05-5.45064E+03-1.61401E+06-1.57743E-08 6.40284E-09
 -1       777-3.12403E+06-7.00969E+05-6.43802E+03-1.49376E+06 1.21945E-08 2.45200E-09
 -1       778-3.00033E+06-8.11899E+05-1.82050E+03-1.63078E+06 1.08266E-08 8.29459E-09
 -1       779-3.13631E+06-6.91958E+05-3.21692E+03-1.49908E+06-1.33732E-08-1.61272E-08
 -1       780-3.01170E+06-8.09199E+05-5.33550E+02-1.64444E+06-7.27596E-09-1.47702E-09
 -1       781-3.14608E+06-6.84693E+05-1.24966E+03-1.50325E+06-2.86236E-08-4.48563E-09
 -1       782-3.02047E+06-8.06907E+05 4.50587E+02-1.65452E+06-4.06362E-08-7.33871E-09
 -1       783-3.15296E+06-6.79645E+05 7.01521E+02-1.50617E+06-1.06884E-08-1.08575E-08
 -1       784-3.02532E+06-8.04617E+05 2.90740E+03-1.66075E+06-3.10101E-08-2.17824E-09
 -1       785-3.15703E+06-6.76634E+05 5.13262E+03-1.50802E+06-4.18149E-08 9.24774E-09
 -1       786 1.23454E+05-9.76121E+03 2.25835E+04-3.22331E+02 3.56536E-09 3.12411E-09
 -1       787 1.33249E+05 1.13013E+04 1.59769E+04-1.35594E+02 7.40029E-09 1.48298E-08
 -1       788 1.27230E+05-1.52960E+03 5.84284E+03-2.87219E+02 5.21588E-10 2.47551E-08
 -1       789 1.28849E+05 1.77048E+03 3.66792E+03-1.89390E+02-2.93723E-09 1.21327E-08
 -1       790 1.27854E+05-2.38153E+02 1.48508E+03-2.68553E+02-4.11314E-09 7.25834E-09
 -1       791 1.28120E+05 2.75548E+02 8.57735E+02-2.21325E+02-6.42484E-09 4.81336E-10
 -1       792 1.27960E+05-3.57873E+01 3.63455E+02-2.55286E+02-5.45247E-09-6.87024E-10
 -1       793 1.27994E+05 3.78066E+01 1.81150E+02-2.46271E+02-6.31035E-10-2.56035E-08
 -1       794 1.27980E+05-5.61577E-01 4.69950E+01-2.43607E+02 4.65667E-09-9.56049E-10
 -1       795 1.27957E+05-2.75300E+01-5.80275E+01-2.70621E+02-4.81296E-09 1.86257E-08
 -1       796 1.27997E+05 2.95127E+01-1.63133E+02-2.30935E+02 3.88937E-09 5.99533E-09
 -1       797 1.27862E+05-2.20321E+02-4.47660E+02-2.99700E+02 3.14385E-09-6.47745E-10
 -1       798 1.28075E+05 1.92085E+02-7.26951E+02-2.14528E+02 2.45183E-09-4.62714E-09
 -1       799 1.27310E+05-1.41584E+03-1.99990E+03-3.40308E+02 5.83907E-09-1.99043E-08
 -1       800 1.28548E+05 1.22406E+03-2.83025E+03-1.90329E+02 2.48708E-11-2.92471E-09
 -1       801-1.71321E+05-9.99942E+06-1.39374E+06 1.41582E+06 9.24920E-08-5.42568E-08
 -1       802 7.38530E+05 5.95296E+06 2.18236E+06-1.74785E+06 2.59774E-07-2.80525E-08
 -1       803-5.36791E+05-1.42698E+07-1.89108E+06 8.98408E+05 7.74635E-08 1.54105E-08
 -1       804 2.87298E+05 2.39694E+06 1.53771E+06 6.77336E+05-1.19733E-07-9.66220E-08
 -1       805 1.89386E+05-6.45751E+06-2.86500E+05-1.00369E+06-5.01313E-08-5.69999E-08
 -1       806-3.08937E+05-5.97489E+04-2.28524E+04-1.22403E+05-6.91398E-09 1.73713E-10
 -1       807-3.10736E+05-5.60170E+04-1.12272E+04-1.27946E+05 1.43837E-09-1.15783E-08
 -1       808-3.09564E+05-5.15131E+04-4.76292E+03-1.26296E+05-8.02174E-10 7.19649E-09
 -1       809-3.08376E+05-5.28623E+04-2.32895E+03-1.28222E+05-1.70076E-09-5.35056E-09
 -1       810-3.09659E+05-5.12264E+04-1.06749E+03-1.26468E+05 4.15776E-09-2.13117E-09
 -1       811-3.08193E+05-5.27356E+04-5.30884E+02-1.28186E+05 2.82125E-09 1.06127E-08
 -1       812-3.09673E+05-5.12511E+04-2.68580E+02-1.26468E+05-1.68529E-09 1.19885E-08
 -1       813-3.08168E+05-5.27377E+04-1.74686E+02-1.28167E+05-5.79530E-09-9.90076E-09
 -1       814-3.09666E+05-5.12608E+04-1.73338E+02-1.26464E+05 6.84759E-09-7.73116E-09
 -1       815-3.08172E+05-5.27400E+04-2.79473E+02-1.28160E+05 3.79987E-09 8.55107E-09
 -1       816-3.09645E+05-5.12599E+04-5.29821E+02-1.26460E+05 1.13132E-08 2.31607E-08
 -1       817-3.08262E+05-5.27905E+04-1.13711E+03-1.28148E+05-8.32461E-09 1.73598E-08
 -1       818-3.09576E+05-5.14204E+04-2.31933E+03-1.26384E+05-2.07092E-09-1.37425E-08
 -1       819-3.09531E+05-5.41917E+04-5.45720E+03-1.27848E+05 2.40470E-09-1.72297E-08
 -1       820-3.09138E+05-5.55430E+04-1.11074E+04-1.24623E+05 9.85892E-10-1.55569E-09
 -1       821-3.78851E+05 2.08661E+04-4.85694E+04 2.12316E+03 1.37756E-08-1.33514E-09
 -1       822-3.98566E+05-2.41720E+04-3.41361E+04-4.43736E+03 4.99813E-09-3.22188E-09
 -1       823-3.86320E+05 3.28902E+03-1.25454E+04 3.42507E+03-1.30966E-08 2.17142E-09
 -1       824-3.89551E+05-3.79291E+03-7.85296E+03-5.34119E+03 3.77623E-09 1.12323E-08
 -1       825-3.87872E+05 5.11081E+02-3.28814E+03 3.02711E+03 2.21023E-08 7.43785E-09
 -1       826-3.87127E+05-5.67458E+02-1.74550E+03-3.07585E+03 2.78822E-08-2.76427E-08
 -1       827-3.88720E+05 4.71771E+01-1.18833E+03 1.15959E+03 1.21206E-08-5.50745E-09
 -1       828-3.86427E+05-1.32533E+02-5.88978E+02 1.09813E+03-4.81155E-09 5.81842E-09
 -1       829-3.88559E+05 6.62166E+01-1.17751E+03-1.14691E+03-5.22192E-10-6.05243E-09
 -1       830-3.87475E+05-6.22271E+02-1.88382E+03 4.86751E+03 3.12991E-09-2.13636E-08
 -1       831-3.87694E+05 5.54393E+02-3.37084E+03-2.60980E+03-4.70889E-09 7.50788E-10
 -1       832-3.89632E+05-3.96055E+03-8.15756E+03 6.14021E+03-3.91424E-09 2.23621E-08
 -1       833-3.86418E+05 3.41392E+03-1.30521E+04-2.41965E+03-3.26909E-09-1.05229E-09
 -1       834-3.98630E+05-2.50915E+04-3.53675E+04 4.17577E+03-2.51664E-09 3.29965E-09
 -1       835-3.78679E+05 2.16526E+04-5.04511E+04-6.45290E+02 5.04724E-09 1.61308E-08
 -1       836-1.41439E+03 3.70284E+05 2.29150E+04-1.61093E+04-7.01766E-09-2.84081E-09
 -1       837 4.88469E+03 3.77461E+05 1.93864E+04-3.29232E+04-7.90425E-09 1.30240E-08
 -1       838-5.58195E+02 3.72297E+05 1.97468E+04-1.60379E+04-6.48515E-09 4.06885E-09
 -1       839 1.24249E+04 3.83077E+05 3.73495E+04-3.29758E+04-6.73253E-09-6.45190E-09
 -1       840-3.84158E+03 3.64608E+05 5.95564E+04-1.60626E+04-6.35919E-09 1.07894E-08
 -1       856-5.50528E+04 8.12802E+03-2.14191E+04-4.00363E+02 4.27906E-09-1.80526E-08
 -1       857-6.38765E+04-9.55022E+03-1.47447E+04 5.70954E+03 1.51235E-09-1.18332E-08
 -1       858-5.85473E+04 1.13987E+03-5.55779E+03-4.25595E+02 4.31044E-09-1.77670E-08
 -1       859-5.98663E+04-1.34105E+03-3.35392E+03 5.74716E+03-3.00253E-09 6.49771E-09
 -1       860-5.90694E+04 1.59642E+02-1.40577E+03-4.37717E+02 1.00334E-09 1.08861E-09
 -1       861-5.92658E+04-1.90612E+02-7.73622E+02 5.76367E+03 5.29305E-10-1.21279E-08
 -1       862-5.91510E+04 2.16549E+01-3.22147E+02-4.42081E+02-1.34795E-09-9.03486E-09
 -1       863-5.91658E+04-2.23656E+01-1.18628E+02 5.76614E+03-5.37338E-09-1.27524E-08
 -1       864-5.91699E+04-4.78257E+00 4.49215E+01-4.40184E+02-1.05197E-09-1.28063E-08
 -1       865-5.91100E+04 5.88416E+01 2.52131E+02 5.75551E+03-1.85139E-09 4.77676E-09
 -1       866-5.92046E+04-5.96352E+01 5.09539E+02-4.31450E+02-8.01663E-10-2.67903E-09
 -1       867-5.88697E+04 4.92133E+02 1.25524E+03 5.73181E+03 1.45661E-10-8.89278E-09
 -1       868-5.94051E+04-4.30392E+02 2.08593E+03-4.16486E+02-2.94068E-09-6.76278E-09
 -1       869-5.73397E+04 3.58118E+03 5.55473E+03 5.69296E+03 4.51462E-09-1.05797E-08
 -1       870-6.07266E+04-3.06499E+03 8.06086E+03-3.92497E+02-7.95217E-09 7.47787E-09
 -1       871-5.52693E+03-2.15196E+04-1.95234E+04 1.30292E+05-4.79849E-09 1.28493E-08
 -1       872-1.98548E+03-2.60591E+04-8.17859E+03 1.68944E+05-1.21727E-08 1.39553E-08
 -1       873 4.05607E+02-2.38626E+04 5.81887E+02 1.30006E+05-5.54792E-09-4.95197E-09
 -1       874 3.30660E+03-2.14527E+04 9.77506E+03 1.68973E+05-1.09630E-08 3.00099E-08
 -1       875 6.84689E+03-2.61926E+04 2.20590E+04 1.30244E+05-4.63479E-09 1.19126E-08
 -1       876 2.94791E+05 4.95494E+04 1.51861E+04 1.18113E+05 5.22061E-09 2.01153E-08
 -1       877 2.95856E+05 5.26864E+04 8.10994E+03 1.22399E+05 6.02768E-10-3.13480E-09
 -1       878 2.96211E+05 4.78677E+04 3.39766E+03 1.19358E+05-1.11877E-08 4.12228E-09
 -1       879 2.93793E+05 5.06255E+04 1.69289E+03 1.22501E+05-1.25328E-09 6.47429E-09
 -1       880 2.96313E+05 4.78503E+04 7.88471E+02 1.19409E+05-1.78761E-09 3.06545E-09
 -1       881 2.93656E+05 5.05373E+04 4.20962E+02 1.22477E+05 1.07860E-08 4.02744E-09
 -1       882 2.96322E+05 4.78637E+04 2.69124E+02 1.19410E+05 4.27804E-09-7.74810E-09
 -1       883 2.93646E+05 5.05327E+04 2.89052E+02 1.22469E+05-2.46530E-10 1.30273E-08
 -1       884 2.96315E+05 4.78609E+04 4.59574E+02 1.19410E+05 6.76619E-09 2.80744E-09
 -1       885 2.93683E+05 5.05390E+04 9.23840E+02 1.22480E+05-2.22684E-09-1.87697E-08
 -1       886 2.96279E+05 4.78341E+04 1.86190E+03 1.19407E+05-6.39598E-09 2.58410E-09
 -1       887 2.94010E+05 5.07536E+04 4.06700E+03 1.22527E+05 6.26338E-09 6.22595E-09
 -1       888 2.96022E+05 4.78794E+04 8.19513E+03 1.19277E+05-5.36924E-09-6.83394E-09
 -1       889 2.98887E+05 5.58285E+04 1.95765E+04 1.22379E+05-9.48978E-09-1.90284E-08
 -1       890 2.92678E+05 5.18517E+04 3.66665E+04 1.16156E+05-3.87854E-09-1.87174E-09
 -1       891-8.42668E+01-1.66385E+05-2.17459E+03 2.68064E+04-3.33534E-09-1.56342E-09
 -1       892-2.09133E+02-1.66968E+05-2.28400E+03 4.13981E+04-9.90963E-09-1.50287E-08
 -1       893 4.74410E+01-1.66465E+05-3.16586E+03 2.68137E+04-6.92035E-09-1.84837E-08
 -1       894-1.59894E+03-1.68150E+05-6.52058E+03 4.12450E+04-7.14408E-09 2.09548E-09
 -1       895-1.07852E+03-1.65101E+05-1.14083E+04 2.69612E+04-4.23938E-09-1.40935E-08
 -1       956-3.77296E+05-5.45070E+03-1.34551E+04 3.08725E+04 6.73936E-09-9.17225E-10
 -1       957-3.79936E+05-1.92288E+03-6.90630E+03 3.71006E+04 3.70619E-10-4.25712E-08
 -1       958-3.78505E+05-2.41018E+02-3.11220E+03 3.07048E+04-6.74754E-09-4.11410E-09
 -1       959-3.78701E+05-1.36347E+02-1.58913E+03 3.72962E+04-7.51970E-09 1.01086E-08
 -1       960-3.78623E+05-4.48677E+01-7.74929E+02 3.06875E+04 1.41063E-09 8.34507E-09
 -1       961-3.78621E+05-6.33005E+01-4.10844E+02 3.73166E+04 1.18073E-08 3.45381E-10
 -1       962-3.78651E+05-4.60960E+01-2.35192E+02 3.06846E+04 4.51155E-09 1.57663E-08
 -1       963-3.78621E+05-5.91139E+01-1.88757E+02 3.73203E+04 1.42154E-09 6.03382E-09
 -1       964-3.78656E+05-4.27523E+01-2.29490E+02 3.06839E+04-1.48113E-09 2.35868E-08
 -1       965-3.78634E+05-5.61667E+01-3.96880E+02 3.73196E+04-6.38192E-09-1.42834E-08
 -1       966-3.78640E+05-3.49327E+01-7.45705E+02 3.06854E+04 2.30148E-09 3.47291E-09
 -1       967-3.78723E+05-1.19691E+02-1.52941E+03 3.73052E+04 6.05269E-10-2.67621E-08
 -1       968-3.78536E+05-2.17334E+02-2.99403E+03 3.06981E+04 2.37696E-09-9.46017E-09
 -1       969-3.79923E+05-1.83349E+03-6.64666E+03 3.71566E+04 4.27826E-09 5.54738E-09
 -1       970-3.77380E+05-5.22721E+03-1.29481E+04 3.08254E+04-2.86127E-09 1.63272E-08
 -1       971-3.45668E+05-1.72920E+03-9.32160E+03 1.52099E+04 4.30464E-09-1.12681E-08
 -1       972-3.47912E+05-1.27294E+03-5.07647E+03 2.10311E+04 5.14410E-09 1.40162E-08
 -1       973-3.46706E+05-6.18464E+01-2.27380E+03 1.50893E+04 1.61253E-09 2.27647E-09
 -1       974-3.46841E+05-8.08988E+01-1.17867E+03 2.11677E+04 1.05183E-09 6.26187E-09
 -1       975-3.46788E+05-1.70243E+01-5.89654E+02 1.50770E+04-1.22782E-09 8.99070E-09
 -1       976-3.46780E+05-3.10677E+01-3.41041E+02 2.11835E+04 6.11658E-09 7.38282E-09
 -1       977-3.46805E+05-1.63082E+01-2.49049E+02 1.50736E+04-3.86990E-10-1.19978E-08
 -1       978-3.46785E+05-2.48255E+01-2.93497E+02 2.11884E+04-7.87713E-09 6.39454E-09
 -1       979-3.46804E+05-7.77050E+00-4.73326E+02 1.50721E+04-5.03337E-09 5.34953E-09
 -1       980-3.46821E+05-2.16658E+01-9.15031E+02 2.11895E+04-1.32673E-08-6.38795E-09
 -1       981-3.46775E+05 1.52286E+01-1.77276E+03 1.50725E+04-4.73779E-09-5.87477E-10
 -1       982-3.47064E+05-1.52476E+02-3.66461E+03 2.11831E+04-5.09726E-09-2.04714E-09
 -1       983-3.46552E+05-9.80809E+01-7.12049E+03 1.50784E+04-6.73799E-09-4.93060E-09
 -1       984-3.50490E+05-3.87108E+03-1.59462E+04 2.10994E+04 1.44792E-09 5.19685E-09
 -1       985-3.43329E+05-5.30818E+03-2.92821E+04 1.51480E+04-4.77030E-09 6.93035E-09
 -3
    1PSTEP                        27          14           1          
  100CL  114 6.62933E-01         409                     0   14           1
 -4  DISP        4    1
 -5  D1          1    2    1    0
 -5  D2          1    2    2    0
 -5  D3          1    2    3    0
 -5  ALL         1    2    0    0    1ALL
 -1         1 2.72663E-03 0.00000E+00 0.00000E+00
 -1         2 1.32893E-03 2.16126E-28 0.00000E+00
 -1         3 3.42743E-04-7.13763E-28 0.00000E+00
 -1         5 1.77135E-04-1.76437E-27 0.00000E+00
 -1         8 2.71593E-03-4.01330E-07 0.00000E+00
 -1         9 2.70918E-03-2.00165E-04 0.00000E+00
 -1        10 3.10786E-04-3.39483E-06 6.61744E-24
 -1        12 1.78984E-04 8.09432E-07 4.13590E-25
 -1        15 2.70373E-03-4.24400E-07 0.00000E+00
 -1        16 2.77904E-03-2.02039E-04 0.00000E+00
 -1        17 2.11507E-04-7.74439E-06 0.00000E+00
 -1        18 1.82937E-04 3.44423E-05 0.00000E+00
 -1        19 1.84531E-04 1.61244E-06 0.00000E+00
 -1        20 1.84670E-04-9.90485E-06 0.00000E+00
 -1        21 1.83714E-04-2.54305E-05 0.00000E+00
 -1        24 3.06055E-05-1.19669E-05 0.00000E+00
 -1        25 1.93731E-04 3.46682E-05 0.00000E+00
 -1        26 1.94410E-04 2.23273E-06 0.00000E+00
 -1        27 1.92211E-04-1.34638E-05 0.00000E+00
 -1        28 1.91878E-04-2.60527E-05 0.00000E+00
 -1        32 0.00000E+00 0.00000E+00 0.00000E+00
 -1        33 2.03287E-04 2.98672E-06 0.00000E+00
 -1        34 2.01168E-04-1.35204E-05 0.00000E+00
 -1        35 1.99234E-04-2.64027E-05 0.00000E+00
 -1        51 2.72591E-03-8.44265E-08-4.96308E-24
 -1        52 2.72460E-03-1.50385E-07 0.00000E+00
 -1        53 2.72281E-03-2.12840E-07 0.00000E+00
 -1        54 2.72069E-03-2.74026E-07 1.65436E-24
 -1        55 2.71835E-03-3.35706E-07 1.65436E-24
 -1        56 2.71855E-03 9.43311E-06 5.29396E-23
 -1        57 2.70237E-03 3.88049E-05-5.29396E-23
 -1        58 2.68050E-03 8.18779E-05 0.00000E+00
 -1        59 2.65597E-03 1.31116E-04 0.00000E+00
 -1        60 2.63247E-03 1.77924E-04 0.00000E+00
 -1        61 2.61355E-03 2.13903E-04 0.00000E+00
 -1        62 2.60164E-03 2.32589E-04 0.00000E+00
 -1        63 2.59828E-03 2.29053E-04 5.29396E-23
 -1        64 2.60324E-03 2.02456E-04-1.05879E-22
 -1        65 2.61549E-03 1.54150E-04 5.29396E-23
 -1        66 2.63292E-03 8.96291E-05 0.00000E+00
 -1        67 2.65311E-03 1.59916E-05 0.00000E+00
 -1        68 2.67337E-03-5.78833E-05 0.00000E+00
 -1        69 2.69104E-03-1.23087E-04-5.29396E-23
 -1        70 2.70365E-03-1.72405E-04 0.00000E+00
 -1        86 1.41574E-03-6.29939E-06 5.29396E-23
 -1        87 1.66668E-03-3.97191E-05 0.00000E+00
 -1        88 2.00412E-03-9.72164E-05 2.64698E-23
 -1        89 2.34622E-03-1.56341E-04 0.00000E+00
 -1        90 2.60841E-03-1.92530E-04 5.29396E-23
 -1       121 3.41846E-04-5.48066E-07 0.00000E+00
 -1       122 3.39157E-04-1.09922E-06 6.61744E-24
 -1       123 3.34687E-04-1.65650E-06-1.32349E-23
 -1       124 3.28452E-04-2.22296E-06 0.00000E+00
 -1       125 3.20475E-04-2.80123E-06-1.32349E-23
 -1       191 1.77186E-04 1.34969E-07 8.27181E-25
 -1       192 1.77340E-04 2.69927E-07-1.24077E-24
 -1       193 1.77597E-04 4.04865E-07-2.48154E-24
 -1       194 1.77957E-04 5.39770E-07 1.65436E-24
 -1       195 1.78419E-04 6.74630E-07-3.30872E-24
 -1       251 2.71563E-03 1.60711E-06-6.61744E-24
 -1       252 2.71533E-03 3.46932E-06-3.30872E-24
 -1       253 2.71503E-03 4.17809E-06 6.61744E-24
 -1       254 2.71472E-03 2.74046E-06 0.00000E+00
 -1       255 2.71441E-03-1.51263E-06-6.61744E-24
 -1       256 2.71408E-03-9.21524E-06 0.00000E+00
 -1       257 2.71371E-03-2.04812E-05 6.61744E-24
 -1       258 2.71330E-03-3.53801E-05 3.30872E-24
 -1       259 2.71284E-03-5.34340E-05 0.00000E+00
 -1       260 2.71233E-03-7.41256E-05 0.00000E+00
 -1       261 2.71178E-03-9.65395E-05 0.00000E+00
 -1       262 2.71122E-03-1.19740E-04 0.00000E+00
 -1       263 2.71066E-03-1.42672E-04-1.32349E-23
 -1       264 2.71013E-03-1.64283E-04-6.61744E-24
 -1       265 2.70964E-03-1.83722E-04 0.00000E+00
 -1       266 2.71390E-03-4.10746E-07-1.65436E-24
 -1       267 2.71186E-03-4.13912E-07 0.00000E+00
 -1       268 2.70983E-03-4.17474E-07-4.13590E-25
 -1       269 2.70780E-03-4.19863E-07-2.06795E-25
 -1       270 2.70576E-03-4.22225E-07 0.00000E+00
 -1       271 2.71512E-03 2.50600E-10 1.32349E-23
 -1       272 2.71531E-03-2.31903E-06-6.61744E-24
 -1       273 2.71645E-03-7.19554E-06 0.00000E+00
 -1       274 2.71846E-03-1.44529E-05-1.32349E-23
 -1       275 2.72128E-03-2.38933E-05 2.64698E-23
 -1       276 2.72481E-03-3.53036E-05 0.00000E+00
 -1       277 2.72897E-03-4.84540E-05 0.00000E+00
 -1       278 2.73366E-03-6.31015E-05 0.00000E+00
 -1       279 2.73881E-03-7.89912E-05 0.00000E+00
 -1       280 2.74430E-03-9.58580E-05 0.00000E+00
 -1       281 2.75004E-03-1.13429E-04-1.32349E-23
 -1       282 2.75594E-03-1.31427E-04 0.00000E+00
 -1       283 2.76189E-03-1.49569E-04 0.00000E+00
 -1       284 2.76779E-03-1.67572E-04-6.61744E-24
 -1       285 2.77354E-03-1.85155E-04 0.00000E+00
 -1       301 2.72187E-03-2.00513E-04-6.61744E-24
 -1       302 2.73290E-03-2.00813E-04 0.00000E+00
 -1       303 2.74318E-03-2.01102E-04 0.00000E+00
 -1       304 2.75367E-03-2.01392E-04-6.61744E-24
 -1       305 2.76532E-03-2.01696E-04 0.00000E+00
 -1       306 2.74728E-03-3.55732E-04 0.00000E+00
 -1       307 2.81114E-03-7.70809E-04-5.29396E-23
 -1       308 2.85771E-03-1.37680E-03 1.05879E-22
 -1       309 2.88155E-03-2.07738E-03 0.00000E+00
 -1       310 2.91303E-03-2.74668E-03-1.05879E-22
 -1       311 2.97266E-03-3.26158E-03 5.29396E-23
 -1       312 3.03027E-03-3.54158E-03-1.05879E-22
 -1       313 3.02468E-03-3.54923E-03 5.29396E-23
 -1       314 2.88193E-03-3.29696E-03 0.00000E+00
 -1       315 2.56135E-03-2.84960E-03 0.00000E+00
 -1       316 2.08172E-03-2.28392E-03 0.00000E+00
 -1       317 1.50943E-03-1.66913E-03 0.00000E+00
 -1       318 9.59080E-04-1.06566E-03 1.05879E-22
 -1       319 5.38792E-04-5.38424E-04 0.00000E+00
 -1       320 2.92259E-04-1.61629E-04 0.00000E+00
 -1       336 2.99197E-04-4.05119E-06 0.00000E+00
 -1       337 2.85533E-04-4.73325E-06-6.61744E-24
 -1       338 2.69854E-04-5.44323E-06-1.32349E-23
 -1       339 2.52234E-04-6.18196E-06 0.00000E+00
 -1       340 2.32754E-04-6.95391E-06 0.00000E+00
 -1       406 1.79651E-04 9.44157E-07 2.48154E-24
 -1       407 1.80422E-04 1.07877E-06-8.27181E-25
 -1       408 1.81295E-04 1.21321E-06-1.65436E-24
 -1       409 1.82272E-04 1.34732E-06 1.44757E-24
 -1       410 1.83350E-04 1.48081E-06 2.89513E-24
 -1       521 2.81773E-03-3.66914E-04 0.00000E+00
 -1       522 2.87977E-03-8.02521E-04-5.29396E-23
 -1       523 2.91976E-03-1.43679E-03 1.05879E-22
 -1       524 2.93419E-03-2.16659E-03 5.29396E-23
 -1       525 2.95761E-03-2.86306E-03 0.00000E+00
 -1       526 3.01366E-03-3.40041E-03-5.29396E-23
 -1       527 3.07086E-03-3.69114E-03-2.11758E-22
 -1       528 3.06290E-03-3.69689E-03 5.29396E-23
 -1       529 2.90782E-03-3.43013E-03 2.11758E-22
 -1       530 2.56263E-03-2.96383E-03 0.00000E+00
 -1       531 2.04701E-03-2.37860E-03 1.05879E-22
 -1       532 1.43388E-03-1.74627E-03 5.29396E-23
 -1       533 8.43430E-04-1.12458E-03-1.05879E-22
 -1       534 3.89112E-04-5.76093E-04 5.29396E-23
 -1       535 1.20976E-04-1.79436E-04 0.00000E+00
 -1       536 2.10752E-04 2.71869E-05 0.00000E+00
 -1       537 2.08833E-04 8.76389E-05 0.00000E+00
 -1       538 2.05868E-04 1.64343E-04 0.00000E+00
 -1       539 2.02371E-04 2.47947E-04 1.65436E-24
 -1       540 1.99224E-04 3.26946E-04-3.30872E-24
 -1       541 1.97178E-04 3.89858E-04-1.65436E-24
 -1       542 1.96235E-04 4.29929E-04 0.00000E+00
 -1       543 1.96010E-04 4.40553E-04 1.65436E-24
 -1       544 1.95687E-04 4.22505E-04 0.00000E+00
 -1       545 1.94514E-04 3.76778E-04 1.65436E-24
 -1       546 1.92329E-04 3.11501E-04 3.30872E-24
 -1       547 1.89370E-04 2.34923E-04 0.00000E+00
 -1       548 1.86438E-04 1.58721E-04 0.00000E+00
 -1       549 1.84323E-04 9.45729E-05 0.00000E+00
 -1       550 1.83224E-04 5.05115E-05 1.65436E-24
 -1       551 1.86301E-04-8.31328E-06 0.00000E+00
 -1       552 1.57849E-04-8.96265E-06 0.00000E+00
 -1       553 1.27095E-04-9.67429E-06 3.30872E-24
 -1       554 9.49975E-05-1.04271E-05 0.00000E+00
 -1       555 6.25161E-05-1.11937E-05 0.00000E+00
 -1       556 2.03857E-04 1.18159E-05 0.00000E+00
 -1       557 1.97676E-04 2.76798E-05 0.00000E+00
 -1       558 1.92831E-04 4.01352E-05 0.00000E+00
 -1       559 1.89187E-04 4.94926E-05 0.00000E+00
 -1       560 1.86616E-04 5.60630E-05 0.00000E+00
 -1       561 1.84989E-04 6.01597E-05 0.00000E+00
 -1       562 1.84180E-04 6.20974E-05 0.00000E+00
 -1       563 1.84067E-04 6.21919E-05 0.00000E+00
 -1       564 1.84526E-04 6.07595E-05 0.00000E+00
 -1       565 1.85437E-04 5.81175E-05 0.00000E+00
 -1       566 1.86680E-04 5.45835E-05 0.00000E+00
 -1       567 1.88136E-04 5.04758E-05 0.00000E+00
 -1       568 1.89687E-04 4.61126E-05 0.00000E+00
 -1       569 1.91215E-04 4.18121E-05 0.00000E+00
 -1       570 1.92602E-04 3.78927E-05 0.00000E+00
 -1       571 1.83034E-04 3.23122E-05-8.27181E-25
 -1       572 1.83133E-04 3.01163E-05 1.24077E-24
 -1       573 1.83232E-04 2.78704E-05 0.00000E+00
 -1       574 1.83331E-04 2.55908E-05 8.27181E-25
 -1       575 1.83431E-04 2.32940E-05 0.00000E+00
 -1       576 1.83530E-04 2.09965E-05 0.00000E+00
 -1       577 1.83630E-04 1.87148E-05 0.00000E+00
 -1       578 1.83729E-04 1.64654E-05-6.61744E-24
 -1       579 1.83829E-04 1.42648E-05 6.61744E-24
 -1       580 1.83929E-04 1.21296E-05-6.61744E-24
 -1       581 1.84029E-04 1.00764E-05 0.00000E+00
 -1       582 1.84129E-04 8.12151E-06 0.00000E+00
 -1       583 1.84229E-04 6.28156E-06 6.61744E-24
 -1       584 1.84330E-04 4.57285E-06 0.00000E+00
 -1       585 1.84430E-04 3.01154E-06 0.00000E+00
 -1       586 1.84695E-04 3.44821E-05 0.00000E+00
 -1       587 1.86412E-04 3.45213E-05-8.27181E-25
 -1       588 1.88131E-04 3.45601E-05 0.00000E+00
 -1       589 1.89895E-04 3.45983E-05 0.00000E+00
 -1       590 1.91748E-04 3.46352E-05 0.00000E+00
 -1       591 1.83667E-04 3.24059E-05 1.03398E-25
 -1       592 1.84401E-04 3.03497E-05 0.00000E+00
 -1       593 1.85139E-04 2.82796E-05-8.27181E-25
 -1       594 1.85880E-04 2.62001E-05 4.13590E-25
 -1       595 1.86622E-04 2.41161E-05 0.00000E+00
 -1       596 1.87365E-04 2.20322E-05 0.00000E+00
 -1       597 1.88106E-04 1.99532E-05-8.27181E-25
 -1       598 1.88843E-04 1.78837E-05 4.13590E-25
 -1       599 1.89575E-04 1.58284E-05 8.27181E-25
 -1       600 1.90299E-04 1.37920E-05 0.00000E+00
 -1       601 1.91015E-04 1.17790E-05-8.27181E-25
 -1       602 1.91721E-04 9.79433E-06 0.00000E+00
 -1       603 1.92415E-04 7.84252E-06 4.13590E-25
 -1       604 1.93095E-04 5.92838E-06 1.29247E-25
 -1       605 1.93759E-04 4.05650E-06 0.00000E+00
 -1       606 1.84544E-04 4.46670E-07 0.00000E+00
 -1       607 1.84554E-04-6.33407E-07 0.00000E+00
 -1       608 1.84562E-04-1.63282E-06 3.30872E-24
 -1       609 1.84571E-04-2.55723E-06 1.65436E-24
 -1       610 1.84579E-04-3.41238E-06 0.00000E+00
 -1       611 1.84587E-04-4.20405E-06 0.00000E+00
 -1       612 1.84596E-04-4.93803E-06 0.00000E+00
 -1       613 1.84604E-04-5.62012E-06 0.00000E+00
 -1       614 1.84612E-04-6.25611E-06-1.65436E-24
 -1       615 1.84621E-04-6.85182E-06 0.00000E+00
 -1       616 1.84629E-04-7.41304E-06 0.00000E+00
 -1       617 1.84637E-04-7.94558E-06 0.00000E+00
 -1       618 1.84646E-04-8.45522E-06 0.00000E+00
 -1       619 1.84654E-04-8.94778E-06 0.00000E+00
 -1       620 1.84662E-04-9.42906E-06 0.00000E+00
 -1       621 1.85891E-04 1.71639E-06-3.30872E-24
 -1       622 1.87410E-04 1.82058E-06-1.65436E-24
 -1       623 1.89056E-04 1.92457E-06 0.00000E+00
 -1       624 1.90793E-04 2.02822E-06 0.00000E+00
 -1       625 1.92589E-04 2.13157E-06 1.65436E-24
 -1       626 1.85080E-04 4.82803E-07 3.30872E-24
 -1       627 1.85607E-04-5.83932E-07 0.00000E+00
 -1       628 1.86113E-04-1.59561E-06-6.61744E-24
 -1       629 1.86602E-04-2.56039E-06 0.00000E+00
 -1       630 1.87076E-04-3.48646E-06-3.30872E-24
 -1       631 1.87539E-04-4.38201E-06-1.65436E-24
 -1       632 1.87994E-04-5.25523E-06 0.00000E+00
 -1       633 1.88443E-04-6.11436E-06 0.00000E+00
 -1       634 1.88890E-04-6.96757E-06 3.30872E-24
 -1       635 1.89338E-04-7.82306E-06-1.65436E-24
 -1       636 1.89790E-04-8.68905E-06 0.00000E+00
 -1       637 1.90249E-04-9.57373E-06-1.65436E-24
 -1       638 1.90718E-04-1.04853E-05 1.65436E-24
 -1       639 1.91199E-04-1.14320E-05 1.65436E-24
 -1       640 1.91697E-04-1.24221E-05 0.00000E+00
 -1       656 1.85378E-04-1.04833E-05 6.61744E-24
 -1       657 1.86506E-04-1.10853E-05-6.61744E-24
 -1       658 1.87915E-04-1.16858E-05-1.32349E-23
 -1       659 1.89458E-04-1.22861E-05-6.61744E-24
 -1       660 1.90951E-04-1.28881E-05 6.61744E-24
 -1       661 1.84935E-04-1.04249E-05 8.27181E-25
 -1       662 1.85236E-04-1.10354E-05 8.27181E-25
 -1       663 1.85570E-04-1.17312E-05 0.00000E+00
 -1       664 1.85934E-04-1.25062E-05 8.27181E-25
 -1       665 1.86325E-04-1.33549E-05 0.00000E+00
 -1       666 1.86742E-04-1.42716E-05-8.27181E-25
 -1       667 1.87182E-04-1.52509E-05-1.65436E-24
 -1       668 1.87644E-04-1.62876E-05 0.00000E+00
 -1       669 1.88125E-04-1.73765E-05 1.65436E-24
 -1       670 1.88624E-04-1.85125E-05 0.00000E+00
 -1       671 1.89138E-04-1.96908E-05 1.65436E-24
 -1       672 1.89667E-04-2.09066E-05-8.27181E-25
 -1       673 1.90207E-04-2.21550E-05 0.00000E+00
 -1       674 1.90758E-04-2.34318E-05 4.13590E-25
 -1       675 1.91317E-04-2.47319E-05-2.06795E-25
 -1       676 1.85079E-04-2.55348E-05 0.00000E+00
 -1       677 1.86444E-04-2.56391E-05 1.65436E-24
 -1       678 1.87807E-04-2.57433E-05-3.30872E-24
 -1       679 1.89168E-04-2.58472E-05 0.00000E+00
 -1       680 1.90525E-04-2.59510E-05 0.00000E+00
 -1       771 1.86481E-05 1.47745E-05-5.29396E-23
 -1       772 8.58868E-06 3.67370E-05 0.00000E+00
 -1       773 3.36328E-07 5.41512E-05-5.29396E-23
 -1       774-6.23334E-06 6.72750E-05 0.00000E+00
 -1       775-1.12421E-05 7.63770E-05 5.29396E-23
 -1       776-1.48165E-05 8.17425E-05 0.00000E+00
 -1       777-1.70830E-05 8.36668E-05 0.00000E+00
 -1       778-1.81706E-05 8.24592E-05-2.64698E-23
 -1       779-1.82077E-05 7.84374E-05 5.29396E-23
 -1       780-1.73246E-05 7.19306E-05 0.00000E+00
 -1       781-1.56509E-05 6.32748E-05-5.29396E-23
 -1       782-1.33175E-05 5.28149E-05 0.00000E+00
 -1       783-1.04546E-05 4.09003E-05-5.29396E-23
 -1       784-7.19351E-06 2.78868E-05 0.00000E+00
 -1       785-3.66459E-06 1.41329E-05 5.29396E-23
 -1       786 1.93769E-04 3.24131E-05 6.46235E-27
 -1       787 1.93811E-04 3.02081E-05-4.13590E-25
 -1       788 1.93853E-04 2.80449E-05 0.00000E+00
 -1       789 1.93895E-04 2.59153E-05 8.27181E-25
 -1       790 1.93937E-04 2.38146E-05-1.65436E-24
 -1       791 1.93980E-04 2.17381E-05-8.27181E-25
 -1       792 1.94023E-04 1.96835E-05-1.65436E-24
 -1       793 1.94065E-04 1.76486E-05 0.00000E+00
 -1       794 1.94108E-04 1.56333E-05-1.65436E-24
 -1       795 1.94151E-04 1.36373E-05 0.00000E+00
 -1       796 1.94194E-04 1.16625E-05 1.65436E-24
 -1       797 1.94237E-04 9.71081E-06 8.27181E-25
 -1       798 1.94280E-04 7.78640E-06 1.65436E-24
 -1       799 1.94323E-04 5.89359E-06 0.00000E+00
 -1       800 1.94366E-04 4.03983E-06 0.00000E+00
 -1       801 1.47920E-04 3.11671E-05-2.64698E-23
 -1       802 9.40907E-06 1.94438E-05 2.64698E-23
 -1       803-1.08898E-04 9.82158E-06 0.00000E+00
 -1       804-9.65217E-05 6.83656E-06-2.64698E-23
 -1       805-3.18902E-05 2.68604E-06 5.29396E-23
 -1       806 1.94461E-04 3.23443E-05 1.65436E-24
 -1       807 1.95178E-04 3.00466E-05 1.65436E-24
 -1       808 1.95882E-04 2.77804E-05 0.00000E+00
 -1       809 1.96572E-04 2.55497E-05 0.00000E+00
 -1       810 1.97247E-04 2.33586E-05 0.00000E+00
 -1       811 1.97906E-04 2.12109E-05 1.65436E-24
 -1       812 1.98548E-04 1.91107E-05 0.00000E+00
 -1       813 1.99170E-04 1.70618E-05 1.65436E-24
 -1       814 1.99771E-04 1.50682E-05 0.00000E+00
 -1       815 2.00351E-04 1.31337E-05 0.00000E+00
 -1       816 2.00907E-04 1.12623E-05-3.30872E-24
 -1       817 2.01438E-04 9.45785E-06 0.00000E+00
 -1       818 2.01943E-04 7.72421E-06 0.00000E+00
 -1       819 2.02420E-04 6.06526E-06-8.27181E-25
 -1       820 2.02868E-04 4.48484E-06-1.65436E-24
 -1       821 1.94281E-04-1.27713E-07 0.00000E+00
 -1       822 1.94141E-04-3.63606E-06 0.00000E+00
 -1       823 1.93998E-04-7.86603E-06-3.30872E-24
 -1       824 1.93853E-04-1.23868E-05-1.65436E-24
 -1       825 1.93709E-04-1.66891E-05-3.30872E-24
 -1       826 1.93568E-04-2.02647E-05 0.00000E+00
 -1       827 1.93429E-04-2.28033E-05 0.00000E+00
 -1       828 1.93293E-04-2.40011E-05 0.00000E+00
 -1       829 1.93157E-04-2.39191E-05 3.30872E-24
 -1       830 1.93021E-04-2.26260E-05 1.65436E-24
 -1       831 1.92883E-04-2.05202E-05 3.30872E-24
 -1       832 1.92745E-04-1.80051E-05 0.00000E+00
 -1       833 1.92607E-04-1.55956E-05-3.30872E-24
 -1       834 1.92472E-04-1.38059E-05-1.65436E-24
 -1       835 1.92337E-04-1.29819E-05 0.00000E+00
 -1       836 1.96102E-04 2.35776E-06-3.30872E-24
 -1       837 1.97667E-04 2.48594E-06 0.00000E+00
 -1       838 1.99136E-04 2.61406E-06 3.30872E-24
 -1       839 2.00542E-04 2.74148E-06-8.27181E-25
 -1       840 2.01915E-04 2.86874E-06 0.00000E+00
 -1       856 1.92194E-04-1.45271E-05-8.27181E-25
 -1       857 1.92173E-04-1.54532E-05 0.00000E+00
 -1       858 1.92153E-04-1.62633E-05 0.00000E+00
 -1       859 1.92132E-04-1.69790E-05 2.06795E-25
 -1       860 1.92112E-04-1.76218E-05 0.00000E+00
 -1       861 1.92091E-04-1.82131E-05-2.06795E-25
 -1       862 1.92070E-04-1.87747E-05 8.27181E-25
 -1       863 1.92049E-04-1.93281E-05-4.13590E-25
 -1       864 1.92028E-04-1.98951E-05 0.00000E+00
 -1       865 1.92007E-04-2.04971E-05 0.00000E+00
 -1       866 1.91986E-04-2.11559E-05 0.00000E+00
 -1       867 1.91965E-04-2.18930E-05-4.13590E-25
 -1       868 1.91944E-04-2.27298E-05 8.27181E-25
 -1       869 1.91923E-04-2.36879E-05 0.00000E+00
 -1       870 1.91901E-04-2.47884E-05 0.00000E+00
 -1       871 1.93562E-04-1.34688E-05 8.27181E-25
 -1       872 1.95061E-04-1.34772E-05 0.00000E+00
 -1       873 1.96639E-04-1.34863E-05 0.00000E+00
 -1       874 1.98229E-04-1.34961E-05-3.10193E-25
 -1       875 1.99761E-04-1.35065E-05 1.65436E-24
 -1       876 1.92737E-04-1.45136E-05 0.00000E+00
 -1       877 1.93242E-04-1.54969E-05-1.65436E-24
 -1       878 1.93725E-04-1.64215E-05 0.00000E+00
 -1       879 1.94189E-04-1.72948E-05 0.00000E+00
 -1       880 1.94637E-04-1.81239E-05 3.30872E-24
 -1       881 1.95071E-04-1.89162E-05 0.00000E+00
 -1       882 1.95493E-04-1.96789E-05 0.00000E+00
 -1       883 1.95908E-04-2.04191E-05 1.65436E-24
 -1       884 1.96317E-04-2.11442E-05 0.00000E+00
 -1       885 1.96722E-04-2.18612E-05 0.00000E+00
 -1       886 1.97128E-04-2.25775E-05 0.00000E+00
 -1       887 1.97535E-04-2.33002E-05 0.00000E+00
 -1       888 1.97948E-04-2.40366E-05 0.00000E+00
 -1       889 1.98368E-04-2.47940E-05 1.65436E-24
 -1       890 1.98797E-04-2.55797E-05 1.65436E-24
 -1       891 1.93252E-04-2.61115E-05 1.65436E-24
 -1       892 1.94601E-04-2.61705E-05-8.27181E-25
 -1       893 1.95900E-04-2.62293E-05-8.27181E-25
 -1       894 1.97123E-04-2.62879E-05 4.13590E-25
 -1       895 1.98242E-04-2.63463E-05 4.13590E-25
 -1       956 2.03157E-04 1.66326E-06 0.00000E+00
 -1       957 2.03024E-04 4.31371E-07-8.27181E-25
 -1       958 2.02892E-04-7.19700E-07-3.30872E-24
 -1       959 2.02759E-04-1.80129E-06-1.65436E-24
 -1       960 2.02626E-04-2.82480E-06 0.00000E+00
 -1       961 2.02493E-04-3.80164E-06-1.65436E-24
 -1       962 2.02360E-04-4.74324E-06 0.00000E+00
 -1       963 2.02227E-04-5.66106E-06 0.00000E+00
 -1       964 2.02095E-04-6.56656E-06 3.30872E-24
 -1       965 2.01962E-04-7.47116E-06 0.00000E+00
 -1       966 2.01829E-04-8.38634E-06 3.30872E-24
 -1       967 2.01696E-04-9.32354E-06 0.00000E+00
 -1       968 2.01563E-04-1.02942E-05 6.61744E-24
 -1       969 2.01431E-04-1.13097E-05 0.00000E+00
 -1       970 2.01299E-04-1.23815E-05-3.30872E-24
 -1       971 2.01048E-04-1.46593E-05 3.30872E-24
 -1       972 2.00927E-04-1.57039E-05 0.00000E+00
 -1       973 2.00805E-04-1.66645E-05 0.00000E+00
 -1       974 2.00684E-04-1.75518E-05 1.65436E-24
 -1       975 2.00562E-04-1.83767E-05 3.30872E-24
 -1       976 2.00441E-04-1.91497E-05-1.65436E-24
 -1       977 2.00319E-04-1.98817E-05 0.00000E+00
 -1       978 2.00198E-04-2.05835E-05 0.00000E+00
 -1       979 2.00076E-04-2.12658E-05-3.30872E-24
 -1       980 1.99955E-04-2.19394E-05 0.00000E+00
 -1       981 1.99833E-04-2.26152E-05-3.30872E-24
 -1       982 1.99712E-04-2.33039E-05 0.00000E+00
 -1       983 1.99591E-04-2.40162E-05 0.00000E+00
 -1       984 1.99470E-04-2.47630E-05 1.65436E-24
 -1       985 1.99350E-04-2.55550E-05-3.30872E-24
 -3
    1PSTEP                        28          14           1          
  100CL  114 6.62933E-01         409                     0   14           1
 -4  STRESS      6    1
 -5  SXX         1    4    1    1
 -5  SYY         1    4    2    2
 -5  SZZ         1    4    3    3
 -5  SXY         1    4    1    2
 -5  SYZ         1    4    2    3
 -5  SZX         1    4    3    1
 -1         1-5.34727E+06-1.57241E+06-1.13263E+06-1.32650E+06-2.91038E-10 3.25381E-08
 -1         2 1.53065E+06 2.24151E+07 5.20741E+06 6.78769E+06 2.64554E-08-1.20723E-07
 -1         3-1.48818E+03-1.55612E+06 4.05389E+02-2.20875E+03-3.98323E-10 1.65310E-08
 -1         5-7.54519E+01 3.86497E+05 9.98304E+00-1.34473E+00-6.25746E-10 7.79801E-09
 -1         8-5.52750E+05-2.00320E+05-6.26751E+04-2.42539E+05 3.91992E-10-1.36282E-07
 -1         9 1.18121E+07 3.93525E+06 2.81727E+06-3.03346E+05-4.90108E-09-1.66474E-08
 -1        10-2.30400E+03-1.62159E+06-3.94122E+03-1.49461E+04-1.39789E-08-1.98514E-08
 -1        12-7.15336E+01 3.86519E+05 3.28181E+02-9.16525E+00-6.35634E-10-5.78129E-08
 -1        15 9.23070E+02 5.07272E+02 2.98380E+03 8.12009E-01-4.60531E-10 6.15522E-07
 -1        16 2.29277E+07-3.35566E+05 3.11953E+06-2.29818E+06 1.19908E-08 1.76563E-07
 -1        17 8.39605E+06 6.29111E+06 2.26786E+06 6.01776E+06 2.51923E-08 1.71480E-08
 -1        18 1.42433E+05 3.35443E+04 4.17077E+03-1.19581E+05 1.38548E-08-1.68529E-09
 -1        19 1.22453E+05 1.41703E+05-9.45097E+02 2.19690E+04 1.70476E-09 2.17780E-08
 -1        20-8.21835E+04-5.73796E+05-1.28773E+05 2.50675E+04-2.82019E-09-2.23129E-09
 -1        21-4.49354E+01-2.95998E+05-9.11675E+02 2.77225E+02 1.78220E-08-2.63798E-08
 -1        24 1.40821E+07 1.21239E+07 3.89744E+06 1.12249E+07-1.71325E-07-5.46570E-08
 -1        25 1.25186E+05 2.68371E+05 1.00255E+05-6.46413E+05-1.55551E-09-1.18413E-08
 -1        26-5.54559E+04 9.23047E+04-2.46450E+04 1.33146E+03-1.01500E-10 9.49567E-09
 -1        27-7.58824E+04-3.10113E+05-1.13429E+05 6.89761E+04 4.34299E-09 6.95582E-09
 -1        28 2.13901E+04-8.62457E+04 1.69403E+04 2.06182E+04-4.19129E-09 5.42519E-09
 -1        32-1.68039E+06-3.18160E+06-1.97601E+05 4.59010E+05-4.27317E-08-8.58722E-09
 -1        33-1.78530E+05 9.30283E+04 3.23969E+04-3.84711E+04-3.26554E-09 2.34901E-08
 -1        34-2.23739E+05-2.50945E+04 6.85982E+02 7.55253E+04-5.09088E-09 1.39880E-08
 -1        35-2.29769E+04-3.50671E+04-1.62018E+03 5.15187E+04-9.06140E-09 2.13307E-09
 -1        51 6.08742E+04-1.70590E+05 1.28685E+05-4.34146E+05 2.03727E-10-1.87472E-07
 -1        52 2.05789E+04-1.48070E+05 6.74589E+04-5.06349E+05 4.37467E-10 5.59085E-08
 -1        53 4.15704E+03-1.63423E+05 3.50230E+04-4.32658E+05 5.09317E-10-1.02227E-08
 -1        54 7.26454E+03-1.59206E+05 2.85659E+04-5.07803E+05 1.74623E-10-1.98130E-07
 -1        55 1.58422E+04-1.66140E+05 3.44969E+04-4.32572E+05 3.49246E-10 9.18499E-08
 -1        56-9.81075E+06-1.39629E+06-9.25598E+05-4.10896E+06 1.03319E-08-6.43195E-09
 -1        57-1.11263E+07-7.66572E+05-5.44942E+05-2.66788E+06-1.55778E-08 1.54396E-08
 -1        58-9.58799E+06-1.87127E+06-2.01916E+05-4.31276E+06 1.68220E-08-9.40490E-08
 -1        59-1.13406E+07-2.15538E+05-1.07078E+05-2.59205E+06 4.35011E-09 1.56528E-07
 -1        60-9.68629E+06-1.87468E+06-5.88055E+04-4.26380E+06-9.18226E-09-6.12927E-08
 -1        61-1.06334E+07-5.76684E+05 2.10899E+04-2.84625E+06-7.07223E-09 1.03653E-07
 -1        62-1.01429E+07-1.61308E+06-8.46694E+04-3.93709E+06-1.18598E-08-1.79425E-07
 -1        63-9.65842E+06-1.33954E+06 6.27041E+04-3.58800E+06-2.62298E-08-6.68879E-08
 -1        64-1.05379E+07-1.19988E+06-7.79520E+04-3.44445E+06 2.20753E-08 1.15524E-07
 -1        65-9.27327E+06-1.98247E+06 1.75623E+04-4.56610E+06-4.38013E-08 2.76805E-08
 -1        66-1.06700E+07-8.71594E+05-4.78100E+04-3.06642E+06 4.09636E-09-2.17606E-08
 -1        67-9.30294E+06-2.25027E+06-9.62937E+04-5.03270E+06-3.26327E-08-3.04652E-07
 -1        68-1.06503E+07-8.32094E+05-1.87905E+05-3.06566E+06-7.07805E-08-1.56651E-07
 -1        69-9.46652E+06-2.32158E+06-4.83745E+05-4.53378E+06-1.81617E-08-4.94801E-07
 -1        70-1.03742E+07-9.05195E+05-8.51203E+05-3.47934E+06 3.36513E-09-4.81377E-08
 -1        86-1.56184E+06-1.58788E+07-2.85111E+06-3.18646E+06-2.66664E-07-2.34257E-07
 -1        87 2.46167E+06 6.48338E+06 2.37111E+06 5.86331E+06-4.50389E-07 3.10865E-09
 -1        88-4.66697E+05-1.92103E+06 2.24986E+05-2.59906E+06-4.55057E-07 6.14009E-08
 -1        89 3.29564E+06 6.17563E+06 2.43060E+06 6.06247E+06-6.04086E-07-1.15006E-07
 -1        90-2.29810E+06-1.56497E+07-3.07706E+06-3.41627E+06-1.59525E-07 1.42463E-07
 -1       121-2.03853E+03-1.56102E+06-5.47921E+02 1.09474E+03 1.39974E-09-8.56380E-09
 -1       122-1.30266E+03-1.55618E+06 7.68431E+02-4.42165E+03-5.40533E-09-1.13723E-08
 -1       123-2.05827E+03-1.56115E+06 2.58739E+02 3.26954E+03 4.31953E-09 5.36238E-09
 -1       124 3.31165E+02-1.55573E+06 2.94436E+03-9.25329E+03-1.00622E-08-1.21327E-08
 -1       125-2.86592E+03-1.56205E+06 3.45235E+03 5.88041E+03 6.56291E-09 3.19778E-09
 -1       191-7.95115E+01 3.86515E+05 8.47933E+00 7.01218E-01-5.93868E-10-5.70981E-09
 -1       192-7.64159E+01 3.86498E+05 2.13040E+01-4.31119E+00-7.56846E-10-8.16362E-09
 -1       193-8.20488E+01 3.86515E+05 3.62608E+01 3.78664E+00-1.13554E-09 2.96495E-10
 -1       194-7.95064E+01 3.86501E+05 8.09894E+01-9.78277E+00-4.56154E-10 1.57170E-08
 -1       195-8.69190E+01 3.86513E+05 1.55047E+02 6.36681E+00-1.39596E-09-3.03589E-08
 -1       251-8.61233E+05 1.61530E+04-3.77084E+04-1.44353E+04 3.66551E-09 7.55626E-08
 -1       252-8.75453E+05-1.86959E+04-2.62248E+04 5.10525E+04-7.51203E-09 1.69704E-07
 -1       253-8.69677E+05 2.47784E+03-1.01673E+04-1.01497E+04 2.89060E-09 1.10596E-07
 -1       254-8.61944E+05-3.00950E+03-4.50943E+03 3.63027E+04-9.04231E-09 2.19690E-08
 -1       255-8.74116E+05 4.94857E+01-3.54883E+03 3.10626E+02 7.89441E-09 3.83778E-07
 -1       256-8.56490E+05-2.72237E+02 1.22692E+03 1.25880E+04-9.02276E-09 1.22511E-07
 -1       257-8.74683E+05-5.90681E+02-1.41255E+03 1.35533E+04 1.30035E-09 1.20617E-07
 -1       258-8.59384E+05 9.27522E+02 2.74594E+03-1.23173E+04-8.33165E-09-1.29790E-07
 -1       259-8.71475E+05-9.54060E+02 1.36510E+03 2.52136E+04 3.74257E-10-1.18224E-07
 -1       260-8.65911E+05 2.97680E+03 5.60240E+03-3.02736E+04 6.03211E-09-6.58679E-08
 -1       261-8.68804E+05-2.14065E+03 8.68492E+03 3.15263E+04 1.31352E-08 6.62030E-08
 -1       262-8.64630E+05 1.18592E+04 2.15757E+04-3.55246E+04-9.22775E-09 1.28776E-07
 -1       263-8.73014E+05-9.60430E+03 3.41799E+04 3.04743E+04 1.30489E-08 3.19196E-08
 -1       264-8.33940E+05 6.72876E+04 9.46509E+04-2.62503E+04 1.77358E-08-1.43466E-07
 -1       265-8.98989E+05-5.77068E+04 1.31766E+05 2.22394E+04 2.69307E-08 6.69679E-08
 -1       266-1.67109E+04-7.81485E+03 3.92046E+04-1.73730E+01-6.36646E-11-7.68109E-08
 -1       267 1.93722E+04 9.10708E+03 2.77112E+04 2.00468E+01 4.18368E-11 2.28673E-08
 -1       268-2.59780E+03-1.28989E+03 1.03000E+04-2.55422E+00-1.59162E-10-1.16511E-07
 -1       269 3.06721E+03 1.54364E+03 6.69495E+03 2.97539E+00 1.64846E-11-4.18371E-08
 -1       270-4.60393E+02-2.53636E+02 3.23175E+03-4.03776E-01 9.23137E-11 4.28130E-07
 -1       271-1.46810E+06-1.87198E+05-1.10640E+05-5.71504E+05-3.35567E-08 4.70318E-08
 -1       272-1.46173E+06-3.01319E+05-6.94110E+04-6.11524E+05 9.94623E-09 9.82172E-08
 -1       273-1.49152E+06-2.10563E+05-2.68604E+04-5.63476E+05 2.48110E-08-1.58308E-07
 -1       274-1.43518E+06-2.73152E+05-1.39286E+04-6.26784E+05-4.16749E-08-1.82154E-07
 -1       275-1.49712E+06-2.10057E+05-6.70945E+03-5.59695E+05 4.38558E-08-2.16300E-07
 -1       276-1.42965E+06-2.74121E+05-2.80623E+03-6.35497E+05-9.39326E-09 9.34979E-08
 -1       277-1.49995E+06-2.07395E+05-1.86245E+03-5.56959E+05-2.12822E-10-5.58048E-08
 -1       278-1.42754E+06-2.77318E+05-6.95218E+02-6.41892E+05 7.45313E-08-1.93365E-07
 -1       279-1.50176E+06-2.05233E+05-8.51331E+02-5.55047E+05-2.99478E-08-3.29615E-07
 -1       280-1.42658E+06-2.79701E+05-9.56761E+02-6.46076E+05 7.98536E-10-3.86743E-08
 -1       281-1.50271E+06-2.03885E+05-1.76957E+03-5.53980E+05 2.62125E-08 1.64588E-07
 -1       282-1.42696E+06-2.81819E+05-4.11229E+03-6.47766E+05-3.14139E-08 1.92355E-07
 -1       283-1.50222E+06-2.02701E+05-7.32118E+03-5.53868E+05-1.01441E-08 1.88916E-08
 -1       284-1.43353E+06-2.91356E+05-1.99388E+04-6.45569E+05-1.43590E-08-1.69866E-07
 -1       285-1.49601E+06-1.95514E+05-3.11553E+04-5.55648E+05-9.42146E-09 3.08357E-07
 -1       301-8.22649E+03-6.49692E+05 1.66746E+05-1.14297E+06 2.69210E-09-4.64061E-08
 -1       302-1.02689E+04-6.02639E+05 1.00350E+05-1.66813E+06-2.53058E-08 1.77897E-07
 -1       303-2.26530E+04-6.42472E+05 5.66260E+04-1.13981E+06-1.28057E-08 9.18280E-08
 -1       304-2.60699E+04-6.09938E+05 5.68583E+04-1.66757E+06-1.93249E-08 9.82109E-08
 -1       305-2.70614E+04-6.31156E+05 6.97384E+04-1.14290E+06-3.85990E-09 1.42463E-07
 -1       306-3.01349E+07-6.21745E+06-8.61086E+06-4.86881E+05-1.07568E-07 9.27248E-08
 -1       307 2.52825E+07 3.29152E+06 5.50767E+06-1.52842E+07-8.85106E-07-8.82428E-08
 -1       308-6.91312E+06-1.01274E+06-4.35159E+05 5.21176E+06-8.37317E-08 1.33194E-07
 -1       309-3.18644E+06 8.74542E+06 2.29608E+06-2.07118E+07 3.05929E-07 3.60538E-07
 -1       310-1.26607E+07-1.95747E+06-2.06537E+06 5.22038E+06-1.30385E-08 6.85104E-08
 -1       311 3.87017E+07-3.07777E+03 7.31872E+06-8.71664E+06 4.49974E-07 2.95695E-08
 -1       312-3.19970E+07-6.82218E+06-8.57058E+06-5.11352E+06 2.87080E-07 1.62865E-07
 -1       313 4.54214E+07 1.51965E+07 1.06953E+07 2.39545E+07 2.40689E-08 5.23636E-07
 -1       314-1.71587E+07-1.78767E+07-7.53210E+06-1.25436E+07 3.58617E-07 6.17583E-08
 -1       315-1.94085E+06 2.98331E+07 5.66789E+06 1.04514E+07-1.58470E-08-2.20025E-07
 -1       316 1.43924E+06-9.82873E+06-4.27030E+05-2.48833E+06-1.25263E-06-3.04339E-07
 -1       317-1.70936E+07 2.24517E+07 2.24933E+06-8.89799E+06 8.54008E-07-8.58585E-07
 -1       318-1.08774E+06-1.28576E+07-2.06677E+06-4.24294E+06-9.14966E-07 1.77301E-07
 -1       319 7.30625E+06 3.21101E+07 7.07554E+06 1.67030E+07-2.80197E-08 2.13855E-07
 -1       320-2.26551E+07-1.76979E+07-9.88854E+06-1.28479E+07 1.74972E-07-7.13626E-08
 -1       336-7.49605E+02-1.68986E+06-1.38285E+04 8.89589E+03-2.61753E-08 4.51837E-09
 -1       337-5.40443E+03-1.68939E+06-1.80419E+04-2.16124E+04-4.85757E-08-2.50693E-08
 -1       338 2.70049E+02-1.68935E+06-2.84240E+04 1.24653E+04-3.46372E-08-2.28829E-09
 -1       339-3.01638E+04-1.70660E+06-6.42362E+04-2.86053E+04-6.32863E-08 2.31848E-08
 -1       340 1.98618E+04-1.67482E+06-1.01193E+05 1.57579E+04-4.18404E-08 2.93949E-08
 -1       406-4.98336E+01 3.86498E+05 6.44371E+02 3.35330E+00-1.89659E-09-2.75595E-08
 -1       407 1.54765E+02 3.86632E+05 1.37708E+03 2.34315E+01-5.09694E-10-5.00222E-09
 -1       408 6.34979E+02 3.86398E+05 2.74577E+03-2.71043E+01-2.48770E-09-2.13422E-08
 -1       409 2.90779E+03 3.87509E+05 6.18875E+03 2.89380E+02-4.00064E-10-3.03990E-08
 -1       410 8.48253E+03 3.85607E+05 1.26310E+04-2.79058E+02-2.98314E-09-1.19690E-09
 -1       521-3.17254E+07-7.69152E+06-1.00814E+07-8.99843E+04-8.26549E-08-1.31491E-07
 -1       522 2.61968E+07 4.34724E+06 5.62822E+06-1.88295E+07-5.91419E-07-1.66561E-07
 -1       523-7.48413E+06-1.32984E+06-4.26541E+05 5.66831E+06 1.50758E-07-4.67655E-07
 -1       524-6.69383E+06 1.18506E+07 2.48968E+06-2.38085E+07 8.24242E-07-5.44012E-07
 -1       525-1.34619E+07-2.60649E+06-2.27541E+06 5.68350E+06 1.04419E-06-4.12751E-07
 -1       526 4.23507E+07-1.02960E+05 7.69396E+06-1.13756E+07 2.30270E-07-3.87226E-07
 -1       527-3.38961E+07-8.54028E+06-9.89875E+06-4.98077E+06 7.93952E-08-4.31464E-08
 -1       528 4.96802E+07 1.69905E+07 1.11760E+07 2.73011E+07-1.01048E-07-3.69968E-07
 -1       529-1.81108E+07-2.01314E+07-8.65276E+06-1.25830E+07 9.49367E-08-4.99422E-07
 -1       530-4.43144E+06 3.47101E+07 6.01071E+06 9.88414E+06 1.44166E-07 4.46395E-07
 -1       531 1.44917E+06-1.09089E+07-3.98619E+05-2.42112E+06-7.75326E-07 3.84054E-07
 -1       532-1.95906E+07 2.44777E+07 2.46415E+06-1.32563E+07 3.85262E-07-7.02654E-07
 -1       533-1.12733E+06-1.40311E+07-2.20700E+06-4.03589E+06-2.36440E-07-9.70671E-07
 -1       534 5.31618E+06 3.73490E+07 7.37845E+06 1.73130E+07-1.03697E-07 7.51577E-07
 -1       535-2.38662E+07-2.01393E+07-1.13604E+07-1.29323E+07 9.93023E-08 4.57920E-07
 -1       536-7.06264E+05-4.67179E+04-4.83329E+04-5.47122E+04-2.74622E-09 6.90243E-08
 -1       537-5.47665E+04 4.46483E+04 8.38747E+04 1.23905E+05-1.18112E-07 1.05363E-07
 -1       538-3.94415E+05 3.35584E+03 3.52109E+03-7.22310E+04 3.92763E-08 1.17482E-07
 -1       539-2.68987E+05 2.84629E+03 2.49134E+04 1.38798E+05 1.45132E-07 1.19095E-07
 -1       540-4.97424E+05-4.27700E+02-2.13472E+04-7.01403E+04-2.99569E-08 1.08480E-07
 -1       541 1.47008E+05 1.69817E+04 1.06452E+05 9.79771E+04-4.66134E-08 9.28808E-08
 -1       542-7.99200E+05-2.01481E+04-8.42946E+04-3.05346E+04 2.43317E-08 4.94491E-08
 -1       543 4.05860E+05 2.73432E+04 1.58074E+05-1.33676E+04-2.86364E-08-1.51826E-08
 -1       544-7.49335E+05-1.65481E+04-7.48860E+04 4.05342E+04-2.45695E-08-2.66938E-08
 -1       545 2.92360E+04 9.49061E+03 7.98640E+04-1.13676E+05-4.68435E-09-8.47922E-08
 -1       546-4.32691E+05 6.09920E+03-1.22366E+04 6.94270E+04 4.08465E-08-7.73277E-08
 -1       547-2.87072E+05-4.65631E+03 1.05985E+04-1.41644E+05-1.18107E-07-1.04715E-07
 -1       548-4.41531E+05 4.72062E+03-2.38901E+04 6.91942E+04-1.18655E-07-1.12173E-07
 -1       549 4.84298E+04 1.60993E+04 6.05772E+04-1.11537E+05-5.17289E-08-6.70534E-08
 -1       550-7.59215E+05-2.21692E+04-1.29023E+05 3.86036E+04 5.18412E-10-4.27135E-08
 -1       551 4.07828E+04-7.49845E+05-1.59179E+04-1.24701E+06-1.01907E-07-7.62520E-09
 -1       552 9.32568E+04-7.94832E+05 9.90045E+03-1.77806E+06-7.14499E-08 2.81652E-08
 -1       553 7.17621E+04-7.91239E+05 3.20198E+04-1.24036E+06-1.19049E-07 3.01952E-08
 -1       554 1.32054E+05-8.10741E+05 8.10254E+04-1.78001E+06-7.40984E-08 1.15742E-08
 -1       555 1.01504E+05-8.14895E+05 1.47981E+05-1.24019E+06-1.22061E-07-1.63091E-08
 -1       556 2.23804E+05-3.83825E+05 2.56098E+04-4.07328E+05-2.75322E-08-2.65427E-08
 -1       557 3.54386E+05-4.88199E+05 1.60768E+04-5.27810E+05-7.15954E-09-1.08848E-08
 -1       558 2.05555E+05-3.76588E+05 2.29020E+03-4.11792E+05-1.85973E-08-1.25583E-08
 -1       559 3.29371E+05-4.88247E+05 2.42464E+03-5.48275E+05 2.88564E-08 2.00816E-08
 -1       560 1.90238E+05-3.66983E+05-1.51431E+03-4.22830E+05 1.30094E-08 2.36469E-08
 -1       561 3.10127E+05-4.80544E+05 1.25990E+02-5.61397E+05 6.28643E-09 1.53850E-08
 -1       562 1.78127E+05-3.59459E+05-1.32975E+03-4.31600E+05 5.89353E-09 5.82077E-11
 -1       563 2.95742E+05-4.74272E+05-3.79790E+01-5.70792E+05 4.88944E-09 2.38751E-08
 -1       564 1.69484E+05-3.54074E+05-6.01898E+02-4.37725E+05 2.28465E-09 6.05951E-09
 -1       565 2.86201E+05-4.70116E+05 2.35504E+01-5.76889E+05 1.45228E-08-1.72358E-08
 -1       566 1.64431E+05-3.50877E+05-2.60723E+02-4.41259E+05-6.08998E-09-1.00590E-08
 -1       567 2.81563E+05-4.68099E+05-3.63433E+02-5.79706E+05 1.23964E-08 1.17689E-08
 -1       568 1.63059E+05-3.50037E+05-1.12778E+03-4.42315E+05-3.16504E-09 1.12814E-08
 -1       569 2.80439E+05-4.68026E+05-2.84821E+03-5.78276E+05-9.59153E-09 3.20942E-08
 -1       570 1.66462E+05-3.53275E+05-6.22607E+03-4.41293E+05 1.10012E-08-1.37243E-08
 -1       571 2.90641E+05 1.05125E+04 1.49952E+04-9.53097E+04 4.25825E-09-1.15920E-08
 -1       572 2.92814E+05 3.96349E+03 7.34884E+03-1.04565E+05 4.07817E-09-1.46356E-08
 -1       573 2.91504E+05 1.24785E+03 3.26533E+03-9.51331E+04 2.21280E-09 5.93718E-09
 -1       574 2.91718E+05 7.29321E+02 1.63754E+03-1.04789E+05 4.15776E-09-1.03300E-08
 -1       575 2.91598E+05 4.49844E+02 7.72880E+02-9.51090E+04-4.67018E-09-1.16997E-08
 -1       576 2.91582E+05 4.61332E+02 3.95721E+02-1.04819E+05-1.30085E-08 4.73756E-09
 -1       577 2.91638E+05 3.91648E+02 1.97559E+02-9.51057E+04-5.87261E-09 6.55018E-09
 -1       578 2.91613E+05 4.23147E+02 1.14157E+02-1.04823E+05-2.74167E-09 1.29494E-08
 -1       579 2.91711E+05 3.54804E+02 7.84516E+01-9.51053E+04 8.18181E-09 6.50380E-09
 -1       580 2.91715E+05 3.71926E+02 9.11323E+01-1.04818E+05-1.13096E-08-2.68301E-09
 -1       581 2.91825E+05 2.96014E+02 1.37715E+02-9.51112E+04 4.79849E-09 3.36695E-09
 -1       582 2.91891E+05 3.34401E+02 2.80053E+02-1.04757E+05 6.83031E-10 1.17707E-08
 -1       583 2.91966E+05 3.38519E+02 5.37543E+02-9.51679E+04 3.29601E-09 9.15634E-09
 -1       584 2.92267E+05 7.77605E+02 1.21643E+03-1.04280E+05 7.37782E-09 1.06540E-08
 -1       585 2.91992E+05 1.80132E+03 2.46322E+03-9.55877E+04-3.75803E-09 1.30276E-08
 -1       586-3.42450E+03 1.17026E+05-2.91176E+03-2.50783E+05-3.11275E-09-3.07161E-08
 -1       587-1.34065E+03 1.16778E+05 7.76043E+02-2.76006E+05-5.94991E-09-2.35832E-08
 -1       588 3.97395E+02 1.16584E+05 4.76596E+03-2.50645E+05-1.90994E-09-9.25775E-09
 -1       589 5.08819E+03 1.19060E+05 1.23575E+04-2.75772E+05-8.84393E-09-2.18315E-08
 -1       590 1.66241E+04 1.15249E+05 2.59209E+04-2.51077E+05-4.85761E-09 3.32875E-10
 -1       591-7.50947E+04-1.59814E+04-2.25498E+04-3.19876E+04-5.41945E-09-7.98900E-09
 -1       592-7.91927E+04-1.95374E+04-1.22148E+04-3.56104E+04 4.02338E-09 1.45632E-08
 -1       593-7.73499E+04-1.43453E+04-5.08439E+03-3.36411E+04 4.02614E-09-3.25963E-09
 -1       594-7.60793E+04-1.62284E+04-2.53571E+03-3.57282E+04 1.57847E-08 1.19765E-08
 -1       595-7.75218E+04-1.43399E+04-1.16415E+03-3.37162E+04 2.17896E-09 2.86271E-08
 -1       596-7.58661E+04-1.60771E+04-5.91576E+02-3.57029E+04 4.62796E-09-1.91838E-09
 -1       597-7.75434E+04-1.43553E+04-3.21666E+02-3.37190E+04 2.84871E-09 1.56120E-09
 -1       598-7.58451E+04-1.60711E+04-2.57729E+02-3.56958E+04-5.55951E-09-1.17541E-08
 -1       599-7.75421E+04-1.43558E+04-3.28155E+02-3.37187E+04 2.47837E-10-1.82526E-08
 -1       600-7.58661E+04-1.60776E+04-6.08756E+02-3.57007E+04 8.46609E-09-5.47357E-09
 -1       601-7.75175E+04-1.43413E+04-1.20050E+03-3.37152E+04 2.55750E-09 2.96063E-09
 -1       602-7.60859E+04-1.62325E+04-2.61614E+03-3.57230E+04-5.49153E-09-2.00421E-08
 -1       603-7.73373E+04-1.43497E+04-5.24631E+03-3.36385E+04-1.92517E-09-1.04533E-08
 -1       604-7.93161E+04-1.96272E+04-1.26029E+04-3.55766E+04 3.96642E-09-3.92947E-09
 -1       605-7.49904E+04-1.60558E+04-2.32664E+04-3.19519E+04 7.28903E-09 1.23855E-08
 -1       606 2.66088E+04-1.43403E+04-2.57074E+04 2.39396E+04 6.34554E-09 4.30987E-09
 -1       607 2.22163E+04-4.68352E+03-1.28022E+04 2.69032E+04-5.77529E-10-1.38668E-08
 -1       608 2.47198E+04-8.44884E+02-5.73110E+03 2.37713E+04-4.11819E-09-7.02266E-09
 -1       609 2.42399E+04-2.89493E+02-2.89520E+03 2.71168E+04 1.32331E-09-1.35606E-08
 -1       610 2.45061E+04-4.10580E+01-1.38132E+03 2.37513E+04-2.83853E-09 1.10374E-08
 -1       611 2.44308E+04-4.13858E+01-6.96450E+02 2.71399E+04-1.11954E-08 9.94169E-09
 -1       612 2.44591E+04-2.74020E+01-3.31061E+02 2.37493E+04-6.16456E-09 4.92105E-09
 -1       613 2.44425E+04-3.73508E+01-1.48307E+02 2.71426E+04 3.38696E-09-1.28259E-08
 -1       614 2.44370E+04-3.38790E+01-3.46546E+01 2.37486E+04 9.15225E-09-1.62390E-08
 -1       615 2.44374E+04-3.59064E+01 6.24563E+01 2.71430E+04 1.29876E-08-3.81806E-09
 -1       616 2.44196E+04-3.07900E+01 1.87012E+02 2.37489E+04 6.74072E-09-1.41915E-08
 -1       617 2.44599E+04 3.90223E+00 4.26569E+02 2.71425E+04 9.45874E-10-9.46329E-09
 -1       618 2.43826E+04 9.21482E+01 8.59780E+02 2.37492E+04 1.19098E-09-1.00699E-08
 -1       619 2.47635E+04 6.68657E+02 1.93068E+03 2.71420E+04-2.81932E-09-7.07746E-09
 -1       620 2.40971E+04 2.13088E+03 3.88060E+03 2.37507E+04 2.10900E-09 2.17733E-09
 -1       621 5.11467E+02 3.01558E+05 3.88579E+03 4.11344E+04 9.87256E-10 8.24275E-09
 -1       622 6.78135E+02 3.02455E+05 3.44886E+03 5.97176E+04 9.76797E-10 1.93540E-08
 -1       623 1.43503E+02 3.01752E+05 4.14460E+03 4.09483E+04 1.29194E-09 3.47591E-08
 -1       624 2.12882E+03 3.03673E+05 8.03501E+03 5.99008E+04 1.37368E-09 9.17794E-09
 -1       625 2.07963E+03 3.00158E+05 1.40409E+04 4.09451E+04 1.58116E-09 4.74142E-09
 -1       626 2.61068E+05 6.14100E+04 5.12851E+03 1.26767E+05 5.40558E-09-6.70843E-09
 -1       627 2.58755E+05 6.28010E+04 2.47139E+03 1.31037E+05 1.93268E-10-3.09888E-09
 -1       628 2.61196E+05 5.90639E+04 1.04522E+03 1.27639E+05-8.63565E-09 1.17609E-08
 -1       629 2.58119E+05 6.21194E+04 5.11575E+02 1.31277E+05-9.34278E-09 6.09886E-09
 -1       630 2.61210E+05 5.89505E+04 2.37405E+02 1.27676E+05-2.25918E-09 3.57170E-09
 -1       631 2.58052E+05 6.20933E+04 1.27872E+02 1.31279E+05 1.92222E-09 1.02695E-08
 -1       632 2.61207E+05 5.89544E+04 8.43473E+01 1.27672E+05 8.66658E-09 1.95314E-10
 -1       633 2.58044E+05 6.20951E+04 9.42777E+01 1.31276E+05 1.30376E-09-1.37236E-08
 -1       634 2.61202E+05 5.89516E+04 1.52634E+02 1.27671E+05-3.26679E-09-3.70278E-09
 -1       635 2.58058E+05 6.20934E+04 3.09024E+02 1.31281E+05-4.66883E-09-1.77818E-08
 -1       636 2.61193E+05 5.89457E+04 6.24163E+02 1.27671E+05 2.78101E-09-2.85991E-09
 -1       637 2.58194E+05 6.21904E+04 1.37244E+03 1.31280E+05-4.84260E-09 6.47560E-09
 -1       638 2.61145E+05 5.92489E+04 2.81986E+03 1.27534E+05-3.43334E-09-1.57920E-08
 -1       639 2.59675E+05 6.42506E+04 6.67194E+03 1.30844E+05 2.75304E-09-1.09083E-08
 -1       640 2.60940E+05 6.54008E+04 1.38454E+04 1.24942E+05 1.18143E-09-1.68257E-11
 -1       656 6.65916E+04-1.70438E+06-1.60748E+05-2.56542E+03-5.52973E-10-1.05605E-08
 -1       657-8.80965E+04-1.77702E+06-1.33174E+05 5.15224E+03-7.73980E-10-1.11062E-08
 -1       658 2.12287E+04-1.72501E+06-8.20226E+04-4.64978E+03-3.54476E-10-9.68470E-10
 -1       659-9.52742E+04-1.78043E+06-1.42607E+05 6.88480E+03-1.80444E-09-9.14085E-10
 -1       660 7.37533E+04-1.70098E+06-1.76966E+05-4.29796E+03-1.92813E-09 5.56659E-09
 -1       661 1.58033E+05 1.65267E+04 1.66762E+04 6.17748E+04-1.27056E-09 2.15050E-08
 -1       662 1.67409E+05 2.89287E+04 1.12386E+04 5.80935E+04 7.52664E-10 6.11135E-09
 -1       663 1.61309E+05 2.18770E+04 3.93059E+03 6.08246E+04 1.46997E-10 5.71163E-10
 -1       664 1.63612E+05 2.26717E+04 2.35133E+03 5.92541E+04 1.77437E-10-6.71457E-09
 -1       665 1.61805E+05 2.26079E+04 9.27690E+02 6.06798E+04 2.92152E-09 9.00346E-09
 -1       666 1.63024E+05 2.18360E+04 5.43222E+02 5.94431E+04 7.64581E-09 1.73640E-08
 -1       667 1.61892E+05 2.26910E+04 2.89103E+02 6.06435E+04 2.68824E-09 8.39293E-11
 -1       668 1.62928E+05 2.17766E+04 2.95707E+02 5.94961E+04-1.68068E-09 1.50233E-08
 -1       669 1.61900E+05 2.26656E+04 4.01348E+02 6.06271E+04-7.32797E-10 7.77916E-09
 -1       670 1.63026E+05 2.19951E+04 8.74840E+02 5.94993E+04-1.26589E-08-1.74937E-08
 -1       671 1.61795E+05 2.24770E+04 1.55363E+03 6.06382E+04 1.91747E-10-1.53060E-08
 -1       672 1.63931E+05 2.35073E+04 3.97522E+03 5.92806E+04 6.10170E-09-1.25629E-08
 -1       673 1.61000E+05 2.11917E+04 6.66186E+03 6.08311E+04-6.37442E-10 2.06237E-08
 -1       674 1.70270E+05 3.42114E+04 1.90516E+04 5.74190E+04-3.84489E-09 1.29187E-08
 -1       675 1.55496E+05 1.20727E+04 2.82793E+04 6.23874E+04-1.27784E-09-3.58887E-09
 -1       676 2.37987E+01-2.95922E+05-1.09881E+03-1.38617E+02 3.33065E-09-2.04585E-08
 -1       677-2.90624E+02-2.96187E+05-2.01101E+03 2.77009E+02 9.79728E-09-2.70148E-08
 -1       678 1.94955E+02-2.95732E+05-3.55497E+03-1.38303E+02 7.56245E-10-5.84837E-09
 -1       679-3.55499E+03-2.98333E+05-8.44513E+03 2.75793E+02 7.13635E-09 3.07415E-09
 -1       680 2.12256E+03-2.93777E+05-1.36107E+04-1.35893E+02 1.81899E-12-8.02629E-10
 -1       771-3.06241E+06-7.47512E+05-1.66111E+05-1.46615E+06-3.55067E-08-3.38187E-08
 -1       772-2.98525E+06-8.36422E+05-8.56428E+04-1.56894E+06-3.00788E-08 9.57152E-09
 -1       773-3.09394E+06-7.22930E+05-4.36572E+04-1.48071E+06-1.61817E-08 1.31113E-08
 -1       774-2.97572E+06-8.17867E+05-1.94780E+04-1.59474E+06 2.06055E-08 9.02219E-10
 -1       775-3.11040E+06-7.11377E+05-1.45692E+04-1.48778E+06-1.34460E-08 9.45874E-11
 -1       776-2.98809E+06-8.14824E+05-5.44842E+03-1.61426E+06-1.72877E-08 2.79397E-09
 -1       777-3.12470E+06-7.01064E+05-6.43707E+03-1.49401E+06-1.25146E-09 4.46744E-09
 -1       778-3.00100E+06-8.11994E+05-1.82004E+03-1.63103E+06-6.62112E-09 5.55519E-09
 -1       779-3.13698E+06-6.92053E+05-3.21679E+03-1.49933E+06-1.86265E-08-1.37661E-08
 -1       780-3.01237E+06-8.09295E+05-5.33526E+02-1.64469E+06-3.94357E-09-1.56979E-09
 -1       781-3.14675E+06-6.84788E+05-1.24979E+03-1.50350E+06-2.99333E-08 7.34872E-10
 -1       782-3.02114E+06-8.07003E+05 4.50292E+02-1.65477E+06-4.20332E-08-4.99222E-09
 -1       783-3.15363E+06-6.79739E+05 7.00887E+02-1.50642E+06-1.11322E-08-1.64800E-08
 -1       784-3.02599E+06-8.04714E+05 2.90589E+03-1.66100E+06-1.56542E-08 1.60217E-08
 -1       785-3.15770E+06-6.76728E+05 5.12982E+03-1.50827E+06-4.15821E-08 9.30049E-09
 -1       786 1.23533E+05-9.76487E+03 2.25920E+04-3.22499E+02 1.21303E-09-1.21963E-08
 -1       787 1.33332E+05 1.13055E+04 1.59829E+04-1.35728E+02 4.12510E-09 8.59563E-09
 -1       788 1.27311E+05-1.53018E+03 5.84503E+03-2.87372E+02 3.07947E-09 1.94582E-08
 -1       789 1.28931E+05 1.77115E+03 3.66930E+03-1.89544E+02 6.32907E-10 1.43427E-08
 -1       790 1.27935E+05-2.38242E+02 1.48564E+03-2.68700E+02-2.79903E-09 1.66269E-08
 -1       791 1.28201E+05 2.75653E+02 8.58068E+02-2.21490E+02-7.79186E-09 1.62588E-09
 -1       792 1.28041E+05-3.58020E+01 3.63613E+02-2.55429E+02-6.03359E-09-5.70019E-09
 -1       793 1.28075E+05 3.78311E+01 1.81266E+02-2.46445E+02-1.76812E-09-1.97464E-09
 -1       794 1.28061E+05-5.70473E-01 4.71013E+01-2.43745E+02 4.49239E-09 1.03970E-09
 -1       795 1.28038E+05-2.74749E+01-5.78451E+01-2.70809E+02-5.07382E-09 2.03256E-08
 -1       796 1.28078E+05 2.94674E+01-1.62842E+02-2.31064E+02 3.73861E-09 1.30568E-09
 -1       797 1.27943E+05-2.19985E+02-4.46960E+02-2.99912E+02 2.81397E-09-1.06027E-09
 -1       798 1.28156E+05 1.91795E+02-7.25843E+02-2.14641E+02 2.41552E-09 5.13799E-09
 -1       799 1.27392E+05-1.41370E+03-1.99687E+03-3.40562E+02 6.72371E-09-4.62421E-09
 -1       800 1.28629E+05 1.22221E+03-2.82598E+03-1.90416E+02 8.11498E-10 6.92012E-09
 -1       801-1.71336E+05-9.99918E+06-1.39371E+06 1.41573E+06 9.32778E-08-6.28461E-08
 -1       802 7.38496E+05 5.95226E+06 2.18219E+06-1.74774E+06 2.59723E-07-3.95967E-08
 -1       803-5.36750E+05-1.42687E+07-1.89087E+06 8.98444E+05 7.78309E-08 1.64291E-08
 -1       804 2.87272E+05 2.39612E+06 1.53755E+06 6.77237E+05-1.20315E-07-1.10173E-07
 -1       805 1.89365E+05-6.45715E+06-2.86380E+05-1.00358E+06-5.01168E-08-6.93217E-08
 -1       806-3.08988E+05-5.97622E+04-2.28572E+04-1.22427E+05-9.40599E-09-4.80395E-09
 -1       807-3.10788E+05-5.60300E+04-1.12295E+04-1.27972E+05 1.40080E-08 3.68772E-10
 -1       808-3.09616E+05-5.15247E+04-4.76391E+03-1.26321E+05-8.23457E-09-1.92636E-08
 -1       809-3.08427E+05-5.28746E+04-2.32943E+03-1.28248E+05-1.46792E-08-1.37470E-09
 -1       810-3.09710E+05-5.12379E+04-1.06771E+03-1.26494E+05 3.68709E-09 1.19901E-08
 -1       811-3.08244E+05-5.27479E+04-5.30994E+02-1.28212E+05-3.92902E-10 1.02864E-09
 -1       812-3.09724E+05-5.12626E+04-2.68635E+02-1.26493E+05-8.89395E-09 7.68932E-09
 -1       813-3.08219E+05-5.27501E+04-1.74721E+02-1.28193E+05-6.34100E-09 7.77527E-09
 -1       814-3.09717E+05-5.12723E+04-1.73370E+02-1.26489E+05-1.57797E-09-2.18370E-08
 -1       815-3.08222E+05-5.27523E+04-2.79522E+02-1.28186E+05 3.96858E-09-2.71209E-08
 -1       816-3.09696E+05-5.12714E+04-5.29914E+02-1.26485E+05 7.81074E-09 7.88987E-09
 -1       817-3.08312E+05-5.28028E+04-1.13731E+03-1.28174E+05-8.76025E-09 9.33142E-09
 -1       818-3.09628E+05-5.14320E+04-2.31974E+03-1.26409E+05 3.68800E-09 1.02168E-08
 -1       819-3.09582E+05-5.42043E+04-5.45816E+03-1.27874E+05 1.44446E-08-2.48701E-08
 -1       820-3.09190E+05-5.55553E+04-1.11094E+04-1.24648E+05 1.19253E-08-1.95723E-09
 -1       821-3.78896E+05 2.08687E+04-4.85768E+04 2.12583E+03 1.40277E-08-2.06273E-09
 -1       822-3.98608E+05-2.41751E+04-3.41402E+04-4.44655E+03 6.06519E-09-1.27729E-08
 -1       823-3.86364E+05 3.28951E+03-1.25472E+04 3.43135E+03-1.20459E-08 2.09639E-10
 -1       824-3.89595E+05-3.79345E+03-7.85391E+03-5.35386E+03 1.61222E-09 6.04018E-09
 -1       825-3.87917E+05 5.11172E+02-3.28873E+03 3.03326E+03 2.00692E-08 6.45639E-09
 -1       826-3.87167E+05-5.67408E+02-1.74493E+03-3.08467E+03 2.73821E-08 3.52452E-09
 -1       827-3.88767E+05 4.70116E+01-1.18918E+03 1.16201E+03 9.97258E-09-3.10385E-09
 -1       828-3.86464E+05-1.32317E+02-5.87760E+02 1.09822E+03-1.59594E-09-5.53005E-10
 -1       829-3.88606E+05 6.60890E+01-1.17828E+03-1.14967E+03 2.87173E-10 5.70662E-09
 -1       830-3.87516E+05-6.22292E+02-1.88342E+03 4.87637E+03-8.47116E-10-2.85877E-09
 -1       831-3.87738E+05 5.54534E+02-3.37134E+03-2.61615E+03-6.25728E-09-2.33103E-09
 -1       832-3.89675E+05-3.96112E+03-8.15851E+03 6.15262E+03-4.08275E-09 1.46002E-08
 -1       833-3.86463E+05 3.41440E+03-1.30540E+04-2.42596E+03-1.60969E-09 3.20961E-09
 -1       834-3.98672E+05-2.50945E+04-3.53714E+04 4.18442E+03-3.14540E-09 1.08648E-08
 -1       835-3.78725E+05 2.16551E+04-5.04586E+04-6.47878E+02 4.50208E-09 1.79680E-08
 -1       836-1.41467E+03 3.70356E+05 2.29192E+04-1.61192E+04-7.10133E-09 2.15005E-09
 -1       837 4.88557E+03 3.77534E+05 1.93900E+04-3.29432E+04-7.62628E-09 8.93920E-09
 -1       838-5.58308E+02 3.72369E+05 1.97505E+04-1.60477E+04-6.33099E-09-1.08544E-08
 -1       839 1.24272E+04 3.83151E+05 3.73565E+04-3.29957E+04-6.93399E-09-1.06567E-08
 -1       840-3.84230E+03 3.64679E+05 5.95675E+04-1.60725E+04-6.53745E-09 4.43752E-09
 -1       856-5.50814E+04 8.13011E+03-2.14247E+04-4.00453E+02 2.50168E-09 2.37742E-09
 -1       857-6.39074E+04-9.55268E+03-1.47485E+04 5.71076E+03 7.27653E-09-1.63689E-08
 -1       858-5.85768E+04 1.14016E+03-5.55922E+03-4.25698E+02 2.82046E-09 4.41332E-09
 -1       859-5.98961E+04-1.34139E+03-3.35479E+03 5.74841E+03 2.46899E-10 1.07541E-08
 -1       860-5.90990E+04 1.59682E+02-1.40614E+03-4.37828E+02-7.15744E-10-1.21793E-08
 -1       861-5.92955E+04-1.90656E+02-7.73825E+02 5.76493E+03 4.38138E-09-1.61224E-08
 -1       862-5.91807E+04 2.16604E+01-3.22239E+02-4.42195E+02-2.05416E-09-8.22581E-10
 -1       863-5.91954E+04-2.23688E+01-1.18677E+02 5.76740E+03-1.80662E-09-9.12593E-09
 -1       864-5.91995E+04-4.78204E+00 4.48984E+01-4.40296E+02-4.17398E-09-1.49634E-08
 -1       865-5.91396E+04 5.88435E+01 2.52118E+02 5.75675E+03 5.20515E-10 6.53614E-10
 -1       866-5.92342E+04-5.96356E+01 5.09532E+02-4.31556E+02-6.07884E-10-1.03817E-08
 -1       867-5.88993E+04 4.92135E+02 1.25524E+03 5.73304E+03-1.69479E-10 7.14408E-09
 -1       868-5.94348E+04-4.30393E+02 2.08592E+03-4.16581E+02 1.71889E-09 2.08643E-08
 -1       869-5.73694E+04 3.58118E+03 5.55472E+03 5.69417E+03 2.49202E-09 5.73527E-09
 -1       870-6.07562E+04-3.06498E+03 8.06084E+03-3.92576E+02-1.97690E-09-3.60615E-10
 -1       871-5.52795E+03-2.15217E+04-1.95267E+04 1.30313E+05-4.57840E-09 1.53286E-08
 -1       872-1.98590E+03-2.60619E+04-8.17992E+03 1.68971E+05-1.17070E-08 1.31208E-08
 -1       873 4.05616E+02-2.38651E+04 5.82105E+02 1.30027E+05-5.88625E-09-2.16046E-08
 -1       874 3.30715E+03-2.14547E+04 9.77699E+03 1.69000E+05-1.01118E-08 1.76324E-08
 -1       875 6.84813E+03-2.61956E+04 2.20633E+04 1.30266E+05-4.73665E-09 2.04100E-08
 -1       876 2.94847E+05 4.95591E+04 1.51891E+04 1.18135E+05 7.16830E-09-2.54304E-08
 -1       877 2.95912E+05 5.26967E+04 8.11158E+03 1.22422E+05 1.45415E-08 2.11799E-09
 -1       878 2.96267E+05 4.78770E+04 3.39834E+03 1.19380E+05-6.07224E-09-5.49562E-10
 -1       879 2.93848E+05 5.06354E+04 1.69324E+03 1.22524E+05 2.69370E-09 4.05919E-09
 -1       880 2.96369E+05 4.78596E+04 7.88630E+02 1.19431E+05-1.52750E-09-1.23009E-08
 -1       881 2.93712E+05 5.05472E+04 4.21046E+02 1.22501E+05-8.19557E-09 5.46831E-09
 -1       882 2.96378E+05 4.78730E+04 2.69178E+02 1.19433E+05-1.94905E-09 5.64253E-09
 -1       883 2.93702E+05 5.05426E+04 2.89108E+02 1.22493E+05 2.53152E-09 9.43575E-09
 -1       884 2.96371E+05 4.78702E+04 4.59662E+02 1.19433E+05-5.16707E-10-3.93652E-09
 -1       885 2.93738E+05 5.05489E+04 9.24017E+02 1.22504E+05-9.91713E-09 4.10868E-08
 -1       886 2.96335E+05 4.78434E+04 1.86225E+03 1.19430E+05 2.41364E-09 2.32824E-08
 -1       887 2.94066E+05 5.07635E+04 4.06778E+03 1.22551E+05 4.32883E-09-6.85986E-10
 -1       888 2.96078E+05 4.78888E+04 8.19670E+03 1.19299E+05-4.12035E-09 3.28873E-09
 -1       889 2.98944E+05 5.58394E+04 1.95803E+04 1.22403E+05-2.03778E-09-2.65209E-09
 -1       890 2.92733E+05 5.18618E+04 3.66735E+04 1.16179E+05-5.40376E-09 1.00335E-08
 -1       891-8.42919E+01-1.66418E+05-2.17499E+03 2.68126E+04-4.75279E-09 7.48059E-11
 -1       892-2.09189E+02-1.67000E+05-2.28443E+03 4.14077E+04-9.58607E-09-4.00428E-09
 -1       893 4.74355E+01-1.66498E+05-3.16646E+03 2.68199E+04-1.98315E-09-2.64645E-08
 -1       894-1.59928E+03-1.68183E+05-6.52184E+03 4.12546E+04-5.73800E-09-4.58385E-09
 -1       895-1.07875E+03-1.65133E+05-1.14105E+04 2.69675E+04-2.45836E-09 1.00226E-09
 -1       956-3.77365E+05-5.45176E+03-1.34578E+04 3.08771E+04 4.65661E-09-1.65949E-08
 -1       957-3.80005E+05-1.92324E+03-6.90766E+03 3.71061E+04 5.66251E-09-1.83545E-08
 -1       958-3.78574E+05-2.41050E+02-3.11281E+03 3.07094E+04-3.51884E-09-6.46787E-09
 -1       959-3.78771E+05-1.36353E+02-1.58945E+03 3.73018E+04-1.55478E-09 1.82081E-08
 -1       960-3.78692E+05-4.48591E+01-7.75083E+02 3.06921E+04 9.99171E-09 1.34896E-08
 -1       961-3.78690E+05-6.32898E+01-4.10925E+02 3.73222E+04 9.21841E-09 7.45581E-09
 -1       962-3.78720E+05-4.60855E+01-2.35238E+02 3.06892E+04 5.23960E-09 2.34786E-09
 -1       963-3.78691E+05-5.91007E+01-1.88793E+02 3.73259E+04 6.59202E-09 2.46539E-08
 -1       964-3.78725E+05-4.27399E+01-2.29532E+02 3.06885E+04 1.26015E-09-2.90061E-09
 -1       965-3.78703E+05-5.61519E+01-3.96952E+02 3.73251E+04-4.78639E-09-1.16318E-08
 -1       966-3.78709E+05-3.49184E+01-7.45839E+02 3.06900E+04 1.85491E-09-1.90653E-09
 -1       967-3.78792E+05-1.19687E+02-1.52968E+03 3.73108E+04-8.02424E-09 1.82777E-08
 -1       968-3.78605E+05-2.17353E+02-2.99457E+03 3.07027E+04-5.85487E-09 1.65636E-09
 -1       969-3.79992E+05-1.83379E+03-6.64785E+03 3.71622E+04-1.60371E-08 2.00535E-09
 -1       970-3.77449E+05-5.22813E+03-1.29504E+04 3.08300E+04-1.12159E-08 2.21798E-08
 -1       971-3.45734E+05-1.72957E+03-9.32361E+03 1.52133E+04 4.66753E-09-1.31691E-08
 -1       972-3.47979E+05-1.27321E+03-5.07756E+03 2.10357E+04 9.26548E-09-2.21189E-08
 -1       973-3.46773E+05-6.18524E+01-2.27429E+03 1.50926E+04 7.63339E-09 4.37512E-09
 -1       974-3.46908E+05-8.09032E+01-1.17893E+03 2.11724E+04-1.66619E-09 1.06211E-08
 -1       975-3.46855E+05-1.70185E+01-5.89781E+02 1.50803E+04-1.12868E-09 1.40126E-08
 -1       976-3.46846E+05-3.10594E+01-3.41113E+02 2.11882E+04 4.09295E-09-3.51417E-09
 -1       977-3.46871E+05-1.63008E+01-2.49100E+02 1.50769E+04-3.11479E-09-4.72278E-09
 -1       978-3.46852E+05-2.48147E+01-2.93555E+02 2.11931E+04-8.91214E-09-4.59170E-09
 -1       979-3.46871E+05-7.76077E+00-4.73417E+02 1.50754E+04-5.20777E-09 7.70342E-10
 -1       980-3.46888E+05-2.16540E+01-9.15206E+02 2.11942E+04-3.20355E-09 1.14500E-08
 -1       981-3.46842E+05 1.52426E+01-1.77310E+03 1.50758E+04 2.12924E-09-3.55584E-09
 -1       982-3.47131E+05-1.52490E+02-3.66531E+03 2.11878E+04 6.26790E-09-8.90304E-09
 -1       983-3.46619E+05-9.80895E+01-7.12185E+03 1.50817E+04 1.45883E-09 1.19940E-09
 -1       984-3.50557E+05-3.87181E+03-1.59493E+04 2.11041E+04-2.34309E-09 2.09993E-08
 -1       985-3.43395E+05-5.30918E+03-2.92877E+04 1.51514E+04-6.29143E-09 3.58159E-09
 -3
    1PSTEP                        29          15           1          
  100CL  115 6.62985E-01         409                     0   15           1
 -4  DISP        4    1
 -5  D1          1    2    1    0
 -5  D2          1    2    2    0
 -5  D3          1    2    3    0
 -5  ALL         1    2    0    0    1ALL
 -1         1 2.72525E-03 0.00000E+00 0.00000E+00
 -1         2 1.33464E-03 5.67192E-28 0.00000E+00
 -1         3 3.42758E-04-6.40482E-28-1.32349E-23
 -1         5 1.77143E-04-1.87570E-27 1.65436E-24
 -1         8 2.71450E-03-4.02391E-07 0.00000E+00
 -1         9 2.70778E-03-1.98149E-04 0.00000E+00
 -1        10 3.10798E-04-3.39743E-06-6.61744E-24
 -1        12 1.78991E-04 8.09484E-07-1.65436E-24
 -1        15 2.70223E-03-4.25619E-07 1.03398E-25
 -1        16 2.77684E-03-2.00011E-04 0.00000E+00
 -1        17 2.11514E-04-7.74986E-06 0.00000E+00
 -1        18 1.82944E-04 3.44398E-05 0.00000E+00
 -1        19 1.84538E-04 1.61254E-06 0.00000E+00
 -1        20 1.84677E-04-9.90078E-06 0.00000E+00
 -1        21 1.83721E-04-2.54223E-05 0.00000E+00
 -1        24 3.06096E-05-1.19733E-05 0.00000E+00
 -1        25 1.93737E-04 3.46657E-05 0.00000E+00
 -1        26 1.94416E-04 2.23288E-06 0.00000E+00
 -1        27 1.92216E-04-1.34600E-05 0.00000E+00
 -1        28 1.91884E-04-2.60445E-05 0.00000E+00
 -1        32 0.00000E+00 0.00000E+00 0.00000E+00
 -1        33 2.03292E-04 2.98692E-06 0.00000E+00
 -1        34 2.01173E-04-1.35165E-05 0.00000E+00
 -1        35 1.99238E-04-2.63946E-05 0.00000E+00
 -1        51 2.72453E-03-8.45763E-08 6.61744E-24
 -1        52 2.72321E-03-1.50701E-07 0.00000E+00
 -1        53 2.72142E-03-2.13329E-07 0.00000E+00
 -1        54 2.71928E-03-2.74695E-07 0.00000E+00
 -1        55 2.71693E-03-3.36564E-07-3.30872E-24
 -1        56 2.71726E-03 9.21800E-06 5.29396E-23
 -1        57 2.70133E-03 3.79748E-05 5.29396E-23
 -1        58 2.67985E-03 8.01504E-05 0.00000E+00
 -1        59 2.65577E-03 1.28351E-04 0.00000E+00
 -1        60 2.63271E-03 1.74147E-04 0.00000E+00
 -1        61 2.61413E-03 2.09306E-04 0.00000E+00
 -1        62 2.60243E-03 2.27491E-04 0.00000E+00
 -1        63 2.59910E-03 2.23880E-04-5.29396E-23
 -1        64 2.60393E-03 1.97656E-04-1.05879E-22
 -1        65 2.61593E-03 1.50150E-04 0.00000E+00
 -1        66 2.63301E-03 8.67488E-05-1.05879E-22
 -1        67 2.65282E-03 1.44100E-05-5.29396E-23
 -1        68 2.67270E-03-5.81656E-05-1.05879E-22
 -1        69 2.69002E-03-1.22247E-04 0.00000E+00
 -1        70 2.70238E-03-1.70764E-04-5.29396E-23
 -1        86 1.42100E-03-6.24496E-06 0.00000E+00
 -1        87 1.67069E-03-3.93377E-05 0.00000E+00
 -1        88 2.00644E-03-9.62558E-05-2.64698E-23
 -1        89 2.34679E-03-1.54774E-04 0.00000E+00
 -1        90 2.60761E-03-1.90589E-04 0.00000E+00
 -1       121 3.41861E-04-5.48496E-07 0.00000E+00
 -1       122 3.39172E-04-1.10008E-06-6.61744E-24
 -1       123 3.34701E-04-1.65780E-06 0.00000E+00
 -1       124 3.28466E-04-2.22468E-06 0.00000E+00
 -1       125 3.20488E-04-2.80340E-06 1.32349E-23
 -1       191 1.77194E-04 1.34978E-07 3.30872E-24
 -1       192 1.77348E-04 2.69944E-07-8.27181E-25
 -1       193 1.77605E-04 4.04891E-07-8.27181E-25
 -1       194 1.77964E-04 5.39805E-07-1.65436E-24
 -1       195 1.78427E-04 6.74673E-07 3.30872E-24
 -1       251 2.71420E-03 1.61673E-06 0.00000E+00
 -1       252 2.71390E-03 3.49074E-06 3.30872E-24
 -1       253 2.71360E-03 4.22029E-06 0.00000E+00
 -1       254 2.71329E-03 2.82021E-06-3.30872E-24
 -1       255 2.71298E-03-1.37329E-06 6.61744E-24
 -1       256 2.71265E-03-8.98923E-06 0.00000E+00
 -1       257 2.71228E-03-2.01405E-05-6.61744E-24
 -1       258 2.71187E-03-3.48958E-05-3.30872E-24
 -1       259 2.71142E-03-5.27810E-05 0.00000E+00
 -1       260 2.71091E-03-7.32825E-05-6.61744E-24
 -1       261 2.71037E-03-9.54921E-05 0.00000E+00
 -1       262 2.70981E-03-1.18481E-04-6.61744E-24
 -1       263 2.70926E-03-1.41202E-04 0.00000E+00
 -1       264 2.70873E-03-1.62613E-04 0.00000E+00
 -1       265 2.70824E-03-1.81868E-04-1.32349E-23
 -1       266 2.71246E-03-4.11850E-07 1.65436E-24
 -1       267 2.71041E-03-4.15040E-07 0.00000E+00
 -1       268 2.70837E-03-4.18628E-07 0.00000E+00
 -1       269 2.70632E-03-4.21039E-07 0.00000E+00
 -1       270 2.70428E-03-4.23422E-07 0.00000E+00
 -1       271 2.71368E-03 2.25298E-08-1.32349E-23
 -1       272 2.71385E-03-2.24797E-06 6.61744E-24
 -1       273 2.71496E-03-7.05245E-06-1.32349E-23
 -1       274 2.71694E-03-1.42168E-05 1.32349E-23
 -1       275 2.71971E-03-2.35458E-05 2.64698E-23
 -1       276 2.72319E-03-3.48289E-05 0.00000E+00
 -1       277 2.72729E-03-4.78387E-05 0.00000E+00
 -1       278 2.73194E-03-6.23350E-05 0.00000E+00
 -1       279 2.73702E-03-7.80655E-05 1.32349E-23
 -1       280 2.74245E-03-9.47681E-05 6.61744E-24
 -1       281 2.74813E-03-1.12173E-04-1.32349E-23
 -1       282 2.75397E-03-1.30004E-04-6.61744E-24
 -1       283 2.75986E-03-1.47983E-04-1.32349E-23
 -1       284 2.76570E-03-1.65829E-04 0.00000E+00
 -1       285 2.77139E-03-1.83264E-04 1.32349E-23
 -1       301 2.72033E-03-1.98494E-04 6.61744E-24
 -1       302 2.73122E-03-1.98792E-04-3.30872E-24
 -1       303 2.74137E-03-1.99080E-04-1.32349E-23
 -1       304 2.75173E-03-1.99368E-04-6.61744E-24
 -1       305 2.76325E-03-1.99670E-04 0.00000E+00
 -1       306 2.74586E-03-3.53570E-04 0.00000E+00
 -1       307 2.80972E-03-7.68529E-04 0.00000E+00
 -1       308 2.85628E-03-1.37448E-03-1.05879E-22
 -1       309 2.88011E-03-2.07513E-03 5.29396E-23
 -1       310 2.91154E-03-2.74462E-03 1.05879E-22
 -1       311 2.97114E-03-3.25980E-03 0.00000E+00
 -1       312 3.02879E-03-3.54016E-03-1.05879E-22
 -1       313 3.02333E-03-3.54819E-03 5.29396E-23
 -1       314 2.88083E-03-3.29624E-03 0.00000E+00
 -1       315 2.56054E-03-2.84915E-03 5.29396E-23
 -1       316 2.08121E-03-2.28364E-03 1.05879E-22
 -1       317 1.50915E-03-1.66896E-03 0.00000E+00
 -1       318 9.58962E-04-1.06557E-03 1.05879E-22
 -1       319 5.38760E-04-5.38388E-04 5.29396E-23
 -1       320 2.92259E-04-1.61624E-04 0.00000E+00
 -1       336 2.99208E-04-4.05427E-06 1.32349E-23
 -1       337 2.85543E-04-4.73681E-06-6.61744E-24
 -1       338 2.69863E-04-5.44727E-06-1.32349E-23
 -1       339 2.52242E-04-6.18648E-06 0.00000E+00
 -1       340 2.32762E-04-6.95891E-06 1.32349E-23
 -1       406 1.79659E-04 9.44218E-07 2.48154E-24
 -1       407 1.80430E-04 1.07884E-06 8.27181E-25
 -1       408 1.81303E-04 1.21329E-06-2.48154E-24
 -1       409 1.82279E-04 1.34741E-06-1.03398E-24
 -1       410 1.83357E-04 1.48091E-06 3.30872E-24
 -1       521 2.81550E-03-3.64735E-04 1.05879E-22
 -1       522 2.87755E-03-8.00182E-04 5.29396E-23
 -1       523 2.91756E-03-1.43434E-03 0.00000E+00
 -1       524 2.93200E-03-2.16411E-03 5.29396E-23
 -1       525 2.95539E-03-2.86068E-03 1.05879E-22
 -1       526 3.01141E-03-3.39824E-03 5.29396E-23
 -1       527 3.06865E-03-3.68932E-03 0.00000E+00
 -1       528 3.06084E-03-3.69546E-03-5.29396E-23
 -1       529 2.90604E-03-3.42907E-03 2.11758E-22
 -1       530 2.56125E-03-2.96309E-03 0.00000E+00
 -1       531 2.04604E-03-2.37809E-03 0.00000E+00
 -1       532 1.43329E-03-1.74592E-03-5.29396E-23
 -1       533 8.43142E-04-1.12436E-03 1.05879E-22
 -1       534 3.89009E-04-5.75989E-04 0.00000E+00
 -1       535 1.20957E-04-1.79410E-04 0.00000E+00
 -1       536 2.10759E-04 2.71819E-05 0.00000E+00
 -1       537 2.08840E-04 8.76341E-05 0.00000E+00
 -1       538 2.05875E-04 1.64338E-04-3.30872E-24
 -1       539 2.02378E-04 2.47942E-04-1.65436E-24
 -1       540 1.99231E-04 3.26941E-04 3.30872E-24
 -1       541 1.97185E-04 3.89853E-04 0.00000E+00
 -1       542 1.96241E-04 4.29924E-04 0.00000E+00
 -1       543 1.96016E-04 4.40548E-04 1.65436E-24
 -1       544 1.95694E-04 4.22500E-04 3.30872E-24
 -1       545 1.94521E-04 3.76774E-04 1.65436E-24
 -1       546 1.92335E-04 3.11497E-04 0.00000E+00
 -1       547 1.89376E-04 2.34919E-04-1.65436E-24
 -1       548 1.86445E-04 1.58717E-04 3.30872E-24
 -1       549 1.84329E-04 9.45699E-05 1.65436E-24
 -1       550 1.83231E-04 5.05087E-05-1.65436E-24
 -1       551 1.86307E-04-8.31891E-06 0.00000E+00
 -1       552 1.57855E-04-8.96845E-06 0.00000E+00
 -1       553 1.27100E-04-9.68027E-06 3.30872E-24
 -1       554 9.50018E-05-1.04333E-05-3.30872E-24
 -1       555 6.25201E-05-1.12000E-05 0.00000E+00
 -1       556 2.03864E-04 1.18109E-05 0.00000E+00
 -1       557 1.97683E-04 2.76751E-05 0.00000E+00
 -1       558 1.92837E-04 4.01308E-05 0.00000E+00
 -1       559 1.89194E-04 4.94884E-05 0.00000E+00
 -1       560 1.86622E-04 5.60590E-05 0.00000E+00
 -1       561 1.84995E-04 6.01559E-05 0.00000E+00
 -1       562 1.84186E-04 6.20938E-05 0.00000E+00
 -1       563 1.84073E-04 6.21884E-05 0.00000E+00
 -1       564 1.84532E-04 6.07562E-05 0.00000E+00
 -1       565 1.85442E-04 5.81142E-05 0.00000E+00
 -1       566 1.86685E-04 5.45804E-05 0.00000E+00
 -1       567 1.88142E-04 5.04727E-05 0.00000E+00
 -1       568 1.89693E-04 4.61096E-05 0.00000E+00
 -1       569 1.91221E-04 4.18092E-05-8.27181E-25
 -1       570 1.92608E-04 3.78900E-05 0.00000E+00
 -1       571 1.83041E-04 3.23098E-05 0.00000E+00
 -1       572 1.83139E-04 3.01141E-05-1.24077E-24
 -1       573 1.83239E-04 2.78684E-05 0.00000E+00
 -1       574 1.83338E-04 2.55890E-05 8.27181E-25
 -1       575 1.83437E-04 2.32924E-05 0.00000E+00
 -1       576 1.83537E-04 2.09950E-05 1.65436E-24
 -1       577 1.83636E-04 1.87134E-05 0.00000E+00
 -1       578 1.83736E-04 1.64642E-05 0.00000E+00
 -1       579 1.83836E-04 1.42638E-05 0.00000E+00
 -1       580 1.83936E-04 1.21288E-05 0.00000E+00
 -1       581 1.84036E-04 1.00757E-05 0.00000E+00
 -1       582 1.84136E-04 8.12096E-06 0.00000E+00
 -1       583 1.84236E-04 6.28117E-06 0.00000E+00
 -1       584 1.84337E-04 4.57262E-06 3.30872E-24
 -1       585 1.84437E-04 3.01148E-06 0.00000E+00
 -1       586 1.84702E-04 3.44795E-05 1.65436E-24
 -1       587 1.86418E-04 3.45187E-05-8.27181E-25
 -1       588 1.88137E-04 3.45576E-05 0.00000E+00
 -1       589 1.89901E-04 3.45958E-05 0.00000E+00
 -1       590 1.91753E-04 3.46327E-05 0.00000E+00
 -1       591 1.83674E-04 3.24036E-05 0.00000E+00
 -1       592 1.84407E-04 3.03475E-05 0.00000E+00
 -1       593 1.85145E-04 2.82775E-05 0.00000E+00
 -1       594 1.85886E-04 2.61982E-05 4.13590E-25
 -1       595 1.86629E-04 2.41144E-05 8.27181E-25
 -1       596 1.87371E-04 2.20307E-05-4.13590E-25
 -1       597 1.88112E-04 1.99519E-05-8.27181E-25
 -1       598 1.88849E-04 1.78825E-05-4.13590E-25
 -1       599 1.89581E-04 1.58274E-05 0.00000E+00
 -1       600 1.90306E-04 1.37911E-05 4.13590E-25
 -1       601 1.91022E-04 1.17783E-05 0.00000E+00
 -1       602 1.91727E-04 9.79376E-06 2.06795E-25
 -1       603 1.92421E-04 7.84212E-06 4.13590E-25
 -1       604 1.93100E-04 5.92815E-06 1.29247E-25
 -1       605 1.93765E-04 4.05646E-06 0.00000E+00
 -1       606 1.84551E-04 4.46954E-07 0.00000E+00
 -1       607 1.84561E-04-6.32930E-07 0.00000E+00
 -1       608 1.84569E-04-1.63214E-06 0.00000E+00
 -1       609 1.84578E-04-2.55633E-06 0.00000E+00
 -1       610 1.84586E-04-3.41126E-06-3.30872E-24
 -1       611 1.84594E-04-4.20269E-06 0.00000E+00
 -1       612 1.84603E-04-4.93642E-06 0.00000E+00
 -1       613 1.84611E-04-5.61826E-06 0.00000E+00
 -1       614 1.84619E-04-6.25399E-06 0.00000E+00
 -1       615 1.84628E-04-6.84943E-06 0.00000E+00
 -1       616 1.84636E-04-7.41038E-06 0.00000E+00
 -1       617 1.84644E-04-7.94264E-06 0.00000E+00
 -1       618 1.84653E-04-8.45201E-06 0.00000E+00
 -1       619 1.84661E-04-8.94429E-06 2.06795E-25
 -1       620 1.84669E-04-9.42528E-06 0.00000E+00
 -1       621 1.85898E-04 1.71650E-06-1.65436E-24
 -1       622 1.87417E-04 1.82070E-06-8.27181E-25
 -1       623 1.89062E-04 1.92469E-06 0.00000E+00
 -1       624 1.90799E-04 2.02835E-06-8.27181E-25
 -1       625 1.92595E-04 2.13172E-06-3.30872E-24
 -1       626 1.85087E-04 4.83089E-07-3.30872E-24
 -1       627 1.85613E-04-5.83454E-07 0.00000E+00
 -1       628 1.86120E-04-1.59493E-06 0.00000E+00
 -1       629 1.86608E-04-2.55949E-06 1.65436E-24
 -1       630 1.87083E-04-3.48534E-06 3.30872E-24
 -1       631 1.87545E-04-4.38066E-06 0.00000E+00
 -1       632 1.88000E-04-5.25365E-06 0.00000E+00
 -1       633 1.88449E-04-6.11253E-06 0.00000E+00
 -1       634 1.88896E-04-6.96550E-06-3.30872E-24
 -1       635 1.89344E-04-7.82074E-06 1.65436E-24
 -1       636 1.89796E-04-8.68647E-06 0.00000E+00
 -1       637 1.90255E-04-9.57091E-06-1.65436E-24
 -1       638 1.90723E-04-1.04822E-05 0.00000E+00
 -1       639 1.91205E-04-1.14287E-05 8.27181E-25
 -1       640 1.91702E-04-1.24185E-05-1.65436E-24
 -1       656 1.85385E-04-1.04793E-05-6.61744E-24
 -1       657 1.86513E-04-1.10813E-05 6.61744E-24
 -1       658 1.87921E-04-1.16819E-05 1.32349E-23
 -1       659 1.89464E-04-1.22822E-05-6.61744E-24
 -1       660 1.90957E-04-1.28842E-05 0.00000E+00
 -1       661 1.84941E-04-1.04206E-05 0.00000E+00
 -1       662 1.85243E-04-1.10307E-05 8.27181E-25
 -1       663 1.85577E-04-1.17263E-05-1.65436E-24
 -1       664 1.85940E-04-1.25011E-05-8.27181E-25
 -1       665 1.86331E-04-1.33495E-05 0.00000E+00
 -1       666 1.86748E-04-1.42659E-05-8.27181E-25
 -1       667 1.87188E-04-1.52450E-05 1.65436E-24
 -1       668 1.87650E-04-1.62814E-05 0.00000E+00
 -1       669 1.88131E-04-1.73700E-05 0.00000E+00
 -1       670 1.88630E-04-1.85057E-05 8.27181E-25
 -1       671 1.89144E-04-1.96838E-05-1.65436E-24
 -1       672 1.89673E-04-2.08993E-05-8.27181E-25
 -1       673 1.90213E-04-2.21475E-05 0.00000E+00
 -1       674 1.90763E-04-2.34241E-05 0.00000E+00
 -1       675 1.91323E-04-2.47240E-05-2.06795E-25
 -1       676 1.85086E-04-2.55266E-05-3.30872E-24
 -1       677 1.86450E-04-2.56309E-05 0.00000E+00
 -1       678 1.87813E-04-2.57351E-05-3.30872E-24
 -1       679 1.89174E-04-2.58390E-05-1.65436E-24
 -1       680 1.90531E-04-2.59428E-05 3.30872E-24
 -1       771 1.86524E-05 1.47676E-05 0.00000E+00
 -1       772 8.59289E-06 3.67299E-05 0.00000E+00
 -1       773 3.40461E-07 5.41439E-05-5.29396E-23
 -1       774-6.22934E-06 6.72678E-05 2.64698E-23
 -1       775-1.12382E-05 7.63699E-05 5.29396E-23
 -1       776-1.48129E-05 8.17357E-05 2.64698E-23
 -1       777-1.70796E-05 8.36604E-05 5.29396E-23
 -1       778-1.81675E-05 8.24532E-05-2.64698E-23
 -1       779-1.82049E-05 7.84320E-05-5.29396E-23
 -1       780-1.73222E-05 7.19259E-05 0.00000E+00
 -1       781-1.56489E-05 6.32708E-05-5.29396E-23
 -1       782-1.33159E-05 5.28116E-05 0.00000E+00
 -1       783-1.04534E-05 4.08978E-05 5.29396E-23
 -1       784-7.19268E-06 2.78851E-05 0.00000E+00
 -1       785-3.66417E-06 1.41321E-05 5.29396E-23
 -1       786 1.93775E-04 3.24107E-05-6.46235E-27
 -1       787 1.93817E-04 3.02059E-05 0.00000E+00
 -1       788 1.93858E-04 2.80429E-05 0.00000E+00
 -1       789 1.93901E-04 2.59135E-05 8.27181E-25
 -1       790 1.93943E-04 2.38130E-05 0.00000E+00
 -1       791 1.93986E-04 2.17366E-05 0.00000E+00
 -1       792 1.94028E-04 1.96822E-05 0.00000E+00
 -1       793 1.94071E-04 1.76475E-05-8.27181E-25
 -1       794 1.94114E-04 1.56322E-05-1.65436E-24
 -1       795 1.94157E-04 1.36364E-05 0.00000E+00
 -1       796 1.94200E-04 1.16618E-05 0.00000E+00
 -1       797 1.94243E-04 9.71027E-06 8.27181E-25
 -1       798 1.94286E-04 7.78602E-06-1.65436E-24
 -1       799 1.94329E-04 5.89337E-06 0.00000E+00
 -1       800 1.94372E-04 4.03979E-06 1.65436E-24
 -1       801 1.47928E-04 3.11648E-05 0.00000E+00
 -1       802 9.42169E-06 1.94423E-05 2.64698E-23
 -1       803-1.08882E-04 9.82058E-06-5.29396E-23
 -1       804-9.65113E-05 6.83581E-06 0.00000E+00
 -1       805-3.18870E-05 2.68584E-06 5.29396E-23
 -1       806 1.94467E-04 3.23419E-05 0.00000E+00
 -1       807 1.95183E-04 3.00444E-05-1.65436E-24
 -1       808 1.95887E-04 2.77784E-05 0.00000E+00
 -1       809 1.96577E-04 2.55478E-05-1.65436E-24
 -1       810 1.97252E-04 2.33569E-05 0.00000E+00
 -1       811 1.97911E-04 2.12094E-05 0.00000E+00
 -1       812 1.98553E-04 1.91093E-05 0.00000E+00
 -1       813 1.99175E-04 1.70606E-05 0.00000E+00
 -1       814 1.99776E-04 1.50671E-05 3.30872E-24
 -1       815 2.00356E-04 1.31328E-05 8.27181E-25
 -1       816 2.00912E-04 1.12616E-05-3.30872E-24
 -1       817 2.01443E-04 9.45732E-06 0.00000E+00
 -1       818 2.01947E-04 7.72385E-06 0.00000E+00
 -1       819 2.02424E-04 6.06509E-06 8.27181E-25
 -1       820 2.02872E-04 4.48485E-06-1.65436E-24
 -1       821 1.94287E-04-1.27839E-07 0.00000E+00
 -1       822 1.94146E-04-3.63740E-06-1.65436E-24
 -1       823 1.94004E-04-7.86924E-06 0.00000E+00
 -1       824 1.93859E-04-1.23923E-05-1.65436E-24
 -1       825 1.93715E-04-1.66968E-05 0.00000E+00
 -1       826 1.93573E-04-2.02742E-05 0.00000E+00
 -1       827 1.93435E-04-2.28140E-05-3.30872E-24
 -1       828 1.93298E-04-2.40120E-05 0.00000E+00
 -1       829 1.93163E-04-2.39292E-05 3.30872E-24
 -1       830 1.93026E-04-2.26345E-05-1.65436E-24
 -1       831 1.92889E-04-2.05264E-05 3.30872E-24
 -1       832 1.92750E-04-1.80086E-05 1.65436E-24
 -1       833 1.92612E-04-1.55964E-05 0.00000E+00
 -1       834 1.92477E-04-1.38044E-05-1.65436E-24
 -1       835 1.92343E-04-1.29788E-05 0.00000E+00
 -1       836 1.96108E-04 2.35792E-06 0.00000E+00
 -1       837 1.97672E-04 2.48611E-06 0.00000E+00
 -1       838 1.99141E-04 2.61424E-06-3.30872E-24
 -1       839 2.00547E-04 2.74166E-06 0.00000E+00
 -1       840 2.01919E-04 2.86893E-06 8.27181E-25
 -1       856 1.92199E-04-1.45230E-05-8.27181E-25
 -1       857 1.92179E-04-1.54488E-05 0.00000E+00
 -1       858 1.92159E-04-1.62587E-05 0.00000E+00
 -1       859 1.92138E-04-1.69741E-05 0.00000E+00
 -1       860 1.92117E-04-1.76166E-05 0.00000E+00
 -1       861 1.92096E-04-1.82076E-05-4.13590E-25
 -1       862 1.92076E-04-1.87689E-05 0.00000E+00
 -1       863 1.92055E-04-1.93221E-05 0.00000E+00
 -1       864 1.92034E-04-1.98887E-05 8.27181E-25
 -1       865 1.92013E-04-2.04905E-05 0.00000E+00
 -1       866 1.91992E-04-2.11490E-05 0.00000E+00
 -1       867 1.91971E-04-2.18858E-05-4.13590E-25
 -1       868 1.91950E-04-2.27224E-05-8.27181E-25
 -1       869 1.91928E-04-2.36802E-05 4.13590E-25
 -1       870 1.91907E-04-2.47805E-05 0.00000E+00
 -1       871 1.93568E-04-1.34650E-05 0.00000E+00
 -1       872 1.95066E-04-1.34734E-05 0.00000E+00
 -1       873 1.96644E-04-1.34824E-05 0.00000E+00
 -1       874 1.98233E-04-1.34923E-05 0.00000E+00
 -1       875 1.99765E-04-1.35027E-05-6.20385E-25
 -1       876 1.92743E-04-1.45095E-05-3.30872E-24
 -1       877 1.93247E-04-1.54926E-05 0.00000E+00
 -1       878 1.93730E-04-1.64169E-05 0.00000E+00
 -1       879 1.94194E-04-1.72899E-05-1.65436E-24
 -1       880 1.94642E-04-1.81188E-05 0.00000E+00
 -1       881 1.95076E-04-1.89108E-05 0.00000E+00
 -1       882 1.95498E-04-1.96732E-05-3.30872E-24
 -1       883 1.95913E-04-2.04131E-05 0.00000E+00
 -1       884 1.96321E-04-2.11379E-05 0.00000E+00
 -1       885 1.96727E-04-2.18547E-05 0.00000E+00
 -1       886 1.97132E-04-2.25707E-05 0.00000E+00
 -1       887 1.97540E-04-2.32931E-05 1.65436E-24
 -1       888 1.97952E-04-2.40292E-05 0.00000E+00
 -1       889 1.98372E-04-2.47864E-05 1.65436E-24
 -1       890 1.98802E-04-2.55718E-05 0.00000E+00
 -1       891 1.93257E-04-2.61033E-05 1.65436E-24
 -1       892 1.94606E-04-2.61623E-05 0.00000E+00
 -1       893 1.95905E-04-2.62212E-05 8.27181E-25
 -1       894 1.97127E-04-2.62798E-05 4.13590E-25
 -1       895 1.98247E-04-2.63381E-05 0.00000E+00
 -1       956 2.03161E-04 1.66367E-06-1.65436E-24
 -1       957 2.03029E-04 4.31983E-07 1.65436E-24
 -1       958 2.02896E-04-7.18874E-07 3.30872E-24
 -1       959 2.02763E-04-1.80025E-06 1.65436E-24
 -1       960 2.02630E-04-2.82353E-06 0.00000E+00
 -1       961 2.02497E-04-3.80014E-06-1.65436E-24
 -1       962 2.02365E-04-4.74152E-06 3.30872E-24
 -1       963 2.02232E-04-5.65911E-06-1.65436E-24
 -1       964 2.02099E-04-6.56437E-06 0.00000E+00
 -1       965 2.01966E-04-7.46874E-06 1.65436E-24
 -1       966 2.01833E-04-8.38368E-06 0.00000E+00
 -1       967 2.01701E-04-9.32064E-06-1.65436E-24
 -1       968 2.01568E-04-1.02911E-05 0.00000E+00
 -1       969 2.01435E-04-1.13063E-05 0.00000E+00
 -1       970 2.01303E-04-1.23778E-05 0.00000E+00
 -1       971 2.01052E-04-1.46552E-05 3.30872E-24
 -1       972 2.00931E-04-1.56995E-05 1.65436E-24
 -1       973 2.00810E-04-1.66599E-05 0.00000E+00
 -1       974 2.00688E-04-1.75470E-05 0.00000E+00
 -1       975 2.00566E-04-1.83715E-05 0.00000E+00
 -1       976 2.00445E-04-1.91443E-05 0.00000E+00
 -1       977 2.00323E-04-1.98760E-05-3.30872E-24
 -1       978 2.00202E-04-2.05775E-05 1.65436E-24
 -1       979 2.00080E-04-2.12596E-05 3.30872E-24
 -1       980 1.99959E-04-2.19329E-05 0.00000E+00
 -1       981 1.99838E-04-2.26084E-05 0.00000E+00
 -1       982 1.99716E-04-2.32968E-05 1.65436E-24
 -1       983 1.99595E-04-2.40089E-05-3.30872E-24
 -1       984 1.99474E-04-2.47554E-05 0.00000E+00
 -1       985 1.99354E-04-2.55471E-05-3.30872E-24
 -3
    1PSTEP                        30          15           1          
  100CL  115 6.62985E-01         409                     0   15           1
 -4  STRESS      6    1
 -5  SXX         1    4    1    1
 -5  SYY         1    4    2    2
 -5  SZZ         1    4    3    3
 -5  SXY         1    4    1    2
 -5  SYZ         1    4    2    3
 -5  SZX         1    4    3    1
 -1         1-5.34617E+06-1.57919E+06-1.13300E+06-1.33547E+06-2.59024E-09 7.56409E-08
 -1         2 1.51288E+06 2.21683E+07 5.15623E+06 6.70752E+06 3.43716E-08-5.35219E-08
 -1         3-1.48846E+03-1.55735E+06 4.05642E+02-2.21070E+03-5.77007E-10-4.00541E-08
 -1         5-7.54315E+01 3.86522E+05 9.98379E+00-1.34471E+00-4.51345E-10-1.97742E-08
 -1         8-5.54262E+05-2.00646E+05-6.27681E+04-2.43310E+05 7.36691E-11-1.02253E-07
 -1         9 1.17975E+07 3.89038E+06 2.80617E+06-3.15621E+05-1.49244E-08-8.02334E-08
 -1        10-2.30462E+03-1.62287E+06-3.94412E+03-1.49591E+04-1.33732E-08-6.87077E-08
 -1        12-7.15128E+01 3.86544E+05 3.28203E+02-9.16501E+00-5.49974E-10 1.81926E-08
 -1        15 9.25841E+02 5.08795E+02 2.99276E+03 8.18652E-01-3.01398E-10-5.19455E-07
 -1        16 2.29228E+07-3.33221E+05 3.11950E+06-2.29111E+06-4.87004E-09 4.98258E-08
 -1        17 8.39308E+06 6.28960E+06 2.26720E+06 6.01674E+06 2.54426E-08 3.36440E-08
 -1        18 1.42435E+05 3.35441E+04 4.16958E+03-1.19586E+05 1.55453E-08-6.61930E-09
 -1        19 1.22460E+05 1.41713E+05-9.45095E+02 2.19705E+04 1.62436E-09-5.73273E-09
 -1        20-8.21838E+04-5.73830E+05-1.28780E+05 2.50713E+04-1.57434E-09 1.33568E-08
 -1        21-4.49396E+01-2.96021E+05-9.11751E+02 2.77202E+02 1.43139E-08-2.07659E-08
 -1        24 1.40721E+07 1.21172E+07 3.89509E+06 1.12190E+07-1.67085E-07-5.12615E-08
 -1        25 1.25177E+05 2.68313E+05 1.00243E+05-6.46361E+05-2.06492E-09 5.00240E-09
 -1        26-5.54513E+04 9.23126E+04-2.46448E+04 1.32855E+03-1.55705E-10 1.42558E-08
 -1        27-7.58871E+04-3.10132E+05-1.13436E+05 6.89808E+04 4.06953E-09 5.21747E-09
 -1        28 2.13918E+04-8.62518E+04 1.69416E+04 2.06207E+04-4.74887E-09-5.86915E-09
 -1        32-1.68048E+06-3.18157E+06-1.97559E+05 4.58844E+05-4.23315E-08-9.14736E-09
 -1        33-1.78540E+05 9.30341E+04 3.23990E+04-3.84762E+04-2.91618E-09-2.53658E-09
 -1        34-2.23754E+05-2.50958E+04 6.85998E+02 7.55293E+04-5.71839E-09 2.47974E-09
 -1        35-2.29787E+04-3.50696E+04-1.62029E+03 5.15227E+04-5.96855E-09-5.47273E-09
 -1        51 6.08240E+04-1.71012E+05 1.28593E+05-4.35598E+05 1.74623E-10 4.66607E-08
 -1        52 2.05689E+04-1.48518E+05 6.74222E+04-5.08040E+05 6.45741E-10-2.90056E-08
 -1        53 4.16375E+03-1.63875E+05 3.50222E+04-4.34104E+05 6.18456E-10 5.95028E-08
 -1        54 7.29294E+03-1.59660E+05 2.86020E+04-5.09502E+05 6.58474E-10-1.31604E-07
 -1        55 1.59009E+04-1.66613E+05 3.45842E+04-4.34016E+05 3.52884E-10 1.64870E-07
 -1        56-9.80365E+06-1.38792E+06-9.22310E+05-4.10079E+06 1.85100E-08-6.15255E-08
 -1        57-1.11078E+07-7.86686E+05-5.45941E+05-2.68488E+06 1.23182E-08-1.52831E-07
 -1        58-9.59163E+06-1.85946E+06-2.01710E+05-4.29991E+06-3.36586E-08 3.75003E-08
 -1        59-1.13090E+07-2.41448E+05-1.07499E+05-2.61012E+06-3.99050E-08-4.90181E-08
 -1        60-9.68850E+06-1.86309E+06-5.83675E+04-4.25126E+06-2.82198E-08 1.78821E-07
 -1        61-1.06202E+07-5.94315E+05 1.93170E+04-2.86315E+06-1.19326E-09 3.37328E-07
 -1        62-1.01336E+07-1.60577E+06-8.19250E+04-3.93010E+06-2.89583E-08-3.91883E-08
 -1        63-9.66948E+06-1.34098E+06 5.99120E+04-3.59222E+06-1.97397E-08 8.01629E-08
 -1        64-1.05209E+07-1.20087E+06-7.53943E+04-3.44756E+06-8.20728E-09-3.00031E-07
 -1        65-9.28658E+06-1.97217E+06 1.59703E+04-4.54768E+06-2.30211E-08-2.99828E-07
 -1        66-1.06531E+07-8.79748E+05-4.75761E+04-3.07793E+06-5.11500E-09-5.89989E-08
 -1        67-9.31053E+06-2.23680E+06-9.67043E+04-5.00262E+06-3.97777E-08-1.35524E-07
 -1        68-1.06334E+07-8.40262E+05-1.87535E+05-3.07722E+06-7.58664E-08-6.09871E-08
 -1        69-9.47969E+06-2.31147E+06-4.84950E+05-4.51514E+06-3.78786E-08 1.13498E-07
 -1        70-1.03571E+07-9.06077E+05-8.47732E+05-3.48254E+06 3.24053E-09 1.90863E-07
 -1        86-1.54362E+06-1.57543E+07-2.82279E+06-3.14965E+06-2.81339E-07-6.67787E-08
 -1        87 2.42980E+06 6.39789E+06 2.34769E+06 5.80949E+06-4.53976E-07-2.49078E-07
 -1        88-4.59042E+05-1.93566E+06 2.22372E+05-2.58290E+06-4.18706E-07-2.09902E-07
 -1        89 3.25330E+06 6.09527E+06 2.40632E+06 6.00564E+06-5.80862E-07-3.26178E-07
 -1        90-2.27109E+06-1.55292E+07-3.04710E+06-3.37575E+06-1.57794E-07-5.56902E-08
 -1       121-2.03895E+03-1.56225E+06-5.47823E+02 1.09571E+03 1.49225E-09-1.26092E-08
 -1       122-1.30278E+03-1.55741E+06 7.68977E+02-4.42552E+03-5.18382E-09-3.76494E-08
 -1       123-2.05869E+03-1.56238E+06 2.59494E+02 3.27242E+03 4.25212E-09-2.22208E-08
 -1       124 3.32383E+02-1.55696E+06 2.94667E+03-9.26093E+03-1.04678E-08 2.40107E-09
 -1       125-2.86696E+03-1.56328E+06 3.45571E+03 5.88514E+03 7.03585E-09-1.82190E-08
 -1       191-7.94901E+01 3.86540E+05 8.48129E+00 7.01196E-01-5.80951E-10 4.71664E-09
 -1       192-7.63955E+01 3.86523E+05 2.13055E+01-4.31094E+00-8.64899E-10 7.20502E-09
 -1       193-8.20276E+01 3.86540E+05 3.62647E+01 3.78634E+00-1.14195E-09-7.71252E-10
 -1       194-7.94863E+01 3.86526E+05 8.09951E+01-9.78210E+00-6.63112E-10 1.73650E-08
 -1       195-8.68980E+01 3.86537E+05 1.55059E+02 6.36630E+00-1.51393E-09 1.60053E-08
 -1       251-8.61399E+05 1.61069E+04-3.76041E+04-1.43450E+04 1.27041E-08 1.87447E-08
 -1       252-8.75609E+05-1.86410E+04-2.61568E+04 5.06309E+04-1.62406E-08 1.50485E-08
 -1       253-8.69793E+05 2.47067E+03-1.01335E+04-1.00920E+04 1.89607E-09 6.45596E-08
 -1       254-8.62216E+05-2.99758E+03-4.51630E+03 3.59946E+04-3.42880E-09-6.88152E-08
 -1       255-8.74176E+05 5.36187E+01-3.52324E+03 2.87622E+02 2.26555E-09 1.19252E-07
 -1       256-8.56831E+05-2.72321E+02 1.19352E+03 1.24638E+04-5.33885E-09 1.50606E-07
 -1       257-8.74737E+05-5.80385E+02-1.39004E+03 1.34274E+04 6.18820E-09 1.69377E-07
 -1       258-8.59676E+05 9.15351E+02 2.71623E+03-1.22479E+04-1.90589E-08 3.68323E-08
 -1       259-8.71581E+05-9.40665E+02 1.37508E+03 2.49969E+04 2.52180E-09 5.31503E-08
 -1       260-8.66089E+05 2.95215E+03 5.58888E+03-3.00633E+04-1.37692E-08-2.82948E-07
 -1       261-8.68962E+05-2.12558E+03 8.67957E+03 3.12592E+04 2.11631E-08-7.16000E-08
 -1       262-8.64761E+05 1.18238E+04 2.15593E+04-3.52687E+04-2.85930E-08-4.20080E-08
 -1       263-8.73161E+05-9.58360E+03 3.41589E+04 3.02118E+04-7.24680E-09 2.04638E-07
 -1       264-8.34163E+05 6.72156E+04 9.45720E+04-2.60591E+04 3.98713E-08 1.62334E-07
 -1       265-8.99061E+05-5.76503E+04 1.31692E+05 2.20373E+04 1.25684E-08 2.56005E-07
 -1       266-1.67610E+04-7.83830E+03 3.93223E+04-1.75152E+01 2.16460E-10 3.17270E-07
 -1       267 1.94304E+04 9.13442E+03 2.77944E+04 2.02108E+01 2.33285E-10-9.66240E-08
 -1       268-2.60559E+03-1.29376E+03 1.03309E+04-2.57511E+00-3.18323E-12 1.99393E-07
 -1       269 3.07642E+03 1.54827E+03 6.71505E+03 2.99973E+00-9.09495E-13 6.88209E-08
 -1       270-4.61775E+02-2.54397E+02 3.24145E+03-4.07079E-01-1.31649E-10-4.36622E-08
 -1       271-1.47344E+06-1.87723E+05-1.11017E+05-5.73474E+05-8.20364E-09-9.63482E-08
 -1       272-1.46805E+06-3.01528E+05-6.96876E+04-6.12752E+05 6.09725E-08-3.24917E-08
 -1       273-1.49691E+06-2.11234E+05-2.69369E+04-5.65451E+05-2.81143E-08-7.84348E-08
 -1       274-1.44138E+06-2.73201E+05-1.39914E+04-6.27954E+05-5.66924E-08 8.55916E-08
 -1       275-1.50251E+06-2.10768E+05-6.72000E+03-5.61681E+05 1.45010E-08 1.86082E-07
 -1       276-1.43580E+06-2.74144E+05-2.82364E+03-6.36608E+05-1.58907E-08 2.54365E-07
 -1       277-1.50533E+06-2.08127E+05-1.86317E+03-5.58953E+05-1.72986E-09 1.68813E-07
 -1       278-1.43367E+06-2.77336E+05-7.03268E+02-6.42963E+05 1.08266E-08 4.04316E-09
 -1       279-1.50713E+06-2.05977E+05-8.57137E+02-5.57043E+05-1.74732E-08-1.74754E-07
 -1       280-1.43268E+06-2.79725E+05-9.72067E+02-6.47127E+05 5.62068E-08 1.00017E-07
 -1       281-1.50808E+06-2.04630E+05-1.79705E+03-5.55975E+05-3.73802E-10-6.70854E-08
 -1       282-1.43306E+06-2.81869E+05-4.17767E+03-6.48818E+05 1.34423E-09 4.05098E-08
 -1       283-1.50758E+06-2.03425E+05-7.43681E+03-5.55858E+05-1.31228E-08 1.20984E-07
 -1       284-1.43973E+06-2.91577E+05-2.02555E+04-6.46624E+05 7.02812E-10 1.70207E-08
 -1       285-1.50130E+06-1.96094E+05-3.16418E+04-5.57644E+05-4.47399E-08 2.63761E-07
 -1       301-7.82455E+03-6.48828E+05 1.66819E+05-1.14093E+06 2.38651E-09-8.49832E-08
 -1       302-9.76395E+03-6.01874E+05 1.00393E+05-1.66520E+06-2.29411E-08 1.00816E-07
 -1       303-2.23282E+04-6.41510E+05 5.66751E+04-1.13778E+06-4.98403E-09 2.26320E-07
 -1       304-2.55840E+04-6.09088E+05 5.69510E+04-1.66464E+06 6.69388E-10 2.02359E-07
 -1       305-2.67098E+04-6.30217E+05 6.99092E+04-1.14088E+06-2.04636E-09 1.43467E-07
 -1       306-3.01409E+07-6.21949E+06-8.61304E+06-4.91427E+05-1.09430E-08 9.72068E-08
 -1       307 2.53025E+07 3.28979E+06 5.51043E+06-1.52772E+07-7.27741E-07 1.07684E-09
 -1       308-6.92113E+06-1.01556E+06-4.37891E+05 5.21271E+06-1.84897E-07 4.00221E-07
 -1       309-3.19649E+06 8.75066E+06 2.29543E+06-2.07104E+07 3.98431E-07 5.77129E-08
 -1       310-1.26483E+07-1.95648E+06-2.06165E+06 5.22191E+06 5.11063E-08-2.48489E-07
 -1       311 3.86731E+07 3.75207E+02 7.31493E+06-8.73353E+06 5.52827E-07-4.31610E-08
 -1       312-3.19948E+07-6.81643E+06-8.56826E+06-5.10292E+06 4.14671E-07 1.30225E-07
 -1       313 4.54375E+07 1.51754E+07 1.06946E+07 2.39394E+07 6.58620E-08 4.48199E-08
 -1       314-1.71714E+07-1.78691E+07-7.53337E+06-1.25452E+07 6.40983E-07 1.64728E-08
 -1       315-1.92421E+06 2.98290E+07 5.66985E+06 1.04680E+07-4.76823E-07 1.39233E-07
 -1       316 1.43457E+06-9.83246E+06-4.29092E+05-2.49344E+06-1.25435E-06-2.90776E-07
 -1       317-1.70979E+07 2.24528E+07 2.24892E+06-8.89175E+06 6.98521E-07-8.91720E-07
 -1       318-1.08503E+06-1.28508E+07-2.06409E+06-4.24213E+06-9.99979E-07 1.16765E-07
 -1       319 7.29617E+06 3.21004E+07 7.07258E+06 1.66956E+07-1.30087E-07 2.18395E-07
 -1       320-2.26512E+07-1.76949E+07-9.88646E+06-1.28461E+07 1.56928E-07-2.33413E-08
 -1       336-7.48472E+02-1.69119E+06-1.38380E+04 8.90407E+03-2.68919E-08 1.96451E-09
 -1       337-5.40710E+03-1.69073E+06-1.80552E+04-2.16311E+04-4.99765E-08-1.41281E-08
 -1       338 2.71857E+02-1.69068E+06-2.84434E+04 1.24759E+04-3.50847E-08-6.83940E-09
 -1       339-3.01839E+04-1.70795E+06-6.42819E+04-2.86285E+04-6.29261E-08 2.90147E-08
 -1       340 1.98777E+04-1.67614E+06-1.01264E+05 1.57705E+04-4.23279E-08 5.53373E-08
 -1       406-4.98100E+01 3.86523E+05 6.44417E+02 3.35336E+00-1.87033E-09-1.38498E-08
 -1       407 1.54802E+02 3.86657E+05 1.37717E+03 2.34269E+01-5.71660E-10-3.45417E-08
 -1       408 6.35050E+02 3.86422E+05 2.74597E+03-2.71000E+01-2.57751E-09 2.61934E-10
 -1       409 2.90801E+03 3.87534E+05 6.18918E+03 2.89338E+02-7.11793E-10 3.85535E-08
 -1       410 8.48314E+03 3.85632E+05 1.26318E+04-2.79020E+02-3.15231E-09 8.26549E-09
 -1       521-3.17249E+07-7.69171E+06-1.00810E+07-9.49838E+04-8.82428E-08-7.86968E-08
 -1       522 2.62097E+07 4.34184E+06 5.62919E+06-1.88180E+07-4.48636E-07-5.78293E-07
 -1       523-7.49246E+06-1.33210E+06-4.29279E+05 5.66805E+06 2.68337E-08-1.18365E-07
 -1       524-6.70402E+06 1.18506E+07 2.48810E+06-2.38021E+07 9.90825E-07-4.36848E-07
 -1       525-1.34486E+07-2.60372E+06-2.27061E+06 5.68336E+06 4.39584E-07-2.67522E-07
 -1       526 4.23048E+07-9.84111E+04 7.68807E+06-1.13915E+07 1.05239E-07-9.00764E-08
 -1       527-3.38866E+07-8.53214E+06-9.89326E+06-4.96923E+06-4.26080E-08 3.61615E-08
 -1       528 4.96857E+07 1.69590E+07 1.11723E+07 2.72752E+07 3.43425E-08-8.69913E-08
 -1       529-1.81218E+07-2.01179E+07-8.65180E+06-1.25828E+07-5.70435E-08-1.69966E-07
 -1       530-4.41421E+06 3.46956E+07 6.01099E+06 9.90363E+06-3.59534E-07 4.60132E-07
 -1       531 1.44312E+06-1.09115E+07-4.00818E+05-2.42797E+06-8.62346E-07 3.99479E-07
 -1       532-1.95971E+07 2.44758E+07 2.46281E+06-1.32428E+07 5.93514E-07-7.15372E-07
 -1       533-1.12513E+06-1.40209E+07-2.20321E+06-4.03663E+06-1.48983E-07-9.73232E-07
 -1       534 5.30291E+06 3.73254E+07 7.37321E+06 1.73004E+07-5.73345E-09 7.79750E-07
 -1       535-2.38579E+07-2.01301E+07-1.13547E+07-1.29278E+07 1.06287E-07 4.60190E-07
 -1       536-7.06270E+05-4.67391E+04-4.82824E+04-5.47125E+04-1.70940E-09 6.01949E-08
 -1       537-5.47584E+04 4.46729E+04 8.39090E+04 1.23905E+05-1.18792E-07 1.01323E-07
 -1       538-3.94415E+05 3.35245E+03 3.53408E+03-7.22307E+04 3.34962E-08 9.34924E-08
 -1       539-2.68985E+05 2.85026E+03 2.49214E+04 1.38797E+05 1.54042E-07 1.05027E-07
 -1       540-4.97425E+05-4.28315E+02-2.13440E+04-7.01400E+04-3.96362E-08 1.07185E-07
 -1       541 1.47007E+05 1.69823E+04 1.06454E+05 9.79765E+04-6.63713E-08 7.45246E-08
 -1       542-7.99198E+05-2.01481E+04-8.42934E+04-3.05345E+04 4.70718E-08 3.90191E-08
 -1       543 4.05857E+05 2.73431E+04 1.58074E+05-1.33677E+04 1.38359E-08 2.63117E-09
 -1       544-7.49332E+05-1.65480E+04-7.48853E+04 4.05340E+04-4.51132E-08-3.99046E-08
 -1       545 2.92338E+04 9.49048E+03 7.98635E+04-1.13676E+05-1.03124E-08-8.35805E-08
 -1       546-4.32690E+05 6.09922E+03-1.22365E+04 6.94267E+04 3.58502E-08-8.18081E-08
 -1       547-2.87072E+05-4.65640E+03 1.05983E+04-1.41644E+05-1.26616E-07-1.20088E-07
 -1       548-4.41530E+05 4.72067E+03-2.38902E+04 6.91939E+04-1.06491E-07-9.61145E-08
 -1       549 4.84282E+04 1.60988E+04 6.05764E+04-1.11537E+05-6.04784E-08-4.52974E-08
 -1       550-7.59213E+05-2.21687E+04-1.29024E+05 3.86033E+04 1.05902E-08-4.11910E-08
 -1       551 4.07928E+04-7.50288E+05-1.59044E+04-1.24714E+06-1.03522E-07-2.56987E-08
 -1       552 9.32732E+04-7.95279E+05 9.91154E+03-1.77825E+06-7.08242E-08 3.21306E-08
 -1       553 7.17729E+04-7.91685E+05 3.20312E+04-1.24049E+06-1.20272E-07 2.37924E-08
 -1       554 1.32073E+05-8.11185E+05 8.10456E+04-1.78020E+06-7.48259E-08 1.06229E-08
 -1       555 1.01518E+05-8.15341E+05 1.48015E+05-1.24032E+06-1.26071E-07-1.47265E-08
 -1       556 2.23805E+05-3.83823E+05 2.56622E+04-4.07342E+05-2.17115E-08-1.30094E-08
 -1       557 3.54400E+05-4.88202E+05 1.61041E+04-5.27820E+05-5.23869E-09 2.03108E-08
 -1       558 2.05559E+05-3.76595E+05 2.30156E+03-4.11800E+05-2.09548E-08-2.32249E-08
 -1       559 3.29378E+05-4.88256E+05 2.43028E+03-5.48285E+05 2.29920E-08-1.48430E-08
 -1       560 1.90241E+05-3.66990E+05-1.51180E+03-4.22838E+05 9.95351E-09 2.40543E-08
 -1       561 3.10133E+05-4.80553E+05 1.27241E+02-5.61408E+05-7.40692E-09-4.56930E-09
 -1       562 1.78130E+05-3.59466E+05-1.32920E+03-4.31608E+05-3.78350E-09 8.56016E-09
 -1       563 2.95748E+05-4.74281E+05-3.76924E+01-5.70803E+05 4.32919E-09-6.65568E-09
 -1       564 1.69486E+05-3.54080E+05-6.01771E+02-4.37733E+05 1.07684E-08 6.98674E-09
 -1       565 2.86206E+05-4.70125E+05 2.36249E+01-5.76900E+05 7.82165E-09-9.32232E-11
 -1       566 1.64433E+05-3.50884E+05-2.60684E+02-4.41268E+05-9.01491E-09-3.45062E-09
 -1       567 2.81568E+05-4.68108E+05-3.63404E+02-5.79717E+05 2.13549E-08 8.49104E-09
 -1       568 1.63062E+05-3.50044E+05-1.12776E+03-4.42323E+05 1.05501E-09-7.78891E-09
 -1       569 2.80444E+05-4.68035E+05-2.84819E+03-5.78287E+05-8.66203E-09-6.84668E-09
 -1       570 1.66465E+05-3.53281E+05-6.22606E+03-4.41301E+05 1.27911E-08 2.50493E-08
 -1       571 2.90657E+05 1.05131E+04 1.49960E+04-9.53127E+04 2.21189E-09 6.66023E-09
 -1       572 2.92830E+05 3.96367E+03 7.34927E+03-1.04568E+05-2.71939E-10-8.40737E-09
 -1       573 2.91520E+05 1.24788E+03 3.26553E+03-9.51361E+04 2.13549E-09 1.64382E-08
 -1       574 2.91734E+05 7.29317E+02 1.63764E+03-1.04792E+05 1.11777E-09-1.72104E-08
 -1       575 2.91614E+05 4.49829E+02 7.72925E+02-9.51120E+04-8.57341E-11 7.83621E-09
 -1       576 2.91598E+05 4.61315E+02 3.95744E+02-1.04822E+05-9.11541E-09 7.43967E-09
 -1       577 2.91654E+05 3.91632E+02 1.97570E+02-9.51087E+04-5.68434E-09 2.40289E-09
 -1       578 2.91629E+05 4.23130E+02 1.14163E+02-1.04827E+05-4.81668E-09-3.64525E-09
 -1       579 2.91727E+05 3.54788E+02 7.84537E+01-9.51083E+04 5.53518E-09-9.39508E-09
 -1       580 2.91731E+05 3.71908E+02 9.11321E+01-1.04822E+05-9.43783E-09 4.39195E-09
 -1       581 2.91841E+05 2.95996E+02 1.37712E+02-9.51142E+04 5.55701E-09 4.34102E-09
 -1       582 2.91907E+05 3.34378E+02 2.80045E+02-1.04760E+05 1.45519E-09 2.09748E-08
 -1       583 2.91982E+05 3.38493E+02 5.37528E+02-9.51709E+04 1.57888E-09 4.05748E-09
 -1       584 2.92283E+05 7.77563E+02 1.21640E+03-1.04283E+05 1.02882E-08-2.79829E-09
 -1       585 2.92008E+05 1.80125E+03 2.46315E+03-9.55907E+04 7.42148E-10 1.60071E-09
 -1       586-3.42467E+03 1.17030E+05-2.91207E+03-2.50797E+05-9.44283E-09-1.78281E-08
 -1       587-1.34065E+03 1.16783E+05 7.75977E+02-2.76020E+05-3.57795E-09 9.47580E-10
 -1       588 3.97485E+02 1.16588E+05 4.76610E+03-2.50659E+05-1.74805E-09-9.25138E-09
 -1       589 5.08847E+03 1.19065E+05 1.23579E+04-2.75787E+05-7.37236E-09-3.29856E-08
 -1       590 1.66248E+04 1.15253E+05 2.59218E+04-2.51090E+05-5.71890E-09-1.23582E-08
 -1       591-7.50982E+04-1.59829E+04-2.25509E+04-3.19899E+04-2.52589E-09-5.07953E-09
 -1       592-7.91961E+04-1.95393E+04-1.22154E+04-3.56133E+04 5.47459E-10 8.50309E-09
 -1       593-7.73535E+04-1.43466E+04-5.08466E+03-3.36435E+04-3.74787E-09 1.78511E-09
 -1       594-7.60825E+04-1.62301E+04-2.53584E+03-3.57311E+04 6.00441E-09-4.91764E-09
 -1       595-7.75254E+04-1.43412E+04-1.16421E+03-3.37186E+04-6.59568E-10 1.60295E-08
 -1       596-7.58693E+04-1.60788E+04-5.91607E+02-3.57058E+04 6.92592E-09 2.87645E-09
 -1       597-7.75470E+04-1.43566E+04-3.21683E+02-3.37215E+04 2.18705E-09-5.38250E-10
 -1       598-7.58483E+04-1.60728E+04-2.57744E+02-3.56987E+04-8.54322E-09-1.61118E-08
 -1       599-7.75457E+04-1.43571E+04-3.28176E+02-3.37211E+04 2.59320E-10-8.78254E-09
 -1       600-7.58694E+04-1.60793E+04-6.08795E+02-3.57036E+04 3.85671E-09 1.96945E-09
 -1       601-7.75211E+04-1.43426E+04-1.20058E+03-3.37177E+04 2.98473E-09-1.30217E-08
 -1       602-7.60892E+04-1.62343E+04-2.61631E+03-3.57259E+04-7.17830E-09-1.63283E-08
 -1       603-7.73409E+04-1.43511E+04-5.24666E+03-3.36410E+04-8.51287E-10 5.63750E-09
 -1       604-7.93195E+04-1.96291E+04-1.26037E+04-3.55795E+04 8.83574E-09 7.48514E-10
 -1       605-7.49939E+04-1.60572E+04-2.32680E+04-3.19543E+04 6.54433E-09 1.78252E-08
 -1       606 2.66123E+04-1.43411E+04-2.57088E+04 2.39432E+04 6.24641E-09-9.11336E-09
 -1       607 2.22196E+04-4.68378E+03-1.28029E+04 2.69073E+04 1.49157E-10-8.20364E-09
 -1       608 2.47232E+04-8.44932E+02-5.73141E+03 2.37750E+04-1.75169E-09-1.19521E-08
 -1       609 2.42434E+04-2.89508E+02-2.89536E+03 2.71209E+04 2.19370E-09-4.49290E-10
 -1       610 2.45096E+04-4.10589E+01-1.38140E+03 2.37550E+04 1.29248E-08 1.31422E-09
 -1       611 2.44343E+04-4.13837E+01-6.96488E+02 2.71440E+04 2.65609E-08-3.65389E-10
 -1       612 2.44625E+04-2.73991E+01-3.31079E+02 2.37529E+04 8.59927E-09 8.63793E-09
 -1       613 2.44460E+04-3.73455E+01-1.48316E+02 2.71467E+04 1.35515E-09 9.55652E-10
 -1       614 2.44404E+04-3.38738E+01-3.46578E+01 2.37522E+04-7.20684E-09 7.72457E-09
 -1       615 2.44408E+04-3.58987E+01 6.24574E+01 2.71472E+04-1.70903E-08-1.06174E-08
 -1       616 2.44231E+04-3.07827E+01 1.87018E+02 2.37525E+04-6.98401E-09-1.10776E-08
 -1       617 2.44633E+04 3.91288E+00 4.26583E+02 2.71467E+04 1.77806E-09-2.13872E-08
 -1       618 2.43861E+04 9.21608E+01 8.59807E+02 2.37528E+04-3.62752E-09-7.30506E-09
 -1       619 2.47669E+04 6.68690E+02 1.93074E+03 2.71461E+04-7.02482E-09-3.17118E-09
 -1       620 2.41005E+04 2.13096E+03 3.88072E+03 2.37544E+04 8.86189E-10-7.46240E-09
 -1       621 5.11501E+02 3.01578E+05 3.88618E+03 4.11327E+04 1.08776E-09 2.64026E-09
 -1       622 6.78162E+02 3.02475E+05 3.44916E+03 5.97152E+04 1.43336E-09-1.34742E-09
 -1       623 1.43487E+02 3.01772E+05 4.14489E+03 4.09466E+04 1.34446E-09-4.60295E-09
 -1       624 2.12891E+03 3.03693E+05 8.03552E+03 5.98984E+04 1.36703E-09-1.10897E-08
 -1       625 2.07973E+03 3.00178E+05 1.40418E+04 4.09434E+04 1.58161E-09 9.69112E-09
 -1       626 2.61082E+05 6.14149E+04 5.12873E+03 1.26776E+05 6.37874E-09 1.96796E-08
 -1       627 2.58769E+05 6.28061E+04 2.47149E+03 1.31046E+05 8.52651E-10 1.09529E-08
 -1       628 2.61210E+05 5.90686E+04 1.04527E+03 1.27648E+05-9.17771E-09-3.17459E-09
 -1       629 2.58133E+05 6.21244E+04 5.11596E+02 1.31287E+05-8.49832E-09 2.01868E-08
 -1       630 2.61224E+05 5.89552E+04 2.37415E+02 1.27685E+05-1.83263E-09 1.78716E-10
 -1       631 2.58066E+05 6.20984E+04 1.27878E+02 1.31288E+05 2.95427E-09 2.22689E-08
 -1       632 2.61221E+05 5.89591E+04 8.43513E+01 1.27681E+05 6.76891E-09-1.14815E-08
 -1       633 2.58058E+05 6.21002E+04 9.42826E+01 1.31285E+05 5.28075E-09-1.75114E-08
 -1       634 2.61216E+05 5.89563E+04 1.52642E+02 1.27680E+05-6.94786E-09-9.68589E-09
 -1       635 2.58072E+05 6.20985E+04 3.09041E+02 1.31290E+05-6.17217E-09 8.00355E-10
 -1       636 2.61207E+05 5.89504E+04 6.24197E+02 1.27680E+05 4.35602E-09 2.48838E-09
 -1       637 2.58207E+05 6.21955E+04 1.37252E+03 1.31290E+05-3.07227E-09 1.06766E-08
 -1       638 2.61159E+05 5.92536E+04 2.82002E+03 1.27543E+05-4.78394E-10-1.12714E-08
 -1       639 2.59688E+05 6.42558E+04 6.67231E+03 1.30854E+05 2.98496E-09 2.22519E-08
 -1       640 2.60954E+05 6.54059E+04 1.38462E+04 1.24951E+05 3.95130E-09 1.08571E-08
 -1       656 6.65958E+04-1.70449E+06-1.60759E+05-2.56517E+03 1.45519E-11-9.86006E-09
 -1       657-8.81021E+04-1.77713E+06-1.33182E+05 5.15317E+03-8.87667E-10-2.11442E-08
 -1       658 2.12300E+04-1.72512E+06-8.20278E+04-4.64985E+03 6.92125E-10-5.19542E-09
 -1       659-9.52802E+04-1.78054E+06-1.42616E+05 6.88594E+03-1.11322E-09 1.88958E-09
 -1       660 7.37579E+04-1.70109E+06-1.76977E+05-4.29793E+03-1.56433E-09-2.46081E-09
 -1       661 1.58056E+05 1.65291E+04 1.66782E+04 6.17835E+04 1.40562E-09 7.09952E-09
 -1       662 1.67432E+05 2.89328E+04 1.12399E+04 5.81018E+04-1.11839E-09 1.60026E-09
 -1       663 1.61331E+05 2.18801E+04 3.93106E+03 6.08331E+04 1.06809E-09-4.34875E-09
 -1       664 1.63634E+05 2.26751E+04 2.35161E+03 5.92626E+04 1.68566E-09-8.80252E-09
 -1       665 1.61828E+05 2.26111E+04 9.27801E+02 6.06883E+04-1.14630E-09-6.90574E-09
 -1       666 1.63047E+05 2.18392E+04 5.43287E+02 5.94516E+04 1.18428E-08 5.83001E-09
 -1       667 1.61915E+05 2.26942E+04 2.89137E+02 6.06520E+04 2.39623E-09-6.41342E-09
 -1       668 1.62951E+05 2.17798E+04 2.95741E+02 5.95046E+04-1.29097E-09-3.25464E-08
 -1       669 1.61923E+05 2.26688E+04 4.01392E+02 6.06356E+04-2.21138E-09 1.50999E-08
 -1       670 1.63048E+05 2.19984E+04 8.74936E+02 5.95078E+04-9.60813E-09 2.38548E-08
 -1       671 1.61817E+05 2.24802E+04 1.55380E+03 6.06467E+04 7.62235E-10 2.12310E-09
 -1       672 1.63953E+05 2.35107E+04 3.97565E+03 5.92891E+04 3.83262E-09 1.32819E-08
 -1       673 1.61022E+05 2.11947E+04 6.66259E+03 6.08397E+04 3.34001E-09-5.36602E-09
 -1       674 1.70293E+05 3.42160E+04 1.90537E+04 5.74274E+04-6.53472E-10-1.36145E-08
 -1       675 1.55518E+05 1.20747E+04 2.82824E+04 6.23961E+04-3.03089E-09-7.01402E-09
 -1       676 2.38007E+01-2.95945E+05-1.09890E+03-1.38605E+02-1.57257E-10-9.17825E-09
 -1       677-2.90648E+02-2.96210E+05-2.01118E+03 2.76986E+02 7.97041E-09-1.54343E-08
 -1       678 1.94972E+02-2.95755E+05-3.55526E+03-1.38291E+02 3.09615E-09-8.86044E-09
 -1       679-3.55529E+03-2.98356E+05-8.44583E+03 2.75770E+02 7.03653E-09-1.41979E-08
 -1       680 2.12274E+03-2.93800E+05-1.36118E+04-1.35881E+02 1.15870E-09 7.37565E-09
 -1       771-3.06267E+06-7.47535E+05-1.66064E+05-1.46624E+06-3.08501E-08-2.77068E-08
 -1       772-2.98551E+06-8.36436E+05-8.56176E+04-1.56903E+06-2.32249E-08 1.33332E-08
 -1       773-3.09419E+06-7.22956E+05-4.36462E+04-1.48080E+06-1.58034E-08 9.51695E-09
 -1       774-2.97598E+06-8.17889E+05-1.94727E+04-1.59482E+06 2.52621E-08-7.34872E-10
 -1       775-3.11066E+06-7.11404E+05-1.45664E+04-1.48787E+06-6.25732E-09 3.26690E-09
 -1       776-2.98835E+06-8.14847E+05-5.44719E+03-1.61434E+06-3.66708E-09 2.85218E-09
 -1       777-3.12495E+06-7.01092E+05-6.43627E+03-1.49410E+06 3.05590E-09 3.47791E-09
 -1       778-3.00126E+06-8.12018E+05-1.81974E+03-1.63111E+06 8.65839E-09 7.83257E-09
 -1       779-3.13723E+06-6.92081E+05-3.21653E+03-1.49942E+06-1.29221E-08-1.12486E-08
 -1       780-3.01263E+06-8.09320E+05-5.33482E+02-1.64477E+06-1.12341E-08 3.23053E-09
 -1       781-3.14700E+06-6.84816E+05-1.24976E+03-1.50359E+06-2.91620E-08-1.61890E-09
 -1       782-3.02139E+06-8.07028E+05 4.50141E+02-1.65485E+06-2.71611E-08-9.13769E-09
 -1       783-3.15388E+06-6.79768E+05 7.00580E+02-1.50650E+06 6.14818E-09-1.64841E-08
 -1       784-3.02625E+06-8.04740E+05 2.90507E+03-1.66108E+06-1.60326E-08-8.39100E-09
 -1       785-3.15795E+06-6.76757E+05 5.12832E+03-1.50835E+06-3.53721E-08 5.77165E-09
 -1       786 1.23568E+05-9.76637E+03 2.25955E+04-3.22555E+02 2.30294E-10 2.40689E-08
 -1       787 1.33367E+05 1.13073E+04 1.59853E+04-1.35773E+02 6.36033E-09 1.25754E-08
 -1       788 1.27346E+05-1.53041E+03 5.84593E+03-2.87423E+02 3.50788E-09 1.73841E-08
 -1       789 1.28966E+05 1.77142E+03 3.66986E+03-1.89596E+02-4.02426E-09 1.21004E-08
 -1       790 1.27970E+05-2.38279E+02 1.48587E+03-2.68748E+02-5.75477E-09 2.11317E-08
 -1       791 1.28236E+05 2.75696E+02 8.58206E+02-2.21546E+02-8.03406E-09-1.50789E-08
 -1       792 1.28076E+05-3.58082E+01 3.63680E+02-2.55475E+02-2.31645E-09-1.71568E-10
 -1       793 1.28110E+05 3.78417E+01 1.81317E+02-2.46505E+02 7.06283E-10-8.47692E-09
 -1       794 1.28096E+05-5.74678E-01 4.71501E+01-2.43789E+02 4.51339E-09 2.05462E-09
 -1       795 1.28073E+05-2.74486E+01-5.77585E+01-2.70875E+02-4.40649E-09 1.76533E-09
 -1       796 1.28113E+05 2.94455E+01-1.62703E+02-2.31105E+02 5.70880E-09-1.20447E-08
 -1       797 1.27978E+05-2.19823E+02-4.46623E+02-2.99988E+02 4.94294E-09-1.36025E-08
 -1       798 1.28191E+05 1.91656E+02-7.25308E+02-2.14676E+02 2.63888E-09 3.08566E-09
 -1       799 1.27428E+05-1.41267E+03-1.99541E+03-3.40656E+02 5.92100E-09 5.78842E-09
 -1       800 1.28663E+05 1.22132E+03-2.82391E+03-1.90439E+02 1.51692E-10 2.17304E-08
 -1       801-1.71317E+05-9.99864E+06-1.39363E+06 1.41558E+06 9.13860E-08-5.49298E-08
 -1       802 7.38412E+05 5.95127E+06 2.18195E+06-1.74754E+06 2.58442E-07-4.10282E-08
 -1       803-5.36692E+05-1.42674E+07-1.89064E+06 8.98389E+05 7.71761E-08 3.37786E-08
 -1       804 2.87235E+05 2.39531E+06 1.53736E+06 6.77161E+05-1.20679E-07-8.79681E-08
 -1       805 1.89347E+05-6.45678E+06-2.86309E+05-1.00346E+06-4.99567E-08-6.81912E-08
 -1       806-3.09006E+05-5.97669E+04-2.28588E+04-1.22436E+05-5.76347E-09-2.00180E-09
 -1       807-3.10805E+05-5.60346E+04-1.12303E+04-1.27981E+05 4.48767E-09-7.17634E-10
 -1       808-3.09633E+05-5.15288E+04-4.76425E+03-1.26330E+05-4.15594E-09 4.84397E-09
 -1       809-3.08444E+05-5.28790E+04-2.32960E+03-1.28257E+05-1.22870E-08-1.08353E-08
 -1       810-3.09728E+05-5.12420E+04-1.06779E+03-1.26502E+05 9.87075E-09 5.64251E-09
 -1       811-3.08261E+05-5.27523E+04-5.31032E+02-1.28221E+05 4.83851E-09 9.13383E-09
 -1       812-3.09742E+05-5.12667E+04-2.68654E+02-1.26502E+05-5.93263E-09-7.48878E-09
 -1       813-3.08236E+05-5.27544E+04-1.74733E+02-1.28203E+05-5.05270E-09-1.37074E-08
 -1       814-3.09735E+05-5.12764E+04-1.73381E+02-1.26497E+05 9.79526E-10 7.98263E-09
 -1       815-3.08240E+05-5.27567E+04-2.79539E+02-1.28195E+05 3.81988E-09 1.55524E-08
 -1       816-3.09714E+05-5.12755E+04-5.29945E+02-1.26494E+05 1.40062E-09 1.18171E-08
 -1       817-3.08330E+05-5.28072E+04-1.13737E+03-1.28183E+05-1.51545E-08-2.38265E-09
 -1       818-3.09645E+05-5.14361E+04-2.31987E+03-1.26418E+05-3.31966E-09-2.63435E-09
 -1       819-3.09599E+05-5.42088E+04-5.45847E+03-1.27883E+05 1.66983E-09-4.04157E-09
 -1       820-3.09207E+05-5.55596E+04-1.11100E+04-1.24657E+05 2.58296E-10-1.92199E-09
 -1       821-3.78912E+05 2.08696E+04-4.85794E+04 2.12669E+03 1.42194E-08 7.23594E-09
 -1       822-3.98623E+05-2.41762E+04-3.41416E+04-4.44976E+03 6.05267E-09-2.75322E-08
 -1       823-3.86379E+05 3.28968E+03-1.25478E+04 3.43347E+03-1.17536E-08-3.69846E-09
 -1       824-3.89610E+05-3.79363E+03-7.85424E+03-5.35829E+03 1.10163E-09 1.58821E-10
 -1       825-3.87932E+05 5.11205E+02-3.28893E+03 3.03534E+03 1.85699E-08 2.42017E-09
 -1       826-3.87180E+05-5.67392E+02-1.74474E+03-3.08777E+03 2.54190E-08 1.67367E-09
 -1       827-3.88784E+05 4.69547E+01-1.18947E+03 1.16281E+03 1.06470E-08-7.46874E-09
 -1       828-3.86477E+05-1.32242E+02-5.87339E+02 1.09820E+03 2.95330E-10 8.24404E-10
 -1       829-3.88622E+05 6.60445E+01-1.17855E+03-1.15066E+03 5.44674E-10-4.16713E-09
 -1       830-3.87530E+05-6.22297E+02-1.88328E+03 4.87938E+03-3.25983E-10-9.91662E-10
 -1       831-3.87753E+05 5.54582E+02-3.37152E+03-2.61839E+03-7.32322E-09 1.38589E-08
 -1       832-3.89690E+05-3.96132E+03-8.15884E+03 6.15686E+03-3.55680E-09 1.49699E-08
 -1       833-3.86478E+05 3.41456E+03-1.30546E+04-2.42818E+03-2.42301E-09 1.99125E-08
 -1       834-3.98686E+05-2.50956E+04-3.53727E+04 4.18737E+03-4.59153E-09 2.68483E-09
 -1       835-3.78741E+05 2.16560E+04-5.04611E+04-6.48828E+02 4.94666E-09-7.34872E-10
 -1       836-1.41477E+03 3.70380E+05 2.29206E+04-1.61234E+04-7.23230E-09-1.17034E-08
 -1       837 4.88586E+03 3.77559E+05 1.93912E+04-3.29516E+04-7.90851E-09 1.57161E-09
 -1       838-5.58344E+02 3.72393E+05 1.97517E+04-1.60519E+04-6.20776E-09 6.58974E-09
 -1       839 1.24280E+04 3.83176E+05 3.73589E+04-3.30042E+04-6.85031E-09 1.65045E-08
 -1       840-3.84254E+03 3.64703E+05 5.95713E+04-1.60768E+04-6.28643E-09 9.47081E-09
 -1       856-5.50953E+04 8.13097E+03-2.14269E+04-4.00492E+02 5.86340E-09 1.09130E-08
 -1       857-6.39223E+04-9.55369E+03-1.47501E+04 5.71122E+03 2.46106E-09-1.56974E-08
 -1       858-5.85911E+04 1.14029E+03-5.55982E+03-4.25742E+02 4.61466E-09 5.89853E-09
 -1       859-5.99105E+04-1.34153E+03-3.35515E+03 5.74888E+03-3.42554E-09 1.24246E-08
 -1       860-5.91134E+04 1.59699E+02-1.40629E+03-4.37875E+02 2.53095E-10 2.52119E-08
 -1       861-5.93099E+04-1.90673E+02-7.73910E+02 5.76540E+03 6.52494E-09 2.27409E-08
 -1       862-5.91951E+04 2.16626E+01-3.22278E+02-4.42244E+02 1.93689E-09 1.29063E-09
 -1       863-5.92098E+04-2.23692E+01-1.18700E+02 5.76787E+03 9.09662E-10-1.29651E-08
 -1       864-5.92139E+04-4.78158E+00 4.48836E+01-4.40344E+02-4.08811E-09 2.19632E-09
 -1       865-5.91540E+04 5.88428E+01 2.52102E+02 5.75723E+03 6.85247E-10 1.35048E-08
 -1       866-5.92486E+04-5.96334E+01 5.09508E+02-4.31601E+02 9.78616E-10 1.03213E-08
 -1       867-5.89137E+04 4.92117E+02 1.25519E+03 5.73351E+03-3.80510E-09 1.04166E-08
 -1       868-5.94491E+04-4.30376E+02 2.08584E+03-4.16622E+02-1.62407E-09-1.81296E-09
 -1       869-5.73838E+04 3.58103E+03 5.55450E+03 5.69462E+03 4.29691E-09-1.47709E-08
 -1       870-6.07705E+04-3.06486E+03 8.06052E+03-3.92609E+02-3.80669E-09-7.02767E-09
 -1       871-5.52833E+03-2.15218E+04-1.95278E+04 1.30320E+05-3.59614E-09 3.61979E-09
 -1       872-1.98608E+03-2.60623E+04-8.18034E+03 1.68980E+05-1.03973E-08-1.51704E-09
 -1       873 4.05584E+02-2.38654E+04 5.82212E+02 1.30034E+05-6.09680E-09-1.62343E-08
 -1       874 3.30730E+03-2.14548E+04 9.77771E+03 1.69009E+05-1.19644E-08 2.76236E-09
 -1       875 6.84854E+03-2.61960E+04 2.20648E+04 1.30272E+05-4.98949E-09-2.40771E-08
 -1       876 2.94867E+05 4.95626E+04 1.51903E+04 1.18144E+05 4.71209E-09 1.11513E-08
 -1       877 2.95932E+05 5.27005E+04 8.11218E+03 1.22431E+05 1.08453E-08 7.89328E-09
 -1       878 2.96287E+05 4.78804E+04 3.39860E+03 1.19389E+05-1.73122E-09 4.13615E-09
 -1       879 2.93868E+05 5.06390E+04 1.69336E+03 1.22533E+05 7.83780E-09 1.01418E-08
 -1       880 2.96389E+05 4.78630E+04 7.88689E+02 1.19440E+05 2.07410E-09 1.38127E-08
 -1       881 2.93731E+05 5.05508E+04 4.21077E+02 1.22509E+05-9.69771E-09-1.49555E-08
 -1       882 2.96398E+05 4.78764E+04 2.69197E+02 1.19441E+05-2.58478E-09-1.27178E-09
 -1       883 2.93722E+05 5.05462E+04 2.89129E+02 1.22501E+05-7.93682E-09 3.16931E-08
 -1       884 2.96391E+05 4.78736E+04 4.59694E+02 1.19442E+05-1.76976E-09 3.28180E-09
 -1       885 2.93758E+05 5.05525E+04 9.24080E+02 1.22512E+05-9.05897E-09-3.85896E-08
 -1       886 2.96355E+05 4.78468E+04 1.86238E+03 1.19438E+05-1.80925E-09-2.06562E-08
 -1       887 2.94085E+05 5.07671E+04 4.06806E+03 1.22559E+05 5.91638E-09 1.30385E-08
 -1       888 2.96098E+05 4.78921E+04 8.19726E+03 1.19308E+05-9.80002E-10 1.57170E-08
 -1       889 2.98964E+05 5.58434E+04 1.95816E+04 1.22411E+05 3.96867E-09 1.78334E-08
 -1       890 2.92753E+05 5.18654E+04 3.66760E+04 1.16187E+05-2.58615E-09-1.17507E-09
 -1       891-8.43066E+01-1.66429E+05-2.17513E+03 2.68151E+04-5.78484E-09 1.33227E-08
 -1       892-2.09217E+02-1.67012E+05-2.28458E+03 4.14115E+04-9.94078E-09 4.36030E-08
 -1       893 4.74274E+01-1.66510E+05-3.16668E+03 2.68224E+04-5.74937E-09 1.39535E-08
 -1       894-1.59941E+03-1.68195E+05-6.52229E+03 4.12584E+04-4.73074E-09-2.06155E-08
 -1       895-1.07884E+03-1.65145E+05-1.14113E+04 2.69700E+04-8.56971E-10-1.33341E-08
 -1       956-3.77389E+05-5.45213E+03-1.34587E+04 3.08783E+04 8.85575E-09 2.90493E-09
 -1       957-3.80029E+05-1.92336E+03-6.90814E+03 3.71076E+04-1.05865E-09-7.35008E-09
 -1       958-3.78598E+05-2.41054E+02-3.11303E+03 3.07106E+04-5.07862E-09-1.08012E-08
 -1       959-3.78795E+05-1.36345E+02-1.58956E+03 3.73032E+04-1.73031E-09-1.99698E-08
 -1       960-3.78716E+05-4.48481E+01-7.75136E+02 3.06933E+04 6.94490E-09 7.48832E-09
 -1       961-3.78714E+05-6.32765E+01-4.10954E+02 3.73237E+04 1.45301E-08 2.04705E-09
 -1       962-3.78744E+05-4.60740E+01-2.35254E+02 3.06904E+04 4.00541E-09-8.36144E-09
 -1       963-3.78715E+05-5.90865E+01-1.88805E+02 3.73273E+04 5.60328E-09-1.45360E-08
 -1       964-3.78749E+05-4.27276E+01-2.29547E+02 3.06897E+04-1.14696E-09-1.45949E-08
 -1       965-3.78727E+05-5.61370E+01-3.96977E+02 3.73266E+04-6.60754E-09 6.96605E-09
 -1       966-3.78733E+05-3.49052E+01-7.45885E+02 3.06912E+04 9.05493E-09-5.74960E-09
 -1       967-3.78816E+05-1.19676E+02-1.52978E+03 3.73122E+04 1.15119E-08 1.01409E-08
 -1       968-3.78629E+05-2.17351E+02-2.99476E+03 3.07039E+04 1.00054E-08 8.94590E-09
 -1       969-3.80016E+05-1.83389E+03-6.64827E+03 3.71636E+04 1.02164E-08-4.29173E-09
 -1       970-3.77473E+05-5.22844E+03-1.29512E+04 3.08312E+04 4.15639E-09 1.40799E-08
 -1       971-3.45758E+05-1.72971E+03-9.32438E+03 1.52146E+04 7.48150E-09 9.29727E-09
 -1       972-3.48003E+05-1.27330E+03-5.07799E+03 2.10376E+04 4.16640E-09 1.67929E-08
 -1       973-3.46797E+05-6.18514E+01-2.27448E+03 1.50939E+04 7.82165E-11 1.41367E-08
 -1       974-3.46932E+05-8.09001E+01-1.17902E+03 2.11742E+04-3.64480E-10 3.47213E-08
 -1       975-3.46879E+05-1.70128E+01-5.89829E+02 1.50816E+04-1.54296E-09-3.27532E-10
 -1       976-3.46871E+05-3.10513E+01-3.41140E+02 2.11900E+04 7.12680E-09 3.17073E-09
 -1       977-3.46895E+05-1.62945E+01-2.49119E+02 1.50782E+04-3.63661E-09-1.47486E-08
 -1       978-3.46876E+05-2.48057E+01-2.93576E+02 2.11949E+04-4.28963E-09-1.63824E-08
 -1       979-3.46895E+05-7.75359E+00-4.73450E+02 1.50767E+04-5.07794E-09 1.61638E-08
 -1       980-3.46912E+05-2.16446E+01-9.15269E+02 2.11960E+04-3.82441E-09 1.68234E-08
 -1       981-3.46866E+05 1.52513E+01-1.77322E+03 1.50771E+04-1.56660E-10 1.00983E-08
 -1       982-3.47155E+05-1.52490E+02-3.66556E+03 2.11896E+04-3.44698E-10-4.76820E-09
 -1       983-3.46643E+05-9.80889E+01-7.12234E+03 1.50830E+04-1.77852E-09-7.13180E-09
 -1       984-3.50581E+05-3.87206E+03-1.59503E+04 2.11059E+04-4.98312E-09 7.83893E-09
 -1       985-3.43419E+05-5.30954E+03-2.92897E+04 1.51526E+04-6.56837E-09 1.36970E-09
 -3
    1PSTEP                        31          16           1          
  100CL  116 6.63036E-01         409                     0   16           1
 -4  DISP        4    1
 -5  D1          1    2    1    0
 -5  D2          1    2    2    0
 -5  D3          1    2    3    0
 -5  ALL         1    2    0    0    1ALL
 -1         1 2.72350E-03 0.00000E+00 0.00000E+00
 -1         2 1.34105E-03-9.28118E-28 0.00000E+00
 -1         3 3.42766E-04-5.50372E-28-1.32349E-23
 -1         5 1.77149E-04-1.90970E-27-8.27181E-25
 -1         8 2.71270E-03-4.03628E-07 0.00000E+00
 -1         9 2.70601E-03-1.95841E-04 0.00000E+00
 -1        10 3.10804E-04-3.40039E-06-1.32349E-23
 -1        12 1.78997E-04 8.09530E-07-4.13590E-25
 -1        15 2.70035E-03-4.27041E-07 0.00000E+00
 -1        16 2.77416E-03-1.97690E-04 0.00000E+00
 -1        17 2.11516E-04-7.75601E-06 0.00000E+00
 -1        18 1.82948E-04 3.44352E-05 0.00000E+00
 -1        19 1.84542E-04 1.61264E-06 0.00000E+00
 -1        20 1.84681E-04-9.89487E-06 0.00000E+00
 -1        21 1.83725E-04-2.54102E-05 0.00000E+00
 -1        24 3.06139E-05-1.19805E-05 0.00000E+00
 -1        25 1.93739E-04 3.46611E-05 0.00000E+00
 -1        26 1.94418E-04 2.23301E-06 0.00000E+00
 -1        27 1.92218E-04-1.34543E-05 0.00000E+00
 -1        28 1.91886E-04-2.60325E-05 0.00000E+00
 -1        32 0.00000E+00 0.00000E+00 0.00000E+00
 -1        33 2.03292E-04 2.98710E-06 0.00000E+00
 -1        34 2.01172E-04-1.35108E-05 0.00000E+00
 -1        35 1.99238E-04-2.63825E-05 0.00000E+00
 -1        51 2.72277E-03-8.47500E-08 1.65436E-24
 -1        52 2.72145E-03-1.51067E-07 0.00000E+00
 -1        53 2.71965E-03-2.13897E-07 0.00000E+00
 -1        54 2.71750E-03-2.75474E-07 0.00000E+00
 -1        55 2.71514E-03-3.37562E-07-8.27181E-25
 -1        56 2.71561E-03 8.96990E-06 5.29396E-23
 -1        57 2.69997E-03 3.70171E-05-5.29396E-23
 -1        58 2.67894E-03 7.81572E-05 0.00000E+00
 -1        59 2.65538E-03 1.25160E-04-5.29396E-23
 -1        60 2.63282E-03 1.69789E-04 1.05879E-22
 -1        61 2.61465E-03 2.04000E-04-5.29396E-23
 -1        62 2.60317E-03 2.21608E-04 1.05879E-22
 -1        63 2.59989E-03 2.17910E-04 0.00000E+00
 -1        64 2.60457E-03 1.92115E-04 0.00000E+00
 -1        65 2.61628E-03 1.45530E-04-5.29396E-23
 -1        66 2.63296E-03 8.34185E-05 1.05879E-22
 -1        67 2.65233E-03 1.25756E-05-5.29396E-23
 -1        68 2.67176E-03-5.85034E-05 1.05879E-22
 -1        69 2.68869E-03-1.21294E-04 5.29396E-23
 -1        70 2.70075E-03-1.68887E-04 0.00000E+00
 -1        86 1.42689E-03-6.18266E-06 0.00000E+00
 -1        87 1.67514E-03-3.89009E-05-2.64698E-23
 -1        88 2.00894E-03-9.51560E-05 0.00000E+00
 -1        89 2.34729E-03-1.52980E-04-1.32349E-23
 -1        90 2.60653E-03-1.88367E-04 0.00000E+00
 -1       121 3.41869E-04-5.48986E-07 1.32349E-23
 -1       122 3.39180E-04-1.10106E-06 6.61744E-24
 -1       123 3.34709E-04-1.65927E-06-1.32349E-23
 -1       124 3.28473E-04-2.22665E-06 0.00000E+00
 -1       125 3.20494E-04-2.80585E-06 1.32349E-23
 -1       191 1.77200E-04 1.34986E-07-1.65436E-24
 -1       192 1.77354E-04 2.69960E-07 4.13590E-25
 -1       193 1.77611E-04 4.04914E-07-2.48154E-24
 -1       194 1.77970E-04 5.39835E-07 1.65436E-24
 -1       195 1.78432E-04 6.74712E-07-3.30872E-24
 -1       251 2.71240E-03 1.63030E-06 6.61744E-24
 -1       252 2.71209E-03 3.52479E-06 3.30872E-24
 -1       253 2.71179E-03 4.28782E-06 0.00000E+00
 -1       254 2.71148E-03 2.94141E-06-3.30872E-24
 -1       255 2.71117E-03-1.17381E-06 6.61744E-24
 -1       256 2.71084E-03-8.68270E-06 0.00000E+00
 -1       257 2.71048E-03-1.96978E-05 0.00000E+00
 -1       258 2.71007E-03-3.42880E-05 0.00000E+00
 -1       259 2.70962E-03-5.19829E-05 0.00000E+00
 -1       260 2.70911E-03-7.22732E-05 0.00000E+00
 -1       261 2.70858E-03-9.42575E-05 1.32349E-23
 -1       262 2.70802E-03-1.17014E-04 0.00000E+00
 -1       263 2.70747E-03-1.39505E-04 1.32349E-23
 -1       264 2.70695E-03-1.60693E-04 0.00000E+00
 -1       265 2.70647E-03-1.79743E-04 0.00000E+00
 -1       266 2.71064E-03-4.13138E-07-1.65436E-24
 -1       267 2.70858E-03-4.16356E-07 0.00000E+00
 -1       268 2.70653E-03-4.19973E-07 0.00000E+00
 -1       269 2.70447E-03-4.22410E-07 0.00000E+00
 -1       270 2.70241E-03-4.24820E-07 0.00000E+00
 -1       271 2.71186E-03 4.83073E-08 0.00000E+00
 -1       272 2.71201E-03-2.16607E-06-6.61744E-24
 -1       273 2.71309E-03-6.88783E-06 0.00000E+00
 -1       274 2.71502E-03-1.39456E-05 0.00000E+00
 -1       275 2.71774E-03-2.31469E-05 0.00000E+00
 -1       276 2.72116E-03-3.42840E-05-1.32349E-23
 -1       277 2.72521E-03-4.71328E-05 0.00000E+00
 -1       278 2.72979E-03-6.14559E-05 0.00000E+00
 -1       279 2.73480E-03-7.70043E-05 0.00000E+00
 -1       280 2.74016E-03-9.35190E-05 0.00000E+00
 -1       281 2.74578E-03-1.10733E-04 0.00000E+00
 -1       282 2.75154E-03-1.28374E-04 0.00000E+00
 -1       283 2.75736E-03-1.46167E-04 0.00000E+00
 -1       284 2.76313E-03-1.63834E-04 0.00000E+00
 -1       285 2.76876E-03-1.81100E-04 0.00000E+00
 -1       301 2.71840E-03-1.96184E-04-1.32349E-23
 -1       302 2.72912E-03-1.96480E-04 3.30872E-24
 -1       303 2.73912E-03-1.96766E-04 0.00000E+00
 -1       304 2.74934E-03-1.97052E-04 6.61744E-24
 -1       305 2.76071E-03-1.97352E-04 0.00000E+00
 -1       306 2.74405E-03-3.51090E-04-1.05879E-22
 -1       307 2.80791E-03-7.65900E-04 5.29396E-23
 -1       308 2.85449E-03-1.37178E-03-1.05879E-22
 -1       309 2.87829E-03-2.07249E-03 5.29396E-23
 -1       310 2.90968E-03-2.74217E-03-1.05879E-22
 -1       311 2.96925E-03-3.25766E-03 0.00000E+00
 -1       312 3.02694E-03-3.53843E-03 1.05879E-22
 -1       313 3.02164E-03-3.54688E-03 0.00000E+00
 -1       314 2.87941E-03-3.29533E-03-1.05879E-22
 -1       315 2.55948E-03-2.84855E-03 0.00000E+00
 -1       316 2.08051E-03-2.28325E-03-1.05879E-22
 -1       317 1.50876E-03-1.66872E-03 0.00000E+00
 -1       318 9.58785E-04-1.06543E-03-1.05879E-22
 -1       319 5.38703E-04-5.38329E-04 0.00000E+00
 -1       320 2.92250E-04-1.61612E-04 1.05879E-22
 -1       336 2.99213E-04-4.05776E-06 0.00000E+00
 -1       337 2.85547E-04-4.74084E-06 0.00000E+00
 -1       338 2.69866E-04-5.45184E-06 0.00000E+00
 -1       339 2.52245E-04-6.19159E-06 6.61744E-24
 -1       340 2.32764E-04-6.96455E-06 1.32349E-23
 -1       406 1.79664E-04 9.44272E-07-2.48154E-24
 -1       407 1.80434E-04 1.07890E-06 1.24077E-24
 -1       408 1.81308E-04 1.21336E-06 8.27181E-25
 -1       409 1.82283E-04 1.34748E-06-6.20385E-25
 -1       410 1.83362E-04 1.48099E-06 2.89513E-24
 -1       521 2.81278E-03-3.62238E-04 0.00000E+00
 -1       522 2.87484E-03-7.97486E-04 0.00000E+00
 -1       523 2.91488E-03-1.43149E-03 0.00000E+00
 -1       524 2.92933E-03-2.16121E-03 0.00000E+00
 -1       525 2.95270E-03-2.85787E-03-1.05879E-22
 -1       526 3.00869E-03-3.39567E-03 5.29396E-23
 -1       527 3.06597E-03-3.68713E-03 2.11758E-22
 -1       528 3.05833E-03-3.69372E-03-5.29396E-23
 -1       529 2.90387E-03-3.42778E-03 2.11758E-22
 -1       530 2.55953E-03-2.96217E-03-5.29396E-23
 -1       531 2.04483E-03-2.37745E-03 0.00000E+00
 -1       532 1.43256E-03-1.74548E-03-5.29396E-23
 -1       533 8.42775E-04-1.12409E-03 1.05879E-22
 -1       534 3.88876E-04-5.75853E-04 0.00000E+00
 -1       535 1.20932E-04-1.79375E-04 2.11758E-22
 -1       536 2.10761E-04 2.71752E-05 0.00000E+00
 -1       537 2.08842E-04 8.76261E-05 0.00000E+00
 -1       538 2.05878E-04 1.64329E-04 0.00000E+00
 -1       539 2.02381E-04 2.47930E-04 1.65436E-24
 -1       540 1.99234E-04 3.26927E-04 0.00000E+00
 -1       541 1.97188E-04 3.89838E-04 1.65436E-24
 -1       542 1.96245E-04 4.29908E-04-3.30872E-24
 -1       543 1.96019E-04 4.40531E-04 0.00000E+00
 -1       544 1.95697E-04 4.22484E-04-3.30872E-24
 -1       545 1.94524E-04 3.76759E-04 1.65436E-24
 -1       546 1.92339E-04 3.11484E-04 0.00000E+00
 -1       547 1.89380E-04 2.34908E-04-1.65436E-24
 -1       548 1.86448E-04 1.58709E-04 3.30872E-24
 -1       549 1.84333E-04 9.45632E-05 0.00000E+00
 -1       550 1.83235E-04 5.05034E-05-1.65436E-24
 -1       551 1.86309E-04-8.32524E-06 0.00000E+00
 -1       552 1.57857E-04-8.97496E-06 0.00000E+00
 -1       553 1.27102E-04-9.68695E-06-3.30872E-24
 -1       554 9.50044E-05-1.04401E-05 0.00000E+00
 -1       555 6.25233E-05-1.12070E-05 0.00000E+00
 -1       556 2.03866E-04 1.18046E-05 0.00000E+00
 -1       557 1.97685E-04 2.76687E-05 0.00000E+00
 -1       558 1.92840E-04 4.01243E-05 0.00000E+00
 -1       559 1.89196E-04 4.94820E-05 0.00000E+00
 -1       560 1.86625E-04 5.60526E-05 0.00000E+00
 -1       561 1.84998E-04 6.01495E-05 0.00000E+00
 -1       562 1.84189E-04 6.20875E-05 0.00000E+00
 -1       563 1.84075E-04 6.21821E-05 0.00000E+00
 -1       564 1.84534E-04 6.07500E-05 0.00000E+00
 -1       565 1.85445E-04 5.81082E-05 0.00000E+00
 -1       566 1.86688E-04 5.45746E-05 0.00000E+00
 -1       567 1.88144E-04 5.04671E-05 0.00000E+00
 -1       568 1.89695E-04 4.61042E-05 1.65436E-24
 -1       569 1.91223E-04 4.18041E-05-8.27181E-25
 -1       570 1.92610E-04 3.78852E-05 0.00000E+00
 -1       571 1.83045E-04 3.23055E-05 0.00000E+00
 -1       572 1.83143E-04 3.01102E-05-8.27181E-25
 -1       573 1.83243E-04 2.78647E-05 0.00000E+00
 -1       574 1.83342E-04 2.55856E-05-8.27181E-25
 -1       575 1.83441E-04 2.32893E-05-3.30872E-24
 -1       576 1.83541E-04 2.09923E-05-1.65436E-24
 -1       577 1.83640E-04 1.87110E-05-3.30872E-24
 -1       578 1.83740E-04 1.64621E-05-3.30872E-24
 -1       579 1.83840E-04 1.42620E-05 0.00000E+00
 -1       580 1.83940E-04 1.21272E-05 0.00000E+00
 -1       581 1.84040E-04 1.00744E-05 0.00000E+00
 -1       582 1.84140E-04 8.11996E-06 0.00000E+00
 -1       583 1.84240E-04 6.28044E-06 0.00000E+00
 -1       584 1.84341E-04 4.57217E-06 3.30872E-24
 -1       585 1.84441E-04 3.01130E-06 0.00000E+00
 -1       586 1.84705E-04 3.44750E-05 0.00000E+00
 -1       587 1.86422E-04 3.45142E-05 0.00000E+00
 -1       588 1.88140E-04 3.45530E-05-8.27181E-25
 -1       589 1.89903E-04 3.45912E-05 0.00000E+00
 -1       590 1.91756E-04 3.46281E-05 0.00000E+00
 -1       591 1.83678E-04 3.23993E-05 1.03398E-25
 -1       592 1.84411E-04 3.03436E-05 2.06795E-25
 -1       593 1.85149E-04 2.82739E-05 0.00000E+00
 -1       594 1.85890E-04 2.61949E-05 4.13590E-25
 -1       595 1.86632E-04 2.41113E-05 8.27181E-25
 -1       596 1.87375E-04 2.20279E-05 4.13590E-25
 -1       597 1.88115E-04 1.99493E-05 0.00000E+00
 -1       598 1.88852E-04 1.78803E-05-4.13590E-25
 -1       599 1.89584E-04 1.58254E-05 0.00000E+00
 -1       600 1.90308E-04 1.37894E-05-4.13590E-25
 -1       601 1.91024E-04 1.17769E-05 0.00000E+00
 -1       602 1.91730E-04 9.79268E-06-2.06795E-25
 -1       603 1.92423E-04 7.84132E-06-8.27181E-25
 -1       604 1.93103E-04 5.92766E-06 1.55096E-25
 -1       605 1.93767E-04 4.05628E-06 0.00000E+00
 -1       606 1.84555E-04 4.47331E-07 0.00000E+00
 -1       607 1.84565E-04-6.32254E-07 0.00000E+00
 -1       608 1.84573E-04-1.63115E-06 0.00000E+00
 -1       609 1.84582E-04-2.55502E-06 0.00000E+00
 -1       610 1.84590E-04-3.40960E-06 0.00000E+00
 -1       611 1.84598E-04-4.20069E-06 0.00000E+00
 -1       612 1.84607E-04-4.93405E-06 0.00000E+00
 -1       613 1.84615E-04-5.61552E-06 0.00000E+00
 -1       614 1.84623E-04-6.25088E-06 0.00000E+00
 -1       615 1.84632E-04-6.84593E-06 0.00000E+00
 -1       616 1.84640E-04-7.40649E-06 0.00000E+00
 -1       617 1.84648E-04-7.93835E-06 4.13590E-25
 -1       618 1.84657E-04-8.44732E-06 8.27181E-25
 -1       619 1.84665E-04-8.93919E-06 0.00000E+00
 -1       620 1.84673E-04-9.41978E-06 0.00000E+00
 -1       621 1.85902E-04 1.71660E-06 0.00000E+00
 -1       622 1.87420E-04 1.82081E-06-1.65436E-24
 -1       623 1.89065E-04 1.92481E-06 3.30872E-24
 -1       624 1.90802E-04 2.02847E-06 0.00000E+00
 -1       625 1.92597E-04 2.13184E-06-3.30872E-24
 -1       626 1.85091E-04 4.83468E-07 0.00000E+00
 -1       627 1.85617E-04-5.82776E-07-3.30872E-24
 -1       628 1.86123E-04-1.59394E-06 0.00000E+00
 -1       629 1.86612E-04-2.55818E-06 0.00000E+00
 -1       630 1.87086E-04-3.48369E-06-3.30872E-24
 -1       631 1.87549E-04-4.37867E-06 0.00000E+00
 -1       632 1.88003E-04-5.25131E-06 0.00000E+00
 -1       633 1.88452E-04-6.10983E-06 1.65436E-24
 -1       634 1.88899E-04-6.96243E-06 0.00000E+00
 -1       635 1.89347E-04-7.81730E-06 1.65436E-24
 -1       636 1.89799E-04-8.68266E-06 0.00000E+00
 -1       637 1.90257E-04-9.56671E-06-1.65436E-24
 -1       638 1.90726E-04-1.04777E-05 1.65436E-24
 -1       639 1.91207E-04-1.14237E-05-1.65436E-24
 -1       640 1.91704E-04-1.24132E-05-3.30872E-24
 -1       656 1.85389E-04-1.04734E-05-6.61744E-24
 -1       657 1.86516E-04-1.10754E-05 6.61744E-24
 -1       658 1.87924E-04-1.16761E-05 0.00000E+00
 -1       659 1.89467E-04-1.22764E-05 0.00000E+00
 -1       660 1.90959E-04-1.28785E-05-6.61744E-24
 -1       661 1.84945E-04-1.04143E-05 8.27181E-25
 -1       662 1.85247E-04-1.10240E-05 8.27181E-25
 -1       663 1.85580E-04-1.17192E-05 0.00000E+00
 -1       664 1.85944E-04-1.24935E-05 8.27181E-25
 -1       665 1.86335E-04-1.33415E-05 0.00000E+00
 -1       666 1.86751E-04-1.42576E-05-8.27181E-25
 -1       667 1.87191E-04-1.52362E-05-1.65436E-24
 -1       668 1.87653E-04-1.62723E-05-8.27181E-25
 -1       669 1.88134E-04-1.73605E-05 1.65436E-24
 -1       670 1.88632E-04-1.84959E-05 8.27181E-25
 -1       671 1.89147E-04-1.96735E-05 0.00000E+00
 -1       672 1.89675E-04-2.08887E-05-8.27181E-25
 -1       673 1.90215E-04-2.21365E-05 0.00000E+00
 -1       674 1.90765E-04-2.34127E-05-4.13590E-25
 -1       675 1.91325E-04-2.47123E-05 0.00000E+00
 -1       676 1.85090E-04-2.55145E-05-3.30872E-24
 -1       677 1.86454E-04-2.56188E-05-1.65436E-24
 -1       678 1.87816E-04-2.57230E-05-3.30872E-24
 -1       679 1.89176E-04-2.58269E-05 0.00000E+00
 -1       680 1.90533E-04-2.59308E-05 0.00000E+00
 -1       771 1.86570E-05 1.47592E-05 5.29396E-23
 -1       772 8.59781E-06 3.67205E-05 0.00000E+00
 -1       773 3.45517E-07 5.41339E-05 0.00000E+00
 -1       774-6.22426E-06 6.72575E-05-2.64698E-23
 -1       775-1.12332E-05 7.63596E-05 5.29396E-23
 -1       776-1.48080E-05 8.17255E-05 0.00000E+00
 -1       777-1.70750E-05 8.36506E-05 5.29396E-23
 -1       778-1.81633E-05 8.24440E-05 0.00000E+00
 -1       779-1.82011E-05 7.84235E-05 0.00000E+00
 -1       780-1.73189E-05 7.19183E-05-2.64698E-23
 -1       781-1.56460E-05 6.32643E-05 5.29396E-23
 -1       782-1.33135E-05 5.28063E-05 7.94093E-23
 -1       783-1.04516E-05 4.08938E-05 0.00000E+00
 -1       784-7.19147E-06 2.78823E-05 2.64698E-23
 -1       785-3.66356E-06 1.41307E-05 5.29396E-23
 -1       786 1.93777E-04 3.24065E-05 0.00000E+00
 -1       787 1.93819E-04 3.02019E-05-4.13590E-25
 -1       788 1.93860E-04 2.80392E-05 0.00000E+00
 -1       789 1.93903E-04 2.59101E-05 8.27181E-25
 -1       790 1.93945E-04 2.38099E-05 0.00000E+00
 -1       791 1.93988E-04 2.17339E-05-8.27181E-25
 -1       792 1.94030E-04 1.96797E-05-1.65436E-24
 -1       793 1.94073E-04 1.76453E-05 8.27181E-25
 -1       794 1.94116E-04 1.56303E-05 1.65436E-24
 -1       795 1.94159E-04 1.36348E-05 0.00000E+00
 -1       796 1.94202E-04 1.16605E-05 0.00000E+00
 -1       797 1.94245E-04 9.70921E-06-8.27181E-25
 -1       798 1.94288E-04 7.78524E-06-1.65436E-24
 -1       799 1.94331E-04 5.89288E-06 0.00000E+00
 -1       800 1.94374E-04 4.03961E-06-1.65436E-24
 -1       801 1.47933E-04 3.11606E-05 0.00000E+00
 -1       802 9.43715E-06 1.94397E-05 2.64698E-23
 -1       803-1.08860E-04 9.81903E-06 0.00000E+00
 -1       804-9.64958E-05 6.83465E-06 2.64698E-23
 -1       805-3.18823E-05 2.68552E-06 5.29396E-23
 -1       806 1.94469E-04 3.23377E-05-1.65436E-24
 -1       807 1.95185E-04 3.00405E-05 1.65436E-24
 -1       808 1.95889E-04 2.77747E-05 0.00000E+00
 -1       809 1.96579E-04 2.55445E-05 1.65436E-24
 -1       810 1.97254E-04 2.33538E-05 3.30872E-24
 -1       811 1.97913E-04 2.12066E-05 0.00000E+00
 -1       812 1.98554E-04 1.91068E-05 0.00000E+00
 -1       813 1.99176E-04 1.70584E-05-1.65436E-24
 -1       814 1.99777E-04 1.50652E-05 3.30872E-24
 -1       815 2.00356E-04 1.31312E-05-8.27181E-25
 -1       816 2.00912E-04 1.12603E-05 1.65436E-24
 -1       817 2.01443E-04 9.45629E-06-8.27181E-25
 -1       818 2.01948E-04 7.72311E-06 0.00000E+00
 -1       819 2.02425E-04 6.06465E-06-8.27181E-25
 -1       820 2.02872E-04 4.48472E-06-1.65436E-24
 -1       821 1.94289E-04-1.27812E-07 0.00000E+00
 -1       822 1.94149E-04-3.63833E-06 0.00000E+00
 -1       823 1.94006E-04-7.87174E-06 0.00000E+00
 -1       824 1.93861E-04-1.23967E-05 0.00000E+00
 -1       825 1.93717E-04-1.67031E-05 0.00000E+00
 -1       826 1.93575E-04-2.02820E-05 0.00000E+00
 -1       827 1.93437E-04-2.28227E-05 3.30872E-24
 -1       828 1.93300E-04-2.40208E-05 0.00000E+00
 -1       829 1.93165E-04-2.39373E-05-3.30872E-24
 -1       830 1.93028E-04-2.26409E-05 0.00000E+00
 -1       831 1.92891E-04-2.05306E-05 0.00000E+00
 -1       832 1.92752E-04-1.80102E-05 0.00000E+00
 -1       833 1.92614E-04-1.55954E-05 0.00000E+00
 -1       834 1.92479E-04-1.38011E-05 1.65436E-24
 -1       835 1.92345E-04-1.29739E-05 0.00000E+00
 -1       836 1.96110E-04 2.35806E-06 3.30872E-24
 -1       837 1.97674E-04 2.48626E-06 0.00000E+00
 -1       838 1.99143E-04 2.61439E-06 0.00000E+00
 -1       839 2.00547E-04 2.74183E-06 0.00000E+00
 -1       840 2.01920E-04 2.86910E-06 0.00000E+00
 -1       856 1.92201E-04-1.45170E-05 8.27181E-25
 -1       857 1.92181E-04-1.54424E-05 0.00000E+00
 -1       858 1.92161E-04-1.62518E-05 0.00000E+00
 -1       859 1.92140E-04-1.69668E-05 0.00000E+00
 -1       860 1.92119E-04-1.76089E-05 0.00000E+00
 -1       861 1.92098E-04-1.81995E-05 2.06795E-25
 -1       862 1.92077E-04-1.87604E-05 0.00000E+00
 -1       863 1.92057E-04-1.93131E-05 0.00000E+00
 -1       864 1.92036E-04-1.98794E-05 8.27181E-25
 -1       865 1.92015E-04-2.04807E-05-4.13590E-25
 -1       866 1.91994E-04-2.11388E-05 8.27181E-25
 -1       867 1.91973E-04-2.18752E-05 4.13590E-25
 -1       868 1.91952E-04-2.27114E-05 8.27181E-25
 -1       869 1.91930E-04-2.36688E-05 0.00000E+00
 -1       870 1.91909E-04-2.47688E-05 0.00000E+00
 -1       871 1.93569E-04-1.34593E-05 0.00000E+00
 -1       872 1.95068E-04-1.34676E-05 0.00000E+00
 -1       873 1.96645E-04-1.34767E-05 0.00000E+00
 -1       874 1.98234E-04-1.34866E-05-2.58494E-26
 -1       875 1.99766E-04-1.34970E-05-1.24077E-24
 -1       876 1.92745E-04-1.45034E-05-3.30872E-24
 -1       877 1.93249E-04-1.54861E-05 0.00000E+00
 -1       878 1.93732E-04-1.64101E-05 0.00000E+00
 -1       879 1.94196E-04-1.72827E-05 1.65436E-24
 -1       880 1.94643E-04-1.81111E-05 0.00000E+00
 -1       881 1.95077E-04-1.89027E-05 1.65436E-24
 -1       882 1.95499E-04-1.96647E-05 0.00000E+00
 -1       883 1.95914E-04-2.04043E-05 0.00000E+00
 -1       884 1.96322E-04-2.11287E-05 0.00000E+00
 -1       885 1.96728E-04-2.18450E-05 1.65436E-24
 -1       886 1.97133E-04-2.25606E-05 0.00000E+00
 -1       887 1.97540E-04-2.32827E-05 0.00000E+00
 -1       888 1.97953E-04-2.40184E-05 3.30872E-24
 -1       889 1.98372E-04-2.47752E-05 1.65436E-24
 -1       890 1.98802E-04-2.55602E-05-1.65436E-24
 -1       891 1.93259E-04-2.60913E-05-1.65436E-24
 -1       892 1.94608E-04-2.61502E-05 0.00000E+00
 -1       893 1.95906E-04-2.62091E-05-1.65436E-24
 -1       894 1.97128E-04-2.62677E-05-8.27181E-25
 -1       895 1.98247E-04-2.63261E-05-4.13590E-25
 -1       956 2.03161E-04 1.66417E-06 1.65436E-24
 -1       957 2.03029E-04 4.32814E-07-8.27181E-25
 -1       958 2.02896E-04-7.17712E-07 0.00000E+00
 -1       959 2.02763E-04-1.79875E-06 1.65436E-24
 -1       960 2.02630E-04-2.82169E-06 3.30872E-24
 -1       961 2.02497E-04-3.79797E-06 0.00000E+00
 -1       962 2.02365E-04-4.73899E-06 3.30872E-24
 -1       963 2.02232E-04-5.65624E-06-1.65436E-24
 -1       964 2.02099E-04-6.56115E-06 0.00000E+00
 -1       965 2.01966E-04-7.46516E-06 0.00000E+00
 -1       966 2.01833E-04-8.37975E-06 0.00000E+00
 -1       967 2.01700E-04-9.31636E-06 0.00000E+00
 -1       968 2.01568E-04-1.02864E-05 6.61744E-24
 -1       969 2.01435E-04-1.13013E-05 0.00000E+00
 -1       970 2.01303E-04-1.23725E-05 3.30872E-24
 -1       971 2.01052E-04-1.46491E-05 3.30872E-24
 -1       972 2.00931E-04-1.56931E-05 0.00000E+00
 -1       973 2.00809E-04-1.66531E-05-3.30872E-24
 -1       974 2.00688E-04-1.75398E-05 0.00000E+00
 -1       975 2.00566E-04-1.83639E-05-3.30872E-24
 -1       976 2.00445E-04-1.91363E-05 1.65436E-24
 -1       977 2.00323E-04-1.98676E-05 0.00000E+00
 -1       978 2.00202E-04-2.05687E-05 0.00000E+00
 -1       979 2.00080E-04-2.12503E-05-3.30872E-24
 -1       980 1.99959E-04-2.19233E-05 1.65436E-24
 -1       981 1.99837E-04-2.25984E-05-3.30872E-24
 -1       982 1.99716E-04-2.32863E-05 0.00000E+00
 -1       983 1.99595E-04-2.39980E-05-3.30872E-24
 -1       984 1.99474E-04-2.47441E-05 0.00000E+00
 -1       985 1.99354E-04-2.55354E-05-3.30872E-24
 -3
    1PSTEP                        32          16           1          
  100CL  116 6.63036E-01         409                     0   16           1
 -4  STRESS      6    1
 -5  SXX         1    4    1    1
 -5  SYY         1    4    2    2
 -5  SZZ         1    4    3    3
 -5  SXY         1    4    1    2
 -5  SYZ         1    4    2    3
 -5  SZX         1    4    3    1
 -1         1-5.34447E+06-1.58686E+06-1.13334E+06-1.34568E+06 1.16415E-10 1.83267E-07
 -1         2 1.49259E+06 2.18854E+07 5.09759E+06 6.61604E+06 2.65427E-08 2.02417E-08
 -1         3-1.48869E+03-1.55874E+06 4.05924E+02-2.21284E+03-5.00325E-10-2.09839E-08
 -1         5-7.53986E+01 3.86544E+05 9.98447E+00-1.34455E+00-5.24981E-10-2.80670E-08
 -1         8-5.56188E+05-2.01068E+05-6.29149E+04-2.44199E+05 2.00089E-11 1.42678E-07
 -1         9 1.17798E+07 3.83894E+06 2.79331E+06-3.29449E+05-1.80327E-08 4.11412E-08
 -1        10-2.30526E+03-1.62433E+06-3.94735E+03-1.49733E+04-1.34260E-08-4.31741E-08
 -1        12-7.14796E+01 3.86565E+05 3.28223E+02-9.16391E+00-5.20746E-10 1.36024E-08
 -1        15 9.29104E+02 5.10588E+02 3.00330E+03 8.26495E-01-4.32209E-10 9.39629E-08
 -1        16 2.29156E+07-3.30524E+05 3.11926E+06-2.28287E+06 1.37370E-08 1.72295E-07
 -1        17 8.38909E+06 6.28730E+06 2.26628E+06 6.01507E+06 2.36963E-08 2.78698E-08
 -1        18 1.42428E+05 3.35412E+04 4.16636E+03-1.19589E+05 1.30626E-08-5.31418E-09
 -1        19 1.22467E+05 1.41721E+05-9.45083E+02 2.19720E+04 1.55014E-09-1.94123E-09
 -1        20-8.21820E+04-5.73861E+05-1.28786E+05 2.50758E+04-1.74335E-09 1.05156E-08
 -1        21-4.49441E+01-2.96044E+05-9.11829E+02 2.77153E+02 1.12399E-08 9.95611E-10
 -1        24 1.40597E+07 1.21086E+07 3.89215E+06 1.12113E+07-1.73323E-07-4.72840E-08
 -1        25 1.25149E+05 2.68185E+05 1.00213E+05-6.46267E+05-2.82735E-09 4.50491E-09
 -1        26-5.54452E+04 9.23200E+04-2.46443E+04 1.32493E+03-3.27418E-12-2.34545E-09
 -1        27-7.58922E+04-3.10149E+05-1.13442E+05 6.89851E+04 4.07575E-09-6.47651E-09
 -1        28 2.13936E+04-8.62577E+04 1.69429E+04 2.06236E+04-5.11389E-09 1.20826E-08
 -1        32-1.68057E+06-3.18147E+06-1.97505E+05 4.58594E+05-4.12983E-08-1.29519E-08
 -1        33-1.78550E+05 9.30392E+04 3.24008E+04-3.84818E+04-3.35967E-09 1.04716E-08
 -1        34-2.23768E+05-2.50968E+04 6.86002E+02 7.55326E+04-5.28384E-09-8.29202E-09
 -1        35-2.29806E+04-3.50720E+04-1.62040E+03 5.15267E+04-7.42008E-09-1.22721E-09
 -1        51 6.07630E+04-1.71503E+05 1.28482E+05-4.37319E+05 1.30967E-10-6.96018E-08
 -1        52 2.05566E+04-1.49040E+05 6.73769E+04-5.10044E+05 2.40107E-10 2.42580E-08
 -1        53 4.17167E+03-1.64402E+05 3.50205E+04-4.35817E+05 2.80124E-10 6.53672E-08
 -1        54 7.32660E+03-1.60189E+05 2.86445E+04-5.11514E+05-3.20142E-10 7.49715E-08
 -1        55 1.59704E+04-1.67165E+05 3.46875E+04-4.35728E+05 2.29193E-10 1.11075E-07
 -1        56-9.79513E+06-1.37829E+06-9.18544E+05-4.09121E+06-1.76660E-08-6.82194E-08
 -1        57-1.10858E+07-8.09679E+05-5.47033E+05-2.70429E+06 3.08719E-08 5.51081E-08
 -1        58-9.59537E+06-1.84582E+06-2.01469E+05-4.28490E+06-2.65645E-08-1.60449E-07
 -1        59-1.12721E+07-2.71141E+05-1.07971E+05-2.63090E+06-4.96784E-08-2.23812E-07
 -1        60-9.69060E+06-1.84970E+06-5.78724E+04-4.23661E+06-5.49735E-08-7.00238E-08
 -1        61-1.06044E+07-6.14484E+05 1.73147E+04-2.88241E+06 4.40195E-10 1.27038E-08
 -1        62-1.01225E+07-1.59735E+06-7.88257E+04-3.92189E+06-3.81551E-08 1.06433E-07
 -1        63-9.68134E+06-1.34253E+06 5.67605E+04-3.59676E+06 1.87720E-09 9.49185E-08
 -1        64-1.05009E+07-1.20203E+06-7.25081E+04-3.45098E+06-9.15315E-09 4.44088E-08
 -1        65-9.30131E+06-1.96012E+06 1.41713E+04-4.52624E+06-5.33473E-08-1.30305E-07
 -1        66-1.06331E+07-8.89149E+05-4.73148E+04-3.09100E+06 1.51413E-08 1.45705E-07
 -1        67-9.31897E+06-2.22103E+06-9.71668E+04-4.96786E+06-4.78012E-08 4.61750E-08
 -1        68-1.06135E+07-8.49680E+05-1.87110E+05-3.09034E+06-5.27052E-08-2.77869E-07
 -1        69-9.49425E+06-2.29962E+06-4.86275E+05-4.49347E+06-9.02774E-08-1.58914E-07
 -1        70-1.03371E+07-9.07128E+05-8.43759E+05-3.48605E+06 4.12365E-08 6.78119E-08
 -1        86-1.52282E+06-1.56117E+07-2.79036E+06-3.10765E+06-2.63222E-07-6.19475E-08
 -1        87 2.39343E+06 6.29972E+06 2.32085E+06 5.74792E+06-4.60321E-07 9.08949E-09
 -1        88-4.50374E+05-1.95236E+06 2.19368E+05-2.56431E+06-4.15046E-07 3.53066E-09
 -1        89 3.20500E+06 6.00291E+06 2.37848E+06 5.94065E+06-5.50739E-07-4.47097E-07
 -1        90-2.24026E+06-1.53910E+07-3.01279E+06-3.32954E+06-1.61799E-07 1.70257E-09
 -1       121-2.03930E+03-1.56365E+06-5.47657E+02 1.09678E+03 1.47919E-09 3.79077E-09
 -1       122-1.30283E+03-1.55880E+06 7.69596E+02-4.42978E+03-5.36259E-09-4.19604E-08
 -1       123-2.05905E+03-1.56378E+06 2.60412E+02 3.27560E+03 4.24336E-09-2.53785E-08
 -1       124 3.33841E+02-1.55836E+06 2.94930E+03-9.26933E+03-1.08362E-08 1.86483E-08
 -1       125-2.86803E+03-1.56468E+06 3.45960E+03 5.89035E+03 6.26642E-09-1.14305E-08
 -1       191-7.94557E+01 3.86562E+05 8.48379E+00 7.01100E-01-6.04603E-10 6.05723E-10
 -1       192-7.63627E+01 3.86544E+05 2.13069E+01-4.31030E+00-7.88102E-10 1.65719E-08
 -1       193-8.19933E+01 3.86562E+05 3.62689E+01 3.78568E+00-1.08954E-09 5.10227E-09
 -1       194-7.94536E+01 3.86548E+05 8.10001E+01-9.78056E+00-5.37064E-10-5.05952E-09
 -1       195-8.68639E+01 3.86559E+05 1.55071E+02 6.36519E+00-1.60391E-09 9.30231E-09
 -1       251-8.62259E+05 1.60781E+04-3.75410E+04-1.42644E+04 5.23006E-09-3.07959E-07
 -1       252-8.76485E+05-1.86057E+04-2.61195E+04 5.02282E+04-8.37451E-09-5.75812E-07
 -1       253-8.70603E+05 2.46652E+03-1.01089E+04-1.00556E+04 3.97677E-09-1.27811E-07
 -1       254-8.63205E+05-2.98849E+03-4.53225E+03 3.57183E+04-1.20197E-08-1.94715E-08
 -1       255-8.74934E+05 5.84905E+01-3.49946E+03 2.41919E+02 4.30077E-09 4.96726E-08
 -1       256-8.57880E+05-2.73296E+02 1.15737E+03 1.23658E+04 6.60611E-09 2.27308E-07
 -1       257-8.75493E+05-5.69788E+02-1.36863E+03 1.32857E+04-6.78165E-09 9.36308E-08
 -1       258-8.60669E+05 9.01933E+02 2.68566E+03-1.21686E+04-1.33642E-08-1.65651E-07
 -1       259-8.72391E+05-9.26851E+02 1.38319E+03 2.47740E+04 2.80852E-09 1.08691E-07
 -1       260-8.66967E+05 2.92525E+03 5.57254E+03-2.98590E+04-1.70430E-08 4.56678E-08
 -1       261-8.69822E+05-2.10930E+03 8.66893E+03 3.09921E+04 1.44418E-08-1.05675E-07
 -1       262-8.65596E+05 1.17811E+04 2.15305E+04-3.50245E+04-1.76701E-08 3.11904E-08
 -1       263-8.74010E+05-9.55740E+03 3.41178E+04 2.99487E+04 1.35985E-08 1.25456E-07
 -1       264-8.35104E+05 6.71041E+04 9.44389E+04-2.58725E+04 1.64899E-08 3.80393E-07
 -1       265-8.99822E+05-5.75607E+04 1.31540E+05 2.18281E+04 9.94169E-09 1.17871E-09
 -1       266-1.68201E+04-7.86592E+03 3.94609E+04-1.76830E+01-2.05546E-10 5.60127E-08
 -1       267 1.94989E+04 9.16661E+03 2.78924E+04 2.04044E+01 2.60115E-10-5.17463E-08
 -1       268-2.61478E+03-1.29832E+03 1.03673E+04-2.59978E+00 1.18234E-10 1.25189E-07
 -1       269 3.08726E+03 1.55373E+03 6.73871E+03 3.02847E+00 2.28511E-11 1.73167E-07
 -1       270-4.63403E+02-2.55294E+02 3.25287E+03-4.10979E-01 7.35554E-11 2.40458E-07
 -1       271-1.47965E+06-1.88335E+05-1.11454E+05-5.75764E+05 1.57888E-09 1.55887E-07
 -1       272-1.47536E+06-3.01780E+05-7.00075E+04-6.14190E+05-4.13038E-08-2.78131E-07
 -1       273-1.50318E+06-2.12015E+05-2.70260E+04-5.67746E+05 1.77170E-09 3.38096E-08
 -1       274-1.44857E+06-2.73268E+05-1.40640E+04-6.29326E+05 2.94604E-08-2.73358E-08
 -1       275-1.50876E+06-2.11595E+05-6.73259E+03-5.63990E+05 1.49121E-08-3.80323E-08
 -1       276-1.44295E+06-2.74181E+05-2.84375E+03-6.37914E+05 4.49636E-08 9.36616E-08
 -1       277-1.51158E+06-2.08979E+05-1.86424E+03-5.61270E+05-3.97722E-08-2.42280E-08
 -1       278-1.44077E+06-2.77368E+05-7.12625E+02-6.44222E+05-1.77433E-08 1.88262E-07
 -1       279-1.51337E+06-2.06842E+05-8.64023E+02-5.59364E+05-2.46273E-08-1.81697E-07
 -1       280-1.43976E+06-2.79763E+05-9.89883E+02-6.48364E+05 5.05602E-08 9.30186E-10
 -1       281-1.51432E+06-2.05496E+05-1.82899E+03-5.58293E+05-2.58196E-08 1.55564E-07
 -1       282-1.44014E+06-2.81937E+05-4.25350E+03-6.50056E+05-2.14013E-08 1.22856E-07
 -1       283-1.51382E+06-2.04267E+05-7.57086E+03-5.58172E+05-1.79521E-08-1.18375E-07
 -1       284-1.44692E+06-2.91845E+05-2.06224E+04-6.47866E+05-1.01554E-08-2.81000E-07
 -1       285-1.50744E+06-1.96769E+05-3.22054E+04-5.59963E+05 3.27154E-08-1.67816E-07
 -1       301-7.36589E+03-6.47803E+05 1.66902E+05-1.13854E+06-8.16362E-09-3.13157E-08
 -1       302-9.18891E+03-6.00962E+05 1.00443E+05-1.66178E+06-3.50192E-08-3.38419E-07
 -1       303-2.19585E+04-6.40371E+05 5.67324E+04-1.13541E+06 6.81757E-09-5.07371E-08
 -1       304-2.50297E+04-6.08077E+05 5.70602E+04-1.66120E+06 1.12195E-08 1.84766E-07
 -1       305-2.63074E+04-6.29107E+05 7.01111E+04-1.13850E+06 5.40786E-09 1.53086E-07
 -1       306-3.01462E+07-6.22143E+06-8.61497E+06-4.96822E+05-1.32015E-07-3.72238E-08
 -1       307 2.53237E+07 3.28722E+06 5.51321E+06-1.52682E+07-9.09946E-07 2.63128E-07
 -1       308-6.93049E+06-1.01858E+06-4.41003E+05 5.21350E+06-1.77533E-07 5.07323E-07
 -1       309-3.20784E+06 8.75543E+06 2.29448E+06-2.07078E+07 4.55304E-07 4.62518E-07
 -1       310-1.26336E+07-1.95504E+06-2.05722E+06 5.22325E+06-2.28698E-07-1.61628E-07
 -1       311 3.86373E+07 4.14557E+03 7.31007E+06-8.75240E+06 1.53901E-07 5.55010E-08
 -1       312-3.19906E+07-6.80947E+06-8.56500E+06-5.09054E+06-1.48546E-07 1.67609E-07
 -1       313 4.54530E+07 1.51497E+07 1.06931E+07 2.39202E+07-3.08501E-07 1.74594E-07
 -1       314-1.71855E+07-1.78591E+07-7.53432E+06-1.25464E+07 3.39816E-07 3.24624E-07
 -1       315-1.90512E+06 2.98220E+07 5.67172E+06 1.04867E+07-2.23037E-07-7.85221E-08
 -1       316 1.42890E+06-9.83637E+06-4.31437E+05-2.49962E+06-9.94405E-07-2.24652E-07
 -1       317-1.71028E+07 2.24529E+07 2.24824E+06-8.88344E+06 6.40095E-07-8.11924E-07
 -1       318-1.08207E+06-1.28423E+07-2.06083E+06-4.24133E+06-9.55421E-07 1.37312E-07
 -1       319 7.28393E+06 3.20865E+07 7.06864E+06 1.66860E+07-5.89935E-08 2.47674E-07
 -1       320-2.26458E+07-1.76902E+07-9.88340E+06-1.28433E+07 1.78581E-07-6.40866E-08
 -1       336-7.47053E+02-1.69270E+06-1.38486E+04 8.91311E+03-2.70629E-08 2.29920E-08
 -1       337-5.41003E+03-1.69224E+06-1.80699E+04-2.16518E+04-5.02387E-08 5.32600E-09
 -1       338 2.73980E+02-1.69219E+06-2.84649E+04 1.24876E+04-3.49810E-08 8.48377E-09
 -1       339-3.02062E+04-1.70948E+06-6.43324E+04-2.86540E+04-6.24059E-08 2.48983E-08
 -1       340 1.98953E+04-1.67764E+06-1.01342E+05 1.57843E+04-4.09855E-08 2.55059E-08
 -1       406-4.97737E+01 3.86545E+05 6.44458E+02 3.35303E+00-1.76055E-09 3.40879E-09
 -1       407 1.54848E+02 3.86679E+05 1.37726E+03 2.34205E+01-2.91301E-10-2.62335E-08
 -1       408 6.35127E+02 3.86444E+05 2.74614E+03-2.70936E+01-2.37173E-09-1.16688E-08
 -1       409 2.90823E+03 3.87556E+05 6.18955E+03 2.89273E+02-3.27077E-10-2.16469E-08
 -1       410 8.48369E+03 3.85654E+05 1.26326E+04-2.78959E+02-2.95222E-09-1.58743E-08
 -1       521-3.17229E+07-7.69148E+06-1.00798E+07-1.00919E+05-1.17230E-07 1.66940E-07
 -1       522 2.62228E+07 4.33499E+06 5.62994E+06-1.88038E+07-5.40313E-07-2.17056E-07
 -1       523-7.50225E+06-1.33448E+06-4.32404E+05 5.66748E+06 4.45871E-08-1.92187E-07
 -1       524-6.71535E+06 1.18491E+07 2.48609E+06-2.37940E+07 9.59735E-07-5.32960E-07
 -1       525-1.34331E+07-2.60021E+06-2.26493E+06 5.68282E+06 6.14673E-07-2.01515E-07
 -1       526 4.22492E+07-9.33942E+04 7.68083E+06-1.14092E+07 1.85566E-07 1.22876E-07
 -1       527-3.38741E+07-8.52238E+06-9.88635E+06-4.95581E+06 1.73924E-07 2.03683E-07
 -1       528 4.96890E+07 1.69214E+07 1.11674E+07 2.72435E+07 1.23342E-07-4.50906E-07
 -1       529-1.81341E+07-2.01010E+07-8.65016E+06-1.25821E+07 4.72064E-08-1.48779E-07
 -1       530-4.39437E+06 3.46765E+07 6.01096E+06 9.92581E+06-7.78236E-08 7.48783E-07
 -1       531 1.43586E+06-1.09141E+07-4.03328E+05-2.43619E+06-7.95902E-07 2.27010E-07
 -1       532-1.96047E+07 2.44726E+07 2.46107E+06-1.32259E+07 3.56551E-07-8.05972E-07
 -1       533-1.12275E+06-1.40086E+07-2.19870E+06-4.03769E+06-2.57598E-07-1.00496E-06
 -1       534 5.28712E+06 3.72955E+07 7.36672E+06 1.72850E+07 6.51926E-08 7.18283E-07
 -1       535-2.38474E+07-2.01183E+07-1.13475E+07-1.29221E+07 1.17929E-07 4.60306E-07
 -1       536-7.06262E+05-4.67623E+04-4.82195E+04-5.47107E+04-5.50563E-09 4.46353E-08
 -1       537-5.47640E+04 4.47003E+04 8.39463E+04 1.23900E+05-1.20708E-07 9.90663E-08
 -1       538-3.94415E+05 3.34825E+03 3.54950E+03-7.22285E+04 4.34383E-08 1.16179E-07
 -1       539-2.68988E+05 2.85475E+03 2.49298E+04 1.38792E+05 1.52122E-07 1.12729E-07
 -1       540-4.97419E+05-4.28944E+02-2.13390E+04-7.01376E+04 4.95038E-09 1.08480E-07
 -1       541 1.46981E+05 1.69822E+04 1.06451E+05 9.79725E+04-1.16488E-08 1.00533E-07
 -1       542-7.99176E+05-2.01472E+04-8.42880E+04-3.05331E+04 6.26387E-08 4.10849E-08
 -1       543 4.05815E+05 2.73418E+04 1.58066E+05-1.33675E+04 3.25508E-08-1.83595E-08
 -1       544-7.49311E+05-1.65470E+04-7.48810E+04 4.05323E+04-1.48621E-08-4.44758E-08
 -1       545 2.92109E+04 9.48981E+03 7.98589E+04-1.13672E+05 3.19316E-08-7.25704E-08
 -1       546-4.32686E+05 6.09902E+03-1.22358E+04 6.94244E+04 3.53712E-08-7.82717E-08
 -1       547-2.87077E+05-4.65653E+03 1.05972E+04-1.41639E+05-1.26960E-07-1.11296E-07
 -1       548-4.41527E+05 4.72064E+03-2.38898E+04 6.91915E+04-1.18228E-07-1.04984E-07
 -1       549 4.84058E+04 1.60964E+04 6.05711E+04-1.11533E+05-7.90586E-08-5.65656E-08
 -1       550-7.59192E+05-2.21662E+04-1.29020E+05 3.86014E+04 1.00845E-08-4.17749E-08
 -1       551 4.08029E+04-7.50791E+05-1.58862E+04-1.24728E+06-1.01776E-07-1.49594E-08
 -1       552 9.32887E+04-7.95784E+05 9.92574E+03-1.77845E+06-6.86414E-08 1.40572E-08
 -1       553 7.17825E+04-7.92189E+05 3.20453E+04-1.24063E+06-1.17638E-07 1.10740E-08
 -1       554 1.32090E+05-8.11686E+05 8.10696E+04-1.78040E+06-7.43603E-08 2.01235E-08
 -1       555 1.01530E+05-8.15845E+05 1.48055E+05-1.24046E+06-1.22585E-07-1.75914E-08
 -1       556 2.23799E+05-3.83811E+05 2.57252E+04-4.07350E+05-2.28174E-08-9.08040E-09
 -1       557 3.54406E+05-4.88193E+05 1.61367E+04-5.27820E+05-5.42786E-09-4.24916E-09
 -1       558 2.05557E+05-3.76594E+05 2.31542E+03-4.11800E+05-2.18279E-08 1.61526E-08
 -1       559 3.29377E+05-4.88255E+05 2.43709E+03-5.48284E+05 1.51194E-08 1.10667E-08
 -1       560 1.90240E+05-3.66989E+05-1.50862E+03-4.22838E+05 1.59780E-08 2.69938E-09
 -1       561 3.10131E+05-4.80552E+05 1.28779E+02-5.61407E+05 3.73984E-09 2.21371E-09
 -1       562 1.78129E+05-3.59465E+05-1.32844E+03-4.31608E+05 5.52973E-10 9.26593E-09
 -1       563 2.95746E+05-4.74280E+05-3.73313E+01-5.70803E+05-1.01136E-09-2.68783E-08
 -1       564 1.69485E+05-3.54080E+05-6.01571E+02-4.37733E+05 4.75848E-09 9.61791E-10
 -1       565 2.86205E+05-4.70125E+05 2.37191E+01-5.76899E+05 2.99769E-09 2.22699E-08
 -1       566 1.64433E+05-3.50883E+05-2.60616E+02-4.41267E+05-3.09228E-09-1.83063E-08
 -1       567 2.81567E+05-4.68107E+05-3.63353E+02-5.79716E+05 1.69239E-08-1.40280E-08
 -1       568 1.63061E+05-3.50043E+05-1.12769E+03-4.42322E+05-4.85397E-09 3.94721E-09
 -1       569 2.80443E+05-4.68035E+05-2.84803E+03-5.78286E+05-8.18727E-09 1.41627E-08
 -1       570 1.66464E+05-3.53281E+05-6.22579E+03-4.41301E+05 4.14730E-09 1.37397E-08
 -1       571 2.90671E+05 1.05136E+04 1.49969E+04-9.53136E+04 7.17500E-09 2.33786E-09
 -1       572 2.92844E+05 3.96381E+03 7.34968E+03-1.04569E+05 6.43468E-10-8.08814E-09
 -1       573 2.91534E+05 1.24787E+03 3.26570E+03-9.51370E+04 1.25328E-09 2.90129E-09
 -1       574 2.91748E+05 7.29275E+02 1.63773E+03-1.04793E+05 5.92081E-10 6.63022E-09
 -1       575 2.91628E+05 4.49780E+02 7.72967E+02-9.51129E+04 1.09684E-09 7.31870E-09
 -1       576 2.91612E+05 4.61261E+02 3.95765E+02-1.04823E+05-4.25689E-09 1.64700E-08
 -1       577 2.91668E+05 3.91584E+02 1.97580E+02-9.51096E+04-4.15184E-09 7.25595E-09
 -1       578 2.91643E+05 4.23078E+02 1.14167E+02-1.04828E+05-8.08905E-09 1.26784E-09
 -1       579 2.91740E+05 3.54742E+02 7.84548E+01-9.51092E+04 4.72755E-09 6.10271E-09
 -1       580 2.91745E+05 3.71858E+02 9.11301E+01-1.04823E+05-8.47649E-09 1.35869E-08
 -1       581 2.91855E+05 2.95952E+02 1.37706E+02-9.51152E+04 4.85306E-09 1.69612E-08
 -1       582 2.91921E+05 3.34327E+02 2.80032E+02-1.04761E+05 2.66846E-09-1.11431E-08
 -1       583 2.91995E+05 3.38443E+02 5.37500E+02-9.51718E+04 3.01952E-09-6.71457E-09
 -1       584 2.92297E+05 7.77485E+02 1.21633E+03-1.04284E+05 6.25369E-09-6.41876E-10
 -1       585 2.92022E+05 1.80112E+03 2.46302E+03-9.55916E+04-1.51522E-09-1.23327E-09
 -1       586-3.42483E+03 1.17032E+05-2.91245E+03-2.50809E+05-9.30277E-09-7.85190E-09
 -1       587-1.34060E+03 1.16785E+05 7.75845E+02-2.76034E+05-6.53381E-09 2.21939E-08
 -1       588 3.97618E+02 1.16590E+05 4.76615E+03-2.50671E+05-5.85351E-09 1.57524E-08
 -1       589 5.08874E+03 1.19067E+05 1.23582E+04-2.75800E+05-2.93585E-09 1.65492E-08
 -1       590 1.66253E+04 1.15256E+05 2.59224E+04-2.51102E+05-4.74211E-09 3.29965E-09
 -1       591-7.51002E+04-1.59842E+04-2.25518E+04-3.19919E+04-1.86037E-09-1.26947E-08
 -1       592-7.91978E+04-1.95411E+04-1.22159E+04-3.56159E+04 3.77600E-09-1.74457E-08
 -1       593-7.73555E+04-1.43478E+04-5.08485E+03-3.36456E+04 5.42865E-09-3.02180E-10
 -1       594-7.60841E+04-1.62319E+04-2.53594E+03-3.57337E+04 8.72189E-09 8.68314E-09
 -1       595-7.75275E+04-1.43425E+04-1.16425E+03-3.37207E+04 5.76617E-09 2.36555E-08
 -1       596-7.58709E+04-1.60805E+04-5.91630E+02-3.57084E+04 5.26668E-09 1.23281E-08
 -1       597-7.75490E+04-1.43579E+04-3.21697E+02-3.37235E+04 1.40233E-09 1.07370E-08
 -1       598-7.58499E+04-1.60745E+04-2.57756E+02-3.57012E+04-6.90363E-10-3.41004E-09
 -1       599-7.75478E+04-1.43584E+04-3.28193E+02-3.37232E+04 2.83251E-09-1.76101E-08
 -1       600-7.58710E+04-1.60810E+04-6.08829E+02-3.57062E+04 1.36424E-12-3.17436E-08
 -1       601-7.75231E+04-1.43439E+04-1.20065E+03-3.37197E+04 1.98725E-09-1.25412E-08
 -1       602-7.60908E+04-1.62360E+04-2.61645E+03-3.57285E+04-3.46665E-09 8.60882E-09
 -1       603-7.73430E+04-1.43523E+04-5.24695E+03-3.36430E+04-2.06137E-09 1.25410E-08
 -1       604-7.93213E+04-1.96310E+04-1.26044E+04-3.55820E+04 3.93413E-09-1.13027E-08
 -1       605-7.49958E+04-1.60586E+04-2.32693E+04-3.19562E+04 4.09477E-09-4.44561E-09
 -1       606 2.66164E+04-1.43418E+04-2.57099E+04 2.39475E+04 2.33576E-08 4.98653E-09
 -1       607 2.22235E+04-4.68399E+03-1.28035E+04 2.69121E+04 3.23407E-08-7.63771E-09
 -1       608 2.47272E+04-8.44971E+02-5.73167E+03 2.37792E+04 1.45155E-08-1.37927E-08
 -1       609 2.42474E+04-2.89517E+02-2.89549E+03 2.71258E+04 5.92627E-09 1.09219E-09
 -1       610 2.45136E+04-4.10570E+01-1.38146E+03 2.37592E+04 7.48878E-09-1.15183E-08
 -1       611 2.44383E+04-4.13776E+01-6.96520E+02 2.71488E+04 8.01811E-09 1.19246E-08
 -1       612 2.44665E+04-2.73926E+01-3.31095E+02 2.37572E+04 3.76167E-09 1.02630E-08
 -1       613 2.44499E+04-3.73357E+01-1.48323E+02 2.71516E+04 5.30235E-09 3.25144E-11
 -1       614 2.44444E+04-3.38644E+01-3.46611E+01 2.37565E+04 1.84627E-09-5.90239E-09
 -1       615 2.44448E+04-3.58859E+01 6.24571E+01 2.71520E+04-6.62112E-10 1.12459E-09
 -1       616 2.44270E+04-3.07708E+01 1.87020E+02 2.37567E+04 3.52702E-09 2.85900E-09
 -1       617 2.44673E+04 3.92847E+00 4.26590E+02 2.71515E+04-1.98384E-09-4.62069E-09
 -1       618 2.43900E+04 9.21764E+01 8.59821E+02 2.37570E+04-2.63071E-09 1.32734E-08
 -1       619 2.47709E+04 6.68718E+02 1.93077E+03 2.71509E+04-3.28691E-09-1.04596E-08
 -1       620 2.41045E+04 2.13101E+03 3.88079E+03 2.37586E+04 5.61499E-10-2.44063E-09
 -1       621 5.11520E+02 3.01596E+05 3.88652E+03 4.11291E+04 1.14233E-09 1.23327E-09
 -1       622 6.78162E+02 3.02493E+05 3.44941E+03 5.97100E+04 1.30558E-09 2.12158E-08
 -1       623 1.43456E+02 3.01790E+05 4.14514E+03 4.09431E+04 1.39016E-09 1.36552E-08
 -1       624 2.12896E+03 3.03711E+05 8.03595E+03 5.98931E+04 1.28085E-09-7.37509E-09
 -1       625 2.07979E+03 3.00196E+05 1.40425E+04 4.09399E+04 1.48702E-09-4.73074E-09
 -1       626 2.61094E+05 6.14198E+04 5.12893E+03 1.26784E+05-4.55657E-10-1.01900E-08
 -1       627 2.58780E+05 6.28113E+04 2.47159E+03 1.31056E+05 5.93582E-09-7.80665E-09
 -1       628 2.61222E+05 5.90734E+04 1.04531E+03 1.27657E+05-2.35377E-09 1.35376E-08
 -1       629 2.58144E+05 6.21297E+04 5.11616E+02 1.31296E+05-3.63798E-09 1.57676E-08
 -1       630 2.61236E+05 5.89600E+04 2.37424E+02 1.27694E+05 9.42691E-10 3.86518E-09
 -1       631 2.58078E+05 6.21037E+04 1.27883E+02 1.31298E+05 8.16704E-09-1.92431E-08
 -1       632 2.61233E+05 5.89639E+04 8.43549E+01 1.27689E+05 7.20775E-09-1.86274E-08
 -1       633 2.58069E+05 6.21054E+04 9.42869E+01 1.31294E+05 2.34763E-09-1.58377E-08
 -1       634 2.61229E+05 5.89611E+04 1.52649E+02 1.27689E+05-1.04683E-09 1.48902E-08
 -1       635 2.58084E+05 6.21037E+04 3.09056E+02 1.31300E+05-7.50742E-09 6.08316E-09
 -1       636 2.61219E+05 5.89553E+04 6.24227E+02 1.27689E+05-7.68523E-11-6.70116E-09
 -1       637 2.58219E+05 6.22008E+04 1.37258E+03 1.31299E+05-6.26005E-09-4.14002E-09
 -1       638 2.61171E+05 5.92584E+04 2.82015E+03 1.27552E+05-3.75621E-10-9.29731E-09
 -1       639 2.59700E+05 6.42612E+04 6.67263E+03 1.30863E+05 6.30916E-09 1.76967E-08
 -1       640 2.60966E+05 6.54110E+04 1.38469E+04 1.24959E+05 4.35693E-09 5.90080E-09
 -1       656 6.65997E+04-1.70458E+06-1.60768E+05-2.56473E+03 3.63798E-11 1.44351E-08
 -1       657-8.81073E+04-1.77723E+06-1.33190E+05 5.15440E+03-5.45697E-10 1.90076E-08
 -1       658 2.12313E+04-1.72521E+06-8.20325E+04-4.64974E+03-1.00135E-09 6.01871E-09
 -1       659-9.52856E+04-1.78064E+06-1.42624E+05 6.88736E+03-9.20409E-10 5.63062E-10
 -1       660 7.37620E+04-1.70118E+06-1.76987E+05-4.29768E+03-2.26282E-09-2.31032E-09
 -1       661 1.58081E+05 1.65320E+04 1.66805E+04 6.17935E+04-6.27551E-11 2.71211E-09
 -1       662 1.67459E+05 2.89375E+04 1.12414E+04 5.81115E+04 1.68438E-09-1.15172E-08
 -1       663 1.61357E+05 2.18837E+04 3.93159E+03 6.08430E+04-3.56238E-09-1.00870E-08
 -1       664 1.63661E+05 2.26789E+04 2.35193E+03 5.92725E+04-1.00272E-09-8.04513E-09
 -1       665 1.61854E+05 2.26148E+04 9.27925E+02 6.06981E+04-1.08400E-10-4.47957E-09
 -1       666 1.63073E+05 2.18430E+04 5.43359E+02 5.94615E+04 4.59954E-09 2.74049E-08
 -1       667 1.61941E+05 2.26979E+04 2.89175E+02 6.06618E+04 1.81274E-09 7.23392E-09
 -1       668 1.62977E+05 2.17836E+04 2.95778E+02 5.95145E+04-3.76997E-09-1.49358E-08
 -1       669 1.61949E+05 2.26725E+04 4.01441E+02 6.06454E+04-4.52636E-09 1.24715E-08
 -1       670 1.63074E+05 2.20021E+04 8.75042E+02 5.95177E+04-9.90968E-09 1.00462E-08
 -1       671 1.61843E+05 2.24838E+04 1.55399E+03 6.06566E+04 1.28766E-09-4.67111E-09
 -1       672 1.63980E+05 2.35147E+04 3.97613E+03 5.92990E+04 9.08075E-09 1.92634E-08
 -1       673 1.61048E+05 2.11982E+04 6.66339E+03 6.08495E+04-9.81686E-10 9.06812E-09
 -1       674 1.70320E+05 3.42213E+04 1.90560E+04 5.74370E+04-3.02828E-09-3.68345E-11
 -1       675 1.55543E+05 1.20771E+04 2.82858E+04 6.24061E+04-3.54203E-09 1.28966E-09
 -1       676 2.38026E+01-2.95968E+05-1.09899E+03-1.38581E+02-2.25839E-10-1.03010E-09
 -1       677-2.90674E+02-2.96233E+05-2.01135E+03 2.76937E+02 7.51868E-09-1.49913E-08
 -1       678 1.94988E+02-2.95778E+05-3.55557E+03-1.38267E+02 1.88516E-09 1.33728E-09
 -1       679-3.55559E+03-2.98380E+05-8.44656E+03 2.75721E+02 9.85517E-09-1.52641E-08
 -1       680 2.12292E+03-2.93822E+05-1.36130E+04-1.35857E+02 1.31877E-10-5.97363E-09
 -1       771-3.06294E+06-7.47547E+05-1.66004E+05-1.46633E+06-3.45171E-08-2.81725E-08
 -1       772-2.98578E+06-8.36437E+05-8.55858E+04-1.56910E+06-2.35596E-08 1.50721E-08
 -1       773-3.09446E+06-7.22974E+05-4.36319E+04-1.48088E+06-1.39116E-08 1.57161E-08
 -1       774-2.97625E+06-8.17899E+05-1.94659E+04-1.59489E+06 2.98460E-08-1.17143E-09
 -1       775-3.11092E+06-7.11422E+05-1.45626E+04-1.48795E+06-1.30967E-08 3.21597E-09
 -1       776-2.98862E+06-8.14859E+05-5.44554E+03-1.61441E+06-1.24128E-08 4.02360E-09
 -1       777-3.12521E+06-7.01111E+05-6.43502E+03-1.49417E+06 1.46392E-08 9.69158E-09
 -1       778-3.00153E+06-8.12031E+05-1.81931E+03-1.63118E+06 6.24277E-09 9.35688E-09
 -1       779-3.13749E+06-6.92101E+05-3.21605E+03-1.49950E+06-9.38599E-09-6.23550E-09
 -1       780-3.01290E+06-8.09333E+05-5.33402E+02-1.64484E+06-6.54836E-09-5.63887E-11
 -1       781-3.14726E+06-6.84837E+05-1.24965E+03-1.50366E+06-3.20288E-08 5.23869E-10
 -1       782-3.02166E+06-8.07042E+05 4.49948E+02-1.65492E+06-4.07745E-08-1.98361E-09
 -1       783-3.15414E+06-6.79789E+05 7.00203E+02-1.50658E+06-7.76345E-09-8.57790E-09
 -1       784-3.02651E+06-8.04755E+05 2.90401E+03-1.66114E+06-2.59643E-08 1.03173E-08
 -1       785-3.15820E+06-6.76779E+05 5.12638E+03-1.50843E+06-4.46489E-08 1.02009E-08
 -1       786 1.23606E+05-9.76801E+03 2.25992E+04-3.22604E+02 9.23251E-10-1.50685E-08
 -1       787 1.33408E+05 1.13092E+04 1.59880E+04-1.35811E+02 6.40532E-09 1.99975E-08
 -1       788 1.27385E+05-1.53067E+03 5.84691E+03-2.87467E+02 4.29253E-09 9.03788E-09
 -1       789 1.29005E+05 1.77172E+03 3.67048E+03-1.89643E+02-1.98082E-09-3.61138E-09
 -1       790 1.28009E+05-2.38319E+02 1.48612E+03-2.68789E+02-6.39269E-09-1.73254E-08
 -1       791 1.28275E+05 2.75743E+02 8.58356E+02-2.21597E+02-1.06149E-08 1.17459E-08
 -1       792 1.28115E+05-3.58150E+01 3.63753E+02-2.55515E+02-5.59872E-09 1.30109E-08
 -1       793 1.28149E+05 3.78537E+01 1.81375E+02-2.46560E+02-2.07817E-09 4.11313E-09
 -1       794 1.28136E+05-5.79768E-01 4.72078E+01-2.43826E+02 3.42551E-09-3.53565E-09
 -1       795 1.28112E+05-2.74166E+01-5.76536E+01-2.70936E+02-4.74919E-09-4.64101E-09
 -1       796 1.28152E+05 2.94187E+01-1.62533E+02-2.31138E+02 4.11245E-09 1.10215E-08
 -1       797 1.28017E+05-2.19625E+02-4.46211E+02-3.00060E+02 5.14487E-09 4.51593E-09
 -1       798 1.28230E+05 1.91485E+02-7.24654E+02-2.14702E+02 3.06538E-09 1.61563E-08
 -1       799 1.27468E+05-1.41141E+03-1.99363E+03-3.40747E+02 6.86119E-09 5.85800E-09
 -1       800 1.28702E+05 1.22023E+03-2.82139E+03-1.90453E+02 5.79575E-10 1.70269E-09
 -1       801-1.71273E+05-9.99763E+06-1.39346E+06 1.41532E+06 9.21718E-08-5.95610E-08
 -1       802 7.38256E+05 5.94954E+06 2.18152E+06-1.74720E+06 2.57663E-07-3.71401E-08
 -1       803-5.36592E+05-1.42653E+07-1.89027E+06 8.98267E+05 7.66559E-08 1.71021E-08
 -1       804 2.87169E+05 2.39399E+06 1.53704E+06 6.77046E+05-1.20348E-07-1.04343E-07
 -1       805 1.89320E+05-6.45619E+06-2.86213E+05-1.00326E+06-4.95638E-08-7.51324E-08
 -1       806-3.09021E+05-5.97714E+04-2.28604E+04-1.22443E+05-9.71932E-09-9.98034E-09
 -1       807-3.10821E+05-5.60390E+04-1.12311E+04-1.27990E+05 6.02813E-09 1.77875E-08
 -1       808-3.09649E+05-5.15327E+04-4.76458E+03-1.26338E+05-8.94488E-10 8.98297E-09
 -1       809-3.08459E+05-5.28832E+04-2.32976E+03-1.28265E+05-9.63837E-09 1.81790E-08
 -1       810-3.09744E+05-5.12458E+04-1.06786E+03-1.26510E+05-3.05590E-09 8.43966E-09
 -1       811-3.08277E+05-5.27564E+04-5.31068E+02-1.28230E+05 6.08316E-09 2.75954E-08
 -1       812-3.09758E+05-5.12705E+04-2.68672E+02-1.26510E+05-7.60974E-09 1.57465E-08
 -1       813-3.08251E+05-5.27586E+04-1.74743E+02-1.28211E+05-8.73479E-09-2.12685E-09
 -1       814-3.09750E+05-5.12803E+04-1.73390E+02-1.26505E+05-5.28689E-09-1.36120E-08
 -1       815-3.08255E+05-5.27609E+04-2.79553E+02-1.28204E+05 4.93310E-09-8.62656E-09
 -1       816-3.09730E+05-5.12794E+04-5.29972E+02-1.26502E+05 1.04055E-08 3.54917E-08
 -1       817-3.08345E+05-5.28114E+04-1.13743E+03-1.28192E+05-1.03469E-08 3.67218E-08
 -1       818-3.09661E+05-5.14400E+04-2.31999E+03-1.26426E+05-1.39153E-10 1.05783E-08
 -1       819-3.09615E+05-5.42130E+04-5.45875E+03-1.27891E+05 3.92720E-09-3.86121E-08
 -1       820-3.09223E+05-5.55637E+04-1.11106E+04-1.24665E+05-2.53749E-09-1.14928E-08
 -1       821-3.78926E+05 2.08704E+04-4.85818E+04 2.12743E+03 1.42554E-08-9.08040E-09
 -1       822-3.98636E+05-2.41771E+04-3.41429E+04-4.45274E+03 6.53721E-09 1.60067E-08
 -1       823-3.86393E+05 3.28984E+03-1.25483E+04 3.43535E+03-1.30258E-08 1.31085E-08
 -1       824-3.89623E+05-3.79381E+03-7.85454E+03-5.36238E+03 5.82837E-10 1.71168E-08
 -1       825-3.87946E+05 5.11236E+02-3.28912E+03 3.03719E+03 2.09685E-08 1.62408E-08
 -1       826-3.87193E+05-5.67378E+02-1.74456E+03-3.09066E+03 2.55533E-08 6.29078E-09
 -1       827-3.88798E+05 4.69031E+01-1.18974E+03 1.16349E+03 1.25124E-08 5.83390E-09
 -1       828-3.86489E+05-1.32173E+02-5.86954E+02 1.09811E+03 9.16756E-10 2.08610E-08
 -1       829-3.88637E+05 6.60033E+01-1.17879E+03-1.15161E+03 3.13773E-09 1.79974E-08
 -1       830-3.87542E+05-6.22301E+02-1.88315E+03 4.88206E+03 6.12310E-10-2.10207E-09
 -1       831-3.87767E+05 5.54625E+02-3.37168E+03-2.62048E+03-5.50065E-09 1.34735E-08
 -1       832-3.89704E+05-3.96149E+03-8.15913E+03 6.16068E+03-4.74995E-09 1.18976E-08
 -1       833-3.86491E+05 3.41471E+03-1.30552E+04-2.43027E+03-2.78226E-09 6.56564E-09
 -1       834-3.98699E+05-2.50965E+04-3.53740E+04 4.19003E+03-2.89675E-09 1.35733E-08
 -1       835-3.78755E+05 2.16568E+04-5.04635E+04-6.49756E+02 4.06874E-09 2.79397E-09
 -1       836-1.41484E+03 3.70402E+05 2.29218E+04-1.61282E+04-7.11043E-09 3.73948E-08
 -1       837 4.88612E+03 3.77581E+05 1.93922E+04-3.29611E+04-7.58678E-09 2.35971E-08
 -1       838-5.58374E+02 3.72415E+05 1.97528E+04-1.60567E+04-6.29916E-09 1.02943E-08
 -1       839 1.24287E+04 3.83198E+05 3.73610E+04-3.30137E+04-6.65159E-09 1.58548E-09
 -1       840-3.84276E+03 3.64724E+05 5.95747E+04-1.60815E+04-6.07179E-09-5.47323E-09
 -1       856-5.51125E+04 8.13192E+03-2.14294E+04-4.00535E+02 5.18446E-09-1.91376E-08
 -1       857-6.39405E+04-9.55479E+03-1.47518E+04 5.71168E+03 3.34478E-09-2.05177E-08
 -1       858-5.86087E+04 1.14042E+03-5.56046E+03-4.25792E+02 2.87190E-09-8.06494E-10
 -1       859-5.99283E+04-1.34168E+03-3.35554E+03 5.74935E+03 1.02310E-09 1.50862E-08
 -1       860-5.91310E+04 1.59717E+02-1.40645E+03-4.37929E+02 2.26305E-09 8.02947E-09
 -1       861-5.93275E+04-1.90691E+02-7.74003E+02 5.76588E+03 4.55390E-09 2.48272E-08
 -1       862-5.92127E+04 2.16650E+01-3.22322E+02-4.42299E+02 8.25562E-10 8.43028E-09
 -1       863-5.92275E+04-2.23689E+01-1.18728E+02 5.76835E+03-9.51996E-10-1.85247E-08
 -1       864-5.92316E+04-4.78088E+00 4.48626E+01-4.40399E+02-1.42562E-09-1.57078E-08
 -1       865-5.91717E+04 5.88407E+01 2.52073E+02 5.75770E+03-1.45002E-09-7.71973E-09
 -1       866-5.92662E+04-5.96290E+01 5.09463E+02-4.31652E+02 1.94677E-09-1.63357E-08
 -1       867-5.89314E+04 4.92080E+02 1.25508E+03 5.73397E+03 4.20732E-09-3.89389E-09
 -1       868-5.94668E+04-4.30343E+02 2.08567E+03-4.16667E+02 1.25431E-09-6.91023E-09
 -1       869-5.74016E+04 3.58075E+03 5.55406E+03 5.69507E+03-1.86057E-09-1.80155E-08
 -1       870-6.07881E+04-3.06462E+03 8.05988E+03-3.92645E+02-2.65652E-09 2.69756E-09
 -1       871-5.52869E+03-2.15212E+04-1.95287E+04 1.30326E+05-5.99903E-09 6.23641E-09
 -1       872-1.98629E+03-2.60619E+04-8.18069E+03 1.68987E+05-1.08848E-08 1.16524E-08
 -1       873 4.05517E+02-2.38649E+04 5.82343E+02 1.30039E+05-5.27916E-09 1.25192E-08
 -1       874 3.30740E+03-2.14541E+04 9.77841E+03 1.69016E+05-1.15506E-08-4.35216E-09
 -1       875 6.84890E+03-2.61957E+04 2.20663E+04 1.30278E+05-5.44424E-09-8.40100E-09
 -1       876 2.94885E+05 4.95660E+04 1.51914E+04 1.18151E+05 5.58396E-09 4.52019E-10
 -1       877 2.95951E+05 5.27041E+04 8.11277E+03 1.22439E+05 1.11722E-08-5.11454E-09
 -1       878 2.96306E+05 4.78837E+04 3.39884E+03 1.19397E+05-6.16365E-09 3.17254E-09
 -1       879 2.93887E+05 5.06425E+04 1.69349E+03 1.22541E+05-6.67524E-09-1.04765E-08
 -1       880 2.96407E+05 4.78663E+04 7.88746E+02 1.19448E+05-9.21636E-09 1.00204E-09
 -1       881 2.93750E+05 5.05543E+04 4.21108E+02 1.22517E+05-7.45547E-09 2.16502E-08
 -1       882 2.96416E+05 4.78796E+04 2.69216E+02 1.19449E+05-1.24396E-09-1.50163E-09
 -1       883 2.93740E+05 5.05497E+04 2.89148E+02 1.22510E+05 1.47077E-09-1.23137E-08
 -1       884 2.96410E+05 4.78769E+04 4.59725E+02 1.19449E+05-7.89214E-10 3.71796E-09
 -1       885 2.93777E+05 5.05560E+04 9.24141E+02 1.22520E+05-4.53099E-09-4.89536E-09
 -1       886 2.96374E+05 4.78500E+04 1.86250E+03 1.19446E+05-6.82700E-09 1.83961E-08
 -1       887 2.94104E+05 5.07706E+04 4.06833E+03 1.22568E+05 8.32131E-09 2.29920E-09
 -1       888 2.96117E+05 4.78954E+04 8.19780E+03 1.19316E+05-1.71828E-09-4.16867E-09
 -1       889 2.98983E+05 5.58473E+04 1.95829E+04 1.22419E+05-5.89162E-09-1.89289E-08
 -1       890 2.92772E+05 5.18689E+04 3.66784E+04 1.16194E+05 6.02995E-10-6.38465E-09
 -1       891-8.43266E+01-1.66441E+05-2.17526E+03 2.68178E+04-3.15526E-09 7.58496E-09
 -1       892-2.09254E+02-1.67024E+05-2.28472E+03 4.14156E+04-7.13680E-09-1.52886E-09
 -1       893 4.74131E+01-1.66521E+05-3.16689E+03 2.68251E+04-4.93537E-09-6.43195E-09
 -1       894-1.59954E+03-1.68207E+05-6.52272E+03 4.12624E+04-4.64206E-09-1.51886E-10
 -1       895-1.07893E+03-1.65157E+05-1.14121E+04 2.69726E+04-2.35684E-09 1.49248E-08
 -1       956-3.77411E+05-5.45246E+03-1.34596E+04 3.08790E+04 6.99583E-09 7.26936E-09
 -1       957-3.80052E+05-1.92346E+03-6.90859E+03 3.71084E+04 9.84528E-10 1.20235E-08
 -1       958-3.78620E+05-2.41048E+02-3.11323E+03 3.07113E+04-3.29510E-09 8.60382E-10
 -1       959-3.78817E+05-1.36328E+02-1.58966E+03 3.73041E+04 3.01952E-09 1.04365E-10
 -1       960-3.78738E+05-4.48293E+01-7.75186E+02 3.06940E+04 3.94721E-10 1.02189E-08
 -1       961-3.78737E+05-6.32538E+01-4.10980E+02 3.73245E+04 1.00090E-08-1.15076E-08
 -1       962-3.78766E+05-4.60548E+01-2.35269E+02 3.06911E+04 3.56977E-09 1.08753E-09
 -1       963-3.78737E+05-5.90630E+01-1.88817E+02 3.73282E+04 8.31460E-09 2.11642E-08
 -1       964-3.78772E+05-4.27077E+01-2.29561E+02 3.06903E+04 3.47390E-09 2.91486E-08
 -1       965-3.78749E+05-5.61127E+01-3.97000E+02 3.73275E+04-5.12028E-09-5.35715E-09
 -1       966-3.78755E+05-3.48843E+01-7.45928E+02 3.06919E+04 2.55750E-09-4.59409E-09
 -1       967-3.78839E+05-1.19654E+02-1.52987E+03 3.73131E+04-1.04835E-08-8.57017E-09
 -1       968-3.78652E+05-2.17340E+02-2.99493E+03 3.07045E+04-6.41558E-09-1.24778E-08
 -1       969-3.80039E+05-1.83397E+03-6.64865E+03 3.71645E+04 1.69348E-09-8.59899E-10
 -1       970-3.77496E+05-5.22871E+03-1.29520E+04 3.08318E+04-1.97360E-09 5.02769E-09
 -1       971-3.45781E+05-1.72985E+03-9.32518E+03 1.52159E+04 9.53514E-09-2.36305E-08
 -1       972-3.48026E+05-1.27340E+03-5.07842E+03 2.10394E+04 4.73892E-09-9.81345E-09
 -1       973-3.46820E+05-6.18470E+01-2.27467E+03 1.50952E+04-2.40107E-10 2.37651E-09
 -1       974-3.46955E+05-8.08923E+01-1.17912E+03 2.11761E+04-4.85443E-10-4.01428E-09
 -1       975-3.46902E+05-1.70036E+01-5.89879E+02 1.50829E+04 1.65437E-09-4.54747E-09
 -1       976-3.46894E+05-3.10383E+01-3.41168E+02 2.11919E+04 5.63136E-09 4.95425E-09
 -1       977-3.46918E+05-1.62846E+01-2.49138E+02 1.50795E+04-2.43517E-09 7.34417E-10
 -1       978-3.46899E+05-2.47916E+01-2.93596E+02 2.11968E+04-8.20455E-09-8.75946E-09
 -1       979-3.46918E+05-7.74289E+00-4.73482E+02 1.50779E+04 1.66710E-09 3.84830E-10
 -1       980-3.46935E+05-2.16302E+01-9.15329E+02 2.11979E+04 1.16080E-09-1.60918E-08
 -1       981-3.46889E+05 1.52635E+01-1.77334E+03 1.50784E+04 6.58656E-09-3.86217E-09
 -1       982-3.47178E+05-1.52484E+02-3.66580E+03 2.11915E+04 6.48708E-09 1.57777E-08
 -1       983-3.46666E+05-9.80846E+01-7.12280E+03 1.50843E+04-3.70528E-09 9.11223E-09
 -1       984-3.50605E+05-3.87230E+03-1.59514E+04 2.11078E+04-7.81961E-09 3.54453E-09
 -1       985-3.43442E+05-5.30987E+03-2.92916E+04 1.51539E+04-1.03332E-08 2.18279E-09
 -3
    1PSTEP                        33          17           1          
  100CL  117 6.63114E-01         409                     0   17           1
 -4  DISP        4    1
 -5  D1          1    2    1    0
 -5  D2          1    2    2    0
 -5  D3          1    2    3    0
 -5  ALL         1    2    0    0    1ALL
 -1         1 2.71942E-03 0.00000E+00 0.00000E+00
 -1         2 1.35338E-03-1.63262E-27 5.29396E-23
 -1         3 3.42751E-04-5.85939E-28 0.00000E+00
 -1         5 1.77148E-04-1.87928E-27 8.27181E-25
 -1         8 2.70851E-03-4.06174E-07 0.00000E+00
 -1         9 2.70187E-03-1.91236E-04 0.00000E+00
 -1        10 3.10786E-04-3.40619E-06 6.61744E-24
 -1        12 1.78995E-04 8.09576E-07-1.24077E-24
 -1        15 2.69601E-03-4.29976E-07 1.03398E-25
 -1        16 2.76821E-03-1.93059E-04 0.00000E+00
 -1        17 2.11503E-04-7.76795E-06 0.00000E+00
 -1        18 1.82942E-04 3.44204E-05 0.00000E+00
 -1        19 1.84536E-04 1.61273E-06 0.00000E+00
 -1        20 1.84675E-04-9.87875E-06 0.00000E+00
 -1        21 1.83719E-04-2.53768E-05 3.30872E-24
 -1        24 3.06208E-05-1.19939E-05 0.00000E+00
 -1        25 1.93727E-04 3.46463E-05 0.00000E+00
 -1        26 1.94407E-04 2.23315E-06 0.00000E+00
 -1        27 1.92207E-04-1.34384E-05 0.00000E+00
 -1        28 1.91874E-04-2.59991E-05 0.00000E+00
 -1        32 0.00000E+00 0.00000E+00 0.00000E+00
 -1        33 2.03274E-04 2.98730E-06 0.00000E+00
 -1        34 2.01155E-04-1.34949E-05 0.00000E+00
 -1        35 1.99220E-04-2.63492E-05 0.00000E+00
 -1        51 2.71869E-03-8.51038E-08 1.65436E-24
 -1        52 2.71735E-03-1.51817E-07-3.30872E-24
 -1        53 2.71553E-03-2.15062E-07 0.00000E+00
 -1        54 2.71336E-03-2.77074E-07 0.00000E+00
 -1        55 2.71098E-03-3.39615E-07 0.00000E+00
 -1        56 2.71174E-03 8.46923E-06 5.29396E-23
 -1        57 2.69670E-03 3.50837E-05 5.29396E-23
 -1        58 2.67655E-03 7.41321E-05 0.00000E+00
 -1        59 2.65404E-03 1.18715E-04 0.00000E+00
 -1        60 2.63250E-03 1.60985E-04 0.00000E+00
 -1        61 2.61513E-03 1.93281E-04 0.00000E+00
 -1        62 2.60413E-03 2.09723E-04-1.05879E-22
 -1        63 2.60092E-03 2.05846E-04 0.00000E+00
 -1        64 2.60532E-03 1.80915E-04 0.00000E+00
 -1        65 2.61643E-03 1.36186E-04 0.00000E+00
 -1        66 2.63231E-03 7.66732E-05-1.05879E-22
 -1        67 2.65077E-03 8.84414E-06 0.00000E+00
 -1        68 2.66930E-03-5.92206E-05 1.05879E-22
 -1        69 2.68543E-03-1.19411E-04 0.00000E+00
 -1        70 2.69690E-03-1.65148E-04 1.05879E-22
 -1        86 1.43817E-03-6.05833E-06 5.29396E-23
 -1        87 1.68352E-03-3.80284E-05-2.64698E-23
 -1        88 2.01341E-03-9.29601E-05-2.64698E-23
 -1        89 2.34772E-03-1.49399E-04 0.00000E+00
 -1        90 2.60376E-03-1.83935E-04 0.00000E+00
 -1       121 3.41853E-04-5.49950E-07 0.00000E+00
 -1       122 3.39164E-04-1.10299E-06 0.00000E+00
 -1       123 3.34693E-04-1.66216E-06 1.32349E-23
 -1       124 3.28456E-04-2.23051E-06 6.61744E-24
 -1       125 3.20477E-04-2.81068E-06-1.32349E-23
 -1       191 1.77199E-04 1.34993E-07-3.30872E-24
 -1       192 1.77353E-04 2.69975E-07-1.24077E-24
 -1       193 1.77609E-04 4.04937E-07 8.27181E-25
 -1       194 1.77969E-04 5.39866E-07 4.13590E-25
 -1       195 1.78430E-04 6.74750E-07-1.65436E-24
 -1       251 2.70821E-03 1.66596E-06 0.00000E+00
 -1       252 2.70790E-03 3.62469E-06-3.30872E-24
 -1       253 2.70759E-03 4.48700E-06 0.00000E+00
 -1       254 2.70729E-03 3.28350E-06 0.00000E+00
 -1       255 2.70698E-03-6.41770E-07-6.61744E-24
 -1       256 2.70664E-03-7.91070E-06 3.30872E-24
 -1       257 2.70628E-03-1.86382E-05 0.00000E+00
 -1       258 2.70588E-03-3.28959E-05-3.30872E-24
 -1       259 2.70543E-03-5.02206E-05 6.61744E-24
 -1       260 2.70493E-03-7.01103E-05 6.61744E-24
 -1       261 2.70440E-03-9.16743E-05 0.00000E+00
 -1       262 2.70386E-03-1.14001E-04-6.61744E-24
 -1       263 2.70332E-03-1.36064E-04 1.32349E-23
 -1       264 2.70280E-03-1.56838E-04 6.61744E-24
 -1       265 2.70232E-03-1.75496E-04 1.32349E-23
 -1       266 2.70642E-03-4.15789E-07 0.00000E+00
 -1       267 2.70434E-03-4.19068E-07 8.27181E-25
 -1       268 2.70226E-03-4.22748E-07 0.00000E+00
 -1       269 2.70017E-03-4.25239E-07 0.00000E+00
 -1       270 2.69809E-03-4.27702E-07 2.06795E-25
 -1       271 2.70765E-03 1.00702E-07 1.32349E-23
 -1       272 2.70774E-03-2.00070E-06 6.61744E-24
 -1       273 2.70875E-03-6.55646E-06-1.32349E-23
 -1       274 2.71060E-03-1.34006E-05 1.32349E-23
 -1       275 2.71322E-03-2.23464E-05 0.00000E+00
 -1       276 2.71654E-03-3.31918E-05 0.00000E+00
 -1       277 2.72046E-03-4.57188E-05-2.64698E-23
 -1       278 2.72491E-03-5.96961E-05 0.00000E+00
 -1       279 2.72979E-03-7.48811E-05 0.00000E+00
 -1       280 2.73501E-03-9.10210E-05-6.61744E-24
 -1       281 2.74048E-03-1.07855E-04-1.32349E-23
 -1       282 2.74610E-03-1.25118E-04-6.61744E-24
 -1       283 2.75178E-03-1.42540E-04-1.32349E-23
 -1       284 2.75742E-03-1.59851E-04 0.00000E+00
 -1       285 2.76293E-03-1.76780E-04-1.32349E-23
 -1       301 2.71393E-03-1.91574E-04-6.61744E-24
 -1       302 2.72434E-03-1.91866E-04-3.30872E-24
 -1       303 2.73404E-03-1.92148E-04 0.00000E+00
 -1       304 2.74397E-03-1.92430E-04 0.00000E+00
 -1       305 2.75505E-03-1.92726E-04 0.00000E+00
 -1       306 2.73982E-03-3.46126E-04 0.00000E+00
 -1       307 2.80369E-03-7.60591E-04 0.00000E+00
 -1       308 2.85031E-03-1.36627E-03 0.00000E+00
 -1       309 2.87410E-03-2.06701E-03-5.29396E-23
 -1       310 2.90541E-03-2.73698E-03-1.05879E-22
 -1       311 2.96493E-03-3.25305E-03 0.00000E+00
 -1       312 3.02270E-03-3.53461E-03-1.05879E-22
 -1       313 3.01773E-03-3.54393E-03 5.29396E-23
 -1       314 2.87609E-03-3.29321E-03 0.00000E+00
 -1       315 2.55693E-03-2.84709E-03 0.00000E+00
 -1       316 2.07878E-03-2.28228E-03 0.00000E+00
 -1       317 1.50774E-03-1.66808E-03 5.29396E-23
 -1       318 9.58289E-04-1.06505E-03 0.00000E+00
 -1       319 5.38520E-04-5.38154E-04 0.00000E+00
 -1       320 2.92201E-04-1.61571E-04 0.00000E+00
 -1       336 2.99196E-04-4.06461E-06 0.00000E+00
 -1       337 2.85530E-04-4.74873E-06-6.61744E-24
 -1       338 2.69849E-04-5.46076E-06 1.32349E-23
 -1       339 2.52228E-04-6.20154E-06 0.00000E+00
 -1       340 2.32749E-04-6.97552E-06 0.00000E+00
 -1       406 1.79662E-04 9.44326E-07-8.27181E-25
 -1       407 1.80432E-04 1.07896E-06-1.24077E-24
 -1       408 1.81304E-04 1.21343E-06-1.65436E-24
 -1       409 1.82279E-04 1.34756E-06 1.24077E-24
 -1       410 1.83357E-04 1.48108E-06 2.89513E-24
 -1       521 2.80676E-03-3.57239E-04 0.00000E+00
 -1       522 2.86883E-03-7.92047E-04 5.29396E-23
 -1       523 2.90895E-03-1.42569E-03 1.05879E-22
 -1       524 2.92345E-03-2.15523E-03 0.00000E+00
 -1       525 2.94680E-03-2.85199E-03 0.00000E+00
 -1       526 3.00275E-03-3.39022E-03 0.00000E+00
 -1       527 3.06010E-03-3.68241E-03 2.11758E-22
 -1       528 3.05281E-03-3.68991E-03-1.05879E-22
 -1       529 2.89904E-03-3.42492E-03 2.11758E-22
 -1       530 2.55569E-03-2.96010E-03-5.29396E-23
 -1       531 2.04210E-03-2.37598E-03-1.05879E-22
 -1       532 1.43086E-03-1.74445E-03 0.00000E+00
 -1       533 8.41915E-04-1.12343E-03 1.05879E-22
 -1       534 3.88556E-04-5.75526E-04 5.29396E-23
 -1       535 1.20868E-04-1.79286E-04 0.00000E+00
 -1       536 2.10748E-04 2.71589E-05 6.61744E-24
 -1       537 2.08830E-04 8.76019E-05 0.00000E+00
 -1       538 2.05866E-04 1.64294E-04 3.30872E-24
 -1       539 2.02370E-04 2.47884E-04 0.00000E+00
 -1       540 1.99224E-04 3.26871E-04 0.00000E+00
 -1       541 1.97179E-04 3.89772E-04-1.65436E-24
 -1       542 1.96235E-04 4.29836E-04 0.00000E+00
 -1       543 1.96010E-04 4.40459E-04 0.00000E+00
 -1       544 1.95688E-04 4.22413E-04 0.00000E+00
 -1       545 1.94515E-04 3.76694E-04 0.00000E+00
 -1       546 1.92330E-04 3.11429E-04 0.00000E+00
 -1       547 1.89372E-04 2.34864E-04 1.65436E-24
 -1       548 1.86442E-04 1.58675E-04 0.00000E+00
 -1       549 1.84327E-04 9.45388E-05 0.00000E+00
 -1       550 1.83229E-04 5.04857E-05 0.00000E+00
 -1       551 1.86299E-04-8.33748E-06 0.00000E+00
 -1       552 1.57849E-04-8.98747E-06 0.00000E+00
 -1       553 1.27097E-04-9.69972E-06 3.30872E-24
 -1       554 9.50023E-05-1.04531E-05 3.30872E-24
 -1       555 6.25253E-05-1.12202E-05-1.32349E-23
 -1       556 2.03854E-04 1.17904E-05 0.00000E+00
 -1       557 1.97674E-04 2.76527E-05 0.00000E+00
 -1       558 1.92829E-04 4.01068E-05 5.29396E-23
 -1       559 1.89186E-04 4.94633E-05-2.64698E-23
 -1       560 1.86615E-04 5.60331E-05 0.00000E+00
 -1       561 1.84988E-04 6.01294E-05 0.00000E+00
 -1       562 1.84179E-04 6.20672E-05 0.00000E+00
 -1       563 1.84065E-04 6.21618E-05 1.32349E-23
 -1       564 1.84524E-04 6.07299E-05 0.00000E+00
 -1       565 1.85435E-04 5.80885E-05 0.00000E+00
 -1       566 1.86678E-04 5.45553E-05 0.00000E+00
 -1       567 1.88134E-04 5.04486E-05 0.00000E+00
 -1       568 1.89685E-04 4.60865E-05 0.00000E+00
 -1       569 1.91212E-04 4.17873E-05 0.00000E+00
 -1       570 1.92598E-04 3.78693E-05 0.00000E+00
 -1       571 1.83039E-04 3.22917E-05-8.27181E-25
 -1       572 1.83138E-04 3.00973E-05-8.27181E-25
 -1       573 1.83237E-04 2.78529E-05 1.65436E-24
 -1       574 1.83336E-04 2.55748E-05 8.27181E-25
 -1       575 1.83436E-04 2.32795E-05-3.30872E-24
 -1       576 1.83535E-04 2.09834E-05 3.30872E-24
 -1       577 1.83635E-04 1.87031E-05 3.30872E-24
 -1       578 1.83734E-04 1.64551E-05 3.30872E-24
 -1       579 1.83834E-04 1.42559E-05 0.00000E+00
 -1       580 1.83934E-04 1.21221E-05 0.00000E+00
 -1       581 1.84034E-04 1.00702E-05-6.61744E-24
 -1       582 1.84134E-04 8.11663E-06 0.00000E+00
 -1       583 1.84235E-04 6.27800E-06 0.00000E+00
 -1       584 1.84335E-04 4.57059E-06 0.00000E+00
 -1       585 1.84436E-04 3.01057E-06 0.00000E+00
 -1       586 1.84699E-04 3.44601E-05 1.65436E-24
 -1       587 1.86414E-04 3.44993E-05 0.00000E+00
 -1       588 1.88131E-04 3.45382E-05-8.27181E-25
 -1       589 1.89894E-04 3.45764E-05 0.00000E+00
 -1       590 1.91745E-04 3.46133E-05 0.00000E+00
 -1       591 1.83672E-04 3.23855E-05-1.03398E-25
 -1       592 1.84405E-04 3.03307E-05 2.06795E-25
 -1       593 1.85142E-04 2.82620E-05 0.00000E+00
 -1       594 1.85883E-04 2.61839E-05-4.13590E-25
 -1       595 1.86625E-04 2.41013E-05-8.27181E-25
 -1       596 1.87367E-04 2.20188E-05 4.13590E-25
 -1       597 1.88107E-04 1.99411E-05 8.27181E-25
 -1       598 1.88844E-04 1.78730E-05 0.00000E+00
 -1       599 1.89575E-04 1.58190E-05-8.27181E-25
 -1       600 1.90299E-04 1.37839E-05 0.00000E+00
 -1       601 1.91015E-04 1.17723E-05 8.27181E-25
 -1       602 1.91720E-04 9.78900E-06 4.13590E-25
 -1       603 1.92413E-04 7.83858E-06 0.00000E+00
 -1       604 1.93092E-04 5.92587E-06-1.29247E-25
 -1       605 1.93756E-04 4.05544E-06 0.00000E+00
 -1       606 1.84549E-04 4.48262E-07 0.00000E+00
 -1       607 1.84559E-04-6.30455E-07-1.65436E-24
 -1       608 1.84568E-04-1.62845E-06 3.30872E-24
 -1       609 1.84576E-04-2.55140E-06 0.00000E+00
 -1       610 1.84585E-04-3.40503E-06 3.30872E-24
 -1       611 1.84593E-04-4.19514E-06 0.00000E+00
 -1       612 1.84601E-04-4.92751E-06 0.00000E+00
 -1       613 1.84609E-04-5.60796E-06 0.00000E+00
 -1       614 1.84618E-04-6.24228E-06 0.00000E+00
 -1       615 1.84626E-04-6.83629E-06-8.27181E-25
 -1       616 1.84634E-04-7.39579E-06 0.00000E+00
 -1       617 1.84643E-04-7.92658E-06-4.13590E-25
 -1       618 1.84651E-04-8.43446E-06 0.00000E+00
 -1       619 1.84660E-04-8.92525E-06-2.06795E-25
 -1       620 1.84668E-04-9.40475E-06 0.00000E+00
 -1       621 1.85895E-04 1.71670E-06-3.30872E-24
 -1       622 1.87413E-04 1.82092E-06 8.27181E-25
 -1       623 1.89057E-04 1.92492E-06-1.65436E-24
 -1       624 1.90793E-04 2.02860E-06-8.27181E-25
 -1       625 1.92587E-04 2.13198E-06 1.65436E-24
 -1       626 1.85085E-04 4.84400E-07 0.00000E+00
 -1       627 1.85611E-04-5.80977E-07 6.61744E-24
 -1       628 1.86117E-04-1.59125E-06-6.61744E-24
 -1       629 1.86605E-04-2.55457E-06-1.65436E-24
 -1       630 1.87079E-04-3.47913E-06 0.00000E+00
 -1       631 1.87541E-04-4.37314E-06 0.00000E+00
 -1       632 1.87995E-04-5.24480E-06 3.30872E-24
 -1       633 1.88444E-04-6.10231E-06-1.65436E-24
 -1       634 1.88891E-04-6.95389E-06-3.30872E-24
 -1       635 1.89338E-04-7.80773E-06 0.00000E+00
 -1       636 1.89789E-04-8.67205E-06 0.00000E+00
 -1       637 1.90247E-04-9.55505E-06-1.65436E-24
 -1       638 1.90716E-04-1.04649E-05 1.65436E-24
 -1       639 1.91197E-04-1.14100E-05 1.65436E-24
 -1       640 1.91693E-04-1.23983E-05 0.00000E+00
 -1       656 1.85382E-04-1.04573E-05-6.61744E-24
 -1       657 1.86509E-04-1.10594E-05 0.00000E+00
 -1       658 1.87916E-04-1.16600E-05 1.32349E-23
 -1       659 1.89457E-04-1.22604E-05 0.00000E+00
 -1       660 1.90949E-04-1.28625E-05-6.61744E-24
 -1       661 1.84939E-04-1.03970E-05-8.27181E-25
 -1       662 1.85240E-04-1.10057E-05 0.00000E+00
 -1       663 1.85573E-04-1.16998E-05 0.00000E+00
 -1       664 1.85937E-04-1.24730E-05-8.27181E-25
 -1       665 1.86327E-04-1.33199E-05 0.00000E+00
 -1       666 1.86743E-04-1.42349E-05 0.00000E+00
 -1       667 1.87183E-04-1.52124E-05 0.00000E+00
 -1       668 1.87644E-04-1.62474E-05-8.27181E-25
 -1       669 1.88125E-04-1.73345E-05 0.00000E+00
 -1       670 1.88623E-04-1.84688E-05 0.00000E+00
 -1       671 1.89137E-04-1.96454E-05 0.00000E+00
 -1       672 1.89665E-04-2.08595E-05 0.00000E+00
 -1       673 1.90205E-04-2.21063E-05-1.65436E-24
 -1       674 1.90755E-04-2.33814E-05-4.13590E-25
 -1       675 1.91313E-04-2.46799E-05 2.06795E-25
 -1       676 1.85083E-04-2.54811E-05 0.00000E+00
 -1       677 1.86446E-04-2.55854E-05 1.65436E-24
 -1       678 1.87808E-04-2.56896E-05 3.30872E-24
 -1       679 1.89167E-04-2.57935E-05 1.65436E-24
 -1       680 1.90522E-04-2.58974E-05 3.30872E-24
 -1       771 1.86658E-05 1.47407E-05 0.00000E+00
 -1       772 8.60802E-06 3.66980E-05 0.00000E+00
 -1       773 3.56730E-07 5.41085E-05 0.00000E+00
 -1       774-6.21244E-06 6.72301E-05 0.00000E+00
 -1       775-1.12212E-05 7.63312E-05 5.29396E-23
 -1       776-1.47961E-05 8.16969E-05 0.00000E+00
 -1       777-1.70634E-05 8.36226E-05-5.29396E-23
 -1       778-1.81523E-05 8.24173E-05 2.64698E-23
 -1       779-1.81910E-05 7.83988E-05 0.00000E+00
 -1       780-1.73098E-05 7.18960E-05 7.94093E-23
 -1       781-1.56382E-05 6.32450E-05 1.05879E-22
 -1       782-1.33071E-05 5.27904E-05 0.00000E+00
 -1       783-1.04467E-05 4.08815E-05 0.00000E+00
 -1       784-7.18816E-06 2.78740E-05 0.00000E+00
 -1       785-3.66189E-06 1.41265E-05 0.00000E+00
 -1       786 1.93765E-04 3.23926E-05 0.00000E+00
 -1       787 1.93807E-04 3.01891E-05 0.00000E+00
 -1       788 1.93849E-04 2.80273E-05-8.27181E-25
 -1       789 1.93891E-04 2.58992E-05-8.27181E-25
 -1       790 1.93933E-04 2.37999E-05 0.00000E+00
 -1       791 1.93976E-04 2.17248E-05 0.00000E+00
 -1       792 1.94019E-04 1.96715E-05 0.00000E+00
 -1       793 1.94062E-04 1.76380E-05 0.00000E+00
 -1       794 1.94105E-04 1.56240E-05 1.65436E-24
 -1       795 1.94147E-04 1.36294E-05 8.27181E-25
 -1       796 1.94190E-04 1.16559E-05 1.65436E-24
 -1       797 1.94233E-04 9.70558E-06 0.00000E+00
 -1       798 1.94276E-04 7.78253E-06 0.00000E+00
 -1       799 1.94320E-04 5.89110E-06 0.00000E+00
 -1       800 1.94363E-04 4.03877E-06 0.00000E+00
 -1       801 1.47933E-04 3.11470E-05 2.64698E-23
 -1       802 9.47145E-06 1.94314E-05 0.00000E+00
 -1       803-1.08801E-04 9.81452E-06-5.29396E-23
 -1       804-9.64526E-05 6.83131E-06 0.00000E+00
 -1       805-3.18688E-05 2.68455E-06-5.29396E-23
 -1       806 1.94457E-04 3.23238E-05 0.00000E+00
 -1       807 1.95172E-04 3.00276E-05 0.00000E+00
 -1       808 1.95876E-04 2.77628E-05 0.00000E+00
 -1       809 1.96565E-04 2.55335E-05-1.65436E-24
 -1       810 1.97240E-04 2.33437E-05 0.00000E+00
 -1       811 1.97899E-04 2.11975E-05 0.00000E+00
 -1       812 1.98540E-04 1.90986E-05 0.00000E+00
 -1       813 1.99161E-04 1.70511E-05 0.00000E+00
 -1       814 1.99762E-04 1.50589E-05 3.30872E-24
 -1       815 2.00341E-04 1.31258E-05 8.27181E-25
 -1       816 2.00897E-04 1.12558E-05-3.30872E-24
 -1       817 2.01427E-04 9.45273E-06-1.65436E-24
 -1       818 2.01931E-04 7.72049E-06 3.30872E-24
 -1       819 2.02408E-04 6.06296E-06 1.65436E-24
 -1       820 2.02855E-04 4.48397E-06-1.65436E-24
 -1       821 1.94277E-04-1.27170E-07-1.65436E-24
 -1       822 1.94137E-04-3.63816E-06 0.00000E+00
 -1       823 1.93995E-04-7.87273E-06 3.30872E-24
 -1       824 1.93850E-04-1.23992E-05 1.65436E-24
 -1       825 1.93706E-04-1.67072E-05-3.30872E-24
 -1       826 1.93564E-04-2.02873E-05 0.00000E+00
 -1       827 1.93425E-04-2.28285E-05 3.30872E-24
 -1       828 1.93289E-04-2.40261E-05 0.00000E+00
 -1       829 1.93153E-04-2.39411E-05 3.30872E-24
 -1       830 1.93017E-04-2.26423E-05-1.65436E-24
 -1       831 1.92879E-04-2.05289E-05 3.30872E-24
 -1       832 1.92741E-04-1.80050E-05-1.65436E-24
 -1       833 1.92603E-04-1.55867E-05-3.30872E-24
 -1       834 1.92468E-04-1.37892E-05 0.00000E+00
 -1       835 1.92333E-04-1.29595E-05 8.27181E-25
 -1       836 1.96097E-04 2.35821E-06-3.30872E-24
 -1       837 1.97661E-04 2.48642E-06-1.65436E-24
 -1       838 1.99128E-04 2.61456E-06 3.30872E-24
 -1       839 2.00532E-04 2.74201E-06 0.00000E+00
 -1       840 2.01903E-04 2.86929E-06 0.00000E+00
 -1       856 1.92190E-04-1.45000E-05 0.00000E+00
 -1       857 1.92169E-04-1.54243E-05 0.00000E+00
 -1       858 1.92149E-04-1.62327E-05 0.00000E+00
 -1       859 1.92128E-04-1.69466E-05 2.06795E-25
 -1       860 1.92108E-04-1.75875E-05 4.13590E-25
 -1       861 1.92087E-04-1.81770E-05 0.00000E+00
 -1       862 1.92066E-04-1.87368E-05 0.00000E+00
 -1       863 1.92045E-04-1.92884E-05 0.00000E+00
 -1       864 1.92024E-04-1.98535E-05 8.27181E-25
 -1       865 1.92003E-04-2.04538E-05 0.00000E+00
 -1       866 1.91982E-04-2.11108E-05 8.27181E-25
 -1       867 1.91961E-04-2.18461E-05 0.00000E+00
 -1       868 1.91940E-04-2.26812E-05 0.00000E+00
 -1       869 1.91919E-04-2.36375E-05 4.13590E-25
 -1       870 1.91897E-04-2.47364E-05 0.00000E+00
 -1       871 1.93557E-04-1.34433E-05 0.00000E+00
 -1       872 1.95054E-04-1.34517E-05 0.00000E+00
 -1       873 1.96631E-04-1.34608E-05 0.00000E+00
 -1       874 1.98219E-04-1.34707E-05-1.80946E-25
 -1       875 1.99749E-04-1.34810E-05-6.20385E-25
 -1       876 1.92733E-04-1.44865E-05-3.30872E-24
 -1       877 1.93237E-04-1.54680E-05-1.65436E-24
 -1       878 1.93719E-04-1.63909E-05 3.30872E-24
 -1       879 1.94183E-04-1.72625E-05 1.65436E-24
 -1       880 1.94630E-04-1.80898E-05 0.00000E+00
 -1       881 1.95063E-04-1.88804E-05 0.00000E+00
 -1       882 1.95485E-04-1.96412E-05 3.30872E-24
 -1       883 1.95899E-04-2.03797E-05 0.00000E+00
 -1       884 1.96307E-04-2.11030E-05 0.00000E+00
 -1       885 1.96712E-04-2.18183E-05 0.00000E+00
 -1       886 1.97117E-04-2.25328E-05 0.00000E+00
 -1       887 1.97524E-04-2.32537E-05-1.65436E-24
 -1       888 1.97936E-04-2.39883E-05 3.30872E-24
 -1       889 1.98355E-04-2.47440E-05-1.65436E-24
 -1       890 1.98784E-04-2.55279E-05 1.65436E-24
 -1       891 1.93246E-04-2.60579E-05 0.00000E+00
 -1       892 1.94594E-04-2.61169E-05-8.27181E-25
 -1       893 1.95891E-04-2.61758E-05-1.65436E-24
 -1       894 1.97112E-04-2.62344E-05 4.13590E-25
 -1       895 1.98230E-04-2.62927E-05-4.13590E-25
 -1       956 2.03144E-04 1.66532E-06 1.65436E-24
 -1       957 2.03011E-04 4.34921E-07-1.65436E-24
 -1       958 2.02878E-04-7.14645E-07 3.30872E-24
 -1       959 2.02746E-04-1.79472E-06 1.65436E-24
 -1       960 2.02613E-04-2.81670E-06 0.00000E+00
 -1       961 2.02480E-04-3.79200E-06 0.00000E+00
 -1       962 2.02347E-04-4.73205E-06-3.30872E-24
 -1       963 2.02214E-04-5.64832E-06-1.65436E-24
 -1       964 2.02081E-04-6.55225E-06 0.00000E+00
 -1       965 2.01948E-04-7.45528E-06 0.00000E+00
 -1       966 2.01816E-04-8.36887E-06-3.30872E-24
 -1       967 2.01683E-04-9.30448E-06-1.65436E-24
 -1       968 2.01550E-04-1.02735E-05 0.00000E+00
 -1       969 2.01418E-04-1.12874E-05-3.30872E-24
 -1       970 2.01285E-04-1.23576E-05-3.30872E-24
 -1       971 2.01035E-04-1.46321E-05 3.30872E-24
 -1       972 2.00913E-04-1.56751E-05 1.65436E-24
 -1       973 2.00792E-04-1.66340E-05-3.30872E-24
 -1       974 2.00670E-04-1.75196E-05 0.00000E+00
 -1       975 2.00549E-04-1.83427E-05 0.00000E+00
 -1       976 2.00427E-04-1.91140E-05 1.65436E-24
 -1       977 2.00306E-04-1.98442E-05 0.00000E+00
 -1       978 2.00184E-04-2.05442E-05 1.65436E-24
 -1       979 2.00063E-04-2.12247E-05 0.00000E+00
 -1       980 1.99941E-04-2.18966E-05 0.00000E+00
 -1       981 1.99820E-04-2.25705E-05 0.00000E+00
 -1       982 1.99698E-04-2.32574E-05-1.65436E-24
 -1       983 1.99577E-04-2.39679E-05 0.00000E+00
 -1       984 1.99456E-04-2.47130E-05 0.00000E+00
 -1       985 1.99336E-04-2.55032E-05 3.30872E-24
 -3
    1PSTEP                        34          17           1          
  100CL  117 6.63114E-01         409                     0   17           1
 -4  STRESS      6    1
 -5  SXX         1    4    1    1
 -5  SYY         1    4    2    2
 -5  SZZ         1    4    3    3
 -5  SXY         1    4    1    2
 -5  SYZ         1    4    2    3
 -5  SZX         1    4    3    1
 -1         1-5.33957E+06-1.60181E+06-1.13375E+06-1.36590E+06 1.01863E-09-2.00816E-08
 -1         2 1.45225E+06 2.13195E+07 4.98033E+06 6.43442E+06 2.30502E-08 3.56958E-08
 -1         3-1.48884E+03-1.56149E+06 4.06467E+02-2.21684E+03-7.23418E-10 5.19503E-09
 -1         5-7.53006E+01 3.86565E+05 9.98526E+00-1.34381E+00-4.95868E-10 1.36006E-08
 -1         8-5.60703E+05-2.02082E+05-6.33462E+04-2.45995E+05-2.72848E-11-2.50657E-09
 -1         9 1.17412E+07 3.73605E+06 2.76710E+06-3.56306E+05-3.98140E-09 1.62632E-07
 -1        10-2.30626E+03-1.62720E+06-3.95345E+03-1.49999E+04-1.32513E-08-2.23313E-08
 -1        12-7.13811E+01 3.86587E+05 3.28242E+02-9.15894E+00-6.69466E-10 2.32831E-10
 -1        15 9.35937E+02 5.14344E+02 3.02539E+03 8.42981E-01-1.89033E-10-2.79495E-08
 -1        16 2.28956E+07-3.25106E+05 3.11806E+06-2.26591E+06 2.38263E-08 2.27243E-07
 -1        17 8.37912E+06 6.28076E+06 2.26386E+06 6.00996E+06 2.38011E-08 1.94064E-08
 -1        18 1.42380E+05 3.35266E+04 4.15351E+03-1.19586E+05 1.41395E-08 1.62877E-08
 -1        19 1.22473E+05 1.41730E+05-9.45023E+02 2.19741E+04 1.68529E-09 6.58183E-09
 -1        20-8.21711E+04-5.73892E+05-1.28792E+05 2.50853E+04-2.42305E-09 7.02494E-09
 -1        21-4.49520E+01-2.96078E+05-9.11953E+02 2.76979E+02 1.67598E-08-3.18777E-09
 -1        24 1.40317E+07 1.20880E+07 3.88537E+06 1.11928E+07-1.71169E-07-5.11451E-08
 -1        25 1.25037E+05 2.67725E+05 1.00100E+05-6.45958E+05-3.27891E-09-1.27122E-08
 -1        26-5.54309E+04 9.23291E+04-2.46422E+04 1.31674E+03-2.70666E-10 6.27291E-09
 -1        27-7.59012E+04-3.10167E+05-1.13450E+05 6.89904E+04 4.30767E-09 3.09046E-09
 -1        28 2.13964E+04-8.62658E+04 1.69447E+04 2.06291E+04-6.50192E-09-1.32170E-08
 -1        32-1.68067E+06-3.18107E+06-1.97374E+05 4.57883E+05-4.20987E-08-8.69022E-09
 -1        33-1.78561E+05 9.30439E+04 3.24028E+04-3.84914E+04-3.00345E-09 4.23612E-09
 -1        34-2.23785E+05-2.50973E+04 6.85963E+02 7.55349E+04-6.32362E-09-2.26419E-09
 -1        35-2.29835E+04-3.50753E+04-1.62055E+03 5.15328E+04-8.74571E-09-3.16262E-09
 -1        51 6.06287E+04-1.72509E+05 1.28234E+05-4.40955E+05-2.47383E-10 2.91533E-07
 -1        52 2.05290E+04-1.50113E+05 6.72757E+04-5.14279E+05-8.18545E-12 2.60032E-07
 -1        53 4.18832E+03-1.65485E+05 3.50144E+04-4.39438E+05 2.67391E-10-1.30211E-07
 -1        54 7.39777E+03-1.61275E+05 2.87332E+04-5.15767E+05-5.12955E-10 1.39029E-07
 -1        55 1.61173E+04-1.68299E+05 3.49053E+04-4.39344E+05 2.40107E-10-4.33593E-08
 -1        56-9.77672E+06-1.35897E+06-9.11020E+05-4.07132E+06 9.86620E-09-8.42265E-08
 -1        57-1.10394E+07-8.55365E+05-5.49017E+05-2.74279E+06 6.02959E-08 3.04492E-07
 -1        58-9.60123E+06-1.81813E+06-2.00949E+05-4.25388E+06-1.55705E-08 2.33813E-07
 -1        59-1.11962E+07-3.30369E+05-1.08852E+05-2.67256E+06-1.43973E-09 9.50095E-08
 -1        60-9.69322E+06-1.82254E+06-5.68864E+04-4.20635E+06-2.94676E-09 3.05590E-08
 -1        61-1.05702E+07-6.54605E+05 1.34221E+04-2.92046E+06 3.80969E-08 7.90460E-08
 -1        62-1.00991E+07-1.58039E+06-7.27834E+04-3.90478E+06-1.09721E-08-1.65521E-07
 -1        63-9.70221E+06-1.34523E+06 5.06240E+04-3.60478E+06-1.84227E-08 5.66070E-08
 -1        64-1.04594E+07-1.20439E+06-6.68828E+04-3.45732E+06-2.79397E-09 1.05429E-07
 -1        65-9.32890E+06-1.93518E+06 1.06832E+04-4.48234E+06-3.63943E-08 1.67380E-07
 -1        66-1.05911E+07-9.08024E+05-4.67840E+04-3.11668E+06 2.45709E-08 2.66251E-07
 -1        67-9.33477E+06-2.18831E+06-9.80237E+04-4.89742E+06-6.88106E-08 1.09503E-07
 -1        68-1.05715E+07-8.68588E+05-1.86223E+05-3.11611E+06-5.96538E-08-1.27897E-07
 -1        69-9.52142E+06-2.27501E+06-4.88715E+05-4.44918E+06-4.71719E-08-1.65579E-07
 -1        70-1.02956E+07-9.09335E+05-8.35823E+05-3.49251E+06-2.68510E-08-6.32135E-08
 -1        86-1.48145E+06-1.53263E+07-2.72553E+06-3.02421E+06-2.61436E-07-1.18016E-07
 -1        87 2.32139E+06 6.10294E+06 2.26720E+06 5.62513E+06-4.52397E-07-9.16880E-08
 -1        88-4.33197E+05-1.98534E+06 2.13407E+05-2.52692E+06-4.05940E-07 1.97392E-08
 -1        89 3.10932E+06 5.81757E+06 2.32285E+06 5.81113E+06-6.06706E-07-1.00432E-07
 -1        90-2.17897E+06-1.51144E+07-2.94421E+06-3.23783E+06-1.42874E-07-9.00764E-09
 -1       121-2.03959E+03-1.56640E+06-5.47139E+02 1.09878E+03 1.48304E-09 5.67525E-10
 -1       122-1.30265E+03-1.56156E+06 7.70809E+02-4.43772E+03-5.26367E-09-1.54796E-08
 -1       123-2.05937E+03-1.56653E+06 2.62427E+02 3.28153E+03 4.45016E-09 4.36557E-11
 -1       124 3.36968E+02-1.56111E+06 2.95452E+03-9.28495E+03-9.94623E-09 6.80302E-09
 -1       125-2.86978E+03-1.56743E+06 3.46756E+03 5.90004E+03 6.93944E-09 6.80302E-09
 -1       191-7.93528E+01 3.86584E+05 8.48972E+00 7.00672E-01-5.97511E-10 1.29694E-08
 -1       192-7.62647E+01 3.86566E+05 2.13083E+01-4.30781E+00-8.18928E-10-3.31038E-08
 -1       193-8.18905E+01 3.86583E+05 3.62764E+01 3.78329E+00-1.07681E-09-3.61615E-09
 -1       194-7.93556E+01 3.86569E+05 8.10048E+01-9.77482E+00-5.29091E-10 1.20526E-08
 -1       195-8.67613E+01 3.86581E+05 1.55085E+02 6.36116E+00-1.53847E-09 6.09543E-09
 -1       251-8.66271E+05 1.61030E+04-3.76079E+04-1.41804E+04 1.90588E-09 7.82020E-08
 -1       252-8.80626E+05-1.86295E+04-2.61832E+04 4.96908E+04-1.26391E-09-1.50596E-07
 -1       253-8.74543E+05 2.47241E+03-1.01083E+04-1.00830E+04-3.39264E-09-1.09113E-07
 -1       254-8.67501E+05-2.98526E+03-4.59176E+03 3.54219E+04-6.80711E-09-5.05990E-07
 -1       255-8.78806E+05 6.95198E+01-3.47031E+03 8.51544E+01 7.98218E-09 1.45910E-07
 -1       256-8.62234E+05-2.77166E+02 1.09194E+03 1.23181E+04-1.60568E-08 1.19756E-07
 -1       257-8.79383E+05-5.51318E+02-1.33980E+03 1.30101E+04 5.10363E-09-1.44438E-07
 -1       258-8.64908E+05 8.78111E+02 2.63613E+03-1.20113E+04-1.14242E-08 7.99874E-08
 -1       259-8.76368E+05-9.02742E+02 1.38895E+03 2.44123E+04 1.34150E-09-1.83936E-07
 -1       260-8.71032E+05 2.87714E+03 5.53728E+03-2.95737E+04-1.01670E-08-3.10951E-07
 -1       261-8.73871E+05-2.07823E+03 8.63289E+03 3.05877E+04 7.06905E-09 7.62807E-08
 -1       262-8.69610E+05 1.16895E+04 2.14385E+04-3.47008E+04-6.91186E-09-6.44206E-08
 -1       263-8.78032E+05-9.49461E+03 3.39775E+04 2.95482E+04 1.32325E-08-9.29667E-08
 -1       264-8.39333E+05 6.67830E+04 9.40260E+04-2.56089E+04 2.39697E-08-1.35858E-07
 -1       265-9.03664E+05-5.72940E+04 1.31008E+05 2.14844E+04 1.48978E-08 8.15489E-08
 -1       266-1.69438E+04-7.92374E+03 3.97511E+04-1.80358E+01-1.56433E-10-3.85087E-08
 -1       267 1.96423E+04 9.23402E+03 2.80975E+04 2.08115E+01 4.54747E-11-2.18480E-07
 -1       268-2.63400E+03-1.30786E+03 1.04436E+04-2.65164E+00-9.73159E-11-3.22280E-08
 -1       269 3.10997E+03 1.56516E+03 6.78827E+03 3.08888E+00 3.87672E-11-3.76744E-08
 -1       270-4.66809E+02-2.57169E+02 3.27679E+03-4.19178E-01-1.06070E-10-4.71146E-08
 -1       271-1.49235E+06-1.89601E+05-1.12348E+05-5.80458E+05 2.21480E-08 1.05880E-07
 -1       272-1.49031E+06-3.02330E+05-7.06577E+04-6.17174E+05 2.30029E-08 6.60575E-08
 -1       273-1.51600E+06-2.13622E+05-2.72090E+04-5.72452E+05-3.02243E-08-4.18913E-07
 -1       274-1.46325E+06-2.73442E+05-1.42110E+04-6.32181E+05-4.39468E-08 9.34961E-09
 -1       275-1.52158E+06-2.13294E+05-6.75912E+03-5.68721E+05 1.08339E-08-1.48826E-07
 -1       276-1.45753E+06-2.74294E+05-2.88409E+03-6.40637E+05-4.47926E-08 1.58329E-08
 -1       277-1.52437E+06-2.10725E+05-1.86675E+03-5.66019E+05 5.61995E-08-2.16672E-07
 -1       278-1.45529E+06-2.77471E+05-7.31237E+02-6.46854E+05-1.56870E-08 8.63429E-09
 -1       279-1.52615E+06-2.08614E+05-8.77987E+02-5.64119E+05-2.66955E-08-2.48770E-07
 -1       280-1.45423E+06-2.79879E+05-1.02584E+03-6.50953E+05-2.10066E-08 1.01243E-07
 -1       281-1.52709E+06-2.07270E+05-1.89382E+03-5.63044E+05-3.77540E-08 1.81828E-07
 -1       282-1.45460E+06-2.82116E+05-4.40771E+03-6.52649E+05 2.53131E-08 5.49335E-09
 -1       283-1.52658E+06-2.05991E+05-7.84382E+03-5.62911E+05 1.83718E-09-1.65987E-08
 -1       284-1.46162E+06-2.92429E+05-2.13697E+04-6.50466E+05 1.12592E-08-4.56566E-09
 -1       285-1.52003E+06-1.98155E+05-3.33542E+04-5.64714E+05-4.44015E-09 1.33083E-07
 -1       301-6.45403E+03-6.45634E+05 1.67066E+05-1.13359E+06-1.38243E-09 4.35975E-08
 -1       302-8.05003E+03-5.99012E+05 1.00543E+05-1.65467E+06 4.63479E-09 1.77659E-07
 -1       303-2.12263E+04-6.37972E+05 5.68512E+04-1.13048E+06 3.70346E-09 1.40706E-07
 -1       304-2.39282E+04-6.05930E+05 5.72895E+04-1.65408E+06 1.94996E-09 2.41282E-07
 -1       305-2.55031E+04-6.26774E+05 7.05368E+04-1.13358E+06 1.04646E-08 2.60770E-08
 -1       306-3.01513E+07-6.22399E+06-8.61689E+06-5.08249E+05-3.39933E-08-3.63216E-08
 -1       307 2.53596E+07 3.28010E+06 5.51745E+06-1.52472E+07-8.94026E-07 7.43021E-08
 -1       308-6.94977E+06-1.02389E+06-4.47156E+05 5.21404E+06-1.26864E-07 1.54832E-08
 -1       309-3.22999E+06 8.76070E+06 2.29189E+06-2.06998E+07 3.78495E-07 8.59072E-08
 -1       310-1.26031E+07-1.95112E+06-2.04773E+06 5.22451E+06 1.01456E-07-2.24885E-07
 -1       311 3.85551E+07 1.10406E+04 7.29859E+06-8.78842E+06 8.02218E-07 5.21948E-07
 -1       312-3.19762E+07-6.79422E+06-8.55644E+06-5.06496E+06 3.95812E-08-2.91038E-11
 -1       313 4.54735E+07 1.50934E+07 1.06877E+07 2.38751E+07-7.99482E-08 1.80997E-07
 -1       314-1.72121E+07-1.78345E+07-7.53447E+06-1.25467E+07 6.51751E-07-2.76021E-07
 -1       315-1.86688E+06 2.98000E+07 5.67420E+06 1.05229E+07-2.12764E-07-3.43658E-07
 -1       316 1.41650E+06-9.84292E+06-4.36054E+05-2.51305E+06-1.14975E-06-2.74915E-07
 -1       317-1.71123E+07 2.24490E+07 2.24620E+06-8.86288E+06 8.44433E-07-9.22948E-07
 -1       318-1.07665E+06-1.28224E+07-2.05370E+06-4.24023E+06-9.69507E-07 7.64849E-08
 -1       319 7.25707E+06 3.20496E+07 7.05898E+06 1.66631E+07-1.13381E-07 2.50759E-07
 -1       320-2.26314E+07-1.76764E+07-9.87503E+06-1.28352E+07 1.88244E-07-6.72007E-08
 -1       336-7.43801E+02-1.69568E+06-1.38688E+04 8.93002E+03-2.61680E-08-1.22382E-08
 -1       337-5.41545E+03-1.69523E+06-1.80978E+04-2.16904E+04-5.04160E-08-2.21789E-08
 -1       338 2.78396E+02-1.69517E+06-2.85049E+04 1.25093E+04-3.50174E-08-7.73070E-09
 -1       339-3.02476E+04-1.71250E+06-6.44269E+04-2.87014E+04-6.29734E-08 9.06221E-09
 -1       340 1.99286E+04-1.68060E+06-1.01488E+05 1.58100E+04-4.22660E-08 7.84712E-09
 -1       406-4.96688E+01 3.86566E+05 6.44500E+02 3.35106E+00-1.99221E-09-1.05883E-08
 -1       407 1.54959E+02 3.86701E+05 1.37734E+03 2.34036E+01-6.63135E-10 4.36012E-09
 -1       408 6.35269E+02 3.86466E+05 2.74630E+03-2.70754E+01-2.35514E-09 4.31646E-09
 -1       409 2.90848E+03 3.87578E+05 6.18991E+03 2.89080E+02 8.21956E-11 3.66344E-09
 -1       410 8.48425E+03 3.85675E+05 1.26333E+04-2.78775E+02-2.68847E-09 1.21236E-08
 -1       521-3.17139E+07-7.68948E+06-1.00755E+07-1.13489E+05-1.27708E-07 1.13854E-07
 -1       522 2.62428E+07 4.31899E+06 5.63022E+06-1.87720E+07-5.28817E-07-3.38565E-07
 -1       523-7.52261E+06-1.33849E+06-4.38607E+05 5.66538E+06 1.97673E-07-3.54630E-07
 -1       524-6.73682E+06 1.18413E+07 2.48141E+06-2.37752E+07 1.17479E-06-4.52215E-07
 -1       525-1.34013E+07-2.59207E+06-2.25297E+06 5.68042E+06 5.18223E-07-4.30620E-07
 -1       526 4.21273E+07-8.40407E+04 7.66469E+06-1.14426E+07 4.81377E-08-1.64611E-07
 -1       527-3.38436E+07-8.50134E+06-9.87038E+06-4.92831E+06 1.92551E-07 1.93439E-07
 -1       528 4.96853E+07 1.68410E+07 1.11554E+07 2.71730E+07 6.80448E-08-4.81086E-08
 -1       529-1.81572E+07-2.00627E+07-8.64505E+06-1.25789E+07 7.79401E-08-6.18165E-08
 -1       530-4.35436E+06 3.46301E+07 6.00970E+06 9.96960E+06 9.15024E-08 4.44881E-07
 -1       531 1.42033E+06-1.09182E+07-4.08302E+05-2.45387E+06-8.75560E-07 3.35393E-07
 -1       532-1.96201E+07 2.44629E+07 2.45692E+06-1.31874E+07 4.69197E-07-7.47066E-07
 -1       533-1.11846E+06-1.39816E+07-2.18906E+06-4.04058E+06-1.92900E-07-1.07824E-06
 -1       534 5.25357E+06 3.72260E+07 7.35204E+06 1.72509E+07-2.92202E-08 7.51752E-07
 -1       535-2.38233E+07-2.00904E+07-1.13308E+07-1.29086E+07 1.21188E-07 4.68164E-07
 -1       536-7.06193E+05-4.68049E+04-4.80765E+04-5.46998E+04 2.99224E-10 6.61539E-08
 -1       537-5.48260E+04 4.47522E+04 8.40136E+04 1.23878E+05-1.16469E-07 8.97730E-08
 -1       538-3.94413E+05 3.33874E+03 3.58214E+03-7.22172E+04 4.34052E-08 7.98634E-08
 -1       539-2.69013E+05 2.86359E+03 2.49436E+04 1.38769E+05 1.63094E-07 8.82304E-08
 -1       540-4.97386E+05-4.29936E+02-2.13246E+04-7.01251E+04 7.65340E-10 1.06185E-07
 -1       541 1.46841E+05 1.69790E+04 1.06427E+05 9.79529E+04-9.84323E-09 1.06942E-07
 -1       542-7.99062E+05-2.01421E+04-8.42633E+04-3.05259E+04 6.28843E-08 4.23277E-08
 -1       543 4.05602E+05 2.73346E+04 1.58024E+05-1.33660E+04 3.60374E-08-1.55983E-08
 -1       544-7.49207E+05-1.65423E+04-7.48598E+04 4.05239E+04-5.78666E-09-4.03578E-08
 -1       545 2.90958E+04 9.48661E+03 7.98359E+04-1.13651E+05-2.99495E-08-9.21159E-08
 -1       546-4.32668E+05 6.09788E+03-1.22326E+04 6.94130E+04 3.21356E-08-8.06779E-08
 -1       547-2.87103E+05-4.65686E+03 1.05918E+04-1.41616E+05-8.07712E-08-9.98843E-08
 -1       548-4.41509E+05 4.72035E+03-2.38867E+04 6.91800E+04-1.05943E-07-9.23774E-08
 -1       549 4.82902E+04 1.60854E+04 6.05460E+04-1.11512E+05-6.32053E-08-6.80866E-08
 -1       550-7.59086E+05-2.21547E+04-1.28998E+05 3.85925E+04 8.10360E-09-3.16195E-08
 -1       551 4.08181E+04-7.51779E+05-1.58401E+04-1.24750E+06-1.04075E-07-6.46105E-09
 -1       552 9.33083E+04-7.96768E+05 9.95927E+03-1.77878E+06-7.50733E-08 4.33065E-08
 -1       553 7.17925E+04-7.93174E+05 3.20765E+04-1.24085E+06-1.20737E-07 2.63681E-08
 -1       554 1.32112E+05-8.12657E+05 8.11207E+04-1.78073E+06-7.27960E-08 2.36978E-08
 -1       555 1.01546E+05-8.16828E+05 1.48139E+05-1.24068E+06-1.21385E-07-5.59157E-09
 -1       556 2.23763E+05-3.83751E+05 2.58613E+04-4.07340E+05-2.32249E-08-2.75904E-08
 -1       557 3.54386E+05-4.88133E+05 1.62067E+04-5.27784E+05-5.47152E-09 2.08893E-08
 -1       558 2.05533E+05-3.76561E+05 2.34599E+03-4.11772E+05-2.06637E-08 1.15324E-08
 -1       559 3.29344E+05-4.88213E+05 2.45189E+03-5.48245E+05 1.82190E-08-5.09317E-09
 -1       560 1.90220E+05-3.66958E+05-1.50121E+03-4.22807E+05 6.31553E-09 7.55972E-09
 -1       561 3.10102E+05-4.80513E+05 1.32213E+02-5.61365E+05 5.76256E-09 8.33825E-09
 -1       562 1.78112E+05-3.59436E+05-1.32646E+03-4.31575E+05-2.99769E-09 9.96806E-10
 -1       563 2.95720E+05-4.74242E+05-3.64977E+01-5.70759E+05-1.22236E-09-1.63418E-08
 -1       564 1.69470E+05-3.54052E+05-6.00984E+02-4.37699E+05 7.97445E-09-1.16170E-08
 -1       565 2.86180E+05-4.70088E+05 2.39379E+01-5.76854E+05 2.47383E-09 8.39646E-09
 -1       566 1.64419E+05-3.50856E+05-2.60406E+02-4.41232E+05-7.65431E-09-9.33505E-09
 -1       567 2.81544E+05-4.68071E+05-3.63187E+02-5.79670E+05 2.20589E-08 3.14321E-08
 -1       568 1.63048E+05-3.50016E+05-1.12738E+03-4.42287E+05 4.81396E-09 1.42609E-08
 -1       569 2.80421E+05-4.67998E+05-2.84731E+03-5.78239E+05-1.09849E-08 1.09139E-09
 -1       570 1.66451E+05-3.53254E+05-6.22435E+03-4.41265E+05 9.29140E-09-1.87065E-08
 -1       571 2.90682E+05 1.05140E+04 1.49978E+04-9.53069E+04 4.71664E-09 6.38602E-09
 -1       572 2.92856E+05 3.96380E+03 7.35014E+03-1.04561E+05 3.32511E-09-9.92532E-09
 -1       573 2.91545E+05 1.24771E+03 3.26591E+03-9.51302E+04 2.87309E-09 1.86128E-08
 -1       574 2.91759E+05 7.29061E+02 1.63783E+03-1.04786E+05 1.31718E-09 2.06855E-08
 -1       575 2.91639E+05 4.49576E+02 7.73015E+02-9.51061E+04-1.05643E-09 6.08907E-09
 -1       576 2.91623E+05 4.61037E+02 3.95789E+02-1.04816E+05-9.81163E-09 2.46109E-09
 -1       577 2.91679E+05 3.91385E+02 1.97591E+02-9.51028E+04-4.47471E-09 1.99661E-08
 -1       578 2.91654E+05 4.22864E+02 1.14170E+02-1.04820E+05-7.80346E-09 1.94996E-09
 -1       579 2.91752E+05 3.54557E+02 7.84529E+01-9.51024E+04 4.33283E-09-2.96950E-09
 -1       580 2.91756E+05 3.71659E+02 9.11204E+01-1.04815E+05-1.02154E-08 1.10895E-08
 -1       581 2.91866E+05 2.95782E+02 1.37686E+02-9.51084E+04 5.88443E-09 5.54155E-09
 -1       582 2.91932E+05 3.34140E+02 2.79986E+02-1.04754E+05 5.44878E-09-7.91988E-09
 -1       583 2.92007E+05 3.38270E+02 5.37412E+02-9.51650E+04 2.91766E-09-5.94855E-09
 -1       584 2.92308E+05 7.77227E+02 1.21613E+03-1.04276E+05 7.46513E-09 2.99997E-09
 -1       585 2.92033E+05 1.80070E+03 2.46261E+03-9.55847E+04-2.38288E-09 1.48357E-08
 -1       586-3.42497E+03 1.17026E+05-2.91332E+03-2.50821E+05-5.77529E-09 6.36624E-09
 -1       587-1.34032E+03 1.16778E+05 7.75385E+02-2.76047E+05-8.79118E-09-6.78756E-09
 -1       588 3.97990E+02 1.16584E+05 4.76588E+03-2.50683E+05-3.96722E-09-1.26147E-09
 -1       589 5.08911E+03 1.19061E+05 1.23579E+04-2.75814E+05-5.96992E-09-2.41926E-08
 -1       590 1.66255E+04 1.15250E+05 2.59220E+04-2.51114E+05-5.96083E-09 1.29257E-08
 -1       591-7.50971E+04-1.59858E+04-2.25519E+04-3.19935E+04 2.71484E-09 6.42649E-09
 -1       592-7.91939E+04-1.95436E+04-1.22159E+04-3.56185E+04 8.85330E-09-4.15002E-09
 -1       593-7.73525E+04-1.43494E+04-5.08487E+03-3.36471E+04 3.32985E-09 9.39781E-09
 -1       594-7.60801E+04-1.62343E+04-2.53595E+03-3.57363E+04-4.75666E-10 2.20148E-08
 -1       595-7.75244E+04-1.43440E+04-1.16426E+03-3.37222E+04 3.98825E-09 8.33433E-09
 -1       596-7.58670E+04-1.60830E+04-5.91634E+02-3.57109E+04 1.12980E-08 8.35647E-09
 -1       597-7.75460E+04-1.43594E+04-3.21700E+02-3.37251E+04 6.30308E-09 3.46745E-12
 -1       598-7.58459E+04-1.60770E+04-2.57763E+02-3.57038E+04 1.27420E-09-3.84634E-09
 -1       599-7.75447E+04-1.43600E+04-3.28206E+02-3.37247E+04 5.15115E-09 5.93184E-09
 -1       600-7.58670E+04-1.60835E+04-6.08856E+02-3.57088E+04 5.54587E-09-1.62816E-08
 -1       601-7.75201E+04-1.43454E+04-1.20070E+03-3.37212E+04 4.24166E-09 3.55431E-09
 -1       602-7.60868E+04-1.62385E+04-2.61657E+03-3.57311E+04-5.75471E-09-1.30525E-08
 -1       603-7.73399E+04-1.43539E+04-5.24719E+03-3.36445E+04-2.42312E-09 1.64400E-08
 -1       604-7.93175E+04-1.96337E+04-1.26050E+04-3.55846E+04 5.50256E-09 1.31140E-08
 -1       605-7.49926E+04-1.60602E+04-2.32703E+04-3.19577E+04 6.64681E-09 1.53432E-08
 -1       606 2.66246E+04-1.43422E+04-2.57107E+04 2.39564E+04 5.50608E-09 6.59088E-09
 -1       607 2.22315E+04-4.68412E+03-1.28038E+04 2.69220E+04-6.08452E-10-3.61069E-09
 -1       608 2.47353E+04-8.44991E+02-5.73184E+03 2.37880E+04-4.61296E-09-1.38166E-08
 -1       609 2.42554E+04-2.89510E+02-2.89557E+03 2.71358E+04-1.49430E-09-4.23051E-09
 -1       610 2.45216E+04-4.10430E+01-1.38150E+03 2.37680E+04 8.33097E-10-8.75934E-09
 -1       611 2.44463E+04-4.13532E+01-6.96541E+02 2.71589E+04 7.44330E-09 1.34239E-08
 -1       612 2.44745E+04-2.73691E+01-3.31106E+02 2.37660E+04 5.96901E-09 4.22028E-09
 -1       613 2.44580E+04-3.73027E+01-1.48329E+02 2.71616E+04 7.17682E-09 1.00322E-08
 -1       614 2.44524E+04-3.38337E+01-3.46661E+01 2.37653E+04 3.30147E-09 1.93033E-08
 -1       615 2.44528E+04-3.58465E+01 6.24518E+01 2.71621E+04 7.42148E-10 5.10227E-10
 -1       616 2.44350E+04-3.07347E+01 1.87012E+02 2.37655E+04 3.51338E-09-1.18623E-08
 -1       617 2.44753E+04 3.97134E+00 4.26573E+02 2.71616E+04 6.70298E-10-1.05445E-08
 -1       618 2.43980E+04 9.22117E+01 8.59789E+02 2.37658E+04 3.08773E-10 9.88325E-09
 -1       619 2.47788E+04 6.68738E+02 1.93070E+03 2.71610E+04-7.83530E-10 6.76960E-09
 -1       620 2.41125E+04 2.13097E+03 3.88064E+03 2.37674E+04-4.62705E-11 5.77893E-09
 -1       621 5.11485E+02 3.01614E+05 3.88684E+03 4.11161E+04 1.08184E-09-1.08039E-08
 -1       622 6.78055E+02 3.02511E+05 3.44963E+03 5.96912E+04 1.39516E-09-1.68802E-08
 -1       623 1.43351E+02 3.01808E+05 4.14532E+03 4.09301E+04 1.39016E-09 1.16661E-08
 -1       624 2.12885E+03 3.03729E+05 8.03625E+03 5.98742E+04 1.44740E-09-9.55015E-09
 -1       625 2.07974E+03 3.00214E+05 1.40430E+04 4.09269E+04 1.40062E-09 1.40549E-08
 -1       626 2.61104E+05 6.14275E+04 5.12917E+03 1.26796E+05 4.30373E-09-7.85076E-09
 -1       627 2.58790E+05 6.28197E+04 2.47171E+03 1.31068E+05 5.75892E-09-1.13687E-10
 -1       628 2.61232E+05 5.90810E+04 1.04536E+03 1.27669E+05-3.32420E-09 7.41829E-09
 -1       629 2.58154E+05 6.21380E+04 5.11641E+02 1.31309E+05 2.37333E-09-1.24887E-08
 -1       630 2.61247E+05 5.89676E+04 2.37435E+02 1.27706E+05 5.13273E-09-1.31661E-08
 -1       631 2.58087E+05 6.21120E+04 1.27889E+02 1.31310E+05 9.90462E-09-1.07036E-08
 -1       632 2.61243E+05 5.89715E+04 8.43589E+01 1.27701E+05 1.10085E-08 1.82968E-09
 -1       633 2.58079E+05 6.21138E+04 9.42912E+01 1.31307E+05 3.15276E-09-1.73122E-09
 -1       634 2.61239E+05 5.89686E+04 1.52656E+02 1.27701E+05-2.21252E-09 4.97789E-09
 -1       635 2.58093E+05 6.21121E+04 3.09069E+02 1.31312E+05-2.93443E-09 2.47564E-09
 -1       636 2.61229E+05 5.89628E+04 6.24255E+02 1.27701E+05 4.47949E-09 7.10497E-09
 -1       637 2.58228E+05 6.22092E+04 1.37264E+03 1.31312E+05-4.05407E-10 9.20363E-09
 -1       638 2.61181E+05 5.92660E+04 2.82028E+03 1.27564E+05 9.66520E-09 2.33422E-09
 -1       639 2.59710E+05 6.42696E+04 6.67292E+03 1.30876E+05 1.69748E-08-3.03908E-09
 -1       640 2.60976E+05 6.54188E+04 1.38475E+04 1.24971E+05 1.35019E-08-8.53424E-09
 -1       656 6.66043E+04-1.70469E+06-1.60779E+05-2.56334E+03-5.23869E-10 8.72836E-09
 -1       657-8.81133E+04-1.77734E+06-1.33199E+05 5.15742E+03 5.49335E-10 6.78423E-09
 -1       658 2.12327E+04-1.72532E+06-8.20379E+04-4.64881E+03-6.88033E-10-7.50863E-09
 -1       659-9.52917E+04-1.78075E+06-1.42633E+05 6.89058E+03-2.33013E-09-2.91150E-08
 -1       660 7.37667E+04-1.70129E+06-1.76998E+05-4.29648E+03-2.22644E-09 7.42412E-09
 -1       661 1.58133E+05 1.65379E+04 1.66848E+04 6.18136E+04-1.34332E-09 3.01952E-09
 -1       662 1.67512E+05 2.89470E+04 1.12443E+04 5.81312E+04 1.89243E-09-2.74213E-09
 -1       663 1.61410E+05 2.18910E+04 3.93260E+03 6.08629E+04-4.56225E-10 7.38169E-09
 -1       664 1.63713E+05 2.26869E+04 2.35253E+03 5.92925E+04 3.76531E-10-5.58438E-09
 -1       665 1.61907E+05 2.26222E+04 9.28163E+02 6.07180E+04 4.72141E-10-1.02129E-08
 -1       666 1.63125E+05 2.18507E+04 5.43498E+02 5.94816E+04 5.49386E-09-1.14268E-09
 -1       667 1.61994E+05 2.27054E+04 2.89247E+02 6.06817E+04 1.26664E-09 6.59452E-09
 -1       668 1.63029E+05 2.17913E+04 2.95848E+02 5.95346E+04-3.70017E-09 4.59169E-09
 -1       669 1.62002E+05 2.26800E+04 4.01533E+02 6.06653E+04-2.39703E-09-9.31578E-10
 -1       670 1.63127E+05 2.20099E+04 8.75238E+02 5.95378E+04-1.07933E-08 1.92694E-09
 -1       671 1.61896E+05 2.24913E+04 1.55433E+03 6.06764E+04 1.69403E-09-9.36723E-09
 -1       672 1.64032E+05 2.35228E+04 3.97702E+03 5.93191E+04 9.02429E-09-1.63027E-09
 -1       673 1.61101E+05 2.12053E+04 6.66488E+03 6.08694E+04 3.59262E-09 4.43924E-09
 -1       674 1.70374E+05 3.42318E+04 1.90603E+04 5.74567E+04-1.44848E-09-8.75934E-09
 -1       675 1.55595E+05 1.20822E+04 2.82921E+04 6.24263E+04-4.28281E-09-1.17507E-09
 -1       676 2.38056E+01-2.96002E+05-1.09914E+03-1.38494E+02 2.42704E-09-4.33689E-09
 -1       677-2.90715E+02-2.96268E+05-2.01162E+03 2.76763E+02 9.40827E-09-2.08634E-08
 -1       678 1.95014E+02-2.95813E+05-3.55605E+03-1.38180E+02 1.72554E-09-1.17622E-08
 -1       679-3.55608E+03-2.98414E+05-8.44770E+03 2.75548E+02 6.35691E-09-1.53529E-08
 -1       680 2.12321E+03-2.93857E+05-1.36148E+04-1.35772E+02 9.42237E-10-4.83818E-09
 -1       771-3.06338E+06-7.47522E+05-1.65864E+05-1.46643E+06-3.36149E-08-3.00934E-08
 -1       772-2.98621E+06-8.36382E+05-8.55119E+04-1.56917E+06-2.34140E-08 1.21108E-08
 -1       773-3.09487E+06-7.22962E+05-4.35976E+04-1.48097E+06-1.03610E-08 8.32370E-09
 -1       774-2.97670E+06-8.17866E+05-1.94498E+04-1.59495E+06 2.96277E-08-9.88803E-09
 -1       775-3.11133E+06-7.11416E+05-1.45527E+04-1.48803E+06-2.73576E-09-1.67347E-10
 -1       776-2.98906E+06-8.14829E+05-5.44148E+03-1.61446E+06-4.59841E-09 2.79397E-09
 -1       777-3.12561E+06-7.01108E+05-6.43139E+03-1.49426E+06 4.80213E-09 7.49424E-10
 -1       778-3.00196E+06-8.12004E+05-1.81814E+03-1.63123E+06-3.31784E-09 7.43603E-09
 -1       779-3.13789E+06-6.92101E+05-3.21447E+03-1.49958E+06-6.54836E-09-1.24055E-09
 -1       780-3.01332E+06-8.09309E+05-5.33142E+02-1.64488E+06-2.71393E-09-3.42152E-09
 -1       781-3.14765E+06-6.84840E+05-1.24918E+03-1.50374E+06-3.35422E-08-5.16229E-09
 -1       782-3.02208E+06-8.07020E+05 4.49499E+02-1.65496E+06-4.53729E-08-6.15546E-09
 -1       783-3.15453E+06-6.79794E+05 6.99364E+02-1.50665E+06-7.59610E-09-1.16215E-08
 -1       784-3.02693E+06-8.04734E+05 2.90143E+03-1.66118E+06-9.66247E-09 3.47063E-09
 -1       785-3.15860E+06-6.76785E+05 5.12171E+03-1.50850E+06-3.06136E-08 1.09940E-08
 -1       786 1.23681E+05-9.77100E+03 2.26062E+04-3.22651E+02 2.87880E-09 2.28829E-09
 -1       787 1.33486E+05 1.13126E+04 1.59929E+04-1.35845E+02 2.34342E-09 6.96673E-10
 -1       788 1.27461E+05-1.53114E+03 5.84871E+03-2.87506E+02 5.17641E-09 1.14142E-08
 -1       789 1.29082E+05 1.77226E+03 3.67161E+03-1.89689E+02 8.15273E-10 2.69256E-09
 -1       790 1.28086E+05-2.38393E+02 1.48658E+03-2.68824E+02-6.57872E-09 8.99968E-09
 -1       791 1.28352E+05 2.75829E+02 8.58633E+02-2.21651E+02-1.01026E-08-4.24212E-09
 -1       792 1.28191E+05-3.58279E+01 3.63892E+02-2.55546E+02-5.17684E-09 9.27756E-10
 -1       793 1.28225E+05 3.78773E+01 1.81490E+02-2.46621E+02-8.69282E-11-2.58780E-08
 -1       794 1.28212E+05-5.90831E-01 4.73296E+01-2.43854E+02 4.55665E-09-4.76549E-09
 -1       795 1.28188E+05-2.73463E+01-5.74242E+01-2.71009E+02-3.23933E-09 2.34587E-08
 -1       796 1.28228E+05 2.93591E+01-1.62157E+02-2.31159E+02 4.60903E-09-3.45275E-09
 -1       797 1.28094E+05-2.19187E+02-4.45299E+02-3.00154E+02 4.31066E-09 5.84998E-09
 -1       798 1.28307E+05 1.91106E+02-7.23206E+02-2.14709E+02 1.82837E-09-2.81034E-10
 -1       799 1.27545E+05-1.40861E+03-1.98967E+03-3.40877E+02 5.91436E-09 1.11736E-08
 -1       800 1.28777E+05 1.21781E+03-2.81580E+03-1.90436E+02-2.71321E-11 4.23029E-10
 -1       801-1.71110E+05-9.99431E+06-1.39291E+06 1.41448E+06 9.19972E-08-6.91907E-08
 -1       802 7.37738E+05 5.94408E+06 2.18016E+06-1.74607E+06 2.57525E-07-3.60051E-08
 -1       803-5.36276E+05-1.42589E+07-1.88914E+06 8.97815E+05 7.69069E-08 2.57605E-08
 -1       804 2.86961E+05 2.39002E+06 1.53605E+06 6.76720E+05-1.20650E-07-7.63566E-08
 -1       805 1.89240E+05-6.45438E+06-2.85969E+05-1.00265E+06-4.97821E-08-6.42312E-08
 -1       806-3.09037E+05-5.97769E+04-2.28622E+04-1.22453E+05-6.54472E-09 3.85171E-10
 -1       807-3.10836E+05-5.60446E+04-1.12320E+04-1.28000E+05 8.69773E-09-2.91260E-09
 -1       808-3.09665E+05-5.15376E+04-4.76497E+03-1.26348E+05-1.90857E-09-3.64412E-09
 -1       809-3.08475E+05-5.28885E+04-2.32995E+03-1.28275E+05-1.00415E-08 5.51472E-09
 -1       810-3.09760E+05-5.12507E+04-1.06795E+03-1.26520E+05-8.84393E-09-4.96971E-09
 -1       811-3.08292E+05-5.27617E+04-5.31110E+02-1.28240E+05-1.65355E-08 4.27015E-08
 -1       812-3.09774E+05-5.12754E+04-2.68692E+02-1.26519E+05-1.38152E-08 1.64114E-08
 -1       813-3.08267E+05-5.27639E+04-1.74755E+02-1.28221E+05-7.08860E-09-3.60114E-09
 -1       814-3.09767E+05-5.12852E+04-1.73400E+02-1.26515E+05-3.32057E-09-2.86500E-08
 -1       815-3.08271E+05-5.27662E+04-2.79567E+02-1.28214E+05-1.28603E-09 2.57501E-09
 -1       816-3.09746E+05-5.12843E+04-5.29996E+02-1.26511E+05 3.84716E-10 4.94992E-09
 -1       817-3.08361E+05-5.28167E+04-1.13748E+03-1.28202E+05-1.34960E-08 4.75279E-09
 -1       818-3.09677E+05-5.14449E+04-2.32009E+03-1.26436E+05-4.34829E-09-1.55846E-08
 -1       819-3.09630E+05-5.42184E+04-5.45899E+03-1.27901E+05-2.67801E-09-1.74398E-08
 -1       820-3.09239E+05-5.55688E+04-1.11110E+04-1.24674E+05-3.67709E-09 8.87985E-09
 -1       821-3.78942E+05 2.08714E+04-4.85845E+04 2.12800E+03 1.39652E-08 6.57019E-09
 -1       822-3.98650E+05-2.41783E+04-3.41444E+04-4.45627E+03 4.81156E-09 1.00704E-08
 -1       823-3.86407E+05 3.29003E+03-1.25490E+04 3.43724E+03-1.29729E-08-6.51562E-09
 -1       824-3.89638E+05-3.79401E+03-7.85489E+03-5.36721E+03 9.05507E-10-1.27793E-08
 -1       825-3.87961E+05 5.11275E+02-3.28933E+03 3.03907E+03 1.88088E-08 3.47188E-09
 -1       826-3.87206E+05-5.67367E+02-1.74436E+03-3.09418E+03 2.60946E-08 4.34102E-09
 -1       827-3.88814E+05 4.68468E+01-1.19005E+03 1.16406E+03 1.01514E-08-7.44848E-09
 -1       828-3.86501E+05-1.32094E+02-5.86519E+02 1.09773E+03-1.96059E-09 1.39272E-08
 -1       829-3.88653E+05 6.59549E+01-1.17907E+03-1.15287E+03 3.20082E-09 9.61026E-09
 -1       830-3.87556E+05-6.22298E+02-1.88300E+03 4.88482E+03 1.49338E-09 1.15958E-09
 -1       831-3.87782E+05 5.54669E+02-3.37186E+03-2.62305E+03-6.36887E-09-1.76801E-08
 -1       832-3.89718E+05-3.96168E+03-8.15946E+03 6.16476E+03-4.44731E-09 6.12135E-09
 -1       833-3.86506E+05 3.41487E+03-1.30558E+04-2.43286E+03-2.53823E-09 1.26447E-08
 -1       834-3.98713E+05-2.50976E+04-3.53753E+04 4.19285E+03-1.98784E-09 2.15387E-08
 -1       835-3.78771E+05 2.16577E+04-5.04661E+04-6.51062E+02 4.96510E-09-6.98856E-09
 -1       836-1.41491E+03 3.70424E+05 2.29228E+04-1.61374E+04-7.04858E-09-5.84168E-09
 -1       837 4.88636E+03 3.77603E+05 1.93932E+04-3.29794E+04-7.44922E-09 3.19619E-09
 -1       838-5.58394E+02 3.72437E+05 1.97539E+04-1.60659E+04-6.41739E-09-1.84173E-09
 -1       839 1.24295E+04 3.83221E+05 3.73632E+04-3.30319E+04-7.01766E-09-1.03578E-08
 -1       840-3.84299E+03 3.64746E+05 5.95783E+04-1.60907E+04-5.83168E-09 1.35225E-08
 -1       856-5.51510E+04 8.13365E+03-2.14340E+04-4.00620E+02 3.77383E-09-3.47245E-09
 -1       857-6.39809E+04-9.55681E+03-1.47549E+04 5.71239E+03 7.87179E-09 5.92081E-09
 -1       858-5.86480E+04 1.14066E+03-5.56164E+03-4.25888E+02 3.13509E-09 1.06500E-08
 -1       859-5.99678E+04-1.34195E+03-3.35625E+03 5.75008E+03-2.14953E-09 6.29342E-09
 -1       860-5.91704E+04 1.59750E+02-1.40676E+03-4.38033E+02 1.76189E-09 2.59604E-09
 -1       861-5.93670E+04-1.90719E+02-7.74176E+02 5.76662E+03 3.18742E-09 3.46772E-09
 -1       862-5.92521E+04 2.16691E+01-3.22406E+02-4.42407E+02-2.07746E-09-5.06611E-09
 -1       863-5.92669E+04-2.23655E+01-1.18788E+02 5.76909E+03-5.40943E-09-9.11518E-09
 -1       864-5.92710E+04-4.77883E+00 4.48069E+01-4.40505E+02-6.71989E-09-7.73876E-09
 -1       865-5.92111E+04 5.88320E+01 2.51981E+02 5.75843E+03 2.17270E-09-1.22737E-08
 -1       866-5.93056E+04-5.96135E+01 5.09312E+02-4.31751E+02-4.33431E-10-1.39400E-09
 -1       867-5.89709E+04 4.91953E+02 1.25473E+03 5.73468E+03 2.45646E-09 1.10360E-08
 -1       868-5.95061E+04-4.30226E+02 2.08509E+03-4.16753E+02 1.70968E-09 2.39538E-10
 -1       869-5.74415E+04 3.57978E+03 5.55254E+03 5.69575E+03 5.27780E-09 1.33186E-08
 -1       870-6.08270E+04-3.06378E+03 8.05766E+03-3.92712E+02-2.19393E-09 6.69479E-09
 -1       871-5.52919E+03-2.15177E+04-1.95294E+04 1.30330E+05-4.86762E-09 4.94765E-10
 -1       872-1.98672E+03-2.60584E+04-8.18089E+03 1.68992E+05-1.08248E-08-5.02041E-09
 -1       873 4.05278E+02-2.38615E+04 5.82637E+02 1.30043E+05-5.15229E-09 4.80452E-09
 -1       874 3.30734E+03-2.14504E+04 9.77942E+03 1.69021E+05-1.01936E-08 2.41869E-08
 -1       875 6.84926E+03-2.61925E+04 2.20684E+04 1.30282E+05-5.05133E-09 2.42744E-09
 -1       876 2.94909E+05 4.95706E+04 1.51929E+04 1.18162E+05 2.37242E-09 1.23291E-08
 -1       877 2.95975E+05 5.27092E+04 8.11361E+03 1.22450E+05 1.00445E-08 2.98485E-09
 -1       878 2.96329E+05 4.78881E+04 3.39919E+03 1.19407E+05-3.49291E-09 5.02496E-11
 -1       879 2.93910E+05 5.06474E+04 1.69366E+03 1.22552E+05 1.59971E-08 1.45201E-08
 -1       880 2.96431E+05 4.78707E+04 7.88827E+02 1.19458E+05 2.54886E-09 6.16069E-10
 -1       881 2.93773E+05 5.05591E+04 4.21150E+02 1.22528E+05-6.02131E-09 5.00398E-09
 -1       882 2.96440E+05 4.78841E+04 2.69242E+02 1.19460E+05-5.99334E-09 2.34830E-08
 -1       883 2.93764E+05 5.05545E+04 2.89174E+02 1.22520E+05-4.08363E-10 1.33737E-08
 -1       884 2.96434E+05 4.78814E+04 4.59765E+02 1.19460E+05-1.43189E-09-1.36323E-08
 -1       885 2.93800E+05 5.05608E+04 9.24221E+02 1.22531E+05-1.09222E-08-1.21395E-09
 -1       886 2.96398E+05 4.78545E+04 1.86266E+03 1.19456E+05-2.85716E-09-1.69171E-08
 -1       887 2.94128E+05 5.07755E+04 4.06868E+03 1.22578E+05 1.25929E-08-1.76069E-08
 -1       888 2.96140E+05 4.78999E+04 8.19850E+03 1.19326E+05-1.64550E-09-5.97220E-09
 -1       889 2.99007E+05 5.58525E+04 1.95846E+04 1.22430E+05-3.09134E-09 4.22551E-09
 -1       890 2.92795E+05 5.18738E+04 3.66816E+04 1.16204E+05-5.29508E-09 7.94171E-09
 -1       891-8.43775E+01-1.66456E+05-2.17542E+03 2.68223E+04-4.56748E-09-2.04825E-08
 -1       892-2.09340E+02-1.67039E+05-2.28491E+03 4.14225E+04-6.53131E-09-3.56067E-10
 -1       893 4.73677E+01-1.66537E+05-3.16716E+03 2.68296E+04-5.88625E-09 1.18662E-08
 -1       894-1.59976E+03-1.68223E+05-6.52329E+03 4.12694E+04-9.26048E-09-1.31549E-08
 -1       895-1.07908E+03-1.65172E+05-1.14131E+04 2.69772E+04-3.87217E-09-1.04183E-08
 -1       956-3.77437E+05-5.45282E+03-1.34606E+04 3.08780E+04 4.68390E-09-1.76776E-08
 -1       957-3.80078E+05-1.92353E+03-6.90913E+03 3.71073E+04-4.29372E-09 8.21092E-09
 -1       958-3.78647E+05-2.41004E+02-3.11347E+03 3.07103E+04-3.54976E-09-1.27247E-08
 -1       959-3.78843E+05-1.36262E+02-1.58978E+03 3.73029E+04 4.90218E-09-9.35779E-09
 -1       960-3.78765E+05-4.47704E+01-7.75247E+02 3.06930E+04 7.48878E-09 2.16869E-08
 -1       961-3.78763E+05-6.31828E+01-4.11012E+02 3.73234E+04 1.30167E-08 1.92410E-08
 -1       962-3.78793E+05-4.59960E+01-2.35287E+02 3.06901E+04 4.90172E-09-8.38531E-09
 -1       963-3.78763E+05-5.89912E+01-1.88831E+02 3.73270E+04 1.73122E-09-3.52422E-08
 -1       964-3.78798E+05-4.26478E+01-2.29577E+02 3.06893E+04-2.58406E-09-6.19934E-09
 -1       965-3.78775E+05-5.60394E+01-3.97027E+02 3.73263E+04-6.52415E-09-1.92049E-08
 -1       966-3.78782E+05-3.48222E+01-7.45978E+02 3.06908E+04 8.83801E-09-1.66256E-09
 -1       967-3.78865E+05-1.19583E+02-1.52997E+03 3.73119E+04 3.16140E-09 2.06514E-08
 -1       968-3.78678E+05-2.17287E+02-2.99513E+03 3.07035E+04-3.66708E-09 2.11449E-08
 -1       969-3.80065E+05-1.83401E+03-6.64910E+03 3.71634E+04-3.18096E-09 1.01472E-08
 -1       970-3.77522E+05-5.22900E+03-1.29528E+04 3.08308E+04-2.01180E-09 1.47511E-08
 -1       971-3.45812E+05-1.73006E+03-9.32646E+03 1.52180E+04 5.74528E-09 1.52265E-08
 -1       972-3.48057E+05-1.27353E+03-5.07912E+03 2.10424E+04 6.40284E-09 2.49329E-08
 -1       973-3.46851E+05-6.18273E+01-2.27498E+03 1.50973E+04 6.49288E-09 1.46968E-08
 -1       974-3.46986E+05-8.08616E+01-1.17929E+03 2.11791E+04 1.19780E-09 1.78024E-08
 -1       975-3.46933E+05-1.69761E+01-5.89959E+02 1.50849E+04-6.28461E-10-4.47312E-09
 -1       976-3.46924E+05-3.09993E+01-3.41212E+02 2.11949E+04-2.34377E-09 3.96869E-09
 -1       977-3.46949E+05-1.62560E+01-2.49167E+02 1.50815E+04-4.16276E-09-6.08497E-09
 -1       978-3.46930E+05-2.47509E+01-2.93625E+02 2.11998E+04-7.25913E-09 1.79180E-08
 -1       979-3.46949E+05-7.71294E+00-4.73524E+02 1.50800E+04-9.28765E-09-3.47927E-09
 -1       980-3.46965E+05-2.15890E+01-9.15408E+02 2.12009E+04-1.20896E-08-4.93105E-09
 -1       981-3.46920E+05 1.52953E+01-1.77349E+03 1.50804E+04-2.23940E-09 9.07949E-09
 -1       982-3.47209E+05-1.52454E+02-3.66611E+03 2.11946E+04-1.68893E-09 1.66438E-09
 -1       983-3.46697E+05-9.80633E+01-7.12341E+03 1.50863E+04-1.20976E-08-9.59108E-09
 -1       984-3.50636E+05-3.87259E+03-1.59527E+04 2.11108E+04-9.86165E-09-6.89511E-09
 -1       985-3.43472E+05-5.31030E+03-2.92941E+04 1.51560E+04-7.93625E-09 5.53518E-09
 -3
    1PSTEP                        35          18           1          
  100CL  118 6.63143E-01         409                     0   18           1
 -4  DISP        4    1
 -5  D1          1    2    1    0
 -5  D2          1    2    2    0
 -5  D3          1    2    3    0
 -5  ALL         1    2    0    0    1ALL
 -1         1 2.71647E-03 0.00000E+00 0.00000E+00
 -1         2 1.36068E-03 1.48057E-28 0.00000E+00
 -1         3 3.42718E-04-6.02453E-28 1.32349E-23
 -1         5 1.77139E-04-1.94013E-27 1.65436E-24
 -1         8 2.70548E-03-4.07806E-07 0.00000E+00
 -1         9 2.69886E-03-1.88386E-04 0.00000E+00
 -1        10 3.10755E-04-3.40970E-06 0.00000E+00
 -1        12 1.78984E-04 8.09571E-07-4.13590E-25
 -1        15 2.69288E-03-4.31863E-07 0.00000E+00
 -1        16 2.76409E-03-1.90193E-04 0.00000E+00
 -1        17 2.11482E-04-7.77508E-06 0.00000E+00
 -1        18 1.82929E-04 3.44070E-05 0.00000E+00
 -1        19 1.84523E-04 1.61272E-06 0.00000E+00
 -1        20 1.84662E-04-9.86556E-06 0.00000E+00
 -1        21 1.83706E-04-2.53492E-05 3.30872E-24
 -1        24 3.06239E-05-1.20016E-05 0.00000E+00
 -1        25 1.93708E-04 3.46329E-05 0.00000E+00
 -1        26 1.94388E-04 2.23315E-06 0.00000E+00
 -1        27 1.92189E-04-1.34252E-05 0.00000E+00
 -1        28 1.91856E-04-2.59716E-05 0.00000E+00
 -1        32 0.00000E+00 0.00000E+00 0.00000E+00
 -1        33 2.03250E-04 2.98730E-06 0.00000E+00
 -1        34 2.01131E-04-1.34817E-05 0.00000E+00
 -1        35 1.99197E-04-2.63217E-05 0.00000E+00
 -1        51 2.71573E-03-8.53281E-08-1.65436E-24
 -1        52 2.71439E-03-1.52295E-07-3.30872E-24
 -1        53 2.71255E-03-2.15806E-07 0.00000E+00
 -1        54 2.71037E-03-2.78098E-07-1.65436E-24
 -1        55 2.70797E-03-3.40929E-07 3.30872E-24
 -1        56 2.70891E-03 8.15593E-06-5.29396E-23
 -1        57 2.69425E-03 3.38732E-05 0.00000E+00
 -1        58 2.67466E-03 7.16115E-05 0.00000E+00
 -1        59 2.65280E-03 1.14679E-04-5.29396E-23
 -1        60 2.63189E-03 1.55471E-04 0.00000E+00
 -1        61 2.61502E-03 1.86566E-04-5.29396E-23
 -1        62 2.60432E-03 2.02278E-04 0.00000E+00
 -1        63 2.60116E-03 1.98289E-04 5.29396E-23
 -1        64 2.60537E-03 1.73897E-04 0.00000E+00
 -1        65 2.61611E-03 1.30327E-04-5.29396E-23
 -1        66 2.63149E-03 7.24385E-05 1.05879E-22
 -1        67 2.64938E-03 6.49234E-06 0.00000E+00
 -1        68 2.66735E-03-5.96897E-05 0.00000E+00
 -1        69 2.68297E-03-1.18256E-04 0.00000E+00
 -1        70 2.69407E-03-1.62835E-04-5.29396E-23
 -1        86 1.44481E-03-5.98134E-06-5.29396E-23
 -1        87 1.68834E-03-3.74878E-05-2.64698E-23
 -1        88 2.01578E-03-9.15996E-05 2.64698E-23
 -1        89 2.34756E-03-1.47181E-04 1.32349E-23
 -1        90 2.60161E-03-1.81190E-04 0.00000E+00
 -1       121 3.41820E-04-5.50538E-07 1.32349E-23
 -1       122 3.39131E-04-1.10417E-06-6.61744E-24
 -1       123 3.34660E-04-1.66392E-06 1.32349E-23
 -1       124 3.28424E-04-2.23286E-06-6.61744E-24
 -1       125 3.20445E-04-2.81361E-06 0.00000E+00
 -1       191 1.77190E-04 1.34992E-07 0.00000E+00
 -1       192 1.77344E-04 2.69973E-07-1.24077E-24
 -1       193 1.77600E-04 4.04934E-07-1.65436E-24
 -1       194 1.77959E-04 5.39862E-07-8.27181E-25
 -1       195 1.78420E-04 6.74745E-07 1.65436E-24
 -1       251 2.70518E-03 1.69429E-06-6.61744E-24
 -1       252 2.70487E-03 3.70982E-06 3.30872E-24
 -1       253 2.70456E-03 4.65724E-06 0.00000E+00
 -1       254 2.70425E-03 3.56835E-06 3.30872E-24
 -1       255 2.70394E-03-2.14668E-07 0.00000E+00
 -1       256 2.70361E-03-7.31577E-06-3.30872E-24
 -1       257 2.70325E-03-1.78535E-05-6.61744E-24
 -1       258 2.70284E-03-3.19031E-05 3.30872E-24
 -1       259 2.70240E-03-4.90054E-05 1.32349E-23
 -1       260 2.70190E-03-6.86625E-05-6.61744E-24
 -1       261 2.70138E-03-8.99872E-05 1.32349E-23
 -1       262 2.70084E-03-1.12072E-04 6.61744E-24
 -1       263 2.70030E-03-1.33894E-04 0.00000E+00
 -1       264 2.69978E-03-1.54431E-04-6.61744E-24
 -1       265 2.69931E-03-1.72861E-04 1.32349E-23
 -1       266 2.70338E-03-4.17491E-07 3.30872E-24
 -1       267 2.70128E-03-4.20808E-07-8.27181E-25
 -1       268 2.69918E-03-4.24529E-07-8.27181E-25
 -1       269 2.69708E-03-4.27056E-07 0.00000E+00
 -1       270 2.69498E-03-4.29555E-07 2.06795E-25
 -1       271 2.70460E-03 1.33842E-07 0.00000E+00
 -1       272 2.70467E-03-1.89689E-06 0.00000E+00
 -1       273 2.70564E-03-6.34921E-06 1.32349E-23
 -1       274 2.70743E-03-1.30605E-05 0.00000E+00
 -1       275 2.70999E-03-2.18475E-05 2.64698E-23
 -1       276 2.71324E-03-3.25119E-05 1.32349E-23
 -1       277 2.71708E-03-4.48394E-05 0.00000E+00
 -1       278 2.72145E-03-5.86025E-05 0.00000E+00
 -1       279 2.72624E-03-7.35624E-05-2.64698E-23
 -1       280 2.73138E-03-8.94704E-05 0.00000E+00
 -1       281 2.73676E-03-1.06070E-04-1.32349E-23
 -1       282 2.74230E-03-1.23099E-04-6.61744E-24
 -1       283 2.74789E-03-1.40292E-04-1.32349E-23
 -1       284 2.75345E-03-1.57383E-04-6.61744E-24
 -1       285 2.75888E-03-1.74105E-04 0.00000E+00
 -1       301 2.71072E-03-1.88721E-04 1.32349E-23
 -1       302 2.72094E-03-1.89010E-04-3.30872E-24
 -1       303 2.73046E-03-1.89289E-04 0.00000E+00
 -1       304 2.74020E-03-1.89569E-04 6.61744E-24
 -1       305 2.75110E-03-1.89863E-04 0.00000E+00
 -1       306 2.73676E-03-3.43040E-04-1.05879E-22
 -1       307 2.80063E-03-7.57257E-04 5.29396E-23
 -1       308 2.84728E-03-1.36276E-03 0.00000E+00
 -1       309 2.87108E-03-2.06346E-03 0.00000E+00
 -1       310 2.90237E-03-2.73355E-03 0.00000E+00
 -1       311 2.96185E-03-3.24993E-03 5.29396E-23
 -1       312 3.01967E-03-3.53196E-03-2.11758E-22
 -1       313 3.01491E-03-3.54184E-03 0.00000E+00
 -1       314 2.87366E-03-3.29165E-03 0.00000E+00
 -1       315 2.55502E-03-2.84599E-03 5.29396E-23
 -1       316 2.07744E-03-2.28152E-03 1.05879E-22
 -1       317 1.50692E-03-1.66757E-03 0.00000E+00
 -1       318 9.57875E-04-1.06473E-03 1.05879E-22
 -1       319 5.38355E-04-5.38002E-04-1.58819E-22
 -1       320 2.92148E-04-1.61531E-04-1.05879E-22
 -1       336 2.99165E-04-4.06875E-06 1.32349E-23
 -1       337 2.85500E-04-4.75349E-06 0.00000E+00
 -1       338 2.69821E-04-5.46614E-06-1.32349E-23
 -1       339 2.52202E-04-6.20752E-06-6.61744E-24
 -1       340 2.32725E-04-6.98209E-06 0.00000E+00
 -1       406 1.79651E-04 9.44319E-07 8.27181E-25
 -1       407 1.80420E-04 1.07895E-06 1.65436E-24
 -1       408 1.81292E-04 1.21342E-06-2.48154E-24
 -1       409 1.82267E-04 1.34755E-06 1.65436E-24
 -1       410 1.83344E-04 1.48107E-06-2.89513E-24
 -1       521 2.80259E-03-3.54132E-04 1.05879E-22
 -1       522 2.86468E-03-7.88634E-04 0.00000E+00
 -1       523 2.90486E-03-1.42200E-03 1.05879E-22
 -1       524 2.91941E-03-2.15138E-03 0.00000E+00
 -1       525 2.94276E-03-2.84814E-03 1.05879E-22
 -1       526 2.99868E-03-3.38660E-03 0.00000E+00
 -1       527 3.05608E-03-3.67923E-03 0.00000E+00
 -1       528 3.04901E-03-3.68731E-03 0.00000E+00
 -1       529 2.89569E-03-3.42292E-03 0.00000E+00
 -1       530 2.55300E-03-2.95864E-03-5.29396E-23
 -1       531 2.04015E-03-2.37492E-03 0.00000E+00
 -1       532 1.42964E-03-1.74371E-03 5.29396E-23
 -1       533 8.41288E-04-1.12294E-03 1.05879E-22
 -1       534 3.88318E-04-5.75282E-04-5.29396E-23
 -1       535 1.20817E-04-1.79217E-04 0.00000E+00
 -1       536 2.10727E-04 2.71467E-05 0.00000E+00
 -1       537 2.08809E-04 8.75808E-05-1.65436E-24
 -1       538 2.05846E-04 1.64262E-04 3.30872E-24
 -1       539 2.02351E-04 2.47839E-04 0.00000E+00
 -1       540 1.99206E-04 3.26814E-04-3.30872E-24
 -1       541 1.97162E-04 3.89706E-04-1.65436E-24
 -1       542 1.96218E-04 4.29764E-04 0.00000E+00
 -1       543 1.95993E-04 4.40385E-04-1.65436E-24
 -1       544 1.95671E-04 4.22342E-04 0.00000E+00
 -1       545 1.94499E-04 3.76629E-04 0.00000E+00
 -1       546 1.92314E-04 3.11373E-04 3.30872E-24
 -1       547 1.89357E-04 2.34819E-04 0.00000E+00
 -1       548 1.86427E-04 1.58642E-04 0.00000E+00
 -1       549 1.84313E-04 9.45157E-05-1.65436E-24
 -1       550 1.83215E-04 5.04694E-05 0.00000E+00
 -1       551 1.86280E-04-8.34475E-06 0.00000E+00
 -1       552 1.57834E-04-8.99485E-06 0.00000E+00
 -1       553 1.27086E-04-9.70720E-06 9.92617E-24
 -1       554 9.49955E-05-1.04607E-05-3.30872E-24
 -1       555 6.25231E-05-1.12278E-05 0.00000E+00
 -1       556 2.03834E-04 1.17804E-05 5.29396E-23
 -1       557 1.97655E-04 2.76403E-05 0.00000E+00
 -1       558 1.92810E-04 4.00925E-05 0.00000E+00
 -1       559 1.89168E-04 4.94475E-05 0.00000E+00
 -1       560 1.86597E-04 5.60161E-05 0.00000E+00
 -1       561 1.84971E-04 6.01117E-05 0.00000E+00
 -1       562 1.84162E-04 6.20489E-05 0.00000E+00
 -1       563 1.84048E-04 6.21434E-05 0.00000E+00
 -1       564 1.84507E-04 6.07116E-05 0.00000E+00
 -1       565 1.85418E-04 5.80705E-05 6.61744E-24
 -1       566 1.86660E-04 5.45378E-05 0.00000E+00
 -1       567 1.88116E-04 5.04317E-05 0.00000E+00
 -1       568 1.89667E-04 4.60704E-05 0.00000E+00
 -1       569 1.91194E-04 4.17721E-05 0.00000E+00
 -1       570 1.92580E-04 3.78550E-05 0.00000E+00
 -1       571 1.83026E-04 3.22792E-05 2.48154E-24
 -1       572 1.83124E-04 3.00857E-05 0.00000E+00
 -1       573 1.83223E-04 2.78422E-05 0.00000E+00
 -1       574 1.83323E-04 2.55649E-05 8.27181E-25
 -1       575 1.83422E-04 2.32705E-05 3.30872E-24
 -1       576 1.83522E-04 2.09753E-05 1.65436E-24
 -1       577 1.83621E-04 1.86958E-05 0.00000E+00
 -1       578 1.83721E-04 1.64487E-05 0.00000E+00
 -1       579 1.83821E-04 1.42504E-05 0.00000E+00
 -1       580 1.83920E-04 1.21174E-05 0.00000E+00
 -1       581 1.84020E-04 1.00663E-05 0.00000E+00
 -1       582 1.84121E-04 8.11360E-06 0.00000E+00
 -1       583 1.84221E-04 6.27575E-06 0.00000E+00
 -1       584 1.84322E-04 4.56911E-06 3.30872E-24
 -1       585 1.84422E-04 3.00984E-06 6.61744E-24
 -1       586 1.84684E-04 3.44467E-05 0.00000E+00
 -1       587 1.86399E-04 3.44859E-05 4.13590E-25
 -1       588 1.88115E-04 3.45248E-05 0.00000E+00
 -1       589 1.89877E-04 3.45630E-05 0.00000E+00
 -1       590 1.91727E-04 3.45999E-05 0.00000E+00
 -1       591 1.83658E-04 3.23729E-05 1.03398E-25
 -1       592 1.84390E-04 3.03190E-05-2.06795E-25
 -1       593 1.85128E-04 2.82511E-05 0.00000E+00
 -1       594 1.85868E-04 2.61739E-05 0.00000E+00
 -1       595 1.86610E-04 2.40921E-05 8.27181E-25
 -1       596 1.87351E-04 2.20105E-05-4.13590E-25
 -1       597 1.88091E-04 1.99336E-05 0.00000E+00
 -1       598 1.88828E-04 1.78663E-05 4.13590E-25
 -1       599 1.89559E-04 1.58131E-05 0.00000E+00
 -1       600 1.90283E-04 1.37788E-05 4.13590E-25
 -1       601 1.90998E-04 1.17681E-05 0.00000E+00
 -1       602 1.91703E-04 9.78562E-06 2.06795E-25
 -1       603 1.92395E-04 7.83603E-06-4.13590E-25
 -1       604 1.93074E-04 5.92416E-06-2.06795E-25
 -1       605 1.93738E-04 4.05458E-06 0.00000E+00
 -1       606 1.84536E-04 4.48970E-07 0.00000E+00
 -1       607 1.84545E-04-6.29008E-07 0.00000E+00
 -1       608 1.84554E-04-1.62625E-06 0.00000E+00
 -1       609 1.84563E-04-2.54842E-06 0.00000E+00
 -1       610 1.84571E-04-3.40126E-06 0.00000E+00
 -1       611 1.84579E-04-4.19056E-06 0.00000E+00
 -1       612 1.84588E-04-4.92211E-06 0.00000E+00
 -1       613 1.84596E-04-5.60172E-06 0.00000E+00
 -1       614 1.84604E-04-6.23521E-06 1.65436E-24
 -1       615 1.84613E-04-6.82836E-06 0.00000E+00
 -1       616 1.84621E-04-7.38699E-06 0.00000E+00
 -1       617 1.84629E-04-7.91691E-06 0.00000E+00
 -1       618 1.84638E-04-8.42392E-06 0.00000E+00
 -1       619 1.84646E-04-8.91383E-06 0.00000E+00
 -1       620 1.84654E-04-9.39245E-06 0.00000E+00
 -1       621 1.85881E-04 1.71670E-06-1.65436E-24
 -1       622 1.87398E-04 1.82091E-06-8.27181E-25
 -1       623 1.89041E-04 1.92492E-06-1.65436E-24
 -1       624 1.90776E-04 2.02859E-06-8.27181E-25
 -1       625 1.92570E-04 2.13197E-06-1.65436E-24
 -1       626 1.85071E-04 4.85108E-07 0.00000E+00
 -1       627 1.85597E-04-5.79532E-07 0.00000E+00
 -1       628 1.86102E-04-1.58905E-06 0.00000E+00
 -1       629 1.86590E-04-2.55159E-06 0.00000E+00
 -1       630 1.87064E-04-3.47537E-06 0.00000E+00
 -1       631 1.87526E-04-4.36857E-06 1.65436E-24
 -1       632 1.87980E-04-5.23941E-06 3.30872E-24
 -1       633 1.88428E-04-6.09609E-06-1.65436E-24
 -1       634 1.88874E-04-6.94683E-06-3.30872E-24
 -1       635 1.89321E-04-7.79981E-06-1.65436E-24
 -1       636 1.89772E-04-8.66327E-06 3.30872E-24
 -1       637 1.90230E-04-9.54540E-06-1.65436E-24
 -1       638 1.90698E-04-1.04544E-05 3.30872E-24
 -1       639 1.91179E-04-1.13986E-05-8.27181E-25
 -1       640 1.91675E-04-1.23860E-05 3.30872E-24
 -1       656 1.85368E-04-1.04441E-05 0.00000E+00
 -1       657 1.86493E-04-1.10462E-05-6.61744E-24
 -1       658 1.87900E-04-1.16469E-05 0.00000E+00
 -1       659 1.89441E-04-1.22472E-05 0.00000E+00
 -1       660 1.90931E-04-1.28494E-05 0.00000E+00
 -1       661 1.84926E-04-1.03830E-05-8.27181E-25
 -1       662 1.85226E-04-1.09907E-05 0.00000E+00
 -1       663 1.85559E-04-1.16839E-05 0.00000E+00
 -1       664 1.85922E-04-1.24563E-05-8.27181E-25
 -1       665 1.86312E-04-1.33023E-05-1.65436E-24
 -1       666 1.86728E-04-1.42163E-05 0.00000E+00
 -1       667 1.87167E-04-1.51930E-05 0.00000E+00
 -1       668 1.87628E-04-1.62270E-05 0.00000E+00
 -1       669 1.88108E-04-1.73132E-05-1.65436E-24
 -1       670 1.88606E-04-1.84466E-05 8.27181E-25
 -1       671 1.89120E-04-1.96223E-05 0.00000E+00
 -1       672 1.89648E-04-2.08355E-05 0.00000E+00
 -1       673 1.90187E-04-2.20814E-05 0.00000E+00
 -1       674 1.90737E-04-2.33557E-05 0.00000E+00
 -1       675 1.91295E-04-2.46533E-05 0.00000E+00
 -1       676 1.85069E-04-2.54536E-05-3.30872E-24
 -1       677 1.86431E-04-2.55578E-05 0.00000E+00
 -1       678 1.87792E-04-2.56621E-05-3.30872E-24
 -1       679 1.89150E-04-2.57660E-05 0.00000E+00
 -1       680 1.90505E-04-2.58699E-05-3.30872E-24
 -1       771 1.86708E-05 1.47279E-05 0.00000E+00
 -1       772 8.61463E-06 3.66813E-05 0.00000E+00
 -1       773 3.64502E-07 5.40887E-05 0.00000E+00
 -1       774-6.20388E-06 6.72081E-05-2.64698E-23
 -1       775-1.12122E-05 7.63079E-05 0.00000E+00
 -1       776-1.47869E-05 8.16731E-05-2.64698E-23
 -1       777-1.70544E-05 8.35990E-05-5.29396E-23
 -1       778-1.81437E-05 8.23946E-05 2.64698E-23
 -1       779-1.81830E-05 7.83776E-05-5.29396E-23
 -1       780-1.73026E-05 7.18769E-05-2.64698E-23
 -1       781-1.56319E-05 6.32283E-05 0.00000E+00
 -1       782-1.33020E-05 5.27766E-05 2.64698E-23
 -1       783-1.04427E-05 4.08709E-05 0.00000E+00
 -1       784-7.18545E-06 2.78668E-05 7.94093E-23
 -1       785-3.66053E-06 1.41228E-05-5.29396E-23
 -1       786 1.93746E-04 3.23801E-05 0.00000E+00
 -1       787 1.93788E-04 3.01774E-05 0.00000E+00
 -1       788 1.93830E-04 2.80165E-05 8.27181E-25
 -1       789 1.93872E-04 2.58892E-05 0.00000E+00
 -1       790 1.93915E-04 2.37908E-05 0.00000E+00
 -1       791 1.93957E-04 2.17164E-05-8.27181E-25
 -1       792 1.94000E-04 1.96640E-05-1.65436E-24
 -1       793 1.94043E-04 1.76314E-05 8.27181E-25
 -1       794 1.94086E-04 1.56182E-05 0.00000E+00
 -1       795 1.94129E-04 1.36243E-05 0.00000E+00
 -1       796 1.94172E-04 1.16518E-05 1.65436E-24
 -1       797 1.94215E-04 9.70222E-06 0.00000E+00
 -1       798 1.94258E-04 7.78000E-06 0.00000E+00
 -1       799 1.94301E-04 5.88940E-06-8.27181E-25
 -1       800 1.94344E-04 4.03791E-06 0.00000E+00
 -1       801 1.47925E-04 3.11347E-05-2.64698E-23
 -1       802 9.49526E-06 1.94240E-05 0.00000E+00
 -1       803-1.08754E-04 9.81068E-06 0.00000E+00
 -1       804-9.64167E-05 6.82849E-06 0.00000E+00
 -1       805-3.18575E-05 2.68372E-06 0.00000E+00
 -1       806 1.94438E-04 3.23113E-05 0.00000E+00
 -1       807 1.95153E-04 3.00159E-05 1.65436E-24
 -1       808 1.95856E-04 2.77520E-05 3.30872E-24
 -1       809 1.96545E-04 2.55235E-05 0.00000E+00
 -1       810 1.97220E-04 2.33346E-05 0.00000E+00
 -1       811 1.97878E-04 2.11892E-05 1.65436E-24
 -1       812 1.98519E-04 1.90912E-05-3.30872E-24
 -1       813 1.99140E-04 1.70445E-05-1.65436E-24
 -1       814 1.99741E-04 1.50531E-05 0.00000E+00
 -1       815 2.00319E-04 1.31209E-05 0.00000E+00
 -1       816 2.00874E-04 1.12517E-05 0.00000E+00
 -1       817 2.01405E-04 9.44943E-06-8.27181E-25
 -1       818 2.01909E-04 7.71802E-06-1.65436E-24
 -1       819 2.02385E-04 6.06131E-06-1.65436E-24
 -1       820 2.02832E-04 4.48314E-06-3.30872E-24
 -1       821 1.94259E-04-1.26337E-07-1.65436E-24
 -1       822 1.94119E-04-3.63655E-06 1.65436E-24
 -1       823 1.93977E-04-7.87037E-06 3.30872E-24
 -1       824 1.93832E-04-1.23962E-05-1.65436E-24
 -1       825 1.93687E-04-1.67034E-05-3.30872E-24
 -1       826 1.93546E-04-2.02828E-05-1.65436E-24
 -1       827 1.93407E-04-2.28233E-05 3.30872E-24
 -1       828 1.93271E-04-2.40202E-05 0.00000E+00
 -1       829 1.93135E-04-2.39344E-05 0.00000E+00
 -1       830 1.92999E-04-2.26347E-05-1.65436E-24
 -1       831 1.92861E-04-2.05204E-05 3.30872E-24
 -1       832 1.92723E-04-1.79956E-05 0.00000E+00
 -1       833 1.92585E-04-1.55763E-05-3.30872E-24
 -1       834 1.92449E-04-1.37779E-05 0.00000E+00
 -1       835 1.92315E-04-1.29472E-05-8.27181E-25
 -1       836 1.96078E-04 2.35821E-06 0.00000E+00
 -1       837 1.97640E-04 2.48641E-06 0.00000E+00
 -1       838 1.99107E-04 2.61456E-06 3.30872E-24
 -1       839 2.00510E-04 2.74200E-06 0.00000E+00
 -1       840 2.01880E-04 2.86929E-06 0.00000E+00
 -1       856 1.92171E-04-1.44859E-05 0.00000E+00
 -1       857 1.92151E-04-1.54093E-05 0.00000E+00
 -1       858 1.92131E-04-1.62168E-05 0.00000E+00
 -1       859 1.92110E-04-1.69298E-05 0.00000E+00
 -1       860 1.92089E-04-1.75698E-05 0.00000E+00
 -1       861 1.92068E-04-1.81584E-05-2.06795E-25
 -1       862 1.92047E-04-1.87173E-05 0.00000E+00
 -1       863 1.92027E-04-1.92680E-05-4.13590E-25
 -1       864 1.92006E-04-1.98322E-05 0.00000E+00
 -1       865 1.91985E-04-2.04315E-05-4.13590E-25
 -1       866 1.91964E-04-2.10876E-05-8.27181E-25
 -1       867 1.91943E-04-2.18220E-05-4.13590E-25
 -1       868 1.91922E-04-2.26563E-05-8.27181E-25
 -1       869 1.91900E-04-2.36117E-05 4.13590E-25
 -1       870 1.91879E-04-2.47098E-05 0.00000E+00
 -1       871 1.93538E-04-1.34302E-05-8.27181E-25
 -1       872 1.95034E-04-1.34385E-05 0.00000E+00
 -1       873 1.96610E-04-1.34476E-05 0.00000E+00
 -1       874 1.98197E-04-1.34575E-05 3.61892E-25
 -1       875 1.99726E-04-1.34679E-05-1.24077E-24
 -1       876 1.92714E-04-1.44724E-05 0.00000E+00
 -1       877 1.93218E-04-1.54531E-05-1.65436E-24
 -1       878 1.93700E-04-1.63751E-05-3.30872E-24
 -1       879 1.94163E-04-1.72457E-05-1.65436E-24
 -1       880 1.94610E-04-1.80722E-05-3.30872E-24
 -1       881 1.95043E-04-1.88618E-05-1.65436E-24
 -1       882 1.95464E-04-1.96218E-05-3.30872E-24
 -1       883 1.95878E-04-2.03594E-05 0.00000E+00
 -1       884 1.96286E-04-2.10817E-05 0.00000E+00
 -1       885 1.96691E-04-2.17961E-05 0.00000E+00
 -1       886 1.97095E-04-2.25097E-05 3.30872E-24
 -1       887 1.97502E-04-2.32298E-05 1.65436E-24
 -1       888 1.97913E-04-2.39635E-05 0.00000E+00
 -1       889 1.98332E-04-2.47183E-05 1.65436E-24
 -1       890 1.98761E-04-2.55013E-05 0.00000E+00
 -1       891 1.93227E-04-2.60304E-05-1.65436E-24
 -1       892 1.94574E-04-2.60894E-05-8.27181E-25
 -1       893 1.95870E-04-2.61483E-05 0.00000E+00
 -1       894 1.97090E-04-2.62069E-05 0.00000E+00
 -1       895 1.98207E-04-2.62652E-05-8.27181E-25
 -1       956 2.03120E-04 1.66614E-06-1.65436E-24
 -1       957 2.02987E-04 4.36558E-07 8.27181E-25
 -1       958 2.02855E-04-7.12193E-07 3.30872E-24
 -1       959 2.02722E-04-1.79145E-06-1.65436E-24
 -1       960 2.02589E-04-2.81262E-06 3.30872E-24
 -1       961 2.02456E-04-3.78711E-06-1.65436E-24
 -1       962 2.02323E-04-4.72634E-06-3.30872E-24
 -1       963 2.02190E-04-5.64180E-06 0.00000E+00
 -1       964 2.02058E-04-6.54491E-06 0.00000E+00
 -1       965 2.01925E-04-7.44712E-06 1.65436E-24
 -1       966 2.01792E-04-8.35989E-06 0.00000E+00
 -1       967 2.01659E-04-9.29467E-06 0.00000E+00
 -1       968 2.01526E-04-1.02629E-05 0.00000E+00
 -1       969 2.01394E-04-1.12759E-05 0.00000E+00
 -1       970 2.01262E-04-1.23452E-05 0.00000E+00
 -1       971 2.01011E-04-1.46181E-05 3.30872E-24
 -1       972 2.00890E-04-1.56601E-05 0.00000E+00
 -1       973 2.00768E-04-1.66182E-05 0.00000E+00
 -1       974 2.00647E-04-1.75029E-05 1.65436E-24
 -1       975 2.00525E-04-1.83251E-05 0.00000E+00
 -1       976 2.00403E-04-1.90955E-05 1.65436E-24
 -1       977 2.00282E-04-1.98248E-05-3.30872E-24
 -1       978 2.00160E-04-2.05239E-05 0.00000E+00
 -1       979 2.00039E-04-2.12035E-05 0.00000E+00
 -1       980 1.99917E-04-2.18744E-05-1.65436E-24
 -1       981 1.99796E-04-2.25475E-05 0.00000E+00
 -1       982 1.99675E-04-2.32335E-05 1.65436E-24
 -1       983 1.99553E-04-2.39431E-05 0.00000E+00
 -1       984 1.99433E-04-2.46872E-05 0.00000E+00
 -1       985 1.99312E-04-2.54766E-05 0.00000E+00
 -3
    1PSTEP                        36          18           1          
  100CL  118 6.63143E-01         409                     0   18           1
 -4  STRESS      6    1
 -5  SXX         1    4    1    1
 -5  SYY         1    4    2    2
 -5  SZZ         1    4    3    3
 -5  SXY         1    4    1    2
 -5  SYZ         1    4    2    3
 -5  SZX         1    4    3    1
 -1         1-5.33544E+06-1.61080E+06-1.13379E+06-1.37828E+06-1.68802E-09 1.78668E-07
 -1         2 1.42738E+06 2.09683E+07 4.90758E+06 6.32260E+06 2.92785E-08 8.80245E-08
 -1         3-1.48870E+03-1.56317E+06 4.06786E+02-2.21911E+03-5.55666E-10 3.03335E-08
 -1         5-7.52159E+01 3.86562E+05 9.98531E+00-1.34302E+00-5.33327E-10 4.92946E-10
 -1         8-5.63994E+05-2.02835E+05-6.37153E+04-2.47124E+05 1.72804E-10-2.79433E-08
 -1         9 1.17150E+07 3.67216E+06 2.75046E+06-3.72416E+05 1.16066E-08-9.33651E-09
 -1        10-2.30670E+03-1.62895E+06-3.95698E+03-1.50149E+04-1.33896E-08-8.02640E-09
 -1        12-7.12961E+01 3.86584E+05 3.28238E+02-9.15380E+00-6.12957E-10 1.51622E-08
 -1        15 9.40399E+02 5.16795E+02 3.03982E+03 8.53802E-01-5.10553E-10 1.56417E-07
 -1        16 2.28789E+07-3.21724E+05 3.11678E+06-2.25503E+06 2.63293E-08-1.83005E-07
 -1        17 8.37146E+06 6.27526E+06 2.26194E+06 6.00551E+06 2.40689E-08 2.50409E-08
 -1        18 1.42325E+05 3.35109E+04 4.14081E+03-1.19578E+05 1.22507E-08-5.88443E-09
 -1        19 1.22472E+05 1.41730E+05-9.44959E+02 2.19749E+04 1.61926E-09 2.98314E-09
 -1        20-8.21589E+04-5.73890E+05-1.28791E+05 2.50916E+04-1.77063E-09 2.94737E-09
 -1        21-4.49563E+01-2.96091E+05-9.12006E+02 2.76816E+02 1.65289E-08-2.84154E-08
 -1        24 1.40119E+07 1.20728E+07 3.88050E+06 1.11792E+07-1.72411E-07-5.53749E-08
 -1        25 1.24926E+05 2.67287E+05 9.99911E+04-6.45676E+05-4.95220E-10 2.57747E-08
 -1        26-5.54203E+04 9.23305E+04-2.46402E+04 1.31095E+03 2.12094E-10 1.28756E-08
 -1        27-7.59061E+04-3.10167E+05-1.13451E+05 6.89911E+04 2.91675E-09-1.41302E-08
 -1        28 2.13977E+04-8.62680E+04 1.69454E+04 2.06324E+04-6.54984E-09-5.65002E-09
 -1        32-1.68069E+06-3.18067E+06-1.97276E+05 4.57287E+05-4.17713E-08-1.13403E-08
 -1        33-1.78561E+05 9.30429E+04 3.24027E+04-3.84963E+04-3.02634E-09-6.68145E-09
 -1        34-2.23788E+05-2.50964E+04 6.85903E+02 7.55331E+04-5.41739E-09 1.59136E-08
 -1        35-2.29846E+04-3.50763E+04-1.62058E+03 5.15351E+04-6.47264E-09 1.58022E-08
 -1        51 6.05364E+04-1.73151E+05 1.28063E+05-4.43354E+05-1.16415E-10 2.45243E-07
 -1        52 2.05098E+04-1.50800E+05 6.72050E+04-5.17073E+05-5.45697E-12 3.35876E-07
 -1        53 4.19924E+03-1.66178E+05 3.50087E+04-4.41826E+05 3.80169E-10-4.46744E-08
 -1        54 7.44477E+03-1.61970E+05 2.87909E+04-5.18573E+05 1.81899E-11-2.02599E-07
 -1        55 1.62144E+04-1.69026E+05 3.50487E+04-4.41730E+05 1.45519E-10 5.58448E-08
 -1        56-9.76428E+06-1.34694E+06-9.06356E+05-4.05844E+06 1.29803E-08-2.46218E-08
 -1        57-1.10088E+07-8.83480E+05-5.50112E+05-2.76639E+06 6.21149E-08 1.50911E-07
 -1        58-9.60369E+06-1.80071E+06-2.00614E+05-4.23396E+06 1.92085E-08 3.07955E-07
 -1        59-1.11477E+07-3.66989E+05-1.09371E+05-2.69841E+06-1.14433E-08-1.49143E-07
 -1        60-9.69366E+06-1.80545E+06-5.62898E+04-4.18692E+06-8.28004E-09-3.68600E-07
 -1        61-1.05471E+07-6.79320E+05 1.10803E+04-2.94368E+06 4.16039E-08-1.03057E-07
 -1        62-1.00834E+07-1.56979E+06-6.91476E+04-3.89366E+06-8.09960E-08-1.27089E-07
 -1        63-9.71309E+06-1.34664E+06 4.69361E+04-3.60899E+06 2.62444E-08-4.20761E-07
 -1        64-1.04324E+07-1.20589E+06-6.35030E+04-3.46085E+06-4.12110E-08-1.70341E-07
 -1        65-9.34463E+06-1.91918E+06 8.58397E+03-4.45439E+06 3.66344E-09-3.07696E-08
 -1        66-1.05635E+07-9.19806E+05-4.64687E+04-3.13224E+06 1.98634E-08-2.94818E-07
 -1        67-9.34379E+06-2.16729E+06-9.85317E+04-4.85310E+06-6.67924E-08-1.26625E-07
 -1        68-1.05441E+07-8.80389E+05-1.85667E+05-3.13171E+06-5.28162E-08-7.77945E-08
 -1        69-9.53684E+06-2.25917E+06-4.90089E+05-4.42104E+06-4.27244E-08-1.51420E-07
 -1        70-1.02688E+07-9.10777E+05-8.30907E+05-3.49609E+06-2.28092E-08 1.55473E-07
 -1        86-1.45596E+06-1.51491E+07-2.68533E+06-2.97282E+06-2.67704E-07 5.64614E-09
 -1        87 2.27703E+06 5.98041E+06 2.23389E+06 5.54916E+06-4.44765E-07-1.60851E-07
 -1        88-4.22759E+05-2.00565E+06 2.09692E+05-2.50357E+06-3.93249E-07-3.29987E-07
 -1        89 3.05041E+06 5.70200E+06 2.28830E+06 5.73105E+06-5.77311E-07-1.03653E-07
 -1        90-2.14121E+06-1.49425E+07-2.90171E+06-3.18139E+06-1.35275E-07 1.54410E-07
 -1       121-2.03946E+03-1.56808E+06-5.46680E+02 1.09991E+03 1.58036E-09-2.39888E-08
 -1       122-1.30231E+03-1.56323E+06 7.71543E+02-4.44222E+03-5.50216E-09 4.06253E-08
 -1       123-2.05926E+03-1.56821E+06 2.63810E+02 3.28490E+03 4.09636E-09-6.22094E-09
 -1       124 3.39064E+02-1.56278E+06 2.95773E+03-9.29375E+03-1.03723E-08 7.73070E-09
 -1       125-2.87057E+03-1.56911E+06 3.47262E+03 5.90549E+03 6.86305E-09-1.61490E-08
 -1       191-7.92640E+01 3.86580E+05 8.49407E+00 7.00232E-01-5.98956E-10-2.65754E-09
 -1       192-7.61800E+01 3.86563E+05 2.13082E+01-4.30538E+00-8.05077E-10 3.65344E-09
 -1       193-8.18015E+01 3.86580E+05 3.62804E+01 3.78101E+00-1.06076E-09-2.31375E-09
 -1       194-7.92707E+01 3.86566E+05 8.10039E+01-9.76930E+00-5.59386E-10-8.13452E-09
 -1       195-8.66721E+01 3.86578E+05 1.55087E+02 6.35733E+00-1.52404E-09-8.56926E-09
 -1       251-8.70454E+05 1.61792E+04-3.77923E+04-1.41841E+04 2.36216E-09 1.98179E-08
 -1       252-8.84958E+05-1.87139E+04-2.63248E+04 4.95504E+04 5.85010E-09 1.48787E-07
 -1       253-8.78702E+05 2.48623E+03-1.01439E+04-1.01734E+04-9.16111E-09-1.54339E-07
 -1       254-8.71882E+05-2.99458E+03-4.64944E+03 3.54238E+04 1.80746E-08-4.53653E-08
 -1       255-8.82949E+05 7.68235E+01-3.46579E+03-6.06375E+01-3.65094E-09-6.20539E-08
 -1       256-8.66605E+05-2.81599E+02 1.05563E+03 1.23964E+04-1.43791E-09-1.76494E-07
 -1       257-8.83552E+05-5.42485E+02-1.33223E+03 1.28436E+04 1.73100E-09 2.02290E-07
 -1       258-8.69208E+05 8.64610E+02 2.61318E+03-1.19148E+04-1.62390E-08-1.37446E-07
 -1       259-8.80577E+05-8.91057E+02 1.38463E+03 2.42482E+04-1.61617E-09-1.10074E-07
 -1       260-8.75262E+05 2.85030E+03 5.51297E+03-2.94869E+04-1.61551E-08 1.13221E-07
 -1       261-8.78103E+05-2.06076E+03 8.59928E+03 3.04305E+04 3.22899E-08 1.11105E-07
 -1       262-8.73832E+05 1.16268E+04 2.13557E+04-3.46205E+04-1.45018E-08 4.22870E-09
 -1       263-8.82247E+05-9.44866E+03 3.38473E+04 2.93905E+04 3.95391E-09-1.61213E-07
 -1       264-8.43694E+05 6.65101E+04 9.36610E+04-2.55257E+04 2.84509E-08-4.92000E-08
 -1       265-9.07762E+05-5.70645E+04 1.30510E+05 2.13245E+04 1.31945E-08 5.33400E-08
 -1       266-1.70246E+04-7.96152E+03 3.99407E+04-1.82673E+01 8.18545E-11 2.57306E-07
 -1       267 1.97359E+04 9.27806E+03 2.82315E+04 2.10786E+01 9.82254E-11-4.26945E-08
 -1       268-2.64656E+03-1.31410E+03 1.04934E+04-2.68568E+00-2.07820E-10-3.03113E-07
 -1       269 3.12480E+03 1.57262E+03 6.82064E+03 3.12852E+00-9.12905E-11-1.96197E-07
 -1       270-4.69036E+02-2.58397E+02 3.29242E+03-4.24558E-01 1.22441E-10 3.53712E-07
 -1       271-1.50044E+06-1.90415E+05-1.12916E+05-5.83454E+05-3.25253E-08-8.07049E-08
 -1       272-1.49980E+06-3.02704E+05-7.10688E+04-6.19104E+05 2.43217E-08-1.66722E-07
 -1       273-1.52418E+06-2.14652E+05-2.73261E+04-5.75455E+05-3.26145E-08 9.78853E-08
 -1       274-1.47258E+06-2.73580E+05-1.43036E+04-6.34032E+05 9.95169E-09 1.19837E-07
 -1       275-1.52975E+06-2.14380E+05-6.77673E+03-5.71740E+05 1.88229E-08 1.11118E-07
 -1       276-1.46680E+06-2.74392E+05-2.90948E+03-6.42408E+05-3.62561E-08 2.99541E-07
 -1       277-1.53253E+06-2.11841E+05-1.86885E+03-5.69048E+05 5.11645E-08 2.44991E-07
 -1       278-1.46451E+06-2.77564E+05-7.43062E+02-6.48569E+05 1.59789E-08 4.16376E-08
 -1       279-1.53430E+06-2.09745E+05-8.87153E+02-5.67152E+05-2.95004E-08-2.24545E-08
 -1       280-1.46342E+06-2.79980E+05-1.04879E+03-6.52643E+05 1.89962E-08 1.38162E-08
 -1       281-1.53524E+06-2.08402E+05-1.93512E+03-5.66074E+05 2.01535E-08 1.98180E-07
 -1       282-1.46380E+06-2.82257E+05-4.50564E+03-6.54342E+05-2.23599E-09 1.21138E-07
 -1       283-1.53473E+06-2.07091E+05-8.01707E+03-5.65934E+05 7.90467E-09-7.43921E-08
 -1       284-1.47096E+06-2.92829E+05-2.18436E+04-6.52163E+05 1.07993E-08 3.37222E-08
 -1       285-1.52806E+06-1.99040E+05-3.40828E+04-5.67744E+05-2.53658E-09 1.14665E-07
 -1       301-5.89264E+03-6.44201E+05 1.67166E+05-1.13038E+06-5.29690E-09 1.12050E-08
 -1       302-7.35171E+03-5.97712E+05 1.00606E+05-1.65007E+06-2.02635E-08-1.04141E-07
 -1       303-2.07776E+04-6.36394E+05 5.69278E+04-1.12729E+06-1.04483E-08 2.61991E-07
 -1       304-2.32500E+04-6.04507E+05 5.74397E+04-1.64946E+06-1.84809E-09 2.28283E-07
 -1       305-2.50046E+04-6.25243E+05 7.08169E+04-1.13039E+06 2.45655E-08 1.97208E-07
 -1       306-3.01505E+07-6.22460E+06-8.61666E+06-5.15807E+05-5.36675E-08-2.77360E-08
 -1       307 2.53772E+07 3.27421E+06 5.51911E+06-1.52318E+07-8.01825E-07 3.91155E-08
 -1       308-6.96216E+06-1.02665E+06-4.50920E+05 5.21360E+06-1.14494E-07 3.12313E-07
 -1       309-3.24335E+06 8.76082E+06 2.28978E+06-2.06926E+07 1.69617E-07-6.68006E-08
 -1       310-1.25833E+07-1.94792E+06-2.04138E+06 5.22425E+06 1.54891E-07 2.43454E-08
 -1       311 3.84963E+07 1.48356E+04 7.29017E+06-8.80951E+06 6.38480E-07 1.88011E-08
 -1       312-3.19628E+07-6.78379E+06-8.54964E+06-5.04848E+06 3.33064E-07 3.84796E-07
 -1       313 4.54785E+07 1.50548E+07 1.06826E+07 2.38421E+07 2.36469E-07 2.47528E-07
 -1       314-1.72273E+07-1.78158E+07-7.53327E+06-1.25452E+07 5.53206E-07 8.13161E-08
 -1       315-1.84312E+06 2.97804E+07 5.67480E+06 1.05445E+07-2.33762E-07-3.36906E-07
 -1       316 1.40800E+06-9.84605E+06-4.38868E+05-2.52219E+06-1.22913E-06-4.85394E-07
 -1       317-1.71181E+07 2.24437E+07 2.24441E+06-8.84721E+06 6.67322E-07-7.79233E-07
 -1       318-1.07367E+06-1.28081E+07-2.04882E+06-4.23991E+06-9.78267E-07 1.66299E-07
 -1       319 7.23864E+06 3.20199E+07 7.05164E+06 1.66461E+07-6.27770E-08 2.53553E-07
 -1       320-2.26199E+07-1.76646E+07-9.86816E+06-1.28283E+07 2.00700E-07-3.67872E-08
 -1       336-7.41479E+02-1.69750E+06-1.38805E+04 8.93967E+03-2.66045E-08 1.20344E-08
 -1       337-5.41849E+03-1.69706E+06-1.81140E+04-2.17122E+04-4.92671E-08 1.81044E-08
 -1       338 2.81264E+02-1.69698E+06-2.85276E+04 1.25216E+04-3.36258E-08 2.43672E-08
 -1       339-3.02710E+04-1.71434E+06-6.44807E+04-2.87280E+04-6.33181E-08 3.26127E-08
 -1       340 1.99478E+04-1.68241E+06-1.01571E+05 1.58244E+04-4.16185E-08 3.35531E-08
 -1       406-4.95801E+01 3.86563E+05 6.44496E+02 3.34886E+00-1.82800E-09 1.65037E-08
 -1       407 1.55041E+02 3.86697E+05 1.37732E+03 2.33902E+01-5.28956E-10 3.19997E-08
 -1       408 6.35348E+02 3.86462E+05 2.74627E+03-2.70603E+01-2.43540E-09 6.18820E-09
 -1       409 2.90853E+03 3.87574E+05 6.18983E+03 2.88915E+02-2.20780E-10 3.87336E-08
 -1       410 8.48422E+03 3.85672E+05 1.26332E+04-2.78616E+02-2.86673E-09 2.14877E-08
 -1       521-3.17047E+07-7.68710E+06-1.00713E+07-1.21810E+05-1.21421E-07-1.50932E-07
 -1       522 2.62508E+07 4.30737E+06 5.62948E+06-1.87497E+07-5.37140E-07-5.51896E-07
 -1       523-7.53584E+06-1.34042E+06-4.42422E+05 5.66338E+06 1.32422E-07-3.83036E-07
 -1       524-6.74927E+06 1.18329E+07 2.47800E+06-2.37615E+07 7.42526E-07-4.36041E-07
 -1       525-1.33809E+07-2.58618E+06-2.24510E+06 5.67798E+06 6.06640E-07-1.62661E-07
 -1       526 4.20439E+07-7.87440E+04 7.65345E+06-1.14619E+07 1.98372E-07 2.30764E-07
 -1       527-3.38205E+07-8.48715E+06-9.85888E+06-4.91076E+06 3.46336E-07 1.98037E-07
 -1       528 4.96752E+07 1.67873E+07 1.11463E+07 2.71240E+07 3.14321E-07 3.80736E-07
 -1       529-1.81705E+07-2.00355E+07-8.64054E+06-1.25756E+07 2.65951E-07-3.25963E-07
 -1       530-4.32931E+06 3.45951E+07 6.00801E+06 9.99634E+06-2.95826E-07 5.70377E-07
 -1       531 1.40990E+06-1.09200E+07-4.11360E+05-2.46577E+06-8.66770E-07 2.51632E-07
 -1       532-1.96300E+07 2.44544E+07 2.45385E+06-1.31600E+07 2.95651E-07-8.25152E-07
 -1       533-1.11617E+06-1.39631E+07-2.18264E+06-4.04293E+06-2.70957E-07-9.97388E-07
 -1       534 5.23127E+06 3.71758E+07 7.34167E+06 1.72272E+07-3.20142E-09 7.25733E-07
 -1       535-2.38060E+07-2.00698E+07-1.13186E+07-1.28987E+07 1.08266E-07 4.20085E-07
 -1       536-7.06113E+05-4.68285E+04-4.79750E+04-5.46878E+04-2.94449E-09 5.67807E-08
 -1       537-5.49021E+04 4.47821E+04 8.40501E+04 1.23855E+05-1.08114E-07 9.99157E-08
 -1       538-3.94410E+05 3.33202E+03 3.60373E+03-7.22052E+04 2.43723E-08 1.09498E-07
 -1       539-2.69043E+05 2.86897E+03 2.49500E+04 1.38744E+05 1.15717E-07 1.18774E-07
 -1       540-4.97350E+05-4.30361E+02-2.13124E+04-7.01117E+04-1.40412E-08 1.14681E-07
 -1       541 1.46689E+05 1.69749E+04 1.06399E+05 9.79322E+04-3.71328E-08 8.84393E-08
 -1       542-7.98940E+05-2.01365E+04-8.42376E+04-3.05183E+04 5.33128E-08 5.09974E-08
 -1       543 4.05374E+05 2.73269E+04 1.57978E+05-1.33641E+04-3.12502E-08 8.14680E-09
 -1       544-7.49096E+05-1.65373E+04-7.48374E+04 4.05150E+04-1.45192E-08-3.18063E-08
 -1       545 2.89730E+04 9.48325E+03 7.98114E+04-1.13630E+05-1.00559E-08-8.95379E-08
 -1       546-4.32649E+05 6.09660E+03-1.22292E+04 6.94010E+04 2.48169E-08-8.48034E-08
 -1       547-2.87131E+05-4.65711E+03 1.05861E+04-1.41592E+05-1.22444E-07-9.00503E-08
 -1       548-4.41490E+05 4.71998E+03-2.38832E+04 6.91678E+04-9.86956E-08-1.05230E-07
 -1       549 4.81663E+04 1.60740E+04 6.05197E+04-1.11489E+05-5.54347E-08-8.12886E-08
 -1       550-7.58974E+05-2.21426E+04-1.28974E+05 3.85830E+04 6.02995E-09-4.24188E-08
 -1       551 4.08239E+04-7.52378E+05-1.58045E+04-1.24759E+06-1.02184E-07-3.75439E-09
 -1       552 9.33120E+04-7.97359E+05 9.98385E+03-1.77893E+06-6.80157E-08 3.92247E-08
 -1       553 7.17918E+04-7.93768E+05 3.20982E+04-1.24095E+06-1.18554E-07 3.17377E-08
 -1       554 1.32114E+05-8.13239E+05 8.11547E+04-1.78087E+06-7.54371E-08 2.38015E-08
 -1       555 1.01548E+05-8.17420E+05 1.48195E+05-1.24078E+06-1.23975E-07-8.57472E-09
 -1       556 2.23724E+05-3.83689E+05 2.59534E+04-4.07315E+05-2.43890E-08-1.60071E-08
 -1       557 3.54349E+05-4.88065E+05 1.62537E+04-5.27735E+05-5.82077E-09-2.79033E-09
 -1       558 2.05504E+05-3.76518E+05 2.36707E+03-4.11734E+05-2.25264E-08 6.13363E-09
 -1       559 3.29302E+05-4.88159E+05 2.46195E+03-5.48192E+05 1.93249E-08 1.26893E-08
 -1       560 1.90195E+05-3.66917E+05-1.49584E+03-4.22766E+05 9.86620E-09 3.20142E-10
 -1       561 3.10064E+05-4.80460E+05 1.34607E+02-5.61309E+05 2.56114E-09-2.61934E-09
 -1       562 1.78090E+05-3.59396E+05-1.32490E+03-4.31532E+05 3.50701E-09-8.18545E-09
 -1       563 2.95685E+05-4.74191E+05-3.58981E+01-5.70700E+05 1.20126E-08-1.76078E-08
 -1       564 1.69451E+05-3.54014E+05-6.00481E+02-4.37654E+05 1.11613E-08 4.92537E-09
 -1       565 2.86149E+05-4.70038E+05 2.40962E+01-5.76793E+05 1.51340E-08 8.31278E-10
 -1       566 1.64401E+05-3.50819E+05-2.60219E+02-4.41186E+05 1.62981E-09-3.13539E-08
 -1       567 2.81514E+05-4.68022E+05-3.63037E+02-5.79608E+05 2.33267E-08-1.59162E-08
 -1       568 1.63031E+05-3.49980E+05-1.12706E+03-4.42240E+05-1.20690E-09 2.03036E-08
 -1       569 2.80392E+05-4.67950E+05-2.84654E+03-5.78177E+05 5.01132E-10 1.19180E-08
 -1       570 1.66434E+05-3.53217E+05-6.22279E+03-4.41218E+05 4.84579E-09-1.79889E-08
 -1       571 2.90678E+05 1.05139E+04 1.49979E+04-9.52963E+04 5.71072E-09 1.42709E-08
 -1       572 2.92851E+05 3.96359E+03 7.35017E+03-1.04550E+05 3.99086E-09 1.83222E-08
 -1       573 2.91541E+05 1.24751E+03 3.26592E+03-9.51196E+04 6.07633E-09 7.95899E-09
 -1       574 2.91755E+05 7.28833E+02 1.63784E+03-1.04774E+05 5.61340E-09 1.06866E-09
 -1       575 2.91634E+05 4.49370E+02 7.73018E+02-9.50955E+04-4.41047E-09 4.37649E-09
 -1       576 2.91619E+05 4.60813E+02 3.95790E+02-1.04804E+05-1.37009E-08 1.85355E-09
 -1       577 2.91674E+05 3.91187E+02 1.97591E+02-9.50922E+04-7.14954E-09 1.68620E-09
 -1       578 2.91649E+05 4.22651E+02 1.14168E+02-1.04808E+05-3.36877E-09 8.51287E-10
 -1       579 2.91747E+05 3.54373E+02 7.84486E+01-9.50918E+04 6.32826E-09 4.49290E-10
 -1       580 2.91751E+05 3.71463E+02 9.11101E+01-1.04804E+05-1.16815E-08-1.44282E-08
 -1       581 2.91861E+05 2.95617E+02 1.37668E+02-9.50978E+04-5.84441E-09-2.11639E-09
 -1       582 2.91927E+05 3.33960E+02 2.79944E+02-1.04742E+05-1.55860E-08-3.42516E-09
 -1       583 2.92002E+05 3.38109E+02 5.37332E+02-9.51544E+04-5.92627E-09 3.17027E-09
 -1       584 2.92303E+05 7.76991E+02 1.21595E+03-1.04265E+05 8.43829E-09-2.03750E-09
 -1       585 2.92028E+05 1.80032E+03 2.46224E+03-9.55741E+04-1.60981E-09-8.95670E-09
 -1       586-3.42493E+03 1.17015E+05-2.91395E+03-2.50819E+05-4.44288E-09-8.13884E-09
 -1       587-1.34001E+03 1.16767E+05 7.74956E+02-2.76045E+05-9.23319E-09-5.19776E-09
 -1       588 3.98298E+02 1.16573E+05 4.76544E+03-2.50681E+05-7.67432E-09-1.27420E-09
 -1       589 5.08922E+03 1.19049E+05 1.23571E+04-2.75812E+05-1.04264E-08-3.36586E-08
 -1       590 1.66249E+04 1.15238E+05 2.59205E+04-2.51113E+05-7.39237E-09-1.96560E-08
 -1       591-7.50900E+04-1.59860E+04-2.25507E+04-3.19926E+04-9.16316E-09-1.22382E-08
 -1       592-7.91859E+04-1.95443E+04-1.22153E+04-3.56182E+04 1.43454E-09-2.06910E-09
 -1       593-7.73453E+04-1.43497E+04-5.08461E+03-3.36461E+04-5.07914E-09 3.29533E-09
 -1       594-7.60724E+04-1.62352E+04-2.53582E+03-3.57360E+04-8.85831E-09 1.09980E-08
 -1       595-7.75172E+04-1.43443E+04-1.16420E+03-3.37212E+04-4.15035E-09 3.34536E-08
 -1       596-7.58592E+04-1.60839E+04-5.91604E+02-3.57106E+04 3.51608E-09 1.18960E-08
 -1       597-7.75388E+04-1.43597E+04-3.21686E+02-3.37241E+04 4.62137E-09 2.06086E-09
 -1       598-7.58382E+04-1.60779E+04-2.57753E+02-3.57035E+04-3.05175E-09 1.22587E-08
 -1       599-7.75375E+04-1.43602E+04-3.28197E+02-3.37238E+04 7.55085E-09 2.41641E-09
 -1       600-7.58592E+04-1.60844E+04-6.08843E+02-3.57085E+04 3.84637E-09 7.04728E-09
 -1       601-7.75129E+04-1.43457E+04-1.20068E+03-3.37203E+04 4.17845E-09-5.15524E-09
 -1       602-7.60790E+04-1.62393E+04-2.61652E+03-3.57308E+04-6.91080E-09 3.38468E-09
 -1       603-7.73327E+04-1.43542E+04-5.24709E+03-3.36436E+04 5.53882E-10 1.28139E-08
 -1       604-7.93097E+04-1.96345E+04-1.26047E+04-3.55843E+04 2.71996E-10 7.35963E-09
 -1       605-7.49854E+04-1.60605E+04-2.32699E+04-3.19567E+04 4.43163E-09-1.72076E-08
 -1       606 2.66296E+04-1.43418E+04-2.57100E+04 2.39622E+04 7.08133E-09 6.83440E-09
 -1       607 2.22367E+04-4.68399E+03-1.28035E+04 2.69285E+04 1.77806E-09-2.12385E-08
 -1       608 2.47404E+04-8.44961E+02-5.73169E+03 2.37937E+04-4.40923E-09-1.93561E-08
 -1       609 2.42605E+04-2.89487E+02-2.89550E+03 2.71423E+04 2.13458E-09 3.12821E-09
 -1       610 2.45267E+04-4.10267E+01-1.38147E+03 2.37737E+04 6.19548E-09 1.03994E-08
 -1       611 2.44514E+04-4.13289E+01-6.96523E+02 2.71654E+04 1.21941E-08 1.51610E-08
 -1       612 2.44796E+04-2.73468E+01-3.31099E+02 2.37717E+04 5.57793E-09 5.53769E-09
 -1       613 2.44630E+04-3.72726E+01-1.48327E+02 2.71681E+04 4.72346E-09 2.03909E-09
 -1       614 2.44575E+04-3.38060E+01-3.46682E+01 2.37710E+04-2.51111E-09 1.02816E-08
 -1       615 2.44578E+04-3.58117E+01 6.24449E+01 2.71686E+04-5.39239E-09 2.05173E-08
 -1       616 2.44401E+04-3.07032E+01 1.86996E+02 2.37712E+04 8.66748E-10 8.58449E-09
 -1       617 2.44803E+04 4.00658E+00 4.26540E+02 2.71681E+04-1.15142E-09-1.55976E-08
 -1       618 2.44031E+04 9.22367E+01 8.59723E+02 2.37715E+04 1.56433E-09 1.89289E-09
 -1       619 2.47839E+04 6.68726E+02 1.93055E+03 2.71675E+04 5.40240E-10 1.08319E-08
 -1       620 2.41176E+04 2.13085E+03 3.88035E+03 2.37731E+04 2.15800E-09 1.34114E-08
 -1       621 5.11411E+02 3.01612E+05 3.88677E+03 4.11037E+04 1.01454E-09-5.92627E-09
 -1       622 6.77912E+02 3.02509E+05 3.44954E+03 5.96732E+04 1.05047E-09 1.77897E-09
 -1       623 1.43256E+02 3.01806E+05 4.14522E+03 4.09178E+04 1.08344E-09-2.99497E-09
 -1       624 2.12864E+03 3.03727E+05 8.03602E+03 5.98562E+04 8.67146E-10 1.43173E-08
 -1       625 2.07957E+03 3.00212E+05 1.40426E+04 4.09146E+04 1.40790E-09 1.86053E-08
 -1       626 2.61100E+05 6.14307E+04 5.12921E+03 1.26800E+05 2.70620E-09 6.89215E-09
 -1       627 2.58785E+05 6.28233E+04 2.47173E+03 1.31072E+05-2.29193E-10 1.10086E-08
 -1       628 2.61228E+05 5.90841E+04 1.04536E+03 1.27672E+05-1.08266E-08-9.63291E-09
 -1       629 2.58149E+05 6.21417E+04 5.11646E+02 1.31313E+05-9.43328E-09-1.46574E-09
 -1       630 2.61243E+05 5.89707E+04 2.37436E+02 1.27709E+05 2.19961E-09 1.05504E-08
 -1       631 2.58082E+05 6.21157E+04 1.27889E+02 1.31314E+05 9.63769E-09-8.98171E-09
 -1       632 2.61239E+05 5.89747E+04 8.43589E+01 1.27705E+05 6.84076E-09 4.30282E-09
 -1       633 2.58074E+05 6.21175E+04 9.42906E+01 1.31311E+05 2.40289E-09 2.11978E-08
 -1       634 2.61235E+05 5.89718E+04 1.52654E+02 1.27704E+05-2.02886E-09 4.96948E-09
 -1       635 2.58088E+05 6.21158E+04 3.09066E+02 1.31316E+05-9.21875E-09 1.02827E-08
 -1       636 2.61225E+05 5.89660E+04 6.24247E+02 1.27704E+05-3.32534E-09-8.74934E-10
 -1       637 2.58224E+05 6.22129E+04 1.37263E+03 1.31316E+05-1.27238E-09 2.37560E-08
 -1       638 2.61177E+05 5.92692E+04 2.82024E+03 1.27567E+05-3.10047E-09 1.92267E-08
 -1       639 2.59705E+05 6.42733E+04 6.67284E+03 1.30880E+05-2.75031E-09 4.11110E-08
 -1       640 2.60972E+05 6.54219E+04 1.38473E+04 1.24975E+05-1.17689E-09 1.19069E-08
 -1       656 6.66048E+04-1.70470E+06-1.60780E+05-2.56209E+03 3.41970E-10 1.04660E-08
 -1       657-8.81139E+04-1.77735E+06-1.33200E+05 5.15971E+03-3.20142E-10 9.96351E-10
 -1       658 2.12328E+04-1.72533E+06-8.20383E+04-4.64772E+03 4.15866E-10-1.03838E-08
 -1       659-9.52920E+04-1.78076E+06-1.42633E+05 6.89286E+03-1.97542E-09-2.75431E-08
 -1       660 7.37669E+04-1.70130E+06-1.76998E+05-4.29522E+03-3.79077E-09-4.03551E-09
 -1       661 1.58165E+05 1.65417E+04 1.66873E+04 6.18263E+04 8.62201E-10-3.90446E-09
 -1       662 1.67546E+05 2.89530E+04 1.12460E+04 5.81438E+04 3.43380E-09-2.09536E-08
 -1       663 1.61443E+05 2.18956E+04 3.93320E+03 6.08754E+04-1.71633E-09-2.85718E-09
 -1       664 1.63746E+05 2.26919E+04 2.35289E+03 5.93052E+04 1.00755E-09 6.51198E-09
 -1       665 1.61940E+05 2.26270E+04 9.28304E+02 6.07305E+04 2.67966E-09-6.70562E-09
 -1       666 1.63158E+05 2.18556E+04 5.43579E+02 5.94943E+04 7.70567E-09-1.19751E-08
 -1       667 1.62027E+05 2.27101E+04 2.89289E+02 6.06942E+04 2.51532E-11 1.25463E-08
 -1       668 1.63062E+05 2.17962E+04 2.95888E+02 5.95473E+04-9.72965E-09 1.25120E-08
 -1       669 1.62035E+05 2.26847E+04 4.01585E+02 6.06778E+04-4.26618E-09 9.71880E-09
 -1       670 1.63160E+05 2.20149E+04 8.75349E+02 5.95506E+04-1.21453E-08-3.84091E-10
 -1       671 1.61929E+05 2.24960E+04 1.55453E+03 6.06889E+04 1.65309E-09-1.82901E-08
 -1       672 1.64065E+05 2.35280E+04 3.97752E+03 5.93318E+04 1.01085E-08-9.90849E-09
 -1       673 1.61134E+05 2.12099E+04 6.66572E+03 6.08819E+04 9.75547E-10 1.61217E-08
 -1       674 1.70408E+05 3.42383E+04 1.90627E+04 5.74691E+04-3.85808E-09-1.50878E-08
 -1       675 1.55627E+05 1.20856E+04 2.82957E+04 6.24390E+04-5.52654E-09-3.50519E-09
 -1       676 2.38069E+01-2.96015E+05-1.09921E+03-1.38412E+02-2.57216E-10 1.20541E-08
 -1       677-2.90734E+02-2.96281E+05-2.01174E+03 2.76600E+02 7.60173E-09 2.83542E-09
 -1       678 1.95026E+02-2.95826E+05-3.55626E+03-1.38099E+02 9.96124E-10-1.65360E-09
 -1       679-3.55629E+03-2.98427E+05-8.44820E+03 2.75385E+02 1.01312E-08 9.23498E-09
 -1       680 2.12333E+03-2.93869E+05-1.36156E+04-1.35692E+02-6.19366E-10-1.40236E-08
 -1       771-3.06357E+06-7.47471E+05-1.65762E+05-1.46645E+06-3.55940E-08-3.01807E-08
 -1       772-2.98642E+06-8.36307E+05-8.54585E+04-1.56916E+06-2.53058E-08 1.14414E-08
 -1       773-3.09505E+06-7.22922E+05-4.35719E+04-1.48098E+06-2.61934E-09 1.34169E-08
 -1       774-2.97691E+06-8.17805E+05-1.94380E+04-1.59493E+06 3.91155E-08 1.76806E-09
 -1       775-3.11150E+06-7.11379E+05-1.45449E+04-1.48803E+06-1.57161E-09 1.21508E-09
 -1       776-2.98926E+06-8.14772E+05-5.43839E+03-1.61444E+06-1.09139E-09 6.35555E-09
 -1       777-3.12578E+06-7.01075E+05-6.42830E+03-1.49425E+06 1.45519E-10-2.21189E-09
 -1       778-3.00216E+06-8.11949E+05-1.81720E+03-1.63120E+06-2.32831E-10 1.43773E-08
 -1       779-3.13805E+06-6.92072E+05-3.21304E+03-1.49957E+06-6.12636E-09-5.43878E-09
 -1       780-3.01351E+06-8.09256E+05-5.32907E+02-1.64485E+06-2.36469E-09-2.23736E-09
 -1       781-3.14781E+06-6.84813E+05-1.24870E+03-1.50373E+06-3.07482E-08-4.16912E-09
 -1       782-3.02226E+06-8.06969E+05 4.49172E+02-1.65492E+06-3.38696E-08-4.94310E-10
 -1       783-3.15469E+06-6.79769E+05 6.98779E+02-1.50664E+06-3.77622E-09-1.33778E-08
 -1       784-3.02711E+06-8.04684E+05 2.89950E+03-1.66114E+06-2.07074E-08 1.01863E-10
 -1       785-3.15875E+06-6.76761E+05 5.11824E+03-1.50849E+06-3.77077E-08 7.83257E-09
 -1       786 1.23726E+05-9.77265E+03 2.26100E+04-3.22643E+02 4.38642E-09 1.74850E-08
 -1       787 1.33532E+05 1.13146E+04 1.59956E+04-1.35835E+02 8.46769E-09-2.32831E-10
 -1       788 1.27507E+05-1.53140E+03 5.84969E+03-2.87494E+02 4.56234E-09 2.96500E-08
 -1       789 1.29127E+05 1.77256E+03 3.67223E+03-1.89684E+02-1.92569E-09 1.61263E-08
 -1       790 1.28131E+05-2.38433E+02 1.48684E+03-2.68810E+02-6.86514E-09 2.50601E-08
 -1       791 1.28397E+05 2.75877E+02 8.58788E+02-2.21650E+02-1.17745E-08 3.08208E-09
 -1       792 1.28237E+05-3.58354E+01 3.63971E+02-2.55531E+02-5.68796E-09 1.00058E-08
 -1       793 1.28271E+05 3.78916E+01 1.81560E+02-2.46624E+02-1.11343E-09 2.83581E-09
 -1       794 1.28258E+05-5.98377E-01 4.74099E+01-2.43836E+02 5.19998E-09 1.18612E-09
 -1       795 1.28234E+05-2.72980E+01-5.72675E+01-2.71018E+02-8.09451E-09 1.50110E-08
 -1       796 1.28274E+05 2.93177E+01-1.61898E+02-2.31137E+02 3.99027E-09 8.38611E-10
 -1       797 1.28140E+05-2.18883E+02-4.44667E+02-3.00175E+02 3.39980E-09-5.11869E-09
 -1       798 1.28352E+05 1.90843E+02-7.22202E+02-2.14679E+02 2.73844E-09 2.09497E-08
 -1       799 1.27592E+05-1.40667E+03-1.98693E+03-3.40919E+02 5.48138E-09-6.19278E-09
 -1       800 1.28822E+05 1.21613E+03-2.81192E+03-1.90394E+02 6.65993E-10 3.40162E-09
 -1       801-1.70954E+05-9.99129E+06-1.39240E+06 1.41372E+06 9.18808E-08-5.25324E-08
 -1       802 7.37266E+05 5.93919E+06 2.17894E+06-1.74506E+06 2.58617E-07-3.88509E-08
 -1       803-5.35994E+05-1.42532E+07-1.88816E+06 8.97383E+05 7.70378E-08 1.23873E-08
 -1       804 2.86775E+05 2.38658E+06 1.53517E+06 6.76447E+05-1.20668E-07-9.81877E-08
 -1       805 1.89173E+05-6.45281E+06-2.85778E+05-1.00213E+06-5.02478E-08-6.57910E-08
 -1       806-3.09036E+05-5.97780E+04-2.28625E+04-1.22454E+05-3.73939E-09 6.27824E-09
 -1       807-3.10835E+05-5.60457E+04-1.12321E+04-1.28001E+05 1.38559E-08-2.73278E-09
 -1       808-3.09664E+05-5.15385E+04-4.76502E+03-1.26349E+05-3.56431E-09 1.00487E-08
 -1       809-3.08474E+05-5.28896E+04-2.32997E+03-1.28276E+05-9.71431E-09 5.19663E-09
 -1       810-3.09759E+05-5.12517E+04-1.06796E+03-1.26521E+05 1.02605E-08 4.96766E-09
 -1       811-3.08291E+05-5.27628E+04-5.31116E+02-1.28241E+05 8.68022E-09 1.24910E-08
 -1       812-3.09773E+05-5.12764E+04-2.68694E+02-1.26520E+05-2.97950E-09 9.79662E-09
 -1       813-3.08266E+05-5.27650E+04-1.74756E+02-1.28222E+05-8.02356E-09-1.57861E-08
 -1       814-3.09766E+05-5.12861E+04-1.73399E+02-1.26516E+05 3.68345E-10-3.29374E-09
 -1       815-3.08269E+05-5.27673E+04-2.79564E+02-1.28215E+05 8.95170E-09 6.03541E-09
 -1       816-3.09745E+05-5.12852E+04-5.29989E+02-1.26512E+05 6.15364E-09 2.24850E-08
 -1       817-3.08359E+05-5.28178E+04-1.13747E+03-1.28203E+05-1.65351E-08 2.46257E-08
 -1       818-3.09676E+05-5.14458E+04-2.32006E+03-1.26437E+05-6.60930E-09 4.71391E-09
 -1       819-3.09629E+05-5.42194E+04-5.45892E+03-1.27902E+05-2.00134E-09-1.82954E-08
 -1       820-3.09238E+05-5.55697E+04-1.11109E+04-1.24675E+05-2.14459E-09 1.71472E-08
 -1       821-3.78942E+05 2.08714E+04-4.85847E+04 2.12770E+03 1.39265E-08 3.79441E-09
 -1       822-3.98650E+05-2.41784E+04-3.41446E+04-4.45667E+03 4.67719E-09-7.79391E-09
 -1       823-3.86408E+05 3.29004E+03-1.25490E+04 3.43703E+03-1.17957E-08-1.70244E-08
 -1       824-3.89638E+05-3.79403E+03-7.85492E+03-5.36774E+03-5.41416E-11-1.81345E-08
 -1       825-3.87961E+05 5.11282E+02-3.28935E+03 3.03888E+03 2.11526E-08 2.57342E-09
 -1       826-3.87206E+05-5.67373E+02-1.74436E+03-3.09468E+03 2.71989E-08-4.69561E-09
 -1       827-3.88815E+05 4.68464E+01-1.19006E+03 1.16383E+03 9.43848E-09-8.50690E-10
 -1       828-3.86501E+05-1.32088E+02-5.86499E+02 1.09735E+03-3.41352E-09-1.62520E-08
 -1       829-3.88653E+05 6.59501E+01-1.17908E+03-1.15319E+03 3.20648E-09-1.69746E-08
 -1       830-3.87556E+05-6.22289E+02-1.88299E+03 4.88461E+03 2.88047E-10-8.51210E-09
 -1       831-3.87782E+05 5.54667E+02-3.37186E+03-2.62344E+03-5.82814E-09-2.00014E-08
 -1       832-3.89718E+05-3.96168E+03-8.15947E+03 6.16466E+03-2.75628E-09 2.74599E-09
 -1       833-3.86507E+05 3.41488E+03-1.30559E+04-2.43329E+03-2.69516E-09 3.30801E-08
 -1       834-3.98713E+05-2.50976E+04-3.53754E+04 4.19276E+03-2.45007E-09 3.12962E-08
 -1       835-3.78771E+05 2.16577E+04-5.04662E+04-6.51466E+02 5.17662E-09 6.61748E-09
 -1       836-1.41487E+03 3.70422E+05 2.29224E+04-1.61429E+04-6.95127E-09 1.26238E-08
 -1       837 4.88631E+03 3.77601E+05 1.93930E+04-3.29901E+04-7.97411E-09 2.37387E-08
 -1       838-5.58377E+02 3.72435E+05 1.97538E+04-1.60714E+04-6.52517E-09 6.08452E-10
 -1       839 1.24295E+04 3.83219E+05 3.73631E+04-3.30426E+04-6.83212E-09 2.29707E-08
 -1       840-3.84297E+03 3.64744E+05 5.95783E+04-1.60962E+04-6.24277E-09-1.90774E-08
 -1       856-5.51780E+04 8.13460E+03-2.14365E+04-4.00671E+02 4.42867E-09-1.20517E-08
 -1       857-6.40089E+04-9.55792E+03-1.47567E+04 5.71266E+03 4.06658E-09-1.26220E-08
 -1       858-5.86754E+04 1.14079E+03-5.56230E+03-4.25945E+02 3.56448E-09 1.10099E-08
 -1       859-5.99954E+04-1.34210E+03-3.35665E+03 5.75036E+03 4.80100E-10 1.09176E-08
 -1       860-5.91978E+04 1.59768E+02-1.40693E+03-4.38095E+02 2.46337E-09 1.49938E-08
 -1       861-5.93944E+04-1.90732E+02-7.74274E+02 5.76691E+03 3.38591E-09 8.45301E-09
 -1       862-5.92795E+04 2.16713E+01-3.22457E+02-4.42471E+02-2.08013E-09-4.58709E-09
 -1       863-5.92944E+04-2.23613E+01-1.18829E+02 5.76938E+03-7.44735E-09-2.24525E-08
 -1       864-5.92984E+04-4.77710E+00 4.47621E+01-4.40568E+02-6.71108E-09-6.11847E-09
 -1       865-5.92386E+04 5.88233E+01 2.51900E+02 5.75872E+03-2.98782E-09 5.95804E-10
 -1       866-5.93331E+04-5.95989E+01 5.09173E+02-4.31810E+02-8.90054E-10-1.34099E-08
 -1       867-5.89984E+04 4.91834E+02 1.25441E+03 5.73496E+03 6.06519E-10 1.06814E-09
 -1       868-5.95335E+04-4.30117E+02 2.08456E+03-4.16804E+02-1.73060E-09 6.38602E-09
 -1       869-5.74694E+04 3.57887E+03 5.55111E+03 5.69600E+03 3.90128E-09 5.29110E-09
 -1       870-6.08541E+04-3.06300E+03 8.05560E+03-3.92750E+02-3.59125E-09 4.35512E-09
 -1       871-5.52933E+03-2.15138E+04-1.95291E+04 1.30326E+05-6.71207E-09 9.34597E-09
 -1       872-1.98698E+03-2.60544E+04-8.18067E+03 1.68988E+05-1.11240E-08 2.54404E-08
 -1       873 4.05053E+02-2.38576E+04 5.82843E+02 1.30040E+05-5.47334E-09 6.84975E-09
 -1       874 3.30712E+03-2.14463E+04 9.77976E+03 1.69017E+05-1.17743E-08 2.93926E-08
 -1       875 6.84920E+03-2.61886E+04 2.20690E+04 1.30279E+05-5.07498E-09 2.42062E-08
 -1       876 2.94914E+05 4.95719E+04 1.51934E+04 1.18164E+05 1.68336E-09-4.04816E-09
 -1       877 2.95979E+05 5.27106E+04 8.11387E+03 1.22452E+05 1.51367E-08 6.30371E-09
 -1       878 2.96334E+05 4.78894E+04 3.39930E+03 1.19410E+05-5.11454E-09-1.15051E-09
 -1       879 2.93915E+05 5.06488E+04 1.69371E+03 1.22554E+05 7.09088E-09-2.36037E-09
 -1       880 2.96436E+05 4.78720E+04 7.88852E+02 1.19461E+05 4.91491E-09 2.60457E-10
 -1       881 2.93778E+05 5.05605E+04 4.21163E+02 1.22531E+05-9.02310E-09 5.58114E-09
 -1       882 2.96445E+05 4.78853E+04 2.69250E+02 1.19462E+05-1.21941E-09 9.10835E-09
 -1       883 2.93768E+05 5.05559E+04 2.89181E+02 1.22523E+05 5.54093E-09 5.13090E-09
 -1       884 2.96439E+05 4.78826E+04 4.59775E+02 1.19462E+05 1.40585E-09-1.12456E-08
 -1       885 2.93805E+05 5.05622E+04 9.24240E+02 1.22534E+05-7.31734E-09-2.54907E-08
 -1       886 2.96403E+05 4.78557E+04 1.86270E+03 1.19459E+05-3.45761E-09-1.26024E-08
 -1       887 2.94132E+05 5.07769E+04 4.06876E+03 1.22581E+05 1.23732E-08-1.86224E-08
 -1       888 2.96145E+05 4.79011E+04 8.19867E+03 1.19329E+05 1.07690E-10-1.80144E-08
 -1       889 2.99011E+05 5.58540E+04 1.95850E+04 1.22433E+05-6.71335E-09 4.64297E-09
 -1       890 2.92800E+05 5.18751E+04 3.66823E+04 1.16207E+05-6.63113E-09-7.37418E-09
 -1       891-8.44171E+01-1.66461E+05-2.17545E+03 2.68246E+04-4.23597E-09 4.89081E-09
 -1       892-2.09404E+02-1.67044E+05-2.28495E+03 4.14260E+04-9.15770E-09-1.04365E-09
 -1       893 4.73271E+01-1.66541E+05-3.16722E+03 2.68319E+04-5.07589E-09 2.30871E-08
 -1       894-1.59986E+03-1.68227E+05-6.52344E+03 4.12729E+04-8.59563E-09 1.40658E-08
 -1       895-1.07915E+03-1.65176E+05-1.14133E+04 2.69795E+04-3.56988E-09 8.86575E-09
 -1       956-3.77440E+05-5.45282E+03-1.34608E+04 3.08757E+04 9.66429E-09-6.47265E-09
 -1       957-3.80081E+05-1.92349E+03-6.90920E+03 3.71044E+04-7.35781E-10 1.24692E-09
 -1       958-3.78650E+05-2.40952E+02-3.11351E+03 3.07079E+04-4.37831E-09 1.59357E-08
 -1       959-3.78846E+05-1.36199E+02-1.58980E+03 3.73001E+04-4.08545E-09 8.15908E-09
 -1       960-3.78768E+05-4.47183E+01-7.75256E+02 3.06906E+04 3.84171E-09-3.00154E-08
 -1       961-3.78766E+05-6.31200E+01-4.11017E+02 3.73205E+04 1.35242E-08-1.03996E-08
 -1       962-3.78795E+05-4.59445E+01-2.35289E+02 3.06877E+04 5.55883E-09-9.48876E-09
 -1       963-3.78766E+05-5.89284E+01-1.88832E+02 3.73242E+04 4.36648E-09-1.59514E-08
 -1       964-3.78801E+05-4.25958E+01-2.29578E+02 3.06869E+04-2.29164E-10 1.39250E-08
 -1       965-3.78778E+05-5.59757E+01-3.97029E+02 3.73235E+04-5.80945E-09 1.47079E-08
 -1       966-3.78785E+05-3.47687E+01-7.45983E+02 3.06885E+04 1.76578E-09-9.77229E-09
 -1       967-3.78868E+05-1.19518E+02-1.52998E+03 3.73091E+04 1.63936E-10 1.36697E-09
 -1       968-3.78681E+05-2.17233E+02-2.99515E+03 3.07011E+04-3.92401E-09-1.51118E-09
 -1       969-3.80068E+05-1.83395E+03-6.64914E+03 3.71605E+04-8.01720E-09 1.36861E-08
 -1       970-3.77525E+05-5.22897E+03-1.29529E+04 3.08284E+04-8.89486E-09 1.89011E-08
 -1       971-3.45820E+05-1.73014E+03-9.32703E+03 1.52189E+04 5.31327E-09 4.36761E-09
 -1       972-3.48065E+05-1.27358E+03-5.07942E+03 2.10438E+04 4.14366E-09-3.95676E-09
 -1       973-3.46859E+05-6.18071E+01-2.27512E+03 1.50981E+04 2.21735E-09-6.95991E-09
 -1       974-3.46994E+05-8.08317E+01-1.17936E+03 2.11805E+04-2.60661E-09-2.30264E-08
 -1       975-3.46941E+05-1.69522E+01-5.89994E+02 1.50858E+04 6.07997E-10 9.72045E-09
 -1       976-3.46932E+05-3.09655E+01-3.41231E+02 2.11963E+04 5.49699E-09-3.71301E-09
 -1       977-3.46957E+05-1.62315E+01-2.49177E+02 1.50824E+04-8.95852E-10 9.42202E-09
 -1       978-3.46938E+05-2.47164E+01-2.93633E+02 2.12012E+04-9.57868E-09 1.40656E-08
 -1       979-3.46957E+05-7.68805E+00-4.73534E+02 1.50809E+04-3.21995E-09-6.79847E-11
 -1       980-3.46973E+05-2.15542E+01-9.15426E+02 2.12023E+04-4.01836E-09-1.09275E-08
 -1       981-3.46928E+05 1.53205E+01-1.77353E+03 1.50813E+04 1.27670E-09-1.74574E-08
 -1       982-3.47217E+05-1.52423E+02-3.66618E+03 2.11959E+04-1.37709E-09-1.20517E-08
 -1       983-3.46705E+05-9.80408E+01-7.12355E+03 1.50872E+04 1.84036E-09 6.91898E-10
 -1       984-3.50644E+05-3.87263E+03-1.59531E+04 2.11122E+04 4.72801E-09-5.38125E-09
 -1       985-3.43480E+05-5.31038E+03-2.92947E+04 1.51569E+04 3.18960E-09 2.15914E-08
 -3
    1PSTEP                        37          19           1          
  100CL  119 6.63172E-01         409                     0   19           1
 -4  DISP        4    1
 -5  D1          1    2    1    0
 -5  D2          1    2    2    0
 -5  D3          1    2    3    0
 -5  ALL         1    2    0    0    1ALL
 -1         1 2.71342E-03 0.00000E+00 0.00000E+00
 -1         2 1.36823E-03 2.53594E-27 5.29396E-23
 -1         3 3.42683E-04-5.19747E-28-1.32349E-23
 -1         5 1.77129E-04-1.76828E-27 0.00000E+00
 -1         8 2.70235E-03-4.09513E-07 0.00000E+00
 -1         9 2.69574E-03-1.85452E-04 0.00000E+00
 -1        10 3.10722E-04-3.41332E-06 0.00000E+00
 -1        12 1.78973E-04 8.09564E-07 0.00000E+00
 -1        15 2.68964E-03-4.33841E-07 0.00000E+00
 -1        16 2.75983E-03-1.87243E-04 0.00000E+00
 -1        17 2.11459E-04-7.78242E-06 0.00000E+00
 -1        18 1.82914E-04 3.43930E-05 0.00000E+00
 -1        19 1.84508E-04 1.61271E-06 0.00000E+00
 -1        20 1.84647E-04-9.85182E-06 0.00000E+00
 -1        21 1.83691E-04-2.53205E-05 3.30872E-24
 -1        24 3.06270E-05-1.20095E-05 0.00000E+00
 -1        25 1.93688E-04 3.46189E-05 0.00000E+00
 -1        26 1.94369E-04 2.23314E-06 0.00000E+00
 -1        27 1.92169E-04-1.34114E-05 0.00000E+00
 -1        28 1.91836E-04-2.59429E-05 0.00000E+00
 -1        32 0.00000E+00 0.00000E+00 0.00000E+00
 -1        33 2.03225E-04 2.98729E-06 0.00000E+00
 -1        34 2.01106E-04-1.34679E-05 0.00000E+00
 -1        35 1.99171E-04-2.62930E-05 0.00000E+00
 -1        51 2.71268E-03-8.55621E-08-6.61744E-24
 -1        52 2.71132E-03-1.52794E-07 0.00000E+00
 -1        53 2.70948E-03-2.16584E-07 0.00000E+00
 -1        54 2.70728E-03-2.79167E-07 1.65436E-24
 -1        55 2.70486E-03-3.42304E-07-1.65436E-24
 -1        56 2.70600E-03 7.83047E-06 0.00000E+00
 -1        57 2.69172E-03 3.26155E-05-5.29396E-23
 -1        58 2.67270E-03 6.89919E-05 1.05879E-22
 -1        59 2.65152E-03 1.10484E-04 0.00000E+00
 -1        60 2.63127E-03 1.49739E-04-1.05879E-22
 -1        61 2.61492E-03 1.79586E-04 0.00000E+00
 -1        62 2.60452E-03 1.94537E-04 1.05879E-22
 -1        63 2.60142E-03 1.90429E-04 0.00000E+00
 -1        64 2.60545E-03 1.66597E-04-1.05879E-22
 -1        65 2.61580E-03 1.24229E-04 0.00000E+00
 -1        66 2.63065E-03 6.80252E-05-1.05879E-22
 -1        67 2.64795E-03 4.03252E-06-5.29396E-23
 -1        68 2.66532E-03-6.01963E-05-1.05879E-22
 -1        69 2.68042E-03-1.17079E-04 0.00000E+00
 -1        70 2.69113E-03-1.60457E-04 5.29396E-23
 -1        86 1.45168E-03-5.90218E-06-5.29396E-23
 -1        87 1.69333E-03-3.69312E-05 0.00000E+00
 -1        88 2.01823E-03-9.01988E-05 0.00000E+00
 -1        89 2.34739E-03-1.44898E-04-1.32349E-23
 -1        90 2.59938E-03-1.78364E-04 0.00000E+00
 -1       121 3.41785E-04-5.51142E-07-1.32349E-23
 -1       122 3.39096E-04-1.10537E-06 0.00000E+00
 -1       123 3.34626E-04-1.66574E-06-1.32349E-23
 -1       124 3.28390E-04-2.23527E-06 0.00000E+00
 -1       125 3.20411E-04-2.81663E-06 0.00000E+00
 -1       191 1.77180E-04 1.34991E-07 0.00000E+00
 -1       192 1.77333E-04 2.69970E-07-4.13590E-25
 -1       193 1.77590E-04 4.04930E-07 0.00000E+00
 -1       194 1.77948E-04 5.39857E-07-1.24077E-24
 -1       195 1.78410E-04 6.74739E-07-2.48154E-24
 -1       251 2.70204E-03 1.72622E-06 0.00000E+00
 -1       252 2.70173E-03 3.80770E-06 0.00000E+00
 -1       253 2.70142E-03 4.85313E-06 0.00000E+00
 -1       254 2.70112E-03 3.89371E-06 3.30872E-24
 -1       255 2.70080E-03 2.67964E-07 0.00000E+00
 -1       256 2.70047E-03-6.65189E-06 0.00000E+00
 -1       257 2.70011E-03-1.69891E-05 0.00000E+00
 -1       258 2.69971E-03-3.08235E-05 6.61744E-24
 -1       259 2.69926E-03-4.76999E-05 0.00000E+00
 -1       260 2.69877E-03-6.71242E-05 6.61744E-24
 -1       261 2.69825E-03-8.82121E-05 1.32349E-23
 -1       262 2.69771E-03-1.10059E-04-6.61744E-24
 -1       263 2.69717E-03-1.31643E-04 1.32349E-23
 -1       264 2.69666E-03-1.51945E-04 0.00000E+00
 -1       265 2.69619E-03-1.70147E-04 0.00000E+00
 -1       266 2.70023E-03-4.19272E-07 0.00000E+00
 -1       267 2.69811E-03-4.22631E-07 0.00000E+00
 -1       268 2.69599E-03-4.26396E-07-8.27181E-25
 -1       269 2.69388E-03-4.28960E-07 0.00000E+00
 -1       270 2.69176E-03-4.31496E-07-2.06795E-25
 -1       271 2.70145E-03 1.68289E-07 1.32349E-23
 -1       272 2.70149E-03-1.78933E-06-6.61744E-24
 -1       273 2.70241E-03-6.13482E-06 1.32349E-23
 -1       274 2.70416E-03-1.27091E-05 0.00000E+00
 -1       275 2.70665E-03-2.13324E-05 0.00000E+00
 -1       276 2.70982E-03-3.18102E-05 0.00000E+00
 -1       277 2.71359E-03-4.39320E-05 0.00000E+00
 -1       278 2.71787E-03-5.74745E-05-1.32349E-23
 -1       279 2.72258E-03-7.22027E-05-2.64698E-23
 -1       280 2.72763E-03-8.78720E-05 0.00000E+00
 -1       281 2.73292E-03-1.04230E-04-1.32349E-23
 -1       282 2.73837E-03-1.21019E-04 0.00000E+00
 -1       283 2.74388E-03-1.37977E-04-1.32349E-23
 -1       284 2.74935E-03-1.54841E-04-6.61744E-24
 -1       285 2.75470E-03-1.71350E-04-1.32349E-23
 -1       301 2.70739E-03-1.85784E-04-6.61744E-24
 -1       302 2.71742E-03-1.86070E-04 0.00000E+00
 -1       303 2.72675E-03-1.86347E-04 0.00000E+00
 -1       304 2.73631E-03-1.86625E-04-6.61744E-24
 -1       305 2.74703E-03-1.86915E-04 0.00000E+00
 -1       306 2.73359E-03-3.39864E-04-1.05879E-22
 -1       307 2.79747E-03-7.53823E-04 0.00000E+00
 -1       308 2.84415E-03-1.35914E-03 0.00000E+00
 -1       309 2.86796E-03-2.05979E-03 0.00000E+00
 -1       310 2.89922E-03-2.73002E-03 0.00000E+00
 -1       311 2.95867E-03-3.24671E-03-5.29396E-23
 -1       312 3.01654E-03-3.52923E-03 1.05879E-22
 -1       313 3.01199E-03-3.53967E-03 0.00000E+00
 -1       314 2.87113E-03-3.29005E-03 0.00000E+00
 -1       315 2.55304E-03-2.84485E-03 0.00000E+00
 -1       316 2.07605E-03-2.28073E-03-1.05879E-22
 -1       317 1.50607E-03-1.66703E-03 5.29396E-23
 -1       318 9.57444E-04-1.06440E-03 1.05879E-22
 -1       319 5.38182E-04-5.37844E-04 0.00000E+00
 -1       320 2.92093E-04-1.61489E-04 1.05879E-22
 -1       336 2.99133E-04-4.07301E-06 0.00000E+00
 -1       337 2.85469E-04-4.75839E-06-6.61744E-24
 -1       338 2.69791E-04-5.47167E-06 0.00000E+00
 -1       339 2.52174E-04-6.21367E-06 0.00000E+00
 -1       340 2.32699E-04-6.98885E-06 1.32349E-23
 -1       406 1.79640E-04 9.44311E-07-8.27181E-25
 -1       407 1.80408E-04 1.07894E-06-1.24077E-24
 -1       408 1.81280E-04 1.21341E-06-1.24077E-24
 -1       409 1.82254E-04 1.34754E-06-1.44757E-24
 -1       410 1.83330E-04 1.48106E-06 2.48154E-24
 -1       521 2.79828E-03-3.50934E-04 0.00000E+00
 -1       522 2.86038E-03-7.85121E-04 0.00000E+00
 -1       523 2.90063E-03-1.41820E-03 1.05879E-22
 -1       524 2.91523E-03-2.14741E-03-5.29396E-23
 -1       525 2.93859E-03-2.84417E-03 0.00000E+00
 -1       526 2.99448E-03-3.38286E-03 0.00000E+00
 -1       527 3.05193E-03-3.67595E-03 0.00000E+00
 -1       528 3.04508E-03-3.68462E-03-5.29396E-23
 -1       529 2.89224E-03-3.42086E-03-2.11758E-22
 -1       530 2.55021E-03-2.95713E-03 5.29396E-23
 -1       531 2.03815E-03-2.37383E-03 1.05879E-22
 -1       532 1.42838E-03-1.74293E-03 0.00000E+00
 -1       533 8.40639E-04-1.12244E-03 0.00000E+00
 -1       534 3.88071E-04-5.75028E-04 0.00000E+00
 -1       535 1.20765E-04-1.79145E-04 2.11758E-22
 -1       536 2.10705E-04 2.71340E-05 0.00000E+00
 -1       537 2.08787E-04 8.75587E-05 0.00000E+00
 -1       538 2.05825E-04 1.64228E-04 3.30872E-24
 -1       539 2.02331E-04 2.47792E-04 0.00000E+00
 -1       540 1.99187E-04 3.26754E-04 0.00000E+00
 -1       541 1.97143E-04 3.89636E-04 0.00000E+00
 -1       542 1.96200E-04 4.29688E-04 0.00000E+00
 -1       543 1.95975E-04 4.40307E-04 0.00000E+00
 -1       544 1.95653E-04 4.22266E-04 0.00000E+00
 -1       545 1.94481E-04 3.76561E-04-1.65436E-24
 -1       546 1.92297E-04 3.11314E-04 3.30872E-24
 -1       547 1.89341E-04 2.34773E-04 1.65436E-24
 -1       548 1.86412E-04 1.58608E-04 0.00000E+00
 -1       549 1.84299E-04 9.44914E-05 0.00000E+00
 -1       550 1.83201E-04 5.04524E-05 0.00000E+00
 -1       551 1.86261E-04-8.35222E-06 0.00000E+00
 -1       552 1.57819E-04-9.00244E-06 0.00000E+00
 -1       553 1.27074E-04-9.71488E-06 0.00000E+00
 -1       554 9.49882E-05-1.04684E-05 0.00000E+00
 -1       555 6.25207E-05-1.12356E-05-1.32349E-23
 -1       556 2.03812E-04 1.17700E-05 0.00000E+00
 -1       557 1.97634E-04 2.76274E-05-2.64698E-23
 -1       558 1.92791E-04 4.00775E-05 0.00000E+00
 -1       559 1.89149E-04 4.94309E-05 0.00000E+00
 -1       560 1.86579E-04 5.59983E-05 0.00000E+00
 -1       561 1.84952E-04 6.00931E-05 0.00000E+00
 -1       562 1.84144E-04 6.20299E-05 0.00000E+00
 -1       563 1.84031E-04 6.21242E-05 0.00000E+00
 -1       564 1.84489E-04 6.06924E-05 0.00000E+00
 -1       565 1.85400E-04 5.80516E-05 0.00000E+00
 -1       566 1.86642E-04 5.45195E-05 0.00000E+00
 -1       567 1.88098E-04 5.04141E-05 0.00000E+00
 -1       568 1.89648E-04 4.60536E-05 1.65436E-24
 -1       569 1.91175E-04 4.17561E-05 0.00000E+00
 -1       570 1.92560E-04 3.78400E-05 0.00000E+00
 -1       571 1.83011E-04 3.22661E-05 8.27181E-25
 -1       572 1.83110E-04 3.00736E-05 4.13590E-25
 -1       573 1.83209E-04 2.78309E-05 0.00000E+00
 -1       574 1.83308E-04 2.55547E-05 8.27181E-25
 -1       575 1.83408E-04 2.32611E-05 0.00000E+00
 -1       576 1.83507E-04 2.09668E-05 0.00000E+00
 -1       577 1.83607E-04 1.86883E-05 0.00000E+00
 -1       578 1.83706E-04 1.64421E-05-6.61744E-24
 -1       579 1.83806E-04 1.42446E-05 0.00000E+00
 -1       580 1.83906E-04 1.21125E-05 6.61744E-24
 -1       581 1.84006E-04 1.00623E-05 0.00000E+00
 -1       582 1.84106E-04 8.11042E-06-3.30872E-24
 -1       583 1.84207E-04 6.27340E-06 0.00000E+00
 -1       584 1.84307E-04 4.56757E-06 0.00000E+00
 -1       585 1.84408E-04 3.00907E-06 0.00000E+00
 -1       586 1.84669E-04 3.44327E-05 0.00000E+00
 -1       587 1.86383E-04 3.44719E-05 4.13590E-25
 -1       588 1.88098E-04 3.45108E-05 0.00000E+00
 -1       589 1.89859E-04 3.45490E-05 0.00000E+00
 -1       590 1.91708E-04 3.45859E-05 0.00000E+00
 -1       591 1.83643E-04 3.23598E-05 2.06795E-25
 -1       592 1.84375E-04 3.03068E-05 2.06795E-25
 -1       593 1.85112E-04 2.82398E-05 0.00000E+00
 -1       594 1.85852E-04 2.61635E-05-4.13590E-25
 -1       595 1.86594E-04 2.40826E-05 8.27181E-25
 -1       596 1.87335E-04 2.20018E-05 0.00000E+00
 -1       597 1.88075E-04 1.99258E-05 8.27181E-25
 -1       598 1.88811E-04 1.78593E-05-4.13590E-25
 -1       599 1.89541E-04 1.58070E-05 0.00000E+00
 -1       600 1.90265E-04 1.37736E-05 4.13590E-25
 -1       601 1.90980E-04 1.17637E-05 0.00000E+00
 -1       602 1.91684E-04 9.78208E-06 4.13590E-25
 -1       603 1.92377E-04 7.83336E-06 4.13590E-25
 -1       604 1.93056E-04 5.92236E-06-1.03398E-25
 -1       605 1.93719E-04 4.05367E-06 0.00000E+00
 -1       606 1.84521E-04 4.49707E-07-3.30872E-24
 -1       607 1.84531E-04-6.27501E-07 1.65436E-24
 -1       608 1.84540E-04-1.62395E-06-3.30872E-24
 -1       609 1.84548E-04-2.54531E-06 1.65436E-24
 -1       610 1.84557E-04-3.39733E-06 0.00000E+00
 -1       611 1.84565E-04-4.18579E-06 0.00000E+00
 -1       612 1.84573E-04-4.91648E-06 0.00000E+00
 -1       613 1.84582E-04-5.59523E-06 0.00000E+00
 -1       614 1.84590E-04-6.22783E-06 0.00000E+00
 -1       615 1.84598E-04-6.82009E-06-8.27181E-25
 -1       616 1.84607E-04-7.37782E-06 1.65436E-24
 -1       617 1.84615E-04-7.90684E-06 0.00000E+00
 -1       618 1.84623E-04-8.41293E-06 0.00000E+00
 -1       619 1.84632E-04-8.90193E-06 0.00000E+00
 -1       620 1.84640E-04-9.37962E-06 0.00000E+00
 -1       621 1.85866E-04 1.71668E-06 1.65436E-24
 -1       622 1.87382E-04 1.82090E-06-1.65436E-24
 -1       623 1.89024E-04 1.92491E-06 3.30872E-24
 -1       624 1.90758E-04 2.02858E-06 1.65436E-24
 -1       625 1.92551E-04 2.13196E-06-3.30872E-24
 -1       626 1.85056E-04 4.85844E-07-3.30872E-24
 -1       627 1.85582E-04-5.78028E-07 0.00000E+00
 -1       628 1.86087E-04-1.58675E-06 0.00000E+00
 -1       629 1.86575E-04-2.54849E-06-4.96308E-24
 -1       630 1.87048E-04-3.47144E-06-3.30872E-24
 -1       631 1.87510E-04-4.36381E-06 1.65436E-24
 -1       632 1.87963E-04-5.23379E-06-3.30872E-24
 -1       633 1.88411E-04-6.08960E-06 0.00000E+00
 -1       634 1.88857E-04-6.93946E-06-3.30872E-24
 -1       635 1.89304E-04-7.79155E-06-1.65436E-24
 -1       636 1.89755E-04-8.65411E-06 0.00000E+00
 -1       637 1.90212E-04-9.53534E-06-1.65436E-24
 -1       638 1.90680E-04-1.04434E-05 0.00000E+00
 -1       639 1.91160E-04-1.13867E-05 0.00000E+00
 -1       640 1.91656E-04-1.23732E-05-1.65436E-24
 -1       656 1.85353E-04-1.04304E-05-6.61744E-24
 -1       657 1.86477E-04-1.10324E-05 0.00000E+00
 -1       658 1.87883E-04-1.16331E-05 0.00000E+00
 -1       659 1.89423E-04-1.22335E-05 0.00000E+00
 -1       660 1.90913E-04-1.28356E-05 0.00000E+00
 -1       661 1.84911E-04-1.03683E-05 8.27181E-25
 -1       662 1.85211E-04-1.09751E-05 0.00000E+00
 -1       663 1.85544E-04-1.16674E-05 0.00000E+00
 -1       664 1.85906E-04-1.24388E-05 0.00000E+00
 -1       665 1.86296E-04-1.32839E-05 0.00000E+00
 -1       666 1.86712E-04-1.41969E-05 0.00000E+00
 -1       667 1.87151E-04-1.51726E-05 0.00000E+00
 -1       668 1.87611E-04-1.62057E-05 0.00000E+00
 -1       669 1.88091E-04-1.72910E-05 0.00000E+00
 -1       670 1.88589E-04-1.84235E-05 0.00000E+00
 -1       671 1.89102E-04-1.95982E-05 0.00000E+00
 -1       672 1.89629E-04-2.08105E-05 0.00000E+00
 -1       673 1.90169E-04-2.20555E-05-1.65436E-24
 -1       674 1.90718E-04-2.33288E-05 0.00000E+00
 -1       675 1.91276E-04-2.46255E-05 0.00000E+00
 -1       676 1.85054E-04-2.54248E-05 0.00000E+00
 -1       677 1.86415E-04-2.55291E-05-1.65436E-24
 -1       678 1.87775E-04-2.56334E-05 0.00000E+00
 -1       679 1.89132E-04-2.57373E-05 0.00000E+00
 -1       680 1.90486E-04-2.58412E-05 3.30872E-24
 -1       771 1.86760E-05 1.47147E-05 0.00000E+00
 -1       772 8.62146E-06 3.66639E-05-2.64698E-23
 -1       773 3.72546E-07 5.40681E-05-5.29396E-23
 -1       774-6.19500E-06 6.71853E-05 0.00000E+00
 -1       775-1.12028E-05 7.62837E-05 0.00000E+00
 -1       776-1.47774E-05 8.16484E-05 0.00000E+00
 -1       777-1.70450E-05 8.35745E-05 0.00000E+00
 -1       778-1.81347E-05 8.23710E-05 0.00000E+00
 -1       779-1.81746E-05 7.83555E-05 5.29396E-23
 -1       780-1.72951E-05 7.18569E-05 0.00000E+00
 -1       781-1.56254E-05 6.32109E-05 0.00000E+00
 -1       782-1.32965E-05 5.27622E-05 0.00000E+00
 -1       783-1.04385E-05 4.08598E-05-5.29396E-23
 -1       784-7.18263E-06 2.78592E-05-2.64698E-23
 -1       785-3.65910E-06 1.41190E-05-5.29396E-23
 -1       786 1.93727E-04 3.23670E-05 1.29247E-26
 -1       787 1.93768E-04 3.01652E-05 4.13590E-25
 -1       788 1.93810E-04 2.80051E-05 0.00000E+00
 -1       789 1.93852E-04 2.58787E-05-8.27181E-25
 -1       790 1.93895E-04 2.37812E-05-1.65436E-24
 -1       791 1.93938E-04 2.17078E-05 8.27181E-25
 -1       792 1.93981E-04 1.96562E-05 1.65436E-24
 -1       793 1.94023E-04 1.76244E-05 8.27181E-25
 -1       794 1.94066E-04 1.56121E-05-1.65436E-24
 -1       795 1.94109E-04 1.36191E-05-8.27181E-25
 -1       796 1.94152E-04 1.16474E-05 0.00000E+00
 -1       797 1.94195E-04 9.69870E-06 8.27181E-25
 -1       798 1.94238E-04 7.77734E-06 0.00000E+00
 -1       799 1.94282E-04 5.88762E-06 0.00000E+00
 -1       800 1.94325E-04 4.03701E-06-1.65436E-24
 -1       801 1.47916E-04 3.11218E-05 2.64698E-23
 -1       802 9.51992E-06 1.94162E-05 2.64698E-23
 -1       803-1.08704E-04 9.80668E-06 5.29396E-23
 -1       804-9.63793E-05 6.82554E-06 2.64698E-23
 -1       805-3.18457E-05 2.68284E-06 5.29396E-23
 -1       806 1.94417E-04 3.22982E-05 3.30872E-24
 -1       807 1.95133E-04 3.00037E-05 1.65436E-24
 -1       808 1.95835E-04 2.77406E-05 3.30872E-24
 -1       809 1.96524E-04 2.55131E-05-1.65436E-24
 -1       810 1.97198E-04 2.33251E-05 0.00000E+00
 -1       811 1.97856E-04 2.11805E-05 1.65436E-24
 -1       812 1.98496E-04 1.90834E-05-3.30872E-24
 -1       813 1.99117E-04 1.70376E-05-1.65436E-24
 -1       814 1.99718E-04 1.50471E-05-3.30872E-24
 -1       815 2.00296E-04 1.31157E-05 8.27181E-25
 -1       816 2.00851E-04 1.12474E-05 3.30872E-24
 -1       817 2.01381E-04 9.44598E-06-1.65436E-24
 -1       818 2.01884E-04 7.71543E-06 1.65436E-24
 -1       819 2.02360E-04 6.05958E-06 0.00000E+00
 -1       820 2.02807E-04 4.48228E-06 3.30872E-24
 -1       821 1.94239E-04-1.25458E-07 1.65436E-24
 -1       822 1.94099E-04-3.63481E-06 0.00000E+00
 -1       823 1.93957E-04-7.86780E-06 0.00000E+00
 -1       824 1.93812E-04-1.23928E-05 1.65436E-24
 -1       825 1.93668E-04-1.66993E-05 0.00000E+00
 -1       826 1.93526E-04-2.02779E-05 1.65436E-24
 -1       827 1.93387E-04-2.28176E-05 0.00000E+00
 -1       828 1.93251E-04-2.40136E-05 1.65436E-24
 -1       829 1.93115E-04-2.39270E-05 0.00000E+00
 -1       830 1.92979E-04-2.26265E-05 0.00000E+00
 -1       831 1.92841E-04-2.05113E-05 3.30872E-24
 -1       832 1.92703E-04-1.79856E-05-1.65436E-24
 -1       833 1.92565E-04-1.55654E-05-3.30872E-24
 -1       834 1.92430E-04-1.37660E-05 0.00000E+00
 -1       835 1.92295E-04-1.29344E-05 0.00000E+00
 -1       836 1.96057E-04 2.35820E-06-3.30872E-24
 -1       837 1.97619E-04 2.48640E-06 1.65436E-24
 -1       838 1.99085E-04 2.61455E-06 0.00000E+00
 -1       839 2.00487E-04 2.74200E-06 8.27181E-25
 -1       840 2.01856E-04 2.86928E-06-8.27181E-25
 -1       856 1.92152E-04-1.44712E-05 0.00000E+00
 -1       857 1.92131E-04-1.53937E-05 0.00000E+00
 -1       858 1.92111E-04-1.62003E-05 0.00000E+00
 -1       859 1.92090E-04-1.69123E-05 2.06795E-25
 -1       860 1.92070E-04-1.75514E-05-4.13590E-25
 -1       861 1.92049E-04-1.81391E-05 2.06795E-25
 -1       862 1.92028E-04-1.86970E-05-8.27181E-25
 -1       863 1.92007E-04-1.92467E-05 0.00000E+00
 -1       864 1.91986E-04-1.98100E-05 0.00000E+00
 -1       865 1.91965E-04-2.04084E-05 4.13590E-25
 -1       866 1.91944E-04-2.10635E-05 8.27181E-25
 -1       867 1.91923E-04-2.17970E-05 0.00000E+00
 -1       868 1.91902E-04-2.26303E-05-8.27181E-25
 -1       869 1.91881E-04-2.35849E-05 0.00000E+00
 -1       870 1.91859E-04-2.46820E-05-8.27181E-25
 -1       871 1.93517E-04-1.34164E-05-8.27181E-25
 -1       872 1.95012E-04-1.34248E-05 0.00000E+00
 -1       873 1.96587E-04-1.34339E-05 0.00000E+00
 -1       874 1.98173E-04-1.34437E-05-2.84343E-25
 -1       875 1.99702E-04-1.34541E-05 2.06795E-25
 -1       876 1.92694E-04-1.44577E-05 0.00000E+00
 -1       877 1.93198E-04-1.54375E-05 1.65436E-24
 -1       878 1.93679E-04-1.63586E-05 0.00000E+00
 -1       879 1.94142E-04-1.72282E-05 0.00000E+00
 -1       880 1.94588E-04-1.80538E-05 3.30872E-24
 -1       881 1.95021E-04-1.88425E-05 0.00000E+00
 -1       882 1.95442E-04-1.96015E-05-3.30872E-24
 -1       883 1.95856E-04-2.03382E-05 0.00000E+00
 -1       884 1.96263E-04-2.10596E-05 0.00000E+00
 -1       885 1.96668E-04-2.17730E-05-1.65436E-24
 -1       886 1.97072E-04-2.24857E-05 0.00000E+00
 -1       887 1.97478E-04-2.32048E-05-1.65436E-24
 -1       888 1.97889E-04-2.39376E-05 0.00000E+00
 -1       889 1.98308E-04-2.46914E-05 1.65436E-24
 -1       890 1.98736E-04-2.54735E-05 0.00000E+00
 -1       891 1.93206E-04-2.60017E-05-1.65436E-24
 -1       892 1.94552E-04-2.60607E-05 0.00000E+00
 -1       893 1.95848E-04-2.61196E-05-8.27181E-25
 -1       894 1.97067E-04-2.61782E-05-8.27181E-25
 -1       895 1.98183E-04-2.62366E-05 4.13590E-25
 -1       956 2.03095E-04 1.66699E-06-3.30872E-24
 -1       957 2.02962E-04 4.38261E-07 8.27181E-25
 -1       958 2.02830E-04-7.09639E-07-3.30872E-24
 -1       959 2.02697E-04-1.78805E-06 1.65436E-24
 -1       960 2.02564E-04-2.80837E-06 3.30872E-24
 -1       961 2.02431E-04-3.78201E-06 0.00000E+00
 -1       962 2.02298E-04-4.72040E-06 0.00000E+00
 -1       963 2.02165E-04-5.63500E-06-1.65436E-24
 -1       964 2.02033E-04-6.53726E-06-3.30872E-24
 -1       965 2.01900E-04-7.43861E-06-1.65436E-24
 -1       966 2.01767E-04-8.35052E-06 0.00000E+00
 -1       967 2.01634E-04-9.28443E-06 0.00000E+00
 -1       968 2.01501E-04-1.02518E-05 0.00000E+00
 -1       969 2.01369E-04-1.12640E-05 0.00000E+00
 -1       970 2.01236E-04-1.23324E-05-3.30872E-24
 -1       971 2.00986E-04-1.46034E-05-3.30872E-24
 -1       972 2.00865E-04-1.56445E-05 1.65436E-24
 -1       973 2.00743E-04-1.66017E-05-3.30872E-24
 -1       974 2.00621E-04-1.74855E-05-1.65436E-24
 -1       975 2.00500E-04-1.83067E-05-3.30872E-24
 -1       976 2.00378E-04-1.90762E-05-1.65436E-24
 -1       977 2.00257E-04-1.98046E-05 0.00000E+00
 -1       978 2.00135E-04-2.05027E-05-1.65436E-24
 -1       979 2.00014E-04-2.11814E-05-3.30872E-24
 -1       980 1.99892E-04-2.18514E-05-1.65436E-24
 -1       981 1.99771E-04-2.25235E-05 0.00000E+00
 -1       982 1.99649E-04-2.32085E-05-1.65436E-24
 -1       983 1.99528E-04-2.39172E-05 0.00000E+00
 -1       984 1.99407E-04-2.46604E-05 0.00000E+00
 -1       985 1.99287E-04-2.54488E-05 0.00000E+00
 -3
    1PSTEP                        38          19           1          
  100CL  119 6.63172E-01         409                     0   19           1
 -4  FORC        4    1
 -5  F1          1    2    1    0
 -5  F2          1    2    2    0
 -5  F3          1    2    3    0
 -5  ALL         1    2    0    0    1ALL
 -1         1 2.25278E-04 0.00000E+00 0.00000E+00
 -1         2 0.00000E+00 0.00000E+00 0.00000E+00
 -1         3 0.00000E+00 0.00000E+00 0.00000E+00
 -1         5 0.00000E+00 0.00000E+00 0.00000E+00
 -1         8 1.28452E-05-1.11063E-05 0.00000E+00
 -1         9-6.18581E-04 3.87999E-05 0.00000E+00
 -1        10-1.92502E-09 1.14237E-08 0.00000E+00
 -1        12 0.00000E+00 0.00000E+00 0.00000E+00
 -1        15 0.00000E+00 0.00000E+00 0.00000E+00
 -1        16-8.85001E-05-8.77988E-04 0.00000E+00
 -1        17-1.33856E-05 7.48710E-06 0.00000E+00
 -1        18 1.25025E-07 1.03258E-07 0.00000E+00
 -1        19 3.55205E-08-8.10553E-09 0.00000E+00
 -1        20-5.87801E-08 6.52750E-09 0.00000E+00
 -1        21 0.00000E+00 2.33748E-08 0.00000E+00
 -1        24-3.62499E-05 1.16559E-05 0.00000E+00
 -1        25 6.87404E-08-6.41012E-08 0.00000E+00
 -1        26-3.80282E-08-2.71275E-08 0.00000E+00
 -1        27-1.95595E-08 3.73100E-08 0.00000E+00
 -1        28-1.82244E-08 1.03033E-08 0.00000E+00
 -1        32 0.00000E+00 0.00000E+00 0.00000E+00
 -1        33-2.54004E-09-4.78037E-08 0.00000E+00
 -1        34-1.39168E-08-4.93232E-08 0.00000E+00
 -1        35-8.27617E-08-5.23700E-08 0.00000E+00
 -1        51 0.00000E+00 0.00000E+00 0.00000E+00
 -1        52 0.00000E+00 0.00000E+00 0.00000E+00
 -1        53 0.00000E+00 0.00000E+00 0.00000E+00
 -1        54 0.00000E+00 0.00000E+00 0.00000E+00
 -1        55 0.00000E+00 0.00000E+00 0.00000E+00
 -1        56 0.00000E+00 0.00000E+00 0.00000E+00
 -1        57 0.00000E+00 0.00000E+00 0.00000E+00
 -1        58 0.00000E+00 0.00000E+00 0.00000E+00
 -1        59 0.00000E+00 0.00000E+00 0.00000E+00
 -1        60 0.00000E+00 0.00000E+00 0.00000E+00
 -1        61 0.00000E+00 0.00000E+00 0.00000E+00
 -1        62 0.00000E+00 0.00000E+00 0.00000E+00
 -1        63 0.00000E+00 0.00000E+00 0.00000E+00
 -1        64 0.00000E+00 0.00000E+00 0.00000E+00
 -1        65 0.00000E+00 0.00000E+00 0.00000E+00
 -1        66 0.00000E+00 0.00000E+00 0.00000E+00
 -1        67 0.00000E+00 0.00000E+00 0.00000E+00
 -1        68 0.00000E+00 0.00000E+00 0.00000E+00
 -1        69 0.00000E+00 0.00000E+00 0.00000E+00
 -1        70 0.00000E+00 0.00000E+00 0.00000E+00
 -1        86 0.00000E+00 0.00000E+00 0.00000E+00
 -1        87 0.00000E+00 0.00000E+00 0.00000E+00
 -1        88 0.00000E+00 0.00000E+00 0.00000E+00
 -1        89 0.00000E+00 0.00000E+00 0.00000E+00
 -1        90 0.00000E+00 0.00000E+00 0.00000E+00
 -1       121 0.00000E+00 0.00000E+00 0.00000E+00
 -1       122 0.00000E+00 0.00000E+00 0.00000E+00
 -1       123 0.00000E+00 0.00000E+00 0.00000E+00
 -1       124 0.00000E+00 0.00000E+00 0.00000E+00
 -1       125 0.00000E+00 0.00000E+00 0.00000E+00
 -1       191 0.00000E+00 0.00000E+00 0.00000E+00
 -1       192 0.00000E+00 0.00000E+00 0.00000E+00
 -1       193 0.00000E+00 0.00000E+00 0.00000E+00
 -1       194 0.00000E+00 0.00000E+00 0.00000E+00
 -1       195 0.00000E+00 0.00000E+00 0.00000E+00
 -1       251 0.00000E+00 0.00000E+00 0.00000E+00
 -1       252 0.00000E+00 0.00000E+00 0.00000E+00
 -1       253 0.00000E+00 0.00000E+00 0.00000E+00
 -1       254 0.00000E+00 0.00000E+00 0.00000E+00
 -1       255 0.00000E+00 0.00000E+00 0.00000E+00
 -1       256 0.00000E+00 0.00000E+00 0.00000E+00
 -1       257 0.00000E+00 0.00000E+00 0.00000E+00
 -1       258 0.00000E+00 0.00000E+00 0.00000E+00
 -1       259 0.00000E+00 0.00000E+00 0.00000E+00
 -1       260 0.00000E+00 0.00000E+00 0.00000E+00
 -1       261 0.00000E+00 0.00000E+00 0.00000E+00
 -1       262 0.00000E+00 0.00000E+00 0.00000E+00
 -1       263 0.00000E+00 0.00000E+00 0.00000E+00
 -1       264 0.00000E+00 0.00000E+00 0.00000E+00
 -1       265 0.00000E+00 0.00000E+00 0.00000E+00
 -1       266 0.00000E+00 0.00000E+00 0.00000E+00
 -1       267 0.00000E+00 0.00000E+00 0.00000E+00
 -1       268 0.00000E+00 0.00000E+00 0.00000E+00
 -1       269 0.00000E+00 0.00000E+00 0.00000E+00
 -1       270 0.00000E+00 0.00000E+00 0.00000E+00
 -1       271 0.00000E+00 0.00000E+00 0.00000E+00
 -1       272 0.00000E+00 0.00000E+00 0.00000E+00
 -1       273 0.00000E+00 0.00000E+00 0.00000E+00
 -1       274 0.00000E+00 0.00000E+00 0.00000E+00
 -1       275 0.00000E+00 0.00000E+00 0.00000E+00
 -1       276 0.00000E+00 0.00000E+00 0.00000E+00
 -1       277 0.00000E+00 0.00000E+00 0.00000E+00
 -1       278 0.00000E+00 0.00000E+00 0.00000E+00
 -1       279 0.00000E+00 0.00000E+00 0.00000E+00
 -1       280 0.00000E+00 0.00000E+00 0.00000E+00
 -1       281 0.00000E+00 0.00000E+00 0.00000E+00
 -1       282 0.00000E+00 0.00000E+00 0.00000E+00
 -1       283 0.00000E+00 0.00000E+00 0.00000E+00
 -1       284 0.00000E+00 0.00000E+00 0.00000E+00
 -1       285 0.00000E+00 0.00000E+00 0.00000E+00
 -1       301 0.00000E+00 0.00000E+00 0.00000E+00
 -1       302 0.00000E+00 0.00000E+00 0.00000E+00
 -1       303 0.00000E+00 0.00000E+00 0.00000E+00
 -1       304 0.00000E+00 0.00000E+00 0.00000E+00
 -1       305 0.00000E+00 0.00000E+00 0.00000E+00
 -1       306 0.00000E+00 0.00000E+00 0.00000E+00
 -1       307 0.00000E+00 0.00000E+00 0.00000E+00
 -1       308 0.00000E+00 0.00000E+00 0.00000E+00
 -1       309 0.00000E+00 0.00000E+00 0.00000E+00
 -1       310 0.00000E+00 0.00000E+00 0.00000E+00
 -1       311 0.00000E+00 0.00000E+00 0.00000E+00
 -1       312 0.00000E+00 0.00000E+00 0.00000E+00
 -1       313 0.00000E+00 0.00000E+00 0.00000E+00
 -1       314 0.00000E+00 0.00000E+00 0.00000E+00
 -1       315 0.00000E+00 0.00000E+00 0.00000E+00
 -1       316 0.00000E+00 0.00000E+00 0.00000E+00
 -1       317 0.00000E+00 0.00000E+00 0.00000E+00
 -1       318 0.00000E+00 0.00000E+00 0.00000E+00
 -1       319 0.00000E+00 0.00000E+00 0.00000E+00
 -1       320 0.00000E+00 0.00000E+00 0.00000E+00
 -1       336 0.00000E+00 0.00000E+00 0.00000E+00
 -1       337 0.00000E+00 0.00000E+00 0.00000E+00
 -1       338 0.00000E+00 0.00000E+00 0.00000E+00
 -1       339 0.00000E+00 0.00000E+00 0.00000E+00
 -1       340 0.00000E+00 0.00000E+00 0.00000E+00
 -1       406 0.00000E+00 0.00000E+00 0.00000E+00
 -1       407 0.00000E+00 0.00000E+00 0.00000E+00
 -1       408 0.00000E+00 0.00000E+00 0.00000E+00
 -1       409 0.00000E+00 0.00000E+00 0.00000E+00
 -1       410 0.00000E+00 0.00000E+00 0.00000E+00
 -1       521 0.00000E+00 0.00000E+00 0.00000E+00
 -1       522 0.00000E+00 0.00000E+00 0.00000E+00
 -1       523 0.00000E+00 0.00000E+00 0.00000E+00
 -1       524 0.00000E+00 0.00000E+00 0.00000E+00
 -1       525 0.00000E+00 0.00000E+00 0.00000E+00
 -1       526 0.00000E+00 0.00000E+00 0.00000E+00
 -1       527 0.00000E+00 0.00000E+00 0.00000E+00
 -1       528 0.00000E+00 0.00000E+00 0.00000E+00
 -1       529 0.00000E+00 0.00000E+00 0.00000E+00
 -1       530 0.00000E+00 0.00000E+00 0.00000E+00
 -1       531 0.00000E+00 0.00000E+00 0.00000E+00
 -1       532 0.00000E+00 0.00000E+00 0.00000E+00
 -1       533 0.00000E+00 0.00000E+00 0.00000E+00
 -1       534 0.00000E+00 0.00000E+00 0.00000E+00
 -1       535 0.00000E+00 0.00000E+00 0.00000E+00
 -1       536 0.00000E+00 0.00000E+00 0.00000E+00
 -1       537 0.00000E+00 0.00000E+00 0.00000E+00
 -1       538 0.00000E+00 0.00000E+00 0.00000E+00
 -1       539 0.00000E+00 0.00000E+00 0.00000E+00
 -1       540 0.00000E+00 0.00000E+00 0.00000E+00
 -1       541 0.00000E+00 0.00000E+00 0.00000E+00
 -1       542 0.00000E+00 0.00000E+00 0.00000E+00
 -1       543 0.00000E+00 0.00000E+00 0.00000E+00
 -1       544 0.00000E+00 0.00000E+00 0.00000E+00
 -1       545 0.00000E+00 0.00000E+00 0.00000E+00
 -1       546 0.00000E+00 0.00000E+00 0.00000E+00
 -1       547 0.00000E+00 0.00000E+00 0.00000E+00
 -1       548 0.00000E+00 0.00000E+00 0.00000E+00
 -1       549 0.00000E+00 0.00000E+00 0.00000E+00
 -1       550 0.00000E+00 0.00000E+00 0.00000E+00
 -1       551 0.00000E+00 0.00000E+00 0.00000E+00
 -1       552 0.00000E+00 0.00000E+00 0.00000E+00
 -1       553 0.00000E+00 0.00000E+00 0.00000E+00
 -1       554 0.00000E+00 0.00000E+00 0.00000E+00
 -1       555 0.00000E+00 0.00000E+00 0.00000E+00
 -1       556 0.00000E+00 0.00000E+00 0.00000E+00
 -1       557 0.00000E+00 0.00000E+00 0.00000E+00
 -1       558 0.00000E+00 0.00000E+00 0.00000E+00
 -1       559 0.00000E+00 0.00000E+00 0.00000E+00
 -1       560 0.00000E+00 0.00000E+00 0.00000E+00
 -1       561 0.00000E+00 0.00000E+00 0.00000E+00
 -1       562 0.00000E+00 0.00000E+00 0.00000E+00
 -1       563 0.00000E+00 0.00000E+00 0.00000E+00
 -1       564 0.00000E+00 0.00000E+00 0.00000E+00
 -1       565 0.00000E+00 0.00000E+00 0.00000E+00
 -1       566 0.00000E+00 0.00000E+00 0.00000E+00
 -1       567 0.00000E+00 0.00000E+00 0.00000E+00
 -1       568 0.00000E+00 0.00000E+00 0.00000E+00
 -1       569 0.00000E+00 0.00000E+00 0.00000E+00
 -1       570 0.00000E+00 0.00000E+00 0.00000E+00
 -1       571 0.00000E+00 0.00000E+00 0.00000E+00
 -1       572 0.00000E+00 0.00000E+00 0.00000E+00
 -1       573 0.00000E+00 0.00000E+00 0.00000E+00
 -1       574 0.00000E+00 0.00000E+00 0.00000E+00
 -1       575 0.00000E+00 0.00000E+00 0.00000E+00
 -1       576 0.00000E+00 0.00000E+00 0.00000E+00
 -1       577 0.00000E+00 0.00000E+00 0.00000E+00
 -1       578 0.00000E+00 0.00000E+00 0.00000E+00
 -1       579 0.00000E+00 0.00000E+00 0.00000E+00
 -1       580 0.00000E+00 0.00000E+00 0.00000E+00
 -1       581 0.00000E+00 0.00000E+00 0.00000E+00
 -1       582 0.00000E+00 0.00000E+00 0.00000E+00
 -1       583 0.00000E+00 0.00000E+00 0.00000E+00
 -1       584 0.00000E+00 0.00000E+00 0.00000E+00
 -1       585 0.00000E+00 0.00000E+00 0.00000E+00
 -1       586 0.00000E+00 0.00000E+00 0.00000E+00
 -1       587 0.00000E+00 0.00000E+00 0.00000E+00
 -1       588 0.00000E+00 0.00000E+00 0.00000E+00
 -1       589 0.00000E+00 0.00000E+00 0.00000E+00
 -1       590 0.00000E+00 0.00000E+00 0.00000E+00
 -1       591 0.00000E+00 0.00000E+00 0.00000E+00
 -1       592 0.00000E+00 0.00000E+00 0.00000E+00
 -1       593 0.00000E+00 0.00000E+00 0.00000E+00
 -1       594 0.00000E+00 0.00000E+00 0.00000E+00
 -1       595 0.00000E+00 0.00000E+00 0.00000E+00
 -1       596 0.00000E+00 0.00000E+00 0.00000E+00
 -1       597 0.00000E+00 0.00000E+00 0.00000E+00
 -1       598 0.00000E+00 0.00000E+00 0.00000E+00
 -1       599 0.00000E+00 0.00000E+00 0.00000E+00
 -1       600 0.00000E+00 0.00000E+00 0.00000E+00
 -1       601 0.00000E+00 0.00000E+00 0.00000E+00
 -1       602 0.00000E+00 0.00000E+00 0.00000E+00
 -1       603 0.00000E+00 0.00000E+00 0.00000E+00
 -1       604 0.00000E+00 0.00000E+00 0.00000E+00
 -1       605 0.00000E+00 0.00000E+00 0.00000E+00
 -1       606 0.00000E+00 0.00000E+00 0.00000E+00
 -1       607 0.00000E+00 0.00000E+00 0.00000E+00
 -1       608 0.00000E+00 0.00000E+00 0.00000E+00
 -1       609 0.00000E+00 0.00000E+00 0.00000E+00
 -1       610 0.00000E+00 0.00000E+00 0.00000E+00
 -1       611 0.00000E+00 0.00000E+00 0.00000E+00
 -1       612 0.00000E+00 0.00000E+00 0.00000E+00
 -1       613 0.00000E+00 0.00000E+00 0.00000E+00
 -1       614 0.00000E+00 0.00000E+00 0.00000E+00
 -1       615 0.00000E+00 0.00000E+00 0.00000E+00
 -1       616 0.00000E+00 0.00000E+00 0.00000E+00
 -1       617 0.00000E+00 0.00000E+00 0.00000E+00
 -1       618 0.00000E+00 0.00000E+00 0.00000E+00
 -1       619 0.00000E+00 0.00000E+00 0.00000E+00
 -1       620 0.00000E+00 0.00000E+00 0.00000E+00
 -1       621 0.00000E+00 0.00000E+00 0.00000E+00
 -1       622 0.00000E+00 0.00000E+00 0.00000E+00
 -1       623 0.00000E+00 0.00000E+00 0.00000E+00
 -1       624 0.00000E+00 0.00000E+00 0.00000E+00
 -1       625 0.00000E+00 0.00000E+00 0.00000E+00
 -1       626 0.00000E+00 0.00000E+00 0.00000E+00
 -1       627 0.00000E+00 0.00000E+00 0.00000E+00
 -1       628 0.00000E+00 0.00000E+00 0.00000E+00
 -1       629 0.00000E+00 0.00000E+00 0.00000E+00
 -1       630 0.00000E+00 0.00000E+00 0.00000E+00
 -1       631 0.00000E+00 0.00000E+00 0.00000E+00
 -1       632 0.00000E+00 0.00000E+00 0.00000E+00
 -1       633 0.00000E+00 0.00000E+00 0.00000E+00
 -1       634 0.00000E+00 0.00000E+00 0.00000E+00
 -1       635 0.00000E+00 0.00000E+00 0.00000E+00
 -1       636 0.00000E+00 0.00000E+00 0.00000E+00
 -1       637 0.00000E+00 0.00000E+00 0.00000E+00
 -1       638 0.00000E+00 0.00000E+00 0.00000E+00
 -1       639 0.00000E+00 0.00000E+00 0.00000E+00
 -1       640 0.00000E+00 0.00000E+00 0.00000E+00
 -1       656 0.00000E+00 0.00000E+00 0.00000E+00
 -1       657 0.00000E+00 0.00000E+00 0.00000E+00
 -1       658 0.00000E+00 0.00000E+00 0.00000E+00
 -1       659 0.00000E+00 0.00000E+00 0.00000E+00
 -1       660 0.00000E+00 0.00000E+00 0.00000E+00
 -1       661 0.00000E+00 0.00000E+00 0.00000E+00
 -1       662 0.00000E+00 0.00000E+00 0.00000E+00
 -1       663 0.00000E+00 0.00000E+00 0.00000E+00
 -1       664 0.00000E+00 0.00000E+00 0.00000E+00
 -1       665 0.00000E+00 0.00000E+00 0.00000E+00
 -1       666 0.00000E+00 0.00000E+00 0.00000E+00
 -1       667 0.00000E+00 0.00000E+00 0.00000E+00
 -1       668 0.00000E+00 0.00000E+00 0.00000E+00
 -1       669 0.00000E+00 0.00000E+00 0.00000E+00
 -1       670 0.00000E+00 0.00000E+00 0.00000E+00
 -1       671 0.00000E+00 0.00000E+00 0.00000E+00
 -1       672 0.00000E+00 0.00000E+00 0.00000E+00
 -1       673 0.00000E+00 0.00000E+00 0.00000E+00
 -1       674 0.00000E+00 0.00000E+00 0.00000E+00
 -1       675 0.00000E+00 0.00000E+00 0.00000E+00
 -1       676 0.00000E+00 0.00000E+00 0.00000E+00
 -1       677 0.00000E+00 0.00000E+00 0.00000E+00
 -1       678 0.00000E+00 0.00000E+00 0.00000E+00
 -1       679 0.00000E+00 0.00000E+00 0.00000E+00
 -1       680 0.00000E+00 0.00000E+00 0.00000E+00
 -1       771 0.00000E+00 0.00000E+00 0.00000E+00
 -1       772 0.00000E+00 0.00000E+00 0.00000E+00
 -1       773 0.00000E+00 0.00000E+00 0.00000E+00
 -1       774 0.00000E+00 0.00000E+00 0.00000E+00
 -1       775 0.00000E+00 0.00000E+00 0.00000E+00
 -1       776 0.00000E+00 0.00000E+00 0.00000E+00
 -1       777 0.00000E+00 0.00000E+00 0.00000E+00
 -1       778 0.00000E+00 0.00000E+00 0.00000E+00
 -1       779 0.00000E+00 0.00000E+00 0.00000E+00
 -1       780 0.00000E+00 0.00000E+00 0.00000E+00
 -1       781 0.00000E+00 0.00000E+00 0.00000E+00
 -1       782 0.00000E+00 0.00000E+00 0.00000E+00
 -1       783 0.00000E+00 0.00000E+00 0.00000E+00
 -1       784 0.00000E+00 0.00000E+00 0.00000E+00
 -1       785 0.00000E+00 0.00000E+00 0.00000E+00
 -1       786 0.00000E+00 0.00000E+00 0.00000E+00
 -1       787 0.00000E+00 0.00000E+00 0.00000E+00
 -1       788 0.00000E+00 0.00000E+00 0.00000E+00
 -1       789 0.00000E+00 0.00000E+00 0.00000E+00
 -1       790 0.00000E+00 0.00000E+00 0.00000E+00
 -1       791 0.00000E+00 0.00000E+00 0.00000E+00
 -1       792 0.00000E+00 0.00000E+00 0.00000E+00
 -1       793 0.00000E+00 0.00000E+00 0.00000E+00
 -1       794 0.00000E+00 0.00000E+00 0.00000E+00
 -1       795 0.00000E+00 0.00000E+00 0.00000E+00
 -1       796 0.00000E+00 0.00000E+00 0.00000E+00
 -1       797 0.00000E+00 0.00000E+00 0.00000E+00
 -1       798 0.00000E+00 0.00000E+00 0.00000E+00
 -1       799 0.00000E+00 0.00000E+00 0.00000E+00
 -1       800 0.00000E+00 0.00000E+00 0.00000E+00
 -1       801 0.00000E+00 0.00000E+00 0.00000E+00
 -1       802 0.00000E+00 0.00000E+00 0.00000E+00
 -1       803 0.00000E+00 0.00000E+00 0.00000E+00
 -1       804 0.00000E+00 0.00000E+00 0.00000E+00
 -1       805 0.00000E+00 0.00000E+00 0.00000E+00
 -1       806 0.00000E+00 0.00000E+00 0.00000E+00
 -1       807 0.00000E+00 0.00000E+00 0.00000E+00
 -1       808 0.00000E+00 0.00000E+00 0.00000E+00
 -1       809 0.00000E+00 0.00000E+00 0.00000E+00
 -1       810 0.00000E+00 0.00000E+00 0.00000E+00
 -1       811 0.00000E+00 0.00000E+00 0.00000E+00
 -1       812 0.00000E+00 0.00000E+00 0.00000E+00
 -1       813 0.00000E+00 0.00000E+00 0.00000E+00
 -1       814 0.00000E+00 0.00000E+00 0.00000E+00
 -1       815 0.00000E+00 0.00000E+00 0.00000E+00
 -1       816 0.00000E+00 0.00000E+00 0.00000E+00
 -1       817 0.00000E+00 0.00000E+00 0.00000E+00
 -1       818 0.00000E+00 0.00000E+00 0.00000E+00
 -1       819 0.00000E+00 0.00000E+00 0.00000E+00
 -1       820 0.00000E+00 0.00000E+00 0.00000E+00
 -1       821 0.00000E+00 0.00000E+00 0.00000E+00
 -1       822 0.00000E+00 0.00000E+00 0.00000E+00
 -1       823 0.00000E+00 0.00000E+00 0.00000E+00
 -1       824 0.00000E+00 0.00000E+00 0.00000E+00
 -1       825 0.00000E+00 0.00000E+00 0.00000E+00
 -1       826 0.00000E+00 0.00000E+00 0.00000E+00
 -1       827 0.00000E+00 0.00000E+00 0.00000E+00
 -1       828 0.00000E+00 0.00000E+00 0.00000E+00
 -1       829 0.00000E+00 0.00000E+00 0.00000E+00
 -1       830 0.00000E+00 0.00000E+00 0.00000E+00
 -1       831 0.00000E+00 0.00000E+00 0.00000E+00
 -1       832 0.00000E+00 0.00000E+00 0.00000E+00
 -1       833 0.00000E+00 0.00000E+00 0.00000E+00
 -1       834 0.00000E+00 0.00000E+00 0.00000E+00
 -1       835 0.00000E+00 0.00000E+00 0.00000E+00
 -1       836 0.00000E+00 0.00000E+00 0.00000E+00
 -1       837 0.00000E+00 0.00000E+00 0.00000E+00
 -1       838 0.00000E+00 0.00000E+00 0.00000E+00
 -1       839 0.00000E+00 0.00000E+00 0.00000E+00
 -1       840 0.00000E+00 0.00000E+00 0.00000E+00
 -1       856 0.00000E+00 0.00000E+00 0.00000E+00
 -1       857 0.00000E+00 0.00000E+00 0.00000E+00
 -1       858 0.00000E+00 0.00000E+00 0.00000E+00
 -1       859 0.00000E+00 0.00000E+00 0.00000E+00
 -1       860 0.00000E+00 0.00000E+00 0.00000E+00
 -1       861 0.00000E+00 0.00000E+00 0.00000E+00
 -1       862 0.00000E+00 0.00000E+00 0.00000E+00
 -1       863 0.00000E+00 0.00000E+00 0.00000E+00
 -1       864 0.00000E+00 0.00000E+00 0.00000E+00
 -1       865 0.00000E+00 0.00000E+00 0.00000E+00
 -1       866 0.00000E+00 0.00000E+00 0.00000E+00
 -1       867 0.00000E+00 0.00000E+00 0.00000E+00
 -1       868 0.00000E+00 0.00000E+00 0.00000E+00
 -1       869 0.00000E+00 0.00000E+00 0.00000E+00
 -1       870 0.00000E+00 0.00000E+00 0.00000E+00
 -1       871 0.00000E+00 0.00000E+00 0.00000E+00
 -1       872 0.00000E+00 0.00000E+00 0.00000E+00
 -1       873 0.00000E+00 0.00000E+00 0.00000E+00
 -1       874 0.00000E+00 0.00000E+00 0.00000E+00
 -1       875 0.00000E+00 0.00000E+00 0.00000E+00
 -1       876 0.00000E+00 0.00000E+00 0.00000E+00
 -1       877 0.00000E+00 0.00000E+00 0.00000E+00
 -1       878 0.00000E+00 0.00000E+00 0.00000E+00
 -1       879 0.00000E+00 0.00000E+00 0.00000E+00
 -1       880 0.00000E+00 0.00000E+00 0.00000E+00
 -1       881 0.00000E+00 0.00000E+00 0.00000E+00
 -1       882 0.00000E+00 0.00000E+00 0.00000E+00
 -1       883 0.00000E+00 0.00000E+00 0.00000E+00
 -1       884 0.00000E+00 0.00000E+00 0.00000E+00
 -1       885 0.00000E+00 0.00000E+00 0.00000E+00
 -1       886 0.00000E+00 0.00000E+00 0.00000E+00
 -1       887 0.00000E+00 0.00000E+00 0.00000E+00
 -1       888 0.00000E+00 0.00000E+00 0.00000E+00
 -1       889 0.00000E+00 0.00000E+00 0.00000E+00
 -1       890 0.00000E+00 0.00000E+00 0.00000E+00
 -1       891 0.00000E+00 0.00000E+00 0.00000E+00
 -1       892 0.00000E+00 0.00000E+00 0.00000E+00
 -1       893 0.00000E+00 0.00000E+00 0.00000E+00
 -1       894 0.00000E+00 0.00000E+00 0.00000E+00
 -1       895 0.00000E+00 0.00000E+00 0.00000E+00
 -1       956 0.00000E+00 0.00000E+00 0.00000E+00
 -1       957 0.00000E+00 0.00000E+00 0.00000E+00
 -1       958 0.00000E+00 0.00000E+00 0.00000E+00
 -1       959 0.00000E+00 0.00000E+00 0.00000E+00
 -1       960 0.00000E+00 0.00000E+00 0.00000E+00
 -1       961 0.00000E+00 0.00000E+00 0.00000E+00
 -1       962 0.00000E+00 0.00000E+00 0.00000E+00
 -1       963 0.00000E+00 0.00000E+00 0.00000E+00
 -1       964 0.00000E+00 0.00000E+00 0.00000E+00
 -1       965 0.00000E+00 0.00000E+00 0.00000E+00
 -1       966 0.00000E+00 0.00000E+00 0.00000E+00
 -1       967 0.00000E+00 0.00000E+00 0.00000E+00
 -1       968 0.00000E+00 0.00000E+00 0.00000E+00
 -1       969 0.00000E+00 0.00000E+00 0.00000E+00
 -1       970 0.00000E+00 0.00000E+00 0.00000E+00
 -1       971 0.00000E+00 0.00000E+00 0.00000E+00
 -1       972 0.00000E+00 0.00000E+00 0.00000E+00
 -1       973 0.00000E+00 0.00000E+00 0.00000E+00
 -1       974 0.00000E+00 0.00000E+00 0.00000E+00
 -1       975 0.00000E+00 0.00000E+00 0.00000E+00
 -1       976 0.00000E+00 0.00000E+00 0.00000E+00
 -1       977 0.00000E+00 0.00000E+00 0.00000E+00
 -1       978 0.00000E+00 0.00000E+00 0.00000E+00
 -1       979 0.00000E+00 0.00000E+00 0.00000E+00
 -1       980 0.00000E+00 0.00000E+00 0.00000E+00
 -1       981 0.00000E+00 0.00000E+00 0.00000E+00
 -1       982 0.00000E+00 0.00000E+00 0.00000E+00
 -1       983 0.00000E+00 0.00000E+00 0.00000E+00
 -1       984 0.00000E+00 0.00000E+00 0.00000E+00
 -1       985 0.00000E+00 0.00000E+00 0.00000E+00
 -3
