    1C
    1UUSER                                                              
    1UDATE              11.october.2022                                 
    1UTIME              18:02:33                                        
    1UHOST                                                              
    1UPGM               CalculiX                                        
    1UVERSION           Version 2.20                             
    1UCOMPILETIME       Sun Jul 31 18:08:37 CEST 2022                    
    1UDIR                                                               
    1UDBN                                                               
    1UMAT    1MESH_MATERIAL                                             
    2C                           388                                     1
 -1         1 0.00000E+00 0.00000E+00 0.00000E+00
 -1         2 1.66667E-02 0.00000E+00 0.00000E+00
 -1         3 3.33333E-02 0.00000E+00 0.00000E+00
 -1         5 6.66667E-02 0.00000E+00 0.00000E+00
 -1         8 0.00000E+00 6.25000E-03 0.00000E+00
 -1         9 1.66667E-02 6.25000E-03 0.00000E+00
 -1        10 3.33333E-02 6.25000E-03 0.00000E+00
 -1        12 6.66667E-02 6.25000E-03 0.00000E+00
 -1        16 1.66667E-02 1.25000E-02 0.00000E+00
 -1        17 3.33333E-02 1.25000E-02 0.00000E+00
 -1        18 5.00000E-02 1.25000E-02 0.00000E+00
 -1        19 6.66667E-02 1.25000E-02 0.00000E+00
 -1        20 8.33333E-02 1.25000E-02 0.00000E+00
 -1        21 1.00000E-01 1.25000E-02 0.00000E+00
 -1        24 3.33333E-02 1.87500E-02 0.00000E+00
 -1        25 5.00000E-02 1.87500E-02 0.00000E+00
 -1        26 6.66667E-02 1.87500E-02 0.00000E+00
 -1        27 8.33333E-02 1.87500E-02 0.00000E+00
 -1        28 1.00000E-01 1.87500E-02 0.00000E+00
 -1        32 5.00000E-02 2.50000E-02 0.00000E+00
 -1        33 6.66667E-02 2.50000E-02 0.00000E+00
 -1        34 8.33333E-02 2.50000E-02 0.00000E+00
 -1        35 1.00000E-01 2.50000E-02 0.00000E+00
 -1        51 0.00000E+00 1.04167E-03 0.00000E+00
 -1        52 0.00000E+00 2.08333E-03 0.00000E+00
 -1        53 0.00000E+00 3.12500E-03 0.00000E+00
 -1        54 0.00000E+00 4.16667E-03 0.00000E+00
 -1        55 0.00000E+00 5.20833E-03 0.00000E+00
 -1        56 1.04167E-03 3.90630E-04 0.00000E+00
 -1        57 2.08333E-03 7.81250E-04 0.00000E+00
 -1        58 3.12500E-03 1.17188E-03 0.00000E+00
 -1        59 4.16667E-03 1.56250E-03 0.00000E+00
 -1        60 5.20833E-03 1.95312E-03 0.00000E+00
 -1        61 6.25000E-03 2.34375E-03 0.00000E+00
 -1        62 7.29167E-03 2.73438E-03 0.00000E+00
 -1        63 8.33333E-03 3.12500E-03 0.00000E+00
 -1        64 9.37500E-03 3.51563E-03 0.00000E+00
 -1        65 1.04167E-02 3.90625E-03 0.00000E+00
 -1        66 1.14583E-02 4.29688E-03 0.00000E+00
 -1        67 1.25000E-02 4.68750E-03 0.00000E+00
 -1        68 1.35417E-02 5.07813E-03 0.00000E+00
 -1        69 1.45833E-02 5.46875E-03 0.00000E+00
 -1        70 1.56250E-02 5.85938E-03 0.00000E+00
 -1        86 1.66667E-02 1.04167E-03 0.00000E+00
 -1        87 1.66667E-02 2.08333E-03 0.00000E+00
 -1        88 1.66667E-02 3.12500E-03 0.00000E+00
 -1        89 1.66667E-02 4.16667E-03 0.00000E+00
 -1        90 1.66667E-02 5.20833E-03 0.00000E+00
 -1       121 3.33333E-02 1.04167E-03 0.00000E+00
 -1       122 3.33333E-02 2.08333E-03 0.00000E+00
 -1       123 3.33333E-02 3.12500E-03 0.00000E+00
 -1       124 3.33333E-02 4.16667E-03 0.00000E+00
 -1       125 3.33333E-02 5.20833E-03 0.00000E+00
 -1       191 6.66667E-02 1.04167E-03 0.00000E+00
 -1       192 6.66667E-02 2.08333E-03 0.00000E+00
 -1       193 6.66667E-02 3.12500E-03 0.00000E+00
 -1       194 6.66667E-02 4.16667E-03 0.00000E+00
 -1       195 6.66667E-02 5.20833E-03 0.00000E+00
 -1       271 1.04167E-03 6.64063E-03 0.00000E+00
 -1       272 2.08333E-03 7.03125E-03 0.00000E+00
 -1       273 3.12500E-03 7.42188E-03 0.00000E+00
 -1       274 4.16667E-03 7.81250E-03 0.00000E+00
 -1       275 5.20833E-03 8.20313E-03 0.00000E+00
 -1       276 6.25000E-03 8.59375E-03 0.00000E+00
 -1       277 7.29167E-03 8.98438E-03 0.00000E+00
 -1       278 8.33333E-03 9.37500E-03 0.00000E+00
 -1       279 9.37500E-03 9.76562E-03 0.00000E+00
 -1       280 1.04167E-02 1.01562E-02 0.00000E+00
 -1       281 1.14583E-02 1.05469E-02 0.00000E+00
 -1       282 1.25000E-02 1.09375E-02 0.00000E+00
 -1       283 1.35417E-02 1.13281E-02 0.00000E+00
 -1       284 1.45833E-02 1.17188E-02 0.00000E+00
 -1       285 1.56250E-02 1.21094E-02 0.00000E+00
 -1       301 1.66667E-02 7.29167E-03 0.00000E+00
 -1       302 1.66667E-02 8.33333E-03 0.00000E+00
 -1       303 1.66667E-02 9.37500E-03 0.00000E+00
 -1       304 1.66667E-02 1.04167E-02 0.00000E+00
 -1       305 1.66667E-02 1.14583E-02 0.00000E+00
 -1       306 1.77083E-02 6.64063E-03 0.00000E+00
 -1       307 1.87500E-02 7.03125E-03 0.00000E+00
 -1       308 1.97917E-02 7.42188E-03 0.00000E+00
 -1       309 2.08333E-02 7.81250E-03 0.00000E+00
 -1       310 2.18750E-02 8.20313E-03 0.00000E+00
 -1       311 2.29167E-02 8.59375E-03 0.00000E+00
 -1       312 2.39583E-02 8.98438E-03 0.00000E+00
 -1       313 2.50000E-02 9.37500E-03 0.00000E+00
 -1       314 2.60417E-02 9.76562E-03 0.00000E+00
 -1       315 2.70833E-02 1.01562E-02 0.00000E+00
 -1       316 2.81250E-02 1.05469E-02 0.00000E+00
 -1       317 2.91667E-02 1.09375E-02 0.00000E+00
 -1       318 3.02083E-02 1.13281E-02 0.00000E+00
 -1       319 3.12500E-02 1.17188E-02 0.00000E+00
 -1       320 3.22917E-02 1.21094E-02 0.00000E+00
 -1       336 3.33333E-02 7.29167E-03 0.00000E+00
 -1       337 3.33333E-02 8.33333E-03 0.00000E+00
 -1       338 3.33333E-02 9.37500E-03 0.00000E+00
 -1       339 3.33333E-02 1.04167E-02 0.00000E+00
 -1       340 3.33333E-02 1.14583E-02 0.00000E+00
 -1       406 6.66667E-02 7.29167E-03 0.00000E+00
 -1       407 6.66667E-02 8.33333E-03 0.00000E+00
 -1       408 6.66667E-02 9.37500E-03 0.00000E+00
 -1       409 6.66667E-02 1.04167E-02 0.00000E+00
 -1       410 6.66667E-02 1.14583E-02 0.00000E+00
 -1       521 1.77083E-02 1.28906E-02 0.00000E+00
 -1       522 1.87500E-02 1.32813E-02 0.00000E+00
 -1       523 1.97917E-02 1.36719E-02 0.00000E+00
 -1       524 2.08333E-02 1.40625E-02 0.00000E+00
 -1       525 2.18750E-02 1.44531E-02 0.00000E+00
 -1       526 2.29167E-02 1.48437E-02 0.00000E+00
 -1       527 2.39583E-02 1.52344E-02 0.00000E+00
 -1       528 2.50000E-02 1.56250E-02 0.00000E+00
 -1       529 2.60417E-02 1.60156E-02 0.00000E+00
 -1       530 2.70833E-02 1.64062E-02 0.00000E+00
 -1       531 2.81250E-02 1.67969E-02 0.00000E+00
 -1       532 2.91667E-02 1.71875E-02 0.00000E+00
 -1       533 3.02083E-02 1.75781E-02 0.00000E+00
 -1       534 3.12500E-02 1.79687E-02 0.00000E+00
 -1       535 3.22917E-02 1.83594E-02 0.00000E+00
 -1       536 3.43750E-02 1.25000E-02 0.00000E+00
 -1       537 3.54167E-02 1.25000E-02 0.00000E+00
 -1       538 3.64583E-02 1.25000E-02 0.00000E+00
 -1       539 3.75000E-02 1.25000E-02 0.00000E+00
 -1       540 3.85417E-02 1.25000E-02 0.00000E+00
 -1       541 3.95833E-02 1.25000E-02 0.00000E+00
 -1       542 4.06250E-02 1.25000E-02 0.00000E+00
 -1       543 4.16667E-02 1.25000E-02 0.00000E+00
 -1       544 4.27083E-02 1.25000E-02 0.00000E+00
 -1       545 4.37500E-02 1.25000E-02 0.00000E+00
 -1       546 4.47917E-02 1.25000E-02 0.00000E+00
 -1       547 4.58333E-02 1.25000E-02 0.00000E+00
 -1       548 4.68750E-02 1.25000E-02 0.00000E+00
 -1       549 4.79167E-02 1.25000E-02 0.00000E+00
 -1       550 4.89583E-02 1.25000E-02 0.00000E+00
 -1       551 3.33333E-02 1.35417E-02 0.00000E+00
 -1       552 3.33333E-02 1.45833E-02 0.00000E+00
 -1       553 3.33333E-02 1.56250E-02 0.00000E+00
 -1       554 3.33333E-02 1.66667E-02 0.00000E+00
 -1       555 3.33333E-02 1.77083E-02 0.00000E+00
 -1       556 3.43750E-02 1.28906E-02 0.00000E+00
 -1       557 3.54167E-02 1.32813E-02 0.00000E+00
 -1       558 3.64583E-02 1.36719E-02 0.00000E+00
 -1       559 3.75000E-02 1.40625E-02 0.00000E+00
 -1       560 3.85417E-02 1.44531E-02 0.00000E+00
 -1       561 3.95833E-02 1.48437E-02 0.00000E+00
 -1       562 4.06250E-02 1.52344E-02 0.00000E+00
 -1       563 4.16667E-02 1.56250E-02 0.00000E+00
 -1       564 4.27083E-02 1.60156E-02 0.00000E+00
 -1       565 4.37500E-02 1.64062E-02 0.00000E+00
 -1       566 4.47917E-02 1.67969E-02 0.00000E+00
 -1       567 4.58333E-02 1.71875E-02 0.00000E+00
 -1       568 4.68750E-02 1.75781E-02 0.00000E+00
 -1       569 4.79167E-02 1.79687E-02 0.00000E+00
 -1       570 4.89583E-02 1.83594E-02 0.00000E+00
 -1       571 5.10417E-02 1.25000E-02 0.00000E+00
 -1       572 5.20833E-02 1.25000E-02 0.00000E+00
 -1       573 5.31250E-02 1.25000E-02 0.00000E+00
 -1       574 5.41667E-02 1.25000E-02 0.00000E+00
 -1       575 5.52083E-02 1.25000E-02 0.00000E+00
 -1       576 5.62500E-02 1.25000E-02 0.00000E+00
 -1       577 5.72917E-02 1.25000E-02 0.00000E+00
 -1       578 5.83333E-02 1.25000E-02 0.00000E+00
 -1       579 5.93750E-02 1.25000E-02 0.00000E+00
 -1       580 6.04167E-02 1.25000E-02 0.00000E+00
 -1       581 6.14583E-02 1.25000E-02 0.00000E+00
 -1       582 6.25000E-02 1.25000E-02 0.00000E+00
 -1       583 6.35417E-02 1.25000E-02 0.00000E+00
 -1       584 6.45833E-02 1.25000E-02 0.00000E+00
 -1       585 6.56250E-02 1.25000E-02 0.00000E+00
 -1       586 5.00000E-02 1.35417E-02 0.00000E+00
 -1       587 5.00000E-02 1.45833E-02 0.00000E+00
 -1       588 5.00000E-02 1.56250E-02 0.00000E+00
 -1       589 5.00000E-02 1.66667E-02 0.00000E+00
 -1       590 5.00000E-02 1.77083E-02 0.00000E+00
 -1       591 5.10417E-02 1.28906E-02 0.00000E+00
 -1       592 5.20833E-02 1.32813E-02 0.00000E+00
 -1       593 5.31250E-02 1.36719E-02 0.00000E+00
 -1       594 5.41667E-02 1.40625E-02 0.00000E+00
 -1       595 5.52083E-02 1.44531E-02 0.00000E+00
 -1       596 5.62500E-02 1.48437E-02 0.00000E+00
 -1       597 5.72917E-02 1.52344E-02 0.00000E+00
 -1       598 5.83333E-02 1.56250E-02 0.00000E+00
 -1       599 5.93750E-02 1.60156E-02 0.00000E+00
 -1       600 6.04167E-02 1.64062E-02 0.00000E+00
 -1       601 6.14583E-02 1.67969E-02 0.00000E+00
 -1       602 6.25000E-02 1.71875E-02 0.00000E+00
 -1       603 6.35417E-02 1.75781E-02 0.00000E+00
 -1       604 6.45833E-02 1.79687E-02 0.00000E+00
 -1       605 6.56250E-02 1.83594E-02 0.00000E+00
 -1       606 6.77083E-02 1.25000E-02 0.00000E+00
 -1       607 6.87500E-02 1.25000E-02 0.00000E+00
 -1       608 6.97917E-02 1.25000E-02 0.00000E+00
 -1       609 7.08333E-02 1.25000E-02 0.00000E+00
 -1       610 7.18750E-02 1.25000E-02 0.00000E+00
 -1       611 7.29167E-02 1.25000E-02 0.00000E+00
 -1       612 7.39583E-02 1.25000E-02 0.00000E+00
 -1       613 7.50000E-02 1.25000E-02 0.00000E+00
 -1       614 7.60417E-02 1.25000E-02 0.00000E+00
 -1       615 7.70833E-02 1.25000E-02 0.00000E+00
 -1       616 7.81250E-02 1.25000E-02 0.00000E+00
 -1       617 7.91667E-02 1.25000E-02 0.00000E+00
 -1       618 8.02083E-02 1.25000E-02 0.00000E+00
 -1       619 8.12500E-02 1.25000E-02 0.00000E+00
 -1       620 8.22917E-02 1.25000E-02 0.00000E+00
 -1       621 6.66667E-02 1.35417E-02 0.00000E+00
 -1       622 6.66667E-02 1.45833E-02 0.00000E+00
 -1       623 6.66667E-02 1.56250E-02 0.00000E+00
 -1       624 6.66667E-02 1.66667E-02 0.00000E+00
 -1       625 6.66667E-02 1.77083E-02 0.00000E+00
 -1       626 6.77083E-02 1.28906E-02 0.00000E+00
 -1       627 6.87500E-02 1.32813E-02 0.00000E+00
 -1       628 6.97917E-02 1.36719E-02 0.00000E+00
 -1       629 7.08333E-02 1.40625E-02 0.00000E+00
 -1       630 7.18750E-02 1.44531E-02 0.00000E+00
 -1       631 7.29167E-02 1.48437E-02 0.00000E+00
 -1       632 7.39583E-02 1.52344E-02 0.00000E+00
 -1       633 7.50000E-02 1.56250E-02 0.00000E+00
 -1       634 7.60417E-02 1.60156E-02 0.00000E+00
 -1       635 7.70833E-02 1.64062E-02 0.00000E+00
 -1       636 7.81250E-02 1.67969E-02 0.00000E+00
 -1       637 7.91667E-02 1.71875E-02 0.00000E+00
 -1       638 8.02083E-02 1.75781E-02 0.00000E+00
 -1       639 8.12500E-02 1.79687E-02 0.00000E+00
 -1       640 8.22917E-02 1.83594E-02 0.00000E+00
 -1       656 8.33333E-02 1.35417E-02 0.00000E+00
 -1       657 8.33333E-02 1.45833E-02 0.00000E+00
 -1       658 8.33333E-02 1.56250E-02 0.00000E+00
 -1       659 8.33333E-02 1.66667E-02 0.00000E+00
 -1       660 8.33333E-02 1.77083E-02 0.00000E+00
 -1       661 8.43750E-02 1.28906E-02 0.00000E+00
 -1       662 8.54167E-02 1.32813E-02 0.00000E+00
 -1       663 8.64583E-02 1.36719E-02 0.00000E+00
 -1       664 8.75000E-02 1.40625E-02 0.00000E+00
 -1       665 8.85417E-02 1.44531E-02 0.00000E+00
 -1       666 8.95833E-02 1.48437E-02 0.00000E+00
 -1       667 9.06250E-02 1.52344E-02 0.00000E+00
 -1       668 9.16667E-02 1.56250E-02 0.00000E+00
 -1       669 9.27083E-02 1.60156E-02 0.00000E+00
 -1       670 9.37500E-02 1.64062E-02 0.00000E+00
 -1       671 9.47917E-02 1.67969E-02 0.00000E+00
 -1       672 9.58333E-02 1.71875E-02 0.00000E+00
 -1       673 9.68750E-02 1.75781E-02 0.00000E+00
 -1       674 9.79167E-02 1.79687E-02 0.00000E+00
 -1       675 9.89583E-02 1.83594E-02 0.00000E+00
 -1       676 1.00000E-01 1.35417E-02 0.00000E+00
 -1       677 1.00000E-01 1.45833E-02 0.00000E+00
 -1       678 1.00000E-01 1.56250E-02 0.00000E+00
 -1       679 1.00000E-01 1.66667E-02 0.00000E+00
 -1       680 1.00000E-01 1.77083E-02 0.00000E+00
 -1       771 3.43750E-02 1.91406E-02 0.00000E+00
 -1       772 3.54167E-02 1.95312E-02 0.00000E+00
 -1       773 3.64583E-02 1.99219E-02 0.00000E+00
 -1       774 3.75000E-02 2.03125E-02 0.00000E+00
 -1       775 3.85417E-02 2.07031E-02 0.00000E+00
 -1       776 3.95833E-02 2.10938E-02 0.00000E+00
 -1       777 4.06250E-02 2.14844E-02 0.00000E+00
 -1       778 4.16667E-02 2.18750E-02 0.00000E+00
 -1       779 4.27083E-02 2.22656E-02 0.00000E+00
 -1       780 4.37500E-02 2.26563E-02 0.00000E+00
 -1       781 4.47917E-02 2.30469E-02 0.00000E+00
 -1       782 4.58333E-02 2.34375E-02 0.00000E+00
 -1       783 4.68750E-02 2.38281E-02 0.00000E+00
 -1       784 4.79167E-02 2.42187E-02 0.00000E+00
 -1       785 4.89583E-02 2.46094E-02 0.00000E+00
 -1       786 5.10417E-02 1.87500E-02 0.00000E+00
 -1       787 5.20833E-02 1.87500E-02 0.00000E+00
 -1       788 5.31250E-02 1.87500E-02 0.00000E+00
 -1       789 5.41667E-02 1.87500E-02 0.00000E+00
 -1       790 5.52083E-02 1.87500E-02 0.00000E+00
 -1       791 5.62500E-02 1.87500E-02 0.00000E+00
 -1       792 5.72917E-02 1.87500E-02 0.00000E+00
 -1       793 5.83333E-02 1.87500E-02 0.00000E+00
 -1       794 5.93750E-02 1.87500E-02 0.00000E+00
 -1       795 6.04167E-02 1.87500E-02 0.00000E+00
 -1       796 6.14583E-02 1.87500E-02 0.00000E+00
 -1       797 6.25000E-02 1.87500E-02 0.00000E+00
 -1       798 6.35417E-02 1.87500E-02 0.00000E+00
 -1       799 6.45833E-02 1.87500E-02 0.00000E+00
 -1       800 6.56250E-02 1.87500E-02 0.00000E+00
 -1       801 5.00000E-02 1.97917E-02 0.00000E+00
 -1       802 5.00000E-02 2.08333E-02 0.00000E+00
 -1       803 5.00000E-02 2.18750E-02 0.00000E+00
 -1       804 5.00000E-02 2.29167E-02 0.00000E+00
 -1       805 5.00000E-02 2.39583E-02 0.00000E+00
 -1       806 5.10417E-02 1.91406E-02 0.00000E+00
 -1       807 5.20833E-02 1.95312E-02 0.00000E+00
 -1       808 5.31250E-02 1.99219E-02 0.00000E+00
 -1       809 5.41667E-02 2.03125E-02 0.00000E+00
 -1       810 5.52083E-02 2.07031E-02 0.00000E+00
 -1       811 5.62500E-02 2.10938E-02 0.00000E+00
 -1       812 5.72917E-02 2.14844E-02 0.00000E+00
 -1       813 5.83333E-02 2.18750E-02 0.00000E+00
 -1       814 5.93750E-02 2.22656E-02 0.00000E+00
 -1       815 6.04167E-02 2.26563E-02 0.00000E+00
 -1       816 6.14583E-02 2.30469E-02 0.00000E+00
 -1       817 6.25000E-02 2.34375E-02 0.00000E+00
 -1       818 6.35417E-02 2.38281E-02 0.00000E+00
 -1       819 6.45833E-02 2.42187E-02 0.00000E+00
 -1       820 6.56250E-02 2.46094E-02 0.00000E+00
 -1       821 6.77083E-02 1.87500E-02 0.00000E+00
 -1       822 6.87500E-02 1.87500E-02 0.00000E+00
 -1       823 6.97917E-02 1.87500E-02 0.00000E+00
 -1       824 7.08333E-02 1.87500E-02 0.00000E+00
 -1       825 7.18750E-02 1.87500E-02 0.00000E+00
 -1       826 7.29167E-02 1.87500E-02 0.00000E+00
 -1       827 7.39583E-02 1.87500E-02 0.00000E+00
 -1       828 7.50000E-02 1.87500E-02 0.00000E+00
 -1       829 7.60417E-02 1.87500E-02 0.00000E+00
 -1       830 7.70833E-02 1.87500E-02 0.00000E+00
 -1       831 7.81250E-02 1.87500E-02 0.00000E+00
 -1       832 7.91667E-02 1.87500E-02 0.00000E+00
 -1       833 8.02083E-02 1.87500E-02 0.00000E+00
 -1       834 8.12500E-02 1.87500E-02 0.00000E+00
 -1       835 8.22917E-02 1.87500E-02 0.00000E+00
 -1       836 6.66667E-02 1.97917E-02 0.00000E+00
 -1       837 6.66667E-02 2.08333E-02 0.00000E+00
 -1       838 6.66667E-02 2.18750E-02 0.00000E+00
 -1       839 6.66667E-02 2.29167E-02 0.00000E+00
 -1       840 6.66667E-02 2.39583E-02 0.00000E+00
 -1       856 8.43750E-02 1.87500E-02 0.00000E+00
 -1       857 8.54167E-02 1.87500E-02 0.00000E+00
 -1       858 8.64583E-02 1.87500E-02 0.00000E+00
 -1       859 8.75000E-02 1.87500E-02 0.00000E+00
 -1       860 8.85417E-02 1.87500E-02 0.00000E+00
 -1       861 8.95833E-02 1.87500E-02 0.00000E+00
 -1       862 9.06250E-02 1.87500E-02 0.00000E+00
 -1       863 9.16667E-02 1.87500E-02 0.00000E+00
 -1       864 9.27083E-02 1.87500E-02 0.00000E+00
 -1       865 9.37500E-02 1.87500E-02 0.00000E+00
 -1       866 9.47917E-02 1.87500E-02 0.00000E+00
 -1       867 9.58333E-02 1.87500E-02 0.00000E+00
 -1       868 9.68750E-02 1.87500E-02 0.00000E+00
 -1       869 9.79167E-02 1.87500E-02 0.00000E+00
 -1       870 9.89583E-02 1.87500E-02 0.00000E+00
 -1       871 8.33333E-02 1.97917E-02 0.00000E+00
 -1       872 8.33333E-02 2.08333E-02 0.00000E+00
 -1       873 8.33333E-02 2.18750E-02 0.00000E+00
 -1       874 8.33333E-02 2.29167E-02 0.00000E+00
 -1       875 8.33333E-02 2.39583E-02 0.00000E+00
 -1       876 8.43750E-02 1.91406E-02 0.00000E+00
 -1       877 8.54167E-02 1.95312E-02 0.00000E+00
 -1       878 8.64583E-02 1.99219E-02 0.00000E+00
 -1       879 8.75000E-02 2.03125E-02 0.00000E+00
 -1       880 8.85417E-02 2.07031E-02 0.00000E+00
 -1       881 8.95833E-02 2.10938E-02 0.00000E+00
 -1       882 9.06250E-02 2.14844E-02 0.00000E+00
 -1       883 9.16667E-02 2.18750E-02 0.00000E+00
 -1       884 9.27083E-02 2.22656E-02 0.00000E+00
 -1       885 9.37500E-02 2.26563E-02 0.00000E+00
 -1       886 9.47917E-02 2.30469E-02 0.00000E+00
 -1       887 9.58333E-02 2.34375E-02 0.00000E+00
 -1       888 9.68750E-02 2.38281E-02 0.00000E+00
 -1       889 9.79167E-02 2.42187E-02 0.00000E+00
 -1       890 9.89583E-02 2.46094E-02 0.00000E+00
 -1       891 1.00000E-01 1.97917E-02 0.00000E+00
 -1       892 1.00000E-01 2.08333E-02 0.00000E+00
 -1       893 1.00000E-01 2.18750E-02 0.00000E+00
 -1       894 1.00000E-01 2.29167E-02 0.00000E+00
 -1       895 1.00000E-01 2.39583E-02 0.00000E+00
 -1       956 6.77083E-02 2.50000E-02 0.00000E+00
 -1       957 6.87500E-02 2.50000E-02 0.00000E+00
 -1       958 6.97917E-02 2.50000E-02 0.00000E+00
 -1       959 7.08333E-02 2.50000E-02 0.00000E+00
 -1       960 7.18750E-02 2.50000E-02 0.00000E+00
 -1       961 7.29167E-02 2.50000E-02 0.00000E+00
 -1       962 7.39583E-02 2.50000E-02 0.00000E+00
 -1       963 7.50000E-02 2.50000E-02 0.00000E+00
 -1       964 7.60417E-02 2.50000E-02 0.00000E+00
 -1       965 7.70833E-02 2.50000E-02 0.00000E+00
 -1       966 7.81250E-02 2.50000E-02 0.00000E+00
 -1       967 7.91667E-02 2.50000E-02 0.00000E+00
 -1       968 8.02083E-02 2.50000E-02 0.00000E+00
 -1       969 8.12500E-02 2.50000E-02 0.00000E+00
 -1       970 8.22917E-02 2.50000E-02 0.00000E+00
 -1       971 8.43750E-02 2.50000E-02 0.00000E+00
 -1       972 8.54167E-02 2.50000E-02 0.00000E+00
 -1       973 8.64583E-02 2.50000E-02 0.00000E+00
 -1       974 8.75000E-02 2.50000E-02 0.00000E+00
 -1       975 8.85417E-02 2.50000E-02 0.00000E+00
 -1       976 8.95833E-02 2.50000E-02 0.00000E+00
 -1       977 9.06250E-02 2.50000E-02 0.00000E+00
 -1       978 9.16667E-02 2.50000E-02 0.00000E+00
 -1       979 9.27083E-02 2.50000E-02 0.00000E+00
 -1       980 9.37500E-02 2.50000E-02 0.00000E+00
 -1       981 9.47917E-02 2.50000E-02 0.00000E+00
 -1       982 9.58333E-02 2.50000E-02 0.00000E+00
 -1       983 9.68750E-02 2.50000E-02 0.00000E+00
 -1       984 9.79167E-02 2.50000E-02 0.00000E+00
 -1       985 9.89583E-02 2.50000E-02 0.00000E+00
 -3
    3C                           200                                     1
 -1         1   12    0    1
 -2         1        52        51
 -1         2   12    0    1
 -2        52        54        53
 -1         3   12    0    1
 -2        54         8        55
 -1         4   12    0    1
 -2         1        57        56
 -1         5   12    0    1
 -2        57        59        58
 -1         6   12    0    1
 -2        59        61        60
 -1         7   12    0    1
 -2        61        63        62
 -1         8   12    0    1
 -2        63        65        64
 -1         9   12    0    1
 -2        65        67        66
 -1        10   12    0    1
 -2        67        69        68
 -1        11   12    0    1
 -2        69         9        70
 -1        12   12    0    1
 -2         2        87        86
 -1        13   12    0    1
 -2        87        89        88
 -1        14   12    0    1
 -2        89         9        90
 -1        15   12    0    1
 -2         3       122       121
 -1        16   12    0    1
 -2       122       124       123
 -1        17   12    0    1
 -2       124        10       125
 -1        18   12    0    1
 -2         5       192       191
 -1        19   12    0    1
 -2       192       194       193
 -1        20   12    0    1
 -2       194        12       195
 -1        21   12    0    1
 -2         8       272       271
 -1        22   12    0    1
 -2       272       274       273
 -1        23   12    0    1
 -2       274       276       275
 -1        24   12    0    1
 -2       276       278       277
 -1        25   12    0    1
 -2       278       280       279
 -1        26   12    0    1
 -2       280       282       281
 -1        27   12    0    1
 -2       282       284       283
 -1        28   12    0    1
 -2       284        16       285
 -1        29   12    0    1
 -2         9       302       301
 -1        30   12    0    1
 -2       302       304       303
 -1        31   12    0    1
 -2       304        16       305
 -1        32   12    0    1
 -2         9       307       306
 -1        33   12    0    1
 -2       307       309       308
 -1        34   12    0    1
 -2       309       311       310
 -1        35   12    0    1
 -2       311       313       312
 -1        36   12    0    1
 -2       313       315       314
 -1        37   12    0    1
 -2       315       317       316
 -1        38   12    0    1
 -2       317       319       318
 -1        39   12    0    1
 -2       319        17       320
 -1        40   12    0    1
 -2        10       337       336
 -1        41   12    0    1
 -2       337       339       338
 -1        42   12    0    1
 -2       339        17       340
 -1        43   12    0    1
 -2        12       407       406
 -1        44   12    0    1
 -2       407       409       408
 -1        45   12    0    1
 -2       409        19       410
 -1        46   12    0    1
 -2        16       522       521
 -1        47   12    0    1
 -2       522       524       523
 -1        48   12    0    1
 -2       524       526       525
 -1        49   12    0    1
 -2       526       528       527
 -1        50   12    0    1
 -2       528       530       529
 -1        51   12    0    1
 -2       530       532       531
 -1        52   12    0    1
 -2       532       534       533
 -1        53   12    0    1
 -2       534        24       535
 -1        54   12    0    1
 -2        17       537       536
 -1        55   12    0    1
 -2       537       539       538
 -1        56   12    0    1
 -2       539       541       540
 -1        57   12    0    1
 -2       541       543       542
 -1        58   12    0    1
 -2       543       545       544
 -1        59   12    0    1
 -2       545       547       546
 -1        60   12    0    1
 -2       547       549       548
 -1        61   12    0    1
 -2       549        18       550
 -1        62   12    0    1
 -2        17       552       551
 -1        63   12    0    1
 -2       552       554       553
 -1        64   12    0    1
 -2       554        24       555
 -1        65   12    0    1
 -2        17       557       556
 -1        66   12    0    1
 -2       557       559       558
 -1        67   12    0    1
 -2       559       561       560
 -1        68   12    0    1
 -2       561       563       562
 -1        69   12    0    1
 -2       563       565       564
 -1        70   12    0    1
 -2       565       567       566
 -1        71   12    0    1
 -2       567       569       568
 -1        72   12    0    1
 -2       569        25       570
 -1        73   12    0    1
 -2        18       572       571
 -1        74   12    0    1
 -2       572       574       573
 -1        75   12    0    1
 -2       574       576       575
 -1        76   12    0    1
 -2       576       578       577
 -1        77   12    0    1
 -2       578       580       579
 -1        78   12    0    1
 -2       580       582       581
 -1        79   12    0    1
 -2       582       584       583
 -1        80   12    0    1
 -2       584        19       585
 -1        81   12    0    1
 -2        18       587       586
 -1        82   12    0    1
 -2       587       589       588
 -1        83   12    0    1
 -2       589        25       590
 -1        84   12    0    1
 -2        18       592       591
 -1        85   12    0    1
 -2       592       594       593
 -1        86   12    0    1
 -2       594       596       595
 -1        87   12    0    1
 -2       596       598       597
 -1        88   12    0    1
 -2       598       600       599
 -1        89   12    0    1
 -2       600       602       601
 -1        90   12    0    1
 -2       602       604       603
 -1        91   12    0    1
 -2       604        26       605
 -1        92   12    0    1
 -2        19       607       606
 -1        93   12    0    1
 -2       607       609       608
 -1        94   12    0    1
 -2       609       611       610
 -1        95   12    0    1
 -2       611       613       612
 -1        96   12    0    1
 -2       613       615       614
 -1        97   12    0    1
 -2       615       617       616
 -1        98   12    0    1
 -2       617       619       618
 -1        99   12    0    1
 -2       619        20       620
 -1       100   12    0    1
 -2        19       622       621
 -1       101   12    0    1
 -2       622       624       623
 -1       102   12    0    1
 -2       624        26       625
 -1       103   12    0    1
 -2        19       627       626
 -1       104   12    0    1
 -2       627       629       628
 -1       105   12    0    1
 -2       629       631       630
 -1       106   12    0    1
 -2       631       633       632
 -1       107   12    0    1
 -2       633       635       634
 -1       108   12    0    1
 -2       635       637       636
 -1       109   12    0    1
 -2       637       639       638
 -1       110   12    0    1
 -2       639        27       640
 -1       111   12    0    1
 -2        20       657       656
 -1       112   12    0    1
 -2       657       659       658
 -1       113   12    0    1
 -2       659        27       660
 -1       114   12    0    1
 -2        20       662       661
 -1       115   12    0    1
 -2       662       664       663
 -1       116   12    0    1
 -2       664       666       665
 -1       117   12    0    1
 -2       666       668       667
 -1       118   12    0    1
 -2       668       670       669
 -1       119   12    0    1
 -2       670       672       671
 -1       120   12    0    1
 -2       672       674       673
 -1       121   12    0    1
 -2       674        28       675
 -1       122   12    0    1
 -2        21       677       676
 -1       123   12    0    1
 -2       677       679       678
 -1       124   12    0    1
 -2       679        28       680
 -1       125   12    0    1
 -2        24       772       771
 -1       126   12    0    1
 -2       772       774       773
 -1       127   12    0    1
 -2       774       776       775
 -1       128   12    0    1
 -2       776       778       777
 -1       129   12    0    1
 -2       778       780       779
 -1       130   12    0    1
 -2       780       782       781
 -1       131   12    0    1
 -2       782       784       783
 -1       132   12    0    1
 -2       784        32       785
 -1       133   12    0    1
 -2        25       787       786
 -1       134   12    0    1
 -2       787       789       788
 -1       135   12    0    1
 -2       789       791       790
 -1       136   12    0    1
 -2       791       793       792
 -1       137   12    0    1
 -2       793       795       794
 -1       138   12    0    1
 -2       795       797       796
 -1       139   12    0    1
 -2       797       799       798
 -1       140   12    0    1
 -2       799        26       800
 -1       141   12    0    1
 -2        25       802       801
 -1       142   12    0    1
 -2       802       804       803
 -1       143   12    0    1
 -2       804        32       805
 -1       144   12    0    1
 -2        25       807       806
 -1       145   12    0    1
 -2       807       809       808
 -1       146   12    0    1
 -2       809       811       810
 -1       147   12    0    1
 -2       811       813       812
 -1       148   12    0    1
 -2       813       815       814
 -1       149   12    0    1
 -2       815       817       816
 -1       150   12    0    1
 -2       817       819       818
 -1       151   12    0    1
 -2       819        33       820
 -1       152   12    0    1
 -2        26       822       821
 -1       153   12    0    1
 -2       822       824       823
 -1       154   12    0    1
 -2       824       826       825
 -1       155   12    0    1
 -2       826       828       827
 -1       156   12    0    1
 -2       828       830       829
 -1       157   12    0    1
 -2       830       832       831
 -1       158   12    0    1
 -2       832       834       833
 -1       159   12    0    1
 -2       834        27       835
 -1       160   12    0    1
 -2        26       837       836
 -1       161   12    0    1
 -2       837       839       838
 -1       162   12    0    1
 -2       839        33       840
 -1       163   12    0    1
 -2        27       857       856
 -1       164   12    0    1
 -2       857       859       858
 -1       165   12    0    1
 -2       859       861       860
 -1       166   12    0    1
 -2       861       863       862
 -1       167   12    0    1
 -2       863       865       864
 -1       168   12    0    1
 -2       865       867       866
 -1       169   12    0    1
 -2       867       869       868
 -1       170   12    0    1
 -2       869        28       870
 -1       171   12    0    1
 -2        27       872       871
 -1       172   12    0    1
 -2       872       874       873
 -1       173   12    0    1
 -2       874        34       875
 -1       174   12    0    1
 -2        27       877       876
 -1       175   12    0    1
 -2       877       879       878
 -1       176   12    0    1
 -2       879       881       880
 -1       177   12    0    1
 -2       881       883       882
 -1       178   12    0    1
 -2       883       885       884
 -1       179   12    0    1
 -2       885       887       886
 -1       180   12    0    1
 -2       887       889       888
 -1       181   12    0    1
 -2       889        35       890
 -1       182   12    0    1
 -2        28       892       891
 -1       183   12    0    1
 -2       892       894       893
 -1       184   12    0    1
 -2       894        35       895
 -1       185   12    0    1
 -2        33       957       956
 -1       186   12    0    1
 -2       957       959       958
 -1       187   12    0    1
 -2       959       961       960
 -1       188   12    0    1
 -2       961       963       962
 -1       189   12    0    1
 -2       963       965       964
 -1       190   12    0    1
 -2       965       967       966
 -1       191   12    0    1
 -2       967       969       968
 -1       192   12    0    1
 -2       969        34       970
 -1       193   12    0    1
 -2        34       972       971
 -1       194   12    0    1
 -2       972       974       973
 -1       195   12    0    1
 -2       974       976       975
 -1       196   12    0    1
 -2       976       978       977
 -1       197   12    0    1
 -2       978       980       979
 -1       198   12    0    1
 -2       980       982       981
 -1       199   12    0    1
 -2       982       984       983
 -1       200   12    0    1
 -2       984        35       985
 -3
    1PSTEP                         1           1           1          
  100CL  101 1.000000000         388                     0    1           1
 -4  DISP        4    1
 -5  D1          1    2    1    0
 -5  D2          1    2    2    0
 -5  D3          1    2    3    0
 -5  ALL         1    2    0    0    1ALL
 -1         1 1.60097E-04 0.00000E+00 0.00000E+00
 -1         2 9.91994E-05-1.91974E-31 0.00000E+00
 -1         3 9.60357E-05-8.02452E-27 0.00000E+00
 -1         5 7.33170E-05 4.26619E-25 0.00000E+00
 -1         8 1.28100E-04-1.55134E-06 0.00000E+00
 -1         9 8.92210E-05-7.10062E-07 0.00000E+00
 -1        10 8.82425E-05-2.85812E-06 0.00000E+00
 -1        12 7.20194E-05 1.21273E-06 0.00000E+00
 -1        16 7.63007E-05-8.93715E-07 0.00000E+00
 -1        17 6.60911E-05-5.73706E-06 0.00000E+00
 -1        18 6.60604E-05-6.53876E-07 0.00000E+00
 -1        19 6.81244E-05 2.41658E-06 0.00000E+00
 -1        20 6.88654E-05 2.82310E-05 0.00000E+00
 -1        21 6.84643E-05 6.26125E-05 6.61744E-24
 -1        24 2.61645E-05-7.05219E-06 0.00000E+00
 -1        25 6.14496E-05-3.02921E-07 0.00000E+00
 -1        26 6.31205E-05 3.23739E-06 0.00000E+00
 -1        27 6.09356E-05 2.70329E-05 0.00000E+00
 -1        28 5.90792E-05 6.15229E-05 0.00000E+00
 -1        32 0.00000E+00 0.00000E+00 0.00000E+00
 -1        33 5.74573E-05 4.47334E-06 0.00000E+00
 -1        34 5.49847E-05 2.69244E-05 0.00000E+00
 -1        35 5.16763E-05 6.10492E-05 0.00000E+00
 -1        51 1.57723E-04-2.55851E-07 0.00000E+00
 -1        52 1.53742E-04-5.04930E-07 0.00000E+00
 -1        53 1.48463E-04-7.55338E-07 0.00000E+00
 -1        54 1.42211E-04-1.01019E-06-6.61744E-24
 -1        55 1.35314E-04-1.27189E-06-3.72231E-24
 -1        56 1.56444E-04-1.68971E-06 5.29396E-23
 -1        57 1.52787E-04-3.80677E-06 5.29396E-23
 -1        58 1.48999E-04-5.54719E-06 0.00000E+00
 -1        59 1.44783E-04-6.22268E-06 0.00000E+00
 -1        60 1.40076E-04-5.59639E-06 0.00000E+00
 -1        61 1.34847E-04-3.60357E-06-5.29396E-23
 -1        62 1.29303E-04-7.80352E-07 0.00000E+00
 -1        63 1.23685E-04 2.23337E-06-5.29396E-23
 -1        64 1.18270E-04 4.71478E-06 0.00000E+00
 -1        65 1.13306E-04 6.00638E-06 5.29396E-23
 -1        66 1.08841E-04 5.97447E-06 1.05879E-22
 -1        67 1.04868E-04 4.65014E-06 0.00000E+00
 -1        68 1.01155E-04 2.63266E-06-1.05879E-22
 -1        69 9.74688E-05 6.17765E-07 0.00000E+00
 -1        70 9.35175E-05-7.16408E-07 0.00000E+00
 -1        86 9.88109E-05-1.12168E-07 0.00000E+00
 -1        87 9.76472E-05-2.25414E-07-1.65436E-24
 -1        88 9.58870E-05-3.39516E-07-6.61744E-24
 -1        89 9.37119E-05-4.57754E-07 0.00000E+00
 -1        90 9.13977E-05-5.75166E-07 1.32349E-23
 -1       121 9.58164E-05-4.75336E-07-1.32349E-23
 -1       122 9.51594E-05-9.50849E-07 0.00000E+00
 -1       123 9.40678E-05-1.42673E-06-1.32349E-23
 -1       124 9.25463E-05-1.90313E-06 6.61744E-24
 -1       125 9.06017E-05-2.38022E-06 1.32349E-23
 -1       191 7.32810E-05 2.02160E-07 0.00000E+00
 -1       192 7.31729E-05 4.04313E-07 0.00000E+00
 -1       193 7.29927E-05 6.06456E-07 0.00000E+00
 -1       194 7.27404E-05 8.08581E-07 0.00000E+00
 -1       195 7.24159E-05 1.01068E-06 0.00000E+00
 -1       271 1.23370E-04 2.71606E-06-5.29396E-23
 -1       272 1.18917E-04 5.97275E-06-2.64698E-23
 -1       273 1.14832E-04 8.26999E-06 0.00000E+00
 -1       274 1.11078E-04 9.64630E-06-5.29396E-23
 -1       275 1.07641E-04 1.01784E-05-1.05879E-22
 -1       276 1.04483E-04 9.96392E-06-5.29396E-23
 -1       277 1.01558E-04 9.12391E-06 0.00000E+00
 -1       278 9.88160E-05 7.79803E-06 0.00000E+00
 -1       279 9.61978E-05 6.14063E-06-1.05879E-22
 -1       280 9.36424E-05 4.31632E-06 0.00000E+00
 -1       281 9.10865E-05 2.49449E-06-1.05879E-22
 -1       282 8.84684E-05 8.44909E-07 0.00000E+00
 -1       283 8.57257E-05-4.68480E-07 0.00000E+00
 -1       284 8.28110E-05-1.28796E-06 0.00000E+00
 -1       285 7.96577E-05-1.47945E-06-5.29396E-23
 -1       301 8.70666E-05-7.50750E-07 6.61744E-24
 -1       302 8.48927E-05-7.68613E-07 3.30872E-24
 -1       303 8.27141E-05-7.83794E-07 0.00000E+00
 -1       304 8.05459E-05-8.01216E-07 0.00000E+00
 -1       305 7.84032E-05-8.25771E-07 0.00000E+00
 -1       306 8.72829E-05 3.88472E-07 0.00000E+00
 -1       307 8.56452E-05 5.82814E-07 0.00000E+00
 -1       308 8.42936E-05 1.80301E-08-5.29396E-23
 -1       309 8.31674E-05-1.16444E-06 0.00000E+00
 -1       310 8.22141E-05-2.81032E-06-5.29396E-23
 -1       311 8.13732E-05-4.76017E-06-2.64698E-23
 -1       312 8.05844E-05-6.84969E-06 0.00000E+00
 -1       313 7.97855E-05-8.91280E-06 2.64698E-23
 -1       314 7.89148E-05-1.07837E-05 0.00000E+00
 -1       315 7.79116E-05-1.22993E-05 0.00000E+00
 -1       316 7.67168E-05-1.33022E-05 0.00000E+00
 -1       317 7.52747E-05-1.36421E-05 0.00000E+00
 -1       318 7.35317E-05-1.31789E-05 5.29396E-23
 -1       319 7.14450E-05-1.17822E-05 0.00000E+00
 -1       320 6.89619E-05-9.34018E-06 0.00000E+00
 -1       336 8.54793E-05-3.33695E-06 1.32349E-23
 -1       337 8.23244E-05-3.81668E-06 6.61744E-24
 -1       338 7.87916E-05-4.29746E-06-1.32349E-23
 -1       339 7.48967E-05-4.77838E-06 0.00000E+00
 -1       340 7.06569E-05-5.26077E-06 0.00000E+00
 -1       406 7.15506E-05 1.41473E-06-6.61744E-24
 -1       407 7.10097E-05 1.61661E-06-3.30872E-24
 -1       408 7.03964E-05 1.81830E-06 0.00000E+00
 -1       409 6.97110E-05 2.01949E-06 0.00000E+00
 -1       410 6.89534E-05 2.21968E-06-6.61744E-24
 -1       521 7.29058E-05-3.46510E-07-5.29396E-23
 -1       522 6.97317E-05-6.27741E-07 2.64698E-23
 -1       523 6.68175E-05-1.59402E-06 0.00000E+00
 -1       524 6.40980E-05-3.11576E-06-5.29396E-23
 -1       525 6.15269E-05-5.03759E-06 0.00000E+00
 -1       526 5.90418E-05-7.19573E-06 5.29396E-23
 -1       527 5.65804E-05-9.41836E-06-1.05879E-22
 -1       528 5.40780E-05-1.15323E-05 5.29396E-23
 -1       529 5.14713E-05-1.33674E-05 0.00000E+00
 -1       530 4.87001E-05-1.47624E-05-5.29396E-23
 -1       531 4.57090E-05-1.55696E-05 0.00000E+00
 -1       532 4.24505E-05-1.56590E-05 0.00000E+00
 -1       533 3.88827E-05-1.49235E-05 1.05879E-22
 -1       534 3.49850E-05-1.32775E-05 0.00000E+00
 -1       535 3.07212E-05-1.06719E-05 0.00000E+00
 -1       536 6.60681E-05-1.56841E-06 0.00000E+00
 -1       537 6.60611E-05 1.60208E-06 0.00000E+00
 -1       538 6.60562E-05 3.87774E-06 0.00000E+00
 -1       539 6.60548E-05 5.36269E-06 1.65436E-24
 -1       540 6.60543E-05 6.16084E-06 0.00000E+00
 -1       541 6.60546E-05 6.37615E-06 0.00000E+00
 -1       542 6.60549E-05 6.11261E-06 0.00000E+00
 -1       543 6.60552E-05 5.47418E-06 0.00000E+00
 -1       544 6.60554E-05 4.56483E-06 0.00000E+00
 -1       545 6.60554E-05 3.48851E-06 1.29247E-26
 -1       546 6.60554E-05 2.34919E-06 1.03398E-25
 -1       547 6.60554E-05 1.25085E-06 0.00000E+00
 -1       548 6.60557E-05 2.97432E-07 0.00000E+00
 -1       549 6.60565E-05-4.07116E-07 0.00000E+00
 -1       550 6.60574E-05-7.58763E-07 0.00000E+00
 -1       551 6.01614E-05-5.94592E-06-4.96308E-24
 -1       552 5.35153E-05-6.15426E-06 2.48154E-24
 -1       553 4.64701E-05-6.36526E-06 0.00000E+00
 -1       554 3.93486E-05-6.58013E-06 0.00000E+00
 -1       555 3.24739E-05-6.79997E-06 0.00000E+00
 -1       556 6.44173E-05-1.75794E-06 0.00000E+00
 -1       557 6.31001E-05 1.30193E-06 0.00000E+00
 -1       558 6.20994E-05 3.52840E-06 0.00000E+00
 -1       559 6.13785E-05 5.01539E-06-6.61744E-24
 -1       560 6.09010E-05 5.85689E-06-1.32349E-23
 -1       561 6.06308E-05 6.14769E-06 0.00000E+00
 -1       562 6.05317E-05 5.98271E-06 0.00000E+00
 -1       563 6.05679E-05 5.45705E-06-6.61744E-24
 -1       564 6.07036E-05 4.66590E-06 0.00000E+00
 -1       565 6.09030E-05 3.70454E-06 0.00000E+00
 -1       566 6.11306E-05 2.66828E-06 0.00000E+00
 -1       567 6.13505E-05 1.65247E-06 8.27181E-25
 -1       568 6.15273E-05 7.52430E-07-8.27181E-25
 -1       569 6.16256E-05 6.33642E-08 8.27181E-25
 -1       570 6.16100E-05-3.19605E-07 0.00000E+00
 -1       571 6.61848E-05-3.97847E-07 2.48154E-24
 -1       572 6.63126E-05-2.26750E-07 8.27181E-25
 -1       573 6.64414E-05-1.24963E-07-1.65436E-24
 -1       574 6.65707E-05-7.60693E-08 8.27181E-25
 -1       575 6.67001E-05-6.35821E-08 0.00000E+00
 -1       576 6.68297E-05-7.09091E-08 0.00000E+00
 -1       577 6.69592E-05-8.14499E-08 0.00000E+00
 -1       578 6.70888E-05-7.85898E-08-3.30872E-24
 -1       579 6.72184E-05-4.57123E-08 0.00000E+00
 -1       580 6.73480E-05 3.38003E-08 0.00000E+00
 -1       581 6.74776E-05 1.76564E-07 0.00000E+00
 -1       582 6.76071E-05 3.99181E-07 6.61744E-24
 -1       583 6.77366E-05 7.18238E-07 0.00000E+00
 -1       584 6.78660E-05 1.15015E-06 0.00000E+00
 -1       585 6.79953E-05 1.71125E-06 0.00000E+00
 -1       586 6.54081E-05-5.94185E-07 0.00000E+00
 -1       587 6.46511E-05-5.34219E-07 0.00000E+00
 -1       588 6.38326E-05-4.74362E-07 0.00000E+00
 -1       589 6.29968E-05-4.15040E-07 4.13590E-25
 -1       590 6.21880E-05-3.56869E-07 0.00000E+00
 -1       591 6.58614E-05-3.50521E-07-1.65436E-24
 -1       592 6.56784E-05-1.07554E-07 1.65436E-24
 -1       593 6.55123E-05 8.73712E-08 3.30872E-24
 -1       594 6.53594E-05 2.45248E-07 0.00000E+00
 -1       595 6.52161E-05 3.77110E-07-3.30872E-24
 -1       596 6.50783E-05 4.93899E-07 0.00000E+00
 -1       597 6.49420E-05 6.06548E-07 0.00000E+00
 -1       598 6.48031E-05 7.25977E-07 8.27181E-25
 -1       599 6.46577E-05 8.63107E-07 3.30872E-24
 -1       600 6.45015E-05 1.02885E-06 1.65436E-24
 -1       601 6.43305E-05 1.23413E-06 0.00000E+00
 -1       602 6.41406E-05 1.48986E-06 0.00000E+00
 -1       603 6.39280E-05 1.80696E-06-8.27181E-25
 -1       604 6.36888E-05 2.19644E-06 8.27181E-25
 -1       605 6.34193E-05 2.66924E-06 0.00000E+00
 -1       606 6.81762E-05 3.38475E-06 0.00000E+00
 -1       607 6.82244E-05 4.47779E-06 0.00000E+00
 -1       608 6.82717E-05 5.68833E-06 0.00000E+00
 -1       609 6.83183E-05 7.00796E-06 0.00000E+00
 -1       610 6.83646E-05 8.42824E-06 0.00000E+00
 -1       611 6.84108E-05 9.94056E-06 0.00000E+00
 -1       612 6.84567E-05 1.15363E-05 0.00000E+00
 -1       613 6.85026E-05 1.32069E-05 0.00000E+00
 -1       614 6.85484E-05 1.49437E-05 0.00000E+00
 -1       615 6.85940E-05 1.67380E-05 1.65436E-24
 -1       616 6.86396E-05 1.85814E-05 0.00000E+00
 -1       617 6.86850E-05 2.04651E-05 3.30872E-24
 -1       618 6.87304E-05 2.23805E-05 0.00000E+00
 -1       619 6.87757E-05 2.43190E-05 0.00000E+00
 -1       620 6.88208E-05 2.62721E-05 0.00000E+00
 -1       621 6.72295E-05 2.55415E-06 0.00000E+00
 -1       622 6.63421E-05 2.69217E-06 1.65436E-24
 -1       623 6.54748E-05 2.83014E-06-3.30872E-24
 -1       624 6.46403E-05 2.96773E-06 0.00000E+00
 -1       625 6.38515E-05 3.10460E-06-1.65436E-24
 -1       626 6.78673E-05 3.44805E-06 0.00000E+00
 -1       627 6.75605E-05 4.61020E-06-6.61744E-24
 -1       628 6.72089E-05 5.89065E-06 0.00000E+00
 -1       629 6.68180E-05 7.27576E-06 0.00000E+00
 -1       630 6.63927E-05 8.75185E-06 0.00000E+00
 -1       631 6.59384E-05 1.03051E-05 0.00000E+00
 -1       632 6.54603E-05 1.19216E-05 0.00000E+00
 -1       633 6.49635E-05 1.35876E-05-3.30872E-24
 -1       634 6.44533E-05 1.52892E-05 0.00000E+00
 -1       635 6.39349E-05 1.70125E-05 0.00000E+00
 -1       636 6.34134E-05 1.87437E-05 0.00000E+00
 -1       637 6.28942E-05 2.04690E-05 1.65436E-24
 -1       638 6.23822E-05 2.21745E-05 0.00000E+00
 -1       639 6.18824E-05 2.38463E-05-8.27181E-25
 -1       640 6.13995E-05 2.54705E-05 0.00000E+00
 -1       656 6.71541E-05 2.80372E-05 3.30872E-24
 -1       657 6.57476E-05 2.78341E-05-1.65436E-24
 -1       658 6.45344E-05 2.76317E-05 0.00000E+00
 -1       659 6.34027E-05 2.74293E-05 1.65436E-24
 -1       660 6.22404E-05 2.72265E-05 3.30872E-24
 -1       661 6.82717E-05 3.02507E-05 0.00000E+00
 -1       662 6.76560E-05 3.23437E-05-1.65436E-24
 -1       663 6.70185E-05 3.44945E-05 0.00000E+00
 -1       664 6.63650E-05 3.66897E-05 0.00000E+00
 -1       665 6.57001E-05 3.89155E-05 0.00000E+00
 -1       666 6.50289E-05 4.11584E-05-1.65436E-24
 -1       667 6.43564E-05 4.34047E-05 3.30872E-24
 -1       668 6.36877E-05 4.56408E-05 0.00000E+00
 -1       669 6.30280E-05 4.78532E-05-3.30872E-24
 -1       670 6.23824E-05 5.00283E-05 0.00000E+00
 -1       671 6.17559E-05 5.21524E-05 3.30872E-24
 -1       672 6.11536E-05 5.42118E-05 0.00000E+00
 -1       673 6.05807E-05 5.61928E-05-3.30872E-24
 -1       674 6.00414E-05 5.80813E-05 0.00000E+00
 -1       675 5.95420E-05 5.98636E-05 1.65436E-24
 -1       676 6.68870E-05 6.24293E-05-6.61744E-24
 -1       677 6.53120E-05 6.22463E-05 0.00000E+00
 -1       678 6.37415E-05 6.20634E-05 0.00000E+00
 -1       679 6.21777E-05 6.18814E-05 0.00000E+00
 -1       680 6.06229E-05 6.16993E-05 3.30872E-24
 -1       771 2.31646E-05-2.95699E-06 5.29396E-23
 -1       772 2.04722E-05 2.88856E-07 0.00000E+00
 -1       773 1.80714E-05 2.75866E-06 5.29396E-23
 -1       774 1.59337E-05 4.52860E-06-2.64698E-23
 -1       775 1.40306E-05 5.67565E-06 0.00000E+00
 -1       776 1.23324E-05 6.27816E-06-2.64698E-23
 -1       777 1.08092E-05 6.41505E-06-1.05879E-22
 -1       778 9.43096E-06 6.16617E-06 2.64698E-23
 -1       779 8.16738E-06 5.61180E-06 5.29396E-23
 -1       780 6.98809E-06 4.83281E-06 2.64698E-23
 -1       781 5.86268E-06 3.91034E-06 0.00000E+00
 -1       782 4.76078E-06 2.92585E-06 2.64698E-23
 -1       783 3.65204E-06 1.96085E-06 5.29396E-23
 -1       784 2.50695E-06 1.09698E-06 0.00000E+00
 -1       785 1.29577E-06 4.15697E-07 0.00000E+00
 -1       786 6.15477E-05 1.24981E-07 8.27181E-25
 -1       787 6.16518E-05 4.47748E-07-8.27181E-25
 -1       788 6.17559E-05 6.82110E-07 3.30872E-24
 -1       789 6.18609E-05 8.44778E-07 0.00000E+00
 -1       790 6.19660E-05 9.52380E-07 0.00000E+00
 -1       791 6.20713E-05 1.02150E-06 0.00000E+00
 -1       792 6.21767E-05 1.06868E-06-3.30872E-24
 -1       793 6.22821E-05 1.11043E-06-1.65436E-24
 -1       794 6.23875E-05 1.16328E-06 3.30872E-24
 -1       795 6.24929E-05 1.24374E-06 0.00000E+00
 -1       796 6.25982E-05 1.36838E-06-3.30872E-24
 -1       797 6.27035E-05 1.55379E-06 1.65436E-24
 -1       798 6.28087E-05 1.81662E-06 3.30872E-24
 -1       799 6.29135E-05 2.17360E-06 0.00000E+00
 -1       800 6.30183E-05 2.64157E-06 0.00000E+00
 -1       801 5.63071E-05-2.06478E-07 0.00000E+00
 -1       802 4.50098E-05-1.47083E-07 0.00000E+00
 -1       803 3.06431E-05-1.21679E-07 8.27181E-25
 -1       804 1.62945E-05-1.02256E-07 0.00000E+00
 -1       805 5.05125E-06-4.88149E-08 0.00000E+00
 -1       806 6.11757E-05 7.42237E-08 3.30872E-24
 -1       807 6.09187E-05 3.95275E-07 0.00000E+00
 -1       808 6.06780E-05 6.70316E-07 0.00000E+00
 -1       809 6.04505E-05 9.09091E-07-1.65436E-24
 -1       810 6.02327E-05 1.12132E-06-3.30872E-24
 -1       811 6.00211E-05 1.31671E-06 1.65436E-24
 -1       812 5.98123E-05 1.50493E-06 3.30872E-24
 -1       813 5.96024E-05 1.69569E-06 0.00000E+00
 -1       814 5.93880E-05 1.89866E-06-3.30872E-24
 -1       815 5.91654E-05 2.12353E-06 1.65436E-24
 -1       816 5.89309E-05 2.37997E-06-1.65436E-24
 -1       817 5.86809E-05 2.67766E-06-1.65436E-24
 -1       818 5.84120E-05 3.02627E-06 0.00000E+00
 -1       819 5.81204E-05 3.43541E-06-1.65436E-24
 -1       820 5.78030E-05 3.91469E-06 3.30872E-24
 -1       821 6.29923E-05 4.00971E-06-1.65436E-24
 -1       822 6.28563E-05 4.97072E-06 0.00000E+00
 -1       823 6.27203E-05 6.10103E-06 0.00000E+00
 -1       824 6.25830E-05 7.38084E-06-1.65436E-24
 -1       825 6.24453E-05 8.79026E-06 0.00000E+00
 -1       826 6.23073E-05 1.03092E-05 1.65436E-24
 -1       827 6.21691E-05 1.19174E-05 0.00000E+00
 -1       828 6.20307E-05 1.35945E-05-1.65436E-24
 -1       829 6.18922E-05 1.53200E-05 3.30872E-24
 -1       830 6.17538E-05 1.70735E-05 1.65436E-24
 -1       831 6.16153E-05 1.88345E-05 0.00000E+00
 -1       832 6.14771E-05 2.05824E-05 1.65436E-24
 -1       833 6.13391E-05 2.22966E-05 0.00000E+00
 -1       834 6.12023E-05 2.39566E-05 0.00000E+00
 -1       835 6.10654E-05 2.55422E-05 1.65436E-24
 -1       836 6.23111E-05 3.44047E-06 0.00000E+00
 -1       837 6.13455E-05 3.65027E-06-3.30872E-24
 -1       838 6.03004E-05 3.85977E-06 0.00000E+00
 -1       839 5.92527E-05 4.06850E-06 0.00000E+00
 -1       840 5.82794E-05 4.27722E-06-1.65436E-24
 -1       856 6.08271E-05 2.85996E-05 0.00000E+00
 -1       857 6.07121E-05 3.03883E-05-8.27181E-25
 -1       858 6.05967E-05 3.23687E-05 0.00000E+00
 -1       859 6.04802E-05 3.45102E-05-1.65436E-24
 -1       860 6.03633E-05 3.67819E-05 3.30872E-24
 -1       861 6.02459E-05 3.91529E-05 0.00000E+00
 -1       862 6.01284E-05 4.15924E-05 0.00000E+00
 -1       863 6.00107E-05 4.40695E-05-1.65436E-24
 -1       864 5.98930E-05 4.65531E-05 0.00000E+00
 -1       865 5.97754E-05 4.90122E-05 0.00000E+00
 -1       866 5.96580E-05 5.14159E-05 0.00000E+00
 -1       867 5.95408E-05 5.37332E-05 1.65436E-24
 -1       868 5.94239E-05 5.59334E-05-3.30872E-24
 -1       869 5.93077E-05 5.79855E-05 0.00000E+00
 -1       870 5.91919E-05 5.98587E-05 0.00000E+00
 -1       871 5.97514E-05 2.70179E-05 0.00000E+00
 -1       872 5.87285E-05 2.70010E-05 0.00000E+00
 -1       873 5.78040E-05 2.69838E-05 0.00000E+00
 -1       874 5.69143E-05 2.69659E-05 4.13590E-25
 -1       875 5.59955E-05 2.69472E-05-8.27181E-25
 -1       876 6.05449E-05 2.86394E-05 0.00000E+00
 -1       877 6.00963E-05 3.04215E-05-3.30872E-24
 -1       878 5.95911E-05 3.23540E-05 6.61744E-24
 -1       879 5.90385E-05 3.44150E-05 0.00000E+00
 -1       880 5.84463E-05 3.65816E-05 0.00000E+00
 -1       881 5.78228E-05 3.88316E-05 0.00000E+00
 -1       882 5.71762E-05 4.11429E-05-6.61744E-24
 -1       883 5.65149E-05 4.34933E-05 3.30872E-24
 -1       884 5.58471E-05 4.58607E-05 6.61744E-24
 -1       885 5.51812E-05 4.82232E-05 0.00000E+00
 -1       886 5.45254E-05 5.05586E-05 0.00000E+00
 -1       887 5.38879E-05 5.28448E-05 3.30872E-24
 -1       888 5.32771E-05 5.50596E-05 0.00000E+00
 -1       889 5.27004E-05 5.71806E-05 1.65436E-24
 -1       890 5.21672E-05 5.91857E-05 0.00000E+00
 -1       891 5.77308E-05 6.14444E-05 0.00000E+00
 -1       892 5.65772E-05 6.13649E-05-8.27181E-25
 -1       893 5.55069E-05 6.12856E-05-1.65436E-24
 -1       894 5.44079E-05 6.12063E-05 8.27181E-25
 -1       895 5.31682E-05 6.11269E-05-8.27181E-25
 -1       956 5.73067E-05 5.29132E-06 1.65436E-24
 -1       957 5.71531E-05 6.27453E-06 0.00000E+00
 -1       958 5.69988E-05 7.40526E-06 1.65436E-24
 -1       959 5.68440E-05 8.66470E-06-8.27181E-25
 -1       960 5.66890E-05 1.00340E-05-3.30872E-24
 -1       961 5.65338E-05 1.14943E-05-1.65436E-24
 -1       962 5.63785E-05 1.30266E-05 0.00000E+00
 -1       963 5.62231E-05 1.46118E-05 0.00000E+00
 -1       964 5.60676E-05 1.62311E-05 0.00000E+00
 -1       965 5.59122E-05 1.78654E-05 0.00000E+00
 -1       966 5.57567E-05 1.94957E-05 0.00000E+00
 -1       967 5.56013E-05 2.11030E-05-3.30872E-24
 -1       968 5.54461E-05 2.26684E-05 0.00000E+00
 -1       969 5.52912E-05 2.41729E-05 0.00000E+00
 -1       970 5.51368E-05 2.55977E-05 6.61744E-24
 -1       971 5.47831E-05 2.82954E-05 6.61744E-24
 -1       972 5.45769E-05 2.99094E-05 3.30872E-24
 -1       973 5.43703E-05 3.17368E-05 0.00000E+00
 -1       974 5.41628E-05 3.37475E-05-3.30872E-24
 -1       975 5.39548E-05 3.59112E-05 0.00000E+00
 -1       976 5.37465E-05 3.81973E-05-3.30872E-24
 -1       977 5.35380E-05 4.05754E-05 6.61744E-24
 -1       978 5.33293E-05 4.30147E-05 0.00000E+00
 -1       979 5.31205E-05 4.54845E-05 0.00000E+00
 -1       980 5.29118E-05 4.79541E-05-3.30872E-24
 -1       981 5.27032E-05 5.03927E-05-6.61744E-24
 -1       982 5.24950E-05 5.27697E-05 3.30872E-24
 -1       983 5.22871E-05 5.50543E-05-6.61744E-24
 -1       984 5.20805E-05 5.72160E-05-3.30872E-24
 -1       985 5.18744E-05 5.92243E-05-3.30872E-24
 -3
    1PSTEP                         2           1           1          
  100CL  101 1.000000000         388                     0    1           1
 -4  STRESS      6    1
 -5  SXX         1    4    1    1
 -5  SYY         1    4    2    2
 -5  SZZ         1    4    3    3
 -5  SXY         1    4    1    2
 -5  SYZ         1    4    2    3
 -5  SZX         1    4    3    1
 -1         1-5.09978E+06-2.17823E+06-1.22326E+06-2.44381E+06 1.74623E-09 9.54606E-09
 -1         2 2.73646E+03-3.16991E+05 8.61161E+03-1.15104E+03-8.94318E-10 6.76927E-09
 -1         3-6.31267E+01-1.35811E+06-3.35289E+01-6.11935E+02 1.03391E-09-2.27192E-09
 -1         5-3.86012E+01 5.78679E+05 1.86400E+01 1.82657E+00 2.23502E-10 1.10049E-08
 -1         8-3.57395E+06-1.57180E+06-6.81340E+05-2.04299E+06 5.67525E-10-3.28873E-09
 -1         9-3.29098E+06-1.24615E+06-5.94925E+05-1.05596E+06 9.24047E-10-1.20781E-09
 -1        10-1.83894E+02-1.35833E+06-1.59773E+03-3.54707E+03-5.19185E-09-4.07454E-09
 -1        12-3.11093E+01 5.78718E+05 6.05523E+02 1.17597E+01 5.17360E-10 1.20426E-08
 -1        16-4.70666E+06-1.50046E+06-6.68794E+05-1.57277E+06 2.07365E-09-1.06290E-09
 -1        17-7.49984E+05-6.07264E+05-1.03188E+05-5.10430E+05-4.49800E-09 2.01398E-09
 -1        18 4.34692E+04 1.48585E+04-1.72892E+04-1.23373E+05 4.88853E-10 2.50566E-09
 -1        19 1.60876E+05 2.00437E+05-9.93222E+01 1.33348E+04 3.28873E-10 4.10364E-10
 -1        20 1.16333E+05-1.53482E+05-2.76689E+04 8.13495E+04 7.85743E-09-5.66312E-10
 -1        21-1.85785E+02-5.20986E+05-2.39868E+03-7.28662E+02-1.37509E-08 8.67848E-09
 -1        24-3.34533E+06-1.18732E+06-3.43746E+05-1.54713E+06-1.31210E-09-7.53789E-09
 -1        25 6.71318E+03 6.59059E+04 3.15958E+04-5.17333E+05 1.49375E-09 4.55548E-09
 -1        26-2.26703E+04 1.60873E+05 2.27981E+03-3.73292E+04-8.81118E-10 1.27049E-09
 -1        27-3.28852E+04-9.12282E+04-4.05992E+04 1.01945E+05 5.09165E-09-2.79761E-09
 -1        28-1.24801E+04-1.54329E+05-5.54861E+03 6.07871E+04 1.00799E-08-2.56955E-09
 -1        32-1.14909E+06-1.22035E+05 3.00717E+05-1.59700E+06-9.76434E-09-5.57520E-10
 -1        33-1.66402E+05 1.62915E+05 4.98677E+04-5.23468E+04-1.30331E-09-4.85064E-09
 -1        34-3.25326E+05-5.03430E+04-1.45193E+04 9.70244E+04 8.33325E-10-2.21007E-09
 -1        35-4.22740E+04-4.34741E+04-6.66332E+02 9.61559E+04 2.61212E-09-1.01136E-09
 -1        51 3.45965E+04-6.31362E+05 6.05748E+04-1.69280E+06 2.32831E-10 9.80799E-09
 -1        52 2.23824E+04-6.35043E+05 4.11217E+04-1.87460E+06-5.45697E-10-3.21597E-09
 -1        53 2.04740E+04-6.58426E+05 3.79123E+04-1.68797E+06 8.73115E-11 1.56724E-08
 -1        54 4.77222E+04-6.58034E+05 6.43714E+04-1.87943E+06-1.07684E-09 9.02219E-09
 -1        55 9.68195E+04-6.81639E+05 1.19897E+05-1.68672E+06-8.73115E-11 7.37055E-09
 -1        56-9.59304E+06-1.01860E+06-8.35303E+05-3.70935E+06-4.65661E-10-3.49246E-09
 -1        57-9.94124E+06-1.83351E+06-5.73617E+05-3.66710E+06 2.21189E-09 1.11831E-08
 -1        58-9.75186E+06-1.31686E+06-1.95694E+05-3.66641E+06 2.75395E-09 3.49974E-09
 -1        59-9.78476E+06-1.45711E+06-1.19545E+05-3.68209E+06 1.41517E-09 3.86171E-09
 -1        60-9.74648E+06-1.39149E+06-4.57610E+04-3.69457E+06 6.26642E-10-5.65706E-09
 -1        61-9.80656E+06-1.35564E+06-2.64480E+04-3.63260E+06 3.78350E-10 1.60110E-08
 -1        62-9.72949E+06-1.41753E+06-1.24852E+04-3.71600E+06 1.43245E-11 3.94857E-09
 -1        63-9.80986E+06-1.34197E+06-1.06590E+04-3.62561E+06 2.95427E-09 7.88373E-09
 -1        64-9.74296E+06-1.40485E+06-1.23995E+04-3.70160E+06-1.19144E-09-6.70752E-11
 -1        65-9.76808E+06-1.39292E+06-2.55115E+04-3.67497E+06 2.13890E-09-5.36602E-10
 -1        66-9.77124E+06-1.36703E+06-4.42255E+04-3.66642E+06 8.64020E-11-8.13088E-10
 -1        67-9.74970E+06-1.48973E+06-1.15620E+05-3.72225E+06 1.51249E-09-6.64477E-09
 -1        68-9.76240E+06-1.30849E+06-1.88929E+05-3.65458E+06-8.58563E-10 3.74712E-09
 -1        69-9.93888E+06-1.81444E+06-5.54139E+05-3.66291E+06 3.37968E-09 7.56700E-09
 -1        70-9.58474E+06-1.04601E+06-8.07287E+05-3.72532E+06 3.57977E-09 4.04543E-09
 -1        86-1.30221E+03-3.19980E+05 9.14101E+03 5.75575E+02-4.43379E-11 1.04653E-08
 -1        87 9.21269E+03-3.13938E+05 1.92568E+04-2.03061E+03-5.42059E-10-9.32572E-09
 -1        88-7.28832E+03-3.22554E+05 2.93217E+04 1.45375E+03-7.71252E-10-4.18251E-09
 -1        89 5.59734E+04-2.92665E+05 7.90280E+04-3.07670E+03-3.93811E-10 3.98690E-09
 -1        90-4.80059E+04-3.41220E+05 1.11369E+05 1.62143E+03-1.09867E-09 2.75618E-09
 -1       121-8.79965E+01-1.35851E+06-1.03515E+02 3.05874E+02-1.65182E-09 1.11668E-08
 -1       122-6.02282E+01-1.35812E+06-8.84816E+01-1.21279E+03-1.29987E-09 1.28184E-08
 -1       123-8.33070E+01-1.35851E+06-2.35573E+02 9.06346E+02-4.28972E-09 2.85945E-09
 -1       124-6.21676E+01-1.35817E+06-3.80324E+02-2.39827E+03-2.82153E-09 3.12821E-09
 -1       125-6.40979E+01-1.35849E+06-8.02366E+02 1.49090E+03-7.14766E-09 4.35193E-09
 -1       191-4.11340E+01 5.78722E+05 2.10071E+01-9.24321E-01 3.66428E-10 1.25092E-08
 -1       192-4.03407E+01 5.78680E+05 3.95201E+01 4.81003E+00 5.31900E-10 1.41163E-08
 -1       193-4.57408E+01 5.78721E+05 7.22508E+01-3.95598E+00 6.95380E-10 1.06593E-09
 -1       194-4.59302E+01 5.78686E+05 1.49601E+02 1.04309E+01 4.14653E-10-1.12441E-08
 -1       195-5.45878E+01 5.78716E+05 2.91359E+02-6.63769E+00 1.08808E-09 3.13230E-09
 -1       271-6.95436E+06-8.73879E+05-5.48323E+05-2.70359E+06 5.82077E-11-6.81030E-09
 -1       272-7.18167E+06-1.21553E+06-3.48706E+05-2.66465E+06 1.78989E-09 1.03428E-08
 -1       273-7.05610E+06-9.99644E+05-1.29233E+05-2.68100E+06-3.29146E-09-8.28732E-09
 -1       274-7.05983E+06-1.05875E+06-7.14070E+04-2.70241E+06 4.28827E-10-4.10182E-09
 -1       275-7.07240E+06-1.00896E+06-3.00311E+04-2.67382E+06 3.96449E-09-2.03727E-10
 -1       276-7.03840E+06-1.04928E+06-1.58553E+04-2.71500E+06-4.78849E-10-7.18455E-09
 -1       277-7.07756E+06-1.00668E+06-8.03013E+03-2.66950E+06-4.18368E-11 1.53541E-08
 -1       278-7.03166E+06-1.05310E+06-6.09729E+03-2.72198E+06 8.71296E-10 6.42268E-09
 -1       279-7.07961E+06-1.00463E+06-7.05542E+03-2.66727E+06-3.81988E-11-3.42629E-09
 -1       280-7.03103E+06-1.05644E+06-1.33051E+04-2.72423E+06 2.87059E-10 6.96627E-09
 -1       281-7.07847E+06-1.00333E+06-2.47097E+04-2.66738E+06 3.49110E-09 7.38146E-09
 -1       282-7.04367E+06-1.06939E+06-5.88263E+04-2.71997E+06 2.75116E-09-6.07633E-09
 -1       283-7.06724E+06-9.93498E+05-1.06232E+05-2.67085E+06-1.41608E-09-8.13452E-09
 -1       284-7.14040E+06-1.20172E+06-2.86889E+05-2.69248E+06 8.35826E-10 1.28421E-09
 -1       285-6.98467E+06-8.89077E+05-4.51194E+05-2.68821E+06 1.61526E-09 2.03727E-10
 -1       301 6.17229E+04-3.06713E+04 1.72295E+05-3.86771E+04 1.58616E-09-4.11649E-09
 -1       302 2.26389E+04 4.39772E+03 1.14509E+05-4.74252E+04 3.17550E-09-1.97680E-08
 -1       303 5.18831E+03-1.86165E+04 1.03420E+05-3.87629E+04 1.44973E-09-7.48616E-09
 -1       304 3.99491E+04 1.72150E+04 1.68251E+05-4.73746E+04 3.23234E-09 1.01795E-09
 -1       305 1.13648E+05-4.33711E+04 3.00348E+05-3.86019E+04 1.74623E-09-5.98357E-09
 -1       306-3.39473E+06-4.41955E+05-2.04107E+05-1.31226E+06 6.14818E-10 5.82077E-11
 -1       307-3.44103E+06-6.05926E+05-1.29548E+05-1.34097E+06-1.16847E-09 2.44654E-09
 -1       308-3.43270E+06-4.88211E+05-4.81616E+04-1.30391E+06-5.27962E-10 3.23780E-09
 -1       309-3.39687E+06-5.47299E+05-2.66222E+04-1.35479E+06-6.99401E-10-4.73256E-09
 -1       310-3.43827E+06-4.92106E+05-1.12388E+04-1.30189E+06 2.31466E-10 4.33829E-09
 -1       311-3.39060E+06-5.42253E+05-6.05879E+03-1.35783E+06 1.34708E-09 1.70544E-08
 -1       312-3.43920E+06-4.92257E+05-3.25466E+03-1.30141E+06 4.47719E-09 2.43142E-09
 -1       313-3.39022E+06-5.41478E+05-2.88388E+03-1.35768E+06 6.87282E-09-3.04840E-09
 -1       314-3.43860E+06-4.92850E+05-3.88462E+03-1.30202E+06 9.94987E-10-3.31511E-09
 -1       315-3.39260E+06-5.40406E+05-7.71172E+03-1.35504E+06 1.91358E-09 1.10504E-10
 -1       316-3.43637E+06-4.93686E+05-1.46808E+04-1.30370E+06 1.34878E-09-9.15861E-10
 -1       317-3.40216E+06-5.45525E+05-3.47571E+04-1.34920E+06-3.94266E-10 2.76486E-10
 -1       318-3.42849E+06-4.89196E+05-6.30534E+04-1.30698E+06 6.28006E-10 7.20320E-10
 -1       319-3.46076E+06-6.21398E+05-1.69415E+05-1.33028E+06 1.44883E-09 1.09139E-09
 -1       320-3.37863E+06-4.28829E+05-2.66946E+05-1.31811E+06-1.21872E-09 7.27596E-10
 -1       336 6.04105E+01-1.35839E+06-3.08351E+03 2.05486E+03-9.35324E-09 7.45877E-09
 -1       337-1.54941E+03-1.35932E+06-6.75906E+03-4.63882E+03-6.37783E-09-3.35240E-09
 -1       338 1.14426E+03-1.35757E+06-1.21016E+04 2.58194E+03-1.10026E-08 1.66892E-09
 -1       339-1.51228E+04-1.36730E+06-3.00242E+04-5.72599E+03-7.46695E-09-3.77577E-09
 -1       340 1.13637E+04-1.35050E+06-4.66167E+04 3.13156E+03-1.30567E-08 1.11140E-09
 -1       406 1.38992E+01 5.78689E+05 1.19406E+03-5.36453E+00 1.48009E-09-4.56748E-09
 -1       407 3.85771E+02 5.78927E+05 2.54037E+03-9.38122E+00 2.14357E-10-1.62472E-08
 -1       408 1.27574E+03 5.78505E+05 5.07166E+03 1.57911E+01 1.57752E-09-1.12504E-08
 -1       409 5.45633E+03 5.80546E+05 1.14192E+04-1.93634E+02 1.90312E-10-5.91263E-09
 -1       410 1.57329E+04 5.77058E+05 2.33104E+04 2.00336E+02 1.74259E-09-1.18598E-09
 -1       521-7.10265E+06-9.02069E+05-4.63051E+05-2.73271E+06-3.49246E-09-4.07454E-10
 -1       522-7.26518E+06-1.22011E+06-2.94413E+05-2.73386E+06-3.77440E-10-3.29965E-09
 -1       523-7.18770E+06-1.00892E+06-1.09016E+05-2.71452E+06 4.08545E-09 4.00905E-09
 -1       524-7.16526E+06-1.08498E+06-6.03338E+04-2.76289E+06 2.41255E-09-7.47423E-09
 -1       525-7.19960E+06-1.01863E+06-2.53024E+04-2.71054E+06 7.27601E-09-5.50062E-09
 -1       526-7.15161E+06-1.07240E+06-1.35210E+04-2.76814E+06 1.35065E-08 5.47516E-09
 -1       527-7.20114E+06-1.01958E+06-6.97011E+03-2.71002E+06 2.64731E-09 7.71934E-11
 -1       528-7.15158E+06-1.06964E+06-5.67399E+03-2.76668E+06 2.15323E-10 5.17957E-10
 -1       529-7.19942E+06-1.02136E+06-7.05351E+03-2.71192E+06-1.53432E-09 2.77396E-09
 -1       530-7.15763E+06-1.06599E+06-1.36140E+04-2.76027E+06-1.68984E-09 1.70076E-10
 -1       531-7.19463E+06-1.02370E+06-2.56365E+04-2.71603E+06-4.20187E-10 4.93674E-09
 -1       532-7.17689E+06-1.07299E+06-6.08579E+04-2.74822E+06 7.23503E-10 5.15956E-09
 -1       533-7.18002E+06-1.01651E+06-1.10136E+05-2.72296E+06-2.21985E-09-4.20550E-09
 -1       534-7.28225E+06-1.20493E+06-2.97095E+05-2.71407E+06-7.78527E-10 2.15368E-09
 -1       535-7.09245E+06-9.10364E+05-4.67375E+05-2.74331E+06-1.87720E-09 3.23053E-09
 -1       536-1.14883E+04-1.96426E+04 7.75492E+04-1.45707E+04 3.18323E-10-2.78669E-09
 -1       537 1.83638E+04 2.47466E+04 5.02196E+04-6.29352E+04-4.25189E-09-1.00290E-08
 -1       538 2.24344E+02-2.35275E+03 2.00181E+04-1.43613E+04-9.44056E-10-1.84264E-09
 -1       539 4.38030E+03 2.28806E+03 1.13463E+04-6.31523E+04 4.85579E-09-2.12799E-09
 -1       540 1.49906E+03-3.88076E+02 5.00748E+03-1.43417E+04 3.90173E-10-5.52063E-10
 -1       541 2.26734E+03 1.84008E+02 2.68797E+03-6.31717E+04-4.54747E-10-1.86446E-11
 -1       542 1.60892E+03-7.49759E+01 1.19394E+03-1.43442E+04 2.40107E-10 3.08046E-09
 -1       543 1.69694E+03 8.72199E+01 5.58135E+02-6.31684E+04-8.78799E-10-3.82011E-09
 -1       544 1.60120E+03 1.80572E+01 1.02708E+02-1.43455E+04 1.10867E-09-5.28348E-09
 -1       545 1.46994E+03 8.81364E+01-2.83557E+02-6.31668E+04-5.49335E-10-8.96307E-10
 -1       546 1.62740E+03 6.89785E+01-7.71744E+02-1.43456E+04-9.76343E-10 1.04183E-09
 -1       547 1.24148E+03-3.17385E+02-1.85192E+03-6.31595E+04-7.12930E-10-7.82461E-09
 -1       548 1.88083E+03 3.33210E+02-3.37833E+03-1.43531E+04-1.57843E-09-5.12728E-09
 -1       549-7.33940E+02-4.20781E+03-8.39460E+03-6.30416E+04-1.05456E-09 3.47995E-09
 -1       550 3.91371E+03 3.09390E+03-1.31154E+04-1.44633E+04-2.83762E-10 1.30012E-09
 -1       551 2.08583E+04-5.33756E+05 4.23863E+04-8.30880E+05 2.09911E-09-1.46247E-09
 -1       552 1.85002E+04-5.29784E+05 4.33003E+04-1.01438E+06-9.45147E-09 4.75302E-09
 -1       553 1.41388E+04-5.37017E+05 6.15213E+04-8.29221E+05 2.75031E-09 1.08412E-09
 -1       554 4.54107E+04-5.11447E+05 1.25007E+05-1.01455E+06-9.02219E-09-9.27685E-11
 -1       555 1.00803E+05-5.54842E+05 2.37069E+05-8.30171E+05 9.02219E-10-2.41198E-09
 -1       556-2.09291E+05-1.80651E+05 4.20462E+04-2.96947E+05-1.59343E-09-4.60568E-09
 -1       557-1.68214E+05-2.20251E+05 2.12803E+04-3.28952E+05 1.29512E-09-1.38252E-08
 -1       558-2.10419E+05-1.90813E+05 8.76382E+03-2.90512E+05 7.78527E-10 2.90675E-09
 -1       559-1.74034E+05-2.26102E+05 4.38648E+03-3.31558E+05 5.37693E-09 1.11513E-08
 -1       560-2.11852E+05-1.90116E+05 1.86690E+03-2.91223E+05 1.66619E-09 2.26009E-09
 -1       561-1.75955E+05-2.25677E+05 9.43910E+02-3.32870E+05 1.39698E-09 1.00435E-08
 -1       562-2.12952E+05-1.89410E+05 3.38145E+02-2.91969E+05-3.71801E-09 3.88809E-09
 -1       563-1.77086E+05-2.25192E+05 9.57048E+01-3.33643E+05-1.02464E-08 8.03993E-10
 -1       564-2.13598E+05-1.89000E+05-1.95346E+02-2.92410E+05-5.40967E-09-2.20371E-09
 -1       565-1.77650E+05-2.24959E+05-5.72488E+02-3.34010E+05-3.92174E-09 3.11047E-10
 -1       566-2.13750E+05-1.88861E+05-1.29961E+03-2.92537E+05-3.80123E-09-2.14641E-09
 -1       567-1.77851E+05-2.25068E+05-2.90026E+03-3.33959E+05 1.33696E-10-2.80306E-09
 -1       568-2.13275E+05-1.89284E+05-6.00489E+03-2.92238E+05-1.79534E-09-1.47702E-09
 -1       569-1.80910E+05-2.28341E+05-1.41411E+04-3.32657E+05-2.44472E-09 2.10639E-09
 -1       570-2.10719E+05-1.98359E+05-2.83303E+04-2.88263E+05-3.27418E-11-1.09048E-09
 -1       571 3.69297E+05 1.63598E+04 2.43059E+04-9.52674E+04-9.16771E-10 3.11002E-09
 -1       572 3.72906E+05 5.67044E+03 1.19101E+04-1.04440E+05-8.77662E-11 2.17551E-09
 -1       573 3.70710E+05 1.33524E+03 5.29103E+03-9.50175E+04-8.05994E-09-2.07001E-09
 -1       574 3.71134E+05 4.26019E+02 2.65175E+03-1.04710E+05-1.58907E-08-3.60797E-09
 -1       575 3.70850E+05 4.96214E+01 1.24928E+03-9.49856E+04-4.84260E-09-8.49104E-09
 -1       576 3.70884E+05 8.02208E+00 6.35190E+02-1.04746E+05 1.52804E-09 1.59071E-09
 -1       577 3.70873E+05-1.94593E+01 3.10222E+02-9.49814E+04-2.15550E-09 2.42380E-09
 -1       578 3.70872E+05-1.94477E+01 1.64108E+02-1.04751E+05-3.07409E-09-5.76347E-09
 -1       579 3.70921E+05-3.62890E+01 8.94828E+01-9.49809E+04-2.20734E-09-7.16136E-09
 -1       580 3.70941E+05-5.33367E+01 6.69104E+01-1.04746E+05-5.45697E-11-1.27875E-09
 -1       581 3.71012E+05-8.20050E+01 6.90326E+01-9.49859E+04-7.73070E-10-2.15005E-09
 -1       582 3.71074E+05-1.01171E+02 1.19696E+02-1.04691E+05 8.09450E-11-4.96766E-09
 -1       583 3.71140E+05-1.06083E+02 2.13857E+02-9.50362E+04 5.20231E-10 5.93445E-10
 -1       584 3.71317E+05 2.91852E+01 4.81158E+02-1.04263E+05-3.58705E-09-1.87515E-09
 -1       585 3.71241E+05 4.28598E+02 9.63020E+02-9.54148E+04-5.87534E-10 3.86717E-09
 -1       586 2.28108E+03 1.73173E+05 4.26895E+03-2.30187E+05 6.07542E-10 2.47746E-09
 -1       587 1.49348E+03 1.73830E+05 4.67471E+03-2.55506E+05-1.34423E-09-4.11455E-09
 -1       588 1.92886E+03 1.72940E+05 7.23719E+03-2.29879E+05 7.74889E-10-4.99540E-09
 -1       589 7.01256E+03 1.75754E+05 1.52368E+04-2.55590E+05-1.56433E-09-1.64141E-09
 -1       590 1.97099E+04 1.71070E+05 3.04812E+04-2.30092E+05 9.73159E-10 1.88902E-09
 -1       591-1.88798E+05-5.60579E+04-3.66819E+04-9.04404E+04 1.44951E-09 7.16682E-09
 -1       592-1.91109E+05-5.40174E+04-1.83954E+04-1.00358E+05 4.21778E-10 7.70683E-09
 -1       593-1.90562E+05-4.53661E+04-7.80960E+03-9.57305E+04-1.61208E-09-3.48746E-09
 -1       594-1.86977E+05-4.94163E+04-3.83461E+03-1.00730E+05 1.94632E-10 1.44631E-09
 -1       595-1.90765E+05-4.50727E+04-1.76952E+03-9.59348E+04-7.59883E-10-1.69337E-09
 -1       596-1.86695E+05-4.92540E+04-8.94870E+02-1.00691E+05-1.02364E-09 2.49179E-09
 -1       597-1.90799E+05-4.51035E+04-4.82611E+02-9.59352E+04 5.16863E-10-4.28599E-10
 -1       598-1.86664E+05-4.92565E+04-3.77312E+02-1.00677E+05 2.11276E-09-3.67163E-09
 -1       599-1.90794E+05-4.51073E+04-4.68738E+02-9.59321E+04 6.16637E-09-3.24690E-09
 -1       600-1.86683E+05-4.92589E+04-8.58013E+02-1.00680E+05 7.40965E-09-2.43699E-09
 -1       601-1.90749E+05-4.50844E+04-1.69000E+03-9.59256E+04 1.06215E-08-4.90763E-09
 -1       602-1.86946E+05-4.94140E+04-3.65836E+03-1.00703E+05 1.74659E-08-1.79218E-08
 -1       603-1.90542E+05-4.53755E+04-7.44919E+03-9.57291E+04 7.83166E-09-2.35195E-09
 -1       604-1.90919E+05-5.37586E+04-1.75414E+04-1.00286E+05-2.15141E-09-1.20053E-09
 -1       605-1.88808E+05-5.56111E+04-3.49789E+04-9.07234E+04-2.91038E-09-1.01127E-08
 -1       606 1.36973E+05-1.54224E+04-2.41919E+04 4.49384E+04-8.25457E-09-3.30147E-09
 -1       607 1.33143E+05-5.18553E+03-1.19012E+04 4.92604E+04-3.00861E-09-6.63022E-10
 -1       608 1.35335E+05-1.09883E+03-5.30349E+03 4.46279E+04 4.07090E-09 2.11980E-09
 -1       609 1.34821E+05-2.80240E+02-2.66017E+03 4.95988E+04-4.20096E-09-1.91631E-09
 -1       610 1.35084E+05 4.42840E+01-1.25971E+03 4.45890E+04-8.76753E-09 5.41559E-09
 -1       611 1.34966E+05 1.07148E+02-6.32542E+02 4.96397E+04-1.75269E-08-1.64437E-09
 -1       612 1.35001E+05 1.19042E+02-3.00457E+02 4.45850E+04-9.31323E-09 3.35694E-09
 -1       613 1.34943E+05 1.42347E+02-1.33906E+02 4.96442E+04-8.87394E-09 1.74623E-09
 -1       614 1.34951E+05 1.32196E+02-3.19451E+01 4.45841E+04-3.06563E-08 1.84900E-09
 -1       615 1.34911E+05 1.60358E+02 5.67338E+01 4.96440E+04-4.99876E-08 1.08139E-09
 -1       616 1.34914E+05 1.53168E+02 1.69236E+02 4.45848E+04-2.60070E-08-6.48106E-09
 -1       617 1.34915E+05 2.27167E+02 3.90011E+02 4.96419E+04 1.41172E-08-6.29416E-09
 -1       618 1.34864E+05 3.30281E+02 7.90408E+02 4.45856E+04-1.83172E-09-2.92675E-09
 -1       619 1.35162E+05 9.66451E+02 1.78362E+03 4.96337E+04-1.42245E-08-5.10227E-10
 -1       620 1.34619E+05 2.48174E+03 3.62778E+03 4.45872E+04-8.06347E-09-4.38331E-09
 -1       621 1.43579E+03 3.96593E+05 4.81642E+03-3.31772E+04 1.92449E-09 8.75866E-09
 -1       622 6.58095E+02 3.97558E+05 4.93286E+03-4.05425E+04-4.95675E-10 1.03701E-08
 -1       623 3.96983E+02 3.96729E+05 7.13793E+03-3.31782E+04 2.05409E-09 1.42913E-08
 -1       624 3.75953E+03 3.99878E+05 1.45840E+04-4.04276E+04-9.09495E-10 1.80089E-08
 -1       625 1.07321E+04 3.94320E+05 2.77796E+04-3.32855E+04 1.57252E-09 5.96719E-09
 -1       626 2.43236E+05 7.95960E+04-3.73339E+03 1.55137E+05 5.76802E-09-1.26038E-08
 -1       627 2.37958E+05 8.57001E+04-1.77220E+03 1.59894E+05 2.39925E-08 6.68319E-09
 -1       628 2.43388E+05 8.12409E+04-7.47173E+02 1.54034E+05 1.29548E-08-9.91349E-10
 -1       629 2.37987E+05 8.66424E+04-3.52510E+02 1.59992E+05 6.60202E-09 1.46019E-09
 -1       630 2.43338E+05 8.13701E+04-1.50646E+02 1.53908E+05 6.59202E-09-3.87291E-09
 -1       631 2.37927E+05 8.67346E+04-5.16111E+01 1.59976E+05-4.34920E-09-2.40641E-09
 -1       632 2.43289E+05 8.13916E+04 1.91336E+01 1.53874E+05 4.17822E-09 5.91172E-11
 -1       633 2.37894E+05 8.67520E+04 1.01536E+02 1.59957E+05 3.23007E-09 1.26863E-09
 -1       634 2.43254E+05 8.13922E+04 2.34792E+02 1.53859E+05 1.58707E-09-6.35828E-09
 -1       635 2.37905E+05 8.67617E+04 5.21989E+02 1.59953E+05 3.88582E-09-1.02591E-09
 -1       636 2.43226E+05 8.14109E+04 1.07727E+03 1.53842E+05 6.15682E-09-6.69206E-09
 -1       637 2.38156E+05 8.70243E+04 2.39777E+03 1.59919E+05 2.32964E-08 1.01027E-08
 -1       638 2.43170E+05 8.22075E+04 4.95927E+03 1.53493E+05-5.73891E-10-2.19179E-08
 -1       639 2.40704E+05 9.12759E+04 1.17867E+04 1.58913E+05-5.33237E-09-1.11231E-09
 -1       640 2.43227E+05 9.45996E+04 2.47797E+04 1.48316E+05-9.07858E-09-8.11360E-09
 -1       656 1.54243E+04-5.74095E+05-6.56986E+04 1.63118E+04-1.40790E-09-5.34055E-09
 -1       657-2.25678E+04-5.98313E+05-4.86317E+04 6.84646E+04 3.24917E-10 8.00355E-11
 -1       658 3.15101E+03-5.82574E+05-3.14961E+04 1.61142E+04-9.62359E-10-4.86580E-11
 -1       659-2.19393E+04-5.98048E+05-4.75956E+04 6.85980E+04-1.10367E-09-5.57027E-09
 -1       660 1.49736E+04-5.74469E+05-6.37259E+04 1.61804E+04-3.29237E-09-5.33441E-09
 -1       661 3.71205E+05 5.19253E+04 2.92592E+04 1.46103E+05 6.61748E-09-3.79259E-09
 -1       662 3.77376E+05 6.90458E+04 1.76199E+04 1.50526E+05 8.46285E-10 6.61885E-10
 -1       663 3.75693E+05 5.62914E+04 6.86782E+03 1.46133E+05 1.32616E-09-3.56067E-10
 -1       664 3.72126E+05 6.19748E+04 3.62457E+03 1.51341E+05 9.93109E-09-9.57738E-09
 -1       665 3.76120E+05 5.66932E+04 1.60421E+03 1.46153E+05 8.46268E-09-8.48240E-09
 -1       666 3.71627E+05 6.13836E+04 8.53975E+02 1.51371E+05 1.29557E-08 1.33519E-08
 -1       667 3.76168E+05 5.67332E+04 4.97373E+02 1.46157E+05-2.36923E-09-1.85838E-09
 -1       668 3.71581E+05 6.13453E+04 4.77849E+02 1.51376E+05 3.75780E-09-3.55431E-09
 -1       669 3.76168E+05 5.67237E+04 6.97138E+02 1.46152E+05-4.21085E-09-3.67379E-09
 -1       670 3.71664E+05 6.14387E+04 1.39476E+03 1.51400E+05-5.14228E-09-4.32141E-09
 -1       671 3.76094E+05 5.66427E+04 2.72875E+03 1.46136E+05-1.82001E-09 6.12044E-09
 -1       672 3.72519E+05 6.24721E+04 6.23271E+03 1.51368E+05 1.02623E-08-3.81624E-09
 -1       673 3.75362E+05 5.59422E+04 1.18323E+04 1.46095E+05 4.46937E-09 2.11003E-10
 -1       674 3.81567E+05 7.46764E+04 3.03800E+04 1.49977E+05 9.90646E-09 4.06544E-09
 -1       675 3.67626E+05 4.84090E+04 5.04520E+04 1.46040E+05 1.03182E-08 5.82077E-10
 -1       676 9.01495E+01-5.20719E+05-2.85885E+03 3.64334E+02-3.26088E-09 2.40971E-09
 -1       677-1.01466E+03-5.21553E+05-5.32061E+03-7.27021E+02-1.13491E-08 3.30419E-09
 -1       678 7.58613E+02-5.20154E+05-9.21487E+03 3.62450E+02-6.62112E-09 4.64713E-09
 -1       679-1.06234E+04-5.27361E+05-2.23752E+04-7.23229E+02-8.95307E-09-5.52554E-09
 -1       680 7.57285E+03-5.14916E+05-3.51000E+04 3.57422E+02-1.17689E-09 6.37243E-10
 -1       771-3.09976E+06-6.00379E+05-8.31853E+04-1.33217E+06-1.12013E-08-2.43017E-09
 -1       772-3.08664E+06-6.12839E+05-4.15503E+04-1.37443E+06-4.62387E-09 5.85533E-09
 -1       773-3.10594E+06-5.74699E+05-1.78530E+04-1.34382E+06-7.69796E-09 2.25918E-09
 -1       774-3.07768E+06-6.03216E+05-8.68510E+03-1.37795E+06-1.16415E-09 1.27839E-08
 -1       775-3.10787E+06-5.73035E+05-4.13222E+03-1.34478E+06-2.96131E-09 1.59162E-09
 -1       776-3.07797E+06-6.02709E+05-2.04051E+03-1.37928E+06-1.34605E-10-2.23736E-09
 -1       777-3.10907E+06-5.72387E+05-1.16160E+03-1.34524E+06-9.45874E-11 1.72213E-09
 -1       778-3.07861E+06-6.02540E+05-8.56920E+02-1.38022E+06-3.41606E-09 1.50328E-09
 -1       779-3.10981E+06-5.71910E+05-1.09645E+03-1.34554E+06-9.67702E-10 5.31145E-10
 -1       780-3.07911E+06-6.02436E+05-1.97236E+03-1.38081E+06-2.30375E-09-3.41061E-10
 -1       781-3.11009E+06-5.71612E+05-3.91893E+03-1.34569E+06-1.70439E-09-1.24419E-09
 -1       782-3.07990E+06-6.02752E+05-8.50592E+03-1.38105E+06-1.42927E-09-1.10049E-09
 -1       783-3.10960E+06-5.72300E+05-1.73717E+04-1.34525E+06-2.88219E-09-3.87081E-09
 -1       784-3.08919E+06-6.12831E+05-4.09845E+04-1.37975E+06-3.01179E-09-6.43195E-09
 -1       785-3.10513E+06-5.96520E+05-8.18143E+04-1.33358E+06 8.45830E-10 1.55705E-09
 -1       786 2.95185E+05-9.24197E+03 3.77506E+04-2.24144E+03 1.52340E-10-2.87400E-09
 -1       787 3.08972E+05 1.22559E+04 2.43355E+04-1.00724E+04-5.81167E-10-4.22506E-09
 -1       788 3.00924E+05-9.78578E+02 9.79021E+03-2.24466E+03 4.34625E-10 1.03319E-09
 -1       789 3.02554E+05 1.24765E+03 5.49817E+03-1.00528E+04 2.13163E-10 3.22757E-10
 -1       790 3.01591E+05-1.07806E+02 2.48904E+03-2.26010E+03-2.37605E-10 6.07315E-10
 -1       791 3.01794E+05 1.25368E+02 1.33989E+03-1.00310E+04 1.74208E-09 4.41582E-09
 -1       792 3.01677E+05-1.34148E+01 6.83951E+02-2.26654E+03-1.02949E-09 3.28333E-09
 -1       793 3.01699E+05 1.65927E+01 4.53796E+02-1.00279E+04 5.70253E-10 2.26848E-09
 -1       794 3.01685E+05-7.58427E+00 4.16170E+02-2.26313E+03 5.65649E-10 2.27941E-09
 -1       795 3.01730E+05 5.19291E+01 6.32526E+02-1.00451E+04-4.15184E-10 7.57528E-09
 -1       796 3.01652E+05-4.78071E+01 1.08570E+03-2.24941E+03-6.50971E-10-3.20171E-09
 -1       797 3.02056E+05 5.24091E+02 2.34667E+03-1.00799E+04-9.27685E-10-4.19527E-09
 -1       798 3.01371E+05-4.18891E+02 4.15553E+03-2.22833E+03 2.72848E-10 3.74007E-09
 -1       799 3.04786E+05 5.18657E+03 1.03188E+04-1.01069E+04-1.75851E-09 1.81899E-10
 -1       800 2.98940E+05-3.92489E+03 1.59971E+04-2.22288E+03 1.85764E-10 8.24912E-10
 -1       801-2.33155E+04 3.64350E+05 4.56132E+04-4.32135E+05 8.33097E-10 2.72121E-09
 -1       802 6.90335E+04 3.67588E+05 7.18991E+04-1.87963E+06 2.23081E-08-9.42237E-10
 -1       803 4.79266E+03 3.53706E+05 8.74698E+04-4.31288E+05 1.20999E-08 9.52059E-09
 -1       804 1.41723E+05 4.10580E+05 1.98108E+05-1.87929E+06 1.53232E-08-5.27507E-09
 -1       805-8.39770E+04 3.22125E+05 2.82894E+05-4.32523E+05 1.15251E-08 4.07454E-10
 -1       806-2.75292E+05-8.40499E+04-2.37435E+04-1.41425E+05 7.99446E-10 1.06356E-08
 -1       807-2.74270E+05-7.94682E+04-1.12905E+04-1.50034E+05-1.81126E-09-1.02887E-10
 -1       808-2.75283E+05-7.21615E+04-4.75145E+03-1.46419E+05-9.65065E-09-3.66231E-09
 -1       809-2.71889E+05-7.53630E+04-2.29677E+03-1.51013E+05-8.38736E-09 2.99988E-08
 -1       810-2.75362E+05-7.13839E+04-1.03698E+03-1.46770E+05-1.22141E-08 9.02855E-09
 -1       811-2.71666E+05-7.51046E+04-5.11950E+02-1.51055E+05-3.79532E-09 6.76573E-09
 -1       812-2.75386E+05-7.13654E+04-2.52731E+02-1.46786E+05-6.97946E-09 9.54560E-09
 -1       813-2.71639E+05-7.51013E+04-1.57658E+02-1.51047E+05-1.26727E-08 1.71299E-08
 -1       814-2.75382E+05-7.13750E+04-1.44901E+02-1.46780E+05-9.46875E-09 2.41744E-09
 -1       815-2.71637E+05-7.51106E+04-2.25403E+02-1.51037E+05-5.88716E-09-4.57976E-09
 -1       816-2.75356E+05-7.13938E+04-4.22402E+02-1.46765E+05-5.85851E-09-1.68802E-09
 -1       817-2.71718E+05-7.52094E+04-9.18197E+02-1.50991E+05-4.49108E-09-2.72394E-09
 -1       818-2.75294E+05-7.17274E+04-1.89295E+03-1.46626E+05-7.36145E-09-1.27857E-08
 -1       819-2.72747E+05-7.67411E+04-4.49078E+03-1.50459E+05-1.29012E-09 4.51473E-09
 -1       820-2.75171E+05-7.65568E+04-9.44360E+03-1.44736E+05-1.88356E-09-2.92312E-09
 -1       821-3.83889E+05 1.15999E+04-4.74373E+04 2.39187E+03-3.33148E-09 7.37418E-09
 -1       822-4.01172E+05-1.54006E+04-3.05775E+04 1.14864E+04-1.69507E-09-1.14596E-09
 -1       823-3.91105E+05 1.22213E+03-1.23096E+04 2.28438E+03 2.95904E-09-7.29869E-10
 -1       824-3.93146E+05-1.54815E+03-6.91594E+03 1.16463E+04-6.90761E-10-2.72189E-09
 -1       825-3.91947E+05 1.36090E+02-3.15152E+03 2.23051E+03-7.50288E-09-8.15135E-10
 -1       826-3.92220E+05-1.26701E+02-1.72884E+03 1.17355E+04-1.53268E-08-5.71077E-10
 -1       827-3.92056E+05 2.35272E+01-9.52673E+02 2.19491E+03-7.08508E-09 2.68091E-09
 -1       828-3.92124E+05 8.93150E+00-7.62243E+02 1.17908E+04-8.40845E-09-1.58519E-09
 -1       829-3.92059E+05 2.45516E+01-8.97728E+02 2.17507E+03-2.57631E-09-3.53611E-09
 -1       830-3.92225E+05-1.04674E+02-1.58660E+03 1.18134E+04 7.30650E-09-6.86896E-10
 -1       831-3.91963E+05 1.30539E+02-2.86552E+03 2.17230E+03-6.40682E-09-4.66378E-09
 -1       832-3.93080E+05-1.38783E+03-6.28060E+03 1.18020E+04 7.22423E-10 9.65315E-10
 -1       833-3.91202E+05 1.11989E+03-1.11672E+04 2.18681E+03 9.22114E-10 1.51613E-09
 -1       834-4.00377E+05-1.39524E+04-2.77477E+04 1.17414E+04 1.43808E-09 3.95767E-09
 -1       835-3.84656E+05 1.05406E+04-4.30379E+04 2.23578E+03 4.40514E-09-3.94175E-09
 -1       836-4.32632E+03 6.00868E+05 4.90309E+04-3.49589E+04-5.84441E-09-3.55340E-09
 -1       837 1.15638E+04 6.16480E+05 3.75374E+04-7.54545E+04-4.43026E-09-1.55796E-09
 -1       838-1.02056E+03 6.06059E+05 3.17408E+04-3.48764E+04-6.15364E-09-1.49218E-09
 -1       839 1.90324E+04 6.21848E+05 5.44044E+04-7.54524E+04-4.66207E-09 1.28421E-09
 -1       840-7.67598E+03 5.95494E+05 8.29813E+04-3.49585E+04-5.34055E-09-2.45245E-09
 -1       856-3.22282E+05 4.77070E+03-3.80234E+04 1.09543E+04-9.66520E-09 1.35879E-09
 -1       857-3.34712E+05-9.14160E+03-2.32183E+04 2.66550E+04-4.53156E-09-1.98997E-09
 -1       858-3.27665E+05 4.51794E+02-9.76439E+03 1.08122E+04-7.59701E-09-3.22734E-09
 -1       859-3.28916E+05-5.90237E+02-5.25143E+03 2.68249E+04 2.11389E-09-6.16183E-10
 -1       860-3.28186E+05 9.03969E+01-2.46600E+03 1.07793E+04 1.13278E-09-2.28056E-10
 -1       861-3.28393E+05 7.24418E+01-1.29697E+03 2.68706E+04-1.02459E-08-3.28055E-09
 -1       862-3.28256E+05 5.99533E+01-6.79362E+02 1.07657E+04 5.91376E-09 1.83195E-09
 -1       863-3.28342E+05 1.25281E+02-4.53594E+02 2.68855E+04 2.58731E-08 1.03114E-10
 -1       864-3.28263E+05 5.76508E+01-4.33936E+02 1.07643E+04 1.15102E-08-3.65026E-09
 -1       865-3.28353E+05 1.01859E+02-6.62254E+02 2.68750E+04 1.52290E-08-4.57584E-09
 -1       866-3.28228E+05 6.74140E+01-1.17569E+03 1.07762E+04-2.81943E-10-1.33062E-09
 -1       867-3.28578E+05-2.13320E+02-2.45414E+03 2.68354E+04 2.43290E-09 1.82407E-09
 -1       868-3.27978E+05 2.26794E+02-4.54669E+03 1.08044E+04 1.10081E-08-3.32602E-09
 -1       869-3.31240E+05-4.19833E+03-1.07898E+04 2.66750E+04-2.91766E-09 1.76726E-09
 -1       870-3.25466E+05 2.21934E+03-1.76755E+04 1.09393E+04 4.88308E-09-4.72937E-10
 -1       871-5.49044E+03-4.65607E+04-1.19059E+04 1.65049E+05 4.66753E-09-2.56659E-09
 -1       872-2.02800E+03-4.89692E+04-3.76728E+03 2.01273E+05-6.73936E-10-1.89898E-08
 -1       873-1.51007E+02-4.81219E+04 2.99160E+03 1.64710E+05 6.67569E-10-4.65070E-09
 -1       874 3.09140E+03-4.53252E+04 1.19515E+04 2.01396E+05-5.61340E-09-6.44150E-10
 -1       875 9.77164E+03-5.04637E+04 2.55051E+04 1.64953E+05 1.64437E-09-2.73212E-09
 -1       876 4.77340E+05 6.92816E+04 4.26047E+04 1.90549E+05 9.39963E-10-1.38425E-09
 -1       877 4.84778E+05 9.33339E+04 2.53234E+04 1.98660E+05-1.02930E-08-1.08312E-08
 -1       878 4.83629E+05 7.46158E+04 9.96683E+03 1.90911E+05 2.93676E-09 5.80894E-09
 -1       879 4.77343E+05 8.36446E+04 5.20701E+03 1.99665E+05 4.39127E-09 9.06721E-09
 -1       880 4.84179E+05 7.51146E+04 2.31350E+03 1.90974E+05 8.20842E-09-1.27329E-10
 -1       881 4.76683E+05 8.28670E+04 1.20998E+03 1.99648E+05 1.97156E-09-5.43423E-10
 -1       882 4.84225E+05 7.51815E+04 6.74764E+02 1.90993E+05 4.68140E-09 2.56648E-11
 -1       883 4.76630E+05 8.27995E+04 5.92224E+02 1.99618E+05-1.72090E-08 8.13486E-10
 -1       884 4.84216E+05 7.51845E+04 8.09628E+02 1.90996E+05-9.97132E-09-3.31511E-10
 -1       885 4.76722E+05 8.28751E+04 1.57144E+03 1.99629E+05 8.42942E-09-7.16909E-10
 -1       886 4.84136E+05 7.51112E+04 3.07137E+03 1.90981E+05-1.40290E-10 2.32194E-09
 -1       887 4.77619E+05 8.38940E+04 6.94549E+03 1.99615E+05-2.36378E-09-2.53976E-09
 -1       888 4.83380E+05 7.44625E+04 1.33116E+04 1.90906E+05-8.34041E-09-5.34146E-09
 -1       889 4.87537E+05 9.68414E+04 3.38241E+04 1.98261E+05 1.56507E-08 3.94994E-09
 -1       890 4.74985E+05 6.73321E+04 5.69157E+04 1.90402E+05 2.01044E-09-3.98722E-09
 -1       891 6.35835E+02-2.25145E+05-8.86764E+03 5.02165E+04 4.06271E-09-3.62252E-09
 -1       892-2.28631E+03-2.27857E+05-6.65718E+03 1.09070E+05 1.68802E-09-1.01016E-08
 -1       893 8.41374E+01-2.26160E+05-5.46379E+03 5.00686E+04 1.25292E-08-2.16824E-09
 -1       894-3.41827E+03-2.28612E+05-9.16941E+03 1.09034E+05 7.33507E-09-1.10979E-08
 -1       895 1.10064E+03-2.24309E+05-1.39322E+04 5.02509E+04 7.55063E-09 3.76986E-09
 -1       956-4.39125E+05-7.89014E+03-1.93351E+04 5.15881E+04-1.09521E-08 1.82536E-09
 -1       957-4.42931E+05-2.59294E+03-9.89676E+03 6.18326E+04-1.31477E-08-1.43700E-10
 -1       958-4.40893E+05-1.88093E+02-4.46280E+03 5.12618E+04 2.00089E-11-2.49929E-09
 -1       959-4.41245E+05 4.09224E+01-2.27438E+03 6.21880E+04-3.88445E-09 2.74895E-09
 -1       960-4.41108E+05 1.38785E+02-1.10788E+03 5.12277E+04-9.18590E-09 1.74623E-09
 -1       961-4.41176E+05 1.75176E+02-5.80159E+02 6.22274E+04-1.42395E-08 5.99539E-09
 -1       962-4.41180E+05 1.57768E+02-3.21640E+02 5.12214E+04-6.11908E-09-3.40287E-09
 -1       963-4.41205E+05 1.97290E+02-2.37729E+02 6.22359E+04-1.09151E-08 6.56928E-09
 -1       964-4.41207E+05 1.72131E+02-2.65396E+02 5.12189E+04-9.07903E-10 3.73029E-09
 -1       965-4.41231E+05 2.07115E+02-4.39184E+02 6.22363E+04 8.84901E-09-1.05501E-09
 -1       966-4.41191E+05 1.81129E+02-8.15107E+02 5.12208E+04-4.91673E-09-1.97815E-09
 -1       967-4.41320E+05 1.30604E+02-1.66679E+03 6.22147E+04 8.84029E-10 4.47517E-09
 -1       968-4.41062E+05-3.97506E+01-3.26365E+03 5.12412E+04-1.62436E-09-2.58524E-09
 -1       969-4.42585E+05-1.78294E+03-7.24387E+03 6.19913E+04 5.16593E-10 9.31436E-10
 -1       970-4.39785E+05-5.67033E+03-1.41490E+04 5.14526E+04 5.44151E-09-4.58022E-09
 -1       971-5.84696E+05 2.53493E+03-2.68418E+04 1.25701E+04-7.15318E-09 6.18456E-10
 -1       972-5.93177E+05-5.97052E+03-1.61749E+04 2.81383E+04-5.86851E-09 3.39969E-09
 -1       973-5.88429E+05 2.50112E+02-6.87696E+03 1.23718E+04-9.11859E-09-1.41063E-09
 -1       974-5.89226E+05-3.20076E+02-3.67927E+03 2.83900E+04-3.00452E-09 3.56408E-09
 -1       975-5.88784E+05 7.14979E+01-1.76730E+03 1.23147E+04 4.06999E-10 4.98312E-09
 -1       976-5.88911E+05 9.69798E+01-9.77048E+02 2.84757E+04-1.24346E-08-7.29415E-10
 -1       977-5.88837E+05 6.39817E+01-6.15849E+02 1.22854E+04 8.21797E-09 2.29807E-09
 -1       978-5.88905E+05 1.33272E+02-6.01574E+02 2.85145E+04 2.45070E-08 2.96404E-09
 -1       979-5.88837E+05 7.22441E+01-8.62646E+02 1.22756E+04 1.30351E-08-1.89135E-09
 -1       980-5.88980E+05 8.82980E+01-1.61728E+03 2.85138E+04 1.26885E-08 9.24254E-09
 -1       981-5.88763E+05 1.09263E+02-3.06931E+03 1.22862E+04 1.47156E-09 3.60546E-09
 -1       982-5.89608E+05-6.19492E+02-6.49428E+03 2.84695E+04-8.90623E-10 5.40058E-09
 -1       983-5.88164E+05 4.55766E+02-1.21625E+04 1.23209E+04 8.47467E-09 1.32832E-09
 -1       984-5.96702E+05-1.06011E+04-2.86699E+04 2.82916E+04-9.14656E-09 1.28694E-10
 -1       985-5.81581E+05 4.54569E+03-4.75532E+04 1.24729E+04 7.06223E-09-2.10639E-09
 -3
 9999
