
 stresses (elem, integ.pnt.,sxx,syy,szz,sxy,sxz,syz) for set ELALL and time  0.1000000E+01

         1   1  2.641033E+06  9.624780E+06  2.500536E+06 -1.901698E+06  1.193168E+05  9.740199E+05
         1   2  2.132004E+06  8.198921E+06  1.675038E+06 -1.758410E+06  4.030675E+05  4.482020E+05
         1   3  1.763256E+06  6.881306E+06  1.224639E+06 -1.828538E+06  4.726889E+05 -7.604828E+04
         1   4  1.125270E+05 -6.887101E+05  1.167761E+05 -1.798499E+06  1.225344E+05  7.638489E+04
         1   5  3.828784E+04 -6.957358E+05  6.247014E+04 -1.692029E+06  4.053624E+05  4.642875E+04
         1   6  1.995178E+04 -6.808353E+05  4.224829E+04 -1.798943E+06  4.727052E+05  1.671845E+04
         1   7 -2.422965E+06 -1.090310E+07 -2.271101E+06 -1.696800E+06  1.255004E+05 -8.066289E+05
         1   8 -2.059764E+06 -9.513702E+06 -1.552648E+06 -1.626443E+06  4.075968E+05 -3.498050E+05
         1   9 -1.726152E+06 -8.186306E+06 -1.141490E+06 -1.769569E+06  4.727300E+05  1.084058E+05
         1  10  2.640767E+06  9.623770E+06  2.498752E+06 -1.901792E+06 -3.154285E-09  1.974235E-07
         1  11  2.131776E+06  8.198663E+06  1.674358E+06 -1.758555E+06  2.419870E-09 -5.051257E-09
         1  12  1.763015E+06  6.881239E+06  1.224209E+06 -1.828510E+06 -6.776506E-09 -2.080536E-07
         1  13  1.125093E+05 -6.887204E+05  1.167368E+05 -1.798506E+06 -1.387177E-09  1.145759E-10
         1  14  3.811080E+04 -6.957822E+05  6.215717E+04 -1.692044E+06  2.151957E-09  6.242447E-11
         1  15  1.971181E+04 -6.808956E+05  4.182790E+04 -1.798949E+06 -2.212250E-09  2.014319E-10
         1  16 -2.423159E+06 -1.090382E+07 -2.272374E+06 -1.696719E+06  5.684877E-09 -1.941406E-07
         1  17 -2.059975E+06 -9.513879E+06 -1.553192E+06 -1.626328E+06  3.281114E-09  5.214972E-09
         1  18 -1.726395E+06 -8.186378E+06 -1.141932E+06 -1.769610E+06  2.014543E-10  2.056404E-07
         1  19  2.641033E+06  9.624780E+06  2.500536E+06 -1.901698E+06 -1.193168E+05 -9.740199E+05
         1  20  2.132004E+06  8.198921E+06  1.675038E+06 -1.758410E+06 -4.030675E+05 -4.482020E+05
         1  21  1.763256E+06  6.881306E+06  1.224639E+06 -1.828538E+06 -4.726889E+05  7.604828E+04
         1  22  1.125270E+05 -6.887101E+05  1.167761E+05 -1.798499E+06 -1.225344E+05 -7.638489E+04
         1  23  3.828784E+04 -6.957358E+05  6.247014E+04 -1.692029E+06 -4.053624E+05 -4.642875E+04
         1  24  1.995178E+04 -6.808353E+05  4.224829E+04 -1.798943E+06 -4.727052E+05 -1.671845E+04
         1  25 -2.422965E+06 -1.090310E+07 -2.271101E+06 -1.696800E+06 -1.255004E+05  8.066289E+05
         1  26 -2.059764E+06 -9.513702E+06 -1.552648E+06 -1.626443E+06 -4.075968E+05  3.498050E+05
         1  27 -1.726152E+06 -8.186306E+06 -1.141490E+06 -1.769569E+06 -4.727300E+05 -1.084058E+05
         2   1  1.558389E+06  6.012659E+06  1.053609E+06 -1.835063E+06  4.400619E+05 -9.295141E+04
         2   2  1.234275E+06  4.633280E+06  7.986119E+05 -1.708768E+06  3.820097E+05 -1.749592E+05
         2   3  9.368202E+05  3.272823E+06  6.032907E+05 -1.811711E+06  2.966104E+05 -2.571159E+05
         2   4  2.043629E+04 -6.820943E+05  3.770120E+04 -1.802491E+06  4.398723E+05  1.017531E+04
         2   5  2.147059E+04 -6.827619E+05  3.803792E+04 -1.687789E+06  3.811915E+05 -8.944493E+03
         2   6  3.845197E+04 -6.771795E+05  5.464695E+04 -1.802436E+06  2.950419E+05 -2.838222E+04
         2   7 -1.519650E+06 -7.332180E+06 -9.791101E+05 -1.770158E+06  4.396918E+05  1.122411E+05
         2   8 -1.192601E+06 -5.970312E+06 -7.228597E+05 -1.666916E+06  3.803793E+05  1.557174E+05
         2   9 -8.605779E+05 -4.611284E+06 -4.939904E+05 -1.793175E+06  2.934730E+05  1.989668E+05
         2  10  1.558179E+06  6.012598E+06  1.053230E+06 -1.835031E+06 -1.320285E-09  7.853501E-08
         2  11  1.234110E+06  4.633208E+06  7.982814E+05 -1.708715E+06  7.141373E-10 -4.606946E-10
         2  12  9.367084E+05  3.272729E+06  6.030029E+05 -1.811650E+06  3.908924E-09 -8.068331E-08
         2  13  2.022855E+04 -6.821463E+05  3.733747E+04 -1.802495E+06 -3.692873E-09  1.776237E-10
         2  14  2.131461E+04 -6.828010E+05  3.776485E+04 -1.687787E+06  5.290408E-09  2.179388E-10
         2  15  3.835835E+04 -6.772037E+05  5.448203E+04 -1.802430E+06  5.759698E-09  2.076298E-10
         2  16 -1.519861E+06 -7.332245E+06 -9.794978E+05 -1.770198E+06 -3.108775E-10 -7.793430E-08
         2  17 -1.192763E+06 -5.970377E+06 -7.231782E+05 -1.666964E+06 -3.188594E-09  7.721791E-10
         2  18 -8.606813E+05 -4.611350E+06 -4.942279E+05 -1.793222E+06  7.525329E-11  8.043332E-08
         2  19  1.558389E+06  6.012659E+06  1.053609E+06 -1.835063E+06 -4.400619E+05  9.295141E+04
         2  20  1.234275E+06  4.633280E+06  7.986119E+05 -1.708768E+06 -3.820097E+05  1.749592E+05
         2  21  9.368202E+05  3.272823E+06  6.032907E+05 -1.811711E+06 -2.966104E+05  2.571159E+05
         2  22  2.043629E+04 -6.820943E+05  3.770120E+04 -1.802491E+06 -4.398723E+05 -1.017531E+04
         2  23  2.147059E+04 -6.827619E+05  3.803792E+04 -1.687789E+06 -3.811915E+05  8.944493E+03
         2  24  3.845197E+04 -6.771795E+05  5.464695E+04 -1.802436E+06 -2.950419E+05  2.838222E+04
         2  25 -1.519650E+06 -7.332180E+06 -9.791101E+05 -1.770158E+06 -4.396918E+05 -1.122411E+05
         2  26 -1.192601E+06 -5.970312E+06 -7.228597E+05 -1.666916E+06 -3.803793E+05 -1.557174E+05
         2  27 -8.605779E+05 -4.611284E+06 -4.939904E+05 -1.793175E+06 -2.934730E+05 -1.989668E+05
         3   1  7.499523E+05  2.426855E+06  4.932496E+05 -1.813725E+06  2.373578E+05 -2.679508E+05
         3   2  4.879300E+05  1.044189E+06  3.532269E+05 -1.618875E+06  1.364420E+05 -3.335728E+05
         3   3  3.237002E+05 -3.058534E+05  2.796910E+05 -1.655192E+06  3.371493E+04 -3.991775E+05
         3   4  4.621815E+04 -6.708128E+05  6.874593E+04 -1.802889E+06  2.356436E+05 -3.808806E+04
         3   5  9.687653E+04 -6.849052E+05  1.196827E+05 -1.686739E+06  1.346199E+05 -9.974177E+04
         3   6  2.447453E+05 -6.691275E+05  2.341921E+05 -1.801622E+06  3.179999E+04 -1.615003E+05
         3   7 -6.579070E+05 -3.758633E+06 -3.556635E+05 -1.792079E+06  2.339313E+05  1.906831E+05
         3   8 -2.942566E+05 -2.410826E+06 -1.136812E+05 -1.754397E+06  1.327431E+05  1.334689E+05
         3   9  1.658973E+05 -1.032097E+06  1.889172E+05 -1.947963E+06  2.977204E+04  7.604464E+04
         3  10  7.498729E+05  2.426763E+06  4.930103E+05 -1.813674E+06  5.058237E-10  4.418085E-09
         3  11  4.878804E+05  1.044065E+06  3.529838E+05 -1.618838E+06 -1.032091E-09 -2.261177E-09
         3  12  3.236563E+05 -3.060248E+05  2.793895E+05 -1.655181E+06 -9.536905E-11 -9.788345E-09
         3  13  4.615820E+04 -6.708292E+05  6.863902E+04 -1.802882E+06  2.466214E-09  1.755402E-10
         3  14  9.685446E+04 -6.849207E+05  1.196301E+05 -1.686728E+06 -7.132969E-09 -4.080369E-10
         3  15  2.447372E+05 -6.691558E+05  2.341412E+05 -1.801618E+06  1.384843E-09 -3.307749E-10
         3  16 -6.579758E+05 -3.758687E+06 -3.558356E+05 -1.792115E+06  1.595984E-10 -4.213397E-09
         3  17 -2.942804E+05 -2.410850E+06 -1.137481E+05 -1.754411E+06  1.241255E-09  2.030816E-09
         3  18  1.658948E+05 -1.032104E+06  1.889046E+05 -1.947965E+06 -5.232763E-10  9.708588E-09
         3  19  7.499523E+05  2.426855E+06  4.932496E+05 -1.813725E+06 -2.373578E+05  2.679508E+05
         3  20  4.879300E+05  1.044189E+06  3.532269E+05 -1.618875E+06 -1.364420E+05  3.335728E+05
         3  21  3.237002E+05 -3.058534E+05  2.796910E+05 -1.655192E+06 -3.371493E+04  3.991775E+05
         3  22  4.621815E+04 -6.708128E+05  6.874593E+04 -1.802889E+06 -2.356436E+05  3.808806E+04
         3  23  9.687653E+04 -6.849052E+05  1.196827E+05 -1.686739E+06 -1.346199E+05  9.974177E+04
         3  24  2.447453E+05 -6.691275E+05  2.341921E+05 -1.801622E+06 -3.179999E+04  1.615003E+05
         3  25 -6.579070E+05 -3.758633E+06 -3.556635E+05 -1.792079E+06 -2.339313E+05 -1.906831E+05
         3  26 -2.942566E+05 -2.410826E+06 -1.136812E+05 -1.754397E+06 -1.327431E+05 -1.334689E+05
         3  27  1.658973E+05 -1.032097E+06  1.889172E+05 -1.947963E+06 -2.977204E+04 -7.604464E+04
         4   1 -1.015482E+07 -3.038449E+06 -2.118095E+06 -3.438446E+06 -1.295950E+06 -4.837739E+05
         4   2 -9.708098E+06 -1.107437E+06 -8.773494E+05 -3.786704E+06 -8.330987E+05 -3.089606E+05
         4   3 -9.994029E+06 -1.347699E+06 -5.507625E+05 -3.722152E+06 -3.685421E+05 -1.386231E+05
         4   4 -1.006486E+07 -2.828218E+06 -2.057540E+06 -3.233332E+06 -1.295406E+06 -4.840401E+05
         4   5 -9.593268E+06 -1.018834E+06 -8.365745E+05 -3.709366E+06 -8.333471E+05 -3.091310E+05
         4   6 -9.853925E+06 -1.380369E+06 -5.289753E+05 -3.772674E+06 -3.695595E+05 -1.389384E+05
         4   7 -9.974817E+06 -2.617797E+06 -1.996970E+06 -3.028162E+06 -1.294862E+06 -4.843059E+05
         4   8 -9.478419E+06 -9.302118E+05 -7.958003E+05 -3.632010E+06 -8.335956E+05 -3.093014E+05
         4   9 -9.713786E+06 -1.413015E+06 -5.071838E+05 -3.823208E+06 -3.705771E+05 -1.392534E+05
         4  10 -1.015671E+07 -3.039166E+06 -2.121758E+06 -3.438958E+06  2.456378E-09 -1.588249E-10
         4  11 -9.708880E+06 -1.107732E+06 -8.788607E+05 -3.786914E+06 -4.400972E-09  1.587181E-09
         4  12 -9.994182E+06 -1.347757E+06 -5.510593E+05 -3.722194E+06 -3.073291E-09 -7.311279E-10
         4  13 -1.006675E+07 -2.828934E+06 -2.061200E+06 -3.233843E+06 -3.742827E-10 -2.920980E-10
         4  14 -9.594050E+06 -1.019129E+06 -8.380864E+05 -3.709575E+06 -7.355098E-10 -3.044182E-10
         4  15 -9.854079E+06 -1.380428E+06 -5.292737E+05 -3.772716E+06  6.559167E-09 -3.935196E-11
         4  16 -9.976707E+06 -2.618513E+06 -2.000626E+06 -3.028673E+06 -4.490046E-09  1.458931E-10
         4  17 -9.479202E+06 -9.305067E+05 -7.973128E+05 -3.632220E+06 -3.539975E-09  2.168240E-09
         4  18 -9.713940E+06 -1.413074E+06 -5.074837E+05 -3.823250E+06  4.018909E-09 -2.923345E-12
         4  19 -1.015482E+07 -3.038449E+06 -2.118095E+06 -3.438446E+06  1.295950E+06  4.837739E+05
         4  20 -9.708098E+06 -1.107437E+06 -8.773494E+05 -3.786704E+06  8.330987E+05  3.089606E+05
         4  21 -9.994029E+06 -1.347699E+06 -5.507625E+05 -3.722152E+06  3.685421E+05  1.386231E+05
         4  22 -1.006486E+07 -2.828218E+06 -2.057540E+06 -3.233332E+06  1.295406E+06  4.840401E+05
         4  23 -9.593268E+06 -1.018834E+06 -8.365745E+05 -3.709366E+06  8.333471E+05  3.091310E+05
         4  24 -9.853925E+06 -1.380369E+06 -5.289753E+05 -3.772674E+06  3.695595E+05  1.389384E+05
         4  25 -9.974817E+06 -2.617797E+06 -1.996970E+06 -3.028162E+06  1.294862E+06  4.843059E+05
         4  26 -9.478419E+06 -9.302118E+05 -7.958003E+05 -3.632010E+06  8.335956E+05  3.093014E+05
         4  27 -9.713786E+06 -1.413015E+06 -5.071838E+05 -3.823208E+06  3.705771E+05  1.392534E+05
         5   1 -9.399850E+06 -1.490794E+06 -3.314794E+05 -3.549514E+06 -2.886862E+05 -1.119417E+05
         5   2 -9.322737E+06 -1.159913E+06 -7.817983E+04 -3.556392E+06 -1.840169E+05 -7.565575E+04
         5   3 -9.298369E+06 -1.210919E+06  1.344203E+04 -3.570583E+06 -8.009279E+04 -3.732931E+04
         5   4 -9.793753E+06 -1.615167E+06 -4.357310E+05 -3.630058E+06 -2.891663E+05 -1.121365E+05
         5   5 -9.751556E+06 -1.316807E+06 -1.957353E+05 -3.666289E+06 -1.842012E+05 -7.572758E+04
         5   6 -9.762231E+06 -1.400526E+06 -1.177285E+05 -3.709818E+06 -7.998805E+04 -3.728810E+04
         5   7 -1.018750E+07 -1.739542E+06 -5.399953E+05 -3.710559E+06 -2.896459E+05 -1.123313E+05
         5   8 -1.018020E+07 -1.473695E+06 -3.133074E+05 -3.776119E+06 -1.843853E+05 -7.579934E+04
         5   9 -1.022588E+07 -1.590111E+06 -2.489197E+05 -3.848953E+06 -7.988338E+04 -3.724691E+04
         5  10 -9.399944E+06 -1.490831E+06 -3.316628E+05 -3.549540E+06 -1.749501E-09  3.618980E-09
         5  11 -9.322775E+06 -1.159929E+06 -7.825552E+04 -3.556403E+06 -4.545945E-09  7.300687E-10
         5  12 -9.298376E+06 -1.210923E+06  1.342710E+04 -3.570585E+06 -2.060042E-09  1.058297E-09
         5  13 -9.793847E+06 -1.615204E+06 -4.359151E+05 -3.630084E+06 -4.628888E-09  2.460383E-11
         5  14 -9.751595E+06 -1.316823E+06 -1.958112E+05 -3.666301E+06  4.622067E-09  9.405664E-10
         5  15 -9.762238E+06 -1.400529E+06 -1.177434E+05 -3.709820E+06 -9.140494E-09  1.267566E-09
         5  16 -1.018760E+07 -1.739579E+06 -5.401801E+05 -3.710586E+06  3.753915E-09  2.092886E-09
         5  17 -1.018023E+07 -1.473710E+06 -3.133835E+05 -3.776130E+06 -4.592440E-09  2.782781E-09
         5  18 -1.022589E+07 -1.590114E+06 -2.489345E+05 -3.848956E+06 -1.978825E-09  3.033379E-09
         5  19 -9.399850E+06 -1.490794E+06 -3.314794E+05 -3.549514E+06  2.886862E+05  1.119417E+05
         5  20 -9.322737E+06 -1.159913E+06 -7.817983E+04 -3.556392E+06  1.840169E+05  7.565575E+04
         5  21 -9.298369E+06 -1.210919E+06  1.344203E+04 -3.570583E+06  8.009279E+04  3.732931E+04
         5  22 -9.793753E+06 -1.615167E+06 -4.357310E+05 -3.630058E+06  2.891663E+05  1.121365E+05
         5  23 -9.751556E+06 -1.316807E+06 -1.957353E+05 -3.666289E+06  1.842012E+05  7.572758E+04
         5  24 -9.762231E+06 -1.400526E+06 -1.177285E+05 -3.709818E+06  7.998805E+04  3.728810E+04
         5  25 -1.018750E+07 -1.739542E+06 -5.399953E+05 -3.710559E+06  2.896459E+05  1.123313E+05
         5  26 -1.018020E+07 -1.473695E+06 -3.133074E+05 -3.776119E+06  1.843853E+05  7.579934E+04
         5  27 -1.022588E+07 -1.590111E+06 -2.489197E+05 -3.848953E+06  7.988338E+04  3.724691E+04
         6   1 -9.208332E+06 -1.197840E+06  6.283031E+04 -3.510125E+06 -6.204122E+04 -3.120190E+04
         6   2 -9.205408E+06 -1.185697E+06  1.040707E+05 -3.547803E+06 -3.867634E+04 -2.313940E+04
         6   3 -9.257778E+06 -1.180375E+06  1.162146E+05 -3.530266E+06 -1.645352E+04 -1.206618E+04
         6   4 -9.776312E+06 -1.410778E+06 -9.399831E+04 -3.660940E+06 -6.237903E+04 -3.133020E+04
         6   5 -9.746226E+06 -1.391434E+06 -4.573878E+04 -3.694481E+06 -3.850084E+04 -2.307365E+04
         6   6 -9.771559E+06 -1.379037E+06 -2.700986E+04 -3.672802E+06 -1.576409E+04 -1.180497E+04
         6   7 -1.034398E+07 -1.623702E+06 -2.508572E+05 -3.811629E+06 -6.271646E+04 -3.145837E+04
         6   8 -1.028676E+07 -1.597154E+06 -1.955759E+05 -3.841043E+06 -3.832551E+04 -2.300796E+04
         6   9 -1.028508E+07 -1.577682E+06 -1.702594E+05 -3.815230E+06 -1.507530E+04 -1.154401E+04
         6  10 -9.208336E+06 -1.197842E+06  6.282109E+04 -3.510126E+06 -4.620498E-09  4.653081E-10
         6  11 -9.205410E+06 -1.185698E+06  1.040668E+05 -3.547803E+06 -1.753439E-09  1.877824E-10
         6  12 -9.257778E+06 -1.180375E+06  1.162138E+05 -3.530266E+06 -2.594992E-09  1.021671E-09
         6  13 -9.776317E+06 -1.410781E+06 -9.400763E+04 -3.660941E+06 -4.622167E-09  3.783780E-10
         6  14 -9.746228E+06 -1.391435E+06 -4.574264E+04 -3.694482E+06 -6.891563E-09  1.055247E-09
         6  15 -9.771559E+06 -1.379037E+06 -2.701060E+04 -3.672802E+06  1.225720E-09  4.983372E-11
         6  16 -1.034398E+07 -1.623704E+06 -2.508666E+05 -3.811631E+06  1.167110E-09  1.658639E-09
         6  17 -1.028676E+07 -1.597155E+06 -1.955797E+05 -3.841043E+06 -9.444563E-10 -3.356719E-09
         6  18 -1.028508E+07 -1.577682E+06 -1.702601E+05 -3.815230E+06  3.105285E-09 -5.862182E-10
         6  19 -9.208332E+06 -1.197840E+06  6.283031E+04 -3.510125E+06  6.204122E+04  3.120190E+04
         6  20 -9.205408E+06 -1.185697E+06  1.040707E+05 -3.547803E+06  3.867634E+04  2.313940E+04
         6  21 -9.257778E+06 -1.180375E+06  1.162146E+05 -3.530266E+06  1.645352E+04  1.206618E+04
         6  22 -9.776312E+06 -1.410778E+06 -9.399831E+04 -3.660940E+06  6.237903E+04  3.133020E+04
         6  23 -9.746226E+06 -1.391434E+06 -4.573878E+04 -3.694481E+06  3.850084E+04  2.307365E+04
         6  24 -9.771559E+06 -1.379037E+06 -2.700986E+04 -3.672802E+06  1.576409E+04  1.180497E+04
         6  25 -1.034398E+07 -1.623702E+06 -2.508572E+05 -3.811629E+06  6.271646E+04  3.145837E+04
         6  26 -1.028676E+07 -1.597154E+06 -1.955759E+05 -3.841043E+06  3.832551E+04  2.300796E+04
         6  27 -1.028508E+07 -1.577682E+06 -1.702594E+05 -3.815230E+06  1.507530E+04  1.154401E+04
         7   1 -9.639160E+06 -1.312362E+06  1.888037E+04 -3.612015E+06 -1.282492E+04 -8.619210E+03
         7   2 -9.653644E+06 -1.388670E+06  8.420472E+03 -3.695267E+06 -7.374860E+03 -3.990039E+03
         7   3 -9.782508E+06 -1.362433E+06 -8.964647E+03 -3.652066E+06 -2.083386E+03  1.051897E+03
         7   4 -9.786546E+06 -1.368250E+06 -2.175869E+04 -3.651833E+06 -1.246276E+04 -8.481763E+03
         7   5 -9.729004E+06 -1.417459E+06 -1.248403E+04 -3.715821E+06 -6.940901E+03 -3.825224E+03
         7   6 -9.785862E+06 -1.364137E+06 -1.019314E+04 -3.653356E+06 -1.576822E+03  1.244424E+03
         7   7 -9.933911E+06 -1.424136E+06 -6.239968E+04 -3.691643E+06 -1.210069E+04 -8.344352E+03
         7   8 -9.804359E+06 -1.446248E+06 -3.338905E+04 -3.736372E+06 -6.507001E+03 -3.660432E+03
         7   9 -9.789217E+06 -1.365842E+06 -1.142164E+04 -3.654646E+06 -1.070261E+03  1.436949E+03
         7  10 -9.639160E+06 -1.312362E+06  1.887992E+04 -3.612015E+06 -1.322331E-09 -1.533175E-09
         7  11 -9.653644E+06 -1.388670E+06  8.420338E+03 -3.695267E+06  5.410870E-09 -4.802747E-09
         7  12 -9.782508E+06 -1.362433E+06 -8.964657E+03 -3.652066E+06 -2.280381E-10 -1.787979E-09
         7  13 -9.786546E+06 -1.368250E+06 -2.175912E+04 -3.651833E+06  2.019617E-09 -1.323109E-09
         7  14 -9.729004E+06 -1.417459E+06 -1.248415E+04 -3.715821E+06 -2.474872E-09 -3.868606E-09
         7  15 -9.785862E+06 -1.364137E+06 -1.019315E+04 -3.653356E+06  2.848146E-09 -1.426333E-09
         7  16 -9.933911E+06 -1.424136E+06 -6.240010E+04 -3.691643E+06  7.005875E-10  1.783594E-09
         7  17 -9.804359E+06 -1.446248E+06 -3.338916E+04 -3.736372E+06 -2.038520E-09 -4.142630E-10
         7  18 -9.789217E+06 -1.365842E+06 -1.142164E+04 -3.654646E+06  7.302234E-11 -2.500399E-09
         7  19 -9.639160E+06 -1.312362E+06  1.888037E+04 -3.612015E+06  1.282492E+04  8.619210E+03
         7  20 -9.653644E+06 -1.388670E+06  8.420472E+03 -3.695267E+06  7.374860E+03  3.990039E+03
         7  21 -9.782508E+06 -1.362433E+06 -8.964647E+03 -3.652066E+06  2.083386E+03 -1.051897E+03
         7  22 -9.786546E+06 -1.368250E+06 -2.175869E+04 -3.651833E+06  1.246276E+04  8.481763E+03
         7  23 -9.729004E+06 -1.417459E+06 -1.248403E+04 -3.715821E+06  6.940901E+03  3.825224E+03
         7  24 -9.785862E+06 -1.364137E+06 -1.019314E+04 -3.653356E+06  1.576822E+03 -1.244424E+03
         7  25 -9.933911E+06 -1.424136E+06 -6.239968E+04 -3.691643E+06  1.210069E+04  8.344352E+03
         7  26 -9.804359E+06 -1.446248E+06 -3.338905E+04 -3.736372E+06  6.507001E+03  3.660432E+03
         7  27 -9.789217E+06 -1.365842E+06 -1.142164E+04 -3.654646E+06  1.070261E+03 -1.436949E+03
         8   1 -1.020264E+07 -1.538524E+06 -1.291008E+05 -3.782268E+06 -1.460770E+03  3.736561E+03
         8   2 -1.021232E+07 -1.584324E+06 -1.427244E+05 -3.829634E+06  4.233940E+03  9.023430E+03
         8   3 -1.028750E+07 -1.573261E+06 -1.629373E+05 -3.802203E+06  1.093232E+04  1.166858E+04
         8   4 -9.775028E+06 -1.374272E+06 -9.994965E+03 -3.664853E+06 -7.421534E+02  4.009250E+03
         8   5 -9.742649E+06 -1.404795E+06 -1.238167E+04 -3.701487E+06  4.489104E+03  9.119651E+03
         8   6 -9.775667E+06 -1.378360E+06 -2.098034E+04 -3.663331E+06  1.072418E+04  1.158950E+04
         8   7 -9.347236E+06 -1.210010E+06  1.090935E+05 -3.547363E+06 -2.298238E+01  4.282150E+03
         8   8 -9.272763E+06 -1.225253E+06  1.179404E+05 -3.573252E+06  4.744482E+03  9.215954E+03
         8   9 -9.263582E+06 -1.183444E+06  1.209522E+05 -3.524353E+06  1.051583E+04  1.151035E+04
         8  10 -1.020264E+07 -1.538524E+06 -1.291008E+05 -3.782268E+06 -1.258271E-09  2.534542E-10
         8  11 -1.021232E+07 -1.584324E+06 -1.427246E+05 -3.829634E+06  3.136859E-09 -6.915988E-11
         8  12 -1.028750E+07 -1.573261E+06 -1.629377E+05 -3.802203E+06 -2.051169E-09 -1.398256E-09
         8  13 -9.775028E+06 -1.374272E+06 -9.994996E+03 -3.664853E+06  2.844519E-09 -2.282084E-10
         8  14 -9.742649E+06 -1.404795E+06 -1.238186E+04 -3.701487E+06  4.823919E-10  5.099901E-10
         8  15 -9.775667E+06 -1.378361E+06 -2.098082E+04 -3.663331E+06  1.542597E-09  1.891606E-11
         8  16 -9.347236E+06 -1.210010E+06  1.090935E+05 -3.547363E+06 -1.040235E-09 -2.654509E-09
         8  17 -9.272763E+06 -1.225253E+06  1.179402E+05 -3.573252E+06 -2.858221E-09  1.231049E-09
         8  18 -9.263583E+06 -1.183445E+06  1.209517E+05 -3.524353E+06 -2.101129E-09 -4.032239E-10
         8  19 -1.020264E+07 -1.538524E+06 -1.291008E+05 -3.782268E+06  1.460770E+03 -3.736561E+03
         8  20 -1.021232E+07 -1.584324E+06 -1.427244E+05 -3.829634E+06 -4.233940E+03 -9.023430E+03
         8  21 -1.028750E+07 -1.573261E+06 -1.629373E+05 -3.802203E+06 -1.093232E+04 -1.166858E+04
         8  22 -9.775028E+06 -1.374272E+06 -9.994965E+03 -3.664853E+06  7.421534E+02 -4.009250E+03
         8  23 -9.742649E+06 -1.404795E+06 -1.238167E+04 -3.701487E+06 -4.489104E+03 -9.119651E+03
         8  24 -9.775667E+06 -1.378360E+06 -2.098034E+04 -3.663331E+06 -1.072418E+04 -1.158950E+04
         8  25 -9.347236E+06 -1.210010E+06  1.090935E+05 -3.547363E+06  2.298238E+01 -4.282150E+03
         8  26 -9.272763E+06 -1.225253E+06  1.179404E+05 -3.573252E+06 -4.744482E+03 -9.215954E+03
         8  27 -9.263582E+06 -1.183444E+06  1.209522E+05 -3.524353E+06 -1.051583E+04 -1.151035E+04
         9   1 -1.029424E+07 -1.607762E+06 -1.771374E+05 -3.844587E+06  1.421885E+04  1.306054E+04
         9   2 -1.028236E+07 -1.560876E+06 -1.858175E+05 -3.804240E+06  3.744651E+04  2.211416E+04
         9   3 -1.023679E+07 -1.608480E+06 -2.235049E+05 -3.810275E+06  6.173013E+04  2.835221E+04
         9   4 -9.751779E+06 -1.398971E+06 -2.619825E+04 -3.695147E+06  1.452540E+04  1.317568E+04
         9   5 -9.770965E+06 -1.366978E+06 -4.420572E+04 -3.666327E+06  3.727278E+04  2.204832E+04
         9   6 -9.756351E+06 -1.429350E+06 -9.081696E+04 -3.683890E+06  6.107440E+04  2.810576E+04
         9   7 -9.209026E+06 -1.190162E+06  1.247132E+05 -3.545586E+06  1.483224E+04  1.329093E+04
         9   8 -9.259313E+06 -1.173065E+06  9.738159E+04 -3.528311E+06  3.709887E+04  2.198242E+04
         9   9 -9.275688E+06 -1.250210E+06  4.184950E+04 -3.557417E+06  6.041809E+04  2.785909E+04
         9  10 -1.029425E+07 -1.607762E+06 -1.771381E+05 -3.844587E+06 -2.348002E-09 -3.745684E-10
         9  11 -1.028236E+07 -1.560877E+06 -1.858211E+05 -3.804241E+06 -6.996514E-09  1.884249E-09
         9  12 -1.023679E+07 -1.608482E+06 -2.235138E+05 -3.810276E+06  5.872373E-09 -1.599284E-09
         9  13 -9.751779E+06 -1.398972E+06 -2.619898E+04 -3.695147E+06  3.105782E-09 -9.693170E-10
         9  14 -9.770967E+06 -1.366978E+06 -4.420931E+04 -3.666328E+06 -4.107041E-09 -3.405507E-09
         9  15 -9.756355E+06 -1.429352E+06 -9.082560E+04 -3.683892E+06 -4.012708E-09 -7.954049E-10
         9  16 -9.209027E+06 -1.190163E+06  1.247124E+05 -3.545586E+06  1.499101E-09 -2.072309E-09
         9  17 -9.259314E+06 -1.173065E+06  9.737804E+04 -3.528311E+06 -1.208788E-09 -4.669559E-09
         9  18 -9.275692E+06 -1.250212E+06  4.184104E+04 -3.557418E+06 -2.299076E-09  7.382736E-10
         9  19 -1.029424E+07 -1.607762E+06 -1.771374E+05 -3.844587E+06 -1.421885E+04 -1.306054E+04
         9  20 -1.028236E+07 -1.560876E+06 -1.858175E+05 -3.804240E+06 -3.744651E+04 -2.211416E+04
         9  21 -1.023679E+07 -1.608480E+06 -2.235049E+05 -3.810275E+06 -6.173013E+04 -2.835221E+04
         9  22 -9.751779E+06 -1.398971E+06 -2.619825E+04 -3.695147E+06 -1.452540E+04 -1.317568E+04
         9  23 -9.770965E+06 -1.366978E+06 -4.420572E+04 -3.666327E+06 -3.727278E+04 -2.204832E+04
         9  24 -9.756351E+06 -1.429350E+06 -9.081696E+04 -3.683890E+06 -6.107440E+04 -2.810576E+04
         9  25 -9.209026E+06 -1.190162E+06  1.247132E+05 -3.545586E+06 -1.483224E+04 -1.329093E+04
         9  26 -9.259313E+06 -1.173065E+06  9.738159E+04 -3.528311E+06 -3.709887E+04 -2.198242E+04
         9  27 -9.275688E+06 -1.250210E+06  4.184950E+04 -3.557417E+06 -6.041809E+04 -2.785909E+04
        10   1 -9.820090E+06 -1.446149E+06 -1.344498E+05 -3.749487E+06  7.921540E+04  3.245670E+04
        10   2 -9.768822E+06 -1.305184E+06 -1.897230E+05 -3.650239E+06  1.805035E+05  6.749710E+04
        10   3 -9.732277E+06 -1.572093E+06 -4.018665E+05 -3.602515E+06  2.815294E+05  1.032679E+05
        10   4 -9.754108E+06 -1.408590E+06 -1.138461E+05 -3.718745E+06  7.870410E+04  3.226735E+04
        10   5 -9.761944E+06 -1.308433E+06 -1.889801E+05 -3.654408E+06  1.801207E+05  6.735160E+04
        10   6 -9.784550E+06 -1.616185E+06 -4.210971E+05 -3.641604E+06  2.812646E+05  1.031546E+05
        10   7 -9.688120E+06 -1.371028E+06 -9.324284E+04 -3.687998E+06  7.819273E+04  3.207795E+04
        10   8 -9.755066E+06 -1.311681E+06 -1.882371E+05 -3.658578E+06  1.797379E+05  6.720611E+04
        10   9 -9.836818E+06 -1.660272E+06 -4.403278E+05 -3.680690E+06  2.809998E+05  1.030414E+05
        10  10 -9.820097E+06 -1.446152E+06 -1.344638E+05 -3.749489E+06  3.675014E-09  7.727967E-10
        10  11 -9.768859E+06 -1.305198E+06 -1.897940E+05 -3.650248E+06  8.842093E-10 -3.209613E-09
        10  12 -9.732366E+06 -1.572126E+06 -4.020385E+05 -3.602538E+06  2.975164E-10 -2.021007E-09
        10  13 -9.754115E+06 -1.408593E+06 -1.138600E+05 -3.718747E+06  4.747262E-09 -4.581570E-10
        10  14 -9.761981E+06 -1.308446E+06 -1.890508E+05 -3.654418E+06  1.009817E-09 -1.955160E-10
        10  15 -9.784639E+06 -1.616218E+06 -4.212689E+05 -3.641628E+06 -3.274409E-09 -2.837501E-10
        10  16 -9.688127E+06 -1.371031E+06 -9.325650E+04 -3.688001E+06 -3.708947E-09 -9.649513E-10
        10  17 -9.755102E+06 -1.311695E+06 -1.883076E+05 -3.658587E+06 -4.493470E-09  5.043606E-10
        10  18 -9.836907E+06 -1.660306E+06 -4.404992E+05 -3.680714E+06 -1.531816E-10  2.497540E-10
        10  19 -9.820090E+06 -1.446149E+06 -1.344498E+05 -3.749487E+06 -7.921540E+04 -3.245670E+04
        10  20 -9.768822E+06 -1.305184E+06 -1.897230E+05 -3.650239E+06 -1.805035E+05 -6.749710E+04
        10  21 -9.732277E+06 -1.572093E+06 -4.018665E+05 -3.602515E+06 -2.815294E+05 -1.032679E+05
        10  22 -9.754108E+06 -1.408590E+06 -1.138461E+05 -3.718745E+06 -7.870410E+04 -3.226735E+04
        10  23 -9.761944E+06 -1.308433E+06 -1.889801E+05 -3.654408E+06 -1.801207E+05 -6.735160E+04
        10  24 -9.784550E+06 -1.616185E+06 -4.210971E+05 -3.641604E+06 -2.812646E+05 -1.031546E+05
        10  25 -9.688120E+06 -1.371028E+06 -9.324284E+04 -3.687998E+06 -7.819273E+04 -3.207795E+04
        10  26 -9.755066E+06 -1.311681E+06 -1.882371E+05 -3.658578E+06 -1.797379E+05 -6.720611E+04
        10  27 -9.836818E+06 -1.660272E+06 -4.403278E+05 -3.680690E+06 -2.809998E+05 -1.030414E+05
        11   1 -9.325151E+06 -1.248305E+06 -3.787271E+05 -3.696539E+06  3.603410E+05  1.296326E+05
        11   2 -9.107925E+06 -8.210989E+05 -6.675945E+05 -3.551269E+06  8.069110E+05  2.944336E+05
        11   3 -9.648657E+06 -2.435057E+06 -1.836652E+06 -2.944649E+06  1.250149E+06  4.683085E+05
        11   4 -9.861728E+06 -1.368997E+06 -5.109060E+05 -3.756248E+06  3.588966E+05  1.291524E+05
        11   5 -9.585097E+06 -1.046245E+06 -8.084540E+05 -3.725427E+06  8.067206E+05  2.942893E+05
        11   6 -1.006738E+07 -2.765956E+06 -1.987763E+06 -3.233048E+06  1.251259E+06  4.682885E+05
        11   7 -1.039801E+07 -1.489697E+06 -6.431015E+05 -3.815931E+06  3.574535E+05  1.286723E+05
        11   8 -1.006204E+07 -1.271338E+06 -9.493361E+05 -3.899449E+06  8.065301E+05  2.941450E+05
        11   9 -1.048585E+07 -3.096589E+06 -2.138882E+06 -3.521210E+06  1.252369E+06  4.682670E+05
        11  10 -9.325297E+06 -1.248359E+06 -3.790076E+05 -3.696577E+06  2.559195E-09 -3.772433E-10
        11  11 -9.108657E+06 -8.213718E+05 -6.690051E+05 -3.551462E+06  3.168455E-09  6.604639E-10
        11  12 -9.650419E+06 -2.435724E+06 -1.840060E+06 -2.945125E+06 -3.430556E-09 -1.415001E-10
        11  13 -9.861873E+06 -1.369050E+06 -5.111845E+05 -3.756286E+06 -2.793238E-09 -1.263259E-09
        11  14 -9.585829E+06 -1.046518E+06 -8.098651E+05 -3.725620E+06 -1.589421E-09 -1.226604E-09
        11  15 -1.006914E+07 -2.766625E+06 -1.991179E+06 -3.233526E+06  1.125202E-09 -1.279430E-10
        11  16 -1.039816E+07 -1.489750E+06 -6.433780E+05 -3.815968E+06 -2.227817E-09 -1.317668E-09
        11  17 -1.006277E+07 -1.271611E+06 -9.507478E+05 -3.899643E+06  1.435809E-10  7.863108E-10
        11  18 -1.048762E+07 -3.097260E+06 -2.142306E+06 -3.521689E+06  1.512249E-09 -2.029236E-10
        11  19 -9.325151E+06 -1.248305E+06 -3.787271E+05 -3.696539E+06 -3.603410E+05 -1.296326E+05
        11  20 -9.107925E+06 -8.210989E+05 -6.675945E+05 -3.551269E+06 -8.069110E+05 -2.944336E+05
        11  21 -9.648657E+06 -2.435057E+06 -1.836652E+06 -2.944649E+06 -1.250149E+06 -4.683085E+05
        11  22 -9.861728E+06 -1.368997E+06 -5.109060E+05 -3.756248E+06 -3.588966E+05 -1.291524E+05
        11  23 -9.585097E+06 -1.046245E+06 -8.084540E+05 -3.725427E+06 -8.067206E+05 -2.942893E+05
        11  24 -1.006738E+07 -2.765956E+06 -1.987763E+06 -3.233048E+06 -1.251259E+06 -4.682885E+05
        11  25 -1.039801E+07 -1.489697E+06 -6.431015E+05 -3.815931E+06 -3.574535E+05 -1.286723E+05
        11  26 -1.006204E+07 -1.271338E+06 -9.493361E+05 -3.899449E+06 -8.065301E+05 -2.941450E+05
        11  27 -1.048585E+07 -3.096589E+06 -2.138882E+06 -3.521210E+06 -1.252369E+06 -4.682670E+05
        12   1  2.358034E+04 -2.263861E+05  3.091141E+04 -5.737829E+02  2.809672E+02 -7.248867E+02
        12   2  2.159546E+04 -2.284017E+05  3.203055E+04  5.533210E+02  3.037731E+02 -5.414669E+03
        12   3  2.792349E+04 -2.267010E+05  3.848767E+04 -3.868876E+02  2.496380E+02 -1.010462E+04
        12   4  6.172267E+02 -3.182181E+05  7.955424E+03 -4.610577E+02  2.809702E+02 -7.277155E+02
        12   5 -1.301710E+03 -3.199704E+05  9.140966E+03  5.755688E+02  3.037750E+02 -5.413200E+03
        12   6  5.092123E+03 -3.180069E+05  1.566201E+04 -4.551365E+02  2.496352E+02 -1.009885E+04
        12   7 -2.234652E+04 -4.100425E+05 -1.500120E+04 -3.483488E+02  2.809731E+02 -7.305440E+02
        12   8 -2.419951E+04 -4.115316E+05 -1.374925E+04  5.978148E+02  3.037769E+02 -5.411732E+03
        12   9 -1.773988E+04 -4.093053E+05 -7.164287E+03 -5.233728E+02  2.496323E+02 -1.009309E+04
        12  10  2.358033E+04 -2.263861E+05  3.091141E+04 -5.737827E+02 -4.091069E-09  2.430502E-10
        12  11  2.159545E+04 -2.284017E+05  3.203050E+04  5.533223E+02 -4.897946E-09 -2.055449E-10
        12  12  2.792346E+04 -2.267011E+05  3.848748E+04 -3.868856E+02 -2.297766E-09 -8.054735E-11
        12  13  6.172265E+02 -3.182181E+05  7.955423E+03 -4.610575E+02 -2.013457E-09 -1.085111E-10
        12  14 -1.301718E+03 -3.199705E+05  9.140911E+03  5.755701E+02  8.584142E-10 -1.973764E-12
        12  15  5.092096E+03 -3.180070E+05  1.566182E+04 -4.551345E+02  3.528323E-10 -8.056558E-10
        12  16 -2.234652E+04 -4.100425E+05 -1.500120E+04 -3.483486E+02  2.135100E-10 -2.405963E-10
        12  17 -2.419952E+04 -4.115316E+05 -1.374931E+04  5.978161E+02  2.210689E-09  3.017174E-10
        12  18 -1.773990E+04 -4.093054E+05 -7.164479E+03 -5.233708E+02  2.370191E-09 -1.954123E-10
        12  19  2.358033E+04 -2.263861E+05  3.091141E+04 -5.737829E+02 -2.809672E+02  7.248867E+02
        12  20  2.159546E+04 -2.284017E+05  3.203055E+04  5.533210E+02 -3.037731E+02  5.414669E+03
        12  21  2.792349E+04 -2.267010E+05  3.848767E+04 -3.868876E+02 -2.496380E+02  1.010462E+04
        12  22  6.172267E+02 -3.182181E+05  7.955424E+03 -4.610577E+02 -2.809702E+02  7.277155E+02
        12  23 -1.301710E+03 -3.199704E+05  9.140966E+03  5.755688E+02 -3.037750E+02  5.413200E+03
        12  24  5.092123E+03 -3.180069E+05  1.566201E+04 -4.551365E+02 -2.496352E+02  1.009885E+04
        12  25 -2.234652E+04 -4.100425E+05 -1.500120E+04 -3.483488E+02 -2.809731E+02  7.305440E+02
        12  26 -2.419951E+04 -4.115316E+05 -1.374925E+04  5.978148E+02 -3.037769E+02  5.411732E+03
        12  27 -1.773988E+04 -4.093053E+05 -7.164287E+03 -5.233728E+02 -2.496323E+02  1.009309E+04
        13   1  1.183963E+04 -2.660403E+05  3.136477E+04 -1.768532E+03  2.171145E+02 -1.323382E+04
        13   2  4.966409E+03 -2.735298E+05  4.157037E+04  1.620849E+03  2.115793E+02 -2.859880E+04
        13   3  4.359645E+04 -2.673697E+05  7.321361E+04 -1.815451E+02  1.887051E+02 -4.396391E+04
        13   4 -5.855560E+02 -3.157211E+05  1.894636E+04 -1.177052E+03  2.171014E+02 -1.323209E+04
        13   5 -7.288445E+03 -3.225407E+05  2.931887E+04  1.453722E+03  2.115841E+02 -2.859517E+04
        13   6  3.151351E+04 -3.157101E+05  6.112888E+04 -1.107306E+03  1.887647E+02 -4.395841E+04
        13   7 -1.301093E+04 -3.653998E+05  6.527768E+03 -5.856184E+02  2.170882E+02 -1.323035E+04
        13   8 -1.954348E+04 -3.715495E+05  1.706719E+04  1.286608E+03  2.115890E+02 -2.859154E+04
        13   9  1.943040E+04 -3.640484E+05  4.904396E+04 -2.032994E+03  1.888242E+02 -4.395291E+04
        13  10  1.183959E+04 -2.660404E+05  3.136444E+04 -1.768529E+03 -1.048541E-10  1.851759E-10
        13  11  4.966190E+03 -2.735306E+05  4.156883E+04  1.620854E+03 -7.463184E-10 -5.764976E-10
        13  12  4.359593E+04 -2.673718E+05  7.320998E+04 -1.815384E+02 -1.737463E-09 -2.078755E-10
        13  13 -5.856030E+02 -3.157213E+05  1.894603E+04 -1.177049E+03 -2.146416E-09 -8.666651E-10
        13  14 -7.288665E+03 -3.225416E+05  2.931733E+04  1.453726E+03  8.023585E-09  1.494896E-11
        13  15  3.151299E+04 -3.157122E+05  6.112524E+04 -1.107299E+03  5.537120E-09 -1.297026E-09
        13  16 -1.301098E+04 -3.653999E+05  6.527438E+03 -5.856160E+02 -3.066931E-09 -2.107995E-10
        13  17 -1.954370E+04 -3.715504E+05  1.706566E+04  1.286613E+03  5.141298E-09  8.327141E-10
        13  18  1.942988E+04 -3.640505E+05  4.904033E+04 -2.032987E+03  1.491659E-09 -2.617317E-10
        13  19  1.183963E+04 -2.660403E+05  3.136477E+04 -1.768532E+03 -2.171145E+02  1.323382E+04
        13  20  4.966409E+03 -2.735298E+05  4.157037E+04  1.620849E+03 -2.115793E+02  2.859880E+04
        13  21  4.359645E+04 -2.673697E+05  7.321361E+04 -1.815451E+02 -1.887051E+02  4.396391E+04
        13  22 -5.855560E+02 -3.157211E+05  1.894636E+04 -1.177052E+03 -2.171014E+02  1.323209E+04
        13  23 -7.288445E+03 -3.225407E+05  2.931887E+04  1.453722E+03 -2.115841E+02  2.859517E+04
        13  24  3.151351E+04 -3.157101E+05  6.112888E+04 -1.107306E+03 -1.887647E+02  4.395841E+04
        13  25 -1.301093E+04 -3.653998E+05  6.527768E+03 -5.856184E+02 -2.170882E+02  1.323035E+04
        13  26 -1.954348E+04 -3.715495E+05  1.706719E+04  1.286608E+03 -2.115890E+02  2.859154E+04
        13  27  1.943040E+04 -3.640484E+05  4.904396E+04 -2.032994E+03 -1.888242E+02  4.395291E+04
        14   1 -9.836396E+03 -3.164633E+05  6.972888E+04 -4.705986E+03  1.453583E+02 -5.620584E+04
        14   2 -5.207689E+04 -3.574443E+05  1.072822E+05  3.325528E+03  1.803565E+02 -1.170986E+05
        14   3  1.950506E+05 -3.181332E+05  2.568531E+05  5.748748E+03  3.292805E+02 -1.779889E+05
        14   4 -5.984382E+03 -3.009858E+05  7.359626E+04 -1.394676E+03  1.450410E+02 -5.619920E+04
        14   5 -4.800950E+04 -3.412160E+05  1.113402E+05  1.621465E+03  1.806738E+02 -1.170989E+05
        14   6  1.993305E+05 -3.011549E+05  2.611045E+05 -9.708651E+02  3.312154E+02 -1.779962E+05
        14   7 -2.132345E+03 -2.855082E+05  7.746363E+04  1.916716E+03  1.447237E+02 -5.619255E+04
        14   8 -4.394212E+04 -3.249874E+05  1.153983E+05 -8.264303E+01  1.809911E+02 -1.170991E+05
        14   9  2.036104E+05 -2.841764E+05  2.653558E+05 -7.690663E+03  3.331505E+02 -1.780034E+05
        14  10 -9.837245E+03 -3.164667E+05  6.972294E+04 -4.705979E+03 -1.129065E-09 -9.836503E-11
        14  11 -5.208057E+04 -3.574590E+05  1.072564E+05  3.325545E+03 -2.454020E-09 -7.664632E-10
        14  12  1.950421E+05 -3.181672E+05  2.567935E+05  5.748796E+03 -2.881159E-09 -5.862745E-10
        14  13 -5.985230E+03 -3.009892E+05  7.359032E+04 -1.394669E+03  2.193058E-09 -1.108817E-09
        14  14 -4.801318E+04 -3.412307E+05  1.113145E+05  1.621482E+03 -5.887171E-09 -1.602836E-11
        14  15  1.993219E+05 -3.011890E+05  2.610449E+05 -9.708176E+02 -3.961638E-10 -1.264055E-09
        14  16 -2.133193E+03 -2.855116E+05  7.745769E+04  1.916723E+03  5.726380E-09  1.457641E-10
        14  17 -4.394580E+04 -3.250022E+05  1.153725E+05 -8.262596E+01  2.725648E-09  1.035060E-09
        14  18  2.036019E+05 -2.842104E+05  2.652963E+05 -7.690615E+03 -3.042077E-09  6.457451E-11
        14  19 -9.836396E+03 -3.164633E+05  6.972888E+04 -4.705986E+03 -1.453583E+02  5.620584E+04
        14  20 -5.207689E+04 -3.574443E+05  1.072822E+05  3.325528E+03 -1.803565E+02  1.170986E+05
        14  21  1.950506E+05 -3.181332E+05  2.568531E+05  5.748748E+03 -3.292805E+02  1.779889E+05
        14  22 -5.984382E+03 -3.009858E+05  7.359626E+04 -1.394676E+03 -1.450410E+02  5.619920E+04
        14  23 -4.800950E+04 -3.412160E+05  1.113402E+05  1.621465E+03 -1.806738E+02  1.170989E+05
        14  24  1.993305E+05 -3.011549E+05  2.611045E+05 -9.708651E+02 -3.312154E+02  1.779962E+05
        14  25 -2.132345E+03 -2.855082E+05  7.746363E+04  1.916716E+03 -1.447237E+02  5.619255E+04
        14  26 -4.394212E+04 -3.249874E+05  1.153983E+05 -8.264303E+01 -1.809911E+02  1.170991E+05
        14  27  2.036104E+05 -2.841764E+05  2.653558E+05 -7.690663E+03 -3.331505E+02  1.780034E+05
        15   1  1.407562E+05 -7.908146E+05  1.356445E+05 -2.744896E+02  1.864541E+04 -4.469088E+00
        15   2  1.403604E+05 -7.925137E+05  1.352272E+05  1.279406E+02  1.860690E+04  7.718994E+00
        15   3  1.400013E+05 -7.938776E+05  1.348805E+05 -5.710655E+02  1.851756E+04  1.981138E+01
        15   4 -5.414849E+01 -1.358519E+06 -3.835226E+01 -2.447797E+02  1.864655E+04  2.441469E+00
        15   5 -6.886228E+01 -1.358685E+06 -8.509270E+01  3.059795E+02  1.860802E+04  4.141876E+01
        15   6 -5.162779E+01 -1.358519E+06 -7.985064E+01 -2.447551E+02  1.851864E+04  8.030076E+01
        15   7 -1.408879E+05 -1.925928E+06 -1.357439E+05 -2.150900E+02  1.864769E+04  9.345728E+00
        15   8 -1.405214E+05 -1.924561E+06 -1.354200E+05  4.838858E+02  1.860914E+04  7.508788E+01
        15   9 -1.401277E+05 -1.922868E+06 -1.350628E+05  8.131117E+01  1.851971E+04  1.407353E+02
        15  10  1.407558E+05 -7.908147E+05  1.356438E+05 -2.744896E+02  3.864477E-09  2.995810E-09
        15  11  1.403600E+05 -7.925138E+05  1.352266E+05  1.279405E+02  1.274158E-08  4.561595E-10
        15  12  1.400010E+05 -7.938776E+05  1.348799E+05 -5.710658E+02  3.905869E-09 -1.251681E-09
        15  13 -5.452162E+01 -1.358520E+06 -3.900523E+01 -2.447797E+02  6.105639E-09  7.928882E-11
        15  14 -6.923387E+01 -1.358685E+06 -8.574298E+01  3.059789E+02  4.632787E-09 -2.405350E-10
        15  15 -5.199581E+01 -1.358519E+06 -8.049469E+01 -2.447563E+02  3.285756E-09 -2.235528E-10
        15  16 -1.408882E+05 -1.925928E+06 -1.357446E+05 -2.150901E+02  2.753852E-09 -3.117627E-09
        15  17 -1.405218E+05 -1.924561E+06 -1.354207E+05  4.838846E+02  9.851808E-10 -5.947383E-10
        15  18 -1.401281E+05 -1.922868E+06 -1.350634E+05  8.130907E+01  5.750785E-09  1.556086E-09
        15  19  1.407562E+05 -7.908146E+05  1.356445E+05 -2.744896E+02 -1.864541E+04  4.469088E+00
        15  20  1.403604E+05 -7.925137E+05  1.352272E+05  1.279406E+02 -1.860690E+04 -7.718994E+00
        15  21  1.400013E+05 -7.938776E+05  1.348805E+05 -5.710655E+02 -1.851756E+04 -1.981138E+01
        15  22 -5.414849E+01 -1.358519E+06 -3.835226E+01 -2.447797E+02 -1.864655E+04 -2.441469E+00
        15  23 -6.886228E+01 -1.358685E+06 -8.509270E+01  3.059795E+02 -1.860802E+04 -4.141876E+01
        15  24 -5.162779E+01 -1.358519E+06 -7.985064E+01 -2.447551E+02 -1.851864E+04 -8.030076E+01
        15  25 -1.408879E+05 -1.925928E+06 -1.357439E+05 -2.150900E+02 -1.864769E+04 -9.345728E+00
        15  26 -1.405214E+05 -1.924561E+06 -1.354200E+05  4.838858E+02 -1.860914E+04 -7.508788E+01
        15  27 -1.401277E+05 -1.922868E+06 -1.350628E+05  8.131117E+01 -1.851971E+04 -1.407353E+02
        16   1  1.390245E+05 -7.978094E+05  1.338982E+05 -1.106395E+03  1.844315E+04  2.070507E+01
        16   2  1.378773E+05 -8.025373E+05  1.326974E+05  3.866236E+02  1.827717E+04  9.902836E+01
        16   3  1.367633E+05 -8.069599E+05  1.315190E+05 -1.384012E+03  1.806112E+04  1.770706E+02
        16   4 -5.130431E+01 -1.358525E+06 -1.054203E+02 -7.252814E+02  1.844419E+04  9.496706E+01
        16   5 -6.484479E+01 -1.358674E+06 -2.177899E+02  9.066483E+02  1.827814E+04  1.996318E+02
        16   6 -4.984251E+01 -1.358524E+06 -3.262029E+02 -7.252597E+02  1.806198E+04  3.040160E+02
        16   7 -1.391499E+05 -1.918951E+06 -1.341312E+05 -3.444463E+02  1.844523E+04  1.691622E+02
        16   8 -1.380294E+05 -1.914527E+06 -1.331548E+05  1.426293E+03  1.827910E+04  3.001454E+02
        16   9 -1.368850E+05 -1.909808E+06 -1.321929E+05 -6.698606E+01  1.806286E+04  4.308489E+02
        16  10  1.390241E+05 -7.978095E+05  1.338975E+05 -1.106396E+03 -4.656678E-10  2.089314E-09
        16  11  1.378769E+05 -8.025374E+05  1.326968E+05  3.866222E+02  6.402507E-10  3.806987E-10
        16  12  1.367629E+05 -8.069600E+05  1.315184E+05 -1.384015E+03 -1.245005E-09 -1.069070E-09
        16  13 -5.166938E+01 -1.358525E+06 -1.060592E+02 -7.252828E+02 -3.635941E-09  1.448421E-11
        16  14 -6.520332E+01 -1.358674E+06 -2.184174E+02  9.066453E+02 -5.292217E-09 -5.621298E-10
        16  15 -5.019263E+01 -1.358524E+06 -3.268157E+02 -7.252641E+02  3.306108E-10 -5.782474E-10
        16  16 -1.391503E+05 -1.918951E+06 -1.341318E+05 -3.444488E+02 -5.557727E-10 -2.430114E-09
        16  17 -1.380298E+05 -1.914527E+06 -1.331555E+05  1.426288E+03 -5.904791E-10 -7.709967E-10
        16  18 -1.368854E+05 -1.909808E+06 -1.321935E+05 -6.699234E+01 -3.284170E-09  1.540245E-09
        16  19  1.390245E+05 -7.978094E+05  1.338982E+05 -1.106395E+03 -1.844315E+04 -2.070507E+01
        16  20  1.378773E+05 -8.025373E+05  1.326974E+05  3.866236E+02 -1.827717E+04 -9.902836E+01
        16  21  1.367633E+05 -8.069599E+05  1.315190E+05 -1.384012E+03 -1.806112E+04 -1.770706E+02
        16  22 -5.130431E+01 -1.358525E+06 -1.054203E+02 -7.252814E+02 -1.844419E+04 -9.496706E+01
        16  23 -6.484479E+01 -1.358674E+06 -2.177899E+02  9.066483E+02 -1.827814E+04 -1.996318E+02
        16  24 -4.984251E+01 -1.358524E+06 -3.262029E+02 -7.252597E+02 -1.806198E+04 -3.040160E+02
        16  25 -1.391499E+05 -1.918951E+06 -1.341312E+05 -3.444463E+02 -1.844523E+04 -1.691622E+02
        16  26 -1.380294E+05 -1.914527E+06 -1.331548E+05  1.426293E+03 -1.827910E+04 -3.001454E+02
        16  27 -1.368850E+05 -1.909808E+06 -1.321929E+05 -6.698606E+01 -1.806286E+04 -4.308489E+02
        17   1  1.348382E+05 -8.147545E+05  1.295179E+05 -1.883535E+03  1.791389E+04  2.307781E+02
        17   2  1.329648E+05 -8.223960E+05  1.273777E+05  6.698438E+02  1.762276E+04  5.909209E+02
        17   3  1.310391E+05 -8.298301E+05  1.250464E+05 -2.145280E+03  1.728028E+04  9.506013E+02
        17   4 -3.974267E+01 -1.358543E+06 -4.325304E+02 -1.192977E+03  1.791469E+04  3.702780E+02
        17   5 -4.693184E+01 -1.358644E+06 -7.858008E+02  1.491349E+03  1.762343E+04  7.572160E+02
        17   6 -1.111945E+02 -1.358542E+06 -1.349025E+03 -1.193123E+03  1.728080E+04  1.143695E+03
        17   7 -1.349392E+05 -1.902060E+06 -1.304038E+05 -5.029083E+02  1.791550E+04  5.096560E+02
        17   8 -1.330795E+05 -1.894627E+06 -1.289696E+05  2.312275E+03  1.762410E+04  9.233677E+02
        17   9 -1.312818E+05 -1.886997E+06 -1.277642E+05 -2.416299E+02  1.728132E+04  1.336625E+03
        17  10  1.348379E+05 -8.147546E+05  1.295173E+05 -1.883539E+03 -7.392332E-09  1.888109E-09
        17  11  1.329645E+05 -8.223961E+05  1.273771E+05  6.698354E+02 -2.153886E-09 -3.638759E-10
        17  12  1.310388E+05 -8.298301E+05  1.250459E+05 -2.145293E+03  3.913024E-10 -2.325812E-10
        17  13 -4.008712E+01 -1.358543E+06 -4.331333E+02 -1.192983E+03  1.044930E-09  1.126931E-10
        17  14 -4.726529E+01 -1.358644E+06 -7.863851E+02  1.491338E+03  1.095993E-09 -1.157995E-09
        17  15 -1.115153E+02 -1.358542E+06 -1.349589E+03 -1.193139E+03  1.380996E-09 -7.099082E-10
        17  16 -1.349395E+05 -1.902060E+06 -1.304044E+05 -5.029156E+02 -2.296567E-09 -2.194195E-09
        17  17 -1.330798E+05 -1.894627E+06 -1.289702E+05  2.312262E+03  5.811743E-09 -2.724981E-10
        17  18 -1.312821E+05 -1.886997E+06 -1.277648E+05 -2.416485E+02  2.775093E-09  1.029490E-09
        17  19  1.348382E+05 -8.147545E+05  1.295179E+05 -1.883535E+03 -1.791389E+04 -2.307781E+02
        17  20  1.329648E+05 -8.223960E+05  1.273777E+05  6.698438E+02 -1.762276E+04 -5.909209E+02
        17  21  1.310391E+05 -8.298301E+05  1.250464E+05 -2.145280E+03 -1.728028E+04 -9.506013E+02
        17  22 -3.974267E+01 -1.358543E+06 -4.325304E+02 -1.192977E+03 -1.791469E+04 -3.702780E+02
        17  23 -4.693184E+01 -1.358644E+06 -7.858008E+02  1.491349E+03 -1.762343E+04 -7.572160E+02
        17  24 -1.111945E+02 -1.358542E+06 -1.349025E+03 -1.193123E+03 -1.728080E+04 -1.143695E+03
        17  25 -1.349392E+05 -1.902060E+06 -1.304038E+05 -5.029083E+02 -1.791550E+04 -5.096560E+02
        17  26 -1.330795E+05 -1.894627E+06 -1.289696E+05  2.312275E+03 -1.762410E+04 -9.233677E+02
        17  27 -1.312818E+05 -1.886997E+06 -1.277642E+05 -2.416299E+02 -1.728132E+04 -1.336625E+03
        18   1  9.287067E+04  9.913037E+05  5.217171E+04 -4.387821E+00  3.260050E+04  2.171040E-01
        18   2  9.287608E+04  9.913283E+05  5.218041E+04 -2.539737E+01  3.260179E+04 -6.124996E+00
        18   3  9.288279E+04  9.913632E+05  5.219649E+04 -4.312035E+01  3.260438E+04 -1.246672E+01
        18   4 -3.442793E+01  5.785526E+05  1.690284E+01  7.306786E-01  3.260279E+04 -1.316124E+00
        18   5 -3.611758E+01  5.785471E+05  2.012382E+01 -9.122718E-01  3.260408E+04 -1.078778E+01
        18   6 -3.596022E+01  5.785525E+05  3.289035E+01  7.321466E-01  3.260667E+04 -2.025910E+01
        18   7 -9.294645E+04  1.659762E+05 -5.213844E+04  5.846253E+00  3.260507E+04 -2.848384E+00
        18   8 -9.295524E+04  1.659407E+05 -5.214070E+04  2.355861E+01  3.260637E+04 -1.544761E+01
        18   9 -9.296164E+04  1.659167E+05 -5.213125E+04  4.455913E+01  3.260896E+04 -2.804656E+01
        18  10  9.286953E+04  9.913034E+05  5.216971E+04 -4.387827E+00  6.015044E-09  2.805008E-08
        18  11  9.287493E+04  9.913280E+05  5.217841E+04 -2.539721E+01  4.237714E-09 -1.020864E-08
        18  12  9.288165E+04  9.913629E+05  5.219449E+04 -4.312002E+01  4.371287E-09 -4.880429E-08
        18  13 -3.556966E+01  5.785523E+05  1.490483E+01  7.307131E-01  3.780327E-09  1.516782E-11
        18  14 -3.725939E+01  5.785468E+05  1.812565E+01 -9.119886E-01 -3.302214E-09 -1.637667E-10
        18  15 -3.710221E+01  5.785523E+05  3.089185E+01  7.326785E-01 -9.976941E-09  1.640406E-10
        18  16 -9.294759E+04  1.659759E+05 -5.214044E+04  5.846327E+00  6.003635E-09 -2.809360E-08
        18  17 -9.295638E+04  1.659404E+05 -5.214270E+04  2.355902E+01  3.019992E-09  1.012907E-08
        18  18 -9.296279E+04  1.659164E+05 -5.213324E+04  4.455987E+01  3.819308E-09  4.881230E-08
        18  19  9.287067E+04  9.913037E+05  5.217171E+04 -4.387821E+00 -3.260050E+04 -2.171039E-01
        18  20  9.287608E+04  9.913283E+05  5.218041E+04 -2.539737E+01 -3.260179E+04  6.124996E+00
        18  21  9.288279E+04  9.913632E+05  5.219649E+04 -4.312035E+01 -3.260438E+04  1.246672E+01
        18  22 -3.442793E+01  5.785526E+05  1.690284E+01  7.306785E-01 -3.260279E+04  1.316124E+00
        18  23 -3.611758E+01  5.785471E+05  2.012382E+01 -9.122718E-01 -3.260408E+04  1.078778E+01
        18  24 -3.596022E+01  5.785525E+05  3.289035E+01  7.321467E-01 -3.260667E+04  2.025910E+01
        18  25 -9.294645E+04  1.659762E+05 -5.213844E+04  5.846253E+00 -3.260507E+04  2.848384E+00
        18  26 -9.295524E+04  1.659407E+05 -5.214070E+04  2.355861E+01 -3.260637E+04  1.544761E+01
        18  27 -9.296164E+04  1.659167E+05 -5.213125E+04  4.455913E+01 -3.260896E+04  2.804656E+01
        19   1  9.289044E+04  9.914006E+05  5.221148E+04 -5.167632E+01  3.260672E+04 -1.599106E+01
        19   2  9.290739E+04  9.914821E+05  5.225645E+04 -8.145483E+01  3.261068E+04 -5.322003E+01
        19   3  9.292729E+04  9.915784E+05  5.232929E+04 -9.712522E+01  3.261363E+04 -9.044810E+01
        19   4 -3.672532E+01  5.785533E+05  4.239164E+01  3.137084E+00  3.260901E+04 -2.666789E+01
        19   5 -4.071962E+01  5.785461E+05  7.136599E+01 -3.916926E+00  3.261297E+04 -6.146493E+01
        19   6 -4.217543E+01  5.785533E+05  1.265386E+02  3.137720E+00  3.261592E+04 -9.626108E+01
        19   7 -9.297083E+04  1.658809E+05 -5.212724E+04  5.791862E+01  3.261130E+04 -3.733796E+01
        19   8 -9.299576E+04  1.657850E+05 -5.211426E+04  7.357547E+01  3.261526E+04 -6.970462E+01
        19   9 -9.301858E+04  1.657031E+05 -5.207676E+04  1.033415E+02  3.261821E+04 -1.020704E+02
        19  10  9.288930E+04  9.914003E+05  5.220948E+04 -5.167590E+01  4.491905E-09  4.463049E-08
        19  11  9.290624E+04  9.914818E+05  5.225445E+04 -8.145344E+01  4.053224E-09  8.219223E-09
        19  12  9.292615E+04  9.915781E+05  5.232729E+04 -9.712285E+01  1.008974E-09 -2.645905E-08
        19  13 -3.786749E+01  5.785530E+05  4.039286E+01  3.137784E+00 -1.173006E-08  1.352099E-10
        19  14 -4.186205E+01  5.785458E+05  6.936672E+01 -3.915312E+00 -9.939326E-09 -4.703462E-10
        19  15 -4.331808E+01  5.785530E+05  1.245390E+02  3.140248E+00  1.044498E-09  3.340120E-10
        19  16 -9.297197E+04  1.658806E+05 -5.212924E+04  5.791960E+01  1.768178E-09 -4.487820E-08
        19  17 -9.299690E+04  1.657847E+05 -5.211626E+04  7.357730E+01 -2.291680E-09 -8.495319E-09
        19  18 -9.301972E+04  1.657028E+05 -5.207876E+04  1.033442E+02 -6.558851E-10  2.654045E-08
        19  19  9.289044E+04  9.914006E+05  5.221148E+04 -5.167632E+01 -3.260672E+04  1.599106E+01
        19  20  9.290739E+04  9.914821E+05  5.225645E+04 -8.145483E+01 -3.261068E+04  5.322003E+01
        19  21  9.292729E+04  9.915784E+05  5.232929E+04 -9.712522E+01 -3.261363E+04  9.044810E+01
        19  22 -3.672532E+01  5.785533E+05  4.239164E+01  3.137084E+00 -3.260901E+04  2.666789E+01
        19  23 -4.071962E+01  5.785461E+05  7.136599E+01 -3.916926E+00 -3.261297E+04  6.146493E+01
        19  24 -4.217543E+01  5.785533E+05  1.265386E+02  3.137720E+00 -3.261592E+04  9.626108E+01
        19  25 -9.297083E+04  1.658809E+05 -5.212724E+04  5.791862E+01 -3.261130E+04  3.733796E+01
        19  26 -9.299576E+04  1.657850E+05 -5.211426E+04  7.357547E+01 -3.261526E+04  6.970462E+01
        19  27 -9.301858E+04  1.657031E+05 -5.207676E+04  1.033415E+02 -3.261821E+04  1.020704E+02
        20   1  9.294316E+04  9.916570E+05  5.238480E+04 -1.099251E+02  3.261597E+04 -1.150502E+02
        20   2  9.297585E+04  9.917854E+05  5.255389E+04 -1.493963E+02  3.260989E+04 -3.026427E+02
        20   3  9.303215E+04  9.919533E+05  5.285380E+04 -1.652357E+02  3.258542E+04 -4.902392E+02
        20   4 -4.423710E+01  5.785571E+05  1.670485E+02  5.252842E+00  3.261826E+04 -1.223510E+02
        20   5 -4.955287E+01  5.785412E+05  2.904752E+02 -6.561798E+00  3.261217E+04 -2.656554E+02
        20   6 -3.893400E+01  5.785571E+05  5.140458E+02  5.255516E+00  3.258768E+04 -4.089645E+02
        20   7 -9.303858E+04  1.656323E+05 -5.205125E+04  1.203625E+02  3.262056E+04 -1.296472E+02
        20   8 -9.308191E+04  1.654721E+05 -5.197349E+04  1.361874E+02  3.261445E+04 -2.286915E+02
        20   9 -9.311698E+04  1.653360E+05 -5.182628E+04  1.756443E+02  3.258994E+04 -3.277412E+02
        20  10  9.294202E+04  9.916567E+05  5.238280E+04 -1.099221E+02  1.671084E-09 -1.808554E-09
        20  11  9.297471E+04  9.917851E+05  5.255189E+04 -1.493884E+02  4.674257E-09 -5.921628E-09
        20  12  9.303101E+04  9.919530E+05  5.285180E+04 -1.652228E+02  4.012685E-09 -9.162010E-09
        20  13 -4.537991E+01  5.785569E+05  1.650485E+02  5.256055E+00  2.698571E-09  2.601006E-10
        20  14 -5.069527E+01  5.785409E+05  2.884759E+02 -6.554822E+00  2.255925E-09 -7.790764E-10
        20  15 -4.007472E+01  5.785568E+05  5.120493E+02  5.266247E+00  5.702240E-10  4.426075E-10
        20  16 -9.303972E+04  1.656321E+05 -5.205325E+04  1.203659E+02 -4.782584E-10  1.397820E-09
        20  17 -9.308305E+04  1.654718E+05 -5.197549E+04  1.361934E+02 -8.606431E-10  5.701228E-09
        20  18 -9.311812E+04  1.653357E+05 -5.182827E+04  1.756529E+02  2.108857E-10  9.293234E-09
        20  19  9.294316E+04  9.916570E+05  5.238480E+04 -1.099251E+02 -3.261597E+04  1.150502E+02
        20  20  9.297585E+04  9.917854E+05  5.255389E+04 -1.493963E+02 -3.260989E+04  3.026427E+02
        20  21  9.303215E+04  9.919533E+05  5.285380E+04 -1.652357E+02 -3.258542E+04  4.902392E+02
        20  22 -4.423710E+01  5.785571E+05  1.670485E+02  5.252842E+00 -3.261826E+04  1.223510E+02
        20  23 -4.955287E+01  5.785412E+05  2.904752E+02 -6.561798E+00 -3.261217E+04  2.656554E+02
        20  24 -3.893400E+01  5.785571E+05  5.140458E+02  5.255516E+00 -3.258768E+04  4.089645E+02
        20  25 -9.303858E+04  1.656323E+05 -5.205125E+04  1.203625E+02 -3.262056E+04  1.296472E+02
        20  26 -9.308191E+04  1.654721E+05 -5.197349E+04  1.361874E+02 -3.261445E+04  2.286915E+02
        20  27 -9.311698E+04  1.653360E+05 -5.182628E+04  1.756443E+02 -3.258994E+04  3.277412E+02
        21   1 -8.119544E+06 -2.569307E+06 -1.608354E+06 -2.897141E+06 -8.527862E+05 -3.107530E+05
        21   2 -7.952963E+06 -1.338978E+06 -8.304622E+05 -3.064552E+06 -5.513659E+05 -1.669181E+05
        21   3 -8.278914E+06 -1.298406E+06 -6.130968E+05 -2.920415E+06 -2.403446E+05 -4.827436E+04
        21   4 -7.271607E+06 -1.949300E+06 -1.316582E+06 -2.365645E+06 -8.349627E+05 -3.044707E+05
        21   5 -6.955166E+06 -8.741722E+05 -5.487622E+05 -2.704005E+06 -5.455939E+05 -1.648213E+05
        21   6 -7.128193E+06 -9.854021E+05 -3.312349E+05 -2.731063E+06 -2.465530E+05 -5.057809E+04
        21   7 -6.422742E+06 -1.328446E+06 -1.024858E+06 -1.833292E+06 -8.171119E+05 -2.981560E+05
        21   8 -5.956366E+06 -4.091454E+05 -2.671562E+05 -2.342874E+06 -5.398109E+05 -1.627182E+05
        21   9 -5.976148E+06 -6.724319E+05 -4.946060E+04 -2.541459E+06 -2.527738E+05 -5.288348E+04
        21  10 -8.120361E+06 -2.569611E+06 -1.609926E+06 -2.897356E+06 -7.642848E-11 -1.955180E-10
        21  11 -7.953301E+06 -1.339092E+06 -8.310952E+05 -3.064627E+06  4.831190E-10 -2.418031E-10
        21  12 -8.278978E+06 -1.298424E+06 -6.132114E+05 -2.920424E+06 -3.375408E-09  1.011539E-09
        21  13 -7.272388E+06 -1.949591E+06 -1.318086E+06 -2.365851E+06 -3.157403E-09 -8.064639E-11
        21  14 -6.955496E+06 -8.742829E+05 -5.493807E+05 -2.704078E+06  4.815378E-10 -3.893861E-11
        21  15 -7.128260E+06 -9.854215E+05 -3.313555E+05 -2.731073E+06  2.873750E-09  5.296553E-10
        21  16 -6.423490E+06 -1.328724E+06 -1.026296E+06 -1.833489E+06 -8.594003E-10  2.016242E-10
        21  17 -5.956689E+06 -4.092535E+05 -2.677603E+05 -2.342946E+06  9.243719E-10  5.786302E-10
        21  18 -5.976218E+06 -6.724523E+05 -4.958731E+04 -2.541470E+06  1.567909E-09  6.758791E-10
        21  19 -8.119544E+06 -2.569307E+06 -1.608354E+06 -2.897141E+06  8.527862E+05  3.107530E+05
        21  20 -7.952963E+06 -1.338978E+06 -8.304622E+05 -3.064552E+06  5.513659E+05  1.669181E+05
        21  21 -8.278914E+06 -1.298406E+06 -6.130968E+05 -2.920415E+06  2.403446E+05  4.827436E+04
        21  22 -7.271607E+06 -1.949300E+06 -1.316582E+06 -2.365645E+06  8.349627E+05  3.044707E+05
        21  23 -6.955166E+06 -8.741722E+05 -5.487622E+05 -2.704005E+06  5.455939E+05  1.648213E+05
        21  24 -7.128193E+06 -9.854021E+05 -3.312349E+05 -2.731063E+06  2.465530E+05  5.057809E+04
        21  25 -6.422742E+06 -1.328446E+06 -1.024858E+06 -1.833292E+06  8.171119E+05  2.981560E+05
        21  26 -5.956366E+06 -4.091454E+05 -2.671562E+05 -2.342874E+06  5.398109E+05  1.627182E+05
        21  27 -5.976148E+06 -6.724319E+05 -4.946060E+04 -2.541459E+06  2.527738E+05  5.288348E+04
        22   1 -8.093706E+06 -1.539272E+06 -5.447234E+05 -2.964572E+06 -1.993943E+05 -3.712864E+04
        22   2 -8.046395E+06 -1.382718E+06 -3.938703E+05 -2.959685E+06 -1.315481E+05 -1.070702E+04
        22   3 -8.034092E+06 -1.375679E+06 -3.289932E+05 -2.946835E+06 -6.270885E+04  1.310671E+04
        22   4 -7.081587E+06 -1.125777E+06 -2.691897E+05 -2.657853E+06 -1.986777E+05 -3.687280E+04
        22   5 -7.056565E+06 -9.996581E+05 -1.291820E+05 -2.681214E+06 -1.320016E+05 -1.088501E+04
        22   6 -7.066228E+06 -1.022688E+06 -7.410447E+04 -2.696631E+06 -6.433580E+04  1.248991E+04
        22   7 -6.068463E+06 -7.121723E+05  6.249929E+03 -2.350658E+06 -1.979595E+05 -3.661626E+04
        22   8 -6.065774E+06 -6.165260E+05  1.354197E+05 -2.402331E+06 -1.324558E+05 -1.106326E+04
        22   9 -6.097445E+06 -6.696548E+05  1.807047E+05 -2.446075E+06 -6.596552E+04  1.187217E+04
        22  10 -8.093749E+06 -1.539284E+06 -5.448018E+05 -2.964578E+06  8.443775E-10  2.690433E-10
        22  11 -8.046413E+06 -1.382723E+06 -3.939035E+05 -2.959686E+06 -8.685838E-09 -3.099509E-09
        22  12 -8.034096E+06 -1.375680E+06 -3.290009E+05 -2.946835E+06 -4.016605E-09 -6.711053E-10
        22  13 -7.081630E+06 -1.125789E+06 -2.692674E+05 -2.657859E+06 -2.518187E-09 -6.469506E-10
        22  14 -7.056584E+06 -9.996630E+05 -1.292153E+05 -2.681215E+06 -4.161405E-09 -3.605783E-09
        22  15 -7.066233E+06 -1.022689E+06 -7.411261E+04 -2.696630E+06 -4.449771E-09 -1.174086E-09
        22  16 -6.068505E+06 -7.121844E+05  6.172939E+03 -2.350664E+06 -2.041386E-09 -1.844548E-09
        22  17 -6.065793E+06 -6.165309E+05  1.353862E+05 -2.402332E+06 -4.423734E-09 -4.349322E-09
        22  18 -6.097450E+06 -6.696561E+05  1.806962E+05 -2.446074E+06 -6.171692E-10 -2.052678E-09
        22  19 -8.093706E+06 -1.539272E+06 -5.447234E+05 -2.964572E+06  1.993943E+05  3.712864E+04
        22  20 -8.046395E+06 -1.382718E+06 -3.938703E+05 -2.959685E+06  1.315481E+05  1.070702E+04
        22  21 -8.034092E+06 -1.375679E+06 -3.289932E+05 -2.946835E+06  6.270885E+04 -1.310671E+04
        22  22 -7.081587E+06 -1.125777E+06 -2.691897E+05 -2.657853E+06  1.986777E+05  3.687280E+04
        22  23 -7.056565E+06 -9.996581E+05 -1.291820E+05 -2.681214E+06  1.320016E+05  1.088501E+04
        22  24 -7.066228E+06 -1.022688E+06 -7.410447E+04 -2.696631E+06  6.433580E+04 -1.248991E+04
        22  25 -6.068463E+06 -7.121723E+05  6.249929E+03 -2.350658E+06  1.979595E+05  3.661626E+04
        22  26 -6.065774E+06 -6.165260E+05  1.354197E+05 -2.402331E+06  1.324558E+05  1.106326E+04
        22  27 -6.097445E+06 -6.696548E+05  1.807047E+05 -2.446075E+06  6.596552E+04 -1.187217E+04
        23   1 -7.936293E+06 -1.376475E+06 -2.919074E+05 -2.935208E+06 -5.194794E+04  1.522763E+04
        23   2 -7.883017E+06 -1.315984E+06 -2.454219E+05 -2.895213E+06 -3.543273E+04  1.834950E+04
        23   3 -7.796706E+06 -1.308601E+06 -2.141060E+05 -2.896861E+06 -1.865740E+04  2.076831E+04
        23   4 -7.056872E+06 -1.040970E+06 -5.777981E+04 -2.692678E+06 -5.314768E+04  1.477148E+04
        23   5 -7.072581E+06 -1.008939E+06 -2.998360E+04 -2.673909E+06 -3.695458E+04  1.777365E+04
        23   6 -7.055186E+06 -1.029935E+06 -1.708138E+04 -2.696782E+06 -2.050344E+04  2.007237E+04
        23   7 -6.176693E+06 -7.054149E+05  1.762799E+05 -2.449832E+06 -5.434928E+04  1.431462E+04
        23   8 -6.261502E+06 -7.018546E+05  1.853969E+05 -2.452341E+06 -3.847861E+04  1.719698E+04
        23   9 -6.313130E+06 -7.512378E+05  1.798946E+05 -2.496485E+06 -2.235193E+04  1.937552E+04
        23  10 -7.936296E+06 -1.376476E+06 -2.919129E+05 -2.935207E+06  3.447811E-09  3.116105E-09
        23  11 -7.883018E+06 -1.315984E+06 -2.454249E+05 -2.895212E+06  5.172189E-09  3.533028E-09
        23  12 -7.796706E+06 -1.308602E+06 -2.141075E+05 -2.896860E+06 -3.631430E-09 -1.391799E-09
        23  13 -7.056875E+06 -1.040971E+06 -5.778557E+04 -2.692677E+06  4.829883E-09  2.188204E-09
        23  14 -7.072582E+06 -1.008940E+06 -2.998677E+04 -2.673909E+06  7.216089E-09  4.473914E-09
        23  15 -7.055186E+06 -1.029936E+06 -1.708293E+04 -2.696782E+06 -3.069215E-09  1.212580E-10
        23  16 -6.176696E+06 -7.054160E+05  1.762739E+05 -2.449831E+06 -3.972746E-10  4.851333E-10
        23  17 -6.261504E+06 -7.018554E+05  1.853935E+05 -2.452340E+06 -6.362530E-10  4.147379E-09
        23  18 -6.313130E+06 -7.512383E+05  1.798930E+05 -2.496485E+06  6.451663E-09  2.502201E-09
        23  19 -7.936293E+06 -1.376475E+06 -2.919074E+05 -2.935208E+06  5.194794E+04 -1.522763E+04
        23  20 -7.883017E+06 -1.315984E+06 -2.454219E+05 -2.895213E+06  3.543273E+04 -1.834950E+04
        23  21 -7.796706E+06 -1.308601E+06 -2.141060E+05 -2.896861E+06  1.865740E+04 -2.076831E+04
        23  22 -7.056872E+06 -1.040970E+06 -5.777981E+04 -2.692678E+06  5.314768E+04 -1.477148E+04
        23  23 -7.072581E+06 -1.008939E+06 -2.998360E+04 -2.673909E+06  3.695458E+04 -1.777365E+04
        23  24 -7.055186E+06 -1.029935E+06 -1.708138E+04 -2.696782E+06  2.050344E+04 -2.007237E+04
        23  25 -6.176693E+06 -7.054149E+05  1.762799E+05 -2.449832E+06  5.434928E+04 -1.431462E+04
        23  26 -6.261502E+06 -7.018546E+05  1.853969E+05 -2.452341E+06  3.847861E+04 -1.719698E+04
        23  27 -6.313130E+06 -7.512378E+05  1.798946E+05 -2.496485E+06  2.235193E+04 -1.937552E+04
        24   1 -7.674632E+06 -1.269837E+06 -1.785622E+05 -2.868884E+06 -1.530222E+04  1.948516E+04
        24   2 -7.605742E+06 -1.206018E+06 -1.482770E+05 -2.812960E+06 -9.602606E+03  1.701406E+04
        24   3 -7.484857E+06 -1.196567E+06 -1.214775E+05 -2.817137E+06 -3.769662E+03  1.417361E+04
        24   4 -7.051536E+06 -1.034405E+06 -1.334213E+04 -2.699294E+06 -1.719475E+04  1.877290E+04
        24   5 -7.077441E+06 -1.006639E+06 -8.009542E+03 -2.669461E+06 -1.167160E+04  1.623694E+04
        24   6 -7.051330E+06 -1.033203E+06 -6.018843E+03 -2.699729E+06 -6.015922E+03  1.333156E+04
        24   7 -6.428056E+06 -7.989481E+05  1.518450E+05 -2.529547E+06 -1.908940E+04  1.805985E+04
        24   8 -6.548867E+06 -8.072444E+05  1.322333E+05 -2.525850E+06 -1.374254E+04  1.545909E+04
        24   9 -6.617622E+06 -8.698285E+05  1.094224E+05 -2.582246E+06 -8.263907E+03  1.248886E+04
        24  10 -7.674632E+06 -1.269837E+06 -1.785633E+05 -2.868884E+06 -2.166943E-09 -2.272473E-09
        24  11 -7.605742E+06 -1.206018E+06 -1.482777E+05 -2.812960E+06  1.895274E-09  1.983997E-10
        24  12 -7.484857E+06 -1.196568E+06 -1.214779E+05 -2.817137E+06 -2.424249E-10  6.369117E-10
        24  13 -7.051536E+06 -1.034405E+06 -1.334335E+04 -2.699294E+06  2.545620E-09 -1.694737E-09
        24  14 -7.077441E+06 -1.006640E+06 -8.010292E+03 -2.669461E+06 -2.755589E-09 -1.102037E-09
        24  15 -7.051330E+06 -1.033203E+06 -6.019244E+03 -2.699729E+06 -1.417733E-09  5.583162E-11
        24  16 -6.428057E+06 -7.989485E+05  1.518437E+05 -2.529547E+06  2.021082E-09 -7.436217E-11
        24  17 -6.548868E+06 -8.072447E+05  1.322325E+05 -2.525850E+06  5.922727E-10 -1.969147E-09
        24  18 -6.617622E+06 -8.698286E+05  1.094220E+05 -2.582246E+06 -8.449198E-10 -1.041027E-09
        24  19 -7.674632E+06 -1.269837E+06 -1.785622E+05 -2.868884E+06  1.530222E+04 -1.948516E+04
        24  20 -7.605742E+06 -1.206018E+06 -1.482770E+05 -2.812960E+06  9.602606E+03 -1.701406E+04
        24  21 -7.484857E+06 -1.196567E+06 -1.214775E+05 -2.817137E+06  3.769662E+03 -1.417361E+04
        24  22 -7.051536E+06 -1.034405E+06 -1.334213E+04 -2.699294E+06  1.719475E+04 -1.877290E+04
        24  23 -7.077441E+06 -1.006639E+06 -8.009542E+03 -2.669461E+06  1.167160E+04 -1.623694E+04
        24  24 -7.051330E+06 -1.033203E+06 -6.018843E+03 -2.699729E+06  6.015922E+03 -1.333156E+04
        24  25 -6.428056E+06 -7.989481E+05  1.518450E+05 -2.529547E+06  1.908940E+04 -1.805985E+04
        24  26 -6.548867E+06 -8.072444E+05  1.322333E+05 -2.525850E+06  1.374254E+04 -1.545909E+04
        24  27 -6.617622E+06 -8.698285E+05  1.094224E+05 -2.582246E+06  8.263907E+03 -1.248886E+04
        25   1 -7.339356E+06 -1.144099E+06 -8.237896E+04 -2.780277E+06 -1.731837E+03  1.184469E+04
        25   2 -7.260972E+06 -1.073079E+06 -5.526834E+04 -2.716440E+06  3.629019E+03  8.441932E+03
        25   3 -7.123690E+06 -1.063336E+06 -3.121767E+04 -2.721125E+06  9.029590E+03  4.928888E+03
        25   4 -7.049787E+06 -1.034850E+06 -5.882867E+03 -2.701548E+06 -4.026856E+03  1.098514E+04
        25   5 -7.079288E+06 -1.004583E+06 -7.052696E+03 -2.667150E+06  1.281028E+03  7.563064E+03
        25   6 -7.049892E+06 -1.035582E+06 -1.123868E+04 -2.701276E+06  6.627931E+03  4.030496E+03
        25   7 -6.760134E+06 -9.255961E+05  7.060628E+04 -2.622786E+06 -6.323071E+03  1.012514E+04
        25   8 -6.897571E+06 -9.360848E+05  4.116042E+04 -2.617845E+06 -1.067741E+03  6.683903E+03
        25   9 -6.976089E+06 -1.007827E+06  8.740036E+03 -2.681424E+06  4.225933E+03  3.131979E+03
        25  10 -7.339356E+06 -1.144099E+06 -8.237923E+04 -2.780277E+06 -3.550815E-09  5.091333E-11
        25  11 -7.260972E+06 -1.073079E+06 -5.526850E+04 -2.716440E+06 -1.801538E-09 -1.881961E-10
        25  12 -7.123690E+06 -1.063336E+06 -3.121787E+04 -2.721126E+06 -5.737254E-10 -1.184163E-09
        25  13 -7.049787E+06 -1.034850E+06 -5.883124E+03 -2.701548E+06  1.997374E-09  3.236885E-10
        25  14 -7.079288E+06 -1.004583E+06 -7.052807E+03 -2.667150E+06 -2.332989E-10 -2.297179E-10
        25  15 -7.049892E+06 -1.035582E+06 -1.123879E+04 -2.701276E+06 -5.497927E-09 -1.207030E-09
        25  16 -6.760134E+06 -9.255962E+05  7.060601E+04 -2.622786E+06  3.600229E-09  1.419759E-11
        25  17 -6.897571E+06 -9.360848E+05  4.116034E+04 -2.617845E+06 -1.607001E-09  5.188485E-10
        25  18 -6.976089E+06 -1.007827E+06  8.739983E+03 -2.681424E+06 -1.442095E-09 -1.071160E-10
        25  19 -7.339356E+06 -1.144099E+06 -8.237896E+04 -2.780277E+06  1.731837E+03 -1.184469E+04
        25  20 -7.260972E+06 -1.073079E+06 -5.526834E+04 -2.716440E+06 -3.629019E+03 -8.441932E+03
        25  21 -7.123690E+06 -1.063336E+06 -3.121767E+04 -2.721125E+06 -9.029590E+03 -4.928888E+03
        25  22 -7.049787E+06 -1.034850E+06 -5.882867E+03 -2.701548E+06  4.026856E+03 -1.098514E+04
        25  23 -7.079288E+06 -1.004583E+06 -7.052696E+03 -2.667150E+06 -1.281028E+03 -7.563064E+03
        25  24 -7.049892E+06 -1.035582E+06 -1.123868E+04 -2.701276E+06 -6.627931E+03 -4.030496E+03
        25  25 -6.760134E+06 -9.255961E+05  7.060628E+04 -2.622786E+06  6.323071E+03 -1.012514E+04
        25  26 -6.897571E+06 -9.360848E+05  4.116042E+04 -2.617845E+06  1.067741E+03 -6.683903E+03
        25  27 -6.976089E+06 -1.007827E+06  8.740036E+03 -2.681424E+06 -4.225933E+03 -3.131979E+03
        26   1 -6.970802E+06 -1.005622E+06  7.036902E+03 -2.681811E+06  1.222626E+04  2.827995E+03
        26   2 -6.891742E+06 -9.327088E+05  2.480898E+04 -2.616364E+06  2.644341E+04  2.614967E+03
        26   3 -6.758730E+06 -9.310019E+05  3.020690E+04 -2.617126E+06  4.057180E+04  2.651407E+03
        26   4 -7.050519E+06 -1.034406E+06 -1.428058E+04 -2.702029E+06  9.787738E+03  1.915841E+03
        26   5 -7.078151E+06 -1.003283E+06 -2.470665E+04 -2.667259E+06  2.412245E+04  1.746171E+03
        26   6 -7.051867E+06 -1.043394E+06 -4.760400E+04 -2.698704E+06  3.836607E+04  1.825099E+03
        26   7 -7.130229E+06 -1.063190E+06 -3.559841E+04 -2.722245E+06  7.349581E+03  1.003811E+03
        26   8 -7.264525E+06 -1.073854E+06 -7.422504E+04 -2.718140E+06  2.180227E+04  8.776712E+02
        26   9 -7.344920E+06 -1.155780E+06 -1.254223E+05 -2.780246E+06  3.616149E+04  9.992407E+02
        26  10 -6.970802E+06 -1.005622E+06  7.036602E+03 -2.681811E+06 -3.417133E-09 -2.285846E-09
        26  11 -6.891743E+06 -9.327090E+05  2.480764E+04 -2.616364E+06 -8.349080E-09  1.442061E-09
        26  12 -6.758731E+06 -9.310024E+05  3.020376E+04 -2.617126E+06  7.153855E-11  9.762000E-10
        26  13 -7.050519E+06 -1.034406E+06 -1.428077E+04 -2.702029E+06 -2.233020E-09 -1.386151E-09
        26  14 -7.078152E+06 -1.003283E+06 -2.470776E+04 -2.667259E+06 -3.042500E-09 -9.252200E-10
        26  15 -7.051869E+06 -1.043394E+06 -4.760680E+04 -2.698704E+06  8.670250E-10  6.506773E-10
        26  16 -7.130229E+06 -1.063190E+06 -3.559852E+04 -2.722245E+06  4.130839E-09  1.197493E-09
        26  17 -7.264526E+06 -1.073854E+06 -7.422595E+04 -2.718140E+06  8.867533E-09 -1.472049E-09
        26  18 -7.344921E+06 -1.155780E+06 -1.254248E+05 -2.780246E+06  6.259037E-09  1.841404E-09
        26  19 -6.970802E+06 -1.005622E+06  7.036902E+03 -2.681811E+06 -1.222626E+04 -2.827995E+03
        26  20 -6.891742E+06 -9.327088E+05  2.480898E+04 -2.616364E+06 -2.644341E+04 -2.614967E+03
        26  21 -6.758730E+06 -9.310019E+05  3.020690E+04 -2.617126E+06 -4.057180E+04 -2.651407E+03
        26  22 -7.050519E+06 -1.034406E+06 -1.428058E+04 -2.702029E+06 -9.787738E+03 -1.915841E+03
        26  23 -7.078151E+06 -1.003283E+06 -2.470665E+04 -2.667259E+06 -2.412245E+04 -1.746171E+03
        26  24 -7.051867E+06 -1.043394E+06 -4.760400E+04 -2.698704E+06 -3.836607E+04 -1.825099E+03
        26  25 -7.130229E+06 -1.063190E+06 -3.559841E+04 -2.722245E+06 -7.349581E+03 -1.003811E+03
        26  26 -7.264525E+06 -1.073854E+06 -7.422504E+04 -2.718140E+06 -2.180227E+04 -8.776712E+02
        26  27 -7.344920E+06 -1.155780E+06 -1.254223E+05 -2.780246E+06 -3.616149E+04 -9.992407E+02
        27   1 -6.611556E+06 -8.731201E+05  5.557327E+04 -2.594487E+06  5.080114E+04  3.140391E+03
        27   2 -6.538762E+06 -7.881474E+05  3.510254E+04 -2.521075E+06  1.065836E+05  1.911567E+04
        27   3 -6.459671E+06 -8.611518E+05 -5.462125E+04 -2.482049E+06  1.616180E+05  3.712274E+04
        27   4 -7.057871E+06 -1.030056E+06 -6.102102E+04 -2.703867E+06  4.816467E+04  2.153203E+03
        27   5 -7.067131E+06 -9.934689E+05 -1.062243E+05 -2.670819E+06  1.048924E+05  1.847894E+04
        27   6 -7.070336E+06 -1.115118E+06 -2.214880E+05 -2.672162E+06  1.608638E+05  3.683050E+04
        27   7 -7.503993E+06 -1.186987E+06 -1.776324E+05 -2.813178E+06  4.553028E+04  1.166674E+03
        27   8 -7.595227E+06 -1.198769E+06 -2.475760E+05 -2.820445E+06  1.032028E+05  1.784283E+04
        27   9 -7.680634E+06 -1.369039E+06 -3.883888E+05 -2.862095E+06  1.601104E+05  3.653861E+04
        27  10 -6.611558E+06 -8.731208E+05  5.556834E+04 -2.594487E+06  1.550140E-09  3.759762E-10
        27  11 -6.538775E+06 -7.881508E+05  3.508025E+04 -2.521077E+06  7.352601E-10 -3.277752E-09
        27  12 -6.459700E+06 -8.611604E+05 -5.467353E+04 -2.482054E+06 -4.572788E-09 -2.133322E-09
        27  13 -7.057873E+06 -1.030057E+06 -6.102544E+04 -2.703867E+06  2.720589E-09 -7.310037E-11
        27  14 -7.067143E+06 -9.934723E+05 -1.062458E+05 -2.670821E+06 -3.559020E-09 -2.520402E-09
        27  15 -7.070365E+06 -1.115127E+06 -2.215398E+05 -2.672167E+06 -3.336162E-09 -1.448342E-09
        27  16 -7.503995E+06 -1.186988E+06 -1.776363E+05 -2.813178E+06 -2.020651E-09 -1.803394E-09
        27  17 -7.595239E+06 -1.198773E+06 -2.475969E+05 -2.820447E+06 -1.319875E-09 -3.775231E-09
        27  18 -7.680662E+06 -1.369047E+06 -3.884401E+05 -2.862100E+06 -2.010564E-09 -5.758731E-10
        27  19 -6.611556E+06 -8.731201E+05  5.557327E+04 -2.594487E+06 -5.080114E+04 -3.140391E+03
        27  20 -6.538762E+06 -7.881474E+05  3.510254E+04 -2.521075E+06 -1.065836E+05 -1.911567E+04
        27  21 -6.459671E+06 -8.611518E+05 -5.462125E+04 -2.482049E+06 -1.616180E+05 -3.712274E+04
        27  22 -7.057871E+06 -1.030056E+06 -6.102102E+04 -2.703867E+06 -4.816467E+04 -2.153203E+03
        27  23 -7.067131E+06 -9.934689E+05 -1.062243E+05 -2.670819E+06 -1.048924E+05 -1.847894E+04
        27  24 -7.070336E+06 -1.115118E+06 -2.214880E+05 -2.672162E+06 -1.608638E+05 -3.683050E+04
        27  25 -7.503993E+06 -1.186987E+06 -1.776324E+05 -2.813178E+06 -4.553028E+04 -1.166674E+03
        27  26 -7.595227E+06 -1.198769E+06 -2.475760E+05 -2.820445E+06 -1.032028E+05 -1.784283E+04
        27  27 -7.680634E+06 -1.369039E+06 -3.883888E+05 -2.862095E+06 -1.601104E+05 -3.653861E+04
        28   1 -6.289510E+06 -7.925691E+05 -7.495734E+04 -2.614458E+06  2.079266E+05  4.853807E+04
        28   2 -6.221296E+06 -5.313803E+05 -2.357313E+05 -2.409220E+06  4.448129E+05  1.347144E+05
        28   3 -6.512674E+06 -1.283943E+06 -8.404377E+05 -1.994606E+06  6.733616E+05  2.431609E+05
        28   4 -7.108206E+06 -1.000015E+06 -2.725082E+05 -2.732778E+06  2.010494E+05  4.599307E+04
        28   5 -6.985025E+06 -8.892521E+05 -4.514933E+05 -2.688413E+06  4.484926E+05  1.360347E+05
        28   6 -7.224151E+06 -1.795262E+06 -1.083305E+06 -2.434513E+06  6.876124E+05  2.482025E+05
        28   7 -7.926228E+06 -1.207480E+06 -4.700998E+05 -2.850996E+06  1.941821E+05  4.344900E+04
        28   8 -7.748165E+06 -1.246989E+06 -6.673098E+05 -2.967258E+06  4.521671E+05  1.373518E+05
        28   9 -7.934982E+06 -2.306006E+06 -1.326207E+06 -2.873829E+06  7.018450E+05  2.532228E+05
        28  10 -6.289558E+06 -7.925834E+05 -7.504401E+04 -2.614466E+06 -3.935197E-09 -5.778044E-11
        28  11 -6.221515E+06 -5.314538E+05 -2.361420E+05 -2.409269E+06  2.438574E-09  5.561975E-11
        28  12 -6.513181E+06 -1.284131E+06 -8.414120E+05 -1.994738E+06  1.935413E-10 -7.475834E-11
        28  13 -7.108251E+06 -1.000028E+06 -2.725892E+05 -2.732786E+06 -6.400635E-11 -2.281171E-10
        28  14 -6.985248E+06 -8.893271E+05 -4.519115E+05 -2.688462E+06 -1.916166E-09 -1.501093E-10
        28  15 -7.224681E+06 -1.795458E+06 -1.084323E+06 -2.434651E+06  4.120849E-09  7.307165E-11
        28  16 -7.926269E+06 -1.207493E+06 -4.701752E+05 -2.851003E+06  3.995981E-11 -1.330625E-10
        28  17 -7.748392E+06 -1.247065E+06 -6.677356E+05 -2.967308E+06  3.289375E-09  2.433619E-10
        28  18 -7.935535E+06 -2.306211E+06 -1.327268E+06 -2.873973E+06  2.494036E-09  4.476660E-11
        28  19 -6.289510E+06 -7.925691E+05 -7.495734E+04 -2.614458E+06 -2.079266E+05 -4.853807E+04
        28  20 -6.221296E+06 -5.313803E+05 -2.357313E+05 -2.409220E+06 -4.448129E+05 -1.347144E+05
        28  21 -6.512674E+06 -1.283943E+06 -8.404377E+05 -1.994606E+06 -6.733616E+05 -2.431609E+05
        28  22 -7.108206E+06 -1.000015E+06 -2.725082E+05 -2.732778E+06 -2.010494E+05 -4.599307E+04
        28  23 -6.985025E+06 -8.892521E+05 -4.514933E+05 -2.688413E+06 -4.484926E+05 -1.360347E+05
        28  24 -7.224151E+06 -1.795262E+06 -1.083305E+06 -2.434513E+06 -6.876124E+05 -2.482025E+05
        28  25 -7.926228E+06 -1.207480E+06 -4.700998E+05 -2.850996E+06 -1.941821E+05 -4.344900E+04
        28  26 -7.748165E+06 -1.246989E+06 -6.673098E+05 -2.967258E+06 -4.521671E+05 -1.373518E+05
        28  27 -7.934982E+06 -2.306006E+06 -1.326207E+06 -2.873829E+06 -7.018450E+05 -2.532228E+05
        29   1  3.276904E+05  1.196952E+05  3.620482E+05 -2.280285E+05  6.011660E+02  2.221995E+05
        29   2  8.081646E+04  4.656392E+04  1.885020E+05 -1.222066E+05  2.678400E+03  1.282228E+05
        29   3  1.543342E+04  3.100608E+04  1.215227E+05 -2.641753E+04  1.533400E+03  3.424456E+04
        29   4  2.964007E+05 -2.383553E+03  3.325480E+05 -4.337189E+04  6.789810E+02  2.165815E+05
        29   5  6.167947E+04 -3.071272E+04  1.722504E+05 -3.866390E+04  2.696484E+03  1.278299E+05
        29   6  7.519473E+03 -2.384405E+03  1.149000E+05 -4.397388E+04  1.522170E+03  3.906970E+04
        29   7  2.652380E+05 -1.243756E+05  3.030650E+05  1.412482E+05  7.534666E+02  2.109646E+05
        29   8  4.256828E+04 -1.079688E+05  1.560023E+05  4.486818E+04  2.714465E+03  1.274370E+05
        29   9 -3.933648E+02 -3.577311E+04  1.082775E+05 -6.152927E+04  1.510666E+03  4.389459E+04
        29  10  3.276771E+05  1.196423E+05  3.619555E+05 -2.280286E+05 -1.768846E-09 -3.440578E-08
        29  11  8.081204E+04  4.654627E+04  1.884710E+05 -1.222069E+05  7.580057E-11  3.452060E-09
        29  12  1.543310E+04  3.100482E+04  1.215205E+05 -2.641757E+04 -4.557059E-09  4.104821E-08
        29  13  2.963881E+05 -2.433912E+03  3.324598E+05 -4.337201E+04  3.367976E-09 -1.108906E-09
        29  14  6.167507E+04 -3.073027E+04  1.722197E+05 -3.866418E+04  7.677827E-10 -5.263750E-12
        29  15  7.519061E+03 -2.386045E+03  1.148971E+05 -4.397393E+04  4.357744E-09 -1.189137E-09
        29  16  2.652260E+05 -1.244234E+05  3.029814E+05  1.412481E+05 -4.070913E-09  3.419472E-08
        29  17  4.256391E+04 -1.079862E+05  1.559717E+05  4.486791E+04 -3.042441E-09 -2.914408E-09
        29  18 -3.938845E+02 -3.577518E+04  1.082739E+05 -6.152933E+04 -4.778490E-09 -4.193093E-08
        29  19  3.276904E+05  1.196952E+05  3.620482E+05 -2.280285E+05 -6.011660E+02 -2.221995E+05
        29  20  8.081646E+04  4.656392E+04  1.885020E+05 -1.222066E+05 -2.678400E+03 -1.282228E+05
        29  21  1.543342E+04  3.100608E+04  1.215227E+05 -2.641753E+04 -1.533400E+03 -3.424456E+04
        29  22  2.964007E+05 -2.383553E+03  3.325480E+05 -4.337189E+04 -6.789810E+02 -2.165815E+05
        29  23  6.167947E+04 -3.071272E+04  1.722504E+05 -3.866390E+04 -2.696484E+03 -1.278299E+05
        29  24  7.519473E+03 -2.384405E+03  1.149000E+05 -4.397388E+04 -1.522170E+03 -3.906970E+04
        29  25  2.652380E+05 -1.243756E+05  3.030650E+05  1.412482E+05 -7.534666E+02 -2.109646E+05
        29  26  4.256828E+04 -1.079688E+05  1.560023E+05  4.486818E+04 -2.714465E+03 -1.274370E+05
        29  27 -3.933648E+02 -3.577311E+04  1.082775E+05 -6.152927E+04 -1.510666E+03 -4.389459E+04
        30   1  1.364565E+04 -8.305642E+03  1.050078E+05 -5.320674E+04 -2.326526E+02  1.755902E+04
        30   2 -4.438322E+03 -5.952262E+04  9.621569E+04 -3.763822E+04 -2.781930E+03 -3.377343E+04
        30   3  3.226571E+03 -9.766330E+04  1.272810E+05 -3.248934E+04 -5.168584E+03 -8.510303E+04
        30   4  1.261633E+04 -1.206152E+04  1.038525E+05 -4.398166E+04 -2.419177E+02  2.203195E+04
        30   5  5.187121E+03 -1.862031E+04  1.034100E+05 -3.876064E+04 -2.790756E+03 -2.957083E+04
        30   6  2.355222E+04 -1.205963E+04  1.430111E+05 -4.395835E+04 -5.175274E+03 -8.117426E+04
        30   7  1.158734E+04 -1.581716E+04  1.026973E+05 -3.475664E+04 -2.510500E+02  2.650485E+04
        30   8  1.481249E+04  2.228368E+04  1.106044E+05 -3.988314E+04 -2.799596E+03 -2.536797E+04
        30   9  4.387794E+04  7.355147E+04  1.587410E+05 -5.542897E+04 -5.182109E+03 -7.724497E+04
        30  10  1.364557E+04 -8.305973E+03  1.050073E+05 -5.320674E+04 -3.266492E-09 -1.101376E-08
        30  11 -4.438636E+03 -5.952384E+04  9.621353E+04 -3.763830E+04 -4.575703E-09 -4.448869E-11
        30  12  3.224598E+03 -9.767108E+04  1.272674E+05 -3.248970E+04 -1.720428E-09  9.529788E-09
        30  13  1.261620E+04 -1.206204E+04  1.038516E+05 -4.398166E+04  6.420417E-09 -1.083173E-09
        30  14  5.186878E+03 -1.862125E+04  1.034084E+05 -3.876071E+04  4.291010E-09  4.520621E-11
        30  15  2.355042E+04 -1.206671E+04  1.429987E+05 -4.395869E+04  4.624790E-10 -1.190022E-09
        30  16  1.158715E+04 -1.581791E+04  1.026959E+05 -3.475664E+04 -7.251374E-09  1.073287E-08
        30  17  1.481230E+04  2.228299E+04  1.106032E+05 -3.988320E+04 -2.086782E-10  5.324053E-10
        30  18  4.387631E+04  7.354505E+04  1.587297E+05 -5.542929E+04 -1.627037E-09 -1.029208E-08
        30  19  1.364565E+04 -8.305642E+03  1.050078E+05 -5.320674E+04  2.326526E+02 -1.755902E+04
        30  20 -4.438322E+03 -5.952262E+04  9.621569E+04 -3.763822E+04  2.781930E+03  3.377343E+04
        30  21  3.226571E+03 -9.766330E+04  1.272810E+05 -3.248934E+04  5.168584E+03  8.510303E+04
        30  22  1.261633E+04 -1.206152E+04  1.038525E+05 -4.398166E+04  2.419177E+02 -2.203195E+04
        30  23  5.187121E+03 -1.862031E+04  1.034100E+05 -3.876064E+04  2.790756E+03  2.957083E+04
        30  24  2.355222E+04 -1.205963E+04  1.430111E+05 -4.395835E+04  5.175274E+03  8.117426E+04
        30  25  1.158734E+04 -1.581716E+04  1.026973E+05 -3.475664E+04  2.510500E+02 -2.650485E+04
        30  26  1.481249E+04  2.228368E+04  1.106044E+05 -3.988314E+04  2.799596E+03  2.536797E+04
        30  27  4.387794E+04  7.355147E+04  1.587410E+05 -5.542897E+04  5.182109E+03  7.724497E+04
        31   1 -1.387892E+04 -1.075150E+05  1.548240E+05 -7.834174E+04 -6.832836E+03 -1.097905E+05
        31   2  7.465328E+04 -2.021622E+05  2.681366E+05  1.128318E+05 -6.826876E+03 -2.563629E+05
        31   3  4.924676E+05 -1.953527E+05  5.592880E+05  2.943270E+05 -1.786972E+03 -4.029107E+05
        31   4  1.328631E+04  7.876272E+03  1.761223E+05 -4.395412E+04 -6.848386E+03 -1.052512E+05
        31   5  1.135086E+05 -4.352180E+04  3.002010E+05 -3.856299E+04 -6.756332E+03 -2.602126E+05
        31   6  5.442901E+05  7.881781E+03  6.078979E+05 -4.286338E+04 -1.543180E+03 -4.151617E+05
        31   7  4.045526E+04  1.232831E+05  1.974207E+05 -9.559931E+03 -6.863430E+03 -1.007111E+05
        31   8  1.524484E+05  1.151918E+05  3.322765E+05 -1.899973E+05 -6.683924E+03 -2.640633E+05
        31   9  5.965368E+05  2.113983E+05  6.565663E+05 -3.801651E+05 -1.286143E+03 -4.274167E+05
        31  10 -1.388220E+04 -1.075280E+05  1.548013E+05 -7.834235E+04  1.666617E-11  6.336355E-09
        31  11  7.463559E+04 -2.022328E+05  2.680130E+05  1.128304E+05  1.460778E-09  1.480356E-09
        31  12  4.924240E+05 -1.955270E+05  5.589828E+05  2.943264E+05  9.730601E-10 -4.697108E-09
        31  13  1.328329E+04  7.864366E+03  1.761014E+05 -4.395470E+04 -4.182274E-09 -1.095064E-09
        31  14  1.134904E+05 -4.359450E+04  3.000737E+05 -3.856441E+04 -1.654603E-09  1.760424E-11
        31  15  5.442438E+05  7.696779E+03  6.075739E+05 -4.286390E+04  2.240686E-09 -1.186467E-09
        31  16  4.045249E+04  1.232722E+05  1.974016E+05 -9.560487E+03 -2.676079E-09 -6.294010E-09
        31  17  1.524297E+05  1.151169E+05  3.321454E+05 -1.899987E+05  2.809726E-09 -9.391310E-10
        31  18  5.964878E+05  2.112023E+05  6.562231E+05 -3.801656E+05  2.358171E-09  3.735000E-09
        31  19 -1.387892E+04 -1.075150E+05  1.548240E+05 -7.834174E+04  6.832836E+03  1.097905E+05
        31  20  7.465328E+04 -2.021622E+05  2.681366E+05  1.128318E+05  6.826876E+03  2.563629E+05
        31  21  4.924676E+05 -1.953527E+05  5.592880E+05  2.943270E+05  1.786972E+03  4.029107E+05
        31  22  1.328631E+04  7.876272E+03  1.761223E+05 -4.395412E+04  6.848386E+03  1.052512E+05
        31  23  1.135086E+05 -4.352180E+04  3.002010E+05 -3.856299E+04  6.756332E+03  2.602126E+05
        31  24  5.442901E+05  7.881781E+03  6.078979E+05 -4.286338E+04  1.543180E+03  4.151617E+05
        31  25  4.045526E+04  1.232831E+05  1.974207E+05 -9.559931E+03  6.863430E+03  1.007111E+05
        31  26  1.524484E+05  1.151918E+05  3.322765E+05 -1.899973E+05  6.683924E+03  2.640633E+05
        31  27  5.965368E+05  2.113983E+05  6.565663E+05 -3.801651E+05  1.286143E+03  4.274167E+05
        32   1 -4.467521E+06 -1.344075E+06 -7.778402E+05 -1.591847E+06 -3.311152E+05 -1.116773E+05
        32   2 -4.347346E+06 -8.323883E+05 -4.616193E+05 -1.604541E+06 -2.157324E+05 -4.213038E+04
        32   3 -4.364666E+06 -8.088883E+05 -3.594215E+05 -1.553671E+06 -9.056804E+04  1.507945E+03
        32   4 -3.488499E+06 -8.639686E+05 -4.888195E+05 -1.213426E+06 -3.138745E+05 -1.052517E+05
        32   5 -3.395342E+06 -4.420365E+05 -2.041010E+05 -1.312562E+06 -2.110641E+05 -4.039143E+04
        32   6 -3.436907E+06 -5.053857E+05 -1.231345E+05 -1.348210E+06 -9.848747E+04 -1.461871E+03
        32   7 -2.508523E+06 -3.836011E+05 -1.998945E+05 -8.344005E+05 -2.966036E+05 -9.880698E+04
        32   8 -2.442455E+06 -5.158427E+04  5.333447E+04 -1.020160E+06 -2.063878E+05 -3.864881E+04
        32   9 -2.508311E+06 -2.018789E+05  1.130849E+05 -1.142494E+06 -1.064199E+05 -4.435085E+03
        32  10 -4.467643E+06 -1.344118E+06 -7.780716E+05 -1.591877E+06 -2.899797E-09  1.549063E-10
        32  11 -4.347397E+06 -8.324028E+05 -4.617108E+05 -1.604549E+06 -3.844513E-09  2.564462E-10
        32  12 -4.364675E+06 -8.088905E+05 -3.594370E+05 -1.553671E+06 -5.097053E-09 -8.555004E-10
        32  13 -3.488609E+06 -8.640072E+05 -4.890267E+05 -1.213453E+06  5.077392E-10 -6.523784E-11
        32  14 -3.395391E+06 -4.420503E+05 -2.041883E+05 -1.312569E+06  3.932950E-09  1.351992E-10
        32  15 -3.436918E+06 -5.053884E+05 -1.231528E+05 -1.348211E+06 -3.282177E-09 -7.964390E-10
        32  16 -2.508620E+06 -3.836354E+05 -2.000790E+05 -8.344241E+05 -1.484021E-09  3.098262E-10
        32  17 -2.442502E+06 -5.159738E+04  5.325125E+04 -1.020166E+06  4.563699E-10  7.894118E-10
        32  18 -2.508323E+06 -2.018820E+05  1.130635E+05 -1.142494E+06 -4.460081E-09 -6.820198E-10
        32  19 -4.467521E+06 -1.344075E+06 -7.778402E+05 -1.591847E+06  3.311152E+05  1.116773E+05
        32  20 -4.347346E+06 -8.323883E+05 -4.616193E+05 -1.604541E+06  2.157324E+05  4.213038E+04
        32  21 -4.364666E+06 -8.088883E+05 -3.594215E+05 -1.553671E+06  9.056804E+04 -1.507945E+03
        32  22 -3.488499E+06 -8.639686E+05 -4.888195E+05 -1.213426E+06  3.138745E+05  1.052517E+05
        32  23 -3.395342E+06 -4.420365E+05 -2.041010E+05 -1.312562E+06  2.110641E+05  4.039143E+04
        32  24 -3.436907E+06 -5.053857E+05 -1.231345E+05 -1.348210E+06  9.848747E+04  1.461871E+03
        32  25 -2.508523E+06 -3.836011E+05 -1.998945E+05 -8.344005E+05  2.966036E+05  9.880698E+04
        32  26 -2.442455E+06 -5.158427E+04  5.333447E+04 -1.020160E+06  2.063878E+05  3.864881E+04
        32  27 -2.508311E+06 -2.018789E+05  1.130849E+05 -1.142494E+06  1.064199E+05  4.435085E+03
        33   1 -4.181665E+06 -8.554168E+05 -3.040840E+05 -1.539786E+06 -7.833409E+04 -6.651506E+02
        33   2 -4.104771E+06 -7.436328E+05 -2.262019E+05 -1.489446E+06 -5.149545E+04  6.958003E+03
        33   3 -3.995388E+06 -7.327753E+05 -1.806639E+05 -1.488351E+06 -2.383686E+04  1.239130E+04
        33   4 -3.419311E+06 -5.577815E+05 -1.001148E+05 -1.321438E+06 -7.890932E+04 -8.850341E+02
        33   5 -3.432899E+06 -4.882118E+05 -4.813061E+04 -1.303995E+06 -5.311676E+04  6.348324E+03
        33   6 -3.413776E+06 -5.193233E+05 -2.762535E+04 -1.335800E+06 -2.650889E+04  1.139059E+04
        33   7 -2.656388E+06 -2.600984E+05  1.038037E+05 -1.102842E+06 -7.948529E+04 -1.105213E+03
        33   8 -2.760586E+06 -2.327606E+05  1.299018E+05 -1.118360E+06 -5.473998E+04  5.737911E+03
        33   9 -2.831836E+06 -3.058551E+05  1.253844E+05 -1.183122E+06 -2.918368E+04  1.038890E+04
        33  10 -4.181671E+06 -8.554184E+05 -3.040956E+05 -1.539786E+06 -2.554898E-09 -1.284480E-09
        33  11 -4.104774E+06 -7.436335E+05 -2.262070E+05 -1.489445E+06  9.788809E-10 -1.089806E-09
        33  12 -3.995389E+06 -7.327756E+05 -1.806653E+05 -1.488351E+06 -5.720606E-10 -3.547122E-10
        33  13 -3.419317E+06 -5.577832E+05 -1.001266E+05 -1.321439E+06 -6.705914E-10 -1.406238E-09
        33  14 -3.432902E+06 -4.882126E+05 -4.813601E+04 -1.303994E+06 -4.275869E-09 -2.108746E-09
        33  15 -3.413777E+06 -5.193236E+05 -2.762692E+04 -1.335800E+06 -2.189979E-09 -1.220389E-10
        33  16 -2.656395E+06 -2.601001E+05  1.037918E+05 -1.102842E+06 -1.884685E-09 -1.955229E-09
        33  17 -2.760590E+06 -2.327615E+05  1.298960E+05 -1.118360E+06 -3.325438E-09 -2.067956E-09
        33  18 -2.831837E+06 -3.058554E+05  1.253826E+05 -1.183122E+06 -1.304430E-09  1.851230E-10
        33  19 -4.181665E+06 -8.554168E+05 -3.040840E+05 -1.539786E+06  7.833409E+04  6.651506E+02
        33  20 -4.104771E+06 -7.436328E+05 -2.262019E+05 -1.489446E+06  5.149545E+04 -6.958003E+03
        33  21 -3.995388E+06 -7.327753E+05 -1.806639E+05 -1.488351E+06  2.383686E+04 -1.239130E+04
        33  22 -3.419311E+06 -5.577815E+05 -1.001148E+05 -1.321438E+06  7.890932E+04  8.850341E+02
        33  23 -3.432899E+06 -4.882118E+05 -4.813061E+04 -1.303995E+06  5.311676E+04 -6.348324E+03
        33  24 -3.413776E+06 -5.193233E+05 -2.762535E+04 -1.335800E+06  2.650889E+04 -1.139059E+04
        33  25 -2.656388E+06 -2.600984E+05  1.038037E+05 -1.102842E+06  7.948529E+04  1.105213E+03
        33  26 -2.760586E+06 -2.327606E+05  1.299018E+05 -1.118360E+06  5.473998E+04 -5.737911E+03
        33  27 -2.831836E+06 -3.058551E+05  1.253844E+05 -1.183122E+06  2.918368E+04 -1.038890E+04
        34   1 -3.847561E+06 -6.906203E+05 -1.368100E+05 -1.453369E+06 -1.932858E+04  1.075575E+04
        34   2 -3.770466E+06 -6.169822E+05 -9.901580E+04 -1.392131E+06 -1.184063E+04  8.473697E+03
        34   3 -3.637909E+06 -6.065065E+05 -6.693419E+04 -1.396504E+06 -4.258673E+03  5.932133E+03
        34   4 -3.410759E+06 -5.257251E+05 -2.157515E+04 -1.333901E+06 -2.146447E+04  9.956388E+03
        34   5 -3.438193E+06 -4.920870E+05 -1.123032E+04 -1.301862E+06 -1.410008E+04  7.629103E+03
        34   6 -3.410150E+06 -5.215831E+05 -6.495463E+03 -1.335436E+06 -6.642764E+03  5.041996E+03
        34   7 -2.973773E+06 -3.608185E+05  9.364291E+04 -1.214357E+06 -2.360201E+04  9.156406E+03
        34   8 -3.105812E+06 -3.671851E+05  7.654566E+04 -1.211549E+06 -1.636085E+04  6.784009E+03
        34   9 -3.182341E+06 -4.366566E+05  5.393897E+04 -1.274347E+06 -9.027826E+03  4.151503E+03
        34  10 -3.847562E+06 -6.906205E+05 -1.368109E+05 -1.453369E+06  2.060426E-09  7.605452E-10
        34  11 -3.770466E+06 -6.169824E+05 -9.901619E+04 -1.392131E+06  3.663439E-09 -1.375565E-09
        34  12 -3.637909E+06 -6.065066E+05 -6.693429E+04 -1.396504E+06  3.518164E-09 -1.723739E-09
        34  13 -3.410760E+06 -5.257254E+05 -2.157620E+04 -1.333901E+06 -4.284973E-10 -1.065551E-09
        34  14 -3.438193E+06 -4.920871E+05 -1.123080E+04 -1.301862E+06  2.481947E-09 -1.459974E-09
        34  15 -3.410150E+06 -5.215832E+05 -6.495594E+03 -1.335436E+06  3.076016E-09 -1.780676E-09
        34  16 -2.973774E+06 -3.608187E+05  9.364170E+04 -1.214357E+06 -7.477303E-10  5.410397E-12
        34  17 -3.105813E+06 -3.671852E+05  7.654507E+04 -1.211549E+06  1.401280E-10 -1.253524E-09
        34  18 -3.182341E+06 -4.366566E+05  5.393878E+04 -1.274347E+06  5.207315E-10 -9.797423E-10
        34  19 -3.847561E+06 -6.906203E+05 -1.368100E+05 -1.453369E+06  1.932858E+04 -1.075575E+04
        34  20 -3.770466E+06 -6.169822E+05 -9.901580E+04 -1.392131E+06  1.184063E+04 -8.473697E+03
        34  21 -3.637909E+06 -6.065065E+05 -6.693419E+04 -1.396504E+06  4.258673E+03 -5.932133E+03
        34  22 -3.410759E+06 -5.257251E+05 -2.157515E+04 -1.333901E+06  2.146447E+04 -9.956388E+03
        34  23 -3.438193E+06 -4.920870E+05 -1.123032E+04 -1.301862E+06  1.410008E+04 -7.629103E+03
        34  24 -3.410150E+06 -5.215831E+05 -6.495463E+03 -1.335436E+06  6.642764E+03 -5.041996E+03
        34  25 -2.973773E+06 -3.608185E+05  9.364291E+04 -1.214357E+06  2.360201E+04 -9.156406E+03
        34  26 -3.105812E+06 -3.671851E+05  7.654566E+04 -1.211549E+06  1.636085E+04 -6.784009E+03
        34  27 -3.182341E+06 -4.366566E+05  5.393897E+04 -1.274347E+06  9.027826E+03 -4.151503E+03
        35   1 -3.488338E+06 -5.519840E+05 -2.553547E+04 -1.356900E+06 -2.293835E+03  3.463550E+03
        35   2 -3.410049E+06 -4.813524E+05  4.398612E+03 -1.293485E+06  1.123510E+03 -7.037028E+02
        35   3 -3.272803E+06 -4.708023E+05  3.293280E+04 -1.298438E+06  4.542270E+03 -4.873048E+03
        35   4 -3.409582E+06 -5.224461E+05 -5.134615E+03 -1.335468E+06 -4.643865E+03  2.586446E+03
        35   5 -3.439030E+06 -4.922320E+05 -3.254254E+03 -1.301347E+06 -1.227620E+03 -1.581327E+03
        35   6 -3.409533E+06 -5.220997E+05 -2.771758E+03 -1.335597E+06  2.189694E+03 -5.751249E+03
        35   7 -3.330819E+06 -4.929078E+05  1.526578E+04 -1.314033E+06 -6.994227E+03  1.709218E+03
        35   8 -3.468011E+06 -5.031115E+05 -1.090713E+04 -1.309207E+06 -3.578619E+03 -2.458901E+03
        35   9 -3.546243E+06 -5.733953E+05 -3.847746E+04 -1.372748E+06 -1.622845E+02 -6.629227E+03
        35  10 -3.488338E+06 -5.519840E+05 -2.553550E+04 -1.356900E+06 -4.175851E-10 -1.263856E-09
        35  11 -3.410049E+06 -4.813524E+05  4.398609E+03 -1.293485E+06  9.077930E-10  3.685830E-09
        35  12 -3.272803E+06 -4.708024E+05  3.293272E+04 -1.298438E+06  3.725745E-09  4.305931E-09
        35  13 -3.409582E+06 -5.224461E+05 -5.134668E+03 -1.335468E+06  8.981458E-10 -1.263495E-09
        35  14 -3.439031E+06 -4.922320E+05 -3.254262E+03 -1.301347E+06  6.199933E-10  6.237138E-10
        35  15 -3.409533E+06 -5.220997E+05 -2.771829E+03 -1.335597E+06  3.352441E-09 -1.263686E-09
        35  16 -3.330819E+06 -4.929078E+05  1.526569E+04 -1.314033E+06  3.825069E-09  1.391279E-09
        35  17 -3.468011E+06 -5.031115E+05 -1.090717E+04 -1.309207E+06 -3.323727E-09  2.007347E-09
        35  18 -3.546243E+06 -5.733954E+05 -3.847754E+04 -1.372748E+06 -3.618466E-09  2.063503E-09
        35  19 -3.488338E+06 -5.519840E+05 -2.553547E+04 -1.356900E+06  2.293835E+03 -3.463550E+03
        35  20 -3.410049E+06 -4.813524E+05  4.398612E+03 -1.293485E+06 -1.123510E+03  7.037028E+02
        35  21 -3.272803E+06 -4.708023E+05  3.293280E+04 -1.298438E+06 -4.542270E+03  4.873048E+03
        35  22 -3.409582E+06 -5.224461E+05 -5.134615E+03 -1.335468E+06  4.643865E+03 -2.586446E+03
        35  23 -3.439030E+06 -4.922320E+05 -3.254254E+03 -1.301347E+06  1.227620E+03  1.581327E+03
        35  24 -3.409533E+06 -5.220997E+05 -2.771758E+03 -1.335597E+06 -2.189694E+03  5.751249E+03
        35  25 -3.330819E+06 -4.929078E+05  1.526578E+04 -1.314033E+06  6.994227E+03 -1.709218E+03
        35  26 -3.468011E+06 -5.031115E+05 -1.090713E+04 -1.309207E+06  3.578619E+03  2.458901E+03
        35  27 -3.546243E+06 -5.733953E+05 -3.847746E+04 -1.372748E+06  1.622845E+02  6.629227E+03
        36   1 -3.125094E+06 -4.147745E+05  7.273236E+04 -1.258002E+06  6.030558E+03 -7.485760E+03
        36   2 -3.049673E+06 -3.468546E+05  9.879284E+04 -1.196502E+06  9.651124E+03 -1.147030E+04
        36   3 -2.917131E+06 -3.371289E+05  1.232966E+05 -1.200910E+06  1.322333E+04 -1.531106E+04
        36   4 -3.409951E+06 -5.216136E+05 -2.860257E+03 -1.335085E+06  3.689936E+03 -8.359943E+03
        36   5 -3.438554E+06 -4.928321E+05 -3.872848E+03 -1.302010E+06  7.379459E+03 -1.231991E+04
        36   6 -3.410060E+06 -5.222631E+05 -6.497086E+03 -1.334850E+06  1.102025E+04 -1.613614E+04
        36   7 -3.694732E+06 -6.284491E+05 -7.846064E+04 -1.412137E+06  1.350476E+03 -9.233692E+03
        36   8 -3.827292E+06 -6.388017E+05 -1.065524E+05 -1.407458E+06  5.109343E+03 -1.316894E+04
        36   9 -3.902757E+06 -7.073839E+05 -1.363125E+05 -1.468695E+06  8.819069E+03 -1.696050E+04
        36  10 -3.125094E+06 -4.147745E+05  7.273218E+04 -1.258002E+06 -3.381273E-09  4.450774E-10
        36  11 -3.049673E+06 -3.468547E+05  9.879242E+04 -1.196502E+06  2.469796E-09  1.271675E-09
        36  12 -2.917131E+06 -3.371292E+05  1.232959E+05 -1.200909E+06  4.293087E-09  2.427002E-09
        36  13 -3.409951E+06 -5.216137E+05 -2.860414E+03 -1.335085E+06  4.428070E-09 -1.930476E-09
        36  14 -3.438555E+06 -4.928323E+05 -3.873235E+03 -1.302010E+06  5.190394E-09 -3.002243E-11
        36  15 -3.410061E+06 -5.222634E+05 -6.497802E+03 -1.334850E+06  1.947840E-09  1.128030E-09
        36  16 -3.694732E+06 -6.284492E+05 -7.846080E+04 -1.412136E+06  2.420338E-09  4.580304E-09
        36  17 -3.827292E+06 -6.388019E+05 -1.065528E+05 -1.407458E+06 -3.850903E-09  2.584151E-10
        36  18 -3.902757E+06 -7.073842E+05 -1.363132E+05 -1.468695E+06 -2.518755E-09  2.310297E-11
        36  19 -3.125094E+06 -4.147745E+05  7.273236E+04 -1.258002E+06 -6.030558E+03  7.485760E+03
        36  20 -3.049673E+06 -3.468546E+05  9.879284E+04 -1.196502E+06 -9.651124E+03  1.147030E+04
        36  21 -2.917131E+06 -3.371289E+05  1.232966E+05 -1.200910E+06 -1.322333E+04  1.531106E+04
        36  22 -3.409951E+06 -5.216136E+05 -2.860257E+03 -1.335085E+06 -3.689936E+03  8.359943E+03
        36  23 -3.438554E+06 -4.928321E+05 -3.872848E+03 -1.302010E+06 -7.379459E+03  1.231991E+04
        36  24 -3.410060E+06 -5.222631E+05 -6.497086E+03 -1.334850E+06 -1.102025E+04  1.613614E+04
        36  25 -3.694732E+06 -6.284491E+05 -7.846064E+04 -1.412137E+06 -1.350476E+03  9.233692E+03
        36  26 -3.827292E+06 -6.388017E+05 -1.065524E+05 -1.407458E+06 -5.109343E+03  1.316894E+04
        36  27 -3.902757E+06 -7.073839E+05 -1.363125E+05 -1.468695E+06 -8.819069E+03  1.696050E+04
        37   1 -2.779594E+06 -2.836504E+05  1.587800E+05 -1.163087E+06  1.543041E+04 -1.747514E+04
        37   2 -2.711220E+06 -2.206772E+05  1.769672E+05 -1.106217E+06  2.425906E+04 -1.906451E+04
        37   3 -2.593412E+06 -2.164373E+05  1.881329E+05 -1.107512E+06  3.293820E+04 -2.023007E+04
        37   4 -3.411532E+06 -5.203294E+05 -8.310973E+03 -1.333922E+06  1.320859E+04 -1.830832E+04
        37   5 -3.436634E+06 -4.936888E+05 -1.464360E+04 -1.303815E+06  2.223644E+04 -1.982506E+04
        37   6 -3.412353E+06 -5.258301E+05 -2.816212E+04 -1.331879E+06  3.111354E+04 -2.091818E+04
        37   7 -4.043076E+06 -7.569826E+05 -1.754345E+05 -1.504598E+06  1.098929E+04 -1.914057E+04
        37   8 -4.161535E+06 -7.666675E+05 -2.062991E+05 -1.501203E+06  2.021642E+04 -2.058464E+04
        37   9 -4.230646E+06 -8.351822E+05 -2.445160E+05 -1.555978E+06  2.929151E+04 -2.160531E+04
        37  10 -2.779594E+06 -2.836508E+05  1.587790E+05 -1.163087E+06  4.395884E-09  1.822849E-09
        37  11 -2.711221E+06 -2.206778E+05  1.769654E+05 -1.106217E+06  4.241148E-10 -9.626975E-11
        37  12 -2.593413E+06 -2.164380E+05  1.881301E+05 -1.107512E+06  1.359121E-09 -7.873922E-10
        37  13 -3.411532E+06 -5.203298E+05 -8.311930E+03 -1.333922E+06 -4.579644E-10  1.770882E-09
        37  14 -3.436635E+06 -4.936893E+05 -1.464527E+04 -1.303815E+06  1.413415E-09  4.709463E-10
        37  15 -3.412354E+06 -5.258308E+05 -2.816476E+04 -1.331878E+06  1.513263E-09 -4.961322E-10
        37  16 -4.043076E+06 -7.569831E+05 -1.754354E+05 -1.504597E+06 -3.035882E-09  1.676763E-09
        37  17 -4.161536E+06 -7.666680E+05 -2.063007E+05 -1.501202E+06  3.696968E-10  2.888516E-10
        37  18 -4.230647E+06 -8.351829E+05 -2.445185E+05 -1.555977E+06 -7.370801E-10 -1.147790E-09
        37  19 -2.779594E+06 -2.836504E+05  1.587800E+05 -1.163087E+06 -1.543041E+04  1.747514E+04
        37  20 -2.711220E+06 -2.206772E+05  1.769672E+05 -1.106217E+06 -2.425906E+04  1.906451E+04
        37  21 -2.593412E+06 -2.164373E+05  1.881329E+05 -1.107512E+06 -3.293820E+04  2.023007E+04
        37  22 -3.411532E+06 -5.203294E+05 -8.310973E+03 -1.333922E+06 -1.320859E+04  1.830832E+04
        37  23 -3.436634E+06 -4.936888E+05 -1.464360E+04 -1.303815E+06 -2.223644E+04  1.982506E+04
        37  24 -3.412353E+06 -5.258301E+05 -2.816212E+04 -1.331879E+06 -3.111354E+04  2.091818E+04
        37  25 -4.043076E+06 -7.569826E+05 -1.754345E+05 -1.504598E+06 -1.098929E+04  1.914057E+04
        37  26 -4.161535E+06 -7.666675E+05 -2.062991E+05 -1.501203E+06 -2.021642E+04  2.058464E+04
        37  27 -4.230646E+06 -8.351822E+05 -2.445160E+05 -1.555978E+06 -2.929151E+04  2.160531E+04
        38   1 -2.471099E+06 -1.675529E+05  2.127310E+05 -1.082932E+06  3.971154E+04 -2.065397E+04
        38   2 -2.412432E+06 -1.021827E+05  2.063519E+05 -1.025725E+06  7.243986E+04 -1.242493E+04
        38   3 -2.335921E+06 -1.422188E+05  1.600290E+05 -1.002833E+06  1.041462E+05 -1.451956E+03
        38   4 -3.416741E+06 -5.169949E+05 -3.608225E+04 -1.333853E+06  3.724932E+04 -2.158275E+04
        38   5 -3.429163E+06 -4.892300E+05 -6.298321E+04 -1.307266E+06  7.127568E+04 -1.286858E+04
        38   6 -3.424045E+06 -5.672036E+05 -1.309134E+05 -1.314995E+06  1.042752E+05 -1.411169E+03
        38   7 -4.361516E+06 -8.663911E+05 -2.849720E+05 -1.584431E+06  3.479121E+04 -2.251006E+04
        38   8 -4.444887E+06 -8.762078E+05 -3.324076E+05 -1.588386E+06  7.011354E+04 -1.331147E+04
        38   9 -4.511014E+06 -9.920916E+05 -4.219595E+05 -1.626651E+06  1.044039E+05 -1.370544E+03
        38  10 -2.471101E+06 -1.675538E+05  2.127272E+05 -1.082931E+06  5.283977E-10  4.949587E-11
        38  11 -2.412438E+06 -1.021843E+05  2.063418E+05 -1.025724E+06  1.160027E-09  9.812513E-10
        38  12 -2.335933E+06 -1.422217E+05  1.600086E+05 -1.002833E+06 -1.768851E-09  2.282620E-10
        38  13 -3.416743E+06 -5.169958E+05 -3.608574E+04 -1.333852E+06  2.029252E-09  4.072267E-10
        38  14 -3.429168E+06 -4.892315E+05 -6.299311E+04 -1.307265E+06  2.991499E-09  1.172142E-09
        38  15 -3.424057E+06 -5.672065E+05 -1.309340E+05 -1.314995E+06 -5.704776E-10 -7.263493E-10
        38  16 -4.361518E+06 -8.663920E+05 -2.849752E+05 -1.584430E+06  9.727787E-10 -5.650772E-10
        38  17 -4.444892E+06 -8.762093E+05 -3.324173E+05 -1.588385E+06  2.687059E-09  1.515013E-09
        38  18 -4.511025E+06 -9.920946E+05 -4.219801E+05 -1.626651E+06  3.076210E-10 -2.432072E-09
        38  19 -2.471099E+06 -1.675529E+05  2.127310E+05 -1.082932E+06 -3.971154E+04  2.065397E+04
        38  20 -2.412432E+06 -1.021827E+05  2.063519E+05 -1.025725E+06 -7.243986E+04  1.242493E+04
        38  21 -2.335921E+06 -1.422188E+05  1.600290E+05 -1.002833E+06 -1.041462E+05  1.451956E+03
        38  22 -3.416741E+06 -5.169949E+05 -3.608225E+04 -1.333853E+06 -3.724932E+04  2.158275E+04
        38  23 -3.429163E+06 -4.892300E+05 -6.298321E+04 -1.307266E+06 -7.127568E+04  1.286858E+04
        38  24 -3.424045E+06 -5.672036E+05 -1.309134E+05 -1.314995E+06 -1.042752E+05  1.411169E+03
        38  25 -4.361516E+06 -8.663911E+05 -2.849720E+05 -1.584431E+06 -3.479121E+04  2.251006E+04
        38  26 -4.444887E+06 -8.762078E+05 -3.324076E+05 -1.588386E+06 -7.011354E+04  1.331147E+04
        38  27 -4.511014E+06 -9.920916E+05 -4.219595E+05 -1.626651E+06 -1.044039E+05  1.370544E+03
        39   1 -2.208202E+06 -9.108946E+04  1.544737E+05 -1.072289E+06  1.380799E+05  4.296396E+03
        39   2 -2.157502E+06  7.494459E+04  6.383003E+04 -9.406460E+05  2.691556E+05  5.188649E+04
        39   3 -2.306199E+06 -3.627033E+05 -2.806206E+05 -6.947484E+05  3.882639E+05  1.310773E+05
        39   4 -3.447068E+06 -4.987259E+05 -1.610361E+05 -1.350063E+06  1.292731E+05  9.768032E+02
        39   5 -3.379754E+06 -4.289868E+05 -2.669487E+05 -1.318653E+06  2.756350E+05  5.431275E+04
        39   6 -3.515350E+06 -9.667317E+05 -6.392351E+05 -1.172871E+06  4.100161E+05  1.392257E+05
        39   7 -4.684446E+06 -9.063528E+05 -4.766678E+05 -1.627375E+06  1.204854E+05 -2.337699E+03
        39   8 -4.600542E+06 -9.327439E+05 -5.978612E+05 -1.695954E+06  2.820998E+05  5.673236E+04
        39   9 -4.723020E+06 -1.570320E+06 -9.979889E+05 -1.650037E+06  4.317207E+05  1.473432E+05
        39  10 -2.208223E+06 -9.109462E+04  1.544377E+05 -1.072290E+06 -1.315504E-09 -2.792500E-09
        39  11 -2.157581E+06  7.492214E+04  6.368826E+04 -9.406573E+05  4.203960E-09 -3.437216E-09
        39  12 -2.306366E+06 -3.627625E+05 -2.809375E+05 -6.947895E+05  3.066729E-09  5.738004E-10
        39  13 -3.447086E+06 -4.987304E+05 -1.610677E+05 -1.350063E+06  1.498458E-10  1.232094E-09
        39  14 -3.379836E+06 -4.290106E+05 -2.670979E+05 -1.318665E+06 -2.399062E-09  1.460827E-09
        39  15 -3.515537E+06 -9.667981E+05 -6.395897E+05 -1.172917E+06  8.587594E-10  1.080969E-10
        39  16 -4.684462E+06 -9.063568E+05 -4.766952E+05 -1.627374E+06  1.868085E-09  1.115713E-09
        39  17 -4.600629E+06 -9.327690E+05 -5.980181E+05 -1.695967E+06 -5.161886E-09  6.587054E-09
        39  18 -4.723227E+06 -1.570394E+06 -9.983833E+05 -1.650089E+06 -1.446130E-09  2.216026E-09
        39  19 -2.208202E+06 -9.108946E+04  1.544737E+05 -1.072289E+06 -1.380799E+05 -4.296396E+03
        39  20 -2.157502E+06  7.494459E+04  6.383003E+04 -9.406460E+05 -2.691556E+05 -5.188649E+04
        39  21 -2.306199E+06 -3.627033E+05 -2.806206E+05 -6.947484E+05 -3.882639E+05 -1.310773E+05
        39  22 -3.447068E+06 -4.987259E+05 -1.610361E+05 -1.350063E+06 -1.292731E+05 -9.768032E+02
        39  23 -3.379754E+06 -4.289868E+05 -2.669487E+05 -1.318653E+06 -2.756350E+05 -5.431275E+04
        39  24 -3.515350E+06 -9.667317E+05 -6.392351E+05 -1.172871E+06 -4.100161E+05 -1.392257E+05
        39  25 -4.684446E+06 -9.063528E+05 -4.766678E+05 -1.627375E+06 -1.204854E+05  2.337699E+03
        39  26 -4.600542E+06 -9.327439E+05 -5.978612E+05 -1.695954E+06 -2.820998E+05 -5.673236E+04
        39  27 -4.723020E+06 -1.570320E+06 -9.979889E+05 -1.650037E+06 -4.317207E+05 -1.473432E+05
        40   1  1.283012E+05 -8.414178E+05  1.218279E+05 -2.482714E+03  1.706733E+04  1.227344E+03
        40   2  1.258009E+05 -8.516616E+05  1.180723E+05  9.589605E+02  1.665150E+04  2.714911E+03
        40   3  1.223041E+05 -8.621377E+05  1.131427E+05 -3.000081E+03  1.614671E+04  4.201758E+03
        40   4  1.265097E+01 -1.358637E+06 -1.764629E+03 -1.643816E+03  1.706778E+04  1.420446E+03
        40   5  7.574981E+01 -1.358516E+06 -3.068588E+03  2.055414E+03  1.665173E+04  2.953841E+03
        40   6 -8.662312E+02 -1.358637E+06 -5.579065E+03 -1.646446E+03  1.614668E+04  4.486541E+03
        40   7 -1.282953E+05 -1.875610E+06 -1.253761E+05 -8.054641E+02  1.706824E+04  1.613387E+03
        40   8 -1.256681E+05 -1.865135E+06 -1.242277E+05  3.151133E+03  1.665196E+04  3.192576E+03
        40   9 -1.240544E+05 -1.854909E+06 -1.243183E+05 -2.937236E+02  1.614665E+04  4.771096E+03
        40  10  1.283009E+05 -8.414179E+05  1.218274E+05 -2.482731E+03  1.882130E-09 -7.117944E-10
        40  11  1.258006E+05 -8.516617E+05  1.180718E+05  9.589241E+02  1.515947E-09 -1.396046E-09
        40  12  1.223038E+05 -8.621378E+05  1.131422E+05 -3.000136E+03  5.242997E-11 -3.710916E-10
        40  13  1.233781E+01 -1.358637E+06 -1.765180E+03 -1.643835E+03 -1.776587E-09  2.415212E-11
        40  14  7.544990E+01 -1.358517E+06 -3.069126E+03  2.055374E+03  8.867231E-09 -1.632745E-09
        40  15 -8.665164E+02 -1.358637E+06 -5.579592E+03 -1.646505E+03 -3.623874E-10 -9.660687E-10
        40  16 -1.282956E+05 -1.875610E+06 -1.253766E+05 -8.054863E+02 -1.714156E-09  1.094258E-11
        40  17 -1.256684E+05 -1.865135E+06 -1.242282E+05  3.151090E+03  4.379802E-09  3.867163E-10
        40  18 -1.240547E+05 -1.854909E+06 -1.243188E+05 -2.937857E+02  1.972735E-09  1.569647E-09
        40  19  1.283012E+05 -8.414178E+05  1.218279E+05 -2.482714E+03 -1.706733E+04 -1.227344E+03
        40  20  1.258009E+05 -8.516616E+05  1.180723E+05  9.589605E+02 -1.665150E+04 -2.714911E+03
        40  21  1.223041E+05 -8.621377E+05  1.131427E+05 -3.000081E+03 -1.614671E+04 -4.201758E+03
        40  22  1.265097E+01 -1.358637E+06 -1.764629E+03 -1.643816E+03 -1.706778E+04 -1.420446E+03
        40  23  7.574981E+01 -1.358516E+06 -3.068588E+03  2.055414E+03 -1.665173E+04 -2.953841E+03
        40  24 -8.662312E+02 -1.358637E+06 -5.579065E+03 -1.646446E+03 -1.614668E+04 -4.486541E+03
        40  25 -1.282953E+05 -1.875610E+06 -1.253761E+05 -8.054641E+02 -1.706824E+04 -1.613387E+03
        40  26 -1.256681E+05 -1.865135E+06 -1.242277E+05  3.151133E+03 -1.665196E+04 -3.192576E+03
        40  27 -1.240544E+05 -1.854909E+06 -1.243183E+05 -2.937236E+02 -1.614665E+04 -4.771096E+03
        41   1  1.198518E+05 -8.777997E+05  1.078864E+05 -2.006497E+03  1.594118E+04  5.489715E+03
        41   2  1.173690E+05 -8.892075E+05  9.987725E+04  7.009307E+02  1.536894E+04  1.133183E+04
        41   3  1.045121E+05 -9.038291E+05  8.549703E+04 -5.912747E+03  1.414798E+04  1.717079E+04
        41   4  4.307229E+02 -1.359306E+06 -7.150563E+03 -2.061278E+03  1.594160E+04  5.607399E+03
        41   5  1.157376E+03 -1.357672E+06 -1.208857E+04  2.582840E+03  1.536810E+04  1.178758E+04
        41   6 -8.553263E+03 -1.359313E+06 -2.363593E+04 -2.094629E+03  1.414569E+04  1.796472E+04
        41   7 -1.190072E+05 -1.840599E+06 -1.222039E+05 -2.115841E+03  1.594203E+04  5.724990E+03
        41   8 -1.150702E+05 -1.825934E+06 -1.240699E+05  4.463498E+03  1.536726E+04  1.224298E+04
        41   9 -1.216337E+05 -1.814606E+06 -1.327836E+05  1.720853E+03  1.414341E+04  1.875806E+04
        41  10  1.198515E+05 -8.777998E+05  1.078859E+05 -2.006567E+03  1.905636E-09 -4.955740E-09
        41  11  1.173687E+05 -8.892077E+05  9.987657E+04  7.007905E+02  7.956275E-09 -5.683870E-10
        41  12  1.045118E+05 -9.038294E+05  8.549609E+04 -5.912943E+03  2.492689E-09  9.156578E-09
        41  13  4.304417E+02 -1.359306E+06 -7.151100E+03 -2.061350E+03  5.059660E-09  8.280903E-11
        41  14  1.157085E+03 -1.357672E+06 -1.208927E+04  2.582694E+03  6.810156E-09 -1.771973E-09
        41  15 -8.553564E+03 -1.359313E+06 -2.363692E+04 -2.094834E+03  2.170523E-09 -1.099402E-09
        41  16 -1.190074E+05 -1.840599E+06 -1.222045E+05 -2.115914E+03  1.552533E-09  3.934885E-09
        41  17 -1.150705E+05 -1.825934E+06 -1.240706E+05  4.463347E+03  3.341951E-09 -3.573430E-10
        41  18 -1.216340E+05 -1.814606E+06 -1.327846E+05  1.720639E+03 -4.089336E-09 -7.868733E-09
        41  19  1.198518E+05 -8.777997E+05  1.078864E+05 -2.006497E+03 -1.594118E+04 -5.489715E+03
        41  20  1.173690E+05 -8.892075E+05  9.987725E+04  7.009307E+02 -1.536894E+04 -1.133183E+04
        41  21  1.045121E+05 -9.038291E+05  8.549703E+04 -5.912747E+03 -1.414798E+04 -1.717079E+04
        41  22  4.307229E+02 -1.359306E+06 -7.150563E+03 -2.061278E+03 -1.594160E+04 -5.607399E+03
        41  23  1.157376E+03 -1.357672E+06 -1.208857E+04  2.582840E+03 -1.536810E+04 -1.178758E+04
        41  24 -8.553263E+03 -1.359313E+06 -2.363593E+04 -2.094629E+03 -1.414569E+04 -1.796472E+04
        41  25 -1.190072E+05 -1.840599E+06 -1.222039E+05 -2.115841E+03 -1.594203E+04 -5.724990E+03
        41  26 -1.150702E+05 -1.825934E+06 -1.240699E+05  4.463498E+03 -1.536726E+04 -1.224298E+04
        41  27 -1.216337E+05 -1.814606E+06 -1.327836E+05  1.720853E+03 -1.414341E+04 -1.875806E+04
        42   1  1.127649E+05 -9.275625E+05  7.528015E+04  7.639680E+03  1.496114E+04  2.416851E+04
        42   2  1.160146E+05 -9.290457E+05  5.410524E+04 -6.252020E+03  1.383533E+04  4.476805E+04
        42   3  1.748215E+04 -9.586059E+05 -5.926678E+03 -3.170812E+04  4.114365E+03  6.532818E+04
        42   4  4.414457E+03 -1.364985E+06 -2.901699E+04 -2.453433E+03  1.496830E+04  2.244148E+04
        42   5  1.137359E+04 -1.350573E+06 -4.660730E+04  3.136382E+03  1.382474E+04  4.755926E+04
        42   6 -8.427292E+04 -1.365042E+06 -1.062147E+05 -2.840096E+03  4.084716E+03  7.263777E+04
        42   7 -1.039494E+05 -1.802230E+06 -1.333275E+05 -1.253922E+04  1.497552E+04  2.071566E+04
        42   8 -9.328003E+04 -1.771937E+06 -1.473323E+05  1.251854E+04  1.381423E+04  5.034857E+04
        42   9 -1.860373E+05 -1.771327E+06 -2.065144E+05  2.600914E+04  4.055738E+03  7.994255E+04
        42  10  1.127645E+05 -9.275632E+05  7.527863E+04  7.639389E+03 -1.815165E-09  6.330166E-09
        42  11  1.160139E+05 -9.290479E+05  5.410111E+04 -6.252519E+03  1.645047E-10 -4.037077E-10
        42  12  1.748099E+04 -9.586104E+05 -5.934742E+03 -3.170834E+04 -9.442057E-10 -1.368676E-09
        42  13  4.414081E+03 -1.364985E+06 -2.901836E+04 -2.453703E+03 -1.082685E-09  1.204345E-10
        42  14  1.137278E+04 -1.350575E+06 -4.661192E+04  3.135852E+03 -6.206095E-10 -1.974872E-09
        42  15 -8.427436E+04 -1.365048E+06 -1.062247E+05 -2.840335E+03 -2.950329E-09 -1.721600E-09
        42  16 -1.039498E+05 -1.802231E+06 -1.333287E+05 -1.253947E+04 -2.493597E-09 -7.315313E-09
        42  17 -9.328092E+04 -1.771939E+06 -1.473374E+05  1.251798E+04 -2.862123E-09 -4.044475E-10
        42  18 -1.860390E+05 -1.771334E+06 -2.065265E+05  2.600888E+04 -1.405499E-11  2.668423E-09
        42  19  1.127649E+05 -9.275625E+05  7.528015E+04  7.639680E+03 -1.496114E+04 -2.416851E+04
        42  20  1.160146E+05 -9.290457E+05  5.410524E+04 -6.252020E+03 -1.383533E+04 -4.476805E+04
        42  21  1.748215E+04 -9.586059E+05 -5.926678E+03 -3.170812E+04 -4.114365E+03 -6.532818E+04
        42  22  4.414457E+03 -1.364985E+06 -2.901699E+04 -2.453433E+03 -1.496830E+04 -2.244148E+04
        42  23  1.137359E+04 -1.350573E+06 -4.660730E+04  3.136382E+03 -1.382474E+04 -4.755926E+04
        42  24 -8.427292E+04 -1.365042E+06 -1.062147E+05 -2.840096E+03 -4.084716E+03 -7.263777E+04
        42  25 -1.039494E+05 -1.802230E+06 -1.333275E+05 -1.253922E+04 -1.497552E+04 -2.071566E+04
        42  26 -9.328003E+04 -1.771937E+06 -1.473323E+05  1.251854E+04 -1.381423E+04 -5.034857E+04
        42  27 -1.860373E+05 -1.771327E+06 -2.065144E+05  2.600914E+04 -4.055738E+03 -7.994255E+04
        43   1  9.307014E+04  9.920954E+05  5.307348E+04 -1.991100E+02  3.257022E+04 -6.041944E+02
        43   2  9.320405E+04  9.922085E+05  5.380472E+04 -1.651616E+02  3.245974E+04 -1.550304E+03
        43   3  9.357203E+04  9.925124E+05  5.521260E+04 -1.120787E+02  3.220226E+04 -2.496519E+03
        43   4 -3.580611E+01  5.785787E+05  6.798177E+02  4.239933E+00  3.257247E+04 -5.140985E+02
        43   5  1.898382E+01  5.785138E+05  1.193227E+03 -5.268936E+00  3.246180E+04 -1.106563E+03
        43   6  2.466041E+02  5.785784E+05  2.138176E+03  4.356946E+00  3.220408E+04 -1.699127E+03
        43   7 -9.314873E+04  1.652374E+05 -5.171443E+04  2.074657E+02  3.257472E+04 -4.240596E+02
        43   8 -9.317308E+04  1.649945E+05 -5.141890E+04  1.545321E+02  3.246386E+04 -6.631027E+02
        43   9 -9.308588E+04  1.648199E+05 -5.093702E+04  1.207336E+02  3.220590E+04 -9.022396E+02
        43  10  9.306900E+04  9.920951E+05  5.307148E+04 -1.990942E+02  6.990997E-10 -9.296812E-08
        43  11  9.320292E+04  9.922082E+05  5.380273E+04 -1.651211E+02 -2.040575E-09  4.739609E-09
        43  12  9.357091E+04  9.925121E+05  5.521064E+04 -1.120140E+02 -8.488588E-09  1.054876E-07
        43  13 -3.694578E+01  5.785784E+05  6.778229E+02  4.253417E+00  2.700375E-09  4.515099E-10
        43  14  1.785162E+01  5.785136E+05  1.191244E+03 -5.240012E+00  2.953404E-09 -1.092765E-09
        43  15  2.454894E+02  5.785781E+05  2.136221E+03  4.401006E+00  1.017181E-08  7.089558E-10
        43  16 -9.314987E+04  1.652371E+05 -5.171642E+04  2.074769E+02 -4.894629E-10  9.205145E-08
        43  17 -9.317421E+04  1.649943E+05 -5.142089E+04  1.545494E+02 -1.344500E-09 -5.253155E-09
        43  18 -9.308699E+04  1.648196E+05 -5.093897E+04  1.207570E+02 -4.720548E-09 -1.051481E-07
        43  19  9.307014E+04  9.920954E+05  5.307348E+04 -1.991100E+02 -3.257022E+04  6.041944E+02
        43  20  9.320405E+04  9.922085E+05  5.380472E+04 -1.651616E+02 -3.245974E+04  1.550304E+03
        43  21  9.357203E+04  9.925124E+05  5.521260E+04 -1.120787E+02 -3.220226E+04  2.496519E+03
        43  22 -3.580611E+01  5.785787E+05  6.798177E+02  4.239934E+00 -3.257247E+04  5.140985E+02
        43  23  1.898382E+01  5.785138E+05  1.193227E+03 -5.268936E+00 -3.246180E+04  1.106563E+03
        43  24  2.466041E+02  5.785784E+05  2.138176E+03  4.356946E+00 -3.220408E+04  1.699127E+03
        43  25 -9.314873E+04  1.652374E+05 -5.171443E+04  2.074657E+02 -3.257472E+04  4.240596E+02
        43  26 -9.317308E+04  1.649945E+05 -5.141890E+04  1.545321E+02 -3.246386E+04  6.631027E+02
        43  27 -9.308588E+04  1.648199E+05 -5.093702E+04  1.207336E+02 -3.220590E+04  9.022396E+02
        44   1  9.379973E+04  9.928833E+05  5.622513E+04 -2.520886E+02  3.203961E+04 -2.998838E+03
        44   2  9.500999E+04  9.925359E+05  5.989943E+04  9.674578E+02  3.112679E+04 -8.180522E+03
        44   3  9.846368E+04  9.934319E+05  6.750676E+04  2.135299E+03  2.911602E+04 -1.336309E+04
        44   4  3.670090E+02  5.787243E+05  2.839834E+03 -1.156252E+01  3.204135E+04 -2.116424E+03
        44   5  1.281064E+03  5.783305E+05  5.071280E+03  1.529079E+01  3.112676E+04 -4.657914E+03
        44   6  3.981452E+03  5.787228E+05  9.405236E+03 -9.569522E+00  2.911386E+04 -7.200256E+03
        44   7 -9.307281E+04  1.647408E+05 -5.054632E+04  2.288191E+02  3.204309E+04 -1.234568E+03
        44   8 -9.245512E+04  1.643000E+05 -4.975811E+04 -9.361862E+02  3.112672E+04 -1.137542E+03
        44   9 -9.050840E+04  1.641879E+05 -4.869836E+04 -2.152917E+03  2.911165E+04 -1.041356E+03
        44  10  9.379863E+04  9.928830E+05  5.622318E+04 -2.520112E+02 -4.673003E-09 -3.581934E-08
        44  11  9.500893E+04  9.925356E+05  5.989749E+04  9.676627E+02 -6.014684E-09 -8.469550E-09
        44  12  9.846272E+04  9.934315E+05  6.750483E+04  2.135613E+03 -2.106802E-09  2.112010E-08
        44  13  3.659051E+02  5.787240E+05  2.837896E+03 -1.150791E+01  1.092665E-08  5.978283E-10
        44  14  1.280017E+03  5.783302E+05  5.069418E+03  1.540753E+01  6.443794E-09 -1.507420E-09
        44  15  3.980528E+03  5.787225E+05  9.403545E+03 -9.400729E+00  1.365977E-09  7.690498E-10
        44  16 -9.307392E+04  1.647406E+05 -5.054825E+04  2.288510E+02 -4.846519E-09  3.478055E-08
        44  17 -9.245616E+04  1.642998E+05 -4.975994E+04 -9.361577E+02 -3.736177E-09  7.959334E-09
        44  18 -9.050931E+04  1.641877E+05 -4.869996E+04 -2.152893E+03  1.034340E-09 -2.082239E-08
        44  19  9.379973E+04  9.928833E+05  5.622513E+04 -2.520886E+02 -3.203961E+04  2.998838E+03
        44  20  9.500999E+04  9.925359E+05  5.989943E+04  9.674578E+02 -3.112679E+04  8.180522E+03
        44  21  9.846368E+04  9.934319E+05  6.750676E+04  2.135299E+03 -2.911602E+04  1.336309E+04
        44  22  3.670090E+02  5.787243E+05  2.839834E+03 -1.156252E+01 -3.204135E+04  2.116424E+03
        44  23  1.281064E+03  5.783305E+05  5.071280E+03  1.529079E+01 -3.112676E+04  4.657914E+03
        44  24  3.981452E+03  5.787228E+05  9.405236E+03 -9.569522E+00 -2.911386E+04  7.200256E+03
        44  25 -9.307281E+04  1.647408E+05 -5.054632E+04  2.288191E+02 -3.204309E+04  1.234568E+03
        44  26 -9.245512E+04  1.643000E+05 -4.975811E+04 -9.361862E+02 -3.112672E+04  1.137542E+03
        44  27 -9.050840E+04  1.641879E+05 -4.869836E+04 -2.152917E+03 -2.911165E+04  1.041356E+03
        45   1  1.005616E+05  9.953485E+05  7.289456E+04  1.324163E+03  2.784528E+04 -1.565307E+04
        45   2  1.126170E+05  9.910657E+05  9.404629E+04  1.568658E+04  2.096947E+04 -4.707499E+04
        45   3  1.457066E+05  9.961332E+05  1.408937E+05  2.940735E+04  5.962506E+03 -7.850493E+04
        45   4  5.489474E+03  5.798738E+05  1.261304E+04 -1.426018E+02  2.784235E+04 -8.842447E+03
        45   5  1.573798E+04  5.768862E+05  2.330997E+04  1.916068E+02  2.095186E+04 -2.072136E+04
        45   6  4.363759E+04  5.798630E+05  4.614759E+04 -1.161307E+02  5.929169E+03 -3.260751E+04
        45   7 -8.959056E+04  1.645730E+05 -4.767113E+04 -1.608316E+03  2.783938E+04 -2.036181E+03
        45   8 -8.114888E+04  1.628771E+05 -4.742932E+04 -1.529269E+04  2.093294E+04  5.615281E+03
        45   9 -5.843900E+04  1.637597E+05 -4.860136E+04 -2.961964E+04  5.891461E+03  1.325947E+04
        45  10  1.005607E+05  9.953480E+05  7.289264E+04  1.324514E+03 -1.012603E-09  6.465725E-09
        45  11  1.126159E+05  9.910632E+05  9.404131E+04  1.568738E+04  1.286640E-09  1.198153E-09
        45  12  1.457049E+05  9.961266E+05  1.408820E+05  2.940773E+04  2.748574E-10 -3.269030E-10
        45  13  5.488621E+03  5.798735E+05  1.261144E+04 -1.424036E+02 -3.406205E-09  7.378742E-10
        45  14  1.573739E+04  5.768856E+05  2.330834E+04  1.919563E+02 -1.024469E-09 -1.555414E-09
        45  15  4.363727E+04  5.798619E+05  4.614552E+04 -1.159750E+02  2.991640E-10  1.084852E-09
        45  16 -8.959139E+04  1.645728E+05 -4.767260E+04 -1.608271E+03 -5.064338E-10 -7.605394E-09
        45  17 -8.114935E+04  1.628770E+05 -4.743020E+04 -1.529278E+04 -2.726099E-10 -1.786357E-09
        45  18 -5.843908E+04  1.637595E+05 -4.860176E+04 -2.961970E+04  3.872388E-10  6.319246E-10
        45  19  1.005616E+05  9.953485E+05  7.289456E+04  1.324163E+03 -2.784528E+04  1.565307E+04
        45  20  1.126170E+05  9.910657E+05  9.404629E+04  1.568658E+04 -2.096947E+04  4.707499E+04
        45  21  1.457066E+05  9.961332E+05  1.408937E+05  2.940735E+04 -5.962506E+03  7.850493E+04
        45  22  5.489474E+03  5.798738E+05  1.261304E+04 -1.426018E+02 -2.784235E+04  8.842447E+03
        45  23  1.573798E+04  5.768862E+05  2.330997E+04  1.916068E+02 -2.095186E+04  2.072136E+04
        45  24  4.363759E+04  5.798630E+05  4.614759E+04 -1.161307E+02 -5.929169E+03  3.260751E+04
        45  25 -8.959056E+04  1.645730E+05 -4.767113E+04 -1.608316E+03 -2.783938E+04  2.036181E+03
        45  26 -8.114888E+04  1.628771E+05 -4.742932E+04 -1.529269E+04 -2.093294E+04 -5.615281E+03
        45  27 -5.843900E+04  1.637597E+05 -4.860136E+04 -2.961964E+04 -5.891461E+03 -1.325947E+04
        46   1 -8.106473E+06 -2.364505E+06 -1.368404E+06 -2.928278E+06 -7.208828E+05 -2.597013E+05
        46   2 -7.919592E+06 -1.281990E+06 -6.937311E+05 -3.028156E+06 -4.647158E+05 -1.398571E+05
        46   3 -8.110916E+06 -1.242115E+06 -4.930970E+05 -2.908474E+06 -1.998190E+05 -4.310544E+04
        46   4 -7.350342E+06 -1.830219E+06 -1.111792E+06 -2.470223E+06 -7.057752E+05 -2.543699E+05
        46   5 -7.103081E+06 -9.022606E+05 -4.633631E+05 -2.732957E+06 -4.606921E+05 -1.384125E+05
        46   6 -7.231307E+06 -1.014032E+06 -2.796538E+05 -2.776299E+06 -2.068605E+05 -4.571270E+04
        46   7 -6.593489E+06 -1.295315E+06 -8.552189E+05 -2.011515E+06 -6.906468E+05 -2.490150E+05
        46   8 -6.285898E+06 -5.223822E+05 -2.330578E+05 -2.437366E+06 -4.566621E+05 -1.369643E+05
        46   9 -6.350926E+06 -7.859718E+05 -6.626037E+04 -2.643998E+06 -2.139128E+05 -4.832109E+04
        46  10 -8.107056E+06 -2.364720E+06 -1.369524E+06 -2.928430E+06 -1.786416E-09  4.374358E-10
        46  11 -7.919832E+06 -1.282071E+06 -6.941802E+05 -3.028209E+06 -8.875171E-10  1.276680E-09
        46  12 -8.110960E+06 -1.242128E+06 -4.931766E+05 -2.908481E+06  5.023893E-10  1.770168E-09
        46  13 -7.350900E+06 -1.830425E+06 -1.112864E+06 -2.470369E+06 -3.195536E-09  2.405251E-10
        46  14 -7.103316E+06 -9.023393E+05 -4.638037E+05 -2.733008E+06  4.620307E-09  1.520630E-09
        46  15 -7.231354E+06 -1.014046E+06 -2.797393E+05 -2.776307E+06  1.184692E-09  1.003170E-09
        46  16 -6.594023E+06 -1.295512E+06 -8.562437E+05 -2.011654E+06  6.994157E-10  1.007208E-09
        46  17 -6.286129E+06 -5.224593E+05 -2.334899E+05 -2.437416E+06  7.133291E-12  1.496780E-09
        46  18 -6.350976E+06 -7.859868E+05 -6.635181E+04 -2.644006E+06 -1.307497E-09  5.122155E-10
        46  19 -8.106473E+06 -2.364505E+06 -1.368404E+06 -2.928278E+06  7.208828E+05  2.597013E+05
        46  20 -7.919592E+06 -1.281990E+06 -6.937311E+05 -3.028156E+06  4.647158E+05  1.398571E+05
        46  21 -8.110916E+06 -1.242115E+06 -4.930970E+05 -2.908474E+06  1.998190E+05  4.310544E+04
        46  22 -7.350342E+06 -1.830219E+06 -1.111792E+06 -2.470223E+06  7.057752E+05  2.543699E+05
        46  23 -7.103081E+06 -9.022606E+05 -4.633631E+05 -2.732957E+06  4.606921E+05  1.384125E+05
        46  24 -7.231307E+06 -1.014032E+06 -2.796538E+05 -2.776299E+06  2.068605E+05  4.571270E+04
        46  25 -6.593489E+06 -1.295315E+06 -8.552189E+05 -2.011515E+06  6.906468E+05  2.490150E+05
        46  26 -6.285898E+06 -5.223822E+05 -2.330578E+05 -2.437366E+06  4.566621E+05  1.369643E+05
        46  27 -6.350926E+06 -7.859718E+05 -6.626037E+04 -2.643998E+06  2.139128E+05  4.832109E+04
        47   1 -7.866552E+06 -1.411150E+06 -4.113983E+05 -2.922318E+06 -1.650246E+05 -3.598562E+04
        47   2 -7.782363E+06 -1.239451E+06 -2.680905E+05 -2.882321E+06 -1.066969E+05 -1.652455E+04
        47   3 -7.694703E+06 -1.227795E+06 -1.975212E+05 -2.874627E+06 -4.755213E+04  7.816251E+02
        47   4 -7.192189E+06 -1.132442E+06 -2.272936E+05 -2.714407E+06 -1.656572E+05 -3.623290E+04
        47   5 -7.187647E+06 -1.008893E+06 -1.090036E+05 -2.714517E+06 -1.083251E+05 -1.713774E+04
        47   6 -7.179391E+06 -1.045116E+06 -6.258967E+04 -2.746939E+06 -5.018433E+04 -2.037440E+02
        47   7 -6.517375E+06 -8.536796E+05 -4.322993E+04 -2.506280E+06 -1.662906E+05 -3.648050E+04
        47   8 -6.592582E+06 -7.783080E+05  5.005232E+04 -2.546563E+06 -1.099549E+05 -1.775161E+04
        47   9 -6.663820E+06 -8.624299E+05  7.231945E+04 -2.619156E+06 -5.281894E+04 -1.189891E+03
        47  10 -7.866582E+06 -1.411158E+06 -4.114526E+05 -2.922322E+06 -9.612625E-10  8.853000E-10
        47  11 -7.782376E+06 -1.239454E+06 -2.681127E+05 -2.882323E+06 -5.716790E-09 -1.440535E-10
        47  12 -7.694705E+06 -1.227795E+06 -1.975255E+05 -2.874627E+06 -9.331199E-09 -2.126498E-09
        47  13 -7.192219E+06 -1.132451E+06 -2.273483E+05 -2.714412E+06 -2.246710E-09  6.485814E-10
        47  14 -7.187659E+06 -1.008897E+06 -1.090265E+05 -2.714519E+06 -1.364084E-09 -2.008421E-09
        47  15 -7.179394E+06 -1.045117E+06 -6.259446E+04 -2.746939E+06 -2.269815E-09 -4.254706E-09
        47  16 -6.517405E+06 -8.536886E+05 -4.328503E+04 -2.506285E+06  2.010790E-09  1.132276E-09
        47  17 -6.592595E+06 -7.783116E+05  5.002874E+04 -2.546565E+06  3.426904E-09  2.536610E-09
        47  18 -6.663823E+06 -8.624306E+05  7.231415E+04 -2.619156E+06  2.807354E-09  3.751609E-09
        47  19 -7.866552E+06 -1.411150E+06 -4.113983E+05 -2.922318E+06  1.650246E+05  3.598562E+04
        47  20 -7.782363E+06 -1.239451E+06 -2.680905E+05 -2.882321E+06  1.066969E+05  1.652455E+04
        47  21 -7.694703E+06 -1.227795E+06 -1.975212E+05 -2.874627E+06  4.755213E+04 -7.816251E+02
        47  22 -7.192189E+06 -1.132442E+06 -2.272936E+05 -2.714407E+06  1.656572E+05  3.623290E+04
        47  23 -7.187647E+06 -1.008893E+06 -1.090036E+05 -2.714517E+06  1.083251E+05  1.713774E+04
        47  24 -7.179391E+06 -1.045116E+06 -6.258967E+04 -2.746939E+06  5.018433E+04  2.037440E+02
        47  25 -6.517375E+06 -8.536796E+05 -4.322993E+04 -2.506280E+06  1.662906E+05  3.648050E+04
        47  26 -6.592582E+06 -7.783080E+05  5.005232E+04 -2.546563E+06  1.099549E+05  1.775161E+04
        47  27 -6.663820E+06 -8.624299E+05  7.231945E+04 -2.619156E+06  5.281894E+04  1.189891E+03
        48   1 -7.536136E+06 -1.197948E+06 -1.452782E+05 -2.842538E+06 -3.798099E+04  1.035984E+03
        48   2 -7.455278E+06 -1.115356E+06 -9.329128E+04 -2.780138E+06 -2.329833E+04  1.284026E+03
        48   3 -7.320338E+06 -1.104600E+06 -5.419030E+04 -2.784268E+06 -8.500815E+03  1.224197E+03
        48   4 -7.172940E+06 -1.059111E+06 -4.881740E+04 -2.741987E+06 -4.017004E+04  2.162642E+02
        48   5 -7.199296E+06 -1.018582E+06 -2.529700E+04 -2.710430E+06 -2.563068E+04  4.115638E+02
        48   6 -7.171551E+06 -1.049855E+06 -1.453972E+04 -2.745407E+06 -1.097892E+04  2.980980E+02
        48   7 -6.809616E+06 -9.202647E+05  4.763156E+04 -2.641381E+06 -4.236050E+04 -6.040005E+02
        48   8 -6.943251E+06 -9.218030E+05  4.269158E+04 -2.640696E+06 -2.796409E+04 -4.612996E+02
        48   9 -7.022742E+06 -9.951077E+05  2.510906E+04 -2.706538E+06 -1.345769E+04 -6.282365E+02
        48  10 -7.536138E+06 -1.197948E+06 -1.452809E+05 -2.842538E+06  7.805642E-10  1.210003E-09
        48  11 -7.455278E+06 -1.115356E+06 -9.329232E+04 -2.780138E+06  4.946233E-09  3.280632E-09
        48  12 -7.320338E+06 -1.104600E+06 -5.419044E+04 -2.784268E+06  3.551571E-09  5.202052E-09
        48  13 -7.172942E+06 -1.059111E+06 -4.882046E+04 -2.741987E+06 -1.509640E-09 -6.065313E-09
        48  14 -7.199297E+06 -1.018582E+06 -2.529825E+04 -2.710430E+06 -3.451077E-11 -4.215873E-09
        48  15 -7.171551E+06 -1.049855E+06 -1.453995E+04 -2.745407E+06  3.864294E-10 -9.422354E-10
        48  16 -6.809618E+06 -9.202652E+05  4.762816E+04 -2.641381E+06 -4.511980E-09 -7.250110E-10
        48  17 -6.943252E+06 -9.218032E+05  4.269010E+04 -2.640696E+06 -6.855437E-09 -1.466836E-09
        48  18 -7.022742E+06 -9.951077E+05  2.510871E+04 -2.706538E+06 -1.165003E-09  3.170123E-09
        48  19 -7.536136E+06 -1.197948E+06 -1.452782E+05 -2.842538E+06  3.798099E+04 -1.035984E+03
        48  20 -7.455278E+06 -1.115356E+06 -9.329128E+04 -2.780138E+06  2.329833E+04 -1.284026E+03
        48  21 -7.320338E+06 -1.104600E+06 -5.419030E+04 -2.784268E+06  8.500815E+03 -1.224197E+03
        48  22 -7.172940E+06 -1.059111E+06 -4.881740E+04 -2.741987E+06  4.017004E+04 -2.162642E+02
        48  23 -7.199296E+06 -1.018582E+06 -2.529700E+04 -2.710430E+06  2.563068E+04 -4.115638E+02
        48  24 -7.171551E+06 -1.049855E+06 -1.453972E+04 -2.745407E+06  1.097892E+04 -2.980980E+02
        48  25 -6.809616E+06 -9.202647E+05  4.763156E+04 -2.641381E+06  4.236050E+04  6.040005E+02
        48  26 -6.943251E+06 -9.218030E+05  4.269158E+04 -2.640696E+06  2.796409E+04  4.612996E+02
        48  27 -7.022742E+06 -9.951077E+05  2.510906E+04 -2.706538E+06  1.345769E+04  6.282365E+02
        49   1 -7.163101E+06 -1.048580E+06 -8.988097E+03 -2.743090E+06 -5.319463E+03 -9.423115E+02
        49   2 -7.082381E+06 -9.749145E+05  2.445094E+04 -2.677787E+06 -7.450078E+00 -4.618259E+03
        49   3 -6.941180E+06 -9.641120E+05  5.492109E+04 -2.682942E+06  5.279810E+03 -8.221972E+03
        49   4 -7.170625E+06 -1.051365E+06 -1.138793E+04 -2.744973E+06 -7.768003E+03 -1.857227E+03
        49   5 -7.200797E+06 -1.019532E+06 -6.968542E+03 -2.709888E+06 -2.421122E+03 -5.520539E+03
        49   6 -7.170507E+06 -1.050570E+06 -5.544395E+03 -2.745267E+06  2.900300E+03 -9.111814E+03
        49   7 -7.178150E+06 -1.054151E+06 -1.378775E+04 -2.746857E+06 -1.021651E+04 -2.772132E+03
        49   8 -7.319200E+06 -1.064149E+06 -3.838917E+04 -2.741984E+06 -4.834280E+03 -6.422626E+03
        49   9 -7.399781E+06 -1.137025E+06 -6.601420E+04 -2.807571E+06  5.217712E+02 -1.000129E+04
        49  10 -7.163101E+06 -1.048580E+06 -8.988153E+03 -2.743090E+06 -2.237974E-09  2.404307E-09
        49  11 -7.082381E+06 -9.749145E+05  2.445090E+04 -2.677787E+06 -1.218466E-09 -1.798916E-10
        49  12 -6.941180E+06 -9.641121E+05  5.492091E+04 -2.682942E+06 -1.685566E-09  5.157812E-10
        49  13 -7.170625E+06 -1.051365E+06 -1.138806E+04 -2.744973E+06  5.343169E-10 -1.553278E-09
        49  14 -7.200797E+06 -1.019532E+06 -6.968610E+03 -2.709888E+06 -1.537045E-09 -2.019719E-09
        49  15 -7.170507E+06 -1.050570E+06 -5.544566E+03 -2.745267E+06 -3.868000E-09 -1.238909E-09
        49  16 -7.178150E+06 -1.054151E+06 -1.378797E+04 -2.746857E+06  1.858934E-09  4.127494E-09
        49  17 -7.319200E+06 -1.064149E+06 -3.838929E+04 -2.741984E+06 -3.138430E-09  1.102398E-09
        49  18 -7.399781E+06 -1.137025E+06 -6.601439E+04 -2.807571E+06 -4.712359E-09 -1.171667E-09
        49  19 -7.163101E+06 -1.048580E+06 -8.988097E+03 -2.743090E+06  5.319463E+03  9.423115E+02
        49  20 -7.082381E+06 -9.749145E+05  2.445094E+04 -2.677787E+06  7.450078E+00  4.618259E+03
        49  21 -6.941180E+06 -9.641120E+05  5.492109E+04 -2.682942E+06 -5.279810E+03  8.221972E+03
        49  22 -7.170625E+06 -1.051365E+06 -1.138793E+04 -2.744973E+06  7.768003E+03  1.857227E+03
        49  23 -7.200797E+06 -1.019532E+06 -6.968542E+03 -2.709888E+06  2.421122E+03  5.520539E+03
        49  24 -7.170507E+06 -1.050570E+06 -5.544395E+03 -2.745267E+06 -2.900300E+03  9.111814E+03
        49  25 -7.178150E+06 -1.054151E+06 -1.378775E+04 -2.746857E+06  1.021651E+04  2.772132E+03
        49  26 -7.319200E+06 -1.064149E+06 -3.838917E+04 -2.741984E+06  4.834280E+03  6.422626E+03
        49  27 -7.399781E+06 -1.137025E+06 -6.601420E+04 -2.807571E+06 -5.217712E+02  1.000129E+04
        50   1 -6.792900E+06 -9.065470E+05  9.538648E+04 -2.641198E+06  7.199231E+03 -1.071355E+04
        50   2 -6.720553E+06 -8.408870E+05  1.199622E+05 -2.581990E+06  1.227858E+04 -1.406523E+04
        50   3 -6.593463E+06 -8.319508E+05  1.417273E+05 -2.586068E+06  1.723662E+04 -1.707565E+04
        50   4 -7.171809E+06 -1.049183E+06 -5.529100E+03 -2.743697E+06  4.859717E+03 -1.158910E+04
        50   5 -7.199248E+06 -1.021316E+06 -7.036507E+03 -2.711864E+06  1.010289E+04 -1.488089E+04
        50   6 -7.171985E+06 -1.050211E+06 -1.148689E+04 -2.743325E+06  1.522410E+04 -1.783147E+04
        50   7 -7.550579E+06 -1.191810E+06 -1.064576E+05 -2.846138E+06  2.521780E+03 -1.246406E+04
        50   8 -7.677718E+06 -1.201731E+06 -1.340554E+05 -2.841646E+06  7.929061E+03 -1.569585E+04
        50   9 -7.750179E+06 -1.268451E+06 -1.647302E+05 -2.900449E+06  1.321366E+04 -1.858652E+04
        50  10 -6.792900E+06 -9.065471E+05  9.538617E+04 -2.641198E+06 -9.954736E-10  1.509063E-09
        50  11 -6.720554E+06 -8.408873E+05  1.199616E+05 -2.581990E+06  5.111342E-09  8.720432E-10
        50  12 -6.593464E+06 -8.319512E+05  1.417262E+05 -2.586067E+06 -3.477364E-09 -5.989404E-10
        50  13 -7.171809E+06 -1.049183E+06 -5.529396E+03 -2.743697E+06 -2.472942E-09 -5.455997E-10
        50  14 -7.199248E+06 -1.021316E+06 -7.037113E+03 -2.711864E+06  2.640266E-09  1.283397E-09
        50  15 -7.171985E+06 -1.050212E+06 -1.148792E+04 -2.743325E+06 -1.982751E-10 -2.858650E-10
        50  16 -7.550579E+06 -1.191810E+06 -1.064579E+05 -2.846138E+06 -4.804974E-09 -1.691579E-09
        50  17 -7.677718E+06 -1.201731E+06 -1.340560E+05 -2.841646E+06 -2.142800E-09 -1.781134E-09
        50  18 -7.750180E+06 -1.268451E+06 -1.647312E+05 -2.900448E+06 -1.137007E-09  4.557955E-10
        50  19 -6.792900E+06 -9.065470E+05  9.538648E+04 -2.641198E+06 -7.199231E+03  1.071355E+04
        50  20 -6.720553E+06 -8.408870E+05  1.199622E+05 -2.581990E+06 -1.227858E+04  1.406523E+04
        50  21 -6.593463E+06 -8.319508E+05  1.417273E+05 -2.586068E+06 -1.723662E+04  1.707565E+04
        50  22 -7.171809E+06 -1.049183E+06 -5.529100E+03 -2.743697E+06 -4.859717E+03  1.158910E+04
        50  23 -7.199248E+06 -1.021316E+06 -7.036507E+03 -2.711864E+06 -1.010289E+04  1.488089E+04
        50  24 -7.171985E+06 -1.050211E+06 -1.148689E+04 -2.743325E+06 -1.522410E+04  1.783147E+04
        50  25 -7.550579E+06 -1.191810E+06 -1.064576E+05 -2.846138E+06 -2.521780E+03  1.246406E+04
        50  26 -7.677718E+06 -1.201731E+06 -1.340554E+05 -2.841646E+06 -7.929061E+03  1.569585E+04
        50  27 -7.750179E+06 -1.268451E+06 -1.647302E+05 -2.900449E+06 -1.321366E+04  1.858652E+04
        51   1 -6.470830E+06 -7.815751E+05  1.724288E+05 -2.550807E+06  2.020800E+04 -1.866789E+04
        51   2 -6.414958E+06 -7.287711E+05  1.814472E+05 -2.503466E+06  3.421321E+04 -1.759156E+04
        51   3 -6.321687E+06 -7.301747E+05  1.780294E+05 -2.502086E+06  4.796776E+04 -1.582453E+04
        51   4 -7.175386E+06 -1.046096E+06 -1.463798E+04 -2.740832E+06  1.823713E+04 -1.940924E+04
        51   5 -7.194768E+06 -1.023675E+06 -2.559265E+04 -2.716097E+06  3.256379E+04 -1.821411E+04
        51   6 -7.176828E+06 -1.055542E+06 -4.925281E+04 -2.737327E+06  4.663799E+04 -1.632855E+04
        51   7 -7.879454E+06 -1.310587E+06 -2.017475E+05 -2.930660E+06  1.626874E+04 -2.014967E+04
        51   8 -7.973983E+06 -1.318542E+06 -2.326855E+05 -2.928483E+06  3.091666E+04 -1.883579E+04
        51   9 -8.031256E+06 -1.380862E+06 -2.765997E+05 -2.972271E+06  4.531022E+04 -1.683181E+04
        51  10 -6.470831E+06 -7.815756E+05  1.724274E+05 -2.550807E+06 -2.017524E-09 -1.433275E-09
        51  11 -6.414960E+06 -7.287718E+05  1.814444E+05 -2.503466E+06  6.248399E-10  7.190237E-10
        51  12 -6.321690E+06 -7.301756E+05  1.780246E+05 -2.502085E+06  2.180859E-09 -1.647111E-09
        51  13 -7.175386E+06 -1.046096E+06 -1.463931E+04 -2.740832E+06 -1.296122E-09 -3.424740E-11
        51  14 -7.194769E+06 -1.023676E+06 -2.559527E+04 -2.716096E+06 -1.744902E-09 -5.895735E-10
        51  15 -7.176831E+06 -1.055543E+06 -4.925743E+04 -2.737326E+06 -2.244074E-09 -3.020255E-10
        51  16 -7.879454E+06 -1.310587E+06 -2.017487E+05 -2.930660E+06  2.363787E-09  1.166370E-09
        51  17 -7.973984E+06 -1.318543E+06 -2.326880E+05 -2.928482E+06 -1.266525E-10  4.169908E-10
        51  18 -8.031258E+06 -1.380863E+06 -2.766041E+05 -2.972271E+06  2.175027E-09  2.578390E-10
        51  19 -6.470830E+06 -7.815751E+05  1.724288E+05 -2.550807E+06 -2.020800E+04  1.866789E+04
        51  20 -6.414958E+06 -7.287711E+05  1.814472E+05 -2.503466E+06 -3.421321E+04  1.759156E+04
        51  21 -6.321687E+06 -7.301747E+05  1.780294E+05 -2.502086E+06 -4.796776E+04  1.582453E+04
        51  22 -7.175386E+06 -1.046096E+06 -1.463798E+04 -2.740832E+06 -1.823713E+04  1.940924E+04
        51  23 -7.194768E+06 -1.023675E+06 -2.559265E+04 -2.716097E+06 -3.256379E+04  1.821411E+04
        51  24 -7.176828E+06 -1.055542E+06 -4.925281E+04 -2.737327E+06 -4.663799E+04  1.632855E+04
        51  25 -7.879454E+06 -1.310587E+06 -2.017475E+05 -2.930660E+06 -1.626874E+04  2.014967E+04
        51  26 -7.973983E+06 -1.318542E+06 -2.326855E+05 -2.928483E+06 -3.091666E+04  1.883579E+04
        51  27 -8.031256E+06 -1.380862E+06 -2.765997E+05 -2.972271E+06 -4.531022E+04  1.683181E+04
        52   1 -6.234773E+06 -6.915275E+05  1.872132E+05 -2.492775E+06  5.809685E+04 -1.414223E+04
        52   2 -6.199400E+06 -6.385851E+05  1.516776E+05 -2.448524E+06  1.147725E+05  4.723442E+03
        52   3 -6.186596E+06 -7.188911E+05  4.484956E+04 -2.404980E+06  1.704572E+05  2.622828E+04
        52   4 -7.185367E+06 -1.039369E+06 -6.314657E+04 -2.740013E+06  5.633150E+04 -1.481021E+04
        52   5 -7.180458E+06 -1.016521E+06 -1.100805E+05 -2.723164E+06  1.142100E+05  4.505208E+03
        52   6 -7.198435E+06 -1.127280E+06 -2.293581E+05 -2.707012E+06  1.710936E+05  2.645640E+04
        52   7 -8.135078E+06 -1.387169E+06 -3.135838E+05 -2.986910E+06  5.456909E+04 -1.547716E+04
        52   8 -8.160572E+06 -1.394388E+06 -3.719230E+05 -2.997403E+06  1.136484E+05  4.287307E+03
        52   9 -8.209265E+06 -1.535566E+06 -5.036576E+05 -3.008578E+06  1.717287E+05  2.668394E+04
        52  10 -6.234777E+06 -6.915286E+05  1.872064E+05 -2.492774E+06 -7.740280E-09 -4.681307E-09
        52  11 -6.199414E+06 -6.385887E+05  1.516525E+05 -2.448524E+06 -2.725648E-09 -1.504536E-09
        52  12 -6.186628E+06 -7.188998E+05  4.479305E+04 -2.404983E+06  4.492312E-09  3.105916E-09
        52  13 -7.185371E+06 -1.039370E+06 -6.315299E+04 -2.740012E+06 -1.686064E-09 -9.701311E-10
        52  14 -7.180472E+06 -1.016525E+06 -1.101054E+05 -2.723164E+06 -2.020943E-09 -1.530282E-09
        52  15 -7.198467E+06 -1.127289E+06 -2.294151E+05 -2.707015E+06 -9.543789E-10  1.507529E-10
        52  16 -8.135081E+06 -1.387170E+06 -3.135899E+05 -2.986910E+06  2.819567E-09  1.998803E-09
        52  17 -8.160586E+06 -1.394391E+06 -3.719476E+05 -2.997403E+06 -3.305657E-09 -2.545316E-09
        52  18 -8.209297E+06 -1.535575E+06 -5.037151E+05 -3.008581E+06 -6.912753E-09 -3.309387E-09
        52  19 -6.234773E+06 -6.915275E+05  1.872132E+05 -2.492775E+06 -5.809685E+04  1.414223E+04
        52  20 -6.199400E+06 -6.385851E+05  1.516776E+05 -2.448524E+06 -1.147725E+05 -4.723442E+03
        52  21 -6.186596E+06 -7.188911E+05  4.484956E+04 -2.404980E+06 -1.704572E+05 -2.622828E+04
        52  22 -7.185367E+06 -1.039369E+06 -6.314657E+04 -2.740013E+06 -5.633150E+04  1.481021E+04
        52  23 -7.180458E+06 -1.016521E+06 -1.100805E+05 -2.723164E+06 -1.142100E+05 -4.505208E+03
        52  24 -7.198435E+06 -1.127280E+06 -2.293581E+05 -2.707012E+06 -1.710936E+05 -2.645640E+04
        52  25 -8.135078E+06 -1.387169E+06 -3.135838E+05 -2.986910E+06 -5.456909E+04  1.547716E+04
        52  26 -8.160572E+06 -1.394388E+06 -3.719230E+05 -2.997403E+06 -1.136484E+05 -4.287307E+03
        52  27 -8.209265E+06 -1.535566E+06 -5.036576E+05 -3.008578E+06 -1.717287E+05 -2.668394E+04
        53   1 -6.096539E+06 -6.793181E+05  5.384316E+02 -2.563205E+06  2.186065E+05  3.969622E+04
        53   2 -6.075681E+06 -4.515797E+05 -1.835889E+05 -2.390648E+06  4.612655E+05  1.321403E+05
        53   3 -6.465085E+06 -1.234319E+06 -8.261933E+05 -1.956840E+06  6.940983E+05  2.504982E+05
        53   4 -7.238971E+06 -1.006822E+06 -2.822243E+05 -2.768392E+06  2.121990E+05  3.730811E+04
        53   5 -7.093190E+06 -9.105930E+05 -4.676666E+05 -2.743697E+06  4.670975E+05  1.342829E+05
        53   6 -7.360873E+06 -1.828459E+06 -1.121969E+06 -2.457514E+06  7.122080E+05  2.570340E+05
        53   7 -8.380116E+06 -1.334354E+06 -5.650799E+05 -2.973296E+06  2.058044E+05  3.492213E+04
        53   8 -8.109663E+06 -1.369409E+06 -7.518405E+05 -3.096172E+06  4.729184E+05  1.364194E+05
        53   9 -8.255704E+06 -2.421901E+06 -1.417807E+06 -2.957360E+06  7.302882E+05  2.635396E+05
        53  10 -6.096591E+06 -6.793328E+05  4.446382E+02 -2.563212E+06  1.028663E-09  7.244027E-10
        53  11 -6.075916E+06 -4.516566E+05 -1.840265E+05 -2.390697E+06  1.333934E-09 -2.854067E-09
        53  12 -6.465624E+06 -1.234518E+06 -8.272283E+05 -1.956981E+06 -3.389063E-09  2.749723E-09
        53  13 -7.239020E+06 -1.006835E+06 -2.823127E+05 -2.768399E+06 -1.757866E-09  3.235104E-09
        53  14 -7.093431E+06 -9.106721E+05 -4.681164E+05 -2.743748E+06  2.947598E-09 -5.729783E-09
        53  15 -7.361442E+06 -1.828669E+06 -1.123061E+06 -2.457663E+06 -5.614136E-10 -6.503755E-10
        53  16 -8.380162E+06 -1.334367E+06 -5.651630E+05 -2.973302E+06 -4.566517E-09  1.362388E-09
        53  17 -8.109911E+06 -1.369490E+06 -7.523027E+05 -3.096224E+06 -6.072584E-09  3.675584E-09
        53  18 -8.256303E+06 -2.422123E+06 -1.418957E+06 -2.957517E+06 -3.272750E-09  2.988648E-09
        53  19 -6.096539E+06 -6.793181E+05  5.384316E+02 -2.563205E+06 -2.186065E+05 -3.969622E+04
        53  20 -6.075681E+06 -4.515797E+05 -1.835889E+05 -2.390648E+06 -4.612655E+05 -1.321403E+05
        53  21 -6.465085E+06 -1.234319E+06 -8.261933E+05 -1.956840E+06 -6.940983E+05 -2.504982E+05
        53  22 -7.238971E+06 -1.006822E+06 -2.822243E+05 -2.768392E+06 -2.121990E+05 -3.730811E+04
        53  23 -7.093190E+06 -9.105930E+05 -4.676666E+05 -2.743697E+06 -4.670975E+05 -1.342829E+05
        53  24 -7.360873E+06 -1.828459E+06 -1.121969E+06 -2.457514E+06 -7.122080E+05 -2.570340E+05
        53  25 -8.380116E+06 -1.334354E+06 -5.650799E+05 -2.973296E+06 -2.058044E+05 -3.492213E+04
        53  26 -8.109663E+06 -1.369409E+06 -7.518405E+05 -3.096172E+06 -4.729184E+05 -1.364194E+05
        53  27 -8.255704E+06 -2.421901E+06 -1.417807E+06 -2.957360E+06 -7.302882E+05 -2.635396E+05
        54   1 -1.364551E+06 -2.027692E+05 -1.621827E+05 -2.407186E+03  9.773240E+04  1.461013E+04
        54   2 -1.305801E+06 -3.399983E+05 -2.310520E+05 -4.522100E+03  7.203703E+04  4.330734E+04
        54   3 -1.199192E+06 -3.082684E+05 -2.405202E+05 -6.493288E+04  4.646299E+04  4.123307E+04
        54   4  1.249904E+04  1.403126E+05  1.773737E+05 -4.398555E+04  1.212119E+05  1.470019E+04
        54   5 -1.277574E+04 -1.954549E+04  7.763183E+04 -1.455035E+04  7.921756E+04  4.332501E+04
        54   6  1.253486E+04 -7.804759E+03  4.851945E+04 -4.340098E+04  3.734926E+04  4.120413E+04
        54   7  1.391281E+06  4.832605E+05  5.167931E+05 -8.565818E+04  1.447432E+05  1.478701E+04
        54   8  1.281785E+06  3.007869E+05  3.861983E+05 -2.460094E+04  8.641287E+04  4.334244E+04
        54   9  1.225611E+06  2.925543E+05  3.374565E+05 -2.182767E+04  2.821775E+04  4.117458E+04
        54  10 -1.364561E+06 -2.027720E+05 -1.622011E+05 -2.408337E+03 -1.436151E-09  8.019581E-10
        54  11 -1.305807E+06 -3.400017E+05 -2.310653E+05 -4.524615E+03 -2.906267E-09 -2.755248E-09
        54  12 -1.199194E+06 -3.082708E+05 -2.405275E+05 -6.493442E+04  1.473536E-09  4.311116E-10
        54  13  1.248321E+04  1.403084E+05  1.773457E+05 -4.398698E+04 -1.084829E-09 -1.515936E-10
        54  14 -1.278298E+04 -1.954919E+04  7.761651E+04 -1.455311E+04 -2.742509E-09 -5.969001E-09
        54  15  1.253290E+04 -7.806957E+03  4.851364E+04 -4.340222E+04  2.778973E-10  4.681261E-10
        54  16  1.391259E+06  4.832546E+05  5.167534E+05 -8.565990E+04  2.808891E-10 -1.152271E-09
        54  17  1.281776E+06  3.007829E+05  3.861808E+05 -2.460395E+04  1.109934E-09 -2.117185E-09
        54  18  1.225609E+06  2.925523E+05  3.374518E+05 -2.182860E+04  1.690480E-10 -9.065439E-10
        54  19 -1.364551E+06 -2.027692E+05 -1.621827E+05 -2.407186E+03 -9.773240E+04 -1.461013E+04
        54  20 -1.305801E+06 -3.399983E+05 -2.310520E+05 -4.522100E+03 -7.203703E+04 -4.330734E+04
        54  21 -1.199192E+06 -3.082684E+05 -2.405202E+05 -6.493288E+04 -4.646299E+04 -4.123307E+04
        54  22  1.249904E+04  1.403126E+05  1.773737E+05 -4.398555E+04 -1.212119E+05 -1.470019E+04
        54  23 -1.277574E+04 -1.954549E+04  7.763183E+04 -1.455035E+04 -7.921756E+04 -4.332501E+04
        54  24  1.253486E+04 -7.804759E+03  4.851945E+04 -4.340098E+04 -3.734926E+04 -4.120413E+04
        54  25  1.391281E+06  4.832605E+05  5.167931E+05 -8.565818E+04 -1.447432E+05 -1.478701E+04
        54  26  1.281785E+06  3.007869E+05  3.861983E+05 -2.460094E+04 -8.641287E+04 -4.334244E+04
        54  27  1.225611E+06  2.925543E+05  3.374565E+05 -2.182767E+04 -2.821775E+04 -4.117458E+04
        55   1 -1.103733E+06 -2.605991E+05 -2.253683E+05 -4.149573E+04  2.986313E+04  3.490038E+04
        55   2 -1.024995E+06 -2.562355E+05 -2.246039E+05 -1.472230E+04  2.074015E+04  3.372143E+04
        55   3 -9.393930E+05 -2.345926E+05 -2.132879E+05 -4.651021E+04  1.161445E+04  3.037598E+04
        55   4  2.928026E+03  1.383569E+04  3.950000E+04 -4.365369E+04  2.986003E+04  3.489606E+04
        55   5 -5.809387E+02 -2.290159E+03  2.007684E+04 -1.436035E+04  1.957832E+04  3.371561E+04
        55   6  2.961421E+03 -9.504861E+02  1.199733E+04 -4.362202E+04  9.295124E+03  3.037021E+04
        55   7  1.110712E+06  2.881817E+05  3.042818E+05 -4.581615E+04  2.985688E+04  3.489174E+04
        55   8  1.024796E+06  2.515792E+05  2.646837E+05 -1.399821E+04  1.841456E+04  3.370980E+04
        55   9  9.461307E+05  2.326273E+05  2.372200E+05 -4.072964E+04  6.972281E+03  3.036443E+04
        55  10 -1.103734E+06 -2.606006E+05 -2.253723E+05 -4.149657E+04  1.874103E-09 -9.123545E-10
        55  11 -1.024996E+06 -2.562368E+05 -2.246069E+05 -1.472287E+04 -2.033553E-09  1.325381E-10
        55  12 -9.393934E+05 -2.345937E+05 -2.132899E+05 -4.651049E+04 -2.779866E-09 -6.472889E-10
        55  13  2.926741E+03  1.383414E+04  3.949603E+04 -4.365453E+04  1.073236E-09 -2.448754E-10
        55  14 -5.816555E+02 -2.291483E+03  2.007398E+04 -1.436088E+04 -1.902134E-09 -1.173857E-09
        55  15  2.961081E+03 -9.514998E+02  1.199543E+04 -4.362225E+04  1.770386E-09 -7.981005E-10
        55  16  1.110711E+06  2.881801E+05  3.042778E+05 -4.581699E+04 -3.363985E-09  1.213957E-09
        55  17  1.024796E+06  2.515779E+05  2.646809E+05 -1.399871E+04  1.061695E-09 -2.873413E-09
        55  18  9.461304E+05  2.326263E+05  2.372182E+05 -4.072981E+04  6.595628E-10  7.533345E-10
        55  19 -1.103733E+06 -2.605991E+05 -2.253683E+05 -4.149573E+04 -2.986313E+04 -3.490038E+04
        55  20 -1.024995E+06 -2.562355E+05 -2.246039E+05 -1.472230E+04 -2.074015E+04 -3.372143E+04
        55  21 -9.393930E+05 -2.345926E+05 -2.132879E+05 -4.651021E+04 -1.161445E+04 -3.037598E+04
        55  22  2.928026E+03  1.383569E+04  3.950000E+04 -4.365369E+04 -2.986003E+04 -3.489606E+04
        55  23 -5.809387E+02 -2.290159E+03  2.007684E+04 -1.436035E+04 -1.957832E+04 -3.371561E+04
        55  24  2.961421E+03 -9.504861E+02  1.199733E+04 -4.362202E+04 -9.295124E+03 -3.037021E+04
        55  25  1.110712E+06  2.881817E+05  3.042818E+05 -4.581615E+04 -2.985688E+04 -3.489174E+04
        55  26  1.024796E+06  2.515792E+05  2.646837E+05 -1.399821E+04 -1.841456E+04 -3.370980E+04
        55  27  9.461307E+05  2.326273E+05  2.372200E+05 -4.072964E+04 -6.972281E+03 -3.036443E+04
        56   1 -8.355261E+05 -2.063243E+05 -1.904415E+05 -4.394577E+04  9.083474E+03  2.807341E+04
        56   2 -7.540963E+05 -1.875244E+05 -1.753098E+05 -1.460885E+04  6.640253E+03  2.480324E+04
        56   3 -6.712410E+05 -1.669749E+05 -1.580074E+05 -4.387864E+04  4.191532E+03  2.138108E+04
        56   4  1.764041E+03  1.174268E+03  9.338236E+03 -4.364238E+04  7.406467E+03  2.806941E+04
        56   5  1.060715E+03 -3.539712E+02  5.039994E+03 -1.434073E+04  4.879894E+03  2.480039E+04
        56   6  1.788937E+03 -1.191655E+02  2.968239E+03 -4.364139E+04  2.348141E+03  2.137951E+04
        56   7  8.396977E+05  2.086221E+05  2.090687E+05 -4.333870E+04  5.727200E+03  2.806540E+04
        56   8  7.567410E+05  1.867751E+05  1.853496E+05 -1.407234E+04  3.117398E+03  2.479755E+04
        56   9  6.752343E+05  1.667037E+05  1.639119E+05 -4.340386E+04  5.027574E+02  2.137794E+04
        56  10 -8.355264E+05 -2.063252E+05 -1.904431E+05 -4.394598E+04 -5.939722E-11  1.102864E-09
        56  11 -7.540965E+05 -1.875250E+05 -1.753110E+05 -1.460899E+04 -7.537669E-10  6.346306E-10
        56  12 -6.712412E+05 -1.669753E+05 -1.580083E+05 -4.387871E+04  3.767718E-11  2.717385E-10
        56  13  1.763771E+03  1.173407E+03  9.336652E+03 -4.364255E+04  9.670109E-14  1.737486E-10
        56  14  1.060524E+03 -3.546381E+02  5.038793E+03 -1.434083E+04  1.150567E-09 -6.149160E-10
        56  15  1.788808E+03 -1.196578E+02  2.967369E+03 -4.364143E+04 -3.578320E-10 -4.321153E-10
        56  16  8.396974E+05  2.086213E+05  2.090671E+05 -4.333883E+04  7.505397E-10  3.851038E-10
        56  17  7.567408E+05  1.867745E+05  1.853484E+05 -1.407240E+04 -2.451483E-09 -1.686823E-09
        56  18  6.752342E+05  1.667032E+05  1.639111E+05 -4.340387E+04 -1.325550E-09 -1.045845E-09
        56  19 -8.355261E+05 -2.063243E+05 -1.904415E+05 -4.394577E+04 -9.083474E+03 -2.807341E+04
        56  20 -7.540963E+05 -1.875244E+05 -1.753098E+05 -1.460885E+04 -6.640253E+03 -2.480324E+04
        56  21 -6.712410E+05 -1.669749E+05 -1.580074E+05 -4.387864E+04 -4.191532E+03 -2.138108E+04
        56  22  1.764041E+03  1.174268E+03  9.338236E+03 -4.364238E+04 -7.406467E+03 -2.806941E+04
        56  23  1.060715E+03 -3.539712E+02  5.039994E+03 -1.434073E+04 -4.879894E+03 -2.480039E+04
        56  24  1.788937E+03 -1.191655E+02  2.968239E+03 -4.364139E+04 -2.348141E+03 -2.137951E+04
        56  25  8.396977E+05  2.086221E+05  2.090687E+05 -4.333870E+04 -5.727200E+03 -2.806540E+04
        56  26  7.567410E+05  1.867751E+05  1.853496E+05 -1.407234E+04 -3.117398E+03 -2.479755E+04
        56  27  6.752343E+05  1.667037E+05  1.639119E+05 -4.340386E+04 -5.027574E+02 -2.137794E+04
        57   1 -5.663693E+05 -1.406469E+05 -1.331346E+05 -4.358596E+04  3.675600E+03  1.936455E+04
        57   2 -4.843736E+05 -1.204497E+05 -1.147950E+05 -1.421441E+04  3.080133E+03  1.594882E+04
        57   3 -4.020544E+05 -1.000299E+05 -9.597317E+04 -4.343940E+04  2.481173E+03  1.252291E+04
        57   4  1.577406E+03  5.687734E+01  2.243593E+03 -4.363974E+04  1.877065E+03  1.936371E+04
        57   5  1.426302E+03 -6.077610E+01  1.207526E+03 -1.434288E+04  1.275617E+03  1.594879E+04
        57   6  1.593435E+03  4.553157E+01  6.578185E+02 -4.363973E+04  6.707543E+02  1.252373E+04
        57   7  5.698201E+05  1.407374E+05  1.375992E+05 -4.369353E+04  7.689183E+01  1.936288E+04
        57   8  4.874427E+05  1.203111E+05  1.171934E+05 -1.447142E+04 -5.303053E+02  1.594877E+04
        57   9  4.053906E+05  1.001092E+05  9.727731E+04 -4.384016E+04 -1.140837E+03  1.252454E+04
        57  10 -5.663694E+05 -1.406473E+05 -1.331353E+05 -4.358602E+04  3.286829E-10  3.624527E-10
        57  11 -4.843737E+05 -1.204500E+05 -1.147955E+05 -1.421445E+04 -1.977273E-11  7.241650E-10
        57  12 -4.020544E+05 -1.000301E+05 -9.597348E+04 -4.343943E+04  1.670808E-10 -2.550983E-10
        57  13  1.577302E+03  5.647376E+01  2.242882E+03 -4.363977E+04  1.076879E-09  3.752953E-10
        57  14  1.426232E+03 -6.104968E+01  1.207045E+03 -1.434289E+04 -3.282408E-09  1.565975E-10
        57  15  1.593392E+03  4.536303E+01  6.575229E+02 -4.363974E+04 -1.539532E-10 -9.015178E-10
        57  16  5.698200E+05  1.407370E+05  1.375985E+05 -4.369353E+04 -6.409562E-10 -4.181874E-10
        57  17  4.874426E+05  1.203108E+05  1.171929E+05 -1.447141E+04 -2.109224E-09  2.159074E-10
        57  18  4.053906E+05  1.001090E+05  9.727701E+04 -4.384015E+04  9.605685E-10 -4.038061E-10
        57  19 -5.663693E+05 -1.406469E+05 -1.331346E+05 -4.358596E+04 -3.675600E+03 -1.936455E+04
        57  20 -4.843736E+05 -1.204497E+05 -1.147950E+05 -1.421441E+04 -3.080133E+03 -1.594882E+04
        57  21 -4.020544E+05 -1.000299E+05 -9.597317E+04 -4.343940E+04 -2.481173E+03 -1.252291E+04
        57  22  1.577406E+03  5.687734E+01  2.243593E+03 -4.363974E+04 -1.877065E+03 -1.936371E+04
        57  23  1.426302E+03 -6.077610E+01  1.207526E+03 -1.434288E+04 -1.275617E+03 -1.594879E+04
        57  24  1.593435E+03  4.553157E+01  6.578185E+02 -4.363973E+04 -6.707543E+02 -1.252373E+04
        57  25  5.698201E+05  1.407374E+05  1.375992E+05 -4.369353E+04 -7.689183E+01 -1.936288E+04
        57  26  4.874427E+05  1.203111E+05  1.171934E+05 -1.447142E+04  5.303053E+02 -1.594877E+04
        57  27  4.053906E+05  1.001092E+05  9.727731E+04 -4.384016E+04  1.140837E+03 -1.252454E+04
        58   1 -2.970181E+05 -7.387876E+04 -7.059355E+04 -4.347015E+04  2.377732E+03  1.052632E+04
        58   2 -2.148189E+05 -5.359333E+04 -5.155529E+04 -1.420376E+04  2.321139E+03  7.100980E+03
        58   3 -1.326743E+05 -3.323074E+04 -3.248059E+04 -4.352763E+04  2.263024E+03  3.680351E+03
        58   4  1.529670E+03  4.784707E+01  4.376051E+02 -4.363868E+04  5.686395E+02  1.052754E+04
        58   5  1.563252E+03  2.099267E+01  1.055137E+02 -1.434418E+04  5.143984E+02  7.102558E+03
        58   6  1.536809E+03  7.166216E+01 -1.910996E+02 -4.363867E+04  4.586421E+02  3.682306E+03
        58   7  3.001593E+05  7.396802E+04  7.146253E+04 -4.380727E+04 -1.241319E+03  1.052877E+04
        58   8  2.179884E+05  5.363193E+04  5.176304E+04 -1.448464E+04 -1.292969E+03  7.104137E+03
        58   9  1.357645E+05  3.337276E+04  3.209712E+04 -4.374974E+04 -1.346128E+03  3.684261E+03
        58  10 -2.970181E+05 -7.387888E+04 -7.059377E+04 -4.347017E+04 -5.323440E-11 -4.473989E-10
        58  11 -2.148189E+05 -5.359339E+04 -5.155540E+04 -1.420377E+04  1.430760E-09  3.540259E-10
        58  12 -1.326744E+05 -3.323076E+04 -3.248062E+04 -4.352763E+04 -2.718382E-09  2.972555E-10
        58  13  1.529640E+03  4.772797E+01  4.373962E+02 -4.363869E+04  2.153817E-09  8.600514E-10
        58  14  1.563238E+03  2.093843E+01  1.054184E+02 -1.434418E+04  9.561976E-10  2.031745E-09
        58  15  1.536805E+03  7.164754E+01 -1.911255E+02 -4.363868E+04  2.247301E-10 -9.410769E-10
        58  16  3.001592E+05  7.396791E+04  7.146232E+04 -4.380726E+04  1.914970E-09  4.511667E-10
        58  17  2.179884E+05  5.363188E+04  5.176294E+04 -1.448463E+04 -2.445744E-09  1.733604E-09
        58  18  1.357644E+05  3.337274E+04  3.209709E+04 -4.374974E+04  1.657616E-09  7.127861E-10
        58  19 -2.970181E+05 -7.387876E+04 -7.059355E+04 -4.347015E+04 -2.377732E+03 -1.052632E+04
        58  20 -2.148189E+05 -5.359333E+04 -5.155529E+04 -1.420376E+04 -2.321139E+03 -7.100980E+03
        58  21 -1.326743E+05 -3.323074E+04 -3.248059E+04 -4.352763E+04 -2.263024E+03 -3.680351E+03
        58  22  1.529670E+03  4.784707E+01  4.376051E+02 -4.363868E+04 -5.686395E+02 -1.052754E+04
        58  23  1.563252E+03  2.099267E+01  1.055137E+02 -1.434418E+04 -5.143984E+02 -7.102558E+03
        58  24  1.536809E+03  7.166216E+01 -1.910996E+02 -4.363867E+04 -4.586421E+02 -3.682306E+03
        58  25  3.001593E+05  7.396802E+04  7.146253E+04 -4.380727E+04  1.241319E+03 -1.052877E+04
        58  26  2.179884E+05  5.363193E+04  5.176304E+04 -1.448464E+04  1.292969E+03 -7.104137E+03
        58  27  1.357645E+05  3.337276E+04  3.209712E+04 -4.374974E+04  1.346128E+03 -3.684261E+03
        59   1 -2.758504E+04 -7.052810E+03 -7.049238E+03 -4.366271E+04  2.331746E+03  1.675283E+03
        59   2  5.471933E+04  1.322304E+04  1.190263E+04 -1.438414E+04  2.674503E+03 -1.747179E+03
        59   3  1.367896E+05  3.330854E+04  3.055062E+04 -4.369401E+04  3.017758E+03 -5.091675E+03
        59   4  1.499592E+03  1.030014E+02 -3.547837E+02 -4.363852E+04  5.042826E+02  1.677361E+03
        59   5  1.623085E+03  6.929605E+01 -7.714109E+02 -1.434430E+04  8.880465E+02 -1.745250E+03
        59   6  1.497841E+03 -1.617550E+02 -1.520391E+03 -4.363881E+04  1.272265E+03 -5.089867E+03
        59   7  3.058501E+04  7.258756E+03  6.339627E+03 -4.361433E+04 -1.323266E+03  1.679438E+03
        59   8 -5.147057E+04 -1.308465E+04 -1.344564E+04 -1.430445E+04 -8.982576E+02 -1.743320E+03
        59   9 -1.337771E+05 -3.363336E+04 -3.359267E+04 -4.358363E+04 -4.728499E+02 -5.088058E+03
        59  10 -2.758505E+04 -7.052815E+03 -7.049254E+03 -4.366272E+04 -1.231125E-10  4.946281E-10
        59  11  5.471932E+04  1.322303E+04  1.190261E+04 -1.438414E+04 -7.945298E-10 -2.024498E-09
        59  12  1.367896E+05  3.330851E+04  3.055055E+04 -4.369399E+04 -4.540013E-09  4.901110E-10
        59  13  1.499591E+03  1.029983E+02 -3.547895E+02 -4.363853E+04 -2.154317E-09 -1.325891E-09
        59  14  1.623083E+03  6.929257E+01 -7.714181E+02 -1.434430E+04 -2.293227E-09 -3.197518E-09
        59  15  1.497832E+03 -1.617833E+02 -1.520443E+03 -4.363881E+04 -1.242078E-09  5.178812E-10
        59  16  3.058501E+04  7.258752E+03  6.339619E+03 -4.361433E+04  1.479135E-09  7.802532E-10
        59  17 -5.147057E+04 -1.308465E+04 -1.344565E+04 -1.430445E+04  3.089875E-10 -2.958757E-09
        59  18 -1.337771E+05 -3.363339E+04 -3.359271E+04 -4.358363E+04  1.857574E-09 -6.795651E-10
        59  19 -2.758504E+04 -7.052810E+03 -7.049238E+03 -4.366271E+04 -2.331746E+03 -1.675283E+03
        59  20  5.471933E+04  1.322304E+04  1.190263E+04 -1.438414E+04 -2.674503E+03  1.747179E+03
        59  21  1.367896E+05  3.330854E+04  3.055062E+04 -4.369401E+04 -3.017758E+03  5.091675E+03
        59  22  1.499592E+03  1.030014E+02 -3.547837E+02 -4.363852E+04 -5.042826E+02 -1.677361E+03
        59  23  1.623085E+03  6.929605E+01 -7.714109E+02 -1.434430E+04 -8.880465E+02  1.745250E+03
        59  24  1.497841E+03 -1.617550E+02 -1.520391E+03 -4.363881E+04 -1.272265E+03  5.089867E+03
        59  25  3.058501E+04  7.258756E+03  6.339627E+03 -4.361433E+04  1.323266E+03 -1.679438E+03
        59  26 -5.147057E+04 -1.308465E+04 -1.344564E+04 -1.430445E+04  8.982576E+02  1.743320E+03
        59  27 -1.337771E+05 -3.363336E+04 -3.359267E+04 -4.358363E+04  4.728499E+02  5.088058E+03
        60   1  2.417834E+05  5.981742E+04  5.565280E+04 -4.416911E+04  3.650285E+03 -7.239832E+03
        60   2  3.244175E+05  8.024875E+04  7.361995E+04 -1.436389E+04  4.788435E+03 -1.061284E+04
        60   3  4.062160E+05  9.792253E+04  9.015385E+04 -4.311951E+04  5.929579E+03 -1.287943E+04
        60   4  1.332499E+03  2.098954E+02 -1.963954E+03 -4.363228E+04  1.576583E+03 -7.237908E+03
        60   5  1.799151E+03  3.395792E+02 -3.372039E+03 -1.435178E+04  3.298263E+03 -1.061201E+04
        60   6  1.321872E+03 -2.390027E+03 -6.618915E+03 -4.363410E+04  5.022788E+03 -1.287941E+04
        60   7 -2.390654E+05 -5.940182E+04 -5.958479E+04 -4.309564E+04 -4.963193E+02 -7.235988E+03
        60   8 -3.207238E+05 -7.957711E+04 -8.037134E+04 -1.433966E+04  1.808861E+03 -1.061117E+04
        60   9 -4.034220E+05 -1.027145E+05 -1.034032E+05 -4.414832E+04  4.116585E+03 -1.287939E+04
        60  10  2.417833E+05  5.981736E+04  5.565268E+04 -4.416909E+04 -1.332974E-09 -1.711570E-10
        60  11  3.244175E+05  8.024862E+04  7.361970E+04 -1.436384E+04 -1.072864E-09 -7.141812E-11
        60  12  4.062159E+05  9.792235E+04  9.015347E+04 -4.311945E+04  9.350007E-10  2.019747E-10
        60  13  1.332483E+03  2.098385E+02 -1.964057E+03 -4.363227E+04 -1.077114E-09  9.651027E-10
        60  14  1.799109E+03  3.394553E+02 -3.372271E+03 -1.435175E+04 -3.330485E-09  1.809876E-10
        60  15  1.321800E+03 -2.390212E+03 -6.619274E+03 -4.363405E+04  1.504210E-09 -6.825451E-11
        60  16 -2.390654E+05 -5.940188E+04 -5.958489E+04 -4.309564E+04  5.114203E-10  1.152530E-09
        60  17 -3.207238E+05 -7.957724E+04 -8.037156E+04 -1.433965E+04 -1.673403E-09  1.252802E-09
        60  18 -4.034221E+05 -1.027146E+05 -1.034036E+05 -4.414827E+04 -1.642660E-09 -8.811068E-10
        60  19  2.417834E+05  5.981742E+04  5.565280E+04 -4.416911E+04 -3.650285E+03  7.239832E+03
        60  20  3.244175E+05  8.024875E+04  7.361995E+04 -1.436389E+04 -4.788435E+03  1.061284E+04
        60  21  4.062160E+05  9.792253E+04  9.015385E+04 -4.311951E+04 -5.929579E+03  1.287943E+04
        60  22  1.332499E+03  2.098954E+02 -1.963954E+03 -4.363228E+04 -1.576583E+03  7.237908E+03
        60  23  1.799151E+03  3.395792E+02 -3.372039E+03 -1.435178E+04 -3.298263E+03  1.061201E+04
        60  24  1.321872E+03 -2.390027E+03 -6.618915E+03 -4.363410E+04 -5.022788E+03  1.287941E+04
        60  25 -2.390654E+05 -5.940182E+04 -5.958479E+04 -4.309564E+04  4.963193E+02  7.235988E+03
        60  26 -3.207238E+05 -7.957711E+04 -8.037134E+04 -1.433966E+04 -1.808861E+03  1.061117E+04
        60  27 -4.034220E+05 -1.027145E+05 -1.034032E+05 -4.414832E+04 -4.116585E+03  1.287939E+04
        61   1  5.099838E+05  1.275947E+05  1.135380E+05 -4.692840E+04  1.182571E+04 -1.705533E+04
        61   2  5.955133E+05  1.496722E+05  1.280402E+05 -1.225490E+04  1.060544E+04 -1.972508E+04
        61   3  6.747576E+05  1.445508E+05  1.366086E+05 -3.573190E+04  9.384237E+03 -6.723975E+03
        61   4 -2.135026E+02  1.252892E+03 -8.112649E+03 -4.354209E+04  6.270841E+03 -1.705346E+04
        61   5  3.643965E+03  3.115237E+03 -1.309432E+04 -1.446392E+04  1.332595E+04 -1.972673E+04
        61   6 -2.328347E+02 -2.367128E+04 -2.976072E+04 -4.354022E+04  2.038007E+04 -6.722512E+03
        61   7 -5.101721E+05 -1.251077E+05 -1.297815E+05 -4.015855E+04  7.205137E+02 -1.705166E+04
        61   8 -5.879043E+05 -1.434670E+05 -1.542534E+05 -1.667082E+04  1.604388E+04 -1.972839E+04
        61   9 -6.748088E+05 -1.919270E+05 -1.961633E+05 -5.134006E+04  3.136397E+04 -6.721325E+03
        61  10  5.099836E+05  1.275944E+05  1.135372E+05 -4.692823E+04  2.192081E-10  2.752406E-10
        61  11  5.955131E+05  1.496718E+05  1.280392E+05 -1.225473E+04  1.186971E-09 -5.213608E-11
        61  12  6.747575E+05  1.445507E+05  1.366084E+05 -3.573185E+04  5.498053E-11  4.758850E-11
        61  13 -2.136228E+02  1.252570E+03 -8.113269E+03 -4.354201E+04 -5.337862E-12  5.129380E-10
        61  14  3.643670E+03  3.114772E+03 -1.309538E+04 -1.446371E+04 -2.163584E-09 -7.819965E-11
        61  15 -2.332928E+02 -2.367144E+04 -2.976159E+04 -4.354011E+04 -1.490200E-10 -9.368295E-11
        61  16 -5.101722E+05 -1.251080E+05 -1.297820E+05 -4.015854E+04 -7.439700E-10 -1.024662E-09
        61  17 -5.879047E+05 -1.434675E+05 -1.542546E+05 -1.667056E+04 -3.288485E-09 -5.444501E-11
        61  18 -6.748099E+05 -1.919273E+05 -1.961652E+05 -5.133989E+04 -2.701342E-10  2.575974E-10
        61  19  5.099838E+05  1.275947E+05  1.135380E+05 -4.692840E+04 -1.182571E+04  1.705533E+04
        61  20  5.955133E+05  1.496722E+05  1.280402E+05 -1.225490E+04 -1.060544E+04  1.972508E+04
        61  21  6.747576E+05  1.445508E+05  1.366086E+05 -3.573190E+04 -9.384237E+03  6.723975E+03
        61  22 -2.135026E+02  1.252892E+03 -8.112649E+03 -4.354209E+04 -6.270841E+03  1.705346E+04
        61  23  3.643965E+03  3.115237E+03 -1.309432E+04 -1.446392E+04 -1.332595E+04  1.972673E+04
        61  24 -2.328347E+02 -2.367128E+04 -2.976072E+04 -4.354022E+04 -2.038007E+04  6.722512E+03
        61  25 -5.101721E+05 -1.251077E+05 -1.297815E+05 -4.015855E+04 -7.205137E+02  1.705166E+04
        61  26 -5.879043E+05 -1.434670E+05 -1.542534E+05 -1.667082E+04 -1.604388E+04  1.972839E+04
        61  27 -6.748088E+05 -1.919270E+05 -1.961633E+05 -5.134006E+04 -3.136397E+04  6.721325E+03
        62   1  1.015590E+06  3.284804E+06  9.779647E+05 -9.960571E+05  4.085714E+04  2.524662E+05
        62   2  7.051891E+05  2.303895E+06  6.191240E+05 -8.625070E+05  1.255788E+05  7.316784E+04
        62   3  4.632464E+05  1.362421E+06  3.935315E+05 -9.471673E+05  1.140028E+05 -1.062886E+05
        62   4  7.046070E+04 -5.355987E+05  6.941838E+04 -9.396480E+05  4.224203E+04  3.658350E+04
        62   5  2.130252E+04 -5.404109E+05  4.272724E+04 -8.307159E+05  1.260147E+05  1.528672E+04
        62   6  1.346686E+04 -5.338490E+05  4.000779E+04 -9.400161E+05  1.133008E+05 -6.453227E+03
        62   7 -8.756867E+05 -4.342542E+06 -8.399741E+05 -8.835566E+05  4.359294E+04 -1.779829E+05
        62   8 -6.630827E+05 -3.377022E+06 -5.340774E+05 -7.990557E+05  1.264459E+05 -4.233506E+04
        62   9 -4.365145E+05 -2.426620E+06 -3.136321E+05 -9.328787E+05  1.125999E+05  9.308543E+04
        62  10  1.015572E+06  3.284736E+06  9.778423E+05 -9.960654E+05  1.095497E-09 -2.774594E-08
        62  11  7.051707E+05  2.303885E+06  6.190843E+05 -8.625144E+05 -1.413608E-09 -4.911633E-09
        62  12  4.632295E+05  1.362405E+06  3.934860E+05 -9.471576E+05 -1.038628E-09  2.392485E-08
        62  13  7.045842E+04 -5.356006E+05  6.941250E+04 -9.396493E+05 -7.956224E-11  5.304089E-09
        62  14  2.128540E+04 -5.404155E+05  4.269695E+04 -8.307175E+05 -1.439851E-09  2.775919E-09
        62  15  1.345307E+04 -5.338525E+05  3.998360E+04 -9.400155E+05  6.243175E-10  3.470549E-09
        62  16 -8.756973E+05 -4.342576E+06 -8.400376E+05 -8.835504E+05  1.339331E-09  2.517224E-08
        62  17 -6.631004E+05 -3.377028E+06 -5.341108E+05 -7.990514E+05  7.458620E-09 -6.494524E-10
        62  18 -4.365305E+05 -2.426633E+06 -3.136723E+05 -9.328872E+05 -1.078666E-10 -3.010619E-08
        62  19  1.015590E+06  3.284804E+06  9.779647E+05 -9.960571E+05 -4.085714E+04 -2.524662E+05
        62  20  7.051891E+05  2.303895E+06  6.191240E+05 -8.625070E+05 -1.255788E+05 -7.316784E+04
        62  21  4.632464E+05  1.362421E+06  3.935315E+05 -9.471673E+05 -1.140028E+05  1.062886E+05
        62  22  7.046070E+04 -5.355987E+05  6.941838E+04 -9.396480E+05 -4.224203E+04 -3.658350E+04
        62  23  2.130252E+04 -5.404109E+05  4.272724E+04 -8.307159E+05 -1.260147E+05 -1.528672E+04
        62  24  1.346686E+04 -5.338490E+05  4.000779E+04 -9.400161E+05 -1.133008E+05  6.453227E+03
        62  25 -8.756867E+05 -4.342542E+06 -8.399741E+05 -8.835566E+05 -4.359294E+04  1.779829E+05
        62  26 -6.630827E+05 -3.377022E+06 -5.340774E+05 -7.990557E+05 -1.264459E+05  4.233506E+04
        62  27 -4.365145E+05 -2.426620E+06 -3.136321E+05 -9.328787E+05 -1.125999E+05 -9.308543E+04
        63   1  3.137969E+05  7.257531E+05  2.783626E+05 -9.523320E+05  7.643701E+04 -1.020414E+05
        63   2  8.475924E+04 -2.372005E+05  1.143270E+05 -8.291263E+05  2.196778E+04 -1.349647E+05
        63   3 -1.259255E+05 -1.193530E+06 -2.456808E+04 -9.300437E+05 -3.368696E+04 -1.678612E+05
        63   4  1.465702E+04 -5.347970E+05  4.364285E+04 -9.412916E+05  7.578613E+04 -1.366929E+04
        63   5  1.415292E+04 -5.373790E+05  6.149904E+04 -8.291726E+05  2.129464E+04 -4.471026E+04
        63   6  3.171123E+04 -5.345933E+05  1.031652E+05 -9.411680E+05 -3.438365E+04 -7.577231E+04
        63   7 -2.845699E+05 -1.793792E+06 -1.911152E+05 -9.302703E+05  7.513758E+04  7.452817E+04
        63   8 -5.645395E+04 -8.374518E+05  8.698391E+03 -8.292188E+05  2.062129E+04  4.550181E+04
        63   9  1.893269E+05  1.247802E+05  2.309101E+05 -9.523036E+05 -3.508319E+04  1.641234E+04
        63  10  3.137879E+05  7.257403E+05  2.783322E+05 -9.523258E+05 -1.339493E-09 -1.329726E-09
        63  11  8.475383E+04 -2.372202E+05  1.142919E+05 -8.291239E+05  1.235078E-09 -5.871064E-09
        63  12 -1.259343E+05 -1.193561E+06 -2.462330E+04 -9.300482E+05 -3.041403E-10 -1.944313E-09
        63  13  1.465081E+04 -5.347988E+05  4.363172E+04 -9.412907E+05 -1.157896E-09  6.168165E-09
        63  14  1.415190E+04 -5.373813E+05  6.149444E+04 -8.291718E+05 -6.804844E-09  3.638118E-09
        63  15  3.170842E+04 -5.345998E+05  1.031522E+05 -9.411701E+05 -8.813263E-10  3.786634E-09
        63  16 -2.845775E+05 -1.793800E+06 -1.911363E+05 -9.302748E+05 -4.542400E-10 -1.803350E-09
        63  17 -5.645496E+04 -8.374541E+05  8.693690E+03 -8.292196E+05 -4.535998E-09 -2.031708E-09
        63  18  1.893255E+05  1.247795E+05  2.309073E+05 -9.523031E+05  1.450247E-09 -4.315873E-09
        63  19  3.137969E+05  7.257531E+05  2.783626E+05 -9.523320E+05 -7.643701E+04  1.020414E+05
        63  20  8.475924E+04 -2.372005E+05  1.143270E+05 -8.291263E+05 -2.196778E+04  1.349647E+05
        63  21 -1.259255E+05 -1.193530E+06 -2.456808E+04 -9.300437E+05  3.368696E+04  1.678612E+05
        63  22  1.465702E+04 -5.347970E+05  4.364285E+04 -9.412916E+05 -7.578613E+04  1.366929E+04
        63  23  1.415292E+04 -5.373790E+05  6.149904E+04 -8.291726E+05 -2.129464E+04  4.471026E+04
        63  24  3.171123E+04 -5.345933E+05  1.031652E+05 -9.411680E+05  3.438365E+04  7.577231E+04
        63  25 -2.845699E+05 -1.793792E+06 -1.911152E+05 -9.302703E+05 -7.513758E+04 -7.452817E+04
        63  26 -5.645395E+04 -8.374518E+05  8.698391E+03 -8.292188E+05 -2.062129E+04 -4.550181E+04
        63  27  1.893269E+05  1.247802E+05  2.309101E+05 -9.523036E+05  3.508319E+04 -1.641234E+04
        64   1 -2.848029E+05 -1.810861E+06 -1.128234E+05 -9.618015E+05 -7.160594E+04 -1.950777E+05
        64   2 -4.415645E+05 -2.796766E+06 -2.234522E+05 -6.976751E+05 -9.303971E+04 -1.833696E+05
        64   3 -3.520217E+05 -3.723705E+06 -2.806603E+05 -6.523036E+05 -3.216752E+04 -1.712498E+05
        64   4  2.285901E+04 -5.180386E+05  1.330299E+05 -9.402991E+05 -7.236397E+04 -9.367996E+04
        64   5  1.009970E+05 -5.591502E+05  2.371984E+05 -8.296586E+05 -9.274788E+04 -2.161879E+05
        64   6  4.481951E+05 -5.193006E+05  4.878467E+05 -9.375066E+05 -3.096773E+04 -3.382825E+05
        64   7  3.304306E+05  7.764234E+05  3.788475E+05 -9.187468E+05 -7.311399E+04  7.924479E+03
        64   8  6.433030E+05  1.683269E+06  6.975922E+05 -9.621173E+05 -9.244275E+04 -2.491217E+05
        64   9  1.247971E+06  2.694774E+06  1.255770E+06 -1.224174E+06 -2.961770E+04 -5.061743E+05
        64  10 -2.848187E+05 -1.810904E+06 -1.129048E+05 -9.618128E+05  4.827142E-10  5.002470E-10
        64  11 -4.415829E+05 -2.796804E+06 -2.235320E+05 -6.976889E+05  3.859192E-09 -5.526533E-09
        64  12 -3.520308E+05 -3.723737E+06 -2.807177E+05 -6.523081E+05  4.784324E-10 -6.179630E-09
        64  13  2.285102E+04 -5.180495E+05  1.330035E+05 -9.403046E+05  3.801231E-09  6.164987E-09
        64  14  1.009752E+05 -5.592028E+05  2.370942E+05 -8.296748E+05 -5.914752E-09  3.007712E-09
        64  15  4.481633E+05 -5.194238E+05  4.876296E+05 -9.375150E+05  1.295288E-09  3.134858E-09
        64  16  3.304249E+05  7.764218E+05  3.788374E+05 -9.187463E+05 -2.185955E-10 -3.058176E-09
        64  17  6.432771E+05  1.683200E+06  6.974597E+05 -9.621358E+05  3.716550E-09 -1.294903E-09
        64  18  1.247901E+06  2.694500E+06  1.255288E+06 -1.224186E+06  2.735466E-09  3.619271E-10
        64  19 -2.848029E+05 -1.810861E+06 -1.128234E+05 -9.618015E+05  7.160594E+04  1.950777E+05
        64  20 -4.415645E+05 -2.796766E+06 -2.234522E+05 -6.976751E+05  9.303971E+04  1.833696E+05
        64  21 -3.520217E+05 -3.723705E+06 -2.806603E+05 -6.523036E+05  3.216752E+04  1.712498E+05
        64  22  2.285901E+04 -5.180386E+05  1.330299E+05 -9.402991E+05  7.236397E+04  9.367996E+04
        64  23  1.009970E+05 -5.591502E+05  2.371984E+05 -8.296586E+05  9.274788E+04  2.161879E+05
        64  24  4.481951E+05 -5.193006E+05  4.878467E+05 -9.375066E+05  3.096773E+04  3.382825E+05
        64  25  3.304306E+05  7.764234E+05  3.788475E+05 -9.187468E+05  7.311399E+04 -7.924479E+03
        64  26  6.433030E+05  1.683269E+06  6.975922E+05 -9.621173E+05  9.244275E+04  2.491217E+05
        64  27  1.247971E+06  2.694774E+06  1.255770E+06 -1.224174E+06  2.961770E+04  5.061743E+05
        65   1 -3.554331E+06 -1.368031E+06 -7.736079E+05 -1.224933E+06 -2.082346E+05 -2.043039E+04
        65   2 -3.320089E+06 -1.309625E+06 -6.201468E+05 -1.143994E+06 -1.398952E+05  1.413022E+05
        65   3 -3.050418E+06 -1.266378E+06 -5.438963E+05 -1.119326E+06 -3.760975E+04  2.139714E+05
        65   4 -1.813704E+05 -1.392428E+05  9.273750E+04 -3.420731E+05  4.021750E+04  7.384861E+04
        65   5 -2.174879E+05 -1.812471E+05  4.242482E+04 -3.001561E+05 -2.681672E+04  1.840427E+05
        65   6 -1.913071E+05 -2.115679E+05  2.265868E+04 -3.145054E+05 -6.004655E+04  2.053905E+05
        65   7  3.202725E+06  1.090109E+06  9.583935E+05  5.450715E+05  2.901520E+05  1.686439E+05
        65   8  2.894947E+06  9.478550E+05  7.044974E+05  5.475474E+05  8.687410E+04  2.270064E+05
        65   9  2.676337E+06  8.440212E+05  5.888441E+05  4.937850E+05 -8.259553E+04  1.967670E+05
        65  10 -3.554378E+06 -1.368043E+06 -7.736907E+05 -1.224937E+06 -1.035439E-08 -1.072488E-09
        65  11 -3.320115E+06 -1.309652E+06 -6.202212E+05 -1.143978E+06 -5.683240E-09 -6.167644E-10
        65  12 -3.050432E+06 -1.266427E+06 -5.439850E+05 -1.119319E+06 -4.473036E-09 -3.074633E-10
        65  13 -1.813736E+05 -1.392491E+05  9.272421E+04 -3.420755E+05 -6.581533E-10  4.228942E-10
        65  14 -2.174978E+05 -1.812836E+05  4.235982E+04 -3.001522E+05  4.691428E-09 -5.046361E-09
        65  15 -1.913223E+05 -2.116142E+05  2.257264E+04 -3.144955E+05 -5.282430E-09 -7.995768E-09
        65  16  3.202628E+06  1.090056E+06  9.581829E+05  5.450322E+05  1.004741E-08  7.285032E-09
        65  17  2.894925E+06  9.477977E+05  7.043865E+05  5.475316E+05  1.055965E-09  3.967888E-09
        65  18  2.676319E+06  8.439778E+05  5.887585E+05  4.937980E+05 -1.086049E-08  4.540880E-10
        65  19 -3.554331E+06 -1.368031E+06 -7.736079E+05 -1.224933E+06  2.082346E+05  2.043039E+04
        65  20 -3.320089E+06 -1.309625E+06 -6.201468E+05 -1.143994E+06  1.398952E+05 -1.413022E+05
        65  21 -3.050418E+06 -1.266378E+06 -5.438963E+05 -1.119326E+06  3.760975E+04 -2.139714E+05
        65  22 -1.813704E+05 -1.392428E+05  9.273750E+04 -3.420731E+05 -4.021750E+04 -7.384861E+04
        65  23 -2.174879E+05 -1.812471E+05  4.242482E+04 -3.001561E+05  2.681672E+04 -1.840427E+05
        65  24 -1.913071E+05 -2.115679E+05  2.265868E+04 -3.145054E+05  6.004655E+04 -2.053905E+05
        65  25  3.202725E+06  1.090109E+06  9.583935E+05  5.450715E+05 -2.901520E+05 -1.686439E+05
        65  26  2.894947E+06  9.478550E+05  7.044974E+05  5.475474E+05 -8.687410E+04 -2.270064E+05
        65  27  2.676337E+06  8.440212E+05  5.888441E+05  4.937850E+05  8.259553E+04 -1.967670E+05
        66   1 -2.896347E+06 -1.199836E+06 -5.150536E+05 -1.071010E+06 -5.169235E+04  1.980960E+05
        66   2 -2.681496E+06 -1.091814E+06 -4.668377E+05 -9.803116E+05 -4.282568E+04  1.919657E+05
        66   3 -2.423120E+06 -1.026179E+06 -4.224414E+05 -9.386884E+05 -3.146687E+04  1.791442E+05
        66   4 -1.930325E+05 -2.104702E+05  1.717240E+04 -3.176216E+05 -5.915360E+04  1.951871E+05
        66   5 -2.157107E+05 -1.912876E+05  8.941224E+03 -2.926161E+05 -6.047419E+04  1.852324E+05
        66   6 -1.929117E+05 -2.124634E+05  4.976451E+03 -3.166936E+05 -5.931041E+04  1.686004E+05
        66   7  2.517877E+06  7.795517E+05  5.490626E+05  4.388177E+05 -6.665023E+04  1.922652E+05
        66   8  2.256405E+06  7.097902E+05  4.844550E+05  3.976200E+05 -7.819829E+04  1.784709E+05
        66   9  2.042470E+06  6.017016E+05  4.321810E+05  3.073778E+05 -8.726136E+04  1.580164E+05
        66  10 -2.896361E+06 -1.199879E+06 -5.151323E+05 -1.071002E+06 -5.884982E-09  1.469615E-09
        66  11 -2.681508E+06 -1.091854E+06 -4.669104E+05 -9.803050E+05  1.256458E-09  6.177903E-09
        66  12 -2.423130E+06 -1.026214E+06 -4.225035E+05 -9.386839E+05  1.076765E-08  7.128642E-09
        66  13 -1.930465E+05 -2.105121E+05  1.709424E+04 -3.176123E+05 -8.540946E-09 -9.304558E-09
        66  14 -2.157238E+05 -1.913254E+05  8.869885E+03 -2.926071E+05  4.508853E-09 -3.264778E-09
        66  15 -1.929231E+05 -2.124949E+05  4.916432E+03 -3.166856E+05  1.010583E-08  3.140359E-09
        66  16  2.517862E+06  7.795108E+05  5.489848E+05  4.388280E+05 -7.222455E-09 -2.676213E-09
        66  17  2.256390E+06  7.097544E+05  4.843837E+05  3.976313E+05  4.087103E-09 -2.701667E-09
        66  18  2.042456E+06  6.016728E+05  4.321198E+05  3.073888E+05  7.936783E-09  1.811059E-09
        66  19 -2.896347E+06 -1.199836E+06 -5.150536E+05 -1.071010E+06  5.169235E+04 -1.980960E+05
        66  20 -2.681496E+06 -1.091814E+06 -4.668377E+05 -9.803116E+05  4.282568E+04 -1.919657E+05
        66  21 -2.423120E+06 -1.026179E+06 -4.224414E+05 -9.386884E+05  3.146687E+04 -1.791442E+05
        66  22 -1.930325E+05 -2.104702E+05  1.717240E+04 -3.176216E+05  5.915360E+04 -1.951871E+05
        66  23 -2.157107E+05 -1.912876E+05  8.941224E+03 -2.926161E+05  6.047419E+04 -1.852324E+05
        66  24 -1.929117E+05 -2.124634E+05  4.976451E+03 -3.166936E+05  5.931041E+04 -1.686004E+05
        66  25  2.517877E+06  7.795517E+05  5.490626E+05  4.388177E+05  6.665023E+04 -1.922652E+05
        66  26  2.256405E+06  7.097902E+05  4.844550E+05  3.976200E+05  7.819829E+04 -1.784709E+05
        66  27  2.042470E+06  6.017016E+05  4.321810E+05  3.073778E+05  8.726136E+04 -1.580164E+05
        67   1 -2.265413E+06 -9.674464E+05 -3.919868E+05 -8.943471E+05 -2.921498E+04  1.677684E+05
        67   2 -2.050353E+06 -8.585885E+05 -3.482411E+05 -8.032223E+05 -2.266623E+04  1.498704E+05
        67   3 -1.791326E+06 -7.929591E+05 -3.042004E+05 -7.614325E+05 -1.595526E+04  1.314509E+05
        67   4 -1.929882E+05 -2.122925E+05  3.705782E+03 -3.169872E+05 -5.596389E+04  1.576538E+05
        67   5 -2.148067E+05 -1.903824E+05  1.952298E+03 -2.923857E+05 -5.020936E+04  1.394820E+05
        67   6 -1.925766E+05 -2.115442E+05  1.112255E+03 -3.171344E+05 -4.429289E+04  1.207896E+05
        67   7  1.883942E+06  5.432628E+05  3.992266E+05  2.621735E+05 -8.280909E+04  1.475030E+05
        67   8  1.624267E+06  4.781352E+05  3.520104E+05  2.198597E+05 -7.784012E+04  1.290606E+05
        67   9  1.408842E+06  3.701033E+05  3.063212E+05  1.282288E+05 -7.270887E+04  1.100989E+05
        67  10 -2.265421E+06 -9.674769E+05 -3.920413E+05 -8.943432E+05  1.402897E-08  5.558504E-09
        67  11 -2.050359E+06 -8.586128E+05 -3.482843E+05 -8.032196E+05  8.027473E-09  1.204938E-09
        67  12 -1.791331E+06 -7.929777E+05 -3.042334E+05 -7.614308E+05  1.485631E-09  5.987568E-11
        67  13 -1.929982E+05 -2.123200E+05  3.653199E+03 -3.169801E+05  1.205824E-08  3.408814E-09
        67  14 -2.148147E+05 -1.904039E+05  1.911008E+03 -2.923801E+05  4.828727E-09  1.284069E-09
        67  15 -1.925826E+05 -2.115604E+05  1.081156E+03 -3.171300E+05  7.880786E-10  1.574622E-10
        67  16  1.883929E+06  5.432376E+05  3.991729E+05  2.621834E+05 -1.087939E-09  1.333284E-09
        67  17  1.624256E+06  4.781157E+05  3.519677E+05  2.198678E+05 -1.302023E-09  2.680257E-09
        67  18  1.408833E+06  3.700889E+05  3.062885E+05  1.282352E+05 -2.794820E-09  3.735264E-10
        67  19 -2.265413E+06 -9.674464E+05 -3.919868E+05 -8.943471E+05  2.921498E+04 -1.677684E+05
        67  20 -2.050353E+06 -8.585885E+05 -3.482411E+05 -8.032223E+05  2.266623E+04 -1.498704E+05
        67  21 -1.791326E+06 -7.929591E+05 -3.042004E+05 -7.614325E+05  1.595526E+04 -1.314509E+05
        67  22 -1.929882E+05 -2.122925E+05  3.705782E+03 -3.169872E+05  5.596389E+04 -1.576538E+05
        67  23 -2.148067E+05 -1.903824E+05  1.952298E+03 -2.923857E+05  5.020936E+04 -1.394820E+05
        67  24 -1.925766E+05 -2.115442E+05  1.112255E+03 -3.171344E+05  4.429289E+04 -1.207896E+05
        67  25  1.883942E+06  5.432628E+05  3.992266E+05  2.621735E+05  8.280909E+04 -1.475030E+05
        67  26  1.624267E+06  4.781352E+05  3.520104E+05  2.198597E+05  7.784012E+04 -1.290606E+05
        67  27  1.408842E+06  3.701033E+05  3.063212E+05  1.282288E+05  7.270887E+04 -1.100989E+05
        68   1 -1.632934E+06 -7.348129E+05 -2.729401E+05 -7.173991E+05 -1.210922E+04  1.205343E+05
        68   2 -1.416901E+06 -6.263490E+05 -2.286315E+05 -6.263609E+05 -5.242477E+03  1.019190E+05
        68   3 -1.157199E+06 -5.611743E+05 -1.841685E+05 -5.849195E+05  1.620773E+03  8.325242E+04
        68   4 -1.925469E+05 -2.114309E+05  8.036399E+02 -3.172079E+05 -4.038444E+04  1.099090E+05
        68   5 -2.142220E+05 -1.895180E+05  3.738689E+02 -2.924615E+05 -3.359628E+04  9.128104E+04
        68   6 -1.922779E+05 -2.108813E+05  1.540987E+02 -3.173302E+05 -2.681158E+04  7.260178E+04
        68   7  1.249995E+06  3.121354E+05  2.744614E+05  8.384417E+04 -6.872981E+04  9.925749E+04
        68   8  9.899675E+05  2.474444E+05  2.293225E+05  4.203982E+04 -6.200899E+04  8.062098E+04
        68   9  7.736240E+05  1.394993E+05  1.844434E+05 -4.935164E+04 -5.529154E+04  6.193332E+04
        68  10 -1.632938E+06 -7.348285E+05 -2.729677E+05 -7.173980E+05  1.118366E-08  4.431918E-09
        68  11 -1.416904E+06 -6.263602E+05 -2.286511E+05 -6.263605E+05 -8.593982E-10 -9.454818E-10
        68  12 -1.157201E+06 -5.611818E+05 -1.841816E+05 -5.849196E+05 -1.679752E-08 -8.226980E-09
        68  13 -1.925519E+05 -2.114443E+05  7.778791E+02 -3.172043E+05 -1.482910E-09  1.436270E-09
        68  14 -2.142255E+05 -1.895272E+05  3.560933E+02 -2.924590E+05  7.312157E-10  4.281518E-09
        68  15 -1.922801E+05 -2.108871E+05  1.428447E+02 -3.173286E+05 -3.398570E-09  5.717190E-09
        68  16  1.249987E+06  3.121236E+05  2.744340E+05  8.384966E+04 -1.067386E-08 -4.079429E-09
        68  17  9.899616E+05  2.474364E+05  2.293030E+05  4.204385E+04  1.911765E-09 -9.092197E-10
        68  18  7.736197E+05  1.394943E+05  1.844304E+05 -4.934888E+04  1.446295E-08  3.418408E-09
        68  19 -1.632934E+06 -7.348129E+05 -2.729401E+05 -7.173991E+05  1.210922E+04 -1.205343E+05
        68  20 -1.416901E+06 -6.263490E+05 -2.286315E+05 -6.263609E+05  5.242477E+03 -1.019190E+05
        68  21 -1.157199E+06 -5.611743E+05 -1.841685E+05 -5.849195E+05 -1.620773E+03 -8.325242E+04
        68  22 -1.925469E+05 -2.114309E+05  8.036399E+02 -3.172079E+05  4.038444E+04 -1.099090E+05
        68  23 -2.142220E+05 -1.895180E+05  3.738689E+02 -2.924615E+05  3.359628E+04 -9.128104E+04
        68  24 -1.922779E+05 -2.108813E+05  1.540987E+02 -3.173302E+05  2.681158E+04 -7.260178E+04
        68  25  1.249995E+06  3.121354E+05  2.744614E+05  8.384417E+04  6.872981E+04 -9.925749E+04
        68  26  9.899675E+05  2.474444E+05  2.293225E+05  4.203982E+04  6.200899E+04 -8.062098E+04
        68  27  7.736240E+05  1.394993E+05  1.844434E+05 -4.935164E+04  5.529154E+04 -6.193332E+04
        69   1 -9.983568E+05 -5.031865E+05 -1.526966E+05 -5.409655E+05  5.676078E+03  7.239581E+04
        69   2 -7.816978E+05 -3.949924E+05 -1.082082E+05 -4.499646E+05  1.273809E+04  5.379092E+04
        69   3 -5.215774E+05 -3.301219E+05 -6.376258E+04 -4.087061E+05  1.978630E+04  3.519369E+04
        69   4 -1.922551E+05 -2.108147E+05  3.784430E+01 -3.173655E+05 -2.276711E+04  6.174846E+04
        69   5 -2.138879E+05 -1.890172E+05 -1.891128E+02 -2.925137E+05 -1.569609E+04  4.315483E+04
        69   6 -1.921244E+05 -2.105486E+05 -4.702222E+02 -3.174244E+05 -8.638942E+03  2.456897E+04
        69   7  6.145263E+05  8.161630E+04  1.527491E+05 -9.349519E+04 -5.124984E+04  5.108629E+04
        69   8  3.542571E+05  1.698658E+04  1.078193E+05 -1.349294E+05 -4.415798E+04  3.250836E+04
        69   9  1.374402E+05 -9.096607E+04  6.282011E+04 -2.260982E+05 -3.708008E+04  1.393830E+04
        69  10 -9.983583E+05 -5.031921E+05 -1.527065E+05 -5.409658E+05  1.075146E-08  2.836319E-09
        69  11 -7.816987E+05 -3.949955E+05 -1.082139E+05 -4.499651E+05  4.621499E-09  8.808237E-10
        69  12 -5.215782E+05 -3.301233E+05 -6.376565E+04 -4.087067E+05 -8.808629E-09 -3.657241E-09
        69  13 -1.922567E+05 -2.108189E+05  2.970660E+01 -3.173643E+05  2.606762E-11  6.102499E-09
        69  14 -2.138887E+05 -1.890193E+05 -1.930747E+02 -2.925132E+05  2.637835E-09  5.608385E-09
        69  15 -1.921247E+05 -2.105492E+05 -4.714966E+02 -3.174243E+05 -2.420191E-09  2.515796E-09
        69  16  6.145228E+05  8.161280E+04  1.527392E+05 -9.349309E+04 -1.169451E-08 -6.583893E-09
        69  17  3.542547E+05  1.698493E+04  1.078136E+05 -1.349283E+05 -1.981272E-09 -4.553446E-10
        69  18  1.374387E+05 -9.096665E+04  6.281717E+04 -2.260978E+05  9.807465E-09  2.928051E-09
        69  19 -9.983568E+05 -5.031865E+05 -1.526966E+05 -5.409655E+05 -5.676078E+03 -7.239581E+04
        69  20 -7.816978E+05 -3.949924E+05 -1.082082E+05 -4.499646E+05 -1.273809E+04 -5.379092E+04
        69  21 -5.215774E+05 -3.301219E+05 -6.376258E+04 -4.087061E+05 -1.978630E+04 -3.519369E+04
        69  22 -1.922551E+05 -2.108147E+05  3.784430E+01 -3.173655E+05  2.276711E+04 -6.174846E+04
        69  23 -2.138879E+05 -1.890172E+05 -1.891128E+02 -2.925137E+05  1.569609E+04 -4.315483E+04
        69  24 -1.921244E+05 -2.105486E+05 -4.702222E+02 -3.174244E+05  8.638942E+03 -2.456897E+04
        69  25  6.145263E+05  8.161630E+04  1.527491E+05 -9.349519E+04  5.124984E+04 -5.108629E+04
        69  26  3.542571E+05  1.698658E+04  1.078193E+05 -1.349294E+05  4.415798E+04 -3.250836E+04
        69  27  1.374402E+05 -9.096607E+04  6.282011E+04 -2.260982E+05  3.708008E+04 -1.393830E+04
        70   1 -3.624686E+05 -2.722152E+05 -3.235572E+04 -3.647627E+05  2.398330E+04  2.439186E+04
        70   2 -1.455375E+05 -1.641767E+05  1.185820E+04 -2.737284E+05  3.119612E+04  5.977702E+03
        70   3  1.147629E+05 -9.946667E+04  5.586149E+04 -2.324694E+05  3.831964E+04 -1.219475E+04
        70   4 -1.921401E+05 -2.105257E+05 -6.745067E+02 -3.174416E+05 -4.488786E+03  1.375171E+04
        70   5 -2.137656E+05 -1.888536E+05 -1.302156E+03 -2.925312E+05  3.087001E+03 -4.527858E+03
        70   6 -1.921594E+05 -2.105907E+05 -2.432020E+03 -3.174219E+05  1.057334E+04 -2.256561E+04
        70   7 -2.177779E+04 -1.488323E+05  3.100949E+04 -2.701075E+05 -3.296948E+04  3.108336E+03
        70   8 -2.819874E+05 -2.135295E+05 -1.445942E+04 -3.113317E+05 -2.501894E+04 -1.503224E+04
        70   9 -4.989819E+05 -3.217058E+05 -6.072616E+04 -4.023349E+05 -1.715831E+04 -3.293101E+04
        70  10 -3.624694E+05 -2.722160E+05 -3.235792E+04 -3.647632E+05 -2.182892E-09 -1.637060E-09
        70  11 -1.455385E+05 -1.641770E+05  1.185631E+04 -2.737286E+05 -2.410147E-11  7.555635E-10
        70  12  1.147613E+05 -9.946722E+04  5.585846E+04 -2.324690E+05 -2.242638E-09 -9.178033E-11
        70  13 -1.921401E+05 -2.105259E+05 -6.748999E+02 -3.174416E+05  1.315050E-10 -4.214636E-10
        70  14 -2.137656E+05 -1.888536E+05 -1.302212E+03 -2.925312E+05  1.812844E-10 -1.279201E-09
        70  15 -1.921596E+05 -2.105913E+05 -2.433187E+03 -3.174217E+05  5.320996E-09  2.008775E-09
        70  16 -2.177896E+04 -1.488326E+05  3.100743E+04 -2.701075E+05  4.612018E-09  1.657555E-09
        70  17 -2.819881E+05 -2.135300E+05 -1.446102E+04 -3.113320E+05  3.348452E-10  8.144785E-10
        70  18 -4.989825E+05 -3.217071E+05 -6.072876E+04 -4.023354E+05  1.812943E-09  1.950649E-09
        70  19 -3.624686E+05 -2.722152E+05 -3.235572E+04 -3.647627E+05 -2.398330E+04 -2.439186E+04
        70  20 -1.455375E+05 -1.641767E+05  1.185820E+04 -2.737284E+05 -3.119612E+04 -5.977702E+03
        70  21  1.147629E+05 -9.946667E+04  5.586149E+04 -2.324694E+05 -3.831964E+04  1.219475E+04
        70  22 -1.921401E+05 -2.105257E+05 -6.745067E+02 -3.174416E+05  4.488786E+03 -1.375171E+04
        70  23 -2.137656E+05 -1.888536E+05 -1.302156E+03 -2.925312E+05 -3.087001E+03  4.527858E+03
        70  24 -1.921594E+05 -2.105907E+05 -2.432020E+03 -3.174219E+05 -1.057334E+04  2.256561E+04
        70  25 -2.177779E+04 -1.488323E+05  3.100949E+04 -2.701075E+05  3.296948E+04 -3.108336E+03
        70  26 -2.819874E+05 -2.135295E+05 -1.445942E+04 -3.113317E+05  2.501894E+04  1.503224E+04
        70  27 -4.989819E+05 -3.217058E+05 -6.072616E+04 -4.023349E+05  1.715831E+04  3.293101E+04
        71   1  2.740883E+05 -4.161271E+04  8.674388E+04 -1.886464E+05  4.335567E+04 -2.261771E+04
        71   2  4.905003E+05  6.662986E+04  1.305474E+05 -9.708006E+04  4.776114E+04 -4.022397E+04
        71   3  7.502590E+05  1.311525E+05  1.756267E+05 -5.479231E+04  5.096596E+04 -5.459738E+04
        71   4 -1.923422E+05 -2.105322E+05 -3.249998E+03 -3.174534E+05  1.506242E+04 -3.319612E+04
        71   5 -2.137140E+05 -1.893146E+05 -5.990869E+03 -2.924007E+05  2.440129E+04 -4.896681E+04
        71   6 -1.927725E+05 -2.128027E+05 -1.136326E+04 -3.166534E+05  3.253952E+04 -6.150229E+04
        71   7 -6.585409E+05 -3.794305E+05 -9.324877E+04 -4.461692E+05 -1.320784E+04 -4.376597E+04
        71   8 -9.174128E+05 -4.452146E+05 -1.425487E+05 -4.875159E+05  1.069808E+03 -5.769902E+04
        71   9 -1.134893E+06 -5.566829E+05 -1.983959E+05 -5.781486E+05  1.414292E+04 -6.839599E+04
        71  10  2.740861E+05 -4.161376E+04  8.673939E+04 -1.886456E+05  6.318712E-10  1.230165E-09
        71  11  4.904974E+05  6.662751E+04  1.305401E+05 -9.707851E+04  1.293169E-09  3.872496E-10
        71  12  7.502554E+05  1.311486E+05  1.756162E+05 -5.479007E+04  1.140793E-09  1.016238E-09
        71  13 -1.923427E+05 -2.105335E+05 -3.252495E+03 -3.174530E+05  2.957138E-09  1.381025E-09
        71  14 -2.137153E+05 -1.893173E+05 -5.996493E+03 -2.923998E+05 -1.684049E-09  7.392651E-10
        71  15 -1.927746E+05 -2.128071E+05 -1.137236E+04 -3.166518E+05 -1.534482E-09  7.203525E-10
        71  16 -6.585416E+05 -3.794326E+05 -9.325270E+04 -4.461697E+05  3.505213E-10  1.469138E-09
        71  17 -9.174137E+05 -4.452182E+05 -1.425550E+05 -4.875158E+05 -4.310749E-11  4.031836E-10
        71  18 -1.134895E+06 -5.566880E+05 -1.984051E+05 -5.781479E+05 -2.045554E-09 -4.926763E-10
        71  19  2.740883E+05 -4.161271E+04  8.674388E+04 -1.886464E+05 -4.335567E+04  2.261771E+04
        71  20  4.905003E+05  6.662986E+04  1.305474E+05 -9.708006E+04 -4.776114E+04  4.022397E+04
        71  21  7.502590E+05  1.311525E+05  1.756267E+05 -5.479231E+04 -5.096596E+04  5.459738E+04
        71  22 -1.923422E+05 -2.105322E+05 -3.249998E+03 -3.174534E+05 -1.506242E+04  3.319612E+04
        71  23 -2.137140E+05 -1.893146E+05 -5.990869E+03 -2.924007E+05 -2.440129E+04  4.896681E+04
        71  24 -1.927725E+05 -2.128027E+05 -1.136326E+04 -3.166534E+05 -3.253952E+04  6.150229E+04
        71  25 -6.585409E+05 -3.794305E+05 -9.324877E+04 -4.461692E+05  1.320784E+04  4.376597E+04
        71  26 -9.174128E+05 -4.452146E+05 -1.425487E+05 -4.875159E+05 -1.069808E+03  5.769902E+04
        71  27 -1.134893E+06 -5.566829E+05 -1.983959E+05 -5.781486E+05 -1.414292E+04  6.839599E+04
        72   1  9.124898E+05  1.881925E+05  2.050142E+05 -1.475189E+04  6.376215E+04 -6.131128E+04
        72   2  1.116413E+06  3.023338E+05  2.613247E+05  9.105440E+04  1.084013E+04 -7.570724E+04
        72   3  1.360922E+06  3.561331E+05  3.500918E+05  1.577190E+05 -5.829248E+04 -4.700305E+04
        72   4 -1.950274E+05 -2.112868E+05 -1.495480E+04 -3.173928E+05  3.802152E+04 -7.096015E+04
        72   5 -2.122380E+05 -1.984961E+05 -2.825645E+04 -2.888926E+05  5.108181E+04 -6.064529E+04
        72   6 -2.019872E+05 -2.591534E+05 -6.134366E+04 -2.995629E+05  4.793537E+04 -7.172559E+03
        72   7 -1.301285E+06 -6.106682E+05 -2.349807E+05 -6.195388E+05  1.232998E+04 -8.059105E+04
        72   8 -1.539074E+06 -6.991514E+05 -3.179304E+05 -6.680776E+05  9.123004E+04 -4.562051E+04
        72   9 -1.762445E+06 -8.741890E+05 -4.729253E+05 -7.557587E+05  1.538670E+05  3.253394E+04
        72  10  9.124844E+05  1.881874E+05  2.049995E+05 -1.474874E+04  2.591381E-09  8.003137E-10
        72  11  1.116412E+06  3.023276E+05  2.613137E+05  9.105506E+04  1.428719E-09 -8.003099E-10
        72  12  1.360918E+06  3.561299E+05  3.500813E+05  1.577168E+05 -1.594080E-09 -4.454761E-10
        72  13 -1.950303E+05 -2.112926E+05 -1.496697E+04 -3.173906E+05 -3.219038E-09  6.977151E-10
        72  14 -2.122418E+05 -1.985007E+05 -2.826826E+04 -2.888901E+05  3.423870E-10  5.191338E-11
        72  15 -2.019897E+05 -2.591541E+05 -6.134808E+04 -2.995626E+05 -7.390783E-10 -4.777084E-11
        72  16 -1.301287E+06 -6.106752E+05 -2.349932E+05 -6.195380E+05 -2.762164E-09 -4.407472E-10
        72  17 -1.539084E+06 -6.991559E+05 -3.179500E+05 -6.680742E+05 -4.728044E-10  2.724117E-10
        72  18 -1.762471E+06 -8.741965E+05 -4.729719E+05 -7.557628E+05  3.009938E-09  3.290176E-10
        72  19  9.124898E+05  1.881925E+05  2.050142E+05 -1.475189E+04 -6.376215E+04  6.131128E+04
        72  20  1.116413E+06  3.023338E+05  2.613247E+05  9.105440E+04 -1.084013E+04  7.570724E+04
        72  21  1.360922E+06  3.561331E+05  3.500918E+05  1.577190E+05  5.829248E+04  4.700305E+04
        72  22 -1.950274E+05 -2.112868E+05 -1.495480E+04 -3.173928E+05 -3.802152E+04  7.096015E+04
        72  23 -2.122380E+05 -1.984961E+05 -2.825645E+04 -2.888926E+05 -5.108181E+04  6.064529E+04
        72  24 -2.019872E+05 -2.591534E+05 -6.134366E+04 -2.995629E+05 -4.793537E+04  7.172559E+03
        72  25 -1.301285E+06 -6.106682E+05 -2.349807E+05 -6.195388E+05 -1.232998E+04  8.059105E+04
        72  26 -1.539074E+06 -6.991514E+05 -3.179304E+05 -6.680776E+05 -9.123004E+04  4.562051E+04
        72  27 -1.762445E+06 -8.741890E+05 -4.729253E+05 -7.557587E+05 -1.538670E+05 -3.253394E+04
        73   1 -1.957956E+05 -9.441965E+04 -8.339431E+04 -6.969547E+04 -1.716723E+04  6.688224E+03
        73   2 -1.236800E+05 -9.984902E+04 -6.411651E+04 -7.892190E+04 -1.842640E+03  2.223727E+04
        73   3 -5.012926E+04 -9.166831E+04 -5.141356E+04 -9.890083E+04  1.348887E+04  2.623882E+04
        73   4  3.721796E+05  4.545167E+04  4.812599E+04 -1.006290E+05  3.400531E+04  6.698232E+03
        73   5  3.690775E+05  1.636882E+04  2.430897E+04 -9.525103E+04  2.162034E+04  2.223879E+04
        73   6  3.722106E+05  5.698851E+03  1.315540E+04 -1.006239E+05  9.240316E+03  2.623681E+04
        73   7  9.404605E+05  1.853053E+05  1.796350E+05 -1.315910E+05  8.522431E+04  6.703139E+03
        73   8  8.620734E+05  1.325745E+05  1.127273E+05 -1.115935E+05  4.510142E+04  2.223908E+04
        73   9  7.947289E+05  1.030574E+05  7.772058E+04 -1.023482E+05  4.988979E+03  2.623481E+04
        73  10 -1.957959E+05 -9.441978E+04 -8.339495E+04 -6.969538E+04  4.464296E-09 -4.816802E-10
        73  11 -1.236802E+05 -9.984955E+04 -6.411744E+04 -7.892186E+04  2.649790E-09 -1.210172E-09
        73  12 -5.012964E+04 -9.166910E+04 -5.141520E+04 -9.890111E+04  1.538052E-09 -7.269669E-10
        73  13  3.721783E+05  4.545131E+04  4.812373E+04 -1.006292E+05  1.263433E-10 -2.610796E-10
        73  14  3.690769E+05  1.636817E+04  2.430716E+04 -9.525142E+04 -3.057595E-09 -1.067295E-09
        73  15  3.722103E+05  5.698089E+03  1.315394E+04 -1.006241E+05 -3.998877E-10 -4.100960E-10
        73  16  9.404527E+05  1.853033E+05  1.796213E+05 -1.315915E+05 -2.967775E-09 -2.026349E-10
        73  17  8.620711E+05  1.325734E+05  1.127226E+05 -1.115943E+05  1.670759E-09 -8.130323E-10
        73  18  7.947287E+05  1.030567E+05  7.771924E+04 -1.023483E+05 -6.911127E-10  3.701498E-10
        73  19 -1.957956E+05 -9.441965E+04 -8.339431E+04 -6.969547E+04  1.716723E+04 -6.688224E+03
        73  20 -1.236800E+05 -9.984902E+04 -6.411651E+04 -7.892190E+04  1.842640E+03 -2.223727E+04
        73  21 -5.012926E+04 -9.166831E+04 -5.141356E+04 -9.890083E+04 -1.348887E+04 -2.623882E+04
        73  22  3.721796E+05  4.545167E+04  4.812599E+04 -1.006290E+05 -3.400531E+04 -6.698232E+03
        73  23  3.690775E+05  1.636882E+04  2.430897E+04 -9.525103E+04 -2.162034E+04 -2.223879E+04
        73  24  3.722106E+05  5.698851E+03  1.315540E+04 -1.006239E+05 -9.240316E+03 -2.623681E+04
        73  25  9.404605E+05  1.853053E+05  1.796350E+05 -1.315910E+05 -8.522431E+04 -6.703139E+03
        73  26  8.620734E+05  1.325745E+05  1.127273E+05 -1.115935E+05 -4.510142E+04 -2.223908E+04
        73  27  7.947289E+05  1.030574E+05  7.772058E+04 -1.023482E+05 -4.988979E+03 -2.623481E+04
        74   1 -5.653808E+03 -8.230082E+04 -4.578649E+04 -9.838235E+04  1.269678E+04  2.467313E+04
        74   2  6.698566E+04 -6.775668E+04 -3.663124E+04 -9.382774E+04  1.379342E+04  2.173772E+04
        74   3  1.398012E+05 -5.200317E+04 -2.788447E+04 -1.008786E+05  1.488984E+04  1.724163E+04
        74   4  3.710137E+05  4.136868E+03  9.809725E+03 -1.008146E+05  7.528024E+03  2.467145E+04
        74   5  3.706115E+05  1.338289E+03  5.290875E+03 -9.501216E+04  4.877385E+03  2.173665E+04
        74   6  3.710298E+05  3.991573E+02  2.964364E+03 -1.008146E+05  2.226420E+03  1.724158E+04
        74   7  7.478240E+05  9.056797E+04  6.540348E+04 -1.032485E+05  2.356255E+03  2.466982E+04
        74   8  6.743310E+05  7.042925E+04  4.721223E+04 -9.619718E+04 -4.042814E+03  2.173561E+04
        74   9  6.023132E+05  5.279929E+04  3.381336E+04 -1.007506E+05 -1.044150E+04  1.724153E+04
        74  10 -5.654144E+03 -8.230152E+04 -4.578794E+04 -9.838260E+04  3.576512E-09 -3.014092E-10
        74  11  6.698533E+04 -6.775724E+04 -3.663249E+04 -9.382798E+04  3.849977E-08 -9.673856E-10
        74  12  1.398008E+05 -5.200355E+04 -2.788544E+04 -1.008788E+05  7.102411E-08 -2.374066E-09
        74  13  3.710135E+05  4.136199E+03  9.808474E+03 -1.008148E+05 -2.021221E-09  2.307617E-09
        74  14  3.706113E+05  1.337775E+03  5.289942E+03 -9.501225E+04 -8.557040E-10  8.612227E-09
        74  15  3.710297E+05  3.988366E+02  2.963796E+03 -1.008147E+05 -4.722362E-09  1.503433E-08
        74  16  7.478239E+05  9.056732E+04  6.540233E+04 -1.032485E+05 -6.226774E-09  1.650134E-10
        74  17  6.743309E+05  7.042874E+04  4.721132E+04 -9.619711E+04 -4.010569E-08 -1.666698E-09
        74  18  6.023130E+05  5.279894E+04  3.381260E+04 -1.007505E+05 -7.226746E-08 -2.487577E-09
        74  19 -5.653808E+03 -8.230082E+04 -4.578649E+04 -9.838235E+04 -1.269678E+04 -2.467313E+04
        74  20  6.698566E+04 -6.775668E+04 -3.663124E+04 -9.382774E+04 -1.379342E+04 -2.173772E+04
        74  21  1.398012E+05 -5.200317E+04 -2.788447E+04 -1.008786E+05 -1.488984E+04 -1.724163E+04
        74  22  3.710137E+05  4.136868E+03  9.809725E+03 -1.008146E+05 -7.528024E+03 -2.467145E+04
        74  23  3.706115E+05  1.338289E+03  5.290875E+03 -9.501216E+04 -4.877385E+03 -2.173665E+04
        74  24  3.710298E+05  3.991573E+02  2.964364E+03 -1.008146E+05 -2.226420E+03 -1.724158E+04
        74  25  7.478240E+05  9.056797E+04  6.540348E+04 -1.032485E+05 -2.356255E+03 -2.466982E+04
        74  26  6.743310E+05  7.042925E+04  4.721223E+04 -9.619718E+04  4.042814E+03 -2.173561E+04
        74  27  6.023132E+05  5.279929E+04  3.381336E+04 -1.007506E+05  1.044150E+04 -1.724153E+04
        75   1  1.845982E+05 -4.187014E+04 -2.229150E+04 -1.007826E+05  1.457793E+04  1.409897E+04
        75   2  2.572824E+05 -2.561496E+04 -1.358097E+04 -9.498548E+04  1.446289E+04  8.666936E+03
        75   3  3.300128E+05 -9.271215E+03 -4.772111E+03 -1.009067E+05  1.434755E+04  3.024833E+03
        75   4  3.708797E+05  2.793720E+02  2.232655E+03 -1.008399E+05  1.790394E+03  1.409934E+04
        75   5  3.708179E+05  4.998403E+01  1.248576E+03 -9.498075E+04  1.170221E+03  8.667754E+03
        75   6  3.708855E+05 -2.834851E+00  7.132231E+02 -1.008399E+05  5.497657E+02  3.026103E+03
        75   7  5.571969E+05  4.242751E+04  2.675719E+04 -1.008971E+05 -1.100079E+04  1.409972E+04
        75   8  4.843670E+05  2.571448E+04  1.607871E+04 -9.497602E+04 -1.212476E+04  8.668573E+03
        75   9  4.117604E+05  9.265576E+03  6.199258E+03 -1.007731E+05 -1.324888E+04  3.027370E+03
        75  10  1.845979E+05 -4.187041E+04 -2.229228E+04 -1.007828E+05  6.318539E-08 -1.323071E-09
        75  11  2.572821E+05 -2.561509E+04 -1.358151E+04 -9.498558E+04 -4.019576E-08  1.589001E-09
        75  12  3.300126E+05 -9.271280E+03 -4.772515E+03 -1.009068E+05 -1.436222E-07  7.680647E-10
        75  13  3.708796E+05  2.791577E+02  2.232276E+03 -1.008399E+05 -2.289324E-09  1.619126E-08
        75  14  3.708179E+05  4.990297E+01  1.248432E+03 -9.498076E+04 -1.062325E-09  1.159916E-08
        75  15  3.708855E+05 -2.844768E+00  7.132053E+02 -1.008399E+05  4.254598E-10  4.218981E-09
        75  16  5.571967E+05  4.242726E+04  2.675659E+04 -1.008970E+05 -6.447593E-08 -1.244021E-09
        75  17  4.843668E+05  2.571436E+04  1.607829E+04 -9.497593E+04  3.944486E-08  1.866959E-09
        75  18  4.117602E+05  9.265519E+03  6.198911E+03 -1.007730E+05  1.433864E-07  3.189362E-09
        75  19  1.845982E+05 -4.187014E+04 -2.229150E+04 -1.007826E+05 -1.457793E+04 -1.409897E+04
        75  20  2.572824E+05 -2.561496E+04 -1.358097E+04 -9.498548E+04 -1.446289E+04 -8.666936E+03
        75  21  3.300128E+05 -9.271215E+03 -4.772111E+03 -1.009067E+05 -1.434755E+04 -3.024833E+03
        75  22  3.708797E+05  2.793720E+02  2.232655E+03 -1.008399E+05 -1.790394E+03 -1.409934E+04
        75  23  3.708179E+05  4.998403E+01  1.248576E+03 -9.498075E+04 -1.170221E+03 -8.667754E+03
        75  24  3.708855E+05 -2.834851E+00  7.132231E+02 -1.008399E+05 -5.497657E+02 -3.026103E+03
        75  25  5.571969E+05  4.242751E+04  2.675719E+04 -1.008971E+05  1.100079E+04 -1.409972E+04
        75  26  4.843670E+05  2.571448E+04  1.607871E+04 -9.497602E+04  1.212476E+04 -8.668573E+03
        75  27  4.117604E+05  9.265576E+03  6.199258E+03 -1.007731E+05  1.324888E+04 -3.027370E+03
        76   1  3.748448E+05  8.867641E+02  1.023132E+03 -1.008877E+05  1.425321E+04 -3.296361E+02
        76   2  4.475463E+05  1.724216E+04  9.955047E+03 -9.500974E+04  1.415510E+04 -6.094147E+03
        76   3  5.202722E+05  3.360118E+04  1.895325E+04 -1.008652E+05  1.405722E+04 -1.188126E+04
        76   4  3.708631E+05 -5.643180E+00  5.407610E+02 -1.008433E+05  4.386537E+02 -3.283253E+02
        76   5  3.708476E+05 -1.933078E+01  3.094921E+02 -9.497654E+04  2.853632E+02 -6.093114E+03
        76   6  3.708593E+05 -2.005172E+01  1.819290E+02 -1.008433E+05  1.323044E+02 -1.188052E+04
        76   7  3.668819E+05 -8.979487E+02  5.910703E+01 -1.007989E+05 -1.337581E+04 -3.270165E+02
        76   8  2.941553E+05 -1.728096E+04 -9.335356E+03 -9.494334E+04 -1.358275E+04 -6.092083E+03
        76   9  2.214697E+05 -3.364208E+04 -1.858872E+04 -1.008214E+05 -1.378943E+04 -1.187978E+04
        76  10  3.748446E+05  8.867095E+02  1.022750E+03 -1.008877E+05 -5.299260E-09 -1.002056E-09
        76  11  4.475461E+05  1.724207E+04  9.954601E+03 -9.500967E+04 -6.501782E-09 -2.955280E-09
        76  12  5.202720E+05  3.360097E+04  1.895261E+04 -1.008651E+05 -5.813114E-09 -3.644402E-09
        76  13  3.708631E+05 -5.643347E+00  5.407605E+02 -1.008433E+05 -1.072984E-09  4.386660E-10
        76  14  3.708476E+05 -1.937068E+01  3.094222E+02 -9.497654E+04 -5.585335E-11 -2.163828E-09
        76  15  3.708593E+05 -2.020332E+01  1.816637E+02 -1.008433E+05  4.235147E-10 -3.073735E-09
        76  16  3.668817E+05 -8.979968E+02  5.877081E+01 -1.007989E+05  6.486300E-09  1.886162E-09
        76  17  2.941551E+05 -1.728105E+04 -9.335772E+03 -9.494341E+04  6.561447E-09 -1.415548E-09
        76  18  2.214695E+05 -3.364228E+04 -1.858934E+04 -1.008215E+05  5.609490E-09 -2.523555E-09
        76  19  3.748448E+05  8.867641E+02  1.023132E+03 -1.008877E+05 -1.425321E+04  3.296361E+02
        76  20  4.475463E+05  1.724216E+04  9.955047E+03 -9.500974E+04 -1.415510E+04  6.094147E+03
        76  21  5.202722E+05  3.360118E+04  1.895325E+04 -1.008652E+05 -1.405722E+04  1.188126E+04
        76  22  3.708631E+05 -5.643180E+00  5.407610E+02 -1.008433E+05 -4.386537E+02  3.283253E+02
        76  23  3.708476E+05 -1.933078E+01  3.094921E+02 -9.497654E+04 -2.853632E+02  6.093114E+03
        76  24  3.708593E+05 -2.005172E+01  1.819290E+02 -1.008433E+05 -1.323044E+02  1.188052E+04
        76  25  3.668819E+05 -8.979487E+02  5.910703E+01 -1.007989E+05  1.337581E+04  3.270165E+02
        76  26  2.941553E+05 -1.728096E+04 -9.335356E+03 -9.494334E+04  1.358275E+04  6.092083E+03
        76  27  2.214697E+05 -3.364208E+04 -1.858872E+04 -1.008214E+05  1.378943E+04  1.187978E+04
        77   1  5.651222E+05  4.374979E+04  2.484255E+04 -1.008592E+05  1.402791E+04 -1.525831E+04
        77   2  6.378431E+05  6.010361E+04  3.393267E+04 -9.497553E+04  1.388747E+04 -2.103556E+04
        77   3  7.106010E+05  7.647325E+04  4.312086E+04 -1.008269E+05  1.374781E+04 -2.677217E+04
        77   4  3.708537E+05 -2.281114E+01  1.413601E+02 -1.008437E+05  1.030390E+02 -1.525795E+04
        77   5  3.708396E+05 -3.422144E+01  8.845597E+01 -9.497608E+04  5.944011E+01 -2.103621E+04
        77   6  3.708403E+05 -4.653135E+01  6.589514E+01 -1.008437E+05  1.662965E+01 -2.677382E+04
        77   7  1.766242E+05 -4.379686E+04 -2.455924E+04 -1.008282E+05 -1.381770E+04 -1.525759E+04
        77   8  1.039097E+05 -6.017486E+04 -3.375529E+04 -9.497662E+04 -1.376294E+04 -2.103685E+04
        77   9  3.119842E+04 -7.657092E+04 -4.298875E+04 -1.008605E+05 -1.370741E+04 -2.677547E+04
        77  10  5.651220E+05  4.374949E+04  2.484174E+04 -1.008590E+05 -4.528511E-09 -3.089774E-09
        77  11  6.378428E+05  6.010309E+04  3.393148E+04 -9.497529E+04 -2.418096E-09 -1.532802E-09
        77  12  7.106006E+05  7.647243E+04  4.311916E+04 -1.008266E+05 -2.552547E-09 -5.661675E-10
        77  13  3.708536E+05 -2.306118E+01  1.409225E+02 -1.008437E+05  2.431113E-09 -2.823544E-09
        77  14  3.708395E+05 -3.469671E+01  8.762423E+01 -9.497607E+04  2.445434E-09 -1.946598E-09
        77  15  3.708401E+05 -4.730125E+01  6.454783E+01 -1.008437E+05  3.129186E-10 -9.029870E-10
        77  16  1.766239E+05 -4.379716E+04 -2.456004E+04 -1.008284E+05  4.922294E-09 -2.614558E-09
        77  17  1.039094E+05 -6.017539E+04 -3.375647E+04 -9.497685E+04  3.178881E-09 -2.596535E-09
        77  18  3.119802E+04 -7.657174E+04 -4.299045E+04 -1.008608E+05  2.382965E-09 -1.350586E-09
        77  19  5.651222E+05  4.374979E+04  2.484255E+04 -1.008592E+05 -1.402791E+04  1.525831E+04
        77  20  6.378431E+05  6.010361E+04  3.393267E+04 -9.497553E+04 -1.388747E+04  2.103556E+04
        77  21  7.106010E+05  7.647325E+04  4.312086E+04 -1.008269E+05 -1.374781E+04  2.677217E+04
        77  22  3.708537E+05 -2.281114E+01  1.413601E+02 -1.008437E+05 -1.030390E+02  1.525795E+04
        77  23  3.708396E+05 -3.422144E+01  8.845597E+01 -9.497608E+04 -5.944011E+01  2.103621E+04
        77  24  3.708403E+05 -4.653135E+01  6.589514E+01 -1.008437E+05 -1.662965E+01  2.677382E+04
        77  25  1.766242E+05 -4.379686E+04 -2.455924E+04 -1.008282E+05  1.381770E+04  1.525759E+04
        77  26  1.039097E+05 -6.017486E+04 -3.375529E+04 -9.497662E+04  1.376294E+04  2.103685E+04
        77  27  3.119842E+04 -7.657092E+04 -4.298875E+04 -1.008605E+05  1.370741E+04  2.677547E+04
        78   1  7.554961E+05  8.663644E+04  4.911950E+04 -1.008110E+05  1.371263E+04 -3.010814E+04
        78   2  8.281954E+05  1.030489E+05  5.863236E+04 -9.492284E+04  1.288170E+04 -3.564720E+04
        78   3  9.010631E+05  1.196039E+05  6.872699E+04 -1.007515E+05  1.205189E+04 -4.085374E+04
        78   4  3.708367E+05 -5.565454E+01  6.260280E+01 -1.008397E+05  5.579681E+00 -3.011058E+04
        78   5  3.708124E+05 -7.573838E+01  6.766525E+01 -9.498106E+04 -2.698762E+01 -3.565124E+04
        78   6  3.708138E+05 -9.134082E+01  1.004763E+02 -1.008397E+05 -5.835541E+01 -4.085925E+04
        78   7 -1.367071E+04 -8.675371E+04 -4.899418E+04 -1.008684E+05 -1.369340E+04 -3.011302E+04
        78   8 -8.635586E+04 -1.032089E+05 -5.849732E+04 -9.503922E+04 -1.292664E+04 -3.565527E+04
        78   9 -1.591476E+05 -1.197982E+05 -6.852700E+04 -1.009278E+05 -1.215877E+04 -4.086475E+04
        78  10  7.554956E+05  8.663541E+04  4.911744E+04 -1.008106E+05  1.234161E-09  3.370154E-12
        78  11  8.281948E+05  1.030475E+05  5.862967E+04 -9.492247E+04  5.748027E-12 -1.921927E-10
        78  12  9.010625E+05  1.196021E+05  6.872358E+04 -1.007511E+05  3.073566E-09 -2.553868E-10
        78  13  3.708364E+05 -5.662829E+01  6.089874E+01 -1.008397E+05  1.060401E-09 -4.430814E-10
        78  14  3.708121E+05 -7.710346E+01  6.527635E+01 -9.498106E+04  2.059524E-09 -2.674346E-10
        78  15  3.708134E+05 -9.313386E+01  9.733850E+01 -1.008397E+05  1.668781E-09  1.505702E-10
        78  16 -1.367115E+04 -8.675474E+04 -4.899624E+04 -1.008688E+05  1.211021E-10 -9.317753E-10
        78  17 -8.635638E+04 -1.032103E+05 -5.850003E+04 -9.503959E+04 -9.265676E-10 -5.811534E-10
        78  18 -1.591482E+05 -1.198000E+05 -6.853041E+04 -1.009282E+05  2.650475E-09  9.466810E-10
        78  19  7.554961E+05  8.663644E+04  4.911950E+04 -1.008110E+05 -1.371263E+04  3.010814E+04
        78  20  8.281954E+05  1.030489E+05  5.863236E+04 -9.492284E+04 -1.288170E+04  3.564720E+04
        78  21  9.010631E+05  1.196039E+05  6.872699E+04 -1.007515E+05 -1.205189E+04  4.085374E+04
        78  22  3.708367E+05 -5.565454E+01  6.260280E+01 -1.008397E+05 -5.579681E+00  3.011058E+04
        78  23  3.708124E+05 -7.573838E+01  6.766525E+01 -9.498106E+04  2.698762E+01  3.565124E+04
        78  24  3.708138E+05 -9.134082E+01  1.004763E+02 -1.008397E+05  5.835541E+01  4.085925E+04
        78  25 -1.367071E+04 -8.675371E+04 -4.899418E+04 -1.008684E+05  1.369340E+04  3.011302E+04
        78  26 -8.635586E+04 -1.032089E+05 -5.849732E+04 -9.503922E+04  1.292664E+04  3.565527E+04
        78  27 -1.591476E+05 -1.197982E+05 -6.852700E+04 -1.009278E+05  1.215877E+04  4.086475E+04
        79   1  9.461516E+05  1.299163E+05  7.532584E+04 -1.006812E+05  1.183963E+04 -4.385387E+04
        79   2  1.018457E+06  1.468290E+05  8.766139E+04 -9.490644E+04  5.798646E+03 -4.757860E+04
        79   3  1.091867E+06  1.648467E+05  1.042117E+05 -1.006669E+05 -2.431018E+02 -4.883325E+04
        79   4  3.708142E+05 -1.009703E+02  1.280445E+02 -1.007994E+05 -7.640910E+01 -4.386043E+04
        79   5  3.707637E+05 -9.233744E+01  2.146329E+02 -9.503145E+04 -1.809577E+02 -4.758539E+04
        79   6  3.707823E+05 -8.069946E+00  3.976394E+02 -1.007994E+05 -2.854982E+02 -4.883890E+04
        79   7 -2.041847E+05 -1.301320E+05 -7.507130E+04 -1.009175E+05 -1.198195E+04 -4.386698E+04
        79   8 -2.765027E+05 -1.470318E+05 -8.723592E+04 -9.515632E+04 -6.154617E+03 -4.759218E+04
        79   9 -3.497777E+05 -1.648866E+05 -1.034245E+05 -1.009318E+05 -3.278474E+02 -4.884456E+04
        79  10  9.461509E+05  1.299142E+05  7.532196E+04 -1.006808E+05 -2.431156E-10 -6.095259E-11
        79  11  1.018456E+06  1.468266E+05  8.765707E+04 -9.490622E+04  5.061379E-10  1.982187E-10
        79  12  1.091866E+06  1.648442E+05  1.042072E+05 -1.006669E+05 -1.088246E-09 -1.309633E-09
        79  13  3.708137E+05 -1.030364E+02  1.244288E+02 -1.007994E+05  2.111975E-09  6.297646E-10
        79  14  3.707631E+05 -9.476941E+01  2.103769E+02 -9.503146E+04  2.218180E-09  4.428851E-10
        79  15  3.707817E+05 -1.063175E+01  3.931561E+02 -1.007994E+05  1.835616E-09 -1.006829E-09
        79  16 -2.041854E+05 -1.301341E+05 -7.507519E+04 -1.009179E+05  1.158484E-09  1.486111E-09
        79  17 -2.765034E+05 -1.470342E+05 -8.724024E+04 -9.515655E+04  1.675732E-09  1.658680E-09
        79  18 -3.497784E+05 -1.648891E+05 -1.034290E+05 -1.009318E+05  2.433220E-10 -4.851866E-10
        79  19  9.461516E+05  1.299163E+05  7.532584E+04 -1.006812E+05 -1.183963E+04  4.385387E+04
        79  20  1.018457E+06  1.468290E+05  8.766139E+04 -9.490644E+04 -5.798646E+03  4.757860E+04
        79  21  1.091867E+06  1.648467E+05  1.042117E+05 -1.006669E+05  2.431018E+02  4.883325E+04
        79  22  3.708142E+05 -1.009703E+02  1.280445E+02 -1.007994E+05  7.640910E+01  4.386043E+04
        79  23  3.707637E+05 -9.233744E+01  2.146329E+02 -9.503145E+04  1.809577E+02  4.758539E+04
        79  24  3.707823E+05 -8.069946E+00  3.976394E+02 -1.007994E+05  2.854982E+02  4.883890E+04
        79  25 -2.041847E+05 -1.301320E+05 -7.507130E+04 -1.009175E+05  1.198195E+04  4.386698E+04
        79  26 -2.765027E+05 -1.470318E+05 -8.723592E+04 -9.515632E+04  6.154617E+03  4.759218E+04
        79  27 -3.497777E+05 -1.648866E+05 -1.034245E+05 -1.009318E+05  3.278474E+02  4.884456E+04
        80   1  1.138176E+06  1.762893E+05  1.151129E+05 -1.002897E+05 -1.768487E+03 -4.933729E+04
        80   2  1.207245E+06  1.970374E+05  1.480505E+05 -9.573702E+04 -4.619678E+04 -3.962988E+04
        80   3  1.284247E+06  2.261848E+05  2.119889E+05 -1.013615E+05 -9.064935E+04 -1.164530E+04
        80   4  3.708244E+05  4.004858E+01  5.336782E+02 -1.004972E+05 -3.552539E+02 -4.934264E+04
        80   5  3.706481E+05  4.596301E+02  9.750746E+02 -9.540946E+04 -8.425207E+02 -3.961057E+04
        80   6  3.707851E+05  1.662631E+03  1.937093E+03 -1.004980E+05 -1.347272E+03 -1.159005E+04
        80   7 -3.959368E+05 -1.762369E+05 -1.140569E+05 -1.007044E+05  1.056305E+03 -4.934800E+04
        80   8 -4.652609E+05 -1.961552E+05 -1.461180E+05 -9.508239E+04  4.445253E+04 -3.959119E+04
        80   9 -5.418893E+05 -2.229135E+05 -2.081400E+05 -9.963573E+04  8.782468E+04 -1.153453E+04
        80  10  1.138175E+06  1.762867E+05  1.151083E+05 -1.002897E+05 -6.924870E-08 -2.491006E-09
        80  11  1.207242E+06  1.970351E+05  1.480435E+05 -9.573850E+04 -4.011734E-09 -3.298703E-09
        80  12  1.284239E+06  2.261825E+05  2.119732E+05 -1.013624E+05  6.429058E-08 -9.515258E-10
        80  13  3.708238E+05  3.743365E+01  5.291018E+02 -1.004972E+05  6.890062E-10 -3.962746E-09
        80  14  3.706477E+05  4.579448E+02  9.721243E+02 -9.540949E+04 -1.671193E-09 -3.868067E-10
        80  15  3.707850E+05  1.662486E+03  1.936837E+03 -1.004980E+05 -1.272272E-09 -5.398555E-10
        80  16 -3.959375E+05 -1.762395E+05 -1.140614E+05 -1.007044E+05  6.933398E-08 -1.832315E-09
        80  17 -4.652634E+05 -1.961574E+05 -1.461247E+05 -9.508098E+04  1.239282E-09 -8.298385E-10
        80  18 -5.418976E+05 -2.229157E+05 -2.081547E+05 -9.963491E+04 -6.363944E-08 -1.214702E-09
        80  19  1.138176E+06  1.762893E+05  1.151129E+05 -1.002897E+05  1.768487E+03  4.933729E+04
        80  20  1.207245E+06  1.970374E+05  1.480505E+05 -9.573702E+04  4.619678E+04  3.962988E+04
        80  21  1.284247E+06  2.261848E+05  2.119889E+05 -1.013615E+05  9.064935E+04  1.164530E+04
        80  22  3.708244E+05  4.004858E+01  5.336782E+02 -1.004972E+05  3.552539E+02  4.934264E+04
        80  23  3.706481E+05  4.596301E+02  9.750746E+02 -9.540946E+04  8.425207E+02  3.961057E+04
        80  24  3.707851E+05  1.662631E+03  1.937093E+03 -1.004980E+05  1.347272E+03  1.159005E+04
        80  25 -3.959368E+05 -1.762369E+05 -1.140569E+05 -1.007044E+05 -1.056305E+03  4.934800E+04
        80  26 -4.652609E+05 -1.961552E+05 -1.461180E+05 -9.508239E+04 -4.445253E+04  3.959119E+04
        80  27 -5.418893E+05 -2.229135E+05 -2.081400E+05 -9.963573E+04 -8.782468E+04  1.153453E+04
        81   1  1.955896E+05  9.410163E+05  1.868435E+05 -2.496787E+05  7.581559E+03  5.744180E+04
        81   2  1.400115E+05  7.516255E+05  1.144003E+05 -2.326186E+05  2.321788E+04  1.778523E+04
        81   3  9.365913E+04  5.697184E+05  7.005384E+04 -2.455989E+05  2.242807E+04 -2.186416E+04
        81   4  6.050298E+03  1.733264E+05  6.363517E+03 -2.451918E+05  7.625834E+03  3.078248E+03
        81   5  2.298421E+03  1.728850E+05  4.280118E+03 -2.301729E+05  2.323427E+04  9.240928E+02
        81   6  1.274015E+03  1.733977E+05  4.277150E+03 -2.451955E+05  2.240975E+04 -1.234699E+03
        81   7 -1.835293E+05 -5.938153E+05 -1.741458E+05 -2.407103E+05  7.669362E+03 -5.121857E+04
        81   8 -1.354342E+05 -4.055322E+05 -1.058541E+05 -2.277294E+05  2.325054E+04 -1.592171E+04
        81   9 -9.111901E+04 -2.227671E+05 -6.150268E+04 -2.447922E+05  2.239145E+04  1.938205E+04
        81  10  1.955886E+05  9.410127E+05  1.868372E+05 -2.496791E+05 -4.741926E-11  8.649261E-11
        81  11  1.400109E+05  7.516250E+05  1.143987E+05 -2.326190E+05  6.695172E-10 -2.627744E-10
        81  12  9.365846E+04  5.697178E+05  7.005200E+04 -2.455985E+05 -2.053868E-09 -1.639434E-09
        81  13  6.050233E+03  1.733264E+05  6.363390E+03 -2.451918E+05  1.405221E-10 -3.444224E-11
        81  14  2.297841E+03  1.728849E+05  4.279102E+03 -2.301729E+05 -4.472016E-10 -4.284626E-11
        81  15  1.273476E+03  1.733975E+05  4.276203E+03 -2.451954E+05  8.052754E-10 -9.475003E-11
        81  16 -1.835301E+05 -5.938181E+05 -1.741508E+05 -2.407099E+05  4.959476E-10  1.143870E-10
        81  17 -1.354348E+05 -4.055326E+05 -1.058555E+05 -2.277291E+05  5.039280E-09  4.085319E-10
        81  18 -9.111965E+04 -2.227676E+05 -6.150433E+04 -2.447926E+05 -6.493115E-10  2.040232E-09
        81  19  1.955896E+05  9.410163E+05  1.868435E+05 -2.496787E+05 -7.581559E+03 -5.744180E+04
        81  20  1.400115E+05  7.516255E+05  1.144003E+05 -2.326186E+05 -2.321788E+04 -1.778523E+04
        81  21  9.365913E+04  5.697184E+05  7.005384E+04 -2.455989E+05 -2.242807E+04  2.186416E+04
        81  22  6.050298E+03  1.733264E+05  6.363517E+03 -2.451918E+05 -7.625834E+03 -3.078248E+03
        81  23  2.298421E+03  1.728850E+05  4.280118E+03 -2.301729E+05 -2.323427E+04 -9.240928E+02
        81  24  1.274015E+03  1.733977E+05  4.277150E+03 -2.451955E+05 -2.240975E+04  1.234699E+03
        81  25 -1.835293E+05 -5.938153E+05 -1.741458E+05 -2.407103E+05 -7.669362E+03  5.121857E+04
        81  26 -1.354342E+05 -4.055322E+05 -1.058541E+05 -2.277294E+05 -2.325054E+04  1.592171E+04
        81  27 -9.111901E+04 -2.227671E+05 -6.150268E+04 -2.447922E+05 -2.239145E+04 -1.938205E+04
        82   1  6.634373E+04  4.534123E+05  5.048272E+04 -2.460853E+05  1.640120E+04 -2.332407E+04
        82   2  2.350106E+04  2.672799E+05  2.076244E+04 -2.288311E+05  6.804603E+03 -2.806692E+04
        82   3 -1.664741E+04  8.243578E+04 -5.209625E+03 -2.427198E+05 -3.280396E+03 -3.280926E+04
        82   4  1.236485E+03  1.734357E+05  4.825073E+03 -2.454403E+05  1.638098E+04 -1.979611E+03
        82   5  1.929338E+03  1.729111E+05  7.235384E+03 -2.298673E+05  6.782772E+03 -5.611181E+03
        82   6  5.124745E+03  1.734470E+05  1.262102E+04 -2.454371E+05 -3.303886E+03 -9.243550E+03
        82   7 -6.387451E+04 -1.064623E+05 -4.083308E+04 -2.447955E+05  1.636080E+04  1.935557E+04
        82   8 -1.964251E+04  7.855252E+04 -6.289910E+03 -2.309033E+05  6.760864E+03  1.684130E+04
        82   9  2.689673E+04  2.644674E+05  3.045336E+04 -2.481547E+05 -3.327579E+03  1.432554E+04
        82  10  6.634329E+04  4.534116E+05  5.048119E+04 -2.460850E+05 -1.262726E-09  3.995108E-09
        82  11  2.350080E+04  2.672790E+05  2.076087E+04 -2.288309E+05  2.365074E-09  3.639385E-10
        82  12 -1.664771E+04  8.243463E+04 -5.211668E+03 -2.427199E+05 -4.308822E-10 -3.550838E-09
        82  13  1.236195E+03  1.734356E+05  4.824562E+03 -2.454403E+05  4.688839E-10 -3.620924E-11
        82  14  1.929281E+03  1.729111E+05  7.235239E+03 -2.298673E+05  2.580286E-09 -1.639920E-11
        82  15  5.124710E+03  1.734469E+05  1.262084E+04 -2.454371E+05 -1.110190E-09 -7.674439E-11
        82  16 -6.387490E+04 -1.064628E+05 -4.083429E+04 -2.447958E+05 -1.746216E-10 -3.708672E-09
        82  17 -1.964264E+04  7.855220E+04 -6.290529E+03 -2.309034E+05 -3.121722E-09 -3.954586E-10
        82  18  2.689666E+04  2.644672E+05  3.045295E+04 -2.481547E+05  5.257598E-10  4.031076E-09
        82  19  6.634373E+04  4.534123E+05  5.048272E+04 -2.460853E+05 -1.640120E+04  2.332407E+04
        82  20  2.350106E+04  2.672799E+05  2.076244E+04 -2.288311E+05 -6.804603E+03  2.806692E+04
        82  21 -1.664741E+04  8.243578E+04 -5.209625E+03 -2.427198E+05  3.280396E+03  3.280926E+04
        82  22  1.236485E+03  1.734357E+05  4.825073E+03 -2.454403E+05 -1.638098E+04  1.979611E+03
        82  23  1.929338E+03  1.729111E+05  7.235384E+03 -2.298673E+05 -6.782772E+03  5.611181E+03
        82  24  5.124745E+03  1.734470E+05  1.262102E+04 -2.454371E+05  3.303886E+03  9.243550E+03
        82  25 -6.387451E+04 -1.064623E+05 -4.083308E+04 -2.447955E+05 -1.636080E+04 -1.935557E+04
        82  26 -1.964251E+04  7.855252E+04 -6.289910E+03 -2.309033E+05 -6.760864E+03 -1.684130E+04
        82  27  2.689673E+04  2.644674E+05  3.045336E+04 -2.481547E+05  3.327579E+03 -1.432554E+04
        83   1 -4.214994E+04 -3.206520E+04 -2.050032E+04 -2.438149E+05 -9.781287E+03 -3.448340E+04
        83   2 -7.379480E+04 -2.191323E+05 -4.678835E+04 -2.100034E+05 -1.362384E+04 -2.138015E+04
        83   3 -8.599615E+04 -4.030283E+05 -7.675400E+04 -2.065491E+05 -4.897002E+03 -8.275883E+03
        83   4  6.703100E+03  1.750058E+05  1.669210E+04 -2.452628E+05 -9.803805E+03 -1.143378E+04
        83   5  1.971563E+04  1.709284E+05  3.048444E+04 -2.300675E+05 -1.361727E+04 -2.698722E+04
        83   6  5.713805E+04  1.749534E+05  6.049351E+04 -2.452225E+05 -4.865777E+03 -4.253569E+04
        83   7  5.555404E+04  3.821197E+05  5.388486E+04 -2.467111E+05 -9.826425E+03  1.162332E+04
        83   8  1.132183E+05  5.611355E+05  1.077500E+05 -2.501444E+05 -1.361034E+04 -3.259772E+04
        83   9  2.002544E+05  7.532475E+05  1.977229E+05 -2.839320E+05 -4.830303E+03 -7.682722E+04
        83  10 -4.215036E+04 -3.206650E+04 -2.050273E+04 -2.438152E+05  7.275497E-10  2.987907E-09
        83  11 -7.379512E+04 -2.191329E+05 -4.678955E+04 -2.100036E+05  2.011250E-09  8.993495E-10
        83  12 -8.599619E+04 -4.030283E+05 -7.675417E+04 -2.065491E+05  1.924918E-09 -2.108183E-09
        83  13  6.702961E+03  1.750056E+05  1.669167E+04 -2.452628E+05  1.054846E-10 -4.050190E-12
        83  14  1.971524E+04  1.709276E+05  3.048273E+04 -2.300678E+05  3.918903E-09  3.436775E-11
        83  15  5.713753E+04  1.749514E+05  6.049007E+04 -2.452227E+05  4.213365E-10 -6.085376E-11
        83  16  5.555390E+04  3.821195E+05  5.388442E+04 -2.467110E+05 -3.979074E-10 -2.602473E-09
        83  17  1.132178E+05  5.611344E+05  1.077477E+05 -2.501448E+05 -4.637192E-10 -7.140668E-10
        83  18  2.002528E+05  7.532411E+05  1.977118E+05 -2.839323E+05  1.762227E-10  2.587043E-09
        83  19 -4.214994E+04 -3.206520E+04 -2.050032E+04 -2.438149E+05  9.781287E+03  3.448340E+04
        83  20 -7.379480E+04 -2.191323E+05 -4.678835E+04 -2.100034E+05  1.362384E+04  2.138015E+04
        83  21 -8.599615E+04 -4.030283E+05 -7.675400E+04 -2.065491E+05  4.897002E+03  8.275883E+03
        83  22  6.703100E+03  1.750058E+05  1.669210E+04 -2.452628E+05  9.803805E+03  1.143378E+04
        83  23  1.971563E+04  1.709284E+05  3.048444E+04 -2.300675E+05  1.361727E+04  2.698722E+04
        83  24  5.713805E+04  1.749534E+05  6.049351E+04 -2.452225E+05  4.865777E+03  4.253569E+04
        83  25  5.555404E+04  3.821197E+05  5.388486E+04 -2.467111E+05  9.826425E+03 -1.162332E+04
        83  26  1.132183E+05  5.611355E+05  1.077500E+05 -2.501444E+05  1.361034E+04  3.259772E+04
        83  27  2.002544E+05  7.532475E+05  1.977229E+05 -2.839320E+05  4.830303E+03  7.682722E+04
        84   1 -3.955461E+05 -2.227144E+05 -1.377590E+05 -1.697290E+05 -6.832755E+04 -2.196132E+04
        84   2 -3.719231E+05 -1.401659E+05 -7.879514E+04 -1.584813E+05 -4.258741E+04 -4.102968E+03
        84   3 -3.638001E+05 -1.064211E+05 -5.297580E+04 -1.421044E+05 -1.457589E+04  7.711687E+03
        84   4 -2.000201E+05 -1.105290E+05 -7.971163E+04 -7.626390E+04 -5.274419E+04 -1.611736E+04
        84   5 -1.888183E+05 -5.606265E+04 -3.668020E+04 -9.045300E+04 -3.623241E+04 -1.719540E+03
        84   6 -1.912827E+05 -4.856568E+04 -1.947431E+04 -9.951561E+04 -1.745048E+04  6.632739E+03
        84   7 -4.455172E+03  1.675750E+03 -2.166740E+04  1.723164E+04 -3.715573E+04 -1.026903E+04
        84   8 -5.679097E+03  2.804886E+04  5.432589E+03 -2.240463E+04 -2.987541E+04  6.650702E+02
        84   9 -1.873346E+04  9.291515E+03  1.402616E+04 -5.691615E+04 -2.032595E+04  5.553523E+03
        84  10 -3.955512E+05 -2.227162E+05 -1.377687E+05 -1.697302E+05  3.330779E-10 -4.677277E-10
        84  11 -3.719251E+05 -1.401664E+05 -7.879858E+04 -1.584814E+05  2.545625E-09  4.768486E-10
        84  12 -3.638004E+05 -1.064212E+05 -5.297631E+04 -1.421043E+05  6.621733E-09 -3.285174E-10
        84  13 -2.000231E+05 -1.105300E+05 -7.971735E+04 -7.626458E+04  3.109146E-09  9.305816E-10
        84  14 -1.888197E+05 -5.606300E+04 -3.668267E+04 -9.045305E+04  6.425054E-09  1.129397E-09
        84  15 -1.912830E+05 -4.856581E+04 -1.947496E+04 -9.951552E+04 -1.786517E-09  6.968065E-10
        84  16 -4.456682E+03  1.675266E+03 -2.167019E+04  1.723133E+04  3.559412E-09  1.609345E-09
        84  17 -5.680056E+03  2.804862E+04  5.430911E+03 -2.240461E+04  7.256088E-09  1.623264E-09
        84  18 -1.873391E+04  9.291371E+03  1.402533E+04 -5.691606E+04  2.691395E-09  1.313491E-09
        84  19 -3.955461E+05 -2.227144E+05 -1.377590E+05 -1.697290E+05  6.832755E+04  2.196132E+04
        84  20 -3.719231E+05 -1.401659E+05 -7.879514E+04 -1.584813E+05  4.258741E+04  4.102968E+03
        84  21 -3.638001E+05 -1.064211E+05 -5.297580E+04 -1.421044E+05  1.457589E+04 -7.711687E+03
        84  22 -2.000201E+05 -1.105290E+05 -7.971163E+04 -7.626390E+04  5.274419E+04  1.611736E+04
        84  23 -1.888183E+05 -5.606265E+04 -3.668020E+04 -9.045300E+04  3.623241E+04  1.719540E+03
        84  24 -1.912827E+05 -4.856568E+04 -1.947431E+04 -9.951561E+04  1.745048E+04 -6.632739E+03
        84  25 -4.455172E+03  1.675750E+03 -2.166740E+04  1.723164E+04  3.715573E+04  1.026903E+04
        84  26 -5.679097E+03  2.804886E+04  5.432589E+03 -2.240463E+04  2.987541E+04 -6.650702E+02
        84  27 -1.873346E+04  9.291515E+03  1.402616E+04 -5.691615E+04  2.032595E+04 -5.553523E+03
        85   1 -3.385328E+05 -1.056281E+05 -4.448041E+04 -1.404211E+05 -1.294569E+04  7.027202E+03
        85   2 -3.133431E+05 -9.027286E+04 -3.157162E+04 -1.300900E+05 -7.786296E+03  7.323694E+03
        85   3 -2.845830E+05 -8.201966E+04 -2.266455E+04 -1.250870E+05 -2.457076E+03  7.167654E+03
        85   4 -1.888948E+05 -5.013708E+04 -1.479174E+04 -9.791188E+04 -1.479681E+04  6.332307E+03
        85   5 -1.905655E+05 -4.536495E+04 -7.808813E+03 -9.573095E+04 -1.032774E+04  6.369933E+03
        85   6 -1.885293E+05 -4.755778E+04 -4.279790E+03 -9.887856E+04 -5.689044E+03  5.954994E+03
        85   7 -3.923478E+04  5.355579E+03  1.489554E+04 -5.539347E+04 -1.664839E+04  5.637230E+03
        85   8 -6.777219E+04 -4.556555E+02  1.595337E+04 -6.136562E+04 -1.286973E+04  5.415969E+03
        85   9 -9.246511E+04 -1.309481E+04  1.410486E+04 -7.266610E+04 -8.921575E+03  4.742127E+03
        85  10 -3.385330E+05 -1.056282E+05 -4.448082E+04 -1.404210E+05  6.110229E-09 -6.393643E-10
        85  11 -3.133431E+05 -9.027293E+04 -3.157184E+04 -1.300899E+05 -2.372617E-09 -1.096934E-09
        85  12 -2.845830E+05 -8.201972E+04 -2.266466E+04 -1.250870E+05 -8.703199E-09 -8.186200E-10
        85  13 -1.888950E+05 -5.013718E+04 -1.479222E+04 -9.791181E+04 -4.052460E-09 -8.343986E-10
        85  14 -1.905656E+05 -4.536503E+04 -7.809090E+03 -9.573090E+04 -1.492284E-09 -2.089592E-09
        85  15 -1.885293E+05 -4.755783E+04 -4.279917E+03 -9.887853E+04 -4.009597E-10 -2.828508E-10
        85  16 -3.923509E+04  5.355470E+03  1.489496E+04 -5.539340E+04 -1.157296E-10 -1.021067E-09
        85  17 -6.777237E+04 -4.557315E+02  1.595300E+04 -6.136557E+04  9.868572E-10 -2.162471E-09
        85  18 -9.246520E+04 -1.309485E+04  1.410467E+04 -7.266606E+04  3.691048E-09  4.331462E-10
        85  19 -3.385328E+05 -1.056281E+05 -4.448041E+04 -1.404211E+05  1.294569E+04 -7.027202E+03
        85  20 -3.133431E+05 -9.027286E+04 -3.157162E+04 -1.300900E+05  7.786296E+03 -7.323694E+03
        85  21 -2.845830E+05 -8.201966E+04 -2.266455E+04 -1.250870E+05  2.457076E+03 -7.167654E+03
        85  22 -1.888948E+05 -5.013708E+04 -1.479174E+04 -9.791188E+04  1.479681E+04 -6.332307E+03
        85  23 -1.905655E+05 -4.536495E+04 -7.808813E+03 -9.573095E+04  1.032774E+04 -6.369933E+03
        85  24 -1.885293E+05 -4.755778E+04 -4.279790E+03 -9.887856E+04  5.689044E+03 -5.954994E+03
        85  25 -3.923478E+04  5.355579E+03  1.489554E+04 -5.539347E+04  1.664839E+04 -5.637230E+03
        85  26 -6.777219E+04 -4.556555E+02  1.595337E+04 -6.136562E+04  1.286973E+04 -5.415969E+03
        85  27 -9.246511E+04 -1.309481E+04  1.410486E+04 -7.266610E+04  8.921575E+03 -4.742127E+03
        86   1 -2.659470E+05 -7.567591E+04 -1.797141E+04 -1.201924E+05 -1.471545E+03  6.129078E+03
        86   2 -2.410154E+05 -6.322216E+04 -1.134312E+04 -1.097856E+05  2.441543E+02  4.396707E+03
        86   3 -2.112690E+05 -5.585413E+04 -5.435449E+03 -1.050897E+05  1.972510E+03  2.630332E+03
        86   4 -1.883499E+05 -4.763426E+04 -3.218647E+03 -9.877690E+04 -4.627387E+03  4.945055E+03
        86   5 -1.907579E+05 -4.507055E+04 -1.769352E+03 -9.593085E+04 -2.963548E+03  3.193309E+03
        86   6 -1.883415E+05 -4.758223E+04 -9.994967E+02 -9.879596E+04 -1.287102E+03  1.407548E+03
        86   7 -1.107465E+05 -1.959208E+04  1.153390E+04 -7.735888E+04 -7.783650E+03  3.760875E+03
        86   8 -1.404979E+05 -2.691880E+04  7.804286E+03 -8.207512E+04 -6.171513E+03  1.989813E+03
        86   9 -1.654137E+05 -3.931035E+04  3.436420E+03 -9.250204E+04 -4.546814E+03  1.847281E+02
        86  10 -2.659470E+05 -7.567595E+04 -1.797149E+04 -1.201924E+05 -3.917564E-09  1.057786E-09
        86  11 -2.410154E+05 -6.322218E+04 -1.134315E+04 -1.097856E+05 -3.087960E-09 -2.559188E-10
        86  12 -2.112690E+05 -5.585414E+04 -5.435469E+03 -1.050897E+05  1.121199E-09 -1.080218E-09
        86  13 -1.883499E+05 -4.763429E+04 -3.218733E+03 -9.877689E+04 -1.152244E-09  4.584832E-10
        86  14 -1.907579E+05 -4.507056E+04 -1.769388E+03 -9.593084E+04  1.243898E-09 -2.718432E-10
        86  15 -1.883415E+05 -4.758223E+04 -9.995036E+02 -9.879595E+04  2.686707E-09 -7.620719E-10
        86  16 -1.107465E+05 -1.959211E+04  1.153376E+04 -7.735886E+04  2.578357E-09 -2.286706E-10
        86  17 -1.404980E+05 -2.691881E+04  7.804207E+03 -8.207511E+04  3.194930E-09 -2.857273E-10
        86  18 -1.654137E+05 -3.931035E+04  3.436381E+03 -9.250204E+04  1.697532E-09 -4.665504E-10
        86  19 -2.659470E+05 -7.567591E+04 -1.797141E+04 -1.201924E+05  1.471545E+03 -6.129078E+03
        86  20 -2.410154E+05 -6.322216E+04 -1.134312E+04 -1.097856E+05 -2.441543E+02 -4.396707E+03
        86  21 -2.112690E+05 -5.585413E+04 -5.435449E+03 -1.050897E+05 -1.972510E+03 -2.630332E+03
        86  22 -1.883499E+05 -4.763426E+04 -3.218647E+03 -9.877690E+04  4.627387E+03 -4.945055E+03
        86  23 -1.907579E+05 -4.507055E+04 -1.769352E+03 -9.593085E+04  2.963548E+03 -3.193309E+03
        86  24 -1.883415E+05 -4.758223E+04 -9.994967E+02 -9.879596E+04  1.287102E+03 -1.407548E+03
        86  25 -1.107465E+05 -1.959208E+04  1.153390E+04 -7.735888E+04  7.783650E+03 -3.760875E+03
        86  26 -1.404979E+05 -2.691880E+04  7.804286E+03 -8.207512E+04  6.171513E+03 -1.989813E+03
        86  27 -1.654137E+05 -3.931035E+04  3.436420E+03 -9.250204E+04  4.546814E+03 -1.847281E+02
        87   1 -1.930142E+05 -4.923210E+04 -1.585819E+03 -1.000454E+05  2.579783E+03  1.441221E+03
        87   2 -1.681605E+05 -3.685522E+04  3.824350E+03 -8.961227E+04  3.622846E+03 -5.985287E+02
        87   3 -1.383655E+05 -2.945980E+04  9.052635E+03 -8.488389E+04  4.666749E+03 -2.640393E+03
        87   4 -1.883192E+05 -4.758636E+04 -7.695766E+02 -9.878523E+04 -6.742362E+02  2.205487E+02
        87   5 -1.907904E+05 -4.510125E+04 -4.825955E+02 -9.593059E+04  3.654845E+02 -1.820500E+03
        87   6 -1.883210E+05 -4.759731E+04 -3.750596E+02 -9.878125E+04  1.406031E+03 -3.863661E+03
        87   7 -1.836241E+05 -4.594059E+04  4.672200E+01 -9.752501E+04 -3.928311E+03 -1.000144E+03
        87   8 -2.134199E+05 -5.334727E+04 -4.789546E+03 -1.022487E+05 -2.891765E+03 -3.042428E+03
        87   9 -2.382740E+05 -6.573459E+04 -9.802815E+03 -1.126776E+05 -1.854406E+03 -5.086825E+03
        87  10 -1.930142E+05 -4.923210E+04 -1.585835E+03 -1.000454E+05 -7.419919E-10 -1.589860E-09
        87  11 -1.681605E+05 -3.685522E+04  3.824324E+03 -8.961227E+04 -2.407890E-09 -1.138199E-09
        87  12 -1.383655E+05 -2.945982E+04  9.052581E+03 -8.488388E+04 -5.069433E-09 -1.492577E-10
        87  13 -1.883192E+05 -4.758636E+04 -7.695776E+02 -9.878523E+04  1.527303E-09 -1.050763E-09
        87  14 -1.907904E+05 -4.510126E+04 -4.826019E+02 -9.593059E+04  2.365219E-09 -4.702183E-10
        87  15 -1.883210E+05 -4.759733E+04 -3.750914E+02 -9.878125E+04 -2.645730E-09  1.421690E-09
        87  16 -1.836241E+05 -4.594060E+04  4.669111E+01 -9.752501E+04  1.329624E-09 -1.482371E-10
        87  17 -2.134199E+05 -5.334729E+04 -4.789579E+03 -1.022487E+05  2.300351E-09  9.093320E-10
        87  18 -2.382740E+05 -6.573462E+04 -9.802870E+03 -1.126776E+05  6.209282E-09  3.180805E-09
        87  19 -1.930142E+05 -4.923210E+04 -1.585819E+03 -1.000454E+05 -2.579783E+03 -1.441221E+03
        87  20 -1.681605E+05 -3.685522E+04  3.824350E+03 -8.961227E+04 -3.622846E+03  5.985287E+02
        87  21 -1.383655E+05 -2.945980E+04  9.052635E+03 -8.488389E+04 -4.666749E+03  2.640393E+03
        87  22 -1.883192E+05 -4.758636E+04 -7.695766E+02 -9.878523E+04  6.742362E+02 -2.205487E+02
        87  23 -1.907904E+05 -4.510125E+04 -4.825955E+02 -9.593059E+04 -3.654845E+02  1.820500E+03
        87  24 -1.883210E+05 -4.759731E+04 -3.750596E+02 -9.878125E+04 -1.406031E+03  3.863661E+03
        87  25 -1.836241E+05 -4.594059E+04  4.672200E+01 -9.752501E+04  3.928311E+03  1.000144E+03
        87  26 -2.134199E+05 -5.334727E+04 -4.789546E+03 -1.022487E+05  2.891765E+03  3.042428E+03
        87  27 -2.382740E+05 -6.573459E+04 -9.802815E+03 -1.126776E+05  1.854406E+03  5.086825E+03
        88   1 -1.201499E+05 -2.282279E+04  1.267317E+04 -7.983574E+04  5.195359E+03 -3.859311E+03
        88   2 -9.530468E+04 -1.044029E+04  1.769657E+04 -6.940592E+04  6.222551E+03 -5.906253E+03
        88   3 -6.551648E+04 -3.036301E+03  2.255068E+04 -6.467864E+04  7.248402E+03 -7.949137E+03
        88   4 -1.883217E+05 -4.759766E+04 -3.725209E+02 -9.878075E+04  1.934662E+03 -5.082624E+03
        88   5 -1.907926E+05 -4.510572E+04 -4.684864E+02 -9.593043E+04  2.967893E+03 -7.127448E+03
        88   6 -1.883225E+05 -4.759350E+04 -7.385090E+02 -9.878291E+04  3.999779E+03 -9.168225E+03
        88   7 -2.564881E+05 -7.237188E+04 -1.341820E+04 -1.177237E+05 -1.325623E+03 -6.305783E+03
        88   8 -2.862711E+05 -7.977032E+04 -1.863388E+04 -1.224512E+05 -2.862284E+02 -8.348443E+03
        88   9 -3.111139E+05 -9.214974E+04 -2.402858E+04 -1.328812E+05  7.518149E+02 -1.038707E+04
        88  10 -1.201500E+05 -2.282281E+04  1.267309E+04 -7.983572E+04 -6.383125E-09  5.383690E-10
        88  11 -9.530473E+04 -1.044034E+04  1.769643E+04 -6.940589E+04 -1.681365E-08 -4.094040E-09
        88  12 -6.551655E+04 -3.036383E+03  2.255047E+04 -6.467860E+04 -2.532715E-08 -8.978169E-09
        88  13 -1.883217E+05 -4.759769E+04 -3.725765E+02 -9.878074E+04  4.526812E-10  1.523519E-09
        88  14 -1.907927E+05 -4.510578E+04 -4.685984E+02 -9.593042E+04 -5.089849E-09 -1.563748E-09
        88  15 -1.883226E+05 -4.759359E+04 -7.386970E+02 -9.878288E+04 -2.057400E-09 -7.226426E-09
        88  16 -2.564881E+05 -7.237192E+04 -1.341828E+04 -1.177237E+05  5.097154E-09  4.939278E-09
        88  17 -2.862711E+05 -7.977040E+04 -1.863401E+04 -1.224512E+05  1.426460E-08  1.088123E-08
        88  18 -3.111139E+05 -9.214985E+04 -2.402878E+04 -1.328812E+05  2.084402E-08  1.228975E-08
        88  19 -1.201499E+05 -2.282279E+04  1.267317E+04 -7.983574E+04 -5.195359E+03  3.859311E+03
        88  20 -9.530468E+04 -1.044029E+04  1.769657E+04 -6.940592E+04 -6.222551E+03  5.906253E+03
        88  21 -6.551648E+04 -3.036301E+03  2.255068E+04 -6.467864E+04 -7.248402E+03  7.949137E+03
        88  22 -1.883217E+05 -4.759766E+04 -3.725209E+02 -9.878075E+04 -1.934662E+03  5.082624E+03
        88  23 -1.907926E+05 -4.510572E+04 -4.684864E+02 -9.593043E+04 -2.967893E+03  7.127448E+03
        88  24 -1.883225E+05 -4.759350E+04 -7.385090E+02 -9.878291E+04 -3.999779E+03  9.168225E+03
        88  25 -2.564881E+05 -7.237188E+04 -1.341820E+04 -1.177237E+05  1.325623E+03  6.305783E+03
        88  26 -2.862711E+05 -7.977032E+04 -1.863388E+04 -1.224512E+05  2.862284E+02  8.348443E+03
        88  27 -3.111139E+05 -9.214974E+04 -2.402858E+04 -1.328812E+05 -7.518149E+02  1.038707E+04
        89   1 -4.731802E+04  3.592062E+03  2.595031E+04 -5.965331E+04  7.862885E+03 -9.134172E+03
        89   2 -2.243483E+04  1.597587E+04  3.036027E+04 -4.923010E+04  9.417038E+03 -1.095290E+04
        89   3  7.292917E+03  2.330865E+04  3.418418E+04 -4.450971E+04  1.095214E+04 -1.271996E+04
        89   4 -1.883456E+05 -4.759011E+04 -9.566049E+02 -9.879208E+04  4.606283E+03 -1.035638E+04
        89   5 -1.907656E+05 -4.508459E+04 -1.689386E+03 -9.593083E+04  6.239024E+03 -1.214589E+04
        89   6 -1.883572E+05 -4.764585E+04 -3.070570E+03 -9.877284E+04  7.852673E+03 -1.388372E+04
        89   7 -3.293523E+05 -9.877047E+04 -2.786430E+04 -1.379226E+05  1.350475E+03 -1.157830E+04
        89   8 -3.590660E+05 -1.061422E+05 -3.373996E+04 -1.426196E+05  3.061946E+03 -1.333852E+04
        89   9 -3.839656E+05 -1.185963E+05 -4.032638E+04 -1.530196E+05  4.754274E+03 -1.504708E+04
        89  10 -4.731811E+04  3.591956E+03  2.595004E+04 -5.965325E+04  1.299946E-08  4.640452E-09
        89  11 -2.243495E+04  1.597572E+04  3.035988E+04 -4.923002E+04  1.107369E-10  1.429323E-09
        89  12  7.292744E+03  2.330845E+04  3.418366E+04 -4.450960E+04 -1.624042E-08  7.958519E-10
        89  13 -1.883456E+05 -4.759023E+04 -9.568463E+02 -9.879204E+04 -2.053982E-09 -1.005312E-08
        89  14 -1.907656E+05 -4.508475E+04 -1.689736E+03 -9.593077E+04  1.020768E-09 -1.329654E-08
        89  15 -1.883573E+05 -4.764608E+04 -3.071048E+03 -9.877275E+04 -7.393320E-10 -1.542464E-08
        89  16 -3.293523E+05 -9.877061E+04 -2.786455E+04 -1.379226E+05 -1.567722E-08 -3.170041E-09
        89  17 -3.590660E+05 -1.061424E+05 -3.374031E+04 -1.426196E+05 -3.598873E-09  1.657887E-09
        89  18 -3.839657E+05 -1.185965E+05 -4.032685E+04 -1.530196E+05 -1.797061E-09  7.040624E-09
        89  19 -4.731802E+04  3.592062E+03  2.595031E+04 -5.965331E+04 -7.862885E+03  9.134172E+03
        89  20 -2.243483E+04  1.597587E+04  3.036027E+04 -4.923010E+04 -9.417038E+03  1.095290E+04
        89  21  7.292917E+03  2.330865E+04  3.418418E+04 -4.450971E+04 -1.095214E+04  1.271996E+04
        89  22 -1.883456E+05 -4.759011E+04 -9.566049E+02 -9.879208E+04 -4.606283E+03  1.035638E+04
        89  23 -1.907656E+05 -4.508459E+04 -1.689386E+03 -9.593083E+04 -6.239024E+03  1.214589E+04
        89  24 -1.883572E+05 -4.764585E+04 -3.070570E+03 -9.877284E+04 -7.852673E+03  1.388372E+04
        89  25 -3.293523E+05 -9.877047E+04 -2.786430E+04 -1.379226E+05 -1.350475E+03  1.157830E+04
        89  26 -3.590660E+05 -1.061422E+05 -3.373996E+04 -1.426196E+05 -3.061946E+03  1.333852E+04
        89  27 -3.839656E+05 -1.185963E+05 -4.032638E+04 -1.530196E+05 -4.754274E+03  1.504708E+04
        90   1  2.555562E+04  2.981609E+04  3.680794E+04 -3.979326E+04  1.209906E+04 -1.369136E+04
        90   2  5.018530E+04  4.243815E+04  3.894484E+04 -2.856599E+04  1.546695E+04 -1.443707E+04
        90   3  7.877354E+04  4.841713E+04  3.861558E+04 -2.265617E+04  1.857921E+04 -1.450034E+04
        90   4 -1.885307E+05 -4.757032E+04 -4.081618E+03 -9.886469E+04  8.885058E+03 -1.489829E+04
        90   5 -1.905825E+05 -4.537741E+04 -7.446950E+03 -9.574420E+04  1.329418E+04 -1.525350E+04
        90   6 -1.888836E+05 -5.003500E+04 -1.410447E+04 -9.794196E+04  1.744749E+04 -1.492617E+04
        90   7 -4.025713E+05 -1.249535E+05 -4.497360E+04 -1.579178E+05  5.672214E+03 -1.610479E+04
        90   8 -4.312911E+05 -1.331881E+05 -5.384154E+04 -1.628985E+05  1.112230E+04 -1.606960E+04
        90   9 -4.564665E+05 -1.484805E+05 -6.682785E+04 -1.731976E+05  1.631628E+04 -1.535181E+04
        90  10  2.555541E+04  2.981584E+04  3.680731E+04 -3.979312E+04  2.808382E-09  9.647026E-09
        90  11  5.018499E+04  4.243787E+04  3.894400E+04 -2.856581E+04  9.736171E-09  8.953541E-09
        90  12  7.877311E+04  4.841681E+04  3.861454E+04 -2.265596E+04  1.476108E-08  6.565657E-09
        90  13 -1.885309E+05 -4.757058E+04 -4.082184E+03 -9.886458E+04 -3.844791E-09 -1.409019E-08
        90  14 -1.905827E+05 -4.537771E+04 -7.447719E+03 -9.574403E+04 -7.920286E-10 -5.813928E-09
        90  15 -1.888840E+05 -5.003532E+04 -1.410547E+04 -9.794175E+04  1.335622E-09 -1.575755E-09
        90  16 -4.025714E+05 -1.249537E+05 -4.497415E+04 -1.579177E+05 -2.088566E-08 -1.287806E-09
        90  17 -4.312913E+05 -1.331884E+05 -5.384226E+04 -1.628984E+05 -1.777173E-08 -3.103403E-09
        90  18 -4.564669E+05 -1.484808E+05 -6.682879E+04 -1.731974E+05 -1.654795E-08 -4.110915E-09
        90  19  2.555562E+04  2.981609E+04  3.680794E+04 -3.979326E+04 -1.209906E+04  1.369136E+04
        90  20  5.018530E+04  4.243815E+04  3.894484E+04 -2.856599E+04 -1.546695E+04  1.443707E+04
        90  21  7.877354E+04  4.841713E+04  3.861558E+04 -2.265617E+04 -1.857921E+04  1.450034E+04
        90  22 -1.885307E+05 -4.757032E+04 -4.081618E+03 -9.886469E+04 -8.885058E+03  1.489829E+04
        90  23 -1.905825E+05 -4.537741E+04 -7.446950E+03 -9.574420E+04 -1.329418E+04  1.525350E+04
        90  24 -1.888836E+05 -5.003500E+04 -1.410447E+04 -9.794196E+04 -1.744749E+04  1.492617E+04
        90  25 -4.025713E+05 -1.249535E+05 -4.497360E+04 -1.579178E+05 -5.672214E+03  1.610479E+04
        90  26 -4.312911E+05 -1.331881E+05 -5.384154E+04 -1.628985E+05 -1.112230E+04  1.606960E+04
        90  27 -4.564665E+05 -1.484805E+05 -6.682785E+04 -1.731976E+05 -1.631628E+04  1.535181E+04
        91   1  9.925637E+04  5.257403E+04  3.805751E+04 -2.379524E+04  2.265201E+04 -1.420390E+04
        91   2  1.124886E+05  7.114376E+04  3.202874E+04  9.231697E+03  2.599783E+04 -9.742417E+03
        91   3  1.155148E+05  4.765586E+04  1.241034E+04  4.709217E+04  2.592124E+04  3.829740E+03
        91   4 -1.911946E+05 -4.850385E+04 -1.856896E+04 -9.943146E+04  1.997695E+04 -1.520924E+04
        91   5 -1.888813E+05 -5.562366E+04 -3.497600E+04 -9.076016E+04  3.723990E+04 -5.521668E+03
        91   6 -1.995399E+05 -1.075723E+05 -7.600569E+04 -7.725465E+04  5.107905E+04  1.327816E+04
        91   7 -4.815579E+05 -1.495761E+05 -7.519907E+04 -1.750356E+05  1.730323E+04 -1.621414E+04
        91   8 -4.901533E+05 -1.823735E+05 -1.019845E+05 -1.907031E+05  4.847596E+04 -1.303917E+03
        91   9 -5.144846E+05 -2.627663E+05 -1.644256E+05 -2.015337E+05  7.622232E+04  2.271733E+04
        91  10  9.925577E+04  5.257368E+04  3.805617E+04 -2.379498E+04  5.733719E-09  2.886225E-09
        91  11  1.124879E+05  7.114347E+04  3.202729E+04  9.231901E+03 -7.739705E-09 -8.476569E-10
        91  12  1.155141E+05  4.765566E+04  1.240905E+04  4.709209E+04 -3.651542E-09 -9.427243E-10
        91  13 -1.911950E+05 -4.850420E+04 -1.857014E+04 -9.943121E+04 -3.892815E-09 -6.313067E-10
        91  14 -1.888828E+05 -5.562406E+04 -3.497867E+04 -9.075999E+04 -9.737658E-09  8.329957E-11
        91  15 -1.995428E+05 -1.075732E+05 -7.601093E+04 -7.725519E+04 -5.125881E-09  4.207384E-10
        91  16 -4.815583E+05 -1.495764E+05 -7.520013E+04 -1.750354E+05 -1.273524E-08 -3.359555E-09
        91  17 -4.901559E+05 -1.823742E+05 -1.019890E+05 -1.907030E+05 -1.087888E-08 -2.398067E-09
        91  18 -5.144910E+05 -2.627685E+05 -1.644375E+05 -2.015351E+05 -2.041988E-09 -1.841808E-10
        91  19  9.925637E+04  5.257403E+04  3.805751E+04 -2.379524E+04 -2.265201E+04  1.420390E+04
        91  20  1.124886E+05  7.114376E+04  3.202874E+04  9.231697E+03 -2.599783E+04  9.742417E+03
        91  21  1.155148E+05  4.765586E+04  1.241034E+04  4.709217E+04 -2.592124E+04 -3.829740E+03
        91  22 -1.911946E+05 -4.850385E+04 -1.856896E+04 -9.943146E+04 -1.997695E+04  1.520924E+04
        91  23 -1.888813E+05 -5.562366E+04 -3.497600E+04 -9.076016E+04 -3.723990E+04  5.521668E+03
        91  24 -1.995399E+05 -1.075723E+05 -7.600569E+04 -7.725465E+04 -5.107905E+04 -1.327816E+04
        91  25 -4.815579E+05 -1.495761E+05 -7.519907E+04 -1.750356E+05 -1.730323E+04  1.621414E+04
        91  26 -4.901533E+05 -1.823735E+05 -1.019845E+05 -1.907031E+05 -4.847596E+04  1.303917E+03
        91  27 -5.144846E+05 -2.627663E+05 -1.644256E+05 -2.015337E+05 -7.622232E+04 -2.271733E+04
        92   1  8.603009E+05  1.334963E+05  1.189053E+05  1.742341E+04  3.813338E+04 -9.788676E+03
        92   2  8.245195E+05  1.463582E+05  9.725246E+04  2.971926E+04  1.659766E+04 -3.396781E+04
        92   3  7.882052E+05  1.457950E+05  8.627006E+04  4.685352E+04 -4.947259E+03 -4.329004E+04
        92   4  1.333602E+05 -4.515119E+04 -4.813375E+04  4.739180E+04 -3.394159E+04 -9.854960E+03
        92   5  1.365771E+05 -1.540176E+04 -2.418348E+04  4.495070E+04 -2.156851E+04 -3.400985E+04
        92   6  1.333728E+05 -4.970769E+03 -1.309855E+04  4.734772E+04 -9.206327E+03 -4.329924E+04
        92   7 -5.930788E+05 -2.238293E+05 -2.151877E+05  7.732474E+04 -1.059329E+05 -9.928238E+03
        92   8 -5.508994E+05 -1.771860E+05 -1.456312E+05  6.016466E+04 -5.969367E+04 -3.405378E+04
        92   9 -5.210303E+05 -1.557570E+05 -1.124760E+05  4.784125E+04 -1.346108E+04 -4.330845E+04
        92  10  8.602993E+05  1.334958E+05  1.189024E+05  1.742371E+04  5.352199E-09 -9.018187E-10
        92  11  8.245189E+05  1.463569E+05  9.724977E+04  2.971971E+04  1.866891E-09 -4.061441E-09
        92  12  7.882047E+05  1.457930E+05  8.626649E+04  4.685335E+04  1.904863E-09 -4.114458E-09
        92  13  1.333589E+05 -4.515161E+04 -4.813610E+04  4.739153E+04 -8.023620E-10 -4.132511E-11
        92  14  1.365763E+05 -1.540313E+04 -2.418653E+04  4.495011E+04 -1.075040E-09 -2.962529E-09
        92  15  1.333722E+05 -4.972805E+03 -1.310224E+04  4.734740E+04  9.998747E-10 -1.731235E-09
        92  16 -5.930909E+05 -2.238324E+05 -2.152090E+05  7.732390E+04 -3.043076E-09 -2.828199E-10
        92  17 -5.509036E+05 -1.771882E+05 -1.456401E+05  6.016302E+04 -4.297332E-10 -4.513565E-09
        92  18 -5.210310E+05 -1.557591E+05 -1.124799E+05  4.784078E+04  1.984537E-09 -4.203877E-09
        92  19  8.603009E+05  1.334963E+05  1.189053E+05  1.742341E+04 -3.813338E+04  9.788676E+03
        92  20  8.245195E+05  1.463582E+05  9.725246E+04  2.971926E+04 -1.659766E+04  3.396781E+04
        92  21  7.882052E+05  1.457950E+05  8.627006E+04  4.685352E+04  4.947259E+03  4.329004E+04
        92  22  1.333602E+05 -4.515119E+04 -4.813375E+04  4.739180E+04  3.394159E+04  9.854960E+03
        92  23  1.365771E+05 -1.540176E+04 -2.418348E+04  4.495070E+04  2.156851E+04  3.400985E+04
        92  24  1.333728E+05 -4.970769E+03 -1.309855E+04  4.734772E+04  9.206327E+03  4.329924E+04
        92  25 -5.930788E+05 -2.238293E+05 -2.151877E+05  7.732474E+04  1.059329E+05  9.928238E+03
        92  26 -5.508994E+05 -1.771860E+05 -1.456312E+05  6.016466E+04  5.969367E+04  3.405378E+04
        92  27 -5.210303E+05 -1.557570E+05 -1.124760E+05  4.784125E+04  1.346108E+04  4.330845E+04
        93   1  7.661754E+05  1.411207E+05  8.309219E+04  4.604332E+04 -3.954533E+03 -4.373797E+04
        93   2  7.302881E+05  1.344862E+05  7.762440E+04  4.420470E+04 -5.652657E+03 -4.434372E+04
        93   3  6.943773E+05  1.268548E+05  7.301515E+04  4.829282E+04 -7.353368E+03 -4.304010E+04
        93   4  1.346315E+05 -3.691647E+03 -9.792296E+03  4.759177E+04 -7.505434E+03 -4.374652E+04
        93   5  1.350287E+05 -1.086909E+03 -5.301755E+03  4.462592E+04 -4.847713E+03 -4.434703E+04
        93   6  1.346454E+05 -2.353909E+02 -2.976411E+03  4.758720E+04 -2.192600E+03 -4.303719E+04
        93   7 -4.965111E+05 -1.485225E+05 -1.026838E+05  4.913845E+04 -1.105287E+04 -4.375510E+04
        93   8 -4.598716E+05 -1.366757E+05 -8.823229E+04  4.504660E+04 -4.043505E+03 -4.435033E+04
        93   9 -4.247677E+05 -1.273392E+05 -7.897096E+04  4.688213E+04  2.963733E+03 -4.303429E+04
        93  10  7.661748E+05  1.411186E+05  8.308857E+04  4.604318E+04 -4.484784E-09 -4.340154E-09
        93  11  7.302875E+05  1.344841E+05  7.762065E+04  4.420450E+04 -4.620966E-11 -6.673649E-10
        93  12  6.943767E+05  1.268528E+05  7.301157E+04  4.829256E+04  3.888167E-09  1.895256E-11
        93  13  1.346310E+05 -3.693717E+03 -9.795998E+03  4.759150E+04  2.448492E-09 -2.834495E-09
        93  14  1.350281E+05 -1.089028E+03 -5.305495E+03  4.462574E+04  4.313039E-09 -9.051004E-10
        93  15  1.346449E+05 -2.373813E+02 -2.979900E+03  4.758712E+04  1.932753E-10 -2.688035E-09
        93  16 -4.965118E+05 -1.485246E+05 -1.026876E+05  4.913806E+04  5.575960E-09 -6.474332E-10
        93  17 -4.598722E+05 -1.366778E+05 -8.823602E+04  4.504645E+04  7.448162E-10  1.599742E-10
        93  18 -4.247683E+05 -1.273411E+05 -7.897446E+04  4.688223E+04 -4.354622E-09 -1.210464E-09
        93  19  7.661754E+05  1.411207E+05  8.309219E+04  4.604332E+04  3.954533E+03  4.373797E+04
        93  20  7.302881E+05  1.344862E+05  7.762440E+04  4.420470E+04  5.652657E+03  4.434372E+04
        93  21  6.943773E+05  1.268548E+05  7.301515E+04  4.829282E+04  7.353368E+03  4.304010E+04
        93  22  1.346315E+05 -3.691647E+03 -9.792296E+03  4.759177E+04  7.505434E+03  4.374652E+04
        93  23  1.350287E+05 -1.086909E+03 -5.301755E+03  4.462592E+04  4.847713E+03  4.434703E+04
        93  24  1.346454E+05 -2.353909E+02 -2.976411E+03  4.758720E+04  2.192600E+03  4.303719E+04
        93  25 -4.965111E+05 -1.485225E+05 -1.026838E+05  4.913845E+04  1.105287E+04  4.375510E+04
        93  26 -4.598716E+05 -1.366757E+05 -8.823229E+04  4.504660E+04  4.043505E+03  4.435033E+04
        93  27 -4.247677E+05 -1.273392E+05 -7.897096E+04  4.688213E+04 -2.963733E+03  4.303429E+04
        94   1  6.721398E+05  1.217692E+05  7.022880E+04  4.817282E+04 -7.003081E+03 -4.164194E+04
        94   2  6.362888E+05  1.137117E+05  6.583876E+04  4.516848E+04 -6.938291E+03 -3.921901E+04
        94   3  6.004158E+05  1.056179E+05  6.139617E+04  4.822542E+04 -6.874562E+03 -3.655111E+04
        94   4  1.347967E+05 -1.430052E+02 -2.245112E+03  4.761736E+04 -1.752447E+03 -4.163840E+04
        94   5  1.348629E+05  5.216460E+01 -1.259868E+03  4.458639E+04 -1.129224E+03 -3.921389E+04
        94   6  1.348089E+05  1.141453E+02 -7.150870E+02  4.761698E+04 -5.070584E+02 -3.654429E+04
        94   7 -4.022525E+05 -1.220676E+05 -7.472159E+04  4.706230E+04  3.493855E+03 -4.163488E+04
        94   8 -3.663067E+05 -1.136181E+05 -6.836051E+04  4.400470E+04  4.675373E+03 -3.920877E+04
        94   9 -3.305770E+05 -1.053989E+05 -6.282796E+04  4.700893E+04  5.855896E+03 -3.653749E+04
        94  10  6.721393E+05  1.217673E+05  7.022545E+04  4.817258E+04  1.583657E-09  1.105179E-09
        94  11  6.362884E+05  1.137100E+05  6.583578E+04  4.516826E+04  3.864890E-09  7.686330E-10
        94  12  6.004154E+05  1.056165E+05  6.139357E+04  4.822522E+04  9.201327E-09 -1.462815E-09
        94  13  1.347962E+05 -1.448679E+02 -2.248376E+03  4.761730E+04  2.399896E-09 -3.141449E-09
        94  14  1.348625E+05  5.051291E+01 -1.262760E+03  4.458636E+04 -1.077579E-09  6.858671E-10
        94  15  1.348085E+05  1.127111E+02 -7.175973E+02  4.761696E+04 -4.814867E-10  9.423208E-10
        94  16 -4.022530E+05 -1.220695E+05 -7.472487E+04  4.706242E+04 -6.136284E-11 -7.807005E-10
        94  17 -3.663071E+05 -1.136197E+05 -6.836344E+04  4.400485E+04 -3.712771E-09  7.165182E-10
        94  18 -3.305774E+05 -1.054003E+05 -6.283054E+04  4.700910E+04 -6.000391E-09 -1.862861E-09
        94  19  6.721398E+05  1.217692E+05  7.022880E+04  4.817282E+04  7.003081E+03  4.164194E+04
        94  20  6.362888E+05  1.137117E+05  6.583876E+04  4.516848E+04  6.938291E+03  3.921901E+04
        94  21  6.004158E+05  1.056179E+05  6.139617E+04  4.822542E+04  6.874562E+03  3.655111E+04
        94  22  1.347967E+05 -1.430052E+02 -2.245112E+03  4.761736E+04  1.752447E+03  4.163840E+04
        94  23  1.348629E+05  5.216460E+01 -1.259868E+03  4.458639E+04  1.129224E+03  3.921389E+04
        94  24  1.348089E+05  1.141453E+02 -7.150870E+02  4.761698E+04  5.070584E+02  3.654429E+04
        94  25 -4.022525E+05 -1.220676E+05 -7.472159E+04  4.706230E+04 -3.493855E+03  4.163488E+04
        94  26 -3.663067E+05 -1.136181E+05 -6.836051E+04  4.400470E+04 -4.675373E+03  3.920877E+04
        94  27 -3.305770E+05 -1.053989E+05 -6.282796E+04  4.700893E+04 -5.855896E+03  3.653749E+04
        95   1  5.781785E+05  1.005470E+05  5.843709E+04  4.818985E+04 -6.775644E+03 -3.491656E+04
        95   2  5.423453E+05  9.242904E+04  5.389086E+04  4.511404E+04 -6.700966E+03 -3.210570E+04
        95   3  5.064964E+05  8.433354E+04  4.929774E+04  4.811316E+04 -6.626969E+03 -2.926380E+04
        95   4  1.348328E+05  1.193863E+02 -5.391622E+02  4.762004E+04 -3.974210E+02 -3.490924E+04
        95   5  1.348527E+05  1.241833E+02 -3.007813E+02  4.458245E+04 -2.521992E+02 -3.209754E+04
        95   6  1.348427E+05  1.390516E+02 -1.585906E+02  4.762002E+04 -1.076546E+02 -2.925477E+04
        95   7 -3.083124E+05 -1.003166E+05 -5.951682E+04  4.705058E+04  5.976463E+03 -3.490194E+04
        95   8 -2.724704E+05 -9.218772E+04 -5.449358E+04  4.405116E+04  6.192536E+03 -3.208939E+04
        95   9 -2.366699E+05 -8.406130E+04 -4.961586E+04  4.712713E+04  6.407942E+03 -2.924576E+04
        95  10  5.781781E+05  1.005457E+05  5.843471E+04  4.818966E+04  4.756224E-09 -2.326739E-09
        95  11  5.423450E+05  9.242793E+04  5.388884E+04  4.511386E+04  5.003884E-09  2.209792E-09
        95  12  5.064961E+05  8.433261E+04  4.929605E+04  4.811301E+04  2.946425E-09  3.929956E-09
        95  13  1.348324E+05  1.180776E+02 -5.414527E+02  4.762003E+04  1.484088E-09 -2.089529E-09
        95  14  1.348525E+05  1.230769E+02 -3.027175E+02  4.458244E+04  2.249080E-09  1.329585E-09
        95  15  1.348425E+05  1.381325E+02 -1.601990E+02  4.762002E+04  2.834147E-10  9.897581E-10
        95  16 -3.083128E+05 -1.003179E+05 -5.951917E+04  4.705075E+04 -7.132499E-09 -2.839520E-09
        95  17 -2.724707E+05 -9.218884E+04 -5.449559E+04  4.405132E+04 -5.254078E-09 -2.302240E-09
        95  18 -2.366702E+05 -8.406222E+04 -4.961755E+04  4.712728E+04 -4.187371E-09 -1.329541E-09
        95  19  5.781785E+05  1.005470E+05  5.843709E+04  4.818985E+04  6.775644E+03  3.491656E+04
        95  20  5.423453E+05  9.242904E+04  5.389086E+04  4.511404E+04  6.700966E+03  3.210570E+04
        95  21  5.064964E+05  8.433354E+04  4.929774E+04  4.811316E+04  6.626969E+03  2.926380E+04
        95  22  1.348328E+05  1.193863E+02 -5.391622E+02  4.762004E+04  3.974210E+02  3.490924E+04
        95  23  1.348527E+05  1.241833E+02 -3.007813E+02  4.458245E+04  2.521992E+02  3.209754E+04
        95  24  1.348427E+05  1.390516E+02 -1.585906E+02  4.762002E+04  1.076546E+02  2.925477E+04
        95  25 -3.083124E+05 -1.003166E+05 -5.951682E+04  4.705058E+04 -5.976463E+03  3.490194E+04
        95  26 -2.724704E+05 -9.218772E+04 -5.449358E+04  4.405116E+04 -6.192536E+03  3.208939E+04
        95  27 -2.366699E+05 -8.406130E+04 -4.961586E+04  4.712713E+04 -6.407942E+03  2.924576E+04
        96   1  4.842665E+05  7.927418E+04  4.626200E+04  4.808855E+04 -6.605724E+03 -2.759950E+04
        96   2  4.484483E+05  7.116455E+04  4.163130E+04  4.500966E+04 -6.600980E+03 -2.474013E+04
        96   3  4.126166E+05  6.307903E+04  3.699737E+04  4.800848E+04 -6.596728E+03 -2.187769E+04
        96   4  1.348490E+05  1.413101E+02 -1.092404E+02  4.762063E+04 -8.574028E+01 -2.759009E+04
        96   5  1.348605E+05  1.352292E+02 -3.221957E+01  4.458169E+04 -7.414735E+01 -2.473013E+04
        96   6  1.348567E+05  1.522268E+02  3.687266E+01  4.762062E+04 -6.304636E+01 -2.186710E+04
        96   7 -2.144439E+05 -7.899672E+04 -4.648127E+04  4.715293E+04  6.430748E+03 -2.758068E+04
        96   8 -1.786268E+05 -7.089825E+04 -4.169634E+04  4.415390E+04  6.449545E+03 -2.472013E+04
        96   9 -1.428244E+05 -6.277784E+04 -3.692408E+04  4.723291E+04  6.467850E+03 -2.185651E+04
        96  10  4.842663E+05  7.927335E+04  4.626049E+04  4.808840E+04  6.688696E-08  1.396112E-10
        96  11  4.484480E+05  7.116388E+04  4.163007E+04  4.500953E+04  2.963299E-08 -9.542653E-09
        96  12  4.126164E+05  6.307850E+04  3.699639E+04  4.800836E+04 -1.635028E-08 -1.751353E-08
        96  13  1.348488E+05  1.404926E+02 -1.106710E+02  4.762063E+04  1.611106E-09  9.458431E-09
        96  14  1.348604E+05  1.345725E+02 -3.336893E+01  4.458169E+04 -2.067842E-09  2.139369E-08
        96  15  1.348566E+05  1.517133E+02  3.597402E+01  4.762062E+04 -1.943820E-09  3.478211E-08
        96  16 -2.144441E+05 -7.899755E+04 -4.648277E+04  4.715307E+04 -6.656384E-08 -2.682471E-10
        96  17 -1.786270E+05 -7.089892E+04 -4.169757E+04  4.415403E+04 -2.805677E-08 -9.429381E-09
        96  18 -1.428246E+05 -6.277836E+04 -3.692505E+04  4.723303E+04  1.646137E-08 -1.803667E-08
        96  19  4.842665E+05  7.927418E+04  4.626200E+04  4.808855E+04  6.605724E+03  2.759950E+04
        96  20  4.484483E+05  7.116455E+04  4.163130E+04  4.500966E+04  6.600980E+03  2.474013E+04
        96  21  4.126166E+05  6.307903E+04  3.699737E+04  4.800848E+04  6.596728E+03  2.187769E+04
        96  22  1.348490E+05  1.413101E+02 -1.092404E+02  4.762063E+04  8.574028E+01  2.759009E+04
        96  23  1.348605E+05  1.352292E+02 -3.221957E+01  4.458169E+04  7.414735E+01  2.473013E+04
        96  24  1.348567E+05  1.522268E+02  3.687266E+01  4.762062E+04  6.304636E+01  2.186710E+04
        96  25 -2.144439E+05 -7.899672E+04 -4.648127E+04  4.715293E+04 -6.430748E+03  2.758068E+04
        96  26 -1.786268E+05 -7.089825E+04 -4.169634E+04  4.415390E+04 -6.449545E+03  2.472013E+04
        96  27 -1.428244E+05 -6.277784E+04 -3.692408E+04  4.723291E+04 -6.467850E+03  2.185651E+04
        97   1  3.903975E+05  5.802323E+04  3.395555E+04  4.798423E+04 -6.608452E+03 -2.021060E+04
        97   2  3.545853E+05  4.992251E+04  2.934887E+04  4.489494E+04 -6.686391E+03 -1.734915E+04
        97   3  3.187714E+05  4.186517E+04  2.479629E+04  4.788054E+04 -6.764660E+03 -1.449236E+04
        97   4  1.348621E+05  1.549561E+02  7.371534E+01  4.761999E+04 -7.542740E+01 -2.019972E+04
        97   5  1.348653E+05  1.546466E+02  1.690123E+02  4.458246E+04 -1.641757E+02 -1.733788E+04
        97   6  1.348675E+05  1.996082E+02  3.258079E+02  4.761992E+04 -2.532573E+02 -1.448071E+04
        97   7 -1.206066E+05 -5.771606E+04 -3.380845E+04  4.725588E+04  6.455036E+03 -2.018885E+04
        97   8 -8.480523E+04 -4.961525E+04 -2.901106E+04  4.427006E+04  6.355841E+03 -1.732662E+04
        97   9 -4.900186E+04 -4.146737E+04 -2.414478E+04  4.735937E+04  6.256308E+03 -1.446907E+04
        97  10  3.903973E+05  5.802278E+04  3.395470E+04  4.798412E+04 -8.889471E-09 -1.360377E-08
        97  11  3.545851E+05  4.992218E+04  2.934822E+04  4.489485E+04 -1.296670E-08 -5.374023E-09
        97  12  3.187713E+05  4.186493E+04  2.479581E+04  4.788046E+04 -1.565866E-08  3.943114E-09
        97  13  1.348620E+05  1.545179E+02  7.294851E+01  4.761999E+04  1.577681E-09  3.444963E-08
        97  14  1.348653E+05  1.543238E+02  1.684473E+02  4.458245E+04  3.256397E-09  1.385515E-08
        97  15  1.348674E+05  1.993830E+02  3.254137E+02  4.761992E+04 -1.011215E-09 -8.600735E-09
        97  16 -1.206067E+05 -5.771651E+04 -3.380930E+04  4.725598E+04  1.104264E-08 -1.449477E-08
        97  17 -8.480535E+04 -4.961558E+04 -2.901170E+04  4.427015E+04  1.533753E-08 -1.173437E-08
        97  18 -4.900196E+04 -4.146761E+04 -2.414525E+04  4.735944E+04  1.486310E-08  9.402155E-10
        97  19  3.903975E+05  5.802323E+04  3.395555E+04  4.798423E+04  6.608452E+03  2.021060E+04
        97  20  3.545853E+05  4.992251E+04  2.934887E+04  4.489494E+04  6.686391E+03  1.734915E+04
        97  21  3.187714E+05  4.186517E+04  2.479629E+04  4.788054E+04  6.764660E+03  1.449236E+04
        97  22  1.348621E+05  1.549561E+02  7.371534E+01  4.761999E+04  7.542740E+01  2.019972E+04
        97  23  1.348653E+05  1.546466E+02  1.690123E+02  4.458246E+04  1.641757E+02  1.733788E+04
        97  24  1.348675E+05  1.996082E+02  3.258079E+02  4.761992E+04  2.532573E+02  1.448071E+04
        97  25 -1.206066E+05 -5.771606E+04 -3.380845E+04  4.725588E+04 -6.455036E+03  2.018885E+04
        97  26 -8.480523E+04 -4.961525E+04 -2.901106E+04  4.427006E+04 -6.355841E+03  1.732662E+04
        97  27 -4.900186E+04 -4.146737E+04 -2.414478E+04  4.735937E+04 -6.256308E+03  1.446907E+04
        98   1  2.965754E+05  3.682092E+04  2.182385E+04  4.787113E+04 -6.829836E+03 -1.282993E+04
        98   2  2.607295E+05  2.883106E+04  1.743659E+04  4.461685E+04 -7.142553E+03 -9.995995E+03
        98   3  2.249676E+05  2.111475E+04  1.331302E+04  4.743283E+04 -7.455376E+03 -7.200626E+03
        98   4  1.348908E+05  2.145177E+02  4.381907E+02  4.761896E+04 -3.206636E+02 -1.281810E+04
        98   5  1.348436E+05  3.307414E+02  7.901906E+02  4.458332E+04 -7.215165E+02 -9.984099E+03
        98   6  1.348939E+05  7.357214E+02  1.466810E+03  4.761800E+04 -1.122490E+03 -7.188673E+03
        98   7 -2.676701E+04 -3.639297E+04 -2.094750E+04  4.736684E+04  6.186894E+03 -1.280627E+04
        98   8  8.973976E+03 -2.817022E+04 -1.585617E+04  4.454979E+04  5.698280E+03 -9.972203E+03
        98   9  4.482847E+04 -1.964363E+04 -1.037931E+04  4.780314E+04  5.209521E+03 -7.176715E+03
        98  10  2.965753E+05  3.682073E+04  2.182345E+04  4.787106E+04 -4.661628E-08  7.543578E-09
        98  11  2.607294E+05  2.883094E+04  1.743630E+04  4.461679E+04  3.084626E-08 -1.422788E-09
        98  12  2.249675E+05  2.111468E+04  1.331282E+04  4.743279E+04  1.010381E-07 -2.209468E-09
        98  13  1.348908E+05  2.143413E+02  4.378817E+02  4.761895E+04 -1.672999E-09 -9.794840E-09
        98  14  1.348436E+05  3.306342E+02  7.900022E+02  4.458331E+04 -2.158051E-09  1.057481E-09
        98  15  1.348938E+05  7.356655E+02  1.466711E+03  4.761800E+04 -1.933597E-10  1.048224E-08
        98  16 -2.676709E+04 -3.639315E+04 -2.094788E+04  4.736690E+04  4.390977E-08  3.480671E-09
        98  17  8.973915E+03 -2.817034E+04 -1.585642E+04  4.454984E+04 -3.206653E-08 -8.415775E-10
        98  18  4.482843E+04 -1.964370E+04 -1.037945E+04  4.780317E+04 -1.031540E-07 -1.090217E-08
        98  19  2.965754E+05  3.682092E+04  2.182385E+04  4.787113E+04  6.829836E+03  1.282993E+04
        98  20  2.607295E+05  2.883106E+04  1.743659E+04  4.461685E+04  7.142553E+03  9.995995E+03
        98  21  2.249676E+05  2.111475E+04  1.331302E+04  4.743283E+04  7.455376E+03  7.200626E+03
        98  22  1.348908E+05  2.145177E+02  4.381907E+02  4.761896E+04  3.206636E+02  1.281810E+04
        98  23  1.348436E+05  3.307414E+02  7.901906E+02  4.458332E+04  7.215165E+02  9.984099E+03
        98  24  1.348939E+05  7.357214E+02  1.466810E+03  4.761800E+04  1.122490E+03  7.188673E+03
        98  25 -2.676701E+04 -3.639297E+04 -2.094750E+04  4.736684E+04 -6.186894E+03  1.280627E+04
        98  26  8.973976E+03 -2.817022E+04 -1.585617E+04  4.454979E+04 -5.698280E+03  9.972203E+03
        98  27  4.482847E+04 -1.964363E+04 -1.037931E+04  4.780314E+04 -5.209521E+03  7.176715E+03
        99   1  2.029234E+05  1.623296E+04  1.066571E+04  4.755481E+04 -7.698575E+03 -5.575839E+03
        99   2  1.667163E+05  9.622607E+03  7.285811E+03  4.226464E+04 -8.871494E+03 -2.957329E+03
        99   3  1.313372E+05  5.821830E+03  5.363142E+03  4.301958E+04 -1.004389E+04 -6.384045E+02
        99   4  1.350830E+05  9.276937E+02  1.963765E+03  4.761312E+04 -1.380284E+03 -5.563828E+03
        99   5  1.346104E+05  2.481586E+03  3.627430E+03  4.458496E+04 -3.236498E+03 -2.946598E+03
        99   6  1.350834E+05  6.963853E+03  7.222780E+03  4.760183E+04 -5.092251E+03 -6.289704E+02
        99   7  6.724742E+04 -1.437774E+04 -6.738047E+03  4.767142E+04  4.937350E+03 -5.551815E+03
        99   8  1.025056E+05 -4.659435E+03 -3.082202E+01  4.690516E+04  2.398222E+03 -2.935824E+03
        99   9  1.388297E+05  8.105967E+03  9.082519E+03  5.218409E+04 -1.405828E+02 -6.194632E+02
        99  10  2.029233E+05  1.623291E+04  1.066554E+04  4.755477E+04 -2.930481E-09 -2.116594E-09
        99  11  1.667162E+05  9.622577E+03  7.285646E+03  4.226462E+04 -4.025128E-08 -2.725984E-09
        99  12  1.313371E+05  5.821802E+03  5.362952E+03  4.301958E+04 -6.552135E-08 -6.445614E-10
        99  13  1.350830E+05  9.276599E+02  1.963703E+03  4.761311E+04  1.738005E-09  1.607386E-08
        99  14  1.346104E+05  2.481574E+03  3.627394E+03  4.458496E+04 -3.648817E-11  4.538339E-09
        99  15  1.350834E+05  6.963846E+03  7.222730E+03  4.760182E+04  1.277862E-10  4.200702E-09
        99  16  6.724739E+04 -1.437778E+04 -6.738151E+03  4.767145E+04  3.660909E-09 -4.781812E-09
        99  17  1.025056E+05 -4.659446E+03 -3.084903E+01  4.690516E+04  3.788478E-08 -1.777772E-09
        99  18  1.388297E+05  8.105966E+03  9.082518E+03  5.218409E+04  6.613181E-08  2.744070E-11
        99  19  2.029234E+05  1.623296E+04  1.066571E+04  4.755481E+04  7.698575E+03  5.575839E+03
        99  20  1.667163E+05  9.622607E+03  7.285811E+03  4.226464E+04  8.871494E+03  2.957329E+03
        99  21  1.313372E+05  5.821830E+03  5.363142E+03  4.301958E+04  1.004389E+04  6.384045E+02
        99  22  1.350830E+05  9.276937E+02  1.963765E+03  4.761312E+04  1.380284E+03  5.563828E+03
        99  23  1.346104E+05  2.481586E+03  3.627430E+03  4.458496E+04  3.236498E+03  2.946598E+03
        99  24  1.350834E+05  6.963853E+03  7.222780E+03  4.760183E+04  5.092251E+03  6.289704E+02
        99  25  6.724742E+04 -1.437774E+04 -6.738047E+03  4.767142E+04 -4.937350E+03  5.551815E+03
        99  26  1.025056E+05 -4.659435E+03 -3.082202E+01  4.690516E+04 -2.398222E+03  2.935824E+03
        99  27  1.388297E+05  8.105967E+03  9.082519E+03  5.218409E+04  1.405828E+02  6.194632E+02
       100   1  9.118647E+03  4.060633E+05  1.046763E+04 -4.189511E+04 -5.015731E+02  1.047275E+03
       100   2 -5.295289E+03  3.674809E+05  2.190323E+02 -3.516700E+04 -2.512700E+03 -2.161549E+03
       100   3 -1.540252E+04  3.303753E+05 -6.869699E+03 -3.727690E+04 -4.978673E+03 -5.370545E+03
       100   4  6.799396E+03  3.972459E+05  7.730557E+03 -3.759168E+04 -5.041650E+02  3.964339E+03
       100   5  1.435703E+03  3.965724E+05  4.816116E+03 -3.317552E+04 -2.515923E+03  1.498050E+03
       100   6  2.499995E+02  3.972462E+05  4.546310E+03 -3.759723E+04 -4.982495E+03 -9.685790E+02
       100   7  4.480212E+03  3.884286E+05  4.993519E+03 -3.328830E+04 -5.067164E+02  6.881360E+03
       100   8  8.166675E+03  4.256648E+05  9.413232E+03 -3.118393E+04 -2.519123E+03  5.157814E+03
       100   9  1.590229E+04  4.641215E+05  1.596224E+04 -3.791759E+04 -4.986322E+03  3.433846E+03
       100  10  9.118647E+03  4.060633E+05  1.046763E+04 -4.189511E+04 -5.181504E-11  1.478613E-08
       100  11 -5.295297E+03  3.674809E+05  2.190117E+02 -3.516701E+04  4.236112E-09 -4.927560E-09
       100  12 -1.540255E+04  3.303753E+05 -6.869799E+03 -3.727692E+04  4.257184E-09 -2.142139E-08
       100  13  6.799392E+03  3.972459E+05  7.730527E+03 -3.759168E+04  3.441004E-09 -8.497673E-10
       100  14  1.435696E+03  3.965724E+05  4.816100E+03 -3.317551E+04  4.654672E-09 -7.957611E-10
       100  15  2.499726E+02  3.972462E+05  4.546262E+03 -3.759723E+04 -2.263850E-09 -2.544767E-10
       100  16  4.480199E+03  3.884285E+05  4.993429E+03 -3.328830E+04  2.653905E-09 -1.527109E-08
       100  17  8.166661E+03  4.256648E+05  9.413170E+03 -3.118392E+04  6.798917E-09  1.997984E-09
       100  18  1.590226E+04  4.641215E+05  1.596217E+04 -3.791757E+04  4.764864E-09  1.974302E-08
       100  19  9.118647E+03  4.060633E+05  1.046763E+04 -4.189511E+04  5.015731E+02 -1.047275E+03
       100  20 -5.295289E+03  3.674809E+05  2.190323E+02 -3.516700E+04  2.512700E+03  2.161549E+03
       100  21 -1.540252E+04  3.303753E+05 -6.869699E+03 -3.727690E+04  4.978673E+03  5.370545E+03
       100  22  6.799396E+03  3.972459E+05  7.730557E+03 -3.759168E+04  5.041650E+02 -3.964339E+03
       100  23  1.435703E+03  3.965724E+05  4.816116E+03 -3.317552E+04  2.515923E+03 -1.498050E+03
       100  24  2.499995E+02  3.972462E+05  4.546310E+03 -3.759723E+04  4.982495E+03  9.685790E+02
       100  25  4.480212E+03  3.884286E+05  4.993519E+03 -3.328830E+04  5.067164E+02 -6.881360E+03
       100  26  8.166675E+03  4.256648E+05  9.413232E+03 -3.118393E+04  2.519123E+03 -5.157814E+03
       100  27  1.590229E+04  4.641215E+05  1.596224E+04 -3.791759E+04  4.986322E+03 -3.433846E+03
       101   1 -2.121303E+04  3.053879E+05 -1.091849E+04 -3.805706E+04 -6.589957E+03 -6.167120E+03
       101   2 -3.005661E+04  2.671505E+05 -1.563477E+04 -3.290539E+04 -9.028989E+03 -8.881186E+03
       101   3 -3.725566E+04  2.296636E+05 -1.817771E+04 -3.659361E+04 -1.094773E+04 -1.159448E+04
       101   4  3.146375E+02  3.971451E+05  5.003863E+03 -3.759712E+04 -6.593717E+03 -1.757024E+03
       101   5  3.976674E+02  3.966949E+05  7.137885E+03 -3.317641E+04 -9.031821E+03 -5.321244E+03
       101   6  2.272561E+03  3.971410E+05  1.203492E+04 -3.759543E+04 -1.094969E+04 -8.884848E+03
       101   7  2.184186E+04  4.889107E+05  2.092600E+04 -3.713711E+04 -6.597470E+03  2.653703E+03
       101   8  3.085104E+04  5.262558E+05  2.990998E+04 -3.344749E+04 -9.034656E+03 -1.760581E+03
       101   9  4.179922E+04  5.646457E+05  4.224648E+04 -3.859752E+04 -1.095165E+04 -6.174508E+03
       101  10 -2.121309E+04  3.053878E+05 -1.091864E+04 -3.805709E+04  4.139857E-09  2.614033E-08
       101  11 -3.005672E+04  2.671504E+05 -1.563507E+04 -3.290546E+04  6.547179E-09 -2.091096E-09
       101  12 -3.725582E+04  2.296634E+05 -1.817819E+04 -3.659371E+04  5.221244E-09 -2.729228E-08
       101  13  3.145900E+02  3.971451E+05  5.003775E+03 -3.759713E+04 -4.867127E-09 -1.026304E-09
       101  14  3.975722E+02  3.966948E+05  7.137679E+03 -3.317645E+04 -1.157342E-08 -9.564076E-10
       101  15  2.272412E+03  3.971408E+05  1.203455E+04 -3.759551E+04 -9.221118E-09 -2.438576E-10
       101  16  2.184181E+04  4.889106E+05  2.092590E+04 -3.713710E+04  2.784079E-09 -2.664664E-08
       101  17  3.085095E+04  5.262557E+05  2.990982E+04 -3.344750E+04 -1.957865E-09 -2.598727E-10
       101  18  4.179908E+04  5.646456E+05  4.224619E+04 -3.859757E+04  3.878210E-09  2.590181E-08
       101  19 -2.121303E+04  3.053879E+05 -1.091849E+04 -3.805706E+04  6.589957E+03  6.167120E+03
       101  20 -3.005661E+04  2.671505E+05 -1.563477E+04 -3.290539E+04  9.028989E+03  8.881186E+03
       101  21 -3.725566E+04  2.296636E+05 -1.817771E+04 -3.659361E+04  1.094773E+04  1.159448E+04
       101  22  3.146375E+02  3.971451E+05  5.003863E+03 -3.759712E+04  6.593717E+03  1.757024E+03
       101  23  3.976674E+02  3.966949E+05  7.137885E+03 -3.317641E+04  9.031821E+03  5.321244E+03
       101  24  2.272561E+03  3.971410E+05  1.203492E+04 -3.759543E+04  1.094969E+04  8.884848E+03
       101  25  2.184186E+04  4.889107E+05  2.092600E+04 -3.713711E+04  6.597470E+03 -2.653703E+03
       101  26  3.085104E+04  5.262558E+05  2.990998E+04 -3.344749E+04  9.034656E+03  1.760581E+03
       101  27  4.179922E+04  5.646457E+05  4.224648E+04 -3.859752E+04  1.095165E+04  6.174508E+03
       102   1 -4.424438E+04  2.064297E+05 -1.950698E+04 -4.071662E+04 -1.231735E+04 -1.447783E+04
       102   2 -4.430480E+04  1.646172E+05 -1.771492E+04 -1.896389E+04 -1.118986E+04 -1.807137E+04
       102   3 -1.511417E+04  1.305799E+05 -6.271444E+03 -5.630892E+03 -3.470151E+03 -2.166020E+04
       102   4  1.276229E+03  3.990824E+05  1.553861E+04 -3.750721E+04 -1.231994E+04 -1.093683E+04
       102   5  1.073281E+04  3.942563E+05  2.777874E+04 -3.327902E+04 -1.118365E+04 -2.529504E+04
       102   6  5.130126E+04  3.990672E+05  5.713981E+04 -3.746946E+04 -3.456058E+03 -3.964886E+04
       102   7  4.679480E+04  5.917713E+05  5.058276E+04 -3.429676E+04 -1.232249E+04 -7.394761E+03
       102   8  6.576801E+04  6.239464E+05  7.327010E+04 -4.759954E+04 -1.117711E+04 -3.252133E+04
       102   9  1.177155E+05  6.676235E+05  1.205478E+05 -6.932185E+04 -3.440125E+03 -5.764526E+04
       102  10 -4.424460E+04  2.064294E+05 -1.950766E+04 -4.071677E+04  2.953683E-09  1.648380E-08
       102  11 -4.430502E+04  1.646168E+05 -1.771577E+04 -1.896405E+04  2.225331E-09 -7.245770E-10
       102  12 -1.511431E+04  1.305794E+05 -6.272348E+03 -5.630953E+03  1.116153E-09 -1.492976E-08
       102  13  1.276034E+03  3.990823E+05  1.553810E+04 -3.750732E+04 -7.333593E-09 -9.035424E-10
       102  14  1.073251E+04  3.942556E+05  2.777730E+04 -3.327925E+04 -1.015434E-09 -5.738591E-10
       102  15  5.130082E+04  3.990655E+05  5.713684E+04 -3.746957E+04 -1.274891E-09 -2.297678E-10
       102  16  4.679462E+04  5.917712E+05  5.058237E+04 -3.429683E+04  5.619917E-09 -1.680814E-08
       102  17  6.576759E+04  6.239452E+05  7.326788E+04 -4.759984E+04  5.654589E-09 -1.243762E-09
       102  18  1.177146E+05  6.676199E+05  1.205416E+05 -6.932201E+04  7.037906E-10  1.380898E-08
       102  19 -4.424438E+04  2.064297E+05 -1.950698E+04 -4.071662E+04  1.231735E+04  1.447783E+04
       102  20 -4.430480E+04  1.646172E+05 -1.771492E+04 -1.896389E+04  1.118986E+04  1.807137E+04
       102  21 -1.511417E+04  1.305799E+05 -6.271444E+03 -5.630892E+03  3.470151E+03  2.166020E+04
       102  22  1.276229E+03  3.990824E+05  1.553861E+04 -3.750721E+04  1.231994E+04  1.093683E+04
       102  23  1.073281E+04  3.942563E+05  2.777874E+04 -3.327902E+04  1.118365E+04  2.529504E+04
       102  24  5.130126E+04  3.990672E+05  5.713981E+04 -3.746946E+04  3.456058E+03  3.964886E+04
       102  25  4.679480E+04  5.917713E+05  5.058276E+04 -3.429676E+04  1.232249E+04  7.394761E+03
       102  26  6.576801E+04  6.239464E+05  7.327010E+04 -4.759954E+04  1.117711E+04  3.252133E+04
       102  27  1.177155E+05  6.676235E+05  1.205478E+05 -6.932185E+04  3.440125E+03  5.764526E+04
       103   1  9.063055E+05  3.232181E+05  1.602892E+05  3.380713E+05  6.284629E+04  1.288938E+04
       103   2  8.556775E+05  3.005768E+05  1.143050E+05  3.234602E+05  4.069129E+04 -2.114971E+04
       103   3  8.045872E+05  2.868377E+05  9.182393E+04  3.159013E+05  1.281663E+04 -3.995845E+04
       103   4  2.390058E+05  7.788622E+04 -7.791610E+03  1.596105E+05 -1.565216E+03 -1.133712E+04
       103   5  2.428841E+05  7.955987E+04 -3.728504E+03  1.549977E+05  8.838739E+03 -3.313644E+04
       103   6  2.398553E+05  8.369356E+04 -1.933344E+03  1.574371E+05  1.351593E+04 -3.969967E+04
       103   7 -4.278199E+05 -1.674057E+05 -1.758816E+05 -1.866822E+04 -6.589811E+04 -3.553519E+04
       103   8 -3.695025E+05 -1.414187E+05 -1.217697E+05 -1.330699E+04 -2.297938E+04 -4.511051E+04
       103   9 -3.245350E+05 -1.194177E+05 -9.569790E+04 -8.918873E+02  1.421456E+04 -3.944114E+04
       103  10  9.063012E+05  3.232169E+05  1.602815E+05  3.380707E+05 -1.273504E-08 -4.534613E-09
       103  11  8.556756E+05  3.005759E+05  1.143010E+05  3.234609E+05 -2.523555E-08 -4.543964E-09
       103  12  8.045866E+05  2.868360E+05  9.182062E+04  3.159018E+05 -2.308717E-08 -1.349348E-09
       103  13  2.390058E+05  7.788608E+04 -7.791856E+03  1.596104E+05 -2.196124E-09 -1.654367E-09
       103  14  2.428837E+05  7.955867E+04 -3.730714E+03  1.549980E+05 -1.114749E-08 -9.237662E-09
       103  15  2.398546E+05  8.369182E+04 -1.936649E+03  1.574375E+05  4.819273E-09 -9.323680E-09
       103  16 -4.278249E+05 -1.674082E+05 -1.758921E+05 -1.867010E+04  1.875382E-09  3.136970E-09
       103  17 -3.695036E+05 -1.414210E+05 -1.217746E+05 -1.330782E+04  2.910670E-09  4.643449E-09
       103  18 -3.245357E+05 -1.194194E+05 -9.570120E+04 -8.914357E+02  1.949610E-08  1.262024E-08
       103  19  9.063055E+05  3.232181E+05  1.602892E+05  3.380713E+05 -6.284629E+04 -1.288938E+04
       103  20  8.556775E+05  3.005768E+05  1.143050E+05  3.234602E+05 -4.069129E+04  2.114971E+04
       103  21  8.045872E+05  2.868377E+05  9.182393E+04  3.159013E+05 -1.281663E+04  3.995845E+04
       103  22  2.390058E+05  7.788622E+04 -7.791610E+03  1.596105E+05  1.565216E+03  1.133712E+04
       103  23  2.428841E+05  7.955987E+04 -3.728504E+03  1.549977E+05 -8.838739E+03  3.313644E+04
       103  24  2.398553E+05  8.369356E+04 -1.933344E+03  1.574371E+05 -1.351593E+04  3.969967E+04
       103  25 -4.278199E+05 -1.674057E+05 -1.758816E+05 -1.866822E+04  6.589811E+04  3.553519E+04
       103  26 -3.695025E+05 -1.414187E+05 -1.217697E+05 -1.330699E+04  2.297938E+04  4.511051E+04
       103  27 -3.245350E+05 -1.194177E+05 -9.569790E+04 -8.918873E+02 -1.421456E+04  3.944114E+04
       104   1  7.731525E+05  2.752600E+05  8.474747E+04  3.072523E+05  1.307462E+04 -3.904021E+04
       104   2  7.270870E+05  2.542361E+05  7.352413E+04  2.901255E+05  9.382631E+03 -3.924155E+04
       104   3  6.752897E+05  2.400357E+05  6.487174E+04  2.802790E+05  5.042353E+03 -3.772208E+04
       104   4  2.398965E+05  8.403213E+04 -1.434219E+03  1.576680E+05  1.346243E+04 -3.889836E+04
       104   5  2.431673E+05  8.121615E+04 -7.452789E+02  1.539439E+05  1.344856E+04 -3.771458E+04
       104   6  2.399768E+05  8.449600E+04 -3.973456E+02  1.574997E+05  1.278592E+04 -3.480927E+04
       104   7 -2.930620E+05 -1.071693E+05 -8.762376E+04  8.202103E+03  1.384989E+04 -3.875665E+04
       104   8 -2.405029E+05 -9.178017E+04 -7.501896E+04  1.786116E+04  1.751118E+04 -3.618886E+04
       104   9 -1.951308E+05 -7.102319E+04 -6.566848E+04  3.480145E+04  2.052377E+04 -3.189861E+04
       104  10  7.731519E+05  2.752583E+05  8.474428E+04  3.072527E+05  1.482357E-08  1.270183E-08
       104  11  7.270865E+05  2.542344E+05  7.352107E+04  2.901258E+05  1.605867E-08  1.242985E-08
       104  12  6.752893E+05  2.400341E+05  6.486902E+04  2.802792E+05  1.483953E-08  7.460008E-09
       104  13  2.398959E+05  8.403046E+04 -1.437404E+03  1.576684E+05  6.275480E-09 -1.150534E-08
       104  14  2.431667E+05  8.121458E+04 -7.482921E+02  1.539443E+05 -1.991582E-09 -1.275606E-08
       104  15  2.399763E+05  8.449465E+04 -3.999302E+02  1.575001E+05  1.872584E-09 -2.227825E-09
       104  16 -2.930626E+05 -1.071709E+05 -8.762695E+04  8.202535E+03 -1.063141E-08  2.601985E-09
       104  17 -2.405036E+05 -9.178166E+04 -7.502200E+04  1.786167E+04 -2.114581E-08 -8.227395E-10
       104  18 -1.951316E+05 -7.102440E+04 -6.567119E+04  3.480198E+04 -1.780488E-08 -4.697581E-09
       104  19  7.731525E+05  2.752600E+05  8.474747E+04  3.072523E+05 -1.307462E+04  3.904021E+04
       104  20  7.270870E+05  2.542361E+05  7.352413E+04  2.901255E+05 -9.382631E+03  3.924155E+04
       104  21  6.752897E+05  2.400357E+05  6.487174E+04  2.802790E+05 -5.042353E+03  3.772208E+04
       104  22  2.398965E+05  8.403213E+04 -1.434219E+03  1.576680E+05 -1.346243E+04  3.889836E+04
       104  23  2.431673E+05  8.121615E+04 -7.452789E+02  1.539439E+05 -1.344856E+04  3.771458E+04
       104  24  2.399768E+05  8.449600E+04 -3.973456E+02  1.574997E+05 -1.278592E+04  3.480927E+04
       104  25 -2.930620E+05 -1.071693E+05 -8.762376E+04  8.202103E+03 -1.384989E+04  3.875665E+04
       104  26 -2.405029E+05 -9.178017E+04 -7.501896E+04  1.786116E+04 -1.751118E+04  3.618886E+04
       104  27 -1.951308E+05 -7.102319E+04 -6.566848E+04  3.480145E+04 -2.052377E+04  3.189861E+04
       105   1  6.446859E+05  2.290544E+05  5.995739E+04  2.716900E+05  4.316625E+03 -3.551983E+04
       105   2  5.991434E+05  2.084244E+05  5.250436E+04  2.543056E+05  2.585347E+03 -3.194425E+04
       105   3  5.472527E+05  1.942849E+05  4.532080E+04  2.442474E+05  7.803693E+02 -2.817536E+04
       105   4  2.399821E+05  8.453168E+04 -2.945678E+02  1.575244E+05  1.202274E+04 -3.262039E+04
       105   5  2.432100E+05  8.135365E+04 -1.510314E+02  1.538547E+05  1.070447E+04 -2.888818E+04
       105   6  2.400043E+05  8.458445E+04 -6.573425E+01  1.575110E+05  9.312432E+03 -2.496259E+04
       105   7 -1.645389E+05 -5.997129E+04 -6.054669E+04  4.343025E+04  1.972347E+04 -2.972297E+04
       105   8 -1.125857E+05 -4.570318E+04 -5.280745E+04  5.345826E+04  1.881868E+04 -2.583396E+04
       105   9 -6.714525E+04 -2.510710E+04 -4.545397E+04  7.081395E+04  1.784015E+04 -2.175146E+04
       105  10  6.446855E+05  2.290530E+05  5.995498E+04  2.716902E+05 -5.243571E-09 -4.580608E-10
       105  11  5.991431E+05  2.084233E+05  5.250243E+04  2.543056E+05  2.031291E-09  9.217683E-11
       105  12  5.472525E+05  1.942841E+05  4.531931E+04  2.442474E+05  5.808056E-09  5.636480E-09
       105  13  2.399816E+05  8.453050E+04 -2.968394E+02  1.575247E+05 -8.826562E-10  1.658393E-09
       105  14  2.432097E+05  8.135273E+04 -1.528153E+02  1.538550E+05 -1.838694E-09  7.733425E-10
       105  15  2.400040E+05  8.458376E+04 -6.706841E+01  1.575111E+05  7.447444E-10  2.576088E-09
       105  16 -1.645395E+05 -5.997235E+04 -6.054908E+04  4.343072E+04  4.295790E-09  4.151866E-09
       105  17 -1.125863E+05 -4.570400E+04 -5.280937E+04  5.345865E+04 -5.612253E-09  8.616850E-09
       105  18 -6.714572E+04 -2.510769E+04 -4.545546E+04  7.081426E+04 -6.595241E-09 -1.124141E-09
       105  19  6.446859E+05  2.290544E+05  5.995739E+04  2.716900E+05 -4.316625E+03  3.551983E+04
       105  20  5.991434E+05  2.084244E+05  5.250436E+04  2.543056E+05 -2.585347E+03  3.194425E+04
       105  21  5.472527E+05  1.942849E+05  4.532080E+04  2.442474E+05 -7.803693E+02  2.817536E+04
       105  22  2.399821E+05  8.453168E+04 -2.945678E+02  1.575244E+05 -1.202274E+04  3.262039E+04
       105  23  2.432100E+05  8.135365E+04 -1.510314E+02  1.538547E+05 -1.070447E+04  2.888818E+04
       105  24  2.400043E+05  8.458445E+04 -6.573425E+01  1.575110E+05 -9.312432E+03  2.496259E+04
       105  25 -1.645389E+05 -5.997129E+04 -6.054669E+04  4.343025E+04 -1.972347E+04  2.972297E+04
       105  26 -1.125857E+05 -4.570318E+04 -5.280745E+04  5.345826E+04 -1.881868E+04  2.583396E+04
       105  27 -6.714525E+04 -2.510710E+04 -4.545397E+04  7.081395E+04 -1.784015E+04  2.175146E+04
       106   1  5.167736E+05  1.833756E+05  4.062477E+04  2.356634E+05 -8.339596E+01 -2.583958E+04
       106   2  4.713203E+05  1.628121E+05  3.357419E+04  2.182600E+05 -1.641858E+03 -2.185830E+04
       106   3  4.194488E+05  1.486897E+05  2.656489E+04  2.081863E+05 -3.208404E+03 -1.785710E+04
       106   4  2.400077E+05  8.459086E+04 -3.634612E+01  1.575121E+05  8.442897E+03 -2.262842E+04
       106   5  2.432272E+05  8.138183E+04  1.843630E+01  1.538468E+05  6.926754E+03 -1.863045E+04
       106   6  2.400173E+05  8.460509E+04  8.049471E+01  1.575101E+05  5.402527E+03 -1.461259E+04
       106   7 -3.667470E+04 -1.418535E+04 -4.069784E+04  7.939384E+04  1.696518E+04 -1.941877E+04
       106   8  1.519226E+04 -4.209242E+01 -3.353708E+04  8.945633E+04  1.549199E+04 -1.540388E+04
       106   9  6.062317E+04  2.052496E+04 -2.640326E+04  1.068483E+05  1.401073E+04 -1.136911E+04
       106  10  5.167734E+05  1.833748E+05  4.062352E+04  2.356634E+05 -2.274170E-09  3.004714E-09
       106  11  4.713202E+05  1.628116E+05  3.357329E+04  2.182600E+05  1.045294E-09  2.657310E-09
       106  12  4.194487E+05  1.486893E+05  2.656427E+04  2.081863E+05  3.160402E-09 -4.771811E-10
       106  13  2.400075E+05  8.459029E+04 -3.744247E+01  1.575123E+05 -2.626642E-09  4.519382E-10
       106  14  2.432270E+05  8.138144E+04  1.769377E+01  1.538469E+05  3.878713E-09 -1.032433E-09
       106  15  2.400172E+05  8.460485E+04  8.003853E+01  1.575101E+05  2.079309E-09  1.867822E-09
       106  16 -3.667511E+04 -1.418583E+04 -4.069909E+04  7.939411E+04  3.603710E-09  6.606010E-10
       106  17  1.519194E+04 -4.241171E+01 -3.353798E+04  8.945652E+04 -2.150354E-09 -2.815616E-09
       106  18  6.062293E+04  2.052477E+04 -2.640388E+04  1.068485E+05 -6.856487E-10  8.376091E-10
       106  19  5.167736E+05  1.833756E+05  4.062477E+04  2.356634E+05  8.339596E+01  2.583958E+04
       106  20  4.713203E+05  1.628121E+05  3.357419E+04  2.182600E+05  1.641858E+03  2.185830E+04
       106  21  4.194488E+05  1.486897E+05  2.656489E+04  2.081863E+05  3.208404E+03  1.785710E+04
       106  22  2.400077E+05  8.459086E+04 -3.634612E+01  1.575121E+05 -8.442897E+03  2.262842E+04
       106  23  2.432272E+05  8.138183E+04  1.843630E+01  1.538468E+05 -6.926754E+03  1.863045E+04
       106  24  2.400173E+05  8.460509E+04  8.049471E+01  1.575101E+05 -5.402527E+03  1.461259E+04
       106  25 -3.667470E+04 -1.418535E+04 -4.069784E+04  7.939384E+04 -1.696518E+04  1.941877E+04
       106  26  1.519226E+04 -4.209242E+01 -3.353708E+04  8.945633E+04 -1.549199E+04  1.540388E+04
       106  27  6.062317E+04  2.052496E+04 -2.640326E+04  1.068483E+05 -1.401073E+04  1.136911E+04
       107   1  3.889980E+05  1.377876E+05  2.190962E+04  1.996071E+05 -4.108068E+03 -1.551587E+04
       107   2  3.435637E+05  1.172304E+05  1.496568E+04  1.822118E+05 -5.721995E+03 -1.152647E+04
       107   3  2.917132E+05  1.031115E+05  8.094885E+03  1.721463E+05 -7.332696E+03 -7.546297E+03
       107   4  2.400238E+05  8.460711E+04  1.193136E+02  1.575116E+05  4.501366E+03 -1.227161E+04
       107   5  2.432323E+05  8.138724E+04  2.346474E+02  1.538472E+05  2.867507E+03 -8.289362E+03
       107   6  2.400270E+05  8.460979E+04  4.389819E+02  1.575119E+05  1.236873E+03 -4.316371E+03
       107   7  9.107195E+04  3.142843E+04 -2.167141E+04  1.154253E+05  1.310873E+04 -9.028124E+03
       107   8  1.429113E+05  4.554499E+04 -1.449635E+04  1.254867E+05  1.145560E+04 -5.052788E+03
       107   9  1.883438E+05  6.610838E+04 -7.216641E+03  1.428786E+05  9.805694E+03 -1.086729E+03
       107  10  3.889979E+05  1.377873E+05  2.190914E+04  1.996070E+05 -8.134035E-10  3.756970E-10
       107  11  3.435637E+05  1.172303E+05  1.496537E+04  1.822118E+05 -6.826982E-09 -8.170351E-10
       107  12  2.917131E+05  1.031115E+05  8.094677E+03  1.721463E+05 -1.198558E-08 -3.808565E-09
       107  13  2.400237E+05  8.460694E+04  1.189925E+02  1.575117E+05 -4.931874E-09 -1.706988E-10
       107  14  2.432323E+05  8.138717E+04  2.345028E+02  1.538472E+05 -6.478350E-09  1.967892E-09
       107  15  2.400270E+05  8.460977E+04  4.389440E+02  1.575119E+05 -3.931098E-09  2.037960E-09
       107  16  9.107174E+04  3.142830E+04 -2.167189E+04  1.154254E+05 -5.532359E-09  1.958673E-09
       107  17  1.429112E+05  4.554493E+04 -1.449664E+04  1.254867E+05 -7.034630E-09  1.544378E-09
       107  18  1.883437E+05  6.610836E+04 -7.216824E+03  1.428786E+05  3.663277E-09  6.883016E-09
       107  19  3.889980E+05  1.377876E+05  2.190962E+04  1.996071E+05  4.108068E+03  1.551587E+04
       107  20  3.435637E+05  1.172304E+05  1.496568E+04  1.822118E+05  5.721995E+03  1.152647E+04
       107  21  2.917132E+05  1.031115E+05  8.094885E+03  1.721463E+05  7.332696E+03  7.546297E+03
       107  22  2.400238E+05  8.460711E+04  1.193136E+02  1.575116E+05 -4.501366E+03  1.227161E+04
       107  23  2.432323E+05  8.138724E+04  2.346474E+02  1.538472E+05 -2.867507E+03  8.289362E+03
       107  24  2.400270E+05  8.460979E+04  4.389819E+02  1.575119E+05 -1.236873E+03  4.316371E+03
       107  25  9.107195E+04  3.142843E+04 -2.167141E+04  1.154253E+05 -1.310873E+04  9.028124E+03
       107  26  1.429113E+05  4.554499E+04 -1.449635E+04  1.254867E+05 -1.145560E+04  5.052788E+03
       107  27  1.883438E+05  6.610838E+04 -7.216641E+03  1.428786E+05 -9.805694E+03  1.086729E+03
       108   1  2.612738E+05  9.221808E+04  3.539600E+03  1.635893E+05 -8.299730E+03 -5.239284E+03
       108   2  2.158433E+05  7.164518E+04 -3.125944E+03  1.461605E+05 -1.011862E+04 -1.398253E+03
       108   3  1.640633E+05  5.758918E+04 -9.526448E+03  1.360445E+05 -1.189981E+04  2.343145E+03
       108   4  2.400467E+05  8.460855E+04  5.888352E+02  1.575184E+05  2.714254E+02 -2.008699E+03
       108   5  2.432122E+05  8.140644E+04  1.076883E+03  1.538332E+05 -1.760679E+03  1.751871E+03
       108   6  2.400674E+05  8.476292E+04  1.998493E+03  1.574597E+05 -3.755122E+03  5.412819E+03
       108   7  2.188206E+05  7.699924E+04 -2.361542E+03  1.514479E+05  8.842169E+03  1.221728E+03
       108   8  2.705821E+05  9.116783E+04  5.279998E+03  1.615063E+05  6.597651E+03  4.902141E+03
       108   9  3.160789E+05  1.119377E+05  1.352391E+04  1.788776E+05  4.390717E+03  8.482927E+03
       108  10  2.612737E+05  9.221803E+04  3.539419E+03  1.635892E+05 -3.083887E-08 -7.161283E-09
       108  11  2.158432E+05  7.164515E+04 -3.126140E+03  1.461605E+05 -1.127922E-09  8.542209E-09
       108  12  1.640632E+05  5.758913E+04 -9.526725E+03  1.360446E+05  4.013257E-08  2.096234E-08
       108  13  2.400467E+05  8.460855E+04  5.888274E+02  1.575184E+05 -4.215420E-09  4.634230E-09
       108  14  2.432122E+05  8.140644E+04  1.076871E+03  1.538332E+05  3.382547E-09 -4.967134E-09
       108  15  2.400674E+05  8.476289E+04  1.998412E+03  1.574597E+05  1.996425E-08 -1.167967E-08
       108  16  2.188205E+05  7.699922E+04 -2.361691E+03  1.514479E+05  2.477669E-08  1.454208E-08
       108  17  2.705820E+05  9.116780E+04  5.279871E+03  1.615063E+05 -2.335483E-09  9.179632E-11
       108  18  3.160788E+05  1.119376E+05  1.352373E+04  1.788776E+05 -2.171749E-08 -2.105553E-09
       108  19  2.612738E+05  9.221808E+04  3.539600E+03  1.635893E+05  8.299730E+03  5.239284E+03
       108  20  2.158433E+05  7.164518E+04 -3.125944E+03  1.461605E+05  1.011862E+04  1.398253E+03
       108  21  1.640633E+05  5.758918E+04 -9.526448E+03  1.360445E+05  1.189981E+04 -2.343145E+03
       108  22  2.400467E+05  8.460855E+04  5.888352E+02  1.575184E+05 -2.714254E+02  2.008699E+03
       108  23  2.432122E+05  8.140644E+04  1.076883E+03  1.538332E+05  1.760679E+03 -1.751871E+03
       108  24  2.400674E+05  8.476292E+04  1.998493E+03  1.574597E+05  3.755122E+03 -5.412819E+03
       108  25  2.188206E+05  7.699924E+04 -2.361542E+03  1.514479E+05 -8.842169E+03 -1.221728E+03
       108  26  2.705821E+05  9.116783E+04  5.279998E+03  1.615063E+05 -6.597651E+03 -4.902141E+03
       108  27  3.160789E+05  1.119377E+05  1.352391E+04  1.788776E+05 -4.390717E+03 -8.482927E+03
       109   1  1.336003E+05  4.680272E+04 -1.370118E+04  1.276198E+05 -1.312626E+04  4.456801E+03
       109   2  8.870950E+04  2.604374E+04 -1.945972E+04  1.092046E+05 -1.501677E+04  7.605848E+03
       109   3  3.801302E+04  1.296960E+04 -2.440306E+04  9.773650E+04 -1.657405E+04  9.871509E+03
       109   4  2.402202E+05  8.480939E+04  2.677095E+03  1.574859E+05 -4.963471E+03  7.533143E+03
       109   5  2.431368E+05  8.220124E+04  4.959298E+03  1.534764E+05 -8.741205E+03  9.970487E+03
       109   6  2.406186E+05  8.765097E+04  9.551508E+03  1.564128E+05 -1.218578E+04  1.152456E+04
       109   7  3.468525E+05  1.228173E+05  1.905547E+04  1.873569E+05  3.200791E+03  1.061004E+04
       109   8  3.975888E+05  1.383611E+05  2.937777E+04  1.977584E+05 -2.464027E+03  1.233575E+04
       109   9  4.432654E+05  1.623360E+05  4.350441E+04  2.151064E+05 -7.796041E+03  1.317819E+04
       109  10  1.336001E+05  4.680265E+04 -1.370154E+04  1.276198E+05 -6.308304E-08 -2.144847E-08
       109  11  8.870925E+04  2.604361E+04 -1.946025E+04  1.092047E+05 -4.179814E-08 -2.156537E-08
       109  12  3.801270E+04  1.296942E+04 -2.440376E+04  9.773663E+04  1.583868E-08  5.556004E-09
       109  13  2.402202E+05  8.480932E+04  2.676942E+03  1.574860E+05  1.340346E-08 -1.159412E-08
       109  14  2.431367E+05  8.220112E+04  4.958967E+03  1.534765E+05 -8.164570E-09 -8.271888E-09
       109  15  2.406184E+05  8.765079E+04  9.550979E+03  1.564129E+05  4.391609E-10 -3.400510E-09
       109  16  3.468525E+05  1.228172E+05  1.905524E+04  1.873569E+05  6.803482E-08  3.478498E-08
       109  17  3.975887E+05  1.383609E+05  2.937747E+04  1.977584E+05  7.767420E-09  1.122214E-08
       109  18  4.432653E+05  1.623358E+05  4.350397E+04  2.151065E+05 -2.199942E-08 -9.319195E-09
       109  19  1.336003E+05  4.680272E+04 -1.370118E+04  1.276198E+05  1.312626E+04 -4.456801E+03
       109  20  8.870950E+04  2.604374E+04 -1.945972E+04  1.092046E+05  1.501677E+04 -7.605848E+03
       109  21  3.801302E+04  1.296960E+04 -2.440306E+04  9.773650E+04  1.657405E+04 -9.871509E+03
       109  22  2.402202E+05  8.480939E+04  2.677095E+03  1.574859E+05  4.963471E+03 -7.533143E+03
       109  23  2.431368E+05  8.220124E+04  4.959298E+03  1.534764E+05  8.741205E+03 -9.970487E+03
       109  24  2.406186E+05  8.765097E+04  9.551508E+03  1.564128E+05  1.218578E+04 -1.152456E+04
       109  25  3.468525E+05  1.228173E+05  1.905547E+04  1.873569E+05 -3.200791E+03 -1.061004E+04
       109  26  3.975888E+05  1.383611E+05  2.937777E+04  1.977584E+05  2.464027E+03 -1.233575E+04
       109  27  4.432654E+05  1.623360E+05  4.350441E+04  2.151064E+05  7.796041E+03 -1.317819E+04
       110   1  7.411974E+03  3.652289E+03 -2.724279E+04  9.045456E+04 -1.875148E+04  1.077731E+04
       110   2 -2.844946E+04 -1.929533E+04 -3.121572E+04  5.747539E+04 -1.418646E+04  1.046959E+04
       110   3 -6.417536E+04 -1.890623E+04 -3.327378E+04  2.634785E+04 -6.678913E+03  2.347155E+03
       110   4  2.421279E+05  8.855268E+04  1.287526E+04  1.564941E+05 -1.420539E+04  1.248961E+04
       110   5  2.431501E+05  9.458316E+04  2.477996E+04  1.482759E+05 -2.632528E+04  5.895228E+03
       110   6  2.476081E+05  1.272495E+05  5.181849E+04  1.419099E+05 -3.550376E+04 -8.511890E+03
       110   7  4.769067E+05  1.734603E+05  5.299307E+04  2.225582E+05 -9.657393E+03  1.420264E+04
       110   8  5.148264E+05  2.084748E+05  8.077238E+04  2.391155E+05 -3.846974E+04  1.318015E+03
       110   9  5.594833E+05  2.734258E+05  1.369035E+05  2.575278E+05 -6.434370E+04 -1.938003E+04
       110  10  7.411565E+03  3.652069E+03 -2.724367E+04  9.045473E+04  6.236913E-08  2.474872E-08
       110  11 -2.844971E+04 -1.929550E+04 -3.121630E+04  5.747551E+04  2.584289E-08  9.905393E-09
       110  12 -6.417541E+04 -1.890624E+04 -3.327387E+04  2.634786E+04 -1.111103E-08 -4.994959E-09
       110  13  2.421276E+05  8.855246E+04  1.287458E+04  1.564942E+05  5.423303E-09  1.221876E-10
       110  14  2.431493E+05  9.458294E+04  2.477859E+04  1.482761E+05  3.059302E-09 -8.928977E-09
       110  15  2.476067E+05  1.272491E+05  5.181598E+04  1.419097E+05 -7.100578E-10 -5.249279E-10
       110  16  4.769065E+05  1.734601E+05  5.299252E+04  2.225583E+05 -5.491723E-08 -2.060860E-08
       110  17  5.148248E+05  2.084744E+05  8.076960E+04  2.391155E+05 -2.610354E-08 -1.300654E-08
       110  18  5.594788E+05  2.734243E+05  1.368950E+05  2.575268E+05  8.708007E-09  4.281323E-09
       110  19  7.411974E+03  3.652289E+03 -2.724279E+04  9.045456E+04  1.875148E+04 -1.077731E+04
       110  20 -2.844946E+04 -1.929533E+04 -3.121572E+04  5.747539E+04  1.418646E+04 -1.046959E+04
       110  21 -6.417536E+04 -1.890623E+04 -3.327378E+04  2.634785E+04  6.678913E+03 -2.347155E+03
       110  22  2.421279E+05  8.855268E+04  1.287526E+04  1.564941E+05  1.420539E+04 -1.248961E+04
       110  23  2.431501E+05  9.458316E+04  2.477996E+04  1.482759E+05  2.632528E+04 -5.895228E+03
       110  24  2.476081E+05  1.272495E+05  5.181849E+04  1.419099E+05  3.550376E+04  8.511890E+03
       110  25  4.769067E+05  1.734603E+05  5.299307E+04  2.225582E+05  9.657393E+03 -1.420264E+04
       110  26  5.148264E+05  2.084748E+05  8.077238E+04  2.391155E+05  3.846974E+04 -1.318015E+03
       110  27  5.594833E+05  2.734258E+05  1.369035E+05  2.575278E+05  6.434370E+04  1.938003E+04
       111   1 -2.342509E+05 -1.076729E+06 -2.628354E+05  8.515912E+04 -4.494913E+03 -1.021791E+05
       111   2 -8.241031E+04 -9.686814E+05 -1.598781E+05  2.760302E+04 -1.309940E+04 -6.077762E+04
       111   3 -7.139921E+04 -9.008574E+05 -1.190477E+05  3.223514E+04 -1.008360E+04 -1.935148E+04
       111   4 -1.135576E+05 -5.937845E+05 -1.435491E+05  4.731631E+04 -4.501225E+03 -9.465784E+04
       111   5  1.543244E+04 -5.741915E+05 -6.569158E+04  1.631737E+04 -1.309988E+04 -5.935999E+04
       111   6  4.701807E+03 -5.937391E+05 -4.568592E+04  4.750930E+04 -1.007797E+04 -2.404380E+04
       111   7  7.123625E+03 -1.106248E+05 -2.427915E+04  9.444052E+03 -4.508454E+03 -8.713069E+04
       111   8  1.132644E+05 -1.795584E+05  2.848405E+04  5.024552E+03 -1.310042E+04 -5.794145E+04
       111   9  8.079689E+04 -2.865337E+05  2.766942E+04  6.279108E+04 -1.007257E+04 -2.873842E+04
       111  10 -2.342538E+05 -1.076740E+06 -2.628551E+05  8.515875E+04  1.034753E-09 -8.994147E-10
       111  11 -8.241149E+04 -9.686854E+05 -1.598854E+05  2.760238E+04 -2.483260E-09 -1.568267E-09
       111  12 -7.139942E+04 -9.008578E+05 -1.190486E+05  3.223499E+04 -1.134124E-09 -1.017209E-09
       111  13 -1.135600E+05 -5.937941E+05 -1.435660E+05  4.731596E+04  2.636623E-09  4.405087E-09
       111  14  1.543131E+04 -5.741953E+05 -6.569853E+04  1.631674E+04 -2.538808E-09 -5.250229E-09
       111  15  4.701542E+03 -5.937397E+05 -4.568720E+04  4.750911E+04  9.464350E-10  2.265269E-09
       111  16  7.121565E+03 -1.106330E+05 -2.429345E+04  9.443736E+03  6.195368E-10 -7.627701E-10
       111  17  1.132633E+05 -1.795620E+05  2.847742E+04  5.023941E+03 -1.139580E-11  8.055057E-10
       111  18  8.079656E+04 -2.865346E+05  2.766768E+04  6.279085E+04  3.895249E-10 -7.826080E-10
       111  19 -2.342509E+05 -1.076729E+06 -2.628354E+05  8.515912E+04  4.494913E+03  1.021791E+05
       111  20 -8.241031E+04 -9.686814E+05 -1.598781E+05  2.760302E+04  1.309940E+04  6.077762E+04
       111  21 -7.139921E+04 -9.008574E+05 -1.190477E+05  3.223514E+04  1.008360E+04  1.935148E+04
       111  22 -1.135576E+05 -5.937845E+05 -1.435491E+05  4.731631E+04  4.501225E+03  9.465784E+04
       111  23  1.543244E+04 -5.741915E+05 -6.569158E+04  1.631737E+04  1.309988E+04  5.935999E+04
       111  24  4.701807E+03 -5.937391E+05 -4.568592E+04  4.750930E+04  1.007797E+04  2.404380E+04
       111  25  7.123625E+03 -1.106248E+05 -2.427915E+04  9.444052E+03  4.508454E+03  8.713069E+04
       111  26  1.132644E+05 -1.795584E+05  2.848405E+04  5.024552E+03  1.310042E+04  5.794145E+04
       111  27  8.079689E+04 -2.865337E+05  2.766942E+04  6.279108E+04  1.007257E+04  2.873842E+04
       112   1 -5.917866E+04 -7.809790E+05 -8.697416E+04  5.279555E+04 -6.258128E+03 -1.525836E+04
       112   2 -2.299721E+04 -6.880310E+05 -5.668864E+04  1.623179E+04 -3.472289E+03  1.037066E+03
       112   3 -1.485964E+04 -6.040169E+05 -4.399166E+04  4.271957E+04 -3.621314E+02  1.733446E+04
       112   4 -1.106629E+04 -5.870129E+05 -4.059847E+04  4.763814E+04 -6.256270E+03 -1.665529E+04
       112   5  3.151900E+03 -5.825558E+05 -3.149386E+04  1.611298E+04 -3.470508E+03 -5.275919E+02
       112   6 -1.064136E+04 -5.870090E+05 -3.985792E+04  4.763941E+04 -3.602109E+02  1.559979E+04
       112   7  3.704345E+04 -3.930122E+05  5.774595E+03  4.247911E+04 -6.254390E+03 -1.805265E+04
       112   8  2.930020E+04 -4.770704E+05 -6.299849E+03  1.599414E+04 -3.468727E+03 -2.092514E+03
       112   9 -6.423020E+03 -5.700007E+05 -3.572417E+04  5.255938E+04 -3.583181E+02  1.386506E+04
       112  10 -5.917877E+04 -7.809792E+05 -8.697467E+04  5.279548E+04 -1.714406E-10  1.940791E-09
       112  11 -2.299722E+04 -6.880310E+05 -5.668867E+04  1.623180E+04  1.683388E-09 -5.661481E-10
       112  12 -1.485972E+04 -6.040172E+05 -4.399222E+04  4.271958E+04 -1.842771E-09  3.565236E-10
       112  13 -1.106641E+04 -5.870132E+05 -4.059906E+04  4.763806E+04 -2.100242E-09  2.132833E-09
       112  14  3.151887E+03 -5.825558E+05 -3.149388E+04  1.611298E+04 -2.629351E-09 -2.725777E-09
       112  15 -1.064143E+04 -5.870092E+05 -3.985838E+04  4.763941E+04 -6.654190E-10  7.178098E-10
       112  16  3.704332E+04 -3.930126E+05  5.773908E+03  4.247902E+04 -1.299234E-09 -2.416397E-09
       112  17  2.930019E+04 -4.770704E+05 -6.299880E+03  1.599414E+04 -2.996596E-09 -2.949710E-10
       112  18 -6.423072E+03 -5.700009E+05 -3.572453E+04  5.255938E+04 -1.503872E-09 -8.541798E-10
       112  19 -5.917866E+04 -7.809790E+05 -8.697416E+04  5.279555E+04  6.258128E+03  1.525836E+04
       112  20 -2.299721E+04 -6.880310E+05 -5.668864E+04  1.623179E+04  3.472289E+03 -1.037066E+03
       112  21 -1.485964E+04 -6.040169E+05 -4.399166E+04  4.271957E+04  3.621314E+02 -1.733446E+04
       112  22 -1.106629E+04 -5.870129E+05 -4.059847E+04  4.763814E+04  6.256270E+03  1.665529E+04
       112  23  3.151900E+03 -5.825558E+05 -3.149386E+04  1.611298E+04  3.470508E+03  5.275919E+02
       112  24 -1.064136E+04 -5.870090E+05 -3.985792E+04  4.763941E+04  3.602109E+02 -1.559979E+04
       112  25  3.704345E+04 -3.930122E+05  5.774595E+03  4.247911E+04  6.254390E+03  1.805265E+04
       112  26  2.930020E+04 -4.770704E+05 -6.299849E+03  1.599414E+04  3.468727E+03  2.092514E+03
       112  27 -6.423020E+03 -5.700007E+05 -3.572417E+04  5.255938E+04  3.583181E+02 -1.386506E+04
       113   1  2.837527E+04 -4.970413E+05 -2.152532E+04  6.260699E+04  2.883229E+03  2.643855E+04
       113   2  6.073567E+04 -3.899442E+05 -1.969252E+04  5.528515E+03  6.131283E+03  5.697180E+04
       113   3 -4.147567E+04 -3.202307E+05 -7.133676E+04  1.116165E+04  2.309919E+03  8.750107E+04
       113   4  4.490276E+03 -5.934810E+05 -4.464177E+04  4.761189E+04  2.886364E+03  2.283773E+04
       113   5  1.497446E+04 -5.744723E+05 -6.372563E+04  1.618280E+04  6.132229E+03  5.709141E+04
       113   6 -1.097842E+05 -5.935179E+05 -1.388855E+05  4.746888E+04  2.310266E+03  9.133658E+04
       113   7 -1.939454E+04 -6.899116E+05 -6.775870E+04  3.261914E+04  2.889673E+03  1.923746E+04
       113   8 -3.078879E+04 -7.589689E+05 -1.077611E+05  2.683391E+04  6.133179E+03  5.721097E+04
       113   9 -1.780934E+05 -8.667342E+05 -2.064391E+05  8.376012E+04  2.311063E+03  9.517039E+04
       113  10  2.837508E+04 -4.970421E+05 -2.152665E+04  6.260693E+04 -2.222682E-09  2.632095E-09
       113  11  6.073475E+04 -3.899477E+05 -1.969870E+04  5.528234E+03  9.841229E-10 -3.434885E-10
       113  12 -4.147773E+04 -3.202390E+05 -7.135117E+04  1.116148E+04 -3.572080E-10 -1.402855E-09
       113  13  4.490127E+03 -5.934816E+05 -4.464276E+04  4.761184E+04  3.070073E-09  2.489735E-09
       113  14  1.497354E+04 -5.744758E+05 -6.373183E+04  1.618252E+04  1.430503E-09 -3.953301E-09
       113  15 -1.097865E+05 -5.935268E+05 -1.389012E+05  4.746871E+04  8.991151E-10  7.426440E-10
       113  16 -1.939465E+04 -6.899120E+05 -6.775942E+04  3.261909E+04  1.116385E-09 -3.566096E-09
       113  17 -3.078971E+04 -7.589725E+05 -1.077673E+05  2.683363E+04  1.708515E-09  1.669632E-09
       113  18 -1.780958E+05 -8.667440E+05 -2.064561E+05  8.375994E+04  1.574650E-09 -8.992537E-10
       113  19  2.837527E+04 -4.970413E+05 -2.152532E+04  6.260699E+04 -2.883229E+03 -2.643855E+04
       113  20  6.073567E+04 -3.899442E+05 -1.969252E+04  5.528515E+03 -6.131283E+03 -5.697180E+04
       113  21 -4.147567E+04 -3.202307E+05 -7.133676E+04  1.116165E+04 -2.309919E+03 -8.750107E+04
       113  22  4.490276E+03 -5.934810E+05 -4.464177E+04  4.761189E+04 -2.886364E+03 -2.283773E+04
       113  23  1.497446E+04 -5.744723E+05 -6.372563E+04  1.618280E+04 -6.132229E+03 -5.709141E+04
       113  24 -1.097842E+05 -5.935179E+05 -1.388855E+05  4.746888E+04 -2.310266E+03 -9.133658E+04
       113  25 -1.939454E+04 -6.899116E+05 -6.775870E+04  3.261914E+04 -2.889673E+03 -1.923746E+04
       113  26 -3.078879E+04 -7.589689E+05 -1.077611E+05  2.683391E+04 -6.133179E+03 -5.721097E+04
       113  27 -1.780934E+05 -8.667342E+05 -2.064391E+05  8.376012E+04 -2.311063E+03 -9.517039E+04
       114   1  4.904221E+05  1.691315E+05  1.013790E+05  1.816362E+05  4.752275E+04  1.620220E+04
       114   2  4.736988E+05  9.660270E+04  5.649849E+04  1.806491E+05  3.057915E+04  6.343021E+03
       114   3  4.754606E+05  8.696520E+04  4.079065E+04  1.711987E+05  1.238282E+04 -1.929637E+02
       114   4  3.838710E+05  1.090029E+05  6.878397E+04  1.321034E+05  4.434865E+04  1.500319E+04
       114   5  3.711763E+05  5.191980E+04  2.925665E+04  1.460908E+05  2.964896E+04  5.991726E+03
       114   6  3.765260E+05  5.728855E+04  1.712806E+04  1.516140E+05  1.369611E+04  3.025933E+02
       114   7  2.773333E+05  4.888071E+04  3.618836E+04  8.258034E+04  4.117519E+04  1.380468E+04
       114   8  2.686645E+05  7.238827E+03  2.013996E+03  1.115382E+05  2.871894E+04  5.640519E+03
       114   9  2.776004E+05  2.761166E+04 -6.535336E+03  1.320315E+05  1.500917E+04  7.981059E+02
       114  10  4.904196E+05  1.691306E+05  1.013743E+05  1.816355E+05  6.211044E-09  3.205122E-09
       114  11  4.736978E+05  9.660241E+04  5.649666E+04  1.806489E+05 -2.505220E-09 -1.046861E-08
       114  12  4.754604E+05  8.696515E+04  4.079036E+04  1.711987E+05 -5.396687E-09  5.003407E-10
       114  13  3.838689E+05  1.090021E+05  6.877985E+04  1.321029E+05 -5.816731E-10 -7.233516E-09
       114  14  3.711753E+05  5.191953E+04  2.925493E+04  1.460907E+05  3.568692E-09 -6.006548E-09
       114  15  3.765258E+05  5.728850E+04  1.712770E+04  1.516139E+05  1.540670E-09  1.227785E-09
       114  16  2.773314E+05  4.888005E+04  3.618481E+04  8.257989E+04 -1.709735E-09 -1.973610E-09
       114  17  2.686636E+05  7.238571E+03  2.012387E+03  1.115381E+05  2.442289E-09  3.471861E-09
       114  18  2.776002E+05  2.761160E+04 -6.535760E+03  1.320315E+05  4.927373E-09 -9.426827E-10
       114  19  4.904221E+05  1.691315E+05  1.013790E+05  1.816362E+05 -4.752275E+04 -1.620220E+04
       114  20  4.736988E+05  9.660270E+04  5.649849E+04  1.806491E+05 -3.057915E+04 -6.343021E+03
       114  21  4.754606E+05  8.696520E+04  4.079065E+04  1.711987E+05 -1.238282E+04  1.929637E+02
       114  22  3.838710E+05  1.090029E+05  6.878397E+04  1.321034E+05 -4.434865E+04 -1.500319E+04
       114  23  3.711763E+05  5.191980E+04  2.925665E+04  1.460908E+05 -2.964896E+04 -5.991726E+03
       114  24  3.765260E+05  5.728855E+04  1.712806E+04  1.516140E+05 -1.369611E+04 -3.025933E+02
       114  25  2.773333E+05  4.888071E+04  3.618836E+04  8.258034E+04 -4.117519E+04 -1.380468E+04
       114  26  2.686645E+05  7.238827E+03  2.013996E+03  1.115382E+05 -2.871894E+04 -5.640519E+03
       114  27  2.776004E+05  2.761166E+04 -6.535336E+03  1.320315E+05 -1.500917E+04 -7.981059E+02
       115   1  4.530645E+05  9.441384E+04  3.403171E+04  1.709859E+05  1.080157E+04  1.495870E+02
       115   2  4.415864E+05  8.136827E+04  2.364904E+04  1.646114E+05  6.970805E+03 -7.186468E+02
       115   3  4.268250E+05  7.858924E+04  1.725846E+04  1.634218E+05  3.074032E+03 -1.411771E+03
       115   4  3.743133E+05  6.349478E+04  1.376010E+04  1.479290E+05  1.108245E+04  2.554938E+02
       115   5  3.756707E+05  5.628819E+04  6.867619E+03  1.461237E+05  7.370217E+03 -5.679705E+02
       115   6  3.737215E+05  5.932496E+04  3.873724E+03  1.495031E+05  3.591903E+03 -1.216359E+03
       115   7  2.955681E+05  3.257629E+04 -6.512023E+03  1.248748E+05  1.136328E+04  3.613842E+02
       115   8  3.097594E+05  3.120849E+04 -9.914114E+03  1.276378E+05  7.769582E+03 -4.173126E+02
       115   9  3.206210E+05  4.006091E+04 -9.511173E+03  1.355856E+05  4.109723E+03 -1.020965E+03
       115  10  4.530644E+05  9.441381E+04  3.403149E+04  1.709859E+05  8.216715E-09  6.949233E-09
       115  11  4.415863E+05  8.136826E+04  2.364895E+04  1.646114E+05 -4.190511E-09 -1.877978E-09
       115  12  4.268250E+05  7.858923E+04  1.725843E+04  1.634218E+05 -1.382336E-08 -4.139434E-09
       115  13  3.743131E+05  6.349474E+04  1.375987E+04  1.479290E+05 -4.879316E-09 -3.987309E-09
       115  14  3.756707E+05  5.628818E+04  6.867517E+03  1.461237E+05  3.838176E-09  7.299092E-09
       115  15  3.737215E+05  5.932496E+04  3.873697E+03  1.495031E+05 -4.403685E-09  7.270508E-10
       115  16  2.955679E+05  3.257625E+04 -6.512265E+03  1.248748E+05 -5.936822E-09 -2.910319E-09
       115  17  3.097594E+05  3.120847E+04 -9.914227E+03  1.276378E+05  6.291441E-09 -2.478439E-09
       115  18  3.206210E+05  4.006090E+04 -9.511206E+03  1.355856E+05  1.048215E-08  8.045325E-09
       115  19  4.530645E+05  9.441384E+04  3.403171E+04  1.709859E+05 -1.080157E+04 -1.495870E+02
       115  20  4.415864E+05  8.136827E+04  2.364904E+04  1.646114E+05 -6.970805E+03  7.186468E+02
       115  21  4.268250E+05  7.858924E+04  1.725846E+04  1.634218E+05 -3.074032E+03  1.411771E+03
       115  22  3.743133E+05  6.349478E+04  1.376010E+04  1.479290E+05 -1.108245E+04 -2.554938E+02
       115  23  3.756707E+05  5.628819E+04  6.867619E+03  1.461237E+05 -7.370217E+03  5.679705E+02
       115  24  3.737215E+05  5.932496E+04  3.873724E+03  1.495031E+05 -3.591903E+03  1.216359E+03
       115  25  2.955681E+05  3.257629E+04 -6.512023E+03  1.248748E+05 -1.136328E+04 -3.613842E+02
       115  26  3.097594E+05  3.120849E+04 -9.914114E+03  1.276378E+05 -7.769582E+03  4.173126E+02
       115  27  3.206210E+05  4.006091E+04 -9.511173E+03  1.355856E+05 -4.109723E+03  1.020965E+03
       116   1  4.123994E+05  7.444701E+04  1.281126E+04  1.599412E+05  2.417784E+03 -1.168039E+03
       116   2  4.015441E+05  6.622948E+04  8.053902E+03  1.531367E+05  1.344872E+03 -7.843167E+02
       116   3  3.854272E+05  6.391955E+04  4.004959E+03  1.525306E+05  2.686206E+02 -3.918156E+02
       116   4  3.734927E+05  5.980541E+04  2.981902E+03  1.491836E+05  2.880373E+03 -9.934781E+02
       116   5  3.761012E+05  5.669027E+04  1.604183E+03  1.461456E+05  1.813436E+03 -6.074889E+02
       116   6  3.734470E+05  5.948166E+04  9.302772E+02  1.493059E+05  7.431415E+02 -2.127270E+02
       116   7  3.345873E+05  4.516386E+04 -6.847619E+03  1.384266E+05  3.342931E+03 -8.189288E+02
       116   8  3.506589E+05  4.715108E+04 -4.845601E+03  1.391547E+05  2.281979E+03 -4.306686E+02
       116   9  3.614669E+05  5.504379E+04 -2.144416E+03  1.460814E+05  1.217652E+03 -3.364212E+01
       116  10  4.123994E+05  7.444700E+04  1.281125E+04  1.599412E+05  2.258651E-09 -1.377822E-09
       116  11  4.015441E+05  6.622948E+04  8.053898E+03  1.531367E+05 -2.407727E-09 -1.667907E-09
       116  12  3.854272E+05  6.391954E+04  4.004959E+03  1.525306E+05 -4.757337E-09 -2.776951E-09
       116  13  3.734927E+05  5.980541E+04  2.981885E+03  1.491836E+05 -3.592219E-09 -6.990510E-09
       116  14  3.761012E+05  5.669027E+04  1.604177E+03  1.461456E+05  5.498006E-09 -1.098316E-09
       116  15  3.734470E+05  5.948166E+04  9.302760E+02  1.493059E+05  4.670811E-09  4.946513E-09
       116  16  3.345873E+05  4.516386E+04 -6.847641E+03  1.384266E+05 -9.138427E-09 -2.385876E-09
       116  17  3.506589E+05  4.715108E+04 -4.845611E+03  1.391547E+05 -3.619021E-09  4.043019E-09
       116  18  3.614669E+05  5.504379E+04 -2.144419E+03  1.460814E+05  1.118621E-08  4.420449E-09
       116  19  4.123994E+05  7.444701E+04  1.281126E+04  1.599412E+05 -2.417784E+03  1.168039E+03
       116  20  4.015441E+05  6.622948E+04  8.053902E+03  1.531367E+05 -1.344872E+03  7.843167E+02
       116  21  3.854272E+05  6.391955E+04  4.004959E+03  1.525306E+05 -2.686206E+02  3.918156E+02
       116  22  3.734927E+05  5.980541E+04  2.981902E+03  1.491836E+05 -2.880373E+03  9.934781E+02
       116  23  3.761012E+05  5.669027E+04  1.604183E+03  1.461456E+05 -1.813436E+03  6.074889E+02
       116  24  3.734470E+05  5.948166E+04  9.302772E+02  1.493059E+05 -7.431415E+02  2.127270E+02
       116  25  3.345873E+05  4.516386E+04 -6.847619E+03  1.384266E+05 -3.342931E+03  8.189288E+02
       116  26  3.506589E+05  4.715108E+04 -4.845601E+03  1.391547E+05 -2.281979E+03  4.306686E+02
       116  27  3.614669E+05  5.504379E+04 -2.144416E+03  1.460814E+05 -1.217652E+03  3.364212E+01
       117   1  3.717178E+05  5.886262E+04  2.541621E+02  1.488066E+05 -1.969053E+01 -3.392651E+01
       117   2  3.609449E+05  5.102258E+04 -3.358062E+03  1.419649E+05 -5.323717E+02  5.718056E+02
       117   3  3.447081E+05  4.873177E+04 -6.775981E+03  1.413865E+05 -1.045312E+03  1.178328E+03
       117   4  3.734184E+05  5.951557E+04  7.358463E+02  1.492776E+05  4.519140E+02  1.440623E+02
       117   5  3.761489E+05  5.673026E+04  4.973591E+02  1.461500E+05 -6.024512E+01  7.499834E+02
       117   6  3.734152E+05  5.949406E+04  4.527828E+02  1.492857E+05 -5.726707E+02  1.356694E+03
       117   7  3.751190E+05  6.016851E+04  1.217529E+03  1.497486E+05  9.235181E+02  3.220511E+02
       117   8  3.913531E+05  6.243796E+04  4.352763E+03  1.503352E+05  4.118941E+02  9.281660E+02
       117   9  4.021233E+05  7.025645E+04  7.681512E+03  1.571852E+05 -1.000041E+02  1.535070E+03
       117  10  3.717178E+05  5.886262E+04  2.541621E+02  1.488066E+05 -7.035879E-09  8.778762E-10
       117  11  3.609449E+05  5.102258E+04 -3.358063E+03  1.419649E+05 -9.614793E-11  5.012354E-09
       117  12  3.447081E+05  4.873177E+04 -6.775985E+03  1.413865E+05  3.185926E-09  3.616254E-09
       117  13  3.734184E+05  5.951557E+04  7.358458E+02  1.492776E+05  4.648283E-09  5.506602E-10
       117  14  3.761489E+05  5.673026E+04  4.973581E+02  1.461500E+05  9.449526E-10  2.214061E-09
       117  15  3.734152E+05  5.949406E+04  4.527788E+02  1.492857E+05 -3.429670E-09 -3.518382E-09
       117  16  3.751190E+05  6.016851E+04  1.217527E+03  1.497486E+05  1.385211E-08  6.772071E-09
       117  17  3.913531E+05  6.243796E+04  4.352761E+03  1.503352E+05  1.874433E-09  2.453818E-09
       117  18  4.021233E+05  7.025644E+04  7.681508E+03  1.571852E+05 -7.749272E-09 -5.774462E-09
       117  19  3.717178E+05  5.886262E+04  2.541621E+02  1.488066E+05  1.969053E+01  3.392651E+01
       117  20  3.609449E+05  5.102258E+04 -3.358062E+03  1.419649E+05  5.323717E+02 -5.718056E+02
       117  21  3.447081E+05  4.873177E+04 -6.775981E+03  1.413865E+05  1.045312E+03 -1.178328E+03
       117  22  3.734184E+05  5.951557E+04  7.358463E+02  1.492776E+05 -4.519140E+02 -1.440623E+02
       117  23  3.761489E+05  5.673026E+04  4.973591E+02  1.461500E+05  6.024512E+01 -7.499834E+02
       117  24  3.734152E+05  5.949406E+04  4.527828E+02  1.492857E+05  5.726707E+02 -1.356694E+03
       117  25  3.751190E+05  6.016851E+04  1.217529E+03  1.497486E+05 -9.235181E+02 -3.220511E+02
       117  26  3.913531E+05  6.243796E+04  4.352763E+03  1.503352E+05 -4.118941E+02 -9.281660E+02
       117  27  4.021233E+05  7.025645E+04  7.681512E+03  1.571852E+05  1.000041E+02 -1.535070E+03
       118   1  3.310442E+05  4.360382E+04 -1.030154E+04  1.376550E+05 -1.277888E+03  1.556721E+03
       118   2  3.202314E+05  3.575890E+04 -1.347658E+04  1.307829E+05 -1.891071E+03  2.126955E+03
       118   3  3.039628E+05  3.350216E+04 -1.637671E+04  1.301937E+05 -2.504334E+03  2.697691E+03
       118   4  3.734160E+05  5.949690E+04  4.887415E+02  1.492921E+05 -8.047759E+02  1.735255E+03
       118   5  3.761463E+05  5.672067E+04  6.973326E+02  1.461439E+05 -1.417673E+03  2.305570E+03
       118   6  3.734206E+05  5.953250E+04  1.180576E+03  1.492785E+05 -2.030659E+03  2.876385E+03
       118   7  4.157895E+05  7.539010E+04  1.127888E+04  1.609300E+05 -3.316285E+02  1.913802E+03
       118   8  4.320642E+05  7.768262E+04  1.487096E+04  1.615061E+05 -9.442297E+02  2.484203E+03
       118   9  4.428829E+05  8.556307E+04  1.873740E+04  1.683652E+05 -1.556927E+03  3.055101E+03
       118  10  3.310442E+05  4.360382E+04 -1.030155E+04  1.376550E+05 -3.461429E-09  3.581573E-09
       118  11  3.202314E+05  3.575889E+04 -1.347660E+04  1.307829E+05 -1.278202E-09 -1.997519E-09
       118  12  3.039628E+05  3.350215E+04 -1.637674E+04  1.301937E+05  8.447780E-10 -7.195081E-09
       118  13  3.734160E+05  5.949690E+04  4.887346E+02  1.492921E+05 -1.774368E-09  5.670706E-09
       118  14  3.761463E+05  5.672067E+04  6.973189E+02  1.461439E+05  1.280049E-09 -1.715614E-10
       118  15  3.734206E+05  5.953249E+04  1.180552E+03  1.492785E+05 -3.879320E-10  1.977682E-09
       118  16  4.157895E+05  7.539009E+04  1.127887E+04  1.609300E+05  8.981039E-11  3.092918E-09
       118  17  4.320642E+05  7.768261E+04  1.487095E+04  1.615061E+05  2.232868E-09  1.033342E-08
       118  18  4.428829E+05  8.556306E+04  1.873738E+04  1.683652E+05 -2.434182E-09  5.832050E-10
       118  19  3.310442E+05  4.360382E+04 -1.030154E+04  1.376550E+05  1.277888E+03 -1.556721E+03
       118  20  3.202314E+05  3.575890E+04 -1.347658E+04  1.307829E+05  1.891071E+03 -2.126955E+03
       118  21  3.039628E+05  3.350216E+04 -1.637671E+04  1.301937E+05  2.504334E+03 -2.697691E+03
       118  22  3.734160E+05  5.949690E+04  4.887415E+02  1.492921E+05  8.047759E+02 -1.735255E+03
       118  23  3.761463E+05  5.672067E+04  6.973326E+02  1.461439E+05  1.417673E+03 -2.305570E+03
       118  24  3.734206E+05  5.953250E+04  1.180576E+03  1.492785E+05  2.030659E+03 -2.876385E+03
       118  25  4.157895E+05  7.539010E+04  1.127888E+04  1.609300E+05  3.316285E+02 -1.913802E+03
       118  26  4.320642E+05  7.768262E+04  1.487096E+04  1.615061E+05  9.442297E+02 -2.484203E+03
       118  27  4.428829E+05  8.556307E+04  1.873740E+04  1.683652E+05  1.556927E+03 -3.055101E+03
       119   1  2.902107E+05  2.835972E+04 -1.959751E+04  1.265682E+05 -2.888708E+03  3.023020E+03
       119   2  2.792561E+05  2.034134E+04 -2.181333E+04  1.195257E+05 -4.517950E+03  3.212855E+03
       119   3  2.631750E+05  1.856223E+04 -2.283411E+04  1.186940E+05 -6.142274E+03  3.390057E+03
       119   4  3.734657E+05  5.948171E+04  1.538365E+03  1.493361E+05 -2.409559E+03  3.203757E+03
       119   5  3.760671E+05  5.663919E+04  2.729151E+03  1.461256E+05 -4.047552E+03  3.390247E+03
       119   6  3.735437E+05  6.003767E+04  5.121841E+03  1.491259E+05 -5.680657E+03  3.564093E+03
       119   7  4.567278E+05  9.060427E+04  2.267378E+04  1.721067E+05 -1.930339E+03  3.384521E+03
       119   8  4.728874E+05  9.293774E+04  2.727093E+04  1.727293E+05 -3.577073E+03  3.567669E+03
       119   9  4.839244E+05  1.015139E+05  3.307682E+04  1.795627E+05 -5.218950E+03  3.738163E+03
       119  10  2.902107E+05  2.835971E+04 -1.959755E+04  1.265682E+05  6.662478E-09 -6.278500E-09
       119  11  2.792561E+05  2.034133E+04 -2.181338E+04  1.195258E+05  4.253677E-09 -4.296327E-09
       119  12  2.631750E+05  1.856221E+04 -2.283420E+04  1.186940E+05 -9.675900E-09 -2.836318E-09
       119  13  3.734657E+05  5.948170E+04  1.538335E+03  1.493361E+05  1.105428E-09 -3.164000E-09
       119  14  3.760671E+05  5.663918E+04  2.729099E+03  1.461256E+05  4.874798E-09  5.557926E-09
       119  15  3.735437E+05  6.003765E+04  5.121757E+03  1.491259E+05 -6.653878E-09 -1.950856E-09
       119  16  4.567278E+05  9.060426E+04  2.267375E+04  1.721067E+05 -3.743924E-09  4.874607E-09
       119  17  4.728874E+05  9.293772E+04  2.727088E+04  1.727293E+05  4.140798E-10  2.248969E-09
       119  18  4.839244E+05  1.015139E+05  3.307674E+04  1.795627E+05  2.175239E-10  9.061022E-09
       119  19  2.902107E+05  2.835972E+04 -1.959751E+04  1.265682E+05  2.888708E+03 -3.023020E+03
       119  20  2.792561E+05  2.034134E+04 -2.181333E+04  1.195257E+05  4.517950E+03 -3.212855E+03
       119  21  2.631750E+05  1.856223E+04 -2.283411E+04  1.186940E+05  6.142274E+03 -3.390057E+03
       119  22  3.734657E+05  5.948171E+04  1.538365E+03  1.493361E+05  2.409559E+03 -3.203757E+03
       119  23  3.760671E+05  5.663919E+04  2.729151E+03  1.461256E+05  4.047552E+03 -3.390247E+03
       119  24  3.735437E+05  6.003767E+04  5.121841E+03  1.491259E+05  5.680657E+03 -3.564093E+03
       119  25  4.567278E+05  9.060427E+04  2.267378E+04  1.721067E+05  1.930339E+03 -3.384521E+03
       119  26  4.728874E+05  9.293774E+04  2.727093E+04  1.727293E+05  3.577073E+03 -3.567669E+03
       119  27  4.839244E+05  1.015139E+05  3.307682E+04  1.795627E+05  5.218950E+03 -3.738163E+03
       120   1  2.488299E+05  1.343614E+04 -2.488251E+04  1.164779E+05 -7.342788E+03  3.448634E+03
       120   2  2.377395E+05  3.737697E+03 -2.316908E+04  1.076500E+05 -1.348055E+04  1.908535E+03
       120   3  2.248483E+05  7.746460E+03 -1.487907E+04  1.033129E+05 -1.951470E+04  9.443347E+01
       120   4  3.739359E+05  5.921425E+04  6.665140E+03  1.496825E+05 -6.793737E+03  3.655623E+03
       120   5  3.753274E+05  5.593805E+04  1.183261E+04  1.460809E+05 -1.311766E+04  2.045233E+03
       120   6  3.749543E+05  6.640446E+04  2.372300E+04  1.469699E+05 -1.933814E+04  1.607747E+02
       120   7  4.990566E+05  1.049930E+05  3.821142E+04  1.828929E+05 -6.244566E+03  3.862655E+03
       120   8  5.129339E+05  1.081398E+05  4.683278E+04  1.845196E+05 -1.275468E+04  2.181966E+03
       120   9  5.250828E+05  1.250647E+05  6.232337E+04  1.906369E+05 -1.916153E+04  2.271358E+02
       120  10  2.488298E+05  1.343611E+04 -2.488264E+04  1.164780E+05 -3.603928E-09  9.316026E-10
       120  11  2.377393E+05  3.737644E+03 -2.316943E+04  1.076501E+05 -4.058358E-09 -2.167972E-10
       120  12  2.248479E+05  7.746358E+03 -1.487979E+04  1.033129E+05 -6.643535E-09 -5.149878E-09
       120  13  3.739358E+05  5.921423E+04  6.665029E+03  1.496825E+05 -8.191394E-09 -6.482189E-09
       120  14  3.753273E+05  5.593800E+04  1.183228E+04  1.460809E+05 -4.347557E-10  2.452024E-09
       120  15  3.749539E+05  6.640436E+04  2.372229E+04  1.469699E+05 -1.388596E-09 -3.626927E-09
       120  16  4.990566E+05  1.049930E+05  3.821132E+04  1.828929E+05 -7.433772E-09 -3.061723E-09
       120  17  5.129337E+05  1.081397E+05  4.683247E+04  1.845196E+05  3.718325E-09 -2.933710E-09
       120  18  5.250824E+05  1.250646E+05  6.232268E+04  1.906369E+05  4.247437E-09 -4.108236E-09
       120  19  2.488299E+05  1.343614E+04 -2.488251E+04  1.164779E+05  7.342788E+03 -3.448634E+03
       120  20  2.377395E+05  3.737697E+03 -2.316908E+04  1.076500E+05  1.348055E+04 -1.908535E+03
       120  21  2.248483E+05  7.746460E+03 -1.487907E+04  1.033129E+05  1.951470E+04 -9.443347E+01
       120  22  3.739359E+05  5.921425E+04  6.665140E+03  1.496825E+05  6.793737E+03 -3.655623E+03
       120  23  3.753274E+05  5.593805E+04  1.183261E+04  1.460809E+05  1.311766E+04 -2.045233E+03
       120  24  3.749543E+05  6.640446E+04  2.372300E+04  1.469699E+05  1.933814E+04 -1.607747E+02
       120  25  4.990566E+05  1.049930E+05  3.821142E+04  1.828929E+05  6.244566E+03 -3.862655E+03
       120  26  5.129339E+05  1.081398E+05  4.683278E+04  1.845196E+05  1.275468E+04 -2.181966E+03
       120  27  5.250828E+05  1.250647E+05  6.232337E+04  1.906369E+05  1.916153E+04 -2.271358E+02
       121   1  2.035881E+05  2.832498E+03 -1.241467E+04  1.183300E+05 -2.551092E+04 -9.501103E+02
       121   2  1.957748E+05 -2.673228E+04  4.752272E+03  8.784411E+04 -4.932942E+04 -9.852884E+03
       121   3  2.222981E+05  4.682776E+04  6.638376E+04  3.834949E+04 -7.118118E+04 -2.397355E+04
       121   4  3.787703E+05  5.570391E+04  2.953217E+04  1.533240E+05 -2.371200E+04 -2.716197E+02
       121   5  3.675814E+05  4.840008E+04  5.044691E+04  1.460193E+05 -5.105763E+04 -1.050533E+04
       121   6  3.914146E+05  1.448995E+05  1.186108E+05  1.197094E+05 -7.643664E+04 -2.595834E+04
       121   7  5.539830E+05  1.085752E+05  7.147703E+04  1.883259E+05 -2.191251E+04  4.069893E+02
       121   8  5.394162E+05  1.235370E+05  9.613870E+04  2.042097E+05 -5.278635E+04 -1.115804E+04
       121   9  5.605595E+05  2.429857E+05  1.708346E+05  2.010921E+05 -8.169359E+04 -2.794442E+04
       121  10  2.035874E+05  2.832323E+03 -1.241590E+04  1.183300E+05  2.262602E-10 -9.935642E-10
       121  11  1.957722E+05 -2.673303E+04  4.747519E+03  8.784372E+04  1.603589E-09  9.466373E-10
       121  12  2.222925E+05  4.682579E+04  6.637316E+04  3.834812E+04  1.075311E-09  5.740358E-09
       121  13  3.787697E+05  5.570376E+04  2.953111E+04  1.533240E+05 -2.019771E-09 -1.035096E-08
       121  14  3.675786E+05  4.839926E+04  5.044180E+04  1.460188E+05 -3.068869E-09 -9.082892E-10
       121  15  3.914082E+05  1.448972E+05  1.185986E+05  1.197078E+05 -2.102671E-09 -1.043328E-09
       121  16  5.539825E+05  1.085751E+05  7.147612E+04  1.883259E+05 -5.499016E-09 -6.860522E-09
       121  17  5.394131E+05  1.235362E+05  9.613323E+04  2.042092E+05 -5.036657E-09 -9.439544E-09
       121  18  5.605522E+05  2.429831E+05  1.708206E+05  2.010902E+05 -1.660596E-09 -2.651622E-09
       121  19  2.035881E+05  2.832498E+03 -1.241467E+04  1.183300E+05  2.551092E+04  9.501103E+02
       121  20  1.957748E+05 -2.673228E+04  4.752272E+03  8.784411E+04  4.932942E+04  9.852884E+03
       121  21  2.222981E+05  4.682776E+04  6.638376E+04  3.834949E+04  7.118118E+04  2.397355E+04
       121  22  3.787703E+05  5.570391E+04  2.953217E+04  1.533240E+05  2.371200E+04  2.716197E+02
       121  23  3.675814E+05  4.840008E+04  5.044691E+04  1.460193E+05  5.105763E+04  1.050533E+04
       121  24  3.914146E+05  1.448995E+05  1.186108E+05  1.197094E+05  7.643664E+04  2.595834E+04
       121  25  5.539830E+05  1.085752E+05  7.147703E+04  1.883259E+05  2.191251E+04 -4.069893E+02
       121  26  5.394162E+05  1.235370E+05  9.613870E+04  2.042097E+05  5.278635E+04  1.115804E+04
       121  27  5.605595E+05  2.429857E+05  1.708346E+05  2.010921E+05  8.169359E+04  2.794442E+04
       122   1 -3.046657E+02 -5.220540E+05 -2.611358E+03 -1.943784E+02 -5.907736E+01  1.868022E+02
       122   2 -6.971316E+02 -5.238747E+05 -3.612055E+03  3.557605E+02 -1.156400E+02  1.597024E+03
       122   3 -1.830252E+03 -5.260693E+05 -5.717649E+03 -4.063185E+02 -2.010751E+02  3.007217E+03
       122   4 -1.541201E+01 -5.208815E+05 -2.340034E+03 -2.913770E+02 -5.911228E+01  2.098223E+02
       122   5  9.015225E+01 -5.206933E+05 -2.858705E+03  3.643285E+02 -1.156999E+02  1.636670E+03
       122   6 -5.478156E+02 -5.208819E+05 -4.493813E+03 -2.921821E+02 -2.011596E+02  3.063493E+03
       122   7  2.738416E+02 -5.197090E+05 -2.068710E+03 -3.883758E+02 -5.914721E+01  2.328425E+02
       122   8  8.774354E+02 -5.175119E+05 -2.105356E+03  3.728966E+02 -1.157599E+02  1.676316E+03
       122   9  7.346193E+02 -5.156944E+05 -3.269979E+03 -1.780447E+02 -2.012440E+02  3.119770E+03
       122  10 -3.046657E+02 -5.220540E+05 -2.611358E+03 -1.943784E+02  5.012917E-09  8.361543E-09
       122  11 -6.971323E+02 -5.238747E+05 -3.612060E+03  3.557606E+02 -1.277270E-09  5.413157E-09
       122  12 -1.830255E+03 -5.260694E+05 -5.717666E+03 -4.063180E+02  1.409609E-09 -8.372950E-10
       122  13 -1.541203E+01 -5.208815E+05 -2.340034E+03 -2.913770E+02 -1.552467E-09 -9.955020E-10
       122  14  9.015152E+01 -5.206933E+05 -2.858710E+03  3.643287E+02  3.176522E-11  1.573574E-09
       122  15 -5.478181E+02 -5.208819E+05 -4.493831E+03 -2.921816E+02 -1.132298E-09 -5.659284E-09
       122  16  2.738416E+02 -5.197090E+05 -2.068710E+03 -3.883758E+02  1.213555E-09 -8.359176E-09
       122  17  8.774347E+02 -5.175119E+05 -2.105361E+03  3.728968E+02  1.216923E-09 -4.553522E-09
       122  18  7.346167E+02 -5.156944E+05 -3.269997E+03 -1.780442E+02 -1.281481E-09  1.342277E-09
       122  19 -3.046657E+02 -5.220540E+05 -2.611358E+03 -1.943784E+02  5.907736E+01 -1.868022E+02
       122  20 -6.971316E+02 -5.238747E+05 -3.612055E+03  3.557605E+02  1.156400E+02 -1.597024E+03
       122  21 -1.830252E+03 -5.260693E+05 -5.717649E+03 -4.063185E+02  2.010751E+02 -3.007217E+03
       122  22 -1.541201E+01 -5.208815E+05 -2.340034E+03 -2.913770E+02  5.911228E+01 -2.098223E+02
       122  23  9.015225E+01 -5.206933E+05 -2.858705E+03  3.643285E+02  1.156999E+02 -1.636670E+03
       122  24 -5.478156E+02 -5.208819E+05 -4.493813E+03 -2.921821E+02  2.011596E+02 -3.063493E+03
       122  25  2.738416E+02 -5.197090E+05 -2.068710E+03 -3.883758E+02  5.914721E+01 -2.328425E+02
       122  26  8.774354E+02 -5.175119E+05 -2.105356E+03  3.728966E+02  1.157599E+02 -1.676316E+03
       122  27  7.346193E+02 -5.156944E+05 -3.269979E+03 -1.780447E+02  2.012440E+02 -3.119770E+03
       123   1 -1.545060E+03 -5.288604E+05 -7.388712E+03  6.293347E+02 -2.609852E+02  3.899315E+03
       123   2 -1.596719E+03 -5.296524E+05 -1.146980E+04 -9.463213E+01 -3.510838E+02  8.611772E+03
       123   3 -8.843107E+03 -5.328625E+05 -2.042048E+04 -2.130072E+03 -4.158601E+02  1.332423E+04
       123   4  3.217897E+02 -5.213346E+05 -5.601146E+03 -2.885526E+02 -2.610739E+02  3.954408E+03
       123   5  7.586319E+02 -5.201282E+05 -9.214477E+03  3.624397E+02 -3.511380E+02  8.652342E+03
       123   6 -5.996672E+03 -5.213372E+05 -1.768726E+04 -2.980420E+02 -4.158591E+02  1.335030E+04
       123   7  2.188638E+03 -5.138089E+05 -3.813583E+03 -1.206451E+03 -2.611628E+02  4.009501E+03
       123   8  3.113977E+03 -5.106039E+05 -6.959163E+03  8.195186E+02 -3.511922E+02  8.692912E+03
       123   9 -3.150233E+03 -5.098117E+05 -1.495404E+04  1.534022E+03 -4.158579E+02  1.337636E+04
       123  10 -1.545064E+03 -5.288604E+05 -7.388741E+03  6.293355E+02  2.466751E-09  4.750720E-09
       123  11 -1.596739E+03 -5.296525E+05 -1.146994E+04 -9.462970E+01  6.917465E-09  1.319999E-09
       123  12 -8.843155E+03 -5.328627E+05 -2.042082E+04 -2.130067E+03 -1.718416E-09 -1.960593E-09
       123  13  3.217854E+02 -5.213347E+05 -5.601175E+03 -2.885518E+02  3.375152E-09  2.121685E-09
       123  14  7.586117E+02 -5.201283E+05 -9.214618E+03  3.624421E+02 -4.224429E-10 -1.787609E-09
       123  15 -5.996720E+03 -5.213374E+05 -1.768759E+04 -2.980375E+02 -3.987357E-09 -4.722688E-09
       123  16  2.188634E+03 -5.138089E+05 -3.813614E+03 -1.206450E+03 -8.598759E-11 -8.017376E-09
       123  17  3.113957E+03 -5.106039E+05 -6.959305E+03  8.195210E+02  9.670218E-11 -5.151370E-09
       123  18 -3.150282E+03 -5.098119E+05 -1.495437E+04  1.534026E+03 -3.937819E-09  5.240082E-09
       123  19 -1.545060E+03 -5.288604E+05 -7.388712E+03  6.293347E+02  2.609852E+02 -3.899315E+03
       123  20 -1.596719E+03 -5.296524E+05 -1.146980E+04 -9.463213E+01  3.510838E+02 -8.611772E+03
       123  21 -8.843107E+03 -5.328625E+05 -2.042048E+04 -2.130072E+03  4.158601E+02 -1.332423E+04
       123  22  3.217897E+02 -5.213346E+05 -5.601146E+03 -2.885526E+02  2.610739E+02 -3.954408E+03
       123  23  7.586319E+02 -5.201282E+05 -9.214477E+03  3.624397E+02  3.511380E+02 -8.652342E+03
       123  24 -5.996672E+03 -5.213372E+05 -1.768726E+04 -2.980420E+02  4.158591E+02 -1.335030E+04
       123  25  2.188638E+03 -5.138089E+05 -3.813583E+03 -1.206451E+03  2.611628E+02 -4.009501E+03
       123  26  3.113977E+03 -5.106039E+05 -6.959163E+03  8.195186E+02  3.511922E+02 -8.692912E+03
       123  27 -3.150233E+03 -5.098117E+05 -1.495404E+04  1.534022E+03  4.158579E+02 -1.337636E+04
       124   1 -3.683830E+01 -5.393457E+05 -2.500601E+04  8.643655E+03 -5.281370E+02  1.651699E+04
       124   2  3.681840E+03 -5.307115E+05 -3.884302E+04 -6.268003E+03 -6.117210E+02  3.564378E+04
       124   3 -6.791996E+04 -5.434084E+05 -8.397041E+04 -2.253630E+04 -2.707251E+02  5.477094E+04
       124   4  3.415207E+03 -5.255274E+05 -2.173155E+04 -2.716884E+02 -5.286038E+02  1.667104E+04
       124   5  7.572510E+03 -5.148915E+05 -3.509997E+04  3.572658E+02 -6.112037E+02  3.555330E+04
       124   6 -6.354806E+04 -5.255442E+05 -7.958841E+04 -3.709830E+02 -2.682702E+02  5.443601E+04
       124   7  6.867537E+03 -5.117088E+05 -1.845706E+04 -9.187231E+03 -5.290750E+02  1.682508E+04
       124   8  1.146333E+04 -4.990712E+05 -3.135690E+04  6.982704E+03 -6.106884E+02  3.546282E+04
       124   9 -5.917433E+04 -5.076786E+05 -7.520617E+04  2.179497E+04 -2.658393E+02  5.410106E+04
       124  10 -3.691191E+01 -5.393460E+05 -2.500653E+04  8.643662E+03  1.600362E-09  6.524086E-09
       124  11  3.681498E+03 -5.307129E+05 -3.884541E+04 -6.267985E+03  4.594277E-09  4.053327E-09
       124  12 -6.792077E+04 -5.434116E+05 -8.397606E+04 -2.253628E+04  1.407981E-09 -1.052642E-09
       124  13  3.415132E+03 -5.255277E+05 -2.173207E+04 -2.716813E+02 -1.306437E-09  3.268138E-09
       124  14  7.572170E+03 -5.148929E+05 -3.510234E+04  3.572833E+02 -1.808918E-09 -1.245988E-09
       124  15 -6.354885E+04 -5.255473E+05 -7.959399E+04 -3.709713E+02 -6.968624E-10 -5.265483E-09
       124  16  6.867461E+03 -5.117091E+05 -1.845759E+04 -9.187224E+03 -3.427156E-09 -4.895167E-09
       124  17  1.146299E+04 -4.990726E+05 -3.135927E+04  6.982722E+03 -1.425518E-09 -4.322148E-10
       124  18 -5.917511E+04 -5.076817E+05 -7.521168E+04  2.179498E+04  7.946092E-10  1.917477E-09
       124  19 -3.683830E+01 -5.393457E+05 -2.500601E+04  8.643655E+03  5.281370E+02 -1.651699E+04
       124  20  3.681840E+03 -5.307115E+05 -3.884302E+04 -6.268003E+03  6.117210E+02 -3.564378E+04
       124  21 -6.791996E+04 -5.434084E+05 -8.397041E+04 -2.253630E+04  2.707251E+02 -5.477094E+04
       124  22  3.415207E+03 -5.255274E+05 -2.173155E+04 -2.716884E+02  5.286038E+02 -1.667104E+04
       124  23  7.572510E+03 -5.148915E+05 -3.509997E+04  3.572658E+02  6.112037E+02 -3.555330E+04
       124  24 -6.354806E+04 -5.255442E+05 -7.958841E+04 -3.709830E+02  2.682702E+02 -5.443601E+04
       124  25  6.867537E+03 -5.117088E+05 -1.845706E+04 -9.187231E+03  5.290750E+02 -1.682508E+04
       124  26  1.146333E+04 -4.990712E+05 -3.135690E+04  6.982704E+03  6.106884E+02 -3.546282E+04
       124  27 -5.917433E+04 -5.076786E+05 -7.520617E+04  2.179497E+04  2.658393E+02 -5.410106E+04
       125   1 -6.072359E+06 -1.939373E+06 -9.641100E+05 -2.216675E+06 -3.603388E+05 -8.320254E+04
       125   2 -5.893270E+06 -1.673578E+06 -6.880584E+05 -2.150563E+06 -2.365258E+05  8.904867E+04
       125   3 -5.748753E+06 -1.556732E+06 -5.676531E+05 -2.094473E+06 -8.189521E+04  1.806471E+05
       125   4 -3.121545E+06 -7.327137E+05 -1.798396E+05 -1.313798E+06 -1.337685E+05  2.838588E+03
       125   5 -3.106287E+06 -6.010425E+05 -8.287354E+04 -1.334996E+06 -1.319104E+05  1.286517E+05
       125   6 -3.100991E+06 -5.936539E+05 -4.386291E+04 -1.366283E+06 -9.937316E+04  1.739410E+05
       125   7 -1.621065E+05  4.749418E+05  6.038712E+05 -4.068361E+05  9.398915E+04  8.941215E+04
       125   8 -3.112983E+05  4.723164E+05  5.218966E+05 -5.159559E+05 -2.678333E+04  1.684655E+05
       125   9 -4.458753E+05  3.700330E+05  4.796116E+05 -6.351907E+05 -1.169321E+05  1.672053E+05
       125  10 -6.072501E+06 -1.939415E+06 -9.643698E+05 -2.216699E+06 -2.837199E-09  1.429644E-09
       125  11 -5.893332E+06 -1.673602E+06 -6.881790E+05 -2.150546E+06  1.417864E-09  8.978508E-11
       125  12 -5.748768E+06 -1.556769E+06 -5.677269E+05 -2.094461E+06  6.700924E-09 -3.760720E-10
       125  13 -3.121564E+06 -7.327186E+05 -1.798734E+05 -1.313797E+06  1.954369E-09  3.890657E-10
       125  14 -3.106311E+06 -6.010649E+05 -8.293731E+04 -1.334982E+06 -2.340143E-09  4.587046E-09
       125  15 -3.101009E+06 -5.936890E+05 -4.393820E+04 -1.366269E+06 -1.896234E-09  6.682892E-10
       125  16 -1.621181E+05  4.749308E+05  6.038395E+05 -4.068428E+05  2.066730E-10  2.049926E-09
       125  17 -3.113067E+05  4.722858E+05  5.218420E+05 -5.159523E+05 -5.046194E-09 -2.181381E-09
       125  18 -4.458974E+05  3.699994E+05  4.795335E+05 -6.351750E+05 -6.836474E-09  6.932369E-11
       125  19 -6.072359E+06 -1.939373E+06 -9.641100E+05 -2.216675E+06  3.603388E+05  8.320254E+04
       125  20 -5.893270E+06 -1.673578E+06 -6.880584E+05 -2.150563E+06  2.365258E+05 -8.904867E+04
       125  21 -5.748753E+06 -1.556732E+06 -5.676531E+05 -2.094473E+06  8.189521E+04 -1.806471E+05
       125  22 -3.121545E+06 -7.327137E+05 -1.798396E+05 -1.313798E+06  1.337685E+05 -2.838588E+03
       125  23 -3.106287E+06 -6.010425E+05 -8.287354E+04 -1.334996E+06  1.319104E+05 -1.286517E+05
       125  24 -3.100991E+06 -5.936539E+05 -4.386291E+04 -1.366283E+06  9.937316E+04 -1.739410E+05
       125  25 -1.621065E+05  4.749418E+05  6.038712E+05 -4.068361E+05 -9.398915E+04 -8.941215E+04
       125  26 -3.112983E+05  4.723164E+05  5.218966E+05 -5.159559E+05  2.678333E+04 -1.684655E+05
       125  27 -4.458753E+05  3.700330E+05  4.796116E+05 -6.351907E+05  1.169321E+05 -1.672053E+05
       126   1 -5.603680E+06 -1.522459E+06 -5.293693E+05 -2.066654E+06 -8.759294E+04  1.701846E+05
       126   2 -5.429377E+06 -1.425758E+06 -4.668351E+05 -1.993621E+06 -6.721826E+04  1.713588E+05
       126   3 -5.224016E+06 -1.370009E+06 -4.193175E+05 -1.959105E+06 -4.453450E+04  1.663743E+05
       126   4 -3.094690E+06 -5.979160E+05 -3.334060E+04 -1.363742E+06 -9.163669E+04  1.685741E+05
       126   5 -3.110499E+06 -5.751030E+05 -1.769355E+04 -1.345644E+06 -8.055189E+04  1.662495E+05
       126   6 -3.093421E+06 -5.913639E+05 -9.619614E+03 -1.366066E+06 -6.716891E+04  1.577766E+05
       126   7 -5.791197E+05  3.272095E+05  4.623962E+05 -6.581641E+05 -9.569817E+04  1.669571E+05
       126   8 -7.859905E+05  2.760471E+05  4.312110E+05 -6.953984E+05 -9.393936E+04  1.611200E+05
       126   9 -9.580798E+05  1.876905E+05  3.998811E+05 -7.711249E+05 -8.988710E+04  1.491475E+05
       126  10 -5.603696E+06 -1.522492E+06 -5.294380E+05 -2.066642E+06  3.673456E-09  9.459187E-10
       126  11 -5.429389E+06 -1.425791E+06 -4.668986E+05 -1.993612E+06  1.215322E-08  6.912180E-09
       126  12 -5.224025E+06 -1.370039E+06 -4.193731E+05 -1.959099E+06  2.663428E-08  1.193988E-08
       126  13 -3.094706E+06 -5.979487E+05 -3.340966E+04 -1.363729E+06 -1.229593E-09  1.330339E-09
       126  14 -3.110513E+06 -5.751344E+05 -1.775757E+04 -1.345633E+06 -3.445117E-09  5.663737E-09
       126  15 -3.093432E+06 -5.913918E+05 -9.674776E+03 -1.366058E+06  2.580756E-09  1.247556E-08
       126  16 -5.791370E+05  3.271772E+05  4.623267E+05 -6.581513E+05 -5.443755E-09 -1.532233E-09
       126  17 -7.860069E+05  2.760169E+05  4.311458E+05 -6.953863E+05 -1.141193E-08 -5.737414E-09
       126  18 -9.580944E+05  1.876645E+05  3.998242E+05 -7.711142E+05 -1.163157E-08 -4.620619E-09
       126  19 -5.603680E+06 -1.522459E+06 -5.293693E+05 -2.066654E+06  8.759294E+04 -1.701846E+05
       126  20 -5.429377E+06 -1.425758E+06 -4.668351E+05 -1.993621E+06  6.721826E+04 -1.713588E+05
       126  21 -5.224016E+06 -1.370009E+06 -4.193175E+05 -1.959105E+06  4.453450E+04 -1.663743E+05
       126  22 -3.094690E+06 -5.979160E+05 -3.334060E+04 -1.363742E+06  9.163669E+04 -1.685741E+05
       126  23 -3.110499E+06 -5.751030E+05 -1.769355E+04 -1.345644E+06  8.055189E+04 -1.662495E+05
       126  24 -3.093421E+06 -5.913639E+05 -9.619614E+03 -1.366066E+06  6.716891E+04 -1.577766E+05
       126  25 -5.791197E+05  3.272095E+05  4.623962E+05 -6.581641E+05  9.569817E+04 -1.669571E+05
       126  26 -7.859905E+05  2.760471E+05  4.312110E+05 -6.953984E+05  9.393936E+04 -1.611200E+05
       126  27 -9.580798E+05  1.876905E+05  3.998811E+05 -7.711249E+05  8.988710E+04 -1.491475E+05
       127   1 -5.093700E+06 -1.322942E+06 -3.909019E+05 -1.923486E+06 -4.072920E+04  1.578025E+05
       127   2 -4.916278E+06 -1.232665E+06 -3.499143E+05 -1.848363E+06 -3.232740E+04  1.442458E+05
       127   3 -4.702925E+06 -1.178512E+06 -3.110006E+05 -1.814000E+06 -2.373865E+04  1.301231E+05
       127   4 -3.092754E+06 -5.916350E+05 -7.257437E+03 -1.366157E+06 -6.251215E+04  1.495395E+05
       127   5 -3.110597E+06 -5.732742E+05 -4.047677E+03 -1.345860E+06 -5.495975E+04  1.356831E+05
       127   6 -3.092391E+06 -5.908665E+05 -2.237847E+03 -1.366333E+06 -4.722175E+04  1.212611E+05
       127   7 -1.087585E+06  1.400488E+05  3.762248E+05 -8.071371E+05 -8.437117E+04  1.412481E+05
       127   8 -1.301483E+06  8.641967E+04  3.416859E+05 -8.419854E+05 -7.766330E+04  1.270936E+05
       127   9 -1.479132E+06 -2.983718E+03  3.064176E+05 -9.175786E+05 -7.077060E+04  1.123745E+05
       127  10 -5.093708E+06 -1.322970E+06 -3.909518E+05 -1.923481E+06 -1.064490E-08 -5.223083E-09
       127  11 -4.916284E+06 -1.232687E+06 -3.499553E+05 -1.848359E+06 -1.629619E-08 -6.686170E-09
       127  12 -4.702930E+06 -1.178530E+06 -3.110334E+05 -1.813997E+06 -5.764831E-09 -3.407122E-09
       127  13 -3.092765E+06 -5.916601E+05 -7.306717E+03 -1.366149E+06  3.955066E-09  1.119550E-08
       127  14 -3.110605E+06 -5.732947E+05 -4.087879E+03 -1.345854E+06 -7.427123E-10  4.041130E-09
       127  15 -3.092397E+06 -5.908828E+05 -2.269614E+03 -1.366329E+06 -1.265098E-09 -6.631514E-10
       127  16 -1.087598E+06  1.400255E+05  3.761740E+05 -8.071275E+05  2.809163E-08  9.650606E-09
       127  17 -1.301494E+06  8.640074E+04  3.416443E+05 -8.419775E+05  1.428825E-08  5.843467E-09
       127  18 -1.479141E+06 -2.998593E+03  3.063845E+05 -9.175722E+05  5.007223E-09 -8.666285E-10
       127  19 -5.093700E+06 -1.322942E+06 -3.909019E+05 -1.923486E+06  4.072920E+04 -1.578025E+05
       127  20 -4.916278E+06 -1.232665E+06 -3.499143E+05 -1.848363E+06  3.232740E+04 -1.442458E+05
       127  21 -4.702925E+06 -1.178512E+06 -3.110006E+05 -1.814000E+06  2.373865E+04 -1.301231E+05
       127  22 -3.092754E+06 -5.916350E+05 -7.257437E+03 -1.366157E+06  6.251215E+04 -1.495395E+05
       127  23 -3.110597E+06 -5.732742E+05 -4.047677E+03 -1.345860E+06  5.495975E+04 -1.356831E+05
       127  24 -3.092391E+06 -5.908665E+05 -2.237847E+03 -1.366333E+06  4.722175E+04 -1.212611E+05
       127  25 -1.087585E+06  1.400488E+05  3.762248E+05 -8.071371E+05  8.437117E+04 -1.412481E+05
       127  26 -1.301483E+06  8.641967E+04  3.416859E+05 -8.419854E+05  7.766330E+04 -1.270936E+05
       127  27 -1.479132E+06 -2.983718E+03  3.064176E+05 -9.175786E+05  7.077060E+04 -1.123745E+05
       128   1 -4.570908E+06 -1.130099E+06 -2.841094E+05 -1.777462E+06 -1.995592E+04  1.212313E+05
       128   2 -4.390130E+06 -1.038944E+06 -2.458322E+05 -1.701171E+06 -1.336768E+04  1.059466E+05
       128   3 -4.172707E+06 -9.842036E+05 -2.080259E+05 -1.666478E+06 -6.755667E+03  9.054543E+04
       128   4 -3.092165E+06 -5.909075E+05 -1.736901E+03 -1.366502E+06 -4.349048E+04  1.123608E+05
       128   5 -3.110364E+06 -5.724906E+05 -1.119443E+03 -1.345744E+06 -3.707687E+04  9.702561E+04
       128   6 -3.091929E+06 -5.904535E+05 -8.380600E+02 -1.366597E+06 -3.063977E+04  8.157389E+04
       128   7 -1.611137E+06 -5.152069E+04  2.805428E+05 -9.546281E+05 -6.708529E+04  1.034677E+05
       128   8 -1.828878E+06 -1.058872E+05  2.435269E+05 -9.896316E+05 -6.083876E+04  8.808483E+04
       128   9 -2.009915E+06 -1.965935E+05  2.063054E+05 -1.066225E+06 -5.456890E+04  7.258548E+04
       128  10 -4.570912E+06 -1.130114E+06 -2.841377E+05 -1.777460E+06 -5.823192E-09 -1.952541E-09
       128  11 -4.390133E+06 -1.038956E+06 -2.458536E+05 -1.701169E+06 -1.840555E-09 -1.099539E-09
       128  12 -4.172709E+06 -9.842124E+05 -2.080414E+05 -1.666477E+06  2.055391E-09 -1.813831E-09
       128  13 -3.092170E+06 -5.909215E+05 -1.764133E+03 -1.366498E+06  2.206326E-10 -1.044345E-09
       128  14 -3.110368E+06 -5.725010E+05 -1.139682E+03 -1.345741E+06 -7.653411E-10 -8.773117E-10
       128  15 -3.091931E+06 -5.904609E+05 -8.523042E+02 -1.366595E+06  1.948754E-10 -1.650329E-09
       128  16 -1.611145E+06 -5.153336E+04  2.805143E+05 -9.546225E+05  6.415833E-09 -1.761589E-10
       128  17 -1.828884E+06 -1.058965E+05  2.435054E+05 -9.896273E+05  2.123387E-09  2.623452E-10
       128  18 -2.009920E+06 -1.965999E+05  2.062899E+05 -1.066221E+06 -9.612053E-10 -1.090572E-09
       128  19 -4.570908E+06 -1.130099E+06 -2.841094E+05 -1.777462E+06  1.995592E+04 -1.212313E+05
       128  20 -4.390130E+06 -1.038944E+06 -2.458322E+05 -1.701171E+06  1.336768E+04 -1.059466E+05
       128  21 -4.172707E+06 -9.842036E+05 -2.080259E+05 -1.666478E+06  6.755667E+03 -9.054543E+04
       128  22 -3.092165E+06 -5.909075E+05 -1.736901E+03 -1.366502E+06  4.349048E+04 -1.123608E+05
       128  23 -3.110364E+06 -5.724906E+05 -1.119443E+03 -1.345744E+06  3.707687E+04 -9.702561E+04
       128  24 -3.091929E+06 -5.904535E+05 -8.380600E+02 -1.366597E+06  3.063977E+04 -8.157389E+04
       128  25 -1.611137E+06 -5.152069E+04  2.805428E+05 -9.546281E+05  6.708529E+04 -1.034677E+05
       128  26 -1.828878E+06 -1.058872E+05  2.435269E+05 -9.896316E+05  6.083876E+04 -8.808483E+04
       128  27 -2.009915E+06 -1.965935E+05  2.063054E+05 -1.066225E+06  5.456890E+04 -7.258548E+04
       129   1 -4.038751E+06 -9.352010E+05 -1.812844E+05 -1.629486E+06 -3.094546E+03  8.145701E+04
       129   2 -3.855598E+06 -8.433232E+05 -1.435177E+05 -1.552477E+06  3.429627E+03  6.588929E+04
       129   3 -3.635582E+06 -7.882434E+05 -1.061704E+05 -1.517617E+06  9.956739E+03  5.028199E+04
       129   4 -3.091815E+06 -5.904708E+05 -8.460639E+02 -1.366721E+06 -2.705954E+04  7.246230E+04
       129   5 -3.110156E+06 -5.719266E+05 -1.082816E+03 -1.345674E+06 -2.059585E+04  5.688079E+04
       129   6 -3.091668E+06 -5.901697E+05 -1.694262E+03 -1.366788E+06 -1.412946E+04  4.125972E+04
       129   7 -2.143938E+06 -2.456587E+05  1.795574E+05 -1.103580E+06 -5.106389E+04  6.345284E+04
       129   8 -2.364134E+06 -3.004805E+05  1.413303E+05 -1.138638E+06 -4.465227E+04  4.786068E+04
       129   9 -2.547449E+06 -3.920708E+05  1.027704E+05 -1.215836E+06 -3.823816E+04  3.222901E+04
       129  10 -4.038753E+06 -9.352081E+05 -1.812969E+05 -1.629486E+06 -1.166777E-09 -2.458822E-09
       129  11 -3.855599E+06 -8.433279E+05 -1.435259E+05 -1.552478E+06 -6.625694E-10 -2.400024E-10
       129  12 -3.635583E+06 -7.882461E+05 -1.061754E+05 -1.517618E+06  7.248646E-10 -1.066160E-09
       129  13 -3.091817E+06 -5.904767E+05 -8.572877E+02 -1.366719E+06 -5.757786E-10 -2.134650E-09
       129  14 -3.110157E+06 -5.719302E+05 -1.089681E+03 -1.345673E+06  8.095529E-10  1.674204E-11
       129  15 -3.091669E+06 -5.901716E+05 -1.697830E+03 -1.366787E+06  1.554866E-09  6.787724E-10
       129  16 -2.143941E+06 -2.456637E+05  1.795449E+05 -1.103577E+06  2.401174E-09  3.126474E-10
       129  17 -2.364136E+06 -3.004835E+05  1.413222E+05 -1.138636E+06  1.080474E-09  1.939024E-10
       129  18 -2.547451E+06 -3.920723E+05  1.027657E+05 -1.215835E+06 -1.090446E-09 -2.295694E-10
       129  19 -4.038751E+06 -9.352010E+05 -1.812844E+05 -1.629486E+06  3.094546E+03 -8.145701E+04
       129  20 -3.855598E+06 -8.433232E+05 -1.435177E+05 -1.552477E+06 -3.429627E+03 -6.588929E+04
       129  21 -3.635582E+06 -7.882434E+05 -1.061704E+05 -1.517617E+06 -9.956739E+03 -5.028199E+04
       129  22 -3.091815E+06 -5.904708E+05 -8.460639E+02 -1.366721E+06  2.705954E+04 -7.246230E+04
       129  23 -3.110156E+06 -5.719266E+05 -1.082816E+03 -1.345674E+06  2.059585E+04 -5.688079E+04
       129  24 -3.091668E+06 -5.901697E+05 -1.694262E+03 -1.366788E+06  1.412946E+04 -4.125972E+04
       129  25 -2.143938E+06 -2.456587E+05  1.795574E+05 -1.103580E+06  5.106389E+04 -6.345284E+04
       129  26 -2.364134E+06 -3.004805E+05  1.413303E+05 -1.138638E+06  4.465227E+04 -4.786068E+04
       129  27 -2.547449E+06 -3.920708E+05  1.027704E+05 -1.215836E+06  3.823816E+04 -3.222901E+04
       130   1 -3.500427E+06 -7.389168E+05 -7.970954E+04 -1.480374E+06  1.380847E+04  4.118531E+04
       130   2 -3.315986E+06 -6.467358E+05 -4.316028E+04 -1.403003E+06  2.145499E+04  2.602206E+04
       130   3 -3.094799E+06 -5.916983E+05 -7.934709E+03 -1.368052E+06  2.904180E+04  1.101083E+04
       130   4 -3.091671E+06 -5.901696E+05 -2.209320E+03 -1.366873E+06 -1.034650E+04  3.214069E+04
       130   5 -3.109985E+06 -5.715885E+05 -3.919940E+03 -1.345642E+06 -2.471974E+03  1.706516E+04
       130   6 -3.091649E+06 -5.902023E+05 -7.139636E+03 -1.366849E+06  5.342231E+03  2.141500E+03
       130   7 -2.682734E+06 -4.414051E+05  7.528762E+04 -1.253300E+06 -3.451879E+04  2.308957E+04
       130   8 -2.903937E+06 -4.964364E+05  3.532138E+04 -1.288263E+06 -2.640759E+04  8.105006E+03
       130   9 -3.088497E+06 -5.887058E+05 -6.342142E+03 -1.365646E+06 -1.835748E+04 -6.727914E+03
       130  10 -3.500427E+06 -7.389187E+05 -7.971310E+04 -1.480375E+06 -1.901052E-09 -1.826990E-09
       130  11 -3.315986E+06 -6.467367E+05 -4.316243E+04 -1.403004E+06  8.849041E-10  7.302415E-10
       130  12 -3.094800E+06 -5.916987E+05 -7.936532E+03 -1.368052E+06 -8.625481E-10 -6.273701E-11
       130  13 -3.091671E+06 -5.901707E+05 -2.211459E+03 -1.366872E+06  2.451003E-10 -7.317057E-10
       130  14 -3.109985E+06 -5.715888E+05 -3.920498E+03 -1.345642E+06  2.821016E-09  2.557080E-09
       130  15 -3.091649E+06 -5.902023E+05 -7.139698E+03 -1.366849E+06  1.053249E-09  5.531281E-10
       130  16 -2.682736E+06 -4.414060E+05  7.528438E+04 -1.253299E+06  2.403460E-09  1.632016E-09
       130  17 -2.903938E+06 -4.964367E+05  3.531994E+04 -1.288263E+06  4.288063E-10  7.307329E-10
       130  18 -3.088498E+06 -5.887059E+05 -6.342864E+03 -1.365646E+06  3.787406E-10 -8.459519E-10
       130  19 -3.500427E+06 -7.389168E+05 -7.970954E+04 -1.480374E+06 -1.380847E+04 -4.118531E+04
       130  20 -3.315986E+06 -6.467358E+05 -4.316028E+04 -1.403003E+06 -2.145499E+04 -2.602206E+04
       130  21 -3.094799E+06 -5.916983E+05 -7.934709E+03 -1.368052E+06 -2.904180E+04 -1.101083E+04
       130  22 -3.091671E+06 -5.901696E+05 -2.209320E+03 -1.366873E+06  1.034650E+04 -3.214069E+04
       130  23 -3.109985E+06 -5.715885E+05 -3.919940E+03 -1.345642E+06  2.471974E+03 -1.706516E+04
       130  24 -3.091649E+06 -5.902023E+05 -7.139636E+03 -1.366849E+06 -5.342231E+03 -2.141500E+03
       130  25 -2.682734E+06 -4.414051E+05  7.528762E+04 -1.253300E+06  3.451879E+04 -2.308957E+04
       130  26 -2.903937E+06 -4.964364E+05  3.532138E+04 -1.288263E+06  2.640759E+04 -8.105006E+03
       130  27 -3.088497E+06 -5.887058E+05 -6.342142E+03 -1.365646E+06  1.835748E+04  6.727914E+03
       131   1 -2.959110E+06 -5.425316E+05  1.679763E+04 -1.331369E+06  3.419459E+04  2.420857E+03
       131   2 -2.775310E+06 -4.499007E+05  4.833152E+04 -1.252148E+06  4.502193E+04 -1.028196E+04
       131   3 -2.556704E+06 -3.979158E+05  7.487856E+04 -1.214404E+06  5.501319E+04 -2.073729E+04
       131   4 -3.092069E+06 -5.900172E+05 -9.500739E+03 -1.367056E+06  1.011820E+04 -6.589868E+03
       131   5 -3.109556E+06 -5.722807E+05 -1.736863E+04 -1.345226E+06  2.435598E+04 -1.801993E+04
       131   6 -3.092961E+06 -5.958766E+05 -3.294062E+04 -1.364893E+06  3.775564E+04 -2.720252E+04
       131   7 -3.225008E+06 -6.375006E+05 -3.579712E+04 -1.402735E+06 -1.395242E+04 -1.559853E+04
       131   8 -3.443684E+06 -6.946503E+05 -8.307206E+04 -1.438257E+06  3.701997E+03 -2.575337E+04
       131   9 -3.628922E+06 -7.938124E+05 -1.407738E+05 -1.515262E+06  2.051399E+04 -3.366163E+04
       131  10 -2.959111E+06 -5.425319E+05  1.679541E+04 -1.331369E+06 -1.037030E-09  1.345984E-10
       131  11 -2.775312E+06 -4.499014E+05  4.832750E+04 -1.252148E+06 -1.033634E-09  4.417231E-10
       131  12 -2.556708E+06 -3.979171E+05  7.487206E+04 -1.214403E+06  2.450768E-09  1.782227E-09
       131  13 -3.092069E+06 -5.900173E+05 -9.501013E+03 -1.367056E+06  1.135859E-09 -3.937367E-10
       131  14 -3.109556E+06 -5.722812E+05 -1.737036E+04 -1.345226E+06  4.257483E-09 -7.373069E-11
       131  15 -3.092962E+06 -5.958777E+05 -3.294469E+04 -1.364892E+06  7.394625E-09  1.196531E-09
       131  16 -3.225008E+06 -6.375009E+05 -3.579794E+04 -1.402735E+06  1.731830E-09 -7.431179E-10
       131  17 -3.443684E+06 -6.946510E+05 -8.307333E+04 -1.438257E+06  3.641651E-09 -1.058173E-09
       131  18 -3.628923E+06 -7.938137E+05 -1.407768E+05 -1.515262E+06  2.428601E-09 -5.836815E-10
       131  19 -2.959110E+06 -5.425316E+05  1.679763E+04 -1.331369E+06 -3.419459E+04 -2.420857E+03
       131  20 -2.775310E+06 -4.499007E+05  4.833152E+04 -1.252148E+06 -4.502193E+04  1.028196E+04
       131  21 -2.556704E+06 -3.979158E+05  7.487856E+04 -1.214404E+06 -5.501319E+04  2.073729E+04
       131  22 -3.092069E+06 -5.900172E+05 -9.500739E+03 -1.367056E+06 -1.011820E+04  6.589868E+03
       131  23 -3.109556E+06 -5.722807E+05 -1.736863E+04 -1.345226E+06 -2.435598E+04  1.801993E+04
       131  24 -3.092961E+06 -5.958766E+05 -3.294062E+04 -1.364893E+06 -3.775564E+04  2.720252E+04
       131  25 -3.225008E+06 -6.375006E+05 -3.579712E+04 -1.402735E+06  1.395242E+04  1.559853E+04
       131  26 -3.443684E+06 -6.946503E+05 -8.307206E+04 -1.438257E+06 -3.701997E+03  2.575337E+04
       131  27 -3.628922E+06 -7.938124E+05 -1.407738E+05 -1.515262E+06 -2.051399E+04  3.366163E+04
       132   1 -2.415986E+06 -3.540599E+05  9.232927E+04 -1.191236E+06  6.825368E+04 -2.572660E+04
       132   2 -2.260648E+06 -2.479346E+05  1.089994E+05 -1.062283E+06  6.543937E+04 -2.639223E+04
       132   3 -2.101787E+06 -2.623197E+05  1.041923E+05 -9.503087E+05  5.140336E+04  2.842348E+03
       132   4 -3.098511E+06 -5.921617E+05 -4.337146E+04 -1.368209E+06  4.595902E+04 -3.408044E+04
       132   5 -3.105618E+06 -5.965953E+05 -8.178892E+04 -1.333827E+06  8.865310E+04 -1.770285E+04
       132   6 -3.118351E+06 -7.306966E+05 -1.779111E+05 -1.316450E+06  1.201152E+05  2.859538E+04
       132   7 -3.780557E+06 -8.302349E+05 -1.790932E+05 -1.545005E+06  2.369067E+04 -4.242545E+04
       132   8 -3.949839E+06 -9.451406E+05 -2.726162E+05 -1.605006E+06  1.118322E+05 -9.030017E+03
       132   9 -4.133835E+06 -1.198827E+06 -4.600778E+05 -1.681977E+06  1.887011E+05  5.427687E+04
       132  10 -2.415991E+06 -3.540619E+05  9.231926E+04 -1.191235E+06  4.903160E-09  1.819294E-09
       132  11 -2.260653E+06 -2.479365E+05  1.089900E+05 -1.062282E+06  2.873067E-09 -3.019275E-11
       132  12 -2.101790E+06 -2.623204E+05  1.041873E+05 -9.503089E+05  7.506038E-10 -1.620748E-10
       132  13 -3.098514E+06 -5.921635E+05 -4.337761E+04 -1.368207E+06  8.079876E-09  1.935856E-09
       132  14 -3.105627E+06 -5.965977E+05 -8.180433E+04 -1.333826E+06  2.212045E-09 -4.736969E-10
       132  15 -3.118366E+06 -7.307013E+05 -1.779399E+05 -1.316453E+06  2.046983E-10 -5.777807E-11
       132  16 -3.780558E+06 -8.302369E+05 -1.790976E+05 -1.545005E+06  1.907329E-10  3.909262E-10
       132  17 -3.949852E+06 -9.451441E+05 -2.726400E+05 -1.605005E+06  4.684049E-10  1.854801E-09
       132  18 -4.133874E+06 -1.198840E+06 -4.601508E+05 -1.681986E+06 -1.771952E-09  9.420969E-11
       132  19 -2.415986E+06 -3.540599E+05  9.232927E+04 -1.191236E+06 -6.825368E+04  2.572660E+04
       132  20 -2.260648E+06 -2.479346E+05  1.089994E+05 -1.062283E+06 -6.543937E+04  2.639223E+04
       132  21 -2.101787E+06 -2.623197E+05  1.041923E+05 -9.503087E+05 -5.140336E+04 -2.842348E+03
       132  22 -3.098511E+06 -5.921617E+05 -4.337146E+04 -1.368209E+06 -4.595902E+04  3.408044E+04
       132  23 -3.105618E+06 -5.965953E+05 -8.178892E+04 -1.333827E+06 -8.865310E+04  1.770285E+04
       132  24 -3.118351E+06 -7.306966E+05 -1.779111E+05 -1.316450E+06 -1.201152E+05 -2.859538E+04
       132  25 -3.780557E+06 -8.302349E+05 -1.790932E+05 -1.545005E+06 -2.369067E+04  4.242545E+04
       132  26 -3.949839E+06 -9.451406E+05 -2.726162E+05 -1.605006E+06 -1.118322E+05  9.030017E+03
       132  27 -4.133835E+06 -1.198827E+06 -4.600778E+05 -1.681977E+06 -1.887011E+05 -5.427687E+04
       133   1  1.570488E+05  3.095140E+04  4.910221E+04  1.528673E+04  5.636860E+04  1.545445E+03
       133   2  1.588369E+05 -4.299520E+04  5.237663E+03  4.253012E+03  3.781682E+04  4.552082E+03
       133   3  1.837872E+05 -3.406822E+04 -5.825157E+03 -1.620789E+04  1.926559E+04  4.153379E+03
       133   4  3.068835E+05  6.827023E+04  8.602358E+04 -6.967922E+03  5.887035E+04  1.544480E+03
       133   5  2.951543E+05 -9.242001E+03  3.774699E+04 -2.239975E+03  3.851536E+04  4.551869E+03
       133   6  3.068940E+05 -3.578570E+03  2.351829E+04 -6.938828E+03  1.816135E+04  4.153306E+03
       133   7  4.567396E+05  1.055893E+05  1.229436E+05 -2.922795E+04  6.137270E+04  1.543336E+03
       133   8  4.314889E+05  2.451002E+04  7.025503E+04 -8.734395E+03  3.921404E+04  4.551641E+03
       133   9  4.300149E+05  2.691031E+04  5.286072E+04  2.332075E+03  1.705690E+04  4.153199E+03
       133  10  1.570454E+05  3.095055E+04  4.909623E+04  1.528666E+04  4.437798E-10 -6.335006E-10
       133  11  1.588354E+05 -4.299561E+04  5.234937E+03  4.252873E+03 -1.375571E-09 -3.272477E-10
       133  12  1.837868E+05 -3.406834E+04 -5.825887E+03 -1.620795E+04 -3.577012E-09 -2.695667E-10
       133  13  3.068797E+05  6.826930E+04  8.601707E+04 -6.967995E+03 -2.042289E-09  2.084361E-10
       133  14  2.951527E+05 -9.242422E+03  3.774416E+04 -2.240116E+03 -1.072652E-09 -2.720592E-10
       133  15  3.068936E+05 -3.578677E+03  2.351763E+04 -6.938889E+03 -1.517326E-09 -5.115962E-10
       133  16  4.567356E+05  1.055882E+05  1.229365E+05 -2.922803E+04 -8.596187E-10  3.062855E-10
       133  17  4.314873E+05  2.450958E+04  7.025211E+04 -8.734538E+03 -3.380444E-09  7.000981E-12
       133  18  4.300146E+05  2.691022E+04  5.286014E+04  2.332018E+03 -3.297326E-10  1.959794E-10
       133  19  1.570488E+05  3.095140E+04  4.910221E+04  1.528673E+04 -5.636860E+04 -1.545445E+03
       133  20  1.588369E+05 -4.299520E+04  5.237663E+03  4.253012E+03 -3.781682E+04 -4.552082E+03
       133  21  1.837872E+05 -3.406822E+04 -5.825157E+03 -1.620789E+04 -1.926559E+04 -4.153379E+03
       133  22  3.068835E+05  6.827023E+04  8.602358E+04 -6.967922E+03 -5.887035E+04 -1.544480E+03
       133  23  2.951543E+05 -9.242001E+03  3.774699E+04 -2.239975E+03 -3.851536E+04 -4.551869E+03
       133  24  3.068940E+05 -3.578570E+03  2.351829E+04 -6.938828E+03 -1.816135E+04 -4.153306E+03
       133  25  4.567396E+05  1.055893E+05  1.229436E+05 -2.922795E+04 -6.137270E+04 -1.543336E+03
       133  26  4.314889E+05  2.451002E+04  7.025503E+04 -8.734395E+03 -3.921404E+04 -4.551641E+03
       133  27  4.300149E+05  2.691031E+04  5.286072E+04  2.332075E+03 -1.705690E+04 -4.153199E+03
       134   1  1.961410E+05 -1.937757E+04 -6.217126E+03 -4.936689E+03  1.462118E+04  3.356395E+03
       134   2  2.079387E+05 -2.400227E+04 -1.239407E+04 -1.749736E+03  9.737226E+03  3.056875E+03
       134   3  2.225094E+05 -2.013241E+04 -1.326541E+04 -7.953131E+03  4.853151E+03  2.518795E+03
       134   4  3.022983E+05  6.922748E+03  1.916197E+04 -6.940313E+03  1.452826E+04  3.356287E+03
       134   5  3.009022E+05 -9.781198E+02  9.790023E+03 -2.244401E+03  9.517524E+03  3.056795E+03
       134   6  3.023004E+05 -3.631757E+02  5.811004E+03 -6.938717E+03  4.506770E+03  2.518736E+03
       134   7  4.084660E+05  3.322227E+04  4.454028E+04 -8.944281E+03  1.443532E+04  3.356180E+03
       134   8  3.938737E+05  2.204541E+04  3.197350E+04 -2.739142E+03  9.297789E+03  3.056715E+03
       134   9  3.820973E+05  1.940560E+04  2.488697E+04 -5.924172E+03  4.160344E+03  2.518676E+03
       134  10  1.961408E+05 -1.937764E+04 -6.217549E+03 -4.936728E+03 -2.351227E-09  1.707722E-10
       134  11  2.079386E+05 -2.400230E+04 -1.239426E+04 -1.749760E+03 -1.334384E-09  5.999146E-10
       134  12  2.225094E+05 -2.013242E+04 -1.326547E+04 -7.953141E+03  6.207155E-10  4.305111E-10
       134  13  3.022981E+05  6.922679E+03  1.916156E+04 -6.940352E+03 -9.627824E-10  4.889926E-10
       134  14  3.009021E+05 -9.781541E+02  9.789835E+03 -2.244425E+03 -1.502927E-09  7.105006E-10
       134  15  3.023004E+05 -3.631879E+02  5.810954E+03 -6.938726E+03 -1.751045E-09  1.134272E-10
       134  16  4.084658E+05  3.322220E+04  4.453987E+04 -8.944320E+03  1.236365E-09  1.971783E-10
       134  17  3.938736E+05  2.204537E+04  3.197332E+04 -2.739165E+03 -1.562200E-09  5.476162E-10
       134  18  3.820973E+05  1.940559E+04  2.488692E+04 -5.924180E+03 -1.819897E-09  5.361352E-11
       134  19  1.961410E+05 -1.937757E+04 -6.217126E+03 -4.936689E+03 -1.462118E+04 -3.356395E+03
       134  20  2.079387E+05 -2.400227E+04 -1.239407E+04 -1.749736E+03 -9.737226E+03 -3.056875E+03
       134  21  2.225094E+05 -2.013241E+04 -1.326541E+04 -7.953131E+03 -4.853151E+03 -2.518795E+03
       134  22  3.022983E+05  6.922748E+03  1.916197E+04 -6.940313E+03 -1.452826E+04 -3.356287E+03
       134  23  3.009022E+05 -9.781198E+02  9.790023E+03 -2.244401E+03 -9.517524E+03 -3.056795E+03
       134  24  3.023004E+05 -3.631757E+02  5.811004E+03 -6.938717E+03 -4.506770E+03 -2.518736E+03
       134  25  4.084660E+05  3.322227E+04  4.454028E+04 -8.944281E+03 -1.443532E+04 -3.356180E+03
       134  26  3.938737E+05  2.204541E+04  3.197350E+04 -2.739142E+03 -9.297789E+03 -3.056715E+03
       134  27  3.820973E+05  1.940560E+04  2.488697E+04 -5.924172E+03 -4.160344E+03 -2.518676E+03
       135   1  2.387664E+05 -1.490923E+04 -1.045931E+04 -6.790912E+03  3.866760E+03  2.166679E+03
       135   2  2.516711E+05 -1.246690E+04 -9.419804E+03 -2.251128E+03  2.628119E+03  1.637994E+03
       135   3  2.649578E+05 -9.160109E+03 -7.357059E+03 -7.044723E+03  1.389418E+03  1.093342E+03
       135   4  3.017651E+05  6.868007E+02  4.540993E+03 -6.926590E+03  3.592047E+03  2.166634E+03
       135   5  3.015737E+05 -1.076590E+02  2.489039E+03 -2.259890E+03  2.344855E+03  1.637962E+03
       135   6  3.017657E+05 -3.615264E+01  1.466229E+03 -6.926521E+03  1.097629E+03  1.093323E+03
       135   7  3.647675E+05  1.628254E+04  1.954102E+04 -7.062283E+03  3.317307E+03  2.166589E+03
       135   8  3.514786E+05  1.225141E+04  1.439771E+04 -2.268653E+03  2.061568E+03  1.637930E+03
       135   9  3.385749E+05  9.087706E+03  1.028942E+04 -6.808313E+03  8.058216E+02  1.093304E+03
       135  10  2.387664E+05 -1.490923E+04 -1.045935E+04 -6.790919E+03  9.977607E-10 -1.241553E-10
       135  11  2.516711E+05 -1.246691E+04 -9.419822E+03 -2.251132E+03 -4.730847E-10 -6.282060E-10
       135  12  2.649578E+05 -9.160111E+03 -7.357065E+03 -7.044725E+03 -4.311239E-10  1.137522E-09
       135  13  3.017651E+05  6.867922E+02  4.540960E+03 -6.926597E+03 -1.003678E-10 -3.008956E-10
       135  14  3.015737E+05 -1.076633E+02  2.489023E+03 -2.259893E+03 -2.919543E-11 -3.865813E-10
       135  15  3.017657E+05 -3.615425E+01  1.466225E+03 -6.926522E+03  1.658488E-09  8.183862E-10
       135  16  3.647675E+05  1.628253E+04  1.954099E+04 -7.062289E+03  1.522652E-09 -3.604647E-10
       135  17  3.514786E+05  1.225140E+04  1.439769E+04 -2.268656E+03  3.564283E-10 -4.511265E-10
       135  18  3.385749E+05  9.087705E+03  1.028942E+04 -6.808313E+03 -8.437430E-10  7.922596E-10
       135  19  2.387664E+05 -1.490923E+04 -1.045931E+04 -6.790912E+03 -3.866760E+03 -2.166679E+03
       135  20  2.516711E+05 -1.246690E+04 -9.419804E+03 -2.251128E+03 -2.628119E+03 -1.637994E+03
       135  21  2.649578E+05 -9.160109E+03 -7.357059E+03 -7.044723E+03 -1.389418E+03 -1.093342E+03
       135  22  3.017651E+05  6.868007E+02  4.540993E+03 -6.926590E+03 -3.592047E+03 -2.166634E+03
       135  23  3.015737E+05 -1.076590E+02  2.489039E+03 -2.259890E+03 -2.344855E+03 -1.637962E+03
       135  24  3.017657E+05 -3.615264E+01  1.466229E+03 -6.926521E+03 -1.097629E+03 -1.093323E+03
       135  25  3.647675E+05  1.628254E+04  1.954102E+04 -7.062283E+03 -3.317307E+03 -2.166589E+03
       135  26  3.514786E+05  1.225141E+04  1.439771E+04 -2.268653E+03 -2.061568E+03 -1.637930E+03
       135  27  3.385749E+05  9.087706E+03  1.028942E+04 -6.808313E+03 -8.058216E+02 -1.093304E+03
       136   1  2.816035E+05 -4.904061E+03 -3.615679E+03 -6.923305E+03  1.150317E+03  7.739726E+02
       136   2  2.946309E+05 -1.754723E+03 -9.939436E+02 -2.274002E+03  8.112145E+02  2.307563E+02
       136   3  3.077263E+05  1.483859E+03  1.871069E+03 -6.934806E+03  4.720920E+02 -3.134254E+02
       136   4  3.016958E+05  6.416973E+01  1.139719E+03 -6.921382E+03  8.636777E+02  7.739591E+02
       136   5  3.016620E+05 -1.340830E+01  6.839201E+02 -2.266331E+03  5.240497E+02  2.307444E+02
       136   6  3.016959E+05 -1.693085E+00  4.717124E+02 -6.921380E+03  1.844091E+02 -3.134351E+02
       136   7  3.217884E+05  5.032371E+03  5.895089E+03 -6.919459E+03  5.770288E+02  7.739457E+02
       136   8  3.086930E+05  1.727902E+03  2.361781E+03 -2.258660E+03  2.368817E+02  2.307325E+02
       136   9  2.956655E+05 -1.487247E+03 -9.276459E+02 -6.907954E+03 -1.032710E+02 -3.134448E+02
       136  10  2.816035E+05 -4.904062E+03 -3.615682E+03 -6.923305E+03  3.769292E-09  8.813163E-10
       136  11  2.946309E+05 -1.754723E+03 -9.939449E+02 -2.274002E+03 -9.568192E-10 -1.021786E-09
       136  12  3.077263E+05  1.483858E+03  1.871068E+03 -6.934806E+03  1.705537E-09  7.657674E-11
       136  13  3.016958E+05  6.416889E+01  1.139716E+03 -6.921383E+03  1.093904E-09  6.051052E-10
       136  14  3.016620E+05 -1.340843E+01  6.839195E+02 -2.266331E+03  3.163218E-09 -1.238703E-09
       136  15  3.016959E+05 -1.693200E+00  4.717122E+02 -6.921380E+03 -2.949636E-10 -2.151698E-10
       136  16  3.217884E+05  5.032371E+03  5.895087E+03 -6.919460E+03 -2.643021E-09  3.602988E-10
       136  17  3.086930E+05  1.727902E+03  2.361780E+03 -2.258660E+03 -1.864163E-09 -1.395703E-09
       136  18  2.956655E+05 -1.487247E+03 -9.276461E+02 -6.907954E+03  1.460276E-09 -5.208178E-10
       136  19  2.816035E+05 -4.904061E+03 -3.615679E+03 -6.923305E+03 -1.150317E+03 -7.739726E+02
       136  20  2.946309E+05 -1.754723E+03 -9.939436E+02 -2.274002E+03 -8.112145E+02 -2.307563E+02
       136  21  3.077263E+05  1.483859E+03  1.871069E+03 -6.934806E+03 -4.720920E+02  3.134254E+02
       136  22  3.016958E+05  6.416973E+01  1.139719E+03 -6.921382E+03 -8.636777E+02 -7.739591E+02
       136  23  3.016620E+05 -1.340830E+01  6.839201E+02 -2.266331E+03 -5.240497E+02 -2.307444E+02
       136  24  3.016959E+05 -1.693085E+00  4.717124E+02 -6.921380E+03 -1.844091E+02  3.134351E+02
       136  25  3.217884E+05  5.032371E+03  5.895089E+03 -6.919459E+03 -5.770288E+02 -7.739457E+02
       136  26  3.086930E+05  1.727902E+03  2.361781E+03 -2.258660E+03 -2.368817E+02 -2.307325E+02
       136  27  2.956655E+05 -1.487247E+03 -9.276459E+02 -6.907954E+03  1.032710E+02  3.134448E+02
       137   1  3.244256E+05  5.641973E+03  5.887878E+03 -6.921341E+03  3.914402E+02 -6.305493E+02
       137   2  3.374842E+05  8.862233E+03  8.962789E+03 -2.260731E+03  1.846064E+02 -1.175154E+03
       137   3  3.505837E+05  1.212620E+04  1.218382E+04 -6.922462E+03 -2.219172E+01 -1.719141E+03
       137   4  3.016897E+05  3.352772E+00  4.226634E+02 -6.924108E+03  1.036125E+02 -6.305617E+02
       137   5  3.016693E+05 -7.504257E+00  4.162244E+02 -2.262922E+03 -1.028885E+02 -1.175177E+03
       137   6  3.016895E+05  2.530214E+01  5.556841E+02 -6.924110E+03 -3.093494E+02 -1.719173E+03
       137   7  2.789544E+05 -5.635305E+03 -5.042587E+03 -6.926875E+03 -1.842048E+02 -6.305741E+02
       137   8  2.658556E+05 -8.877334E+03 -8.130430E+03 -2.265113E+03 -3.903668E+02 -1.175199E+03
       137   9  2.527975E+05 -1.207577E+04 -1.107261E+04 -6.925757E+03 -5.964846E+02 -1.719204E+03
       137  10  3.244256E+05  5.641973E+03  5.887877E+03 -6.921340E+03  2.242928E-09  9.293253E-10
       137  11  3.374842E+05  8.862232E+03  8.962787E+03 -2.260731E+03 -2.142960E-09  5.555276E-10
       137  12  3.505837E+05  1.212620E+04  1.218381E+04 -6.922462E+03 -1.918726E-09 -3.664317E-10
       137  13  3.016897E+05  3.352342E+00  4.226626E+02 -6.924108E+03  3.436618E-09  8.557065E-10
       137  14  3.016693E+05 -7.505743E+00  4.162218E+02 -2.262922E+03  2.352714E-09  1.000161E-09
       137  15  3.016895E+05  2.529894E+01  5.556784E+02 -6.924110E+03  1.694527E-10 -2.587083E-10
       137  16  2.789544E+05 -5.635306E+03 -5.042588E+03 -6.926876E+03  1.007292E-09  6.502952E-10
       137  17  2.658556E+05 -8.877336E+03 -8.130433E+03 -2.265113E+03  2.433226E-09  1.084022E-09
       137  18  2.527975E+05 -1.207577E+04 -1.107262E+04 -6.925758E+03  2.046259E-09 -2.143705E-10
       137  19  3.244256E+05  5.641973E+03  5.887878E+03 -6.921341E+03 -3.914402E+02  6.305493E+02
       137  20  3.374842E+05  8.862233E+03  8.962789E+03 -2.260731E+03 -1.846064E+02  1.175154E+03
       137  21  3.505837E+05  1.212620E+04  1.218382E+04 -6.922462E+03  2.219172E+01  1.719141E+03
       137  22  3.016897E+05  3.352772E+00  4.226634E+02 -6.924108E+03 -1.036125E+02  6.305617E+02
       137  23  3.016693E+05 -7.504257E+00  4.162244E+02 -2.262922E+03  1.028885E+02  1.175177E+03
       137  24  3.016895E+05  2.530214E+01  5.556841E+02 -6.924110E+03  3.093494E+02  1.719173E+03
       137  25  2.789544E+05 -5.635305E+03 -5.042587E+03 -6.926875E+03  1.842048E+02  6.305741E+02
       137  26  2.658556E+05 -8.877334E+03 -8.130430E+03 -2.265113E+03  3.903668E+02  1.175199E+03
       137  27  2.527975E+05 -1.207577E+04 -1.107261E+04 -6.925757E+03  5.964846E+02  1.719204E+03
       138   1  3.673738E+05  1.625103E+04  1.638340E+04 -6.882061E+03 -1.266802E+02 -2.039767E+03
       138   2  3.804348E+05  1.946798E+04  1.989026E+04 -2.246057E+03 -6.805509E+02 -2.586061E+03
       138   3  3.936697E+05  2.305222E+04  2.385140E+04 -6.981754E+03 -1.234341E+03 -3.113768E+03
       138   4  3.017182E+05 -1.649603E+01  6.768237E+02 -6.935071E+03 -4.201017E+02 -2.039811E+03
       138   5  3.016319E+05 -4.743546E+01  1.085994E+03 -2.249209E+03 -9.640936E+02 -2.586124E+03
       138   6  3.017177E+05  2.872927E+02  1.942687E+03 -6.935122E+03 -1.507993E+03 -3.113851E+03
       138   7  2.360666E+05 -1.628433E+04 -1.503006E+04 -6.988075E+03 -7.134924E+02 -2.039853E+03
       138   8  2.228346E+05 -1.956330E+04 -1.771871E+04 -2.252361E+03 -1.247600E+03 -2.586188E+03
       138   9  2.097735E+05 -2.247825E+04 -1.996662E+04 -6.888497E+03 -1.781605E+03 -3.113933E+03
       138  10  3.673738E+05  1.625102E+04  1.638339E+04 -6.882061E+03 -7.141243E-09 -3.743378E-10
       138  11  3.804348E+05  1.946797E+04  1.989025E+04 -2.246059E+03  1.646561E-10 -4.116164E-10
       138  12  3.936697E+05  2.305221E+04  2.385138E+04 -6.981757E+03  7.454787E-09 -5.446131E-10
       138  13  3.017182E+05 -1.650055E+01  6.768155E+02 -6.935071E+03  1.081018E-09 -4.713856E-10
       138  14  3.016319E+05 -4.744289E+01  1.085980E+03 -2.249211E+03  4.156038E-09 -2.886434E-10
       138  15  3.017177E+05  2.872817E+02  1.942665E+03 -6.935126E+03 -2.346628E-10 -6.034055E-10
       138  16  2.360666E+05 -1.628434E+04 -1.503007E+04 -6.988076E+03  8.729147E-09 -7.200755E-10
       138  17  2.228346E+05 -1.956331E+04 -1.771873E+04 -2.252364E+03 -2.493447E-09 -1.472727E-10
       138  18  2.097734E+05 -2.247826E+04 -1.996664E+04 -6.888502E+03 -7.801827E-09 -4.202622E-10
       138  19  3.673738E+05  1.625103E+04  1.638340E+04 -6.882061E+03  1.266802E+02  2.039767E+03
       138  20  3.804348E+05  1.946798E+04  1.989026E+04 -2.246057E+03  6.805509E+02  2.586061E+03
       138  21  3.936697E+05  2.305222E+04  2.385140E+04 -6.981754E+03  1.234341E+03  3.113768E+03
       138  22  3.017182E+05 -1.649603E+01  6.768237E+02 -6.935071E+03  4.201017E+02  2.039811E+03
       138  23  3.016319E+05 -4.743546E+01  1.085994E+03 -2.249209E+03  9.640936E+02  2.586124E+03
       138  24  3.017177E+05  2.872927E+02  1.942687E+03 -6.935122E+03  1.507993E+03  3.113851E+03
       138  25  2.360666E+05 -1.628433E+04 -1.503006E+04 -6.988075E+03  7.134924E+02  2.039853E+03
       138  26  2.228346E+05 -1.956330E+04 -1.771871E+04 -2.252361E+03  1.247600E+03  2.586188E+03
       138  27  2.097735E+05 -2.247825E+04 -1.996662E+04 -6.888497E+03  1.781605E+03  3.113933E+03
       139   1  4.107818E+05  2.680234E+04  2.848125E+04 -6.507573E+03 -1.539683E+03 -3.473733E+03
       139   2  4.234409E+05  2.981771E+04  3.328878E+04 -2.416097E+03 -3.816832E+03 -4.012552E+03
       139   3  4.373269E+05  3.646524E+04  4.049082E+04 -7.773050E+03 -6.094038E+03 -4.268062E+03
       139   4  3.019454E+05 -1.572760E+02  2.477042E+03 -6.951836E+03 -1.898637E+03 -3.473852E+03
       139   5  3.013444E+05 -4.180192E+02  4.156137E+03 -2.228092E+03 -4.025750E+03 -4.012668E+03
       139   6  3.019441E+05  2.927730E+03  8.125894E+03 -6.952871E+03 -6.152868E+03 -4.268153E+03
       139   7  1.931199E+05 -2.711775E+04 -2.352800E+04 -7.396022E+03 -2.257529E+03 -3.473970E+03
       139   8  1.792615E+05 -3.065483E+04 -2.497755E+04 -2.040126E+03 -4.234626E+03 -4.012783E+03
       139   9  1.665780E+05 -3.061110E+04 -2.424032E+04 -6.132873E+03 -6.211686E+03 -4.268244E+03
       139  10  4.107818E+05  2.680233E+04  2.848123E+04 -6.507578E+03  5.782116E-10 -4.887338E-10
       139  11  4.234409E+05  2.981769E+04  3.328872E+04 -2.416109E+03  1.614152E-09  1.138974E-11
       139  12  4.373269E+05  3.646521E+04  4.049071E+04 -7.773071E+03  8.247480E-10 -4.272227E-10
       139  13  3.019454E+05 -1.572899E+02  2.477013E+03 -6.951842E+03 -1.076998E-09 -4.268513E-10
       139  14  3.013443E+05 -4.180409E+02  4.156076E+03 -2.228105E+03  2.071860E-09  1.918934E-10
       139  15  3.019440E+05  2.927700E+03  8.125789E+03 -6.952892E+03 -2.145683E-11 -1.486039E-10
       139  16  1.931199E+05 -2.711777E+04 -2.352804E+04 -7.396028E+03  1.791903E-11 -2.670080E-10
       139  17  1.792615E+05 -3.065485E+04 -2.497762E+04 -2.040140E+03 -9.673691E-10  9.911142E-10
       139  18  1.665780E+05 -3.061113E+04 -2.424043E+04 -6.132894E+03 -3.370508E-10  2.859570E-10
       139  19  4.107818E+05  2.680234E+04  2.848125E+04 -6.507573E+03  1.539683E+03  3.473733E+03
       139  20  4.234409E+05  2.981771E+04  3.328878E+04 -2.416097E+03  3.816832E+03  4.012552E+03
       139  21  4.373269E+05  3.646524E+04  4.049082E+04 -7.773050E+03  6.094038E+03  4.268062E+03
       139  22  3.019454E+05 -1.572760E+02  2.477042E+03 -6.951836E+03  1.898637E+03  3.473852E+03
       139  23  3.013444E+05 -4.180192E+02  4.156137E+03 -2.228092E+03  4.025750E+03  4.012668E+03
       139  24  3.019441E+05  2.927730E+03  8.125894E+03 -6.952871E+03  6.152868E+03  4.268153E+03
       139  25  1.931199E+05 -2.711775E+04 -2.352800E+04 -7.396022E+03  2.257529E+03  3.473970E+03
       139  26  1.792615E+05 -3.065483E+04 -2.497755E+04 -2.040126E+03  4.234626E+03  4.012783E+03
       139  27  1.665780E+05 -3.061110E+04 -2.424032E+04 -6.132873E+03  6.211686E+03  4.268244E+03
       140   1  4.563710E+05  3.622970E+04  4.630384E+04 -2.989047E+03 -6.432739E+03 -5.155590E+03
       140   2  4.646887E+05  3.712223E+04  5.552842E+04 -4.926914E+03 -1.719922E+04 -5.525516E+03
       140   3  4.833506E+05  7.363423E+04  8.067179E+04 -1.634718E+04 -2.796830E+04 -1.848934E+03
       140   4  3.038937E+05 -1.523101E+03  9.971564E+03 -6.954615E+03 -7.693306E+03 -5.156150E+03
       140   5  2.989033E+05 -3.923524E+03  1.599734E+04 -2.222038E+03 -1.632003E+04 -5.525243E+03
       140   6  3.038884E+05  2.892918E+04  3.645943E+04 -6.971812E+03 -2.494908E+04 -1.847582E+03
       140   7  1.514376E+05 -3.927752E+04 -2.636233E+04 -1.091921E+04 -8.953565E+03 -5.156694E+03
       140   8  1.331431E+05 -4.497123E+04 -2.353565E+04  4.821095E+02 -1.544107E+04 -5.524963E+03
       140   9  1.244556E+05 -1.577793E+04 -7.755232E+03  2.400840E+03 -2.193073E+04 -1.846139E+03
       140  10  4.563710E+05  3.622966E+04  4.630371E+04 -2.989073E+03  1.941919E-09 -9.940979E-10
       140  11  4.646884E+05  3.712211E+04  5.552780E+04 -4.926991E+03  3.289083E-09 -1.864648E-09
       140  12  4.833497E+05  7.363402E+04  8.067031E+04 -1.634722E+04  1.315876E-10 -5.113094E-10
       140  13  3.038936E+05 -1.523145E+03  9.971403E+03 -6.954647E+03  2.898089E-09 -2.313968E-09
       140  14  2.989030E+05 -3.923628E+03  1.599679E+04 -2.222111E+03  2.336046E-09  6.585834E-10
       140  15  3.038877E+05  2.892901E+04  3.645825E+04 -6.971849E+03 -2.182939E-10 -2.386811E-10
       140  16  1.514375E+05 -3.927757E+04 -2.636253E+04 -1.091924E+04 -2.925348E-10 -5.380544E-10
       140  17  1.331428E+05 -4.497133E+04 -2.353616E+04  4.820408E+02 -3.310067E-09  3.082407E-10
       140  18  1.244551E+05 -1.577807E+04 -7.756142E+03  2.400807E+03  1.633007E-10 -7.000130E-10
       140  19  4.563710E+05  3.622970E+04  4.630384E+04 -2.989047E+03  6.432739E+03  5.155590E+03
       140  20  4.646887E+05  3.712223E+04  5.552842E+04 -4.926914E+03  1.719922E+04  5.525516E+03
       140  21  4.833506E+05  7.363423E+04  8.067179E+04 -1.634718E+04  2.796830E+04  1.848934E+03
       140  22  3.038937E+05 -1.523101E+03  9.971564E+03 -6.954615E+03  7.693306E+03  5.156150E+03
       140  23  2.989033E+05 -3.923524E+03  1.599734E+04 -2.222038E+03  1.632003E+04  5.525243E+03
       140  24  3.038884E+05  2.892918E+04  3.645943E+04 -6.971812E+03  2.494908E+04  1.847582E+03
       140  25  1.514376E+05 -3.927752E+04 -2.636233E+04 -1.091921E+04  8.953565E+03  5.156694E+03
       140  26  1.331431E+05 -4.497123E+04 -2.353565E+04  4.821095E+02  1.544107E+04  5.524963E+03
       140  27  1.244556E+05 -1.577793E+04 -7.755232E+03  2.400840E+03  2.193073E+04  1.846139E+03
       141   1  2.672917E+06  1.083998E+07  2.668391E+06 -1.359813E+06  9.655994E+04  2.084274E+05
       141   2  1.955185E+06  8.324101E+06  1.950157E+06 -4.849261E+05  2.661964E+05  4.485968E+04
       141   3  1.405566E+06  5.912744E+06  1.386030E+06 -1.345675E+06  1.802212E+05 -1.199151E+05
       141   4  7.370188E+04  3.478184E+05  9.631326E+04 -1.300127E+06  9.736415E+04  4.935521E+04
       141   5 -1.931467E+04  3.139082E+05  4.949142E+04 -4.316442E+05  2.666021E+05  2.316472E+04
       141   6  3.321760E+04  3.556564E+05  6.326780E+04 -1.300181E+06  1.787752E+05 -4.891783E+03
       141   7 -2.533620E+06 -1.004521E+07 -2.483741E+06 -1.241233E+06  9.814750E+04 -1.070739E+05
       141   8 -1.998410E+06 -7.637894E+06 -1.855645E+06 -3.789081E+05  2.670076E+05  1.744148E+03
       141   9 -1.341343E+06 -5.173251E+06 -1.261607E+06 -1.254972E+06  1.773388E+05  1.091143E+05
       141  10  2.672895E+06  1.083994E+07  2.668293E+06 -1.359829E+06  1.703054E-09  2.063588E-09
       141  11  1.955109E+06  8.324080E+06  1.950020E+06 -4.849357E+05  6.939219E-10  1.459159E-08
       141  12  1.405527E+06  5.912720E+06  1.385942E+06 -1.345658E+06  8.080051E-09  8.056962E-09
       141  13  7.369103E+04  3.478132E+05  9.629082E+04 -1.300131E+06 -1.012202E-09 -3.789689E-11
       141  14 -1.939115E+04  3.138885E+05  4.935680E+04 -4.316491E+05 -8.574016E-09 -4.117870E-09
       141  15  3.318328E+04  3.556478E+05  6.320769E+04 -1.300181E+06  2.867556E-09 -2.009121E-08
       141  16 -2.533634E+06 -1.004522E+07 -2.483781E+06 -1.241225E+06 -4.167098E-10 -7.805012E-10
       141  17 -1.998486E+06 -7.637914E+06 -1.855779E+06 -3.789085E+05  2.598220E-09 -1.308538E-08
       141  18 -1.341380E+06 -5.173272E+06 -1.261689E+06 -1.254987E+06  1.053448E-10 -2.677200E-08
       141  19  2.672917E+06  1.083998E+07  2.668391E+06 -1.359813E+06 -9.655994E+04 -2.084274E+05
       141  20  1.955185E+06  8.324101E+06  1.950157E+06 -4.849261E+05 -2.661964E+05 -4.485968E+04
       141  21  1.405566E+06  5.912744E+06  1.386030E+06 -1.345675E+06 -1.802212E+05  1.199151E+05
       141  22  7.370188E+04  3.478184E+05  9.631326E+04 -1.300127E+06 -9.736415E+04 -4.935521E+04
       141  23 -1.931467E+04  3.139082E+05  4.949142E+04 -4.316442E+05 -2.666021E+05 -2.316472E+04
       141  24  3.321760E+04  3.556564E+05  6.326780E+04 -1.300181E+06 -1.787752E+05  4.891783E+03
       141  25 -2.533620E+06 -1.004521E+07 -2.483741E+06 -1.241233E+06 -9.814750E+04  1.070739E+05
       141  26 -1.998410E+06 -7.637894E+06 -1.855645E+06 -3.789081E+05 -2.670076E+05 -1.744148E+03
       141  27 -1.341343E+06 -5.173251E+06 -1.261607E+06 -1.254972E+06 -1.773388E+05 -1.091143E+05
       142   1  6.338780E+05  2.761017E+06  6.411013E+05 -1.333568E+06  8.183513E+04 -6.164807E+04
       142   2 -9.856968E+02  3.284664E+05  8.199095E+04 -4.276458E+05  7.397792E+02 -1.070629E+05
       142   3 -5.285103E+05 -2.120838E+06 -4.334809E+05 -1.259734E+06 -8.014609E+04 -1.523000E+05
       142   4  3.477929E+04  3.407031E+05  6.484358E+04 -1.300490E+06  8.121289E+04 -1.834185E+04
       142   5  4.927264E+03  3.518582E+05  8.758231E+04 -4.312110E+05  1.311884E+02 -6.393996E+04
       142   6  8.281521E+04  3.406810E+05  1.543605E+05 -1.299819E+06 -8.075495E+04 -1.095328E+05
       142   7 -5.647386E+05 -2.074249E+06 -5.118175E+05 -1.267515E+06  8.059389E+04  2.479701E+04
       142   8  1.084123E+04  3.752545E+05  9.318061E+04 -4.347764E+05 -4.778854E+02 -2.081538E+04
       142   9  6.937062E+05  2.807771E+06  7.417826E+05 -1.340038E+06 -8.136802E+04 -6.659576E+04
       142  10  6.338698E+05  2.761011E+06  6.410816E+05 -1.333564E+06 -8.541611E-10  1.738389E-08
       142  11 -9.887722E+02  3.284541E+05  8.196942E+04 -4.276458E+05  3.531304E-09  2.596070E-08
       142  12 -5.285234E+05 -2.120865E+06 -4.335369E+05 -1.259744E+06 -1.011223E-09  1.006968E-08
       142  13  3.477212E+04  3.407010E+05  6.483057E+04 -1.300488E+06 -1.154297E-09 -2.049048E-10
       142  14  4.926167E+03  3.518538E+05  8.757463E+04 -4.312110E+05  5.409598E-09 -7.535559E-09
       142  15  8.280496E+04  3.406663E+05  1.543257E+05 -1.299826E+06  1.571301E-08 -2.252393E-08
       142  16 -5.647458E+05 -2.074251E+06 -5.118308E+05 -1.267517E+06 -2.286392E-09 -1.051955E-08
       142  17  1.084111E+04  3.752540E+05  9.317980E+04 -4.347764E+05 -1.237630E-08 -2.609800E-08
       142  18  6.936979E+05  2.807765E+06  7.417618E+05 -1.340042E+06  1.985093E-09 -3.013153E-08
       142  19  6.338780E+05  2.761017E+06  6.411013E+05 -1.333568E+06 -8.183513E+04  6.164807E+04
       142  20 -9.856968E+02  3.284664E+05  8.199095E+04 -4.276458E+05 -7.397792E+02  1.070629E+05
       142  21 -5.285103E+05 -2.120838E+06 -4.334809E+05 -1.259734E+06  8.014609E+04  1.523000E+05
       142  22  3.477929E+04  3.407031E+05  6.484358E+04 -1.300490E+06 -8.121289E+04  1.834185E+04
       142  23  4.927264E+03  3.518582E+05  8.758231E+04 -4.312110E+05 -1.311884E+02  6.393996E+04
       142  24  8.281521E+04  3.406810E+05  1.543605E+05 -1.299819E+06  8.075495E+04  1.095328E+05
       142  25 -5.647386E+05 -2.074249E+06 -5.118175E+05 -1.267515E+06 -8.059389E+04 -2.479701E+04
       142  26  1.084123E+04  3.752545E+05  9.318061E+04 -4.347764E+05  4.778854E+02  2.081538E+04
       142  27  6.937062E+05  2.807771E+06  7.417826E+05 -1.340038E+06  8.136802E+04  6.659576E+04
       143   1 -1.379277E+06 -5.185753E+06 -1.144787E+06 -1.315493E+06 -1.768177E+05 -2.547475E+05
       143   2 -2.071587E+06 -7.726755E+06 -1.629679E+06 -3.359801E+05 -2.661430E+05 -2.741056E+05
       143   3 -2.093552E+06 -1.005409E+07 -1.927353E+06 -1.094761E+06 -9.698861E+04 -2.915093E+05
       143   4  4.908760E+03  3.897726E+05  1.907831E+05 -1.300972E+06 -1.782682E+05 -1.412685E+05
       143   5 -7.998374E+04  2.710214E+05  2.866579E+05 -4.314469E+05 -2.656997E+05 -2.975568E+05
       143   6  5.253798E+05  3.818742E+05  6.630773E+05 -1.298459E+06 -9.611920E+04 -4.520020E+05
       143   7  1.386850E+06  5.993966E+06  1.524207E+06 -1.286195E+06 -1.797061E+05 -2.676369E+04
       143   8  1.906985E+06  8.327882E+06  2.198474E+06 -5.280217E+05 -2.652531E+05 -3.212921E+05
       143   9  3.136265E+06  1.091790E+07  3.245486E+06 -1.505424E+06 -9.515413E+04 -6.151714E+05
       143  10 -1.379328E+06 -5.185832E+06 -1.144969E+06 -1.315529E+06  3.775787E-09  1.199937E-08
       143  11 -2.071683E+06 -7.726855E+06 -1.629955E+06 -3.360392E+05 -1.084289E-09  1.254511E-08
       143  12 -2.093586E+06 -1.005418E+07 -1.927533E+06 -1.094784E+06 -1.500313E-09  1.862283E-09
       143  13  4.869198E+03  3.897426E+05  1.906857E+05 -1.300992E+06 -3.297830E-09 -1.446351E-10
       143  14 -8.008337E+04  2.709074E+05  2.863587E+05 -4.315106E+05  3.386133E-10 -4.315063E-09
       143  15  5.253150E+05  3.816524E+05  6.626758E+05 -1.298494E+06 -2.800873E-09 -3.821019E-09
       143  16  1.386815E+06  5.993956E+06  1.524145E+06 -1.286199E+06  9.969213E-09 -6.141279E-09
       143  17  1.906883E+06  8.327753E+06  2.198150E+06 -5.280899E+05 -1.862195E-09 -1.339588E-08
       143  18  3.136156E+06  1.091750E+07  3.244769E+06 -1.505471E+06 -3.994594E-09 -5.245710E-09
       143  19 -1.379277E+06 -5.185753E+06 -1.144787E+06 -1.315493E+06  1.768177E+05  2.547475E+05
       143  20 -2.071587E+06 -7.726755E+06 -1.629679E+06 -3.359801E+05  2.661430E+05  2.741056E+05
       143  21 -2.093552E+06 -1.005409E+07 -1.927353E+06 -1.094761E+06  9.698861E+04  2.915093E+05
       143  22  4.908760E+03  3.897726E+05  1.907831E+05 -1.300972E+06  1.782682E+05  1.412685E+05
       143  23 -7.998374E+04  2.710214E+05  2.866579E+05 -4.314469E+05  2.656997E+05  2.975568E+05
       143  24  5.253798E+05  3.818742E+05  6.630773E+05 -1.298459E+06  9.611920E+04  4.520020E+05
       143  25  1.386850E+06  5.993966E+06  1.524207E+06 -1.286195E+06  1.797061E+05  2.676369E+04
       143  26  1.906985E+06  8.327882E+06  2.198474E+06 -5.280217E+05  2.652531E+05  3.212921E+05
       143  27  3.136265E+06  1.091790E+07  3.245486E+06 -1.505424E+06  9.515413E+04  6.151714E+05
       144   1 -5.513844E+05 -2.438593E+05 -1.238168E+05 -2.373108E+05 -6.037822E+04 -1.822277E+04
       144   2 -5.206376E+05 -1.873871E+05 -7.386956E+04 -2.240825E+05 -3.703782E+04  8.120897E+02
       144   3 -4.976749E+05 -1.576618E+05 -4.989299E+04 -2.107822E+05 -1.114837E+04  1.306692E+04
       144   4 -2.804085E+05 -1.145568E+05 -4.965195E+04 -1.344431E+05 -3.394469E+04 -8.302092E+03
       144   5 -2.753304E+05 -8.405478E+04 -2.374094E+04 -1.414447E+05 -2.506553E+04  5.304879E+03
       144   6 -2.751665E+05 -7.742905E+04 -1.233270E+04 -1.483763E+05 -1.363941E+04  1.213126E+04
       144   7 -9.362941E+03  1.476264E+04  2.450768E+04 -3.153187E+04 -7.499180E+03  1.626085E+03
       144   8 -2.996129E+04  1.928829E+04  2.638491E+04 -5.877495E+04 -1.308826E+04  9.800219E+03
       144   9 -5.260357E+04  2.809359E+03  2.522683E+04 -8.594890E+04 -1.613142E+04  1.119524E+04
       144  10 -5.513884E+05 -2.438606E+05 -1.238243E+05 -2.373117E+05  1.518392E-09  7.366207E-10
       144  11 -5.206391E+05 -1.873875E+05 -7.387214E+04 -2.240825E+05  2.567706E-09  1.906263E-10
       144  12 -4.976751E+05 -1.576620E+05 -4.989354E+04 -2.107821E+05  3.819991E-09  2.211615E-12
       144  13 -2.804098E+05 -1.145572E+05 -4.965425E+04 -1.344433E+05  1.524109E-11  9.522617E-11
       144  14 -2.753311E+05 -8.405498E+04 -2.374218E+04 -1.414446E+05  2.440240E-09 -1.059176E-09
       144  15 -2.751668E+05 -7.742926E+04 -1.233332E+04 -1.483761E+05  9.130758E-10 -1.727344E-09
       144  16 -9.363002E+03  1.476262E+04  2.450757E+04 -3.153186E+04 -3.643175E-09 -1.649596E-09
       144  17 -2.996150E+04  1.928815E+04  2.638441E+04 -5.877484E+04 -1.846153E-09 -3.116917E-09
       144  18 -5.260388E+04  2.809155E+03  2.522611E+04 -8.594876E+04 -3.540733E-09 -2.746580E-09
       144  19 -5.513844E+05 -2.438593E+05 -1.238168E+05 -2.373108E+05  6.037822E+04  1.822277E+04
       144  20 -5.206376E+05 -1.873871E+05 -7.386956E+04 -2.240825E+05  3.703782E+04 -8.120897E+02
       144  21 -4.976749E+05 -1.576618E+05 -4.989299E+04 -2.107822E+05  1.114837E+04 -1.306692E+04
       144  22 -2.804085E+05 -1.145568E+05 -4.965195E+04 -1.344431E+05  3.394469E+04  8.302092E+03
       144  23 -2.753304E+05 -8.405478E+04 -2.374094E+04 -1.414447E+05  2.506553E+04 -5.304879E+03
       144  24 -2.751665E+05 -7.742905E+04 -1.233270E+04 -1.483763E+05  1.363941E+04 -1.213126E+04
       144  25 -9.362941E+03  1.476264E+04  2.450768E+04 -3.153187E+04  7.499180E+03 -1.626085E+03
       144  26 -2.996129E+04  1.928829E+04  2.638491E+04 -5.877495E+04  1.308826E+04 -9.800219E+03
       144  27 -5.260357E+04  2.809359E+03  2.522683E+04 -8.594890E+04  1.613142E+04 -1.119524E+04
       145   1 -4.734335E+05 -1.498773E+05 -4.215760E+04 -2.058980E+05 -9.555912E+03  1.262087E+04
       145   2 -4.414952E+05 -1.323127E+05 -3.067923E+04 -1.938165E+05 -4.962999E+03  1.264973E+04
       145   3 -4.063445E+05 -1.211104E+05 -2.270975E+04 -1.865007E+05 -8.218306E+01  1.191154E+04
       145   4 -2.737214E+05 -7.655191E+04 -9.148794E+03 -1.482906E+05 -1.190839E+04  1.173736E+04
       145   5 -2.752943E+05 -7.216051E+04 -4.751059E+03 -1.464217E+05 -8.951230E+03  1.115255E+04
       145   6 -2.733311E+05 -7.380705E+04 -2.564990E+03 -1.493191E+05 -5.706389E+03  9.800727E+03
       145   7 -7.396902E+04 -3.222889E+03  2.385842E+04 -9.066636E+04 -1.426165E+04  1.085354E+04
       145   8 -1.090635E+05 -1.200523E+04  2.117673E+04 -9.901495E+04 -1.294059E+04  9.654941E+03
       145   9 -1.402968E+05 -2.650119E+04  1.758013E+04 -1.121295E+05 -1.133194E+04  7.689410E+03
       145  10 -4.734336E+05 -1.498775E+05 -4.215807E+04 -2.058979E+05  5.752935E-09  5.650784E-10
       145  11 -4.414953E+05 -1.323129E+05 -3.067958E+04 -1.938164E+05  2.725319E-08  1.041414E-08
       145  12 -4.063446E+05 -1.211106E+05 -2.271001E+04 -1.865007E+05  6.689021E-08  2.115813E-08
       145  13 -2.737216E+05 -7.655209E+04 -9.149319E+03 -1.482905E+05 -3.841611E-09 -1.356861E-10
       145  14 -2.752944E+05 -7.216067E+04 -4.751443E+03 -1.464216E+05 -1.743313E-09  6.625309E-09
       145  15 -2.733312E+05 -7.380716E+04 -2.565232E+03 -1.493191E+05  9.950261E-09  1.974044E-08
       145  16 -7.396927E+04 -3.223070E+03  2.385782E+04 -9.066624E+04 -8.433408E-09 -5.384571E-09
       145  17 -1.090637E+05 -1.200538E+04  2.117624E+04 -9.901485E+04 -2.888347E-08 -1.602041E-08
       145  18 -1.402970E+05 -2.650128E+04  1.757978E+04 -1.121295E+05 -3.202985E-08 -1.678470E-08
       145  19 -4.734335E+05 -1.498773E+05 -4.215760E+04 -2.058980E+05  9.555912E+03 -1.262087E+04
       145  20 -4.414952E+05 -1.323127E+05 -3.067923E+04 -1.938165E+05  4.962999E+03 -1.264973E+04
       145  21 -4.063445E+05 -1.211104E+05 -2.270975E+04 -1.865007E+05  8.218306E+01 -1.191154E+04
       145  22 -2.737214E+05 -7.655191E+04 -9.148794E+03 -1.482906E+05  1.190839E+04 -1.173736E+04
       145  23 -2.752943E+05 -7.216051E+04 -4.751059E+03 -1.464217E+05  8.951230E+03 -1.115255E+04
       145  24 -2.733311E+05 -7.380705E+04 -2.564990E+03 -1.493191E+05  5.706389E+03 -9.800727E+03
       145  25 -7.396902E+04 -3.222889E+03  2.385842E+04 -9.066636E+04  1.426165E+04 -1.085354E+04
       145  26 -1.090635E+05 -1.200523E+04  2.117673E+04 -9.901495E+04  1.294059E+04 -9.654941E+03
       145  27 -1.402968E+05 -2.650119E+04  1.758013E+04 -1.121295E+05  1.133194E+04 -7.689410E+03
       146   1 -3.847640E+05 -1.135329E+05 -1.864154E+04 -1.806294E+05  8.319071E+02  1.047387E+04
       146   2 -3.529471E+05 -9.900325E+04 -1.259757E+04 -1.685343E+05  2.538484E+03  8.065698E+03
       146   3 -3.167994E+05 -8.911100E+04 -7.116984E+03 -1.615552E+05  4.277468E+03  5.570739E+03
       146   4 -2.731832E+05 -7.375880E+04 -1.916192E+03 -1.492944E+05 -4.777317E+03  8.368828E+03
       146   5 -2.753544E+05 -7.138074E+04 -1.036956E+03 -1.467649E+05 -3.255895E+03  5.891350E+03
       146   6 -2.731593E+05 -7.360343E+04 -5.744133E+02 -1.493518E+05 -1.702113E+03  3.327086E+03
       146   7 -1.615889E+05 -3.398334E+04  1.480913E+04 -1.179541E+05 -1.038760E+04  6.263385E+03
       146   8 -1.977556E+05 -4.375777E+04  1.052359E+04 -1.249931E+05 -9.051001E+03  3.716731E+03
       146   9 -2.295177E+05 -5.809584E+04  5.968132E+03 -1.371478E+05 -7.682062E+03  1.083296E+03
       146  10 -3.847640E+05 -1.135330E+05 -1.864175E+04 -1.806295E+05 -2.577485E-08 -1.719181E-08
       146  11 -3.529471E+05 -9.900332E+04 -1.259770E+04 -1.685343E+05 -2.397158E-08 -1.803268E-08
       146  12 -3.167994E+05 -8.911104E+04 -7.117077E+03 -1.615553E+05 -4.970734E-09 -6.109995E-09
       146  13 -2.731833E+05 -7.375888E+04 -1.916366E+03 -1.492944E+05  1.018123E-08  1.897177E-08
       146  14 -2.753544E+05 -7.138078E+04 -1.037041E+03 -1.467649E+05 -1.538142E-09  5.568229E-09
       146  15 -2.731593E+05 -7.360344E+04 -5.744395E+02 -1.493518E+05 -4.047812E-09 -2.617920E-09
       146  16 -1.615890E+05 -3.398341E+04  1.480886E+04 -1.179540E+05  6.159058E-08  2.021466E-08
       146  17 -1.977557E+05 -4.375780E+04  1.052341E+04 -1.249931E+05  2.622917E-08  7.863737E-09
       146  18 -2.295178E+05 -5.809586E+04  5.968018E+03 -1.371478E+05  1.895732E-09 -3.688608E-09
       146  19 -3.847640E+05 -1.135329E+05 -1.864154E+04 -1.806294E+05 -8.319071E+02 -1.047387E+04
       146  20 -3.529471E+05 -9.900325E+04 -1.259757E+04 -1.685343E+05 -2.538484E+03 -8.065698E+03
       146  21 -3.167994E+05 -8.911100E+04 -7.116984E+03 -1.615552E+05 -4.277468E+03 -5.570739E+03
       146  22 -2.731832E+05 -7.375880E+04 -1.916192E+03 -1.492944E+05  4.777317E+03 -8.368828E+03
       146  23 -2.753544E+05 -7.138074E+04 -1.036956E+03 -1.467649E+05  3.255895E+03 -5.891350E+03
       146  24 -2.731593E+05 -7.360343E+04 -5.744133E+02 -1.493518E+05  1.702113E+03 -3.327086E+03
       146  25 -1.615889E+05 -3.398334E+04  1.480913E+04 -1.179541E+05  1.038760E+04 -6.263385E+03
       146  26 -1.977556E+05 -4.375777E+04  1.052359E+04 -1.249931E+05  9.051001E+03 -3.716731E+03
       146  27 -2.295177E+05 -5.809584E+04  5.968132E+03 -1.371478E+05  7.682062E+03 -1.083296E+03
       147   1 -2.954837E+05 -8.152076E+04 -3.684678E+03 -1.555937E+05  4.971480E+03  3.967079E+03
       147   2 -2.637182E+05 -6.719111E+04  1.447240E+03 -1.434758E+05  6.167964E+03  1.215463E+03
       147   3 -2.274918E+05 -5.735409E+04  6.470194E+03 -1.364902E+05  7.367537E+03 -1.544357E+03
       147   4 -2.731416E+05 -7.360475E+04 -4.351272E+02 -1.493458E+05 -1.006563E+03  1.724048E+03
       147   5 -2.753730E+05 -7.136185E+04 -2.528647E+02 -1.467785E+05  1.721926E+02 -1.034261E+03
       147   6 -2.731422E+05 -7.360859E+04 -1.659139E+02 -1.493444E+05  1.354027E+03 -3.800771E+03
       147   7 -2.507985E+05 -6.568855E+04  2.814653E+03 -1.430975E+05 -6.984909E+03 -5.190969E+02
       147   8 -2.870277E+05 -7.553257E+04 -1.952838E+03 -1.500811E+05 -5.823499E+03 -3.283955E+03
       147   9 -3.187902E+05 -8.986284E+04 -6.801890E+03 -1.621976E+05 -4.659020E+03 -6.057011E+03
       147  10 -2.954838E+05 -8.152078E+04 -3.684754E+03 -1.555938E+05  5.848625E-08  1.998657E-08
       147  11 -2.637183E+05 -6.719112E+04  1.447166E+03 -1.434758E+05  3.547467E-08  1.122858E-08
       147  12 -2.274919E+05 -5.735411E+04  6.470087E+03 -1.364902E+05  5.359676E-09 -2.241082E-09
       147  13 -2.731416E+05 -7.360475E+04 -4.351347E+02 -1.493458E+05  2.034830E-09 -9.863555E-10
       147  14 -2.753730E+05 -7.136185E+04 -2.528667E+02 -1.467785E+05 -1.010858E-09  8.499692E-09
       147  15 -2.731422E+05 -7.360861E+04 -1.659445E+02 -1.493444E+05 -4.930888E-09  1.740455E-08
       147  16 -2.507985E+05 -6.568856E+04  2.814561E+03 -1.430975E+05 -5.634312E-08 -2.585763E-08
       147  17 -2.870277E+05 -7.553259E+04 -1.952922E+03 -1.500811E+05 -2.643056E-08 -1.250948E-08
       147  18 -3.187902E+05 -8.986289E+04 -6.801999E+03 -1.621976E+05  1.223155E-08  2.210096E-09
       147  19 -2.954837E+05 -8.152076E+04 -3.684678E+03 -1.555937E+05 -4.971480E+03 -3.967079E+03
       147  20 -2.637182E+05 -6.719111E+04  1.447240E+03 -1.434758E+05 -6.167964E+03 -1.215463E+03
       147  21 -2.274918E+05 -5.735409E+04  6.470194E+03 -1.364902E+05 -7.367537E+03  1.544357E+03
       147  22 -2.731416E+05 -7.360475E+04 -4.351272E+02 -1.493458E+05  1.006563E+03 -1.724048E+03
       147  23 -2.753730E+05 -7.136185E+04 -2.528647E+02 -1.467785E+05 -1.721926E+02  1.034261E+03
       147  24 -2.731422E+05 -7.360859E+04 -1.659139E+02 -1.493444E+05 -1.354027E+03  3.800771E+03
       147  25 -2.507985E+05 -6.568855E+04  2.814653E+03 -1.430975E+05  6.984909E+03  5.190969E+02
       147  26 -2.870277E+05 -7.553257E+04 -1.952838E+03 -1.500811E+05  5.823499E+03  3.283955E+03
       147  27 -3.187902E+05 -8.986284E+04 -6.801890E+03 -1.621976E+05  4.659020E+03  6.057011E+03
       148   1 -2.062100E+05 -4.975662E+04  9.769664E+03 -1.305204E+05  8.009206E+03 -3.175393E+03
       148   2 -1.744609E+05 -3.543234E+04  1.470895E+04 -1.183987E+05  9.109540E+03 -5.969641E+03
       148   3 -1.382350E+05 -2.558661E+04  1.961535E+04 -1.114069E+05  1.020526E+04 -8.751137E+03
       148   4 -2.731416E+05 -7.361011E+04 -1.466692E+02 -1.493430E+05  1.995796E+03 -5.431838E+03
       148   5 -2.753783E+05 -7.137235E+04 -1.450128E+02 -1.467767E+05  3.123101E+03 -8.216185E+03
       148   6 -2.731446E+05 -7.361849E+04 -1.976004E+02 -1.493407E+05  4.245791E+03 -1.098780E+04
       148   7 -3.400675E+05 -9.746277E+04 -1.006266E+04 -1.681635E+05 -4.016857E+03 -7.687999E+03
       148   8 -3.762845E+05 -1.073112E+05 -1.499892E+04 -1.751504E+05 -2.862313E+03 -1.046234E+04
       148   9 -4.080361E+05 -1.216490E+05 -2.001104E+04 -1.872671E+05 -1.712380E+03 -1.322398E+04
       148  10 -2.062101E+05 -4.975665E+04  9.769524E+03 -1.305203E+05 -5.199573E-08 -2.582148E-08
       148  11 -1.744610E+05 -3.543240E+04  1.470873E+04 -1.183987E+05 -3.124735E-08 -1.791627E-08
       148  12 -1.382351E+05 -2.558672E+04  1.961501E+04 -1.114068E+05 -7.524417E-09 -6.822867E-09
       148  13 -2.731417E+05 -7.361014E+04 -1.467321E+02 -1.493430E+05 -2.333505E-09  1.719158E-08
       148  14 -2.753783E+05 -7.137243E+04 -1.451580E+02 -1.467767E+05 -9.358512E-09  6.937561E-09
       148  15 -2.731447E+05 -7.361863E+04 -1.978611E+02 -1.493406E+05 -1.405743E-08 -2.955670E-09
       148  16 -3.400675E+05 -9.746283E+04 -1.006280E+04 -1.681636E+05  6.445653E-08  2.468833E-08
       148  17 -3.762846E+05 -1.073113E+05 -1.499914E+04 -1.751504E+05  2.457849E-08  1.337578E-08
       148  18 -4.080361E+05 -1.216492E+05 -2.001138E+04 -1.872671E+05 -8.267666E-09 -3.310961E-09
       148  19 -2.062100E+05 -4.975662E+04  9.769664E+03 -1.305204E+05 -8.009206E+03  3.175393E+03
       148  20 -1.744609E+05 -3.543234E+04  1.470895E+04 -1.183987E+05 -9.109540E+03  5.969641E+03
       148  21 -1.382350E+05 -2.558661E+04  1.961535E+04 -1.114069E+05 -1.020526E+04  8.751137E+03
       148  22 -2.731416E+05 -7.361011E+04 -1.466692E+02 -1.493430E+05 -1.995796E+03  5.431838E+03
       148  23 -2.753783E+05 -7.137235E+04 -1.450128E+02 -1.467767E+05 -3.123101E+03  8.216185E+03
       148  24 -2.731446E+05 -7.361849E+04 -1.976004E+02 -1.493407E+05 -4.245791E+03  1.098780E+04
       148  25 -3.400675E+05 -9.746277E+04 -1.006266E+04 -1.681635E+05  4.016857E+03  7.687999E+03
       148  26 -3.762845E+05 -1.073112E+05 -1.499892E+04 -1.751504E+05  2.862313E+03  1.046234E+04
       148  27 -4.080361E+05 -1.216490E+05 -2.001104E+04 -1.872671E+05  1.712380E+03  1.322398E+04
       149   1 -1.169592E+05 -1.798633E+04  2.286361E+04 -1.054407E+05  1.085511E+04 -1.036651E+04
       149   2 -8.523853E+04 -3.651949E+03  2.773936E+04 -9.331554E+04  1.183756E+04 -1.311578E+04
       149   3 -4.903693E+04  6.210893E+03  3.264786E+04 -8.630495E+04  1.277544E+04 -1.574549E+04
       149   4 -2.731542E+05 -7.361903E+04 -2.468991E+02 -1.493410E+05  4.893944E+03 -1.260401E+04
       149   5 -2.753767E+05 -7.139410E+04 -4.228392E+02 -1.467710E+05  6.131334E+03 -1.525802E+04
       149   6 -2.731699E+05 -7.369147E+04 -7.680600E+02 -1.493162E+05  7.324146E+03 -1.779244E+04
       149   7 -4.293224E+05 -1.292490E+05 -2.335748E+04 -1.932309E+05 -1.065638E+03 -1.484091E+04
       149   8 -4.654742E+05 -1.391318E+05 -2.858492E+04 -2.002107E+05  4.269893E+02 -1.739955E+04
       149   9 -4.972454E+05 -1.535873E+05 -3.418361E+04 -2.123053E+05  1.874998E+03 -1.983858E+04
       149  10 -1.169594E+05 -1.798648E+04  2.286318E+04 -1.054406E+05 -1.650106E-08 -8.973106E-09
       149  11 -8.523873E+04 -3.652171E+03  2.773877E+04 -9.331542E+04 -7.025541E-09 -6.628769E-09
       149  12 -4.903717E+04  6.210583E+03  3.264709E+04 -8.630479E+04 -7.115086E-09 -5.361807E-09
       149  13 -2.731542E+05 -7.361920E+04 -2.472426E+02 -1.493410E+05 -1.177173E-08 -4.927115E-09
       149  14 -2.753768E+05 -7.139436E+04 -4.233472E+02 -1.467710E+05 -9.722678E-09 -3.851235E-09
       149  15 -2.731700E+05 -7.369182E+04 -7.687555E+02 -1.493161E+05 -1.239949E-08 -4.783474E-09
       149  16 -4.293225E+05 -1.292493E+05 -2.335790E+04 -1.932309E+05  2.938068E-09 -1.257714E-09
       149  17 -4.654743E+05 -1.391322E+05 -2.858549E+04 -2.002107E+05  3.083689E-09 -2.640513E-09
       149  18 -4.972455E+05 -1.535877E+05 -3.418436E+04 -2.123052E+05 -4.777700E-09 -3.994059E-09
       149  19 -1.169592E+05 -1.798633E+04  2.286361E+04 -1.054407E+05 -1.085511E+04  1.036651E+04
       149  20 -8.523853E+04 -3.651949E+03  2.773936E+04 -9.331554E+04 -1.183756E+04  1.311578E+04
       149  21 -4.903693E+04  6.210893E+03  3.264786E+04 -8.630495E+04 -1.277544E+04  1.574549E+04
       149  22 -2.731542E+05 -7.361903E+04 -2.468991E+02 -1.493410E+05 -4.893944E+03  1.260401E+04
       149  23 -2.753767E+05 -7.139410E+04 -4.228392E+02 -1.467710E+05 -6.131334E+03  1.525802E+04
       149  24 -2.731699E+05 -7.369147E+04 -7.680600E+02 -1.493162E+05 -7.324146E+03  1.779244E+04
       149  25 -4.293224E+05 -1.292490E+05 -2.335748E+04 -1.932309E+05  1.065638E+03  1.484091E+04
       149  26 -4.654742E+05 -1.391318E+05 -2.858492E+04 -2.002107E+05 -4.269893E+02  1.739955E+04
       149  27 -4.972454E+05 -1.535873E+05 -3.418361E+04 -2.123053E+05 -1.874998E+03  1.983858E+04
       150   1 -2.773041E+04  1.381048E+04  3.586271E+04 -8.037337E+04  1.350724E+04 -1.721470E+04
       150   2  3.672995E+03  2.827285E+04  4.109601E+04 -6.797718E+04  1.297913E+04 -1.973623E+04
       150   3  3.958399E+04  3.813349E+04  4.723241E+04 -6.050452E+04  1.205567E+04 -2.120425E+04
       150   4 -2.732375E+05 -7.370316E+04 -1.023945E+03 -1.493135E+05  8.035649E+03 -1.926956E+04
       150   5 -2.753491E+05 -7.173044E+04 -1.892063E+03 -1.466460E+05  9.756204E+03 -2.094744E+04
       150   6 -2.734005E+05 -7.480576E+04 -3.639173E+03 -1.489030E+05  1.108141E+04 -2.157148E+04
       150   7 -5.186823E+05 -1.612115E+05 -3.791209E+04 -2.182289E+05  2.566276E+03 -2.132359E+04
       150   8 -5.542890E+05 -1.717261E+05 -4.488178E+04 -2.252819E+05  6.534785E+03 -2.215808E+04
       150   9 -5.862802E+05 -1.877347E+05 -5.451289E+04 -2.372596E+05  1.010768E+04 -2.193852E+04
       150  10 -2.773069E+04  1.381012E+04  3.586181E+04 -8.037318E+04 -7.345637E-08 -2.889771E-08
       150  11  3.672710E+03  2.827238E+04  4.109496E+04 -6.797697E+04 -1.766897E-08 -5.340332E-09
       150  12  3.958372E+04  3.813297E+04  4.723129E+04 -6.050431E+04  5.347738E-08  2.025459E-08
       150  13 -2.732376E+05 -7.370357E+04 -1.024764E+03 -1.493134E+05 -1.472508E-08 -6.468249E-09
       150  14 -2.753494E+05 -7.173094E+04 -1.893066E+03 -1.466458E+05 -1.746706E-08 -5.776800E-09
       150  15 -2.734008E+05 -7.480629E+04 -3.640278E+03 -1.489028E+05 -2.523400E-09 -3.166429E-09
       150  16 -5.186824E+05 -1.612120E+05 -3.791295E+04 -2.182288E+05  5.175846E-08  1.737151E-08
       150  17 -5.542892E+05 -1.717266E+05 -4.488278E+04 -2.252818E+05 -6.809333E-09 -7.082142E-09
       150  18 -5.862805E+05 -1.877353E+05 -5.451399E+04 -2.372594E+05 -5.937462E-08 -2.638315E-08
       150  19 -2.773041E+04  1.381048E+04  3.586271E+04 -8.037337E+04 -1.350724E+04  1.721470E+04
       150  20  3.672995E+03  2.827285E+04  4.109601E+04 -6.797718E+04 -1.297913E+04  1.973623E+04
       150  21  3.958399E+04  3.813349E+04  4.723241E+04 -6.050451E+04 -1.205567E+04  2.120425E+04
       150  22 -2.732375E+05 -7.370316E+04 -1.023945E+03 -1.493135E+05 -8.035649E+03  1.926956E+04
       150  23 -2.753491E+05 -7.173044E+04 -1.892063E+03 -1.466460E+05 -9.756204E+03  2.094744E+04
       150  24 -2.734005E+05 -7.480576E+04 -3.639173E+03 -1.489030E+05 -1.108141E+04  2.157148E+04
       150  25 -5.186823E+05 -1.612115E+05 -3.791209E+04 -2.182289E+05 -2.566276E+03  2.132359E+04
       150  26 -5.542890E+05 -1.717261E+05 -4.488178E+04 -2.252819E+05 -6.534785E+03  2.215808E+04
       150  27 -5.862802E+05 -1.877347E+05 -5.451289E+04 -2.372596E+05 -1.010768E+04  2.193852E+04
       151   1  6.125154E+04  4.554710E+04  5.099311E+04 -5.489338E+04  1.303782E+04 -2.156672E+04
       151   2  8.848022E+04  6.142431E+04  6.187752E+04 -3.786826E+04 -3.507491E+03 -2.308904E+04
       151   3  1.200000E+05  6.946245E+04  8.274901E+04 -2.343871E+04 -2.355287E+04 -1.530145E+04
       151   4 -2.740551E+05 -7.507839E+04 -4.904319E+03 -1.488464E+05  1.187391E+04 -2.200532E+04
       151   5 -2.752783E+05 -7.656790E+04 -9.441664E+03 -1.447802E+05  1.520787E+04 -1.606113E+04
       151   6 -2.761510E+05 -8.983715E+04 -1.974449E+04 -1.433104E+05  1.504199E+04 -8.036605E+02
       151   7 -6.092409E+05 -1.956922E+05 -6.080430E+04 -2.427517E+05  1.071067E+04 -2.244367E+04
       151   8 -6.388916E+05 -2.145422E+05 -8.076344E+04 -2.516308E+05  3.391115E+04 -9.038180E+03
       151   9 -6.721314E+05 -2.491132E+05 -1.222409E+05 -2.631055E+05  5.360865E+04  1.368180E+04
       151  10  6.125123E+04  4.554655E+04  5.099192E+04 -5.489315E+04  1.482176E-09  1.760929E-09
       151  11  8.848006E+04  6.142373E+04  6.187650E+04 -3.786832E+04 -9.373963E-09 -1.816746E-09
       151  12  1.199993E+05  6.946205E+04  8.274752E+04 -2.343900E+04 -6.337765E-09 -1.390419E-09
       151  13 -2.740553E+05 -7.507895E+04 -4.905494E+03 -1.488462E+05 -2.074786E-10 -2.105255E-09
       151  14 -2.752786E+05 -7.656823E+04 -9.442584E+03 -1.447800E+05 -6.020639E-09 -3.724515E-09
       151  15 -2.761512E+05 -8.983721E+04 -1.974492E+04 -1.433104E+05 -4.564969E-09  3.948626E-10
       151  16 -6.092412E+05 -1.956928E+05 -6.080546E+04 -2.427515E+05 -6.231726E-09 -4.660436E-09
       151  17 -6.388928E+05 -2.145426E+05 -8.076576E+04 -2.516305E+05 -9.477788E-09 -2.534107E-09
       151  18 -6.721345E+05 -2.491141E+05 -1.222467E+05 -2.631061E+05 -2.123741E-10  9.052904E-10
       151  19  6.125154E+04  4.554710E+04  5.099311E+04 -5.489338E+04 -1.303782E+04  2.156672E+04
       151  20  8.848022E+04  6.142431E+04  6.187752E+04 -3.786826E+04  3.507491E+03  2.308904E+04
       151  21  1.200000E+05  6.946245E+04  8.274901E+04 -2.343871E+04  2.355287E+04  1.530145E+04
       151  22 -2.740551E+05 -7.507839E+04 -4.904319E+03 -1.488464E+05 -1.187391E+04  2.200532E+04
       151  23 -2.752783E+05 -7.656790E+04 -9.441664E+03 -1.447802E+05 -1.520787E+04  1.606113E+04
       151  24 -2.761510E+05 -8.983715E+04 -1.974449E+04 -1.433104E+05 -1.504199E+04  8.036605E+02
       151  25 -6.092409E+05 -1.956922E+05 -6.080430E+04 -2.427517E+05 -1.071067E+04  2.244367E+04
       151  26 -6.388916E+05 -2.145422E+05 -8.076344E+04 -2.516308E+05 -3.391115E+04  9.038180E+03
       151  27 -6.721314E+05 -2.491132E+05 -1.222409E+05 -2.631055E+05 -5.360865E+04 -1.368180E+04
       152   1 -1.384845E+05 -2.098012E+04 -4.397123E+04 -2.004635E+04 -6.954995E+04 -2.726922E+03
       152   2 -1.394678E+05  7.215565E+04  1.089456E+04 -5.655869E+03 -4.703593E+04 -8.178119E+03
       152   3 -1.693305E+05  6.133305E+04  2.512620E+04  1.955050E+04 -2.452734E+04 -7.799758E+03
       152   4 -3.986395E+05 -8.580792E+04 -1.080990E+05  7.836554E+03 -7.395221E+04 -2.733207E+03
       152   5 -3.839181E+05  1.160271E+04 -4.743487E+04  2.394364E+03 -4.837083E+04 -8.180068E+03
       152   6 -3.986219E+05  4.498615E+03 -2.954790E+04  7.768591E+03 -2.279420E+04 -7.797794E+03
       152   7 -6.587312E+05 -1.506378E+05 -1.722312E+05  3.570775E+04 -7.835262E+04 -2.739890E+03
       152   8 -6.283135E+05 -4.895431E+04 -1.057685E+05  1.044140E+04 -4.970520E+04 -8.182052E+03
       152   9 -6.278647E+05 -5.233910E+04 -8.422562E+04 -4.008951E+03 -2.106169E+04 -7.795895E+03
       152  10 -1.384897E+05 -2.098143E+04 -4.398034E+04 -2.004651E+04  2.238463E-10  4.967036E-10
       152  11 -1.394702E+05  7.215499E+04  1.089028E+04 -5.656179E+03  2.417051E-09 -1.427225E-11
       152  12 -1.693312E+05  6.133282E+04  2.512496E+04  1.955034E+04 -7.650293E-11 -1.127389E-09
       152  13 -3.986454E+05 -8.580940E+04 -1.081093E+05  7.836391E+03 -1.219782E-09  9.201347E-10
       152  14 -3.839207E+05  1.160201E+04 -4.743939E+04  2.394045E+03 -2.216755E-10  2.600978E-10
       152  15 -3.986225E+05  4.498411E+03 -2.954899E+04  7.768448E+03  9.310119E-10  4.048588E-10
       152  16 -6.587378E+05 -1.506395E+05 -1.722428E+05  3.570757E+04 -8.738408E-10  6.193144E-10
       152  17 -6.283161E+05 -4.895505E+04 -1.057732E+05  1.044107E+04 -1.520475E-09 -1.438914E-09
       152  18 -6.278652E+05 -5.233928E+04 -8.422657E+04 -4.009084E+03 -2.880568E-09 -2.338211E-09
       152  19 -1.384845E+05 -2.098012E+04 -4.397123E+04 -2.004635E+04  6.954995E+04  2.726922E+03
       152  20 -1.394678E+05  7.215565E+04  1.089456E+04 -5.655869E+03  4.703593E+04  8.178119E+03
       152  21 -1.693305E+05  6.133305E+04  2.512620E+04  1.955050E+04  2.452734E+04  7.799758E+03
       152  22 -3.986395E+05 -8.580792E+04 -1.080990E+05  7.836554E+03  7.395221E+04  2.733207E+03
       152  23 -3.839181E+05  1.160271E+04 -4.743487E+04  2.394364E+03  4.837083E+04  8.180068E+03
       152  24 -3.986219E+05  4.498615E+03 -2.954790E+04  7.768591E+03  2.279420E+04  7.797794E+03
       152  25 -6.587312E+05 -1.506378E+05 -1.722312E+05  3.570775E+04  7.835262E+04  2.739890E+03
       152  26 -6.283135E+05 -4.895431E+04 -1.057685E+05  1.044140E+04  4.970520E+04  8.182052E+03
       152  27 -6.278647E+05 -5.233910E+04 -8.422562E+04 -4.008951E+03  2.106169E+04  7.795895E+03
       153   1 -1.834518E+05  4.320672E+04  2.602469E+04  5.499023E+03 -1.824399E+04 -6.608450E+03
       153   2 -1.974123E+05  4.922592E+04  3.394489E+04  1.813309E+03 -1.216495E+04 -6.382411E+03
       153   3 -2.148183E+05  4.460466E+04  3.524815E+04  9.303358E+03 -6.086628E+03 -5.739607E+03
       153   4 -3.928589E+05 -8.702003E+03 -2.407750E+04  7.877291E+03 -1.823388E+04 -6.608661E+03
       153   5 -3.911147E+05  1.224385E+03 -1.230695E+04  2.284260E+03 -1.193676E+04 -6.382291E+03
       153   6 -3.928551E+05  4.705745E+02 -7.306402E+03  7.867232E+03 -5.640202E+03 -5.739134E+03
       153   7 -6.022257E+05 -6.061389E+04 -7.418279E+04  1.025474E+04 -1.822377E+04 -6.608873E+03
       153   8 -5.847826E+05 -4.677987E+04 -5.856143E+04  2.755054E+03 -1.170864E+04 -6.382171E+03
       153   9 -5.708628E+05 -4.366580E+04 -4.986318E+04  6.431511E+03 -5.193904E+03 -5.738664E+03
       153  10 -1.834522E+05  4.320659E+04  2.602398E+04  5.498926E+03  5.886213E-10 -2.820870E-09
       153  11 -1.974125E+05  4.922584E+04  3.394454E+04  1.813247E+03 -3.473903E-09 -2.517535E-10
       153  12 -2.148183E+05  4.460462E+04  3.524801E+04  9.303330E+03 -3.165597E-09  1.893684E-09
       153  13 -3.928593E+05 -8.702139E+03 -2.407821E+04  7.877194E+03  1.484092E-11 -2.154235E-09
       153  14 -3.911148E+05  1.224303E+03 -1.230729E+04  2.284199E+03 -1.380143E-09 -1.260588E-09
       153  15 -3.928551E+05  4.705306E+02 -7.306524E+03  7.867206E+03  2.912953E-09 -5.426177E-10
       153  16 -6.022261E+05 -6.061402E+04 -7.418349E+04  1.025464E+04 -2.185096E-10 -7.262205E-10
       153  17 -5.847828E+05 -4.677995E+04 -5.856176E+04  2.754993E+03  2.584630E-09 -5.721683E-10
       153  18 -5.708628E+05 -4.366584E+04 -4.986330E+04  6.431487E+03  4.154582E-09  1.163841E-09
       153  19 -1.834518E+05  4.320672E+04  2.602469E+04  5.499023E+03  1.824399E+04  6.608450E+03
       153  20 -1.974123E+05  4.922592E+04  3.394489E+04  1.813309E+03  1.216495E+04  6.382411E+03
       153  21 -2.148183E+05  4.460466E+04  3.524815E+04  9.303358E+03  6.086628E+03  5.739607E+03
       153  22 -3.928589E+05 -8.702003E+03 -2.407750E+04  7.877291E+03  1.823388E+04  6.608661E+03
       153  23 -3.911147E+05  1.224385E+03 -1.230695E+04  2.284260E+03  1.193676E+04  6.382291E+03
       153  24 -3.928551E+05  4.705745E+02 -7.306402E+03  7.867232E+03  5.640202E+03  5.739134E+03
       153  25 -6.022257E+05 -6.061389E+04 -7.418279E+04  1.025474E+04  1.822377E+04  6.608873E+03
       153  26 -5.847826E+05 -4.677987E+04 -5.856143E+04  2.755054E+03  1.170864E+04  6.382171E+03
       153  27 -5.708628E+05 -4.366580E+04 -4.986318E+04  6.431511E+03  5.193904E+03  5.738664E+03
       154   1 -2.343975E+05  3.824546E+04  3.192611E+04  7.892100E+03 -4.816710E+03 -5.297109E+03
       154   2 -2.500927E+05  3.529212E+04  3.072346E+04  2.363790E+03 -3.256589E+03 -4.662946E+03
       154   3 -2.662740E+05  3.128309E+04  2.823676E+04  8.199898E+03 -1.696740E+03 -3.995960E+03
       154   4 -3.921879E+05 -8.515467E+02 -5.716305E+03  7.913177E+03 -4.490970E+03 -5.296767E+03
       154   5 -3.919425E+05  1.372957E+02 -3.150207E+03  2.230258E+03 -2.913888E+03 -4.662534E+03
       154   6 -3.921865E+05  6.734553E+01 -1.880167E+03  7.911922E+03 -1.337039E+03 -3.995476E+03
       154   7 -5.499555E+05 -3.995035E+04 -4.336047E+04  7.934241E+03 -4.165312E+03 -5.296424E+03
       154   8 -5.337739E+05 -3.501898E+04 -3.702529E+04  2.096751E+03 -2.571265E+03 -4.662123E+03
       154   9 -5.180846E+05 -3.114954E+04 -3.199822E+04  7.624000E+03 -9.774111E+02 -3.994992E+03
       154  10 -2.343975E+05  3.824542E+04  3.192602E+04  7.892080E+03 -1.895859E-09  3.523950E-09
       154  11 -2.500927E+05  3.529209E+04  3.072340E+04  2.363778E+03 -1.339630E-09  2.527086E-09
       154  12 -2.662740E+05  3.128307E+04  2.823673E+04  8.199892E+03  2.355612E-09 -8.751585E-10
       154  13 -3.921880E+05 -8.515823E+02 -5.716396E+03  7.913158E+03  2.897459E-10 -1.056236E-10
       154  14 -3.919425E+05  1.372700E+02 -3.150264E+03  2.230247E+03  1.773906E-09  2.119468E-09
       154  15 -3.921865E+05  6.732791E+01 -1.880201E+03  7.911918E+03  4.680635E-09  2.917846E-09
       154  16 -5.499555E+05 -3.995038E+04 -4.336056E+04  7.934224E+03  1.852710E-09  3.027449E-09
       154  17 -5.337739E+05 -3.501901E+04 -3.702534E+04  2.096741E+03  3.972082E-09  3.103415E-09
       154  18 -5.180846E+05 -3.114956E+04 -3.199825E+04  7.623997E+03 -4.598139E-10  1.673378E-09
       154  19 -2.343975E+05  3.824546E+04  3.192611E+04  7.892100E+03  4.816710E+03  5.297109E+03
       154  20 -2.500927E+05  3.529212E+04  3.072346E+04  2.363790E+03  3.256589E+03  4.662946E+03
       154  21 -2.662740E+05  3.128309E+04  2.823676E+04  8.199898E+03  1.696740E+03  3.995960E+03
       154  22 -3.921879E+05 -8.515467E+02 -5.716305E+03  7.913177E+03  4.490970E+03  5.296767E+03
       154  23 -3.919425E+05  1.372957E+02 -3.150207E+03  2.230258E+03  2.913888E+03  4.662534E+03
       154  24 -3.921865E+05  6.734553E+01 -1.880167E+03  7.911922E+03  1.337039E+03  3.995476E+03
       154  25 -5.499555E+05 -3.995035E+04 -4.336047E+04  7.934241E+03  4.165312E+03  5.296424E+03
       154  26 -5.337739E+05 -3.501898E+04 -3.702529E+04  2.096751E+03  2.571265E+03  4.662123E+03
       154  27 -5.180846E+05 -3.114954E+04 -3.199822E+04  7.624000E+03  9.774111E+02  3.994992E+03
       155   1 -2.867173E+05  2.604908E+04  2.363446E+04  8.061314E+03 -1.387757E+03 -3.602149E+03
       155   2 -3.027758E+05  2.214805E+04  2.036560E+04  2.307428E+03 -9.183716E+02 -2.932753E+03
       155   3 -3.189527E+05  1.816424E+04  1.676242E+04  8.045382E+03 -4.491347E+02 -2.259046E+03
       155   4 -3.921030E+05 -5.989605E+01 -1.484346E+03  7.940712E+03 -1.035840E+03 -3.601650E+03
       155   5 -3.920430E+05  2.400714E+01 -9.521604E+02  2.194674E+03 -5.642554E+02 -2.932222E+03
       155   6 -3.921023E+05  2.468478E+01 -7.559153E+02  7.940580E+03 -9.280753E+01 -2.258481E+03
       155   7 -4.974785E+05 -2.616967E+04 -2.660393E+04  7.820126E+03 -6.839821E+02 -3.601152E+03
       155   8 -4.813029E+05 -2.210062E+04 -2.227048E+04  2.081935E+03 -2.101900E+02 -2.931691E+03
       155   9 -4.652471E+05 -1.811526E+04 -1.827463E+04  7.835789E+03  2.634778E+02 -2.257916E+03
       155  10 -2.867173E+05  2.604906E+04  2.363443E+04  8.061310E+03  4.108672E-09 -1.188263E-09
       155  11 -3.027758E+05  2.214804E+04  2.036558E+04  2.307425E+03 -2.628341E-09  3.535476E-09
       155  12 -3.189527E+05  1.816424E+04  1.676241E+04  8.045382E+03 -2.327042E-09  4.524937E-09
       155  13 -3.921030E+05 -5.991026E+01 -1.484372E+03  7.940709E+03  2.178736E-09 -2.018290E-10
       155  14 -3.920430E+05  2.399782E+01 -9.521771E+02  2.194673E+03  9.033245E-10  2.638974E-09
       155  15 -3.921023E+05  2.467930E+01 -7.559249E+02  7.940580E+03 -2.868118E-09  1.218690E-09
       155  16 -4.974785E+05 -2.616969E+04 -2.660396E+04  7.820124E+03 -1.340652E-09  9.787313E-10
       155  17 -4.813029E+05 -2.210063E+04 -2.227050E+04  2.081934E+03  8.735988E-10 -4.831291E-12
       155  18 -4.652471E+05 -1.811527E+04 -1.827464E+04  7.835789E+03  1.387471E-09 -6.645395E-10
       155  19 -2.867173E+05  2.604908E+04  2.363446E+04  8.061314E+03  1.387757E+03  3.602149E+03
       155  20 -3.027758E+05  2.214805E+04  2.036560E+04  2.307428E+03  9.183716E+02  2.932753E+03
       155  21 -3.189527E+05  1.816424E+04  1.676242E+04  8.045382E+03  4.491347E+02  2.259046E+03
       155  22 -3.921030E+05 -5.989605E+01 -1.484346E+03  7.940712E+03  1.035840E+03  3.601650E+03
       155  23 -3.920430E+05  2.400714E+01 -9.521604E+02  2.194674E+03  5.642554E+02  2.932222E+03
       155  24 -3.921023E+05  2.468478E+01 -7.559153E+02  7.940580E+03  9.280753E+01  2.258481E+03
       155  25 -4.974785E+05 -2.616967E+04 -2.660393E+04  7.820126E+03  6.839821E+02  3.601152E+03
       155  26 -4.813029E+05 -2.210062E+04 -2.227048E+04  2.081935E+03  2.101900E+02  2.931691E+03
       155  27 -4.652471E+05 -1.811526E+04 -1.827463E+04  7.835789E+03 -2.634778E+02  2.257916E+03
       156   1 -3.396575E+05  1.301149E+04  1.172890E+04  8.009133E+03 -3.143461E+02 -1.865645E+03
       156   2 -3.558105E+05  9.004262E+03  7.754805E+03  2.214398E+03  1.300938E+02 -1.189491E+03
       156   3 -3.720864E+05  4.924614E+03  3.462991E+03  7.982964E+03  5.744784E+02 -5.133619E+02
       156   4 -3.921024E+05  2.310232E+01 -7.465226E+02  7.956452E+03  4.213009E+01 -1.865065E+03
       156   5 -3.920409E+05  2.463507E+01 -8.975997E+02  2.174839E+03  4.865308E+02 -1.188899E+03
       156   6 -3.921022E+05 -4.616585E+01 -1.366302E+03  7.956570E+03  9.308878E+02 -5.127579E+02
       156   7 -4.445448E+05 -1.296549E+04 -1.322214E+04  7.903774E+03  3.985763E+02 -1.864485E+03
       156   8 -4.282701E+05 -8.955086E+03 -9.550096E+03  2.135282E+03  8.429471E+02 -1.188308E+03
       156   9 -4.121177E+05 -5.016975E+03 -6.195623E+03  7.930177E+03  1.287286E+03 -5.121538E+02
       156  10 -3.396575E+05  1.301149E+04  1.172889E+04  8.009133E+03 -2.266775E-09  2.027319E-09
       156  11 -3.558105E+05  9.004260E+03  7.754802E+03  2.214398E+03 -1.659006E-09 -1.105480E-09
       156  12 -3.720864E+05  4.924614E+03  3.462990E+03  7.982964E+03  2.836134E-09 -6.647210E-10
       156  13 -3.921024E+05  2.309858E+01 -7.465291E+02  7.956452E+03 -2.885802E-10  4.086380E-09
       156  14 -3.920409E+05  2.463349E+01 -8.976028E+02  2.174840E+03 -6.081035E-11 -5.132303E-10
       156  15 -3.921022E+05 -4.616636E+01 -1.366304E+03  7.956571E+03 -3.008679E-11 -1.690565E-09
       156  16 -4.445448E+05 -1.296549E+04 -1.322214E+04  7.903774E+03  1.280817E-11  1.170844E-09
       156  17 -4.282701E+05 -8.955088E+03 -9.550100E+03  2.135283E+03 -3.952775E-09 -2.398800E-09
       156  18 -4.121177E+05 -5.016976E+03 -6.195627E+03  7.930177E+03 -4.254618E-09 -2.063335E-09
       156  19 -3.396575E+05  1.301149E+04  1.172890E+04  8.009133E+03  3.143461E+02  1.865645E+03
       156  20 -3.558105E+05  9.004262E+03  7.754805E+03  2.214398E+03 -1.300938E+02  1.189491E+03
       156  21 -3.720864E+05  4.924614E+03  3.462991E+03  7.982964E+03 -5.744784E+02  5.133619E+02
       156  22 -3.921024E+05  2.310232E+01 -7.465226E+02  7.956452E+03 -4.213009E+01  1.865065E+03
       156  23 -3.920409E+05  2.463507E+01 -8.975997E+02  2.174839E+03 -4.865308E+02  1.188899E+03
       156  24 -3.921022E+05 -4.616585E+01 -1.366302E+03  7.956570E+03 -9.308878E+02  5.127579E+02
       156  25 -4.445448E+05 -1.296549E+04 -1.322214E+04  7.903774E+03 -3.985763E+02  1.864485E+03
       156  26 -4.282701E+05 -8.955086E+03 -9.550096E+03  2.135282E+03 -8.429471E+02  1.188308E+03
       156  27 -4.121177E+05 -5.016975E+03 -6.195623E+03  7.930177E+03 -1.287286E+03  5.121538E+02
       157   1 -3.929399E+05 -1.305928E+02 -1.952379E+03  7.825173E+03  8.461210E+02 -1.165278E+02
       157   2 -4.089324E+05 -4.080151E+03 -6.922586E+03  2.165246E+03  2.288944E+03  5.620673E+02
       157   3 -4.253997E+05 -8.984062E+03 -1.308163E+04  8.079489E+03  3.731778E+03  1.224219E+03
       157   4 -3.921800E+05  6.813308E+01 -1.721662E+03  7.958451E+03  1.207307E+03 -1.159132E+02
       157   5 -3.919436E+05  1.305635E+02 -2.865356E+03  2.172072E+03  2.641486E+03  5.626609E+02
       157   6 -3.921806E+05 -7.598122E+02 -5.191823E+03  7.959846E+03  4.075713E+03  1.224792E+03
       157   7 -3.914201E+05  2.668591E+02 -1.490946E+03  8.091729E+03  1.568493E+03 -1.152985E+02
       157   8 -3.749545E+05  4.341257E+03  1.191854E+03  2.178898E+03  2.994037E+03  5.632544E+02
       157   9 -3.589605E+05  7.464358E+03  2.697910E+03  7.840196E+03  4.419666E+03  1.225365E+03
       157  10 -3.929399E+05 -1.305930E+02 -1.952380E+03  7.825173E+03 -3.124072E-10  2.468240E-09
       157  11 -4.089324E+05 -4.080153E+03 -6.922596E+03  2.165245E+03 -3.330005E-09  9.415245E-10
       157  12 -4.253997E+05 -8.984067E+03 -1.308166E+04  8.079485E+03  1.574481E-09  6.255947E-10
       157  13 -3.921800E+05  6.813267E+01 -1.721665E+03  7.958451E+03 -1.050327E-12  8.953885E-10
       157  14 -3.919436E+05  1.305613E+02 -2.865370E+03  2.172071E+03 -9.901623E-10  1.140901E-09
       157  15 -3.921806E+05 -7.598183E+02 -5.191857E+03  7.959842E+03  1.303106E-09  1.925303E-09
       157  16 -3.914201E+05  2.668584E+02 -1.490950E+03  8.091729E+03 -4.503449E-10  1.799709E-09
       157  17 -3.749545E+05  4.341254E+03  1.191836E+03  2.178897E+03 -6.963108E-10 -3.684782E-09
       157  18 -3.589605E+05  7.464351E+03  2.697870E+03  7.840192E+03  3.771101E-10  5.691318E-11
       157  19 -3.929399E+05 -1.305928E+02 -1.952379E+03  7.825173E+03 -8.461210E+02  1.165278E+02
       157  20 -4.089324E+05 -4.080151E+03 -6.922586E+03  2.165246E+03 -2.288944E+03 -5.620673E+02
       157  21 -4.253997E+05 -8.984062E+03 -1.308163E+04  8.079489E+03 -3.731778E+03 -1.224219E+03
       157  22 -3.921800E+05  6.813308E+01 -1.721662E+03  7.958451E+03 -1.207307E+03  1.159132E+02
       157  23 -3.919436E+05  1.305635E+02 -2.865356E+03  2.172072E+03 -2.641486E+03 -5.626609E+02
       157  24 -3.921806E+05 -7.598122E+02 -5.191823E+03  7.959846E+03 -4.075713E+03 -1.224792E+03
       157  25 -3.914201E+05  2.668591E+02 -1.490946E+03  8.091729E+03 -1.568493E+03  1.152985E+02
       157  26 -3.749545E+05  4.341257E+03  1.191854E+03  2.178898E+03 -2.994037E+03 -5.632544E+02
       157  27 -3.589605E+05  7.464358E+03  2.697910E+03  7.840196E+03 -4.419666E+03 -1.225365E+03
       158   1 -4.467461E+05 -1.294883E+04 -1.956637E+04  6.729985E+03  4.708352E+03  1.650864E+03
       158   2 -4.613018E+05 -1.625626E+04 -2.791036E+04  2.681097E+03  1.054170E+04  2.324096E+03
       158   3 -4.790849E+05 -2.926604E+04 -4.248870E+04  1.016209E+04  1.637524E+04  2.768172E+03
       158   4 -3.927881E+05  4.389603E+02 -6.634293E+03  7.944921E+03  5.119336E+03  1.651549E+03
       158   5 -3.911863E+05  1.120198E+03 -1.116646E+04  2.186636E+03  1.083232E+04  2.324541E+03
       158   6 -3.927910E+05 -7.879391E+03 -2.184883E+04  7.958216E+03  1.654566E+04  2.768356E+03
       158   7 -3.388274E+05  1.382655E+04  6.297576E+03  9.159962E+03  5.530356E+03  1.652235E+03
       158   8 -3.210663E+05  1.849631E+04  5.577081E+03  1.692118E+03  1.112298E+04  2.324984E+03
       158   9 -3.064902E+05  1.350673E+04 -1.209490E+03  5.754035E+03  1.671609E+04  2.768539E+03
       158  10 -4.467462E+05 -1.294884E+04 -1.956641E+04  6.729979E+03 -6.536398E-10  3.559462E-09
       158  11 -4.613019E+05 -1.625630E+04 -2.791057E+04  2.681077E+03 -2.391751E-09  2.921895E-09
       158  12 -4.790852E+05 -2.926612E+04 -4.248922E+04  1.016205E+04  2.301932E-09  3.612973E-09
       158  13 -3.927881E+05  4.389503E+02 -6.634348E+03  7.944914E+03 -1.104260E-09  2.434838E-09
       158  14 -3.911864E+05  1.120160E+03 -1.116670E+04  2.186616E+03 -1.513120E-09  2.367270E-09
       158  15 -3.927913E+05 -7.879472E+03 -2.184936E+04  7.958179E+03  1.352139E-09 -2.003019E-09
       158  16 -3.388274E+05  1.382654E+04  6.297513E+03  9.159954E+03  5.751884E-10  1.231965E-09
       158  17 -3.210664E+05  1.849627E+04  5.576838E+03  1.692097E+03 -1.210435E-09 -1.272104E-09
       158  18 -3.064905E+05  1.350665E+04 -1.210029E+03  5.753998E+03 -1.871840E-09 -3.612800E-09
       158  19 -4.467461E+05 -1.294883E+04 -1.956637E+04  6.729985E+03 -4.708352E+03 -1.650864E+03
       158  20 -4.613018E+05 -1.625626E+04 -2.791036E+04  2.681097E+03 -1.054170E+04 -2.324096E+03
       158  21 -4.790849E+05 -2.926604E+04 -4.248870E+04  1.016209E+04 -1.637524E+04 -2.768172E+03
       158  22 -3.927881E+05  4.389603E+02 -6.634293E+03  7.944921E+03 -5.119336E+03 -1.651549E+03
       158  23 -3.911863E+05  1.120198E+03 -1.116646E+04  2.186636E+03 -1.083232E+04 -2.324541E+03
       158  24 -3.927910E+05 -7.879391E+03 -2.184883E+04  7.958216E+03 -1.654566E+04 -2.768356E+03
       158  25 -3.388274E+05  1.382655E+04  6.297576E+03  9.159962E+03 -5.530356E+03 -1.652235E+03
       158  26 -3.210663E+05  1.849631E+04  5.577081E+03  1.692118E+03 -1.112298E+04 -2.324984E+03
       158  27 -3.064902E+05  1.350673E+04 -1.209490E+03  5.754035E+03 -1.671609E+04 -2.768539E+03
       159   1 -5.049048E+05 -2.243024E+04 -5.232473E+04 -2.771125E+03  1.956080E+04  3.610591E+03
       159   2 -5.074794E+05 -1.987268E+04 -7.234742E+04  9.542032E+03  4.446259E+04  4.162126E+03
       159   3 -5.371136E+05 -1.124477E+05 -1.323798E+05  3.327485E+04  6.936880E+04  1.492389E+03
       159   4 -3.980225E+05  4.098616E+03 -2.681284E+04  7.888097E+03  2.068399E+04  3.612628E+03
       159   5 -3.846504E+05  1.054092E+04 -4.303763E+04  2.236874E+03  4.388937E+04  4.160691E+03
       159   6 -3.980382E+05 -7.784555E+04 -9.808783E+04  8.005768E+03  6.709987E+04  1.486320E+03
       159   7 -2.911295E+05  3.062706E+04 -1.301691E+03  1.854916E+04  2.180737E+04  3.614703E+03
       159   8 -2.618075E+05  4.095363E+04 -1.372887E+04 -5.069741E+03  4.331604E+04  4.159270E+03
       159   9 -2.589438E+05 -4.324244E+04 -6.379697E+04 -1.726899E+04  6.483043E+04  1.480438E+03
       159  10 -5.049052E+05 -2.243035E+04 -5.232547E+04 -2.771182E+03  1.404936E-09  1.161176E-09
       159  11 -5.074815E+05 -1.987323E+04 -7.235117E+04  9.541883E+03  3.662352E-10  3.618139E-11
       159  12 -5.371188E+05 -1.124490E+05 -1.323888E+05  3.327477E+04  2.977161E-09  2.400719E-10
       159  13 -3.980230E+05  4.098487E+03 -2.681367E+04  7.888037E+03 -2.754117E-10  1.935356E-09
       159  14 -3.846525E+05  1.054038E+04 -4.304128E+04  2.236727E+03 -1.160337E-10 -3.015071E-09
       159  15 -3.980430E+05 -7.784677E+04 -9.809630E+04  8.005688E+03 -4.669758E-11  2.125637E-09
       159  16 -2.911300E+05  3.062692E+04 -1.302609E+03  1.854910E+04 -1.668650E-09  1.156020E-09
       159  17 -2.618096E+05  4.095311E+04 -1.373243E+04 -5.069886E+03 -2.805064E-09  4.225779E-10
       159  18 -2.589483E+05 -4.324358E+04 -6.380488E+04 -1.726907E+04 -5.401303E-10  5.497773E-10
       159  19 -5.049048E+05 -2.243024E+04 -5.232473E+04 -2.771125E+03 -1.956080E+04 -3.610591E+03
       159  20 -5.074794E+05 -1.987268E+04 -7.234742E+04  9.542032E+03 -4.446259E+04 -4.162126E+03
       159  21 -5.371136E+05 -1.124477E+05 -1.323798E+05  3.327485E+04 -6.936880E+04 -1.492389E+03
       159  22 -3.980225E+05  4.098616E+03 -2.681284E+04  7.888097E+03 -2.068399E+04 -3.612628E+03
       159  23 -3.846504E+05  1.054092E+04 -4.303763E+04  2.236874E+03 -4.388937E+04 -4.160691E+03
       159  24 -3.980382E+05 -7.784555E+04 -9.808783E+04  8.005768E+03 -6.709987E+04 -1.486320E+03
       159  25 -2.911295E+05  3.062706E+04 -1.301691E+03  1.854916E+04 -2.180737E+04 -3.614703E+03
       159  26 -2.618075E+05  4.095363E+04 -1.372887E+04 -5.069741E+03 -4.331604E+04 -4.159270E+03
       159  27 -2.589438E+05 -4.324244E+04 -6.379697E+04 -1.726899E+04 -6.483043E+04 -1.480438E+03
       160   1  1.804137E+05  1.007750E+06  1.976606E+05 -9.485591E+04  4.200988E+03  7.496383E+04
       160   2  6.795936E+04  8.948206E+05  1.165117E+05 -4.680344E+04  1.190948E+04  4.064755E+04
       160   3  4.413275E+04  8.084519E+05  7.982585E+04 -4.722064E+04  8.824866E+03  6.327782E+03
       160   4  8.225390E+04  6.133104E+05  1.012627E+05 -5.914939E+04  4.213328E+03  6.488647E+04
       160   5 -4.323194E+03  6.007664E+05  4.903011E+04 -3.495082E+04  1.191219E+04  3.888286E+04
       160   6 -3.690742E+03  6.133500E+05  3.551167E+04 -5.921922E+04  8.818296E+03  1.287011E+04
       160   7 -1.591256E+04  2.190154E+05  4.854531E+03 -2.346554E+04  4.224516E+03  5.481548E+04
       160   8 -7.661125E+04  3.067925E+05 -1.845713E+04 -2.310385E+04  1.191483E+04  3.711899E+04
       160   9 -5.151630E+04  4.182838E+05 -8.804742E+03 -7.121400E+04  8.811472E+03  1.941040E+04
       160  10  1.804122E+05  1.007744E+06  1.976501E+05 -9.485616E+04 -1.935229E-09  4.481797E-09
       160  11  6.795876E+04  8.948188E+05  1.165084E+05 -4.680383E+04 -4.369394E-09 -3.537706E-09
       160  12  4.413266E+04  8.084518E+05  7.982563E+04 -4.722068E+04 -4.534458E-09 -9.591319E-09
       160  13  8.225275E+04  6.133059E+05  1.012548E+05 -5.914961E+04 -1.980832E-09 -8.455871E-10
       160  14 -4.323752E+03  6.007648E+05  4.902701E+04 -3.495120E+04 -5.849634E-09  1.064312E-10
       160  15 -3.690870E+03  6.133498E+05  3.551121E+04 -5.921931E+04 -4.009112E-09 -2.036132E-10
       160  16 -1.591338E+04  2.190122E+05  4.848853E+03 -2.346573E+04 -3.159845E-10 -3.378349E-09
       160  17 -7.661177E+04  3.067910E+05 -1.845999E+04 -2.310420E+04 -2.824860E-09  3.021246E-09
       160  18 -5.151648E+04  4.182834E+05 -8.805595E+03 -7.121414E+04 -2.398182E-09  9.015282E-09
       160  19  1.804137E+05  1.007750E+06  1.976606E+05 -9.485591E+04 -4.200988E+03 -7.496383E+04
       160  20  6.795936E+04  8.948206E+05  1.165117E+05 -4.680344E+04 -1.190948E+04 -4.064755E+04
       160  21  4.413275E+04  8.084519E+05  7.982585E+04 -4.722064E+04 -8.824866E+03 -6.327782E+03
       160  22  8.225390E+04  6.133104E+05  1.012627E+05 -5.914939E+04 -4.213328E+03 -6.488647E+04
       160  23 -4.323194E+03  6.007664E+05  4.903011E+04 -3.495082E+04 -1.191219E+04 -3.888286E+04
       160  24 -3.690742E+03  6.133500E+05  3.551167E+04 -5.921922E+04 -8.818296E+03 -1.287011E+04
       160  25 -1.591256E+04  2.190154E+05  4.854531E+03 -2.346554E+04 -4.224516E+03 -5.481548E+04
       160  26 -7.661125E+04  3.067925E+05 -1.845713E+04 -2.310385E+04 -1.191483E+04 -3.711899E+04
       160  27 -5.151630E+04  4.182838E+05 -8.804742E+03 -7.121400E+04 -8.811472E+03 -1.941040E+04
       161   1  3.078475E+04  7.133429E+05  5.679773E+04 -6.310637E+04  4.613896E+03  3.788853E+03
       161   2  1.534743E+02  6.108145E+05  3.282723E+04 -3.450305E+04  2.287368E+02 -1.225429E+04
       161   3 -1.326877E+04  5.145688E+05  2.356983E+04 -5.468828E+04 -4.167026E+03 -2.829506E+04
       161   4  5.210825E+03  6.091617E+05  3.307936E+04 -5.927041E+04  4.610427E+03  7.167478E+03
       161   5 -1.020553E+03  6.060249E+05  3.173877E+04 -3.487402E+04  2.252489E+02 -8.867024E+03
       161   6  9.956159E+03  6.091595E+05  4.510589E+04 -5.926553E+04 -4.170351E+03 -2.490165E+04
       161   7 -2.036379E+04  5.049907E+05  9.360337E+03 -5.543509E+04  4.606999E+03  1.054554E+04
       161   8 -2.194574E+03  6.012353E+05  3.065036E+04 -3.524499E+04  2.217570E+02 -5.479782E+03
       161   9  3.318055E+04  7.037586E+05  6.664141E+04 -6.384348E+04 -4.173726E+03 -2.150773E+04
       161  10  3.078472E+04  7.133429E+05  5.679766E+04 -6.310639E+04 -1.817415E-09  1.846445E-09
       161  11  1.534340E+02  6.108143E+05  3.282694E+04 -3.450305E+04  1.675446E-09 -1.362424E-09
       161  12 -1.326900E+04  5.145679E+05  2.356830E+04 -5.468838E+04 -8.874912E-10 -2.411356E-09
       161  13  5.210789E+03  6.091617E+05  3.307922E+04 -5.927043E+04  2.134922E-09 -1.101244E-09
       161  14 -1.020574E+03  6.060248E+05  3.173863E+04 -3.487402E+04  3.759176E-09 -1.999236E-10
       161  15  9.955974E+03  6.091588E+05  4.510469E+04 -5.926561E+04 -2.105410E-09 -4.058676E-10
       161  16 -2.036384E+04  5.049905E+05  9.360088E+03 -5.543512E+04  1.516198E-09 -5.251588E-11
       161  17 -2.194582E+03  6.012353E+05  3.065031E+04 -3.524499E+04  9.727133E-10  6.337886E-10
       161  18  3.318041E+04  7.037581E+05  6.664051E+04 -6.384355E+04 -2.423336E-09  1.764592E-09
       161  19  3.078475E+04  7.133429E+05  5.679773E+04 -6.310637E+04 -4.613896E+03 -3.788853E+03
       161  20  1.534743E+02  6.108145E+05  3.282723E+04 -3.450305E+04 -2.287368E+02  1.225429E+04
       161  21 -1.326877E+04  5.145688E+05  2.356983E+04 -5.468828E+04  4.167026E+03  2.829506E+04
       161  22  5.210825E+03  6.091617E+05  3.307936E+04 -5.927041E+04 -4.610427E+03 -7.167478E+03
       161  23 -1.020553E+03  6.060249E+05  3.173877E+04 -3.487402E+04 -2.252489E+02  8.867024E+03
       161  24  9.956159E+03  6.091595E+05  4.510589E+04 -5.926553E+04  4.170351E+03  2.490165E+04
       161  25 -2.036379E+04  5.049907E+05  9.360337E+03 -5.543509E+04 -4.606999E+03 -1.054554E+04
       161  26 -2.194574E+03  6.012353E+05  3.065036E+04 -3.524499E+04 -2.217570E+02  5.479782E+03
       161  27  3.318055E+04  7.037586E+05  6.664141E+04 -6.384348E+04  4.173726E+03  2.150773E+04
       162   1 -5.295220E+04  4.321546E+05  1.093661E+04 -8.084044E+04 -8.342841E+03 -3.942263E+04
       162   2 -7.762633E+04  3.110188E+05  1.767694E+04 -1.406083E+04 -1.147631E+04 -7.546626E+04
       162   3  5.143575E+04  2.329710E+05  8.630515E+04  4.276001E+03 -4.060914E+03 -1.114941E+05
       162   4 -7.499127E+03  6.176475E+05  5.307883E+04 -5.922799E+04 -8.350660E+03 -3.294528E+04
       162   5 -7.677181E+03  5.953909E+05  8.297078E+04 -3.494621E+04 -1.147196E+04 -7.711520E+04
       162   6  1.472441E+05  6.175898E+05  1.803661E+05 -5.910041E+04 -4.041623E+03 -1.212755E+05
       162   7  3.795336E+04  8.031734E+05  9.521923E+04 -3.760902E+04 -8.358026E+03 -2.646601E+04
       162   8  6.226796E+04  8.798387E+05  1.482595E+05 -5.584122E+04 -1.146750E+04 -7.876487E+04
       162   9  2.430566E+05  1.002352E+06  2.744187E+05 -1.225161E+05 -4.020344E+03 -1.310629E+05
       162  10 -5.295269E+04  4.321529E+05  1.093356E+04 -8.084070E+04 -4.343491E-09  9.025972E-09
       162  11 -7.762800E+04  3.110126E+05  1.766600E+04 -1.406152E+04  2.859443E-10  8.470427E-12
       162  12  5.143240E+04  2.329577E+05  8.628177E+04  4.275636E+03  4.705580E-10 -6.845373E-09
       162  13 -7.499493E+03  6.176463E+05  5.307666E+04 -5.922821E+04 -1.185834E-09 -8.825173E-10
       162  14 -7.678917E+03  5.953844E+05  8.295937E+04 -3.494693E+04 -3.162373E-09 -3.550287E-11
       162  15  1.472401E+05  6.175740E+05  1.803384E+05 -5.910081E+04  1.751493E-10 -1.860646E-10
       162  16  3.795310E+04  8.031727E+05  9.521779E+04 -3.760920E+04 -1.088351E-09 -7.796805E-09
       162  17  6.226615E+04  8.798320E+05  1.482476E+05 -5.584195E+04 -1.942790E-09 -6.163406E-10
       162  18  2.430520E+05  1.002334E+06  2.743864E+05 -1.225166E+05 -3.692266E-11  6.728814E-09
       162  19 -5.295220E+04  4.321546E+05  1.093661E+04 -8.084044E+04  8.342841E+03  3.942263E+04
       162  20 -7.762633E+04  3.110188E+05  1.767694E+04 -1.406083E+04  1.147631E+04  7.546626E+04
       162  21  5.143575E+04  2.329710E+05  8.630515E+04  4.276001E+03  4.060914E+03  1.114941E+05
       162  22 -7.499127E+03  6.176475E+05  5.307883E+04 -5.922799E+04  8.350660E+03  3.294528E+04
       162  23 -7.677181E+03  5.953909E+05  8.297078E+04 -3.494621E+04  1.147196E+04  7.711520E+04
       162  24  1.472441E+05  6.175898E+05  1.803661E+05 -5.910041E+04  4.041623E+03  1.212755E+05
       162  25  3.795336E+04  8.031734E+05  9.521923E+04 -3.760902E+04  8.358026E+03  2.646601E+04
       162  26  6.226796E+04  8.798387E+05  1.482595E+05 -5.584122E+04  1.146750E+04  7.876487E+04
       162  27  2.430566E+05  1.002352E+06  2.744187E+05 -1.225161E+05  4.020344E+03  1.310629E+05
       163   1  9.566554E+04  3.753343E+04  1.975103E+04 -7.484216E+03 -4.672223E+04 -5.205923E+03
       163   2  6.910161E+04  1.011441E+05  5.244679E+04  2.359709E+03 -3.417136E+04 -1.587624E+04
       163   3  2.256853E+04  9.134079E+04  5.863540E+04  3.093775E+04 -2.163745E+04 -1.572444E+04
       163   4 -3.330633E+05 -6.908074E+04 -8.501540E+04  2.038273E+04 -5.828696E+04 -5.225197E+03
       163   5 -3.223860E+05  4.779164E+03 -3.801515E+04  1.095837E+04 -3.795560E+04 -1.588356E+04
       163   6 -3.330447E+05  3.847463E+03 -2.293979E+04  2.026947E+04 -1.764015E+04 -1.571754E+04
       163   7 -7.616226E+05 -1.757055E+05 -1.897943E+05  4.823033E+04 -6.984372E+04 -5.245516E+03
       163   8 -7.137317E+05 -9.159620E+04 -1.284872E+05  1.955150E+04 -4.173747E+04 -1.589099E+04
       163   9 -6.885405E+05 -8.365427E+04 -1.045232E+05  9.607306E+03 -1.364511E+04 -1.571078E+04
       163  10  9.566319E+04  3.753281E+04  1.974688E+04 -7.484412E+03 -2.120583E-09 -3.934876E-10
       163  11  6.910029E+04  1.011435E+05  5.244412E+04  2.359272E+03  5.732499E-10  5.891310E-09
       163  12  2.256797E+04  9.134040E+04  5.863405E+04  3.093748E+04  1.684621E-09  3.265825E-09
       163  13 -3.330670E+05 -6.908168E+04 -8.502184E+04  2.038249E+04 -6.955622E-11 -2.669904E-09
       163  14 -3.223876E+05  4.778506E+03 -3.801833E+04  1.095788E+04  7.954903E-10 -5.231570E-09
       163  15 -3.330451E+05  3.847114E+03 -2.294084E+04  2.026925E+04 -4.097690E-09  7.888158E-10
       163  16 -7.616279E+05 -1.757068E+05 -1.898035E+05  4.823004E+04  9.747610E-10  2.604497E-10
       163  17 -7.137337E+05 -9.159694E+04 -1.284910E+05  1.955097E+04 -7.022812E-10  5.449423E-09
       163  18 -6.885408E+05 -8.365458E+04 -1.045240E+05  9.607133E+03 -1.945061E-09 -2.945315E-11
       163  19  9.566554E+04  3.753343E+04  1.975103E+04 -7.484216E+03  4.672223E+04  5.205923E+03
       163  20  6.910161E+04  1.011441E+05  5.244679E+04  2.359709E+03  3.417136E+04  1.587624E+04
       163  21  2.256853E+04  9.134079E+04  5.863540E+04  3.093775E+04  2.163745E+04  1.572444E+04
       163  22 -3.330633E+05 -6.908074E+04 -8.501540E+04  2.038273E+04  5.828696E+04  5.225197E+03
       163  23 -3.223860E+05  4.779164E+03 -3.801515E+04  1.095837E+04  3.795560E+04  1.588356E+04
       163  24 -3.330447E+05  3.847463E+03 -2.293979E+04  2.026947E+04  1.764015E+04  1.571754E+04
       163  25 -7.616226E+05 -1.757055E+05 -1.897943E+05  4.823033E+04  6.984372E+04  5.245516E+03
       163  26 -7.137317E+05 -9.159620E+04 -1.284872E+05  1.955150E+04  4.173747E+04  1.589099E+04
       163  27 -6.885405E+05 -8.365427E+04 -1.045232E+05  9.607306E+03  1.364511E+04  1.571078E+04
       164   1 -8.279259E+03  7.375986E+04  5.539757E+04  1.910468E+04 -1.492322E+04 -1.339654E+04
       164   2 -4.391055E+04  7.027750E+04  5.549556E+04  1.079667E+04 -1.037396E+04 -1.219957E+04
       164   3 -8.157771E+04  6.121018E+04  5.122554E+04  2.167258E+04 -5.826787E+03 -1.046293E+04
       164   4 -3.287680E+05 -5.115876E+03 -1.847123E+04  2.040908E+04 -1.425690E+04 -1.339581E+04
       164   5 -3.277114E+05  4.564271E+02 -9.759700E+03  1.081146E+04 -9.321436E+03 -1.219787E+04
       164   6 -3.287609E+05  3.750226E+02 -5.686293E+03  2.039840E+04 -4.387797E+03 -1.046017E+04
       164   7 -6.491616E+05 -8.399879E+04 -9.234685E+04  2.171276E+04 -1.359092E+04 -1.339508E+04
       164   8 -6.114378E+05 -6.937028E+04 -7.502029E+04  1.082620E+04 -8.269386E+03 -1.219617E+04
       164   9 -5.758876E+05 -6.046441E+04 -6.260217E+04  1.912470E+04 -2.949375E+03 -1.045741E+04
       164  10 -8.279547E+03  7.375960E+04  5.539681E+04  1.910452E+04 -1.255970E-10  3.382792E-10
       164  11 -4.391071E+04  7.027731E+04  5.549508E+04  1.079656E+04 -8.497496E-10  4.893991E-10
       164  12 -8.157778E+04  6.121006E+04  5.122528E+04  2.167253E+04  2.741292E-09  4.415654E-09
       164  13 -3.287682E+05 -5.116124E+03 -1.847195E+04  2.040893E+04 -3.256027E-10  5.072916E-09
       164  14 -3.277116E+05  4.562440E+02 -9.760143E+03  1.081137E+04 -1.951711E-09 -1.336189E-08
       164  15 -3.287610E+05  3.748999E+02 -5.686535E+03  2.039836E+04 -8.430393E-10  4.927835E-09
       164  16 -6.491619E+05 -8.399904E+04 -9.234753E+04  2.171261E+04 -5.838910E-10 -5.038408E-09
       164  17 -6.114379E+05 -6.937045E+04 -7.502070E+04  1.082612E+04 -2.008795E-09 -2.325226E-09
       164  18 -5.758876E+05 -6.046453E+04 -6.260240E+04  1.912468E+04 -1.325883E-09  1.153765E-09
       164  19 -8.279259E+03  7.375986E+04  5.539757E+04  1.910468E+04  1.492322E+04  1.339654E+04
       164  20 -4.391055E+04  7.027750E+04  5.549556E+04  1.079667E+04  1.037396E+04  1.219957E+04
       164  21 -8.157771E+04  6.121018E+04  5.122554E+04  2.167258E+04  5.826787E+03  1.046293E+04
       164  22 -3.287680E+05 -5.115876E+03 -1.847123E+04  2.040908E+04  1.425690E+04  1.339581E+04
       164  23 -3.277114E+05  4.564271E+02 -9.759700E+03  1.081146E+04  9.321436E+03  1.219787E+04
       164  24 -3.287609E+05  3.750226E+02 -5.686293E+03  2.039840E+04  4.387797E+03  1.046017E+04
       164  25 -6.491616E+05 -8.399879E+04 -9.234685E+04  2.171276E+04  1.359092E+04  1.339508E+04
       164  26 -6.114378E+05 -6.937028E+04 -7.502029E+04  1.082620E+04  8.269386E+03  1.219617E+04
       164  27 -5.758876E+05 -6.046441E+04 -6.260217E+04  1.912470E+04  2.949375E+03  1.045741E+04
       165   1 -1.163884E+05  5.184519E+04  4.423806E+04  2.073990E+04 -4.779502E+03 -9.342624E+03
       165   2 -1.530361E+05  4.318641E+04  3.779936E+04  1.110180E+04 -3.577712E+03 -7.554496E+03
       165   3 -1.900169E+05  3.417765E+04  3.047037E+04  2.075905E+04 -2.376537E+03 -5.737477E+03
       165   4 -3.283641E+05 -2.872206E+02 -4.394282E+03  2.042677E+04 -3.503754E+03 -9.340076E+03
       165   5 -3.281935E+05  9.216821E+01 -2.464239E+03  1.077848E+04 -2.281573E+03 -7.551743E+03
       165   6 -3.283604E+05  1.181423E+02 -1.438697E+03  2.042587E+04 -1.059935E+03 -5.734511E+03
       165   7 -5.402981E+05 -5.242277E+04 -5.302958E+04  2.011372E+04 -2.228438E+03 -9.337528E+03
       165   8 -5.033224E+05 -4.300422E+04 -4.272986E+04  1.045523E+04 -9.857959E+02 -7.548992E+03
       165   9 -4.666862E+05 -3.394270E+04 -3.334903E+04  2.009275E+04  2.563753E+02 -5.731546E+03
       165  10 -1.163885E+05  5.184509E+04  4.423786E+04  2.073987E+04  2.238339E-09 -4.096977E-09
       165  11 -1.530361E+05  4.318635E+04  3.779923E+04  1.110178E+04 -2.296574E-09 -3.422608E-09
       165  12 -1.900169E+05  3.417761E+04  3.047030E+04  2.075904E+04 -2.067481E-09 -2.170909E-09
       165  13 -3.283641E+05 -2.873176E+02 -4.394469E+03  2.042674E+04 -1.019125E-09 -3.752843E-10
       165  14 -3.281935E+05  9.210558E+01 -2.464356E+03  1.077846E+04 -5.272318E-10 -2.735303E-09
       165  15 -3.283604E+05  1.181067E+02 -1.438761E+03  2.042587E+04 -2.374927E-09  1.816330E-10
       165  16 -5.402982E+05 -5.242286E+04 -5.302975E+04  2.011371E+04 -1.250095E-09 -3.313858E-09
       165  17 -5.033224E+05 -4.300428E+04 -4.272997E+04  1.045522E+04  3.989036E-11  2.616835E-09
       165  18 -4.666862E+05 -3.394274E+04 -3.334910E+04  2.009276E+04  2.771710E-09  7.839074E-09
       165  19 -1.163884E+05  5.184519E+04  4.423806E+04  2.073990E+04  4.779502E+03  9.342624E+03
       165  20 -1.530361E+05  4.318641E+04  3.779936E+04  1.110180E+04  3.577712E+03  7.554496E+03
       165  21 -1.900169E+05  3.417765E+04  3.047037E+04  2.075905E+04  2.376537E+03  5.737477E+03
       165  22 -3.283641E+05 -2.872206E+02 -4.394282E+03  2.042677E+04  3.503754E+03  9.340076E+03
       165  23 -3.281935E+05  9.216821E+01 -2.464239E+03  1.077848E+04  2.281573E+03  7.551743E+03
       165  24 -3.283604E+05  1.181423E+02 -1.438697E+03  2.042587E+04  1.059935E+03  5.734511E+03
       165  25 -5.402981E+05 -5.242277E+04 -5.302958E+04  2.011372E+04  2.228438E+03  9.337528E+03
       165  26 -5.033224E+05 -4.300422E+04 -4.272986E+04  1.045523E+04  9.857959E+02  7.548992E+03
       165  27 -4.666862E+05 -3.394270E+04 -3.334903E+04  2.009275E+04 -2.563753E+02  5.731546E+03
       166   1 -2.253011E+05  2.539727E+04  2.245927E+04  2.064000E+04 -2.142511E+03 -4.674329E+03
       166   2 -2.621372E+05  1.632552E+04  1.451745E+04  1.089792E+04 -1.812053E+03 -2.853437E+03
       166   3 -2.991126E+05  7.308329E+03  6.349056E+03  2.049961E+04 -1.481810E+03 -1.030425E+03
       166   4 -3.283146E+05  7.316102E+01 -1.113355E+03  2.043689E+04 -8.330909E+02 -4.671307E+03
       166   5 -3.282435E+05  6.022645E+01 -6.790765E+02  1.076491E+04 -5.011933E+02 -2.850352E+03
       166   6 -3.283132E+05  1.016896E+02 -4.723423E+02  2.043682E+04 -1.694908E+02 -1.027272E+03
       166   7 -4.313182E+05 -2.525169E+04 -2.468667E+04  2.023381E+04  4.761137E+02 -4.668286E+03
       166   8 -3.943457E+05 -1.620537E+04 -1.587588E+04  1.063191E+04  8.095281E+02 -2.847267E+03
       166   9 -3.575130E+05 -7.105010E+03 -7.293792E+03  2.037404E+04  1.142767E+03 -1.024119E+03
       166  10 -2.253011E+05  2.539725E+04  2.245922E+04  2.063999E+04  8.305820E-10 -6.186766E-09
       166  11 -2.621372E+05  1.632551E+04  1.451743E+04  1.089792E+04 -6.206288E-09 -7.372928E-10
       166  12 -2.991126E+05  7.308328E+03  6.349050E+03  2.049961E+04 -9.100635E-09  2.652158E-10
       166  13 -3.283146E+05  7.313740E+01 -1.113397E+03  2.043689E+04 -9.222622E-10  1.722254E-09
       166  14 -3.282435E+05  6.021766E+01 -6.790923E+02  1.076491E+04 -5.859594E-09 -7.490959E-09
       166  15 -3.283132E+05  1.016885E+02 -4.723444E+02  2.043682E+04 -3.787059E-09 -2.760195E-09
       166  16 -4.313182E+05 -2.525171E+04 -2.468671E+04  2.023381E+04 -4.240994E-09  3.494925E-09
       166  17 -3.943457E+05 -1.620538E+04 -1.587590E+04  1.063192E+04 -9.551108E-10  5.169788E-09
       166  18 -3.575130E+05 -7.105011E+03 -7.293796E+03  2.037404E+04  6.700885E-09  1.580034E-09
       166  19 -2.253011E+05  2.539727E+04  2.245927E+04  2.064000E+04  2.142511E+03  4.674329E+03
       166  20 -2.621372E+05  1.632552E+04  1.451745E+04  1.089792E+04  1.812053E+03  2.853437E+03
       166  21 -2.991126E+05  7.308329E+03  6.349056E+03  2.049961E+04  1.481810E+03  1.030425E+03
       166  22 -3.283146E+05  7.316102E+01 -1.113355E+03  2.043689E+04  8.330909E+02  4.671307E+03
       166  23 -3.282435E+05  6.022645E+01 -6.790765E+02  1.076491E+04  5.011933E+02  2.850352E+03
       166  24 -3.283132E+05  1.016896E+02 -4.723423E+02  2.043682E+04  1.694908E+02  1.027272E+03
       166  25 -4.313182E+05 -2.525169E+04 -2.468667E+04  2.023381E+04 -4.761137E+02  4.668286E+03
       166  26 -3.943457E+05 -1.620537E+04 -1.587588E+04  1.063191E+04 -8.095281E+02  2.847267E+03
       166  27 -3.575130E+05 -7.105010E+03 -7.293792E+03  2.037404E+04 -1.142767E+03  1.024119E+03
       167   1 -3.344838E+05 -1.440402E+03 -1.955239E+03  2.042822E+04 -1.403119E+03  3.112292E+01
       167   2 -3.713350E+05 -1.054433E+04 -1.033930E+04  1.068358E+04 -1.191569E+03  1.854257E+03
       167   3 -4.083075E+05 -1.957706E+04 -1.886882E+04  2.028791E+04 -9.799071E+02  3.675634E+03
       167   4 -3.283090E+05  1.006472E+02 -4.271504E+02  2.043794E+04 -9.075315E+01  3.428314E+01
       167   5 -3.282480E+05  5.778098E+01 -4.337951E+02  1.076352E+04  1.194970E+02  1.857371E+03
       167   6 -3.283099E+05  8.629469E+01 -5.850642E+02  2.043798E+04  3.298720E+02  3.678708E+03
       167   7 -3.221342E+05  1.641695E+03  1.100942E+03  2.044767E+04  1.221626E+03  3.744338E+01
       167   8 -2.851593E+05  1.065977E+04  9.471598E+03  1.084347E+04  1.430654E+03  1.860485E+03
       167   9 -2.483063E+05  1.974921E+04  1.769828E+04  2.058806E+04  1.639819E+03  3.681781E+03
       167  10 -3.344838E+05 -1.440403E+03 -1.955242E+03  2.042822E+04 -1.390323E-09 -1.678135E-09
       167  11 -3.713350E+05 -1.054434E+04 -1.033931E+04  1.068358E+04 -4.237957E-09 -5.117270E-09
       167  12 -4.083075E+05 -1.957708E+04 -1.886885E+04  2.028791E+04 -7.141483E-09 -1.659564E-09
       167  13 -3.283090E+05  1.006472E+02 -4.271504E+02  2.043794E+04  2.113433E-09  3.928408E-09
       167  14 -3.282480E+05  5.777727E+01 -4.338016E+02  1.076352E+04 -3.951441E-09 -6.945832E-09
       167  15 -3.283099E+05  8.628013E+01 -5.850898E+02  2.043797E+04  2.744283E-09 -6.041091E-09
       167  16 -3.221342E+05  1.641694E+03  1.100939E+03  2.044767E+04  8.462136E-10  2.443918E-09
       167  17 -2.851593E+05  1.065976E+04  9.471588E+03  1.084346E+04 -5.773974E-10 -1.106421E-08
       167  18 -2.483063E+05  1.974919E+04  1.769825E+04  2.058806E+04  5.077299E-09 -6.255287E-09
       167  19 -3.344838E+05 -1.440402E+03 -1.955239E+03  2.042822E+04  1.403119E+03 -3.112292E+01
       167  20 -3.713350E+05 -1.054433E+04 -1.033930E+04  1.068358E+04  1.191569E+03 -1.854257E+03
       167  21 -4.083075E+05 -1.957706E+04 -1.886882E+04  2.028791E+04  9.799071E+02 -3.675634E+03
       167  22 -3.283090E+05  1.006472E+02 -4.271504E+02  2.043794E+04  9.075315E+01 -3.428314E+01
       167  23 -3.282480E+05  5.778098E+01 -4.337951E+02  1.076352E+04 -1.194970E+02 -1.857371E+03
       167  24 -3.283099E+05  8.629469E+01 -5.850642E+02  2.043798E+04 -3.298720E+02 -3.678708E+03
       167  25 -3.221342E+05  1.641695E+03  1.100942E+03  2.044767E+04 -1.221626E+03 -3.744338E+01
       167  26 -2.851593E+05  1.065977E+04  9.471598E+03  1.084347E+04 -1.430654E+03 -1.860485E+03
       167  27 -2.483063E+05  1.974921E+04  1.769828E+04  2.058806E+04 -1.639819E+03 -3.681781E+03
       168   1 -4.436668E+05 -2.829592E+04 -2.734416E+04  2.018356E+04 -8.720325E+02  4.739002E+03
       168   2 -4.803991E+05 -3.737703E+04 -3.616065E+04  1.050350E+04 -2.727518E+02  6.556453E+03
       168   3 -5.173350E+05 -4.657909E+04 -4.541974E+04  2.013003E+04  3.269983E+02  8.346694E+03
       168   4 -3.283289E+05  1.074900E+02 -7.192988E+02  2.042837E+04  4.446244E+02  4.742032E+03
       168   5 -3.282300E+05  6.875746E+01 -1.174384E+03  1.077543E+04  1.024430E+03  6.559293E+03
       168   6 -3.283320E+05 -8.728422E+01 -2.058236E+03  2.042880E+04  1.604739E+03  8.349352E+03
       168   7 -2.129787E+05  2.850997E+04  2.590468E+04  2.067321E+04  1.761524E+03  4.745062E+03
       168   8 -1.760395E+05  3.751292E+04  3.381036E+04  1.104742E+04  2.321926E+03  6.562133E+03
       168   9 -1.392959E+05  4.640204E+04  4.130092E+04  2.072765E+04  2.882865E+03  8.352011E+03
       168  10 -4.436668E+05 -2.829595E+04 -2.734421E+04  2.018357E+04 -4.307133E-09  3.352573E-10
       168  11 -4.803991E+05 -3.737707E+04 -3.616073E+04  1.050350E+04  1.832163E-09 -7.187938E-09
       168  12 -5.173350E+05 -4.657917E+04 -4.541987E+04  2.013003E+04  9.993021E-09 -4.330514E-10
       168  13 -3.283289E+05  1.074658E+02 -7.193414E+02  2.042837E+04  1.239982E-09 -6.687306E-09
       168  14 -3.282300E+05  6.871098E+01 -1.174467E+03  1.077543E+04 -2.291816E-09 -1.880051E-09
       168  15 -3.283320E+05 -8.735976E+01 -2.058372E+03  2.042879E+04  7.130998E-11  3.183145E-09
       168  16 -2.129787E+05  2.850995E+04  2.590464E+04  2.067320E+04  3.738112E-09  3.595905E-09
       168  17 -1.760395E+05  3.751288E+04  3.381027E+04  1.104741E+04 -4.519249E-09 -1.397133E-09
       168  18 -1.392960E+05  4.640196E+04  4.130077E+04  2.072763E+04 -8.071094E-09  6.159456E-09
       168  19 -4.436668E+05 -2.829592E+04 -2.734416E+04  2.018356E+04  8.720325E+02 -4.739002E+03
       168  20 -4.803991E+05 -3.737703E+04 -3.616065E+04  1.050350E+04  2.727518E+02 -6.556453E+03
       168  21 -5.173350E+05 -4.657909E+04 -4.541974E+04  2.013003E+04 -3.269983E+02 -8.346694E+03
       168  22 -3.283289E+05  1.074900E+02 -7.192988E+02  2.042837E+04 -4.446244E+02 -4.742032E+03
       168  23 -3.282300E+05  6.875746E+01 -1.174384E+03  1.077543E+04 -1.024430E+03 -6.559293E+03
       168  24 -3.283320E+05 -8.728422E+01 -2.058236E+03  2.042880E+04 -1.604739E+03 -8.349352E+03
       168  25 -2.129787E+05  2.850997E+04  2.590468E+04  2.067321E+04 -1.761524E+03 -4.745062E+03
       168  26 -1.760395E+05  3.751292E+04  3.381036E+04  1.104742E+04 -2.321926E+03 -6.562133E+03
       168  27 -1.392959E+05  4.640204E+04  4.130092E+04  2.072765E+04 -2.882865E+03 -8.352011E+03
       169   1 -5.527450E+05 -5.498138E+04 -5.430468E+04  1.963075E+04  5.841306E+02  9.463520E+03
       169   2 -5.888894E+05 -6.397234E+04 -6.454724E+04  1.060653E+04  3.245739E+03  1.120355E+04
       169   3 -6.261009E+05 -7.560926E+04 -7.719920E+04  2.079147E+04  5.908885E+03  1.243175E+04
       169   4 -3.285140E+05  2.206314E+02 -2.653489E+03  2.040535E+04  2.016605E+03  9.466389E+03
       169   5 -3.280149E+05  2.307150E+02 -4.542838E+03  1.080358E+04  4.310819E+03  1.120541E+04
       169   6 -3.285198E+05 -2.340566E+03 -8.585520E+03  2.041049E+04  6.606727E+03  1.243269E+04
       169   7 -1.042364E+05  5.541912E+04  4.899437E+04  2.118020E+04  3.449593E+03  9.469261E+03
       169   8 -6.707735E+04  6.442901E+04  5.545706E+04  1.100067E+04  5.376343E+03  1.120726E+04
       169   9 -3.085671E+04  7.092193E+04  6.002228E+04  2.002929E+04  7.304899E+03  1.243363E+04
       169  10 -5.527450E+05 -5.498148E+04 -5.430484E+04  1.963075E+04  2.910731E-09 -1.618279E-10
       169  11 -5.888894E+05 -6.397248E+04 -6.454749E+04  1.060650E+04 -2.604608E-09  3.798915E-09
       169  12 -6.261010E+05 -7.560944E+04 -7.719956E+04  2.079141E+04 -5.108501E-10 -6.484273E-09
       169  13 -3.285140E+05  2.205341E+02 -2.653665E+03  2.040533E+04  1.396771E-09 -4.546515E-09
       169  14 -3.280149E+05  2.305752E+02 -4.543109E+03  1.080354E+04 -1.981830E-09  5.715440E-09
       169  15 -3.285199E+05 -2.340743E+03 -8.585892E+03  2.041043E+04  4.442996E-10  1.854776E-09
       169  16 -1.042365E+05  5.541902E+04  4.899418E+04  2.118017E+04  5.029197E-11 -1.986208E-10
       169  17 -6.707741E+04  6.442887E+04  5.545677E+04  1.100062E+04  6.964970E-10 -8.261646E-09
       169  18 -3.085681E+04  7.092175E+04  6.002189E+04  2.002922E+04  4.597551E-10  2.543678E-09
       169  19 -5.527450E+05 -5.498138E+04 -5.430468E+04  1.963075E+04 -5.841306E+02 -9.463520E+03
       169  20 -5.888894E+05 -6.397234E+04 -6.454724E+04  1.060653E+04 -3.245739E+03 -1.120355E+04
       169  21 -6.261009E+05 -7.560926E+04 -7.719920E+04  2.079147E+04 -5.908885E+03 -1.243175E+04
       169  22 -3.285140E+05  2.206314E+02 -2.653489E+03  2.040535E+04 -2.016605E+03 -9.466389E+03
       169  23 -3.280149E+05  2.307150E+02 -4.542838E+03  1.080358E+04 -4.310819E+03 -1.120541E+04
       169  24 -3.285198E+05 -2.340566E+03 -8.585520E+03  2.041049E+04 -6.606727E+03 -1.243269E+04
       169  25 -1.042364E+05  5.541912E+04  4.899437E+04  2.118020E+04 -3.449593E+03 -9.469261E+03
       169  26 -6.707735E+04  6.442901E+04  5.545706E+04  1.100067E+04 -5.376343E+03 -1.120726E+04
       169  27 -3.085671E+04  7.092193E+04  6.002228E+04  2.002929E+04 -7.304899E+03 -1.243363E+04
       170   1 -6.632501E+05 -8.005942E+04 -8.702029E+04  1.509229E+04  4.319536E+03  1.468209E+04
       170   2 -6.942136E+05 -8.857764E+04 -1.029003E+05  1.468099E+04  2.114543E+04  1.493351E+04
       170   3 -7.363727E+05 -1.330837E+05 -1.387405E+05  3.302435E+04  3.798595E+04  4.911817E+03
       170   4 -3.305027E+05  1.822201E+03 -1.065939E+04  2.029017E+04  8.176493E+03  1.468879E+04
       170   5 -3.255551E+05  2.227338E+03 -1.766755E+04  1.094062E+04  1.761722E+04  1.492673E+04
       170   6 -3.305152E+05 -3.206123E+04 -3.949771E+04  2.034585E+04  2.707385E+04  4.893790E+03
       170   7  2.347341E+03  8.369620E+04  6.569427E+04  2.549080E+04  1.203550E+04  1.469555E+04
       170   8  4.322925E+04  9.302284E+04  6.755619E+04  7.197961E+03  1.408693E+04  1.491999E+04
       170   9  7.549320E+04  6.894978E+04  5.973363E+04  7.658983E+03  1.615461E+04  4.876215E+03
       170  10 -6.632502E+05 -8.005966E+04 -8.702073E+04  1.509224E+04  3.434757E-09 -4.966809E-09
       170  11 -6.942142E+05 -8.857800E+04 -1.029016E+05  1.468074E+04  1.418324E-09 -1.804940E-09
       170  12 -7.363743E+05 -1.330842E+05 -1.387433E+05  3.302420E+04  1.864239E-09  2.649767E-09
       170  13 -3.305029E+05  1.821951E+03 -1.065992E+04  2.029007E+04  3.158275E-09  2.549307E-09
       170  14 -3.255555E+05  2.227016E+03 -1.766855E+04  1.094041E+04 -1.443816E-09  6.222415E-10
       170  15 -3.305160E+05 -3.206145E+04 -3.949913E+04  2.034575E+04 -2.768970E-09  1.786420E-09
       170  16  2.347127E+03  8.369593E+04  6.569359E+04  2.549066E+04 -3.091811E-09  2.351173E-09
       170  17  4.322898E+04  9.302255E+04  6.755540E+04  7.197792E+03 -1.631165E-09  5.295104E-09
       170  18  7.549292E+04  6.894969E+04  5.973310E+04  7.658920E+03 -2.129649E-09 -4.307169E-10
       170  19 -6.632501E+05 -8.005942E+04 -8.702029E+04  1.509229E+04 -4.319536E+03 -1.468209E+04
       170  20 -6.942136E+05 -8.857764E+04 -1.029003E+05  1.468099E+04 -2.114543E+04 -1.493351E+04
       170  21 -7.363727E+05 -1.330837E+05 -1.387405E+05  3.302435E+04 -3.798595E+04 -4.911817E+03
       170  22 -3.305027E+05  1.822201E+03 -1.065939E+04  2.029017E+04 -8.176493E+03 -1.468879E+04
       170  23 -3.255551E+05  2.227338E+03 -1.766755E+04  1.094062E+04 -1.761722E+04 -1.492673E+04
       170  24 -3.305152E+05 -3.206123E+04 -3.949771E+04  2.034585E+04 -2.707385E+04 -4.893790E+03
       170  25  2.347341E+03  8.369620E+04  6.569427E+04  2.549080E+04 -1.203550E+04 -1.469555E+04
       170  26  4.322925E+04  9.302284E+04  6.755619E+04  7.197961E+03 -1.408693E+04 -1.491999E+04
       170  27  7.549320E+04  6.894978E+04  5.973363E+04  7.658983E+03 -1.615461E+04 -4.876215E+03
       171   1 -2.306517E+05 -8.808029E+05 -2.245448E+05  2.019795E+05 -9.518736E+03 -6.869502E+04
       171   2 -1.591384E+05 -6.859077E+05 -1.408654E+05  1.720527E+05 -2.901001E+04 -2.844405E+04
       171   3 -1.081555E+05 -5.011810E+05 -8.853329E+04  1.851644E+05 -2.757824E+04  1.184926E+04
       171   4 -2.459680E+04 -4.906825E+04 -2.667694E+04  1.865551E+05 -9.566403E+03 -1.994149E+04
       171   5 -5.468063E+03 -4.689383E+04 -1.188868E+04  1.650473E+05 -2.902091E+04 -1.378743E+04
       171   6 -9.319814E+02 -4.898928E+04 -4.740753E+03  1.865785E+05 -2.756114E+04 -7.604698E+03
       171   7  1.814104E+05  7.833075E+05  1.711516E+05  1.711100E+05 -9.616470E+03  2.887712E+04
       171   8  1.481773E+05  5.925099E+05  1.170679E+05  1.580347E+05 -2.903214E+04  8.839918E+02
       171   9  1.062801E+05  4.034015E+05  7.904462E+04  1.879936E+05 -2.754414E+04 -2.707246E+04
       171  10 -2.306531E+05 -8.808080E+05 -2.245538E+05  2.019790E+05  1.340151E-09 -6.476698E-09
       171  11 -1.591396E+05 -6.859088E+05 -1.408685E+05  1.720520E+05  1.650180E-09  3.595417E-09
       171  12 -1.081564E+05 -5.011813E+05 -8.853498E+04  1.851647E+05 -4.389416E-09  1.338691E-08
       171  13 -2.459700E+04 -4.906870E+04 -2.667786E+04  1.865550E+05  8.324127E-10  5.422088E-10
       171  14 -5.469018E+03 -4.689426E+04 -1.189062E+04  1.650470E+05  4.831818E-09 -1.050860E-09
       171  15 -9.328125E+02 -4.898955E+04 -4.742289E+03  1.865783E+05  3.278149E-09  8.224842E-10
       171  16  1.814101E+05  7.833066E+05  1.711498E+05  1.711102E+05  2.440024E-10  1.207571E-08
       171  17  1.481764E+05  5.925097E+05  1.170663E+05  1.580347E+05 -1.739791E-09 -3.081376E-09
       171  18  1.062791E+05  4.034005E+05  7.904182E+04  1.879930E+05 -4.948924E-09 -1.483270E-08
       171  19 -2.306517E+05 -8.808029E+05 -2.245448E+05  2.019795E+05  9.518736E+03  6.869502E+04
       171  20 -1.591384E+05 -6.859077E+05 -1.408654E+05  1.720527E+05  2.901001E+04  2.844405E+04
       171  21 -1.081555E+05 -5.011810E+05 -8.853329E+04  1.851644E+05  2.757824E+04 -1.184926E+04
       171  22 -2.459680E+04 -4.906825E+04 -2.667694E+04  1.865551E+05  9.566403E+03  1.994149E+04
       171  23 -5.468063E+03 -4.689383E+04 -1.188868E+04  1.650473E+05  2.902091E+04  1.378743E+04
       171  24 -9.319814E+02 -4.898928E+04 -4.740753E+03  1.865785E+05  2.756114E+04  7.604698E+03
       171  25  1.814104E+05  7.833075E+05  1.711516E+05  1.711100E+05  9.616470E+03 -2.887712E+04
       171  26  1.481773E+05  5.925099E+05  1.170679E+05  1.580347E+05  2.903214E+04 -8.839918E+02
       171  27  1.062801E+05  4.034015E+05  7.904462E+04  1.879936E+05  2.754414E+04  2.707246E+04
       172   1 -7.882965E+04 -3.745678E+05 -6.236167E+04  1.870894E+05 -2.022128E+04  9.778457E+03
       172   2 -3.234143E+04 -1.850116E+05 -2.108032E+04  1.651020E+05 -9.559255E+03  9.194950E+03
       172   3  1.464501E+04  4.905014E+03  2.073370E+04  1.874302E+05  1.652478E+03  8.610666E+03
       172   4 -1.440851E+03 -4.791446E+04 -2.155039E+03  1.868576E+05 -2.020773E+04 -7.167763E+03
       172   5 -1.497632E+02 -4.814707E+04  2.991125E+03  1.647014E+05 -9.545900E+03 -8.650173E+03
       172   6  1.797707E+03 -4.789717E+04  9.295367E+03  1.868601E+05  1.665498E+03 -1.013320E+04
       172   7  7.594202E+04  2.788431E+05  5.804825E+04  1.866257E+05 -2.019417E+04 -2.412267E+04
       172   8  3.204105E+04  8.873647E+04  2.706309E+04  1.643006E+05 -9.532524E+03 -2.649911E+04
       172   9 -1.104959E+04 -1.006960E+05 -2.141815E+03  1.862900E+05  1.678553E+03 -2.887548E+04
       172  10 -7.883011E+04 -3.745680E+05 -6.236262E+04  1.870896E+05 -3.308312E-09 -1.385164E-08
       172  11 -3.234155E+04 -1.850117E+05 -2.108065E+04  1.651021E+05 -3.298242E-10 -4.587837E-10
       172  12  1.464499E+04  4.904933E+03  2.073356E+04  1.874302E+05 -9.959863E-10  1.204530E-08
       172  13 -1.441303E+03 -4.791462E+04 -2.155902E+03  1.868575E+05  6.486996E-09  1.604298E-12
       172  14 -1.498811E+02 -4.814718E+04  2.990813E+03  1.647013E+05  4.672365E-09 -1.909772E-09
       172  15  1.797676E+03 -4.789728E+04  9.295169E+03  1.868601E+05  1.239265E-09 -1.070651E-09
       172  16  7.594142E+04  2.788423E+05  5.804640E+04  1.866253E+05 -2.137077E-09  1.812726E-08
       172  17  3.204077E+04  8.873569E+04  2.706160E+04  1.643004E+05 -2.757048E-09  1.965991E-09
       172  18 -1.104982E+04 -1.006969E+05 -2.143388E+03  1.862900E+05 -1.334123E-09 -1.433534E-08
       172  19 -7.882965E+04 -3.745678E+05 -6.236167E+04  1.870894E+05  2.022128E+04 -9.778457E+03
       172  20 -3.234143E+04 -1.850116E+05 -2.108032E+04  1.651020E+05  9.559255E+03 -9.194950E+03
       172  21  1.464501E+04  4.905014E+03  2.073370E+04  1.874302E+05 -1.652478E+03 -8.610666E+03
       172  22 -1.440851E+03 -4.791446E+04 -2.155039E+03  1.868576E+05  2.020773E+04  7.167763E+03
       172  23 -1.497632E+02 -4.814707E+04  2.991125E+03  1.647014E+05  9.545900E+03  8.650173E+03
       172  24  1.797707E+03 -4.789717E+04  9.295367E+03  1.868601E+05 -1.665498E+03  1.013320E+04
       172  25  7.594202E+04  2.788431E+05  5.804825E+04  1.866257E+05  2.019417E+04  2.412267E+04
       172  26  3.204105E+04  8.873647E+04  2.706309E+04  1.643006E+05  9.532524E+03  2.649911E+04
       172  27 -1.104959E+04 -1.006960E+05 -2.141815E+03  1.862900E+05 -1.678553E+03  2.887548E+04
       173   1  4.337292E+04  1.321342E+05  4.783708E+04  1.833321E+05  9.259665E+03  8.612951E+03
       173   2  9.814509E+04  3.154134E+05  1.015441E+05  1.779923E+05  1.455380E+04 -2.812703E+04
       173   3  1.862324E+05  5.119699E+05  1.875190E+05  2.161802E+05  5.426089E+03 -6.489508E+04
       173   4  8.114088E+02 -4.597233E+04  1.315660E+04  1.866771E+05  9.274335E+03 -1.175270E+04
       173   5  9.777998E+03 -5.057890E+04  2.550912E+04  1.649358E+05  1.455254E+04 -2.494368E+04
       173   6  4.798599E+04 -4.601610E+04  5.378806E+04  1.867191E+05  5.406936E+03 -3.815141E+04
       173   7 -4.175174E+04 -2.240475E+05 -2.152383E+04  1.900210E+05  9.288787E+03 -3.211264E+04
       173   8 -7.859696E+04 -4.164440E+05 -5.053304E+04  1.518872E+05  1.455114E+04 -2.176217E+04
       173   9 -9.027934E+04 -6.037136E+05 -7.996173E+04  1.572846E+05  5.385242E+03 -1.143165E+04
       173  10  4.337280E+04  1.321341E+05  4.783678E+04  1.833320E+05 -6.454475E-10  2.777105E-08
       173  11  9.814465E+04  3.154125E+05  1.015422E+05  1.779926E+05  6.623680E-10  2.430864E-09
       173  12  1.862312E+05  5.119654E+05  1.875110E+05  2.161805E+05 -1.960821E-10 -2.536316E-08
       173  13  8.112793E+02 -4.597250E+04  1.315618E+04  1.866771E+05 -1.919646E-09  3.537847E-12
       173  14  9.777603E+03 -5.057962E+04  2.550756E+04  1.649361E+05 -6.129698E-10 -7.129956E-11
       173  15  4.798557E+04 -4.601767E+04  5.378527E+04  1.867193E+05  9.667804E-10  4.558687E-10
       173  16 -4.175210E+04 -2.240486E+05 -2.152593E+04  1.900213E+05 -1.676782E-09 -2.470573E-08
       173  17 -7.859732E+04 -4.164445E+05 -5.053433E+04  1.518874E+05  2.242478E-09 -1.596773E-09
       173  18 -9.027940E+04 -6.037137E+05 -7.996203E+04  1.572847E+05  2.770394E-10  2.375460E-08
       173  19  4.337292E+04  1.321342E+05  4.783708E+04  1.833321E+05 -9.259665E+03 -8.612951E+03
       173  20  9.814509E+04  3.154134E+05  1.015441E+05  1.779923E+05 -1.455380E+04  2.812703E+04
       173  21  1.862324E+05  5.119699E+05  1.875190E+05  2.161802E+05 -5.426089E+03  6.489508E+04
       173  22  8.114088E+02 -4.597233E+04  1.315660E+04  1.866771E+05 -9.274335E+03  1.175270E+04
       173  23  9.777998E+03 -5.057890E+04  2.550912E+04  1.649358E+05 -1.455254E+04  2.494368E+04
       173  24  4.798599E+04 -4.601610E+04  5.378806E+04  1.867191E+05 -5.406936E+03  3.815141E+04
       173  25 -4.175174E+04 -2.240475E+05 -2.152383E+04  1.900210E+05 -9.288787E+03  3.211264E+04
       173  26 -7.859696E+04 -4.164440E+05 -5.053304E+04  1.518872E+05 -1.455114E+04  2.176217E+04
       173  27 -9.027934E+04 -6.037136E+05 -7.996173E+04  1.572846E+05 -5.385242E+03  1.143165E+04
       174   1  7.742290E+05  2.876095E+05  1.806615E+05  2.786041E+05  7.392569E+04  2.333716E+04
       174   2  7.464286E+05  1.797320E+05  1.122354E+05  2.743974E+05  4.802475E+04  4.190385E+03
       174   3  7.440898E+05  1.629258E+05  8.778196E+04  2.598284E+05  1.900579E+04 -6.673041E+03
       174   4  4.947387E+05  1.519248E+05  9.970927E+04  1.711178E+05  6.500571E+04  1.997285E+04
       174   5  4.772538E+05  6.926807E+04  4.260365E+04  1.905099E+05  4.507662E+04  3.078247E+03
       174   6  4.840616E+05  7.652043E+04  2.475546E+04  1.995361E+05  2.202779E+04 -5.534048E+03
       174   7  2.153302E+05  1.626313E+04  1.875103E+04  6.368170E+04  5.609024E+04  1.661133E+04
       174   8  2.081512E+05 -4.118657E+04 -2.703386E+04  1.066571E+05  4.212989E+04  1.966753E+03
       174   9  2.240981E+05 -9.884249E+03 -3.827634E+04  1.392648E+05  2.504843E+04 -4.395437E+03
       174  10  7.742230E+05  2.876074E+05  1.806502E+05  2.786027E+05  7.213799E-10  2.034563E-09
       174  11  7.464261E+05  1.797314E+05  1.122311E+05  2.743972E+05 -4.638060E-10  2.327952E-10
       174  12  7.440894E+05  1.629257E+05  8.778120E+04  2.598285E+05 -3.456564E-09 -2.468997E-09
       174  13  4.947341E+05  1.519233E+05  9.970059E+04  1.711168E+05  2.594470E-09  8.265041E-10
       174  14  4.772516E+05  6.926751E+04  4.259981E+04  1.905098E+05  8.863255E-10 -1.149727E-09
       174  15  4.840611E+05  7.652027E+04  2.475449E+04  1.995362E+05 -3.042761E-09  5.691568E-09
       174  16  2.153268E+05  1.626199E+04  1.874460E+04  6.368095E+04  2.859754E-09  4.145548E-09
       174  17  2.081493E+05 -4.118705E+04 -2.703720E+04  1.066571E+05  6.326919E-09  4.228333E-09
       174  18  2.240974E+05 -9.884438E+03 -3.827756E+04  1.392648E+05 -4.864254E-10  3.057455E-09
       174  19  7.742290E+05  2.876095E+05  1.806615E+05  2.786041E+05 -7.392569E+04 -2.333716E+04
       174  20  7.464286E+05  1.797320E+05  1.122354E+05  2.743974E+05 -4.802475E+04 -4.190385E+03
       174  21  7.440898E+05  1.629258E+05  8.778196E+04  2.598284E+05 -1.900579E+04  6.673041E+03
       174  22  4.947387E+05  1.519248E+05  9.970927E+04  1.711178E+05 -6.500571E+04 -1.997285E+04
       174  23  4.772538E+05  6.926807E+04  4.260365E+04  1.905099E+05 -4.507662E+04 -3.078247E+03
       174  24  4.840616E+05  7.652043E+04  2.475546E+04  1.995361E+05 -2.202779E+04  5.534048E+03
       174  25  2.153302E+05  1.626313E+04  1.875103E+04  6.368170E+04 -5.609024E+04 -1.661133E+04
       174  26  2.081512E+05 -4.118657E+04 -2.703386E+04  1.066571E+05 -4.212989E+04 -1.966753E+03
       174  27  2.240981E+05 -9.884249E+03 -3.827634E+04  1.392648E+05 -2.504843E+04  4.395437E+03
       175   1  7.081073E+05  1.721778E+05  7.731271E+04  2.587942E+05  1.763789E+04 -5.202101E+03
       175   2  6.876126E+05  1.515007E+05  6.122219E+04  2.475058E+05  1.193217E+04 -6.407286E+03
       175   3  6.609458E+05  1.463662E+05  5.085013E+04  2.453068E+05  6.072807E+03 -7.205325E+03
       175   4  4.808537E+05  8.517211E+04  1.982377E+04  1.943669E+05  1.808387E+04 -5.034349E+03
       175   5  4.835703E+05  7.460928E+04  9.968658E+03  1.908869E+05  1.267305E+04 -6.128176E+03
       175   6  4.800569E+05  7.953205E+04  5.600071E+03  1.964959E+05  7.108348E+03 -6.814897E+03
       175   7  2.536505E+05 -1.829480E+03 -3.766931E+04  1.299611E+05  1.852967E+04 -4.866669E+03
       175   8  2.795691E+05 -2.279013E+03 -4.128805E+04  1.342849E+05  1.341366E+04 -5.849168E+03
       175   9  2.992006E+05  1.270018E+04 -3.965234E+04  1.476979E+05  8.143555E+03 -6.424591E+03
       175  10  7.081070E+05  1.721777E+05  7.731208E+04  2.587943E+05  3.260226E-09 -9.819210E-10
       175  11  6.876124E+05  1.515006E+05  6.122185E+04  2.475059E+05  5.974068E-09  2.196927E-09
       175  12  6.609458E+05  1.463661E+05  5.084996E+04  2.453068E+05  2.073884E-09 -3.230887E-09
       175  13  4.808533E+05  8.517199E+04  1.982311E+04  1.943669E+05 -1.587775E-09  6.398448E-10
       175  14  4.835701E+05  7.460920E+04  9.968286E+03  1.908869E+05  9.230023E-10 -4.762468E-09
       175  15  4.800568E+05  7.953198E+04  5.599889E+03  1.964959E+05  4.216416E-09  1.971130E-09
       175  16  2.536502E+05 -1.829597E+03 -3.767000E+04  1.299612E+05 -1.243234E-08 -4.598794E-09
       175  17  2.795689E+05 -2.279098E+03 -4.128845E+04  1.342850E+05 -2.458348E-09  2.616503E-09
       175  18  2.992005E+05  1.270012E+04 -3.965254E+04  1.476980E+05  5.603816E-09  5.364674E-10
       175  19  7.081073E+05  1.721778E+05  7.731271E+04  2.587942E+05 -1.763789E+04  5.202101E+03
       175  20  6.876126E+05  1.515007E+05  6.122219E+04  2.475058E+05 -1.193217E+04  6.407286E+03
       175  21  6.609458E+05  1.463662E+05  5.085013E+04  2.453068E+05 -6.072807E+03  7.205325E+03
       175  22  4.808537E+05  8.517211E+04  1.982377E+04  1.943669E+05 -1.808387E+04  5.034349E+03
       175  23  4.835703E+05  7.460928E+04  9.968658E+03  1.908869E+05 -1.267305E+04  6.128176E+03
       175  24  4.800569E+05  7.953205E+04  5.600071E+03  1.964959E+05 -7.108348E+03  6.814897E+03
       175  25  2.536505E+05 -1.829480E+03 -3.766931E+04  1.299611E+05 -1.852967E+04  4.866669E+03
       175  26  2.795691E+05 -2.279013E+03 -4.128805E+04  1.342849E+05 -1.341366E+04  5.849168E+03
       175  27  2.992006E+05  1.270018E+04 -3.965234E+04  1.476979E+05 -8.143555E+03  6.424591E+03
       176   1  6.368447E+05  1.390168E+05  4.361055E+04  2.393414E+05  5.108706E+03 -6.653373E+03
       176   2  6.173171E+05  1.249772E+05  3.569842E+04  2.275865E+05  3.456551E+03 -5.829946E+03
       176   3  5.889582E+05  1.206040E+05  2.879050E+04  2.261872E+05  1.797674E+03 -4.989494E+03
       176   4  4.797508E+05  8.014014E+04  4.295473E+03  1.960611E+05  6.013559E+03 -6.312158E+03
       176   5  4.841405E+05  7.510977E+04  2.314560E+03  1.909585E+05  4.373976E+03 -5.483876E+03
       176   6  4.796964E+05  7.974366E+04  1.328264E+03  1.962116E+05  2.727624E+03 -4.638583E+03
       176   7  3.226805E+05  2.126495E+04 -3.502173E+04  1.527905E+05  6.918166E+03 -5.971036E+03
       176   8  3.509810E+05  2.524347E+04 -3.107077E+04  1.543376E+05  5.291188E+03 -5.137886E+03
       176   9  3.704462E+05  3.888413E+04 -2.613492E+04  1.662408E+05  3.657396E+03 -4.287740E+03
       176  10  6.368447E+05  1.390167E+05  4.361042E+04  2.393415E+05  5.653276E-09 -1.087083E-09
       176  11  6.173170E+05  1.249771E+05  3.569833E+04  2.275865E+05  1.391377E-09 -1.313406E-09
       176  12  5.889582E+05  1.206039E+05  2.879044E+04  2.261872E+05  1.932994E-09  5.693616E-09
       176  13  4.797508E+05  8.014009E+04  4.295330E+03  1.960611E+05  2.555574E-09 -2.114806E-09
       176  14  4.841405E+05  7.510973E+04  2.314468E+03  1.909586E+05  1.739466E-09 -7.022790E-09
       176  15  4.796964E+05  7.974363E+04  1.328209E+03  1.962116E+05  7.578193E-09  8.719312E-10
       176  16  3.226804E+05  2.126490E+04 -3.502189E+04  1.527905E+05  3.666848E-09 -1.911650E-09
       176  17  3.509810E+05  2.524343E+04 -3.107088E+04  1.543376E+05  8.393007E-09 -1.239977E-09
       176  18  3.704462E+05  3.888411E+04 -2.613498E+04  1.662408E+05  7.668965E-09 -2.222090E-09
       176  19  6.368447E+05  1.390168E+05  4.361055E+04  2.393414E+05 -5.108706E+03  6.653373E+03
       176  20  6.173171E+05  1.249772E+05  3.569842E+04  2.275865E+05 -3.456551E+03  5.829946E+03
       176  21  5.889582E+05  1.206040E+05  2.879050E+04  2.261872E+05 -1.797674E+03  4.989494E+03
       176  22  4.797508E+05  8.014014E+04  4.295473E+03  1.960611E+05 -6.013559E+03  6.312158E+03
       176  23  4.841405E+05  7.510977E+04  2.314560E+03  1.909585E+05 -4.373976E+03  5.483876E+03
       176  24  4.796964E+05  7.974366E+04  1.328264E+03  1.962116E+05 -2.727624E+03  4.638583E+03
       176  25  3.226805E+05  2.126495E+04 -3.502173E+04  1.527905E+05 -6.918166E+03  5.971036E+03
       176  26  3.509810E+05  2.524347E+04 -3.107077E+04  1.543376E+05 -5.291188E+03  5.137886E+03
       176  27  3.704462E+05  3.888413E+04 -2.613492E+04  1.662408E+05 -3.657396E+03  4.287740E+03
       177   1  5.659748E+05  1.120792E+05  2.258776E+04  2.199102E+05  1.327741E+03 -4.310432E+03
       177   2  5.466697E+05  9.857548E+04  1.633634E+04  2.081684E+05  5.081164E+02 -3.156265E+03
       177   3  5.183002E+05  9.424103E+04  1.034534E+04  2.067982E+05 -3.113983E+02 -2.002721E+03
       177   4  4.796658E+05  7.977226E+04  1.038338E+03  1.961633E+05  2.249812E+03 -3.962443E+03
       177   5  4.841974E+05  7.517743E+04  6.749717E+02  1.909816E+05  1.429782E+03 -2.808380E+03
       177   6  4.796639E+05  7.975206E+04  5.723961E+02  1.961714E+05  6.098443E+02 -1.654940E+03
       177   7  3.933645E+05  4.746593E+04 -2.051156E+04  1.724195E+05  3.171739E+03 -3.614509E+03
       177   8  4.217289E+05  5.177965E+04 -1.498670E+04  1.737964E+05  2.351346E+03 -2.460533E+03
       177   9  4.410290E+05  6.526314E+04 -9.200704E+03  1.855451E+05  1.531028E+03 -1.307182E+03
       177  10  5.659748E+05  1.120792E+05  2.258772E+04  2.199102E+05  8.796671E-09  7.417015E-09
       177  11  5.466697E+05  9.857547E+04  1.633632E+04  2.081684E+05  4.661000E-09  4.372152E-09
       177  12  5.183002E+05  9.424102E+04  1.034533E+04  2.067982E+05 -1.425850E-09 -2.045903E-09
       177  13  4.796658E+05  7.977224E+04  1.038299E+03  1.961633E+05  8.970647E-09  5.749248E-09
       177  14  4.841974E+05  7.517743E+04  6.749530E+02  1.909816E+05  3.026601E-09 -3.733774E-09
       177  15  4.796639E+05  7.975206E+04  5.723902E+02  1.961714E+05  2.917216E-09 -1.417146E-09
       177  16  3.933645E+05  4.746591E+04 -2.051161E+04  1.724195E+05  2.024250E-09 -2.222670E-10
       177  17  4.217289E+05  5.177964E+04 -1.498672E+04  1.737964E+05 -2.369369E-09 -4.786772E-09
       177  18  4.410290E+05  6.526314E+04 -9.200711E+03  1.855451E+05 -2.723737E-09 -1.204925E-09
       177  19  5.659748E+05  1.120792E+05  2.258776E+04  2.199102E+05 -1.327741E+03  4.310432E+03
       177  20  5.466697E+05  9.857548E+04  1.633634E+04  2.081684E+05 -5.081164E+02  3.156265E+03
       177  21  5.183002E+05  9.424103E+04  1.034534E+04  2.067982E+05  3.113983E+02  2.002721E+03
       177  22  4.796658E+05  7.977226E+04  1.038338E+03  1.961633E+05 -2.249812E+03  3.962443E+03
       177  23  4.841974E+05  7.517743E+04  6.749717E+02  1.909816E+05 -1.429782E+03  2.808380E+03
       177  24  4.796639E+05  7.975206E+04  5.723961E+02  1.961714E+05 -6.098443E+02  1.654940E+03
       177  25  3.933645E+05  4.746593E+04 -2.051156E+04  1.724195E+05 -3.171739E+03  3.614509E+03
       177  26  4.217289E+05  5.177965E+04 -1.498670E+04  1.737964E+05 -2.351346E+03  2.460533E+03
       177  27  4.410290E+05  6.526314E+04 -9.200704E+03  1.855451E+05 -1.531028E+03  1.307182E+03
       178   1  4.954812E+05  8.566779E+04  4.475879E+03  2.005370E+05 -6.890760E+02 -1.294325E+03
       178   2  4.762074E+05  7.220414E+04 -1.189499E+03  1.888035E+05 -1.575318E+03 -1.674180E+02
       178   3  4.478949E+05  6.790784E+04 -6.541786E+03  1.874244E+05 -2.461292E+03  9.589626E+02
       178   4  4.796695E+05  7.974847E+04  5.962913E+02  1.961688E+05  2.316065E+02 -9.467405E+02
       178   5  4.841913E+05  7.518067E+04  8.096054E+02  1.909858E+05 -6.550531E+02  1.800001E+02
       178   6  4.796739E+05  7.978016E+04  1.336321E+03  1.961568E+05 -1.541462E+03  1.306209E+03
       178   7  4.638579E+05  7.382917E+04 -3.283311E+03  1.918007E+05  1.152263E+03 -5.991656E+02
       178   8  4.921752E+05  7.815719E+04  2.808704E+03  1.931680E+05  2.652224E+02  5.274222E+02
       178   9  5.114536E+05  9.165249E+04  9.214316E+03  2.048895E+05 -6.215841E+02  1.653474E+03
       178  10  4.954812E+05  8.566779E+04  4.475875E+03  2.005370E+05 -1.930219E-09  2.350356E-10
       178  11  4.762074E+05  7.220414E+04 -1.189504E+03  1.888035E+05 -1.914209E-09  2.353402E-09
       178  12  4.478949E+05  6.790784E+04 -6.541799E+03  1.874244E+05 -1.236372E-09  5.725391E-09
       178  13  4.796695E+05  7.974847E+04  5.962895E+02  1.961688E+05  8.145574E-11  1.016042E-08
       178  14  4.841913E+05  7.518067E+04  8.096045E+02  1.909858E+05  7.320994E-09  5.561913E-09
       178  15  4.796739E+05  7.978015E+04  1.336313E+03  1.961568E+05  2.685102E-10  3.328098E-09
       178  16  4.638579E+05  7.382917E+04 -3.283314E+03  1.918007E+05  3.786128E-09  4.791526E-09
       178  17  4.921752E+05  7.815719E+04  2.808703E+03  1.931680E+05  4.272393E-09 -1.140378E-09
       178  18  5.114536E+05  9.165249E+04  9.214310E+03  2.048895E+05  6.683853E-10 -2.478924E-10
       178  19  4.954812E+05  8.566779E+04  4.475879E+03  2.005370E+05  6.890760E+02  1.294325E+03
       178  20  4.762074E+05  7.220414E+04 -1.189499E+03  1.888035E+05  1.575318E+03  1.674180E+02
       178  21  4.478949E+05  6.790784E+04 -6.541786E+03  1.874244E+05  2.461292E+03 -9.589626E+02
       178  22  4.796695E+05  7.974847E+04  5.962913E+02  1.961688E+05 -2.316065E+02  9.467405E+02
       178  23  4.841913E+05  7.518067E+04  8.096054E+02  1.909858E+05  6.550531E+02 -1.800001E+02
       178  24  4.796739E+05  7.978016E+04  1.336321E+03  1.961568E+05  1.541462E+03 -1.306209E+03
       178  25  4.638579E+05  7.382917E+04 -3.283311E+03  1.918007E+05 -1.152263E+03  5.991656E+02
       178  26  4.921752E+05  7.815719E+04  2.808704E+03  1.931680E+05 -2.652224E+02 -5.274222E+02
       178  27  5.114536E+05  9.165249E+04  9.214316E+03  2.048895E+05  6.215841E+02 -1.653474E+03
       179   1  4.250457E+05  5.934710E+04 -1.203875E+04  1.812862E+05 -3.002046E+03  1.608312E+03
       179   2  4.056473E+05  4.573405E+04 -1.659747E+04  1.693998E+05 -5.015820E+03  2.309639E+03
       179   3  3.775585E+05  4.190423E+04 -1.984614E+04  1.677920E+05 -7.023734E+03  2.996088E+03
       179   4  4.797248E+05  7.973193E+04  1.735770E+03  1.962097E+05 -2.076339E+03  1.957754E+03
       179   5  4.841063E+05  7.510698E+04  3.071550E+03  1.909691E+05 -4.101059E+03  2.654885E+03
       179   6  4.797995E+05  8.026744E+04  5.726086E+03  1.960069E+05 -6.119979E+03  3.337116E+03
       179   7  5.344070E+05  1.001170E+05  1.551012E+04  2.111345E+05 -1.150538E+03  2.307231E+03
       179   8  5.625715E+05  1.044804E+05  2.274014E+04  2.125409E+05 -3.186168E+03  3.000179E+03
       179   9  5.820507E+05  1.186314E+05  3.129750E+04  2.242260E+05 -5.216061E+03  3.678205E+03
       179  10  4.250457E+05  5.934710E+04 -1.203877E+04  1.812862E+05 -2.926888E-09  2.620494E-09
       179  11  4.056473E+05  4.573404E+04 -1.659753E+04  1.693998E+05 -6.886978E-09 -4.160664E-09
       179  12  3.775585E+05  4.190420E+04 -1.984625E+04  1.677921E+05 -2.218542E-09  5.111736E-11
       179  13  4.797248E+05  7.973193E+04  1.735755E+03  1.962098E+05 -2.808038E-09  2.574383E-09
       179  14  4.841063E+05  7.510697E+04  3.071505E+03  1.909691E+05 -5.693609E-09 -4.954939E-10
       179  15  4.797994E+05  8.026742E+04  5.725995E+03  1.960069E+05 -2.504860E-09  5.156488E-11
       179  16  5.344070E+05  1.001170E+05  1.551011E+04  2.111345E+05 -1.990591E-09 -1.197236E-09
       179  17  5.625715E+05  1.044804E+05  2.274010E+04  2.125409E+05  1.669032E-09 -8.800929E-09
       179  18  5.820507E+05  1.186314E+05  3.129742E+04  2.242260E+05 -3.999405E-10  1.239580E-10
       179  19  4.250457E+05  5.934710E+04 -1.203875E+04  1.812862E+05  3.002046E+03 -1.608312E+03
       179  20  4.056473E+05  4.573405E+04 -1.659747E+04  1.693998E+05  5.015820E+03 -2.309639E+03
       179  21  3.775585E+05  4.190423E+04 -1.984614E+04  1.677920E+05  7.023734E+03 -2.996088E+03
       179  22  4.797248E+05  7.973193E+04  1.735770E+03  1.962097E+05  2.076339E+03 -1.957754E+03
       179  23  4.841063E+05  7.510698E+04  3.071550E+03  1.909691E+05  4.101059E+03 -2.654885E+03
       179  24  4.797995E+05  8.026744E+04  5.726086E+03  1.960069E+05  6.119979E+03 -3.337116E+03
       179  25  5.344070E+05  1.001170E+05  1.551012E+04  2.111345E+05  1.150538E+03 -2.307231E+03
       179  26  5.625715E+05  1.044804E+05  2.274014E+04  2.125409E+05  3.186168E+03 -3.000179E+03
       179  27  5.820507E+05  1.186314E+05  3.129750E+04  2.242260E+05  5.216061E+03 -3.678205E+03
       180   1  3.541018E+05  3.341324E+04 -2.400319E+04  1.631396E+05 -8.484626E+03  3.345337E+03
       180   2  3.346029E+05  1.808343E+04 -2.411668E+04  1.492954E+05 -1.551773E+04  2.106199E+03
       180   3  3.098897E+05  2.022222E+04 -1.709669E+04  1.439805E+05 -2.242412E+04  5.327940E+02
       180   4  4.802194E+05  7.944493E+04  7.471258E+03  1.965761E+05 -7.474092E+03  3.726615E+03
       180   5  4.833369E+05  7.445713E+04  1.331203E+04  1.908883E+05 -1.474943E+04  2.395917E+03
       180   6  4.812868E+05  8.698413E+04  2.647676E+04  1.937293E+05 -2.189835E+04  7.308376E+02
       180   7  6.063521E+05  1.254773E+05  3.894433E+04  2.300186E+05 -6.463339E+03  4.107972E+03
       180   8  6.320927E+05  1.308325E+05  5.073899E+04  2.324903E+05 -1.398092E+04  2.685713E+03
       180   9  6.527134E+05  1.537489E+05  7.004804E+04  2.434909E+05 -2.137241E+04  9.289476E+02
       180  10  3.541017E+05  3.341320E+04 -2.400335E+04  1.631396E+05 -3.166482E-09 -9.325853E-10
       180  11  3.346026E+05  1.808336E+04 -2.411714E+04  1.492954E+05  1.162795E-11  6.179308E-09
       180  12  3.098892E+05  2.022209E+04 -1.709763E+04  1.439805E+05  7.958300E-09 -6.154000E-09
       180  13  4.802194E+05  7.944490E+04  7.471127E+03  1.965762E+05 -1.849118E-09 -2.809454E-09
       180  14  4.833367E+05  7.445707E+04  1.331161E+04  1.908883E+05 -5.942313E-09  4.110178E-09
       180  15  4.812863E+05  8.698400E+04  2.647586E+04  1.937293E+05  2.534750E-09 -2.224466E-09
       180  16  6.063520E+05  1.254773E+05  3.894422E+04  2.300186E+05  2.663552E-09  4.266404E-09
       180  17  6.320925E+05  1.308324E+05  5.073861E+04  2.324903E+05 -3.649635E-09 -2.155784E-09
       180  18  6.527129E+05  1.537488E+05  7.004718E+04  2.434909E+05 -6.401121E-09 -5.417739E-09
       180  19  3.541018E+05  3.341324E+04 -2.400319E+04  1.631396E+05  8.484626E+03 -3.345337E+03
       180  20  3.346029E+05  1.808343E+04 -2.411668E+04  1.492954E+05  1.551773E+04 -2.106199E+03
       180  21  3.098897E+05  2.022222E+04 -1.709669E+04  1.439805E+05  2.242412E+04 -5.327940E+02
       180  22  4.802194E+05  7.944493E+04  7.471258E+03  1.965761E+05  7.474092E+03 -3.726615E+03
       180  23  4.833369E+05  7.445713E+04  1.331203E+04  1.908883E+05  1.474943E+04 -2.395917E+03
       180  24  4.812868E+05  8.698413E+04  2.647676E+04  1.937293E+05  2.189835E+04 -7.308376E+02
       180  25  6.063521E+05  1.254773E+05  3.894433E+04  2.300186E+05  6.463339E+03 -4.107972E+03
       180  26  6.320927E+05  1.308325E+05  5.073899E+04  2.324903E+05  1.398092E+04 -2.685713E+03
       180  27  6.527134E+05  1.537489E+05  7.004804E+04  2.434909E+05  2.137241E+04 -9.289476E+02
       181   1  2.785083E+05  1.247280E+04 -1.608029E+04  1.586445E+05 -2.951443E+04 -3.642032E+02
       181   2  2.639483E+05 -2.465405E+04  1.321164E+03  1.191125E+05 -5.547542E+04 -9.835627E+03
       181   3  2.839934E+05  5.421888E+04  6.728674E+04  6.214832E+04 -7.887540E+04 -2.609672E+04
       181   4  4.855578E+05  7.544180E+04  3.306434E+04  2.006455E+05 -2.687719E+04  6.310015E+02
       181   5  4.749213E+05  6.731947E+04  5.691007E+04  1.903725E+05 -5.773414E+04 -1.068894E+04
       181   6  4.998416E+05  1.761389E+05  1.331852E+05  1.626715E+05 -8.603076E+04 -2.880025E+04
       181   7  6.926500E+05  1.384107E+05  8.220624E+04  2.426577E+05 -2.423897E+04  1.626417E+03
       181   8  6.859372E+05  1.593000E+05  1.124948E+05  2.616556E+05 -5.999368E+04 -1.154267E+04
       181   9  7.157360E+05  2.980805E+05  1.990786E+05  2.632305E+05 -9.318873E+04 -3.150594E+04
       181  10  2.785073E+05  1.247257E+04 -1.608192E+04  1.586445E+05 -6.315343E-09 -8.262796E-09
       181  11  2.639449E+05 -2.465498E+04  1.315202E+03  1.191121E+05  1.141262E-09  1.171167E-09
       181  12  2.839865E+05  5.421648E+04  6.727377E+04  6.214666E+04  5.269506E-09 -7.706646E-10
       181  13  4.855570E+05  7.544160E+04  3.306299E+04  2.006455E+05  2.898008E-10 -4.810970E-10
       181  14  4.749177E+05  6.731846E+04  5.690359E+04  1.903720E+05 -1.830828E-09  1.970133E-09
       181  15  4.998334E+05  1.761360E+05  1.331698E+05  1.626695E+05 -2.137738E-09  3.406908E-09
       181  16  6.926493E+05  1.384106E+05  8.220514E+04  2.426577E+05  8.414751E-09  5.639548E-09
       181  17  6.859333E+05  1.592989E+05  1.124878E+05  2.616551E+05 -9.671483E-10  3.869454E-09
       181  18  7.157264E+05  2.980771E+05  1.990604E+05  2.632281E+05 -4.170790E-09  2.742777E-09
       181  19  2.785083E+05  1.247280E+04 -1.608029E+04  1.586445E+05  2.951443E+04  3.642032E+02
       181  20  2.639483E+05 -2.465405E+04  1.321164E+03  1.191125E+05  5.547542E+04  9.835627E+03
       181  21  2.839934E+05  5.421888E+04  6.728674E+04  6.214832E+04  7.887540E+04  2.609672E+04
       181  22  4.855578E+05  7.544180E+04  3.306434E+04  2.006455E+05  2.687719E+04 -6.310015E+02
       181  23  4.749213E+05  6.731947E+04  5.691007E+04  1.903725E+05  5.773414E+04  1.068894E+04
       181  24  4.998416E+05  1.761389E+05  1.331852E+05  1.626715E+05  8.603076E+04  2.880025E+04
       181  25  6.926500E+05  1.384107E+05  8.220624E+04  2.426577E+05  2.423897E+04 -1.626417E+03
       181  26  6.859372E+05  1.593000E+05  1.124948E+05  2.616556E+05  5.999368E+04  1.154267E+04
       181  27  7.157360E+05  2.980805E+05  1.990786E+05  2.632305E+05  9.318873E+04  3.150594E+04
       182   1 -1.426554E+05 -7.390795E+05 -1.436879E+05  9.234991E+04 -5.372350E+03 -2.451245E+04
       182   2 -8.948132E+04 -5.914690E+05 -9.305727E+04  5.266046E+04 -1.479663E+04 -8.929982E+03
       182   3 -5.416560E+04 -4.500450E+05 -5.699787E+04  8.340704E+04 -1.001819E+04  6.674407E+03
       182   4 -1.518501E+04 -2.274140E+05 -1.839637E+04  8.542227E+04 -5.387980E+03 -1.185231E+04
       182   5  6.443235E+02 -2.252435E+05 -8.859342E+03  5.021477E+04 -1.479804E+04 -7.163537E+03
       182   6  5.148625E+02 -2.273834E+05 -6.317722E+03  8.544188E+04 -1.000890E+04 -2.456707E+03
       182   7  1.122663E+05  2.844907E+05  1.068766E+05  7.848896E+04 -5.403887E+03  8.182461E+02
       182   8  9.076062E+04  1.411061E+05  7.532973E+04  4.776766E+04 -1.479947E+04 -5.396056E+03
       182   9  5.519196E+04 -4.675672E+03  4.435952E+04  8.747746E+04 -9.999663E+03 -1.159107E+04
       182  10 -1.426556E+05 -7.390801E+05 -1.436890E+05  9.234981E+04 -9.076323E-11  2.969035E-09
       182  11 -8.948158E+04 -5.914691E+05 -9.305783E+04  5.266035E+04 -6.407272E-11  6.818006E-09
       182  12 -5.416572E+04 -4.500450E+05 -5.699815E+04  8.340709E+04 -2.342597E-09  1.042423E-09
       182  13 -1.518508E+04 -2.274141E+05 -1.839669E+04  8.542222E+04  2.682689E-09  1.884314E-10
       182  14  6.440746E+02 -2.252437E+05 -8.859850E+03  5.021469E+04  5.815776E-09 -1.615202E-09
       182  15  5.147533E+02 -2.273835E+05 -6.317921E+03  8.544186E+04  1.095866E-09 -1.159036E-08
       182  16  1.122662E+05  2.844907E+05  1.068765E+05  7.848896E+04  1.522696E-09 -8.723146E-10
       182  17  9.076038E+04  1.411060E+05  7.532927E+04  4.776760E+04  2.236500E-09 -7.299551E-09
       182  18  5.519181E+04 -4.675843E+03  4.435908E+04  8.747737E+04 -1.899188E-09 -4.100396E-09
       182  19 -1.426554E+05 -7.390795E+05 -1.436879E+05  9.234991E+04  5.372350E+03  2.451245E+04
       182  20 -8.948132E+04 -5.914690E+05 -9.305727E+04  5.266046E+04  1.479663E+04  8.929982E+03
       182  21 -5.416560E+04 -4.500450E+05 -5.699787E+04  8.340704E+04  1.001819E+04 -6.674407E+03
       182  22 -1.518501E+04 -2.274140E+05 -1.839637E+04  8.542227E+04  5.387980E+03  1.185231E+04
       182  23  6.443235E+02 -2.252435E+05 -8.859342E+03  5.021477E+04  1.479804E+04  7.163537E+03
       182  24  5.148625E+02 -2.273834E+05 -6.317722E+03  8.544188E+04  1.000890E+04  2.456707E+03
       182  25  1.122663E+05  2.844907E+05  1.068766E+05  7.848896E+04  5.403887E+03 -8.182461E+02
       182  26  9.076062E+04  1.411061E+05  7.532973E+04  4.776766E+04  1.479947E+04  5.396056E+03
       182  27  5.519196E+04 -4.675672E+03  4.435952E+04  8.747746E+04  9.999663E+03  1.159107E+04
       183   1 -2.335456E+04 -3.171628E+05 -2.645825E+04  8.628944E+04 -4.044057E+03  3.575600E+03
       183   2  1.333288E+04 -1.722030E+05  6.810309E+03  4.996621E+04  2.430510E+03  6.245491E+03
       183   3  4.691232E+04 -2.814544E+04  3.760485E+04  8.462858E+04  8.779817E+03  8.916389E+03
       183   4 -1.115371E+03 -2.266246E+05 -5.836612E+03  8.555888E+04 -4.039243E+03 -1.445492E+03
       183   5  8.476717E+01 -2.261575E+05 -5.463034E+03  5.006542E+04  2.435457E+03  1.320052E+03
       183   6 -1.838514E+03 -2.266290E+05 -7.629059E+03  8.555814E+04  8.784827E+03  4.085998E+03
       183   7  2.112327E+04 -1.360786E+05  1.478459E+04  8.482822E+04 -4.034418E+03 -6.467310E+03
       183   8 -1.316353E+04 -2.801092E+05 -1.773647E+04  5.016462E+04  2.440403E+03 -3.604964E+03
       183   9 -5.059206E+04 -4.250759E+05 -5.286544E+04  8.648740E+04  8.789823E+03 -7.428626E+02
       183  10 -2.335458E+04 -3.171629E+05 -2.645830E+04  8.628945E+04 -2.845159E-09 -1.255076E-09
       183  11  1.333286E+04 -1.722031E+05  6.810224E+03  4.996619E+04 -1.242326E-09  2.199382E-09
       183  12  4.691222E+04 -2.814555E+04  3.760455E+04  8.462852E+04 -2.583469E-09  1.041710E-09
       183  13 -1.115389E+03 -2.266246E+05 -5.836646E+03  8.555888E+04  4.775577E-10 -1.311718E-09
       183  14  8.476034E+01 -2.261575E+05 -5.463049E+03  5.006542E+04  9.289094E-10 -2.631952E-09
       183  15 -1.838601E+03 -2.266290E+05 -7.629235E+03  8.555811E+04 -1.718387E-10 -8.457401E-09
       183  16  2.112324E+04 -1.360787E+05  1.478448E+04  8.482820E+04 -2.196253E-09  1.385989E-09
       183  17 -1.316354E+04 -2.801092E+05 -1.773651E+04  5.016463E+04  2.752982E-09 -3.082153E-09
       183  18 -5.059214E+04 -4.250759E+05 -5.286559E+04  8.648741E+04  3.185938E-10 -3.439624E-09
       183  19 -2.335456E+04 -3.171628E+05 -2.645825E+04  8.628944E+04  4.044057E+03 -3.575600E+03
       183  20  1.333288E+04 -1.722030E+05  6.810309E+03  4.996621E+04 -2.430510E+03 -6.245491E+03
       183  21  4.691232E+04 -2.814544E+04  3.760485E+04  8.462858E+04 -8.779817E+03 -8.916389E+03
       183  22 -1.115371E+03 -2.266246E+05 -5.836612E+03  8.555888E+04  4.039243E+03  1.445492E+03
       183  23  8.476717E+01 -2.261575E+05 -5.463034E+03  5.006542E+04 -2.435457E+03 -1.320052E+03
       183  24 -1.838514E+03 -2.266290E+05 -7.629059E+03  8.555814E+04 -8.784827E+03 -4.085998E+03
       183  25  2.112327E+04 -1.360786E+05  1.478459E+04  8.482822E+04  4.034418E+03  6.467310E+03
       183  26 -1.316353E+04 -2.801092E+05 -1.773647E+04  5.016462E+04 -2.440403E+03  3.604964E+03
       183  27 -5.059206E+04 -4.250759E+05 -5.286544E+04  8.648740E+04 -8.789823E+03  7.428626E+02
       184   1  8.222674E+04  1.026644E+05  6.622320E+04  8.877975E+04  1.502182E+04  1.524041E+04
       184   2  1.177185E+05  2.496521E+05  9.493350E+04  4.632024E+04  1.934531E+04  9.707056E+03
       184   3  1.294031E+05  3.917848E+05  1.213672E+05  7.414843E+04  6.810308E+03  4.148851E+03
       184   4  1.064306E+03 -2.280202E+05 -8.932213E+03  8.541465E+04  1.503263E+04  5.445796E+03
       184   5  1.114387E+03 -2.244771E+05 -1.391888E+04  5.025063E+04  1.934238E+04  1.285960E+04
       184   6 -2.489919E+04 -2.280603E+05 -3.017695E+04  8.537908E+04  6.787789E+03  2.024954E+04
       184   7 -8.010559E+04 -5.586031E+05 -8.409435E+04  8.205138E+04  1.504355E+04 -4.343646E+03
       184   8 -1.155054E+05 -6.983981E+05 -1.227860E+05  5.417806E+04  1.933950E+04  1.600976E+04
       184   9 -1.792293E+05 -8.475546E+05 -1.817481E+05  9.659860E+04  6.765842E+03  3.633418E+04
       184  10  8.222644E+04  1.026641E+05  6.622234E+04  8.877957E+04 -6.740245E-10  6.545486E-09
       184  11  1.177181E+05  2.496519E+05  9.493262E+04  4.632009E+04  9.357668E-10  8.676473E-09
       184  12  1.294030E+05  3.917848E+05  1.213671E+05  7.414841E+04  1.047258E-09 -5.669313E-10
       184  13  1.064056E+03 -2.280203E+05 -8.932693E+03  8.541459E+04 -1.779775E-09 -1.578029E-09
       184  14  1.113941E+03 -2.244774E+05 -1.391989E+04  5.025043E+04  4.681959E-09  4.324511E-11
       184  15 -2.489935E+04 -2.280608E+05 -3.017781E+04  8.537897E+04  1.215077E-10 -8.863507E-09
       184  16 -8.010584E+04 -5.586032E+05 -8.409481E+04  8.205143E+04  3.862238E-10 -5.729281E-09
       184  17 -1.155058E+05 -6.983985E+05 -1.227872E+05  5.417781E+04  3.134495E-09 -1.149398E-08
       184  18 -1.792297E+05 -8.475560E+05 -1.817507E+05  9.659841E+04  1.352026E-09 -1.602311E-09
       184  19  8.222674E+04  1.026644E+05  6.622320E+04  8.877975E+04 -1.502182E+04 -1.524041E+04
       184  20  1.177185E+05  2.496521E+05  9.493350E+04  4.632024E+04 -1.934531E+04 -9.707056E+03
       184  21  1.294031E+05  3.917848E+05  1.213672E+05  7.414843E+04 -6.810308E+03 -4.148851E+03
       184  22  1.064306E+03 -2.280202E+05 -8.932213E+03  8.541465E+04 -1.503263E+04 -5.445796E+03
       184  23  1.114387E+03 -2.244771E+05 -1.391888E+04  5.025063E+04 -1.934238E+04 -1.285960E+04
       184  24 -2.489919E+04 -2.280603E+05 -3.017695E+04  8.537908E+04 -6.787789E+03 -2.024954E+04
       184  25 -8.010559E+04 -5.586031E+05 -8.409435E+04  8.205138E+04 -1.504355E+04  4.343646E+03
       184  26 -1.155054E+05 -6.983981E+05 -1.227860E+05  5.417806E+04 -1.933950E+04 -1.600976E+04
       184  27 -1.792293E+05 -8.475546E+05 -1.817481E+05  9.659860E+04 -6.765842E+03 -3.633418E+04
       185   1  2.909216E+05  1.453655E+05  1.324177E+05  3.567767E+04  2.724591E+04 -1.024290E+04
       185   2  2.338000E+05  1.529531E+05  1.115611E+05  4.193461E+04  7.846746E+03 -3.423117E+04
       185   3  1.752465E+05  1.445850E+05  9.936046E+04  6.010866E+04 -1.156085E+04 -4.072505E+04
       185   4 -4.427566E+05 -3.577876E+04 -3.978046E+04  5.756991E+04 -2.772432E+04 -1.028608E+04
       185   5 -4.394677E+05 -7.867778E+03 -1.932007E+04  5.159453E+04 -1.772376E+04 -3.425727E+04
       185   6 -4.427245E+05 -1.027488E+03 -1.062467E+04  5.753714E+04 -7.733755E+03 -4.072461E+04
       185   7 -1.175931E+06 -2.169579E+05 -2.120039E+05  7.943601E+04 -8.262999E+04 -1.033317E+04
       185   8 -1.112299E+06 -1.687150E+05 -1.502202E+05  6.124364E+04 -4.326714E+04 -3.428418E+04
       185   9 -1.060323E+06 -1.466611E+05 -1.206241E+05  5.496814E+04 -3.910354E+03 -4.072420E+04
       185  10  2.909207E+05  1.453652E+05  1.324161E+05  3.567790E+04  1.068292E-08 -2.819415E-10
       185  11  2.337997E+05  1.529518E+05  1.115588E+05  4.193483E+04 -2.150892E-09 -2.687914E-09
       185  12  1.752459E+05  1.445832E+05  9.935709E+04  6.010829E+04 -1.601798E-08 -4.272925E-09
       185  13 -4.427574E+05 -3.577908E+04 -3.978210E+04  5.756968E+04  2.383142E-09  1.299382E-09
       185  14 -4.394684E+05 -7.869122E+03 -1.932287E+04  5.159404E+04  2.800077E-09  2.131336E-09
       185  15 -4.427250E+05 -1.029285E+03 -1.062790E+04  5.753689E+04  1.010654E-09  5.489805E-09
       185  16 -1.175939E+06 -2.169599E+05 -2.120169E+05  7.943532E+04 -9.952711E-09 -4.112316E-10
       185  17 -1.112301E+06 -1.687168E+05 -1.502259E+05  6.124244E+04  2.167947E-09 -4.826682E-09
       185  18 -1.060323E+06 -1.466629E+05 -1.206272E+05  5.496801E+04  1.531183E-08 -6.953223E-09
       185  19  2.909216E+05  1.453655E+05  1.324177E+05  3.567767E+04 -2.724591E+04  1.024290E+04
       185  20  2.338000E+05  1.529531E+05  1.115611E+05  4.193461E+04 -7.846746E+03  3.423117E+04
       185  21  1.752465E+05  1.445850E+05  9.936046E+04  6.010866E+04  1.156085E+04  4.072505E+04
       185  22 -4.427566E+05 -3.577876E+04 -3.978046E+04  5.756991E+04  2.772432E+04  1.028608E+04
       185  23 -4.394677E+05 -7.867778E+03 -1.932007E+04  5.159453E+04  1.772376E+04  3.425727E+04
       185  24 -4.427245E+05 -1.027488E+03 -1.062467E+04  5.753714E+04  7.733755E+03  4.072461E+04
       185  25 -1.175931E+06 -2.169579E+05 -2.120039E+05  7.943601E+04  8.262999E+04  1.033317E+04
       185  26 -1.112299E+06 -1.687150E+05 -1.502202E+05  6.124364E+04  4.326714E+04  3.428418E+04
       185  27 -1.060323E+06 -1.466611E+05 -1.206241E+05  5.496814E+04  3.910354E+03  4.072420E+04
       186   1  1.380519E+05  1.347781E+05  9.406915E+04  5.762547E+04 -8.185342E+03 -3.906806E+04
       186   2  8.029872E+04  1.220604E+05  8.523948E+04  5.153060E+04 -8.579179E+03 -3.720084E+04
       186   3  2.243780E+04  1.087219E+05  7.651048E+04  5.851343E+04 -8.975920E+03 -3.377493E+04
       186   4 -4.413874E+05 -1.558217E+03 -8.092329E+03  5.779916E+04 -6.352263E+03 -3.906928E+04
       186   5 -4.410945E+05 -1.767878E+02 -4.456496E+03  5.125891E+04 -4.128721E+03 -3.719836E+04
       186   6 -4.413667E+05  1.293371E+02 -2.538455E+03  5.779708E+04 -1.908072E+03 -3.376809E+04
       186   7 -1.020498E+06 -1.379130E+05 -1.102661E+05  5.797259E+04 -4.520842E+03 -3.907049E+04
       186   8 -9.622206E+05 -1.224285E+05 -9.416162E+04  5.098738E+04  3.181182E+02 -3.719588E+04
       186   9 -9.049595E+05 -1.084747E+05 -8.159429E+04  5.708120E+04  5.154664E+03 -3.376126E+04
       186  10  1.380514E+05  1.347765E+05  9.406616E+04  5.762521E+04  1.244521E-08 -5.241455E-09
       186  11  8.029827E+04  1.220589E+05  8.523674E+04  5.153034E+04 -5.583173E-10 -1.402622E-09
       186  12  2.243741E+04  1.087207E+05  7.650819E+04  5.851319E+04 -1.079207E-08 -4.871755E-10
       186  13 -4.413878E+05 -1.559866E+03 -8.095273E+03  5.779896E+04  5.259917E-10  4.020246E-09
       186  14 -4.410949E+05 -1.782779E+02 -4.459127E+03  5.125879E+04  4.949120E-10  3.224851E-09
       186  15 -4.413670E+05  1.281119E+02 -2.540604E+03  5.779702E+04  1.160162E-09 -1.460249E-09
       186  16 -1.020499E+06 -1.379146E+05 -1.102690E+05  5.797245E+04 -1.197204E-08 -3.627458E-09
       186  17 -9.622210E+05 -1.224300E+05 -9.416422E+04  5.098739E+04 -3.458912E-09  1.233289E-10
       186  18 -9.049598E+05 -1.084759E+05 -8.159649E+04  5.708134E+04  9.845257E-09 -2.802046E-10
       186  19  1.380519E+05  1.347781E+05  9.406915E+04  5.762547E+04  8.185342E+03  3.906806E+04
       186  20  8.029872E+04  1.220604E+05  8.523948E+04  5.153060E+04  8.579179E+03  3.720084E+04
       186  21  2.243780E+04  1.087219E+05  7.651048E+04  5.851343E+04  8.975920E+03  3.377493E+04
       186  22 -4.413874E+05 -1.558217E+03 -8.092329E+03  5.779916E+04  6.352263E+03  3.906928E+04
       186  23 -4.410945E+05 -1.767878E+02 -4.456496E+03  5.125891E+04  4.128721E+03  3.719836E+04
       186  24 -4.413667E+05  1.293371E+02 -2.538455E+03  5.779708E+04  1.908072E+03  3.376809E+04
       186  25 -1.020498E+06 -1.379130E+05 -1.102661E+05  5.797259E+04  4.520842E+03  3.907049E+04
       186  26 -9.622206E+05 -1.224285E+05 -9.416162E+04  5.098738E+04 -3.181182E+02  3.719588E+04
       186  27 -9.049595E+05 -1.084747E+05 -8.159429E+04  5.708120E+04 -5.154664E+03  3.376126E+04
       187   1 -1.526189E+04  9.978050E+04  7.037765E+04  5.834653E+04 -8.413806E+03 -3.129642E+04
       187   2 -7.311771E+04  8.626037E+04  6.128771E+04  5.168323E+04 -8.106577E+03 -2.712308E+04
       187   3 -1.310335E+05  7.276146E+04  5.199527E+04  5.821777E+04 -7.800703E+03 -2.280930E+04
       187   4 -4.412578E+05  9.814732E+01 -1.929795E+03  5.782402E+04 -1.520447E+03 -3.128915E+04
       187   5 -4.411985E+05  1.442491E+02 -1.105232E+03  5.122482E+04 -9.779099E+02 -2.711456E+04
       187   6 -4.412435E+05  1.707835E+02 -6.469151E+02  5.782392E+04 -4.367001E+02 -2.279949E+04
       187   7 -8.670749E+05 -9.959379E+04 -7.424296E+04  5.730181E+04  5.368333E+03 -3.128188E+04
       187   8 -8.091457E+05 -8.597901E+04 -6.350236E+04  5.076665E+04  6.146666E+03 -2.710604E+04
       187   9 -7.513586E+05 -7.242496E+04 -5.329202E+04  5.743024E+04  6.923740E+03 -2.278968E+04
       187  10 -1.526222E+04  9.977943E+04  7.037568E+04  5.834632E+04 -2.835847E-09  5.510752E-10
       187  11 -7.311797E+04  8.625956E+04  6.128620E+04  5.168305E+04 -2.438442E-09  6.706278E-10
       187  12 -1.310337E+05  7.276089E+04  5.199418E+04  5.821762E+04 -9.696943E-10 -7.726565E-10
       187  13 -4.412580E+05  9.709564E+01 -1.931638E+03  5.782398E+04 -2.237674E-09 -3.113368E-09
       187  14 -4.411987E+05  1.434595E+02 -1.106615E+03  5.122480E+04 -7.088562E-10  4.188703E-10
       187  15 -4.412436E+05  1.702254E+02 -6.478921E+02  5.782391E+04 -1.397675E-10  2.050684E-09
       187  16 -8.670752E+05 -9.959485E+04 -7.424485E+04  5.730195E+04  4.073741E-09 -4.284558E-10
       187  17 -8.091460E+05 -8.597981E+04 -6.350381E+04  5.076678E+04  1.021054E-09  7.751789E-10
       187  18 -7.513588E+05 -7.242553E+04 -5.329309E+04  5.743036E+04  3.134276E-11 -6.358087E-11
       187  19 -1.526189E+04  9.978050E+04  7.037765E+04  5.834653E+04  8.413806E+03  3.129642E+04
       187  20 -7.311771E+04  8.626037E+04  6.128771E+04  5.168323E+04  8.106577E+03  2.712308E+04
       187  21 -1.310335E+05  7.276146E+04  5.199527E+04  5.821777E+04  7.800703E+03  2.280930E+04
       187  22 -4.412578E+05  9.814732E+01 -1.929795E+03  5.782402E+04  1.520447E+03  3.128915E+04
       187  23 -4.411985E+05  1.442491E+02 -1.105232E+03  5.122482E+04  9.779099E+02  2.711456E+04
       187  24 -4.412435E+05  1.707835E+02 -6.469151E+02  5.782392E+04  4.367001E+02  2.279949E+04
       187  25 -8.670749E+05 -9.959379E+04 -7.424296E+04  5.730181E+04 -5.368333E+03  3.128188E+04
       187  26 -8.091457E+05 -8.597901E+04 -6.350236E+04  5.076665E+04 -6.146666E+03  2.710604E+04
       187  27 -7.513586E+05 -7.242496E+04 -5.329202E+04  5.743024E+04 -6.923740E+03  2.278968E+04
       188   1 -1.688025E+05  6.387360E+04  4.548585E+04  5.817041E+04 -7.686689E+03 -2.025476E+04
       188   2 -2.267219E+05  5.032942E+04  3.597072E+04  5.148493E+04 -7.555373E+03 -1.587212E+04
       188   3 -2.846871E+05  3.682564E+04  2.636830E+04  5.801970E+04 -7.424773E+03 -1.147660E+04
       188   4 -4.412280E+05  1.717477E+02 -5.028590E+02  5.782888E+04 -3.362854E+02 -2.024451E+04
       188   5 -4.411970E+05  1.596227E+02 -3.208753E+02  5.121862E+04 -1.837597E+02 -1.586128E+04
       188   6 -4.412197E+05  1.840910E+02 -2.413371E+02  5.782887E+04 -3.193785E+01 -1.146515E+04
       188   7 -7.135802E+05 -6.353399E+04 -4.649373E+04  5.748747E+04  7.010997E+03 -2.023427E+04
       188   8 -6.556266E+05 -5.001258E+04 -3.661374E+04  5.095238E+04  7.185389E+03 -1.585044E+04
       188   9 -5.977280E+05 -3.645872E+04 -2.685157E+04  5.763807E+04  7.359092E+03 -1.145371E+04
       188  10 -1.688027E+05  6.387315E+04  4.548497E+04  5.817029E+04  2.593486E-10 -6.114359E-13
       188  11 -2.267221E+05  5.032914E+04  3.597014E+04  5.148484E+04  1.222149E-09  4.380538E-09
       188  12 -2.846872E+05  3.682548E+04  2.636795E+04  5.801963E+04  5.107251E-10  2.428730E-09
       188  13 -4.412281E+05  1.713077E+02 -5.036292E+02  5.782887E+04  2.931391E-09  9.127549E-10
       188  14 -4.411971E+05  1.593526E+02 -3.213480E+02  5.121861E+04 -3.787970E-09  3.833644E-09
       188  15 -4.412197E+05  1.839499E+02 -2.415841E+02  5.782887E+04 -7.546296E-10  7.967395E-11
       188  16 -7.135803E+05 -6.353444E+04 -4.649459E+04  5.748758E+04 -5.859433E-10 -1.974852E-12
       188  17 -6.556267E+05 -5.001286E+04 -3.661431E+04  5.095247E+04 -1.777669E-09  2.935999E-10
       188  18 -5.977281E+05 -3.645888E+04 -2.685191E+04  5.763814E+04 -2.340781E-09 -6.108977E-10
       188  19 -1.688025E+05  6.387360E+04  4.548585E+04  5.817041E+04  7.686689E+03  2.025476E+04
       188  20 -2.267219E+05  5.032942E+04  3.597072E+04  5.148493E+04  7.555373E+03  1.587212E+04
       188  21 -2.846871E+05  3.682564E+04  2.636830E+04  5.801970E+04  7.424773E+03  1.147660E+04
       188  22 -4.412280E+05  1.717477E+02 -5.028590E+02  5.782888E+04  3.362854E+02  2.024451E+04
       188  23 -4.411970E+05  1.596227E+02 -3.208753E+02  5.121862E+04  1.837597E+02  1.586128E+04
       188  24 -4.412197E+05  1.840910E+02 -2.413371E+02  5.782887E+04  3.193785E+01  1.146515E+04
       188  25 -7.135802E+05 -6.353399E+04 -4.649373E+04  5.748747E+04 -7.010997E+03  2.023427E+04
       188  26 -6.556266E+05 -5.001258E+04 -3.661374E+04  5.095238E+04 -7.185389E+03  1.585044E+04
       188  27 -5.977280E+05 -3.645872E+04 -2.685157E+04  5.763807E+04 -7.359092E+03  1.145371E+04
       189   1 -3.224905E+05  2.793428E+04  1.972698E+04  5.797299E+04 -7.386137E+03 -8.913719E+03
       189   2 -3.804289E+05  1.438454E+04  1.000708E+04  5.127667E+04 -7.250736E+03 -4.514162E+03
       189   3 -4.384231E+05  8.706007E+02  1.935887E+02  5.780930E+04 -7.115531E+03 -1.209916E+02
       189   4 -4.412183E+05  1.865460E+02 -2.314699E+02  5.783076E+04  7.067328E+00 -8.902061E+03
       189   5 -4.411889E+05  1.722886E+02 -2.654801E+02  5.121624E+04  1.314569E+02 -4.502363E+03
       189   6 -4.412160E+05  1.960841E+02 -3.853048E+02  5.783075E+04  2.556638E+02 -1.090487E+02
       189   7 -5.599321E+05 -2.756190E+04 -2.019016E+04  5.768855E+04  7.398903E+03 -8.890405E+03
       189   8 -5.019452E+05 -1.404013E+04 -1.053795E+04  5.115582E+04  7.512950E+03 -4.490565E+03
       189   9 -4.440087E+05 -4.784039E+02 -9.639944E+02  5.785219E+04  7.626826E+03 -9.710515E+01
       189  10 -3.224905E+05  2.793418E+04  1.972673E+04  5.797293E+04  5.941961E-09 -3.872769E-10
       189  11 -3.804289E+05  1.438451E+04  1.000694E+04  5.127665E+04  6.162704E-10 -4.934009E-10
       189  12 -4.384232E+05  8.705871E+02  1.934934E+02  5.780930E+04 -2.713390E-09 -1.594268E-09
       189  13 -4.412183E+05  1.864609E+02 -2.316187E+02  5.783076E+04  1.554743E-09  3.378349E-09
       189  14 -4.411889E+05  1.722669E+02 -2.655182E+02  5.121624E+04 -4.736950E-09 -2.675424E-10
       189  15 -4.412160E+05  1.960841E+02 -3.853049E+02  5.783075E+04 -3.168311E-09 -1.818936E-09
       189  16 -5.599322E+05 -2.756200E+04 -2.019041E+04  5.768860E+04 -5.361981E-09  1.037904E-09
       189  17 -5.019453E+05 -1.404017E+04 -1.053810E+04  5.115585E+04 -5.021959E-09 -1.099833E-09
       189  18 -4.440087E+05 -4.784195E+02 -9.641038E+02  5.785219E+04 -3.598861E-10 -1.133204E-09
       189  19 -3.224905E+05  2.793428E+04  1.972698E+04  5.797299E+04  7.386137E+03  8.913719E+03
       189  20 -3.804289E+05  1.438454E+04  1.000708E+04  5.127667E+04  7.250736E+03  4.514162E+03
       189  21 -4.384231E+05  8.706007E+02  1.935887E+02  5.780930E+04  7.115531E+03  1.209916E+02
       189  22 -4.412183E+05  1.865460E+02 -2.314699E+02  5.783076E+04 -7.067328E+00  8.902061E+03
       189  23 -4.411889E+05  1.722886E+02 -2.654801E+02  5.121624E+04 -1.314569E+02  4.502363E+03
       189  24 -4.412160E+05  1.960841E+02 -3.853048E+02  5.783075E+04 -2.556638E+02  1.090487E+02
       189  25 -5.599321E+05 -2.756190E+04 -2.019016E+04  5.768855E+04 -7.398903E+03  8.890405E+03
       189  26 -5.019452E+05 -1.404013E+04 -1.053795E+04  5.115582E+04 -7.512950E+03  4.490565E+03
       189  27 -4.440087E+05 -4.784039E+02 -9.639944E+02  5.785219E+04 -7.626826E+03  9.710515E+01
       190   1 -4.762432E+05 -8.023869E+03 -6.565249E+03  5.774926E+04 -7.050405E+03  2.439197E+03
       190   2 -5.341395E+05 -2.158445E+04 -1.662857E+04  5.105267E+04 -6.505359E+03  6.791930E+03
       190   3 -5.921593E+05 -3.517298E+04 -2.706801E+04  5.757863E+04 -5.959941E+03  1.105633E+04
       190   4 -4.412261E+05  1.991560E+02 -4.867704E+02  5.782926E+04  3.303389E+02  2.451130E+03
       190   5 -4.411774E+05  1.814900E+02 -8.150469E+02  5.121809E+04  7.268216E+02  6.803381E+03
       190   6 -4.412298E+05  1.618244E+02 -1.416283E+03  5.782933E+04  1.123725E+03  1.106731E+04
       190   7 -4.062077E+05  8.422144E+03  5.591871E+03  5.790927E+04  7.711487E+03  2.463065E+03
       190   8 -3.482067E+05  2.194700E+04  1.499839E+04  5.138352E+04  7.960052E+03  6.814835E+03
       190   9 -2.902778E+05  3.549545E+04  2.423488E+04  5.808008E+04  8.209059E+03  1.107829E+04
       190  10 -4.762433E+05 -8.023888E+03 -6.565354E+03  5.774927E+04 -3.322853E-10  1.226023E-09
       190  11 -5.341395E+05 -2.158451E+04 -1.662873E+04  5.105271E+04 -1.648031E-09  1.030537E-09
       190  12 -5.921594E+05 -3.517312E+04 -2.706830E+04  5.757868E+04 -3.829262E-09  1.430046E-09
       190  13 -4.412261E+05  1.991496E+02 -4.867819E+02  5.782926E+04 -2.669834E-10  3.508370E-10
       190  14 -4.411774E+05  1.814401E+02 -8.151348E+02  5.121808E+04 -2.968276E-09 -4.456667E-10
       190  15 -4.412299E+05  1.616925E+02 -1.416516E+03  5.782932E+04 -1.181713E-09  1.224537E-09
       190  16 -4.062078E+05  8.422121E+03  5.591748E+03  5.790925E+04 -8.356860E-10  1.905125E-09
       190  17 -3.482068E+05  2.194694E+04  1.499818E+04  5.138348E+04 -1.964407E-09 -3.577657E-09
       190  18 -2.902779E+05  3.549530E+04  2.423453E+04  5.808001E+04  7.545516E-10 -1.167015E-09
       190  19 -4.762432E+05 -8.023869E+03 -6.565249E+03  5.774926E+04  7.050405E+03 -2.439197E+03
       190  20 -5.341395E+05 -2.158445E+04 -1.662857E+04  5.105267E+04  6.505359E+03 -6.791930E+03
       190  21 -5.921593E+05 -3.517298E+04 -2.706801E+04  5.757863E+04  5.959941E+03 -1.105633E+04
       190  22 -4.412261E+05  1.991560E+02 -4.867704E+02  5.782926E+04 -3.303389E+02 -2.451130E+03
       190  23 -4.411774E+05  1.814900E+02 -8.150469E+02  5.121809E+04 -7.268216E+02 -6.803381E+03
       190  24 -4.412298E+05  1.618244E+02 -1.416283E+03  5.782933E+04 -1.123725E+03 -1.106731E+04
       190  25 -4.062077E+05  8.422144E+03  5.591871E+03  5.790927E+04 -7.711487E+03 -2.463065E+03
       190  26 -3.482067E+05  2.194700E+04  1.499839E+04  5.138352E+04 -7.960052E+03 -6.814835E+03
       190  27 -2.902778E+05  3.549545E+04  2.423488E+04  5.808008E+04 -8.209059E+03 -1.107829E+04
       191   1 -6.300740E+05 -4.406353E+04 -3.422995E+04  5.739401E+04 -5.788850E+03  1.356979E+04
       191   2 -6.876330E+05 -5.791320E+04 -4.593977E+04  5.109708E+04 -2.505376E+03  1.736594E+04
       191   3 -7.459224E+05 -7.282665E+04 -6.006623E+04  5.795210E+04  7.797827E+02  2.017214E+04
       191   4 -4.413089E+05  1.877112E+02 -1.861169E+03  5.781332E+04  1.406083E+03  1.358069E+04
       191   5 -4.410911E+05 -3.716061E+01 -3.262137E+03  5.123842E+04  3.028207E+03  1.737371E+04
       191   6 -4.413189E+05 -1.036975E+03 -5.925030E+03  5.781519E+04  4.652335E+03  2.017698E+04
       191   7 -2.525086E+05  4.443708E+04  3.050661E+04  5.823274E+04  8.603138E+03  1.359159E+04
       191   8 -1.944895E+05  5.783562E+04  3.941350E+04  5.137980E+04  8.563922E+03  1.738148E+04
       191   9 -1.366247E+05  7.074759E+04  4.821275E+04  5.767817E+04  8.526733E+03  2.018182E+04
       191  10 -6.300741E+05 -4.406374E+04 -3.423036E+04  5.739407E+04 -3.347282E-09  3.388290E-09
       191  11 -6.876331E+05 -5.791353E+04 -4.594034E+04  5.109711E+04  3.023008E-09  2.469405E-11
       191  12 -7.459225E+05 -7.282709E+04 -6.006700E+04  5.795209E+04  5.042085E-09  1.481969E-09
       191  13 -4.413089E+05  1.875127E+02 -1.861519E+03  5.781330E+04 -2.458342E-09  1.227899E-09
       191  14 -4.410912E+05 -3.748713E+01 -3.262721E+03  5.123838E+04 -3.468474E-09  8.171414E-10
       191  15 -4.413190E+05 -1.037418E+03 -5.925836E+03  5.781511E+04  8.964685E-10 -4.905017E-10
       191  16 -2.525087E+05  4.443686E+04  3.050612E+04  5.823265E+04  2.274938E-09  4.364436E-10
       191  17 -1.944896E+05  5.783528E+04  3.941280E+04  5.137968E+04 -5.318649E-09  3.176023E-10
       191  18 -1.366248E+05  7.074713E+04  4.821185E+04  5.767803E+04 -3.832569E-09 -2.977160E-09
       191  19 -6.300740E+05 -4.406353E+04 -3.422995E+04  5.739401E+04  5.788850E+03 -1.356979E+04
       191  20 -6.876330E+05 -5.791320E+04 -4.593977E+04  5.109708E+04  2.505376E+03 -1.736594E+04
       191  21 -7.459224E+05 -7.282665E+04 -6.006623E+04  5.795210E+04 -7.797827E+02 -2.017214E+04
       191  22 -4.413089E+05  1.877112E+02 -1.861169E+03  5.781332E+04 -1.406083E+03 -1.358069E+04
       191  23 -4.410911E+05 -3.716061E+01 -3.262137E+03  5.123842E+04 -3.028207E+03 -1.737371E+04
       191  24 -4.413189E+05 -1.036975E+03 -5.925030E+03  5.781519E+04 -4.652335E+03 -2.017698E+04
       191  25 -2.525086E+05  4.443708E+04  3.050661E+04  5.823274E+04 -8.603138E+03 -1.359159E+04
       191  26 -1.944895E+05  5.783562E+04  3.941350E+04  5.137980E+04 -8.563922E+03 -1.738148E+04
       191  27 -1.366247E+05  7.074759E+04  4.821275E+04  5.767817E+04 -8.526733E+03 -2.018182E+04
       192   1 -7.851972E+05 -8.158998E+04 -6.932752E+04  5.574384E+04  5.240210E+02  2.216217E+04
       192   2 -8.391241E+05 -1.012183E+05 -9.251302E+04  5.845222E+04  2.648890E+04  1.969981E+04
       192   3 -9.011270E+05 -1.395239E+05 -1.372889E+05  7.358455E+04  5.246411E+04  6.118709E+03
       192   4 -4.422979E+05 -6.459247E+02 -7.779255E+03  5.764887E+04  5.662033E+03  2.216850E+04
       192   5 -4.398922E+05 -5.662137E+03 -1.414297E+04  5.145402E+04  1.297103E+04  1.968004E+04
       192   6 -4.423184E+05 -2.610746E+04 -2.912707E+04  5.768364E+04  2.029299E+04  6.075363E+03
       192   7 -9.928391E+04  8.029160E+04  5.376458E+04  5.955494E+04  1.080280E+04  2.217486E+04
       192   8 -4.050683E+04  8.988473E+04  6.422009E+04  4.445117E+04 -5.553628E+02  1.966059E+04
       192   9  1.668699E+04  8.729547E+04  7.902427E+04  4.177083E+04 -1.190181E+04  6.033683E+03
       192  10 -7.851973E+05 -8.159050E+04 -6.932844E+04  5.574383E+04 -2.298542E-09  1.062958E-09
       192  11 -8.391250E+05 -1.012189E+05 -9.251507E+04  5.845180E+04 -1.996945E-09 -3.716927E-10
       192  12 -9.011300E+05 -1.395247E+05 -1.372941E+05  7.358429E+04  1.109419E-09  3.456041E-11
       192  13 -4.422981E+05 -6.464609E+02 -7.780238E+03  5.764877E+04  3.982547E-10  1.667105E-09
       192  14 -4.398925E+05 -5.662598E+03 -1.414401E+04  5.145382E+04  2.323961E-09 -2.897063E-09
       192  15 -4.423188E+05 -2.610761E+04 -2.912791E+04  5.768354E+04 -2.382620E-10  5.131880E-10
       192  16 -9.928417E+04  8.029104E+04  5.376344E+04  5.955475E+04  5.086067E-10  1.072806E-09
       192  17 -4.050693E+04  8.988431E+04  6.421936E+04  4.445118E+04 -1.122747E-09  1.212258E-09
       192  18  1.668683E+04  8.729540E+04  7.902393E+04  4.177089E+04 -2.418847E-09 -1.253233E-10
       192  19 -7.851972E+05 -8.158998E+04 -6.932752E+04  5.574384E+04 -5.240210E+02 -2.216217E+04
       192  20 -8.391241E+05 -1.012183E+05 -9.251302E+04  5.845222E+04 -2.648890E+04 -1.969981E+04
       192  21 -9.011270E+05 -1.395239E+05 -1.372889E+05  7.358455E+04 -5.246411E+04 -6.118709E+03
       192  22 -4.422979E+05 -6.459247E+02 -7.779255E+03  5.764887E+04 -5.662033E+03 -2.216850E+04
       192  23 -4.398922E+05 -5.662137E+03 -1.414297E+04  5.145402E+04 -1.297103E+04 -1.968004E+04
       192  24 -4.423184E+05 -2.610746E+04 -2.912707E+04  5.768364E+04 -2.029299E+04 -6.075363E+03
       192  25 -9.928391E+04  8.029160E+04  5.376458E+04  5.955494E+04 -1.080280E+04 -2.217486E+04
       192  26 -4.050683E+04  8.988473E+04  6.422009E+04  4.445117E+04  5.553628E+02 -1.966059E+04
       192  27  1.668699E+04  8.729547E+04  7.902427E+04  4.177083E+04  1.190181E+04 -6.033683E+03
       193   1 -9.590512E+04  7.462999E+04  6.131580E+04  1.435847E+03 -2.614382E+04 -6.184865E+03
       193   2 -1.281190E+05  1.148316E+05  7.782620E+04  6.230176E+03 -2.154056E+04 -1.915215E+04
       193   3 -1.732635E+05  1.055396E+05  7.898751E+04  2.950593E+04 -1.695377E+04 -1.945193E+04
       193   4 -5.921571E+05 -4.879999E+04 -5.970392E+04  2.185030E+04 -4.094714E+04 -6.204870E+03
       193   5 -5.848294E+05  2.546901E+03 -2.683019E+04  1.257338E+04 -2.662547E+04 -1.916071E+04
       193   6 -5.921329E+05  2.691566E+03 -1.606759E+04  2.177924E+04 -1.231972E+04 -1.944510E+04
       193   7 -1.088183E+06 -1.722464E+05 -1.807405E+05  4.224831E+04 -5.573864E+04 -6.225858E+03
       193   8 -1.041346E+06 -1.097522E+05 -1.315002E+05  1.891182E+04 -3.170667E+04 -1.916938E+04
       193   9 -1.010839E+06 -1.001683E+05 -1.111339E+05  1.405775E+04 -7.688773E+03 -1.943837E+04
       193  10 -9.590586E+04  7.462977E+04  6.131444E+04  1.435717E+03 -4.201453E-09  1.226441E-09
       193  11 -1.281196E+05  1.148311E+05  7.782464E+04  6.229844E+03 -2.042046E-09  5.747553E-09
       193  12 -1.732639E+05  1.055391E+05  7.898626E+04  2.950566E+04  2.900120E-10  2.880648E-09
       193  13 -5.921589E+05 -4.880048E+04 -5.970714E+04  2.185009E+04 -1.763159E-09 -5.767121E-10
       193  14 -5.848303E+05  2.546316E+03 -2.683221E+04  1.257297E+04  6.766570E-10 -3.915720E-09
       193  15 -5.921332E+05  2.691119E+03 -1.606859E+04  2.177905E+04 -3.177658E-10  2.246103E-10
       193  16 -1.088186E+06 -1.722473E+05 -1.807464E+05  4.224803E+04  3.730550E-09  6.818009E-11
       193  17 -1.041348E+06 -1.097528E+05 -1.315028E+05  1.891133E+04  7.530716E-10  5.020618E-09
       193  18 -1.010839E+06 -1.001688E+05 -1.111348E+05  1.405763E+04  1.457205E-09  9.511592E-10
       193  19 -9.590512E+04  7.462999E+04  6.131580E+04  1.435847E+03  2.614382E+04  6.184865E+03
       193  20 -1.281190E+05  1.148316E+05  7.782620E+04  6.230176E+03  2.154056E+04  1.915215E+04
       193  21 -1.732635E+05  1.055396E+05  7.898751E+04  2.950593E+04  1.695377E+04  1.945193E+04
       193  22 -5.921571E+05 -4.879999E+04 -5.970392E+04  2.185030E+04  4.094714E+04  6.204870E+03
       193  23 -5.848294E+05  2.546901E+03 -2.683019E+04  1.257338E+04  2.662547E+04  1.916071E+04
       193  24 -5.921329E+05  2.691566E+03 -1.606759E+04  2.177924E+04  1.231972E+04  1.944510E+04
       193  25 -1.088183E+06 -1.722464E+05 -1.807405E+05  4.224831E+04  5.573864E+04  6.225858E+03
       193  26 -1.041346E+06 -1.097522E+05 -1.315002E+05  1.891182E+04  3.170667E+04  1.916938E+04
       193  27 -1.010839E+06 -1.001683E+05 -1.111339E+05  1.405775E+04  7.688773E+03  1.943837E+04
       194   1 -2.059246E+05  9.083784E+04  7.452143E+04  2.128404E+04 -1.074331E+04 -1.688773E+04
       194   2 -2.443007E+05  8.478549E+04  7.142900E+04  1.256129E+04 -7.738823E+03 -1.558857E+04
       194   3 -2.839674E+05  7.524510E+04  6.550233E+04  2.299740E+04 -4.736559E+03 -1.368634E+04
       194   4 -5.891828E+05 -3.326825E+03 -1.289920E+04  2.195398E+04 -9.977139E+03 -1.688716E+04
       194   5 -5.884913E+05  2.568285E+02 -6.870497E+03  1.237092E+04 -6.511562E+03 -1.558690E+04
       194   6 -5.891736E+05  2.710458E+02 -3.997896E+03  2.194746E+04 -3.048028E+03 -1.368343E+04
       194   7 -9.723048E+05 -9.750168E+04 -1.003294E+05  2.262343E+04 -9.211436E+03 -1.688659E+04
       194   8 -9.325720E+05 -8.428004E+04 -8.517769E+04  1.218061E+04 -5.284975E+03 -1.558524E+04
       194   9 -8.942932E+05 -7.470946E+04 -7.350417E+04  2.089799E+04 -1.360320E+03 -1.368053E+04
       194  10 -2.059248E+05  9.083751E+04  7.452068E+04  2.128389E+04 -7.940881E-09  4.856369E-10
       194  11 -2.443008E+05  8.478522E+04  7.142844E+04  1.256120E+04 -1.056888E-09  2.668993E-09
       194  12 -2.839675E+05  7.524489E+04  6.550193E+04  2.299735E+04  8.945123E-09  3.005815E-09
       194  13 -5.891830E+05 -3.327158E+03 -1.289992E+04  2.195384E+04 -4.363617E-10  5.163190E-09
       194  14 -5.884915E+05  2.565563E+02 -6.871034E+03  1.237084E+04  3.471265E-09 -1.260848E-08
       194  15 -5.891736E+05  2.708423E+02 -3.998265E+03  2.194742E+04 -1.020772E-09  4.855730E-09
       194  16 -9.723050E+05 -9.750201E+04 -1.003301E+05  2.262331E+04  1.004067E-08 -4.596285E-09
       194  17 -9.325721E+05 -8.428030E+04 -8.517820E+04  1.218054E+04  2.672612E-09 -4.835637E-09
       194  18 -8.942932E+05 -7.470966E+04 -7.350452E+04  2.089797E+04 -9.274502E-09 -1.090668E-10
       194  19 -2.059246E+05  9.083784E+04  7.452143E+04  2.128404E+04  1.074331E+04  1.688773E+04
       194  20 -2.443007E+05  8.478549E+04  7.142900E+04  1.256129E+04  7.738823E+03  1.558857E+04
       194  21 -2.839674E+05  7.524510E+04  6.550233E+04  2.299740E+04  4.736559E+03  1.368634E+04
       194  22 -5.891828E+05 -3.326825E+03 -1.289920E+04  2.195398E+04  9.977139E+03  1.688716E+04
       194  23 -5.884913E+05  2.568285E+02 -6.870497E+03  1.237092E+04  6.511562E+03  1.558690E+04
       194  24 -5.891736E+05  2.710458E+02 -3.997896E+03  2.194746E+04  3.048028E+03  1.368343E+04
       194  25 -9.723048E+05 -9.750168E+04 -1.003294E+05  2.262343E+04  9.211436E+03  1.688659E+04
       194  26 -9.325720E+05 -8.428004E+04 -8.517769E+04  1.218061E+04  5.284975E+03  1.558524E+04
       194  27 -8.942932E+05 -7.470946E+04 -7.350417E+04  2.089799E+04  1.360320E+03  1.368053E+04
       195   1 -3.195208E+05  6.599891E+04  5.807084E+04  2.240595E+04 -3.937910E+03 -1.244869E+04
       195   2 -3.587737E+05  5.656526E+04  5.054273E+04  1.271054E+04 -3.090203E+03 -1.046349E+04
       195   3 -3.982560E+05  4.695943E+04  4.240194E+04  2.237509E+04 -2.243296E+03 -8.445207E+03
       195   4 -5.889156E+05 -1.401507E+02 -3.091284E+03  2.199426E+04 -2.427221E+03 -1.244596E+04
       195   5 -5.887956E+05  7.449959E+01 -1.764459E+03  1.231380E+04 -1.554493E+03 -1.046047E+04
       195   6 -5.889103E+05  1.127689E+02 -1.067714E+03  2.199373E+04 -6.825105E+02 -8.441883E+03
       195   7 -8.582431E+05 -6.628422E+04 -6.425810E+04  2.158272E+04 -9.171812E+02 -1.244322E+04
       195   8 -8.187684E+05 -5.641992E+04 -5.407508E+04  1.191717E+04 -1.934623E+01 -1.045744E+04
       195   9 -7.795309E+05 -4.673641E+04 -4.453973E+04  2.161246E+04  8.777996E+02 -8.438561E+03
       195  10 -3.195208E+05  6.599874E+04  5.807052E+04  2.240591E+04  1.968543E-09 -4.799867E-09
       195  11 -3.587737E+05  5.656514E+04  5.054251E+04  1.271052E+04  6.876459E-10 -5.159587E-09
       195  12 -3.982560E+05  4.695935E+04  4.240179E+04  2.237507E+04 -1.239692E-09 -4.159456E-09
       195  13 -5.889157E+05 -1.403186E+02 -3.091586E+03  2.199424E+04 -1.064864E-09 -1.714309E-09
       195  14 -5.887956E+05  7.438147E+01 -1.764670E+03  1.231378E+04 -8.975881E-10 -4.113252E-09
       195  15 -5.889104E+05  1.126923E+02 -1.067849E+03  2.199372E+04 -5.620139E-10 -2.106786E-09
       195  16 -8.582432E+05 -6.628439E+04 -6.425839E+04  2.158271E+04 -5.112270E-10 -3.743844E-09
       195  17 -8.187684E+05 -5.642004E+04 -5.407528E+04  1.191717E+04  1.945872E-10  5.503475E-09
       195  18 -7.795310E+05 -4.673649E+04 -4.453986E+04  2.161247E+04  7.844026E-10  7.187689E-09
       195  19 -3.195208E+05  6.599891E+04  5.807084E+04  2.240595E+04  3.937910E+03  1.244869E+04
       195  20 -3.587737E+05  5.656526E+04  5.054273E+04  1.271054E+04  3.090203E+03  1.046349E+04
       195  21 -3.982560E+05  4.695943E+04  4.240194E+04  2.237509E+04  2.243296E+03  8.445207E+03
       195  22 -5.889156E+05 -1.401507E+02 -3.091284E+03  2.199426E+04  2.427221E+03  1.244596E+04
       195  23 -5.887956E+05  7.449959E+01 -1.764459E+03  1.231380E+04  1.554493E+03  1.046047E+04
       195  24 -5.889103E+05  1.127689E+02 -1.067714E+03  2.199373E+04  6.825105E+02  8.441883E+03
       195  25 -8.582431E+05 -6.628422E+04 -6.425810E+04  2.158272E+04  9.171812E+02  1.244322E+04
       195  26 -8.187684E+05 -5.641992E+04 -5.407508E+04  1.191717E+04  1.934623E+01  1.045744E+04
       195  27 -7.795309E+05 -4.673641E+04 -4.453973E+04  2.161246E+04 -8.777996E+02  8.438561E+03
       196   1 -4.342911E+05  3.803224E+04  3.418225E+04  2.229777E+04 -2.066737E+03 -7.262582E+03
       196   2 -4.738090E+05  2.831161E+04  2.553913E+04  1.249166E+04 -1.769844E+03 -5.234461E+03
       196   3 -5.134526E+05  1.865869E+04  1.669555E+04  2.215057E+04 -1.473326E+03 -3.202553E+03
       196   4 -5.888836E+05  8.725176E+01 -8.589475E+02  2.201720E+04 -5.118740E+02 -7.259155E+03
       196   5 -5.888184E+05  6.475257E+01 -6.151152E+02  1.228456E+04 -2.121805E+02 -5.230910E+03
       196   6 -5.888810E+05  1.095675E+02 -5.736528E+02  2.201715E+04  8.715568E+01 -3.198870E+03
       196   7 -7.434538E+05 -3.785938E+04 -3.590168E+04  2.173669E+04  1.042605E+03 -7.255730E+03
       196   8 -7.038156E+05 -2.818302E+04 -2.677021E+04  1.207749E+04  1.345196E+03 -5.227360E+03
       196   9 -6.643041E+05 -1.843995E+04 -1.784322E+04  2.188375E+04  1.647450E+03 -3.195188E+03
       196  10 -4.342911E+05  3.803218E+04  3.418215E+04  2.229775E+04  9.502262E-09 -5.492865E-09
       196  11 -4.738090E+05  2.831158E+04  2.553907E+04  1.249165E+04 -3.985512E-09  1.866684E-10
       196  12 -5.134526E+05  1.865868E+04  1.669553E+04  2.215057E+04 -1.412706E-08 -1.260659E-09
       196  13 -5.888836E+05  8.719512E+01 -8.590470E+02  2.201720E+04  2.166878E-09  1.000281E-09
       196  14 -5.888184E+05  6.472318E+01 -6.151667E+02  1.228456E+04  1.447760E-09 -4.518358E-09
       196  15 -5.888810E+05  1.095565E+02 -5.736721E+02  2.201715E+04  7.989445E-10 -2.764215E-09
       196  16 -7.434538E+05 -3.785944E+04 -3.590178E+04  2.173670E+04 -8.486871E-09  3.605843E-09
       196  17 -7.038156E+05 -2.818305E+04 -2.677026E+04  1.207750E+04  4.512264E-10  5.560848E-09
       196  18 -6.643041E+05 -1.843997E+04 -1.784325E+04  2.188375E+04  1.358524E-08  3.793039E-09
       196  19 -4.342911E+05  3.803224E+04  3.418225E+04  2.229777E+04  2.066737E+03  7.262582E+03
       196  20 -4.738090E+05  2.831161E+04  2.553913E+04  1.249166E+04  1.769844E+03  5.234461E+03
       196  21 -5.134526E+05  1.865869E+04  1.669555E+04  2.215057E+04  1.473326E+03  3.202553E+03
       196  22 -5.888836E+05  8.725176E+01 -8.589475E+02  2.201720E+04  5.118740E+02  7.259155E+03
       196  23 -5.888184E+05  6.475257E+01 -6.151152E+02  1.228456E+04  2.121805E+02  5.230910E+03
       196  24 -5.888810E+05  1.095675E+02 -5.736528E+02  2.201715E+04 -8.715568E+01  3.198870E+03
       196  25 -7.434538E+05 -3.785938E+04 -3.590168E+04  2.173669E+04 -1.042605E+03  7.255730E+03
       196  26 -7.038156E+05 -2.818302E+04 -2.677021E+04  1.207749E+04 -1.345196E+03  5.227360E+03
       196  27 -6.643041E+05 -1.843995E+04 -1.784322E+04  2.188375E+04 -1.647450E+03  3.195188E+03
       197   1 -5.496464E+05  9.724987E+03  8.188620E+03  2.208465E+04 -1.368980E+03 -2.018522E+03
       197   2 -5.892186E+05 -2.863481E+01 -9.559705E+02  1.225264E+04 -9.463317E+02  1.627584E+01
       197   3 -6.289450E+05 -9.726956E+03 -1.038823E+04  2.192093E+04 -5.237137E+02  2.050117E+03
       197   4 -5.888863E+05  1.101472E+02 -6.200125E+02  2.202494E+04  1.922759E+02 -2.014799E+03
       197   5 -5.888083E+05  7.227156E+01 -8.625810E+02  1.227482E+04  6.141322E+02  1.999348E+01
       197   6 -5.888865E+05  8.978777E+01 -1.392344E+03  2.202499E+04  1.035985E+03  2.053835E+03
       197   7 -6.281249E+05 -9.504797E+03 -9.428734E+03  2.196523E+04  1.753434E+03 -2.011076E+03
       197   8 -5.883981E+05  1.731792E+02 -7.691823E+02  1.229700E+04  2.174597E+03  2.371122E+01
       197   9 -5.488264E+05  9.906423E+03  7.603445E+03  2.212906E+04  2.595784E+03  2.057554E+03
       197  10 -5.496464E+05  9.724982E+03  8.188609E+03  2.208465E+04 -4.694764E-09  1.429691E-09
       197  11 -5.892186E+05 -2.863505E+01 -9.559722E+02  1.225264E+04 -5.074287E-09 -7.586357E-10
       197  12 -6.289450E+05 -9.726961E+03 -1.038823E+04  2.192093E+04 -4.583945E-09 -2.560440E-09
       197  13 -5.888863E+05  1.101428E+02 -6.200202E+02  2.202494E+04  6.516684E-10  7.055044E-09
       197  14 -5.888083E+05  7.227146E+01 -8.625817E+02  1.227482E+04 -9.193811E-11 -1.198772E-09
       197  15 -5.888865E+05  8.978295E+01 -1.392354E+03  2.202499E+04  5.092001E-10 -4.666751E-09
       197  16 -6.281249E+05 -9.504802E+03 -9.428747E+03  2.196523E+04  3.883996E-09  1.264613E-09
       197  17 -5.883981E+05  1.731780E+02 -7.691912E+02  1.229700E+04  2.003000E-09 -1.072284E-08
       197  18 -5.488264E+05  9.906417E+03  7.603424E+03  2.212906E+04  4.625355E-09 -6.954699E-09
       197  19 -5.496464E+05  9.724987E+03  8.188620E+03  2.208465E+04  1.368980E+03  2.018522E+03
       197  20 -5.892186E+05 -2.863481E+01 -9.559705E+02  1.225264E+04  9.463317E+02 -1.627584E+01
       197  21 -6.289450E+05 -9.726956E+03 -1.038823E+04  2.192093E+04  5.237137E+02 -2.050117E+03
       197  22 -5.888863E+05  1.101472E+02 -6.200125E+02  2.202494E+04 -1.922759E+02  2.014799E+03
       197  23 -5.888083E+05  7.227156E+01 -8.625810E+02  1.227482E+04 -6.141322E+02 -1.999348E+01
       197  24 -5.888865E+05  8.978777E+01 -1.392344E+03  2.202499E+04 -1.035985E+03 -2.053835E+03
       197  25 -6.281249E+05 -9.504797E+03 -9.428734E+03  2.196523E+04 -1.753434E+03  2.011076E+03
       197  26 -5.883981E+05  1.731792E+02 -7.691823E+02  1.229700E+04 -2.174597E+03 -2.371122E+01
       197  27 -5.488264E+05  9.906423E+03  7.603445E+03  2.212906E+04 -2.595784E+03 -2.057554E+03
       198   1 -6.651843E+05 -1.861701E+04 -1.925202E+04  2.177208E+04 -2.455562E+02  3.236786E+03
       198   2 -7.045595E+05 -2.833924E+04 -2.941106E+04  1.203321E+04  1.292771E+03  5.268086E+03
       198   3 -7.443339E+05 -3.843813E+04 -4.069095E+04  2.175757E+04  2.831426E+03  7.274903E+03
       198   4 -5.889410E+05  1.345464E+02 -1.796221E+03  2.201638E+04  1.319913E+03  3.240478E+03
       198   5 -5.887442E+05  1.100446E+02 -3.068452E+03  1.228537E+04  2.839679E+03  5.271611E+03
       198   6 -5.889441E+05 -2.875644E+02 -5.448216E+03  2.201737E+04  4.359871E+03  7.278266E+03
       198   7 -5.126922E+05  1.888570E+04  1.565921E+04  2.226071E+04  2.885572E+03  3.244172E+03
       198   8 -4.729163E+05  2.855840E+04  2.327329E+04  1.253756E+04  4.386874E+03  5.275136E+03
       198   9 -4.335318E+05  3.786133E+04  2.979297E+04  2.227721E+04  5.888695E+03  7.281631E+03
       198  10 -6.651843E+05 -1.861703E+04 -1.925204E+04  2.177208E+04 -1.043662E-08 -1.627886E-09
       198  11 -7.045595E+05 -2.833927E+04 -2.941111E+04  1.203320E+04 -3.935044E-09 -5.957512E-09
       198  12 -7.443340E+05 -3.843819E+04 -4.069106E+04  2.175756E+04 -1.058404E-09 -9.998772E-10
       198  13 -5.889410E+05  1.345347E+02 -1.796244E+03  2.201638E+04 -1.093639E-09 -3.212367E-09
       198  14 -5.887442E+05  1.100126E+02 -3.068519E+03  1.228535E+04 -1.703726E-09 -5.368718E-10
       198  15 -5.889441E+05 -2.876264E+02 -5.448351E+03  2.201734E+04 -2.470065E-09 -6.179305E-10
       198  16 -5.126922E+05  1.888569E+04  1.565917E+04  2.226070E+04  9.571587E-09  2.279051E-09
       198  17 -4.729164E+05  2.855836E+04  2.327320E+04  1.253754E+04  4.132963E-09 -9.431625E-10
       198  18 -4.335319E+05  3.786127E+04  2.979280E+04  2.227717E+04  9.016333E-10  7.610204E-09
       198  19 -6.651843E+05 -1.861701E+04 -1.925202E+04  2.177208E+04  2.455562E+02 -3.236786E+03
       198  20 -7.045595E+05 -2.833924E+04 -2.941106E+04  1.203321E+04 -1.292771E+03 -5.268086E+03
       198  21 -7.443339E+05 -3.843813E+04 -4.069095E+04  2.175757E+04 -2.831426E+03 -7.274903E+03
       198  22 -5.889410E+05  1.345464E+02 -1.796221E+03  2.201638E+04 -1.319913E+03 -3.240478E+03
       198  23 -5.887442E+05  1.100446E+02 -3.068452E+03  1.228537E+04 -2.839679E+03 -5.271611E+03
       198  24 -5.889441E+05 -2.875644E+02 -5.448216E+03  2.201737E+04 -4.359871E+03 -7.278266E+03
       198  25 -5.126922E+05  1.888570E+04  1.565921E+04  2.226071E+04 -2.885572E+03 -3.244172E+03
       198  26 -4.729163E+05  2.855840E+04  2.327329E+04  1.253756E+04 -4.386874E+03 -5.275136E+03
       198  27 -4.335318E+05  3.786133E+04  2.979297E+04  2.227721E+04 -5.888695E+03 -7.281631E+03
       199   1 -7.808495E+05 -4.661267E+04 -5.071544E+04  2.061610E+04  3.788818E+03  8.507681E+03
       199   2 -8.189501E+05 -5.623519E+04 -6.468020E+04  1.245664E+04  1.028135E+04  1.045923E+04
       199   3 -8.595852E+05 -7.230513E+04 -8.450562E+04  2.364559E+04  1.677506E+04  1.193910E+04
       199   4 -5.894080E+05  4.415836E+02 -7.066084E+03  2.198739E+04  5.457246E+03  8.511248E+03
       199   5 -5.881762E+05  4.588074E+02 -1.215928E+04  1.232008E+04  1.158991E+04  1.046176E+04
       199   6 -5.894164E+05 -5.907252E+03 -2.286126E+04  2.200083E+04  1.772416E+04  1.194063E+04
       199   7 -3.979326E+05  4.749330E+04  3.658089E+04  2.335908E+04  7.126184E+03  8.514823E+03
       199   8 -3.573528E+05  5.714912E+04  4.035819E+04  1.218343E+04  1.289895E+04  1.046428E+04
       199   9 -3.191798E+05  6.048557E+04  3.877834E+04  2.035530E+04  1.867367E+04  1.194217E+04
       199  10 -7.808495E+05 -4.661275E+04 -5.071560E+04  2.061608E+04  5.402588E-09  6.475447E-10
       199  11 -8.189503E+05 -5.623534E+04 -6.468060E+04  1.245655E+04  4.271148E-09  5.269401E-09
       199  12 -8.595855E+05 -7.230536E+04 -8.450642E+04  2.364543E+04  1.646034E-09 -7.004055E-10
       199  13 -5.894081E+05  4.414979E+02 -7.066277E+03  2.198735E+04 -1.709708E-09 -9.899362E-09
       199  14 -5.881764E+05  4.586538E+02 -1.215974E+04  1.231998E+04 -6.651885E-10  3.736644E-09
       199  15 -5.894168E+05 -5.907489E+03 -2.286212E+04  2.200066E+04  1.490300E-10  2.632793E-10
       199  16 -3.979327E+05  4.749321E+04  3.658066E+04  2.335903E+04 -5.747588E-09 -7.500394E-11
       199  17 -3.573530E+05  5.714896E+04  4.035767E+04  1.218332E+04 -2.751194E-09 -7.859840E-09
       199  18 -3.191803E+05  6.048533E+04  3.877742E+04  2.035512E+04 -2.021018E-09 -1.681171E-09
       199  19 -7.808495E+05 -4.661267E+04 -5.071544E+04  2.061610E+04 -3.788818E+03 -8.507681E+03
       199  20 -8.189501E+05 -5.623519E+04 -6.468020E+04  1.245664E+04 -1.028135E+04 -1.045923E+04
       199  21 -8.595852E+05 -7.230513E+04 -8.450562E+04  2.364559E+04 -1.677506E+04 -1.193910E+04
       199  22 -5.894080E+05  4.415836E+02 -7.066084E+03  2.198739E+04 -5.457246E+03 -8.511248E+03
       199  23 -5.881762E+05  4.588074E+02 -1.215928E+04  1.232008E+04 -1.158991E+04 -1.046176E+04
       199  24 -5.894164E+05 -5.907252E+03 -2.286126E+04  2.200083E+04 -1.772416E+04 -1.194063E+04
       199  25 -3.979326E+05  4.749330E+04  3.658089E+04  2.335908E+04 -7.126184E+03 -8.514823E+03
       199  26 -3.573528E+05  5.714912E+04  4.035819E+04  1.218343E+04 -1.289895E+04 -1.046428E+04
       199  27 -3.191798E+05  6.048557E+04  3.877834E+04  2.035530E+04 -1.867367E+04 -1.194217E+04
       200   1 -9.007271E+05 -7.046142E+04 -9.799512E+04  8.603746E+03  1.790268E+04  1.420489E+04
       200   2 -9.262345E+05 -8.017539E+04 -1.265657E+05  2.411757E+04  5.085727E+04  1.448205E+04
       200   3 -9.791285E+05 -1.820994E+05 -1.996713E+05  5.853201E+04  8.382604E+04  4.834921E+03
       200   4 -5.946564E+05  4.768618E+03 -2.848307E+04  2.184705E+04  2.187997E+04  1.421271E+04
       200   5 -5.816465E+05  4.551580E+03 -4.754773E+04  1.247790E+04  4.723224E+04  1.447379E+04
       200   6 -5.946893E+05 -8.652894E+04 -1.058482E+05  2.201133E+04  7.260130E+04  4.810394E+03
       200   7 -2.884981E+05  7.999283E+04  4.102305E+04  3.509690E+04  2.585921E+04  1.422068E+04
       200   8 -2.369480E+05  8.927080E+04  3.146257E+04  8.316550E+02  4.360520E+04  1.446566E+04
       200   9 -2.101119E+05  9.035760E+03 -1.203472E+04 -1.453211E+04  6.136960E+04  4.787198E+03
       200  10 -9.007275E+05 -7.046172E+04 -9.799611E+04  8.603541E+03 -2.472036E-12 -1.622722E-09
       200  11 -9.262373E+05 -8.017631E+04 -1.265710E+05  2.411697E+04  1.945013E-09 -8.298000E-10
       200  12 -9.791361E+05 -1.821013E+05 -1.996846E+05  5.853168E+04  5.686955E-09  4.950877E-09
       200  13 -5.946569E+05  4.768272E+03 -2.848435E+04  2.184679E+04 -9.411454E-12  5.103686E-10
       200  14 -5.816489E+05  4.550755E+03 -4.755232E+04  1.247735E+04 -3.189015E-09  4.022036E-09
       200  15 -5.946950E+05 -8.653038E+04 -1.058582E+05  2.201105E+04  5.692100E-10  2.445462E-09
       200  16 -2.884989E+05  7.999243E+04  4.102142E+04  3.509660E+04  1.186765E-09  3.924375E-09
       200  17 -2.369501E+05  8.927007E+04  3.145860E+04  8.311470E+02 -2.571471E-09  5.795604E-09
       200  18 -2.101160E+05  9.034724E+03 -1.204185E+04 -1.453235E+04 -6.230154E-09 -7.428444E-10
       200  19 -9.007271E+05 -7.046142E+04 -9.799512E+04  8.603746E+03 -1.790268E+04 -1.420489E+04
       200  20 -9.262345E+05 -8.017539E+04 -1.265657E+05  2.411757E+04 -5.085727E+04 -1.448205E+04
       200  21 -9.791285E+05 -1.820994E+05 -1.996713E+05  5.853201E+04 -8.382604E+04 -4.834921E+03
       200  22 -5.946564E+05  4.768618E+03 -2.848307E+04  2.184705E+04 -2.187997E+04 -1.421271E+04
       200  23 -5.816465E+05  4.551580E+03 -4.754773E+04  1.247790E+04 -4.723224E+04 -1.447379E+04
       200  24 -5.946893E+05 -8.652894E+04 -1.058482E+05  2.201133E+04 -7.260130E+04 -4.810394E+03
       200  25 -2.884981E+05  7.999283E+04  4.102305E+04  3.509690E+04 -2.585921E+04 -1.422068E+04
       200  26 -2.369480E+05  8.927080E+04  3.146257E+04  8.316550E+02 -4.360520E+04 -1.446566E+04
       200  27 -2.101119E+05  9.035760E+03 -1.203472E+04 -1.453211E+04 -6.136960E+04 -4.787198E+03
