    1C
    1UUSER                                                              
    1UDATE              11.october.2022                                 
    1UTIME              18:06:46                                        
    1UHOST                                                              
    1UPGM               CalculiX                                        
    1UVERSION           Version 2.20                             
    1UCOMPILETIME       Sun Jul 31 18:08:37 CEST 2022                    
    1UDIR                                                               
    1UDBN                                                               
    1UMAT    1MESH_MATERIAL                                             
    2C                           394                                     1
 -1         1 0.00000E+00 0.00000E+00 0.00000E+00
 -1         2 1.66667E-02 0.00000E+00 0.00000E+00
 -1         3 3.33333E-02 0.00000E+00 0.00000E+00
 -1         5 6.66667E-02 0.00000E+00 0.00000E+00
 -1         8 0.00000E+00 6.25000E-03 0.00000E+00
 -1         9 1.66667E-02 6.25000E-03 0.00000E+00
 -1        10 3.33333E-02 6.25000E-03 0.00000E+00
 -1        12 6.66667E-02 6.25000E-03 0.00000E+00
 -1        15 0.00000E+00 1.25000E-02 0.00000E+00
 -1        16 1.66667E-02 1.25000E-02 0.00000E+00
 -1        17 3.33333E-02 1.25000E-02 0.00000E+00
 -1        18 5.00000E-02 1.25000E-02 0.00000E+00
 -1        19 6.66667E-02 1.25000E-02 0.00000E+00
 -1        20 8.33333E-02 1.25000E-02 0.00000E+00
 -1        21 1.00000E-01 1.25000E-02 0.00000E+00
 -1        24 3.33333E-02 1.87500E-02 0.00000E+00
 -1        25 5.00000E-02 1.87500E-02 0.00000E+00
 -1        26 6.66667E-02 1.87500E-02 0.00000E+00
 -1        27 8.33333E-02 1.87500E-02 0.00000E+00
 -1        28 1.00000E-01 1.87500E-02 0.00000E+00
 -1        32 5.00000E-02 2.50000E-02 0.00000E+00
 -1        33 6.66667E-02 2.50000E-02 0.00000E+00
 -1        34 8.33333E-02 2.50000E-02 0.00000E+00
 -1        35 1.00000E-01 2.50000E-02 0.00000E+00
 -1        51 0.00000E+00 1.04167E-03 0.00000E+00
 -1        52 0.00000E+00 2.08333E-03 0.00000E+00
 -1        53 0.00000E+00 3.12500E-03 0.00000E+00
 -1        54 0.00000E+00 4.16667E-03 0.00000E+00
 -1        55 0.00000E+00 5.20833E-03 0.00000E+00
 -1        56 1.04167E-03 3.90630E-04 0.00000E+00
 -1        57 2.08333E-03 7.81250E-04 0.00000E+00
 -1        58 3.12500E-03 1.17188E-03 0.00000E+00
 -1        59 4.16667E-03 1.56250E-03 0.00000E+00
 -1        60 5.20833E-03 1.95312E-03 0.00000E+00
 -1        61 6.25000E-03 2.34375E-03 0.00000E+00
 -1        62 7.29167E-03 2.73438E-03 0.00000E+00
 -1        63 8.33333E-03 3.12500E-03 0.00000E+00
 -1        64 9.37500E-03 3.51563E-03 0.00000E+00
 -1        65 1.04167E-02 3.90625E-03 0.00000E+00
 -1        66 1.14583E-02 4.29688E-03 0.00000E+00
 -1        67 1.25000E-02 4.68750E-03 0.00000E+00
 -1        68 1.35417E-02 5.07813E-03 0.00000E+00
 -1        69 1.45833E-02 5.46875E-03 0.00000E+00
 -1        70 1.56250E-02 5.85938E-03 0.00000E+00
 -1        86 1.66667E-02 1.04167E-03 0.00000E+00
 -1        87 1.66667E-02 2.08333E-03 0.00000E+00
 -1        88 1.66667E-02 3.12500E-03 0.00000E+00
 -1        89 1.66667E-02 4.16667E-03 0.00000E+00
 -1        90 1.66667E-02 5.20833E-03 0.00000E+00
 -1       121 3.33333E-02 1.04167E-03 0.00000E+00
 -1       122 3.33333E-02 2.08333E-03 0.00000E+00
 -1       123 3.33333E-02 3.12500E-03 0.00000E+00
 -1       124 3.33333E-02 4.16667E-03 0.00000E+00
 -1       125 3.33333E-02 5.20833E-03 0.00000E+00
 -1       191 6.66667E-02 1.04167E-03 0.00000E+00
 -1       192 6.66667E-02 2.08333E-03 0.00000E+00
 -1       193 6.66667E-02 3.12500E-03 0.00000E+00
 -1       194 6.66667E-02 4.16667E-03 0.00000E+00
 -1       195 6.66667E-02 5.20833E-03 0.00000E+00
 -1       266 0.00000E+00 7.29167E-03 0.00000E+00
 -1       267 0.00000E+00 8.33333E-03 0.00000E+00
 -1       268 0.00000E+00 9.37500E-03 0.00000E+00
 -1       269 0.00000E+00 1.04167E-02 0.00000E+00
 -1       270 0.00000E+00 1.14583E-02 0.00000E+00
 -1       271 1.04167E-03 6.64063E-03 0.00000E+00
 -1       272 2.08333E-03 7.03125E-03 0.00000E+00
 -1       273 3.12500E-03 7.42188E-03 0.00000E+00
 -1       274 4.16667E-03 7.81250E-03 0.00000E+00
 -1       275 5.20833E-03 8.20313E-03 0.00000E+00
 -1       276 6.25000E-03 8.59375E-03 0.00000E+00
 -1       277 7.29167E-03 8.98438E-03 0.00000E+00
 -1       278 8.33333E-03 9.37500E-03 0.00000E+00
 -1       279 9.37500E-03 9.76562E-03 0.00000E+00
 -1       280 1.04167E-02 1.01562E-02 0.00000E+00
 -1       281 1.14583E-02 1.05469E-02 0.00000E+00
 -1       282 1.25000E-02 1.09375E-02 0.00000E+00
 -1       283 1.35417E-02 1.13281E-02 0.00000E+00
 -1       284 1.45833E-02 1.17188E-02 0.00000E+00
 -1       285 1.56250E-02 1.21094E-02 0.00000E+00
 -1       301 1.66667E-02 7.29167E-03 0.00000E+00
 -1       302 1.66667E-02 8.33333E-03 0.00000E+00
 -1       303 1.66667E-02 9.37500E-03 0.00000E+00
 -1       304 1.66667E-02 1.04167E-02 0.00000E+00
 -1       305 1.66667E-02 1.14583E-02 0.00000E+00
 -1       306 1.77083E-02 6.64063E-03 0.00000E+00
 -1       307 1.87500E-02 7.03125E-03 0.00000E+00
 -1       308 1.97917E-02 7.42188E-03 0.00000E+00
 -1       309 2.08333E-02 7.81250E-03 0.00000E+00
 -1       310 2.18750E-02 8.20313E-03 0.00000E+00
 -1       311 2.29167E-02 8.59375E-03 0.00000E+00
 -1       312 2.39583E-02 8.98438E-03 0.00000E+00
 -1       313 2.50000E-02 9.37500E-03 0.00000E+00
 -1       314 2.60417E-02 9.76562E-03 0.00000E+00
 -1       315 2.70833E-02 1.01562E-02 0.00000E+00
 -1       316 2.81250E-02 1.05469E-02 0.00000E+00
 -1       317 2.91667E-02 1.09375E-02 0.00000E+00
 -1       318 3.02083E-02 1.13281E-02 0.00000E+00
 -1       319 3.12500E-02 1.17188E-02 0.00000E+00
 -1       320 3.22917E-02 1.21094E-02 0.00000E+00
 -1       336 3.33333E-02 7.29167E-03 0.00000E+00
 -1       337 3.33333E-02 8.33333E-03 0.00000E+00
 -1       338 3.33333E-02 9.37500E-03 0.00000E+00
 -1       339 3.33333E-02 1.04167E-02 0.00000E+00
 -1       340 3.33333E-02 1.14583E-02 0.00000E+00
 -1       406 6.66667E-02 7.29167E-03 0.00000E+00
 -1       407 6.66667E-02 8.33333E-03 0.00000E+00
 -1       408 6.66667E-02 9.37500E-03 0.00000E+00
 -1       409 6.66667E-02 1.04167E-02 0.00000E+00
 -1       410 6.66667E-02 1.14583E-02 0.00000E+00
 -1       521 1.77083E-02 1.28906E-02 0.00000E+00
 -1       522 1.87500E-02 1.32813E-02 0.00000E+00
 -1       523 1.97917E-02 1.36719E-02 0.00000E+00
 -1       524 2.08333E-02 1.40625E-02 0.00000E+00
 -1       525 2.18750E-02 1.44531E-02 0.00000E+00
 -1       526 2.29167E-02 1.48437E-02 0.00000E+00
 -1       527 2.39583E-02 1.52344E-02 0.00000E+00
 -1       528 2.50000E-02 1.56250E-02 0.00000E+00
 -1       529 2.60417E-02 1.60156E-02 0.00000E+00
 -1       530 2.70833E-02 1.64062E-02 0.00000E+00
 -1       531 2.81250E-02 1.67969E-02 0.00000E+00
 -1       532 2.91667E-02 1.71875E-02 0.00000E+00
 -1       533 3.02083E-02 1.75781E-02 0.00000E+00
 -1       534 3.12500E-02 1.79687E-02 0.00000E+00
 -1       535 3.22917E-02 1.83594E-02 0.00000E+00
 -1       536 3.43750E-02 1.25000E-02 0.00000E+00
 -1       537 3.54167E-02 1.25000E-02 0.00000E+00
 -1       538 3.64583E-02 1.25000E-02 0.00000E+00
 -1       539 3.75000E-02 1.25000E-02 0.00000E+00
 -1       540 3.85417E-02 1.25000E-02 0.00000E+00
 -1       541 3.95833E-02 1.25000E-02 0.00000E+00
 -1       542 4.06250E-02 1.25000E-02 0.00000E+00
 -1       543 4.16667E-02 1.25000E-02 0.00000E+00
 -1       544 4.27083E-02 1.25000E-02 0.00000E+00
 -1       545 4.37500E-02 1.25000E-02 0.00000E+00
 -1       546 4.47917E-02 1.25000E-02 0.00000E+00
 -1       547 4.58333E-02 1.25000E-02 0.00000E+00
 -1       548 4.68750E-02 1.25000E-02 0.00000E+00
 -1       549 4.79167E-02 1.25000E-02 0.00000E+00
 -1       550 4.89583E-02 1.25000E-02 0.00000E+00
 -1       551 3.33333E-02 1.35417E-02 0.00000E+00
 -1       552 3.33333E-02 1.45833E-02 0.00000E+00
 -1       553 3.33333E-02 1.56250E-02 0.00000E+00
 -1       554 3.33333E-02 1.66667E-02 0.00000E+00
 -1       555 3.33333E-02 1.77083E-02 0.00000E+00
 -1       556 3.43750E-02 1.28906E-02 0.00000E+00
 -1       557 3.54167E-02 1.32813E-02 0.00000E+00
 -1       558 3.64583E-02 1.36719E-02 0.00000E+00
 -1       559 3.75000E-02 1.40625E-02 0.00000E+00
 -1       560 3.85417E-02 1.44531E-02 0.00000E+00
 -1       561 3.95833E-02 1.48437E-02 0.00000E+00
 -1       562 4.06250E-02 1.52344E-02 0.00000E+00
 -1       563 4.16667E-02 1.56250E-02 0.00000E+00
 -1       564 4.27083E-02 1.60156E-02 0.00000E+00
 -1       565 4.37500E-02 1.64062E-02 0.00000E+00
 -1       566 4.47917E-02 1.67969E-02 0.00000E+00
 -1       567 4.58333E-02 1.71875E-02 0.00000E+00
 -1       568 4.68750E-02 1.75781E-02 0.00000E+00
 -1       569 4.79167E-02 1.79687E-02 0.00000E+00
 -1       570 4.89583E-02 1.83594E-02 0.00000E+00
 -1       571 5.10417E-02 1.25000E-02 0.00000E+00
 -1       572 5.20833E-02 1.25000E-02 0.00000E+00
 -1       573 5.31250E-02 1.25000E-02 0.00000E+00
 -1       574 5.41667E-02 1.25000E-02 0.00000E+00
 -1       575 5.52083E-02 1.25000E-02 0.00000E+00
 -1       576 5.62500E-02 1.25000E-02 0.00000E+00
 -1       577 5.72917E-02 1.25000E-02 0.00000E+00
 -1       578 5.83333E-02 1.25000E-02 0.00000E+00
 -1       579 5.93750E-02 1.25000E-02 0.00000E+00
 -1       580 6.04167E-02 1.25000E-02 0.00000E+00
 -1       581 6.14583E-02 1.25000E-02 0.00000E+00
 -1       582 6.25000E-02 1.25000E-02 0.00000E+00
 -1       583 6.35417E-02 1.25000E-02 0.00000E+00
 -1       584 6.45833E-02 1.25000E-02 0.00000E+00
 -1       585 6.56250E-02 1.25000E-02 0.00000E+00
 -1       586 5.00000E-02 1.35417E-02 0.00000E+00
 -1       587 5.00000E-02 1.45833E-02 0.00000E+00
 -1       588 5.00000E-02 1.56250E-02 0.00000E+00
 -1       589 5.00000E-02 1.66667E-02 0.00000E+00
 -1       590 5.00000E-02 1.77083E-02 0.00000E+00
 -1       591 5.10417E-02 1.28906E-02 0.00000E+00
 -1       592 5.20833E-02 1.32813E-02 0.00000E+00
 -1       593 5.31250E-02 1.36719E-02 0.00000E+00
 -1       594 5.41667E-02 1.40625E-02 0.00000E+00
 -1       595 5.52083E-02 1.44531E-02 0.00000E+00
 -1       596 5.62500E-02 1.48437E-02 0.00000E+00
 -1       597 5.72917E-02 1.52344E-02 0.00000E+00
 -1       598 5.83333E-02 1.56250E-02 0.00000E+00
 -1       599 5.93750E-02 1.60156E-02 0.00000E+00
 -1       600 6.04167E-02 1.64062E-02 0.00000E+00
 -1       601 6.14583E-02 1.67969E-02 0.00000E+00
 -1       602 6.25000E-02 1.71875E-02 0.00000E+00
 -1       603 6.35417E-02 1.75781E-02 0.00000E+00
 -1       604 6.45833E-02 1.79687E-02 0.00000E+00
 -1       605 6.56250E-02 1.83594E-02 0.00000E+00
 -1       606 6.77083E-02 1.25000E-02 0.00000E+00
 -1       607 6.87500E-02 1.25000E-02 0.00000E+00
 -1       608 6.97917E-02 1.25000E-02 0.00000E+00
 -1       609 7.08333E-02 1.25000E-02 0.00000E+00
 -1       610 7.18750E-02 1.25000E-02 0.00000E+00
 -1       611 7.29167E-02 1.25000E-02 0.00000E+00
 -1       612 7.39583E-02 1.25000E-02 0.00000E+00
 -1       613 7.50000E-02 1.25000E-02 0.00000E+00
 -1       614 7.60417E-02 1.25000E-02 0.00000E+00
 -1       615 7.70833E-02 1.25000E-02 0.00000E+00
 -1       616 7.81250E-02 1.25000E-02 0.00000E+00
 -1       617 7.91667E-02 1.25000E-02 0.00000E+00
 -1       618 8.02083E-02 1.25000E-02 0.00000E+00
 -1       619 8.12500E-02 1.25000E-02 0.00000E+00
 -1       620 8.22917E-02 1.25000E-02 0.00000E+00
 -1       621 6.66667E-02 1.35417E-02 0.00000E+00
 -1       622 6.66667E-02 1.45833E-02 0.00000E+00
 -1       623 6.66667E-02 1.56250E-02 0.00000E+00
 -1       624 6.66667E-02 1.66667E-02 0.00000E+00
 -1       625 6.66667E-02 1.77083E-02 0.00000E+00
 -1       626 6.77083E-02 1.28906E-02 0.00000E+00
 -1       627 6.87500E-02 1.32813E-02 0.00000E+00
 -1       628 6.97917E-02 1.36719E-02 0.00000E+00
 -1       629 7.08333E-02 1.40625E-02 0.00000E+00
 -1       630 7.18750E-02 1.44531E-02 0.00000E+00
 -1       631 7.29167E-02 1.48437E-02 0.00000E+00
 -1       632 7.39583E-02 1.52344E-02 0.00000E+00
 -1       633 7.50000E-02 1.56250E-02 0.00000E+00
 -1       634 7.60417E-02 1.60156E-02 0.00000E+00
 -1       635 7.70833E-02 1.64062E-02 0.00000E+00
 -1       636 7.81250E-02 1.67969E-02 0.00000E+00
 -1       637 7.91667E-02 1.71875E-02 0.00000E+00
 -1       638 8.02083E-02 1.75781E-02 0.00000E+00
 -1       639 8.12500E-02 1.79687E-02 0.00000E+00
 -1       640 8.22917E-02 1.83594E-02 0.00000E+00
 -1       656 8.33333E-02 1.35417E-02 0.00000E+00
 -1       657 8.33333E-02 1.45833E-02 0.00000E+00
 -1       658 8.33333E-02 1.56250E-02 0.00000E+00
 -1       659 8.33333E-02 1.66667E-02 0.00000E+00
 -1       660 8.33333E-02 1.77083E-02 0.00000E+00
 -1       661 8.43750E-02 1.28906E-02 0.00000E+00
 -1       662 8.54167E-02 1.32813E-02 0.00000E+00
 -1       663 8.64583E-02 1.36719E-02 0.00000E+00
 -1       664 8.75000E-02 1.40625E-02 0.00000E+00
 -1       665 8.85417E-02 1.44531E-02 0.00000E+00
 -1       666 8.95833E-02 1.48437E-02 0.00000E+00
 -1       667 9.06250E-02 1.52344E-02 0.00000E+00
 -1       668 9.16667E-02 1.56250E-02 0.00000E+00
 -1       669 9.27083E-02 1.60156E-02 0.00000E+00
 -1       670 9.37500E-02 1.64062E-02 0.00000E+00
 -1       671 9.47917E-02 1.67969E-02 0.00000E+00
 -1       672 9.58333E-02 1.71875E-02 0.00000E+00
 -1       673 9.68750E-02 1.75781E-02 0.00000E+00
 -1       674 9.79167E-02 1.79687E-02 0.00000E+00
 -1       675 9.89583E-02 1.83594E-02 0.00000E+00
 -1       676 1.00000E-01 1.35417E-02 0.00000E+00
 -1       677 1.00000E-01 1.45833E-02 0.00000E+00
 -1       678 1.00000E-01 1.56250E-02 0.00000E+00
 -1       679 1.00000E-01 1.66667E-02 0.00000E+00
 -1       680 1.00000E-01 1.77083E-02 0.00000E+00
 -1       771 3.43750E-02 1.91406E-02 0.00000E+00
 -1       772 3.54167E-02 1.95312E-02 0.00000E+00
 -1       773 3.64583E-02 1.99219E-02 0.00000E+00
 -1       774 3.75000E-02 2.03125E-02 0.00000E+00
 -1       775 3.85417E-02 2.07031E-02 0.00000E+00
 -1       776 3.95833E-02 2.10938E-02 0.00000E+00
 -1       777 4.06250E-02 2.14844E-02 0.00000E+00
 -1       778 4.16667E-02 2.18750E-02 0.00000E+00
 -1       779 4.27083E-02 2.22656E-02 0.00000E+00
 -1       780 4.37500E-02 2.26563E-02 0.00000E+00
 -1       781 4.47917E-02 2.30469E-02 0.00000E+00
 -1       782 4.58333E-02 2.34375E-02 0.00000E+00
 -1       783 4.68750E-02 2.38281E-02 0.00000E+00
 -1       784 4.79167E-02 2.42187E-02 0.00000E+00
 -1       785 4.89583E-02 2.46094E-02 0.00000E+00
 -1       786 5.10417E-02 1.87500E-02 0.00000E+00
 -1       787 5.20833E-02 1.87500E-02 0.00000E+00
 -1       788 5.31250E-02 1.87500E-02 0.00000E+00
 -1       789 5.41667E-02 1.87500E-02 0.00000E+00
 -1       790 5.52083E-02 1.87500E-02 0.00000E+00
 -1       791 5.62500E-02 1.87500E-02 0.00000E+00
 -1       792 5.72917E-02 1.87500E-02 0.00000E+00
 -1       793 5.83333E-02 1.87500E-02 0.00000E+00
 -1       794 5.93750E-02 1.87500E-02 0.00000E+00
 -1       795 6.04167E-02 1.87500E-02 0.00000E+00
 -1       796 6.14583E-02 1.87500E-02 0.00000E+00
 -1       797 6.25000E-02 1.87500E-02 0.00000E+00
 -1       798 6.35417E-02 1.87500E-02 0.00000E+00
 -1       799 6.45833E-02 1.87500E-02 0.00000E+00
 -1       800 6.56250E-02 1.87500E-02 0.00000E+00
 -1       801 5.00000E-02 1.97917E-02 0.00000E+00
 -1       802 5.00000E-02 2.08333E-02 0.00000E+00
 -1       803 5.00000E-02 2.18750E-02 0.00000E+00
 -1       804 5.00000E-02 2.29167E-02 0.00000E+00
 -1       805 5.00000E-02 2.39583E-02 0.00000E+00
 -1       806 5.10417E-02 1.91406E-02 0.00000E+00
 -1       807 5.20833E-02 1.95312E-02 0.00000E+00
 -1       808 5.31250E-02 1.99219E-02 0.00000E+00
 -1       809 5.41667E-02 2.03125E-02 0.00000E+00
 -1       810 5.52083E-02 2.07031E-02 0.00000E+00
 -1       811 5.62500E-02 2.10938E-02 0.00000E+00
 -1       812 5.72917E-02 2.14844E-02 0.00000E+00
 -1       813 5.83333E-02 2.18750E-02 0.00000E+00
 -1       814 5.93750E-02 2.22656E-02 0.00000E+00
 -1       815 6.04167E-02 2.26563E-02 0.00000E+00
 -1       816 6.14583E-02 2.30469E-02 0.00000E+00
 -1       817 6.25000E-02 2.34375E-02 0.00000E+00
 -1       818 6.35417E-02 2.38281E-02 0.00000E+00
 -1       819 6.45833E-02 2.42187E-02 0.00000E+00
 -1       820 6.56250E-02 2.46094E-02 0.00000E+00
 -1       821 6.77083E-02 1.87500E-02 0.00000E+00
 -1       822 6.87500E-02 1.87500E-02 0.00000E+00
 -1       823 6.97917E-02 1.87500E-02 0.00000E+00
 -1       824 7.08333E-02 1.87500E-02 0.00000E+00
 -1       825 7.18750E-02 1.87500E-02 0.00000E+00
 -1       826 7.29167E-02 1.87500E-02 0.00000E+00
 -1       827 7.39583E-02 1.87500E-02 0.00000E+00
 -1       828 7.50000E-02 1.87500E-02 0.00000E+00
 -1       829 7.60417E-02 1.87500E-02 0.00000E+00
 -1       830 7.70833E-02 1.87500E-02 0.00000E+00
 -1       831 7.81250E-02 1.87500E-02 0.00000E+00
 -1       832 7.91667E-02 1.87500E-02 0.00000E+00
 -1       833 8.02083E-02 1.87500E-02 0.00000E+00
 -1       834 8.12500E-02 1.87500E-02 0.00000E+00
 -1       835 8.22917E-02 1.87500E-02 0.00000E+00
 -1       836 6.66667E-02 1.97917E-02 0.00000E+00
 -1       837 6.66667E-02 2.08333E-02 0.00000E+00
 -1       838 6.66667E-02 2.18750E-02 0.00000E+00
 -1       839 6.66667E-02 2.29167E-02 0.00000E+00
 -1       840 6.66667E-02 2.39583E-02 0.00000E+00
 -1       856 8.43750E-02 1.87500E-02 0.00000E+00
 -1       857 8.54167E-02 1.87500E-02 0.00000E+00
 -1       858 8.64583E-02 1.87500E-02 0.00000E+00
 -1       859 8.75000E-02 1.87500E-02 0.00000E+00
 -1       860 8.85417E-02 1.87500E-02 0.00000E+00
 -1       861 8.95833E-02 1.87500E-02 0.00000E+00
 -1       862 9.06250E-02 1.87500E-02 0.00000E+00
 -1       863 9.16667E-02 1.87500E-02 0.00000E+00
 -1       864 9.27083E-02 1.87500E-02 0.00000E+00
 -1       865 9.37500E-02 1.87500E-02 0.00000E+00
 -1       866 9.47917E-02 1.87500E-02 0.00000E+00
 -1       867 9.58333E-02 1.87500E-02 0.00000E+00
 -1       868 9.68750E-02 1.87500E-02 0.00000E+00
 -1       869 9.79167E-02 1.87500E-02 0.00000E+00
 -1       870 9.89583E-02 1.87500E-02 0.00000E+00
 -1       871 8.33333E-02 1.97917E-02 0.00000E+00
 -1       872 8.33333E-02 2.08333E-02 0.00000E+00
 -1       873 8.33333E-02 2.18750E-02 0.00000E+00
 -1       874 8.33333E-02 2.29167E-02 0.00000E+00
 -1       875 8.33333E-02 2.39583E-02 0.00000E+00
 -1       876 8.43750E-02 1.91406E-02 0.00000E+00
 -1       877 8.54167E-02 1.95312E-02 0.00000E+00
 -1       878 8.64583E-02 1.99219E-02 0.00000E+00
 -1       879 8.75000E-02 2.03125E-02 0.00000E+00
 -1       880 8.85417E-02 2.07031E-02 0.00000E+00
 -1       881 8.95833E-02 2.10938E-02 0.00000E+00
 -1       882 9.06250E-02 2.14844E-02 0.00000E+00
 -1       883 9.16667E-02 2.18750E-02 0.00000E+00
 -1       884 9.27083E-02 2.22656E-02 0.00000E+00
 -1       885 9.37500E-02 2.26563E-02 0.00000E+00
 -1       886 9.47917E-02 2.30469E-02 0.00000E+00
 -1       887 9.58333E-02 2.34375E-02 0.00000E+00
 -1       888 9.68750E-02 2.38281E-02 0.00000E+00
 -1       889 9.79167E-02 2.42187E-02 0.00000E+00
 -1       890 9.89583E-02 2.46094E-02 0.00000E+00
 -1       891 1.00000E-01 1.97917E-02 0.00000E+00
 -1       892 1.00000E-01 2.08333E-02 0.00000E+00
 -1       893 1.00000E-01 2.18750E-02 0.00000E+00
 -1       894 1.00000E-01 2.29167E-02 0.00000E+00
 -1       895 1.00000E-01 2.39583E-02 0.00000E+00
 -1       956 6.77083E-02 2.50000E-02 0.00000E+00
 -1       957 6.87500E-02 2.50000E-02 0.00000E+00
 -1       958 6.97917E-02 2.50000E-02 0.00000E+00
 -1       959 7.08333E-02 2.50000E-02 0.00000E+00
 -1       960 7.18750E-02 2.50000E-02 0.00000E+00
 -1       961 7.29167E-02 2.50000E-02 0.00000E+00
 -1       962 7.39583E-02 2.50000E-02 0.00000E+00
 -1       963 7.50000E-02 2.50000E-02 0.00000E+00
 -1       964 7.60417E-02 2.50000E-02 0.00000E+00
 -1       965 7.70833E-02 2.50000E-02 0.00000E+00
 -1       966 7.81250E-02 2.50000E-02 0.00000E+00
 -1       967 7.91667E-02 2.50000E-02 0.00000E+00
 -1       968 8.02083E-02 2.50000E-02 0.00000E+00
 -1       969 8.12500E-02 2.50000E-02 0.00000E+00
 -1       970 8.22917E-02 2.50000E-02 0.00000E+00
 -1       971 8.43750E-02 2.50000E-02 0.00000E+00
 -1       972 8.54167E-02 2.50000E-02 0.00000E+00
 -1       973 8.64583E-02 2.50000E-02 0.00000E+00
 -1       974 8.75000E-02 2.50000E-02 0.00000E+00
 -1       975 8.85417E-02 2.50000E-02 0.00000E+00
 -1       976 8.95833E-02 2.50000E-02 0.00000E+00
 -1       977 9.06250E-02 2.50000E-02 0.00000E+00
 -1       978 9.16667E-02 2.50000E-02 0.00000E+00
 -1       979 9.27083E-02 2.50000E-02 0.00000E+00
 -1       980 9.37500E-02 2.50000E-02 0.00000E+00
 -1       981 9.47917E-02 2.50000E-02 0.00000E+00
 -1       982 9.58333E-02 2.50000E-02 0.00000E+00
 -1       983 9.68750E-02 2.50000E-02 0.00000E+00
 -1       984 9.79167E-02 2.50000E-02 0.00000E+00
 -1       985 9.89583E-02 2.50000E-02 0.00000E+00
 -3
    3C                           203                                     1
 -1         1   12    0    1
 -2         1        52        51
 -1         2   12    0    1
 -2        52        54        53
 -1         3   12    0    1
 -2        54         8        55
 -1         4   12    0    1
 -2         1        57        56
 -1         5   12    0    1
 -2        57        59        58
 -1         6   12    0    1
 -2        59        61        60
 -1         7   12    0    1
 -2        61        63        62
 -1         8   12    0    1
 -2        63        65        64
 -1         9   12    0    1
 -2        65        67        66
 -1        10   12    0    1
 -2        67        69        68
 -1        11   12    0    1
 -2        69         9        70
 -1        12   12    0    1
 -2         2        87        86
 -1        13   12    0    1
 -2        87        89        88
 -1        14   12    0    1
 -2        89         9        90
 -1        15   12    0    1
 -2         3       122       121
 -1        16   12    0    1
 -2       122       124       123
 -1        17   12    0    1
 -2       124        10       125
 -1        18   12    0    1
 -2         5       192       191
 -1        19   12    0    1
 -2       192       194       193
 -1        20   12    0    1
 -2       194        12       195
 -1        21   12    0    1
 -2         8       267       266
 -1        22   12    0    1
 -2       267       269       268
 -1        23   12    0    1
 -2       269        15       270
 -1        24   12    0    1
 -2         8       272       271
 -1        25   12    0    1
 -2       272       274       273
 -1        26   12    0    1
 -2       274       276       275
 -1        27   12    0    1
 -2       276       278       277
 -1        28   12    0    1
 -2       278       280       279
 -1        29   12    0    1
 -2       280       282       281
 -1        30   12    0    1
 -2       282       284       283
 -1        31   12    0    1
 -2       284        16       285
 -1        32   12    0    1
 -2         9       302       301
 -1        33   12    0    1
 -2       302       304       303
 -1        34   12    0    1
 -2       304        16       305
 -1        35   12    0    1
 -2         9       307       306
 -1        36   12    0    1
 -2       307       309       308
 -1        37   12    0    1
 -2       309       311       310
 -1        38   12    0    1
 -2       311       313       312
 -1        39   12    0    1
 -2       313       315       314
 -1        40   12    0    1
 -2       315       317       316
 -1        41   12    0    1
 -2       317       319       318
 -1        42   12    0    1
 -2       319        17       320
 -1        43   12    0    1
 -2        10       337       336
 -1        44   12    0    1
 -2       337       339       338
 -1        45   12    0    1
 -2       339        17       340
 -1        46   12    0    1
 -2        12       407       406
 -1        47   12    0    1
 -2       407       409       408
 -1        48   12    0    1
 -2       409        19       410
 -1        49   12    0    1
 -2        16       522       521
 -1        50   12    0    1
 -2       522       524       523
 -1        51   12    0    1
 -2       524       526       525
 -1        52   12    0    1
 -2       526       528       527
 -1        53   12    0    1
 -2       528       530       529
 -1        54   12    0    1
 -2       530       532       531
 -1        55   12    0    1
 -2       532       534       533
 -1        56   12    0    1
 -2       534        24       535
 -1        57   12    0    1
 -2        17       537       536
 -1        58   12    0    1
 -2       537       539       538
 -1        59   12    0    1
 -2       539       541       540
 -1        60   12    0    1
 -2       541       543       542
 -1        61   12    0    1
 -2       543       545       544
 -1        62   12    0    1
 -2       545       547       546
 -1        63   12    0    1
 -2       547       549       548
 -1        64   12    0    1
 -2       549        18       550
 -1        65   12    0    1
 -2        17       552       551
 -1        66   12    0    1
 -2       552       554       553
 -1        67   12    0    1
 -2       554        24       555
 -1        68   12    0    1
 -2        17       557       556
 -1        69   12    0    1
 -2       557       559       558
 -1        70   12    0    1
 -2       559       561       560
 -1        71   12    0    1
 -2       561       563       562
 -1        72   12    0    1
 -2       563       565       564
 -1        73   12    0    1
 -2       565       567       566
 -1        74   12    0    1
 -2       567       569       568
 -1        75   12    0    1
 -2       569        25       570
 -1        76   12    0    1
 -2        18       572       571
 -1        77   12    0    1
 -2       572       574       573
 -1        78   12    0    1
 -2       574       576       575
 -1        79   12    0    1
 -2       576       578       577
 -1        80   12    0    1
 -2       578       580       579
 -1        81   12    0    1
 -2       580       582       581
 -1        82   12    0    1
 -2       582       584       583
 -1        83   12    0    1
 -2       584        19       585
 -1        84   12    0    1
 -2        18       587       586
 -1        85   12    0    1
 -2       587       589       588
 -1        86   12    0    1
 -2       589        25       590
 -1        87   12    0    1
 -2        18       592       591
 -1        88   12    0    1
 -2       592       594       593
 -1        89   12    0    1
 -2       594       596       595
 -1        90   12    0    1
 -2       596       598       597
 -1        91   12    0    1
 -2       598       600       599
 -1        92   12    0    1
 -2       600       602       601
 -1        93   12    0    1
 -2       602       604       603
 -1        94   12    0    1
 -2       604        26       605
 -1        95   12    0    1
 -2        19       607       606
 -1        96   12    0    1
 -2       607       609       608
 -1        97   12    0    1
 -2       609       611       610
 -1        98   12    0    1
 -2       611       613       612
 -1        99   12    0    1
 -2       613       615       614
 -1       100   12    0    1
 -2       615       617       616
 -1       101   12    0    1
 -2       617       619       618
 -1       102   12    0    1
 -2       619        20       620
 -1       103   12    0    1
 -2        19       622       621
 -1       104   12    0    1
 -2       622       624       623
 -1       105   12    0    1
 -2       624        26       625
 -1       106   12    0    1
 -2        19       627       626
 -1       107   12    0    1
 -2       627       629       628
 -1       108   12    0    1
 -2       629       631       630
 -1       109   12    0    1
 -2       631       633       632
 -1       110   12    0    1
 -2       633       635       634
 -1       111   12    0    1
 -2       635       637       636
 -1       112   12    0    1
 -2       637       639       638
 -1       113   12    0    1
 -2       639        27       640
 -1       114   12    0    1
 -2        20       657       656
 -1       115   12    0    1
 -2       657       659       658
 -1       116   12    0    1
 -2       659        27       660
 -1       117   12    0    1
 -2        20       662       661
 -1       118   12    0    1
 -2       662       664       663
 -1       119   12    0    1
 -2       664       666       665
 -1       120   12    0    1
 -2       666       668       667
 -1       121   12    0    1
 -2       668       670       669
 -1       122   12    0    1
 -2       670       672       671
 -1       123   12    0    1
 -2       672       674       673
 -1       124   12    0    1
 -2       674        28       675
 -1       125   12    0    1
 -2        21       677       676
 -1       126   12    0    1
 -2       677       679       678
 -1       127   12    0    1
 -2       679        28       680
 -1       128   12    0    1
 -2        24       772       771
 -1       129   12    0    1
 -2       772       774       773
 -1       130   12    0    1
 -2       774       776       775
 -1       131   12    0    1
 -2       776       778       777
 -1       132   12    0    1
 -2       778       780       779
 -1       133   12    0    1
 -2       780       782       781
 -1       134   12    0    1
 -2       782       784       783
 -1       135   12    0    1
 -2       784        32       785
 -1       136   12    0    1
 -2        25       787       786
 -1       137   12    0    1
 -2       787       789       788
 -1       138   12    0    1
 -2       789       791       790
 -1       139   12    0    1
 -2       791       793       792
 -1       140   12    0    1
 -2       793       795       794
 -1       141   12    0    1
 -2       795       797       796
 -1       142   12    0    1
 -2       797       799       798
 -1       143   12    0    1
 -2       799        26       800
 -1       144   12    0    1
 -2        25       802       801
 -1       145   12    0    1
 -2       802       804       803
 -1       146   12    0    1
 -2       804        32       805
 -1       147   12    0    1
 -2        25       807       806
 -1       148   12    0    1
 -2       807       809       808
 -1       149   12    0    1
 -2       809       811       810
 -1       150   12    0    1
 -2       811       813       812
 -1       151   12    0    1
 -2       813       815       814
 -1       152   12    0    1
 -2       815       817       816
 -1       153   12    0    1
 -2       817       819       818
 -1       154   12    0    1
 -2       819        33       820
 -1       155   12    0    1
 -2        26       822       821
 -1       156   12    0    1
 -2       822       824       823
 -1       157   12    0    1
 -2       824       826       825
 -1       158   12    0    1
 -2       826       828       827
 -1       159   12    0    1
 -2       828       830       829
 -1       160   12    0    1
 -2       830       832       831
 -1       161   12    0    1
 -2       832       834       833
 -1       162   12    0    1
 -2       834        27       835
 -1       163   12    0    1
 -2        26       837       836
 -1       164   12    0    1
 -2       837       839       838
 -1       165   12    0    1
 -2       839        33       840
 -1       166   12    0    1
 -2        27       857       856
 -1       167   12    0    1
 -2       857       859       858
 -1       168   12    0    1
 -2       859       861       860
 -1       169   12    0    1
 -2       861       863       862
 -1       170   12    0    1
 -2       863       865       864
 -1       171   12    0    1
 -2       865       867       866
 -1       172   12    0    1
 -2       867       869       868
 -1       173   12    0    1
 -2       869        28       870
 -1       174   12    0    1
 -2        27       872       871
 -1       175   12    0    1
 -2       872       874       873
 -1       176   12    0    1
 -2       874        34       875
 -1       177   12    0    1
 -2        27       877       876
 -1       178   12    0    1
 -2       877       879       878
 -1       179   12    0    1
 -2       879       881       880
 -1       180   12    0    1
 -2       881       883       882
 -1       181   12    0    1
 -2       883       885       884
 -1       182   12    0    1
 -2       885       887       886
 -1       183   12    0    1
 -2       887       889       888
 -1       184   12    0    1
 -2       889        35       890
 -1       185   12    0    1
 -2        28       892       891
 -1       186   12    0    1
 -2       892       894       893
 -1       187   12    0    1
 -2       894        35       895
 -1       188   12    0    1
 -2        33       957       956
 -1       189   12    0    1
 -2       957       959       958
 -1       190   12    0    1
 -2       959       961       960
 -1       191   12    0    1
 -2       961       963       962
 -1       192   12    0    1
 -2       963       965       964
 -1       193   12    0    1
 -2       965       967       966
 -1       194   12    0    1
 -2       967       969       968
 -1       195   12    0    1
 -2       969        34       970
 -1       196   12    0    1
 -2        34       972       971
 -1       197   12    0    1
 -2       972       974       973
 -1       198   12    0    1
 -2       974       976       975
 -1       199   12    0    1
 -2       976       978       977
 -1       200   12    0    1
 -2       978       980       979
 -1       201   12    0    1
 -2       980       982       981
 -1       202   12    0    1
 -2       982       984       983
 -1       203   12    0    1
 -2       984        35       985
 -3
    1PSTEP                         1           1           1          
  100CL  101 1.000000000         394                     0    1           1
 -4  DISP        4    1
 -5  D1          1    2    1    0
 -5  D2          1    2    2    0
 -5  D3          1    2    3    0
 -5  ALL         1    2    0    0    1ALL
 -1         1 1.79420E-04 0.00000E+00 0.00000E+00
 -1         2 9.77184E-05 5.71335E-31-3.30872E-24
 -1         3 1.00999E-04-9.98096E-27 1.32349E-23
 -1         5 7.66640E-05 4.29275E-25-6.61744E-24
 -1         8 1.44151E-04-1.65907E-06 0.00000E+00
 -1         9 9.27100E-05-4.18043E-07 0.00000E+00
 -1        10 9.27464E-05-2.79311E-06 0.00000E+00
 -1        12 7.53851E-05 1.19629E-06 3.30872E-24
 -1        15 1.05304E-04-1.82671E-06-8.27181E-25
 -1        16 8.45807E-05-5.87769E-07 0.00000E+00
 -1        17 6.92588E-05-5.61138E-06 0.00000E+00
 -1        18 6.94756E-05-7.44306E-07 0.00000E+00
 -1        19 7.15464E-05 2.38408E-06 0.00000E+00
 -1        20 7.22472E-05 2.84964E-05 0.00000E+00
 -1        21 7.11865E-05 6.25086E-05 6.61744E-24
 -1        24 2.71661E-05-6.92134E-06 0.00000E+00
 -1        25 6.49017E-05-3.99007E-07 0.00000E+00
 -1        26 6.65711E-05 3.21334E-06 0.00000E+00
 -1        27 6.43796E-05 2.72019E-05 0.00000E+00
 -1        28 6.25639E-05 6.15030E-05 0.00000E+00
 -1        32 0.00000E+00 0.00000E+00 0.00000E+00
 -1        33 6.08306E-05 4.37882E-06 0.00000E+00
 -1        34 5.83769E-05 2.70916E-05 0.00000E+00
 -1        35 5.51336E-05 6.10324E-05 0.00000E+00
 -1        51 1.76846E-04-2.71359E-07 0.00000E+00
 -1        52 1.72478E-04-5.36803E-07 0.00000E+00
 -1        53 1.66663E-04-8.04554E-07 0.00000E+00
 -1        54 1.59761E-04-1.07781E-06-6.61744E-24
 -1        55 1.52135E-04-1.35881E-06 0.00000E+00
 -1        56 1.75233E-04-2.77568E-06 0.00000E+00
 -1        57 1.71521E-04-7.36870E-06 0.00000E+00
 -1        58 1.67495E-04-1.10865E-05 0.00000E+00
 -1        59 1.62184E-04-1.14705E-05 0.00000E+00
 -1        60 1.55776E-04-8.95553E-06-1.05879E-22
 -1        61 1.48618E-04-4.48642E-06 0.00000E+00
 -1        62 1.41722E-04-7.08189E-07-1.05879E-22
 -1        63 1.36047E-04-1.51516E-07-5.29396E-23
 -1        64 1.31480E-04-2.54005E-06 0.00000E+00
 -1        65 1.27721E-04-7.09123E-06 5.29396E-23
 -1        66 1.23773E-04-1.11347E-05 0.00000E+00
 -1        67 1.18675E-04-1.20867E-05 0.00000E+00
 -1        68 1.12453E-04-1.00618E-05 1.05879E-22
 -1        69 1.05368E-04-5.67085E-06 0.00000E+00
 -1        70 9.83933E-05-1.60767E-06-1.05879E-22
 -1        86 9.75499E-05-6.41635E-08 3.30872E-24
 -1        87 9.70447E-05-1.29012E-07 0.00000E+00
 -1        88 9.62486E-05-1.94111E-07 0.00000E+00
 -1        89 9.52078E-05-2.63043E-07-3.30872E-24
 -1        90 9.40018E-05-3.30915E-07 6.61744E-24
 -1       121 1.00767E-04-4.64374E-07 0.00000E+00
 -1       122 1.00072E-04-9.28947E-07 0.00000E+00
 -1       123 9.89158E-05-1.39393E-06-1.32349E-23
 -1       124 9.73047E-05-1.85950E-06 0.00000E+00
 -1       125 9.52453E-05-2.32585E-06-1.32349E-23
 -1       191 7.66285E-05 1.99418E-07-6.61744E-24
 -1       192 7.65219E-05 3.98828E-07 3.30872E-24
 -1       193 7.63443E-05 5.98229E-07 0.00000E+00
 -1       194 7.60957E-05 7.97612E-07-3.30872E-24
 -1       195 7.57759E-05 9.96968E-07 0.00000E+00
 -1       266 1.37677E-04-1.71043E-06 0.00000E+00
 -1       267 1.31202E-04-1.73550E-06 3.30872E-24
 -1       268 1.24727E-04-1.76227E-06-3.30872E-24
 -1       269 1.18253E-04-1.78408E-06 8.27181E-25
 -1       270 1.11778E-04-1.80579E-06 0.00000E+00
 -1       271 1.38723E-04 3.23744E-06-5.29396E-23
 -1       272 1.33506E-04 7.25196E-06 0.00000E+00
 -1       273 1.28638E-04 1.03590E-05 1.05879E-22
 -1       274 1.24110E-04 1.25192E-05 0.00000E+00
 -1       275 1.19933E-04 1.37476E-05 0.00000E+00
 -1       276 1.16086E-04 1.40907E-05 0.00000E+00
 -1       277 1.12540E-04 1.36346E-05-1.05879E-22
 -1       278 1.09249E-04 1.24972E-05-5.29396E-23
 -1       279 1.06157E-04 1.08263E-05-1.05879E-22
 -1       280 1.03203E-04 8.79114E-06-5.29396E-23
 -1       281 1.00316E-04 6.57681E-06-1.05879E-22
 -1       282 9.74267E-05 4.37611E-06 5.29396E-23
 -1       283 9.44620E-05 2.38042E-06 0.00000E+00
 -1       284 9.13662E-05 7.77962E-07 5.29396E-23
 -1       285 8.80590E-05-2.71052E-07 0.00000E+00
 -1       301 9.13451E-05-4.54530E-07 6.61744E-24
 -1       302 8.99703E-05-4.68737E-07-3.30872E-24
 -1       303 8.85959E-05-4.80683E-07 0.00000E+00
 -1       304 8.72325E-05-4.95390E-07-3.30872E-24
 -1       305 8.58907E-05-5.17692E-07-1.32349E-23
 -1       306 9.10170E-05-3.01283E-08 0.00000E+00
 -1       307 8.95779E-05-4.28397E-07-1.32349E-23
 -1       308 8.83815E-05-1.47016E-06 0.00000E+00
 -1       309 8.73678E-05-3.01747E-06-2.64698E-23
 -1       310 8.64859E-05-4.91871E-06 0.00000E+00
 -1       311 8.56769E-05-7.01802E-06-2.64698E-23
 -1       312 8.48819E-05-9.15538E-06 5.29396E-23
 -1       313 8.40410E-05-1.11704E-05 0.00000E+00
 -1       314 8.30954E-05-1.29050E-05 5.29396E-23
 -1       315 8.19877E-05-1.42057E-05 0.00000E+00
 -1       316 8.06636E-05-1.49276E-05-5.29396E-23
 -1       317 7.90730E-05-1.49355E-05 0.00000E+00
 -1       318 7.71690E-05-1.41082E-05 5.29396E-23
 -1       319 7.49171E-05-1.23363E-05 1.32349E-23
 -1       320 7.22735E-05-9.53363E-06 0.00000E+00
 -1       336 8.98190E-05-3.26143E-06 0.00000E+00
 -1       337 8.64757E-05-3.73078E-06 0.00000E+00
 -1       338 8.27310E-05-4.20134E-06 0.00000E+00
 -1       339 7.86010E-05-4.67221E-06 0.00000E+00
 -1       340 7.41038E-05-5.14473E-06-1.32349E-23
 -1       406 7.49231E-05 1.39555E-06 0.00000E+00
 -1       407 7.43900E-05 1.59470E-06 0.00000E+00
 -1       408 7.37856E-05 1.79366E-06 6.61744E-24
 -1       409 7.31101E-05 1.99214E-06 0.00000E+00
 -1       410 7.23635E-05 2.18968E-06 0.00000E+00
 -1       521 8.10693E-05-9.13341E-07 0.00000E+00
 -1       522 7.77315E-05-1.98215E-06 0.00000E+00
 -1       523 7.46160E-05-3.63388E-06 0.00000E+00
 -1       524 7.16492E-05-5.72600E-06 5.29396E-23
 -1       525 6.87811E-05-8.08574E-06 0.00000E+00
 -1       526 6.59435E-05-1.05345E-05 5.29396E-23
 -1       527 6.30700E-05-1.28888E-05 0.00000E+00
 -1       528 6.00938E-05-1.49695E-05 5.29396E-23
 -1       529 5.69526E-05-1.66096E-05-1.05879E-22
 -1       530 5.35909E-05-1.76602E-05 0.00000E+00
 -1       531 4.99620E-05-1.79982E-05-1.05879E-22
 -1       532 4.60322E-05-1.75293E-05-5.29396E-23
 -1       533 4.17776E-05-1.61956E-05-1.05879E-22
 -1       534 3.72019E-05-1.39693E-05 5.29396E-23
 -1       535 3.22923E-05-1.08729E-05 0.00000E+00
 -1       536 6.92502E-05-1.18741E-06-6.61744E-24
 -1       537 6.92584E-05 2.16594E-06 0.00000E+00
 -1       538 6.92689E-05 4.56032E-06 0.00000E+00
 -1       539 6.92830E-05 6.10789E-06 0.00000E+00
 -1       540 6.92983E-05 6.92048E-06 2.06795E-25
 -1       541 6.93143E-05 7.10983E-06-5.16988E-26
 -1       542 6.93303E-05 6.78760E-06 1.03398E-25
 -1       543 6.93463E-05 6.06531E-06 1.03398E-25
 -1       544 6.93620E-05 5.05446E-06 0.00000E+00
 -1       545 6.93776E-05 3.86644E-06-2.06795E-25
 -1       546 6.93932E-05 2.61265E-06 0.00000E+00
 -1       547 6.94089E-05 1.40447E-06 4.13590E-25
 -1       548 6.94247E-05 3.53261E-07-8.27181E-25
 -1       549 6.94410E-05-4.29568E-07 0.00000E+00
 -1       550 6.94575E-05-8.32506E-07-1.65436E-24
 -1       551 6.30244E-05-5.81781E-06 1.65436E-24
 -1       552 5.60313E-05-6.02449E-06-8.27181E-25
 -1       553 4.86116E-05-6.23430E-06 0.00000E+00
 -1       554 4.11030E-05-6.44838E-06 6.61744E-24
 -1       555 3.38434E-05-6.66751E-06 2.64698E-23
 -1       556 6.75003E-05-1.37552E-06 0.00000E+00
 -1       557 6.61238E-05 1.87464E-06 1.32349E-23
 -1       558 6.50867E-05 4.23123E-06 1.32349E-23
 -1       559 6.43499E-05 5.79475E-06 0.00000E+00
 -1       560 6.38742E-05 6.66572E-06 0.00000E+00
 -1       561 6.36209E-05 6.94547E-06-6.61744E-24
 -1       562 6.35515E-05 6.73548E-06 0.00000E+00
 -1       563 6.36277E-05 6.13741E-06 0.00000E+00
 -1       564 6.38111E-05 5.25304E-06 0.00000E+00
 -1       565 6.40636E-05 4.18419E-06-3.30872E-24
 -1       566 6.43470E-05 3.03278E-06-3.30872E-24
 -1       567 6.46233E-05 1.90073E-06 8.27181E-25
 -1       568 6.48543E-05 8.89959E-07-2.99853E-24
 -1       569 6.50023E-05 1.02235E-07-1.65436E-24
 -1       570 6.50294E-05-3.60735E-07 3.30872E-24
 -1       571 6.96005E-05-4.86558E-07 2.48154E-24
 -1       572 6.97288E-05-3.11618E-07 1.65436E-24
 -1       573 6.98580E-05-2.04247E-07 1.65436E-24
 -1       574 6.99877E-05-1.48428E-07-8.27181E-25
 -1       575 7.01176E-05-1.28080E-07 3.30872E-24
 -1       576 7.02475E-05-1.27017E-07 0.00000E+00
 -1       577 7.03775E-05-1.29045E-07 0.00000E+00
 -1       578 7.05075E-05-1.17956E-07 0.00000E+00
 -1       579 7.06375E-05-7.75406E-08 0.00000E+00
 -1       580 7.07675E-05 8.41151E-09 0.00000E+00
 -1       581 7.08975E-05 1.56109E-07 0.00000E+00
 -1       582 7.10274E-05 3.81749E-07 0.00000E+00
 -1       583 7.11573E-05 7.01510E-07 0.00000E+00
 -1       584 7.12872E-05 1.13141E-06 0.00000E+00
 -1       585 7.14169E-05 1.68737E-06 0.00000E+00
 -1       586 6.88177E-05-6.85427E-07 0.00000E+00
 -1       587 6.80553E-05-6.26431E-07 0.00000E+00
 -1       588 6.72351E-05-5.67581E-07 0.00000E+00
 -1       589 6.64046E-05-5.09266E-07-4.13590E-25
 -1       590 6.56112E-05-4.52060E-07 0.00000E+00
 -1       591 6.92800E-05-4.40142E-07 1.65436E-24
 -1       592 6.91004E-05-1.96343E-07 0.00000E+00
 -1       593 6.89377E-05-4.50192E-10 0.00000E+00
 -1       594 6.87882E-05 1.58608E-07-1.65436E-24
 -1       595 6.86481E-05 2.91952E-07 0.00000E+00
 -1       596 6.85134E-05 4.10611E-07 0.00000E+00
 -1       597 6.83800E-05 5.25607E-07-1.65436E-24
 -1       598 6.82438E-05 6.47945E-07-8.27181E-25
 -1       599 6.81008E-05 7.88633E-07 1.65436E-24
 -1       600 6.79468E-05 9.58674E-07 0.00000E+00
 -1       601 6.77777E-05 1.16907E-06 1.65436E-24
 -1       602 6.75894E-05 1.43083E-06 8.27181E-25
 -1       603 6.73779E-05 1.75496E-06 1.65436E-24
 -1       604 6.71394E-05 2.15255E-06-3.10193E-25
 -1       605 6.68702E-05 2.63463E-06 0.00000E+00
 -1       606 7.15959E-05 3.34241E-06 6.61744E-24
 -1       607 7.16417E-05 4.43099E-06 0.00000E+00
 -1       608 7.16864E-05 5.64212E-06-6.61744E-24
 -1       609 7.17305E-05 6.96705E-06 3.30872E-24
 -1       610 7.17744E-05 8.39701E-06 0.00000E+00
 -1       611 7.18180E-05 9.92303E-06-3.30872E-24
 -1       612 7.18615E-05 1.15362E-05 0.00000E+00
 -1       613 7.19048E-05 1.32275E-05-1.65436E-24
 -1       614 7.19480E-05 1.49880E-05 0.00000E+00
 -1       615 7.19911E-05 1.68087E-05 0.00000E+00
 -1       616 7.20341E-05 1.86807E-05 0.00000E+00
 -1       617 7.20770E-05 2.05950E-05 0.00000E+00
 -1       618 7.21199E-05 2.25427E-05-1.65436E-24
 -1       619 7.21626E-05 2.45148E-05 0.00000E+00
 -1       620 7.22051E-05 2.65024E-05 0.00000E+00
 -1       621 7.06648E-05 2.52300E-06 0.00000E+00
 -1       622 6.97876E-05 2.66240E-06-1.65436E-24
 -1       623 6.89272E-05 2.80175E-06 0.00000E+00
 -1       624 6.80961E-05 2.94074E-06 1.65436E-24
 -1       625 6.73067E-05 3.07905E-06 0.00000E+00
 -1       626 7.12984E-05 3.40694E-06 0.00000E+00
 -1       627 7.09989E-05 4.56542E-06 6.61744E-24
 -1       628 7.06532E-05 5.84664E-06 6.61744E-24
 -1       629 7.02666E-05 7.23651E-06 0.00000E+00
 -1       630 6.98444E-05 8.72091E-06 0.00000E+00
 -1       631 6.93919E-05 1.02856E-05 0.00000E+00
 -1       632 6.89146E-05 1.19161E-05-6.61744E-24
 -1       633 6.84179E-05 1.35984E-05 3.30872E-24
 -1       634 6.79070E-05 1.53181E-05 0.00000E+00
 -1       635 6.73874E-05 1.70608E-05-1.65436E-24
 -1       636 6.68645E-05 1.88124E-05 0.00000E+00
 -1       637 6.63435E-05 2.05586E-05-1.65436E-24
 -1       638 6.58298E-05 2.22849E-05-1.65436E-24
 -1       639 6.53285E-05 2.39772E-05-8.27181E-25
 -1       640 6.48443E-05 2.56211E-05 0.00000E+00
 -1       656 7.05157E-05 2.82867E-05 0.00000E+00
 -1       657 6.91191E-05 2.80673E-05 1.65436E-24
 -1       658 6.79328E-05 2.78486E-05 0.00000E+00
 -1       659 6.68312E-05 2.76301E-05 0.00000E+00
 -1       660 6.56886E-05 2.74109E-05-3.30872E-24
 -1       661 7.16401E-05 3.05504E-05 3.30872E-24
 -1       662 7.10119E-05 3.26761E-05 0.00000E+00
 -1       663 7.03628E-05 3.48568E-05 0.00000E+00
 -1       664 6.96992E-05 3.70779E-05-1.65436E-24
 -1       665 6.90261E-05 3.93247E-05 0.00000E+00
 -1       666 6.83490E-05 4.15823E-05-1.65436E-24
 -1       667 6.76734E-05 4.38360E-05 0.00000E+00
 -1       668 6.70049E-05 4.60712E-05 0.00000E+00
 -1       669 6.63489E-05 4.82731E-05 0.00000E+00
 -1       670 6.57110E-05 5.04270E-05 1.65436E-24
 -1       671 6.50967E-05 5.25181E-05 0.00000E+00
 -1       672 6.45115E-05 5.45314E-05 0.00000E+00
 -1       673 6.39611E-05 5.64520E-05 0.00000E+00
 -1       674 6.34500E-05 5.82646E-05 0.00000E+00
 -1       675 6.29853E-05 5.99544E-05 0.00000E+00
 -1       676 6.97399E-05 6.23396E-05-6.61744E-24
 -1       677 6.82950E-05 6.21708E-05 0.00000E+00
 -1       678 6.68533E-05 6.20020E-05-3.30872E-24
 -1       679 6.54165E-05 6.18340E-05 0.00000E+00
 -1       680 6.39862E-05 6.16660E-05 0.00000E+00
 -1       771 2.39759E-05-2.49774E-06-5.29396E-23
 -1       772 2.11113E-05 1.02929E-06 2.64698E-23
 -1       773 1.85566E-05 3.73300E-06-5.29396E-23
 -1       774 1.62830E-05 5.68975E-06 0.00000E+00
 -1       775 1.42617E-05 6.97684E-06 0.00000E+00
 -1       776 1.24628E-05 7.67313E-06 0.00000E+00
 -1       777 1.08562E-05 7.85821E-06 0.00000E+00
 -1       778 9.41136E-06 7.61275E-06-2.64698E-23
 -1       779 8.09762E-06 7.01798E-06-5.29396E-23
 -1       780 6.88416E-06 6.15587E-06 0.00000E+00
 -1       781 5.74015E-06 5.10874E-06 0.00000E+00
 -1       782 4.63473E-06 3.95934E-06 0.00000E+00
 -1       783 3.53702E-06 2.79054E-06 5.29396E-23
 -1       784 2.41701E-06 1.68545E-06 1.32349E-23
 -1       785 1.24433E-06 7.26981E-07 0.00000E+00
 -1       786 6.49998E-05-7.55825E-09 0.00000E+00
 -1       787 6.51038E-05 2.88733E-07 0.00000E+00
 -1       788 6.52078E-05 5.05649E-07 3.30872E-24
 -1       789 6.53127E-05 6.58927E-07 0.00000E+00
 -1       790 6.54177E-05 7.64219E-07-3.30872E-24
 -1       791 6.55229E-05 8.37129E-07 0.00000E+00
 -1       792 6.56281E-05 8.93216E-07-3.30872E-24
 -1       793 6.57334E-05 9.48022E-07 0.00000E+00
 -1       794 6.58387E-05 1.01709E-06 0.00000E+00
 -1       795 6.59440E-05 1.11597E-06-1.65436E-24
 -1       796 6.60492E-05 1.26026E-06 3.30872E-24
 -1       797 6.61544E-05 1.46561E-06-1.65436E-24
 -1       798 6.62595E-05 1.74772E-06-3.30872E-24
 -1       799 6.63642E-05 2.12242E-06-1.65436E-24
 -1       800 6.64689E-05 2.60563E-06 3.30872E-24
 -1       801 5.95611E-05-2.80184E-07 0.00000E+00
 -1       802 4.75224E-05-2.05110E-07 1.65436E-24
 -1       803 3.21667E-05-1.69603E-07 4.13590E-25
 -1       804 1.68741E-05-1.39972E-07 3.30872E-24
 -1       805 5.02431E-06-6.96166E-08 0.00000E+00
 -1       806 6.46388E-05-6.33411E-08-3.30872E-24
 -1       807 6.43909E-05 2.20562E-07-1.65436E-24
 -1       808 6.41575E-05 4.63143E-07 0.00000E+00
 -1       809 6.39353E-05 6.74396E-07 1.65436E-24
 -1       810 6.37210E-05 8.64288E-07-3.30872E-24
 -1       811 6.35109E-05 1.04275E-06 0.00000E+00
 -1       812 6.33013E-05 1.21971E-06 0.00000E+00
 -1       813 6.30885E-05 1.40507E-06 0.00000E+00
 -1       814 6.28689E-05 1.60876E-06 0.00000E+00
 -1       815 6.26387E-05 1.84069E-06 1.65436E-24
 -1       816 6.23941E-05 2.11076E-06 0.00000E+00
 -1       817 6.21316E-05 2.42888E-06 0.00000E+00
 -1       818 6.18474E-05 2.80495E-06 0.00000E+00
 -1       819 6.15379E-05 3.24881E-06 1.65436E-24
 -1       820 6.11997E-05 3.77028E-06 0.00000E+00
 -1       821 6.64426E-05 3.99366E-06-1.65436E-24
 -1       822 6.63062E-05 4.96306E-06 0.00000E+00
 -1       823 6.61698E-05 6.10227E-06 0.00000E+00
 -1       824 6.60321E-05 7.39160E-06 0.00000E+00
 -1       825 6.58940E-05 8.81122E-06 0.00000E+00
 -1       826 6.57555E-05 1.03410E-05-1.65436E-24
 -1       827 6.56168E-05 1.19608E-05-3.30872E-24
 -1       828 6.54780E-05 1.36501E-05 0.00000E+00
 -1       829 6.53391E-05 1.53885E-05 0.00000E+00
 -1       830 6.52002E-05 1.71554E-05 1.65436E-24
 -1       831 6.50613E-05 1.89302E-05 0.00000E+00
 -1       832 6.49227E-05 2.06922E-05 0.00000E+00
 -1       833 6.47842E-05 2.24209E-05 0.00000E+00
 -1       834 6.46470E-05 2.40957E-05 0.00000E+00
 -1       835 6.45097E-05 2.56961E-05 0.00000E+00
 -1       836 6.57565E-05 3.40512E-06 0.00000E+00
 -1       837 6.47917E-05 3.60303E-06-1.65436E-24
 -1       838 6.37466E-05 3.80068E-06 0.00000E+00
 -1       839 6.26913E-05 3.99755E-06 1.65436E-24
 -1       840 6.16960E-05 4.19429E-06 0.00000E+00
 -1       856 6.42737E-05 2.87867E-05 8.27181E-25
 -1       857 6.41613E-05 3.05985E-05-8.27181E-25
 -1       858 6.40484E-05 3.26052E-05 3.30872E-24
 -1       859 6.39344E-05 3.47742E-05-1.65436E-24
 -1       860 6.38199E-05 3.70726E-05 0.00000E+00
 -1       861 6.37050E-05 3.94677E-05 1.65436E-24
 -1       862 6.35900E-05 4.19267E-05 3.30872E-24
 -1       863 6.34748E-05 4.44166E-05 0.00000E+00
 -1       864 6.33597E-05 4.69044E-05 3.30872E-24
 -1       865 6.32446E-05 4.93574E-05 0.00000E+00
 -1       866 6.31297E-05 5.17425E-05-3.30872E-24
 -1       867 6.30151E-05 5.40268E-05 1.65436E-24
 -1       868 6.29009E-05 5.61777E-05 3.30872E-24
 -1       869 6.27873E-05 5.81624E-05 0.00000E+00
 -1       870 6.26741E-05 5.99482E-05 0.00000E+00
 -1       871 6.31869E-05 2.71868E-05 0.00000E+00
 -1       872 6.21620E-05 2.71697E-05 0.00000E+00
 -1       873 6.12373E-05 2.71521E-05 0.00000E+00
 -1       874 6.03440E-05 2.71339E-05 4.13590E-25
 -1       875 5.94132E-05 2.71149E-05 1.65436E-24
 -1       876 6.39819E-05 2.88187E-05-3.30872E-24
 -1       877 6.35296E-05 3.06011E-05 0.00000E+00
 -1       878 6.30239E-05 3.25258E-05 0.00000E+00
 -1       879 6.24733E-05 3.45720E-05 0.00000E+00
 -1       880 6.18850E-05 3.67185E-05-6.61744E-24
 -1       881 6.12669E-05 3.89447E-05 3.30872E-24
 -1       882 6.06266E-05 4.12297E-05-6.61744E-24
 -1       883 5.99719E-05 4.35530E-05-3.30872E-24
 -1       884 5.93106E-05 4.58938E-05-6.61744E-24
 -1       885 5.86504E-05 4.82316E-05 3.30872E-24
 -1       886 5.79990E-05 5.05457E-05 6.61744E-24
 -1       887 5.73642E-05 5.28155E-05 0.00000E+00
 -1       888 5.67536E-05 5.50202E-05 0.00000E+00
 -1       889 5.61741E-05 5.71389E-05 1.65436E-24
 -1       890 5.56347E-05 5.91510E-05 0.00000E+00
 -1       891 6.12991E-05 6.14251E-05-1.65436E-24
 -1       892 6.01714E-05 6.13461E-05 0.00000E+00
 -1       893 5.90859E-05 6.12673E-05 1.65436E-24
 -1       894 5.79478E-05 6.11885E-05 8.27181E-25
 -1       895 5.66618E-05 6.11096E-05 0.00000E+00
 -1       956 6.06811E-05 5.24501E-06 1.65436E-24
 -1       957 6.05286E-05 6.26602E-06-8.27181E-25
 -1       958 6.03755E-05 7.42542E-06-1.65436E-24
 -1       959 6.02219E-05 8.70573E-06 8.27181E-25
 -1       960 6.00681E-05 1.00895E-05 0.00000E+00
 -1       961 5.99141E-05 1.15590E-05 0.00000E+00
 -1       962 5.97600E-05 1.30967E-05 0.00000E+00
 -1       963 5.96059E-05 1.46849E-05 0.00000E+00
 -1       964 5.94516E-05 1.63060E-05 0.00000E+00
 -1       965 5.92974E-05 1.79423E-05 0.00000E+00
 -1       966 5.91432E-05 1.95761E-05-6.61744E-24
 -1       967 5.89890E-05 2.11898E-05 0.00000E+00
 -1       968 5.88350E-05 2.27657E-05 0.00000E+00
 -1       969 5.86813E-05 2.42862E-05 0.00000E+00
 -1       970 5.85280E-05 2.57339E-05 0.00000E+00
 -1       971 5.81791E-05 2.84919E-05-3.30872E-24
 -1       972 5.79769E-05 3.01206E-05 0.00000E+00
 -1       973 5.77743E-05 3.19499E-05 0.00000E+00
 -1       974 5.75709E-05 3.39517E-05 0.00000E+00
 -1       975 5.73670E-05 3.60976E-05-6.61744E-24
 -1       976 5.71628E-05 3.83591E-05 3.30872E-24
 -1       977 5.69584E-05 4.07076E-05 0.00000E+00
 -1       978 5.67539E-05 4.31146E-05-3.30872E-24
 -1       979 5.65493E-05 4.55513E-05 0.00000E+00
 -1       980 5.63447E-05 4.79890E-05 3.30872E-24
 -1       981 5.61402E-05 5.03990E-05-6.61744E-24
 -1       982 5.59361E-05 5.27527E-05-3.30872E-24
 -1       983 5.57323E-05 5.50214E-05-6.61744E-24
 -1       984 5.55298E-05 5.71765E-05-3.30872E-24
 -1       985 5.53278E-05 5.91895E-05 0.00000E+00
 -3
    1PSTEP                         2           1           1          
  100CL  101 1.000000000         394                     0    1           1
 -4  STRESS      6    1
 -5  SXX         1    4    1    1
 -5  SYY         1    4    2    2
 -5  SZZ         1    4    3    3
 -5  SXY         1    4    1    2
 -5  SYZ         1    4    2    3
 -5  SZX         1    4    3    1
 -1         1-6.21713E+06-2.66366E+06-1.54591E+06-2.85770E+06-4.94765E-10-6.11180E-09
 -1         2 2.93700E+03-1.80121E+05 9.20086E+03-2.83983E+02-3.83807E-10-1.10876E-08
 -1         3-7.07426E+01-1.32674E+06-3.14270E+01-6.33010E+02 1.08123E-09-5.27507E-11
 -1         5-3.74608E+01 5.70823E+05 1.77788E+01 1.76470E+00 1.22254E-10 3.12903E-08
 -1         8-2.59210E+06-1.16560E+06-3.81549E+05-1.49930E+06 3.01710E-09-3.94454E-08
 -1         9-3.90619E+06-1.40632E+06-7.58572E+05-1.17316E+06-2.47383E-10-1.07684E-08
 -1        10-1.86888E+02-1.32697E+06-1.58368E+03-3.67116E+03-4.91738E-09-7.39465E-09
 -1        12-3.03150E+01 5.70860E+05 5.77597E+02 1.13812E+01 4.86892E-10 2.66937E-09
 -1        15 4.02872E+03 2.18667E+03 1.26000E+04 1.14510E+01-6.80790E-07-1.09526E-04
 -1        16-5.40463E+06-1.73055E+06-8.00912E+05-1.77753E+06 3.90719E-09-7.21169E-09
 -1        17-7.49315E+05-6.00531E+05-1.07238E+05-5.06995E+05-1.95578E-09 6.62985E-09
 -1        18 5.64369E+04 1.66243E+04-1.58996E+04-1.23274E+05-2.71029E-10-4.40195E-09
 -1        19 1.62114E+05 2.00019E+05-3.67066E+02 1.51286E+04-1.38061E-09-5.01677E-09
 -1        20 1.10492E+05-1.69244E+05-3.05239E+04 8.11414E+04 5.57247E-09-4.52322E-10
 -1        21-1.31193E+02-4.80889E+05-2.10317E+03-5.40643E+02 8.12607E-09 1.72556E-08
 -1        24-3.74373E+06-1.30488E+06-4.16126E+05-1.65318E+06-7.40207E-09 4.39468E-09
 -1        25 1.43245E+04 8.11267E+04 3.58677E+04-5.10878E+05-1.08012E-09-6.66114E-09
 -1        26-2.40857E+04 1.53974E+05-1.05561E+03-3.57805E+04 1.24710E-09 4.71774E-09
 -1        27-3.47949E+04-1.01629E+05-4.61289E+04 1.03063E+05 3.11168E-09-2.89704E-09
 -1        28-7.22149E+03-1.42433E+05-1.06068E+03 5.84109E+04 1.34287E-08-2.46352E-09
 -1        32-1.19345E+06-8.70096E+04 3.31017E+05-1.60255E+06-2.63390E-09 2.50293E-09
 -1        33-1.71873E+05 1.50434E+05 4.68164E+04-5.34678E+04 1.78807E-09 1.69772E-10
 -1        34-3.19549E+05-4.82349E+04-1.17179E+04 9.83587E+04 8.60136E-11-1.17416E-09
 -1        35-4.11469E+04-4.31717E+04-6.20222E+02 9.27706E+04 7.98584E-09-3.75803E-09
 -1        51 3.01208E+04-6.64816E+05 5.64032E+04-1.80101E+06 6.40284E-10 6.95582E-09
 -1        52 2.22084E+04-6.71438E+05 4.00623E+04-2.00315E+06 3.92902E-10 2.86382E-08
 -1        53 2.18928E+04-6.97685E+05 3.86335E+04-1.79571E+06 9.89530E-10 2.75322E-08
 -1        54 5.19736E+04-6.98825E+05 6.76652E+04-2.00844E+06-1.60071E-10 1.21508E-09
 -1        55 1.03104E+05-7.24617E+05 1.26782E+05-1.79427E+06 2.03727E-10 2.98314E-09
 -1        56-1.17096E+07-1.19223E+06-1.03778E+06-4.49163E+06 1.60071E-09-9.66247E-09
 -1        57-1.20815E+07-2.28902E+06-7.15843E+05-4.50183E+06 2.15005E-09-9.31323E-09
 -1        58-1.18943E+07-1.58949E+06-2.43608E+05-4.45640E+06 4.24188E-09-3.44880E-09
 -1        59-1.19607E+07-1.73855E+06-1.48762E+05-4.43699E+06 5.10772E-09 6.14637E-09
 -1        60-1.18270E+07-1.74176E+06-5.66136E+04-4.55546E+06 4.22369E-09-5.06225E-09
 -1        61-1.19956E+07-1.59811E+06-3.16508E+04-4.36503E+06 8.83915E-10 6.69479E-09
 -1        62-1.18580E+07-1.72775E+06-1.65529E+04-4.52873E+06-1.12641E-09 5.43423E-09
 -1        63-1.18691E+07-1.71257E+06-1.23208E+04-4.50372E+06-2.15437E-09 4.74074E-10
 -1        64-1.19538E+07-1.62895E+06-1.56422E+04-4.41607E+06-1.52340E-09 1.31422E-10
 -1        65-1.17930E+07-1.80046E+06-3.09795E+04-4.59564E+06-1.28341E-09 4.14684E-09
 -1        66-1.19340E+07-1.63825E+06-5.60186E+04-4.43746E+06-3.04090E-09 1.44282E-08
 -1        67-1.19473E+07-1.74910E+06-1.45282E+05-4.45126E+06-7.25595E-09 2.70666E-09
 -1        68-1.18007E+07-1.68252E+06-2.37290E+05-4.56010E+06-3.55431E-09-2.09548E-09
 -1        69-1.22762E+07-2.07583E+06-6.99121E+05-4.27473E+06 3.36149E-09 4.74392E-09
 -1        70-1.16085E+07-1.31244E+06-1.01438E+06-4.61513E+06-1.02154E-08-3.95812E-09
 -1        86-1.46580E+03-1.82684E+05 9.88902E+03 1.42001E+02-1.68257E-11 3.09228E-10
 -1        87 9.64996E+03-1.76922E+05 2.06168E+04-5.24686E+02-2.62617E-10 1.61051E-09
 -1        88-8.15548E+03-1.85864E+05 3.15504E+04 3.82715E+02-3.40151E-10-1.57191E-08
 -1        89 6.01242E+04-1.53703E+05 8.51876E+04-8.72403E+02-2.85581E-10 1.23366E-09
 -1        90-5.18916E+04-2.05872E+05 1.20192E+05 4.89743E+02-5.02041E-10 5.10271E-09
 -1       121-9.86815E+01-1.32717E+06-1.08460E+02 3.16393E+02-1.75404E-09-1.05201E-08
 -1       122-6.74448E+01-1.32675E+06-8.59789E+01-1.25457E+03-1.27570E-09-2.88674E-09
 -1       123-9.37205E+01-1.32717E+06-2.39330E+02 9.37502E+02-4.49394E-09 1.90448E-09
 -1       124-6.81252E+01-1.32680E+06-3.75629E+02-2.48126E+03-3.39839E-09 4.09955E-09
 -1       125-7.40618E+01-1.32716E+06-8.01402E+02 1.54253E+03-7.36111E-09 3.49792E-09
 -1       191-3.99083E+01 5.70866E+05 2.00039E+01-8.92888E-01 4.16962E-10 1.29930E-08
 -1       192-3.91201E+01 5.70824E+05 3.76958E+01 4.67027E+00 6.59902E-10-2.25627E-08
 -1       193-4.43028E+01 5.70865E+05 6.88844E+01-3.84445E+00 7.01975E-10-4.80577E-09
 -1       194-4.44522E+01 5.70830E+05 1.42700E+02 1.01400E+01 3.87423E-10 5.15502E-09
 -1       195-5.27423E+01 5.70860E+05 2.77888E+02-6.45062E+00 9.91662E-10 1.92813E-10
 -1       266-7.12029E+04-3.29807E+04 1.64964E+05-2.37593E+02-1.08648E-06-1.75476E-04
 -1       267 8.24828E+04 3.85278E+04 1.16889E+05 2.73227E+02-2.17470E-06-3.49968E-04
 -1       268-1.12018E+04-5.50120E+03 4.33041E+04-3.54345E+01-1.70621E-06-2.74410E-04
 -1       269 1.32269E+04 6.59888E+03 2.82680E+04 4.12007E+01-1.23619E-06-1.98905E-04
 -1       270-2.01011E+03-1.09025E+03 1.35875E+04-5.71779E+00-9.48949E-07-1.52631E-04
 -1       271-7.96744E+06-9.84693E+05-6.38692E+05-3.10688E+06 1.42609E-09-1.06229E-08
 -1       272-8.26684E+06-1.38705E+06-4.11700E+05-3.02505E+06-2.42835E-09-1.58616E-08
 -1       273-8.08958E+06-1.14358E+06-1.50512E+05-3.07570E+06 7.52152E-10 2.87400E-09
 -1       274-8.11878E+06-1.19613E+06-8.44169E+04-3.07398E+06 1.21076E-09 6.22640E-09
 -1       275-8.11103E+06-1.15545E+06-3.50310E+04-3.06498E+06-8.39464E-10 7.98900E-09
 -1       276-8.08886E+06-1.18615E+06-1.86770E+04-3.09295E+06 9.09040E-10 1.76074E-08
 -1       277-8.11915E+06-1.15124E+06-9.41142E+03-3.05760E+06 9.84983E-10 3.68209E-09
 -1       278-8.07695E+06-1.19412E+06-7.16820E+03-3.10555E+06 2.47019E-09 2.18904E-09
 -1       279-8.12341E+06-1.14694E+06-8.28092E+03-3.05281E+06-2.39379E-09 3.11616E-09
 -1       280-8.07321E+06-1.20160E+06-1.57492E+04-3.11203E+06-2.76486E-10 1.25810E-08
 -1       281-8.12337E+06-1.14364E+06-2.89279E+04-3.05139E+06-3.71028E-09 1.55342E-09
 -1       282-8.08703E+06-1.22093E+06-6.98700E+04-3.10919E+06 1.16370E-09-7.27596E-11
 -1       283-8.11017E+06-1.12935E+06-1.24281E+05-3.05514E+06 2.17187E-09-2.86673E-09
 -1       284-8.20252E+06-1.38517E+06-3.40242E+05-3.07561E+06-9.78616E-10-3.43425E-09
 -1       285-8.01112E+06-9.96473E+05-5.28003E+05-3.07890E+06 7.49424E-10-1.30967E-09
 -1       301 5.66610E+04-2.47052E+04 1.69743E+05-2.53744E+04 0.00000E+00-4.39246E-09
 -1       302 2.15597E+04 1.05678E+04 1.16219E+05-3.14793E+04 9.67248E-10-2.59038E-09
 -1       303 4.65880E+03-1.28240E+04 1.09360E+05-2.54276E+04 2.91038E-11 8.22479E-09
 -1       304 4.24217E+04 2.67289E+04 1.82804E+05-3.14312E+04 9.24047E-10 3.15958E-09
 -1       305 1.17032E+05-4.07259E+04 3.27578E+05-2.53334E+04 5.38421E-10-2.30580E-09
 -1       306-3.44944E+06-4.37249E+05-2.11434E+05-1.32829E+06 3.41970E-10 8.77480E-09
 -1       307-3.50498E+06-6.12430E+05-1.36017E+05-1.35048E+06-1.89152E-09 7.05040E-09
 -1       308-3.48961E+06-4.89560E+05-4.98882E+04-1.31837E+06-8.03482E-10 1.08048E-09
 -1       309-3.45823E+06-5.48010E+05-2.80145E+04-1.36528E+06 1.82808E-10-6.63022E-09
 -1       310-3.49549E+06-4.94634E+05-1.16522E+04-1.31627E+06-3.97210E-09-3.19687E-09
 -1       311-3.45168E+06-5.41528E+05-6.35998E+03-1.36796E+06-2.46405E-09 1.04586E-09
 -1       312-3.49620E+06-4.95232E+05-3.37833E+03-1.31607E+06-1.31217E-09 5.36693E-09
 -1       313-3.45180E+06-5.39964E+05-2.99757E+03-1.36702E+06-1.52795E-09 2.96757E-09
 -1       314-3.49523E+06-4.96225E+05-4.00691E+03-1.31714E+06-3.87081E-09-1.00363E-09
 -1       315-3.45514E+06-5.38189E+05-7.99153E+03-1.36334E+06-1.93540E-09 2.56932E-09
 -1       316-3.49246E+06-4.97347E+05-1.50572E+04-1.31943E+06-1.24510E-09 8.52378E-09
 -1       317-3.46641E+06-5.43537E+05-3.61017E+04-1.35616E+06 1.27284E-09-1.16415E-09
 -1       318-3.48355E+06-4.92134E+05-6.45354E+04-1.32359E+06-1.90357E-09 9.02219E-10
 -1       319-3.52891E+06-6.24639E+05-1.75645E+05-1.33471E+06-6.27460E-09 1.04774E-09
 -1       320-3.43087E+06-4.25283E+05-2.73136E+05-1.33725E+06-7.27596E-12 4.90400E-09
 -1       336 5.03203E+01-1.32705E+06-3.06433E+03 2.12704E+03-9.75069E-09-1.57252E-09
 -1       337-1.53896E+03-1.32796E+06-6.70488E+03-4.80366E+03-7.02312E-09-6.05678E-09
 -1       338 1.12667E+03-1.32624E+06-1.20115E+04 2.67426E+03-1.21936E-08-4.90127E-09
 -1       339-1.50020E+04-1.33588E+06-2.97881E+04-5.93563E+03-8.32461E-09-1.08548E-09
 -1       340 1.12665E+04-1.31923E+06-4.62562E+04 3.24798E+03-1.36206E-08 1.29803E-08
 -1       406 1.25859E+01 5.70834E+05 1.13896E+03-5.16151E+00 1.33082E-09-1.67493E-08
 -1       407 3.67345E+02 5.71060E+05 2.42322E+03-9.52379E+00-3.16618E-11-4.16912E-08
 -1       408 1.21625E+03 5.70659E+05 4.83776E+03 1.56641E+01 1.35651E-09-2.09347E-08
 -1       409 5.20416E+03 5.72604E+05 1.08927E+04-1.91276E+02-1.21872E-10-7.01584E-09
 -1       410 1.50069E+04 5.69278E+05 2.22355E+04 1.96752E+02 1.61526E-09 3.41242E-09
 -1       521-8.09360E+06-1.00491E+06-5.36210E+05-3.10950E+06 1.77533E-09 8.14907E-09
 -1       522-8.29386E+06-1.39374E+06-3.45526E+05-3.09932E+06-1.61526E-09-5.03496E-09
 -1       523-8.19439E+06-1.13965E+06-1.26204E+05-3.08510E+06-1.64982E-09 8.22183E-10
 -1       524-8.17586E+06-1.22765E+06-7.09221E+04-3.13426E+06-1.62720E-09 6.65023E-09
 -1       525-8.20829E+06-1.15367E+06-2.93165E+04-3.08072E+06-4.85807E-09-7.99446E-10
 -1       526-8.16074E+06-1.20915E+06-1.58608E+04-3.13852E+06-3.91492E-09-4.31987E-09
 -1       527-8.20901E+06-1.15633E+06-8.12328E+03-3.08141E+06-2.60889E-09-8.56375E-09
 -1       528-8.16316E+06-1.20293E+06-6.68035E+03-3.13365E+06-1.37652E-09-4.25007E-09
 -1       529-8.20549E+06-1.15994E+06-8.31854E+03-3.08540E+06-1.04319E-09 3.73257E-09
 -1       530-8.17350E+06-1.19592E+06-1.62050E+04-3.12264E+06-8.59018E-10 1.19053E-09
 -1       531-8.19826E+06-1.16381E+06-3.02143E+04-3.09203E+06-1.47702E-09-4.78394E-10
 -1       532-8.19999E+06-1.20374E+06-7.27440E+04-3.10534E+06-1.30876E-09 2.96950E-09
 -1       533-8.17922E+06-1.15417E+06-1.29666E+05-3.10192E+06-4.04634E-09 7.96717E-09
 -1       534-8.32874E+06-1.36693E+06-3.54642E+05-3.06164E+06-2.97950E-09-3.20142E-10
 -1       535-8.07337E+06-1.01809E+06-5.50395E+05-3.12965E+06-1.97178E-09-5.79166E-09
 -1       536 3.28177E+04-2.21205E+04 7.87512E+04-1.05260E+04 1.92449E-09-5.99903E-09
 -1       537 6.40905E+04 2.69483E+04 5.17112E+04-6.05990E+04-7.44330E-09-9.13133E-09
 -1       538 4.49629E+04-2.72659E+03 2.03528E+04-1.04147E+04 9.74978E-10-1.22554E-08
 -1       539 4.95620E+04 2.71892E+03 1.17035E+04-6.06798E+04 2.51748E-09 3.54976E-09
 -1       540 4.63984E+04-4.30807E+02 5.10259E+03-1.04359E+04 7.31234E-10 6.39147E-09
 -1       541 4.72769E+04 2.56756E+02 2.77553E+03-6.06311E+04-5.63887E-10 5.01609E-09
 -1       542 4.65575E+04-7.96389E+01 1.23192E+03-1.04657E+04-6.46651E-10 3.66617E-09
 -1       543 4.66651E+04 1.03230E+02 6.04558E+02-6.05849E+04 5.98902E-10-1.46690E-09
 -1       544 4.65679E+04 1.32196E+01 1.64838E+02-1.04824E+04 5.99357E-10-3.55476E-09
 -1       545 4.64343E+04 9.95854E+01-1.64749E+02-6.05644E+04-1.93893E-09-2.04227E-09
 -1       546 4.65926E+04 5.99549E+01-5.46248E+02-1.04861E+04 4.00405E-10-5.03883E-09
 -1       547 4.62636E+04-2.43259E+02-1.36932E+03-6.05623E+04-1.56524E-09-4.20590E-09
 -1       548 4.67889E+04 2.85581E+02-2.48812E+03-1.04846E+04-1.31286E-09 1.70166E-09
 -1       549 4.48522E+04-3.29780E+03-6.25073E+03-6.04914E+04-1.73350E-09 1.00090E-09
 -1       550 4.83008E+04 2.52142E+03-9.67060E+03-1.05570E+04-1.55524E-10 3.62888E-10
 -1       551 1.96588E+04-5.22635E+05 4.13184E+04-8.15350E+05-9.92441E-09 1.14233E-09
 -1       552 1.87458E+04-5.19049E+05 4.44441E+04-1.00702E+06-1.15542E-08 6.68661E-09
 -1       553 1.42661E+04-5.26310E+05 6.51667E+04-8.13642E+05-1.24346E-08 5.56247E-09
 -1       554 4.74408E+04-4.98675E+05 1.33851E+05-1.00723E+06-1.35624E-08 4.47471E-09
 -1       555 1.01879E+05-5.46171E+05 2.53250E+05-8.14550E+05-1.02300E-08-6.21003E-09
 -1       556-1.80430E+05-1.78136E+05 4.22350E+04-2.86315E+05-1.20926E-08-3.05590E-10
 -1       557-1.36563E+05-2.19211E+05 2.15275E+04-3.21178E+05-1.04046E-08 8.45921E-09
 -1       558-1.81515E+05-1.87407E+05 8.82675E+03-2.80171E+05-1.64437E-09 3.37968E-09
 -1       559-1.42662E+05-2.25015E+05 4.43323E+03-3.24013E+05 1.06229E-09 1.60799E-09
 -1       560-1.83051E+05-1.86591E+05 1.87085E+03-2.80980E+05-4.24188E-09 2.91948E-10
 -1       561-1.44736E+05-2.24524E+05 9.56083E+02-3.25424E+05-1.32422E-09 3.37332E-09
 -1       562-1.84233E+05-1.85829E+05 3.41434E+02-2.81786E+05 2.83762E-10-3.37604E-09
 -1       563-1.45969E+05-2.23996E+05 1.13952E+02-3.26262E+05-2.68119E-09-5.20731E-09
 -1       564-1.84930E+05-1.85385E+05-1.64560E+02-2.82262E+05-5.09317E-10-5.94446E-09
 -1       565-1.46581E+05-2.23742E+05-5.03896E+02-3.26661E+05-3.67436E-09 2.67210E-09
 -1       566-1.85104E+05-1.85236E+05-1.16365E+03-2.82402E+05-2.54931E-09-3.66163E-09
 -1       567-1.46762E+05-2.23836E+05-2.60453E+03-3.26610E+05 4.23461E-09 6.03904E-10
 -1       568-1.84628E+05-1.85621E+05-5.40325E+03-2.82118E+05-4.54929E-09-1.50249E-09
 -1       569-1.49504E+05-2.26707E+05-1.27246E+04-3.25316E+05-1.23418E-08 4.18731E-09
 -1       570-1.82029E+05-1.93395E+05-2.53690E+04-2.78726E+05-2.43381E-09 7.09588E-09
 -1       571 3.70510E+05 1.58812E+04 2.35949E+04-9.29305E+04 9.89530E-10 3.72484E-09
 -1       572 3.74014E+05 5.50405E+03 1.15616E+04-1.01879E+05-2.98769E-10-1.21872E-10
 -1       573 3.71884E+05 1.29543E+03 5.13621E+03-9.26871E+04 1.05047E-09 1.19326E-09
 -1       574 3.72295E+05 4.12259E+02 2.57409E+03-1.02143E+05-1.21418E-10 1.72622E-09
 -1       575 3.72020E+05 4.68300E+01 1.21264E+03-9.26560E+04 1.00049E-08 1.01772E-09
 -1       576 3.72053E+05 6.14397E+00 6.16437E+02-1.02178E+05 2.01104E-08 4.74483E-09
 -1       577 3.72044E+05-2.02992E+01 3.00874E+02-9.26519E+04 9.77820E-09 2.73303E-09
 -1       578 3.72041E+05-2.03165E+01 1.58773E+02-1.02182E+05-1.13687E-09 8.66567E-09
 -1       579 3.72089E+05-3.61526E+01 8.58860E+01-9.26514E+04 4.90218E-10 1.86628E-09
 -1       580 3.72107E+05-5.25257E+01 6.29237E+01-1.02178E+05 1.04774E-09-1.44701E-09
 -1       581 3.72176E+05-7.97627E+01 6.31085E+01-9.26562E+04-8.18545E-11-3.97995E-09
 -1       582 3.72233E+05-9.90593E+01 1.07831E+02-1.02124E+05 5.59339E-10-3.90355E-09
 -1       583 3.72298E+05-1.05789E+02 1.91092E+02-9.27053E+04 8.00355E-11-3.81669E-09
 -1       584 3.72460E+05 1.24910E+01 4.29773E+02-1.01706E+05-3.67436E-09-1.53454E-09
 -1       585 3.72398E+05 3.67394E+02 8.58972E+02-9.30746E+04-1.89175E-10-2.31012E-09
 -1       586 1.51061E+03 1.70224E+05 3.09147E+03-2.36836E+05 1.21872E-10-3.00224E-09
 -1       587 1.19749E+03 1.70689E+05 4.05417E+03-2.64092E+05-2.92312E-09 4.54293E-10
 -1       588 1.73870E+03 1.69932E+05 6.86579E+03-2.36531E+05 4.00178E-11-7.47650E-09
 -1       589 6.62794E+03 1.72712E+05 1.48250E+04-2.64140E+05-3.03771E-09-1.55219E-08
 -1       590 1.88045E+04 1.68091E+05 2.97739E+04-2.36779E+05 8.36735E-11-1.07284E-08
 -1       591-1.81174E+05-5.31782E+04-3.63742E+04-8.66035E+04 2.14141E-09 1.84809E-09
 -1       592-1.83648E+05-5.19186E+04-1.83497E+04-9.63149E+04 5.32646E-09 1.55560E-08
 -1       593-1.83093E+05-4.32826E+04-7.78721E+03-9.16186E+04 1.59480E-09-1.27329E-11
 -1       594-1.79484E+05-4.73938E+04-3.82715E+03-9.66341E+04-1.66301E-09-3.52159E-10
 -1       595-1.83299E+05-4.30287E+04-1.76668E+03-9.18079E+04-4.29509E-10-1.01295E-10
 -1       596-1.79204E+05-4.72355E+04-8.93471E+02-9.65934E+04-2.06228E-10 2.41823E-09
 -1       597-1.83333E+05-4.30594E+04-4.81935E+02-9.18083E+04-6.49280E-09-4.80759E-09
 -1       598-1.79173E+05-4.72375E+04-3.76915E+02-9.65792E+04-5.08044E-09 8.94943E-09
 -1       599-1.83328E+05-4.30631E+04-4.68503E+02-9.18053E+04-6.75163E-09-1.09094E-09
 -1       600-1.79193E+05-4.72402E+04-8.57747E+02-9.65827E+04-8.22183E-10 5.15047E-09
 -1       601-1.83284E+05-4.30402E+04-1.68962E+03-9.17991E+04-6.97582E-10 6.57747E-09
 -1       602-1.79453E+05-4.73917E+04-3.65628E+03-9.66075E+04-3.02634E-09-1.03919E-08
 -1       603-1.83074E+05-4.32938E+04-7.43814E+03-9.16166E+04-2.38288E-09-7.44876E-10
 -1       604-1.83462E+05-5.16697E+04-1.75220E+04-9.62406E+04 1.52068E-09 6.87942E-09
 -1       605-1.81189E+05-5.27833E+04-3.47335E+04-8.68665E+04 5.49471E-09 1.50330E-08
 -1       606 1.29936E+05-1.56213E+04-2.51206E+04 4.47375E+04-6.83576E-09 2.58296E-10
 -1       607 1.25898E+05-5.19626E+03-1.23838E+04 4.92427E+04-1.55615E-09-8.05130E-10
 -1       608 1.28201E+05-1.05498E+03-5.52453E+03 4.44194E+04 4.74211E-09-3.70665E-09
 -1       609 1.27673E+05-2.61894E+02-2.77488E+03 4.95888E+04-2.59570E-09-2.88082E-10
 -1       610 1.27941E+05 5.18501E+01-1.31691E+03 4.43806E+04-9.83164E-09-4.54702E-09
 -1       611 1.27821E+05 1.09915E+02-6.61849E+02 4.96296E+04-1.41372E-08-3.62343E-09
 -1       612 1.27856E+05 1.19406E+02-3.15211E+02 4.43766E+04-3.08319E-09-3.11502E-09
 -1       613 1.27797E+05 1.43395E+02-1.41197E+02 4.96339E+04-6.49106E-09 5.95128E-09
 -1       614 1.27804E+05 1.32465E+02-3.53235E+01 4.43758E+04-5.97538E-10-5.20095E-09
 -1       615 1.27763E+05 1.61685E+02 5.57391E+01 4.96338E+04 9.00764E-09-5.41058E-09
 -1       616 1.27765E+05 1.52758E+02 1.69952E+02 4.43765E+04-6.80848E-09-3.04362E-09
 -1       617 1.27765E+05 2.24980E+02 3.92426E+02 4.96317E+04 5.04770E-10-1.65346E-09
 -1       618 1.27715E+05 3.19311E+02 7.94842E+02 4.43772E+04 2.39379E-09 7.23958E-10
 -1       619 1.28017E+05 9.43722E+02 1.79225E+03 4.96242E+04 4.48426E-09 4.73983E-09
 -1       620 1.27463E+05 2.43261E+03 3.63792E+03 4.43781E+04 3.24621E-09 1.24601E-09
 -1       621 1.41124E+03 4.00513E+05 4.96754E+03-3.05590E+04-7.54881E-11 1.00954E-09
 -1       622 6.55498E+02 4.01522E+05 4.98538E+03-3.77587E+04 6.51198E-10 7.30097E-09
 -1       623 3.43982E+02 4.00674E+05 7.08627E+03-3.05546E+04 7.82165E-11 6.02176E-09
 -1       624 3.59668E+03 4.03819E+05 1.43917E+04-3.76605E+04 7.63976E-10-8.40146E-10
 -1       625 9.91363E+03 3.98253E+05 2.72308E+04-3.06509E+04 3.75621E-10-1.90494E-09
 -1       626 2.57276E+05 8.17477E+04-2.39141E+03 1.59332E+05-1.07375E-08-3.76895E-09
 -1       627 2.51971E+05 8.75344E+04-1.13670E+03 1.64536E+05-4.84033E-09 6.62340E-10
 -1       628 2.57416E+05 8.26947E+04-4.80686E+02 1.58521E+05 6.92671E-09 1.79080E-09
 -1       629 2.51865E+05 8.82317E+04-2.23934E+02 1.64690E+05 3.26509E-09-4.05942E-09
 -1       630 2.57366E+05 8.27766E+04-9.31804E+01 1.58416E+05 1.49921E-08-8.54527E-09
 -1       631 2.51791E+05 8.83071E+04-2.34917E+01 1.64674E+05 2.30239E-08 4.77792E-09
 -1       632 2.57316E+05 8.27979E+04 3.22975E+01 1.58382E+05 5.95355E-09 3.38855E-09
 -1       633 2.51756E+05 8.83245E+04 1.08547E+02 1.64653E+05 7.18956E-10 3.04829E-09
 -1       634 2.57281E+05 8.27995E+04 2.39177E+02 1.58367E+05-3.48973E-09 1.27693E-09
 -1       635 2.51765E+05 8.83330E+04 5.26070E+02 1.64649E+05-5.96810E-09-8.34507E-09
 -1       636 2.57252E+05 8.28122E+04 1.08284E+03 1.58352E+05 2.92061E-09-5.44924E-09
 -1       637 2.52010E+05 8.85740E+04 2.40427E+03 1.64622E+05 1.04093E-08 9.19954E-09
 -1       638 2.57189E+05 8.35461E+04 4.96567E+03 1.58027E+05 3.12411E-09 8.08177E-09
 -1       639 2.54566E+05 9.26911E+04 1.17894E+04 1.63678E+05 6.01176E-10-2.62207E-09
 -1       640 2.57171E+05 9.56109E+04 2.47217E+04 1.52962E+05 2.49065E-09-2.01453E-10
 -1       656 1.81478E+04-6.20335E+05-6.92707E+04 1.26887E+04-5.24597E-09-3.07091E-09
 -1       657-2.56245E+04-6.46627E+05-5.21894E+04 6.86336E+04-9.82982E-09 5.47698E-09
 -1       658 3.99812E+03-6.29285E+05-3.37479E+04 1.24580E+04-3.99780E-09 3.99928E-09
 -1       659-2.56022E+04-6.46721E+05-5.22027E+04 6.87904E+04-1.17598E-08-3.48427E-09
 -1       660 1.81977E+04-6.20346E+05-6.92649E+04 1.25335E+04-5.59157E-09 3.57886E-10
 -1       661 3.70640E+05 5.06476E+04 2.96895E+04 1.45743E+05-8.68795E-09-1.13650E-08
 -1       662 3.77113E+05 6.95585E+04 1.81194E+04 1.50083E+05-1.34030E-08-1.69202E-08
 -1       663 3.75361E+05 5.57769E+04 6.98580E+03 1.45548E+05-1.57750E-09 2.32058E-09
 -1       664 3.71629E+05 6.19376E+04 3.72720E+03 1.51029E+05-4.71846E-09 8.98126E-10
 -1       665 3.75835E+05 5.62665E+04 1.63430E+03 1.45549E+05-1.03700E-08 1.56206E-09
 -1       666 3.71078E+05 6.12577E+04 8.74565E+02 1.51079E+05-3.25380E-09-7.49992E-09
 -1       667 3.75890E+05 5.63136E+04 5.05544E+02 1.45551E+05-1.03410E-08 3.43610E-09
 -1       668 3.71024E+05 6.12141E+04 4.85237E+02 1.51091E+05-2.07111E-08 9.70488E-09
 -1       669 3.75892E+05 5.63007E+04 7.03352E+02 1.45543E+05 1.08175E-08-3.60228E-09
 -1       670 3.71112E+05 6.13308E+04 1.41372E+03 1.51120E+05 2.15958E-08 4.33425E-09
 -1       671 3.75813E+05 5.62010E+04 2.74741E+03 1.45525E+05 6.62294E-09 2.90402E-09
 -1       672 3.72036E+05 6.25143E+04 6.33431E+03 1.51070E+05 6.16637E-09-2.33706E-09
 -1       673 3.75017E+05 5.53527E+04 1.18928E+04 1.45511E+05-1.16404E-09-1.73986E-09
 -1       674 3.81374E+05 7.55164E+04 3.08729E+04 1.49481E+05 3.92589E-09 2.15005E-09
 -1       675 3.66977E+05 4.66071E+04 5.05883E+04 1.45840E+05 1.77852E-09-4.48563E-09
 -1       676 6.53479E+01-4.80678E+05-2.52206E+03 2.70326E+02 1.30052E-08 1.10797E-08
 -1       677-7.74735E+02-4.81356E+05-4.65243E+03-5.39728E+02 9.96010E-09 9.80887E-09
 -1       678 5.51999E+02-4.80213E+05-8.14488E+03 2.69193E+02 1.42973E-08 1.69514E-09
 -1       679-8.75101E+03-4.86381E+05-1.95566E+04-5.37324E+02 3.01588E-09-6.21699E-09
 -1       680 5.78707E+03-4.75657E+05-3.10964E+04 2.64868E+02 1.43955E-08 1.29097E-09
 -1       771-3.24779E+06-6.13252E+05-8.35483E+04-1.37956E+06-4.38740E-09-2.25555E-09
 -1       772-3.23522E+06-6.27158E+05-4.19704E+04-1.42128E+06-1.19690E-09 1.63709E-10
 -1       773-3.25443E+06-5.89022E+05-1.80563E+04-1.39066E+06 3.33966E-09 1.70621E-09
 -1       774-3.22599E+06-6.17682E+05-8.78788E+03-1.42483E+06 3.43789E-09 0.00000E+00
 -1       775-3.25642E+06-5.87380E+05-4.20467E+03-1.39156E+06-1.81899E-10 2.31921E-09
 -1       776-3.22624E+06-6.17237E+05-2.07237E+03-1.42628E+06-1.58616E-09 2.31057E-09
 -1       777-3.25769E+06-5.86669E+05-1.19399E+03-1.39200E+06-4.36557E-10-1.93268E-10
 -1       778-3.22689E+06-6.17102E+05-8.71468E+02-1.42734E+06 1.38243E-10 6.73538E-10
 -1       779-3.25851E+06-5.86129E+05-1.11780E+03-1.39231E+06-1.19690E-09 1.86446E-11
 -1       780-3.22743E+06-6.17014E+05-1.99093E+03-1.42805E+06-2.86127E-09-3.31784E-09
 -1       781-3.25888E+06-5.85765E+05-3.95258E+03-1.39248E+06-8.20364E-10-3.08319E-10
 -1       782-3.22827E+06-6.17323E+05-8.56790E+03-1.42840E+06 3.69801E-09 3.75439E-09
 -1       783-3.25848E+06-5.86306E+05-1.74778E+04-1.39210E+06-1.58047E-09-1.09867E-09
 -1       784-3.23775E+06-6.27353E+05-4.12594E+04-1.42736E+06-4.75779E-09-9.31686E-09
 -1       785-3.25375E+06-6.08871E+05-8.18679E+04-1.38095E+06 1.53341E-09 1.06957E-09
 -1       786 2.94777E+05-1.01795E+04 3.73130E+04-1.40622E+03 5.91172E-11-3.02498E-09
 -1       787 3.08758E+05 1.29618E+04 2.43752E+04-8.48316E+03 4.80270E-10 4.61887E-09
 -1       788 3.00542E+05-1.13941E+03 9.68852E+03-1.41797E+03-5.27166E-10 2.33740E-09
 -1       789 3.02278E+05 1.41354E+03 5.51139E+03-8.45481E+03 1.30967E-09-2.28101E-09
 -1       790 3.01249E+05-1.30271E+02 2.46665E+03-1.43388E+03-2.90186E-10-4.06351E-09
 -1       791 3.01472E+05 1.52668E+02 1.33801E+03-8.43315E+03-7.55449E-11 1.41176E-09
 -1       792 3.01343E+05-1.62414E+01 6.75943E+02-1.43962E+03 1.61331E-10 5.92593E-11
 -1       793 3.01369E+05 2.16289E+01 4.46654E+02-8.43250E+03 5.72413E-11-2.04898E-09
 -1       794 3.01353E+05-8.69765E+00 4.01762E+02-1.43453E+03-3.06954E-11 1.30230E-09
 -1       795 3.01400E+05 6.11211E+01 6.08035E+02-8.45387E+03 5.36090E-10-8.03521E-09
 -1       796 3.01317E+05-5.46738E+01 1.03119E+03-1.41825E+03-6.11976E-10-8.13986E-09
 -1       797 3.01730E+05 5.68760E+02 2.25116E+03-8.49511E+03-1.46144E-10-9.89419E-09
 -1       798 3.01032E+05-4.65390E+02 3.93434E+03-1.39329E+03 2.72212E-09-1.69666E-09
 -1       799 3.04366E+05 5.24808E+03 9.88733E+03-8.53769E+03 1.02000E-09-3.61217E-09
 -1       800 2.98694E+05-4.13360E+03 1.51254E+04-1.37608E+03 3.33330E-09-8.40373E-10
 -1       801-2.77929E+04 4.30446E+05 5.19801E+04-3.23246E+05 1.73168E-08-1.45519E-08
 -1       802 7.59809E+04 4.41222E+05 7.99940E+04-1.84223E+06 5.07061E-08-6.87032E-09
 -1       803 5.55893E+02 4.25263E+05 9.41998E+04-3.23276E+05 3.13230E-08 1.66599E-08
 -1       804 1.56920E+05 4.88795E+05 2.14805E+05-1.84195E+06 5.09899E-08 1.90503E-08
 -1       805-9.95441E+04 3.85092E+05 3.01708E+05-3.23601E+05 1.58907E-08 1.86119E-08
 -1       806-2.86653E+05-8.53693E+04-2.51630E+04-1.44636E+05 7.04404E-10 2.11548E-09
 -1       807-2.85765E+05-8.06349E+04-1.19964E+04-1.53586E+05-5.16593E-10-1.80421E-09
 -1       808-2.86702E+05-7.30892E+04-5.05360E+03-1.49842E+05-1.13232E-09-2.53794E-09
 -1       809-2.83239E+05-7.63962E+04-2.44632E+03-1.54541E+05 1.72781E-09 5.78058E-09
 -1       810-2.86788E+05-7.23305E+04-1.10662E+03-1.50190E+05-9.43146E-10-2.52771E-09
 -1       811-2.83006E+05-7.61435E+04-5.47027E+02-1.54573E+05-1.40517E-10 4.15275E-09
 -1       812-2.86810E+05-7.23195E+04-2.71018E+02-1.50203E+05 2.60147E-09 8.31506E-09
 -1       813-2.82975E+05-7.61427E+04-1.70370E+02-1.54561E+05-3.65151E-09-1.32304E-08
 -1       814-2.86803E+05-7.23311E+04-1.58803E+02-1.50195E+05-1.26602E-09 3.82033E-09
 -1       815-2.82970E+05-7.61530E+04-2.49008E+02-1.54549E+05-4.12683E-10 1.34196E-08
 -1       816-2.86773E+05-7.23496E+04-4.67874E+02-1.50179E+05 9.18590E-11 9.88894E-09
 -1       817-2.83056E+05-7.62538E+04-1.01550E+03-1.54502E+05-3.23780E-10 7.17591E-10
 -1       818-2.86702E+05-7.26907E+04-2.09120E+03-1.50034E+05 1.99634E-09-1.90994E-10
 -1       819-2.84190E+05-7.78923E+04-4.95559E+03-1.53947E+05 1.81899E-09 7.30142E-09
 -1       820-2.86540E+05-7.78760E+04-1.03945E+04-1.47991E+05-2.97950E-09-2.98587E-09
 -1       821-3.84801E+05 1.31048E+04-4.80690E+04 1.50188E+03-4.36967E-09 4.60204E-10
 -1       822-4.02773E+05-1.66976E+04-3.14002E+04 1.01624E+04-3.11127E-09-1.37152E-09
 -1       823-3.92230E+05 1.46144E+03-1.24886E+04 1.39278E+03 4.37376E-09-1.96542E-09
 -1       824-3.94458E+05-1.80278E+03-7.10815E+03 1.03324E+04-1.02830E-09-2.54624E-09
 -1       825-3.93141E+05 1.67371E+02-3.20332E+03 1.33071E+03-7.91738E-09-1.33105E-09
 -1       826-3.93446E+05-1.69356E+02-1.77317E+03 1.04359E+04-1.21186E-08 6.97838E-10
 -1       827-3.93262E+05 2.54704E+01-9.72249E+02 1.28905E+03-7.27846E-09 2.98456E-09
 -1       828-3.93336E+05-5.39409E+00-7.85399E+02 1.05007E+04-8.57244E-09-1.40604E-09
 -1       829-3.93264E+05 2.59644E+01-9.25261E+02 1.26581E+03-8.16271E-10-5.00627E-10
 -1       830-3.93450E+05-1.47544E+02-1.65095E+03 1.05274E+04 6.99910E-09-1.03711E-10
 -1       831-3.93154E+05 1.59895E+02-2.95911E+03 1.26232E+03-5.26759E-09-1.92949E-09
 -1       832-3.94398E+05-1.64791E+03-6.56033E+03 1.05151E+04 2.88526E-09-5.15274E-09
 -1       833-3.92315E+05 1.35653E+03-1.15152E+04 1.27847E+03-2.55363E-09-5.76665E-09
 -1       834-4.02080E+05-1.53801E+04-2.89611E+04 1.04541E+04 2.41056E-09-7.46059E-09
 -1       835-3.85465E+05 1.20980E+04-4.43255E+04 1.32573E+03-1.03682E-10-6.10271E-09
 -1       836-2.69183E+03 5.67215E+05 4.50979E+04-3.73262E+04 3.74530E-09 2.82489E-09
 -1       837 9.83061E+03 5.81126E+05 3.45036E+04-7.46785E+04 5.21675E-09-9.93850E-10
 -1       838-6.98655E+02 5.71852E+05 3.00175E+04-3.72323E+04 4.42651E-09 6.65307E-09
 -1       839 1.70528E+04 5.86530E+05 5.17306E+04-7.46818E+04 5.66070E-09-3.31590E-09
 -1       840-5.03225E+03 5.61789E+05 8.02390E+04-3.73194E+04 3.41970E-09-6.26778E-09
 -1       856-3.14803E+05 6.00888E+03-3.85671E+04 9.48539E+03-6.05814E-09 2.25555E-10
 -1       857-3.27771E+05-1.00013E+04-2.38647E+04 2.58991E+04-7.36100E-09-6.95036E-09
 -1       858-3.20371E+05 5.70445E+02-9.93613E+03 9.35234E+03-8.12906E-09 2.52840E-09
 -1       859-3.21740E+05-7.18236E+02-5.39139E+03 2.60625E+04-3.50701E-09-1.00295E-08
 -1       860-3.20935E+05 9.59907E+01-2.51205E+03 9.31742E+03 4.21505E-09-7.35236E-09
 -1       861-3.21162E+05 5.56132E+01-1.32466E+03 2.61107E+04-6.10908E-09-6.74186E-09
 -1       862-3.21010E+05 5.43130E+01-6.86872E+02 9.30341E+03 1.10817E-08-4.95561E-09
 -1       863-3.21101E+05 1.19815E+02-4.51145E+02 2.61243E+04 2.26220E-08-7.98013E-09
 -1       864-3.21016E+05 5.02032E+01-4.18568E+02 9.30373E+03 9.67327E-09-5.00654E-09
 -1       865-3.21108E+05 9.23586E+01-6.27157E+02 2.61081E+04 1.54447E-08-1.11298E-08
 -1       866-3.20981E+05 6.15514E+01-1.10155E+03 9.31968E+03-4.95675E-11-6.18351E-09
 -1       867-3.21328E+05-2.47024E+02-2.30878E+03 2.60586E+04-2.94676E-09-7.62871E-09
 -1       868-3.20732E+05 2.52682E+02-4.23962E+03 9.35370E+03-1.04819E-09-3.85171E-10
 -1       869-3.23854E+05-4.21123E+03-1.01552E+04 2.58900E+04-1.44496E-08-5.61602E-09
 -1       870-3.18350E+05 2.54954E+03-1.64210E+04 9.49034E+03-5.12955E-10-3.06500E-09
 -1       871-5.80193E+03-4.73785E+04-1.34969E+04 1.67149E+05-9.69521E-10-9.12587E-09
 -1       872-2.20976E+03-5.01730E+04-4.56967E+03 2.06226E+05-3.28328E-10-1.54141E-08
 -1       873-1.85152E+02-4.91244E+04 2.73384E+03 1.66806E+05 7.73070E-11-9.69931E-09
 -1       874 3.04951E+03-4.62353E+04 1.20498E+04 2.06332E+05-7.99446E-10 3.28555E-09
 -1       875 9.33123E+03-5.15535E+04 2.58488E+04 1.67070E+05-2.82307E-09-1.12323E-09
 -1       876 4.69462E+05 7.00794E+04 4.06568E+04 1.87880E+05-1.37175E-09-7.94535E-09
 -1       877 4.76075E+05 9.12182E+04 2.38549E+04 1.96040E+05 3.97449E-09 3.33375E-09
 -1       878 4.75230E+05 7.41675E+04 9.47917E+03 1.88540E+05-5.32964E-10-6.86441E-09
 -1       879 4.69178E+05 8.25315E+04 4.90933E+03 1.96869E+05 5.75710E-10-3.05772E-09
 -1       880 4.75712E+05 7.45514E+04 2.19777E+03 1.88616E+05-9.61290E-09 1.45690E-09
 -1       881 4.68593E+05 8.18819E+04 1.14679E+03 1.96840E+05-2.13187E-08 3.23689E-09
 -1       882 4.75751E+05 7.46072E+04 6.45650E+02 1.88633E+05-9.41259E-09-2.05250E-09
 -1       883 4.68546E+05 8.18281E+04 5.72729E+02 1.96812E+05-1.30575E-08 6.71122E-09
 -1       884 4.75742E+05 7.46098E+04 7.92253E+02 1.88635E+05 9.46306E-09 8.58404E-09
 -1       885 4.68630E+05 8.18893E+04 1.53827E+03 1.96823E+05 1.02911E-08 5.94753E-10
 -1       886 4.75668E+05 7.45483E+04 3.02211E+03 1.88621E+05-7.68364E-09-6.63545E-09
 -1       887 4.69453E+05 8.27715E+04 6.78700E+03 1.96828E+05 1.35202E-08 1.30831E-09
 -1       888 4.74980E+05 7.40335E+04 1.31235E+04 1.88523E+05 6.38136E-09-5.40240E-10
 -1       889 4.78980E+05 9.48142E+04 3.30293E+04 1.95678E+05-8.42493E-09-2.02863E-09
 -1       890 4.67005E+05 6.83603E+04 5.63027E+04 1.87578E+05 2.03818E-09-2.49565E-09
 -1       891 3.68089E+02-2.23753E+05-8.25990E+03 5.00041E+04 1.01591E-09 1.11231E-09
 -1       892-1.97942E+03-2.26208E+05-6.22751E+03 1.00616E+05 3.46063E-09 4.79531E-10
 -1       893 2.80762E+01-2.24648E+05-5.30371E+03 4.98826E+04 8.85029E-09 2.14550E-09
 -1       894-3.17776E+03-2.27005E+05-9.00740E+03 1.00545E+05 2.53476E-09 4.39968E-09
 -1       895 6.85597E+02-2.22812E+05-1.39443E+04 5.00732E+04 2.45518E-09 8.50832E-09
 -1       956-4.35718E+05-8.04231E+03-1.87632E+04 5.08867E+04-4.28736E-09 2.65118E-09
 -1       957-4.39336E+05-2.58822E+03-9.56061E+03 6.03988E+04-1.99452E-09-1.72622E-09
 -1       958-4.37390E+05-2.08682E+02-4.30866E+03 5.05716E+04 5.07498E-09-2.46973E-09
 -1       959-4.37732E+05 3.76785E+01-2.19393E+03 6.07419E+04-5.58794E-09 1.27557E-09
 -1       960-4.37597E+05 1.38713E+02-1.06722E+03 5.05381E+04-9.38962E-09-1.27329E-09
 -1       961-4.37660E+05 1.72921E+02-5.58325E+02 6.07804E+04-1.59580E-08 4.65070E-09
 -1       962-4.37665E+05 1.56739E+02-3.08147E+02 5.05320E+04-8.04266E-09 2.33331E-09
 -1       963-4.37687E+05 1.93263E+02-2.25515E+02 6.07883E+04-9.65360E-09 2.86946E-10
 -1       964-4.37691E+05 1.69954E+02-2.48544E+02 5.05298E+04-1.83718E-09 1.13232E-09
 -1       965-4.37711E+05 2.02653E+02-4.08448E+02 6.07887E+04 9.03653E-09 1.28880E-08
 -1       966-4.37677E+05 1.78038E+02-7.56240E+02 5.05316E+04-4.97266E-09-3.50883E-09
 -1       967-4.37797E+05 1.27037E+02-1.54676E+03 6.07677E+04 1.73031E-10-1.14414E-09
 -1       968-4.37558E+05-5.01572E+01-3.03066E+03 5.05513E+04-2.86491E-10-5.98811E-09
 -1       969-4.38953E+05-1.70891E+03-6.72965E+03 6.05559E+04 2.09002E-09-4.41605E-09
 -1       970-4.36395E+05-5.55878E+03-1.32045E+04 5.07519E+04 3.07318E-09-4.90036E-09
 -1       971-5.73388E+05 1.62498E+03-2.53082E+04 1.39092E+04-8.71296E-09 2.00998E-10
 -1       972-5.81163E+05-5.21796E+03-1.50598E+04 2.86458E+04-8.95716E-09-4.89899E-09
 -1       973-5.76834E+05 1.86460E+02-6.45743E+03 1.37133E+04-1.10640E-08 9.53605E-10
 -1       974-5.77536E+05-2.37819E+02-3.43221E+03 2.88865E+04-7.63885E-09-4.42014E-10
 -1       975-5.77151E+05 7.20693E+01-1.65880E+03 1.36644E+04-2.55386E-09-3.90560E-09
 -1       976-5.77264E+05 1.05328E+02-9.17742E+02 2.89591E+04-6.88306E-09 2.44745E-09
 -1       977-5.77200E+05 6.91722E+01-5.84939E+02 1.36400E+04 6.85486E-09-3.61706E-09
 -1       978-5.77262E+05 1.35488E+02-5.79237E+02 2.89917E+04 2.72486E-08-6.88601E-09
 -1       979-5.77201E+05 7.77675E+01-8.39844E+02 1.36316E+04 1.36854E-08-7.08815E-09
 -1       980-5.77332E+05 1.01082E+02-1.57708E+03 2.89917E+04 1.39231E-08-3.27327E-09
 -1       981-5.77132E+05 1.08766E+02-3.00401E+03 1.36401E+04 1.24373E-10-1.88919E-09
 -1       982-5.77908E+05-5.00938E+02-6.32417E+03 2.89550E+04-6.72594E-09-4.74358E-10
 -1       983-5.76581E+05 3.52845E+02-1.19261E+04 1.36693E+04 7.05222E-09-2.86627E-09
 -1       984-5.84715E+05-9.68382E+03-2.78773E+04 2.87853E+04 1.34150E-10-4.30123E-09
 -1       985-5.70238E+05 3.05825E+03-4.68262E+04 1.38197E+04 1.05429E-08-2.03363E-09
 -3
 9999
