
 stresses (elem, integ.pnt.,sxx,syy,szz,sxy,sxz,syz) for set ELALL and time  0.1000000E+01

         1   1  2.865635E+06  1.052734E+07  2.713464E+06 -2.021677E+06  1.312968E+05  1.038991E+06
         1   2  2.322797E+06  8.976317E+06  1.828697E+06 -1.868766E+06  4.434435E+05  4.746529E+05
         1   3  1.926846E+06  7.541317E+06  1.345414E+06 -1.953178E+06  5.191972E+05 -8.786352E+04
         1   4  1.054912E+05 -7.349195E+05  1.092810E+05 -1.918592E+06  1.350074E+05  7.058511E+04
         1   5  3.454762E+04 -7.415163E+05  5.873288E+04 -1.800171E+06  4.461266E+05  4.286643E+04
         1   6  1.929349E+04 -7.255666E+05  4.092491E+04 -1.919050E+06  5.192058E+05  1.543173E+04
         1   7 -2.663004E+06 -1.187918E+07 -2.499909E+06 -1.817104E+06  1.384551E+05 -8.806130E+05
         1   8 -2.258904E+06 -1.036797E+07 -1.714349E+06 -1.732446E+06  4.487466E+05 -3.824194E+05
         1   9 -1.891630E+06 -8.924866E+06 -1.265239E+06 -1.885197E+06  5.192253E+05  1.174135E+05
         1  10  2.865332E+06  1.052619E+07  2.711434E+06 -2.021787E+06  2.545727E-09  6.836173E-08
         1  11  2.322526E+06  8.976024E+06  1.827907E+06 -1.868935E+06  1.101850E-08  3.619121E-08
         1  12  1.926554E+06  7.541236E+06  1.344894E+06 -1.953141E+06  5.478758E-09 -8.377309E-10
         1  13  1.054703E+05 -7.349298E+05  1.092372E+05 -1.918599E+06  6.690100E-10 -6.411859E-11
         1  14  3.433341E+04 -7.415717E+05  5.835530E+04 -1.800186E+06 -7.368144E-09  8.231072E-11
         1  15  1.900402E+04 -7.256392E+05  4.041795E+04 -1.919056E+06 -8.106691E-09 -7.810629E-11
         1  16 -2.663237E+06 -1.188003E+07 -2.501429E+06 -1.817005E+06  8.864772E-10 -6.723457E-08
         1  17 -2.259159E+06 -1.036818E+07 -1.715004E+06 -1.732307E+06  5.772018E-09 -3.557590E-08
         1  18 -1.891924E+06 -8.924953E+06 -1.265773E+06 -1.885246E+06  5.554213E-09  1.119738E-09
         1  19  2.865635E+06  1.052734E+07  2.713464E+06 -2.021677E+06 -1.312968E+05 -1.038991E+06
         1  20  2.322797E+06  8.976317E+06  1.828697E+06 -1.868766E+06 -4.434435E+05 -4.746529E+05
         1  21  1.926846E+06  7.541317E+06  1.345414E+06 -1.953178E+06 -5.191972E+05  8.786352E+04
         1  22  1.054912E+05 -7.349195E+05  1.092810E+05 -1.918592E+06 -1.350074E+05 -7.058511E+04
         1  23  3.454762E+04 -7.415163E+05  5.873288E+04 -1.800171E+06 -4.461266E+05 -4.286643E+04
         1  24  1.929349E+04 -7.255666E+05  4.092491E+04 -1.919050E+06 -5.192058E+05 -1.543173E+04
         1  25 -2.663004E+06 -1.187918E+07 -2.499909E+06 -1.817104E+06 -1.384551E+05  8.806130E+05
         1  26 -2.258904E+06 -1.036797E+07 -1.714349E+06 -1.732446E+06 -4.487466E+05  3.824194E+05
         1  27 -1.891630E+06 -8.924866E+06 -1.265239E+06 -1.885197E+06 -5.192253E+05 -1.174135E+05
         2   1  1.704485E+06  6.593752E+06  1.160185E+06 -1.960388E+06  4.827418E+05 -1.027383E+05
         2   2  1.352871E+06  5.092792E+06  8.832300E+05 -1.821010E+06  4.189037E+05 -1.889900E+05
         2   3  1.029216E+06  3.611899E+06  6.689735E+05 -1.936328E+06  3.254442E+05 -2.754375E+05
         2   4  2.084290E+04 -7.264957E+05  3.710792E+04 -1.922943E+06  4.825212E+05  8.940198E+03
         2   5  2.310258E+04 -7.267731E+05  3.882695E+04 -1.795489E+06  4.179454E+05 -1.058119E+04
         2   6  4.197252E+04 -7.206510E+05  5.721207E+04 -1.922868E+06  3.236037E+05 -3.049217E+04
         2   7 -1.665375E+06 -7.993458E+06 -1.087111E+06 -1.885794E+06  4.823118E+05  1.193626E+05
         2   8 -1.308203E+06 -6.512279E+06 -8.060161E+05 -1.770112E+06  4.169951E+05  1.662357E+05
         2   9 -9.460803E+05 -5.034131E+06 -5.545831E+05 -1.909442E+06  3.217645E+05  2.128258E+05
         2  10  1.704232E+06  6.593678E+06  1.159728E+06 -1.960348E+06 -8.100909E-11 -2.181661E-09
         2  11  1.352673E+06  5.092707E+06  8.828347E+05 -1.820947E+06  1.176609E-08 -3.809091E-08
         2  12  1.029082E+06  3.611790E+06  6.686340E+05 -1.936256E+06  5.766671E-09 -7.166877E-08
         2  13  2.059294E+04 -7.265582E+05  3.667034E+04 -1.922947E+06 -1.258714E-08 -1.293289E-10
         2  14  2.291507E+04 -7.268201E+05  3.849867E+04 -1.795485E+06 -1.185758E-08  2.114422E-10
         2  15  4.185992E+04 -7.206801E+05  5.701376E+04 -1.922860E+06  3.801885E-09 -3.232170E-10
         2  16 -1.665629E+06 -7.993536E+06 -1.087576E+06 -1.885841E+06  1.025128E-09  2.395955E-09
         2  17 -1.308398E+06 -6.512356E+06 -8.063960E+05 -1.770168E+06  5.820547E-09  3.835795E-08
         2  18 -9.462040E+05 -5.034208E+06 -5.548643E+05 -1.909497E+06 -3.394269E-10  7.086594E-08
         2  19  1.704485E+06  6.593752E+06  1.160185E+06 -1.960388E+06 -4.827418E+05  1.027383E+05
         2  20  1.352871E+06  5.092792E+06  8.832300E+05 -1.821010E+06 -4.189037E+05  1.889900E+05
         2  21  1.029216E+06  3.611899E+06  6.689735E+05 -1.936328E+06 -3.254442E+05  2.754375E+05
         2  22  2.084290E+04 -7.264957E+05  3.710792E+04 -1.922943E+06 -4.825212E+05 -8.940198E+03
         2  23  2.310258E+04 -7.267731E+05  3.882695E+04 -1.795489E+06 -4.179454E+05  1.058119E+04
         2  24  4.197252E+04 -7.206510E+05  5.721207E+04 -1.922868E+06 -3.236037E+05  3.049217E+04
         2  25 -1.665375E+06 -7.993458E+06 -1.087111E+06 -1.885794E+06 -4.823118E+05 -1.193626E+05
         2  26 -1.308203E+06 -6.512279E+06 -8.060161E+05 -1.770112E+06 -4.169951E+05 -1.662357E+05
         2  27 -9.460803E+05 -5.034131E+06 -5.545831E+05 -1.909442E+06 -3.217645E+05 -2.128258E+05
         3   1  8.244367E+05  2.688860E+06  5.467707E+05 -1.938719E+06  2.607383E+05 -2.865430E+05
         3   2  5.369345E+05  1.184521E+06  3.907306E+05 -1.724959E+06  1.503276E+05 -3.572384E+05
         3   3  3.559796E+05 -2.845865E+05  3.064883E+05 -1.768003E+06  3.743226E+04 -4.279218E+05
         3   4  4.985686E+04 -7.136514E+05  7.231561E+04 -1.923370E+06  2.587268E+05 -4.072595E+04
         3   5  1.031819E+05 -7.285741E+05  1.265436E+05 -1.794296E+06  1.481747E+05 -1.060576E+05
         3   6  2.622557E+05 -7.116299E+05  2.486665E+05 -1.921871E+06  3.515443E+04 -1.715207E+05
         3   7 -7.252042E+05 -4.104319E+06 -4.020578E+05 -1.908070E+06  2.567195E+05  2.038081E+05
         3   8 -3.306765E+05 -2.637806E+06 -1.374453E+05 -1.863399E+06  1.459612E+05  1.443851E+05
         3   9  1.686501E+05 -1.138294E+06  1.911033E+05 -2.075629E+06  3.274831E+04  8.471214E+04
         3  10  8.243421E+05  2.688754E+06  5.464904E+05 -1.938659E+06 -2.601435E-11 -4.517338E-09
         3  11  5.368763E+05  1.184379E+06  3.904495E+05 -1.724916E+06 -4.045313E-09 -6.582206E-09
         3  12  3.559290E+05 -2.847835E+05  3.061416E+05 -1.767990E+06  2.818222E-09 -9.918021E-09
         3  13  4.978462E+04 -7.136711E+05  7.218691E+04 -1.923362E+06  8.443756E-09 -3.269888E-10
         3  14  1.031554E+05 -7.285920E+05  1.264814E+05 -1.794283E+06  1.033978E-08 -4.121448E-10
         3  15  2.622465E+05 -7.116618E+05  2.486089E+05 -1.921866E+06  2.882790E-09  8.120107E-11
         3  16 -7.252864E+05 -4.104382E+06 -4.022610E+05 -1.908112E+06  6.101109E-09  4.272852E-09
         3  17 -3.307051E+05 -2.637834E+06 -1.375249E+05 -1.863416E+06  6.792337E-09  6.698331E-09
         3  18  1.686470E+05 -1.138302E+06  1.910877E+05 -2.075632E+06  1.258576E-09  9.498949E-09
         3  19  8.244367E+05  2.688860E+06  5.467707E+05 -1.938719E+06 -2.607383E+05  2.865430E+05
         3  20  5.369345E+05  1.184521E+06  3.907306E+05 -1.724959E+06 -1.503276E+05  3.572384E+05
         3  21  3.559796E+05 -2.845865E+05  3.064883E+05 -1.768003E+06 -3.743226E+04  4.279218E+05
         3  22  4.985686E+04 -7.136514E+05  7.231561E+04 -1.923370E+06 -2.587268E+05  4.072595E+04
         3  23  1.031819E+05 -7.285741E+05  1.265436E+05 -1.794296E+06 -1.481747E+05  1.060576E+05
         3  24  2.622557E+05 -7.116299E+05  2.486665E+05 -1.921871E+06 -3.515443E+04  1.715207E+05
         3  25 -7.252042E+05 -4.104319E+06 -4.020578E+05 -1.908070E+06 -2.567195E+05 -2.038081E+05
         3  26 -3.306765E+05 -2.637806E+06 -1.374453E+05 -1.863399E+06 -1.459612E+05 -1.443851E+05
         3  27  1.686501E+05 -1.138294E+06  1.911033E+05 -2.075629E+06 -3.274831E+04 -8.471214E+04
         4   1 -1.276313E+07 -3.861149E+06 -2.739123E+06 -4.258542E+06 -1.612450E+06 -5.996334E+05
         4   2 -1.219686E+07 -1.418794E+06 -1.183485E+06 -4.665613E+06 -1.037726E+06 -3.793734E+05
         4   3 -1.245431E+07 -1.798240E+06 -7.727073E+05 -4.660726E+06 -4.589311E+05 -1.698451E+05
         4   4 -1.225350E+07 -3.502384E+06 -2.563336E+06 -3.951837E+06 -1.612048E+06 -6.000332E+05
         4   5 -1.171032E+07 -1.192616E+06 -1.039750E+06 -4.491819E+06 -1.038337E+06 -3.796913E+05
         4   6 -1.198971E+07 -1.703172E+06 -6.593844E+05 -4.620093E+06 -4.605777E+05 -1.703792E+05
         4   7 -1.174353E+07 -3.143341E+06 -2.387569E+06 -3.644836E+06 -1.611645E+06 -6.004320E+05
         4   8 -1.122353E+07 -9.663867E+05 -8.960382E+05 -4.317887E+06 -1.038948E+06 -3.800092E+05
         4   9 -1.152489E+07 -1.608108E+06 -5.460725E+05 -4.579449E+06 -4.622256E+05 -1.709134E+05
         4  10 -1.276607E+07 -3.862261E+06 -2.744815E+06 -4.259333E+06 -3.499127E-10  1.032913E-09
         4  11 -1.219808E+07 -1.419249E+06 -1.185833E+06 -4.665935E+06  1.243049E-11  5.044494E-09
         4  12 -1.245455E+07 -1.798330E+06 -7.731679E+05 -4.660790E+06  7.860377E-09 -2.824478E-09
         4  13 -1.225644E+07 -3.503494E+06 -2.569021E+06 -3.952628E+06  3.767913E-09  2.375077E-10
         4  14 -1.171153E+07 -1.193071E+06 -1.042098E+06 -4.492141E+06  6.047467E-09  1.704006E-09
         4  15 -1.198995E+07 -1.703262E+06 -6.598479E+05 -4.620157E+06 -6.997501E-09 -1.118616E-09
         4  16 -1.174647E+07 -3.144450E+06 -2.393246E+06 -3.645626E+06  2.149732E-09  9.987667E-10
         4  17 -1.122475E+07 -9.668420E+05 -8.983875E+05 -4.318209E+06  3.031102E-09  2.447674E-09
         4  18 -1.152513E+07 -1.608199E+06 -5.465390E+05 -4.579513E+06  3.051029E-11 -1.158085E-09
         4  19 -1.276313E+07 -3.861149E+06 -2.739123E+06 -4.258542E+06  1.612450E+06  5.996334E+05
         4  20 -1.219686E+07 -1.418794E+06 -1.183485E+06 -4.665613E+06  1.037726E+06  3.793734E+05
         4  21 -1.245431E+07 -1.798240E+06 -7.727073E+05 -4.660726E+06  4.589311E+05  1.698451E+05
         4  22 -1.225350E+07 -3.502384E+06 -2.563336E+06 -3.951837E+06  1.612048E+06  6.000332E+05
         4  23 -1.171032E+07 -1.192616E+06 -1.039750E+06 -4.491819E+06  1.038337E+06  3.796913E+05
         4  24 -1.198971E+07 -1.703172E+06 -6.593844E+05 -4.620093E+06  4.605777E+05  1.703792E+05
         4  25 -1.174353E+07 -3.143341E+06 -2.387569E+06 -3.644836E+06  1.611645E+06  6.004320E+05
         4  26 -1.122353E+07 -9.663867E+05 -8.960382E+05 -4.317887E+06  1.038948E+06  3.800092E+05
         4  27 -1.152489E+07 -1.608108E+06 -5.460725E+05 -4.579449E+06  4.622256E+05  1.709134E+05
         5   1 -1.098029E+07 -1.650740E+06 -2.845833E+05 -4.197279E+06 -3.582792E+05 -1.397872E+05
         5   2 -1.090230E+07 -1.217840E+06  3.134421E+04 -4.194392E+06 -2.275188E+05 -9.752135E+04
         5   3 -1.084659E+07 -1.301936E+06  1.466506E+05 -4.230561E+06 -9.958501E+04 -4.762126E+04
         5   4 -1.192570E+07 -1.984447E+06 -5.429028E+05 -4.425713E+06 -3.590886E+05 -1.401068E+05
         5   5 -1.189460E+07 -1.589464E+06 -2.436198E+05 -4.456511E+06 -2.275082E+05 -9.752155E+04
         5   6 -1.188617E+07 -1.712053E+06 -1.458517E+05 -4.526316E+06 -9.876722E+04 -4.731104E+04
         5   7 -1.287023E+07 -2.318136E+06 -8.013030E+05 -4.653840E+06 -3.598961E+05 -1.404260E+05
         5   8 -1.288593E+07 -1.961040E+06 -5.186756E+05 -4.718246E+06 -2.274974E+05 -9.752166E+04
         5   9 -1.292469E+07 -2.122088E+06 -4.384574E+05 -4.821607E+06 -9.795081E+04 -4.700139E+04
         5  10 -1.098044E+07 -1.650796E+06 -2.848669E+05 -4.197320E+06  2.367554E-09 -1.399299E-09
         5  11 -1.090236E+07 -1.217865E+06  3.122670E+04 -4.194410E+06 -4.116541E-09 -9.875236E-10
         5  12 -1.084660E+07 -1.301941E+06  1.466272E+05 -4.230565E+06 -3.807268E-09 -4.398792E-09
         5  13 -1.192584E+07 -1.984504E+06 -5.431883E+05 -4.425754E+06 -6.817979E-09 -2.187571E-09
         5  14 -1.189466E+07 -1.589489E+06 -2.437375E+05 -4.456529E+06  1.222038E-08 -2.748540E-09
         5  15 -1.188618E+07 -1.712058E+06 -1.458747E+05 -4.526320E+06 -6.389809E-09  7.930298E-10
         5  16 -1.287038E+07 -2.318193E+06 -8.015902E+05 -4.653881E+06 -7.629655E-10 -1.852111E-09
         5  17 -1.288599E+07 -1.961064E+06 -5.187935E+05 -4.718264E+06  2.690775E-09 -5.326671E-09
         5  18 -1.292470E+07 -2.122093E+06 -4.384801E+05 -4.821611E+06 -1.862903E-09  4.922296E-09
         5  19 -1.098029E+07 -1.650740E+06 -2.845833E+05 -4.197279E+06  3.582792E+05  1.397872E+05
         5  20 -1.090230E+07 -1.217840E+06  3.134421E+04 -4.194392E+06  2.275188E+05  9.752135E+04
         5  21 -1.084659E+07 -1.301936E+06  1.466506E+05 -4.230561E+06  9.958501E+04  4.762126E+04
         5  22 -1.192570E+07 -1.984447E+06 -5.429028E+05 -4.425713E+06  3.590886E+05  1.401068E+05
         5  23 -1.189460E+07 -1.589464E+06 -2.436198E+05 -4.456511E+06  2.275082E+05  9.752155E+04
         5  24 -1.188617E+07 -1.712053E+06 -1.458517E+05 -4.526316E+06  9.876722E+04  4.731104E+04
         5  25 -1.287023E+07 -2.318136E+06 -8.013030E+05 -4.653840E+06  3.598961E+05  1.404260E+05
         5  26 -1.288593E+07 -1.961040E+06 -5.186756E+05 -4.718246E+06  2.274974E+05  9.752166E+04
         5  27 -1.292469E+07 -2.122088E+06 -4.384574E+05 -4.821607E+06  9.795081E+04  4.700139E+04
         6   1 -1.126385E+07 -1.420330E+06  7.407612E+04 -4.228388E+06 -7.760950E+04 -3.791349E+04
         6   2 -1.124898E+07 -1.520420E+06  1.045026E+05 -4.397778E+06 -4.923591E+04 -2.601061E+04
         6   3 -1.147951E+07 -1.456327E+06  9.788244E+04 -4.298127E+06 -2.259159E+04 -9.619845E+03
         6   4 -1.195289E+07 -1.680885E+06 -1.173928E+05 -4.412934E+06 -7.771077E+04 -3.795318E+04
         6   5 -1.182667E+07 -1.741688E+06 -5.658862E+04 -4.555355E+06 -4.877372E+04 -2.583518E+04
         6   6 -1.194604E+07 -1.638451E+06 -3.332194E+04 -4.428719E+06 -2.156095E+04 -9.225428E+03
         6   7 -1.264148E+07 -1.941416E+06 -3.089067E+05 -4.597294E+06 -7.781187E+04 -3.799280E+04
         6   8 -1.240405E+07 -1.962937E+06 -2.177116E+05 -4.712797E+06 -4.831199E+04 -2.565993E+04
         6   9 -1.241235E+07 -1.820560E+06 -1.645473E+05 -4.559219E+06 -2.053118E+04 -8.831352E+03
         6  10 -1.126386E+07 -1.420333E+06  7.406181E+04 -4.228390E+06  1.755364E-09 -1.445544E-09
         6  11 -1.124898E+07 -1.520421E+06  1.044966E+05 -4.397779E+06  2.534639E-09  2.987384E-09
         6  12 -1.147951E+07 -1.456327E+06  9.788129E+04 -4.298127E+06  7.059900E-09  5.159669E-10
         6  13 -1.195290E+07 -1.680888E+06 -1.174072E+05 -4.412937E+06  8.729113E-09  8.844374E-10
         6  14 -1.182668E+07 -1.741689E+06 -5.659447E+04 -4.555356E+06  3.325065E-09  3.131899E-09
         6  15 -1.194604E+07 -1.638451E+06 -3.332300E+04 -4.428719E+06 -5.020410E-09  2.356020E-10
         6  16 -1.264148E+07 -1.941419E+06 -3.089211E+05 -4.597296E+06  4.203971E-09  4.071604E-09
         6  17 -1.240405E+07 -1.962938E+06 -2.177174E+05 -4.712798E+06 -5.067922E-09 -5.437850E-09
         6  18 -1.241235E+07 -1.820561E+06 -1.645483E+05 -4.559219E+06 -4.738489E-09 -3.644908E-09
         6  19 -1.126385E+07 -1.420330E+06  7.407612E+04 -4.228388E+06  7.760950E+04  3.791349E+04
         6  20 -1.124898E+07 -1.520420E+06  1.045026E+05 -4.397778E+06  4.923591E+04  2.601061E+04
         6  21 -1.147951E+07 -1.456327E+06  9.788244E+04 -4.298127E+06  2.259159E+04  9.619845E+03
         6  22 -1.195289E+07 -1.680885E+06 -1.173928E+05 -4.412934E+06  7.771077E+04  3.795318E+04
         6  23 -1.182667E+07 -1.741688E+06 -5.658862E+04 -4.555355E+06  4.877372E+04  2.583518E+04
         6  24 -1.194604E+07 -1.638451E+06 -3.332194E+04 -4.428719E+06  2.156095E+04  9.225428E+03
         6  25 -1.264148E+07 -1.941416E+06 -3.089067E+05 -4.597294E+06  7.781187E+04  3.799280E+04
         6  26 -1.240405E+07 -1.962937E+06 -2.177116E+05 -4.712797E+06  4.831199E+04  2.565993E+04
         6  27 -1.241235E+07 -1.820560E+06 -1.645473E+05 -4.559219E+06  2.053118E+04  8.831352E+03
         7   1 -1.280292E+07 -2.002888E+06 -2.726157E+05 -4.687646E+06 -2.019379E+04 -2.357579E+03
         7   2 -1.280781E+07 -2.092149E+06 -2.816537E+05 -4.788210E+06 -1.331288E+04  6.941487E+03
         7   3 -1.294226E+07 -2.047866E+06 -2.964347E+05 -4.722710E+06 -3.544050E+03  8.662006E+03
         7   4 -1.192294E+07 -1.662810E+06 -2.594729E+04 -4.444979E+06 -1.894066E+04 -1.879164E+03
         7   5 -1.185813E+07 -1.727714E+06 -1.648076E+04 -4.528809E+06 -1.305100E+04  7.039503E+03
         7   6 -1.192264E+07 -1.658869E+06 -1.194493E+04 -4.446595E+06 -4.274445E+03  8.385713E+03
         7   7 -1.104220E+07 -1.322684E+06  2.206469E+05 -4.201994E+06 -1.768552E+04 -1.399974E+03
         7   8 -1.090756E+07 -1.363227E+06  2.486066E+05 -4.269041E+06 -1.278865E+04  7.137695E+03
         7   9 -1.090200E+07 -1.269813E+06  2.724466E+05 -4.170060E+06 -5.006190E+03  8.108915E+03
         7  10 -1.280292E+07 -2.002889E+06 -2.726165E+05 -4.687646E+06  3.764416E-09  2.718504E-09
         7  11 -1.280781E+07 -2.092149E+06 -2.816541E+05 -4.788210E+06  7.457546E-09 -2.850346E-09
         7  12 -1.294226E+07 -2.047866E+06 -2.964348E+05 -4.722710E+06 -4.574805E-09 -2.845281E-09
         7  13 -1.192294E+07 -1.662810E+06 -2.594798E+04 -4.444979E+06  6.514056E-10 -3.643775E-10
         7  14 -1.185813E+07 -1.727715E+06 -1.648118E+04 -4.528809E+06  1.221508E-09 -2.526446E-09
         7  15 -1.192264E+07 -1.658869E+06 -1.194510E+04 -4.446595E+06  2.939686E-10 -1.185747E-09
         7  16 -1.104220E+07 -1.322684E+06  2.206463E+05 -4.201994E+06 -4.164801E-09 -2.477033E-10
         7  17 -1.090756E+07 -1.363227E+06  2.486061E+05 -4.269041E+06 -7.141661E-09 -2.358744E-10
         7  18 -1.090200E+07 -1.269813E+06  2.724464E+05 -4.170060E+06 -1.266234E-09  5.760243E-10
         7  19 -1.280292E+07 -2.002888E+06 -2.726157E+05 -4.687646E+06  2.019379E+04  2.357579E+03
         7  20 -1.280781E+07 -2.092149E+06 -2.816537E+05 -4.788210E+06  1.331288E+04 -6.941487E+03
         7  21 -1.294226E+07 -2.047866E+06 -2.964347E+05 -4.722710E+06  3.544050E+03 -8.662006E+03
         7  22 -1.192294E+07 -1.662810E+06 -2.594729E+04 -4.444979E+06  1.894066E+04  1.879164E+03
         7  23 -1.185813E+07 -1.727714E+06 -1.648076E+04 -4.528809E+06  1.305100E+04 -7.039503E+03
         7  24 -1.192264E+07 -1.658869E+06 -1.194493E+04 -4.446595E+06  4.274445E+03 -8.385713E+03
         7  25 -1.104220E+07 -1.322684E+06  2.206469E+05 -4.201994E+06  1.768552E+04  1.399974E+03
         7  26 -1.090756E+07 -1.363227E+06  2.486066E+05 -4.269041E+06  1.278865E+04 -7.137695E+03
         7  27 -1.090200E+07 -1.269813E+06  2.724466E+05 -4.170060E+06  5.006190E+03 -8.108915E+03
         8   1 -1.258851E+07 -2.021207E+06 -2.194443E+05 -4.737687E+06 -2.244423E+03  7.847646E+03
         8   2 -1.259195E+07 -1.871201E+06 -1.933039E+05 -4.587679E+06  6.541680E+03  1.046235E+04
         8   3 -1.238120E+07 -1.943596E+06 -1.749842E+05 -4.677580E+06  1.721971E+04  7.973577E+03
         8   4 -1.184620E+07 -1.738111E+06 -1.249894E+04 -4.536698E+06 -1.985006E+03  7.944155E+03
         8   5 -1.195351E+07 -1.628888E+06 -1.560923E+04 -4.415988E+06  6.133895E+03  1.030957E+04
         8   6 -1.184652E+07 -1.741905E+06 -2.599509E+04 -4.535175E+06  1.614215E+04  7.573475E+03
         8   7 -1.110335E+07 -1.454984E+06  1.943942E+05 -4.335487E+06 -1.725242E+03  8.040796E+03
         8   8 -1.131467E+07 -1.386552E+06  1.620470E+05 -4.244134E+06  5.725634E+03  1.015661E+04
         8   9 -1.131155E+07 -1.540199E+06  1.229672E+05 -4.392657E+06  1.506355E+04  7.172987E+03
         8  10 -1.258851E+07 -2.021207E+06 -2.194445E+05 -4.737687E+06  1.236361E-09 -6.259363E-09
         8  11 -1.259196E+07 -1.871201E+06 -1.933042E+05 -4.587679E+06 -2.435882E-09 -5.660263E-09
         8  12 -1.238120E+07 -1.943596E+06 -1.749849E+05 -4.677580E+06  1.286286E-09  5.413155E-09
         8  13 -1.184620E+07 -1.738111E+06 -1.249907E+04 -4.536698E+06  3.150312E-09 -1.204035E-09
         8  14 -1.195351E+07 -1.628888E+06 -1.560950E+04 -4.415988E+06 -5.005008E-09 -3.286353E-09
         8  15 -1.184652E+07 -1.741905E+06 -2.599570E+04 -4.535175E+06 -8.475481E-10 -4.522742E-10
         8  16 -1.110335E+07 -1.454985E+06  1.943941E+05 -4.335487E+06  1.689235E-10  3.767903E-10
         8  17 -1.131467E+07 -1.386552E+06  1.620468E+05 -4.244134E+06 -5.157613E-10 -8.519444E-09
         8  18 -1.131155E+07 -1.540199E+06  1.229667E+05 -4.392657E+06  3.685796E-09  1.765500E-10
         8  19 -1.258851E+07 -2.021207E+06 -2.194443E+05 -4.737687E+06  2.244423E+03 -7.847646E+03
         8  20 -1.259195E+07 -1.871201E+06 -1.933039E+05 -4.587679E+06 -6.541680E+03 -1.046235E+04
         8  21 -1.238120E+07 -1.943596E+06 -1.749842E+05 -4.677580E+06 -1.721971E+04 -7.973577E+03
         8  22 -1.184620E+07 -1.738111E+06 -1.249894E+04 -4.536698E+06  1.985006E+03 -7.944155E+03
         8  23 -1.195351E+07 -1.628888E+06 -1.560923E+04 -4.415988E+06 -6.133895E+03 -1.030957E+04
         8  24 -1.184652E+07 -1.741905E+06 -2.599509E+04 -4.535175E+06 -1.614215E+04 -7.573475E+03
         8  25 -1.110335E+07 -1.454984E+06  1.943942E+05 -4.335487E+06  1.725242E+03 -8.040796E+03
         8  26 -1.131467E+07 -1.386552E+06  1.620470E+05 -4.244134E+06 -5.725634E+03 -1.015661E+04
         8  27 -1.131155E+07 -1.540199E+06  1.229672E+05 -4.392657E+06 -1.506355E+04 -7.172987E+03
         9   1 -1.102034E+07 -1.405493E+06  2.014824E+05 -4.299977E+06  2.412992E+04  4.156310E+03
         9   2 -1.102221E+07 -1.290884E+06  1.978819E+05 -4.190697E+06  5.417070E+04  8.842846E+03
         9   3 -1.088323E+07 -1.383821E+06  1.608343E+05 -4.236923E+06  8.154321E+04  2.070921E+04
         9   4 -1.186048E+07 -1.721337E+06 -3.203725E+04 -4.522946E+06  2.287414E+04  3.689425E+03
         9   5 -1.193407E+07 -1.638210E+06 -5.595497E+04 -4.437519E+06  5.382723E+04  8.713009E+03
         9   6 -1.186703E+07 -1.762896E+06 -1.140979E+05 -4.507614E+06  8.210645E+04  2.091973E+04
         9   7 -1.269995E+07 -2.037147E+06 -2.656231E+05 -4.745639E+06  2.162025E+04  3.223229E+03
         9   8 -1.284512E+07 -1.985489E+06 -3.098701E+05 -4.684007E+06  5.348427E+04  8.583364E+03
         9   9 -1.284988E+07 -2.141911E+06 -3.891219E+05 -4.777907E+06  8.266859E+04  2.112982E+04
         9  10 -1.102034E+07 -1.405493E+06  2.014812E+05 -4.299977E+06 -1.960797E-09  3.937241E-09
         9  11 -1.102221E+07 -1.290885E+06  1.978761E+05 -4.190697E+06 -2.557089E-09  3.029285E-09
         9  12 -1.088324E+07 -1.383823E+06  1.608207E+05 -4.236924E+06 -2.883075E-09 -2.429586E-09
         9  13 -1.186049E+07 -1.721337E+06 -3.203828E+04 -4.522946E+06  3.252783E-10 -5.171864E-10
         9  14 -1.193407E+07 -1.638211E+06 -5.596068E+04 -4.437520E+06  1.308775E-09 -4.091535E-09
         9  15 -1.186704E+07 -1.762898E+06 -1.141117E+05 -4.507615E+06 -4.440311E-09 -2.795536E-10
         9  16 -1.269995E+07 -2.037147E+06 -2.656241E+05 -4.745639E+06 -6.265524E-10 -2.000718E-09
         9  17 -1.284512E+07 -1.985490E+06 -3.098758E+05 -4.684008E+06  6.819938E-10 -3.818044E-09
         9  18 -1.284989E+07 -2.141913E+06 -3.891359E+05 -4.777908E+06 -2.122686E-09  2.858988E-09
         9  19 -1.102034E+07 -1.405493E+06  2.014824E+05 -4.299977E+06 -2.412992E+04 -4.156310E+03
         9  20 -1.102221E+07 -1.290884E+06  1.978819E+05 -4.190697E+06 -5.417070E+04 -8.842846E+03
         9  21 -1.088323E+07 -1.383821E+06  1.608343E+05 -4.236923E+06 -8.154321E+04 -2.070921E+04
         9  22 -1.186048E+07 -1.721337E+06 -3.203725E+04 -4.522946E+06 -2.287414E+04 -3.689425E+03
         9  23 -1.193407E+07 -1.638210E+06 -5.595497E+04 -4.437519E+06 -5.382723E+04 -8.713009E+03
         9  24 -1.186703E+07 -1.762896E+06 -1.140979E+05 -4.507614E+06 -8.210645E+04 -2.091973E+04
         9  25 -1.269995E+07 -2.037147E+06 -2.656231E+05 -4.745639E+06 -2.162025E+04 -3.223229E+03
         9  26 -1.284512E+07 -1.985489E+06 -3.098701E+05 -4.684007E+06 -5.348427E+04 -8.583364E+03
         9  27 -1.284988E+07 -2.141911E+06 -3.891219E+05 -4.777907E+06 -8.266859E+04 -2.112982E+04
        10   1 -1.115667E+07 -1.343744E+06  7.886093E+04 -4.236343E+06  1.030609E+05  3.004045E+04
        10   2 -1.111014E+07 -1.411505E+06 -4.347883E+04 -4.365109E+06  2.283590E+05  7.827716E+04
        10   3 -1.142493E+07 -1.656826E+06 -3.643840E+05 -4.159724E+06  3.516827E+05  1.315877E+05
        10   4 -1.196118E+07 -1.639327E+06 -1.430194E+05 -4.443041E+06  1.027275E+05  2.991597E+04
        10   5 -1.180059E+07 -1.682482E+06 -2.373357E+05 -4.560055E+06  2.285645E+05  7.835199E+04
        10   6 -1.200161E+07 -1.903550E+06 -5.308049E+05 -4.342851E+06  3.524518E+05  1.318645E+05
        10   7 -1.276507E+07 -1.934885E+06 -3.649596E+05 -4.649497E+06  1.023945E+05  2.979162E+04
        10   8 -1.249058E+07 -1.953424E+06 -4.312383E+05 -4.754799E+06  2.287696E+05  7.842666E+04
        10   9 -1.257796E+07 -2.150230E+06 -6.972591E+05 -4.525812E+06  3.532199E+05  1.321408E+05
        10  10 -1.115669E+07 -1.343748E+06  7.883883E+04 -4.236346E+06 -1.804444E-10  7.303669E-10
        10  11 -1.111020E+07 -1.411526E+06 -4.359064E+04 -4.365123E+06  4.302159E-09 -4.954579E-09
        10  12 -1.142507E+07 -1.656879E+06 -3.646545E+05 -4.159762E+06 -3.106700E-09  6.089862E-09
        10  13 -1.196120E+07 -1.639331E+06 -1.430414E+05 -4.443043E+06  1.406642E-09 -3.551322E-10
        10  14 -1.180065E+07 -1.682503E+06 -2.374478E+05 -4.560070E+06 -1.665180E-09 -3.218921E-09
        10  15 -1.200175E+07 -1.903603E+06 -5.310770E+05 -4.342889E+06 -1.037981E-09  5.623112E-10
        10  16 -1.276508E+07 -1.934889E+06 -3.649815E+05 -4.649499E+06 -6.057107E-09 -9.328154E-09
        10  17 -1.249064E+07 -1.953445E+06 -4.313508E+05 -4.754814E+06 -1.018577E-09 -2.822844E-10
        10  18 -1.257810E+07 -2.150283E+06 -6.975327E+05 -4.525850E+06 -2.754936E-09  1.825012E-09
        10  19 -1.115667E+07 -1.343744E+06  7.886093E+04 -4.236343E+06 -1.030609E+05 -3.004045E+04
        10  20 -1.111014E+07 -1.411505E+06 -4.347883E+04 -4.365109E+06 -2.283590E+05 -7.827716E+04
        10  21 -1.142493E+07 -1.656826E+06 -3.643840E+05 -4.159724E+06 -3.516827E+05 -1.315877E+05
        10  22 -1.196118E+07 -1.639327E+06 -1.430194E+05 -4.443041E+06 -1.027275E+05 -2.991597E+04
        10  23 -1.180059E+07 -1.682482E+06 -2.373357E+05 -4.560055E+06 -2.285645E+05 -7.835199E+04
        10  24 -1.200161E+07 -1.903550E+06 -5.308049E+05 -4.342851E+06 -3.524518E+05 -1.318645E+05
        10  25 -1.276507E+07 -1.934885E+06 -3.649596E+05 -4.649497E+06 -1.023945E+05 -2.979162E+04
        10  26 -1.249058E+07 -1.953424E+06 -4.312383E+05 -4.754799E+06 -2.287696E+05 -7.842666E+04
        10  27 -1.257796E+07 -2.150230E+06 -6.972591E+05 -4.525812E+06 -3.532199E+05 -1.321408E+05
        11   1 -1.279887E+07 -1.980240E+06 -8.642122E+05 -4.802192E+06  4.443376E+05  1.744305E+05
        11   2 -1.250628E+07 -1.615574E+06 -1.258209E+06 -4.818728E+06  1.004558E+06  3.936736E+05
        11   3 -1.339695E+07 -3.617163E+06 -2.768624E+06 -3.987571E+06  1.570434E+06  5.979900E+05
        11   4 -1.206981E+07 -1.617855E+06 -6.434479E+05 -4.520204E+06  4.463520E+05  1.752744E+05
        11   5 -1.160964E+07 -1.312760E+06 -1.016215E+06 -4.615387E+06  1.005396E+06  3.939054E+05
        11   6 -1.233114E+07 -3.371460E+06 -2.503107E+06 -3.863182E+06  1.570270E+06  5.974021E+05
        11   7 -1.134021E+07 -1.255319E+06 -4.227386E+05 -4.237872E+06  4.483688E+05  1.761197E+05
        11   8 -1.071221E+07 -1.009941E+06 -7.742914E+05 -4.411794E+06  1.006235E+06  3.941372E+05
        11   9 -1.126419E+07 -3.125794E+06 -2.237659E+06 -3.738677E+06  1.570103E+06  5.968143E+05
        11  10 -1.279910E+07 -1.980328E+06 -8.646507E+05 -4.802255E+06 -5.621189E-09  5.621587E-09
        11  11 -1.250742E+07 -1.616023E+06 -1.260449E+06 -4.819051E+06 -6.415200E-09  6.796881E-09
        11  12 -1.339974E+07 -3.618236E+06 -2.774059E+06 -3.988339E+06 -3.088944E-09  1.060040E-09
        11  13 -1.207004E+07 -1.617943E+06 -6.438898E+05 -4.520268E+06 -3.098185E-09  3.541708E-09
        11  14 -1.161078E+07 -1.313209E+06 -1.018455E+06 -4.615710E+06  1.436113E-10  2.902904E-09
        11  15 -1.233394E+07 -3.372531E+06 -2.508531E+06 -3.863949E+06  1.717218E-11  8.852165E-10
        11  16 -1.134044E+07 -1.255409E+06 -4.231839E+05 -4.237937E+06  1.266085E-09  5.826951E-09
        11  17 -1.071336E+07 -1.010390E+06 -7.765319E+05 -4.412117E+06  3.934472E-09  4.332720E-09
        11  18 -1.126698E+07 -3.126862E+06 -2.243071E+06 -3.739442E+06  1.359547E-09  3.354270E-10
        11  19 -1.279887E+07 -1.980240E+06 -8.642122E+05 -4.802192E+06 -4.443376E+05 -1.744305E+05
        11  20 -1.250628E+07 -1.615574E+06 -1.258209E+06 -4.818728E+06 -1.004558E+06 -3.936736E+05
        11  21 -1.339695E+07 -3.617163E+06 -2.768624E+06 -3.987571E+06 -1.570434E+06 -5.979900E+05
        11  22 -1.206981E+07 -1.617855E+06 -6.434479E+05 -4.520204E+06 -4.463520E+05 -1.752744E+05
        11  23 -1.160964E+07 -1.312760E+06 -1.016215E+06 -4.615387E+06 -1.005396E+06 -3.939054E+05
        11  24 -1.233114E+07 -3.371460E+06 -2.503107E+06 -3.863182E+06 -1.570270E+06 -5.974021E+05
        11  25 -1.134021E+07 -1.255319E+06 -4.227386E+05 -4.237872E+06 -4.483688E+05 -1.761197E+05
        11  26 -1.071221E+07 -1.009941E+06 -7.742914E+05 -4.411794E+06 -1.006235E+06 -3.941372E+05
        11  27 -1.126419E+07 -3.125794E+06 -2.237659E+06 -3.738677E+06 -1.570103E+06 -5.968143E+05
        12   1  1.061967E+04 -1.413128E+05  1.850620E+04 -2.289437E+02  1.228186E+02 -7.762512E+02
        12   2  8.478125E+03 -1.429046E+05  1.982912E+04  1.617023E+02  1.299359E+02 -5.845056E+03
        12   3  1.516913E+04 -1.414338E+05  2.669970E+04  4.347238E+01  1.166741E+02 -1.091396E+04
        12   4  6.596253E+02 -1.811490E+05  8.549276E+03 -1.139197E+02  1.228190E+02 -7.770299E+02
        12   5 -1.465731E+03 -1.826761E+05  9.888499E+03  1.419979E+02  1.299366E+02 -5.844572E+03
        12   6  5.241554E+03 -1.811409E+05  1.677474E+04 -1.109641E+02  1.166765E+02 -1.091221E+04
        12   7 -9.300538E+03 -2.209837E+05 -1.407770E+03  1.096956E+00  1.228194E+02 -7.778084E+02
        12   8 -1.140971E+04 -2.224463E+05 -5.224584E+01  1.222949E+02  1.299372E+02 -5.844089E+03
        12   9 -4.686146E+03 -2.208466E+05  6.849657E+03 -2.653905E+02  1.166790E+02 -1.091047E+04
        12  10  1.061967E+04 -1.413128E+05  1.850620E+04 -2.289436E+02 -3.085300E-09  3.451044E-10
        12  11  8.478116E+03 -1.429046E+05  1.982906E+04  1.617029E+02 -1.013169E-08 -1.539098E-10
        12  12  1.516910E+04 -1.414340E+05  2.669947E+04  4.347340E+01 -5.928665E-09 -2.976813E-10
        12  13  6.596251E+02 -1.811490E+05  8.549274E+03 -1.139196E+02 -5.110553E-09 -4.731938E-11
        12  14 -1.465740E+03 -1.826762E+05  9.888435E+03  1.419985E+02 -2.404231E-09 -9.179408E-12
        12  15  5.241522E+03 -1.811410E+05  1.677451E+04 -1.109631E+02  3.075996E-10 -3.492850E-10
        12  16 -9.300538E+03 -2.209837E+05 -1.407772E+03  1.097033E+00  5.480685E-10 -3.495102E-10
        12  17 -1.140972E+04 -2.224463E+05 -5.231008E+01  1.222955E+02  1.840216E-09  1.968806E-10
        12  18 -4.686178E+03 -2.208467E+05  6.849433E+03 -2.653895E+02  3.590899E-09  1.757946E-10
        12  19  1.061967E+04 -1.413128E+05  1.850620E+04 -2.289437E+02 -1.228186E+02  7.762512E+02
        12  20  8.478125E+03 -1.429046E+05  1.982912E+04  1.617023E+02 -1.299359E+02  5.845056E+03
        12  21  1.516913E+04 -1.414338E+05  2.669970E+04  4.347238E+01 -1.166741E+02  1.091396E+04
        12  22  6.596253E+02 -1.811490E+05  8.549276E+03 -1.139197E+02 -1.228190E+02  7.770299E+02
        12  23 -1.465731E+03 -1.826761E+05  9.888499E+03  1.419979E+02 -1.299366E+02  5.844572E+03
        12  24  5.241554E+03 -1.811409E+05  1.677474E+04 -1.109641E+02 -1.166765E+02  1.091221E+04
        12  25 -9.300538E+03 -2.209837E+05 -1.407770E+03  1.096956E+00 -1.228194E+02  7.778084E+02
        12  26 -1.140971E+04 -2.224463E+05 -5.224584E+01  1.222949E+02 -1.299372E+02  5.844089E+03
        12  27 -4.686146E+03 -2.208466E+05  6.849657E+03 -2.653905E+02 -1.166790E+02  1.091047E+04
        13   1  6.376945E+03 -1.495140E+05  2.760412E+04 -9.046280E+02  1.115777E+02 -1.428468E+04
        13   2 -9.312182E+02 -1.569592E+05  3.876964E+04  6.185180E+02  1.201913E+02 -3.087426E+04
        13   3  4.088666E+04 -1.498615E+05  7.304052E+04  7.876246E+02  1.184343E+02 -4.746395E+04
        13   4 -8.930797E+02 -1.785873E+05  2.033752E+04 -3.125407E+02  1.115645E+02 -1.428433E+04
        13   5 -8.155733E+03 -1.858563E+05  3.154714E+04  3.827020E+02  1.202029E+02 -3.087273E+04
        13   6  3.370867E+04 -1.785818E+05  6.586204E+04 -2.761000E+02  1.185147E+02 -4.746126E+04
        13   7 -8.163167E+03 -2.076598E+05  1.307085E+04  2.795190E+02  1.115513E+02 -1.428398E+04
        13   8 -1.538031E+04 -2.147525E+05  2.432457E+04  1.468972E+02  1.202145E+02 -3.087121E+04
        13   9  2.653063E+04 -2.073014E+05  5.868350E+04 -1.339775E+03  1.185951E+02 -4.745857E+04
        13  10  6.376890E+03 -1.495142E+05  2.760374E+04 -9.046268E+02 -2.897889E-09 -2.330396E-10
        13  11 -9.314742E+02 -1.569603E+05  3.876785E+04  6.185210E+02 -3.802621E-09 -2.126741E-10
        13  12  4.088606E+04 -1.498640E+05  7.303629E+04  7.876291E+02 -2.409281E-09 -7.812739E-12
        13  13 -8.931345E+02 -1.785875E+05  2.033714E+04 -3.125394E+02  1.381211E-09 -3.685181E-10
        13  14 -8.155989E+03 -1.858573E+05  3.154534E+04  3.827050E+02  1.063480E-09 -7.828457E-13
        13  15  3.370807E+04 -1.785843E+05  6.585781E+04 -2.760954E+02  5.770810E-09 -6.378251E-10
        13  16 -8.163222E+03 -2.076600E+05  1.307047E+04  2.795203E+02  1.410328E-09  2.456644E-10
        13  17 -1.538057E+04 -2.147535E+05  2.432277E+04  1.469002E+02  2.375975E-09  3.332318E-10
        13  18  2.653002E+04 -2.073038E+05  5.867927E+04 -1.339771E+03  6.880545E-11 -2.176523E-10
        13  19  6.376945E+03 -1.495140E+05  2.760412E+04 -9.046280E+02 -1.115777E+02  1.428468E+04
        13  20 -9.312182E+02 -1.569592E+05  3.876964E+04  6.185180E+02 -1.201913E+02  3.087426E+04
        13  21  4.088666E+04 -1.498615E+05  7.304052E+04  7.876246E+02 -1.184343E+02  4.746395E+04
        13  22 -8.930797E+02 -1.785873E+05  2.033752E+04 -3.125407E+02 -1.115645E+02  1.428433E+04
        13  23 -8.155733E+03 -1.858563E+05  3.154714E+04  3.827020E+02 -1.202029E+02  3.087273E+04
        13  24  3.370867E+04 -1.785818E+05  6.586204E+04 -2.761000E+02 -1.185147E+02  4.746126E+04
        13  25 -8.163167E+03 -2.076598E+05  1.307085E+04  2.795190E+02 -1.115513E+02  1.428398E+04
        13  26 -1.538031E+04 -2.147525E+05  2.432457E+04  1.468972E+02 -1.202145E+02  3.087121E+04
        13  27  2.653063E+04 -2.073014E+05  5.868350E+04 -1.339775E+03 -1.185951E+02  4.745857E+04
        14   1 -4.081345E+03 -1.522136E+05  8.195115E+04 -4.058892E+03  1.218192E+02 -6.067663E+04
        14   2 -4.936973E+04 -1.957526E+05  1.226889E+05  2.293540E+03  1.834729E+02 -1.264194E+05
        14   3  2.176065E+05 -1.526433E+05  2.843221E+05  7.047580E+03  2.483944E+02 -1.921598E+05
        14   4 -6.679739E+03 -1.625656E+05  7.936237E+04 -4.491542E+02  1.214656E+02 -6.067525E+04
        14   5 -5.189585E+04 -2.058771E+05  1.201594E+05  4.897253E+02  1.838397E+02 -1.264173E+05
        14   6  2.151550E+05 -1.625392E+05  2.818528E+05 -1.700139E+02  2.506284E+02 -1.921570E+05
        14   7 -9.278092E+03 -1.729176E+05  7.677359E+04  3.160524E+03  1.211121E+02 -6.067387E+04
        14   8 -5.442197E+04 -2.160015E+05  1.176300E+05 -1.314060E+03  1.842065E+02 -1.264152E+05
        14   9  2.127038E+05 -1.724348E+05  2.793835E+05 -7.387493E+03  2.528623E+02 -1.921542E+05
        14  10 -4.082333E+03 -1.522176E+05  8.194423E+04 -4.058887E+03  1.175573E-09  1.542109E-10
        14  11 -4.937402E+04 -1.957698E+05  1.226589E+05  2.293558E+03 -4.811229E-09 -4.342366E-10
        14  12  2.175965E+05 -1.526830E+05  2.842527E+05  7.047618E+03 -3.733989E-09 -4.517460E-10
        14  13 -6.680727E+03 -1.625696E+05  7.935545E+04 -4.491483E+02 -2.159196E-09 -6.774210E-10
        14  14 -5.190014E+04 -2.058943E+05  1.201294E+05  4.897440E+02 -5.226788E-10  6.668687E-13
        14  15  2.151451E+05 -1.625788E+05  2.817834E+05 -1.699751E+02  3.586872E-09 -7.963666E-10
        14  16 -9.279080E+03 -1.729215E+05  7.676667E+04  3.160530E+03  1.095250E-09 -1.759988E-10
        14  17 -5.442626E+04 -2.160187E+05  1.175999E+05 -1.314041E+03  5.736538E-09  6.052481E-10
        14  18  2.126939E+05 -1.724745E+05  2.793141E+05 -7.387454E+03 -2.759273E-09  2.018713E-10
        14  19 -4.081345E+03 -1.522136E+05  8.195115E+04 -4.058892E+03 -1.218192E+02  6.067663E+04
        14  20 -4.936973E+04 -1.957526E+05  1.226889E+05  2.293540E+03 -1.834729E+02  1.264194E+05
        14  21  2.176065E+05 -1.526433E+05  2.843221E+05  7.047580E+03 -2.483944E+02  1.921598E+05
        14  22 -6.679739E+03 -1.625656E+05  7.936237E+04 -4.491542E+02 -1.214656E+02  6.067525E+04
        14  23 -5.189585E+04 -2.058771E+05  1.201594E+05  4.897253E+02 -1.838397E+02  1.264173E+05
        14  24  2.151550E+05 -1.625392E+05  2.818528E+05 -1.700139E+02 -2.506284E+02  1.921570E+05
        14  25 -9.278092E+03 -1.729176E+05  7.677359E+04  3.160524E+03 -1.211121E+02  6.067387E+04
        14  26 -5.442197E+04 -2.160015E+05  1.176300E+05 -1.314060E+03 -1.842065E+02  1.264152E+05
        14  27  2.127038E+05 -1.724348E+05  2.793835E+05 -7.387493E+03 -2.528623E+02  1.921542E+05
        15   1  1.490105E+05 -7.261519E+05  1.436059E+05 -2.865051E+02  1.973957E+04 -4.963812E+00
        15   2  1.485998E+05 -7.279239E+05  1.431718E+05  1.168279E+02  1.969974E+04  7.277458E+00
        15   3  1.482300E+05 -7.293198E+05  1.428176E+05 -6.192062E+02  1.960733E+04  1.941391E+01
        15   4 -6.070240E+01 -1.327195E+06 -3.687427E+01 -2.532106E+02  1.974084E+04  2.182306E+00
        15   5 -7.723381E+01 -1.327380E+06 -8.781011E+01  3.165190E+02  1.970099E+04  4.213352E+01
        15   6 -5.790690E+01 -1.327195E+06 -7.802121E+01 -2.531814E+02  1.960854E+04  8.198034E+01
        15   7 -1.491581E+05 -1.927906E+06 -1.437051E+05 -2.199400E+02  1.974211E+04  9.321529E+00
        15   8 -1.487804E+05 -1.926507E+06 -1.433727E+05  5.160526E+02  1.970224E+04  7.695602E+01
        15   9 -1.483718E+05 -1.924741E+06 -1.429989E+05  1.125534E+02  1.960975E+04  1.444867E+02
        15  10  1.490100E+05 -7.261520E+05  1.436052E+05 -2.865051E+02 -6.026342E-09  5.229362E-09
        15  11  1.485994E+05 -7.279240E+05  1.431710E+05  1.168278E+02 -5.904678E-09  4.890813E-09
        15  12  1.482296E+05 -7.293199E+05  1.428169E+05 -6.192065E+02 -3.208343E-11  3.018030E-09
        15  13 -6.112061E+01 -1.327195E+06 -3.760614E+01 -2.532106E+02  3.785287E-09  3.599400E-11
        15  14 -7.765034E+01 -1.327381E+06 -8.853903E+01  3.165183E+02 -2.835125E-09 -2.326012E-10
        15  15 -5.831952E+01 -1.327195E+06 -7.874332E+01 -2.531827E+02 -1.099206E-10 -2.792289E-10
        15  16 -1.491585E+05 -1.927907E+06 -1.437059E+05 -2.199402E+02  3.839991E-09 -5.289815E-09
        15  17 -1.487808E+05 -1.926507E+06 -1.433735E+05  5.160513E+02 -3.789575E-09 -5.033233E-09
        15  18 -1.483722E+05 -1.924741E+06 -1.429996E+05  1.125511E+02 -2.103293E-09 -2.801098E-09
        15  19  1.490105E+05 -7.261519E+05  1.436059E+05 -2.865051E+02 -1.973957E+04  4.963812E+00
        15  20  1.485998E+05 -7.279239E+05  1.431718E+05  1.168279E+02 -1.969974E+04 -7.277458E+00
        15  21  1.482300E+05 -7.293198E+05  1.428176E+05 -6.192062E+02 -1.960733E+04 -1.941391E+01
        15  22 -6.070240E+01 -1.327195E+06 -3.687427E+01 -2.532106E+02 -1.974084E+04 -2.182306E+00
        15  23 -7.723381E+01 -1.327380E+06 -8.781011E+01  3.165190E+02 -1.970099E+04 -4.213352E+01
        15  24 -5.790690E+01 -1.327195E+06 -7.802121E+01 -2.531814E+02 -1.960854E+04 -8.198034E+01
        15  25 -1.491581E+05 -1.927906E+06 -1.437051E+05 -2.199400E+02 -1.974211E+04 -9.321529E+00
        15  26 -1.487804E+05 -1.926507E+06 -1.433727E+05  5.160526E+02 -1.970224E+04 -7.695602E+01
        15  27 -1.483718E+05 -1.924741E+06 -1.429989E+05  1.125534E+02 -1.960975E+04 -1.444867E+02
        16   1  1.472197E+05 -7.333869E+05  1.418025E+05 -1.177916E+03  1.953037E+04  1.924015E+01
        16   2  1.460317E+05 -7.382919E+05  1.405609E+05  3.540732E+02  1.935869E+04  9.706137E+01
        16   3  1.448816E+05 -7.428528E+05  1.393510E+05 -1.489930E+03  1.913519E+04  1.745746E+02
        16   4 -5.761313E+01 -1.327200E+06 -1.034843E+02 -7.502465E+02  1.953154E+04  9.605290E+01
        16   5 -7.300885E+01 -1.327370E+06 -2.193818E+02  9.378630E+02  1.935978E+04  2.011341E+02
        16   6 -5.529479E+01 -1.327199E+06 -3.224647E+02 -7.502196E+02  1.913617E+04  3.059080E+02
        16   7 -1.473605E+05 -1.920690E+06 -1.420344E+05 -3.229087E+02  1.953271E+04  1.727924E+02
        16   8 -1.462029E+05 -1.916128E+06 -1.410241E+05  1.521201E+03  1.936087E+04  3.051084E+02
        16   9 -1.450170E+05 -1.911232E+06 -1.400200E+05 -1.107928E+01  1.913715E+04  4.371180E+02
        16  10  1.472193E+05 -7.333870E+05  1.418018E+05 -1.177916E+03 -1.973571E-09  1.920164E-10
        16  11  1.460313E+05 -7.382920E+05  1.405602E+05  3.540716E+02  7.495928E-10 -2.447755E-11
        16  12  1.448812E+05 -7.428529E+05  1.393503E+05 -1.489933E+03 -7.269155E-10 -1.053488E-09
        16  13 -5.802252E+01 -1.327201E+06 -1.042007E+02 -7.502480E+02 -5.159632E-09 -2.132158E-11
        16  14 -7.341108E+01 -1.327370E+06 -2.200858E+02  9.378598E+02 -2.519906E-09 -6.406217E-10
        16  15 -5.568779E+01 -1.327200E+06 -3.231526E+02 -7.502243E+02 -6.655516E-09 -5.977120E-10
        16  16 -1.473609E+05 -1.920690E+06 -1.420351E+05 -3.229115E+02  1.575088E-10 -5.349639E-10
        16  17 -1.462033E+05 -1.916129E+06 -1.410248E+05  1.521196E+03 -5.411201E-09 -4.163397E-10
        16  18 -1.450174E+05 -1.911233E+06 -1.400207E+05 -1.108602E+01 -5.563253E-09  1.396866E-09
        16  19  1.472197E+05 -7.333869E+05  1.418025E+05 -1.177916E+03 -1.953037E+04 -1.924015E+01
        16  20  1.460317E+05 -7.382919E+05  1.405609E+05  3.540732E+02 -1.935869E+04 -9.706137E+01
        16  21  1.448816E+05 -7.428528E+05  1.393510E+05 -1.489930E+03 -1.913519E+04 -1.745746E+02
        16  22 -5.761313E+01 -1.327200E+06 -1.034843E+02 -7.502465E+02 -1.953154E+04 -9.605290E+01
        16  23 -7.300885E+01 -1.327370E+06 -2.193818E+02  9.378630E+02 -1.935978E+04 -2.011341E+02
        16  24 -5.529479E+01 -1.327199E+06 -3.224647E+02 -7.502196E+02 -1.913617E+04 -3.059080E+02
        16  25 -1.473605E+05 -1.920690E+06 -1.420344E+05 -3.229087E+02 -1.953271E+04 -1.727924E+02
        16  26 -1.462029E+05 -1.916128E+06 -1.410241E+05  1.521201E+03 -1.936087E+04 -3.051084E+02
        16  27 -1.450170E+05 -1.911232E+06 -1.400200E+05 -1.107928E+01 -1.913715E+04 -4.371180E+02
        17   1  1.428898E+05 -7.509163E+05  1.372852E+05 -2.011806E+03  1.898291E+04  2.268781E+02
        17   2  1.409495E+05 -7.588378E+05  1.350817E+05  6.192077E+02  1.868168E+04  5.841361E+02
        17   3  1.389636E+05 -7.665158E+05  1.326978E+05 -2.304426E+03  1.832717E+04  9.408876E+02
        17   4 -4.532796E+01 -1.327219E+06 -4.281449E+02 -1.234340E+03  1.898381E+04  3.711776E+02
        17   5 -5.477114E+01 -1.327338E+06 -7.827914E+02  1.543071E+03  1.868244E+04  7.562367E+02
        17   6 -1.148194E+02 -1.327218E+06 -1.337366E+03 -1.234488E+03  1.832777E+04  1.140793E+03
        17   7 -1.430045E+05 -1.903217E+06 -1.381649E+05 -4.574595E+02  1.898472E+04  5.153434E+02
        17   8 -1.410824E+05 -1.895541E+06 -1.366701E+05  2.466244E+03  1.868321E+04  9.281800E+02
        17   9 -1.392160E+05 -1.887631E+06 -1.353947E+05 -1.653412E+02  1.832837E+04  1.340519E+03
        17  10  1.428894E+05 -7.509164E+05  1.372845E+05 -2.011809E+03 -4.492625E-09 -2.701494E-10
        17  11  1.409491E+05 -7.588379E+05  1.350810E+05  6.191989E+02  7.531647E-10 -6.959682E-10
        17  12  1.389632E+05 -7.665159E+05  1.326972E+05 -2.304440E+03  2.498214E-09  1.619803E-09
        17  13 -4.571475E+01 -1.327219E+06 -4.288220E+02 -1.234346E+03 -5.710756E-09 -4.397993E-11
        17  14 -5.514586E+01 -1.327338E+06 -7.834480E+02  1.543059E+03  2.933409E-09 -1.315403E-09
        17  15 -1.151802E+02 -1.327218E+06 -1.337999E+03 -1.234505E+03  3.055697E-09 -9.556213E-10
        17  16 -1.430049E+05 -1.903217E+06 -1.381656E+05 -4.574674E+02 -7.962247E-09 -1.189295E-10
        17  17 -1.410828E+05 -1.895541E+06 -1.366707E+05  2.466230E+03  1.783234E-09 -8.837030E-11
        17  18 -1.392164E+05 -1.887631E+06 -1.353953E+05 -1.653610E+02 -7.249703E-09 -8.485972E-10
        17  19  1.428898E+05 -7.509163E+05  1.372852E+05 -2.011806E+03 -1.898291E+04 -2.268781E+02
        17  20  1.409495E+05 -7.588378E+05  1.350817E+05  6.192077E+02 -1.868168E+04 -5.841361E+02
        17  21  1.389636E+05 -7.665158E+05  1.326978E+05 -2.304426E+03 -1.832717E+04 -9.408876E+02
        17  22 -4.532796E+01 -1.327219E+06 -4.281449E+02 -1.234340E+03 -1.898381E+04 -3.711776E+02
        17  23 -5.477114E+01 -1.327338E+06 -7.827914E+02  1.543071E+03 -1.868244E+04 -7.562367E+02
        17  24 -1.148194E+02 -1.327218E+06 -1.337366E+03 -1.234488E+03 -1.832777E+04 -1.140793E+03
        17  25 -1.430045E+05 -1.903217E+06 -1.381649E+05 -4.574595E+02 -1.898472E+04 -5.153434E+02
        17  26 -1.410824E+05 -1.895541E+06 -1.366701E+05  2.466244E+03 -1.868321E+04 -9.281800E+02
        17  27 -1.392160E+05 -1.887631E+06 -1.353947E+05 -1.653412E+02 -1.832837E+04 -1.340519E+03
        18   1  9.153068E+04  9.774889E+05  5.141812E+04 -4.260377E+00  3.212990E+04  2.417351E-01
        18   2  9.153595E+04  9.775128E+05  5.142651E+04 -2.462325E+01  3.213115E+04 -5.731050E+00
        18   3  9.154250E+04  9.775467E+05  5.144194E+04 -4.181088E+01  3.213367E+04 -1.170348E+01
        18   4 -3.340498E+01  5.707007E+05  1.609325E+01  7.059271E-01  3.213212E+04 -1.248573E+00
        18   5 -3.503557E+01  5.706955E+05  1.914606E+01 -8.813806E-01  3.213338E+04 -1.025076E+01
        18   6 -3.486668E+01  5.707007E+05  3.134342E+01  7.073315E-01  3.213589E+04 -1.925264E+01
        18   7 -9.160422E+04  1.640823E+05 -5.138646E+04  5.669434E+00  3.213435E+04 -2.737953E+00
        18   8 -9.161276E+04  1.640478E+05 -5.138874E+04  2.284691E+01  3.213560E+04 -1.476767E+01
        18   9 -9.161897E+04  1.640244E+05 -5.137978E+04  4.320117E+01  3.213812E+04 -2.679711E+01
        18  10  9.152957E+04  9.774886E+05  5.141618E+04 -4.260382E+00 -3.105144E-09 -1.886189E-07
        18  11  9.153484E+04  9.775125E+05  5.142457E+04 -2.462310E+01 -9.883318E-10 -2.473840E-08
        18  12  9.154139E+04  9.775465E+05  5.144000E+04 -4.181058E+01 -4.970657E-09  1.445849E-07
        18  13 -3.451398E+01  5.707004E+05  1.415251E+01  7.059598E-01 -3.549993E-08 -8.265249E-12
        18  14 -3.614465E+01  5.706952E+05  1.720517E+01 -8.811152E-01 -1.013073E-08 -1.424864E-10
        18  15 -3.597593E+01  5.707004E+05  2.940223E+01  7.078296E-01  9.166870E-09  1.649073E-10
        18  16 -9.160533E+04  1.640820E+05 -5.138840E+04  5.669505E+00 -3.686792E-09  1.884781E-07
        18  17 -9.161387E+04  1.640475E+05 -5.139069E+04  2.284729E+01  1.066192E-09  2.466010E-08
        18  18 -9.162008E+04  1.640241E+05 -5.138172E+04  4.320187E+01 -5.022535E-09 -1.444029E-07
        18  19  9.153068E+04  9.774889E+05  5.141812E+04 -4.260376E+00 -3.212990E+04 -2.417355E-01
        18  20  9.153595E+04  9.775128E+05  5.142651E+04 -2.462325E+01 -3.213115E+04  5.731050E+00
        18  21  9.154250E+04  9.775467E+05  5.144194E+04 -4.181088E+01 -3.213367E+04  1.170348E+01
        18  22 -3.340498E+01  5.707007E+05  1.609325E+01  7.059277E-01 -3.213212E+04  1.248573E+00
        18  23 -3.503557E+01  5.706955E+05  1.914606E+01 -8.813805E-01 -3.213338E+04  1.025076E+01
        18  24 -3.486668E+01  5.707007E+05  3.134342E+01  7.073312E-01 -3.213589E+04  1.925264E+01
        18  25 -9.160422E+04  1.640823E+05 -5.138646E+04  5.669434E+00 -3.213435E+04  2.737953E+00
        18  26 -9.161276E+04  1.640478E+05 -5.138874E+04  2.284691E+01 -3.213560E+04  1.476767E+01
        18  27 -9.161897E+04  1.640244E+05 -5.137978E+04  4.320117E+01 -3.213812E+04  2.679711E+01
        19   1  9.154996E+04  9.775831E+05  5.145635E+04 -5.009221E+01  3.213594E+04 -1.500162E+01
        19   2  9.156649E+04  9.776624E+05  5.149957E+04 -7.892724E+01  3.213975E+04 -5.061163E+01
        19   3  9.158591E+04  9.777560E+05  5.156950E+04 -9.404948E+01  3.214255E+04 -8.622079E+01
        19   4 -3.559654E+01  5.707014E+05  4.040653E+01  3.049146E+00  3.213816E+04 -2.535213E+01
        19   5 -3.942556E+01  5.706945E+05  6.802504E+01 -3.807189E+00  3.214198E+04 -5.851168E+01
        19   6 -4.079553E+01  5.707014E+05  1.206730E+02  3.049768E+00  3.214478E+04 -9.167038E+01
        19   7 -9.162789E+04  1.639896E+05 -5.137607E+04  5.616006E+01  3.214039E+04 -3.569620E+01
        19   8 -9.165208E+04  1.638965E+05 -5.136404E+04  7.126943E+01  3.214420E+04 -6.640681E+01
        19   9 -9.167424E+04  1.638168E+05 -5.132868E+04  1.000926E+02  3.214700E+04 -9.711656E+01
        19  10  9.154885E+04  9.775828E+05  5.145441E+04 -5.009182E+01 -2.394186E-09 -4.329915E-08
        19  11  9.156538E+04  9.776621E+05  5.149762E+04 -7.892593E+01  7.707178E-10 -9.850141E-09
        19  12  9.158480E+04  9.777557E+05  5.156756E+04 -9.404725E+01  2.466445E-09  2.312152E-08
        19  13 -3.670595E+01  5.707012E+05  3.846506E+01  3.049802E+00  1.474770E-08  1.764870E-10
        19  14 -4.053523E+01  5.706942E+05  6.608311E+01 -3.805674E+00  9.925939E-09 -4.405393E-10
        19  15 -4.190540E+01  5.707011E+05  1.187307E+02  3.052140E+00  5.637893E-09  3.435893E-10
        19  16 -9.162900E+04  1.639893E+05 -5.137801E+04  5.616098E+01 -6.750728E-09  4.310990E-08
        19  17 -9.165319E+04  1.638962E+05 -5.136598E+04  7.127115E+01 -1.259955E-09  9.664229E-09
        19  18 -9.167535E+04  1.638165E+05 -5.133062E+04  1.000951E+02  3.417004E-09 -2.294953E-08
        19  19  9.154996E+04  9.775831E+05  5.145635E+04 -5.009221E+01 -3.213594E+04  1.500162E+01
        19  20  9.156649E+04  9.776624E+05  5.149957E+04 -7.892724E+01 -3.213975E+04  5.061163E+01
        19  21  9.158591E+04  9.777560E+05  5.156950E+04 -9.404948E+01 -3.214255E+04  8.622079E+01
        19  22 -3.559654E+01  5.707014E+05  4.040653E+01  3.049146E+00 -3.213816E+04  2.535213E+01
        19  23 -3.942556E+01  5.706945E+05  6.802504E+01 -3.807189E+00 -3.214198E+04  5.851168E+01
        19  24 -4.079553E+01  5.707014E+05  1.206730E+02  3.049768E+00 -3.214478E+04  9.167038E+01
        19  25 -9.162789E+04  1.639896E+05 -5.137607E+04  5.616006E+01 -3.214039E+04  3.569620E+01
        19  26 -9.165208E+04  1.638965E+05 -5.136404E+04  7.126943E+01 -3.214420E+04  6.640681E+01
        19  27 -9.167424E+04  1.638168E+05 -5.132868E+04  1.000926E+02 -3.214700E+04  9.711656E+01
        20   1  9.160139E+04  9.778323E+05  5.162279E+04 -1.063882E+02  3.214479E+04 -1.096681E+02
        20   2  9.163331E+04  9.779573E+05  5.178524E+04 -1.445560E+02  3.213865E+04 -2.900256E+02
        20   3  9.168803E+04  9.781204E+05  5.207352E+04 -1.597525E+02  3.211437E+04 -4.703872E+02
        20   4 -4.276220E+01  5.707051E+05  1.593147E+02  5.106016E+00  3.214702E+04 -1.165433E+02
        20   5 -4.785179E+01  5.706898E+05  2.770301E+02 -6.378378E+00  3.214086E+04 -2.532061E+02
        20   6 -3.770384E+01  5.707050E+05  4.903108E+02  5.108554E+00  3.211656E+04 -3.898735E+02
        20   7 -9.169366E+04  1.637479E+05 -5.130469E+04  1.165351E+02  3.214924E+04 -1.234142E+02
        20   8 -9.173577E+04  1.635924E+05 -5.123172E+04  1.317179E+02  3.214308E+04 -2.164094E+02
        20   9 -9.177020E+04  1.634598E+05 -5.109346E+04  1.698720E+02  3.211875E+04 -3.094099E+02
        20  10  9.160028E+04  9.778320E+05  5.162085E+04 -1.063853E+02  3.804394E-09  3.259371E-09
        20  11  9.163220E+04  9.779570E+05  5.178330E+04 -1.445485E+02  1.739608E-09 -3.444882E-09
        20  12  9.168693E+04  9.781201E+05  5.207158E+04 -1.597404E+02 -4.087107E-10 -8.943811E-09
        20  13 -4.387223E+01  5.707048E+05  1.573721E+02  5.109033E+00  3.751962E-09  3.233668E-10
        20  14 -4.896140E+01  5.706895E+05  2.750881E+02 -6.371825E+00 -3.355716E-09 -7.259405E-10
        20  15 -3.881180E+01  5.707047E+05  4.883717E+02  5.118637E+00  1.280260E-09  3.976906E-10
        20  16 -9.169477E+04  1.637476E+05 -5.130664E+04  1.165383E+02  4.339133E-09 -3.650488E-09
        20  17 -9.173687E+04  1.635921E+05 -5.123366E+04  1.317235E+02  2.417729E-09  3.195643E-09
        20  18 -9.177131E+04  1.634595E+05 -5.109539E+04  1.698800E+02 -1.573050E-09  9.016986E-09
        20  19  9.160139E+04  9.778323E+05  5.162279E+04 -1.063882E+02 -3.214479E+04  1.096681E+02
        20  20  9.163331E+04  9.779573E+05  5.178524E+04 -1.445560E+02 -3.213865E+04  2.900256E+02
        20  21  9.168803E+04  9.781204E+05  5.207352E+04 -1.597525E+02 -3.211437E+04  4.703872E+02
        20  22 -4.276220E+01  5.707051E+05  1.593147E+02  5.106016E+00 -3.214702E+04  1.165433E+02
        20  23 -4.785179E+01  5.706898E+05  2.770301E+02 -6.378378E+00 -3.214086E+04  2.532061E+02
        20  24 -3.770384E+01  5.707050E+05  4.903108E+02  5.108554E+00 -3.211656E+04  3.898735E+02
        20  25 -9.169366E+04  1.637479E+05 -5.130469E+04  1.165351E+02 -3.214924E+04  1.234142E+02
        20  26 -9.173577E+04  1.635924E+05 -5.123172E+04  1.317179E+02 -3.214308E+04  2.164094E+02
        20  27 -9.177020E+04  1.634598E+05 -5.109346E+04  1.698720E+02 -3.211875E+04  3.094099E+02
        21   1  2.953367E+05  2.633294E+04  3.867906E+05 -8.247359E+03 -1.643349E+03  2.637054E+05
        21   2 -7.117968E+04 -3.303858E+04  1.649061E+05 -2.725288E+03 -1.079094E+03  1.734936E+05
        21   3 -9.231506E+03  2.648076E+04  1.089095E+05  4.720635E+03 -5.169736E+02  8.327767E+04
        21   4  2.952132E+05  2.645616E+04  3.867906E+05  1.670601E+03 -1.639136E+03  2.637055E+05
        21   5 -7.121059E+04 -3.300762E+04  1.649061E+05 -2.374714E+02 -1.078399E+03  1.734936E+05
        21   6 -9.170074E+03  2.641933E+04  1.089095E+05 -2.212231E+02 -5.176363E+02  8.327767E+04
        21   7  2.950901E+05  2.657960E+04  3.867906E+05  1.158856E+04 -1.634923E+03  2.637055E+05
        21   8 -7.124149E+04 -3.297666E+04  1.649061E+05  2.250345E+03 -1.077704E+03  1.734936E+05
        21   9 -9.108550E+03  2.635795E+04  1.089095E+05 -5.163081E+03 -5.182995E+02  8.327766E+04
        21  10  2.953180E+05  2.625829E+04  3.866599E+05 -8.247011E+03 -1.583143E-05 -1.237967E-05
        21  11 -7.118783E+04 -3.307091E+04  1.648495E+05 -2.725138E+03 -7.004573E-05 -2.259103E-05
        21  12 -9.233488E+03  2.647328E+04  1.088964E+05  4.720670E+03 -1.238190E-04 -1.757202E-05
        21  13  2.951946E+05  2.638151E+04  3.866599E+05  1.670950E+03  1.965159E-05 -1.172030E-06
        21  14 -7.121867E+04 -3.303994E+04  1.648496E+05 -2.373210E+02  8.761766E-05 -5.196783E-06
        21  15 -9.171936E+03  2.641188E+04  1.088965E+05 -2.211881E+02  1.562355E-04 -9.217200E-06
        21  16  2.950715E+05  2.650495E+04  3.866599E+05  1.158891E+04 -1.607000E-05  1.114619E-05
        21  17 -7.124950E+04 -3.300896E+04  1.648496E+05  2.250494E+03 -7.051395E-05  1.712423E-05
        21  18 -9.110292E+03  2.635054E+04  1.088965E+05 -5.163047E+03 -1.240859E-04  7.880205E-06
        21  19  2.953367E+05  2.633293E+04  3.867906E+05 -8.247360E+03  1.643349E+03 -2.637054E+05
        21  20 -7.117981E+04 -3.303861E+04  1.649061E+05 -2.725289E+03  1.079094E+03 -1.734936E+05
        21  21 -9.231745E+03  2.648070E+04  1.089094E+05  4.720635E+03  5.169734E+02 -8.327767E+04
        21  22  2.952132E+05  2.645616E+04  3.867906E+05  1.670602E+03  1.639136E+03 -2.637055E+05
        21  23 -7.121059E+04 -3.300762E+04  1.649061E+05 -2.374720E+02  1.078399E+03 -1.734936E+05
        21  24 -9.170074E+03  2.641933E+04  1.089095E+05 -2.212225E+02  5.176366E+02 -8.327767E+04
        21  25  2.950902E+05  2.657960E+04  3.867906E+05  1.158856E+04  1.634923E+03 -2.637055E+05
        21  26 -7.124135E+04 -3.297663E+04  1.649062E+05  2.250343E+03  1.077703E+03 -1.734936E+05
        21  27 -9.108311E+03  2.635801E+04  1.089096E+05 -5.163082E+03  5.182992E+02 -8.327766E+04
        22   1  4.625041E+04  4.389602E+03  9.037232E+04 -1.231789E+03 -4.050631E+02  6.514158E+04
        22   2 -1.119798E+04 -5.507134E+03  4.329874E+04 -3.851257E+02 -2.634083E+02  4.237341E+04
        22   3 -1.241763E+03  4.415198E+03  2.790271E+04  7.573272E+02 -1.218386E+02  1.960545E+04
        22   4  4.623189E+04  4.408151E+03  9.037232E+04  2.599775E+02 -4.049063E+02  6.514158E+04
        22   5 -1.120230E+04 -5.502783E+03  4.329875E+04 -3.542850E+01 -2.633842E+02  4.237341E+04
        22   6 -1.231891E+03  4.405349E+03  2.790271E+04 -3.504132E+01 -1.218634E+02  1.960545E+04
        22   7  4.621339E+04  4.426704E+03  9.037233E+04  1.751744E+03 -4.047500E+02  6.514158E+04
        22   8 -1.120662E+04 -5.498432E+03  4.329876E+04  3.142688E+02 -2.633606E+02  4.237341E+04
        22   9 -1.222016E+03  4.395501E+03  2.790272E+04 -8.274097E+02 -1.218886E+02  1.960545E+04
        22  10  4.624914E+04  4.385014E+03  9.036431E+04 -1.231767E+03 -1.327603E-04 -1.532602E-06
        22  11 -1.119857E+04 -5.509088E+03  4.329534E+04 -3.851160E+02 -1.097493E-04  3.884269E-06
        22  12 -1.241949E+03  4.414765E+03  2.790196E+04  7.573298E+02 -8.672598E-05  4.683928E-06
        22  13  4.623075E+04  4.403594E+03  9.036435E+04  2.599985E+02  1.675701E-04 -9.948653E-06
        22  14 -1.120278E+04 -5.504711E+03  4.329538E+04 -3.541941E+01  1.374538E-04 -8.446085E-06
        22  15 -1.231994E+03  4.404936E+03  2.790199E+04 -3.503930E+01  1.072986E-04 -6.943951E-06
        22  16  4.621238E+04  4.422180E+03  9.036439E+04  1.751765E+03 -1.327126E-04 -8.909647E-06
        22  17 -1.120700E+04 -5.500333E+03  4.329541E+04  3.142777E+02 -1.095586E-04 -1.268783E-05
        22  18 -1.222036E+03  4.395109E+03  2.790201E+04 -8.274078E+02 -8.652744E-05 -1.184949E-05
        22  19  4.625015E+04  4.389538E+03  9.037225E+04 -1.231788E+03  4.050628E+02 -6.514158E+04
        22  20 -1.119819E+04 -5.507187E+03  4.329869E+04 -3.851243E+02  2.634081E+02 -4.237341E+04
        22  21 -1.241929E+03  4.415157E+03  2.790266E+04  7.573285E+02  1.218384E+02 -1.960545E+04
        22  22  4.623189E+04  4.408151E+03  9.037232E+04  2.599770E+02  4.049066E+02 -6.514158E+04
        22  23 -1.120230E+04 -5.502783E+03  4.329875E+04 -3.542830E+01  2.633845E+02 -4.237341E+04
        22  24 -1.231891E+03  4.405349E+03  2.790271E+04 -3.504112E+01  1.218636E+02 -1.960545E+04
        22  25  4.621364E+04  4.426768E+03  9.037240E+04  1.751743E+03  4.047498E+02 -6.514158E+04
        22  26 -1.120641E+04 -5.498379E+03  4.329881E+04  3.142686E+02  2.633604E+02 -4.237341E+04
        22  27 -1.221850E+03  4.395542E+03  2.790276E+04 -8.274098E+02  1.218885E+02 -1.960545E+04
        23   1  7.180041E+03  8.730286E+02  2.300624E+04 -1.970909E+02 -9.312372E+01  1.498084E+04
        23   2 -2.009664E+03 -1.090812E+03  1.358659E+04 -4.585887E+01 -4.986596E+01  8.022348E+03
        23   3  9.045820E+02  8.778477E+02  1.172350E+04  1.561644E+02 -6.613405E+00  1.063980E+03
        23   4  7.177122E+03  8.759622E+02  2.300624E+04  3.916835E+01 -9.311785E+01  1.498084E+04
        23   5 -2.010148E+03 -1.090317E+03  1.358659E+04 -5.717791E+00 -4.986530E+01  8.022348E+03
        23   6  9.065320E+02  8.759032E+02  1.172350E+04  1.900195E-01 -6.613566E+00  1.063980E+03
        23   7  7.174204E+03  8.788960E+02  2.300624E+04  2.754276E+02 -9.311232E+01  1.498084E+04
        23   8 -2.010632E+03 -1.089823E+03  1.358659E+04  3.442335E+01 -4.986492E+01  8.022348E+03
        23   9  9.084822E+02  8.739587E+02  1.172350E+04 -1.557842E+02 -6.613939E+00  1.063980E+03
        23  10  7.179908E+03  8.727695E+02  2.300580E+04 -1.970893E+02 -7.537396E-05  9.860242E-07
        23  11 -2.009740E+03 -1.090896E+03  1.358645E+04 -4.585825E+01 -6.075651E-05  2.163424E-07
        23  12  9.045363E+02  8.778353E+02  1.172349E+04  1.561653E+02 -4.823723E-05  9.099570E-06
        23  13  7.177062E+03  8.757213E+02  2.300582E+04  3.916946E+01  9.396857E-05 -6.217117E-06
        23  14 -2.010165E+03 -1.090387E+03  1.358647E+04 -5.717573E+00  7.711800E-05 -5.229375E-06
        23  15  9.065317E+02  8.759020E+02  1.172350E+04  1.905978E-01  5.836044E-05 -4.253449E-06
        23  16  7.174216E+03  8.786731E+02  2.300584E+04  2.754285E+02 -7.529207E-05 -7.363492E-06
        23  17 -2.010590E+03 -1.089877E+03  1.358648E+04  3.442342E+01 -6.071361E-05 -5.538344E-06
        23  18  9.085272E+02  8.739687E+02  1.172351E+04 -1.557838E+02 -4.784011E-05 -1.338985E-05
        23  19  7.179896E+03  8.729924E+02  2.300620E+04 -1.970900E+02  9.312357E+01 -1.498084E+04
        23  20 -2.009781E+03 -1.090841E+03  1.358656E+04 -4.585828E+01  4.986584E+01 -8.022348E+03
        23  21  9.044912E+02  8.778253E+02  1.172348E+04  1.561662E+02  6.613308E+00 -1.063980E+03
        23  22  7.177122E+03  8.759623E+02  2.300624E+04  3.916833E+01  9.311804E+01 -1.498084E+04
        23  23 -2.010148E+03 -1.090317E+03  1.358659E+04 -5.717999E+00  4.986546E+01 -8.022348E+03
        23  24  9.065320E+02  8.759032E+02  1.172350E+04  1.911647E-01  6.613682E+00 -1.063980E+03
        23  25  7.174348E+03  8.789322E+02  2.300628E+04  2.754272E+02  9.311217E+01 -1.498084E+04
        23  26 -2.010514E+03 -1.089794E+03  1.358662E+04  3.442284E+01  4.986480E+01 -8.022348E+03
        23  27  9.085728E+02  8.739811E+02  1.172352E+04 -1.557833E+02  6.613843E+00 -1.063980E+03
        24   1 -8.910622E+06 -2.767719E+06 -1.756681E+06 -3.164120E+06 -9.852697E+05 -3.659408E+05
        24   2 -8.731843E+06 -1.366469E+06 -8.617887E+05 -3.408195E+06 -6.359568E+05 -2.113129E+05
        24   3 -9.169786E+06 -1.352912E+06 -6.247044E+05 -3.246040E+06 -2.801924E+05 -7.368150E+04
        24   4 -8.359336E+06 -2.237675E+06 -1.541142E+06 -2.691474E+06 -9.737821E+05 -3.621891E+05
        24   5 -7.967970E+06 -9.849885E+05 -6.393587E+05 -3.107134E+06 -6.318755E+05 -2.098742E+05
        24   6 -8.191323E+06 -1.117674E+06 -3.889996E+05 -3.116803E+06 -2.833871E+05 -7.482476E+04
        24   7 -7.807499E+06 -1.706841E+06 -1.325595E+06 -2.218283E+06 -9.622832E+05 -3.584177E+05
        24   8 -7.203498E+06 -6.033327E+05 -4.169849E+05 -2.805690E+06 -6.277882E+05 -2.084316E+05
        24   9 -7.211888E+06 -8.824630E+05 -1.533505E+05 -2.987442E+06 -2.865872E+05 -7.596836E+04
        24  10 -8.911715E+06 -2.768131E+06 -1.758791E+06 -3.164414E+06 -1.922978E-09  3.790462E-10
        24  11 -8.732295E+06 -1.366628E+06 -8.626466E+05 -3.408304E+06 -4.562729E-09  1.035519E-09
        24  12 -9.169872E+06 -1.352939E+06 -6.248648E+05 -3.246057E+06  3.448291E-09 -1.199807E-10
        24  13 -8.360402E+06 -2.238077E+06 -1.543201E+06 -2.691761E+06 -5.539583E-09  4.956264E-10
        24  14 -7.968415E+06 -9.851457E+05 -6.402044E+05 -3.107242E+06  5.393232E-09  7.467394E-10
        24  15 -8.191412E+06 -1.117702E+06 -3.891635E+05 -3.116820E+06 -4.041972E-10 -9.637430E-10
        24  16 -7.808539E+06 -1.707233E+06 -1.327604E+06 -2.218563E+06  2.388942E-10  8.231321E-10
        24  17 -7.203938E+06 -6.034875E+05 -4.178184E+05 -2.805796E+06  5.689210E-11  8.725741E-10
        24  18 -7.211979E+06 -8.824917E+05 -1.535180E+05 -2.987460E+06 -4.505106E-09 -1.811518E-09
        24  19 -8.910622E+06 -2.767719E+06 -1.756681E+06 -3.164120E+06  9.852697E+05  3.659408E+05
        24  20 -8.731843E+06 -1.366469E+06 -8.617887E+05 -3.408195E+06  6.359568E+05  2.113129E+05
        24  21 -9.169786E+06 -1.352912E+06 -6.247044E+05 -3.246040E+06  2.801924E+05  7.368150E+04
        24  22 -8.359336E+06 -2.237675E+06 -1.541142E+06 -2.691474E+06  9.737821E+05  3.621891E+05
        24  23 -7.967970E+06 -9.849885E+05 -6.393587E+05 -3.107134E+06  6.318755E+05  2.098742E+05
        24  24 -8.191323E+06 -1.117674E+06 -3.889996E+05 -3.116803E+06  2.833871E+05  7.482476E+04
        24  25 -7.807499E+06 -1.706841E+06 -1.325595E+06 -2.218283E+06  9.622832E+05  3.584177E+05
        24  26 -7.203498E+06 -6.033327E+05 -4.169849E+05 -2.805690E+06  6.277882E+05  2.084316E+05
        24  27 -7.211888E+06 -8.824630E+05 -1.533505E+05 -2.987442E+06  2.865872E+05  7.596836E+04
        25   1 -9.034067E+06 -1.662110E+06 -5.651345E+05 -3.309587E+06 -2.289597E+05 -5.586477E+04
        25   2 -9.011649E+06 -1.503135E+06 -3.996335E+05 -3.337166E+06 -1.506673E+05 -2.365501E+04
        25   3 -9.063644E+06 -1.502815E+06 -3.378492E+05 -3.319653E+06 -7.148473E+04  6.225436E+03
        25   4 -8.136513E+06 -1.286353E+06 -3.169173E+05 -3.029327E+06 -2.277290E+05 -5.541532E+04
        25   5 -8.089887E+06 -1.143582E+06 -1.504784E+05 -3.075846E+06 -1.503632E+05 -2.354583E+04
        25   6 -8.117391E+06 -1.159129E+06 -8.690006E+04 -3.077298E+06 -7.210429E+04  5.989254E+03
        25   7 -7.238165E+06 -9.104985E+05 -6.877601E+04 -2.748678E+06 -2.264961E+05 -5.496483E+04
        25   8 -7.167290E+06 -7.839628E+05  9.860004E+04 -2.814165E+06 -1.500584E+05 -2.343638E+04
        25   9 -7.170257E+06 -8.154051E+05  1.639722E+05 -2.834610E+06 -7.272483E+04  5.752741E+03
        25  10 -9.034125E+06 -1.662127E+06 -5.652406E+05 -3.309597E+06  1.679487E-09 -2.325467E-09
        25  11 -9.011673E+06 -1.503142E+06 -3.996779E+05 -3.337169E+06 -2.301878E-09  1.445200E-09
        25  12 -9.063650E+06 -1.502817E+06 -3.378590E+05 -3.319653E+06 -2.012927E-09  1.128664E-09
        25  13 -8.136570E+06 -1.286370E+06 -3.170221E+05 -3.029338E+06  3.758616E-09 -5.674655E-10
        25  14 -8.089911E+06 -1.143588E+06 -1.505226E+05 -3.075849E+06 -3.745478E-09  6.570960E-10
        25  15 -8.117396E+06 -1.159130E+06 -8.691001E+04 -3.077297E+06 -8.141742E-10  9.706400E-10
        25  16 -7.238222E+06 -9.105158E+05 -6.887945E+04 -2.748689E+06  1.994587E-09 -3.184023E-10
        25  17 -7.167315E+06 -7.839695E+05  9.855615E+04 -2.814168E+06  1.987300E-09  4.090838E-10
        25  18 -7.170263E+06 -8.154066E+05  1.639621E+05 -2.834610E+06  2.440573E-09  1.661608E-09
        25  19 -9.034067E+06 -1.662110E+06 -5.651345E+05 -3.309587E+06  2.289597E+05  5.586477E+04
        25  20 -9.011649E+06 -1.503135E+06 -3.996335E+05 -3.337166E+06  1.506673E+05  2.365501E+04
        25  21 -9.063644E+06 -1.502815E+06 -3.378492E+05 -3.319653E+06  7.148473E+04 -6.225436E+03
        25  22 -8.136513E+06 -1.286353E+06 -3.169173E+05 -3.029327E+06  2.277290E+05  5.541532E+04
        25  23 -8.089887E+06 -1.143582E+06 -1.504784E+05 -3.075846E+06  1.503632E+05  2.354583E+04
        25  24 -8.117391E+06 -1.159129E+06 -8.690006E+04 -3.077298E+06  7.210429E+04 -5.989254E+03
        25  25 -7.238165E+06 -9.104985E+05 -6.877601E+04 -2.748678E+06  2.264961E+05  5.496483E+04
        25  26 -7.167290E+06 -7.839628E+05  9.860004E+04 -2.814165E+06  1.500584E+05  2.343638E+04
        25  27 -7.170257E+06 -8.154051E+05  1.639722E+05 -2.834610E+06  7.272483E+04 -5.752741E+03
        26   1 -9.012452E+06 -1.531282E+06 -3.121960E+05 -3.324376E+06 -5.916307E+04  1.022229E+04
        26   2 -8.983656E+06 -1.487161E+06 -2.691330E+05 -3.303700E+06 -4.063834E+04  1.602160E+04
        26   3 -8.940134E+06 -1.484312E+06 -2.444520E+05 -3.304492E+06 -2.175757E+04  2.087082E+04
        26   4 -8.104936E+06 -1.183212E+06 -6.799382E+04 -3.073128E+06 -5.947197E+04  1.010166E+04
        26   5 -8.111245E+06 -1.155428E+06 -3.497526E+04 -3.065081E+06 -4.134303E+04  1.575246E+04
        26   6 -8.102736E+06 -1.168814E+06 -2.000006E+04 -3.078501E+06 -2.285946E+04  2.045318E+04
        26   7 -7.196614E+06 -8.350869E+05  1.761348E+05 -2.821541E+06 -5.978132E+04  9.980867E+03
        26   8 -7.238089E+06 -8.236474E+05  1.991145E+05 -2.826154E+06 -4.204879E+04  1.548292E+04
        26   9 -7.264654E+06 -8.532770E+05  2.043892E+05 -2.852231E+06 -2.396300E+04  2.003492E+04
        26  10 -9.012455E+06 -1.531283E+06 -3.122028E+05 -3.324375E+06  7.073836E-10 -1.478228E-09
        26  11 -8.983658E+06 -1.487162E+06 -2.691366E+05 -3.303700E+06 -2.136144E-10 -9.629574E-10
        26  12 -8.940134E+06 -1.484313E+06 -2.444538E+05 -3.304491E+06 -3.305387E-10 -3.470276E-10
        26  13 -8.104940E+06 -1.183213E+06 -6.800073E+04 -3.073127E+06 -4.521128E-10  3.359096E-10
        26  14 -8.111247E+06 -1.155428E+06 -3.497896E+04 -3.065081E+06  4.552955E-09  3.672943E-10
        26  15 -8.102737E+06 -1.168815E+06 -2.000183E+04 -3.078501E+06 -9.229476E-10  7.486676E-10
        26  16 -7.196618E+06 -8.350879E+05  1.761278E+05 -2.821540E+06  3.517015E-09 -2.183595E-10
        26  17 -7.238091E+06 -8.236481E+05  1.991107E+05 -2.826153E+06  7.914757E-09 -1.485199E-09
        26  18 -7.264655E+06 -8.532775E+05  2.043873E+05 -2.852231E+06 -3.199463E-09  1.217758E-09
        26  19 -9.012452E+06 -1.531282E+06 -3.121960E+05 -3.324376E+06  5.916307E+04 -1.022229E+04
        26  20 -8.983656E+06 -1.487161E+06 -2.691330E+05 -3.303700E+06  4.063834E+04 -1.602160E+04
        26  21 -8.940134E+06 -1.484312E+06 -2.444520E+05 -3.304492E+06  2.175757E+04 -2.087082E+04
        26  22 -8.104936E+06 -1.183212E+06 -6.799382E+04 -3.073128E+06  5.947197E+04 -1.010166E+04
        26  23 -8.111245E+06 -1.155428E+06 -3.497526E+04 -3.065081E+06  4.134303E+04 -1.575246E+04
        26  24 -8.102736E+06 -1.168814E+06 -2.000006E+04 -3.078501E+06  2.285946E+04 -2.045318E+04
        26  25 -7.196614E+06 -8.350869E+05  1.761348E+05 -2.821541E+06  5.978132E+04 -9.980867E+03
        26  26 -7.238089E+06 -8.236474E+05  1.991145E+05 -2.826154E+06  4.204879E+04 -1.548292E+04
        26  27 -7.264654E+06 -8.532770E+05  2.043892E+05 -2.852231E+06  2.396300E+04 -2.003492E+04
        27   1 -8.843450E+06 -1.458911E+06 -2.157071E+05 -3.286432E+06 -1.827947E+04  2.050691E+04
        27   2 -8.791615E+06 -1.405696E+06 -1.896220E+05 -3.240312E+06 -1.223445E+04  1.951754E+04
        27   3 -8.695004E+06 -1.400264E+06 -1.677169E+05 -3.245690E+06 -5.954435E+03  1.788799E+04
        27   4 -8.096836E+06 -1.175879E+06 -1.566160E+04 -3.083045E+06 -1.941508E+04  2.007744E+04
        27   5 -8.119112E+06 -1.151203E+06 -9.377837E+03 -3.057595E+06 -1.364835E+04  1.898473E+04
        27   6 -8.096566E+06 -1.174246E+06 -7.047359E+03 -3.083641E+06 -7.647468E+03  1.725194E+04
        27   7 -7.349672E+06 -8.928113E+05  1.843353E+05 -2.879433E+06 -2.055222E+04  1.964740E+04
        27   8 -7.446167E+06 -8.966823E+05  1.708259E+05 -2.874697E+06 -1.506397E+04  1.845128E+04
        27   9 -7.497781E+06 -9.482100E+05  1.535892E+05 -2.921450E+06 -9.342307E+03  1.661521E+04
        27  10 -8.843451E+06 -1.458911E+06 -2.157085E+05 -3.286432E+06 -3.321113E-09 -5.340830E-10
        27  11 -8.791615E+06 -1.405697E+06 -1.896229E+05 -3.240312E+06 -6.483661E-09 -1.737375E-09
        27  12 -8.695004E+06 -1.400264E+06 -1.677176E+05 -3.245690E+06 -7.050969E-09 -1.588637E-09
        27  13 -8.096837E+06 -1.175879E+06 -1.566306E+04 -3.083045E+06 -6.764581E-09 -6.970938E-10
        27  14 -8.119112E+06 -1.151203E+06 -9.378862E+03 -3.057595E+06 -4.467707E-09 -1.805690E-09
        27  15 -8.096566E+06 -1.174247E+06 -7.048026E+03 -3.083641E+06 -9.794412E-09 -3.101008E-09
        27  16 -7.349673E+06 -8.928118E+05  1.843338E+05 -2.879432E+06 -2.500660E-09  3.898199E-10
        27  17 -7.446168E+06 -8.966827E+05  1.708248E+05 -2.874697E+06  2.722850E-09 -9.538249E-10
        27  18 -7.497781E+06 -9.482103E+05  1.535885E+05 -2.921450E+06  3.997459E-09  1.241677E-09
        27  19 -8.843450E+06 -1.458911E+06 -2.157071E+05 -3.286432E+06  1.827947E+04 -2.050691E+04
        27  20 -8.791615E+06 -1.405696E+06 -1.896220E+05 -3.240312E+06  1.223445E+04 -1.951754E+04
        27  21 -8.695004E+06 -1.400264E+06 -1.677169E+05 -3.245690E+06  5.954435E+03 -1.788799E+04
        27  22 -8.096836E+06 -1.175879E+06 -1.566160E+04 -3.083045E+06  1.941508E+04 -2.007744E+04
        27  23 -8.119112E+06 -1.151203E+06 -9.377837E+03 -3.057595E+06  1.364835E+04 -1.898473E+04
        27  24 -8.096566E+06 -1.174246E+06 -7.047359E+03 -3.083641E+06  7.647468E+03 -1.725194E+04
        27  25 -7.349672E+06 -8.928113E+05  1.843353E+05 -2.879433E+06  2.055222E+04 -1.964740E+04
        27  26 -7.446167E+06 -8.966823E+05  1.708259E+05 -2.874697E+06  1.506397E+04 -1.845128E+04
        27  27 -7.497781E+06 -9.482100E+05  1.535892E+05 -2.921450E+06  9.342307E+03 -1.661521E+04
        28   1 -8.552319E+06 -1.351296E+06 -1.295912E+05 -3.212190E+06 -3.920305E+03  1.606856E+04
        28   2 -8.482927E+06 -1.282770E+06 -1.046363E+05 -3.150195E+06  1.894735E+03  1.359366E+04
        28   3 -8.354014E+06 -1.276902E+06 -8.340046E+04 -3.157440E+06  7.826753E+03  1.079665E+04
        28   4 -8.093276E+06 -1.177714E+06 -6.904450E+03 -3.087508E+06 -5.661078E+03  1.541557E+04
        28   5 -8.123116E+06 -1.146893E+06 -8.271361E+03 -3.052704E+06  1.346205E+01  1.288896E+04
        28   6 -8.093417E+06 -1.178698E+06 -1.324269E+04 -3.087142E+06  5.804191E+03  1.004006E+04
        28   7 -7.634024E+06 -1.004120E+06  1.157642E+05 -2.962740E+06 -7.403290E+03  1.476204E+04
        28   8 -7.763176E+06 -1.011007E+06  8.808272E+04 -2.955160E+06 -1.869036E+03  1.218379E+04
        28   9 -7.832752E+06 -1.080490E+06  5.690965E+04 -3.016816E+06  3.780666E+03  9.283120E+03
        28  10 -8.552319E+06 -1.351296E+06 -1.295917E+05 -3.212190E+06  1.352732E-09  4.281755E-11
        28  11 -8.482927E+06 -1.282770E+06 -1.046367E+05 -3.150195E+06  4.704383E-09 -1.025806E-09
        28  12 -8.354014E+06 -1.276902E+06 -8.340080E+04 -3.157440E+06 -2.837915E-09  2.929842E-11
        28  13 -8.093276E+06 -1.177715E+06 -6.904954E+03 -3.087508E+06 -3.840280E-09 -1.893551E-09
        28  14 -8.123116E+06 -1.146893E+06 -8.271672E+03 -3.052704E+06 -2.810169E-09 -2.489638E-09
        28  15 -8.093417E+06 -1.178698E+06 -1.324295E+04 -3.087142E+06 -4.276050E-09 -1.767022E-11
        28  16 -7.634024E+06 -1.004120E+06  1.157637E+05 -2.962740E+06 -7.170326E-09 -1.892396E-09
        28  17 -7.763176E+06 -1.011007E+06  8.808244E+04 -2.955160E+06 -3.716971E-09 -3.043914E-09
        28  18 -7.832752E+06 -1.080490E+06  5.690946E+04 -3.016816E+06 -6.437660E-10 -1.118990E-10
        28  19 -8.552319E+06 -1.351296E+06 -1.295912E+05 -3.212190E+06  3.920305E+03 -1.606856E+04
        28  20 -8.482927E+06 -1.282770E+06 -1.046363E+05 -3.150195E+06 -1.894735E+03 -1.359366E+04
        28  21 -8.354014E+06 -1.276902E+06 -8.340046E+04 -3.157440E+06 -7.826753E+03 -1.079665E+04
        28  22 -8.093276E+06 -1.177714E+06 -6.904450E+03 -3.087508E+06  5.661078E+03 -1.541557E+04
        28  23 -8.123116E+06 -1.146893E+06 -8.271361E+03 -3.052704E+06 -1.346205E+01 -1.288896E+04
        28  24 -8.093417E+06 -1.178698E+06 -1.324269E+04 -3.087142E+06 -5.804191E+03 -1.004006E+04
        28  25 -7.634024E+06 -1.004120E+06  1.157642E+05 -2.962740E+06  7.403290E+03 -1.476204E+04
        28  26 -7.763176E+06 -1.011007E+06  8.808272E+04 -2.955160E+06  1.869036E+03 -1.218379E+04
        28  27 -7.832752E+06 -1.080490E+06  5.690965E+04 -3.016816E+06 -3.780666E+03 -9.283120E+03
        29   1 -8.187113E+06 -1.215266E+06 -4.188127E+04 -3.116615E+06  1.133518E+04  9.024581E+03
        29   2 -8.110698E+06 -1.138493E+06 -2.555468E+04 -3.047433E+06  2.769756E+04  9.896567E+03
        29   3 -7.976290E+06 -1.142842E+06 -2.440419E+04 -3.050358E+06  4.401237E+04  1.090316E+04
        29   4 -8.093101E+06 -1.178247E+06 -1.679931E+04 -3.089474E+06  9.260509E+03  8.248939E+03
        29   5 -8.122967E+06 -1.143586E+06 -2.892726E+04 -3.051234E+06  2.568167E+04  9.142784E+03
        29   6 -8.094866E+06 -1.190062E+06 -5.627939E+04 -3.085106E+06  4.205252E+04  1.017013E+04
        29   7 -7.999080E+06 -1.141227E+06  8.281695E+03 -3.062329E+06  7.185502E+03  7.473158E+03
        29   8 -8.135236E+06 -1.148680E+06 -3.229982E+04 -3.055035E+06  2.366582E+04  8.389024E+03
        29   9 -8.213427E+06 -1.237280E+06 -8.815579E+04 -3.119848E+06  4.009309E+04  9.437282E+03
        29  10 -8.187113E+06 -1.215266E+06 -4.188167E+04 -3.116616E+06 -2.564960E-09  1.960124E-09
        29  11 -8.110699E+06 -1.138493E+06 -2.555633E+04 -3.047433E+06  3.118387E-09 -1.700592E-09
        29  12 -7.976292E+06 -1.142843E+06 -2.440811E+04 -3.050358E+06 -1.081542E-09 -2.115260E-09
        29  13 -8.093101E+06 -1.178247E+06 -1.679960E+04 -3.089474E+06 -1.062897E-08 -1.825731E-10
        29  14 -8.122968E+06 -1.143587E+06 -2.892867E+04 -3.051234E+06  6.948782E-10 -1.602968E-09
        29  15 -8.094867E+06 -1.190063E+06 -5.628296E+04 -3.085106E+06  1.225062E-09 -1.522897E-09
        29  16 -7.999080E+06 -1.141228E+06  8.281491E+03 -3.062330E+06 -3.896444E-09 -8.423312E-10
        29  17 -8.135237E+06 -1.148680E+06 -3.230102E+04 -3.055035E+06 -3.485683E-10 -3.643070E-09
        29  18 -8.213429E+06 -1.237281E+06 -8.815903E+04 -3.119848E+06  6.088852E-09  2.190075E-11
        29  19 -8.187113E+06 -1.215266E+06 -4.188127E+04 -3.116615E+06 -1.133518E+04 -9.024581E+03
        29  20 -8.110698E+06 -1.138493E+06 -2.555468E+04 -3.047433E+06 -2.769756E+04 -9.896567E+03
        29  21 -7.976290E+06 -1.142842E+06 -2.440419E+04 -3.050358E+06 -4.401237E+04 -1.090316E+04
        29  22 -8.093101E+06 -1.178247E+06 -1.679931E+04 -3.089474E+06 -9.260509E+03 -8.248939E+03
        29  23 -8.122967E+06 -1.143586E+06 -2.892726E+04 -3.051234E+06 -2.568167E+04 -9.142784E+03
        29  24 -8.094866E+06 -1.190062E+06 -5.627939E+04 -3.085106E+06 -4.205252E+04 -1.017013E+04
        29  25 -7.999080E+06 -1.141227E+06  8.281695E+03 -3.062329E+06 -7.185502E+03 -7.473158E+03
        29  26 -8.135236E+06 -1.148680E+06 -3.229982E+04 -3.055035E+06 -2.366582E+04 -8.389024E+03
        29  27 -8.213427E+06 -1.237280E+06 -8.815579E+04 -3.119848E+06 -4.009309E+04 -9.437282E+03
        30   1 -7.806734E+06 -1.075688E+06  4.854305E+03 -3.026460E+06  5.579345E+04  1.201259E+04
        30   2 -7.731563E+06 -9.795812E+05 -2.169802E+04 -2.945398E+06  1.213322E+05  3.159197E+04
        30   3 -7.655062E+06 -1.077671E+06 -1.328082E+05 -2.900021E+06  1.861748E+05  5.306941E+04
        30   4 -8.101595E+06 -1.173690E+06 -7.187762E+04 -3.092531E+06  5.342584E+04  1.112832E+04
        30   5 -8.109895E+06 -1.129305E+06 -1.242887E+05 -3.055043E+06  1.197653E+05  3.100310E+04
        30   6 -8.117079E+06 -1.279343E+06 -2.619464E+05 -3.053245E+06  1.853988E+05  5.276766E+04
        30   7 -8.396372E+06 -1.271692E+06 -1.486169E+05 -3.158576E+06  5.105947E+04  1.024438E+04
        30   8 -8.488088E+06 -1.279016E+06 -2.268924E+05 -3.164625E+06  1.181994E+05  3.041466E+04
        30   9 -8.578885E+06 -1.480980E+06 -3.911048E+05 -3.206357E+06  1.846235E+05  5.246622E+04
        30  10 -7.806738E+06 -1.075689E+06  4.848097E+03 -3.026460E+06  2.881632E-11  1.834246E-09
        30  11 -7.731579E+06 -9.795863E+05 -2.172798E+04 -2.945401E+06  3.645665E-09  1.201139E-09
        30  12 -7.655100E+06 -1.077683E+06 -1.328796E+05 -2.900029E+06 -1.372497E-09  1.520656E-09
        30  13 -8.101598E+06 -1.173691E+06 -7.188330E+04 -3.092532E+06 -4.434786E-10  2.143912E-10
        30  14 -8.109911E+06 -1.129310E+06 -1.243178E+05 -3.055046E+06  6.069268E-10  1.491402E-09
        30  15 -8.117117E+06 -1.279355E+06 -2.620173E+05 -3.053253E+06  2.227555E-09  1.966222E-09
        30  16 -8.396375E+06 -1.271693E+06 -1.486220E+05 -3.158577E+06 -4.160737E-10  9.715454E-11
        30  17 -8.488103E+06 -1.279021E+06 -2.269208E+05 -3.164628E+06  9.357632E-10  1.579476E-09
        30  18 -8.578923E+06 -1.480992E+06 -3.911751E+05 -3.206365E+06 -1.536066E-09  7.159647E-10
        30  19 -7.806734E+06 -1.075688E+06  4.854305E+03 -3.026460E+06 -5.579345E+04 -1.201259E+04
        30  20 -7.731563E+06 -9.795812E+05 -2.169802E+04 -2.945398E+06 -1.213322E+05 -3.159197E+04
        30  21 -7.655062E+06 -1.077671E+06 -1.328082E+05 -2.900021E+06 -1.861748E+05 -5.306941E+04
        30  22 -8.101595E+06 -1.173690E+06 -7.187762E+04 -3.092531E+06 -5.342584E+04 -1.112832E+04
        30  23 -8.109895E+06 -1.129305E+06 -1.242887E+05 -3.055043E+06 -1.197653E+05 -3.100310E+04
        30  24 -8.117079E+06 -1.279343E+06 -2.619464E+05 -3.053245E+06 -1.853988E+05 -5.276766E+04
        30  25 -8.396372E+06 -1.271692E+06 -1.486169E+05 -3.158576E+06 -5.105947E+04 -1.024438E+04
        30  26 -8.488088E+06 -1.279016E+06 -2.268924E+05 -3.164625E+06 -1.181994E+05 -3.041466E+04
        30  27 -8.578885E+06 -1.480980E+06 -3.911048E+05 -3.206357E+06 -1.846235E+05 -5.246622E+04
        31   1 -7.461345E+06 -9.885916E+05 -1.558547E+05 -3.052018E+06  2.384871E+05  6.720592E+04
        31   2 -7.374645E+06 -6.827783E+05 -3.440844E+05 -2.830832E+06  5.207817E+05  1.696957E+05
        31   3 -7.721746E+06 -1.591285E+06 -1.063840E+06 -2.356241E+06  7.960809E+05  2.909683E+05
        31   4 -8.161654E+06 -1.140453E+06 -3.214639E+05 -3.126044E+06  2.327905E+05  6.512204E+04
        31   5 -8.011355E+06 -9.966631E+05 -5.284521E+05 -3.079040E+06  5.230767E+05  1.704785E+05
        31   6 -8.297099E+06 -2.069738E+06 -1.273828E+06 -2.778463E+06  8.063935E+05  2.944242E+05
        31   7 -8.861460E+06 -1.292326E+06 -4.870980E+05 -3.200030E+06  2.271009E+05  6.303822E+04
        31   8 -8.647650E+06 -1.310430E+06 -7.128583E+05 -3.326985E+06  5.253688E+05  1.712596E+05
        31   9 -8.871952E+06 -2.547606E+06 -1.483827E+06 -3.200202E+06  8.166953E+05  2.978648E+05
        31  10 -7.461408E+06 -9.886121E+05 -1.559716E+05 -3.052031E+06  2.402046E-12  4.260323E-10
        31  11 -7.374947E+06 -6.828836E+05 -3.446561E+05 -2.830904E+06 -1.780006E-09 -8.861281E-10
        31  12 -7.722457E+06 -1.591550E+06 -1.065208E+06 -2.356429E+06 -2.059328E-09 -9.379195E-10
        31  13 -8.161714E+06 -1.140472E+06 -3.215754E+05 -3.126057E+06  1.133284E-09  1.647243E-10
        31  14 -8.011660E+06 -9.967695E+05 -5.290295E+05 -3.079113E+06 -3.089714E-09 -1.174955E-09
        31  15 -8.297829E+06 -2.070010E+06 -1.275234E+06 -2.778656E+06 -8.977753E-10 -6.365034E-10
        31  16 -8.861517E+06 -1.292345E+06 -4.872041E+05 -3.200042E+06  3.457986E-10  1.066778E-11
        31  17 -8.647958E+06 -1.310537E+06 -7.134414E+05 -3.327058E+06 -1.600544E-09  3.748300E-10
        31  18 -8.872702E+06 -2.547885E+06 -1.485270E+06 -3.200400E+06 -4.145168E-10  6.524446E-10
        31  19 -7.461345E+06 -9.885916E+05 -1.558547E+05 -3.052018E+06 -2.384871E+05 -6.720592E+04
        31  20 -7.374645E+06 -6.827783E+05 -3.440844E+05 -2.830832E+06 -5.207817E+05 -1.696957E+05
        31  21 -7.721746E+06 -1.591285E+06 -1.063840E+06 -2.356241E+06 -7.960809E+05 -2.909683E+05
        31  22 -8.161654E+06 -1.140453E+06 -3.214639E+05 -3.126044E+06 -2.327905E+05 -6.512204E+04
        31  23 -8.011355E+06 -9.966631E+05 -5.284521E+05 -3.079040E+06 -5.230767E+05 -1.704785E+05
        31  24 -8.297099E+06 -2.069738E+06 -1.273828E+06 -2.778463E+06 -8.063935E+05 -2.944242E+05
        31  25 -8.861460E+06 -1.292326E+06 -4.870980E+05 -3.200030E+06 -2.271009E+05 -6.303822E+04
        31  26 -8.647650E+06 -1.310430E+06 -7.128583E+05 -3.326985E+06 -5.253688E+05 -1.712596E+05
        31  27 -8.871952E+06 -2.547606E+06 -1.483827E+06 -3.200202E+06 -8.166953E+05 -2.978648E+05
        32   1  3.066551E+05  7.210344E+04  3.426512E+05 -2.070493E+05  2.133842E+02  2.129126E+05
        32   2  6.617422E+04  1.343368E+04  1.779729E+05 -1.051095E+05  1.102223E+03  1.224669E+05
        32   3  7.414273E+03  1.196494E+04  1.176269E+05 -1.021272E+04  1.146217E+02  3.202111E+04
        32   4  2.890064E+05  3.599239E+03  3.259872E+05 -2.869590E+04  2.780159E+02  2.102909E+05
        32   5  5.662032E+04 -2.474051E+04  1.697001E+05 -2.536736E+04  1.117532E+03  1.227809E+05
        32   6  5.417393E+03  3.598231E+03  1.157096E+05 -2.906950E+04  1.092811E+02  3.526628E+04
        32   7  2.714769E+05 -6.483241E+04  3.093400E+05  1.496377E+05  3.411473E+02  2.076695E+05
        32   8  4.709022E+04 -6.289969E+04  1.614306E+05  5.436978E+04  1.132922E+03  1.230948E+05
        32   9  3.421851E+03 -4.767631E+03  1.137925E+05 -4.792602E+04  1.037433E+02  3.851142E+04
        32  10  3.066429E+05  7.205478E+04  3.425660E+05 -2.070493E+05  6.490094E-10  1.088089E-09
        32  11  6.617020E+04  1.341758E+04  1.779447E+05 -1.051096E+05 -2.756690E-09 -1.542293E-08
        32  12  7.413998E+03  1.196384E+04  1.176249E+05 -1.021273E+04  1.480310E-10 -2.647639E-08
        32  13  2.889945E+05  3.551763E+03  3.259041E+05 -2.869595E+04 -1.599154E-09  2.294466E-11
        32  14  5.661627E+04 -2.475670E+04  1.696718E+05 -2.536747E+04  1.277965E-08  1.663463E-11
        32  15  5.417059E+03  3.596896E+03  1.157072E+05 -2.906950E+04  1.091966E-08 -3.248173E-10
        32  16  2.714653E+05 -6.487871E+04  3.092589E+05  1.496376E+05 -4.389397E-10 -1.039003E-09
        32  17  4.708615E+04 -6.291596E+04  1.614022E+05  5.436967E+04  2.703329E-09  1.434564E-08
        32  18  3.421453E+03 -4.769223E+03  1.137897E+05 -4.792603E+04 -5.254761E-10  2.673026E-08
        32  19  3.066551E+05  7.210344E+04  3.426512E+05 -2.070493E+05 -2.133842E+02 -2.129126E+05
        32  20  6.617422E+04  1.343368E+04  1.779729E+05 -1.051095E+05 -1.102223E+03 -1.224669E+05
        32  21  7.414273E+03  1.196494E+04  1.176269E+05 -1.021272E+04 -1.146217E+02 -3.202111E+04
        32  22  2.890064E+05  3.599239E+03  3.259872E+05 -2.869590E+04 -2.780159E+02 -2.102909E+05
        32  23  5.662032E+04 -2.474051E+04  1.697001E+05 -2.536736E+04 -1.117532E+03 -1.227809E+05
        32  24  5.417393E+03  3.598231E+03  1.157096E+05 -2.906950E+04 -1.092811E+02 -3.526628E+04
        32  25  2.714769E+05 -6.483241E+04  3.093400E+05  1.496377E+05 -3.411473E+02 -2.076695E+05
        32  26  4.709022E+04 -6.289969E+04  1.614306E+05  5.436978E+04 -1.132922E+03 -1.230948E+05
        32  27  3.421851E+03 -4.767631E+03  1.137925E+05 -4.792602E+04 -1.037433E+02 -3.851142E+04
        33   1  8.843507E+03 -1.776127E+04  1.043965E+05 -3.824363E+04 -1.101233E+03  1.485352E+04
        33   2 -5.265329E+03 -5.490427E+04  1.018311E+05 -2.427736E+04 -2.858184E+03 -3.943808E+04
        33   3  7.400413E+03 -7.829965E+04  1.413159E+05 -1.758199E+04 -4.453411E+03 -9.372831E+04
        33   4  1.154642E+04 -5.934717E+03  1.062324E+05 -2.907005E+04 -1.105087E+03  1.788199E+04
        33   5  4.657473E+03 -1.282837E+04  1.093485E+05 -2.542615E+04 -2.861789E+03 -3.667135E+04
        33   6  2.458691E+04 -5.931635E+03  1.546945E+05 -2.905246E+04 -4.454972E+03 -9.122583E+04
        33   7  1.424965E+04  5.892174E+03  1.080683E+05 -1.989628E+04 -1.108851E+03  2.091052E+04
        33   8  1.458019E+04  2.924928E+04  1.168658E+05 -2.657502E+04 -2.865404E+03 -3.390443E+04
        33   9  4.177361E+04  6.644175E+04  1.680730E+05 -4.052430E+04 -4.456625E+03 -8.872306E+04
        33  10  8.843447E+03 -1.776150E+04  1.043961E+05 -3.824361E+04  7.375933E-10  3.484346E-08
        33  11 -5.265756E+03 -5.490594E+04  1.018282E+05 -2.427745E+04 -4.412806E-10  1.367414E-08
        33  12  7.398033E+03 -7.830908E+04  1.412994E+05 -1.758232E+04 -2.559835E-09 -1.009662E-08
        33  13  1.154633E+04 -5.935060E+03  1.062318E+05 -2.907003E+04  1.080424E-08 -2.242602E-11
        33  14  4.657103E+03 -1.282982E+04  1.093459E+05 -2.542623E+04  9.976272E-09  1.654792E-12
        33  15  2.458466E+04 -5.940576E+03  1.546789E+05 -2.905278E+04  4.798065E-09 -1.774460E-10
        33  16  1.424953E+04  5.891705E+03  1.080675E+05 -1.989626E+04  1.780166E-09 -3.489744E-08
        33  17  1.457987E+04  2.924804E+04  1.168636E+05 -2.657510E+04  3.946088E-09 -1.463164E-08
        33  18  4.177147E+04  6.643329E+04  1.680582E+05 -4.052462E+04  5.728549E-10  1.050581E-08
        33  19  8.843507E+03 -1.776127E+04  1.043965E+05 -3.824363E+04  1.101233E+03 -1.485352E+04
        33  20 -5.265329E+03 -5.490427E+04  1.018311E+05 -2.427736E+04  2.858184E+03  3.943808E+04
        33  21  7.400413E+03 -7.829965E+04  1.413159E+05 -1.758199E+04  4.453411E+03  9.372831E+04
        33  22  1.154642E+04 -5.934717E+03  1.062324E+05 -2.907005E+04  1.105087E+03 -1.788199E+04
        33  23  4.657473E+03 -1.282837E+04  1.093485E+05 -2.542615E+04  2.861789E+03  3.667135E+04
        33  24  2.458691E+04 -5.931635E+03  1.546945E+05 -2.905246E+04  4.454972E+03  9.122583E+04
        33  25  1.424965E+04  5.892174E+03  1.080683E+05 -1.989628E+04  1.108851E+03 -2.091052E+04
        33  26  1.458019E+04  2.924928E+04  1.168658E+05 -2.657502E+04  2.865404E+03  3.390443E+04
        33  27  4.177361E+04  6.644175E+04  1.680730E+05 -4.052430E+04  4.456625E+03  8.872306E+04
        34   1 -1.120152E+04 -7.616275E+04  1.740892E+05 -7.071468E+04 -5.581957E+03 -1.203348E+05
        34   2  8.708430E+04 -1.628460E+05  3.027205E+05  1.360470E+05 -5.437359E+03 -2.834209E+05
        34   3  5.557970E+05 -1.356017E+05  6.302466E+05  3.360858E+05 -1.547670E+03 -4.464900E+05
        34   4  1.064983E+04  1.653990E+04  1.913069E+05 -2.904984E+04 -5.593959E+03 -1.173197E+05
        34   5  1.168698E+05 -4.089238E+04  3.274023E+05 -2.530226E+04 -5.359622E+03 -2.865332E+05
        34   6  5.943831E+05  1.654818E+04  6.666018E+05 -2.829972E+04 -1.273841E+03 -4.557391E+05
        34   7  3.250723E+04  1.092546E+05  2.085251E+05  1.262138E+04 -5.605555E+03 -1.143041E+05
        34   8  1.467522E+05  8.113128E+04  3.520972E+05 -1.866839E+05 -5.280279E+03 -2.896460E+05
        34   9  6.334665E+05  1.690044E+05  7.030269E+05 -3.927754E+05 -9.892101E+02 -4.649906E+05
        34  10 -1.120544E+04 -7.617831E+04  1.740619E+05 -7.071522E+04 -4.804249E-09  3.195924E-09
        34  11  8.706270E+04 -1.629322E+05  3.025695E+05  1.360457E+05 -5.753980E-09  2.704678E-09
        34  12  5.557435E+05 -1.358157E+05  6.298718E+05  3.360853E+05  3.987468E-10  2.902540E-09
        34  13  1.064610E+04  1.652512E+04  1.912809E+05 -2.905037E+04 -5.650813E-09  2.625538E-11
        34  14  1.168477E+05 -4.098052E+04  3.272479E+05 -2.530349E+04 -5.405419E-09 -2.254026E-11
        34  15  5.943273E+05  1.632526E+04  6.662115E+05 -2.830019E+04 -9.873924E-10 -2.693651E-10
        34  16  3.250369E+04  1.092406E+05  2.085005E+05  1.262087E+04  1.606614E-09 -3.054281E-09
        34  17  1.467296E+05  8.104122E+04  3.519395E+05 -1.866851E+05 -2.121858E-09 -3.611505E-09
        34  18  6.334085E+05  1.687724E+05  7.026207E+05 -3.927758E+05  2.073856E-09 -2.514695E-09
        34  19 -1.120152E+04 -7.616275E+04  1.740892E+05 -7.071468E+04  5.581957E+03  1.203348E+05
        34  20  8.708430E+04 -1.628460E+05  3.027205E+05  1.360470E+05  5.437359E+03  2.834209E+05
        34  21  5.557970E+05 -1.356017E+05  6.302466E+05  3.360858E+05  1.547670E+03  4.464900E+05
        34  22  1.064983E+04  1.653990E+04  1.913069E+05 -2.904984E+04  5.593959E+03  1.173197E+05
        34  23  1.168698E+05 -4.089238E+04  3.274023E+05 -2.530226E+04  5.359622E+03  2.865332E+05
        34  24  5.943831E+05  1.654818E+04  6.666018E+05 -2.829972E+04  1.273841E+03  4.557391E+05
        34  25  3.250723E+04  1.092546E+05  2.085251E+05  1.262138E+04  5.605555E+03  1.143041E+05
        34  26  1.467522E+05  8.113128E+04  3.520972E+05 -1.866839E+05  5.280279E+03  2.896460E+05
        34  27  6.334665E+05  1.690044E+05  7.030269E+05 -3.927754E+05  9.892101E+02  4.649906E+05
        35   1 -4.313870E+06 -1.270194E+06 -7.381545E+05 -1.536324E+06 -3.368574E+05 -1.169265E+05
        35   2 -4.197254E+06 -7.484231E+05 -4.159752E+05 -1.562183E+06 -2.187513E+05 -5.343070E+04
        35   3 -4.231498E+06 -7.376569E+05 -3.153038E+05 -1.513999E+06 -9.321778E+04 -9.650660E+03
        35   4 -3.550781E+06 -8.771286E+05 -5.086877E+05 -1.221938E+06 -3.252574E+05 -1.126344E+05
        35   5 -3.449764E+06 -4.373026E+05 -2.114600E+05 -1.328463E+06 -2.158355E+05 -5.235082E+04
        35   6 -3.497653E+06 -5.064209E+05 -1.286146E+05 -1.361010E+06 -9.899521E+04 -1.181065E+04
        35   7 -2.787104E+06 -4.838666E+05 -2.792795E+05 -9.071543E+05 -3.136415E+05 -1.083313E+05
        35   8 -2.701730E+06 -1.261149E+05 -6.996855E+03 -1.094475E+06 -2.129157E+05 -5.126907E+04
        35   9 -2.763285E+06 -2.751881E+05  5.803304E+04 -1.207874E+06 -1.047801E+05 -1.397239E+04
        35  10 -4.313997E+06 -1.270239E+06 -7.383953E+05 -1.536355E+06  3.935582E-09 -1.356706E-10
        35  11 -4.197306E+06 -7.484391E+05 -4.160712E+05 -1.562193E+06  4.445119E-09 -7.103454E-11
        35  12 -4.231507E+06 -7.376594E+05 -3.153205E+05 -1.514000E+06  7.317052E-10  2.019225E-11
        35  13 -3.550899E+06 -8.771710E+05 -5.089118E+05 -1.221968E+06  2.165111E-09 -1.465564E-10
        35  14 -3.449814E+06 -4.373181E+05 -2.115533E+05 -1.328472E+06 -5.659498E-10  3.843537E-11
        35  15 -3.497664E+06 -5.064237E+05 -1.286334E+05 -1.361011E+06  1.800103E-09 -6.108860E-10
        35  16 -2.787213E+06 -4.839058E+05 -2.794875E+05 -9.071817E+05  1.921631E-11  7.312680E-11
        35  17 -2.701779E+06 -1.261300E+05 -7.087437E+03 -1.094484E+06  7.777737E-10  2.296276E-10
        35  18 -2.763297E+06 -2.751913E+05  5.801194E+04 -1.207875E+06 -1.781355E-09  2.356423E-12
        35  19 -4.313870E+06 -1.270194E+06 -7.381545E+05 -1.536324E+06  3.368574E+05  1.169265E+05
        35  20 -4.197254E+06 -7.484231E+05 -4.159752E+05 -1.562183E+06  2.187513E+05  5.343070E+04
        35  21 -4.231498E+06 -7.376569E+05 -3.153038E+05 -1.513999E+06  9.321778E+04  9.650660E+03
        35  22 -3.550781E+06 -8.771286E+05 -5.086877E+05 -1.221938E+06  3.252574E+05  1.126344E+05
        35  23 -3.449764E+06 -4.373026E+05 -2.114600E+05 -1.328463E+06  2.158355E+05  5.235082E+04
        35  24 -3.497653E+06 -5.064209E+05 -1.286146E+05 -1.361010E+06  9.899521E+04  1.181065E+04
        35  25 -2.787104E+06 -4.838666E+05 -2.792795E+05 -9.071543E+05  3.136415E+05  1.083313E+05
        35  26 -2.701730E+06 -1.261149E+05 -6.996855E+03 -1.094475E+06  2.129157E+05  5.126907E+04
        35  27 -2.763285E+06 -2.751881E+05  5.803304E+04 -1.207874E+06  1.047801E+05  1.397239E+04
        36   1 -4.054449E+06 -7.896278E+05 -2.603618E+05 -1.499816E+06 -7.848501E+04 -9.471867E+03
        36   2 -3.988829E+06 -6.800900E+05 -1.833091E+05 -1.456732E+06 -5.103694E+04 -1.153982E+03
        36   3 -3.896801E+06 -6.739232E+05 -1.408521E+05 -1.457415E+06 -2.289184E+04  5.304470E+03
        36   4 -3.479368E+06 -5.622385E+05 -1.048339E+05 -1.332406E+06 -7.888583E+04 -9.624957E+03
        36   5 -3.489638E+06 -4.895499E+05 -4.987141E+04 -1.318393E+06 -5.224525E+04 -1.607387E+03
        36   6 -3.473327E+06 -5.200412E+05 -2.883538E+04 -1.348151E+06 -2.491158E+04  4.549244E+03
        36   7 -2.903965E+06 -3.348197E+05  5.066473E+04 -1.164852E+06 -7.928702E+04 -9.778206E+03
        36   8 -2.990205E+06 -2.989929E+05  8.354455E+04 -1.179952E+06 -5.345463E+04 -2.061201E+03
        36   9 -3.049679E+06 -3.661518E+05  8.316592E+04 -1.238821E+06 -2.693284E+04  3.793495E+03
        36  10 -4.054455E+06 -7.896296E+05 -2.603736E+05 -1.499816E+06  3.027635E-09 -6.845972E-10
        36  11 -3.988831E+06 -6.800907E+05 -1.833140E+05 -1.456732E+06 -6.721099E-10  1.339271E-10
        36  12 -3.896802E+06 -6.739233E+05 -1.408531E+05 -1.457415E+06 -4.116321E-09 -7.019028E-10
        36  13 -3.479375E+06 -5.622403E+05 -1.048458E+05 -1.332407E+06  2.715084E-09  1.771811E-11
        36  14 -3.489641E+06 -4.895507E+05 -4.987657E+04 -1.318393E+06 -5.020265E-09 -1.155247E-09
        36  15 -3.473328E+06 -5.200414E+05 -2.883660E+04 -1.348151E+06 -2.740427E-09  5.997353E-10
        36  16 -2.903972E+06 -3.348215E+05  5.065267E+04 -1.164852E+06 -4.955257E-09 -2.716092E-10
        36  17 -2.990208E+06 -2.989937E+05  8.353915E+04 -1.179952E+06 -1.976735E-09 -2.580379E-10
        36  18 -3.049680E+06 -3.661520E+05  8.316452E+04 -1.238821E+06 -4.684979E-09  1.444064E-09
        36  19 -4.054449E+06 -7.896278E+05 -2.603618E+05 -1.499816E+06  7.848501E+04  9.471867E+03
        36  20 -3.988829E+06 -6.800900E+05 -1.833091E+05 -1.456732E+06  5.103694E+04  1.153982E+03
        36  21 -3.896801E+06 -6.739232E+05 -1.408521E+05 -1.457415E+06  2.289184E+04 -5.304470E+03
        36  22 -3.479368E+06 -5.622385E+05 -1.048339E+05 -1.332406E+06  7.888583E+04  9.624957E+03
        36  23 -3.489638E+06 -4.895499E+05 -4.987141E+04 -1.318393E+06  5.224525E+04  1.607387E+03
        36  24 -3.473327E+06 -5.200412E+05 -2.883538E+04 -1.348151E+06  2.491158E+04 -4.549244E+03
        36  25 -2.903965E+06 -3.348197E+05  5.066473E+04 -1.164852E+06  7.928702E+04  9.778206E+03
        36  26 -2.990205E+06 -2.989929E+05  8.354455E+04 -1.179952E+06  5.345463E+04  2.061201E+03
        36  27 -3.049679E+06 -3.661518E+05  8.316592E+04 -1.238821E+06  2.693284E+04 -3.793495E+03
        37   1 -3.755325E+06 -6.351406E+05 -9.840482E+04 -1.424054E+06 -1.829461E+04  4.291691E+03
        37   2 -3.692083E+06 -5.686976E+05 -6.404362E+04 -1.369714E+06 -1.092018E+04  2.929169E+03
        37   3 -3.577918E+06 -5.623759E+05 -3.583960E+04 -1.376140E+06 -3.464933E+03  1.347360E+03
        37   4 -3.470225E+06 -5.270479E+05 -2.259886E+04 -1.345720E+06 -1.986579E+04  3.704441E+03
        37   5 -3.495347E+06 -4.946106E+05 -1.164879E+04 -1.316221E+06 -1.258671E+04  2.306767E+03
        37   6 -3.469534E+06 -5.222735E+05 -6.776827E+03 -1.347492E+06 -5.227761E+03  6.895009E+02
        37   7 -3.185047E+06 -4.189501E+05  5.319983E+04 -1.267353E+06 -2.143776E+04  3.116890E+03
        37   8 -3.298574E+06 -4.205212E+05  4.074267E+04 -1.262714E+06 -1.425383E+04  1.684146E+03
        37   9 -3.361139E+06 -4.821704E+05  2.228500E+04 -1.318840E+06 -6.990932E+03  3.151818E+01
        37  10 -3.755325E+06 -6.351407E+05 -9.840549E+04 -1.424054E+06  1.201755E-10  4.775602E-10
        37  11 -3.692083E+06 -5.686977E+05 -6.404386E+04 -1.369714E+06  1.110709E-09 -2.042573E-09
        37  12 -3.577918E+06 -5.623760E+05 -3.583963E+04 -1.376140E+06 -9.690837E-10  1.383581E-09
        37  13 -3.470225E+06 -5.270480E+05 -2.259963E+04 -1.345720E+06 -3.724074E-09  7.111482E-10
        37  14 -3.495347E+06 -4.946106E+05 -1.164910E+04 -1.316221E+06  6.059409E-09 -2.610788E-10
        37  15 -3.469534E+06 -5.222735E+05 -6.776880E+03 -1.347492E+06 -3.975603E-09 -7.990627E-10
        37  16 -3.185048E+06 -4.189503E+05  5.319894E+04 -1.267353E+06 -5.263122E-09 -1.862903E-09
        37  17 -3.298574E+06 -4.205213E+05  4.074228E+04 -1.262714E+06 -7.534928E-10 -2.698352E-09
        37  18 -3.361139E+06 -4.821704E+05  2.228491E+04 -1.318840E+06  1.854202E-09 -6.880376E-10
        37  19 -3.755325E+06 -6.351406E+05 -9.840482E+04 -1.424054E+06  1.829461E+04 -4.291691E+03
        37  20 -3.692083E+06 -5.686976E+05 -6.404362E+04 -1.369714E+06  1.092018E+04 -2.929169E+03
        37  21 -3.577918E+06 -5.623759E+05 -3.583960E+04 -1.376140E+06  3.464933E+03 -1.347360E+03
        37  22 -3.470225E+06 -5.270479E+05 -2.259886E+04 -1.345720E+06  1.986579E+04 -3.704441E+03
        37  23 -3.495347E+06 -4.946106E+05 -1.164879E+04 -1.316221E+06  1.258671E+04 -2.306767E+03
        37  24 -3.469534E+06 -5.222735E+05 -6.776827E+03 -1.347492E+06  5.227761E+03 -6.895009E+02
        37  25 -3.185047E+06 -4.189501E+05  5.319983E+04 -1.267353E+06  2.143776E+04 -3.116890E+03
        37  26 -3.298574E+06 -4.205212E+05  4.074267E+04 -1.262714E+06  1.425383E+04 -1.684146E+03
        37  27 -3.361139E+06 -4.821704E+05  2.228500E+04 -1.318840E+06  6.990932E+03 -3.151818E+01
        38   1 -3.436952E+06 -5.109643E+05  3.527751E+03 -1.338602E+06 -1.659502E+03 -5.759628E+02
        38   2 -3.374174E+06 -4.494406E+05  2.905108E+04 -1.282995E+06  1.454075E+03 -3.786538E+03
        38   3 -3.257513E+06 -4.431351E+05  5.310011E+04 -1.289921E+06  4.555395E+03 -6.960027E+03
        38   4 -3.469135E+06 -5.230183E+05 -5.362932E+03 -1.347201E+06 -3.384207E+03 -1.219536E+03
        38   5 -3.496044E+06 -4.952076E+05 -3.377066E+03 -1.316008E+06 -2.543844E+02 -4.424352E+03
        38   6 -3.469081E+06 -5.226194E+05 -2.877640E+03 -1.347351E+06  2.862887E+03 -7.592138E+03
        38   7 -3.501316E+06 -5.350722E+05 -1.425371E+04 -1.355801E+06 -5.108816E+03 -1.863075E+03
        38   8 -3.617899E+06 -5.409735E+05 -3.580635E+04 -1.349015E+06 -1.962466E+03 -5.062025E+03
        38   9 -3.680603E+06 -6.021003E+05 -5.885865E+04 -1.404763E+06  1.171033E+03 -8.224005E+03
        38  10 -3.436952E+06 -5.109643E+05  3.527745E+03 -1.338602E+06  3.820288E-10  7.919200E-10
        38  11 -3.374174E+06 -4.494407E+05  2.905105E+04 -1.282995E+06 -2.011322E-09 -1.630603E-09
        38  12 -3.257513E+06 -4.431351E+05  5.309998E+04 -1.289920E+06 -3.069313E-09  3.651002E-10
        38  13 -3.469135E+06 -5.230183E+05 -5.362957E+03 -1.347201E+06 -2.745300E-09 -1.095358E-09
        38  14 -3.496044E+06 -4.952076E+05 -3.377103E+03 -1.316008E+06  6.326100E-10  1.791442E-11
        38  15 -3.469081E+06 -5.226195E+05 -2.877763E+03 -1.347351E+06  3.635839E-10  1.473534E-09
        38  16 -3.501316E+06 -5.350723E+05 -1.425377E+04 -1.355801E+06 -3.964403E-09 -1.119532E-09
        38  17 -3.617899E+06 -5.409735E+05 -3.580640E+04 -1.349015E+06  1.330451E-09 -8.189293E-10
        38  18 -3.680603E+06 -6.021004E+05 -5.885878E+04 -1.404763E+06  1.334432E-09  6.346068E-10
        38  19 -3.436952E+06 -5.109643E+05  3.527751E+03 -1.338602E+06  1.659502E+03  5.759628E+02
        38  20 -3.374174E+06 -4.494406E+05  2.905108E+04 -1.282995E+06 -1.454075E+03  3.786538E+03
        38  21 -3.257513E+06 -4.431351E+05  5.310011E+04 -1.289921E+06 -4.555395E+03  6.960027E+03
        38  22 -3.469135E+06 -5.230183E+05 -5.362932E+03 -1.347201E+06  3.384207E+03  1.219536E+03
        38  23 -3.496044E+06 -4.952076E+05 -3.377066E+03 -1.316008E+06  2.543844E+02  4.424352E+03
        38  24 -3.469081E+06 -5.226194E+05 -2.877640E+03 -1.347351E+06 -2.862887E+03  7.592138E+03
        38  25 -3.501316E+06 -5.350722E+05 -1.425371E+04 -1.355801E+06  5.108816E+03  1.863075E+03
        38  26 -3.617899E+06 -5.409735E+05 -3.580635E+04 -1.349015E+06  1.962466E+03  5.062025E+03
        38  27 -3.680603E+06 -6.021003E+05 -5.885865E+04 -1.404763E+06 -1.171033E+03  8.224005E+03
        39   1 -3.121735E+06 -3.911215E+05  8.997548E+04 -1.252288E+06  5.848014E+03 -8.986824E+03
        39   2 -3.063213E+06 -3.338286E+05  1.109634E+05 -1.199931E+06  9.137442E+03 -1.193837E+04
        39   3 -2.953983E+06 -3.284684E+05  1.303329E+05 -1.205961E+06  1.236037E+04 -1.469887E+04
        39   4 -3.469798E+06 -5.218016E+05 -2.957526E+03 -1.346474E+06  4.163818E+03 -9.616307E+03
        39   5 -3.495202E+06 -4.962079E+05 -3.992500E+03 -1.317137E+06  7.536920E+03 -1.253759E+04
        39   6 -3.469920E+06 -5.225679E+05 -6.713010E+03 -1.346194E+06  1.084320E+04 -1.526785E+04
        39   7 -3.817746E+06 -6.524759E+05 -9.590197E+04 -1.440613E+06  2.480650E+03 -1.024541E+04
        39   8 -3.927012E+06 -6.585775E+05 -1.189656E+05 -1.434270E+06  5.937615E+03 -1.313636E+04
        39   9 -3.985601E+06 -7.166528E+05 -1.437829E+05 -1.486322E+06  9.327409E+03 -1.583630E+04
        39  10 -3.121735E+06 -3.911216E+05  8.997527E+04 -1.252288E+06  4.567640E-10  1.453681E-09
        39  11 -3.063213E+06 -3.338288E+05  1.109630E+05 -1.199931E+06 -6.392305E-10  5.883807E-10
        39  12 -2.953984E+06 -3.284686E+05  1.303322E+05 -1.205961E+06 -1.837306E-09  7.091978E-10
        39  13 -3.469798E+06 -5.218017E+05 -2.957732E+03 -1.346474E+06 -3.107545E-09 -2.537455E-10
        39  14 -3.495202E+06 -4.962081E+05 -3.992902E+03 -1.317137E+06  4.938324E-09 -1.565092E-10
        39  15 -3.469920E+06 -5.225682E+05 -6.713668E+03 -1.346194E+06 -1.379338E-09  8.745933E-11
        39  16 -3.817746E+06 -6.524760E+05 -9.590218E+04 -1.440613E+06  5.841307E-10 -2.279598E-12
        39  17 -3.927012E+06 -6.585777E+05 -1.189660E+05 -1.434270E+06 -2.344835E-09 -2.036084E-09
        39  18 -3.985602E+06 -7.166531E+05 -1.437835E+05 -1.486322E+06 -1.481599E-09 -1.525505E-10
        39  19 -3.121735E+06 -3.911215E+05  8.997548E+04 -1.252288E+06 -5.848014E+03  8.986824E+03
        39  20 -3.063213E+06 -3.338286E+05  1.109634E+05 -1.199931E+06 -9.137442E+03  1.193837E+04
        39  21 -2.953983E+06 -3.284684E+05  1.303329E+05 -1.205961E+06 -1.236037E+04  1.469887E+04
        39  22 -3.469798E+06 -5.218016E+05 -2.957526E+03 -1.346474E+06 -4.163818E+03  9.616307E+03
        39  23 -3.495202E+06 -4.962079E+05 -3.992500E+03 -1.317137E+06 -7.536920E+03  1.253759E+04
        39  24 -3.469920E+06 -5.225679E+05 -6.713010E+03 -1.346194E+06 -1.084320E+04  1.526785E+04
        39  25 -3.817746E+06 -6.524759E+05 -9.590197E+04 -1.440613E+06 -2.480650E+03  1.024541E+04
        39  26 -3.927012E+06 -6.585775E+05 -1.189656E+05 -1.434270E+06 -5.937615E+03  1.313636E+04
        39  27 -3.985601E+06 -7.166528E+05 -1.437829E+05 -1.486322E+06 -9.327409E+03  1.583630E+04
        40   1 -2.832750E+06 -2.804634E+05  1.616763E+05 -1.172156E+06  1.438605E+04 -1.622141E+04
        40   2 -2.782270E+06 -2.295074E+05  1.741536E+05 -1.125908E+06  2.302156E+04 -1.665375E+04
        40   3 -2.690887E+06 -2.303012E+05  1.791512E+05 -1.128066E+06  3.148732E+04 -1.661432E+04
        40   4 -3.471806E+06 -5.201045E+05 -8.559923E+03 -1.344906E+06  1.283698E+04 -1.680320E+04
        40   5 -3.492696E+06 -4.973476E+05 -1.502095E+04 -1.319529E+06  2.167448E+04 -1.716126E+04
        40   6 -3.472731E+06 -5.263895E+05 -2.912893E+04 -1.342563E+06  3.034123E+04 -1.704765E+04
        40   7 -4.110460E+06 -7.597199E+05 -1.788300E+05 -1.517492E+06  1.128969E+04 -1.738433E+04
        40   8 -4.202630E+06 -7.651565E+05 -2.042391E+05 -1.512948E+06  2.032909E+04 -1.766813E+04
        40   9 -4.253986E+06 -8.224407E+05 -2.374634E+05 -1.556815E+06  2.919671E+04 -1.748038E+04
        40  10 -2.832751E+06 -2.804637E+05  1.616754E+05 -1.172156E+06  2.211561E-09  1.536027E-09
        40  11 -2.782271E+06 -2.295079E+05  1.741521E+05 -1.125907E+06 -1.447062E-09 -3.371147E-10
        40  12 -2.690888E+06 -2.303018E+05  1.791488E+05 -1.128065E+06  2.464404E-09 -1.288838E-10
        40  13 -3.471806E+06 -5.201049E+05 -8.560762E+03 -1.344905E+06 -1.641001E-09  9.085160E-10
        40  14 -3.492696E+06 -4.973480E+05 -1.502239E+04 -1.319528E+06 -2.025196E-09  3.673331E-10
        40  15 -3.472733E+06 -5.263901E+05 -2.913121E+04 -1.342562E+06 -4.569557E-10  1.149445E-10
        40  16 -4.110460E+06 -7.597203E+05 -1.788309E+05 -1.517492E+06  3.355690E-10 -6.877553E-11
        40  17 -4.202631E+06 -7.651570E+05 -2.042404E+05 -1.512948E+06  2.860815E-10 -3.414032E-11
        40  18 -4.253987E+06 -8.224413E+05 -2.374656E+05 -1.556814E+06 -1.254749E-09  7.172724E-10
        40  19 -2.832750E+06 -2.804634E+05  1.616763E+05 -1.172156E+06 -1.438605E+04  1.622141E+04
        40  20 -2.782270E+06 -2.295074E+05  1.741536E+05 -1.125908E+06 -2.302156E+04  1.665375E+04
        40  21 -2.690887E+06 -2.303012E+05  1.791512E+05 -1.128066E+06 -3.148732E+04  1.661432E+04
        40  22 -3.471806E+06 -5.201045E+05 -8.559923E+03 -1.344906E+06 -1.283698E+04  1.680320E+04
        40  23 -3.492696E+06 -4.973476E+05 -1.502095E+04 -1.319529E+06 -2.167448E+04  1.716126E+04
        40  24 -3.472731E+06 -5.263895E+05 -2.912893E+04 -1.342563E+06 -3.034123E+04  1.704765E+04
        40  25 -4.110460E+06 -7.597199E+05 -1.788300E+05 -1.517492E+06 -1.128969E+04  1.738433E+04
        40  26 -4.202630E+06 -7.651565E+05 -2.042391E+05 -1.512948E+06 -2.032909E+04  1.766813E+04
        40  27 -4.253986E+06 -8.224407E+05 -2.374634E+05 -1.556815E+06 -2.919671E+04  1.748038E+04
        41   1 -2.589832E+06 -1.882227E+05  1.981622E+05 -1.109430E+06  3.812275E+04 -1.630887E+04
        41   2 -2.548841E+06 -1.352122E+05  1.853412E+05 -1.064418E+06  7.154643E+04 -6.584657E+03
        41   3 -2.502794E+06 -1.845727E+05  1.298343E+05 -1.040385E+06  1.040135E+05  5.695784E+03
        41   4 -3.477734E+06 -5.162976E+05 -3.718513E+04 -1.344543E+06  3.640407E+04 -1.695817E+04
        41   5 -3.484086E+06 -4.921590E+05 -6.447571E+04 -1.323825E+06  7.092216E+04 -6.824168E+03
        41   6 -3.485645E+06 -5.706821E+05 -1.353746E+05 -1.324084E+06  1.044801E+05  5.865448E+03
        41   7 -4.364872E+06 -8.443331E+05 -2.726006E+05 -1.579355E+06  3.468807E+04 -1.760652E+04
        41   8 -4.418480E+06 -8.490472E+05 -3.143692E+05 -1.582876E+06  7.029885E+04 -7.063308E+03
        41   9 -4.467554E+06 -9.567107E+05 -4.006691E+05 -1.607366E+06  1.049458E+05  6.034727E+03
        41  10 -2.589834E+06 -1.882234E+05  1.981589E+05 -1.109430E+06  2.929088E-09  3.116451E-10
        41  11 -2.548847E+06 -1.352136E+05  1.853315E+05 -1.064417E+06  1.033101E-09  2.277583E-09
        41  12 -2.502806E+06 -1.845757E+05  1.298138E+05 -1.040386E+06  6.552649E-11 -1.895030E-09
        41  13 -3.477735E+06 -5.162982E+05 -3.718817E+04 -1.344543E+06 -4.704042E-10  1.032785E-09
        41  14 -3.484091E+06 -4.921604E+05 -6.448530E+04 -1.323825E+06 -4.716019E-10  1.024213E-09
        41  15 -3.485656E+06 -5.706851E+05 -1.353952E+05 -1.324084E+06 -2.119835E-09  8.466254E-10
        41  16 -4.364873E+06 -8.443338E+05 -2.726034E+05 -1.579355E+06 -2.121844E-09  1.404384E-09
        41  17 -4.418485E+06 -8.490486E+05 -3.143786E+05 -1.582875E+06  2.864176E-09  4.602070E-11
        41  18 -4.467566E+06 -9.567137E+05 -4.006900E+05 -1.607367E+06 -5.632185E-10 -1.497236E-09
        41  19 -2.589832E+06 -1.882227E+05  1.981622E+05 -1.109430E+06 -3.812275E+04  1.630887E+04
        41  20 -2.548841E+06 -1.352122E+05  1.853412E+05 -1.064418E+06 -7.154643E+04  6.584657E+03
        41  21 -2.502794E+06 -1.845727E+05  1.298343E+05 -1.040385E+06 -1.040135E+05 -5.695784E+03
        41  22 -3.477734E+06 -5.162976E+05 -3.718513E+04 -1.344543E+06 -3.640407E+04  1.695817E+04
        41  23 -3.484086E+06 -4.921590E+05 -6.447571E+04 -1.323825E+06 -7.092216E+04  6.824168E+03
        41  24 -3.485645E+06 -5.706821E+05 -1.353746E+05 -1.324084E+06 -1.044801E+05 -5.865448E+03
        41  25 -4.364872E+06 -8.443331E+05 -2.726006E+05 -1.579355E+06 -3.468807E+04  1.760652E+04
        41  26 -4.418480E+06 -8.490472E+05 -3.143692E+05 -1.582876E+06 -7.029885E+04  7.063308E+03
        41  27 -4.467554E+06 -9.567107E+05 -4.006691E+05 -1.607366E+06 -1.049458E+05 -6.034727E+03
        42   1 -2.403042E+06 -1.382182E+05  1.171684E+05 -1.117243E+06  1.364726E+05  1.252721E+04
        42   2 -2.362524E+06  1.824535E+04  1.885198E+04 -1.004729E+06  2.750804E+05  6.346256E+04
        42   3 -2.544996E+06 -4.455254E+05 -3.468305E+05 -7.574133E+05  4.039041E+05  1.402049E+05
        42   4 -3.509640E+06 -4.982767E+05 -1.661092E+05 -1.360678E+06  1.299394E+05  1.006556E+04
        42   5 -3.431707E+06 -4.254092E+05 -2.731697E+05 -1.337658E+06  2.798465E+05  6.524456E+04
        42   6 -3.579442E+06 -9.757147E+05 -6.569572E+05 -1.179720E+06  4.199659E+05  1.462000E+05
        42   7 -4.615053E+06 -8.583328E+05 -4.494845E+05 -1.603756E+06  1.234189E+05  7.607164E+03
        42   8 -4.499772E+06 -8.689270E+05 -5.652954E+05 -1.670042E+06  2.846031E+05  6.702221E+04
        42   9 -4.612794E+06 -1.505546E+06 -9.671863E+05 -1.601297E+06  4.359976E+05  1.521746E+05
        42  10 -2.403063E+06 -1.382234E+05  1.171330E+05 -1.117244E+06  4.313873E-09 -4.294660E-11
        42  11 -2.362607E+06  1.822057E+04  1.870154E+04 -1.004743E+06  5.151648E-09 -1.457723E-09
        42  12 -2.545177E+06 -4.455906E+05 -3.471756E+05 -7.574590E+05 -2.680260E-09 -2.207898E-09
        42  13 -3.509659E+06 -4.982814E+05 -1.661413E+05 -1.360679E+06 -3.202504E-09  2.420237E-10
        42  14 -3.431793E+06 -4.254350E+05 -2.733259E+05 -1.337673E+06  1.019609E-08 -5.246189E-09
        42  15 -3.579638E+06 -9.757855E+05 -6.573312E+05 -1.179769E+06 -8.720276E-10 -1.001123E-09
        42  16 -4.615069E+06 -8.583370E+05 -4.495134E+05 -1.603756E+06  2.266302E-09 -5.114509E-09
        42  17 -4.499860E+06 -8.689538E+05 -5.654574E+05 -1.670058E+06  5.012469E-10 -4.621415E-09
        42  18 -4.613006E+06 -1.505622E+06 -9.675904E+05 -1.601351E+06  2.384251E-09 -6.833517E-10
        42  19 -2.403042E+06 -1.382182E+05  1.171684E+05 -1.117243E+06 -1.364726E+05 -1.252721E+04
        42  20 -2.362524E+06  1.824535E+04  1.885198E+04 -1.004729E+06 -2.750804E+05 -6.346256E+04
        42  21 -2.544996E+06 -4.455254E+05 -3.468305E+05 -7.574133E+05 -4.039041E+05 -1.402049E+05
        42  22 -3.509640E+06 -4.982767E+05 -1.661092E+05 -1.360678E+06 -1.299394E+05 -1.006556E+04
        42  23 -3.431707E+06 -4.254092E+05 -2.731697E+05 -1.337658E+06 -2.798465E+05 -6.524456E+04
        42  24 -3.579442E+06 -9.757147E+05 -6.569572E+05 -1.179720E+06 -4.199659E+05 -1.462000E+05
        42  25 -4.615053E+06 -8.583328E+05 -4.494845E+05 -1.603756E+06 -1.234189E+05 -7.607164E+03
        42  26 -4.499772E+06 -8.689270E+05 -5.652954E+05 -1.670042E+06 -2.846031E+05 -6.702221E+04
        42  27 -4.612794E+06 -1.505546E+06 -9.671863E+05 -1.601297E+06 -4.359976E+05 -1.521746E+05
        43   1  1.361250E+05 -7.785048E+05  1.293846E+05 -2.663653E+03  1.810699E+04  1.215422E+03
        43   2  1.335313E+05 -7.891301E+05  1.255494E+05  8.962653E+02  1.767647E+04  2.689636E+03
        43   3  1.299573E+05 -7.999534E+05  1.205590E+05 -3.204802E+03  1.715234E+04  4.163055E+03
        43   4  7.973990E+00 -1.327313E+06 -1.749992E+03 -1.701610E+03  1.810752E+04  1.414921E+03
        43   5  6.760525E+01 -1.327209E+06 -3.047535E+03  2.127708E+03  1.767675E+04  2.937366E+03
        43   6 -8.621175E+02 -1.327312E+06 -5.534481E+03 -1.704369E+03  1.715232E+04  4.459039E+03
        43   7 -1.361308E+05 -1.875845E+06 -1.329058E+05 -7.402369E+02  1.810805E+04  1.614245E+03
        43   8 -1.334171E+05 -1.865023E+06 -1.316649E+05  3.358277E+03  1.767702E+04  3.184880E+03
        43   9 -1.317017E+05 -1.854416E+06 -1.316476E+05 -2.050055E+02  1.715231E+04  4.754772E+03
        43  10  1.361246E+05 -7.785049E+05  1.293840E+05 -2.663670E+03 -1.198288E-09  5.396404E-10
        43  11  1.335310E+05 -7.891302E+05  1.255488E+05  8.962270E+02  4.537942E-09 -1.259635E-09
        43  12  1.299570E+05 -7.999535E+05  1.205584E+05 -3.204860E+03 -2.273017E-09  4.676500E-10
        43  13  7.621582E+00 -1.327313E+06 -1.750612E+03 -1.701631E+03  1.729538E-09 -1.446633E-10
        43  14  6.726760E+01 -1.327209E+06 -3.048138E+03  2.127667E+03  1.203479E-09 -1.557385E-09
        43  15 -8.624386E+02 -1.327313E+06 -5.535071E+03 -1.704430E+03  1.007195E-10 -1.194208E-09
        43  16 -1.361312E+05 -1.875845E+06 -1.329065E+05 -7.402604E+02 -7.821154E-09 -1.182131E-09
        43  17 -1.334174E+05 -1.865023E+06 -1.316655E+05  3.358231E+03 -7.380382E-10  2.075259E-10
        43  18 -1.317021E+05 -1.854416E+06 -1.316482E+05 -2.050712E+02 -2.536034E-09  5.616143E-10
        43  19  1.361250E+05 -7.785048E+05  1.293846E+05 -2.663653E+03 -1.810699E+04 -1.215422E+03
        43  20  1.335313E+05 -7.891301E+05  1.255494E+05  8.962653E+02 -1.767647E+04 -2.689636E+03
        43  21  1.299573E+05 -7.999534E+05  1.205590E+05 -3.204802E+03 -1.715234E+04 -4.163055E+03
        43  22  7.973990E+00 -1.327313E+06 -1.749992E+03 -1.701610E+03 -1.810752E+04 -1.414921E+03
        43  23  6.760525E+01 -1.327209E+06 -3.047535E+03  2.127708E+03 -1.767675E+04 -2.937366E+03
        43  24 -8.621175E+02 -1.327312E+06 -5.534481E+03 -1.704369E+03 -1.715232E+04 -4.459039E+03
        43  25 -1.361308E+05 -1.875845E+06 -1.329058E+05 -7.402369E+02 -1.810805E+04 -1.614245E+03
        43  26 -1.334171E+05 -1.865023E+06 -1.316649E+05  3.358277E+03 -1.767702E+04 -3.184880E+03
        43  27 -1.317017E+05 -1.854416E+06 -1.316476E+05 -2.050055E+02 -1.715231E+04 -4.754772E+03
        44   1  1.273619E+05 -8.161419E+05  1.151835E+05 -2.240216E+03  1.694221E+04  5.453717E+03
        44   2  1.247551E+05 -8.280423E+05  1.071000E+05  6.379435E+02  1.634838E+04  1.122583E+04
        44   3  1.118708E+05 -8.431016E+05  9.272012E+04 -6.138976E+03  1.506257E+04  1.699441E+04
        44   4  4.245058E+02 -1.327977E+06 -7.094053E+03 -2.134966E+03  1.694272E+04  5.570746E+03
        44   5  1.141516E+03 -1.326368E+06 -1.199680E+04  2.675300E+03  1.634746E+04  1.170355E+04
        44   6 -8.486398E+03 -1.327984E+06 -2.345026E+04 -2.170041E+03  1.506001E+04  1.783293E+04
        44   7 -1.265319E+05 -1.839572E+06 -1.293900E+05 -2.029593E+03  1.694324E+04  5.687677E+03
        44   8 -1.224901E+05 -1.824466E+06 -1.311112E+05  4.711225E+03  1.634655E+04  1.218088E+04
        44   9 -1.288606E+05 -1.812650E+06 -1.396373E+05  1.795995E+03  1.505745E+04  1.867080E+04
        44  10  1.273616E+05 -8.161420E+05  1.151829E+05 -2.240291E+03 -2.549035E-09  1.649609E-09
        44  11  1.247548E+05 -8.280426E+05  1.070993E+05  6.377957E+02 -4.604174E-09 -1.387701E-10
        44  12  1.118704E+05 -8.431020E+05  9.271915E+04 -6.139182E+03 -1.188911E-09  1.885669E-09
        44  13  4.241894E+02 -1.327978E+06 -7.094650E+03 -2.135042E+03 -3.541089E-10  4.027256E-10
        44  14  1.141192E+03 -1.326369E+06 -1.199756E+04  2.675146E+03 -8.724584E-10 -1.853339E-09
        44  15 -8.486727E+03 -1.327984E+06 -2.345128E+04 -2.170258E+03 -4.831107E-09 -1.256086E-09
        44  16 -1.265322E+05 -1.839572E+06 -1.293906E+05 -2.029671E+03  3.173921E-09 -2.712920E-09
        44  17 -1.224904E+05 -1.824467E+06 -1.311119E+05  4.711064E+03  3.515716E-09 -1.051935E-09
        44  18 -1.288609E+05 -1.812650E+06 -1.396384E+05  1.795768E+03 -4.978792E-09 -4.678152E-10
        44  19  1.273619E+05 -8.161419E+05  1.151835E+05 -2.240216E+03 -1.694221E+04 -5.453717E+03
        44  20  1.247551E+05 -8.280423E+05  1.071000E+05  6.379435E+02 -1.634838E+04 -1.122583E+04
        44  21  1.118708E+05 -8.431016E+05  9.272012E+04 -6.138976E+03 -1.506257E+04 -1.699441E+04
        44  22  4.245058E+02 -1.327977E+06 -7.094053E+03 -2.134966E+03 -1.694272E+04 -5.570746E+03
        44  23  1.141516E+03 -1.326368E+06 -1.199680E+04  2.675300E+03 -1.634746E+04 -1.170355E+04
        44  24 -8.486398E+03 -1.327984E+06 -2.345026E+04 -2.170041E+03 -1.506001E+04 -1.783293E+04
        44  25 -1.265319E+05 -1.839572E+06 -1.293900E+05 -2.029593E+03 -1.694324E+04 -5.687677E+03
        44  26 -1.224901E+05 -1.824466E+06 -1.311112E+05  4.711225E+03 -1.634655E+04 -1.218088E+04
        44  27 -1.288606E+05 -1.812650E+06 -1.396373E+05  1.795995E+03 -1.505745E+04 -1.867080E+04
        45   1  1.198477E+05 -8.674392E+05  8.235803E+04  7.289895E+03  1.594257E+04  2.413110E+04
        45   2  1.229030E+05 -8.696369E+05  6.118907E+04 -6.248729E+03  1.476265E+04  4.422459E+04
        45   3  2.505385E+04 -8.996120E+05  1.715937E+03 -3.178664E+04  4.398273E+03  6.427346E+04
        45   4  4.379011E+03 -1.333613E+06 -2.878969E+04 -2.543920E+03  1.595080E+04  2.227496E+04
        45   5  1.127796E+04 -1.319322E+06 -4.624537E+04  3.253176E+03  1.475060E+04  4.719707E+04
        45   6 -8.360700E+04 -1.333669E+06 -1.053820E+05 -2.950980E+03  4.364240E+03  7.207468E+04
        45   7 -1.111050E+05 -1.799586E+06 -1.399526E+05 -1.237010E+04  1.595909E+04  2.042021E+04
        45   8 -1.003614E+05 -1.768822E+06 -1.536940E+05  1.274836E+04  1.473863E+04  5.016739E+04
        45   9 -1.922789E+05 -1.767552E+06 -2.124933E+05  2.586466E+04  4.330921E+03  7.987043E+04
        45  10  1.198472E+05 -8.674399E+05  8.235646E+04  7.289585E+03  3.887666E-10  1.101841E-09
        45  11  1.229022E+05 -8.696391E+05  6.118498E+04 -6.249255E+03 -1.920913E-09 -1.511148E-09
        45  12  2.505272E+04 -8.996165E+05  1.708126E+03 -3.178687E+04 -1.275074E-09  9.478679E-10
        45  13  4.378604E+03 -1.333613E+06 -2.879111E+04 -2.544206E+03 -3.630514E-09  1.211634E-11
        45  14  1.127713E+04 -1.319325E+06 -4.624998E+04  3.252615E+03 -3.431867E-09 -2.530651E-09
        45  15 -8.360842E+04 -1.333674E+06 -1.053918E+05 -2.951233E+03  7.150566E-10 -1.683460E-09
        45  16 -1.111053E+05 -1.799586E+06 -1.399539E+05 -1.237036E+04 -2.187936E-09 -2.366630E-09
        45  17 -1.003623E+05 -1.768824E+06 -1.536992E+05  1.274777E+04 -4.019595E-10  7.397542E-11
        45  18 -1.922807E+05 -1.767559E+06 -2.125053E+05  2.586438E+04  1.049257E-09  7.206255E-10
        45  19  1.198477E+05 -8.674392E+05  8.235803E+04  7.289895E+03 -1.594257E+04 -2.413110E+04
        45  20  1.229030E+05 -8.696369E+05  6.118907E+04 -6.248729E+03 -1.476265E+04 -4.422459E+04
        45  21  2.505385E+04 -8.996120E+05  1.715937E+03 -3.178664E+04 -4.398273E+03 -6.427346E+04
        45  22  4.379011E+03 -1.333613E+06 -2.878969E+04 -2.543920E+03 -1.595080E+04 -2.227496E+04
        45  23  1.127796E+04 -1.319322E+06 -4.624537E+04  3.253176E+03 -1.475060E+04 -4.719707E+04
        45  24 -8.360700E+04 -1.333669E+06 -1.053820E+05 -2.950980E+03 -4.364240E+03 -7.207468E+04
        45  25 -1.111050E+05 -1.799586E+06 -1.399526E+05 -1.237010E+04 -1.595909E+04 -2.042021E+04
        45  26 -1.003614E+05 -1.768822E+06 -1.536940E+05  1.274836E+04 -1.473863E+04 -5.016739E+04
        45  27 -1.922789E+05 -1.767552E+06 -2.124933E+05  2.586466E+04 -4.330921E+03 -7.987043E+04
        46   1  9.172505E+04  9.782583E+05  5.228458E+04 -1.922927E+02  3.209927E+04 -5.793898E+02
        46   2  9.185464E+04  9.783690E+05  5.298859E+04 -1.602912E+02  3.199018E+04 -1.493041E+03
        46   3  9.220949E+04  9.786637E+05  5.434587E+04 -1.098796E+02  3.173619E+04 -2.406796E+03
        46   4 -3.472025E+01  5.707257E+05  6.484385E+02  4.079771E+00  3.210146E+04 -4.901452E+02
        46   5  1.752468E+01  5.706637E+05  1.138154E+03 -5.070381E+00  3.199218E+04 -1.055255E+03
        46   6  2.346699E+02  5.707254E+05  2.039551E+03  4.189800E+00  3.173796E+04 -1.620462E+03
        46   7 -9.180126E+04  1.633634E+05 -5.098827E+04  2.003342E+02  3.210364E+04 -4.009563E+02
        46   8 -9.182639E+04  1.631288E+05 -5.071291E+04  1.500628E+02  3.199418E+04 -6.177423E+02
        46   9 -9.174700E+04  1.629574E+05 -5.026752E+04  1.182020E+02  3.173973E+04 -8.346191E+02
        46  10  9.172394E+04  9.782580E+05  5.228264E+04 -1.922778E+02 -7.669052E-10  1.627326E-08
        46  11  9.185354E+04  9.783687E+05  5.298667E+04 -1.602527E+02 -1.627426E-09  1.184345E-08
        46  12  9.220840E+04  9.786634E+05  5.434397E+04 -1.098181E+02 -1.249952E-08  1.074170E-08
        46  13 -3.582719E+01  5.707254E+05  6.465010E+02  4.092440E+00 -3.426250E-10  4.505685E-10
        46  14  1.642502E+01  5.706634E+05  1.136228E+03 -5.043197E+00  1.523036E-08 -1.025235E-09
        46  15  2.335873E+02  5.707251E+05  2.037653E+03  4.231213E+00  2.300865E-08  6.268974E-10
        46  16 -9.180237E+04  1.633631E+05 -5.099021E+04  2.003446E+02 -4.009272E-09 -1.700506E-08
        46  17 -9.182749E+04  1.631285E+05 -5.071483E+04  1.500787E+02 -1.006808E-08 -1.214259E-08
        46  18 -9.174808E+04  1.629572E+05 -5.026941E+04  1.182233E+02 -1.433919E-08 -1.050454E-08
        46  19  9.172505E+04  9.782583E+05  5.228458E+04 -1.922927E+02 -3.209927E+04  5.793898E+02
        46  20  9.185464E+04  9.783690E+05  5.298859E+04 -1.602912E+02 -3.199018E+04  1.493041E+03
        46  21  9.220949E+04  9.786637E+05  5.434587E+04 -1.098796E+02 -3.173619E+04  2.406796E+03
        46  22 -3.472025E+01  5.707257E+05  6.484385E+02  4.079771E+00 -3.210146E+04  4.901452E+02
        46  23  1.752468E+01  5.706637E+05  1.138154E+03 -5.070381E+00 -3.199218E+04  1.055255E+03
        46  24  2.346699E+02  5.707254E+05  2.039551E+03  4.189800E+00 -3.173796E+04  1.620462E+03
        46  25 -9.180126E+04  1.633634E+05 -5.098827E+04  2.003342E+02 -3.210364E+04  4.009563E+02
        46  26 -9.182639E+04  1.631288E+05 -5.071291E+04  1.500628E+02 -3.199418E+04  6.177423E+02
        46  27 -9.174700E+04  1.629574E+05 -5.026752E+04  1.182020E+02 -3.173973E+04  8.346191E+02
        47   1  9.242964E+04  9.790227E+05  5.532127E+04 -2.441333E+02  3.157576E+04 -2.888648E+03
        47   2  9.359269E+04  9.786891E+05  5.887123E+04  9.199910E+02  3.067584E+04 -7.914727E+03
        47   3  9.691028E+04  9.795562E+05  6.623076E+04  2.032555E+03  2.869387E+04 -1.294166E+04
        47   4  3.495233E+02  5.708646E+05  2.708856E+03 -1.152608E+01  3.157744E+04 -2.018503E+03
        47   5  1.221420E+03  5.704888E+05  4.837393E+03  1.519535E+01  3.067580E+04 -4.442770E+03
        47   6  3.797344E+03  5.708632E+05  8.971541E+03 -9.652399E+00  2.869177E+04 -6.867864E+03
        47   7 -9.173748E+04  1.628769E+05 -4.990439E+04  2.209435E+02  3.157913E+04 -1.148901E+03
        47   8 -9.115690E+04  1.624584E+05 -4.919765E+04 -8.889536E+02  3.067576E+04 -9.729848E+02
        47   9 -8.932299E+04  1.623392E+05 -4.828970E+04 -2.050431E+03  2.868963E+04 -7.978864E+02
        47  10  9.242856E+04  9.790224E+05  5.531938E+04 -2.440598E+02 -1.355153E-08 -8.189119E-08
        47  11  9.359167E+04  9.786888E+05  5.886934E+04  9.201864E+02 -3.717503E-09 -1.601160E-08
        47  12  9.690935E+04  9.795558E+05  6.622890E+04  2.032854E+03  1.515607E-09  5.102190E-08
        47  13  3.484511E+02  5.708643E+05  2.706974E+03 -1.147476E+01  2.408472E-08  6.162130E-10
        47  14  1.220404E+03  5.704885E+05  4.835587E+03  1.530509E+01  1.573996E-08 -1.332577E-09
        47  15  3.796448E+03  5.708629E+05  8.969905E+03 -9.493732E+00  6.349848E-10  7.093087E-10
        47  16 -9.173856E+04  1.628766E+05 -4.990626E+04  2.209728E+02 -1.163491E-08  8.093187E-08
        47  17 -9.115791E+04  1.624582E+05 -4.919942E+04 -8.889296E+02 -6.000702E-09  1.549036E-08
        47  18 -8.932388E+04  1.623390E+05 -4.829125E+04 -2.050413E+03 -3.769480E-09 -5.071365E-08
        47  19  9.242964E+04  9.790227E+05  5.532127E+04 -2.441333E+02 -3.157576E+04  2.888648E+03
        47  20  9.359269E+04  9.786891E+05  5.887123E+04  9.199910E+02 -3.067584E+04  7.914727E+03
        47  21  9.691028E+04  9.795562E+05  6.623076E+04  2.032555E+03 -2.869387E+04  1.294166E+04
        47  22  3.495233E+02  5.708646E+05  2.708856E+03 -1.152608E+01 -3.157744E+04  2.018503E+03
        47  23  1.221420E+03  5.704888E+05  4.837393E+03  1.519535E+01 -3.067580E+04  4.442770E+03
        47  24  3.797344E+03  5.708632E+05  8.971541E+03 -9.652399E+00 -2.869177E+04  6.867864E+03
        47  25 -9.173748E+04  1.628769E+05 -4.990439E+04  2.209435E+02 -3.157913E+04  1.148901E+03
        47  26 -9.115690E+04  1.624584E+05 -4.919765E+04 -8.889536E+02 -3.067576E+04  9.729848E+02
        47  27 -8.932299E+04  1.623392E+05 -4.828970E+04 -2.050431E+03 -2.868963E+04  7.978864E+02
        48   1  9.892955E+04  9.814063E+05  7.143867E+04  1.254388E+03  2.744136E+04 -1.514646E+04
        48   2  1.104862E+05  9.772749E+05  9.194468E+04  1.496493E+04  2.066450E+04 -4.573659E+04
        48   3  1.422147E+05  9.821699E+05  1.373899E+05  2.804196E+04  5.874508E+03 -7.633448E+04
        48   4  5.235842E+03  5.719611E+05  1.203144E+04 -1.407943E+02  2.743851E+04 -8.434327E+03
        48   5  1.501190E+04  5.691112E+05  2.223513E+04  1.885480E+02  2.064735E+04 -1.976552E+04
        48   6  4.162553E+04  5.719509E+05  4.401983E+04 -1.159083E+02  5.841965E+03 -3.110375E+04
        48   7 -8.846553E+04  1.626847E+05 -4.737836E+04 -1.534991E+03  2.743562E+04 -1.726428E+03
        48   8 -8.047009E+04  1.611130E+05 -4.747731E+04 -1.457779E+04  2.062895E+04  6.189032E+03
        48   9 -5.897121E+04  1.618940E+05 -4.935310E+04 -2.825500E+04  5.805314E+03  1.409740E+04
        48  10  9.892868E+04  9.814058E+05  7.143682E+04  1.254722E+03  1.722696E-09  7.029785E-09
        48  11  1.104852E+05  9.772725E+05  9.193995E+04  1.496569E+04 -1.112993E-09  1.536994E-09
        48  12  1.422131E+05  9.821636E+05  1.373789E+05  2.804232E+04 -4.712699E-10 -6.669221E-10
        48  13  5.235015E+03  5.719608E+05  1.202989E+04 -1.406079E+02 -4.970958E-09  7.181674E-10
        48  14  1.501134E+04  5.691106E+05  2.223359E+04  1.888766E+02  4.652172E-09 -1.532135E-09
        48  15  4.162524E+04  5.719499E+05  4.401795E+04 -1.157620E+02  2.782123E-09  9.312454E-10
        48  16 -8.846634E+04  1.626845E+05 -4.737978E+04 -1.534953E+03 -9.936402E-10 -8.156673E-09
        48  17 -8.047056E+04  1.611128E+05 -4.747818E+04 -1.457790E+04  2.496156E-11 -1.964920E-09
        48  18 -5.897130E+04  1.618938E+05 -4.935353E+04 -2.825507E+04  1.183952E-09  9.423087E-10
        48  19  9.892955E+04  9.814063E+05  7.143867E+04  1.254388E+03 -2.744136E+04  1.514646E+04
        48  20  1.104862E+05  9.772749E+05  9.194468E+04  1.496493E+04 -2.066450E+04  4.573659E+04
        48  21  1.422147E+05  9.821699E+05  1.373899E+05  2.804196E+04 -5.874508E+03  7.633448E+04
        48  22  5.235842E+03  5.719611E+05  1.203144E+04 -1.407943E+02 -2.743851E+04  8.434327E+03
        48  23  1.501190E+04  5.691112E+05  2.223513E+04  1.885480E+02 -2.064735E+04  1.976552E+04
        48  24  4.162553E+04  5.719509E+05  4.401983E+04 -1.159083E+02 -5.841965E+03  3.110375E+04
        48  25 -8.846553E+04  1.626847E+05 -4.737836E+04 -1.534991E+03 -2.743562E+04  1.726428E+03
        48  26 -8.047009E+04  1.611130E+05 -4.747731E+04 -1.457779E+04 -2.062895E+04 -6.189032E+03
        48  27 -5.897121E+04  1.618940E+05 -4.935310E+04 -2.825500E+04 -5.805314E+03 -1.409740E+04
        49   1 -8.958878E+06 -2.571708E+06 -1.503451E+06 -3.224991E+06 -8.292524E+05 -3.025379E+05
        49   2 -8.739497E+06 -1.323562E+06 -7.238309E+05 -3.361280E+06 -5.336210E+05 -1.740031E+05
        49   3 -8.972376E+06 -1.306066E+06 -4.977468E+05 -3.231395E+06 -2.311223E+05 -6.366890E+04
        49   4 -8.387748E+06 -2.091209E+06 -1.293668E+06 -2.800149E+06 -8.188798E+05 -2.990841E+05
        49   5 -8.093848E+06 -1.005110E+06 -5.366732E+05 -3.109642E+06 -5.311764E+05 -1.731673E+05
        49   6 -8.250152E+06 -1.147451E+06 -3.264566E+05 -3.153130E+06 -2.365713E+05 -6.566094E+04
        49   7 -7.816116E+06 -1.610110E+06 -1.083892E+06 -2.374821E+06 -8.084965E+05 -2.956148E+05
        49   8 -7.447773E+06 -6.865352E+05 -3.495554E+05 -2.857735E+06 -5.287287E+05 -1.723295E+05
        49   9 -7.527396E+06 -9.888497E+05 -1.551942E+05 -3.074820E+06 -2.420273E+05 -6.765308E+04
        49  10 -8.959651E+06 -2.571996E+06 -1.504940E+06 -3.225196E+06  3.246927E-09  2.255597E-10
        49  11 -8.739815E+06 -1.323673E+06 -7.244327E+05 -3.361355E+06  6.413564E-09  8.949154E-10
        49  12 -8.972435E+06 -1.306085E+06 -4.978566E+05 -3.231406E+06 -4.993631E-10  6.129055E-10
        49  13 -8.388501E+06 -2.091490E+06 -1.295118E+06 -2.800349E+06 -1.135033E-09  3.308188E-10
        49  14 -8.094163E+06 -1.005219E+06 -5.372687E+05 -3.109717E+06  4.459183E-09  7.452164E-10
        49  15 -8.250214E+06 -1.147471E+06 -3.265716E+05 -3.153143E+06 -2.581263E-09  3.147987E-10
        49  16 -7.816850E+06 -1.610383E+06 -1.085304E+06 -2.375015E+06 -1.123593E-09  4.674850E-10
        49  17 -7.448084E+06 -6.866439E+05 -3.501447E+05 -2.857809E+06  2.435120E-09 -1.228688E-10
        49  18 -7.527461E+06 -9.888707E+05 -1.553146E+05 -3.074833E+06 -6.181178E-09  2.299272E-10
        49  19 -8.958878E+06 -2.571708E+06 -1.503451E+06 -3.224991E+06  8.292524E+05  3.025379E+05
        49  20 -8.739497E+06 -1.323562E+06 -7.238309E+05 -3.361280E+06  5.336210E+05  1.740031E+05
        49  21 -8.972376E+06 -1.306066E+06 -4.977468E+05 -3.231395E+06  2.311223E+05  6.366890E+04
        49  22 -8.387748E+06 -2.091209E+06 -1.293668E+06 -2.800149E+06  8.188798E+05  2.990841E+05
        49  23 -8.093848E+06 -1.005110E+06 -5.366732E+05 -3.109642E+06  5.311764E+05  1.731673E+05
        49  24 -8.250152E+06 -1.147451E+06 -3.264566E+05 -3.153130E+06  2.365713E+05  6.566094E+04
        49  25 -7.816116E+06 -1.610110E+06 -1.083892E+06 -2.374821E+06  8.084965E+05  2.956148E+05
        49  26 -7.447773E+06 -6.865352E+05 -3.495554E+05 -2.857735E+06  5.287287E+05  1.723295E+05
        49  27 -7.527396E+06 -9.888497E+05 -1.551942E+05 -3.074820E+06  2.420273E+05  6.765308E+04
        50   1 -8.703360E+06 -1.504676E+06 -4.051723E+05 -3.242919E+06 -1.879860E+05 -5.251290E+04
        50   2 -8.618722E+06 -1.306940E+06 -2.412679E+05 -3.207250E+06 -1.207071E+05 -2.968111E+04
        50   3 -8.539676E+06 -1.300267E+06 -1.646189E+05 -3.200241E+06 -5.269901E+04 -8.761925E+03
        50   4 -8.204709E+06 -1.288685E+06 -2.660093E+05 -3.079404E+06 -1.885851E+05 -5.274875E+04
        50   5 -8.194149E+06 -1.139613E+06 -1.262093E+05 -3.085015E+06 -1.221064E+05 -3.020732E+04
        50   6 -8.188979E+06 -1.181379E+06 -7.296369E+04 -3.119297E+06 -5.490763E+04 -9.586750E+03
        50   7 -7.705811E+06 -1.072656E+06 -1.268693E+05 -2.915759E+06 -1.891846E+05 -5.298485E+04
        50   8 -7.769399E+06 -9.722701E+05 -1.116676E+04 -2.962702E+06 -1.235068E+05 -3.073396E+04
        50   9 -7.838162E+06 -1.062490E+06  1.868127E+04 -3.038314E+06 -5.711762E+04 -1.041197E+04
        50  10 -8.703399E+06 -1.504689E+06 -4.052451E+05 -3.242927E+06 -8.657413E-10  3.505766E-10
        50  11 -8.618739E+06 -1.306945E+06 -2.412974E+05 -3.207252E+06 -4.722766E-10 -7.811889E-10
        50  12 -8.539679E+06 -1.300267E+06 -1.646243E+05 -3.200242E+06 -4.050820E-09 -1.166847E-09
        50  13 -8.204749E+06 -1.288698E+06 -2.660825E+05 -3.079412E+06  5.328017E-10  7.926554E-10
        50  14 -8.194166E+06 -1.139618E+06 -1.262394E+05 -3.085018E+06  3.809525E-10 -1.997382E-09
        50  15 -8.188983E+06 -1.181380E+06 -7.296962E+04 -3.119298E+06 -1.810247E-09  2.242540E-10
        50  16 -7.705850E+06 -1.072669E+06 -1.269429E+05 -2.915767E+06 -2.676110E-09  2.130866E-10
        50  17 -7.769415E+06 -9.722753E+05 -1.119763E+04 -2.962705E+06 -2.944294E-09  4.480293E-10
        50  18 -7.838166E+06 -1.062491E+06  1.867484E+04 -3.038315E+06  3.981154E-09  1.374770E-09
        50  19 -8.703360E+06 -1.504676E+06 -4.051723E+05 -3.242919E+06  1.879860E+05  5.251290E+04
        50  20 -8.618722E+06 -1.306940E+06 -2.412679E+05 -3.207250E+06  1.207071E+05  2.968111E+04
        50  21 -8.539676E+06 -1.300267E+06 -1.646189E+05 -3.200241E+06  5.269901E+04  8.761925E+03
        50  22 -8.204709E+06 -1.288685E+06 -2.660093E+05 -3.079404E+06  1.885851E+05  5.274875E+04
        50  23 -8.194149E+06 -1.139613E+06 -1.262093E+05 -3.085015E+06  1.221064E+05  3.020732E+04
        50  24 -8.188979E+06 -1.181379E+06 -7.296369E+04 -3.119297E+06  5.490763E+04  9.586750E+03
        50  25 -7.705811E+06 -1.072656E+06 -1.268693E+05 -2.915759E+06  1.891846E+05  5.298485E+04
        50  26 -7.769399E+06 -9.722701E+05 -1.116676E+04 -2.962702E+06  1.235068E+05  3.073396E+04
        50  27 -7.838162E+06 -1.062490E+06  1.868127E+04 -3.038314E+06  5.711762E+04  1.041197E+04
        51   1 -8.368543E+06 -1.271401E+06 -1.073073E+05 -3.165438E+06 -4.164621E+04 -7.688957E+03
        51   2 -8.294617E+06 -1.186799E+06 -5.262302E+04 -3.104523E+06 -2.510323E+04 -6.255982E+03
        51   3 -8.166636E+06 -1.179774E+06 -1.344671E+04 -3.111336E+06 -8.480854E+03 -5.029304E+03
        51   4 -8.181759E+06 -1.198410E+06 -5.711973E+04 -3.112215E+06 -4.345874E+04 -8.366752E+03
        51   5 -8.207892E+06 -1.153613E+06 -2.931535E+04 -3.080572E+06 -2.700318E+04 -6.966057E+03
        51   6 -8.179960E+06 -1.186374E+06 -1.694268E+04 -3.116662E+06 -1.047087E+04 -5.772719E+03
        51   7 -7.994941E+06 -1.125416E+06 -6.935389E+03 -3.058976E+06 -4.527187E+04 -9.044791E+03
        51   8 -8.121160E+06 -1.120427E+06 -6.008323E+03 -3.056619E+06 -2.890343E+04 -7.676245E+03
        51   9 -8.193284E+06 -1.192974E+06 -2.043865E+04 -3.121987E+06 -1.246085E+04 -6.516105E+03
        51  10 -8.368545E+06 -1.271402E+06 -1.073107E+05 -3.165438E+06  3.271309E-10  1.588322E-10
        51  11 -8.294617E+06 -1.186799E+06 -5.262430E+04 -3.104523E+06  2.841916E-09 -6.435331E-10
        51  12 -8.166636E+06 -1.179774E+06 -1.344690E+04 -3.111336E+06  4.270570E-09  1.360401E-09
        51  13 -8.181761E+06 -1.198410E+06 -5.712347E+04 -3.112215E+06  1.276990E-09  1.177116E-09
        51  14 -8.207893E+06 -1.153614E+06 -2.931683E+04 -3.080572E+06  4.857334E-09  2.939809E-10
        51  15 -8.179960E+06 -1.186374E+06 -1.694295E+04 -3.116662E+06  2.361849E-09 -1.367290E-09
        51  16 -7.994943E+06 -1.125416E+06 -6.939452E+03 -3.058977E+06  1.928855E-09 -1.614575E-09
        51  17 -8.121161E+06 -1.120428E+06 -6.010028E+03 -3.056619E+06  3.865333E-09 -1.891902E-09
        51  18 -8.193284E+06 -1.192974E+06 -2.043902E+04 -3.121987E+06  9.950343E-10 -2.216021E-09
        51  19 -8.368543E+06 -1.271401E+06 -1.073073E+05 -3.165438E+06  4.164621E+04  7.688957E+03
        51  20 -8.294617E+06 -1.186799E+06 -5.262302E+04 -3.104523E+06  2.510323E+04  6.255982E+03
        51  21 -8.166636E+06 -1.179774E+06 -1.344671E+04 -3.111336E+06  8.480854E+03  5.029304E+03
        51  22 -8.181759E+06 -1.198410E+06 -5.711973E+04 -3.112215E+06  4.345874E+04  8.366752E+03
        51  23 -8.207892E+06 -1.153613E+06 -2.931535E+04 -3.080572E+06  2.700318E+04  6.966057E+03
        51  24 -8.179960E+06 -1.186374E+06 -1.694268E+04 -3.116662E+06  1.047087E+04  5.772719E+03
        51  25 -7.994941E+06 -1.125416E+06 -6.935389E+03 -3.058976E+06  4.527187E+04  9.044791E+03
        51  26 -8.121160E+06 -1.120427E+06 -6.008323E+03 -3.056619E+06  2.890343E+04  7.676245E+03
        51  27 -8.193284E+06 -1.192974E+06 -2.043865E+04 -3.121987E+06  1.246085E+04  6.516105E+03
        52   1 -8.006336E+06 -1.122119E+06  3.347966E+04 -3.068235E+06 -5.093416E+03 -6.723571E+03
        52   2 -7.938320E+06 -1.054272E+06  6.425179E+04 -3.008092E+06  4.619169E+02 -9.502654E+03
        52   3 -7.812310E+06 -1.047547E+06  9.153963E+04 -3.015588E+06  5.929410E+03 -1.203624E+04
        52   4 -8.179762E+06 -1.187385E+06 -1.330206E+04 -3.114909E+06 -7.038905E+03 -7.450577E+03
        52   5 -8.208666E+06 -1.156279E+06 -8.117461E+03 -3.081284E+06 -1.376044E+03 -1.019020E+04
        52   6 -8.179605E+06 -1.186319E+06 -6.502528E+03 -3.115304E+06  4.198255E+03 -1.268450E+04
        52   7 -8.353159E+06 -1.252649E+06 -6.008646E+04 -3.161571E+06 -8.983788E+03 -8.177358E+03
        52   8 -8.478940E+06 -1.258282E+06 -8.049306E+04 -3.154447E+06 -3.213111E+03 -1.087741E+04
        52   9 -8.546766E+06 -1.325082E+06 -1.045563E+05 -3.214965E+06  2.468243E+03 -1.333233E+04
        52  10 -8.006336E+06 -1.122119E+06  3.347953E+04 -3.068235E+06  2.388385E-09  1.034315E-09
        52  11 -7.938320E+06 -1.054272E+06  6.425162E+04 -3.008092E+06  3.466181E-09  1.656582E-09
        52  12 -7.812310E+06 -1.047547E+06  9.153930E+04 -3.015588E+06 -7.439081E-10  3.034290E-09
        52  13 -8.179762E+06 -1.187385E+06 -1.330226E+04 -3.114909E+06  1.796794E-09 -9.942825E-10
        52  14 -8.208666E+06 -1.156279E+06 -8.117659E+03 -3.081284E+06  1.645901E-09  2.881710E-09
        52  15 -8.179605E+06 -1.186319E+06 -6.502862E+03 -3.115304E+06 -1.206147E-09  6.980854E-11
        52  16 -8.353159E+06 -1.252649E+06 -6.008674E+04 -3.161571E+06 -9.988488E-10 -1.221047E-09
        52  17 -8.478940E+06 -1.258282E+06 -8.049330E+04 -3.154447E+06 -3.659791E-09  7.348883E-10
        52  18 -8.546766E+06 -1.325082E+06 -1.045566E+05 -3.214965E+06 -2.058384E-09  1.157999E-09
        52  19 -8.006336E+06 -1.122119E+06  3.347966E+04 -3.068235E+06  5.093416E+03  6.723571E+03
        52  20 -7.938320E+06 -1.054272E+06  6.425179E+04 -3.008092E+06 -4.619169E+02  9.502654E+03
        52  21 -7.812310E+06 -1.047547E+06  9.153963E+04 -3.015588E+06 -5.929410E+03  1.203624E+04
        52  22 -8.179762E+06 -1.187385E+06 -1.330206E+04 -3.114909E+06  7.038905E+03  7.450577E+03
        52  23 -8.208666E+06 -1.156279E+06 -8.117461E+03 -3.081284E+06  1.376044E+03  1.019020E+04
        52  24 -8.179605E+06 -1.186319E+06 -6.502528E+03 -3.115304E+06 -4.198255E+03  1.268450E+04
        52  25 -8.353159E+06 -1.252649E+06 -6.008646E+04 -3.161571E+06  8.983788E+03  8.177358E+03
        52  26 -8.478940E+06 -1.258282E+06 -8.049306E+04 -3.154447E+06  3.213111E+03  1.087741E+04
        52  27 -8.546766E+06 -1.325082E+06 -1.045563E+05 -3.214965E+06 -2.468243E+03  1.333233E+04
        53   1 -7.676040E+06 -9.924755E+05  1.293721E+05 -2.975110E+06  7.796583E+03 -1.390760E+04
        53   2 -7.623028E+06 -9.398514E+05  1.476267E+05 -2.927331E+06  1.302378E+04 -1.597269E+04
        53   3 -7.524145E+06 -9.356745E+05  1.625561E+05 -2.932432E+06  1.804705E+04 -1.747729E+04
        53   4 -8.182332E+06 -1.183455E+06 -6.492651E+03 -3.112061E+06  6.103604E+03 -1.454235E+04
        53   5 -8.205355E+06 -1.159900E+06 -8.293260E+03 -3.085363E+06  1.157578E+04 -1.651696E+04
        53   6 -8.182561E+06 -1.184847E+06 -1.361754E+04 -3.111553E+06  1.684339E+04 -1.793100E+04
        53   7 -8.688375E+06 -1.374421E+06 -1.423806E+05 -3.248909E+06  4.412156E+03 -1.517653E+04
        53   8 -8.787351E+06 -1.379928E+06 -1.642435E+05 -3.243260E+06  1.012928E+04 -1.706067E+04
        53   9 -8.840553E+06 -1.433993E+06 -1.898295E+05 -3.290500E+06  1.564115E+04 -1.838418E+04
        53  10 -7.676040E+06 -9.924757E+05  1.293717E+05 -2.975110E+06 -7.352687E-10 -1.645740E-09
        53  11 -7.623028E+06 -9.398517E+05  1.476259E+05 -2.927331E+06 -1.714815E-09 -9.259383E-10
        53  12 -7.524145E+06 -9.356749E+05  1.625549E+05 -2.932432E+06 -8.263720E-10  1.676155E-10
        53  13 -8.182332E+06 -1.183455E+06 -6.493116E+03 -3.112061E+06 -3.357090E-09 -5.475737E-10
        53  14 -8.205355E+06 -1.159900E+06 -8.294022E+03 -3.085363E+06 -4.830246E-09 -2.490946E-09
        53  15 -8.182561E+06 -1.184847E+06 -1.361868E+04 -3.111553E+06  5.352060E-10  2.807105E-10
        53  16 -8.688375E+06 -1.374421E+06 -1.423810E+05 -3.248909E+06 -8.023711E-10 -5.381737E-10
        53  17 -8.787351E+06 -1.379929E+06 -1.642442E+05 -3.243259E+06 -2.357153E-09 -7.528677E-10
        53  18 -8.840553E+06 -1.433993E+06 -1.898306E+05 -3.290499E+06  3.437093E-09  3.238057E-10
        53  19 -7.676040E+06 -9.924755E+05  1.293721E+05 -2.975110E+06 -7.796583E+03  1.390760E+04
        53  20 -7.623028E+06 -9.398514E+05  1.476267E+05 -2.927331E+06 -1.302378E+04  1.597269E+04
        53  21 -7.524145E+06 -9.356745E+05  1.625561E+05 -2.932432E+06 -1.804705E+04  1.747729E+04
        53  22 -8.182332E+06 -1.183455E+06 -6.492651E+03 -3.112061E+06 -6.103604E+03  1.454235E+04
        53  23 -8.205355E+06 -1.159900E+06 -8.293260E+03 -3.085363E+06 -1.157578E+04  1.651696E+04
        53  24 -8.182561E+06 -1.184847E+06 -1.361754E+04 -3.111553E+06 -1.684339E+04  1.793100E+04
        53  25 -8.688375E+06 -1.374421E+06 -1.423806E+05 -3.248909E+06 -4.412156E+03  1.517653E+04
        53  26 -8.787351E+06 -1.379928E+06 -1.642435E+05 -3.243260E+06 -1.012928E+04  1.706067E+04
        53  27 -8.840553E+06 -1.433993E+06 -1.898295E+05 -3.290500E+06 -1.564115E+04  1.838418E+04
        54   1 -7.432942E+06 -8.945968E+05  1.848070E+05 -2.903903E+06  2.111712E+04 -1.810324E+04
        54   2 -7.402562E+06 -8.617986E+05  1.831324E+05 -2.874785E+06  3.687113E+04 -1.467452E+04
        54   3 -7.352900E+06 -8.709269E+05  1.661863E+05 -2.871687E+06  5.229921E+04 -1.036623E+04
        54   4 -8.187823E+06 -1.178574E+06 -1.732140E+04 -3.107415E+06  1.994078E+04 -1.854752E+04
        54   5 -8.198368E+06 -1.163782E+06 -3.016800E+04 -3.092090E+06  3.606630E+04 -1.498023E+04
        54   6 -8.189717E+06 -1.191007E+06 -5.859898E+04 -3.102786E+06  5.186465E+04 -1.053336E+04
        54   7 -8.942146E+06 -1.462519E+06 -2.194997E+05 -3.310700E+06  1.876602E+04 -1.899121E+04
        54   8 -8.993555E+06 -1.465726E+06 -2.435245E+05 -3.309139E+06  3.526261E+04 -1.528551E+04
        54   9 -9.025851E+06 -1.511042E+06 -2.834472E+05 -3.333598E+06  5.143070E+04 -1.070027E+04
        54  10 -7.432942E+06 -8.945973E+05  1.848056E+05 -2.903903E+06  3.203288E-10  2.058046E-09
        54  11 -7.402564E+06 -8.617992E+05  1.831294E+05 -2.874785E+06 -1.300992E-09  1.053413E-09
        54  12 -7.352903E+06 -8.709277E+05  1.661809E+05 -2.871687E+06  1.491320E-09 -1.942788E-09
        54  13 -8.187824E+06 -1.178575E+06 -1.732280E+04 -3.107415E+06 -2.210208E-10  1.949609E-09
        54  14 -8.198370E+06 -1.163782E+06 -3.017089E+04 -3.092089E+06  5.039404E-11 -1.451389E-10
        54  15 -8.189720E+06 -1.191008E+06 -5.860429E+04 -3.102786E+06  3.063357E-09 -1.420801E-09
        54  16 -8.942146E+06 -1.462519E+06 -2.195011E+05 -3.310700E+06  1.526540E-09  8.945870E-10
        54  17 -8.993556E+06 -1.465727E+06 -2.435273E+05 -3.309138E+06  6.669770E-10  6.745045E-10
        54  18 -9.025854E+06 -1.511043E+06 -2.834525E+05 -3.333598E+06 -2.897412E-09  3.288958E-10
        54  19 -7.432942E+06 -8.945968E+05  1.848070E+05 -2.903903E+06 -2.111712E+04  1.810324E+04
        54  20 -7.402562E+06 -8.617986E+05  1.831324E+05 -2.874785E+06 -3.687113E+04  1.467452E+04
        54  21 -7.352900E+06 -8.709269E+05  1.661863E+05 -2.871687E+06 -5.229921E+04  1.036623E+04
        54  22 -8.187823E+06 -1.178574E+06 -1.732140E+04 -3.107415E+06 -1.994078E+04  1.854752E+04
        54  23 -8.198368E+06 -1.163782E+06 -3.016800E+04 -3.092090E+06 -3.606630E+04  1.498023E+04
        54  24 -8.189717E+06 -1.191007E+06 -5.859898E+04 -3.102786E+06 -5.186465E+04  1.053336E+04
        54  25 -8.942146E+06 -1.462519E+06 -2.194997E+05 -3.310700E+06 -1.876602E+04  1.899121E+04
        54  26 -8.993555E+06 -1.465726E+06 -2.435245E+05 -3.309139E+06 -3.526261E+04  1.528551E+04
        54  27 -9.025851E+06 -1.511042E+06 -2.834472E+05 -3.333598E+06 -5.143070E+04  1.070027E+04
        55   1 -7.316272E+06 -8.480111E+05  1.596424E+05 -2.878491E+06  6.359718E+04 -6.976113E+03
        55   2 -7.308629E+06 -8.159370E+05  1.052579E+05 -2.856294E+06  1.302464E+05  1.771458E+04
        55   3 -7.360028E+06 -9.244982E+05 -3.691580E+04 -2.800463E+06  1.960321E+05  4.467452E+04
        55   4 -8.200894E+06 -1.169788E+06 -7.487157E+04 -3.105828E+06  6.285145E+04 -7.259385E+03
        55   5 -8.179451E+06 -1.154159E+06 -1.296306E+05 -3.102030E+06  1.304162E+05  1.777374E+04
        55   6 -8.217314E+06 -1.279475E+06 -2.730068E+05 -3.064581E+06  1.971184E+05  4.507235E+04
        55   7 -9.084752E+06 -1.491534E+06 -3.094533E+05 -3.332875E+06  6.210686E+04 -7.542274E+03
        55   8 -9.049528E+06 -1.492324E+06 -3.645869E+05 -3.347447E+06  1.305857E+05  1.783276E+04
        55   9 -9.073874E+06 -1.634367E+06 -5.091654E+05 -3.328348E+06  1.982030E+05  4.546933E+04
        55  10 -7.316276E+06 -8.480122E+05  1.596346E+05 -2.878491E+06 -4.426306E-09 -2.340897E-09
        55  11 -7.308648E+06 -8.159420E+05  1.052250E+05 -2.856296E+06 -3.931939E-09  3.676035E-09
        55  12 -7.360070E+06 -9.245109E+05 -3.699278E+04 -2.800470E+06  5.963734E-09  8.351735E-10
        55  13 -8.200899E+06 -1.169790E+06 -7.487918E+04 -3.105828E+06 -3.783625E-09  5.669438E-10
        55  14 -8.179469E+06 -1.154164E+06 -1.296636E+05 -3.102032E+06 -7.827815E-10  1.593092E-09
        55  15 -8.217357E+06 -1.279488E+06 -2.730848E+05 -3.064588E+06 -6.140668E-11  3.922406E-09
        55  16 -9.084756E+06 -1.491535E+06 -3.094607E+05 -3.332874E+06  2.233099E-09  1.927149E-09
        55  17 -9.049546E+06 -1.492329E+06 -3.646200E+05 -3.347448E+06 -2.134939E-09 -9.680658E-10
        55  18 -9.073917E+06 -1.634380E+06 -5.092444E+05 -3.328355E+06 -4.758397E-09  1.442976E-09
        55  19 -7.316272E+06 -8.480111E+05  1.596424E+05 -2.878491E+06 -6.359718E+04  6.976113E+03
        55  20 -7.308629E+06 -8.159370E+05  1.052579E+05 -2.856294E+06 -1.302464E+05 -1.771458E+04
        55  21 -7.360028E+06 -9.244982E+05 -3.691580E+04 -2.800463E+06 -1.960321E+05 -4.467452E+04
        55  22 -8.200894E+06 -1.169788E+06 -7.487157E+04 -3.105828E+06 -6.285145E+04  7.259385E+03
        55  23 -8.179451E+06 -1.154159E+06 -1.296306E+05 -3.102030E+06 -1.304162E+05 -1.777374E+04
        55  24 -8.217314E+06 -1.279475E+06 -2.730068E+05 -3.064581E+06 -1.971184E+05 -4.507235E+04
        55  25 -9.084752E+06 -1.491534E+06 -3.094533E+05 -3.332875E+06 -6.210686E+04  7.542274E+03
        55  26 -9.049528E+06 -1.492324E+06 -3.645869E+05 -3.347447E+06 -1.305857E+05 -1.783276E+04
        55  27 -9.073874E+06 -1.634367E+06 -5.091654E+05 -3.328348E+06 -1.982030E+05 -4.546933E+04
        56   1 -7.330171E+06 -8.962258E+05 -1.076382E+05 -3.003125E+06  2.485688E+05  6.251184E+04
        56   2 -7.320781E+06 -6.541628E+05 -3.341140E+05 -2.844658E+06  5.416293E+05  1.757867E+05
        56   3 -7.836378E+06 -1.605255E+06 -1.115443E+06 -2.339226E+06  8.281163E+05  3.063360E+05
        56   4 -8.265258E+06 -1.133418E+06 -3.351059E+05 -3.139050E+06  2.452566E+05  6.130921E+04
        56   5 -8.073764E+06 -1.018307E+06 -5.508745E+05 -3.129856E+06  5.455793E+05  1.772023E+05
        56   6 -8.409415E+06 -2.098868E+06 -1.327832E+06 -2.773439E+06  8.394152E+05  3.101801E+05
        56   7 -9.199472E+06 -1.370638E+06 -5.626293E+05 -3.274841E+06  2.419497E+05  6.010706E+04
        56   8 -8.826170E+06 -1.382301E+06 -7.676890E+05 -3.414701E+06  5.495236E+05  1.786143E+05
        56   9 -8.981937E+06 -2.591848E+06 -1.540226E+06 -3.207148E+06  8.507023E+05  3.140069E+05
        56  10 -7.330239E+06 -8.962469E+05 -1.077633E+05 -3.003137E+06 -1.066895E-09  1.669306E-09
        56  11 -7.321108E+06 -6.542765E+05 -3.347318E+05 -2.844735E+06 -2.743857E-09 -1.019997E-09
        56  12 -7.837148E+06 -1.605544E+06 -1.116928E+06 -2.339432E+06 -2.867576E-09 -1.393634E-09
        56  13 -8.265325E+06 -1.133439E+06 -3.352279E+05 -3.139062E+06  3.774154E-09  3.351849E-11
        56  14 -8.074096E+06 -1.018422E+06 -5.515023E+05 -3.129935E+06 -3.698434E-09 -4.905589E-09
        56  15 -8.410207E+06 -2.099166E+06 -1.329360E+06 -2.773651E+06  6.048713E-09 -1.493551E-09
        56  16 -9.199536E+06 -1.370658E+06 -5.627481E+05 -3.274853E+06  3.754561E-10 -1.861390E-09
        56  17 -8.826507E+06 -1.382419E+06 -7.683269E+05 -3.414781E+06  2.966294E-09 -5.714959E-09
        56  18 -8.982751E+06 -2.592154E+06 -1.541797E+06 -3.207365E+06  1.720028E-09 -2.174243E-09
        56  19 -7.330171E+06 -8.962258E+05 -1.076382E+05 -3.003125E+06 -2.485688E+05 -6.251184E+04
        56  20 -7.320781E+06 -6.541628E+05 -3.341140E+05 -2.844658E+06 -5.416293E+05 -1.757867E+05
        56  21 -7.836378E+06 -1.605255E+06 -1.115443E+06 -2.339226E+06 -8.281163E+05 -3.063360E+05
        56  22 -8.265258E+06 -1.133418E+06 -3.351059E+05 -3.139050E+06 -2.452566E+05 -6.130921E+04
        56  23 -8.073764E+06 -1.018307E+06 -5.508745E+05 -3.129856E+06 -5.455793E+05 -1.772023E+05
        56  24 -8.409415E+06 -2.098868E+06 -1.327832E+06 -2.773439E+06 -8.394152E+05 -3.101801E+05
        56  25 -9.199472E+06 -1.370638E+06 -5.626293E+05 -3.274841E+06 -2.419497E+05 -6.010706E+04
        56  26 -8.826170E+06 -1.382301E+06 -7.676890E+05 -3.414701E+06 -5.495236E+05 -1.786143E+05
        56  27 -8.981937E+06 -2.591848E+06 -1.540226E+06 -3.207148E+06 -8.507023E+05 -3.140069E+05
        57   1 -1.282461E+06 -1.917220E+05 -1.502363E+05 -2.410186E+03  1.040304E+05  1.348244E+04
        57   2 -1.229922E+06 -3.350886E+05 -2.244955E+05 -1.682264E+03  7.507657E+04  3.949099E+04
        57   3 -1.126889E+06 -3.018858E+05 -2.352626E+05 -6.143939E+04  4.624126E+04  3.690574E+04
        57   4  5.796821E+04  1.423391E+05  1.809458E+05 -4.106307E+04  1.235926E+05  1.356137E+04
        57   5  3.159209E+04 -2.202744E+04  7.882986E+04 -1.050830E+04  8.085635E+04  3.950576E+04
        57   6  5.799771E+04 -7.625089E+03  4.968241E+04 -4.042868E+04  3.824335E+04  3.687926E+04
        57   7  1.400037E+06  4.762723E+05  5.119969E+05 -7.980142E+04  1.431968E+05  1.363777E+04
        57   8  1.294565E+06  2.909182E+05  3.820422E+05 -1.935371E+04  8.664772E+04  3.952035E+04
        57   9  1.244172E+06  2.865349E+05  3.345280E+05 -1.937855E+04  3.023016E+04  3.685226E+04
        57  10 -1.282473E+06 -1.917251E+05 -1.502570E+05 -2.411316E+03 -1.545656E-09  1.982540E-09
        57  11 -1.229928E+06 -3.350918E+05 -2.245091E+05 -1.684654E+03  3.579042E-10 -7.597279E-10
        57  12 -1.126891E+06 -3.018878E+05 -2.352692E+05 -6.144077E+04  2.206848E-09 -8.896886E-10
        57  13  5.795176E+04  1.423348E+05  1.809167E+05 -4.106442E+04 -1.252998E-09  7.401399E-10
        57  14  3.158465E+04 -2.203087E+04  7.881464E+04 -1.051087E+04  3.285198E-09 -4.737306E-09
        57  15  5.799578E+04 -7.626942E+03  4.967711E+04 -4.042982E+04  1.788909E-09 -7.241683E-10
        57  16  1.400015E+06  4.762666E+05  5.119581E+05 -7.980299E+04  5.085222E-10 -5.048704E-10
        57  17  1.294556E+06  2.909145E+05  3.820252E+05 -1.935647E+04  7.994744E-10 -1.108025E-09
        57  18  1.244170E+06  2.865332E+05  3.345237E+05 -1.937944E+04 -4.930829E-10 -2.043475E-09
        57  19 -1.282461E+06 -1.917220E+05 -1.502363E+05 -2.410186E+03 -1.040304E+05 -1.348244E+04
        57  20 -1.229922E+06 -3.350886E+05 -2.244955E+05 -1.682264E+03 -7.507657E+04 -3.949099E+04
        57  21 -1.126889E+06 -3.018858E+05 -2.352626E+05 -6.143939E+04 -4.624126E+04 -3.690574E+04
        57  22  5.796821E+04  1.423391E+05  1.809458E+05 -4.106307E+04 -1.235926E+05 -1.356137E+04
        57  23  3.159209E+04 -2.202744E+04  7.882986E+04 -1.050830E+04 -8.085635E+04 -3.950576E+04
        57  24  5.799771E+04 -7.625089E+03  4.968241E+04 -4.042868E+04 -3.824335E+04 -3.687926E+04
        57  25  1.400037E+06  4.762723E+05  5.119969E+05 -7.980142E+04 -1.431968E+05 -1.363777E+04
        57  26  1.294565E+06  2.909182E+05  3.820422E+05 -1.935371E+04 -8.664772E+04 -3.952035E+04
        57  27  1.244172E+06  2.865349E+05  3.345280E+05 -1.937855E+04 -3.023016E+04 -3.685226E+04
        58   1 -1.026997E+06 -2.518879E+05 -2.187125E+05 -3.842634E+04  3.028460E+04  3.096315E+04
        58   2 -9.537308E+05 -2.504030E+05 -2.197944E+05 -1.078883E+04  2.088775E+04  3.016488E+04
        58   3 -8.728860E+05 -2.296381E+05 -2.096117E+05 -4.353334E+04  1.148906E+04  2.711733E+04
        58   4  4.806183E+04  1.508521E+04  4.055169E+04 -4.062020E+04  3.048797E+04  3.095993E+04
        58   5  4.419816E+04 -2.666674E+03  2.040928E+04 -1.041399E+04  1.999663E+04  3.015998E+04
        58   6  4.808840E+04 -9.646364E+02  1.227839E+04 -4.058347E+04  9.504641E+03  2.711228E+04
        58   7  1.124179E+06  2.819739E+05  2.997333E+05 -4.281850E+04  3.069166E+04  3.095672E+04
        58   8  1.043039E+06  2.449971E+05  2.605420E+05 -1.003897E+04  1.910407E+04  3.015508E+04
        58   9  9.698394E+05  2.276470E+05  2.341079E+05 -3.762942E+04  7.517275E+03  2.710722E+04
        58  10 -1.026999E+06 -2.518891E+05 -2.187161E+05 -3.842709E+04  1.849002E-09 -2.215171E-09
        58  11 -9.537315E+05 -2.504041E+05 -2.197969E+05 -1.078934E+04  4.703009E-10  1.729727E-09
        58  12 -8.728863E+05 -2.296389E+05 -2.096133E+05 -4.353359E+04  9.864924E-10 -1.988691E-09
        58  13  4.806058E+04  1.508393E+04  4.054814E+04 -4.062096E+04  2.541635E-09 -1.004921E-09
        58  14  4.419749E+04 -2.667758E+03  2.040682E+04 -1.041448E+04  5.940475E-09  3.534002E-10
        58  15  4.808811E+04 -9.654501E+02  1.227684E+04 -4.058368E+04 -6.253067E-10 -1.786964E-09
        58  16  1.124178E+06  2.819726E+05  2.997297E+05 -4.281926E+04  1.447527E-09  6.672823E-10
        58  17  1.043039E+06  2.449960E+05  2.605396E+05 -1.003943E+04 -3.992360E-09 -1.416046E-09
        58  18  9.698392E+05  2.276462E+05  2.341064E+05 -3.762958E+04 -7.846839E-10  1.841793E-10
        58  19 -1.026997E+06 -2.518879E+05 -2.187125E+05 -3.842634E+04 -3.028460E+04 -3.096315E+04
        58  20 -9.537308E+05 -2.504030E+05 -2.197944E+05 -1.078883E+04 -2.088775E+04 -3.016488E+04
        58  21 -8.728860E+05 -2.296381E+05 -2.096117E+05 -4.353334E+04 -1.148906E+04 -2.711733E+04
        58  22  4.806183E+04  1.508521E+04  4.055169E+04 -4.062020E+04 -3.048797E+04 -3.095993E+04
        58  23  4.419816E+04 -2.666674E+03  2.040928E+04 -1.041399E+04 -1.999663E+04 -3.015998E+04
        58  24  4.808840E+04 -9.646364E+02  1.227839E+04 -4.058347E+04 -9.504641E+03 -2.711228E+04
        58  25  1.124179E+06  2.819739E+05  2.997333E+05 -4.281850E+04 -3.069166E+04 -3.095672E+04
        58  26  1.043039E+06  2.449971E+05  2.605420E+05 -1.003897E+04 -1.910407E+04 -3.015508E+04
        58  27  9.698394E+05  2.276470E+05  2.341079E+05 -3.762942E+04 -7.517275E+03 -2.710722E+04
        59   1 -7.645832E+05 -1.999471E+05 -1.855308E+05 -4.082063E+04  8.899822E+03  2.500046E+04
        59   2 -6.885388E+05 -1.827192E+05 -1.716600E+05 -1.067365E+04  6.404587E+03  2.210929E+04
        59   3 -6.108947E+05 -1.634047E+05 -1.554842E+05 -4.080447E+04  3.904212E+03  1.904380E+04
        59   4  4.677640E+04  1.419549E+03  9.587009E+03 -4.057231E+04  7.562831E+03  2.499709E+04
        59   5  4.598248E+04 -3.982501E+02  5.133830E+03 -1.043500E+04  4.980876E+03  2.210690E+04
        59   6  4.679590E+04 -1.155223E+02  3.043840E+03 -4.057107E+04  2.394086E+03  1.904250E+04
        59   7  8.587389E+05  2.027382E+05  2.046580E+05 -4.032379E+04  6.224093E+03  2.499371E+04
        59   8  7.809978E+05  1.818834E+05  1.818892E+05 -1.019612E+04  3.555483E+03  2.210450E+04
        59   9  7.048824E+05  1.631421E+05  1.615410E+05 -4.033741E+04  8.823633E+02  1.904120E+04
        59  10 -7.645834E+05 -1.999478E+05 -1.855322E+05 -4.082081E+04 -3.023024E-09 -8.496683E-10
        59  11 -6.885390E+05 -1.827198E+05 -1.716610E+05 -1.067376E+04  7.062190E-10  6.404444E-10
        59  12 -6.108948E+05 -1.634051E+05 -1.554849E+05 -4.080453E+04 -1.387082E-09  6.112143E-10
        59  13  4.677617E+04  1.418863E+03  9.585727E+03 -4.057247E+04 -2.667681E-10 -1.177245E-09
        59  14  4.598232E+04 -3.987816E+02  5.132865E+03 -1.043508E+04 -1.346404E-10  3.237496E-10
        59  15  4.679580E+04 -1.159132E+02  3.043148E+03 -4.057111E+04 -1.891056E-09  3.952802E-10
        59  16  8.587387E+05  2.027375E+05  2.046568E+05 -4.032392E+04  1.974082E-09 -9.078980E-10
        59  17  7.809976E+05  1.818829E+05  1.818883E+05 -1.019618E+04  1.638426E-09 -6.459851E-10
        59  18  7.048823E+05  1.631417E+05  1.615403E+05 -4.033742E+04  9.670608E-10  7.022473E-11
        59  19 -7.645832E+05 -1.999471E+05 -1.855308E+05 -4.082063E+04 -8.899822E+03 -2.500046E+04
        59  20 -6.885388E+05 -1.827192E+05 -1.716600E+05 -1.067365E+04 -6.404587E+03 -2.210929E+04
        59  21 -6.108947E+05 -1.634047E+05 -1.554842E+05 -4.080447E+04 -3.904212E+03 -1.904380E+04
        59  22  4.677640E+04  1.419549E+03  9.587009E+03 -4.057231E+04 -7.562831E+03 -2.499709E+04
        59  23  4.598248E+04 -3.982501E+02  5.133830E+03 -1.043500E+04 -4.980876E+03 -2.210690E+04
        59  24  4.679590E+04 -1.155223E+02  3.043840E+03 -4.057107E+04 -2.394086E+03 -1.904250E+04
        59  25  8.587389E+05  2.027382E+05  2.046580E+05 -4.032379E+04 -6.224093E+03 -2.499371E+04
        59  26  7.809978E+05  1.818834E+05  1.818892E+05 -1.019612E+04 -3.555483E+03 -2.210450E+04
        59  27  7.048824E+05  1.631421E+05  1.615410E+05 -4.033741E+04 -8.823633E+02 -1.904120E+04
        60   1 -5.017132E+05 -1.359322E+05 -1.294120E+05 -4.046499E+04  3.368675E+03  1.723361E+04
        60   2 -4.251601E+05 -1.170931E+05 -1.122356E+05 -1.031164E+04  2.753101E+03  1.418387E+04
        60   3 -3.482471E+05 -9.797647E+04 -9.454617E+04 -4.032711E+04  2.134254E+03  1.112258E+04
        60   4  4.655519E+04  9.605006E+01  2.307530E+03 -4.054752E+04  1.909480E+03  1.723295E+04
        60   5  4.638368E+04 -6.614490E+01  1.244924E+03 -1.046452E+04  1.287781E+03  1.418391E+04
        60   6  4.656767E+04  5.057963E+01  6.995890E+02 -4.054752E+04  6.628851E+02  1.112334E+04
        60   7  5.950989E+05  1.361025E+05  1.340057E+05 -4.063010E+04  4.489994E+02  1.723230E+04
        60   8  5.181310E+05  1.169446E+05  1.147096E+05 -1.061750E+04 -1.786490E+02  1.418395E+04
        60   9  4.415250E+05  9.806624E+04  9.593421E+04 -4.076804E+04 -8.094168E+02  1.112410E+04
        60  10 -5.017133E+05 -1.359325E+05 -1.294126E+05 -4.046503E+04  1.134614E-10  3.703694E-10
        60  11 -4.251601E+05 -1.170933E+05 -1.122360E+05 -1.031167E+04  2.321756E-09  1.654906E-10
        60  12 -3.482471E+05 -9.797660E+04 -9.454641E+04 -4.032713E+04 -7.610660E-10  4.347372E-11
        60  13  4.655511E+04  9.573017E+01  2.306965E+03 -4.054754E+04  2.178681E-09  3.619459E-11
        60  14  4.638362E+04 -6.636139E+01  1.244543E+03 -1.046454E+04  1.297853E-10 -8.454042E-10
        60  15  4.656763E+04  5.044665E+01  6.993556E+02 -4.054752E+04  1.077127E-09 -8.869661E-10
        60  16  5.950988E+05  1.361021E+05  1.340051E+05 -4.063010E+04  6.087380E-10 -2.345273E-10
        60  17  5.181309E+05  1.169444E+05  1.147092E+05 -1.061749E+04 -3.330501E-10 -1.115135E-09
        60  18  4.415250E+05  9.806611E+04  9.593397E+04 -4.076803E+04  1.992206E-10 -6.549583E-10
        60  19 -5.017132E+05 -1.359322E+05 -1.294120E+05 -4.046499E+04 -3.368675E+03 -1.723361E+04
        60  20 -4.251601E+05 -1.170931E+05 -1.122356E+05 -1.031164E+04 -2.753101E+03 -1.418387E+04
        60  21 -3.482471E+05 -9.797647E+04 -9.454617E+04 -4.032711E+04 -2.134254E+03 -1.112258E+04
        60  22  4.655519E+04  9.605006E+01  2.307530E+03 -4.054752E+04 -1.909480E+03 -1.723295E+04
        60  23  4.638368E+04 -6.614490E+01  1.244924E+03 -1.046452E+04 -1.287781E+03 -1.418391E+04
        60  24  4.656767E+04  5.057963E+01  6.995890E+02 -4.054752E+04 -6.628851E+02 -1.112334E+04
        60  25  5.950989E+05  1.361025E+05  1.340057E+05 -4.063010E+04 -4.489994E+02 -1.723230E+04
        60  26  5.181310E+05  1.169446E+05  1.147096E+05 -1.061750E+04  1.786490E+02 -1.418395E+04
        60  27  4.415250E+05  9.806624E+04  9.593421E+04 -4.076804E+04  8.094168E+02 -1.112410E+04
        61   1 -2.390203E+05 -7.075020E+04 -6.798688E+04 -4.035068E+04  2.022179E+03  9.338045E+03
        61   2 -1.623144E+05 -5.180675E+04 -5.008478E+04 -1.032795E+04  1.933938E+03  6.279122E+03
        61   3 -8.566823E+04 -3.276581E+04 -3.212318E+04 -4.041212E+04  1.844280E+03  3.226999E+03
        61   4  4.649545E+04  5.380459E+01  4.819530E+02 -4.053410E+04  5.527559E+02  9.339167E+03
        61   5  4.653045E+04  1.597114E+01  1.674867E+02 -1.048128E+04  4.676595E+02  6.280543E+03
        61   6  4.650096E+04  7.577719E+01 -8.906158E+01 -4.053409E+04  3.811581E+02  3.228739E+03
        61   7  3.320859E+05  7.085189E+04  6.894502E+04 -4.071760E+04 -9.173410E+02  9.340289E+03
        61   8  2.554153E+05  5.183552E+04  5.041666E+04 -1.063465E+04 -9.991103E+02  6.281965E+03
        61   9  1.786861E+05  3.291608E+04  3.194381E+04 -4.065609E+04 -1.082275E+03  3.230479E+03
        61  10 -2.390203E+05 -7.075030E+04 -6.798705E+04 -4.035069E+04  3.589805E-10 -1.286385E-10
        61  11 -1.623145E+05 -5.180679E+04 -5.008486E+04 -1.032796E+04 -7.692576E-10  3.532364E-11
        61  12 -8.566823E+04 -3.276582E+04 -3.212321E+04 -4.041213E+04 -1.338994E-09 -5.782023E-11
        61  13  4.649542E+04  5.371084E+01  4.817885E+02 -4.053411E+04  1.295842E-09  1.322736E-09
        61  14  4.653044E+04  1.592872E+01  1.674121E+02 -1.048128E+04  2.409054E-09  1.429545E-09
        61  15  4.650096E+04  7.576596E+01 -8.908145E+01 -4.053410E+04 -3.231262E-10 -1.874967E-09
        61  16  3.320859E+05  7.085180E+04  6.894485E+04 -4.071759E+04  6.344376E-10  4.431773E-10
        61  17  2.554153E+05  5.183547E+04  5.041658E+04 -1.063464E+04 -4.426033E-11  1.317471E-09
        61  18  1.786861E+05  3.291607E+04  3.194379E+04 -4.065608E+04  2.315894E-09 -8.762587E-10
        61  19 -2.390203E+05 -7.075020E+04 -6.798688E+04 -4.035068E+04 -2.022179E+03 -9.338045E+03
        61  20 -1.623144E+05 -5.180675E+04 -5.008478E+04 -1.032795E+04 -1.933938E+03 -6.279122E+03
        61  21 -8.566823E+04 -3.276581E+04 -3.212318E+04 -4.041212E+04 -1.844280E+03 -3.226999E+03
        61  22  4.649545E+04  5.380459E+01  4.819530E+02 -4.053410E+04 -5.527559E+02 -9.339167E+03
        61  23  4.653045E+04  1.597114E+01  1.674867E+02 -1.048128E+04 -4.676595E+02 -6.280543E+03
        61  24  4.650096E+04  7.577719E+01 -8.906158E+01 -4.053409E+04 -3.811581E+02 -3.228739E+03
        61  25  3.320859E+05  7.085189E+04  6.894502E+04 -4.071760E+04  9.173410E+02 -9.340289E+03
        61  26  2.554153E+05  5.183552E+04  5.041666E+04 -1.063465E+04  9.991103E+02 -6.281965E+03
        61  27  1.786861E+05  3.291608E+04  3.194381E+04 -4.065609E+04  1.082275E+03 -3.230479E+03
        62   1  2.356096E+04 -5.533781E+03 -5.500717E+03 -4.054923E+04  1.894891E+03  1.433532E+03
        62   2  1.003487E+05  1.339850E+04  1.238708E+04 -1.052818E+04  2.123149E+03 -1.623308E+03
        62   3  1.769100E+05  3.219549E+04  3.005540E+04 -4.059942E+04  2.351900E+03 -4.589442E+03
        62   4  4.646665E+04  1.025914E+02 -2.232513E+02 -4.053111E+04  4.058665E+02  1.435387E+03
        62   5  4.658622E+04  6.026065E+01 -5.459319E+02 -1.048494E+04  6.775454E+02 -1.621597E+03
        62   6  4.646525E+04 -1.247996E+02 -1.118225E+03 -4.053138E+04  9.496908E+02 -4.587851E+03
        62   7  6.937283E+04  5.738928E+03  5.054188E+03 -4.051299E+04 -1.083213E+03  1.437242E+03
        62   8 -7.173577E+03 -1.327819E+04 -1.347914E+04 -1.044170E+04 -7.679331E+02 -1.619886E+03
        62   9 -8.396389E+04 -3.244632E+04 -3.229304E+04 -4.046335E+04 -4.522252E+02 -4.586260E+03
        62  10  2.356096E+04 -5.533784E+03 -5.500728E+03 -4.054924E+04 -6.583038E-10  1.062530E-09
        62  11  1.003487E+05  1.339849E+04  1.238706E+04 -1.052818E+04 -1.712452E-09 -6.909049E-10
        62  12  1.769100E+05  3.219547E+04  3.005535E+04 -4.059941E+04  1.286606E-09  4.669433E-10
        62  13  4.646665E+04  1.025892E+02 -2.232554E+02 -4.053111E+04  3.343762E-10 -1.438773E-09
        62  14  4.658622E+04  6.025770E+01 -5.459377E+02 -1.048494E+04  2.483309E-09 -1.695017E-09
        62  15  4.646524E+04 -1.248225E+02 -1.118266E+03 -4.053138E+04  3.409678E-09  8.449134E-10
        62  16  6.937283E+04  5.738926E+03  5.054182E+03 -4.051298E+04 -6.068080E-10  3.702152E-10
        62  17 -7.173579E+03 -1.327819E+04 -1.347914E+04 -1.044170E+04  6.864079E-10 -1.409025E-09
        62  18 -8.396389E+04 -3.244635E+04 -3.229308E+04 -4.046335E+04  6.344475E-10 -2.555558E-10
        62  19  2.356096E+04 -5.533781E+03 -5.500717E+03 -4.054923E+04 -1.894891E+03 -1.433532E+03
        62  20  1.003487E+05  1.339850E+04  1.238708E+04 -1.052818E+04 -2.123149E+03  1.623308E+03
        62  21  1.769100E+05  3.219549E+04  3.005540E+04 -4.059942E+04 -2.351900E+03  4.589442E+03
        62  22  4.646665E+04  1.025914E+02 -2.232513E+02 -4.053111E+04 -4.058665E+02 -1.435387E+03
        62  23  4.658622E+04  6.026065E+01 -5.459319E+02 -1.048494E+04 -6.775454E+02  1.621597E+03
        62  24  4.646525E+04 -1.247996E+02 -1.118225E+03 -4.053138E+04 -9.496908E+02  4.587851E+03
        62  25  6.937283E+04  5.738928E+03  5.054188E+03 -4.051299E+04  1.083213E+03 -1.437242E+03
        62  26 -7.173577E+03 -1.327819E+04 -1.347914E+04 -1.044170E+04  7.679331E+02  1.619886E+03
        62  27 -8.396389E+04 -3.244632E+04 -3.229304E+04 -4.046335E+04  4.522252E+02  4.586260E+03
        63   1  2.860984E+05  5.970266E+04  5.644326E+04 -4.099715E+04  2.906307E+03 -6.535046E+03
        63   2  3.631584E+05  7.878707E+04  7.362203E+04 -1.055809E+04  3.624086E+03 -9.568948E+03
        63   3  4.395808E+05  9.568722E+04  8.978473E+04 -4.021564E+04  4.344799E+03 -1.145108E+04
        63   4  4.634291E+04  1.827996E+02 -1.442890E+03 -4.053200E+04  1.172905E+03 -6.533281E+03
        63   5  4.670846E+04  2.917499E+02 -2.482021E+03 -1.048351E+04  2.443140E+03 -9.568220E+03
        63   6  4.633463E+04 -1.879757E+03 -4.920992E+03 -4.053358E+04  3.716219E+03 -1.145111E+04
        63   7 -1.933600E+05 -5.934126E+04 -5.933314E+04 -4.006702E+04 -5.598296E+02 -6.531519E+03
        63   8 -2.696498E+05 -7.821086E+04 -7.859319E+04 -1.040895E+04  1.262792E+03 -9.567492E+03
        63   9 -3.467702E+05 -9.945801E+04 -9.963775E+04 -4.085129E+04  3.088035E+03 -1.145114E+04
        63  10  2.860983E+05  5.970261E+04  5.644316E+04 -4.099714E+04 -9.877241E-10 -5.418104E-10
        63  11  3.631583E+05  7.878696E+04  7.362183E+04 -1.055807E+04 -9.281791E-12  4.575270E-10
        63  12  4.395808E+05  9.568707E+04  8.978445E+04 -4.021560E+04  3.462724E-09  5.233872E-11
        63  13  4.634289E+04  1.827534E+02 -1.442973E+03 -4.053200E+04  1.355416E-09  7.414313E-10
        63  14  4.670843E+04  2.916500E+02 -2.482204E+03 -1.048349E+04 -1.920925E-09  4.984096E-10
        63  15  4.633458E+04 -1.879901E+03 -4.921264E+03 -4.053355E+04  3.600514E-09 -2.870441E-10
        63  16 -1.933600E+05 -5.934130E+04 -5.933322E+04 -4.006702E+04  3.560324E-09  9.214094E-10
        63  17 -2.696498E+05 -7.821096E+04 -7.859337E+04 -1.040894E+04  9.393404E-10  1.536743E-09
        63  18 -3.467702E+05 -9.945815E+04 -9.963801E+04 -4.085126E+04 -3.085465E-09 -1.237762E-09
        63  19  2.860984E+05  5.970266E+04  5.644326E+04 -4.099715E+04 -2.906307E+03  6.535046E+03
        63  20  3.631584E+05  7.878707E+04  7.362203E+04 -1.055809E+04 -3.624086E+03  9.568948E+03
        63  21  4.395808E+05  9.568722E+04  8.978473E+04 -4.021564E+04 -4.344799E+03  1.145108E+04
        63  22  4.634291E+04  1.827996E+02 -1.442890E+03 -4.053200E+04 -1.172905E+03  6.533281E+03
        63  23  4.670846E+04  2.917499E+02 -2.482021E+03 -1.048351E+04 -2.443140E+03  9.568220E+03
        63  24  4.633463E+04 -1.879757E+03 -4.920992E+03 -4.053358E+04 -3.716219E+03  1.145111E+04
        63  25 -1.933600E+05 -5.934126E+04 -5.933314E+04 -4.006702E+04  5.598296E+02  6.531519E+03
        63  26 -2.696498E+05 -7.821086E+04 -7.859319E+04 -1.040895E+04 -1.262792E+03  9.567492E+03
        63  27 -3.467702E+05 -9.945801E+04 -9.963775E+04 -4.085129E+04 -3.088035E+03  1.145114E+04
        64   1  5.479693E+05  1.255919E+05  1.148503E+05 -4.292633E+04  9.470011E+03 -1.532223E+04
        64   2  6.271876E+05  1.461413E+05  1.294371E+05 -9.114614E+03  7.670397E+03 -1.805378E+04
        64   3  7.019536E+05  1.463273E+05  1.401857E+05 -3.512883E+04  5.870312E+03 -6.191451E+03
        64   4  4.520923E+04  9.005845E+02 -6.009709E+03 -4.047268E+04  4.649480E+03 -1.532037E+04
        64   5  4.804096E+04  2.541977E+03 -9.650220E+03 -1.055713E+04  9.856907E+03 -1.805525E+04
        64   6  4.519445E+04 -1.740585E+04 -2.199741E+04 -4.047130E+04  1.506393E+04 -6.190247E+03
        64   7 -4.573196E+05 -1.238091E+05 -1.268876E+05 -3.802100E+04 -1.671661E+02 -1.531854E+04
        64   8 -5.307988E+05 -1.410817E+05 -1.487614E+05 -1.199828E+04  1.204138E+04 -1.805674E+04
        64   9 -6.111727E+05 -1.811711E+05 -1.842121E+05 -4.580813E+04  2.424783E+04 -6.189202E+03
        64  10  5.479692E+05  1.255917E+05  1.148497E+05 -4.292621E+04  8.404537E-10 -1.293677E-10
        64  11  6.271875E+05  1.461409E+05  1.294364E+05 -9.114503E+03 -5.667821E-10 -2.155479E-11
        64  12  7.019535E+05  1.463273E+05  1.401855E+05 -3.512880E+04  1.473793E-09  1.274979E-10
        64  13  4.520915E+04  9.003267E+02 -6.010191E+03 -4.047263E+04 -9.798721E-10  2.058138E-10
        64  14  4.804077E+04  2.541601E+03 -9.651015E+03 -1.055698E+04  2.179456E-09  6.110616E-11
        64  15  4.519420E+04 -1.740596E+04 -2.199791E+04 -4.047123E+04 -5.873493E-10  7.005905E-11
        64  16 -4.573196E+05 -1.238094E+05 -1.268880E+05 -3.802100E+04 -4.660443E-10 -1.375483E-09
        64  17 -5.307990E+05 -1.410821E+05 -1.487623E+05 -1.199810E+04  2.243030E-09  2.578785E-10
        64  18 -6.111733E+05 -1.811713E+05 -1.842133E+05 -4.580801E+04 -1.292803E-09  4.314641E-10
        64  19  5.479693E+05  1.255919E+05  1.148503E+05 -4.292633E+04 -9.470011E+03  1.532223E+04
        64  20  6.271876E+05  1.461413E+05  1.294371E+05 -9.114614E+03 -7.670397E+03  1.805378E+04
        64  21  7.019536E+05  1.463273E+05  1.401857E+05 -3.512883E+04 -5.870312E+03  6.191451E+03
        64  22  4.520923E+04  9.005845E+02 -6.009709E+03 -4.047268E+04 -4.649480E+03  1.532037E+04
        64  23  4.804096E+04  2.541977E+03 -9.650220E+03 -1.055713E+04 -9.856907E+03  1.805525E+04
        64  24  4.519445E+04 -1.740585E+04 -2.199741E+04 -4.047130E+04 -1.506393E+04  6.190247E+03
        64  25 -4.573196E+05 -1.238091E+05 -1.268876E+05 -3.802100E+04  1.671661E+02  1.531854E+04
        64  26 -5.307988E+05 -1.410817E+05 -1.487614E+05 -1.199828E+04 -1.204138E+04  1.805674E+04
        64  27 -6.111727E+05 -1.811711E+05 -1.842121E+05 -4.580813E+04 -2.424783E+04  6.189202E+03
        65   1  1.035820E+06  3.388856E+06  9.976393E+05 -9.842914E+05  4.233350E+04  2.504361E+05
        65   2  7.237861E+05  2.394619E+06  6.371921E+05 -8.468105E+05  1.301838E+05  7.098344E+04
        65   3  4.796685E+05  1.439529E+06  4.099297E+05 -9.372974E+05  1.183701E+05 -1.086713E+05
        65   4  6.745419E+04 -5.250967E+05  6.606246E+04 -9.289988E+05  4.378540E+04  3.331067E+04
        65   5  2.012986E+04 -5.296553E+05  4.168373E+04 -8.151847E+05  1.306432E+05  1.259716E+04
        65   6  1.346381E+04 -5.232765E+05  4.071493E+04 -9.293651E+05  1.176349E+05 -8.607623E+03
        65   7 -9.019829E+05 -4.424931E+06 -8.664108E+05 -8.740230E+05  4.520422E+04 -1.824585E+05
        65   8 -6.840562E+05 -3.445806E+06 -5.542610E+05 -7.836916E+05  1.310980E+05 -4.552006E+04
        65   9 -4.529592E+05 -2.482342E+06 -3.286306E+05 -9.214492E+05  1.169008E+05  9.114809E+04
        65  10  1.035802E+06  3.388788E+06  9.975187E+05 -9.843000E+05  1.738683E-09  3.865323E-09
        65  11  7.237666E+05  2.394609E+06  6.371508E+05 -8.468179E+05 -1.626937E-09 -7.879389E-09
        65  12  4.796503E+05  1.439513E+06  4.098813E+05 -9.372870E+05  9.328176E-10 -4.245773E-09
        65  13  6.745183E+04 -5.250984E+05  6.605676E+04 -9.290000E+05  1.308236E-09 -1.040298E-10
        65  14  2.011149E+04 -5.296601E+05  4.165135E+04 -8.151861E+05 -5.231794E-10 -1.833018E-11
        65  15  1.344894E+04 -5.232803E+05  4.068880E+04 -9.293643E+05 -2.068750E-09 -6.897642E-09
        65  16 -9.019941E+05 -4.424968E+06 -8.664776E+05 -8.740163E+05 -9.189057E-10 -2.571739E-09
        65  17 -6.840752E+05 -3.445812E+06 -5.542972E+05 -7.836868E+05  2.486586E-09 -1.884838E-09
        65  18 -4.529761E+05 -2.482355E+06 -3.286720E+05 -9.214578E+05 -4.083474E-09  3.828041E-09
        65  19  1.035820E+06  3.388856E+06  9.976393E+05 -9.842914E+05 -4.233350E+04 -2.504361E+05
        65  20  7.237861E+05  2.394619E+06  6.371921E+05 -8.468105E+05 -1.301838E+05 -7.098344E+04
        65  21  4.796685E+05  1.439529E+06  4.099297E+05 -9.372974E+05 -1.183701E+05  1.086713E+05
        65  22  6.745419E+04 -5.250967E+05  6.606246E+04 -9.289988E+05 -4.378540E+04 -3.331067E+04
        65  23  2.012986E+04 -5.296553E+05  4.168373E+04 -8.151847E+05 -1.306432E+05 -1.259716E+04
        65  24  1.346381E+04 -5.232765E+05  4.071493E+04 -9.293651E+05 -1.176349E+05  8.607623E+03
        65  25 -9.019829E+05 -4.424931E+06 -8.664108E+05 -8.740230E+05 -4.520422E+04  1.824585E+05
        65  26 -6.840562E+05 -3.445806E+06 -5.542610E+05 -7.836916E+05 -1.310980E+05  4.552006E+04
        65  27 -4.529592E+05 -2.482342E+06 -3.286306E+05 -9.214492E+05 -1.169008E+05 -9.114809E+04
        66   1  3.270212E+05  7.897881E+05  2.921036E+05 -9.424801E+05  7.986209E+04 -1.030307E+05
        66   2  9.445719E+04 -1.866588E+05  1.259309E+05 -8.139680E+05  2.462342E+04 -1.379172E+05
        66   3 -1.187978E+05 -1.156324E+06 -1.367407E+04 -9.194815E+05 -3.191475E+04 -1.727771E+05
        66   4  1.477889E+04 -5.240777E+05  4.519200E+04 -9.306716E+05  7.919266E+04 -1.607744E+04
        66   5  1.428197E+04 -5.267005E+05  6.514573E+04 -8.135943E+05  2.392875E+04 -4.895581E+04
        66   6  3.278326E+04 -5.238453E+05  1.102499E+05 -9.305345E+05 -3.263610E+04 -8.185899E+04
        66   7 -2.975593E+05 -1.836260E+06 -2.017665E+05 -9.188845E+05  7.852567E+04  7.069653E+04
        66   8 -6.589541E+04 -8.666123E+05  4.385919E+03 -8.132207E+05  2.323395E+04  3.995823E+04
        66   9  1.843450E+05  1.090354E+05  2.341858E+05 -9.415981E+05 -3.336026E+04  9.149946E+03
        66  10  3.270115E+05  7.897751E+05  2.920718E+05 -9.424735E+05 -3.342066E-10  6.831528E-09
        66  11  9.445144E+04 -1.866794E+05  1.258940E+05 -8.139652E+05  1.873730E-09 -7.829678E-09
        66  12 -1.188070E+05 -1.156356E+06 -1.373222E+04 -9.194859E+05  6.032148E-10 -4.088672E-09
        66  13  1.477209E+04 -5.240796E+05  4.517974E+04 -9.306706E+05 -3.425403E-09  1.107050E-10
        66  14  1.428072E+04 -5.267032E+05  6.514016E+04 -8.135934E+05 -6.281166E-09  4.121599E-11
        66  15  3.278031E+04 -5.238528E+05  1.102353E+05 -9.305366E+05 -2.305047E-09 -6.857331E-09
        66  16 -2.975673E+05 -1.836267E+06 -2.017875E+05 -9.188890E+05 -2.197088E-09 -4.576572E-09
        66  17 -6.589642E+04 -8.666142E+05  4.381894E+03 -8.132215E+05 -1.968087E-09 -4.493141E-09
        66  18  1.843438E+05  1.090350E+05  2.341835E+05 -9.415978E+05  8.579446E-10  3.646893E-09
        66  19  3.270212E+05  7.897881E+05  2.921036E+05 -9.424801E+05 -7.986209E+04  1.030307E+05
        66  20  9.445719E+04 -1.866588E+05  1.259309E+05 -8.139680E+05 -2.462342E+04  1.379172E+05
        66  21 -1.187978E+05 -1.156324E+06 -1.367407E+04 -9.194815E+05  3.191475E+04  1.727771E+05
        66  22  1.477889E+04 -5.240777E+05  4.519200E+04 -9.306716E+05 -7.919266E+04  1.607744E+04
        66  23  1.428197E+04 -5.267005E+05  6.514573E+04 -8.135943E+05 -2.392875E+04  4.895581E+04
        66  24  3.278326E+04 -5.238453E+05  1.102499E+05 -9.305345E+05  3.263610E+04  8.185899E+04
        66  25 -2.975593E+05 -1.836260E+06 -2.017665E+05 -9.188845E+05 -7.852567E+04 -7.069653E+04
        66  26 -6.589541E+04 -8.666123E+05  4.385919E+03 -8.132207E+05 -2.323395E+04 -3.995823E+04
        66  27  1.843450E+05  1.090354E+05  2.341858E+05 -9.415981E+05  3.336026E+04 -9.149946E+03
        67   1 -2.836235E+05 -1.785213E+06 -1.034347E+05 -9.559205E+05 -7.069167E+04 -2.023750E+05
        67   2 -4.412100E+05 -2.788142E+06 -2.098334E+05 -6.761909E+05 -9.327118E+04 -2.010056E+05
        67   3 -3.256185E+05 -3.724287E+06 -2.494033E+05 -6.249668E+05 -3.222066E+04 -1.991674E+05
        67   4  2.121035E+04 -5.056674E+05  1.421554E+05 -9.297049E+05 -7.148885E+04 -1.010112E+05
        67   5  1.020643E+05 -5.504940E+05  2.533694E+05 -8.140142E+05 -9.297584E+04 -2.320511E+05
        67   6  4.784686E+05 -5.069338E+05  5.231762E+05 -9.265432E+05 -3.097174E+04 -3.626378E+05
        67   7  3.259561E+05  7.754828E+05  3.877098E+05 -9.034298E+05 -7.227643E+04  5.573451E+02
        67   8  6.450868E+05  1.691954E+06  7.163126E+05 -9.523335E+05 -9.266736E+04 -2.632058E+05
        67   9  1.282141E+06  2.720180E+06  1.295165E+06 -1.229675E+06 -2.956738E+04 -5.269522E+05
        67  10 -2.836399E+05 -1.785259E+06 -1.035213E+05 -9.559320E+05  2.987318E-09  7.739584E-09
        67  11 -4.412302E+05 -2.788188E+06 -2.099261E+05 -6.762061E+05  5.682818E-09 -6.764394E-09
        67  12 -3.256303E+05 -3.724330E+06 -2.494802E+05 -6.249719E+05  6.439556E-10 -5.501321E-09
        67  13  2.120210E+04 -5.056797E+05  1.421266E+05 -9.297107E+05  3.507762E-09  3.822134E-10
        67  14  1.020405E+05 -5.505542E+05  2.532518E+05 -8.140316E+05 -2.001110E-09  2.094668E-10
        67  15  4.784322E+05 -5.070754E+05  5.229270E+05 -9.265523E+05  1.759050E-09 -6.416322E-09
        67  16  3.259505E+05  7.754814E+05  3.877000E+05 -9.034298E+05 -6.362075E-10 -5.459623E-09
        67  17  6.450590E+05  1.691878E+06  7.161664E+05 -9.523532E+05  2.692169E-09 -4.356603E-09
        67  18  1.282066E+06  2.719883E+06  1.294643E+06 -1.229688E+06  2.345041E-09  4.804884E-09
        67  19 -2.836235E+05 -1.785213E+06 -1.034347E+05 -9.559205E+05  7.069167E+04  2.023750E+05
        67  20 -4.412100E+05 -2.788142E+06 -2.098334E+05 -6.761909E+05  9.327118E+04  2.010056E+05
        67  21 -3.256185E+05 -3.724287E+06 -2.494033E+05 -6.249668E+05  3.222066E+04  1.991674E+05
        67  22  2.121035E+04 -5.056674E+05  1.421554E+05 -9.297049E+05  7.148885E+04  1.010112E+05
        67  23  1.020643E+05 -5.504940E+05  2.533694E+05 -8.140142E+05  9.297584E+04  2.320511E+05
        67  24  4.784686E+05 -5.069338E+05  5.231762E+05 -9.265432E+05  3.097174E+04  3.626378E+05
        67  25  3.259561E+05  7.754828E+05  3.877098E+05 -9.034298E+05  7.227643E+04 -5.573451E+02
        67  26  6.450868E+05  1.691954E+06  7.163126E+05 -9.523335E+05  9.266736E+04  2.632058E+05
        67  27  1.282141E+06  2.720180E+06  1.295165E+06 -1.229675E+06  2.956738E+04  5.269522E+05
        68   1 -3.659653E+06 -1.417990E+06 -8.096640E+05 -1.254608E+06 -2.115369E+05 -1.920164E+04
        68   2 -3.418407E+06 -1.355857E+06 -6.531491E+05 -1.169316E+06 -1.425515E+05  1.482273E+05
        68   3 -3.138548E+06 -1.310403E+06 -5.752985E+05 -1.143840E+06 -3.788102E+04  2.221067E+05
        68   4 -1.512782E+05 -1.368617E+05  9.364670E+04 -3.336612E+05  3.987456E+04  7.627286E+04
        68   5 -1.892953E+05 -1.787824E+05  4.266026E+04 -2.897974E+05 -2.912642E+04  1.911196E+05
        68   6 -1.613115E+05 -2.100228E+05  2.286658E+04 -3.057422E+05 -6.259514E+04  2.126538E+05
        68   7  3.369139E+06  1.144885E+06  9.961936E+05  5.919386E+05  2.928475E+05  1.722937E+05
        68   8  3.050450E+06  9.990753E+05  7.379126E+05  5.939152E+05  8.493844E+04  2.342458E+05
        68   9  2.825151E+06  8.911940E+05  6.206141E+05  5.361143E+05 -8.743805E+04  2.031518E+05
        68  10 -3.659702E+06 -1.418003E+06 -8.097492E+05 -1.254612E+06  7.490389E-09  2.331827E-09
        68  11 -3.418434E+06 -1.355886E+06 -6.532286E+05 -1.169299E+06  1.343166E-09 -3.410857E-09
        68  12 -3.138563E+06 -1.310457E+06 -5.753939E+05 -1.143833E+06 -8.196141E-09 -5.259958E-09
        68  13 -1.512815E+05 -1.368684E+05  9.363277E+04 -3.336636E+05  7.416232E-10  6.738390E-09
        68  14 -1.893060E+05 -1.788219E+05  4.259003E+04 -2.897929E+05  1.839238E-11 -8.954173E-10
        68  15 -1.613279E+05 -2.100724E+05  2.277424E+04 -3.057315E+05  6.762327E-09  1.078316E-08
        68  16  3.369039E+06  1.144830E+06  9.959778E+05  5.918981E+05 -5.318136E-09  6.362828E-10
        68  17  3.050427E+06  9.990146E+05  7.377962E+05  5.938992E+05  4.520586E-09  2.349275E-09
        68  18  2.825131E+06  8.911477E+05  6.205222E+05  5.361286E+05  1.830539E-08  5.028872E-09
        68  19 -3.659653E+06 -1.417990E+06 -8.096640E+05 -1.254608E+06  2.115369E+05  1.920164E+04
        68  20 -3.418407E+06 -1.355857E+06 -6.531491E+05 -1.169316E+06  1.425515E+05 -1.482273E+05
        68  21 -3.138548E+06 -1.310403E+06 -5.752985E+05 -1.143840E+06  3.788102E+04 -2.221067E+05
        68  22 -1.512782E+05 -1.368617E+05  9.364670E+04 -3.336612E+05 -3.987456E+04 -7.627286E+04
        68  23 -1.892953E+05 -1.787824E+05  4.266026E+04 -2.897974E+05  2.912642E+04 -1.911196E+05
        68  24 -1.613115E+05 -2.100228E+05  2.286658E+04 -3.057422E+05  6.259514E+04 -2.126538E+05
        68  25  3.369139E+06  1.144885E+06  9.961936E+05  5.919386E+05 -2.928475E+05 -1.722937E+05
        68  26  3.050450E+06  9.990753E+05  7.379126E+05  5.939152E+05 -8.493844E+04 -2.342458E+05
        68  27  2.825151E+06  8.911940E+05  6.206141E+05  5.361143E+05  8.743805E+04 -2.031518E+05
        69   1 -2.977835E+06 -1.240558E+06 -5.452045E+05 -1.093308E+06 -5.341034E+04  2.046351E+05
        69   2 -2.756001E+06 -1.127690E+06 -4.950063E+05 -9.984879E+05 -4.460221E+04  1.978760E+05
        69   3 -2.487518E+06 -1.060031E+06 -4.483743E+05 -9.560092E+05 -3.328439E+04  1.843705E+05
        69   4 -1.630505E+05 -2.085977E+05  1.736690E+04 -3.090729E+05 -6.138938E+04  2.015236E+05
        69   5 -1.872418E+05 -1.879157E+05  9.032159E+03 -2.824527E+05 -6.254968E+04  1.910230E+05
        69   6 -1.628805E+05 -2.104574E+05  5.042942E+03 -3.081815E+05 -6.120827E+04  1.737906E+05
        69   7  2.659944E+06  8.240658E+05  5.795585E+05  4.784654E+05 -6.940787E+04  1.983975E+05
        69   8  2.388366E+06  7.524491E+05  5.127684E+05  4.363354E+05 -8.057735E+04  1.841400E+05
        69   9  2.167360E+06  6.395981E+05  4.582161E+05  3.418980E+05 -8.924462E+04  1.631685E+05
        69  10 -2.977849E+06 -1.240604E+06 -5.452886E+05 -1.093299E+06  1.803378E-08  4.426100E-09
        69  11 -2.756013E+06 -1.127733E+06 -4.950836E+05 -9.984808E+05  5.983688E-09  4.150367E-10
        69  12 -2.487528E+06 -1.060068E+06 -4.484403E+05 -9.560042E+05 -7.955127E-09 -4.705155E-09
        69  13 -1.630654E+05 -2.086423E+05  1.728351E+04 -3.090630E+05  7.036351E-09  8.189414E-09
        69  14 -1.872558E+05 -1.879559E+05  8.956245E+03 -2.824431E+05  1.333752E-09  4.465253E-09
        69  15 -1.628926E+05 -2.104908E+05  4.979154E+03 -3.081729E+05  5.973048E-09  1.071851E-10
        69  16  2.659928E+06  8.240223E+05  5.794754E+05  4.784765E+05 -8.519054E-09 -4.022681E-09
        69  17  2.388350E+06  7.524110E+05  5.126925E+05  4.363473E+05  2.441384E-09 -1.109237E-09
        69  18  2.167344E+06  6.395674E+05  4.581512E+05  3.419097E+05  1.162178E-08  4.318297E-09
        69  19 -2.977835E+06 -1.240558E+06 -5.452045E+05 -1.093308E+06  5.341034E+04 -2.046351E+05
        69  20 -2.756001E+06 -1.127690E+06 -4.950063E+05 -9.984879E+05  4.460221E+04 -1.978760E+05
        69  21 -2.487518E+06 -1.060031E+06 -4.483743E+05 -9.560092E+05  3.328439E+04 -1.843705E+05
        69  22 -1.630505E+05 -2.085977E+05  1.736690E+04 -3.090729E+05  6.138938E+04 -2.015236E+05
        69  23 -1.872418E+05 -1.879157E+05  9.032159E+03 -2.824527E+05  6.254968E+04 -1.910230E+05
        69  24 -1.628805E+05 -2.104574E+05  5.042942E+03 -3.081815E+05  6.120827E+04 -1.737906E+05
        69  25  2.659944E+06  8.240658E+05  5.795585E+05  4.784654E+05  6.940787E+04 -1.983975E+05
        69  26  2.388366E+06  7.524491E+05  5.127684E+05  4.363354E+05  8.057735E+04 -1.841400E+05
        69  27  2.167360E+06  6.395981E+05  4.582161E+05  3.418980E+05  8.924462E+04 -1.631685E+05
        70   1 -2.322827E+06 -9.985709E+05 -4.160041E+05 -9.097161E+05 -3.099542E+04  1.726237E+05
        70   2 -2.100633E+06 -8.848923E+05 -3.698720E+05 -8.145368E+05 -2.430144E+04  1.541786E+05
        70   3 -1.831470E+06 -8.173227E+05 -3.233785E+05 -7.719911E+05 -1.745436E+04  1.352270E+05
        70   4 -1.629595E+05 -2.102671E+05  3.753860E+03 -3.084860E+05 -5.774374E+04  1.625046E+05
        70   5 -1.862557E+05 -1.868759E+05  1.972093E+03 -2.822435E+05 -5.179808E+04  1.438046E+05
        70   6 -1.625145E+05 -2.094458E+05  1.133275E+03 -3.086504E+05 -4.569959E+04  1.245990E+05
        70   7  2.001784E+06  5.784657E+05  4.233137E+05  2.946955E+05 -8.459253E+04  1.523479E+05
        70   8  1.731946E+06  5.114736E+05  3.736599E+05  2.515786E+05 -7.938608E+04  1.333963E+05
        70   9  1.509340E+06  3.986803E+05  3.255251E+05  1.558480E+05 -7.402646E+04  1.139404E+05
        70  10 -2.322836E+06 -9.986032E+05 -4.160619E+05 -9.097118E+05 -2.727376E-08 -1.106631E-08
        70  11 -2.100640E+06 -8.849180E+05 -3.699178E+05 -8.145338E+05 -4.957215E-09 -4.272506E-09
        70  12 -1.831476E+06 -8.173424E+05 -3.234135E+05 -7.719892E+05  1.907733E-08  6.035090E-09
        70  13 -1.629701E+05 -2.102963E+05  3.697978E+03 -3.084785E+05  9.597561E-10 -1.992176E-09
        70  14 -1.862641E+05 -1.868988E+05  1.928197E+03 -2.822375E+05 -4.865384E-09 -3.900660E-09
        70  15 -1.625209E+05 -2.094631E+05  1.100182E+03 -3.086459E+05 -1.886254E-09 -2.723508E-09
        70  16  2.001770E+06  5.784388E+05  4.232566E+05  2.947058E+05  2.542516E-08  7.915410E-09
        70  17  1.731934E+06  5.114528E+05  3.736146E+05  2.515871E+05 -5.540659E-09 -3.562169E-09
        70  18  1.509330E+06  3.986649E+05  3.254904E+05  1.558548E+05 -2.114858E-08 -1.138011E-08
        70  19 -2.322827E+06 -9.985709E+05 -4.160041E+05 -9.097161E+05  3.099542E+04 -1.726237E+05
        70  20 -2.100633E+06 -8.848923E+05 -3.698720E+05 -8.145368E+05  2.430144E+04 -1.541786E+05
        70  21 -1.831470E+06 -8.173227E+05 -3.233785E+05 -7.719911E+05  1.745436E+04 -1.352270E+05
        70  22 -1.629595E+05 -2.102671E+05  3.753860E+03 -3.084860E+05  5.774374E+04 -1.625046E+05
        70  23 -1.862557E+05 -1.868759E+05  1.972093E+03 -2.822435E+05  5.179808E+04 -1.438046E+05
        70  24 -1.625145E+05 -2.094458E+05  1.133275E+03 -3.086504E+05  4.569959E+04 -1.245990E+05
        70  25  2.001784E+06  5.784657E+05  4.233137E+05  2.946955E+05  8.459253E+04 -1.523479E+05
        70  26  1.731946E+06  5.114736E+05  3.736599E+05  2.515786E+05  7.938608E+04 -1.333963E+05
        70  27  1.509340E+06  3.986803E+05  3.255251E+05  1.558480E+05  7.402646E+04 -1.139404E+05
        71   1 -1.666036E+06 -7.564816E+05 -2.901322E+05 -7.260354E+05 -1.350439E+04  1.240173E+05
        71   2 -1.442784E+06 -6.432373E+05 -2.433556E+05 -6.309708E+05 -6.460820E+03  1.049001E+05
        71   3 -1.172922E+06 -5.761716E+05 -1.964068E+05 -5.888272E+05  5.762964E+02  8.573332E+04
        71   4 -1.624861E+05 -2.093262E+05  8.188767E+02 -3.087280E+05 -4.168500E+04  1.134270E+05
        71   5 -1.856180E+05 -1.859450E+05  3.842391E+02 -2.823243E+05 -3.471497E+04  9.430010E+04
        71   6 -1.621952E+05 -2.087300E+05  1.732206E+02 -3.088610E+05 -2.775137E+04  7.512364E+04
        71   7  1.343404E+06  3.380269E+05  2.916708E+05  1.095154E+05 -6.993868E+04  1.028093E+05
        71   8  1.073193E+06  2.714886E+05  2.440579E+05  6.697816E+04 -6.303056E+04  8.367706E+04
        71   9  8.496028E+05  1.588057E+05  1.967136E+05 -2.846908E+04 -5.612877E+04  6.449535E+04
        71  10 -1.666040E+06 -7.564981E+05 -2.901614E+05 -7.260341E+05 -4.547620E-09 -1.260088E-09
        71  11 -1.442787E+06 -6.432491E+05 -2.433763E+05 -6.309702E+05  6.423814E-10  4.677974E-10
        71  12 -1.172924E+06 -5.761795E+05 -1.964206E+05 -5.888272E+05  1.279807E-09 -3.038406E-10
        71  13 -1.624915E+05 -2.093405E+05  7.914387E+02 -3.087242E+05  2.447228E-09 -8.292196E-10
        71  14 -1.856217E+05 -1.859548E+05  3.652669E+02 -2.823216E+05  9.457259E-10  1.525000E-10
        71  15 -1.621975E+05 -2.087362E+05  1.611700E+02 -3.088593E+05  4.053172E-09 -4.648032E-10
        71  16  1.343396E+06  3.380143E+05  2.916418E+05  1.095211E+05  4.086665E-09 -1.139713E-09
        71  17  1.073186E+06  2.714800E+05  2.440373E+05  6.698240E+04  2.093617E-09  1.276748E-10
        71  18  8.495983E+05  1.588004E+05  1.966999E+05 -2.846617E+04 -1.579315E-09 -4.311962E-10
        71  19 -1.666036E+06 -7.564816E+05 -2.901322E+05 -7.260354E+05  1.350439E+04 -1.240173E+05
        71  20 -1.442784E+06 -6.432373E+05 -2.433556E+05 -6.309708E+05  6.460820E+03 -1.049001E+05
        71  21 -1.172922E+06 -5.761716E+05 -1.964068E+05 -5.888272E+05 -5.762964E+02 -8.573332E+04
        71  22 -1.624861E+05 -2.093262E+05  8.188767E+02 -3.087280E+05  4.168500E+04 -1.134270E+05
        71  23 -1.856180E+05 -1.859450E+05  3.842391E+02 -2.823243E+05  3.471497E+04 -9.430010E+04
        71  24 -1.621952E+05 -2.087300E+05  1.732206E+02 -3.088610E+05  2.775137E+04 -7.512364E+04
        71  25  1.343404E+06  3.380269E+05  2.916708E+05  1.095154E+05  6.993868E+04 -1.028093E+05
        71  26  1.073193E+06  2.714886E+05  2.440579E+05  6.697816E+04  6.303056E+04 -8.367706E+04
        71  27  8.496028E+05  1.588057E+05  1.967136E+05 -2.846908E+04  5.612877E+04 -6.449535E+04
        72   1 -1.007003E+06 -5.155063E+05 -1.629361E+05 -5.429655E+05  4.735085E+03  7.458758E+04
        72   2 -7.830745E+05 -4.025633E+05 -1.159568E+05 -4.479493E+05  1.196724E+04  5.548235E+04
        72   3 -5.127754E+05 -3.358361E+05 -6.900821E+04 -4.060153E+05  1.918498E+04  3.638322E+04
        72   4 -1.621725E+05 -2.086598E+05  5.849300E+01 -3.088987E+05 -2.360368E+04  6.398160E+04
        72   5 -1.852525E+05 -1.854051E+05 -1.565149E+02 -2.823789E+05 -1.636512E+04  4.488722E+04
        72   6 -1.620307E+05 -2.083709E+05 -4.114732E+02 -3.089626E+05 -9.141048E+03  2.579908E+04
        72   7  6.834014E+05  9.825068E+04  1.630255E+05 -7.453580E+04 -5.198378E+04  5.336014E+04
        72   8  4.129397E+05  3.178432E+04  1.156307E+05 -1.166609E+05 -4.472659E+04  3.428120E+04
        72   9  1.888402E+05 -8.089549E+04  6.818227E+04 -2.118594E+05 -3.748398E+04  1.520861E+04
        72  10 -1.007004E+06 -5.155122E+05 -1.629466E+05 -5.429658E+05  1.179845E-09 -2.093946E-09
        72  11 -7.830755E+05 -4.025667E+05 -1.159628E+05 -4.479499E+05  1.692511E-09 -3.237087E-10
        72  12 -5.127762E+05 -3.358376E+05 -6.901139E+04 -4.060159E+05  2.525600E-09  8.040789E-11
        72  13 -1.621742E+05 -2.086643E+05  4.975476E+01 -3.088974E+05  4.130847E-10 -1.745767E-09
        72  14 -1.852534E+05 -1.854074E+05 -1.608038E+02 -2.823783E+05  3.683056E-09 -3.920335E-10
        72  15 -1.620309E+05 -2.083717E+05 -4.128808E+02 -3.089624E+05  3.092391E-09  1.648019E-09
        72  16  6.833977E+05  9.824690E+04  1.630151E+05 -7.453356E+04  6.211167E-10  5.054668E-10
        72  17  4.129372E+05  3.178252E+04  1.156248E+05 -1.166597E+05  3.251816E-09  4.875918E-10
        72  18  1.888386E+05 -8.089611E+04  6.817920E+04 -2.118590E+05 -7.588033E-11 -1.141082E-09
        72  19 -1.007003E+06 -5.155063E+05 -1.629361E+05 -5.429655E+05 -4.735085E+03 -7.458758E+04
        72  20 -7.830745E+05 -4.025633E+05 -1.159568E+05 -4.479493E+05 -1.196724E+04 -5.548235E+04
        72  21 -5.127754E+05 -3.358361E+05 -6.900821E+04 -4.060153E+05 -1.918498E+04 -3.638322E+04
        72  22 -1.621725E+05 -2.086598E+05  5.849300E+01 -3.088987E+05  2.360368E+04 -6.398160E+04
        72  23 -1.852525E+05 -1.854051E+05 -1.565149E+02 -2.823789E+05  1.636512E+04 -4.488722E+04
        72  24 -1.620307E+05 -2.083709E+05 -4.114732E+02 -3.089626E+05  9.141048E+03 -2.579908E+04
        72  25  6.834014E+05  9.825068E+04  1.630255E+05 -7.453580E+04  5.198378E+04 -5.336014E+04
        72  26  4.129397E+05  3.178432E+04  1.156307E+05 -1.166609E+05  4.472659E+04 -3.428120E+04
        72  27  1.888402E+05 -8.089549E+04  6.818227E+04 -2.118594E+05  3.748398E+04 -1.520861E+04
        73   1 -3.465688E+05 -2.752615E+05 -3.558804E+04 -3.601669E+05  2.347840E+04  2.528813E+04
        73   2 -1.223497E+05 -1.624932E+05  1.115240E+04 -2.651153E+05  3.083413E+04  6.354893E+03
        73   3  1.481433E+05 -9.594240E+04  5.771425E+04 -2.231844E+05  3.810410E+04 -1.234614E+04
        73   4 -1.620445E+05 -2.083473E+05 -5.981402E+02 -3.089800E+05 -4.895643E+03  1.468832E+04
        73   5 -1.851218E+05 -1.852295E+05 -1.166131E+03 -2.823972E+05  2.797967E+03 -4.119698E+03
        73   6 -1.620622E+05 -2.084055E+05 -2.184278E+03 -3.089625E+05  1.040567E+04 -2.269539E+04
        73   7  2.251882E+04 -1.414287E+05  3.439426E+04 -2.577779E+05 -3.327896E+04  4.085036E+03
        73   8 -2.478884E+05 -2.079650E+05 -1.348155E+04 -2.996770E+05 -2.523528E+04 -1.459321E+04
        73   9 -4.721661E+05 -3.208596E+05 -6.208374E+04 -3.947005E+05 -1.727796E+04 -3.303911E+04
        73  10 -3.465696E+05 -2.752623E+05 -3.559028E+04 -3.601674E+05  4.207162E-09  5.625338E-10
        73  11 -1.223508E+05 -1.624935E+05  1.115054E+04 -2.651155E+05 -1.948535E-09 -1.362858E-09
        73  12  1.481417E+05 -9.594296E+04  5.771124E+04 -2.231840E+05 -4.428081E-09 -1.376536E-09
        73  13 -1.620445E+05 -2.083475E+05 -5.985906E+02 -3.089799E+05  2.697721E-09 -2.273134E-09
        73  14 -1.851218E+05 -1.852295E+05 -1.166178E+03 -2.823971E+05 -2.339346E-09 -9.701121E-10
        73  15 -1.620624E+05 -2.084061E+05 -2.185449E+03 -3.089623E+05 -3.599216E-10  3.136793E-10
        73  16  2.251762E+04 -1.414291E+05  3.439215E+04 -2.577778E+05 -1.517601E-09 -1.718136E-09
        73  17 -2.478891E+05 -2.079654E+05 -1.348315E+04 -2.996773E+05  6.873787E-10 -2.679589E-09
        73  18 -4.721667E+05 -3.208609E+05 -6.208636E+04 -3.947009E+05  2.214956E-09 -4.217914E-10
        73  19 -3.465688E+05 -2.752615E+05 -3.558804E+04 -3.601669E+05 -2.347840E+04 -2.528813E+04
        73  20 -1.223497E+05 -1.624932E+05  1.115240E+04 -2.651153E+05 -3.083413E+04 -6.354893E+03
        73  21  1.481433E+05 -9.594240E+04  5.771425E+04 -2.231844E+05 -3.810410E+04  1.234614E+04
        73  22 -1.620445E+05 -2.083473E+05 -5.981402E+02 -3.089800E+05  4.895643E+03 -1.468832E+04
        73  23 -1.851218E+05 -1.852295E+05 -1.166131E+03 -2.823972E+05 -2.797967E+03  4.119698E+03
        73  24 -1.620622E+05 -2.084055E+05 -2.184278E+03 -3.089625E+05 -1.040567E+04  2.269539E+04
        73  25  2.251882E+04 -1.414287E+05  3.439426E+04 -2.577779E+05  3.327896E+04 -4.085036E+03
        73  26 -2.478884E+05 -2.079650E+05 -1.348155E+04 -2.996770E+05  2.523528E+04  1.459321E+04
        73  27 -4.721661E+05 -3.208596E+05 -6.208374E+04 -3.947005E+05  1.727796E+04  3.303911E+04
        74   1  3.145703E+05 -3.541386E+04  9.064715E+04 -1.774285E+05  4.324520E+04 -2.308456E+04
        74   2  5.383001E+05  7.752952E+04  1.370865E+05 -8.191398E+04  4.769007E+04 -4.130174E+04
        74   3  8.083585E+05  1.439945E+05  1.849617E+05 -3.904994E+04  5.093422E+04 -5.628239E+04
        74   4 -1.622295E+05 -2.083488E+05 -2.919399E+03 -3.089872E+05  1.496412E+04 -3.365475E+04
        74   5 -1.850918E+05 -1.856532E+05 -5.387421E+03 -2.822912E+05  2.420271E+04 -5.008967E+04
        74   6 -1.626350E+05 -2.103947E+05 -1.021550E+04 -3.082744E+05  3.224066E+04 -6.328560E+04
        74   7 -6.387882E+05 -3.812620E+05 -9.649179E+04 -4.404510E+05 -1.329345E+04 -4.421618E+04
        74   8 -9.079415E+05 -4.487899E+05 -1.478832E+05 -4.824521E+05  7.446807E+02 -5.886662E+04
        74   9 -1.132665E+06 -5.647055E+05 -2.054396E+05 -5.771121E+05  1.357831E+04 -7.027709E+04
        74  10  3.145682E+05 -3.541493E+04  9.064264E+04 -1.774277E+05  7.090411E-09  5.236988E-09
        74  11  5.382972E+05  7.752708E+04  1.370791E+05 -8.191240E+04 -5.732256E-10  4.234681E-10
        74  12  8.083548E+05  1.439904E+05  1.849509E+05 -3.904763E+04 -1.498481E-08 -7.349088E-09
        74  13 -1.622300E+05 -2.083501E+05 -2.921948E+03 -3.089868E+05 -4.954252E-10  2.036870E-09
        74  14 -1.850931E+05 -1.856561E+05 -5.393236E+03 -2.822902E+05 -4.791062E-10  1.806737E-09
        74  15 -1.626372E+05 -2.103993E+05 -1.022498E+04 -3.082728E+05 -9.418455E-10  5.743615E-09
        74  16 -6.387890E+05 -3.812641E+05 -9.649580E+04 -4.404515E+05 -8.701905E-09 -2.850472E-09
        74  17 -9.079424E+05 -4.487937E+05 -1.478897E+05 -4.824521E+05  1.807892E-09 -1.455716E-09
        74  18 -1.132667E+06 -5.647108E+05 -2.054492E+05 -5.771113E+05  1.024179E-08 -1.053292E-09
        74  19  3.145703E+05 -3.541386E+04  9.064715E+04 -1.774285E+05 -4.324520E+04  2.308456E+04
        74  20  5.383001E+05  7.752952E+04  1.370865E+05 -8.191398E+04 -4.769007E+04  4.130174E+04
        74  21  8.083585E+05  1.439945E+05  1.849617E+05 -3.904994E+04 -5.093422E+04  5.628239E+04
        74  22 -1.622295E+05 -2.083488E+05 -2.919399E+03 -3.089872E+05 -1.496412E+04  3.365475E+04
        74  23 -1.850918E+05 -1.856532E+05 -5.387421E+03 -2.822912E+05 -2.420271E+04  5.008967E+04
        74  24 -1.626350E+05 -2.103947E+05 -1.021550E+04 -3.082744E+05 -3.224066E+04  6.328560E+04
        74  25 -6.387882E+05 -3.812620E+05 -9.649179E+04 -4.404510E+05  1.329345E+04  4.421618E+04
        74  26 -9.079415E+05 -4.487899E+05 -1.478832E+05 -4.824521E+05 -7.446807E+02  5.886662E+04
        74  27 -1.132665E+06 -5.647055E+05 -2.054396E+05 -5.771121E+05 -1.357831E+04  7.027709E+04
        75   1  9.776733E+05  2.039226E+05  2.163827E+05  3.226922E+03  6.458255E+04 -6.335583E+04
        75   2  1.189866E+06  3.224194E+05  2.760141E+05  1.109894E+05  9.413616E+03 -7.893075E+04
        75   3  1.446898E+06  3.805761E+05  3.706289E+05  1.756927E+05 -6.266146E+04 -4.955154E+04
        75   4 -1.647250E+05 -2.088052E+05 -1.341090E+04 -3.089500E+05  3.777303E+04 -7.340278E+04
        75   5 -1.836494E+05 -1.935368E+05 -2.528751E+04 -2.793933E+05  4.941072E+04 -6.396451E+04
        75   6 -1.710215E+05 -2.518734E+05 -5.506755E+04 -2.929267E+05  4.414692E+04 -9.510268E+03
        75   7 -1.305786E+06 -6.214297E+05 -2.432671E+05 -6.206006E+05  1.101629E+04 -8.343038E+04
        75   8 -1.555231E+06 -7.093128E+05 -3.266910E+05 -6.689693E+05  8.931181E+04 -4.903612E+04
        75   9 -1.786322E+06 -8.840682E+05 -4.809245E+05 -7.603996E+05  1.506472E+05  3.040401E+04
        75  10  9.776677E+05  2.039171E+05  2.163673E+05  3.230215E+03  1.306986E-08  1.796056E-09
        75  11  1.189864E+06  3.224126E+05  2.760023E+05  1.109900E+05  1.319325E-08  2.692040E-09
        75  12  1.446893E+06  3.805725E+05  3.706170E+05  1.756902E+05 -1.188860E-09 -1.099871E-09
        75  13 -1.647280E+05 -2.088114E+05 -1.342371E+04 -3.089478E+05 -6.757244E-10  6.398991E-09
        75  14 -1.836531E+05 -1.935418E+05 -2.529978E+04 -2.793908E+05  6.194812E-09  5.782715E-09
        75  15 -1.710236E+05 -2.518740E+05 -5.507138E+04 -2.929263E+05  3.531782E-09  1.789337E-09
        75  16 -1.305788E+06 -6.214372E+05 -2.432804E+05 -6.205999E+05 -8.962625E-09 -7.411739E-09
        75  17 -1.555240E+06 -7.093175E+05 -3.267105E+05 -6.689657E+05  7.299563E-09 -4.950594E-10
        75  18 -1.786347E+06 -8.840753E+05 -4.809690E+05 -7.604033E+05  8.524204E-09  2.251083E-09
        75  19  9.776733E+05  2.039226E+05  2.163827E+05  3.226922E+03 -6.458255E+04  6.335583E+04
        75  20  1.189866E+06  3.224194E+05  2.760141E+05  1.109894E+05 -9.413616E+03  7.893075E+04
        75  21  1.446898E+06  3.805761E+05  3.706289E+05  1.756927E+05  6.266146E+04  4.955154E+04
        75  22 -1.647250E+05 -2.088052E+05 -1.341090E+04 -3.089500E+05 -3.777303E+04  7.340278E+04
        75  23 -1.836494E+05 -1.935368E+05 -2.528751E+04 -2.793933E+05 -4.941072E+04  6.396451E+04
        75  24 -1.710215E+05 -2.518734E+05 -5.506755E+04 -2.929267E+05 -4.414692E+04  9.510268E+03
        75  25 -1.305786E+06 -6.214297E+05 -2.432671E+05 -6.206006E+05 -1.101629E+04  8.343038E+04
        75  26 -1.555231E+06 -7.093128E+05 -3.266910E+05 -6.689693E+05 -8.931181E+04  4.903612E+04
        75  27 -1.786322E+06 -8.840682E+05 -4.809245E+05 -7.603996E+05 -1.506472E+05 -3.040401E+04
        76   1 -1.805020E+05 -9.226126E+04 -8.152302E+04 -6.813437E+04 -1.688091E+04  6.520730E+03
        76   2 -1.101380E+05 -9.742196E+04 -6.261852E+04 -7.706511E+04 -1.884495E+03  2.167976E+04
        76   3 -3.840223E+04 -8.939232E+04 -5.018005E+04 -9.648531E+04  1.311861E+04  2.557917E+04
        76   4  3.733121E+05  4.412158E+04  4.671789E+04 -9.816141E+04  3.301049E+04  6.530633E+03
        76   5  3.703007E+05  1.588981E+04  2.359775E+04 -9.291492E+04  2.098773E+04  2.168139E+04
        76   6  3.733417E+05  5.531686E+03  1.277046E+04 -9.815633E+04  8.969762E+03  2.557722E+04
        76   7  9.274168E+05  1.804876E+05  1.749481E+05 -1.282154E+05  8.294605E+04  6.535709E+03
        76   8  8.509661E+05  1.291900E+05  1.098072E+05 -1.087773E+05  4.387716E+04  2.168184E+04
        76   9  7.852554E+05  1.004475E+05  7.571736E+04 -9.982848E+04  4.818270E+03  2.557530E+04
        76  10 -1.805023E+05 -9.226138E+04 -8.152364E+04 -6.813428E+04 -2.232850E-10  2.203617E-10
        76  11 -1.101382E+05 -9.742247E+04 -6.261941E+04 -7.706508E+04  1.976832E-09  4.840267E-10
        76  12 -3.840259E+04 -8.939307E+04 -5.018160E+04 -9.648558E+04 -1.333866E-09 -1.409940E-10
        76  13  3.733109E+05  4.412124E+04  4.671576E+04 -9.816158E+04  1.207970E-09  5.404916E-10
        76  14  3.703001E+05  1.588919E+04  2.359604E+04 -9.291529E+04 -3.057534E-09  9.146908E-10
        76  15  3.733415E+05  5.530962E+03  1.276908E+04 -9.815651E+04 -2.554853E-09  2.120567E-10
        76  16  9.274094E+05  1.804857E+05  1.749351E+05 -1.282159E+05  7.866098E-11  6.986712E-10
        76  17  8.509639E+05  1.291889E+05  1.098027E+05 -1.087781E+05 -2.231554E-09  1.406282E-09
        76  18  7.852552E+05  1.004468E+05  7.571609E+04 -9.982858E+04  5.380005E-10  1.101075E-09
        76  19 -1.805020E+05 -9.226126E+04 -8.152302E+04 -6.813437E+04  1.688091E+04 -6.520730E+03
        76  20 -1.101380E+05 -9.742196E+04 -6.261852E+04 -7.706511E+04  1.884495E+03 -2.167976E+04
        76  21 -3.840223E+04 -8.939232E+04 -5.018005E+04 -9.648531E+04 -1.311861E+04 -2.557917E+04
        76  22  3.733121E+05  4.412158E+04  4.671789E+04 -9.816141E+04 -3.301049E+04 -6.530633E+03
        76  23  3.703007E+05  1.588981E+04  2.359775E+04 -9.291492E+04 -2.098773E+04 -2.168139E+04
        76  24  3.733417E+05  5.531686E+03  1.277046E+04 -9.815633E+04 -8.969762E+03 -2.557722E+04
        76  25  9.274168E+05  1.804876E+05  1.749481E+05 -1.282154E+05 -8.294605E+04 -6.535709E+03
        76  26  8.509661E+05  1.291900E+05  1.098072E+05 -1.087773E+05 -4.387716E+04 -2.168184E+04
        76  27  7.852554E+05  1.004475E+05  7.571736E+04 -9.982848E+04 -4.818270E+03 -2.557530E+04
        77   1  4.989591E+03 -8.024737E+04 -4.467618E+04 -9.598281E+04  1.235366E+04  2.405105E+04
        77   2  7.585209E+04 -6.604682E+04 -3.572566E+04 -9.153361E+04  1.343444E+04  2.118633E+04
        77   3  1.468825E+05 -5.067529E+04 -2.718297E+04 -9.840568E+04  1.451502E+04  1.679984E+04
        77   4  3.721799E+05  4.015222E+03  9.522686E+03 -9.834229E+04  7.307593E+03  2.404942E+04
        77   5  3.717892E+05  1.298325E+03  5.136058E+03 -9.268189E+04  4.734516E+03  2.118524E+04
        77   6  3.721951E+05  3.862936E+02  2.877578E+03 -9.834226E+04  2.161141E+03  1.679969E+04
        77   7  7.395058E+05  8.827155E+04  6.371922E+04 -1.007032E+05  2.258663E+03  2.404783E+04
        77   8  6.678155E+05  6.863967E+04  4.599706E+04 -9.383074E+04 -3.969365E+03  2.118419E+04
        77   9  5.975598E+05  5.144580E+04  3.293828E+04 -9.827882E+04 -1.019702E+04  1.679955E+04
        77  10  4.989272E+03 -8.024803E+04 -4.467756E+04 -9.598305E+04 -4.287857E-09  7.182295E-10
        77  11  7.585178E+04 -6.604735E+04 -3.572685E+04 -9.153384E+04 -2.205496E-09  2.316833E-09
        77  12  1.468822E+05 -5.067565E+04 -2.718390E+04 -9.840587E+04 -3.678448E-10  4.614088E-10
        77  13  3.721796E+05  4.014586E+03  9.521498E+03 -9.834243E+04 -4.191673E-09  7.423055E-10
        77  14  3.717891E+05  1.297837E+03  5.135172E+03 -9.268197E+04  2.306191E-10  1.313622E-09
        77  15  3.721950E+05  3.859892E+02  2.877039E+03 -9.834229E+04 -1.472038E-09  3.720779E-10
        77  16  7.395056E+05  8.827093E+04  6.371812E+04 -1.007033E+05  1.128942E-09  4.612980E-10
        77  17  6.678153E+05  6.863918E+04  4.599618E+04 -9.383068E+04 -2.081992E-09  1.500456E-10
        77  18  5.975597E+05  5.144546E+04  3.293756E+04 -9.827868E+04 -9.380631E-10  3.458284E-10
        77  19  4.989591E+03 -8.024737E+04 -4.467618E+04 -9.598281E+04 -1.235366E+04 -2.405105E+04
        77  20  7.585209E+04 -6.604682E+04 -3.572566E+04 -9.153361E+04 -1.343444E+04 -2.118633E+04
        77  21  1.468825E+05 -5.067529E+04 -2.718297E+04 -9.840568E+04 -1.451502E+04 -1.679984E+04
        77  22  3.721799E+05  4.015222E+03  9.522686E+03 -9.834229E+04 -7.307593E+03 -2.404942E+04
        77  23  3.717892E+05  1.298325E+03  5.136058E+03 -9.268189E+04 -4.734516E+03 -2.118524E+04
        77  24  3.721951E+05  3.862936E+02  2.877578E+03 -9.834226E+04 -2.161141E+03 -1.679969E+04
        77  25  7.395058E+05  8.827155E+04  6.371922E+04 -1.007032E+05 -2.258663E+03 -2.404783E+04
        77  26  6.678155E+05  6.863967E+04  4.599706E+04 -9.383074E+04  3.969365E+03 -2.118419E+04
        77  27  5.975598E+05  5.144580E+04  3.293828E+04 -9.827882E+04  1.019702E+04 -1.679955E+04
        78   1  1.905831E+05 -4.079008E+04 -2.172371E+04 -9.831239E+04  1.421279E+04  1.373405E+04
        78   2  2.614874E+05 -2.493211E+04 -1.322216E+04 -9.265653E+04  1.410336E+04  8.434925E+03
        78   3  3.324361E+05 -8.988705E+03 -4.626707E+03 -9.843206E+04  1.399364E+04  2.930962E+03
        78   4  3.720494E+05  2.698987E+02  2.167275E+03 -9.836687E+04  1.737906E+03  1.373432E+04
        78   5  3.719893E+05  4.717344E+01  1.211968E+03 -9.265125E+04  1.135953E+03  8.435603E+03
        78   6  3.720550E+05 -4.304223E+00  6.922217E+02 -9.836690E+04  5.337342E+02  2.932065E+03
        78   7  5.535496E+05  4.132857E+04  2.605862E+04 -9.842136E+04 -1.074045E+04  1.373458E+04
        78   8  4.825041E+05  2.502604E+04  1.564665E+04 -9.264597E+04 -1.183365E+04  8.436280E+03
        78   9  4.116758E+05  8.980127E+03  6.011817E+03 -9.830173E+04 -1.292699E+04  2.933165E+03
        78  10  1.905829E+05 -4.079033E+04 -2.172445E+04 -9.831254E+04 -2.986624E-08  1.844697E-10
        78  11  2.614871E+05 -2.493224E+04 -1.322267E+04 -9.265662E+04  3.488124E-09  3.022261E-09
        78  12  3.324359E+05 -8.988767E+03 -4.627091E+03 -9.843209E+04  4.094674E-08  5.894020E-09
        78  13  3.720493E+05  2.696953E+02  2.166914E+03 -9.836688E+04 -1.472109E-10 -1.538108E-09
        78  14  3.719893E+05  4.709666E+01  1.211832E+03 -9.265126E+04 -3.223286E-09 -6.433541E-09
        78  15  3.720549E+05 -4.313533E+00  6.922051E+02 -9.836690E+04  1.081555E-09 -1.134550E-08
        78  16  5.535494E+05  4.132834E+04  2.605805E+04 -9.842124E+04  2.973415E-08  1.239866E-09
        78  17  4.825039E+05  2.502592E+04  1.564625E+04 -9.264589E+04 -5.606601E-09  3.781270E-09
        78  18  4.116756E+05  8.980073E+03  6.011487E+03 -9.830170E+04 -4.018530E-08  6.393354E-09
        78  19  1.905831E+05 -4.079008E+04 -2.172371E+04 -9.831239E+04 -1.421279E+04 -1.373405E+04
        78  20  2.614874E+05 -2.493211E+04 -1.322216E+04 -9.265653E+04 -1.410336E+04 -8.434925E+03
        78  21  3.324361E+05 -8.988705E+03 -4.626707E+03 -9.843206E+04 -1.399364E+04 -2.930962E+03
        78  22  3.720494E+05  2.698987E+02  2.167275E+03 -9.836687E+04 -1.737906E+03 -1.373432E+04
        78  23  3.719893E+05  4.717344E+01  1.211968E+03 -9.265125E+04 -1.135953E+03 -8.435603E+03
        78  24  3.720550E+05 -4.304223E+00  6.922217E+02 -9.836690E+04 -5.337342E+02 -2.932065E+03
        78  25  5.535496E+05  4.132857E+04  2.605862E+04 -9.842136E+04  1.074045E+04 -1.373458E+04
        78  26  4.825041E+05  2.502604E+04  1.564665E+04 -9.264597E+04  1.183365E+04 -8.436280E+03
        78  27  4.116758E+05  8.980127E+03  6.011817E+03 -9.830173E+04  1.292699E+04 -2.933165E+03
        79   1  3.761701E+05  9.204345E+02  1.027338E+03 -9.841331E+04  1.390217E+04 -3.413503E+02
        79   2  4.470909E+05  1.687541E+04  9.741434E+03 -9.267895E+04  1.380733E+04 -5.964684E+03
        79   3  5.180352E+05  3.283371E+04  1.851963E+04 -9.839063E+04  1.371269E+04 -1.161006E+04
        79   4  3.720332E+05 -7.044152E+00  5.247732E+02 -9.837020E+04  4.259300E+02 -3.402096E+02
        79   5  3.720181E+05 -2.017567E+01  3.001791E+02 -9.264714E+04  2.772986E+02 -5.963809E+03
        79   6  3.720296E+05 -2.087542E+01  1.761657E+02 -9.837021E+04  1.288886E+02 -1.160946E+04
        79   7  3.678967E+05 -9.344260E+02  2.289025E+01 -9.832709E+04 -1.305023E+04 -3.390708E+02
        79   8  2.969516E+05 -1.691589E+04 -9.140403E+03 -9.261534E+04 -1.325118E+04 -5.962936E+03
        79   9  2.260462E+05 -3.287622E+04 -1.816666E+04 -9.834980E+04 -1.345188E+04 -1.160887E+04
        79  10  3.761699E+05  9.203825E+02  1.026975E+03 -9.841331E+04 -4.185724E-08  5.591239E-09
        79  11  4.470906E+05  1.687532E+04  9.741009E+03 -9.267888E+04 -4.180070E-09  1.955595E-09
        79  12  5.180350E+05  3.283351E+04  1.851902E+04 -9.839050E+04  2.744225E-08 -1.267595E-09
        79  13  3.720332E+05 -7.044325E+00  5.247726E+02 -9.837020E+04 -1.084397E-09 -1.137224E-08
        79  14  3.720181E+05 -2.021389E+01  3.001121E+02 -9.264714E+04  3.180020E-09 -6.687527E-09
        79  15  3.720295E+05 -2.102018E+01  1.759123E+02 -9.837021E+04 -2.004128E-09 -2.288055E-09
        79  16  3.678965E+05 -9.344718E+02  2.257018E+01 -9.832710E+04  4.304665E-08  6.670809E-09
        79  17  2.969514E+05 -1.691598E+04 -9.140800E+03 -9.261541E+04  6.922845E-09  4.387193E-09
        79  18  2.260460E+05 -3.287642E+04 -1.816726E+04 -9.834992E+04 -2.661495E-08  1.102510E-09
        79  19  3.761701E+05  9.204345E+02  1.027338E+03 -9.841331E+04 -1.390217E+04  3.413503E+02
        79  20  4.470909E+05  1.687541E+04  9.741434E+03 -9.267895E+04 -1.380733E+04  5.964684E+03
        79  21  5.180352E+05  3.283371E+04  1.851963E+04 -9.839063E+04 -1.371269E+04  1.161006E+04
        79  22  3.720332E+05 -7.044152E+00  5.247732E+02 -9.837020E+04 -4.259300E+02  3.402096E+02
        79  23  3.720181E+05 -2.017567E+01  3.001791E+02 -9.264714E+04 -2.772986E+02  5.963809E+03
        79  24  3.720296E+05 -2.087542E+01  1.761657E+02 -9.837021E+04 -1.288886E+02  1.160946E+04
        79  25  3.678967E+05 -9.344260E+02  2.289025E+01 -9.832709E+04  1.305023E+04  3.390708E+02
        79  26  2.969516E+05 -1.691589E+04 -9.140403E+03 -9.261534E+04  1.325118E+04  5.962936E+03
        79  27  2.260462E+05 -3.287622E+04 -1.816666E+04 -9.834980E+04  1.345188E+04  1.160887E+04
        80   1  5.617865E+05  4.273384E+04  2.426472E+04 -9.838450E+04  1.368435E+04 -1.490439E+04
        80   2  6.327260E+05  5.868750E+04  3.313207E+04 -9.264484E+04  1.354803E+04 -2.054015E+04
        80   3  7.037014E+05  7.465642E+04  4.209460E+04 -9.835269E+04  1.341245E+04 -2.613624E+04
        80   4  3.720241E+05 -2.346207E+01  1.366487E+02 -9.837058E+04  1.005983E+02 -1.490416E+04
        80   5  3.720106E+05 -3.418116E+01  8.490814E+01 -9.264669E+04  5.879309E+01 -2.054087E+04
        80   6  3.720114E+05 -4.596417E+01  6.227365E+01 -9.837058E+04  1.773858E+01 -2.613792E+04
        80   7  1.822990E+05 -4.278214E+04 -2.399087E+04 -9.835666E+04 -1.347921E+04 -1.490393E+04
        80   8  1.113654E+05 -5.875854E+04 -3.296180E+04 -9.264853E+04 -1.342507E+04 -2.054159E+04
        80   9  4.043458E+04 -7.475275E+04 -4.196975E+04 -9.838845E+04 -1.337018E+04 -2.613960E+04
        80  10  5.617863E+05  4.273355E+04  2.426396E+04 -9.838434E+04 -1.054793E-09 -1.594702E-09
        80  11  6.327257E+05  5.868700E+04  3.313093E+04 -9.264462E+04  2.191611E-09  2.910101E-11
        80  12  7.037010E+05  7.465564E+04  4.209298E+04 -9.835241E+04  3.744939E-10  1.146932E-09
        80  13  3.720240E+05 -2.370065E+01  1.362312E+02 -9.837058E+04  2.604973E-10 -4.775982E-10
        80  14  3.720105E+05 -3.463432E+01  8.411511E+01 -9.264669E+04 -7.891759E-10  7.973550E-10
        80  15  3.720112E+05 -4.669793E+01  6.098958E+01 -9.837058E+04  7.303750E-11  7.769842E-10
        80  16  1.822987E+05 -4.278243E+04 -2.399163E+04 -9.835682E+04  9.446900E-10  5.709577E-10
        80  17  1.113651E+05 -5.875904E+04 -3.296293E+04 -9.264875E+04 -1.164920E-09  1.306481E-09
        80  18  4.043421E+04 -7.475353E+04 -4.197137E+04 -9.838874E+04 -2.904303E-09  2.809794E-10
        80  19  5.617865E+05  4.273384E+04  2.426472E+04 -9.838450E+04 -1.368435E+04  1.490439E+04
        80  20  6.327260E+05  5.868750E+04  3.313207E+04 -9.264484E+04 -1.354803E+04  2.054015E+04
        80  21  7.037014E+05  7.465642E+04  4.209460E+04 -9.835269E+04 -1.341245E+04  2.613624E+04
        80  22  3.720241E+05 -2.346207E+01  1.366487E+02 -9.837058E+04 -1.005983E+02  1.490416E+04
        80  23  3.720106E+05 -3.418116E+01  8.490814E+01 -9.264669E+04 -5.879309E+01  2.054087E+04
        80  24  3.720114E+05 -4.596417E+01  6.227365E+01 -9.837058E+04 -1.773858E+01  2.613792E+04
        80  25  1.822990E+05 -4.278214E+04 -2.399087E+04 -9.835666E+04  1.347921E+04  1.490393E+04
        80  26  1.113654E+05 -5.875854E+04 -3.296180E+04 -9.264853E+04  1.342507E+04  2.054159E+04
        80  27  4.043458E+04 -7.475275E+04 -4.196975E+04 -9.838845E+04  1.337018E+04  2.613960E+04
        81   1  7.474965E+05  8.457091E+04  4.794580E+04 -9.833723E+04  1.337854E+04 -2.939051E+04
        81   2  8.184151E+05  1.005819E+05  5.722413E+04 -9.259338E+04  1.256985E+04 -3.479387E+04
        81   3  8.894972E+05  1.167312E+05  6.706851E+04 -9.827936E+04  1.176222E+04 -3.987275E+04
        81   4  3.720078E+05 -5.464412E+01  5.853004E+01 -9.836670E+04  7.376351E+00 -2.939294E+04
        81   5  3.719848E+05 -7.379257E+01  6.180654E+01 -9.265154E+04 -2.228558E+01 -3.479781E+04
        81   6  3.719861E+05 -8.928342E+01  9.055050E+01 -9.836670E+04 -5.080801E+01 -3.987809E+04
        81   7 -3.335944E+03 -8.468589E+04 -4.782863E+04 -9.839614E+04 -1.335610E+04 -2.939537E+04
        81   8 -7.424101E+04 -1.007376E+05 -5.710079E+04 -9.270965E+04 -1.260582E+04 -3.480176E+04
        81   9 -1.452509E+05 -1.169209E+05 -6.688832E+04 -9.845395E+04 -1.185448E+04 -3.988343E+04
        81  10  7.474960E+05  8.456994E+04  4.794384E+04 -9.833691E+04  2.833248E-09  1.758051E-09
        81  11  8.184146E+05  1.005805E+05  5.722156E+04 -9.259303E+04  4.232594E-10  1.483359E-09
        81  12  8.894967E+05  1.167295E+05  6.706526E+04 -9.827898E+04  3.186464E-09  1.490172E-09
        81  13  3.720076E+05 -5.557201E+01  5.690624E+01 -9.836670E+04 -4.332942E-12  5.595783E-10
        81  14  3.719845E+05 -7.509308E+01  5.953065E+01 -9.265154E+04  3.132079E-09  4.513111E-10
        81  15  3.719856E+05 -9.099138E+01  8.756156E+01 -9.836670E+04  2.640371E-09  6.762644E-10
        81  16 -3.336368E+03 -8.468686E+04 -4.783059E+04 -9.839646E+04 -2.029134E-09 -7.029959E-10
        81  17 -7.424151E+04 -1.007389E+05 -5.710337E+04 -9.271001E+04 -2.681464E-09 -8.350317E-10
        81  18 -1.452515E+05 -1.169226E+05 -6.689158E+04 -9.845433E+04  1.235898E-09  2.462115E-10
        81  19  7.474965E+05  8.457091E+04  4.794580E+04 -9.833723E+04 -1.337854E+04  2.939051E+04
        81  20  8.184151E+05  1.005819E+05  5.722413E+04 -9.259338E+04 -1.256985E+04  3.479387E+04
        81  21  8.894972E+05  1.167312E+05  6.706851E+04 -9.827936E+04 -1.176222E+04  3.987275E+04
        81  22  3.720078E+05 -5.464412E+01  5.853004E+01 -9.836670E+04 -7.376351E+00  2.939294E+04
        81  23  3.719848E+05 -7.379257E+01  6.180654E+01 -9.265154E+04  2.228558E+01  3.479781E+04
        81  24  3.719861E+05 -8.928342E+01  9.055050E+01 -9.836670E+04  5.080801E+01  3.987809E+04
        81  25 -3.335944E+03 -8.468589E+04 -4.782863E+04 -9.839614E+04  1.335610E+04  2.939537E+04
        81  26 -7.424101E+04 -1.007376E+05 -5.710079E+04 -9.270965E+04  1.260582E+04  3.480176E+04
        81  27 -1.452509E+05 -1.169209E+05 -6.688832E+04 -9.845395E+04  1.185448E+04  3.988343E+04
        82   1  9.334806E+05  1.267910E+05  7.350349E+04 -9.821144E+04  1.155657E+04 -4.279933E+04
        82   2  1.004016E+06  1.432874E+05  8.553017E+04 -9.257486E+04  5.670746E+03 -4.643232E+04
        82   3  1.075626E+06  1.608556E+05  1.016620E+05 -9.819090E+04 -2.158193E+02 -4.765503E+04
        82   4  3.719861E+05 -9.874455E+01  1.150051E+02 -9.832736E+04 -6.696753E+01 -4.280567E+04
        82   5  3.719389E+05 -9.269758E+01  1.918310E+02 -9.270071E+04 -1.602031E+02 -4.643883E+04
        82   6  3.719557E+05 -1.924963E+01  3.552663E+02 -9.832739E+04 -2.534506E+02 -4.766041E+04
        82   7 -1.891861E+05 -1.270016E+05 -7.327495E+04 -9.844317E+04 -1.168050E+04 -4.281200E+04
        82   8 -2.597319E+05 -1.434900E+05 -8.515012E+04 -9.282642E+04 -5.985496E+03 -4.644534E+04
        82   9 -3.312151E+05 -1.609167E+05 -1.009592E+05 -9.846373E+04 -2.910410E+02 -4.766580E+04
        82  10  9.334800E+05  1.267890E+05  7.349979E+04 -9.821104E+04  2.491870E-09  9.381644E-10
        82  11  1.004016E+06  1.432851E+05  8.552606E+04 -9.257465E+04  1.611173E-09 -5.431251E-10
        82  12  1.075625E+06  1.608531E+05  1.016578E+05 -9.819091E+04 -3.047830E-10 -2.476547E-09
        82  13  3.719856E+05 -1.007125E+02  1.115612E+02 -9.832737E+04  4.308277E-09  7.860893E-10
        82  14  3.719383E+05 -9.501377E+01  1.877776E+02 -9.270071E+04 -1.017631E-09  6.340593E-11
        82  15  3.719551E+05 -2.168928E+01  3.509968E+02 -9.832740E+04 -3.953850E-09 -1.229655E-09
        82  16 -1.891867E+05 -1.270037E+05 -7.327866E+04 -9.844358E+04 -1.657241E-09  7.731374E-10
        82  17 -2.597325E+05 -1.434923E+05 -8.515424E+04 -9.282664E+04  3.110029E-10  1.587373E-09
        82  18 -3.312157E+05 -1.609191E+05 -1.009635E+05 -9.846374E+04 -7.728365E-10  3.098474E-10
        82  19  9.334806E+05  1.267910E+05  7.350349E+04 -9.821144E+04 -1.155657E+04  4.279933E+04
        82  20  1.004016E+06  1.432874E+05  8.553017E+04 -9.257486E+04 -5.670746E+03  4.643232E+04
        82  21  1.075626E+06  1.608556E+05  1.016620E+05 -9.819090E+04  2.158193E+02  4.765503E+04
        82  22  3.719861E+05 -9.874455E+01  1.150051E+02 -9.832736E+04  6.696753E+01  4.280567E+04
        82  23  3.719389E+05 -9.269758E+01  1.918310E+02 -9.270071E+04  1.602031E+02  4.643883E+04
        82  24  3.719557E+05 -1.924963E+01  3.552663E+02 -9.832739E+04  2.534506E+02  4.766041E+04
        82  25 -1.891861E+05 -1.270016E+05 -7.327495E+04 -9.844317E+04  1.168050E+04  4.281200E+04
        82  26 -2.597319E+05 -1.434900E+05 -8.515012E+04 -9.282642E+04  5.985496E+03  4.644534E+04
        82  27 -3.312151E+05 -1.609167E+05 -1.009592E+05 -9.846373E+04  2.910410E+02  4.766580E+04
        83   1  1.120797E+06  1.720134E+05  1.122865E+05 -9.782599E+04 -1.698497E+03 -4.814595E+04
        83   2  1.188184E+06  1.922195E+05  1.443869E+05 -9.333723E+04 -4.500904E+04 -3.867185E+04
        83   3  1.263290E+06  2.205591E+05  2.066947E+05 -9.877591E+04 -8.834283E+04 -1.136302E+04
        83   4  3.719929E+05  2.282985E+01  4.768046E+02 -9.803247E+04 -3.157899E+02 -4.815103E+04
        83   5  3.718324E+05  3.969456E+02  8.704520E+02 -9.306954E+04 -7.502848E+02 -3.865310E+04
        83   6  3.719555E+05  1.472958E+03  1.729621E+03 -9.803317E+04 -1.201572E+03 -1.130969E+04
        83   7 -3.762488E+05 -1.719942E+05 -1.113436E+05 -9.823871E+04  1.065319E+03 -4.815613E+04
        83   8 -4.438641E+05 -1.914609E+05 -1.426628E+05 -9.280225E+04  4.345208E+04 -3.863429E+04
        83   9 -5.186288E+05 -2.176645E+05 -2.032595E+05 -9.729156E+04  8.581578E+04 -1.125613E+04
        83  10  1.120796E+06  1.720109E+05  1.122821E+05 -9.782606E+04 -1.776220E-09 -3.052620E-09
        83  11  1.188181E+06  1.922173E+05  1.443803E+05 -9.333863E+04  1.416838E-09 -2.993251E-09
        83  12  1.263282E+06  2.205568E+05  2.066798E+05 -9.877672E+04 -8.566026E-10 -7.514454E-10
        83  13  3.719923E+05  2.033970E+01  4.724467E+02 -9.803248E+04 -2.551019E-09 -3.643076E-09
        83  14  3.718320E+05  3.953408E+02  8.676428E+02 -9.306956E+04 -5.822626E-10  2.242397E-10
        83  15  3.719555E+05  1.472820E+03  1.729377E+03 -9.803318E+04 -1.012672E-09 -2.162388E-10
        83  16 -3.762494E+05 -1.719967E+05 -1.113480E+05 -9.823866E+04  1.967711E-09 -7.199735E-10
        83  17 -4.438665E+05 -1.914630E+05 -1.426692E+05 -9.280090E+04 -5.744111E-09  9.193398E-11
        83  18 -5.186368E+05 -2.176666E+05 -2.032736E+05 -9.729078E+04  1.729777E-09 -9.536220E-10
        83  19  1.120797E+06  1.720134E+05  1.122865E+05 -9.782599E+04  1.698497E+03  4.814595E+04
        83  20  1.188184E+06  1.922195E+05  1.443869E+05 -9.333723E+04  4.500904E+04  3.867185E+04
        83  21  1.263290E+06  2.205591E+05  2.066947E+05 -9.877591E+04  8.834283E+04  1.136302E+04
        83  22  3.719929E+05  2.282985E+01  4.768046E+02 -9.803247E+04  3.157899E+02  4.815103E+04
        83  23  3.718324E+05  3.969456E+02  8.704520E+02 -9.306954E+04  7.502848E+02  3.865310E+04
        83  24  3.719555E+05  1.472958E+03  1.729621E+03 -9.803317E+04  1.201572E+03  1.130969E+04
        83  25 -3.762488E+05 -1.719942E+05 -1.113436E+05 -9.823871E+04 -1.065319E+03  4.815613E+04
        83  26 -4.438641E+05 -1.914609E+05 -1.426628E+05 -9.280225E+04 -4.345208E+04  3.863429E+04
        83  27 -5.186288E+05 -2.176645E+05 -2.032595E+05 -9.729156E+04 -8.581578E+04  1.125613E+04
        84   1  1.925940E+05  9.342167E+05  1.840728E+05 -2.560188E+05  7.433120E+03  5.347434E+04
        84   2  1.362780E+05  7.353419E+05  1.117496E+05 -2.385002E+05  2.243980E+04  1.482646E+04
        84   3  8.821468E+04  5.435782E+05  6.662281E+04 -2.533487E+05  2.084968E+04 -2.381412E+04
        84   4  3.891160E+03  1.702359E+05  4.061324E+03 -2.530058E+05  7.475955E+03  1.472096E+03
        84   5  1.527529E+03  1.699483E+05  3.102752E+03 -2.368226E+05  2.245453E+04 -8.261044E+01
        84   6  9.889820E+02  1.703090E+05  3.607746E+03 -2.530080E+05  2.082946E+04 -1.642030E+03
        84   7 -1.848519E+05 -5.932027E+05 -1.759802E+05 -2.499963E+05  7.518323E+03 -5.046660E+04
        84   8 -1.332417E+05 -3.951376E+05 -1.055580E+05 -2.351465E+05  2.246918E+04 -1.497843E+04
        84   9 -8.624378E+04 -2.028220E+05 -5.940993E+04 -2.526674E+05  2.080926E+04  2.051717E+04
        84  10  1.925932E+05  9.342136E+05  1.840673E+05 -2.560191E+05 -4.266140E-10 -3.497838E-09
        84  11  1.362774E+05  7.353415E+05  1.117483E+05 -2.385005E+05 -1.446575E-09 -2.808341E-09
        84  12  8.821406E+04  5.435775E+05  6.662093E+04 -2.533483E+05 -2.501904E-09 -4.381848E-09
        84  13  3.891099E+03  1.702359E+05  4.061215E+03 -2.530058E+05  8.307773E-10  2.228920E-11
        84  14  1.526988E+03  1.699481E+05  3.101805E+03 -2.368226E+05 -1.465542E-09 -2.875928E-10
        84  15  9.885153E+02  1.703089E+05  3.606926E+03 -2.530080E+05 -8.627009E-10  6.134712E-11
        84  16 -1.848526E+05 -5.932054E+05 -1.759851E+05 -2.499960E+05 -9.794833E-10  3.956429E-09
        84  17 -1.332423E+05 -3.951379E+05 -1.055594E+05 -2.351462E+05  1.067098E-09  3.128791E-09
        84  18 -8.624436E+04 -2.028225E+05 -5.941153E+04 -2.526678E+05 -1.090355E-09  4.004783E-09
        84  19  1.925940E+05  9.342167E+05  1.840728E+05 -2.560188E+05 -7.433120E+03 -5.347434E+04
        84  20  1.362780E+05  7.353419E+05  1.117496E+05 -2.385002E+05 -2.243980E+04 -1.482646E+04
        84  21  8.821468E+04  5.435782E+05  6.662281E+04 -2.533487E+05 -2.084968E+04  2.381412E+04
        84  22  3.891160E+03  1.702359E+05  4.061324E+03 -2.530058E+05 -7.475955E+03 -1.472096E+03
        84  23  1.527529E+03  1.699483E+05  3.102752E+03 -2.368226E+05 -2.245453E+04  8.261044E+01
        84  24  9.889820E+02  1.703090E+05  3.607746E+03 -2.530080E+05 -2.082946E+04  1.642030E+03
        84  25 -1.848519E+05 -5.932027E+05 -1.759802E+05 -2.499963E+05 -7.518323E+03  5.046660E+04
        84  26 -1.332417E+05 -3.951376E+05 -1.055580E+05 -2.351465E+05 -2.246918E+04  1.497843E+04
        84  27 -8.624378E+04 -2.028220E+05 -5.940993E+04 -2.526674E+05 -2.080926E+04 -2.051717E+04
        85   1  5.948062E+04  4.210104E+05  4.616454E+04 -2.537972E+05  1.431436E+04 -2.499417E+04
        85   2  1.442138E+04  2.252902E+05  1.491753E+04 -2.355286E+05  4.012973E+03 -2.906927E+04
        85   3 -2.819888E+04  3.070917E+04 -1.308047E+04 -2.507223E+05 -6.572041E+03 -3.314367E+04
        85   4  1.001414E+03  1.703991E+05  4.297037E+03 -2.532511E+05  1.429244E+04 -2.299164E+03
        85   5  1.739026E+03  1.699070E+05  6.863863E+03 -2.365185E+05  3.990136E+03 -5.744297E+03
        85   6  4.807528E+03  1.704059E+05  1.224064E+04 -2.532479E+05 -6.595830E+03 -9.189927E+03
        85   7 -5.748078E+04 -8.014915E+04 -3.757047E+04 -2.527052E+05  1.427056E+04  2.038699E+04
        85   8 -1.094317E+04  1.145281E+05 -1.187808E+03 -2.375083E+05  3.967223E+03  1.757868E+04
        85   9  3.781317E+04  3.101229E+05  3.756314E+04 -2.557741E+05 -6.619809E+03  1.476906E+04
        85  10  5.948023E+04  4.210097E+05  4.616299E+04 -2.537969E+05 -2.307251E-09 -6.330989E-09
        85  11  1.442113E+04  2.252893E+05  1.491591E+04 -2.355285E+05 -5.503939E-09 -3.770242E-08
        85  12 -2.819922E+04  3.070798E+04 -1.308261E+04 -2.507225E+05 -5.201364E-09 -6.670436E-08
        85  13  1.001193E+03  1.703991E+05  4.296643E+03 -2.532511E+05  2.425360E-09  7.452577E-12
        85  14  1.739000E+03  1.699070E+05  6.863771E+03 -2.365185E+05  1.058731E-08 -3.326913E-10
        85  15  4.807459E+03  1.704058E+05  1.224040E+04 -2.532479E+05  1.116012E-08  1.077043E-10
        85  16 -5.748112E+04 -8.014965E+04 -3.757164E+04 -2.527054E+05  3.616274E-10  6.893937E-09
        85  17 -1.094327E+04  1.145278E+05 -1.188418E+03 -2.375084E+05 -1.062883E-09  3.779722E-08
        85  18  3.781306E+04  3.101227E+05  3.756265E+04 -2.557740E+05 -3.264966E-09  6.636102E-08
        85  19  5.948062E+04  4.210104E+05  4.616454E+04 -2.537972E+05 -1.431436E+04  2.499417E+04
        85  20  1.442138E+04  2.252902E+05  1.491753E+04 -2.355286E+05 -4.012973E+03  2.906927E+04
        85  21 -2.819888E+04  3.070917E+04 -1.308047E+04 -2.507223E+05  6.572041E+03  3.314367E+04
        85  22  1.001414E+03  1.703991E+05  4.297037E+03 -2.532511E+05 -1.429244E+04  2.299164E+03
        85  23  1.739026E+03  1.699070E+05  6.863863E+03 -2.365185E+05 -3.990136E+03  5.744297E+03
        85  24  4.807528E+03  1.704059E+05  1.224064E+04 -2.532479E+05  6.595830E+03  9.189927E+03
        85  25 -5.748078E+04 -8.014915E+04 -3.757047E+04 -2.527052E+05 -1.427056E+04 -2.038699E+04
        85  26 -1.094317E+04  1.145281E+05 -1.187808E+03 -2.375083E+05 -3.967223E+03 -1.757868E+04
        85  27  3.781317E+04  3.101229E+05  3.756314E+04 -2.557741E+05  6.619809E+03 -1.476906E+04
        86   1 -5.544212E+04 -9.018980E+04 -2.979818E+04 -2.519446E+05 -1.337756E+04 -3.482768E+04
        86   2 -8.998794E+04 -2.866289E+05 -5.946397E+04 -2.173558E+05 -1.677833E+04 -1.809095E+04
        86   3 -1.056307E+05 -4.804979E+05 -9.530853E+04 -2.153228E+05 -5.866578E+03 -1.354457E+03
        86   4  6.199706E+03  1.719698E+05  1.624809E+04 -2.530467E+05 -1.340023E+04 -1.131487E+04
        86   5  1.881322E+04  1.679043E+05  2.977913E+04 -2.367530E+05 -1.676909E+04 -2.651849E+04
        86   6  5.586575E+04  1.719067E+05  5.930687E+04 -2.530077E+05 -5.831266E+03 -4.171702E+04
        86   7  6.783809E+04  4.341977E+05  6.229396E+04 -2.541493E+05 -1.342297E+04  1.220756E+04
        86   8  1.276033E+05  6.226365E+05  1.190127E+05 -2.561646E+05 -1.675932E+04 -3.495207E+04
        86   9  2.173378E+05  8.247090E+05  2.138995E+05 -2.907322E+05 -5.791079E+03 -8.212179E+04
        86  10 -5.544264E+04 -9.019115E+04 -2.980080E+04 -2.519450E+05 -5.513173E-09  6.684910E-08
        86  11 -8.998833E+04 -2.866293E+05 -5.946512E+04 -2.173561E+05 -4.837031E-10  3.600285E-08
        86  12 -1.056307E+05 -4.804980E+05 -9.530860E+04 -2.153228E+05 -1.038059E-09 -7.898344E-10
        86  13  6.199479E+03  1.719696E+05  1.624752E+04 -2.530468E+05  1.277278E-08  8.776231E-12
        86  14  1.881273E+04  1.679035E+05  2.977728E+04 -2.367534E+05  1.223567E-08 -2.712041E-10
        86  15  5.586525E+04  1.719048E+05  5.930353E+04 -2.530079E+05  2.575284E-09  4.865248E-11
        86  16  6.783785E+04  4.341975E+05  6.229334E+04 -2.541491E+05 -2.204110E-09 -6.620045E-08
        86  17  1.276027E+05  6.226351E+05  1.190099E+05 -2.561651E+05 -7.119844E-10 -3.574614E-08
        86  18  2.173359E+05  8.247018E+05  2.138868E+05 -2.907326E+05 -4.939720E-10  5.765075E-10
        86  19 -5.544212E+04 -9.018980E+04 -2.979818E+04 -2.519446E+05  1.337756E+04  3.482768E+04
        86  20 -8.998794E+04 -2.866289E+05 -5.946397E+04 -2.173558E+05  1.677833E+04  1.809095E+04
        86  21 -1.056307E+05 -4.804979E+05 -9.530853E+04 -2.153228E+05  5.866578E+03  1.354457E+03
        86  22  6.199706E+03  1.719698E+05  1.624809E+04 -2.530467E+05  1.340023E+04  1.131487E+04
        86  23  1.881322E+04  1.679043E+05  2.977913E+04 -2.367530E+05  1.676909E+04  2.651849E+04
        86  24  5.586575E+04  1.719067E+05  5.930687E+04 -2.530077E+05  5.831266E+03  4.171702E+04
        86  25  6.783809E+04  4.341977E+05  6.229396E+04 -2.541493E+05  1.342297E+04 -1.220756E+04
        86  26  1.276033E+05  6.226365E+05  1.190127E+05 -2.561646E+05  1.675932E+04  3.495207E+04
        86  27  2.173378E+05  8.247090E+05  2.138995E+05 -2.907322E+05  5.791079E+03  8.212179E+04
        87   1 -3.822011E+05 -2.171969E+05 -1.358037E+05 -1.634683E+05 -6.712920E+04 -2.160815E+04
        87   2 -3.589979E+05 -1.348468E+05 -7.759018E+04 -1.525887E+05 -4.188558E+04 -4.182588E+03
        87   3 -3.514337E+05 -1.020086E+05 -5.227833E+04 -1.364149E+05 -1.441390E+04  7.314331E+03
        87   4 -1.924925E+05 -1.079394E+05 -7.931382E+04 -7.238396E+04 -5.240955E+04 -1.608819E+04
        87   5 -1.811927E+05 -5.318266E+04 -3.637259E+04 -8.661534E+04 -3.595240E+04 -1.957385E+03
        87   6 -1.837857E+05 -4.619121E+04 -1.936446E+04 -9.555523E+04 -1.726835E+04  6.242971E+03
        87   7 -2.747188E+03  1.336594E+03 -2.282696E+04  1.872922E+04 -3.768523E+04 -1.056419E+04
        87   8 -3.355200E+03  2.848923E+04  4.842923E+03 -2.062306E+04 -3.001741E+04  2.688880E+02
        87   9 -1.610796E+04  9.627785E+03  1.354842E+04 -5.468559E+04 -2.012365E+04  5.171357E+03
        87  10 -3.822061E+05 -2.171986E+05 -1.358131E+05 -1.634695E+05 -7.362991E-09 -2.684652E-09
        87  11 -3.589998E+05 -1.348473E+05 -7.759352E+04 -1.525889E+05  1.711536E-08  7.945567E-09
        87  12 -3.514339E+05 -1.020087E+05 -5.227882E+04 -1.364149E+05  4.282468E-08  1.847439E-08
        87  13 -1.924955E+05 -1.079404E+05 -7.931947E+04 -7.238464E+04 -3.032850E-09  3.605545E-10
        87  14 -1.811941E+05 -5.318301E+04 -3.637503E+04 -8.661540E+04  6.470000E-10  1.257840E-09
        87  15 -1.837861E+05 -4.619133E+04 -1.936509E+04 -9.555514E+04  6.764569E-09  3.564153E-09
        87  16 -2.748743E+03  1.336093E+03 -2.282984E+04  1.872890E+04  7.793269E-09  3.095965E-09
        87  17 -3.356167E+03  2.848899E+04  4.841230E+03 -2.062305E+04 -1.504952E-08 -6.013860E-09
        87  18 -1.610840E+04  9.627648E+03  1.354761E+04 -5.468550E+04 -2.950859E-08 -1.053771E-08
        87  19 -3.822011E+05 -2.171969E+05 -1.358037E+05 -1.634683E+05  6.712920E+04  2.160815E+04
        87  20 -3.589979E+05 -1.348468E+05 -7.759018E+04 -1.525887E+05  4.188558E+04  4.182588E+03
        87  21 -3.514337E+05 -1.020086E+05 -5.227833E+04 -1.364149E+05  1.441390E+04 -7.314331E+03
        87  22 -1.924925E+05 -1.079394E+05 -7.931382E+04 -7.238396E+04  5.240955E+04  1.608819E+04
        87  23 -1.811927E+05 -5.318266E+04 -3.637259E+04 -8.661534E+04  3.595240E+04  1.957385E+03
        87  24 -1.837857E+05 -4.619121E+04 -1.936446E+04 -9.555523E+04  1.726835E+04 -6.242971E+03
        87  25 -2.747188E+03  1.336594E+03 -2.282696E+04  1.872922E+04  3.768523E+04  1.056419E+04
        87  26 -3.355200E+03  2.848923E+04  4.842923E+03 -2.062306E+04  3.001741E+04 -2.688880E+02
        87  27 -1.610796E+04  9.627785E+03  1.354842E+04 -5.468559E+04  2.012365E+04 -5.171357E+03
        88   1 -3.262571E+05 -1.017825E+05 -4.389387E+04 -1.349266E+05 -1.282988E+04  6.604696E+03
        88   2 -3.016963E+05 -8.670361E+04 -3.111428E+04 -1.247603E+05 -7.749150E+03  6.894694E+03
        88   3 -2.735135E+05 -7.872934E+04 -2.227583E+04 -1.199629E+05 -2.508539E+03  6.758654E+03
        88   4 -1.813998E+05 -4.802303E+04 -1.474282E+04 -9.383434E+04 -1.461630E+04  5.934098E+03
        88   5 -1.830959E+05 -4.328144E+04 -7.786426E+03 -9.161894E+04 -1.016634E+04  5.987571E+03
        88   6 -1.810451E+05 -4.551922E+04 -4.270590E+03 -9.477275E+04 -5.556676E+03  5.614969E+03
        88   7 -3.652214E+04  5.737982E+03  1.440687E+04 -5.273353E+04 -1.640316E+04  5.263330E+03
        88   8 -6.448086E+04  1.420066E+02  1.554081E+04 -5.847172E+04 -1.258402E+04  5.080260E+03
        88   9 -8.856704E+04 -1.230811E+04  1.373452E+04 -6.957892E+04 -8.605326E+03  4.471098E+03
        88  10 -3.262573E+05 -1.017826E+05 -4.389426E+04 -1.349265E+05 -3.394530E-08 -1.041641E-08
        88  11 -3.016964E+05 -8.670368E+04 -3.111448E+04 -1.247602E+05 -1.512466E-08 -5.081629E-09
        88  12 -2.735135E+05 -7.872939E+04 -2.227593E+04 -1.199629E+05  6.344430E-09  2.678695E-09
        88  13 -1.814001E+05 -4.802312E+04 -1.474329E+04 -9.383427E+04  7.034252E-09  4.029784E-09
        88  14 -1.830960E+05 -4.328151E+04 -7.786687E+03 -9.161889E+04  4.049701E-09  8.264637E-10
        88  15 -1.810452E+05 -4.551926E+04 -4.270707E+03 -9.477273E+04  5.745255E-10 -1.222441E-09
        88  16 -3.652243E+04  5.737880E+03  1.440631E+04 -5.273346E+04  4.536973E-08  1.846518E-08
        88  17 -6.448103E+04  1.419364E+02  1.554046E+04 -5.847166E+04  1.987529E-08  7.575399E-09
        88  18 -8.856713E+04 -1.230815E+04  1.373435E+04 -6.957889E+04 -7.028412E-09 -5.050027E-09
        88  19 -3.262571E+05 -1.017825E+05 -4.389387E+04 -1.349266E+05  1.282988E+04 -6.604696E+03
        88  20 -3.016963E+05 -8.670361E+04 -3.111428E+04 -1.247603E+05  7.749150E+03 -6.894694E+03
        88  21 -2.735135E+05 -7.872934E+04 -2.227583E+04 -1.199629E+05  2.508539E+03 -6.758654E+03
        88  22 -1.813998E+05 -4.802303E+04 -1.474282E+04 -9.383434E+04  1.461630E+04 -5.934098E+03
        88  23 -1.830959E+05 -4.328144E+04 -7.786426E+03 -9.161894E+04  1.016634E+04 -5.987571E+03
        88  24 -1.810451E+05 -4.551922E+04 -4.270590E+03 -9.477275E+04  5.556676E+03 -5.614969E+03
        88  25 -3.652214E+04  5.737982E+03  1.440687E+04 -5.273353E+04  1.640316E+04 -5.263330E+03
        88  26 -6.448086E+04  1.420066E+02  1.554081E+04 -5.847172E+04  1.258402E+04 -5.080260E+03
        88  27 -8.856704E+04 -1.230811E+04  1.373452E+04 -6.957892E+04  8.605326E+03 -4.471098E+03
        89   1 -2.551552E+05 -7.248540E+04 -1.758171E+04 -1.151486E+05 -1.536959E+03  5.756274E+03
        89   2 -2.308582E+05 -6.022974E+04 -1.098893E+04 -1.049016E+05  1.472134E+02  4.084110E+03
        89   3 -2.017138E+05 -5.308659E+04 -5.110022E+03 -1.004011E+05  1.842821E+03  2.381210E+03
        89   4 -1.808682E+05 -4.560282E+04 -3.212773E+03 -9.466841E+04 -4.508832E+03  4.641273E+03
        89   5 -1.832922E+05 -4.302662E+04 -1.766515E+03 -9.180411E+04 -2.870147E+03  2.952117E+03
        89   6 -1.808604E+05 -4.555387E+04 -9.979807E+02 -9.468635E+04 -1.220074E+03  1.232216E+03
        89   7 -1.065756E+05 -1.871977E+04  1.115595E+04 -7.418599E+04 -7.481086E+03  3.526130E+03
        89   8 -1.357240E+05 -2.582339E+04  7.455781E+03 -7.870571E+04 -5.887741E+03  1.820037E+03
        89   9 -1.600067E+05 -3.802118E+04  3.114029E+03 -8.897150E+04 -4.283053E+03  8.319156E+01
        89  10 -2.551552E+05 -7.248544E+04 -1.758177E+04 -1.151486E+05 -4.362929E-09 -1.944892E-09
        89  11 -2.308582E+05 -6.022976E+04 -1.098896E+04 -1.049016E+05 -1.021253E-09 -1.356706E-09
        89  12 -2.017138E+05 -5.308660E+04 -5.110039E+03 -1.004011E+05  6.673730E-10 -5.658275E-10
        89  13 -1.808683E+05 -4.560285E+04 -3.212852E+03 -9.466840E+04  1.572765E-09 -1.338070E-09
        89  14 -1.832922E+05 -4.302663E+04 -1.766547E+03 -9.180410E+04  3.362771E-09 -2.717404E-10
        89  15 -1.808604E+05 -4.555387E+04 -9.979863E+02 -9.468634E+04 -2.615465E-09 -4.604319E-10
        89  16 -1.065756E+05 -1.871980E+04  1.115582E+04 -7.418597E+04  4.717730E-09 -9.538390E-10
        89  17 -1.357241E+05 -2.582340E+04  7.455710E+03 -7.870570E+04  4.972516E-09  2.992792E-10
        89  18 -1.600067E+05 -3.802118E+04  3.113995E+03 -8.897150E+04 -6.550782E-10 -2.257477E-10
        89  19 -2.551552E+05 -7.248540E+04 -1.758171E+04 -1.151486E+05  1.536959E+03 -5.756274E+03
        89  20 -2.308582E+05 -6.022974E+04 -1.098893E+04 -1.049016E+05 -1.472134E+02 -4.084110E+03
        89  21 -2.017138E+05 -5.308659E+04 -5.110022E+03 -1.004011E+05 -1.842821E+03 -2.381210E+03
        89  22 -1.808682E+05 -4.560282E+04 -3.212773E+03 -9.466841E+04  4.508832E+03 -4.641273E+03
        89  23 -1.832922E+05 -4.302662E+04 -1.766515E+03 -9.180411E+04  2.870147E+03 -2.952117E+03
        89  24 -1.808604E+05 -4.555387E+04 -9.979807E+02 -9.468635E+04  1.220074E+03 -1.232216E+03
        89  25 -1.065756E+05 -1.871977E+04  1.115595E+04 -7.418599E+04  7.481086E+03 -3.526130E+03
        89  26 -1.357240E+05 -2.582339E+04  7.455781E+03 -7.870571E+04  5.887741E+03 -1.820037E+03
        89  27 -1.600067E+05 -3.802118E+04  3.114029E+03 -8.897150E+04  4.283053E+03 -8.319156E+01
        90   1 -1.837350E+05 -4.655342E+04 -1.252021E+03 -9.543709E+04  2.435217E+03  1.231826E+03
        90   2 -1.595152E+05 -3.436986E+04  4.132411E+03 -8.516472E+04  3.451831E+03 -7.400930E+02
        90   3 -1.303239E+05 -2.719791E+04  9.335610E+03 -8.063166E+04  4.469178E+03 -2.713830E+03
        90   4 -1.808382E+05 -4.555769E+04 -7.684107E+02 -9.467573E+04 -6.222916E+02  8.486399E+01
        90   5 -1.833245E+05 -4.305724E+04 -4.819101E+02 -9.180392E+04  3.915222E+02 -1.888151E+03
        90   6 -1.808400E+05 -4.556820E+04 -3.746223E+02 -9.467193E+04  1.406054E+03 -3.862983E+03
        90   7 -1.779414E+05 -4.456194E+04 -2.847531E+02 -9.391435E+04 -3.679842E+03 -1.062114E+03
        90   8 -2.071333E+05 -5.174461E+04 -5.096246E+03 -9.844290E+04 -2.668675E+03 -3.036167E+03
        90   9 -2.313535E+05 -6.393826E+04 -1.008493E+04 -1.087111E+05 -1.656803E+03 -5.012035E+03
        90  10 -1.837350E+05 -4.655342E+04 -1.252035E+03 -9.543710E+04 -2.496802E-08 -8.697644E-09
        90  11 -1.595152E+05 -3.436986E+04  4.132387E+03 -8.516472E+04  8.945990E-09  2.836339E-09
        90  12 -1.303239E+05 -2.719792E+04  9.335559E+03 -8.063165E+04  4.569711E-08  1.599481E-08
        90  13 -1.808382E+05 -4.555769E+04 -7.684115E+02 -9.467573E+04 -1.693133E-09 -6.990113E-10
        90  14 -1.833245E+05 -4.305725E+04 -4.819171E+02 -9.180392E+04  1.723389E-10  1.372520E-09
        90  15 -1.808400E+05 -4.556822E+04 -3.746541E+02 -9.467192E+04  4.416435E-09  8.624794E-09
        90  16 -1.779414E+05 -4.456194E+04 -2.847807E+02 -9.391435E+04  1.602077E-08  5.110425E-09
        90  17 -2.071333E+05 -5.174462E+04 -5.096277E+03 -9.844291E+04 -1.507107E-08 -9.455870E-09
        90  18 -2.313535E+05 -6.393829E+04 -1.008498E+04 -1.087111E+05 -3.837015E-08 -1.639837E-08
        90  19 -1.837350E+05 -4.655342E+04 -1.252021E+03 -9.543709E+04 -2.435217E+03 -1.231826E+03
        90  20 -1.595152E+05 -3.436986E+04  4.132411E+03 -8.516472E+04 -3.451831E+03  7.400930E+02
        90  21 -1.303239E+05 -2.719791E+04  9.335610E+03 -8.063166E+04 -4.469178E+03  2.713830E+03
        90  22 -1.808382E+05 -4.555769E+04 -7.684107E+02 -9.467573E+04  6.222916E+02 -8.486399E+01
        90  23 -1.833245E+05 -4.305724E+04 -4.819101E+02 -9.180392E+04 -3.915222E+02  1.888151E+03
        90  24 -1.808400E+05 -4.556820E+04 -3.746223E+02 -9.467193E+04 -1.406054E+03  3.862983E+03
        90  25 -1.779414E+05 -4.456194E+04 -2.847531E+02 -9.391435E+04  3.679842E+03  1.062114E+03
        90  26 -2.071333E+05 -5.174461E+04 -5.096246E+03 -9.844290E+04  2.668675E+03  3.036167E+03
        90  27 -2.313535E+05 -6.393826E+04 -1.008493E+04 -1.087111E+05  1.656803E+03  5.012035E+03
        91   1 -1.123838E+05 -2.065031E+04  1.296508E+04 -7.566414E+04  4.982709E+03 -3.892824E+03
        91   2 -8.817265E+04 -8.461528E+03  1.796339E+04 -6.539508E+04  5.984940E+03 -5.871118E+03
        91   3 -5.898857E+04 -1.281612E+03  2.279184E+04 -6.086300E+04  6.985993E+03 -7.845790E+03
        91   4 -1.808407E+05 -4.556850E+04 -3.721528E+02 -9.467141E+04  1.919617E+03 -5.042016E+03
        91   5 -1.833267E+05 -4.306163E+04 -4.682288E+02 -9.180381E+04  2.927067E+03 -7.018493E+03
        91   6 -1.808415E+05 -4.556466E+04 -7.382757E+02 -9.467343E+04  3.933335E+03 -8.991359E+03
        91   7 -2.492921E+05 -7.048605E+04 -1.370939E+04 -1.136766E+05 -1.143087E+03 -6.191062E+03
        91   8 -2.784713E+05 -7.766091E+04 -1.890020E+04 -1.182088E+05 -1.303028E+02 -8.165680E+03
        91   9 -3.026800E+05 -8.984678E+04 -2.426929E+04 -1.284780E+05  8.812922E+02 -1.013670E+04
        91  10 -1.123839E+05 -2.065033E+04  1.296501E+04 -7.566413E+04 -3.877948E-08 -1.727280E-08
        91  11 -8.817270E+04 -8.461575E+03  1.796326E+04 -6.539506E+04 -1.765453E-08 -9.728879E-09
        91  12 -5.898864E+04 -1.281691E+03  2.279163E+04 -6.086295E+04  2.038692E-08  5.935817E-09
        91  13 -1.808407E+05 -4.556853E+04 -3.722075E+02 -9.467140E+04  3.248971E-09  8.950415E-09
        91  14 -1.833267E+05 -4.306168E+04 -4.683375E+02 -9.180380E+04 -2.107474E-09  1.726358E-09
        91  15 -1.808415E+05 -4.556475E+04 -7.384567E+02 -9.467341E+04 -6.088587E-09 -8.879158E-10
        91  16 -2.492921E+05 -7.048609E+04 -1.370947E+04 -1.136766E+05  4.440283E-08  1.746342E-08
        91  17 -2.784713E+05 -7.766098E+04 -1.890033E+04 -1.182088E+05  7.734955E-09  4.112617E-09
        91  18 -3.026801E+05 -8.984689E+04 -2.426948E+04 -1.284780E+05 -1.807713E-08 -9.695432E-09
        91  19 -1.123838E+05 -2.065031E+04  1.296508E+04 -7.566414E+04 -4.982709E+03  3.892824E+03
        91  20 -8.817265E+04 -8.461528E+03  1.796339E+04 -6.539508E+04 -5.984940E+03  5.871118E+03
        91  21 -5.898857E+04 -1.281612E+03  2.279184E+04 -6.086300E+04 -6.985993E+03  7.845790E+03
        91  22 -1.808407E+05 -4.556850E+04 -3.721528E+02 -9.467141E+04 -1.919617E+03  5.042016E+03
        91  23 -1.833267E+05 -4.306163E+04 -4.682288E+02 -9.180381E+04 -2.927067E+03  7.018493E+03
        91  24 -1.808415E+05 -4.556466E+04 -7.382757E+02 -9.467343E+04 -3.933335E+03  8.991359E+03
        91  25 -2.492921E+05 -7.048605E+04 -1.370939E+04 -1.136766E+05  1.143087E+03  6.191062E+03
        91  26 -2.784713E+05 -7.766091E+04 -1.890020E+04 -1.182088E+05  1.303028E+02  8.165680E+03
        91  27 -3.026800E+05 -8.984678E+04 -2.426929E+04 -1.284780E+05 -8.812922E+02  1.013670E+04
        92   1 -4.106629E+04  5.257150E+03  2.619991E+04 -5.591791E+04  7.585404E+03 -8.991326E+03
        92   2 -1.681657E+04  1.744681E+04  3.058120E+04 -4.565594E+04  9.123486E+03 -1.074132E+04
        92   3  1.230712E+04  2.455558E+04  3.437028E+04 -4.113190E+04  1.064415E+04 -1.244401E+04
        92   4 -1.808644E+05 -4.556150E+04 -9.563597E+02 -9.468248E+04  4.524986E+03 -1.013993E+04
        92   5 -1.832997E+05 -4.304042E+04 -1.688955E+03 -9.180421E+04  6.132877E+03 -1.186398E+04
        92   6 -1.808755E+05 -4.561428E+04 -3.069148E+03 -9.466429E+04  7.723309E+03 -1.354072E+04
        92   7 -3.206421E+05 -9.637839E+04 -2.811344E+04 -1.334390E+05  1.465307E+03 -1.128826E+04
        92   8 -3.497533E+05 -1.035249E+05 -3.396008E+04 -1.379408E+05  3.143140E+03 -1.298631E+04
        92   9 -3.740176E+05 -1.157802E+05 -4.050971E+04 -1.481808E+05  4.803465E+03 -1.463706E+04
        92  10 -4.106638E+04  5.257048E+03  2.619965E+04 -5.591786E+04  8.832201E-10 -4.281108E-10
        92  11 -1.681669E+04  1.744667E+04  3.058083E+04 -4.565586E+04  7.497392E-09  6.074069E-10
        92  12  1.230696E+04  2.455538E+04  3.436978E+04 -4.113179E+04 -1.959548E-09 -1.101086E-11
        92  13 -1.808644E+05 -4.556161E+04 -9.565913E+02 -9.468245E+04  1.993256E-09  1.757511E-10
        92  14 -1.832998E+05 -4.304059E+04 -1.689290E+03 -9.180415E+04  1.773237E-09  1.032635E-09
        92  15 -1.808756E+05 -4.561449E+04 -3.069604E+03 -9.466421E+04 -4.290348E-09 -1.815897E-09
        92  16 -3.206422E+05 -9.637853E+04 -2.811369E+04 -1.334389E+05  1.048945E-08  2.864391E-10
        92  17 -3.497534E+05 -1.035251E+05 -3.396041E+04 -1.379408E+05  4.026983E-09 -3.042234E-10
        92  18 -3.740177E+05 -1.157804E+05 -4.051015E+04 -1.481807E+05 -9.277069E-09 -4.070227E-09
        92  19 -4.106629E+04  5.257150E+03  2.619991E+04 -5.591791E+04 -7.585404E+03  8.991326E+03
        92  20 -1.681657E+04  1.744681E+04  3.058120E+04 -4.565594E+04 -9.123486E+03  1.074132E+04
        92  21  1.230712E+04  2.455558E+04  3.437028E+04 -4.113190E+04 -1.064415E+04  1.244401E+04
        92  22 -1.808644E+05 -4.556150E+04 -9.563597E+02 -9.468248E+04 -4.524986E+03  1.013993E+04
        92  23 -1.832997E+05 -4.304042E+04 -1.688955E+03 -9.180421E+04 -6.132877E+03  1.186398E+04
        92  24 -1.808755E+05 -4.561428E+04 -3.069148E+03 -9.466429E+04 -7.723309E+03  1.354072E+04
        92  25 -3.206421E+05 -9.637839E+04 -2.811344E+04 -1.334390E+05 -1.465307E+03  1.128826E+04
        92  26 -3.497533E+05 -1.035249E+05 -3.396008E+04 -1.379408E+05 -3.143140E+03  1.298631E+04
        92  27 -3.740176E+05 -1.157802E+05 -4.050971E+04 -1.481808E+05 -4.803465E+03  1.463706E+04
        93   1  3.029559E+04  3.097610E+04  3.699762E+04 -3.650168E+04  1.178030E+04 -1.338004E+04
        93   2  5.431744E+04  4.340744E+04  3.907517E+04 -2.546377E+04  1.520579E+04 -1.405896E+04
        93   3  8.232059E+04  4.916220E+04  3.863277E+04 -1.978332E+04  1.838772E+04 -1.408758E+04
        93   4 -1.810468E+05 -4.553189E+04 -4.078430E+03 -9.475895E+04  8.743329E+03 -1.452052E+04
        93   5 -1.831127E+05 -4.329564E+04 -7.435847E+03 -9.163132E+04  1.313175E+04 -1.483831E+04
        93   6 -1.813897E+05 -4.792781E+04 -1.407719E+04 -9.386191E+04  1.727641E+04 -1.450571E+04
        93   7 -3.923447E+05 -1.220368E+05 -4.515695E+04 -1.529984E+05  5.707442E+03 -1.566060E+04
        93   8 -4.204856E+05 -1.299941E+05 -5.394971E+04 -1.577757E+05  1.105854E+04 -1.561734E+04
        93   9 -4.450283E+05 -1.450115E+05 -6.679049E+04 -1.679113E+05  1.616561E+04 -1.492365E+04
        93  10  3.029539E+04  3.097588E+04  3.699703E+04 -3.650155E+04 -5.595043E-09 -2.348284E-09
        93  11  5.431714E+04  4.340716E+04  3.907436E+04 -2.546360E+04 -1.643328E-09 -1.133156E-09
        93  12  8.232018E+04  4.916189E+04  3.863176E+04 -1.978311E+04  6.898031E-09  1.159059E-09
        93  13 -1.810469E+05 -4.553214E+04 -4.078970E+03 -9.475885E+04 -7.708156E-09 -3.639192E-09
        93  14 -1.831130E+05 -4.329592E+04 -7.436585E+03 -9.163116E+04 -1.410950E-09 -1.077051E-09
        93  15 -1.813901E+05 -4.792812E+04 -1.407814E+04 -9.386171E+04  7.522450E-09  9.862395E-10
        93  16 -3.923448E+05 -1.220370E+05 -4.515747E+04 -1.529983E+05 -5.227494E-09 -3.687536E-09
        93  17 -4.204858E+05 -1.299944E+05 -5.395040E+04 -1.577756E+05  1.736450E-09 -2.240857E-09
        93  18 -4.450286E+05 -1.450118E+05 -6.679140E+04 -1.679111E+05  3.709809E-09  1.096247E-09
        93  19  3.029559E+04  3.097610E+04  3.699762E+04 -3.650168E+04 -1.178030E+04  1.338004E+04
        93  20  5.431744E+04  4.340744E+04  3.907517E+04 -2.546377E+04 -1.520579E+04  1.405896E+04
        93  21  8.232059E+04  4.916220E+04  3.863277E+04 -1.978332E+04 -1.838772E+04  1.408758E+04
        93  22 -1.810468E+05 -4.553189E+04 -4.078430E+03 -9.475895E+04 -8.743329E+03  1.452052E+04
        93  23 -1.831127E+05 -4.329564E+04 -7.435847E+03 -9.163132E+04 -1.313175E+04  1.483831E+04
        93  24 -1.813897E+05 -4.792781E+04 -1.407719E+04 -9.386191E+04 -1.727641E+04  1.450571E+04
        93  25 -3.923447E+05 -1.220368E+05 -4.515695E+04 -1.529984E+05 -5.707442E+03  1.566060E+04
        93  26 -4.204856E+05 -1.299941E+05 -5.394971E+04 -1.577757E+05 -1.105854E+04  1.561734E+04
        93  27 -4.450283E+05 -1.450115E+05 -6.679049E+04 -1.679113E+05 -1.616561E+04  1.492365E+04
        94   1  1.027058E+05  5.326026E+04  3.804892E+04 -2.134392E+04  2.255717E+04 -1.378851E+04
        94   2  1.156102E+05  7.191415E+04  3.179010E+04  1.128826E+04  2.635363E+04 -9.306405E+03
        94   3  1.179696E+05  4.759324E+04  1.140411E+04  4.892369E+04  2.675215E+04  4.221146E+03
        94   4 -1.837017E+05 -4.614618E+04 -1.848966E+04 -9.546561E+04  1.981588E+04 -1.481870E+04
        94   5 -1.812605E+05 -5.279531E+04 -3.473051E+04 -8.690205E+04  3.702327E+04 -5.300497E+03
        94   6 -1.920294E+05 -1.050902E+05 -7.573047E+04 -7.333452E+04  5.083134E+04  1.326465E+04
        94   7 -4.700244E+05 -1.455474E+05 -7.503191E+04 -1.695564E+05  1.707595E+04 -1.584843E+04
        94   8 -4.780363E+05 -1.774880E+05 -1.012550E+05 -1.850451E+05  4.768728E+04 -1.297381E+03
        94   9 -5.019223E+05 -2.577407E+05 -1.628690E+05 -1.955272E+05  7.489684E+04  2.229944E+04
        94  10  1.027052E+05  5.325992E+04  3.804761E+04 -2.134367E+04  3.495355E-08  1.210274E-08
        94  11  1.156094E+05  7.191387E+04  3.178863E+04  1.128846E+04  1.598915E-08  5.554349E-09
        94  12  1.179689E+05  4.759303E+04  1.140273E+04  4.892360E+04 -1.332813E-08 -4.868188E-09
        94  13 -1.837022E+05 -4.614653E+04 -1.849081E+04 -9.546537E+04  8.866400E-09  3.084249E-09
        94  14 -1.812619E+05 -5.279571E+04 -3.473314E+04 -8.690189E+04  7.516332E-09  6.179882E-09
        94  15 -1.920322E+05 -1.050910E+05 -7.573566E+04 -7.333506E+04  3.533289E-09  2.647474E-09
        94  16 -4.700247E+05 -1.455477E+05 -7.503293E+04 -1.695562E+05 -1.424052E-08 -5.154977E-09
        94  17 -4.780387E+05 -1.774887E+05 -1.012592E+05 -1.850451E+05  6.262158E-09  5.298846E-09
        94  18 -5.019284E+05 -2.577428E+05 -1.628805E+05 -1.955286E+05  2.131731E-08  8.765742E-09
        94  19  1.027058E+05  5.326026E+04  3.804892E+04 -2.134392E+04 -2.255717E+04  1.378851E+04
        94  20  1.156102E+05  7.191415E+04  3.179010E+04  1.128826E+04 -2.635363E+04  9.306405E+03
        94  21  1.179696E+05  4.759324E+04  1.140411E+04  4.892369E+04 -2.675215E+04 -4.221146E+03
        94  22 -1.837017E+05 -4.614618E+04 -1.848966E+04 -9.546561E+04 -1.981588E+04  1.481870E+04
        94  23 -1.812605E+05 -5.279531E+04 -3.473051E+04 -8.690205E+04 -3.702327E+04  5.300497E+03
        94  24 -1.920294E+05 -1.050902E+05 -7.573047E+04 -7.333452E+04 -5.083134E+04 -1.326465E+04
        94  25 -4.700244E+05 -1.455474E+05 -7.503191E+04 -1.695564E+05 -1.707595E+04  1.584843E+04
        94  26 -4.780363E+05 -1.774880E+05 -1.012550E+05 -1.850451E+05 -4.768728E+04  1.297381E+03
        94  27 -5.019223E+05 -2.577407E+05 -1.628690E+05 -1.955272E+05 -7.489684E+04 -2.229944E+04
        95   1  8.684648E+05  1.356099E+05  1.206884E+05  1.632011E+04  3.726133E+04 -1.007134E+04
        95   2  8.321819E+05  1.497788E+05  9.971370E+04  2.914782E+04  1.581606E+04 -3.489724E+04
        95   3  7.950712E+05  1.493810E+05  8.906584E+04  4.702434E+04 -5.638597E+03 -4.437056E+04
        95   4  1.261254E+05 -4.686309E+04 -5.009551E+04  4.729765E+04 -3.529449E+04 -1.013730E+04
        95   5  1.295245E+05 -1.559959E+04 -2.511140E+04  4.475048E+04 -2.243749E+04 -3.493925E+04
        95   6  1.261387E+05 -4.865287E+03 -1.360969E+04  4.725183E+04 -9.591540E+03 -4.437958E+04
        95   7 -6.156911E+05 -2.293681E+05 -2.208956E+05  7.823778E+04 -1.077643E+05 -1.021054E+04
        95   8 -5.726476E+05 -1.810035E+05 -1.499493E+05  6.033485E+04 -6.064903E+04 -3.498321E+04
        95   9 -5.423466E+05 -1.591332E+05 -1.162950E+05  4.747892E+04 -1.354039E+04 -4.438861E+04
        95  10  8.684632E+05  1.356095E+05  1.206856E+05  1.632041E+04  3.224116E-09 -5.882691E-10
        95  11  8.321813E+05  1.497775E+05  9.971094E+04  2.914827E+04  1.725106E-09 -2.832858E-09
        95  12  7.950706E+05  1.493789E+05  8.906208E+04  4.702414E+04 -3.102774E-10 -2.795848E-09
        95  13  1.261240E+05 -4.686353E+04 -5.009805E+04  4.729737E+04  2.943020E-10  3.412160E-10
        95  14  1.295236E+05 -1.560104E+04 -2.511464E+04  4.474985E+04  2.413367E-09 -1.573090E-09
        95  15  1.261381E+05 -4.867427E+03 -1.361356E+04  4.725148E+04 -1.975729E-09 -1.337214E-10
        95  16 -6.157037E+05 -2.293714E+05 -2.209177E+05  7.823690E+04 -3.391851E-09  1.281419E-11
        95  17 -5.726518E+05 -1.810058E+05 -1.499586E+05  6.033314E+04 -4.493573E-09 -3.048046E-09
        95  18 -5.423473E+05 -1.591354E+05 -1.162991E+05  4.747844E+04 -1.705115E-09 -2.495485E-09
        95  19  8.684648E+05  1.356099E+05  1.206884E+05  1.632011E+04 -3.726133E+04  1.007134E+04
        95  20  8.321819E+05  1.497788E+05  9.971370E+04  2.914782E+04 -1.581606E+04  3.489724E+04
        95  21  7.950712E+05  1.493810E+05  8.906584E+04  4.702434E+04  5.638597E+03  4.437056E+04
        95  22  1.261254E+05 -4.686309E+04 -5.009551E+04  4.729765E+04  3.529449E+04  1.013730E+04
        95  23  1.295245E+05 -1.559959E+04 -2.511140E+04  4.475048E+04  2.243749E+04  3.493925E+04
        95  24  1.261387E+05 -4.865287E+03 -1.360969E+04  4.725183E+04  9.591540E+03  4.437958E+04
        95  25 -6.156911E+05 -2.293681E+05 -2.208956E+05  7.823778E+04  1.077643E+05  1.021054E+04
        95  26 -5.726476E+05 -1.810035E+05 -1.499493E+05  6.033485E+04  6.064903E+04  3.498321E+04
        95  27 -5.423466E+05 -1.591332E+05 -1.162950E+05  4.747892E+04  1.354039E+04  4.438861E+04
        96   1  7.726472E+05  1.445280E+05  8.598358E+04  4.601947E+04 -4.407811E+03 -4.476246E+04
        96   2  7.361320E+05  1.377671E+05  8.060057E+04  4.405397E+04 -5.951251E+03 -4.533164E+04
        96   3  6.995637E+05  1.299668E+05  7.596521E+04  4.825316E+04 -7.497351E+03 -4.397046E+04
        96   4  1.274736E+05 -3.665845E+03 -1.018536E+04  4.750231E+04 -7.825661E+03 -4.477102E+04
        96   5  1.278820E+05 -1.042345E+03 -5.522239E+03  4.441746E+04 -5.058222E+03 -4.533499E+04
        96   6  1.274881E+05 -2.066881E+02 -3.104069E+03  4.749772E+04 -2.293456E+03 -4.396760E+04
        96   7 -5.172822E+05 -1.518793E+05 -1.063622E+05  4.898342E+04 -1.124010E+04 -4.477960E+04
        96   8 -4.799940E+05 -1.398684E+05 -9.165021E+04  4.478047E+04 -4.166028E+03 -4.533834E+04
        96   9 -4.442555E+05 -1.303946E+05 -8.217704E+04  4.674290E+04  2.905863E+03 -4.396475E+04
        96  10  7.726467E+05  1.445259E+05  8.597978E+04  4.601931E+04 -1.748461E-09 -3.041479E-09
        96  11  7.361314E+05  1.377648E+05  8.059664E+04  4.405375E+04 -1.641653E-09  8.054475E-10
        96  12  6.995631E+05  1.299647E+05  7.596147E+04  4.825289E+04 -1.355771E-09  2.054550E-09
        96  13  1.274730E+05 -3.668014E+03 -1.018924E+04  4.750203E+04  2.934063E-10 -1.608500E-09
        96  14  1.278814E+05 -1.044559E+03 -5.526150E+03  4.441728E+04 -7.638893E-10 -3.303927E-10
        96  15  1.274876E+05 -2.087654E+02 -3.107712E+03  4.749764E+04 -7.433760E-10 -1.783443E-09
        96  16 -5.172828E+05 -1.518815E+05 -1.063662E+05  4.898302E+04  1.300749E-09  5.054405E-10
        96  17 -4.799946E+05 -1.398706E+05 -9.165410E+04  4.478031E+04 -3.604301E-09 -5.801748E-11
        96  18 -4.442560E+05 -1.303967E+05 -8.218069E+04  4.674300E+04  8.543432E-11 -1.143104E-09
        96  19  7.726472E+05  1.445280E+05  8.598358E+04  4.601947E+04  4.407811E+03  4.476246E+04
        96  20  7.361320E+05  1.377671E+05  8.060057E+04  4.405397E+04  5.951251E+03  4.533164E+04
        96  21  6.995637E+05  1.299668E+05  7.596521E+04  4.825316E+04  7.497351E+03  4.397046E+04
        96  22  1.274736E+05 -3.665845E+03 -1.018536E+04  4.750231E+04  7.825661E+03  4.477102E+04
        96  23  1.278820E+05 -1.042345E+03 -5.522239E+03  4.441746E+04  5.058222E+03  4.533499E+04
        96  24  1.274881E+05 -2.066881E+02 -3.104069E+03  4.749772E+04  2.293456E+03  4.396760E+04
        96  25 -5.172822E+05 -1.518793E+05 -1.063622E+05  4.898342E+04  1.124010E+04  4.477960E+04
        96  26 -4.799940E+05 -1.398684E+05 -9.165021E+04  4.478047E+04  4.166028E+03  4.533834E+04
        96  27 -4.442555E+05 -1.303946E+05 -8.217704E+04  4.674290E+04 -2.905863E+03  4.396475E+04
        97   1  6.768735E+05  1.247574E+05  7.310559E+04  4.811850E+04 -7.102882E+03 -4.253458E+04
        97   2  6.403830E+05  1.165323E+05  6.860326E+04  4.498828E+04 -6.992320E+03 -4.005483E+04
        97   3  6.038652E+05  1.082723E+05  6.401902E+04  4.815754E+04 -6.882867E+03 -3.733278E+04
        97   4  1.276439E+05 -1.260726E+02 -2.342883E+03  4.752797E+04 -1.832865E+03 -4.253111E+04
        97   5  1.277115E+05  6.024815E+01 -1.316677E+03  4.437790E+04 -1.181654E+03 -4.004975E+04
        97   6  1.276566E+05  1.177279E+02 -7.479478E+02  4.752760E+04 -5.315461E+02 -3.732600E+04
        97   7 -4.212794E+05 -1.250227E+05 -7.779458E+04  4.693787E+04  3.432704E+03 -4.252765E+04
        97   8 -3.846928E+05 -1.164233E+05 -7.123919E+04  4.376794E+04  4.624435E+03 -4.004469E+04
        97   9 -3.483214E+05 -1.080467E+05 -6.551704E+04  4.689808E+04  5.815128E+03 -3.731923E+04
        97  10  6.768729E+05  1.247554E+05  7.310210E+04  4.811826E+04  6.760779E-10  2.509570E-09
        97  11  6.403825E+05  1.165306E+05  6.860015E+04  4.498806E+04  1.922332E-09  7.157789E-10
        97  12  6.038648E+05  1.082708E+05  6.401631E+04  4.815733E+04  2.440139E-09 -4.014873E-10
        97  13  1.276434E+05 -1.280161E+02 -2.346289E+03  4.752791E+04  2.569934E-10 -2.249844E-09
        97  14  1.277111E+05  5.852528E+01 -1.319694E+03  4.437786E+04  1.452192E-09  6.707206E-10
        97  15  1.276562E+05  1.162316E+02 -7.505667E+02  4.752759E+04 -8.971162E-10  3.427660E-09
        97  16 -4.212799E+05 -1.250247E+05 -7.779800E+04  4.693799E+04 -7.631009E-10 -8.802083E-10
        97  17 -3.846932E+05 -1.164250E+05 -7.124225E+04  4.376809E+04 -1.605620E-09  2.559988E-10
        97  18 -3.483218E+05 -1.080482E+05 -6.551972E+04  4.689825E+04 -5.318931E-10  1.286866E-09
        97  19  6.768735E+05  1.247574E+05  7.310559E+04  4.811850E+04  7.102882E+03  4.253458E+04
        97  20  6.403830E+05  1.165323E+05  6.860326E+04  4.498828E+04  6.992320E+03  4.005483E+04
        97  21  6.038652E+05  1.082723E+05  6.401902E+04  4.815754E+04  6.882867E+03  3.733278E+04
        97  22  1.276439E+05 -1.260726E+02 -2.342883E+03  4.752797E+04  1.832865E+03  4.253111E+04
        97  23  1.277115E+05  6.024815E+01 -1.316677E+03  4.437790E+04  1.181654E+03  4.004975E+04
        97  24  1.276566E+05  1.177279E+02 -7.479478E+02  4.752760E+04  5.315461E+02  3.732600E+04
        97  25 -4.212794E+05 -1.250227E+05 -7.779458E+04  4.693787E+04 -3.432704E+03  4.252765E+04
        97  26 -3.846928E+05 -1.164233E+05 -7.123919E+04  4.376794E+04 -4.624435E+03  4.004469E+04
        97  27 -3.483214E+05 -1.080467E+05 -6.551704E+04  4.689808E+04 -5.815128E+03  3.731923E+04
        98   1  5.811705E+05  1.030844E+05  6.094628E+04  4.812078E+04 -6.775350E+03 -3.566798E+04
        98   2  5.446961E+05  9.480168E+04  5.623640E+04  4.492467E+04 -6.689835E+03 -3.280622E+04
        98   3  5.082046E+05  8.654262E+04  5.147284E+04  4.804121E+04 -6.605040E+03 -2.991440E+04
        98   4  1.276809E+05  1.218291E+02 -5.641816E+02  4.753056E+04 -4.165451E+02 -3.566069E+04
        98   5  1.277015E+05  1.249002E+02 -3.152675E+02  4.437410E+04 -2.642402E+02 -3.279805E+04
        98   6  1.276913E+05  1.399595E+02 -1.667362E+02  4.753054E+04 -1.126510E+02 -2.990536E+04
        98   7 -3.255993E+05 -1.028497E+05 -6.207650E+04  4.694070E+04  5.937831E+03 -3.565341E+04
        98   8 -2.891161E+05 -9.455939E+04 -5.686848E+04  4.382385E+04  6.157239E+03 -3.278990E+04
        98   9 -2.526745E+05 -8.626896E+04 -5.180758E+04  4.702014E+04  6.375943E+03 -2.989632E+04
        98  10  5.811701E+05  1.030831E+05  6.094380E+04  4.812059E+04  6.714221E-08  1.892794E-10
        98  11  5.446958E+05  9.480051E+04  5.623429E+04  4.492449E+04  5.758017E-10  5.799612E-09
        98  12  5.082043E+05  8.654165E+04  5.147108E+04  4.804105E+04 -6.454215E-08  5.788332E-09
        98  13  1.276806E+05  1.204634E+02 -5.665718E+02  4.753055E+04  4.216315E-10  2.147924E-09
        98  14  1.277012E+05  1.237449E+02 -3.172892E+02  4.437409E+04 -1.613125E-09  7.082343E-09
        98  15  1.276911E+05  1.389991E+02 -1.684169E+02  4.753054E+04 -1.458048E-09  3.524068E-09
        98  16 -3.255997E+05 -1.028511E+05 -6.207895E+04  4.694088E+04 -6.736554E-08  2.983236E-09
        98  17 -2.891165E+05 -9.456055E+04 -5.687057E+04  4.382401E+04 -9.531713E-10  3.882594E-09
        98  18 -2.526748E+05 -8.626993E+04 -5.180933E+04  4.702029E+04  6.773203E-08  2.993100E-09
        98  19  5.811705E+05  1.030844E+05  6.094628E+04  4.812078E+04  6.775350E+03  3.566798E+04
        98  20  5.446961E+05  9.480168E+04  5.623640E+04  4.492467E+04  6.689835E+03  3.280622E+04
        98  21  5.082046E+05  8.654262E+04  5.147284E+04  4.804121E+04  6.605040E+03  2.991440E+04
        98  22  1.276809E+05  1.218291E+02 -5.641816E+02  4.753056E+04  4.165451E+02  3.566069E+04
        98  23  1.277015E+05  1.249002E+02 -3.152675E+02  4.437410E+04  2.642402E+02  3.279805E+04
        98  24  1.276913E+05  1.399595E+02 -1.667362E+02  4.753054E+04  1.126510E+02  2.990536E+04
        98  25 -3.255993E+05 -1.028497E+05 -6.207650E+04  4.694070E+04 -5.937831E+03  3.565341E+04
        98  26 -2.891161E+05 -9.455939E+04 -5.686848E+04  4.382385E+04 -6.157239E+03  3.278990E+04
        98  27 -2.526745E+05 -8.626896E+04 -5.180758E+04  4.702014E+04 -6.375943E+03  2.989632E+04
        99   1  4.855168E+05  8.136681E+04  4.831435E+04  4.801608E+04 -6.582112E+03 -2.822146E+04
        99   2  4.490572E+05  7.309275E+04  4.350821E+04  4.481754E+04 -6.575463E+03 -2.531294E+04
        99   3  4.125835E+05  6.484384E+04  3.869767E+04  4.793439E+04 -6.569338E+03 -2.240147E+04
        99   4  1.276977E+05  1.422904E+02 -1.153172E+02  4.753114E+04 -8.947999E+01 -2.821201E+04
        99   5  1.277098E+05  1.357173E+02 -3.543845E+01  4.437335E+04 -7.639834E+01 -2.530288E+04
        99   6  1.277057E+05  1.533464E+02  3.561530E+01  4.753113E+04 -6.383946E+01 -2.239080E+04
        99   7 -2.299909E+05 -8.108774E+04 -4.854605E+04  4.704644E+04  6.399584E+03 -2.820257E+04
        99   8 -1.935325E+05 -7.282576E+04 -4.357993E+04  4.392936E+04  6.419459E+03 -2.529282E+04
        99   9 -1.570893E+05 -6.454064E+04 -3.862708E+04  4.712804E+04  6.438812E+03 -2.238013E+04
        99  10  4.855165E+05  8.136594E+04  4.831277E+04  4.801593E+04  7.849014E-09  2.004954E-09
        99  11  4.490570E+05  7.309205E+04  4.350693E+04  4.481740E+04  7.374443E-10 -1.054776E-10
        99  12  4.125833E+05  6.484329E+04  3.869665E+04  4.793427E+04 -7.668718E-09 -1.497609E-09
        99  13  1.276975E+05  1.414357E+02 -1.168130E+02  4.753114E+04  2.676164E-09  6.483642E-09
        99  14  1.277096E+05  1.350298E+02 -3.664166E+01  4.437335E+04 -3.809925E-09  5.942737E-10
        99  15  1.277056E+05  1.528080E+02  3.467311E+01  4.753113E+04  2.046588E-09 -1.225124E-09
        99  16 -2.299912E+05 -8.108860E+04 -4.854762E+04  4.704659E+04 -8.743879E-09  3.536395E-09
        99  17 -1.935327E+05 -7.282646E+04 -4.358121E+04  4.392949E+04 -4.067863E-09 -1.294794E-09
        99  18 -1.570895E+05 -6.454119E+04 -3.862810E+04  4.712815E+04  8.082480E-09 -1.422532E-09
        99  19  4.855168E+05  8.136681E+04  4.831435E+04  4.801608E+04  6.582112E+03  2.822146E+04
        99  20  4.490572E+05  7.309275E+04  4.350821E+04  4.481754E+04  6.575463E+03  2.531294E+04
        99  21  4.125835E+05  6.484384E+04  3.869767E+04  4.793439E+04  6.569338E+03  2.240147E+04
        99  22  1.276977E+05  1.422904E+02 -1.153172E+02  4.753114E+04  8.947999E+01  2.821201E+04
        99  23  1.277098E+05  1.357173E+02 -3.543845E+01  4.437335E+04  7.639834E+01  2.530288E+04
        99  24  1.277057E+05  1.533464E+02  3.561530E+01  4.753113E+04  6.383946E+01  2.239080E+04
        99  25 -2.299909E+05 -8.108774E+04 -4.854605E+04  4.704644E+04 -6.399584E+03  2.820257E+04
        99  26 -1.935325E+05 -7.282576E+04 -4.357993E+04  4.392936E+04 -6.419459E+03  2.529282E+04
        99  27 -1.570893E+05 -6.454064E+04 -3.862708E+04  4.712804E+04 -6.438812E+03  2.238013E+04
       100   1  3.899063E+05  5.967140E+04  3.553142E+04  4.790938E+04 -6.581038E+03 -2.070591E+04
       100   2  3.534531E+05  5.140539E+04  3.074791E+04  4.470129E+04 -6.661165E+03 -1.779515E+04
       100   3  3.169973E+05  4.318304E+04  2.601968E+04  4.780571E+04 -6.741645E+03 -1.488841E+04
       100   4  1.277111E+05  1.560252E+02  7.319240E+01  4.753049E+04 -7.616675E+01 -2.069494E+04
       100   5  1.277151E+05  1.543536E+02  1.698084E+02  4.437414E+04 -1.654235E+02 -1.778378E+04
       100   6  1.277168E+05  1.979430E+02  3.279302E+02  4.753042E+04 -2.550373E+02 -1.487663E+04
       100   7 -1.344140E+05 -5.936229E+04 -3.538552E+04  4.715174E+04  6.426085E+03 -2.068398E+04
       100   8 -9.797092E+04 -5.109887E+04 -3.040863E+04  4.404708E+04  6.328065E+03 -1.777241E+04
       100   9 -6.152723E+04 -4.278868E+04 -2.536401E+04  4.725520E+04  6.229684E+03 -1.486486E+04
       100  10  3.899062E+05  5.967093E+04  3.553053E+04  4.790927E+04 -4.650968E-10  1.657257E-09
       100  11  3.534529E+05  5.140504E+04  3.074723E+04  4.470119E+04  3.367042E-10 -6.841352E-10
       100  12  3.169972E+05  4.318279E+04  2.601917E+04  4.780563E+04 -4.278401E-09  7.365523E-10
       100  13  1.277110E+05  1.555653E+02  7.238752E+01  4.753049E+04  2.628403E-09  9.742486E-12
       100  14  1.277150E+05  1.540140E+02  1.692140E+02  4.437413E+04  4.763247E-10  1.137654E-10
       100  15  1.277167E+05  1.977053E+02  3.275142E+02  4.753042E+04  2.869918E-09  1.383623E-09
       100  16 -1.344142E+05 -5.936276E+04 -3.538641E+04  4.715184E+04  1.330018E-09  1.424826E-09
       100  17 -9.797105E+04 -5.109922E+04 -3.040929E+04  4.404717E+04  3.603146E-10 -5.506576E-09
       100  18 -6.152733E+04 -4.278893E+04 -2.536450E+04  4.725528E+04  3.998413E-09 -1.439655E-09
       100  19  3.899063E+05  5.967140E+04  3.553142E+04  4.790938E+04  6.581038E+03  2.070591E+04
       100  20  3.534531E+05  5.140539E+04  3.074791E+04  4.470129E+04  6.661165E+03  1.779515E+04
       100  21  3.169973E+05  4.318304E+04  2.601968E+04  4.780571E+04  6.741645E+03  1.488841E+04
       100  22  1.277111E+05  1.560252E+02  7.319240E+01  4.753049E+04  7.616675E+01  2.069494E+04
       100  23  1.277151E+05  1.543536E+02  1.698084E+02  4.437414E+04  1.654235E+02  1.778378E+04
       100  24  1.277168E+05  1.979430E+02  3.279302E+02  4.753042E+04  2.550373E+02  1.487663E+04
       100  25 -1.344140E+05 -5.936229E+04 -3.538552E+04  4.715174E+04 -6.426085E+03  2.068398E+04
       100  26 -9.797092E+04 -5.109887E+04 -3.040863E+04  4.404708E+04 -6.328065E+03  1.777241E+04
       100  27 -6.152723E+04 -4.278868E+04 -2.536401E+04  4.725520E+04 -6.229684E+03  1.486486E+04
       101   1  2.943437E+05  3.802045E+04  2.292403E+04  4.779681E+04 -6.808180E+03 -1.319681E+04
       101   2  2.578563E+05  2.986049E+04  1.836611E+04  4.442914E+04 -7.135443E+03 -1.031001E+04
       101   3  2.214533E+05  2.197356E+04  1.408083E+04  4.736966E+04 -7.462832E+03 -7.457133E+03
       101   4  1.277400E+05  2.107724E+02  4.410069E+02  4.752952E+04 -3.231546E+02 -1.318484E+04
       101   5  1.276938E+05  3.198180E+02  7.946519E+02  4.437493E+04 -7.263034E+02 -1.029795E+04
       101   6  1.277432E+05  7.149501E+02  1.473342E+03  4.752859E+04 -1.129594E+03 -7.444981E+03
       101   7 -3.883530E+04 -3.760008E+04 -2.204211E+04  4.726230E+04  6.160211E+03 -1.317288E+04
       101   8 -2.451357E+03 -2.922157E+04 -1.677681E+04  4.432073E+04  5.681554E+03 -1.028589E+04
       101   9  3.404215E+04 -2.054401E+04 -1.113407E+04  4.768749E+04  5.202732E+03 -7.432824E+03
       101  10  2.943436E+05  3.802025E+04  2.292361E+04  4.779674E+04 -3.941449E-09  4.176800E-09
       101  11  2.578562E+05  2.986037E+04  1.836582E+04  4.442908E+04  3.325415E-10  2.606432E-10
       101  12  2.214533E+05  2.197348E+04  1.408062E+04  4.736961E+04  2.829593E-10  4.417343E-09
       101  13  1.277400E+05  2.105857E+02  4.406800E+02  4.752952E+04 -1.667460E-09  1.828246E-09
       101  14  1.276938E+05  3.197040E+02  7.944516E+02  4.437493E+04  1.567671E-09  2.552620E-09
       101  15  1.277432E+05  7.148902E+02  1.473236E+03  4.752858E+04  1.779846E-09  1.982343E-10
       101  16 -3.883538E+04 -3.760027E+04 -2.204251E+04  4.726236E+04  3.728759E-09  1.023703E-09
       101  17 -2.451420E+03 -2.922169E+04 -1.677707E+04  4.432078E+04 -1.337128E-09  1.461872E-09
       101  18  3.404211E+04 -2.054408E+04 -1.113422E+04  4.768752E+04 -3.370124E-09 -4.749639E-09
       101  19  2.943437E+05  3.802045E+04  2.292403E+04  4.779681E+04  6.808180E+03  1.319681E+04
       101  20  2.578563E+05  2.986049E+04  1.836611E+04  4.442914E+04  7.135443E+03  1.031001E+04
       101  21  2.214533E+05  2.197356E+04  1.408083E+04  4.736966E+04  7.462832E+03  7.457133E+03
       101  22  1.277400E+05  2.107724E+02  4.410069E+02  4.752952E+04  3.231546E+02  1.318484E+04
       101  23  1.276938E+05  3.198180E+02  7.946519E+02  4.437493E+04  7.263034E+02  1.029795E+04
       101  24  1.277432E+05  7.149501E+02  1.473342E+03  4.752859E+04  1.129594E+03  7.444981E+03
       101  25 -3.883530E+04 -3.760008E+04 -2.204211E+04  4.726230E+04 -6.160211E+03  1.317288E+04
       101  26 -2.451357E+03 -2.922157E+04 -1.677681E+04  4.432073E+04 -5.681554E+03  1.028589E+04
       101  27  3.404215E+04 -2.054401E+04 -1.113407E+04  4.768749E+04 -5.202732E+03  7.432824E+03
       102   1  1.989583E+05  1.695978E+04  1.131898E+04  4.751492E+04 -7.711715E+03 -5.798009E+03
       102   2  1.620940E+05  1.018296E+04  7.810753E+03  4.208623E+04 -8.973852E+03 -3.102531E+03
       102   3  1.260907E+05  6.307703E+03  5.840362E+03  4.294282E+04 -1.023551E+04 -6.761687E+02
       102   4  1.279370E+05  8.888345E+02  1.970446E+03  4.752428E+04 -1.388175E+03 -5.785784E+03
       102   5  1.274551E+05  2.432468E+03  3.637568E+03  4.437589E+04 -3.251195E+03 -3.091444E+03
       102   6  1.279375E+05  6.982174E+03  7.259767E+03  4.751268E+04 -5.113805E+03 -6.662364E+02
       102   7  5.692089E+04 -1.518230E+04 -7.377970E+03  4.753365E+04  4.934676E+03 -5.773558E+03
       102   8  9.281743E+04 -5.318032E+03 -5.354900E+02  4.666541E+04  2.471160E+03 -3.080314E+03
       102   9  1.297844E+05  7.656736E+03  8.679282E+03  5.208255E+04  7.917918E+00 -6.562287E+02
       102  10  1.989582E+05  1.695973E+04  1.131880E+04  4.751488E+04 -5.390971E-10  4.815044E-09
       102  11  1.620939E+05  1.018293E+04  7.810584E+03  4.208621E+04  4.821057E-10  5.926711E-10
       102  12  1.260906E+05  6.307674E+03  5.840164E+03  4.294281E+04 -2.144974E-10 -3.888968E-10
       102  13  1.279370E+05  8.887981E+02  1.970379E+03  4.752428E+04  5.921540E-10  4.185119E-09
       102  14  1.274551E+05  2.432455E+03  3.637530E+03  4.437588E+04  6.876625E-09 -3.166722E-09
       102  15  1.279374E+05  6.982166E+03  7.259717E+03  4.751268E+04 -2.916802E-11  1.900892E-09
       102  16  5.692085E+04 -1.518235E+04 -7.378078E+03  4.753367E+04  1.457474E-09 -2.838197E-11
       102  17  9.281742E+04 -5.318044E+03 -5.355193E+02  4.666542E+04 -3.331395E-10  8.773225E-11
       102  18  1.297844E+05  7.656735E+03  8.679281E+03  5.208255E+04  2.208061E-09 -5.672959E-10
       102  19  1.989583E+05  1.695978E+04  1.131898E+04  4.751492E+04  7.711715E+03  5.798009E+03
       102  20  1.620940E+05  1.018296E+04  7.810753E+03  4.208623E+04  8.973852E+03  3.102531E+03
       102  21  1.260907E+05  6.307703E+03  5.840362E+03  4.294282E+04  1.023551E+04  6.761687E+02
       102  22  1.279370E+05  8.888345E+02  1.970446E+03  4.752428E+04  1.388175E+03  5.785784E+03
       102  23  1.274551E+05  2.432468E+03  3.637568E+03  4.437589E+04  3.251195E+03  3.091444E+03
       102  24  1.279375E+05  6.982174E+03  7.259767E+03  4.751268E+04  5.113805E+03  6.662364E+02
       102  25  5.692089E+04 -1.518230E+04 -7.377970E+03  4.753365E+04 -4.934676E+03  5.773558E+03
       102  26  9.281743E+04 -5.318032E+03 -5.354900E+02  4.666541E+04 -2.471160E+03  3.080314E+03
       102  27  1.297844E+05  7.656736E+03  8.679282E+03  5.208255E+04 -7.917918E+00  6.562287E+02
       103   1  1.207572E+04  4.208439E+05  1.331111E+04 -3.932056E+04 -2.961865E+02  2.471422E+03
       103   2 -2.329436E+03  3.840511E+05  2.677455E+03 -3.259231E+04 -1.761781E+03 -1.200897E+03
       103   3 -1.205891E+04  3.488881E+05 -4.402111E+03 -3.449656E+04 -3.937699E+03 -4.873599E+03
       103   4  7.099035E+03  4.012093E+05  8.099698E+03 -3.487070E+04 -2.977138E+02  4.236300E+03
       103   5  1.411133E+03  4.004927E+05  4.967232E+03 -3.055740E+04 -1.764291E+03  1.689617E+03
       103   6  2.037577E+02  4.012100E+05  4.607755E+03 -3.487648E+04 -3.941155E+03 -8.576297E+02
       103   7  2.122392E+03  3.815750E+05  2.888275E+03 -3.042098E+04 -2.992159E+02  6.001122E+03
       103   8  5.151709E+03  4.169346E+05  7.257039E+03 -2.852244E+04 -1.766781E+03  4.580205E+03
       103   9  1.246629E+04  4.535346E+05  1.361759E+04 -3.525644E+04 -3.944616E+03  3.158668E+03
       103  10  1.207572E+04  4.208439E+05  1.331110E+04 -3.932056E+04  2.263586E-09  5.988669E-10
       103  11 -2.329440E+03  3.840511E+05  2.677447E+03 -3.259232E+04  2.333975E-09 -1.135791E-09
       103  12 -1.205893E+04  3.488881E+05 -4.402185E+03 -3.449658E+04 -2.168089E-10 -8.824022E-10
       103  13  7.099031E+03  4.012093E+05  8.099665E+03 -3.487070E+04  2.527798E-09 -7.941393E-10
       103  14  1.411129E+03  4.004927E+05  4.967221E+03 -3.055740E+04  3.193106E-09 -7.914643E-10
       103  15  2.037409E+02  4.012100E+05  4.607724E+03 -3.487648E+04 -6.019619E-10 -4.342304E-10
       103  16  2.122382E+03  3.815750E+05  2.888207E+03 -3.042098E+04 -4.225319E-10 -1.796522E-10
       103  17  5.151700E+03  4.169345E+05  7.256994E+03 -2.852243E+04  2.340445E-09  1.429684E-09
       103  18  1.246627E+04  4.535346E+05  1.361754E+04 -3.525643E+04 -7.466005E-10  1.171572E-09
       103  19  1.207572E+04  4.208439E+05  1.331111E+04 -3.932056E+04  2.961865E+02 -2.471422E+03
       103  20 -2.329436E+03  3.840511E+05  2.677455E+03 -3.259231E+04  1.761781E+03  1.200897E+03
       103  21 -1.205891E+04  3.488881E+05 -4.402111E+03 -3.449656E+04  3.937699E+03  4.873599E+03
       103  22  7.099035E+03  4.012093E+05  8.099698E+03 -3.487070E+04  2.977138E+02 -4.236300E+03
       103  23  1.411133E+03  4.004927E+05  4.967232E+03 -3.055740E+04  1.764291E+03 -1.689617E+03
       103  24  2.037577E+02  4.012100E+05  4.607755E+03 -3.487648E+04  3.941155E+03  8.576297E+02
       103  25  2.122392E+03  3.815750E+05  2.888275E+03 -3.042098E+04  2.992159E+02 -6.001122E+03
       103  26  5.151709E+03  4.169346E+05  7.257039E+03 -2.852244E+04  1.766781E+03 -4.580205E+03
       103  27  1.246629E+04  4.535346E+05  1.361759E+04 -3.525644E+04  3.944616E+03 -3.158668E+03
       104   1 -1.760176E+04  3.249359E+05 -8.368557E+03 -3.534236E+04 -5.454125E+03 -5.633777E+03
       104   2 -2.606637E+04  2.885620E+05 -1.292772E+04 -3.032693E+04 -7.746216E+03 -8.480145E+03
       104   3 -3.290021E+04  2.529521E+05 -1.523088E+04 -3.396534E+04 -9.602424E+03 -1.132584E+04
       104   4  3.011958E+02  4.010868E+05  5.031469E+03 -3.488062E+04 -5.457500E+03 -1.652803E+03
       104   5  3.444979E+02  4.006437E+05  7.086148E+03 -3.055299E+04 -7.748843E+03 -5.190516E+03
       104   6  2.138378E+03  4.010832E+05  1.187633E+04 -3.487905E+04 -9.604337E+03 -8.727715E+03
       104   7  1.820385E+04  4.772433E+05  1.843134E+04 -3.441883E+04 -5.460868E+03  2.328644E+03
       104   8  2.675468E+04  5.127378E+05  2.709958E+04 -3.077909E+04 -7.751471E+03 -1.900311E+03
       104   9  3.717573E+04  5.492356E+05  3.898268E+04 -3.579298E+04 -9.606257E+03 -6.128986E+03
       104  10 -1.760180E+04  3.249359E+05 -8.368673E+03 -3.534238E+04 -3.756870E-10  2.867058E-09
       104  11 -2.606646E+04  2.885619E+05 -1.292797E+04 -3.032698E+04  2.139904E-09 -3.126117E-10
       104  12 -3.290034E+04  2.529520E+05 -1.523129E+04 -3.396543E+04 -1.862394E-09 -6.865706E-10
       104  13  3.011631E+02  4.010868E+05  5.031407E+03 -3.488063E+04 -3.978149E-09 -7.775776E-10
       104  14  3.444262E+02  4.006437E+05  7.085985E+03 -3.055302E+04 -3.983139E-11 -6.918030E-10
       104  15  2.138259E+03  4.010831E+05  1.187602E+04 -3.487912E+04  4.521190E-10 -4.781112E-10
       104  16  1.820381E+04  4.772433E+05  1.843128E+04 -3.441882E+04 -6.608593E-10 -2.424092E-09
       104  17  2.675461E+04  5.127377E+05  2.709946E+04 -3.077910E+04  9.511014E-10  7.077123E-10
       104  18  3.717562E+04  5.492356E+05  3.898243E+04 -3.579303E+04  4.098773E-10  1.148723E-09
       104  19 -1.760176E+04  3.249359E+05 -8.368557E+03 -3.534236E+04  5.454125E+03  5.633777E+03
       104  20 -2.606637E+04  2.885620E+05 -1.292772E+04 -3.032693E+04  7.746216E+03  8.480145E+03
       104  21 -3.290021E+04  2.529521E+05 -1.523088E+04 -3.396534E+04  9.602424E+03  1.132584E+04
       104  22  3.011958E+02  4.010868E+05  5.031469E+03 -3.488062E+04  5.457500E+03  1.652803E+03
       104  23  3.444979E+02  4.006437E+05  7.086148E+03 -3.055299E+04  7.748843E+03  5.190516E+03
       104  24  2.138378E+03  4.010832E+05  1.187633E+04 -3.487905E+04  9.604337E+03  8.727715E+03
       104  25  1.820385E+04  4.772433E+05  1.843134E+04 -3.441883E+04  5.460868E+03 -2.328644E+03
       104  26  2.675468E+04  5.127378E+05  2.709958E+04 -3.077909E+04  7.751471E+03  1.900311E+03
       104  27  3.717573E+04  5.492356E+05  3.898268E+04 -3.579298E+04  9.606257E+03  6.128986E+03
       105   1 -3.983450E+04  2.308248E+05 -1.644836E+04 -3.827916E+04 -1.094788E+04 -1.419093E+04
       105   2 -3.986690E+04  1.907781E+05 -1.420258E+04 -1.695505E+04 -1.008104E+04 -1.866080E+04
       105   3 -1.022922E+04  1.587246E+05 -1.630572E+03 -3.904249E+03 -3.143376E+03 -2.312619E+04
       105   4  9.349219E+02  4.030325E+05  1.528476E+04 -3.479988E+04 -1.095045E+04 -1.075264E+04
       105   5  9.913953E+03  3.981968E+05  2.722968E+04 -3.064518E+04 -1.007569E+04 -2.484468E+04
       105   6  5.022612E+04  4.030181E+05  5.617732E+04 -3.476274E+04 -3.130774E+03 -3.893259E+04
       105   7  4.170271E+04  5.752690E+05  4.701670E+04 -3.131960E+04 -1.095298E+04 -7.313417E+03
       105   8  5.969288E+04  6.056570E+05  6.866002E+04 -4.433996E+04 -1.007006E+04 -3.103058E+04
       105   9  1.106809E+05  6.473690E+05  1.139825E+05 -6.563342E+04 -3.116604E+03 -5.474516E+04
       105  10 -3.983468E+04  2.308245E+05 -1.644896E+04 -3.827928E+04 -1.575581E-09  1.439691E-09
       105  11 -3.986710E+04  1.907777E+05 -1.420342E+04 -1.695520E+04 -2.267697E-09 -1.730694E-10
       105  12 -1.022938E+04  1.587240E+05 -1.631595E+03 -3.904308E+03  8.007404E-10  2.552974E-10
       105  13  9.347621E+02  4.030323E+05  1.528432E+04 -3.479997E+04  1.600145E-09 -7.719034E-10
       105  14  9.913678E+03  3.981961E+05  2.722833E+04 -3.064538E+04 -1.400136E-09 -6.552313E-10
       105  15  5.022571E+04  4.030165E+05  5.617446E+04 -3.476283E+04 -1.566062E-09 -3.453360E-10
       105  16  4.170256E+04  5.752689E+05  4.701637E+04 -3.131966E+04  1.616952E-09 -9.250496E-10
       105  17  5.969252E+04  6.056560E+05  6.865802E+04 -4.434021E+04 -6.788512E-10  5.990086E-10
       105  18  1.106801E+05  6.473658E+05  1.139769E+05 -6.563355E+04 -6.739923E-10  6.443057E-11
       105  19 -3.983450E+04  2.308248E+05 -1.644836E+04 -3.827916E+04  1.094788E+04  1.419093E+04
       105  20 -3.986690E+04  1.907781E+05 -1.420258E+04 -1.695505E+04  1.008104E+04  1.866080E+04
       105  21 -1.022922E+04  1.587246E+05 -1.630572E+03 -3.904249E+03  3.143376E+03  2.312619E+04
       105  22  9.349219E+02  4.030325E+05  1.528476E+04 -3.479988E+04  1.095045E+04  1.075264E+04
       105  23  9.913953E+03  3.981968E+05  2.722968E+04 -3.064518E+04  1.007569E+04  2.484468E+04
       105  24  5.022612E+04  4.030181E+05  5.617732E+04 -3.476274E+04  3.130774E+03  3.893259E+04
       105  25  4.170271E+04  5.752690E+05  4.701670E+04 -3.131960E+04  1.095298E+04  7.313417E+03
       105  26  5.969288E+04  6.056570E+05  6.866002E+04 -4.433996E+04  1.007006E+04  3.103058E+04
       105  27  1.106809E+05  6.473690E+05  1.139825E+05 -6.563342E+04  3.116604E+03  5.474516E+04
       106   1  9.295223E+05  3.319857E+05  1.658286E+05  3.459115E+05  6.482793E+04  1.338873E+04
       106   2  8.786479E+05  3.069164E+05  1.182623E+05  3.309248E+05  4.199343E+04 -2.144903E+04
       106   3  8.276516E+05  2.920453E+05  9.513724E+04  3.229476E+05  1.328698E+04 -4.065020E+04
       106   4  2.533366E+05  8.170672E+04 -4.995186E+03  1.633882E+05  3.480200E+02 -1.086284E+04
       106   5  2.569141E+05  8.171027E+04 -2.385875E+03  1.591878E+05  1.023876E+04 -3.339879E+04
       106   6  2.538927E+05  8.543773E+04 -1.236671E+03  1.619965E+05  1.425020E+04 -4.029223E+04
       106   7 -4.223638E+05 -1.685301E+05 -1.758293E+05 -1.894603E+04 -6.405225E+04 -3.508519E+04
       106   8 -3.644020E+05 -1.434560E+05 -1.230426E+05 -1.238600E+04 -2.148109E+04 -4.533564E+04
       106   9 -3.195142E+05 -1.211362E+05 -9.761858E+04  1.184933E+03  1.521248E+04 -3.993462E+04
       106  10  9.295177E+05  3.319843E+05  1.658204E+05  3.459108E+05  2.870460E-09  5.333390E-10
       106  11  8.786459E+05  3.069155E+05  1.182581E+05  3.309256E+05  2.198056E-09 -4.423137E-10
       106  12  8.276510E+05  2.920435E+05  9.513380E+04  3.229480E+05  2.142632E-09  2.306338E-09
       106  13  2.533366E+05  8.170659E+04 -4.995408E+03  1.633882E+05 -1.851404E-10  2.112936E-09
       106  14  2.569136E+05  8.170905E+04 -2.388168E+03  1.591881E+05  2.999557E-09  3.807069E-10
       106  15  2.538921E+05  8.543593E+04 -1.240104E+03  1.619970E+05 -2.277731E-09  5.428737E-10
       106  16 -4.223685E+05 -1.685326E+05 -1.758393E+05 -1.894784E+04  3.127060E-10  1.673886E-09
       106  17 -3.644031E+05 -1.434584E+05 -1.230474E+05 -1.238678E+04 -1.498868E-09 -9.593325E-10
       106  18 -3.195149E+05 -1.211380E+05 -9.762201E+04  1.185422E+03 -3.638324E-09 -9.959077E-10
       106  19  9.295223E+05  3.319857E+05  1.658286E+05  3.459115E+05 -6.482793E+04 -1.338873E+04
       106  20  8.786479E+05  3.069164E+05  1.182623E+05  3.309248E+05 -4.199343E+04  2.144903E+04
       106  21  8.276516E+05  2.920453E+05  9.513724E+04  3.229476E+05 -1.328698E+04  4.065020E+04
       106  22  2.533366E+05  8.170672E+04 -4.995186E+03  1.633882E+05 -3.480200E+02  1.086284E+04
       106  23  2.569141E+05  8.171027E+04 -2.385875E+03  1.591878E+05 -1.023876E+04  3.339879E+04
       106  24  2.538927E+05  8.543773E+04 -1.236671E+03  1.619965E+05 -1.425020E+04  4.029223E+04
       106  25 -4.223638E+05 -1.685301E+05 -1.758293E+05 -1.894603E+04  6.405225E+04  3.508519E+04
       106  26 -3.644020E+05 -1.434560E+05 -1.230426E+05 -1.238600E+04  2.148109E+04  4.533564E+04
       106  27 -3.195142E+05 -1.211362E+05 -9.761858E+04  1.184933E+03 -1.521248E+04  3.993462E+04
       107   1  7.956849E+05  2.803178E+05  8.785105E+04  3.142388E+05  1.362043E+04 -3.962528E+04
       107   2  7.492391E+05  2.588504E+05  7.628520E+04  2.968587E+05  9.840059E+03 -3.980587E+04
       107   3  6.969016E+05  2.444882E+05  6.736499E+04  2.869695E+05  5.409011E+03 -3.825942E+04
       107   4  2.538547E+05  8.571428E+04 -9.186194E+02  1.622261E+05  1.409240E+04 -3.945186E+04
       107   5  2.571876E+05  8.266930E+04 -4.783875E+02  1.584276E+05  1.392598E+04 -3.827147E+04
       107   6  2.539123E+05  8.601461E+04 -2.534795E+02  1.621196E+05  1.310837E+04 -3.536331E+04
       107   7 -2.876688E+05 -1.088620E+05 -8.969682E+04  1.033570E+04  1.456395E+04 -3.927862E+04
       107   8 -2.346063E+05 -9.348757E+04 -7.724682E+04  2.009870E+04  1.800850E+04 -3.673835E+04
       107   9 -1.888651E+05 -7.243803E+04 -6.787450E+04  3.735357E+04  2.080194E+04 -3.246938E+04
       107  10  7.956842E+05  2.803161E+05  8.784775E+04  3.142393E+05 -4.629126E-09 -9.925035E-10
       107  11  7.492385E+05  2.588487E+05  7.628204E+04  2.968591E+05  1.916571E-09  1.365523E-09
       107  12  6.969012E+05  2.444866E+05  6.736218E+04  2.869697E+05  1.397446E-09  1.168743E-09
       107  13  2.538540E+05  8.571256E+04 -9.219180E+02  1.622266E+05 -8.434376E-10 -8.406437E-10
       107  14  2.571870E+05  8.266768E+04 -4.815049E+02  1.584281E+05 -4.387992E-10  2.117398E-09
       107  15  2.539118E+05  8.601322E+04 -2.561529E+02  1.621200E+05 -2.592746E-09  2.787325E-10
       107  16 -2.876694E+05 -1.088637E+05 -8.970012E+04  1.033616E+04  5.110025E-09  2.087358E-09
       107  17 -2.346070E+05 -9.348911E+04 -7.724997E+04  2.009923E+04  2.157517E-09  6.560129E-09
       107  18 -1.888658E+05 -7.243928E+04 -6.787730E+04  3.735411E+04 -3.689286E-09  2.523938E-09
       107  19  7.956849E+05  2.803178E+05  8.785105E+04  3.142388E+05 -1.362043E+04  3.962528E+04
       107  20  7.492391E+05  2.588504E+05  7.628520E+04  2.968587E+05 -9.840059E+03  3.980587E+04
       107  21  6.969016E+05  2.444882E+05  6.736499E+04  2.869695E+05 -5.409011E+03  3.825942E+04
       107  22  2.538547E+05  8.571428E+04 -9.186194E+02  1.622261E+05 -1.409240E+04  3.945186E+04
       107  23  2.571876E+05  8.266930E+04 -4.783875E+02  1.584276E+05 -1.392598E+04  3.827147E+04
       107  24  2.539123E+05  8.601461E+04 -2.534795E+02  1.621196E+05 -1.310837E+04  3.536331E+04
       107  25 -2.876688E+05 -1.088620E+05 -8.969682E+04  1.033570E+04 -1.456395E+04  3.927862E+04
       107  26 -2.346063E+05 -9.348757E+04 -7.724682E+04  2.009870E+04 -1.800850E+04  3.673835E+04
       107  27 -1.888651E+05 -7.243803E+04 -6.787450E+04  3.735357E+04 -2.080194E+04  3.246938E+04
       108   1  6.658889E+05  2.333558E+05  6.228089E+04  2.782797E+05  4.671910E+03 -3.602649E+04
       108   2  6.199597E+05  2.124255E+05  5.459252E+04  2.606548E+05  2.911303E+03 -3.241030E+04
       108   3  5.674867E+05  1.981899E+05  4.718414E+04  2.505828E+05  1.078366E+03 -2.860458E+04
       108   4  2.539098E+05  8.604599E+04 -1.872742E+02  1.621423E+05  1.231455E+04 -3.315098E+04
       108   5  2.572334E+05  8.275975E+04 -9.331958E+01  1.583611E+05  1.095041E+04 -2.938437E+04
       108   6  2.539311E+05  8.608971E+04 -3.394567E+01  1.621324E+05  9.513867E+03 -2.542816E+04
       108   7 -1.578805E+05 -6.124361E+04 -6.265604E+04  4.607878E+04  1.995176E+04 -3.027752E+04
       108   8 -1.053503E+05 -4.689176E+04 -5.478053E+04  5.612377E+04  1.898456E+04 -2.636030E+04
       108   9 -5.952169E+04 -2.600127E+04 -4.725401E+04  7.372307E+04  1.794497E+04 -2.225338E+04
       108  10  6.658886E+05  2.333544E+05  6.227841E+04  2.782799E+05 -2.770804E-08 -8.483806E-09
       108  11  6.199594E+05  2.124244E+05  5.459053E+04  2.606549E+05 -1.228996E-09  4.060040E-09
       108  12  5.674865E+05  1.981890E+05  4.718260E+04  2.505829E+05  3.577203E-08  2.092892E-08
       108  13  2.539094E+05  8.604477E+04 -1.896248E+02  1.621426E+05 -6.328006E-11 -1.650298E-09
       108  14  2.572330E+05  8.275879E+04 -9.516778E+01  1.583614E+05  1.139439E-09 -9.250962E-09
       108  15  2.539308E+05  8.608900E+04 -3.533105E+01  1.621326E+05  6.773423E-09 -8.873042E-09
       108  16 -1.578812E+05 -6.124470E+04 -6.265852E+04  4.607927E+04  2.119818E-08  9.561635E-09
       108  17 -1.053509E+05 -4.689261E+04 -5.478251E+04  5.612417E+04 -2.961129E-09  2.875107E-09
       108  18 -5.952217E+04 -2.600189E+04 -4.725555E+04  7.372339E+04 -2.650094E-08 -4.893593E-09
       108  19  6.658889E+05  2.333558E+05  6.228089E+04  2.782797E+05 -4.671910E+03  3.602649E+04
       108  20  6.199597E+05  2.124255E+05  5.459252E+04  2.606548E+05 -2.911303E+03  3.241030E+04
       108  21  5.674867E+05  1.981899E+05  4.718414E+04  2.505828E+05 -1.078366E+03  2.860458E+04
       108  22  2.539098E+05  8.604599E+04 -1.872742E+02  1.621423E+05 -1.231455E+04  3.315098E+04
       108  23  2.572334E+05  8.275975E+04 -9.331958E+01  1.583611E+05 -1.095041E+04  2.938437E+04
       108  24  2.539311E+05  8.608971E+04 -3.394567E+01  1.621324E+05 -9.513867E+03  2.542816E+04
       108  25 -1.578805E+05 -6.124361E+04 -6.265604E+04  4.607878E+04 -1.995176E+04  3.027752E+04
       108  26 -1.053503E+05 -4.689176E+04 -5.478053E+04  5.612377E+04 -1.898456E+04  2.636030E+04
       108  27 -5.952169E+04 -2.600127E+04 -4.725401E+04  7.372307E+04 -1.794497E+04  2.225338E+04
       109   1  5.366119E+05  1.871255E+05  4.232943E+04  2.418946E+05  2.037050E+02 -2.624709E+04
       109   2  4.907757E+05  1.662690E+05  3.506202E+04  2.242524E+05 -1.372988E+03 -2.222918E+04
       109   3  4.383234E+05  1.520524E+05  2.783882E+04  2.141661E+05 -2.957465E+03 -1.819226E+04
       109   4  2.539337E+05  8.609607E+04 -1.249242E+01  1.621329E+05  8.631284E+03 -2.307306E+04
       109   5  2.572521E+05  8.278786E+04  3.170825E+01  1.583543E+05  7.094162E+03 -1.903949E+04
       109   6  2.539437E+05  8.611120E+04  8.828751E+01  1.621306E+05  5.549258E+03 -1.498691E+04
       109   7 -2.865759E+04 -1.492457E+04 -4.235501E+04  8.240548E+04  1.705481E+04 -1.990056E+04
       109   8  2.378923E+04 -6.867543E+02 -3.499852E+04  9.248010E+04  1.555790E+04 -1.585108E+04
       109   9  6.960323E+04  2.017467E+04 -2.766171E+04  1.101104E+05  1.405321E+04 -1.178260E+04
       109  10  5.366117E+05  1.871247E+05  4.232813E+04  2.418946E+05 -2.933144E-08 -4.854924E-09
       109  11  4.907755E+05  1.662685E+05  3.506109E+04  2.242524E+05 -4.037093E-09  4.939569E-09
       109  12  4.383233E+05  1.520520E+05  2.783819E+04  2.141660E+05  2.447509E-08  8.844383E-09
       109  13  2.539335E+05  8.609548E+04 -1.363302E+01  1.621331E+05  6.405257E-09 -1.122957E-08
       109  14  2.572519E+05  8.278746E+04  3.093234E+01  1.583544E+05 -9.305240E-11 -7.436684E-09
       109  15  2.539436E+05  8.611095E+04  8.780749E+01  1.621307E+05  8.619978E-10  1.414903E-09
       109  16 -2.865801E+04 -1.492507E+04 -4.235630E+04  8.240576E+04  3.809976E-08  2.308351E-08
       109  17  2.378890E+04 -6.870891E+02 -3.499945E+04  9.248030E+04  4.530568E-09  7.837997E-09
       109  18  6.960298E+04  2.017447E+04 -2.766234E+04  1.101106E+05 -2.598193E-08 -1.078711E-08
       109  19  5.366119E+05  1.871255E+05  4.232943E+04  2.418946E+05 -2.037050E+02  2.624709E+04
       109  20  4.907757E+05  1.662690E+05  3.506202E+04  2.242524E+05  1.372988E+03  2.222918E+04
       109  21  4.383234E+05  1.520524E+05  2.783882E+04  2.141661E+05  2.957465E+03  1.819226E+04
       109  22  2.539337E+05  8.609607E+04 -1.249242E+01  1.621329E+05 -8.631284E+03  2.307306E+04
       109  23  2.572521E+05  8.278786E+04  3.170825E+01  1.583543E+05 -7.094162E+03  1.903949E+04
       109  24  2.539437E+05  8.611120E+04  8.828751E+01  1.621306E+05 -5.549258E+03  1.498691E+04
       109  25 -2.865759E+04 -1.492457E+04 -4.235501E+04  8.240548E+04 -1.705481E+04  1.990056E+04
       109  26  2.378923E+04 -6.867543E+02 -3.499852E+04  9.248010E+04 -1.555790E+04  1.585108E+04
       109  27  6.960323E+04  2.017467E+04 -2.766171E+04  1.101104E+05 -1.405321E+04  1.178260E+04
       110   1  4.074799E+05  1.409943E+05  2.302898E+04  2.054825E+05 -3.866179E+03 -1.583010E+04
       110   2  3.616651E+05  1.201441E+05  1.587473E+04  1.878492E+05 -5.497488E+03 -1.180514E+04
       110   3  3.092360E+05  1.059302E+05  8.796051E+03  1.777716E+05 -7.125740E+03 -7.789021E+03
       110   4  2.539501E+05  8.611337E+04  1.255105E+02  1.621320E+05  4.638853E+03 -1.262506E+04
       110   5  2.572579E+05  8.279434E+04  2.390622E+02  1.583547E+05  2.988868E+03 -8.606775E+03
       110   6  2.539534E+05  8.611543E+04  4.430352E+02  1.621325E+05  1.341938E+03 -4.597345E+03
       110   7  1.004441E+05  3.123429E+04 -2.277845E+04  1.187911E+05  1.314177E+04 -9.420819E+03
       110   8  1.528619E+05  4.544552E+04 -1.539662E+04  1.288648E+05  1.147377E+04 -5.408955E+03
       110   9  1.986742E+05  6.630106E+04 -7.909719E+03  1.464947E+05  9.808824E+03 -1.405968E+03
       110  10  4.074798E+05  1.409941E+05  2.302848E+04  2.054824E+05 -1.227263E-07 -5.032455E-08
       110  11  3.616651E+05  1.201440E+05  1.587442E+04  1.878492E+05  1.869640E-09 -8.663379E-09
       110  12  3.092359E+05  1.059301E+05  8.795842E+03  1.777715E+05  1.275523E-07  3.932250E-08
       110  13  2.539501E+05  8.611319E+04  1.251704E+02  1.621320E+05  2.053245E-09 -3.628713E-09
       110  14  2.572579E+05  8.279426E+04  2.389062E+02  1.583547E+05  5.108657E-09 -2.140373E-09
       110  15  2.539534E+05  8.611541E+04  4.429921E+02  1.621325E+05  9.444832E-10 -1.458774E-09
       110  16  1.004439E+05  3.123414E+04 -2.277894E+04  1.187912E+05  1.252484E-07  4.755846E-08
       110  17  1.528618E+05  4.544545E+04 -1.539692E+04  1.288648E+05 -3.403016E-09  1.683028E-09
       110  18  1.986741E+05  6.630103E+04 -7.909903E+03  1.464947E+05 -1.271761E-07 -4.603571E-08
       110  19  4.074799E+05  1.409943E+05  2.302898E+04  2.054825E+05  3.866179E+03  1.583010E+04
       110  20  3.616651E+05  1.201441E+05  1.587473E+04  1.878492E+05  5.497488E+03  1.180514E+04
       110  21  3.092360E+05  1.059302E+05  8.796051E+03  1.777716E+05  7.125740E+03  7.789021E+03
       110  22  2.539501E+05  8.611337E+04  1.255105E+02  1.621320E+05 -4.638853E+03  1.262506E+04
       110  23  2.572579E+05  8.279434E+04  2.390622E+02  1.583547E+05 -2.988868E+03  8.606775E+03
       110  24  2.539534E+05  8.611543E+04  4.430352E+02  1.621325E+05 -1.341938E+03  4.597345E+03
       110  25  1.004441E+05  3.123429E+04 -2.277845E+04  1.187911E+05 -1.314177E+04  9.420819E+03
       110  26  1.528619E+05  4.544552E+04 -1.539662E+04  1.288648E+05 -1.147377E+04  5.408955E+03
       110  27  1.986742E+05  6.630106E+04 -7.909719E+03  1.464947E+05 -9.808824E+03  1.405968E+03
       111   1  2.784052E+05  9.488039E+04  4.089456E+03  1.691104E+05 -8.102877E+03 -5.460882E+03
       111   2  2.325903E+05  7.401498E+04 -2.777237E+03  1.514499E+05 -9.950356E+03 -1.585500E+03
       111   3  1.802272E+05  5.985991E+04 -9.370267E+03  1.413298E+05 -1.176132E+04  2.193378E+03
       111   4  2.539727E+05  8.611359E+04  5.931663E+02  1.621391E+05  3.673272E+02 -2.268185E+03
       111   5  2.572376E+05  8.280775E+04  1.082455E+03  1.583432E+05 -1.682344E+03  1.530895E+03
       111   6  2.539912E+05  8.625176E+04  2.005202E+03  1.620866E+05 -3.695535E+03  5.233481E+03
       111   7  2.295413E+05  7.734704E+04 -2.902736E+03  1.551683E+05  8.837080E+03  9.243393E+02
       111   8  2.818856E+05  9.160064E+04  4.942429E+03  1.652368E+05  6.586015E+03  4.647419E+03
       111   9  3.277621E+05  1.126446E+05  1.338112E+04  1.828459E+05  4.371354E+03  8.274002E+03
       111  10  2.784051E+05  9.488034E+04  4.089276E+03  1.691104E+05  3.101853E-09 -2.470325E-09
       111  11  2.325902E+05  7.401495E+04 -2.777428E+03  1.514498E+05  8.816395E-10 -1.746369E-09
       111  12  1.802271E+05  5.985987E+04 -9.370536E+03  1.413298E+05  1.410896E-09  3.439630E-09
       111  13  2.539727E+05  8.611358E+04  5.931564E+02  1.621391E+05  2.039410E-11  2.064803E-09
       111  14  2.572376E+05  8.280775E+04  1.082445E+03  1.583432E+05 -4.827353E-09  8.098183E-10
       111  15  2.539912E+05  8.625173E+04  2.005124E+03  1.620866E+05  1.004606E-09 -2.677945E-09
       111  16  2.295413E+05  7.734701E+04 -2.902884E+03  1.551683E+05 -4.810438E-09 -3.325281E-10
       111  17  2.818856E+05  9.160060E+04  4.942307E+03  1.652368E+05 -9.502955E-10 -4.051650E-09
       111  18  3.277621E+05  1.126445E+05  1.338095E+04  1.828459E+05  3.666082E-09  8.135181E-10
       111  19  2.784052E+05  9.488039E+04  4.089456E+03  1.691104E+05  8.102877E+03  5.460882E+03
       111  20  2.325903E+05  7.401498E+04 -2.777237E+03  1.514499E+05  9.950356E+03  1.585500E+03
       111  21  1.802272E+05  5.985991E+04 -9.370267E+03  1.413298E+05  1.176132E+04 -2.193378E+03
       111  22  2.539727E+05  8.611359E+04  5.931663E+02  1.621391E+05 -3.673272E+02  2.268185E+03
       111  23  2.572376E+05  8.280775E+04  1.082455E+03  1.583432E+05  1.682344E+03 -1.530895E+03
       111  24  2.539912E+05  8.625176E+04  2.005202E+03  1.620866E+05  3.695535E+03 -5.233481E+03
       111  25  2.295413E+05  7.734704E+04 -2.902736E+03  1.551683E+05 -8.837080E+03 -9.243393E+02
       111  26  2.818856E+05  9.160064E+04  4.942429E+03  1.652368E+05 -6.586015E+03 -4.647419E+03
       111  27  3.277621E+05  1.126446E+05  1.338112E+04  1.828459E+05 -4.371354E+03 -8.274002E+03
       112   1  1.493673E+05  4.891365E+04 -1.368506E+04  1.328098E+05 -1.300981E+04  4.329418E+03
       112   2  1.040580E+05  2.786110E+04 -1.960756E+04  1.142060E+05 -1.497996E+04  7.509074E+03
       112   3  5.274259E+04  1.467073E+04 -2.467700E+04  1.027852E+05 -1.661998E+04  9.813704E+03
       112   4  2.541409E+05  8.628710E+04  2.684291E+03  1.621167E+05 -4.916492E+03  7.379749E+03
       112   5  2.571553E+05  8.353979E+04  4.965714E+03  1.580104E+05 -8.716724E+03  9.869199E+03
       112   6  2.545232E+05  8.901636E+04  9.549705E+03  1.610858E+05 -1.218691E+04  1.148373E+04
       112   7  3.589263E+05  1.236617E+05  1.905372E+04  1.914283E+05  3.178264E+03  1.043062E+04
       112   8  4.102768E+05  1.392207E+05  2.953841E+04  2.018248E+05 -2.451896E+03  1.222994E+04
       112   9  4.563448E+05  1.633656E+05  4.377471E+04  2.194036E+05 -7.752370E+03  1.315434E+04
       112  10  1.493671E+05  4.891358E+04 -1.368541E+04  1.328098E+05  3.170939E-09  1.682371E-09
       112  11  1.040577E+05  2.786098E+04 -1.960809E+04  1.142061E+05  7.037387E-09  1.226377E-09
       112  12  5.274227E+04  1.467055E+04 -2.467770E+04  1.027853E+05  3.119176E-09 -1.651161E-09
       112  13  2.541408E+05  8.628703E+04  2.684143E+03  1.621167E+05 -7.051999E-10  1.861188E-09
       112  14  2.571552E+05  8.353966E+04  4.965388E+03  1.580105E+05  4.717108E-10 -5.583148E-10
       112  15  2.545230E+05  8.901618E+04  9.549178E+03  1.610859E+05 -4.178133E-09 -1.158149E-09
       112  16  3.589263E+05  1.236616E+05  1.905350E+04  1.914283E+05  6.430063E-09  1.321330E-10
       112  17  4.102768E+05  1.392206E+05  2.953812E+04  2.018248E+05  6.118798E-09 -1.790165E-09
       112  18  4.563447E+05  1.633654E+05  4.377428E+04  2.194037E+05 -2.891341E-09 -3.111716E-09
       112  19  1.493673E+05  4.891365E+04 -1.368506E+04  1.328098E+05  1.300981E+04 -4.329418E+03
       112  20  1.040580E+05  2.786110E+04 -1.960756E+04  1.142060E+05  1.497996E+04 -7.509074E+03
       112  21  5.274259E+04  1.467073E+04 -2.467700E+04  1.027852E+05  1.661998E+04 -9.813704E+03
       112  22  2.541409E+05  8.628710E+04  2.684291E+03  1.621167E+05  4.916492E+03 -7.379749E+03
       112  23  2.571553E+05  8.353979E+04  4.965714E+03  1.580104E+05  8.716724E+03 -9.869199E+03
       112  24  2.545232E+05  8.901636E+04  9.549705E+03  1.610858E+05  1.218691E+04 -1.148373E+04
       112  25  3.589263E+05  1.236617E+05  1.905372E+04  1.914283E+05 -3.178264E+03 -1.043062E+04
       112  26  4.102768E+05  1.392207E+05  2.953841E+04  2.018248E+05  2.451896E+03 -1.222994E+04
       112  27  4.563448E+05  1.633656E+05  4.377471E+04  2.194036E+05  7.752370E+03 -1.315434E+04
       113   1  2.164992E+04  5.203846E+03 -2.760424E+04  9.557771E+04 -1.890460E+04  1.074276E+04
       113   2 -1.465218E+04 -1.815281E+04 -3.160242E+04  6.235335E+04 -1.447647E+04  1.044972E+04
       113   3 -5.083509E+04 -1.753538E+04 -3.347940E+04  3.109131E+04 -7.066677E+03  2.238412E+03
       113   4  2.560387E+05  8.979664E+04  1.285634E+04  1.612224E+05 -1.422484E+04  1.250554E+04
       113   5  2.570929E+05  9.559448E+04  2.472208E+04  1.529211E+05 -2.634719E+04  5.976152E+03
       113   6  2.615396E+05  1.286387E+05  5.182123E+04  1.465826E+05 -3.548899E+04 -8.469497E+03
       113   7  4.904901E+05  1.743965E+05  5.331659E+04  2.268913E+05 -9.543126E+03  1.426904E+04
       113   8  5.289146E+05  2.093548E+05  8.104324E+04  2.435276E+05 -3.822342E+04  1.499805E+03
       113   9  5.740066E+05  2.748333E+05  1.371145E+05  2.621297E+05 -6.392622E+04 -1.918637E+04
       113  10  2.164950E+04  5.203626E+03 -2.760513E+04  9.557787E+04 -2.584678E-09 -1.625658E-09
       113  11 -1.465243E+04 -1.815298E+04 -3.160302E+04  6.235348E+04 -1.439087E-09  1.083173E-09
       113  12 -5.083515E+04 -1.753540E+04 -3.347950E+04  3.109133E+04  5.336345E-10 -8.815488E-10
       113  13  2.560385E+05  8.979642E+04  1.285566E+04  1.612225E+05 -8.239384E-09  2.342578E-09
       113  14  2.570921E+05  9.559425E+04  2.472071E+04  1.529212E+05 -3.115317E-10  3.961069E-09
       113  15  2.615383E+05  1.286383E+05  5.181873E+04  1.465823E+05 -1.539495E-09 -2.329142E-10
       113  16  4.904900E+05  1.743962E+05  5.331604E+04  2.268914E+05 -7.609134E-10 -4.281070E-09
       113  17  5.289131E+05  2.093544E+05  8.104050E+04  2.435277E+05 -4.501066E-09  1.027087E-09
       113  18  5.740021E+05  2.748318E+05  1.371062E+05  2.621287E+05 -1.911506E-09 -1.883573E-09
       113  19  2.164992E+04  5.203846E+03 -2.760424E+04  9.557771E+04  1.890460E+04 -1.074276E+04
       113  20 -1.465218E+04 -1.815281E+04 -3.160242E+04  6.235335E+04  1.447647E+04 -1.044972E+04
       113  21 -5.083509E+04 -1.753538E+04 -3.347940E+04  3.109131E+04  7.066677E+03 -2.238412E+03
       113  22  2.560387E+05  8.979664E+04  1.285634E+04  1.612224E+05  1.422484E+04 -1.250554E+04
       113  23  2.570929E+05  9.559448E+04  2.472208E+04  1.529211E+05  2.634719E+04 -5.976152E+03
       113  24  2.615396E+05  1.286387E+05  5.182123E+04  1.465826E+05  3.548899E+04  8.469497E+03
       113  25  4.904901E+05  1.743965E+05  5.331659E+04  2.268913E+05  9.543126E+03 -1.426904E+04
       113  26  5.289146E+05  2.093548E+05  8.104324E+04  2.435276E+05  3.822342E+04 -1.499805E+03
       113  27  5.740066E+05  2.748333E+05  1.371145E+05  2.621297E+05  6.392622E+04  1.918637E+04
       114   1 -2.394532E+05 -1.122035E+06 -2.706899E+05  8.284070E+04 -4.224510E+03 -1.063466E+05
       114   2 -7.978700E+04 -1.014771E+06 -1.640885E+05  2.344915E+04 -1.226850E+04 -6.374896E+04
       114   3 -7.221635E+04 -9.506542E+05 -1.232011E+05  3.074926E+04 -9.200442E+03 -2.112756E+04
       114   4 -1.193256E+05 -6.415534E+05 -1.517864E+05  4.593804E+04 -4.229106E+03 -9.990811E+04
       114   5  1.815589E+04 -6.204287E+05 -6.926399E+04  1.269409E+04 -1.226862E+04 -6.261187E+04
       114   6  4.515232E+03 -6.415062E+05 -4.873584E+04  4.614415E+04 -9.195601E+03 -2.529811E+04
       114   7  7.897084E+02 -1.608590E+05 -3.289917E+04  9.006817E+03 -4.234468E+03 -9.346463E+04
       114   8  1.160879E+05 -2.259441E+05  2.554952E+04  1.932218E+03 -1.226878E+04 -6.147404E+04
       114   9  8.124076E+04 -3.322700E+05  2.572275E+04  6.154676E+04 -9.190968E+03 -2.947073E+04
       114  10 -2.394563E+05 -1.122047E+06 -2.707112E+05  8.284034E+04 -4.350225E-10  6.432597E-09
       114  11 -7.978826E+04 -1.014775E+06 -1.640964E+05  2.344852E+04 -3.925553E-09  3.786368E-09
       114  12 -7.221656E+04 -9.506547E+05 -1.232021E+05  3.074910E+04  1.567603E-09  3.334365E-10
       114  13 -1.193283E+05 -6.415642E+05 -1.518052E+05  4.593770E+04  1.113151E-10 -4.581565E-10
       114  14  1.815467E+04 -6.204330E+05 -6.927165E+04  1.269347E+04 -6.161275E-09 -4.452900E-09
       114  15  4.514969E+03 -6.415069E+05 -4.873720E+04  4.614396E+04  9.600425E-10  7.126684E-11
       114  16  7.873432E+02 -1.608684E+05 -3.291562E+04  9.006498E+03  7.745692E-10  2.842723E-11
       114  17  1.160867E+05 -2.259482E+05  2.554213E+04  1.931610E+03  2.307208E-09 -4.274777E-09
       114  18  8.124043E+04 -3.322710E+05  2.572096E+04  6.154654E+04 -1.950015E-09 -7.267908E-10
       114  19 -2.394532E+05 -1.122035E+06 -2.706899E+05  8.284070E+04  4.224510E+03  1.063466E+05
       114  20 -7.978700E+04 -1.014771E+06 -1.640885E+05  2.344915E+04  1.226850E+04  6.374896E+04
       114  21 -7.221635E+04 -9.506542E+05 -1.232011E+05  3.074926E+04  9.200442E+03  2.112756E+04
       114  22 -1.193256E+05 -6.415534E+05 -1.517864E+05  4.593804E+04  4.229106E+03  9.990811E+04
       114  23  1.815589E+04 -6.204287E+05 -6.926399E+04  1.269409E+04  1.226862E+04  6.261187E+04
       114  24  4.515232E+03 -6.415062E+05 -4.873584E+04  4.614415E+04  9.195601E+03  2.529811E+04
       114  25  7.897084E+02 -1.608590E+05 -3.289917E+04  9.006817E+03  4.234468E+03  9.346463E+04
       114  26  1.160879E+05 -2.259441E+05  2.554952E+04  1.932218E+03  1.226878E+04  6.147404E+04
       114  27  8.124076E+04 -3.322700E+05  2.572275E+04  6.154676E+04  9.190968E+03  2.947073E+04
       115   1 -5.869571E+04 -8.205757E+05 -8.832949E+04  5.179745E+04 -5.534847E+03 -1.619507E+04
       115   2 -2.077781E+04 -7.290493E+05 -5.776817E+04  1.254120E+04 -3.019381E+03  1.296920E+03
       115   3 -1.575403E+04 -6.478171E+05 -4.678647E+04  4.096353E+04 -1.768034E+02  1.879103E+04
       115   4 -1.244558E+04 -6.344018E+05 -4.347906E+04  4.629569E+04 -5.533316E+03 -1.733535E+04
       115   5  3.998939E+03 -6.292640E+05 -3.374561E+04  1.245690E+04 -3.017940E+03  3.216554E+00
       115   6 -1.242049E+04 -6.343988E+05 -4.348173E+04  4.629676E+04 -1.751937E+02  1.734150E+04
       115   7  3.380212E+04 -4.481960E+05  1.368926E+03  4.079229E+04 -5.531764E+03 -1.847596E+04
       115   8  2.877496E+04 -5.294696E+05 -9.723741E+03  1.237259E+04 -3.016499E+03 -1.290695E+03
       115   9 -9.086860E+03 -6.209803E+05 -4.017699E+04  5.163011E+04 -1.736090E+02  1.589193E+04
       115  10 -5.869581E+04 -8.205759E+05 -8.833004E+04  5.179737E+04  1.961338E-09 -4.898174E-09
       115  11 -2.077782E+04 -7.290493E+05 -5.776819E+04  1.254120E+04  2.026789E-11  1.569939E-09
       115  12 -1.575413E+04 -6.478175E+05 -4.678714E+04  4.096353E+04  1.518082E-09  7.082655E-09
       115  13 -1.244570E+04 -6.344021E+05 -4.347968E+04  4.629562E+04 -1.723029E-10 -5.255972E-10
       115  14  3.998929E+03 -6.292640E+05 -3.374562E+04  1.245690E+04 -5.845909E-09 -2.154319E-09
       115  15 -1.242057E+04 -6.343991E+05 -4.348230E+04  4.629676E+04 -5.431040E-10  1.643581E-09
       115  16  3.380200E+04 -4.481964E+05  1.368226E+03  4.079221E+04 -2.981234E-09  7.389114E-09
       115  17  2.877495E+04 -5.294696E+05 -9.723761E+03  1.237259E+04 -4.620919E-09 -2.597181E-09
       115  18 -9.086928E+03 -6.209805E+05 -4.017746E+04  5.163011E+04 -1.224317E-09 -6.750907E-09
       115  19 -5.869571E+04 -8.205757E+05 -8.832949E+04  5.179745E+04  5.534847E+03  1.619507E+04
       115  20 -2.077781E+04 -7.290493E+05 -5.776817E+04  1.254120E+04  3.019381E+03 -1.296920E+03
       115  21 -1.575403E+04 -6.478171E+05 -4.678647E+04  4.096353E+04  1.768034E+02 -1.879103E+04
       115  22 -1.244558E+04 -6.344018E+05 -4.347906E+04  4.629569E+04  5.533316E+03  1.733535E+04
       115  23  3.998939E+03 -6.292640E+05 -3.374561E+04  1.245690E+04  3.017940E+03 -3.216554E+00
       115  24 -1.242049E+04 -6.343988E+05 -4.348173E+04  4.629676E+04  1.751937E+02 -1.734150E+04
       115  25  3.380212E+04 -4.481960E+05  1.368926E+03  4.079229E+04  5.531764E+03  1.847596E+04
       115  26  2.877496E+04 -5.294696E+05 -9.723741E+03  1.237259E+04  3.016499E+03  1.290695E+03
       115  27 -9.086860E+03 -6.209803E+05 -4.017699E+04  5.163011E+04  1.736090E+02 -1.589193E+04
       116   1  3.181819E+04 -5.315709E+05 -2.218364E+04  6.187024E+04  2.959766E+03  2.853198E+04
       116   2  6.685206E+04 -4.244186E+05 -2.218603E+04  2.046785E+03  6.132359E+03  6.249508E+04
       116   3 -4.867223E+04 -3.590694E+05 -8.189077E+04  9.522291E+03  2.290421E+03  9.645476E+04
       116   4  4.535885E+03 -6.415360E+05 -4.875126E+04  4.626545E+04  2.962359E+03  2.530549E+04
       116   5  1.819868E+04 -6.203506E+05 -6.926521E+04  1.253605E+04  6.133380E+03  6.262192E+04
       116   6 -1.193083E+05 -6.415773E+05 -1.518279E+05  4.610923E+04  2.291744E+03  9.993004E+04
       116   7 -2.274638E+04 -7.514895E+05 -7.531958E+04  3.066343E+04  2.965115E+03  2.207957E+04
       116   8 -3.045709E+04 -8.162473E+05 -1.163471E+05  2.302199E+04  6.134405E+03  6.274872E+04
       116   9 -1.899454E+05 -9.240097E+05 -2.217702E+05  8.267950E+04  2.293478E+03  1.034037E+05
       116  10  3.181796E+04 -5.315718E+05 -2.218519E+04  6.187017E+04  1.195096E-09 -5.007559E-12
       116  11  6.685097E+04 -4.244228E+05 -2.219344E+04  2.046476E+03  3.405870E-09  3.451244E-09
       116  12 -4.867473E+04 -3.590794E+05 -8.190828E+04  9.522113E+03  2.429168E-09  5.344326E-09
       116  13  4.535704E+03 -6.415367E+05 -4.875248E+04  4.626539E+04  3.725253E-09  4.372239E-11
       116  14  1.819758E+04 -6.203549E+05 -6.927266E+04  1.253574E+04  3.531338E-09 -3.737446E-09
       116  15 -1.193110E+05 -6.415880E+05 -1.518467E+05  4.610904E+04  5.216293E-10  1.581966E-09
       116  16 -2.274652E+04 -7.514900E+05 -7.532052E+04  3.066338E+04 -4.043701E-09  3.980184E-09
       116  17 -3.045819E+04 -8.162515E+05 -1.163545E+05  2.302168E+04 -4.218747E-09 -4.022248E-09
       116  18 -1.899482E+05 -9.240212E+05 -2.217904E+05  8.267931E+04 -2.896357E-09 -5.855325E-09
       116  19  3.181819E+04 -5.315709E+05 -2.218364E+04  6.187024E+04 -2.959766E+03 -2.853198E+04
       116  20  6.685206E+04 -4.244186E+05 -2.218603E+04  2.046785E+03 -6.132359E+03 -6.249508E+04
       116  21 -4.867223E+04 -3.590694E+05 -8.189077E+04  9.522291E+03 -2.290421E+03 -9.645476E+04
       116  22  4.535885E+03 -6.415360E+05 -4.875126E+04  4.626545E+04 -2.962359E+03 -2.530549E+04
       116  23  1.819868E+04 -6.203506E+05 -6.926521E+04  1.253605E+04 -6.133380E+03 -6.262192E+04
       116  24 -1.193083E+05 -6.415773E+05 -1.518279E+05  4.610923E+04 -2.291744E+03 -9.993004E+04
       116  25 -2.274638E+04 -7.514895E+05 -7.531958E+04  3.066343E+04 -2.965115E+03 -2.207957E+04
       116  26 -3.045709E+04 -8.162473E+05 -1.163471E+05  2.302199E+04 -6.134405E+03 -6.274872E+04
       116  27 -1.899454E+05 -9.240097E+05 -2.217702E+05  8.267950E+04 -2.293478E+03 -1.034037E+05
       117   1  4.811069E+05  1.654498E+05  1.001945E+05  1.778121E+05  4.772325E+04  1.647597E+04
       117   2  4.639610E+05  9.157782E+04  5.474365E+04  1.774017E+05  3.070909E+04  7.035565E+03
       117   3  4.658287E+05  8.327458E+04  3.905230E+04  1.682784E+05  1.255910E+04  6.079596E+02
       117   4  3.836558E+05  1.094407E+05  7.011652E+04  1.314889E+05  4.510441E+04  1.548633E+04
       117   5  3.706133E+05  5.064240E+04  2.968673E+04  1.457311E+05  2.998910E+04  6.763559E+03
       117   6  3.762119E+05  5.704151E+04  1.751572E+04  1.512595E+05  1.373756E+04  1.052714E+03
       117   7  2.862160E+05  5.343726E+04  4.003802E+04  8.517405E+04  4.248604E+04  1.449708E+04
       117   8  2.772746E+05  9.708617E+03  4.629143E+03  1.140653E+05  2.926922E+04  6.491616E+03
       117   9  2.866025E+05  3.080820E+04 -4.021526E+03  1.342424E+05  1.491584E+04  1.497435E+03
       117  10  4.811044E+05  1.654489E+05  1.001897E+05  1.778114E+05 -7.363580E-09 -4.153367E-09
       117  11  4.639600E+05  9.157751E+04  5.474179E+04  1.774015E+05 -4.406814E-09 -2.589712E-09
       117  12  4.658285E+05  8.327454E+04  3.905201E+04  1.682784E+05  3.486389E-09  4.981114E-09
       117  13  3.836535E+05  1.094399E+05  7.011225E+04  1.314883E+05 -3.268674E-09  1.046326E-09
       117  14  3.706123E+05  5.064211E+04  2.968496E+04  1.457309E+05 -4.839078E-09  7.833571E-09
       117  15  3.762117E+05  5.704146E+04  1.751536E+04  1.512595E+05 -1.996435E-09 -1.557836E-09
       117  16  2.862140E+05  5.343655E+04  4.003423E+04  8.517356E+04  5.449241E-09  6.247509E-09
       117  17  2.772736E+05  9.708342E+03  4.627454E+03  1.140651E+05 -9.867533E-09  2.330448E-10
       117  18  2.866022E+05  3.080814E+04 -4.021948E+03  1.342424E+05 -1.310838E-08 -8.067385E-09
       117  19  4.811069E+05  1.654498E+05  1.001945E+05  1.778121E+05 -4.772325E+04 -1.647597E+04
       117  20  4.639610E+05  9.157782E+04  5.474365E+04  1.774017E+05 -3.070909E+04 -7.035565E+03
       117  21  4.658287E+05  8.327458E+04  3.905230E+04  1.682784E+05 -1.255910E+04 -6.079596E+02
       117  22  3.836558E+05  1.094407E+05  7.011652E+04  1.314889E+05 -4.510441E+04 -1.548633E+04
       117  23  3.706133E+05  5.064240E+04  2.968673E+04  1.457311E+05 -2.998910E+04 -6.763559E+03
       117  24  3.762119E+05  5.704151E+04  1.751572E+04  1.512595E+05 -1.373756E+04 -1.052714E+03
       117  25  2.862160E+05  5.343726E+04  4.003802E+04  8.517405E+04 -4.248604E+04 -1.449708E+04
       117  26  2.772746E+05  9.708617E+03  4.629143E+03  1.140653E+05 -2.926922E+04 -6.491616E+03
       117  27  2.866025E+05  3.080820E+04 -4.021526E+03  1.342424E+05 -1.491584E+04 -1.497435E+03
       118   1  4.426373E+05  9.085818E+04  3.202165E+04  1.677482E+05  1.080929E+04  8.394352E+02
       118   2  4.313737E+05  7.719360E+04  2.141245E+04  1.613213E+05  6.926937E+03 -7.670731E+01
       118   3  4.167091E+05  7.467051E+04  1.499030E+04  1.603090E+05  2.979909E+03 -8.212430E+02
       118   4  3.739512E+05  6.360514E+04  1.411495E+04  1.473889E+05  1.105697E+04  9.328362E+02
       118   5  3.753399E+05  5.577375E+04  6.985527E+03  1.455391E+05  7.283026E+03  5.764156E+01
       118   6  3.733063E+05  5.906265E+04  3.957631E+03  1.491038E+05  3.444326E+03 -6.459833E+02
       118   7  3.052697E+05  3.635256E+04 -3.792140E+03  1.270317E+05  1.130462E+04  1.026224E+03
       118   8  3.193093E+05  3.435418E+04 -7.441629E+03  1.297582E+05  7.639079E+03  1.919763E+02
       118   9  3.299055E+05  4.345494E+04 -7.075141E+03  1.378993E+05  3.908706E+03 -4.707364E+02
       118  10  4.426372E+05  9.085815E+04  3.202143E+04  1.677482E+05 -4.270570E-09  1.448135E-09
       118  11  4.313736E+05  7.719359E+04  2.141236E+04  1.613213E+05  2.774618E-09  1.110524E-08
       118  12  4.167091E+05  7.467051E+04  1.499028E+04  1.603090E+05  3.502098E-09  4.248604E-09
       118  13  3.739511E+05  6.360511E+04  1.411472E+04  1.473889E+05 -2.975257E-09  8.374618E-10
       118  14  3.753399E+05  5.577374E+04  6.985427E+03  1.455391E+05  8.709046E-10  1.240125E-08
       118  15  3.733063E+05  5.906265E+04  3.957608E+03  1.491038E+05  1.611879E-09  5.662453E-09
       118  16  3.052696E+05  3.635253E+04 -3.792382E+03  1.270317E+05 -2.840631E-09 -6.596914E-09
       118  17  3.193093E+05  3.435416E+04 -7.441738E+03  1.297582E+05 -3.738603E-09  7.978878E-09
       118  18  3.299055E+05  4.345493E+04 -7.075170E+03  1.378993E+05 -5.796251E-10 -1.198789E-09
       118  19  4.426373E+05  9.085818E+04  3.202165E+04  1.677482E+05 -1.080929E+04 -8.394352E+02
       118  20  4.313737E+05  7.719360E+04  2.141245E+04  1.613213E+05 -6.926937E+03  7.670731E+01
       118  21  4.167091E+05  7.467051E+04  1.499030E+04  1.603090E+05 -2.979909E+03  8.212430E+02
       118  22  3.739512E+05  6.360514E+04  1.411495E+04  1.473889E+05 -1.105697E+04 -9.328362E+02
       118  23  3.753399E+05  5.577375E+04  6.985527E+03  1.455391E+05 -7.283026E+03 -5.764156E+01
       118  24  3.733063E+05  5.906265E+04  3.957631E+03  1.491038E+05 -3.444326E+03  6.459833E+02
       118  25  3.052697E+05  3.635256E+04 -3.792140E+03  1.270317E+05 -1.130462E+04 -1.026224E+03
       118  26  3.193093E+05  3.435418E+04 -7.441629E+03  1.297582E+05 -7.639079E+03 -1.919763E+02
       118  27  3.299055E+05  4.345494E+04 -7.075141E+03  1.378993E+05 -3.908706E+03  4.707364E+02
       119   1  4.015192E+05  7.036671E+04  1.031565E+04  1.566472E+05  2.315844E+03 -6.017973E+02
       119   2  3.909529E+05  6.195075E+04  5.512551E+03  1.497034E+05  1.238703E+03 -2.574942E+02
       119   3  3.748234E+05  5.984903E+04  1.450819E+03  1.493148E+05  1.579591E+02  9.632439E+01
       119   4  3.730607E+05  5.961137E+04  3.055958E+03  1.487472E+05  2.726540E+03 -4.468048E+02
       119   5  3.758158E+05  5.626363E+04  1.634237E+03  1.455418E+05  1.655429E+03 -1.002187E+02
       119   6  3.730066E+05  5.922906E+04  9.492248E+02  1.488916E+05  5.806967E+02  2.558761E+02
       119   7  3.446029E+05  4.885605E+04 -4.203824E+03  1.408475E+05  3.137217E+03 -2.918196E+02
       119   8  3.606789E+05  5.057652E+04 -2.244104E+03  1.413803E+05  2.072144E+03  5.705276E+01
       119   9  3.711898E+05  5.860909E+04  4.476309E+02  1.484684E+05  1.003433E+03  4.154274E+02
       119  10  4.015192E+05  7.036671E+04  1.031564E+04  1.566472E+05  9.537958E-10  1.156591E-09
       119  11  3.909529E+05  6.195075E+04  5.512548E+03  1.497034E+05  5.282459E-09  9.080432E-10
       119  12  3.748234E+05  5.984903E+04  1.450819E+03  1.493148E+05  5.190268E-09 -5.620398E-09
       119  13  3.730607E+05  5.961137E+04  3.055944E+03  1.487472E+05  7.341071E-10  8.950850E-10
       119  14  3.758158E+05  5.626363E+04  1.634232E+03  1.455418E+05  6.803549E-09  7.390649E-09
       119  15  3.730066E+05  5.922906E+04  9.492240E+02  1.488916E+05  1.632902E-09 -2.527572E-09
       119  16  3.446029E+05  4.885604E+04 -4.203843E+03  1.408475E+05  4.453059E-11 -4.879833E-09
       119  17  3.606789E+05  5.057651E+04 -2.244112E+03  1.413803E+05  2.239806E-09  3.899060E-09
       119  18  3.711898E+05  5.860909E+04  4.476287E+02  1.484684E+05 -1.516166E-09  3.971811E-09
       119  19  4.015192E+05  7.036671E+04  1.031565E+04  1.566472E+05 -2.315844E+03  6.017973E+02
       119  20  3.909529E+05  6.195075E+04  5.512551E+03  1.497034E+05 -1.238703E+03  2.574942E+02
       119  21  3.748234E+05  5.984903E+04  1.450819E+03  1.493148E+05 -1.579591E+02 -9.632439E+01
       119  22  3.730607E+05  5.961137E+04  3.055958E+03  1.487472E+05 -2.726540E+03  4.468048E+02
       119  23  3.758158E+05  5.626363E+04  1.634237E+03  1.455418E+05 -1.655429E+03  1.002187E+02
       119  24  3.730066E+05  5.922906E+04  9.492248E+02  1.488916E+05 -5.806967E+02 -2.558761E+02
       119  25  3.446029E+05  4.885605E+04 -4.203824E+03  1.408475E+05 -3.137217E+03  2.918196E+02
       119  26  3.606789E+05  5.057652E+04 -2.244104E+03  1.413803E+05 -2.072144E+03 -5.705276E+01
       119  27  3.711898E+05  5.860909E+04  4.476309E+02  1.484684E+05 -1.003433E+03 -4.154274E+02
       120   1  3.603890E+05  5.453404E+04 -2.522353E+03  1.454013E+05 -1.260321E+02  4.344682E+02
       120   2  3.499031E+05  4.655460E+04 -6.147469E+03  1.384041E+05 -6.310649E+02  1.006321E+03
       120   3  3.336211E+05  4.447173E+04 -9.572047E+03  1.380511E+05 -1.136472E+03  1.579311E+03
       120   4  3.729744E+05  5.927283E+04  7.517586E+02  1.488599E+05  2.937645E+02  5.929079E+02
       120   5  3.758705E+05  5.631072E+04  5.055596E+02  1.455430E+05 -2.105685E+02  1.165012E+03
       120   6  3.729702E+05  5.924501E+04  4.593617E+02  1.488703E+05 -7.152830E+02  1.738253E+03
       120   7  3.855599E+05  6.401162E+04  4.025845E+03  1.523186E+05  7.135690E+02  7.513505E+02
       120   8  4.018386E+05  6.606689E+04  7.158533E+03  1.526823E+05  2.099472E+02  1.323711E+03
       120   9  4.123211E+05  7.401844E+04  1.049068E+04  1.596902E+05 -2.940637E+02  1.897208E+03
       120  10  3.603890E+05  5.453404E+04 -2.522353E+03  1.454013E+05 -3.907750E-09 -4.014322E-09
       120  11  3.499031E+05  4.655460E+04 -6.147471E+03  1.384041E+05 -2.790294E-09  4.223679E-09
       120  12  3.336211E+05  4.447173E+04 -9.572054E+03  1.380511E+05  9.720731E-10  4.321824E-09
       120  13  3.729744E+05  5.927283E+04  7.517578E+02  1.488599E+05 -1.654663E-09 -2.196547E-10
       120  14  3.758705E+05  5.631072E+04  5.055569E+02  1.455430E+05 -3.101102E-09  4.069066E-09
       120  15  3.729702E+05  5.924500E+04  4.593551E+02  1.488703E+05 -3.799449E-09 -2.578023E-09
       120  16  3.855599E+05  6.401162E+04  4.025843E+03  1.523186E+05  4.851040E-09  3.041784E-09
       120  17  4.018386E+05  6.606689E+04  7.158530E+03  1.526823E+05  1.590161E-09  3.890264E-09
       120  18  4.123211E+05  7.401843E+04  1.049068E+04  1.596902E+05 -2.929964E-09  2.366473E-09
       120  19  3.603890E+05  5.453404E+04 -2.522353E+03  1.454013E+05  1.260321E+02 -4.344682E+02
       120  20  3.499031E+05  4.655460E+04 -6.147469E+03  1.384041E+05  6.310649E+02 -1.006321E+03
       120  21  3.336211E+05  4.447173E+04 -9.572047E+03  1.380511E+05  1.136472E+03 -1.579311E+03
       120  22  3.729744E+05  5.927283E+04  7.517586E+02  1.488599E+05 -2.937645E+02 -5.929079E+02
       120  23  3.758705E+05  5.631072E+04  5.055596E+02  1.455430E+05  2.105685E+02 -1.165012E+03
       120  24  3.729702E+05  5.924501E+04  4.593617E+02  1.488703E+05  7.152830E+02 -1.738253E+03
       120  25  3.855599E+05  6.401162E+04  4.025845E+03  1.523186E+05 -7.135690E+02 -7.513505E+02
       120  26  4.018386E+05  6.606689E+04  7.158533E+03  1.526823E+05 -2.099472E+02 -1.323711E+03
       120  27  4.123211E+05  7.401844E+04  1.049068E+04  1.596902E+05  2.940637E+02 -1.897208E+03
       121   1  3.192201E+05  3.906611E+04 -1.332211E+04  1.341260E+05 -1.363300E+03  1.938926E+03
       121   2  3.086799E+05  3.107544E+04 -1.650725E+04  1.270846E+05 -1.968239E+03  2.476523E+03
       121   3  2.923454E+05  2.903469E+04 -1.941029E+04  1.267171E+05 -2.573300E+03  3.014781E+03
       121   4  3.729692E+05  5.924950E+04  4.950429E+02  1.488795E+05 -9.414819E+02  2.098093E+03
       121   5  3.758696E+05  5.629763E+04  7.036458E+02  1.455339E+05 -1.546065E+03  2.635795E+03
       121   6  3.729754E+05  5.929553E+04  1.194037E+03  1.488620E+05 -2.150779E+03  3.174154E+03
       121   7  4.267212E+05  7.943307E+04  1.431196E+04  1.636342E+05 -5.196240E+02  2.257276E+03
       121   8  4.430636E+05  8.152006E+04  1.791414E+04  1.639849E+05 -1.123843E+03  2.795086E+03
       121   9  4.536114E+05  8.955668E+04  2.179776E+04  1.710093E+05 -1.728199E+03  3.333550E+03
       121  10  3.192201E+05  3.906611E+04 -1.332212E+04  1.341260E+05  2.220542E-09 -4.073638E-10
       121  11  3.086799E+05  3.107543E+04 -1.650727E+04  1.270846E+05 -1.705960E-09  5.340918E-10
       121  12  2.923453E+05  2.903468E+04 -1.941032E+04  1.267171E+05 -2.107881E-09 -4.208683E-10
       121  13  3.729692E+05  5.924949E+04  4.950329E+02  1.488795E+05 -8.016625E-10 -6.970715E-10
       121  14  3.758696E+05  5.629762E+04  7.036282E+02  1.455339E+05 -6.739442E-10 -3.639001E-09
       121  15  3.729754E+05  5.929552E+04  1.194009E+03  1.488620E+05  5.424271E-09 -5.332672E-09
       121  16  4.267212E+05  7.943306E+04  1.431195E+04  1.636342E+05 -3.958287E-09  1.577057E-10
       121  17  4.430636E+05  8.152005E+04  1.791412E+04  1.639849E+05 -1.687276E-09 -2.913224E-09
       121  18  4.536114E+05  8.955667E+04  2.179773E+04  1.710093E+05  8.239579E-09 -4.565091E-09
       121  19  3.192201E+05  3.906611E+04 -1.332211E+04  1.341260E+05  1.363300E+03 -1.938926E+03
       121  20  3.086799E+05  3.107544E+04 -1.650725E+04  1.270846E+05  1.968239E+03 -2.476523E+03
       121  21  2.923454E+05  2.903469E+04 -1.941029E+04  1.267171E+05  2.573300E+03 -3.014781E+03
       121  22  3.729692E+05  5.924950E+04  4.950429E+02  1.488795E+05  9.414819E+02 -2.098093E+03
       121  23  3.758696E+05  5.629763E+04  7.036458E+02  1.455339E+05  1.546065E+03 -2.635795E+03
       121  24  3.729754E+05  5.929553E+04  1.194037E+03  1.488620E+05  2.150779E+03 -3.174154E+03
       121  25  4.267212E+05  7.943307E+04  1.431196E+04  1.636342E+05  5.196240E+02 -2.257276E+03
       121  26  4.430636E+05  8.152006E+04  1.791414E+04  1.639849E+05  1.123843E+03 -2.795086E+03
       121  27  4.536114E+05  8.955668E+04  2.179776E+04  1.710093E+05  1.728199E+03 -3.333550E+03
       122   1  2.778219E+05  2.360018E+04 -2.286168E+04  1.229088E+05 -2.954342E+03  3.321608E+03
       122   2  2.671175E+05  1.539614E+04 -2.508996E+04  1.156670E+05 -4.583167E+03  3.477186E+03
       122   3  2.509768E+05  1.391102E+04 -2.608139E+04  1.150148E+05 -6.206033E+03  3.617424E+03
       122   4  3.730214E+05  5.923385E+04  1.552898E+03  1.489308E+05 -2.525294E+03  3.483419E+03
       122   5  3.757842E+05  5.619745E+04  2.747985E+03  1.455135E+05 -4.164034E+03  3.635210E+03
       122   6  3.731125E+05  5.988188E+04  5.187699E+03  1.486859E+05 -5.796846E+03  3.771651E+03
       122   7  4.682301E+05  9.486823E+04  2.596683E+04  1.749564E+05 -2.096172E+03  3.645258E+03
       122   8  4.844625E+05  9.699960E+04  3.058502E+04  1.753648E+05 -3.744819E+03  3.793265E+03
       122   9  4.952628E+05  1.058538E+05  3.645557E+04  1.823630E+05 -5.387570E+03  3.925911E+03
       122  10  2.778219E+05  2.360016E+04 -2.286172E+04  1.229089E+05 -1.584668E-09 -2.441965E-09
       122  11  2.671175E+05  1.539612E+04 -2.509002E+04  1.156670E+05 -1.945568E-09 -3.211202E-09
       122  12  2.509767E+05  1.391099E+04 -2.608149E+04  1.150148E+05 -2.881689E-09 -8.127475E-10
       122  13  3.730214E+05  5.923384E+04  1.552863E+03  1.489308E+05  5.465150E-09  8.270686E-10
       122  14  3.757841E+05  5.619743E+04  2.747928E+03  1.455136E+05  8.974221E-10 -9.364345E-10
       122  15  3.731125E+05  5.988186E+04  5.187609E+03  1.486859E+05 -1.266808E-09 -2.606670E-09
       122  16  4.682301E+05  9.486822E+04  2.596680E+04  1.749564E+05  6.879181E-09  1.940594E-09
       122  17  4.844625E+05  9.699958E+04  3.058497E+04  1.753648E+05  2.546534E-09 -5.238065E-10
       122  18  4.952627E+05  1.058537E+05  3.645549E+04  1.823630E+05 -2.424260E-10 -1.965882E-09
       122  19  2.778219E+05  2.360018E+04 -2.286168E+04  1.229088E+05  2.954342E+03 -3.321608E+03
       122  20  2.671175E+05  1.539614E+04 -2.508996E+04  1.156670E+05  4.583167E+03 -3.477186E+03
       122  21  2.509768E+05  1.391102E+04 -2.608139E+04  1.150148E+05  6.206033E+03 -3.617424E+03
       122  22  3.730214E+05  5.923385E+04  1.552898E+03  1.489308E+05  2.525294E+03 -3.483419E+03
       122  23  3.757842E+05  5.619745E+04  2.747985E+03  1.455135E+05  4.164034E+03 -3.635210E+03
       122  24  3.731125E+05  5.988188E+04  5.187699E+03  1.486859E+05  5.796846E+03 -3.771651E+03
       122  25  4.682301E+05  9.486823E+04  2.596683E+04  1.749564E+05  2.096172E+03 -3.645258E+03
       122  26  4.844625E+05  9.699960E+04  3.058502E+04  1.753648E+05  3.744819E+03 -3.793265E+03
       122  27  4.952628E+05  1.058538E+05  3.645557E+04  1.823630E+05  5.387570E+03 -3.925911E+03
       123   1  2.357915E+05  8.438091E+03 -2.837132E+04  1.127134E+05 -7.424551E+03  3.656731E+03
       123   2  2.248624E+05 -1.636144E+03 -2.668436E+04  1.036305E+05 -1.359232E+04  2.076439E+03
       123   3  2.120810E+05  3.208408E+03 -1.816046E+04  9.924566E+04 -1.964333E+04  1.872566E+02
       123   4  3.735247E+05  5.895639E+04  6.729757E+03  1.493041E+05 -6.917363E+03  3.847888E+03
       123   5  3.749799E+05  5.534839E+04  1.189336E+04  1.454955E+05 -1.328105E+04  2.193634E+03
       123   6  3.746207E+05  6.669628E+04  2.404782E+04  1.463849E+05 -1.952815E+04  2.304270E+02
       123   7  5.112759E+05  1.094755E+05  4.182916E+04  1.859018E+05 -6.410053E+03  4.039089E+03
       123   8  5.251194E+05  1.123345E+05  5.046923E+04  1.873697E+05 -1.296971E+04  2.310861E+03
       123   9  5.371867E+05  1.301867E+05  6.625404E+04  1.935356E+05 -1.941295E+04  2.736114E+02
       123  10  2.357914E+05  8.438062E+03 -2.837145E+04  1.127134E+05 -2.097364E-09  1.667845E-09
       123  11  2.248622E+05 -1.636198E+03 -2.668472E+04  1.036305E+05 -7.156099E-09  5.595994E-09
       123  12  2.120805E+05  3.208304E+03 -1.816119E+04  9.924566E+04 -1.175666E-08 -7.549678E-09
       123  13  3.735247E+05  5.895636E+04  6.729639E+03  1.493041E+05 -2.099822E-09 -5.391629E-09
       123  14  3.749797E+05  5.534834E+04  1.189302E+04  1.454955E+05  3.849602E-09  2.069686E-09
       123  15  3.746202E+05  6.669618E+04  2.404710E+04  1.463849E+05 -4.305633E-10 -6.136876E-09
       123  16  5.112758E+05  1.094755E+05  4.182905E+04  1.859019E+05  3.511893E-10 -1.277320E-09
       123  17  5.251193E+05  1.123345E+05  5.046890E+04  1.873697E+05  5.347007E-09  3.626361E-09
       123  18  5.371863E+05  1.301866E+05  6.625334E+04  1.935356E+05  6.848346E-09  3.668659E-09
       123  19  2.357915E+05  8.438091E+03 -2.837132E+04  1.127134E+05  7.424551E+03 -3.656731E+03
       123  20  2.248624E+05 -1.636144E+03 -2.668436E+04  1.036305E+05  1.359232E+04 -2.076439E+03
       123  21  2.120810E+05  3.208408E+03 -1.816046E+04  9.924566E+04  1.964333E+04 -1.872566E+02
       123  22  3.735247E+05  5.895639E+04  6.729757E+03  1.493041E+05  6.917363E+03 -3.847888E+03
       123  23  3.749799E+05  5.534839E+04  1.189336E+04  1.454955E+05  1.328105E+04 -2.193634E+03
       123  24  3.746207E+05  6.669628E+04  2.404782E+04  1.463849E+05  1.952815E+04 -2.304270E+02
       123  25  5.112759E+05  1.094755E+05  4.182916E+04  1.859018E+05  6.410053E+03 -4.039089E+03
       123  26  5.251194E+05  1.123345E+05  5.046923E+04  1.873697E+05  1.296971E+04 -2.310861E+03
       123  27  5.371867E+05  1.301867E+05  6.625404E+04  1.935356E+05  1.941295E+04 -2.736114E+02
       124   1  1.900669E+05 -2.556795E+03 -1.595581E+04  1.142258E+05 -2.581188E+04 -8.739314E+02
       124   2  1.812417E+05 -3.308149E+04  1.067463E+03  8.460871E+04 -4.988468E+04 -9.780991E+03
       124   3  2.074991E+05  4.288083E+04  6.353730E+04  3.565870E+04 -7.190446E+04 -2.413661E+04
       124   4  3.784759E+05  5.551114E+04  2.984455E+04  1.529783E+05 -2.401183E+04 -1.952063E+02
       124   5  3.669280E+05  4.659800E+04  5.058352E+04  1.458176E+05 -5.152276E+04 -1.039925E+04
       124   6  3.911296E+05  1.448311E+05  1.194821E+05  1.193279E+05 -7.698088E+04 -2.605313E+04
       124   7  5.669200E+05  1.135790E+05  7.564250E+04  1.917403E+05 -2.221117E+04  4.836544E+02
       124   8  5.526471E+05  1.262823E+05  1.000963E+05  2.070438E+05 -5.316137E+04 -1.101777E+04
       124   9  5.747930E+05  2.467958E+05  1.754231E+05  2.030222E+05 -8.205886E+04 -2.797091E+04
       124  10  1.900662E+05 -2.556974E+03 -1.595706E+04  1.142257E+05 -5.719490E-09 -4.121691E-09
       124  11  1.812390E+05 -3.308226E+04  1.062609E+03  8.460831E+04  4.898915E-09  3.539575E-09
       124  12  2.074934E+05  4.287882E+04  6.352650E+04  3.565731E+04  7.980349E-09  4.149224E-09
       124  13  3.784753E+05  5.551098E+04  2.984346E+04  1.529783E+05  3.112780E-10 -6.492038E-09
       124  14  3.669251E+05  4.659717E+04  5.057833E+04  1.458172E+05 -2.584897E-09 -8.449628E-09
       124  15  3.911231E+05  1.448288E+05  1.194697E+05  1.193263E+05 -2.155676E-09  9.855045E-10
       124  16  5.669194E+05  1.135789E+05  7.564157E+04  1.917403E+05 -2.857829E-09  1.048553E-09
       124  17  5.526441E+05  1.262815E+05  1.000907E+05  2.070433E+05 -1.282742E-08 -1.113090E-08
       124  18  5.747856E+05  2.467931E+05  1.754090E+05  2.030203E+05 -8.970499E-09 -3.380083E-09
       124  19  1.900669E+05 -2.556795E+03 -1.595581E+04  1.142258E+05  2.581188E+04  8.739314E+02
       124  20  1.812417E+05 -3.308149E+04  1.067463E+03  8.460871E+04  4.988468E+04  9.780991E+03
       124  21  2.074991E+05  4.288083E+04  6.353730E+04  3.565870E+04  7.190446E+04  2.413661E+04
       124  22  3.784759E+05  5.551114E+04  2.984455E+04  1.529783E+05  2.401183E+04  1.952063E+02
       124  23  3.669280E+05  4.659800E+04  5.058352E+04  1.458176E+05  5.152276E+04  1.039925E+04
       124  24  3.911296E+05  1.448311E+05  1.194821E+05  1.193279E+05  7.698088E+04  2.605313E+04
       124  25  5.669200E+05  1.135790E+05  7.564250E+04  1.917403E+05  2.221117E+04 -4.836544E+02
       124  26  5.526471E+05  1.262823E+05  1.000963E+05  2.070438E+05  5.316137E+04  1.101777E+04
       124  27  5.747930E+05  2.467958E+05  1.754231E+05  2.030222E+05  8.205886E+04  2.797091E+04
       125   1 -2.209354E+02 -4.816788E+05 -2.256346E+03 -1.406657E+02 -4.999107E+01  1.634448E+02
       125   2 -5.487870E+02 -4.831406E+05 -3.104992E+03  2.688529E+02 -9.759648E+01  1.405286E+03
       125   3 -1.426120E+03 -4.849050E+05 -4.900682E+03 -2.952296E+02 -1.689069E+02  2.647108E+03
       125   4 -6.575223E+00 -4.808067E+05 -2.058367E+03 -2.161944E+02 -5.002058E+01  1.846659E+02
       125   5  6.534994E+01 -4.806543E+05 -2.521931E+03  2.703223E+02 -9.764645E+01  1.441294E+03
       125   6 -4.147671E+02 -4.808070E+05 -3.942803E+03 -2.167607E+02 -1.689770E+02  2.697907E+03
       125   7  2.077850E+02 -4.799346E+05 -1.860389E+03 -2.917233E+02 -5.005010E+01  2.058870E+02
       125   8  6.794864E+02 -4.781679E+05 -1.938870E+03  2.717918E+02 -9.769641E+01  1.477303E+03
       125   9  5.965848E+02 -4.767090E+05 -2.984926E+03 -1.382913E+02 -1.690470E+02  2.748706E+03
       125  10 -2.209354E+02 -4.816788E+05 -2.256346E+03 -1.406657E+02  9.374860E-09  3.065966E-09
       125  11 -5.487875E+02 -4.831406E+05 -3.104995E+03  2.688530E+02  1.000696E-09  2.916760E-09
       125  12 -1.426122E+03 -4.849050E+05 -4.900695E+03 -2.952292E+02 -9.973491E-10  2.337358E-09
       125  13 -6.575235E+00 -4.808067E+05 -2.058367E+03 -2.161944E+02  1.575788E-09 -2.914611E-09
       125  14  6.534938E+01 -4.806543E+05 -2.521935E+03  2.703224E+02 -6.925459E-09 -4.361146E-10
       125  15 -4.147691E+02 -4.808070E+05 -3.942817E+03 -2.167604E+02 -1.934063E-09 -3.108323E-09
       125  16  2.077849E+02 -4.799346E+05 -1.860389E+03 -2.917233E+02  6.666630E-09 -1.562101E-09
       125  17  6.794858E+02 -4.781679E+05 -1.938875E+03  2.717919E+02  2.955370E-09  1.388360E-09
       125  18  5.965827E+02 -4.767090E+05 -2.984941E+03 -1.382910E+02  7.737187E-10 -5.947607E-10
       125  19 -2.209354E+02 -4.816788E+05 -2.256346E+03 -1.406657E+02  4.999107E+01 -1.634448E+02
       125  20 -5.487870E+02 -4.831406E+05 -3.104992E+03  2.688529E+02  9.759648E+01 -1.405286E+03
       125  21 -1.426120E+03 -4.849050E+05 -4.900682E+03 -2.952296E+02  1.689069E+02 -2.647108E+03
       125  22 -6.575223E+00 -4.808067E+05 -2.058367E+03 -2.161944E+02  5.002058E+01 -1.846659E+02
       125  23  6.534994E+01 -4.806543E+05 -2.521931E+03  2.703223E+02  9.764645E+01 -1.441294E+03
       125  24 -4.147671E+02 -4.808070E+05 -3.942803E+03 -2.167607E+02  1.689770E+02 -2.697907E+03
       125  25  2.077850E+02 -4.799346E+05 -1.860389E+03 -2.917233E+02  5.005010E+01 -2.058870E+02
       125  26  6.794864E+02 -4.781679E+05 -1.938870E+03  2.717918E+02  9.769641E+01 -1.477303E+03
       125  27  5.965848E+02 -4.767090E+05 -2.984926E+03 -1.382913E+02  1.690470E+02 -2.748706E+03
       126   1 -1.173105E+03 -4.870184E+05 -6.302051E+03  5.705856E+02 -2.184133E+02  3.430736E+03
       126   2 -1.286151E+03 -4.876350E+05 -9.891748E+03 -1.246830E+02 -2.937157E+02  7.582544E+03
       126   3 -7.165493E+03 -4.902378E+05 -1.762826E+04 -1.794228E+03 -3.504728E+02  1.173435E+04
       126   4  2.726595E+02 -4.811799E+05 -4.927889E+03 -2.143609E+02 -2.184856E+02  3.479918E+03
       126   5  5.520169E+02 -4.801888E+05 -8.144521E+03  2.691861E+02 -2.937626E+02  7.620195E+03
       126   6 -4.932881E+03 -4.811819E+05 -1.549991E+04 -2.215445E+02 -3.504785E+02  1.176048E+04
       126   7  1.718424E+03 -4.753414E+05 -3.553730E+03 -9.993148E+02 -2.185581E+02  3.529099E+03
       126   8  2.390181E+03 -4.727426E+05 -6.397299E+03  6.630599E+02 -2.938095E+02  7.657846E+03
       126   9 -2.700266E+03 -4.721259E+05 -1.337157E+04  1.351163E+03 -3.504842E+02  1.178661E+04
       126  10 -1.173108E+03 -4.870184E+05 -6.302073E+03  5.705862E+02 -2.116925E-09 -1.563599E-09
       126  11 -1.286167E+03 -4.876351E+05 -9.891856E+03 -1.246812E+02  2.826779E-10  3.809657E-09
       126  12 -7.165530E+03 -4.902380E+05 -1.762851E+04 -1.794225E+03 -9.287886E-10  3.247580E-09
       126  13  2.726562E+02 -4.811799E+05 -4.927912E+03 -2.143603E+02  2.475401E-09 -8.079133E-10
       126  14  5.520012E+02 -4.801889E+05 -8.144631E+03  2.691879E+02 -1.440540E-09 -1.099547E-09
       126  15 -4.932918E+03 -4.811820E+05 -1.550017E+04 -2.215411E+02 -4.152895E-09 -2.607682E-09
       126  16  1.718420E+03 -4.753414E+05 -3.553753E+03 -9.993141E+02  3.971487E-09  2.525823E-09
       126  17  2.390166E+03 -4.727426E+05 -6.397409E+03  6.630618E+02 -2.617852E-09 -2.054339E-09
       126  18 -2.700303E+03 -4.721260E+05 -1.337183E+04  1.351166E+03 -1.511484E-09  9.946300E-11
       126  19 -1.173105E+03 -4.870184E+05 -6.302051E+03  5.705856E+02  2.184133E+02 -3.430736E+03
       126  20 -1.286151E+03 -4.876350E+05 -9.891748E+03 -1.246830E+02  2.937157E+02 -7.582544E+03
       126  21 -7.165493E+03 -4.902378E+05 -1.762826E+04 -1.794228E+03  3.504728E+02 -1.173435E+04
       126  22  2.726595E+02 -4.811799E+05 -4.927889E+03 -2.143609E+02  2.184856E+02 -3.479918E+03
       126  23  5.520169E+02 -4.801888E+05 -8.144521E+03  2.691861E+02  2.937626E+02 -7.620195E+03
       126  24 -4.932881E+03 -4.811819E+05 -1.549991E+04 -2.215445E+02  3.504785E+02 -1.176048E+04
       126  25  1.718424E+03 -4.753414E+05 -3.553730E+03 -9.993148E+02  2.185581E+02 -3.529099E+03
       126  26  2.390181E+03 -4.727426E+05 -6.397299E+03  6.630599E+02  2.938095E+02 -7.657846E+03
       126  27 -2.700266E+03 -4.721259E+05 -1.337157E+04  1.351163E+03  3.504842E+02 -1.178661E+04
       127   1  3.946238E+02 -4.955905E+05 -2.162690E+04  7.905382E+03 -4.410254E+02  1.451598E+04
       127   2  2.749583E+03 -4.880137E+05 -3.400183E+04 -6.119882E+03 -5.025754E+02  3.142107E+04
       127   3 -5.979965E+04 -4.988719E+05 -7.361508E+04 -2.115783E+04 -2.210539E+02  4.832640E+04
       127   4  3.080645E+03 -4.848264E+05 -1.909994E+04 -2.012217E+02 -4.413946E+02  1.464695E+04
       127   5  5.786817E+03 -4.756343E+05 -3.109622E+04  2.647500E+02 -5.021368E+02  3.133790E+04
       127   6 -5.637409E+04 -4.848402E+05 -7.018176E+04 -2.824582E+02 -2.190208E+02  4.802913E+04
       127   7  5.766906E+03 -4.740621E+05 -1.657295E+04 -8.307967E+03 -4.417672E+02  1.477793E+04
       127   8  8.824193E+03 -4.632547E+05 -2.819060E+04  6.649510E+03 -5.017000E+02  3.125472E+04
       127   9 -5.294691E+04 -4.708073E+05 -6.674822E+04  2.059339E+04 -2.170078E+02  4.773186E+04
       127  10  3.945670E+02 -4.955907E+05 -2.162730E+04  7.905387E+03 -7.063807E-10  2.980611E-09
       127  11  2.749318E+03 -4.880147E+05 -3.400369E+04 -6.119869E+03 -1.697588E-09  6.996117E-09
       127  12 -5.980028E+04 -4.988745E+05 -7.361947E+04 -2.115782E+04  2.457590E-09  2.030009E-09
       127  13  3.080588E+03 -4.848267E+05 -1.910034E+04 -2.012165E+02  1.700350E-09 -7.774967E-10
       127  14  5.786553E+03 -4.756354E+05 -3.109807E+04  2.647626E+02 -5.601343E-09  5.049058E-10
       127  15 -5.637471E+04 -4.848426E+05 -7.018610E+04 -2.824497E+02 -2.062482E-09 -2.285766E-09
       127  16  5.766847E+03 -4.740624E+05 -1.657336E+04 -8.307962E+03 -1.318138E-09  8.604777E-11
       127  17  8.823930E+03 -4.632558E+05 -2.819244E+04  6.649522E+03  1.597707E-09 -2.662939E-09
       127  18 -5.294752E+04 -4.708097E+05 -6.675251E+04  2.059340E+04  1.622455E-09  2.069888E-09
       127  19  3.946238E+02 -4.955905E+05 -2.162690E+04  7.905382E+03  4.410254E+02 -1.451598E+04
       127  20  2.749583E+03 -4.880137E+05 -3.400183E+04 -6.119882E+03  5.025754E+02 -3.142107E+04
       127  21 -5.979965E+04 -4.988719E+05 -7.361508E+04 -2.115783E+04  2.210539E+02 -4.832640E+04
       127  22  3.080645E+03 -4.848264E+05 -1.909994E+04 -2.012217E+02  4.413946E+02 -1.464695E+04
       127  23  5.786817E+03 -4.756343E+05 -3.109622E+04  2.647500E+02  5.021368E+02 -3.133790E+04
       127  24 -5.637409E+04 -4.848402E+05 -7.018176E+04 -2.824582E+02  2.190208E+02 -4.802913E+04
       127  25  5.766906E+03 -4.740621E+05 -1.657295E+04 -8.307967E+03  4.417672E+02 -1.477793E+04
       127  26  8.824193E+03 -4.632547E+05 -2.819060E+04  6.649510E+03  5.017000E+02 -3.125472E+04
       127  27 -5.294691E+04 -4.708073E+05 -6.674822E+04  2.059339E+04  2.170078E+02 -4.773186E+04
       128   1 -6.285970E+06 -1.979198E+06 -9.837306E+05 -2.281180E+06 -3.607633E+05 -8.203550E+04
       128   2 -6.112415E+06 -1.713684E+06 -7.088841E+05 -2.217265E+06 -2.378987E+05  9.318113E+04
       128   3 -5.974593E+06 -1.599755E+06 -5.906090E+05 -2.162329E+06 -8.325599E+04  1.853070E+05
       128   4 -3.270584E+06 -7.474891E+05 -1.811453E+05 -1.360571E+06 -1.349903E+05  3.794729E+03
       128   5 -3.254647E+06 -6.139400E+05 -8.320953E+04 -1.382528E+06 -1.340223E+05  1.325390E+05
       128   6 -3.249820E+06 -6.072970E+05 -4.415243E+04 -1.413533E+06 -1.014173E+05  1.783322E+05
       128   7 -2.461972E+05  4.852487E+05  6.208435E+05 -4.357080E+05  9.199303E+04  9.016570E+04
       128   8 -3.884730E+05  4.866580E+05  5.420167E+05 -5.441494E+05 -2.962448E+04  1.721112E+05
       128   9 -5.172781E+05  3.857971E+05  5.019558E+05 -6.616688E+05 -1.196654E+05  1.713258E+05
       128  10 -6.286113E+06 -1.979241E+06 -9.839907E+05 -2.281204E+06 -3.106272E-09 -7.667389E-10
       128  11 -6.112478E+06 -1.713708E+06 -7.090073E+05 -2.217247E+06 -3.713006E-10  4.034504E-10
       128  12 -5.974610E+06 -1.599794E+06 -5.906864E+05 -2.162317E+06  3.780988E-09  5.039414E-10
       128  13 -3.270604E+06 -7.474941E+05 -1.811797E+05 -1.360570E+06  1.744283E-09  5.717268E-10
       128  14 -3.254671E+06 -6.139636E+05 -8.327626E+04 -1.382514E+06 -5.070579E-09  3.736606E-09
       128  15 -3.249839E+06 -6.073339E+05 -4.423138E+04 -1.413518E+06 -1.670014E-09  7.315394E-10
       128  16 -2.462085E+05  4.852377E+05  6.208123E+05 -4.357147E+05 -2.248700E-10  4.644615E-09
       128  17 -3.884819E+05  4.866260E+05  5.419594E+05 -5.441453E+05 -1.677289E-10  1.108352E-09
       128  18 -5.173013E+05  3.857618E+05  5.018738E+05 -6.616523E+05 -4.577425E-09  1.605703E-09
       128  19 -6.285970E+06 -1.979198E+06 -9.837306E+05 -2.281180E+06  3.607633E+05  8.203550E+04
       128  20 -6.112415E+06 -1.713684E+06 -7.088841E+05 -2.217265E+06  2.378987E+05 -9.318113E+04
       128  21 -5.974593E+06 -1.599755E+06 -5.906090E+05 -2.162329E+06  8.325599E+04 -1.853070E+05
       128  22 -3.270584E+06 -7.474891E+05 -1.811453E+05 -1.360571E+06  1.349903E+05 -3.794729E+03
       128  23 -3.254647E+06 -6.139400E+05 -8.320953E+04 -1.382528E+06  1.340223E+05 -1.325390E+05
       128  24 -3.249820E+06 -6.072970E+05 -4.415243E+04 -1.413533E+06  1.014173E+05 -1.783322E+05
       128  25 -2.461972E+05  4.852487E+05  6.208435E+05 -4.357080E+05 -9.199303E+04 -9.016570E+04
       128  26 -3.884730E+05  4.866580E+05  5.420167E+05 -5.441494E+05  2.962448E+04 -1.721112E+05
       128  27 -5.172781E+05  3.857971E+05  5.019558E+05 -6.616688E+05  1.196654E+05 -1.713258E+05
       129   1 -5.831721E+06 -1.567765E+06 -5.531428E+05 -2.135610E+06 -9.008037E+04  1.741300E+05
       129   2 -5.662846E+06 -1.472922E+06 -4.913711E+05 -2.063969E+06 -7.009735E+04  1.755579E+05
       129   3 -5.462679E+06 -1.419013E+06 -4.443755E+05 -2.030862E+06 -4.782364E+04  1.708771E+05
       129   4 -3.243414E+06 -6.122460E+05 -3.364075E+04 -1.410741E+06 -9.353341E+04  1.727382E+05
       129   5 -3.259310E+06 -5.894516E+05 -1.787366E+04 -1.392619E+06 -8.248740E+04  1.707979E+05
       129   6 -3.242154E+06 -6.057823E+05 -9.717193E+03 -1.413033E+06 -6.916149E+04  1.627596E+05
       129   7 -6.481223E+05  3.438856E+05  4.855371E+05 -6.830395E+05 -9.700209E+04  1.713407E+05
       129   8 -8.497431E+05  2.945435E+05  4.553562E+05 -7.188352E+05 -9.492943E+04  1.660184E+05
       129   9 -1.016487E+06  2.078872E+05  4.247153E+05 -7.931383E+05 -9.058183E+04  1.546112E+05
       129  10 -5.831738E+06 -1.567800E+06 -5.532149E+05 -2.135597E+06  1.191154E-09  8.027915E-12
       129  11 -5.662859E+06 -1.472956E+06 -4.914381E+05 -2.063959E+06  6.182280E-10  5.548644E-10
       129  12 -5.462689E+06 -1.419045E+06 -4.444346E+05 -2.030856E+06 -1.906242E-10  1.310332E-09
       129  13 -3.243432E+06 -6.122804E+05 -3.371313E+04 -1.410728E+06 -1.447813E-09  1.283514E-09
       129  14 -3.259326E+06 -5.894847E+05 -1.794115E+04 -1.392608E+06  1.053636E-09  9.536376E-11
       129  15 -3.242166E+06 -6.058120E+05 -9.775856E+03 -1.413024E+06 -3.001348E-10  8.774990E-13
       129  16 -6.481403E+05  3.438516E+05  4.854644E+05 -6.830262E+05 -4.331177E-09  4.178807E-09
       129  17 -8.497602E+05  2.945116E+05  4.552876E+05 -7.188225E+05 -1.559413E-09 -2.084333E-10
       129  18 -1.016503E+06  2.078594E+05  4.246551E+05 -7.931270E+05 -1.307995E-09  1.065216E-09
       129  19 -5.831721E+06 -1.567765E+06 -5.531428E+05 -2.135610E+06  9.008037E+04 -1.741300E+05
       129  20 -5.662846E+06 -1.472922E+06 -4.913711E+05 -2.063969E+06  7.009735E+04 -1.755579E+05
       129  21 -5.462679E+06 -1.419013E+06 -4.443755E+05 -2.030862E+06  4.782364E+04 -1.708771E+05
       129  22 -3.243414E+06 -6.122460E+05 -3.364075E+04 -1.410741E+06  9.353341E+04 -1.727382E+05
       129  23 -3.259310E+06 -5.894516E+05 -1.787366E+04 -1.392619E+06  8.248740E+04 -1.707979E+05
       129  24 -3.242154E+06 -6.057823E+05 -9.717193E+03 -1.413033E+06  6.916149E+04 -1.627596E+05
       129  25 -6.481223E+05  3.438856E+05  4.855371E+05 -6.830395E+05  9.700209E+04 -1.713407E+05
       129  26 -8.497431E+05  2.945435E+05  4.553562E+05 -7.188352E+05  9.492943E+04 -1.660184E+05
       129  27 -1.016487E+06  2.078872E+05  4.247153E+05 -7.931383E+05  9.058183E+04 -1.546112E+05
       130   1 -5.334652E+06 -1.372726E+06 -4.159892E+05 -1.995901E+06 -4.412988E+04  1.625594E+05
       130   2 -5.161994E+06 -1.283819E+06 -3.752291E+05 -1.921910E+06 -3.590702E+04  1.494670E+05
       130   3 -4.953102E+06 -1.231217E+06 -3.365088E+05 -1.888883E+06 -2.750075E+04  1.358144E+05
       130   4 -3.241458E+06 -6.061064E+05 -7.335355E+03 -1.413154E+06 -6.458323E+04  1.547894E+05
       130   5 -3.259446E+06 -5.876431E+05 -4.102284E+03 -1.392759E+06 -5.717461E+04  1.414105E+05
       130   6 -3.241085E+06 -6.053194E+05 -2.262448E+03 -1.413335E+06 -4.958391E+04  1.274722E+05
       130   7 -1.143657E+06  1.609185E+05  4.011295E+05 -8.285614E+05 -8.511142E+04  1.469913E+05
       130   8 -1.353098E+06  1.088642E+05  3.668674E+05 -8.620869E+05 -7.851281E+04  1.333276E+05
       130   9 -1.526001E+06  2.084270E+04  3.318550E+05 -9.365597E+05 -7.173292E+04  1.191052E+05
       130  10 -5.334661E+06 -1.372754E+06 -4.160424E+05 -1.995895E+06 -2.925286E-09  2.370047E-09
       130  11 -5.162002E+06 -1.283843E+06 -3.752734E+05 -1.921905E+06  4.182129E-10  7.843296E-10
       130  12 -4.953107E+06 -1.231237E+06 -3.365448E+05 -1.888880E+06  1.890010E-09 -6.257093E-10
       130  13 -3.241469E+06 -6.061332E+05 -7.388122E+03 -1.413146E+06  2.608841E-10  8.286716E-10
       130  14 -3.259455E+06 -5.876655E+05 -4.145926E+03 -1.392752E+06 -8.516610E-10  3.298299E-11
       130  15 -3.241092E+06 -6.053375E+05 -2.297540E+03 -1.413330E+06 -1.178183E-10 -9.962499E-10
       130  16 -1.143671E+06  1.608934E+05  4.010754E+05 -8.285513E+05  1.313229E-09 -1.584499E-10
       130  17 -1.353110E+06  1.088435E+05  3.668224E+05 -8.620785E+05  3.709119E-10 -1.096466E-09
       130  18 -1.526010E+06  2.082612E+04  3.318187E+05 -9.365529E+05 -1.060880E-09 -8.119546E-10
       130  19 -5.334652E+06 -1.372726E+06 -4.159892E+05 -1.995901E+06  4.412988E+04 -1.625594E+05
       130  20 -5.161994E+06 -1.283819E+06 -3.752291E+05 -1.921910E+06  3.590702E+04 -1.494670E+05
       130  21 -4.953102E+06 -1.231217E+06 -3.365088E+05 -1.888883E+06  2.750075E+04 -1.358144E+05
       130  22 -3.241458E+06 -6.061064E+05 -7.335355E+03 -1.413154E+06  6.458323E+04 -1.547894E+05
       130  23 -3.259446E+06 -5.876431E+05 -4.102284E+03 -1.392759E+06  5.717461E+04 -1.414105E+05
       130  24 -3.241085E+06 -6.053194E+05 -2.262448E+03 -1.413335E+06  4.958391E+04 -1.274722E+05
       130  25 -1.143657E+06  1.609185E+05  4.011295E+05 -8.285614E+05  8.511142E+04 -1.469913E+05
       130  26 -1.353098E+06  1.088642E+05  3.668674E+05 -8.620869E+05  7.851281E+04 -1.333276E+05
       130  27 -1.526001E+06  2.084270E+04  3.318550E+05 -9.365597E+05  7.173292E+04 -1.191052E+05
       131   1 -4.822905E+06 -1.183375E+06 -3.095067E+05 -1.852881E+06 -2.379856E+04  1.272046E+05
       131   2 -4.646308E+06 -1.093302E+06 -2.712876E+05 -1.777505E+06 -1.735723E+04  1.123861E+05
       131   3 -4.432670E+06 -1.039967E+06 -2.335378E+05 -1.744092E+06 -1.088923E+04  9.743911E+04
       131   4 -3.240831E+06 -6.053870E+05 -1.757762E+03 -1.413539E+06 -4.594941E+04  1.188480E+05
       131   5 -3.259222E+06 -5.867928E+05 -1.139648E+03 -1.392603E+06 -3.969452E+04  1.039753E+05
       131   6 -3.240581E+06 -6.048993E+05 -8.465576E+02 -1.413642E+06 -3.341325E+04  8.897399E+04
       131   7 -1.656151E+06 -2.717791E+04  3.058787E+05 -9.731512E+05 -6.816107E+04  1.104687E+05
       131   8 -1.870123E+06 -8.011021E+04  2.689249E+05 -1.006896E+06 -6.208571E+04  9.554420E+04
       131   9 -2.046994E+06 -1.697004E+05  2.317861E+05 -1.082596E+06 -5.598414E+04  8.049130E+04
       131  10 -4.822910E+06 -1.183393E+06 -3.095381E+05 -1.852879E+06 -4.891931E-10 -1.559790E-09
       131  11 -4.646311E+06 -1.093316E+06 -2.713118E+05 -1.777503E+06 -2.181565E-09  2.277676E-10
       131  12 -4.432673E+06 -1.039977E+06 -2.335558E+05 -1.744091E+06 -1.342174E-10  3.313585E-10
       131  13 -3.240837E+06 -6.054027E+05 -1.788217E+03 -1.413534E+06  8.020458E-10 -8.821221E-10
       131  14 -3.259227E+06 -5.868049E+05 -1.162882E+03 -1.392600E+06  8.197477E-10  3.646394E-10
       131  15 -3.240584E+06 -6.049081E+05 -8.635013E+02 -1.413640E+06 -3.543947E-10  1.193901E-09
       131  16 -1.656159E+06 -2.719224E+04  3.058470E+05 -9.731451E+05  7.084123E-10 -9.346860E-10
       131  17 -1.870130E+06 -8.012102E+04  2.689005E+05 -1.006891E+06 -1.247194E-10 -1.023988E-10
       131  18 -2.046999E+06 -1.697082E+05  2.317680E+05 -1.082592E+06  7.282083E-10  9.754492E-10
       131  19 -4.822905E+06 -1.183375E+06 -3.095067E+05 -1.852881E+06  2.379856E+04 -1.272046E+05
       131  20 -4.646308E+06 -1.093302E+06 -2.712876E+05 -1.777505E+06  1.735723E+04 -1.123861E+05
       131  21 -4.432670E+06 -1.039967E+06 -2.335378E+05 -1.744092E+06  1.088923E+04 -9.743911E+04
       131  22 -3.240831E+06 -6.053870E+05 -1.757762E+03 -1.413539E+06  4.594941E+04 -1.188480E+05
       131  23 -3.259222E+06 -5.867928E+05 -1.139648E+03 -1.392603E+06  3.969452E+04 -1.039753E+05
       131  24 -3.240581E+06 -6.048993E+05 -8.465576E+02 -1.413642E+06  3.341325E+04 -8.897399E+04
       131  25 -1.656151E+06 -2.717791E+04  3.058787E+05 -9.731512E+05  6.816107E+04 -1.104687E+05
       131  26 -1.870123E+06 -8.011021E+04  2.689249E+05 -1.006896E+06  6.208571E+04 -9.554420E+04
       131  27 -2.046994E+06 -1.697004E+05  2.317861E+05 -1.082596E+06  5.598414E+04 -8.049130E+04
       132   1 -4.300136E+06 -9.913974E+05 -2.066002E+05 -1.707541E+06 -7.305692E+03  8.860969E+04
       132   2 -4.120671E+06 -9.003835E+05 -1.687877E+05 -1.631270E+06 -9.118700E+02  7.347308E+04
       132   3 -3.903874E+06 -8.465999E+05 -1.314043E+05 -1.597649E+06  5.488618E+03  5.828203E+04
       132   4 -3.240444E+06 -6.049357E+05 -8.558869E+02 -1.413795E+06 -2.992530E+04  8.011643E+04
       132   5 -3.259011E+06 -5.861579E+05 -1.097157E+03 -1.392502E+06 -2.361130E+04  6.495981E+04
       132   6 -3.240277E+06 -6.045953E+05 -1.707482E+03 -1.413871E+06 -1.729088E+04  4.974881E+04
       132   7 -2.179576E+06 -2.183730E+05  2.048411E+05 -1.119579E+06 -5.258656E+04  7.160755E+04
       132   8 -2.396579E+06 -2.718672E+05  1.665615E+05 -1.153425E+06 -4.634459E+04  5.643385E+04
       132   9 -2.576226E+06 -3.625535E+05  1.279701E+05 -1.229911E+06 -4.009643E+04  4.120582E+04
       132  10 -4.300138E+06 -9.914059E+05 -2.066151E+05 -1.707541E+06  1.363555E-09  1.771999E-10
       132  11 -4.120672E+06 -9.003893E+05 -1.687978E+05 -1.631270E+06 -4.141282E-10 -3.063401E-10
       132  12 -3.903875E+06 -8.466036E+05 -1.314108E+05 -1.597649E+06 -1.498961E-09 -1.116565E-11
       132  13 -3.240446E+06 -6.049428E+05 -8.696068E+02 -1.413793E+06 -1.635549E-09  8.502232E-11
       132  14 -3.259013E+06 -5.861626E+05 -1.106118E+03 -1.392501E+06 -1.023321E-09 -8.892646E-11
       132  15 -3.240278E+06 -6.045981E+05 -1.712685E+03 -1.413870E+06  1.778834E-09  1.828451E-09
       132  16 -2.179581E+06 -2.183793E+05  2.048263E+05 -1.119576E+06 -1.244193E-09  4.584557E-10
       132  17 -2.396582E+06 -2.718712E+05  1.665515E+05 -1.153423E+06  5.333659E-11 -1.506910E-10
       132  18 -2.576228E+06 -3.625557E+05  1.279639E+05 -1.229910E+06  4.287605E-10 -4.075234E-10
       132  19 -4.300136E+06 -9.913974E+05 -2.066002E+05 -1.707541E+06  7.305692E+03 -8.860969E+04
       132  20 -4.120671E+06 -9.003835E+05 -1.687877E+05 -1.631270E+06  9.118700E+02 -7.347308E+04
       132  21 -3.903874E+06 -8.465999E+05 -1.314043E+05 -1.597649E+06 -5.488618E+03 -5.828203E+04
       132  22 -3.240444E+06 -6.049357E+05 -8.558869E+02 -1.413795E+06  2.992530E+04 -8.011643E+04
       132  23 -3.259011E+06 -5.861579E+05 -1.097157E+03 -1.392502E+06  2.361130E+04 -6.495981E+04
       132  24 -3.240277E+06 -6.045953E+05 -1.707482E+03 -1.413871E+06  1.729088E+04 -4.974881E+04
       132  25 -2.179576E+06 -2.183730E+05  2.048411E+05 -1.119579E+06  5.258656E+04 -7.160755E+04
       132  26 -2.396579E+06 -2.718672E+05  1.665615E+05 -1.153425E+06  4.634459E+04 -5.643385E+04
       132  27 -2.576226E+06 -3.625535E+05  1.279701E+05 -1.229911E+06  4.009643E+04 -4.120582E+04
       133   1 -3.769817E+06 -7.975978E+05 -1.046847E+05 -1.560771E+06  9.265022E+03  4.942092E+04
       133   2 -3.588659E+06 -7.061170E+05 -6.803804E+04 -1.484003E+06  1.685229E+04  3.465943E+04
       133   3 -3.370244E+06 -6.523032E+05 -3.277499E+04 -1.450266E+06  2.439312E+04  2.000942E+04
       133   4 -3.240261E+06 -6.046075E+05 -2.228068E+03 -1.413980E+06 -1.359226E+04  4.086271E+04
       133   5 -3.258826E+06 -5.857463E+05 -3.951446E+03 -1.392450E+06 -5.842548E+03  2.616574E+04
       133   6 -3.240216E+06 -6.045894E+05 -7.191508E+03 -1.413968E+06  1.860085E+03  1.158009E+04
       133   7 -2.710406E+06 -4.115898E+05  1.002199E+05 -1.267069E+06 -3.647075E+04  3.229655E+04
       133   8 -2.928877E+06 -4.653647E+05  6.013298E+04 -1.300850E+06 -2.855048E+04  1.766713E+04
       133   9 -3.110169E+06 -5.568736E+05  1.839340E+04 -1.377662E+06 -2.067804E+04  3.148817E+03
       133  10 -3.769818E+06 -7.976004E+05 -1.046894E+05 -1.560772E+06  1.204933E-09  1.399169E-09
       133  11 -3.588660E+06 -7.061184E+05 -6.804084E+04 -1.484003E+06  4.839120E-10 -2.383135E-10
       133  12 -3.370245E+06 -6.523038E+05 -3.277687E+04 -1.450267E+06 -1.414115E-09 -1.705501E-09
       133  13 -3.240262E+06 -6.046094E+05 -2.231547E+03 -1.413979E+06 -1.378457E-09 -8.371268E-10
       133  14 -3.258827E+06 -5.857470E+05 -3.952795E+03 -1.392449E+06  8.409212E-10  9.023936E-10
       133  15 -3.240216E+06 -6.045895E+05 -7.191767E+03 -1.413968E+06  6.233769E-10  3.684069E-11
       133  16 -2.710408E+06 -4.115913E+05  1.002154E+05 -1.267068E+06 -7.724006E-10 -3.435106E-10
       133  17 -2.928878E+06 -4.653652E+05  6.013086E+04 -1.300850E+06 -3.156102E-10 -1.073961E-09
       133  18 -3.110169E+06 -5.568737E+05  1.839258E+04 -1.377662E+06 -1.670154E-10 -9.035563E-10
       133  19 -3.769817E+06 -7.975978E+05 -1.046847E+05 -1.560771E+06 -9.265022E+03 -4.942092E+04
       133  20 -3.588659E+06 -7.061170E+05 -6.803804E+04 -1.484003E+06 -1.685229E+04 -3.465943E+04
       133  21 -3.370244E+06 -6.523032E+05 -3.277499E+04 -1.450266E+06 -2.439312E+04 -2.000942E+04
       133  22 -3.240261E+06 -6.046075E+05 -2.228068E+03 -1.413980E+06  1.359226E+04 -4.086271E+04
       133  23 -3.258826E+06 -5.857463E+05 -3.951446E+03 -1.392450E+06  5.842548E+03 -2.616574E+04
       133  24 -3.240216E+06 -6.045894E+05 -7.191508E+03 -1.413968E+06 -1.860085E+03 -1.158009E+04
       133  25 -2.710406E+06 -4.115898E+05  1.002199E+05 -1.267069E+06  3.647075E+04 -3.229655E+04
       133  26 -2.928877E+06 -4.653647E+05  6.013298E+04 -1.300850E+06  2.855048E+04 -1.766713E+04
       133  27 -3.110169E+06 -5.568736E+05  1.839340E+04 -1.377662E+06  2.067804E+04 -3.148817E+03
       134   1 -3.235412E+06 -6.033855E+05 -7.771470E+03 -1.413921E+06  2.945600E+04  1.161043E+04
       134   2 -3.054511E+06 -5.113425E+05  2.364754E+04 -1.335238E+06  4.087956E+04 -6.969429E+02
       134   3 -2.838363E+06 -4.606551E+05  4.955543E+04 -1.298737E+06  5.159346E+04 -1.109722E+04
       134   4 -3.240616E+06 -6.043927E+05 -9.568106E+03 -1.414203E+06  6.572145E+03  3.050373E+03
       134   5 -3.258364E+06 -5.862813E+05 -1.747679E+04 -1.392048E+06  2.080374E+04 -8.208784E+03
       134   6 -3.241467E+06 -6.100912E+05 -3.313453E+04 -1.412094E+06  3.432358E+04 -1.756125E+04
       134   7 -3.245820E+06 -6.053995E+05 -1.136248E+04 -1.414484E+06 -1.631129E+04 -5.509626E+03
       134   8 -3.462173E+06 -6.612161E+05 -5.860143E+04 -1.448840E+06  7.350298E+02 -1.571792E+04
       134   9 -3.644407E+06 -7.595133E+05 -1.158325E+05 -1.525383E+06  1.706565E+04 -2.402066E+04
       134  10 -3.235413E+06 -6.033859E+05 -7.773365E+03 -1.413922E+06 -1.119135E-10 -7.899538E-10
       134  11 -3.054512E+06 -5.113429E+05  2.364438E+04 -1.335238E+06  2.014695E-09  1.663766E-10
       134  12 -2.838366E+06 -4.606560E+05  4.955018E+04 -1.298737E+06 -9.378161E-11  7.853200E-10
       134  13 -3.240616E+06 -6.043927E+05 -9.568205E+03 -1.414203E+06  7.959911E-10  2.028028E-13
       134  14 -3.258364E+06 -5.862815E+05 -1.747773E+04 -1.392048E+06 -3.510479E-09 -3.526682E-09
       134  15 -3.241469E+06 -6.100918E+05 -3.313732E+04 -1.412094E+06 -4.342201E-09 -1.152685E-09
       134  16 -3.245820E+06 -6.053996E+05 -1.136304E+04 -1.414484E+06  2.195043E-09  1.339636E-09
       134  17 -3.462173E+06 -6.612163E+05 -5.860189E+04 -1.448840E+06 -2.415305E-09 -7.423108E-10
       134  18 -3.644407E+06 -7.595140E+05 -1.158341E+05 -1.525383E+06 -1.175845E-08 -6.552999E-09
       134  19 -3.235412E+06 -6.033855E+05 -7.771470E+03 -1.413921E+06 -2.945600E+04 -1.161043E+04
       134  20 -3.054511E+06 -5.113425E+05  2.364754E+04 -1.335238E+06 -4.087956E+04  6.969429E+02
       134  21 -2.838363E+06 -4.606551E+05  4.955543E+04 -1.298737E+06 -5.159346E+04  1.109722E+04
       134  22 -3.240616E+06 -6.043927E+05 -9.568106E+03 -1.414203E+06 -6.572145E+03 -3.050373E+03
       134  23 -3.258364E+06 -5.862813E+05 -1.747679E+04 -1.392048E+06 -2.080374E+04  8.208784E+03
       134  24 -3.241467E+06 -6.100912E+05 -3.313453E+04 -1.412094E+06 -3.432358E+04  1.756125E+04
       134  25 -3.245820E+06 -6.053995E+05 -1.136248E+04 -1.414484E+06  1.631129E+04  5.509626E+03
       134  26 -3.462173E+06 -6.612161E+05 -5.860143E+04 -1.448840E+06 -7.350298E+02  1.571792E+04
       134  27 -3.644407E+06 -7.595133E+05 -1.158325E+05 -1.525383E+06 -1.706565E+04  2.402066E+04
       135   1 -2.698011E+06 -4.170740E+05  6.703405E+04 -1.276850E+06  6.460089E+04 -1.623514E+04
       135   2 -2.544608E+06 -3.108814E+05  8.107667E+04 -1.148112E+06  6.898307E+04 -1.644760E+04
       135   3 -2.389188E+06 -3.298888E+05  6.778267E+04 -1.036607E+06  6.342983E+04  9.845169E+03
       135   4 -3.247019E+06 -6.057839E+05 -4.352645E+04 -1.415755E+06  4.258018E+04 -2.447848E+04
       135   5 -3.254047E+06 -6.089226E+05 -8.185069E+04 -1.381109E+06  8.609708E+04 -1.004756E+04
       135   6 -3.266936E+06 -7.451434E+05 -1.786741E+05 -1.363722E+06  1.196687E+05  3.090184E+04
       135   7 -3.795718E+06 -7.944779E+05 -1.541005E+05 -1.554551E+06  2.058040E+04 -3.271508E+04
       135   8 -3.962957E+06 -9.068755E+05 -2.448065E+05 -1.613841E+06  1.031896E+05 -3.658135E+03
       135   9 -4.143873E+06 -1.160191E+06 -4.251791E+05 -1.690357E+06  1.758183E+05  5.190540E+04
       135  10 -2.698016E+06 -4.170755E+05  6.702569E+04 -1.276849E+06 -6.927689E-09 -6.626495E-10
       135  11 -2.544613E+06 -3.108830E+05  8.106719E+04 -1.148111E+06  7.838823E-10  2.080417E-09
       135  12 -2.389192E+06 -3.298900E+05  6.777490E+04 -1.036607E+06  2.698859E-09  1.573737E-09
       135  13 -3.247021E+06 -6.057851E+05 -4.353099E+04 -1.415754E+06 -6.129247E-09 -2.789932E-09
       135  14 -3.254055E+06 -6.089247E+05 -8.186487E+04 -1.381108E+06  3.034434E-09  2.469345E-09
       135  15 -3.266952E+06 -7.451483E+05 -1.787030E+05 -1.363725E+06  5.057213E-10  5.078785E-10
       135  16 -3.795719E+06 -7.944792E+05 -1.541033E+05 -1.554550E+06 -2.798420E-09 -2.297564E-09
       135  17 -3.962969E+06 -9.068784E+05 -2.448266E+05 -1.613840E+06 -7.707892E-10 -1.114378E-09
       135  18 -4.143907E+06 -1.160202E+06 -4.252427E+05 -1.690365E+06 -2.397284E-09 -1.175204E-09
       135  19 -2.698011E+06 -4.170740E+05  6.703405E+04 -1.276850E+06 -6.460089E+04  1.623514E+04
       135  20 -2.544608E+06 -3.108814E+05  8.107667E+04 -1.148112E+06 -6.898307E+04  1.644760E+04
       135  21 -2.389188E+06 -3.298888E+05  6.778267E+04 -1.036607E+06 -6.342983E+04 -9.845169E+03
       135  22 -3.247019E+06 -6.057839E+05 -4.352645E+04 -1.415755E+06 -4.258018E+04  2.447848E+04
       135  23 -3.254047E+06 -6.089226E+05 -8.185069E+04 -1.381109E+06 -8.609708E+04  1.004756E+04
       135  24 -3.266936E+06 -7.451434E+05 -1.786741E+05 -1.363722E+06 -1.196687E+05 -3.090184E+04
       135  25 -3.795718E+06 -7.944779E+05 -1.541005E+05 -1.554551E+06 -2.058040E+04  3.271508E+04
       135  26 -3.962957E+06 -9.068755E+05 -2.448065E+05 -1.613841E+06 -1.031896E+05  3.658135E+03
       135  27 -4.143873E+06 -1.160191E+06 -4.251791E+05 -1.690357E+06 -1.758183E+05 -5.190540E+04
       136   1  1.833101E+05  3.666924E+04  5.495681E+04  1.467841E+04  5.665609E+04  1.202427E+03
       136   2  1.825328E+05 -3.800401E+04  1.035442E+04  4.409079E+03  3.778646E+04  3.504183E+03
       136   3  2.052668E+05 -2.855041E+04 -9.273108E+02 -1.438932E+04  1.891705E+04  3.121592E+03
       136   4  3.066107E+05  6.739080E+04  8.540075E+04 -5.682773E+03  5.841777E+04  1.201250E+03
       136   5  2.947505E+05 -1.017981E+04  3.730914E+04 -1.405131E+03  3.825538E+04  3.503941E+03
       136   6  3.066208E+05 -3.408287E+03  2.343088E+04 -5.656272E+03  1.809358E+04  3.121614E+03
       136   7  4.299260E+05  9.811278E+04  1.158438E+05 -2.604800E+04  6.017980E+04  1.199956E+03
       136   8  4.069799E+05  1.764361E+04  6.426298E+04 -7.220396E+03  3.872438E+04  3.503689E+03
       136   9  4.079844E+05  2.173337E+04  4.778838E+04  3.078202E+03  1.726996E+04  3.121613E+03
       136  10  1.833067E+05  3.666838E+04  5.495078E+04  1.467835E+04  9.207359E-10 -6.665596E-10
       136  11  1.825312E+05 -3.800441E+04  1.035172E+04  4.408973E+03  1.640266E-09 -3.635864E-10
       136  12  2.052664E+05 -2.855051E+04 -9.280014E+02 -1.438936E+04 -1.298887E-09  2.325378E-10
       136  13  3.066070E+05  6.738988E+04  8.539434E+04 -5.682829E+03 -7.507771E-10  4.954220E-11
       136  14  2.947490E+05 -1.018021E+04  3.730637E+04 -1.405239E+03 -4.383209E-09 -3.935691E-10
       136  15  3.066204E+05 -3.408385E+03  2.343025E+04 -5.656318E+03 -6.991571E-10  1.093929E-10
       136  16  4.299221E+05  9.811181E+04  1.158370E+05 -2.604806E+04  1.238538E-09  8.972792E-11
       136  17  4.069783E+05  1.764319E+04  6.426014E+04 -7.220505E+03 -7.423211E-11 -2.062750E-10
       136  18  4.079840E+05  2.173328E+04  4.778781E+04  3.078158E+03 -1.145448E-09  8.515103E-10
       136  19  1.833101E+05  3.666924E+04  5.495681E+04  1.467841E+04 -5.665609E+04 -1.202427E+03
       136  20  1.825328E+05 -3.800401E+04  1.035442E+04  4.409079E+03 -3.778646E+04 -3.504183E+03
       136  21  2.052668E+05 -2.855041E+04 -9.273108E+02 -1.438932E+04 -1.891705E+04 -3.121592E+03
       136  22  3.066107E+05  6.739080E+04  8.540075E+04 -5.682773E+03 -5.841777E+04 -1.201250E+03
       136  23  2.947505E+05 -1.017981E+04  3.730914E+04 -1.405131E+03 -3.825538E+04 -3.503941E+03
       136  24  3.066208E+05 -3.408287E+03  2.343088E+04 -5.656272E+03 -1.809358E+04 -3.121614E+03
       136  25  4.299260E+05  9.811278E+04  1.158438E+05 -2.604800E+04 -6.017980E+04 -1.199956E+03
       136  26  4.069799E+05  1.764361E+04  6.426298E+04 -7.220396E+03 -3.872438E+04 -3.503689E+03
       136  27  4.079844E+05  2.173337E+04  4.778838E+04  3.078202E+03 -1.726996E+04 -3.121613E+03
       137   1  2.161351E+05 -1.398144E+04 -1.543791E+03 -3.655678E+03  1.448584E+04  2.483645E+03
       137   2  2.254699E+05 -1.975509E+04 -8.361442E+03 -9.255920E+02  9.612236E+03  2.267438E+03
       137   3  2.377542E+05 -1.631173E+04 -9.700283E+03 -6.660594E+03  4.738544E+03  1.840917E+03
       137   4  3.020050E+05  7.323729E+03  1.914205E+04 -5.651059E+03  1.443437E+04  2.483565E+03
       137   5  3.005226E+05 -1.139129E+03  9.688164E+03 -1.417769E+03  9.459149E+03  2.267385E+03
       137   6  3.020069E+05 -3.680116E+02  5.783058E+03 -5.649475E+03  4.483927E+03  1.840880E+03
       137   7  3.878816E+05  2.862838E+04  3.982738E+04 -7.646717E+03  1.438289E+04  2.483484E+03
       137   8  3.755806E+05  1.747642E+04  2.773737E+04 -1.910005E+03  9.306043E+03  2.267333E+03
       137   9  3.662634E+05  1.557541E+04  2.126610E+04 -4.638252E+03  4.229282E+03  1.840842E+03
       137  10  2.161349E+05 -1.398150E+04 -1.544197E+03 -3.655707E+03  8.506083E-10  1.395092E-10
       137  11  2.254698E+05 -1.975512E+04 -8.361625E+03 -9.256095E+02 -1.420454E-09 -5.748920E-10
       137  12  2.377541E+05 -1.631174E+04 -9.700332E+03 -6.660601E+03  2.789662E-10  3.058366E-10
       137  13  3.020048E+05  7.323666E+03  1.914165E+04 -5.651088E+03 -8.338399E-10  5.864267E-10
       137  14  3.005225E+05 -1.139158E+03  9.687986E+03 -1.417786E+03  6.266923E-11 -2.947836E-10
       137  15  3.020069E+05 -3.680206E+02  5.783014E+03 -5.649482E+03 -3.312138E-09  4.849793E-10
       137  16  3.878814E+05  2.862831E+04  3.982698E+04 -7.646745E+03 -9.477151E-10  4.207751E-10
       137  17  3.755805E+05  1.747639E+04  2.773720E+04 -1.910022E+03  1.560167E-09 -2.506442E-10
       137  18  3.662634E+05  1.557540E+04  2.126606E+04 -4.638258E+03 -3.039781E-10  9.035657E-10
       137  19  2.161351E+05 -1.398144E+04 -1.543791E+03 -3.655678E+03 -1.448584E+04 -2.483645E+03
       137  20  2.254699E+05 -1.975509E+04 -8.361442E+03 -9.255920E+02 -9.612236E+03 -2.267438E+03
       137  21  2.377542E+05 -1.631173E+04 -9.700283E+03 -6.660594E+03 -4.738544E+03 -1.840917E+03
       137  22  3.020050E+05  7.323729E+03  1.914205E+04 -5.651059E+03 -1.443437E+04 -2.483565E+03
       137  23  3.005226E+05 -1.139129E+03  9.688164E+03 -1.417769E+03 -9.459149E+03 -2.267385E+03
       137  24  3.020069E+05 -3.680116E+02  5.783058E+03 -5.649475E+03 -4.483927E+03 -1.840880E+03
       137  25  3.878816E+05  2.862838E+04  3.982738E+04 -7.646717E+03 -1.438289E+04 -2.483484E+03
       137  26  3.755806E+05  1.747642E+04  2.773737E+04 -1.910005E+03 -9.306043E+03 -2.267333E+03
       137  27  3.662634E+05  1.557541E+04  2.126610E+04 -4.638252E+03 -4.229282E+03 -1.840842E+03
       138   1  2.525180E+05 -1.134678E+04 -7.204886E+03 -5.477956E+03  3.763724E+03  1.560658E+03
       138   2  2.630390E+05 -9.603799E+03 -6.719759E+03 -1.415565E+03  2.532454E+03  1.149223E+03
       138   3  2.739746E+05 -6.857998E+03 -5.181824E+03 -5.759677E+03  1.301148E+03  7.219528E+02
       138   4  3.014404E+05  7.825051E+02  4.534348E+03 -5.636996E+03  3.570212E+03  1.560629E+03
       138   5  3.012326E+05 -1.301854E+02  2.466593E+03 -1.433720E+03  2.331248E+03  1.149202E+03
       138   6  3.014408E+05 -3.872131E+01  1.456964E+03 -5.636916E+03  1.092270E+03  7.219391E+02
       138   7  3.503649E+05  1.291162E+04  1.627341E+04 -5.796047E+03  3.376685E+03  1.560600E+03
       138   8  3.394276E+05  9.343323E+03  1.165284E+04 -1.451877E+03  2.130030E+03  1.149180E+03
       138   9  3.289077E+05  6.780501E+03  8.095699E+03 -5.514150E+03  8.833815E+02  7.219253E+02
       138  10  2.525180E+05 -1.134679E+04 -7.204917E+03 -5.477961E+03  1.293170E-09  5.829419E-10
       138  11  2.630390E+05 -9.603803E+03 -6.719774E+03 -1.415567E+03  1.992805E-09 -3.013253E-10
       138  12  2.739746E+05 -6.857999E+03 -5.181828E+03 -5.759678E+03  2.196371E-10 -4.189230E-10
       138  13  3.014403E+05  7.824991E+02  4.534320E+03 -5.637000E+03  5.347875E-09  7.592096E-10
       138  14  3.012326E+05 -1.301883E+02  2.466581E+03 -1.433722E+03 -4.970048E-11 -3.779563E-10
       138  15  3.014408E+05 -3.872219E+01  1.456961E+03 -5.636917E+03  1.017387E-09 -6.296279E-10
       138  16  3.503649E+05  1.291161E+04  1.627339E+04 -5.796052E+03 -9.449786E-10  9.165423E-10
       138  17  3.394276E+05  9.343320E+03  1.165283E+04 -1.451879E+03  6.108353E-10 -7.106807E-10
       138  18  3.289077E+05  6.780500E+03  8.095696E+03 -5.514150E+03  2.445867E-09 -5.312075E-10
       138  19  2.525180E+05 -1.134678E+04 -7.204886E+03 -5.477956E+03 -3.763724E+03 -1.560658E+03
       138  20  2.630390E+05 -9.603799E+03 -6.719759E+03 -1.415565E+03 -2.532454E+03 -1.149223E+03
       138  21  2.739746E+05 -6.857998E+03 -5.181824E+03 -5.759677E+03 -1.301148E+03 -7.219528E+02
       138  22  3.014404E+05  7.825051E+02  4.534348E+03 -5.636996E+03 -3.570212E+03 -1.560629E+03
       138  23  3.012326E+05 -1.301854E+02  2.466593E+03 -1.433720E+03 -2.331248E+03 -1.149202E+03
       138  24  3.014408E+05 -3.872131E+01  1.456964E+03 -5.636916E+03 -1.092270E+03 -7.219391E+02
       138  25  3.503649E+05  1.291162E+04  1.627341E+04 -5.796047E+03 -3.376685E+03 -1.560600E+03
       138  26  3.394276E+05  9.343323E+03  1.165284E+04 -1.451877E+03 -2.130030E+03 -1.149180E+03
       138  27  3.289077E+05  6.780501E+03  8.095699E+03 -5.514150E+03 -8.833815E+02 -7.219253E+02
       139   1  2.891537E+05 -2.942312E+03 -1.770078E+03 -5.628422E+03  1.063641E+03  4.710473E+02
       139   2  2.998177E+05 -3.909272E+02  3.125882E+02 -1.444789E+03  7.280851E+02  4.550430E+01
       139   3  3.105547E+05  2.271459E+03  2.641666E+03 -5.646907E+03  3.925169E+02 -3.812024E+02
       139   4  3.013647E+05  8.000899E+01  1.134493E+03 -5.632339E+03  8.596040E+02  4.710366E+02
       139   5  3.013284E+05 -1.623903E+01  6.759087E+02 -1.439462E+03  5.234795E+02  4.549365E+01
       139   6  3.013648E+05 -1.420933E+00  4.640895E+02 -5.632335E+03  1.873487E+02 -3.812126E+02
       139   7  3.135759E+05  3.102319E+03  4.039053E+03 -5.636256E+03  6.555627E+02  4.710258E+02
       139   8  3.028390E+05  3.584490E+02  1.039229E+03 -1.434136E+03  3.188734E+02  4.548300E+01
       139   9  2.921749E+05 -2.274307E+03 -1.713492E+03 -5.617764E+03 -1.781639E+01 -3.812228E+02
       139  10  2.891537E+05 -2.942312E+03 -1.770080E+03 -5.628422E+03 -6.899050E-10 -2.418648E-10
       139  11  2.998177E+05 -3.909274E+02  3.125872E+02 -1.444789E+03  2.258935E-09  3.172358E-11
       139  12  3.105547E+05  2.271459E+03  2.641665E+03 -5.646906E+03 -1.268162E-09 -1.991042E-10
       139  13  3.013647E+05  8.000855E+01  1.134491E+03 -5.632339E+03 -2.133982E-09 -2.423073E-10
       139  14  3.013284E+05 -1.623910E+01  6.759081E+02 -1.439462E+03 -1.163850E-09 -6.275258E-11
       139  15  3.013648E+05 -1.421099E+00  4.640891E+02 -5.632335E+03 -1.342896E-09  6.150646E-11
       139  16  3.135759E+05  3.102319E+03  4.039051E+03 -5.636256E+03 -3.468143E-10 -2.161456E-10
       139  17  3.028390E+05  3.584490E+02  1.039229E+03 -1.434136E+03 -4.866371E-10 -8.173036E-11
       139  18  2.921749E+05 -2.274307E+03 -1.713493E+03 -5.617764E+03  3.908001E-10  1.430280E-10
       139  19  2.891537E+05 -2.942312E+03 -1.770078E+03 -5.628422E+03 -1.063641E+03 -4.710473E+02
       139  20  2.998177E+05 -3.909272E+02  3.125882E+02 -1.444789E+03 -7.280851E+02 -4.550430E+01
       139  21  3.105547E+05  2.271459E+03  2.641666E+03 -5.646907E+03 -3.925169E+02  3.812024E+02
       139  22  3.013647E+05  8.000899E+01  1.134493E+03 -5.632339E+03 -8.596040E+02 -4.710366E+02
       139  23  3.013284E+05 -1.623903E+01  6.759087E+02 -1.439462E+03 -5.234795E+02 -4.549365E+01
       139  24  3.013648E+05 -1.420933E+00  4.640895E+02 -5.632335E+03 -1.873487E+02  3.812126E+02
       139  25  3.135759E+05  3.102319E+03  4.039053E+03 -5.636256E+03 -6.555627E+02 -4.710258E+02
       139  26  3.028390E+05  3.584490E+02  1.039229E+03 -1.434136E+03 -3.188734E+02 -4.548300E+01
       139  27  2.921749E+05 -2.274307E+03 -1.713492E+03 -5.617764E+03  1.781639E+01  3.812228E+02
       140   1  3.258005E+05  6.074574E+03  6.325621E+03 -5.632111E+03  3.133871E+02 -6.300473E+02
       140   2  3.365032E+05  8.713844E+03  8.859953E+03 -1.432388E+03  1.134467E+02 -1.057292E+03
       140   3  3.472488E+05  1.140636E+04  1.153838E+04 -5.636700E+03 -8.646397E+01 -1.483810E+03
       140   4  3.013579E+05  5.448738E+00  4.140127E+02 -5.636406E+03  1.080555E+02 -6.300599E+02
       140   5  3.013365E+05 -8.620926E+00  4.018150E+02 -1.434375E+03 -9.152878E+01 -1.057312E+03
       140   6  3.013578E+05  3.050313E+01  5.334806E+02 -5.636408E+03 -2.910799E+02 -1.483838E+03
       140   7  2.769159E+05 -6.063721E+03 -5.497638E+03 -5.640700E+03 -9.726801E+01 -6.300726E+02
       140   8  2.661710E+05 -8.731175E+03 -8.056410E+03 -1.436362E+03 -2.964927E+02 -1.057333E+03
       140   9  2.554687E+05 -1.134550E+04 -1.047157E+04 -5.636117E+03 -4.956808E+02 -1.483865E+03
       140  10  3.258005E+05  6.074574E+03  6.325620E+03 -5.632111E+03 -1.899658E-09 -1.365531E-10
       140  11  3.365032E+05  8.713842E+03  8.859950E+03 -1.432388E+03  3.450745E-09  2.882004E-10
       140  12  3.472488E+05  1.140636E+04  1.153838E+04 -5.636700E+03 -9.321815E-10 -1.052554E-11
       140  13  3.013579E+05  5.448308E+00  4.140119E+02 -5.636406E+03  2.407071E-09  1.612506E-10
       140  14  3.013365E+05 -8.622129E+00  4.018129E+02 -1.434375E+03  1.247732E-09  4.567002E-10
       140  15  3.013578E+05  3.050074E+01  5.334763E+02 -5.636409E+03 -7.343487E-10  2.395173E-10
       140  16  2.769159E+05 -6.063721E+03 -5.497639E+03 -5.640701E+03 -2.463812E-10  2.878397E-10
       140  17  2.661710E+05 -8.731177E+03 -8.056413E+03 -1.436362E+03 -4.443429E-10  3.479948E-10
       140  18  2.554687E+05 -1.134551E+04 -1.047158E+04 -5.636118E+03 -3.428436E-10  3.546550E-10
       140  19  3.258005E+05  6.074574E+03  6.325621E+03 -5.632111E+03 -3.133871E+02  6.300473E+02
       140  20  3.365032E+05  8.713844E+03  8.859953E+03 -1.432388E+03 -1.134467E+02  1.057292E+03
       140  21  3.472488E+05  1.140636E+04  1.153838E+04 -5.636700E+03  8.646397E+01  1.483810E+03
       140  22  3.013579E+05  5.448738E+00  4.140127E+02 -5.636406E+03 -1.080555E+02  6.300599E+02
       140  23  3.013365E+05 -8.620926E+00  4.018150E+02 -1.434375E+03  9.152878E+01  1.057312E+03
       140  24  3.013578E+05  3.050313E+01  5.334806E+02 -5.636408E+03  2.910799E+02  1.483838E+03
       140  25  2.769159E+05 -6.063721E+03 -5.497638E+03 -5.640700E+03  9.726801E+01  6.300726E+02
       140  26  2.661710E+05 -8.731175E+03 -8.056410E+03 -1.436362E+03  2.964927E+02  1.057333E+03
       140  27  2.554687E+05 -1.134550E+04 -1.047157E+04 -5.636117E+03  4.956808E+02  1.483865E+03
       141   1  3.626017E+05  1.517278E+04  1.540202E+04 -5.595891E+03 -1.862719E+02 -1.736421E+03
       141   2  3.733099E+05  1.780646E+04  1.835080E+04 -1.417897E+03 -7.135761E+02 -2.165929E+03
       141   3  3.841987E+05  2.084762E+04  2.174664E+04 -5.702571E+03 -1.240818E+03 -2.575934E+03
       141   4  3.013876E+05 -1.654433E+01  6.468127E+02 -5.649424E+03 -3.971522E+02 -1.736457E+03
       141   5  3.012979E+05 -5.436138E+01  1.031439E+03 -1.418091E+03 -9.150372E+02 -2.165979E+03
       141   6  3.013872E+05  3.137365E+02  1.856671E+03 -5.649487E+03 -1.432851E+03 -2.575997E+03
       141   7  2.401770E+05 -1.520614E+04 -1.410866E+04 -5.702951E+03 -6.080118E+02 -1.736493E+03
       141   8  2.292907E+05 -1.791556E+04 -1.628829E+04 -1.418285E+03 -1.116475E+03 -2.166029E+03
       141   9  2.185821E+05 -2.022064E+04 -1.803379E+04 -5.596411E+03 -1.624858E+03 -2.576060E+03
       141  10  3.626017E+05  1.517278E+04  1.540201E+04 -5.595891E+03 -1.053296E-09  2.053076E-10
       141  11  3.733099E+05  1.780646E+04  1.835079E+04 -1.417898E+03  2.819348E-09  1.658816E-10
       141  12  3.841987E+05  2.084761E+04  2.174663E+04 -5.702574E+03  1.040437E-09  4.174219E-10
       141  13  3.013876E+05 -1.654761E+01  6.468067E+02 -5.649424E+03 -1.007516E-09  2.196399E-10
       141  14  3.012979E+05 -5.436664E+01  1.031429E+03 -1.418093E+03 -2.028933E-10  7.859872E-12
       141  15  3.013872E+05  3.137288E+02  1.856655E+03 -5.649490E+03  4.235574E-10  8.919238E-11
       141  16  2.401770E+05 -1.520614E+04 -1.410867E+04 -5.702952E+03  4.543494E-10  6.586194E-11
       141  17  2.292907E+05 -1.791557E+04 -1.628831E+04 -1.418287E+03  5.612343E-10 -2.794337E-10
       141  18  2.185821E+05 -2.022065E+04 -1.803381E+04 -5.596414E+03 -5.671710E-10  9.395871E-11
       141  19  3.626017E+05  1.517278E+04  1.540202E+04 -5.595891E+03  1.862719E+02  1.736421E+03
       141  20  3.733099E+05  1.780646E+04  1.835080E+04 -1.417897E+03  7.135761E+02  2.165929E+03
       141  21  3.841987E+05  2.084762E+04  2.174664E+04 -5.702571E+03  1.240818E+03  2.575934E+03
       141  22  3.013876E+05 -1.654433E+01  6.468127E+02 -5.649424E+03  3.971522E+02  1.736457E+03
       141  23  3.012979E+05 -5.436138E+01  1.031439E+03 -1.418091E+03  9.150372E+02  2.165979E+03
       141  24  3.013872E+05  3.137365E+02  1.856671E+03 -5.649487E+03  1.432851E+03  2.575997E+03
       141  25  2.401770E+05 -1.520614E+04 -1.410866E+04 -5.702951E+03  6.080118E+02  1.736493E+03
       141  26  2.292907E+05 -1.791556E+04 -1.628829E+04 -1.418285E+03  1.116475E+03  2.166029E+03
       141  27  2.185821E+05 -2.022064E+04 -1.803379E+04 -5.596411E+03  1.624858E+03  2.576060E+03
       142   1  3.998959E+05  2.422879E+04  2.602320E+04 -5.244425E+03 -1.536714E+03 -2.866375E+03
       142   2  4.102030E+05  2.661723E+04  3.019318E+04 -1.570864E+03 -3.685479E+03 -3.295580E+03
       142   3  4.217521E+05  3.276844E+04  3.670659E+04 -6.450632E+03 -5.834318E+03 -3.458523E+03
       142   4  3.016178E+05 -1.521677E+02  2.358975E+03 -5.669261E+03 -1.806304E+03 -2.866469E+03
       142   5  3.010074E+05 -4.646891E+02  3.934793E+03 -1.393114E+03 -3.826884E+03 -3.295664E+03
       142   6  3.016167E+05  2.963646E+03  7.765331E+03 -5.670372E+03 -5.847497E+03 -3.458579E+03
       142   7  2.033486E+05 -2.453383E+04 -2.130594E+04 -6.094030E+03 -2.075852E+03 -2.866563E+03
       142   8  1.918227E+05 -2.754748E+04 -2.232444E+04 -1.215397E+03 -3.968263E+03 -3.295748E+03
       142   9  1.814945E+05 -2.684220E+04 -2.117695E+04 -4.890265E+03 -5.860673E+03 -3.458636E+03
       142  10  3.998958E+05  2.422878E+04  2.602318E+04 -5.244428E+03 -9.209094E-10  8.561337E-10
       142  11  4.102030E+05  2.661722E+04  3.019313E+04 -1.570873E+03 -1.969908E-09  1.462825E-09
       142  12  4.217520E+05  3.276842E+04  3.670650E+04 -6.450649E+03 -3.716041E-09 -3.910557E-10
       142  13  3.016178E+05 -1.521774E+02  2.358953E+03 -5.669265E+03  1.209264E-09  5.461135E-11
       142  14  3.010074E+05 -4.647047E+02  3.934745E+03 -1.393125E+03 -1.251457E-09 -1.551807E-09
       142  15  3.016167E+05  2.963624E+03  7.765245E+03 -5.670389E+03  3.257148E-10 -4.412345E-09
       142  16  2.033485E+05 -2.453384E+04 -2.130597E+04 -6.094035E+03  1.450388E-09  4.733462E-10
       142  17  1.918227E+05 -2.754750E+04 -2.232449E+04 -1.215408E+03  2.720284E-09  1.577350E-09
       142  18  1.814945E+05 -2.684222E+04 -2.117704E+04 -4.890281E+03  3.272365E-09  5.113616E-10
       142  19  3.998959E+05  2.422879E+04  2.602320E+04 -5.244425E+03  1.536714E+03  2.866375E+03
       142  20  4.102030E+05  2.661723E+04  3.019318E+04 -1.570864E+03  3.685479E+03  3.295580E+03
       142  21  4.217521E+05  3.276844E+04  3.670659E+04 -6.450632E+03  5.834318E+03  3.458523E+03
       142  22  3.016178E+05 -1.521677E+02  2.358975E+03 -5.669261E+03  1.806304E+03  2.866469E+03
       142  23  3.010074E+05 -4.646891E+02  3.934793E+03 -1.393114E+03  3.826884E+03  3.295664E+03
       142  24  3.016167E+05  2.963646E+03  7.765331E+03 -5.670372E+03  5.847497E+03  3.458579E+03
       142  25  2.033486E+05 -2.453383E+04 -2.130594E+04 -6.094030E+03  2.075852E+03  2.866563E+03
       142  26  1.918227E+05 -2.754748E+04 -2.232444E+04 -1.215397E+03  3.968263E+03  3.295748E+03
       142  27  1.814945E+05 -2.684220E+04 -2.117695E+04 -4.890265E+03  5.860673E+03  3.458636E+03
       143   1  4.393197E+05  3.229729E+04  4.213519E+04 -2.104353E+03 -6.340159E+03 -4.201511E+03
       143   2  4.454972E+05  3.227249E+04  5.039174E+04 -3.686913E+03 -1.615019E+04 -4.571621E+03
       143   3  4.616061E+05  6.672237E+04  7.365819E+04 -1.389781E+04 -2.596240E+04 -1.539403E+03
       143   4  3.034899E+05 -1.387355E+03  9.503469E+03 -5.681259E+03 -7.331712E+03 -4.201958E+03
       143   5  2.986626E+05 -4.132536E+03  1.512537E+04 -1.375447E+03 -1.550606E+04 -4.571417E+03
       143   6  3.034852E+05  2.731738E+04  3.462415E+04 -5.697943E+03 -2.368240E+04 -1.538379E+03
       143   7  1.676770E+05 -3.507329E+04 -2.312955E+04 -9.257380E+03 -8.323048E+03 -4.202394E+03
       143   8  1.518478E+05 -4.053911E+04 -2.014253E+04  9.354675E+02 -1.486209E+04 -4.571209E+03
       143   9  1.453871E+05 -1.208922E+04 -4.411697E+03  2.499828E+03 -2.140297E+04 -1.537295E+03
       143  10  4.393197E+05  3.229726E+04  4.213508E+04 -2.104375E+03  3.622054E-09 -7.151377E-10
       143  11  4.454969E+05  3.227239E+04  5.039122E+04 -3.686972E+03  3.123897E-09 -3.484693E-11
       143  12  4.616054E+05  6.672219E+04  7.365692E+04 -1.389784E+04  2.639650E-09  2.885769E-10
       143  13  3.034898E+05 -1.387389E+03  9.503335E+03 -5.681283E+03  9.927623E-10 -6.168943E-09
       143  14  2.986624E+05 -4.132623E+03  1.512488E+04 -1.375504E+03 -1.043026E-09 -1.948215E-10
       143  15  3.034846E+05  2.731723E+04  3.462309E+04 -5.697972E+03 -8.229895E-10 -8.569880E-11
       143  16  1.676769E+05 -3.507333E+04 -2.312971E+04 -9.257409E+03 -4.814757E-09  2.425586E-10
       143  17  1.518476E+05 -4.053919E+04 -2.014298E+04  9.354128E+02 -1.875464E-09  1.732570E-09
       143  18  1.453866E+05 -1.208934E+04 -4.412562E+03  2.499801E+03 -1.560265E-10 -2.466223E-10
       143  19  4.393197E+05  3.229729E+04  4.213519E+04 -2.104353E+03  6.340159E+03  4.201511E+03
       143  20  4.454972E+05  3.227249E+04  5.039174E+04 -3.686913E+03  1.615019E+04  4.571621E+03
       143  21  4.616061E+05  6.672237E+04  7.365819E+04 -1.389781E+04  2.596240E+04  1.539403E+03
       143  22  3.034899E+05 -1.387355E+03  9.503469E+03 -5.681259E+03  7.331712E+03  4.201958E+03
       143  23  2.986626E+05 -4.132536E+03  1.512537E+04 -1.375447E+03  1.550606E+04  4.571417E+03
       143  24  3.034852E+05  2.731738E+04  3.462415E+04 -5.697943E+03  2.368240E+04  1.538379E+03
       143  25  1.676770E+05 -3.507329E+04 -2.312955E+04 -9.257380E+03  8.323048E+03  4.202394E+03
       143  26  1.518478E+05 -4.053911E+04 -2.014253E+04  9.354675E+02  1.486209E+04  4.571209E+03
       143  27  1.453871E+05 -1.208922E+04 -4.411697E+03  2.499828E+03  2.140297E+04  1.537295E+03
       144   1  2.635710E+06  1.071873E+07  2.639751E+06 -1.295237E+06  9.031335E+04  1.930481E+05
       144   2  1.933198E+06  8.309879E+06  1.950318E+06 -3.780534E+05  2.475168E+05  4.518858E+04
       144   3  1.417041E+06  6.015608E+06  1.411107E+06 -1.283310E+06  1.635890E+05 -1.040172E+05
       144   4  8.413102E+04  4.228023E+05  1.113199E+05 -1.234667E+06  9.100397E+04  5.784649E+04
       144   5 -2.386215E+04  3.812271E+05  5.581135E+04 -3.227444E+05  2.478728E+05  2.788650E+04
       144   6  3.528959E+04  4.291573E+05  7.042567E+04 -1.234706E+06  1.622550E+05 -3.990247E+03
       144   7 -2.475270E+06 -9.777705E+06 -2.424834E+06 -1.174898E+06  9.167634E+04 -7.515167E+04
       144   8 -1.985453E+06 -7.490320E+06 -1.843123E+06 -2.680019E+05  2.482287E+05  1.080061E+04
       144   9 -1.348716E+06 -5.128886E+06 -1.272432E+06 -1.186411E+06  1.609299E+05  9.514684E+04
       144  10  2.635691E+06  1.071868E+07  2.639667E+06 -1.295251E+06 -2.780169E-09 -1.735558E-09
       144  11  1.933132E+06  8.309861E+06  1.950199E+06 -3.780624E+05 -8.888215E-09  4.452034E-09
       144  12  1.417010E+06  6.015590E+06  1.411036E+06 -1.283296E+06  6.020109E-09 -1.781433E-08
       144  13  8.412121E+04  4.227965E+05  1.112980E+05 -1.234671E+06 -2.610835E-09 -2.565317E-09
       144  14 -2.392835E+04  3.812098E+05  5.569439E+04 -3.227499E+05 -4.266280E-09  8.727819E-09
       144  15  3.526131E+04  4.291503E+05  7.037617E+04 -1.234706E+06  5.849848E-09 -4.934518E-09
       144  16 -2.475280E+06 -9.777713E+06 -2.424861E+06 -1.174892E+06 -3.360216E-09 -9.311683E-10
       144  17 -1.985519E+06 -7.490337E+06 -1.843240E+06 -2.680041E+05  8.936617E-10  1.408468E-08
       144  18 -1.348746E+06 -5.128902E+06 -1.272498E+06 -1.186424E+06  5.237815E-10  6.031438E-09
       144  19  2.635710E+06  1.071873E+07  2.639751E+06 -1.295237E+06 -9.031335E+04 -1.930481E+05
       144  20  1.933198E+06  8.309879E+06  1.950318E+06 -3.780534E+05 -2.475168E+05 -4.518858E+04
       144  21  1.417041E+06  6.015608E+06  1.411107E+06 -1.283310E+06 -1.635890E+05  1.040172E+05
       144  22  8.413102E+04  4.228023E+05  1.113199E+05 -1.234667E+06 -9.100397E+04 -5.784649E+04
       144  23 -2.386215E+04  3.812271E+05  5.581135E+04 -3.227444E+05 -2.478728E+05 -2.788650E+04
       144  24  3.528959E+04  4.291573E+05  7.042567E+04 -1.234706E+06 -1.622550E+05  3.990247E+03
       144  25 -2.475270E+06 -9.777705E+06 -2.424834E+06 -1.174898E+06 -9.167634E+04  7.515167E+04
       144  26 -1.985453E+06 -7.490320E+06 -1.843123E+06 -2.680019E+05 -2.482287E+05 -1.080061E+04
       144  27 -1.348716E+06 -5.128886E+06 -1.272432E+06 -1.186411E+06 -1.609299E+05 -9.514684E+04
       145   1  5.951171E+05  2.666262E+06  6.120078E+05 -1.267942E+06  7.122556E+04 -5.376460E+04
       145   2 -1.788614E+04  3.492972E+05  7.642628E+04 -3.189071E+05 -7.127801E+02 -1.026094E+05
       145   3 -5.070081E+05 -1.987742E+06 -4.105440E+05 -1.191449E+06 -7.226630E+04 -1.512600E+05
       145   4  3.596580E+04  4.110386E+05  7.109873E+04 -1.234324E+06  7.068997E+04 -1.871803E+04
       145   5  6.797377E+02  4.235778E+05  9.430379E+04 -3.232041E+05 -1.233072E+03 -6.780465E+04
       145   6  8.964793E+04  4.109791E+05  1.665385E+05 -1.233528E+06 -7.278234E+04 -1.168746E+05
       145   7 -5.235519E+05 -1.839539E+06 -4.701662E+05 -1.200805E+06  7.015709E+04  1.620224E+04
       145   8  1.924592E+04  4.978661E+05  1.121855E+05 -3.275016E+05 -1.753814E+03 -3.299578E+04
       145   9  6.858888E+05  2.814980E+06  7.432158E+05 -1.275745E+06 -7.330197E+04 -8.235590E+04
       145  10  5.951109E+05  2.666258E+06  6.119929E+05 -1.267939E+06  4.827758E-09 -2.994377E-08
       145  11 -1.788896E+04  3.492859E+05  7.640651E+04 -3.189071E+05  2.987654E-09 -2.059459E-09
       145  12 -5.070199E+05 -1.987769E+06 -4.105970E+05 -1.191458E+06 -6.803683E-09 -2.094495E-08
       145  13  3.596034E+04  4.110368E+05  7.108869E+04 -1.234323E+06  2.993066E-09 -1.473725E-08
       145  14  6.785030E+02  4.235729E+05  9.429515E+04 -3.232042E+05  5.828500E-09  1.554502E-08
       145  15  8.963855E+04  4.109630E+05  1.665028E+05 -1.233535E+06  1.051748E-08 -5.512394E-09
       145  16 -5.235572E+05 -1.839540E+06 -4.701760E+05 -1.200806E+06  1.201708E-09  1.531822E-08
       145  17  1.924562E+04  4.978649E+05  1.121834E+05 -3.275017E+05 -1.049455E-08  3.326672E-08
       145  18  6.858812E+05  2.814971E+06  7.431930E+05 -1.275750E+06 -2.591180E-09  8.932752E-09
       145  19  5.951171E+05  2.666262E+06  6.120078E+05 -1.267942E+06 -7.122556E+04  5.376460E+04
       145  20 -1.788614E+04  3.492972E+05  7.642628E+04 -3.189071E+05  7.127801E+02  1.026094E+05
       145  21 -5.070081E+05 -1.987742E+06 -4.105440E+05 -1.191449E+06  7.226630E+04  1.512600E+05
       145  22  3.596580E+04  4.110386E+05  7.109873E+04 -1.234324E+06 -7.068997E+04  1.871803E+04
       145  23  6.797377E+02  4.235778E+05  9.430379E+04 -3.232041E+05  1.233072E+03  6.780465E+04
       145  24  8.964793E+04  4.109791E+05  1.665385E+05 -1.233528E+06  7.278234E+04  1.168746E+05
       145  25 -5.235519E+05 -1.839539E+06 -4.701662E+05 -1.200805E+06 -7.015709E+04 -1.620224E+04
       145  26  1.924592E+04  4.978661E+05  1.121855E+05 -3.275016E+05  1.753814E+03  3.299578E+04
       145  27  6.858888E+05  2.814980E+06  7.432158E+05 -1.275745E+06  7.330197E+04  8.235590E+04
       146   1 -1.413419E+06 -5.239552E+06 -1.172177E+06 -1.246534E+06 -1.632403E+05 -2.503333E+05
       146   2 -2.095015E+06 -7.684982E+06 -1.629305E+06 -2.273846E+05 -2.502470E+05 -2.987987E+05
       146   3 -2.037572E+06 -9.885291E+06 -1.860601E+06 -1.033746E+06 -9.151817E+04 -3.451912E+05
       146   4  5.383261E+03  4.663210E+05  2.058969E+05 -1.235639E+06 -1.645716E+05 -1.513033E+05
       146   5 -9.552321E+04  3.339616E+05  3.055004E+05 -3.225404E+05 -2.498444E+05 -3.184948E+05
       146   6  5.589245E+05  4.598173E+05  7.112775E+05 -1.233159E+06 -9.076932E+04 -4.838296E+05
       146   7  1.421814E+06  6.202146E+06  1.581680E+06 -1.224509E+06 -1.658926E+05 -5.135527E+04
       146   8  1.899280E+06  8.412191E+06  2.235710E+06 -4.188040E+05 -2.494392E+05 -3.384255E+05
       146   9  3.147498E+06  1.090318E+07  3.275232E+06 -1.435748E+06 -8.993982E+04 -6.247495E+05
       146  10 -1.413465E+06 -5.239627E+06 -1.172346E+06 -1.246567E+06  8.433365E-10 -2.436454E-08
       146  11 -2.095107E+06 -7.685096E+06 -1.629592E+06 -2.274451E+05  6.646013E-09  3.004064E-10
       146  12 -2.037614E+06 -9.885423E+06 -1.860845E+06 -1.033772E+06  2.418783E-09  2.008844E-11
       146  13  5.347960E+03  4.662891E+05  2.058027E+05 -1.235659E+06 -8.054078E-09 -1.293883E-08
       146  14 -9.561750E+04  3.338360E+05  3.051924E+05 -3.226045E+05  4.469388E-09  8.481666E-09
       146  15  5.588527E+05  4.595639E+05  7.108220E+05 -1.233194E+06 -3.069863E-10 -8.061551E-10
       146  16  1.421784E+06  6.202136E+06  1.581623E+06 -1.224516E+06  5.030858E-09  1.144693E-08
       146  17  1.899183E+06  8.412053E+06  2.235380E+06 -4.188717E+05 -1.357688E-09  1.604867E-08
       146  18  3.147387E+06  1.090277E+07  3.274495E+06 -1.435794E+06 -2.908240E-09 -1.989479E-09
       146  19 -1.413419E+06 -5.239552E+06 -1.172177E+06 -1.246534E+06  1.632403E+05  2.503333E+05
       146  20 -2.095015E+06 -7.684982E+06 -1.629305E+06 -2.273846E+05  2.502470E+05  2.987987E+05
       146  21 -2.037572E+06 -9.885291E+06 -1.860601E+06 -1.033746E+06  9.151817E+04  3.451912E+05
       146  22  5.383261E+03  4.663210E+05  2.058969E+05 -1.235639E+06  1.645716E+05  1.513033E+05
       146  23 -9.552321E+04  3.339616E+05  3.055004E+05 -3.225404E+05  2.498444E+05  3.184948E+05
       146  24  5.589245E+05  4.598173E+05  7.112775E+05 -1.233159E+06  9.076932E+04  4.838296E+05
       146  25  1.421814E+06  6.202146E+06  1.581680E+06 -1.224509E+06  1.658926E+05  5.135527E+04
       146  26  1.899280E+06  8.412191E+06  2.235710E+06 -4.188040E+05  2.494392E+05  3.384255E+05
       146  27  3.147498E+06  1.090318E+07  3.275232E+06 -1.435748E+06  8.993982E+04  6.247495E+05
       147   1 -5.365685E+05 -2.388691E+05 -1.205764E+05 -2.341885E+05 -5.915681E+04 -1.818653E+04
       147   2 -5.060885E+05 -1.799555E+05 -7.075030E+04 -2.207050E+05 -3.606346E+04 -3.374116E+02
       147   3 -4.837049E+05 -1.493153E+05 -4.682931E+04 -2.068981E+05 -1.060972E+04  1.123285E+04
       147   4 -2.922217E+05 -1.180041E+05 -5.274798E+04 -1.370625E+05 -3.580027E+04 -9.422205E+03
       147   5 -2.866803E+05 -8.537311E+04 -2.516069E+04 -1.446514E+05 -2.581780E+04  3.506890E+03
       147   6 -2.866333E+05 -7.841298E+04 -1.308152E+04 -1.519189E+05 -1.347682E+04  1.015630E+04
       147   7 -4.781809E+04  2.877045E+03  1.507594E+04 -3.989918E+04 -1.243423E+04 -6.515123E+02
       147   8 -6.722267E+04  9.218741E+03  2.042655E+04 -6.857134E+04 -1.556833E+04  7.353231E+03
       147   9 -8.951881E+04 -7.506263E+03  2.066567E+04 -9.692286E+04 -1.634491E+04  9.079385E+03
       147  10 -5.365723E+05 -2.388704E+05 -1.205836E+05 -2.341893E+05 -2.874714E-09 -4.633791E-10
       147  11 -5.060899E+05 -1.799559E+05 -7.075275E+04 -2.207050E+05  6.098163E-10  2.824595E-10
       147  12 -4.837051E+05 -1.493155E+05 -4.682976E+04 -2.068980E+05  3.332341E-09 -2.386837E-10
       147  13 -2.922231E+05 -1.180046E+05 -5.275056E+04 -1.370628E+05  9.220655E-10  6.795790E-10
       147  14 -2.866811E+05 -8.537330E+04 -2.516197E+04 -1.446513E+05  1.840285E-09  7.061087E-10
       147  15 -2.866335E+05 -7.841314E+04 -1.308205E+04 -1.519187E+05  3.524355E-10 -8.107823E-10
       147  16 -4.781826E+04  2.877003E+03  1.507565E+04 -3.989919E+04  1.171001E-09  9.193236E-10
       147  17 -6.722294E+04  9.218618E+03  2.042600E+04 -6.857124E+04  4.677682E-10  1.363019E-10
       147  18 -8.951912E+04 -7.506424E+03  2.066501E+04 -9.692274E+04 -2.078530E-09 -1.555421E-09
       147  19 -5.365685E+05 -2.388691E+05 -1.205764E+05 -2.341885E+05  5.915681E+04  1.818653E+04
       147  20 -5.060885E+05 -1.799555E+05 -7.075030E+04 -2.207050E+05  3.606346E+04  3.374116E+02
       147  21 -4.837049E+05 -1.493153E+05 -4.682931E+04 -2.068981E+05  1.060972E+04 -1.123285E+04
       147  22 -2.922217E+05 -1.180041E+05 -5.274798E+04 -1.370625E+05  3.580027E+04  9.422205E+03
       147  23 -2.866803E+05 -8.537311E+04 -2.516069E+04 -1.446514E+05  2.581780E+04 -3.506890E+03
       147  24 -2.866333E+05 -7.841298E+04 -1.308152E+04 -1.519189E+05  1.347682E+04 -1.015630E+04
       147  25 -4.781809E+04  2.877045E+03  1.507594E+04 -3.989918E+04  1.243423E+04  6.515123E+02
       147  26 -6.722267E+04  9.218741E+03  2.042655E+04 -6.857134E+04  1.556833E+04 -7.353231E+03
       147  27 -8.951881E+04 -7.506263E+03  2.066567E+04 -9.692286E+04  1.634491E+04 -9.079385E+03
       148   1 -4.591287E+05 -1.417620E+05 -3.900643E+04 -2.021188E+05 -8.957383E+03  1.070349E+04
       148   2 -4.271650E+05 -1.240826E+05 -2.741182E+04 -1.899555E+05 -4.346436E+03  1.057991E+04
       148   3 -3.918879E+05 -1.129034E+05 -1.930902E+04 -1.826731E+05  5.251565E+02  9.761906E+03
       148   4 -2.851042E+05 -7.759362E+04 -9.716732E+03 -1.517582E+05 -1.162741E+04  9.701027E+03
       148   5 -2.867055E+05 -7.308735E+04 -5.053207E+03 -1.498420E+05 -8.466217E+03  9.033615E+03
       148   6 -2.847066E+05 -7.479384E+04 -2.731781E+03 -1.528074E+05 -5.044589E+03  7.671775E+03
       148   7 -1.110494E+05 -1.342258E+04  1.957164E+04 -1.013848E+05 -1.429821E+04  8.698261E+03
       148   8 -1.462247E+05 -2.208991E+04  1.730511E+04 -1.097200E+05 -1.258698E+04  7.486940E+03
       148   9 -1.775115E+05 -3.668256E+04  1.384577E+04 -1.229364E+05 -1.061542E+04  5.581243E+03
       148  10 -4.591288E+05 -1.417621E+05 -3.900680E+04 -2.021187E+05 -8.361479E-10 -1.932100E-09
       148  11 -4.271651E+05 -1.240827E+05 -2.741206E+04 -1.899554E+05 -1.441803E-09 -1.395326E-09
       148  12 -3.918879E+05 -1.129035E+05 -1.930920E+04 -1.826732E+05  1.731706E-10 -8.099098E-10
       148  13 -2.851043E+05 -7.759375E+04 -9.717163E+03 -1.517581E+05 -1.649152E-09 -1.836254E-09
       148  14 -2.867056E+05 -7.308745E+04 -5.053495E+03 -1.498420E+05 -5.618079E-09 -1.991134E-09
       148  15 -2.847066E+05 -7.479391E+04 -2.731940E+03 -1.528073E+05  8.847141E-10  8.412210E-10
       148  16 -1.110496E+05 -1.342272E+04  1.957112E+04 -1.013847E+05 -2.088531E-09 -1.753423E-09
       148  17 -1.462249E+05 -2.209002E+04  1.730470E+04 -1.097199E+05 -5.239389E-10 -5.063512E-10
       148  18 -1.775117E+05 -3.668262E+04  1.384550E+04 -1.229363E+05  6.098748E-09  2.975633E-09
       148  19 -4.591287E+05 -1.417620E+05 -3.900643E+04 -2.021188E+05  8.957383E+03 -1.070349E+04
       148  20 -4.271650E+05 -1.240826E+05 -2.741182E+04 -1.899555E+05  4.346436E+03 -1.057991E+04
       148  21 -3.918879E+05 -1.129034E+05 -1.930902E+04 -1.826731E+05 -5.251565E+02 -9.761906E+03
       148  22 -2.851042E+05 -7.759362E+04 -9.716732E+03 -1.517582E+05  1.162741E+04 -9.701027E+03
       148  23 -2.867055E+05 -7.308735E+04 -5.053207E+03 -1.498420E+05  8.466217E+03 -9.033615E+03
       148  24 -2.847066E+05 -7.479384E+04 -2.731781E+03 -1.528074E+05  5.044589E+03 -7.671775E+03
       148  25 -1.110494E+05 -1.342258E+04  1.957164E+04 -1.013848E+05  1.429821E+04 -8.698261E+03
       148  26 -1.462247E+05 -2.208991E+04  1.730511E+04 -1.097200E+05  1.258698E+04 -7.486940E+03
       148  27 -1.775115E+05 -3.668256E+04  1.384577E+04 -1.229364E+05  1.061542E+04 -5.581243E+03
       149   1 -3.701816E+05 -1.052995E+05 -1.514004E+04 -1.767811E+05  1.462128E+03  8.316606E+03
       149   2 -3.383328E+05 -9.068811E+04 -8.964541E+03 -1.646116E+05  3.186864E+03  5.889692E+03
       149   3 -3.020490E+05 -8.081411E+04 -3.358636E+03 -1.576797E+05  4.940287E+03  3.386036E+03
       149   4 -2.845544E+05 -7.475315E+04 -2.042033E+03 -1.527756E+05 -4.086414E+03  6.234549E+03
       149   5 -2.867762E+05 -7.232710E+04 -1.106624E+03 -1.501838E+05 -2.521996E+03  3.747599E+03
       149   6 -2.845325E+05 -7.460671E+04 -6.137827E+02 -1.528300E+05 -9.289367E+02  1.183902E+03
       149   7 -1.989192E+05 -4.420601E+04  1.105599E+04 -1.287669E+05 -9.635763E+03  4.152191E+03
       149   8 -2.352170E+05 -5.396591E+04  6.751302E+03 -1.357549E+05 -8.231320E+03  1.605333E+03
       149   9 -2.670158E+05 -6.839933E+04  2.131151E+03 -1.479801E+05 -6.798264E+03 -1.018269E+03
       149  10 -3.701817E+05 -1.052996E+05 -1.514017E+04 -1.767811E+05  7.804508E-09  2.201093E-09
       149  11 -3.383329E+05 -9.068815E+04 -8.964625E+03 -1.646116E+05 -4.399528E-09  5.410147E-10
       149  12 -3.020490E+05 -8.081413E+04 -3.358703E+03 -1.576797E+05 -6.247726E-09  7.178342E-10
       149  13 -2.845545E+05 -7.475320E+04 -2.042137E+03 -1.527756E+05  1.873471E-09  1.122104E-09
       149  14 -2.867762E+05 -7.232712E+04 -1.106662E+03 -1.501838E+05 -9.337489E-10  1.211266E-10
       149  15 -2.845325E+05 -7.460671E+04 -6.137870E+02 -1.528300E+05 -2.526345E-09 -2.412005E-10
       149  16 -1.989193E+05 -4.420605E+04  1.105578E+04 -1.287669E+05  2.494871E-10  2.492899E-10
       149  17 -2.352171E+05 -5.396593E+04  6.751170E+03 -1.357549E+05 -1.712067E-09 -1.336587E-09
       149  18 -2.670159E+05 -6.839935E+04  2.131062E+03 -1.479801E+05  3.314869E-09 -1.337117E-09
       149  19 -3.701816E+05 -1.052995E+05 -1.514004E+04 -1.767811E+05 -1.462128E+03 -8.316606E+03
       149  20 -3.383328E+05 -9.068811E+04 -8.964541E+03 -1.646116E+05 -3.186864E+03 -5.889692E+03
       149  21 -3.020490E+05 -8.081411E+04 -3.358636E+03 -1.576797E+05 -4.940287E+03 -3.386036E+03
       149  22 -2.845544E+05 -7.475315E+04 -2.042033E+03 -1.527756E+05  4.086414E+03 -6.234549E+03
       149  23 -2.867762E+05 -7.232710E+04 -1.106624E+03 -1.501838E+05  2.521996E+03 -3.747599E+03
       149  24 -2.845325E+05 -7.460671E+04 -6.137827E+02 -1.528300E+05  9.289367E+02 -1.183902E+03
       149  25 -1.989192E+05 -4.420601E+04  1.105599E+04 -1.287669E+05  9.635763E+03 -4.152191E+03
       149  26 -2.352170E+05 -5.396591E+04  6.751302E+03 -1.357549E+05  8.231320E+03 -1.605333E+03
       149  27 -2.670158E+05 -6.839933E+04  2.131151E+03 -1.479801E+05  6.798264E+03  1.018269E+03
       150   1 -2.806191E+05 -7.317512E+04  1.622566E+02 -1.516911E+05  5.640816E+03  1.780484E+03
       150   2 -2.488264E+05 -5.875326E+04  5.410572E+03 -1.394991E+05  6.845415E+03 -9.752488E+02
       150   3 -2.124699E+05 -4.892644E+04  1.054589E+04 -1.325585E+05  8.052630E+03 -3.737773E+03
       150   4 -2.845143E+05 -7.460889E+04 -4.651800E+02 -1.528229E+05 -2.261052E+02 -4.207773E+02
       150   5 -2.867975E+05 -7.231600E+04 -2.711046E+02 -1.501956E+05  9.640628E+02 -3.182024E+03
       150   6 -2.845161E+05 -7.461583E+04 -1.789662E+02 -1.528206E+05  2.156836E+03 -5.950061E+03
       150   7 -2.884095E+05 -7.604265E+04 -1.092483E+03 -1.539546E+05 -6.093060E+03 -2.622050E+03
       150   8 -3.247672E+05 -8.587865E+04 -5.952719E+03 -1.608916E+05 -4.916947E+03 -5.388671E+03
       150   9 -3.565566E+05 -1.003046E+05 -1.090374E+04 -1.730805E+05 -3.738240E+03 -8.162079E+03
       150  10 -2.806191E+05 -7.317513E+04  1.621909E+02 -1.516911E+05 -3.150425E-09  4.591634E-10
       150  11 -2.488265E+05 -5.875328E+04  5.410482E+03 -1.394991E+05  7.509408E-09  2.312678E-09
       150  12 -2.124700E+05 -4.892647E+04  1.054574E+04 -1.325585E+05  7.726134E-09  2.286301E-10
       150  13 -2.845143E+05 -7.460889E+04 -4.651804E+02 -1.528229E+05  1.993744E-09  7.983638E-10
       150  14 -2.867975E+05 -7.231602E+04 -2.711254E+02 -1.501956E+05  5.115241E-09  1.656346E-09
       150  15 -2.845161E+05 -7.461587E+04 -1.790415E+02 -1.528206E+05  2.200144E-09 -1.829368E-09
       150  16 -2.884095E+05 -7.604267E+04 -1.092566E+03 -1.539547E+05  1.217776E-08  1.554482E-09
       150  17 -3.247672E+05 -8.587869E+04 -5.952819E+03 -1.608916E+05  4.225341E-09  1.291671E-09
       150  18 -3.565566E+05 -1.003047E+05 -1.090389E+04 -1.730805E+05 -9.518747E-09 -3.660305E-09
       150  19 -2.806191E+05 -7.317512E+04  1.622566E+02 -1.516911E+05 -5.640816E+03 -1.780484E+03
       150  20 -2.488264E+05 -5.875326E+04  5.410572E+03 -1.394991E+05 -6.845415E+03  9.752488E+02
       150  21 -2.124699E+05 -4.892644E+04  1.054589E+04 -1.325585E+05 -8.052630E+03  3.737773E+03
       150  22 -2.845143E+05 -7.460889E+04 -4.651800E+02 -1.528229E+05  2.261052E+02  4.207773E+02
       150  23 -2.867975E+05 -7.231600E+04 -2.711046E+02 -1.501956E+05 -9.640628E+02  3.182024E+03
       150  24 -2.845161E+05 -7.461583E+04 -1.789662E+02 -1.528206E+05 -2.156836E+03  5.950061E+03
       150  25 -2.884095E+05 -7.604265E+04 -1.092483E+03 -1.539546E+05  6.093060E+03  2.622050E+03
       150  26 -3.247672E+05 -8.587865E+04 -5.952719E+03 -1.608916E+05  4.916947E+03  5.388671E+03
       150  27 -3.565566E+05 -1.003046E+05 -1.090374E+04 -1.730805E+05  3.738240E+03  8.162079E+03
       151   1 -1.910765E+05 -4.127852E+04  1.392761E+04 -1.265616E+05  8.697252E+03 -5.370418E+03
       151   2 -1.593044E+05 -2.686077E+04  1.897269E+04 -1.143668E+05  9.805741E+03 -8.166112E+03
       151   3 -1.229531E+05 -1.702439E+04  2.398009E+04 -1.074198E+05  1.090952E+04 -1.094864E+04
       151   4 -2.845159E+05 -7.461763E+04 -1.589201E+02 -1.528191E+05  2.801655E+03 -7.582736E+03
       151   5 -2.868041E+05 -7.232898E+04 -1.588856E+02 -1.501937E+05  3.937379E+03 -1.036849E+04
       151   6 -2.845195E+05 -7.462711E+04 -2.180799E+02 -1.528165E+05  5.068396E+03 -1.314110E+04
       151   7 -3.779446E+05 -1.079553E+05 -1.424510E+04 -1.790725E+05 -3.092935E+03 -9.794676E+03
       151   8 -4.142860E+05 -1.177954E+05 -1.929051E+04 -1.860136E+05 -1.929710E+03 -1.257039E+04
       151   9 -4.460595E+05 -1.322277E+05 -2.441696E+04 -1.982026E+05 -7.711913E+02 -1.533298E+04
       151  10 -1.910766E+05 -4.127858E+04  1.392742E+04 -1.265616E+05 -1.189005E-08 -5.701800E-09
       151  11 -1.593045E+05 -2.686087E+04  1.897238E+04 -1.143667E+05 -2.792165E-09 -1.245561E-09
       151  12 -1.229533E+05 -1.702455E+04  2.397964E+04 -1.074197E+05  2.780390E-09  1.787606E-09
       151  13 -2.845159E+05 -7.461770E+04 -1.590428E+02 -1.528190E+05 -1.336147E-09 -2.548428E-09
       151  14 -2.868041E+05 -7.232910E+04 -1.591167E+02 -1.501936E+05 -1.079232E-09 -5.962308E-10
       151  15 -2.845196E+05 -7.462730E+04 -2.184526E+02 -1.528165E+05 -3.050440E-09 -2.093263E-10
       151  16 -3.779446E+05 -1.079554E+05 -1.424530E+04 -1.790725E+05 -7.470879E-10  4.029813E-10
       151  17 -4.142860E+05 -1.177956E+05 -1.929081E+04 -1.860136E+05 -4.179842E-10  2.265732E-10
       151  18 -4.460595E+05 -1.322280E+05 -2.441740E+04 -1.982026E+05  3.870704E-09 -1.657801E-09
       151  19 -1.910765E+05 -4.127852E+04  1.392761E+04 -1.265616E+05 -8.697252E+03  5.370418E+03
       151  20 -1.593044E+05 -2.686077E+04  1.897269E+04 -1.143668E+05 -9.805741E+03  8.166112E+03
       151  21 -1.229531E+05 -1.702439E+04  2.398009E+04 -1.074198E+05 -1.090952E+04  1.094864E+04
       151  22 -2.845159E+05 -7.461763E+04 -1.589201E+02 -1.528191E+05 -2.801655E+03  7.582736E+03
       151  23 -2.868041E+05 -7.232898E+04 -1.588856E+02 -1.501937E+05 -3.937379E+03  1.036849E+04
       151  24 -2.845195E+05 -7.462711E+04 -2.180799E+02 -1.528165E+05 -5.068396E+03  1.314110E+04
       151  25 -3.779446E+05 -1.079553E+05 -1.424510E+04 -1.790725E+05  3.092935E+03  9.794676E+03
       151  26 -4.142860E+05 -1.177954E+05 -1.929051E+04 -1.860136E+05  1.929710E+03  1.257039E+04
       151  27 -4.460595E+05 -1.322277E+05 -2.441696E+04 -1.982026E+05  7.711913E+02  1.533298E+04
       152   1 -1.015686E+05 -9.374210E+03  2.730332E+04 -1.014275E+05  1.156539E+04 -1.256435E+04
       152   2 -6.982793E+04  5.052760E+03  3.226631E+04 -8.923097E+04  1.256871E+04 -1.530813E+04
       152   3 -3.350632E+04  1.490444E+04  3.724706E+04 -8.226620E+04  1.352608E+04 -1.792850E+04
       152   4 -2.845299E+05 -7.462754E+04 -2.730026E+02 -1.528170E+05  5.721365E+03 -1.475813E+04
       152   5 -2.868027E+05 -7.235093E+04 -4.682569E+02 -1.501884E+05  6.982252E+03 -1.740572E+04
       152   6 -2.845465E+05 -7.470091E+04 -8.498377E+02 -1.527922E+05  8.197179E+03 -1.992987E+04
       152   7 -4.674548E+05 -1.398772E+05 -2.784958E+04 -2.041921E+05 -1.208380E+02 -1.695123E+04
       152   8 -5.037249E+05 -1.497490E+05 -3.320288E+04 -2.111253E+05  1.397890E+03 -1.950252E+04
       152   9 -5.355153E+05 -1.642983E+05 -3.894657E+04 -2.232904E+05  2.870614E+03 -2.193035E+04
       152  10 -1.015688E+05 -9.374416E+03  2.730278E+04 -1.014274E+05  2.518775E-09  7.509537E-10
       152  11 -6.982816E+04  5.052466E+03  3.226557E+04 -8.923082E+04  6.707807E-09  1.345222E-09
       152  12 -3.350661E+04  1.490405E+04  3.724611E+04 -8.226601E+04  2.864176E-09  1.901581E-09
       152  13 -2.845300E+05 -7.462778E+04 -2.734733E+02 -1.528169E+05  9.211704E-10  4.820804E-10
       152  14 -2.868028E+05 -7.235127E+04 -4.689177E+02 -1.501883E+05  2.541460E-09  1.307760E-09
       152  15 -2.845467E+05 -7.470135E+04 -8.507103E+02 -1.527920E+05  6.766325E-10 -2.754992E-10
       152  16 -4.674549E+05 -1.398775E+05 -2.785012E+04 -2.041921E+05  1.080604E-08 -2.023018E-10
       152  17 -5.037250E+05 -1.497494E+05 -3.320360E+04 -2.111252E+05  4.755805E-09  3.698280E-10
       152  18 -5.355154E+05 -1.642988E+05 -3.894749E+04 -2.232903E+05  1.465520E-10 -1.020992E-09
       152  19 -1.015686E+05 -9.374210E+03  2.730332E+04 -1.014275E+05 -1.156539E+04  1.256435E+04
       152  20 -6.982793E+04  5.052760E+03  3.226631E+04 -8.923097E+04 -1.256871E+04  1.530813E+04
       152  21 -3.350632E+04  1.490444E+04  3.724706E+04 -8.226620E+04 -1.352608E+04  1.792850E+04
       152  22 -2.845299E+05 -7.462754E+04 -2.730026E+02 -1.528170E+05 -5.721365E+03  1.475813E+04
       152  23 -2.868027E+05 -7.235093E+04 -4.682569E+02 -1.501884E+05 -6.982252E+03  1.740572E+04
       152  24 -2.845465E+05 -7.470091E+04 -8.498377E+02 -1.527922E+05 -8.197179E+03  1.992987E+04
       152  25 -4.674548E+05 -1.398772E+05 -2.784958E+04 -2.041921E+05  1.208380E+02  1.695123E+04
       152  26 -5.037249E+05 -1.497490E+05 -3.320288E+04 -2.111253E+05 -1.397890E+03  1.950252E+04
       152  27 -5.355153E+05 -1.642983E+05 -3.894657E+04 -2.232904E+05 -2.870614E+03  2.193035E+04
       153   1 -1.209106E+04  2.255026E+04  4.051250E+04 -7.631678E+04  1.428700E+04 -1.938908E+04
       153   2  1.931772E+04  3.710971E+04  4.577992E+04 -6.383094E+04  1.377642E+04 -2.187452E+04
       153   3  5.531708E+04  4.693164E+04  5.192062E+04 -5.637215E+04  1.284895E+04 -2.324909E+04
       153   4 -2.846192E+05 -7.470965E+04 -1.132419E+03 -1.527914E+05  8.924689E+03 -2.140330E+04
       153   5 -2.867703E+05 -7.269511E+04 -2.090058E+03 -1.500597E+05  1.073531E+04 -2.301783E+04
       153   6 -2.847924E+05 -7.587881E+04 -4.014027E+03 -1.523562E+05  1.212904E+04 -2.352111E+04
       153   7 -5.570705E+05 -1.719630E+05 -4.277922E+04 -2.292354E+05  3.564803E+03 -2.341662E+04
       153   8 -5.927593E+05 -1.824907E+05 -4.996213E+04 -2.362490E+05  7.695774E+03 -2.416055E+04
       153   9 -6.247784E+05 -1.986772E+05 -5.995136E+04 -2.482908E+05  1.140955E+04 -2.379296E+04
       153  10 -1.209138E+04  2.254980E+04  4.051141E+04 -7.631656E+04 -4.940475E-09  1.583949E-10
       153  11  1.931738E+04  3.710915E+04  4.577867E+04 -6.383070E+04 -3.442806E-09  2.319806E-09
       153  12  5.531676E+04  4.693102E+04  5.191929E+04 -5.637191E+04 -1.353657E-09  1.846541E-09
       153  13 -2.846194E+05 -7.471016E+04 -1.133429E+03 -1.527913E+05 -2.901147E-09 -2.339868E-10
       153  14 -2.867705E+05 -7.269571E+04 -2.091270E+03 -1.500595E+05 -9.892057E-11  2.093485E-09
       153  15 -2.847928E+05 -7.587944E+04 -4.015343E+03 -1.523559E+05 -3.665293E-09  1.455974E-09
       153  16 -5.570706E+05 -1.719636E+05 -4.278028E+04 -2.292353E+05  4.285130E-09  1.151205E-09
       153  17 -5.927595E+05 -1.824914E+05 -4.996334E+04 -2.362489E+05 -1.325149E-09  2.294019E-09
       153  18 -6.247787E+05 -1.986779E+05 -5.995267E+04 -2.482906E+05 -1.183155E-09  1.834499E-09
       153  19 -1.209106E+04  2.255026E+04  4.051250E+04 -7.631678E+04 -1.428700E+04  1.938908E+04
       153  20  1.931772E+04  3.710971E+04  4.577992E+04 -6.383094E+04 -1.377642E+04  2.187452E+04
       153  21  5.531708E+04  4.693164E+04  5.192062E+04 -5.637215E+04 -1.284895E+04  2.324909E+04
       153  22 -2.846192E+05 -7.470965E+04 -1.132419E+03 -1.527914E+05 -8.924689E+03  2.140330E+04
       153  23 -2.867703E+05 -7.269511E+04 -2.090058E+03 -1.500597E+05 -1.073531E+04  2.301783E+04
       153  24 -2.847924E+05 -7.587881E+04 -4.014027E+03 -1.523562E+05 -1.212904E+04  2.352111E+04
       153  25 -5.570705E+05 -1.719630E+05 -4.277922E+04 -2.292354E+05 -3.564803E+03  2.341662E+04
       153  26 -5.927593E+05 -1.824907E+05 -4.996213E+04 -2.362490E+05 -7.695774E+03  2.416055E+04
       153  27 -6.247784E+05 -1.986772E+05 -5.995136E+04 -2.482908E+05 -1.140955E+04  2.379296E+04
       154   1  7.714479E+04  5.433557E+04  5.564572E+04 -5.085064E+04  1.400475E+04 -2.352499E+04
       154   2  1.039981E+05  7.044394E+04  6.657628E+04 -3.317332E+04 -3.311049E+03 -2.486279E+04
       154   3  1.349946E+05  7.788564E+04  8.773684E+04 -1.792151E+04 -2.440223E+04 -1.615990E+04
       154   4 -2.855133E+05 -7.613216E+04 -5.402567E+03 -1.523212E+05  1.297036E+04 -2.391526E+04
       154   5 -2.866650E+05 -7.788912E+04 -1.039207E+04 -1.480426E+05  1.664333E+04 -1.736866E+04
       154   6 -2.878341E+05 -9.247379E+04 -2.178368E+04 -1.461904E+05  1.654103E+04 -7.775051E+02
       154   7 -6.480305E+05 -2.065865E+05 -6.645402E+04 -2.537360E+05  1.193661E+04 -2.430528E+04
       154   8 -6.771614E+05 -2.262019E+05 -8.736373E+04 -2.628413E+05  3.658392E+04 -9.880214E+03
       154   9 -7.104699E+05 -2.628066E+05 -1.313080E+05 -2.743721E+05  5.745247E+04  1.459091E+04
       154  10  7.714444E+04  5.433492E+04  5.564431E+04 -5.085038E+04  3.757366E-09  1.937054E-09
       154  11  1.039979E+05  7.044327E+04  6.657510E+04 -3.317339E+04 -7.074085E-09 -4.366919E-09
       154  12  1.349939E+05  7.788520E+04  8.773523E+04 -1.792183E+04 -1.051491E-08 -3.483226E-09
       154  13 -2.855136E+05 -7.613282E+04 -5.403958E+03 -1.523209E+05 -6.629402E-09 -7.110753E-10
       154  14 -2.866654E+05 -7.788952E+04 -1.039316E+04 -1.480424E+05 -1.036907E-08 -2.558284E-09
       154  15 -2.878344E+05 -9.247387E+04 -2.178420E+04 -1.461904E+05 -3.488386E-09 -1.533374E-10
       154  16 -6.480308E+05 -2.065871E+05 -6.645540E+04 -2.537357E+05 -9.300005E-09 -2.756742E-09
       154  17 -6.771629E+05 -2.262024E+05 -8.736643E+04 -2.628411E+05 -5.717643E-09 -1.805364E-09
       154  18 -7.104735E+05 -2.628078E+05 -1.313146E+05 -2.743728E+05  3.419625E-09  1.226711E-09
       154  19  7.714479E+04  5.433557E+04  5.564572E+04 -5.085064E+04 -1.400475E+04  2.352499E+04
       154  20  1.039981E+05  7.044394E+04  6.657628E+04 -3.317332E+04  3.311049E+03  2.486279E+04
       154  21  1.349946E+05  7.788564E+04  8.773684E+04 -1.792151E+04  2.440223E+04  1.615990E+04
       154  22 -2.855133E+05 -7.613216E+04 -5.402567E+03 -1.523212E+05 -1.297036E+04  2.391526E+04
       154  23 -2.866650E+05 -7.788912E+04 -1.039207E+04 -1.480426E+05 -1.664333E+04  1.736866E+04
       154  24 -2.878341E+05 -9.247379E+04 -2.178368E+04 -1.461904E+05 -1.654103E+04  7.775051E+02
       154  25 -6.480305E+05 -2.065865E+05 -6.645402E+04 -2.537360E+05 -1.193661E+04  2.430528E+04
       154  26 -6.771614E+05 -2.262019E+05 -8.736373E+04 -2.628413E+05 -3.658392E+04  9.880214E+03
       154  27 -7.104699E+05 -2.628066E+05 -1.313080E+05 -2.743721E+05 -5.745247E+04 -1.459091E+04
       155   1 -1.637558E+05 -2.792533E+04 -5.164923E+04 -1.946121E+04 -7.181701E+04 -2.342890E+03
       155   2 -1.620282E+05  6.837309E+04  5.481262E+03 -5.879615E+03 -4.825599E+04 -6.965223E+03
       155   3 -1.903807E+05  5.645415E+04  2.023054E+04  1.799578E+04 -2.469986E+04 -6.531039E+03
       155   4 -4.000864E+05 -8.683941E+04 -1.100251E+05  6.685423E+03 -7.523580E+04 -2.348396E+03
       155   5 -3.848216E+05  1.310709E+04 -4.806722E+04  1.503968E+03 -4.925750E+04 -6.966815E+03
       155   6 -4.000691E+05  4.394115E+03 -3.018134E+04  6.616746E+03 -2.328348E+04 -6.529340E+03
       155   7 -6.363647E+05 -1.457551E+05 -1.684047E+05  3.282208E+04 -7.865328E+04 -2.354191E+03
       155   8 -6.075695E+05 -4.216231E+04 -1.016192E+05  8.884882E+03 -5.025864E+04 -6.968431E+03
       155   9 -6.097169E+05 -4.766864E+04 -8.059628E+04 -4.758438E+03 -2.186758E+04 -6.527693E+03
       155  10 -1.637613E+05 -2.792672E+04 -5.165894E+04 -1.946134E+04 -8.754236E-10  3.576310E-11
       155  11 -1.620307E+05  6.837241E+04  5.476794E+03 -5.879886E+03 -6.725850E-10 -1.047116E-09
       155  12 -1.903814E+05  5.645394E+04  2.022931E+04  1.799565E+04 -2.946093E-09 -1.587720E-09
       155  13 -4.000925E+05 -8.684093E+04 -1.100357E+05  6.685281E+03 -1.920583E-09  7.198704E-10
       155  14 -3.848243E+05  1.310639E+04 -4.807187E+04  1.503692E+03 -3.682051E-09 -4.316009E-10
       155  15 -4.000697E+05  4.393923E+03 -3.018244E+04  6.616624E+03  1.856185E-09 -2.272721E-10
       155  16 -6.363713E+05 -1.457567E+05 -1.684163E+05  3.282193E+04 -4.881834E-10  6.444516E-10
       155  17 -6.075722E+05 -4.216304E+04 -1.016240E+05  8.884600E+03  2.243166E-10 -1.629787E-09
       155  18 -6.097174E+05 -4.766881E+04 -8.059726E+04 -4.758553E+03 -3.496716E-10 -3.179107E-09
       155  19 -1.637558E+05 -2.792533E+04 -5.164923E+04 -1.946121E+04  7.181701E+04  2.342890E+03
       155  20 -1.620282E+05  6.837309E+04  5.481262E+03 -5.879615E+03  4.825599E+04  6.965223E+03
       155  21 -1.903807E+05  5.645415E+04  2.023054E+04  1.799578E+04  2.469986E+04  6.531039E+03
       155  22 -4.000864E+05 -8.683941E+04 -1.100251E+05  6.685423E+03  7.523580E+04  2.348396E+03
       155  23 -3.848216E+05  1.310709E+04 -4.806722E+04  1.503968E+03  4.925750E+04  6.966815E+03
       155  24 -4.000691E+05  4.394115E+03 -3.018134E+04  6.616746E+03  2.328348E+04  6.529340E+03
       155  25 -6.363647E+05 -1.457551E+05 -1.684047E+05  3.282208E+04  7.865328E+04  2.354191E+03
       155  26 -6.075695E+05 -4.216231E+04 -1.016192E+05  8.884882E+03  5.025864E+04  6.968431E+03
       155  27 -6.097169E+05 -4.766864E+04 -8.059628E+04 -4.758438E+03  2.186758E+04  6.527693E+03
       156   1 -2.036028E+05  3.786239E+04  2.127739E+04  4.288962E+03 -1.854402E+04 -5.492633E+03
       156   2 -2.153251E+05  4.536967E+04  3.008652E+04  8.997873E+02 -1.232624E+04 -5.354651E+03
       156   3 -2.308097E+05  4.103545E+04  3.188832E+04  8.170088E+03 -6.109098E+03 -4.811732E+03
       156   4 -3.941343E+05 -9.437329E+03 -2.465970E+04  6.727997E+03 -1.857426E+04 -5.492853E+03
       156   5 -3.922340E+05  1.463337E+03 -1.248635E+04  1.392705E+03 -1.216394E+04 -5.354575E+03
       156   6 -3.941307E+05  4.871863E+02 -7.455601E+03  6.717094E+03 -5.754119E+03 -4.811347E+03
       156   7 -5.846326E+05 -5.673968E+04 -7.059938E+04  9.166271E+03 -1.860449E+04 -5.493073E+03
       156   8 -5.691143E+05 -4.244528E+04 -5.506145E+04  1.885474E+03 -1.200168E+04 -5.354498E+03
       156   9 -5.574273E+05 -4.006302E+04 -4.680142E+04  5.264477E+03 -5.399233E+03 -4.810964E+03
       156  10 -2.036032E+05  3.786227E+04  2.127669E+04  4.288880E+03 -3.080202E-09 -2.601403E-09
       156  11 -2.153252E+05  4.536960E+04  3.008618E+04  8.997341E+02 -1.136646E-10  5.968177E-10
       156  12 -2.308098E+05  4.103542E+04  3.188820E+04  8.170064E+03 -9.388429E-10  1.804837E-09
       156  13 -3.941347E+05 -9.437454E+03 -2.466041E+04  6.727915E+03  5.904508E-10 -2.321622E-09
       156  14 -3.922342E+05  1.463267E+03 -1.248668E+04  1.392653E+03  4.544043E-10 -8.299604E-10
       156  15 -3.941308E+05  4.871526E+02 -7.455707E+03  6.717072E+03  8.817425E-10 -8.412283E-10
       156  16 -5.846329E+05 -5.673980E+04 -7.060009E+04  9.166189E+03  3.169977E-09 -1.328532E-09
       156  17 -5.691144E+05 -4.244534E+04 -5.506177E+04  1.885422E+03  3.373617E-09 -1.227910E-10
       156  18 -5.574274E+05 -4.006305E+04 -4.680152E+04  5.264456E+03  1.543944E-09  8.148835E-10
       156  19 -2.036028E+05  3.786239E+04  2.127739E+04  4.288962E+03  1.854402E+04  5.492633E+03
       156  20 -2.153251E+05  4.536967E+04  3.008652E+04  8.997873E+02  1.232624E+04  5.354651E+03
       156  21 -2.308097E+05  4.103545E+04  3.188832E+04  8.170088E+03  6.109098E+03  4.811732E+03
       156  22 -3.941343E+05 -9.437329E+03 -2.465970E+04  6.727997E+03  1.857426E+04  5.492853E+03
       156  23 -3.922340E+05  1.463337E+03 -1.248635E+04  1.392705E+03  1.216394E+04  5.354575E+03
       156  24 -3.941307E+05  4.871863E+02 -7.455601E+03  6.717094E+03  5.754119E+03  4.811347E+03
       156  25 -5.846326E+05 -5.673968E+04 -7.059938E+04  9.166271E+03  1.860449E+04  5.493073E+03
       156  26 -5.691143E+05 -4.244528E+04 -5.506145E+04  1.885474E+03  1.200168E+04  5.354498E+03
       156  27 -5.574273E+05 -4.006302E+04 -4.680142E+04  5.264477E+03  5.399233E+03  4.810964E+03
       157   1 -2.496886E+05  3.466694E+04  2.870558E+04  6.703049E+03 -4.818255E+03 -4.433929E+03
       157   2 -2.632935E+05  3.239607E+04  2.804844E+04  1.440879E+03 -3.227948E+03 -3.912579E+03
       157   3 -2.774386E+05  2.886244E+04  2.603620E+04  7.056108E+03 -1.637880E+03 -3.355570E+03
       157   4 -3.934064E+05 -9.979338E+02 -5.852877E+03  6.770017E+03 -4.576958E+03 -4.433675E+03
       157   5 -3.931341E+05  1.683912E+02 -3.202174E+03  1.330515E+03 -2.969877E+03 -3.912267E+03
       157   6 -3.934053E+05  6.887596E+01 -1.918443E+03  6.768556E+03 -1.363000E+03 -3.355197E+03
       157   7 -5.371053E+05 -3.666431E+04 -4.041280E+04  6.836964E+03 -4.335717E+03 -4.433421E+03
       157   8 -5.229592E+05 -3.206051E+04 -3.445399E+04  1.220168E+03 -2.711861E+03 -3.911955E+03
       157   9 -5.093596E+05 -2.872567E+04 -2.987405E+04  6.481054E+03 -1.088172E+03 -3.354825E+03
       157  10 -2.496886E+05  3.466691E+04  2.870550E+04  6.703031E+03  4.538585E-10  2.669851E-09
       157  11 -2.632935E+05  3.239605E+04  2.804839E+04  1.440869E+03  4.040620E-09  1.809360E-09
       157  12 -2.774386E+05  2.886243E+04  2.603618E+04  7.056104E+03 -2.373057E-09  1.121093E-09
       157  13 -3.934064E+05 -9.979606E+02 -5.852953E+03  6.770001E+03  2.061249E-09 -1.188726E-09
       157  14 -3.931341E+05  1.683724E+02 -3.202219E+03  1.330506E+03  3.208734E-10  1.470840E-09
       157  15 -3.934053E+05  6.886337E+01 -1.918468E+03  6.768553E+03  1.842199E-09  5.315510E-09
       157  16 -5.371053E+05 -3.666433E+04 -4.041287E+04  6.836949E+03 -3.290959E-10  1.697736E-09
       157  17 -5.229592E+05 -3.206053E+04 -3.445403E+04  1.220160E+03  6.781446E-10  2.736622E-09
       157  18 -5.093596E+05 -2.872568E+04 -2.987407E+04  6.481051E+03  2.805040E-09  3.740539E-09
       157  19 -2.496886E+05  3.466694E+04  2.870558E+04  6.703049E+03  4.818255E+03  4.433929E+03
       157  20 -2.632935E+05  3.239607E+04  2.804844E+04  1.440879E+03  3.227948E+03  3.912579E+03
       157  21 -2.774386E+05  2.886244E+04  2.603620E+04  7.056108E+03  1.637880E+03  3.355570E+03
       157  22 -3.934064E+05 -9.979338E+02 -5.852877E+03  6.770017E+03  4.576958E+03  4.433675E+03
       157  23 -3.931341E+05  1.683912E+02 -3.202174E+03  1.330515E+03  2.969877E+03  3.912267E+03
       157  24 -3.934053E+05  6.887596E+01 -1.918443E+03  6.768556E+03  1.363000E+03  3.355197E+03
       157  25 -5.371053E+05 -3.666431E+04 -4.041280E+04  6.836964E+03  4.335717E+03  4.433421E+03
       157  26 -5.229592E+05 -3.206051E+04 -3.445399E+04  1.220168E+03  2.711861E+03  3.911955E+03
       157  27 -5.093596E+05 -2.872567E+04 -2.987405E+04  6.481054E+03  1.088172E+03  3.354825E+03
       158   1 -2.972819E+05  2.374265E+04  2.155315E+04  6.905481E+03 -1.321566E+03 -3.025733E+03
       158   2 -3.112847E+05  2.037062E+04  1.875622E+04  1.391269E+03 -8.417612E+02 -2.467585E+03
       158   3 -3.254143E+05  1.688122E+04  1.560995E+04  6.903631E+03 -3.620837E+02 -1.904478E+03
       158   4 -3.933117E+05 -8.510344E+01 -1.518549E+03  6.802276E+03 -1.055189E+03 -3.025353E+03
       158   5 -3.932476E+05  2.587861E+01 -9.718022E+02  1.288863E+03 -5.730742E+02 -2.467180E+03
       158   6 -3.933112E+05  1.903377E+01 -7.760844E+02  6.802114E+03 -9.107623E+01 -1.904046E+03
       158   7 -4.893330E+05 -2.391353E+04 -2.459090E+04  6.699084E+03 -7.888525E+02 -3.024973E+03
       158   8 -4.752044E+05 -2.031935E+04 -2.070030E+04  1.186468E+03 -3.044226E+02 -2.466774E+03
       158   9 -4.612038E+05 -1.684349E+04 -1.716244E+04  6.700606E+03  1.799017E+02 -1.903613E+03
       158  10 -2.972819E+05  2.374264E+04  2.155313E+04  6.905478E+03  4.171274E-09  1.053492E-09
       158  11 -3.112847E+05  2.037061E+04  1.875621E+04  1.391267E+03 -1.768831E-09  3.365414E-09
       158  12 -3.254143E+05  1.688122E+04  1.560994E+04  6.903630E+03 -6.988257E-09  3.063901E-09
       158  13 -3.933117E+05 -8.511357E+01 -1.518568E+03  6.802274E+03 -2.313060E-10  2.362925E-09
       158  14 -3.932476E+05  2.587199E+01 -9.718142E+02  1.288862E+03  1.021788E-09  2.068628E-09
       158  15 -3.933112E+05  1.902987E+01 -7.760913E+02  6.802114E+03  1.520833E-09  5.085629E-10
       158  16 -4.893330E+05 -2.391353E+04 -2.459092E+04  6.699082E+03 -2.917421E-09  2.598420E-09
       158  17 -4.752044E+05 -2.031936E+04 -2.070031E+04  1.186467E+03  3.233306E-09 -9.181154E-10
       158  18 -4.612038E+05 -1.684350E+04 -1.716245E+04  6.700607E+03  5.925230E-09 -1.392187E-09
       158  19 -2.972819E+05  2.374265E+04  2.155315E+04  6.905481E+03  1.321566E+03  3.025733E+03
       158  20 -3.112847E+05  2.037062E+04  1.875622E+04  1.391269E+03  8.417612E+02  2.467585E+03
       158  21 -3.254143E+05  1.688122E+04  1.560995E+04  6.903631E+03  3.620837E+02  1.904478E+03
       158  22 -3.933117E+05 -8.510344E+01 -1.518549E+03  6.802276E+03  1.055189E+03  3.025353E+03
       158  23 -3.932476E+05  2.587861E+01 -9.718022E+02  1.288863E+03  5.730742E+02  2.467180E+03
       158  24 -3.933112E+05  1.903377E+01 -7.760844E+02  6.802114E+03  9.107623E+01  1.904046E+03
       158  25 -4.893330E+05 -2.391353E+04 -2.459090E+04  6.699084E+03  7.888525E+02  3.024973E+03
       158  26 -4.752044E+05 -2.031935E+04 -2.070030E+04  1.186468E+03  3.044226E+02  2.466774E+03
       158  27 -4.612038E+05 -1.684349E+04 -1.716244E+04  6.700606E+03 -1.799017E+02  1.903613E+03
       159   1 -3.455629E+05  1.186086E+04  1.068167E+04  6.864970E+03 -2.232672E+02 -1.575348E+03
       159   2 -3.596669E+05  8.361129E+03  7.157320E+03  1.304045E+03  2.356539E+02 -1.009908E+03
       159   3 -3.739026E+05  4.754965E+03  3.297750E+03  6.853371E+03  6.945294E+02 -4.445734E+02
       159   4 -3.933114E+05  1.723344E+01 -7.681696E+02  6.820701E+03  4.768505E+01 -1.574904E+03
       159   5 -3.932455E+05  2.603642E+01 -9.251422E+02  1.265634E+03  5.065317E+02 -1.009456E+03
       159   6 -3.933113E+05 -7.152036E+01 -1.417228E+03  6.820853E+03  9.653432E+02 -4.441112E+02
       159   7 -4.410578E+05 -1.182656E+04 -1.221817E+04  6.776435E+03  3.186165E+02 -1.574461E+03
       159   8 -4.268232E+05 -8.309138E+03 -9.007684E+03  1.227224E+03  7.773950E+02 -1.009003E+03
       159   9 -4.127198E+05 -4.898033E+03 -6.132234E+03  6.788337E+03  1.236149E+03 -4.436491E+02
       159  10 -3.455629E+05  1.186085E+04  1.068166E+04  6.864969E+03  6.152551E-09  9.715529E-10
       159  11 -3.596669E+05  8.361128E+03  7.157318E+03  1.304046E+03  4.462572E-09 -8.326850E-10
       159  12 -3.739026E+05  4.754965E+03  3.297749E+03  6.853371E+03 -1.599765E-09 -1.257599E-09
       159  13 -3.933114E+05  1.723078E+01 -7.681743E+02  6.820701E+03  3.822019E-09  4.875545E-09
       159  14 -3.932455E+05  2.603526E+01 -9.251446E+02  1.265634E+03 -1.047068E-09  4.250675E-10
       159  15 -3.933113E+05 -7.152082E+01 -1.417231E+03  6.820854E+03  7.606683E-10 -1.686216E-09
       159  16 -4.410578E+05 -1.182656E+04 -1.221817E+04  6.776436E+03 -6.147909E-09  2.419649E-09
       159  17 -4.268232E+05 -8.309140E+03 -9.007687E+03  1.227225E+03 -2.225776E-09 -3.591809E-10
       159  18 -4.127198E+05 -4.898034E+03 -6.132237E+03  6.788337E+03  2.826345E-09 -2.091375E-09
       159  19 -3.455629E+05  1.186086E+04  1.068167E+04  6.864970E+03  2.232672E+02  1.575348E+03
       159  20 -3.596669E+05  8.361129E+03  7.157320E+03  1.304045E+03 -2.356539E+02  1.009908E+03
       159  21 -3.739026E+05  4.754965E+03  3.297750E+03  6.853371E+03 -6.945294E+02  4.445734E+02
       159  22 -3.933114E+05  1.723344E+01 -7.681696E+02  6.820701E+03 -4.768505E+01  1.574904E+03
       159  23 -3.932455E+05  2.603642E+01 -9.251422E+02  1.265634E+03 -5.065317E+02  1.009456E+03
       159  24 -3.933113E+05 -7.152036E+01 -1.417228E+03  6.820853E+03 -9.653432E+02  4.441112E+02
       159  25 -4.410578E+05 -1.182656E+04 -1.221817E+04  6.776435E+03 -3.186165E+02  1.574461E+03
       159  26 -4.268232E+05 -8.309138E+03 -9.007684E+03  1.227224E+03 -7.773950E+02  1.009003E+03
       159  27 -4.127198E+05 -4.898033E+03 -6.132234E+03  6.788337E+03 -1.236149E+03  4.436491E+02
       160   1 -3.942249E+05 -1.449699E+02 -2.024872E+03  6.678469E+03  9.761702E+02 -1.118077E+02
       160   2 -4.081463E+05 -3.566270E+03 -6.572078E+03  1.268415E+03  2.469488E+03  4.566545E+02
       160   3 -4.225994E+05 -8.149097E+03 -1.239239E+04  6.982186E+03  3.962817E+03  1.007322E+03
       160   4 -3.933998E+05  6.910554E+01 -1.782919E+03  6.823224E+03  1.251957E+03 -1.113349E+02
       160   5 -3.931349E+05  1.599149E+02 -2.958946E+03  1.262147E+03  2.736769E+03  4.571079E+02
       160   6 -3.934004E+05 -9.092842E+02 -5.402110E+03  6.824883E+03  4.221627E+03  1.007756E+03
       160   7 -3.925747E+05  2.831811E+02 -1.540967E+03  6.967979E+03  1.527745E+03 -1.108620E+02
       160   8 -3.781233E+05  3.886083E+03  6.541702E+02  1.255880E+03  3.004057E+03  4.575613E+02
       160   9 -3.642005E+05  6.330467E+03  1.588105E+03  6.667572E+03  4.480448E+03  1.008190E+03
       160  10 -3.942249E+05 -1.449702E+02 -2.024874E+03  6.678469E+03 -1.345065E-09  2.060524E-09
       160  11 -4.081463E+05 -3.566272E+03 -6.572090E+03  1.268414E+03 -2.749089E-09  3.155864E-10
       160  12 -4.225995E+05 -8.149102E+03 -1.239242E+04  6.982183E+03 -1.612248E-09  1.578512E-09
       160  13 -3.933998E+05  6.910510E+01 -1.782922E+03  6.823224E+03 -1.242592E-09 -4.850440E-10
       160  14 -3.931349E+05  1.599127E+02 -2.958960E+03  1.262146E+03 -1.982885E-09  8.568807E-10
       160  15 -3.934004E+05 -9.092901E+02 -5.402146E+03  6.824880E+03  2.875105E-10  2.913379E-09
       160  16 -3.925747E+05  2.831804E+02 -1.540971E+03  6.967979E+03  2.843055E-09 -2.672651E-11
       160  17 -3.781233E+05  3.886081E+03  6.541529E+02  1.255878E+03  6.017693E-09 -4.028787E-09
       160  18 -3.642005E+05  6.330460E+03  1.588066E+03  6.667569E+03  2.535888E-09  1.560630E-09
       160  19 -3.942249E+05 -1.449699E+02 -2.024872E+03  6.678469E+03 -9.761702E+02  1.118077E+02
       160  20 -4.081463E+05 -3.566270E+03 -6.572078E+03  1.268415E+03 -2.469488E+03 -4.566545E+02
       160  21 -4.225994E+05 -8.149097E+03 -1.239239E+04  6.982186E+03 -3.962817E+03 -1.007322E+03
       160  22 -3.933998E+05  6.910553E+01 -1.782919E+03  6.823224E+03 -1.251957E+03  1.113349E+02
       160  23 -3.931349E+05  1.599149E+02 -2.958946E+03  1.262147E+03 -2.736769E+03 -4.571079E+02
       160  24 -3.934004E+05 -9.092842E+02 -5.402110E+03  6.824883E+03 -4.221627E+03 -1.007756E+03
       160  25 -3.925747E+05  2.831811E+02 -1.540967E+03  6.967979E+03 -1.527745E+03  1.108620E+02
       160  26 -3.781233E+05  3.886083E+03  6.541702E+02  1.255880E+03 -3.004057E+03 -4.575613E+02
       160  27 -3.642005E+05  6.330467E+03  1.588105E+03  6.667572E+03 -4.480448E+03 -1.008190E+03
       161   1 -4.434615E+05 -1.181423E+04 -1.880920E+04  5.551957E+03  4.986315E+03  1.369555E+03
       161   2 -4.558027E+05 -1.440438E+04 -2.679748E+04  1.797538E+03  1.100330E+04  1.938557E+03
       161   3 -4.717090E+05 -2.795701E+04 -4.145435E+04  9.117317E+03  1.702046E+04  2.285506E+03
       161   4 -3.940707E+05  4.592860E+02 -6.880044E+03  6.808071E+03  5.308060E+03  1.370098E+03
       161   5 -3.922989E+05  1.356784E+03 -1.151453E+04  1.278338E+03  1.121905E+04  1.938887E+03
       161   6 -3.940736E+05 -8.689171E+03 -2.274344E+04  6.822798E+03  1.713035E+04  2.285598E+03
       161   7 -3.446778E+05  1.273263E+04  5.048937E+03  8.064284E+03  5.629830E+03  1.370642E+03
       161   8 -3.287913E+05  1.711766E+04  3.768141E+03  7.590837E+02  1.143482E+04  1.939216E+03
       161   9 -3.164326E+05  1.057825E+04 -4.032956E+03  4.527988E+03  1.724025E+04  2.285689E+03
       161  10 -4.434615E+05 -1.181424E+04 -1.880925E+04  5.551951E+03 -1.133128E-09  3.069319E-09
       161  11 -4.558028E+05 -1.440442E+04 -2.679771E+04  1.797521E+03 -1.718371E-10 -1.252567E-09
       161  12 -4.717093E+05 -2.795709E+04 -4.145491E+04  9.117286E+03  7.460818E-10  4.497651E-09
       161  13 -3.940708E+05  4.592764E+02 -6.880100E+03  6.808065E+03  1.986440E-09  2.170929E-09
       161  14 -3.922990E+05  1.356746E+03 -1.151477E+04  1.278321E+03  3.431632E-09  9.631233E-10
       161  15 -3.940739E+05 -8.689255E+03 -2.274400E+04  6.822766E+03  4.097502E-09  1.572694E-09
       161  16 -3.446778E+05  1.273262E+04  5.048874E+03  8.064278E+03  3.666668E-11  1.739733E-09
       161  17 -3.287915E+05  1.711762E+04  3.767888E+03  7.590659E+02  1.422974E-09 -1.727292E-09
       161  18 -3.164329E+05  1.057816E+04 -4.033525E+03  4.527957E+03  2.857102E-10 -3.028667E-09
       161  19 -4.434615E+05 -1.181423E+04 -1.880920E+04  5.551957E+03 -4.986315E+03 -1.369555E+03
       161  20 -4.558027E+05 -1.440438E+04 -2.679748E+04  1.797538E+03 -1.100330E+04 -1.938557E+03
       161  21 -4.717090E+05 -2.795701E+04 -4.145435E+04  9.117317E+03 -1.702046E+04 -2.285506E+03
       161  22 -3.940707E+05  4.592860E+02 -6.880044E+03  6.808071E+03 -5.308060E+03 -1.370098E+03
       161  23 -3.922989E+05  1.356784E+03 -1.151453E+04  1.278338E+03 -1.121905E+04 -1.938887E+03
       161  24 -3.940736E+05 -8.689171E+03 -2.274344E+04  6.822798E+03 -1.713035E+04 -2.285598E+03
       161  25 -3.446778E+05  1.273263E+04  5.048937E+03  8.064284E+03 -5.629830E+03 -1.370642E+03
       161  26 -3.287913E+05  1.711766E+04  3.768141E+03  7.590837E+02 -1.143482E+04 -1.939216E+03
       161  27 -3.164326E+05  1.057825E+04 -4.032956E+03  4.527988E+03 -1.724025E+04 -2.285689E+03
       162   1 -4.971940E+05 -2.021104E+04 -5.133589E+04 -3.711693E+03  2.056561E+04  3.014611E+03
       162   2 -4.970201E+05 -1.556305E+04 -7.113819E+04  8.139161E+03  4.585194E+04  3.548227E+03
       162   3 -5.252827E+05 -1.113594E+05 -1.325280E+05  3.096023E+04  7.114224E+04  1.293790E+03
       162   4 -3.995492E+05  4.066522E+03 -2.783605E+04  6.751122E+03  2.147383E+04  3.016347E+03
       162   5 -3.854572E+05  1.209817E+04 -4.432556E+04  1.326675E+03  4.542590E+04  3.547037E+03
       162   6 -3.995651E+05 -8.007397E+04 -1.014702E+05  6.872846E+03  6.938255E+04  1.288486E+03
       162   7 -3.018955E+05  2.834380E+04 -4.336825E+03  1.721559E+04  2.238220E+04  3.018113E+03
       162   8 -2.738829E+05  3.975867E+04 -1.751378E+04 -5.487045E+03  4.499979E+04  3.545857E+03
       162   9 -2.738319E+05 -4.878755E+04 -7.041329E+04 -1.721943E+04  6.762250E+04  1.283320E+03
       162  10 -4.971945E+05 -2.021117E+04 -5.133670E+04 -3.711743E+03  1.979291E-09  3.262765E-09
       162  11 -4.970223E+05 -1.556363E+04 -7.114217E+04  8.139029E+03  2.524507E-09 -1.570811E-09
       162  12 -5.252881E+05 -1.113607E+05 -1.325375E+05  3.096016E+04 -8.113425E-10 -1.229115E-09
       162  13 -3.995497E+05  4.066388E+03 -2.783693E+04  6.751070E+03  3.779407E-09  5.122678E-09
       162  14 -3.854595E+05  1.209760E+04 -4.432946E+04  1.326545E+03 -1.601719E-09 -3.307873E-09
       162  15 -3.995703E+05 -8.007527E+04 -1.014793E+05  6.872774E+03  1.510163E-09  1.206429E-09
       162  16 -3.018961E+05  2.834365E+04 -4.337784E+03  1.721553E+04 -3.214501E-09  2.702333E-09
       162  17 -2.738851E+05  3.975811E+04 -1.751761E+04 -5.487174E+03  3.065978E-09 -1.159534E-10
       162  18 -2.738368E+05 -4.878878E+04 -7.042189E+04 -1.721950E+04  7.470061E-11  1.535592E-10
       162  19 -4.971940E+05 -2.021104E+04 -5.133589E+04 -3.711693E+03 -2.056561E+04 -3.014611E+03
       162  20 -4.970201E+05 -1.556305E+04 -7.113819E+04  8.139161E+03 -4.585194E+04 -3.548227E+03
       162  21 -5.252827E+05 -1.113594E+05 -1.325280E+05  3.096023E+04 -7.114224E+04 -1.293790E+03
       162  22 -3.995492E+05  4.066522E+03 -2.783605E+04  6.751122E+03 -2.147383E+04 -3.016347E+03
       162  23 -3.854572E+05  1.209817E+04 -4.432556E+04  1.326675E+03 -4.542590E+04 -3.547037E+03
       162  24 -3.995651E+05 -8.007397E+04 -1.014702E+05  6.872846E+03 -6.938255E+04 -1.288486E+03
       162  25 -3.018955E+05  2.834380E+04 -4.336825E+03  1.721559E+04 -2.238220E+04 -3.018113E+03
       162  26 -2.738829E+05  3.975867E+04 -1.751378E+04 -5.487045E+03 -4.499979E+04 -3.545857E+03
       162  27 -2.738319E+05 -4.878755E+04 -7.041329E+04 -1.721943E+04 -6.762250E+04 -1.283320E+03
       163   1  1.746362E+05  9.769497E+05  1.895997E+05 -9.368866E+04  4.356783E+03  7.009946E+04
       163   2  7.098953E+04  8.672826E+05  1.134377E+05 -4.890051E+04  1.247508E+04  3.726680E+04
       163   3  4.636522E+04  7.815877E+05  7.837459E+04 -4.879844E+04  9.626878E+03  4.430303E+03
       163   4  7.546786E+04  5.783053E+05  9.236204E+04 -5.962749E+04  4.369555E+03  5.898942E+04
       163   5 -2.688363E+03  5.671119E+05  4.509792E+04 -3.731809E+04  1.247807E+04  3.512849E+04
       163   6 -3.356798E+03  5.783422E+05  3.272490E+04 -5.969233E+04  9.620106E+03  1.125842E+04
       163   7 -2.370779E+04  1.798084E+05 -4.886101E+03 -2.558818E+04  4.381116E+03  4.788648E+04
       163   8 -7.637198E+04  2.670250E+05 -2.324757E+04 -2.574129E+04  1.248099E+04  3.299120E+04
       163   9 -5.308116E+04  3.751354E+05 -1.292718E+04 -7.058261E+04  9.613093E+03  1.808432E+04
       163  10  1.746349E+05  9.769444E+05  1.895904E+05 -9.368890E+04  4.370000E-10  1.244107E-09
       163  11  7.098899E+04  8.672811E+05  1.134348E+05 -4.890088E+04  2.265804E-09 -1.689094E-09
       163  12  4.636512E+04  7.815876E+05  7.837438E+04 -4.879847E+04  7.844147E-10 -1.716244E-09
       163  13  7.546691E+04  5.783016E+05  9.235547E+04 -5.962770E+04  1.976873E-09 -1.678716E-10
       163  14 -2.688861E+03  5.671106E+05  4.509531E+04 -3.731844E+04 -8.793528E-10  8.567552E-10
       163  15 -3.356931E+03  5.783420E+05  3.272449E+04 -5.969241E+04  3.315628E-10 -1.795310E-09
       163  16 -2.370843E+04  1.798059E+05 -4.890445E+03 -2.558835E+04  4.362325E-10 -8.420297E-10
       163  17 -7.637244E+04  2.670238E+05 -2.324991E+04 -2.574162E+04  1.956751E-09 -1.244500E-09
       163  18 -5.308135E+04  3.751350E+05 -1.292796E+04 -7.058275E+04  1.203296E-09  1.914818E-09
       163  19  1.746362E+05  9.769497E+05  1.895997E+05 -9.368866E+04 -4.356783E+03 -7.009946E+04
       163  20  7.098953E+04  8.672826E+05  1.134377E+05 -4.890051E+04 -1.247508E+04 -3.726680E+04
       163  21  4.636522E+04  7.815877E+05  7.837459E+04 -4.879844E+04 -9.626878E+03 -4.430303E+03
       163  22  7.546786E+04  5.783053E+05  9.236204E+04 -5.962749E+04 -4.369555E+03 -5.898942E+04
       163  23 -2.688363E+03  5.671119E+05  4.509792E+04 -3.731809E+04 -1.247807E+04 -3.512849E+04
       163  24 -3.356798E+03  5.783422E+05  3.272490E+04 -5.969233E+04 -9.620106E+03 -1.125842E+04
       163  25 -2.370779E+04  1.798084E+05 -4.886101E+03 -2.558818E+04 -4.381116E+03 -4.788648E+04
       163  26 -7.637198E+04  2.670250E+05 -2.324757E+04 -2.574129E+04 -1.248099E+04 -3.299120E+04
       163  27 -5.308116E+04  3.751354E+05 -1.292718E+04 -7.058261E+04 -9.613093E+03 -1.808432E+04
       164   1  3.324892E+04  6.923320E+05  5.714683E+04 -6.317731E+04  5.436347E+03  2.380417E+03
       164   2  4.269179E+03  5.921158E+05  3.457594E+04 -3.689071E+04  9.738652E+02 -1.278999E+04
       164   3 -9.951780E+03  4.974649E+05  2.553986E+04 -5.564952E+04 -3.533779E+03 -2.795834E+04
       164   4  4.404828E+03  5.745949E+05  3.062177E+04 -5.975465E+04  5.432620E+03  6.018423E+03
       164   5 -6.986228E+02  5.718196E+05  3.001562E+04 -3.722984E+04  9.700614E+02 -9.114374E+03
       164   6  8.950900E+03  5.745937E+05  4.291887E+04 -5.974993E+04 -3.537512E+03 -2.424743E+04
       164   7 -2.444016E+04  4.568708E+05  4.095890E+03 -5.633263E+04  5.428932E+03  9.655746E+03
       164   8 -5.666445E+03  5.515238E+05  2.545532E+04 -3.756896E+04  9.662534E+02 -5.438881E+03
       164   9  2.785324E+04  6.517282E+05  6.029756E+04 -6.385085E+04 -3.541293E+03 -2.053607E+04
       164  10  3.324888E+04  6.923320E+05  5.714676E+04 -6.317732E+04  2.459796E-09 -6.226186E-09
       164  11  4.269135E+03  5.921156E+05  3.457563E+04 -3.689070E+04  5.088815E-09 -2.722563E-09
       164  12 -9.952003E+03  4.974640E+05  2.553837E+04 -5.564960E+04 -2.138542E-09  5.689244E-09
       164  13  4.404787E+03  5.745949E+05  3.062165E+04 -5.975467E+04  3.136853E-09 -6.017650E-11
       164  14 -6.986461E+02  5.718195E+05  3.001546E+04 -3.722984E+04  1.004199E-08  9.981809E-10
       164  15  8.950729E+03  5.745931E+05  4.291774E+04 -5.975000E+04  1.025999E-09 -1.781867E-09
       164  16 -2.444022E+04  4.568707E+05  4.095660E+03 -5.633268E+04  1.486990E-09  6.774539E-09
       164  17 -5.666454E+03  5.515237E+05  2.545526E+04 -3.756896E+04  2.569826E-09 -3.996774E-10
       164  18  2.785312E+04  6.517277E+05  6.029674E+04 -6.385091E+04 -1.242925E-09 -5.356734E-09
       164  19  3.324892E+04  6.923320E+05  5.714683E+04 -6.317731E+04 -5.436347E+03 -2.380417E+03
       164  20  4.269179E+03  5.921158E+05  3.457594E+04 -3.689071E+04 -9.738652E+02  1.278999E+04
       164  21 -9.951780E+03  4.974649E+05  2.553986E+04 -5.564952E+04  3.533779E+03  2.795834E+04
       164  22  4.404828E+03  5.745949E+05  3.062177E+04 -5.975465E+04 -5.432620E+03 -6.018423E+03
       164  23 -6.986228E+02  5.718196E+05  3.001562E+04 -3.722984E+04 -9.700614E+02  9.114374E+03
       164  24  8.950900E+03  5.745937E+05  4.291887E+04 -5.974993E+04  3.537512E+03  2.424743E+04
       164  25 -2.444016E+04  4.568708E+05  4.095890E+03 -5.633263E+04 -5.428932E+03 -9.655746E+03
       164  26 -5.666445E+03  5.515238E+05  2.545532E+04 -3.756896E+04 -9.662534E+02  5.438881E+03
       164  27  2.785324E+04  6.517282E+05  6.029756E+04 -6.385085E+04  3.541293E+03  2.053607E+04
       165   1 -4.692730E+04  4.200802E+05  1.423128E+04 -8.056798E+04 -7.613738E+03 -3.843519E+04
       165   2 -6.877602E+04  3.022381E+05  2.109154E+04 -1.580658E+04 -1.067351E+04 -7.292042E+04
       165   3  5.370718E+04  2.249233E+05  8.647245E+04  4.282487E+03 -3.789512E+03 -1.073905E+05
       165   4 -7.168336E+03  5.826746E+05  5.077912E+04 -5.970533E+04 -7.621714E+03 -3.185929E+04
       165   5 -5.034287E+03  5.616981E+05  8.022844E+04 -3.730748E+04 -1.066925E+04 -7.448127E+04
       165   6  1.428022E+05  5.826218E+05  1.738243E+05 -5.957547E+04 -3.770176E+03 -1.170939E+05
       165   7  3.259049E+04  7.452946E+05  8.732569E+04 -3.883716E+04 -7.629247E+03 -2.528169E+04
       165   8  5.870451E+04  8.212214E+05  1.393612E+05 -5.881743E+04 -1.066489E+04 -7.604276E+04
       165   9  2.319030E+05  9.404457E+05  2.611693E+05 -1.234703E+05 -3.748853E+03 -1.268028E+05
       165  10 -4.692776E+04  4.200786E+05  1.422839E+04 -8.056822E+04 -2.041507E-09  1.649254E-09
       165  11 -6.877757E+04  3.022324E+05  2.108134E+04 -1.580721E+04 -3.094671E-09 -2.108643E-09
       165  12  5.370407E+04  2.249109E+05  8.645076E+04  4.282160E+03 -7.758841E-10 -2.714664E-10
       165  13 -7.168670E+03  5.826735E+05  5.077711E+04 -5.970553E+04 -2.232394E-09  3.071642E-11
       165  14 -5.035897E+03  5.616921E+05  8.021781E+04 -3.730812E+04 -8.845439E-10  7.863215E-10
       165  15  1.427985E+05  5.826070E+05  1.737985E+05 -5.957582E+04 -1.310687E-09 -1.189074E-09
       165  16  3.259025E+04  7.452939E+05  8.732438E+04 -3.883731E+04  1.703606E-09 -1.242103E-09
       165  17  5.870284E+04  8.212152E+05  1.393501E+05 -5.881808E+04 -1.792661E-09 -7.845481E-10
       165  18  2.318987E+05  9.404285E+05  2.611391E+05 -1.234706E+05  2.223223E-09  6.515383E-10
       165  19 -4.692730E+04  4.200802E+05  1.423128E+04 -8.056798E+04  7.613738E+03  3.843519E+04
       165  20 -6.877602E+04  3.022381E+05  2.109154E+04 -1.580658E+04  1.067351E+04  7.292042E+04
       165  21  5.370718E+04  2.249233E+05  8.647245E+04  4.282487E+03  3.789512E+03  1.073905E+05
       165  22 -7.168336E+03  5.826746E+05  5.077912E+04 -5.970533E+04  7.621714E+03  3.185929E+04
       165  23 -5.034287E+03  5.616981E+05  8.022844E+04 -3.730748E+04  1.066925E+04  7.448127E+04
       165  24  1.428022E+05  5.826218E+05  1.738243E+05 -5.957547E+04  3.770176E+03  1.170939E+05
       165  25  3.259049E+04  7.452946E+05  8.732569E+04 -3.883716E+04  7.629247E+03  2.528169E+04
       165  26  5.870451E+04  8.212214E+05  1.393612E+05 -5.881743E+04  1.066489E+04  7.604276E+04
       165  27  2.319030E+05  9.404457E+05  2.611693E+05 -1.234703E+05  3.748853E+03  1.268028E+05
       166   1  8.413425E+04  3.205587E+04  1.380467E+04 -7.569827E+03 -4.940104E+04 -4.825965E+03
       166   2  5.904573E+04  9.820796E+04  4.857390E+04  1.376502E+03 -3.555996E+04 -1.459102E+04
       166   3  1.294888E+04  8.746471E+04  5.512489E+04  2.992393E+04 -2.173520E+04 -1.418117E+04
       166   4 -3.260100E+05 -6.997999E+04 -8.664487E+04  1.934800E+04 -5.936905E+04 -4.843074E+03
       166   5 -3.148964E+05  6.016629E+03 -3.855958E+04  9.489071E+03 -3.870189E+04 -1.459726E+04
       166   6 -3.259923E+05  3.906014E+03 -2.344752E+04  1.923258E+04 -1.804997E+04 -1.417465E+04
       166   7 -7.359991E+05 -1.720255E+05 -1.871059E+05  4.624795E+04 -6.933047E+04 -4.861053E+03
       166   8 -6.887094E+05 -8.618433E+04 -1.257025E+05  1.759667E+04 -4.184193E+04 -1.460359E+04
       166   9 -6.648270E+05 -7.966035E+04 -1.020275E+05  8.547062E+03 -1.436673E+04 -1.416826E+04
       166  10  8.413163E+04  3.205519E+04  1.380004E+04 -7.570019E+03 -3.572123E-09  2.493411E-09
       166  11  5.904431E+04  9.820740E+04  4.857113E+04  1.376084E+03 -2.618278E-09  6.971269E-09
       166  12  1.294832E+04  8.746437E+04  5.512362E+04  2.992369E+04  2.110711E-09  1.971955E-09
       166  13 -3.260137E+05 -6.998096E+04 -8.665154E+04  1.934777E+04 -8.681436E-10 -6.068597E-10
       166  14 -3.148981E+05  6.015998E+03 -3.856280E+04  9.488616E+03 -5.169546E-10 -1.954750E-09
       166  15 -3.259927E+05  3.905711E+03 -2.344851E+04  1.923238E+04 -1.506141E-09  1.580807E-10
       166  16 -7.360043E+05 -1.720268E+05 -1.871150E+05  4.624768E+04  4.044126E-09  1.034350E-09
       166  17 -6.887113E+05 -8.618503E+04 -1.257062E+05  1.759618E+04  1.096064E-09  6.717884E-09
       166  18 -6.648273E+05 -7.966062E+04 -1.020283E+05  8.546898E+03 -2.614435E-09 -8.556786E-10
       166  19  8.413425E+04  3.205587E+04  1.380467E+04 -7.569827E+03  4.940104E+04  4.825965E+03
       166  20  5.904573E+04  9.820796E+04  4.857390E+04  1.376502E+03  3.555996E+04  1.459102E+04
       166  21  1.294888E+04  8.746471E+04  5.512489E+04  2.992393E+04  2.173520E+04  1.418117E+04
       166  22 -3.260100E+05 -6.997999E+04 -8.664487E+04  1.934800E+04  5.936905E+04  4.843074E+03
       166  23 -3.148964E+05  6.016629E+03 -3.855958E+04  9.489071E+03  3.870189E+04  1.459726E+04
       166  24 -3.259923E+05  3.906014E+03 -2.344752E+04  1.923258E+04  1.804997E+04  1.417465E+04
       166  25 -7.359991E+05 -1.720255E+05 -1.871059E+05  4.624795E+04  6.933047E+04  4.861053E+03
       166  26 -6.887094E+05 -8.618433E+04 -1.257025E+05  1.759667E+04  4.184193E+04  1.460359E+04
       166  27 -6.648270E+05 -7.966035E+04 -1.020275E+05  8.547062E+03  1.436673E+04  1.416826E+04
       167   1 -1.878505E+04  6.904371E+04  5.156062E+04  1.792056E+04 -1.510353E+04 -1.193186E+04
       167   2 -5.337998E+04  6.639735E+04  5.210580E+04  9.282533E+03 -1.043112E+04 -1.083976E+04
       167   3 -9.021108E+04  5.744842E+04  4.802240E+04  2.066346E+04 -5.760760E+03 -9.204249E+03
       167   4 -3.215651E+05 -5.615333E+03 -1.893912E+04  1.936739E+04 -1.455347E+04 -1.193126E+04
       167   5 -3.204108E+05  5.746006E+02 -9.931844E+03  9.351694E+03 -9.518152E+03 -1.083825E+04
       167   6 -3.215587E+05  3.971960E+02 -5.807052E+03  1.935559E+04 -4.484633E+03 -9.201743E+03
       167   7 -6.242605E+05 -8.028085E+04 -8.944505E+04  2.081347E+04 -1.400367E+04 -1.193065E+04
       167   8 -5.873757E+05 -6.525318E+04 -7.197428E+04  9.420792E+03 -8.605575E+03 -1.083674E+04
       167   9 -5.528569E+05 -5.665781E+04 -5.964011E+04  1.804818E+04 -3.208978E+03 -9.199242E+03
       167  10 -1.878533E+04  6.904350E+04  5.155993E+04  1.792042E+04 -5.089384E-09 -1.782188E-09
       167  11 -5.338012E+04  6.639720E+04  5.210537E+04  9.282442E+03 -2.641453E-09  3.652252E-09
       167  12 -9.021114E+04  5.744832E+04  4.802218E+04  2.066342E+04  2.024795E-09  4.670571E-09
       167  13 -3.215654E+05 -5.615543E+03 -1.893978E+04  1.936725E+04 -1.309297E-09  5.506136E-09
       167  14 -3.204109E+05  5.744501E+02 -9.932235E+03  9.351611E+03 -3.770675E-10 -1.212871E-08
       167  15 -3.215587E+05  3.970997E+02 -5.807248E+03  1.935556E+04  5.750470E-12  3.748672E-09
       167  16 -6.242608E+05 -8.028106E+04 -8.944569E+04  2.081334E+04  2.211776E-09 -5.283460E-09
       167  17 -5.873759E+05 -6.525333E+04 -7.197464E+04  9.420716E+03  1.621024E-09 -2.163735E-09
       167  18 -5.528569E+05 -5.665790E+04 -5.964029E+04  1.804816E+04 -1.993548E-09  4.139420E-10
       167  19 -1.878505E+04  6.904371E+04  5.156062E+04  1.792056E+04  1.510353E+04  1.193186E+04
       167  20 -5.337998E+04  6.639735E+04  5.210580E+04  9.282533E+03  1.043112E+04  1.083976E+04
       167  21 -9.021108E+04  5.744842E+04  4.802240E+04  2.066346E+04  5.760760E+03  9.204249E+03
       167  22 -3.215651E+05 -5.615333E+03 -1.893912E+04  1.936739E+04  1.455347E+04  1.193126E+04
       167  23 -3.204108E+05  5.746006E+02 -9.931844E+03  9.351694E+03  9.518152E+03  1.083825E+04
       167  24 -3.215587E+05  3.971960E+02 -5.807052E+03  1.935559E+04  4.484633E+03  9.201743E+03
       167  25 -6.242605E+05 -8.028085E+04 -8.944505E+04  2.081347E+04  1.400367E+04  1.193065E+04
       167  26 -5.873757E+05 -6.525318E+04 -7.197428E+04  9.420792E+03  8.605575E+03  1.083674E+04
       167  27 -5.528569E+05 -5.665781E+04 -5.964011E+04  1.804818E+04  3.208978E+03  9.199242E+03
       168   1 -1.260717E+05  4.769988E+04  4.071672E+04  1.964662E+04 -4.691709E+03 -8.147145E+03
       168   2 -1.617708E+05  3.933484E+04  3.446235E+04  9.605304E+03 -3.464992E+03 -6.476006E+03
       168   3 -1.978352E+05  3.053211E+04  2.727823E+04  1.970121E+04 -2.238845E+03 -4.773950E+03
       168   4 -3.211255E+05 -3.638499E+02 -4.498797E+03  1.938600E+04 -3.580367E+03 -8.144880E+03
       168   5 -3.209391E+05  9.747580E+01 -2.510531E+03  9.316690E+03 -2.333259E+03 -6.473560E+03
       168   6 -3.211223E+05  1.176583E+02 -1.466228E+03  1.938493E+04 -1.086650E+03 -4.771317E+03
       168   7 -5.161440E+05 -4.843025E+04 -4.971686E+04  1.912545E+04 -2.469371E+03 -8.142615E+03
       168   8 -4.800839E+05 -3.914168E+04 -3.948511E+04  9.028136E+03 -1.201813E+03 -6.471116E+03
       168   9 -4.443953E+05 -3.029786E+04 -3.021171E+04  1.906869E+04  6.531768E+01 -4.768685E+03
       168  10 -1.260718E+05  4.769980E+04  4.071655E+04  1.964659E+04 -7.417549E-10 -3.391945E-09
       168  11 -1.617709E+05  3.933479E+04  3.446225E+04  9.605286E+03 -2.719666E-10 -2.392493E-09
       168  12 -1.978352E+05  3.053208E+04  2.727818E+04  1.970121E+04 -4.920236E-10 -2.015507E-09
       168  13 -3.211255E+05 -3.639246E+02 -4.498946E+03  1.938598E+04 -1.052081E-11 -2.060654E-09
       168  14 -3.209391E+05  9.742934E+01 -2.510620E+03  9.316677E+03  1.175501E-10 -1.994124E-09
       168  15 -3.211223E+05  1.176335E+02 -1.466273E+03  1.938492E+04 -3.957746E-10 -7.779726E-10
       168  16 -5.161441E+05 -4.843033E+04 -4.971699E+04  1.912543E+04  1.178944E-09 -3.121792E-09
       168  17 -4.800839E+05 -3.914172E+04 -3.948519E+04  9.028130E+03  2.219107E-09  4.475939E-09
       168  18 -4.443953E+05 -3.029789E+04 -3.021176E+04  1.906869E+04  3.801285E-10  8.576390E-09
       168  19 -1.260717E+05  4.769988E+04  4.071672E+04  1.964662E+04  4.691709E+03  8.147145E+03
       168  20 -1.617708E+05  3.933484E+04  3.446235E+04  9.605304E+03  3.464992E+03  6.476006E+03
       168  21 -1.978352E+05  3.053211E+04  2.727823E+04  1.970121E+04  2.238845E+03  4.773950E+03
       168  22 -3.211255E+05 -3.638499E+02 -4.498797E+03  1.938600E+04  3.580367E+03  8.144880E+03
       168  23 -3.209391E+05  9.747580E+01 -2.510531E+03  9.316690E+03  2.333259E+03  6.473560E+03
       168  24 -3.211223E+05  1.176583E+02 -1.466228E+03  1.938493E+04  1.086650E+03  4.771317E+03
       168  25 -5.161440E+05 -4.843025E+04 -4.971686E+04  1.912545E+04  2.469371E+03  8.142615E+03
       168  26 -4.800839E+05 -3.914168E+04 -3.948511E+04  9.028136E+03  1.201813E+03  6.471116E+03
       168  27 -4.443953E+05 -3.029786E+04 -3.021171E+04  1.906869E+04 -6.531768E+01  4.768685E+03
       169   1 -2.342096E+05  2.145331E+04  1.893697E+04  1.956775E+04 -1.999671E+03 -3.777631E+03
       169   2 -2.701050E+05  1.260079E+04  1.113531E+04  9.407650E+03 -1.664954E+03 -2.072677E+03
       169   3 -3.061484E+05  3.796983E+03  3.101648E+03  1.943448E+04 -1.330408E+03 -3.655729E+02
       169   4 -3.210714E+05  6.079586E+01 -1.134605E+03  1.939630E+04 -8.554764E+02 -3.774957E+03
       169   5 -3.209962E+05  5.448622E+01 -6.866752E+02  9.302739E+03 -5.193890E+02 -2.069957E+03
       169   6 -3.210704E+05  9.672892E+01 -4.716643E+02  1.939622E+04 -1.834521E+02 -3.628036E+02
       169   7 -4.079262E+05 -2.133224E+04 -2.120668E+04  1.922487E+04  2.885588E+02 -3.772283E+03
       169   8 -3.718850E+05 -1.249200E+04 -1.250882E+04  9.197836E+03  6.260829E+02 -2.067239E+03
       169   9 -3.359923E+05 -3.603540E+03 -4.044987E+03  1.935795E+04  9.634759E+02 -3.600345E+02
       169  10 -2.342096E+05  2.145329E+04  1.893693E+04  1.956775E+04  2.508550E-09 -4.463683E-09
       169  11 -2.701050E+05  1.260078E+04  1.113529E+04  9.407647E+03 -4.403940E-09  7.130880E-10
       169  12 -3.061484E+05  3.796982E+03  3.101644E+03  1.943448E+04 -5.357166E-09  6.442802E-10
       169  13 -3.210714E+05  6.078036E+01 -1.134633E+03  1.939630E+04  2.139726E-09  3.467833E-09
       169  14 -3.209962E+05  5.448155E+01 -6.866838E+02  9.302738E+03 -2.990577E-09 -4.175869E-09
       169  15 -3.210704E+05  9.672877E+01 -4.716646E+02  1.939622E+04 -1.190855E-09 -2.932899E-09
       169  16 -4.079262E+05 -2.133226E+04 -2.120670E+04  1.922487E+04 -1.064973E-09  5.490425E-09
       169  17 -3.718850E+05 -1.249200E+04 -1.250883E+04  9.197837E+03  3.979317E-09  9.097224E-09
       169  18 -3.359923E+05 -3.603541E+03 -4.044989E+03  1.935795E+04  4.862420E-09  2.094606E-09
       169  19 -2.342096E+05  2.145331E+04  1.893697E+04  1.956775E+04  1.999671E+03  3.777631E+03
       169  20 -2.701050E+05  1.260079E+04  1.113531E+04  9.407650E+03  1.664954E+03  2.072677E+03
       169  21 -3.061484E+05  3.796983E+03  3.101648E+03  1.943448E+04  1.330408E+03  3.655729E+02
       169  22 -3.210714E+05  6.079586E+01 -1.134605E+03  1.939630E+04  8.554764E+02  3.774957E+03
       169  23 -3.209962E+05  5.448622E+01 -6.866752E+02  9.302739E+03  5.193890E+02  2.069957E+03
       169  24 -3.210704E+05  9.672892E+01 -4.716643E+02  1.939622E+04  1.834521E+02  3.628036E+02
       169  25 -4.079262E+05 -2.133224E+04 -2.120668E+04  1.922487E+04 -2.885588E+02  3.772283E+03
       169  26 -3.718850E+05 -1.249200E+04 -1.250882E+04  9.197836E+03 -6.260829E+02  2.067239E+03
       169  27 -3.359923E+05 -3.603540E+03 -4.044987E+03  1.935795E+04 -9.634759E+02  3.600345E+02
       170   1 -3.426087E+05 -5.237702E+03 -5.533696E+03  1.935789E+04 -1.252038E+03  6.285017E+02
       170   2 -3.785102E+05 -1.412782E+04 -1.377811E+04  9.198724E+03 -1.047519E+03  2.335302E+03
       170   3 -4.145360E+05 -2.294674E+04 -2.216399E+04  1.922557E+04 -8.428450E+02  4.039814E+03
       170   4 -3.210652E+05  9.502235E+01 -4.220952E+02  1.939598E+04 -1.051308E+02  6.312689E+02
       170   5 -3.210029E+05  5.041785E+01 -4.183471E+02  9.303051E+03  9.782501E+01  2.338013E+03
       170   6 -3.210663E+05  7.723837E+01 -5.550505E+02  1.939602E+04  3.009477E+02  4.042473E+03
       170   7 -2.995213E+05  5.427714E+03  4.689478E+03  1.943406E+04  1.041816E+03  6.340363E+02
       170   8 -2.634925E+05  1.422842E+04  1.294120E+04  9.407386E+03  1.243274E+03  2.340724E+03
       170   9 -2.275885E+05  2.310060E+04  2.105331E+04  1.956649E+04  1.444911E+03  4.045133E+03
       170  10 -3.426087E+05 -5.237703E+03 -5.533700E+03  1.935789E+04 -2.026780E-09  2.302842E-09
       170  11 -3.785102E+05 -1.412783E+04 -1.377812E+04  9.198726E+03  8.080292E-11 -3.814080E-09
       170  12 -4.145360E+05 -2.294675E+04 -2.216402E+04  1.922557E+04 -1.028752E-09 -4.791062E-09
       170  13 -3.210652E+05  9.502192E+01 -4.220960E+02  1.939598E+04  1.919618E-09  6.333706E-09
       170  14 -3.210029E+05  5.041198E+01 -4.183573E+02  9.303051E+03  3.234960E-09 -4.052716E-09
       170  15 -3.210663E+05  7.722080E+01 -5.550814E+02  1.939602E+04  3.013899E-09 -4.165747E-09
       170  16 -2.995213E+05  5.427713E+03  4.689475E+03  1.943406E+04  2.032712E-09  5.544112E-10
       170  17 -2.634925E+05  1.422842E+04  1.294118E+04  9.407383E+03  5.874607E-09 -8.415825E-09
       170  18 -2.275885E+05  2.310058E+04  2.105328E+04  1.956648E+04  5.325364E-09 -5.988974E-09
       170  19 -3.426087E+05 -5.237702E+03 -5.533696E+03  1.935789E+04  1.252038E+03 -6.285017E+02
       170  20 -3.785102E+05 -1.412782E+04 -1.377811E+04  9.198724E+03  1.047519E+03 -2.335302E+03
       170  21 -4.145360E+05 -2.294674E+04 -2.216399E+04  1.922557E+04  8.428450E+02 -4.039814E+03
       170  22 -3.210652E+05  9.502235E+01 -4.220952E+02  1.939598E+04  1.051308E+02 -6.312689E+02
       170  23 -3.210029E+05  5.041785E+01 -4.183471E+02  9.303051E+03 -9.782501E+01 -2.338013E+03
       170  24 -3.210663E+05  7.723837E+01 -5.550505E+02  1.939602E+04 -3.009477E+02 -4.042473E+03
       170  25 -2.995213E+05  5.427714E+03  4.689478E+03  1.943406E+04 -1.041816E+03 -6.340363E+02
       170  26 -2.634925E+05  1.422842E+04  1.294120E+04  9.407386E+03 -1.243274E+03 -2.340724E+03
       170  27 -2.275885E+05  2.310060E+04  2.105331E+04  1.956649E+04 -1.444911E+03 -4.045133E+03
       171   1 -4.509670E+05 -3.194289E+04 -3.095879E+04  1.911452E+04 -7.424483E+02  5.035844E+03
       171   2 -4.867319E+05 -4.080355E+04 -3.960821E+04  9.032931E+03 -1.776878E+02  6.736336E+03
       171   3 -5.226998E+05 -4.980444E+04 -4.868208E+04  1.908065E+04  3.875882E+02  8.405409E+03
       171   4 -3.210848E+05  1.019408E+02 -6.778174E+02  1.938320E+04  4.093500E+02  5.038458E+03
       171   5 -3.209865E+05  6.315982E+01 -1.099984E+03  9.318954E+03  9.531194E+02  6.738756E+03
       171   6 -3.210879E+05 -1.119373E+02 -1.931722E+03  1.938368E+04  1.497436E+03  8.407643E+03
       171   7 -1.911870E+05  3.214558E+04  2.960202E+04  1.965194E+04  1.561388E+03  5.041073E+03
       171   8 -1.552156E+05  4.092793E+04  3.740640E+04  9.605039E+03  2.084227E+03  6.741177E+03
       171   9 -1.194385E+05  4.957771E+04  4.481591E+04  1.968678E+04  2.607643E+03  8.409878E+03
       171  10 -4.509670E+05 -3.194292E+04 -3.095884E+04  1.911452E+04 -1.019687E-08 -4.445573E-09
       171  11 -4.867320E+05 -4.080360E+04 -3.960829E+04  9.032932E+03  2.988463E-09 -3.435356E-09
       171  12 -5.226998E+05 -4.980452E+04 -4.868221E+04  1.908065E+04  1.153755E-08 -2.906341E-09
       171  13 -3.210848E+05  1.019135E+02 -6.778654E+02  1.938320E+04  4.299591E-09 -3.872353E-09
       171  14 -3.209865E+05  6.311082E+01 -1.100071E+03  9.318948E+03  4.285326E-09  4.350195E-10
       171  15 -3.210879E+05 -1.120138E+02 -1.931859E+03  1.938367E+04 -5.422397E-10  6.423820E-10
       171  16 -1.911870E+05  3.214555E+04  2.960196E+04  1.965193E+04  1.072211E-08  2.050139E-09
       171  17 -1.552156E+05  4.092788E+04  3.740630E+04  9.605028E+03  2.832835E-09 -6.259207E-09
       171  18 -1.194385E+05  4.957763E+04  4.481577E+04  1.968676E+04 -9.747856E-09  5.277472E-11
       171  19 -4.509670E+05 -3.194289E+04 -3.095879E+04  1.911452E+04  7.424483E+02 -5.035844E+03
       171  20 -4.867319E+05 -4.080355E+04 -3.960821E+04  9.032931E+03  1.776878E+02 -6.736336E+03
       171  21 -5.226998E+05 -4.980444E+04 -4.868208E+04  1.908065E+04 -3.875882E+02 -8.405409E+03
       171  22 -3.210848E+05  1.019408E+02 -6.778174E+02  1.938320E+04 -4.093500E+02 -5.038458E+03
       171  23 -3.209865E+05  6.315982E+01 -1.099984E+03  9.318954E+03 -9.531194E+02 -6.738756E+03
       171  24 -3.210879E+05 -1.119373E+02 -1.931722E+03  1.938368E+04 -1.497436E+03 -8.407643E+03
       171  25 -1.911870E+05  3.214558E+04  2.960202E+04  1.965194E+04 -1.561388E+03 -5.041073E+03
       171  26 -1.552156E+05  4.092793E+04  3.740640E+04  9.605039E+03 -2.084227E+03 -6.741177E+03
       171  27 -1.194385E+05  4.957771E+04  4.481591E+04  1.968678E+04 -2.607643E+03 -8.409878E+03
       172   1 -5.591497E+05 -5.846292E+04 -5.784445E+04  1.857751E+04  6.066482E+02  9.461693E+03
       172   2 -5.943029E+05 -6.719103E+04 -6.780357E+04  9.145904E+03  3.120215E+03  1.109187E+04
       172   3 -6.305153E+05 -7.864403E+04 -8.009341E+04  1.972473E+04  5.635402E+03  1.217075E+04
       172   4 -3.212687E+05  2.124871E+02 -2.482598E+03  1.935544E+04  1.883416E+03  9.464157E+03
       172   5 -3.207737E+05  2.570405E+02 -4.235331E+03  9.352975E+03  4.027626E+03  1.109335E+04
       172   6 -3.212744E+05 -2.358310E+03 -8.061347E+03  1.936043E+04  6.173598E+03  1.217134E+04
       172   7 -8.333554E+04  5.888390E+04  5.287544E+04  2.013365E+04  3.160670E+03  9.466625E+03
       172   8 -4.717544E+04  6.769983E+04  5.932788E+04  9.560103E+03  4.935433E+03  1.109482E+04
       172   9 -1.194509E+04  7.392064E+04  6.396425E+04  1.899591E+04  6.712060E+03  1.217193E+04
       172  10 -5.591497E+05 -5.846302E+04 -5.784462E+04  1.857751E+04  7.844969E-09 -4.325350E-10
       172  11 -5.943029E+05 -6.719117E+04 -6.780382E+04  9.145876E+03  3.514519E-09  4.831816E-09
       172  12 -6.305154E+05 -7.864419E+04 -8.009375E+04  1.972468E+04 -7.557205E-10 -3.662117E-09
       172  13 -3.212688E+05  2.123900E+02 -2.482773E+03  1.935543E+04  2.511839E-10 -6.866428E-09
       172  14 -3.207738E+05  2.569040E+02 -4.235593E+03  9.352939E+03  1.810046E-09  1.019089E-08
       172  15 -3.212745E+05 -2.358480E+03 -8.061697E+03  1.936037E+04  2.825993E-10  6.103851E-09
       172  16 -8.333558E+04  5.888380E+04  5.287525E+04  2.013362E+04 -7.574648E-09 -1.479970E-09
       172  17 -4.717550E+04  6.769969E+04  5.932760E+04  9.560059E+03 -4.623967E-09 -6.982836E-09
       172  18 -1.194518E+04  7.392047E+04  6.396389E+04  1.899584E+04  2.170435E-09 -5.630997E-10
       172  19 -5.591497E+05 -5.846292E+04 -5.784445E+04  1.857751E+04 -6.066482E+02 -9.461693E+03
       172  20 -5.943029E+05 -6.719103E+04 -6.780357E+04  9.145904E+03 -3.120215E+03 -1.109187E+04
       172  21 -6.305153E+05 -7.864403E+04 -8.009341E+04  1.972473E+04 -5.635402E+03 -1.217075E+04
       172  22 -3.212687E+05  2.124871E+02 -2.482598E+03  1.935544E+04 -1.883416E+03 -9.464157E+03
       172  23 -3.207737E+05  2.570405E+02 -4.235331E+03  9.352975E+03 -4.027626E+03 -1.109335E+04
       172  24 -3.212744E+05 -2.358310E+03 -8.061347E+03  1.936043E+04 -6.173598E+03 -1.217134E+04
       172  25 -8.333554E+04  5.888390E+04  5.287544E+04  2.013365E+04 -3.160670E+03 -9.466625E+03
       172  26 -4.717544E+04  6.769983E+04  5.932788E+04  9.560103E+03 -4.935433E+03 -1.109482E+04
       172  27 -1.194509E+04  7.392064E+04  6.396425E+04  1.899591E+04 -6.712060E+03 -1.217193E+04
       173   1 -6.685408E+05 -8.346437E+04 -9.007018E+04  1.442608E+04  3.940980E+03  1.442375E+04
       173   2 -6.987512E+05 -9.126595E+04 -1.050724E+05  1.267550E+04  1.965990E+04  1.481978E+04
       173   3 -7.395940E+05 -1.334512E+05 -1.389091E+05  3.046870E+04  3.539262E+04  4.887106E+03
       173   4 -3.231522E+05  1.690840E+03 -9.976658E+03  1.923921E+04  7.658861E+03  1.442989E+04
       173   5 -3.184462E+05  2.558132E+03 -1.641240E+04  9.491444E+03  1.644790E+04  1.481386E+04
       173   6 -3.231639E+05 -2.974330E+04 -3.686091E+04  1.928743E+04  2.525188E+04  4.871552E+03
       173   7  2.234679E+04  8.683773E+04  7.010892E+04  2.405499E+04  1.137880E+04  1.443608E+04
       173   8  6.199248E+04  9.637202E+04  7.223782E+04  6.305370E+03  1.323394E+04  1.480798E+04
       173   9  9.342486E+04  7.395229E+04  6.517499E+04  8.098570E+03  1.510435E+04  4.856369E+03
       173  10 -6.685409E+05 -8.346460E+04 -9.007060E+04  1.442603E+04  1.646519E-09 -6.344584E-09
       173  11 -6.987517E+05 -9.126629E+04 -1.050735E+05  1.267526E+04  2.121986E-09 -7.372196E-10
       173  12 -7.395954E+05 -1.334516E+05 -1.389115E+05  3.046856E+04 -6.922320E-10  4.258389E-09
       173  13 -3.231523E+05  1.690601E+03 -9.977159E+03  1.923912E+04 -2.146700E-09  6.033512E-09
       173  14 -3.184465E+05  2.557824E+03 -1.641332E+04  9.491248E+03 -1.073450E-09  4.911542E-09
       173  15 -3.231646E+05 -2.974350E+04 -3.686215E+04  1.928733E+04 -2.609815E-10  3.694246E-09
       173  16  2.234659E+04  8.683747E+04  7.010828E+04  2.405485E+04 -1.838763E-09  2.140856E-09
       173  17  6.199223E+04  9.637174E+04  7.223708E+04  6.305212E+03 -1.754584E-10  2.262839E-09
       173  18  9.342461E+04  7.395220E+04  6.517452E+04  8.098511E+03  2.039131E-09 -5.434157E-10
       173  19 -6.685408E+05 -8.346437E+04 -9.007018E+04  1.442608E+04 -3.940980E+03 -1.442375E+04
       173  20 -6.987512E+05 -9.126595E+04 -1.050724E+05  1.267550E+04 -1.965990E+04 -1.481978E+04
       173  21 -7.395940E+05 -1.334512E+05 -1.389091E+05  3.046870E+04 -3.539262E+04 -4.887106E+03
       173  22 -3.231522E+05  1.690840E+03 -9.976658E+03  1.923921E+04 -7.658861E+03 -1.442989E+04
       173  23 -3.184462E+05  2.558132E+03 -1.641240E+04  9.491444E+03 -1.644790E+04 -1.481386E+04
       173  24 -3.231639E+05 -2.974330E+04 -3.686091E+04  1.928743E+04 -2.525188E+04 -4.871552E+03
       173  25  2.234679E+04  8.683773E+04  7.010892E+04  2.405499E+04 -1.137880E+04 -1.443608E+04
       173  26  6.199248E+04  9.637202E+04  7.223782E+04  6.305370E+03 -1.323394E+04 -1.480798E+04
       173  27  9.342486E+04  7.395229E+04  6.517499E+04  8.098570E+03 -1.510435E+04 -4.856369E+03
       174   1 -2.377164E+05 -8.981151E+05 -2.321525E+05  2.074780E+05 -9.684861E+03 -7.042491E+04
       174   2 -1.614121E+05 -6.941028E+05 -1.448863E+05  1.748124E+05 -2.932067E+04 -2.928086E+04
       174   3 -1.079338E+05 -5.009310E+05 -9.012152E+04  1.885982E+05 -2.735972E+04  1.190743E+04
       174   4 -2.758837E+04 -5.022798E+04 -3.011438E+04  1.903608E+05 -9.731906E+03 -2.234856E+04
       174   5 -5.778836E+03 -4.771967E+04 -1.347886E+04  1.671481E+05 -2.933086E+04 -1.536258E+04
       174   6 -8.450387E+02 -5.014457E+04 -5.593590E+03  1.903874E+05 -2.734207E+04 -8.346896E+03
       174   7  1.824900E+05  7.983249E+05  1.718821E+05  1.732202E+05 -9.781580E+03  2.579323E+04
       174   8  1.498287E+05  5.990618E+05  1.179075E+05  1.594758E+05 -2.934139E+04 -1.430064E+03
       174   9  1.062322E+05  4.008394E+05  7.892709E+04  1.921779E+05 -2.732455E+04 -2.861557E+04
       174  10 -2.377178E+05 -8.981205E+05 -2.321620E+05  2.074774E+05  1.622010E-09 -6.776416E-09
       174  11 -1.614133E+05 -6.941039E+05 -1.448895E+05  1.748117E+05  5.415665E-10 -1.155177E-08
       174  12 -1.079346E+05 -5.009314E+05 -9.012320E+04  1.885985E+05 -3.509502E-09 -9.172043E-09
       174  13 -2.758860E+04 -5.022854E+04 -3.011550E+04  1.903606E+05  1.672726E-09 -3.988486E-09
       174  14 -5.779823E+03 -4.772015E+04 -1.348092E+04  1.671478E+05  7.207547E-09 -1.869282E-09
       174  15 -8.458600E+02 -5.014484E+04 -5.595125E+03  1.903872E+05  1.403605E-08  9.692906E-10
       174  16  1.824897E+05  7.983242E+05  1.718807E+05  1.732204E+05  5.335282E-10  9.509836E-09
       174  17  1.498278E+05  5.990616E+05  1.179059E+05  1.594757E+05 -9.862265E-10  1.118541E-08
       174  18  1.062312E+05  4.008383E+05  7.892415E+04  1.921773E+05 -1.373556E-10  1.106040E-08
       174  19 -2.377164E+05 -8.981151E+05 -2.321525E+05  2.074780E+05  9.684861E+03  7.042491E+04
       174  20 -1.614121E+05 -6.941028E+05 -1.448863E+05  1.748124E+05  2.932067E+04  2.928086E+04
       174  21 -1.079338E+05 -5.009310E+05 -9.012152E+04  1.885982E+05  2.735972E+04 -1.190743E+04
       174  22 -2.758837E+04 -5.022798E+04 -3.011438E+04  1.903608E+05  9.731906E+03  2.234856E+04
       174  23 -5.778836E+03 -4.771967E+04 -1.347886E+04  1.671481E+05  2.933086E+04  1.536258E+04
       174  24 -8.450387E+02 -5.014457E+04 -5.593590E+03  1.903874E+05  2.734207E+04  8.346896E+03
       174  25  1.824900E+05  7.983249E+05  1.718821E+05  1.732202E+05  9.781580E+03 -2.579323E+04
       174  26  1.498287E+05  5.990618E+05  1.179075E+05  1.594758E+05  2.934139E+04  1.430064E+03
       174  27  1.062322E+05  4.008394E+05  7.892709E+04  1.921779E+05  2.732455E+04  2.861557E+04
       175   1 -7.718249E+04 -3.675203E+05 -6.230845E+04  1.909041E+05 -1.954188E+04  9.606960E+03
       175   2 -2.848398E+04 -1.691833E+05 -1.871175E+04  1.671538E+05 -8.314972E+03  8.995049E+03
       175   3  2.065688E+04  2.951688E+04  2.542391E+04  1.911534E+05  3.378639E+03  8.382323E+03
       175   4 -1.543239E+03 -4.892766E+04 -2.785595E+03  1.906705E+05 -1.952811E+04 -7.801320E+03
       175   5 -1.840218E+02 -4.914709E+04  2.733296E+03  1.667971E+05 -8.301435E+03 -9.154359E+03
       175   6  1.748557E+03 -4.891181E+04  9.307219E+03  1.906730E+05  3.391809E+03 -1.050803E+04
       175   7  7.409031E+04  2.697639E+05  5.673404E+04  1.904368E+05 -1.951432E+04 -2.521831E+04
       175   8  2.811531E+04  7.090385E+04  2.417904E+04  1.664404E+05 -8.287879E+03 -2.730718E+04
       175   9 -1.715996E+04 -1.273339E+05 -6.808461E+03  1.901926E+05  3.405009E+03 -2.939604E+04
       175  10 -7.718292E+04 -3.675205E+05 -6.230934E+04  1.909042E+05 -1.746420E-09  1.773652E-08
       175  11 -2.848407E+04 -1.691834E+05 -1.871204E+04  1.671539E+05 -6.190866E-10  1.680481E-08
       175  12  2.065685E+04  2.951680E+04  2.542376E+04  1.911534E+05 -2.039222E-10  1.594054E-08
       175  13 -1.543665E+03 -4.892782E+04 -2.786425E+03  1.906704E+05  1.614012E-08 -1.761740E-09
       175  14 -1.841183E+02 -4.914720E+04  2.733009E+03  1.667971E+05  1.301130E-08  2.362905E-10
       175  15  1.748515E+03 -4.891193E+04  9.306989E+03  1.906730E+05  3.370441E-09 -9.384866E-11
       175  16  7.408973E+04  2.697631E+05  5.673213E+04  1.904364E+05 -2.150447E-09 -1.578257E-08
       175  17  2.811504E+04  7.090303E+04  2.417751E+04  1.664402E+05  4.673004E-10 -1.766857E-08
       175  18 -1.716020E+04 -1.273348E+05 -6.810108E+03  1.901927E+05 -2.579726E-09 -1.453956E-08
       175  19 -7.718249E+04 -3.675203E+05 -6.230845E+04  1.909041E+05  1.954188E+04 -9.606960E+03
       175  20 -2.848398E+04 -1.691833E+05 -1.871175E+04  1.671538E+05  8.314972E+03 -8.995049E+03
       175  21  2.065688E+04  2.951688E+04  2.542391E+04  1.911534E+05 -3.378639E+03 -8.382323E+03
       175  22 -1.543239E+03 -4.892766E+04 -2.785595E+03  1.906705E+05  1.952811E+04  7.801320E+03
       175  23 -1.840218E+02 -4.914709E+04  2.733296E+03  1.667971E+05  8.301435E+03  9.154359E+03
       175  24  1.748557E+03 -4.891181E+04  9.307219E+03  1.906730E+05 -3.391809E+03  1.050803E+04
       175  25  7.409031E+04  2.697639E+05  5.673404E+04  1.904368E+05  1.951432E+04  2.521831E+04
       175  26  2.811531E+04  7.090385E+04  2.417904E+04  1.664404E+05  8.287879E+03  2.730718E+04
       175  27 -1.715996E+04 -1.273339E+05 -6.808461E+03  1.901926E+05 -3.405009E+03  2.939604E+04
       176   1  5.077686E+04  1.635314E+05  5.413549E+04  1.867267E+05  1.137369E+04  8.741433E+03
       176   2  1.076071E+05  3.552914E+05  1.104162E+05  1.799638E+05  1.666111E+04 -2.974774E+04
       176   3  1.993179E+05  5.609668E+05  2.004965E+05  2.200877E+05  6.111158E+03 -6.826815E+04
       176   4  5.126047E+02 -4.690109E+04  1.326547E+04  1.904726E+05  1.138893E+04 -1.213372E+04
       176   5  9.339385E+03 -5.169467E+04  2.585419E+04  1.670526E+05  1.665916E+04 -2.552107E+04
       176   6  4.870559E+04 -4.695198E+04  5.482463E+04  1.905163E+05  6.089332E+03 -3.892722E+04
       176   7 -4.975401E+04 -2.572901E+05 -2.760499E+04  1.942171E+05  1.140392E+04 -3.300196E+04
       176   8 -8.893823E+04 -4.585236E+05 -5.871673E+04  1.541501E+05  1.665704E+04 -2.129712E+04
       176   9 -1.019298E+05 -6.545286E+05 -9.086968E+04  1.609740E+05  6.064706E+03 -9.614855E+03
       176  10  5.077670E+04  1.635313E+05  5.413510E+04  1.867267E+05 -9.336662E-10  6.205107E-08
       176  11  1.076066E+05  3.552904E+05  1.104140E+05  1.799642E+05  3.184205E-11  7.090400E-09
       176  12  1.993166E+05  5.609618E+05  2.004877E+05  2.200881E+05 -8.837769E-10 -4.673816E-08
       176  13  5.124259E+02 -4.690128E+04  1.326495E+04  1.904727E+05 -3.291073E-09 -1.142219E-09
       176  14  9.338912E+03 -5.169544E+04  2.585244E+04  1.670529E+05 -3.085019E-09 -8.883719E-10
       176  15  4.870514E+04 -4.695362E+04  5.482171E+04  1.905165E+05 -5.175592E-11  2.601388E-09
       176  16 -4.975444E+04 -2.572913E+05 -2.760728E+04  1.942174E+05 -4.087079E-09 -6.035156E-08
       176  17 -8.893865E+04 -4.585241E+05 -5.871811E+04  1.541503E+05 -6.425810E-09 -6.838273E-09
       176  18 -1.019298E+05 -6.545287E+05 -9.086992E+04  1.609741E+05 -8.587228E-10  4.754790E-08
       176  19  5.077686E+04  1.635314E+05  5.413549E+04  1.867267E+05 -1.137369E+04 -8.741433E+03
       176  20  1.076071E+05  3.552914E+05  1.104162E+05  1.799638E+05 -1.666111E+04  2.974774E+04
       176  21  1.993179E+05  5.609668E+05  2.004965E+05  2.200877E+05 -6.111158E+03  6.826815E+04
       176  22  5.126047E+02 -4.690109E+04  1.326547E+04  1.904726E+05 -1.138893E+04  1.213372E+04
       176  23  9.339385E+03 -5.169467E+04  2.585419E+04  1.670526E+05 -1.665916E+04  2.552107E+04
       176  24  4.870559E+04 -4.695198E+04  5.482463E+04  1.905163E+05 -6.089332E+03  3.892722E+04
       176  25 -4.975401E+04 -2.572901E+05 -2.760499E+04  1.942171E+05 -1.140392E+04  3.300196E+04
       176  26 -8.893823E+04 -4.585236E+05 -5.871673E+04  1.541501E+05 -1.665704E+04  2.129712E+04
       176  27 -1.019298E+05 -6.545286E+05 -9.086968E+04  1.609740E+05 -6.064706E+03  9.614855E+03
       177   1  7.658196E+05  2.835798E+05  1.756081E+05  2.770496E+05  7.165000E+04  2.235692E+04
       177   2  7.387916E+05  1.806665E+05  1.097538E+05  2.719941E+05  4.649570E+04  3.153787E+03
       177   3  7.355156E+05  1.625967E+05  8.583204E+04  2.574923E+05  1.817736E+04 -7.643959E+03
       177   4  4.857182E+05  1.478563E+05  9.471091E+04  1.695491E+05  6.190242E+04  1.868090E+04
       177   5  4.693757E+05  7.006576E+04  4.065613E+04  1.878410E+05  4.318543E+04  1.905175E+03
       177   6  4.755233E+05  7.586304E+04  2.344928E+04  1.966832E+05  2.130266E+04 -6.466095E+03
       177   7  2.056991E+05  1.215583E+04  1.380782E+04  6.209903E+04  5.215978E+04  1.500793E+04
       177   8  2.000324E+05 -4.052548E+04 -2.844713E+04  1.037227E+05  3.987675E+04  6.572881E+02
       177   9  2.155957E+05 -1.086983E+04 -3.893870E+04  1.358952E+05  2.442655E+04 -5.288631E+03
       177  10  7.658140E+05  2.835779E+05  1.755975E+05  2.770483E+05  3.884622E-09 -9.972226E-10
       177  11  7.387893E+05  1.806659E+05  1.097497E+05  2.719939E+05 -3.981340E-09 -9.789172E-10
       177  12  7.355152E+05  1.625966E+05  8.583131E+04  2.574924E+05 -1.968663E-09  1.841779E-10
       177  13  4.857140E+05  1.478549E+05  9.470306E+04  1.695482E+05 -3.370960E-09 -4.666478E-09
       177  14  4.693737E+05  7.006526E+04  4.065263E+04  1.878409E+05 -6.546733E-09 -1.252966E-09
       177  15  4.755228E+05  7.586287E+04  2.344835E+04  1.966833E+05 -6.300064E-09 -4.863624E-10
       177  16  2.056961E+05  1.215485E+04  1.380229E+04  6.209840E+04 -4.749037E-09  9.574192E-10
       177  17  2.000306E+05 -4.052590E+04 -2.845012E+04  1.037227E+05 -7.192423E-09 -3.523443E-09
       177  18  2.155951E+05 -1.087002E+04 -3.893988E+04  1.358953E+05 -2.639521E-09  3.500369E-09
       177  19  7.658196E+05  2.835798E+05  1.756081E+05  2.770496E+05 -7.165000E+04 -2.235692E+04
       177  20  7.387916E+05  1.806665E+05  1.097538E+05  2.719941E+05 -4.649570E+04 -3.153787E+03
       177  21  7.355156E+05  1.625967E+05  8.583204E+04  2.574923E+05 -1.817736E+04  7.643959E+03
       177  22  4.857182E+05  1.478563E+05  9.471091E+04  1.695491E+05 -6.190242E+04 -1.868090E+04
       177  23  4.693757E+05  7.006576E+04  4.065613E+04  1.878410E+05 -4.318543E+04 -1.905175E+03
       177  24  4.755233E+05  7.586304E+04  2.344928E+04  1.966832E+05 -2.130266E+04  6.466095E+03
       177  25  2.056991E+05  1.215583E+04  1.380782E+04  6.209903E+04 -5.215978E+04 -1.500793E+04
       177  26  2.000324E+05 -4.052548E+04 -2.844713E+04  1.037227E+05 -3.987675E+04 -6.572881E+02
       177  27  2.155957E+05 -1.086983E+04 -3.893870E+04  1.358952E+05 -2.442655E+04  5.288631E+03
       178   1  7.010943E+05  1.709634E+05  7.587070E+04  2.565979E+05  1.704935E+04 -6.091675E+03
       178   2  6.803495E+05  1.513278E+05  6.042449E+04  2.454362E+05  1.157520E+04 -7.142264E+03
       178   3  6.535787E+05  1.459127E+05  5.028069E+04  2.430151E+05  5.952575E+03 -7.799468E+03
       178   4  4.724810E+05  8.374270E+04  1.871788E+04  1.919421E+05  1.757392E+04 -5.894317E+03
       178   5  4.751708E+05  7.416092E+04  9.480993E+03  1.885161E+05  1.240236E+04 -6.830640E+03
       178   6  4.717749E+05  7.874094E+04  5.308349E+03  1.938303E+05  7.082121E+03 -7.373615E+03
       178   7  2.439191E+05 -3.473842E+03 -3.843903E+04  1.273080E+05  1.809827E+04 -5.697043E+03
       178   8  2.700339E+05 -3.002773E+03 -4.146564E+04  1.316132E+05  1.322923E+04 -6.519131E+03
       178   9  2.900043E+05  1.157153E+04 -3.966631E+04  1.446587E+05  8.211300E+03 -6.947896E+03
       178  10  7.010940E+05  1.709632E+05  7.587008E+04  2.565979E+05  5.508624E-09  9.017700E-09
       178  11  6.803493E+05  1.513277E+05  6.042415E+04  2.454362E+05 -6.044128E-09  2.936281E-10
       178  12  6.535786E+05  1.459126E+05  5.028051E+04  2.430151E+05 -9.511842E-09  1.317343E-09
       178  13  4.724807E+05  8.374258E+04  1.871724E+04  1.919421E+05 -2.991383E-09 -3.135766E-09
       178  14  4.751706E+05  7.416082E+04  9.480616E+03  1.885161E+05 -9.568890E-09 -1.194318E-08
       178  15  4.717748E+05  7.874086E+04  5.308152E+03  1.938304E+05  2.849284E-09  9.210945E-09
       178  16  2.439187E+05 -3.473965E+03 -3.843970E+04  1.273081E+05 -8.163285E-09 -1.123721E-09
       178  17  2.700337E+05 -3.002866E+03 -4.146605E+04  1.316132E+05 -4.331854E-09 -6.440873E-09
       178  18  2.900043E+05  1.157146E+04 -3.966653E+04  1.446588E+05  5.132193E-09  7.502276E-09
       178  19  7.010943E+05  1.709634E+05  7.587070E+04  2.565979E+05 -1.704935E+04  6.091675E+03
       178  20  6.803495E+05  1.513278E+05  6.042449E+04  2.454362E+05 -1.157520E+04  7.142264E+03
       178  21  6.535787E+05  1.459127E+05  5.028069E+04  2.430151E+05 -5.952575E+03  7.799468E+03
       178  22  4.724810E+05  8.374270E+04  1.871788E+04  1.919421E+05 -1.757392E+04  5.894317E+03
       178  23  4.751708E+05  7.416092E+04  9.480993E+03  1.885161E+05 -1.240236E+04  6.830640E+03
       178  24  4.717749E+05  7.874094E+04  5.308349E+03  1.938303E+05 -7.082121E+03  7.373615E+03
       178  25  2.439191E+05 -3.473842E+03 -3.843903E+04  1.273080E+05 -1.809827E+04  5.697043E+03
       178  26  2.700339E+05 -3.002773E+03 -4.146564E+04  1.316132E+05 -1.322923E+04  6.519131E+03
       178  27  2.900043E+05  1.157153E+04 -3.966631E+04  1.446587E+05 -8.211300E+03  6.947896E+03
       179   1  6.304883E+05  1.387366E+05  4.338910E+04  2.372619E+05  5.015679E+03 -7.206723E+03
       179   2  6.105853E+05  1.249888E+05  3.562714E+04  2.257236E+05  3.402804E+03 -6.305894E+03
       179   3  5.822884E+05  1.203371E+05  2.880002E+04  2.240177E+05  1.783732E+03 -5.389430E+03
       179   4  4.714966E+05  7.925426E+04  4.061474E+03  1.934556E+05  6.019555E+03 -6.828182E+03
       179   5  4.756730E+05  7.454661E+04  2.198841E+03  1.886005E+05  4.418945E+03 -5.922607E+03
       179   6  4.714529E+05  7.893277E+04  1.261686E+03  1.935778E+05  2.812093E+03 -5.001410E+03
       179   7  3.125291E+05  1.977343E+04 -3.526830E+04  1.496594E+05  7.023154E+03 -6.449746E+03
       179   8  3.407783E+05  2.410549E+04 -3.123095E+04  1.514847E+05  5.434847E+03 -5.539410E+03
       179   9  3.606294E+05  3.752931E+04 -2.627760E+04  1.631429E+05  3.840254E+03 -4.613466E+03
       179  10  6.304882E+05  1.387365E+05  4.338896E+04  2.372619E+05  5.222654E-09  1.851696E-09
       179  11  6.105853E+05  1.249888E+05  3.562704E+04  2.257236E+05  4.613218E-09 -2.836749E-09
       179  12  5.822884E+05  1.203370E+05  2.879996E+04  2.240177E+05  6.835650E-10 -2.785748E-09
       179  13  4.714966E+05  7.925420E+04  4.061319E+03  1.934557E+05  3.546041E-09  9.595102E-10
       179  14  4.756730E+05  7.454657E+04  2.198738E+03  1.886006E+05  8.430091E-09 -3.186060E-09
       179  15  4.714529E+05  7.893274E+04  1.261624E+03  1.935779E+05  2.031745E-09  2.970843E-09
       179  16  3.125290E+05  1.977338E+04 -3.526847E+04  1.496594E+05  8.736109E-10 -1.201770E-09
       179  17  3.407782E+05  2.410545E+04 -3.123106E+04  1.514847E+05  7.502687E-09  5.185380E-09
       179  18  3.606294E+05  3.752928E+04 -2.627767E+04  1.631429E+05  5.965634E-09  1.061723E-08
       179  19  6.304883E+05  1.387366E+05  4.338910E+04  2.372619E+05 -5.015679E+03  7.206723E+03
       179  20  6.105853E+05  1.249888E+05  3.562714E+04  2.257236E+05 -3.402804E+03  6.305894E+03
       179  21  5.822884E+05  1.203371E+05  2.880002E+04  2.240177E+05 -1.783732E+03  5.389430E+03
       179  22  4.714966E+05  7.925426E+04  4.061474E+03  1.934556E+05 -6.019555E+03  6.828182E+03
       179  23  4.756730E+05  7.454661E+04  2.198841E+03  1.886005E+05 -4.418945E+03  5.922607E+03
       179  24  4.714529E+05  7.893277E+04  1.261686E+03  1.935778E+05 -2.812093E+03  5.001410E+03
       179  25  3.125291E+05  1.977343E+04 -3.526830E+04  1.496594E+05 -7.023154E+03  6.449746E+03
       179  26  3.407783E+05  2.410549E+04 -3.123095E+04  1.514847E+05 -5.434847E+03  5.539410E+03
       179  27  3.606294E+05  3.752931E+04 -2.627760E+04  1.631429E+05 -3.840254E+03  4.613466E+03
       180   1  5.601947E+05  1.121354E+05  2.289624E+04  2.179757E+05  1.311186E+03 -4.675955E+03
       180   2  5.404935E+05  9.882905E+04  1.669614E+04  2.064525E+05  4.859539E+02 -3.462222E+03
       180   3  5.121948E+05  9.420992E+04  1.074297E+04  2.047669E+05 -3.391613E+02 -2.249141E+03
       180   4  4.714250E+05  7.895359E+04  9.863933E+02  1.935375E+05  2.332182E+03 -4.290660E+03
       180   5  4.757235E+05  7.460310E+04  6.458689E+02  1.886216E+05  1.506493E+03 -3.077046E+03
       180   6  4.714241E+05  7.894000E+04  5.526765E+02  1.935431E+05  6.809052E+02 -1.864083E+03
       180   7  3.826634E+05  4.577246E+04 -2.092395E+04  1.691025E+05  3.353014E+03 -3.905427E+03
       180   8  4.109577E+05  5.037743E+04 -1.540473E+04  1.707923E+05  2.526917E+03 -2.691913E+03
       180   9  4.306549E+05  6.367012E+04 -9.637788E+03  1.823199E+05  1.700903E+03 -1.479051E+03
       180  10  5.601947E+05  1.121354E+05  2.289620E+04  2.179757E+05  5.417160E-09 -3.768619E-09
       180  11  5.404935E+05  9.882904E+04  1.669612E+04  2.064525E+05 -4.287822E-09 -4.238529E-09
       180  12  5.121948E+05  9.420991E+04  1.074296E+04  2.047669E+05 -1.145544E-09  1.449939E-09
       180  13  4.714250E+05  7.895357E+04  9.863485E+02  1.935375E+05  3.742653E-10  2.821270E-09
       180  14  4.757235E+05  7.460309E+04  6.458469E+02  1.886216E+05 -2.798243E-09  5.488827E-09
       180  15  4.714241E+05  7.893999E+04  5.526691E+02  1.935431E+05 -5.120254E-10 -8.566137E-09
       180  16  3.826634E+05  4.577244E+04 -2.092400E+04  1.691025E+05 -6.792058E-09  1.968740E-09
       180  17  4.109577E+05  5.037742E+04 -1.540475E+04  1.707923E+05 -6.220375E-09 -5.254726E-09
       180  18  4.306549E+05  6.367012E+04 -9.637798E+03  1.823199E+05  3.486614E-10 -5.488869E-09
       180  19  5.601947E+05  1.121354E+05  2.289624E+04  2.179757E+05 -1.311186E+03  4.675955E+03
       180  20  5.404935E+05  9.882905E+04  1.669614E+04  2.064525E+05 -4.859539E+02  3.462222E+03
       180  21  5.121948E+05  9.420992E+04  1.074297E+04  2.047669E+05  3.391613E+02  2.249141E+03
       180  22  4.714250E+05  7.895359E+04  9.863933E+02  1.935375E+05 -2.332182E+03  4.290660E+03
       180  23  4.757235E+05  7.460310E+04  6.458689E+02  1.886216E+05 -1.506493E+03  3.077046E+03
       180  24  4.714241E+05  7.894000E+04  5.526765E+02  1.935431E+05 -6.809052E+02  1.864083E+03
       180  25  3.826634E+05  4.577246E+04 -2.092395E+04  1.691025E+05 -3.353014E+03  3.905427E+03
       180  26  4.109577E+05  5.037743E+04 -1.540473E+04  1.707923E+05 -2.526917E+03  2.691913E+03
       180  27  4.306549E+05  6.367012E+04 -9.637788E+03  1.823199E+05 -1.700903E+03  1.479051E+03
       181   1  4.902454E+05  8.597178E+04  5.157320E+03  1.987387E+05 -7.256055E+02 -1.508188E+03
       181   2  4.705731E+05  7.269806E+04 -4.797782E+02  1.872258E+05 -1.623292E+03 -3.239487E+02
       181   3  4.423282E+05  6.810959E+04 -5.813333E+03  1.855354E+05 -2.520727E+03  8.597882E+02
       181   4  4.714295E+05  7.893696E+04  5.786926E+02  1.935408E+05  2.938635E+02 -1.123338E+03
       181   5  4.757177E+05  7.460602E+04  7.922272E+02  1.886253E+05 -6.042470E+02  6.073469E+01
       181   6  4.714327E+05  7.896030E+04  1.309619E+03  1.935319E+05 -1.502122E+03  1.244300E+03
       181   7  4.526139E+05  7.190216E+04 -3.999955E+03  1.883430E+05  1.313299E+03 -7.385006E+02
       181   8  4.808624E+05  7.651398E+04  2.064232E+03  1.900248E+05  4.148049E+02  4.454206E+02
       181   9  5.005380E+05  8.981102E+04  8.432475E+03  2.015288E+05 -4.834695E+02  1.628829E+03
       181  10  4.902454E+05  8.597177E+04  5.157314E+03  1.987387E+05  3.770276E-09 -3.779945E-10
       181  11  4.705731E+05  7.269806E+04 -4.797834E+02  1.872258E+05  8.243243E-10  5.102141E-09
       181  12  4.423282E+05  6.810959E+04 -5.813346E+03  1.855354E+05  1.920178E-09 -6.464276E-09
       181  13  4.714295E+05  7.893696E+04  5.786901E+02  1.935408E+05  3.639830E-09  6.243315E-10
       181  14  4.757177E+05  7.460602E+04  7.922265E+02  1.886253E+05 -1.689567E-09 -1.490664E-09
       181  15  4.714327E+05  7.896030E+04  1.309612E+03  1.935319E+05 -3.814449E-10 -1.264274E-09
       181  16  4.526139E+05  7.190216E+04 -3.999960E+03  1.883430E+05  1.494041E-09 -1.019485E-08
       181  17  4.808624E+05  7.651398E+04  2.064231E+03  1.900248E+05  6.122717E-09 -8.450034E-09
       181  18  5.005380E+05  8.981101E+04  8.432469E+03  2.015288E+05  1.540171E-09 -2.780062E-09
       181  19  4.902454E+05  8.597178E+04  5.157320E+03  1.987387E+05  7.256055E+02  1.508188E+03
       181  20  4.705731E+05  7.269806E+04 -4.797782E+02  1.872258E+05  1.623292E+03  3.239487E+02
       181  21  4.423282E+05  6.810959E+04 -5.813333E+03  1.855354E+05  2.520727E+03 -8.597882E+02
       181  22  4.714295E+05  7.893696E+04  5.786926E+02  1.935408E+05 -2.938635E+02  1.123338E+03
       181  23  4.757177E+05  7.460602E+04  7.922272E+02  1.886253E+05  6.042470E+02 -6.073469E+01
       181  24  4.714327E+05  7.896030E+04  1.309619E+03  1.935319E+05  1.502122E+03 -1.244300E+03
       181  25  4.526139E+05  7.190216E+04 -3.999955E+03  1.883430E+05 -1.313299E+03  7.385006E+02
       181  26  4.808624E+05  7.651398E+04  2.064232E+03  1.900248E+05 -4.148049E+02 -4.454206E+02
       181  27  5.005380E+05  8.981102E+04  8.432475E+03  2.015288E+05  4.834695E+02 -1.628829E+03
       182   1  4.203592E+05  5.988713E+04 -1.103207E+04  1.796139E+05 -3.068034E+03  1.542083E+03
       182   2  4.005702E+05  4.649111E+04 -1.557811E+04  1.679714E+05 -5.075545E+03  2.306859E+03
       182   3  3.725243E+05  4.230079E+04 -1.886171E+04  1.660935E+05 -7.077738E+03  3.058168E+03
       182   4  4.714810E+05  7.892230E+04  1.704397E+03  1.935770E+05 -2.044148E+03  1.928566E+03
       182   5  4.756398E+05  7.454413E+04  3.022251E+03  1.886093E+05 -4.062184E+03  2.689304E+03
       182   6  4.715438E+05  7.937378E+04  5.610912E+03  1.934059E+05 -6.074964E+03  3.436553E+03
       182   7  5.226056E+05  9.795774E+04  1.444073E+04  2.075413E+05 -1.020164E+03  2.315086E+03
       182   8  5.507152E+05  1.025976E+05  2.162223E+04  2.092494E+05 -3.048688E+03  3.071800E+03
       182   9  5.705728E+05  1.164475E+05  3.008279E+04  2.207223E+05 -5.072016E+03  3.815005E+03
       182  10  4.203592E+05  5.988712E+04 -1.103210E+04  1.796139E+05 -4.034047E-09 -3.387110E-09
       182  11  4.005701E+05  4.649110E+04 -1.557817E+04  1.679714E+05 -1.873988E-09 -5.503244E-10
       182  12  3.725243E+05  4.230077E+04 -1.886182E+04  1.660935E+05  6.156286E-09 -3.072904E-10
       182  13  4.714810E+05  7.892230E+04  1.704382E+03  1.935770E+05  2.787400E-09  4.147467E-10
       182  14  4.756398E+05  7.454412E+04  3.022207E+03  1.886093E+05  1.620342E-09  3.716995E-09
       182  15  4.715437E+05  7.937376E+04  5.610821E+03  1.934059E+05  4.374872E-10 -3.918101E-09
       182  16  5.226056E+05  9.795773E+04  1.444072E+04  2.075413E+05  7.337646E-09  4.116796E-09
       182  17  5.507152E+05  1.025976E+05  2.162219E+04  2.092494E+05  2.142886E-09  1.311272E-09
       182  18  5.705728E+05  1.164474E+05  3.008271E+04  2.207223E+05 -2.181445E-09  3.467206E-09
       182  19  4.203592E+05  5.988713E+04 -1.103207E+04  1.796139E+05  3.068034E+03 -1.542083E+03
       182  20  4.005702E+05  4.649111E+04 -1.557811E+04  1.679714E+05  5.075545E+03 -2.306859E+03
       182  21  3.725243E+05  4.230079E+04 -1.886171E+04  1.660935E+05  7.077738E+03 -3.058168E+03
       182  22  4.714810E+05  7.892230E+04  1.704397E+03  1.935770E+05  2.044148E+03 -1.928566E+03
       182  23  4.756398E+05  7.454413E+04  3.022251E+03  1.886093E+05  4.062184E+03 -2.689304E+03
       182  24  4.715438E+05  7.937378E+04  5.610912E+03  1.934059E+05  6.074964E+03 -3.436553E+03
       182  25  5.226056E+05  9.795774E+04  1.444073E+04  2.075413E+05  1.020164E+03 -2.315086E+03
       182  26  5.507152E+05  1.025976E+05  2.162223E+04  2.092494E+05  3.048688E+03 -3.071800E+03
       182  27  5.705728E+05  1.164475E+05  3.008279E+04  2.207223E+05  5.072016E+03 -3.815005E+03
       183   1  3.500119E+05  3.417994E+04 -2.274761E+04  1.615334E+05 -8.522554E+03  3.444048E+03
       183   2  3.301792E+05  1.925969E+04 -2.288624E+04  1.480249E+05 -1.545926E+04  2.295654E+03
       183   3  3.052829E+05  2.047595E+04 -1.620923E+04  1.427162E+05 -2.227592E+04  8.306558E+02
       183   4  4.719394E+05  7.865387E+04  7.340292E+03  1.939142E+05 -7.419194E+03  3.860345E+03
       183   5  4.749383E+05  7.402825E+04  1.312385E+04  1.885058E+05 -1.459959E+04  2.619839E+03
       183   6  4.729206E+05  8.558579E+04  2.591477E+04  1.912965E+05 -2.166025E+04  1.062617E+03
       183   7  5.938811E+05  1.231284E+05  3.742691E+04  2.263006E+05 -6.315602E+03  4.276724E+03
       183   8  6.197181E+05  1.287984E+05  4.913230E+04  2.289952E+05 -1.373971E+04  2.944108E+03
       183   9  6.405867E+05  1.506984E+05  6.803675E+04  2.398892E+05 -2.104440E+04  1.294653E+03
       183  10  3.500118E+05  3.417991E+04 -2.274777E+04  1.615334E+05  5.538697E-11 -5.925200E-09
       183  11  3.301789E+05  1.925962E+04 -2.288670E+04  1.480249E+05 -4.266643E-09 -2.443176E-09
       183  12  3.052823E+05  2.047582E+04 -1.621016E+04  1.427162E+05 -1.761856E-09  3.812470E-09
       183  13  4.719394E+05  7.865384E+04  7.340160E+03  1.939143E+05 -9.892919E-10 -8.955339E-09
       183  14  4.749381E+05  7.402818E+04  1.312343E+04  1.885058E+05 -3.933117E-09  2.546474E-09
       183  15  4.729201E+05  8.558566E+04  2.591389E+04  1.912966E+05  6.693738E-10  1.298419E-09
       183  16  5.938810E+05  1.231284E+05  3.742680E+04  2.263007E+05  2.400609E-09 -3.855841E-09
       183  17  6.197179E+05  1.287983E+05  4.913193E+04  2.289953E+05  2.684646E-09  4.486026E-11
       183  18  6.405862E+05  1.506983E+05  6.803592E+04  2.398892E+05  2.320573E-09  1.407946E-09
       183  19  3.500119E+05  3.417994E+04 -2.274761E+04  1.615334E+05  8.522554E+03 -3.444048E+03
       183  20  3.301792E+05  1.925969E+04 -2.288624E+04  1.480249E+05  1.545926E+04 -2.295654E+03
       183  21  3.052829E+05  2.047595E+04 -1.620923E+04  1.427162E+05  2.227592E+04 -8.306558E+02
       183  22  4.719394E+05  7.865387E+04  7.340292E+03  1.939142E+05  7.419194E+03 -3.860345E+03
       183  23  4.749383E+05  7.402825E+04  1.312385E+04  1.885058E+05  1.459959E+04 -2.619839E+03
       183  24  4.729206E+05  8.558579E+04  2.591477E+04  1.912965E+05  2.166025E+04 -1.062617E+03
       183  25  5.938811E+05  1.231284E+05  3.742691E+04  2.263006E+05  6.315602E+03 -4.276724E+03
       183  26  6.197181E+05  1.287984E+05  4.913230E+04  2.289952E+05  1.373971E+04 -2.944108E+03
       183  27  6.405867E+05  1.506984E+05  6.803675E+04  2.398892E+05  2.104440E+04 -1.294653E+03
       184   1  2.749332E+05  1.353376E+04 -1.493490E+04  1.570684E+05 -2.920518E+04 -2.422879E+01
       184   2  2.611858E+05 -2.227318E+04  2.379100E+03  1.169884E+05 -5.444961E+04 -9.350582E+03
       184   3  2.809076E+05  5.327873E+04  6.662003E+04  5.997901E+04 -7.714650E+04 -2.543061E+04
       184   4  4.771130E+05  7.469558E+04  3.246626E+04  1.978797E+05 -2.649994E+04  9.966226E+02
       184   5  4.669442E+05  6.834760E+04  5.629709E+04  1.875496E+05 -5.691778E+04 -1.028295E+04
       184   6  4.912520E+05  1.743566E+05  1.311408E+05  1.602942E+05 -8.478876E+04 -2.831791E+04
       184   7  6.793336E+05  1.358574E+05  7.986490E+04  2.387015E+05 -2.379372E+04  2.017682E+03
       184   8  6.727433E+05  1.589755E+05  1.102111E+05  2.581333E+05 -5.938683E+04 -1.121578E+04
       184   9  7.016404E+05  2.954564E+05  1.956567E+05  2.606443E+05 -9.243371E+04 -3.120751E+04
       184  10  2.749323E+05  1.353353E+04 -1.493650E+04  1.570684E+05  1.433396E-09 -5.819136E-10
       184  11  2.611826E+05 -2.227406E+04  2.373367E+03  1.169880E+05 -5.449864E-10 -3.790551E-09
       184  12  2.809011E+05  5.327644E+04  6.660764E+04  5.997743E+04 -1.989346E-09  8.868345E-10
       184  13  4.771122E+05  7.469539E+04  3.246494E+04  1.978797E+05 -1.709197E-09 -1.468801E-09
       184  14  4.669407E+05  6.834662E+04  5.629081E+04  1.875492E+05  1.784354E-09 -3.691749E-09
       184  15  4.912440E+05  1.743538E+05  1.311258E+05  1.602923E+05 -1.728939E-09 -1.757196E-09
       184  16  6.793330E+05  1.358572E+05  7.986383E+04  2.387016E+05  6.220290E-12  4.536629E-09
       184  17  6.727395E+05  1.589744E+05  1.102043E+05  2.581327E+05  1.257165E-09  7.893557E-09
       184  18  7.016309E+05  2.954531E+05  1.956389E+05  2.606419E+05  6.031512E-10  4.967582E-09
       184  19  2.749332E+05  1.353376E+04 -1.493490E+04  1.570684E+05  2.920518E+04  2.422879E+01
       184  20  2.611858E+05 -2.227318E+04  2.379100E+03  1.169884E+05  5.444961E+04  9.350582E+03
       184  21  2.809076E+05  5.327873E+04  6.662003E+04  5.997901E+04  7.714650E+04  2.543061E+04
       184  22  4.771130E+05  7.469558E+04  3.246626E+04  1.978797E+05  2.649994E+04 -9.966226E+02
       184  23  4.669442E+05  6.834760E+04  5.629709E+04  1.875496E+05  5.691778E+04  1.028295E+04
       184  24  4.912520E+05  1.743566E+05  1.311408E+05  1.602942E+05  8.478876E+04  2.831791E+04
       184  25  6.793336E+05  1.358574E+05  7.986490E+04  2.387015E+05  2.379372E+04 -2.017682E+03
       184  26  6.727433E+05  1.589755E+05  1.102111E+05  2.581333E+05  5.938683E+04  1.121578E+04
       184  27  7.016404E+05  2.954564E+05  1.956567E+05  2.606443E+05  9.243371E+04  3.120751E+04
       185   1 -1.152770E+05 -6.320834E+05 -1.163813E+05  8.685860E+04 -4.170804E+03 -2.127514E+04
       185   2 -6.685933E+04 -4.973406E+05 -7.073789E+04  5.232799E+04 -1.115598E+04 -7.503669E+03
       185   3 -3.443255E+04 -3.681566E+05 -3.802945E+04  7.837800E+04 -6.596549E+03  6.284877E+03
       185   4 -1.407792E+04 -2.257850E+05 -1.698092E+04  8.028349E+04 -4.182730E+03 -1.088978E+04
       185   5  3.729890E+02 -2.238049E+05 -8.255019E+03  5.000209E+04 -1.115669E+04 -6.528581E+03
       185   6  4.726114E+02 -2.257632E+05 -5.921246E+03  8.030064E+04 -6.588133E+03 -2.153427E+03
       185   7  8.710916E+04  1.806643E+05  8.240779E+04  7.370410E+04 -4.194873E+03 -4.976275E+02
       185   8  6.760014E+04  4.980024E+04  5.422297E+04  4.767518E+04 -1.115741E+04 -5.553067E+03
       185   9  3.537643E+04 -8.335089E+04  2.618593E+04  8.222372E+04 -6.579771E+03 -1.059365E+04
       185  10 -1.152772E+05 -6.320839E+05 -1.163822E+05  8.685853E+04  2.799944E-09  5.020676E-09
       185  11 -6.685948E+04 -4.973407E+05 -7.073823E+04  5.232792E+04  2.997255E-09 -1.614942E-09
       185  12 -3.443261E+04 -3.681566E+05 -3.802961E+04  7.837803E+04  2.566163E-10 -5.907223E-09
       185  13 -1.407797E+04 -2.257851E+05 -1.698118E+04  8.028345E+04  7.380312E-10 -3.187027E-09
       185  14  3.728439E+02 -2.238050E+05 -8.255333E+03  5.000204E+04  2.437027E-09  7.908548E-10
       185  15  4.725636E+02 -2.257633E+05 -5.921337E+03  8.030062E+04 -4.293004E-09 -3.670012E-09
       185  16  8.710914E+04  1.806643E+05  8.240776E+04  7.370410E+04  1.725056E-09 -9.839609E-09
       185  17  6.759999E+04  4.980017E+04  5.422267E+04  4.767513E+04  3.722871E-09  1.569321E-09
       185  18  3.537636E+04 -8.335103E+04  2.618564E+04  8.222367E+04 -5.885289E-10  7.412105E-09
       185  19 -1.152770E+05 -6.320834E+05 -1.163813E+05  8.685860E+04  4.170804E+03  2.127514E+04
       185  20 -6.685933E+04 -4.973406E+05 -7.073789E+04  5.232799E+04  1.115598E+04  7.503669E+03
       185  21 -3.443255E+04 -3.681566E+05 -3.802945E+04  7.837800E+04  6.596549E+03 -6.284877E+03
       185  22 -1.407792E+04 -2.257850E+05 -1.698092E+04  8.028349E+04  4.182730E+03  1.088978E+04
       185  23  3.729890E+02 -2.238049E+05 -8.255019E+03  5.000209E+04  1.115669E+04  6.528581E+03
       185  24  4.726114E+02 -2.257632E+05 -5.921246E+03  8.030064E+04  6.588133E+03  2.153427E+03
       185  25  8.710916E+04  1.806643E+05  8.240779E+04  7.370410E+04  4.194873E+03  4.976275E+02
       185  26  6.760014E+04  4.980024E+04  5.422297E+04  4.767518E+04  1.115741E+04  5.553067E+03
       185  27  3.537643E+04 -8.335089E+04  2.618593E+04  8.222372E+04  6.579771E+03  1.059365E+04
       186   1 -7.510341E+03 -2.517792E+05 -1.152722E+04  8.101695E+04 -1.240162E+03  3.964628E+03
       186   2  2.580656E+04 -1.194434E+05  1.835662E+04  4.973596E+04  4.977253E+03  6.448729E+03
       186   3  5.641364E+04  1.208942E+04  4.598336E+04  7.948741E+04  1.095543E+04  8.934021E+03
       186   4 -9.619400E+02 -2.250734E+05 -5.505450E+03  8.039661E+04 -1.235179E+03 -1.207184E+03
       186   5  2.907462E+01 -2.246507E+05 -5.302632E+03  4.987959E+04  4.982428E+03  1.471387E+03
       186   6 -1.722666E+03 -2.250813E+05 -7.491510E+03  8.039581E+04  1.096072E+04  4.150637E+03
       186   7  5.586428E+03 -1.983668E+05  5.163758E+02  7.977626E+04 -1.230185E+03 -6.379217E+03
       186   8 -2.574915E+04 -3.298476E+05 -2.896250E+04  5.002321E+04  4.987601E+03 -3.505121E+03
       186   9 -5.986282E+04 -4.621997E+05 -6.096989E+04  8.130388E+04  1.096600E+04 -6.309382E+02
       186  10 -7.510347E+03 -2.517792E+05 -1.152725E+04  8.101695E+04  4.442950E-10  8.454074E-09
       186  11  2.580652E+04 -1.194435E+05  1.835650E+04  4.973593E+04  1.223933E-09  7.207461E-09
       186  12  5.641349E+04  1.208930E+04  4.598298E+04  7.948733E+04  1.270338E-09 -2.782532E-09
       186  13 -9.619421E+02 -2.250734E+05 -5.505456E+03  8.039661E+04 -4.776882E-09 -1.083076E-09
       186  14  2.904738E+01 -2.246507E+05 -5.302683E+03  4.987959E+04  5.010584E-10 -8.492321E-10
       186  15 -1.722800E+03 -2.250814E+05 -7.491768E+03  8.039578E+04 -1.421957E-09 -1.061881E-10
       186  16  5.586415E+03 -1.983668E+05  5.162965E+02  7.977625E+04  5.139813E-11 -1.204699E-08
       186  17 -2.574918E+04 -3.298476E+05 -2.896257E+04  5.002322E+04  1.529174E-09 -4.610323E-09
       186  18 -5.986295E+04 -4.621997E+05 -6.097012E+04  8.130389E+04  2.642168E-09  4.745216E-09
       186  19 -7.510341E+03 -2.517792E+05 -1.152722E+04  8.101695E+04  1.240162E+03 -3.964628E+03
       186  20  2.580656E+04 -1.194434E+05  1.835662E+04  4.973596E+04 -4.977253E+03 -6.448729E+03
       186  21  5.641364E+04  1.208942E+04  4.598336E+04  7.948741E+04 -1.095543E+04 -8.934021E+03
       186  22 -9.619400E+02 -2.250734E+05 -5.505450E+03  8.039661E+04  1.235179E+03  1.207184E+03
       186  23  2.907462E+01 -2.246507E+05 -5.302632E+03  4.987959E+04 -4.982428E+03 -1.471387E+03
       186  24 -1.722666E+03 -2.250813E+05 -7.491510E+03  8.039581E+04 -1.096072E+04 -4.150637E+03
       186  25  5.586428E+03 -1.983668E+05  5.163758E+02  7.977626E+04  1.230185E+03  6.379217E+03
       186  26 -2.574915E+04 -3.298476E+05 -2.896250E+04  5.002321E+04 -4.987601E+03  3.505121E+03
       186  27 -5.986282E+04 -4.621997E+05 -6.096989E+04  8.130388E+04 -1.096600E+04  6.309382E+02
       187   1  8.750224E+04  1.265048E+05  7.046889E+04  8.357479E+04  1.681652E+04  1.518949E+04
       187   2  1.194876E+05  2.607738E+05  9.620745E+04  4.588762E+04  2.031784E+04  8.887932E+03
       187   3  1.285193E+05  3.904600E+05  1.203752E+05  6.850382E+04  7.022585E+03  2.560608E+03
       187   4  1.056203E+03 -2.264589E+05 -8.831465E+03  8.024521E+04  1.682786E+04  5.479768E+03
       187   5  6.996885E+02 -2.229867E+05 -1.393081E+04  5.007323E+04  2.031377E+04  1.288468E+04
       187   6 -2.499893E+04 -2.264973E+05 -3.012294E+04  8.020882E+04  6.997115E+03  2.026485E+04
       187   7 -8.539826E+04 -5.793063E+05 -8.813938E+04  7.691757E+04  1.683930E+04 -4.224493E+03
       187   8 -1.181044E+05 -7.065301E+05 -1.240842E+05  5.425561E+04  2.030975E+04  1.687835E+04
       187   9 -1.785446E+05 -8.431067E+05 -1.806476E+05  9.190227E+04  6.972300E+03  3.795154E+04
       187  10  8.750187E+04  1.265045E+05  7.046793E+04  8.357458E+04  2.400041E-09 -1.419819E-09
       187  11  1.194872E+05  2.607736E+05  9.620653E+04  4.588748E+04  2.999179E-09 -4.599877E-09
       187  12  1.285192E+05  3.904600E+05  1.203751E+05  6.850380E+04  3.203379E-09 -8.690723E-10
       187  13  1.055891E+03 -2.264590E+05 -8.832054E+03  8.024513E+04 -8.310573E-10 -3.043654E-11
       187  14  6.992009E+02 -2.229870E+05 -1.393190E+04  5.007302E+04  2.485126E-09  4.823858E-09
       187  15 -2.499909E+04 -2.264978E+05 -3.012380E+04  8.020871E+04  6.765158E-10 -1.847064E-10
       187  16 -8.539856E+04 -5.793064E+05 -8.813995E+04  7.691763E+04  5.090638E-09 -4.071462E-10
       187  17 -1.181049E+05 -7.065305E+05 -1.240855E+05  5.425534E+04  6.887374E-09  4.351898E-09
       187  18 -1.785450E+05 -8.431083E+05 -1.806504E+05  9.190206E+04  1.892390E-09  5.566243E-09
       187  19  8.750224E+04  1.265048E+05  7.046889E+04  8.357479E+04 -1.681652E+04 -1.518949E+04
       187  20  1.194876E+05  2.607738E+05  9.620745E+04  4.588762E+04 -2.031784E+04 -8.887932E+03
       187  21  1.285193E+05  3.904600E+05  1.203752E+05  6.850382E+04 -7.022585E+03 -2.560608E+03
       187  22  1.056203E+03 -2.264589E+05 -8.831465E+03  8.024521E+04 -1.682786E+04 -5.479768E+03
       187  23  6.996885E+02 -2.229867E+05 -1.393081E+04  5.007323E+04 -2.031377E+04 -1.288468E+04
       187  24 -2.499893E+04 -2.264973E+05 -3.012294E+04  8.020882E+04 -6.997115E+03 -2.026485E+04
       187  25 -8.539826E+04 -5.793063E+05 -8.813938E+04  7.691757E+04 -1.683930E+04  4.224493E+03
       187  26 -1.181044E+05 -7.065301E+05 -1.240842E+05  5.425561E+04 -2.030975E+04 -1.687835E+04
       187  27 -1.785446E+05 -8.431067E+05 -1.806476E+05  9.190227E+04 -6.972300E+03 -3.795154E+04
       188   1  2.672908E+05  1.396255E+05  1.270534E+05  3.500621E+04  2.744276E+04 -9.826848E+03
       188   2  2.125314E+05  1.467034E+05  1.063522E+05  4.131775E+04  8.336148E+03 -3.292822E+04
       188   3  1.565604E+05  1.388822E+05  9.438014E+04  5.868283E+04 -1.077934E+04 -3.936691E+04
       188   4 -4.391608E+05 -3.474127E+04 -3.848517E+04  5.643647E+04 -2.684542E+04 -9.872060E+03
       188   5 -4.360356E+05 -8.021705E+03 -1.874974E+04  5.089282E+04 -1.715048E+04 -3.295507E+04
       188   6 -4.391309E+05 -1.211543E+03 -1.029070E+04  5.640347E+04 -7.466454E+03 -3.936668E+04
       188   7 -1.145145E+06 -2.091401E+05 -2.040465E+05  7.784209E+04 -8.107222E+04 -9.921049E+03
       188   8 -1.084196E+06 -1.627711E+05 -1.438688E+05  6.045756E+04 -4.261110E+04 -3.298272E+04
       188   9 -1.034475E+06 -1.413247E+05 -1.149744E+05  5.412626E+04 -4.156649E+03 -3.936649E+04
       188  10  2.672900E+05  1.396251E+05  1.270518E+05  3.500643E+04 -3.699038E-10  3.310951E-10
       188  11  2.125310E+05  1.467022E+05  1.063501E+05  4.131798E+04  2.395800E-09 -3.913556E-10
       188  12  1.565598E+05  1.388805E+05  9.437701E+04  5.868249E+04 -5.192897E-11 -1.075829E-09
       188  13 -4.391616E+05 -3.474157E+04 -3.848671E+04  5.643626E+04  1.341210E-09  1.026422E-09
       188  14 -4.360362E+05 -8.022950E+03 -1.875233E+04  5.089237E+04  3.074715E-10  2.450134E-10
       188  15 -4.391314E+05 -1.213222E+03 -1.029372E+04  5.640323E+04  1.016239E-09  9.149763E-10
       188  16 -1.145152E+06 -2.091420E+05 -2.040591E+05  7.784144E+04 -3.574000E-10  5.596343E-10
       188  17 -1.084199E+06 -1.627727E+05 -1.438742E+05  6.045643E+04 -2.480079E-09 -1.736719E-09
       188  18 -1.034475E+06 -1.413263E+05 -1.149773E+05  5.412612E+04 -7.620411E-10 -2.407059E-09
       188  19  2.672908E+05  1.396255E+05  1.270534E+05  3.500621E+04 -2.744276E+04  9.826848E+03
       188  20  2.125314E+05  1.467034E+05  1.063522E+05  4.131775E+04 -8.336148E+03  3.292822E+04
       188  21  1.565604E+05  1.388822E+05  9.438014E+04  5.868283E+04  1.077934E+04  3.936691E+04
       188  22 -4.391608E+05 -3.474127E+04 -3.848517E+04  5.643647E+04  2.684542E+04  9.872060E+03
       188  23 -4.360356E+05 -8.021705E+03 -1.874974E+04  5.089282E+04  1.715048E+04  3.295507E+04
       188  24 -4.391309E+05 -1.211543E+03 -1.029070E+04  5.640347E+04  7.466454E+03  3.936668E+04
       188  25 -1.145145E+06 -2.091401E+05 -2.040465E+05  7.784209E+04  8.107222E+04  9.921049E+03
       188  26 -1.084196E+06 -1.627711E+05 -1.438688E+05  6.045756E+04  4.261110E+04  3.298272E+04
       188  27 -1.034475E+06 -1.413247E+05 -1.149744E+05  5.412626E+04  4.156649E+03  3.936649E+04
       189   1  1.211328E+05  1.296672E+05  8.933002E+04  5.644279E+04 -7.759652E+03 -3.789272E+04
       189   2  6.584603E+04  1.175433E+05  8.088455E+04  5.081049E+04 -8.276538E+03 -3.618177E+04
       189   3  1.047083E+04  1.048197E+05  7.262466E+04  5.734948E+04 -8.796207E+03 -3.292831E+04
       189   4 -4.378642E+05 -1.579130E+03 -7.822658E+03  5.665579E+04 -6.130518E+03 -3.789393E+04
       189   5 -4.375778E+05 -1.983182E+02 -4.303161E+03  5.056876E+04 -3.983038E+03 -3.617924E+04
       189   6 -4.378450E+05  1.200850E+02 -2.449132E+03  5.665365E+04 -1.838341E+03 -3.292138E+04
       189   7 -9.965548E+05 -1.328424E+05 -1.049863E+05  5.686850E+04 -4.502804E+03 -3.789515E+04
       189   8 -9.407518E+05 -1.179533E+05 -8.949896E+04  5.032714E+04  3.070933E+02 -3.617670E+04
       189   9 -8.859623E+05 -1.045900E+05 -7.752899E+04  5.595828E+04  5.114666E+03 -3.291447E+04
       189  10  1.211324E+05  1.296657E+05  8.932721E+04  5.644256E+04 -5.606218E-09 -1.904029E-09
       189  11  6.584560E+04  1.175419E+05  8.088196E+04  5.081025E+04 -3.318703E-09  1.022404E-09
       189  12  1.047045E+04  1.048185E+05  7.262248E+04  5.734924E+04  2.344930E-09 -2.884879E-11
       189  13 -4.378646E+05 -1.580681E+03 -7.825427E+03  5.665560E+04 -2.695133E-09 -6.088090E-10
       189  14 -4.375781E+05 -1.997277E+02 -4.305650E+03  5.056864E+04 -1.918034E-09  1.127656E-09
       189  15 -4.378453E+05  1.189205E+02 -2.451175E+03  5.665360E+04  1.168319E-09 -2.458992E-09
       189  16 -9.965552E+05 -1.328439E+05 -1.049890E+05  5.686836E+04  4.770288E-09  8.734875E-10
       189  17 -9.407522E+05 -1.179547E+05 -8.950142E+04  5.032715E+04  1.693256E-09  1.986850E-09
       189  18 -8.859627E+05 -1.045912E+05 -7.753108E+04  5.595841E+04 -3.071480E-09 -9.739443E-10
       189  19  1.211328E+05  1.296672E+05  8.933002E+04  5.644279E+04  7.759652E+03  3.789272E+04
       189  20  6.584603E+04  1.175433E+05  8.088455E+04  5.081049E+04  8.276538E+03  3.618177E+04
       189  21  1.047083E+04  1.048197E+05  7.262466E+04  5.734948E+04  8.796207E+03  3.292831E+04
       189  22 -4.378642E+05 -1.579130E+03 -7.822658E+03  5.665579E+04  6.130518E+03  3.789393E+04
       189  23 -4.375778E+05 -1.983182E+02 -4.303161E+03  5.056876E+04  3.983038E+03  3.617924E+04
       189  24 -4.378450E+05  1.200850E+02 -2.449132E+03  5.665365E+04  1.838341E+03  3.292138E+04
       189  25 -9.965548E+05 -1.328424E+05 -1.049863E+05  5.686850E+04  4.502804E+03  3.789515E+04
       189  26 -9.407518E+05 -1.179533E+05 -8.949896E+04  5.032714E+04 -3.070933E+02  3.617670E+04
       189  27 -8.859623E+05 -1.045900E+05 -7.752899E+04  5.595828E+04 -5.114666E+03  3.291447E+04
       190   1 -2.540463E+04  9.633368E+04  6.689112E+04  5.718930E+04 -8.270150E+03 -3.055120E+04
       190   2 -8.077861E+04  8.342627E+04  5.834032E+04  5.098298E+04 -7.996004E+03 -2.654109E+04
       190   3 -1.362079E+05  7.053879E+04  4.960845E+04  5.706600E+04 -7.723111E+03 -2.238677E+04
       190   4 -4.377386E+05  9.505245E+01 -1.861101E+03  5.668013E+04 -1.465243E+03 -3.054386E+04
       190   5 -4.376811E+05  1.437478E+02 -1.064960E+03  5.053521E+04 -9.424934E+02 -2.653254E+04
       190   6 -4.377252E+05  1.692676E+02 -6.228706E+02  5.668003E+04 -4.209735E+02 -2.237696E+04
       190   7 -8.499045E+05 -9.615240E+04 -7.061836E+04  5.617126E+04  5.335295E+03 -3.053652E+04
       190   8 -7.944576E+05 -8.314537E+04 -6.047393E+04  5.008765E+04  6.107097E+03 -2.652399E+04
       190   9 -7.391527E+05 -7.020496E+04 -5.085676E+04  5.629422E+04  6.877735E+03 -2.236716E+04
       190  10 -2.540496E+04  9.633266E+04  6.688924E+04  5.718909E+04 -3.445748E-09  5.567939E-10
       190  11 -8.077887E+04  8.342549E+04  5.833888E+04  5.098281E+04  1.599011E-09  1.599471E-09
       190  12 -1.362080E+05  7.053824E+04  4.960739E+04  5.706586E+04  2.032672E-09 -1.148261E-09
       190  13 -4.377388E+05  9.405028E+01 -1.862858E+03  5.668010E+04  3.177846E-09 -3.342590E-09
       190  14 -4.376813E+05  1.429917E+02 -1.066284E+03  5.053519E+04  1.792286E-09  1.279622E-09
       190  15 -4.377254E+05  1.687299E+02 -6.238117E+02  5.668002E+04  1.604451E-09  2.363235E-09
       190  16 -8.499047E+05 -9.615341E+04 -7.062016E+04  5.617139E+04  4.519156E-09 -1.052429E-09
       190  17 -7.944579E+05 -8.314614E+04 -6.047532E+04  5.008778E+04  1.259303E-09  1.648945E-09
       190  18 -7.391529E+05 -7.020551E+04 -5.085779E+04  5.629434E+04 -4.963581E-09  4.617694E-10
       190  19 -2.540463E+04  9.633368E+04  6.689112E+04  5.718930E+04  8.270150E+03  3.055120E+04
       190  20 -8.077861E+04  8.342627E+04  5.834032E+04  5.098298E+04  7.996004E+03  2.654109E+04
       190  21 -1.362079E+05  7.053879E+04  4.960845E+04  5.706600E+04  7.723111E+03  2.238677E+04
       190  22 -4.377386E+05  9.505245E+01 -1.861101E+03  5.668013E+04  1.465243E+03  3.054386E+04
       190  23 -4.376811E+05  1.437478E+02 -1.064960E+03  5.053521E+04  9.424934E+02  2.653254E+04
       190  24 -4.377252E+05  1.692676E+02 -6.228706E+02  5.668003E+04  4.209735E+02  2.237696E+04
       190  25 -8.499045E+05 -9.615240E+04 -7.061836E+04  5.617126E+04 -5.335295E+03  3.053652E+04
       190  26 -7.944576E+05 -8.314537E+04 -6.047393E+04  5.008765E+04 -6.107097E+03  2.652399E+04
       190  27 -7.391527E+05 -7.020496E+04 -5.085676E+04  5.629422E+04 -6.877735E+03  2.236716E+04
       191   1 -1.721449E+05  6.210415E+04  4.352933E+04  5.701974E+04 -7.614216E+03 -1.992352E+04
       191   2 -2.275767E+05  4.917529E+04  3.459200E+04  5.079158E+04 -7.491172E+03 -1.569716E+04
       191   3 -2.830513E+05  3.628458E+04  2.557285E+04  5.687400E+04 -7.368789E+03 -1.145721E+04
       191   4 -4.377100E+05  1.699349E+02 -4.837145E+02  5.668473E+04 -3.244104E+02 -1.991330E+04
       191   5 -4.376807E+05  1.584798E+02 -3.074990E+02  5.052932E+04 -1.783147E+02 -1.568637E+04
       191   6 -4.377022E+05  1.810325E+02 -2.295378E+02  5.668472E+04 -3.286928E+01 -1.144585E+04
       191   7 -7.032053E+05 -6.176790E+04 -4.449867E+04  5.634984E+04  6.962381E+03 -1.990308E+04
       191   8 -6.477410E+05 -4.886060E+04 -3.520813E+04  5.026713E+04  7.132150E+03 -1.567559E+04
       191   9 -5.923294E+05 -3.592373E+04 -2.603246E+04  5.649549E+04  7.301283E+03 -1.143449E+04
       191  10 -1.721451E+05  6.210370E+04  4.352847E+04  5.701962E+04 -1.452168E-10 -1.904791E-09
       191  11 -2.275768E+05  4.917501E+04  3.459144E+04  5.079149E+04  3.055414E-10  3.112852E-09
       191  12 -2.830514E+05  3.628442E+04  2.557250E+04  5.687393E+04 -1.248360E-09  3.411961E-09
       191  13 -4.377101E+05  1.695091E+02 -4.844597E+02  5.668473E+04  7.569314E-10  2.347635E-10
       191  14 -4.376808E+05  1.582156E+02 -3.079614E+02  5.052932E+04  3.669901E-10  3.804151E-09
       191  15 -4.377023E+05  1.808918E+02 -2.297839E+02  5.668472E+04 -2.761847E-09  1.652650E-09
       191  16 -7.032054E+05 -6.176834E+04 -4.449951E+04  5.634995E+04  6.966410E-10  5.280291E-10
       191  17 -6.477411E+05 -4.886088E+04 -3.520869E+04  5.026722E+04 -9.907728E-10  1.239739E-09
       191  18 -5.923295E+05 -3.592389E+04 -2.603281E+04  5.649555E+04  1.158032E-09  8.104084E-10
       191  19 -1.721449E+05  6.210415E+04  4.352933E+04  5.701974E+04  7.614216E+03  1.992352E+04
       191  20 -2.275767E+05  4.917529E+04  3.459200E+04  5.079158E+04  7.491172E+03  1.569716E+04
       191  21 -2.830513E+05  3.628458E+04  2.557285E+04  5.687400E+04  7.368789E+03  1.145721E+04
       191  22 -4.377100E+05  1.699349E+02 -4.837145E+02  5.668473E+04  3.244104E+02  1.991330E+04
       191  23 -4.376807E+05  1.584798E+02 -3.074990E+02  5.052932E+04  1.783147E+02  1.568637E+04
       191  24 -4.377022E+05  1.810325E+02 -2.295378E+02  5.668472E+04  3.286928E+01  1.144585E+04
       191  25 -7.032053E+05 -6.176790E+04 -4.449867E+04  5.634984E+04 -6.962381E+03  1.990308E+04
       191  26 -6.477410E+05 -4.886060E+04 -3.520813E+04  5.026713E+04 -7.132150E+03  1.567559E+04
       191  27 -5.923294E+05 -3.592373E+04 -2.603246E+04  5.649549E+04 -7.301283E+03  1.143449E+04
       192   1 -3.190198E+05  2.784763E+04  1.936956E+04  5.682925E+04 -7.332195E+03 -8.984651E+03
       192   2 -3.744692E+05  1.491449E+04  1.023970E+04  5.059148E+04 -7.204131E+03 -4.740518E+03
       192   3 -4.299712E+05  2.014461E+03  1.021190E+03  5.667231E+04 -7.076256E+03 -5.030401E+02
       192   4 -4.377007E+05  1.833398E+02 -2.189856E+02  5.668647E+04  4.076026E+00 -8.973081E+03
       192   5 -4.376732E+05  1.701164E+02 -2.486313E+02  5.052713E+04  1.203759E+02 -4.728807E+03
       192   6 -4.376984E+05  1.923742E+02 -3.586283E+02  5.668646E+04  2.364978E+02 -4.911848E+02
       192   7 -5.563676E+05 -2.748165E+04 -1.980775E+04  5.654371E+04  7.338991E+03 -8.961513E+03
       192   8 -5.008732E+05 -1.457443E+04 -1.073688E+04  5.046278E+04  7.444162E+03 -4.717096E+03
       192   9 -4.454255E+05 -1.629687E+03 -1.738248E+03  5.670061E+04  7.549163E+03 -4.793290E+02
       192  10 -3.190199E+05  2.784753E+04  1.936931E+04  5.682920E+04  7.779400E-09  2.319888E-10
       192  11 -3.744693E+05  1.491445E+04  1.023956E+04  5.059145E+04 -1.744093E-09 -1.889348E-09
       192  12 -4.299712E+05  2.014447E+03  1.021096E+03  5.667231E+04 -5.335072E-09 -1.020343E-09
       192  13 -4.377008E+05  1.832533E+02 -2.191369E+02  5.668647E+04  1.557701E-09  4.420803E-09
       192  14 -4.376732E+05  1.700924E+02 -2.486734E+02  5.052713E+04 -7.025729E-09 -6.050331E-11
       192  15 -4.376984E+05  1.923739E+02 -3.586288E+02  5.668646E+04 -1.380796E-09 -2.858373E-10
       192  16 -5.563677E+05 -2.748175E+04 -1.980800E+04  5.654376E+04 -8.404722E-09  2.341449E-09
       192  17 -5.008732E+05 -1.457447E+04 -1.073702E+04  5.046281E+04 -1.099504E-09 -1.580170E-09
       192  18 -4.454256E+05 -1.629702E+03 -1.738356E+03  5.670061E+04  5.979688E-09 -6.032537E-10
       192  19 -3.190198E+05  2.784763E+04  1.936956E+04  5.682925E+04  7.332195E+03  8.984651E+03
       192  20 -3.744692E+05  1.491449E+04  1.023970E+04  5.059148E+04  7.204131E+03  4.740518E+03
       192  21 -4.299712E+05  2.014461E+03  1.021190E+03  5.667231E+04  7.076256E+03  5.030401E+02
       192  22 -4.377007E+05  1.833398E+02 -2.189856E+02  5.668647E+04 -4.076026E+00  8.973081E+03
       192  23 -4.376732E+05  1.701164E+02 -2.486313E+02  5.052713E+04 -1.203759E+02  4.728807E+03
       192  24 -4.376984E+05  1.923742E+02 -3.586283E+02  5.668646E+04 -2.364978E+02  4.911848E+02
       192  25 -5.563676E+05 -2.748165E+04 -1.980775E+04  5.654371E+04 -7.338991E+03  8.961513E+03
       192  26 -5.008732E+05 -1.457443E+04 -1.073688E+04  5.046278E+04 -7.444162E+03  4.717096E+03
       192  27 -4.454255E+05 -1.629687E+03 -1.738248E+03  5.670061E+04 -7.549163E+03  4.793290E+02
       193   1 -4.659563E+05 -6.425584E+03 -5.293212E+03  5.661489E+04 -7.015556E+03  1.966256E+03
       193   2 -5.213663E+05 -1.937085E+04 -1.474989E+04  5.037809E+04 -6.493786E+03  6.161989E+03
       193   3 -5.768948E+05 -3.234687E+04 -2.456745E+04  5.645367E+04 -5.971685E+03  1.026863E+04
       193   4 -4.377079E+05  1.953990E+02 -4.523349E+02  5.668502E+04  3.057626E+02  1.978110E+03
       193   5 -4.376621E+05  1.783241E+02 -7.562282E+02  5.052892E+04  6.734215E+02  6.173382E+03
       193   6 -4.377111E+05  1.573814E+02 -1.314009E+03  5.668509E+04  1.041457E+03  1.027957E+04
       193   7 -4.094587E+05  6.816368E+03  4.388717E+03  5.675515E+04  7.627404E+03  1.989965E+03
       193   8 -3.539509E+05  1.972716E+04  1.323741E+04  5.067976E+04  7.841564E+03  6.184777E+03
       193   9 -2.985082E+05  3.266065E+04  2.193902E+04  5.691654E+04  8.056120E+03  1.029052E+04
       193  10 -4.659563E+05 -6.425601E+03 -5.293312E+03  5.661490E+04 -7.870563E-10  2.402732E-09
       193  11 -5.213663E+05 -1.937090E+04 -1.475004E+04  5.037812E+04  1.571115E-09  1.926427E-09
       193  12 -5.768949E+05 -3.234699E+04 -2.456772E+04  5.645372E+04 -2.448103E-09  1.316186E-09
       193  13 -4.377079E+05  1.953947E+02 -4.523424E+02  5.668502E+04 -3.479869E-09  7.343965E-10
       193  14 -4.376621E+05  1.782831E+02 -7.563007E+02  5.052891E+04  6.633697E-10  1.655525E-09
       193  15 -4.377111E+05  1.572676E+02 -1.314210E+03  5.668508E+04  1.636781E-09  1.189620E-09
       193  16 -4.094587E+05  6.816348E+03  4.388600E+03  5.675514E+04 -5.080904E-10  1.893111E-09
       193  17 -3.539510E+05  1.972710E+04  1.323722E+04  5.067972E+04 -6.682553E-10 -3.621231E-09
       193  18 -2.985083E+05  3.266052E+04  2.193870E+04  5.691648E+04  3.667109E-10 -5.382040E-10
       193  19 -4.659563E+05 -6.425584E+03 -5.293212E+03  5.661489E+04  7.015556E+03 -1.966256E+03
       193  20 -5.213663E+05 -1.937085E+04 -1.474989E+04  5.037809E+04  6.493786E+03 -6.161989E+03
       193  21 -5.768948E+05 -3.234687E+04 -2.456745E+04  5.645367E+04  5.971685E+03 -1.026863E+04
       193  22 -4.377079E+05  1.953990E+02 -4.523349E+02  5.668502E+04 -3.057626E+02 -1.978110E+03
       193  23 -4.376621E+05  1.783241E+02 -7.562282E+02  5.052892E+04 -6.734215E+02 -6.173382E+03
       193  24 -4.377111E+05  1.573814E+02 -1.314009E+03  5.668509E+04 -1.041457E+03 -1.027957E+04
       193  25 -4.094587E+05  6.816368E+03  4.388717E+03  5.675515E+04 -7.627404E+03 -1.989965E+03
       193  26 -3.539509E+05  1.972716E+04  1.323741E+04  5.067976E+04 -7.841564E+03 -6.184777E+03
       193  27 -2.985082E+05  3.266065E+04  2.193902E+04  5.691654E+04 -8.056120E+03 -1.029052E+04
       194   1 -6.129728E+05 -4.079042E+04 -3.126910E+04  5.628099E+04 -5.806184E+03  1.268569E+04
       194   2 -6.680613E+05 -5.403045E+04 -4.231428E+04  5.043447E+04 -2.639425E+03  1.632686E+04
       194   3 -7.238536E+05 -6.829469E+04 -5.568969E+04  5.683185E+04  5.289342E+02  1.900628E+04
       194   4 -4.377853E+05  1.777628E+02 -1.727171E+03  5.666956E+04  1.302764E+03  1.269655E+04
       194   5 -4.375804E+05 -4.792582E+01 -3.029411E+03  5.054866E+04  2.809281E+03  1.633463E+04
       194   6 -4.377944E+05 -1.009218E+03 -5.508002E+03  5.667139E+04  4.317695E+03  1.901115E+04
       194   7 -2.625675E+05  4.114435E+04  2.781398E+04  5.705824E+04  8.413654E+03  1.270742E+04
       194   8 -2.070471E+05  5.393179E+04  3.625382E+04  5.066286E+04  8.259947E+03  1.634241E+04
       194   9 -1.516549E+05  6.627179E+04  4.467080E+04  5.651082E+04  8.108150E+03  1.901602E+04
       194  10 -6.129729E+05 -4.079060E+04 -3.126947E+04  5.628105E+04 -8.076225E-09  3.242337E-09
       194  11 -6.680614E+05 -5.403074E+04 -4.231480E+04  5.043451E+04  1.277560E-08 -2.205274E-10
       194  12 -7.238537E+05 -6.829508E+04 -5.569037E+04  5.683184E+04  2.757066E-08  2.464404E-09
       194  13 -4.377854E+05  1.775892E+02 -1.727477E+03  5.666955E+04  1.864116E-09  1.901182E-09
       194  14 -4.375805E+05 -4.821440E+01 -3.029927E+03  5.054862E+04 -1.470753E-09  9.678549E-10
       194  15 -4.377945E+05 -1.009611E+03 -5.508716E+03  5.667132E+04  2.253039E-09  1.233989E-09
       194  16 -2.625676E+05  4.114416E+04  2.781354E+04  5.705815E+04  6.361704E-09  1.367797E-09
       194  17 -2.070472E+05  5.393148E+04  3.625319E+04  5.066275E+04 -1.012023E-08 -1.200650E-10
       194  18 -1.516551E+05  6.627139E+04  4.466999E+04  5.651070E+04 -2.507090E-08 -1.845073E-09
       194  19 -6.129728E+05 -4.079042E+04 -3.126910E+04  5.628099E+04  5.806184E+03 -1.268569E+04
       194  20 -6.680613E+05 -5.403045E+04 -4.231428E+04  5.043447E+04  2.639425E+03 -1.632686E+04
       194  21 -7.238536E+05 -6.829469E+04 -5.568969E+04  5.683185E+04 -5.289342E+02 -1.900628E+04
       194  22 -4.377853E+05  1.777628E+02 -1.727171E+03  5.666956E+04 -1.302764E+03 -1.269655E+04
       194  23 -4.375804E+05 -4.792582E+01 -3.029411E+03  5.054866E+04 -2.809281E+03 -1.633463E+04
       194  24 -4.377944E+05 -1.009218E+03 -5.508002E+03  5.667139E+04 -4.317695E+03 -1.901115E+04
       194  25 -2.625675E+05  4.114435E+04  2.781398E+04  5.705824E+04 -8.413654E+03 -1.270742E+04
       194  26 -2.070471E+05  5.393179E+04  3.625382E+04  5.066286E+04 -8.259947E+03 -1.634241E+04
       194  27 -1.516549E+05  6.627179E+04  4.467080E+04  5.651082E+04 -8.108150E+03 -1.901602E+04
       195   1 -7.611946E+05 -7.674357E+04 -6.446448E+04  5.488966E+04  4.187838E+02  2.085904E+04
       195   2 -8.129084E+05 -9.554692E+04 -8.659686E+04  5.742584E+04  2.517460E+04  1.849804E+04
       195   3 -8.721571E+05 -1.314912E+05 -1.291475E+05  7.151707E+04  4.994051E+04  5.741132E+03
       195   4 -4.386863E+05 -7.483840E+02 -7.245765E+03  5.651424E+04  5.256557E+03  2.086515E+04
       195   5 -4.364879E+05 -5.551504E+03 -1.319922E+04  5.075291E+04  1.207000E+04  1.847865E+04
       195   6 -4.387048E+05 -2.437235E+04 -2.709764E+04  5.654709E+04  1.889591E+04  5.698458E+03
       195   7 -1.160761E+05  7.524109E+04  4.996917E+04  5.813966E+04  1.009677E+04  2.087128E+04
       195   8 -5.993084E+04  8.443567E+04  6.019234E+04  4.407580E+04 -1.042384E+03  1.845954E+04
       195   9 -5.076833E+03  8.273445E+04  7.494306E+04  4.156653E+04 -1.217026E+04  5.657300E+03
       195  10 -7.611947E+05 -7.674404E+04 -6.446530E+04  5.488965E+04 -2.496701E-08  3.941400E-09
       195  11 -8.129092E+05 -9.554745E+04 -8.659869E+04  5.742546E+04 -7.512975E-09  2.554185E-09
       195  12 -8.721598E+05 -1.314919E+05 -1.291523E+05  7.151684E+04  6.747587E-09  6.930484E-12
       195  13 -4.386864E+05 -7.488588E+02 -7.246635E+03  5.651416E+04  4.357022E-10  4.869204E-09
       195  14 -4.364882E+05 -5.551910E+03 -1.320013E+04  5.075274E+04 -1.113504E-09 -2.638333E-10
       195  15 -4.387052E+05 -2.437248E+04 -2.709838E+04  5.654701E+04  8.783896E-10  1.877533E-09
       195  16 -1.160764E+05  7.524059E+04  4.996816E+04  5.813949E+04  2.686481E-08  1.848497E-09
       195  17 -5.993093E+04  8.443530E+04  6.019170E+04  4.407582E+04  9.428280E-09  9.390983E-10
       195  18 -5.077001E+03  8.273438E+04  7.494272E+04  4.156659E+04 -7.789442E-09  7.301544E-10
       195  19 -7.611946E+05 -7.674357E+04 -6.446448E+04  5.488966E+04 -4.187838E+02 -2.085904E+04
       195  20 -8.129084E+05 -9.554692E+04 -8.659686E+04  5.742584E+04 -2.517460E+04 -1.849804E+04
       195  21 -8.721571E+05 -1.314912E+05 -1.291475E+05  7.151707E+04 -4.994051E+04 -5.741132E+03
       195  22 -4.386863E+05 -7.483840E+02 -7.245765E+03  5.651424E+04 -5.256557E+03 -2.086515E+04
       195  23 -4.364879E+05 -5.551504E+03 -1.319922E+04  5.075291E+04 -1.207000E+04 -1.847865E+04
       195  24 -4.387048E+05 -2.437235E+04 -2.709764E+04  5.654709E+04 -1.889591E+04 -5.698458E+03
       195  25 -1.160761E+05  7.524109E+04  4.996917E+04  5.813966E+04 -1.009677E+04 -2.087128E+04
       195  26 -5.993084E+04  8.443567E+04  6.019234E+04  4.407580E+04  1.042384E+03 -1.845954E+04
       195  27 -5.076833E+03  8.273445E+04  7.494306E+04  4.156653E+04  1.217026E+04 -5.657300E+03
       196   1 -8.466403E+04  7.714475E+04  6.456105E+04  2.679635E+03 -2.234295E+04 -6.320044E+03
       196   2 -1.178385E+05  1.134862E+05  7.821813E+04  7.557235E+03 -1.929487E+04 -1.968653E+04
       196   3 -1.626312E+05  1.048108E+05  7.865635E+04  2.992142E+04 -1.626359E+04 -2.026223E+04
       196   4 -5.802534E+05 -4.606414E+04 -5.602495E+04  2.269066E+04 -3.844904E+04 -6.342098E+03
       196   5 -5.735212E+05  1.636833E+03 -2.529684E+04  1.391242E+04 -2.497306E+04 -1.969609E+04
       196   6 -5.802300E+05  2.490939E+03 -1.504140E+04  2.262203E+04 -1.151342E+04 -2.025522E+04
       196   7 -1.075617E+06 -1.692895E+05 -1.766276E+05  4.268559E+04 -5.454229E+04 -6.365200E+03
       196   8 -1.029011E+06 -1.102268E+05 -1.288251E+05  2.026282E+04 -3.064711E+04 -1.970577E+04
       196   9 -9.976662E+05 -9.984061E+04 -1.087501E+05  1.532753E+04 -6.766408E+03 -2.024832E+04
       196  10 -8.466457E+04  7.714458E+04  6.456004E+04  2.679521E+03 -5.075195E-11  4.470281E-10
       196  11 -1.178390E+05  1.134857E+05  7.821670E+04  7.556930E+03  3.707019E-09  2.560412E-09
       196  12 -1.626315E+05  1.048103E+05  7.865508E+04  2.992115E+04  4.449593E-09 -1.177284E-09
       196  13 -5.802550E+05 -4.606459E+04 -5.602780E+04  2.269047E+04 -6.683973E-10 -1.907981E-09
       196  14 -5.735220E+05  1.636248E+03 -2.529874E+04  1.391202E+04 -1.975771E-10 -2.222366E-09
       196  15 -5.802302E+05  2.490463E+03 -1.504242E+04  2.262184E+04 -9.338125E-11  3.747998E-09
       196  16 -1.075620E+06 -1.692903E+05 -1.766332E+05  4.268531E+04  1.109338E-09  6.758472E-10
       196  17 -1.029012E+06 -1.102274E+05 -1.288276E+05  2.026233E+04 -1.554070E-09  4.053784E-09
       196  18 -9.976663E+05 -9.984106E+04 -1.087510E+05  1.532742E+04 -4.629475E-09 -1.774070E-09
       196  19 -8.466403E+04  7.714475E+04  6.456105E+04  2.679635E+03  2.234295E+04  6.320044E+03
       196  20 -1.178385E+05  1.134862E+05  7.821813E+04  7.557235E+03  1.929487E+04  1.968653E+04
       196  21 -1.626312E+05  1.048108E+05  7.865635E+04  2.992142E+04  1.626359E+04  2.026223E+04
       196  22 -5.802534E+05 -4.606414E+04 -5.602495E+04  2.269066E+04  3.844904E+04  6.342098E+03
       196  23 -5.735212E+05  1.636833E+03 -2.529684E+04  1.391242E+04  2.497306E+04  1.969609E+04
       196  24 -5.802300E+05  2.490939E+03 -1.504140E+04  2.262203E+04  1.151342E+04  2.025522E+04
       196  25 -1.075617E+06 -1.692895E+05 -1.766276E+05  4.268559E+04  5.454229E+04  6.365200E+03
       196  26 -1.029011E+06 -1.102268E+05 -1.288251E+05  2.026282E+04  3.064711E+04  1.970577E+04
       196  27 -9.976662E+05 -9.984061E+04 -1.087501E+05  1.532753E+04  6.766408E+03  2.024832E+04
       197   1 -1.943280E+05  9.105763E+04  7.439022E+04  2.226357E+04 -1.023458E+04 -1.772637E+04
       197   2 -2.330293E+05  8.446310E+04  7.088071E+04  1.394064E+04 -7.465377E+03 -1.633979E+04
       197   3 -2.728566E+05  7.492353E+04  6.482545E+04  2.377217E+04 -4.698342E+03 -1.436496E+04
       197   4 -5.775085E+05 -2.892348E+03 -1.203674E+04  2.279279E+04 -9.343354E+03 -1.772562E+04
       197   5 -5.768979E+05  1.930731E+02 -6.451155E+03  1.371236E+04 -6.096075E+03 -1.633791E+04
       197   6 -5.774992E+05  2.492782E+02 -3.744855E+03  2.278708E+04 -2.850799E+03 -1.436178E+04
       197   7 -9.605524E+05 -9.685240E+04 -9.847309E+04  2.332163E+04 -8.452671E+03 -1.772487E+04
       197   8 -9.206564E+05 -8.408505E+04 -8.379054E+04  1.348416E+04 -4.727523E+03 -1.633602E+04
       197   9 -8.820554E+05 -7.443133E+04 -7.232106E+04  2.180243E+04 -1.004154E+03 -1.435862E+04
       197  10 -1.943282E+05  9.105726E+04  7.438943E+04  2.226342E+04 -2.249910E-09 -3.938013E-09
       197  11 -2.330294E+05  8.446280E+04  7.088011E+04  1.394054E+04  1.932908E-09 -8.931214E-10
       197  12 -2.728567E+05  7.492331E+04  6.482502E+04  2.377212E+04  6.407911E-09  3.175258E-09
       197  13 -5.775087E+05 -2.892709E+03 -1.203750E+04  2.279266E+04  1.740125E-09  8.331909E-09
       197  14 -5.768980E+05  1.927766E+02 -6.451726E+03  1.371228E+04  1.408506E-10 -7.220649E-09
       197  15 -5.774993E+05  2.490545E+02 -3.745258E+03  2.278704E+04 -4.519523E-09  1.054630E-08
       197  16 -9.605526E+05 -9.685276E+04 -9.847382E+04  2.332151E+04  4.087636E-09 -5.422469E-09
       197  17 -9.206565E+05 -8.408535E+04 -8.379109E+04  1.348410E+04 -4.060600E-09 -3.917180E-09
       197  18 -8.820555E+05 -7.443156E+04 -7.232145E+04  2.180241E+04 -8.891018E-09  1.629585E-10
       197  19 -1.943280E+05  9.105763E+04  7.439022E+04  2.226357E+04  1.023458E+04  1.772637E+04
       197  20 -2.330293E+05  8.446310E+04  7.088071E+04  1.394064E+04  7.465377E+03  1.633979E+04
       197  21 -2.728566E+05  7.492353E+04  6.482545E+04  2.377217E+04  4.698342E+03  1.436496E+04
       197  22 -5.775085E+05 -2.892348E+03 -1.203674E+04  2.279279E+04  9.343354E+03  1.772562E+04
       197  23 -5.768979E+05  1.930731E+02 -6.451155E+03  1.371236E+04  6.096075E+03  1.633791E+04
       197  24 -5.774992E+05  2.492782E+02 -3.744855E+03  2.278708E+04  2.850799E+03  1.436178E+04
       197  25 -9.605524E+05 -9.685240E+04 -9.847309E+04  2.332163E+04  8.452671E+03  1.772487E+04
       197  26 -9.206564E+05 -8.408505E+04 -8.379054E+04  1.348416E+04  4.727523E+03  1.633602E+04
       197  27 -8.820554E+05 -7.443133E+04 -7.232106E+04  2.180243E+04  1.004154E+03  1.435862E+04
       198   1 -3.071600E+05  6.608158E+04  5.772460E+04  2.325393E+04 -3.945867E+03 -1.308350E+04
       198   2 -3.466249E+05  5.657071E+04  5.016139E+04  1.406309E+04 -3.152842E+03 -1.101238E+04
       198   3 -3.862963E+05  4.693609E+04  4.203386E+04  2.319860E+04 -2.360602E+03 -8.910208E+03
       198   4 -5.772724E+05 -9.094185E+01 -2.890106E+03  2.282706E+04 -2.269802E+03 -1.308048E+04
       198   5 -5.771637E+05  7.504241E+01 -1.656030E+03  1.366346E+04 -1.451812E+03 -1.100905E+04
       198   6 -5.772669E+05  1.131065E+02 -1.003612E+03  2.282663E+04 -6.345554E+02 -8.906569E+03
       198   7 -8.473168E+05 -6.626845E+04 -6.350943E+04  2.240033E+04 -5.944588E+02 -1.307745E+04
       198   8 -8.076531E+05 -5.642426E+04 -5.347682E+04  1.326395E+04  2.485938E+02 -1.100572E+04
       198   9 -7.682036E+05 -4.671238E+04 -4.404341E+04  2.245475E+04  1.090965E+03 -8.902931E+03
       198  10 -3.071600E+05  6.608139E+04  5.772425E+04  2.325389E+04 -3.202377E-09 -3.590997E-09
       198  11 -3.466249E+05  5.657058E+04  5.016114E+04  1.406306E+04 -1.013090E-08 -3.077688E-09
       198  12 -3.862963E+05  4.693600E+04  4.203370E+04  2.319858E+04 -4.101838E-09 -1.301953E-09
       198  13 -5.772724E+05 -9.112692E+01 -2.890438E+03  2.282703E+04 -2.148156E-09  3.031528E-09
       198  14 -5.771638E+05  7.491173E+01 -1.656262E+03  1.366344E+04 -2.444319E-09 -2.579245E-09
       198  15 -5.772670E+05  1.130213E+02 -1.003762E+03  2.282662E+04  2.574390E-10 -4.381330E-10
       198  16 -8.473169E+05 -6.626863E+04 -6.350975E+04  2.240033E+04  3.635492E-09 -5.453222E-09
       198  17 -8.076531E+05 -5.642439E+04 -5.347705E+04  1.326395E+04  7.543319E-09  7.055559E-10
       198  18 -7.682037E+05 -4.671246E+04 -4.404356E+04  2.245476E+04  6.426841E-09  6.437504E-09
       198  19 -3.071600E+05  6.608158E+04  5.772460E+04  2.325393E+04  3.945867E+03  1.308350E+04
       198  20 -3.466249E+05  5.657071E+04  5.016139E+04  1.406309E+04  3.152842E+03  1.101238E+04
       198  21 -3.862963E+05  4.693609E+04  4.203386E+04  2.319860E+04  2.360602E+03  8.910208E+03
       198  22 -5.772724E+05 -9.094185E+01 -2.890106E+03  2.282706E+04  2.269802E+03  1.308048E+04
       198  23 -5.771637E+05  7.504241E+01 -1.656030E+03  1.366346E+04  1.451812E+03  1.100905E+04
       198  24 -5.772669E+05  1.131065E+02 -1.003612E+03  2.282663E+04  6.345554E+02  8.906569E+03
       198  25 -8.473168E+05 -6.626845E+04 -6.350943E+04  2.240033E+04  5.944588E+02  1.307745E+04
       198  26 -8.076531E+05 -5.642426E+04 -5.347682E+04  1.326395E+04 -2.485938E+02  1.100572E+04
       198  27 -7.682036E+05 -4.671238E+04 -4.404341E+04  2.245475E+04 -1.090965E+03  8.902931E+03
       199   1 -4.210122E+05  3.835897E+04  3.419420E+04  2.312800E+04 -2.194809E+03 -7.679051E+03
       199   2 -4.607103E+05  2.861437E+04  2.559563E+04  1.384646E+04 -1.913329E+03 -5.567013E+03
       199   3 -5.005253E+05  1.893692E+04  1.680781E+04  2.297882E+04 -1.632222E+03 -3.451502E+03
       199   4 -5.772435E+05  9.416272E+01 -8.084819E+02  2.284618E+04 -4.741461E+02 -7.675302E+03
       199   5 -5.771826E+05  6.995077E+01 -5.842101E+02  1.363910E+04 -1.899425E+02 -5.563132E+03
       199   6 -5.772408E+05  1.125081E+02 -5.510559E+02  2.284614E+04  9.390498E+01 -3.447483E+03
       199   7 -7.334519E+05 -3.817231E+04 -3.581269E+04  2.256441E+04  1.246088E+03 -7.671554E+03
       199   8 -6.936424E+05 -2.847539E+04 -2.676490E+04  1.343177E+04  1.533123E+03 -5.559252E+03
       199   9 -6.539508E+05 -1.871231E+04 -1.791029E+04  2.271347E+04  1.819820E+03 -3.443464E+03
       199  10 -4.210122E+05  3.835890E+04  3.419408E+04  2.312798E+04  1.886163E-09 -5.245049E-09
       199  11 -4.607103E+05  2.861433E+04  2.559556E+04  1.384645E+04 -1.945900E-09 -8.689056E-10
       199  12 -5.005254E+05  1.893691E+04  1.680778E+04  2.297882E+04 -3.234497E-09 -6.079661E-10
       199  13 -5.772435E+05  9.409941E+01 -8.085930E+02  2.284617E+04 -2.012345E-11  1.501083E-09
       199  14 -5.771826E+05  6.991753E+01 -5.842683E+02  1.363910E+04  2.108332E-09 -6.419234E-09
       199  15 -5.772408E+05  1.124954E+02 -5.510782E+02  2.284614E+04  2.705884E-09 -3.083417E-09
       199  16 -7.334520E+05 -3.817237E+04 -3.581281E+04  2.256442E+04 -1.279104E-09  3.653797E-09
       199  17 -6.936424E+05 -2.847543E+04 -2.676496E+04  1.343178E+04  3.267367E-09  5.669562E-09
       199  18 -6.539508E+05 -1.871233E+04 -1.791032E+04  2.271347E+04  4.816170E-09  4.309653E-09
       199  19 -4.210122E+05  3.835897E+04  3.419420E+04  2.312800E+04  2.194809E+03  7.679051E+03
       199  20 -4.607103E+05  2.861437E+04  2.559563E+04  1.384646E+04  1.913329E+03  5.567013E+03
       199  21 -5.005253E+05  1.893692E+04  1.680781E+04  2.297882E+04  1.632222E+03  3.451502E+03
       199  22 -5.772435E+05  9.416272E+01 -8.084819E+02  2.284618E+04  4.741461E+02  7.675302E+03
       199  23 -5.771826E+05  6.995077E+01 -5.842101E+02  1.363910E+04  1.899425E+02  5.563132E+03
       199  24 -5.772408E+05  1.125081E+02 -5.510559E+02  2.284614E+04 -9.390498E+01  3.447483E+03
       199  25 -7.334519E+05 -3.817231E+04 -3.581269E+04  2.256441E+04 -1.246088E+03  7.671554E+03
       199  26 -6.936424E+05 -2.847539E+04 -2.676490E+04  1.343177E+04 -1.533123E+03  5.559252E+03
       199  27 -6.539508E+05 -1.871231E+04 -1.791029E+04  2.271347E+04 -1.819820E+03  3.443464E+03
       200   1 -5.353775E+05  1.035131E+04  8.697874E+03  2.291662E+04 -1.531860E+03 -2.218924E+03
       200   2 -5.751239E+05  5.797751E+02 -3.793494E+02  1.361084E+04 -1.120819E+03 -1.006397E+02
       200   3 -6.150150E+05 -9.134868E+03 -9.734807E+03  2.274920E+04 -7.098146E+02  2.016831E+03
       200   4 -5.772460E+05  1.129208E+02 -5.988909E+02  2.285281E+04  1.950570E+02 -2.214861E+03
       200   5 -5.771727E+05  7.779431E+01 -8.397828E+02  1.363076E+04  6.053701E+02 -9.657936E+01
       200   6 -5.772461E+05  9.963513E+01 -1.358489E+03  2.285284E+04  1.015673E+03  2.020895E+03
       200   7 -6.191128E+05 -1.012558E+04 -9.895754E+03  2.278899E+04  1.921859E+03 -2.210799E+03
       200   8 -5.792215E+05 -4.241852E+02 -1.300205E+03  1.365067E+04  2.331553E+03 -9.251890E+01
       200   9 -5.394758E+05  9.334044E+03  7.017751E+03  2.295649E+04  2.741264E+03  2.024960E+03
       200  10 -5.353775E+05  1.035130E+04  8.697861E+03  2.291662E+04  8.576193E-09  1.456479E-09
       200  11 -5.751239E+05  5.797748E+02 -3.793518E+02  1.361084E+04 -1.050373E-09 -9.595444E-10
       200  12 -6.150150E+05 -9.134873E+03 -9.734815E+03  2.274920E+04 -1.169634E-08 -1.536807E-09
       200  13 -5.772460E+05  1.129156E+02 -5.989002E+02  2.285281E+04  2.828910E-09  5.127949E-09
       200  14 -5.771727E+05  7.779420E+01 -8.397835E+02  1.363076E+04  3.333021E-09 -1.220129E-09
       200  15 -5.772461E+05  9.963047E+01 -1.358499E+03  2.285284E+04 -7.980188E-10 -1.641345E-09
       200  16 -6.191128E+05 -1.012559E+04 -9.895770E+03  2.278899E+04 -5.796181E-09  3.355030E-09
       200  17 -5.792215E+05 -4.241867E+02 -1.300216E+03  1.365067E+04  4.228094E-09 -9.049029E-09
       200  18 -5.394758E+05  9.334037E+03  7.017729E+03  2.295648E+04  9.407455E-09 -4.889225E-09
       200  19 -5.353775E+05  1.035131E+04  8.697874E+03  2.291662E+04  1.531860E+03  2.218924E+03
       200  20 -5.751239E+05  5.797751E+02 -3.793494E+02  1.361084E+04  1.120819E+03  1.006397E+02
       200  21 -6.150150E+05 -9.134868E+03 -9.734807E+03  2.274920E+04  7.098146E+02 -2.016831E+03
       200  22 -5.772460E+05  1.129208E+02 -5.988909E+02  2.285281E+04 -1.950570E+02  2.214861E+03
       200  23 -5.771727E+05  7.779431E+01 -8.397828E+02  1.363076E+04 -6.053701E+02  9.657936E+01
       200  24 -5.772461E+05  9.963513E+01 -1.358489E+03  2.285284E+04 -1.015673E+03 -2.020895E+03
       200  25 -6.191128E+05 -1.012558E+04 -9.895754E+03  2.278899E+04 -1.921859E+03  2.210799E+03
       200  26 -5.792215E+05 -4.241852E+02 -1.300205E+03  1.365067E+04 -2.331553E+03  9.251890E+01
       200  27 -5.394758E+05  9.334044E+03  7.017751E+03  2.295649E+04 -2.741264E+03 -2.024960E+03
       201   1 -6.499112E+05 -1.768690E+04 -1.819378E+04  2.261631E+04 -4.377550E+02  3.251857E+03
       201   2 -6.894821E+05 -2.743360E+04 -2.826583E+04  1.338275E+04  1.066363E+03  5.366674E+03
       201   3 -7.294233E+05 -3.748381E+04 -3.941701E+04  2.256387E+04  2.570792E+03  7.458776E+03
       201   4 -5.772962E+05  1.347262E+02 -1.755386E+03  2.284599E+04  1.293039E+03  3.255895E+03
       201   5 -5.771137E+05  1.094932E+02 -3.003206E+03  1.363915E+04  2.778850E+03  5.370541E+03
       201   6 -5.772993E+05 -2.157384E+02 -5.317014E+03  2.284680E+04  4.265065E+03  7.462482E+03
       201   7 -5.046762E+05  1.795599E+04  1.468268E+04  2.307569E+04  3.024034E+03  3.259934E+03
       201   8 -4.647336E+05  2.765172E+04  2.225863E+04  1.389560E+04  4.491644E+03  5.374410E+03
       201   9 -4.251536E+05  3.705075E+04  2.878152E+04  2.312979E+04  5.959750E+03  7.466189E+03
       201  10 -6.499112E+05 -1.768691E+04 -1.819380E+04  2.261631E+04 -4.203492E-09  1.513807E-09
       201  11 -6.894821E+05 -2.743363E+04 -2.826589E+04  1.338274E+04 -2.715744E-09 -6.956878E-09
       201  12 -7.294234E+05 -3.748387E+04 -3.941712E+04  2.256385E+04  4.824575E-11 -2.205013E-09
       201  13 -5.772962E+05  1.347144E+02 -1.755409E+03  2.284598E+04 -1.075222E-09  4.307533E-10
       201  14 -5.771138E+05  1.094602E+02 -3.003275E+03  1.363914E+04  1.146804E-09 -8.137825E-10
       201  15 -5.772993E+05 -2.158030E+02 -5.317152E+03  2.284677E+04  1.062438E-09  8.192311E-10
       201  16 -5.046762E+05  1.795598E+04  1.468264E+04  2.307568E+04  5.159965E-09  4.211323E-09
       201  17 -4.647337E+05  2.765169E+04  2.225854E+04  1.389558E+04  1.869762E-09 -4.634195E-09
       201  18 -4.251537E+05  3.705068E+04  2.878135E+04  2.312975E+04  1.835053E-09  5.139334E-09
       201  19 -6.499112E+05 -1.768690E+04 -1.819378E+04  2.261631E+04  4.377550E+02 -3.251857E+03
       201  20 -6.894821E+05 -2.743360E+04 -2.826583E+04  1.338275E+04 -1.066363E+03 -5.366674E+03
       201  21 -7.294233E+05 -3.748381E+04 -3.941701E+04  2.256387E+04 -2.570792E+03 -7.458776E+03
       201  22 -5.772962E+05  1.347262E+02 -1.755386E+03  2.284599E+04 -1.293039E+03 -3.255895E+03
       201  23 -5.771137E+05  1.094932E+02 -3.003206E+03  1.363915E+04 -2.778850E+03 -5.370541E+03
       201  24 -5.772993E+05 -2.157384E+02 -5.317014E+03  2.284680E+04 -4.265065E+03 -7.462482E+03
       201  25 -5.046762E+05  1.795599E+04  1.468268E+04  2.307569E+04 -3.024034E+03 -3.259934E+03
       201  26 -4.647336E+05  2.765172E+04  2.225863E+04  1.389560E+04 -4.491644E+03 -5.374410E+03
       201  27 -4.251536E+05  3.705075E+04  2.878152E+04  2.312979E+04 -5.959750E+03 -7.466189E+03
       202   1 -7.645873E+05 -4.541484E+04 -4.902630E+04  2.152751E+04  3.509661E+03  8.735662E+03
       202   2 -8.029973E+05 -5.514690E+04 -6.286200E+04  1.376428E+04  9.879697E+03  1.076288E+04
       202   3 -8.437448E+05 -7.061167E+04 -8.229945E+04  2.431978E+04  1.625086E+04  1.233517E+04
       202   4 -5.777253E+05  4.150891E+02 -6.910566E+03  2.282155E+04  5.337430E+03  8.739552E+03
       202   5 -5.765926E+05  3.557350E+02 -1.192304E+04  1.366847E+04  1.133855E+04  1.076571E+04
       202   6 -5.777336E+05 -5.370798E+03 -2.227920E+04  2.283379E+04  1.734119E+04  1.233699E+04
       202   7 -3.908308E+05  4.624263E+04  3.520295E+04  2.411598E+04  7.165745E+03  8.743449E+03
       202   8 -3.501402E+05  5.585486E+04  3.901267E+04  1.357259E+04  1.279792E+04  1.076854E+04
       202   9 -3.116564E+05  5.986522E+04  3.773653E+04  2.134711E+04  1.843198E+04  1.233880E+04
       202  10 -7.645874E+05 -4.541493E+04 -4.902646E+04  2.152748E+04  4.637408E-09  4.572768E-10
       202  11 -8.029975E+05 -5.514705E+04 -6.286240E+04  1.376420E+04 -2.473995E-09  3.136804E-09
       202  12 -8.437451E+05 -7.061190E+04 -8.230023E+04  2.431962E+04 -2.988225E-09 -3.976757E-10
       202  13 -5.777254E+05  4.149994E+02 -6.910763E+03  2.282152E+04 -6.746970E-10 -6.276589E-09
       202  14 -5.765928E+05  3.555761E+02 -1.192350E+04  1.366837E+04 -2.212695E-09  3.738510E-09
       202  15 -5.777339E+05 -5.371043E+03 -2.228005E+04  2.283361E+04  7.000489E-10 -7.015626E-10
       202  16 -3.908309E+05  4.624254E+04  3.520270E+04  2.411593E+04 -3.260524E-09 -2.779098E-10
       202  17 -3.501404E+05  5.585469E+04  3.901214E+04  1.357248E+04 -8.201563E-10 -5.817526E-09
       202  18 -3.116568E+05  5.986497E+04  3.773561E+04  2.134693E+04  4.244549E-09  8.249805E-10
       202  19 -7.645873E+05 -4.541484E+04 -4.902630E+04  2.152751E+04 -3.509661E+03 -8.735662E+03
       202  20 -8.029973E+05 -5.514690E+04 -6.286200E+04  1.376428E+04 -9.879697E+03 -1.076288E+04
       202  21 -8.437448E+05 -7.061167E+04 -8.229945E+04  2.431978E+04 -1.625086E+04 -1.233517E+04
       202  22 -5.777253E+05  4.150891E+02 -6.910566E+03  2.282155E+04 -5.337430E+03 -8.739552E+03
       202  23 -5.765926E+05  3.557350E+02 -1.192304E+04  1.366847E+04 -1.133855E+04 -1.076571E+04
       202  24 -5.777336E+05 -5.370798E+03 -2.227920E+04  2.283379E+04 -1.734119E+04 -1.233699E+04
       202  25 -3.908308E+05  4.624263E+04  3.520295E+04  2.411598E+04 -7.165745E+03 -8.743449E+03
       202  26 -3.501402E+05  5.585486E+04  3.901267E+04  1.357259E+04 -1.279792E+04 -1.076854E+04
       202  27 -3.116564E+05  5.986522E+04  3.773653E+04  2.134711E+04 -1.843198E+04 -1.233880E+04
       203   1 -8.834453E+05 -6.914255E+04 -9.536352E+04  9.675017E+03  1.728464E+04  1.457752E+04
       203   2 -9.097044E+05 -8.025005E+04 -1.239834E+05  2.604160E+04  5.026091E+04  1.468192E+04
       203   3 -9.623685E+05 -1.796180E+05 -1.961651E+05  6.028942E+04  8.325140E+04  4.878653E+03
       203   4 -5.827818E+05  4.603960E+03 -2.784727E+04  2.268469E+04  2.136213E+04  1.458551E+04
       203   5 -5.703021E+05  3.063861E+03 -4.682100E+04  1.382488E+04  4.627306E+04  1.467290E+04
       203   6 -5.828140E+05 -8.531131E+04 -1.037364E+05  2.284835E+04  7.120088E+04  4.852356E+03
       203   7 -2.820337E+05  7.834492E+04  3.966339E+04  3.570069E+04  2.544157E+04  1.459366E+04
       203   8 -2.307924E+05  8.637039E+04  3.033410E+04  1.601361E+03  4.228304E+04  1.466404E+04
       203   9 -2.031245E+05  8.990176E+03 -1.131694E+04 -1.461576E+04  5.914298E+04  4.827523E+03
       203  10 -8.834456E+05 -6.914286E+04 -9.536448E+04  9.674814E+03  1.243423E-09 -9.090564E-10
       203  11 -9.097071E+05 -8.025096E+04 -1.239886E+05  2.604101E+04  1.933160E-09 -7.914211E-10
       203  12 -9.623759E+05 -1.796199E+05 -1.961782E+05  6.028909E+04  2.859888E-09  5.397960E-09
       203  13 -5.827823E+05  4.603609E+03 -2.784853E+04  2.268444E+04 -1.080121E-09  2.853744E-09
       203  14 -5.703045E+05  3.063054E+03 -4.682544E+04  1.382433E+04  1.025773E-09  1.338440E-09
       203  15 -5.828194E+05 -8.531269E+04 -1.037460E+05  2.284807E+04  1.463634E-09  2.281789E-09
       203  16 -2.820344E+05  7.834451E+04  3.966177E+04  3.570039E+04 -6.514413E-10  2.474078E-09
       203  17 -2.307944E+05  8.636968E+04  3.033033E+04  1.600862E+03 -3.115068E-09  7.154936E-09
       203  18 -2.031283E+05  8.989212E+03 -1.132356E+04 -1.461599E+04 -3.032796E-09  4.251996E-10
       203  19 -8.834453E+05 -6.914255E+04 -9.536352E+04  9.675017E+03 -1.728464E+04 -1.457752E+04
       203  20 -9.097044E+05 -8.025005E+04 -1.239834E+05  2.604160E+04 -5.026091E+04 -1.468192E+04
       203  21 -9.623685E+05 -1.796180E+05 -1.961651E+05  6.028942E+04 -8.325140E+04 -4.878653E+03
       203  22 -5.827818E+05  4.603960E+03 -2.784727E+04  2.268469E+04 -2.136213E+04 -1.458551E+04
       203  23 -5.703021E+05  3.063861E+03 -4.682100E+04  1.382488E+04 -4.627306E+04 -1.467290E+04
       203  24 -5.828140E+05 -8.531131E+04 -1.037364E+05  2.284835E+04 -7.120088E+04 -4.852356E+03
       203  25 -2.820337E+05  7.834492E+04  3.966339E+04  3.570069E+04 -2.544157E+04 -1.459366E+04
       203  26 -2.307924E+05  8.637039E+04  3.033410E+04  1.601361E+03 -4.228304E+04 -1.466404E+04
       203  27 -2.031245E+05  8.990176E+03 -1.131694E+04 -1.461576E+04 -5.914298E+04 -4.827523E+03
