    1C
    1UUSER                                                              
    1UDATE              11.october.2022                                 
    1UTIME              17:35:21                                        
    1UHOST                                                              
    1UPGM               CalculiX                                        
    1UVERSION           Version 2.20                             
    1UCOMPILETIME       Sun Jul 31 18:08:37 CEST 2022                    
    1UDIR                                                               
    1UDBN                                                               
    1UMAT    1MESH_MATERIAL                                             
    2C                           841                                     1
 -1         1 0.00000E+00 0.00000E+00 0.00000E+00
 -1         2 1.66667E-02 0.00000E+00 0.00000E+00
 -1         3 3.33333E-02 0.00000E+00 0.00000E+00
 -1         4 5.00000E-02 0.00000E+00 0.00000E+00
 -1         5 6.66667E-02 0.00000E+00 0.00000E+00
 -1         8 0.00000E+00 6.25000E-03 0.00000E+00
 -1         9 1.66667E-02 6.25000E-03 0.00000E+00
 -1        10 3.33333E-02 6.25000E-03 0.00000E+00
 -1        11 5.00000E-02 6.25000E-03 0.00000E+00
 -1        12 6.66667E-02 6.25000E-03 0.00000E+00
 -1        15 0.00000E+00 1.25000E-02 0.00000E+00
 -1        16 1.66667E-02 1.25000E-02 0.00000E+00
 -1        17 3.33333E-02 1.25000E-02 0.00000E+00
 -1        18 5.00000E-02 1.25000E-02 0.00000E+00
 -1        19 6.66667E-02 1.25000E-02 0.00000E+00
 -1        20 8.33333E-02 1.25000E-02 0.00000E+00
 -1        21 1.00000E-01 1.25000E-02 0.00000E+00
 -1        22 0.00000E+00 1.87500E-02 0.00000E+00
 -1        23 1.66667E-02 1.87500E-02 0.00000E+00
 -1        24 3.33333E-02 1.87500E-02 0.00000E+00
 -1        25 5.00000E-02 1.87500E-02 0.00000E+00
 -1        26 6.66667E-02 1.87500E-02 0.00000E+00
 -1        27 8.33333E-02 1.87500E-02 0.00000E+00
 -1        28 1.00000E-01 1.87500E-02 0.00000E+00
 -1        29 0.00000E+00 2.50000E-02 0.00000E+00
 -1        30 1.66667E-02 2.50000E-02 0.00000E+00
 -1        31 3.33333E-02 2.50000E-02 0.00000E+00
 -1        32 5.00000E-02 2.50000E-02 0.00000E+00
 -1        33 6.66667E-02 2.50000E-02 0.00000E+00
 -1        34 8.33333E-02 2.50000E-02 0.00000E+00
 -1        35 1.00000E-01 2.50000E-02 0.00000E+00
 -1        36 1.04167E-03 0.00000E+00 0.00000E+00
 -1        37 2.08333E-03 0.00000E+00 0.00000E+00
 -1        38 3.12500E-03 0.00000E+00 0.00000E+00
 -1        39 4.16667E-03 0.00000E+00 0.00000E+00
 -1        40 5.20833E-03 0.00000E+00 0.00000E+00
 -1        41 6.25000E-03 0.00000E+00 0.00000E+00
 -1        42 7.29167E-03 0.00000E+00 0.00000E+00
 -1        43 8.33333E-03 0.00000E+00 0.00000E+00
 -1        44 9.37500E-03 0.00000E+00 0.00000E+00
 -1        45 1.04167E-02 0.00000E+00 0.00000E+00
 -1        46 1.14583E-02 0.00000E+00 0.00000E+00
 -1        47 1.25000E-02 0.00000E+00 0.00000E+00
 -1        48 1.35417E-02 0.00000E+00 0.00000E+00
 -1        49 1.45833E-02 0.00000E+00 0.00000E+00
 -1        50 1.56250E-02 0.00000E+00 0.00000E+00
 -1        51 0.00000E+00 1.04167E-03 0.00000E+00
 -1        52 0.00000E+00 2.08333E-03 0.00000E+00
 -1        53 0.00000E+00 3.12500E-03 0.00000E+00
 -1        54 0.00000E+00 4.16667E-03 0.00000E+00
 -1        55 0.00000E+00 5.20833E-03 0.00000E+00
 -1        56 1.04167E-03 3.90630E-04 0.00000E+00
 -1        57 2.08333E-03 7.81250E-04 0.00000E+00
 -1        58 3.12500E-03 1.17188E-03 0.00000E+00
 -1        59 4.16667E-03 1.56250E-03 0.00000E+00
 -1        60 5.20833E-03 1.95312E-03 0.00000E+00
 -1        61 6.25000E-03 2.34375E-03 0.00000E+00
 -1        62 7.29167E-03 2.73438E-03 0.00000E+00
 -1        63 8.33333E-03 3.12500E-03 0.00000E+00
 -1        64 9.37500E-03 3.51563E-03 0.00000E+00
 -1        65 1.04167E-02 3.90625E-03 0.00000E+00
 -1        66 1.14583E-02 4.29688E-03 0.00000E+00
 -1        67 1.25000E-02 4.68750E-03 0.00000E+00
 -1        68 1.35417E-02 5.07813E-03 0.00000E+00
 -1        69 1.45833E-02 5.46875E-03 0.00000E+00
 -1        70 1.56250E-02 5.85938E-03 0.00000E+00
 -1        71 1.77083E-02 0.00000E+00 0.00000E+00
 -1        72 1.87500E-02 0.00000E+00 0.00000E+00
 -1        73 1.97917E-02 0.00000E+00 0.00000E+00
 -1        74 2.08333E-02 0.00000E+00 0.00000E+00
 -1        75 2.18750E-02 0.00000E+00 0.00000E+00
 -1        76 2.29167E-02 0.00000E+00 0.00000E+00
 -1        77 2.39583E-02 0.00000E+00 0.00000E+00
 -1        78 2.50000E-02 0.00000E+00 0.00000E+00
 -1        79 2.60417E-02 0.00000E+00 0.00000E+00
 -1        80 2.70833E-02 0.00000E+00 0.00000E+00
 -1        81 2.81250E-02 0.00000E+00 0.00000E+00
 -1        82 2.91667E-02 0.00000E+00 0.00000E+00
 -1        83 3.02083E-02 0.00000E+00 0.00000E+00
 -1        84 3.12500E-02 0.00000E+00 0.00000E+00
 -1        85 3.22917E-02 0.00000E+00 0.00000E+00
 -1        86 1.66667E-02 1.04167E-03 0.00000E+00
 -1        87 1.66667E-02 2.08333E-03 0.00000E+00
 -1        88 1.66667E-02 3.12500E-03 0.00000E+00
 -1        89 1.66667E-02 4.16667E-03 0.00000E+00
 -1        90 1.66667E-02 5.20833E-03 0.00000E+00
 -1        91 1.77083E-02 3.90630E-04 0.00000E+00
 -1        92 1.87500E-02 7.81250E-04 0.00000E+00
 -1        93 1.97917E-02 1.17188E-03 0.00000E+00
 -1        94 2.08333E-02 1.56250E-03 0.00000E+00
 -1        95 2.18750E-02 1.95312E-03 0.00000E+00
 -1        96 2.29167E-02 2.34375E-03 0.00000E+00
 -1        97 2.39583E-02 2.73438E-03 0.00000E+00
 -1        98 2.50000E-02 3.12500E-03 0.00000E+00
 -1        99 2.60417E-02 3.51563E-03 0.00000E+00
 -1       100 2.70833E-02 3.90625E-03 0.00000E+00
 -1       101 2.81250E-02 4.29688E-03 0.00000E+00
 -1       102 2.91667E-02 4.68750E-03 0.00000E+00
 -1       103 3.02083E-02 5.07813E-03 0.00000E+00
 -1       104 3.12500E-02 5.46875E-03 0.00000E+00
 -1       105 3.22917E-02 5.85938E-03 0.00000E+00
 -1       106 3.43750E-02 0.00000E+00 0.00000E+00
 -1       107 3.54167E-02 0.00000E+00 0.00000E+00
 -1       108 3.64583E-02 0.00000E+00 0.00000E+00
 -1       109 3.75000E-02 0.00000E+00 0.00000E+00
 -1       110 3.85417E-02 0.00000E+00 0.00000E+00
 -1       111 3.95833E-02 0.00000E+00 0.00000E+00
 -1       112 4.06250E-02 0.00000E+00 0.00000E+00
 -1       113 4.16667E-02 0.00000E+00 0.00000E+00
 -1       114 4.27083E-02 0.00000E+00 0.00000E+00
 -1       115 4.37500E-02 0.00000E+00 0.00000E+00
 -1       116 4.47917E-02 0.00000E+00 0.00000E+00
 -1       117 4.58333E-02 0.00000E+00 0.00000E+00
 -1       118 4.68750E-02 0.00000E+00 0.00000E+00
 -1       119 4.79167E-02 0.00000E+00 0.00000E+00
 -1       120 4.89583E-02 0.00000E+00 0.00000E+00
 -1       121 3.33333E-02 1.04167E-03 0.00000E+00
 -1       122 3.33333E-02 2.08333E-03 0.00000E+00
 -1       123 3.33333E-02 3.12500E-03 0.00000E+00
 -1       124 3.33333E-02 4.16667E-03 0.00000E+00
 -1       125 3.33333E-02 5.20833E-03 0.00000E+00
 -1       126 3.43750E-02 3.90630E-04 0.00000E+00
 -1       127 3.54167E-02 7.81250E-04 0.00000E+00
 -1       128 3.64583E-02 1.17188E-03 0.00000E+00
 -1       129 3.75000E-02 1.56250E-03 0.00000E+00
 -1       130 3.85417E-02 1.95312E-03 0.00000E+00
 -1       131 3.95833E-02 2.34375E-03 0.00000E+00
 -1       132 4.06250E-02 2.73438E-03 0.00000E+00
 -1       133 4.16667E-02 3.12500E-03 0.00000E+00
 -1       134 4.27083E-02 3.51563E-03 0.00000E+00
 -1       135 4.37500E-02 3.90625E-03 0.00000E+00
 -1       136 4.47917E-02 4.29688E-03 0.00000E+00
 -1       137 4.58333E-02 4.68750E-03 0.00000E+00
 -1       138 4.68750E-02 5.07813E-03 0.00000E+00
 -1       139 4.79167E-02 5.46875E-03 0.00000E+00
 -1       140 4.89583E-02 5.85938E-03 0.00000E+00
 -1       141 5.10417E-02 0.00000E+00 0.00000E+00
 -1       142 5.20833E-02 0.00000E+00 0.00000E+00
 -1       143 5.31250E-02 0.00000E+00 0.00000E+00
 -1       144 5.41667E-02 0.00000E+00 0.00000E+00
 -1       145 5.52083E-02 0.00000E+00 0.00000E+00
 -1       146 5.62500E-02 0.00000E+00 0.00000E+00
 -1       147 5.72917E-02 0.00000E+00 0.00000E+00
 -1       148 5.83333E-02 0.00000E+00 0.00000E+00
 -1       149 5.93750E-02 0.00000E+00 0.00000E+00
 -1       150 6.04167E-02 0.00000E+00 0.00000E+00
 -1       151 6.14583E-02 0.00000E+00 0.00000E+00
 -1       152 6.25000E-02 0.00000E+00 0.00000E+00
 -1       153 6.35417E-02 0.00000E+00 0.00000E+00
 -1       154 6.45833E-02 0.00000E+00 0.00000E+00
 -1       155 6.56250E-02 0.00000E+00 0.00000E+00
 -1       156 5.00000E-02 1.04167E-03 0.00000E+00
 -1       157 5.00000E-02 2.08333E-03 0.00000E+00
 -1       158 5.00000E-02 3.12500E-03 0.00000E+00
 -1       159 5.00000E-02 4.16667E-03 0.00000E+00
 -1       160 5.00000E-02 5.20833E-03 0.00000E+00
 -1       161 5.10417E-02 3.90630E-04 0.00000E+00
 -1       162 5.20833E-02 7.81250E-04 0.00000E+00
 -1       163 5.31250E-02 1.17188E-03 0.00000E+00
 -1       164 5.41667E-02 1.56250E-03 0.00000E+00
 -1       165 5.52083E-02 1.95312E-03 0.00000E+00
 -1       166 5.62500E-02 2.34375E-03 0.00000E+00
 -1       167 5.72917E-02 2.73438E-03 0.00000E+00
 -1       168 5.83333E-02 3.12500E-03 0.00000E+00
 -1       169 5.93750E-02 3.51563E-03 0.00000E+00
 -1       170 6.04167E-02 3.90625E-03 0.00000E+00
 -1       171 6.14583E-02 4.29688E-03 0.00000E+00
 -1       172 6.25000E-02 4.68750E-03 0.00000E+00
 -1       173 6.35417E-02 5.07813E-03 0.00000E+00
 -1       174 6.45833E-02 5.46875E-03 0.00000E+00
 -1       175 6.56250E-02 5.85938E-03 0.00000E+00
 -1       191 6.66667E-02 1.04167E-03 0.00000E+00
 -1       192 6.66667E-02 2.08333E-03 0.00000E+00
 -1       193 6.66667E-02 3.12500E-03 0.00000E+00
 -1       194 6.66667E-02 4.16667E-03 0.00000E+00
 -1       195 6.66667E-02 5.20833E-03 0.00000E+00
 -1       251 1.04167E-03 6.25000E-03 0.00000E+00
 -1       252 2.08333E-03 6.25000E-03 0.00000E+00
 -1       253 3.12500E-03 6.25000E-03 0.00000E+00
 -1       254 4.16667E-03 6.25000E-03 0.00000E+00
 -1       255 5.20833E-03 6.25000E-03 0.00000E+00
 -1       256 6.25000E-03 6.25000E-03 0.00000E+00
 -1       257 7.29167E-03 6.25000E-03 0.00000E+00
 -1       258 8.33333E-03 6.25000E-03 0.00000E+00
 -1       259 9.37500E-03 6.25000E-03 0.00000E+00
 -1       260 1.04167E-02 6.25000E-03 0.00000E+00
 -1       261 1.14583E-02 6.25000E-03 0.00000E+00
 -1       262 1.25000E-02 6.25000E-03 0.00000E+00
 -1       263 1.35417E-02 6.25000E-03 0.00000E+00
 -1       264 1.45833E-02 6.25000E-03 0.00000E+00
 -1       265 1.56250E-02 6.25000E-03 0.00000E+00
 -1       266 0.00000E+00 7.29167E-03 0.00000E+00
 -1       267 0.00000E+00 8.33333E-03 0.00000E+00
 -1       268 0.00000E+00 9.37500E-03 0.00000E+00
 -1       269 0.00000E+00 1.04167E-02 0.00000E+00
 -1       270 0.00000E+00 1.14583E-02 0.00000E+00
 -1       271 1.04167E-03 6.64063E-03 0.00000E+00
 -1       272 2.08333E-03 7.03125E-03 0.00000E+00
 -1       273 3.12500E-03 7.42188E-03 0.00000E+00
 -1       274 4.16667E-03 7.81250E-03 0.00000E+00
 -1       275 5.20833E-03 8.20313E-03 0.00000E+00
 -1       276 6.25000E-03 8.59375E-03 0.00000E+00
 -1       277 7.29167E-03 8.98438E-03 0.00000E+00
 -1       278 8.33333E-03 9.37500E-03 0.00000E+00
 -1       279 9.37500E-03 9.76562E-03 0.00000E+00
 -1       280 1.04167E-02 1.01562E-02 0.00000E+00
 -1       281 1.14583E-02 1.05469E-02 0.00000E+00
 -1       282 1.25000E-02 1.09375E-02 0.00000E+00
 -1       283 1.35417E-02 1.13281E-02 0.00000E+00
 -1       284 1.45833E-02 1.17188E-02 0.00000E+00
 -1       285 1.56250E-02 1.21094E-02 0.00000E+00
 -1       286 1.77083E-02 6.25000E-03 0.00000E+00
 -1       287 1.87500E-02 6.25000E-03 0.00000E+00
 -1       288 1.97917E-02 6.25000E-03 0.00000E+00
 -1       289 2.08333E-02 6.25000E-03 0.00000E+00
 -1       290 2.18750E-02 6.25000E-03 0.00000E+00
 -1       291 2.29167E-02 6.25000E-03 0.00000E+00
 -1       292 2.39583E-02 6.25000E-03 0.00000E+00
 -1       293 2.50000E-02 6.25000E-03 0.00000E+00
 -1       294 2.60417E-02 6.25000E-03 0.00000E+00
 -1       295 2.70833E-02 6.25000E-03 0.00000E+00
 -1       296 2.81250E-02 6.25000E-03 0.00000E+00
 -1       297 2.91667E-02 6.25000E-03 0.00000E+00
 -1       298 3.02083E-02 6.25000E-03 0.00000E+00
 -1       299 3.12500E-02 6.25000E-03 0.00000E+00
 -1       300 3.22917E-02 6.25000E-03 0.00000E+00
 -1       301 1.66667E-02 7.29167E-03 0.00000E+00
 -1       302 1.66667E-02 8.33333E-03 0.00000E+00
 -1       303 1.66667E-02 9.37500E-03 0.00000E+00
 -1       304 1.66667E-02 1.04167E-02 0.00000E+00
 -1       305 1.66667E-02 1.14583E-02 0.00000E+00
 -1       306 1.77083E-02 6.64063E-03 0.00000E+00
 -1       307 1.87500E-02 7.03125E-03 0.00000E+00
 -1       308 1.97917E-02 7.42188E-03 0.00000E+00
 -1       309 2.08333E-02 7.81250E-03 0.00000E+00
 -1       310 2.18750E-02 8.20313E-03 0.00000E+00
 -1       311 2.29167E-02 8.59375E-03 0.00000E+00
 -1       312 2.39583E-02 8.98438E-03 0.00000E+00
 -1       313 2.50000E-02 9.37500E-03 0.00000E+00
 -1       314 2.60417E-02 9.76562E-03 0.00000E+00
 -1       315 2.70833E-02 1.01562E-02 0.00000E+00
 -1       316 2.81250E-02 1.05469E-02 0.00000E+00
 -1       317 2.91667E-02 1.09375E-02 0.00000E+00
 -1       318 3.02083E-02 1.13281E-02 0.00000E+00
 -1       319 3.12500E-02 1.17188E-02 0.00000E+00
 -1       320 3.22917E-02 1.21094E-02 0.00000E+00
 -1       321 3.43750E-02 6.25000E-03 0.00000E+00
 -1       322 3.54167E-02 6.25000E-03 0.00000E+00
 -1       323 3.64583E-02 6.25000E-03 0.00000E+00
 -1       324 3.75000E-02 6.25000E-03 0.00000E+00
 -1       325 3.85417E-02 6.25000E-03 0.00000E+00
 -1       326 3.95833E-02 6.25000E-03 0.00000E+00
 -1       327 4.06250E-02 6.25000E-03 0.00000E+00
 -1       328 4.16667E-02 6.25000E-03 0.00000E+00
 -1       329 4.27083E-02 6.25000E-03 0.00000E+00
 -1       330 4.37500E-02 6.25000E-03 0.00000E+00
 -1       331 4.47917E-02 6.25000E-03 0.00000E+00
 -1       332 4.58333E-02 6.25000E-03 0.00000E+00
 -1       333 4.68750E-02 6.25000E-03 0.00000E+00
 -1       334 4.79167E-02 6.25000E-03 0.00000E+00
 -1       335 4.89583E-02 6.25000E-03 0.00000E+00
 -1       336 3.33333E-02 7.29167E-03 0.00000E+00
 -1       337 3.33333E-02 8.33333E-03 0.00000E+00
 -1       338 3.33333E-02 9.37500E-03 0.00000E+00
 -1       339 3.33333E-02 1.04167E-02 0.00000E+00
 -1       340 3.33333E-02 1.14583E-02 0.00000E+00
 -1       341 3.43750E-02 6.64063E-03 0.00000E+00
 -1       342 3.54167E-02 7.03125E-03 0.00000E+00
 -1       343 3.64583E-02 7.42188E-03 0.00000E+00
 -1       344 3.75000E-02 7.81250E-03 0.00000E+00
 -1       345 3.85417E-02 8.20313E-03 0.00000E+00
 -1       346 3.95833E-02 8.59375E-03 0.00000E+00
 -1       347 4.06250E-02 8.98438E-03 0.00000E+00
 -1       348 4.16667E-02 9.37500E-03 0.00000E+00
 -1       349 4.27083E-02 9.76562E-03 0.00000E+00
 -1       350 4.37500E-02 1.01562E-02 0.00000E+00
 -1       351 4.47917E-02 1.05469E-02 0.00000E+00
 -1       352 4.58333E-02 1.09375E-02 0.00000E+00
 -1       353 4.68750E-02 1.13281E-02 0.00000E+00
 -1       354 4.79167E-02 1.17188E-02 0.00000E+00
 -1       355 4.89583E-02 1.21094E-02 0.00000E+00
 -1       356 5.10417E-02 6.25000E-03 0.00000E+00
 -1       357 5.20833E-02 6.25000E-03 0.00000E+00
 -1       358 5.31250E-02 6.25000E-03 0.00000E+00
 -1       359 5.41667E-02 6.25000E-03 0.00000E+00
 -1       360 5.52083E-02 6.25000E-03 0.00000E+00
 -1       361 5.62500E-02 6.25000E-03 0.00000E+00
 -1       362 5.72917E-02 6.25000E-03 0.00000E+00
 -1       363 5.83333E-02 6.25000E-03 0.00000E+00
 -1       364 5.93750E-02 6.25000E-03 0.00000E+00
 -1       365 6.04167E-02 6.25000E-03 0.00000E+00
 -1       366 6.14583E-02 6.25000E-03 0.00000E+00
 -1       367 6.25000E-02 6.25000E-03 0.00000E+00
 -1       368 6.35417E-02 6.25000E-03 0.00000E+00
 -1       369 6.45833E-02 6.25000E-03 0.00000E+00
 -1       370 6.56250E-02 6.25000E-03 0.00000E+00
 -1       371 5.00000E-02 7.29167E-03 0.00000E+00
 -1       372 5.00000E-02 8.33333E-03 0.00000E+00
 -1       373 5.00000E-02 9.37500E-03 0.00000E+00
 -1       374 5.00000E-02 1.04167E-02 0.00000E+00
 -1       375 5.00000E-02 1.14583E-02 0.00000E+00
 -1       376 5.10417E-02 6.64063E-03 0.00000E+00
 -1       377 5.20833E-02 7.03125E-03 0.00000E+00
 -1       378 5.31250E-02 7.42188E-03 0.00000E+00
 -1       379 5.41667E-02 7.81250E-03 0.00000E+00
 -1       380 5.52083E-02 8.20313E-03 0.00000E+00
 -1       381 5.62500E-02 8.59375E-03 0.00000E+00
 -1       382 5.72917E-02 8.98438E-03 0.00000E+00
 -1       383 5.83333E-02 9.37500E-03 0.00000E+00
 -1       384 5.93750E-02 9.76562E-03 0.00000E+00
 -1       385 6.04167E-02 1.01562E-02 0.00000E+00
 -1       386 6.14583E-02 1.05469E-02 0.00000E+00
 -1       387 6.25000E-02 1.09375E-02 0.00000E+00
 -1       388 6.35417E-02 1.13281E-02 0.00000E+00
 -1       389 6.45833E-02 1.17188E-02 0.00000E+00
 -1       390 6.56250E-02 1.21094E-02 0.00000E+00
 -1       406 6.66667E-02 7.29167E-03 0.00000E+00
 -1       407 6.66667E-02 8.33333E-03 0.00000E+00
 -1       408 6.66667E-02 9.37500E-03 0.00000E+00
 -1       409 6.66667E-02 1.04167E-02 0.00000E+00
 -1       410 6.66667E-02 1.14583E-02 0.00000E+00
 -1       466 1.04167E-03 1.25000E-02 0.00000E+00
 -1       467 2.08333E-03 1.25000E-02 0.00000E+00
 -1       468 3.12500E-03 1.25000E-02 0.00000E+00
 -1       469 4.16667E-03 1.25000E-02 0.00000E+00
 -1       470 5.20833E-03 1.25000E-02 0.00000E+00
 -1       471 6.25000E-03 1.25000E-02 0.00000E+00
 -1       472 7.29167E-03 1.25000E-02 0.00000E+00
 -1       473 8.33333E-03 1.25000E-02 0.00000E+00
 -1       474 9.37500E-03 1.25000E-02 0.00000E+00
 -1       475 1.04167E-02 1.25000E-02 0.00000E+00
 -1       476 1.14583E-02 1.25000E-02 0.00000E+00
 -1       477 1.25000E-02 1.25000E-02 0.00000E+00
 -1       478 1.35417E-02 1.25000E-02 0.00000E+00
 -1       479 1.45833E-02 1.25000E-02 0.00000E+00
 -1       480 1.56250E-02 1.25000E-02 0.00000E+00
 -1       481 0.00000E+00 1.35417E-02 0.00000E+00
 -1       482 0.00000E+00 1.45833E-02 0.00000E+00
 -1       483 0.00000E+00 1.56250E-02 0.00000E+00
 -1       484 0.00000E+00 1.66667E-02 0.00000E+00
 -1       485 0.00000E+00 1.77083E-02 0.00000E+00
 -1       486 1.04167E-03 1.28906E-02 0.00000E+00
 -1       487 2.08333E-03 1.32813E-02 0.00000E+00
 -1       488 3.12500E-03 1.36719E-02 0.00000E+00
 -1       489 4.16667E-03 1.40625E-02 0.00000E+00
 -1       490 5.20833E-03 1.44531E-02 0.00000E+00
 -1       491 6.25000E-03 1.48437E-02 0.00000E+00
 -1       492 7.29167E-03 1.52344E-02 0.00000E+00
 -1       493 8.33333E-03 1.56250E-02 0.00000E+00
 -1       494 9.37500E-03 1.60156E-02 0.00000E+00
 -1       495 1.04167E-02 1.64062E-02 0.00000E+00
 -1       496 1.14583E-02 1.67969E-02 0.00000E+00
 -1       497 1.25000E-02 1.71875E-02 0.00000E+00
 -1       498 1.35417E-02 1.75781E-02 0.00000E+00
 -1       499 1.45833E-02 1.79687E-02 0.00000E+00
 -1       500 1.56250E-02 1.83594E-02 0.00000E+00
 -1       501 1.77083E-02 1.25000E-02 0.00000E+00
 -1       502 1.87500E-02 1.25000E-02 0.00000E+00
 -1       503 1.97917E-02 1.25000E-02 0.00000E+00
 -1       504 2.08333E-02 1.25000E-02 0.00000E+00
 -1       505 2.18750E-02 1.25000E-02 0.00000E+00
 -1       506 2.29167E-02 1.25000E-02 0.00000E+00
 -1       507 2.39583E-02 1.25000E-02 0.00000E+00
 -1       508 2.50000E-02 1.25000E-02 0.00000E+00
 -1       509 2.60417E-02 1.25000E-02 0.00000E+00
 -1       510 2.70833E-02 1.25000E-02 0.00000E+00
 -1       511 2.81250E-02 1.25000E-02 0.00000E+00
 -1       512 2.91667E-02 1.25000E-02 0.00000E+00
 -1       513 3.02083E-02 1.25000E-02 0.00000E+00
 -1       514 3.12500E-02 1.25000E-02 0.00000E+00
 -1       515 3.22917E-02 1.25000E-02 0.00000E+00
 -1       516 1.66667E-02 1.35417E-02 0.00000E+00
 -1       517 1.66667E-02 1.45833E-02 0.00000E+00
 -1       518 1.66667E-02 1.56250E-02 0.00000E+00
 -1       519 1.66667E-02 1.66667E-02 0.00000E+00
 -1       520 1.66667E-02 1.77083E-02 0.00000E+00
 -1       521 1.77083E-02 1.28906E-02 0.00000E+00
 -1       522 1.87500E-02 1.32813E-02 0.00000E+00
 -1       523 1.97917E-02 1.36719E-02 0.00000E+00
 -1       524 2.08333E-02 1.40625E-02 0.00000E+00
 -1       525 2.18750E-02 1.44531E-02 0.00000E+00
 -1       526 2.29167E-02 1.48437E-02 0.00000E+00
 -1       527 2.39583E-02 1.52344E-02 0.00000E+00
 -1       528 2.50000E-02 1.56250E-02 0.00000E+00
 -1       529 2.60417E-02 1.60156E-02 0.00000E+00
 -1       530 2.70833E-02 1.64062E-02 0.00000E+00
 -1       531 2.81250E-02 1.67969E-02 0.00000E+00
 -1       532 2.91667E-02 1.71875E-02 0.00000E+00
 -1       533 3.02083E-02 1.75781E-02 0.00000E+00
 -1       534 3.12500E-02 1.79687E-02 0.00000E+00
 -1       535 3.22917E-02 1.83594E-02 0.00000E+00
 -1       536 3.43750E-02 1.25000E-02 0.00000E+00
 -1       537 3.54167E-02 1.25000E-02 0.00000E+00
 -1       538 3.64583E-02 1.25000E-02 0.00000E+00
 -1       539 3.75000E-02 1.25000E-02 0.00000E+00
 -1       540 3.85417E-02 1.25000E-02 0.00000E+00
 -1       541 3.95833E-02 1.25000E-02 0.00000E+00
 -1       542 4.06250E-02 1.25000E-02 0.00000E+00
 -1       543 4.16667E-02 1.25000E-02 0.00000E+00
 -1       544 4.27083E-02 1.25000E-02 0.00000E+00
 -1       545 4.37500E-02 1.25000E-02 0.00000E+00
 -1       546 4.47917E-02 1.25000E-02 0.00000E+00
 -1       547 4.58333E-02 1.25000E-02 0.00000E+00
 -1       548 4.68750E-02 1.25000E-02 0.00000E+00
 -1       549 4.79167E-02 1.25000E-02 0.00000E+00
 -1       550 4.89583E-02 1.25000E-02 0.00000E+00
 -1       551 3.33333E-02 1.35417E-02 0.00000E+00
 -1       552 3.33333E-02 1.45833E-02 0.00000E+00
 -1       553 3.33333E-02 1.56250E-02 0.00000E+00
 -1       554 3.33333E-02 1.66667E-02 0.00000E+00
 -1       555 3.33333E-02 1.77083E-02 0.00000E+00
 -1       556 3.43750E-02 1.28906E-02 0.00000E+00
 -1       557 3.54167E-02 1.32813E-02 0.00000E+00
 -1       558 3.64583E-02 1.36719E-02 0.00000E+00
 -1       559 3.75000E-02 1.40625E-02 0.00000E+00
 -1       560 3.85417E-02 1.44531E-02 0.00000E+00
 -1       561 3.95833E-02 1.48437E-02 0.00000E+00
 -1       562 4.06250E-02 1.52344E-02 0.00000E+00
 -1       563 4.16667E-02 1.56250E-02 0.00000E+00
 -1       564 4.27083E-02 1.60156E-02 0.00000E+00
 -1       565 4.37500E-02 1.64062E-02 0.00000E+00
 -1       566 4.47917E-02 1.67969E-02 0.00000E+00
 -1       567 4.58333E-02 1.71875E-02 0.00000E+00
 -1       568 4.68750E-02 1.75781E-02 0.00000E+00
 -1       569 4.79167E-02 1.79687E-02 0.00000E+00
 -1       570 4.89583E-02 1.83594E-02 0.00000E+00
 -1       571 5.10417E-02 1.25000E-02 0.00000E+00
 -1       572 5.20833E-02 1.25000E-02 0.00000E+00
 -1       573 5.31250E-02 1.25000E-02 0.00000E+00
 -1       574 5.41667E-02 1.25000E-02 0.00000E+00
 -1       575 5.52083E-02 1.25000E-02 0.00000E+00
 -1       576 5.62500E-02 1.25000E-02 0.00000E+00
 -1       577 5.72917E-02 1.25000E-02 0.00000E+00
 -1       578 5.83333E-02 1.25000E-02 0.00000E+00
 -1       579 5.93750E-02 1.25000E-02 0.00000E+00
 -1       580 6.04167E-02 1.25000E-02 0.00000E+00
 -1       581 6.14583E-02 1.25000E-02 0.00000E+00
 -1       582 6.25000E-02 1.25000E-02 0.00000E+00
 -1       583 6.35417E-02 1.25000E-02 0.00000E+00
 -1       584 6.45833E-02 1.25000E-02 0.00000E+00
 -1       585 6.56250E-02 1.25000E-02 0.00000E+00
 -1       586 5.00000E-02 1.35417E-02 0.00000E+00
 -1       587 5.00000E-02 1.45833E-02 0.00000E+00
 -1       588 5.00000E-02 1.56250E-02 0.00000E+00
 -1       589 5.00000E-02 1.66667E-02 0.00000E+00
 -1       590 5.00000E-02 1.77083E-02 0.00000E+00
 -1       591 5.10417E-02 1.28906E-02 0.00000E+00
 -1       592 5.20833E-02 1.32813E-02 0.00000E+00
 -1       593 5.31250E-02 1.36719E-02 0.00000E+00
 -1       594 5.41667E-02 1.40625E-02 0.00000E+00
 -1       595 5.52083E-02 1.44531E-02 0.00000E+00
 -1       596 5.62500E-02 1.48437E-02 0.00000E+00
 -1       597 5.72917E-02 1.52344E-02 0.00000E+00
 -1       598 5.83333E-02 1.56250E-02 0.00000E+00
 -1       599 5.93750E-02 1.60156E-02 0.00000E+00
 -1       600 6.04167E-02 1.64062E-02 0.00000E+00
 -1       601 6.14583E-02 1.67969E-02 0.00000E+00
 -1       602 6.25000E-02 1.71875E-02 0.00000E+00
 -1       603 6.35417E-02 1.75781E-02 0.00000E+00
 -1       604 6.45833E-02 1.79687E-02 0.00000E+00
 -1       605 6.56250E-02 1.83594E-02 0.00000E+00
 -1       606 6.77083E-02 1.25000E-02 0.00000E+00
 -1       607 6.87500E-02 1.25000E-02 0.00000E+00
 -1       608 6.97917E-02 1.25000E-02 0.00000E+00
 -1       609 7.08333E-02 1.25000E-02 0.00000E+00
 -1       610 7.18750E-02 1.25000E-02 0.00000E+00
 -1       611 7.29167E-02 1.25000E-02 0.00000E+00
 -1       612 7.39583E-02 1.25000E-02 0.00000E+00
 -1       613 7.50000E-02 1.25000E-02 0.00000E+00
 -1       614 7.60417E-02 1.25000E-02 0.00000E+00
 -1       615 7.70833E-02 1.25000E-02 0.00000E+00
 -1       616 7.81250E-02 1.25000E-02 0.00000E+00
 -1       617 7.91667E-02 1.25000E-02 0.00000E+00
 -1       618 8.02083E-02 1.25000E-02 0.00000E+00
 -1       619 8.12500E-02 1.25000E-02 0.00000E+00
 -1       620 8.22917E-02 1.25000E-02 0.00000E+00
 -1       621 6.66667E-02 1.35417E-02 0.00000E+00
 -1       622 6.66667E-02 1.45833E-02 0.00000E+00
 -1       623 6.66667E-02 1.56250E-02 0.00000E+00
 -1       624 6.66667E-02 1.66667E-02 0.00000E+00
 -1       625 6.66667E-02 1.77083E-02 0.00000E+00
 -1       626 6.77083E-02 1.28906E-02 0.00000E+00
 -1       627 6.87500E-02 1.32813E-02 0.00000E+00
 -1       628 6.97917E-02 1.36719E-02 0.00000E+00
 -1       629 7.08333E-02 1.40625E-02 0.00000E+00
 -1       630 7.18750E-02 1.44531E-02 0.00000E+00
 -1       631 7.29167E-02 1.48437E-02 0.00000E+00
 -1       632 7.39583E-02 1.52344E-02 0.00000E+00
 -1       633 7.50000E-02 1.56250E-02 0.00000E+00
 -1       634 7.60417E-02 1.60156E-02 0.00000E+00
 -1       635 7.70833E-02 1.64062E-02 0.00000E+00
 -1       636 7.81250E-02 1.67969E-02 0.00000E+00
 -1       637 7.91667E-02 1.71875E-02 0.00000E+00
 -1       638 8.02083E-02 1.75781E-02 0.00000E+00
 -1       639 8.12500E-02 1.79687E-02 0.00000E+00
 -1       640 8.22917E-02 1.83594E-02 0.00000E+00
 -1       641 8.43750E-02 1.25000E-02 0.00000E+00
 -1       642 8.54167E-02 1.25000E-02 0.00000E+00
 -1       643 8.64583E-02 1.25000E-02 0.00000E+00
 -1       644 8.75000E-02 1.25000E-02 0.00000E+00
 -1       645 8.85417E-02 1.25000E-02 0.00000E+00
 -1       646 8.95833E-02 1.25000E-02 0.00000E+00
 -1       647 9.06250E-02 1.25000E-02 0.00000E+00
 -1       648 9.16667E-02 1.25000E-02 0.00000E+00
 -1       649 9.27083E-02 1.25000E-02 0.00000E+00
 -1       650 9.37500E-02 1.25000E-02 0.00000E+00
 -1       651 9.47917E-02 1.25000E-02 0.00000E+00
 -1       652 9.58333E-02 1.25000E-02 0.00000E+00
 -1       653 9.68750E-02 1.25000E-02 0.00000E+00
 -1       654 9.79167E-02 1.25000E-02 0.00000E+00
 -1       655 9.89583E-02 1.25000E-02 0.00000E+00
 -1       656 8.33333E-02 1.35417E-02 0.00000E+00
 -1       657 8.33333E-02 1.45833E-02 0.00000E+00
 -1       658 8.33333E-02 1.56250E-02 0.00000E+00
 -1       659 8.33333E-02 1.66667E-02 0.00000E+00
 -1       660 8.33333E-02 1.77083E-02 0.00000E+00
 -1       661 8.43750E-02 1.28906E-02 0.00000E+00
 -1       662 8.54167E-02 1.32813E-02 0.00000E+00
 -1       663 8.64583E-02 1.36719E-02 0.00000E+00
 -1       664 8.75000E-02 1.40625E-02 0.00000E+00
 -1       665 8.85417E-02 1.44531E-02 0.00000E+00
 -1       666 8.95833E-02 1.48437E-02 0.00000E+00
 -1       667 9.06250E-02 1.52344E-02 0.00000E+00
 -1       668 9.16667E-02 1.56250E-02 0.00000E+00
 -1       669 9.27083E-02 1.60156E-02 0.00000E+00
 -1       670 9.37500E-02 1.64062E-02 0.00000E+00
 -1       671 9.47917E-02 1.67969E-02 0.00000E+00
 -1       672 9.58333E-02 1.71875E-02 0.00000E+00
 -1       673 9.68750E-02 1.75781E-02 0.00000E+00
 -1       674 9.79167E-02 1.79687E-02 0.00000E+00
 -1       675 9.89583E-02 1.83594E-02 0.00000E+00
 -1       676 1.00000E-01 1.35417E-02 0.00000E+00
 -1       677 1.00000E-01 1.45833E-02 0.00000E+00
 -1       678 1.00000E-01 1.56250E-02 0.00000E+00
 -1       679 1.00000E-01 1.66667E-02 0.00000E+00
 -1       680 1.00000E-01 1.77083E-02 0.00000E+00
 -1       681 1.04167E-03 1.87500E-02 0.00000E+00
 -1       682 2.08333E-03 1.87500E-02 0.00000E+00
 -1       683 3.12500E-03 1.87500E-02 0.00000E+00
 -1       684 4.16667E-03 1.87500E-02 0.00000E+00
 -1       685 5.20833E-03 1.87500E-02 0.00000E+00
 -1       686 6.25000E-03 1.87500E-02 0.00000E+00
 -1       687 7.29167E-03 1.87500E-02 0.00000E+00
 -1       688 8.33333E-03 1.87500E-02 0.00000E+00
 -1       689 9.37500E-03 1.87500E-02 0.00000E+00
 -1       690 1.04167E-02 1.87500E-02 0.00000E+00
 -1       691 1.14583E-02 1.87500E-02 0.00000E+00
 -1       692 1.25000E-02 1.87500E-02 0.00000E+00
 -1       693 1.35417E-02 1.87500E-02 0.00000E+00
 -1       694 1.45833E-02 1.87500E-02 0.00000E+00
 -1       695 1.56250E-02 1.87500E-02 0.00000E+00
 -1       696 0.00000E+00 1.97917E-02 0.00000E+00
 -1       697 0.00000E+00 2.08333E-02 0.00000E+00
 -1       698 0.00000E+00 2.18750E-02 0.00000E+00
 -1       699 0.00000E+00 2.29167E-02 0.00000E+00
 -1       700 0.00000E+00 2.39583E-02 0.00000E+00
 -1       701 1.04167E-03 1.91406E-02 0.00000E+00
 -1       702 2.08333E-03 1.95312E-02 0.00000E+00
 -1       703 3.12500E-03 1.99219E-02 0.00000E+00
 -1       704 4.16667E-03 2.03125E-02 0.00000E+00
 -1       705 5.20833E-03 2.07031E-02 0.00000E+00
 -1       706 6.25000E-03 2.10938E-02 0.00000E+00
 -1       707 7.29167E-03 2.14844E-02 0.00000E+00
 -1       708 8.33333E-03 2.18750E-02 0.00000E+00
 -1       709 9.37500E-03 2.22656E-02 0.00000E+00
 -1       710 1.04167E-02 2.26563E-02 0.00000E+00
 -1       711 1.14583E-02 2.30469E-02 0.00000E+00
 -1       712 1.25000E-02 2.34375E-02 0.00000E+00
 -1       713 1.35417E-02 2.38281E-02 0.00000E+00
 -1       714 1.45833E-02 2.42187E-02 0.00000E+00
 -1       715 1.56250E-02 2.46094E-02 0.00000E+00
 -1       716 1.77083E-02 1.87500E-02 0.00000E+00
 -1       717 1.87500E-02 1.87500E-02 0.00000E+00
 -1       718 1.97917E-02 1.87500E-02 0.00000E+00
 -1       719 2.08333E-02 1.87500E-02 0.00000E+00
 -1       720 2.18750E-02 1.87500E-02 0.00000E+00
 -1       721 2.29167E-02 1.87500E-02 0.00000E+00
 -1       722 2.39583E-02 1.87500E-02 0.00000E+00
 -1       723 2.50000E-02 1.87500E-02 0.00000E+00
 -1       724 2.60417E-02 1.87500E-02 0.00000E+00
 -1       725 2.70833E-02 1.87500E-02 0.00000E+00
 -1       726 2.81250E-02 1.87500E-02 0.00000E+00
 -1       727 2.91667E-02 1.87500E-02 0.00000E+00
 -1       728 3.02083E-02 1.87500E-02 0.00000E+00
 -1       729 3.12500E-02 1.87500E-02 0.00000E+00
 -1       730 3.22917E-02 1.87500E-02 0.00000E+00
 -1       731 1.66667E-02 1.97917E-02 0.00000E+00
 -1       732 1.66667E-02 2.08333E-02 0.00000E+00
 -1       733 1.66667E-02 2.18750E-02 0.00000E+00
 -1       734 1.66667E-02 2.29167E-02 0.00000E+00
 -1       735 1.66667E-02 2.39583E-02 0.00000E+00
 -1       736 1.77083E-02 1.91406E-02 0.00000E+00
 -1       737 1.87500E-02 1.95312E-02 0.00000E+00
 -1       738 1.97917E-02 1.99219E-02 0.00000E+00
 -1       739 2.08333E-02 2.03125E-02 0.00000E+00
 -1       740 2.18750E-02 2.07031E-02 0.00000E+00
 -1       741 2.29167E-02 2.10938E-02 0.00000E+00
 -1       742 2.39583E-02 2.14844E-02 0.00000E+00
 -1       743 2.50000E-02 2.18750E-02 0.00000E+00
 -1       744 2.60417E-02 2.22656E-02 0.00000E+00
 -1       745 2.70833E-02 2.26563E-02 0.00000E+00
 -1       746 2.81250E-02 2.30469E-02 0.00000E+00
 -1       747 2.91667E-02 2.34375E-02 0.00000E+00
 -1       748 3.02083E-02 2.38281E-02 0.00000E+00
 -1       749 3.12500E-02 2.42187E-02 0.00000E+00
 -1       750 3.22917E-02 2.46094E-02 0.00000E+00
 -1       751 3.43750E-02 1.87500E-02 0.00000E+00
 -1       752 3.54167E-02 1.87500E-02 0.00000E+00
 -1       753 3.64583E-02 1.87500E-02 0.00000E+00
 -1       754 3.75000E-02 1.87500E-02 0.00000E+00
 -1       755 3.85417E-02 1.87500E-02 0.00000E+00
 -1       756 3.95833E-02 1.87500E-02 0.00000E+00
 -1       757 4.06250E-02 1.87500E-02 0.00000E+00
 -1       758 4.16667E-02 1.87500E-02 0.00000E+00
 -1       759 4.27083E-02 1.87500E-02 0.00000E+00
 -1       760 4.37500E-02 1.87500E-02 0.00000E+00
 -1       761 4.47917E-02 1.87500E-02 0.00000E+00
 -1       762 4.58333E-02 1.87500E-02 0.00000E+00
 -1       763 4.68750E-02 1.87500E-02 0.00000E+00
 -1       764 4.79167E-02 1.87500E-02 0.00000E+00
 -1       765 4.89583E-02 1.87500E-02 0.00000E+00
 -1       766 3.33333E-02 1.97917E-02 0.00000E+00
 -1       767 3.33333E-02 2.08333E-02 0.00000E+00
 -1       768 3.33333E-02 2.18750E-02 0.00000E+00
 -1       769 3.33333E-02 2.29167E-02 0.00000E+00
 -1       770 3.33333E-02 2.39583E-02 0.00000E+00
 -1       771 3.43750E-02 1.91406E-02 0.00000E+00
 -1       772 3.54167E-02 1.95312E-02 0.00000E+00
 -1       773 3.64583E-02 1.99219E-02 0.00000E+00
 -1       774 3.75000E-02 2.03125E-02 0.00000E+00
 -1       775 3.85417E-02 2.07031E-02 0.00000E+00
 -1       776 3.95833E-02 2.10938E-02 0.00000E+00
 -1       777 4.06250E-02 2.14844E-02 0.00000E+00
 -1       778 4.16667E-02 2.18750E-02 0.00000E+00
 -1       779 4.27083E-02 2.22656E-02 0.00000E+00
 -1       780 4.37500E-02 2.26563E-02 0.00000E+00
 -1       781 4.47917E-02 2.30469E-02 0.00000E+00
 -1       782 4.58333E-02 2.34375E-02 0.00000E+00
 -1       783 4.68750E-02 2.38281E-02 0.00000E+00
 -1       784 4.79167E-02 2.42187E-02 0.00000E+00
 -1       785 4.89583E-02 2.46094E-02 0.00000E+00
 -1       786 5.10417E-02 1.87500E-02 0.00000E+00
 -1       787 5.20833E-02 1.87500E-02 0.00000E+00
 -1       788 5.31250E-02 1.87500E-02 0.00000E+00
 -1       789 5.41667E-02 1.87500E-02 0.00000E+00
 -1       790 5.52083E-02 1.87500E-02 0.00000E+00
 -1       791 5.62500E-02 1.87500E-02 0.00000E+00
 -1       792 5.72917E-02 1.87500E-02 0.00000E+00
 -1       793 5.83333E-02 1.87500E-02 0.00000E+00
 -1       794 5.93750E-02 1.87500E-02 0.00000E+00
 -1       795 6.04167E-02 1.87500E-02 0.00000E+00
 -1       796 6.14583E-02 1.87500E-02 0.00000E+00
 -1       797 6.25000E-02 1.87500E-02 0.00000E+00
 -1       798 6.35417E-02 1.87500E-02 0.00000E+00
 -1       799 6.45833E-02 1.87500E-02 0.00000E+00
 -1       800 6.56250E-02 1.87500E-02 0.00000E+00
 -1       801 5.00000E-02 1.97917E-02 0.00000E+00
 -1       802 5.00000E-02 2.08333E-02 0.00000E+00
 -1       803 5.00000E-02 2.18750E-02 0.00000E+00
 -1       804 5.00000E-02 2.29167E-02 0.00000E+00
 -1       805 5.00000E-02 2.39583E-02 0.00000E+00
 -1       806 5.10417E-02 1.91406E-02 0.00000E+00
 -1       807 5.20833E-02 1.95312E-02 0.00000E+00
 -1       808 5.31250E-02 1.99219E-02 0.00000E+00
 -1       809 5.41667E-02 2.03125E-02 0.00000E+00
 -1       810 5.52083E-02 2.07031E-02 0.00000E+00
 -1       811 5.62500E-02 2.10938E-02 0.00000E+00
 -1       812 5.72917E-02 2.14844E-02 0.00000E+00
 -1       813 5.83333E-02 2.18750E-02 0.00000E+00
 -1       814 5.93750E-02 2.22656E-02 0.00000E+00
 -1       815 6.04167E-02 2.26563E-02 0.00000E+00
 -1       816 6.14583E-02 2.30469E-02 0.00000E+00
 -1       817 6.25000E-02 2.34375E-02 0.00000E+00
 -1       818 6.35417E-02 2.38281E-02 0.00000E+00
 -1       819 6.45833E-02 2.42187E-02 0.00000E+00
 -1       820 6.56250E-02 2.46094E-02 0.00000E+00
 -1       821 6.77083E-02 1.87500E-02 0.00000E+00
 -1       822 6.87500E-02 1.87500E-02 0.00000E+00
 -1       823 6.97917E-02 1.87500E-02 0.00000E+00
 -1       824 7.08333E-02 1.87500E-02 0.00000E+00
 -1       825 7.18750E-02 1.87500E-02 0.00000E+00
 -1       826 7.29167E-02 1.87500E-02 0.00000E+00
 -1       827 7.39583E-02 1.87500E-02 0.00000E+00
 -1       828 7.50000E-02 1.87500E-02 0.00000E+00
 -1       829 7.60417E-02 1.87500E-02 0.00000E+00
 -1       830 7.70833E-02 1.87500E-02 0.00000E+00
 -1       831 7.81250E-02 1.87500E-02 0.00000E+00
 -1       832 7.91667E-02 1.87500E-02 0.00000E+00
 -1       833 8.02083E-02 1.87500E-02 0.00000E+00
 -1       834 8.12500E-02 1.87500E-02 0.00000E+00
 -1       835 8.22917E-02 1.87500E-02 0.00000E+00
 -1       836 6.66667E-02 1.97917E-02 0.00000E+00
 -1       837 6.66667E-02 2.08333E-02 0.00000E+00
 -1       838 6.66667E-02 2.18750E-02 0.00000E+00
 -1       839 6.66667E-02 2.29167E-02 0.00000E+00
 -1       840 6.66667E-02 2.39583E-02 0.00000E+00
 -1       841 6.77083E-02 1.91406E-02 0.00000E+00
 -1       842 6.87500E-02 1.95312E-02 0.00000E+00
 -1       843 6.97917E-02 1.99219E-02 0.00000E+00
 -1       844 7.08333E-02 2.03125E-02 0.00000E+00
 -1       845 7.18750E-02 2.07031E-02 0.00000E+00
 -1       846 7.29167E-02 2.10938E-02 0.00000E+00
 -1       847 7.39583E-02 2.14844E-02 0.00000E+00
 -1       848 7.50000E-02 2.18750E-02 0.00000E+00
 -1       849 7.60417E-02 2.22656E-02 0.00000E+00
 -1       850 7.70833E-02 2.26563E-02 0.00000E+00
 -1       851 7.81250E-02 2.30469E-02 0.00000E+00
 -1       852 7.91667E-02 2.34375E-02 0.00000E+00
 -1       853 8.02083E-02 2.38281E-02 0.00000E+00
 -1       854 8.12500E-02 2.42187E-02 0.00000E+00
 -1       855 8.22917E-02 2.46094E-02 0.00000E+00
 -1       856 8.43750E-02 1.87500E-02 0.00000E+00
 -1       857 8.54167E-02 1.87500E-02 0.00000E+00
 -1       858 8.64583E-02 1.87500E-02 0.00000E+00
 -1       859 8.75000E-02 1.87500E-02 0.00000E+00
 -1       860 8.85417E-02 1.87500E-02 0.00000E+00
 -1       861 8.95833E-02 1.87500E-02 0.00000E+00
 -1       862 9.06250E-02 1.87500E-02 0.00000E+00
 -1       863 9.16667E-02 1.87500E-02 0.00000E+00
 -1       864 9.27083E-02 1.87500E-02 0.00000E+00
 -1       865 9.37500E-02 1.87500E-02 0.00000E+00
 -1       866 9.47917E-02 1.87500E-02 0.00000E+00
 -1       867 9.58333E-02 1.87500E-02 0.00000E+00
 -1       868 9.68750E-02 1.87500E-02 0.00000E+00
 -1       869 9.79167E-02 1.87500E-02 0.00000E+00
 -1       870 9.89583E-02 1.87500E-02 0.00000E+00
 -1       871 8.33333E-02 1.97917E-02 0.00000E+00
 -1       872 8.33333E-02 2.08333E-02 0.00000E+00
 -1       873 8.33333E-02 2.18750E-02 0.00000E+00
 -1       874 8.33333E-02 2.29167E-02 0.00000E+00
 -1       875 8.33333E-02 2.39583E-02 0.00000E+00
 -1       876 8.43750E-02 1.91406E-02 0.00000E+00
 -1       877 8.54167E-02 1.95312E-02 0.00000E+00
 -1       878 8.64583E-02 1.99219E-02 0.00000E+00
 -1       879 8.75000E-02 2.03125E-02 0.00000E+00
 -1       880 8.85417E-02 2.07031E-02 0.00000E+00
 -1       881 8.95833E-02 2.10938E-02 0.00000E+00
 -1       882 9.06250E-02 2.14844E-02 0.00000E+00
 -1       883 9.16667E-02 2.18750E-02 0.00000E+00
 -1       884 9.27083E-02 2.22656E-02 0.00000E+00
 -1       885 9.37500E-02 2.26563E-02 0.00000E+00
 -1       886 9.47917E-02 2.30469E-02 0.00000E+00
 -1       887 9.58333E-02 2.34375E-02 0.00000E+00
 -1       888 9.68750E-02 2.38281E-02 0.00000E+00
 -1       889 9.79167E-02 2.42187E-02 0.00000E+00
 -1       890 9.89583E-02 2.46094E-02 0.00000E+00
 -1       891 1.00000E-01 1.97917E-02 0.00000E+00
 -1       892 1.00000E-01 2.08333E-02 0.00000E+00
 -1       893 1.00000E-01 2.18750E-02 0.00000E+00
 -1       894 1.00000E-01 2.29167E-02 0.00000E+00
 -1       895 1.00000E-01 2.39583E-02 0.00000E+00
 -1       896 1.04167E-03 2.50000E-02 0.00000E+00
 -1       897 2.08333E-03 2.50000E-02 0.00000E+00
 -1       898 3.12500E-03 2.50000E-02 0.00000E+00
 -1       899 4.16667E-03 2.50000E-02 0.00000E+00
 -1       900 5.20833E-03 2.50000E-02 0.00000E+00
 -1       901 6.25000E-03 2.50000E-02 0.00000E+00
 -1       902 7.29167E-03 2.50000E-02 0.00000E+00
 -1       903 8.33333E-03 2.50000E-02 0.00000E+00
 -1       904 9.37500E-03 2.50000E-02 0.00000E+00
 -1       905 1.04167E-02 2.50000E-02 0.00000E+00
 -1       906 1.14583E-02 2.50000E-02 0.00000E+00
 -1       907 1.25000E-02 2.50000E-02 0.00000E+00
 -1       908 1.35417E-02 2.50000E-02 0.00000E+00
 -1       909 1.45833E-02 2.50000E-02 0.00000E+00
 -1       910 1.56250E-02 2.50000E-02 0.00000E+00
 -1       911 1.77083E-02 2.50000E-02 0.00000E+00
 -1       912 1.87500E-02 2.50000E-02 0.00000E+00
 -1       913 1.97917E-02 2.50000E-02 0.00000E+00
 -1       914 2.08333E-02 2.50000E-02 0.00000E+00
 -1       915 2.18750E-02 2.50000E-02 0.00000E+00
 -1       916 2.29167E-02 2.50000E-02 0.00000E+00
 -1       917 2.39583E-02 2.50000E-02 0.00000E+00
 -1       918 2.50000E-02 2.50000E-02 0.00000E+00
 -1       919 2.60417E-02 2.50000E-02 0.00000E+00
 -1       920 2.70833E-02 2.50000E-02 0.00000E+00
 -1       921 2.81250E-02 2.50000E-02 0.00000E+00
 -1       922 2.91667E-02 2.50000E-02 0.00000E+00
 -1       923 3.02083E-02 2.50000E-02 0.00000E+00
 -1       924 3.12500E-02 2.50000E-02 0.00000E+00
 -1       925 3.22917E-02 2.50000E-02 0.00000E+00
 -1       926 3.43750E-02 2.50000E-02 0.00000E+00
 -1       927 3.54167E-02 2.50000E-02 0.00000E+00
 -1       928 3.64583E-02 2.50000E-02 0.00000E+00
 -1       929 3.75000E-02 2.50000E-02 0.00000E+00
 -1       930 3.85417E-02 2.50000E-02 0.00000E+00
 -1       931 3.95833E-02 2.50000E-02 0.00000E+00
 -1       932 4.06250E-02 2.50000E-02 0.00000E+00
 -1       933 4.16667E-02 2.50000E-02 0.00000E+00
 -1       934 4.27083E-02 2.50000E-02 0.00000E+00
 -1       935 4.37500E-02 2.50000E-02 0.00000E+00
 -1       936 4.47917E-02 2.50000E-02 0.00000E+00
 -1       937 4.58333E-02 2.50000E-02 0.00000E+00
 -1       938 4.68750E-02 2.50000E-02 0.00000E+00
 -1       939 4.79167E-02 2.50000E-02 0.00000E+00
 -1       940 4.89583E-02 2.50000E-02 0.00000E+00
 -1       941 5.10417E-02 2.50000E-02 0.00000E+00
 -1       942 5.20833E-02 2.50000E-02 0.00000E+00
 -1       943 5.31250E-02 2.50000E-02 0.00000E+00
 -1       944 5.41667E-02 2.50000E-02 0.00000E+00
 -1       945 5.52083E-02 2.50000E-02 0.00000E+00
 -1       946 5.62500E-02 2.50000E-02 0.00000E+00
 -1       947 5.72917E-02 2.50000E-02 0.00000E+00
 -1       948 5.83333E-02 2.50000E-02 0.00000E+00
 -1       949 5.93750E-02 2.50000E-02 0.00000E+00
 -1       950 6.04167E-02 2.50000E-02 0.00000E+00
 -1       951 6.14583E-02 2.50000E-02 0.00000E+00
 -1       952 6.25000E-02 2.50000E-02 0.00000E+00
 -1       953 6.35417E-02 2.50000E-02 0.00000E+00
 -1       954 6.45833E-02 2.50000E-02 0.00000E+00
 -1       955 6.56250E-02 2.50000E-02 0.00000E+00
 -1       956 6.77083E-02 2.50000E-02 0.00000E+00
 -1       957 6.87500E-02 2.50000E-02 0.00000E+00
 -1       958 6.97917E-02 2.50000E-02 0.00000E+00
 -1       959 7.08333E-02 2.50000E-02 0.00000E+00
 -1       960 7.18750E-02 2.50000E-02 0.00000E+00
 -1       961 7.29167E-02 2.50000E-02 0.00000E+00
 -1       962 7.39583E-02 2.50000E-02 0.00000E+00
 -1       963 7.50000E-02 2.50000E-02 0.00000E+00
 -1       964 7.60417E-02 2.50000E-02 0.00000E+00
 -1       965 7.70833E-02 2.50000E-02 0.00000E+00
 -1       966 7.81250E-02 2.50000E-02 0.00000E+00
 -1       967 7.91667E-02 2.50000E-02 0.00000E+00
 -1       968 8.02083E-02 2.50000E-02 0.00000E+00
 -1       969 8.12500E-02 2.50000E-02 0.00000E+00
 -1       970 8.22917E-02 2.50000E-02 0.00000E+00
 -1       971 8.43750E-02 2.50000E-02 0.00000E+00
 -1       972 8.54167E-02 2.50000E-02 0.00000E+00
 -1       973 8.64583E-02 2.50000E-02 0.00000E+00
 -1       974 8.75000E-02 2.50000E-02 0.00000E+00
 -1       975 8.85417E-02 2.50000E-02 0.00000E+00
 -1       976 8.95833E-02 2.50000E-02 0.00000E+00
 -1       977 9.06250E-02 2.50000E-02 0.00000E+00
 -1       978 9.16667E-02 2.50000E-02 0.00000E+00
 -1       979 9.27083E-02 2.50000E-02 0.00000E+00
 -1       980 9.37500E-02 2.50000E-02 0.00000E+00
 -1       981 9.47917E-02 2.50000E-02 0.00000E+00
 -1       982 9.58333E-02 2.50000E-02 0.00000E+00
 -1       983 9.68750E-02 2.50000E-02 0.00000E+00
 -1       984 9.79167E-02 2.50000E-02 0.00000E+00
 -1       985 9.89583E-02 2.50000E-02 0.00000E+00
 -3
    3C                           440                                     1
 -1         1   12    0    1
 -2         1        37        36
 -1         2   12    0    1
 -2        37        39        38
 -1         3   12    0    1
 -2        39        41        40
 -1         4   12    0    1
 -2        41        43        42
 -1         5   12    0    1
 -2        43        45        44
 -1         6   12    0    1
 -2        45        47        46
 -1         7   12    0    1
 -2        47        49        48
 -1         8   12    0    1
 -2        49         2        50
 -1         9   12    0    1
 -2         1        52        51
 -1        10   12    0    1
 -2        52        54        53
 -1        11   12    0    1
 -2        54         8        55
 -1        12   12    0    1
 -2         1        57        56
 -1        13   12    0    1
 -2        57        59        58
 -1        14   12    0    1
 -2        59        61        60
 -1        15   12    0    1
 -2        61        63        62
 -1        16   12    0    1
 -2        63        65        64
 -1        17   12    0    1
 -2        65        67        66
 -1        18   12    0    1
 -2        67        69        68
 -1        19   12    0    1
 -2        69         9        70
 -1        20   12    0    1
 -2         2        72        71
 -1        21   12    0    1
 -2        72        74        73
 -1        22   12    0    1
 -2        74        76        75
 -1        23   12    0    1
 -2        76        78        77
 -1        24   12    0    1
 -2        78        80        79
 -1        25   12    0    1
 -2        80        82        81
 -1        26   12    0    1
 -2        82        84        83
 -1        27   12    0    1
 -2        84         3        85
 -1        28   12    0    1
 -2         2        87        86
 -1        29   12    0    1
 -2        87        89        88
 -1        30   12    0    1
 -2        89         9        90
 -1        31   12    0    1
 -2         2        92        91
 -1        32   12    0    1
 -2        92        94        93
 -1        33   12    0    1
 -2        94        96        95
 -1        34   12    0    1
 -2        96        98        97
 -1        35   12    0    1
 -2        98       100        99
 -1        36   12    0    1
 -2       100       102       101
 -1        37   12    0    1
 -2       102       104       103
 -1        38   12    0    1
 -2       104        10       105
 -1        39   12    0    1
 -2         3       107       106
 -1        40   12    0    1
 -2       107       109       108
 -1        41   12    0    1
 -2       109       111       110
 -1        42   12    0    1
 -2       111       113       112
 -1        43   12    0    1
 -2       113       115       114
 -1        44   12    0    1
 -2       115       117       116
 -1        45   12    0    1
 -2       117       119       118
 -1        46   12    0    1
 -2       119         4       120
 -1        47   12    0    1
 -2         3       122       121
 -1        48   12    0    1
 -2       122       124       123
 -1        49   12    0    1
 -2       124        10       125
 -1        50   12    0    1
 -2         3       127       126
 -1        51   12    0    1
 -2       127       129       128
 -1        52   12    0    1
 -2       129       131       130
 -1        53   12    0    1
 -2       131       133       132
 -1        54   12    0    1
 -2       133       135       134
 -1        55   12    0    1
 -2       135       137       136
 -1        56   12    0    1
 -2       137       139       138
 -1        57   12    0    1
 -2       139        11       140
 -1        58   12    0    1
 -2         4       142       141
 -1        59   12    0    1
 -2       142       144       143
 -1        60   12    0    1
 -2       144       146       145
 -1        61   12    0    1
 -2       146       148       147
 -1        62   12    0    1
 -2       148       150       149
 -1        63   12    0    1
 -2       150       152       151
 -1        64   12    0    1
 -2       152       154       153
 -1        65   12    0    1
 -2       154         5       155
 -1        66   12    0    1
 -2         4       157       156
 -1        67   12    0    1
 -2       157       159       158
 -1        68   12    0    1
 -2       159        11       160
 -1        69   12    0    1
 -2         4       162       161
 -1        70   12    0    1
 -2       162       164       163
 -1        71   12    0    1
 -2       164       166       165
 -1        72   12    0    1
 -2       166       168       167
 -1        73   12    0    1
 -2       168       170       169
 -1        74   12    0    1
 -2       170       172       171
 -1        75   12    0    1
 -2       172       174       173
 -1        76   12    0    1
 -2       174        12       175
 -1        77   12    0    1
 -2         5       192       191
 -1        78   12    0    1
 -2       192       194       193
 -1        79   12    0    1
 -2       194        12       195
 -1        80   12    0    1
 -2         8       252       251
 -1        81   12    0    1
 -2       252       254       253
 -1        82   12    0    1
 -2       254       256       255
 -1        83   12    0    1
 -2       256       258       257
 -1        84   12    0    1
 -2       258       260       259
 -1        85   12    0    1
 -2       260       262       261
 -1        86   12    0    1
 -2       262       264       263
 -1        87   12    0    1
 -2       264         9       265
 -1        88   12    0    1
 -2         8       267       266
 -1        89   12    0    1
 -2       267       269       268
 -1        90   12    0    1
 -2       269        15       270
 -1        91   12    0    1
 -2         8       272       271
 -1        92   12    0    1
 -2       272       274       273
 -1        93   12    0    1
 -2       274       276       275
 -1        94   12    0    1
 -2       276       278       277
 -1        95   12    0    1
 -2       278       280       279
 -1        96   12    0    1
 -2       280       282       281
 -1        97   12    0    1
 -2       282       284       283
 -1        98   12    0    1
 -2       284        16       285
 -1        99   12    0    1
 -2         9       287       286
 -1       100   12    0    1
 -2       287       289       288
 -1       101   12    0    1
 -2       289       291       290
 -1       102   12    0    1
 -2       291       293       292
 -1       103   12    0    1
 -2       293       295       294
 -1       104   12    0    1
 -2       295       297       296
 -1       105   12    0    1
 -2       297       299       298
 -1       106   12    0    1
 -2       299        10       300
 -1       107   12    0    1
 -2         9       302       301
 -1       108   12    0    1
 -2       302       304       303
 -1       109   12    0    1
 -2       304        16       305
 -1       110   12    0    1
 -2         9       307       306
 -1       111   12    0    1
 -2       307       309       308
 -1       112   12    0    1
 -2       309       311       310
 -1       113   12    0    1
 -2       311       313       312
 -1       114   12    0    1
 -2       313       315       314
 -1       115   12    0    1
 -2       315       317       316
 -1       116   12    0    1
 -2       317       319       318
 -1       117   12    0    1
 -2       319        17       320
 -1       118   12    0    1
 -2        10       322       321
 -1       119   12    0    1
 -2       322       324       323
 -1       120   12    0    1
 -2       324       326       325
 -1       121   12    0    1
 -2       326       328       327
 -1       122   12    0    1
 -2       328       330       329
 -1       123   12    0    1
 -2       330       332       331
 -1       124   12    0    1
 -2       332       334       333
 -1       125   12    0    1
 -2       334        11       335
 -1       126   12    0    1
 -2        10       337       336
 -1       127   12    0    1
 -2       337       339       338
 -1       128   12    0    1
 -2       339        17       340
 -1       129   12    0    1
 -2        10       342       341
 -1       130   12    0    1
 -2       342       344       343
 -1       131   12    0    1
 -2       344       346       345
 -1       132   12    0    1
 -2       346       348       347
 -1       133   12    0    1
 -2       348       350       349
 -1       134   12    0    1
 -2       350       352       351
 -1       135   12    0    1
 -2       352       354       353
 -1       136   12    0    1
 -2       354        18       355
 -1       137   12    0    1
 -2        11       357       356
 -1       138   12    0    1
 -2       357       359       358
 -1       139   12    0    1
 -2       359       361       360
 -1       140   12    0    1
 -2       361       363       362
 -1       141   12    0    1
 -2       363       365       364
 -1       142   12    0    1
 -2       365       367       366
 -1       143   12    0    1
 -2       367       369       368
 -1       144   12    0    1
 -2       369        12       370
 -1       145   12    0    1
 -2        11       372       371
 -1       146   12    0    1
 -2       372       374       373
 -1       147   12    0    1
 -2       374        18       375
 -1       148   12    0    1
 -2        11       377       376
 -1       149   12    0    1
 -2       377       379       378
 -1       150   12    0    1
 -2       379       381       380
 -1       151   12    0    1
 -2       381       383       382
 -1       152   12    0    1
 -2       383       385       384
 -1       153   12    0    1
 -2       385       387       386
 -1       154   12    0    1
 -2       387       389       388
 -1       155   12    0    1
 -2       389        19       390
 -1       156   12    0    1
 -2        12       407       406
 -1       157   12    0    1
 -2       407       409       408
 -1       158   12    0    1
 -2       409        19       410
 -1       159   12    0    1
 -2        15       467       466
 -1       160   12    0    1
 -2       467       469       468
 -1       161   12    0    1
 -2       469       471       470
 -1       162   12    0    1
 -2       471       473       472
 -1       163   12    0    1
 -2       473       475       474
 -1       164   12    0    1
 -2       475       477       476
 -1       165   12    0    1
 -2       477       479       478
 -1       166   12    0    1
 -2       479        16       480
 -1       167   12    0    1
 -2        15       482       481
 -1       168   12    0    1
 -2       482       484       483
 -1       169   12    0    1
 -2       484        22       485
 -1       170   12    0    1
 -2        15       487       486
 -1       171   12    0    1
 -2       487       489       488
 -1       172   12    0    1
 -2       489       491       490
 -1       173   12    0    1
 -2       491       493       492
 -1       174   12    0    1
 -2       493       495       494
 -1       175   12    0    1
 -2       495       497       496
 -1       176   12    0    1
 -2       497       499       498
 -1       177   12    0    1
 -2       499        23       500
 -1       178   12    0    1
 -2        16       502       501
 -1       179   12    0    1
 -2       502       504       503
 -1       180   12    0    1
 -2       504       506       505
 -1       181   12    0    1
 -2       506       508       507
 -1       182   12    0    1
 -2       508       510       509
 -1       183   12    0    1
 -2       510       512       511
 -1       184   12    0    1
 -2       512       514       513
 -1       185   12    0    1
 -2       514        17       515
 -1       186   12    0    1
 -2        16       517       516
 -1       187   12    0    1
 -2       517       519       518
 -1       188   12    0    1
 -2       519        23       520
 -1       189   12    0    1
 -2        16       522       521
 -1       190   12    0    1
 -2       522       524       523
 -1       191   12    0    1
 -2       524       526       525
 -1       192   12    0    1
 -2       526       528       527
 -1       193   12    0    1
 -2       528       530       529
 -1       194   12    0    1
 -2       530       532       531
 -1       195   12    0    1
 -2       532       534       533
 -1       196   12    0    1
 -2       534        24       535
 -1       197   12    0    1
 -2        17       537       536
 -1       198   12    0    1
 -2       537       539       538
 -1       199   12    0    1
 -2       539       541       540
 -1       200   12    0    1
 -2       541       543       542
 -1       201   12    0    1
 -2       543       545       544
 -1       202   12    0    1
 -2       545       547       546
 -1       203   12    0    1
 -2       547       549       548
 -1       204   12    0    1
 -2       549        18       550
 -1       205   12    0    1
 -2        17       552       551
 -1       206   12    0    1
 -2       552       554       553
 -1       207   12    0    1
 -2       554        24       555
 -1       208   12    0    1
 -2        17       557       556
 -1       209   12    0    1
 -2       557       559       558
 -1       210   12    0    1
 -2       559       561       560
 -1       211   12    0    1
 -2       561       563       562
 -1       212   12    0    1
 -2       563       565       564
 -1       213   12    0    1
 -2       565       567       566
 -1       214   12    0    1
 -2       567       569       568
 -1       215   12    0    1
 -2       569        25       570
 -1       216   12    0    1
 -2        18       572       571
 -1       217   12    0    1
 -2       572       574       573
 -1       218   12    0    1
 -2       574       576       575
 -1       219   12    0    1
 -2       576       578       577
 -1       220   12    0    1
 -2       578       580       579
 -1       221   12    0    1
 -2       580       582       581
 -1       222   12    0    1
 -2       582       584       583
 -1       223   12    0    1
 -2       584        19       585
 -1       224   12    0    1
 -2        18       587       586
 -1       225   12    0    1
 -2       587       589       588
 -1       226   12    0    1
 -2       589        25       590
 -1       227   12    0    1
 -2        18       592       591
 -1       228   12    0    1
 -2       592       594       593
 -1       229   12    0    1
 -2       594       596       595
 -1       230   12    0    1
 -2       596       598       597
 -1       231   12    0    1
 -2       598       600       599
 -1       232   12    0    1
 -2       600       602       601
 -1       233   12    0    1
 -2       602       604       603
 -1       234   12    0    1
 -2       604        26       605
 -1       235   12    0    1
 -2        19       607       606
 -1       236   12    0    1
 -2       607       609       608
 -1       237   12    0    1
 -2       609       611       610
 -1       238   12    0    1
 -2       611       613       612
 -1       239   12    0    1
 -2       613       615       614
 -1       240   12    0    1
 -2       615       617       616
 -1       241   12    0    1
 -2       617       619       618
 -1       242   12    0    1
 -2       619        20       620
 -1       243   12    0    1
 -2        19       622       621
 -1       244   12    0    1
 -2       622       624       623
 -1       245   12    0    1
 -2       624        26       625
 -1       246   12    0    1
 -2        19       627       626
 -1       247   12    0    1
 -2       627       629       628
 -1       248   12    0    1
 -2       629       631       630
 -1       249   12    0    1
 -2       631       633       632
 -1       250   12    0    1
 -2       633       635       634
 -1       251   12    0    1
 -2       635       637       636
 -1       252   12    0    1
 -2       637       639       638
 -1       253   12    0    1
 -2       639        27       640
 -1       254   12    0    1
 -2        20       642       641
 -1       255   12    0    1
 -2       642       644       643
 -1       256   12    0    1
 -2       644       646       645
 -1       257   12    0    1
 -2       646       648       647
 -1       258   12    0    1
 -2       648       650       649
 -1       259   12    0    1
 -2       650       652       651
 -1       260   12    0    1
 -2       652       654       653
 -1       261   12    0    1
 -2       654        21       655
 -1       262   12    0    1
 -2        20       657       656
 -1       263   12    0    1
 -2       657       659       658
 -1       264   12    0    1
 -2       659        27       660
 -1       265   12    0    1
 -2        20       662       661
 -1       266   12    0    1
 -2       662       664       663
 -1       267   12    0    1
 -2       664       666       665
 -1       268   12    0    1
 -2       666       668       667
 -1       269   12    0    1
 -2       668       670       669
 -1       270   12    0    1
 -2       670       672       671
 -1       271   12    0    1
 -2       672       674       673
 -1       272   12    0    1
 -2       674        28       675
 -1       273   12    0    1
 -2        21       677       676
 -1       274   12    0    1
 -2       677       679       678
 -1       275   12    0    1
 -2       679        28       680
 -1       276   12    0    1
 -2        22       682       681
 -1       277   12    0    1
 -2       682       684       683
 -1       278   12    0    1
 -2       684       686       685
 -1       279   12    0    1
 -2       686       688       687
 -1       280   12    0    1
 -2       688       690       689
 -1       281   12    0    1
 -2       690       692       691
 -1       282   12    0    1
 -2       692       694       693
 -1       283   12    0    1
 -2       694        23       695
 -1       284   12    0    1
 -2        22       697       696
 -1       285   12    0    1
 -2       697       699       698
 -1       286   12    0    1
 -2       699        29       700
 -1       287   12    0    1
 -2        22       702       701
 -1       288   12    0    1
 -2       702       704       703
 -1       289   12    0    1
 -2       704       706       705
 -1       290   12    0    1
 -2       706       708       707
 -1       291   12    0    1
 -2       708       710       709
 -1       292   12    0    1
 -2       710       712       711
 -1       293   12    0    1
 -2       712       714       713
 -1       294   12    0    1
 -2       714        30       715
 -1       295   12    0    1
 -2        23       717       716
 -1       296   12    0    1
 -2       717       719       718
 -1       297   12    0    1
 -2       719       721       720
 -1       298   12    0    1
 -2       721       723       722
 -1       299   12    0    1
 -2       723       725       724
 -1       300   12    0    1
 -2       725       727       726
 -1       301   12    0    1
 -2       727       729       728
 -1       302   12    0    1
 -2       729        24       730
 -1       303   12    0    1
 -2        23       732       731
 -1       304   12    0    1
 -2       732       734       733
 -1       305   12    0    1
 -2       734        30       735
 -1       306   12    0    1
 -2        23       737       736
 -1       307   12    0    1
 -2       737       739       738
 -1       308   12    0    1
 -2       739       741       740
 -1       309   12    0    1
 -2       741       743       742
 -1       310   12    0    1
 -2       743       745       744
 -1       311   12    0    1
 -2       745       747       746
 -1       312   12    0    1
 -2       747       749       748
 -1       313   12    0    1
 -2       749        31       750
 -1       314   12    0    1
 -2        24       752       751
 -1       315   12    0    1
 -2       752       754       753
 -1       316   12    0    1
 -2       754       756       755
 -1       317   12    0    1
 -2       756       758       757
 -1       318   12    0    1
 -2       758       760       759
 -1       319   12    0    1
 -2       760       762       761
 -1       320   12    0    1
 -2       762       764       763
 -1       321   12    0    1
 -2       764        25       765
 -1       322   12    0    1
 -2        24       767       766
 -1       323   12    0    1
 -2       767       769       768
 -1       324   12    0    1
 -2       769        31       770
 -1       325   12    0    1
 -2        24       772       771
 -1       326   12    0    1
 -2       772       774       773
 -1       327   12    0    1
 -2       774       776       775
 -1       328   12    0    1
 -2       776       778       777
 -1       329   12    0    1
 -2       778       780       779
 -1       330   12    0    1
 -2       780       782       781
 -1       331   12    0    1
 -2       782       784       783
 -1       332   12    0    1
 -2       784        32       785
 -1       333   12    0    1
 -2        25       787       786
 -1       334   12    0    1
 -2       787       789       788
 -1       335   12    0    1
 -2       789       791       790
 -1       336   12    0    1
 -2       791       793       792
 -1       337   12    0    1
 -2       793       795       794
 -1       338   12    0    1
 -2       795       797       796
 -1       339   12    0    1
 -2       797       799       798
 -1       340   12    0    1
 -2       799        26       800
 -1       341   12    0    1
 -2        25       802       801
 -1       342   12    0    1
 -2       802       804       803
 -1       343   12    0    1
 -2       804        32       805
 -1       344   12    0    1
 -2        25       807       806
 -1       345   12    0    1
 -2       807       809       808
 -1       346   12    0    1
 -2       809       811       810
 -1       347   12    0    1
 -2       811       813       812
 -1       348   12    0    1
 -2       813       815       814
 -1       349   12    0    1
 -2       815       817       816
 -1       350   12    0    1
 -2       817       819       818
 -1       351   12    0    1
 -2       819        33       820
 -1       352   12    0    1
 -2        26       822       821
 -1       353   12    0    1
 -2       822       824       823
 -1       354   12    0    1
 -2       824       826       825
 -1       355   12    0    1
 -2       826       828       827
 -1       356   12    0    1
 -2       828       830       829
 -1       357   12    0    1
 -2       830       832       831
 -1       358   12    0    1
 -2       832       834       833
 -1       359   12    0    1
 -2       834        27       835
 -1       360   12    0    1
 -2        26       837       836
 -1       361   12    0    1
 -2       837       839       838
 -1       362   12    0    1
 -2       839        33       840
 -1       363   12    0    1
 -2        26       842       841
 -1       364   12    0    1
 -2       842       844       843
 -1       365   12    0    1
 -2       844       846       845
 -1       366   12    0    1
 -2       846       848       847
 -1       367   12    0    1
 -2       848       850       849
 -1       368   12    0    1
 -2       850       852       851
 -1       369   12    0    1
 -2       852       854       853
 -1       370   12    0    1
 -2       854        34       855
 -1       371   12    0    1
 -2        27       857       856
 -1       372   12    0    1
 -2       857       859       858
 -1       373   12    0    1
 -2       859       861       860
 -1       374   12    0    1
 -2       861       863       862
 -1       375   12    0    1
 -2       863       865       864
 -1       376   12    0    1
 -2       865       867       866
 -1       377   12    0    1
 -2       867       869       868
 -1       378   12    0    1
 -2       869        28       870
 -1       379   12    0    1
 -2        27       872       871
 -1       380   12    0    1
 -2       872       874       873
 -1       381   12    0    1
 -2       874        34       875
 -1       382   12    0    1
 -2        27       877       876
 -1       383   12    0    1
 -2       877       879       878
 -1       384   12    0    1
 -2       879       881       880
 -1       385   12    0    1
 -2       881       883       882
 -1       386   12    0    1
 -2       883       885       884
 -1       387   12    0    1
 -2       885       887       886
 -1       388   12    0    1
 -2       887       889       888
 -1       389   12    0    1
 -2       889        35       890
 -1       390   12    0    1
 -2        28       892       891
 -1       391   12    0    1
 -2       892       894       893
 -1       392   12    0    1
 -2       894        35       895
 -1       393   12    0    1
 -2        29       897       896
 -1       394   12    0    1
 -2       897       899       898
 -1       395   12    0    1
 -2       899       901       900
 -1       396   12    0    1
 -2       901       903       902
 -1       397   12    0    1
 -2       903       905       904
 -1       398   12    0    1
 -2       905       907       906
 -1       399   12    0    1
 -2       907       909       908
 -1       400   12    0    1
 -2       909        30       910
 -1       401   12    0    1
 -2        30       912       911
 -1       402   12    0    1
 -2       912       914       913
 -1       403   12    0    1
 -2       914       916       915
 -1       404   12    0    1
 -2       916       918       917
 -1       405   12    0    1
 -2       918       920       919
 -1       406   12    0    1
 -2       920       922       921
 -1       407   12    0    1
 -2       922       924       923
 -1       408   12    0    1
 -2       924        31       925
 -1       409   12    0    1
 -2        31       927       926
 -1       410   12    0    1
 -2       927       929       928
 -1       411   12    0    1
 -2       929       931       930
 -1       412   12    0    1
 -2       931       933       932
 -1       413   12    0    1
 -2       933       935       934
 -1       414   12    0    1
 -2       935       937       936
 -1       415   12    0    1
 -2       937       939       938
 -1       416   12    0    1
 -2       939        32       940
 -1       417   12    0    1
 -2        32       942       941
 -1       418   12    0    1
 -2       942       944       943
 -1       419   12    0    1
 -2       944       946       945
 -1       420   12    0    1
 -2       946       948       947
 -1       421   12    0    1
 -2       948       950       949
 -1       422   12    0    1
 -2       950       952       951
 -1       423   12    0    1
 -2       952       954       953
 -1       424   12    0    1
 -2       954        33       955
 -1       425   12    0    1
 -2        33       957       956
 -1       426   12    0    1
 -2       957       959       958
 -1       427   12    0    1
 -2       959       961       960
 -1       428   12    0    1
 -2       961       963       962
 -1       429   12    0    1
 -2       963       965       964
 -1       430   12    0    1
 -2       965       967       966
 -1       431   12    0    1
 -2       967       969       968
 -1       432   12    0    1
 -2       969        34       970
 -1       433   12    0    1
 -2        34       972       971
 -1       434   12    0    1
 -2       972       974       973
 -1       435   12    0    1
 -2       974       976       975
 -1       436   12    0    1
 -2       976       978       977
 -1       437   12    0    1
 -2       978       980       979
 -1       438   12    0    1
 -2       980       982       981
 -1       439   12    0    1
 -2       982       984       983
 -1       440   12    0    1
 -2       984        35       985
 -3
    1PSTEP                         1           1           1          
  100CL  101 1.000000000         841                     0    1           1
 -4  DISP        4    1
 -5  D1          1    2    1    0
 -5  D2          1    2    2    0
 -5  D3          1    2    3    0
 -5  ALL         1    2    0    0    1ALL
 -1         1 1.11531E-04 0.00000E+00 0.00000E+00
 -1         2 8.54195E-05 0.00000E+00 0.00000E+00
 -1         3 7.39663E-05 0.00000E+00 0.00000E+00
 -1         4 6.95536E-05 0.00000E+00 0.00000E+00
 -1         5 6.86732E-05 0.00000E+00 0.00000E+00
 -1         8 8.41617E-05-1.06146E-06 0.00000E+00
 -1         9 7.49444E-05 1.61006E-06 0.00000E+00
 -1        10 6.94644E-05-6.09548E-06 0.00000E+00
 -1        11 6.58413E-05-1.36841E-06 0.00000E+00
 -1        12 6.43220E-05 2.69283E-06 0.00000E+00
 -1        15 3.10486E-05-2.16601E-06 0.00000E+00
 -1        16 4.16477E-05 1.79062E-06 0.00000E+00
 -1        17 4.15440E-05-1.20715E-05 0.00000E+00
 -1        18 4.83134E-05-2.51144E-06 0.00000E+00
 -1        19 5.27515E-05 5.27946E-06 0.00000E+00
 -1        20 5.37065E-05 5.57113E-05 0.00000E+00
 -1        21 5.35635E-05 1.38127E-04 0.00000E+00
 -1        22 1.16694E-05-1.35681E-06 0.00000E+00
 -1        23 1.52544E-05 2.36540E-06 0.00000E+00
 -1        24 1.73904E-05-1.29903E-05 0.00000E+00
 -1        25 3.40821E-05-2.16608E-06 0.00000E+00
 -1        26 4.20585E-05 6.71056E-06 0.00000E+00
 -1        27 3.67213E-05 5.37305E-05 0.00000E+00
 -1        28 3.06465E-05 1.36250E-04 0.00000E+00
 -1        29 0.00000E+00 0.00000E+00 0.00000E+00
 -1        30 5.86302E-06 2.83773E-06 0.00000E+00
 -1        31 8.03504E-06-1.16028E-05 0.00000E+00
 -1        32 0.00000E+00 0.00000E+00 0.00000E+00
 -1        33 2.23431E-05 1.26559E-05 0.00000E+00
 -1        34 2.09537E-05 5.36483E-05 0.00000E+00
 -1        35 1.39443E-05 1.35270E-04 0.00000E+00
 -1        36 1.09947E-04 1.26592E-20-2.64698E-23
 -1        37 1.08315E-04 1.82807E-20-2.64698E-23
 -1        38 1.06685E-04-2.56393E-20-5.29396E-23
 -1        39 1.05047E-04-7.43536E-20 0.00000E+00
 -1        40 1.03408E-04-1.24471E-19 0.00000E+00
 -1        41 1.01768E-04-1.50070E-19 2.64698E-23
 -1        42 1.00127E-04-1.51718E-19 0.00000E+00
 -1        43 9.84861E-05-1.39625E-19-2.64698E-23
 -1        44 9.68451E-05-1.20285E-19 5.29396E-23
 -1        45 9.52042E-05-9.84444E-20 0.00000E+00
 -1        46 9.35636E-05-7.51245E-20 5.29396E-23
 -1        47 9.19242E-05-3.72661E-20 2.64698E-23
 -1        48 9.02852E-05-3.85135E-21 0.00000E+00
 -1        49 8.86524E-05 5.36675E-21 0.00000E+00
 -1        50 8.70180E-05-4.04988E-21-2.64698E-23
 -1        51 1.09642E-04-1.83082E-07 0.00000E+00
 -1        52 1.06304E-04-3.53874E-07 0.00000E+00
 -1        53 1.01797E-04-5.24187E-07 0.00000E+00
 -1        54 9.64095E-05-6.96861E-07 0.00000E+00
 -1        55 9.04336E-05-8.73695E-07 0.00000E+00
 -1        56 1.09742E-04-1.03617E-06 5.29396E-23
 -1        57 1.08102E-04-2.66267E-06-2.64698E-23
 -1        58 1.06618E-04-4.69628E-06 0.00000E+00
 -1        59 1.05210E-04-6.96710E-06 0.00000E+00
 -1        60 1.03819E-04-9.28139E-06 5.29396E-23
 -1        61 1.02370E-04-1.14480E-05 0.00000E+00
 -1        62 1.00797E-04-1.32845E-05 0.00000E+00
 -1        63 9.90377E-05-1.46219E-05 0.00000E+00
 -1        64 9.70398E-05-1.53231E-05 0.00000E+00
 -1        65 9.47612E-05-1.52760E-05-2.64698E-23
 -1        66 9.21772E-05-1.44165E-05 0.00000E+00
 -1        67 8.92767E-05-1.27117E-05 2.64698E-23
 -1        68 8.60656E-05-1.01840E-05 0.00000E+00
 -1        69 8.25747E-05-6.88319E-06 0.00000E+00
 -1        70 7.88273E-05-2.91790E-06-2.64698E-23
 -1        71 8.47008E-05-3.92580E-21-2.64698E-23
 -1        72 8.39844E-05 8.81775E-21-1.32349E-23
 -1        73 8.32678E-05 4.96639E-21 2.64698E-23
 -1        74 8.25517E-05-1.16235E-20-1.32349E-23
 -1        75 8.18355E-05-2.33927E-21 0.00000E+00
 -1        76 8.11195E-05-2.28964E-21 1.32349E-23
 -1        77 8.04034E-05-5.31215E-21 0.00000E+00
 -1        78 7.96874E-05-1.48446E-20 1.32349E-23
 -1        79 7.89714E-05-3.51998E-20 2.64698E-23
 -1        80 7.82554E-05-3.01607E-20 1.32349E-23
 -1        81 7.75395E-05-8.43228E-21-2.64698E-23
 -1        82 7.68237E-05-5.74725E-21-1.32349E-23
 -1        83 7.61079E-05 5.78861E-21-2.64698E-23
 -1        84 7.53928E-05-1.02570E-21 0.00000E+00
 -1        85 7.46776E-05 1.01412E-21 0.00000E+00
 -1        86 8.53940E-05 2.38926E-07 0.00000E+00
 -1        87 8.51216E-05 5.20497E-07 5.16988E-26
 -1        88 8.42747E-05 7.99358E-07 0.00000E+00
 -1        89 8.25225E-05 1.08024E-06 1.65436E-24
 -1        90 7.95272E-05 1.35996E-06 8.27181E-25
 -1        91 8.44708E-05-4.81491E-07 0.00000E+00
 -1        92 8.35871E-05-1.16601E-06 0.00000E+00
 -1        93 8.27627E-05-2.00713E-06 2.64698E-23
 -1        94 8.19783E-05-2.95979E-06 1.32349E-23
 -1        95 8.12168E-05-3.97399E-06 0.00000E+00
 -1        96 8.04590E-05-4.99910E-06 0.00000E+00
 -1        97 7.96863E-05-5.98410E-06 0.00000E+00
 -1        98 7.88796E-05-6.87894E-06-1.32349E-23
 -1        99 7.80215E-05-7.63631E-06 0.00000E+00
 -1       100 7.70953E-05-8.21168E-06 0.00000E+00
 -1       101 7.60864E-05-8.56648E-06-2.64698E-23
 -1       102 7.49822E-05-8.66638E-06 1.32349E-23
 -1       103 7.37727E-05-8.48553E-06 0.00000E+00
 -1       104 7.24516E-05-8.00303E-06 1.32349E-23
 -1       105 7.10128E-05-7.20903E-06 2.64698E-23
 -1       106 7.36748E-05-1.24342E-20 0.00000E+00
 -1       107 7.33975E-05-1.35385E-20 0.00000E+00
 -1       108 7.31195E-05-3.89602E-22 0.00000E+00
 -1       109 7.28441E-05 1.05929E-20 0.00000E+00
 -1       110 7.25688E-05 2.17309E-20 0.00000E+00
 -1       111 7.22939E-05 2.57576E-20 0.00000E+00
 -1       112 7.20192E-05 3.06264E-20 0.00000E+00
 -1       113 7.17446E-05 3.98908E-20 0.00000E+00
 -1       114 7.14700E-05 4.75629E-20-6.61744E-24
 -1       115 7.11955E-05 5.21968E-20-3.30872E-24
 -1       116 7.09209E-05 4.87673E-20 0.00000E+00
 -1       117 7.06465E-05 2.15406E-20 3.30872E-24
 -1       118 7.03722E-05 2.27930E-20 6.61744E-24
 -1       119 7.00984E-05 3.40559E-20 0.00000E+00
 -1       120 6.98244E-05 1.43474E-20 6.61744E-24
 -1       121 7.38667E-05-1.00341E-06-2.64698E-23
 -1       122 7.35452E-05-2.02309E-06 0.00000E+00
 -1       123 7.29686E-05-3.04198E-06 2.64698E-23
 -1       124 7.21089E-05-4.06219E-06-1.32349E-23
 -1       125 7.09456E-05-5.08341E-06 2.64698E-23
 -1       126 7.35104E-05-2.45647E-07 1.32349E-23
 -1       127 7.31040E-05-6.04734E-07 0.00000E+00
 -1       128 7.27299E-05-1.05084E-06 1.32349E-23
 -1       129 7.23782E-05-1.55383E-06-6.61744E-24
 -1       130 7.20366E-05-2.08348E-06-1.32349E-23
 -1       131 7.16935E-05-2.60891E-06 0.00000E+00
 -1       132 7.13375E-05-3.09950E-06 1.32349E-23
 -1       133 7.09571E-05-3.52489E-06 0.00000E+00
 -1       134 7.05413E-05-3.85569E-06 0.00000E+00
 -1       135 7.00793E-05-4.06341E-06 0.00000E+00
 -1       136 6.95613E-05-4.12143E-06 0.00000E+00
 -1       137 6.89779E-05-4.00449E-06 6.61744E-24
 -1       138 6.83204E-05-3.69015E-06-1.32349E-23
 -1       139 6.75822E-05-3.15736E-06 0.00000E+00
 -1       140 6.67552E-05-2.38941E-06 1.32349E-23
 -1       141 6.94901E-05-4.12861E-21 3.30872E-24
 -1       142 6.94326E-05 6.98554E-21 1.65436E-24
 -1       143 6.93747E-05 3.32010E-21 0.00000E+00
 -1       144 6.93179E-05 7.06681E-21 0.00000E+00
 -1       145 6.92612E-05 1.42017E-20 0.00000E+00
 -1       146 6.92046E-05 8.17503E-21-8.27181E-25
 -1       147 6.91481E-05 1.26652E-20-1.65436E-24
 -1       148 6.90917E-05 7.74717E-21 0.00000E+00
 -1       149 6.90354E-05-2.07509E-20 0.00000E+00
 -1       150 6.89791E-05-3.64669E-20 0.00000E+00
 -1       151 6.89230E-05-3.79190E-20 0.00000E+00
 -1       152 6.88675E-05-3.74176E-20-4.13590E-25
 -1       153 6.88123E-05-2.57247E-20 0.00000E+00
 -1       154 6.87603E-05-4.43594E-21 0.00000E+00
 -1       155 6.87074E-05-1.05718E-20 0.00000E+00
 -1       156 6.94634E-05-2.25921E-07-6.61744E-24
 -1       157 6.91825E-05-4.53171E-07 0.00000E+00
 -1       158 6.86946E-05-6.80496E-07 0.00000E+00
 -1       159 6.79843E-05-9.08667E-07 0.00000E+00
 -1       160 6.70375E-05-1.13691E-06 0.00000E+00
 -1       161 6.93352E-05-1.24129E-07 0.00000E+00
 -1       162 6.91386E-05-3.10879E-07 3.30872E-24
 -1       163 6.89571E-05-5.37761E-07 0.00000E+00
 -1       164 6.87821E-05-7.82771E-07-3.30872E-24
 -1       165 6.86056E-05-1.02355E-06-6.61744E-24
 -1       166 6.84190E-05-1.23785E-06 0.00000E+00
 -1       167 6.82143E-05-1.40364E-06 6.61744E-24
 -1       168 6.79833E-05-1.49912E-06 3.30872E-24
 -1       169 6.77179E-05-1.50301E-06 0.00000E+00
 -1       170 6.74105E-05-1.39444E-06 0.00000E+00
 -1       171 6.70536E-05-1.15342E-06 0.00000E+00
 -1       172 6.66404E-05-7.60354E-07-3.30872E-24
 -1       173 6.61635E-05-1.97230E-07 0.00000E+00
 -1       174 6.56205E-05 5.54875E-07 0.00000E+00
 -1       175 6.49997E-05 1.50989E-06 0.00000E+00
 -1       191 6.85305E-05 4.47676E-07 0.00000E+00
 -1       192 6.81483E-05 8.97623E-07 0.00000E+00
 -1       193 6.75305E-05 1.34793E-06 0.00000E+00
 -1       194 6.66827E-05 1.79797E-06 0.00000E+00
 -1       195 6.56107E-05 2.24711E-06 0.00000E+00
 -1       251 8.35863E-05 3.30296E-06 0.00000E+00
 -1       252 8.30088E-05 6.01557E-06 0.00000E+00
 -1       253 8.24345E-05 7.27392E-06-1.32349E-23
 -1       254 8.18596E-05 7.29128E-06-6.61744E-24
 -1       255 8.12842E-05 6.30049E-06 1.32349E-23
 -1       256 8.07075E-05 4.54508E-06-6.61744E-24
 -1       257 8.01299E-05 2.28066E-06 0.00000E+00
 -1       258 7.95517E-05-2.31717E-07 0.00000E+00
 -1       259 7.89735E-05-2.72717E-06 0.00000E+00
 -1       260 7.83960E-05-4.94092E-06 0.00000E+00
 -1       261 7.78196E-05-6.61266E-06 0.00000E+00
 -1       262 7.72444E-05-7.48785E-06-6.61744E-24
 -1       263 7.66696E-05-7.32452E-06 0.00000E+00
 -1       264 7.60956E-05-5.89174E-06-6.61744E-24
 -1       265 7.55180E-05-2.97851E-06-1.32349E-23
 -1       266 7.73244E-05-1.23994E-06 0.00000E+00
 -1       267 6.80385E-05-1.42688E-06 0.00000E+00
 -1       268 5.75343E-05-1.62527E-06 6.61744E-24
 -1       269 4.70458E-05-1.82095E-06 1.65436E-24
 -1       270 3.78073E-05-2.00535E-06 3.30872E-24
 -1       271 8.02201E-05 2.74662E-06 0.00000E+00
 -1       272 7.66673E-05 5.29221E-06 0.00000E+00
 -1       273 7.35806E-05 6.61728E-06-5.29396E-23
 -1       274 7.09161E-05 6.78174E-06 0.00000E+00
 -1       275 6.86283E-05 5.94160E-06-5.29396E-23
 -1       276 6.66406E-05 4.29300E-06-2.64698E-23
 -1       277 6.48587E-05 2.09319E-06-5.29396E-23
 -1       278 6.31771E-05-3.76309E-07 0.00000E+00
 -1       279 6.14836E-05-2.81387E-06-5.29396E-23
 -1       280 5.96665E-05-4.91920E-06-2.64698E-23
 -1       281 5.76225E-05-6.41707E-06 5.29396E-23
 -1       282 5.52607E-05-7.05906E-06 0.00000E+00
 -1       283 5.25088E-05-6.66110E-06 0.00000E+00
 -1       284 4.93274E-05-5.08043E-06 0.00000E+00
 -1       285 4.56767E-05-2.27296E-06 5.29396E-23
 -1       286 7.45959E-05 6.28539E-06-1.32349E-23
 -1       287 7.42529E-05 9.43897E-06 6.61744E-24
 -1       288 7.39132E-05 1.12266E-05 0.00000E+00
 -1       289 7.35747E-05 1.18131E-05-6.61744E-24
 -1       290 7.32365E-05 1.13741E-05 1.32349E-23
 -1       291 7.28975E-05 1.00920E-05 6.61744E-24
 -1       292 7.25575E-05 8.15679E-06-1.32349E-23
 -1       293 7.22166E-05 5.76264E-06-6.61744E-24
 -1       294 7.18750E-05 3.10796E-06 0.00000E+00
 -1       295 7.15331E-05 3.92809E-07 0.00000E+00
 -1       296 7.11915E-05-2.18226E-06 0.00000E+00
 -1       297 7.08500E-05-4.41749E-06-6.61744E-24
 -1       298 7.05093E-05-6.11632E-06 1.32349E-23
 -1       299 7.01664E-05-7.08555E-06-6.61744E-24
 -1       300 6.98247E-05-7.13879E-06 0.00000E+00
 -1       301 6.94145E-05 1.62642E-06 3.30872E-24
 -1       302 6.38644E-05 1.65901E-06-8.27181E-25
 -1       303 5.83031E-05 1.69520E-06 0.00000E+00
 -1       304 5.27403E-05 1.73204E-06-4.13590E-25
 -1       305 4.71854E-05 1.76679E-06 3.30872E-24
 -1       306 7.10536E-05 5.75268E-06-5.29396E-23
 -1       307 6.75381E-05 8.68256E-06 0.00000E+00
 -1       308 6.44967E-05 1.03715E-05 5.29396E-23
 -1       309 6.19131E-05 1.08080E-05 2.64698E-23
 -1       310 5.97678E-05 1.00767E-05 0.00000E+00
 -1       311 5.80092E-05 8.30599E-06-2.64698E-23
 -1       312 5.65634E-05 5.69706E-06 0.00000E+00
 -1       313 5.53417E-05 2.48559E-06 2.64698E-23
 -1       314 5.42411E-05-1.05085E-06-5.29396E-23
 -1       315 5.31534E-05-4.62098E-06-2.64698E-23
 -1       316 5.19695E-05-7.93180E-06 0.00000E+00
 -1       317 5.05862E-05-1.07004E-05 0.00000E+00
 -1       318 4.89098E-05-1.26822E-05 0.00000E+00
 -1       319 4.68728E-05-1.36610E-05 0.00000E+00
 -1       320 4.44028E-05-1.34992E-05-5.29396E-23
 -1       321 6.92129E-05-4.66921E-06 0.00000E+00
 -1       322 6.89846E-05-3.64826E-06-6.61744E-24
 -1       323 6.87556E-05-2.98167E-06 6.61744E-24
 -1       324 6.85307E-05-2.61699E-06-3.30872E-24
 -1       325 6.83061E-05-2.49991E-06 0.00000E+00
 -1       326 6.80823E-05-2.57508E-06 0.00000E+00
 -1       327 6.78587E-05-2.78598E-06 0.00000E+00
 -1       328 6.76351E-05-3.07552E-06 0.00000E+00
 -1       329 6.74116E-05-3.38613E-06 0.00000E+00
 -1       330 6.71881E-05-3.66016E-06 3.30872E-24
 -1       331 6.69647E-05-3.84017E-06-6.61744E-24
 -1       332 6.67411E-05-3.86912E-06 3.30872E-24
 -1       333 6.65175E-05-3.69090E-06-6.61744E-24
 -1       334 6.62933E-05-3.25024E-06 3.30872E-24
 -1       335 6.60690E-05-2.49351E-06 6.61744E-24
 -1       336 6.66750E-05-7.08474E-06 2.64698E-23
 -1       337 6.20532E-05-8.08827E-06-1.32349E-23
 -1       338 5.64038E-05-9.09571E-06-2.64698E-23
 -1       339 5.05513E-05-1.01006E-05-1.32349E-23
 -1       340 4.53255E-05-1.11039E-05 0.00000E+00
 -1       341 6.78221E-05-4.99199E-06 2.64698E-23
 -1       342 6.62662E-05-4.15798E-06 0.00000E+00
 -1       343 6.48044E-05-3.57176E-06 0.00000E+00
 -1       344 6.34254E-05-3.21250E-06 0.00000E+00
 -1       345 6.21200E-05-3.04950E-06-2.64698E-23
 -1       346 6.08751E-05-3.04870E-06-1.32349E-23
 -1       347 5.96760E-05-3.17010E-06 0.00000E+00
 -1       348 5.85068E-05-3.37115E-06 0.00000E+00
 -1       349 5.73505E-05-3.60640E-06 0.00000E+00
 -1       350 5.61899E-05-3.82959E-06 0.00000E+00
 -1       351 5.50080E-05-3.99515E-06 0.00000E+00
 -1       352 5.37891E-05-4.05827E-06-1.32349E-23
 -1       353 5.25171E-05-3.97852E-06 0.00000E+00
 -1       354 5.11850E-05-3.71542E-06 0.00000E+00
 -1       355 4.97708E-05-3.24139E-06 1.32349E-23
 -1       356 6.57347E-05-2.36232E-07 6.61744E-24
 -1       357 6.56368E-05 5.40513E-07 0.00000E+00
 -1       358 6.55386E-05 1.01161E-06 3.30872E-24
 -1       359 6.54420E-05 1.22741E-06 0.00000E+00
 -1       360 6.53455E-05 1.23898E-06-3.30872E-24
 -1       361 6.52493E-05 1.09771E-06 0.00000E+00
 -1       362 6.51532E-05 8.55428E-07 3.30872E-24
 -1       363 6.50571E-05 5.64123E-07-1.65436E-24
 -1       364 6.49611E-05 2.75915E-07 0.00000E+00
 -1       365 6.48653E-05 4.29225E-08 0.00000E+00
 -1       366 6.47696E-05-8.28798E-08 3.30872E-24
 -1       367 6.46745E-05-4.97142E-08 8.27181E-25
 -1       368 6.45797E-05 1.93785E-07 0.00000E+00
 -1       369 6.44882E-05 6.98593E-07 0.00000E+00
 -1       370 6.43955E-05 1.51505E-06 0.00000E+00
 -1       371 6.38072E-05-1.56326E-06-6.61744E-24
 -1       372 6.06823E-05-1.75581E-06 0.00000E+00
 -1       373 5.70176E-05-1.95008E-06-6.61744E-24
 -1       374 5.33662E-05-2.14199E-06-1.65436E-24
 -1       375 5.02812E-05-2.33248E-06-3.30872E-24
 -1       376 6.48316E-05-4.15163E-07 1.32349E-23
 -1       377 6.39199E-05 2.41486E-07-6.61744E-24
 -1       378 6.31032E-05 6.47205E-07-1.32349E-23
 -1       379 6.23624E-05 8.44973E-07-6.61744E-24
 -1       380 6.16812E-05 8.83392E-07-1.32349E-23
 -1       381 6.10408E-05 8.12109E-07-6.61744E-24
 -1       382 6.04220E-05 6.83086E-07-1.32349E-23
 -1       383 5.98052E-05 5.48849E-07-6.61744E-24
 -1       384 5.91706E-05 4.62065E-07 1.32349E-23
 -1       385 5.84988E-05 4.74894E-07-6.61744E-24
 -1       386 5.77710E-05 6.37438E-07 0.00000E+00
 -1       387 5.69697E-05 9.98378E-07 6.61744E-24
 -1       388 5.60776E-05 1.60210E-06 0.00000E+00
 -1       389 5.50840E-05 2.49238E-06 0.00000E+00
 -1       390 5.39678E-05 3.70296E-06 0.00000E+00
 -1       406 6.27053E-05 3.12517E-06-1.32349E-23
 -1       407 6.09136E-05 3.55963E-06 6.61744E-24
 -1       408 5.89838E-05 3.99410E-06-1.32349E-23
 -1       409 5.69545E-05 4.42749E-06 0.00000E+00
 -1       410 5.48642E-05 4.85841E-06 0.00000E+00
 -1       466 3.16774E-05 2.05178E-06 0.00000E+00
 -1       467 3.23407E-05 4.58126E-06-6.61744E-24
 -1       468 3.30052E-05 5.70931E-06 0.00000E+00
 -1       469 3.36753E-05 5.70555E-06 0.00000E+00
 -1       470 3.43456E-05 4.81873E-06 2.64698E-23
 -1       471 3.50160E-05 3.28662E-06 0.00000E+00
 -1       472 3.56860E-05 1.33507E-06 2.64698E-23
 -1       473 3.63557E-05-8.15287E-07-1.32349E-23
 -1       474 3.70254E-05-2.94755E-06-2.64698E-23
 -1       475 3.76954E-05-4.84454E-06 0.00000E+00
 -1       476 3.83658E-05-6.28472E-06 0.00000E+00
 -1       477 3.90358E-05-7.04093E-06 0.00000E+00
 -1       478 3.97054E-05-6.87327E-06-1.32349E-23
 -1       479 4.03679E-05-5.53044E-06 6.61744E-24
 -1       480 4.10290E-05-2.73941E-06-6.61744E-24
 -1       481 2.62635E-05-2.04248E-06 0.00000E+00
 -1       482 2.21769E-05-1.90892E-06 1.65436E-24
 -1       483 1.87302E-05-1.77339E-06 0.00000E+00
 -1       484 1.58664E-05-1.63523E-06 0.00000E+00
 -1       485 1.35306E-05-1.49553E-06 0.00000E+00
 -1       486 2.85531E-05 2.20451E-06-1.32349E-23
 -1       487 2.63967E-05 5.58834E-06 0.00000E+00
 -1       488 2.45930E-05 8.04521E-06 2.64698E-23
 -1       489 2.31110E-05 9.63456E-06 0.00000E+00
 -1       490 2.19232E-05 1.04420E-05 2.64698E-23
 -1       491 2.09922E-05 1.05632E-05 0.00000E+00
 -1       492 2.02760E-05 1.01117E-05 0.00000E+00
 -1       493 1.97284E-05 9.20969E-06 0.00000E+00
 -1       494 1.92993E-05 7.99075E-06 0.00000E+00
 -1       495 1.89371E-05 6.59341E-06 0.00000E+00
 -1       496 1.85882E-05 5.16072E-06-2.64698E-23
 -1       497 1.81997E-05 3.83644E-06 0.00000E+00
 -1       498 1.77182E-05 2.76121E-06-2.64698E-23
 -1       499 1.70966E-05 2.07353E-06 0.00000E+00
 -1       500 1.62812E-05 1.89851E-06-1.32349E-23
 -1       501 4.16262E-05 6.30205E-06 0.00000E+00
 -1       502 4.16196E-05 8.99610E-06 0.00000E+00
 -1       503 4.16156E-05 1.01082E-05 8.27181E-25
 -1       504 4.16137E-05 9.87407E-06 0.00000E+00
 -1       505 4.16112E-05 8.52960E-06 0.00000E+00
 -1       506 4.16075E-05 6.31067E-06 0.00000E+00
 -1       507 4.16023E-05 3.45320E-06 0.00000E+00
 -1       508 4.15959E-05 1.93070E-07 0.00000E+00
 -1       509 4.15891E-05-3.23376E-06-1.03398E-25
 -1       510 4.15824E-05-6.59130E-06 0.00000E+00
 -1       511 4.15766E-05-9.64370E-06-2.06795E-25
 -1       512 4.15718E-05-1.21550E-05 0.00000E+00
 -1       513 4.15684E-05-1.38892E-05 0.00000E+00
 -1       514 4.15642E-05-1.46106E-05-8.27181E-25
 -1       515 4.15606E-05-1.40832E-05 0.00000E+00
 -1       516 3.60394E-05 1.87269E-06 0.00000E+00
 -1       517 3.04196E-05 1.96753E-06 0.00000E+00
 -1       518 2.51588E-05 2.06343E-06 8.27181E-25
 -1       519 2.06283E-05 2.16315E-06-4.13590E-25
 -1       520 1.72016E-05 2.26763E-06 0.00000E+00
 -1       521 3.82708E-05 5.97887E-06-2.64698E-23
 -1       522 3.53724E-05 8.72708E-06 0.00000E+00
 -1       523 3.30041E-05 1.00819E-05 0.00000E+00
 -1       524 3.11248E-05 1.01077E-05-2.64698E-23
 -1       525 2.96900E-05 8.94717E-06 5.29396E-23
 -1       526 2.86302E-05 6.77783E-06 0.00000E+00
 -1       527 2.78599E-05 3.83200E-06 0.00000E+00
 -1       528 2.72825E-05 3.66680E-07 2.64698E-23
 -1       529 2.67924E-05-3.33315E-06 5.29396E-23
 -1       530 2.62809E-05-6.97484E-06 0.00000E+00
 -1       531 2.56404E-05-1.02691E-05 5.29396E-23
 -1       532 2.47686E-05-1.29374E-05 0.00000E+00
 -1       533 2.35724E-05-1.47353E-05-5.29396E-23
 -1       534 2.19786E-05-1.54437E-05 0.00000E+00
 -1       535 1.99143E-05-1.49083E-05-2.64698E-23
 -1       536 4.19352E-05-9.56847E-06-1.65436E-24
 -1       537 4.23565E-05-7.65786E-06-3.30872E-24
 -1       538 4.27772E-05-6.25700E-06 0.00000E+00
 -1       539 4.32035E-05-5.28708E-06 0.00000E+00
 -1       540 4.36304E-05-4.67445E-06 1.32349E-23
 -1       541 4.40584E-05-4.34823E-06 6.61744E-24
 -1       542 4.44867E-05-4.24093E-06 0.00000E+00
 -1       543 4.49151E-05-4.28681E-06 0.00000E+00
 -1       544 4.53435E-05-4.42192E-06-1.32349E-23
 -1       545 4.57719E-05-4.58303E-06 0.00000E+00
 -1       546 4.62002E-05-4.70720E-06 1.32349E-23
 -1       547 4.66279E-05-4.73121E-06-6.61744E-24
 -1       548 4.70554E-05-4.59066E-06 1.32349E-23
 -1       549 4.74800E-05-4.21984E-06-6.61744E-24
 -1       550 4.79051E-05-3.55035E-06 0.00000E+00
 -1       551 3.79311E-05-1.22263E-05-2.48154E-24
 -1       552 3.39545E-05-1.23768E-05 2.63664E-24
 -1       553 2.97614E-05-1.25268E-05 0.00000E+00
 -1       554 2.55029E-05-1.26775E-05-3.30872E-24
 -1       555 2.13297E-05-1.28299E-05 1.32349E-23
 -1       556 4.04393E-05-9.77197E-06 0.00000E+00
 -1       557 3.95215E-05-7.95848E-06 0.00000E+00
 -1       558 3.87682E-05-6.57930E-06 0.00000E+00
 -1       559 3.81576E-05-5.57787E-06 0.00000E+00
 -1       560 3.76678E-05-4.89743E-06 0.00000E+00
 -1       561 3.72773E-05-4.48063E-06 0.00000E+00
 -1       562 3.69643E-05-4.27008E-06 0.00000E+00
 -1       563 3.67072E-05-4.20826E-06 0.00000E+00
 -1       564 3.64843E-05-4.23766E-06 6.61744E-24
 -1       565 3.62741E-05-4.30071E-06 3.30872E-24
 -1       566 3.60549E-05-4.33985E-06 3.30872E-24
 -1       567 3.58053E-05-4.29752E-06-1.65436E-24
 -1       568 3.55037E-05-4.11619E-06 5.89366E-24
 -1       569 3.51291E-05-3.73848E-06-2.48154E-24
 -1       570 3.46606E-05-3.10712E-06 1.65436E-24
 -1       571 4.85763E-05-1.57926E-06-4.13590E-24
 -1       572 4.88506E-05-9.13803E-07 3.20532E-24
 -1       573 4.91279E-05-4.72534E-07 1.65436E-24
 -1       574 4.94066E-05-2.10817E-07 0.00000E+00
 -1       575 4.96859E-05-8.38960E-08-6.61744E-24
 -1       576 4.99654E-05-4.67873E-08-3.30872E-24
 -1       577 5.02450E-05-5.45079E-08 0.00000E+00
 -1       578 5.05247E-05-6.20540E-08 0.00000E+00
 -1       579 5.08044E-05-2.44206E-08-1.32349E-23
 -1       580 5.10840E-05 1.03407E-07 0.00000E+00
 -1       581 5.13636E-05 3.66450E-07 0.00000E+00
 -1       582 5.16430E-05 8.09729E-07 0.00000E+00
 -1       583 5.19221E-05 1.47826E-06 0.00000E+00
 -1       584 5.22006E-05 2.41678E-06 0.00000E+00
 -1       585 5.24778E-05 3.66990E-06 0.00000E+00
 -1       586 4.62578E-05-2.45311E-06 0.00000E+00
 -1       587 4.38656E-05-2.39369E-06 3.30872E-24
 -1       588 4.12929E-05-2.33438E-06 1.65436E-24
 -1       589 3.86990E-05-2.27564E-06 0.00000E+00
 -1       590 3.62433E-05-2.21811E-06 0.00000E+00
 -1       591 4.77687E-05-1.49987E-06 0.00000E+00
 -1       592 4.72825E-05-6.67749E-07 0.00000E+00
 -1       593 4.68518E-05 1.13838E-08 0.00000E+00
 -1       594 4.64679E-05 5.63447E-07 0.00000E+00
 -1       595 4.61217E-05 1.01436E-06 0.00000E+00
 -1       596 4.58036E-05 1.39005E-06 0.00000E+00
 -1       597 4.55039E-05 1.71640E-06 6.61744E-24
 -1       598 4.52131E-05 2.01932E-06 0.00000E+00
 -1       599 4.49212E-05 2.32473E-06-3.30872E-24
 -1       600 4.46188E-05 2.65852E-06 1.65436E-24
 -1       601 4.42961E-05 3.04661E-06-1.65436E-24
 -1       602 4.39434E-05 3.51491E-06-1.65436E-24
 -1       603 4.35513E-05 4.08934E-06 1.72545E-24
 -1       604 4.31109E-05 4.79589E-06 1.65436E-24
 -1       605 4.26136E-05 5.66059E-06 0.00000E+00
 -1       606 5.28222E-05 7.39848E-06 0.00000E+00
 -1       607 5.28861E-05 9.71514E-06 3.30872E-24
 -1       608 5.29481E-05 1.22180E-05 6.61744E-24
 -1       609 5.30089E-05 1.48939E-05 0.00000E+00
 -1       610 5.30690E-05 1.77300E-05 6.61744E-24
 -1       611 5.31286E-05 2.07130E-05 0.00000E+00
 -1       612 5.31877E-05 2.38297E-05 0.00000E+00
 -1       613 5.32465E-05 2.70668E-05 3.30872E-24
 -1       614 5.33049E-05 3.04111E-05 6.61744E-24
 -1       615 5.33630E-05 3.38494E-05 1.65436E-24
 -1       616 5.34208E-05 3.73684E-05 0.00000E+00
 -1       617 5.34784E-05 4.09549E-05 0.00000E+00
 -1       618 5.35357E-05 4.45956E-05 3.30872E-24
 -1       619 5.35929E-05 4.82774E-05 0.00000E+00
 -1       620 5.36499E-05 5.19871E-05-1.65436E-24
 -1       621 5.07229E-05 5.51852E-06 6.61744E-24
 -1       622 4.87616E-05 5.75899E-06 0.00000E+00
 -1       623 4.68913E-05 5.99968E-06 6.61744E-24
 -1       624 4.51354E-05 6.23986E-06-8.27181E-25
 -1       625 4.35172E-05 6.47856E-06 4.96308E-24
 -1       626 5.20688E-05 7.47923E-06 0.00000E+00
 -1       627 5.13020E-05 9.89031E-06 0.00000E+00
 -1       628 5.04617E-05 1.24934E-05 0.00000E+00
 -1       629 4.95567E-05 1.52667E-05 0.00000E+00
 -1       630 4.85955E-05 1.81881E-05 0.00000E+00
 -1       631 4.75867E-05 2.12353E-05 0.00000E+00
 -1       632 4.65386E-05 2.43861E-05-6.61744E-24
 -1       633 4.54598E-05 2.76183E-05 0.00000E+00
 -1       634 4.43585E-05 3.09096E-05-6.61744E-24
 -1       635 4.32434E-05 3.42376E-05 1.65436E-24
 -1       636 4.21226E-05 3.75801E-05 0.00000E+00
 -1       637 4.10048E-05 4.09150E-05-1.65436E-24
 -1       638 3.98981E-05 4.42197E-05-3.30872E-24
 -1       639 3.88106E-05 4.74722E-05 1.24077E-24
 -1       640 3.77501E-05 5.06500E-05 0.00000E+00
 -1       641 5.37061E-05 5.96081E-05 8.27181E-25
 -1       642 5.37020E-05 6.39110E-05-4.13590E-25
 -1       643 5.36965E-05 6.85688E-05-4.13590E-25
 -1       644 5.36892E-05 7.35304E-05-1.03398E-25
 -1       645 5.36807E-05 7.87445E-05 0.00000E+00
 -1       646 5.36710E-05 8.41598E-05-1.03398E-25
 -1       647 5.36606E-05 8.97252E-05 2.06795E-25
 -1       648 5.36496E-05 9.53896E-05-5.16988E-26
 -1       649 5.36383E-05 1.01102E-04 0.00000E+00
 -1       650 5.36270E-05 1.06810E-04 0.00000E+00
 -1       651 5.36160E-05 1.12465E-04 0.00000E+00
 -1       652 5.36053E-05 1.18013E-04 0.00000E+00
 -1       653 5.35953E-05 1.23405E-04 4.13590E-25
 -1       654 5.35853E-05 1.28588E-04 0.00000E+00
 -1       655 5.35769E-05 1.33513E-04 0.00000E+00
 -1       656 5.02947E-05 5.53899E-05-3.30872E-24
 -1       657 4.73227E-05 5.50543E-05 0.00000E+00
 -1       658 4.46361E-05 5.47205E-05 0.00000E+00
 -1       659 4.20785E-05 5.43867E-05 0.00000E+00
 -1       660 3.94927E-05 5.40519E-05-3.30872E-24
 -1       661 5.26256E-05 5.97566E-05 6.61744E-24
 -1       662 5.14055E-05 6.42128E-05-6.61744E-24
 -1       663 5.00553E-05 6.90090E-05 0.00000E+00
 -1       664 4.86020E-05 7.40837E-05-6.61744E-24
 -1       665 4.70656E-05 7.93772E-05 0.00000E+00
 -1       666 4.54682E-05 8.48324E-05 0.00000E+00
 -1       667 4.38301E-05 9.03944E-05 1.32349E-23
 -1       668 4.21721E-05 9.60090E-05-6.61744E-24
 -1       669 4.05143E-05 1.01623E-04 0.00000E+00
 -1       670 3.88771E-05 1.07182E-04 0.00000E+00
 -1       671 3.72810E-05 1.12634E-04 0.00000E+00
 -1       672 3.57465E-05 1.17921E-04-6.61744E-24
 -1       673 3.42956E-05 1.22989E-04 0.00000E+00
 -1       674 3.29474E-05 1.27776E-04 0.00000E+00
 -1       675 3.17302E-05 1.32221E-04 0.00000E+00
 -1       676 4.92873E-05 1.37816E-04 0.00000E+00
 -1       677 4.52978E-05 1.37500E-04 0.00000E+00
 -1       678 4.15179E-05 1.37185E-04-6.61744E-24
 -1       679 3.78690E-05 1.36871E-04 3.30872E-24
 -1       680 3.42719E-05 1.36556E-04 0.00000E+00
 -1       681 1.18882E-05 5.84878E-08 6.61744E-24
 -1       682 1.21132E-05 1.06106E-06 0.00000E+00
 -1       683 1.23383E-05 1.70912E-06 6.61744E-24
 -1       684 1.25644E-05 2.05947E-06 3.30872E-24
 -1       685 1.27907E-05 2.16701E-06 0.00000E+00
 -1       686 1.30172E-05 2.08568E-06 0.00000E+00
 -1       687 1.32437E-05 1.86821E-06-6.61744E-24
 -1       688 1.34702E-05 1.56679E-06 3.30872E-24
 -1       689 1.36966E-05 1.23304E-06-6.61744E-24
 -1       690 1.39230E-05 9.18486E-07 0.00000E+00
 -1       691 1.41493E-05 6.74760E-07-6.61744E-24
 -1       692 1.43751E-05 5.53784E-07-3.30872E-24
 -1       693 1.46006E-05 6.08254E-07 0.00000E+00
 -1       694 1.48235E-05 8.91589E-07-1.65436E-24
 -1       695 1.50469E-05 1.45864E-06-1.65436E-24
 -1       696 9.87867E-06-1.13636E-06 6.61744E-24
 -1       697 7.86113E-06-9.10479E-07-3.30872E-24
 -1       698 5.74073E-06-6.85001E-07 0.00000E+00
 -1       699 3.64113E-06-4.57993E-07 3.30872E-24
 -1       700 1.68613E-06-2.30743E-07 0.00000E+00
 -1       701 1.08931E-05 4.41984E-08 3.30872E-24
 -1       702 1.02150E-05 1.14350E-06 3.30872E-24
 -1       703 9.63893E-06 1.97381E-06 6.61744E-24
 -1       704 9.15101E-06 2.56278E-06 0.00000E+00
 -1       705 8.74185E-06 2.94174E-06 0.00000E+00
 -1       706 8.39926E-06 3.14215E-06 0.00000E+00
 -1       707 8.11122E-06 3.19704E-06 6.61744E-24
 -1       708 7.86509E-06 3.14002E-06-3.30872E-24
 -1       709 7.64800E-06 3.00556E-06 0.00000E+00
 -1       710 7.44694E-06 2.82850E-06 0.00000E+00
 -1       711 7.24875E-06 2.64399E-06 6.61744E-24
 -1       712 7.04056E-06 2.48733E-06 0.00000E+00
 -1       713 6.80897E-06 2.39338E-06 0.00000E+00
 -1       714 6.54311E-06 2.39763E-06 0.00000E+00
 -1       715 6.22729E-06 2.53290E-06-3.30872E-24
 -1       716 1.53784E-05 2.96788E-06 0.00000E+00
 -1       717 1.55146E-05 2.67934E-06 0.00000E+00
 -1       718 1.56498E-05 1.64977E-06 0.00000E+00
 -1       719 1.57863E-05 2.74318E-08 0.00000E+00
 -1       720 1.59223E-05-2.04172E-06-3.30872E-24
 -1       721 1.60580E-05-4.41281E-06 1.65436E-24
 -1       722 1.61934E-05-6.94212E-06 0.00000E+00
 -1       723 1.63288E-05-9.48640E-06 1.65436E-24
 -1       724 1.64645E-05-1.19024E-05 0.00000E+00
 -1       725 1.66006E-05-1.40465E-05-1.65436E-24
 -1       726 1.67374E-05-1.57741E-05 0.00000E+00
 -1       727 1.68744E-05-1.69396E-05 1.65436E-24
 -1       728 1.70115E-05-1.73951E-05 0.00000E+00
 -1       729 1.71452E-05-1.69911E-05-4.13590E-25
 -1       730 1.72789E-05-1.55746E-05 0.00000E+00
 -1       731 1.38704E-05 2.43560E-06 0.00000E+00
 -1       732 1.20641E-05 2.51491E-06 0.00000E+00
 -1       733 1.00978E-05 2.59353E-06 1.65436E-24
 -1       734 8.23377E-06 2.67405E-06-8.27181E-25
 -1       735 6.73455E-06 2.75527E-06 0.00000E+00
 -1       736 1.42640E-05 2.99514E-06 1.32349E-23
 -1       737 1.34082E-05 3.19965E-06 0.00000E+00
 -1       738 1.26983E-05 3.01897E-06 0.00000E+00
 -1       739 1.21155E-05 2.48800E-06-1.32349E-23
 -1       740 1.16465E-05 1.65250E-06 0.00000E+00
 -1       741 1.12727E-05 5.60910E-07 1.32349E-23
 -1       742 1.09741E-05-7.32211E-07-2.64698E-23
 -1       743 1.07294E-05-2.16981E-06 0.00000E+00
 -1       744 1.05161E-05-3.69150E-06-2.64698E-23
 -1       745 1.03113E-05-5.23576E-06 1.32349E-23
 -1       746 1.00919E-05-6.74066E-06 0.00000E+00
 -1       747 9.83548E-06-8.14454E-06 0.00000E+00
 -1       748 9.51938E-06-9.38838E-06-2.64698E-23
 -1       749 9.12546E-06-1.04140E-05-6.61744E-24
 -1       750 8.62976E-06-1.11709E-05 1.32349E-23
 -1       751 1.83732E-05-1.01636E-05 0.00000E+00
 -1       752 1.94152E-05-8.04046E-06 1.32349E-23
 -1       753 2.04557E-05-6.50357E-06 2.64698E-23
 -1       754 2.15068E-05-5.44696E-06 0.00000E+00
 -1       755 2.25590E-05-4.77861E-06 0.00000E+00
 -1       756 2.36132E-05-4.41409E-06-1.32349E-23
 -1       757 2.46679E-05-4.27778E-06 2.64698E-23
 -1       758 2.57229E-05-4.29852E-06 0.00000E+00
 -1       759 2.67779E-05-4.40975E-06 0.00000E+00
 -1       760 2.78326E-05-4.54666E-06 1.32349E-23
 -1       761 2.88871E-05-4.64518E-06 0.00000E+00
 -1       762 2.99401E-05-4.64052E-06-1.32349E-23
 -1       763 3.09924E-05-4.46486E-06-2.64698E-23
 -1       764 3.20367E-05-4.04704E-06 0.00000E+00
 -1       765 3.30828E-05-3.30892E-06 0.00000E+00
 -1       766 1.44650E-05-1.27783E-05 0.00000E+00
 -1       767 1.21081E-05-1.25413E-05 8.27181E-25
 -1       768 1.03010E-05-1.23045E-05 0.00000E+00
 -1       769 9.02780E-06-1.20660E-05 0.00000E+00
 -1       770 8.27588E-06-1.18257E-05 0.00000E+00
 -1       771 1.56159E-05-1.03021E-05 0.00000E+00
 -1       772 1.39654E-05-7.98739E-06 0.00000E+00
 -1       773 1.24420E-05-6.01949E-06-2.64698E-23
 -1       774 1.10378E-05-4.37230E-06-1.32349E-23
 -1       775 9.74398E-06-3.01974E-06 0.00000E+00
 -1       776 8.55103E-06-1.93556E-06 2.64698E-23
 -1       777 7.44906E-06-1.09340E-06 0.00000E+00
 -1       778 6.42816E-06-4.66806E-07 0.00000E+00
 -1       779 5.47831E-06-2.92121E-08-2.64698E-23
 -1       780 4.58950E-06 2.46070E-07 0.00000E+00
 -1       781 3.75171E-06 3.85784E-07 2.64698E-23
 -1       782 2.95502E-06 4.16808E-07 0.00000E+00
 -1       783 2.18953E-06 3.66084E-07 2.64698E-23
 -1       784 1.44618E-06 2.60895E-07 0.00000E+00
 -1       785 7.16272E-07 1.28678E-07 1.32349E-23
 -1       786 3.45564E-05-9.40117E-07 0.00000E+00
 -1       787 3.50546E-05 1.99579E-08 0.00000E+00
 -1       788 3.55520E-05 7.56683E-07 1.32349E-23
 -1       789 3.60536E-05 1.31054E-06 6.61744E-24
 -1       790 3.65556E-05 1.71950E-06-1.32349E-23
 -1       791 3.70584E-05 2.02017E-06-6.61744E-24
 -1       792 3.75614E-05 2.24768E-06 0.00000E+00
 -1       793 3.80645E-05 2.43644E-06-6.61744E-24
 -1       794 3.85676E-05 2.62038E-06 0.00000E+00
 -1       795 3.90707E-05 2.83334E-06-6.61744E-24
 -1       796 3.95736E-05 3.10957E-06 0.00000E+00
 -1       797 4.00760E-05 3.48393E-06 6.61744E-24
 -1       798 4.05780E-05 3.99261E-06 0.00000E+00
 -1       799 4.10770E-05 4.67306E-06-6.61744E-24
 -1       800 4.15765E-05 5.56513E-06-6.61744E-24
 -1       801 3.06605E-05-1.80197E-06 0.00000E+00
 -1       802 2.41443E-05-1.43403E-06-3.30872E-24
 -1       803 1.61807E-05-1.07671E-06 0.00000E+00
 -1       804 8.40714E-06-7.20248E-07 0.00000E+00
 -1       805 2.46279E-06-3.51034E-07 1.65436E-24
 -1       806 3.32918E-05-1.04893E-06 0.00000E+00
 -1       807 3.25348E-05-5.58209E-08 0.00000E+00
 -1       808 3.18129E-05 8.36082E-07 1.32349E-23
 -1       809 3.11197E-05 1.64766E-06-6.61744E-24
 -1       810 3.04484E-05 2.39974E-06-1.32349E-23
 -1       811 2.97914E-05 3.11300E-06-6.61744E-24
 -1       812 2.91412E-05 3.80812E-06 1.32349E-23
 -1       813 2.84901E-05 4.50572E-06 6.61744E-24
 -1       814 2.78302E-05 5.22647E-06 6.61744E-24
 -1       815 2.71539E-05 5.99099E-06 6.61744E-24
 -1       816 2.64534E-05 6.81991E-06 1.32349E-23
 -1       817 2.57213E-05 7.73388E-06 3.30872E-24
 -1       818 2.49498E-05 8.75353E-06-1.32349E-23
 -1       819 2.41324E-05 9.89958E-06 0.00000E+00
 -1       820 2.32626E-05 1.11929E-05 3.30872E-24
 -1       821 4.17451E-05 8.18458E-06 0.00000E+00
 -1       822 4.14140E-05 1.00213E-05 0.00000E+00
 -1       823 4.10831E-05 1.21909E-05 0.00000E+00
 -1       824 4.07485E-05 1.46612E-05 0.00000E+00
 -1       825 4.04131E-05 1.73975E-05 1.32349E-23
 -1       826 4.00764E-05 2.03634E-05-6.61744E-24
 -1       827 3.97391E-05 2.35203E-05-1.32349E-23
 -1       828 3.94012E-05 2.68286E-05 0.00000E+00
 -1       829 3.90629E-05 3.02473E-05 1.32349E-23
 -1       830 3.87245E-05 3.37345E-05 0.00000E+00
 -1       831 3.83861E-05 3.72479E-05 0.00000E+00
 -1       832 3.80483E-05 4.07450E-05 0.00000E+00
 -1       833 3.77108E-05 4.41834E-05 0.00000E+00
 -1       834 3.73761E-05 4.75210E-05 0.00000E+00
 -1       835 3.70412E-05 5.07168E-05 6.61744E-24
 -1       836 3.99504E-05 7.68239E-06-1.32349E-23
 -1       837 3.65756E-05 8.68777E-06 0.00000E+00
 -1       838 3.25369E-05 9.68853E-06 2.64698E-23
 -1       839 2.84247E-05 1.06880E-05 0.00000E+00
 -1       840 2.48274E-05 1.16918E-05 1.32349E-23
 -1       841 4.13187E-05 8.14504E-06 0.00000E+00
 -1       842 4.04128E-05 9.98589E-06 0.00000E+00
 -1       843 3.93680E-05 1.21966E-05 0.00000E+00
 -1       844 3.81978E-05 1.47336E-05 3.30872E-24
 -1       845 3.69207E-05 1.75534E-05 0.00000E+00
 -1       846 3.55535E-05 2.06102E-05 0.00000E+00
 -1       847 3.41142E-05 2.38572E-05 0.00000E+00
 -1       848 3.26209E-05 2.72468E-05 3.30872E-24
 -1       849 3.10919E-05 3.07305E-05 6.61744E-24
 -1       850 2.95459E-05 3.42594E-05 3.30872E-24
 -1       851 2.80013E-05 3.77844E-05 6.61744E-24
 -1       852 2.64769E-05 4.12564E-05 0.00000E+00
 -1       853 2.49912E-05 4.46265E-05 0.00000E+00
 -1       854 2.35632E-05 4.78466E-05 3.30872E-24
 -1       855 2.22098E-05 5.08689E-05-3.30872E-24
 -1       856 3.63656E-05 5.69852E-05-6.61744E-24
 -1       857 3.59918E-05 6.08859E-05 0.00000E+00
 -1       858 3.56165E-05 6.53582E-05 0.00000E+00
 -1       859 3.52361E-05 7.03240E-05-6.61744E-24
 -1       860 3.48536E-05 7.57001E-05 1.32349E-23
 -1       861 3.44688E-05 8.14002E-05 0.00000E+00
 -1       862 3.40825E-05 8.73353E-05 0.00000E+00
 -1       863 3.36954E-05 9.34142E-05 6.61744E-24
 -1       864 3.33080E-05 9.95446E-05-1.32349E-23
 -1       865 3.29208E-05 1.05634E-04 0.00000E+00
 -1       866 3.25345E-05 1.11589E-04 0.00000E+00
 -1       867 3.21498E-05 1.17320E-04-6.61744E-24
 -1       868 3.17669E-05 1.22736E-04 1.32349E-23
 -1       869 3.13879E-05 1.27751E-04 3.30872E-24
 -1       870 3.10106E-05 1.32283E-04 0.00000E+00
 -1       871 3.39652E-05 5.37188E-05 0.00000E+00
 -1       872 3.12969E-05 5.37060E-05 0.00000E+00
 -1       873 2.86894E-05 5.36930E-05 0.00000E+00
 -1       874 2.61148E-05 5.36796E-05 0.00000E+00
 -1       875 2.35455E-05 5.36654E-05 1.65436E-24
 -1       876 3.59278E-05 5.71169E-05 6.61744E-24
 -1       877 3.49319E-05 6.10907E-05 6.61744E-24
 -1       878 3.37477E-05 6.55580E-05 0.00000E+00
 -1       879 3.24103E-05 7.04377E-05 6.61744E-24
 -1       880 3.09458E-05 7.56521E-05 1.32349E-23
 -1       881 2.93824E-05 8.11274E-05 6.61744E-24
 -1       882 2.77464E-05 8.67939E-05 1.32349E-23
 -1       883 2.60637E-05 9.25832E-05 0.00000E+00
 -1       884 2.43594E-05 9.84289E-05-1.32349E-23
 -1       885 2.26587E-05 1.04265E-04-6.61744E-24
 -1       886 2.09866E-05 1.10026E-04 0.00000E+00
 -1       887 1.93682E-05 1.15644E-04-6.61744E-24
 -1       888 1.78299E-05 1.21051E-04 0.00000E+00
 -1       889 1.63955E-05 1.26175E-04-6.61744E-24
 -1       890 1.50975E-05 1.30943E-04-6.61744E-24
 -1       891 2.74040E-05 1.36086E-04 0.00000E+00
 -1       892 2.48007E-05 1.35922E-04-1.65436E-24
 -1       893 2.24952E-05 1.35759E-04 0.00000E+00
 -1       894 2.01452E-05 1.35596E-04-1.65436E-24
 -1       895 1.74085E-05 1.35432E-04 3.30872E-24
 -1       896 3.63814E-07 1.32687E-06 0.00000E+00
 -1       897 7.30948E-07 2.30855E-06 6.61744E-24
 -1       898 1.09820E-06 2.99138E-06-1.32349E-23
 -1       899 1.46609E-06 3.41975E-06-6.61744E-24
 -1       900 1.83408E-06 3.63544E-06 0.00000E+00
 -1       901 2.20220E-06 3.67880E-06 0.00000E+00
 -1       902 2.57032E-06 3.58844E-06 1.32349E-23
 -1       903 2.93844E-06 3.40205E-06 6.61744E-24
 -1       904 3.30652E-06 3.15633E-06 0.00000E+00
 -1       905 3.67453E-06 2.88761E-06 6.61744E-24
 -1       906 4.04245E-06 2.63198E-06 0.00000E+00
 -1       907 4.41002E-06 2.42558E-06-6.61744E-24
 -1       908 4.77743E-06 2.30510E-06 1.32349E-23
 -1       909 5.14284E-06 2.30779E-06 3.30872E-24
 -1       910 5.50876E-06 2.47214E-06 0.00000E+00
 -1       911 5.99851E-06 3.09527E-06 3.30872E-24
 -1       912 6.13617E-06 2.94550E-06 1.65436E-24
 -1       913 6.27363E-06 2.44467E-06 3.30872E-24
 -1       914 6.41127E-06 1.64822E-06 0.00000E+00
 -1       915 6.54873E-06 6.10443E-07-3.30872E-24
 -1       916 6.68605E-06-6.14960E-07 0.00000E+00
 -1       917 6.82322E-06-1.97499E-06 0.00000E+00
 -1       918 6.96027E-06-3.41705E-06 1.65436E-24
 -1       919 7.09725E-06-4.88878E-06-3.30872E-24
 -1       920 7.23417E-06-6.33792E-06 0.00000E+00
 -1       921 7.37109E-06-7.71217E-06-3.30872E-24
 -1       922 7.50771E-06-8.95898E-06-1.65436E-24
 -1       923 7.64433E-06-1.00253E-05 3.30872E-24
 -1       924 7.77870E-06-1.08578E-05 0.00000E+00
 -1       925 7.91390E-06-1.14020E-05-8.27181E-25
 -1       926 7.54584E-06-1.15030E-05 1.32349E-23
 -1       927 7.04438E-06-1.11912E-05 0.00000E+00
 -1       928 6.54340E-06-1.06905E-05 1.32349E-23
 -1       929 6.04020E-06-1.00260E-05 0.00000E+00
 -1       930 5.53675E-06-9.22471E-06-1.32349E-23
 -1       931 5.03281E-06-8.31519E-06 0.00000E+00
 -1       932 4.52871E-06-7.32736E-06 0.00000E+00
 -1       933 4.02449E-06-6.29189E-06 6.61744E-24
 -1       934 3.52025E-06-5.24016E-06 1.32349E-23
 -1       935 3.01602E-06-4.20362E-06 0.00000E+00
 -1       936 2.51187E-06-3.21356E-06 0.00000E+00
 -1       937 2.00794E-06-2.30086E-06 0.00000E+00
 -1       938 1.50416E-06-1.49527E-06 1.32349E-23
 -1       939 1.00127E-06-8.25581E-07 0.00000E+00
 -1       940 4.98275E-07-3.18710E-07 0.00000E+00
 -1       941 1.32336E-06 2.53106E-07 1.32349E-23
 -1       942 2.72075E-06 5.72219E-07 0.00000E+00
 -1       943 4.11483E-06 9.52241E-07 0.00000E+00
 -1       944 5.52170E-06 1.38970E-06 0.00000E+00
 -1       945 6.92955E-06 1.88334E-06 0.00000E+00
 -1       946 8.33982E-06 2.43338E-06 0.00000E+00
 -1       947 9.75052E-06 3.04225E-06-5.29396E-23
 -1       948 1.11616E-05 3.71390E-06 0.00000E+00
 -1       949 1.25727E-05 4.45475E-06 0.00000E+00
 -1       950 1.39834E-05 5.27301E-06-2.64698E-23
 -1       951 1.53936E-05 6.17992E-06 5.29396E-23
 -1       952 1.68018E-05 7.18904E-06 2.64698E-23
 -1       953 1.82090E-05 8.31792E-06 0.00000E+00
 -1       954 1.96056E-05 9.58721E-06 0.00000E+00
 -1       955 2.10047E-05 1.10231E-05 0.00000E+00
 -1       956 2.22590E-05 1.45258E-05 1.65436E-24
 -1       957 2.21737E-05 1.65492E-05 1.65436E-24
 -1       958 2.20878E-05 1.87142E-05-1.65436E-24
 -1       959 2.20015E-05 2.10075E-05-8.27181E-25
 -1       960 2.19149E-05 2.34158E-05-8.27181E-25
 -1       961 2.18280E-05 2.59256E-05-1.44757E-24
 -1       962 2.17409E-05 2.85236E-05 1.59135E-24
 -1       963 2.16537E-05 3.11963E-05 1.24077E-24
 -1       964 2.15663E-05 3.39301E-05 2.48154E-24
 -1       965 2.14787E-05 3.67116E-05-8.27181E-25
 -1       966 2.13911E-05 3.95274E-05-3.30872E-24
 -1       967 2.13034E-05 4.23639E-05 8.27181E-25
 -1       968 2.12157E-05 4.52076E-05-3.30872E-24
 -1       969 2.11281E-05 4.80452E-05 3.30872E-24
 -1       970 2.10407E-05 5.08631E-05 3.30872E-24
 -1       971 2.05380E-05 5.67001E-05-6.61744E-24
 -1       972 2.01056E-05 6.03908E-05 0.00000E+00
 -1       973 1.96718E-05 6.46538E-05 1.32349E-23
 -1       974 1.92332E-05 6.94180E-05 6.61744E-24
 -1       975 1.87924E-05 7.46064E-05-1.32349E-23
 -1       976 1.83495E-05 8.01386E-05 0.00000E+00
 -1       977 1.79050E-05 8.59303E-05 1.32349E-23
 -1       978 1.74594E-05 9.18948E-05 6.61744E-24
 -1       979 1.70134E-05 9.79436E-05 0.00000E+00
 -1       980 1.65675E-05 1.03988E-04 0.00000E+00
 -1       981 1.61222E-05 1.09938E-04-1.32349E-23
 -1       982 1.56785E-05 1.15706E-04 0.00000E+00
 -1       983 1.52364E-05 1.21205E-04 1.32349E-23
 -1       984 1.47988E-05 1.26351E-04 6.61744E-24
 -1       985 1.43626E-05 1.31065E-04 0.00000E+00
 -3
    1PSTEP                         2           1           1          
  100CL  101 1.000000000         841                     0    1           1
 -4  STRESS      6    1
 -5  SXX         1    4    1    1
 -5  SYY         1    4    2    2
 -5  SZZ         1    4    3    3
 -5  SXY         1    4    1    2
 -5  SYZ         1    4    2    3
 -5  SZX         1    4    3    1
 -1         1-3.25392E+06-9.91042E+05-5.83060E+05-9.87666E+05 1.60071E-10 8.66324E-09
 -1         2-2.14023E+06-4.49002E+04 3.00223E+03-1.96017E+05-6.49379E-10-1.55887E-09
 -1         3-1.06481E+06-7.13395E+05-1.52066E+03-1.17221E+05-6.38011E-10 7.18592E-09
 -1         4-3.87373E+05-1.78539E+05 4.11620E+02-5.29277E+04 1.86105E-10-5.54678E-09
 -1         5-8.23094E+04 4.80768E+05-1.46862E+05-1.37355E+04 1.73895E-09 1.36674E-09
 -1         8-1.83259E+06-7.57964E+05-2.99503E+05-9.11859E+05-1.49157E-10 3.63070E-09
 -1         9-2.13205E+06-4.67984E+05-3.33018E+05-5.22935E+05-7.00917E-10 3.51186E-09
 -1        10-1.19680E+06-1.03018E+06-2.68006E+03-3.67365E+05-2.10957E-09 3.98086E-09
 -1        11-5.78513E+05-2.75366E+05-5.45377E+01-1.89798E+05 3.54551E-10-3.83655E-09
 -1        12-2.28036E+05 4.28513E+05-1.75455E+05-8.21832E+04 2.06524E-09-2.28766E-10
 -1        15-4.55347E+03-6.26023E+04 3.09800E+03-2.76263E+05-5.09317E-11-1.30967E-09
 -1        16-1.32638E+06-3.96309E+05-2.25948E+05-5.52942E+05-1.38364E-09 2.31375E-09
 -1        17-8.46300E+05-7.94630E+05-1.74230E+05-5.19309E+05-2.62905E-09-1.43821E-09
 -1        18-2.18339E+05-2.09481E+05-9.99757E+04-3.64029E+05 4.26856E-10-8.03993E-10
 -1        19-3.21408E+04 2.02645E+05-8.58187E+04-1.06223E+05-1.78049E-09-1.27329E-10
 -1        20 2.41841E+05-1.58049E+05-1.46253E+04 1.16798E+05 1.40853E-08 3.60342E-09
 -1        21-4.54720E+04-3.93739E+05-1.90359E+03 2.41097E+04 5.56302E-08-8.41192E-09
 -1        22 4.14102E+04 2.20498E+05 1.21370E+03-5.18411E+04 7.63976E-11-1.92995E-09
 -1        23-3.92328E+05-3.33965E+04 2.67841E+03-2.45104E+05-8.18545E-12-6.61506E-10
 -1        24-3.02221E+05-3.88972E+04 1.28511E+05-4.59419E+05-1.06350E-09 1.62496E-10
 -1        25 6.45991E+05 3.28102E+05 2.36401E+05-3.47094E+05 9.06463E-10 8.70690E-10
 -1        26 7.03178E+04 5.34742E+05 7.35807E+04-1.05382E+05-1.04198E-09-1.18234E-09
 -1        27-1.55947E+05-1.55009E+05-7.18105E+04 1.23409E+05 5.89474E-09-3.68527E-09
 -1        28-4.54371E+04-2.67326E+05-2.49687E+03 1.18009E+05 2.01208E-08 3.87713E-10
 -1        29 5.05490E+05 3.50643E+05 1.32415E+03-3.10304E+04 3.74172E-11-9.80435E-10
 -1        30 2.10357E+05 4.55880E+04 1.82458E+03-7.25971E+04 1.18909E-10-3.91083E-10
 -1        31-6.25313E+05 5.34504E+04 3.73331E+03-1.41075E+05-6.68265E-10 8.03993E-10
 -1        32 4.15417E+05 4.89614E+05 4.03557E+05-3.14330E+05 5.30775E-10 3.41242E-09
 -1        33 9.78072E+05 9.35257E+05 4.16233E+05-1.23594E+05 4.31413E-10-1.34332E-09
 -1        34-4.89013E+05-1.06093E+05-7.62152E+04 1.83195E+04 1.17548E-08-2.97223E-09
 -1        35-5.63419E+04-8.46659E+04-1.91218E+03 1.60583E+05 5.01884E-08-5.11742E-10
 -1        36-4.62579E+06 1.04456E+05-2.98521E+05-2.07147E-08-2.48556E-10 5.15138E-09
 -1        37-4.74556E+06-1.24331E+05-2.02537E+05 3.76385E-08 1.46211E-09 1.41154E-09
 -1        38-4.67371E+06 1.37125E+04-7.74663E+04 1.02864E-09-2.77467E-10 4.52565E-09
 -1        39-4.69050E+06-1.62177E+04-4.59653E+04-1.30944E-07 2.22213E-11-1.22600E-09
 -1        40-4.68044E+06 1.80224E+03-1.98486E+04 5.09301E-09-2.79686E-10-3.48518E-09
 -1        41-4.68267E+06-2.12526E+03-1.12610E+04 1.43476E-08-9.03693E-10 8.51060E-10
 -1        42-4.68142E+06 2.58891E+02-5.83282E+03-1.32583E-08-3.24122E-10 5.13796E-09
 -1        43-4.68163E+06-4.69054E+02-4.53675E+03 3.69797E-08-1.66400E-09 1.04857E-08
 -1        44-4.68146E+06 2.07021E+02-4.89864E+03 3.78162E-09-1.48801E-09 9.30868E-10
 -1        45-4.68232E+06-1.60231E+03-8.69167E+03-6.40382E-08 1.19649E-09 7.64533E-09
 -1        46-4.68074E+06 1.34801E+03-1.49612E+04-1.44350E-08-7.61224E-10-5.23960E-09
 -1        47-4.68815E+06-1.21160E+04-3.44042E+04 5.63120E-08 1.19004E-10 4.96584E-09
 -1        48-4.67572E+06 1.02427E+04-5.79034E+04-5.28422E-08-3.72107E-10 7.67977E-09
 -1        49-4.72928E+06-9.28744E+04-1.51312E+05-5.29735E-08-6.79685E-10 1.70257E-09
 -1        50-4.63994E+06 7.80182E+04-2.23069E+05 5.80740E-08-1.25870E-10-2.11003E-09
 -1        51 5.01096E+04-4.29084E+05 9.53903E+04-1.23039E+06-5.82077E-11-4.24916E-09
 -1        52 2.24081E+04-4.21296E+05 5.43222E+04-1.39256E+06 2.76486E-10 1.07393E-08
 -1        53 1.23952E+04-4.42384E+05 3.58050E+04-1.22637E+06 3.63798E-11 7.52334E-09
 -1        54 2.72994E+04-4.41564E+05 4.49344E+04-1.39666E+06-3.05590E-10 2.52476E-09
 -1        55 5.29390E+04-4.57221E+05 7.35296E+04-1.22558E+06-1.45519E-10 4.59113E-09
 -1        56-4.87608E+06-5.63169E+05-3.64959E+05-1.87611E+06-1.92085E-09-3.09956E-09
 -1        57-5.01655E+06-8.82792E+05-2.43613E+05-1.86810E+06-2.61753E-09-8.59654E-09
 -1        58-4.94910E+06-6.73105E+05-8.58991E+04-1.85364E+06-1.33514E-09-9.49149E-09
 -1        59-4.93227E+06-7.52542E+05-5.05585E+04-1.89517E+06-9.38599E-10 5.63705E-09
 -1        60-4.95921E+06-6.87976E+05-2.00728E+04-1.85091E+06-1.72804E-10-6.90306E-10
 -1        61-4.92293E+06-7.32494E+05-1.13155E+04-1.89539E+06-1.61708E-09 1.21349E-08
 -1        62-4.95812E+06-6.92543E+05-5.69300E+03-1.85354E+06-8.05358E-10 1.06912E-08
 -1        63-4.92856E+06-7.23122E+05-4.86407E+03-1.88703E+06 9.45874E-10 6.54052E-09
 -1        64-4.95331E+06-6.97431E+05-6.08480E+03-1.85912E+06 1.93222E-09 5.65751E-09
 -1        65-4.94092E+06-7.14382E+05-1.22480E+04-1.87388E+06-1.61162E-09-1.08321E-09
 -1        66-4.94559E+06-7.01489E+05-2.20944E+04-1.86653E+06-3.56067E-10 1.57252E-09
 -1        67-4.96603E+06-7.21405E+05-5.53859E+04-1.85645E+06 9.31834E-10-1.80080E-10
 -1        68-4.92845E+06-6.91145E+05-9.43535E+04-1.87633E+06-2.49383E-09 6.46469E-09
 -1        69-5.06700E+06-8.56357E+05-2.67349E+05-1.81808E+06 2.75395E-09 2.42653E-09
 -1        70-4.84622E+06-5.72273E+05-4.00492E+05-1.90306E+06-1.78261E-09 9.32778E-09
 -1        71-2.04844E+06-4.88792E+03 1.40111E+04-4.52653E-08-2.65953E-10-3.25599E-09
 -1        72-2.04262E+06 5.82134E+03 9.49352E+03 8.63575E-08 1.25470E-10-2.59479E-09
 -1        73-2.04619E+06-6.41619E+02 3.62917E+03-6.12335E-08-5.20917E-10-7.38873E-09
 -1        74-2.04520E+06 7.58631E+02 2.14004E+03 1.83999E-09 1.72505E-10 6.19616E-09
 -1        75-2.04587E+06-8.38551E+01 8.97236E+02 5.00301E-08 1.21608E-10 4.05157E-09
 -1        76-2.04557E+06 9.55238E+01 4.54668E+02 5.06253E-08 1.04216E-09 3.26622E-10
 -1        77-2.04582E+06-8.48892E+00 1.29665E+02 1.49490E-08-5.79753E-10 8.39236E-10
 -1        78-2.04564E+06-9.58647E+00-9.33557E+01-5.79309E-09 6.19668E-10-3.61744E-09
 -1        79-2.04580E+06 1.80131E+01-3.50477E+02 1.83309E-08 1.41794E-10-1.07142E-08
 -1        80-2.04575E+06-1.71732E+02-8.64689E+02 4.52473E-08-1.02335E-09 2.45142E-09
 -1        81-2.04572E+06 1.48258E+02-1.61234E+03-3.52688E-08 2.42785E-10 7.16011E-09
 -1        82-2.04640E+06-1.33806E+03-3.78890E+03-3.11167E-08-3.36225E-10 4.81703E-09
 -1        83-2.04516E+06 1.13143E+03-6.40638E+03-2.49921E-08 2.57160E-10 5.38262E-09
 -1        84-2.05094E+06-1.02646E+04-1.67430E+04-6.93537E-08-1.27267E-10-3.21234E-09
 -1        85-2.04119E+06 8.61923E+03-2.47028E+04 2.69703E-08 1.19678E-10 3.40333E-09
 -1        86-9.57337E+04 7.82004E+05 2.80517E+05-6.97940E+01 3.20142E-10-1.16302E-09
 -1        87 1.21331E+05 8.97384E+05 2.07418E+05 1.17687E+05 4.43833E-10-2.17551E-09
 -1        88-1.98331E+04 8.21958E+05 1.10332E+05-9.91610E+02 1.49521E-09 5.30235E-10
 -1        89 7.98908E+04 8.78537E+05 1.47435E+05 1.20604E+05 2.11003E-09 9.33051E-09
 -1        90-5.74544E+04 8.02295E+05 1.72179E+05-2.97789E+03 4.48199E-09 6.25914E-09
 -1        91-2.49496E+06-3.31961E+05-5.59700E+04-9.42670E+05-1.48157E-09 1.81899E-10
 -1        92-2.51219E+06-3.84931E+05-3.73199E+04-9.46096E+05 9.41327E-11-8.78572E-09
 -1        93-2.50628E+06-3.48636E+05-1.31819E+04-9.39088E+05-4.35534E-10-2.23736E-10
 -1        94-2.49897E+06-3.65339E+05-7.75507E+03-9.50614E+05-3.67066E-10-5.88216E-09
 -1        95-2.50802E+06-3.50716E+05-3.08040E+03-9.38452E+05-5.22959E-10-6.77699E-09
 -1        96-2.49715E+06-3.62690E+05-1.73251E+03-9.51144E+05 1.49151E-09 4.29509E-10
 -1        97-2.50808E+06-3.51183E+05-8.53099E+02-9.38592E+05 2.32069E-09-2.96882E-09
 -1        98-2.49760E+06-3.61682E+05-7.12352E+02-9.50383E+05 3.41100E-09-1.00111E-08
 -1        99-2.50755E+06-3.51722E+05-8.46181E+02-9.39205E+05-2.89458E-09-8.59359E-10
 -1       100-2.49916E+06-3.60611E+05-1.69449E+03-9.48732E+05 1.30183E-09-4.18964E-09
 -1       101-2.50650E+06-3.52280E+05-3.02912E+03-9.40223E+05-9.65542E-10-6.98378E-09
 -1       102-2.50278E+06-3.61345E+05-7.58961E+03-9.46061E+05-2.54698E-09 9.98511E-10
 -1       103-2.50393E+06-3.51102E+05-1.29267E+04-9.41827E+05 1.55941E-09-1.43064E-09
 -1       104-2.51722E+06-3.79050E+05-3.65553E+04-9.39940E+05 4.16719E-10-4.00860E-09
 -1       105-2.49220E+06-3.35393E+05-5.48457E+04-9.46051E+05-2.49747E-09 4.70027E-09
 -1       106-8.01703E+05-3.08779E+04 8.86087E+04 9.74069E-09-1.12643E-09-1.62981E-09
 -1       107-7.66031E+05 3.67807E+04 6.00404E+04-9.59653E-09-1.54469E-09-3.86262E-09
 -1       108-7.87479E+05-4.05314E+03 2.29950E+04 3.48024E-09 9.14054E-10-7.90351E-09
 -1       109-7.82305E+05 4.79425E+03 1.36109E+04 1.35601E-07-8.31723E-10-8.57517E-09
 -1       110-7.85468E+05-5.31492E+02 5.82028E+03-1.07054E-08-1.68176E-10 1.95951E-09
 -1       111-7.84624E+05 6.18603E+02 3.17036E+03 2.76270E-08-3.70158E-11-3.46222E-09
 -1       112-7.85167E+05-6.76868E+01 1.38609E+03 2.79783E-08-2.94066E-10-1.92665E-09
 -1       113-7.84986E+05 6.18657E+01 6.04415E+02-5.33750E-08 7.24765E-10 1.32978E-09
 -1       114-7.85108E+05 6.21904E+00 4.34652E+01-2.32347E-08-4.81403E-10-1.49532E-09
 -1       115-7.85120E+05-1.26732E+02-5.17454E+02 1.74964E-08 5.97717E-10 1.96576E-09
 -1       116-7.85034E+05 1.15826E+02-1.19405E+03-5.59409E-08 3.59725E-10 1.64192E-09
 -1       117-7.85640E+05-1.05388E+03-2.95084E+03-7.33236E-08-1.26995E-10 1.08605E-08
 -1       118-7.84590E+05 8.91811E+02-5.03825E+03-7.24569E-08 1.07557E-10-3.06954E-10
 -1       119-7.89222E+05-8.09337E+03-1.32011E+04-1.62845E-09-1.16912E-09-5.56065E-09
 -1       120-7.81457E+05 6.79575E+03-1.94853E+04-1.82125E-08 7.08914E-10 2.18279E-11
 -1       121 3.64587E+04-2.90257E+06-1.06549E+05 5.83250E+02-4.36557E-10 4.38195E-09
 -1       122-4.64251E+04-2.94594E+06-7.91620E+04 1.21540E+04-1.00954E-10-4.23552E-09
 -1       123 7.62355E+03-2.91772E+06-4.26778E+04 2.02074E+03-1.33468E-09 5.83827E-09
 -1       124-3.19715E+04-2.93853E+06-5.79711E+04 8.98711E+03-1.78261E-10-7.44933E-09
 -1       125 2.27154E+04-2.90991E+06-6.86697E+04 3.74830E+03-3.02680E-09-7.64385E-09
 -1       126-1.19437E+06-1.79239E+05 3.55441E+04-4.42456E+05 8.02174E-10 1.23146E-09
 -1       127-1.17078E+06-1.57946E+05 2.36998E+04-4.54356E+05 4.46676E-10-1.67893E-09
 -1       128-1.18773E+06-1.68097E+05 8.36570E+03-4.44088E+05-9.01309E-10-1.43200E-09
 -1       129-1.17843E+06-1.71136E+05 4.90539E+03-4.52371E+05-9.65656E-10 1.63806E-09
 -1       130-1.18682E+06-1.66570E+05 1.91018E+03-4.44256E+05-1.00385E-10-8.22456E-09
 -1       131-1.17956E+06-1.72867E+05 9.92154E+02-4.52083E+05 1.30186E-09-5.94093E-09
 -1       132-1.18661E+06-1.66430E+05 3.22926E+02-4.44354E+05-8.52651E-13 3.72819E-09
 -1       133-1.17998E+06-1.72900E+05-4.34382E+01-4.51771E+05 8.24912E-10-2.56298E-09
 -1       134-1.18639E+06-1.66548E+05-4.30257E+02-4.44561E+05 1.69280E-10 4.37467E-10
 -1       135-1.18063E+06-1.72759E+05-1.20221E+03-4.51206E+05 1.99975E-09-7.41409E-10
 -1       136-1.18595E+06-1.66587E+05-2.29289E+03-4.44909E+05 4.16890E-10-3.41834E-09
 -1       137-1.18258E+06-1.74200E+05-5.85197E+03-4.50136E+05 1.80216E-09-2.14186E-09
 -1       138-1.18445E+06-1.65192E+05-9.99041E+03-4.45594E+05 2.65384E-09-2.62844E-10
 -1       139-1.19274E+06-1.88870E+05-2.82685E+04-4.46531E+05 1.11413E-09-2.46064E-09
 -1       140-1.17587E+06-1.52548E+05-4.24081E+04-4.48277E+05-1.86537E-09-3.16686E-09
 -1       141-1.68310E+05-1.27203E+04 3.64980E+04-3.88029E-08-1.33295E-10-5.29326E-09
 -1       142-1.53622E+05 1.51509E+04 2.47274E+04-2.36944E-08 2.43218E-10-2.06637E-09
 -1       143-1.62441E+05-1.66936E+03 9.45062E+03 7.52561E-09 5.17518E-10 1.50476E-09
 -1       144-1.60327E+05 1.97339E+03 5.55375E+03 3.00352E-08-8.97759E-10 1.38630E-09
 -1       145-1.61609E+05-2.17461E+02 2.28857E+03 2.69360E-09 9.04918E-10 7.99446E-10
 -1       146-1.61294E+05 2.42757E+02 1.07600E+03 1.66591E-08-7.80585E-10-9.82260E-09
 -1       147-1.61475E+05-1.67613E+01 1.24403E+02 4.80866E-08-2.01481E-10 4.52076E-10
 -1       148-1.61512E+05-7.12312E+01-6.97007E+02 1.27020E-08-2.66700E-10 2.04068E-09
 -1       149-1.61392E+05 8.75402E+01-1.77291E+03-3.81336E-08 2.75854E-10 3.35683E-09
 -1       150-1.61992E+05-8.09130E+02-4.13431E+03-5.07353E-08-9.83190E-10 3.09245E-09
 -1       151-1.60995E+05 6.96125E+02-7.62097E+03 4.53804E-08 7.55007E-10 3.16413E-09
 -1       152-1.65031E+05-6.28060E+03-1.78377E+04 5.65958E-08-1.65042E-09 3.91515E-09
 -1       153-1.58354E+05 5.31031E+03-3.01364E+04 2.73621E-08 8.65143E-10 4.86943E-09
 -1       154-1.86346E+05-4.81867E+04-7.86795E+04-4.67126E-08 4.41982E-10 3.92174E-09
 -1       155-1.39665E+05 4.04647E+04-1.16020E+05-3.20206E-08 1.11561E-09 2.43017E-09
 -1       156 2.46246E+03-6.48714E+05-6.45642E+03 1.06843E+02-1.96451E-10 3.60410E-09
 -1       157-2.08828E+03-6.50934E+05-2.31084E+03 5.91660E+03-5.17048E-10-5.03508E-09
 -1       158-5.10635E+02-6.50326E+05 2.79339E+03 3.75734E+02-5.74801E-10 2.82671E-09
 -1       159 7.20156E+03-6.46179E+05 1.13228E+04 5.34106E+03-1.19485E-09 6.27915E-09
 -1       160-6.36377E+03-6.53446E+05 1.79338E+04 6.82787E+02-9.20409E-10 4.09955E-10
 -1       161-5.84917E+05-7.92951E+04-8.59742E+03-2.20345E+05 3.75167E-11-2.58478E-09
 -1       162-5.84122E+05-9.08444E+04-5.74024E+03-2.24793E+05 9.70147E-10 2.28476E-09
 -1       163-5.86603E+05-8.19070E+04-2.04648E+03-2.19860E+05 7.41238E-10-3.24781E-09
 -1       164-5.82192E+05-8.77463E+04-1.23690E+03-2.25376E+05 7.39419E-10-8.86121E-09
 -1       165-5.86828E+05-8.22660E+04-5.64722E+02-2.19810E+05 8.53930E-10-6.80913E-11
 -1       166-5.81986E+05-8.72954E+04-4.67009E+02-2.25384E+05-1.03000E-09-2.16349E-09
 -1       167-5.86804E+05-8.23438E+04-5.30460E+02-2.19855E+05-4.83851E-10-5.90461E-09
 -1       168-5.82169E+05-8.72426E+04-1.01527E+03-2.25231E+05 1.54307E-09-4.89422E-10
 -1       169-5.86640E+05-8.23226E+04-1.88020E+03-2.19960E+05 8.50946E-11 5.03405E-09
 -1       170-5.83030E+05-8.80020E+04-4.40600E+03-2.24863E+05 9.85409E-10 1.15051E-09
 -1       171-5.85942E+05-8.16180E+04-8.09828E+03-2.20207E+05-2.57302E-10 1.73304E-09
 -1       172-5.87921E+05-9.49713E+04-2.05297E+04-2.23392E+05 1.85463E-09 5.11818E-10
 -1       173-5.81783E+05-7.56222E+04-3.49478E+04-2.21328E+05-5.27507E-11 5.42059E-10
 -1       174-6.21044E+05-1.48724E+05-9.88867E+04-2.13638E+05-1.31831E-09 2.59479E-09
 -1       175-5.53118E+05-3.00362E+04-1.48207E+05-2.29140E+05 3.00133E-09-9.09495E-10
 -1       191 9.20321E+03 1.29171E+06 1.76297E+04-2.57195E+04-1.52795E-10-2.19370E-09
 -1       192 3.02615E+03 1.29476E+06 1.06900E+04-2.79842E+04-2.27101E-09-2.41926E-10
 -1       193 9.91795E+02 1.29269E+06 8.59743E+03-2.51709E+04-4.03588E-10-6.41376E-09
 -1       194 4.07910E+03 1.29512E+06 1.29541E+04-2.90021E+04-5.01359E-09-1.12232E-08
 -1       195 1.25575E+04 1.29109E+06 2.32026E+04-2.46655E+04-4.43833E-10-1.07866E-08
 -1       251-1.63544E+06 1.63894E+04-4.93862E+04-5.74941E+03-1.47338E-10-3.99086E-09
 -1       252-1.65138E+06-2.07214E+04-3.28306E+04-7.62987E+04 3.49246E-10-6.32235E-09
 -1       253-1.64303E+06 1.93438E+03-1.29480E+04-1.03810E+03-2.01908E-10-9.65383E-09
 -1       254-1.64416E+06-2.70044E+03-7.39645E+03-8.42068E+04-1.30967E-09-1.58013E-09
 -1       255-1.64394E+06 1.93806E+02-3.36417E+03 2.14624E+03 2.89219E-10-1.56774E-10
 -1       256-1.64409E+06-6.54899E+01-1.85692E+03-8.89982E+04 9.96579E-10-6.70667E-10
 -1       257-1.64399E+06 4.55075E+01-1.06180E+03 3.75334E+03 3.88809E-11-5.30872E-09
 -1       258-1.64436E+06 3.05345E+02-9.64796E+02-9.05503E+04-1.17308E-09 3.39583E-09
 -1       259-1.64398E+06 5.19638E+01-1.24254E+03 3.69932E+03-6.11635E-11-2.49622E-09
 -1       260-1.64410E+06-1.80770E+02-2.34098E+03-8.87923E+04-1.85537E-10-6.87805E-09
 -1       261-1.64389E+06 2.70039E+02-4.30172E+03 1.99431E+03 7.53062E-10-2.06910E-11
 -1       262-1.64450E+06-3.50446E+03-9.58376E+03-8.37965E+04 1.69666E-09 4.29645E-09
 -1       263-1.64266E+06 2.57563E+03-1.66759E+04-1.29626E+03-1.57161E-09 6.66023E-09
 -1       264-1.65434E+06-2.67053E+04-4.25337E+04-7.56839E+04-4.06408E-09-3.32329E-09
 -1       265-1.63277E+06 2.13694E+04-6.37279E+04-6.10349E+03-3.14503E-09 1.84082E-09
 -1       266-2.28114E+04-4.22743E+05 5.93235E+04 2.74992E+03 1.16415E-10-2.55932E-09
 -1       267 3.22947E+04-4.02330E+05 3.81744E+04-4.36763E+05-4.88853E-11-4.10182E-09
 -1       268-1.22032E+03-4.10684E+05 8.55361E+03 3.95219E+03-2.05546E-10-4.68725E-09
 -1       269-6.82692E+02-4.18987E+05-1.01479E+04-4.36838E+05 2.41357E-10 2.51384E-09
 -1       270 8.41586E+03-4.06012E+05-2.72121E+04 2.81713E+03-9.09495E-11 9.19135E-09
 -1       271-5.58884E+06-6.55217E+05-4.60328E+05-2.18725E+06-3.56522E-10 3.63798E-09
 -1       272-5.80584E+06-1.01687E+06-3.07074E+05-2.12906E+06-1.03955E-09-5.70435E-09
 -1       273-5.68812E+06-7.86813E+05-1.08486E+05-2.15085E+06-1.25601E-09-1.84082E-09
 -1       274-5.68419E+06-8.68126E+05-6.35966E+04-2.18110E+06 8.01208E-10 1.07411E-09
 -1       275-5.70916E+06-7.96989E+05-2.53879E+04-2.13772E+06-2.10457E-09-3.42516E-09
 -1       276-5.65695E+06-8.59178E+05-1.42222E+04-2.20078E+06-1.76169E-09-1.30740E-09
 -1       277-5.71559E+06-7.94561E+05-7.11721E+03-2.13179E+06-2.66618E-09-3.26213E-09
 -1       278-5.65100E+06-8.61116E+05-6.16459E+03-2.20657E+06 3.16543E-10 4.02144E-09
 -1       279-5.71530E+06-7.94811E+05-7.53184E+03-2.13211E+06 7.96263E-10 4.57931E-10
 -1       280-5.65815E+06-8.58462E+05-1.54127E+04-2.19950E+06 9.30640E-10-9.27685E-11
 -1       281-5.70820E+06-7.97498E+05-2.76795E+04-2.13864E+06 1.87265E-09 3.06136E-09
 -1       282-5.68758E+06-8.68678E+05-6.94646E+04-2.17855E+06-1.71167E-09 2.23645E-09
 -1       283-5.68568E+06-7.85875E+05-1.18492E+05-2.15241E+06 1.55524E-09-3.28873E-09
 -1       284-5.81917E+06-1.03260E+06-3.35499E+05-2.12341E+06 3.50428E-09-3.69619E-09
 -1       285-5.57810E+06-6.41122E+05-5.02791E+05-2.19109E+06-2.75031E-09 1.86265E-09
 -1       286-9.66768E+05 2.65644E+02-2.78695E+03-3.76388E+03 5.03678E-09-3.84739E-09
 -1       287-9.64478E+05-1.37930E+03-1.31473E+03-5.94932E+04 2.48838E-09-2.96347E-09
 -1       288-9.66950E+05-1.79101E+02-8.16669E+02-1.12492E+03 6.71207E-10-5.03341E-09
 -1       289-9.65362E+05-2.65045E+02-1.53647E+02-6.40463E+04-4.86580E-10-6.17320E-09
 -1       290-9.66858E+05-1.17602E+02-1.44684E+02 7.81562E+02 1.36606E-09 8.34632E-10
 -1       291-9.66286E+05 1.34862E+02 2.20122E+02-6.71633E+04 1.88857E-09 1.83178E-09
 -1       292-9.66775E+05-4.29671E+01 4.01393E+02 1.99089E+03 2.40152E-09 6.44695E-09
 -1       293-9.66779E+05 4.06725E+02 9.77942E+02-6.88560E+04 1.69109E-09 1.35317E-08
 -1       294-9.66795E+05-8.25025E+01 1.85673E+03 2.47529E+03 2.88469E-09-1.05231E-09
 -1       295-9.66413E+05 1.11840E+03 4.07247E+03-6.90792E+04 3.14361E-09-8.20262E-09
 -1       296-9.67197E+05-6.89643E+02 7.38282E+03 2.21443E+03 2.60957E-09-6.76710E-09
 -1       297-9.63045E+05 6.28428E+03 1.72934E+04-6.78182E+04 3.29237E-09-7.54540E-09
 -1       298-9.69830E+05-5.23526E+03 2.90412E+04 1.21381E+03 1.98270E-09 1.05319E-09
 -1       299-9.41528E+05 4.65960E+04 7.61650E+04-6.50637E+04-7.70797E-10 2.38742E-09
 -1       300-9.87990E+05-3.93894E+04 1.12000E+05-5.43714E+02 8.11269E-10 4.30737E-09
 -1       301 6.57807E+04 1.48667E+05 1.19092E+05-4.04395E+04 2.64117E-09-4.06544E-09
 -1       302 2.23795E+04 1.69066E+05 6.58923E+04-4.61800E+04-8.28095E-10-6.97901E-09
 -1       303 6.63717E+03 1.56353E+05 4.28974E+04-4.07315E+04 2.01464E-09-1.67890E-09
 -1       304 1.61280E+04 1.66199E+05 5.17997E+04-4.62056E+04 4.36557E-11 5.24551E-10
 -1       305 4.54191E+04 1.51522E+05 8.44241E+04-4.05526E+04 2.77942E-09 8.75457E-09
 -1       306-5.19372E+06-6.08373E+05-4.34974E+05-2.03596E+06 3.31056E-09-5.12227E-09
 -1       307-5.41351E+06-9.35079E+05-2.90120E+05-1.96407E+06 2.72394E-09-5.13683E-09
 -1       308-5.28763E+06-7.32712E+05-1.02573E+05-2.00157E+06 8.00355E-11 6.01722E-09
 -1       309-5.29702E+06-7.95879E+05-6.00446E+04-2.01449E+06 2.33695E-09 7.11589E-09
 -1       310-5.30879E+06-7.41130E+05-2.40584E+04-1.98778E+06-1.25465E-09 3.14685E-10
 -1       311-5.26778E+06-7.90912E+05-1.33536E+04-2.03709E+06 1.43018E-10-1.32241E-09
 -1       312-5.31709E+06-7.36549E+05-6.70558E+03-1.97957E+06 1.11413E-10 1.06252E-09
 -1       313-5.25737E+06-7.97835E+05-5.64714E+03-2.04872E+06-2.70211E-09-3.09381E-09
 -1       314-5.31963E+06-7.33821E+05-6.77866E+03-1.97650E+06-1.07491E-09-4.60250E-09
 -1       315-5.25863E+06-8.00941E+05-1.38319E+04-2.04901E+06 2.91379E-09-3.68345E-09
 -1       316-5.31590E+06-7.33507E+05-2.46780E+04-1.97928E+06 4.31638E-09 6.25005E-09
 -1       317-5.28054E+06-8.14488E+05-6.20765E+04-2.03539E+06 9.30299E-10-2.11094E-09
 -1       318-5.29759E+06-7.21375E+05-1.05769E+05-1.98960E+06-1.09230E-09-4.58385E-09
 -1       319-5.39535E+06-9.63077E+05-2.99504E+05-1.98838E+06-1.74259E-09-6.91216E-10
 -1       320-5.20215E+06-5.91832E+05-4.48970E+05-2.02370E+06-4.02360E-09-4.16185E-09
 -1       321-6.65369E+05-4.94043E+04 1.41684E+05-7.53655E+02-1.72577E-09-2.54659E-10
 -1       322-6.08168E+05 5.87682E+04 9.60294E+04-1.90268E+04-2.26828E-09 6.31553E-09
 -1       323-6.42616E+05-6.49803E+03 3.67709E+04-3.23630E+02-1.12777E-10-1.68438E-09
 -1       324-6.34291E+05 7.64852E+03 2.18007E+04-1.97586E+04 4.94765E-10 1.58934E-09
 -1       325-6.39390E+05-8.56726E+02 9.35475E+03-1.76987E+01 2.99679E-10 2.78442E-09
 -1       326-6.38061E+05 9.96171E+02 5.18128E+03-2.02303E+04-5.96799E-10-4.28054E-09
 -1       327-6.38908E+05-1.13615E+02 2.42552E+03 1.48118E+02 1.41597E-10-7.53073E-09
 -1       328-6.38635E+05 1.53928E+02 1.40929E+03-2.04221E+04 4.74785E-10-2.24651E-09
 -1       329-6.38840E+05-2.90455E+01 9.06477E+02 1.74006E+02 3.97904E-12 5.91970E-09
 -1       330-6.38637E+05 1.57202E+02 1.00573E+03-2.03319E+04-1.03017E-09 7.11450E-09
 -1       331-6.38896E+05-1.21452E+02 1.41740E+03 5.79412E+01-1.25510E-10-3.87246E-10
 -1       332-6.38093E+05 1.03902E+03 3.05324E+03-1.99601E+04-9.02219E-10-6.80080E-09
 -1       333-6.39342E+05-8.97995E+02 5.04358E+03-1.97749E+02 7.76708E-10-2.28306E-09
 -1       334-6.34453E+05 7.99716E+03 1.31339E+04-1.92976E+04 3.16504E-10 3.49530E-09
 -1       335-6.42463E+05-6.77053E+03 1.93108E+04-6.05012E+02-6.21640E-10-1.12504E-09
 -1       336 1.99380E+04-2.83410E+06-6.64213E+04 9.95352E+03-8.30005E-09 3.06682E-09
 -1       337-3.07585E+04-2.86290E+06-6.49491E+04-2.75748E+05-5.84623E-09 5.05179E-09
 -1       338 1.11372E+04-2.83807E+06-6.18767E+04 1.56734E+04-1.23928E-08 7.46968E-09
 -1       339-7.73483E+04-2.88786E+06-1.33691E+05-2.78035E+05-6.32645E-09 3.81806E-09
 -1       340 6.47126E+04-2.81002E+06-1.88905E+05 1.22397E+04-9.03674E-09 9.22410E-09
 -1       341-2.71197E+06-3.59447E+05-7.66706E+04-1.03193E+06-4.00178E-10 4.32192E-09
 -1       342-2.74483E+06-4.22795E+05-5.11312E+04-1.02602E+06-8.19000E-10-2.10093E-10
 -1       343-2.72771E+06-3.82071E+05-1.80884E+04-1.02677E+06-7.11680E-11-6.96855E-09
 -1       344-2.72599E+06-3.96685E+05-1.06787E+04-1.03303E+06-5.25432E-10 4.64752E-10
 -1       345-2.73059E+06-3.84415E+05-4.34857E+03-1.02533E+06 2.07024E-10 3.50292E-09
 -1       346-2.72230E+06-3.94314E+05-2.64938E+03-1.03519E+06-2.26237E-10 6.74163E-10
 -1       347-2.73138E+06-3.84292E+05-1.72255E+03-1.02468E+06-1.00039E-09 1.89840E-09
 -1       348-2.72149E+06-3.94708E+05-2.24025E+03-1.03600E+06-2.94992E-09-8.90725E-09
 -1       349-2.73140E+06-3.84003E+05-3.58847E+03-1.02453E+06 6.72514E-10-6.25471E-09
 -1       350-2.72277E+06-3.96312E+05-8.11221E+03-1.03565E+06 5.63324E-09 5.71231E-09
 -1       351-2.73012E+06-3.82742E+05-1.47814E+04-1.02501E+06 6.18911E-10 2.04000E-09
 -1       352-2.73206E+06-4.08714E+05-3.74581E+04-1.03258E+06 9.05516E-10-6.69388E-10
 -1       353-2.72223E+06-3.72096E+05-6.37263E+04-1.02743E+06 7.73070E-11 3.14321E-09
 -1       354-2.79352E+06-5.06127E+05-1.80563E+05-1.01377E+06 7.07587E-10 2.63935E-09
 -1       355-2.66939E+06-2.89300E+05-2.70516E+05-1.04240E+06-5.74801E-10 3.92902E-10
 -1       356-2.84506E+05-1.81586E+04 5.19958E+04-2.73141E+02 1.17097E-09-1.08048E-09
 -1       357-2.63401E+05 2.15656E+04 3.52589E+04-1.80824E+04-7.02585E-10-2.36469E-10
 -1       358-2.76131E+05-2.39186E+03 1.34684E+04-9.81237E+01-6.91671E-10-1.52886E-09
 -1       359-2.73041E+05 2.80320E+03 7.94366E+03-1.83654E+04 5.29667E-10-1.78704E-09
 -1       360-2.74938E+05-3.14285E+02 3.30348E+03 1.10455E+01-3.60387E-11 9.51559E-10
 -1       361-2.74466E+05 3.54928E+02 1.62960E+03-1.85288E+04-2.07211E-09 7.82654E-09
 -1       362-2.74747E+05-2.80442E+01 3.60179E+02 6.52285E+01 3.07409E-10 1.13812E-09
 -1       363-2.74764E+05-5.33160E+01-6.06336E+02-1.85812E+04-1.45091E-09-1.64835E-09
 -1       364-2.74652E+05 9.03313E+01-1.79500E+03 6.34604E+01 1.15477E-09-5.06020E-10
 -1       365-2.75257E+05-8.40750E+02-4.28861E+03-1.85232E+04-1.29285E-09 1.24510E-09
 -1       366-2.74241E+05 7.23288E+02-7.95317E+03 7.15242E+00 2.00316E-10-8.47649E-10
 -1       367-2.78382E+05-6.57544E+03-1.86279E+04-1.83506E+04-9.06653E-10 3.01111E-09
 -1       368-2.71490E+05 5.53720E+03-3.15023E+04-1.09067E+02 2.80352E-10-3.16504E-09
 -1       369-3.00575E+05-5.03940E+04-8.22148E+04-1.80227E+04-2.88014E-09 2.51021E-10
 -1       370-2.51974E+05 4.22635E+04-1.21280E+05-3.17459E+02 2.44518E-09-1.23691E-09
 -1       371-9.95244E+03-5.41039E+05 2.56568E+04 1.15936E+03-2.33740E-09-2.30557E-09
 -1       372 1.02151E+04-5.31650E+05 1.15457E+04-1.95657E+05-5.57702E-09-7.06564E-09
 -1       373 1.23236E+03-5.34896E+05-6.54461E+03 1.80625E+03-2.64299E-09-3.09284E-09
 -1       374-1.97970E+04-5.46885E+05-3.24559E+04-1.95654E+05-5.80076E-09 5.92809E-09
 -1       375 1.85040E+04-5.25784E+05-5.30957E+04 1.15532E+03-1.44428E-09 3.94721E-09
 -1       376-1.44944E+06-1.82228E+05-6.95248E+04-5.54764E+05 2.01726E-09-3.94721E-09
 -1       377-1.47355E+06-2.45408E+05-4.63635E+04-5.56049E+05 6.24482E-10-1.49885E-09
 -1       378-1.46334E+06-2.03101E+05-1.64075E+04-5.50526E+05 3.33898E-10 3.98177E-09
 -1       379-1.45727E+06-2.20978E+05-9.67613E+03-5.61537E+05-6.65636E-11 2.05102E-09
 -1       380-1.46557E+06-2.05618E+05-3.91428E+03-5.49669E+05-7.73042E-10-5.79848E-09
 -1       381-1.45466E+06-2.18091E+05-2.33306E+03-5.62653E+05-6.72003E-10-8.68567E-11
 -1       382-1.46595E+06-2.05853E+05-1.41541E+03-5.49467E+05-1.49649E-09-1.24911E-09
 -1       383-1.45445E+06-2.17829E+05-1.69565E+03-5.62728E+05-3.74939E-10-6.97571E-09
 -1       384-1.46577E+06-2.05868E+05-2.60605E+03-5.49597E+05-4.99568E-10-6.18058E-09
 -1       385-1.45570E+06-2.18586E+05-5.80619E+03-5.62040E+05 1.74634E-09 8.24252E-09
 -1       386-1.46469E+06-2.05144E+05-1.05587E+04-5.50131E+05-8.81727E-10-8.84029E-10
 -1       387-1.46258E+06-2.27115E+05-2.66995E+04-5.59500E+05 2.13959E-10-5.62522E-10
 -1       388-1.45894E+06-1.97701E+05-4.54376E+04-5.51996E+05-1.04046E-09 8.11269E-09
 -1       389-1.50650E+06-2.96204E+05-1.28597E+05-5.45818E+05-9.65429E-10 4.63842E-09
 -1       390-1.42118E+06-1.38894E+05-1.92733E+05-5.62751E+05 5.26416E-09-2.61207E-09
 -1       406 1.08035E+04 1.25133E+06 2.11703E+04-1.65828E+05-9.13133E-10 1.68311E-08
 -1       407 4.59306E+03 1.25487E+06 1.64294E+04-1.87506E+05-8.85302E-09 3.23271E-08
 -1       408 3.34088E+03 1.25182E+06 1.91604E+04-1.65399E+05-7.98536E-10 2.39488E-08
 -1       409 1.34782E+04 1.25860E+06 3.61389E+04-1.87937E+05-1.01099E-08 4.42606E-09
 -1       410 3.95264E+04 1.24685E+06 6.96547E+04-1.65304E+05-9.82254E-10 3.24781E-09
 -1       466 1.89089E+06-6.34187E+04 1.79937E+05 6.17811E+03-2.71029E-10 1.96451E-10
 -1       467 1.96683E+06 7.43085E+04 1.22605E+05-9.68027E+04 3.47882E-10 1.78989E-09
 -1       468 1.92031E+06-8.47626E+03 4.67579E+04 9.90645E+02 2.31921E-10 1.21327E-09
 -1       469 1.93176E+06 9.69846E+03 2.80169E+04-8.83412E+04-2.65118E-10 1.05319E-09
 -1       470 1.92459E+06-1.14306E+03 1.21087E+04-2.27218E+03 1.50521E-10-8.48559E-10
 -1       471 1.92610E+06 1.50433E+03 7.08141E+03-8.35307E+04 4.82032E-10-2.31557E-09
 -1       472 1.92525E+06-1.48422E+02 3.94768E+03-3.82031E+03 1.81217E-10-7.07132E-10
 -1       473 1.92526E+06 6.60461E+02 3.58412E+03-8.20488E+04 4.27633E-10-2.34519E-09
 -1       474 1.92522E+06-1.82956E+02 4.51879E+03-3.75381E+03-6.74845E-10 1.70940E-09
 -1       475 1.92637E+06 1.80560E+03 8.65973E+03-8.38070E+04 9.18590E-11 1.34833E-09
 -1       476 1.92439E+06-1.42791E+03 1.50938E+04-2.06229E+03 9.61791E-10 2.62025E-09
 -1       477 1.93329E+06 1.21475E+04 3.50850E+04-8.89046E+04 4.01087E-10 7.13044E-09
 -1       478 1.91905E+06-1.05950E+04 5.86897E+04 1.34452E+03-9.70431E-10 2.17187E-09
 -1       479 1.97690E+06 9.33164E+04 1.53794E+05-9.77225E+04-2.82489E-09-2.59752E-09
 -1       480 1.88223E+06-7.94527E+04 2.25955E+05 6.73929E+03-2.45018E-09-3.53612E-09
 -1       481-1.56679E+04 4.01005E+05 4.50228E+04-1.72210E+03 1.63709E-11 1.78079E-09
 -1       482 1.90062E+04 4.20083E+05 3.21122E+04 1.92814E+04-2.43745E-10 7.18933E-09
 -1       483-2.72215E+03 4.07881E+05 1.48432E+04-1.23496E+03 7.00311E-11 3.44789E-09
 -1       484 7.96974E+03 4.14215E+05 1.58206E+04 1.84056E+04-6.82121E-13-4.07454E-10
 -1       485-5.08767E+03 4.06717E+05 1.59486E+04-8.48718E+02 1.08230E-10-2.93221E-09
 -1       486-1.89916E+06-2.14827E+05-1.81299E+05-7.46648E+05-3.89264E-10-2.17551E-09
 -1       487-1.97447E+06-3.66226E+05-1.20749E+05-7.34592E+05-5.03860E-10 3.18323E-10
 -1       488-1.93680E+06-2.67839E+05-4.28087E+04-7.34029E+05-5.95378E-10-9.64064E-11
 -1       489-1.92938E+06-3.05339E+05-2.50284E+04-7.52189E+05-1.29512E-09-1.39471E-09
 -1       490-1.94399E+06-2.72941E+05-1.00385E+04-7.30165E+05 3.18323E-12-2.86263E-09
 -1       491-1.91999E+06-3.00550E+05-5.52817E+03-7.58451E+05-8.54925E-10-5.97652E-10
 -1       492-1.94634E+06-2.72158E+05-2.71696E+03-7.28043E+05 3.54248E-10 6.97355E-10
 -1       493-1.91688E+06-3.02144E+05-2.12953E+03-7.61820E+05 8.99718E-10-2.24475E-10
 -1       494-1.94727E+06-2.71195E+05-2.40089E+03-7.26939E+05 1.09299E-09-2.83933E-10
 -1       495-1.91651E+06-3.04017E+05-4.72852E+03-7.62982E+05-1.04956E-09-2.24190E-10
 -1       496-1.94680E+06-2.70260E+05-8.34724E+03-7.26930E+05 5.96060E-10-2.49611E-09
 -1       497-1.92179E+06-3.10753E+05-2.09579E+04-7.61034E+05-7.52436E-10-1.23055E-09
 -1       498-1.94201E+06-2.64761E+05-3.56380E+04-7.28761E+05-6.77574E-10 1.27329E-10
 -1       499-1.95731E+06-3.63651E+05-1.00784E+05-7.48724E+05 3.09228E-10-2.03727E-10
 -1       500-1.91151E+06-2.19682E+05-1.51169E+05-7.38325E+05-7.74889E-10 1.89175E-10
 -1       501-1.39525E+04-1.93783E+04 5.27779E+04-1.40792E+02 4.88944E-09-3.73257E-09
 -1       502 1.17833E+04 2.16851E+04 3.65690E+04-8.43521E+04 2.09639E-09 2.14641E-10
 -1       503-5.01858E+03-2.79375E+03 1.35959E+04-3.54378E+01 5.55701E-10 1.85628E-09
 -1       504-1.14096E+02 2.85084E+03 8.43039E+03-8.44758E+04-1.26420E-09-8.70386E-10
 -1       505-3.59560E+03-4.53182E+02 3.48714E+03-2.11985E+01 2.15641E-09 2.14072E-09
 -1       506-2.82727E+03 7.10347E+02 2.15348E+03-8.44941E+04 4.28099E-09-5.38546E-09
 -1       507-3.30409E+03-6.24300E+01 1.16162E+03-1.72915E+01 3.06545E-09-2.29420E-09
 -1       508-3.60029E+03 6.14796E+02 1.09018E+03-8.44986E+04 1.94098E-09 5.68855E-09
 -1       509-3.28238E+03-4.28747E+01 1.38416E+03-1.51029E+01 2.72155E-09-4.26508E-09
 -1       510-3.25685E+03 9.67367E+02 2.65416E+03-8.44981E+04 4.90502E-09-7.82279E-10
 -1       511-3.56843E+03-4.56726E+02 4.59609E+03-1.80403E+01 2.38606E-09-2.85718E-09
 -1       512-6.29883E+02 4.00187E+03 1.07866E+04-8.44836E+04 5.31463E-09-4.19368E-09
 -1       513-5.29103E+03-3.36493E+03 1.78593E+04-3.09879E+01 1.13596E-09-6.75755E-10
 -1       514 1.36726E+04 2.86902E+04 4.72347E+04-8.43776E+04-3.09228E-10-3.27327E-09
 -1       515-1.67074E+04-2.46739E+04 6.89253E+04-1.26219E+02 1.19326E-09-4.34738E-09
 -1       516-2.91497E+04 3.07783E+05 8.60838E+04-1.88549E+03 5.87897E-09 3.34597E-09
 -1       517 3.93136E+04 3.42198E+05 6.59035E+04-1.34501E+05 6.24186E-09 1.07741E-08
 -1       518-6.97187E+03 3.19400E+05 3.86054E+04-1.59271E+03 4.60159E-09 2.50384E-09
 -1       519 3.37907E+04 3.41373E+05 5.85296E+04-1.35383E+05 5.29189E-09-2.12276E-09
 -1       520-2.48188E+04 3.09929E+05 7.21592E+04-1.01741E+03 2.49929E-09-3.76167E-09
 -1       521-4.01630E+06-4.65964E+05-3.47500E+05-1.57425E+06 2.45200E-09-1.97906E-09
 -1       522-4.17539E+06-7.41632E+05-2.31500E+05-1.53400E+06 1.30058E-09-2.04454E-09
 -1       523-4.09193E+06-5.64299E+05-8.20243E+04-1.54599E+06-9.54060E-10 5.09317E-09
 -1       524-4.08236E+06-6.31194E+05-4.79077E+04-1.57523E+06 5.92763E-10 4.39923E-09
 -1       525-4.10863E+06-5.71059E+05-1.92271E+04-1.53509E+06 3.88809E-10 1.49794E-09
 -1       526-4.06006E+06-6.26521E+05-1.06047E+04-1.59269E+06-3.47200E-10-1.65301E-10
 -1       527-4.11467E+06-5.67931E+05-5.23351E+03-1.52917E+06-1.11231E-09 2.18870E-09
 -1       528-4.05301E+06-6.30806E+05-4.23573E+03-1.60066E+06-4.84852E-09 3.54187E-09
 -1       529-4.11609E+06-5.66426E+05-4.87264E+03-1.52745E+06-3.71307E-09-3.51974E-09
 -1       530-4.05483E+06-6.31870E+05-9.74511E+03-1.59956E+06 6.00124E-09 2.85604E-09
 -1       531-4.11281E+06-5.66959E+05-1.73523E+04-1.53022E+06 2.13754E-09 1.43700E-10
 -1       532-4.07156E+06-6.39648E+05-4.34503E+04-1.58788E+06-1.29057E-09-1.16870E-09
 -1       533-4.09904E+06-5.59545E+05-7.41748E+04-1.53860E+06 2.87082E-09 3.93993E-09
 -1       534-4.15384E+06-7.41187E+05-2.09552E+05-1.55205E+06 7.34872E-10 4.11819E-09
 -1       535-4.03093E+06-4.70428E+05-3.14548E+05-1.56402E+06-2.04818E-09-1.26602E-09
 -1       536 1.19337E+06-6.26432E+04 1.79758E+05 2.61188E+03-1.76169E-09 8.44011E-10
 -1       537 1.26600E+06 7.44365E+04 1.21877E+05-2.71100E+04-2.69938E-09 1.49885E-09
 -1       538 1.22232E+06-8.24601E+03 4.67102E+04 1.38439E+03-1.02773E-10 4.46744E-09
 -1       539 1.23282E+06 9.65947E+03 2.77394E+04-2.50334E+04 2.35252E-09 3.38332E-09
 -1       540 1.22644E+06-1.09258E+03 1.19696E+04 5.44366E+02-4.48608E-10-3.04863E-09
 -1       541 1.22801E+06 1.25010E+03 6.76196E+03-2.36765E+04 4.84761E-10-2.77669E-09
 -1       542 1.22705E+06-1.54899E+02 3.41370E+03 2.75385E+01 8.62883E-11 5.01007E-09
 -1       543 1.22731E+06 2.53734E+02 2.49112E+03-2.29493E+04-4.15525E-11 3.49263E-09
 -1       544 1.22709E+06-9.88097E+01 2.47186E+03-1.82939E+02 7.91260E-11-1.85997E-09
 -1       545 1.22759E+06 7.50171E+02 4.16077E+03-2.28253E+04-4.45795E-10 5.27962E-10
 -1       546 1.22676E+06-6.25479E+02 7.04588E+03-9.64219E+01 4.51791E-10 1.22782E-10
 -1       547 1.23032E+06 5.60788E+03 1.60847E+04-2.32981E+04 4.65207E-10 2.00089E-09
 -1       548 1.22438E+06-4.75492E+03 2.70267E+04 2.89811E+02 1.16756E-09 7.60338E-10
 -1       549 1.24946E+06 4.30414E+04 7.04264E+04-2.43817E+04 2.93426E-10 3.40242E-09
 -1       550 1.20765E+06-3.61870E+04 1.03850E+05 9.84722E+02-8.59927E-10-2.35013E-09
 -1       551 2.63204E+04-4.05292E+05 4.18115E+04-6.36755E+05-4.26007E-09 7.74889E-10
 -1       552 1.33660E+04-3.99690E+05 2.62155E+04-7.22934E+05-6.88669E-09 2.05910E-09
 -1       553 8.30286E+03-4.04826E+05 2.22835E+04-6.35780E+05-7.20320E-09 3.84898E-09
 -1       554 1.75974E+04-3.98620E+05 3.49622E+04-7.23228E+05-9.29140E-09 5.03860E-09
 -1       555 3.95859E+04-4.08224E+05 6.33704E+04-6.36381E+05-5.17502E-09-2.40652E-09
 -1       556-3.72634E+05-2.04200E+05 1.84249E+04-3.54494E+05 1.16415E-09 1.07684E-09
 -1       557-3.50211E+05-2.29598E+05 8.95257E+03-3.74302E+05-1.74623E-09 3.57295E-09
 -1       558-3.74254E+05-2.11132E+05 3.71628E+03-3.50528E+05 6.54836E-11 2.80761E-09
 -1       559-3.52305E+05-2.32970E+05 1.84020E+03-3.75532E+05 7.13044E-10 9.74978E-10
 -1       560-3.75058E+05-2.11022E+05 7.93908E+02-3.50743E+05 6.54836E-11 2.41425E-09
 -1       561-3.53132E+05-2.32886E+05 3.76477E+02-3.76148E+05 4.90218E-09 7.78505E-09
 -1       562-3.75573E+05-2.10728E+05 1.03233E+02-3.51068E+05 5.23869E-10 1.38607E-09
 -1       563-3.53567E+05-2.32700E+05-7.48035E+01-3.76456E+05-4.60204E-10 9.80435E-10
 -1       564-3.75792E+05-2.10579E+05-3.23870E+02-3.51222E+05 3.52884E-10 2.76850E-09
 -1       565-3.53712E+05-2.32648E+05-7.76976E+02-3.76536E+05-7.09292E-10 3.25781E-09
 -1       566-3.75691E+05-2.10601E+05-1.65551E+03-3.51182E+05 2.68301E-10 4.71846E-09
 -1       567-3.53855E+05-2.32978E+05-3.67214E+03-3.76326E+05-1.08048E-09 2.43745E-09
 -1       568-3.75158E+05-2.11643E+05-7.60989E+03-3.50609E+05 8.98581E-10 3.67436E-10
 -1       569-3.57584E+05-2.38441E+05-1.79899E+04-3.74392E+05 2.26828E-09 4.72937E-10
 -1       570-3.73728E+05-2.28752E+05-3.74194E+04-3.43517E+05-2.88856E-09-1.79261E-09
 -1       571 7.95642E+05 4.27765E+04 7.69247E+04-1.89846E+05 1.49157E-09 2.49520E-09
 -1       572 8.08448E+05 1.35818E+04 3.82853E+04-2.14609E+05 1.58070E-09-3.72165E-09
 -1       573 8.00598E+05 2.11310E+03 1.71238E+04-1.89113E+05-9.82254E-11 2.39925E-09
 -1       574 8.01794E+05 5.21679E+02 8.67716E+03-2.15318E+05-6.59384E-10 1.70985E-09
 -1       575 8.00798E+05-1.31818E+02 4.15319E+03-1.89046E+05-2.62298E-09-2.72485E-09
 -1       576 8.00860E+05-6.05378E+01 2.14852E+03-2.15391E+05-1.90266E-09-5.68616E-09
 -1       577 8.00752E+05-7.34974E+01 1.10384E+03-1.89040E+05 1.01124E-10 3.85262E-09
 -1       578 8.00770E+05-4.92198E+01 6.77963E+02-2.15400E+05 4.05180E-10 7.37782E-09
 -1       579 8.00890E+05-1.20916E+02 5.42892E+02-1.89037E+05 7.71252E-10-3.40151E-10
 -1       580 8.01065E+05-1.94331E+02 7.18373E+02-2.15402E+05 1.64073E-09-1.89357E-09
 -1       581 8.01252E+05-3.37065E+02 1.19210E+03-1.89038E+05-1.60435E-09-3.87445E-10
 -1       582 8.01815E+05-3.02082E+02 2.41926E+03-2.15315E+05-1.38061E-09-2.10457E-09
 -1       583 8.01720E+05-3.55522E+01 4.69020E+03-1.89122E+05-9.89530E-10-2.55295E-09
 -1       584 8.04347E+05 2.94255E+03 1.05178E+04-2.14407E+05-6.31553E-09 1.94086E-09
 -1       585 8.00991E+05 1.08239E+04 2.10534E+04-1.89980E+05 1.32059E-09 1.58616E-09
 -1       586 8.93199E+03 1.79374E+05 1.31495E+04-6.74982E+05 7.75981E-09-7.60338E-10
 -1       587 6.14319E+03 1.80278E+05 1.02535E+04-7.66251E+05 6.56291E-09 5.39058E-09
 -1       588 4.96129E+03 1.78229E+05 1.16891E+04-6.74044E+05 9.04765E-09 6.26051E-09
 -1       589 1.14078E+04 1.82393E+05 2.18478E+04-7.66338E+05 7.79255E-09 4.82032E-11
 -1       590 2.58949E+04 1.76618E+05 4.16752E+04-6.74866E+05 8.06449E-09-2.09184E-09
 -1       591-3.25944E+05-1.41095E+05-5.11779E+04-2.07064E+05 7.75799E-10 4.58385E-10
 -1       592-3.22938E+05-1.35226E+05-2.46494E+04-2.27058E+05 4.72937E-11-9.33460E-09
 -1       593-3.26828E+05-1.18359E+05-1.04289E+04-2.16853E+05 1.38789E-09 3.26509E-10
 -1       594-3.17695E+05-1.27514E+05-5.07384E+03-2.28786E+05 1.40426E-09 1.78986E-09
 -1       595-3.27150E+05-1.17160E+05-2.33040E+03-2.17455E+05 3.72347E-09 9.68566E-09
 -1       596-3.17327E+05-1.27105E+05-1.19054E+03-2.28877E+05-4.44743E-10-3.97449E-09
 -1       597-3.27251E+05-1.17135E+05-6.72450E+02-2.17500E+05-2.62571E-09-7.79619E-09
 -1       598-3.17314E+05-1.27091E+05-5.83970E+02-2.28886E+05 1.40835E-09 2.65936E-09
 -1       599-3.27245E+05-1.17130E+05-8.02102E+02-2.17500E+05-3.63082E-09-6.16092E-09
 -1       600-3.17342E+05-1.27105E+05-1.53439E+03-2.28883E+05-1.69848E-09-4.67844E-09
 -1       601-3.27119E+05-1.17147E+05-3.06242E+03-2.17447E+05-1.61890E-09 1.30422E-09
 -1       602-3.17850E+05-1.27645E+05-6.70758E+03-2.28793E+05 5.05588E-09 1.14414E-08
 -1       603-3.26735E+05-1.18711E+05-1.37946E+04-2.16662E+05 5.89898E-09 1.15742E-08
 -1       604-3.24738E+05-1.37924E+05-3.26177E+04-2.26645E+05-2.77942E-09 2.72121E-09
 -1       605-3.25685E+05-1.48677E+05-6.77085E+04-2.03634E+05 2.05728E-09 1.36606E-09
 -1       606 1.86224E+05-2.46649E+04-4.39101E+04 5.66659E+04-1.59489E-08-3.40333E-09
 -1       607 1.78735E+05-7.87944E+03-2.18332E+04 6.33536E+04-3.60706E-09-3.70756E-09
 -1       608 1.82946E+05-1.26983E+03-9.77925E+03 5.61915E+04 9.40418E-09-1.47338E-10
 -1       609 1.82042E+05-1.92022E+02-4.93497E+03 6.38306E+04-8.05630E-09-4.60886E-09
 -1       610 1.82492E+05 2.17017E+02-2.36171E+03 5.61397E+04-1.73568E-08-4.15275E-09
 -1       611 1.82274E+05 3.04076E+02-1.19329E+03 6.38803E+04-3.25235E-08-2.65118E-09
 -1       612 1.82335E+05 2.93324E+02-5.81130E+02 5.61358E+04-1.34351E-08-3.95630E-10
 -1       613 1.82216E+05 3.56488E+02-2.79506E+02 6.38833E+04-1.95914E-08 5.18412E-10
 -1       614 1.82238E+05 3.22096E+02-1.13653E+02 5.61352E+04-3.62343E-09-6.27097E-10
 -1       615 1.82142E+05 3.93633E+02-1.61644E-01 6.38815E+04 1.75069E-08 9.31323E-09
 -1       616 1.82166E+05 3.55703E+02 1.07848E+02 5.61365E+04-1.75551E-08 2.77487E-09
 -1       617 1.82105E+05 4.51482E+02 2.88292E+02 6.38788E+04-1.54105E-08 2.45745E-09
 -1       618 1.82100E+05 4.68684E+02 5.97022E+02 5.61366E+04-1.04592E-08-4.82487E-10
 -1       619 1.82282E+05 9.44551E+02 1.35173E+03 6.38797E+04-4.72232E-09-2.07365E-10
 -1       620 1.81882E+05 1.93226E+03 2.72374E+03 5.61278E+04 4.04862E-09-1.41154E-09
 -1       621 6.16269E+03 6.95058E+05 1.22395E+04-9.96263E+04-8.74934E-10 1.20417E-09
 -1       622 2.70543E+03 6.97282E+05 1.02286E+04-1.13524E+05-9.64701E-09 2.57569E-09
 -1       623 2.13717E+03 6.95560E+05 1.28818E+04-9.97675E+04-9.25866E-10 4.58385E-10
 -1       624 9.22109E+03 7.00502E+05 2.51256E+04-1.13000E+05-8.09086E-09-5.08953E-09
 -1       625 2.75127E+04 6.92332E+05 4.88564E+04-1.00134E+05-5.15683E-10-9.51331E-10
 -1       626 2.51021E+05 8.63379E+04-2.49610E+04 1.82245E+05-7.33235E-09-6.55564E-09
 -1       627 2.40038E+05 1.01585E+05-1.20177E+04 1.86541E+05-1.15524E-08-6.31030E-09
 -1       628 2.50948E+05 9.69730E+04-5.08858E+03 1.76878E+05 1.25292E-08 5.96538E-09
 -1       629 2.41968E+05 1.05904E+05-2.45951E+03 1.86218E+05 1.80153E-08 2.22042E-09
 -1       630 2.50752E+05 9.75567E+04-1.10880E+03 1.76474E+05 1.64800E-09-4.66036E-09
 -1       631 2.42003E+05 1.06188E+05-5.11746E+02 1.86170E+05-1.33186E-08-1.04154E-09
 -1       632 2.50629E+05 9.75962E+04-1.84746E+02 1.76401E+05-2.73649E-08-7.73298E-09
 -1       633 2.41944E+05 1.06224E+05 2.63146E+01 1.86128E+05-1.47920E-08 6.91489E-09
 -1       634 2.50557E+05 9.76013E+04 2.46556E+02 1.76368E+05 1.82035E-08 7.64157E-09
 -1       635 2.41940E+05 1.06233E+05 6.28160E+02 1.86116E+05 1.23823E-08-1.74623E-09
 -1       636 2.50513E+05 9.75971E+04 1.32956E+03 1.76355E+05-6.56519E-09 3.45426E-09
 -1       637 2.42223E+05 1.06444E+05 2.95389E+03 1.86111E+05-1.01500E-09 3.38878E-09
 -1       638 2.50420E+05 9.82430E+04 6.08166E+03 1.76062E+05-9.17316E-09-1.35869E-08
 -1       639 2.45442E+05 1.10885E+05 1.43956E+04 1.85198E+05-1.26183E-08-5.75346E-09
 -1       640 2.50070E+05 1.11445E+05 2.98726E+04 1.70425E+05-6.73117E-09-1.01863E-10
 -1       641 1.50287E+04 4.46527E+03-1.29503E+04 7.78485E+01-2.24213E-08-5.75255E-09
 -1       642 9.87310E+03-5.21411E+03-8.73605E+03 1.83971E+04-1.27616E-08-3.76349E-09
 -1       643 1.29669E+04 5.73394E+02-3.36117E+03 6.72017E+01-1.63905E-08 1.35037E-09
 -1       644 1.21435E+04-5.27642E+02-1.95789E+03 1.84041E+04-4.89717E-09 3.96335E-09
 -1       645 1.26826E+04 7.02938E+01-8.17553E+02 6.95369E+01 2.03954E-10 1.26562E-09
 -1       646 1.24196E+04 1.03167E+02-3.80331E+02 1.83971E+04-2.01110E-08 4.29651E-09
 -1       647 1.26409E+04 5.45212E+00-5.05796E+01 7.36139E+01 2.12639E-08-5.19918E-10
 -1       648 1.24636E+04 2.22586E+02 2.35617E+02 1.83916E+04 4.33108E-08-4.70135E-09
 -1       649 1.26141E+04-2.86224E+01 6.05682E+02 7.48260E+01 3.00985E-08-1.07013E-09
 -1       650 1.26292E+04 4.75112E+02 1.41489E+03 1.83907E+04 1.96730E-08 8.55721E-10
 -1       651 1.24761E+04-2.39088E+02 2.60661E+03 7.45123E+01-2.39002E-08-1.15915E-09
 -1       652 1.37035E+04 2.33760E+03 6.10780E+03 1.83893E+04-3.66396E-09-2.34274E-09
 -1       653 1.15662E+04-1.82435E+03 1.03073E+04 7.59641E+01 2.87241E-09-4.31146E-09
 -1       654 2.10668E+04 1.66601E+04 2.69335E+04 1.83466E+04-1.64055E-08 1.92813E-09
 -1       655 5.16647E+03-1.38633E+04 3.97056E+04 1.14552E+02 1.72217E-08-2.65572E-09
 -1       656 3.53110E+04-9.39003E+05-1.04446E+05 3.04094E+03-4.19823E-09 3.41197E-09
 -1       657-4.66643E+04-9.81698E+05-8.07056E+04 5.80154E+04-2.40470E-08 4.29009E-09
 -1       658 8.68798E+03-9.52969E+05-4.86410E+04 2.44179E+03-3.42573E-09 1.10481E-09
 -1       659-4.30977E+04-9.80022E+05-7.55257E+04 5.85193E+04-2.02945E-08 1.30562E-09
 -1       660 3.19923E+04-9.40774E+05-9.51311E+04 2.53943E+03-6.36282E-09-5.67366E-09
 -1       661 9.98986E+05 1.15754E+05 8.55239E+04 3.90864E+05 7.00675E-09 2.43017E-09
 -1       662 1.02553E+06 1.96908E+05 5.70640E+04 3.96286E+05 1.70971E-08-5.34783E-09
 -1       663 1.01492E+06 1.42656E+05 2.01834E+04 3.87074E+05 3.88510E-08 1.09712E-08
 -1       664 1.00741E+06 1.64888E+05 1.18997E+04 4.00672E+05 2.68576E-08-2.47474E-09
 -1       665 1.01689E+06 1.46555E+05 4.75313E+03 3.86923E+05 2.24449E-08-1.45690E-08
 -1       666 1.00523E+06 1.60220E+05 2.72151E+03 4.00731E+05 2.74669E-08 2.33149E-09
 -1       667 1.01705E+06 1.47194E+05 1.42881E+03 3.87053E+05-4.40579E-08-6.73140E-09
 -1       668 1.00508E+06 1.59602E+05 1.36455E+03 4.00597E+05-5.10515E-08-3.64250E-09
 -1       669 1.01703E+06 1.47165E+05 1.80464E+03 3.87056E+05-1.12744E-08 7.25822E-09
 -1       670 1.00543E+06 1.60510E+05 3.82007E+03 4.00698E+05 2.41869E-10-6.25306E-09
 -1       671 1.01671E+06 1.46303E+05 6.85122E+03 3.86951E+05 9.09021E-09 6.61657E-09
 -1       672 1.00883E+06 1.67085E+05 1.72724E+04 4.00346E+05-1.98831E-08-5.77984E-09
 -1       673 1.01369E+06 1.40788E+05 2.93418E+04 3.87342E+05-1.16943E-08-5.78984E-09
 -1       674 1.03554E+06 2.13260E+05 8.29728E+04 3.93510E+05-1.49248E-09-1.24746E-08
 -1       675 9.90294E+05 1.01917E+05 1.24400E+05 3.93125E+05 4.34429E-08-7.34872E-10
 -1       676 1.45417E+04-8.78791E+05-4.35906E+04 3.57609E+03-1.98452E-09 1.08230E-10
 -1       677-2.00499E+04-8.96673E+05-3.53419E+04 3.10497E+04-5.84691E-09 1.06539E-08
 -1       678 4.26130E+03-8.84153E+05-2.39262E+04 3.17925E+03 9.92281E-09 5.76745E-09
 -1       679-2.42323E+04-8.98873E+05-4.14985E+04 3.15071E+04 9.89985E-10-3.68971E-09
 -1       680 1.85454E+04-8.76642E+05-5.45772E+04 3.11888E+03 5.53700E-09-4.66042E-09
 -1       681 6.41904E+05-1.23166E+04 3.52192E+04 7.23081E+02 1.55524E-10-2.85399E-09
 -1       682 6.56252E+05 1.45835E+04 2.39224E+04-2.01019E+04-4.09273E-10-1.64709E-09
 -1       683 6.47595E+05-1.62836E+03 9.16838E+03 3.01035E+02-2.77396E-11 4.25189E-10
 -1       684 6.49675E+05 1.89046E+03 5.48430E+03-1.93786E+04-5.20686E-10 3.31056E-10
 -1       685 6.48407E+05-2.18690E+02 2.42324E+03 7.05649E-01 2.30784E-10 1.17848E-09
 -1       686 6.48701E+05 2.58989E+02 1.49278E+03-1.89100E+04-1.47736E-10 2.77737E-09
 -1       687 6.48522E+05-3.81712E+01 9.89680E+02-1.67526E+02 2.25214E-10 1.30032E-09
 -1       688 6.48597E+05 1.28429E+02 1.16664E+03-1.87013E+04-1.66722E-10-1.09264E-10
 -1       689 6.48490E+05-7.95409E+01 1.76819E+03-2.08011E+02 5.54650E-11-2.03841E-10
 -1       690 6.48965E+05 6.95650E+02 3.62540E+03-1.87491E+04-1.44411E-10-4.59352E-10
 -1       691 6.48158E+05-5.88427E+02 6.48608E+03-1.19722E+02 3.97904E-10-8.45375E-10
 -1       692 6.51553E+05 5.28036E+03 1.50594E+04-1.90526E+04-2.47837E-11 8.14680E-10
 -1       693 6.45927E+05-4.47630E+03 2.53878E+04 9.55408E+01 1.15506E-10 4.80213E-10
 -1       694 6.69564E+05 4.05176E+04 6.62463E+04-1.96136E+04-1.17245E-09 2.10093E-10
 -1       695 6.30198E+05-3.40573E+04 9.77111E+04 4.39250E+02-1.44155E-10-2.40834E-09
 -1       696-1.23940E+04 6.48236E+05 3.49172E+04-1.24479E+03 1.01863E-10-7.25322E-10
 -1       697 1.41057E+04 6.61853E+05 2.16781E+04-4.56939E+04 1.69166E-10-1.25419E-09
 -1       698-8.31804E+02 6.54422E+05 4.69896E+03-1.34740E+03-3.01043E-10 1.83775E-09
 -1       699-5.16026E+03 6.52062E+05-6.58802E+03-4.57594E+04-4.29281E-10 3.30601E-09
 -1       700 5.87788E+03 6.58053E+05-1.56760E+04-1.18076E+03-2.98314E-10 1.88061E-09
 -1       701-5.70180E+05-5.51066E+04-7.86770E+04-2.25664E+05 2.82853E-10-1.70257E-09
 -1       702-6.01776E+05-1.22393E+05-5.24670E+04-2.22350E+05-1.32786E-10 1.19144E-10
 -1       703-5.85533E+05-7.91267E+04-1.85617E+04-2.21336E+05-1.15506E-10-3.28328E-10
 -1       704-5.83963E+05-9.41386E+04-1.09112E+04-2.27845E+05 3.23070E-10-4.95447E-10
 -1       705-5.87844E+05-8.21944E+04-4.34789E+03-2.20616E+05 6.56939E-10-8.95170E-10
 -1       706-5.81220E+05-9.06250E+04-2.44035E+03-2.28841E+05-2.06910E-10-1.02273E-09
 -1       707-5.88272E+05-8.24886E+04-1.20748E+03-2.20405E+05-3.44755E-10 3.52145E-10
 -1       708-5.80733E+05-9.03813E+04-1.01318E+03-2.29148E+05-2.44711E-11 1.09851E-09
 -1       709-5.88341E+05-8.24161E+04-1.19840E+03-2.20323E+05 2.90697E-10 2.25356E-10
 -1       710-5.80964E+05-9.08981E+04-2.42209E+03-2.29179E+05-1.58025E-11-2.13362E-10
 -1       711-5.88049E+05-8.19826E+04-4.30105E+03-2.20372E+05 2.54659E-10-5.28871E-10
 -1       712-5.83434E+05-9.46454E+04-1.08112E+04-2.28516E+05-8.27043E-10-2.16482E-09
 -1       713-5.85890E+05-7.88092E+04-1.83718E+04-2.20933E+05 6.73026E-11-1.71894E-10
 -1       714-6.00820E+05-1.22894E+05-5.19607E+04-2.23395E+05-6.34373E-11 7.27596E-10
 -1       715-5.70822E+05-5.48822E+04-7.78937E+04-2.25060E+05-5.42059E-10-3.34694E-10
 -1       716 3.82467E+05-2.63512E+04 7.49793E+04-2.28528E+01 1.82808E-10 1.01863E-10
 -1       717 4.13457E+05 3.12000E+04 5.10117E+04-5.36766E+04 6.88942E-11 3.42061E-09
 -1       718 3.94647E+05-3.49939E+03 1.94896E+04-5.28663E+02-9.30413E-10 2.55932E-09
 -1       719 3.99099E+05 4.21715E+03 1.16540E+04-5.28346E+04-4.26780E-10 3.92902E-09
 -1       720 3.96405E+05-4.61592E+02 5.07673E+03-8.63073E+02 1.67870E-09 2.72894E-09
 -1       721 3.96871E+05 7.68438E+02 3.00084E+03-5.23803E+04 3.96977E-09 3.70301E-09
 -1       722 3.96665E+05-6.27305E+01 1.76608E+03-9.82737E+02 1.89024E-09 3.18232E-09
 -1       723 3.96641E+05 4.10377E+02 1.75364E+03-5.23574E+04-4.03645E-10 6.13778E-09
 -1       724 3.96624E+05-1.10833E+02 2.36570E+03-8.85954E+02 5.17957E-10 2.96916E-09
 -1       725 3.97332E+05 1.03821E+03 4.69885E+03-5.27716E+04 2.09366E-09 2.60593E-09
 -1       726 3.96165E+05-7.99742E+02 8.23205E+03-5.68875E+02 2.20234E-09 6.20730E-10
 -1       727 4.01098E+05 6.73260E+03 1.92246E+04-5.36251E+04 2.90379E-09 2.72030E-09
 -1       728 3.93256E+05-5.82153E+03 3.21701E+04-3.24070E+01 1.10595E-09-2.49202E-10
 -1       729 4.24756E+05 5.13737E+04 8.43532E+04-5.49013E+04 1.34742E-09-1.80717E-09
 -1       730 3.73143E+05-4.35813E+04 1.23999E+05 7.01801E+02 3.88354E-10-1.67347E-09
 -1       731-2.12030E+04 2.25396E+05 6.06498E+04-4.50052E+02 1.89539E-09 6.59384E-10
 -1       732 2.54961E+04 2.49568E+05 4.09578E+04-9.43955E+04 2.11548E-09 3.81931E-10
 -1       733-2.71918E+03 2.35236E+05 1.53189E+04-4.78450E+02 1.82263E-09 1.22577E-09
 -1       734 3.16238E+03 2.38391E+05 8.26059E+03-9.44899E+04 2.16698E-09 3.15652E-09
 -1       735-1.02097E+02 2.36705E+05 2.05265E+03-3.56892E+02 8.31733E-10 1.66256E-09
 -1       736-1.69050E+06-1.96459E+05-1.29308E+05-6.53388E+05 4.09273E-10-1.36788E-09
 -1       737-1.74538E+06-3.04057E+05-8.62312E+04-6.44426E+05-3.15367E-10-2.43745E-10
 -1       738-1.71633E+06-2.35350E+05-3.04890E+04-6.45551E+05-3.43334E-11 1.49703E-09
 -1       739-1.71498E+06-2.58695E+05-1.79156E+04-6.54741E+05 1.83550E-09 7.52152E-10
 -1       740-1.72061E+06-2.39896E+05-7.13018E+03-6.43792E+05 3.00702E-10 1.66665E-09
 -1       741-1.70967E+06-2.53721E+05-3.98741E+03-6.57320E+05 1.19655E-10 1.40989E-09
 -1       742-1.72163E+06-2.40066E+05-1.94732E+03-6.43082E+05 3.96085E-10-2.15778E-09
 -1       743-1.70845E+06-2.53729E+05-1.58695E+03-6.58316E+05-9.64519E-10-1.48327E-09
 -1       744-1.72185E+06-2.39847E+05-1.82036E+03-6.42822E+05-7.74037E-10-2.42267E-09
 -1       745-1.70878E+06-2.54499E+05-3.63272E+03-6.58369E+05 3.63391E-09 2.11821E-09
 -1       746-1.72131E+06-2.39314E+05-6.43107E+03-6.43026E+05 8.86615E-10 7.65340E-10
 -1       747-1.71290E+06-2.59658E+05-1.61570E+04-6.56846E+05-1.60534E-09 4.94992E-10
 -1       748-1.71775E+06-2.34910E+05-2.74603E+04-6.44260E+05 1.11640E-10 5.09317E-11
 -1       749-1.73977E+06-3.01057E+05-7.76969E+04-6.48162E+05 1.39835E-10 9.13133E-10
 -1       750-1.69471E+06-1.99649E+05-1.16488E+05-6.51066E+05-2.23736E-10 7.42148E-10
 -1       751 2.95754E+06-1.25202E+05 3.60161E+05 7.26013E+03-3.57522E-09-5.52973E-10
 -1       752 3.10254E+06 1.48946E+05 2.44018E+05-3.51329E+04-5.04224E-09-5.66797E-09
 -1       753 3.01551E+06-1.64580E+04 9.36604E+04 3.74868E+03-1.10595E-09-2.10275E-09
 -1       754 3.03630E+06 1.93569E+04 5.56214E+04-2.93365E+04 1.14142E-09-2.85581E-10
 -1       755 3.02376E+06-2.17200E+03 2.41060E+04 1.48575E+03-2.27601E-10-1.40062E-10
 -1       756 3.02680E+06 2.52278E+03 1.37369E+04-2.57433E+04-3.18323E-12-3.29260E-09
 -1       757 3.02498E+06-3.14896E+02 7.20007E+03 1.55913E+02-1.08230E-10-1.24123E-09
 -1       758 3.02551E+06 5.78829E+02 5.72554E+03-2.38867E+04 2.57387E-10-3.55470E-10
 -1       759 3.02502E+06-2.63178E+02 6.33429E+03-3.71098E+02-1.78289E-10-2.19063E-09
 -1       760 3.02640E+06 2.07020E+03 1.13451E+04-2.35826E+04-1.01068E-09 2.38117E-09
 -1       761 3.02406E+06-1.74248E+03 1.95832E+04-1.48166E+02 3.09228E-10-9.18590E-10
 -1       762 3.03396E+06 1.56642E+04 4.49160E+04-2.48009E+04 9.27514E-10 3.75621E-10
 -1       763 3.01742E+06-1.32547E+04 7.55914E+04 8.47208E+02 1.22895E-09 2.09548E-09
 -1       764 3.08723E+06 1.20224E+05 1.96804E+05-2.76897E+04-4.51564E-10 3.88900E-09
 -1       765 2.97067E+06-1.00952E+05 2.90463E+05 2.73260E+03-2.02954E-09 2.47383E-10
 -1       766-5.34702E+04 6.73162E+05 1.57230E+05-1.80968E+03-4.70754E-09-8.39464E-10
 -1       767 6.90078E+04 7.38369E+05 1.19346E+05 4.87884E+03-1.81626E-09-4.80213E-10
 -1       768-1.22634E+04 6.94860E+05 6.84061E+04-1.04320E+03-4.04225E-09 1.94086E-09
 -1       769 5.61700E+04 7.31769E+05 1.00477E+05 3.42937E+03-1.77897E-09 1.37265E-09
 -1       770-4.12683E+04 6.79721E+05 1.23449E+05-3.68933E+02-1.60799E-09 1.68893E-09
 -1       771-1.65688E+06-3.53569E+05-9.78655E+04-7.00766E+05 2.15368E-09 1.42609E-09
 -1       772-1.65988E+06-3.33340E+05-4.71159E+04-7.28553E+05-1.74987E-09-2.89583E-09
 -1       773-1.65851E+06-3.10196E+05-1.99547E+04-7.19525E+05-9.89530E-10 2.97587E-09
 -1       774-1.64987E+06-3.18666E+05-9.68912E+03-7.32003E+05 1.96815E-09-3.31329E-09
 -1       775-1.65925E+06-3.07811E+05-4.45472E+03-7.20710E+05-4.32919E-10-1.00863E-09
 -1       776-1.64927E+06-3.17876E+05-2.23324E+03-7.32349E+05 7.42148E-10-9.56788E-10
 -1       777-1.65965E+06-3.07658E+05-1.20540E+03-7.20880E+05 2.36469E-09 1.48520E-09
 -1       778-1.64941E+06-3.17797E+05-8.99370E+02-7.32563E+05 1.21145E-09 4.86352E-10
 -1       779-1.65990E+06-3.07526E+05-1.09397E+03-7.20998E+05-4.87489E-10-5.54451E-10
 -1       780-1.64966E+06-3.17749E+05-1.95599E+03-7.32777E+05 1.38243E-10 3.47541E-10
 -1       781-1.66000E+06-3.07404E+05-3.84727E+03-7.21060E+05-2.05546E-10-9.35870E-10
 -1       782-1.65051E+06-3.18373E+05-8.39362E+03-7.32923E+05 2.61025E-10-2.97769E-09
 -1       783-1.65981E+06-3.09183E+05-1.72438E+04-7.20189E+05-6.54836E-11-1.17052E-09
 -1       784-1.65905E+06-3.31506E+05-4.08070E+04-7.30863E+05-4.67480E-10-8.73115E-10
 -1       785-1.65906E+06-3.46291E+05-8.47034E+04-7.03728E+05-4.87489E-10 1.06229E-09
 -1       786 1.41339E+06-5.16415E+04 1.48357E+05 1.51382E+03 1.23327E-09-3.19415E-09
 -1       787 1.47298E+06 6.14797E+04 1.00551E+05-1.37691E+04-6.37101E-10-1.38425E-09
 -1       788 1.43726E+06-6.78156E+03 3.85729E+04 8.86897E+02 2.86491E-11-1.03682E-09
 -1       789 1.44574E+06 8.00182E+03 2.28928E+04-1.27367E+04-1.00613E-10-8.94488E-10
 -1       790 1.44065E+06-8.91894E+02 9.91074E+03 4.85279E+02 5.40467E-10-3.89264E-10
 -1       791 1.44186E+06 1.04188E+03 5.62426E+03-1.21330E+04 6.39574E-10 4.93060E-10
 -1       792 1.44115E+06-1.27422E+02 2.91316E+03 2.83255E+02 4.28940E-10 1.49396E-09
 -1       793 1.44133E+06 2.24096E+02 2.25193E+03-1.19175E+04-1.55296E-10 2.94617E-09
 -1       794 1.44117E+06-9.98671E+01 2.41238E+03 2.69758E+02-1.15961E-10 2.14465E-09
 -1       795 1.44167E+06 7.65828E+02 4.24931E+03-1.20794E+04 8.39322E-10 6.19525E-09
 -1       796 1.44081E+06-6.51203E+02 7.29633E+03 4.45173E+02-5.23642E-10-3.08501E-09
 -1       797 1.44450E+06 5.83136E+03 1.67252E+04-1.26253E+04-1.77295E-09-1.43154E-09
 -1       798 1.43834E+06-4.94466E+03 2.81343E+04 8.15606E+02-1.12664E-09 2.54659E-11
 -1       799 1.46436E+06 4.48124E+04 7.33077E+04-1.35850E+04-3.97438E-09-2.78123E-09
 -1       800 1.42093E+06-3.76500E+04 1.08131E+05 1.40224E+03-4.04725E-10 7.34872E-10
 -1       801-4.50248E+04 1.10370E+06 1.28317E+05-5.97911E+03-5.16593E-09-2.12822E-09
 -1       802 6.84523E+04 1.15809E+06 1.11388E+05-5.97285E+05-1.22996E-08-3.09046E-09
 -1       803-1.40412E+04 1.12057E+06 8.25876E+04-8.85549E+03-6.32645E-09 7.33712E-09
 -1       804 9.73870E+04 1.17512E+06 1.54705E+05-5.98093E+05-1.33932E-08 1.21654E-08
 -1       805-7.35149E+04 1.08820E+06 2.05092E+05-5.18620E+03-2.63390E-09 5.88989E-09
 -1       806-8.03917E+05-2.05563E+05-7.60131E+04-3.62510E+05 5.93900E-10 3.52884E-09
 -1       807-8.05723E+05-1.90569E+05-3.66225E+04-3.84935E+05 2.07910E-09 5.30235E-10
 -1       808-8.04851E+05-1.72080E+05-1.54819E+04-3.77216E+05 1.10904E-08-3.73529E-09
 -1       809-7.98011E+05-1.78925E+05-7.53424E+03-3.87115E+05 2.40011E-08 5.63915E-10
 -1       810-8.05190E+05-1.70382E+05-3.44824E+03-3.78060E+05 5.09044E-09-3.50974E-09
 -1       811-7.97381E+05-1.78338E+05-1.74778E+03-3.87150E+05-2.53840E-09 1.58752E-09
 -1       812-8.05272E+05-1.70388E+05-9.53026E+02-3.78087E+05 3.76281E-09-2.36378E-09
 -1       813-7.97314E+05-1.78336E+05-7.69038E+02-3.87125E+05 2.25896E-09-3.09501E-09
 -1       814-8.05249E+05-1.70398E+05-9.86247E+02-3.78075E+05 1.70348E-09 5.65706E-10
 -1       815-7.97346E+05-1.78353E+05-1.83484E+03-3.87116E+05-9.28139E-10 1.37697E-09
 -1       816-8.05115E+05-1.70414E+05-3.63309E+03-3.78023E+05 5.11864E-09-3.28691E-09
 -1       817-7.97978E+05-1.78981E+05-7.94402E+03-3.87037E+05 1.65883E-08-1.13141E-08
 -1       818-8.04715E+05-1.72234E+05-1.63278E+04-3.77118E+05 1.04810E-08-3.94903E-09
 -1       819-8.06129E+05-1.91206E+05-3.86155E+04-3.84637E+05-7.10043E-09 3.35149E-09
 -1       820-8.03651E+05-2.07584E+05-8.01520E+04-3.61639E+05 4.33465E-09 1.27329E-09
 -1       821-9.31441E+05 3.71327E+04-1.06558E+05-1.50695E+03-7.55563E-09-5.01313E-09
 -1       822-9.74091E+05-4.42260E+04-7.22330E+04 9.25440E+03-4.36694E-09-2.75759E-09
 -1       823-9.48568E+05 4.85537E+03-2.77029E+04-2.11883E+03 7.57268E-09-1.68984E-09
 -1       824-9.54582E+05-5.72134E+03-1.64241E+04 1.03469E+04-1.17871E-09-3.73552E-09
 -1       825-9.50976E+05 6.24058E+02-7.12575E+03-2.60180E+03-1.57893E-08-1.56933E-09
 -1       826-9.51863E+05-6.88250E+02-4.05028E+03 1.11767E+04-2.92712E-08-2.05478E-09
 -1       827-9.51319E+05 7.99838E+01-2.13806E+03-2.94942E+03-1.51016E-08-2.60638E-09
 -1       828-9.51543E+05-9.25584E+01-1.71456E+03 1.17260E+04-2.10903E-08-1.05764E-09
 -1       829-9.51323E+05 7.07490E+01-1.92543E+03-3.15132E+03 2.60110E-09-3.08199E-09
 -1       830-9.51848E+05-5.50374E+02-3.47898E+03 1.19758E+04 7.49918E-09-2.15738E-09
 -1       831-9.51030E+05 5.29677E+02-6.02156E+03-3.19927E+03-1.00851E-08-2.65732E-09
 -1       832-9.54177E+05-4.76788E+03-1.38456E+04 1.19211E+04-7.34258E-09-9.02173E-09
 -1       833-9.48998E+05 4.09342E+03-2.33107E+04-3.09591E+03-1.42245E-09-1.95905E-09
 -1       834-9.70624E+05-3.71641E+04-6.08018E+04 1.15861E+04 4.72710E-10-8.00537E-09
 -1       835-9.34584E+05 3.12597E+04-8.96669E+04-2.85971E+03 6.21094E-09-4.01633E-09
 -1       836-8.56120E+04 2.87844E+06 2.54432E+05-8.00042E+03-6.65023E-09-2.73121E-09
 -1       837 1.16108E+05 2.98404E+06 2.03365E+05-2.25333E+05-1.20672E-08 2.80579E-10
 -1       838-2.34950E+04 2.91113E+06 1.32798E+05-1.15971E+04-1.36633E-08 3.39213E-09
 -1       839 1.29343E+05 2.99045E+06 2.22694E+05-2.24473E+05-1.34751E-08 9.11405E-09
 -1       840-9.80097E+04 2.87179E+06 2.89216E+05-8.85656E+03-1.27766E-08 6.34645E-09
 -1       841-4.58670E+05-4.39770E+04-6.59656E+04-1.82555E+05-1.10049E-09-3.38332E-09
 -1       842-4.99345E+05-8.60656E+04-4.39662E+04-1.63494E+05 3.43380E-09 7.93625E-09
 -1       843-4.71023E+05-6.46107E+04-1.55627E+04-1.79509E+05 6.81803E-09 2.54113E-09
 -1       844-4.85337E+05-6.15004E+04-9.12956E+03-1.67117E+05-8.43738E-09-6.97310E-09
 -1       845-4.72582E+05-6.75471E+04-3.62406E+03-1.79327E+05-1.13489E-08-3.04794E-10
 -1       846-4.83689E+05-5.79238E+04-1.99032E+03-1.67257E+05-9.24751E-09-1.27143E-09
 -1       847-4.72688E+05-6.80478E+04-9.05995E+02-1.79438E+05-4.04316E-09 1.18339E-09
 -1       848-4.83654E+05-5.73003E+04-6.05752E+02-1.67090E+05 6.88044E-09 8.28077E-09
 -1       849-4.72638E+05-6.81439E+04-5.34506E+02-1.79514E+05 2.96563E-09 2.66577E-09
 -1       850-4.83811E+05-5.73556E+04-9.16332E+02-1.67001E+05-2.67702E-09 9.33063E-10
 -1       851-4.72540E+05-6.79922E+04-1.55578E+03-1.79531E+05 1.31240E-09-2.55704E-09
 -1       852-4.84575E+05-5.87831E+04-3.85838E+03-1.66869E+05 4.16816E-09-4.44652E-09
 -1       853-4.71873E+05-6.67709E+04-6.54852E+03-1.79622E+05 6.48015E-10 1.56683E-09
 -1       854-4.90436E+05-6.91299E+04-1.84911E+04-1.65362E+05-4.76746E-09 1.97724E-09
 -1       855-4.66717E+05-5.80668E+04-2.77412E+04-1.80868E+05-7.57791E-09-6.29007E-09
 -1       856-1.03790E+06 3.44584E+04-9.91628E+04-3.62580E+03-1.12977E-08 4.40195E-10
 -1       857-1.07737E+06-4.09840E+04-6.71462E+04 2.30248E+04-9.20045E-09-3.16777E-09
 -1       858-1.05379E+06 4.46761E+03-2.57859E+04-4.78151E+03-2.27260E-08-4.47471E-09
 -1       859-1.05944E+06-5.11429E+03-1.52512E+04 2.50056E+04-3.25690E-09-9.82345E-09
 -1       860-1.05600E+06 5.47869E+02-6.61811E+03-5.61246E+03-7.39828E-09-5.50608E-09
 -1       861-1.05705E+06-3.86426E+02-3.72907E+03 2.63083E+04-2.77919E-08-9.92543E-09
 -1       862-1.05630E+06 4.84922E+01-1.92205E+03-6.08636E+03 2.72983E-08-8.95284E-09
 -1       863-1.05679E+06 1.96736E+02-1.45803E+03 2.68857E+04 5.54358E-08-1.52833E-08
 -1       864-1.05632E+06 2.96661E+01-1.53070E+03-6.19064E+03 3.45840E-08-1.10125E-08
 -1       865-1.05697E+06-1.49053E+02-2.66736E+03 2.67191E+04 2.73615E-08-1.20398E-08
 -1       866-1.05611E+06 3.68016E+02-4.58052E+03-5.91952E+03 1.04199E-08-7.91965E-09
 -1       867-1.05859E+06-3.38217E+03-1.04693E+04 2.58158E+04-5.09317E-10-1.00529E-08
 -1       868-1.05460E+06 3.04836E+03-1.76639E+04-5.28564E+03 1.50517E-08-6.53654E-09
 -1       869-1.07082E+06-2.79494E+04-4.59688E+04 2.42072E+04-3.83352E-10-7.69933E-09
 -1       870-1.04374E+06 2.35703E+04-6.78979E+04-4.30559E+03 1.19794E-08-6.12272E-09
 -1       871-5.13482E+03-2.65378E+04-7.17956E+03 1.17888E+05 4.08181E-09-3.48973E-09
 -1       872-1.96022E+03-2.76446E+04-1.87080E+03 1.33702E+05 4.71118E-10 9.09495E-11
 -1       873-2.22362E+02-2.73587E+04 2.56390E+03 1.17674E+05 3.23189E-09 1.02864E-09
 -1       874 2.85440E+03-2.55168E+04 8.90763E+03 1.33861E+05-4.58749E-09-3.65253E-09
 -1       875 1.04898E+04-2.88383E+04 1.93250E+04 1.17784E+05 1.20053E-10 2.87866E-09
 -1       876 1.08725E+06 1.21873E+05 1.03667E+05 4.26073E+05 7.40511E-09-1.66619E-09
 -1       877 1.11784E+06 2.22037E+05 6.91956E+04 4.34695E+05 1.29118E-08 1.20053E-10
 -1       878 1.10637E+06 1.54708E+05 2.44554E+04 4.21713E+05 4.62179E-08-1.38243E-10
 -1       879 1.09618E+06 1.82856E+05 1.44251E+04 4.39565E+05 3.61725E-08-1.09253E-09
 -1       880 1.10862E+06 1.59602E+05 5.73748E+03 4.21711E+05 2.46278E-08-7.25095E-09
 -1       881 1.09378E+06 1.76911E+05 3.25732E+03 4.39293E+05 2.03951E-08-1.20453E-08
 -1       882 1.10869E+06 1.60511E+05 1.64012E+03 4.22012E+05-3.80988E-08-2.47110E-09
 -1       883 1.09378E+06 1.75910E+05 1.44809E+03 4.38866E+05-5.19623E-08-2.06357E-09
 -1       884 1.10858E+06 1.60603E+05 1.78984E+03 4.22126E+05-1.52412E-08 9.11086E-10
 -1       885 1.09422E+06 1.76626E+05 3.68495E+03 4.38806E+05-2.43273E-08-7.34644E-09
 -1       886 1.10825E+06 1.59814E+05 6.56886E+03 4.22064E+05-1.96886E-09-5.13865E-09
 -1       887 1.09747E+06 1.82909E+05 1.65280E+04 4.38469E+05-6.91696E-09-6.76891E-09
 -1       888 1.10538E+06 1.54508E+05 2.80676E+04 4.22403E+05-1.60085E-08-8.62201E-10
 -1       889 1.12292E+06 2.27192E+05 7.93627E+04 4.32080E+05-1.07011E-08-1.46465E-08
 -1       890 1.08309E+06 1.17232E+05 1.18972E+05 4.27828E+05 4.16858E-08 1.91358E-09
 -1       891 5.11042E+03-4.59444E+05-1.60210E+04 1.40104E+03-8.73115E-11 1.21281E-09
 -1       892-8.18581E+03-4.65318E+05-1.40553E+04 1.23334E+05 2.46649E-09 6.07201E-10
 -1       893 2.03547E+03-4.60991E+05-1.12653E+04 1.08296E+03 9.42850E-09 9.05061E-10
 -1       894-1.36848E+04-4.68009E+05-2.20810E+04 1.23240E+05-4.66935E-09 1.87970E-09
 -1       895 1.02785E+04-4.56681E+05-3.04200E+04 1.49373E+03 1.33441E-08 2.44108E-09
 -1       896 1.05057E+06-6.41487E+03 1.83225E+04 1.14006E+03-1.11413E-10-2.17460E-09
 -1       897 1.05802E+06 7.57773E+03 1.24561E+04-1.54343E+04-4.45198E-10-1.03341E-09
 -1       898 1.05354E+06-8.50652E+02 4.77486E+03 5.53811E+02-1.12777E-10-1.23669E-09
 -1       899 1.05459E+06 9.77380E+02 2.86827E+03-1.44188E+04-5.44560E-11-3.97904E-10
 -1       900 1.05396E+06-1.16141E+02 1.28229E+03 1.25015E+02-2.17142E-11-3.29521E-10
 -1       901 1.05407E+06 1.33802E+02 8.24773E+02-1.37205E+04 3.23780E-10-1.68711E-10
 -1       902 1.05402E+06-2.31342E+01 6.04152E+02-1.44491E+02 2.41812E-10 2.20211E-10
 -1       903 1.05402E+06 8.53042E+01 7.97375E+02-1.33307E+04 4.04100E-10 8.13850E-10
 -1       904 1.05400E+06-5.83870E+01 1.27911E+03-2.64864E+02 8.71978E-11 5.84635E-10
 -1       905 1.05429E+06 5.14699E+02 2.67146E+03-1.32367E+04 7.51967E-11 2.18961E-10
 -1       906 1.05375E+06-4.34456E+02 4.80335E+03-2.38437E+02 1.82695E-10-4.11546E-11
 -1       907 1.05619E+06 3.91869E+03 1.11598E+04-1.34349E+04 1.43245E-11 7.20775E-10
 -1       908 1.05210E+06-3.31290E+03 1.88253E+04-6.66220E+01 2.19757E-10 1.43700E-10
 -1       909 1.06951E+06 3.00416E+04 4.91030E+04-1.39249E+04-4.28940E-10-1.20690E-09
 -1       910 1.04044E+06-2.52317E+04 7.24326E+04 2.50796E+02 1.86674E-10-3.23780E-10
 -1       911 3.92648E+05-4.68422E+03 1.33060E+04-1.78808E+01-2.72848E-12-4.91127E-11
 -1       912 3.98159E+05 5.53744E+03 9.06738E+03-2.01244E+04-4.20641E-10 9.10973E-10
 -1       913 3.94812E+05-6.26502E+02 3.47238E+03-2.54884E+02-5.60021E-10 1.41267E-09
 -1       914 3.95607E+05 7.48596E+02 2.10686E+03-1.97064E+04-3.31966E-11 2.47206E-09
 -1       915 3.95124E+05-8.66334E+01 9.66654E+02-4.35761E+02 1.01909E-09 1.83667E-09
 -1       916 3.95205E+05 1.46852E+02 6.76943E+02-1.94234E+04 2.02567E-09 1.14807E-09
 -1       917 3.95166E+05-1.92504E+01 5.87763E+02-5.37841E+02 1.13050E-09 2.31948E-09
 -1       918 3.95181E+05 1.42504E+02 8.93590E+02-1.92990E+04 9.10916E-10 2.28998E-09
 -1       919 3.95126E+05-6.93700E+01 1.52440E+03-5.60152E+02 8.73683E-10 2.96842E-09
 -1       920 3.95528E+05 6.70654E+02 3.24421E+03-1.93331E+04 2.00629E-09 1.40449E-09
 -1       921 3.94824E+05-5.32793E+02 5.85572E+03-5.03678E+02 1.58207E-09 2.32581E-09
 -1       922 3.97882E+05 4.82596E+03 1.36337E+04-1.95234E+04 1.93927E-09 1.28034E-09
 -1       923 3.92802E+05-4.05757E+03 2.29939E+04-3.69690E+02-6.06860E-10 1.66074E-09
 -1       924 4.14212E+05 3.67557E+04 6.00218E+04-1.98492E+04 3.92447E-10 8.87667E-10
 -1       925 3.78553E+05-3.08656E+04 8.85273E+04-1.78056E+02 1.78443E-09 7.45786E-10
 -1       926-1.42567E+06 2.65836E+04-7.62300E+04-2.68725E+02 1.46156E-09-8.11269E-10
 -1       927-1.45615E+06-3.16652E+04-5.16759E+04 8.00518E+03 7.03722E-11-8.69477E-10
 -1       928-1.43792E+06 3.48490E+03-1.97990E+04-8.02081E+02 1.45178E-10-9.99535E-10
 -1       929-1.44216E+06-4.11805E+03-1.17323E+04 8.91758E+03 4.09329E-10-2.44540E-09
 -1       930-1.43964E+06 4.55299E+02-5.05488E+03-1.18106E+03-4.57135E-10-1.10390E-09
 -1       931-1.44019E+06-5.20505E+02-2.82359E+03 9.51211E+03 6.15358E-10-1.05547E-09
 -1       932-1.43989E+06 6.15039E+01-1.38104E+03-1.39676E+03 1.96735E-09-2.07103E-09
 -1       933-1.43992E+06-7.38630E+01-9.19608E+02 9.77270E+03-2.44789E-10-1.79801E-09
 -1       934-1.43992E+06 2.95088E+01-7.94512E+02-1.44170E+03-1.65542E-10-1.47472E-09
 -1       935-1.43998E+06-1.92500E+02-1.21364E+03 9.68901E+03 5.04770E-10-1.84286E-09
 -1       936-1.43983E+06 1.73186E+02-1.99081E+03-1.31306E+03-3.30658E-10-1.55399E-09
 -1       937-1.44072E+06-1.55754E+03-4.49838E+03 9.26422E+03 9.90156E-10-1.97133E-09
 -1       938-1.43917E+06 1.32421E+03-7.55290E+03-1.01683E+03 1.46179E-09-2.50157E-09
 -1       939-1.44602E+06-1.20440E+04-1.96727E+04 8.50841E+03 9.95044E-10-9.77707E-10
 -1       940-1.43452E+06 1.01117E+04-2.90231E+04-5.57134E+02-3.27645E-10-3.52884E-10
 -1       941 3.96249E+06-1.60931E+05 4.63926E+05 1.13447E+03 3.89031E-09 4.04543E-09
 -1       942 4.14818E+06 1.91840E+05 3.14078E+05 2.87867E+03 3.26554E-09-4.42014E-09
 -1       943 4.03705E+06-2.11217E+04 1.20689E+05 1.59081E+03 7.54540E-10-1.01136E-09
 -1       944 4.06343E+06 2.49984E+04 7.16168E+04 1.98857E+03-2.01629E-09-2.80943E-09
 -1       945 4.04765E+06-2.77482E+03 3.10861E+04 2.02631E+03 1.47821E-09 1.66619E-09
 -1       946 4.05143E+06 3.27560E+03 1.77043E+04 1.09540E+03 2.17284E-09 5.41445E-09
 -1       947 4.04920E+06-4.00980E+02 9.30574E+03 2.48450E+03 6.08054E-10 3.78122E-09
 -1       948 4.04987E+06 7.47702E+02 7.42169E+03 9.71970E+01-2.23963E-10 1.55696E-09
 -1       949 4.04925E+06-3.42681E+02 8.24216E+03 3.02464E+03-3.09092E-09-7.24003E-09
 -1       950 4.05106E+06 2.68601E+03 1.47891E+04-1.13559E+03 1.81274E-09 3.07864E-09
 -1       951 4.04799E+06-2.26644E+03 2.55392E+04 3.71729E+03-2.83262E-09-7.13499E-09
 -1       952 4.06085E+06 2.03994E+04 5.85546E+04-2.76938E+03-1.98378E-09-5.40149E-09
 -1       953 4.03933E+06-1.72442E+04 9.85650E+04 4.65749E+03-3.33682E-09-6.91216E-10
 -1       954 4.13007E+06 1.56605E+05 2.56442E+05-5.09448E+03-7.67341E-09-4.26371E-09
 -1       955 3.97841E+06-1.31407E+05 3.78637E+05 6.02953E+03-3.50474E-09-3.23053E-09
 -1       956-2.39141E+05-4.02428E+03-7.34530E+03 5.63370E+04-5.98629E-09-1.84446E-09
 -1       957-2.40402E+05-1.17620E+03-3.64763E+03 6.33614E+04-3.25326E-09-2.08161E-09
 -1       958-2.39766E+05-8.14049E+01-1.63893E+03 5.59765E+04 9.29322E-09-5.11136E-10
 -1       959-2.39946E+05 1.54407E+02-8.25215E+02 6.37566E+04-2.43017E-09-2.52476E-09
 -1       960-2.39915E+05 2.11426E+02-3.99584E+02 5.59335E+04-1.52540E-08-2.04909E-09
 -1       961-2.39981E+05 2.78279E+02-2.04221E+02 6.38044E+04-2.96759E-08 1.59662E-09
 -1       962-2.39996E+05 2.59072E+02-1.08353E+02 5.59272E+04-1.31204E-08-6.76209E-10
 -1       963-2.40044E+05 3.17096E+02-6.71552E+01 6.38125E+04-1.80607E-08-5.18412E-11
 -1       964-2.40049E+05 2.88331E+02-6.03235E+01 5.59247E+04-4.66662E-09-7.34872E-10
 -1       965-2.40091E+05 3.41243E+02-8.44708E+01 6.38139E+04 1.65155E-08-2.15550E-10
 -1       966-2.40075E+05 3.04292E+02-1.49289E+02 5.59253E+04-1.83054E-08-1.09503E-09
 -1       967-2.40133E+05 3.26030E+02-3.03456E+02 6.38020E+04-1.68018E-08 1.80762E-09
 -1       968-2.40062E+05 2.21876E+02-5.97705E+02 5.59366E+04-7.62179E-09-4.68390E-11
 -1       969-2.40338E+05-1.42498E+02-1.33442E+03 6.36941E+04-1.77999E-09-1.14051E-09
 -1       970-2.39855E+05-1.21349E+03-2.68502E+03 5.60384E+04 3.18323E-09-5.37966E-10
 -1       971-1.20822E+06 3.15500E+04-9.08176E+04-3.95788E+03-9.94214E-09-4.66753E-09
 -1       972-1.24429E+06-3.75510E+04-6.14887E+04 1.99228E+04-1.74102E-08-2.66482E-09
 -1       973-1.22276E+06 4.08264E+03-2.36250E+04-5.30476E+03-1.58711E-08-5.17048E-09
 -1       974-1.22787E+06-4.69738E+03-1.39801E+04 2.22618E+04 4.79940E-09-5.78075E-09
 -1       975-1.22478E+06 4.92694E+02-6.09992E+03-6.30184E+03 8.72865E-09-1.00033E-08
 -1       976-1.22570E+06-3.63385E+02-3.48880E+03 2.38643E+04-1.82977E-08-4.88745E-09
 -1       977-1.22506E+06 3.90938E+01-1.91009E+03-6.90920E+03 2.90742E-08-1.09762E-08
 -1       978-1.22551E+06 1.50805E+02-1.64895E+03 2.46688E+04 5.63631E-08-1.13884E-08
 -1       979-1.22504E+06 4.78356E+01-1.99693E+03-7.10719E+03 2.88857E-08-1.32237E-08
 -1       980-1.22584E+06-3.79015E+02-3.74833E+03 2.46463E+04 2.15091E-08-8.67306E-09
 -1       981-1.22473E+06 5.47608E+02-6.56496E+03-6.88660E+03-6.26187E-09-1.05676E-08
 -1       982-1.22828E+06-5.03278E+03-1.51250E+04 2.38021E+04-1.18079E-08-6.29188E-09
 -1       983-1.22253E+06 4.43729E+03-2.55170E+04-6.26112E+03 1.33364E-08-1.10876E-08
 -1       984-1.24612E+06-4.05376E+04-6.65080E+04 2.21909E+04 3.42948E-09-7.26232E-09
 -1       985-1.20679E+06 3.41485E+04-9.81613E+04-5.26788E+03 1.32782E-08-8.33097E-09
 -3
 9999
