
 stresses (elem, integ.pnt.,sxx,syy,szz,sxy,sxz,syz) for set ELALL and time  0.1000000E+01

         1   1 -4.727603E+06 -5.387397E+05 -6.927777E+05 -1.193529E+05 -4.717937E+05  9.135978E+01
         1   2 -4.625650E+06  1.044252E+05 -2.986592E+05 -3.215462E+04 -3.095209E+05  1.614601E+01
         1   3 -4.726358E+06  2.328081E+04 -1.917599E+05  5.505807E+04 -1.472534E+05 -1.315488E+01
         1   4 -4.727619E+06 -5.387667E+05 -6.927816E+05  6.031772E-08 -4.717937E+05  3.399290E-10
         1   5 -4.625651E+06  1.044233E+05 -2.986595E+05  5.386216E-08 -3.095209E+05  4.762066E-10
         1   6 -4.726361E+06  2.327507E+04 -1.917607E+05  6.887549E-08 -1.472534E+05 -4.157107E-10
         1   7 -4.727603E+06 -5.387397E+05 -6.927777E+05  1.193529E+05 -4.717937E+05 -9.135978E+01
         1   8 -4.625650E+06  1.044252E+05 -2.986592E+05  3.215462E+04 -3.095209E+05 -1.614601E+01
         1   9 -4.726358E+06  2.328081E+04 -1.917599E+05 -5.505807E+04 -1.472534E+05  1.315488E+01
         1  10 -4.727844E+06 -5.388000E+05 -6.931992E+05 -1.193529E+05  2.497731E-10 -1.019553E-11
         1  11 -4.625754E+06  1.043993E+05 -2.988406E+05 -3.215462E+04  3.183575E-09  2.036437E-10
         1  12 -4.726381E+06  2.327494E+04 -1.918009E+05  5.505807E+04 -1.657860E-09  3.760077E-10
         1  13 -4.727859E+06 -5.388270E+05 -6.932031E+05  1.733669E-08 -2.098815E-09 -1.858519E-10
         1  14 -4.625755E+06  1.043973E+05 -2.988409E+05  4.527339E-08 -2.158477E-09 -2.980358E-10
         1  15 -4.726385E+06  2.326920E+04 -1.918018E+05  4.384053E-09 -4.752433E-10  4.012254E-10
         1  16 -4.727844E+06 -5.388000E+05 -6.931992E+05  1.193529E+05  9.242762E-10 -2.234623E-10
         1  17 -4.625754E+06  1.043993E+05 -2.988406E+05  3.215462E+04 -2.069478E-09  1.003614E-11
         1  18 -4.726381E+06  2.327494E+04 -1.918009E+05 -5.505807E+04 -6.294477E-10  9.614920E-10
         1  19 -4.727603E+06 -5.387397E+05 -6.927777E+05 -1.193529E+05  4.717937E+05 -9.135978E+01
         1  20 -4.625650E+06  1.044252E+05 -2.986592E+05 -3.215462E+04  3.095209E+05 -1.614601E+01
         1  21 -4.726358E+06  2.328081E+04 -1.917599E+05  5.505807E+04  1.472534E+05  1.315488E+01
         1  22 -4.727619E+06 -5.387667E+05 -6.927816E+05  6.031185E-08  4.717937E+05 -6.248723E-10
         1  23 -4.625651E+06  1.044233E+05 -2.986595E+05  1.947335E-08  3.095209E+05 -1.468715E-09
         1  24 -4.726361E+06  2.327507E+04 -1.917607E+05  6.568979E-08  1.472534E+05  1.042906E-09
         1  25 -4.727603E+06 -5.387397E+05 -6.927777E+05  1.193529E+05  4.717937E+05  9.135978E+01
         1  26 -4.625650E+06  1.044252E+05 -2.986592E+05  3.215462E+04  3.095209E+05  1.614601E+01
         1  27 -4.726358E+06  2.328081E+04 -1.917599E+05 -5.505807E+04  1.472534E+05 -1.315488E+01
         2   1 -4.688074E+06 -7.011921E+04 -1.577378E+05 -1.451872E+04 -1.165387E+05  2.745184E+00
         2   2 -4.673486E+06  1.371126E+04 -7.747134E+04 -3.547927E+03 -7.639273E+04  4.397387E-01
         2   3 -4.687849E+06  2.967963E+03 -4.712551E+04  7.422851E+03 -3.624576E+04 -4.365221E-01
         2   4 -4.688074E+06 -7.011961E+04 -1.577379E+05  1.819012E-08 -1.165387E+05 -2.206707E-10
         2   5 -4.673486E+06  1.371123E+04 -7.747135E+04 -7.710420E-09 -7.639273E+04  7.634589E-10
         2   6 -4.687849E+06  2.967859E+03 -4.712553E+04 -4.440561E-08 -3.624576E+04 -6.579096E-11
         2   7 -4.688074E+06 -7.011921E+04 -1.577378E+05  1.451872E+04 -1.165387E+05 -2.745184E+00
         2   8 -4.673486E+06  1.371126E+04 -7.747134E+04  3.547927E+03 -7.639273E+04 -4.397387E-01
         2   9 -4.687849E+06  2.967963E+03 -4.712551E+04 -7.422851E+03 -3.624576E+04  4.365221E-01
         2  10 -4.688089E+06 -7.012289E+04 -1.577636E+05 -1.451872E+04 -7.092216E-10 -4.500549E-10
         2  11 -4.673492E+06  1.370968E+04 -7.748239E+04 -3.547927E+03  8.491763E-10  3.780366E-10
         2  12 -4.687851E+06  2.967607E+03 -4.712800E+04  7.422851E+03  7.461016E-10  5.285531E-10
         2  13 -4.688089E+06 -7.012329E+04 -1.577636E+05 -5.061676E-08  1.724321E-10  4.295279E-10
         2  14 -4.673492E+06  1.370965E+04 -7.748239E+04 -2.062280E-08 -2.961153E-09 -2.596502E-10
         2  15 -4.687851E+06  2.967503E+03 -4.712802E+04 -4.655134E-08  3.058325E-09 -1.729968E-10
         2  16 -4.688089E+06 -7.012289E+04 -1.577636E+05  1.451872E+04 -5.332356E-10  1.722313E-10
         2  17 -4.673492E+06  1.370968E+04 -7.748239E+04  3.547927E+03  6.148807E-10 -9.766703E-10
         2  18 -4.687851E+06  2.967607E+03 -4.712800E+04 -7.422851E+03 -3.403852E-09 -9.248747E-11
         2  19 -4.688074E+06 -7.011921E+04 -1.577378E+05 -1.451872E+04  1.165387E+05 -2.745184E+00
         2  20 -4.673486E+06  1.371126E+04 -7.747134E+04 -3.547927E+03  7.639273E+04 -4.397387E-01
         2  21 -4.687849E+06  2.967963E+03 -4.712551E+04  7.422851E+03  3.624576E+04  4.365221E-01
         2  22 -4.688074E+06 -7.011961E+04 -1.577379E+05  3.536621E-08  1.165387E+05  6.614047E-10
         2  23 -4.673486E+06  1.371123E+04 -7.747135E+04 -2.492284E-08  7.639273E+04 -1.472912E-09
         2  24 -4.687849E+06  2.967859E+03 -4.712553E+04 -4.651364E-08  3.624576E+04 -4.585104E-10
         2  25 -4.688074E+06 -7.011921E+04 -1.577378E+05  1.451872E+04  1.165387E+05  2.745184E+00
         2  26 -4.673486E+06  1.371126E+04 -7.747134E+04  3.547927E+03  7.639273E+04  4.397387E-01
         2  27 -4.687849E+06  2.967963E+03 -4.712551E+04 -7.422851E+03  3.624576E+04 -4.365221E-01
         3   1 -4.682430E+06 -9.046949E+03 -3.735587E+04 -1.622311E+03 -2.872687E+04  7.561307E-02
         3   2 -4.680210E+06  1.802192E+03 -1.984805E+04 -3.014646E+02 -1.868810E+04  9.140611E-03
         3   3 -4.682386E+06  3.562282E+02 -1.198617E+04  1.019355E+03 -8.649368E+03 -1.430491E-02
         3   4 -4.682430E+06 -9.046954E+03 -3.735587E+04  9.831653E-09 -2.872687E+04 -1.262859E-09
         3   5 -4.680210E+06  1.802191E+03 -1.984805E+04 -3.633301E-08 -1.868810E+04 -1.012566E-09
         3   6 -4.682386E+06  3.562262E+02 -1.198617E+04 -1.585937E-08 -8.649368E+03  1.733168E-09
         3   7 -4.682430E+06 -9.046949E+03 -3.735587E+04  1.622311E+03 -2.872687E+04 -7.561307E-02
         3   8 -4.680210E+06  1.802192E+03 -1.984805E+04  3.014646E+02 -1.868810E+04 -9.140616E-03
         3   9 -4.682386E+06  3.562282E+02 -1.198617E+04 -1.019355E+03 -8.649368E+03  1.430492E-02
         3  10 -4.682430E+06 -9.047173E+03 -3.735743E+04 -1.622311E+03  8.599326E-10  5.875221E-10
         3  11 -4.680210E+06  1.802097E+03 -1.984872E+04 -3.014646E+02  4.366461E-09  3.325266E-11
         3  12 -4.682386E+06  3.562079E+02 -1.198631E+04  1.019355E+03  5.841527E-11 -1.434117E-09
         3  13 -4.682430E+06 -9.047178E+03 -3.735743E+04 -3.310338E-08 -1.842905E-09  4.374788E-10
         3  14 -4.680210E+06  1.802097E+03 -1.984872E+04 -1.055100E-08 -1.074921E-09  8.371827E-10
         3  15 -4.682386E+06  3.562059E+02 -1.198631E+04 -5.206313E-09  1.477772E-09 -4.911258E-10
         3  16 -4.682430E+06 -9.047173E+03 -3.735743E+04  1.622311E+03 -6.987317E-10 -2.931039E-10
         3  17 -4.680210E+06  1.802097E+03 -1.984872E+04  3.014646E+02  3.217375E-10  1.004993E-09
         3  18 -4.682386E+06  3.562079E+02 -1.198631E+04 -1.019355E+03  1.326827E-09  7.633291E-10
         3  19 -4.682430E+06 -9.046949E+03 -3.735587E+04 -1.622311E+03  2.872687E+04 -7.561306E-02
         3  20 -4.680210E+06  1.802192E+03 -1.984805E+04 -3.014646E+02  1.868810E+04 -9.140610E-03
         3  21 -4.682386E+06  3.562282E+02 -1.198617E+04  1.019355E+03  8.649368E+03  1.430491E-02
         3  22 -4.682430E+06 -9.046954E+03 -3.735587E+04 -7.607186E-08  2.872687E+04  2.182121E-09
         3  23 -4.680210E+06  1.802191E+03 -1.984805E+04 -6.217159E-08  1.868810E+04  2.546360E-09
         3  24 -4.682386E+06  3.562262E+02 -1.198617E+04  3.558705E-08  8.649368E+03 -2.935920E-09
         3  25 -4.682430E+06 -9.046949E+03 -3.735587E+04  1.622311E+03  2.872687E+04  7.561307E-02
         3  26 -4.680210E+06  1.802192E+03 -1.984805E+04  3.014646E+02  1.868810E+04  9.140612E-03
         3  27 -4.682386E+06  3.562282E+02 -1.198617E+04 -1.019355E+03  8.649368E+03 -1.430492E-02
         4   1 -4.681594E+06 -1.144402E+03 -9.505181E+03 -1.579887E+02 -6.723174E+03  1.723362E-03
         4   2 -4.681183E+06  2.588916E+02 -5.832538E+03 -5.639753E+00 -3.812105E+03  3.488059E-05
         4   3 -4.681586E+06 -6.209993E+01 -4.496969E+03  1.467112E+02 -9.009852E+02 -2.144668E-04
         4   4 -4.681594E+06 -1.144402E+03 -9.505181E+03  1.926683E-08 -6.723174E+03  2.448149E-09
         4   5 -4.681183E+06  2.588916E+02 -5.832538E+03  1.478553E-08 -3.812105E+03  2.011125E-10
         4   6 -4.681586E+06 -6.209997E+01 -4.496969E+03  1.996401E-08 -9.009852E+02 -1.117415E-09
         4   7 -4.681594E+06 -1.144402E+03 -9.505181E+03  1.579887E+02 -6.723174E+03 -1.723356E-03
         4   8 -4.681183E+06  2.588916E+02 -5.832538E+03  5.639753E+00 -3.812105E+03 -3.488292E-05
         4   9 -4.681586E+06 -6.209993E+01 -4.496969E+03 -1.467112E+02 -9.009852E+02  2.144635E-04
         4  10 -4.681594E+06 -1.144414E+03 -9.505266E+03 -1.579887E+02 -1.142007E-09 -4.508655E-10
         4  11 -4.681183E+06  2.588876E+02 -5.832565E+03 -5.639753E+00 -4.148728E-10  1.274275E-09
         4  12 -4.681586E+06 -6.210015E+01 -4.496970E+03  1.467112E+02  7.096225E-10  1.769954E-11
         4  13 -4.681594E+06 -1.144414E+03 -9.505266E+03 -6.458420E-09 -2.495627E-09 -3.752979E-10
         4  14 -4.681183E+06  2.588876E+02 -5.832565E+03 -1.100888E-08 -5.163014E-09  7.360692E-10
         4  15 -4.681586E+06 -6.210019E+01 -4.496970E+03 -4.995323E-08 -5.808649E-09  2.343772E-10
         4  16 -4.681594E+06 -1.144414E+03 -9.505266E+03  1.579887E+02  3.903686E-09 -5.713490E-10
         4  17 -4.681183E+06  2.588876E+02 -5.832565E+03  5.639753E+00  4.232033E-10  1.006564E-09
         4  18 -4.681586E+06 -6.210015E+01 -4.496970E+03 -1.467112E+02 -1.288483E-09  4.735980E-10
         4  19 -4.681594E+06 -1.144402E+03 -9.505181E+03 -1.579887E+02  6.723174E+03 -1.723360E-03
         4  20 -4.681183E+06  2.588916E+02 -5.832538E+03 -5.639754E+00  3.812105E+03 -3.488151E-05
         4  21 -4.681586E+06 -6.209993E+01 -4.496969E+03  1.467112E+02  9.009852E+02  2.144655E-04
         4  22 -4.681594E+06 -1.144402E+03 -9.505181E+03  5.381374E-08  6.723174E+03 -3.164039E-09
         4  23 -4.681183E+06  2.588916E+02 -5.832538E+03  1.480439E-08  3.812105E+03  1.254243E-09
         4  24 -4.681586E+06 -6.209997E+01 -4.496969E+03  2.415480E-08  9.009852E+02  1.471934E-09
         4  25 -4.681594E+06 -1.144402E+03 -9.505181E+03  1.579887E+02  6.723174E+03  1.723353E-03
         4  26 -4.681183E+06  2.588916E+02 -5.832538E+03  5.639753E+00  3.812105E+03  3.488306E-05
         4  27 -4.681586E+06 -6.209993E+01 -4.496969E+03 -1.467112E+02  9.009852E+02 -2.144647E-04
         5   1 -4.681553E+06 -1.085409E+02 -4.327660E+03 -1.100047E+02 -1.074456E+02  1.917487E-05
         5   2 -4.681223E+06  2.070219E+02 -4.898393E+03  8.882636E+00  2.335918E+03  3.366410E-05
         5   3 -4.681558E+06 -8.529474E+02 -7.412769E+03  1.277701E+02  4.779278E+03  9.907596E-04
         5   4 -4.681553E+06 -1.085409E+02 -4.327660E+03  4.798599E-08 -1.074456E+02 -7.465859E-10
         5   5 -4.681223E+06  2.070219E+02 -4.898393E+03  2.013617E-08  2.335918E+03  4.496336E-10
         5   6 -4.681558E+06 -8.529475E+02 -7.412769E+03  3.426981E-08  4.779278E+03  7.792213E-10
         5   7 -4.681553E+06 -1.085409E+02 -4.327660E+03  1.100047E+02 -1.074456E+02 -1.917655E-05
         5   8 -4.681223E+06  2.070219E+02 -4.898393E+03 -8.882636E+00  2.335918E+03 -3.366665E-05
         5   9 -4.681558E+06 -8.529474E+02 -7.412769E+03 -1.277701E+02  4.779278E+03 -9.907555E-04
         5  10 -4.681553E+06 -1.085409E+02 -4.327660E+03 -1.100047E+02 -1.036615E-09 -9.662541E-10
         5  11 -4.681223E+06  2.070204E+02 -4.898404E+03  8.882635E+00  9.288487E-10 -2.015708E-10
         5  12 -4.681558E+06 -8.529536E+02 -7.412812E+03  1.277701E+02  1.455090E-09  1.022187E-09
         5  13 -4.681553E+06 -1.085409E+02 -4.327660E+03 -1.223582E-08 -1.726541E-09 -3.911297E-10
         5  14 -4.681223E+06  2.070204E+02 -4.898404E+03 -2.715076E-08 -8.632700E-10 -4.948571E-10
         5  15 -4.681558E+06 -8.529536E+02 -7.412812E+03 -1.193381E-08  1.875156E-09  3.956330E-10
         5  16 -4.681553E+06 -1.085409E+02 -4.327660E+03  1.100047E+02 -3.368957E-09 -8.188686E-11
         5  17 -4.681223E+06  2.070204E+02 -4.898404E+03 -8.882635E+00 -4.100736E-09 -7.851358E-10
         5  18 -4.681558E+06 -8.529536E+02 -7.412812E+03 -1.277701E+02  1.534249E-09  1.614650E-10
         5  19 -4.681553E+06 -1.085409E+02 -4.327660E+03 -1.100047E+02  1.074456E+02 -1.917542E-05
         5  20 -4.681223E+06  2.070219E+02 -4.898393E+03  8.882635E+00 -2.335918E+03 -3.366419E-05
         5  21 -4.681558E+06 -8.529474E+02 -7.412769E+03  1.277701E+02 -4.779278E+03 -9.907541E-04
         5  22 -4.681553E+06 -1.085409E+02 -4.327660E+03  4.946464E-09  1.074456E+02  1.302040E-10
         5  23 -4.681223E+06  2.070219E+02 -4.898393E+03 -5.722816E-08 -2.335918E+03 -9.459830E-10
         5  24 -4.681558E+06 -8.529475E+02 -7.412769E+03 -6.754430E-11 -4.779278E+03 -5.639778E-11
         5  25 -4.681553E+06 -1.085409E+02 -4.327660E+03  1.100047E+02  1.074456E+02  1.917413E-05
         5  26 -4.681223E+06  2.070219E+02 -4.898393E+03 -8.882635E+00 -2.335918E+03  3.366053E-05
         5  27 -4.681558E+06 -8.529474E+02 -7.412769E+03 -1.277701E+02 -4.779278E+03  9.907525E-04
         6   1 -4.682140E+06  2.590338E+02 -9.191393E+03 -7.595689E+02  6.267605E+03 -7.724035E-03
         6   2 -4.680508E+06  1.347990E+03 -1.496067E+04  2.269229E+02  1.383296E+04  5.092930E-03
         6   3 -4.682172E+06 -6.757764E+03 -2.798171E+04  1.213404E+03  2.139814E+04  4.212658E-02
         6   4 -4.682140E+06  2.590327E+02 -9.191393E+03  1.440308E-08  6.267605E+03  4.065572E-10
         6   5 -4.680508E+06  1.347990E+03 -1.496067E+04 -2.386042E-08  1.383296E+04 -1.237258E-09
         6   6 -4.682172E+06 -6.757767E+03 -2.798171E+04 -5.153718E-09  2.139814E+04  2.629718E-10
         6   7 -4.682140E+06  2.590338E+02 -9.191393E+03  7.595689E+02  6.267605E+03  7.724036E-03
         6   8 -4.680508E+06  1.347990E+03 -1.496067E+04 -2.269229E+02  1.383296E+04 -5.092933E-03
         6   9 -4.682172E+06 -6.757764E+03 -2.798171E+04 -1.213404E+03  2.139814E+04 -4.212658E-02
         6  10 -4.682140E+06  2.590232E+02 -9.191467E+03 -7.595689E+02  2.511883E-09  3.537025E-10
         6  11 -4.680508E+06  1.347939E+03 -1.496104E+04  2.269229E+02  2.092772E-09 -8.862178E-10
         6  12 -4.682172E+06 -6.757888E+03 -2.798258E+04  1.213404E+03  1.124563E-09  2.452734E-10
         6  13 -4.682140E+06  2.590221E+02 -9.191468E+03 -2.863864E-08 -2.889908E-10  3.753144E-10
         6  14 -4.680508E+06  1.347939E+03 -1.496104E+04  1.914166E-08 -4.230986E-10 -3.814261E-10
         6  15 -4.682172E+06 -6.757891E+03 -2.798258E+04  1.960773E-08  2.034188E-09  8.098552E-11
         6  16 -4.682140E+06  2.590232E+02 -9.191467E+03  7.595689E+02 -1.799382E-09 -6.658839E-12
         6  17 -4.680508E+06  1.347939E+03 -1.496104E+04 -2.269229E+02  1.783832E-09 -4.250682E-10
         6  18 -4.682172E+06 -6.757888E+03 -2.798258E+04 -1.213404E+03  2.016756E-09 -4.917191E-10
         6  19 -4.682140E+06  2.590338E+02 -9.191393E+03 -7.595689E+02 -6.267605E+03  7.724038E-03
         6  20 -4.680508E+06  1.347990E+03 -1.496067E+04  2.269229E+02 -1.383296E+04 -5.092929E-03
         6  21 -4.682172E+06 -6.757764E+03 -2.798171E+04  1.213404E+03 -2.139814E+04 -4.212658E-02
         6  22 -4.682140E+06  2.590327E+02 -9.191393E+03  5.734381E-09 -6.267605E+03  6.446052E-10
         6  23 -4.680508E+06  1.347990E+03 -1.496067E+04 -6.665451E-09 -1.383296E+04  3.549669E-10
         6  24 -4.682172E+06 -6.757767E+03 -2.798171E+04  1.209988E-08 -2.139814E+04 -6.946152E-11
         6  25 -4.682140E+06  2.590338E+02 -9.191393E+03  7.595689E+02 -6.267605E+03 -7.724037E-03
         6  26 -4.680508E+06  1.347990E+03 -1.496067E+04 -2.269229E+02 -1.383296E+04  5.092930E-03
         6  27 -4.682172E+06 -6.757764E+03 -2.798171E+04 -1.213404E+03 -2.139814E+04  4.212658E-02
         7   1 -4.686218E+06  2.216375E+03 -3.526116E+04 -5.543982E+03  2.702739E+04 -2.431104E-01
         7   2 -4.675488E+06  1.024206E+04 -5.790543E+04  2.650765E+03  5.703216E+04  2.452793E-01
         7   3 -4.686387E+06 -5.237823E+04 -1.178515E+05  1.084564E+04  8.703680E+04  1.531552E+00
         7   4 -4.686218E+06  2.216317E+03 -3.526117E+04  2.178887E-08  2.702739E+04  9.376277E-10
         7   5 -4.675488E+06  1.024205E+04 -5.790543E+04  1.672332E-08  5.703216E+04  3.205491E-10
         7   6 -4.686387E+06 -5.237846E+04 -1.178515E+05  7.186197E-08  8.703680E+04 -2.132354E-09
         7   7 -4.686218E+06  2.216375E+03 -3.526116E+04  5.543982E+03  2.702739E+04  2.431104E-01
         7   8 -4.675488E+06  1.024206E+04 -5.790543E+04 -2.650765E+03  5.703216E+04 -2.452793E-01
         7   9 -4.686387E+06 -5.237823E+04 -1.178515E+05 -1.084564E+04  8.703680E+04 -1.531552E+00
         7  10 -4.686219E+06  2.216177E+03 -3.526255E+04 -5.543982E+03 -2.137839E-09  7.792397E-11
         7  11 -4.675492E+06  1.024118E+04 -5.791159E+04  2.650765E+03  1.019896E-09 -8.556217E-10
         7  12 -4.686396E+06 -5.238029E+04 -1.178658E+05  1.084564E+04  2.859357E-09  3.799276E-10
         7  13 -4.686219E+06  2.216119E+03 -3.526256E+04 -4.016329E-09 -1.660742E-09  2.525921E-10
         7  14 -4.675492E+06  1.024117E+04 -5.791159E+04  8.119310E-09 -1.285891E-09 -4.087682E-12
         7  15 -4.686396E+06 -5.238051E+04 -1.178659E+05 -9.835585E-09  2.077200E-09 -5.372346E-10
         7  16 -4.686219E+06  2.216177E+03 -3.526255E+04  5.543982E+03 -1.086873E-09  9.596312E-10
         7  17 -4.675492E+06  1.024118E+04 -5.791159E+04 -2.650765E+03 -1.029832E-09  1.019826E-09
         7  18 -4.686396E+06 -5.238029E+04 -1.178658E+05 -1.084564E+04 -3.682773E-09 -6.313922E-10
         7  19 -4.686218E+06  2.216375E+03 -3.526116E+04 -5.543982E+03 -2.702739E+04  2.431104E-01
         7  20 -4.675488E+06  1.024206E+04 -5.790543E+04  2.650765E+03 -5.703216E+04 -2.452793E-01
         7  21 -4.686387E+06 -5.237823E+04 -1.178515E+05  1.084564E+04 -8.703680E+04 -1.531552E+00
         7  22 -4.686218E+06  2.216317E+03 -3.526117E+04  3.038639E-08 -2.702739E+04 -2.291049E-10
         7  23 -4.675488E+06  1.024205E+04 -5.790543E+04 -9.088680E-09 -5.703216E+04  5.724188E-11
         7  24 -4.686387E+06 -5.237846E+04 -1.178515E+05  8.400642E-09 -8.703680E+04  1.008164E-09
         7  25 -4.686218E+06  2.216375E+03 -3.526116E+04  5.543982E+03 -2.702739E+04 -2.431104E-01
         7  26 -4.675488E+06  1.024206E+04 -5.790543E+04 -2.650765E+03 -5.703216E+04  2.452793E-01
         7  27 -4.686387E+06 -5.237823E+04 -1.178515E+05 -1.084564E+04 -8.703680E+04  1.531552E+00
         8   1 -4.714986E+06  1.738780E+04 -1.432658E+05 -4.112638E+04  1.099873E+05 -7.339344E+00
         8   2 -4.639764E+06  7.800136E+04 -2.231427E+05  2.401708E+04  2.311964E+05  9.008326E+00
         8   3 -4.715933E+06 -4.024358E+05 -5.175862E+05  8.915322E+04  3.524097E+05  5.097488E+01
         8   4 -4.714988E+06  1.738460E+04 -1.432663E+05  7.036265E-08  1.099873E+05 -8.660356E-10
         8   5 -4.639764E+06  7.800027E+04 -2.231429E+05  3.980496E-08  2.311964E+05  2.552368E-09
         8   6 -4.715942E+06 -4.024508E+05 -5.175884E+05  3.825500E-08  3.524097E+05  1.015386E-09
         8   7 -4.714986E+06  1.738780E+04 -1.432658E+05  4.112638E+04  1.099873E+05  7.339344E+00
         8   8 -4.639764E+06  7.800136E+04 -2.231427E+05 -2.401708E+04  2.311964E+05 -9.008326E+00
         8   9 -4.715933E+06 -4.024358E+05 -5.175862E+05 -8.915322E+04  3.524097E+05 -5.097488E+01
         8  10 -4.714999E+06  1.738452E+04 -1.432887E+05 -4.112638E+04  1.189987E-09 -2.261916E-10
         8  11 -4.639822E+06  7.798687E+04 -2.232439E+05  2.401708E+04  2.902171E-09  1.276261E-09
         8  12 -4.716067E+06 -4.024694E+05 -5.178214E+05  8.915321E+04  4.584036E-10  5.999653E-10
         8  13 -4.715001E+06  1.738132E+04 -1.432892E+05 -3.279548E-08  2.149585E-09 -1.934412E-10
         8  14 -4.639822E+06  7.798578E+04 -2.232441E+05  3.119723E-08  3.432658E-09  9.794359E-10
         8  15 -4.716076E+06 -4.024845E+05 -5.178235E+05 -1.233000E-08 -1.191651E-10  4.256071E-10
         8  16 -4.714999E+06  1.738452E+04 -1.432887E+05  4.112638E+04 -1.707536E-09 -5.698744E-10
         8  17 -4.639822E+06  7.798687E+04 -2.232439E+05 -2.401708E+04  2.339831E-10  9.422685E-10
         8  18 -4.716067E+06 -4.024694E+05 -5.178214E+05 -8.915321E+04  1.068725E-09 -1.092144E-10
         8  19 -4.714986E+06  1.738780E+04 -1.432658E+05 -4.112638E+04 -1.099873E+05  7.339344E+00
         8  20 -4.639764E+06  7.800136E+04 -2.231427E+05  2.401708E+04 -2.311964E+05 -9.008326E+00
         8  21 -4.715933E+06 -4.024358E+05 -5.175862E+05  8.915322E+04 -3.524097E+05 -5.097488E+01
         8  22 -4.714988E+06  1.738460E+04 -1.432663E+05  1.658984E-09 -1.099873E+05  6.754966E-10
         8  23 -4.639764E+06  7.800027E+04 -2.231429E+05  5.406992E-09 -2.311964E+05 -5.059216E-10
         8  24 -4.715942E+06 -4.024508E+05 -5.175884E+05  2.957253E-08 -3.524097E+05 -9.577794E-11
         8  25 -4.714986E+06  1.738780E+04 -1.432658E+05  4.112638E+04 -1.099873E+05 -7.339344E+00
         8  26 -4.639764E+06  7.800136E+04 -2.231427E+05 -2.401708E+04 -2.311964E+05  9.008326E+00
         8  27 -4.715933E+06 -4.024358E+05 -5.175862E+05 -8.915322E+04 -3.524097E+05  5.097488E+01
         9   1  2.240185E+06  7.938910E+06  2.141723E+06 -1.460151E+06  1.016797E+05  8.169537E+05
         9   2  1.768414E+06  6.784266E+06  1.445433E+06 -1.305996E+06  3.399423E+05  3.833545E+05
         9   3  1.453022E+06  5.728716E+06  1.069077E+06 -1.342691E+06  3.940065E+05 -4.922113E+04
         9   4  1.777930E+05 -4.582033E+05  1.906249E+05 -1.324720E+06  1.036433E+05  1.302261E+05
         9   5  5.260981E+04 -4.717573E+05  9.681680E+04 -1.229615E+06  3.413671E+05  8.190216E+04
         9   6  1.832871E+04 -4.530631E+05  5.776032E+04 -1.325301E+06  3.939823E+05  3.371585E+04
         9   7 -1.889249E+06 -8.789711E+06 -1.763466E+06 -1.191012E+06  1.053312E+05 -5.473752E+05
         9   8 -1.666147E+06 -7.676939E+06 -1.253697E+06 -1.154055E+06  3.427305E+05 -2.161493E+05
         9   9 -1.418313E+06 -6.597200E+06 -9.546310E+05 -1.308012E+06  3.939624E+05  1.158600E+05
         9  10  2.239997E+06  7.938198E+06  2.140463E+06 -1.460218E+06  8.381127E-10 -1.717552E-09
         9  11  1.768251E+06  6.784078E+06  1.444941E+06 -1.306101E+06 -2.683597E-09 -2.213404E-09
         9  12  1.452855E+06  5.728671E+06  1.068781E+06 -1.342676E+06 -2.093543E-09 -2.867533E-09
         9  13  1.777769E+05 -4.582245E+05  1.905727E+05 -1.324731E+06  1.919670E-09 -1.895511E-11
         9  14  5.248283E+04 -4.717958E+05  9.658501E+04 -1.229638E+06 -2.228099E-09  1.448860E-11
         9  15  1.816173E+04 -4.531060E+05  5.746642E+04 -1.325312E+06 -5.779196E-09 -2.772463E-11
         9  16 -1.889343E+06 -8.790039E+06 -1.764057E+06 -1.190966E+06  4.087762E-09  1.551252E-09
         9  17 -1.666286E+06 -7.677021E+06 -1.254006E+06 -1.153996E+06  1.016263E-09  1.994637E-09
         9  18 -1.418484E+06 -6.597256E+06 -9.549485E+05 -1.308049E+06 -1.092958E-09  2.776336E-09
         9  19  2.240185E+06  7.938910E+06  2.141723E+06 -1.460151E+06 -1.016797E+05 -8.169537E+05
         9  20  1.768414E+06  6.784266E+06  1.445433E+06 -1.305996E+06 -3.399423E+05 -3.833545E+05
         9  21  1.453022E+06  5.728716E+06  1.069077E+06 -1.342691E+06 -3.940065E+05  4.922113E+04
         9  22  1.777930E+05 -4.582033E+05  1.906249E+05 -1.324720E+06 -1.036433E+05 -1.302261E+05
         9  23  5.260981E+04 -4.717573E+05  9.681680E+04 -1.229615E+06 -3.413671E+05 -8.190216E+04
         9  24  1.832871E+04 -4.530631E+05  5.776032E+04 -1.325301E+06 -3.939823E+05 -3.371585E+04
         9  25 -1.889249E+06 -8.789711E+06 -1.763466E+06 -1.191012E+06 -1.053312E+05  5.473752E+05
         9  26 -1.666147E+06 -7.676939E+06 -1.253697E+06 -1.154055E+06 -3.427305E+05  2.161493E+05
         9  27 -1.418313E+06 -6.597200E+06 -9.546310E+05 -1.308012E+06 -3.939624E+05 -1.158600E+05
        10   1  1.285132E+06  5.017036E+06  9.229396E+05 -1.353317E+06  3.641159E+05 -5.556843E+04
        10   2  1.017679E+06  3.906104E+06  7.029641E+05 -1.243113E+06  3.146743E+05 -1.179474E+05
        10   3  7.711068E+05  2.809438E+06  5.285431E+05 -1.336809E+06  2.439266E+05 -1.804601E+05
        10   4  1.793659E+04 -4.575128E+05  4.700276E+04 -1.328218E+06  3.639965E+05  2.555734E+04
        10   5  1.310980E+04 -4.586263E+05  3.600032E+04 -1.226233E+06  3.141671E+05  7.504761E+03
        10   6  2.161049E+04 -4.542879E+05  3.996638E+04 -1.328230E+06  2.429544E+05 -1.078601E+04
        10   7 -1.250755E+06 -5.902410E+06 -8.297020E+05 -1.303281E+06  3.638828E+05  1.059971E+05
        10   8 -9.923670E+05 -4.804327E+06 -6.313174E+05 -1.209433E+06  3.136643E+05  1.321132E+05
        10   9 -7.283736E+05 -3.707285E+06 -4.487108E+05 -1.319671E+06  2.419834E+05  1.580349E+05
        10  10  1.284989E+06  5.016997E+06  9.226849E+05 -1.353301E+06 -4.719387E-09  4.833947E-09
        10  11  1.017569E+06  3.906063E+06  7.027524E+05 -1.243083E+06 -7.225405E-10  1.881113E-10
        10  12  7.710344E+05  2.809387E+06  5.283709E+05 -1.336774E+06  1.425358E-10 -4.714113E-09
        10  13  1.779415E+04 -4.575491E+05  4.675252E+04 -1.328225E+06 -7.592860E-09  7.370439E-11
        10  14  1.300382E+04 -4.586529E+05  3.581476E+04 -1.226235E+06  3.289773E-09  1.519076E-10
        10  15  2.154710E+04 -4.543038E+05  3.985529E+04 -1.328227E+06  4.791492E-09  1.126690E-10
        10  16 -1.250901E+06 -5.902457E+06 -8.299725E+05 -1.303312E+06 -3.067461E-10 -4.685738E-09
        10  17 -9.924774E+05 -4.804372E+06 -6.315357E+05 -1.209466E+06  2.636403E-10  2.354810E-10
        10  18 -7.284433E+05 -3.707328E+06 -4.488684E+05 -1.319702E+06  3.128395E-09  5.081851E-09
        10  19  1.285132E+06  5.017036E+06  9.229396E+05 -1.353317E+06 -3.641159E+05  5.556843E+04
        10  20  1.017679E+06  3.906104E+06  7.029641E+05 -1.243113E+06 -3.146743E+05  1.179474E+05
        10  21  7.711068E+05  2.809438E+06  5.285431E+05 -1.336809E+06 -2.439266E+05  1.804601E+05
        10  22  1.793659E+04 -4.575128E+05  4.700276E+04 -1.328218E+06 -3.639965E+05 -2.555734E+04
        10  23  1.310980E+04 -4.586263E+05  3.600032E+04 -1.226233E+06 -3.141671E+05 -7.504761E+03
        10  24  2.161049E+04 -4.542879E+05  3.996638E+04 -1.328230E+06 -2.429544E+05  1.078601E+04
        10  25 -1.250755E+06 -5.902410E+06 -8.297020E+05 -1.303281E+06 -3.638828E+05 -1.059971E+05
        10  26 -9.923670E+05 -4.804327E+06 -6.313174E+05 -1.209433E+06 -3.136643E+05 -1.321132E+05
        10  27 -7.283736E+05 -3.707285E+06 -4.487108E+05 -1.319671E+06 -2.419834E+05 -1.580349E+05
        11   1  6.138590E+05  2.117628E+06  4.265670E+05 -1.340349E+06  1.955511E+05 -1.870754E+05
        11   2  3.885652E+05  1.005413E+06  2.901445E+05 -1.189173E+06  1.127087E+05 -2.301701E+05
        11   3  2.287208E+05 -8.555155E+04  1.975390E+05 -1.243429E+06  2.734985E+04 -2.732823E+05
        11   4  2.463882E+04 -4.505023E+05  4.622653E+04 -1.328593E+06  1.944902E+05 -1.767817E+04
        11   5  5.300169E+04 -4.594709E+05  7.343340E+04 -1.225569E+06  1.115521E+05 -5.566408E+04
        11   6  1.460035E+05 -4.493807E+05  1.408356E+05 -1.327920E+06  2.610153E+04 -9.373288E+04
        11   7 -5.648745E+05 -3.011951E+06 -3.341281E+05 -1.316871E+06  1.934326E+05  1.510487E+05
        11   8 -2.826398E+05 -1.922128E+06 -1.432016E+05 -1.261870E+06  1.103733E+05  1.184475E+05
        11   9  6.332457E+04 -8.129925E+05  8.425428E+04 -1.412360E+06  2.480383E+04  8.571528E+04
        11  10  6.138087E+05  2.117580E+06  4.264300E+05 -1.340320E+06 -1.280290E-09  3.620216E-09
        11  11  3.885374E+05  1.005352E+06  2.900214E+05 -1.189152E+06  4.805076E-09 -1.180447E-09
        11  12  2.286999E+05 -8.563193E+04  1.973973E+05 -1.243423E+06  1.066899E-09 -5.367496E-09
        11  13  2.459814E+04 -4.505128E+05  4.615492E+04 -1.328590E+06 -1.389431E-09  6.553348E-12
        11  14  5.298752E+04 -4.594776E+05  7.340426E+04 -1.225564E+06  2.919490E-09 -4.435882E-11
        11  15  1.460004E+05 -4.493903E+05  1.408178E+05 -1.327918E+06  1.871435E-09 -2.955152E-11
        11  16 -5.649210E+05 -3.011986E+06 -3.342417E+05 -1.316894E+06 -2.602976E-09 -3.130055E-09
        11  17 -2.826567E+05 -1.922147E+06 -1.432511E+05 -1.261880E+06  6.041952E-10  1.469218E-09
        11  18  6.332192E+04 -8.130005E+05  8.423927E+04 -1.412362E+06  1.806391E-10  5.319627E-09
        11  19  6.138590E+05  2.117628E+06  4.265670E+05 -1.340349E+06 -1.955511E+05  1.870754E+05
        11  20  3.885652E+05  1.005413E+06  2.901445E+05 -1.189173E+06 -1.127087E+05  2.301701E+05
        11  21  2.287208E+05 -8.555155E+04  1.975390E+05 -1.243429E+06 -2.734985E+04  2.732823E+05
        11  22  2.463882E+04 -4.505023E+05  4.622653E+04 -1.328593E+06 -1.944902E+05  1.767817E+04
        11  23  5.300169E+04 -4.594709E+05  7.343340E+04 -1.225569E+06 -1.115521E+05  5.566408E+04
        11  24  1.460035E+05 -4.493807E+05  1.408356E+05 -1.327920E+06 -2.610153E+04  9.373288E+04
        11  25 -5.648745E+05 -3.011951E+06 -3.341281E+05 -1.316871E+06 -1.934326E+05 -1.510487E+05
        11  26 -2.826398E+05 -1.922128E+06 -1.432016E+05 -1.261870E+06 -1.103733E+05 -1.184475E+05
        11  27  6.332457E+04 -8.129925E+05  8.425428E+04 -1.412360E+06 -2.480383E+04 -8.571528E+04
        12   1 -5.421139E+06 -1.590666E+06 -1.009986E+06 -1.895452E+06 -5.664041E+05 -2.081775E+05
        12   2 -5.245350E+06 -7.374468E+05 -4.722596E+05 -2.012117E+06 -3.650546E+05 -1.254643E+05
        12   3 -5.381916E+06 -7.827590E+05 -3.227385E+05 -1.949400E+06 -1.603944E+05 -5.155456E+04
        12   4 -5.077351E+06 -1.329782E+06 -8.891464E+05 -1.667778E+06 -5.632399E+05 -2.071430E+05
        12   5 -4.876085E+06 -5.632213E+05 -3.651735E+05 -1.876116E+06 -3.645612E+05 -1.253059E+05
        12   6 -4.986435E+06 -6.943804E+05 -2.271005E+05 -1.905141E+06 -1.625631E+05 -5.234595E+04
        12   7 -4.733404E+06 -1.068739E+06 -7.683132E+05 -1.439954E+06 -5.600738E+05 -2.061060E+05
        12   8 -4.506684E+06 -3.889638E+05 -2.581009E+05 -1.740034E+06 -3.640674E+05 -1.251473E+05
        12   9 -4.590796E+06 -6.060063E+05 -1.314711E+05 -1.860867E+06 -1.647333E+05 -5.313737E+04
        12  10 -5.421498E+06 -1.590800E+06 -1.010678E+06 -1.895547E+06  2.106021E-09 -1.050471E-10
        12  11 -5.245498E+06 -7.375000E+05 -4.725423E+05 -2.012154E+06 -1.354492E-09 -1.243156E-09
        12  12 -5.381944E+06 -7.827688E+05 -3.227924E+05 -1.949407E+06 -1.803656E-09 -1.984422E-09
        12  13 -5.077705E+06 -1.329915E+06 -8.898295E+05 -1.667873E+06 -1.763215E-09 -1.369500E-10
        12  14 -4.876233E+06 -5.632744E+05 -3.654554E+05 -1.876153E+06 -3.501104E-09 -2.038891E-10
        12  15 -4.986464E+06 -6.943906E+05 -2.271559E+05 -1.905148E+06 -5.974420E-09  3.961838E-10
        12  16 -4.733754E+06 -1.068870E+06 -7.689882E+05 -1.440048E+06 -2.561986E-09 -4.240219E-10
        12  17 -4.506831E+06 -3.890167E+05 -2.583817E+05 -1.740071E+06 -2.278801E-09 -1.112624E-09
        12  18 -4.590826E+06 -6.060167E+05 -1.315279E+05 -1.860874E+06 -4.285797E-09 -8.117651E-10
        12  19 -5.421139E+06 -1.590666E+06 -1.009986E+06 -1.895452E+06  5.664041E+05  2.081775E+05
        12  20 -5.245350E+06 -7.374468E+05 -4.722596E+05 -2.012117E+06  3.650546E+05  1.254643E+05
        12  21 -5.381916E+06 -7.827590E+05 -3.227385E+05 -1.949400E+06  1.603944E+05  5.155456E+04
        12  22 -5.077351E+06 -1.329782E+06 -8.891464E+05 -1.667778E+06  5.632399E+05  2.071430E+05
        12  23 -4.876085E+06 -5.632213E+05 -3.651735E+05 -1.876116E+06  3.645612E+05  1.253059E+05
        12  24 -4.986435E+06 -6.943804E+05 -2.271005E+05 -1.905141E+06  1.625631E+05  5.234595E+04
        12  25 -4.733404E+06 -1.068739E+06 -7.683132E+05 -1.439954E+06  5.600738E+05  2.061060E+05
        12  26 -4.506684E+06 -3.889638E+05 -2.581009E+05 -1.740034E+06  3.640674E+05  1.251473E+05
        12  27 -4.590796E+06 -6.060063E+05 -1.314711E+05 -1.860867E+06  1.647333E+05  5.313737E+04
        13   1 -5.162118E+06 -8.920052E+05 -2.458868E+05 -1.924769E+06 -1.279917E+05 -4.219913E+04
        13   2 -5.108362E+06 -7.372501E+05 -1.300265E+05 -1.900887E+06 -8.191326E+04 -2.631637E+04
        13   3 -5.054540E+06 -7.467590E+05 -7.973767E+04 -1.904829E+06 -3.539560E+04 -1.159410E+04
        13   4 -4.954854E+06 -7.974303E+05 -1.863063E+05 -1.851748E+06 -1.282031E+05 -4.228251E+04
        13   5 -4.948881E+06 -6.730744E+05 -8.590448E+04 -1.853563E+06 -8.247304E+04 -2.652617E+04
        13   6 -4.942759E+06 -7.128921E+05 -5.077668E+04 -1.883204E+06 -3.630773E+04 -1.193394E+04
        13   7 -4.747547E+06 -7.028469E+05 -1.267301E+05 -1.778703E+06 -1.284146E+05 -4.236593E+04
        13   8 -4.789375E+06 -6.088964E+05 -4.178488E+04 -1.806227E+06 -8.303299E+04 -2.673605E+04
        13   9 -4.830966E+06 -6.790255E+05 -2.181676E+04 -1.861577E+06 -3.722004E+04 -1.227382E+04
        13  10 -5.162136E+06 -8.920116E+05 -2.459212E+05 -1.924773E+06  4.132801E-09 -1.059566E-09
        13  11 -5.108369E+06 -7.372527E+05 -1.300406E+05 -1.900888E+06 -1.394447E-09 -7.304471E-10
        13  12 -5.054541E+06 -7.467595E+05 -7.974030E+04 -1.904829E+06 -3.983595E-09 -1.344388E-09
        13  13 -4.954872E+06 -7.974367E+05 -1.863409E+05 -1.851752E+06  3.171273E-10  5.171410E-10
        13  14 -4.948888E+06 -6.730770E+05 -8.591871E+04 -1.853564E+06 -1.482314E-09  2.127948E-10
        13  15 -4.942760E+06 -7.128926E+05 -5.077945E+04 -1.883205E+06 -6.764433E-10 -5.173511E-10
        13  16 -4.747565E+06 -7.028533E+05 -1.267647E+05 -1.778707E+06 -6.775033E-09 -2.479449E-09
        13  17 -4.789383E+06 -6.088991E+05 -4.179931E+04 -1.806229E+06  2.666080E-10 -1.077967E-09
        13  18 -4.830968E+06 -6.790260E+05 -2.181967E+04 -1.861578E+06  2.648763E-09 -4.165886E-10
        13  19 -5.162118E+06 -8.920052E+05 -2.458868E+05 -1.924769E+06  1.279917E+05  4.219913E+04
        13  20 -5.108362E+06 -7.372501E+05 -1.300265E+05 -1.900887E+06  8.191326E+04  2.631637E+04
        13  21 -5.054540E+06 -7.467590E+05 -7.973767E+04 -1.904829E+06  3.539560E+04  1.159410E+04
        13  22 -4.954854E+06 -7.974303E+05 -1.863063E+05 -1.851748E+06  1.282031E+05  4.228251E+04
        13  23 -4.948881E+06 -6.730744E+05 -8.590448E+04 -1.853563E+06  8.247304E+04  2.652617E+04
        13  24 -4.942759E+06 -7.128921E+05 -5.077668E+04 -1.883204E+06  3.630773E+04  1.193394E+04
        13  25 -4.747547E+06 -7.028469E+05 -1.267301E+05 -1.778703E+06  1.284146E+05  4.236593E+04
        13  26 -4.789375E+06 -6.088964E+05 -4.178488E+04 -1.806227E+06  8.303299E+04  2.673605E+04
        13  27 -4.830966E+06 -6.790255E+05 -2.181676E+04 -1.861577E+06  3.722004E+04  1.227382E+04
        14   1 -4.891500E+06 -7.106687E+05 -2.770892E+04 -1.865357E+06 -2.761832E+04 -1.043870E+04
        14   2 -4.855359E+06 -6.493026E+05  8.004816E+03 -1.823236E+06 -1.648536E+04 -8.779516E+03
        14   3 -4.776013E+06 -6.536148E+05  3.182540E+04 -1.835412E+06 -5.357877E+03 -7.100249E+03
        14   4 -4.938168E+06 -7.263190E+05 -4.020930E+04 -1.875920E+06 -2.830332E+04 -1.069444E+04
        14   5 -4.958971E+06 -6.879412E+05 -2.007131E+04 -1.850826E+06 -1.716487E+04 -9.033264E+03
        14   6 -4.936572E+06 -7.152445E+05 -1.183011E+04 -1.880030E+06 -6.032961E+03 -7.352443E+03
        14   7 -4.984835E+06 -7.419693E+05 -5.270992E+04 -1.886482E+06 -2.898825E+04 -1.095017E+04
        14   8 -5.062573E+06 -7.265794E+05 -4.814848E+04 -1.878411E+06 -1.784426E+04 -9.286968E+03
        14   9 -5.097105E+06 -7.768727E+05 -5.548805E+04 -1.924638E+06 -6.707853E+03 -7.604561E+03
        14  10 -4.891501E+06 -7.106690E+05 -2.771057E+04 -1.865357E+06 -4.640673E-09 -2.543671E-10
        14  11 -4.855360E+06 -6.493028E+05  8.004155E+03 -1.823236E+06 -3.689908E-09 -7.747089E-10
        14  12 -4.776013E+06 -6.536149E+05  3.182525E+04 -1.835412E+06  8.021352E-10 -1.367875E-09
        14  13 -4.938169E+06 -7.263193E+05 -4.021104E+04 -1.875920E+06 -6.928996E-09 -4.003195E-10
        14  14 -4.958972E+06 -6.879414E+05 -2.007202E+04 -1.850826E+06  2.995672E-09  4.344540E-10
        14  15 -4.936572E+06 -7.152446E+05 -1.183028E+04 -1.880030E+06 -2.652288E-09 -1.873000E-09
        14  16 -4.984836E+06 -7.419697E+05 -5.271174E+04 -1.886483E+06  3.487229E-10  7.359569E-11
        14  17 -5.062574E+06 -7.265795E+05 -4.814925E+04 -1.878412E+06  1.010145E-09 -3.887810E-10
        14  18 -5.097105E+06 -7.768727E+05 -5.548824E+04 -1.924638E+06  1.969253E-09 -1.800546E-09
        14  19 -4.891500E+06 -7.106687E+05 -2.770892E+04 -1.865357E+06  2.761832E+04  1.043870E+04
        14  20 -4.855359E+06 -6.493026E+05  8.004816E+03 -1.823236E+06  1.648536E+04  8.779516E+03
        14  21 -4.776013E+06 -6.536148E+05  3.182540E+04 -1.835412E+06  5.357877E+03  7.100249E+03
        14  22 -4.938168E+06 -7.263190E+05 -4.020930E+04 -1.875920E+06  2.830332E+04  1.069444E+04
        14  23 -4.958971E+06 -6.879412E+05 -2.007131E+04 -1.850826E+06  1.716487E+04  9.033264E+03
        14  24 -4.936572E+06 -7.152445E+05 -1.183011E+04 -1.880030E+06  6.032961E+03  7.352443E+03
        14  25 -4.984835E+06 -7.419693E+05 -5.270992E+04 -1.886482E+06  2.898825E+04  1.095017E+04
        14  26 -5.062573E+06 -7.265794E+05 -4.814848E+04 -1.878411E+06  1.784426E+04  9.286968E+03
        14  27 -5.097105E+06 -7.768727E+05 -5.548805E+04 -1.924638E+06  6.707853E+03  7.604561E+03
        15   1 -4.637593E+06 -6.018579E+05  7.238330E+04 -1.795726E+06 -3.116348E+03 -7.737686E+03
        15   2 -4.610330E+06 -5.613795E+05  8.879006E+04 -1.759355E+06  3.840293E+02 -8.735633E+03
        15   3 -4.542648E+06 -5.644084E+05  1.026123E+05 -1.769802E+06  3.734916E+03 -9.326713E+03
        15   4 -4.937854E+06 -7.148469E+05 -9.378032E+03 -1.876691E+06 -3.809862E+03 -7.997031E+03
        15   5 -4.957966E+06 -6.925139E+05 -5.683715E+03 -1.853490E+06 -1.838114E+02 -8.948406E+03
        15   6 -4.937687E+06 -7.137158E+05 -4.674912E+03 -1.877109E+06  3.292483E+03 -9.492884E+03
        15   7 -5.238027E+06 -8.278305E+05 -9.114724E+04 -1.957621E+06 -4.503002E+03 -8.256237E+03
        15   8 -5.305485E+06 -8.236413E+05 -1.001683E+05 -1.947578E+06 -7.512987E+02 -9.161048E+03
        15   9 -5.332575E+06 -8.630144E+05 -1.119763E+05 -1.984355E+06  2.850362E+03 -9.658938E+03
        15  10 -4.637594E+06 -6.018580E+05  7.238317E+04 -1.795726E+06 -2.471899E-10 -2.043659E-11
        15  11 -4.610330E+06 -5.613796E+05  8.878992E+04 -1.759355E+06  5.560799E-09  1.166835E-09
        15  12 -4.542648E+06 -5.644085E+05  1.026121E+05 -1.769802E+06  2.239511E-09  4.988624E-10
        15  13 -4.937854E+06 -7.148469E+05 -9.378180E+03 -1.876691E+06  1.594275E-09 -1.046287E-09
        15  14 -4.957966E+06 -6.925140E+05 -5.683865E+03 -1.853490E+06  3.715484E-09  8.481568E-10
        15  15 -4.937687E+06 -7.137159E+05 -4.675101E+03 -1.877109E+06 -1.147870E-09  1.528754E-09
        15  16 -5.238027E+06 -8.278305E+05 -9.114741E+04 -1.957621E+06  6.041617E-10 -2.967816E-09
        15  17 -5.305485E+06 -8.236414E+05 -1.001685E+05 -1.947578E+06 -1.160839E-09  1.660469E-09
        15  18 -5.332575E+06 -8.630145E+05 -1.119765E+05 -1.984355E+06 -3.124181E-09  1.120656E-09
        15  19 -4.637593E+06 -6.018579E+05  7.238330E+04 -1.795726E+06  3.116348E+03  7.737686E+03
        15  20 -4.610330E+06 -5.613795E+05  8.879006E+04 -1.759355E+06 -3.840293E+02  8.735633E+03
        15  21 -4.542648E+06 -5.644084E+05  1.026123E+05 -1.769802E+06 -3.734916E+03  9.326713E+03
        15  22 -4.937854E+06 -7.148469E+05 -9.378032E+03 -1.876691E+06  3.809862E+03  7.997031E+03
        15  23 -4.957966E+06 -6.925139E+05 -5.683715E+03 -1.853490E+06  1.838114E+02  8.948406E+03
        15  24 -4.937687E+06 -7.137158E+05 -4.674912E+03 -1.877109E+06 -3.292483E+03  9.492884E+03
        15  25 -5.238027E+06 -8.278305E+05 -9.114724E+04 -1.957621E+06  4.503002E+03  8.256237E+03
        15  26 -5.305485E+06 -8.236413E+05 -1.001683E+05 -1.947578E+06  7.512987E+02  9.161048E+03
        15  27 -5.332575E+06 -8.630144E+05 -1.119763E+05 -1.984355E+06 -2.850362E+03  9.658938E+03
        16   1 -4.447648E+06 -5.233933E+05  1.296784E+05 -1.738880E+06  4.923279E+03 -9.919324E+03
        16   2 -4.432345E+06 -5.003772E+05  1.355963E+05 -1.717490E+06  8.291591E+03 -1.021048E+04
        16   3 -4.393604E+06 -5.035013E+05  1.389295E+05 -1.722613E+06  1.142428E+04 -9.868144E+03
        16   4 -4.941475E+06 -7.097477E+05 -4.696057E+03 -1.872652E+06  4.398261E+03 -1.011677E+04
        16   5 -4.953284E+06 -6.974092E+05 -6.064215E+03 -1.859114E+06  7.962122E+03 -1.033499E+04
        16   6 -4.941696E+06 -7.112525E+05 -1.017473E+04 -1.872090E+06  1.129013E+04 -9.919499E+03
        16   7 -5.435067E+06 -8.960881E+05 -1.390923E+05 -2.006328E+06  3.873706E+03 -1.031405E+04
        16   8 -5.473961E+06 -8.944253E+05 -1.477493E+05 -2.000630E+06  7.632958E+03 -1.045938E+04
        16   9 -5.489498E+06 -9.189864E+05 -1.593064E+05 -2.021447E+06  1.115611E+04 -9.970806E+03
        16  10 -4.447648E+06 -5.233934E+05  1.296782E+05 -1.738880E+06  7.958335E-10  7.452655E-10
        16  11 -4.432345E+06 -5.003774E+05  1.355960E+05 -1.717489E+06 -1.487224E-09  1.846433E-09
        16  12 -4.393604E+06 -5.035015E+05  1.389291E+05 -1.722613E+06  3.559380E-10  1.043202E-09
        16  13 -4.941476E+06 -7.097479E+05 -4.696285E+03 -1.872652E+06  6.755991E-11  2.684677E-10
        16  14 -4.953284E+06 -6.974093E+05 -6.064535E+03 -1.859114E+06 -1.208368E-09  1.507777E-09
        16  15 -4.941696E+06 -7.112527E+05 -1.017515E+04 -1.872090E+06  4.447535E-10  6.357454E-10
        16  16 -5.435067E+06 -8.960882E+05 -1.390926E+05 -2.006328E+06  1.077566E-09  1.223478E-09
        16  17 -5.473961E+06 -8.944255E+05 -1.477496E+05 -2.000630E+06  4.014388E-10  2.301256E-09
        16  18 -5.489498E+06 -9.189865E+05 -1.593069E+05 -2.021447E+06 -1.585072E-09 -5.554175E-10
        16  19 -4.447648E+06 -5.233933E+05  1.296784E+05 -1.738880E+06 -4.923279E+03  9.919324E+03
        16  20 -4.432345E+06 -5.003772E+05  1.355963E+05 -1.717490E+06 -8.291591E+03  1.021048E+04
        16  21 -4.393604E+06 -5.035013E+05  1.389295E+05 -1.722613E+06 -1.142428E+04  9.868144E+03
        16  22 -4.941475E+06 -7.097477E+05 -4.696057E+03 -1.872652E+06 -4.398261E+03  1.011677E+04
        16  23 -4.953284E+06 -6.974092E+05 -6.064215E+03 -1.859114E+06 -7.962122E+03  1.033499E+04
        16  24 -4.941696E+06 -7.112525E+05 -1.017473E+04 -1.872090E+06 -1.129013E+04  9.919499E+03
        16  25 -5.435067E+06 -8.960881E+05 -1.390923E+05 -2.006328E+06 -3.873706E+03  1.031405E+04
        16  26 -5.473961E+06 -8.944253E+05 -1.477493E+05 -2.000630E+06 -7.632958E+03  1.045938E+04
        16  27 -5.489498E+06 -9.189864E+05 -1.593064E+05 -2.021447E+06 -1.115611E+04  9.970806E+03
        17   1 -4.359998E+06 -4.831668E+05  1.467746E+05 -1.708774E+06  1.355910E+04 -9.474265E+03
        17   2 -4.358075E+06 -4.781552E+05  1.379150E+05 -1.705696E+06  2.479587E+04 -5.709881E+03
        17   3 -4.361345E+06 -4.911371E+05  1.164753E+05 -1.699953E+06  3.573903E+04 -1.167394E+03
        17   4 -4.947352E+06 -7.044080E+05 -1.284621E+04 -1.867509E+06  1.330388E+04 -9.571323E+03
        17   5 -4.945626E+06 -7.014711E+05 -2.206820E+04 -1.866555E+06  2.477363E+04 -5.719314E+03
        17   6 -4.949148E+06 -7.165854E+05 -4.406530E+04 -1.862934E+06  3.594961E+04 -1.088944E+03
        17   7 -5.534372E+06 -9.256299E+05 -1.724981E+05 -2.026108E+06  1.304892E+04 -9.668283E+03
        17   8 -5.532843E+06 -9.247660E+05 -1.820825E+05 -2.027275E+06  2.475140E+04 -5.728743E+03
        17   9 -5.536615E+06 -9.420109E+05 -2.046370E+05 -2.025774E+06  3.615997E+04 -1.010585E+03
        17  10 -4.359998E+06 -4.831670E+05  1.467741E+05 -1.708774E+06  1.974527E-09  1.218902E-09
        17  11 -4.358076E+06 -4.781554E+05  1.379137E+05 -1.705696E+06 -2.138633E-09  2.254241E-10
        17  12 -4.361346E+06 -4.911375E+05  1.164728E+05 -1.699953E+06 -2.762805E-09  6.924623E-11
        17  13 -4.947352E+06 -7.044081E+05 -1.284671E+04 -1.867509E+06 -1.431531E-09  1.785774E-10
        17  14 -4.945627E+06 -7.014713E+05 -2.206942E+04 -1.866555E+06  6.748787E-10  4.016356E-10
        17  15 -4.949149E+06 -7.165858E+05 -4.406775E+04 -1.862934E+06  4.346716E-09  1.115095E-09
        17  16 -5.534372E+06 -9.256301E+05 -1.724986E+05 -2.026107E+06  4.808905E-09 -1.113982E-09
        17  17 -5.532844E+06 -9.247662E+05 -1.820837E+05 -2.027275E+06  2.081002E-10  8.974597E-10
        17  18 -5.536616E+06 -9.420112E+05 -2.046395E+05 -2.025774E+06  3.289137E-09  1.680866E-09
        17  19 -4.359998E+06 -4.831668E+05  1.467746E+05 -1.708774E+06 -1.355910E+04  9.474265E+03
        17  20 -4.358075E+06 -4.781552E+05  1.379150E+05 -1.705696E+06 -2.479587E+04  5.709881E+03
        17  21 -4.361345E+06 -4.911371E+05  1.164753E+05 -1.699953E+06 -3.573903E+04  1.167394E+03
        17  22 -4.947352E+06 -7.044080E+05 -1.284621E+04 -1.867509E+06 -1.330388E+04  9.571323E+03
        17  23 -4.945626E+06 -7.014711E+05 -2.206820E+04 -1.866555E+06 -2.477363E+04  5.719314E+03
        17  24 -4.949148E+06 -7.165854E+05 -4.406530E+04 -1.862934E+06 -3.594961E+04  1.088944E+03
        17  25 -5.534372E+06 -9.256299E+05 -1.724981E+05 -2.026108E+06 -1.304892E+04  9.668283E+03
        17  26 -5.532843E+06 -9.247660E+05 -1.820825E+05 -2.027275E+06 -2.475140E+04  5.728743E+03
        17  27 -5.536615E+06 -9.420109E+05 -2.046370E+05 -2.025774E+06 -3.615997E+04  1.010585E+03
        18   1 -4.392653E+06 -4.911641E+05  9.667088E+04 -1.719975E+06  4.401645E+04  2.198679E+03
        18   2 -4.396699E+06 -4.842908E+05  5.137482E+04 -1.725944E+06  9.308700E+04  2.148922E+04
        18   3 -4.475267E+06 -5.816264E+05 -6.503801E+04 -1.675578E+06  1.416890E+05  4.200218E+04
        18   4 -4.958952E+06 -6.971644E+05 -5.568882E+04 -1.865602E+06  4.399706E+04  2.191142E+03
        18   5 -4.928443E+06 -6.911293E+05 -9.434154E+04 -1.876337E+06  9.340842E+04  2.160938E+04
        18   6 -4.972567E+06 -7.894371E+05 -2.044279E+05 -1.830725E+06  1.423541E+05  4.224887E+04
        18   7 -5.524943E+06 -9.031526E+05 -2.080771E+05 -2.011111E+06  4.397768E+04  2.183606E+03
        18   8 -5.459914E+06 -8.979473E+05 -2.400840E+05 -2.026612E+06  9.372951E+04  2.172940E+04
        18   9 -5.469625E+06 -9.972183E+05 -3.438413E+05 -1.985754E+06  1.430184E+05  4.249526E+04
        18  10 -4.392655E+06 -4.911646E+05  9.666720E+04 -1.719975E+06 -9.365665E-10  1.221543E-09
        18  11 -4.396708E+06 -4.842937E+05  5.135753E+04 -1.725946E+06  4.098461E-09 -3.456942E-09
        18  12 -4.475289E+06 -5.816338E+05 -6.507939E+04 -1.675583E+06  1.400568E-09 -5.847058E-10
        18  13 -4.958954E+06 -6.971649E+05 -5.569250E+04 -1.865602E+06 -3.835381E-10  5.344012E-10
        18  14 -4.928453E+06 -6.911321E+05 -9.435897E+04 -1.876339E+06 -2.940152E-11 -2.370095E-09
        18  15 -4.972589E+06 -7.894445E+05 -2.044697E+05 -1.830730E+06 -4.198575E-10 -3.453718E-10
        18  16 -5.524945E+06 -9.031531E+05 -2.080808E+05 -2.011111E+06 -2.805702E-09  3.551560E-10
        18  17 -5.459923E+06 -8.979502E+05 -2.401016E+05 -2.026614E+06 -5.502615E-09 -3.287156E-09
        18  18 -5.469648E+06 -9.972258E+05 -3.438836E+05 -1.985759E+06 -1.047120E-09 -7.025831E-10
        18  19 -4.392653E+06 -4.911641E+05  9.667088E+04 -1.719975E+06 -4.401645E+04 -2.198679E+03
        18  20 -4.396699E+06 -4.842908E+05  5.137482E+04 -1.725944E+06 -9.308700E+04 -2.148922E+04
        18  21 -4.475267E+06 -5.816264E+05 -6.503801E+04 -1.675578E+06 -1.416890E+05 -4.200218E+04
        18  22 -4.958952E+06 -6.971644E+05 -5.568882E+04 -1.865602E+06 -4.399706E+04 -2.191142E+03
        18  23 -4.928443E+06 -6.911293E+05 -9.434154E+04 -1.876337E+06 -9.340842E+04 -2.160938E+04
        18  24 -4.972567E+06 -7.894371E+05 -2.044279E+05 -1.830725E+06 -1.423541E+05 -4.224887E+04
        18  25 -5.524943E+06 -9.031526E+05 -2.080771E+05 -2.011111E+06 -4.397768E+04 -2.183606E+03
        18  26 -5.459914E+06 -8.979473E+05 -2.400840E+05 -2.026612E+06 -9.372951E+04 -2.172940E+04
        18  27 -5.469625E+06 -9.972183E+05 -3.438413E+05 -1.985754E+06 -1.430184E+05 -4.249526E+04
        19   1 -4.539941E+06 -5.651264E+05 -1.352118E+05 -1.828741E+06  1.793545E+05  5.652337E+04
        19   2 -4.501079E+06 -4.018414E+05 -2.991148E+05 -1.768735E+06  3.976683E+05  1.411514E+05
        19   3 -4.888023E+06 -1.139136E+06 -8.852383E+05 -1.416383E+06  6.139940E+05  2.309753E+05
        19   4 -5.008135E+06 -6.757497E+05 -2.492734E+05 -1.888656E+06  1.789036E+05  5.637556E+04
        19   5 -4.846238E+06 -5.723354E+05 -4.007574E+05 -1.903068E+06  3.987075E+05  1.415154E+05
        19   6 -5.110681E+06 -1.370153E+06 -9.758223E+05 -1.625032E+06  6.165713E+05  2.317763E+05
        19   7 -5.476108E+06 -7.863793E+05 -3.633477E+05 -1.948546E+06  1.784530E+05  5.622777E+04
        19   8 -5.191277E+06 -7.427954E+05 -5.024117E+05 -2.037324E+06  3.997461E+05  1.418789E+05
        19   9 -5.333239E+06 -1.601011E+06 -1.066403E+06 -1.833582E+06  6.191475E+05  2.325753E+05
        19  10 -4.539977E+06 -5.651385E+05 -1.352788E+05 -1.828749E+06  1.883153E-09 -8.127017E-10
        19  11 -4.501255E+06 -4.019059E+05 -2.994522E+05 -1.768781E+06  4.279539E-09  9.840045E-10
        19  12 -4.888445E+06 -1.139296E+06 -8.860539E+05 -1.416498E+06  6.362958E-10  1.259068E-09
        19  13 -5.008170E+06 -6.757618E+05 -2.493401E+05 -1.888665E+06 -2.689208E-09  1.220221E-09
        19  14 -4.846415E+06 -5.724002E+05 -4.010969E+05 -1.903114E+06  6.033688E-10 -1.351612E-09
        19  15 -5.111107E+06 -1.370314E+06 -9.766452E+05 -1.625148E+06  3.836605E-10  1.733227E-09
        19  16 -5.476143E+06 -7.863914E+05 -3.634142E+05 -1.948554E+06 -2.057492E-09  2.492746E-09
        19  17 -5.191456E+06 -7.428606E+05 -5.027531E+05 -2.037370E+06  2.576526E-09  1.620898E-09
        19  18 -5.333669E+06 -1.601173E+06 -1.067233E+06 -1.833699E+06 -1.319227E-09  1.056674E-09
        19  19 -4.539941E+06 -5.651264E+05 -1.352118E+05 -1.828741E+06 -1.793545E+05 -5.652337E+04
        19  20 -4.501079E+06 -4.018414E+05 -2.991148E+05 -1.768735E+06 -3.976683E+05 -1.411514E+05
        19  21 -4.888023E+06 -1.139136E+06 -8.852383E+05 -1.416383E+06 -6.139940E+05 -2.309753E+05
        19  22 -5.008135E+06 -6.757497E+05 -2.492734E+05 -1.888656E+06 -1.789036E+05 -5.637556E+04
        19  23 -4.846238E+06 -5.723354E+05 -4.007574E+05 -1.903068E+06 -3.987075E+05 -1.415154E+05
        19  24 -5.110681E+06 -1.370153E+06 -9.758223E+05 -1.625032E+06 -6.165713E+05 -2.317763E+05
        19  25 -5.476108E+06 -7.863793E+05 -3.633477E+05 -1.948546E+06 -1.784530E+05 -5.622777E+04
        19  26 -5.191277E+06 -7.427954E+05 -5.024117E+05 -2.037324E+06 -3.997461E+05 -1.418789E+05
        19  27 -5.333239E+06 -1.601011E+06 -1.066403E+06 -1.833582E+06 -6.191475E+05 -2.325753E+05
        20   1 -2.043580E+06  2.523603E+04  3.247545E+04  5.607545E+03  2.214971E+04  2.006965E-01
        20   2 -2.048334E+06 -4.888089E+03  1.400995E+04  1.510458E+03  1.453850E+04  3.548369E-02
        20   3 -2.043607E+06 -1.090793E+03  8.992407E+03 -2.586539E+03  6.927377E+03 -2.895245E-02
        20   4 -2.043580E+06  2.523597E+04  3.247544E+04  7.096589E-09  2.214971E+04 -1.283746E-10
        20   5 -2.048334E+06 -4.888093E+03  1.400995E+04 -2.919284E-08  1.453850E+04  5.969963E-10
        20   6 -2.043607E+06 -1.090806E+03  8.992406E+03  4.320601E-08  6.927377E+03  1.418037E-09
        20   7 -2.043580E+06  2.523603E+04  3.247545E+04 -5.607545E+03  2.214971E+04 -2.006965E-01
        20   8 -2.048334E+06 -4.888089E+03  1.400995E+04 -1.510458E+03  1.453850E+04 -3.548369E-02
        20   9 -2.043607E+06 -1.090793E+03  8.992407E+03  2.586539E+03  6.927377E+03  2.895245E-02
        20  10 -2.043580E+06  2.523590E+04  3.247453E+04  5.607545E+03 -6.627172E-10 -3.782059E-10
        20  11 -2.048335E+06 -4.888146E+03  1.400955E+04  1.510458E+03 -2.507392E-09  5.986133E-10
        20  12 -2.043607E+06 -1.090806E+03  8.992317E+03 -2.586539E+03 -2.380684E-09 -1.212078E-10
        20  13 -2.043580E+06  2.523584E+04  3.247452E+04 -1.011987E-08  1.853265E-10  4.210602E-11
        20  14 -2.048335E+06 -4.888150E+03  1.400955E+04  5.245742E-09 -3.228297E-09  1.541702E-10
        20  15 -2.043607E+06 -1.090819E+03  8.992315E+03  1.630290E-08 -8.826336E-10  3.519249E-10
        20  16 -2.043580E+06  2.523590E+04  3.247453E+04 -5.607545E+03  2.494672E-09 -3.486629E-10
        20  17 -2.048335E+06 -4.888146E+03  1.400955E+04 -1.510458E+03  2.341241E-10  4.408514E-11
        20  18 -2.043607E+06 -1.090806E+03  8.992317E+03  2.586539E+03  1.458348E-09  6.569620E-10
        20  19 -2.043580E+06  2.523603E+04  3.247545E+04  5.607545E+03 -2.214971E+04 -2.006965E-01
        20  20 -2.048334E+06 -4.888089E+03  1.400995E+04  1.510458E+03 -1.453850E+04 -3.548369E-02
        20  21 -2.043607E+06 -1.090793E+03  8.992407E+03 -2.586539E+03 -6.927377E+03  2.895245E-02
        20  22 -2.043580E+06  2.523597E+04  3.247544E+04  2.431096E-08 -2.214971E+04  5.880396E-11
        20  23 -2.048334E+06 -4.888093E+03  1.400995E+04  2.677143E-08 -1.453850E+04 -5.992320E-11
        20  24 -2.043607E+06 -1.090806E+03  8.992406E+03  4.429363E-08 -6.927377E+03 -8.260892E-10
        20  25 -2.043580E+06  2.523603E+04  3.247545E+04 -5.607545E+03 -2.214971E+04  2.006965E-01
        20  26 -2.048334E+06 -4.888089E+03  1.400995E+04 -1.510458E+03 -1.453850E+04  3.548369E-02
        20  27 -2.043607E+06 -1.090793E+03  8.992407E+03  2.586539E+03 -6.927377E+03 -2.895245E-02
        21   1 -2.045407E+06  3.283393E+03  7.395147E+03  6.817301E+02  5.483329E+03  6.040259E-03
        21   2 -2.046086E+06 -6.416343E+02  3.628943E+03  1.664283E+02  3.601412E+03  9.684980E-04
        21   3 -2.045412E+06 -1.392521E+02  2.197879E+03 -3.488811E+02  1.719470E+03 -9.693269E-04
        21   4 -2.045407E+06  3.283392E+03  7.395147E+03  8.225441E-09  5.483329E+03  8.864467E-10
        21   5 -2.046086E+06 -6.416344E+02  3.628943E+03 -7.855678E-09  3.601412E+03 -1.107280E-09
        21   6 -2.045412E+06 -1.392523E+02  2.197879E+03 -5.644405E-09  1.719470E+03  1.230032E-10
        21   7 -2.045407E+06  3.283393E+03  7.395147E+03 -6.817301E+02  5.483329E+03 -6.040258E-03
        21   8 -2.046086E+06 -6.416343E+02  3.628943E+03 -1.664283E+02  3.601412E+03 -9.685009E-04
        21   9 -2.045412E+06 -1.392521E+02  2.197879E+03  3.488811E+02  1.719470E+03  9.693278E-04
        21  10 -2.045407E+06  3.283385E+03  7.395090E+03  6.817301E+02  7.128448E-10 -3.191360E-10
        21  11 -2.046086E+06 -6.416378E+02  3.628918E+03  1.664283E+02 -6.280010E-10 -3.061415E-10
        21  12 -2.045412E+06 -1.392529E+02  2.197874E+03 -3.488811E+02  3.329852E-09 -1.322343E-10
        21  13 -2.045407E+06  3.283384E+03  7.395090E+03 -4.304988E-10  4.708139E-10  1.650553E-10
        21  14 -2.046086E+06 -6.416379E+02  3.628918E+03 -3.554490E-09  3.360574E-10 -2.221636E-10
        21  15 -2.045412E+06 -1.392531E+02  2.197874E+03 -2.390950E-09  2.467450E-09 -2.037995E-10
        21  16 -2.045407E+06  3.283385E+03  7.395090E+03 -6.817301E+02  2.120458E-10  4.481562E-10
        21  17 -2.046086E+06 -6.416378E+02  3.628918E+03 -1.664283E+02 -1.217393E-09 -5.388258E-10
        21  18 -2.045412E+06 -1.392529E+02  2.197874E+03  3.488811E+02  1.989605E-10 -1.922203E-10
        21  19 -2.045407E+06  3.283393E+03  7.395147E+03  6.817301E+02 -5.483329E+03 -6.040259E-03
        21  20 -2.046086E+06 -6.416343E+02  3.628943E+03  1.664283E+02 -3.601412E+03 -9.684978E-04
        21  21 -2.045412E+06 -1.392521E+02  2.197879E+03 -3.488811E+02 -1.719470E+03  9.693279E-04
        21  22 -2.045407E+06  3.283392E+03  7.395147E+03 -4.619962E-10 -5.483329E+03 -5.685226E-10
        21  23 -2.046086E+06 -6.416344E+02  3.628943E+03 -7.866176E-09 -3.601412E+03  5.142572E-10
        21  24 -2.045412E+06 -1.392523E+02  2.197879E+03 -1.527352E-08 -1.719470E+03 -4.794802E-10
        21  25 -2.045407E+06  3.283393E+03  7.395147E+03 -6.817301E+02 -5.483329E+03  6.040258E-03
        21  26 -2.046086E+06 -6.416343E+02  3.628943E+03 -1.664283E+02 -3.601412E+03  9.684982E-04
        21  27 -2.045412E+06 -1.392521E+02  2.197879E+03  3.488811E+02 -1.719470E+03 -9.693285E-04
        22   1 -2.045667E+06  4.235263E+02  1.734096E+03  7.567552E+01  1.368765E+03  1.673726E-04
        22   2 -2.045769E+06 -8.385685E+01  8.971857E+02  1.363972E+01  9.142219E+02  2.014977E-05
        22   3 -2.045668E+06 -1.856112E+01  5.001074E+02 -4.839609E+01  4.596791E+02 -3.594439E-05
        22   4 -2.045667E+06  4.235263E+02  1.734096E+03  6.570739E-08  1.368765E+03  5.838611E-10
        22   5 -2.045769E+06 -8.385685E+01  8.971857E+02  4.428727E-08  9.142219E+02  2.917718E-10
        22   6 -2.045668E+06 -1.856112E+01  5.001074E+02  2.932368E-08  4.596791E+02  1.843059E-09
        22   7 -2.045667E+06  4.235263E+02  1.734096E+03 -7.567552E+01  1.368765E+03 -1.673713E-04
        22   8 -2.045769E+06 -8.385685E+01  8.971857E+02 -1.363972E+01  9.142219E+02 -2.015011E-05
        22   9 -2.045668E+06 -1.856112E+01  5.001074E+02  4.839609E+01  4.596791E+02  3.594838E-05
        22  10 -2.045667E+06  4.235258E+02  1.734092E+03  7.567552E+01  8.188188E-10  1.151628E-10
        22  11 -2.045769E+06 -8.385708E+01  8.971842E+02  1.363972E+01  2.054575E-09  8.555212E-10
        22  12 -2.045668E+06 -1.856117E+01  5.001070E+02 -4.839609E+01  2.064077E-09  2.889873E-10
        22  13 -2.045667E+06  4.235258E+02  1.734092E+03  3.129364E-08  2.185775E-09  5.170741E-11
        22  14 -2.045769E+06 -8.385708E+01  8.971842E+02  2.277396E-08 -1.597355E-09  3.839311E-10
        22  15 -2.045668E+06 -1.856118E+01  5.001070E+02 -8.004240E-10  3.782661E-10  6.395641E-10
        22  16 -2.045667E+06  4.235258E+02  1.734092E+03 -7.567552E+01  4.592426E-10  5.773526E-11
        22  17 -2.045769E+06 -8.385708E+01  8.971842E+02 -1.363972E+01 -9.784880E-10  1.725013E-10
        22  18 -2.045668E+06 -1.856117E+01  5.001070E+02  4.839609E+01 -2.894177E-09  9.550895E-10
        22  19 -2.045667E+06  4.235263E+02  1.734096E+03  7.567552E+01 -1.368765E+03 -1.673723E-04
        22  20 -2.045769E+06 -8.385685E+01  8.971857E+02  1.363972E+01 -9.142219E+02 -2.014806E-05
        22  21 -2.045668E+06 -1.856112E+01  5.001074E+02 -4.839609E+01 -4.596791E+02  3.594613E-05
        22  22 -2.045667E+06  4.235263E+02  1.734096E+03  5.712495E-08 -1.368765E+03 -3.918561E-10
        22  23 -2.045769E+06 -8.385685E+01  8.971857E+02  9.871432E-09 -9.142219E+02  3.302962E-10
        22  24 -2.045668E+06 -1.856112E+01  5.001074E+02 -2.962045E-09 -4.596791E+02 -4.436739E-10
        22  25 -2.045667E+06  4.235263E+02  1.734096E+03 -7.567552E+01 -1.368765E+03  1.673713E-04
        22  26 -2.045769E+06 -8.385685E+01  8.971857E+02 -1.363972E+01 -9.142219E+02  2.014865E-05
        22  27 -2.045668E+06 -1.856112E+01  5.001074E+02  4.839609E+01 -4.596791E+02 -3.594734E-05
        23   1 -2.045708E+06  5.405647E+01  3.634834E+02  4.781797E+00  3.821778E+02  2.954896E-06
        23   2 -2.045719E+06 -8.489089E+00  1.296581E+02 -1.010857E+00  3.170100E+02 -5.178560E-07
        23   3 -2.045708E+06 -1.360644E+01 -4.728007E+01 -6.803426E+00  2.518432E+02 -2.767982E-06
        23   4 -2.045708E+06  5.405647E+01  3.634834E+02  2.440646E-08  3.821778E+02  1.487461E-09
        23   5 -2.045719E+06 -8.489089E+00  1.296581E+02  1.405518E-08  3.170100E+02 -4.513848E-10
        23   6 -2.045708E+06 -1.360644E+01 -4.728007E+01  2.200471E-08  2.518432E+02 -1.193635E-11
        23   7 -2.045708E+06  5.405647E+01  3.634834E+02 -4.781797E+00  3.821778E+02 -2.951461E-06
        23   8 -2.045719E+06 -8.489089E+00  1.296581E+02  1.010857E+00  3.170100E+02  5.159589E-07
        23   9 -2.045708E+06 -1.360644E+01 -4.728007E+01  6.803426E+00  2.518432E+02  2.768797E-06
        23  10 -2.045708E+06  5.405643E+01  3.634831E+02  4.781797E+00  1.681009E-09  4.098123E-10
        23  11 -2.045719E+06 -8.489117E+00  1.296579E+02 -1.010857E+00 -4.211883E-09 -2.130926E-10
        23  12 -2.045708E+06 -1.360646E+01 -4.728019E+01 -6.803426E+00  1.906644E-09 -5.753732E-10
        23  13 -2.045708E+06  5.405643E+01  3.634831E+02 -1.457398E-09  1.748725E-09  2.837553E-10
        23  14 -2.045719E+06 -8.489116E+00  1.296579E+02  2.697346E-08  2.555617E-09 -5.286105E-10
        23  15 -2.045708E+06 -1.360646E+01 -4.728019E+01  5.912766E-09 -8.449553E-10  3.203139E-10
        23  16 -2.045708E+06  5.405643E+01  3.634831E+02 -4.781797E+00 -1.882805E-09  8.303983E-10
        23  17 -2.045719E+06 -8.489116E+00  1.296579E+02  1.010857E+00  8.154265E-10 -7.091442E-10
        23  18 -2.045708E+06 -1.360646E+01 -4.728019E+01  6.803426E+00  6.263176E-11  7.706467E-10
        23  19 -2.045708E+06  5.405647E+01  3.634834E+02  4.781797E+00 -3.821778E+02 -2.953254E-06
        23  20 -2.045719E+06 -8.489089E+00  1.296581E+02 -1.010857E+00 -3.170100E+02  5.175357E-07
        23  21 -2.045708E+06 -1.360644E+01 -4.728007E+01 -6.803426E+00 -2.518432E+02  2.768486E-06
        23  22 -2.045708E+06  5.405647E+01  3.634834E+02  7.107190E-09 -3.821778E+02 -9.504545E-10
        23  23 -2.045719E+06 -8.489089E+00  1.296581E+02  1.836477E-08 -3.170100E+02 -4.664178E-10
        23  24 -2.045708E+06 -1.360644E+01 -4.728007E+01  5.939016E-09 -2.518432E+02  5.280670E-10
        23  25 -2.045708E+06  5.405647E+01  3.634834E+02 -4.781797E+00 -3.821778E+02  2.952246E-06
        23  26 -2.045719E+06 -8.489089E+00  1.296581E+02  1.010857E+00 -3.170100E+02 -5.188268E-07
        23  27 -2.045708E+06 -1.360644E+01 -4.728007E+01  6.803426E+00 -2.518432E+02 -2.767724E-06
        24   1 -2.045725E+06  1.012162E+01 -1.343471E+02 -1.206803E+01  2.682140E+02 -5.228985E-06
        24   2 -2.045698E+06  1.801333E+01 -3.504582E+02 -7.227420E-01  4.436492E+02 -5.161653E-07
        24   3 -2.045725E+06 -9.489293E+01 -7.112654E+02  1.062272E+01  6.190869E+02  1.062459E-05
        24   4 -2.045725E+06  1.012162E+01 -1.343471E+02  1.052183E-08  2.682140E+02  1.189889E-09
        24   5 -2.045698E+06  1.801333E+01 -3.504582E+02 -4.916496E-10  4.436492E+02  1.030857E-09
        24   6 -2.045725E+06 -9.489293E+01 -7.112654E+02  1.420498E-09  6.190869E+02 -2.845310E-09
        24   7 -2.045725E+06  1.012162E+01 -1.343471E+02  1.206803E+01  2.682140E+02  5.231290E-06
        24   8 -2.045698E+06  1.801333E+01 -3.504582E+02  7.227420E-01  4.436492E+02  5.178557E-07
        24   9 -2.045725E+06 -9.489293E+01 -7.112654E+02 -1.062272E+01  6.190869E+02 -1.062918E-05
        24  10 -2.045725E+06  1.012161E+01 -1.343473E+02 -1.206803E+01  1.294193E-09  4.471292E-10
        24  11 -2.045698E+06  1.801328E+01 -3.504586E+02 -7.227419E-01 -2.220211E-09  3.303311E-10
        24  12 -2.045725E+06 -9.489303E+01 -7.112662E+02  1.062272E+01 -4.168418E-10 -8.162003E-10
        24  13 -2.045725E+06  1.012161E+01 -1.343473E+02 -1.532208E-08 -2.185772E-09  7.283913E-10
        24  14 -2.045698E+06  1.801328E+01 -3.504586E+02  1.669528E-08 -5.211364E-10  2.570899E-10
        24  15 -2.045725E+06 -9.489303E+01 -7.112662E+02  1.858223E-08  5.337631E-10 -9.209862E-10
        24  16 -2.045725E+06  1.012161E+01 -1.343473E+02  1.206803E+01 -1.571614E-09  1.141062E-09
        24  17 -2.045698E+06  1.801328E+01 -3.504586E+02  7.227419E-01 -1.001791E-10  5.572064E-11
        24  18 -2.045725E+06 -9.489303E+01 -7.112662E+02 -1.062272E+01  1.501380E-09 -1.024937E-09
        24  19 -2.045725E+06  1.012162E+01 -1.343471E+02 -1.206803E+01 -2.682140E+02  5.229770E-06
        24  20 -2.045698E+06  1.801333E+01 -3.504582E+02 -7.227418E-01 -4.436492E+02  5.178049E-07
        24  21 -2.045725E+06 -9.489293E+01 -7.112654E+02  1.062272E+01 -6.190869E+02 -1.062558E-05
        24  22 -2.045725E+06  1.012162E+01 -1.343471E+02  1.888996E-09 -2.682140E+02  2.354238E-10
        24  23 -2.045698E+06  1.801333E+01 -3.504582E+02  2.528297E-08 -4.436492E+02 -6.913009E-10
        24  24 -2.045725E+06 -9.489293E+01 -7.112654E+02  4.974463E-08 -6.190869E+02  1.039741E-09
        24  25 -2.045725E+06  1.012163E+01 -1.343471E+02  1.206803E+01 -2.682140E+02 -5.229887E-06
        24  26 -2.045698E+06  1.801333E+01 -3.504582E+02  7.227419E-01 -4.436492E+02 -5.188328E-07
        24  27 -2.045725E+06 -9.489293E+01 -7.112654E+02 -1.062272E+01 -6.190869E+02  1.062713E-05
        25   1 -2.045793E+06  3.115652E+01 -9.353805E+02 -8.490854E+01  7.669310E+02 -1.052250E-04
        25   2 -2.045614E+06  1.482603E+02 -1.612258E+03  2.444452E+01  1.583408E+03  6.254373E-05
        25   3 -2.045795E+06 -7.467720E+02 -3.075045E+03  1.337976E+02  2.399885E+03  5.188458E-04
        25   4 -2.045793E+06  3.115651E+01 -9.353805E+02  1.482228E-08  7.669310E+02 -2.741543E-09
        25   5 -2.045614E+06  1.482603E+02 -1.612258E+03  1.451099E-08  1.583408E+03  1.109478E-09
        25   6 -2.045795E+06 -7.467721E+02 -3.075045E+03  1.267751E-09  2.399885E+03  1.333276E-09
        25   7 -2.045793E+06  3.115652E+01 -9.353805E+02  8.490854E+01  7.669310E+02  1.052194E-04
        25   8 -2.045614E+06  1.482603E+02 -1.612258E+03 -2.444452E+01  1.583408E+03 -6.254208E-05
        25   9 -2.045795E+06 -7.467720E+02 -3.075045E+03 -1.337976E+02  2.399885E+03 -5.188435E-04
        25  10 -2.045793E+06  3.115636E+01 -9.353816E+02 -8.490854E+01 -4.138420E-09 -1.382479E-09
        25  11 -2.045614E+06  1.482596E+02 -1.612263E+03  2.444452E+01  1.888930E-09  2.036321E-10
        25  12 -2.045795E+06 -7.467736E+02 -3.075056E+03  1.337976E+02  1.501988E-09 -3.881652E-10
        25  13 -2.045793E+06  3.115635E+01 -9.353816E+02  1.486009E-08 -1.816002E-09 -8.048772E-10
        25  14 -2.045614E+06  1.482596E+02 -1.612263E+03  3.174098E-08  1.782402E-09  1.468625E-10
        25  15 -2.045795E+06 -7.467736E+02 -3.075056E+03 -1.163899E-08 -1.845177E-09  1.888513E-10
        25  16 -2.045793E+06  3.115636E+01 -9.353816E+02  8.490854E+01  3.533178E-09 -6.950592E-10
        25  17 -2.045614E+06  1.482596E+02 -1.612263E+03 -2.444452E+01  2.078859E-09 -4.444981E-10
        25  18 -2.045795E+06 -7.467736E+02 -3.075056E+03 -1.337976E+02 -3.134950E-09  4.633177E-10
        25  19 -2.045793E+06  3.115652E+01 -9.353805E+02 -8.490854E+01 -7.669310E+02  1.052234E-04
        25  20 -2.045614E+06  1.482603E+02 -1.612258E+03  2.444452E+01 -1.583408E+03 -6.254183E-05
        25  21 -2.045795E+06 -7.467720E+02 -3.075045E+03  1.337976E+02 -2.399885E+03 -5.188455E-04
        25  22 -2.045793E+06  3.115651E+01 -9.353805E+02  3.210267E-08 -7.669310E+02  1.035384E-09
        25  23 -2.045614E+06  1.482603E+02 -1.612258E+03  1.453934E-08 -1.583408E+03 -6.663330E-10
        25  24 -2.045795E+06 -7.467721E+02 -3.075045E+03  1.937630E-10 -2.399885E+03 -8.659105E-10
        25  25 -2.045793E+06  3.115652E+01 -9.353805E+02  8.490854E+01 -7.669310E+02 -1.052209E-04
        25  26 -2.045614E+06  1.482603E+02 -1.612258E+03 -2.444452E+01 -1.583408E+03  6.254131E-05
        25  27 -2.045795E+06 -7.467720E+02 -3.075045E+03 -1.337976E+02 -2.399885E+03  5.188434E-04
        26   1 -2.046244E+06  2.453997E+02 -3.888586E+03 -6.150098E+02  3.021024E+03 -3.002169E-03
        26   2 -2.045055E+06  1.131439E+03 -6.406085E+03  2.935780E+02  6.343079E+03  3.008998E-03
        26   3 -2.046252E+06 -5.789534E+03 -1.304345E+04  1.202153E+03  9.665078E+03  1.877428E-02
        26   4 -2.046244E+06  2.453989E+02 -3.888586E+03  2.833085E-08  3.021024E+03  7.919840E-10
        26   5 -2.045055E+06  1.131439E+03 -6.406085E+03  7.125719E-09  6.343079E+03  5.806343E-10
        26   6 -2.046252E+06 -5.789536E+03 -1.304345E+04  1.174030E-08  9.665078E+03 -6.110328E-10
        26   7 -2.046244E+06  2.453997E+02 -3.888586E+03  6.150098E+02  3.021024E+03  3.002170E-03
        26   8 -2.045055E+06  1.131439E+03 -6.406085E+03 -2.935780E+02  6.343079E+03 -3.008998E-03
        26   9 -2.046252E+06 -5.789534E+03 -1.304345E+04 -1.202153E+03  9.665078E+03 -1.877429E-02
        26  10 -2.046244E+06  2.453972E+02 -3.888603E+03 -6.150098E+02  2.747371E-09 -2.612930E-10
        26  11 -2.045055E+06  1.131428E+03 -6.406160E+03  2.935780E+02  8.396099E-10  7.050568E-10
        26  12 -2.046252E+06 -5.789559E+03 -1.304362E+04  1.202153E+03 -2.616249E-09 -1.013049E-10
        26  13 -2.046244E+06  2.453965E+02 -3.888603E+03  1.974210E-08  1.476167E-27  9.277866E-11
        26  14 -2.045055E+06  1.131428E+03 -6.406160E+03  2.864647E-08  7.195535E-09  1.506520E-10
        26  15 -2.046252E+06 -5.789561E+03 -1.304362E+04 -1.171680E-09  5.482968E-11 -2.326103E-10
        26  16 -2.046244E+06  2.453972E+02 -3.888603E+03  6.150098E+02  3.884761E-10  4.496135E-10
        26  17 -2.045055E+06  1.131428E+03 -6.406160E+03 -2.935780E+02  2.549019E-09  2.710189E-10
        26  18 -2.046252E+06 -5.789559E+03 -1.304362E+04 -1.202153E+03  4.806322E-09 -2.660478E-10
        26  19 -2.046244E+06  2.453997E+02 -3.888586E+03 -6.150098E+02 -3.021024E+03  3.002169E-03
        26  20 -2.045055E+06  1.131439E+03 -6.406085E+03  2.935780E+02 -6.343079E+03 -3.008996E-03
        26  21 -2.046252E+06 -5.789534E+03 -1.304345E+04  1.202153E+03 -9.665078E+03 -1.877428E-02
        26  22 -2.046244E+06  2.453989E+02 -3.888586E+03  3.695635E-08 -3.021024E+03 -4.663369E-10
        26  23 -2.045055E+06  1.131439E+03 -6.406085E+03  5.877174E-08 -6.343079E+03 -7.023802E-11
        26  24 -2.046252E+06 -5.789536E+03 -1.304345E+04  4.722491E-08 -9.665078E+03  3.574744E-10
        26  25 -2.046244E+06  2.453997E+02 -3.888586E+03  6.150098E+02 -3.021024E+03 -3.002170E-03
        26  26 -2.045055E+06  1.131439E+03 -6.406085E+03 -2.935780E+02 -6.343079E+03  3.008996E-03
        26  27 -2.046252E+06 -5.789534E+03 -1.304345E+04 -1.202153E+03 -9.665078E+03  1.877428E-02
        27   1 -2.049426E+06  1.923488E+03 -1.585844E+04 -4.560750E+03  1.221174E+04 -8.999424E-02
        27   2 -2.041090E+06  8.619168E+03 -2.470238E+04  2.663500E+03  2.563320E+04  1.103191E-01
        27   3 -2.049473E+06 -4.449773E+04 -5.725824E+04  9.887768E+03  3.905490E+04  6.239820E-01
        27   4 -2.049426E+06  1.923449E+03 -1.585845E+04  2.063104E-08  1.221174E+04 -3.945900E-10
        27   5 -2.041090E+06  8.619155E+03 -2.470238E+04  4.909253E-09  2.563320E+04  9.185789E-10
        27   6 -2.049473E+06 -4.449792E+04 -5.725827E+04  1.071311E-08  3.905490E+04  3.891886E-10
        27   7 -2.049426E+06  1.923488E+03 -1.585844E+04  4.560750E+03  1.221174E+04  8.999424E-02
        27   8 -2.041090E+06  8.619168E+03 -2.470238E+04 -2.663500E+03  2.563320E+04 -1.103191E-01
        27   9 -2.049473E+06 -4.449773E+04 -5.725824E+04 -9.887768E+03  3.905490E+04 -6.239820E-01
        27  10 -2.049426E+06  1.923448E+03 -1.585872E+04 -4.560750E+03 -2.443943E-09 -2.746761E-11
        27  11 -2.041091E+06  8.618991E+03 -2.470362E+04  2.663500E+03 -4.026232E-10  7.534296E-10
        27  12 -2.049475E+06 -4.449814E+04 -5.726112E+04  9.887768E+03  1.158724E-09 -3.034943E-11
        27  13 -2.049426E+06  1.923409E+03 -1.585873E+04  2.064260E-08  1.482516E-09 -1.666436E-10
        27  14 -2.041091E+06  8.618978E+03 -2.470362E+04  1.782881E-08 -2.181297E-09  2.399864E-10
        27  15 -2.049475E+06 -4.449833E+04 -5.726114E+04  1.501213E-08 -4.178514E-09  1.266522E-10
        27  16 -2.049426E+06  1.923448E+03 -1.585872E+04  4.560750E+03  1.487689E-09 -3.732044E-10
        27  17 -2.041091E+06  8.618991E+03 -2.470362E+04 -2.663500E+03  3.000679E-09  8.224134E-11
        27  18 -2.049475E+06 -4.449814E+04 -5.726112E+04 -9.887768E+03  1.138890E-09 -4.252155E-10
        27  19 -2.049426E+06  1.923488E+03 -1.585844E+04 -4.560750E+03 -1.221174E+04  8.999424E-02
        27  20 -2.041090E+06  8.619168E+03 -2.470238E+04  2.663500E+03 -2.563320E+04 -1.103191E-01
        27  21 -2.049473E+06 -4.449773E+04 -5.725824E+04  9.887768E+03 -3.905490E+04 -6.239820E-01
        27  22 -2.049426E+06  1.923449E+03 -1.585845E+04  4.647828E-08 -1.221174E+04 -6.592107E-11
        27  23 -2.041090E+06  8.619155E+03 -2.470238E+04  3.935304E-08 -2.563320E+04 -4.802091E-10
        27  24 -2.049473E+06 -4.449792E+04 -5.725827E+04  2.037884E-08 -3.905490E+04 -1.809842E-10
        27  25 -2.049426E+06  1.923488E+03 -1.585844E+04  4.560750E+03 -1.221174E+04 -8.999424E-02
        27  26 -2.041090E+06  8.619168E+03 -2.470238E+04 -2.663500E+03 -2.563320E+04  1.103191E-01
        27  27 -2.049473E+06 -4.449773E+04 -5.725824E+04 -9.887768E+03 -3.905490E+04  6.239820E-01
        28   1  5.093422E+05  9.535605E+05  6.524408E+05 -3.979297E+04  8.155644E+02  4.240819E+05
        28   2 -4.492804E+04  9.860798E+05  3.304463E+05 -2.940348E+04  4.237776E+03  2.722913E+05
        28   3  6.532124E+04  1.204654E+06  2.734389E+05  1.211420E+05  8.518133E+03  1.204638E+05
        28   4  4.897190E+05  8.748199E+05  6.329642E+05  7.001111E+04  8.903760E+02  4.230343E+05
        28   5 -9.576068E+04  7.818517E+05  2.803810E+05 -6.894440E+01  4.250894E+03  2.709531E+05
        28   6 -1.659749E+04  8.749691E+05  1.929980E+05  7.000362E+04  8.508940E+03  1.188652E+05
        28   7  4.701406E+05  7.961107E+05  6.134936E+05  1.798013E+05  9.648257E+02  4.219867E+05
        28   8 -1.465932E+05  5.776635E+05  2.303131E+05  2.925594E+04  4.263890E+03  2.696154E+05
        28   9 -9.851442E+04  5.453884E+05  1.125507E+05  1.889245E+04  8.500006E+03  1.172675E+05
        28  10  5.092940E+05  9.533677E+05  6.521034E+05 -3.979325E+04 -2.544583E-09 -4.368628E-10
        28  11 -4.494791E+04  9.860003E+05  3.303072E+05 -2.940441E+04  6.977967E-09  9.881267E-10
        28  12  6.531728E+04  1.204639E+06  2.734115E+05  1.211411E+05 -1.284345E-09  1.769530E-09
        28  13  4.896710E+05  8.746280E+05  6.326284E+05  7.001081E+04 -6.146992E-10 -2.000549E-11
        28  14 -9.578037E+04  7.817730E+05  2.802432E+05 -6.987151E+01  2.828546E-09  4.681085E-11
        28  15 -1.660136E+04  8.749539E+05  1.929714E+05  7.000281E+04 -5.076804E-10  1.397336E-10
        28  16  4.700929E+05  7.959198E+05  6.131594E+05  1.798010E+05  3.632667E-09  4.182734E-10
        28  17 -1.466127E+05  5.775855E+05  2.301766E+05  2.925502E+04  1.632959E-09 -9.802370E-10
        28  18 -9.851818E+04  5.453736E+05  1.125247E+05  1.889165E+04 -1.043903E-09 -1.885822E-09
        28  19  5.093422E+05  9.535605E+05  6.524408E+05 -3.979297E+04 -8.155644E+02 -4.240819E+05
        28  20 -4.492804E+04  9.860798E+05  3.304463E+05 -2.940348E+04 -4.237776E+03 -2.722913E+05
        28  21  6.532124E+04  1.204654E+06  2.734389E+05  1.211420E+05 -8.518133E+03 -1.204638E+05
        28  22  4.897190E+05  8.748199E+05  6.329642E+05  7.001111E+04 -8.903760E+02 -4.230343E+05
        28  23 -9.576068E+04  7.818517E+05  2.803810E+05 -6.894440E+01 -4.250894E+03 -2.709531E+05
        28  24 -1.659749E+04  8.749691E+05  1.929980E+05  7.000362E+04 -8.508940E+03 -1.188652E+05
        28  25  4.701406E+05  7.961107E+05  6.134936E+05  1.798013E+05 -9.648257E+02 -4.219867E+05
        28  26 -1.465932E+05  5.776635E+05  2.303131E+05  2.925594E+04 -4.263890E+03 -2.696154E+05
        28  27 -9.851442E+04  5.453884E+05  1.125507E+05  1.889245E+04 -8.500006E+03 -1.172675E+05
        29   1  2.165702E+05  1.463696E+06  3.198386E+05  5.334458E+04  1.171828E+04  8.900208E+04
        29   2  1.665171E+05  1.570601E+06  2.937981E+05 -3.078735E+03  1.629716E+04  3.074258E+04
        29   3  2.520888E+05  1.720852E+06  3.399168E+05  8.406976E+04  1.826136E+04 -2.752370E+04
        29   4  6.211448E+04  8.430822E+05  1.674667E+05  7.078826E+04  1.172254E+04  8.696744E+04
        29   5 -1.979963E+04  8.214834E+05  1.103546E+05 -9.922254E+02  1.629986E+04  2.964027E+04
        29   6  3.383519E+04  8.430950E+05  1.248070E+05  7.080676E+04  1.826394E+04 -2.768178E+04
        29   7 -9.236866E+04  2.228192E+05  1.506662E+04  8.821453E+04  1.172669E+04  8.493480E+04
        29   8 -2.061578E+05  7.287567E+04 -7.313004E+04  1.091925E+03  1.630256E+04  2.853926E+04
        29   9 -1.844747E+05 -3.396152E+04 -9.035901E+04  5.756278E+04  1.826653E+04 -2.783962E+04
        29  10  2.165679E+05  1.463687E+06  3.198235E+05  5.334374E+04 -1.851192E-09  2.328773E-10
        29  11  1.665165E+05  1.570600E+06  2.937958E+05 -3.079138E+03 -5.522207E-09 -1.018563E-09
        29  12  2.520882E+05  1.720851E+06  3.399147E+05  8.407017E+04 -1.714486E-09 -4.482691E-10
        29  13  6.211231E+04  8.430740E+05  1.674522E+05  7.078743E+04 -7.211073E-10  5.123832E-10
        29  14 -1.980016E+04  8.214824E+05  1.103524E+05 -9.926143E+02  3.666366E-09  3.437940E-10
        29  15  3.383462E+04  8.430941E+05  1.248050E+05  7.080716E+04  2.134811E-09  6.120592E-10
        29  16 -9.237074E+04  2.228115E+05  1.505282E+04  8.821373E+04 -7.677956E-10 -3.265861E-10
        29  17 -2.061583E+05  7.287472E+04 -7.313207E+04  1.091551E+03 -1.814664E-10  1.276218E-09
        29  18 -1.844753E+05 -3.396245E+04 -9.036109E+04  5.756319E+04 -3.362390E-09  1.498119E-10
        29  19  2.165702E+05  1.463696E+06  3.198386E+05  5.334458E+04 -1.171828E+04 -8.900208E+04
        29  20  1.665171E+05  1.570601E+06  2.937981E+05 -3.078735E+03 -1.629716E+04 -3.074258E+04
        29  21  2.520888E+05  1.720852E+06  3.399168E+05  8.406976E+04 -1.826136E+04  2.752370E+04
        29  22  6.211448E+04  8.430822E+05  1.674667E+05  7.078826E+04 -1.172254E+04 -8.696744E+04
        29  23 -1.979963E+04  8.214834E+05  1.103546E+05 -9.922254E+02 -1.629986E+04 -2.964027E+04
        29  24  3.383519E+04  8.430950E+05  1.248070E+05  7.080676E+04 -1.826394E+04  2.768178E+04
        29  25 -9.236866E+04  2.228192E+05  1.506662E+04  8.821453E+04 -1.172669E+04 -8.493480E+04
        29  26 -2.061578E+05  7.287567E+04 -7.313004E+04  1.091925E+03 -1.630256E+04 -2.853926E+04
        29  27 -1.844747E+05 -3.396152E+04 -9.035901E+04  5.756278E+04 -1.826653E+04  2.783962E+04
        30   1  2.888987E+05  2.038303E+06  4.225166E+05  3.929755E+04  2.500725E+04 -4.424076E+04
        30   2  2.691463E+05  2.115063E+06  4.934139E+05  1.032949E+04  3.141943E+04 -1.463725E+05
        30   3  6.450896E+05  2.309624E+06  7.307224E+05  1.331125E+05  1.192342E+04 -2.486303E+05
        30   4 -4.491236E+03  8.592060E+05  1.336561E+05  7.220682E+04  2.502334E+04 -5.060748E+04
        30   5 -5.735740E+04  8.009179E+05  1.722370E+05 -3.006177E+03  3.141840E+04 -1.438411E+05
        30   6  2.843715E+05  8.591140E+05  3.713079E+05  7.353882E+04  1.189638E+04 -2.371776E+05
        30   7 -2.979801E+05 -3.186266E+05 -1.553055E+05  1.050543E+05  2.503877E+04 -5.696209E+04
        30   8 -3.839877E+05 -5.116570E+05 -1.490656E+05 -1.631221E+04  3.141726E+04 -1.413148E+05
        30   9 -7.648935E+04 -5.894818E+05  1.173960E+04  1.410615E+04  1.186713E+04 -2.257510E+05
        30  10  2.888975E+05  2.038301E+06  4.225118E+05  3.929844E+04 -7.456134E-10 -3.651616E-11
        30  11  2.691395E+05  2.115039E+06  4.933719E+05  1.033319E+04 -4.368131E-09 -7.017798E-10
        30  12  6.450729E+05  2.309557E+06  7.306063E+05  1.331149E+05 -2.224091E-09 -1.212222E-10
        30  13 -4.492595E+03  8.592031E+05  1.336501E+05  7.220784E+04  7.483038E-10  2.073329E-09
        30  14 -5.736401E+04  8.008954E+05  1.721963E+05 -3.002539E+03  1.534785E-10  9.526747E-10
        30  15  2.843563E+05  8.590536E+05  3.712021E+05  7.354109E+04  2.862416E-10  1.396680E-09
        30  16 -2.979817E+05 -3.186302E+05 -1.553128E+05  1.050555E+05  6.299815E-10 -4.271452E-10
        30  17 -3.839942E+05 -5.116787E+05 -1.491050E+05 -1.630863E+04  1.093567E-09  1.710693E-09
        30  18 -7.650320E+04 -5.895366E+05  1.164348E+04  1.410830E+04  2.172258E-09 -6.809102E-10
        30  19  2.888987E+05  2.038303E+06  4.225166E+05  3.929755E+04 -2.500725E+04  4.424076E+04
        30  20  2.691463E+05  2.115063E+06  4.934139E+05  1.032949E+04 -3.141943E+04  1.463725E+05
        30  21  6.450896E+05  2.309624E+06  7.307224E+05  1.331125E+05 -1.192342E+04  2.486303E+05
        30  22 -4.491236E+03  8.592060E+05  1.336561E+05  7.220682E+04 -2.502334E+04  5.060748E+04
        30  23 -5.735740E+04  8.009179E+05  1.722370E+05 -3.006177E+03 -3.141840E+04  1.438411E+05
        30  24  2.843715E+05  8.591140E+05  3.713079E+05  7.353882E+04 -1.189638E+04  2.371776E+05
        30  25 -2.979801E+05 -3.186266E+05 -1.553055E+05  1.050543E+05 -2.503877E+04  5.696209E+04
        30  26 -3.839877E+05 -5.116570E+05 -1.490656E+05 -1.631221E+04 -3.141726E+04  1.413148E+05
        30  27 -7.648935E+04 -5.894818E+05  1.173960E+04  1.410615E+04 -1.186713E+04  2.257510E+05
        31   1 -2.660346E+06 -5.234882E+05 -1.778149E+05 -9.713414E+05 -8.777613E+04 -3.154358E+04
        31   2 -2.630352E+06 -3.883845E+05 -9.369195E+04 -9.849527E+05 -5.688828E+04 -1.741152E+04
        31   3 -2.643419E+06 -3.955836E+05 -6.932815E+04 -9.765801E+05 -2.490604E+04 -6.198462E+03
        31   4 -2.523182E+06 -4.515950E+05 -1.361596E+05 -9.134512E+05 -8.663078E+04 -3.111774E+04
        31   5 -2.494849E+06 -3.319465E+05 -5.597083E+04 -9.426310E+05 -5.665185E+04 -1.732358E+04
        31   6 -2.509384E+06 -3.544027E+05 -3.480826E+04 -9.498302E+05 -2.557867E+04 -6.450015E+03
        31   7 -2.385999E+06 -3.796952E+05 -9.450648E+04 -8.555480E+05 -8.548516E+04 -3.069169E+04
        31   8 -2.359328E+06 -2.755064E+05 -1.825157E+04 -9.003007E+05 -5.641537E+04 -1.723562E+04
        31   9 -2.375332E+06 -3.132221E+05 -2.897818E+02 -9.230758E+05 -2.625147E+04 -6.701603E+03
        31  10 -2.660355E+06 -5.234914E+05 -1.778313E+05 -9.713436E+05  4.167419E-10  4.619066E-10
        31  11 -2.630356E+06 -3.883857E+05 -9.369863E+04 -9.849535E+05 -1.319899E-09 -1.763658E-10
        31  12 -2.643420E+06 -3.955838E+05 -6.932940E+04 -9.765802E+05 -1.185855E-09  2.180322E-10
        31  13 -2.523190E+06 -4.515980E+05 -1.361756E+05 -9.134533E+05 -1.918004E-09 -2.355907E-10
        31  14 -2.494852E+06 -3.319477E+05 -5.597746E+04 -9.426318E+05  1.850654E-09 -4.740425E-10
        31  15 -2.509385E+06 -3.544029E+05 -3.480958E+04 -9.498304E+05  1.047438E-09 -5.162099E-11
        31  16 -2.386008E+06 -3.796982E+05 -9.452205E+04 -8.555501E+05  2.129651E-09 -3.109853E-10
        31  17 -2.359331E+06 -2.755076E+05 -1.825814E+04 -9.003015E+05 -2.460352E-10 -1.470156E-09
        31  18 -2.375332E+06 -3.132223E+05 -2.911672E+02 -9.230760E+05 -1.163235E-09 -8.779704E-11
        31  19 -2.660346E+06 -5.234882E+05 -1.778149E+05 -9.713414E+05  8.777613E+04  3.154358E+04
        31  20 -2.630352E+06 -3.883845E+05 -9.369195E+04 -9.849527E+05  5.688828E+04  1.741152E+04
        31  21 -2.643419E+06 -3.955836E+05 -6.932815E+04 -9.765801E+05  2.490604E+04  6.198462E+03
        31  22 -2.523182E+06 -4.515950E+05 -1.361596E+05 -9.134512E+05  8.663078E+04  3.111774E+04
        31  23 -2.494849E+06 -3.319465E+05 -5.597083E+04 -9.426310E+05  5.665185E+04  1.732358E+04
        31  24 -2.509384E+06 -3.544027E+05 -3.480826E+04 -9.498302E+05  2.557867E+04  6.450015E+03
        31  25 -2.385999E+06 -3.796952E+05 -9.450648E+04 -8.555480E+05  8.548516E+04  3.069169E+04
        31  26 -2.359328E+06 -2.755064E+05 -1.825157E+04 -9.003007E+05  5.641537E+04  1.723562E+04
        31  27 -2.375332E+06 -3.132221E+05 -2.897818E+02 -9.230758E+05  2.625147E+04  6.701603E+03
        32   1 -2.594926E+06 -4.068971E+05 -5.359885E+04 -9.689235E+05 -2.014181E+04 -5.259306E+03
        32   2 -2.583273E+06 -3.783033E+05 -3.420048E+04 -9.606140E+05 -1.298397E+04 -2.848101E+03
        32   3 -2.566348E+06 -3.800973E+05 -2.488090E+04 -9.625662E+05 -5.684463E+03 -8.145119E+02
        32   4 -2.504427E+06 -3.702601E+05 -2.855450E+04 -9.417594E+05 -2.015869E+04 -5.265752E+03
        32   5 -2.506157E+06 -3.486184E+05 -1.318097E+04 -9.390428E+05 -1.311824E+04 -2.898409E+03
        32   6 -2.502592E+06 -3.573396E+05 -7.791767E+03 -9.465880E+05 -5.936329E+03 -9.087862E+02
        32   7 -2.413920E+06 -3.336222E+05 -3.510826E+03 -9.145915E+05 -2.017557E+04 -5.272199E+03
        32   8 -2.429036E+06 -3.189332E+05  7.837976E+03 -9.174692E+05 -1.325253E+04 -2.948724E+03
        32   9 -2.438832E+06 -3.345820E+05  9.296921E+03 -9.306085E+05 -6.188222E+03 -1.003069E+03
        32  10 -2.594927E+06 -4.068972E+05 -5.359967E+04 -9.689236E+05  2.240046E-09  4.786772E-11
        32  11 -2.583273E+06 -3.783033E+05 -3.420081E+04 -9.606141E+05  1.421211E-09 -1.078921E-09
        32  12 -2.566348E+06 -3.800973E+05 -2.488096E+04 -9.625662E+05  9.099838E-10 -1.463139E-09
        32  13 -2.504428E+06 -3.702602E+05 -2.855532E+04 -9.417595E+05 -9.175747E-11  3.698158E-11
        32  14 -2.506157E+06 -3.486185E+05 -1.318131E+04 -9.390429E+05 -1.102411E-09 -5.706486E-10
        32  15 -2.502592E+06 -3.573396E+05 -7.791835E+03 -9.465880E+05  1.035565E-11 -1.368584E-09
        32  16 -2.413921E+06 -3.336224E+05 -3.511647E+03 -9.145916E+05 -1.064890E-10  6.823846E-11
        32  17 -2.429036E+06 -3.189332E+05  7.837628E+03 -9.174692E+05 -5.405162E-09 -1.142338E-09
        32  18 -2.438833E+06 -3.345820E+05  9.296846E+03 -9.306085E+05  6.864766E-10 -1.589290E-09
        32  19 -2.594926E+06 -4.068971E+05 -5.359885E+04 -9.689235E+05  2.014181E+04  5.259306E+03
        32  20 -2.583273E+06 -3.783033E+05 -3.420048E+04 -9.606140E+05  1.298397E+04  2.848101E+03
        32  21 -2.566348E+06 -3.800973E+05 -2.488090E+04 -9.625662E+05  5.684463E+03  8.145119E+02
        32  22 -2.504427E+06 -3.702601E+05 -2.855450E+04 -9.417594E+05  2.015869E+04  5.265752E+03
        32  23 -2.506157E+06 -3.486184E+05 -1.318097E+04 -9.390428E+05  1.311824E+04  2.898409E+03
        32  24 -2.502592E+06 -3.573396E+05 -7.791767E+03 -9.465880E+05  5.936329E+03  9.087862E+02
        32  25 -2.413920E+06 -3.336222E+05 -3.510826E+03 -9.145915E+05  2.017557E+04  5.272199E+03
        32  26 -2.429036E+06 -3.189332E+05  7.837976E+03 -9.174692E+05  1.325253E+04  2.948724E+03
        32  27 -2.438832E+06 -3.345820E+05  9.296921E+03 -9.306085E+05  6.188222E+03  1.003069E+03
        33   1 -2.524825E+06 -3.685374E+05 -1.243571E+04 -9.522248E+05 -4.467515E+03 -8.240910E+02
        33   2 -2.515398E+06 -3.535875E+05 -5.124968E+03 -9.405047E+05 -2.656140E+03 -7.977501E+02
        33   3 -2.493414E+06 -3.546361E+05  3.548890E+02 -9.439033E+05 -8.294064E+02 -8.123557E+02
        33   4 -2.501738E+06 -3.595463E+05 -6.170409E+03 -9.456471E+05 -4.640370E+03 -8.887933E+02
        33   5 -2.507896E+06 -3.506985E+05 -3.080236E+03 -9.384048E+05 -2.841779E+03 -8.672338E+02
        33   6 -2.501496E+06 -3.578468E+05 -1.810664E+03 -9.462813E+05 -1.027869E+03 -8.866371E+02
        33   7 -2.478650E+06 -3.505551E+05  9.486189E+01 -9.390691E+05 -4.813232E+03 -9.534986E+02
        33   8 -2.500395E+06 -3.478096E+05 -1.035501E+03 -9.363049E+05 -3.027420E+03 -9.367186E+02
        33   9 -2.509577E+06 -3.610575E+05 -3.976236E+03 -9.486593E+05 -1.226330E+03 -9.609177E+02
        33  10 -2.524825E+06 -3.685374E+05 -1.243575E+04 -9.522248E+05 -5.822375E-11 -1.035381E-09
        33  11 -2.515398E+06 -3.535875E+05 -5.124982E+03 -9.405047E+05  6.693765E-09  1.640083E-10
        33  12 -2.493414E+06 -3.546361E+05  3.548864E+02 -9.439033E+05  1.662950E-09  1.081341E-09
        33  13 -2.501738E+06 -3.595463E+05 -6.170451E+03 -9.456471E+05  6.367183E-09 -1.937139E-09
        33  14 -2.507896E+06 -3.506985E+05 -3.080253E+03 -9.384048E+05 -2.027265E-09 -2.135955E-10
        33  15 -2.501496E+06 -3.578468E+05 -1.810668E+03 -9.462813E+05  3.452552E-09  9.652602E-10
        33  16 -2.478650E+06 -3.505551E+05  9.481644E+01 -9.390691E+05  2.026841E-09 -1.771144E-09
        33  17 -2.500395E+06 -3.478096E+05 -1.035520E+03 -9.363049E+05 -7.669504E-11 -7.008495E-10
        33  18 -2.509577E+06 -3.610575E+05 -3.976241E+03 -9.486593E+05  1.786385E-09  4.136960E-10
        33  19 -2.524825E+06 -3.685374E+05 -1.243571E+04 -9.522248E+05  4.467515E+03  8.240910E+02
        33  20 -2.515398E+06 -3.535875E+05 -5.124968E+03 -9.405047E+05  2.656140E+03  7.977501E+02
        33  21 -2.493414E+06 -3.546361E+05  3.548890E+02 -9.439033E+05  8.294064E+02  8.123557E+02
        33  22 -2.501738E+06 -3.595463E+05 -6.170409E+03 -9.456471E+05  4.640370E+03  8.887933E+02
        33  23 -2.507896E+06 -3.506985E+05 -3.080236E+03 -9.384048E+05  2.841779E+03  8.672338E+02
        33  24 -2.501496E+06 -3.578468E+05 -1.810664E+03 -9.462813E+05  1.027869E+03  8.866371E+02
        33  25 -2.478650E+06 -3.505551E+05  9.486189E+01 -9.390691E+05  4.813232E+03  9.534986E+02
        33  26 -2.500395E+06 -3.478096E+05 -1.035501E+03 -9.363049E+05  3.027420E+03  9.367186E+02
        33  27 -2.509577E+06 -3.610575E+05 -3.976236E+03 -9.486593E+05  1.226330E+03  9.609177E+02
        34   1 -2.453529E+06 -3.399178E+05  1.162695E+04 -9.330029E+05 -4.307965E+02 -1.080794E+03
        34   2 -2.444892E+06 -3.274071E+05  1.624009E+04 -9.214388E+05  2.143174E+02 -1.521201E+03
        34   3 -2.423357E+06 -3.283221E+05  2.044662E+04 -9.248129E+05  8.469184E+02 -1.927822E+03
        34   4 -2.501519E+06 -3.579730E+05 -1.434663E+03 -9.459809E+05 -6.235481E+02 -1.152947E+03
        34   5 -2.507954E+06 -3.511658E+05 -8.527925E+02 -9.385466E+05  3.211836E+01 -1.589424E+03
        34   6 -2.501493E+06 -3.577863E+05 -6.858733E+02 -9.460505E+05  6.752608E+02 -1.992119E+03
        34   7 -2.549508E+06 -3.760280E+05 -1.449641E+04 -9.589579E+05 -8.162823E+02 -1.225093E+03
        34   8 -2.571013E+06 -3.749241E+05 -1.794598E+04 -9.556527E+05 -1.500598E+02 -1.657640E+03
        34   9 -2.579623E+06 -3.872501E+05 -2.181890E+04 -9.672856E+05  5.036272E+02 -2.056407E+03
        34  10 -2.453529E+06 -3.399178E+05  1.162695E+04 -9.330029E+05  9.367475E-10  7.094215E-10
        34  11 -2.444892E+06 -3.274071E+05  1.624009E+04 -9.214388E+05  2.993056E-09  1.499934E-09
        34  12 -2.423357E+06 -3.283221E+05  2.044661E+04 -9.248129E+05 -1.565549E-09  2.013688E-09
        34  13 -2.501519E+06 -3.579730E+05 -1.434666E+03 -9.459809E+05 -8.685138E-10  7.364647E-10
        34  14 -2.507954E+06 -3.511658E+05 -8.527972E+02 -9.385466E+05 -1.475246E-09  3.953862E-10
        34  15 -2.501493E+06 -3.577863E+05 -6.858816E+02 -9.460505E+05 -4.327477E-10  1.799638E-09
        34  16 -2.549508E+06 -3.760280E+05 -1.449642E+04 -9.589579E+05  2.965711E-09  1.731010E-09
        34  17 -2.571013E+06 -3.749241E+05 -1.794599E+04 -9.556527E+05  2.530972E-09  6.275226E-11
        34  18 -2.579623E+06 -3.872501E+05 -2.181891E+04 -9.672856E+05 -1.440443E-09  1.285859E-09
        34  19 -2.453529E+06 -3.399178E+05  1.162695E+04 -9.330029E+05  4.307965E+02  1.080794E+03
        34  20 -2.444892E+06 -3.274071E+05  1.624009E+04 -9.214388E+05 -2.143174E+02  1.521201E+03
        34  21 -2.423357E+06 -3.283221E+05  2.044662E+04 -9.248129E+05 -8.469184E+02  1.927822E+03
        34  22 -2.501519E+06 -3.579730E+05 -1.434663E+03 -9.459809E+05  6.235481E+02  1.152947E+03
        34  23 -2.507954E+06 -3.511658E+05 -8.527925E+02 -9.385466E+05 -3.211836E+01  1.589424E+03
        34  24 -2.501493E+06 -3.577863E+05 -6.858733E+02 -9.460505E+05 -6.752608E+02  1.992119E+03
        34  25 -2.549508E+06 -3.760280E+05 -1.449641E+04 -9.589579E+05  8.162823E+02  1.225093E+03
        34  26 -2.571013E+06 -3.749241E+05 -1.794598E+04 -9.556527E+05  1.500598E+02  1.657640E+03
        34  27 -2.579623E+06 -3.872501E+05 -2.181890E+04 -9.672856E+05 -5.036272E+02  2.056407E+03
        35   1 -2.387530E+06 -3.142638E+05  3.037628E+04 -9.145440E+05  1.092875E+03 -2.211869E+03
        35   2 -2.380208E+06 -3.037361E+05  3.364572E+04 -9.046091E+05  1.694877E+03 -2.598791E+03
        35   3 -2.361856E+06 -3.047018E+05  3.653621E+04 -9.073895E+05  2.265738E+03 -2.901922E+03
        35   4 -2.501910E+06 -3.573545E+05 -6.807558E+02 -9.455587E+05  9.113482E+02 -2.279888E+03
        35   5 -2.507437E+06 -3.517055E+05 -8.449045E+02 -9.391633E+05  1.539527E+03 -2.657045E+03
        35   6 -2.501939E+06 -3.575555E+05 -1.408912E+03 -9.454836E+05  2.136552E+03 -2.950405E+03
        35   7 -2.616278E+06 -4.004446E+05 -3.173903E+04 -9.765683E+05  7.298584E+02 -2.347893E+03
        35   8 -2.634651E+06 -3.996741E+05 -3.533701E+04 -9.737112E+05  1.384212E+03 -2.715285E+03
        35   9 -2.642003E+06 -4.104081E+05 -3.935580E+04 -9.835699E+05  2.007398E+03 -2.998876E+03
        35  10 -2.387530E+06 -3.142638E+05  3.037627E+04 -9.145440E+05 -1.195946E-09  5.604777E-10
        35  11 -2.380208E+06 -3.037361E+05  3.364570E+04 -9.046091E+05 -3.972260E-09 -2.481066E-09
        35  12 -2.361856E+06 -3.047019E+05  3.653618E+04 -9.073895E+05 -1.417386E-09 -8.624896E-10
        35  13 -2.501910E+06 -3.573545E+05 -6.807671E+02 -9.455587E+05 -1.281205E-09  2.581788E-10
        35  14 -2.507437E+06 -3.517055E+05 -8.449222E+02 -9.391633E+05 -2.830722E-09 -3.070749E-09
        35  15 -2.501939E+06 -3.575555E+05 -1.408937E+03 -9.454836E+05 -1.492641E-09 -1.318180E-09
        35  16 -2.616278E+06 -4.004446E+05 -3.173904E+04 -9.765683E+05 -2.209177E-09  1.799546E-10
        35  17 -2.634651E+06 -3.996741E+05 -3.533703E+04 -9.737112E+05 -2.452244E-09 -3.029976E-09
        35  18 -2.642003E+06 -4.104081E+05 -3.935582E+04 -9.835699E+05 -4.616072E-09 -4.621384E-10
        35  19 -2.387530E+06 -3.142638E+05  3.037628E+04 -9.145440E+05 -1.092875E+03  2.211869E+03
        35  20 -2.380208E+06 -3.037361E+05  3.364572E+04 -9.046091E+05 -1.694877E+03  2.598791E+03
        35  21 -2.361856E+06 -3.047018E+05  3.653621E+04 -9.073895E+05 -2.265738E+03  2.901922E+03
        35  22 -2.501910E+06 -3.573545E+05 -6.807558E+02 -9.455587E+05 -9.113482E+02  2.279888E+03
        35  23 -2.507437E+06 -3.517055E+05 -8.449045E+02 -9.391633E+05 -1.539527E+03  2.657045E+03
        35  24 -2.501939E+06 -3.575555E+05 -1.408912E+03 -9.454836E+05 -2.136552E+03  2.950405E+03
        35  25 -2.616278E+06 -4.004446E+05 -3.173903E+04 -9.765683E+05 -7.298584E+02  2.347893E+03
        35  26 -2.634651E+06 -3.996741E+05 -3.533701E+04 -9.737112E+05 -1.384212E+03  2.715285E+03
        35  27 -2.642003E+06 -4.104081E+05 -3.935580E+04 -9.835699E+05 -2.007398E+03  2.998876E+03
        36   1 -2.333780E+06 -2.930708E+05  4.403991E+04 -8.991320E+05  2.654370E+03 -3.061685E+03
        36   2 -2.328321E+06 -2.850135E+05  4.526725E+04 -8.917074E+05  4.316205E+03 -2.915074E+03
        36   3 -2.315718E+06 -2.873288E+05  4.477284E+04 -8.929864E+05  5.918231E+03 -2.608347E+03
        36   4 -2.502709E+06 -3.566174E+05 -1.771795E+03 -9.448521E+05  2.498047E+03 -3.120375E+03
        36   5 -2.506396E+06 -3.522637E+05 -3.026606E+03 -9.401866E+05  4.209648E+03 -2.955143E+03
        36   6 -2.502949E+06 -3.582930E+05 -6.043108E+03 -9.442248E+05  5.861409E+03 -2.629783E+03
        36   7 -2.671611E+06 -4.201623E+05 -4.758598E+04 -9.905609E+05  2.341771E+03 -3.179047E+03
        36   8 -2.684440E+06 -4.195121E+05 -5.132331E+04 -9.886533E+05  4.103124E+03 -2.995200E+03
        36   9 -2.690147E+06 -4.292551E+05 -5.686230E+04 -9.954493E+05  5.804606E+03 -2.651212E+03
        36  10 -2.333780E+06 -2.930708E+05  4.403988E+04 -8.991320E+05 -2.965632E-09 -2.250929E-10
        36  11 -2.328321E+06 -2.850135E+05  4.526720E+04 -8.917074E+05 -3.428663E-09 -6.856896E-10
        36  12 -2.315718E+06 -2.873288E+05  4.477276E+04 -8.929864E+05 -1.256510E-09 -1.203166E-09
        36  13 -2.502709E+06 -3.566174E+05 -1.771825E+03 -9.448521E+05 -1.843021E-09 -1.914288E-10
        36  14 -2.506396E+06 -3.522637E+05 -3.026656E+03 -9.401866E+05  6.547934E-12 -9.503085E-10
        36  15 -2.502949E+06 -3.582930E+05 -6.043185E+03 -9.442248E+05 -2.584529E-10 -1.922272E-09
        36  16 -2.671611E+06 -4.201624E+05 -4.758601E+04 -9.905609E+05 -3.411878E-09  5.571668E-10
        36  17 -2.684440E+06 -4.195121E+05 -5.132336E+04 -9.886533E+05 -8.589778E-10  3.312617E-11
        36  18 -2.690147E+06 -4.292552E+05 -5.686238E+04 -9.954493E+05 -3.480838E-09 -1.679086E-09
        36  19 -2.333780E+06 -2.930708E+05  4.403991E+04 -8.991320E+05 -2.654370E+03  3.061685E+03
        36  20 -2.328321E+06 -2.850135E+05  4.526725E+04 -8.917074E+05 -4.316205E+03  2.915074E+03
        36  21 -2.315718E+06 -2.873288E+05  4.477284E+04 -8.929864E+05 -5.918231E+03  2.608347E+03
        36  22 -2.502709E+06 -3.566174E+05 -1.771795E+03 -9.448521E+05 -2.498047E+03  3.120375E+03
        36  23 -2.506396E+06 -3.522637E+05 -3.026606E+03 -9.401866E+05 -4.209648E+03  2.955143E+03
        36  24 -2.502949E+06 -3.582930E+05 -6.043108E+03 -9.442248E+05 -5.861409E+03  2.629783E+03
        36  25 -2.671611E+06 -4.201623E+05 -4.758598E+04 -9.905609E+05 -2.341771E+03  3.179047E+03
        36  26 -2.684440E+06 -4.195121E+05 -5.132331E+04 -9.886533E+05 -4.103124E+03  2.995200E+03
        36  27 -2.690147E+06 -4.292551E+05 -5.686230E+04 -9.954493E+05 -5.804606E+03  2.651212E+03
        37   1 -2.297862E+06 -2.786947E+05  4.817784E+04 -8.894351E+05  7.241419E+03 -2.374450E+03
        37   2 -2.293831E+06 -2.711543E+05  4.414379E+04 -8.839784E+05  1.398049E+04 -1.548605E+02
        37   3 -2.292825E+06 -2.849353E+05  3.049568E+04 -8.789191E+05  2.050738E+04  2.629449E+03
        37   4 -2.504466E+06 -3.554446E+05 -7.630075E+03 -9.443652E+05  7.066020E+03 -2.440421E+03
        37   5 -2.503840E+06 -3.510869E+05 -1.292295E+04 -9.417946E+05  1.397996E+04 -1.552027E+02
        37   6 -2.506276E+06 -3.680891E+05 -2.797142E+04 -9.396212E+05  2.068165E+04  2.694759E+03
        37   7 -2.711030E+06 -4.321924E+05 -6.344178E+04 -9.992789E+05  6.890686E+03 -2.506370E+03
        37   8 -2.713807E+06 -4.310167E+05 -6.999361E+04 -9.995930E+05  1.397944E+04 -1.555452E+02
        37   9 -2.719684E+06 -4.512394E+05 -8.644258E+04 -1.000304E+06  2.085585E+04  2.760041E+03
        37  10 -2.297862E+06 -2.786947E+05  4.817773E+04 -8.894351E+05  1.459609E-09 -7.737992E-10
        37  11 -2.293831E+06 -2.711543E+05  4.414342E+04 -8.839784E+05 -2.052744E-09  2.241086E-09
        37  12 -2.292825E+06 -2.849354E+05  3.049488E+04 -8.789191E+05 -1.406388E-09  1.299210E-11
        37  13 -2.504466E+06 -3.554446E+05 -7.630180E+03 -9.443652E+05 -1.985652E-09 -6.041967E-10
        37  14 -2.503841E+06 -3.510869E+05 -1.292332E+04 -9.417946E+05  1.843612E-09  1.568912E-09
        37  15 -2.506277E+06 -3.680892E+05 -2.797224E+04 -9.396212E+05 -1.125652E-09  7.199038E-10
        37  16 -2.711030E+06 -4.321924E+05 -6.344189E+04 -9.992789E+05 -2.753564E-11  7.726074E-12
        37  17 -2.713808E+06 -4.310167E+05 -6.999398E+04 -9.995930E+05  1.253226E-09  1.509683E-09
        37  18 -2.719684E+06 -4.512395E+05 -8.644341E+04 -1.000304E+06 -1.294260E-09  3.951416E-10
        37  19 -2.297862E+06 -2.786947E+05  4.817784E+04 -8.894351E+05 -7.241419E+03  2.374450E+03
        37  20 -2.293831E+06 -2.711543E+05  4.414379E+04 -8.839784E+05 -1.398049E+04  1.548605E+02
        37  21 -2.292825E+06 -2.849353E+05  3.049568E+04 -8.789191E+05 -2.050738E+04 -2.629449E+03
        37  22 -2.504466E+06 -3.554446E+05 -7.630075E+03 -9.443652E+05 -7.066020E+03  2.440421E+03
        37  23 -2.503840E+06 -3.510869E+05 -1.292295E+04 -9.417946E+05 -1.397996E+04  1.552027E+02
        37  24 -2.506276E+06 -3.680891E+05 -2.797142E+04 -9.396212E+05 -2.068165E+04 -2.694759E+03
        37  25 -2.711030E+06 -4.321924E+05 -6.344178E+04 -9.992789E+05 -6.890686E+03  2.506370E+03
        37  26 -2.713807E+06 -4.310167E+05 -6.999361E+04 -9.995930E+05 -1.397944E+04  1.555452E+02
        37  27 -2.719684E+06 -4.512394E+05 -8.644258E+04 -1.000304E+06 -2.085585E+04 -2.760041E+03
        38   1 -2.283723E+06 -2.751552E+05  2.587519E+04 -8.943108E+05  2.664227E+04  4.236518E+03
        38   2 -2.275066E+06 -2.480520E+05  4.981836E+03 -8.814124E+05  5.572114E+04  1.487537E+04
        38   3 -2.318762E+06 -3.491839E+05 -7.274768E+04 -8.346966E+05  8.334288E+04  2.938504E+04
        38   4 -2.511612E+06 -3.520846E+05 -3.410099E+04 -9.469908E+05  2.594611E+04  3.974949E+03
        38   5 -2.492121E+06 -3.353801E+05 -5.484428E+04 -9.460221E+05  5.622853E+04  1.506564E+04
        38   6 -2.525238E+06 -4.471787E+05 -1.333960E+05 -9.112310E+05  8.505404E+04  3.002631E+04
        38   7 -2.739452E+06 -4.290137E+05 -9.408161E+04 -9.996545E+05  2.525023E+04  3.713459E+03
        38   8 -2.709130E+06 -4.227039E+05 -1.146748E+05 -1.010611E+06  5.673572E+04  1.525584E+04
        38   9 -2.731673E+06 -5.451633E+05 -1.940486E+05 -9.877400E+05  8.676457E+04  3.066721E+04
        38  10 -2.283724E+06 -2.751554E+05  2.587381E+04 -8.943109E+05 -2.570247E-09 -1.179051E-09
        38  11 -2.275070E+06 -2.480530E+05  4.975559E+03 -8.814131E+05  3.129257E-09  3.276710E-10
        38  12 -2.318770E+06 -3.491867E+05 -7.276242E+04 -8.346985E+05  1.178429E-09 -4.402191E-10
        38  13 -2.511613E+06 -3.520848E+05 -3.410229E+04 -9.469909E+05  2.048323E-09 -2.712285E-10
        38  14 -2.492124E+06 -3.353812E+05 -5.485068E+04 -9.460228E+05 -5.996280E-10 -1.273822E-09
        38  15 -2.525246E+06 -4.471816E+05 -1.334114E+05 -9.112331E+05  8.122604E-10 -6.004532E-10
        38  16 -2.739453E+06 -4.290138E+05 -9.408284E+04 -9.996546E+05  2.283214E-09  5.745828E-11
        38  17 -2.709134E+06 -4.227050E+05 -1.146813E+05 -1.010611E+06  1.387720E-09  1.171039E-09
        38  18 -2.731681E+06 -5.451663E+05 -1.940646E+05 -9.877421E+05 -1.550863E-09 -2.563919E-10
        38  19 -2.283723E+06 -2.751552E+05  2.587519E+04 -8.943108E+05 -2.664227E+04 -4.236518E+03
        38  20 -2.275066E+06 -2.480520E+05  4.981836E+03 -8.814124E+05 -5.572114E+04 -1.487537E+04
        38  21 -2.318762E+06 -3.491839E+05 -7.274768E+04 -8.346966E+05 -8.334288E+04 -2.938504E+04
        38  22 -2.511612E+06 -3.520846E+05 -3.410099E+04 -9.469908E+05 -2.594611E+04 -3.974949E+03
        38  23 -2.492121E+06 -3.353801E+05 -5.484428E+04 -9.460221E+05 -5.622853E+04 -1.506564E+04
        38  24 -2.525238E+06 -4.471787E+05 -1.333960E+05 -9.112310E+05 -8.505404E+04 -3.002631E+04
        38  25 -2.739452E+06 -4.290137E+05 -9.408161E+04 -9.996545E+05 -2.525023E+04 -3.713459E+03
        38  26 -2.709130E+06 -4.227039E+05 -1.146748E+05 -1.010611E+06 -5.673572E+04 -1.525584E+04
        38  27 -2.731673E+06 -5.451633E+05 -1.940486E+05 -9.877400E+05 -8.676457E+04 -3.066721E+04
        39   1 -7.716929E+05  1.594770E+05  2.052670E+05  3.548777E+04  1.401144E+05  8.018900E+00
        39   2 -8.016715E+05 -3.088141E+04  8.858979E+04  9.559185E+03  9.197800E+04  1.417977E+00
        39   3 -7.717670E+05 -6.894680E+03  5.687702E+04 -1.636825E+04  4.384087E+04 -1.157246E+00
        39   4 -7.716943E+05  1.594746E+05  2.052666E+05 -1.658670E-08  1.401144E+05 -7.691604E-11
        39   5 -8.016716E+05 -3.088158E+04  8.858977E+04 -4.540858E-09  9.197800E+04  6.240680E-10
        39   6 -7.717673E+05 -6.895184E+03  5.687695E+04  8.394097E-08  4.384087E+04 -1.381436E-09
        39   7 -7.716929E+05  1.594770E+05  2.052670E+05 -3.548777E+04  1.401144E+05 -8.018900E+00
        39   8 -8.016715E+05 -3.088141E+04  8.858979E+04 -9.559185E+03  9.197800E+04 -1.417977E+00
        39   9 -7.717670E+05 -6.894680E+03  5.687702E+04  1.636825E+04  4.384087E+04  1.157246E+00
        39  10 -7.717140E+05  1.594717E+05  2.052300E+05  3.548777E+04 -6.656958E-10  4.500068E-10
        39  11 -8.016806E+05 -3.088369E+04  8.857387E+04  9.559185E+03 -7.603904E-10  5.782712E-10
        39  12 -7.717691E+05 -6.895196E+03  5.687340E+04 -1.636825E+04 -9.957987E-10 -1.377589E-09
        39  13 -7.717154E+05  1.594693E+05  2.052297E+05 -1.851756E-08  6.727028E-11  2.499720E-10
        39  14 -8.016807E+05 -3.088386E+04  8.857385E+04 -1.667578E-08 -6.357452E-10  2.107994E-10
        39  15 -7.717694E+05 -6.895701E+03  5.687333E+04  4.543309E-09 -8.931629E-10 -9.464008E-10
        39  16 -7.717140E+05  1.594717E+05  2.052300E+05 -3.548777E+04  6.488856E-10  1.927817E-10
        39  17 -8.016806E+05 -3.088369E+04  8.857387E+04 -9.559185E+03  5.527638E-10  1.603301E-10
        39  18 -7.717691E+05 -6.895196E+03  5.687340E+04  1.636825E+04  7.352116E-10 -8.393362E-10
        39  19 -7.716929E+05  1.594770E+05  2.052670E+05  3.548777E+04 -1.401144E+05 -8.018900E+00
        39  20 -8.016715E+05 -3.088141E+04  8.858979E+04  9.559185E+03 -9.197800E+04 -1.417977E+00
        39  21 -7.717670E+05 -6.894680E+03  5.687702E+04 -1.636825E+04 -4.384087E+04  1.157246E+00
        39  22 -7.716943E+05  1.594746E+05  2.052666E+05  5.386774E-09 -1.401144E+05  5.419661E-10
        39  23 -8.016716E+05 -3.088158E+04  8.858977E+04 -2.974240E-09 -9.197800E+04 -5.043135E-11
        39  24 -7.717673E+05 -6.895184E+03  5.687695E+04  1.342753E-08 -4.384087E+04 -5.111929E-10
        39  25 -7.716929E+05  1.594770E+05  2.052670E+05 -3.548777E+04 -1.401144E+05  8.018900E+00
        39  26 -8.016715E+05 -3.088141E+04  8.858979E+04 -9.559185E+03 -9.197800E+04  1.417977E+00
        39  27 -7.717670E+05 -6.894680E+03  5.687702E+04  1.636825E+04 -4.384087E+04 -1.157246E+00
        40   1 -7.831587E+05  2.074629E+04  4.678389E+04  4.313884E+03  3.469651E+04  2.413829E-01
        40   2 -7.874400E+05 -4.053347E+03  2.299285E+04  1.053448E+03  2.276934E+04  3.868275E-02
        40   3 -7.831706E+05 -8.795355E+02  1.396817E+04 -2.206941E+03  1.084244E+04 -3.858942E-02
        40   4 -7.831587E+05  2.074625E+04  4.678388E+04  1.123628E-08  3.469651E+04 -5.967771E-10
        40   5 -7.874400E+05 -4.053349E+03  2.299285E+04 -2.060873E-09  2.276934E+04  1.431499E-09
        40   6 -7.831707E+05 -8.795447E+02  1.396817E+04  2.770768E-08  1.084244E+04  3.207473E-11
        40   7 -7.831587E+05  2.074629E+04  4.678389E+04 -4.313884E+03  3.469651E+04 -2.413829E-01
        40   8 -7.874400E+05 -4.053347E+03  2.299285E+04 -1.053448E+03  2.276934E+04 -3.868275E-02
        40   9 -7.831706E+05 -8.795355E+02  1.396817E+04  2.206941E+03  1.084244E+04  3.858942E-02
        40  10 -7.831600E+05  2.074596E+04  4.678162E+04  4.313883E+03  3.395057E-09 -5.935061E-10
        40  11 -7.874406E+05 -4.053487E+03  2.299188E+04  1.053448E+03  1.839142E-09  1.135791E-09
        40  12 -7.831708E+05 -8.795671E+02  1.396795E+04 -2.206941E+03 -9.500170E-10 -4.946254E-10
        40  13 -7.831600E+05  2.074593E+04  4.678162E+04  1.637128E-08  5.045184E-11 -5.452973E-10
        40  14 -7.874406E+05 -4.053489E+03  2.299188E+04  3.159591E-08 -1.076654E-09  1.038369E-09
        40  15 -7.831708E+05 -8.795763E+02  1.396795E+04 -1.992677E-08 -6.623657E-10 -5.864744E-11
        40  16 -7.831600E+05  2.074596E+04  4.678162E+04 -4.313883E+03 -4.118411E-09 -4.662129E-10
        40  17 -7.874406E+05 -4.053487E+03  2.299188E+04 -1.053448E+03 -2.041007E-09  9.340262E-10
        40  18 -7.831708E+05 -8.795671E+02  1.396795E+04  2.206941E+03 -1.022970E-09  1.701512E-10
        40  19 -7.831587E+05  2.074629E+04  4.678389E+04  4.313884E+03 -3.469651E+04 -2.413829E-01
        40  20 -7.874400E+05 -4.053347E+03  2.299285E+04  1.053448E+03 -2.276934E+04 -3.868275E-02
        40  21 -7.831706E+05 -8.795355E+02  1.396817E+04 -2.206941E+03 -1.084244E+04  3.858942E-02
        40  22 -7.831587E+05  2.074625E+04  4.678388E+04  6.456946E-08 -3.469651E+04 -5.024151E-10
        40  23 -7.874400E+05 -4.053349E+03  2.299285E+04  2.218900E-08 -2.276934E+04  6.988848E-10
        40  24 -7.831707E+05 -8.795447E+02  1.396817E+04  1.426038E-08 -1.084244E+04 -1.027779E-10
        40  25 -7.831587E+05  2.074629E+04  4.678389E+04 -4.313884E+03 -3.469651E+04  2.413829E-01
        40  26 -7.874400E+05 -4.053347E+03  2.299285E+04 -1.053448E+03 -2.276934E+04  3.868275E-02
        40  27 -7.831706E+05 -8.795355E+02  1.396817E+04  2.206941E+03 -1.084244E+04 -3.858942E-02
        41   1 -7.847819E+05  2.675561E+03  1.105345E+04  4.802443E+02  8.607938E+03  6.666734E-03
        41   2 -7.854289E+05 -5.315090E+02  5.819907E+03  8.797613E+01  5.659880E+03  8.030162E-04
        41   3 -7.847841E+05 -1.100396E+02  3.414723E+03 -3.042986E+02  2.711788E+03 -1.330781E-03
        41   4 -7.847819E+05  2.675561E+03  1.105345E+04  1.556993E-08  8.607938E+03 -5.275443E-10
        41   5 -7.854289E+05 -5.315090E+02  5.819907E+03  4.121865E-10  5.659880E+03  5.012781E-10
        41   6 -7.847841E+05 -1.100398E+02  3.414723E+03  2.293548E-08  2.711788E+03  4.851682E-10
        41   7 -7.847819E+05  2.675561E+03  1.105345E+04 -4.802443E+02  8.607938E+03 -6.666735E-03
        41   8 -7.854289E+05 -5.315090E+02  5.819907E+03 -8.797613E+01  5.659880E+03 -8.030164E-04
        41   9 -7.847841E+05 -1.100396E+02  3.414723E+03  3.042986E+02  2.711788E+03  1.330783E-03
        41  10 -7.847820E+05  2.675541E+03  1.105331E+04  4.802443E+02 -1.493065E-09 -7.179759E-10
        41  11 -7.854290E+05 -5.315176E+02  5.819846E+03  8.797613E+01 -9.769874E-11  4.523792E-10
        41  12 -7.847841E+05 -1.100416E+02  3.414709E+03 -3.042986E+02  3.420752E-10  5.604729E-10
        41  13 -7.847820E+05  2.675541E+03  1.105331E+04  1.559464E-08  2.522571E-11 -5.804626E-10
        41  14 -7.854290E+05 -5.315176E+02  5.819846E+03  9.033899E-09 -1.210376E-09  3.613215E-11
        41  15 -7.847841E+05 -1.100418E+02  3.414709E+03  2.471057E-09 -1.416869E-09  6.937902E-12
        41  16 -7.847820E+05  2.675541E+03  1.105331E+04 -4.802443E+02  8.714593E-10 -2.735488E-10
        41  17 -7.854290E+05 -5.315176E+02  5.819846E+03 -8.797613E+01  8.383093E-10 -4.493198E-10
        41  18 -7.847841E+05 -1.100416E+02  3.414709E+03  3.042986E+02  3.825430E-09 -5.147762E-10
        41  19 -7.847819E+05  2.675561E+03  1.105345E+04  4.802443E+02 -8.607938E+03 -6.666736E-03
        41  20 -7.854289E+05 -5.315090E+02  5.819907E+03  8.797613E+01 -5.659880E+03 -8.030153E-04
        41  21 -7.847841E+05 -1.100396E+02  3.414723E+03 -3.042986E+02 -2.711788E+03  1.330782E-03
        41  22 -7.847819E+05  2.675561E+03  1.105345E+04  3.284754E-08 -8.607938E+03 -6.316226E-10
        41  23 -7.854289E+05 -5.315090E+02  5.819907E+03  2.626813E-08 -5.659880E+03 -3.219059E-10
        41  24 -7.847841E+05 -1.100398E+02  3.414723E+03  4.014451E-08 -2.711788E+03 -4.229731E-10
        41  25 -7.847819E+05  2.675561E+03  1.105345E+04 -4.802443E+02 -8.607938E+03  6.666734E-03
        41  26 -7.854289E+05 -5.315090E+02  5.819907E+03 -8.797613E+01 -5.659880E+03  8.030148E-04
        41  27 -7.847841E+05 -1.100396E+02  3.414723E+03  3.042986E+02 -2.711788E+03 -1.330784E-03
        42   1 -7.850257E+05  3.394876E+02  2.627533E+03  4.030088E+01  2.168637E+03  1.409457E-04
        42   2 -7.851278E+05 -6.768837E+01  1.386017E+03 -1.552208E+00  1.474998E+03 -3.693513E-06
        42   3 -7.850262E+05 -2.184232E+01  7.097766E+02 -4.340532E+01  7.813607E+02 -5.469305E-05
        42   4 -7.850257E+05  3.394875E+02  2.627532E+03  1.298471E-08  2.168637E+03 -2.916762E-10
        42   5 -7.851278E+05 -6.768837E+01  1.386017E+03 -1.743013E-08  1.474998E+03 -9.311618E-10
        42   6 -7.850262E+05 -2.184232E+01  7.097766E+02 -1.447067E-08  7.813607E+02  1.199612E-09
        42   7 -7.850257E+05  3.394876E+02  2.627533E+03 -4.030088E+01  2.168637E+03 -1.409464E-04
        42   8 -7.851278E+05 -6.768837E+01  1.386017E+03  1.552208E+00  1.474998E+03  3.691337E-06
        42   9 -7.850262E+05 -2.184232E+01  7.097766E+02  4.340533E+01  7.813607E+02  5.469542E-05
        42  10 -7.850257E+05  3.394863E+02  2.627524E+03  4.030088E+01  7.581440E-10 -2.447341E-10
        42  11 -7.851278E+05 -6.768896E+01  1.386013E+03 -1.552208E+00  2.448359E-09 -7.748512E-10
        42  12 -7.850262E+05 -2.184248E+01  7.097755E+02 -4.340532E+01 -5.931516E-10  6.477382E-10
        42  13 -7.850257E+05  3.394863E+02  2.627524E+03  4.364028E-09  2.411940E-09 -2.227850E-10
        42  14 -7.851278E+05 -6.768896E+01  1.386013E+03  8.421147E-09 -1.218582E-09 -2.554227E-10
        42  15 -7.850262E+05 -2.184249E+01  7.097755E+02 -1.551525E-08  3.348706E-09  4.504704E-10
        42  16 -7.850257E+05  3.394863E+02  2.627524E+03 -4.030088E+01  6.480932E-10 -2.844703E-10
        42  17 -7.851278E+05 -6.768896E+01  1.386013E+03  1.552208E+00  2.415437E-09  9.561136E-11
        42  18 -7.850262E+05 -2.184248E+01  7.097755E+02  4.340532E+01  9.670537E-10  2.496745E-10
        42  19 -7.850257E+05  3.394876E+02  2.627533E+03  4.030088E+01 -2.168637E+03 -1.409459E-04
        42  20 -7.851278E+05 -6.768837E+01  1.386017E+03 -1.552208E+00 -1.474998E+03  3.692492E-06
        42  21 -7.850262E+05 -2.184232E+01  7.097766E+02 -4.340532E+01 -7.813607E+02  5.469453E-05
        42  22 -7.850257E+05  3.394875E+02  2.627532E+03  2.157885E-08 -2.168637E+03 -1.559603E-10
        42  23 -7.851278E+05 -6.768837E+01  1.386017E+03 -3.032739E-08 -1.474998E+03  4.632139E-10
        42  24 -7.850262E+05 -2.184232E+01  7.097766E+02 -6.872225E-09 -7.813607E+02 -2.539147E-10
        42  25 -7.850257E+05  3.394876E+02  2.627533E+03 -4.030088E+01 -2.168637E+03  1.409461E-04
        42  26 -7.851278E+05 -6.768837E+01  1.386017E+03  1.552208E+00 -1.474998E+03 -3.691542E-06
        42  27 -7.850262E+05 -2.184232E+01  7.097766E+02  4.340532E+01 -7.813607E+02 -5.469536E-05
        43   1 -7.850733E+05  4.432394E+01  4.662480E+02 -9.375715E+00  6.752523E+02 -1.020815E-05
        43   2 -7.850693E+05  6.219093E+00  4.346243E+01 -3.384220E+00  6.547003E+02 -3.573876E-06
        43   3 -7.850735E+05 -7.591168E+01 -3.769401E+02  2.607189E+00  6.341486E+02  2.667461E-06
        43   4 -7.850733E+05  4.432394E+01  4.662480E+02 -1.566172E-08  6.752523E+02  1.102621E-09
        43   5 -7.850693E+05  6.219093E+00  4.346243E+01  3.316935E-08  6.547003E+02 -7.769289E-10
        43   6 -7.850735E+05 -7.591168E+01 -3.769401E+02  3.355349E-08  6.341486E+02  9.145722E-10
        43   7 -7.850733E+05  4.432394E+01  4.662480E+02  9.375715E+00  6.752523E+02  1.021050E-05
        43   8 -7.850693E+05  6.219093E+00  4.346243E+01  3.384220E+00  6.547003E+02  3.572129E-06
        43   9 -7.850735E+05 -7.591168E+01 -3.769401E+02 -2.607189E+00  6.341486E+02 -2.665114E-06
        43  10 -7.850733E+05  4.432382E+01  4.662471E+02 -9.375715E+00  2.210229E-09  6.899127E-10
        43  11 -7.850693E+05  6.218978E+00  4.346163E+01 -3.384220E+00  4.948229E-09 -6.049184E-10
        43  12 -7.850735E+05 -7.591179E+01 -3.769409E+02  2.607189E+00  7.134261E-10  4.582105E-11
        43  13 -7.850733E+05  4.432382E+01  4.662471E+02 -4.154927E-08  4.607136E-09  2.892382E-10
        43  14 -7.850693E+05  6.218978E+00  4.346163E+01 -1.288180E-09  2.921891E-10 -5.249087E-10
        43  15 -7.850735E+05 -7.591179E+01 -3.769409E+02  3.897292E-08 -3.672384E-09  6.887091E-11
        43  16 -7.850733E+05  4.432382E+01  4.662471E+02  9.375715E+00 -4.014425E-11 -2.295979E-10
        43  17 -7.850693E+05  6.218978E+00  4.346163E+01  3.384219E+00 -7.731670E-10 -4.781357E-10
        43  18 -7.850735E+05 -7.591179E+01 -3.769409E+02 -2.607189E+00  4.339614E-10  2.861159E-10
        43  19 -7.850733E+05  4.432394E+01  4.662480E+02 -9.375715E+00 -6.752523E+02  1.021001E-05
        43  20 -7.850693E+05  6.219093E+00  4.346243E+01 -3.384220E+00 -6.547003E+02  3.573173E-06
        43  21 -7.850735E+05 -7.591168E+01 -3.769401E+02  2.607189E+00 -6.341486E+02 -2.667089E-06
        43  22 -7.850733E+05  4.432394E+01  4.662480E+02 -2.436885E-08 -6.752523E+02 -5.507886E-10
        43  23 -7.850693E+05  6.219093E+00  4.346243E+01 -9.904138E-09 -6.547003E+02 -2.798480E-10
        43  24 -7.850735E+05 -7.591168E+01 -3.769401E+02  1.317864E-08 -6.341486E+02 -7.855942E-10
        43  25 -7.850733E+05  4.432394E+01  4.662480E+02  9.375715E+00 -6.752523E+02 -1.021114E-05
        43  26 -7.850693E+05  6.219093E+00  4.346243E+01  3.384220E+00 -6.547003E+02 -3.573531E-06
        43  27 -7.850735E+05 -7.591168E+01 -3.769401E+02 -2.607189E+00 -6.341486E+02  2.665396E-06
        44   1 -7.851332E+05  2.869183E+01 -5.981809E+02 -6.818883E+01  7.216306E+02 -7.935451E-05
        44   2 -7.849950E+05  1.158275E+02 -1.193986E+03  1.823016E+01  1.327421E+03  3.902607E-05
        44   3 -7.851337E+05 -5.888258E+02 -2.382500E+03  1.046505E+02  1.933220E+03  3.262663E-04
        44   4 -7.851332E+05  2.869182E+01 -5.981809E+02  6.399730E-08  7.216306E+02  1.517643E-09
        44   5 -7.849950E+05  1.158274E+02 -1.193986E+03  1.620313E-08  1.327421E+03  1.869014E-11
        44   6 -7.851337E+05 -5.888258E+02 -2.382500E+03 -1.759483E-08  1.933220E+03 -1.095465E-09
        44   7 -7.851332E+05  2.869183E+01 -5.981809E+02  6.818883E+01  7.216306E+02  7.935777E-05
        44   8 -7.849950E+05  1.158275E+02 -1.193986E+03 -1.823016E+01  1.327421E+03 -3.902626E-05
        44   9 -7.851337E+05 -5.888258E+02 -2.382500E+03 -1.046505E+02  1.933220E+03 -3.262684E-04
        44  10 -7.851332E+05  2.869169E+01 -5.981819E+02 -6.818883E+01  7.249410E-10  5.158983E-10
        44  11 -7.849950E+05  1.158270E+02 -1.193989E+03  1.823016E+01 -3.194017E-10  4.816541E-10
        44  12 -7.851337E+05 -5.888268E+02 -2.382508E+03  1.046505E+02 -3.394539E-10 -4.982256E-10
        44  13 -7.851332E+05  2.869168E+01 -5.981819E+02  2.092905E-08 -2.504204E-09  5.080165E-10
        44  14 -7.849950E+05  1.158270E+02 -1.193989E+03  1.619840E-08 -5.808670E-09  2.602500E-10
        44  15 -7.851337E+05 -5.888268E+02 -2.382508E+03 -1.452939E-09  2.007300E-09 -3.903515E-11
        44  16 -7.851332E+05  2.869169E+01 -5.981819E+02  6.818883E+01 -4.208049E-10  5.681874E-10
        44  17 -7.849950E+05  1.158270E+02 -1.193989E+03 -1.823016E+01  1.702879E-09  2.230920E-10
        44  18 -7.851337E+05 -5.888268E+02 -2.382508E+03 -1.046505E+02 -6.702044E-10  5.830880E-10
        44  19 -7.851332E+05  2.869183E+01 -5.981809E+02 -6.818883E+01 -7.216306E+02  7.935593E-05
        44  20 -7.849950E+05  1.158275E+02 -1.193986E+03  1.823016E+01 -1.327421E+03 -3.902462E-05
        44  21 -7.851337E+05 -5.888258E+02 -2.382500E+03  1.046505E+02 -1.933220E+03 -3.262670E-04
        44  22 -7.851332E+05  2.869182E+01 -5.981809E+02  6.399178E-08 -7.216306E+02 -4.757791E-10
        44  23 -7.849950E+05  1.158274E+02 -1.193986E+03  7.577176E-09 -1.327421E+03  6.124845E-10
        44  24 -7.851337E+05 -5.888258E+02 -2.382500E+03 -1.115710E-08 -1.933220E+03  9.489584E-10
        44  25 -7.851332E+05  2.869183E+01 -5.981809E+02  6.818883E+01 -7.216306E+02 -7.935719E-05
        44  26 -7.849950E+05  1.158275E+02 -1.193986E+03 -1.823016E+01 -1.327421E+03  3.902617E-05
        44  27 -7.851337E+05 -5.888258E+02 -2.382500E+03 -1.046505E+02 -1.933220E+03  3.262692E-04
        45   1 -7.854895E+05  1.939544E+02 -3.035910E+03 -4.861150E+02  2.416954E+03 -1.894782E-03
        45   2 -7.845508E+05  8.918211E+02 -5.038003E+03  2.314776E+02  5.031028E+03  1.878093E-03
        45   3 -7.854920E+05 -4.565176E+03 -1.028227E+04  9.490703E+02  7.645098E+03  1.170127E-02
        45   4 -7.854895E+05  1.939540E+02 -3.035910E+03  3.264947E-08  2.416954E+03 -3.992357E-10
        45   5 -7.845508E+05  8.918210E+02 -5.038003E+03 -1.146548E-09  5.031028E+03  1.112132E-09
        45   6 -7.854920E+05 -4.565178E+03 -1.028227E+04  3.719301E-08  7.645098E+03 -1.718316E-10
        45   7 -7.854895E+05  1.939544E+02 -3.035910E+03  4.861150E+02  2.416954E+03  1.894782E-03
        45   8 -7.845508E+05  8.918211E+02 -5.038003E+03 -2.314776E+02  5.031028E+03 -1.878091E-03
        45   9 -7.854920E+05 -4.565176E+03 -1.028227E+04 -9.490703E+02  7.645098E+03 -1.170127E-02
        45  10 -7.854895E+05  1.939528E+02 -3.035921E+03 -4.861150E+02  6.385845E-10 -5.532430E-10
        45  11 -7.845508E+05  8.918143E+02 -5.038050E+03  2.314776E+02  1.884816E-09  3.387009E-10
        45  12 -7.854921E+05 -4.565192E+03 -1.028238E+04  9.490703E+02  1.629918E-09 -6.758759E-10
        45  13 -7.854895E+05  1.939524E+02 -3.035921E+03 -1.786816E-09 -1.681705E-11  8.092814E-11
        45  14 -7.845508E+05  8.918142E+02 -5.038050E+03 -1.838509E-08 -1.218273E-09  2.304378E-10
        45  15 -7.854921E+05 -4.565193E+03 -1.028238E+04 -6.994962E-09  2.242669E-09 -7.035648E-10
        45  16 -7.854895E+05  1.939528E+02 -3.035921E+03  4.861150E+02 -1.531661E-09  5.634964E-10
        45  17 -7.845508E+05  8.918143E+02 -5.038050E+03 -2.314776E+02 -3.773121E-09  1.980659E-11
        45  18 -7.854921E+05 -4.565192E+03 -1.028238E+04 -9.490703E+02 -2.787335E-09 -7.224472E-10
        45  19 -7.854895E+05  1.939544E+02 -3.035910E+03 -4.861150E+02 -2.416954E+03  1.894782E-03
        45  20 -7.845508E+05  8.918211E+02 -5.038003E+03  2.314776E+02 -5.031028E+03 -1.878092E-03
        45  21 -7.854920E+05 -4.565176E+03 -1.028227E+04  9.490703E+02 -7.645098E+03 -1.170127E-02
        45  22 -7.854895E+05  1.939540E+02 -3.035910E+03  2.408001E-08 -2.416954E+03  5.383032E-10
        45  23 -7.845508E+05  8.918210E+02 -5.038003E+03 -2.700948E-08 -5.031028E+03 -6.079383E-10
        45  24 -7.854920E+05 -4.565178E+03 -1.028227E+04  9.108570E-09 -7.645098E+03 -1.271847E-09
        45  25 -7.854895E+05  1.939544E+02 -3.035910E+03  4.861150E+02 -2.416954E+03 -1.894781E-03
        45  26 -7.845508E+05  8.918211E+02 -5.038003E+03 -2.314776E+02 -5.031028E+03  1.878091E-03
        45  27 -7.854920E+05 -4.565176E+03 -1.028227E+04 -9.490703E+02 -7.645098E+03  1.170127E-02
        46   1 -7.879988E+05  1.517487E+03 -1.250578E+04 -3.602070E+03  9.654941E+03 -5.608607E-02
        46   2 -7.814179E+05  6.795743E+03 -1.948481E+04  2.103640E+03  2.024615E+04  6.868513E-02
        46   3 -7.880130E+05 -3.509214E+04 -4.515687E+04  7.809209E+03  3.083725E+04  3.883595E-01
        46   4 -7.879988E+05  1.517463E+03 -1.250578E+04  5.458377E-10  9.654941E+03 -4.401111E-10
        46   5 -7.814179E+05  6.795735E+03 -1.948481E+04  1.233461E-09  2.024615E+04  7.053962E-10
        46   6 -7.880131E+05 -3.509225E+04 -4.515688E+04  1.053404E-08  3.083725E+04  2.727845E-10
        46   7 -7.879988E+05  1.517487E+03 -1.250578E+04  3.602070E+03  9.654941E+03  5.608607E-02
        46   8 -7.814179E+05  6.795743E+03 -1.948481E+04 -2.103640E+03  2.024615E+04 -6.868513E-02
        46   9 -7.880130E+05 -3.509214E+04 -4.515687E+04 -7.809209E+03  3.083725E+04 -3.883595E-01
        46  10 -7.879989E+05  1.517462E+03 -1.250595E+04 -3.602070E+03  5.975659E-11 -5.875140E-10
        46  11 -7.814183E+05  6.795633E+03 -1.948558E+04  2.103640E+03  7.251936E-10  9.169690E-10
        46  12 -7.880140E+05 -3.509240E+04 -4.515865E+04  7.809209E+03  5.070299E-10  4.266037E-10
        46  13 -7.879989E+05  1.517438E+03 -1.250596E+04 -2.523201E-08 -1.573350E-09 -5.659311E-10
        46  14 -7.814183E+05  6.795624E+03 -1.948558E+04  1.416586E-08 -1.068207E-09  5.841847E-10
        46  15 -7.880141E+05 -3.509251E+04 -4.515867E+04  2.341591E-08 -1.719869E-10  3.515936E-10
        46  16 -7.879989E+05  1.517462E+03 -1.250595E+04  3.602070E+03  6.445481E-10 -4.931701E-10
        46  17 -7.814183E+05  6.795633E+03 -1.948558E+04 -2.103640E+03  2.177496E-09  2.769294E-10
        46  18 -7.880140E+05 -3.509240E+04 -4.515865E+04 -7.809209E+03 -3.106705E-10  1.617793E-10
        46  19 -7.879988E+05  1.517487E+03 -1.250578E+04 -3.602070E+03 -9.654941E+03  5.608607E-02
        46  20 -7.814179E+05  6.795743E+03 -1.948481E+04  2.103640E+03 -2.024615E+04 -6.868513E-02
        46  21 -7.880130E+05 -3.509214E+04 -4.515687E+04  7.809209E+03 -3.083725E+04 -3.883595E-01
        46  22 -7.879988E+05  1.517463E+03 -1.250578E+04  6.667196E-10 -9.654941E+03 -6.816320E-10
        46  23 -7.814179E+05  6.795735E+03 -1.948481E+04  1.259455E-09 -2.024615E+04  5.447897E-10
        46  24 -7.880131E+05 -3.509225E+04 -4.515688E+04  1.800126E-08 -3.083725E+04  4.247925E-10
        46  25 -7.879988E+05  1.517487E+03 -1.250578E+04  3.602070E+03 -9.654941E+03 -5.608607E-02
        46  26 -7.814179E+05  6.795743E+03 -1.948481E+04 -2.103640E+03 -2.024615E+04  6.868513E-02
        46  27 -7.880130E+05 -3.509214E+04 -4.515687E+04 -7.809209E+03 -3.083725E+04  3.883595E-01
        47   1 -1.439028E+05 -2.769167E+06 -1.984378E+05  4.997559E+04  1.321006E+03 -1.588411E+05
        47   2  8.206330E+04 -2.719848E+06 -6.168189E+04  1.164155E+04  4.226732E+03 -1.019198E+05
        47   3  5.523696E+04 -2.741143E+06 -2.527324E+04 -1.107246E+04  4.503834E+03 -4.499747E+04
        47   4 -1.861868E+05 -2.937990E+06 -2.404895E+05  8.384975E+03  1.331758E+03 -1.602197E+05
        47   5  3.645745E+04 -2.902462E+06 -1.065582E+05  5.806781E+02  4.228745E+03 -1.024337E+05
        47   6  6.116288E+03 -2.937718E+06 -7.359587E+04  8.399478E+03  4.502386E+03 -4.464772E+04
        47   7 -2.284664E+05 -3.106784E+06 -2.825425E+05 -3.319428E+04  1.342698E+03 -1.615979E+05
        47   8 -9.150423E+03 -3.085045E+06 -1.514370E+05 -1.047692E+04  4.230776E+03 -1.029474E+05
        47   9 -4.300584E+04 -3.134257E+06 -1.219211E+05  2.786522E+04  4.500959E+03 -4.429807E+04
        47  10 -1.439096E+05 -2.769194E+06 -1.984854E+05  4.997576E+04  2.706605E-10  1.377493E-09
        47  11  8.206048E+04 -2.719859E+06 -6.170153E+04  1.164189E+04  5.560646E-09 -1.043496E-09
        47  12  5.523639E+04 -2.741145E+06 -2.527710E+04 -1.107230E+04  5.269190E-10 -2.714151E-09
        47  13 -1.861937E+05 -2.938018E+06 -2.405380E+05  8.385148E+03 -6.264739E-10  5.523506E-11
        47  14  3.645460E+04 -2.902473E+06 -1.065781E+05  5.810273E+02 -2.492205E-09 -4.616123E-11
        47  15  6.115728E+03 -2.937720E+06 -7.359967E+04  8.399640E+03 -1.742035E-09  1.676116E-10
        47  16 -2.284734E+05 -3.106812E+06 -2.825918E+05 -3.319410E+04  8.085863E-10 -1.400043E-09
        47  17 -9.153305E+03 -3.085057E+06 -1.514570E+05 -1.047657E+04  1.195967E-09  8.280011E-10
        47  18 -4.300639E+04 -3.134259E+06 -1.219249E+05  2.786538E+04 -1.126585E-09  2.476323E-09
        47  19 -1.439028E+05 -2.769167E+06 -1.984378E+05  4.997559E+04 -1.321006E+03  1.588411E+05
        47  20  8.206330E+04 -2.719848E+06 -6.168189E+04  1.164155E+04 -4.226732E+03  1.019198E+05
        47  21  5.523696E+04 -2.741143E+06 -2.527324E+04 -1.107246E+04 -4.503834E+03  4.499747E+04
        47  22 -1.861868E+05 -2.937990E+06 -2.404895E+05  8.384975E+03 -1.331758E+03  1.602197E+05
        47  23  3.645745E+04 -2.902462E+06 -1.065582E+05  5.806781E+02 -4.228745E+03  1.024337E+05
        47  24  6.116288E+03 -2.937718E+06 -7.359587E+04  8.399478E+03 -4.502386E+03  4.464772E+04
        47  25 -2.284664E+05 -3.106784E+06 -2.825425E+05 -3.319428E+04 -1.342698E+03  1.615979E+05
        47  26 -9.150423E+03 -3.085045E+06 -1.514370E+05 -1.047692E+04 -4.230776E+03  1.029474E+05
        47  27 -4.300584E+04 -3.134257E+06 -1.219211E+05  2.786522E+04 -4.500959E+03  4.429807E+04
        48   1  3.227992E+04 -2.701896E+06 -8.840359E+03  1.376390E+04  4.452162E+03 -3.215675E+04
        48   2  6.583119E+04 -2.684628E+06  1.463920E+04  2.371822E+03  5.116283E+03 -1.030907E+04
        48   3  4.671351E+04 -2.683241E+06  1.071550E+04  1.400124E+03  4.899272E+03  1.153857E+04
        48   4 -2.361848E+04 -2.925597E+06 -6.396932E+04  7.230723E+03  4.452782E+03 -3.252173E+04
        48   5  7.626904E+03 -2.917619E+06 -4.267278E+04  2.020472E+03  5.116468E+03 -1.038623E+04
        48   6 -1.385764E+04 -2.925578E+06 -4.898697E+04  7.230934E+03  4.899313E+03  1.174892E+04
        48   7 -7.952046E+04 -3.149252E+06 -1.191020E+05  6.999195E+02  4.453410E+03 -3.288659E+04
        48   8 -5.058143E+04 -3.150560E+06 -9.998877E+04  1.669264E+03  5.116654E+03 -1.046335E+04
        48   9 -7.443305E+04 -3.167861E+06 -1.086938E+05  1.305947E+04  4.899358E+03  1.195920E+04
        48  10  3.227962E+04 -2.701897E+06 -8.842348E+03  1.376401E+04 -5.448047E-10  1.582975E-09
        48  11  6.583113E+04 -2.684628E+06  1.463895E+04  2.371864E+03 -2.233363E-10 -1.799300E-09
        48  12  4.671345E+04 -2.683242E+06  1.071520E+04  1.400078E+03 -5.844720E-10 -3.233212E-09
        48  13 -2.361879E+04 -2.925598E+06 -6.397136E+04  7.230840E+03 -3.566480E-09  9.458449E-11
        48  14  7.626846E+03 -2.917619E+06 -4.267303E+04  2.020515E+03  4.945255E-09 -3.774058E-10
        48  15 -1.385770E+04 -2.925578E+06 -4.898727E+04  7.230888E+03  1.723691E-09  4.397680E-10
        48  16 -7.952078E+04 -3.149253E+06 -1.191040E+05  7.000376E+02 -1.351541E-09 -1.432692E-09
        48  17 -5.058149E+04 -3.150560E+06 -9.998903E+04  1.669307E+03  1.833424E-09  1.020149E-09
        48  18 -7.443312E+04 -3.167861E+06 -1.086941E+05  1.305942E+04  1.579160E-10  2.457106E-09
        48  19  3.227992E+04 -2.701896E+06 -8.840359E+03  1.376390E+04 -4.452162E+03  3.215675E+04
        48  20  6.583119E+04 -2.684628E+06  1.463920E+04  2.371822E+03 -5.116283E+03  1.030907E+04
        48  21  4.671351E+04 -2.683241E+06  1.071550E+04  1.400124E+03 -4.899272E+03 -1.153857E+04
        48  22 -2.361848E+04 -2.925597E+06 -6.396932E+04  7.230723E+03 -4.452782E+03  3.252173E+04
        48  23  7.626904E+03 -2.917619E+06 -4.267278E+04  2.020472E+03 -5.116468E+03  1.038623E+04
        48  24 -1.385764E+04 -2.925578E+06 -4.898697E+04  7.230934E+03 -4.899313E+03 -1.174892E+04
        48  25 -7.952046E+04 -3.149252E+06 -1.191020E+05  6.999195E+02 -4.453410E+03  3.288659E+04
        48  26 -5.058143E+04 -3.150560E+06 -9.998877E+04  1.669264E+03 -5.116654E+03  1.046335E+04
        48  27 -7.443305E+04 -3.167861E+06 -1.086938E+05  1.305947E+04 -4.899358E+03 -1.195920E+04
        49   1  6.616807E+04 -2.674000E+06  1.077256E+04  1.793046E+04  5.644048E+03  2.163236E+04
        49   2  8.805821E+04 -2.648287E+06 -4.412191E+03 -3.248673E+03  6.036103E+03  5.725028E+04
        49   3 -4.748031E+04 -2.666440E+06 -8.217226E+04 -2.033917E+04  1.890527E+03  9.286184E+04
        49   4  1.793128E+03 -2.931815E+06 -5.263722E+04  5.878973E+03  5.644710E+03  2.072286E+04
        49   5  2.271868E+04 -2.909823E+06 -6.866745E+04  3.750482E+03  6.036138E+03  5.784617E+04
        49   6 -1.140834E+05 -2.931978E+06 -1.483406E+05  5.709889E+03  1.891286E+03  9.496276E+04
        49   7 -6.258622E+04 -3.189568E+06 -1.160518E+05 -6.167462E+03  5.645408E+03  1.981375E+04
        49   8 -4.262578E+04 -3.171296E+06 -1.329277E+05  1.074669E+04  6.036186E+03  5.844180E+04
        49   9 -1.806893E+05 -3.197450E+06 -2.145139E+05  3.174777E+04  1.892222E+03  9.706276E+04
        49  10  6.616791E+04 -2.674001E+06  1.077162E+04  1.793036E+04 -1.192716E-09 -8.000201E-10
        49  11  8.805729E+04 -2.648291E+06 -4.418445E+03 -3.248952E+03  7.638960E-10 -1.556098E-09
        49  12 -4.748264E+04 -2.666449E+06 -8.218854E+04 -2.033931E+04 -1.245885E-09  7.393967E-10
        49  13  1.792978E+03 -2.931815E+06 -5.263809E+04  5.878879E+03  3.611567E-09  7.549567E-10
        49  14  2.271773E+04 -2.909827E+06 -6.867384E+04  3.750200E+03  6.088362E-09 -5.536283E-10
        49  15 -1.140859E+05 -2.931987E+06 -1.483576E+05  5.709744E+03  2.300537E-09  6.072229E-10
        49  16 -6.258636E+04 -3.189569E+06 -1.160526E+05 -6.167553E+03 -4.703524E-10  9.693178E-10
        49  17 -4.262675E+04 -3.171300E+06 -1.329343E+05  1.074641E+04  1.711033E-09 -2.403798E-10
        49  18 -1.806919E+05 -3.197460E+06 -2.145317E+05  3.174763E+04  3.358530E-10 -1.645938E-09
        49  19  6.616807E+04 -2.674000E+06  1.077256E+04  1.793046E+04 -5.644048E+03 -2.163236E+04
        49  20  8.805821E+04 -2.648287E+06 -4.412191E+03 -3.248673E+03 -6.036103E+03 -5.725028E+04
        49  21 -4.748031E+04 -2.666440E+06 -8.217226E+04 -2.033917E+04 -1.890527E+03 -9.286184E+04
        49  22  1.793128E+03 -2.931815E+06 -5.263722E+04  5.878973E+03 -5.644710E+03 -2.072286E+04
        49  23  2.271868E+04 -2.909823E+06 -6.866745E+04  3.750482E+03 -6.036138E+03 -5.784617E+04
        49  24 -1.140834E+05 -2.931978E+06 -1.483406E+05  5.709889E+03 -1.891286E+03 -9.496276E+04
        49  25 -6.258622E+04 -3.189568E+06 -1.160518E+05 -6.167462E+03 -5.645408E+03 -1.981375E+04
        49  26 -4.262578E+04 -3.171296E+06 -1.329277E+05  1.074669E+04 -6.036186E+03 -5.844180E+04
        49  27 -1.806893E+05 -3.197450E+06 -2.145139E+05  3.174777E+04 -1.892222E+03 -9.706276E+04
        50   1 -1.268296E+06 -1.350010E+05  6.183330E+04 -4.828549E+05  5.382023E+04  2.098341E+04
        50   2 -1.277854E+06 -2.072932E+05  1.364074E+04 -4.616401E+05  3.431136E+04  1.513688E+04
        50   3 -1.246080E+06 -2.036625E+05  2.485885E+03 -4.706137E+05  1.545264E+04  7.554963E+03
        50   4 -1.169246E+06 -1.103833E+05  8.643946E+04 -4.690819E+05  5.450368E+04  2.123827E+04
        50   5 -1.194321E+06 -1.792312E+05  3.554017E+04 -4.424359E+05  3.444652E+04  1.518729E+04
        50   6 -1.177959E+06 -1.720550E+05  2.210912E+04 -4.459772E+05  1.503993E+04  7.400476E+03
        50   7 -1.070187E+06 -8.576607E+04  1.110449E+05 -4.553077E+05  5.518725E+04  2.149313E+04
        50   8 -1.110781E+06 -1.511693E+05  5.743898E+04 -4.232295E+05  3.458170E+04  1.523769E+04
        50   9 -1.109834E+06 -1.404464E+05  4.173196E+04 -4.213378E+05  1.462717E+04  7.245960E+03
        50  10 -1.268299E+06 -1.350023E+05  6.182701E+04 -4.828558E+05 -1.647227E-09 -1.441547E-10
        50  11 -1.277856E+06 -2.072938E+05  1.363809E+04 -4.616405E+05  1.457939E-09 -9.611495E-11
        50  12 -1.246080E+06 -2.036626E+05  2.485328E+03 -4.706138E+05  2.582734E-10 -2.230732E-11
        50  13 -1.169249E+06 -1.103846E+05  8.643302E+04 -4.690829E+05  1.808537E-09 -4.517550E-11
        50  14 -1.194322E+06 -1.792318E+05  3.553750E+04 -4.424363E+05 -5.931842E-09 -1.672704E-10
        50  15 -1.177959E+06 -1.720551E+05  2.210859E+04 -4.459772E+05 -1.182754E-09 -7.260900E-11
        50  16 -1.070190E+06 -8.576738E+04  1.110383E+05 -4.553087E+05 -3.134116E-10  3.956875E-10
        50  17 -1.110782E+06 -1.511698E+05  5.743629E+04 -4.232300E+05 -3.495131E-09  8.451024E-10
        50  18 -1.109834E+06 -1.404465E+05  4.173146E+04 -4.213379E+05 -1.192154E-09  2.927329E-10
        50  19 -1.268296E+06 -1.350010E+05  6.183330E+04 -4.828549E+05 -5.382023E+04 -2.098341E+04
        50  20 -1.277854E+06 -2.072932E+05  1.364074E+04 -4.616401E+05 -3.431136E+04 -1.513688E+04
        50  21 -1.246080E+06 -2.036625E+05  2.485885E+03 -4.706137E+05 -1.545264E+04 -7.554963E+03
        50  22 -1.169246E+06 -1.103833E+05  8.643946E+04 -4.690819E+05 -5.450368E+04 -2.123827E+04
        50  23 -1.194321E+06 -1.792312E+05  3.554017E+04 -4.424359E+05 -3.444652E+04 -1.518729E+04
        50  24 -1.177959E+06 -1.720550E+05  2.210912E+04 -4.459772E+05 -1.503993E+04 -7.400476E+03
        50  25 -1.070187E+06 -8.576607E+04  1.110449E+05 -4.553077E+05 -5.518725E+04 -2.149313E+04
        50  26 -1.110781E+06 -1.511693E+05  5.743898E+04 -4.232295E+05 -3.458170E+04 -1.523769E+04
        50  27 -1.109834E+06 -1.404464E+05  4.173196E+04 -4.213378E+05 -1.462717E+04 -7.245960E+03
        51   1 -1.231280E+06 -1.799004E+05  4.746424E+03 -4.637135E+05  1.196224E+04  5.715439E+03
        51   2 -1.228073E+06 -1.829087E+05 -2.488245E+03 -4.546357E+05  7.677926E+03  3.918732E+03
        51   3 -1.212056E+06 -1.828302E+05 -3.439793E+03 -4.575927E+05  3.472903E+03  1.910152E+03
        51   4 -1.180679E+06 -1.624437E+05  1.813218E+04 -4.516164E+05  1.194354E+04  5.708387E+03
        51   5 -1.187669E+06 -1.680885E+05  8.365246E+03 -4.440662E+05  7.592313E+03  3.886644E+03
        51   6 -1.181836E+06 -1.706337E+05  4.934079E+03 -4.485506E+05  3.320461E+03  1.853050E+03
        51   7 -1.130075E+06 -1.449869E+05  3.151774E+04 -4.395184E+05  1.192485E+04  5.701336E+03
        51   8 -1.147263E+06 -1.532683E+05  1.921856E+04 -4.334961E+05  7.506693E+03  3.854553E+03
        51   9 -1.151615E+06 -1.584371E+05  1.330781E+04 -4.395081E+05  3.168012E+03  1.795944E+03
        51  10 -1.231280E+06 -1.799005E+05  4.746093E+03 -4.637136E+05 -1.778515E-09  2.199016E-10
        51  11 -1.228073E+06 -1.829087E+05 -2.488385E+03 -4.546358E+05 -3.988035E-09 -4.040218E-10
        51  12 -1.212056E+06 -1.828302E+05 -3.439823E+03 -4.575927E+05 -2.170875E-09  5.562622E-10
        51  13 -1.180679E+06 -1.624438E+05  1.813185E+04 -4.516164E+05  2.594617E-09  3.107371E-10
        51  14 -1.187669E+06 -1.680885E+05  8.365109E+03 -4.440662E+05 -1.845845E-09  3.580997E-11
        51  15 -1.181836E+06 -1.706337E+05  4.934051E+03 -4.485506E+05  1.961917E-09  1.037728E-09
        51  16 -1.130075E+06 -1.449870E+05  3.151741E+04 -4.395184E+05 -2.825253E-10 -1.047268E-10
        51  17 -1.147263E+06 -1.532683E+05  1.921843E+04 -4.334961E+05  2.714519E-09  1.482869E-10
        51  18 -1.151615E+06 -1.584371E+05  1.330778E+04 -4.395081E+05  6.579599E-10 -4.313876E-10
        51  19 -1.231280E+06 -1.799004E+05  4.746424E+03 -4.637135E+05 -1.196224E+04 -5.715439E+03
        51  20 -1.228073E+06 -1.829087E+05 -2.488245E+03 -4.546357E+05 -7.677926E+03 -3.918732E+03
        51  21 -1.212056E+06 -1.828302E+05 -3.439793E+03 -4.575927E+05 -3.472903E+03 -1.910152E+03
        51  22 -1.180679E+06 -1.624437E+05  1.813218E+04 -4.516164E+05 -1.194354E+04 -5.708387E+03
        51  23 -1.187669E+06 -1.680885E+05  8.365246E+03 -4.440662E+05 -7.592313E+03 -3.886644E+03
        51  24 -1.181836E+06 -1.706337E+05  4.934079E+03 -4.485506E+05 -3.320461E+03 -1.853050E+03
        51  25 -1.130075E+06 -1.449869E+05  3.151774E+04 -4.395184E+05 -1.192485E+04 -5.701336E+03
        51  26 -1.147263E+06 -1.532683E+05  1.921856E+04 -4.334961E+05 -7.506693E+03 -3.854553E+03
        51  27 -1.151615E+06 -1.584371E+05  1.330781E+04 -4.395081E+05 -3.168012E+03 -1.795944E+03
        52   1 -1.188970E+06 -1.717441E+05  2.138195E+03 -4.509765E+05  2.795232E+03  1.373774E+03
        52   2 -1.183878E+06 -1.654378E+05  2.697502E+03 -4.434115E+05  1.948951E+03  6.593333E+02
        52   3 -1.169870E+06 -1.658896E+05  4.385956E+03 -4.456471E+05  1.110658E+03 -7.647536E+01
        52   4 -1.182221E+06 -1.693984E+05  3.895034E+03 -4.493370E+05  2.689129E+03  1.334027E+03
        52   5 -1.186757E+06 -1.665613E+05  1.910076E+03 -4.442341E+05  1.836126E+03  6.170669E+02
        52   6 -1.182374E+06 -1.704811E+05  1.059558E+03 -4.489319E+05  9.911280E+02 -1.212546E+02
        52   7 -1.175472E+06 -1.670527E+05  5.651880E+03 -4.476975E+05  2.583025E+03  1.294279E+03
        52   8 -1.189635E+06 -1.676849E+05  1.122645E+03 -4.450567E+05  1.723301E+03  5.748006E+02
        52   9 -1.194878E+06 -1.750727E+05 -2.266868E+03 -4.522167E+05  8.716001E+02 -1.660332E+02
        52  10 -1.188970E+06 -1.717441E+05  2.138177E+03 -4.509765E+05 -5.054562E-10  4.885134E-10
        52  11 -1.183878E+06 -1.654378E+05  2.697494E+03 -4.434115E+05 -3.071292E-09 -2.679080E-10
        52  12 -1.169870E+06 -1.658896E+05  4.385954E+03 -4.456471E+05  1.260662E-09  9.404728E-10
        52  13 -1.182221E+06 -1.693984E+05  3.895017E+03 -4.493370E+05  2.504059E-09  7.737308E-10
        52  14 -1.186757E+06 -1.665614E+05  1.910068E+03 -4.442341E+05  9.587257E-12 -1.237252E-10
        52  15 -1.182374E+06 -1.704811E+05  1.059556E+03 -4.489319E+05  1.218087E-09  8.397240E-10
        52  16 -1.175472E+06 -1.670527E+05  5.651864E+03 -4.476975E+05 -5.366461E-10 -5.055874E-10
        52  17 -1.189635E+06 -1.676849E+05  1.122638E+03 -4.450567E+05 -2.126119E-09  3.676805E-10
        52  18 -1.194878E+06 -1.750727E+05 -2.266870E+03 -4.522167E+05  2.863324E-09  1.479650E-09
        52  19 -1.188970E+06 -1.717441E+05  2.138195E+03 -4.509765E+05 -2.795232E+03 -1.373774E+03
        52  20 -1.183878E+06 -1.654378E+05  2.697502E+03 -4.434115E+05 -1.948951E+03 -6.593333E+02
        52  21 -1.169870E+06 -1.658896E+05  4.385956E+03 -4.456471E+05 -1.110658E+03  7.647536E+01
        52  22 -1.182221E+06 -1.693984E+05  3.895034E+03 -4.493370E+05 -2.689129E+03 -1.334027E+03
        52  23 -1.186757E+06 -1.665613E+05  1.910076E+03 -4.442341E+05 -1.836126E+03 -6.170669E+02
        52  24 -1.182374E+06 -1.704811E+05  1.059558E+03 -4.489319E+05 -9.911280E+02  1.212546E+02
        52  25 -1.175472E+06 -1.670527E+05  5.651880E+03 -4.476975E+05 -2.583025E+03 -1.294279E+03
        52  26 -1.189635E+06 -1.676849E+05  1.122645E+03 -4.450567E+05 -1.723301E+03 -5.748006E+02
        52  27 -1.194878E+06 -1.750727E+05 -2.266868E+03 -4.522167E+05 -8.716001E+02  1.660332E+02
        53   1 -1.146084E+06 -1.565293E+05  1.068567E+04 -4.390707E+05  1.036397E+03 -3.543588E+02
        53   2 -1.140880E+06 -1.492172E+05  1.268611E+04 -4.319200E+05  1.004537E+03 -7.802380E+02
        53   3 -1.127574E+06 -1.497534E+05  1.485714E+04 -4.339963E+05  9.686866E+02 -1.195323E+03
        53   4 -1.182492E+06 -1.702635E+05  7.914618E+02 -4.489770E+05  9.206515E+02 -3.977247E+02
        53   5 -1.186554E+06 -1.664216E+05  3.230472E+02 -4.443327E+05  8.921864E+02 -8.223410E+02
        53   6 -1.182515E+06 -1.704285E+05  2.254031E+01 -4.489152E+05  8.597327E+02 -1.236163E+03
        53   7 -1.218898E+06 -1.839976E+05 -9.102799E+03 -4.588827E+05  8.049141E+02 -4.410876E+02
        53   8 -1.232226E+06 -1.836259E+05 -1.204018E+04 -4.567445E+05  7.798450E+02 -8.644404E+02
        53   9 -1.237453E+06 -1.911035E+05 -1.481237E+04 -4.638331E+05  7.507891E+02 -1.276998E+03
        53  10 -1.146084E+06 -1.565293E+05  1.068567E+04 -4.390707E+05  2.705658E-09  8.260416E-10
        53  11 -1.140880E+06 -1.492172E+05  1.268611E+04 -4.319200E+05 -1.599171E-09 -4.724439E-10
        53  12 -1.127574E+06 -1.497534E+05  1.485713E+04 -4.339963E+05 -2.891486E-09 -5.584761E-10
        53  13 -1.182492E+06 -1.702635E+05  7.914599E+02 -4.489770E+05  3.834891E-09  1.159710E-09
        53  14 -1.186554E+06 -1.664216E+05  3.230444E+02 -4.443327E+05  2.255568E-09 -3.201621E-10
        53  15 -1.182515E+06 -1.704285E+05  2.253605E+01 -4.489152E+05 -5.191130E-09 -5.038141E-10
        53  16 -1.218898E+06 -1.839976E+05 -9.102800E+03 -4.588827E+05  4.165885E-10  9.369215E-10
        53  17 -1.232226E+06 -1.836259E+05 -1.204018E+04 -4.567445E+05  9.487936E-10 -2.462526E-10
        53  18 -1.237453E+06 -1.911035E+05 -1.481237E+04 -4.638331E+05 -1.930676E-09  8.413005E-11
        53  19 -1.146084E+06 -1.565293E+05  1.068567E+04 -4.390707E+05 -1.036397E+03  3.543588E+02
        53  20 -1.140880E+06 -1.492172E+05  1.268611E+04 -4.319200E+05 -1.004537E+03  7.802380E+02
        53  21 -1.127574E+06 -1.497534E+05  1.485714E+04 -4.339963E+05 -9.686866E+02  1.195323E+03
        53  22 -1.182492E+06 -1.702635E+05  7.914618E+02 -4.489770E+05 -9.206515E+02  3.977247E+02
        53  23 -1.186554E+06 -1.664216E+05  3.230472E+02 -4.443327E+05 -8.921864E+02  8.223410E+02
        53  24 -1.182515E+06 -1.704285E+05  2.254031E+01 -4.489152E+05 -8.597327E+02  1.236163E+03
        53  25 -1.218898E+06 -1.839976E+05 -9.102799E+03 -4.588827E+05 -8.049141E+02  4.410876E+02
        53  26 -1.232226E+06 -1.836259E+05 -1.204018E+04 -4.567445E+05 -7.798450E+02  8.644404E+02
        53  27 -1.237453E+06 -1.911035E+05 -1.481237E+04 -4.638331E+05 -7.507891E+02  1.276998E+03
        54   1 -1.104953E+06 -1.409756E+05  2.096337E+04 -4.276806E+05  1.056298E+03 -1.397375E+03
        54   2 -1.100110E+06 -1.340497E+05  2.291209E+04 -4.210958E+05  1.393909E+03 -1.662537E+03
        54   3 -1.087965E+06 -1.347149E+05  2.465362E+04 -4.229252E+05  1.720514E+03 -1.898068E+03
        54   4 -1.182676E+06 -1.702414E+05 -1.065416E+02 -4.487840E+05  9.437297E+02 -1.439581E+03
        54   5 -1.186339E+06 -1.665403E+05 -4.297024E+02 -4.445410E+05  1.290614E+03 -1.701284E+03
        54   6 -1.182703E+06 -1.704322E+05 -9.674071E+02 -4.487125E+05  1.626488E+03 -1.933355E+03
        54   7 -1.260393E+06 -1.995069E+05 -2.117699E+04 -4.698849E+05  8.311771E+02 -1.481780E+03
        54   8 -1.272561E+06 -1.990304E+05 -2.377213E+04 -4.679833E+05  1.187334E+03 -1.740025E+03
        54   9 -1.277432E+06 -2.061489E+05 -2.658919E+04 -4.744963E+05  1.532477E+03 -1.968636E+03
        54  10 -1.104953E+06 -1.409756E+05  2.096336E+04 -4.276806E+05 -1.715024E-09 -5.465473E-12
        54  11 -1.100110E+06 -1.340497E+05  2.291208E+04 -4.210958E+05  4.164990E-10 -2.415241E-10
        54  12 -1.087965E+06 -1.347150E+05  2.465361E+04 -4.229252E+05 -2.076952E-09  6.455450E-10
        54  13 -1.182676E+06 -1.702414E+05 -1.065472E+02 -4.487840E+05 -2.052216E-09 -3.765401E-10
        54  14 -1.186339E+06 -1.665403E+05 -4.297110E+02 -4.445410E+05  1.133200E-09 -1.010168E-09
        54  15 -1.182703E+06 -1.704322E+05 -9.674191E+02 -4.487125E+05  2.659555E-09  1.021521E-09
        54  16 -1.260393E+06 -1.995069E+05 -2.117699E+04 -4.698849E+05  1.137206E-09 -5.336446E-10
        54  17 -1.272561E+06 -1.990304E+05 -2.377214E+04 -4.679833E+05  2.010078E-10 -5.257585E-10
        54  18 -1.277432E+06 -2.061489E+05 -2.658920E+04 -4.744963E+05  6.304296E-10  1.474304E-09
        54  19 -1.104953E+06 -1.409756E+05  2.096337E+04 -4.276806E+05 -1.056298E+03  1.397375E+03
        54  20 -1.100110E+06 -1.340497E+05  2.291209E+04 -4.210958E+05 -1.393909E+03  1.662537E+03
        54  21 -1.087965E+06 -1.347149E+05  2.465362E+04 -4.229252E+05 -1.720514E+03  1.898068E+03
        54  22 -1.182676E+06 -1.702414E+05 -1.065416E+02 -4.487840E+05 -9.437297E+02  1.439581E+03
        54  23 -1.186339E+06 -1.665403E+05 -4.297024E+02 -4.445410E+05 -1.290614E+03  1.701284E+03
        54  24 -1.182703E+06 -1.704322E+05 -9.674071E+02 -4.487125E+05 -1.626488E+03  1.933355E+03
        54  25 -1.260393E+06 -1.995069E+05 -2.117699E+04 -4.698849E+05 -8.311771E+02  1.481780E+03
        54  26 -1.272561E+06 -1.990304E+05 -2.377213E+04 -4.679833E+05 -1.187334E+03  1.740025E+03
        54  27 -1.277432E+06 -2.061489E+05 -2.658919E+04 -4.744963E+05 -1.532477E+03  1.968636E+03
        55   1 -1.067746E+06 -1.267039E+05  2.992536E+04 -4.173741E+05  1.991429E+03 -2.012988E+03
        55   2 -1.063411E+06 -1.203555E+05  3.087848E+04 -4.115141E+05  3.260978E+03 -1.886725E+03
        55   3 -1.053445E+06 -1.221604E+05  3.050325E+04 -4.125441E+05  4.501117E+03 -1.681643E+03
        55   4 -1.182999E+06 -1.700101E+05 -1.279932E+03 -4.485798E+05  1.882560E+03 -2.053858E+03
        55   5 -1.185904E+06 -1.665792E+05 -2.291635E+03 -4.448917E+05  3.176632E+03 -1.918418E+03
        55   6 -1.183183E+06 -1.713067E+05 -4.651382E+03 -4.480938E+05  4.441276E+03 -1.704157E+03
        55   7 -1.298239E+06 -2.133157E+05 -3.248647E+04 -4.797804E+05  1.773712E+03 -2.094720E+03
        55   8 -1.308382E+06 -2.128020E+05 -3.546312E+04 -4.782635E+05  3.092304E+03 -1.950103E+03
        55   9 -1.312904E+06 -2.204520E+05 -3.980753E+04 -4.836368E+05  4.381449E+03 -1.726666E+03
        55  10 -1.067746E+06 -1.267039E+05  2.992534E+04 -4.173741E+05  1.625535E-09  1.274025E-09
        55  11 -1.063411E+06 -1.203555E+05  3.087845E+04 -4.115141E+05  4.194441E-09 -1.147012E-09
        55  12 -1.053445E+06 -1.221604E+05  3.050321E+04 -4.125441E+05 -1.802834E-09 -1.059206E-09
        55  13 -1.182999E+06 -1.700102E+05 -1.279946E+03 -4.485798E+05  7.265781E-10  8.134322E-10
        55  14 -1.185904E+06 -1.665792E+05 -2.291661E+03 -4.448917E+05 -1.420749E-10 -1.552685E-09
        55  15 -1.183183E+06 -1.713067E+05 -4.651424E+03 -4.480938E+05 -3.780176E-09 -2.300264E-09
        55  16 -1.298239E+06 -2.133157E+05 -3.248648E+04 -4.797804E+05  2.024395E-10  9.587646E-10
        55  17 -1.308382E+06 -2.128020E+05 -3.546315E+04 -4.782635E+05 -8.577349E-10 -3.157811E-10
        55  18 -1.312904E+06 -2.204520E+05 -3.980757E+04 -4.836368E+05  6.264221E-11  8.067299E-10
        55  19 -1.067746E+06 -1.267039E+05  2.992536E+04 -4.173741E+05 -1.991429E+03  2.012988E+03
        55  20 -1.063411E+06 -1.203555E+05  3.087848E+04 -4.115141E+05 -3.260978E+03  1.886725E+03
        55  21 -1.053445E+06 -1.221604E+05  3.050325E+04 -4.125441E+05 -4.501117E+03  1.681643E+03
        55  22 -1.182999E+06 -1.700101E+05 -1.279932E+03 -4.485798E+05 -1.882560E+03  2.053858E+03
        55  23 -1.185904E+06 -1.665792E+05 -2.291635E+03 -4.448917E+05 -3.176632E+03  1.918418E+03
        55  24 -1.183183E+06 -1.713067E+05 -4.651382E+03 -4.480938E+05 -4.441276E+03  1.704157E+03
        55  25 -1.298239E+06 -2.133157E+05 -3.248647E+04 -4.797804E+05 -1.773712E+03  2.094720E+03
        55  26 -1.308382E+06 -2.128020E+05 -3.546312E+04 -4.782635E+05 -3.092304E+03  1.950103E+03
        55  27 -1.312904E+06 -2.204520E+05 -3.980753E+04 -4.836368E+05 -4.381449E+03  1.726666E+03
        56   1 -1.036389E+06 -1.148012E+05  3.390384E+04 -4.094658E+05  5.532896E+03 -1.531171E+03
        56   2 -1.032017E+06 -1.072225E+05  3.135885E+04 -4.035832E+05  1.077411E+04  1.285482E+02
        56   3 -1.028138E+06 -1.180050E+05  2.137428E+04 -4.001637E+05  1.586059E+04  2.200493E+03
        56   4 -1.183972E+06 -1.694921E+05 -5.887142E+03 -4.486457E+05  5.382534E+03 -1.587680E+03
        56   5 -1.184406E+06 -1.651845E+05 -9.988280E+03 -4.455796E+05  1.075198E+04  1.201582E+02
        56   6 -1.185360E+06 -1.792656E+05 -2.163218E+04 -4.449763E+05  1.596665E+04  2.240228E+03
        56   7 -1.331534E+06 -2.241818E+05 -4.567998E+04 -4.878173E+05  5.232210E+03 -1.644174E+03
        56   8 -1.336773E+06 -2.231451E+05 -5.133750E+04 -4.875668E+05  1.072986E+04  1.117704E+02
        56   9 -1.342558E+06 -2.405244E+05 -6.464098E+04 -4.897787E+05  1.607267E+04  2.279950E+03
        56  10 -1.036389E+06 -1.148012E+05  3.390378E+04 -4.094658E+05 -1.874745E-09  8.010374E-10
        56  11 -1.032018E+06 -1.072226E+05  3.135863E+04 -4.035832E+05  3.804790E-10  8.198535E-10
        56  12 -1.028139E+06 -1.180051E+05  2.137380E+04 -4.001637E+05 -1.448453E-09  2.198233E-10
        56  13 -1.183972E+06 -1.694921E+05 -5.887201E+03 -4.486457E+05 -6.205961E-10 -1.846263E-09
        56  14 -1.184407E+06 -1.651846E+05 -9.988498E+03 -4.455796E+05 -3.815520E-09 -8.163321E-10
        56  15 -1.185360E+06 -1.792657E+05 -2.163267E+04 -4.449764E+05  9.182691E-10 -4.418550E-10
        56  16 -1.331534E+06 -2.241819E+05 -4.568004E+04 -4.878173E+05 -7.777628E-10 -5.947318E-10
        56  17 -1.336773E+06 -2.231451E+05 -5.133771E+04 -4.875668E+05  3.286294E-11 -7.699881E-10
        56  18 -1.342559E+06 -2.405244E+05 -6.464147E+04 -4.897787E+05  3.626276E-10 -2.343877E-10
        56  19 -1.036389E+06 -1.148012E+05  3.390384E+04 -4.094658E+05 -5.532896E+03  1.531171E+03
        56  20 -1.032017E+06 -1.072225E+05  3.135885E+04 -4.035832E+05 -1.077411E+04 -1.285482E+02
        56  21 -1.028138E+06 -1.180050E+05  2.137428E+04 -4.001637E+05 -1.586059E+04 -2.200493E+03
        56  22 -1.183972E+06 -1.694921E+05 -5.887142E+03 -4.486457E+05 -5.382534E+03  1.587680E+03
        56  23 -1.184406E+06 -1.651845E+05 -9.988280E+03 -4.455796E+05 -1.075198E+04 -1.201582E+02
        56  24 -1.185360E+06 -1.792656E+05 -2.163218E+04 -4.449763E+05 -1.596665E+04 -2.240228E+03
        56  25 -1.331534E+06 -2.241818E+05 -4.567998E+04 -4.878173E+05 -5.232210E+03  1.644174E+03
        56  26 -1.336773E+06 -2.231451E+05 -5.133750E+04 -4.875668E+05 -1.072986E+04 -1.117704E+02
        56  27 -1.342558E+06 -2.405244E+05 -6.464098E+04 -4.897787E+05 -1.607267E+04 -2.279950E+03
        57   1 -1.012572E+06 -1.077876E+05  2.001456E+04 -4.103230E+05  2.070653E+04  3.351030E+03
        57   2 -1.003461E+06 -8.339354E+04  4.999509E+03 -3.970652E+05  4.319262E+04  1.139578E+04
        57   3 -1.031105E+06 -1.618032E+05 -5.388253E+04 -3.618980E+05  6.447329E+04  2.264422E+04
        57   4 -1.189094E+06 -1.672952E+05 -2.637302E+04 -4.511326E+05  2.008653E+04  3.118129E+03
        57   5 -1.175841E+06 -1.525422E+05 -4.240663E+04 -4.482664E+05  4.357281E+04  1.153836E+04
        57   6 -1.199554E+06 -2.408087E+05 -1.031105E+05 -4.234880E+05  6.585359E+04  2.316172E+04
        57   7 -1.365585E+06 -2.268024E+05 -7.276319E+04 -4.919324E+05  1.946673E+04  2.885282E+03
        57   8 -1.348192E+06 -2.216879E+05 -8.981546E+04 -4.994544E+05  4.395288E+04  1.168088E+04
        57   9 -1.367974E+06 -3.198077E+05 -1.523411E+05 -4.850612E+05  6.723347E+04  2.367899E+04
        57  10 -1.012573E+06 -1.077878E+05  2.001373E+04 -4.103230E+05  3.232484E-10  9.606650E-11
        57  11 -1.003463E+06 -8.339418E+04  4.995753E+03 -3.970656E+05  5.155126E-10  1.927923E-09
        57  12 -1.031110E+06 -1.618048E+05 -5.389132E+04 -3.618992E+05  2.349855E-10  1.787363E-09
        57  13 -1.189094E+06 -1.672953E+05 -2.637380E+04 -4.511326E+05  2.618554E-09 -8.217668E-10
        57  14 -1.175843E+06 -1.525428E+05 -4.241046E+04 -4.482668E+05 -3.350569E-09 -9.857950E-11
        57  15 -1.199559E+06 -2.408104E+05 -1.031197E+05 -4.234892E+05 -2.722571E-09  3.037830E-10
        57  16 -1.365585E+06 -2.268025E+05 -7.276392E+04 -4.919324E+05 -5.518446E-10 -3.582248E-10
        57  17 -1.348194E+06 -2.216886E+05 -8.981936E+04 -4.994549E+05 -2.323036E-09 -1.409478E-09
        57  18 -1.367979E+06 -3.198095E+05 -1.523507E+05 -4.850625E+05 -1.772593E-09 -1.202511E-10
        57  19 -1.012572E+06 -1.077876E+05  2.001456E+04 -4.103230E+05 -2.070653E+04 -3.351030E+03
        57  20 -1.003461E+06 -8.339354E+04  4.999509E+03 -3.970652E+05 -4.319262E+04 -1.139578E+04
        57  21 -1.031105E+06 -1.618032E+05 -5.388253E+04 -3.618980E+05 -6.447329E+04 -2.264422E+04
        57  22 -1.189094E+06 -1.672952E+05 -2.637302E+04 -4.511326E+05 -2.008653E+04 -3.118129E+03
        57  23 -1.175841E+06 -1.525422E+05 -4.240663E+04 -4.482664E+05 -4.357281E+04 -1.153836E+04
        57  24 -1.199554E+06 -2.408087E+05 -1.031105E+05 -4.234880E+05 -6.585359E+04 -2.316172E+04
        57  25 -1.365585E+06 -2.268024E+05 -7.276319E+04 -4.919324E+05 -1.946673E+04 -2.885282E+03
        57  26 -1.348192E+06 -2.216879E+05 -8.981546E+04 -4.994544E+05 -4.395288E+04 -1.168088E+04
        57  27 -1.367974E+06 -3.198077E+05 -1.523411E+05 -4.850612E+05 -6.723347E+04 -2.367899E+04
        58   1 -1.559693E+05  6.569951E+04  8.455473E+04  1.463083E+04  5.776075E+04  1.361557E+00
        58   2 -1.683033E+05 -1.272106E+04  3.649350E+04  3.941230E+03  3.792413E+04  2.408163E-01
        58   3 -1.559762E+05 -2.841280E+03  2.342625E+04 -6.748338E+03  1.808709E+04 -1.966508E-01
        58   4 -1.559695E+05  6.569911E+04  8.455467E+04  7.336626E-09  5.776075E+04 -7.086408E-10
        58   5 -1.683033E+05 -1.272109E+04  3.649349E+04  1.708668E-08  3.792413E+04 -8.852742E-10
        58   6 -1.559763E+05 -2.841366E+03  2.342623E+04  4.514481E-08  1.808709E+04  8.851298E-11
        58   7 -1.559693E+05  6.569951E+04  8.455473E+04 -1.463083E+04  5.776075E+04 -1.361557E+00
        58   8 -1.683033E+05 -1.272106E+04  3.649350E+04 -3.941230E+03  3.792413E+04 -2.408163E-01
        58   9 -1.559762E+05 -2.841280E+03  2.342625E+04  6.748338E+03  1.808709E+04  1.966508E-01
        58  10 -1.559728E+05  6.569862E+04  8.454846E+04  1.463083E+04  7.416118E-10 -6.800322E-11
        58  11 -1.683048E+05 -1.272144E+04  3.649079E+04  3.941230E+03  3.426657E-09 -3.284383E-10
        58  12 -1.559766E+05 -2.841368E+03  2.342563E+04 -6.748338E+03 -9.501090E-10 -5.505042E-11
        58  13 -1.559731E+05  6.569822E+04  8.454840E+04 -9.909156E-09 -1.147913E-09 -1.476182E-10
        58  14 -1.683048E+05 -1.272147E+04  3.649079E+04  1.277658E-08  1.014390E-09 -4.271611E-10
        58  15 -1.559766E+05 -2.841453E+03  2.342562E+04  1.177214E-08  6.256566E-10 -2.717624E-10
        58  16 -1.559728E+05  6.569862E+04  8.454846E+04 -1.463083E+04 -7.392333E-10 -1.869316E-10
        58  17 -1.683048E+05 -1.272144E+04  3.649079E+04 -3.941230E+03 -1.696282E-09 -5.580761E-10
        58  18 -1.559766E+05 -2.841368E+03  2.342563E+04  6.748338E+03 -1.563174E-09 -5.364755E-10
        58  19 -1.559693E+05  6.569951E+04  8.455473E+04  1.463083E+04 -5.776075E+04 -1.361557E+00
        58  20 -1.683033E+05 -1.272106E+04  3.649350E+04  3.941230E+03 -3.792413E+04 -2.408163E-01
        58  21 -1.559762E+05 -2.841280E+03  2.342625E+04 -6.748338E+03 -1.808709E+04  1.966508E-01
        58  22 -1.559695E+05  6.569911E+04  8.455467E+04 -1.309533E-09 -5.776075E+04  3.859237E-10
        58  23 -1.683033E+05 -1.272109E+04  3.649349E+04 -1.306893E-08 -3.792413E+04  3.599596E-11
        58  24 -1.559763E+05 -2.841366E+03  2.342623E+04  2.578492E-08 -1.808709E+04 -6.203978E-10
        58  25 -1.559693E+05  6.569951E+04  8.455473E+04 -1.463083E+04 -5.776075E+04  1.361557E+00
        58  26 -1.683033E+05 -1.272106E+04  3.649350E+04 -3.941230E+03 -3.792413E+04  2.408163E-01
        58  27 -1.559762E+05 -2.841280E+03  2.342625E+04  6.748338E+03 -1.808709E+04 -1.966508E-01
        59   1 -1.606730E+05  8.546258E+03  1.926408E+04  1.778034E+03  1.431967E+04  4.102103E-02
        59   2 -1.624333E+05 -1.669412E+03  9.449946E+03  4.338008E+02  9.415899E+03  6.580913E-03
        59   3 -1.606741E+05 -3.629130E+02  5.709668E+03 -9.104324E+02  4.512141E+03 -6.618556E-03
        59   4 -1.606730E+05  8.546252E+03  1.926408E+04  1.902881E-08  1.431967E+04  2.782220E-10
        59   5 -1.624333E+05 -1.669412E+03  9.449946E+03  5.731123E-11  9.415899E+03 -5.843058E-11
        59   6 -1.606741E+05 -3.629146E+02  5.709668E+03  3.923982E-08  4.512141E+03  3.933963E-10
        59   7 -1.606730E+05  8.546258E+03  1.926408E+04 -1.778034E+03  1.431967E+04 -4.102103E-02
        59   8 -1.624333E+05 -1.669412E+03  9.449946E+03 -4.338008E+02  9.415899E+03 -6.580914E-03
        59   9 -1.606741E+05 -3.629130E+02  5.709668E+03  9.104324E+02  4.512141E+03  6.618557E-03
        59  10 -1.606733E+05  8.546203E+03  1.926370E+04  1.778034E+03 -2.396260E-10  3.766733E-10
        59  11 -1.624334E+05 -1.669435E+03  9.449779E+03  4.338008E+02 -1.307662E-09  3.996423E-10
        59  12 -1.606741E+05 -3.629185E+02  5.709630E+03 -9.104324E+02  6.534604E-10 -4.914096E-10
        59  13 -1.606733E+05  8.546197E+03  1.926370E+04 -6.794335E-09 -5.506261E-11  1.415711E-10
        59  14 -1.624334E+05 -1.669436E+03  9.449779E+03 -8.566549E-09  9.880095E-10  4.120793E-10
        59  15 -1.606741E+05 -3.629201E+02  5.709630E+03  1.550710E-08 -2.141652E-10 -4.449608E-10
        59  16 -1.606733E+05  8.546203E+03  1.926370E+04 -1.778034E+03  2.640031E-10 -1.840207E-11
        59  17 -1.624334E+05 -1.669435E+03  9.449779E+03 -4.338008E+02 -1.204295E-09  4.416311E-10
        59  18 -1.606741E+05 -3.629185E+02  5.709630E+03  9.104324E+02 -1.172892E-09 -3.273392E-10
        59  19 -1.606730E+05  8.546258E+03  1.926408E+04  1.778034E+03 -1.431967E+04 -4.102103E-02
        59  20 -1.624333E+05 -1.669412E+03  9.449946E+03  4.338008E+02 -9.415899E+03 -6.580913E-03
        59  21 -1.606741E+05 -3.629130E+02  5.709668E+03 -9.104324E+02 -4.512141E+03  6.618555E-03
        59  22 -1.606730E+05  8.546252E+03  1.926408E+04  1.907435E-08 -1.431967E+04  1.180788E-11
        59  23 -1.624333E+05 -1.669412E+03  9.449946E+03  4.347481E-09 -9.415899E+03  8.565390E-10
        59  24 -1.606741E+05 -3.629146E+02  5.709668E+03  5.773580E-09 -4.512141E+03 -1.284593E-09
        59  25 -1.606730E+05  8.546258E+03  1.926408E+04 -1.778034E+03 -1.431967E+04  4.102103E-02
        59  26 -1.624333E+05 -1.669412E+03  9.449946E+03 -4.338008E+02 -9.415899E+03  6.580915E-03
        59  27 -1.606741E+05 -3.629130E+02  5.709668E+03  9.104324E+02 -4.512141E+03 -6.618558E-03
        60   1 -1.613399E+05  1.102196E+03  4.492763E+03  1.966030E+02  3.600759E+03  1.140559E-03
        60   2 -1.616013E+05 -2.174660E+02  2.288439E+03  3.478430E+01  2.440059E+03  1.367471E-04
        60   3 -1.613401E+05 -5.107140E+01  1.211429E+03 -1.270322E+02  1.279377E+03 -2.618449E-04
        60   4 -1.613399E+05  1.102196E+03  4.492763E+03  2.998031E-08  3.600759E+03  6.374774E-10
        60   5 -1.616013E+05 -2.174660E+02  2.288439E+03  4.966897E-09  2.440059E+03  5.315203E-10
        60   6 -1.613401E+05 -5.107143E+01  1.211429E+03  6.876783E-09  1.279377E+03  5.258423E-10
        60   7 -1.613399E+05  1.102196E+03  4.492763E+03 -1.966030E+02  3.600759E+03 -1.140558E-03
        60   8 -1.616013E+05 -2.174660E+02  2.288439E+03 -3.478430E+01  2.440059E+03 -1.367460E-04
        60   9 -1.613401E+05 -5.107140E+01  1.211429E+03  1.270322E+02  1.279377E+03  2.618461E-04
        60  10 -1.613399E+05  1.102192E+03  4.492738E+03  1.966030E+02  3.973335E-10 -3.095058E-10
        60  11 -1.616013E+05 -2.174676E+02  2.288428E+03  3.478430E+01 -9.881808E-10  6.850401E-10
        60  12 -1.613401E+05 -5.107184E+01  1.211426E+03 -1.270322E+02 -2.756130E-10  6.136973E-11
        60  13 -1.613399E+05  1.102192E+03  4.492738E+03  1.281171E-08 -1.022559E-09 -1.981193E-10
        60  14 -1.616013E+05 -2.174676E+02  2.288428E+03  6.607958E-10  4.693555E-28  8.818939E-10
        60  15 -1.613401E+05 -5.107187E+01  1.211426E+03 -4.379684E-08  3.486644E-09 -1.186212E-10
        60  16 -1.613399E+05  1.102192E+03  4.492738E+03 -1.966030E+02 -1.393769E-09 -4.039783E-11
        60  17 -1.616013E+05 -2.174676E+02  2.288428E+03 -3.478430E+01  6.400312E-10  1.040652E-09
        60  18 -1.613401E+05 -5.107184E+01  1.211426E+03  1.270322E+02 -5.216338E-10 -3.010533E-10
        60  19 -1.613399E+05  1.102196E+03  4.492763E+03  1.966030E+02 -3.600759E+03 -1.140559E-03
        60  20 -1.616013E+05 -2.174660E+02  2.288439E+03  3.478430E+01 -2.440059E+03 -1.367456E-04
        60  21 -1.613401E+05 -5.107140E+01  1.211429E+03 -1.270322E+02 -1.279377E+03  2.618452E-04
        60  22 -1.613399E+05  1.102196E+03  4.492763E+03  1.287336E-08 -3.600759E+03 -1.036759E-09
        60  23 -1.616013E+05 -2.174660E+02  2.288439E+03 -7.953115E-09 -2.440059E+03  1.212715E-09
        60  24 -1.613401E+05 -5.107143E+01  1.211429E+03 -1.856684E-09 -1.279377E+03 -7.572776E-10
        60  25 -1.613399E+05  1.102196E+03  4.492763E+03 -1.966030E+02 -3.600759E+03  1.140558E-03
        60  26 -1.616013E+05 -2.174660E+02  2.288439E+03 -3.478430E+01 -2.440059E+03  1.367479E-04
        60  27 -1.613401E+05 -5.107140E+01  1.211429E+03  1.270322E+02 -1.279377E+03 -2.618466E-04
        61   1 -1.614480E+05  1.413756E+02  8.251906E+02  8.559640E+00  1.096421E+03  1.512045E-05
        61   2 -1.614666E+05 -1.676177E+01  1.243951E+02 -4.565727E+00  1.032618E+03 -7.597405E-06
        61   3 -1.614480E+05 -5.962779E+01 -5.060300E+02 -1.769130E+01  9.688143E+02 -2.761404E-05
        61   4 -1.614480E+05  1.413756E+02  8.251906E+02  8.412370E-09  1.096421E+03 -2.111407E-10
        61   5 -1.614666E+05 -1.676177E+01  1.243951E+02 -1.318378E-08  1.032618E+03 -1.243888E-09
        61   6 -1.614480E+05 -5.962779E+01 -5.060300E+02 -2.293425E-08  9.688143E+02  2.626560E-10
        61   7 -1.614480E+05  1.413756E+02  8.251906E+02 -8.559639E+00  1.096421E+03 -1.512092E-05
        61   8 -1.614666E+05 -1.676177E+01  1.243951E+02  4.565727E+00  1.032618E+03  7.594857E-06
        61   9 -1.614480E+05 -5.962779E+01 -5.060300E+02  1.769130E+01  9.688143E+02  2.761456E-05
        61  10 -1.614480E+05  1.413753E+02  8.251883E+02  8.559639E+00 -7.391060E-10 -4.367409E-10
        61  11 -1.614666E+05 -1.676205E+01  1.243931E+02 -4.565727E+00 -1.911065E-09 -3.819015E-10
        61  12 -1.614480E+05 -5.962804E+01 -5.060317E+02 -1.769130E+01  1.258575E-09 -1.765234E-10
        61  13 -1.614480E+05  1.413753E+02  8.251883E+02  8.430641E-09  6.309577E-12 -5.912338E-10
        61  14 -1.614666E+05 -1.676205E+01  1.243931E+02 -2.547491E-10  2.918207E-11 -1.883232E-10
        61  15 -1.614480E+05 -5.962804E+01 -5.060317E+02 -2.401720E-08  6.158175E-10 -1.750159E-10
        61  16 -1.614480E+05  1.413753E+02  8.251883E+02 -8.559639E+00  1.819877E-10 -7.373800E-10
        61  17 -1.614666E+05 -1.676205E+01  1.243931E+02  4.565727E+00 -4.546565E-10  2.776786E-11
        61  18 -1.614480E+05 -5.962804E+01 -5.060317E+02  1.769130E+01 -9.153714E-10 -1.695220E-10
        61  19 -1.614480E+05  1.413756E+02  8.251906E+02  8.559640E+00 -1.096421E+03 -1.512128E-05
        61  20 -1.614666E+05 -1.676177E+01  1.243951E+02 -4.565727E+00 -1.032618E+03  7.596786E-06
        61  21 -1.614480E+05 -5.962779E+01 -5.060300E+02 -1.769130E+01 -9.688143E+02  2.761370E-05
        61  22 -1.614480E+05  1.413756E+02  8.251906E+02  1.706441E-08 -1.096421E+03 -9.703529E-10
        61  23 -1.614666E+05 -1.676177E+01  1.243951E+02  2.128918E-08 -1.032618E+03  8.773254E-10
        61  24 -1.614480E+05 -5.962779E+01 -5.060300E+02  7.452261E-10 -9.688143E+02 -6.069442E-10
        61  25 -1.614480E+05  1.413756E+02  8.251906E+02 -8.559639E+00 -1.096421E+03  1.511934E-05
        61  26 -1.614666E+05 -1.676177E+01  1.243951E+02  4.565727E+00 -1.032618E+03 -7.595048E-06
        61  27 -1.614480E+05 -5.962779E+01 -5.060300E+02  1.769130E+01 -9.688143E+02 -2.761489E-05
        62   1 -1.615145E+05  3.374780E+01 -8.502145E+02 -5.690392E+01  1.091249E+03 -1.000448E-04
        62   2 -1.613835E+05  8.754086E+01 -1.772816E+03 -2.471366E+00  1.978808E+03 -7.878835E-06
        62   3 -1.615147E+05 -4.448767E+02 -3.419916E+03  5.196124E+01  2.866365E+03  2.399616E-04
        62   4 -1.615145E+05  3.374779E+01 -8.502145E+02  1.351782E-08  1.091249E+03  9.653148E-10
        62   5 -1.613835E+05  8.754086E+01 -1.772816E+03  2.104297E-08  1.978808E+03  1.171681E-10
        62   6 -1.615147E+05 -4.448767E+02 -3.419916E+03  1.026046E-08  2.866365E+03 -1.221089E-09
        62   7 -1.615145E+05  3.374780E+01 -8.502145E+02  5.690392E+01  1.091249E+03  1.000467E-04
        62   8 -1.613835E+05  8.754086E+01 -1.772816E+03  2.471366E+00  1.978808E+03  7.878940E-06
        62   9 -1.615147E+05 -4.448767E+02 -3.419916E+03 -5.196124E+01  2.866365E+03 -2.399641E-04
        62  10 -1.615145E+05  3.374748E+01 -8.502167E+02 -5.690392E+01 -1.307538E-09  2.295355E-10
        62  11 -1.613835E+05  8.753981E+01 -1.772823E+03 -2.471366E+00 -1.543325E-09  4.670948E-10
        62  12 -1.615147E+05 -4.448789E+02 -3.419932E+03  5.196124E+01 -3.907588E-10 -5.134093E-10
        62  13 -1.615145E+05  3.374747E+01 -8.502167E+02 -2.091789E-08  2.045811E-09  4.577348E-11
        62  14 -1.613835E+05  8.753981E+01 -1.772823E+03  4.257377E-08 -1.143056E-10  3.484040E-10
        62  15 -1.615147E+05 -4.448789E+02 -3.419932E+03  2.852855E-08 -2.171423E-09 -4.659182E-10
        62  16 -1.615145E+05  3.374748E+01 -8.502167E+02  5.690392E+01  1.973261E-10 -1.126503E-10
        62  17 -1.613835E+05  8.753981E+01 -1.772823E+03  2.471366E+00  1.783448E-09  2.472831E-10
        62  18 -1.615147E+05 -4.448789E+02 -3.419932E+03 -5.196124E+01  1.019223E-09 -4.150455E-10
        62  19 -1.615145E+05  3.374780E+01 -8.502145E+02 -5.690392E+01 -1.091249E+03  1.000452E-04
        62  20 -1.613835E+05  8.754086E+01 -1.772816E+03 -2.471366E+00 -1.978808E+03  7.879919E-06
        62  21 -1.615147E+05 -4.448767E+02 -3.419916E+03  5.196124E+01 -2.866365E+03 -2.399627E-04
        62  22 -1.615145E+05  3.374779E+01 -8.502145E+02  3.079785E-08 -1.091249E+03 -8.705724E-10
        62  23 -1.613835E+05  8.754086E+01 -1.772816E+03  4.687396E-08 -1.978808E+03  5.768979E-10
        62  24 -1.615147E+05 -4.448767E+02 -3.419916E+03  2.848898E-08 -2.866365E+03  2.629425E-10
        62  25 -1.615145E+05  3.374780E+01 -8.502145E+02  5.690392E+01 -1.091249E+03 -1.000471E-04
        62  26 -1.613835E+05  8.754086E+01 -1.772816E+03  2.471366E+00 -1.978808E+03 -7.878758E-06
        62  27 -1.615147E+05 -4.448767E+02 -3.419916E+03 -5.196124E+01 -2.866365E+03  2.399630E-04
        63   1 -1.618322E+05  1.447759E+02 -4.458489E+03 -3.991576E+02  3.574922E+03 -2.299029E-03
        63   2 -1.609869E+05  6.961244E+02 -7.620643E+03  1.151012E+02  7.436203E+03  1.379000E-03
        63   3 -1.618327E+05 -3.505212E+03 -1.448524E+04  6.293535E+02  1.129741E+04  1.145530E-02
        63   4 -1.618322E+05  1.447756E+02 -4.458489E+03  1.479532E-08  3.574922E+03 -3.555412E-10
        63   5 -1.609869E+05  6.961244E+02 -7.620643E+03  1.236457E-08  7.436203E+03  1.462986E-09
        63   6 -1.618327E+05 -3.505212E+03 -1.448524E+04  2.716342E-08  1.129741E+04 -1.141134E-09
        63   7 -1.618322E+05  1.447759E+02 -4.458489E+03  3.991576E+02  3.574922E+03  2.299028E-03
        63   8 -1.609869E+05  6.961244E+02 -7.620643E+03 -1.151012E+02  7.436203E+03 -1.378998E-03
        63   9 -1.618327E+05 -3.505212E+03 -1.448524E+04 -6.293535E+02  1.129741E+04 -1.145530E-02
        63  10 -1.618322E+05  1.447725E+02 -4.458513E+03 -3.991576E+02 -7.688250E-10 -3.044474E-10
        63  11 -1.609869E+05  6.961095E+02 -7.620747E+03  1.151012E+02 -3.262308E-09  6.518096E-10
        63  12 -1.618329E+05 -3.505246E+03 -1.448548E+04  6.293535E+02 -1.088256E-09 -7.871294E-10
        63  13 -1.618322E+05  1.447722E+02 -4.458513E+03 -2.370169E-09 -1.076900E-09 -1.638913E-10
        63  14 -1.609869E+05  6.961095E+02 -7.620747E+03  5.112465E-08  4.365272E-09  8.045442E-10
        63  15 -1.618329E+05 -3.505247E+03 -1.448548E+04  3.138969E-08  2.463430E-11 -7.270077E-10
        63  16 -1.618322E+05  1.447725E+02 -4.458513E+03  3.991576E+02  1.868257E-09 -1.969126E-11
        63  17 -1.609869E+05  6.961095E+02 -7.620747E+03 -1.151012E+02 -3.348384E-10  9.622793E-10
        63  18 -1.618329E+05 -3.505246E+03 -1.448548E+04 -6.293535E+02 -1.537492E-11 -6.658152E-10
        63  19 -1.618322E+05  1.447759E+02 -4.458489E+03 -3.991576E+02 -3.574922E+03  2.299028E-03
        63  20 -1.609869E+05  6.961244E+02 -7.620643E+03  1.151012E+02 -7.436203E+03 -1.378998E-03
        63  21 -1.618327E+05 -3.505212E+03 -1.448524E+04  6.293535E+02 -1.129741E+04 -1.145530E-02
        63  22 -1.618322E+05  1.447756E+02 -4.458489E+03  1.492487E-08 -3.574922E+03  3.124068E-11
        63  23 -1.609869E+05  6.961244E+02 -7.620643E+03  3.819367E-08 -7.436203E+03  1.484568E-10
        63  24 -1.618327E+05 -3.505212E+03 -1.448524E+04  3.561589E-08 -1.129741E+04 -2.512788E-10
        63  25 -1.618322E+05  1.447759E+02 -4.458489E+03  3.991576E+02 -3.574922E+03 -2.299028E-03
        63  26 -1.609869E+05  6.961244E+02 -7.620643E+03 -1.151012E+02 -7.436203E+03  1.378999E-03
        63  27 -1.618327E+05 -3.505212E+03 -1.448524E+04 -6.293535E+02 -1.129741E+04  1.145530E-02
        64   1 -1.639450E+05  1.152726E+03 -1.830751E+04 -2.893720E+03  1.422731E+04 -6.633054E-02
        64   2 -1.583467E+05  5.310184E+03 -3.013613E+04  1.381073E+03  2.986487E+04  6.645194E-02
        64   3 -1.639473E+05 -2.718115E+04 -6.130818E+04  5.655932E+03  4.550251E+04  4.146406E-01
        64   4 -1.639450E+05  1.152711E+03 -1.830751E+04  2.797578E-08  1.422731E+04 -1.536324E-09
        64   5 -1.583467E+05  5.310181E+03 -3.013613E+04  1.963154E-08  2.986487E+04  8.929951E-10
        64   6 -1.639473E+05 -2.718121E+04 -6.130818E+04  1.882471E-08  4.550251E+04  4.051168E-10
        64   7 -1.639450E+05  1.152726E+03 -1.830751E+04  2.893720E+03  1.422731E+04  6.633054E-02
        64   8 -1.583467E+05  5.310184E+03 -3.013613E+04 -1.381073E+03  2.986487E+04 -6.645194E-02
        64   9 -1.639473E+05 -2.718115E+04 -6.130818E+04 -5.655932E+03  4.550251E+04 -4.146406E-01
        64  10 -1.639453E+05  1.152672E+03 -1.830789E+04 -2.893720E+03 -1.142836E-09 -9.862121E-10
        64  11 -1.583477E+05  5.309945E+03 -3.013780E+04  1.381073E+03 -8.485777E-10  4.027852E-10
        64  12 -1.639495E+05 -2.718170E+04 -6.131207E+04  5.655932E+03  1.295121E-09  3.448340E-10
        64  13 -1.639453E+05  1.152656E+03 -1.830789E+04  6.248713E-08 -2.157980E-09 -1.100147E-09
        64  14 -1.583477E+05  5.309941E+03 -3.013781E+04  1.965492E-08  2.103167E-12  1.632306E-10
        64  15 -1.639495E+05 -2.718176E+04 -6.131208E+04  1.774543E-08  2.126007E-09  5.088725E-10
        64  16 -1.639453E+05  1.152672E+03 -1.830789E+04  2.893720E+03  3.244826E-11 -1.213239E-09
        64  17 -1.583477E+05  5.309945E+03 -3.013780E+04 -1.381073E+03 -1.175590E-09 -8.685767E-11
        64  18 -1.639495E+05 -2.718170E+04 -6.131207E+04 -5.655932E+03 -4.248820E-10  6.609772E-10
        64  19 -1.639450E+05  1.152726E+03 -1.830751E+04 -2.893720E+03 -1.422731E+04  6.633054E-02
        64  20 -1.583467E+05  5.310184E+03 -3.013613E+04  1.381073E+03 -2.986487E+04 -6.645194E-02
        64  21 -1.639473E+05 -2.718115E+04 -6.130818E+04  5.655932E+03 -4.550251E+04 -4.146406E-01
        64  22 -1.639450E+05  1.152711E+03 -1.830751E+04  3.669159E-08 -1.422731E+04 -6.625261E-10
        64  23 -1.583467E+05  5.310181E+03 -3.013613E+04  1.967846E-08 -2.986487E+04 -5.699660E-10
        64  24 -1.639473E+05 -2.718121E+04 -6.130818E+04  2.635658E-08 -4.550251E+04  6.103339E-10
        64  25 -1.639450E+05  1.152726E+03 -1.830751E+04  2.893720E+03 -1.422731E+04 -6.633054E-02
        64  26 -1.583467E+05  5.310184E+03 -3.013613E+04 -1.381073E+03 -2.986487E+04  6.645194E-02
        64  27 -1.639473E+05 -2.718115E+04 -6.130818E+04 -5.655932E+03 -4.550251E+04  4.146406E-01
        65   1 -1.788816E+05  9.038542E+03 -7.452746E+04 -2.146225E+04  5.748765E+04 -1.987892E+00
        65   2 -1.396719E+05  4.046052E+04 -1.160366E+05  1.253722E+04  1.205907E+05  2.435742E+00
        65   3 -1.788861E+05 -2.089473E+05 -2.688285E+05  4.653471E+04  1.836949E+05  1.377226E+01
        65   4 -1.788821E+05  9.037676E+03 -7.452758E+04 -2.137412E-08  5.748765E+04  3.440010E-10
        65   5 -1.396721E+05  4.046022E+04 -1.160366E+05 -1.658925E-09  1.205907E+05  1.380590E-09
        65   6 -1.788884E+05 -2.089513E+05 -2.688291E+05  2.236143E-08  1.836949E+05 -1.493373E-09
        65   7 -1.788816E+05  9.038542E+03 -7.452746E+04  2.146225E+04  5.748765E+04  1.987892E+00
        65   8 -1.396719E+05  4.046052E+04 -1.160366E+05 -1.253722E+04  1.205907E+05 -2.435742E+00
        65   9 -1.788861E+05 -2.089473E+05 -2.688285E+05 -4.653471E+04  1.836949E+05 -1.377226E+01
        65  10 -1.788852E+05  9.037655E+03 -7.453367E+04 -2.146225E+04 -3.115562E-10  4.699816E-14
        65  11 -1.396876E+05  4.045661E+04 -1.160639E+05  1.253722E+04  6.490677E-10 -1.022986E-10
        65  12 -1.789223E+05 -2.089563E+05 -2.688920E+05  4.653471E+04  1.907760E-10 -1.245357E-10
        65  13 -1.788857E+05  9.036789E+03 -7.453379E+04 -4.724270E-08  2.307628E-09  1.763294E-10
        65  14 -1.396877E+05  4.045632E+04 -1.160640E+05  2.644221E-09 -1.220248E-09 -3.323758E-10
        65  15 -1.789247E+05 -2.089604E+05 -2.688925E+05  1.160745E-08 -6.898506E-10 -1.783324E-10
        65  16 -1.788852E+05  9.037655E+03 -7.453367E+04  2.146225E+04 -1.355629E-09  4.122216E-10
        65  17 -1.396876E+05  4.045661E+04 -1.160639E+05 -1.253722E+04 -9.611720E-10 -5.749257E-10
        65  18 -1.789223E+05 -2.089563E+05 -2.688920E+05 -4.653471E+04  8.706876E-10 -2.019733E-10
        65  19 -1.788816E+05  9.038542E+03 -7.452746E+04 -2.146225E+04 -5.748765E+04  1.987892E+00
        65  20 -1.396719E+05  4.046052E+04 -1.160366E+05  1.253722E+04 -1.205907E+05 -2.435742E+00
        65  21 -1.788861E+05 -2.089473E+05 -2.688285E+05  4.653471E+04 -1.836949E+05 -1.377226E+01
        65  22 -1.788821E+05  9.037676E+03 -7.452758E+04 -2.142069E-08 -5.748765E+04 -3.321644E-12
        65  23 -1.396721E+05  4.046022E+04 -1.160366E+05 -1.668921E-09 -1.205907E+05 -2.002485E-09
        65  24 -1.788884E+05 -2.089513E+05 -2.688291E+05  6.007745E-08 -1.836949E+05  1.702371E-10
        65  25 -1.788816E+05  9.038542E+03 -7.452746E+04  2.146225E+04 -5.748765E+04 -1.987892E+00
        65  26 -1.396719E+05  4.046052E+04 -1.160366E+05 -1.253722E+04 -1.205907E+05  2.435742E+00
        65  27 -1.788861E+05 -2.089473E+05 -2.688285E+05 -4.653471E+04 -1.836949E+05  1.377226E+01
        66   1  2.438841E+04 -5.000163E+05  2.063640E+04  6.645741E+03  1.168228E+03 -1.142043E+04
        66   2  4.168463E+04 -4.912786E+05  3.213048E+04  8.973283E+02  3.635307E+03 -8.685911E+03
        66   3  4.197414E+04 -4.870839E+05  3.760517E+04  2.444269E+03  3.703851E+03 -5.951374E+03
        66   4 -1.334136E+04 -6.510446E+05 -1.688918E+04  3.753806E+03  1.168340E+03 -1.264942E+04
        66   5  2.464015E+03 -6.487002E+05 -6.454641E+03  1.066132E+02  3.635453E+03 -9.110203E+03
        66   6  1.120587E+03 -6.510397E+05 -2.599797E+03  3.754952E+03  3.703782E+03 -5.570973E+03
        66   7 -5.107281E+04 -8.020522E+05 -5.441645E+04  8.625754E+02  1.168464E+03 -1.387812E+04
        66   8 -3.675843E+04 -8.060991E+05 -4.504158E+04 -6.838999E+02  3.635601E+03 -9.534388E+03
        66   9 -3.973496E+04 -8.149709E+05 -4.280673E+04  5.065290E+03  3.703713E+03 -5.190672E+03
        66  10  2.438838E+04 -5.000164E+05  2.063615E+04  6.645751E+03 -4.042360E-10  2.968002E-09
        66  11  4.168459E+04 -4.912787E+05  3.213031E+04  8.973537E+02 -8.913330E-10 -1.334798E-10
        66  12  4.197412E+04 -4.870839E+05  3.760507E+04  2.444287E+03 -3.061956E-10 -3.176483E-09
        66  13 -1.334140E+04 -6.510448E+05 -1.688948E+04  3.753818E+03 -1.476036E-09 -3.563384E-11
        66  14  2.463979E+03 -6.487003E+05 -6.454822E+03  1.066398E+02  1.416356E-09 -8.836329E-11
        66  15  1.120563E+03 -6.510397E+05 -2.599881E+03  3.754969E+03  1.218086E-09 -4.926735E-11
        66  16 -5.107286E+04 -8.020524E+05 -5.441681E+04  8.625885E+02  7.782718E-10 -3.013483E-09
        66  17 -3.675847E+04 -8.060992E+05 -4.504178E+04 -6.838720E+02  4.431524E-10  3.443666E-10
        66  18 -3.973498E+04 -8.149709E+05 -4.280681E+04  5.065305E+03  3.064243E-09  3.394763E-09
        66  19  2.438841E+04 -5.000163E+05  2.063640E+04  6.645741E+03 -1.168228E+03  1.142043E+04
        66  20  4.168463E+04 -4.912786E+05  3.213048E+04  8.973283E+02 -3.635307E+03  8.685911E+03
        66  21  4.197414E+04 -4.870839E+05  3.760517E+04  2.444269E+03 -3.703851E+03  5.951374E+03
        66  22 -1.334136E+04 -6.510446E+05 -1.688918E+04  3.753806E+03 -1.168340E+03  1.264942E+04
        66  23  2.464015E+03 -6.487002E+05 -6.454641E+03  1.066132E+02 -3.635453E+03  9.110203E+03
        66  24  1.120587E+03 -6.510397E+05 -2.599797E+03  3.754952E+03 -3.703782E+03  5.570973E+03
        66  25 -5.107281E+04 -8.020522E+05 -5.441645E+04  8.625754E+02 -1.168464E+03  1.387812E+04
        66  26 -3.675843E+04 -8.060991E+05 -4.504158E+04 -6.838999E+02 -3.635601E+03  9.534388E+03
        66  27 -3.973496E+04 -8.149709E+05 -4.280673E+04  5.065290E+03 -3.703713E+03  5.190672E+03
        67   1  4.244559E+04 -4.717765E+05  4.263512E+04  3.386828E+03  3.538384E+03 -4.977368E+03
        67   2  4.524587E+04 -4.667094E+05  4.784745E+04  6.004746E+02  4.017892E+03 -6.654940E+03
        67   3  5.153877E+04 -4.604563E+05  5.504505E+04  4.142680E+03  3.827452E+03 -8.332833E+03
        67   4 -1.919734E+03 -6.497468E+05 -1.111225E+03  3.537968E+03  3.538560E+03 -5.249592E+03
        67   5 -5.085735E+02 -6.503189E+05  2.795226E+03  3.756051E+02  4.017998E+03 -6.701788E+03
        67   6  4.356622E+03 -6.497440E+05  8.530736E+03  3.541915E+03  3.827405E+03 -8.154288E+03
        67   7 -4.628742E+04 -8.276882E+05 -4.485990E+04  3.689068E+03  3.538735E+03 -5.521738E+03
        67   8 -4.626552E+04 -8.338977E+05 -4.225947E+04  1.508068E+02  4.018105E+03 -6.748622E+03
        67   9 -4.282819E+04 -8.389990E+05 -3.798621E+04  2.941339E+03  3.827357E+03 -7.975798E+03
        67  10  4.244557E+04 -4.717765E+05  4.263505E+04  3.386842E+03  2.217904E-09  6.561191E-11
        67  11  4.524584E+04 -4.667094E+05  4.784733E+04  6.004961E+02 -2.623133E-10  3.720439E-11
        67  12  5.153874E+04 -4.604564E+05  5.504489E+04  4.142706E+03  2.651554E-09  8.883142E-10
        67  13 -1.919755E+03 -6.497468E+05 -1.111300E+03  3.537983E+03 -1.471401E-09  8.181026E-11
        67  14 -5.086029E+02 -6.503190E+05  2.795111E+03  3.756268E+02 -1.022174E-09 -2.577828E-10
        67  15  4.356588E+03 -6.497440E+05  8.530583E+03  3.541940E+03  8.589667E-10 -7.177944E-11
        67  16 -4.628744E+04 -8.276883E+05 -4.485998E+04  3.689083E+03  1.105749E-10 -5.328391E-11
        67  17 -4.626555E+04 -8.338978E+05 -4.225959E+04  1.508286E+02  1.851766E-09  6.321008E-10
        67  18 -4.282823E+04 -8.389990E+05 -3.798636E+04  2.941363E+03 -5.141038E-10 -4.520851E-10
        67  19  4.244559E+04 -4.717765E+05  4.263512E+04  3.386828E+03 -3.538384E+03  4.977368E+03
        67  20  4.524587E+04 -4.667094E+05  4.784745E+04  6.004746E+02 -4.017892E+03  6.654940E+03
        67  21  5.153877E+04 -4.604563E+05  5.504505E+04  4.142680E+03 -3.827452E+03  8.332833E+03
        67  22 -1.919734E+03 -6.497468E+05 -1.111225E+03  3.537968E+03 -3.538560E+03  5.249592E+03
        67  23 -5.085735E+02 -6.503189E+05  2.795226E+03  3.756051E+02 -4.017998E+03  6.701788E+03
        67  24  4.356622E+03 -6.497440E+05  8.530736E+03  3.541915E+03 -3.827405E+03  8.154288E+03
        67  25 -4.628742E+04 -8.276882E+05 -4.485990E+04  3.689068E+03 -3.538735E+03  5.521738E+03
        67  26 -4.626552E+04 -8.338977E+05 -4.225947E+04  1.508068E+02 -4.018105E+03  6.748622E+03
        67  27 -4.282819E+04 -8.389990E+05 -3.798621E+04  2.941339E+03 -3.827357E+03  7.975798E+03
        68   1  4.849343E+04 -4.460027E+05  6.026346E+04 -1.890658E+02  4.428310E+03 -9.140383E+03
        68   2  4.492873E+04 -4.475506E+05  6.838860E+04  2.508532E+03  4.818933E+03 -2.010518E+04
        68   3  8.564595E+04 -4.364775E+05  9.475132E+04  1.045659E+04  1.638993E+03 -3.107407E+04
        68   4 -1.660769E+03 -6.472440E+05  1.088891E+04  3.287219E+03  4.428963E+03 -9.865765E+03
        68   5 -6.361408E+03 -6.534462E+05  1.793475E+04  6.821978E+02  4.818610E+03 -1.962863E+04
        68   6  3.301878E+04 -6.472321E+05  4.238705E+04  3.327740E+03  1.637359E+03 -2.939550E+04
        68   7 -5.181793E+04 -8.484484E+05 -3.848861E+04  6.762381E+03  4.429608E+03 -1.059091E+04
        68   8 -5.765467E+04 -8.593030E+05 -3.252221E+04 -1.143519E+03  4.818283E+03 -1.915224E+04
        68   9 -1.961154E+04 -8.579463E+05 -9.980504E+03 -3.798678E+03  1.635686E+03 -2.771750E+04
        68  10  4.849339E+04 -4.460028E+05  6.026327E+04 -1.890332E+02  2.361843E-09 -1.523016E-09
        68  11  4.492859E+04 -4.475511E+05  6.838779E+04  2.508610E+03 -2.570067E-09 -2.456230E-09
        68  12  8.564569E+04 -4.364785E+05  9.474950E+04  1.045664E+04 -5.864227E-10  8.499259E-10
        68  13 -1.660816E+03 -6.472441E+05  1.088869E+04  3.287254E+03 -1.964032E-09 -1.777571E-11
        68  14 -6.361536E+03 -6.534466E+05  1.793398E+04  6.822740E+02  4.274554E-09 -5.474003E-10
        68  15  3.301854E+04 -6.472331E+05  4.238542E+04  3.327779E+03  6.544129E-10 -1.472700E-10
        68  16 -5.181798E+04 -8.484485E+05 -3.848886E+04  6.762419E+03 -3.516612E-10  1.550188E-09
        68  17 -5.765480E+04 -8.593034E+05 -3.252294E+04 -1.143445E+03  2.659983E-09  3.566346E-09
        68  18 -1.961175E+04 -8.579471E+05 -9.981954E+03 -3.798642E+03  7.789059E-10 -1.248613E-10
        68  19  4.849343E+04 -4.460027E+05  6.026346E+04 -1.890658E+02 -4.428310E+03  9.140383E+03
        68  20  4.492873E+04 -4.475506E+05  6.838860E+04  2.508532E+03 -4.818933E+03  2.010518E+04
        68  21  8.564595E+04 -4.364775E+05  9.475132E+04  1.045659E+04 -1.638993E+03  3.107407E+04
        68  22 -1.660769E+03 -6.472440E+05  1.088891E+04  3.287219E+03 -4.428963E+03  9.865765E+03
        68  23 -6.361408E+03 -6.534462E+05  1.793475E+04  6.821978E+02 -4.818610E+03  1.962863E+04
        68  24  3.301878E+04 -6.472321E+05  4.238705E+04  3.327740E+03 -1.637359E+03  2.939550E+04
        68  25 -5.181793E+04 -8.484484E+05 -3.848861E+04  6.762381E+03 -4.429608E+03  1.059091E+04
        68  26 -5.765467E+04 -8.593030E+05 -3.252221E+04 -1.143519E+03 -4.818283E+03  1.915224E+04
        68  27 -1.961154E+04 -8.579463E+05 -9.980504E+03 -3.798678E+03 -1.635686E+03  2.771750E+04
        69   1 -6.351740E+05 -1.209406E+05 -3.466268E+04 -2.344791E+05 -1.376403E+04 -4.715933E+03
        69   2 -6.278167E+05 -9.627790E+04 -2.034525E+04 -2.328590E+05 -8.968838E+03 -2.131985E+03
        69   3 -6.229194E+05 -9.765508E+04 -1.533321E+04 -2.326536E+05 -3.794217E+03 -5.596080E+02
        69   4 -5.871378E+05 -9.973306E+04 -2.089276E+04 -2.182481E+05 -1.338918E+04 -4.575461E+03
        69   5 -5.848890E+05 -7.929099E+04 -8.596879E+03 -2.203346E+05 -8.911616E+03 -2.110552E+03
        69   6 -5.850368E+05 -8.482503E+04 -5.354048E+03 -2.238360E+05 -4.054676E+03 -6.572395E+02
        69   7 -5.390994E+05 -7.852524E+04 -7.123106E+03 -2.020159E+05 -1.301430E+04 -4.434972E+03
        69   8 -5.419596E+05 -6.230395E+04  3.151313E+03 -2.078094E+05 -8.854389E+03 -2.089116E+03
        69   9 -5.471527E+05 -7.199494E+04  4.625002E+03 -2.150180E+05 -4.315153E+03 -7.548762E+02
        69  10 -6.351743E+05 -1.209406E+05 -3.466308E+04 -2.344791E+05  1.566429E-09  2.236851E-11
        69  11 -6.278168E+05 -9.627792E+04 -2.034541E+04 -2.328590E+05 -2.187898E-09  1.038963E-10
        69  12 -6.229194E+05 -9.765508E+04 -1.533323E+04 -2.326536E+05  5.548718E-10  1.369540E-09
        69  13 -5.871380E+05 -9.973313E+04 -2.089314E+04 -2.182481E+05 -2.590840E-11  5.192030E-11
        69  14 -5.848891E+05 -7.929102E+04 -8.597036E+03 -2.203346E+05  5.151208E-09  2.558083E-10
        69  15 -5.850368E+05 -8.482503E+04 -5.354079E+03 -2.238360E+05  3.061754E-09  1.234150E-09
        69  16 -5.390996E+05 -7.852531E+04 -7.123462E+03 -2.020159E+05  5.148791E-10  7.847938E-11
        69  17 -5.419596E+05 -6.230397E+04  3.151158E+03 -2.078094E+05  4.350151E-10  6.189059E-10
        69  18 -5.471527E+05 -7.199494E+04  4.624966E+03 -2.150180E+05  3.478273E-10  3.885572E-10
        69  19 -6.351740E+05 -1.209406E+05 -3.466268E+04 -2.344791E+05  1.376403E+04  4.715933E+03
        69  20 -6.278167E+05 -9.627790E+04 -2.034525E+04 -2.328590E+05  8.968838E+03  2.131985E+03
        69  21 -6.229194E+05 -9.765508E+04 -1.533321E+04 -2.326536E+05  3.794217E+03  5.596080E+02
        69  22 -5.871378E+05 -9.973306E+04 -2.089276E+04 -2.182481E+05  1.338918E+04  4.575461E+03
        69  23 -5.848890E+05 -7.929099E+04 -8.596879E+03 -2.203346E+05  8.911616E+03  2.110552E+03
        69  24 -5.850368E+05 -8.482503E+04 -5.354048E+03 -2.238360E+05  4.054676E+03  6.572395E+02
        69  25 -5.390994E+05 -7.852524E+04 -7.123106E+03 -2.020159E+05  1.301430E+04  4.434972E+03
        69  26 -5.419596E+05 -6.230395E+04  3.151313E+03 -2.078094E+05  8.854389E+03  2.089116E+03
        69  27 -5.471527E+05 -7.199494E+04  4.625002E+03 -2.150180E+05  4.315153E+03  7.548762E+02
        70   1 -6.035537E+05 -9.484445E+04 -9.672747E+03 -2.281767E+05 -3.116410E+03 -6.553749E+02
        70   2 -5.991525E+05 -8.673540E+04 -5.464888E+03 -2.233682E+05 -1.941309E+03 -3.926080E+02
        70   3 -5.899682E+05 -8.727449E+04 -2.826733E+03 -2.246960E+05 -7.215904E+02 -2.488423E+02
        70   4 -5.843177E+05 -8.721289E+04 -4.396817E+03 -2.225459E+05 -3.146748E+03 -6.667504E+02
        70   5 -5.865735E+05 -8.190281E+04 -2.046354E+03 -2.198487E+05 -2.009019E+03 -4.179892E+02
        70   6 -5.840388E+05 -8.523341E+04 -1.235932E+03 -2.232876E+05 -8.266891E+02 -2.882343E+02
        70   7 -5.650814E+05 -7.958130E+04  8.790755E+02 -2.169150E+05 -3.177086E+03 -6.781263E+02
        70   8 -5.739943E+05 -7.707023E+04  1.372158E+03 -2.163291E+05 -2.076731E+03 -4.433709E+02
        70   9 -5.781094E+05 -8.319235E+04  3.548602E+02 -2.218792E+05 -9.317885E+02 -3.276265E+02
        70  10 -6.035537E+05 -9.484445E+04 -9.672766E+03 -2.281767E+05 -1.655205E-09  1.514047E-09
        70  11 -5.991525E+05 -8.673540E+04 -5.464895E+03 -2.233682E+05  1.472971E-09  2.602018E-10
        70  12 -5.899682E+05 -8.727449E+04 -2.826735E+03 -2.246960E+05 -3.466058E-10  7.283357E-10
        70  13 -5.843178E+05 -8.721289E+04 -4.396836E+03 -2.225459E+05  1.635592E-09  5.721721E-10
        70  14 -5.865735E+05 -8.190282E+04 -2.046362E+03 -2.198487E+05  4.715297E-09  1.195853E-09
        70  15 -5.840388E+05 -8.523341E+04 -1.235934E+03 -2.232876E+05  3.130295E-09  8.544640E-10
        70  16 -5.650814E+05 -7.958131E+04  8.790556E+02 -2.169150E+05 -3.200459E-10  5.623479E-10
        70  17 -5.739943E+05 -7.707023E+04  1.372149E+03 -2.163291E+05  1.528152E-09  7.426281E-10
        70  18 -5.781094E+05 -8.319235E+04  3.548584E+02 -2.218792E+05  1.533169E-09  8.527678E-10
        70  19 -6.035537E+05 -9.484445E+04 -9.672747E+03 -2.281767E+05  3.116410E+03  6.553749E+02
        70  20 -5.991525E+05 -8.673540E+04 -5.464888E+03 -2.233682E+05  1.941309E+03  3.926080E+02
        70  21 -5.899682E+05 -8.727449E+04 -2.826733E+03 -2.246960E+05  7.215904E+02  2.488423E+02
        70  22 -5.843177E+05 -8.721289E+04 -4.396817E+03 -2.225459E+05  3.146748E+03  6.667504E+02
        70  23 -5.865735E+05 -8.190281E+04 -2.046354E+03 -2.198487E+05  2.009019E+03  4.179892E+02
        70  24 -5.840388E+05 -8.523341E+04 -1.235932E+03 -2.232876E+05  8.266891E+02  2.882343E+02
        70  25 -5.650814E+05 -7.958130E+04  8.790755E+02 -2.169150E+05  3.177086E+03  6.781263E+02
        70  26 -5.739943E+05 -7.707023E+04  1.372158E+03 -2.163291E+05  2.076731E+03  4.433709E+02
        70  27 -5.781094E+05 -8.319235E+04  3.548602E+02 -2.218792E+05  9.317885E+02  3.276265E+02
        71   1 -5.721736E+05 -8.114981E+04  2.199213E+03 -2.199574E+05 -4.993376E+02 -3.646063E+02
        71   2 -5.682133E+05 -7.527338E+04  4.461105E+03 -2.147563E+05 -1.111248E+02 -5.099075E+02
        71   3 -5.585027E+05 -7.569760E+04  6.404123E+03 -2.162627E+05  2.810441E+02 -6.657107E+02
        71   4 -5.839413E+05 -8.553719E+04 -9.988008E+02 -2.231058E+05 -5.778327E+02 -3.940277E+02
        71   5 -5.867990E+05 -8.226179E+04 -5.646514E+02 -2.197990E+05 -1.929276E+02 -5.405721E+02
        71   6 -5.839059E+05 -8.528638E+04 -4.467195E+02 -2.231997E+05  1.959298E+02 -6.976198E+02
        71   7 -5.957089E+05 -8.992458E+04 -4.196840E+03 -2.262541E+05 -6.563266E+02 -4.234486E+02
        71   8 -6.053846E+05 -8.925020E+04 -5.590455E+03 -2.248415E+05 -2.747280E+02 -5.712358E+02
        71   9 -6.093085E+05 -9.487515E+04 -7.297635E+03 -2.301365E+05  1.108192E+02 -7.295275E+02
        71  10 -5.721736E+05 -8.114981E+04  2.199213E+03 -2.199574E+05 -9.111816E-10  7.513828E-10
        71  11 -5.682133E+05 -7.527338E+04  4.461105E+03 -2.147563E+05  1.124499E-09  6.895009E-10
        71  12 -5.585027E+05 -7.569760E+04  6.404122E+03 -2.162627E+05 -2.116851E-09  3.057441E-10
        71  13 -5.839413E+05 -8.553719E+04 -9.988017E+02 -2.231058E+05  2.045303E-09  1.013854E-09
        71  14 -5.867990E+05 -8.226179E+04 -5.646521E+02 -2.197990E+05 -3.359933E-09  7.837063E-10
        71  15 -5.839059E+05 -8.528638E+04 -4.467205E+02 -2.231997E+05 -6.334545E-09  4.815158E-10
        71  16 -5.957089E+05 -8.992458E+04 -4.196841E+03 -2.262541E+05  7.112555E-10  5.201941E-10
        71  17 -6.053846E+05 -8.925021E+04 -5.590456E+03 -2.248415E+05  1.335419E-09  1.153165E-09
        71  18 -6.093085E+05 -9.487515E+04 -7.297636E+03 -2.301365E+05 -2.488074E-09  4.749321E-10
        71  19 -5.721736E+05 -8.114981E+04  2.199213E+03 -2.199574E+05  4.993376E+02  3.646063E+02
        71  20 -5.682133E+05 -7.527338E+04  4.461105E+03 -2.147563E+05  1.111248E+02  5.099075E+02
        71  21 -5.585027E+05 -7.569760E+04  6.404123E+03 -2.162627E+05 -2.810441E+02  6.657107E+02
        71  22 -5.839413E+05 -8.553719E+04 -9.988008E+02 -2.231058E+05  5.778327E+02  3.940277E+02
        71  23 -5.867990E+05 -8.226179E+04 -5.646514E+02 -2.197990E+05  1.929276E+02  5.405721E+02
        71  24 -5.839059E+05 -8.528638E+04 -4.467195E+02 -2.231997E+05 -1.959298E+02  6.976198E+02
        71  25 -5.957089E+05 -8.992458E+04 -4.196840E+03 -2.262541E+05  6.563266E+02  4.234486E+02
        71  26 -6.053846E+05 -8.925020E+04 -5.590455E+03 -2.248415E+05  2.747280E+02  5.712358E+02
        71  27 -6.093085E+05 -9.487515E+04 -7.297635E+03 -2.301365E+05 -1.108192E+02  7.295275E+02
        72   1 -5.412747E+05 -6.922524E+04  1.111973E+04 -2.115595E+05  4.110775E+02 -7.952708E+02
        72   2 -5.374675E+05 -6.377049E+04  1.280788E+04 -2.064361E+05  7.742660E+02 -9.569056E+02
        72   3 -5.279777E+05 -6.423817E+04  1.425883E+04 -2.078923E+05  1.135257E+03 -1.112535E+03
        72   4 -5.839325E+05 -8.527972E+04 -4.427500E+02 -2.231426E+05  3.280559E+02 -8.263997E+02
        72   5 -5.867766E+05 -8.233980E+04 -5.302622E+02 -2.198447E+05  6.931078E+02 -9.873431E+02
        72   6 -5.839385E+05 -8.532271E+04 -8.564920E+02 -2.231264E+05  1.055960E+03 -1.142282E+03
        72   7 -6.265883E+05 -1.013340E+05 -1.200535E+04 -2.347249E+05  2.450409E+02 -8.575262E+02
        72   8 -6.360832E+05 -1.009089E+05 -1.386861E+04 -2.332524E+05  6.119569E+02 -1.017778E+03
        72   9 -6.398964E+05 -1.064071E+05 -1.597211E+04 -2.383594E+05  9.766702E+02 -1.172026E+03
        72  10 -5.412747E+05 -6.922524E+04  1.111973E+04 -2.115595E+05  9.238211E-10  8.792756E-10
        72  11 -5.374675E+05 -6.377049E+04  1.280788E+04 -2.064361E+05 -8.036544E-10  3.768684E-10
        72  12 -5.279777E+05 -6.423818E+04  1.425882E+04 -2.078923E+05 -1.274655E-09  5.740148E-10
        72  13 -5.839325E+05 -8.527972E+04 -4.427515E+02 -2.231426E+05 -3.727041E-09  1.695958E-10
        72  14 -5.867766E+05 -8.233980E+04 -5.302649E+02 -2.198447E+05  1.616902E-09  3.531972E-10
        72  15 -5.839385E+05 -8.532271E+04 -8.564965E+02 -2.231264E+05  2.403822E-09  1.122548E-09
        72  16 -6.265883E+05 -1.013340E+05 -1.200536E+04 -2.347249E+05 -3.685165E-09 -7.038558E-10
        72  17 -6.360832E+05 -1.009089E+05 -1.386861E+04 -2.332524E+05 -1.632081E-09  1.540663E-10
        72  18 -6.398964E+05 -1.064071E+05 -1.597211E+04 -2.383594E+05  3.407525E-09  1.724951E-09
        72  19 -5.412747E+05 -6.922524E+04  1.111973E+04 -2.115595E+05 -4.110775E+02  7.952708E+02
        72  20 -5.374675E+05 -6.377049E+04  1.280788E+04 -2.064361E+05 -7.742660E+02  9.569056E+02
        72  21 -5.279777E+05 -6.423817E+04  1.425883E+04 -2.078923E+05 -1.135257E+03  1.112535E+03
        72  22 -5.839325E+05 -8.527972E+04 -4.427500E+02 -2.231426E+05 -3.280559E+02  8.263997E+02
        72  23 -5.867766E+05 -8.233980E+04 -5.302622E+02 -2.198447E+05 -6.931078E+02  9.873431E+02
        72  24 -5.839385E+05 -8.532271E+04 -8.564920E+02 -2.231264E+05 -1.055960E+03  1.142282E+03
        72  25 -6.265883E+05 -1.013340E+05 -1.200535E+04 -2.347249E+05 -2.450409E+02  8.575262E+02
        72  26 -6.360832E+05 -1.009089E+05 -1.386861E+04 -2.332524E+05 -6.119569E+02  1.017778E+03
        72  27 -6.398964E+05 -1.064071E+05 -1.597211E+04 -2.383594E+05 -9.766702E+02  1.172026E+03
        73   1 -5.114690E+05 -5.789780E+04  1.855644E+04 -2.034303E+05  1.354386E+03 -1.200523E+03
        73   2 -5.077812E+05 -5.260736E+04  1.944926E+04 -1.984889E+05  2.397171E+03 -1.096050E+03
        73   3 -4.990336E+05 -5.361341E+04  1.941816E+04 -1.996353E+05  3.434130E+03 -9.758211E+02
        73   4 -5.840453E+05 -8.517505E+04 -1.089448E+03 -2.231041E+05  1.272852E+03 -1.231117E+03
        73   5 -5.866160E+05 -8.231868E+04 -1.879643E+03 -2.199506E+05  2.320467E+03 -1.124843E+03
        73   6 -5.841280E+05 -8.575982E+04 -3.597686E+03 -2.228849E+05  3.362246E+03 -1.002818E+03
        73   7 -6.566164E+05 -1.124520E+05 -2.073577E+04 -2.427759E+05  1.191330E+03 -1.261706E+03
        73   8 -6.654448E+05 -1.120296E+05 -2.320911E+04 -2.414098E+05  2.243774E+03 -1.153633E+03
        73   9 -6.692155E+05 -1.179059E+05 -2.661422E+04 -2.461316E+05  3.290372E+03 -1.029810E+03
        73  10 -5.114690E+05 -5.789780E+04  1.855644E+04 -2.034303E+05  7.260471E-10  1.002446E-09
        73  11 -5.077812E+05 -5.260737E+04  1.944925E+04 -1.984889E+05  3.188258E-09 -3.331422E-10
        73  12 -4.990336E+05 -5.361342E+04  1.941814E+04 -1.996353E+05  1.627574E-09 -6.346113E-10
        73  13 -5.840453E+05 -8.517505E+04 -1.089453E+03 -2.231041E+05  1.291271E-09  9.346267E-10
        73  14 -5.866160E+05 -8.231868E+04 -1.879656E+03 -2.199506E+05  8.729785E-09 -9.193014E-11
        73  15 -5.841280E+05 -8.575982E+04 -3.597710E+03 -2.228849E+05  2.592748E-10 -5.065321E-10
        73  16 -6.566164E+05 -1.124520E+05 -2.073578E+04 -2.427759E+05  3.780285E-09  9.344464E-10
        73  17 -6.654448E+05 -1.120296E+05 -2.320912E+04 -2.414098E+05 -4.044016E-10  2.478122E-10
        73  18 -6.692155E+05 -1.179059E+05 -2.661424E+04 -2.461316E+05 -1.083596E-09  3.654386E-10
        73  19 -5.114690E+05 -5.789780E+04  1.855644E+04 -2.034303E+05 -1.354386E+03  1.200523E+03
        73  20 -5.077812E+05 -5.260736E+04  1.944926E+04 -1.984889E+05 -2.397171E+03  1.096050E+03
        73  21 -4.990336E+05 -5.361341E+04  1.941816E+04 -1.996353E+05 -3.434130E+03  9.758211E+02
        73  22 -5.840453E+05 -8.517505E+04 -1.089448E+03 -2.231041E+05 -1.272852E+03  1.231117E+03
        73  23 -5.866160E+05 -8.231868E+04 -1.879643E+03 -2.199506E+05 -2.320467E+03  1.124843E+03
        73  24 -5.841280E+05 -8.575982E+04 -3.597686E+03 -2.228849E+05 -3.362246E+03  1.002818E+03
        73  25 -6.566164E+05 -1.124520E+05 -2.073577E+04 -2.427759E+05 -1.191330E+03  1.261706E+03
        73  26 -6.654448E+05 -1.120296E+05 -2.320911E+04 -2.414098E+05 -2.243774E+03  1.153633E+03
        73  27 -6.692155E+05 -1.179059E+05 -2.661422E+04 -2.461316E+05 -3.290372E+03  1.029810E+03
        74   1 -4.835249E+05 -4.738975E+04  2.260343E+04 -1.961874E+05  4.178967E+03 -8.607528E+02
        74   2 -4.796062E+05 -4.137333E+04  2.069950E+04 -1.910783E+05  8.418369E+03  4.621367E+02
        74   3 -4.734714E+05 -4.658555E+04  1.403180E+04 -1.902614E+05  1.263760E+04  1.838959E+03
        74   4 -5.844965E+05 -8.497859E+04 -4.646118E+03 -2.231912E+05  4.096160E+03 -8.918561E+02
        74   5 -5.859215E+05 -8.161438E+04 -8.097121E+03 -2.201999E+05  8.351823E+03  4.371172E+02
        74   6 -5.851342E+05 -8.948282E+04 -1.632540E+04 -2.215008E+05  1.258727E+04  1.820001E+03
        74   7 -6.854583E+05 -1.225669E+05 -3.189657E+04 -2.501911E+05  4.013367E+03 -9.229539E+02
        74   8 -6.922260E+05 -1.218547E+05 -3.689473E+04 -2.493169E+05  8.285289E+03  4.121023E+02
        74   9 -6.967849E+05 -1.323792E+05 -4.668368E+04 -2.527350E+05  1.253695E+04  1.801046E+03
        74  10 -4.835249E+05 -4.738976E+04  2.260340E+04 -1.961874E+05 -7.852335E-10 -5.519002E-10
        74  11 -4.796062E+05 -4.137335E+04  2.069937E+04 -1.910783E+05  1.696091E-09 -2.495353E-10
        74  12 -4.734716E+05 -4.658560E+04  1.403150E+04 -1.902614E+05  4.341281E-09 -2.942407E-10
        74  13 -5.844965E+05 -8.497859E+04 -4.646151E+03 -2.231912E+05 -9.772760E-10 -1.849881E-10
        74  14 -5.859216E+05 -8.161440E+04 -8.097253E+03 -2.201999E+05  2.699799E-09 -8.261739E-10
        74  15 -5.851344E+05 -8.948287E+04 -1.632571E+04 -2.215008E+05  3.867545E-09 -5.884780E-10
        74  16 -6.854583E+05 -1.225669E+05 -3.189660E+04 -2.501911E+05 -4.444526E-10 -3.903901E-11
        74  17 -6.922261E+05 -1.218547E+05 -3.689486E+04 -2.493169E+05  2.214453E-09 -4.947178E-10
        74  18 -6.967850E+05 -1.323792E+05 -4.668398E+04 -2.527350E+05  4.227226E-09 -3.900670E-11
        74  19 -4.835249E+05 -4.738975E+04  2.260343E+04 -1.961874E+05 -4.178967E+03  8.607528E+02
        74  20 -4.796062E+05 -4.137333E+04  2.069950E+04 -1.910783E+05 -8.418369E+03 -4.621367E+02
        74  21 -4.734714E+05 -4.658555E+04  1.403180E+04 -1.902614E+05 -1.263760E+04 -1.838959E+03
        74  22 -5.844965E+05 -8.497859E+04 -4.646118E+03 -2.231912E+05 -4.096160E+03  8.918561E+02
        74  23 -5.859215E+05 -8.161438E+04 -8.097121E+03 -2.201999E+05 -8.351823E+03 -4.371172E+02
        74  24 -5.851342E+05 -8.948282E+04 -1.632540E+04 -2.215008E+05 -1.258727E+04 -1.820001E+03
        74  25 -6.854583E+05 -1.225669E+05 -3.189657E+04 -2.501911E+05 -4.013367E+03  9.229539E+02
        74  26 -6.922260E+05 -1.218547E+05 -3.689473E+04 -2.493169E+05 -8.285289E+03 -4.121023E+02
        74  27 -6.967849E+05 -1.323792E+05 -4.668368E+04 -2.527350E+05 -1.253695E+04 -1.801046E+03
        75   1 -4.582849E+05 -3.888792E+04  1.354245E+04 -1.928663E+05  1.581260E+04  2.833236E+03
        75   2 -4.515582E+05 -2.484658E+04  6.071297E+02 -1.841255E+05  3.422922E+04  9.495058E+03
        75   3 -4.601402E+05 -6.176598E+04 -3.865884E+04 -1.688081E+05  5.251509E+04  1.650588E+04
        75   4 -5.870153E+05 -8.404027E+04 -2.064211E+04 -2.244503E+05  1.568474E+04  2.785263E+03
        75   5 -5.817681E+05 -7.561939E+04 -3.494658E+04 -2.213233E+05  3.420722E+04  9.486628E+03
        75   6 -5.918547E+05 -1.181868E+05 -7.566999E+04 -2.116191E+05  5.259888E+04  1.653662E+04
        75   7 -7.157301E+05 -1.291923E+05 -5.482816E+04 -2.560286E+05  1.555691E+04  2.737299E+03
        75   8 -7.119619E+05 -1.263910E+05 -7.050187E+04 -2.585139E+05  3.418523E+04  9.478200E+03
        75   9 -7.235525E+05 -1.746051E+05 -1.126828E+05 -2.544213E+05  5.268264E+04  1.656736E+04
        75  10 -4.582852E+05 -3.888799E+04  1.354196E+04 -1.928663E+05  3.621125E-09  3.603448E-10
        75  11 -4.515594E+05 -2.484699E+04  6.047565E+02 -1.841258E+05 -2.085447E-09  4.768318E-10
        75  12 -4.601432E+05 -6.176701E+04 -3.866454E+04 -1.688088E+05 -2.874312E-09  3.221764E-10
        75  13 -5.870156E+05 -8.404035E+04 -2.064259E+04 -2.244503E+05  4.371184E-09 -6.537212E-11
        75  14 -5.817694E+05 -7.561980E+04 -3.494895E+04 -2.213235E+05  3.715214E-10  1.592802E-09
        75  15 -5.918578E+05 -1.181878E+05 -7.567571E+04 -2.116198E+05  1.392596E-09  1.950407E-09
        75  16 -7.157303E+05 -1.291924E+05 -5.482863E+04 -2.560287E+05  3.336606E-09  1.058994E-09
        75  17 -7.119632E+05 -1.263914E+05 -7.050424E+04 -2.585142E+05  1.871505E-09  2.220195E-09
        75  18 -7.235555E+05 -1.746062E+05 -1.126885E+05 -2.544220E+05 -1.915432E-10  5.966900E-10
        75  19 -4.582849E+05 -3.888792E+04  1.354245E+04 -1.928663E+05 -1.581260E+04 -2.833236E+03
        75  20 -4.515582E+05 -2.484658E+04  6.071297E+02 -1.841255E+05 -3.422922E+04 -9.495058E+03
        75  21 -4.601402E+05 -6.176598E+04 -3.865884E+04 -1.688081E+05 -5.251509E+04 -1.650588E+04
        75  22 -5.870153E+05 -8.404027E+04 -2.064211E+04 -2.244503E+05 -1.568474E+04 -2.785263E+03
        75  23 -5.817681E+05 -7.561939E+04 -3.494658E+04 -2.213233E+05 -3.420722E+04 -9.486628E+03
        75  24 -5.918547E+05 -1.181868E+05 -7.566999E+04 -2.116191E+05 -5.259888E+04 -1.653662E+04
        75  25 -7.157301E+05 -1.291923E+05 -5.482816E+04 -2.560286E+05 -1.555691E+04 -2.737299E+03
        75  26 -7.119619E+05 -1.263910E+05 -7.050187E+04 -2.585139E+05 -3.418523E+04 -9.478200E+03
        75  27 -7.235525E+05 -1.746051E+05 -1.126828E+05 -2.544213E+05 -5.268264E+04 -1.656736E+04
        76   1 -4.369340E+05 -3.935581E+04 -5.198003E+04 -2.144477E+05  6.700323E+04  2.134930E+04
        76   2 -4.103536E+05  3.809573E+04 -1.068645E+05 -1.755460E+05  1.479226E+05  5.142192E+04
        76   3 -5.214667E+05 -2.360127E+05 -3.172214E+05 -5.045807E+04  2.277727E+05  8.434404E+04
        76   4 -6.038402E+05 -7.743531E+04 -9.224476E+04 -2.344008E+05  6.644285E+04  2.114181E+04
        76   5 -5.531285E+05 -3.004570E+04 -1.482376E+05 -2.291455E+05  1.482376E+05  5.153612E+04
        76   6 -6.403211E+05 -3.344455E+05 -3.604256E+05 -1.376928E+05  2.289662E+05  8.476865E+04
        76   7 -7.707185E+05 -1.155156E+05 -1.325111E+05 -2.543511E+05  6.588264E+04  2.093432E+04
        76   8 -6.958828E+05 -9.818187E+04 -1.896126E+05 -2.827325E+05  1.485525E+05  5.165028E+04
        76   9 -7.591539E+05 -4.328531E+05 -4.036300E+05 -2.249067E+05  2.301594E+05  8.519291E+04
        76  10 -4.369390E+05 -3.935751E+04 -5.198933E+04 -2.144488E+05 -6.844447E-10 -1.628622E-10
        76  11 -4.103778E+05  3.808701E+04 -1.069106E+05 -1.755521E+05  6.007218E-10 -1.530706E-09
        76  12 -5.215244E+05 -2.360343E+05 -3.173323E+05 -5.047355E+04 -3.681164E-10 -1.657245E-09
        76  13 -6.038451E+05 -7.743698E+04 -9.225391E+04 -2.344020E+05 -4.593530E-10 -2.070467E-09
        76  14 -5.531529E+05 -3.005446E+04 -1.482839E+05 -2.291516E+05 -3.288529E-09  1.530655E-10
        76  15 -6.403794E+05 -3.344673E+05 -3.605377E+05 -1.377084E+05 -2.134442E-09  7.235511E-10
        76  16 -7.707233E+05 -1.155173E+05 -1.325200E+05 -2.543522E+05 -4.974434E-10  5.395415E-10
        76  17 -6.959072E+05 -9.819068E+04 -1.896591E+05 -2.827387E+05 -5.125264E-10  1.674207E-09
        76  18 -7.592128E+05 -4.328751E+05 -4.037433E+05 -2.249225E+05  3.099524E-10 -7.085559E-10
        76  19 -4.369340E+05 -3.935581E+04 -5.198003E+04 -2.144477E+05 -6.700323E+04 -2.134930E+04
        76  20 -4.103536E+05  3.809573E+04 -1.068645E+05 -1.755460E+05 -1.479226E+05 -5.142192E+04
        76  21 -5.214667E+05 -2.360127E+05 -3.172214E+05 -5.045807E+04 -2.277727E+05 -8.434404E+04
        76  22 -6.038402E+05 -7.743531E+04 -9.224476E+04 -2.344008E+05 -6.644285E+04 -2.114181E+04
        76  23 -5.531285E+05 -3.004570E+04 -1.482376E+05 -2.291455E+05 -1.482376E+05 -5.153612E+04
        76  24 -6.403211E+05 -3.344455E+05 -3.604256E+05 -1.376928E+05 -2.289662E+05 -8.476865E+04
        76  25 -7.707185E+05 -1.155156E+05 -1.325111E+05 -2.543511E+05 -6.588264E+04 -2.093432E+04
        76  26 -6.958828E+05 -9.818187E+04 -1.896126E+05 -2.827325E+05 -1.485525E+05 -5.165028E+04
        76  27 -7.591539E+05 -4.328531E+05 -4.036300E+05 -2.249067E+05 -2.301594E+05 -8.519291E+04
        77   1  3.320832E+05  2.518114E+06  3.157700E+05 -4.778086E+04  1.768252E+04  1.406831E+05
        77   2  2.915834E+05  2.488453E+06  2.338590E+05 -3.637373E+04  6.148230E+04  7.709732E+04
        77   3  2.756722E+05  2.473284E+06  1.994143E+05 -2.705824E+04  7.893443E+04  1.352193E+04
        77   4  3.122324E+04  1.292987E+06  3.391239E+04 -2.673863E+04  1.770090E+04  2.272089E+04
        77   5  9.266152E+03  1.290474E+06  1.765662E+04 -2.570085E+04  6.151109E+04  1.371510E+04
        77   6  2.467341E+03  1.293019E+06  1.107076E+04 -2.675101E+04  7.895245E+04  4.714379E+03
        77   7 -2.697322E+05  6.927395E+04 -2.479922E+05 -5.738041E+03  1.771133E+04 -9.501119E+04
        77   8 -2.731286E+05  9.389629E+04 -1.985869E+05 -1.504895E+04  6.153775E+04 -4.954861E+04
        77   9 -2.708070E+05  1.141332E+05 -1.773089E+05 -2.644422E+04  7.897049E+04 -4.077093E+03
        77  10  3.320775E+05  2.518092E+06  3.157324E+05 -4.778286E+04  1.008286E-09  2.714947E-09
        77  11  2.915778E+05  2.488446E+06  2.338408E+05 -3.637754E+04  3.303042E-09 -2.122308E-09
        77  12  2.756654E+05  2.473282E+06  1.994023E+05 -2.705909E+04 -1.683602E-09 -6.129332E-09
        77  13  3.122277E+04  1.292986E+06  3.391083E+04 -2.673895E+04  3.704174E-10  9.641067E-11
        77  14  9.262037E+03  1.290473E+06  1.764916E+04 -2.570153E+04  5.061650E-09 -2.442184E-10
        77  15  2.460637E+03  1.293017E+06  1.105899E+04 -2.675131E+04  4.926977E-10  5.089815E-10
        77  16 -2.697350E+05  6.926417E+04 -2.480098E+05 -5.736685E+03 -2.214088E-09 -2.633733E-09
        77  17 -2.731333E+05  9.389264E+04 -1.985987E+05 -1.504649E+04 -5.597318E-10  1.933837E-09
        77  18 -2.708137E+05  1.141315E+05 -1.773207E+05 -2.644396E+04  1.392308E-09  5.769959E-09
        77  19  3.320832E+05  2.518114E+06  3.157700E+05 -4.778086E+04 -1.768252E+04 -1.406831E+05
        77  20  2.915834E+05  2.488453E+06  2.338590E+05 -3.637373E+04 -6.148230E+04 -7.709732E+04
        77  21  2.756722E+05  2.473284E+06  1.994143E+05 -2.705824E+04 -7.893443E+04 -1.352193E+04
        77  22  3.122324E+04  1.292987E+06  3.391239E+04 -2.673863E+04 -1.770090E+04 -2.272089E+04
        77  23  9.266152E+03  1.290474E+06  1.765662E+04 -2.570085E+04 -6.151109E+04 -1.371510E+04
        77  24  2.467341E+03  1.293019E+06  1.107076E+04 -2.675101E+04 -7.895245E+04 -4.714379E+03
        77  25 -2.697322E+05  6.927395E+04 -2.479922E+05 -5.738041E+03 -1.771133E+04  9.501119E+04
        77  26 -2.731286E+05  9.389629E+04 -1.985869E+05 -1.504895E+04 -6.153775E+04  4.954861E+04
        77  27 -2.708070E+05  1.141332E+05 -1.773089E+05 -2.644422E+04 -7.897049E+04  4.077093E+03
        78   1  2.709788E+05  2.457163E+06  1.918584E+05 -2.899598E+04  8.057183E+04  1.224411E+04
        78   2  2.638825E+05  2.433733E+06  1.831123E+05 -2.563510E+04  8.218257E+04 -3.635615E+03
        78   3  2.614813E+05  2.413622E+06  1.858755E+05 -2.629956E+04  7.820572E+04 -1.951947E+04
        78   4  2.025178E+03  1.292193E+06  9.528365E+03 -2.718170E+04  8.059121E+04  3.139932E+03
        78   5  1.039808E+03  1.291542E+06  8.613323E+03 -2.516897E+04  8.219530E+04 -1.160648E+03
        78   6  2.748409E+03  1.292209E+06  1.119250E+04 -2.718204E+04  7.820660E+04 -5.465871E+03
        78   7 -2.669950E+05  1.285711E+05 -1.728341E+05 -2.537073E+04  8.061057E+04 -5.947862E+03
        78   8 -2.618655E+05  1.506513E+05 -1.659139E+05 -2.470349E+04  8.220805E+04  1.309957E+03
        78   9 -2.560458E+05  1.720460E+05 -1.635195E+05 -2.806257E+04  7.820746E+04  8.563382E+03
        78  10  2.709718E+05  2.457161E+06  1.918459E+05 -2.899678E+04 -3.035369E-09  5.194555E-08
        78  11  2.638752E+05  2.433731E+06  1.830996E+05 -2.563486E+04 -4.809617E-09 -1.495098E-08
        78  12  2.614746E+05  2.413620E+06  1.858633E+05 -2.629834E+04 -7.441332E-09 -7.662806E-08
        78  13  2.018197E+03  1.292191E+06  9.516134E+03 -2.718190E+04  7.062176E-11  5.649990E-10
        78  14  1.032549E+03  1.291540E+06  8.600617E+03 -2.516890E+04  9.349895E-09 -7.868185E-10
        78  15  2.741829E+03  1.292207E+06  1.118094E+04 -2.718169E+04  1.078793E-08  1.047685E-09
        78  16 -2.670020E+05  1.285693E+05 -1.728464E+05 -2.537035E+04 -1.350771E-09 -5.217787E-08
        78  17 -2.618727E+05  1.506495E+05 -1.659266E+05 -2.470358E+04 -3.403075E-09  1.418608E-08
        78  18 -2.560524E+05  1.720443E+05 -1.635311E+05 -2.806311E+04 -6.627676E-09  7.575278E-08
        78  19  2.709788E+05  2.457163E+06  1.918584E+05 -2.899598E+04 -8.057183E+04 -1.224411E+04
        78  20  2.638825E+05  2.433733E+06  1.831123E+05 -2.563510E+04 -8.218257E+04  3.635615E+03
        78  21  2.614813E+05  2.413622E+06  1.858755E+05 -2.629956E+04 -7.820572E+04  1.951947E+04
        78  22  2.025178E+03  1.292193E+06  9.528365E+03 -2.718170E+04 -8.059121E+04 -3.139932E+03
        78  23  1.039808E+03  1.291542E+06  8.613323E+03 -2.516897E+04 -8.219530E+04  1.160648E+03
        78  24  2.748409E+03  1.292209E+06  1.119250E+04 -2.718204E+04 -7.820660E+04  5.465871E+03
        78  25 -2.669950E+05  1.285711E+05 -1.728341E+05 -2.537073E+04 -8.061057E+04  5.947862E+03
        78  26 -2.618655E+05  1.506513E+05 -1.659139E+05 -2.470349E+04 -8.220805E+04 -1.309957E+03
        78  27 -2.560458E+05  1.720460E+05 -1.635195E+05 -2.806257E+04 -7.820746E+04 -8.563382E+03
        79   1  2.598928E+05  2.402478E+06  1.895965E+05 -2.856433E+04  7.502292E+04 -2.113730E+04
        79   2  2.676523E+05  2.373929E+06  2.170728E+05 -1.168355E+04  5.705105E+04 -8.014050E+04
        79   3  3.038279E+05  2.360204E+06  2.899859E+05 -5.224648E+02  1.632917E+04 -1.391794E+05
        79   4  3.376097E+03  1.293406E+06  1.370814E+04 -2.756351E+04  7.502182E+04 -7.347917E+03
        79   5  1.260719E+04  1.290065E+06  2.322095E+04 -2.468334E+04  5.699137E+04 -1.923438E+04
        79   6  4.211597E+04  1.293400E+06  4.553754E+04 -2.752594E+04  1.619536E+04 -3.115554E+04
        79   7 -2.532016E+05  1.855547E+05 -1.622109E+05 -2.656422E+04  7.502077E+04  6.417813E+03
        79   8 -2.425002E+05  2.073512E+05 -1.706618E+05 -3.765953E+04  5.692909E+04  4.156876E+04
        79   9 -2.196659E+05  2.276733E+05 -1.989414E+05 -5.448244E+04  1.605206E+04  7.668485E+04
        79  10  2.598867E+05  2.402476E+06  1.895851E+05 -2.856306E+04 -6.171362E-09  8.048361E-08
        79  11  2.676471E+05  2.373922E+06  2.170546E+05 -1.167988E+04 -8.982157E-10  1.420990E-08
        79  12  3.038224E+05  2.360183E+06  2.899491E+05 -5.206367E+02 -1.272955E-10 -5.160071E-08
        79  13  3.370036E+03  1.293405E+06  1.369746E+04 -2.756307E+04  1.114505E-08  1.073581E-09
        79  14  1.260360E+04  1.290064E+06  2.321415E+04 -2.468245E+04  5.518481E-09 -9.399971E-10
        79  15  4.211543E+04  1.293399E+06  4.553523E+04 -2.752553E+04  4.770364E-09  1.510039E-09
        79  16 -2.532076E+05  1.855532E+05 -1.622215E+05 -2.656461E+04 -7.021851E-09 -8.071615E-08
        79  17 -2.425042E+05  2.073485E+05 -1.706711E+05 -3.766143E+04 -3.056904E-09 -1.488270E-08
        79  18 -2.196678E+05  2.276670E+05 -1.989530E+05 -5.448344E+04 -2.150926E-10  5.059339E-08
        79  19  2.598928E+05  2.402478E+06  1.895965E+05 -2.856433E+04 -7.502292E+04  2.113730E+04
        79  20  2.676523E+05  2.373929E+06  2.170728E+05 -1.168355E+04 -5.705105E+04  8.014050E+04
        79  21  3.038279E+05  2.360204E+06  2.899859E+05 -5.224648E+02 -1.632917E+04  1.391794E+05
        79  22  3.376097E+03  1.293406E+06  1.370814E+04 -2.756351E+04 -7.502182E+04  7.347917E+03
        79  23  1.260719E+04  1.290065E+06  2.322095E+04 -2.468334E+04 -5.699137E+04  1.923438E+04
        79  24  4.211597E+04  1.293400E+06  4.553754E+04 -2.752594E+04 -1.619536E+04  3.115554E+04
        79  25 -2.532016E+05  1.855547E+05 -1.622109E+05 -2.656422E+04 -7.502077E+04 -6.417813E+03
        79  26 -2.425002E+05  2.073512E+05 -1.706618E+05 -3.765953E+04 -5.692909E+04 -4.156876E+04
        79  27 -2.196659E+05  2.276733E+05 -1.989414E+05 -5.448244E+04 -1.605206E+04 -7.668485E+04
        80   1 -3.082804E+06 -4.471458E+05 -4.698291E+05 -6.938712E+04 -8.860391E+04  1.042685E+04
        80   2 -2.997127E+06 -3.231465E+05 -3.833001E+05 -1.449915E+04 -5.367512E+04  3.173508E+04
        80   3 -2.940590E+06 -3.185840E+05 -3.484312E+05 -3.829747E+04 -1.863781E+04  2.795600E+04
        80   4 -1.650614E+06 -8.833833E+04 -1.131183E+05 -4.490383E+04 -7.744521E+04  1.047376E+04
        80   5 -1.636769E+06  1.650378E+04 -4.927384E+04 -5.763396E+03 -5.085643E+04  3.173968E+04
        80   6 -1.650538E+06  3.505205E+03 -3.120171E+04 -4.530118E+04 -2.416382E+04  2.794071E+04
        80   7 -2.165539E+05  2.703163E+05  2.434390E+05 -2.036586E+04 -6.626051E+04  1.052151E+04
        80   8 -2.747192E+05  3.560165E+05  2.846163E+05  2.990194E+03 -4.803144E+04  3.174436E+04
        80   9 -3.589628E+05  3.254706E+05  2.859052E+05 -5.232029E+04 -2.970129E+04  2.792557E+04
        80  10 -3.082812E+06 -4.471480E+05 -4.698442E+05 -6.938637E+04 -5.431832E-10 -5.993918E-11
        80  11 -2.997130E+06 -3.231484E+05 -3.833075E+05 -1.449778E+04 -5.326865E-11 -4.731430E-10
        80  12 -2.940591E+06 -3.185850E+05 -3.484334E+05 -3.829705E+04  1.678152E-10 -1.631533E-10
        80  13 -1.650621E+06 -8.834006E+04 -1.131298E+05 -4.490317E+04 -1.495761E-09 -3.092354E-10
        80  14 -1.636773E+06  1.650200E+04 -4.928061E+04 -5.762095E+03  3.647972E-09 -1.293234E-10
        80  15 -1.650538E+06  3.504210E+03 -3.120427E+04 -4.530064E+04 -9.484064E-10  1.753553E-10
        80  16 -2.165587E+05  2.703150E+05  2.434305E+05 -2.036530E+04 -1.262746E-09 -3.762388E-10
        80  17 -2.747220E+05  3.560148E+05  2.846100E+05  2.991422E+03 -1.532020E-09 -1.691859E-10
        80  18 -3.589639E+05  3.254695E+05  2.859021E+05 -5.231963E+04 -2.812189E-09  5.480737E-10
        80  19 -3.082804E+06 -4.471458E+05 -4.698291E+05 -6.938712E+04  8.860391E+04 -1.042685E+04
        80  20 -2.997127E+06 -3.231465E+05 -3.833001E+05 -1.449915E+04  5.367512E+04 -3.173508E+04
        80  21 -2.940590E+06 -3.185840E+05 -3.484312E+05 -3.829747E+04  1.863781E+04 -2.795600E+04
        80  22 -1.650614E+06 -8.833833E+04 -1.131183E+05 -4.490383E+04  7.744521E+04 -1.047376E+04
        80  23 -1.636769E+06  1.650378E+04 -4.927384E+04 -5.763396E+03  5.085643E+04 -3.173968E+04
        80  24 -1.650538E+06  3.505205E+03 -3.120171E+04 -4.530118E+04  2.416382E+04 -2.794071E+04
        80  25 -2.165539E+05  2.703163E+05  2.434390E+05 -2.036586E+04  6.626051E+04 -1.052151E+04
        80  26 -2.747192E+05  3.560165E+05  2.846163E+05  2.990194E+03  4.803144E+04 -3.174436E+04
        80  27 -3.589628E+05  3.254706E+05  2.859052E+05 -5.232029E+04  2.970129E+04 -2.792557E+04
        81   1 -2.752839E+06 -2.886611E+05 -2.985488E+05 -5.271222E+04 -1.955541E+04  2.260262E+04
        81   2 -2.666066E+06 -2.532322E+05 -2.642105E+05 -2.122445E+03 -1.190906E+04  2.230769E+04
        81   3 -2.581397E+06 -2.333917E+05 -2.381926E+05 -4.750690E+04 -4.266364E+03  1.898332E+04
        81   4 -1.644712E+06 -1.191353E+04 -2.576942E+04 -4.901294E+04 -1.917349E+04  2.260051E+04
        81   5 -1.643742E+06  1.999222E+03 -1.288360E+04 -1.038438E+03 -1.253077E+04  2.230492E+04
        81   6 -1.644698E+06  5.151082E+02 -7.607741E+03 -4.902867E+04 -5.892771E+03  1.898205E+04
        81   7 -5.354629E+05  2.647424E+05  2.469192E+05 -4.530740E+04 -1.879085E+04  2.259841E+04
        81   8 -6.204639E+05  2.571527E+05  2.383662E+05  4.721822E+01 -1.315350E+04  2.230216E+04
        81   9 -7.071978E+05  2.343564E+05  2.229122E+05 -5.055265E+04 -7.521630E+03  1.898080E+04
        81  10 -2.752839E+06 -2.886617E+05 -2.985505E+05 -5.271187E+04 -1.510934E-09  6.516549E-10
        81  11 -2.666066E+06 -2.532328E+05 -2.642117E+05 -2.122231E+03 -2.348987E-09  2.268487E-10
        81  12 -2.581397E+06 -2.333921E+05 -2.381933E+05 -4.750684E+04  2.099604E-09 -3.955911E-10
        81  13 -1.644712E+06 -1.191417E+04 -2.577107E+04 -4.901259E+04 -3.952870E-09  4.389010E-10
        81  14 -1.643743E+06  1.998646E+03 -1.288483E+04 -1.038213E+03  2.336205E-09  5.530309E-10
        81  15 -1.644698E+06  5.147122E+02 -7.608483E+03 -4.902858E+04 -2.827649E-10 -9.222355E-10
        81  16 -5.354634E+05  2.647418E+05  2.469176E+05 -4.530706E+04  4.397229E-10  1.129787E-09
        81  17 -6.204642E+05  2.571522E+05  2.383650E+05  4.745444E+01  1.407400E-09 -2.632851E-10
        81  18 -7.071979E+05  2.343560E+05  2.229115E+05 -5.055253E+04 -2.447242E-09 -6.497586E-10
        81  19 -2.752839E+06 -2.886611E+05 -2.985488E+05 -5.271222E+04  1.955541E+04 -2.260262E+04
        81  20 -2.666066E+06 -2.532322E+05 -2.642105E+05 -2.122445E+03  1.190906E+04 -2.230769E+04
        81  21 -2.581397E+06 -2.333917E+05 -2.381926E+05 -4.750690E+04  4.266364E+03 -1.898332E+04
        81  22 -1.644712E+06 -1.191353E+04 -2.576942E+04 -4.901294E+04  1.917349E+04 -2.260051E+04
        81  23 -1.643742E+06  1.999222E+03 -1.288360E+04 -1.038438E+03  1.253077E+04 -2.230492E+04
        81  24 -1.644698E+06  5.151082E+02 -7.607741E+03 -4.902867E+04  5.892771E+03 -1.898205E+04
        81  25 -5.354629E+05  2.647424E+05  2.469192E+05 -4.530740E+04  1.879085E+04 -2.259841E+04
        81  26 -6.204639E+05  2.571527E+05  2.383662E+05  4.721822E+01  1.315350E+04 -2.230216E+04
        81  27 -7.071978E+05  2.343564E+05  2.229122E+05 -5.055265E+04  7.521630E+03 -1.898080E+04
        82   1 -2.370126E+06 -1.828061E+05 -1.843915E+05 -5.146249E+04 -3.744638E+03  1.665155E+04
        82   2 -2.274180E+06 -1.570403E+05 -1.582176E+05  2.695504E+03 -1.908500E+03  1.360544E+04
        82   3 -2.178264E+06 -1.330891E+05 -1.335628E+05 -5.060184E+04 -7.877951E+01  1.007955E+04
        82   4 -1.644165E+06 -1.632554E+03 -6.130870E+03 -5.157767E+04 -4.687922E+03  1.665104E+04
        82   5 -1.644159E+06  2.185574E+02 -3.339625E+03  2.147571E+03 -3.010803E+03  1.360600E+04
        82   6 -1.644162E+06  2.854646E+02 -1.954246E+03 -5.157578E+04 -1.340379E+03  1.008143E+04
        82   7 -9.177226E+05  1.795018E+05  1.720909E+05 -5.169288E+04 -5.632308E+03  1.665053E+04
        82   8 -1.013777E+06  1.574478E+05  1.515091E+05  1.599198E+03 -4.114224E+03  1.360657E+04
        82   9 -1.109800E+06  1.336387E+05  1.296332E+05 -5.255042E+04 -2.603066E+03  1.008331E+04
        82  10 -2.370126E+06 -1.828064E+05 -1.843920E+05 -5.146244E+04  3.891464E-09 -9.140446E-10
        82  11 -2.274180E+06 -1.570405E+05 -1.582179E+05  2.695525E+03 -1.906931E-09 -3.881045E-11
        82  12 -2.178264E+06 -1.330892E+05 -1.335630E+05 -5.060184E+04 -9.546298E-10  8.550103E-10
        82  13 -1.644165E+06 -1.632857E+03 -6.131432E+03 -5.157761E+04  2.013922E-09 -7.512787E-10
        82  14 -1.644160E+06  2.183563E+02 -3.339989E+03  2.147604E+03  9.090215E-10  3.706028E-10
        82  15 -1.644162E+06  2.853550E+02 -1.954440E+03 -5.157576E+04 -6.281422E-10  8.767219E-10
        82  16 -9.177228E+05  1.795015E+05  1.720903E+05 -5.169280E+04 -2.213415E-09 -9.283481E-10
        82  17 -1.013777E+06  1.574476E+05  1.515087E+05  1.599243E+03 -8.405155E-10  8.245975E-10
        82  18 -1.109800E+06  1.336386E+05  1.296330E+05 -5.255040E+04 -6.285583E-10  1.139022E-09
        82  19 -2.370126E+06 -1.828061E+05 -1.843915E+05 -5.146249E+04  3.744638E+03 -1.665155E+04
        82  20 -2.274180E+06 -1.570403E+05 -1.582176E+05  2.695504E+03  1.908500E+03 -1.360544E+04
        82  21 -2.178264E+06 -1.330891E+05 -1.335628E+05 -5.060184E+04  7.877951E+01 -1.007955E+04
        82  22 -1.644165E+06 -1.632554E+03 -6.130870E+03 -5.157767E+04  4.687922E+03 -1.665104E+04
        82  23 -1.644159E+06  2.185574E+02 -3.339625E+03  2.147571E+03  3.010803E+03 -1.360600E+04
        82  24 -1.644162E+06  2.854646E+02 -1.954246E+03 -5.157578E+04  1.340379E+03 -1.008143E+04
        82  25 -9.177226E+05  1.795018E+05  1.720909E+05 -5.169288E+04  5.632308E+03 -1.665053E+04
        82  26 -1.013777E+06  1.574478E+05  1.515091E+05  1.599198E+03  4.114224E+03 -1.360657E+04
        82  27 -1.109800E+06  1.336387E+05  1.296332E+05 -5.255042E+04  2.603066E+03 -1.008331E+04
        83   1 -1.949706E+06 -7.623743E+04 -7.641361E+04 -5.242202E+04  1.441084E+02  7.948669E+03
        83   2 -1.848311E+06 -5.095272E+04 -5.128852E+04  4.095314E+03  6.965238E+02  4.402778E+03
        83   3 -1.747493E+06 -2.559557E+04 -2.661868E+04 -5.262223E+04  1.246723E+03  7.699613E+02
        83   4 -1.644231E+06 -6.142278E+01 -1.629455E+03 -5.286222E+04 -1.029875E+03  7.950946E+03
        83   5 -1.643939E+06  4.832504E+01 -1.058978E+03  3.754365E+03 -5.064705E+02  4.405444E+03
        83   6 -1.644230E+06  2.360339E+02 -9.230779E+02 -5.286159E+04  1.462690E+01  7.730636E+02
        83   7 -1.338670E+06  7.610766E+04  7.314786E+04 -5.330260E+04 -2.204436E+03  7.953224E+03
        83   8 -1.439528E+06  5.104626E+04  4.916749E+04  3.413325E+03 -1.709861E+03  4.408112E+03
        83   9 -1.540957E+06  2.606683E+04  2.477173E+04 -5.310097E+04 -1.217674E+03  7.761666E+02
        83  10 -1.949706E+06 -7.623750E+04 -7.641372E+04 -5.242202E+04 -1.275836E-09  1.004376E-09
        83  11 -1.848311E+06 -5.095274E+04 -5.128856E+04  4.095312E+03 -3.320283E-10  3.255114E-10
        83  12 -1.747493E+06 -2.559557E+04 -2.661868E+04 -5.262223E+04  1.484306E-09 -1.256928E-09
        83  13 -1.644231E+06 -6.149090E+01 -1.629576E+03 -5.286222E+04 -3.631228E-10  5.057741E-10
        83  14 -1.643939E+06  4.830415E+01 -1.059015E+03  3.754367E+03  8.531919E-10  5.450415E-10
        83  15 -1.644230E+06  2.360332E+02 -9.230790E+02 -5.286159E+04 -1.940021E-09 -6.902049E-10
        83  16 -1.338670E+06  7.610759E+04  7.314774E+04 -5.330259E+04  4.965409E-10  4.726604E-10
        83  17 -1.439528E+06  5.104624E+04  4.916745E+04  3.413331E+03  1.427313E-10 -2.931689E-10
        83  18 -1.540957E+06  2.606683E+04  2.477172E+04 -5.310097E+04 -1.956246E-09 -1.074337E-09
        83  19 -1.949706E+06 -7.623743E+04 -7.641361E+04 -5.242202E+04 -1.441084E+02 -7.948669E+03
        83  20 -1.848311E+06 -5.095272E+04 -5.128852E+04  4.095314E+03 -6.965238E+02 -4.402778E+03
        83  21 -1.747493E+06 -2.559557E+04 -2.661868E+04 -5.262223E+04 -1.246723E+03 -7.699613E+02
        83  22 -1.644231E+06 -6.142278E+01 -1.629455E+03 -5.286222E+04  1.029875E+03 -7.950946E+03
        83  23 -1.643939E+06  4.832504E+01 -1.058978E+03  3.754365E+03  5.064705E+02 -4.405444E+03
        83  24 -1.644230E+06  2.360339E+02 -9.230779E+02 -5.286159E+04 -1.462690E+01 -7.730636E+02
        83  25 -1.338670E+06  7.610766E+04  7.314786E+04 -5.330260E+04  2.204436E+03 -7.953224E+03
        83  26 -1.439528E+06  5.104626E+04  4.916749E+04  3.413325E+03  1.709861E+03 -4.408112E+03
        83  27 -1.540957E+06  2.606683E+04  2.477173E+04 -5.310097E+04  1.217674E+03 -7.761666E+02
        84   1 -1.512996E+06  3.305506E+04  3.161241E+04 -5.311722E+04  1.408309E+03 -1.377193E+03
        84   2 -1.411741E+06  5.798642E+04  5.581568E+04  3.317712E+03  1.987585E+03 -5.007042E+03
        84   3 -1.311043E+06  8.292895E+04  7.953769E+04 -5.328294E+04  2.569569E+03 -8.541980E+03
        84   4 -1.644230E+06  2.483739E+02 -9.530216E+02 -5.281834E+04  1.753580E+02 -1.374108E+03
        84   5 -1.643944E+06  5.552997E+01 -1.238969E+03  3.700367E+03  7.861886E+02 -5.004445E+03
        84   6 -1.644230E+06 -1.310502E+02 -2.027632E+03 -5.281914E+04  1.399633E+03 -8.539823E+03
        84   7 -1.775447E+06 -3.255960E+04 -3.351973E+04 -5.251951E+04 -1.057332E+03 -1.371024E+03
        84   8 -1.876098E+06 -5.787938E+04 -5.829758E+04  4.082906E+03 -4.147582E+02 -5.001850E+03
        84   9 -1.977317E+06 -8.319928E+04 -8.360108E+04 -5.235554E+04  2.303244E+02 -8.537667E+03
        84  10 -1.512996E+06  3.305505E+04  3.161240E+04 -5.311721E+04  8.183548E-11 -1.158981E-09
        84  11 -1.411741E+06  5.798639E+04  5.581562E+04  3.317720E+03  1.995303E-09  4.931139E-10
        84  12 -1.311043E+06  8.292887E+04  7.953754E+04 -5.328292E+04 -1.964421E-10  7.923519E-10
        84  13 -1.644230E+06  2.483719E+02 -9.530252E+02 -5.281834E+04 -1.247771E-10 -3.152434E-10
        84  14 -1.643944E+06  5.550293E+01 -1.239017E+03  3.700370E+03  1.934121E-09  5.501360E-10
        84  15 -1.644230E+06 -1.311290E+02 -2.027773E+03 -5.281913E+04  1.856466E-09  5.373582E-10
        84  16 -1.775447E+06 -3.255960E+04 -3.351974E+04 -5.251951E+04 -2.038584E-09 -9.624996E-10
        84  17 -1.876098E+06 -5.787940E+04 -5.829763E+04  4.082904E+03 -2.509636E-09  6.674587E-10
        84  18 -1.977317E+06 -8.319936E+04 -8.360122E+04 -5.235553E+04  2.284294E-10 -3.528104E-10
        84  19 -1.512996E+06  3.305506E+04  3.161241E+04 -5.311722E+04 -1.408309E+03  1.377193E+03
        84  20 -1.411741E+06  5.798642E+04  5.581568E+04  3.317712E+03 -1.987585E+03  5.007042E+03
        84  21 -1.311043E+06  8.292895E+04  7.953769E+04 -5.328294E+04 -2.569569E+03  8.541980E+03
        84  22 -1.644230E+06  2.483739E+02 -9.530216E+02 -5.281834E+04 -1.753580E+02  1.374108E+03
        84  23 -1.643944E+06  5.552997E+01 -1.238969E+03  3.700367E+03 -7.861886E+02  5.004445E+03
        84  24 -1.644230E+06 -1.310502E+02 -2.027632E+03 -5.281914E+04 -1.399633E+03  8.539823E+03
        84  25 -1.775447E+06 -3.255960E+04 -3.351973E+04 -5.251951E+04  1.057332E+03  1.371024E+03
        84  26 -1.876098E+06 -5.787938E+04 -5.829758E+04  4.082906E+03  4.147582E+02  5.001850E+03
        84  27 -1.977317E+06 -8.319928E+04 -8.360108E+04 -5.235554E+04 -2.303244E+02  8.537667E+03
        85   1 -1.082976E+06  1.403449E+05  1.356993E+05 -5.248835E+04  3.052797E+03 -1.066542E+04
        85   2 -9.874167E+05  1.640927E+05  1.570412E+05  1.483427E+03  5.033490E+03 -1.417441E+04
        85   3 -8.919285E+05  1.854845E+05  1.766553E+05 -5.143932E+04  7.021311E+03 -1.719285E+04
        85   4 -1.644190E+06  2.959652E+02 -2.481905E+03 -5.145416E+04  1.792840E+03 -1.066369E+04
        85   5 -1.644138E+06  2.968801E+02 -4.275074E+03  1.995639E+03  3.936093E+03 -1.417404E+04
        85   6 -1.644194E+06 -2.087757E+03 -7.909739E+03 -5.145622E+04  6.086168E+03 -1.719357E+04
        85   7 -2.205118E+06 -1.397765E+05 -1.406864E+05 -5.042076E+04  5.340206E+02 -1.066197E+04
        85   8 -2.300466E+06 -1.635311E+05 -1.656231E+05  2.507425E+03  2.839854E+03 -1.417366E+04
        85   9 -2.395943E+06 -1.897021E+05 -1.925164E+05 -5.147300E+04  5.152155E+03 -1.719429E+04
        85  10 -1.082976E+06  1.403448E+05  1.356991E+05 -5.248832E+04 -2.157725E-09 -9.982748E-10
        85  11 -9.874168E+05  1.640925E+05  1.570407E+05  1.483485E+03  2.822725E-10 -5.348031E-10
        85  12 -8.919287E+05  1.854842E+05  1.766547E+05 -5.143922E+04 -7.876272E-10  8.695314E-10
        85  13 -1.644190E+06  2.958423E+02 -2.482124E+03 -5.145414E+04 -2.503216E-09 -1.218797E-09
        85  14 -1.644138E+06  2.966604E+02 -4.275480E+03  1.995684E+03 -2.456721E-09 -7.295049E-10
        85  15 -1.644194E+06 -2.088084E+03 -7.910364E+03 -5.145614E+04 -4.410796E-09  5.924874E-10
        85  16 -2.205118E+06 -1.397766E+05 -1.406866E+05 -5.042075E+04 -2.307577E-09 -4.854081E-10
        85  17 -2.300466E+06 -1.635313E+05 -1.656235E+05  2.507458E+03 -2.610114E-09 -9.386383E-11
        85  18 -2.395943E+06 -1.897024E+05 -1.925170E+05 -5.147293E+04 -4.867075E-11  8.641434E-10
        85  19 -1.082976E+06  1.403449E+05  1.356993E+05 -5.248835E+04 -3.052797E+03  1.066542E+04
        85  20 -9.874167E+05  1.640927E+05  1.570412E+05  1.483427E+03 -5.033490E+03  1.417441E+04
        85  21 -8.919285E+05  1.854845E+05  1.766553E+05 -5.143932E+04 -7.021311E+03  1.719285E+04
        85  22 -1.644190E+06  2.959652E+02 -2.481905E+03 -5.145416E+04 -1.792840E+03  1.066369E+04
        85  23 -1.644138E+06  2.968801E+02 -4.275074E+03  1.995639E+03 -3.936093E+03  1.417404E+04
        85  24 -1.644194E+06 -2.087757E+03 -7.909739E+03 -5.145622E+04 -6.086168E+03  1.719357E+04
        85  25 -2.205118E+06 -1.397765E+05 -1.406864E+05 -5.042076E+04 -5.340206E+02  1.066197E+04
        85  26 -2.300466E+06 -1.635311E+05 -1.656231E+05  2.507425E+03 -2.839854E+03  1.417366E+04
        85  27 -2.395943E+06 -1.897021E+05 -1.925164E+05 -5.147300E+04 -5.152155E+03  1.719429E+04
        86   1 -6.831744E+05  2.405386E+05  2.266273E+05 -5.061663E+04  9.278415E+03 -1.951302E+04
        86   2 -5.966344E+05  2.636531E+05  2.404084E+05  9.130632E+01  1.682992E+04 -2.280627E+04
        86   3 -5.130527E+05  2.670229E+05  2.449366E+05 -4.421833E+04  2.438681E+04 -2.303340E+04
        86   4 -1.644980E+06  6.403890E+02 -9.856914E+03 -4.882255E+04  7.649798E+03 -1.951458E+04
        86   5 -1.643411E+06  2.643454E+03 -1.660848E+04 -1.296997E+03  1.621810E+04 -2.280923E+04
        86   6 -1.644998E+06 -1.529528E+04 -3.333277E+04 -4.879954E+04  2.479078E+04 -2.303556E+04
        86   7 -2.605943E+06 -2.393268E+05 -2.464093E+05 -4.703118E+04  6.023695E+03 -1.951616E+04
        86   8 -2.689187E+06 -2.584478E+05 -2.737060E+05 -2.683142E+03  1.560731E+04 -2.281220E+04
        86   9 -2.775774E+06 -2.977089E+05 -3.116966E+05 -5.337282E+04  2.519398E+04 -2.303772E+04
        86  10 -6.831746E+05  2.405382E+05  2.266264E+05 -5.061648E+04 -1.486341E-09  5.997786E-10
        86  11 -5.966348E+05  2.636525E+05  2.404068E+05  9.161539E+01 -2.606654E-09 -1.857599E-10
        86  12 -5.130535E+05  2.670222E+05  2.449345E+05 -4.421788E+04  1.980573E-09 -8.172491E-10
        86  13 -1.644981E+06  6.399646E+02 -9.857740E+03 -4.882243E+04  1.668758E-10  3.356112E-10
        86  14 -1.643411E+06  2.642825E+03 -1.660995E+04 -1.296699E+03  3.802546E-11 -2.661107E-10
        86  15 -1.644999E+06 -1.529602E+04 -3.333493E+04 -4.879908E+04  3.193245E-09 -8.660466E-10
        86  16 -2.605943E+06 -2.393272E+05 -2.464101E+05 -4.703109E+04 -2.320799E-09  7.422456E-10
        86  17 -2.689188E+06 -2.584484E+05 -2.737074E+05 -2.682855E+03 -3.191328E-11 -1.402130E-09
        86  18 -2.775775E+06 -2.977096E+05 -3.116988E+05 -5.337235E+04 -1.531820E-09 -2.786314E-10
        86  19 -6.831744E+05  2.405386E+05  2.266273E+05 -5.061663E+04 -9.278415E+03  1.951302E+04
        86  20 -5.966344E+05  2.636531E+05  2.404084E+05  9.130632E+01 -1.682992E+04  2.280627E+04
        86  21 -5.130527E+05  2.670229E+05  2.449366E+05 -4.421833E+04 -2.438681E+04  2.303340E+04
        86  22 -1.644980E+06  6.403890E+02 -9.856914E+03 -4.882255E+04 -7.649798E+03  1.951458E+04
        86  23 -1.643411E+06  2.643454E+03 -1.660848E+04 -1.296997E+03 -1.621810E+04  2.280923E+04
        86  24 -1.644998E+06 -1.529528E+04 -3.333277E+04 -4.879954E+04 -2.479078E+04  2.303556E+04
        86  25 -2.605943E+06 -2.393268E+05 -2.464093E+05 -4.703118E+04 -6.023695E+03  1.951616E+04
        86  26 -2.689187E+06 -2.584478E+05 -2.737060E+05 -2.683142E+03 -1.560731E+04  2.281220E+04
        86  27 -2.775774E+06 -2.977089E+05 -3.116966E+05 -5.337282E+04 -2.519398E+04  2.303772E+04
        87   1 -3.405569E+05  3.316602E+05  2.817392E+05 -5.448908E+04  3.684367E+04 -2.837381E+04
        87   2 -2.526880E+05  3.658477E+05  2.750337E+05  4.440620E+03  6.288022E+04 -3.212926E+04
        87   3 -2.003920E+05  2.491536E+05  2.148013E+05 -1.390610E+04  8.881020E+04 -1.053871E+04
        87   4 -1.652664E+06  4.599014E+03 -4.039768E+04 -4.503516E+04  3.125776E+04 -2.838997E+04
        87   5 -1.634140E+06  2.148646E+04 -6.361425E+04 -6.120982E+03  6.574293E+04 -3.212428E+04
        87   6 -1.652762E+06 -1.141613E+05 -1.463246E+05 -4.449527E+04  1.001179E+05 -1.048946E+04
        87   7 -2.963199E+06 -3.225899E+05 -3.626610E+05 -3.560213E+04  2.568359E+04 -2.840631E+04
        87   8 -3.013850E+06 -3.230162E+05 -4.024023E+05 -1.666057E+04  6.859914E+04 -3.211940E+04
        87   9 -3.103213E+06 -4.776319E+05 -5.076080E+05 -7.501503E+04  1.113990E+05 -1.044128E+04
        87  10 -3.405586E+05  3.316590E+05  2.817351E+05 -5.448824E+04  6.658148E-10  1.052139E-09
        87  11 -2.526925E+05  3.658455E+05  2.750243E+05  4.442246E+03 -2.154735E-09  1.365731E-09
        87  12 -2.004005E+05  2.491513E+05  2.147862E+05 -1.390534E+04 -1.001887E-10 -2.158454E-10
        87  13 -1.652665E+06  4.597886E+03 -4.040103E+04 -4.503445E+04  2.509538E-09  3.197170E-10
        87  14 -1.634145E+06  2.148419E+04 -6.362433E+04 -6.119280E+03  1.637740E-09  7.016616E-10
        87  15 -1.652773E+06 -1.141642E+05 -1.463437E+05 -4.449442E+04 -1.858887E-09  5.831071E-10
        87  16 -2.963200E+06 -3.225909E+05 -3.626638E+05 -3.560154E+04 -1.411769E-10  2.513110E-10
        87  17 -3.013855E+06 -3.230185E+05 -4.024131E+05 -1.665879E+04  2.121646E-09  2.084919E-09
        87  18 -3.103226E+06 -4.776354E+05 -5.076316E+05 -7.501409E+04  1.857924E-10  2.532032E-10
        87  19 -3.405569E+05  3.316602E+05  2.817392E+05 -5.448908E+04 -3.684367E+04  2.837381E+04
        87  20 -2.526880E+05  3.658477E+05  2.750337E+05  4.440620E+03 -6.288022E+04  3.212926E+04
        87  21 -2.003920E+05  2.491536E+05  2.148013E+05 -1.390610E+04 -8.881020E+04  1.053871E+04
        87  22 -1.652664E+06  4.599014E+03 -4.039768E+04 -4.503516E+04 -3.125776E+04  2.838997E+04
        87  23 -1.634140E+06  2.148646E+04 -6.361425E+04 -6.120982E+03 -6.574293E+04  3.212428E+04
        87  24 -1.652762E+06 -1.141613E+05 -1.463246E+05 -4.449527E+04 -1.001179E+05  1.048946E+04
        87  25 -2.963199E+06 -3.225899E+05 -3.626610E+05 -3.560213E+04 -2.568359E+04  2.840631E+04
        87  26 -3.013850E+06 -3.230162E+05 -4.024023E+05 -1.666057E+04 -6.859914E+04  3.211940E+04
        87  27 -3.103213E+06 -4.776319E+05 -5.076080E+05 -7.501503E+04 -1.113990E+05  1.044128E+04
        88   1  7.373680E+05  2.093438E+06  7.629835E+05 -2.959346E+05  1.737892E+04  1.182486E+05
        88   2  4.810183E+05  1.597433E+06  5.544316E+05 -1.549693E+04  4.804237E+04  6.917531E+04
        88   3  3.860710E+05  1.148649E+06  4.182508E+05 -2.607308E+05  2.966620E+04  1.976097E+04
        88   4  1.140957E+05 -4.037346E+05  1.432562E+05 -2.597214E+05  1.750301E+04  9.951546E+04
        88   5 -2.255515E+04 -4.258974E+05  5.956847E+04  2.802313E+03  4.806941E+04  6.709061E+04
        88   6 -4.053076E+02 -4.037645E+05  3.690219E+04 -2.604382E+05  2.952865E+04  3.428626E+04
        88   7 -5.096404E+05 -2.895254E+06 -4.769353E+05 -2.236439E+05  1.762521E+04  8.085674E+04
        88   8 -5.264308E+05 -2.445501E+06 -4.355939E+05  2.104906E+04  4.809638E+04  6.501240E+04
        88   9 -3.870604E+05 -1.953985E+06 -3.446229E+05 -2.601407E+05  2.939093E+04  4.877525E+04
        88  10  7.373639E+05  2.093423E+06  7.629567E+05 -2.959363E+05  8.603328E-10  1.541181E-09
        88  11  4.810146E+05  1.597427E+06  5.544183E+05 -1.549960E+04  8.131498E-10 -3.298996E-10
        88  12  3.860700E+05  1.148648E+06  4.182484E+05 -2.607313E+05 -1.931932E-09 -3.122106E-09
        88  13  1.140927E+05 -4.037453E+05  1.432370E+05 -2.597228E+05 -1.789345E-09  3.527209E-11
        88  14 -2.255884E+04 -4.259029E+05  5.955566E+04  2.799715E+03  4.864855E-09  1.458207E-10
        88  15 -4.065602E+02 -4.037660E+05  3.689833E+04 -2.604391E+05  3.308985E-09  7.873042E-11
        88  16 -5.096425E+05 -2.895261E+06 -4.769482E+05 -2.236450E+05  1.013349E-09 -1.501913E-09
        88  17 -5.264344E+05 -2.445507E+06 -4.356062E+05  2.104654E+04  5.371998E-09  3.965972E-10
        88  18 -3.870619E+05 -1.953988E+06 -3.446290E+05 -2.601418E+05 -1.082762E-09  3.066824E-09
        88  19  7.373680E+05  2.093438E+06  7.629835E+05 -2.959346E+05 -1.737892E+04 -1.182486E+05
        88  20  4.810183E+05  1.597433E+06  5.544316E+05 -1.549693E+04 -4.804237E+04 -6.917531E+04
        88  21  3.860710E+05  1.148649E+06  4.182508E+05 -2.607308E+05 -2.966620E+04 -1.976097E+04
        88  22  1.140957E+05 -4.037346E+05  1.432562E+05 -2.597214E+05 -1.750301E+04 -9.951546E+04
        88  23 -2.255515E+04 -4.258974E+05  5.956847E+04  2.802313E+03 -4.806941E+04 -6.709061E+04
        88  24 -4.053076E+02 -4.037645E+05  3.690219E+04 -2.604382E+05 -2.952865E+04 -3.428626E+04
        88  25 -5.096404E+05 -2.895254E+06 -4.769353E+05 -2.236439E+05 -1.762521E+04 -8.085674E+04
        88  26 -5.264308E+05 -2.445501E+06 -4.355939E+05  2.104906E+04 -4.809638E+04 -6.501240E+04
        88  27 -3.870604E+05 -1.953985E+06 -3.446229E+05 -2.601407E+05 -2.939093E+04 -4.877525E+04
        89   1  1.342874E+05  4.671853E+04  1.409287E+05 -2.665931E+05  1.143176E+04  2.426667E+04
        89   2 -4.442508E+03 -4.237902E+05  5.358972E+03  2.974736E+03 -4.837431E+02  1.976009E+04
        89   3 -1.243948E+05 -9.019676E+05 -1.253496E+05 -2.576979E+05 -1.236552E+04  1.525773E+04
        89   4  1.933798E+04 -4.146592E+05  2.810202E+04 -2.610479E+05  1.139101E+04  2.828340E+04
        89   5 -1.215111E+03 -4.107328E+05  8.557665E+03  3.958226E+03 -5.241370E+02  2.377147E+04
        89   6 -2.968704E+03 -4.146679E+05 -6.094665E+03 -2.612726E+05 -1.240605E+04  1.926044E+04
        89   7 -9.562712E+04 -8.758428E+05 -8.474017E+04 -2.555063E+05  1.135031E+04  3.229714E+04
        89   8  2.012286E+03 -3.976752E+05  1.175641E+04  4.941737E+03 -5.645178E+02  2.778294E+04
        89   9  1.184398E+05  7.284857E+04  1.131430E+05 -2.648495E+05 -1.244660E+04  2.326628E+04
        89  10  1.342871E+05  4.671786E+04  1.409274E+05 -2.665933E+05 -1.800617E-09  8.070552E-10
        89  11 -4.442613E+03 -4.237907E+05  5.358238E+03  2.974744E+03  2.284757E-09  7.777506E-10
        89  12 -1.243950E+05 -9.019679E+05 -1.253504E+05 -2.576978E+05  1.470110E-09 -8.422010E-10
        89  13  1.933763E+04 -4.146601E+05  2.810027E+04 -2.610482E+05  9.450663E-10  1.678668E-10
        89  14 -1.215263E+03 -4.107334E+05  8.556602E+03  3.958236E+03  1.018262E-09  4.131862E-11
        89  15 -2.968968E+03 -4.146683E+05 -6.095652E+03 -2.612724E+05  9.051530E-10  2.231083E-11
        89  16 -9.562754E+04 -8.758439E+05 -8.474238E+04 -2.555066E+05 -3.526404E-09 -8.835024E-10
        89  17  2.012078E+03 -3.976760E+05  1.175495E+04  4.941750E+03 -7.713236E-10 -9.543877E-10
        89  18  1.184395E+05  7.284795E+04  1.131417E+05 -2.648493E+05 -3.981505E-09  9.319872E-10
        89  19  1.342874E+05  4.671853E+04  1.409287E+05 -2.665931E+05 -1.143176E+04 -2.426667E+04
        89  20 -4.442508E+03 -4.237902E+05  5.358972E+03  2.974736E+03  4.837431E+02 -1.976009E+04
        89  21 -1.243948E+05 -9.019676E+05 -1.253496E+05 -2.576979E+05  1.236552E+04 -1.525773E+04
        89  22  1.933798E+04 -4.146592E+05  2.810202E+04 -2.610479E+05 -1.139101E+04 -2.828340E+04
        89  23 -1.215111E+03 -4.107328E+05  8.557665E+03  3.958226E+03  5.241370E+02 -2.377147E+04
        89  24 -2.968704E+03 -4.146679E+05 -6.094665E+03 -2.612726E+05  1.240605E+04 -1.926044E+04
        89  25 -9.562712E+04 -8.758428E+05 -8.474017E+04 -2.555063E+05 -1.135031E+04 -3.229714E+04
        89  26  2.012286E+03 -3.976752E+05  1.175641E+04  4.941737E+03  5.645178E+02 -2.778294E+04
        89  27  1.184398E+05  7.284857E+04  1.131430E+05 -2.648495E+05  1.244660E+04 -2.326628E+04
        90   1 -3.840887E+05 -1.993273E+06 -3.988908E+05 -2.433727E+05 -3.051410E+04  5.824398E+03
        90   2 -5.014868E+05 -2.454877E+06 -5.284743E+05  1.123681E+04 -4.949919E+04  3.681792E+04
        90   3 -6.801927E+05 -2.935052E+06 -6.936227E+05 -2.606768E+05 -1.873122E+04  6.816746E+04
        90   4  9.438654E+03 -4.171277E+05 -1.090522E+04 -2.601811E+05 -3.065175E+04  2.046576E+04
        90   5  8.680801E+03 -4.092437E+05 -2.695022E+04  2.837351E+03 -4.947333E+04  3.484125E+04
        90   6 -5.034009E+04 -4.171443E+05 -6.690503E+04 -2.605663E+05 -1.861293E+04  4.959660E+04
        90   7  4.027815E+05  1.161284E+06  3.768978E+05 -2.770265E+05 -3.079003E+04  3.514428E+04
        90   8  5.185378E+05  1.640212E+06  4.742668E+05 -5.582608E+03 -4.944748E+04  3.285791E+04
        90   9  5.790355E+05  2.106535E+06  5.593383E+05 -2.604455E+05 -1.849489E+04  3.094985E+04
        90  10 -3.840897E+05 -1.993273E+06 -3.988926E+05 -2.433726E+05 -3.287772E-09 -5.945108E-10
        90  11 -5.014898E+05 -2.454879E+06 -5.284814E+05  1.123828E+04 -2.306871E-09  1.396731E-11
        90  12 -6.801944E+05 -2.935057E+06 -6.936322E+05 -2.606757E+05  4.378903E-10  7.360578E-10
        90  13  9.437534E+03 -4.171284E+05 -1.090777E+04 -2.601806E+05 -4.861474E-09 -6.375301E-11
        90  14  8.677847E+03 -4.092457E+05 -2.695711E+04  2.838739E+03 -4.394407E-09 -1.971261E-10
        90  15 -5.034112E+04 -4.171470E+05 -6.691030E+04 -2.605656E+05 -7.932096E-10 -7.864190E-11
        90  16  4.027802E+05  1.161282E+06  3.768937E+05 -2.770256E+05 -2.281954E-09  5.365986E-10
        90  17  5.185349E+05  1.640210E+06  4.742602E+05 -5.581301E+03 -1.688177E-09  1.492165E-11
        90  18  5.790348E+05  2.106534E+06  5.593358E+05 -2.604451E+05  7.946796E-10 -7.524019E-10
        90  19 -3.840887E+05 -1.993273E+06 -3.988908E+05 -2.433727E+05  3.051410E+04 -5.824398E+03
        90  20 -5.014868E+05 -2.454877E+06 -5.284743E+05  1.123681E+04  4.949919E+04 -3.681792E+04
        90  21 -6.801927E+05 -2.935052E+06 -6.936227E+05 -2.606768E+05  1.873122E+04 -6.816746E+04
        90  22  9.438654E+03 -4.171277E+05 -1.090522E+04 -2.601811E+05  3.065175E+04 -2.046576E+04
        90  23  8.680801E+03 -4.092437E+05 -2.695022E+04  2.837351E+03  4.947333E+04 -3.484125E+04
        90  24 -5.034009E+04 -4.171443E+05 -6.690503E+04 -2.605663E+05  1.861293E+04 -4.959660E+04
        90  25  4.027815E+05  1.161284E+06  3.768978E+05 -2.770265E+05  3.079003E+04 -3.514428E+04
        90  26  5.185378E+05  1.640212E+06  4.742668E+05 -5.582608E+03  4.944748E+04 -3.285791E+04
        90  27  5.790355E+05  2.106535E+06  5.593383E+05 -2.604455E+05  1.849489E+04 -3.094985E+04
        91   1 -6.599026E+06 -2.035010E+06 -1.355331E+06 -2.256642E+06 -7.160319E+05 -2.643371E+05
        91   2 -6.413104E+06 -1.013735E+06 -6.939071E+05 -2.458602E+06 -4.637941E+05 -1.520879E+05
        91   3 -6.680244E+06 -1.066143E+06 -5.230446E+05 -2.364777E+06 -2.057326E+05 -5.518379E+04
        91   4 -5.874097E+06 -1.590588E+06 -1.121438E+06 -1.888410E+06 -7.097998E+05 -2.622086E+05
        91   5 -5.589332E+06 -6.553546E+05 -4.606408E+05 -2.187483E+06 -4.621055E+05 -1.514909E+05
        91   6 -5.756211E+06 -7.920841E+05 -2.863228E+05 -2.190950E+06 -2.085464E+05 -5.621937E+04
        91   7 -5.148585E+06 -1.145821E+06 -8.875942E+05 -1.519702E+06 -7.035593E+05 -2.600724E+05
        91   8 -4.764894E+06 -2.968714E+05 -2.274400E+05 -1.916015E+06 -4.604140E+05 -1.508923E+05
        91   9 -4.831341E+06 -5.180417E+05 -4.966524E+04 -2.016923E+06 -2.113646E+05 -5.725579E+04
        91  10 -6.599600E+06 -2.035226E+06 -1.356439E+06 -2.256796E+06  9.199672E-10 -2.787680E-11
        91  11 -6.413343E+06 -1.013819E+06 -6.943602E+05 -2.458659E+06  1.709707E-09 -6.537437E-10
        91  12 -6.680291E+06 -1.066157E+06 -5.231309E+05 -2.364786E+06  2.002711E-10 -8.769900E-10
        91  13 -5.874661E+06 -1.590799E+06 -1.122525E+06 -1.888561E+06 -2.784975E-09  9.990949E-11
        91  14 -5.589569E+06 -6.554376E+05 -4.610899E+05 -2.187540E+06  2.805703E-09 -4.640274E-10
        91  15 -5.756259E+06 -7.920993E+05 -2.864114E+05 -2.190960E+06  2.827847E-10 -7.805218E-10
        91  16 -5.149138E+06 -1.146029E+06 -8.886612E+05 -1.519850E+06  8.568867E-10  4.128328E-11
        91  17 -4.765129E+06 -2.969535E+05 -2.278851E+05 -1.916071E+06  7.258460E-10 -2.232744E-10
        91  18 -4.831390E+06 -5.180574E+05 -4.975617E+04 -2.016933E+06 -3.147242E-09 -1.860721E-09
        91  19 -6.599026E+06 -2.035010E+06 -1.355331E+06 -2.256642E+06  7.160319E+05  2.643371E+05
        91  20 -6.413104E+06 -1.013735E+06 -6.939071E+05 -2.458602E+06  4.637941E+05  1.520879E+05
        91  21 -6.680244E+06 -1.066143E+06 -5.230446E+05 -2.364777E+06  2.057326E+05  5.518379E+04
        91  22 -5.874097E+06 -1.590588E+06 -1.121438E+06 -1.888410E+06  7.097998E+05  2.622086E+05
        91  23 -5.589332E+06 -6.553546E+05 -4.606408E+05 -2.187483E+06  4.621055E+05  1.514909E+05
        91  24 -5.756211E+06 -7.920841E+05 -2.863228E+05 -2.190950E+06  2.085464E+05  5.621937E+04
        91  25 -5.148585E+06 -1.145821E+06 -8.875942E+05 -1.519702E+06  7.035593E+05  2.600724E+05
        91  26 -4.764894E+06 -2.968714E+05 -2.274400E+05 -1.916015E+06  4.604140E+05  1.508923E+05
        91  27 -4.831341E+06 -5.180417E+05 -4.966524E+04 -2.016923E+06  2.113646E+05  5.725579E+04
        92   1 -6.532870E+06 -1.260299E+06 -4.633531E+05 -2.374925E+06 -1.661801E+05 -4.279750E+04
        92   2 -6.487584E+06 -1.095220E+06 -3.272799E+05 -2.374029E+06 -1.086448E+05 -2.010717E+04
        92   3 -6.472944E+06 -1.104444E+06 -2.737936E+05 -2.369649E+06 -5.005083E+04 -2.165941E+02
        92   4 -5.711372E+06 -9.270715E+05 -2.348575E+05 -2.129220E+06 -1.656390E+05 -4.260189E+04
        92   5 -5.688367E+06 -7.868118E+05 -1.084511E+05 -2.150963E+06 -1.089036E+05 -2.020768E+04
        92   6 -5.695770E+06 -8.205741E+05 -6.390660E+04 -2.169238E+06 -5.111226E+04 -6.161346E+02
        92   7 -4.889219E+06 -5.937785E+05 -6.425748E+03 -1.883209E+06 -1.650971E+05 -4.240588E+04
        92   8 -4.888529E+06 -4.783600E+05  1.103192E+05 -1.927633E+06 -1.091626E+05 -2.030830E+04
        92   9 -4.918010E+06 -5.366798E+05  1.459270E+05 -1.968603E+06 -5.217513E+04 -1.016172E+03
        92  10 -6.532901E+06 -1.260308E+06 -4.634091E+05 -2.374931E+06  2.109446E-10 -1.208089E-09
        92  11 -6.487597E+06 -1.095224E+06 -3.273031E+05 -2.374030E+06  2.062473E-09  1.642892E-10
        92  12 -6.472946E+06 -1.104444E+06 -2.737983E+05 -2.369649E+06 -1.100351E-09 -3.486726E-10
        92  13 -5.711403E+06 -9.270810E+05 -2.349130E+05 -2.129226E+06 -2.398531E-09 -8.581438E-10
        92  14 -5.688379E+06 -7.868155E+05 -1.084744E+05 -2.150964E+06 -8.267858E-10 -4.093843E-10
        92  15 -5.695773E+06 -8.205748E+05 -6.391156E+04 -2.169238E+06 -2.692643E-09 -1.725937E-10
        92  16 -4.889249E+06 -5.937879E+05 -6.480838E+03 -1.883215E+06  1.340262E-10 -9.594432E-10
        92  17 -4.888542E+06 -4.783637E+05  1.102959E+05 -1.927634E+06 -3.730377E-09 -1.258842E-09
        92  18 -4.918013E+06 -5.366805E+05  1.459219E+05 -1.968603E+06 -7.268385E-10  8.610039E-10
        92  19 -6.532870E+06 -1.260299E+06 -4.633531E+05 -2.374925E+06  1.661801E+05  4.279750E+04
        92  20 -6.487584E+06 -1.095220E+06 -3.272799E+05 -2.374029E+06  1.086448E+05  2.010717E+04
        92  21 -6.472944E+06 -1.104444E+06 -2.737936E+05 -2.369649E+06  5.005083E+04  2.165941E+02
        92  22 -5.711372E+06 -9.270715E+05 -2.348575E+05 -2.129220E+06  1.656390E+05  4.260189E+04
        92  23 -5.688367E+06 -7.868118E+05 -1.084511E+05 -2.150963E+06  1.089036E+05  2.020768E+04
        92  24 -5.695770E+06 -8.205741E+05 -6.390660E+04 -2.169238E+06  5.111226E+04  6.161346E+02
        92  25 -4.889219E+06 -5.937785E+05 -6.425748E+03 -1.883209E+06  1.650971E+05  4.240588E+04
        92  26 -4.888529E+06 -4.783600E+05  1.103192E+05 -1.927633E+06  1.091626E+05  2.030830E+04
        92  27 -4.918010E+06 -5.366798E+05  1.459270E+05 -1.968603E+06  5.217513E+04  1.016172E+03
        93   1 -6.313430E+06 -1.085218E+06 -2.225880E+05 -2.341356E+06 -4.068362E+04  1.588220E+03
        93   2 -6.270120E+06 -1.009531E+06 -1.781913E+05 -2.290314E+06 -2.658059E+04  4.450143E+03
        93   3 -6.173512E+06 -1.014423E+06 -1.488088E+05 -2.304682E+06 -1.211615E+04  6.337292E+03
        93   4 -5.683497E+06 -8.443570E+05 -5.066438E+04 -2.167760E+06 -4.122206E+04  1.384765E+03
        93   5 -5.709134E+06 -7.969640E+05 -2.536365E+04 -2.137719E+06 -2.740971E+04  4.138613E+03
        93   6 -5.681414E+06 -8.300743E+05 -1.483184E+04 -2.173085E+06 -1.323775E+04  5.917401E+03
        93   7 -5.053179E+06 -6.034711E+05  1.212231E+05 -1.994003E+06 -4.176109E+04  1.181084E+03
        93   8 -5.147844E+06 -5.843786E+05  1.274353E+05 -1.984998E+06 -2.823964E+04  3.826774E+03
        93   9 -5.189082E+06 -6.457138E+05  1.191230E+05 -2.041395E+06 -1.436033E+04  5.497149E+03
        93  10 -6.313431E+06 -1.085218E+06 -2.225912E+05 -2.341356E+06 -1.144926E-09  6.620130E-10
        93  11 -6.270121E+06 -1.009531E+06 -1.781927E+05 -2.290314E+06 -1.663000E-09 -1.296421E-09
        93  12 -6.173512E+06 -1.014423E+06 -1.488092E+05 -2.304681E+06 -1.273507E-09 -1.683746E-09
        93  13 -5.683499E+06 -8.443575E+05 -5.066760E+04 -2.167760E+06 -6.570662E-09 -2.134916E-10
        93  14 -5.709135E+06 -7.969642E+05 -2.536510E+04 -2.137719E+06 -3.017466E-09  3.037711E-10
        93  15 -5.681414E+06 -8.300744E+05 -1.483223E+04 -2.173085E+06 -3.814903E-09  1.047072E-10
        93  16 -5.053181E+06 -6.034716E+05  1.212198E+05 -1.994003E+06  6.193482E-10 -3.759883E-10
        93  17 -5.147845E+06 -5.843789E+05  1.274338E+05 -1.984998E+06  1.108085E-09 -1.805053E-09
        93  18 -5.189082E+06 -6.457139E+05  1.191225E+05 -2.041395E+06 -1.132206E-09 -1.278580E-09
        93  19 -6.313430E+06 -1.085218E+06 -2.225880E+05 -2.341356E+06  4.068362E+04 -1.588220E+03
        93  20 -6.270120E+06 -1.009531E+06 -1.781913E+05 -2.290314E+06  2.658059E+04 -4.450143E+03
        93  21 -6.173512E+06 -1.014423E+06 -1.488088E+05 -2.304682E+06  1.211615E+04 -6.337292E+03
        93  22 -5.683497E+06 -8.443570E+05 -5.066438E+04 -2.167760E+06  4.122206E+04 -1.384765E+03
        93  23 -5.709134E+06 -7.969640E+05 -2.536365E+04 -2.137719E+06  2.740971E+04 -4.138613E+03
        93  24 -5.681414E+06 -8.300743E+05 -1.483184E+04 -2.173085E+06  1.323775E+04 -5.917401E+03
        93  25 -5.053179E+06 -6.034711E+05  1.212231E+05 -1.994003E+06  4.176109E+04 -1.181084E+03
        93  26 -5.147844E+06 -5.843786E+05  1.274353E+05 -1.984998E+06  2.823964E+04 -3.826774E+03
        93  27 -5.189082E+06 -6.457138E+05  1.191230E+05 -2.041395E+06  1.436033E+04 -5.497149E+03
        94   1 -5.954823E+06 -9.412661E+05 -8.721837E+04 -2.251785E+06 -9.314075E+03  5.109060E+03
        94   2 -5.902767E+06 -8.652512E+05 -5.810881E+04 -2.182397E+06 -4.385994E+03  3.161861E+03
        94   3 -5.773651E+06 -8.708442E+05 -3.255974E+04 -2.202848E+06  6.448140E+02  9.349393E+02
        94   4 -5.676922E+06 -8.361624E+05 -1.184830E+04 -2.176306E+06 -1.030990E+04  4.736782E+03
        94   5 -5.715332E+06 -7.945224E+05 -7.113999E+03 -2.131699E+06 -5.467561E+03  2.757918E+03
        94   6 -5.676676E+06 -8.344716E+05 -5.870314E+03 -2.176933E+06 -5.231347E+02  4.991797E+02
        94   7 -5.398946E+06 -7.310539E+05  6.351505E+04 -2.100795E+06 -1.130622E+04  4.364317E+03
        94   8 -5.527864E+06 -7.237917E+05  4.387758E+04 -2.080987E+06 -6.549489E+03  2.353841E+03
        94   9 -5.579693E+06 -7.980988E+05  2.081811E+04 -2.151015E+06 -1.691280E+03  6.334793E+01
        94  10 -5.954824E+06 -9.412661E+05 -8.721858E+04 -2.251785E+06 -5.585690E-11 -1.961196E-09
        94  11 -5.902767E+06 -8.652512E+05 -5.810887E+04 -2.182397E+06 -7.602634E-10 -2.689869E-10
        94  12 -5.773651E+06 -8.708442E+05 -3.255974E+04 -2.202848E+06  1.739784E-09  7.122585E-10
        94  13 -5.676923E+06 -8.361625E+05 -1.184854E+04 -2.176306E+06 -9.924732E-10  7.983667E-10
        94  14 -5.715332E+06 -7.945224E+05 -7.114070E+03 -2.131699E+06 -2.522677E-09  8.562995E-10
        94  15 -5.676676E+06 -8.344716E+05 -5.870315E+03 -2.176933E+06 -4.460102E-09  3.550020E-10
        94  16 -5.398946E+06 -7.310539E+05  6.351477E+04 -2.100795E+06 -1.895202E-09 -7.981518E-10
        94  17 -5.527864E+06 -7.237918E+05  4.387749E+04 -2.080987E+06  5.275199E-10 -1.522399E-09
        94  18 -5.579693E+06 -7.980988E+05  2.081811E+04 -2.151015E+06 -6.069628E-09 -6.950019E-10
        94  19 -5.954823E+06 -9.412661E+05 -8.721837E+04 -2.251785E+06  9.314075E+03 -5.109060E+03
        94  20 -5.902767E+06 -8.652512E+05 -5.810881E+04 -2.182397E+06  4.385994E+03 -3.161861E+03
        94  21 -5.773651E+06 -8.708442E+05 -3.255974E+04 -2.202848E+06 -6.448140E+02 -9.349393E+02
        94  22 -5.676922E+06 -8.361624E+05 -1.184830E+04 -2.176306E+06  1.030990E+04 -4.736782E+03
        94  23 -5.715332E+06 -7.945224E+05 -7.113999E+03 -2.131699E+06  5.467561E+03 -2.757918E+03
        94  24 -5.676676E+06 -8.344716E+05 -5.870314E+03 -2.176933E+06  5.231347E+02 -4.991797E+02
        94  25 -5.398946E+06 -7.310539E+05  6.351505E+04 -2.100795E+06  1.130622E+04 -4.364317E+03
        94  26 -5.527864E+06 -7.237917E+05  4.387758E+04 -2.080987E+06  6.549489E+03 -2.353841E+03
        94  27 -5.579693E+06 -7.980988E+05  2.081811E+04 -2.151015E+06  1.691280E+03 -6.334793E+01
        95   1 -5.535283E+06 -7.810432E+05  3.288690E+04 -2.138741E+06  2.443324E+03 -9.106842E+02
        95   2 -5.484124E+06 -7.076390E+05  5.528672E+04 -2.069549E+06  7.485541E+03 -3.116457E+03
        95   3 -5.356884E+06 -7.150119E+05  7.408616E+04 -2.088985E+06  1.240327E+04 -4.979024E+03
        95   4 -5.676894E+06 -8.342191E+05 -5.935765E+03 -2.176695E+06  1.269587E+03 -1.348641E+03
        95   5 -5.715059E+06 -7.947726E+05 -7.527040E+03 -2.132024E+06  6.417369E+03 -3.515525E+03
        95   6 -5.677171E+06 -8.361277E+05 -1.280320E+04 -2.175987E+06  1.144004E+04 -5.339334E+03
        95   7 -5.818485E+06 -8.873941E+05 -4.476035E+04 -2.214642E+06  9.614478E+01 -1.786489E+03
        95   8 -5.945944E+06 -8.819035E+05 -7.034588E+04 -2.194478E+06  5.349633E+03 -3.914429E+03
        95   9 -5.997360E+06 -9.572381E+05 -9.970232E+04 -2.262948E+06  1.047737E+04 -5.699439E+03
        95  10 -5.535283E+06 -7.810432E+05  3.288689E+04 -2.138741E+06  2.263026E-09  1.970657E-09
        95  11 -5.484124E+06 -7.076390E+05  5.528660E+04 -2.069549E+06  6.630371E-10  8.088718E-10
        95  12 -5.356884E+06 -7.150120E+05  7.408582E+04 -2.088985E+06 -1.642434E-09  8.424351E-10
        95  13 -5.676894E+06 -8.342191E+05 -5.935771E+03 -2.176695E+06 -1.884311E-09  1.157875E-09
        95  14 -5.715059E+06 -7.947726E+05 -7.527141E+03 -2.132024E+06 -4.433155E-09  8.794647E-10
        95  15 -5.677171E+06 -8.361277E+05 -1.280350E+04 -2.175987E+06  4.471858E-10  2.709014E-10
        95  16 -5.818485E+06 -8.873941E+05 -4.476036E+04 -2.214642E+06 -5.985558E-09 -2.554052E-10
        95  17 -5.945944E+06 -8.819035E+05 -7.034597E+04 -2.194478E+06 -2.302536E-09  1.062428E-09
        95  18 -5.997360E+06 -9.572382E+05 -9.970259E+04 -2.262948E+06  4.669945E-10 -5.068566E-10
        95  19 -5.535283E+06 -7.810432E+05  3.288690E+04 -2.138741E+06 -2.443324E+03  9.106842E+02
        95  20 -5.484124E+06 -7.076390E+05  5.528672E+04 -2.069549E+06 -7.485541E+03  3.116457E+03
        95  21 -5.356884E+06 -7.150119E+05  7.408616E+04 -2.088985E+06 -1.240327E+04  4.979024E+03
        95  22 -5.676894E+06 -8.342191E+05 -5.935765E+03 -2.176695E+06 -1.269587E+03  1.348641E+03
        95  23 -5.715059E+06 -7.947726E+05 -7.527040E+03 -2.132024E+06 -6.417369E+03  3.515525E+03
        95  24 -5.677171E+06 -8.361277E+05 -1.280320E+04 -2.175987E+06 -1.144004E+04  5.339334E+03
        95  25 -5.818485E+06 -8.873941E+05 -4.476035E+04 -2.214642E+06 -9.614478E+01  1.786489E+03
        95  26 -5.945944E+06 -8.819035E+05 -7.034588E+04 -2.194478E+06 -5.349633E+03  3.914429E+03
        95  27 -5.997360E+06 -9.572381E+05 -9.970232E+04 -2.262948E+06 -1.047737E+04  5.699439E+03
        96   1 -5.153534E+06 -6.314677E+05  1.276932E+05 -2.031005E+06  1.562570E+04 -5.983276E+03
        96   2 -5.114011E+06 -5.723412E+05  1.341175E+05 -1.976883E+06  3.063091E+04 -3.769708E+03
        96   3 -5.024580E+06 -5.926384E+05  1.246792E+05 -1.984510E+06  4.526267E+04 -5.405477E+02
        96   4 -5.682145E+06 -8.294344E+05 -1.610249E+04 -2.172434E+06  1.452865E+04 -6.394260E+03
        96   5 -5.708201E+06 -7.974758E+05 -2.765297E+04 -2.138651E+06  2.983738E+04 -4.068181E+03
        96   6 -5.684421E+06 -8.450190E+05 -5.532030E+04 -2.166620E+06  4.477088E+04 -7.267608E+02
        96   7 -6.210483E+06 -1.027385E+06 -1.599227E+05 -2.313754E+06  1.343263E+04 -6.804863E+03
        96   8 -6.302047E+06 -1.022589E+06 -1.894550E+05 -2.300277E+06  2.904468E+04 -4.366341E+03
        96   9 -6.343840E+06 -1.097372E+06 -2.353593E+05 -2.348553E+06  4.427965E+04 -9.127598E+02
        96  10 -5.153534E+06 -6.314678E+05  1.276927E+05 -2.031005E+06 -1.528676E-09  5.538007E-10
        96  11 -5.114012E+06 -5.723415E+05  1.341157E+05 -1.976883E+06  9.971978E-10  9.415219E-10
        96  12 -5.024582E+06 -5.926389E+05  1.246754E+05 -1.984510E+06 -1.602219E-10  7.716136E-11
        96  13 -5.682145E+06 -8.294345E+05 -1.610297E+04 -2.172434E+06  3.644174E-09  1.851564E-10
        96  14 -5.708202E+06 -7.974761E+05 -2.765469E+04 -2.138651E+06  1.517132E-09  6.117635E-10
        96  15 -5.684423E+06 -8.450195E+05 -5.532410E+04 -2.166620E+06 -8.817468E-11 -7.813649E-10
        96  16 -6.210484E+06 -1.027386E+06 -1.599231E+05 -2.313754E+06  2.497140E-09  7.063859E-10
        96  17 -6.302048E+06 -1.022589E+06 -1.894566E+05 -2.300277E+06  1.247421E-09 -1.197040E-09
        96  18 -6.343842E+06 -1.097372E+06 -2.353631E+05 -2.348553E+06 -3.561205E-09 -1.561805E-09
        96  19 -5.153534E+06 -6.314677E+05  1.276932E+05 -2.031005E+06 -1.562570E+04  5.983276E+03
        96  20 -5.114011E+06 -5.723412E+05  1.341175E+05 -1.976883E+06 -3.063091E+04  3.769708E+03
        96  21 -5.024580E+06 -5.926384E+05  1.246792E+05 -1.984510E+06 -4.526267E+04  5.405477E+02
        96  22 -5.682145E+06 -8.294344E+05 -1.610249E+04 -2.172434E+06 -1.452865E+04  6.394260E+03
        96  23 -5.708201E+06 -7.974758E+05 -2.765297E+04 -2.138651E+06 -2.983738E+04  4.068181E+03
        96  24 -5.684421E+06 -8.450190E+05 -5.532030E+04 -2.166620E+06 -4.477088E+04  7.267608E+02
        96  25 -6.210483E+06 -1.027385E+06 -1.599227E+05 -2.313754E+06 -1.343263E+04  6.804863E+03
        96  26 -6.302047E+06 -1.022589E+06 -1.894550E+05 -2.300277E+06 -2.904468E+04  4.366341E+03
        96  27 -6.343840E+06 -1.097372E+06 -2.353593E+05 -2.348553E+06 -4.427965E+04  9.127598E+02
        97   1 -4.899411E+06 -5.287253E+05  1.453677E+05 -1.963407E+06  5.649830E+04  2.081908E+03
        97   2 -4.871418E+06 -4.712332E+05  1.044336E+05 -1.924568E+06  1.186961E+05  2.354541E+04
        97   3 -4.883282E+06 -5.968808E+05 -2.523841E+04 -1.874337E+06  1.798403E+05  4.781548E+04
        97   4 -5.697463E+06 -8.194486E+05 -6.980579E+04 -2.168700E+06  5.548442E+04  1.700118E+03
        97   5 -5.685943E+06 -7.858768E+05 -1.184585E+05 -2.152538E+06  1.184781E+05  2.345993E+04
        97   6 -5.714526E+06 -9.357414E+05 -2.565769E+05 -2.124968E+06  1.804158E+05  4.802295E+04
        97   7 -6.494899E+06 -1.110147E+06 -2.850362E+05 -2.373758E+06  5.447194E+04  1.318808E+03
        97   8 -6.499826E+06 -1.100475E+06 -3.414115E+05 -2.380233E+06  1.182604E+05  2.337454E+04
        97   9 -6.545097E+06 -1.274532E+06 -4.879804E+05 -2.375282E+06  1.809902E+05  4.822997E+04
        97  10 -4.899415E+06 -5.287262E+05  1.453616E+05 -1.963407E+06 -5.104910E-12 -5.343721E-10
        97  11 -4.871433E+06 -4.712376E+05  1.044059E+05 -1.924571E+06  1.466470E-09 -5.600055E-10
        97  12 -4.883317E+06 -5.968921E+05 -2.530407E+04 -1.874344E+06 -3.352912E-11 -1.792022E-09
        97  13 -5.697466E+06 -8.194494E+05 -6.981163E+04 -2.168700E+06 -1.812683E-09 -1.440935E-09
        97  14 -5.685958E+06 -7.858812E+05 -1.184862E+05 -2.152540E+06  7.299281E-10 -7.772511E-10
        97  15 -5.714561E+06 -9.357527E+05 -2.566431E+05 -2.124975E+06 -8.720911E-10 -1.033324E-09
        97  16 -6.494903E+06 -1.110148E+06 -2.850418E+05 -2.373758E+06 -2.232410E-09 -2.039156E-09
        97  17 -6.499841E+06 -1.100479E+06 -3.414392E+05 -2.380235E+06  1.669170E-09 -1.229438E-09
        97  18 -6.545133E+06 -1.274543E+06 -4.880471E+05 -2.375289E+06  2.168744E-09 -1.490531E-09
        97  19 -4.899411E+06 -5.287253E+05  1.453677E+05 -1.963407E+06 -5.649830E+04 -2.081908E+03
        97  20 -4.871418E+06 -4.712332E+05  1.044336E+05 -1.924568E+06 -1.186961E+05 -2.354541E+04
        97  21 -4.883282E+06 -5.968808E+05 -2.523841E+04 -1.874337E+06 -1.798403E+05 -4.781548E+04
        97  22 -5.697463E+06 -8.194486E+05 -6.980579E+04 -2.168700E+06 -5.548442E+04 -1.700118E+03
        97  23 -5.685943E+06 -7.858768E+05 -1.184585E+05 -2.152538E+06 -1.184781E+05 -2.345993E+04
        97  24 -5.714526E+06 -9.357414E+05 -2.565769E+05 -2.124968E+06 -1.804158E+05 -4.802295E+04
        97  25 -6.494899E+06 -1.110147E+06 -2.850362E+05 -2.373758E+06 -5.447194E+04 -1.318808E+03
        97  26 -6.499826E+06 -1.100475E+06 -3.414115E+05 -2.380233E+06 -1.182604E+05 -2.337454E+04
        97  27 -6.545097E+06 -1.274532E+06 -4.879804E+05 -2.375282E+06 -1.809902E+05 -4.822997E+04
        98   1 -4.834289E+06 -5.207436E+05 -7.658240E+04 -2.025454E+06  2.298739E+05  6.428326E+04
        98   2 -4.763578E+06 -2.820708E+05 -2.716788E+05 -1.918109E+06  5.023454E+05  1.671420E+05
        98   3 -5.188487E+06 -1.209330E+06 -9.942595E+05 -1.484278E+06  7.690002E+05  2.853202E+05
        98   4 -5.762737E+06 -7.890871E+05 -3.128109E+05 -2.193340E+06  2.271469E+05  6.328674E+04
        98   5 -5.578625E+06 -6.412827E+05 -5.031786E+05 -2.191335E+06  5.040270E+05  1.677293E+05
        98   6 -5.891671E+06 -1.661315E+06 -1.225089E+06 -1.862623E+06  7.751403E+05  2.873736E+05
        98   7 -6.690339E+06 -1.057450E+06 -5.491025E+05 -2.361036E+06  2.244243E+05  6.229096E+04
        98   8 -6.393018E+06 -1.000386E+06 -7.347425E+05 -2.464211E+06  5.057056E+05  1.683152E+05
        98   9 -6.594287E+06 -2.112918E+06 -1.455962E+06 -2.240486E+06  7.812722E+05  2.894190E+05
        98  10 -4.834347E+06 -5.207625E+05 -7.669044E+04 -2.025466E+06 -1.228211E-09 -1.595530E-09
        98  11 -4.763858E+06 -2.821696E+05 -2.722103E+05 -1.918177E+06 -1.825208E-09  1.369586E-09
        98  12 -5.189149E+06 -1.209579E+06 -9.955353E+05 -1.484456E+06  7.049635E-10  1.699091E-09
        98  13 -5.762794E+06 -7.891055E+05 -3.129165E+05 -2.193352E+06  7.496580E-10 -2.028247E-10
        98  14 -5.578908E+06 -6.413823E+05 -5.037145E+05 -2.191404E+06  3.419941E-09 -3.251767E-10
        98  15 -5.892344E+06 -1.661568E+06 -1.226387E+06 -1.862804E+06  5.069952E-09  2.046597E-09
        98  16 -6.690394E+06 -1.057467E+06 -5.492057E+05 -2.361047E+06  3.057714E-09  1.206207E-09
        98  17 -6.393303E+06 -1.000487E+06 -7.352828E+05 -2.464280E+06  7.528580E-11  1.871258E-09
        98  18 -6.594971E+06 -2.113175E+06 -1.457282E+06 -2.240670E+06  8.994798E-10  1.656131E-09
        98  19 -4.834289E+06 -5.207436E+05 -7.658240E+04 -2.025454E+06 -2.298739E+05 -6.428326E+04
        98  20 -4.763578E+06 -2.820708E+05 -2.716788E+05 -1.918109E+06 -5.023454E+05 -1.671420E+05
        98  21 -5.188487E+06 -1.209330E+06 -9.942595E+05 -1.484278E+06 -7.690002E+05 -2.853202E+05
        98  22 -5.762737E+06 -7.890871E+05 -3.128109E+05 -2.193340E+06 -2.271469E+05 -6.328674E+04
        98  23 -5.578625E+06 -6.412827E+05 -5.031786E+05 -2.191335E+06 -5.040270E+05 -1.677293E+05
        98  24 -5.891671E+06 -1.661315E+06 -1.225089E+06 -1.862623E+06 -7.751403E+05 -2.873736E+05
        98  25 -6.690339E+06 -1.057450E+06 -5.491025E+05 -2.361036E+06 -2.244243E+05 -6.229096E+04
        98  26 -6.393018E+06 -1.000386E+06 -7.347425E+05 -2.464211E+06 -5.057056E+05 -1.683152E+05
        98  27 -6.594287E+06 -2.112918E+06 -1.455962E+06 -2.240486E+06 -7.812722E+05 -2.894190E+05
        99   1 -2.279227E+06 -3.329278E+05 -3.319945E+05 -4.133846E+04 -1.420085E+04  9.852499E+03
        99   2 -2.222612E+06 -3.126200E+05 -3.105190E+05 -7.558966E+03 -5.306236E+03  2.935075E+04
        99   3 -2.164267E+06 -2.989846E+05 -2.956444E+05 -3.747523E+04  3.690951E+03  2.613939E+04
        99   4 -9.663900E+05 -4.497965E+03 -5.333574E+03 -3.560268E+04 -3.882580E+03  9.901359E+03
        99   5 -9.679183E+05  3.633030E+02 -2.690421E+03 -3.768393E+03 -2.592016E+03  2.935712E+04
        99   6 -9.663875E+05 -1.144266E+02 -1.350319E+03 -3.562211E+04 -1.199715E+03  2.612342E+04
        99   7  3.480166E+05  3.238022E+05  3.211984E+05 -2.985658E+04  6.457574E+03  9.950360E+03
        99   8  2.882132E+05  3.132296E+05  3.050226E+05  2.853387E+01  1.276978E+02  2.936351E+04
        99   9  2.328024E+05  2.986490E+05  2.928382E+05 -3.376621E+04 -6.099824E+03  2.610744E+04
        99  10 -2.279228E+06 -3.329280E+05 -3.319951E+05 -4.133835E+04  9.245394E-10  3.213855E-10
        99  11 -2.222612E+06 -3.126209E+05 -3.105207E+05 -7.558840E+03 -1.261491E-11 -2.100590E-09
        99  12 -2.164267E+06 -2.989853E+05 -2.956457E+05 -3.747530E+04 -1.888742E-09 -5.387616E-10
        99  13 -9.663900E+05 -4.498074E+03 -5.333786E+03 -3.560265E+04 -1.379725E-09 -1.489508E-09
        99  14 -9.679186E+05  3.623762E+02 -2.692053E+03 -3.768332E+03  5.897519E-09 -9.154761E-10
        99  15 -9.663876E+05 -1.151595E+02 -1.351603E+03 -3.562208E+04 -4.141583E-09 -1.086380E-09
        99  16  3.480165E+05  3.238021E+05  3.211982E+05 -2.985664E+04 -2.179405E-09  1.735465E-09
        99  17  2.882130E+05  3.132287E+05  3.050209E+05  2.853085E+01  7.854606E-10 -2.079713E-09
        99  18  2.328021E+05  2.986482E+05  2.928368E+05 -3.376608E+04  9.665337E-10 -7.832111E-10
        99  19 -2.279227E+06 -3.329278E+05 -3.319945E+05 -4.133846E+04  1.420085E+04 -9.852499E+03
        99  20 -2.222612E+06 -3.126200E+05 -3.105190E+05 -7.558966E+03  5.306236E+03 -2.935075E+04
        99  21 -2.164267E+06 -2.989846E+05 -2.956444E+05 -3.747523E+04 -3.690951E+03 -2.613939E+04
        99  22 -9.663900E+05 -4.497965E+03 -5.333574E+03 -3.560268E+04  3.882580E+03 -9.901359E+03
        99  23 -9.679183E+05  3.633030E+02 -2.690421E+03 -3.768393E+03  2.592016E+03 -2.935712E+04
        99  24 -9.663875E+05 -1.144266E+02 -1.350319E+03 -3.562211E+04  1.199715E+03 -2.612342E+04
        99  25  3.480166E+05  3.238022E+05  3.211984E+05 -2.985658E+04 -6.457574E+03 -9.950360E+03
        99  26  2.882132E+05  3.132296E+05  3.050226E+05  2.853387E+01 -1.276978E+02 -2.936351E+04
        99  27  2.328024E+05  2.986490E+05  2.928382E+05 -3.376621E+04  6.099824E+03 -2.610744E+04
       100   1 -2.022502E+06 -2.644992E+05 -2.609534E+05 -3.950413E+04 -1.486559E+03  2.145531E+04
       100   2 -1.958246E+06 -2.472398E+05 -2.441012E+05 -2.024690E+03 -2.402645E+02  2.157684E+04
       100   3 -1.891687E+06 -2.308840E+05 -2.277381E+05 -3.776862E+04  1.004664E+03  1.903880E+04
       100   4 -9.664222E+05 -9.604859E+02 -1.173810E+03 -3.773265E+04 -1.001992E+03  2.145393E+04
       100   5 -9.676496E+05 -1.183944E+02 -7.567958E+02 -1.125151E+03 -6.463784E+02  2.157416E+04
       100   6 -9.664216E+05 -2.250979E+01 -2.082386E+02 -3.773387E+04 -2.922765E+02  1.903669E+04
       100   7  9.067583E+04  2.624951E+05  2.585235E+05 -3.595861E+04 -5.165986E+02  2.145256E+04
       100   8  2.384285E+04  2.469300E+05  2.425154E+05 -2.244236E+02 -1.053140E+03  2.157148E+04
       100   9 -4.037444E+04  2.307753E+05  2.272585E+05 -3.769908E+04 -1.591151E+03  1.903459E+04
       100  10 -2.022502E+06 -2.644997E+05 -2.609543E+05 -3.950411E+04  1.015059E-09 -4.785742E-10
       100  11 -1.958246E+06 -2.472403E+05 -2.441021E+05 -2.024686E+03  3.650923E-09  6.415268E-10
       100  12 -1.891688E+06 -2.308844E+05 -2.277387E+05 -3.776864E+04  1.974362E-09 -7.442218E-10
       100  13 -9.664223E+05 -9.609802E+02 -1.174676E+03 -3.773263E+04 -3.839566E-09 -1.671649E-09
       100  14 -9.676497E+05 -1.188941E+02 -7.576708E+02 -1.125140E+03 -4.496392E-09  1.427940E-09
       100  15 -9.664217E+05 -2.289878E+01 -2.089194E+02 -3.773386E+04 -1.493757E-09  2.340161E-10
       100  16  9.067570E+04  2.624946E+05  2.585227E+05 -3.595860E+04 -4.127733E-09 -7.593962E-11
       100  17  2.384272E+04  2.469295E+05  2.425145E+05 -2.244053E+02 -4.323120E-09 -7.608752E-11
       100  18 -4.037454E+04  2.307749E+05  2.272578E+05 -3.769905E+04 -2.519768E-09  4.715384E-10
       100  19 -2.022502E+06 -2.644992E+05 -2.609534E+05 -3.950413E+04  1.486559E+03 -2.145531E+04
       100  20 -1.958246E+06 -2.472398E+05 -2.441012E+05 -2.024690E+03  2.402645E+02 -2.157684E+04
       100  21 -1.891687E+06 -2.308840E+05 -2.277381E+05 -3.776862E+04 -1.004664E+03 -1.903880E+04
       100  22 -9.664222E+05 -9.604859E+02 -1.173810E+03 -3.773265E+04  1.001992E+03 -2.145393E+04
       100  23 -9.676496E+05 -1.183944E+02 -7.567958E+02 -1.125151E+03  6.463784E+02 -2.157416E+04
       100  24 -9.664216E+05 -2.250979E+01 -2.082386E+02 -3.773387E+04  2.922765E+02 -1.903669E+04
       100  25  9.067583E+04  2.624951E+05  2.585235E+05 -3.595861E+04  5.165986E+02 -2.145256E+04
       100  26  2.384285E+04  2.469300E+05  2.425154E+05 -2.244236E+02  1.053140E+03 -2.157148E+04
       100  27 -4.037444E+04  2.307753E+05  2.272585E+05 -3.769908E+04  1.591151E+03 -1.903459E+04
       101   1 -1.733603E+06 -1.915450E+05 -1.884736E+05 -3.918701E+04  4.089958E+02  1.722368E+04
       101   2 -1.662607E+06 -1.735492E+05 -1.709531E+05  1.191281E+03  5.835840E+02  1.498930E+04
       101   3 -1.590564E+06 -1.555289E+05 -1.533232E+05 -3.852078E+04  7.529185E+02  1.236429E+04
       101   4 -9.666467E+05 -2.643970E+02 -2.071704E+02 -3.925996E+04 -2.748957E+02  1.722247E+04
       101   5 -9.671794E+05 -8.764269E+01 -1.151649E+02  7.826179E+02 -2.312526E+02  1.498889E+04
       101   6 -9.666464E+05  1.373336E+02  1.778567E+02 -3.925961E+04 -1.928826E+02  1.236490E+04
       101   7 -1.991532E+05  1.909725E+05  1.880160E+05 -3.933295E+04 -9.596322E+02  1.722126E+04
       101   8 -2.713106E+05  1.733379E+05  1.706872E+05  3.735859E+02 -1.047002E+03  1.498849E+04
       101   9 -3.423739E+05  1.557745E+05  1.536502E+05 -3.999904E+04 -1.139634E+03  1.236551E+04
       101  10 -1.733603E+06 -1.915453E+05 -1.884742E+05 -3.918702E+04  8.130246E-10 -2.958589E-10
       101  11 -1.662607E+06 -1.735494E+05 -1.709536E+05  1.191274E+03 -1.227211E-10  3.257663E-10
       101  12 -1.590564E+06 -1.555290E+05 -1.533235E+05 -3.852079E+04  1.187428E-10 -1.247993E-09
       101  13 -9.666468E+05 -2.647153E+02 -2.077276E+02 -3.925996E+04  2.150287E-09 -2.069224E-11
       101  14 -9.671794E+05 -8.788385E+01 -1.155870E+02  7.826207E+02 -9.180684E-10  6.376531E-10
       101  15 -9.666464E+05  1.371695E+02  1.775695E+02 -3.925961E+04 -8.590380E-10  5.975566E-10
       101  16 -1.991533E+05  1.909722E+05  1.880155E+05 -3.933294E+04  7.283714E-10  3.583506E-10
       101  17 -2.713106E+05  1.733376E+05  1.706868E+05  3.735985E+02 -3.377461E-09 -1.155348E-09
       101  18 -3.423740E+05  1.557744E+05  1.536499E+05 -3.999903E+04 -2.379893E-09 -9.696414E-10
       101  19 -1.733603E+06 -1.915450E+05 -1.884736E+05 -3.918701E+04 -4.089958E+02 -1.722368E+04
       101  20 -1.662607E+06 -1.735492E+05 -1.709531E+05  1.191281E+03 -5.835840E+02 -1.498930E+04
       101  21 -1.590564E+06 -1.555289E+05 -1.533232E+05 -3.852078E+04 -7.529185E+02 -1.236429E+04
       101  22 -9.666467E+05 -2.643970E+02 -2.071704E+02 -3.925996E+04  2.748957E+02 -1.722247E+04
       101  23 -9.671794E+05 -8.764269E+01 -1.151649E+02  7.826179E+02  2.312526E+02 -1.498889E+04
       101  24 -9.666464E+05  1.373336E+02  1.778567E+02 -3.925961E+04  1.928826E+02 -1.236490E+04
       101  25 -1.991532E+05  1.909725E+05  1.880160E+05 -3.933295E+04  9.596322E+02 -1.722126E+04
       101  26 -2.713106E+05  1.733379E+05  1.706872E+05  3.735859E+02  1.047002E+03 -1.498849E+04
       101  27 -3.423739E+05  1.557745E+05  1.536502E+05 -3.999904E+04  1.139634E+03 -1.236551E+04
       102   1 -1.420833E+06 -1.131726E+05 -1.111020E+05 -3.964208E+04  6.299315E+02  1.077788E+04
       102   2 -1.345422E+06 -9.444858E+04 -9.257762E+04  2.573834E+03  4.492071E+02  8.145057E+03
       102   3 -1.269970E+06 -7.538179E+04 -7.386641E+04 -3.965124E+04  2.653493E+02  5.422227E+03
       102   4 -9.668165E+05  1.430587E+01  1.975747E+02 -4.022728E+04 -2.383200E+02  1.077891E+04
       102   5 -9.668376E+05 -3.399691E+01  4.102053E+02  1.991873E+03 -4.493816E+02  8.146605E+03
       102   6 -9.668162E+05  2.665503E+02  8.314585E+02 -4.022675E+04 -6.635546E+02  5.424337E+03
       102   7 -5.126120E+05  1.131859E+05  1.114820E+05 -4.081283E+04 -1.107206E+03  1.077994E+04
       102   8 -5.881223E+05  9.436992E+04  9.338749E+04  1.409623E+03 -1.348518E+03  8.148155E+03
       102   9 -6.635784E+05  7.590804E+04  7.552253E+04 -4.080248E+04 -1.592912E+03  5.426448E+03
       102  10 -1.420833E+06 -1.131727E+05 -1.111022E+05 -3.964208E+04  2.295932E-09 -4.792392E-10
       102  11 -1.345422E+06 -9.444865E+04 -9.257775E+04  2.573831E+03  2.199496E-09  1.166492E-09
       102  12 -1.269970E+06 -7.538183E+04 -7.386646E+04 -3.965124E+04 -1.706964E-09 -1.013865E-11
       102  13 -9.668165E+05  1.418115E+01  1.973563E+02 -4.022728E+04  1.783054E-09 -1.523661E-09
       102  14 -9.668376E+05 -3.406820E+01  4.100802E+02  1.991875E+03  9.796807E-10  1.054879E-09
       102  15 -9.668162E+05  2.665186E+02  8.314024E+02 -4.022674E+04  1.158510E-09 -1.258285E-09
       102  16 -5.126121E+05  1.131857E+05  1.114818E+05 -4.081282E+04 -6.010775E-10 -3.414648E-10
       102  17 -5.881224E+05  9.436985E+04  9.338736E+04  1.409632E+03  9.050718E-10 -4.958602E-10
       102  18 -6.635784E+05  7.590801E+04  7.552247E+04 -4.080248E+04 -4.043772E-10 -2.432357E-09
       102  19 -1.420833E+06 -1.131726E+05 -1.111020E+05 -3.964208E+04 -6.299315E+02 -1.077788E+04
       102  20 -1.345422E+06 -9.444858E+04 -9.257762E+04  2.573834E+03 -4.492071E+02 -8.145057E+03
       102  21 -1.269970E+06 -7.538179E+04 -7.386641E+04 -3.965124E+04 -2.653493E+02 -5.422227E+03
       102  22 -9.668165E+05  1.430587E+01  1.975747E+02 -4.022728E+04  2.383200E+02 -1.077891E+04
       102  23 -9.668376E+05 -3.399691E+01  4.102053E+02  1.991873E+03  4.493816E+02 -8.146605E+03
       102  24 -9.668162E+05  2.665503E+02  8.314585E+02 -4.022675E+04  6.635546E+02 -5.424337E+03
       102  25 -5.126120E+05  1.131859E+05  1.114820E+05 -4.081283E+04  1.107206E+03 -1.077994E+04
       102  26 -5.881223E+05  9.436992E+04  9.338749E+04  1.409623E+03  1.348518E+03 -8.148155E+03
       102  27 -6.635784E+05  7.590804E+04  7.552253E+04 -4.080248E+04  1.592912E+03 -5.426448E+03
       103   1 -1.093749E+06 -3.144361E+04 -2.986665E+04 -4.032770E+04  8.092204E+01  3.813086E+03
       103   2 -1.016658E+06 -1.252652E+04 -1.039969E+04  2.572000E+03 -8.569616E+02  1.073372E+03
       103   3 -9.397459E+05  7.335856E+03  9.800661E+03 -4.070868E+04 -1.795339E+03 -1.654264E+03
       103   4 -9.668433E+05  1.536785E+02  1.062458E+03 -4.061455E+04 -8.413196E+02  3.815403E+03
       103   5 -9.667499E+05 -8.221554E+01  1.856908E+03  2.476035E+03 -1.775261E+03  1.075735E+03
       103   6 -9.668426E+05  6.266283E+02  3.382142E+03 -4.061330E+04 -2.709583E+03 -1.651839E+03
       103   7 -8.399225E+05  3.174978E+04  3.199040E+04 -4.090145E+04 -1.763749E+03  3.817722E+03
       103   8 -9.168393E+05  1.236190E+04  1.411332E+04  2.380065E+03 -2.693635E+03  1.078097E+03
       103   9 -9.939386E+05 -6.082651E+03 -3.036424E+03 -4.051793E+04 -3.623786E+03 -1.649414E+03
       103  10 -1.093749E+06 -3.144363E+04 -2.986668E+04 -4.032770E+04 -2.733930E-09  9.288708E-10
       103  11 -1.016658E+06 -1.252652E+04 -1.039969E+04  2.572000E+03  1.093696E-09  3.712545E-09
       103  12 -9.397459E+05  7.335852E+03  9.800650E+03 -4.070868E+04  2.827044E-09 -2.558612E-09
       103  13 -9.668433E+05  1.536627E+02  1.062430E+03 -4.061455E+04 -3.672271E-10 -4.623844E-10
       103  14 -9.667499E+05 -8.221763E+01  1.856900E+03  2.476037E+03  4.756016E-10 -9.437420E-10
       103  15 -9.668426E+05  6.266234E+02  3.382123E+03 -4.061331E+04  1.340172E-09 -4.767010E-10
       103  16 -8.399225E+05  3.174976E+04  3.199036E+04 -4.090145E+04  2.238489E-09 -2.172339E-10
       103  17 -9.168393E+05  1.236190E+04  1.411331E+04  2.380067E+03 -1.963132E-09 -4.800631E-11
       103  18 -9.939386E+05 -6.082658E+03 -3.036454E+03 -4.051793E+04 -3.460247E-09 -4.477397E-10
       103  19 -1.093749E+06 -3.144361E+04 -2.986665E+04 -4.032770E+04 -8.092204E+01 -3.813086E+03
       103  20 -1.016658E+06 -1.252652E+04 -1.039969E+04  2.572000E+03  8.569616E+02 -1.073372E+03
       103  21 -9.397459E+05  7.335856E+03  9.800661E+03 -4.070868E+04  1.795339E+03  1.654264E+03
       103  22 -9.668433E+05  1.536785E+02  1.062458E+03 -4.061455E+04  8.413196E+02 -3.815403E+03
       103  23 -9.667499E+05 -8.221554E+01  1.856908E+03  2.476035E+03  1.775261E+03 -1.075735E+03
       103  24 -9.668426E+05  6.266283E+02  3.382142E+03 -4.061330E+04  2.709583E+03  1.651839E+03
       103  25 -8.399225E+05  3.174978E+04  3.199040E+04 -4.090145E+04  1.763749E+03 -3.817722E+03
       103  26 -9.168393E+05  1.236190E+04  1.411332E+04  2.380065E+03  2.693635E+03 -1.078097E+03
       103  27 -9.939386E+05 -6.082651E+03 -3.036424E+03 -4.051793E+04  3.623786E+03  1.649414E+03
       104   1 -7.622676E+05  5.104118E+04  5.476387E+04 -4.043320E+04 -2.447649E+03 -3.293709E+03
       104   2 -6.868007E+05  6.921834E+04  7.622945E+04  1.626653E+03 -6.284936E+03 -6.036724E+03
       104   3 -6.098837E+05  9.233071E+04  1.013662E+05 -4.154907E+04 -1.011998E+04 -8.524409E+03
       104   4 -9.664964E+05  8.099227E+01  4.380393E+03 -4.040721E+04 -3.413689E+03 -3.291268E+03
       104   5 -9.672101E+05 -6.846864E+02  7.387239E+03  2.215349E+03 -7.163766E+03 -6.034871E+03
       104   6 -9.664930E+05  3.471391E+03  1.400639E+04 -4.040001E+04 -1.091113E+04 -8.523080E+03
       104   7 -1.170687E+06 -5.088231E+04 -4.600617E+04 -4.038120E+04 -4.379411E+03 -3.288826E+03
       104   8 -1.247548E+06 -7.059356E+04 -6.146075E+04  2.803820E+03 -8.042198E+03 -6.033019E+03
       104   9 -1.322986E+06 -8.539736E+04 -7.336271E+04 -3.925154E+04 -1.170183E+04 -8.521755E+03
       104  10 -7.622676E+05  5.104117E+04  5.476383E+04 -4.043321E+04  1.213701E-10 -2.474122E-09
       104  11 -6.868008E+05  6.921829E+04  7.622930E+04  1.626622E+03  1.230071E-09  1.239225E-09
       104  12 -6.098839E+05  9.233060E+04  1.013658E+05 -4.154914E+04  1.697342E-09  3.350542E-10
       104  13 -9.664964E+05  8.097751E+01  4.380350E+03 -4.040722E+04 -1.812243E-10 -1.366305E-10
       104  14 -9.672101E+05 -6.847393E+02  7.387074E+03  2.215315E+03 -2.630922E-09 -4.476245E-10
       104  15 -9.664931E+05  3.471281E+03  1.400603E+04 -4.040008E+04 -1.429394E-09 -1.270126E-09
       104  16 -1.170687E+06 -5.088233E+04 -4.600622E+04 -4.038121E+04 -1.294951E-09 -4.303092E-10
       104  17 -1.247548E+06 -7.059361E+04 -6.146094E+04  2.803781E+03  2.469907E-09  2.636174E-09
       104  18 -1.322986E+06 -8.539747E+04 -7.336310E+04 -3.925162E+04 -2.919172E-10  2.595684E-10
       104  19 -7.622676E+05  5.104118E+04  5.476387E+04 -4.043320E+04  2.447649E+03  3.293709E+03
       104  20 -6.868007E+05  6.921834E+04  7.622945E+04  1.626653E+03  6.284936E+03  6.036724E+03
       104  21 -6.098837E+05  9.233071E+04  1.013662E+05 -4.154907E+04  1.011998E+04  8.524409E+03
       104  22 -9.664964E+05  8.099227E+01  4.380393E+03 -4.040721E+04  3.413689E+03  3.291268E+03
       104  23 -9.672101E+05 -6.846864E+02  7.387239E+03  2.215349E+03  7.163766E+03  6.034871E+03
       104  24 -9.664930E+05  3.471391E+03  1.400639E+04 -4.040001E+04  1.091113E+04  8.523080E+03
       104  25 -1.170687E+06 -5.088231E+04 -4.600617E+04 -4.038120E+04  4.379411E+03  3.288826E+03
       104  26 -1.247548E+06 -7.059356E+04 -6.146075E+04  2.803820E+03  8.042198E+03  6.033019E+03
       104  27 -1.322986E+06 -8.539736E+04 -7.336271E+04 -3.925154E+04  1.170183E+04  8.521755E+03
       105   1 -4.351622E+05  1.309659E+05  1.478517E+05 -3.757918E+04 -1.250475E+04 -1.037435E+04
       105   2 -3.679582E+05  1.448499E+05  1.768171E+05 -6.808503E+02 -2.827683E+04 -1.310640E+04
       105   3 -2.890998E+05  1.944950E+05  2.251258E+05 -4.541366E+04 -4.404465E+04 -1.385392E+04
       105   4 -9.642962E+05 -9.509837E+02  1.774657E+04 -3.961356E+04 -1.375643E+04 -1.037254E+04
       105   5 -9.700590E+05 -5.213086E+03  2.906036E+04  1.215970E+03 -2.884890E+04 -1.310655E+04
       105   6 -9.642776E+05  2.618740E+04  5.925966E+04 -3.959016E+04 -4.393527E+04 -1.385536E+04
       105   7 -1.493175E+06 -1.328887E+05 -1.123792E+05 -4.164608E+04 -1.500704E+04 -1.037072E+04
       105   8 -1.571829E+06 -1.553030E+05 -1.187230E+05  3.111051E+03 -2.942041E+04 -1.310670E+04
       105   9 -1.639040E+06 -1.421540E+05 -1.066400E+05 -3.377292E+04 -4.382599E+04 -1.385680E+04
       105  10 -4.351624E+05  1.309657E+05  1.478512E+05 -3.757928E+04 -3.162292E-10  5.458304E-10
       105  11 -3.679591E+05  1.448495E+05  1.768152E+05 -6.811487E+02  8.736633E-10 -1.057504E-09
       105  12 -2.891019E+05  1.944943E+05  2.251218E+05 -4.541415E+04  1.434637E-09 -9.295611E-10
       105  13 -9.642964E+05 -9.511501E+02  1.774601E+04 -3.961367E+04 -2.037527E-10  2.125340E-10
       105  14 -9.700599E+05 -5.213494E+03  2.905847E+04  1.215665E+03 -3.040939E-09  1.736343E-09
       105  15 -9.642798E+05  2.618667E+04  5.925567E+04 -3.959065E+04 -6.121990E-10 -7.113290E-10
       105  16 -1.493175E+06 -1.328889E+05 -1.123798E+05 -4.164620E+04  1.129821E-10  2.971270E-10
       105  17 -1.571830E+06 -1.553034E+05 -1.187249E+05  3.110740E+03 -1.596367E-09  9.176459E-10
       105  18 -1.639042E+06 -1.421547E+05 -1.066440E+05 -3.377341E+04  1.038253E-09 -4.623822E-10
       105  19 -4.351622E+05  1.309659E+05  1.478517E+05 -3.757918E+04  1.250475E+04  1.037435E+04
       105  20 -3.679582E+05  1.448499E+05  1.768171E+05 -6.808503E+02  2.827683E+04  1.310640E+04
       105  21 -2.890998E+05  1.944950E+05  2.251258E+05 -4.541366E+04  4.404465E+04  1.385392E+04
       105  22 -9.642962E+05 -9.509837E+02  1.774657E+04 -3.961356E+04  1.375643E+04  1.037254E+04
       105  23 -9.700590E+05 -5.213086E+03  2.906036E+04  1.215970E+03  2.884890E+04  1.310655E+04
       105  24 -9.642776E+05  2.618740E+04  5.925966E+04 -3.959016E+04  4.393527E+04  1.385536E+04
       105  25 -1.493175E+06 -1.328887E+05 -1.123792E+05 -4.164608E+04  1.500704E+04  1.037072E+04
       105  26 -1.571829E+06 -1.553030E+05 -1.187230E+05  3.111051E+03  2.942041E+04  1.310670E+04
       105  27 -1.639040E+06 -1.421540E+05 -1.066400E+05 -3.377292E+04  4.382599E+04  1.385680E+04
       106   1 -1.119909E+05  1.999835E+05  2.777001E+05 -1.771880E+04 -5.157053E+04 -1.791696E+04
       106   2 -8.358738E+04  1.860883E+05  3.337334E+05 -1.231151E+04 -1.183168E+05 -2.130045E+04
       106   3  2.381677E+04  4.448424E+05  5.018244E+05 -8.248291E+04 -1.850863E+05 -7.521863E+03
       106   4 -9.495904E+05 -8.729432E+03  7.211886E+04 -3.820142E+04 -5.554358E+04 -1.791532E+04
       106   5 -9.885787E+05 -3.934424E+04  1.120217E+05 -5.279730E+02 -1.164462E+05 -2.130387E+04
       106   6 -9.494762E+05  2.018836E+05  2.600357E+05 -3.843422E+04 -1.773641E+05 -7.526251E+03
       106   7 -1.786549E+06 -2.174929E+05 -1.335136E+05 -5.865627E+04 -5.951123E+04 -1.791341E+04
       106   8 -1.892823E+06 -2.648370E+05 -1.097500E+05  1.123826E+04 -1.145783E+05 -2.130721E+04
       106   9 -1.921904E+06 -4.113886E+04  1.817752E+04  5.545109E+03 -1.696537E+05 -7.529555E+03
       106  10 -1.119938E+05  1.999824E+05  2.776945E+05 -1.771954E+04 -1.074467E-09 -1.181478E-09
       106  11 -8.360253E+04  1.860840E+05  3.337063E+05 -1.231354E+04 -1.769956E-09  1.933045E-10
       106  12  2.377998E+04  4.448331E+05  5.017599E+05 -8.248403E+04 -6.015737E-10 -1.378437E-10
       106  13 -9.495938E+05 -8.730607E+03  7.211245E+04 -3.820222E+04  6.074637E-10 -1.070017E-09
       106  14 -9.885934E+05 -3.934838E+04  1.119953E+05 -5.299714E+02 -4.733489E-10  1.070646E-09
       106  15 -9.495100E+05  2.018751E+05  2.599764E+05 -3.843530E+04 -7.450950E-10  3.026472E-10
       106  16 -1.786553E+06 -2.174942E+05 -1.335209E+05 -5.865713E+04  2.229498E-09 -1.040796E-09
       106  17 -1.892837E+06 -2.648410E+05 -1.097756E+05  1.123629E+04  1.807486E-09  2.791448E-10
       106  18 -1.921935E+06 -4.114668E+04  1.812316E+04  5.544079E+03  7.454778E-10 -6.466816E-10
       106  19 -1.119909E+05  1.999835E+05  2.777001E+05 -1.771880E+04  5.157053E+04  1.791696E+04
       106  20 -8.358738E+04  1.860883E+05  3.337334E+05 -1.231151E+04  1.183168E+05  2.130045E+04
       106  21  2.381677E+04  4.448424E+05  5.018244E+05 -8.248291E+04  1.850863E+05  7.521863E+03
       106  22 -9.495904E+05 -8.729432E+03  7.211886E+04 -3.820142E+04  5.554358E+04  1.791532E+04
       106  23 -9.885787E+05 -3.934424E+04  1.120217E+05 -5.279730E+02  1.164462E+05  2.130387E+04
       106  24 -9.494762E+05  2.018836E+05  2.600357E+05 -3.843422E+04  1.773641E+05  7.526251E+03
       106  25 -1.786549E+06 -2.174929E+05 -1.335136E+05 -5.865627E+04  5.951123E+04  1.791341E+04
       106  26 -1.892823E+06 -2.648370E+05 -1.097500E+05  1.123826E+04  1.145783E+05  2.130721E+04
       106  27 -1.921904E+06 -4.113886E+04  1.817752E+04  5.545109E+03  1.696537E+05  7.529555E+03
       107   1  2.522952E+05  3.018927E+05  2.664767E+05 -1.866060E+05  4.474972E+02  1.693939E+05
       107   2  9.078230E+04  2.493938E+05  1.388674E+05 -1.119205E+05  3.588915E+03  1.020065E+05
       107   3  3.410744E+04  2.318011E+05  8.133241E+04 -4.330390E+04  3.582668E+03  3.460640E+04
       107   4  2.166439E+05  1.655109E+05  2.338799E+05 -4.292912E+04  5.342800E+02  1.604529E+05
       107   5  6.575208E+04  1.486280E+05  1.190655E+05 -4.042627E+04  3.613818E+03  9.954426E+04
       107   6  1.856581E+04  1.655245E+05  6.983401E+04 -4.398532E+04  3.561113E+03  3.861860E+04
       107   7  1.810685E+05  2.919037E+04  2.012931E+05  1.007159E+05  6.169386E+02  1.515139E+05
       107   8  4.074035E+04  4.788288E+04  9.926581E+04  3.105612E+04  3.638156E+03  9.708240E+04
       107   9  3.023961E+03  9.925215E+04  5.833552E+04 -4.466666E+04  3.539547E+03  4.263039E+04
       107  10  2.522875E+05  3.018620E+05  2.664228E+05 -1.866061E+05 -1.541962E-10  9.368710E-10
       107  11  9.077949E+04  2.493826E+05  1.388478E+05 -1.119208E+05  1.819846E-10 -2.050502E-09
       107  12  3.410711E+04  2.317998E+05  8.133013E+04 -4.330400E+04 -7.889105E-10 -5.233084E-09
       107  13  2.166370E+05  1.654833E+05  2.338315E+05 -4.292919E+04 -2.667087E-09 -2.697560E-09
       107  14  6.574940E+04  1.486174E+05  1.190468E+05 -4.042656E+04  2.250653E-09  1.001616E-10
       107  15  1.856540E+04  1.655229E+05  6.983118E+04 -4.398543E+04  2.011313E-09 -2.977950E-09
       107  16  1.810623E+05  2.916572E+04  2.012499E+05  1.007158E+05 -1.748083E-09 -6.536379E-10
       107  17  4.073781E+04  4.787276E+04  9.924808E+04  3.105584E+04 -5.339843E-10  1.109819E-09
       107  18  3.023459E+03  9.925020E+04  5.833208E+04 -4.466678E+04  1.300430E-09  5.675477E-09
       107  19  2.522952E+05  3.018927E+05  2.664767E+05 -1.866060E+05 -4.474972E+02 -1.693939E+05
       107  20  9.078230E+04  2.493938E+05  1.388674E+05 -1.119205E+05 -3.588915E+03 -1.020065E+05
       107  21  3.410744E+04  2.318011E+05  8.133241E+04 -4.330390E+04 -3.582668E+03 -3.460640E+04
       107  22  2.166439E+05  1.655109E+05  2.338799E+05 -4.292912E+04 -5.342800E+02 -1.604529E+05
       107  23  6.575208E+04  1.486280E+05  1.190655E+05 -4.042627E+04 -3.613818E+03 -9.954426E+04
       107  24  1.856581E+04  1.655245E+05  6.983401E+04 -4.398532E+04 -3.561113E+03 -3.861860E+04
       107  25  1.810685E+05  2.919037E+04  2.012931E+05  1.007159E+05 -6.169386E+02 -1.515139E+05
       107  26  4.074035E+04  4.788288E+04  9.926581E+04  3.105612E+04 -3.638156E+03 -9.708240E+04
       107  27  3.023961E+03  9.925215E+04  5.833552E+04 -4.466666E+04 -3.539547E+03 -4.263039E+04
       108   1  2.571519E+04  2.028214E+05  6.422286E+04 -5.247541E+04  2.374453E+03  2.508821E+04
       108   2  8.436551E+03  1.640951E+05  4.408247E+04 -4.171468E+04  5.404005E+02  3.541855E+03
       108   3  4.435613E+03  1.314060E+05  4.126370E+04 -3.754571E+04 -1.332319E+03 -1.800346E+04
       108   4  1.541311E+04  1.593553E+05  5.670929E+04 -4.401339E+04  2.353389E+03  2.907368E+04
       108   5  6.636559E+03  1.563442E+05  4.289440E+04 -4.072922E+04  5.185710E+02  7.606945E+03
       108   6  1.112402E+04  1.593557E+05  4.634658E+04 -4.403639E+04 -1.354401E+03 -1.385990E+04
       108   7  5.111210E+03  1.158912E+05  4.919576E+04 -3.555198E+04  2.332433E+03  3.305887E+04
       108   8  4.836577E+03  1.485935E+05  4.170639E+04 -3.974377E+04  4.967542E+02  1.167199E+04
       108   9  1.781254E+04  1.873062E+05  5.142951E+04 -5.052736E+04 -1.376570E+03 -9.716151E+03
       108  10  2.571501E+04  2.028207E+05  6.422167E+04 -5.247546E+04  4.122929E-11 -6.204975E-08
       108  11  8.436548E+03  1.640951E+05  4.408245E+04 -4.171468E+04  1.369774E-09 -2.935151E-09
       108  12  4.435524E+03  1.314056E+05  4.126309E+04 -3.754573E+04  1.360884E-09  5.766296E-08
       108  13  1.541288E+04  1.593544E+05  5.670770E+04 -4.401345E+04  2.252035E-09 -2.715491E-09
       108  14  6.636544E+03  1.563442E+05  4.289429E+04 -4.072922E+04  1.280262E-09 -4.004202E-10
       108  15  1.112396E+04  1.593555E+05  4.634621E+04 -4.403640E+04  4.542044E-09 -3.321749E-09
       108  16  5.110911E+03  1.158900E+05  4.919369E+04 -3.555204E+04  6.657931E-10  6.219873E-08
       108  17  4.836540E+03  1.485934E+05  4.170613E+04 -3.974377E+04  4.785884E-09  5.590243E-10
       108  18  1.781251E+04  1.873061E+05  5.142933E+04 -5.052737E+04  1.633370E-09 -5.749972E-08
       108  19  2.571519E+04  2.028214E+05  6.422286E+04 -5.247541E+04 -2.374453E+03 -2.508821E+04
       108  20  8.436551E+03  1.640951E+05  4.408247E+04 -4.171468E+04 -5.404005E+02 -3.541855E+03
       108  21  4.435613E+03  1.314060E+05  4.126370E+04 -3.754571E+04  1.332319E+03  1.800346E+04
       108  22  1.541311E+04  1.593553E+05  5.670929E+04 -4.401339E+04 -2.353389E+03 -2.907368E+04
       108  23  6.636559E+03  1.563442E+05  4.289440E+04 -4.072922E+04 -5.185710E+02 -7.606945E+03
       108  24  1.112402E+04  1.593557E+05  4.634658E+04 -4.403639E+04  1.354401E+03  1.385990E+04
       108  25  5.111210E+03  1.158912E+05  4.919576E+04 -3.555198E+04 -2.332433E+03 -3.305887E+04
       108  26  4.836577E+03  1.485935E+05  4.170639E+04 -3.974377E+04 -4.967542E+02 -1.167199E+04
       108  27  1.781254E+04  1.873062E+05  5.142951E+04 -5.052736E+04  1.376570E+03  9.716151E+03
       109   1  1.297528E+03  1.125158E+05  4.437951E+04 -4.422751E+04 -2.582855E+03 -2.567785E+04
       109   2  2.427828E+04  6.601209E+04  6.740037E+04  9.004941E+03 -3.007685E+03 -6.305587E+04
       109   3  1.179511E+05  4.197374E+04  1.324147E+05  5.603468E+04 -6.395474E+02 -1.004163E+05
       109   4  1.323863E+04  1.632304E+05  5.339862E+04 -4.400720E+04 -2.605240E+03 -2.151050E+04
       109   5  4.540469E+04  1.514973E+05  8.441063E+04 -4.054378E+04 -2.994003E+03 -6.467072E+04
       109   6  1.492510E+05  1.632210E+05  1.614259E+05 -4.328148E+04 -5.839891E+02 -1.078157E+05
       109   7  2.517961E+04  2.139476E+05  6.241769E+04 -4.378686E+04 -2.627620E+03 -1.734281E+04
       109   8  6.653983E+04  2.369947E+05  1.014218E+05 -9.009947E+04 -2.980063E+03 -6.628579E+04
       109   9  1.805868E+05  2.845029E+05  1.904415E+05 -1.426172E+05 -5.260703E+02 -1.152165E+05
       109  10  1.297344E+03  1.125151E+05  4.437826E+04 -4.422756E+04 -4.186203E-10 -5.950403E-08
       109  11  2.427720E+04  6.600782E+04  6.739288E+04  9.004789E+03  1.767193E-09  2.612203E-10
       109  12  1.179484E+05  4.196291E+04  1.323958E+05  5.603463E+04  7.590966E-10  6.016275E-08
       109  13  1.323850E+04  1.632299E+05  5.339774E+04 -4.400724E+04 -3.959063E-09 -2.743494E-09
       109  14  4.540356E+04  1.514928E+05  8.440275E+04 -4.054393E+04 -1.463017E-09 -4.926206E-11
       109  15  1.492479E+05  1.632085E+05  1.614040E+05 -4.328153E+04  6.992291E-10 -3.224564E-09
       109  16  2.517952E+04  2.139473E+05  6.241711E+04 -4.378690E+04 -1.596160E-09  5.953672E-08
       109  17  6.653864E+04  2.369900E+05  1.014136E+05 -9.009963E+04  2.115646E-09 -1.611828E-09
       109  18  1.805833E+05  2.844887E+05  1.904165E+05 -1.426172E+05  1.669591E-09 -6.000934E-08
       109  19  1.297528E+03  1.125158E+05  4.437951E+04 -4.422751E+04  2.582855E+03  2.567785E+04
       109  20  2.427828E+04  6.601209E+04  6.740037E+04  9.004941E+03  3.007685E+03  6.305587E+04
       109  21  1.179511E+05  4.197374E+04  1.324147E+05  5.603468E+04  6.395474E+02  1.004163E+05
       109  22  1.323863E+04  1.632304E+05  5.339862E+04 -4.400720E+04  2.605240E+03  2.151050E+04
       109  23  4.540469E+04  1.514973E+05  8.441063E+04 -4.054378E+04  2.994003E+03  6.467072E+04
       109  24  1.492510E+05  1.632210E+05  1.614259E+05 -4.328148E+04  5.839891E+02  1.078157E+05
       109  25  2.517961E+04  2.139476E+05  6.241769E+04 -4.378686E+04  2.627620E+03  1.734281E+04
       109  26  6.653983E+04  2.369947E+05  1.014218E+05 -9.009947E+04  2.980063E+03  6.628579E+04
       109  27  1.805868E+05  2.845029E+05  1.904415E+05 -1.426172E+05  5.260703E+02  1.152165E+05
       110   1 -6.151012E+06 -1.900616E+06 -1.278712E+06 -2.089863E+06 -6.766466E+05 -2.500414E+05
       110   2 -5.986857E+06 -9.527014E+05 -6.595103E+05 -2.296500E+06 -4.385817E+05 -1.436995E+05
       110   3 -6.268648E+06 -1.000952E+06 -5.035400E+05 -2.203379E+06 -1.952401E+05 -5.128676E+04
       110   4 -5.472167E+06 -1.482825E+06 -1.059472E+06 -1.743382E+06 -6.707312E+05 -2.480056E+05
       110   5 -5.194164E+06 -6.084960E+05 -4.352501E+05 -2.036176E+06 -4.367992E+05 -1.430616E+05
       110   6 -5.360837E+06 -7.287717E+05 -2.705622E+05 -2.029371E+06 -1.975455E+05 -5.213413E+04
       110   7 -4.792808E+06 -1.064727E+06 -8.402739E+05 -1.396481E+06 -6.648084E+05 -2.459630E+05
       110   8 -4.400855E+06 -2.641967E+05 -2.110505E+05 -1.775529E+06 -4.350138E+05 -1.424223E+05
       110   9 -4.452221E+06 -4.566065E+05 -3.764773E+04 -1.855166E+06 -1.998544E+05 -5.298218E+04
       110  10 -6.151525E+06 -1.900809E+06 -1.279701E+06 -2.090000E+06 -1.070636E-09 -4.596653E-10
       110  11 -5.987071E+06 -9.527762E+05 -6.599151E+05 -2.296551E+06 -1.895056E-09  1.434629E-09
       110  12 -6.268690E+06 -1.000965E+06 -5.036174E+05 -2.203387E+06  1.553753E-10 -1.356107E-09
       110  13 -5.472671E+06 -1.483014E+06 -1.060443E+06 -1.743517E+06 -2.037420E-10 -1.353771E-09
       110  14 -5.194376E+06 -6.085700E+05 -4.356510E+05 -2.036226E+06  8.351097E-09 -3.010378E-09
       110  15 -5.360880E+06 -7.287852E+05 -2.706414E+05 -2.029380E+06  3.667360E-09 -7.876138E-10
       110  16 -4.793303E+06 -1.064912E+06 -8.412262E+05 -1.396613E+06  1.247706E-09  7.386795E-11
       110  17 -4.401065E+06 -2.642699E+05 -2.114475E+05 -1.775579E+06  3.295448E-09 -8.630596E-10
       110  18 -4.452265E+06 -4.566203E+05 -3.772873E+04 -1.855175E+06  4.800610E-09  5.018501E-10
       110  19 -6.151012E+06 -1.900616E+06 -1.278712E+06 -2.089863E+06  6.766466E+05  2.500414E+05
       110  20 -5.986857E+06 -9.527014E+05 -6.595103E+05 -2.296500E+06  4.385817E+05  1.436995E+05
       110  21 -6.268648E+06 -1.000952E+06 -5.035400E+05 -2.203379E+06  1.952401E+05  5.128676E+04
       110  22 -5.472167E+06 -1.482825E+06 -1.059472E+06 -1.743382E+06  6.707312E+05  2.480056E+05
       110  23 -5.194164E+06 -6.084960E+05 -4.352501E+05 -2.036176E+06  4.367992E+05  1.430616E+05
       110  24 -5.360837E+06 -7.287717E+05 -2.705622E+05 -2.029371E+06  1.975455E+05  5.213413E+04
       110  25 -4.792808E+06 -1.064727E+06 -8.402739E+05 -1.396481E+06  6.648084E+05  2.459630E+05
       110  26 -4.400855E+06 -2.641967E+05 -2.110505E+05 -1.775529E+06  4.350138E+05  1.424223E+05
       110  27 -4.452221E+06 -4.566065E+05 -3.764773E+04 -1.855166E+06  1.998544E+05  5.298218E+04
       111   1 -6.182818E+06 -1.204740E+06 -4.618642E+05 -2.227507E+06 -1.579480E+05 -3.894466E+04
       111   2 -6.151838E+06 -1.065433E+06 -3.388497E+05 -2.242317E+06 -1.038516E+05 -1.671193E+04
       111   3 -6.167144E+06 -1.072873E+06 -2.937451E+05 -2.233413E+06 -4.874693E+04  2.858334E+03
       111   4 -5.318372E+06 -8.561896E+05 -2.218935E+05 -1.970985E+06 -1.572052E+05 -3.867203E+04
       111   5 -5.287984E+06 -7.327190E+05 -1.025288E+05 -2.001732E+06 -1.038667E+05 -1.672087E+04
       111   6 -5.303653E+06 -7.557221E+05 -6.038461E+04 -2.008783E+06 -4.952087E+04  2.566107E+03
       111   7 -4.453197E+06 -5.075685E+05  1.800762E+04 -1.714127E+06 -1.564611E+05 -3.839883E+04
       111   8 -4.423404E+06 -3.999542E+05  1.337241E+05 -1.760839E+06 -1.038818E+05 -1.672978E+04
       111   9 -4.439440E+06 -4.385389E+05  1.729095E+05 -1.783873E+06 -5.029596E+04  2.273477E+03
       111  10 -6.182845E+06 -1.204748E+06 -4.619145E+05 -2.227512E+06  4.204446E-10  2.494682E-10
       111  11 -6.151850E+06 -1.065437E+06 -3.388707E+05 -2.242318E+06  1.749611E-09  3.918104E-10
       111  12 -6.167146E+06 -1.072874E+06 -2.937496E+05 -2.233413E+06 -1.743901E-09  4.562436E-10
       111  13 -5.318399E+06 -8.561979E+05 -2.219432E+05 -1.970990E+06  1.180321E-09 -2.930519E-10
       111  14 -5.287995E+06 -7.327222E+05 -1.025498E+05 -2.001733E+06 -4.595493E-10 -4.923670E-10
       111  15 -5.303655E+06 -7.557227E+05 -6.038927E+04 -2.008783E+06 -7.115444E-10  1.212321E-10
       111  16 -4.453224E+06 -5.075768E+05  1.795845E+04 -1.714132E+06  2.006967E-09  1.784378E-10
       111  17 -4.423416E+06 -3.999574E+05  1.337031E+05 -1.760841E+06  1.856680E-09 -6.582219E-11
       111  18 -4.439442E+06 -4.385396E+05  1.729047E+05 -1.783873E+06 -1.077981E-09  1.043898E-09
       111  19 -6.182818E+06 -1.204740E+06 -4.618642E+05 -2.227507E+06  1.579480E+05  3.894466E+04
       111  20 -6.151838E+06 -1.065433E+06 -3.388497E+05 -2.242317E+06  1.038516E+05  1.671193E+04
       111  21 -6.167144E+06 -1.072873E+06 -2.937451E+05 -2.233413E+06  4.874693E+04 -2.858334E+03
       111  22 -5.318372E+06 -8.561896E+05 -2.218935E+05 -1.970985E+06  1.572052E+05  3.867203E+04
       111  23 -5.287984E+06 -7.327190E+05 -1.025288E+05 -2.001732E+06  1.038667E+05  1.672087E+04
       111  24 -5.303653E+06 -7.557221E+05 -6.038461E+04 -2.008783E+06  4.952087E+04 -2.566107E+03
       111  25 -4.453197E+06 -5.075685E+05  1.800762E+04 -1.714127E+06  1.564611E+05  3.839883E+04
       111  26 -4.423404E+06 -3.999542E+05  1.337241E+05 -1.760839E+06  1.038818E+05  1.672978E+04
       111  27 -4.439440E+06 -4.385389E+05  1.729095E+05 -1.783873E+06  5.029596E+04 -2.273477E+03
       112   1 -6.062729E+06 -1.073523E+06 -2.583719E+05 -2.220536E+06 -4.007734E+04  5.012099E+03
       112   2 -6.030960E+06 -1.014415E+06 -2.205977E+05 -2.184052E+06 -2.693417E+04  8.425034E+03
       112   3 -5.961432E+06 -1.017931E+06 -1.968711E+05 -2.193880E+06 -1.337742E+04  1.072355E+04
       112   4 -5.291015E+06 -7.791343E+05 -4.784575E+04 -2.008491E+06 -4.035007E+04  4.907762E+03
       112   5 -5.308949E+06 -7.411177E+05 -2.401888E+04 -1.987853E+06 -2.753921E+04  8.196871E+03
       112   6 -5.289052E+06 -7.656423E+05 -1.396013E+04 -2.013525E+06 -1.431612E+04  1.037167E+04
       112   7 -4.518725E+06 -4.847086E+05  1.626259E+05 -1.796206E+06 -4.062315E+04  4.803292E+03
       112   8 -4.586434E+06 -4.677905E+05  1.725127E+05 -1.791446E+06 -2.814502E+04  7.968421E+03
       112   9 -4.616234E+06 -5.133286E+05  1.689103E+05 -1.832993E+06 -1.525594E+04  1.001938E+04
       112  10 -6.062731E+06 -1.073524E+06 -2.583750E+05 -2.220536E+06  5.285273E-10  7.754502E-10
       112  11 -6.030961E+06 -1.014415E+06 -2.205992E+05 -2.184052E+06  2.627988E-09  1.776149E-10
       112  12 -5.961432E+06 -1.017931E+06 -1.968716E+05 -2.193879E+06  8.486959E-10 -1.774345E-09
       112  13 -5.291017E+06 -7.791347E+05 -4.784887E+04 -2.008491E+06 -2.123002E-10 -8.450583E-11
       112  14 -5.308950E+06 -7.411180E+05 -2.402044E+04 -1.987853E+06  7.548627E-10 -1.127995E-09
       112  15 -5.289052E+06 -7.656424E+05 -1.396072E+04 -2.013525E+06  3.076872E-09  2.016457E-09
       112  16 -4.518727E+06 -4.847091E+05  1.626227E+05 -1.796206E+06 -1.657824E-09 -6.976680E-10
       112  17 -4.586435E+06 -4.677908E+05  1.725111E+05 -1.791446E+06  2.266249E-10 -1.006901E-09
       112  18 -4.616234E+06 -5.133288E+05  1.689097E+05 -1.832993E+06 -1.529732E-09 -1.146949E-09
       112  19 -6.062729E+06 -1.073523E+06 -2.583719E+05 -2.220536E+06  4.007734E+04 -5.012099E+03
       112  20 -6.030960E+06 -1.014415E+06 -2.205977E+05 -2.184052E+06  2.693417E+04 -8.425034E+03
       112  21 -5.961432E+06 -1.017931E+06 -1.968711E+05 -2.193880E+06  1.337742E+04 -1.072355E+04
       112  22 -5.291015E+06 -7.791343E+05 -4.784575E+04 -2.008491E+06  4.035007E+04 -4.907762E+03
       112  23 -5.308949E+06 -7.411177E+05 -2.401888E+04 -1.987853E+06  2.753921E+04 -8.196871E+03
       112  24 -5.289052E+06 -7.656423E+05 -1.396013E+04 -2.013525E+06  1.431612E+04 -1.037167E+04
       112  25 -4.518725E+06 -4.847086E+05  1.626259E+05 -1.796206E+06  4.062315E+04 -4.803292E+03
       112  26 -4.586434E+06 -4.677905E+05  1.725127E+05 -1.791446E+06  2.814502E+04 -7.968421E+03
       112  27 -4.616234E+06 -5.133286E+05  1.689103E+05 -1.832993E+06  1.525594E+04 -1.001938E+04
       113   1 -5.781700E+06 -9.614465E+05 -1.465728E+05 -2.153688E+06 -1.088316E+04  9.812858E+03
       113   2 -5.736099E+06 -8.944072E+05 -1.206389E+05 -2.092665E+06 -6.297290E+03  8.366480E+03
       113   3 -5.622446E+06 -8.991116E+05 -9.799206E+04 -2.110553E+06 -1.506655E+03  6.359009E+03
       113   4 -5.283053E+06 -7.732379E+05 -1.114941E+04 -2.018662E+06 -1.166471E+04  9.520415E+03
       113   5 -5.316967E+06 -7.365197E+05 -6.691710E+03 -1.979529E+06 -7.251116E+03  8.010481E+03
       113   6 -5.282804E+06 -7.715054E+05 -5.380974E+03 -2.019305E+06 -2.633358E+03  5.939475E+03
       113   7 -4.784165E+06 -5.850147E+05  1.242517E+05 -1.883537E+06 -1.244695E+04  9.227712E+03
       113   8 -4.897667E+06 -5.786228E+05  1.072393E+05 -1.866324E+06 -8.205652E+03  7.654219E+03
       113   9 -4.943053E+06 -6.438938E+05  8.721899E+04 -1.928012E+06 -3.760736E+03  5.519691E+03
       113  10 -5.781700E+06 -9.614467E+05 -1.465732E+05 -2.153688E+06 -1.733469E-09 -1.052353E-09
       113  11 -5.736099E+06 -8.944073E+05 -1.206391E+05 -2.092665E+06 -1.534564E-09  1.486687E-09
       113  12 -5.622446E+06 -8.991117E+05 -9.799214E+04 -2.110553E+06 -8.415448E-10 -2.149609E-10
       113  13 -5.283053E+06 -7.732380E+05 -1.114983E+04 -2.018662E+06 -3.145528E-10 -5.486645E-10
       113  14 -5.316967E+06 -7.365198E+05 -6.691929E+03 -1.979529E+06 -1.662691E-09  1.371904E-09
       113  15 -5.282804E+06 -7.715054E+05 -5.381053E+03 -2.019305E+06  3.483751E-09  1.046340E-09
       113  16 -4.784165E+06 -5.850149E+05  1.242513E+05 -1.883537E+06 -2.756192E-10 -4.092590E-10
       113  17 -4.897667E+06 -5.786229E+05  1.072391E+05 -1.866324E+06 -1.680052E-09  1.371641E-09
       113  18 -4.943053E+06 -6.438938E+05  8.721890E+04 -1.928012E+06  1.739804E-09  3.931509E-09
       113  19 -5.781700E+06 -9.614465E+05 -1.465728E+05 -2.153688E+06  1.088316E+04 -9.812858E+03
       113  20 -5.736099E+06 -8.944072E+05 -1.206389E+05 -2.092665E+06  6.297290E+03 -8.366480E+03
       113  21 -5.622446E+06 -8.991116E+05 -9.799206E+04 -2.110553E+06  1.506655E+03 -6.359009E+03
       113  22 -5.283053E+06 -7.732379E+05 -1.114941E+04 -2.018662E+06  1.166471E+04 -9.520415E+03
       113  23 -5.316967E+06 -7.365197E+05 -6.691710E+03 -1.979529E+06  7.251116E+03 -8.010481E+03
       113  24 -5.282804E+06 -7.715054E+05 -5.380974E+03 -2.019305E+06  2.633358E+03 -5.939475E+03
       113  25 -4.784165E+06 -5.850147E+05  1.242517E+05 -1.883537E+06  1.244695E+04 -9.227712E+03
       113  26 -4.897667E+06 -5.786228E+05  1.072393E+05 -1.866324E+06  8.205652E+03 -7.654219E+03
       113  27 -4.943053E+06 -6.438938E+05  8.721899E+04 -1.928012E+06  3.760736E+03 -5.519691E+03
       114   1 -5.395090E+06 -8.168333E+05 -3.621001E+04 -2.052822E+06  1.117303E+02  4.589877E+03
       114   2 -5.342954E+06 -7.426200E+05 -1.317980E+04 -1.982724E+06  4.839209E+03  2.398363E+03
       114   3 -5.213944E+06 -7.497641E+05  6.484663E+03 -2.002803E+06  9.568956E+03  2.018611E+02
       114   4 -5.280824E+06 -7.736863E+05 -5.449962E+03 -2.021782E+06 -9.710416E+02  4.187084E+03
       114   5 -5.319369E+06 -7.337833E+05 -6.778097E+03 -1.976405E+06  3.754941E+03  1.995033E+03
       114   6 -5.281049E+06 -7.752386E+05 -1.147045E+04 -2.021209E+06  8.482624E+03 -2.021850E+02
       114   7 -5.166546E+06 -7.305382E+05  2.530912E+04 -1.990737E+06 -2.054041E+03  3.784205E+03
       114   8 -5.295784E+06 -7.249466E+05 -3.764081E+02 -1.970086E+06  2.670622E+03  1.591683E+03
       114   9 -5.348150E+06 -8.007130E+05 -2.942604E+04 -2.039614E+06  7.396417E+03 -6.061832E+02
       114  10 -5.395090E+06 -8.168333E+05 -3.621005E+04 -2.052822E+06  4.396867E-10  3.240106E-10
       114  11 -5.342954E+06 -7.426200E+05 -1.317985E+04 -1.982724E+06  9.785857E-11  1.814456E-09
       114  12 -5.213944E+06 -7.497641E+05  6.484490E+03 -2.002803E+06 -2.276411E-09 -7.804125E-10
       114  13 -5.280824E+06 -7.736863E+05 -5.449996E+03 -2.021782E+06  2.282968E-09 -8.656020E-10
       114  14 -5.319369E+06 -7.337833E+05 -6.778131E+03 -1.976405E+06  3.963000E-09  2.785738E-09
       114  15 -5.281049E+06 -7.752386E+05 -1.147059E+04 -2.021209E+06  2.571665E-10  7.197512E-12
       114  16 -5.166546E+06 -7.305382E+05  2.530909E+04 -1.990737E+06 -1.000702E-09  8.676304E-10
       114  17 -5.295784E+06 -7.249466E+05 -3.764264E+02 -1.970086E+06 -2.887379E-09 -3.365827E-09
       114  18 -5.348150E+06 -8.007130E+05 -2.942614E+04 -2.039614E+06 -4.298647E-11 -1.314111E-09
       114  19 -5.395090E+06 -8.168333E+05 -3.621001E+04 -2.052822E+06 -1.117303E+02 -4.589877E+03
       114  20 -5.342954E+06 -7.426200E+05 -1.317980E+04 -1.982724E+06 -4.839209E+03 -2.398363E+03
       114  21 -5.213944E+06 -7.497641E+05  6.484663E+03 -2.002803E+06 -9.568956E+03 -2.018611E+02
       114  22 -5.280824E+06 -7.736863E+05 -5.449962E+03 -2.021782E+06  9.710416E+02 -4.187084E+03
       114  23 -5.319369E+06 -7.337833E+05 -6.778097E+03 -1.976405E+06 -3.754941E+03 -1.995033E+03
       114  24 -5.281049E+06 -7.752386E+05 -1.147045E+04 -2.021209E+06 -8.482624E+03  2.021850E+02
       114  25 -5.166546E+06 -7.305382E+05  2.530912E+04 -1.990737E+06  2.054041E+03 -3.784205E+03
       114  26 -5.295784E+06 -7.249466E+05 -3.764081E+02 -1.970086E+06 -2.670622E+03 -1.591683E+03
       114  27 -5.348150E+06 -8.007130E+05 -2.942604E+04 -2.039614E+06 -7.396417E+03  6.061832E+02
       115   1 -4.987569E+06 -6.615331E+05  6.600837E+04 -1.942264E+06  1.256942E+04 -1.104215E+03
       115   2 -4.939257E+06 -5.912579E+05  7.771908E+04 -1.877123E+06  2.630341E+04  1.483828E+02
       115   3 -4.828277E+06 -6.107573E+05  7.506769E+04 -1.889341E+06  3.978572E+04  2.093296E+03
       115   4 -5.283447E+06 -7.714425E+05 -1.443848E+04 -2.020485E+06  1.139878E+04 -1.539904E+03
       115   5 -5.315754E+06 -7.334772E+05 -2.466695E+04 -1.979227E+06  2.534102E+04 -2.105943E+02
       115   6 -5.285446E+06 -7.853390E+05 -4.943071E+04 -2.015332E+06  3.902978E+04  1.810507E+03
       115   7 -5.579239E+06 -8.813469E+05 -9.489264E+04 -2.098671E+06  1.022876E+04 -1.975367E+03
       115   8 -5.692113E+06 -8.756881E+05 -1.270656E+05 -2.081274E+06  2.437927E+04 -5.693294E+02
       115   9 -5.742414E+06 -9.599079E+05 -1.739484E+05 -2.141238E+06  3.827444E+04  1.527951E+03
       115  10 -4.987569E+06 -6.615331E+05  6.600807E+04 -1.942264E+06 -2.739436E-09 -3.433912E-10
       115  11 -4.939257E+06 -5.912581E+05  7.771777E+04 -1.877123E+06 -9.523809E-10  2.172891E-09
       115  12 -4.828279E+06 -6.107578E+05  7.506468E+04 -1.889341E+06  1.102623E-09  2.481570E-10
       115  13 -5.283447E+06 -7.714426E+05 -1.443873E+04 -2.020485E+06 -8.533859E-10  2.495854E-11
       115  14 -5.315754E+06 -7.334774E+05 -2.466817E+04 -1.979227E+06  1.251355E-09 -1.831091E-09
       115  15 -5.285448E+06 -7.853395E+05 -4.943361E+04 -2.015332E+06 -1.177521E-10 -6.014681E-10
       115  16 -5.579239E+06 -8.813470E+05 -9.489284E+04 -2.098671E+06  2.007723E-09  8.817048E-10
       115  17 -5.692114E+06 -8.756883E+05 -1.270667E+05 -2.081274E+06  6.682182E-09  1.772142E-09
       115  18 -5.742415E+06 -9.599083E+05 -1.739512E+05 -2.141238E+06  1.341787E-10 -7.618845E-10
       115  19 -4.987569E+06 -6.615331E+05  6.600837E+04 -1.942264E+06 -1.256942E+04  1.104215E+03
       115  20 -4.939257E+06 -5.912579E+05  7.771908E+04 -1.877123E+06 -2.630341E+04 -1.483828E+02
       115  21 -4.828277E+06 -6.107573E+05  7.506769E+04 -1.889341E+06 -3.978572E+04 -2.093296E+03
       115  22 -5.283447E+06 -7.714425E+05 -1.443848E+04 -2.020485E+06 -1.139878E+04  1.539904E+03
       115  23 -5.315754E+06 -7.334772E+05 -2.466695E+04 -1.979227E+06 -2.534102E+04  2.105943E+02
       115  24 -5.285446E+06 -7.853390E+05 -4.943071E+04 -2.015332E+06 -3.902978E+04 -1.810507E+03
       115  25 -5.579239E+06 -8.813469E+05 -9.489264E+04 -2.098671E+06 -1.022876E+04  1.975367E+03
       115  26 -5.692113E+06 -8.756881E+05 -1.270656E+05 -2.081274E+06 -2.437927E+04  5.693294E+02
       115  27 -5.742414E+06 -9.599079E+05 -1.739484E+05 -2.141238E+06 -3.827444E+04 -1.527951E+03
       116   1 -4.648356E+06 -5.300809E+05  1.118310E+05 -1.854279E+06  5.013189E+04  3.768516E+03
       116   2 -4.606486E+06 -4.554560E+05  8.311768E+04 -1.797197E+06  1.060466E+05  2.169224E+04
       116   3 -4.575328E+06 -5.696582E+05 -2.485519E+04 -1.759328E+06  1.609571E+05  4.232050E+04
       116   4 -5.295686E+06 -7.638680E+05 -6.235139E+04 -2.018697E+06  4.886228E+04  3.294333E+03
       116   5 -5.297726E+06 -7.213680E+05 -1.057454E+05 -1.989666E+06  1.055606E+05  2.150786E+04
       116   6 -5.310701E+06 -8.679587E+05 -2.290954E+05 -1.979840E+06  1.612497E+05  4.242225E+04
       116   7 -5.942612E+06 -9.976400E+05 -2.365707E+05 -2.182962E+06  4.759412E+04  2.820635E+03
       116   8 -5.988503E+06 -9.872475E+05 -2.946519E+05 -2.181938E+06  1.050751E+05  2.132369E+04
       116   9 -6.045548E+06 -1.166205E+06 -4.333859E+05 -2.200106E+06  1.615418E+05  4.252379E+04
       116  10 -4.648358E+06 -5.300816E+05  1.118262E+05 -1.854279E+06  1.864120E-09  3.692508E-10
       116  11 -4.606498E+06 -4.554596E+05  8.309548E+04 -1.797199E+06 -6.630504E-10 -1.449218E-10
       116  12 -4.575356E+06 -5.696672E+05 -2.490767E+04 -1.759334E+06 -1.993944E-09 -1.780752E-10
       116  13 -5.295689E+06 -7.638686E+05 -6.235593E+04 -2.018697E+06  2.335532E-09  2.069006E-09
       116  14 -5.297738E+06 -7.213715E+05 -1.057674E+05 -1.989668E+06  1.834836E-10 -1.635429E-10
       116  15 -5.310730E+06 -8.679677E+05 -2.291481E+05 -1.979846E+06 -2.657675E-09 -1.158011E-09
       116  16 -5.942614E+06 -9.976406E+05 -2.365750E+05 -2.182962E+06 -4.550599E-10 -6.353585E-10
       116  17 -5.988515E+06 -9.872510E+05 -2.946737E+05 -2.181939E+06  1.032957E-09 -1.162099E-09
       116  18 -6.045577E+06 -1.166214E+06 -4.334389E+05 -2.200112E+06  6.542672E-11 -2.455011E-10
       116  19 -4.648356E+06 -5.300809E+05  1.118310E+05 -1.854279E+06 -5.013189E+04 -3.768516E+03
       116  20 -4.606486E+06 -4.554560E+05  8.311768E+04 -1.797197E+06 -1.060466E+05 -2.169224E+04
       116  21 -4.575328E+06 -5.696582E+05 -2.485519E+04 -1.759328E+06 -1.609571E+05 -4.232050E+04
       116  22 -5.295686E+06 -7.638680E+05 -6.235139E+04 -2.018697E+06 -4.886228E+04 -3.294333E+03
       116  23 -5.297726E+06 -7.213680E+05 -1.057454E+05 -1.989666E+06 -1.055606E+05 -2.150786E+04
       116  24 -5.310701E+06 -8.679587E+05 -2.290954E+05 -1.979840E+06 -1.612497E+05 -4.242225E+04
       116  25 -5.942612E+06 -9.976400E+05 -2.365707E+05 -2.182962E+06 -4.759412E+04 -2.820635E+03
       116  26 -5.988503E+06 -9.872475E+05 -2.946519E+05 -2.181938E+06 -1.050751E+05 -2.132369E+04
       116  27 -6.045548E+06 -1.166205E+06 -4.333859E+05 -2.200106E+06 -1.615418E+05 -4.252379E+04
       117   1 -4.453735E+06 -4.716212E+05 -4.925451E+04 -1.873187E+06  2.067771E+05  5.600665E+04
       117   2 -4.373310E+06 -2.345568E+05 -2.154285E+05 -1.753628E+06  4.498782E+05  1.455085E+05
       117   3 -4.706802E+06 -1.065579E+06 -8.515362E+05 -1.374114E+06  6.867525E+05  2.515918E+05
       117   4 -5.353691E+06 -7.369083E+05 -2.792478E+05 -2.040651E+06  2.034656E+05  5.479120E+04
       117   5 -5.202656E+06 -5.919677E+05 -4.492635E+05 -2.023939E+06  4.514086E+05  1.460438E+05
       117   6 -5.467097E+06 -1.517017E+06 -1.093573E+06 -1.747094E+06  6.931487E+05  2.537818E+05
       117   7 -6.252860E+06 -1.002213E+06 -5.093026E+05 -2.207929E+06  2.001592E+05  5.357669E+04
       117   8 -6.031327E+06 -9.492783E+05 -6.831640E+05 -2.293900E+06  4.529364E+05  1.465778E+05
       117   9 -6.226757E+06 -1.968111E+06 -1.335662E+06 -2.119573E+06  6.995358E+05  2.559638E+05
       117  10 -4.453782E+06 -4.716362E+05 -4.934147E+04 -1.873196E+06 -2.140655E-09 -3.967010E-10
       117  11 -4.373534E+06 -2.346346E+05 -2.158521E+05 -1.753681E+06 -2.335234E-09 -1.166362E-09
       117  12 -4.707329E+06 -1.065775E+06 -8.525498E+05 -1.374254E+06 -2.578881E-09 -9.922068E-10
       117  13 -5.353737E+06 -7.369228E+05 -2.793321E+05 -2.040660E+06 -3.505188E-09 -3.947017E-10
       117  14 -5.202882E+06 -5.920461E+05 -4.496906E+05 -2.023992E+06  5.369155E-10 -1.742792E-09
       117  15 -5.467635E+06 -1.517217E+06 -1.094607E+06 -1.747237E+06  9.091633E-10 -1.632670E-09
       117  16 -6.252904E+06 -1.002227E+06 -5.093842E+05 -2.207938E+06 -1.568344E-09 -1.409796E-09
       117  17 -6.031555E+06 -9.493575E+05 -6.835948E+05 -2.293954E+06 -2.153911E-09 -3.643793E-11
       117  18 -6.227305E+06 -1.968316E+06 -1.336717E+06 -2.119718E+06 -6.034250E-10  1.086969E-09
       117  19 -4.453735E+06 -4.716212E+05 -4.925451E+04 -1.873187E+06 -2.067771E+05 -5.600665E+04
       117  20 -4.373310E+06 -2.345568E+05 -2.154285E+05 -1.753628E+06 -4.498782E+05 -1.455085E+05
       117  21 -4.706802E+06 -1.065579E+06 -8.515362E+05 -1.374114E+06 -6.867525E+05 -2.515918E+05
       117  22 -5.353691E+06 -7.369083E+05 -2.792478E+05 -2.040651E+06 -2.034656E+05 -5.479120E+04
       117  23 -5.202656E+06 -5.919677E+05 -4.492635E+05 -2.023939E+06 -4.514086E+05 -1.460438E+05
       117  24 -5.467097E+06 -1.517017E+06 -1.093573E+06 -1.747094E+06 -6.931487E+05 -2.537818E+05
       117  25 -6.252860E+06 -1.002213E+06 -5.093026E+05 -2.207929E+06 -2.001592E+05 -5.357669E+04
       117  26 -6.031327E+06 -9.492783E+05 -6.831640E+05 -2.293900E+06 -4.529364E+05 -1.465778E+05
       117  27 -6.226757E+06 -1.968111E+06 -1.335662E+06 -2.119573E+06 -6.995358E+05 -2.559638E+05
       118   1 -9.713301E+05  1.667149E+05  2.403058E+05  4.456172E+04  2.212037E+05  3.008418E+03
       118   2 -9.999627E+05 -1.327290E+05  5.966589E+04  1.423999E+04  1.463283E+05  8.007530E+03
       118   3 -9.328172E+05 -8.971797E+04  1.354313E+04 -3.777716E+04  7.145679E+04  6.892982E+03
       118   4 -6.173482E+05  2.549512E+05  3.282465E+05 -1.178170E+04  2.240374E+05  2.992237E+03
       118   5 -6.654431E+05 -4.940616E+04  1.416476E+05 -7.465094E+02  1.470679E+05  8.004520E+03
       118   6 -6.174522E+05 -1.105035E+04  9.096675E+04 -1.140766E+04  7.010485E+04  6.894606E+03
       118   7 -2.632455E+05  3.431901E+05  4.161796E+05 -6.815735E+04  2.268728E+05  2.975549E+03
       118   8 -3.308209E+05  3.390921E+04  2.236213E+05 -1.574115E+04  1.478078E+05  8.001475E+03
       118   9 -3.019951E+05  6.761248E+04  1.683834E+05  1.497527E+04  6.875221E+04  6.896114E+03
       118  10 -9.713827E+05  1.667018E+05  2.402137E+05  4.456119E+04 -8.235782E-11  1.036384E-09
       118  11 -9.999857E+05 -1.327348E+05  5.962547E+04  1.423905E+04  1.819624E-09  1.798137E-10
       118  12 -9.328227E+05 -8.971940E+04  1.353343E+04 -3.777756E+04  1.912676E-09 -7.135043E-11
       118  13 -6.174021E+05  2.549377E+05  3.281521E+05 -1.178224E+04  3.012848E-10  1.896731E-10
       118  14 -6.654663E+05 -4.941204E+04  1.416068E+05 -7.474576E+02  3.762101E-09 -1.585481E-09
       118  15 -6.174575E+05 -1.105172E+04  9.095742E+04 -1.140804E+04  1.207037E-09  1.724610E-10
       118  16 -2.633007E+05  3.431762E+05  4.160828E+05 -6.815789E+04 -3.732189E-10 -5.029592E-10
       118  17 -3.308444E+05  3.390327E+04  2.235801E+05 -1.574210E+04  4.838593E-10 -2.201140E-10
       118  18 -3.020002E+05  6.761116E+04  1.683745E+05  1.497489E+04 -3.958068E-10 -5.067780E-10
       118  19 -9.713301E+05  1.667149E+05  2.403058E+05  4.456172E+04 -2.212037E+05 -3.008418E+03
       118  20 -9.999627E+05 -1.327290E+05  5.966589E+04  1.423999E+04 -1.463283E+05 -8.007530E+03
       118  21 -9.328172E+05 -8.971797E+04  1.354313E+04 -3.777716E+04 -7.145679E+04 -6.892982E+03
       118  22 -6.173482E+05  2.549512E+05  3.282465E+05 -1.178170E+04 -2.240374E+05 -2.992237E+03
       118  23 -6.654431E+05 -4.940616E+04  1.416476E+05 -7.465094E+02 -1.470679E+05 -8.004520E+03
       118  24 -6.174522E+05 -1.105035E+04  9.096675E+04 -1.140766E+04 -7.010485E+04 -6.894606E+03
       118  25 -2.632455E+05  3.431901E+05  4.161796E+05 -6.815735E+04 -2.268728E+05 -2.975549E+03
       118  26 -3.308209E+05  3.390921E+04  2.236213E+05 -1.574115E+04 -1.478078E+05 -8.001475E+03
       118  27 -3.019951E+05  6.761248E+04  1.683834E+05  1.497527E+04 -6.875221E+04 -6.896114E+03
       119   1 -9.054377E+05 -3.410546E+04  8.533688E+03 -5.073309E+03  5.536865E+04  5.538097E+03
       119   2 -8.918191E+05 -6.860591E+04 -2.439151E+04  1.266918E+03  3.653488E+04  5.445258E+03
       119   3 -8.643836E+05 -5.842742E+04 -3.383175E+04 -1.536809E+04  1.770097E+04  4.652302E+03
       119   4 -6.356978E+05  3.313444E+04  7.482003E+04 -1.182167E+04  5.547579E+04  5.537404E+03
       119   5 -6.426323E+05 -6.494656E+03  3.677048E+04 -3.228915E+02  3.639950E+04  5.444951E+03
       119   6 -6.357139E+05 -1.412713E+03  2.236716E+04 -1.179867E+04  1.732370E+04  4.652195E+03
       119   7 -3.658914E+05  1.003691E+05  1.411010E+05 -1.857299E+04  5.558298E+04  5.536710E+03
       119   8 -3.933888E+05  5.561199E+04  9.792791E+04 -1.913348E+03  3.626407E+04  5.444646E+03
       119   9 -4.069966E+05  5.559815E+04  7.856224E+04 -8.227931E+03  1.694629E+04  4.652083E+03
       119  10 -9.054410E+05 -3.410632E+04  8.527861E+03 -5.073556E+03  5.650361E-10 -5.749614E-10
       119  11 -8.918206E+05 -6.860630E+04 -2.439408E+04  1.266758E+03 -2.123900E-10  3.114589E-10
       119  12 -8.643839E+05 -5.842752E+04 -3.383238E+04 -1.536815E+04 -1.023307E-09 -3.136104E-10
       119  13 -6.357011E+05  3.313358E+04  7.481418E+04 -1.182192E+04 -9.272503E-10 -2.258578E-10
       119  14 -6.426337E+05 -6.495044E+03  3.676793E+04 -3.230512E+02  3.298924E-09 -1.085322E-10
       119  15 -6.357142E+05 -1.412817E+03  2.236656E+04 -1.179873E+04 -3.102625E-09 -6.965140E-10
       119  16 -3.658947E+05  1.003682E+05  1.410952E+05 -1.857324E+04 -1.030830E-09  7.373668E-10
       119  17 -3.933903E+05  5.561161E+04  9.792538E+04 -1.913507E+03  1.205914E-09 -6.214096E-10
       119  18 -4.069969E+05  5.559805E+04  7.856166E+04 -8.227994E+03 -4.202313E-10 -4.618706E-10
       119  19 -9.054377E+05 -3.410546E+04  8.533688E+03 -5.073309E+03 -5.536865E+04 -5.538097E+03
       119  20 -8.918191E+05 -6.860591E+04 -2.439151E+04  1.266918E+03 -3.653488E+04 -5.445258E+03
       119  21 -8.643836E+05 -5.842742E+04 -3.383175E+04 -1.536809E+04 -1.770097E+04 -4.652302E+03
       119  22 -6.356978E+05  3.313444E+04  7.482003E+04 -1.182167E+04 -5.547579E+04 -5.537404E+03
       119  23 -6.426323E+05 -6.494656E+03  3.677048E+04 -3.228915E+02 -3.639950E+04 -5.444951E+03
       119  24 -6.357139E+05 -1.412713E+03  2.236716E+04 -1.179867E+04 -1.732370E+04 -4.652195E+03
       119  25 -3.658914E+05  1.003691E+05  1.411010E+05 -1.857299E+04 -5.558298E+04 -5.536710E+03
       119  26 -3.933888E+05  5.561199E+04  9.792791E+04 -1.913348E+03 -3.626407E+04 -5.444646E+03
       119  27 -4.069966E+05  5.559815E+04  7.856224E+04 -8.227931E+03 -1.694629E+04 -4.652083E+03
       120   1 -8.184915E+05 -4.064234E+04 -2.647733E+04 -1.130190E+04  1.395643E+04  4.107633E+03
       120   2 -7.980622E+05 -4.040870E+04 -2.959947E+04  1.199711E+02  9.249159E+03  3.418614E+03
       120   3 -7.755034E+05 -3.437809E+04 -2.819099E+04 -1.251610E+04  4.541344E+03  2.637921E+03
       120   4 -6.383096E+05  4.259990E+03  1.770650E+04 -1.204648E+04  1.374339E+04  4.107506E+03
       120   5 -6.393779E+05 -8.551979E+02  9.355641E+03 -1.743897E+01  9.004095E+03  3.418551E+03
       120   6 -6.383125E+05 -1.688120E+02  5.556590E+03 -1.204592E+04  4.264416E+03  2.637924E+03
       120   7 -4.580981E+05  4.915991E+04  6.188796E+04 -1.279128E+04  1.353029E+04  4.107380E+03
       120   8 -4.806706E+05  3.869643E+04  4.830890E+04 -1.548844E+02  8.758967E+03  3.418488E+03
       120   9 -5.011045E+05  3.403907E+04  3.930278E+04 -1.157564E+04  3.987428E+03  2.637927E+03
       120  10 -8.184917E+05 -4.064241E+04 -2.647773E+04 -1.130194E+04 -2.584045E-09  2.737629E-11
       120  11 -7.980623E+05 -4.040874E+04 -2.959965E+04  1.199457E+02 -5.199982E-10  1.331932E-10
       120  12 -7.755034E+05 -3.437811E+04 -2.819104E+04 -1.251611E+04  3.622092E-09 -7.555649E-11
       120  13 -6.383098E+05  4.259921E+03  1.770612E+04 -1.204653E+04 -1.027337E-09 -1.547370E-10
       120  14 -6.393780E+05 -8.552322E+02  9.355466E+03 -1.746377E+01 -1.187691E-09  3.176474E-10
       120  15 -6.383125E+05 -1.688243E+02  5.556543E+03 -1.204593E+04  1.425536E-09 -2.632743E-10
       120  16 -4.580983E+05  4.915984E+04  6.188758E+04 -1.279132E+04 -2.286777E-10 -2.498202E-10
       120  17 -4.806707E+05  3.869640E+04  4.830873E+04 -1.549085E+02 -6.333701E-11  4.752139E-10
       120  18 -5.011045E+05  3.403906E+04  3.930274E+04 -1.157565E+04 -2.502102E-09 -2.274359E-10
       120  19 -8.184915E+05 -4.064234E+04 -2.647733E+04 -1.130190E+04 -1.395643E+04 -4.107633E+03
       120  20 -7.980622E+05 -4.040870E+04 -2.959947E+04  1.199711E+02 -9.249159E+03 -3.418614E+03
       120  21 -7.755034E+05 -3.437809E+04 -2.819099E+04 -1.251610E+04 -4.541344E+03 -2.637921E+03
       120  22 -6.383096E+05  4.259990E+03  1.770650E+04 -1.204648E+04 -1.374339E+04 -4.107506E+03
       120  23 -6.393779E+05 -8.551979E+02  9.355641E+03 -1.743897E+01 -9.004095E+03 -3.418551E+03
       120  24 -6.383125E+05 -1.688120E+02  5.556590E+03 -1.204592E+04 -4.264416E+03 -2.637924E+03
       120  25 -4.580981E+05  4.915991E+04  6.188796E+04 -1.279128E+04 -1.353029E+04 -4.107380E+03
       120  26 -4.806706E+05  3.869643E+04  4.830890E+04 -1.548844E+02 -8.758967E+03 -3.418488E+03
       120  27 -5.011045E+05  3.403907E+04  3.930278E+04 -1.157564E+04 -3.987428E+03 -2.637927E+03
       121   1 -7.256518E+05 -2.111807E+04 -1.695549E+04 -1.209930E+04  3.633232E+03  2.170543E+03
       121   2 -7.037917E+05 -1.629259E+04 -1.350930E+04  1.587491E+02  2.424888E+03  1.395278E+03
       121   3 -6.815868E+05 -1.070520E+04 -9.086097E+03 -1.223713E+04  1.216353E+03  6.055212E+02
       121   4 -6.387062E+05  5.399251E+02  4.322473E+03 -1.217847E+04  3.375615E+03  2.170572E+03
       121   5 -6.388791E+05 -1.133469E+02  2.425644E+03  1.483563E+02  2.162244E+03  1.395332E+03
       121   6 -6.387068E+05 -3.870953E+00  1.509229E+03 -1.217858E+04  9.487259E+02  6.056013E+02
       121   7 -5.517537E+05  2.219736E+04  2.559988E+04 -1.225765E+04  3.117962E+03  2.170601E+03
       121   8 -5.739626E+05  1.606558E+04  1.836028E+04  1.379627E+02  1.899573E+03  1.395386E+03
       121   9 -5.958251E+05  1.069732E+04  1.210442E+04 -1.212003E+04  6.810801E+02  6.056813E+02
       121  10 -7.256518E+05 -2.111808E+04 -1.695552E+04 -1.209930E+04  2.050210E-09 -3.038686E-10
       121  11 -7.037917E+05 -1.629259E+04 -1.350931E+04  1.587463E+02  2.132869E-09  3.517679E-10
       121  12 -6.815868E+05 -1.070520E+04 -9.086100E+03 -1.223713E+04  8.973723E-10  7.304813E-10
       121  13 -6.387062E+05  5.399170E+02  4.322443E+03 -1.217847E+04  1.243456E-09 -3.062543E-10
       121  14 -6.388791E+05 -1.133503E+02  2.425632E+03  1.483539E+02  4.161105E-09 -4.745308E-11
       121  15 -6.387068E+05 -3.871589E+00  1.509227E+03 -1.217858E+04 -6.512240E-10  3.285080E-10
       121  16 -5.517537E+05  2.219735E+04  2.559985E+04 -1.225766E+04 -1.077155E-09 -8.432903E-10
       121  17 -5.739626E+05  1.606558E+04  1.836027E+04  1.379606E+02  5.207433E-10 -3.543906E-11
       121  18 -5.958251E+05  1.069732E+04  1.210442E+04 -1.212003E+04 -2.289829E-10 -8.156366E-11
       121  19 -7.256518E+05 -2.111807E+04 -1.695549E+04 -1.209930E+04 -3.633232E+03 -2.170543E+03
       121  20 -7.037917E+05 -1.629259E+04 -1.350930E+04  1.587491E+02 -2.424888E+03 -1.395278E+03
       121  21 -6.815868E+05 -1.070520E+04 -9.086097E+03 -1.223713E+04 -1.216353E+03 -6.055212E+02
       121  22 -6.387062E+05  5.399251E+02  4.322473E+03 -1.217847E+04 -3.375615E+03 -2.170572E+03
       121  23 -6.388791E+05 -1.133469E+02  2.425644E+03  1.483563E+02 -2.162244E+03 -1.395332E+03
       121  24 -6.387068E+05 -3.870953E+00  1.509229E+03 -1.217858E+04 -9.487259E+02 -6.056013E+02
       121  25 -5.517537E+05  2.219736E+04  2.559988E+04 -1.225765E+04 -3.117962E+03 -2.170601E+03
       121  26 -5.739626E+05  1.606558E+04  1.836028E+04  1.379627E+02 -1.899573E+03 -1.395386E+03
       121  27 -5.958251E+05  1.069732E+04  1.210442E+04 -1.212003E+04 -6.810801E+02 -6.056813E+02
       122   1 -6.306798E+05  2.098053E+03  3.285738E+03 -1.219236E+04  9.682350E+02  1.409218E+02
       122   2 -6.086101E+05  7.497600E+03  8.319368E+03  1.632506E+02  5.131187E+02 -6.498492E+02
       122   3 -5.864450E+05  1.309944E+04  1.369685E+04 -1.222807E+04  5.806432E+01 -1.430578E+03
       122   4 -6.387619E+05  6.995690E+01  1.232922E+03 -1.219925E+04  7.009854E+02  1.410069E+02
       122   5 -6.388093E+05 -2.897843E+01  9.064945E+02  1.742451E+02  2.492472E+02 -6.497771E+02
       122   6 -6.387619E+05  7.391206E+01  9.216906E+02 -1.219926E+04 -2.024129E+02 -1.430517E+03
       122   7 -6.468438E+05 -1.958144E+03 -8.198981E+02 -1.220615E+04  4.337394E+02  1.410919E+02
       122   8 -6.690075E+05 -7.555625E+03 -6.506446E+03  1.852390E+02 -1.461137E+01 -6.497051E+02
       122   9 -6.910763E+05 -1.295182E+04 -1.185367E+04 -1.217045E+04 -4.628682E+02 -1.430456E+03
       122  10 -6.306798E+05  2.098052E+03  3.285736E+03 -1.219236E+04  8.911768E-10  5.011254E-10
       122  11 -6.086101E+05  7.497600E+03  8.319367E+03  1.632509E+02 -1.150239E-09 -4.360726E-10
       122  12 -5.864450E+05  1.309944E+04  1.369685E+04 -1.222807E+04 -9.503509E-10 -7.685510E-10
       122  13 -6.387619E+05  6.995675E+01  1.232921E+03 -1.219925E+04  2.303232E-09  5.735809E-10
       122  14 -6.388093E+05 -2.897890E+01  9.064936E+02  1.742452E+02  1.953923E-10 -9.724798E-11
       122  15 -6.387619E+05  7.390986E+01  9.216867E+02 -1.219926E+04 -1.839049E-09 -1.032088E-09
       122  16 -6.468438E+05 -1.958144E+03 -8.198985E+02 -1.220615E+04 -1.424451E-09 -8.457121E-11
       122  17 -6.690075E+05 -7.555625E+03 -6.506446E+03  1.852390E+02  9.963457E-10 -2.171820E-10
       122  18 -6.910763E+05 -1.295182E+04 -1.185368E+04 -1.217045E+04  1.007335E-09 -4.985824E-10
       122  19 -6.306798E+05  2.098053E+03  3.285738E+03 -1.219236E+04 -9.682350E+02 -1.409218E+02
       122  20 -6.086101E+05  7.497600E+03  8.319368E+03  1.632506E+02 -5.131187E+02  6.498492E+02
       122  21 -5.864450E+05  1.309944E+04  1.369685E+04 -1.222807E+04 -5.806432E+01  1.430578E+03
       122  22 -6.387619E+05  6.995690E+01  1.232922E+03 -1.219925E+04 -7.009854E+02 -1.410069E+02
       122  23 -6.388093E+05 -2.897843E+01  9.064945E+02  1.742451E+02 -2.492472E+02  6.497771E+02
       122  24 -6.387619E+05  7.391206E+01  9.216906E+02 -1.219926E+04  2.024129E+02  1.430517E+03
       122  25 -6.468438E+05 -1.958144E+03 -8.198981E+02 -1.220615E+04 -4.337394E+02 -1.410919E+02
       122  26 -6.690075E+05 -7.555625E+03 -6.506446E+03  1.852390E+02  1.461137E+01  6.497051E+02
       122  27 -6.910763E+05 -1.295182E+04 -1.185367E+04 -1.217045E+04  4.628682E+02  1.430456E+03
       123   1 -5.357613E+05  2.566152E+04  2.635188E+04 -1.206084E+04 -9.904871E+01 -1.900375E+03
       123   2 -5.141769E+05  3.095660E+04  3.202511E+04  2.883229E+01 -8.444374E+02 -2.686940E+03
       123   3 -4.922590E+05  3.706026E+04  3.839276E+04 -1.221042E+04 -1.589584E+03 -3.390582E+03
       123   4 -6.387126E+05 -9.786040E+00  1.013136E+03 -1.210643E+04 -3.770921E+02 -1.900333E+03
       123   5 -6.388764E+05 -1.204854E+02  1.418279E+03  5.818520E+01 -1.094515E+03 -2.686949E+03
       123   6 -6.387122E+05  5.725924E+02  2.498475E+03 -1.210643E+04 -1.811670E+03 -3.390634E+03
       123   7 -7.416542E+05 -2.568188E+04 -2.432639E+04 -1.215201E+04 -6.550895E+02 -1.900291E+03
       123   8 -7.635617E+05 -3.119872E+04 -2.918969E+04  8.753255E+01 -1.344543E+03 -2.686959E+03
       123   9 -7.851458E+05 -3.591667E+04 -3.339739E+04 -1.200246E+04 -2.033704E+03 -3.390687E+03
       123  10 -5.357613E+05  2.566151E+04  2.635187E+04 -1.206084E+04  1.926636E-10 -1.732205E-10
       123  11 -5.141769E+05  3.095659E+04  3.202509E+04  2.883046E+01  1.044594E-09  6.221247E-10
       123  12 -4.922590E+05  3.706025E+04  3.839274E+04 -1.221042E+04 -5.116431E-10 -7.953860E-10
       123  13 -6.387126E+05 -9.789955E+00  1.013129E+03 -1.210643E+04 -2.490451E-10 -3.316466E-10
       123  14 -6.388764E+05 -1.204935E+02  1.418264E+03  5.818283E+01 -1.426076E-09  2.361818E-10
       123  15 -6.387122E+05  5.725791E+02  2.498447E+03 -1.210643E+04 -1.266204E-09 -5.747141E-10
       123  16 -7.416542E+05 -2.568188E+04 -2.432640E+04 -1.215202E+04  6.025914E-10  1.053969E-10
       123  17 -7.635617E+05 -3.119873E+04 -2.918971E+04  8.752964E+01  1.358637E-10  5.074865E-10
       123  18 -7.851459E+05 -3.591668E+04 -3.339742E+04 -1.200246E+04 -2.689386E-09 -5.865371E-11
       123  19 -5.357613E+05  2.566152E+04  2.635188E+04 -1.206084E+04  9.904871E+01  1.900375E+03
       123  20 -5.141769E+05  3.095660E+04  3.202511E+04  2.883229E+01  8.444374E+02  2.686940E+03
       123  21 -4.922590E+05  3.706026E+04  3.839276E+04 -1.221042E+04  1.589584E+03  3.390582E+03
       123  22 -6.387126E+05 -9.786040E+00  1.013136E+03 -1.210643E+04  3.770921E+02  1.900333E+03
       123  23 -6.388764E+05 -1.204854E+02  1.418279E+03  5.818520E+01  1.094515E+03  2.686949E+03
       123  24 -6.387122E+05  5.725924E+02  2.498475E+03 -1.210643E+04  1.811670E+03  3.390634E+03
       123  25 -7.416542E+05 -2.568188E+04 -2.432639E+04 -1.215201E+04  6.550895E+02  1.900291E+03
       123  26 -7.635617E+05 -3.119872E+04 -2.918969E+04  8.753255E+01  1.344543E+03  2.686959E+03
       123  27 -7.851458E+05 -3.591667E+04 -3.339739E+04 -1.200246E+04  2.033704E+03  3.390687E+03
       124   1 -4.426260E+05  4.859396E+04  5.121817E+04 -1.141007E+04 -1.940336E+03 -3.931926E+03
       124   2 -4.227031E+05  5.309021E+04  5.820520E+04 -3.778858E+02 -4.778172E+03 -4.722726E+03
       124   3 -4.007405E+05  6.371971E+04  6.860167E+04 -1.275578E+04 -7.615954E+03 -4.863470E+03
       124   4 -6.383459E+05 -1.929796E+02  3.119443E+03 -1.190169E+04 -2.314425E+03 -3.932039E+03
       124   5 -6.393458E+05 -8.951142E+02  5.046120E+03 -1.974544E+02 -4.933134E+03 -4.722880E+03
       124   6 -6.383438E+05  4.499142E+03  1.023085E+04 -1.190378E+04 -7.551693E+03 -4.863570E+03
       124   7 -8.340308E+05 -4.898277E+04 -4.498210E+04 -1.239315E+04 -2.688397E+03 -3.932151E+03
       124   8 -8.559456E+05 -5.488392E+04 -4.811641E+04 -1.708918E+01 -5.088042E+03 -4.723033E+03
       124   9 -8.758956E+05 -5.472562E+04 -4.814413E+04 -1.105212E+04 -7.487456E+03 -4.863670E+03
       124  10 -4.426260E+05  4.859394E+04  5.121813E+04 -1.141007E+04 -2.060915E-09 -5.835764E-10
       124  11 -4.227031E+05  5.309018E+04  5.820511E+04 -3.779040E+02  4.558272E-10  6.832792E-10
       124  12 -4.007406E+05  6.371967E+04  6.860152E+04 -1.275581E+04 -4.079689E-10 -4.632919E-10
       124  13 -6.383459E+05 -1.929976E+02  3.119404E+03 -1.190169E+04  4.957502E-11 -5.444000E-10
       124  14 -6.393458E+05 -8.951446E+02  5.046032E+03 -1.974731E+02 -1.141928E-09  3.577723E-10
       124  15 -6.383439E+05  4.499101E+03  1.023070E+04 -1.190381E+04 -7.120259E-10 -5.109120E-11
       124  16 -8.340308E+05 -4.898279E+04 -4.498215E+04 -1.239316E+04  1.970314E-10 -7.487904E-10
       124  17 -8.559457E+05 -5.488395E+04 -4.811650E+04 -1.710854E+01  1.891758E-09 -5.115029E-10
       124  18 -8.758957E+05 -5.472566E+04 -4.814428E+04 -1.105215E+04 -2.277930E-09  9.521636E-10
       124  19 -4.426260E+05  4.859396E+04  5.121817E+04 -1.141007E+04  1.940336E+03  3.931926E+03
       124  20 -4.227031E+05  5.309021E+04  5.820520E+04 -3.778858E+02  4.778172E+03  4.722726E+03
       124  21 -4.007405E+05  6.371971E+04  6.860167E+04 -1.275578E+04  7.615954E+03  4.863470E+03
       124  22 -6.383459E+05 -1.929796E+02  3.119443E+03 -1.190169E+04  2.314425E+03  3.932039E+03
       124  23 -6.393458E+05 -8.951142E+02  5.046120E+03 -1.974544E+02  4.933134E+03  4.722880E+03
       124  24 -6.383438E+05  4.499142E+03  1.023085E+04 -1.190378E+04  7.551693E+03  4.863570E+03
       124  25 -8.340308E+05 -4.898277E+04 -4.498210E+04 -1.239315E+04  2.688397E+03  3.932151E+03
       124  26 -8.559456E+05 -5.488392E+04 -4.811641E+04 -1.708918E+01  5.088042E+03  4.723033E+03
       124  27 -8.758956E+05 -5.472562E+04 -4.814413E+04 -1.105212E+04  7.487456E+03  4.863670E+03
       125   1 -3.513491E+05  6.937299E+04  8.225233E+04 -7.868457E+03 -8.265803E+03 -6.140599E+03
       125   2 -3.384203E+05  6.897928E+04  9.381418E+04 -2.484345E+03 -2.068030E+04 -7.147811E+03
       125   3 -3.118156E+05  1.156855E+05  1.252942E+05 -1.907429E+04 -3.310100E+04 -2.472959E+03
       125   4 -6.358324E+05 -1.523133E+03  1.243489E+04 -1.157102E+04 -9.552513E+03 -6.141530E+03
       125   5 -6.425014E+05 -6.765075E+03  1.931466E+04 -6.039541E+02 -2.005397E+04 -7.147539E+03
       125   6 -6.358203E+05  3.477293E+04  4.479008E+04 -1.161146E+04 -3.056123E+04 -2.470484E+03
       125   7 -9.202420E+05 -7.242522E+04 -5.738848E+04 -1.527189E+04 -1.083863E+04 -6.142447E+03
       125   8 -9.464981E+05 -8.251627E+04 -5.519164E+04  1.275495E+03 -1.942794E+04 -7.147264E+03
       125   9 -9.597296E+05 -4.614733E+04 -3.572185E+04 -4.152564E+03 -2.802278E+04 -2.467948E+03
       125  10 -3.513492E+05  6.937293E+04  8.225213E+04 -7.868498E+03  1.521147E-09 -6.331722E-10
       125  11 -3.384208E+05  6.897911E+04  9.381328E+04 -2.484465E+03 -2.102441E-09  4.840662E-10
       125  12 -3.118168E+05  1.156852E+05  1.252921E+05 -1.907435E+04  8.355398E-10  6.866841E-10
       125  13 -6.358326E+05 -1.523198E+03  1.243465E+04 -1.157106E+04 -1.658617E-09 -9.604510E-10
       125  14 -6.425018E+05 -6.765238E+03  1.931380E+04 -6.040695E+02  1.191249E-09  8.095627E-10
       125  15 -6.358213E+05  3.477267E+04  4.478831E+04 -1.161152E+04  1.198946E-09 -2.464173E-10
       125  16 -9.202421E+05 -7.242529E+04 -5.738877E+04 -1.527194E+04  1.832043E-10  9.330988E-10
       125  17 -9.464986E+05 -8.251643E+04 -5.519245E+04  1.275383E+03  2.569620E-09  1.384972E-10
       125  18 -9.597304E+05 -4.614755E+04 -3.572334E+04 -4.152620E+03 -1.137498E-09  1.105353E-09
       125  19 -3.513491E+05  6.937299E+04  8.225233E+04 -7.868457E+03  8.265803E+03  6.140599E+03
       125  20 -3.384203E+05  6.897928E+04  9.381418E+04 -2.484345E+03  2.068030E+04  7.147811E+03
       125  21 -3.118156E+05  1.156855E+05  1.252942E+05 -1.907429E+04  3.310100E+04  2.472959E+03
       125  22 -6.358324E+05 -1.523133E+03  1.243489E+04 -1.157102E+04  9.552513E+03  6.141530E+03
       125  23 -6.425014E+05 -6.765075E+03  1.931466E+04 -6.039541E+02  2.005397E+04  7.147539E+03
       125  24 -6.358203E+05  3.477293E+04  4.479008E+04 -1.161146E+04  3.056123E+04  2.470484E+03
       125  25 -9.202420E+05 -7.242522E+04 -5.738848E+04 -1.527189E+04  1.083863E+04  6.142447E+03
       125  26 -9.464981E+05 -8.251627E+04 -5.519164E+04  1.275495E+03  1.942794E+04  7.147264E+03
       125  27 -9.597296E+05 -4.614733E+04 -3.572185E+04 -4.152564E+03  2.802278E+04  2.467948E+03
       126   1  3.522066E+05 -1.043593E+06  3.177742E+05 -1.381075E+05  1.343836E+04 -6.612389E+04
       126   2  3.964062E+05 -1.327313E+06  3.037561E+05  1.193450E+04  3.633062E+04 -4.226208E+04
       126   3  3.025129E+05 -1.645718E+06  2.402980E+05 -1.740367E+05  2.388430E+04 -1.853397E+04
       126   4 -1.007114E+05 -2.854250E+06 -1.329214E+05 -1.582090E+05  1.347471E+04 -7.960173E+04
       126   5  2.008120E+04 -2.835717E+06 -6.627935E+04  9.948177E+03  3.634281E+04 -4.396898E+04
       126   6  5.431711E+02 -2.854116E+06 -5.737638E+04 -1.579672E+05  2.383592E+04 -8.457960E+03
       126   7 -5.538750E+05 -4.661921E+06 -5.838627E+05 -1.782497E+05  1.351200E+04 -9.303994E+04
       126   8 -3.564132E+05 -4.342041E+06 -4.364822E+05  7.968525E+03  3.635502E+04 -4.567163E+04
       126   9 -3.015349E+05 -4.061180E+06 -3.551584E+05 -1.419272E+05  2.378801E+04  1.598437E+03
       126  10  3.522052E+05 -1.043598E+06  3.177656E+05 -1.381068E+05  1.011559E-09 -1.640361E-09
       126  11  3.964043E+05 -1.327315E+06  3.037503E+05  1.193574E+04  4.909607E-10 -4.808812E-09
       126  12  3.025121E+05 -1.645718E+06  2.402963E+05 -1.740364E+05 -1.658274E-09  3.329401E-09
       126  13 -1.007133E+05 -2.854257E+06 -1.329337E+05 -1.582082E+05  2.449760E-10  9.303667E-10
       126  14  2.007926E+04 -2.835720E+06 -6.628548E+04  9.949466E+03 -9.188786E-10 -1.778544E-09
       126  15  5.425425E+02 -2.854116E+06 -5.737758E+04 -1.579670E+05  3.484224E-09  1.519702E-09
       126  16 -5.538776E+05 -4.661930E+06 -5.838794E+05 -1.782487E+05  1.004023E-09  1.702403E-09
       126  17 -3.564152E+05 -4.342044E+06 -4.364887E+05  7.969865E+03  1.372731E-09 -5.538657E-10
       126  18 -3.015355E+05 -4.061180E+06 -3.551595E+05 -1.419272E+05  1.372851E-09 -7.439834E-09
       126  19  3.522066E+05 -1.043593E+06  3.177742E+05 -1.381075E+05 -1.343836E+04  6.612389E+04
       126  20  3.964062E+05 -1.327313E+06  3.037561E+05  1.193450E+04 -3.633062E+04  4.226208E+04
       126  21  3.025129E+05 -1.645718E+06  2.402980E+05 -1.740367E+05 -2.388430E+04  1.853397E+04
       126  22 -1.007114E+05 -2.854250E+06 -1.329214E+05 -1.582090E+05 -1.347471E+04  7.960173E+04
       126  23  2.008120E+04 -2.835717E+06 -6.627935E+04  9.948177E+03 -3.634281E+04  4.396898E+04
       126  24  5.431711E+02 -2.854116E+06 -5.737638E+04 -1.579672E+05 -2.383592E+04  8.457960E+03
       126  25 -5.538750E+05 -4.661921E+06 -5.838627E+05 -1.782497E+05 -1.351200E+04  9.303994E+04
       126  26 -3.564132E+05 -4.342041E+06 -4.364822E+05  7.968525E+03 -3.635502E+04  4.567163E+04
       126  27 -3.015349E+05 -4.061180E+06 -3.551584E+05 -1.419272E+05 -2.378801E+04 -1.598437E+03
       127   1  1.112162E+05 -2.365957E+06  6.146603E+04 -1.571064E+05  1.142430E+04 -8.717405E+02
       127   2  5.292598E+04 -2.670811E+06 -2.074812E+04  1.347063E+04  3.495250E+03  3.100186E+04
       127   3 -7.890416E+04 -3.002910E+06 -1.431657E+05 -1.727115E+05 -5.082202E+03  6.285092E+04
       127   4 -9.964838E+03 -2.851634E+06 -5.779083E+04 -1.626195E+05  1.141114E+04  1.619442E+03
       127   5  1.114108E+04 -2.837979E+06 -6.187184E+04  1.567535E+04  3.480484E+03  3.369905E+04
       127   6 -4.133016E+04 -2.851694E+06 -1.062958E+05 -1.627993E+05 -5.098047E+03  6.577036E+04
       127   7 -1.311633E+05 -3.337095E+06 -1.770650E+05 -1.681278E+05  1.139794E+04  4.108672E+03
       127   8 -3.064589E+04 -3.005121E+06 -1.029976E+05  1.787950E+04  3.465736E+03  3.639550E+04
       127   9 -3.757445E+03 -2.700457E+06 -6.942739E+04 -1.528845E+05 -5.113796E+03  6.869052E+04
       127  10  1.112160E+05 -2.365957E+06  6.146578E+04 -1.571064E+05 -7.413240E-11  1.519199E-09
       127  11  5.292571E+04 -2.670812E+06 -2.074996E+04  1.347055E+04  2.672704E-09 -7.864867E-09
       127  12 -7.890526E+04 -3.002914E+06 -1.431732E+05 -1.727113E+05  1.651714E-10  4.871355E-10
       127  13 -9.964978E+03 -2.851634E+06 -5.779108E+04 -1.626195E+05  4.737702E-09  3.161554E-09
       127  14  1.114076E+04 -2.837980E+06 -6.187400E+04  1.567525E+04  3.617511E-09 -2.849901E-09
       127  15 -4.133135E+04 -2.851699E+06 -1.063040E+05 -1.627990E+05 -1.902022E-10  1.866870E-09
       127  16 -1.311634E+05 -3.337095E+06 -1.770653E+05 -1.681279E+05 -7.216928E-10 -1.255945E-09
       127  17 -3.064626E+04 -3.005123E+06 -1.030001E+05  1.787939E+04  2.294253E-09  1.078647E-09
       127  18 -3.758746E+03 -2.700462E+06 -6.943635E+04 -1.528843E+05 -2.674484E-09 -4.656026E-09
       127  19  1.112162E+05 -2.365957E+06  6.146603E+04 -1.571064E+05 -1.142430E+04  8.717405E+02
       127  20  5.292598E+04 -2.670811E+06 -2.074812E+04  1.347063E+04 -3.495250E+03 -3.100186E+04
       127  21 -7.890416E+04 -3.002910E+06 -1.431657E+05 -1.727115E+05  5.082202E+03 -6.285092E+04
       127  22 -9.964838E+03 -2.851634E+06 -5.779083E+04 -1.626195E+05 -1.141114E+04 -1.619442E+03
       127  23  1.114108E+04 -2.837979E+06 -6.187184E+04  1.567535E+04 -3.480484E+03 -3.369905E+04
       127  24 -4.133016E+04 -2.851694E+06 -1.062958E+05 -1.627993E+05  5.098047E+03 -6.577036E+04
       127  25 -1.311633E+05 -3.337095E+06 -1.770650E+05 -1.681278E+05 -1.139794E+04 -4.108672E+03
       127  26 -3.064589E+04 -3.005121E+06 -1.029976E+05  1.787950E+04 -3.465736E+03 -3.639550E+04
       127  27 -3.757445E+03 -2.700457E+06 -6.942739E+04 -1.528845E+05  5.113796E+03 -6.869052E+04
       128   1 -2.062180E+05 -3.754806E+06 -3.429762E+05 -1.212095E+05 -1.693666E+04  7.685783E+04
       128   2 -2.318311E+05 -3.998785E+06 -4.806357E+05 -3.971668E+03 -2.961566E+04  1.892492E+05
       128   3 -7.085801E+05 -4.370522E+06 -8.046896E+05 -2.314374E+05 -1.193625E+04  3.017179E+05
       128   4  1.466080E+04 -2.873685E+06 -1.253750E+05 -1.595357E+05 -1.699056E+04  8.607535E+04
       128   5  6.479119E+04 -2.811018E+06 -1.888628E+05  1.220760E+04 -2.960264E+04  1.884874E+05
       128   6 -3.339927E+05 -2.874160E+06 -4.315003E+05 -1.607440E+05 -1.186189E+04  2.910343E+05
       128   7  2.354865E+05 -1.991850E+06  9.216947E+04 -1.979156E+05 -1.704557E+04  9.530593E+04
       128   8  3.613094E+05 -1.621958E+06  1.028062E+05  2.841944E+04 -2.958967E+04  1.877239E+05
       128   9  4.044510E+04 -1.375741E+06 -5.847654E+04 -8.987710E+04 -1.179010E+04  2.803241E+05
       128  10 -2.062199E+05 -3.754812E+06 -3.429879E+05 -1.212084E+05 -5.235920E-10  1.218921E-09
       128  11 -2.318417E+05 -3.998824E+06 -4.807051E+05 -3.967145E+03 -8.504119E-10 -6.057822E-09
       128  12 -7.086049E+05 -4.370620E+06 -8.048621E+05 -2.314345E+05 -5.372467E-10 -2.882704E-10
       128  13  1.465849E+04 -2.873693E+06 -1.253895E+05 -1.595345E+05 -1.553185E-09  2.893516E-09
       128  14  6.478066E+04 -2.811057E+06 -1.889316E+05  1.221210E+04 -7.624961E-10 -3.533610E-09
       128  15 -3.340157E+05 -2.874251E+06 -4.316605E+05 -1.607412E+05 -1.523084E-09  1.128240E-09
       128  16  2.354837E+05 -1.991860E+06  9.215181E+04 -1.979143E+05 -1.329275E-09 -1.434900E-09
       128  17  3.612990E+05 -1.621996E+06  1.027381E+05  2.842392E+04  4.784195E-10 -3.044624E-10
       128  18  4.042380E+04 -1.375826E+06 -5.862480E+04 -8.987444E+04  1.480546E-09 -1.686190E-09
       128  19 -2.062180E+05 -3.754806E+06 -3.429762E+05 -1.212095E+05  1.693666E+04 -7.685783E+04
       128  20 -2.318311E+05 -3.998785E+06 -4.806357E+05 -3.971668E+03  2.961566E+04 -1.892492E+05
       128  21 -7.085801E+05 -4.370522E+06 -8.046896E+05 -2.314374E+05  1.193625E+04 -3.017179E+05
       128  22  1.466080E+04 -2.873685E+06 -1.253750E+05 -1.595357E+05  1.699056E+04 -8.607535E+04
       128  23  6.479119E+04 -2.811018E+06 -1.888628E+05  1.220760E+04  2.960264E+04 -1.884874E+05
       128  24 -3.339927E+05 -2.874160E+06 -4.315003E+05 -1.607440E+05  1.186189E+04 -2.910343E+05
       128  25  2.354865E+05 -1.991850E+06  9.216947E+04 -1.979156E+05  1.704557E+04 -9.530593E+04
       128  26  3.613094E+05 -1.621958E+06  1.028062E+05  2.841944E+04  2.958967E+04 -1.877239E+05
       128  27  4.044510E+04 -1.375741E+06 -5.847654E+04 -8.987710E+04  1.179010E+04 -2.803241E+05
       129   1 -2.925047E+06 -6.090547E+05 -2.383558E+05 -1.059488E+06 -1.199829E+05 -4.347751E+04
       129   2 -2.891289E+06 -4.346595E+05 -1.267451E+05 -1.088383E+06 -7.786787E+04 -2.418928E+04
       129   3 -2.927917E+06 -4.437409E+05 -9.685552E+04 -1.074010E+06 -3.447391E+04 -8.295751E+03
       129   4 -2.756476E+06 -5.175447E+05 -1.865239E+05 -9.852613E+05 -1.185349E+05 -4.293874E+04
       129   5 -2.711861E+06 -3.594331E+05 -7.667439E+04 -1.031894E+06 -7.747371E+04 -2.404213E+04
       129   6 -2.737403E+06 -3.845587E+05 -4.769021E+04 -1.035266E+06 -3.513293E+04 -8.542962E+03
       129   7 -2.587876E+06 -4.260228E+05 -1.346950E+05 -9.110131E+05 -1.170865E+05 -4.239964E+04
       129   8 -2.532402E+06 -2.842027E+05 -2.660667E+04 -9.753897E+05 -7.707942E+04 -2.389492E+04
       129   9 -2.546854E+06 -3.253767E+05  1.472338E+03 -9.965122E+05 -3.579217E+04 -8.790223E+03
       129  10 -2.925063E+06 -6.090606E+05 -2.383865E+05 -1.059493E+06 -1.123261E-09 -4.026778E-10
       129  11 -2.891296E+06 -4.346618E+05 -1.267577E+05 -1.088384E+06  4.161348E-10  9.013624E-10
       129  12 -2.927918E+06 -4.437413E+05 -9.685789E+04 -1.074010E+06  1.977297E-10 -2.290468E-10
       129  13 -2.756492E+06 -5.175505E+05 -1.865540E+05 -9.852654E+05  4.917223E-10  7.094175E-10
       129  14 -2.711868E+06 -3.594354E+05 -7.668682E+04 -1.031896E+06 -4.238450E-09  1.088279E-09
       129  15 -2.737404E+06 -3.845591E+05 -4.769268E+04 -1.035266E+06 -1.173848E-09  1.505303E-10
       129  16 -2.587891E+06 -4.260285E+05 -1.347243E+05 -9.110171E+05  1.222583E-10 -3.228058E-10
       129  17 -2.532409E+06 -2.842050E+05 -2.661897E+04 -9.753912E+05  2.777677E-10  3.330656E-10
       129  18 -2.546855E+06 -3.253772E+05  1.469773E+03 -9.965124E+05  2.407448E-10 -6.809347E-10
       129  19 -2.925047E+06 -6.090547E+05 -2.383558E+05 -1.059488E+06  1.199829E+05  4.347751E+04
       129  20 -2.891289E+06 -4.346595E+05 -1.267451E+05 -1.088383E+06  7.786787E+04  2.418928E+04
       129  21 -2.927917E+06 -4.437409E+05 -9.685552E+04 -1.074010E+06  3.447391E+04  8.295751E+03
       129  22 -2.756476E+06 -5.175447E+05 -1.865239E+05 -9.852613E+05  1.185349E+05  4.293874E+04
       129  23 -2.711861E+06 -3.594331E+05 -7.667439E+04 -1.031894E+06  7.747371E+04  2.404213E+04
       129  24 -2.737403E+06 -3.845587E+05 -4.769021E+04 -1.035266E+06  3.513293E+04  8.542962E+03
       129  25 -2.587876E+06 -4.260228E+05 -1.346950E+05 -9.110131E+05  1.170865E+05  4.239964E+04
       129  26 -2.532402E+06 -2.842027E+05 -2.660667E+04 -9.753897E+05  7.707942E+04  2.389492E+04
       129  27 -2.546854E+06 -3.253767E+05  1.472338E+03 -9.965122E+05  3.579217E+04  8.790223E+03
       130   1 -2.893977E+06 -4.717127E+05 -8.423998E+04 -1.072471E+06 -2.796164E+04 -6.560042E+03
       130   2 -2.884954E+06 -4.423864E+05 -6.095029E+04 -1.070473E+06 -1.831833E+04 -2.816182E+03
       130   3 -2.879193E+06 -4.441361E+05 -5.145742E+04 -1.070369E+06 -8.491534E+03  4.396800E+02
       130   4 -2.730471E+06 -4.064142E+05 -3.912516E+04 -1.024359E+06 -2.785839E+04 -6.521466E+03
       130   5 -2.727589E+06 -3.820535E+05 -1.808601E+04 -1.026729E+06 -1.836554E+04 -2.834035E+03
       130   6 -2.727936E+06 -3.887348E+05 -1.072114E+04 -1.030993E+06 -8.689344E+03  3.653130E+02
       130   7 -2.566940E+06 -3.411132E+05  5.987189E+03 -9.762344E+05 -2.775510E+04 -6.482877E+03
       130   8 -2.570200E+06 -3.217190E+05  2.477598E+04 -9.829747E+05 -1.841277E+04 -2.851893E+03
       130   9 -2.576658E+06 -3.333326E+05  3.001304E+04 -9.916091E+05 -8.887207E+03  2.909276E+02
       130  10 -2.893978E+06 -4.717130E+05 -8.424154E+04 -1.072471E+06 -9.211595E-10 -2.192592E-10
       130  11 -2.884954E+06 -4.423865E+05 -6.095094E+04 -1.070473E+06  2.551781E-10  1.127659E-09
       130  12 -2.879193E+06 -4.441361E+05 -5.145755E+04 -1.070369E+06 -5.083545E-11 -9.303454E-10
       130  13 -2.730472E+06 -4.064144E+05 -3.912670E+04 -1.024359E+06  3.069457E-09 -6.038393E-10
       130  14 -2.727589E+06 -3.820536E+05 -1.808666E+04 -1.026729E+06  2.288994E-09  1.912778E-10
       130  15 -2.727936E+06 -3.887348E+05 -1.072128E+04 -1.030993E+06 -4.281389E-09 -2.977003E-10
       130  16 -2.566941E+06 -3.411135E+05  5.985655E+03 -9.762345E+05 -1.453254E-09  1.311862E-10
       130  17 -2.570201E+06 -3.217191E+05  2.477532E+04 -9.829747E+05 -2.584390E-09  1.506109E-09
       130  18 -2.576658E+06 -3.333326E+05  3.001289E+04 -9.916091E+05 -2.505110E-09  2.288754E-10
       130  19 -2.893977E+06 -4.717127E+05 -8.423998E+04 -1.072471E+06  2.796164E+04  6.560042E+03
       130  20 -2.884954E+06 -4.423864E+05 -6.095029E+04 -1.070473E+06  1.831833E+04  2.816182E+03
       130  21 -2.879193E+06 -4.441361E+05 -5.145742E+04 -1.070369E+06  8.491534E+03 -4.396800E+02
       130  22 -2.730471E+06 -4.064142E+05 -3.912516E+04 -1.024359E+06  2.785839E+04  6.521466E+03
       130  23 -2.727589E+06 -3.820535E+05 -1.808601E+04 -1.026729E+06  1.836554E+04  2.834035E+03
       130  24 -2.727936E+06 -3.887348E+05 -1.072114E+04 -1.030993E+06  8.689344E+03 -3.653130E+02
       130  25 -2.566940E+06 -3.411132E+05  5.987189E+03 -9.762344E+05  2.775510E+04  6.482877E+03
       130  26 -2.570200E+06 -3.217190E+05  2.477598E+04 -9.829747E+05  1.841277E+04  2.851893E+03
       130  27 -2.576658E+06 -3.333326E+05  3.001304E+04 -9.916091E+05  8.887207E+03 -2.909276E+02
       131   1 -2.850770E+06 -4.395581E+05 -4.232701E+04 -1.064445E+06 -6.911562E+03  7.064918E+02
       131   2 -2.843628E+06 -4.272213E+05 -3.506640E+04 -1.056161E+06 -4.504952E+03  1.195107E+03
       131   3 -2.827982E+06 -4.280891E+05 -3.037016E+04 -1.058503E+06 -2.053443E+03  1.563948E+03
       131   4 -2.726375E+06 -3.921559E+05 -8.519071E+03 -1.030158E+06 -7.007747E+03  6.703059E+02
       131   5 -2.730464E+06 -3.843959E+05 -4.347427E+03 -1.025280E+06 -4.638229E+03  1.145018E+03
       131   6 -2.726041E+06 -3.898327E+05 -2.710283E+03 -1.031028E+06 -2.223866E+03  1.499946E+03
       131   7 -2.601965E+06 -3.447527E+05  2.528754E+04 -9.958650E+05 -7.103954E+03  6.341118E+02
       131   8 -2.617287E+06 -3.415698E+05  2.637043E+04 -9.943941E+05 -4.771534E+03  1.094918E+03
       131   9 -2.624090E+06 -3.515756E+05  2.494866E+04 -1.003549E+06 -2.394319E+03  1.435932E+03
       131  10 -2.850770E+06 -4.395581E+05 -4.232710E+04 -1.064445E+06 -1.133743E-09 -1.596213E-09
       131  11 -2.843628E+06 -4.272213E+05 -3.506644E+04 -1.056161E+06 -2.870647E-09  5.285357E-10
       131  12 -2.827982E+06 -4.280891E+05 -3.037017E+04 -1.058503E+06  7.189525E-10  2.748633E-10
       131  13 -2.726375E+06 -3.921559E+05 -8.519165E+03 -1.030158E+06  2.070098E-09 -6.866424E-10
       131  14 -2.730464E+06 -3.843959E+05 -4.347470E+03 -1.025280E+06 -4.330762E-10 -1.105776E-10
       131  15 -2.726041E+06 -3.898327E+05 -2.710297E+03 -1.031028E+06 -4.998489E-09 -3.710514E-10
       131  16 -2.601965E+06 -3.447527E+05  2.528744E+04 -9.958650E+05  1.349628E-09  1.435553E-10
       131  17 -2.617287E+06 -3.415698E+05  2.637038E+04 -9.943941E+05  1.249863E-09 -6.713828E-10
       131  18 -2.624090E+06 -3.515756E+05  2.494864E+04 -1.003549E+06 -7.123048E-10 -1.573217E-10
       131  19 -2.850770E+06 -4.395581E+05 -4.232701E+04 -1.064445E+06  6.911562E+03 -7.064918E+02
       131  20 -2.843628E+06 -4.272213E+05 -3.506640E+04 -1.056161E+06  4.504952E+03 -1.195107E+03
       131  21 -2.827982E+06 -4.280891E+05 -3.037016E+04 -1.058503E+06  2.053443E+03 -1.563948E+03
       131  22 -2.726375E+06 -3.921559E+05 -8.519071E+03 -1.030158E+06  7.007747E+03 -6.703059E+02
       131  23 -2.730464E+06 -3.843959E+05 -4.347427E+03 -1.025280E+06  4.638229E+03 -1.145018E+03
       131  24 -2.726041E+06 -3.898327E+05 -2.710283E+03 -1.031028E+06  2.223866E+03 -1.499946E+03
       131  25 -2.601965E+06 -3.447527E+05  2.528754E+04 -9.958650E+05  7.103954E+03 -6.341118E+02
       131  26 -2.617287E+06 -3.415698E+05  2.637043E+04 -9.943941E+05  4.771534E+03 -1.094918E+03
       131  27 -2.624090E+06 -3.515756E+05  2.494866E+04 -1.003549E+06  2.394319E+03 -1.435932E+03
       132   1 -2.794747E+06 -4.167824E+05 -2.102397E+04 -1.050201E+06 -1.549401E+03  1.409095E+03
       132   2 -2.786892E+06 -4.052861E+05 -1.681889E+04 -1.039764E+06 -4.775497E+02  1.237295E+03
       132   3 -2.767535E+06 -4.062520E+05 -1.343773E+04 -1.042751E+06  6.102352E+02  1.022802E+03
       132   4 -2.725505E+06 -3.905888E+05 -2.274491E+03 -1.031304E+06 -1.700498E+03  1.352367E+03
       132   5 -2.731245E+06 -3.842725E+05 -1.722196E+03 -1.024625E+06 -6.419347E+02  1.175597E+03
       132   6 -2.725480E+06 -3.904158E+05 -1.983203E+03 -1.031369E+06  4.325378E+02  9.561278E+02
       132   7 -2.656258E+06 -3.643948E+05  1.647454E+04 -1.012405E+06 -1.851613E+03  1.295633E+03
       132   8 -2.675595E+06 -3.632589E+05  1.337419E+04 -1.009484E+06 -8.063357E+02  1.113893E+03
       132   9 -2.683424E+06 -3.745796E+05  9.471123E+03 -1.019986E+06  2.548277E+02  8.894490E+02
       132  10 -2.794747E+06 -4.167824E+05 -2.102397E+04 -1.050201E+06 -1.361988E-09 -4.505971E-10
       132  11 -2.786892E+06 -4.052861E+05 -1.681889E+04 -1.039764E+06  1.477537E-10 -4.028594E-11
       132  12 -2.767535E+06 -4.062520E+05 -1.343773E+04 -1.042751E+06 -1.174103E-09 -1.305692E-09
       132  13 -2.725505E+06 -3.905888E+05 -2.274500E+03 -1.031304E+06 -4.017156E-09  2.759499E-10
       132  14 -2.731245E+06 -3.842725E+05 -1.722199E+03 -1.024625E+06  9.787028E-10  1.466506E-09
       132  15 -2.725480E+06 -3.904158E+05 -1.983205E+03 -1.031369E+06  3.882132E-10  1.203000E-09
       132  16 -2.656258E+06 -3.643949E+05  1.647453E+04 -1.012405E+06 -7.296181E-10 -4.293595E-10
       132  17 -2.675595E+06 -3.632589E+05  1.337418E+04 -1.009484E+06  9.134927E-10  9.227124E-11
       132  18 -2.683424E+06 -3.745796E+05  9.471122E+03 -1.019986E+06 -1.396888E-09 -6.771002E-10
       132  19 -2.794747E+06 -4.167824E+05 -2.102397E+04 -1.050201E+06  1.549401E+03 -1.409095E+03
       132  20 -2.786892E+06 -4.052861E+05 -1.681889E+04 -1.039764E+06  4.775497E+02 -1.237295E+03
       132  21 -2.767535E+06 -4.062520E+05 -1.343773E+04 -1.042751E+06 -6.102352E+02 -1.022802E+03
       132  22 -2.725505E+06 -3.905888E+05 -2.274491E+03 -1.031304E+06  1.700498E+03 -1.352367E+03
       132  23 -2.731245E+06 -3.842725E+05 -1.722196E+03 -1.024625E+06  6.419347E+02 -1.175597E+03
       132  24 -2.725480E+06 -3.904158E+05 -1.983203E+03 -1.031369E+06 -4.325378E+02 -9.561278E+02
       132  25 -2.656258E+06 -3.643948E+05  1.647454E+04 -1.012405E+06  1.851613E+03 -1.295633E+03
       132  26 -2.675595E+06 -3.632589E+05  1.337419E+04 -1.009484E+06  8.063357E+02 -1.113893E+03
       132  27 -2.683424E+06 -3.745796E+05  9.471123E+03 -1.019986E+06 -2.548277E+02 -8.894490E+02
       133   1 -2.731207E+06 -3.927131E+05 -3.844315E+03 -1.033273E+06  1.085578E+03  8.248216E+02
       133   2 -2.722927E+06 -3.808171E+05 -1.322232E+03 -1.022190E+06  3.107900E+03  9.528066E+02
       133   3 -2.703118E+06 -3.828249E+05 -5.737554E+02 -1.024913E+06  5.125978E+03  1.092195E+03
       133   4 -2.725429E+06 -3.904193E+05 -2.307684E+03 -1.031573E+06  9.104853E+02  7.591315E+02
       133   5 -2.731268E+06 -3.839836E+05 -3.588275E+03 -1.024476E+06  2.936353E+03  8.884420E+02
       133   6 -2.725579E+06 -3.914524E+05 -6.645249E+03 -1.031187E+06  4.957929E+03  1.029138E+03
       133   7 -2.719652E+06 -3.881255E+05 -7.710502E+02 -1.029872E+06  7.353899E+02  6.934404E+02
       133   8 -2.739610E+06 -3.871502E+05 -5.854332E+03 -1.026763E+06  2.764807E+03  8.240782E+02
       133   9 -2.748039E+06 -4.000800E+05 -1.271680E+04 -1.037461E+06  4.789885E+03  9.660838E+02
       133  10 -2.731207E+06 -3.927131E+05 -3.844318E+03 -1.033273E+06  8.004354E-10 -6.696209E-10
       133  11 -2.722927E+06 -3.808171E+05 -1.322252E+03 -1.022190E+06  7.911900E-11  1.643257E-10
       133  12 -2.703118E+06 -3.828249E+05 -5.738072E+02 -1.024913E+06  4.646934E-09  2.450792E-09
       133  13 -2.725429E+06 -3.904193E+05 -2.307687E+03 -1.031573E+06  3.154286E-09  7.974386E-10
       133  14 -2.731268E+06 -3.839836E+05 -3.588293E+03 -1.024476E+06  5.189391E-09  2.536533E-11
       133  15 -2.725579E+06 -3.914524E+05 -6.645298E+03 -1.031187E+06  5.186377E-09  1.176229E-09
       133  16 -2.719652E+06 -3.881255E+05 -7.710521E+02 -1.029872E+06 -2.814922E-09 -1.304882E-09
       133  17 -2.739610E+06 -3.871502E+05 -5.854347E+03 -1.026763E+06  1.840689E-10  1.660384E-09
       133  18 -2.748039E+06 -4.000800E+05 -1.271685E+04 -1.037461E+06  1.278471E-09  2.965988E-09
       133  19 -2.731207E+06 -3.927131E+05 -3.844315E+03 -1.033273E+06 -1.085578E+03 -8.248216E+02
       133  20 -2.722927E+06 -3.808171E+05 -1.322232E+03 -1.022190E+06 -3.107900E+03 -9.528066E+02
       133  21 -2.703118E+06 -3.828249E+05 -5.737554E+02 -1.024913E+06 -5.125978E+03 -1.092195E+03
       133  22 -2.725429E+06 -3.904193E+05 -2.307684E+03 -1.031573E+06 -9.104853E+02 -7.591315E+02
       133  23 -2.731268E+06 -3.839836E+05 -3.588275E+03 -1.024476E+06 -2.936353E+03 -8.884420E+02
       133  24 -2.725579E+06 -3.914524E+05 -6.645249E+03 -1.031187E+06 -4.957929E+03 -1.029138E+03
       133  25 -2.719652E+06 -3.881255E+05 -7.710502E+02 -1.029872E+06 -7.353899E+02 -6.934404E+02
       133  26 -2.739610E+06 -3.871502E+05 -5.854332E+03 -1.026763E+06 -2.764807E+03 -8.240782E+02
       133  27 -2.748039E+06 -4.000800E+05 -1.271680E+04 -1.037461E+06 -4.789885E+03 -9.660838E+02
       134   1 -2.667636E+06 -3.687238E+05  7.259516E+03 -1.016661E+06  6.512366E+03  1.238203E+03
       134   2 -2.658985E+06 -3.556174E+05  4.537168E+03 -1.005337E+06  1.428805E+04  3.545463E+03
       134   3 -2.644075E+06 -3.653155E+05 -6.913178E+03 -1.004460E+06  2.203044E+04  5.942520E+03
       134   4 -2.726268E+06 -3.900116E+05 -8.531380E+03 -1.031723E+06  6.330092E+03  1.169810E+03
       134   5 -2.729985E+06 -3.827233E+05 -1.478059E+04 -1.024959E+06  1.413302E+04  3.487252E+03
       134   6 -2.727450E+06 -3.982459E+05 -2.978037E+04 -1.028642E+06  2.190250E+04  5.894405E+03
       134   7 -2.784896E+06 -4.112993E+05 -2.432252E+04 -1.046784E+06  6.147837E+03  1.101424E+03
       134   8 -2.800980E+06 -4.098288E+05 -3.409879E+04 -1.044579E+06  1.397801E+04  3.429049E+03
       134   9 -2.810818E+06 -4.311758E+05 -5.264823E+04 -1.052820E+06  2.177457E+04  5.846298E+03
       134  10 -2.667636E+06 -3.687238E+05  7.259433E+03 -1.016661E+06  4.955058E-09  2.847681E-09
       134  11 -2.658985E+06 -3.556175E+05  4.536759E+03 -1.005337E+06  6.872963E-10  2.337983E-11
       134  12 -2.644076E+06 -3.653157E+05 -6.914161E+03 -1.004460E+06  9.583130E-10  7.403392E-10
       134  13 -2.726268E+06 -3.900116E+05 -8.531458E+03 -1.031723E+06  4.737494E-09  2.944561E-10
       134  14 -2.729985E+06 -3.827234E+05 -1.478099E+04 -1.024959E+06 -4.060543E-10 -1.347392E-09
       134  15 -2.727450E+06 -3.982461E+05 -2.978134E+04 -1.028642E+06 -3.573043E-09 -3.532713E-11
       134  16 -2.784896E+06 -4.112993E+05 -2.432260E+04 -1.046784E+06  3.322761E-09  2.415419E-09
       134  17 -2.800980E+06 -4.098289E+05 -3.409918E+04 -1.044579E+06  1.202901E-09 -3.096851E-10
       134  18 -2.810818E+06 -4.311759E+05 -5.264919E+04 -1.052820E+06 -1.650711E-09 -4.415668E-10
       134  19 -2.667636E+06 -3.687238E+05  7.259516E+03 -1.016661E+06 -6.512366E+03 -1.238203E+03
       134  20 -2.658985E+06 -3.556174E+05  4.537168E+03 -1.005337E+06 -1.428805E+04 -3.545463E+03
       134  21 -2.644075E+06 -3.653155E+05 -6.913178E+03 -1.004460E+06 -2.203044E+04 -5.942520E+03
       134  22 -2.726268E+06 -3.900116E+05 -8.531380E+03 -1.031723E+06 -6.330092E+03 -1.169810E+03
       134  23 -2.729985E+06 -3.827233E+05 -1.478059E+04 -1.024959E+06 -1.413302E+04 -3.487252E+03
       134  24 -2.727450E+06 -3.982459E+05 -2.978037E+04 -1.028642E+06 -2.190250E+04 -5.894405E+03
       134  25 -2.784896E+06 -4.112993E+05 -2.432252E+04 -1.046784E+06 -6.147837E+03 -1.101424E+03
       134  26 -2.800980E+06 -4.098288E+05 -3.409879E+04 -1.044579E+06 -1.397801E+04 -3.429049E+03
       134  27 -2.810818E+06 -4.311758E+05 -5.264823E+04 -1.052820E+06 -2.177457E+04 -5.846298E+03
       135   1 -2.611249E+06 -3.489499E+05 -6.296248E+03 -1.007482E+06  2.776748E+04  7.714953E+03
       135   2 -2.598218E+06 -3.222596E+05 -2.953126E+04 -9.905537E+05  6.141372E+04  1.981410E+04
       135   3 -2.612133E+06 -3.899001E+05 -1.009583E+05 -9.629202E+05  9.489037E+04  3.236529E+04
       135   4 -2.731131E+06 -3.880409E+05 -3.764486E+04 -1.033739E+06  2.754573E+04  7.631993E+03
       135   5 -2.722109E+06 -3.720791E+05 -6.372826E+04 -1.027386E+06  6.132683E+04  1.978104E+04
       135   6 -2.740067E+06 -4.504865E+05 -1.381187E+05 -1.010327E+06  9.493815E+04  3.238086E+04
       135   7 -2.850999E+06 -4.271318E+05 -6.899460E+04 -1.059992E+06  2.732402E+04  7.549045E+03
       135   8 -2.845985E+06 -4.218972E+05 -9.792668E+04 -1.064212E+06  6.123996E+04  1.974799E+04
       135   9 -2.867986E+06 -5.110691E+05 -1.752808E+05 -1.057724E+06  9.498593E+04  3.239642E+04
       135  10 -2.611250E+06 -3.489502E+05 -6.297817E+03 -1.007482E+06  7.847450E-10  1.589134E-09
       135  11 -2.598223E+06 -3.222611E+05 -2.953913E+04 -9.905546E+05  1.788130E-09 -6.279291E-10
       135  12 -2.612143E+06 -3.899037E+05 -1.009773E+05 -9.629227E+05  1.904389E-09 -1.336228E-09
       135  13 -2.731132E+06 -3.880412E+05 -3.764641E+04 -1.033739E+06 -3.163947E-10  1.010649E-09
       135  14 -2.722113E+06 -3.720806E+05 -6.373610E+04 -1.027387E+06 -4.034991E-10  6.378166E-10
       135  15 -2.740077E+06 -4.504900E+05 -1.381377E+05 -1.010329E+06 -6.373610E-11  7.543320E-10
       135  16 -2.851000E+06 -4.271321E+05 -6.899612E+04 -1.059992E+06 -5.434972E-10 -2.338950E-10
       135  17 -2.845989E+06 -4.218986E+05 -9.793450E+04 -1.064213E+06  1.253081E-09  8.882073E-11
       135  18 -2.867996E+06 -5.110726E+05 -1.752998E+05 -1.057726E+06  2.385881E-10 -1.047081E-09
       135  19 -2.611249E+06 -3.489499E+05 -6.296248E+03 -1.007482E+06 -2.776748E+04 -7.714953E+03
       135  20 -2.598218E+06 -3.222596E+05 -2.953126E+04 -9.905537E+05 -6.141372E+04 -1.981410E+04
       135  21 -2.612133E+06 -3.899001E+05 -1.009583E+05 -9.629202E+05 -9.489037E+04 -3.236529E+04
       135  22 -2.731131E+06 -3.880409E+05 -3.764486E+04 -1.033739E+06 -2.754573E+04 -7.631993E+03
       135  23 -2.722109E+06 -3.720791E+05 -6.372826E+04 -1.027386E+06 -6.132683E+04 -1.978104E+04
       135  24 -2.740067E+06 -4.504865E+05 -1.381187E+05 -1.010327E+06 -9.493815E+04 -3.238086E+04
       135  25 -2.850999E+06 -4.271318E+05 -6.899460E+04 -1.059992E+06 -2.732402E+04 -7.549045E+03
       135  26 -2.845985E+06 -4.218972E+05 -9.792668E+04 -1.064212E+06 -6.123996E+04 -1.974799E+04
       135  27 -2.867986E+06 -5.110691E+05 -1.752808E+05 -1.057724E+06 -9.498593E+04 -3.239642E+04
       136   1 -2.569596E+06 -3.480852E+05 -1.250204E+05 -1.045513E+06  1.207157E+05  4.129982E+04
       136   2 -2.521573E+06 -2.074893E+05 -2.254995E+05 -9.754379E+05  2.689646E+05  9.652745E+04
       136   3 -2.726433E+06 -7.088577E+05 -6.107753E+05 -7.469446E+05  4.159861E+05  1.550364E+05
       136   4 -2.762329E+06 -3.755264E+05 -1.683789E+05 -1.051403E+06  1.200359E+05  4.105524E+04
       136   5 -2.669344E+06 -2.893218E+05 -2.706338E+05 -1.042381E+06  2.692709E+05  9.662844E+04
       136   6 -2.829521E+06 -8.453942E+05 -6.585259E+05 -8.749137E+05  4.172898E+05  1.554446E+05
       136   7 -2.955022E+06 -4.029667E+05 -2.117384E+05 -1.057296E+06  1.193563E+05  4.081061E+04
       136   8 -2.817091E+06 -3.711440E+05 -3.157700E+05 -1.109307E+06  2.695772E+05  9.672936E+04
       136   9 -2.932574E+06 -9.818649E+05 -7.062727E+05 -1.002851E+06  4.185933E+05  1.558522E+05
       136  10 -2.569612E+06 -3.480910E+05 -1.250511E+05 -1.045517E+06  7.124802E-09 -4.201751E-10
       136  11 -2.521654E+06 -2.075188E+05 -2.256537E+05 -9.754589E+05  3.800334E-09 -4.087970E-10
       136  12 -2.726626E+06 -7.089303E+05 -6.111474E+05 -7.469967E+05 -1.841559E-09 -2.241071E-10
       136  13 -2.762345E+06 -3.755321E+05 -1.684093E+05 -1.051407E+06  2.469335E-09  5.677886E-10
       136  14 -2.669424E+06 -2.893515E+05 -2.707884E+05 -1.042402E+06  5.602335E-10  1.258916E-10
       136  15 -2.829715E+06 -8.454673E+05 -6.589004E+05 -8.749661E+05  1.686806E-09  1.538559E-10
       136  16 -2.955038E+06 -4.029723E+05 -2.117685E+05 -1.057300E+06 -6.935972E-09 -2.051348E-09
       136  17 -2.817172E+06 -3.711737E+05 -3.159250E+05 -1.109328E+06 -6.512376E-10 -1.077580E-09
       136  18 -2.932769E+06 -9.819385E+05 -7.066497E+05 -1.002904E+06  3.450440E-09  8.385496E-10
       136  19 -2.569596E+06 -3.480852E+05 -1.250204E+05 -1.045513E+06 -1.207157E+05 -4.129982E+04
       136  20 -2.521573E+06 -2.074893E+05 -2.254995E+05 -9.754379E+05 -2.689646E+05 -9.652745E+04
       136  21 -2.726433E+06 -7.088577E+05 -6.107753E+05 -7.469446E+05 -4.159861E+05 -1.550364E+05
       136  22 -2.762329E+06 -3.755264E+05 -1.683789E+05 -1.051403E+06 -1.200359E+05 -4.105524E+04
       136  23 -2.669344E+06 -2.893218E+05 -2.706338E+05 -1.042381E+06 -2.692709E+05 -9.662844E+04
       136  24 -2.829521E+06 -8.453942E+05 -6.585259E+05 -8.749137E+05 -4.172898E+05 -1.554446E+05
       136  25 -2.955022E+06 -4.029667E+05 -2.117384E+05 -1.057296E+06 -1.193563E+05 -4.081061E+04
       136  26 -2.817091E+06 -3.711440E+05 -3.157700E+05 -1.109307E+06 -2.695772E+05 -9.672936E+04
       136  27 -2.932574E+06 -9.818649E+05 -7.062727E+05 -1.002851E+06 -4.185933E+05 -1.558522E+05
       137   1 -5.795416E+05  1.556446E+04  4.283266E+04  9.619639E+03  7.983812E+04  2.444306E+03
       137   2 -5.780507E+05 -9.125022E+04 -1.990666E+04  5.141805E+03  5.341756E+04  6.927837E+03
       137   3 -5.414473E+05 -7.250175E+04 -3.398491E+04 -2.058339E+04  2.700128E+04  5.945745E+03
       137   4 -2.668451E+05  9.360928E+04  1.205156E+05 -1.094861E+04  8.230028E+04  2.444434E+03
       137   5 -2.845609E+05 -1.815465E+04  5.199329E+04 -2.707038E+02  5.403155E+04  6.927707E+03
       137   6 -2.668612E+05 -4.067251E+03  3.339856E+04 -1.083924E+04  2.576798E+04  5.945202E+03
       137   7  4.594117E+04  1.716484E+05  1.981915E+05 -3.152726E+04  8.476366E+04  2.444400E+03
       137   8  9.007537E+03  5.493465E+04  1.238869E+05 -5.685797E+03  5.464582E+04  6.927566E+03
       137   9  7.793895E+03  6.436200E+04  1.007765E+05 -1.090781E+03  2.453413E+04  5.944619E+03
       137  10 -5.795485E+05  1.556274E+04  4.282066E+04  9.619482E+03  1.143395E-09 -1.291719E-09
       137  11 -5.780538E+05 -9.125104E+04 -1.991211E+04  5.141507E+03  1.766769E-09  2.931619E-10
       137  12 -5.414481E+05 -7.250198E+04 -3.398635E+04 -2.058352E+04 -3.371785E-09 -6.070230E-10
       137  13 -2.668524E+05  9.360745E+04  1.205028E+05 -1.094877E+04 -1.012895E-09  8.436784E-10
       137  14 -2.845640E+05 -1.815549E+04  5.198771E+04 -2.710053E+02  2.042357E-11 -1.919674E-11
       137  15 -2.668619E+05 -4.067467E+03  3.339725E+04 -1.083936E+04 -6.803364E-10 -7.392534E-10
       137  16  4.593346E+04  1.716464E+05  1.981780E+05 -3.152743E+04  6.018271E-10  9.127078E-10
       137  17  9.004318E+03  5.493379E+04  1.238812E+05 -5.686102E+03 -4.621794E-10  2.422726E-10
       137  18  7.793240E+03  6.436181E+04  1.007754E+05 -1.090898E+03 -4.714051E-10  1.283062E-09
       137  19 -5.795416E+05  1.556446E+04  4.283266E+04  9.619639E+03 -7.983812E+04 -2.444306E+03
       137  20 -5.780507E+05 -9.125022E+04 -1.990666E+04  5.141805E+03 -5.341756E+04 -6.927837E+03
       137  21 -5.414473E+05 -7.250175E+04 -3.398491E+04 -2.058339E+04 -2.700128E+04 -5.945745E+03
       137  22 -2.668451E+05  9.360928E+04  1.205156E+05 -1.094861E+04 -8.230028E+04 -2.444434E+03
       137  23 -2.845609E+05 -1.815465E+04  5.199329E+04 -2.707038E+02 -5.403155E+04 -6.927707E+03
       137  24 -2.668612E+05 -4.067251E+03  3.339856E+04 -1.083924E+04 -2.576798E+04 -5.945202E+03
       137  25  4.594117E+04  1.716484E+05  1.981915E+05 -3.152726E+04 -8.476366E+04 -2.444400E+03
       137  26  9.007537E+03  5.493465E+04  1.238869E+05 -5.685797E+03 -5.464582E+04 -6.927566E+03
       137  27  7.793895E+03  6.436200E+04  1.007765E+05 -1.090781E+03 -2.453413E+04 -5.944619E+03
       138   1 -5.039056E+05 -4.524427E+04 -2.911535E+04 -8.557102E+03  2.032725E+04  4.716258E+03
       138   2 -4.869703E+05 -5.491547E+04 -3.825264E+04  4.667088E+02  1.354495E+04  4.596190E+03
       138   3 -4.649243E+05 -4.820728E+04 -3.884967E+04 -1.230557E+04  6.762354E+03  3.861921E+03
       138   4 -2.735778E+05  1.215380E+04  2.746140E+04 -1.099854E+04  2.039628E+04  4.716099E+03
       138   5 -2.761514E+05 -2.389208E+03  1.347010E+04 -9.775076E+01  1.340539E+04  4.596031E+03
       138   6 -2.735804E+05 -5.197145E+02  8.161691E+03 -1.099253E+04  6.414428E+03  3.861813E+03
       138   7 -4.320174E+04  6.954796E+04  8.403424E+04 -1.344090E+04  2.046533E+04  4.715939E+03
       138   8 -6.529206E+04  5.013375E+04  6.518958E+04 -6.624058E+02  1.326579E+04  4.595871E+03
       138   9 -8.220307E+04  4.716513E+04  5.517036E+04 -9.679081E+03  6.066395E+03  3.861704E+03
       138  10 -5.039060E+05 -4.524441E+04 -2.911617E+04 -8.557180E+03  4.635785E-11 -3.355240E-10
       138  11 -4.869705E+05 -5.491554E+04 -3.825302E+04  4.666586E+02  1.491804E-09 -1.370395E-10
       138  12 -4.649243E+05 -4.820731E+04 -3.884978E+04 -1.230559E+04 -2.312514E-09 -2.915249E-10
       138  13 -2.735783E+05  1.215366E+04  2.746057E+04 -1.099862E+04 -3.251080E-09  7.216999E-10
       138  14 -2.761516E+05 -2.389279E+03  1.346973E+04 -9.780038E+01  9.766174E-10 -4.060283E-11
       138  15 -2.735804E+05 -5.197416E+02  8.161586E+03 -1.099255E+04 -2.453272E-09 -2.194272E-10
       138  16 -4.320220E+04  6.954782E+04  8.403341E+04 -1.344097E+04  6.768800E-11  4.323443E-10
       138  17 -6.529226E+04  5.013368E+04  6.518921E+04 -6.624549E+02 -2.484829E-09 -5.341770E-10
       138  18 -8.220311E+04  4.716511E+04  5.517026E+04 -9.679100E+03  1.463224E-09  8.600008E-11
       138  19 -5.039056E+05 -4.524427E+04 -2.911535E+04 -8.557102E+03 -2.032725E+04 -4.716258E+03
       138  20 -4.869703E+05 -5.491547E+04 -3.825264E+04  4.667088E+02 -1.354495E+04 -4.596190E+03
       138  21 -4.649243E+05 -4.820728E+04 -3.884967E+04 -1.230557E+04 -6.762354E+03 -3.861921E+03
       138  22 -2.735778E+05  1.215380E+04  2.746140E+04 -1.099854E+04 -2.039628E+04 -4.716099E+03
       138  23 -2.761514E+05 -2.389208E+03  1.347010E+04 -9.775076E+01 -1.340539E+04 -4.596031E+03
       138  24 -2.735804E+05 -5.197145E+02  8.161691E+03 -1.099253E+04 -6.414428E+03 -3.861813E+03
       138  25 -4.320174E+04  6.954796E+04  8.403424E+04 -1.344090E+04 -2.046533E+04 -4.715939E+03
       138  26 -6.529206E+04  5.013375E+04  6.518958E+04 -6.624058E+02 -1.326579E+04 -4.595871E+03
       138  27 -8.220307E+04  4.716513E+04  5.517036E+04 -9.679081E+03 -6.066395E+03 -3.861704E+03
       139   1 -4.205973E+05 -3.482112E+04 -2.936412E+04 -1.080670E+04  5.312979E+03  3.359830E+03
       139   2 -4.011550E+05 -3.176096E+04 -2.766772E+04  6.622468E+01  3.662097E+03  2.717637E+03
       139   3 -3.809311E+05 -2.658413E+04 -2.435927E+04 -1.124463E+04  2.010936E+03  2.002589E+03
       139   4 -2.745439E+05  1.559558E+03  6.428569E+03 -1.108049E+04  5.110346E+03  3.359768E+03
       139   5 -2.749369E+05 -3.133039E+02  3.304256E+03  1.127266E+01  3.434635E+03  2.717615E+03
       139   6 -2.745443E+05 -6.534298E+01  1.809046E+03 -1.108046E+04  1.758698E+03  2.002614E+03
       139   7 -1.284710E+05  3.793865E+04  4.221969E+04 -1.135435E+04  4.907665E+03  3.359706E+03
       139   8 -1.487043E+05  3.113317E+04  3.427506E+04 -4.369033E+01  3.207126E+03  2.717594E+03
       139   9 -1.681473E+05  2.645261E+04  2.797653E+04 -1.091625E+04  1.506416E+03  2.002639E+03
       139  10 -4.205973E+05 -3.482114E+04 -2.936419E+04 -1.080671E+04  1.015128E-09  2.000745E-10
       139  11 -4.011550E+05 -3.176097E+04 -2.766776E+04  6.621666E+01  1.809060E-09  5.903532E-10
       139  12 -3.809311E+05 -2.658414E+04 -2.435928E+04 -1.124464E+04 -4.172166E-11 -9.698757E-10
       139  13 -2.745439E+05  1.559539E+03  6.428498E+03 -1.108051E+04  4.407504E-09  4.006370E-10
       139  14 -2.749369E+05 -3.133150E+02  3.304220E+03  1.126514E+01 -2.160070E-09  3.158416E-10
       139  15 -2.745443E+05 -6.534812E+01  1.809032E+03 -1.108046E+04  2.067001E-09 -5.164481E-10
       139  16 -1.284710E+05  3.793863E+04  4.221963E+04 -1.135436E+04 -8.736287E-10  7.482516E-10
       139  17 -1.487043E+05  3.113316E+04  3.427503E+04 -4.369735E+01  6.785509E-10  2.539886E-10
       139  18 -1.681473E+05  2.645260E+04  2.797651E+04 -1.091625E+04  1.343099E-09 -6.739438E-10
       139  19 -4.205973E+05 -3.482112E+04 -2.936412E+04 -1.080670E+04 -5.312979E+03 -3.359830E+03
       139  20 -4.011550E+05 -3.176096E+04 -2.766772E+04  6.622468E+01 -3.662097E+03 -2.717637E+03
       139  21 -3.809311E+05 -2.658413E+04 -2.435927E+04 -1.124463E+04 -2.010936E+03 -2.002589E+03
       139  22 -2.745439E+05  1.559558E+03  6.428569E+03 -1.108049E+04 -5.110346E+03 -3.359768E+03
       139  23 -2.749369E+05 -3.133039E+02  3.304256E+03  1.127266E+01 -3.434635E+03 -2.717615E+03
       139  24 -2.745443E+05 -6.534298E+01  1.809046E+03 -1.108046E+04 -1.758698E+03 -2.002614E+03
       139  25 -1.284710E+05  3.793865E+04  4.221969E+04 -1.135435E+04 -4.907665E+03 -3.359706E+03
       139  26 -1.487043E+05  3.113317E+04  3.427506E+04 -4.369033E+01 -3.207126E+03 -2.717594E+03
       139  27 -1.681473E+05  2.645261E+04  2.797653E+04 -1.091625E+04 -1.506416E+03 -2.002639E+03
       140   1 -3.351951E+05 -1.485794E+04 -1.350225E+04 -1.109894E+04  1.716531E+03  1.576700E+03
       140   2 -3.152230E+05 -1.011540E+04 -9.574902E+03  6.796402E+01  1.537483E+03  8.698462E+02
       140   3 -2.951871E+05 -5.174310E+03 -5.483339E+03 -1.114365E+04  1.358342E+03  1.544353E+02
       140   4 -2.747023E+05  2.014405E+02  1.281119E+03 -1.112373E+04  1.480630E+03  1.576744E+03
       140   5 -2.747342E+05 -2.793487E+01  3.602653E+02  6.544862E+01  1.298676E+03  8.699038E+02
       140   6 -2.747025E+05 -5.832129E+01 -3.944355E+02 -1.112380E+04  1.116635E+03  1.545079E+02
       140   7 -2.142062E+05  1.526055E+04  1.606422E+04 -1.114853E+04  1.244705E+03  1.576788E+03
       140   8 -2.342439E+05  1.005941E+04  1.029531E+04  6.293316E+01  1.059854E+03  8.699613E+02
       140   9 -2.542175E+05  5.057636E+03  4.694437E+03 -1.110394E+04  8.749203E+02  1.545805E+02
       140  10 -3.351951E+05 -1.485794E+04 -1.350226E+04 -1.109894E+04 -1.558206E-09 -6.429178E-10
       140  11 -3.152230E+05 -1.011540E+04 -9.574908E+03  6.796294E+01 -5.270114E-10  1.382068E-09
       140  12 -2.951871E+05 -5.174310E+03 -5.483343E+03 -1.114365E+04  1.882787E-09  2.082351E-10
       140  13 -2.747023E+05  2.014372E+02  1.281110E+03 -1.112373E+04 -2.198166E-09 -5.013132E-10
       140  14 -2.747342E+05 -2.793614E+01  3.602607E+02  6.544771E+01 -5.366756E-09  1.341696E-09
       140  15 -2.747025E+05 -5.832165E+01 -3.944379E+02 -1.112380E+04 -4.160188E-10 -3.191419E-10
       140  16 -2.142062E+05  1.526054E+04  1.606421E+04 -1.114853E+04  9.491931E-10 -3.593262E-10
       140  17 -2.342439E+05  1.005940E+04  1.029531E+04  6.293241E+01  9.028116E-10  1.298780E-09
       140  18 -2.542175E+05  5.057635E+03  4.694435E+03 -1.110394E+04 -1.887503E-09 -3.291121E-11
       140  19 -3.351951E+05 -1.485794E+04 -1.350225E+04 -1.109894E+04 -1.716531E+03 -1.576700E+03
       140  20 -3.152230E+05 -1.011540E+04 -9.574902E+03  6.796402E+01 -1.537483E+03 -8.698462E+02
       140  21 -2.951871E+05 -5.174310E+03 -5.483339E+03 -1.114365E+04 -1.358342E+03 -1.544353E+02
       140  22 -2.747023E+05  2.014405E+02  1.281119E+03 -1.112373E+04 -1.480630E+03 -1.576744E+03
       140  23 -2.747342E+05 -2.793487E+01  3.602653E+02  6.544862E+01 -1.298676E+03 -8.699038E+02
       140  24 -2.747025E+05 -5.832129E+01 -3.944355E+02 -1.112380E+04 -1.116635E+03 -1.545079E+02
       140  25 -2.142062E+05  1.526055E+04  1.606422E+04 -1.114853E+04 -1.244705E+03 -1.576788E+03
       140  26 -2.342439E+05  1.005941E+04  1.029531E+04  6.293316E+01 -1.059854E+03 -8.699613E+02
       140  27 -2.542175E+05  5.057636E+03  4.694437E+03 -1.110394E+04 -8.749203E+02 -1.545805E+02
       141   1 -2.491731E+05  6.439391E+03  5.559831E+03 -1.118835E+04  1.464665E+03 -2.651912E+02
       141   2 -2.290353E+05  1.145202E+04  9.395274E+03  5.245296E+01  2.360310E+03 -9.806739E+02
       141   3 -2.091716E+05  1.586697E+04  1.249618E+04 -1.107879E+04  3.256077E+03 -1.687297E+03
       141   4 -2.747778E+05  4.790794E+01 -7.852860E+02 -1.112233E+04  1.222881E+03 -2.651192E+02
       141   5 -2.746404E+05  9.046917E+01 -1.794771E+03  6.368233E+01  2.121433E+03 -9.806187E+02
       141   6 -2.747780E+05 -4.651638E+02 -3.540853E+03 -1.112245E+04  3.020079E+03 -1.687257E+03
       141   7 -3.003819E+05 -6.343625E+03 -7.130452E+03 -1.105632E+04  9.811062E+02 -2.650471E+02
       141   8 -3.202436E+05 -1.127124E+04 -1.298497E+04  7.491100E+01  1.882573E+03 -9.805636E+02
       141   9 -3.403805E+05 -1.679762E+04 -1.957820E+04 -1.116611E+04  2.784106E+03 -1.687217E+03
       141  10 -2.491731E+05  6.439391E+03  5.559827E+03 -1.118835E+04 -8.216385E-10 -1.727884E-10
       141  11 -2.290353E+05  1.145202E+04  9.395262E+03  5.245482E+01 -5.686583E-10  2.193190E-10
       141  12 -2.091717E+05  1.586697E+04  1.249615E+04 -1.107878E+04  4.471193E-10 -5.532053E-10
       141  13 -2.747778E+05  4.790746E+01 -7.852890E+02 -1.112233E+04 -1.312499E-09 -1.075082E-09
       141  14 -2.746404E+05  9.046693E+01 -1.794781E+03  6.368401E+01 -3.460542E-09 -4.477565E-10
       141  15 -2.747780E+05 -4.651693E+02 -3.540875E+03 -1.112245E+04  2.102435E-09 -4.768469E-10
       141  16 -3.003819E+05 -6.343625E+03 -7.130454E+03 -1.105632E+04 -3.355526E-10 -9.043223E-10
       141  17 -3.202436E+05 -1.127124E+04 -1.298498E+04  7.491249E+01  4.825346E-09 -1.887987E-10
       141  18 -3.403805E+05 -1.679762E+04 -1.957822E+04 -1.116611E+04  1.423379E-09 -8.588449E-11
       141  19 -2.491731E+05  6.439391E+03  5.559831E+03 -1.118835E+04 -1.464665E+03  2.651912E+02
       141  20 -2.290353E+05  1.145202E+04  9.395274E+03  5.245296E+01 -2.360310E+03  9.806739E+02
       141  21 -2.091716E+05  1.586697E+04  1.249618E+04 -1.107879E+04 -3.256077E+03  1.687297E+03
       141  22 -2.747778E+05  4.790794E+01 -7.852860E+02 -1.112233E+04 -1.222881E+03  2.651192E+02
       141  23 -2.746404E+05  9.046917E+01 -1.794771E+03  6.368233E+01 -2.121433E+03  9.806187E+02
       141  24 -2.747780E+05 -4.651638E+02 -3.540853E+03 -1.112245E+04 -3.020079E+03  1.687257E+03
       141  25 -3.003819E+05 -6.343625E+03 -7.130452E+03 -1.105632E+04 -9.811062E+02  2.650471E+02
       141  26 -3.202436E+05 -1.127124E+04 -1.298497E+04  7.491100E+01 -1.882573E+03  9.805636E+02
       141  27 -3.403805E+05 -1.679762E+04 -1.957820E+04 -1.116611E+04 -2.784106E+03  1.687217E+03
       142   1 -1.636179E+05  2.794251E+04  2.278469E+04 -1.151049E+04  4.007352E+03 -2.113039E+03
       142   2 -1.429379E+05  3.343372E+04  2.426302E+04  1.242668E+02  8.011340E+03 -2.827189E+03
       142   3 -1.239786E+05  3.396198E+04  2.190177E+04 -1.040975E+04  1.201564E+04 -3.466375E+03
       142   4 -2.751028E+05  1.568854E+02 -4.631191E+03 -1.107726E+04  3.754546E+03 -2.113017E+03
       142   5 -2.742406E+05  7.243570E+02 -7.951780E+03  7.360173E+00  7.782951E+03 -2.827218E+03
       142   6 -2.751038E+05 -3.675890E+03 -1.512945E+04 -1.107710E+04  1.181154E+04 -3.466455E+03
       142   7 -3.865765E+05 -2.762967E+04 -3.204798E+04 -1.064411E+04  3.501786E+03 -2.112996E+03
       142   8 -4.055275E+05 -3.198628E+04 -4.016784E+04 -1.095215E+02  7.554610E+03 -2.827248E+03
       142   9 -4.262082E+05 -4.131545E+04 -5.216234E+04 -1.174429E+04  1.160749E+04 -3.466535E+03
       142  10 -1.636179E+05  2.794250E+04  2.278465E+04 -1.151048E+04 -4.396626E-10 -8.219705E-10
       142  11 -1.429380E+05  3.343369E+04  2.426288E+04  1.242851E+02 -9.603777E-11  2.441332E-10
       142  12 -1.239788E+05  3.396193E+04  2.190148E+04 -1.040972E+04  2.811398E-10 -5.659686E-10
       142  13 -2.751028E+05  1.568768E+02 -4.631226E+03 -1.107725E+04  1.061119E-09 -3.145012E-10
       142  14 -2.742406E+05  7.243322E+02 -7.951909E+03  7.377896E+00  2.248320E-09  3.113574E-10
       142  15 -2.751040E+05 -3.675940E+03 -1.512973E+04 -1.107707E+04  1.404077E-09 -5.503906E-10
       142  16 -3.865765E+05 -2.762967E+04 -3.204802E+04 -1.064410E+04  1.637649E-09  2.334241E-10
       142  17 -4.055276E+05 -3.198630E+04 -4.016797E+04 -1.095043E+02 -1.040734E-09  4.271442E-10
       142  18 -4.262084E+05 -4.131550E+04 -5.216262E+04 -1.174425E+04  3.881488E-10 -3.977956E-10
       142  19 -1.636179E+05  2.794251E+04  2.278469E+04 -1.151049E+04 -4.007352E+03  2.113039E+03
       142  20 -1.429379E+05  3.343372E+04  2.426302E+04  1.242668E+02 -8.011340E+03  2.827189E+03
       142  21 -1.239786E+05  3.396198E+04  2.190177E+04 -1.040975E+04 -1.201564E+04  3.466375E+03
       142  22 -2.751028E+05  1.568854E+02 -4.631191E+03 -1.107726E+04 -3.754546E+03  2.113017E+03
       142  23 -2.742406E+05  7.243570E+02 -7.951780E+03  7.360173E+00 -7.782951E+03  2.827218E+03
       142  24 -2.751038E+05 -3.675890E+03 -1.512945E+04 -1.107710E+04 -1.181154E+04  3.466455E+03
       142  25 -3.865765E+05 -2.762967E+04 -3.204798E+04 -1.064411E+04 -3.501786E+03  2.112996E+03
       142  26 -4.055275E+05 -3.198628E+04 -4.016784E+04 -1.095215E+02 -7.554610E+03  2.827248E+03
       142  27 -4.262082E+05 -4.131545E+04 -5.216234E+04 -1.174429E+04 -1.160749E+04  3.466535E+03
       143   1 -8.090391E+04  5.013380E+04  2.911852E+04 -1.399024E+04  1.522322E+04 -3.967215E+03
       143   2 -5.567186E+04  5.930490E+04  2.144301E+04  1.394130E+03  3.135910E+04 -4.688693E+03
       143   3 -4.196974E+04  3.020386E+04 -6.276253E+03 -4.958859E+03  4.749566E+04 -4.779277E+03
       143   4 -2.772958E+05  1.201442E+03 -1.912054E+04 -1.098578E+04  1.487049E+04 -3.967276E+03
       143   5 -2.715126E+05  5.539930E+03 -3.149925E+04 -1.092482E+02  3.121321E+04 -4.688924E+03
       143   6 -2.773004E+05 -2.843718E+04 -6.407062E+04 -1.097076E+04  4.755609E+04 -4.779813E+03
       143   7 -4.736525E+05 -4.773375E+04 -6.736243E+04 -7.982273E+03  1.451788E+04 -3.967341E+03
       143   8 -4.873108E+05 -4.822849E+04 -8.444493E+04 -1.612106E+03  3.106737E+04 -4.689153E+03
       143   9 -5.125805E+05 -8.708220E+04 -1.218690E+05 -1.698038E+04  4.761651E+04 -4.780351E+03
       143  10 -8.090416E+04  5.013373E+04  2.911805E+04 -1.399020E+04 -1.842462E-09 -8.723706E-10
       143  11 -5.567293E+04  5.930461E+04  2.144112E+04  1.394248E+03  1.840920E-09 -3.819537E-10
       143  12 -4.197216E+04  3.020323E+04 -6.280536E+03 -4.958676E+03  1.623333E-09 -5.057985E-10
       143  13 -2.772960E+05  1.201365E+03 -1.912099E+04 -1.098573E+04  2.220319E-11 -7.722050E-10
       143  14 -2.715136E+05  5.539645E+03 -3.150112E+04 -1.091303E+02 -3.182123E-09 -4.060990E-10
       143  15 -2.773028E+05 -2.843781E+04 -6.407492E+04 -1.097058E+04  1.335295E-09 -3.407717E-10
       143  16 -4.736527E+05 -4.773383E+04 -6.736286E+04 -7.982226E+03 -1.388766E-09 -5.961703E-10
       143  17 -4.873118E+05 -4.822877E+04 -8.444678E+04 -1.611989E+03 -2.960954E-09  5.826110E-10
       143  18 -5.125829E+05 -8.708283E+04 -1.218734E+05 -1.698020E+04 -3.099807E-09  9.819617E-11
       143  19 -8.090391E+04  5.013380E+04  2.911852E+04 -1.399024E+04 -1.522322E+04  3.967215E+03
       143  20 -5.567186E+04  5.930490E+04  2.144301E+04  1.394130E+03 -3.135910E+04  4.688693E+03
       143  21 -4.196974E+04  3.020386E+04 -6.276253E+03 -4.958859E+03 -4.749566E+04  4.779277E+03
       143  22 -2.772958E+05  1.201442E+03 -1.912054E+04 -1.098578E+04 -1.487049E+04  3.967276E+03
       143  23 -2.715126E+05  5.539930E+03 -3.149925E+04 -1.092482E+02 -3.121321E+04  4.688924E+03
       143  24 -2.773004E+05 -2.843718E+04 -6.407062E+04 -1.097076E+04 -4.755609E+04  4.779813E+03
       143  25 -4.736525E+05 -4.773375E+04 -6.736243E+04 -7.982273E+03 -1.451788E+04  3.967341E+03
       143  26 -4.873108E+05 -4.822849E+04 -8.444493E+04 -1.612106E+03 -3.106737E+04  4.689153E+03
       143  27 -5.125805E+05 -8.708220E+04 -1.218690E+05 -1.698038E+04 -4.761651E+04  4.780351E+03
       144   1 -1.321895E+04  7.905173E+04 -9.280089E+03 -3.314554E+04  6.134672E+04 -6.001971E+03
       144   2  4.634800E+04  1.165940E+05 -4.820762E+04  1.299724E+04  1.254506E+05 -6.872201E+03
       144   3  2.458069E+04 -1.389801E+05 -2.020685E+05  3.834741E+04  1.895519E+05 -2.139750E+03
       144   4 -2.928835E+05  9.426684E+03 -7.788029E+04 -1.085136E+04  6.007835E+04 -6.000791E+03
       144   5 -2.520437E+05  4.226404E+04 -1.212928E+05 -3.227159E+02  1.260345E+05 -6.874507E+03
       144   6 -2.929029E+05 -2.184168E+05 -2.809657E+05 -1.058618E+04  1.919859E+05 -2.151714E+03
       144   7 -5.724756E+05 -6.020229E+04 -1.464860E+05  1.143273E+04  5.881056E+04 -5.999702E+03
       144   8 -5.503539E+05 -3.207185E+04 -1.943843E+05 -1.363627E+04  1.266181E+05 -6.876838E+03
       144   9 -6.102899E+05 -2.978522E+05 -3.598692E+05 -5.949476E+04  1.944186E+05 -2.164068E+03
       144  10 -1.322300E+04  7.905068E+04 -9.287230E+03 -3.314524E+04  1.485190E-09 -1.489962E-09
       144  11  4.633108E+04  1.165897E+05 -4.823728E+04  1.299793E+04  3.382542E-09 -3.448268E-09
       144  12  2.454210E+04 -1.389897E+05 -2.021361E+05  3.834774E+04 -5.495304E-10 -1.014175E-09
       144  13 -2.928873E+05  9.425676E+03 -7.788715E+04 -1.085107E+04 -7.058544E-10 -3.447135E-09
       144  14 -2.520608E+05  4.225972E+04 -1.213227E+05 -3.220179E+02 -1.201125E-10  1.495858E-09
       144  15 -2.929425E+05 -2.184267E+05 -2.810350E+05 -1.058585E+04  1.111960E-09 -5.625785E-11
       144  16 -5.724794E+05 -6.020325E+04 -1.464925E+05  1.143302E+04 -1.523574E-09 -5.432252E-10
       144  17 -5.503711E+05 -3.207621E+04 -1.944146E+05 -1.363557E+04 -5.805351E-10  1.330825E-09
       144  18 -6.103305E+05 -2.978623E+05 -3.599403E+05 -5.949442E+04 -5.632235E-10 -9.145169E-10
       144  19 -1.321895E+04  7.905173E+04 -9.280089E+03 -3.314554E+04 -6.134672E+04  6.001971E+03
       144  20  4.634800E+04  1.165940E+05 -4.820762E+04  1.299724E+04 -1.254506E+05  6.872201E+03
       144  21  2.458069E+04 -1.389801E+05 -2.020685E+05  3.834741E+04 -1.895519E+05  2.139750E+03
       144  22 -2.928835E+05  9.426684E+03 -7.788029E+04 -1.085136E+04 -6.007835E+04  6.000791E+03
       144  23 -2.520437E+05  4.226404E+04 -1.212928E+05 -3.227159E+02 -1.260345E+05  6.874507E+03
       144  24 -2.929029E+05 -2.184168E+05 -2.809657E+05 -1.058618E+04 -1.919859E+05  2.151714E+03
       144  25 -5.724756E+05 -6.020229E+04 -1.464860E+05  1.143273E+04 -5.881056E+04  5.999702E+03
       144  26 -5.503539E+05 -3.207185E+04 -1.943843E+05 -1.363627E+04 -1.266181E+05  6.876838E+03
       144  27 -6.102899E+05 -2.978522E+05 -3.598692E+05 -5.949476E+04 -1.944186E+05  2.164068E+03
       145   1  3.298024E+05  5.807347E+05  3.421010E+05 -1.292360E+05  7.973356E+03  5.646761E+04
       145   2  2.143746E+05  3.590979E+05  2.461695E+05 -3.610898E+03  2.156021E+04  3.499251E+04
       145   3  1.689261E+05  1.584084E+05  1.818374E+05 -1.133560E+05  1.322227E+04  1.347041E+04
       145   4  5.199761E+04 -5.318047E+05  6.575186E+04 -1.164753E+05  7.989892E+03  4.817291E+04
       145   5 -9.901663E+03 -5.416428E+05  2.570428E+04  1.167773E+03  2.156463E+04  3.409517E+04
       145   6 -3.046551E+03 -5.318208E+05  1.216040E+04 -1.165779E+05  1.320114E+04  1.996302E+04
       145   7 -2.258996E+05 -1.643220E+06 -2.106896E+05 -1.037369E+05  8.006103E+03  3.989299E+04
       145   8 -2.342379E+05 -1.441644E+06 -1.948203E+05  5.939954E+03  2.156904E+04  3.319909E+04
       145   9 -1.750546E+05 -1.221616E+06 -1.575516E+05 -1.197959E+05  1.317993E+04  2.644841E+04
       145  10  3.298015E+05  5.807313E+05  3.420949E+05 -1.292364E+05  1.044393E-09 -2.377615E-09
       145  11  2.143738E+05  3.590964E+05  2.461663E+05 -3.611505E+03 -1.138715E-09 -7.021030E-09
       145  12  1.689259E+05  1.584082E+05  1.818368E+05 -1.133561E+05 -3.638126E-09  1.625188E-09
       145  13  5.199692E+04 -5.318072E+05  6.574737E+04 -1.164756E+05 -1.272475E-10  1.736698E-11
       145  14 -9.902474E+03 -5.416442E+05  2.570122E+04  1.167181E+03  2.641730E-10 -1.310228E-09
       145  15 -3.046845E+03 -5.318213E+05  1.215932E+04 -1.165781E+05  1.358034E-09 -3.269907E-10
       145  16 -2.259001E+05 -1.643222E+06 -2.106927E+05 -1.037371E+05  1.102942E-09  2.287285E-09
       145  17 -2.342387E+05 -1.441645E+06 -1.948233E+05  5.939377E+03 -2.919971E-09  9.611459E-09
       145  18 -1.750549E+05 -1.221617E+06 -1.575532E+05 -1.197961E+05 -5.097199E-09  5.143245E-11
       145  19  3.298024E+05  5.807347E+05  3.421010E+05 -1.292360E+05 -7.973356E+03 -5.646761E+04
       145  20  2.143746E+05  3.590979E+05  2.461695E+05 -3.610898E+03 -2.156021E+04 -3.499251E+04
       145  21  1.689261E+05  1.584084E+05  1.818374E+05 -1.133560E+05 -1.322227E+04 -1.347041E+04
       145  22  5.199761E+04 -5.318047E+05  6.575186E+04 -1.164753E+05 -7.989892E+03 -4.817291E+04
       145  23 -9.901663E+03 -5.416428E+05  2.570428E+04  1.167773E+03 -2.156463E+04 -3.409517E+04
       145  24 -3.046551E+03 -5.318208E+05  1.216040E+04 -1.165779E+05 -1.320114E+04 -1.996302E+04
       145  25 -2.258996E+05 -1.643220E+06 -2.106896E+05 -1.037369E+05 -8.006103E+03 -3.989299E+04
       145  26 -2.342379E+05 -1.441644E+06 -1.948203E+05  5.939954E+03 -2.156904E+04 -3.319909E+04
       145  27 -1.750546E+05 -1.221616E+06 -1.575516E+05 -1.197959E+05 -1.317993E+04 -2.644841E+04
       146   1  5.814859E+04 -3.353401E+05  5.615427E+04 -1.175527E+05  5.075269E+03  1.644611E+04
       146   2 -1.497611E+03 -5.458774E+05 -9.239709E+03  8.533600E+02 -3.097602E+02  1.984498E+04
       146   3 -6.803854E+04 -7.605878E+05 -7.900632E+04 -1.184904E+05 -5.660322E+03  2.324299E+04
       146   4  7.936245E+03 -5.369842E+05  6.842400E+03 -1.170308E+05  5.068832E+03  1.825463E+04
       146   5  1.233383E+03 -5.348839E+05 -6.543777E+03  1.808474E+03 -3.160455E+02  2.164348E+04
       146   6 -1.235740E+04 -5.369917E+05 -2.428851E+04 -1.171020E+05 -5.666557E+03  2.503262E+04
       146   7 -4.227910E+04 -7.385912E+05 -4.247243E+04 -1.165090E+05  5.062398E+03  2.006256E+04
       146   8  3.964374E+03 -5.238903E+05 -3.847840E+03  2.763604E+03 -3.223253E+02  2.344201E+04
       146   9  4.332005E+04 -3.133501E+05  3.042566E+04 -1.157130E+05 -5.672783E+03  2.682290E+04
       146  10  5.814849E+04 -3.353404E+05  5.615372E+04 -1.175528E+05 -1.636745E-09 -1.597027E-09
       146  11 -1.497717E+03 -5.458778E+05 -9.240450E+03  8.533650E+02 -3.148870E-09 -3.294894E-09
       146  12 -6.803872E+04 -7.605884E+05 -7.900740E+04 -1.184903E+05 -1.415705E-09  9.990938E-09
       146  13  7.936128E+03 -5.369846E+05  6.841725E+03 -1.170309E+05  2.029741E-09  6.227299E-11
       146  14  1.233257E+03 -5.348844E+05 -6.544658E+03  1.808479E+03  2.142464E-09 -1.890450E-09
       146  15 -1.235760E+04 -5.369924E+05 -2.428975E+04 -1.171019E+05  2.757859E-09 -4.235097E-10
       146  16 -4.227924E+04 -7.385916E+05 -4.247324E+04 -1.165091E+05 -4.606068E-09  1.525623E-09
       146  17  3.964226E+03 -5.238909E+05 -3.848874E+03  2.763611E+03 -1.544582E-09  6.909651E-09
       146  18  4.331982E+04 -3.133508E+05  3.042425E+04 -1.157129E+05 -1.071435E-09 -8.183234E-09
       146  19  5.814859E+04 -3.353401E+05  5.615427E+04 -1.175527E+05 -5.075269E+03 -1.644611E+04
       146  20 -1.497611E+03 -5.458774E+05 -9.239709E+03  8.533600E+02  3.097602E+02 -1.984498E+04
       146  21 -6.803854E+04 -7.605878E+05 -7.900632E+04 -1.184904E+05  5.660322E+03 -2.324299E+04
       146  22  7.936245E+03 -5.369842E+05  6.842400E+03 -1.170308E+05 -5.068832E+03 -1.825463E+04
       146  23  1.233383E+03 -5.348839E+05 -6.543777E+03  1.808474E+03  3.160455E+02 -2.164348E+04
       146  24 -1.235740E+04 -5.369917E+05 -2.428851E+04 -1.171020E+05  5.666557E+03 -2.503262E+04
       146  25 -4.227910E+04 -7.385912E+05 -4.247243E+04 -1.165090E+05 -5.062398E+03 -2.006256E+04
       146  26  3.964374E+03 -5.238903E+05 -3.847840E+03  2.763604E+03  3.223253E+02 -2.344201E+04
       146  27  4.332005E+04 -3.133501E+05  3.042566E+04 -1.157130E+05  5.672783E+03 -2.682290E+04
       147   1 -1.716663E+05 -1.255699E+06 -2.064843E+05 -1.047502E+05 -1.383841E+04  2.330468E+04
       147   2 -2.111588E+05 -1.448239E+06 -2.789135E+05 -3.097556E+03 -2.230842E+04  5.958921E+04
       147   3 -3.809509E+05 -1.677330E+06 -4.074586E+05 -1.369065E+05 -8.408104E+03  9.591470E+04
       147   4  5.924384E+03 -5.440208E+05 -3.137091E+04 -1.164799E+05 -1.385983E+04  2.988657E+04
       147   5  1.855698E+04 -5.264198E+05 -5.304483E+04  1.150432E+03 -2.230358E+04  5.870716E+04
       147   6 -9.770182E+04 -5.440474E+05 -1.255797E+05 -1.166651E+05 -8.389710E+03  8.758146E+04
       147   7  1.834778E+05  1.681190E+05  1.437053E+05 -1.282226E+05 -1.388150E+04  3.647598E+04
       147   8  2.482098E+05  3.961747E+05  1.727616E+05  5.405221E+03 -2.229877E+04  5.782375E+04
       147   9  1.854523E+05  5.904040E+05  1.562034E+05 -9.638605E+04 -8.371880E+03  7.923287E+04
       147  10 -1.716667E+05 -1.255699E+06 -2.064857E+05 -1.047499E+05 -3.774664E-10 -5.101880E-09
       147  11 -2.111603E+05 -1.448243E+06 -2.789212E+05 -3.096484E+03 -3.449807E-09 -7.089677E-09
       147  12 -3.809534E+05 -1.677340E+06 -4.074761E+05 -1.369059E+05 -2.249644E-09  3.292896E-09
       147  13  5.923938E+03 -5.440218E+05 -3.137295E+04 -1.164795E+05 -3.457636E-10 -8.879394E-12
       147  14  1.855552E+04 -5.264236E+05 -5.305224E+04  1.151487E+03 -2.582252E-09 -1.415097E-09
       147  15 -9.770396E+04 -5.440557E+05 -1.255943E+05 -1.166645E+05 -2.563110E-09 -3.062167E-10
       147  16  1.834773E+05  1.681175E+05  1.437025E+05 -1.282222E+05  1.767201E-09  4.965834E-09
       147  17  2.482084E+05  3.961710E+05  1.727544E+05  5.406259E+03  5.806865E-10  9.677935E-09
       147  18  1.854505E+05  5.903973E+05  1.561915E+05 -9.638551E+04  2.070511E-09 -2.586031E-09
       147  19 -1.716663E+05 -1.255699E+06 -2.064843E+05 -1.047502E+05  1.383841E+04 -2.330468E+04
       147  20 -2.111588E+05 -1.448239E+06 -2.789135E+05 -3.097556E+03  2.230842E+04 -5.958921E+04
       147  21 -3.809509E+05 -1.677330E+06 -4.074586E+05 -1.369065E+05  8.408104E+03 -9.591470E+04
       147  22  5.924384E+03 -5.440208E+05 -3.137091E+04 -1.164799E+05  1.385983E+04 -2.988657E+04
       147  23  1.855698E+04 -5.264198E+05 -5.304483E+04  1.150432E+03  2.230358E+04 -5.870716E+04
       147  24 -9.770182E+04 -5.440474E+05 -1.255797E+05 -1.166651E+05  8.389710E+03 -8.758146E+04
       147  25  1.834778E+05  1.681190E+05  1.437053E+05 -1.282226E+05  1.388150E+04 -3.647598E+04
       147  26  2.482098E+05  3.961747E+05  1.727616E+05  5.405221E+03  2.229877E+04 -5.782375E+04
       147  27  1.854523E+05  5.904040E+05  1.562034E+05 -9.638605E+04  8.371880E+03 -7.923287E+04
       148   1 -1.684364E+06 -4.293051E+05 -2.284550E+05 -5.964224E+05 -1.093497E+05 -3.919895E+04
       148   2 -1.649042E+06 -2.642837E+05 -1.248376E+05 -6.160429E+05 -7.106027E+04 -2.102736E+04
       148   3 -1.670108E+06 -2.729742E+05 -9.548577E+04 -6.048772E+05 -3.125574E+04 -6.878380E+03
       148   4 -1.486045E+06 -3.292152E+05 -1.690573E+05 -5.167022E+05 -1.077086E+05 -3.858687E+04
       148   5 -1.449401E+06 -1.822231E+05 -6.952652E+04 -5.547536E+05 -7.067088E+04 -2.088198E+04
       148   6 -1.468876E+06 -2.086638E+05 -4.324868E+04 -5.620246E+05 -3.211836E+04 -7.202012E+03
       148   7 -1.287687E+06 -2.291127E+05 -1.096634E+05 -4.369558E+05 -1.060669E+05 -3.797440E+04
       148   8 -1.249722E+06 -1.001580E+05 -1.421906E+04 -4.934456E+05 -7.028136E+04 -2.073653E+04
       148   9 -1.267606E+06 -1.443536E+05  8.985178E+03 -5.191608E+05 -3.298128E+04 -7.525719E+03
       148  10 -1.684377E+06 -4.293099E+05 -2.284804E+05 -5.964258E+05 -1.257186E-09 -4.271180E-10
       148  11 -1.649047E+06 -2.642855E+05 -1.248480E+05 -6.160441E+05  1.249680E-09  3.712626E-10
       148  12 -1.670109E+06 -2.729745E+05 -9.548770E+04 -6.048773E+05 -1.022329E-09  9.992650E-10
       148  13 -1.486058E+06 -3.292199E+05 -1.690820E+05 -5.167056E+05 -1.915459E-10 -1.975165E-11
       148  14 -1.449407E+06 -1.822249E+05 -6.953675E+04 -5.547547E+05  9.850872E-10  4.737868E-10
       148  15 -1.468877E+06 -2.086641E+05 -4.325072E+04 -5.620248E+05  1.321668E-09 -7.132361E-10
       148  16 -1.287699E+06 -2.291173E+05 -1.096873E+05 -4.369590E+05 -9.961966E-12  7.180783E-10
       148  17 -1.249727E+06 -1.001598E+05 -1.422917E+04 -4.934468E+05 -1.219559E-09 -6.585087E-10
       148  18 -1.267607E+06 -1.443539E+05  8.983023E+03 -5.191610E+05 -1.304864E-09  2.687301E-10
       148  19 -1.684364E+06 -4.293051E+05 -2.284550E+05 -5.964224E+05  1.093497E+05  3.919895E+04
       148  20 -1.649042E+06 -2.642837E+05 -1.248376E+05 -6.160429E+05  7.106027E+04  2.102736E+04
       148  21 -1.670108E+06 -2.729742E+05 -9.548577E+04 -6.048772E+05  3.125574E+04  6.878380E+03
       148  22 -1.486045E+06 -3.292152E+05 -1.690573E+05 -5.167022E+05  1.077086E+05  3.858687E+04
       148  23 -1.449401E+06 -1.822231E+05 -6.952652E+04 -5.547536E+05  7.067088E+04  2.088198E+04
       148  24 -1.468876E+06 -2.086638E+05 -4.324868E+04 -5.620246E+05  3.211836E+04  7.202012E+03
       148  25 -1.287687E+06 -2.291127E+05 -1.096634E+05 -4.369558E+05  1.060669E+05  3.797440E+04
       148  26 -1.249722E+06 -1.001580E+05 -1.421906E+04 -4.934456E+05  7.028136E+04  2.073653E+04
       148  27 -1.267606E+06 -1.443536E+05  8.985178E+03 -5.191608E+05  3.298128E+04  7.525719E+03
       149   1 -1.619904E+06 -2.906035E+05 -7.868686E+04 -5.978050E+05 -2.543706E+04 -5.710101E+03
       149   2 -1.607797E+06 -2.583957E+05 -5.569612E+04 -5.906528E+05 -1.659281E+04 -2.492149E+03
       149   3 -1.592631E+06 -2.603751E+05 -4.522552E+04 -5.921131E+05 -7.555945E+03  2.132022E+02
       149   4 -1.462879E+06 -2.281833E+05 -3.548449E+04 -5.518044E+05 -2.538994E+04 -5.692622E+03
       149   5 -1.463285E+06 -2.030920E+05 -1.640546E+04 -5.505057E+05 -1.670448E+04 -2.534174E+03
       149   6 -1.460600E+06 -2.121530E+05 -9.718002E+03 -5.578199E+05 -7.826598E+03  1.115784E+02
       149   7 -1.305831E+06 -1.657610E+05  7.715524E+03 -5.057931E+05 -2.534281E+04 -5.675136E+03
       149   8 -1.318754E+06 -1.477869E+05  2.288331E+04 -5.103501E+05 -1.681618E+04 -2.576210E+03
       149   9 -1.328551E+06 -1.639302E+05  2.578804E+04 -5.235203E+05 -8.097315E+03  9.932348E+00
       149  10 -1.619904E+06 -2.906037E+05 -7.868814E+04 -5.978051E+05  3.205958E-09  6.953479E-10
       149  11 -1.607797E+06 -2.583958E+05 -5.569665E+04 -5.906529E+05  2.150255E-09  4.686838E-10
       149  12 -1.592631E+06 -2.603751E+05 -4.522562E+04 -5.921131E+05  1.773274E-09  1.771430E-10
       149  13 -1.462880E+06 -2.281835E+05 -3.548577E+04 -5.518045E+05  2.436327E-09  9.392450E-10
       149  14 -1.463285E+06 -2.030920E+05 -1.640600E+04 -5.505058E+05  3.534039E-09 -6.037633E-10
       149  15 -1.460600E+06 -2.121530E+05 -9.718117E+03 -5.578199E+05  7.297484E-10  2.085384E-10
       149  16 -1.305831E+06 -1.657612E+05  7.714253E+03 -5.057932E+05 -3.906350E-10 -5.491464E-10
       149  17 -1.318754E+06 -1.477870E+05  2.288276E+04 -5.103502E+05  4.678678E-09  3.157987E-10
       149  18 -1.328551E+06 -1.639302E+05  2.578792E+04 -5.235203E+05  1.156246E-09  3.119365E-10
       149  19 -1.619904E+06 -2.906035E+05 -7.868686E+04 -5.978050E+05  2.543706E+04  5.710101E+03
       149  20 -1.607797E+06 -2.583957E+05 -5.569612E+04 -5.906528E+05  1.659281E+04  2.492149E+03
       149  21 -1.592631E+06 -2.603751E+05 -4.522552E+04 -5.921131E+05  7.555945E+03 -2.132022E+02
       149  22 -1.462879E+06 -2.281833E+05 -3.548449E+04 -5.518044E+05  2.538994E+04  5.692622E+03
       149  23 -1.463285E+06 -2.030920E+05 -1.640546E+04 -5.505057E+05  1.670448E+04  2.534174E+03
       149  24 -1.460600E+06 -2.121530E+05 -9.718002E+03 -5.578199E+05  7.826598E+03 -1.115784E+02
       149  25 -1.305831E+06 -1.657610E+05  7.715524E+03 -5.057931E+05  2.534281E+04  5.675136E+03
       149  26 -1.318754E+06 -1.477869E+05  2.288331E+04 -5.103501E+05  1.681618E+04  2.576210E+03
       149  27 -1.328551E+06 -1.639302E+05  2.578804E+04 -5.235203E+05  8.097315E+03 -9.932348E+00
       150   1 -1.551673E+06 -2.500738E+05 -3.270974E+04 -5.821757E+05 -6.083381E+03  2.924783E+02
       150   2 -1.542167E+06 -2.345971E+05 -2.469364E+04 -5.705813E+05 -3.841436E+03  5.112962E+02
       150   3 -1.520366E+06 -2.356850E+05 -1.898671E+04 -5.739002E+05 -1.569089E+03  6.487407E+02
       150   4 -1.459498E+06 -2.149418E+05 -7.715604E+03 -5.567043E+05 -6.242495E+03  2.327303E+02
       150   5 -1.465499E+06 -2.056076E+05 -3.913626E+03 -5.496429E+05 -4.025791E+03  4.421040E+02
       150   6 -1.459198E+06 -2.128327E+05 -2.400442E+03 -5.574946E+05 -1.778746E+03  5.700865E+02
       150   7 -1.367316E+06 -1.798093E+05  1.727777E+04 -5.312294E+05 -6.401635E+03  1.729722E+02
       150   8 -1.388824E+06 -1.766178E+05  1.686584E+04 -5.287021E+05 -4.210172E+03  3.729024E+02
       150   9 -1.398027E+06 -1.899802E+05  1.418546E+04 -5.410876E+05 -1.988426E+03  4.914241E+02
       150  10 -1.551673E+06 -2.500739E+05 -3.270981E+04 -5.821757E+05  5.908551E-10  5.815544E-11
       150  11 -1.542167E+06 -2.345971E+05 -2.469367E+04 -5.705813E+05  2.884494E-11 -3.894295E-10
       150  12 -1.520366E+06 -2.356850E+05 -1.898671E+04 -5.739002E+05 -8.474587E-11 -8.945296E-10
       150  13 -1.459498E+06 -2.149419E+05 -7.715677E+03 -5.567043E+05  2.712677E-09 -1.695361E-10
       150  14 -1.465499E+06 -2.056076E+05 -3.913657E+03 -5.496429E+05 -3.903780E-09 -7.849310E-10
       150  15 -1.459198E+06 -2.128327E+05 -2.400449E+03 -5.574946E+05 -2.392422E-09 -5.269058E-10
       150  16 -1.367316E+06 -1.798093E+05  1.727769E+04 -5.312294E+05  8.223399E-10 -1.167148E-10
       150  17 -1.388824E+06 -1.766178E+05  1.686581E+04 -5.287021E+05  9.877760E-10 -8.633768E-10
       150  18 -1.398027E+06 -1.899802E+05  1.418545E+04 -5.410876E+05 -1.888579E-09 -4.784810E-10
       150  19 -1.551673E+06 -2.500738E+05 -3.270974E+04 -5.821757E+05  6.083381E+03 -2.924783E+02
       150  20 -1.542167E+06 -2.345971E+05 -2.469364E+04 -5.705813E+05  3.841436E+03 -5.112962E+02
       150  21 -1.520366E+06 -2.356850E+05 -1.898671E+04 -5.739002E+05  1.569089E+03 -6.487407E+02
       150  22 -1.459498E+06 -2.149418E+05 -7.715604E+03 -5.567043E+05  6.242495E+03 -2.327303E+02
       150  23 -1.465499E+06 -2.056076E+05 -3.913626E+03 -5.496429E+05  4.025791E+03 -4.421040E+02
       150  24 -1.459198E+06 -2.128327E+05 -2.400442E+03 -5.574946E+05  1.778746E+03 -5.700865E+02
       150  25 -1.367316E+06 -1.798093E+05  1.727777E+04 -5.312294E+05  6.401635E+03 -1.729722E+02
       150  26 -1.388824E+06 -1.766178E+05  1.686584E+04 -5.287021E+05  4.210172E+03 -3.729024E+02
       150  27 -1.398027E+06 -1.899802E+05  1.418546E+04 -5.410876E+05  1.988426E+03 -4.914241E+02
       151   1 -1.478855E+06 -2.207833E+05 -7.315622E+03 -5.628935E+05 -1.080374E+03  4.006458E+02
       151   2 -1.469514E+06 -2.072207E+05 -2.402073E+03 -5.504356E+05 -1.281566E+02  4.504892E+01
       151   3 -1.446358E+06 -2.082927E+05  1.834684E+03 -5.540264E+05  8.266821E+02 -3.174641E+02
       151   4 -1.458980E+06 -2.132485E+05 -1.983827E+03 -5.574301E+05 -1.275485E+03  3.274594E+02
       151   5 -1.465875E+06 -2.058422E+05 -1.415330E+03 -5.494391E+05 -3.254281E+02 -2.894708E+01
       151   6 -1.458955E+06 -2.130701E+05 -1.521972E+03 -5.574969E+05  6.272264E+02 -3.922764E+02
       151   7 -1.439104E+06 -2.057137E+05  3.347949E+03 -5.519666E+05 -1.470605E+03  2.542702E+02
       151   8 -1.462235E+06 -2.044637E+05 -4.285896E+02 -5.484426E+05 -5.227006E+02 -1.029435E+02
       151   9 -1.471551E+06 -2.178475E+05 -4.878624E+03 -5.609674E+05  4.277761E+02 -4.670866E+02
       151  10 -1.478855E+06 -2.207833E+05 -7.315625E+03 -5.628935E+05 -4.421886E-10 -1.042676E-09
       151  11 -1.469514E+06 -2.072207E+05 -2.402073E+03 -5.504356E+05 -1.283664E-09 -4.566969E-10
       151  12 -1.446358E+06 -2.082927E+05  1.834683E+03 -5.540264E+05 -1.055212E-09 -3.333691E-10
       151  13 -1.458980E+06 -2.132485E+05 -1.983831E+03 -5.574301E+05 -4.087288E-09 -5.774504E-10
       151  14 -1.465875E+06 -2.058422E+05 -1.415331E+03 -5.494391E+05 -4.557301E-09 -1.010750E-09
       151  15 -1.458955E+06 -2.130701E+05 -1.521973E+03 -5.574969E+05  2.072723E-09 -4.912100E-10
       151  16 -1.439104E+06 -2.057137E+05  3.347945E+03 -5.519666E+05 -3.193586E-09 -5.045765E-10
       151  17 -1.462235E+06 -2.044637E+05 -4.285901E+02 -5.484426E+05 -3.608138E-09 -1.125342E-09
       151  18 -1.471551E+06 -2.178476E+05 -4.878625E+03 -5.609674E+05  1.736257E-09 -4.292163E-10
       151  19 -1.478855E+06 -2.207833E+05 -7.315622E+03 -5.628935E+05  1.080374E+03 -4.006458E+02
       151  20 -1.469514E+06 -2.072207E+05 -2.402073E+03 -5.504356E+05  1.281566E+02 -4.504892E+01
       151  21 -1.446358E+06 -2.082927E+05  1.834684E+03 -5.540264E+05 -8.266821E+02  3.174641E+02
       151  22 -1.458980E+06 -2.132485E+05 -1.983827E+03 -5.574301E+05  1.275485E+03 -3.274594E+02
       151  23 -1.465875E+06 -2.058422E+05 -1.415330E+03 -5.494391E+05  3.254281E+02  2.894708E+01
       151  24 -1.458955E+06 -2.130701E+05 -1.521972E+03 -5.574969E+05 -6.272264E+02  3.922764E+02
       151  25 -1.439104E+06 -2.057137E+05  3.347949E+03 -5.519666E+05  1.470605E+03 -2.542702E+02
       151  26 -1.462235E+06 -2.044637E+05 -4.285896E+02 -5.484426E+05  5.227006E+02  1.029435E+02
       151  27 -1.471551E+06 -2.178475E+05 -4.878624E+03 -5.609674E+05 -4.277761E+02  4.670866E+02
       152   1 -1.405123E+06 -1.926520E+05  1.292999E+04 -5.428700E+05  1.237751E+03 -5.894588E+02
       152   2 -1.396002E+06 -1.795634E+05  1.627379E+04 -5.305964E+05  2.783160E+03 -7.244488E+02
       152   3 -1.373723E+06 -1.813176E+05  1.834456E+04 -5.337975E+05  4.316447E+03 -8.265997E+02
       152   4 -1.459073E+06 -2.129123E+05 -1.726598E+03 -5.574465E+05  1.035824E+03 -6.652079E+02
       152   5 -1.465703E+06 -2.058576E+05 -2.605485E+03 -5.495713E+05  2.591383E+03 -7.964173E+02
       152   6 -1.459178E+06 -2.136478E+05 -4.765522E+03 -5.571710E+05  4.134787E+03 -8.947986E+02
       152   7 -1.513021E+06 -2.331724E+05 -1.638348E+04 -5.720220E+05  8.339154E+02 -7.409500E+02
       152   8 -1.535401E+06 -2.321515E+05 -2.148528E+04 -5.685445E+05  2.399630E+03 -8.683772E+02
       152   9 -1.544626E+06 -2.459778E+05 -2.787640E+04 -5.805418E+05  3.953153E+03 -9.629875E+02
       152  10 -1.405123E+06 -1.926521E+05  1.292999E+04 -5.428700E+05 -2.568672E-09 -2.482708E-10
       152  11 -1.396002E+06 -1.795634E+05  1.627378E+04 -5.305964E+05  7.826017E-10 -7.647548E-10
       152  12 -1.373723E+06 -1.813176E+05  1.834453E+04 -5.337975E+05 -7.709236E-10  8.337197E-10
       152  13 -1.459073E+06 -2.129123E+05 -1.726601E+03 -5.574465E+05  2.307254E-09 -4.377373E-10
       152  14 -1.465703E+06 -2.058576E+05 -2.605499E+03 -5.495713E+05 -6.484325E-10 -5.149557E-10
       152  15 -1.459178E+06 -2.136478E+05 -4.765556E+03 -5.571710E+05  8.114691E-10  6.699781E-10
       152  16 -1.513021E+06 -2.331724E+05 -1.638349E+04 -5.720220E+05  1.570571E-09 -2.544396E-10
       152  17 -1.535401E+06 -2.321515E+05 -2.148529E+04 -5.685445E+05 -3.846821E-09 -8.158327E-10
       152  18 -1.544626E+06 -2.459778E+05 -2.787643E+04 -5.805418E+05  2.625181E-09  8.258801E-10
       152  19 -1.405123E+06 -1.926520E+05  1.292999E+04 -5.428700E+05 -1.237751E+03  5.894588E+02
       152  20 -1.396002E+06 -1.795634E+05  1.627379E+04 -5.305964E+05 -2.783160E+03  7.244488E+02
       152  21 -1.373723E+06 -1.813176E+05  1.834456E+04 -5.337975E+05 -4.316447E+03  8.265997E+02
       152  22 -1.459073E+06 -2.129123E+05 -1.726598E+03 -5.574465E+05 -1.035824E+03  6.652079E+02
       152  23 -1.465703E+06 -2.058576E+05 -2.605485E+03 -5.495713E+05 -2.591383E+03  7.964173E+02
       152  24 -1.459178E+06 -2.136478E+05 -4.765522E+03 -5.571710E+05 -4.134787E+03  8.947986E+02
       152  25 -1.513021E+06 -2.331724E+05 -1.638348E+04 -5.720220E+05 -8.339154E+02  7.409500E+02
       152  26 -1.535401E+06 -2.321515E+05 -2.148528E+04 -5.685445E+05 -2.399630E+03  8.683772E+02
       152  27 -1.544626E+06 -2.459778E+05 -2.787640E+04 -5.805418E+05 -3.953153E+03  9.629875E+02
       153   1 -1.335075E+06 -1.660444E+05  2.761659E+04 -5.240852E+05  5.366700E+03 -8.409507E+02
       153   2 -1.326115E+06 -1.526625E+05  2.700173E+04 -5.121745E+05  1.098346E+04  5.994227E+02
       153   3 -1.308316E+06 -1.598389E+05  2.018860E+04 -5.126382E+05  1.655835E+04  2.152157E+03
       153   4 -1.459798E+06 -2.124841E+05 -6.103172E+03 -5.573974E+05  5.164539E+03 -9.168683E+02
       153   5 -1.464631E+06 -2.051345E+05 -1.055699E+04 -5.501100E+05  1.081538E+04  5.362435E+02
       153   6 -1.460634E+06 -2.183511E+05 -2.123718E+04 -5.551969E+05  1.642422E+04  2.101665E+03
       153   7 -1.584504E+06 -2.589228E+05 -3.982414E+04 -5.907034E+05  4.962425E+03 -9.927692E+02
       153   8 -1.603128E+06 -2.576052E+05 -4.811731E+04 -5.880377E+05  1.064734E+04  4.730801E+02
       153   9 -1.612929E+06 -2.768618E+05 -6.266503E+04 -5.977461E+05  1.629014E+04  2.051187E+03
       153  10 -1.335075E+06 -1.660444E+05  2.761654E+04 -5.240852E+05  7.890647E-10  1.480017E-09
       153  11 -1.326115E+06 -1.526625E+05  2.700150E+04 -5.121745E+05  9.530405E-10 -1.644389E-10
       153  12 -1.308317E+06 -1.598390E+05  2.018807E+04 -5.126382E+05 -3.629327E-10 -1.019481E-10
       153  13 -1.459798E+06 -2.124841E+05 -6.103224E+03 -5.573974E+05  4.848556E-10  9.831310E-10
       153  14 -1.464631E+06 -2.051345E+05 -1.055721E+04 -5.501100E+05 -9.241242E-10 -2.164492E-10
       153  15 -1.460634E+06 -2.183512E+05 -2.123770E+04 -5.551969E+05 -7.268650E-10 -1.170243E-09
       153  16 -1.584504E+06 -2.589228E+05 -3.982419E+04 -5.907034E+05  1.069117E-09  7.772585E-10
       153  17 -1.603128E+06 -2.576052E+05 -4.811752E+04 -5.880377E+05 -1.236852E-09  6.446858E-10
       153  18 -1.612929E+06 -2.768618E+05 -6.266553E+04 -5.977461E+05 -1.409683E-09 -9.053969E-10
       153  19 -1.335075E+06 -1.660444E+05  2.761659E+04 -5.240852E+05 -5.366700E+03  8.409507E+02
       153  20 -1.326115E+06 -1.526625E+05  2.700173E+04 -5.121745E+05 -1.098346E+04 -5.994227E+02
       153  21 -1.308316E+06 -1.598389E+05  2.018860E+04 -5.126382E+05 -1.655835E+04 -2.152157E+03
       153  22 -1.459798E+06 -2.124841E+05 -6.103172E+03 -5.573974E+05 -5.164539E+03  9.168683E+02
       153  23 -1.464631E+06 -2.051345E+05 -1.055699E+04 -5.501100E+05 -1.081538E+04 -5.362435E+02
       153  24 -1.460634E+06 -2.183511E+05 -2.123718E+04 -5.551969E+05 -1.642422E+04 -2.101665E+03
       153  25 -1.584504E+06 -2.589228E+05 -3.982414E+04 -5.907034E+05 -4.962425E+03  9.927692E+02
       153  26 -1.603128E+06 -2.576052E+05 -4.811731E+04 -5.880377E+05 -1.064734E+04 -4.730801E+02
       153  27 -1.612929E+06 -2.768618E+05 -6.266503E+04 -5.977461E+05 -1.629014E+04 -2.051187E+03
       154   1 -1.273003E+06 -1.435462E+05  2.390317E+04 -5.113884E+05  2.077441E+04  3.296430E+03
       154   2 -1.261255E+06 -1.209052E+05  8.520909E+03 -4.958802E+05  4.475111E+04  1.170526E+04
       154   3 -1.264691E+06 -1.692289E+05 -4.106999E+04 -4.771320E+05  6.849833E+04  2.072679E+04
       154   4 -1.463348E+06 -2.109832E+05 -2.683895E+04 -5.587115E+05  2.050801E+04  3.196391E+03
       154   5 -1.458901E+06 -1.976932E+05 -4.543549E+04 -5.519827E+05  4.466950E+04  1.167426E+04
       154   6 -1.469683E+06 -2.554175E+05 -9.839612E+04 -5.420130E+05  6.860115E+04  2.076417E+04
       154   7 -1.653659E+06 -2.784194E+05 -7.758429E+04 -6.060220E+05  2.024170E+04  3.096381E+03
       154   8 -1.656510E+06 -2.744783E+05 -9.939550E+04 -6.080690E+05  4.458791E+04  1.164327E+04
       154   9 -1.674635E+06 -3.416008E+05 -1.557262E+05 -6.068736E+05  6.870392E+04  2.080153E+04
       154  10 -1.273003E+06 -1.435463E+05  2.390234E+04 -5.113885E+05  6.559714E-10  3.237657E-10
       154  11 -1.261257E+06 -1.209059E+05  8.516879E+03 -4.958806E+05 -1.576856E-09  1.080905E-12
       154  12 -1.264696E+06 -1.692306E+05 -4.107964E+04 -4.771332E+05 -2.268705E-09  4.009233E-10
       154  13 -1.463348E+06 -2.109833E+05 -2.683976E+04 -5.587115E+05  2.431284E-10 -1.057202E-09
       154  14 -1.458903E+06 -1.976939E+05 -4.543951E+04 -5.519832E+05  4.167819E-10  1.084437E-09
       154  15 -1.469689E+06 -2.554192E+05 -9.840580E+04 -5.420141E+05 -1.828913E-09  2.680714E-09
       154  16 -1.653659E+06 -2.784195E+05 -7.758508E+04 -6.060221E+05  1.661562E-09 -6.792973E-10
       154  17 -1.656513E+06 -2.744790E+05 -9.939950E+04 -6.080694E+05 -9.040316E-11  1.920685E-09
       154  18 -1.674641E+06 -3.416025E+05 -1.557359E+05 -6.068747E+05  2.270452E-09  1.915778E-09
       154  19 -1.273003E+06 -1.435462E+05  2.390317E+04 -5.113884E+05 -2.077441E+04 -3.296430E+03
       154  20 -1.261255E+06 -1.209052E+05  8.520909E+03 -4.958802E+05 -4.475111E+04 -1.170526E+04
       154  21 -1.264691E+06 -1.692289E+05 -4.106999E+04 -4.771320E+05 -6.849833E+04 -2.072679E+04
       154  22 -1.463348E+06 -2.109832E+05 -2.683895E+04 -5.587115E+05 -2.050801E+04 -3.196391E+03
       154  23 -1.458901E+06 -1.976932E+05 -4.543549E+04 -5.519827E+05 -4.466950E+04 -1.167426E+04
       154  24 -1.469683E+06 -2.554175E+05 -9.839612E+04 -5.420130E+05 -6.860115E+04 -2.076417E+04
       154  25 -1.653659E+06 -2.784194E+05 -7.758429E+04 -6.060220E+05 -2.024170E+04 -3.096381E+03
       154  26 -1.656510E+06 -2.744783E+05 -9.939550E+04 -6.080690E+05 -4.458791E+04 -1.164327E+04
       154  27 -1.674635E+06 -3.416008E+05 -1.557262E+05 -6.068736E+05 -6.870392E+04 -2.080153E+04
       155   1 -1.223496E+06 -1.353747E+05 -5.530387E+04 -5.329063E+05  8.763125E+04  2.686569E+04
       155   2 -1.187165E+06 -3.190021E+04 -1.258346E+05 -4.798211E+05  1.926054E+05  6.569656E+04
       155   3 -1.327069E+06 -3.884988E+05 -3.983921E+05 -3.177574E+05  2.958047E+05  1.092520E+05
       155   4 -1.485613E+06 -2.020134E+05 -1.199470E+05 -5.712104E+05  8.667250E+04  2.651022E+04
       155   5 -1.421193E+06 -1.389091E+05 -1.927862E+05 -5.627586E+05  1.930876E+05  6.587089E+04
       155   6 -1.533370E+06 -5.362808E+05 -4.688574E+05 -4.453059E+05  2.977324E+05  1.099371E+05
       155   7 -1.747662E+06 -2.686543E+05 -1.845945E+05 -6.095040E+05  8.571419E+04  2.615480E+04
       155   8 -1.655166E+06 -2.459067E+05 -2.597430E+05 -6.456651E+05  1.935697E+05  6.604509E+04
       155   9 -1.739616E+06 -6.840143E+05 -5.393252E+05 -5.728046E+05  2.996594E+05  1.106215E+05
       155  10 -1.223505E+06 -1.353775E+05 -5.531970E+04 -5.329082E+05 -1.996984E-10  7.183259E-10
       155  11 -1.187206E+06 -3.191484E+04 -1.259126E+05 -4.798313E+05  1.012639E-09 -4.696383E-10
       155  12 -1.327166E+06 -3.885352E+05 -3.985794E+05 -3.177835E+05  2.111410E-09 -1.288658E-09
       155  13 -1.485621E+06 -2.020162E+05 -1.199625E+05 -5.712122E+05  1.893566E-09 -1.105596E-09
       155  14 -1.421234E+06 -1.389238E+05 -1.928647E+05 -5.627689E+05  1.375821E-11  1.650745E-09
       155  15 -1.533469E+06 -5.363177E+05 -4.690472E+05 -4.453323E+05  3.336667E-09  1.657059E-09
       155  16 -1.747670E+06 -2.686570E+05 -1.846097E+05 -6.095058E+05  4.316141E-10  2.424319E-09
       155  17 -1.655207E+06 -2.459215E+05 -2.598218E+05 -6.456754E+05  4.308331E-10  4.223831E-09
       155  18 -1.739716E+06 -6.840517E+05 -5.395175E+05 -5.728314E+05  2.879032E-09 -2.278362E-10
       155  19 -1.223496E+06 -1.353747E+05 -5.530387E+04 -5.329063E+05 -8.763125E+04 -2.686569E+04
       155  20 -1.187165E+06 -3.190021E+04 -1.258346E+05 -4.798211E+05 -1.926054E+05 -6.569656E+04
       155  21 -1.327069E+06 -3.884988E+05 -3.983921E+05 -3.177574E+05 -2.958047E+05 -1.092520E+05
       155  22 -1.485613E+06 -2.020134E+05 -1.199470E+05 -5.712104E+05 -8.667250E+04 -2.651022E+04
       155  23 -1.421193E+06 -1.389091E+05 -1.927862E+05 -5.627586E+05 -1.930876E+05 -6.587089E+04
       155  24 -1.533370E+06 -5.362808E+05 -4.688574E+05 -4.453059E+05 -2.977324E+05 -1.099371E+05
       155  25 -1.747662E+06 -2.686543E+05 -1.845945E+05 -6.095040E+05 -8.571419E+04 -2.615480E+04
       155  26 -1.655166E+06 -2.459067E+05 -2.597430E+05 -6.456651E+05 -1.935697E+05 -6.604509E+04
       155  27 -1.739616E+06 -6.840143E+05 -5.393252E+05 -5.728046E+05 -2.996594E+05 -1.106215E+05
       156   1  2.879686E+05  2.281045E+06  2.771708E+05 -2.029162E+05  1.235126E+04  1.053556E+05
       156   2  2.187006E+05  2.127556E+06  1.850359E+05 -1.785366E+05  4.082219E+04  4.754517E+04
       156   3  1.744420E+05  1.987799E+06  1.367138E+05 -1.796551E+05  4.657148E+04 -1.027843E+04
       156   4  3.484400E+04  1.253379E+06  3.757705E+04 -1.785240E+05  1.249207E+04  2.310233E+04
       156   5  1.083929E+04  1.250637E+06  2.119045E+04 -1.658033E+05  4.089013E+04  1.234396E+04
       156   6  3.714580E+03  1.253480E+06  1.603257E+04 -1.785790E+05  4.655397E+04  1.557459E+03
       156   7 -2.183494E+05  2.266982E+05 -2.020625E+05 -1.541719E+05  1.262657E+04 -5.901616E+04
       156   8 -1.970651E+05  3.744635E+05 -1.426833E+05 -1.530879E+05  4.095670E+04 -2.280893E+04
       156   9 -1.670404E+05  5.196933E+05 -1.046638E+05 -1.775038E+05  4.653649E+04  1.337987E+04
       156  10  2.879655E+05  2.281033E+06  2.771497E+05 -2.029173E+05  2.062793E-09  1.520067E-08
       156  11  2.186982E+05  2.127553E+06  1.850286E+05 -1.785382E+05  2.551787E-09  4.513348E-08
       156  12  1.744396E+05  1.987798E+06  1.367095E+05 -1.796547E+05  6.855097E-09  7.121815E-08
       156  13  3.484369E+04  1.253378E+06  3.757576E+04 -1.785243E+05 -2.402583E-09  1.535989E-09
       156  14  1.083746E+04  1.250637E+06  2.118702E+04 -1.658037E+05 -1.576975E-08 -1.583799E-09
       156  15  3.712250E+03  1.253479E+06  1.602849E+04 -1.785790E+05 -2.543007E-08  2.180023E-09
       156  16 -2.183505E+05  2.266944E+05 -2.020694E+05 -1.541713E+05  1.102928E-09 -1.595025E-08
       156  17 -1.970671E+05  3.744625E+05 -1.426875E+05 -1.530872E+05  5.697615E-09 -4.607500E-08
       156  18 -1.670428E+05  5.196925E+05 -1.046682E+05 -1.775043E+05  6.767999E-09 -7.258927E-08
       156  19  2.879686E+05  2.281045E+06  2.771708E+05 -2.029162E+05 -1.235126E+04 -1.053556E+05
       156  20  2.187006E+05  2.127556E+06  1.850359E+05 -1.785366E+05 -4.082219E+04 -4.754517E+04
       156  21  1.744420E+05  1.987799E+06  1.367138E+05 -1.796551E+05 -4.657148E+04  1.027843E+04
       156  22  3.484400E+04  1.253379E+06  3.757705E+04 -1.785240E+05 -1.249207E+04 -2.310233E+04
       156  23  1.083929E+04  1.250637E+06  2.119045E+04 -1.658033E+05 -4.089013E+04 -1.234396E+04
       156  24  3.714580E+03  1.253480E+06  1.603257E+04 -1.785790E+05 -4.655397E+04 -1.557459E+03
       156  25 -2.183494E+05  2.266982E+05 -2.020625E+05 -1.541719E+05 -1.262657E+04  5.901616E+04
       156  26 -1.970651E+05  3.744635E+05 -1.426833E+05 -1.530879E+05 -4.095670E+04  2.280893E+04
       156  27 -1.670404E+05  5.196933E+05 -1.046638E+05 -1.775038E+05 -4.653649E+04 -1.337987E+04
       157   1  1.518459E+05  1.893736E+06  1.187361E+05 -1.817792E+05  4.241915E+04 -1.257500E+04
       157   2  1.171216E+05  1.745751E+06  9.469592E+04 -1.647806E+05  3.562838E+04 -2.718319E+04
       157   3  8.925840E+04  1.601302E+06  8.183712E+04 -1.748329E+05  2.641891E+04 -4.179492E+04
       157   4  3.297883E+03  1.252850E+06  1.577211E+04 -1.789220E+05  4.240036E+04 -9.682934E+02
       157   5  3.349818E+03  1.251547E+06  1.916141E+04 -1.653908E+05  3.559742E+04 -1.056727E+04
       157   6  9.398313E+03  1.252892E+06  3.026327E+04 -1.789110E+05  2.637493E+04 -2.017295E+04
       157   7 -1.452707E+05  6.123713E+05 -8.720237E+04 -1.760676E+05  4.238167E+04  1.062689E+04
       157   8 -1.104336E+05  7.575870E+05 -5.637736E+04 -1.660004E+05  3.556642E+04  6.035973E+03
       157   9 -7.046712E+04  9.046046E+05 -2.131105E+04 -1.829866E+05  2.633065E+04  1.437400E+03
       157  10  1.518439E+05  1.893736E+06  1.187324E+05 -1.817787E+05  8.353423E-09 -7.514663E-08
       157  11  1.171201E+05  1.745750E+06  9.469215E+04 -1.647798E+05  1.916472E-09 -5.333205E-08
       157  12  8.925718E+04  1.601300E+06  8.183253E+04 -1.748320E+05  2.011237E-09 -1.911559E-08
       157  13  3.295951E+03  1.252850E+06  1.576873E+04 -1.789220E+05 -2.854887E-08  1.918459E-09
       157  14  3.348426E+03  1.251546E+06  1.915882E+04 -1.653905E+05 -1.387519E-08 -1.645270E-09
       157  15  9.397457E+03  1.252891E+06  3.026120E+04 -1.789105E+05 -9.865834E-10  2.113293E-09
       157  16 -1.452726E+05  6.123707E+05 -8.720596E+04 -1.760680E+05  8.480933E-09  7.419861E-08
       157  17 -1.104350E+05  7.575866E+05 -5.637980E+04 -1.660005E+05  7.447422E-09  5.196024E-08
       157  18 -7.046787E+04  9.046044E+05 -2.131235E+04 -1.829867E+05  4.447103E-09  1.762664E-08
       157  19  1.518459E+05  1.893736E+06  1.187361E+05 -1.817792E+05 -4.241915E+04  1.257500E+04
       157  20  1.171216E+05  1.745751E+06  9.469592E+04 -1.647806E+05 -3.562838E+04  2.718319E+04
       157  21  8.925840E+04  1.601302E+06  8.183712E+04 -1.748329E+05 -2.641891E+04  4.179492E+04
       157  22  3.297883E+03  1.252850E+06  1.577211E+04 -1.789220E+05 -4.240036E+04  9.682934E+02
       157  23  3.349818E+03  1.251547E+06  1.916141E+04 -1.653908E+05 -3.559742E+04  1.056727E+04
       157  24  9.398313E+03  1.252892E+06  3.026327E+04 -1.789110E+05 -2.637493E+04  2.017295E+04
       157  25 -1.452707E+05  6.123713E+05 -8.720237E+04 -1.760676E+05 -4.238167E+04 -1.062689E+04
       157  26 -1.104336E+05  7.575870E+05 -5.637736E+04 -1.660004E+05 -3.556642E+04 -6.035973E+03
       157  27 -7.046712E+04  9.046046E+05 -2.131105E+04 -1.829866E+05 -2.633065E+04 -1.437400E+03
       158   1  6.989552E+04  1.513013E+06  7.598965E+04 -1.799815E+05  2.018499E+04 -4.695986E+04
       158   2  6.412568E+04  1.357386E+06  8.328475E+04 -1.232841E+05  1.053684E+04 -7.961244E+04
       158   3  1.193945E+05  1.221169E+06  1.270381E+05 -9.361243E+04  2.353307E+03 -1.122561E+05
       158   4  1.132294E+04  1.256739E+06  3.901015E+04 -1.789238E+05  2.013949E+04 -2.535382E+04
       158   5  3.951555E+04  1.246759E+06  6.964222E+04 -1.652980E+05  1.050256E+04 -6.104259E+04
       158   6  1.292688E+05  1.256677E+06  1.388326E+05 -1.786885E+05  2.334874E+03 -9.672920E+04
       158   7 -4.725238E+04  1.000533E+06  2.031349E+03 -1.778665E+05  2.009405E+04 -3.756309E+03
       158   8  1.491177E+04  1.136148E+06  5.600191E+04 -2.073041E+05  1.046576E+04 -4.247588E+04
       158   9  1.391703E+05  1.292202E+06  1.506318E+05 -2.637693E+05  2.312194E+03 -8.120134E+04
       158  10  6.989449E+04  1.513010E+06  7.598476E+04 -1.799807E+05  2.470661E-09 -1.231378E-09
       158  11  6.412386E+04  1.357379E+06  8.327266E+04 -1.232834E+05  5.765391E-09 -7.720173E-09
       158  12  1.193911E+05  1.221155E+06  1.270144E+05 -9.361222E+04  1.749494E-09 -9.200211E-09
       158  13  1.132234E+04  1.256738E+06  3.900818E+04 -1.789234E+05  9.024897E-10  2.108891E-09
       158  14  3.951443E+04  1.246754E+06  6.963502E+04 -1.652975E+05  4.742400E-09 -1.963050E-09
       158  15  1.292663E+05  1.256667E+06  1.388150E+05 -1.786883E+05  2.579775E-09  2.503264E-09
       158  16 -4.725281E+04  1.000533E+06  2.030563E+03 -1.778664E+05  2.513800E-09  3.918482E-10
       158  17  1.491117E+04  1.136146E+06  5.599832E+04 -2.073038E+05  1.488970E-09  6.345548E-09
       158  18  1.391685E+05  1.292195E+06  1.506194E+05 -2.637692E+05  4.506332E-10  7.320535E-09
       158  19  6.989552E+04  1.513013E+06  7.598965E+04 -1.799815E+05 -2.018499E+04  4.695986E+04
       158  20  6.412568E+04  1.357386E+06  8.328475E+04 -1.232841E+05 -1.053684E+04  7.961244E+04
       158  21  1.193945E+05  1.221169E+06  1.270381E+05 -9.361243E+04 -2.353307E+03  1.122561E+05
       158  22  1.132294E+04  1.256739E+06  3.901015E+04 -1.789238E+05 -2.013949E+04  2.535382E+04
       158  23  3.951555E+04  1.246759E+06  6.964222E+04 -1.652980E+05 -1.050256E+04  6.104259E+04
       158  24  1.292688E+05  1.256677E+06  1.388326E+05 -1.786885E+05 -2.334874E+03  9.672920E+04
       158  25 -4.725238E+04  1.000533E+06  2.031349E+03 -1.778665E+05 -2.009405E+04  3.756309E+03
       158  26  1.491177E+04  1.136148E+06  5.600191E+04 -2.073041E+05 -1.046576E+04  4.247588E+04
       158  27  1.391703E+05  1.292202E+06  1.506318E+05 -2.637693E+05 -2.312194E+03  8.120134E+04
       159   1  4.373665E+05 -5.326225E+04  4.205089E+04  7.292096E+03  2.734266E+05  1.252442E+04
       159   2  4.911540E+05 -4.108369E+05 -1.618851E+05  2.228057E+04  1.845124E+05  3.336425E+04
       159   3  6.713202E+05 -3.333313E+05 -1.979485E+05 -9.371955E+04  9.567828E+04  2.768855E+04
       159   4  1.952958E+06  3.238346E+05  4.177980E+05 -5.998258E+04  2.854962E+05  1.254442E+04
       159   5  1.889277E+06 -6.331159E+04  1.799886E+05  6.212049E+03  1.874526E+05  3.336326E+04
       159   6  1.953256E+06 -1.432913E+04  1.160899E+05 -5.855774E+04  8.950707E+04  2.767813E+04
       159   7  3.470643E+06  7.007781E+05  7.933774E+05 -1.274237E+05  2.975946E+05  1.256181E+04
       159   8  3.289178E+06  2.840706E+05  5.217200E+05 -9.894145E+03  1.903989E+05  3.336212E+04
       159   9  3.236687E+06  3.045560E+05  4.300088E+05 -2.332393E+04  8.332301E+04  2.766703E+04
       159  10  4.372862E+05 -5.328247E+04  4.191021E+04  7.289339E+03  1.519238E-09 -9.566957E-12
       159  11  4.911172E+05 -4.108472E+05 -1.619511E+05  2.227561E+04  2.210896E-09 -9.980710E-11
       159  12  6.713102E+05 -3.333345E+05 -1.979671E+05 -9.372168E+04  7.667207E-10  1.417271E-10
       159  13  1.952871E+06  3.238127E+05  4.176450E+05 -5.998546E+04  1.226497E-09 -1.028624E-10
       159  14  1.889239E+06 -6.332218E+04  1.799207E+05  6.207016E+03 -1.612294E-09 -1.138086E-10
       159  15  1.953247E+06 -1.433210E+04  1.160734E+05 -5.855974E+04  1.570678E-09  3.972030E-10
       159  16  3.470548E+06  7.007544E+05  7.932116E+05 -1.274267E+05  2.439311E-10 -8.617506E-11
       159  17  3.289139E+06  2.840597E+05  5.216502E+05 -9.899252E+03 -4.672907E-10 -1.692052E-10
       159  18  3.236679E+06  3.045533E+05  4.299944E+05 -2.332578E+04 -4.700597E-10  3.868212E-10
       159  19  4.373665E+05 -5.326225E+04  4.205089E+04  7.292096E+03 -2.734266E+05 -1.252442E+04
       159  20  4.911540E+05 -4.108369E+05 -1.618851E+05  2.228057E+04 -1.845124E+05 -3.336425E+04
       159  21  6.713202E+05 -3.333313E+05 -1.979485E+05 -9.371955E+04 -9.567828E+04 -2.768855E+04
       159  22  1.952958E+06  3.238346E+05  4.177980E+05 -5.998258E+04 -2.854962E+05 -1.254442E+04
       159  23  1.889277E+06 -6.331159E+04  1.799886E+05  6.212049E+03 -1.874526E+05 -3.336326E+04
       159  24  1.953256E+06 -1.432913E+04  1.160899E+05 -5.855774E+04 -8.950707E+04 -2.767813E+04
       159  25  3.470643E+06  7.007781E+05  7.933774E+05 -1.274237E+05 -2.975946E+05 -1.256181E+04
       159  26  3.289178E+06  2.840706E+05  5.217200E+05 -9.894145E+03 -1.903989E+05 -3.336212E+04
       159  27  3.236687E+06  3.045560E+05  4.300088E+05 -2.332393E+04 -8.332301E+04 -2.766703E+04
       160   1  8.923731E+05 -2.162094E+05 -1.588301E+05 -4.694677E+04  7.054851E+04  2.131677E+04
       160   2  9.820841E+05 -2.415283E+05 -1.827318E+05  2.723915E+03  4.715967E+04  2.039729E+04
       160   3  1.091385E+06 -2.101673E+05 -1.767620E+05 -5.878735E+04  2.376183E+04  1.680106E+04
       160   4  1.929370E+06  4.168783E+04  9.536957E+04 -5.461739E+04  7.077825E+04  2.131383E+04
       160   5  1.919540E+06 -8.422852E+03  4.680513E+04  9.937833E+02  4.645250E+04  2.039478E+04
       160   6  1.929425E+06 -1.737669E+03  2.872622E+04 -5.456561E+04  2.212150E+04  1.680035E+04
       160   7  2.967344E+06  2.995058E+05  3.494905E+05 -6.230111E+04  7.100829E+04  2.131089E+04
       160   8  2.857795E+06  2.246177E+05  2.762779E+05 -7.390698E+02  4.574423E+04  2.039228E+04
       160   9  2.768103E+06  2.066401E+05  2.341630E+05 -5.033810E+04  2.047894E+04  1.679962E+04
       160  10  8.923676E+05 -2.162112E+05 -1.588403E+05 -4.694798E+04  3.247486E-10  5.207935E-10
       160  11  9.820816E+05 -2.415293E+05 -1.827368E+05  2.723140E+03 -1.645881E-10  7.415306E-11
       160  12  1.091385E+06 -2.101677E+05 -1.767636E+05 -5.878767E+04 -6.472557E-10 -1.403243E-12
       160  13  1.929365E+06  4.168600E+04  9.535933E+04 -5.461860E+04  2.981143E-10  3.605361E-10
       160  14  1.919538E+06 -8.423876E+03  4.680030E+04  9.930208E+02  9.867430E-10  2.376859E-10
       160  15  1.929425E+06 -1.738103E+03  2.872477E+04 -5.456591E+04 -2.221431E-10  2.625817E-10
       160  16  2.967339E+06  2.995039E+05  3.494803E+05 -6.230233E+04 -2.289980E-10  6.884561E-10
       160  17  2.857792E+06  2.246167E+05  2.762732E+05 -7.398201E+02 -1.073786E-09 -1.174946E-11
       160  18  2.768102E+06  2.066397E+05  2.341617E+05 -5.033838E+04  3.550121E-10  2.403529E-10
       160  19  8.923731E+05 -2.162094E+05 -1.588301E+05 -4.694677E+04 -7.054851E+04 -2.131677E+04
       160  20  9.820841E+05 -2.415283E+05 -1.827318E+05  2.723915E+03 -4.715967E+04 -2.039729E+04
       160  21  1.091385E+06 -2.101673E+05 -1.767620E+05 -5.878735E+04 -2.376183E+04 -1.680106E+04
       160  22  1.929370E+06  4.168783E+04  9.536957E+04 -5.461739E+04 -7.077825E+04 -2.131383E+04
       160  23  1.919540E+06 -8.422852E+03  4.680513E+04  9.937833E+02 -4.645250E+04 -2.039478E+04
       160  24  1.929425E+06 -1.737669E+03  2.872622E+04 -5.456561E+04 -2.212150E+04 -1.680035E+04
       160  25  2.967344E+06  2.995058E+05  3.494905E+05 -6.230111E+04 -7.100829E+04 -2.131089E+04
       160  26  2.857795E+06  2.246177E+05  2.762779E+05 -7.390698E+02 -4.574423E+04 -2.039228E+04
       160  27  2.768103E+06  2.066401E+05  2.341630E+05 -5.033810E+04 -2.047894E+04 -1.679962E+04
       161   1  1.302299E+06 -1.496769E+05 -1.297413E+05 -5.068045E+04  1.846070E+04  1.441796E+04
       161   2  1.389693E+06 -1.340285E+05 -1.187689E+05 -1.644583E+03  1.236557E+04  1.145535E+04
       161   3  1.480203E+06 -1.108554E+05 -1.018649E+05 -5.198417E+04  6.264787E+03  8.338096E+03
       161   4  1.925827E+06  5.301738E+03  2.270908E+04 -5.195366E+04  1.749954E+04  1.441770E+04
       161   5  1.924274E+06 -1.125432E+03  1.212520E+04 -2.270739E+03  1.134672E+04  1.145590E+04
       161   6  1.925838E+06 -2.085481E+01  7.509275E+03 -5.195787E+04  5.189113E+03  8.339527E+03
       161   7  2.549709E+06  1.602517E+05  1.751311E+05 -5.322808E+04  1.653741E+04  1.441744E+04
       161   8  2.459114E+06  1.317565E+05  1.429985E+05 -2.897358E+03  1.032699E+04  1.145645E+04
       161   9  2.371652E+06  1.107990E+05  1.168689E+05 -5.193147E+04  4.112668E+03  8.340957E+03
       161  10  1.302298E+06 -1.496772E+05 -1.297424E+05 -5.068067E+04 -6.202097E-10 -1.699196E-10
       161  11  1.389693E+06 -1.340286E+05 -1.187695E+05 -1.644697E+03 -5.363567E-10 -8.063166E-11
       161  12  1.480203E+06 -1.108555E+05 -1.018651E+05 -5.198421E+04 -1.992927E-10  4.057046E-10
       161  13  1.925827E+06  5.301432E+03  2.270811E+04 -5.195387E+04 -1.074261E-10  2.236564E-10
       161  14  1.924273E+06 -1.125607E+03  1.212471E+04 -2.270844E+03 -1.616594E-09  4.842348E-11
       161  15  1.925838E+06 -2.093677E+01  7.509094E+03 -5.195791E+04 -1.012036E-09  1.864063E-10
       161  16  2.549708E+06  1.602514E+05  1.751302E+05 -5.322827E+04  4.385482E-10  2.900854E-10
       161  17  2.459114E+06  1.317563E+05  1.429980E+05 -2.897453E+03 -1.344583E-09  4.247081E-10
       161  18  2.371652E+06  1.107989E+05  1.168688E+05 -5.193150E+04  1.102614E-09 -6.354938E-10
       161  19  1.302299E+06 -1.496769E+05 -1.297413E+05 -5.068045E+04 -1.846070E+04 -1.441796E+04
       161  20  1.389693E+06 -1.340285E+05 -1.187689E+05 -1.644583E+03 -1.236557E+04 -1.145535E+04
       161  21  1.480203E+06 -1.108554E+05 -1.018649E+05 -5.198417E+04 -6.264787E+03 -8.338096E+03
       161  22  1.925827E+06  5.301738E+03  2.270908E+04 -5.195366E+04 -1.749954E+04 -1.441770E+04
       161  23  1.924274E+06 -1.125432E+03  1.212520E+04 -2.270739E+03 -1.134672E+04 -1.145590E+04
       161  24  1.925838E+06 -2.085481E+01  7.509275E+03 -5.195787E+04 -5.189113E+03 -8.339527E+03
       161  25  2.549709E+06  1.602517E+05  1.751311E+05 -5.322808E+04 -1.653741E+04 -1.441744E+04
       161  26  2.459114E+06  1.317565E+05  1.429985E+05 -2.897358E+03 -1.032699E+04 -1.145645E+04
       161  27  2.371652E+06  1.107990E+05  1.168689E+05 -5.193147E+04 -4.112668E+03 -8.340957E+03
       162   1  1.676528E+06 -6.098490E+04 -5.462051E+04 -5.028852E+04  4.976972E+03  6.522613E+03
       162   2  1.760386E+06 -4.109529E+04 -3.638173E+04 -3.575913E+03  2.992491E+03  3.520750E+03
       162   3  1.844461E+06 -1.985249E+04 -1.659683E+04 -5.066153E+04  1.006337E+03  5.403355E+02
       162   4  1.925233E+06  7.836224E+02  6.003834E+03 -5.071700E+04  3.962367E+03  6.524330E+03
       162   5  1.925130E+06 -1.466041E+02  3.949246E+03 -3.819138E+03  1.984364E+03  3.522674E+03
       162   6  1.925235E+06  2.751913E+02  3.435918E+03 -5.071794E+04  4.955464E+00  5.424871E+02
       162   7  2.173995E+06  6.254760E+04  6.662370E+04 -5.114561E+04  2.947356E+03  6.526047E+03
       162   8  2.089899E+06  4.080008E+04  4.427824E+04 -4.062415E+03  9.759714E+02  3.524598E+03
       162   9  2.006015E+06  2.040238E+04  2.346819E+04 -5.077435E+04 -9.965560E+02  5.446387E+02
       162  10  1.676528E+06 -6.098495E+04 -5.462064E+04 -5.028855E+04 -7.104168E-10  2.219485E-10
       162  11  1.760386E+06 -4.109531E+04 -3.638177E+04 -3.575921E+03 -2.669462E-09  2.946088E-10
       162  12  1.844461E+06 -1.985249E+04 -1.659684E+04 -5.066153E+04  4.631670E-10 -1.540092E-10
       162  13  1.925233E+06  7.835724E+02  6.003724E+03 -5.071702E+04 -1.531587E-09 -1.285917E-10
       162  14  1.925130E+06 -1.466185E+02  3.949216E+03 -3.819143E+03 -1.195484E-10  6.348449E-10
       162  15  1.925235E+06  2.751910E+02  3.435917E+03 -5.071794E+04 -2.492054E-09  5.258458E-10
       162  16  2.173995E+06  6.254755E+04  6.662360E+04 -5.114563E+04  6.362661E-10  1.205064E-10
       162  17  2.089899E+06  4.080007E+04  4.427821E+04 -4.062417E+03  2.115198E-09 -1.265509E-11
       162  18  2.006015E+06  2.040238E+04  2.346818E+04 -5.077435E+04  1.123981E-09  2.224979E-10
       162  19  1.676528E+06 -6.098490E+04 -5.462051E+04 -5.028852E+04 -4.976972E+03 -6.522613E+03
       162  20  1.760386E+06 -4.109529E+04 -3.638173E+04 -3.575913E+03 -2.992491E+03 -3.520750E+03
       162  21  1.844461E+06 -1.985249E+04 -1.659683E+04 -5.066153E+04 -1.006337E+03 -5.403355E+02
       162  22  1.925233E+06  7.836224E+02  6.003834E+03 -5.071700E+04 -3.962367E+03 -6.524330E+03
       162  23  1.925130E+06 -1.466041E+02  3.949246E+03 -3.819138E+03 -1.984364E+03 -3.522674E+03
       162  24  1.925235E+06  2.751913E+02  3.435918E+03 -5.071794E+04 -4.955464E+00 -5.424871E+02
       162  25  2.173995E+06  6.254760E+04  6.662370E+04 -5.114561E+04 -2.947356E+03 -6.526047E+03
       162  26  2.089899E+06  4.080008E+04  4.427824E+04 -4.062415E+03 -9.759714E+02 -3.524598E+03
       162  27  2.006015E+06  2.040238E+04  2.346819E+04 -5.077435E+04  9.965560E+02 -5.446387E+02
       163   1  2.036029E+06  2.783061E+04  3.091419E+04 -5.085333E+04  3.691122E+02 -1.186301E+03
       163   2  2.120071E+06  4.827249E+04  5.224312E+04 -4.032015E+03 -1.887863E+03 -4.168838E+03
       163   3  2.204449E+06  7.026951E+04  7.535062E+04 -5.124486E+04 -4.143516E+03 -7.181768E+03
       163   4  1.925260E+06  2.510768E+02  3.542129E+03 -5.077124E+04 -6.318786E+02 -1.184167E+03
       163   5  1.925094E+06 -1.804743E+02  4.520975E+03 -3.752624E+03 -2.898560E+03 -4.166968E+03
       163   6  1.925258E+06  9.455830E+02  7.286039E+03 -5.076998E+04 -5.163618E+03 -7.180144E+03
       163   7  1.814503E+06 -2.732937E+04 -2.383084E+04 -5.068915E+04 -1.632691E+03 -1.182033E+03
       163   8  1.730151E+06 -4.863624E+04 -4.320394E+04 -3.473303E+03 -3.908941E+03 -4.165098E+03
       163   9  1.646139E+06 -6.838407E+04 -6.078420E+04 -5.029528E+04 -6.183263E+03 -7.178520E+03
       163  10  2.036029E+06  2.783061E+04  3.091419E+04 -5.085333E+04 -9.998938E-10  2.317892E-10
       163  11  2.120071E+06  4.827247E+04  5.224308E+04 -4.032021E+03 -3.021161E-09  3.625564E-10
       163  12  2.204449E+06  7.026945E+04  7.535049E+04 -5.124488E+04 -5.532829E-10  1.577124E-10
       163  13  1.925260E+06  2.510752E+02  3.542125E+03 -5.077124E+04  4.211181E-10  5.848026E-10
       163  14  1.925094E+06 -1.804952E+02  4.520927E+03 -3.752633E+03 -2.242184E-09  3.681143E-10
       163  15  1.925258E+06  9.455205E+02  7.285892E+03 -5.077001E+04 -2.371533E-09  9.895150E-11
       163  16  1.814503E+06 -2.732937E+04 -2.383084E+04 -5.068915E+04 -1.420860E-10  1.352927E-10
       163  17  1.730151E+06 -4.863627E+04 -4.320400E+04 -3.473316E+03 -5.826649E-10  1.562183E-10
       163  18  1.646138E+06 -6.838414E+04 -6.078437E+04 -5.029532E+04 -4.980587E-10 -2.897323E-10
       163  19  2.036029E+06  2.783061E+04  3.091419E+04 -5.085333E+04 -3.691122E+02  1.186301E+03
       163  20  2.120071E+06  4.827249E+04  5.224312E+04 -4.032015E+03  1.887863E+03  4.168838E+03
       163  21  2.204449E+06  7.026951E+04  7.535062E+04 -5.124486E+04  4.143516E+03  7.181768E+03
       163  22  1.925260E+06  2.510768E+02  3.542129E+03 -5.077124E+04  6.318786E+02  1.184167E+03
       163  23  1.925094E+06 -1.804743E+02  4.520975E+03 -3.752624E+03  2.898560E+03  4.166968E+03
       163  24  1.925258E+06  9.455830E+02  7.286039E+03 -5.076998E+04  5.163618E+03  7.180144E+03
       163  25  1.814503E+06 -2.732937E+04 -2.383084E+04 -5.068915E+04  1.632691E+03  1.182033E+03
       163  26  1.730151E+06 -4.863624E+04 -4.320394E+04 -3.473303E+03  3.908941E+03  4.165098E+03
       163  27  1.646139E+06 -6.838407E+04 -6.078420E+04 -5.029528E+04  6.183263E+03  7.178520E+03
       164   1  2.403257E+06  1.185431E+05  1.262786E+05 -5.195473E+04 -5.578992E+03 -9.006958E+03
       164   2  2.490986E+06  1.394453E+05  1.538364E+05 -2.713528E+03 -1.330988E+04 -1.214117E+04
       164   3  2.582620E+06  1.697424E+05  1.888686E+05 -5.359268E+04 -2.103659E+04 -1.512339E+04
       164   4  1.926003E+06 -8.570628E+01  9.226655E+03 -5.212602E+04 -6.660962E+03 -9.005659E+03
       164   5  1.924051E+06 -1.408141E+03  1.511214E+04 -2.060819E+03 -1.433444E+04 -1.214081E+04
       164   6  1.925990E+06  6.660153E+03  2.843825E+04 -5.212154E+04 -2.200265E+04 -1.512389E+04
       164   7  1.448956E+06 -1.187313E+05 -1.078420E+05 -5.229709E+04 -7.742104E+03 -9.004359E+03
       164   8  1.357407E+06 -1.422852E+05 -1.236356E+05 -1.408627E+03 -1.535807E+04 -1.214044E+04
       164   9  1.269751E+06 -1.564539E+05 -1.320235E+05 -5.065189E+04 -2.296768E+04 -1.512439E+04
       164  10  2.403257E+06  1.185430E+05  1.262784E+05 -5.195477E+04 -6.801955E-10 -6.593741E-10
       164  11  2.490986E+06  1.394450E+05  1.538358E+05 -2.713658E+03 -1.356571E-10  6.185131E-11
       164  12  2.582620E+06  1.697420E+05  1.888674E+05 -5.359293E+04 -1.529202E-10  2.389009E-10
       164  13  1.926003E+06 -8.580533E+01  9.226420E+03 -5.212607E+04 -1.392122E-09 -5.849556E-10
       164  14  1.924050E+06 -1.408354E+03  1.511148E+04 -2.060959E+03 -3.662036E-10 -1.043831E-09
       164  15  1.925989E+06  6.659777E+03  2.843691E+04 -5.212181E+04 -5.611973E-10 -1.793776E-10
       164  16  1.448956E+06 -1.187314E+05 -1.078423E+05 -5.229715E+04 -8.752374E-10 -5.241706E-10
       164  17  1.357406E+06 -1.422855E+05 -1.236363E+05 -1.408777E+03 -3.829580E-10 -1.073868E-09
       164  18  1.269751E+06 -1.564542E+05 -1.320249E+05 -5.065217E+04 -9.661576E-10  2.048736E-10
       164  19  2.403257E+06  1.185431E+05  1.262786E+05 -5.195473E+04  5.578992E+03  9.006958E+03
       164  20  2.490986E+06  1.394453E+05  1.538364E+05 -2.713528E+03  1.330988E+04  1.214117E+04
       164  21  2.582620E+06  1.697424E+05  1.888686E+05 -5.359268E+04  2.103659E+04  1.512339E+04
       164  22  1.926003E+06 -8.570628E+01  9.226655E+03 -5.212602E+04  6.660962E+03  9.005659E+03
       164  23  1.924051E+06 -1.408141E+03  1.511214E+04 -2.060819E+03  1.433444E+04  1.214081E+04
       164  24  1.925990E+06  6.660153E+03  2.843825E+04 -5.212154E+04  2.200265E+04  1.512389E+04
       164  25  1.448956E+06 -1.187313E+05 -1.078420E+05 -5.229709E+04  7.742104E+03  9.004359E+03
       164  26  1.357407E+06 -1.422852E+05 -1.236356E+05 -1.408627E+03  1.535807E+04  1.214044E+04
       164  27  1.269751E+06 -1.564539E+05 -1.320235E+05 -5.065189E+04  2.296768E+04  1.512439E+04
       165   1  2.803934E+06  2.148090E+05  2.499324E+05 -4.938321E+04 -2.612471E+04 -1.753909E+04
       165   2  2.892466E+06  2.314334E+05  2.970055E+05 -7.805002E+02 -5.761660E+04 -2.118582E+04
       165   3  3.005499E+06  3.194245E+05  3.828766E+05 -6.463436E+04 -8.910925E+04 -2.209659E+04
       165   4  1.930445E+06 -2.212665E+03  3.598243E+04 -5.484663E+04 -2.778827E+04 -1.754011E+04
       165   5  1.918231E+06 -1.053770E+04  5.873843E+04  1.348229E+03 -5.831517E+04 -2.118869E+04
       165   6  1.930377E+06  5.239786E+04  1.196685E+05 -5.492313E+04 -8.883772E+04 -2.210016E+04
       165   7  1.057648E+06 -2.192905E+05 -1.780233E+05 -6.030232E+04 -2.944947E+04 -1.754109E+04
       165   8  9.448568E+05 -2.525788E+05 -1.795979E+05  3.473468E+03 -5.901258E+04 -2.119156E+04
       165   9  8.563023E+05 -2.147136E+05 -1.436239E+05 -4.522905E+04 -8.856655E+04 -2.210372E+04
       165  10  2.803933E+06  2.148085E+05  2.499305E+05 -4.938358E+04  1.301028E-09 -1.127989E-10
       165  11  2.892462E+06  2.314320E+05  2.969985E+05 -7.814819E+02  2.128818E-10 -3.470554E-10
       165  12  3.005490E+06  3.194218E+05  3.828608E+05 -6.463594E+04 -1.777807E-09  1.633619E-10
       165  13  1.930444E+06 -2.213202E+03  3.598040E+04 -5.484702E+04  9.359958E-10 -4.085132E-10
       165  14  1.918227E+06 -1.053910E+04  5.873121E+04  1.347235E+03  6.085718E-10 -2.419726E-10
       165  15  1.930368E+06  5.239523E+04  1.196528E+05 -5.492471E+04  1.176545E-09  3.420539E-10
       165  16  1.057647E+06 -2.192911E+05 -1.780255E+05 -6.030274E+04 -1.479615E-09  2.196775E-11
       165  17  9.448530E+05 -2.525802E+05 -1.796053E+05  3.472461E+03 -1.748112E-09 -8.856579E-10
       165  18  8.562937E+05 -2.147163E+05 -1.436395E+05 -4.523063E+04  1.661787E-10  1.633489E-10
       165  19  2.803934E+06  2.148090E+05  2.499324E+05 -4.938321E+04  2.612471E+04  1.753909E+04
       165  20  2.892466E+06  2.314334E+05  2.970055E+05 -7.805002E+02  5.761660E+04  2.118582E+04
       165  21  3.005499E+06  3.194245E+05  3.828766E+05 -6.463436E+04  8.910925E+04  2.209659E+04
       165  22  1.930445E+06 -2.212665E+03  3.598243E+04 -5.484663E+04  2.778827E+04  1.754011E+04
       165  23  1.918231E+06 -1.053770E+04  5.873843E+04  1.348229E+03  5.831517E+04  2.118869E+04
       165  24  1.930377E+06  5.239786E+04  1.196685E+05 -5.492313E+04  8.883772E+04  2.210016E+04
       165  25  1.057648E+06 -2.192905E+05 -1.780233E+05 -6.030232E+04  2.944947E+04  1.754109E+04
       165  26  9.448568E+05 -2.525788E+05 -1.795979E+05  3.473468E+03  5.901258E+04  2.119156E+04
       165  27  8.563023E+05 -2.147136E+05 -1.436239E+05 -4.522905E+04  8.856655E+04  2.210372E+04
       166   1  3.283868E+06  3.109842E+05  4.693887E+05 -1.489854E+04 -1.060199E+05 -2.862125E+04
       166   2  3.322529E+06  2.784375E+05  5.779741E+05 -1.389982E+04 -2.383690E+05 -3.455116E+04
       166   3  3.521552E+06  7.940953E+05  9.107357E+05 -1.462781E+05 -3.708542E+05 -1.331031E+04
       166   4  1.960223E+06 -1.794520E+04  1.456404E+05 -5.894635E+04 -1.123307E+05 -2.863166E+04
       166   5  1.880503E+06 -7.934574E+04  2.259785E+05  6.783530E+03 -2.352672E+05 -3.455463E+04
       166   6  1.959859E+06  4.064926E+05  5.243432E+05 -6.086363E+04 -3.583126E+05 -1.330662E+04
       166   7  6.381693E+05 -3.469968E+05 -1.782345E+05 -1.029013E+05 -1.186279E+05 -2.864119E+04
       166   8  4.403637E+05 -4.372802E+05 -1.261679E+05  2.741730E+04 -2.321721E+05 -3.455791E+04
       166   9  4.003886E+05  1.873708E+04  1.377748E+05  2.433434E+04 -3.458015E+05 -1.329955E+04
       166  10  3.283856E+06  3.109803E+05  4.693661E+05 -1.490098E+04  7.257865E-10  1.934450E-09
       166  11  3.322468E+06  2.784211E+05  5.778656E+05 -1.390645E+04  8.866176E-10  9.244466E-10
       166  12  3.521405E+06  7.940585E+05  9.104783E+05 -1.462820E+05  3.842522E-10 -5.447786E-10
       166  13  1.960209E+06 -1.794945E+04  1.456153E+05 -5.894893E+04  6.186217E-10  1.204304E-09
       166  14  1.880443E+06 -7.936182E+04  2.258726E+05  6.776988E+03 -1.701772E-09  8.559665E-11
       166  15  1.959722E+06  4.064580E+05  5.241024E+05 -6.086747E+04  2.708425E-09  2.181069E-10
       166  16  6.381540E+05 -3.470015E+05 -1.782625E+05 -1.029040E+05 -7.603735E-10  1.198689E-09
       166  17  4.403056E+05 -4.372959E+05 -1.262714E+05  2.741083E+04 -1.961154E-09  1.260993E-09
       166  18  4.002603E+05  1.870482E+04  1.375499E+05  2.433064E+04 -8.019679E-10 -1.462423E-11
       166  19  3.283868E+06  3.109842E+05  4.693887E+05 -1.489854E+04  1.060199E+05  2.862125E+04
       166  20  3.322529E+06  2.784375E+05  5.779741E+05 -1.389982E+04  2.383690E+05  3.455116E+04
       166  21  3.521552E+06  7.940953E+05  9.107357E+05 -1.462781E+05  3.708542E+05  1.331031E+04
       166  22  1.960223E+06 -1.794520E+04  1.456404E+05 -5.894635E+04  1.123307E+05  2.863166E+04
       166  23  1.880503E+06 -7.934574E+04  2.259785E+05  6.783530E+03  2.352672E+05  3.455463E+04
       166  24  1.959859E+06  4.064926E+05  5.243432E+05 -6.086363E+04  3.583126E+05  1.330662E+04
       166  25  6.381693E+05 -3.469968E+05 -1.782345E+05 -1.029013E+05  1.186279E+05  2.864119E+04
       166  26  4.403637E+05 -4.372802E+05 -1.261679E+05  2.741730E+04  2.321721E+05  3.455791E+04
       166  27  4.003886E+05  1.873708E+04  1.377748E+05  2.433434E+04  3.458015E+05  1.329955E+04
       167   1 -6.998716E+04 -1.846353E+05 -4.607289E+04 -4.215074E+03 -4.848588E+03  6.484638E+04
       167   2 -1.593528E+05 -1.766628E+05 -9.633878E+04 -4.666783E+03 -1.366154E+04  4.380200E+04
       167   3 -1.412905E+05 -1.379737E+05 -1.058373E+05  2.093914E+04 -1.218790E+04  2.280358E+04
       167   4  7.984501E+04  4.163686E+05  1.031254E+05  1.149652E+04 -4.869173E+03  6.961457E+04
       167   5 -1.564831E+04  4.007297E+05  4.503713E+04 -1.724824E+03 -1.366590E+04  4.509396E+04
       167   6 -3.164091E+03  4.163823E+05  3.010162E+04  1.110953E+04 -1.217938E+04  2.062018E+04
       167   7  2.296512E+05  1.017701E+06  2.522969E+05  2.722373E+04 -4.889508E+03  7.438736E+04
       167   8  1.280316E+05  9.784259E+05  1.863887E+05  1.220200E+03 -1.367025E+04  4.638709E+04
       167   9  1.349399E+05  9.710183E+05  1.660181E+05  1.271392E+03 -1.217078E+04  1.843483E+04
       167  10 -6.998831E+04 -1.846399E+05 -4.608084E+04 -4.214821E+03  1.008949E-09  9.204136E-10
       167  11 -1.593535E+05 -1.766649E+05 -9.634274E+04 -4.666301E+03  9.875255E-10 -4.413456E-10
       167  12 -1.412908E+05 -1.379743E+05 -1.058386E+05  2.093936E+04 -1.078031E-09 -1.665558E-09
       167  13  7.984368E+04  4.163634E+05  1.031162E+05  1.149680E+04  3.232713E-09  5.293692E-12
       167  14 -1.564906E+04  4.007274E+05  4.503296E+04 -1.724328E+03  5.569307E-10  2.066074E-11
       167  15 -3.164365E+03  4.163818E+05  3.010054E+04  1.110974E+04 -1.983750E-10 -1.313644E-11
       167  16  2.296496E+05  1.017695E+06  2.522865E+05  2.722402E+04  1.287308E-09 -9.585236E-10
       167  17  1.280308E+05  9.784235E+05  1.863843E+05  1.220710E+03  6.331764E-09  2.818941E-10
       167  18  1.349396E+05  9.710179E+05  1.660171E+05  1.271573E+03 -1.589434E-09  1.707593E-09
       167  19 -6.998716E+04 -1.846353E+05 -4.607289E+04 -4.215074E+03  4.848588E+03 -6.484638E+04
       167  20 -1.593528E+05 -1.766628E+05 -9.633878E+04 -4.666783E+03  1.366154E+04 -4.380200E+04
       167  21 -1.412905E+05 -1.379737E+05 -1.058373E+05  2.093914E+04  1.218790E+04 -2.280358E+04
       167  22  7.984501E+04  4.163686E+05  1.031254E+05  1.149652E+04  4.869173E+03 -6.961457E+04
       167  23 -1.564831E+04  4.007297E+05  4.503713E+04 -1.724824E+03  1.366590E+04 -4.509396E+04
       167  24 -3.164091E+03  4.163823E+05  3.010162E+04  1.110953E+04  1.217938E+04 -2.062018E+04
       167  25  2.296512E+05  1.017701E+06  2.522969E+05  2.722373E+04  4.889508E+03 -7.438736E+04
       167  26  1.280316E+05  9.784259E+05  1.863887E+05  1.220200E+03  1.367025E+04 -4.638709E+04
       167  27  1.349399E+05  9.710183E+05  1.660181E+05  1.271392E+03  1.217078E+04 -1.843483E+04
       168   1 -1.152092E+05 -9.244409E+04 -9.809119E+04  9.622886E+03 -1.024380E+04  1.529849E+04
       168   2 -1.226660E+05 -7.406092E+04 -1.032585E+05 -4.985064E+02 -1.054595E+04  8.161927E+03
       168   3 -1.119708E+05 -4.944269E+04 -9.908509E+04  1.344268E+04 -9.113560E+03  1.029554E+03
       168   4  1.013291E+04  4.108495E+05  2.547939E+04  1.080951E+04 -1.024463E+04  1.570834E+04
       168   5 -2.707939E+03  4.076841E+05  1.485632E+04 -1.234769E+03 -1.054488E+04  7.983605E+03
       168   6  2.697880E+03  4.108514E+05  1.397721E+04  1.078229E+04 -9.111149E+03  2.633077E+02
       168   7  1.354562E+05  9.143736E+05  1.490314E+05  1.199730E+04 -1.024545E+04  1.611851E+04
       168   8  1.172330E+05  8.896405E+05  1.329542E+05 -1.971445E+03 -1.054381E+04  7.805143E+03
       168   9  1.173509E+05  8.713383E+05  1.270239E+05  8.120042E+03 -9.108733E+03 -5.035053E+02
       168  10 -1.152093E+05 -9.244437E+04 -9.809183E+04  9.623012E+03 -3.032311E-09  7.882332E-10
       168  11 -1.226662E+05 -7.406102E+04 -1.032589E+05 -4.984371E+02 -4.536418E-10  6.580769E-11
       168  12 -1.119709E+05 -4.944271E+04 -9.908525E+04  1.344269E+04 -3.442305E-11 -4.231038E-10
       168  13  1.013273E+04  4.108492E+05  2.547873E+04  1.080964E+04 -2.386406E-09 -1.064711E-11
       168  14 -2.708076E+03  4.076840E+05  1.485599E+04 -1.234702E+03 -8.478203E-10  1.543225E-11
       168  15  2.697791E+03  4.108514E+05  1.397705E+04  1.078229E+04 -1.358199E-09  1.426218E-10
       168  16  1.354560E+05  9.143733E+05  1.490307E+05  1.199744E+04 -1.983079E-09 -7.602244E-10
       168  17  1.172328E+05  8.896404E+05  1.329538E+05 -1.971379E+03 -1.468151E-09  1.676890E-10
       168  18  1.173508E+05  8.713382E+05  1.270238E+05  8.120039E+03 -4.943829E-10  4.628708E-10
       168  19 -1.152092E+05 -9.244409E+04 -9.809119E+04  9.622886E+03  1.024380E+04 -1.529849E+04
       168  20 -1.226660E+05 -7.406092E+04 -1.032585E+05 -4.985064E+02  1.054595E+04 -8.161927E+03
       168  21 -1.119708E+05 -4.944269E+04 -9.908509E+04  1.344268E+04  9.113560E+03 -1.029554E+03
       168  22  1.013291E+04  4.108495E+05  2.547939E+04  1.080951E+04  1.024463E+04 -1.570834E+04
       168  23 -2.707939E+03  4.076841E+05  1.485632E+04 -1.234769E+03  1.054488E+04 -7.983605E+03
       168  24  2.697880E+03  4.108514E+05  1.397721E+04  1.078229E+04  9.111149E+03 -2.633077E+02
       168  25  1.354562E+05  9.143736E+05  1.490314E+05  1.199730E+04  1.024545E+04 -1.611851E+04
       168  26  1.172330E+05  8.896405E+05  1.329542E+05 -1.971445E+03  1.054381E+04 -7.805143E+03
       168  27  1.173509E+05  8.713383E+05  1.270239E+05  8.120042E+03  9.108733E+03  5.035053E+02
       169   1 -1.025116E+05 -7.671989E+02 -8.707927E+04  8.432397E+03 -9.359418E+03 -3.085136E+03
       169   2 -1.027346E+05  1.432670E+04 -8.011156E+04  1.198165E+03 -9.009474E+03 -9.735596E+03
       169   3 -6.835177E+04  3.944053E+04 -6.005918E+04  1.663070E+04 -2.853798E+03 -1.637693E+04
       169   4  1.745884E+02  4.117589E+05  1.397843E+04  1.046394E+04 -9.361065E+03 -2.222990E+03
       169   5 -5.078343E+03  4.065797E+05  1.595674E+04 -8.479469E+02 -9.006883E+03 -1.082880E+04
       169   6  2.460257E+04  4.117544E+05  3.237150E+04  1.050590E+04 -2.848502E+03 -1.942527E+04
       169   7  1.028482E+05  8.244400E+05  1.150237E+05  1.249692E+04 -9.362706E+03 -1.360272E+03
       169   8  9.256653E+04  7.989729E+05  1.120138E+05 -2.895284E+03 -9.004286E+03 -1.192268E+04
       169   9  1.175467E+05  7.841942E+05  1.247919E+05  4.377489E+03 -2.843148E+03 -2.247543E+04
       169  10 -1.025117E+05 -7.672327E+02 -8.707945E+04  8.432374E+03 -4.226221E-10  4.474023E-10
       169  11 -1.027347E+05  1.432658E+04 -8.011189E+04  1.198094E+03  6.699447E-10  1.713477E-10
       169  12 -6.835186E+04  3.944024E+04 -6.005970E+04  1.663066E+04  1.695849E-10 -2.493040E-10
       169  13  1.744929E+02  4.117589E+05  1.397826E+04  1.046392E+04  1.225618E-10  4.781022E-11
       169  14 -5.078462E+03  4.065796E+05  1.595637E+04 -8.480254E+02  9.018263E-10  5.176627E-11
       169  15  2.460246E+04  4.117540E+05  3.237078E+04  1.050586E+04  6.469848E-10  5.826901E-11
       169  16  1.028481E+05  8.244400E+05  1.150235E+05  1.249691E+04 -1.905628E-09 -3.748146E-10
       169  17  9.256641E+04  7.989727E+05  1.120134E+05 -2.895370E+03  1.729987E-09 -2.693148E-10
       169  18  1.175465E+05  7.841936E+05  1.247909E+05  4.377437E+03  1.047746E-09  1.768487E-10
       169  19 -1.025116E+05 -7.671989E+02 -8.707927E+04  8.432397E+03  9.359418E+03  3.085136E+03
       169  20 -1.027346E+05  1.432670E+04 -8.011156E+04  1.198165E+03  9.009474E+03  9.735596E+03
       169  21 -6.835177E+04  3.944053E+04 -6.005918E+04  1.663070E+04  2.853798E+03  1.637693E+04
       169  22  1.745884E+02  4.117589E+05  1.397843E+04  1.046394E+04  9.361065E+03  2.222990E+03
       169  23 -5.078343E+03  4.065797E+05  1.595674E+04 -8.479469E+02  9.006883E+03  1.082880E+04
       169  24  2.460257E+04  4.117544E+05  3.237150E+04  1.050590E+04  2.848502E+03  1.942527E+04
       169  25  1.028482E+05  8.244400E+05  1.150237E+05  1.249692E+04  9.362706E+03  1.360272E+03
       169  26  9.256653E+04  7.989729E+05  1.120138E+05 -2.895284E+03  9.004286E+03  1.192268E+04
       169  27  1.175467E+05  7.841942E+05  1.247919E+05  4.377489E+03  2.843148E+03  2.247543E+04
       170   1 -2.648945E+06 -9.003963E+05 -6.313022E+05 -8.808510E+05 -2.860664E+05 -1.024660E+05
       170   2 -2.568160E+06 -4.865670E+05 -3.661273E+05 -9.484422E+05 -1.868157E+05 -5.197297E+04
       170   3 -2.651550E+06 -5.076230E+05 -2.948656E+05 -9.146385E+05 -8.283038E+04 -1.392608E+04
       170   4 -2.003904E+06 -5.885302E+05 -4.406819E+05 -6.365931E+05 -2.808393E+05 -1.005159E+05
       170   5 -1.899461E+06 -2.148643E+05 -1.813143E+05 -7.467882E+05 -1.853954E+05 -5.144175E+04
       170   6 -1.958264E+06 -2.750565E+05 -1.126746E+05 -7.556410E+05 -8.521545E+04 -1.482595E+04
       170   7 -1.358452E+06 -2.765589E+05 -2.501034E+05 -3.920804E+05 -2.756061E+05 -9.856197E+04
       170   8 -1.230330E+06  5.688330E+04  3.457013E+03 -5.449313E+05 -1.839733E+05 -5.090975E+04
       170   9 -1.264514E+06 -4.248509E+04  6.947673E+04 -5.964942E+05 -8.760342E+04 -1.572663E+04
       170  10 -2.649036E+06 -9.004297E+05 -6.314765E+05 -8.808746E+05 -9.023003E-10 -6.454940E-11
       170  11 -2.568198E+06 -4.865793E+05 -3.661983E+05 -9.484501E+05 -6.254896E-10 -5.270799E-10
       170  12 -2.651557E+06 -5.076251E+05 -2.948789E+05 -9.146394E+05 -1.491919E-09 -3.939697E-10
       170  13 -2.003992E+06 -5.885624E+05 -4.408497E+05 -6.366159E+05 -9.521207E-10 -2.785391E-10
       170  14 -1.899499E+06 -2.148764E+05 -1.813841E+05 -7.467959E+05  2.323530E-09 -6.467381E-10
       170  15 -1.958272E+06 -2.750587E+05 -1.126887E+05 -7.556420E+05 -2.898868E-09 -3.992202E-10
       170  16 -1.358536E+06 -2.765898E+05 -2.502648E+05 -3.921023E+05 -3.015043E-09 -1.995031E-10
       170  17 -1.230367E+06  5.687140E+04  3.388376E+03 -5.449388E+05 -2.765001E-09 -4.697967E-10
       170  18 -1.264522E+06 -4.248742E+04  6.946181E+04 -5.964953E+05 -1.667179E-09 -1.078036E-10
       170  19 -2.648945E+06 -9.003963E+05 -6.313022E+05 -8.808510E+05  2.860664E+05  1.024660E+05
       170  20 -2.568160E+06 -4.865670E+05 -3.661273E+05 -9.484422E+05  1.868157E+05  5.197297E+04
       170  21 -2.651550E+06 -5.076230E+05 -2.948656E+05 -9.146385E+05  8.283038E+04  1.392608E+04
       170  22 -2.003904E+06 -5.885302E+05 -4.406819E+05 -6.365931E+05  2.808393E+05  1.005159E+05
       170  23 -1.899461E+06 -2.148643E+05 -1.813143E+05 -7.467882E+05  1.853954E+05  5.144175E+04
       170  24 -1.958264E+06 -2.750565E+05 -1.126746E+05 -7.556410E+05  8.521545E+04  1.482595E+04
       170  25 -1.358452E+06 -2.765589E+05 -2.501034E+05 -3.920804E+05  2.756061E+05  9.856197E+04
       170  26 -1.230330E+06  5.688330E+04  3.457013E+03 -5.449313E+05  1.839733E+05  5.090975E+04
       170  27 -1.264514E+06 -4.248509E+04  6.947673E+04 -5.964942E+05  8.760342E+04  1.572663E+04
       171   1 -2.563482E+06 -5.710486E+05 -2.630907E+05 -9.088248E+05 -6.818833E+04 -1.086767E+04
       171   2 -2.540761E+06 -4.986011E+05 -2.070115E+05 -9.013369E+05 -4.538109E+04 -1.549739E+03
       171   3 -2.521620E+06 -5.026189E+05 -1.834263E+05 -9.015001E+05 -2.192732E+04  6.056740E+03
       171   4 -1.941738E+06 -3.269057E+05 -9.243763E+04 -7.300539E+05 -6.777739E+04 -1.071436E+04
       171   5 -1.936994E+06 -2.678453E+05 -4.278211E+04 -7.341152E+05 -4.548462E+04 -1.590075E+03
       171   6 -1.935707E+06 -2.851119E+05 -2.518611E+04 -7.458322E+05 -2.254634E+04  5.822692E+03
       171   7 -1.319621E+06 -8.273264E+04  7.817968E+04 -5.511186E+05 -6.736596E+04 -1.056085E+04
       171   8 -1.332877E+06 -3.706611E+04  1.214144E+05 -5.667459E+05 -4.558824E+04 -1.630447E+03
       171   9 -1.349463E+06 -6.758767E+04  1.330238E+05 -5.900327E+05 -2.316599E+04  5.588414E+03
       171  10 -2.563487E+06 -5.710499E+05 -2.630997E+05 -9.088254E+05 -6.193236E-10  5.543845E-11
       171  11 -2.540763E+06 -4.986017E+05 -2.070154E+05 -9.013370E+05 -3.117649E-10  3.280738E-10
       171  12 -2.521621E+06 -5.026191E+05 -1.834273E+05 -9.015000E+05  1.032140E-09 -4.621124E-10
       171  13 -1.941743E+06 -3.269070E+05 -9.244651E+04 -7.300545E+05 -2.713994E-09  2.138875E-11
       171  14 -1.936997E+06 -2.678459E+05 -4.278601E+04 -7.341152E+05 -1.182309E-09  1.067786E-10
       171  15 -1.935708E+06 -2.851121E+05 -2.518714E+04 -7.458321E+05  8.689550E-11 -6.007162E-10
       171  16 -1.319626E+06 -8.273398E+04  7.817092E+04 -5.511192E+05 -1.071060E-10  1.535089E-10
       171  17 -1.332879E+06 -3.706667E+04  1.214105E+05 -5.667459E+05 -8.707938E-10 -1.446339E-10
       171  18 -1.349463E+06 -6.758785E+04  1.330228E+05 -5.900326E+05 -1.204173E-10 -8.804871E-10
       171  19 -2.563482E+06 -5.710486E+05 -2.630907E+05 -9.088248E+05  6.818833E+04  1.086767E+04
       171  20 -2.540761E+06 -4.986011E+05 -2.070115E+05 -9.013369E+05  4.538109E+04  1.549739E+03
       171  21 -2.521620E+06 -5.026189E+05 -1.834263E+05 -9.015001E+05  2.192732E+04 -6.056740E+03
       171  22 -1.941738E+06 -3.269057E+05 -9.243763E+04 -7.300539E+05  6.777739E+04  1.071436E+04
       171  23 -1.936994E+06 -2.678453E+05 -4.278211E+04 -7.341152E+05  4.548462E+04  1.590075E+03
       171  24 -1.935707E+06 -2.851119E+05 -2.518611E+04 -7.458322E+05  2.254634E+04 -5.822692E+03
       171  25 -1.319621E+06 -8.273264E+04  7.817968E+04 -5.511186E+05  6.736596E+04  1.056085E+04
       171  26 -1.332877E+06 -3.706611E+04  1.214144E+05 -5.667459E+05  4.558824E+04  1.630447E+03
       171  27 -1.349463E+06 -6.758767E+04  1.330238E+05 -5.900327E+05  2.316599E+04 -5.588414E+03
       172   1 -2.443126E+06 -4.878721E+05 -1.587903E+05 -8.847132E+05 -1.828731E+04  6.460818E+03
       172   2 -2.423699E+06 -4.542925E+05 -1.401120E+05 -8.610509E+05 -1.265622E+04  7.455182E+03
       172   3 -2.378886E+06 -4.563763E+05 -1.272486E+05 -8.675219E+05 -6.877984E+03  8.052991E+03
       172   4 -1.931770E+06 -2.935606E+05 -1.996080E+04 -7.442163E+05 -1.854263E+04  6.363904E+03
       172   5 -1.944074E+06 -2.729379E+05 -1.002091E+04 -7.302041E+05 -1.303159E+04  7.313429E+03
       172   6 -1.930967E+06 -2.879486E+05 -5.796520E+03 -7.463240E+05 -7.373772E+03  7.866420E+03
       172   7 -1.420163E+06 -9.923321E+04  1.188452E+05 -6.036147E+05 -1.879818E+04  6.266905E+03
       172   8 -1.464228E+06 -9.156990E+04  1.200494E+05 -5.992662E+05 -1.340728E+04  7.171557E+03
       172   9 -1.482855E+06 -1.195101E+05  1.156374E+05 -6.250476E+05 -7.869952E+03  7.679702E+03
       172  10 -2.443126E+06 -4.878722E+05 -1.587910E+05 -8.847131E+05 -8.741560E-11 -9.928890E-10
       172  11 -2.423699E+06 -4.542926E+05 -1.401124E+05 -8.610508E+05 -7.155057E-10 -3.970573E-10
       172  12 -2.378886E+06 -4.563764E+05 -1.272488E+05 -8.675218E+05  9.859472E-10  7.223172E-10
       172  13 -1.931771E+06 -2.935608E+05 -1.996153E+04 -7.442162E+05 -2.359402E-10 -5.298312E-10
       172  14 -1.944074E+06 -2.729380E+05 -1.002133E+04 -7.302040E+05  5.263084E-10  3.011682E-10
       172  15 -1.930967E+06 -2.879487E+05 -5.796739E+03 -7.463239E+05 -4.780514E-10 -7.821661E-11
       172  16 -1.420164E+06 -9.923335E+04  1.188444E+05 -6.036147E+05 -4.197843E-10 -8.112139E-10
       172  17 -1.464228E+06 -9.157000E+04  1.200490E+05 -5.992661E+05 -2.030398E-10 -1.593790E-10
       172  18 -1.482855E+06 -1.195101E+05  1.156371E+05 -6.250476E+05 -3.692803E-10  1.149912E-10
       172  19 -2.443126E+06 -4.878721E+05 -1.587903E+05 -8.847132E+05  1.828731E+04 -6.460818E+03
       172  20 -2.423699E+06 -4.542925E+05 -1.401120E+05 -8.610509E+05  1.265622E+04 -7.455182E+03
       172  21 -2.378886E+06 -4.563763E+05 -1.272486E+05 -8.675219E+05  6.877984E+03 -8.052991E+03
       172  22 -1.931770E+06 -2.935606E+05 -1.996080E+04 -7.442163E+05  1.854263E+04 -6.363904E+03
       172  23 -1.944074E+06 -2.729379E+05 -1.002091E+04 -7.302041E+05  1.303159E+04 -7.313429E+03
       172  24 -1.930967E+06 -2.879486E+05 -5.796520E+03 -7.463240E+05  7.373772E+03 -7.866420E+03
       172  25 -1.420163E+06 -9.923321E+04  1.188452E+05 -6.036147E+05  1.879818E+04 -6.266905E+03
       172  26 -1.464228E+06 -9.156990E+04  1.200494E+05 -5.992662E+05  1.340728E+04 -7.171557E+03
       172  27 -1.482855E+06 -1.195101E+05  1.156374E+05 -6.250476E+05  7.869952E+03 -7.679702E+03
       173   1 -2.283999E+06 -4.240501E+05 -1.006159E+05 -8.439388E+05 -5.772833E+03  7.483176E+03
       173   2 -2.261491E+06 -3.909336E+05 -8.811257E+04 -8.136345E+05 -3.812373E+03  6.573658E+03
       173   3 -2.204946E+06 -3.932326E+05 -7.689901E+04 -8.223696E+05 -1.790470E+03  5.495581E+03
       173   4 -1.929353E+06 -2.902191E+05 -4.605812E+03 -7.474207E+05 -6.199807E+03  7.322695E+03
       173   5 -1.946323E+06 -2.721490E+05 -2.709504E+03 -7.280392E+05 -4.291376E+03  6.393944E+03
       173   6 -1.929249E+06 -2.894828E+05 -2.061167E+03 -7.476964E+05 -2.321622E+03  5.296644E+03
       173   7 -1.574586E+06 -1.563805E+05  9.139318E+04 -6.508527E+05 -6.627050E+03  7.162112E+03
       173   8 -1.631060E+06 -1.533587E+05  8.268474E+04 -6.424046E+05 -4.770647E+03  6.214130E+03
       173   9 -1.653479E+06 -1.857287E+05  7.276986E+04 -6.729934E+05 -2.853034E+03  5.097610E+03
       173  10 -2.283999E+06 -4.240502E+05 -1.006161E+05 -8.439388E+05  1.210553E-09 -3.205000E-10
       173  11 -2.261491E+06 -3.909337E+05 -8.811268E+04 -8.136345E+05  5.304435E-10 -5.572798E-10
       173  12 -2.204946E+06 -3.932326E+05 -7.689908E+04 -8.223696E+05 -2.167535E-09 -4.999967E-10
       173  13 -1.929353E+06 -2.902191E+05 -4.605985E+03 -7.474207E+05 -5.636123E-10  1.979309E-10
       173  14 -1.946323E+06 -2.721491E+05 -2.709615E+03 -7.280392E+05  5.338610E-10  8.236778E-10
       173  15 -1.929249E+06 -2.894828E+05 -2.061230E+03 -7.476964E+05 -1.667375E-09 -7.204321E-10
       173  16 -1.574586E+06 -1.563805E+05  9.139301E+04 -6.508526E+05 -3.914199E-10 -6.396293E-10
       173  17 -1.631060E+06 -1.533587E+05  8.268463E+04 -6.424046E+05 -6.624510E-10 -6.617480E-10
       173  18 -1.653479E+06 -1.857287E+05  7.276979E+04 -6.729934E+05 -2.804556E-10 -4.957612E-10
       173  19 -2.283999E+06 -4.240501E+05 -1.006159E+05 -8.439388E+05  5.772833E+03 -7.483176E+03
       173  20 -2.261491E+06 -3.909336E+05 -8.811257E+04 -8.136345E+05  3.812373E+03 -6.573658E+03
       173  21 -2.204946E+06 -3.932326E+05 -7.689901E+04 -8.223696E+05  1.790470E+03 -5.495581E+03
       173  22 -1.929353E+06 -2.902191E+05 -4.605812E+03 -7.474207E+05  6.199807E+03 -7.322695E+03
       173  23 -1.946323E+06 -2.721490E+05 -2.709504E+03 -7.280392E+05  4.291376E+03 -6.393944E+03
       173  24 -1.929249E+06 -2.894828E+05 -2.061167E+03 -7.476964E+05  2.321622E+03 -5.296644E+03
       173  25 -1.574586E+06 -1.563805E+05  9.139318E+04 -6.508527E+05  6.627050E+03 -7.162112E+03
       173  26 -1.631060E+06 -1.533587E+05  8.268474E+04 -6.424046E+05  4.770647E+03 -6.214130E+03
       173  27 -1.653479E+06 -1.857287E+05  7.276986E+04 -6.729934E+05  2.853034E+03 -5.097610E+03
       174   1 -2.096946E+06 -3.537531E+05 -4.750660E+04 -7.943309E+05 -1.109058E+03  4.640834E+03
       174   2 -2.072060E+06 -3.181682E+05 -3.621890E+04 -7.607477E+05  7.413056E+02  3.442691E+03
       174   3 -2.009937E+06 -3.212943E+05 -2.610567E+04 -7.703192E+05  2.609040E+03  2.196185E+03
       174   4 -1.928536E+06 -2.903032E+05 -2.033123E+03 -7.485719E+05 -1.621670E+03  4.449012E+03
       174   5 -1.947188E+06 -2.711814E+05 -2.399554E+03 -7.269080E+05  2.137905E+02  3.245415E+03
       174   6 -1.928603E+06 -2.907673E+05 -3.928399E+03 -7.483992E+05  2.066525E+03  1.993431E+03
       174   7 -1.760099E+06 -2.268518E+05  4.343775E+04 -7.028017E+05 -2.134434E+03  4.257134E+03
       174   8 -1.822301E+06 -2.241938E+05  3.141839E+04 -6.930623E+05 -3.138416E+02  3.048095E+03
       174   9 -1.847261E+06 -2.602400E+05  1.824832E+04 -7.264767E+05  1.523931E+03  1.790646E+03
       174  10 -2.096946E+06 -3.537531E+05 -4.750664E+04 -7.943309E+05 -1.518348E-09  2.230811E-10
       174  11 -2.072060E+06 -3.181682E+05 -3.621892E+04 -7.607477E+05  1.090534E-09  1.039550E-09
       174  12 -2.009937E+06 -3.212943E+05 -2.610569E+04 -7.703192E+05  1.934911E-09  3.612388E-10
       174  13 -1.928536E+06 -2.903032E+05 -2.033165E+03 -7.485719E+05 -6.275885E-10 -1.055281E-10
       174  14 -1.947188E+06 -2.711814E+05 -2.399573E+03 -7.269080E+05  1.632347E-09  5.411744E-11
       174  15 -1.928603E+06 -2.907673E+05 -3.928415E+03 -7.483993E+05  3.093202E-10 -3.348740E-11
       174  16 -1.760099E+06 -2.268518E+05  4.343770E+04 -7.028017E+05  7.635869E-10 -3.384081E-10
       174  17 -1.822301E+06 -2.241938E+05  3.141838E+04 -6.930623E+05  2.615501E-09  7.552497E-10
       174  18 -1.847261E+06 -2.602400E+05  1.824831E+04 -7.264767E+05 -5.079944E-10  3.333662E-11
       174  19 -2.096946E+06 -3.537531E+05 -4.750660E+04 -7.943309E+05  1.109058E+03 -4.640834E+03
       174  20 -2.072060E+06 -3.181682E+05 -3.621890E+04 -7.607477E+05 -7.413056E+02 -3.442691E+03
       174  21 -2.009937E+06 -3.212943E+05 -2.610567E+04 -7.703192E+05 -2.609040E+03 -2.196185E+03
       174  22 -1.928536E+06 -2.903032E+05 -2.033123E+03 -7.485719E+05  1.621670E+03 -4.449012E+03
       174  23 -1.947188E+06 -2.711814E+05 -2.399554E+03 -7.269080E+05 -2.137905E+02 -3.245415E+03
       174  24 -1.928603E+06 -2.907673E+05 -3.928399E+03 -7.483992E+05 -2.066525E+03 -1.993431E+03
       174  25 -1.760099E+06 -2.268518E+05  4.343775E+04 -7.028017E+05  2.134434E+03 -4.257134E+03
       174  26 -1.822301E+06 -2.241938E+05  3.141839E+04 -6.930623E+05  3.138416E+02 -3.048095E+03
       174  27 -1.847261E+06 -2.602400E+05  1.824832E+04 -7.264767E+05 -1.523931E+03 -1.790646E+03
       175   1 -1.896820E+06 -2.785884E+05  3.803942E+03 -7.407520E+05  3.751672E+03  1.439971E+03
       175   2 -1.871147E+06 -2.416456E+05  1.214526E+04 -7.062397E+05  8.645604E+03  1.297206E+03
       175   3 -1.810305E+06 -2.491503E+05  1.559609E+04 -7.140387E+05  1.348213E+04  1.310047E+03
       175   4 -1.928800E+06 -2.901707E+05 -4.933119E+03 -7.489115E+05  3.184163E+03  1.227900E+03
       175   5 -1.946705E+06 -2.702466E+05 -8.346429E+03 -7.268954E+05  8.126332E+03  1.103077E+03
       175   6 -1.929453E+06 -2.947804E+05 -1.668894E+04 -7.471917E+05  1.301076E+04  1.133741E+03
       175   7 -1.960779E+06 -3.017530E+05 -1.367027E+04 -7.570705E+05  2.616687E+03  1.015841E+03
       175   8 -2.022258E+06 -2.988471E+05 -2.883860E+04 -7.475487E+05  7.607129E+03  9.089740E+02
       175   9 -2.048586E+06 -3.404094E+05 -4.897518E+04 -7.803388E+05  1.253948E+04  9.574746E+02
       175  10 -1.896820E+06 -2.785884E+05  3.803911E+03 -7.407520E+05  4.521854E-10  3.196696E-12
       175  11 -1.871147E+06 -2.416457E+05  1.214511E+04 -7.062397E+05 -9.551185E-10  1.718817E-10
       175  12 -1.810305E+06 -2.491504E+05  1.559574E+04 -7.140387E+05 -2.601611E-10  1.521335E-10
       175  13 -1.928800E+06 -2.901707E+05 -4.933140E+03 -7.489115E+05 -3.126809E-10  4.553046E-10
       175  14 -1.946705E+06 -2.702466E+05 -8.346556E+03 -7.268954E+05 -1.395248E-09 -2.069564E-10
       175  15 -1.929453E+06 -2.947804E+05 -1.668926E+04 -7.471917E+05  6.253927E-10 -2.201099E-11
       175  16 -1.960779E+06 -3.017530E+05 -1.367028E+04 -7.570705E+05 -6.569039E-10  6.002126E-10
       175  17 -2.022258E+06 -2.988471E+05 -2.883872E+04 -7.475487E+05  7.647702E-11  1.069835E-09
       175  18 -2.048587E+06 -3.404095E+05 -4.897548E+04 -7.803388E+05  2.241487E-10  1.731463E-10
       175  19 -1.896820E+06 -2.785884E+05  3.803942E+03 -7.407520E+05 -3.751672E+03 -1.439971E+03
       175  20 -1.871147E+06 -2.416456E+05  1.214526E+04 -7.062397E+05 -8.645604E+03 -1.297206E+03
       175  21 -1.810305E+06 -2.491503E+05  1.559609E+04 -7.140387E+05 -1.348213E+04 -1.310047E+03
       175  22 -1.928800E+06 -2.901707E+05 -4.933119E+03 -7.489115E+05 -3.184163E+03 -1.227900E+03
       175  23 -1.946705E+06 -2.702466E+05 -8.346429E+03 -7.268954E+05 -8.126332E+03 -1.103077E+03
       175  24 -1.929453E+06 -2.947804E+05 -1.668894E+04 -7.471917E+05 -1.301076E+04 -1.133741E+03
       175  25 -1.960779E+06 -3.017530E+05 -1.367027E+04 -7.570705E+05 -2.616687E+03 -1.015841E+03
       175  26 -2.022258E+06 -2.988471E+05 -2.883860E+04 -7.475487E+05 -7.607129E+03 -9.089740E+02
       175  27 -2.048586E+06 -3.404094E+05 -4.897518E+04 -7.803388E+05 -1.253948E+04 -9.574746E+02
       176   1 -1.700072E+06 -2.049205E+05  4.117911E+04 -6.903643E+05  1.725100E+04  1.416771E+03
       176   2 -1.673098E+06 -1.618100E+05  3.749331E+04 -6.540285E+05  3.632674E+04  6.614218E+03
       176   3 -1.630669E+06 -2.014861E+05  7.174872E+03 -6.463917E+05  5.496855E+04  1.297873E+04
       176   4 -1.931807E+06 -2.887187E+05 -2.105484E+04 -7.496335E+05  1.652986E+04  1.147041E+03
       176   5 -1.941968E+06 -2.647518E+05 -3.563254E+04 -7.287494E+05  3.596362E+04  6.477950E+03
       176   6 -1.936757E+06 -3.236580E+05 -7.713707E+04 -7.365653E+05  5.496214E+04  1.297533E+04
       176   7 -2.163491E+06 -3.725151E+05 -8.329361E+04 -8.088833E+05  1.580900E+04  8.774111E+02
       176   8 -2.210770E+06 -3.676889E+05 -1.087650E+05 -8.034411E+05  3.560068E+04  6.341749E+03
       176   9 -2.242754E+06 -4.458215E+05 -1.614577E+05 -8.266977E+05  5.495574E+04  1.297193E+04
       176  10 -1.700072E+06 -2.049206E+05  4.117854E+04 -6.903643E+05 -8.594478E-10 -3.456094E-10
       176  11 -1.673099E+06 -1.618104E+05  3.749074E+04 -6.540287E+05  2.051064E-10  1.678141E-10
       176  12 -1.630672E+06 -2.014871E+05  7.168859E+03 -6.463923E+05  7.530584E-11  1.775132E-10
       176  13 -1.931807E+06 -2.887188E+05 -2.105536E+04 -7.496335E+05  1.006722E-09 -3.766729E-10
       176  14 -1.941970E+06 -2.647522E+05 -3.563506E+04 -7.287496E+05 -6.385786E-10 -1.195409E-10
       176  15 -1.936760E+06 -3.236590E+05 -7.714309E+04 -7.365659E+05  2.276665E-10 -2.247618E-10
       176  16 -2.163491E+06 -3.725151E+05 -8.329408E+04 -8.088833E+05  6.263753E-10 -6.711783E-10
       176  17 -2.210771E+06 -3.676893E+05 -1.087675E+05 -8.034412E+05  5.884114E-10  1.071702E-10
       176  18 -2.242758E+06 -4.458225E+05 -1.614637E+05 -8.266983E+05 -3.520636E-10  1.524222E-10
       176  19 -1.700072E+06 -2.049205E+05  4.117911E+04 -6.903643E+05 -1.725100E+04 -1.416771E+03
       176  20 -1.673098E+06 -1.618100E+05  3.749331E+04 -6.540285E+05 -3.632674E+04 -6.614218E+03
       176  21 -1.630669E+06 -2.014861E+05  7.174872E+03 -6.463917E+05 -5.496855E+04 -1.297873E+04
       176  22 -1.931807E+06 -2.887187E+05 -2.105484E+04 -7.496335E+05 -1.652986E+04 -1.147041E+03
       176  23 -1.941968E+06 -2.647518E+05 -3.563254E+04 -7.287494E+05 -3.596362E+04 -6.477950E+03
       176  24 -1.936757E+06 -3.236580E+05 -7.713707E+04 -7.365653E+05 -5.496214E+04 -1.297533E+04
       176  25 -2.163491E+06 -3.725151E+05 -8.329361E+04 -8.088833E+05 -1.580900E+04 -8.774111E+02
       176  26 -2.210770E+06 -3.676889E+05 -1.087650E+05 -8.034411E+05 -3.560068E+04 -6.341749E+03
       176  27 -2.242754E+06 -4.458215E+05 -1.614577E+05 -8.266977E+05 -5.495574E+04 -1.297193E+04
       177   1 -1.523388E+06 -1.453695E+05  1.663468E+04 -6.685564E+05  7.173542E+04  1.675005E+04
       177   2 -1.479739E+06 -4.230020E+04 -3.155535E+04 -6.058980E+05  1.529131E+05  4.504247E+04
       177   3 -1.549620E+06 -3.232163E+05 -2.366793E+05 -4.849498E+05  2.306690E+05  8.246432E+04
       177   4 -1.950015E+06 -2.808909E+05 -9.400529E+04 -7.584521E+05  6.967588E+04  1.598094E+04
       177   5 -1.911588E+06 -2.196955E+05 -1.511876E+05 -7.383671E+05  1.536610E+05  4.531827E+04
       177   6 -1.987352E+06 -5.432061E+05 -3.676219E+05 -6.599678E+05  2.342222E+05  8.377474E+04
       177   7 -2.376465E+06 -4.164131E+05 -2.046596E+05 -8.482977E+05  6.761789E+04  1.521221E+04
       177   8 -2.343256E+06 -3.970703E+05 -2.708371E+05 -8.707496E+05  1.544084E+05  4.559380E+04
       177   9 -2.424891E+06 -7.631369E+05 -4.985836E+05 -8.348598E+05  2.377727E+05  8.508330E+04
       177  10 -1.523393E+06 -1.453711E+05  1.662445E+04 -6.685574E+05  4.303673E-10  6.347621E-10
       177  11 -1.479765E+06 -4.230868E+04 -3.160324E+04 -6.059035E+05  1.816952E-10 -1.285177E-10
       177  12 -1.549680E+06 -3.232379E+05 -2.367924E+05 -4.849652E+05 -2.775774E-10  1.423237E-12
       177  13 -1.950020E+06 -2.808925E+05 -9.401492E+04 -7.584530E+05  6.090542E-10  2.548684E-11
       177  14 -1.911614E+06 -2.197041E+05 -1.512360E+05 -7.383727E+05 -4.445007E-10 -2.781235E-10
       177  15 -1.987413E+06 -5.432284E+05 -3.677386E+05 -6.599837E+05 -5.127689E-10  2.998526E-10
       177  16 -2.376470E+06 -4.164146E+05 -2.046686E+05 -8.482986E+05 -5.698362E-10 -6.321526E-11
       177  17 -2.343282E+06 -3.970789E+05 -2.708860E+05 -8.707553E+05  3.151489E-10  6.725441E-11
       177  18 -2.424953E+06 -7.631600E+05 -4.987040E+05 -8.348762E+05 -6.670761E-10  1.933873E-10
       177  19 -1.523388E+06 -1.453695E+05  1.663468E+04 -6.685564E+05 -7.173542E+04 -1.675005E+04
       177  20 -1.479739E+06 -4.230020E+04 -3.155535E+04 -6.058980E+05 -1.529131E+05 -4.504247E+04
       177  21 -1.549620E+06 -3.232163E+05 -2.366793E+05 -4.849498E+05 -2.306690E+05 -8.246432E+04
       177  22 -1.950015E+06 -2.808909E+05 -9.400529E+04 -7.584521E+05 -6.967588E+04 -1.598094E+04
       177  23 -1.911588E+06 -2.196955E+05 -1.511876E+05 -7.383671E+05 -1.536610E+05 -4.531827E+04
       177  24 -1.987352E+06 -5.432061E+05 -3.676219E+05 -6.599678E+05 -2.342222E+05 -8.377474E+04
       177  25 -2.376465E+06 -4.164131E+05 -2.046596E+05 -8.482977E+05 -6.761789E+04 -1.521221E+04
       177  26 -2.343256E+06 -3.970703E+05 -2.708371E+05 -8.707496E+05 -1.544084E+05 -4.559380E+04
       177  27 -2.424891E+06 -7.631369E+05 -4.985836E+05 -8.348598E+05 -2.377727E+05 -8.508330E+04
       178   1 -1.586476E+06 -3.019949E+05 -2.718991E+05 -3.532907E+04  7.173624E+04  1.231071E+04
       178   2 -1.516167E+06 -3.931439E+05 -3.148599E+05  1.722863E+03  5.211716E+04  3.533385E+04
       178   3 -1.404667E+06 -3.561006E+05 -3.116904E+05 -6.253133E+04  3.261247E+04  3.063450E+04
       178   4  5.699775E+03  9.566857E+04  1.238464E+05 -5.100518E+04  8.428349E+04  1.236614E+04
       178   5 -1.566872E+04 -1.924024E+04  5.290748E+04 -1.343762E+02  5.530501E+04  3.533892E+04
       178   6  5.695644E+03 -4.491697E+03  3.451802E+04 -5.055306E+04  2.644434E+04  3.061781E+04
       178   7  1.600181E+06  4.931430E+05  5.194030E+05 -6.672425E+04  9.686274E+04  1.242086E+04
       178   8  1.486884E+06  3.544965E+05  4.205099E+05 -1.997895E+03  5.850044E+04  3.534396E+04
       178   9  1.417872E+06  3.469700E+05  3.805805E+05 -3.854834E+04  2.026215E+04  3.060090E+04
       178  10 -1.586481E+06 -3.019965E+05 -2.719091E+05 -3.532978E+04  1.918290E-09  2.829427E-10
       178  11 -1.516171E+06 -3.931460E+05 -3.148674E+05  1.721379E+03 -8.433777E-10 -2.020313E-09
       178  12 -1.404668E+06 -3.561019E+05 -3.116942E+05 -6.253213E+04 -6.719359E-10 -3.033820E-10
       178  13  5.692107E+03  9.566650E+04  1.238328E+05 -5.100602E+04  2.412158E-09 -1.400782E-09
       178  14 -1.567234E+04 -1.924241E+04  5.289938E+04 -1.359501E+02 -1.075019E-09 -4.779869E-10
       178  15  5.694641E+03 -4.492892E+03  3.451494E+04 -5.055371E+04  3.281291E-09 -4.547049E-10
       178  16  1.600171E+06  4.931403E+05  5.193852E+05 -6.672522E+04 -4.726374E-10  1.782299E-09
       178  17  1.486880E+06  3.544942E+05  4.205011E+05 -1.999559E+03 -1.459389E-09 -1.375347E-09
       178  18  1.417871E+06  3.469689E+05  3.805780E+05 -3.854884E+04  9.421871E-10 -6.439053E-10
       178  19 -1.586476E+06 -3.019949E+05 -2.718991E+05 -3.532907E+04 -7.173624E+04 -1.231071E+04
       178  20 -1.516167E+06 -3.931439E+05 -3.148599E+05  1.722863E+03 -5.211716E+04 -3.533385E+04
       178  21 -1.404667E+06 -3.561006E+05 -3.116904E+05 -6.253133E+04 -3.261247E+04 -3.063450E+04
       178  22  5.699775E+03  9.566857E+04  1.238464E+05 -5.100518E+04 -8.428349E+04 -1.236614E+04
       178  23 -1.566872E+04 -1.924024E+04  5.290748E+04 -1.343762E+02 -5.530501E+04 -3.533892E+04
       178  24  5.695644E+03 -4.491697E+03  3.451802E+04 -5.055306E+04 -2.644434E+04 -3.061781E+04
       178  25  1.600181E+06  4.931430E+05  5.194030E+05 -6.672425E+04 -9.686274E+04 -1.242086E+04
       178  26  1.486884E+06  3.544965E+05  4.205099E+05 -1.997895E+03 -5.850044E+04 -3.534396E+04
       178  27  1.417872E+06  3.469700E+05  3.805805E+05 -3.854834E+04 -2.026215E+04 -3.060090E+04
       179   1 -1.204094E+06 -2.877488E+05 -2.671654E+05 -4.944990E+04  2.042777E+04  2.453500E+04
       179   2 -1.117656E+06 -2.797712E+05 -2.591470E+05  2.101625E+02  1.433316E+04  2.420631E+04
       179   3 -1.022993E+06 -2.550343E+05 -2.423025E+05 -5.147039E+04  8.231512E+03  2.080552E+04
       179   4 -1.764794E+03  1.197245E+04  2.827038E+04 -5.070642E+04  2.086278E+04  2.453247E+04
       179   5 -5.959915E+03 -2.717495E+03  1.367006E+04 -3.408904E+01  1.372527E+04  2.420325E+04
       179   6 -1.764852E+03 -4.810626E+02  8.609142E+03 -5.069094E+04  6.581603E+03  2.080437E+04
       179   7  1.201882E+06  3.115862E+05  3.235997E+05 -5.196578E+04  2.129859E+04  2.452995E+04
       179   8  1.106863E+06  2.742445E+05  2.863964E+05 -2.788979E+02  1.311627E+04  2.420021E+04
       179   9  1.020414E+06  2.539947E+05  2.594441E+05 -4.991002E+04  4.928973E+03  2.080321E+04
       179  10 -1.204094E+06 -2.877495E+05 -2.671673E+05 -4.945030E+04 -2.534595E-09 -9.023202E-11
       179  11 -1.117656E+06 -2.797719E+05 -2.591485E+05  2.098829E+02 -2.514588E-09 -2.002927E-11
       179  12 -1.022993E+06 -2.550348E+05 -2.423034E+05 -5.147052E+04 -9.890336E-10 -3.933396E-10
       179  13 -1.765423E+03  1.197169E+04  2.826843E+04 -5.070683E+04 -6.763576E-10 -9.485473E-10
       179  14 -5.960274E+03 -2.718174E+03  1.366861E+04 -3.435658E+01 -1.080061E-09  1.325479E-10
       179  15 -1.765015E+03 -4.815390E+02  8.608247E+03 -5.069105E+04 -2.376617E-09 -2.224393E-10
       179  16  1.201881E+06  3.115855E+05  3.235978E+05 -5.196620E+04  2.401192E-09  3.976734E-10
       179  17  1.106862E+06  2.742438E+05  2.863950E+05 -2.791533E+02  1.613867E-09  5.493363E-10
       179  18  1.020414E+06  2.539942E+05  2.594432E+05 -4.991010E+04 -2.110580E-10 -2.761734E-10
       179  19 -1.204094E+06 -2.877488E+05 -2.671654E+05 -4.944990E+04 -2.042777E+04 -2.453500E+04
       179  20 -1.117656E+06 -2.797712E+05 -2.591470E+05  2.101625E+02 -1.433316E+04 -2.420631E+04
       179  21 -1.022993E+06 -2.550343E+05 -2.423025E+05 -5.147039E+04 -8.231512E+03 -2.080552E+04
       179  22 -1.764794E+03  1.197245E+04  2.827038E+04 -5.070642E+04 -2.086278E+04 -2.453247E+04
       179  23 -5.959915E+03 -2.717495E+03  1.367006E+04 -3.408904E+01 -1.372527E+04 -2.420325E+04
       179  24 -1.764852E+03 -4.810626E+02  8.609142E+03 -5.069094E+04 -6.581603E+03 -2.080437E+04
       179  25  1.201882E+06  3.115862E+05  3.235997E+05 -5.196578E+04 -2.129859E+04 -2.452995E+04
       179  26  1.106863E+06  2.742445E+05  2.863964E+05 -2.788979E+02 -1.311627E+04 -2.420021E+04
       179  27  1.020414E+06  2.539947E+05  2.594441E+05 -4.991002E+04 -4.928973E+03 -2.080321E+04
       180   1 -8.160003E+05 -2.010686E+05 -1.925518E+05 -4.980143E+04  6.102691E+03  1.845408E+04
       180   2 -7.262836E+05 -1.803949E+05 -1.737328E+05  9.328484E+02  4.418689E+03  1.553803E+04
       180   3 -6.348337E+05 -1.572507E+05 -1.530174E+05 -4.970609E+04  2.727343E+03  1.228177E+04
       180   4 -3.121386E+03  1.445464E+03  6.729865E+03 -5.070177E+04  5.184777E+03  1.845354E+04
       180   5 -3.994120E+03 -4.208912E+02  3.518742E+03 -1.946416E+01  3.384403E+03  1.553863E+04
       180   6 -3.121299E+03  2.031700E+02  2.283755E+03 -5.070305E+04  1.576932E+03  1.228374E+04
       180   7  8.103599E+05  2.039105E+05  2.059631E+05 -5.160310E+04  4.265658E+03  1.845299E+04
       180   8  7.187707E+05  1.795144E+05  1.807320E+05 -9.726848E+02  2.348914E+03  1.553925E+04
       180   9  6.289545E+05  1.576274E+05  1.575556E+05 -5.170079E+04  4.253502E+02  1.228570E+04
       180  10 -8.160004E+05 -2.010690E+05 -1.925525E+05 -4.980152E+04 -1.465574E-09 -6.822434E-11
       180  11 -7.262836E+05 -1.803952E+05 -1.737333E+05  9.327930E+02 -1.493617E-09  2.672145E-10
       180  12 -6.348337E+05 -1.572509E+05 -1.530177E+05 -4.970612E+04  5.159167E-10 -1.172734E-09
       180  13 -3.121506E+03  1.445091E+03  6.729174E+03 -5.070184E+04 -2.421433E-09 -6.440299E-10
       180  14 -3.994197E+03 -4.211536E+02  3.518267E+03 -1.950651E+01 -1.074714E-09  8.399791E-10
       180  15 -3.121342E+03  2.030073E+02  2.283467E+03 -5.070307E+04 -2.291257E-09  1.607304E-09
       180  16  8.103597E+05  2.039101E+05  2.059624E+05 -5.160316E+04 -9.864068E-10 -7.802272E-10
       180  17  7.187706E+05  1.795141E+05  1.807315E+05 -9.727142E+02 -1.863649E-09 -1.155322E-09
       180  18  6.289545E+05  1.576272E+05  1.575553E+05 -5.170080E+04 -4.840700E-10 -2.939552E-10
       180  19 -8.160003E+05 -2.010686E+05 -1.925518E+05 -4.980143E+04 -6.102691E+03 -1.845408E+04
       180  20 -7.262836E+05 -1.803949E+05 -1.737328E+05  9.328484E+02 -4.418689E+03 -1.553803E+04
       180  21 -6.348337E+05 -1.572507E+05 -1.530174E+05 -4.970609E+04 -2.727343E+03 -1.228177E+04
       180  22 -3.121386E+03  1.445464E+03  6.729865E+03 -5.070177E+04 -5.184777E+03 -1.845354E+04
       180  23 -3.994120E+03 -4.208912E+02  3.518742E+03 -1.946416E+01 -3.384403E+03 -1.553863E+04
       180  24 -3.121299E+03  2.031700E+02  2.283755E+03 -5.070305E+04 -1.576932E+03 -1.228374E+04
       180  25  8.103599E+05  2.039105E+05  2.059631E+05 -5.160310E+04 -4.265658E+03 -1.845299E+04
       180  26  7.187707E+05  1.795144E+05  1.807320E+05 -9.726848E+02 -2.348914E+03 -1.553925E+04
       180  27  6.289545E+05  1.576274E+05  1.575556E+05 -5.170079E+04 -4.253502E+02 -1.228570E+04
       181   1 -4.267316E+05 -1.050539E+05 -1.018005E+05 -4.985382E+04  2.267436E+03  1.034377E+04
       181   2 -3.360165E+05 -8.291902E+04 -8.044271E+04  7.055180E+02  1.686562E+03  7.139651E+03
       181   3 -2.454763E+05 -5.997799E+04 -5.860238E+04 -5.011683E+04  1.102419E+03  3.901160E+03
       181   4 -3.479908E+03  3.365292E+02  1.776334E+03 -5.070522E+04  1.197129E+03  1.034618E+04
       181   5 -3.390417E+03 -5.543783E+01  1.168446E+03 -1.601501E+01  6.043050E+02  7.142584E+03
       181   6 -3.479859E+03  3.617151E+02  1.052067E+03 -5.070511E+04  8.296158E+00  3.904648E+03
       181   7  4.199351E+05  1.057137E+05  1.053401E+05 -5.155708E+04  1.260931E+02  1.034860E+04
       181   8  3.293365E+05  8.279994E+04  8.277148E+04 -7.378617E+02 -4.785308E+02  7.145518E+03
       181   9  2.385698E+05  6.069706E+04  6.070219E+04 -5.129357E+04 -1.086253E+03  3.908137E+03
       181  10 -4.267316E+05 -1.050540E+05 -1.018007E+05 -4.985384E+04 -6.489907E-10  1.090581E-10
       181  11 -3.360165E+05 -8.291908E+04 -8.044281E+04  7.055083E+02 -1.282951E-09  5.211230E-10
       181  12 -2.454763E+05 -5.997801E+04 -5.860241E+04 -5.011684E+04  1.235769E-09 -9.446397E-10
       181  13 -3.479938E+03  3.364139E+02  1.776130E+03 -5.070523E+04 -6.949552E-10 -1.790913E-09
       181  14 -3.390432E+03 -5.549271E+01  1.168349E+03 -1.601848E+01 -1.076630E-09  6.626923E-10
       181  15 -3.479863E+03  3.616988E+02  1.052038E+03 -5.070511E+04 -2.378169E-09 -1.825031E-09
       181  16  4.199351E+05  1.057136E+05  1.053399E+05 -5.155708E+04 -8.487116E-10  5.793570E-10
       181  17  3.293365E+05  8.279988E+04  8.277138E+04 -7.378589E+02 -1.736886E-10 -7.755892E-10
       181  18  2.385698E+05  6.069704E+04  6.070216E+04 -5.129357E+04 -1.428448E-09 -2.839577E-09
       181  19 -4.267316E+05 -1.050539E+05 -1.018005E+05 -4.985382E+04 -2.267436E+03 -1.034377E+04
       181  20 -3.360165E+05 -8.291902E+04 -8.044271E+04  7.055180E+02 -1.686562E+03 -7.139651E+03
       181  21 -2.454763E+05 -5.997799E+04 -5.860238E+04 -5.011683E+04 -1.102419E+03 -3.901160E+03
       181  22 -3.479908E+03  3.365292E+02  1.776334E+03 -5.070522E+04 -1.197129E+03 -1.034618E+04
       181  23 -3.390417E+03 -5.543783E+01  1.168446E+03 -1.601501E+01 -6.043050E+02 -7.142584E+03
       181  24 -3.479859E+03  3.617151E+02  1.052067E+03 -5.070511E+04 -8.296158E+00 -3.904648E+03
       181  25  4.199351E+05  1.057137E+05  1.053401E+05 -5.155708E+04 -1.260931E+02 -1.034860E+04
       181  26  3.293365E+05  8.279994E+04  8.277148E+04 -7.378617E+02  4.785308E+02 -7.145518E+03
       181  27  2.385698E+05  6.069706E+04  6.070219E+04 -5.129357E+04  1.086253E+03 -3.908137E+03
       182   1 -3.697085E+04 -7.956112E+03 -6.854074E+03 -5.060500E+04  9.005880E+02  2.004778E+03
       182   2  5.392677E+04  1.420727E+04  1.541835E+04 -1.529073E+02  1.911048E+02 -1.231570E+03
       182   3  1.443493E+05  3.730616E+04  3.821615E+04 -5.108519E+04 -5.178700E+02 -4.440303E+03
       182   4 -3.529967E+03  3.169666E+02  1.067238E+03 -5.070689E+04 -1.922267E+02  2.008430E+03
       182   5 -3.287199E+03 -4.248809E+01  1.384467E+03 -1.407193E+01 -8.924628E+02 -1.228048E+03
       182   6 -3.529971E+03  5.322484E+02  2.220901E+03 -5.070618E+04 -1.592089E+03 -4.436885E+03
       182   7  2.991195E+04  8.589966E+03  8.988476E+03 -5.080878E+04 -1.285100E+03  2.012083E+03
       182   8 -6.049819E+04 -1.429249E+04 -1.264965E+04  1.247530E+02 -1.975931E+03 -1.224527E+03
       182   9 -1.513893E+05 -3.624327E+04 -3.377593E+04 -5.032725E+04 -2.666052E+03 -4.433467E+03
       182  10 -3.697085E+04 -7.956117E+03 -6.854083E+03 -5.060500E+04 -2.520947E-09  1.534431E-09
       182  11  5.392677E+04  1.420727E+04  1.541835E+04 -1.529071E+02 -4.100734E-09  5.412985E-09
       182  12  1.443493E+05  3.730614E+04  3.821611E+04 -5.108519E+04  2.487704E-09 -3.116432E-09
       182  13 -3.529969E+03  3.169623E+02  1.067230E+03 -5.070689E+04 -8.727148E-10 -1.754270E-10
       182  14 -3.287200E+03 -4.248992E+01  1.384463E+03 -1.407281E+01 -1.078633E-09 -1.543388E-09
       182  15 -3.529979E+03  5.322266E+02  2.220859E+03 -5.070619E+04 -1.949116E-09 -6.446741E-12
       182  16  2.991195E+04  8.589961E+03  8.988466E+03 -5.080878E+04 -2.332101E-10 -1.319819E-10
       182  17 -6.049819E+04 -1.429249E+04 -1.264966E+04  1.247511E+02  9.109851E-10 -1.451082E-09
       182  18 -1.513893E+05 -3.624330E+04 -3.377598E+04 -5.032726E+04 -9.569051E-10 -3.648648E-11
       182  19 -3.697085E+04 -7.956112E+03 -6.854074E+03 -5.060500E+04 -9.005880E+02 -2.004778E+03
       182  20  5.392677E+04  1.420727E+04  1.541835E+04 -1.529073E+02 -1.911048E+02  1.231570E+03
       182  21  1.443493E+05  3.730616E+04  3.821615E+04 -5.108519E+04  5.178700E+02  4.440303E+03
       182  22 -3.529967E+03  3.169666E+02  1.067238E+03 -5.070689E+04  1.922267E+02 -2.008430E+03
       182  23 -3.287199E+03 -4.248809E+01  1.384467E+03 -1.407193E+01  8.924628E+02  1.228048E+03
       182  24 -3.529971E+03  5.322484E+02  2.220901E+03 -5.070618E+04  1.592089E+03  4.436885E+03
       182  25  2.991195E+04  8.589966E+03  8.988476E+03 -5.080878E+04  1.285100E+03 -2.012083E+03
       182  26 -6.049819E+04 -1.429249E+04 -1.264965E+04  1.247530E+02  1.975931E+03  1.224527E+03
       182  27 -1.513893E+05 -3.624327E+04 -3.377593E+04 -5.032725E+04  2.666052E+03  4.433467E+03
       183   1  3.532646E+05  8.907811E+04  9.054969E+04 -5.132479E+04 -9.158969E+02 -6.369035E+03
       183   2  4.434593E+05  1.109037E+05  1.142686E+05 -9.651371E+02 -3.362618E+03 -9.617169E+03
       183   3  5.346403E+05  1.360382E+05  1.403671E+05 -5.197487E+04 -5.804887E+03 -1.258049E+04
       183   4 -3.241183E+03  2.477499E+02  2.835778E+03 -5.070576E+04 -2.057259E+03 -6.365715E+03
       183   5 -3.722476E+03 -4.442552E+02  4.608105E+03 -1.656977E+01 -4.406777E+03 -9.614825E+03
       183   6 -3.241211E+03  2.157500E+03  8.694399E+03 -5.070128E+04 -6.751488E+03 -1.257900E+04
       183   7 -3.596313E+05 -8.859206E+04 -8.488750E+04 -5.008699E+04 -3.197967E+03 -6.362395E+03
       183   8 -4.507223E+05 -1.118070E+05 -1.050670E+05  9.314346E+02 -5.450184E+03 -9.612484E+03
       183   9 -5.408592E+05 -1.317446E+05 -1.229994E+05 -4.942863E+04 -7.697270E+03 -1.257753E+04
       183  10  3.532646E+05  8.907806E+04  9.054961E+04 -5.132480E+04  1.081612E-09 -4.168444E-09
       183  11  4.434593E+05  1.109036E+05  1.142684E+05 -9.651632E+02 -2.885073E-09  3.344364E-10
       183  12  5.346402E+05  1.360380E+05  1.403667E+05 -5.197493E+04 -2.529436E-09  1.088016E-09
       183  13 -3.241198E+03  2.477053E+02  2.835694E+03 -5.070577E+04 -1.890597E-09  1.244840E-10
       183  14 -3.722521E+03 -4.443597E+02  4.607895E+03 -1.660389E+01 -2.694858E-09 -1.248301E-09
       183  15 -3.241302E+03  2.157317E+03  8.694016E+03 -5.070135E+04 -3.844875E-09 -4.614674E-10
       183  16 -3.596314E+05 -8.859211E+04 -8.488759E+04 -5.008700E+04 -1.487583E-09  6.572933E-10
       183  17 -4.507223E+05 -1.118071E+05 -1.050672E+05  9.313924E+02  2.559078E-09  3.184939E-09
       183  18 -5.408594E+05 -1.317448E+05 -1.229998E+05 -4.942871E+04  2.165346E-09  8.330961E-10
       183  19  3.532646E+05  8.907811E+04  9.054969E+04 -5.132479E+04  9.158969E+02  6.369035E+03
       183  20  4.434593E+05  1.109037E+05  1.142686E+05 -9.651371E+02  3.362618E+03  9.617169E+03
       183  21  5.346403E+05  1.360382E+05  1.403671E+05 -5.197487E+04  5.804887E+03  1.258049E+04
       183  22 -3.241183E+03  2.477499E+02  2.835778E+03 -5.070576E+04  2.057259E+03  6.365715E+03
       183  23 -3.722476E+03 -4.442552E+02  4.608105E+03 -1.656977E+01  4.406777E+03  9.614825E+03
       183  24 -3.241211E+03  2.157500E+03  8.694399E+03 -5.070128E+04  6.751488E+03  1.257900E+04
       183  25 -3.596313E+05 -8.859206E+04 -8.488750E+04 -5.008699E+04  3.197967E+03  6.362395E+03
       183  26 -4.507223E+05 -1.118070E+05 -1.050670E+05  9.314346E+02  5.450184E+03  9.612484E+03
       183  27 -5.408592E+05 -1.317446E+05 -1.229994E+05 -4.942863E+04  7.697270E+03  1.257753E+04
       184   1  7.448512E+05  1.854274E+05  1.943622E+05 -5.012160E+04 -6.974058E+03 -1.485405E+04
       184   2  8.313814E+05  2.050815E+05  2.231084E+05 -1.565616E+03 -1.717076E+04 -1.821241E+04
       184   3  9.262907E+05  2.470491E+05  2.643594E+05 -5.433438E+04 -2.735996E+04 -1.900189E+04
       184   4 -1.710263E+03 -4.732495E+02  1.105988E+04 -5.069977E+04 -8.534619E+03 -1.485210E+04
       184   5 -5.825145E+03 -3.321762E+03  1.790048E+04 -2.847464E+01 -1.785598E+04 -1.821320E+04
       184   6 -1.710050E+03  1.600789E+04  3.665103E+04 -5.069016E+04 -2.716836E+04 -1.900395E+04
       184   7 -7.477647E+05 -1.864153E+05 -1.722834E+05 -5.127698E+04 -1.009330E+04 -1.485014E+04
       184   8 -8.423939E+05 -2.117770E+05 -1.873588E+05  1.506779E+03 -1.854027E+04 -1.821400E+04
       184   9 -9.289274E+05 -2.150972E+05 -1.911206E+05 -4.705126E+04 -2.697703E+04 -1.900600E+04
       184  10  7.448511E+05  1.854271E+05  1.943617E+05 -5.012168E+04 -2.858797E-09  1.557041E-09
       184  11  8.313810E+05  2.050811E+05  2.231072E+05 -1.565867E+03 -1.084093E-09 -1.950270E-09
       184  12  9.262898E+05  2.470486E+05  2.643574E+05 -5.433480E+04 -1.669472E-09 -1.039776E-09
       184  13 -1.710401E+03 -4.735059E+02  1.105933E+04 -5.069987E+04 -1.585160E-09  8.370856E-10
       184  14 -5.825576E+03 -3.322204E+03  1.789925E+04 -2.873655E+01 -3.766745E-09  7.041311E-10
       184  15 -1.710940E+03  1.600730E+04  3.664896E+04 -5.069057E+04 -2.546554E-10 -1.161632E-09
       184  16 -7.477649E+05 -1.864155E+05 -1.722840E+05 -5.127710E+04  1.145295E-09  1.051235E-09
       184  17 -8.423943E+05 -2.117774E+05 -1.873601E+05  1.506507E+03 -5.465607E-10 -7.951613E-10
       184  18 -9.289283E+05 -2.150978E+05 -1.911227E+05 -4.705167E+04 -3.171849E-10 -1.503677E-11
       184  19  7.448512E+05  1.854274E+05  1.943622E+05 -5.012160E+04  6.974058E+03  1.485405E+04
       184  20  8.313814E+05  2.050815E+05  2.231084E+05 -1.565616E+03  1.717076E+04  1.821241E+04
       184  21  9.262907E+05  2.470491E+05  2.643594E+05 -5.433438E+04  2.735996E+04  1.900189E+04
       184  22 -1.710263E+03 -4.732495E+02  1.105988E+04 -5.069977E+04  8.534619E+03  1.485210E+04
       184  23 -5.825145E+03 -3.321762E+03  1.790048E+04 -2.847464E+01  1.785598E+04  1.821320E+04
       184  24 -1.710050E+03  1.600789E+04  3.665103E+04 -5.069016E+04  2.716836E+04  1.900395E+04
       184  25 -7.477647E+05 -1.864153E+05 -1.722834E+05 -5.127698E+04  1.009330E+04  1.485014E+04
       184  26 -8.423939E+05 -2.117770E+05 -1.873588E+05  1.506779E+03  1.854027E+04  1.821400E+04
       184  27 -9.289274E+05 -2.150972E+05 -1.911206E+05 -4.705126E+04  2.697703E+04  1.900600E+04
       185   1  1.144245E+06  2.774241E+05  3.232855E+05 -3.775693E+04 -2.903235E+04 -2.439863E+04
       185   2  1.209132E+06  2.806667E+05  3.692265E+05 -6.474614E+03 -7.447622E+04 -2.885137E+04
       185   3  1.326364E+06  4.533638E+05  4.879017E+05 -7.643587E+04 -1.199692E+05 -1.013700E+04
       185   4  7.673700E+03 -5.457866E+03  4.468149E+04 -5.060507E+04 -3.438088E+04 -2.440129E+04
       185   5 -1.785595E+04 -2.458303E+04  6.900475E+04 -1.139738E+02 -7.196188E+04 -2.885286E+04
       185   6  7.678204E+03  1.245577E+05  1.607030E+05 -5.087509E+04 -1.095847E+05 -1.011998E+04
       185   7 -1.127722E+06 -2.884349E+05 -2.340170E+05 -6.342966E+04 -3.971960E+04 -2.440374E+04
       185   8 -1.243474E+06 -3.299439E+05 -2.313270E+05  6.233672E+03 -6.945238E+04 -2.885429E+04
       185   9 -1.309429E+06 -2.043760E+05 -1.666246E+05 -2.536938E+04 -9.922194E+04 -1.010210E+04
       185  10  1.144244E+06  2.774232E+05  3.232828E+05 -3.775750E+04 -2.147126E-09  3.604051E-11
       185  11  1.209126E+06  2.806643E+05  3.692145E+05 -6.476343E+03  9.135044E-10  4.648184E-10
       185  12  1.326348E+06  4.533598E+05  4.878745E+05 -7.643685E+04  1.926726E-10  6.220621E-11
       185  13  7.672271E+03 -5.458822E+03  4.467815E+04 -5.060575E+04 -2.087903E-09 -3.950696E-11
       185  14 -1.786173E+04 -2.458531E+04  6.899345E+04 -1.156459E+02 -1.646982E-11  3.140156E-09
       185  15  7.665283E+03  1.245543E+05  1.606803E+05 -5.087598E+04  7.394989E-10  1.648917E-11
       185  16 -1.127724E+06 -2.884360E+05 -2.340211E+05 -6.343045E+04 -1.181068E-09  3.856499E-10
       185  17 -1.243479E+06 -3.299461E+05 -2.313377E+05  6.232057E+03 -1.183416E-09  1.443041E-10
       185  18 -1.309440E+06 -2.043788E+05 -1.666434E+05 -2.537019E+04 -2.227536E-09 -7.356486E-10
       185  19  1.144245E+06  2.774241E+05  3.232855E+05 -3.775693E+04  2.903235E+04  2.439863E+04
       185  20  1.209132E+06  2.806667E+05  3.692265E+05 -6.474614E+03  7.447622E+04  2.885137E+04
       185  21  1.326364E+06  4.533638E+05  4.879017E+05 -7.643587E+04  1.199692E+05  1.013700E+04
       185  22  7.673700E+03 -5.457866E+03  4.468149E+04 -5.060507E+04  3.438088E+04  2.440129E+04
       185  23 -1.785595E+04 -2.458303E+04  6.900475E+04 -1.139738E+02  7.196188E+04  2.885286E+04
       185  24  7.678204E+03  1.245577E+05  1.607030E+05 -5.087509E+04  1.095847E+05  1.011998E+04
       185  25 -1.127722E+06 -2.884349E+05 -2.340170E+05 -6.342966E+04  3.971960E+04  2.440374E+04
       185  26 -1.243474E+06 -3.299439E+05 -2.313270E+05  6.233672E+03  6.945238E+04  2.885429E+04
       185  27 -1.309429E+06 -2.043760E+05 -1.666246E+05 -2.536938E+04  9.922194E+04  1.010210E+04
       186   1  1.877134E+05  4.868373E+05  2.300081E+05 -1.146003E+05  1.695929E+02  1.280512E+05
       186   2 -2.673526E+04  3.170709E+05  8.826334E+04 -1.079505E+04  2.863697E+02  7.972502E+04
       186   3 -3.678560E+04  2.025754E+05  2.863405E+04 -6.527747E+04 -4.502581E+03  3.138246E+04
       186   4  1.494136E+05  3.352377E+05  1.922300E+05 -8.061192E+04  1.807590E+02  1.272659E+05
       186   5 -2.915233E+04  3.077538E+05  8.606812E+04 -1.881753E+03  2.827982E+02  8.059928E+04
       186   6 -3.600070E+03  3.352523E+05  6.088772E+04 -8.143310E+04 -4.517089E+03  3.390531E+04
       186   7  1.111162E+05  1.836614E+05  1.544508E+05 -4.663180E+04  1.918412E+02  1.264808E+05
       186   8 -3.156911E+04  2.984369E+05  8.387293E+04  7.031407E+03  2.792517E+02  8.147352E+04
       186   9  2.958512E+04  4.679459E+05  9.314028E+04 -9.759216E+04 -4.531727E+03  3.642869E+04
       186  10  1.877090E+05  4.868197E+05  2.299773E+05 -1.146003E+05 -1.123774E-10  8.610396E-10
       186  11 -2.673697E+04  3.170640E+05  8.825140E+04 -1.079507E+04 -2.749685E-09 -1.004512E-09
       186  12 -3.678588E+04  2.025744E+05  2.863216E+04 -6.527736E+04 -1.262222E-10 -9.143222E-10
       186  13  1.494092E+05  3.352204E+05  1.921996E+05 -8.061194E+04  1.072363E-09  4.308864E-09
       186  14 -2.915408E+04  3.077468E+05  8.605591E+04 -1.881771E+03 -4.215045E-10  1.533955E-09
       186  15 -3.600401E+03  3.352511E+05  6.088553E+04 -8.143297E+04 -2.791961E-11  1.466553E-09
       186  16  1.111119E+05  1.836442E+05  1.544208E+05 -4.663182E+04  9.693437E-10 -1.609809E-09
       186  17 -3.157089E+04  2.984298E+05  8.386046E+04  7.031389E+03  5.718648E-09  2.425474E-09
       186  18  2.958474E+04  4.679444E+05  9.313775E+04 -9.759203E+04 -8.868405E-10 -4.385888E-11
       186  19  1.877134E+05  4.868373E+05  2.300081E+05 -1.146003E+05 -1.695929E+02 -1.280512E+05
       186  20 -2.673526E+04  3.170709E+05  8.826334E+04 -1.079505E+04 -2.863697E+02 -7.972502E+04
       186  21 -3.678560E+04  2.025754E+05  2.863405E+04 -6.527747E+04  4.502581E+03 -3.138246E+04
       186  22  1.494136E+05  3.352377E+05  1.922300E+05 -8.061192E+04 -1.807590E+02 -1.272659E+05
       186  23 -2.915233E+04  3.077538E+05  8.606812E+04 -1.881753E+03 -2.827982E+02 -8.059928E+04
       186  24 -3.600070E+03  3.352523E+05  6.088772E+04 -8.143310E+04  4.517089E+03 -3.390531E+04
       186  25  1.111162E+05  1.836614E+05  1.544508E+05 -4.663180E+04 -1.918412E+02 -1.264808E+05
       186  26 -3.156911E+04  2.984369E+05  8.387293E+04  7.031407E+03 -2.792517E+02 -8.147352E+04
       186  27  2.958512E+04  4.679459E+05  9.314028E+04 -9.759216E+04  4.531727E+03 -3.642869E+04
       187   1 -9.515604E+04 -1.345323E+05 -5.937258E+04 -8.530526E+04 -8.610561E+03  2.177231E+04
       187   2 -1.572640E+05 -2.844159E+05 -1.093716E+05  3.375435E+02 -1.319367E+04  2.420377E+03
       187   3 -1.704651E+05 -4.204737E+05 -1.347454E+05 -7.378198E+04 -1.561575E+04 -1.690994E+04
       187   4  1.954756E+04  3.260630E+05  5.389363E+04 -8.144812E+04 -8.620309E+03  2.372277E+04
       187   5 -6.949227E+03  3.191014E+05  3.862531E+04 -1.589369E+03 -1.319853E+04  3.630171E+03
       187   6  1.556669E+04  3.260634E+05  4.848354E+04 -8.148201E+04 -1.561636E+04 -1.644523E+04
       187   7  1.342355E+05  7.868515E+05  1.671442E+05 -7.758785E+04 -8.630028E+03  2.567467E+04
       187   8  1.433385E+05  9.229503E+05  1.865955E+05 -3.517769E+03 -1.320340E+04  4.841137E+03
       187   9  2.015573E+05  1.073108E+06  2.316716E+05 -8.919075E+04 -1.561698E+04 -1.597995E+04
       187  10 -9.515624E+04 -1.345328E+05 -5.937361E+04 -8.530511E+04 -1.324032E-09  6.406322E-10
       187  11 -1.572642E+05 -2.844159E+05 -1.093719E+05  3.375692E+02 -6.009790E-10 -8.238585E-10
       187  12 -1.704654E+05 -4.204740E+05 -1.347464E+05 -7.378219E+04  9.345108E-10  4.127074E-10
       187  13  1.954733E+04  3.260624E+05  5.389243E+04 -8.144796E+04 -1.791243E-09  4.135845E-09
       187  14 -6.949418E+03  3.191013E+05  3.862496E+04 -1.589330E+03 -1.177670E-09  1.288019E-09
       187  15  1.556635E+04  3.260630E+05  4.848257E+04 -8.148221E+04 -1.039176E-09  1.051387E-09
       187  16  1.342352E+05  7.868507E+05  1.671429E+05 -7.758767E+04 -2.662443E-09 -1.311611E-09
       187  17  1.433383E+05  9.229502E+05  1.865951E+05 -3.517717E+03 -2.098682E-09  2.233313E-09
       187  18  2.015570E+05  1.073108E+06  2.316707E+05 -8.919095E+04  3.245812E-10 -1.005533E-09
       187  19 -9.515604E+04 -1.345323E+05 -5.937258E+04 -8.530526E+04  8.610561E+03 -2.177231E+04
       187  20 -1.572640E+05 -2.844159E+05 -1.093716E+05  3.375435E+02  1.319367E+04 -2.420377E+03
       187  21 -1.704651E+05 -4.204737E+05 -1.347454E+05 -7.378198E+04  1.561575E+04  1.690994E+04
       187  22  1.954756E+04  3.260630E+05  5.389363E+04 -8.144812E+04  8.620309E+03 -2.372277E+04
       187  23 -6.949227E+03  3.191014E+05  3.862531E+04 -1.589369E+03  1.319853E+04 -3.630171E+03
       187  24  1.556669E+04  3.260634E+05  4.848354E+04 -8.148201E+04  1.561636E+04  1.644523E+04
       187  25  1.342355E+05  7.868515E+05  1.671442E+05 -7.758785E+04  8.630028E+03 -2.567467E+04
       187  26  1.433385E+05  9.229503E+05  1.865955E+05 -3.517769E+03  1.320340E+04 -4.841137E+03
       187  27  2.015573E+05  1.073108E+06  2.316716E+05 -8.919075E+04  1.561698E+04  1.597995E+04
       188   1 -2.705388E+05 -7.434545E+05 -2.108600E+05 -9.205312E+04 -2.242917E+04 -3.184358E+04
       188   2 -3.291634E+05 -9.133113E+05 -2.270879E+05  8.650524E+03 -2.871022E+04 -6.262298E+04
       188   3 -2.187215E+05 -1.034092E+06 -1.804214E+05 -5.256761E+04 -1.001264E+04 -9.333882E+04
       188   4 -2.195672E+03  3.339899E+05  5.361659E+04 -8.205387E+04 -2.245094E+04 -2.553849E+04
       188   5 -2.472817E+04  3.087679E+05  7.223931E+04 -9.995100E+02 -2.870030E+04 -6.476775E+04
       188   6  1.230970E+05  3.339735E+05  1.595318E+05 -8.184332E+04 -9.990683E+03 -1.039411E+05
       188   7  2.660618E+05  1.412492E+06  3.180081E+05 -7.203616E+04 -2.247248E+04 -1.922245E+04
       188   8  2.795967E+05  1.532209E+06  3.714572E+05 -1.066772E+04 -2.869032E+04 -6.691665E+04
       188   9  4.647780E+05  1.703741E+06  4.993458E+05 -1.111829E+05 -9.967757E+03 -1.145665E+05
       188  10 -2.705396E+05 -7.434558E+05 -2.108628E+05 -9.205370E+04 -6.061308E-10  2.546746E-09
       188  11 -3.291653E+05 -9.133157E+05 -2.270968E+05  8.649075E+03  7.328805E-10 -5.011509E-11
       188  12 -2.187239E+05 -1.034101E+06 -1.804379E+05 -5.256836E+04 -1.487243E-10 -1.690681E-09
       188  13 -2.196388E+03  3.339891E+05  5.361442E+04 -8.205433E+04  1.098203E-09  2.978412E-09
       188  14 -2.473018E+04  3.087632E+05  7.222989E+04 -1.001007E+03 -2.845156E-10  7.099823E-10
       188  15  1.230940E+05  3.339619E+05  1.595113E+05 -8.184416E+04  5.475881E-10  4.235480E-10
       188  16  2.660611E+05  1.412492E+06  3.180065E+05 -7.203651E+04 -1.153220E-09 -2.778864E-09
       188  17  2.795946E+05  1.532204E+06  3.714473E+05 -1.066927E+04  1.326997E-09  7.808106E-10
       188  18  4.647744E+05  1.703727E+06  4.993210E+05 -1.111838E+05  6.193038E-10  1.386585E-09
       188  19 -2.705388E+05 -7.434545E+05 -2.108600E+05 -9.205312E+04  2.242917E+04  3.184358E+04
       188  20 -3.291634E+05 -9.133113E+05 -2.270879E+05  8.650524E+03  2.871022E+04  6.262298E+04
       188  21 -2.187215E+05 -1.034092E+06 -1.804214E+05 -5.256761E+04  1.001264E+04  9.333882E+04
       188  22 -2.195672E+03  3.339899E+05  5.361659E+04 -8.205387E+04  2.245094E+04  2.553849E+04
       188  23 -2.472817E+04  3.087679E+05  7.223931E+04 -9.995100E+02  2.870030E+04  6.476775E+04
       188  24  1.230970E+05  3.339735E+05  1.595318E+05 -8.184332E+04  9.990683E+03  1.039411E+05
       188  25  2.660618E+05  1.412492E+06  3.180081E+05 -7.203616E+04  2.247248E+04  1.922245E+04
       188  26  2.795967E+05  1.532209E+06  3.714572E+05 -1.066772E+04  2.869032E+04  6.691665E+04
       188  27  4.647780E+05  1.703741E+06  4.993458E+05 -1.111829E+05  9.967757E+03  1.145665E+05
       189   1 -5.120900E+06 -1.639271E+06 -1.116857E+06 -1.723593E+06 -5.441884E+05 -1.979583E+05
       189   2 -4.979717E+06 -8.661387E+05 -6.161137E+05 -1.872977E+06 -3.540933E+05 -1.069001E+05
       189   3 -5.175694E+06 -9.052993E+05 -4.861833E+05 -1.802468E+06 -1.572688E+05 -3.355239E+04
       189   4 -4.228984E+06 -1.172126E+06 -8.454638E+05 -1.350556E+06 -5.368848E+05 -1.953172E+05
       189   5 -4.016971E+06 -4.660767E+05 -3.476301E+05 -1.574566E+06 -3.520795E+05 -1.061626E+05
       189   6 -4.140604E+06 -5.705273E+05 -2.159733E+05 -1.578829E+06 -1.605267E+05 -3.477002E+04
       189   7 -3.336252E+06 -7.046935E+05 -5.741492E+05 -9.769589E+05 -5.295691E+05 -1.926676E+05
       189   8 -3.053322E+06 -6.590753E+04 -7.923405E+04 -1.275715E+06 -3.500619E+05 -1.054233E+05
       189   9 -3.104477E+06 -2.357575E+05  5.414934E+04 -1.354883E+06 -1.637905E+05 -3.598910E+04
       189  10 -5.121231E+06 -1.639394E+06 -1.117493E+06 -1.723680E+06  2.826142E-10 -5.638304E-10
       189  11 -4.979856E+06 -8.661852E+05 -6.163732E+05 -1.873008E+06  1.511746E-09  1.313242E-09
       189  12 -5.175721E+06 -9.053072E+05 -4.862324E+05 -1.802472E+06  3.688696E-11 -2.799398E-09
       189  13 -4.229305E+06 -1.172245E+06 -8.460818E+05 -1.350641E+06 -1.607358E-09 -1.293910E-09
       189  14 -4.017108E+06 -4.661225E+05 -3.478861E+05 -1.574596E+06  4.304532E-10 -2.683028E-09
       189  15 -4.140632E+06 -5.705355E+05 -2.160244E+05 -1.578834E+06 -9.682648E-10 -2.258373E-09
       189  16 -3.336565E+06 -7.048093E+05 -5.747494E+05 -9.770414E+05 -1.423661E-09  4.499758E-10
       189  17 -3.053457E+06 -6.595267E+04 -7.948669E+04 -1.275745E+06 -1.037526E-09 -1.044724E-09
       189  18 -3.104506E+06 -2.357661E+05  5.409619E+04 -1.354888E+06 -2.950843E-09 -1.495359E-09
       189  19 -5.120900E+06 -1.639271E+06 -1.116857E+06 -1.723593E+06  5.441884E+05  1.979583E+05
       189  20 -4.979717E+06 -8.661387E+05 -6.161137E+05 -1.872977E+06  3.540933E+05  1.069001E+05
       189  21 -5.175694E+06 -9.052993E+05 -4.861833E+05 -1.802468E+06  1.572688E+05  3.355239E+04
       189  22 -4.228984E+06 -1.172126E+06 -8.454638E+05 -1.350556E+06  5.368848E+05  1.953172E+05
       189  23 -4.016971E+06 -4.660767E+05 -3.476301E+05 -1.574566E+06  3.520795E+05  1.061626E+05
       189  24 -4.140604E+06 -5.705273E+05 -2.159733E+05 -1.578829E+06  1.605267E+05  3.477002E+04
       189  25 -3.336252E+06 -7.046935E+05 -5.741492E+05 -9.769589E+05  5.295691E+05  1.926676E+05
       189  26 -3.053322E+06 -6.590753E+04 -7.923405E+04 -1.275715E+06  3.500619E+05  1.054233E+05
       189  27 -3.104477E+06 -2.357575E+05  5.414934E+04 -1.354883E+06  1.637905E+05  3.598910E+04
       190   1 -5.050134E+06 -1.047024E+06 -4.375796E+05 -1.807031E+06 -1.283794E+05 -2.574061E+04
       190   2 -5.012971E+06 -9.168853E+05 -3.331018E+05 -1.801012E+06 -8.481860E+04 -8.071760E+03
       190   3 -4.991812E+06 -9.238440E+05 -2.907910E+05 -1.798792E+06 -4.016190E+04  6.692827E+03
       190   4 -4.106136E+06 -6.728847E+05 -1.771589E+05 -1.533002E+06 -1.277279E+05 -2.550101E+04
       190   5 -4.092419E+06 -5.643180E+05 -8.196731E+04 -1.546197E+06 -8.501042E+04 -8.147128E+03
       190   6 -4.094474E+06 -5.925742E+05 -4.819602E+04 -1.563203E+06 -4.119981E+04  6.301614E+03
       190   7 -3.161271E+06 -2.986701E+05  8.317966E+04 -1.258585E+06 -1.270751E+05 -2.526090E+04
       190   8 -3.171046E+06 -2.116956E+05  1.690904E+05 -1.291036E+06 -8.520248E+04 -8.222584E+03
       190   9 -3.196357E+06 -2.612675E+05  1.943272E+05 -1.327309E+06 -4.223935E+04  5.909825E+03
       190  10 -5.050152E+06 -1.047029E+06 -4.376121E+05 -1.807034E+06 -1.788011E-09 -1.409948E-09
       190  11 -5.012979E+06 -9.168873E+05 -3.331156E+05 -1.801013E+06 -6.892517E-10 -2.090856E-10
       190  12 -4.991814E+06 -9.238445E+05 -2.907941E+05 -1.798792E+06  1.834337E-09 -6.073351E-10
       190  13 -4.106154E+06 -6.728898E+05 -1.771910E+05 -1.533005E+06 -5.162051E-09 -7.630425E-10
       190  14 -4.092427E+06 -5.643200E+05 -8.198111E+04 -1.546197E+06 -3.481622E-09 -9.530927E-12
       190  15 -4.094475E+06 -5.925747E+05 -4.819930E+04 -1.563202E+06 -6.351355E-10 -4.614676E-10
       190  16 -3.161289E+06 -2.986751E+05  8.314793E+04 -1.258588E+06 -3.445722E-09  1.184146E-10
       190  17 -3.171054E+06 -2.116976E+05  1.690766E+05 -1.291036E+06 -3.556261E-09 -6.800805E-11
       190  18 -3.196359E+06 -2.612680E+05  1.943237E+05 -1.327308E+06 -9.796873E-10 -2.817880E-10
       190  19 -5.050134E+06 -1.047024E+06 -4.375796E+05 -1.807031E+06  1.283794E+05  2.574061E+04
       190  20 -5.012971E+06 -9.168853E+05 -3.331018E+05 -1.801012E+06  8.481860E+04  8.071760E+03
       190  21 -4.991812E+06 -9.238440E+05 -2.907910E+05 -1.798792E+06  4.016190E+04 -6.692827E+03
       190  22 -4.106136E+06 -6.728847E+05 -1.771589E+05 -1.533002E+06  1.277279E+05  2.550101E+04
       190  23 -4.092419E+06 -5.643180E+05 -8.196731E+04 -1.546197E+06  8.501042E+04  8.147128E+03
       190  24 -4.094474E+06 -5.925742E+05 -4.819602E+04 -1.563203E+06  4.119981E+04 -6.301614E+03
       190  25 -3.161271E+06 -2.986701E+05  8.317966E+04 -1.258585E+06  1.270751E+05  2.526090E+04
       190  26 -3.171046E+06 -2.116956E+05  1.690904E+05 -1.291036E+06  8.520248E+04  8.222584E+03
       190  27 -3.196357E+06 -2.612675E+05  1.943272E+05 -1.327309E+06  4.223935E+04 -5.909825E+03
       191   1 -4.849361E+06 -9.019125E+05 -2.463232E+05 -1.772359E+06 -3.316327E+04  7.693388E+03
       191   2 -4.811252E+06 -8.363063E+05 -2.100779E+05 -1.725774E+06 -2.233835E+04  9.601938E+03
       191   3 -4.723158E+06 -8.402733E+05 -1.850002E+05 -1.738709E+06 -1.116832E+04  1.057406E+04
       191   4 -4.084589E+06 -6.112460E+05 -3.821808E+04 -1.562911E+06 -3.362954E+04  7.516801E+03
       191   5 -4.108828E+06 -5.710538E+05 -1.918972E+04 -1.535181E+06 -2.308501E+04  9.321331E+03
       191   6 -4.083025E+06 -6.003634E+05 -1.109405E+04 -1.566970E+06 -1.219664E+04  1.018947E+04
       191   7 -3.319252E+06 -3.205444E+05  1.698338E+05 -1.353228E+06 -3.409644E+04  7.339981E+03
       191   8 -3.405927E+06 -3.057730E+05  1.716540E+05 -1.344392E+06 -2.383258E+04  9.040379E+03
       191   9 -3.442495E+06 -3.604313E+05  1.627755E+05 -1.395071E+06 -1.322615E+04  9.804450E+03
       191  10 -4.849362E+06 -9.019129E+05 -2.463254E+05 -1.772359E+06 -5.983388E-10 -1.156648E-09
       191  11 -4.811253E+06 -8.363065E+05 -2.100790E+05 -1.725774E+06 -1.465045E-09 -1.283169E-09
       191  12 -4.723159E+06 -8.402734E+05 -1.850006E+05 -1.738709E+06  1.226847E-11  9.910479E-11
       191  13 -4.084590E+06 -6.112464E+05 -3.822032E+04 -1.562911E+06 -2.007730E-09 -1.212009E-09
       191  14 -4.108829E+06 -5.710541E+05 -1.919089E+04 -1.535181E+06 -1.238975E-09 -8.138402E-10
       191  15 -4.083025E+06 -6.003636E+05 -1.109453E+04 -1.566970E+06  1.890758E-09  2.857185E-09
       191  16 -3.319253E+06 -3.205448E+05  1.698315E+05 -1.353228E+06 -1.274712E-09 -8.627646E-10
       191  17 -3.405928E+06 -3.057732E+05  1.716528E+05 -1.344392E+06 -7.100979E-10 -1.018802E-09
       191  18 -3.442495E+06 -3.604314E+05  1.627750E+05 -1.395071E+06 -6.308931E-10 -2.182123E-09
       191  19 -4.849361E+06 -9.019125E+05 -2.463232E+05 -1.772359E+06  3.316327E+04 -7.693388E+03
       191  20 -4.811252E+06 -8.363063E+05 -2.100779E+05 -1.725774E+06  2.233835E+04 -9.601938E+03
       191  21 -4.723158E+06 -8.402733E+05 -1.850002E+05 -1.738709E+06  1.116832E+04 -1.057406E+04
       191  22 -4.084589E+06 -6.112460E+05 -3.821808E+04 -1.562911E+06  3.362954E+04 -7.516801E+03
       191  23 -4.108828E+06 -5.710538E+05 -1.918972E+04 -1.535181E+06  2.308501E+04 -9.321331E+03
       191  24 -4.083025E+06 -6.003634E+05 -1.109405E+04 -1.566970E+06  1.219664E+04 -1.018947E+04
       191  25 -3.319252E+06 -3.205444E+05  1.698338E+05 -1.353228E+06  3.409644E+04 -7.339981E+03
       191  26 -3.405927E+06 -3.057730E+05  1.716540E+05 -1.344392E+06  2.383258E+04 -9.040379E+03
       191  27 -3.442495E+06 -3.604313E+05  1.627755E+05 -1.395071E+06  1.322615E+04 -9.804450E+03
       192   1 -4.524835E+06 -7.740294E+05 -1.297204E+05 -1.691238E+06 -9.006817E+03  9.327613E+03
       192   2 -4.476706E+06 -7.040715E+05 -1.035041E+05 -1.626816E+06 -5.116059E+03  7.322162E+03
       192   3 -4.356731E+06 -7.089394E+05 -7.986201E+04 -1.645806E+06 -1.085233E+03  4.929481E+03
       192   4 -4.078740E+06 -6.060269E+05 -8.852871E+03 -1.570574E+06 -9.897722E+03  8.995042E+03
       192   5 -4.114569E+06 -5.679081E+05 -5.223234E+03 -1.529136E+06 -6.126027E+03  6.945900E+03
       192   6 -4.078536E+06 -6.045874E+05 -4.070872E+03 -1.571109E+06 -2.214728E+03  4.509511E+03
       192   7 -3.632452E+06 -4.380132E+05  1.119967E+05 -1.449832E+06 -1.078933E+04  8.662207E+03
       192   8 -3.752305E+06 -4.317376E+05  9.304571E+04 -1.431405E+06 -7.136646E+03  6.569397E+03
       192   9 -3.800267E+06 -5.002314E+05  7.171312E+04 -1.496382E+06 -3.344780E+03  4.089334E+03
       192  10 -4.524835E+06 -7.740295E+05 -1.297207E+05 -1.691238E+06  1.533757E-09 -1.327857E-10
       192  11 -4.476706E+06 -7.040716E+05 -1.035042E+05 -1.626816E+06  8.798087E-10 -1.761602E-09
       192  12 -4.356731E+06 -7.089395E+05 -7.986205E+04 -1.645806E+06  1.757327E-10  8.428261E-10
       192  13 -4.078740E+06 -6.060270E+05 -8.853207E+03 -1.570574E+06 -9.331220E-10 -1.743611E-09
       192  14 -4.114569E+06 -5.679082E+05 -5.223395E+03 -1.529136E+06  1.291426E-09  2.373514E-09
       192  15 -4.078536E+06 -6.045874E+05 -4.070920E+03 -1.571109E+06 -7.935937E-10  5.784930E-10
       192  16 -3.632453E+06 -4.380133E+05  1.119964E+05 -1.449832E+06 -1.647565E-09 -1.070310E-09
       192  17 -3.752305E+06 -4.317377E+05  9.304554E+04 -1.431405E+06 -6.233608E-10 -1.522589E-09
       192  18 -3.800267E+06 -5.002314E+05  7.171307E+04 -1.496382E+06  2.470458E-09  6.930670E-10
       192  19 -4.524835E+06 -7.740294E+05 -1.297204E+05 -1.691238E+06  9.006817E+03 -9.327613E+03
       192  20 -4.476706E+06 -7.040715E+05 -1.035041E+05 -1.626816E+06  5.116059E+03 -7.322162E+03
       192  21 -4.356731E+06 -7.089394E+05 -7.986201E+04 -1.645806E+06  1.085233E+03 -4.929481E+03
       192  22 -4.078740E+06 -6.060269E+05 -8.852871E+03 -1.570574E+06  9.897722E+03 -8.995042E+03
       192  23 -4.114569E+06 -5.679081E+05 -5.223234E+03 -1.529136E+06  6.126027E+03 -6.945900E+03
       192  24 -4.078536E+06 -6.045874E+05 -4.070872E+03 -1.571109E+06  2.214728E+03 -4.509511E+03
       192  25 -3.632452E+06 -4.380132E+05  1.119967E+05 -1.449832E+06  1.078933E+04 -8.662207E+03
       192  26 -3.752305E+06 -4.317376E+05  9.304571E+04 -1.431405E+06  7.136646E+03 -6.569397E+03
       192  27 -3.800267E+06 -5.002314E+05  7.171312E+04 -1.496382E+06  3.344780E+03 -4.089334E+03
       193   1 -4.127251E+06 -6.246590E+05 -1.725312E+04 -1.586093E+06  3.341761E+02  3.070445E+03
       193   2 -4.075447E+06 -5.511848E+05  6.102666E+03 -1.516454E+06  4.084456E+03  4.850693E+02
       193   3 -3.946884E+06 -5.577003E+05  2.705329E+04 -1.536625E+06  7.811696E+03 -2.035649E+03
       193   4 -4.077441E+06 -6.058462E+05 -4.050610E+03 -1.572482E+06 -7.696163E+02  2.660313E+03
       193   5 -4.115893E+06 -5.663975E+05 -4.872046E+03 -1.527373E+06  3.000641E+03  8.225609E+01
       193   6 -4.077598E+06 -6.069441E+05 -8.114568E+03 -1.572076E+06  6.747452E+03 -2.431257E+03
       193   7 -4.027629E+06 -5.870332E+05  9.151716E+03 -1.558871E+06 -1.873508E+03  2.250144E+03
       193   8 -4.156337E+06 -5.816101E+05 -1.584691E+04 -1.538291E+06  1.916903E+03 -3.205284E+02
       193   9 -4.208296E+06 -6.561870E+05 -4.328394E+04 -1.607521E+06  5.683455E+03 -2.826771E+03
       193  10 -4.127251E+06 -6.246590E+05 -1.725314E+04 -1.586093E+06  2.806459E-11  3.911675E-09
       193  11 -4.075447E+06 -5.511848E+05  6.102634E+03 -1.516454E+06  2.108611E-09  4.490702E-09
       193  12 -3.946884E+06 -5.577003E+05  2.705317E+04 -1.536625E+06  7.136338E-10 -2.568562E-09
       193  13 -4.077441E+06 -6.058462E+05 -4.050625E+03 -1.572482E+06 -4.422624E-11  2.407996E-10
       193  14 -4.115893E+06 -5.663975E+05 -4.872063E+03 -1.527373E+06 -2.038306E-09 -2.977978E-09
       193  15 -4.077598E+06 -6.069442E+05 -8.114665E+03 -1.572076E+06  7.731336E-10 -9.243357E-10
       193  16 -4.027629E+06 -5.870333E+05  9.151699E+03 -1.558871E+06  1.170134E-10 -5.005486E-10
       193  17 -4.156337E+06 -5.816101E+05 -1.584692E+04 -1.538291E+06 -2.405532E-09 -3.004081E-09
       193  18 -4.208296E+06 -6.561870E+05 -4.328402E+04 -1.607521E+06 -2.038864E-09 -5.711172E-10
       193  19 -4.127251E+06 -6.246590E+05 -1.725312E+04 -1.586093E+06 -3.341761E+02 -3.070445E+03
       193  20 -4.075447E+06 -5.511848E+05  6.102666E+03 -1.516454E+06 -4.084456E+03 -4.850693E+02
       193  21 -3.946884E+06 -5.577003E+05  2.705329E+04 -1.536625E+06 -7.811696E+03  2.035649E+03
       193  22 -4.077441E+06 -6.058462E+05 -4.050610E+03 -1.572482E+06  7.696163E+02 -2.660313E+03
       193  23 -4.115893E+06 -5.663975E+05 -4.872046E+03 -1.527373E+06 -3.000641E+03 -8.225609E+01
       193  24 -4.077598E+06 -6.069441E+05 -8.114568E+03 -1.572076E+06 -6.747452E+03  2.431257E+03
       193  25 -4.027629E+06 -5.870332E+05  9.151716E+03 -1.558871E+06  1.873508E+03 -2.250144E+03
       193  26 -4.156337E+06 -5.816101E+05 -1.584691E+04 -1.538291E+06 -1.916903E+03  3.205284E+02
       193  27 -4.208296E+06 -6.561870E+05 -4.328394E+04 -1.607521E+06 -5.683455E+03  2.826771E+03
       194   1 -3.723941E+06 -4.709850E+05  8.650184E+04 -1.476082E+06  1.017729E+04 -3.530883E+03
       194   2 -3.676753E+06 -4.026650E+05  1.010024E+05 -1.412171E+06  2.013161E+04 -3.640001E+03
       194   3 -3.564953E+06 -4.175976E+05  1.055433E+05 -1.425992E+06  2.984248E+04 -3.078300E+03
       194   4 -4.079782E+06 -6.036832E+05 -1.015651E+04 -1.570895E+06  9.021463E+03 -3.960935E+03
       194   5 -4.112763E+06 -5.669394E+05 -1.733750E+04 -1.530204E+06  1.917918E+04 -3.995269E+03
       194   6 -4.081181E+06 -6.134991E+05 -3.464564E+04 -1.567250E+06  2.909213E+04 -3.359039E+03
       194   7 -4.435501E+06 -7.363748E+05 -1.068261E+05 -1.665659E+06  7.866369E+03 -4.390720E+03
       194   8 -4.548589E+06 -7.312030E+05 -1.356946E+05 -1.648161E+06  1.822748E+04 -4.350261E+03
       194   9 -4.597153E+06 -8.093848E+05 -1.748589E+05 -1.708403E+06  2.834246E+04 -3.639521E+03
       194  10 -3.723941E+06 -4.709851E+05  8.650162E+04 -1.476082E+06 -7.511367E-10 -4.839504E-09
       194  11 -3.676754E+06 -4.026651E+05  1.010016E+05 -1.412171E+06 -2.664413E-10  1.660525E-09
       194  12 -3.564954E+06 -4.175978E+05  1.055416E+05 -1.425991E+06  1.572682E-09  2.249821E-09
       194  13 -4.079782E+06 -6.036833E+05 -1.015669E+04 -1.570895E+06  9.402211E-10 -2.351534E-09
       194  14 -4.112763E+06 -5.669395E+05 -1.733823E+04 -1.530204E+06 -1.483846E-09 -1.850337E-09
       194  15 -4.081182E+06 -6.134994E+05 -3.464726E+04 -1.567250E+06 -5.284665E-10 -8.490844E-10
       194  16 -4.435501E+06 -7.363748E+05 -1.068262E+05 -1.665659E+06  2.106476E-09  1.533421E-09
       194  17 -4.548590E+06 -7.312032E+05 -1.356952E+05 -1.648161E+06  3.023766E-09  1.670592E-09
       194  18 -4.597153E+06 -8.093851E+05 -1.748605E+05 -1.708403E+06 -1.348308E-09 -2.617470E-10
       194  19 -3.723941E+06 -4.709850E+05  8.650184E+04 -1.476082E+06 -1.017729E+04  3.530883E+03
       194  20 -3.676753E+06 -4.026650E+05  1.010024E+05 -1.412171E+06 -2.013161E+04  3.640001E+03
       194  21 -3.564953E+06 -4.175976E+05  1.055433E+05 -1.425992E+06 -2.984248E+04  3.078300E+03
       194  22 -4.079782E+06 -6.036832E+05 -1.015651E+04 -1.570895E+06 -9.021463E+03  3.960935E+03
       194  23 -4.112763E+06 -5.669394E+05 -1.733750E+04 -1.530204E+06 -1.917918E+04  3.995269E+03
       194  24 -4.081181E+06 -6.134991E+05 -3.464564E+04 -1.567250E+06 -2.909213E+04  3.359039E+03
       194  25 -4.435501E+06 -7.363748E+05 -1.068261E+05 -1.665659E+06 -7.866369E+03  4.390720E+03
       194  26 -4.548589E+06 -7.312030E+05 -1.356946E+05 -1.648161E+06 -1.822748E+04  4.350261E+03
       194  27 -4.597153E+06 -8.093848E+05 -1.748589E+05 -1.708403E+06 -2.834246E+04  3.639521E+03
       195   1 -3.384104E+06 -3.393233E+05  1.464930E+05 -1.385412E+06  3.751105E+04 -2.444033E+03
       195   2 -3.344223E+06 -2.712842E+05  1.314757E+05 -1.330351E+06  7.675881E+04  9.159074E+03
       195   3 -3.294102E+06 -3.520260E+05  6.140242E+04 -1.307913E+06  1.149753E+05  2.353862E+04
       195   4 -4.089061E+06 -5.976093E+05 -4.365766E+04 -1.568654E+06  3.621041E+04 -2.930465E+03
       195   5 -4.099304E+06 -5.595480E+05 -7.413709E+04 -1.538719E+06  7.628053E+04  8.977834E+03
       195   6 -4.099521E+06 -6.705148E+05 -1.603814E+05 -1.541403E+06  1.153153E+05  2.366118E+04
       195   7 -4.793539E+06 -8.558741E+05 -2.338524E+05 -1.751709E+06  3.491140E+04 -3.416332E+03
       195   8 -4.853834E+06 -8.477754E+05 -2.798013E+05 -1.746855E+06  7.580283E+04  8.796822E+03
       195   9 -4.904311E+06 -9.889488E+05 -3.822247E+05 -1.774612E+06  1.156547E+05  2.378350E+04
       195  10 -3.384105E+06 -3.393237E+05  1.464903E+05 -1.385412E+06  3.078778E-09  2.351875E-09
       195  11 -3.344230E+06 -2.712858E+05  1.314644E+05 -1.330352E+06  1.369626E-09 -3.131814E-09
       195  12 -3.294116E+06 -3.520302E+05  6.137639E+04 -1.307915E+06  1.490275E-10  3.786085E-10
       195  13 -4.089062E+06 -5.976097E+05 -4.366016E+04 -1.568653E+06  3.933712E-10 -1.960410E-10
       195  14 -4.099311E+06 -5.595497E+05 -7.414825E+04 -1.538719E+06  1.767390E-09 -5.788051E-10
       195  15 -4.099536E+06 -6.705190E+05 -1.604076E+05 -1.541406E+06 -2.429052E-09 -1.280264E-09
       195  16 -4.793541E+06 -8.558745E+05 -2.338547E+05 -1.751709E+06 -3.196472E-09 -2.586203E-09
       195  17 -4.853840E+06 -8.477771E+05 -2.798124E+05 -1.746856E+06  4.604219E-10 -1.908358E-09
       195  18 -4.904326E+06 -9.889531E+05 -3.822511E+05 -1.774614E+06  3.431520E-10 -1.961269E-09
       195  19 -3.384104E+06 -3.393233E+05  1.464930E+05 -1.385412E+06 -3.751105E+04  2.444033E+03
       195  20 -3.344223E+06 -2.712842E+05  1.314757E+05 -1.330351E+06 -7.675881E+04 -9.159074E+03
       195  21 -3.294102E+06 -3.520260E+05  6.140242E+04 -1.307913E+06 -1.149753E+05 -2.353862E+04
       195  22 -4.089061E+06 -5.976093E+05 -4.365766E+04 -1.568654E+06 -3.621041E+04  2.930465E+03
       195  23 -4.099304E+06 -5.595480E+05 -7.413709E+04 -1.538719E+06 -7.628053E+04 -8.977834E+03
       195  24 -4.099521E+06 -6.705148E+05 -1.603814E+05 -1.541403E+06 -1.153153E+05 -2.366118E+04
       195  25 -4.793539E+06 -8.558741E+05 -2.338524E+05 -1.751709E+06 -3.491140E+04  3.416332E+03
       195  26 -4.853834E+06 -8.477754E+05 -2.798013E+05 -1.746855E+06 -7.580283E+04 -8.796822E+03
       195  27 -4.904311E+06 -9.889488E+05 -3.822247E+05 -1.774612E+06 -1.156547E+05 -2.378350E+04
       196   1 -3.166810E+06 -2.660122E+05  5.597008E+04 -1.374492E+06  1.490806E+05  3.234752E+04
       196   2 -3.103681E+06 -8.884808E+04 -5.696049E+04 -1.280032E+06  3.176177E+05  9.329372E+04
       196   3 -3.316378E+06 -6.697865E+05 -4.965767E+05 -1.016849E+06  4.793030E+05  1.724375E+05
       196   4 -4.130647E+06 -5.777105E+05 -1.954581E+05 -1.582691E+06  1.454066E+05  3.097936E+04
       196   5 -4.031527E+06 -4.705218E+05 -3.146458E+05 -1.564299E+06  3.193839E+05  9.393768E+04
       196   6 -4.209761E+06 -1.123236E+06 -7.652388E+05 -1.377060E+06  4.865128E+05  1.750531E+05
       196   7 -5.093589E+06 -8.894112E+05 -4.469624E+05 -1.790625E+06  1.417387E+05  2.961274E+04
       196   8 -4.958535E+06 -8.521008E+05 -5.724116E+05 -1.848164E+06  3.211468E+05  9.458016E+04
       196   9 -5.102332E+06 -1.576429E+06 -1.033979E+06 -1.736735E+06  4.937107E+05  1.776607E+05
       196  10 -3.166834E+06 -2.660193E+05  5.592610E+04 -1.374495E+06 -1.907807E-10 -1.767666E-10
       196  11 -3.103792E+06 -8.888475E+04 -5.716764E+04 -1.280056E+06 -2.448855E-09 -2.428566E-09
       196  12 -3.316634E+06 -6.698807E+05 -4.970672E+05 -1.016915E+06 -3.112894E-09 -1.096931E-09
       196  13 -4.130670E+06 -5.777173E+05 -1.955000E+05 -1.582695E+06 -8.155383E-10 -5.777378E-10
       196  14 -4.031639E+06 -4.705590E+05 -3.148557E+05 -1.564323E+06 -2.206873E-09 -2.258089E-09
       196  15 -4.210025E+06 -1.123333E+06 -7.657450E+05 -1.377128E+06  1.730290E-09 -1.733285E-09
       196  16 -5.093611E+06 -8.894176E+05 -4.470021E+05 -1.790629E+06 -2.496190E-09 -6.246177E-10
       196  17 -4.958649E+06 -8.521385E+05 -5.726242E+05 -1.848189E+06 -3.643876E-09  6.136906E-10
       196  18 -5.102604E+06 -1.576529E+06 -1.034501E+06 -1.736806E+06 -7.787998E-10  8.858465E-10
       196  19 -3.166810E+06 -2.660122E+05  5.597008E+04 -1.374492E+06 -1.490806E+05 -3.234752E+04
       196  20 -3.103681E+06 -8.884808E+04 -5.696049E+04 -1.280032E+06 -3.176177E+05 -9.329372E+04
       196  21 -3.316378E+06 -6.697865E+05 -4.965767E+05 -1.016849E+06 -4.793030E+05 -1.724375E+05
       196  22 -4.130647E+06 -5.777105E+05 -1.954581E+05 -1.582691E+06 -1.454066E+05 -3.097936E+04
       196  23 -4.031527E+06 -4.705218E+05 -3.146458E+05 -1.564299E+06 -3.193839E+05 -9.393768E+04
       196  24 -4.209761E+06 -1.123236E+06 -7.652388E+05 -1.377060E+06 -4.865128E+05 -1.750531E+05
       196  25 -5.093589E+06 -8.894112E+05 -4.469624E+05 -1.790625E+06 -1.417387E+05 -2.961274E+04
       196  26 -4.958535E+06 -8.521008E+05 -5.724116E+05 -1.848164E+06 -3.211468E+05 -9.458016E+04
       196  27 -5.102332E+06 -1.576429E+06 -1.033979E+06 -1.736735E+06 -4.937107E+05 -1.776607E+05
       197   1  7.299807E+05  1.929972E+05  2.863612E+05  5.441837E+04  2.803155E+05  4.660515E+03
       197   2  7.027516E+05 -1.845026E+05  5.978208E+04  2.126147E+04  1.857234E+05  1.186571E+04
       197   3  7.971579E+05 -1.278995E+05  3.465637E+03 -4.964433E+04  9.114414E+04  1.003115E+04
       197   4  1.254042E+06  3.232194E+05  4.162693E+05 -1.666416E+04  2.845117E+05  4.638466E+03
       197   5  1.193096E+06 -6.264213E+04  1.797053E+05  2.624838E+03  1.868009E+05  1.186160E+04
       197   6  1.254222E+06 -1.405444E+04  1.154644E+05 -1.583502E+04  8.910862E+04  1.003218E+04
       197   7  1.778362E+06  4.534402E+05  5.461599E+05 -8.780680E+04  2.887113E+05  4.615477E+03
       197   8  1.683661E+06  5.920197E+04  2.996111E+05 -1.602664E+04  1.878792E+05  1.185744E+04
       197   9  1.711478E+06  9.977938E+04  2.274485E+05  1.799912E+04  8.707160E+04  1.003298E+04
       197  10  7.298964E+05  1.929761E+05  2.862136E+05  5.441732E+04 -2.129107E-10  7.916498E-10
       197  11  7.027145E+05 -1.845120E+05  5.971708E+04  2.125969E+04  1.897471E-09 -6.938914E-10
       197  12  7.971490E+05 -1.279018E+05  3.449858E+03 -4.964506E+04  4.428044E-10  6.248058E-10
       197  13  1.253955E+06  3.231977E+05  4.161175E+05 -1.666522E+04 -3.992523E-10  5.441187E-10
       197  14  1.193059E+06 -6.265162E+04  1.796396E+05  2.623055E+03 -6.234792E-10 -2.985042E-09
       197  15  1.254213E+06 -1.405667E+04  1.154493E+05 -1.583574E+04  1.229259E-09  1.047913E-10
       197  16  1.778273E+06  4.534179E+05  5.460037E+05 -8.780787E+04 -1.911551E-10 -4.857681E-10
       197  17  1.683623E+06  5.919238E+04  2.995447E+05 -1.602843E+04 -1.823365E-09 -1.042353E-09
       197  18  1.711470E+06  9.977724E+04  2.274341E+05  1.799841E+04 -1.049728E-09 -8.892934E-10
       197  19  7.299807E+05  1.929972E+05  2.863612E+05  5.441837E+04 -2.803155E+05 -4.660515E+03
       197  20  7.027516E+05 -1.845026E+05  5.978208E+04  2.126147E+04 -1.857234E+05 -1.186571E+04
       197  21  7.971579E+05 -1.278995E+05  3.465637E+03 -4.964433E+04 -9.114414E+04 -1.003115E+04
       197  22  1.254042E+06  3.232194E+05  4.162693E+05 -1.666416E+04 -2.845117E+05 -4.638466E+03
       197  23  1.193096E+06 -6.264213E+04  1.797053E+05  2.624838E+03 -1.868009E+05 -1.186160E+04
       197  24  1.254222E+06 -1.405444E+04  1.154644E+05 -1.583502E+04 -8.910862E+04 -1.003218E+04
       197  25  1.778362E+06  4.534402E+05  5.461599E+05 -8.780680E+04 -2.887113E+05 -4.615477E+03
       197  26  1.683661E+06  5.920197E+04  2.996111E+05 -1.602664E+04 -1.878792E+05 -1.185744E+04
       197  27  1.711478E+06  9.977938E+04  2.274485E+05  1.799912E+04 -8.707160E+04 -1.003298E+04
       198   1  8.449901E+05 -5.405477E+04  3.098767E+02 -6.691403E+03  7.036458E+04  7.958292E+03
       198   2  8.654710E+05 -9.696538E+04 -4.066155E+04  3.215977E+03  4.644509E+04  7.799063E+03
       198   3  9.036226E+05 -8.328439E+04 -5.184000E+04 -1.963408E+04  2.252552E+04  6.702818E+03
       198   4  1.231001E+06  4.196250E+04  9.497510E+04 -1.502282E+04  7.050979E+04  7.957199E+03
       198   5  1.222160E+06 -8.238893E+03  4.671181E+04  1.385466E+03  4.626149E+04  7.798410E+03
       198   6  1.231035E+06 -1.809814E+03  2.845633E+04 -1.496229E+04  2.201424E+04  6.702344E+03
       198   7  1.617147E+06  1.379690E+05  1.896294E+05 -2.335947E+04  7.065507E+04  7.956103E+03
       198   8  1.578965E+06  8.047820E+04  1.340759E+05 -4.461307E+02  4.607778E+04  7.797758E+03
       198   9  1.558546E+06  7.965690E+04  1.087448E+05 -1.028805E+04  2.150269E+04  6.701862E+03
       198  10  8.449848E+05 -5.405616E+04  3.004662E+02 -6.691854E+03 -3.290859E-10 -4.053213E-10
       198  11  8.654686E+05 -9.696602E+04 -4.066571E+04  3.215685E+03 -1.236383E-09  8.894205E-10
       198  12  9.036220E+05 -8.328457E+04 -5.184104E+04 -1.963420E+04  1.616631E-10 -1.941779E-10
       198  13  1.230996E+06  4.196110E+04  9.496565E+04 -1.502327E+04 -6.196438E-10 -4.255518E-10
       198  14  1.222158E+06 -8.239532E+03  4.670768E+04  1.385175E+03  2.073196E-13 -1.149069E-10
       198  15  1.231035E+06 -1.809992E+03  2.845533E+04 -1.496241E+04  1.421935E-09 -1.997407E-10
       198  16  1.617142E+06  1.379676E+05  1.896200E+05 -2.335992E+04  7.023162E-10  3.782891E-10
       198  17  1.578962E+06  8.047756E+04  1.340718E+05 -4.464199E+02  5.848084E-10 -1.586970E-09
       198  18  1.558545E+06  7.965673E+04  1.087439E+05 -1.028817E+04  4.875693E-10  9.744884E-11
       198  19  8.449901E+05 -5.405477E+04  3.098767E+02 -6.691403E+03 -7.036458E+04 -7.958292E+03
       198  20  8.654710E+05 -9.696538E+04 -4.066155E+04  3.215977E+03 -4.644509E+04 -7.799063E+03
       198  21  9.036226E+05 -8.328439E+04 -5.184000E+04 -1.963408E+04 -2.252552E+04 -6.702818E+03
       198  22  1.231001E+06  4.196250E+04  9.497510E+04 -1.502282E+04 -7.050979E+04 -7.957199E+03
       198  23  1.222160E+06 -8.238893E+03  4.671181E+04  1.385466E+03 -4.626149E+04 -7.798410E+03
       198  24  1.231035E+06 -1.809814E+03  2.845633E+04 -1.496229E+04 -2.201424E+04 -6.702344E+03
       198  25  1.617147E+06  1.379690E+05  1.896294E+05 -2.335947E+04 -7.065507E+04 -7.956103E+03
       198  26  1.578965E+06  8.047820E+04  1.340759E+05 -4.461307E+02 -4.607778E+04 -7.797758E+03
       198  27  1.558546E+06  7.965690E+04  1.087448E+05 -1.028805E+04 -2.150269E+04 -6.701862E+03
       199   1  9.641043E+05 -6.018999E+04 -4.197857E+04 -1.346064E+04  1.772731E+04  5.968342E+03
       199   2  9.892683E+05 -6.006010E+04 -4.610809E+04  6.416424E+02  1.168285E+04  5.093968E+03
       199   3  1.017227E+06 -5.260064E+04 -4.443807E+04 -1.494553E+04  5.637492E+03  4.157468E+03
       199   4  1.227726E+06  5.374018E+03  2.254369E+04 -1.430141E+04  1.744984E+04  5.967972E+03
       199   5  1.226331E+06 -1.089170E+03  1.197211E+04  5.446481E+02  1.138215E+04  5.093705E+03
       199   6  1.227733E+06 -2.204973E+02  7.214292E+03 -1.429800E+04  5.313824E+03  4.157310E+03
       199   7  1.491411E+06  7.093289E+04  8.706088E+04 -1.514255E+04  1.717224E+04  5.967602E+03
       199   8  1.463445E+06  5.787761E+04  7.004820E+04  4.476109E+02  1.108134E+04  5.093442E+03
       199   9  1.438279E+06  5.215637E+04  5.886340E+04 -1.365025E+04  4.990046E+03  4.157152E+03
       199  10  9.641039E+05 -6.019011E+04 -4.197923E+04 -1.346073E+04  2.266117E-09  3.813188E-10
       199  11  9.892681E+05 -6.006017E+04 -4.610839E+04  6.415945E+02 -1.035335E-10 -4.731580E-10
       199  12  1.017227E+06 -5.260067E+04 -4.443816E+04 -1.494555E+04 -2.312539E-09 -1.444577E-10
       199  13  1.227725E+06  5.373899E+03  2.254305E+04 -1.430150E+04  2.346648E-10 -1.870607E-11
       199  14  1.226331E+06 -1.089232E+03  1.197182E+04  5.446014E+02  1.282081E-09 -4.656849E-10
       199  15  1.227733E+06 -2.205234E+02  7.214207E+03 -1.429801E+04  1.858181E-09 -7.764571E-11
       199  16  1.491410E+06  7.093278E+04  8.706026E+04 -1.514263E+04 -3.467811E-10 -1.309278E-10
       199  17  1.463445E+06  5.787755E+04  7.004792E+04  4.475655E+02  4.240610E-10 -8.222663E-10
       199  18  1.438279E+06  5.215634E+04  5.886332E+04 -1.365026E+04  9.947784E-10 -8.671486E-11
       199  19  9.641043E+05 -6.018999E+04 -4.197857E+04 -1.346064E+04 -1.772731E+04 -5.968342E+03
       199  20  9.892683E+05 -6.006010E+04 -4.610809E+04  6.416424E+02 -1.168285E+04 -5.093968E+03
       199  21  1.017227E+06 -5.260064E+04 -4.443807E+04 -1.494553E+04 -5.637492E+03 -4.157468E+03
       199  22  1.227726E+06  5.374018E+03  2.254369E+04 -1.430141E+04 -1.744984E+04 -5.967972E+03
       199  23  1.226331E+06 -1.089170E+03  1.197211E+04  5.446481E+02 -1.138215E+04 -5.093705E+03
       199  24  1.227733E+06 -2.204973E+02  7.214292E+03 -1.429800E+04 -5.313824E+03 -4.157310E+03
       199  25  1.491411E+06  7.093289E+04  8.706088E+04 -1.514255E+04 -1.717224E+04 -5.967602E+03
       199  26  1.463445E+06  5.787761E+04  7.004820E+04  4.476109E+02 -1.108134E+04 -5.093442E+03
       199  27  1.438279E+06  5.215637E+04  5.886340E+04 -1.365025E+04 -4.990046E+03 -4.157152E+03
       200   1  1.075545E+06 -3.704808E+04 -3.139586E+04 -1.381100E+04  4.453384E+03  3.610512E+03
       200   2  1.100186E+06 -3.169167E+04 -2.764787E+04  2.537837E+01  2.740646E+03  2.716414E+03
       200   3  1.125343E+06 -2.533224E+04 -2.252670E+04 -1.396422E+04  1.027518E+03  1.837399E+03
       200   4  1.227232E+06  6.675567E+02  5.687979E+03 -1.388504E+04  4.150763E+03  3.610415E+03
       200   5  1.226975E+06 -1.539032E+02  3.414486E+03  2.781170E+01  2.442724E+03  2.716369E+03
       200   6  1.227233E+06  2.673084E+01  2.510702E+03 -1.388496E+04  7.343629E+02  1.837408E+03
       200   7  1.378940E+06  3.838150E+04  4.277014E+04 -1.395910E+04  3.848069E+03  3.610318E+03
       200   8  1.353778E+06  3.138267E+04  3.447567E+04  3.024541E+01  2.144741E+03  2.716325E+03
       200   9  1.329132E+06  2.538493E+04  2.754734E+04 -1.380568E+04  4.411601E+02  1.837417E+03
       200  10  1.075545E+06 -3.704810E+04 -3.139592E+04 -1.381101E+04 -3.557509E-10  5.384352E-10
       200  11  1.100186E+06 -3.169168E+04 -2.764790E+04  2.537238E+01 -3.407181E-10  3.432154E-10
       200  12  1.125343E+06 -2.533225E+04 -2.252671E+04 -1.396423E+04  6.271313E-10 -4.496004E-10
       200  13  1.227232E+06  6.675381E+02  5.687922E+03 -1.388505E+04  6.612176E-10  1.388190E-10
       200  14  1.226975E+06 -1.539127E+02  3.414461E+03  2.780635E+01  1.837806E-09 -3.479297E-10
       200  15  1.227233E+06  2.672707E+01  2.510694E+03 -1.388496E+04  2.212134E-09 -2.119449E-10
       200  16  1.378940E+06  3.838148E+04  4.277009E+04 -1.395911E+04  1.322033E-09  4.434358E-10
       200  17  1.353778E+06  3.138266E+04  3.447564E+04  3.024072E+01 -1.160453E-09 -4.301178E-10
       200  18  1.329132E+06  2.538493E+04  2.754733E+04 -1.380568E+04  8.367706E-10 -9.655698E-11
       200  19  1.075545E+06 -3.704808E+04 -3.139586E+04 -1.381100E+04 -4.453384E+03 -3.610512E+03
       200  20  1.100186E+06 -3.169167E+04 -2.764787E+04  2.537837E+01 -2.740646E+03 -2.716414E+03
       200  21  1.125343E+06 -2.533224E+04 -2.252670E+04 -1.396422E+04 -1.027518E+03 -1.837399E+03
       200  22  1.227232E+06  6.675567E+02  5.687979E+03 -1.388504E+04 -4.150763E+03 -3.610415E+03
       200  23  1.226975E+06 -1.539032E+02  3.414486E+03  2.781170E+01 -2.442724E+03 -2.716369E+03
       200  24  1.227233E+06  2.673084E+01  2.510702E+03 -1.388496E+04 -7.343629E+02 -1.837408E+03
       200  25  1.378940E+06  3.838150E+04  4.277014E+04 -1.395910E+04 -3.848069E+03 -3.610318E+03
       200  26  1.353778E+06  3.138267E+04  3.447567E+04  3.024541E+01 -2.144741E+03 -2.716325E+03
       200  27  1.329132E+06  2.538493E+04  2.754734E+04 -1.380568E+04 -4.411601E+02 -1.837417E+03
       201   1  1.181451E+06 -1.129396E+04 -8.792959E+03 -1.366211E+04  5.903544E+02  1.329333E+03
       201   2  1.205515E+06 -5.450780E+03 -2.799738E+03 -1.860698E+02 -6.482818E+02  4.601314E+02
       201   3  1.229898E+06  1.055084E+03  4.162556E+03 -1.377790E+04 -1.887000E+03 -3.976701E+02
       201   4  1.227192E+06  6.779348E+01  2.336122E+03 -1.371659E+04  2.959258E+02  1.329366E+03
       201   5  1.227033E+06 -9.876977E+01  2.471762E+03 -1.826589E+02 -9.389270E+02  4.601717E+02
       201   6  1.227191E+06  3.968165E+02  3.573962E+03 -1.371653E+04 -2.173814E+03 -3.976210E+02
       201   7  1.272934E+06  1.142939E+04  1.346505E+04 -1.377108E+04  1.475720E+00  1.329399E+03
       201   8  1.248551E+06  5.253206E+03  7.743228E+03 -1.792479E+02 -1.229582E+03  4.602120E+02
       201   9  1.224485E+06 -2.614512E+02  2.985368E+03 -1.365517E+04 -2.460627E+03 -3.975719E+02
       201  10  1.181451E+06 -1.129396E+04 -8.792963E+03 -1.366211E+04 -7.697380E-10 -3.244448E-10
       201  11  1.205515E+06 -5.450780E+03 -2.799739E+03 -1.860695E+02  3.306993E-10 -5.503985E-12
       201  12  1.229898E+06  1.055083E+03  4.162549E+03 -1.377790E+04 -4.488784E-10 -2.277994E-10
       201  13  1.227192E+06  6.779156E+01  2.336118E+03 -1.371659E+04  2.811717E-09 -1.818024E-10
       201  14  1.227033E+06 -9.877023E+01  2.471760E+03 -1.826586E+02  1.711895E-09  4.292236E-10
       201  15  1.227191E+06  3.968150E+02  3.573953E+03 -1.371653E+04  1.708290E-09 -3.576290E-11
       201  16  1.272934E+06  1.142939E+04  1.346505E+04 -1.377108E+04  2.315897E-10  2.717650E-10
       201  17  1.248551E+06  5.253206E+03  7.743225E+03 -1.792475E+02 -6.357318E-11  4.994376E-10
       201  18  1.224485E+06 -2.614530E+02  2.985356E+03 -1.365517E+04 -7.624296E-10  5.649458E-10
       201  19  1.181451E+06 -1.129396E+04 -8.792959E+03 -1.366211E+04 -5.903544E+02 -1.329333E+03
       201  20  1.205515E+06 -5.450780E+03 -2.799738E+03 -1.860698E+02  6.482818E+02 -4.601314E+02
       201  21  1.229898E+06  1.055084E+03  4.162556E+03 -1.377790E+04  1.887000E+03  3.976701E+02
       201  22  1.227192E+06  6.779348E+01  2.336122E+03 -1.371659E+04 -2.959258E+02 -1.329366E+03
       201  23  1.227033E+06 -9.876977E+01  2.471762E+03 -1.826589E+02  9.389270E+02 -4.601717E+02
       201  24  1.227191E+06  3.968165E+02  3.573962E+03 -1.371653E+04  2.173814E+03  3.976210E+02
       201  25  1.272934E+06  1.142939E+04  1.346505E+04 -1.377108E+04 -1.475720E+00 -1.329399E+03
       201  26  1.248551E+06  5.253206E+03  7.743228E+03 -1.792479E+02  1.229582E+03 -4.602120E+02
       201  27  1.224485E+06 -2.614512E+02  2.985368E+03 -1.365517E+04  2.460627E+03  3.975719E+02
       202   1  1.285869E+06  1.442763E+04  1.876634E+04 -1.343977E+04 -2.588035E+03 -9.098033E+02
       202   2  1.309602E+06  1.999585E+04  2.735465E+04 -2.053654E+02 -6.176586E+03 -1.782640E+03
       202   3  1.334880E+06  2.982691E+04  3.934376E+04 -1.435014E+04 -9.765136E+03 -2.599132E+03
       202   4  1.227462E+06 -1.138047E+02  4.384115E+03 -1.378585E+04 -2.891182E+03 -9.097598E+02
       202   5  1.226690E+06 -6.250644E+02  7.045858E+03 -9.613299E+01 -6.460351E+03 -1.782636E+03
       202   6  1.227459E+06  3.123460E+03  1.309531E+04 -1.378580E+04 -1.002938E+04 -2.599168E+03
       202   7  1.169059E+06 -1.465549E+04 -9.998361E+03 -1.413190E+04 -3.194300E+03 -9.097160E+02
       202   8  1.143784E+06 -2.124649E+04 -1.326343E+04  1.308490E+01 -6.744079E+03 -1.782632E+03
       202   9  1.120047E+06 -2.358083E+04 -1.315399E+04 -1.322155E+04 -1.029358E+04 -2.599204E+03
       202  10  1.285869E+06  1.442762E+04  1.876633E+04 -1.343978E+04  1.719698E-09 -1.470993E-10
       202  11  1.309602E+06  1.999584E+04  2.735457E+04 -2.053742E+02 -3.202858E-09 -2.062171E-10
       202  12  1.334880E+06  2.982687E+04  3.934357E+04 -1.435016E+04 -2.918258E-10 -1.119065E-10
       202  13  1.227462E+06 -1.138079E+02  4.384097E+03 -1.378586E+04 -6.353368E-10  4.531656E-10
       202  14  1.226690E+06 -6.250790E+02  7.045773E+03 -9.614226E+01 -2.568416E-09  1.288232E-10
       202  15  1.227458E+06  3.123426E+03  1.309510E+04 -1.378582E+04  1.776934E-11 -1.689788E-10
       202  16  1.169059E+06 -1.465549E+04 -9.998382E+03 -1.413191E+04 -7.480463E-11  7.082475E-10
       202  17  1.143784E+06 -2.124650E+04 -1.326353E+04  1.307522E+01  1.780912E-09  7.630412E-10
       202  18  1.120047E+06 -2.358087E+04 -1.315420E+04 -1.322157E+04 -9.897347E-10 -6.569339E-10
       202  19  1.285869E+06  1.442763E+04  1.876634E+04 -1.343977E+04  2.588035E+03  9.098033E+02
       202  20  1.309602E+06  1.999585E+04  2.735465E+04 -2.053654E+02  6.176586E+03  1.782640E+03
       202  21  1.334880E+06  2.982691E+04  3.934376E+04 -1.435014E+04  9.765136E+03  2.599132E+03
       202  22  1.227462E+06 -1.138047E+02  4.384115E+03 -1.378585E+04  2.891182E+03  9.097598E+02
       202  23  1.226690E+06 -6.250644E+02  7.045858E+03 -9.613299E+01  6.460351E+03  1.782636E+03
       202  24  1.227459E+06  3.123460E+03  1.309531E+04 -1.378580E+04  1.002938E+04  2.599168E+03
       202  25  1.169059E+06 -1.465549E+04 -9.998361E+03 -1.413190E+04  3.194300E+03  9.097160E+02
       202  26  1.143784E+06 -2.124649E+04 -1.326343E+04  1.308490E+01  6.744079E+03  1.782632E+03
       202  27  1.120047E+06 -2.358083E+04 -1.315399E+04 -1.322155E+04  1.029358E+04  2.599204E+03
       203   1  1.394234E+06  3.998768E+04  5.694612E+04 -1.149879E+04 -1.225803E+04 -3.217036E+03
       203   2  1.414918E+06  4.265043E+04  7.370312E+04 -9.097223E+02 -2.649995E+04 -4.157803E+03
       203   3  1.445750E+06  7.808841E+04  1.079329E+05 -1.909859E+04 -4.074235E+04 -4.474186E+03
       203   4  1.229362E+06 -1.029877E+03  1.649206E+04 -1.409402E+04 -1.267684E+04 -3.217066E+03
       203   5  1.224295E+06 -4.752951E+03  2.702628E+04  2.903860E+02 -2.670482E+04 -4.157987E+03
       203   6  1.229342E+06  2.426777E+04  5.488906E+04 -1.410354E+04 -4.073268E+04 -4.474612E+03
       203   7  1.064515E+06 -4.204942E+04 -2.396400E+04 -1.668857E+04 -1.309554E+04 -3.217092E+03
       203   8  1.033705E+06 -5.215901E+04 -1.965321E+04  1.490124E+03 -2.690962E+04 -4.158173E+03
       203   9  1.012977E+06 -2.955623E+04  1.841823E+03 -9.110225E+03 -4.072302E+04 -4.475039E+03
       203  10  1.394234E+06  3.998763E+04  5.694582E+04 -1.149882E+04  5.799634E-10  3.299255E-10
       203  11  1.414917E+06  4.265022E+04  7.370177E+04 -9.098110E+02 -6.954810E-10  2.414563E-10
       203  12  1.445748E+06  7.808794E+04  1.079297E+05 -1.909874E+04 -3.112938E-10 -6.022326E-10
       203  13  1.229362E+06 -1.029931E+03  1.649174E+04 -1.409405E+04  9.254706E-11 -1.439557E-10
       203  14  1.224294E+06 -4.753160E+03  2.702491E+04  2.902966E+02  2.371665E-10  5.319754E-11
       203  15  1.229340E+06  2.426731E+04  5.488591E+04 -1.410368E+04  2.778011E-10 -3.814525E-10
       203  16  1.064515E+06 -4.204948E+04 -2.396434E+04 -1.668860E+04  4.499374E-10 -7.118095E-10
       203  17  1.033704E+06 -5.215922E+04 -1.965460E+04  1.490034E+03  4.708874E-10 -3.037486E-11
       203  18  1.012975E+06 -2.955670E+04  1.838674E+03 -9.110372E+03  2.072030E-09  2.069713E-10
       203  19  1.394234E+06  3.998768E+04  5.694612E+04 -1.149879E+04  1.225803E+04  3.217036E+03
       203  20  1.414918E+06  4.265043E+04  7.370312E+04 -9.097223E+02  2.649995E+04  4.157803E+03
       203  21  1.445750E+06  7.808841E+04  1.079329E+05 -1.909859E+04  4.074235E+04  4.474186E+03
       203  22  1.229362E+06 -1.029877E+03  1.649206E+04 -1.409402E+04  1.267684E+04  3.217066E+03
       203  23  1.224295E+06 -4.752951E+03  2.702628E+04  2.903860E+02  2.670482E+04  4.157987E+03
       203  24  1.229342E+06  2.426777E+04  5.488906E+04 -1.410354E+04  4.073268E+04  4.474612E+03
       203  25  1.064515E+06 -4.204942E+04 -2.396400E+04 -1.668857E+04  1.309554E+04  3.217092E+03
       203  26  1.033705E+06 -5.215901E+04 -1.965321E+04  1.490124E+03  2.690962E+04  4.158173E+03
       203  27  1.012977E+06 -2.955623E+04  1.841823E+03 -9.110225E+03  4.072302E+04  4.475039E+03
       204   1  1.520573E+06  6.101638E+04  1.347770E+05  4.702898E+03 -5.006338E+04 -5.943610E+03
       204   2  1.513330E+06  3.981708E+04  1.785916E+05 -1.004887E+04 -1.085400E+05 -7.265389E+03
       204   3  1.576776E+06  2.699519E+05  3.233084E+05 -5.623692E+04 -1.670233E+05 -2.654690E+03
       204   4  1.242752E+06 -8.099495E+03  6.671984E+04 -1.462698E+04 -5.147940E+04 -5.942987E+03
       204   5  1.207510E+06 -3.618613E+04  1.038308E+05  9.897874E+02 -1.079362E+05 -7.267079E+03
       204   6  1.242640E+06  1.867745E+05  2.404793E+05 -1.482821E+04 -1.643968E+05 -2.663120E+03
       204   7  9.650023E+05 -7.721968E+04 -1.342750E+03 -3.394821E+04 -5.289479E+04 -5.942276E+03
       204   8  9.017747E+05 -1.121958E+05  2.906333E+04  1.202299E+04 -1.073327E+05 -7.268748E+03
       204   9  9.086088E+05  1.035952E+05  1.576429E+05  2.655822E+04 -1.617718E+05 -2.671204E+03
       204  10  1.520570E+06  6.101567E+04  1.347722E+05  4.702658E+03  4.651964E-10 -4.742210E-10
       204  11  1.513317E+06  3.981387E+04  1.785694E+05 -1.004951E+04  1.492598E-09  7.909006E-10
       204  12  1.576746E+06  2.699444E+05  3.232561E+05 -5.623728E+04  1.671750E-09  8.614304E-10
       204  13  1.242749E+06 -8.100242E+03  6.671480E+04 -1.462722E+04  1.453909E-09 -1.112827E-09
       204  14  1.207497E+06 -3.618930E+04  1.038089E+05  9.891560E+02 -1.608560E-09  7.722052E-10
       204  15  1.242611E+06  1.867673E+05  2.404286E+05 -1.482856E+04  1.586682E-09 -1.458606E-10
       204  16  9.649993E+05 -7.722047E+04 -1.348066E+03 -3.394846E+04 -5.358813E-10  1.983134E-10
       204  17  9.017623E+05 -1.121989E+05  2.904162E+04  1.202237E+04 -3.337549E-09  1.769560E-10
       204  18  9.085807E+05  1.035882E+05  1.575937E+05  2.655788E+04 -8.970398E-10  1.122941E-09
       204  19  1.520573E+06  6.101638E+04  1.347770E+05  4.702898E+03  5.006338E+04  5.943610E+03
       204  20  1.513330E+06  3.981708E+04  1.785916E+05 -1.004887E+04  1.085400E+05  7.265389E+03
       204  21  1.576776E+06  2.699519E+05  3.233084E+05 -5.623692E+04  1.670233E+05  2.654690E+03
       204  22  1.242752E+06 -8.099495E+03  6.671984E+04 -1.462698E+04  5.147940E+04  5.942987E+03
       204  23  1.207510E+06 -3.618613E+04  1.038308E+05  9.897874E+02  1.079362E+05  7.267079E+03
       204  24  1.242640E+06  1.867745E+05  2.404793E+05 -1.482821E+04  1.643968E+05  2.663120E+03
       204  25  9.650023E+05 -7.721968E+04 -1.342750E+03 -3.394821E+04  5.289479E+04  5.942276E+03
       204  26  9.017747E+05 -1.121958E+05  2.906333E+04  1.202299E+04  1.073327E+05  7.268748E+03
       204  27  9.086088E+05  1.035952E+05  1.576429E+05  2.655822E+04  1.617718E+05  2.671204E+03
       205   1  6.720667E+05  2.000965E+06  6.464297E+05 -7.435296E+05  2.432479E+04  2.159120E+05
       205   2  4.612692E+05  1.413602E+06  3.940866E+05 -6.664524E+05  7.630591E+04  8.220897E+04
       205   3  3.064409E+05  8.573984E+05  2.425651E+05 -6.915886E+05  7.397040E+04 -5.150253E+04
       205   4  7.806630E+04 -4.026420E+05  7.985391E+04 -6.876176E+05  2.498723E+04  5.321334E+04
       205   5  2.649066E+04 -4.080288E+05  4.192645E+04 -6.366446E+05  7.653627E+04  3.200537E+04
       205   6  1.149726E+04 -4.019714E+05  2.690426E+04 -6.878788E+05  7.370609E+04  1.065984E+04
       205   7 -5.163225E+05 -2.800882E+06 -4.870199E+05 -6.319150E+05  2.562200E+04 -1.088608E+05
       205   8 -4.084814E+05 -2.226467E+06 -3.103790E+05 -6.069214E+05  7.676225E+04 -1.805459E+04
       205   9 -2.835289E+05 -1.659775E+06 -1.887952E+05 -6.841743E+05  7.344218E+04  7.270020E+04
       205  10  6.720536E+05  2.000915E+06  6.463413E+05 -7.435338E+05  1.785148E-09 -6.080775E-08
       205  11  4.612612E+05  1.413593E+06  3.940630E+05 -6.664574E+05  2.151938E-09 -1.420404E-09
       205  12  3.064343E+05  8.573941E+05  2.425499E+05 -6.915855E+05  8.979370E-10  6.243976E-08
       205  13  7.806487E+04 -4.026452E+05  7.984741E+04 -6.876186E+05  2.357005E-09  3.041634E-09
       205  14  2.648410E+04 -4.080315E+05  4.191350E+04 -6.366466E+05  3.443871E-09  3.107830E-11
       205  15  1.149140E+04 -4.019730E+05  2.689384E+04 -6.878794E+05  4.101313E-09  1.546697E-09
       205  16 -5.163264E+05 -2.800895E+06 -4.870435E+05 -6.319127E+05  1.660639E-09  5.914376E-08
       205  17 -4.084878E+05 -2.226469E+06 -3.103907E+05 -6.069203E+05  5.821873E-09  1.479514E-09
       205  18 -2.835361E+05 -1.659782E+06 -1.888153E+05 -6.841787E+05  1.972243E-09 -6.455639E-08
       205  19  6.720667E+05  2.000965E+06  6.464297E+05 -7.435296E+05 -2.432479E+04 -2.159120E+05
       205  20  4.612692E+05  1.413602E+06  3.940866E+05 -6.664524E+05 -7.630591E+04 -8.220897E+04
       205  21  3.064409E+05  8.573984E+05  2.425651E+05 -6.915886E+05 -7.397040E+04  5.150253E+04
       205  22  7.806630E+04 -4.026420E+05  7.985391E+04 -6.876176E+05 -2.498723E+04 -5.321334E+04
       205  23  2.649066E+04 -4.080288E+05  4.192645E+04 -6.366446E+05 -7.653627E+04 -3.200537E+04
       205  24  1.149726E+04 -4.019714E+05  2.690426E+04 -6.878788E+05 -7.370609E+04 -1.065984E+04
       205  25 -5.163225E+05 -2.800882E+06 -4.870199E+05 -6.319150E+05 -2.562200E+04  1.088608E+05
       205  26 -4.084814E+05 -2.226467E+06 -3.103790E+05 -6.069214E+05 -7.676225E+04  1.805459E+04
       205  27 -2.835289E+05 -1.659775E+06 -1.887952E+05 -6.841743E+05 -7.344218E+04 -7.270020E+04
       206   1  2.202302E+05  4.924232E+05  1.749550E+05 -6.946942E+05  5.431102E+04 -5.497153E+04
       206   2  8.315879E+04 -8.053078E+04  7.196980E+04 -6.361777E+05  2.372219E+04 -6.949820E+04
       206   3 -4.572089E+04 -6.500668E+05 -1.976392E+04 -6.834976E+05 -8.458251E+03 -8.402425E+04
       206   4  1.067220E+04 -4.038079E+05  2.354856E+04 -6.886683E+05  5.403646E+04  6.675347E+03
       206   5  8.309454E+03 -4.050083E+05  2.227212E+04 -6.357451E+05  2.342674E+04 -4.584624E+03
       206   6  1.358633E+04 -4.036821E+05  2.997453E+04 -6.886570E+05 -8.775219E+03 -1.585637E+04
       206   7 -1.989260E+05 -1.299240E+06 -1.278693E+05 -6.826502E+05  5.376284E+04  6.823616E+04
       206   8 -6.654270E+04 -7.293713E+05 -2.741201E+04 -6.353126E+05  2.313128E+04  6.029634E+04
       206   9  7.289237E+04 -1.572295E+05  7.972736E+04 -6.938185E+05 -9.093243E+03  5.233806E+04
       206  10  2.202263E+05  4.924191E+05  1.749438E+05 -6.946918E+05  1.125361E-09  1.062149E-09
       206  11  8.315689E+04 -8.053611E+04  7.195968E+04 -6.361764E+05  1.468561E-09 -2.231979E-09
       206  12 -4.572287E+04 -6.500744E+05 -1.977734E+04 -6.834982E+05 -2.131485E-09 -4.913424E-11
       206  13  1.066905E+04 -4.038088E+05  2.354299E+04 -6.886686E+05  8.981294E-10  2.897146E-09
       206  14  8.308860E+03 -4.050084E+05  2.227105E+04 -6.357450E+05 -2.064321E-09  8.077559E-10
       206  15  1.358618E+04 -4.036824E+05  2.997391E+04 -6.886571E+05 -1.018825E-09  1.976131E-09
       206  16 -1.989304E+05 -1.299246E+06 -1.278835E+05 -6.826532E+05  1.421689E-09 -3.361364E-09
       206  17 -6.654425E+04 -7.293754E+05 -2.741986E+04 -6.353137E+05 -2.177168E-09  1.360070E-09
       206  18  7.289154E+04 -1.572325E+05  7.972205E+04 -6.938181E+05  5.045625E-10 -1.778410E-09
       206  19  2.202302E+05  4.924232E+05  1.749550E+05 -6.946942E+05 -5.431102E+04  5.497153E+04
       206  20  8.315879E+04 -8.053078E+04  7.196980E+04 -6.361777E+05 -2.372219E+04  6.949820E+04
       206  21 -4.572089E+04 -6.500668E+05 -1.976392E+04 -6.834976E+05  8.458251E+03  8.402425E+04
       206  22  1.067220E+04 -4.038079E+05  2.354856E+04 -6.886683E+05 -5.403646E+04 -6.675347E+03
       206  23  8.309454E+03 -4.050083E+05  2.227212E+04 -6.357451E+05 -2.342674E+04  4.584624E+03
       206  24  1.358633E+04 -4.036821E+05  2.997453E+04 -6.886570E+05  8.775219E+03  1.585637E+04
       206  25 -1.989260E+05 -1.299240E+06 -1.278693E+05 -6.826502E+05 -5.376284E+04 -6.823616E+04
       206  26 -6.654270E+04 -7.293713E+05 -2.741201E+04 -6.353126E+05 -2.313128E+04 -6.029634E+04
       206  27  7.289237E+04 -1.572295E+05  7.972736E+04 -6.938185E+05  9.093243E+03 -5.233806E+04
       207   1 -1.289735E+05 -1.008662E+06 -7.490003E+04 -6.866719E+05 -2.950047E+04 -8.950740E+04
       207   2 -2.424610E+05 -1.581020E+06 -1.721854E+05 -5.947305E+05 -4.277289E+04 -3.862586E+04
       207   3 -3.141069E+05 -2.149893E+06 -2.923706E+05 -6.061033E+05 -1.561112E+04  1.232713E+04
       207   4  1.518376E+04 -4.003887E+05  3.708113E+04 -6.881175E+05 -2.981480E+04 -2.101771E+04
       207   5  3.965640E+04 -4.094019E+05  6.342141E+04 -6.362718E+05 -4.269865E+04 -5.346887E+04
       207   6  1.204097E+05 -4.008086E+05  1.247649E+05 -6.876905E+05 -1.519008E+04 -8.580256E+04
       207   7  1.593225E+05  2.082537E+05  1.490647E+05 -6.895640E+05 -3.012924E+04  4.753742E+04
       207   8  3.216950E+05  7.635311E+05  2.989597E+05 -6.778911E+05 -4.262252E+04 -6.833933E+04
       207   9  5.547336E+05  1.351123E+06  5.417248E+05 -7.695048E+05 -1.474391E+04 -1.842079E+05
       207  10 -1.289766E+05 -1.008670E+06 -7.491676E+04 -6.866740E+05 -5.198330E-10 -4.386954E-11
       207  11 -2.424634E+05 -1.581022E+06 -1.721916E+05 -5.947319E+05  1.526565E-09 -2.226634E-09
       207  12 -3.141072E+05 -2.149893E+06 -2.923713E+05 -6.061032E+05 -2.812925E-10 -4.950218E-10
       207  13  1.518269E+04 -4.003894E+05  3.707863E+04 -6.881180E+05  1.170058E-09  3.488387E-09
       207  14  3.965367E+04 -4.094055E+05  6.341259E+04 -6.362736E+05 -4.058835E-09 -4.292620E-10
       207  15  1.204075E+05 -4.008166E+05  1.247506E+05 -6.876915E+05  4.848030E-10  1.970928E-09
       207  16  1.593209E+05  2.082510E+05  1.490587E+05 -6.895629E+05 -6.680851E-10 -1.339849E-09
       207  17  3.216918E+05  7.635256E+05  2.989475E+05 -6.778935E+05  2.159945E-09  1.251293E-09
       207  18  5.547243E+05  1.351087E+06  5.416607E+05 -7.695070E+05  6.684260E-10 -1.598083E-09
       207  19 -1.289735E+05 -1.008662E+06 -7.490003E+04 -6.866719E+05  2.950047E+04  8.950740E+04
       207  20 -2.424610E+05 -1.581020E+06 -1.721854E+05 -5.947305E+05  4.277289E+04  3.862586E+04
       207  21 -3.141069E+05 -2.149893E+06 -2.923706E+05 -6.061033E+05  1.561112E+04 -1.232713E+04
       207  22  1.518376E+04 -4.003887E+05  3.708113E+04 -6.881175E+05  2.981480E+04  2.101771E+04
       207  23  3.965640E+04 -4.094019E+05  6.342141E+04 -6.362718E+05  4.269865E+04  5.346887E+04
       207  24  1.204097E+05 -4.008086E+05  1.247649E+05 -6.876905E+05  1.519008E+04  8.580256E+04
       207  25  1.593225E+05  2.082537E+05  1.490647E+05 -6.895640E+05  3.012924E+04 -4.753742E+04
       207  26  3.216950E+05  7.635311E+05  2.989597E+05 -6.778911E+05  4.262252E+04  6.833933E+04
       207  27  5.547336E+05  1.351123E+06  5.417248E+05 -7.695048E+05  1.474391E+04  1.842079E+05
       208   1 -2.625527E+06 -1.023190E+06 -5.361327E+05 -9.775745E+05 -1.880785E+05 -3.365020E+04
       208   2 -2.440960E+06 -9.510052E+05 -3.931901E+05 -9.203628E+05 -1.214106E+05  7.965357E+04
       208   3 -2.245644E+06 -9.054127E+05 -3.219812E+05 -8.939036E+05 -3.399947E+04  1.382454E+05
       208   4 -3.584378E+05 -1.923189E+05  3.937100E+04 -3.770025E+05  1.319626E+04  4.233844E+04
       208   5 -3.762987E+05 -2.044790E+05  1.854766E+04 -3.559216E+05 -2.544339E+04  1.158089E+05
       208   6 -3.624897E+05 -2.223127E+05  9.721540E+03 -3.656020E+05 -4.341217E+04  1.346516E+05
       208   7  1.913686E+06  6.388301E+05  6.146149E+05  2.255376E+05  2.152725E+05  1.186121E+05
       208   8  1.692775E+06  5.423945E+05  4.301161E+05  2.102508E+05  7.086710E+04  1.520898E+05
       208   9  1.524456E+06  4.611497E+05  3.413217E+05  1.642111E+05 -5.285565E+04  1.310462E+05
       208  10 -2.625566E+06 -1.023201E+06 -5.362016E+05 -9.775796E+05  2.633441E-09  6.838234E-10
       208  11 -2.440977E+06 -9.510160E+05 -3.932298E+05 -9.203550E+05  3.472639E-09 -4.010913E-10
       208  12 -2.245650E+06 -9.054335E+05 -3.220193E+05 -8.938998E+05  1.256855E-09 -1.034708E-09
       208  13 -3.584385E+05 -1.923209E+05  3.936730E+04 -3.770029E+05 -2.948478E-10 -7.435882E-10
       208  14 -3.763030E+05 -2.044936E+05  1.852125E+04 -3.559192E+05  3.935066E-09 -3.558514E-09
       208  15 -3.624966E+05 -2.223327E+05  9.683935E+03 -3.655973E+05  3.379211E-09 -2.767397E-10
       208  16  1.913633E+06  6.388026E+05  6.145017E+05  2.255170E+05 -1.788182E-09 -2.050245E-09
       208  17  1.692763E+06  5.423684E+05  4.300633E+05  2.102421E+05 -5.248833E-10 -1.958236E-09
       208  18  1.524448E+06  4.611306E+05  3.412842E+05  1.642167E+05  1.049501E-09  1.369849E-09
       208  19 -2.625527E+06 -1.023190E+06 -5.361327E+05 -9.775745E+05  1.880785E+05  3.365020E+04
       208  20 -2.440960E+06 -9.510052E+05 -3.931901E+05 -9.203628E+05  1.214106E+05 -7.965357E+04
       208  21 -2.245644E+06 -9.054127E+05 -3.219812E+05 -8.939036E+05  3.399947E+04 -1.382454E+05
       208  22 -3.584378E+05 -1.923189E+05  3.937100E+04 -3.770025E+05 -1.319626E+04 -4.233844E+04
       208  23 -3.762987E+05 -2.044790E+05  1.854766E+04 -3.559216E+05  2.544339E+04 -1.158089E+05
       208  24 -3.624897E+05 -2.223127E+05  9.721540E+03 -3.656020E+05  4.341217E+04 -1.346516E+05
       208  25  1.913686E+06  6.388301E+05  6.146149E+05  2.255376E+05 -2.152725E+05 -1.186121E+05
       208  26  1.692775E+06  5.423945E+05  4.301161E+05  2.102508E+05 -7.086710E+04 -1.520898E+05
       208  27  1.524456E+06  4.611497E+05  3.413217E+05  1.642111E+05  5.285565E+04 -1.310462E+05
       209   1 -2.128675E+06 -8.607594E+05 -2.978148E+05 -8.605012E+05 -3.725163E+04  1.320406E+05
       209   2 -1.958913E+06 -7.810812E+05 -2.588070E+05 -7.949121E+05 -2.628084E+04  1.296572E+05
       209   3 -1.764079E+06 -7.284605E+05 -2.264901E+05 -7.593280E+05 -1.322945E+04  1.217218E+05
       209   4 -3.629064E+05 -2.231380E+05  7.243798E+03 -3.666987E+05 -4.286736E+04  1.298824E+05
       209   5 -3.764762E+05 -2.113414E+05  3.748709E+03 -3.513962E+05 -4.259219E+04  1.234825E+05
       209   6 -3.628904E+05 -2.244769E+05  2.055192E+03 -3.661054E+05 -4.024217E+04  1.115377E+05
       209   7  1.406178E+06  4.147907E+05  3.122118E+05  1.284205E+05 -4.850023E+04  1.277177E+05
       209   8  1.208631E+06  3.586495E+05  2.662429E+05  9.318022E+04 -5.894776E+04  1.172912E+05
       209   9  1.040390E+06  2.797035E+05  2.305561E+05  2.794861E+04 -6.731943E+04  1.013294E+05
       209  10 -2.128682E+06 -8.607785E+05 -2.978502E+05 -8.604972E+05  1.084988E-09 -7.245963E-10
       209  11 -1.958918E+06 -7.810994E+05 -2.588399E+05 -7.949094E+05  2.926711E-10  1.640833E-09
       209  12 -1.764083E+06 -7.284764E+05 -2.265183E+05 -7.593267E+05  1.895983E-09  7.075115E-10
       209  13 -3.629128E+05 -2.231566E+05  7.208652E+03 -3.666942E+05 -1.504827E-11  2.718231E-10
       209  14 -3.764823E+05 -2.113582E+05  3.716655E+03 -3.513919E+05 -2.305241E-09 -5.502678E-10
       209  15 -3.628955E+05 -2.244907E+05  2.028777E+03 -3.661018E+05 -4.945677E-10 -5.258232E-10
       209  16  1.406171E+06  4.147726E+05  3.121767E+05  1.284254E+05 -4.657080E-10  1.896621E-09
       209  17  1.208624E+06  3.586338E+05  2.662105E+05  9.318579E+04  4.470430E-10  1.335797E-09
       209  18  1.040383E+06  2.796912E+05  2.305283E+05  2.795410E+04  9.173221E-10 -6.028244E-10
       209  19 -2.128675E+06 -8.607594E+05 -2.978148E+05 -8.605012E+05  3.725163E+04 -1.320406E+05
       209  20 -1.958913E+06 -7.810812E+05 -2.588070E+05 -7.949121E+05  2.628084E+04 -1.296572E+05
       209  21 -1.764079E+06 -7.284605E+05 -2.264901E+05 -7.593280E+05  1.322945E+04 -1.217218E+05
       209  22 -3.629064E+05 -2.231380E+05  7.243798E+03 -3.666987E+05  4.286736E+04 -1.298824E+05
       209  23 -3.764762E+05 -2.113414E+05  3.748709E+03 -3.513962E+05  4.259219E+04 -1.234825E+05
       209  24 -3.628904E+05 -2.244769E+05  2.055192E+03 -3.661054E+05  4.024217E+04 -1.115377E+05
       209  25  1.406178E+06  4.147907E+05  3.122118E+05  1.284205E+05  4.850023E+04 -1.277177E+05
       209  26  1.208631E+06  3.586495E+05  2.662429E+05  9.318022E+04  5.894776E+04 -1.172912E+05
       209  27  1.040390E+06  2.797035E+05  2.305561E+05  2.794861E+04  6.731943E+04 -1.013294E+05
       210   1 -1.648175E+06 -6.862804E+05 -2.067999E+05 -7.268003E+05 -1.074711E+04  1.131637E+05
       210   2 -1.479162E+06 -6.071665E+05 -1.772632E+05 -6.604875E+05 -4.734737E+03  9.931833E+04
       210   3 -1.283607E+06 -5.546547E+05 -1.482360E+05 -6.244017E+05  1.479650E+03  8.490166E+04
       210   4 -3.628863E+05 -2.244638E+05  1.524285E+03 -3.662586E+05 -3.739238E+04  1.031266E+05
       210   5 -3.761501E+05 -2.111260E+05  7.991262E+02 -3.511614E+05 -3.248264E+04  8.887951E+04
       210   6 -3.626981E+05 -2.241750E+05  4.319224E+02 -3.663027E+05 -2.737134E+04  7.406158E+04
       210   7  9.241935E+05  2.375296E+05  2.098208E+05 -5.009615E+03 -6.409659E+04  9.306741E+04
       210   8  7.281773E+05  1.850433E+05  1.788415E+05 -4.131560E+04 -6.028308E+04  7.842096E+04
       210   9  5.591235E+05  1.063929E+05  1.490860E+05 -1.078428E+05 -5.626778E+04  6.320445E+04
       210  10 -1.648179E+06 -6.862942E+05 -2.068242E+05 -7.267993E+05 -9.456850E-09 -2.319942E-09
       210  11 -1.479164E+06 -6.071771E+05 -1.772818E+05 -6.604872E+05  1.936038E-08  8.313013E-09
       210  12 -1.283609E+06 -5.546624E+05 -1.482495E+05 -6.244018E+05  4.968148E-08  2.034981E-08
       210  13 -3.628906E+05 -2.244756E+05  1.501678E+03 -3.662555E+05 -7.896293E-10 -3.308574E-10
       210  14 -3.761533E+05 -2.111348E+05  7.823031E+02 -3.511591E+05  2.532383E-09 -2.055449E-10
       210  15 -3.627004E+05 -2.241811E+05  4.202101E+02 -3.663011E+05  7.239882E-09  3.921648E-09
       210  16  9.241867E+05  2.375192E+05  2.097969E+05 -5.004814E+03  8.870711E-09  2.274175E-09
       210  17  7.281717E+05  1.850357E+05  1.788231E+05 -4.131179E+04 -1.873059E-08 -7.479392E-09
       210  18  5.591190E+05  1.063878E+05  1.490725E+05 -1.078399E+05 -3.597298E-08 -1.339208E-08
       210  19 -1.648175E+06 -6.862804E+05 -2.067999E+05 -7.268003E+05  1.074711E+04 -1.131637E+05
       210  20 -1.479162E+06 -6.071665E+05 -1.772632E+05 -6.604875E+05  4.734737E+03 -9.931833E+04
       210  21 -1.283607E+06 -5.546547E+05 -1.482360E+05 -6.244017E+05 -1.479650E+03 -8.490166E+04
       210  22 -3.628863E+05 -2.244638E+05  1.524285E+03 -3.662586E+05  3.739238E+04 -1.031266E+05
       210  23 -3.761501E+05 -2.111260E+05  7.991262E+02 -3.511614E+05  3.248264E+04 -8.887951E+04
       210  24 -3.626981E+05 -2.241750E+05  4.319224E+02 -3.663027E+05  2.737134E+04 -7.406158E+04
       210  25  9.241935E+05  2.375296E+05  2.098208E+05 -5.009615E+03  6.409659E+04 -9.306741E+04
       210  26  7.281773E+05  1.850433E+05  1.788415E+05 -4.131560E+04  6.028308E+04 -7.842096E+04
       210  27  5.591235E+05  1.063929E+05  1.490860E+05 -1.078428E+05  5.626778E+04 -6.320445E+04
       211   1 -1.167619E+06 -5.127796E+05 -1.287822E+05 -5.919520E+05  4.669264E+03  7.614476E+04
       211   2 -9.982873E+05 -4.339267E+05 -9.992856E+04 -5.255813E+05  1.035590E+04  6.119725E+04
       211   3 -8.023469E+05 -3.816100E+05 -7.110865E+04 -4.895398E+05  1.605711E+04  4.619039E+04
       211   4 -3.626712E+05 -2.241201E+05  3.008680E+02 -3.663387E+05 -2.415665E+04  6.532017E+04
       211   5 -3.759148E+05 -2.107538E+05  1.030116E+02 -3.511916E+05 -1.858681E+04  5.033630E+04
       211   6 -3.625636E+05 -2.239036E+05 -4.056013E+01 -3.663862E+05 -1.300236E+04  3.529300E+04
       211   7  4.429656E+05  6.460356E+04  1.293722E+05 -1.404520E+05 -5.302190E+04  5.448081E+04
       211   8  2.468757E+05  1.245982E+04  1.001304E+05 -1.766369E+05 -4.756029E+04  3.946381E+04
       211   9  7.743418E+04 -6.617482E+04  7.102851E+04 -2.431488E+05 -4.208399E+04  2.438730E+04
       211  10 -1.167620E+06 -5.127859E+05 -1.287932E+05 -5.919523E+05 -3.473650E-08 -1.296262E-08
       211  11 -9.982885E+05 -4.339308E+05 -9.993581E+04 -5.255818E+05 -1.761069E-08 -7.102360E-09
       211  12 -8.023477E+05 -3.816123E+05 -7.111315E+04 -4.895404E+05  7.069095E-09  2.642324E-09
       211  13 -3.626730E+05 -2.241249E+05  2.917559E+02 -3.663374E+05  7.826577E-09  3.730669E-09
       211  14 -3.759159E+05 -2.107566E+05  9.760250E+01 -3.511908E+05  1.335614E-11  6.628623E-10
       211  15 -3.625641E+05 -2.239050E+05 -4.321783E+01 -3.663859E+05 -9.035008E-11 -5.497949E-10
       211  16  4.429618E+05  6.459962E+04  1.293613E+05 -1.404496E+05  5.011703E-08  2.058778E-08
       211  17  2.468729E+05  1.245754E+04  1.001232E+05 -1.766354E+05  1.717518E-08  8.827256E-09
       211  18  7.743212E+04 -6.617593E+04  7.102406E+04 -2.431480E+05 -1.058899E-08 -3.400252E-09
       211  19 -1.167619E+06 -5.127796E+05 -1.287822E+05 -5.919520E+05 -4.669264E+03 -7.614476E+04
       211  20 -9.982873E+05 -4.339267E+05 -9.992856E+04 -5.255813E+05 -1.035590E+04 -6.119725E+04
       211  21 -8.023469E+05 -3.816100E+05 -7.110865E+04 -4.895398E+05 -1.605711E+04 -4.619039E+04
       211  22 -3.626712E+05 -2.241201E+05  3.008680E+02 -3.663387E+05  2.415665E+04 -6.532017E+04
       211  23 -3.759148E+05 -2.107538E+05  1.030116E+02 -3.511916E+05  1.858681E+04 -5.033630E+04
       211  24 -3.625636E+05 -2.239036E+05 -4.056013E+01 -3.663862E+05  1.300236E+04 -3.529300E+04
       211  25  4.429656E+05  6.460356E+04  1.293722E+05 -1.404520E+05  5.302190E+04 -5.448081E+04
       211  26  2.468757E+05  1.245982E+04  1.001304E+05 -1.766369E+05  4.756029E+04 -3.946381E+04
       211  27  7.743418E+04 -6.617482E+04  7.102851E+04 -2.431488E+05  4.208399E+04 -2.438730E+04
       212   1 -6.861930E+05 -3.398076E+05 -5.165166E+04 -4.570961E+05  1.936351E+04  3.743027E+04
       212   2 -5.166406E+05 -2.610729E+05 -2.289236E+04 -3.907086E+05  2.511206E+04  2.243074E+04
       212   3 -3.205130E+05 -2.088674E+05  5.793797E+03 -3.546913E+05  3.084718E+04  7.461724E+03
       212   4 -3.625539E+05 -2.238754E+05 -1.204839E+02 -3.663997E+05 -9.702454E+03  2.653311E+04
       212   5 -3.758043E+05 -2.105717E+05 -3.269380E+02 -3.512161E+05 -3.898731E+03  1.155598E+04
       212   6 -3.625274E+05 -2.238118E+05 -6.535678E+02 -3.664160E+05  1.891524E+03 -3.390632E+03
       212   7 -3.880038E+04 -1.079317E+05  5.141229E+04 -2.756585E+05 -3.878445E+04  1.562993E+04
       212   8 -2.349456E+05 -1.600680E+05  2.224147E+04 -3.117149E+05 -3.291633E+04  6.786731E+02
       212   9 -4.045376E+05 -2.387552E+05 -7.097225E+03 -3.781393E+05 -2.706174E+04 -1.424209E+04
       212  10 -6.861938E+05 -3.398092E+05 -5.165500E+04 -4.570966E+05 -2.885809E-09 -7.222796E-10
       212  11 -5.166415E+05 -2.610736E+05 -2.289449E+04 -3.907091E+05  6.981639E-10 -2.644299E-10
       212  12 -3.205141E+05 -2.088677E+05  5.791903E+03 -3.546915E+05  1.113322E-10 -5.203511E-10
       212  13 -3.625542E+05 -2.238762E+05 -1.219834E+02 -3.663995E+05  9.881025E-10 -3.627208E-10
       212  14 -3.758043E+05 -2.105718E+05 -3.272174E+02 -3.512161E+05 -1.938616E-09 -9.259852E-12
       212  15 -3.625275E+05 -2.238119E+05 -6.535961E+02 -3.664160E+05  1.228143E-09 -1.699145E-10
       212  16 -3.880206E+04 -1.079324E+05  5.140900E+04 -2.756580E+05  1.663337E-09  4.262330E-10
       212  17 -2.349467E+05 -1.600683E+05  2.223943E+04 -3.117149E+05  6.279636E-10  5.805761E-10
       212  18 -4.045384E+05 -2.387556E+05 -7.098985E+03 -3.781396E+05  1.133181E-09  2.676326E-12
       212  19 -6.861930E+05 -3.398076E+05 -5.165166E+04 -4.570961E+05 -1.936351E+04 -3.743027E+04
       212  20 -5.166406E+05 -2.610729E+05 -2.289236E+04 -3.907086E+05 -2.511206E+04 -2.243074E+04
       212  21 -3.205130E+05 -2.088674E+05  5.793797E+03 -3.546913E+05 -3.084718E+04 -7.461724E+03
       212  22 -3.625539E+05 -2.238754E+05 -1.204839E+02 -3.663997E+05  9.702454E+03 -2.653311E+04
       212  23 -3.758043E+05 -2.105717E+05 -3.269380E+02 -3.512161E+05  3.898731E+03 -1.155598E+04
       212  24 -3.625274E+05 -2.238118E+05 -6.535678E+02 -3.664160E+05 -1.891524E+03  3.390632E+03
       212  25 -3.880038E+04 -1.079317E+05  5.141229E+04 -2.756585E+05  3.878445E+04 -1.562993E+04
       212  26 -2.349456E+05 -1.600680E+05  2.224147E+04 -3.117149E+05  3.291633E+04 -6.786731E+02
       212  27 -4.045376E+05 -2.387552E+05 -7.097225E+03 -3.781393E+05  2.706174E+04  1.424209E+04
       213   1 -2.042671E+05 -1.670941E+05  2.513565E+04 -3.222409E+05  3.427908E+04 -1.223707E+03
       213   2 -3.469148E+04 -8.840113E+04  5.362903E+04 -2.558083E+05  3.993902E+04 -1.599710E+04
       213   3  1.614445E+05 -3.622255E+04  8.205135E+04 -2.197084E+05  4.546097E+04 -3.039257E+04
       213   4 -3.625608E+05 -2.238095E+05 -8.899664E+02 -3.664212E+05  5.296149E+03 -1.208698E+04
       213   5 -3.757889E+05 -2.106016E+05 -1.657115E+03 -3.512094E+05  1.168009E+04 -2.659304E+04
       213   6 -3.626402E+05 -2.240587E+05 -3.072766E+03 -3.663472E+05  1.792598E+04 -4.072103E+04
       213   7 -5.208276E+05 -2.805223E+05 -2.691306E+04 -4.105909E+05 -2.367927E+04 -2.294745E+04
       213   8 -7.167620E+05 -3.327903E+05 -5.694288E+04 -4.465614E+05 -1.656255E+04 -3.718288E+04
       213   9 -8.864292E+05 -4.118663E+05 -8.819959E+04 -5.128695E+05 -9.584394E+03 -5.104027E+04
       213  10 -2.042684E+05 -1.670944E+05  2.513343E+04 -3.222409E+05 -2.511630E-09 -1.361703E-09
       213  11 -3.469327E+04 -8.840183E+04  5.362555E+04 -2.558078E+05  1.310456E-10 -2.461757E-10
       213  12  1.614421E+05 -3.622410E+04  8.204573E+04 -2.197073E+05 -1.716994E-10 -9.237661E-11
       213  13 -3.625608E+05 -2.238096E+05 -8.902936E+02 -3.664212E+05  1.805603E-09 -3.182493E-10
       213  14 -3.757893E+05 -2.106024E+05 -1.658700E+03 -3.512092E+05  1.085457E-09  1.041811E-10
       213  15 -3.626409E+05 -2.240606E+05 -3.076484E+03 -3.663467E+05  4.406377E-10 -5.835351E-10
       213  16 -5.208284E+05 -2.805231E+05 -2.691511E+04 -4.105913E+05  3.944888E-09  9.379227E-10
       213  17 -7.167627E+05 -3.327919E+05 -5.694600E+04 -4.465619E+05  1.164085E-09  4.040742E-10
       213  18 -8.864300E+05 -4.118691E+05 -8.820467E+04 -5.128699E+05  3.587182E-10 -8.459717E-10
       213  19 -2.042671E+05 -1.670941E+05  2.513565E+04 -3.222409E+05 -3.427908E+04  1.223707E+03
       213  20 -3.469148E+04 -8.840113E+04  5.362903E+04 -2.558083E+05 -3.993902E+04  1.599710E+04
       213  21  1.614445E+05 -3.622255E+04  8.205135E+04 -2.197084E+05 -4.546097E+04  3.039257E+04
       213  22 -3.625608E+05 -2.238095E+05 -8.899664E+02 -3.664212E+05 -5.296149E+03  1.208698E+04
       213  23 -3.757889E+05 -2.106016E+05 -1.657115E+03 -3.512094E+05 -1.168009E+04  2.659304E+04
       213  24 -3.626402E+05 -2.240587E+05 -3.072766E+03 -3.663472E+05 -1.792598E+04  4.072103E+04
       213  25 -5.208276E+05 -2.805223E+05 -2.691306E+04 -4.105909E+05  2.367927E+04  2.294745E+04
       213  26 -7.167620E+05 -3.327903E+05 -5.694288E+04 -4.465614E+05  1.656255E+04  3.718288E+04
       213  27 -8.864292E+05 -4.118663E+05 -8.819959E+04 -5.128695E+05  9.584394E+03  5.104027E+04
       214   1  2.778342E+05  5.509335E+03  1.010209E+05 -1.874066E+05  4.945502E+04 -3.855609E+04
       214   2  4.463787E+05  8.460725E+04  1.298852E+05 -1.199842E+05  5.082089E+04 -5.232316E+04
       214   3  6.414244E+05  1.365159E+05  1.609828E+05 -8.220503E+04  5.079834E+04 -6.237758E+04
       214   4 -3.629065E+05 -2.240744E+05 -4.109548E+03 -3.663638E+05  2.166343E+04 -4.898465E+04
       214   5 -3.757528E+05 -2.116934E+05 -7.601368E+03 -3.508337E+05  3.020011E+04 -6.007019E+04
       214   6 -3.635518E+05 -2.279286E+05 -1.454223E+04 -3.649628E+05  3.734834E+04 -6.743990E+04
       214   7 -1.003199E+06 -4.536136E+05 -1.092441E+05 -5.451454E+05 -6.097454E+03 -5.940173E+04
       214   8 -1.197163E+06 -5.079250E+05 -1.451030E+05 -5.813962E+05  9.608308E+03 -6.780628E+04
       214   9 -1.367470E+06 -5.922761E+05 -1.901004E+05 -6.472951E+05  2.392134E+04 -7.249350E+04
       214  10  2.778311E+05  5.507083E+03  1.010136E+05 -1.874051E+05 -3.127218E-09 -1.623242E-09
       214  11  4.463752E+05  8.460361E+04  1.298752E+05 -1.199821E+05 -2.479087E-09 -1.577875E-09
       214  12  6.414206E+05  1.365110E+05  1.609706E+05 -8.220248E+04 -3.392534E-09 -3.368478E-10
       214  13 -3.629076E+05 -2.240771E+05 -4.114938E+03 -3.663629E+05 -9.534302E-11 -7.755670E-10
       214  14 -3.757547E+05 -2.116975E+05 -7.609860E+03 -3.508322E+05 -2.263798E-09  1.367190E-09
       214  15 -3.635545E+05 -2.279339E+05 -1.455339E+04 -3.649608E+05 -9.022015E-10  6.739188E-10
       214  16 -1.003200E+06 -4.536174E+05 -1.092508E+05 -5.451457E+05  2.754764E-09  6.132791E-10
       214  17 -1.197164E+06 -5.079300E+05 -1.451118E+05 -5.813957E+05  2.570950E-09  2.124279E-09
       214  18 -1.367472E+06 -5.922819E+05 -1.901113E+05 -6.472938E+05  2.626050E-09  3.270992E-09
       214  19  2.778342E+05  5.509335E+03  1.010209E+05 -1.874066E+05 -4.945502E+04  3.855609E+04
       214  20  4.463787E+05  8.460725E+04  1.298852E+05 -1.199842E+05 -5.082089E+04  5.232316E+04
       214  21  6.414244E+05  1.365159E+05  1.609828E+05 -8.220503E+04 -5.079834E+04  6.237758E+04
       214  22 -3.629065E+05 -2.240744E+05 -4.109548E+03 -3.663638E+05 -2.166343E+04  4.898465E+04
       214  23 -3.757528E+05 -2.116934E+05 -7.601368E+03 -3.508337E+05 -3.020011E+04  6.007019E+04
       214  24 -3.635518E+05 -2.279286E+05 -1.454223E+04 -3.649628E+05 -3.734834E+04  6.743990E+04
       214  25 -1.003199E+06 -4.536136E+05 -1.092441E+05 -5.451454E+05  6.097454E+03  5.940173E+04
       214  26 -1.197163E+06 -5.079250E+05 -1.451030E+05 -5.813962E+05 -9.608308E+03  6.780628E+04
       214  27 -1.367470E+06 -5.922761E+05 -1.901004E+05 -6.472951E+05 -2.392134E+04  7.249350E+04
       215   1  7.596710E+05  1.771385E+05  1.803668E+05 -5.231715E+04  5.774008E+04 -6.641641E+04
       215   2  9.119351E+05  2.620891E+05  2.256484E+05  3.451866E+04  2.533019E+03 -7.568950E+04
       215   3  1.087496E+06  3.023901E+05  3.033039E+05  1.018220E+05 -6.647809E+04 -4.836224E+04
       215   4 -3.662137E+05 -2.282193E+05 -1.947575E+04 -3.651446E+05  4.172232E+04 -7.244710E+04
       215   5 -3.751563E+05 -2.288995E+05 -3.736781E+04 -3.441252E+05  5.735773E+04 -5.510339E+04
       215   6 -3.748783E+05 -2.883010E+05 -7.901254E+04 -3.426510E+05  5.918956E+04 -1.110018E+03
       215   7 -1.490761E+06 -6.334575E+05 -2.193585E+05 -6.774439E+05  2.573549E+04 -7.846628E+04
       215   8 -1.660523E+06 -7.196990E+05 -3.004527E+05 -7.220247E+05  1.120601E+05 -3.456788E+04
       215   9 -1.835109E+06 -8.787382E+05 -4.614379E+05 -7.861277E+05  1.845322E+05  4.599816E+04
       215  10  7.596662E+05  1.771329E+05  1.803523E+05 -5.231406E+04 -5.929940E-08 -2.191084E-08
       215  11  9.119336E+05  2.620829E+05  2.256376E+05  3.451881E+04 -4.788793E-09 -2.101160E-09
       215  12  1.087490E+06  3.023864E+05  3.032912E+05  1.018194E+05  5.374208E-08  1.906821E-08
       215  13 -3.662170E+05 -2.282254E+05 -1.948888E+04 -3.651422E+05 -4.184269E-09 -4.337365E-10
       215  14 -3.751606E+05 -2.289037E+05 -3.737970E+04 -3.441227E+05 -5.205829E-09 -2.752601E-09
       215  15 -3.748820E+05 -2.883020E+05 -7.901913E+04 -3.426510E+05 -7.002963E-10 -9.022358E-10
       215  16 -1.490763E+06 -6.334643E+05 -2.193713E+05 -6.774423E+05  5.433270E-08  2.157228E-08
       215  17 -1.660537E+06 -7.197037E+05 -3.004786E+05 -7.220216E+05 -5.126340E-09 -2.379670E-09
       215  18 -1.835146E+06 -8.787497E+05 -4.615061E+05 -7.861346E+05 -5.706562E-08 -2.102507E-08
       215  19  7.596710E+05  1.771385E+05  1.803668E+05 -5.231715E+04 -5.774008E+04  6.641641E+04
       215  20  9.119351E+05  2.620891E+05  2.256484E+05  3.451866E+04 -2.533019E+03  7.568950E+04
       215  21  1.087496E+06  3.023901E+05  3.033039E+05  1.018220E+05  6.647809E+04  4.836224E+04
       215  22 -3.662137E+05 -2.282193E+05 -1.947575E+04 -3.651446E+05 -4.172232E+04  7.244710E+04
       215  23 -3.751563E+05 -2.288995E+05 -3.736781E+04 -3.441252E+05 -5.735773E+04  5.510339E+04
       215  24 -3.748783E+05 -2.883010E+05 -7.901254E+04 -3.426510E+05 -5.918956E+04  1.110018E+03
       215  25 -1.490761E+06 -6.334575E+05 -2.193585E+05 -6.774439E+05 -2.573549E+04  7.846628E+04
       215  26 -1.660523E+06 -7.196990E+05 -3.004527E+05 -7.220247E+05 -1.120601E+05  3.456788E+04
       215  27 -1.835109E+06 -8.787382E+05 -4.614379E+05 -7.861277E+05 -1.845322E+05 -4.599816E+04
       216   1 -7.038977E+05 -2.288102E+05 -1.964746E+05 -1.104968E+05 -1.795810E+04  1.924766E+04
       216   2 -5.390161E+05 -2.731141E+05 -1.702172E+05 -1.434497E+05  1.110268E+04  6.405135E+04
       216   3 -3.634658E+05 -2.605505E+05 -1.486615E+05 -2.055703E+05  4.021377E+04  7.565842E+04
       216   4  8.052866E+05  1.430751E+05  1.548830E+05 -2.043651E+05  1.087769E+05  1.934858E+04
       216   5  7.941436E+05  4.284728E+04  7.695753E+04 -1.897486E+05  6.934159E+04  6.407454E+04
       216   6  8.054863E+05  1.129814E+04  4.186205E+04 -2.042892E+05  2.995045E+04  7.564111E+04
       216   7  2.316626E+06  5.148417E+05  5.061519E+05 -2.984633E+05  2.358179E+05  1.941109E+04
       216   8  2.129037E+06  3.587169E+05  3.240714E+05 -2.361496E+05  1.277023E+05  6.408904E+04
       216   9  1.975792E+06  2.830772E+05  2.323475E+05 -2.030055E+05  1.966842E+04  7.562378E+04
       216  10 -7.038981E+05 -2.288107E+05 -1.964759E+05 -1.104965E+05  3.347635E-10  1.122478E-10
       216  11 -5.390173E+05 -2.731186E+05 -1.702251E+05 -1.434503E+05 -2.082166E-09  8.734728E-10
       216  12 -3.634691E+05 -2.605571E+05 -1.486754E+05 -2.055727E+05 -5.934158E-09  1.833790E-09
       216  13  8.052738E+05  1.430716E+05  1.548600E+05 -2.043668E+05 -4.731195E-10  9.858806E-10
       216  14  7.941374E+05  4.284158E+04  7.694078E+04 -1.897522E+05  5.588093E-10  1.304821E-09
       216  15  8.054838E+05  1.129175E+04  4.184961E+04 -2.042910E+05  3.117717E-09  1.960793E-09
       216  16  2.316567E+06  5.148264E+05  5.060471E+05 -2.984670E+05  8.507571E-10  1.093253E-09
       216  17  2.129019E+06  3.587081E+05  3.240331E+05 -2.361562E+05  3.489961E-09  2.008729E-09
       216  18  1.975790E+06  2.830710E+05  2.323360E+05 -2.030067E+05  9.162631E-09  3.950233E-09
       216  19 -7.038977E+05 -2.288102E+05 -1.964746E+05 -1.104968E+05  1.795810E+04 -1.924766E+04
       216  20 -5.390161E+05 -2.731141E+05 -1.702172E+05 -1.434497E+05 -1.110268E+04 -6.405135E+04
       216  21 -3.634658E+05 -2.605505E+05 -1.486615E+05 -2.055703E+05 -4.021377E+04 -7.565842E+04
       216  22  8.052866E+05  1.430751E+05  1.548830E+05 -2.043651E+05 -1.087769E+05 -1.934858E+04
       216  23  7.941436E+05  4.284728E+04  7.695753E+04 -1.897486E+05 -6.934159E+04 -6.407454E+04
       216  24  8.054863E+05  1.129814E+04  4.186205E+04 -2.042892E+05 -2.995045E+04 -7.564111E+04
       216  25  2.316626E+06  5.148417E+05  5.061519E+05 -2.984633E+05 -2.358179E+05 -1.941109E+04
       216  26  2.129037E+06  3.587169E+05  3.240714E+05 -2.361496E+05 -1.277023E+05 -6.408904E+04
       216  27  1.975792E+06  2.830772E+05  2.323475E+05 -2.030055E+05 -1.966842E+04 -7.562378E+04
       217   1 -2.591612E+05 -2.365468E+05 -1.373884E+05 -2.002146E+05  3.446446E+04  7.155395E+04
       217   2 -9.007332E+04 -2.028482E+05 -1.181947E+05 -1.872554E+05  3.381986E+04  6.480674E+04
       217   3  8.018698E+04 -1.653353E+05 -9.759839E+04 -2.056927E+05  3.317209E+04  5.422999E+04
       217   4  8.010897E+05  9.211905E+03  3.145805E+04 -2.047984E+05  2.452438E+04  7.153914E+04
       217   5  7.998871E+05  2.142197E+03  1.713104E+04 -1.891014E+05  1.596408E+04  6.479436E+04
       217   6  8.011974E+05  2.570845E+02  9.694349E+03 -2.047973E+05  7.400835E+03  5.422288E+04
       217   7  1.862458E+06  2.549146E+05  2.002758E+05 -2.093902E+05  1.456792E+04  7.152450E+04
       217   8  1.690641E+06  2.070948E+05  1.524413E+05 -1.909501E+05 -1.916300E+03  6.478208E+04
       217   9  1.522731E+06  1.658254E+05  1.169798E+05 -2.039007E+05 -1.839913E+04  5.421569E+04
       217  10 -2.591638E+05 -2.365526E+05 -1.374002E+05 -2.002166E+05  2.381501E-09  1.963714E-09
       217  11 -9.007568E+04 -2.028530E+05 -1.182048E+05 -1.872572E+05  2.786427E-10  1.906254E-10
       217  12  8.018501E+04 -1.653387E+05 -9.760599E+04 -2.056941E+05 -4.252874E-09 -1.349905E-09
       217  13  8.010876E+05  9.206245E+03  3.144730E+04 -2.047998E+05 -5.928024E-10  3.084947E-09
       217  14  7.998857E+05  2.137619E+03  1.712266E+04 -1.891022E+05  2.850489E-10  7.376750E-10
       217  15  8.011966E+05  2.539112E+02  9.688718E+03 -2.047976E+05 -2.370091E-09 -7.601570E-10
       217  16  1.862457E+06  2.549091E+05  2.002658E+05 -2.093911E+05 -2.402826E-09  2.940446E-09
       217  17  1.690640E+06  2.070903E+05  1.524334E+05 -1.909500E+05  8.793047E-10  7.930758E-10
       217  18  1.522730E+06  1.658221E+05  1.169736E+05 -2.038999E+05  3.939326E-09  2.051531E-10
       217  19 -2.591612E+05 -2.365468E+05 -1.373884E+05 -2.002146E+05 -3.446446E+04 -7.155395E+04
       217  20 -9.007332E+04 -2.028482E+05 -1.181947E+05 -1.872554E+05 -3.381986E+04 -6.480674E+04
       217  21  8.018698E+04 -1.653353E+05 -9.759839E+04 -2.056927E+05 -3.317209E+04 -5.422999E+04
       217  22  8.010897E+05  9.211905E+03  3.145805E+04 -2.047984E+05 -2.452438E+04 -7.153914E+04
       217  23  7.998871E+05  2.142197E+03  1.713104E+04 -1.891014E+05 -1.596408E+04 -6.479436E+04
       217  24  8.011974E+05  2.570845E+02  9.694349E+03 -2.047973E+05 -7.400835E+03 -5.422288E+04
       217  25  1.862458E+06  2.549146E+05  2.002758E+05 -2.093902E+05 -1.456792E+04 -7.152450E+04
       217  26  1.690641E+06  2.070948E+05  1.524413E+05 -1.909501E+05  1.916300E+03 -6.478208E+04
       217  27  1.522731E+06  1.658254E+05  1.169798E+05 -2.039007E+05  1.839913E+04 -5.421569E+04
       218   1  1.865466E+05 -1.406628E+05 -8.320871E+04 -2.051321E+05  3.167257E+04  4.682433E+04
       218   2  3.559305E+05 -1.020400E+05 -6.105839E+04 -1.892955E+05  3.052939E+04  3.413965E+04
       218   3  5.255825E+05 -6.321576E+04 -3.810120E+04 -2.050882E+05  2.938266E+04  2.101570E+04
       218   4  8.007545E+05  2.213793E+02  7.335719E+03 -2.048500E+05  5.942615E+03  4.682029E+04
       218   5  8.005812E+05 -1.250000E+02  4.151998E+03 -1.890362E+05  3.887413E+03  3.413921E+04
       218   6  8.008067E+05 -1.106518E+02  2.405656E+03 -2.048503E+05  1.828963E+03  2.101901E+04
       218   7  1.415343E+06  1.410883E+05  9.787587E+04 -2.045676E+05 -1.981174E+04  4.681623E+04
       218   8  1.245432E+06  1.017812E+05  6.936160E+04 -1.887766E+05 -2.277285E+04  3.413875E+04
       218   9  1.076109E+06  6.299134E+04  4.291401E+04 -2.046122E+05 -2.573643E+04  2.102229E+04
       218  10  1.865449E+05 -1.406654E+05 -8.321472E+04 -2.051333E+05 -6.426644E-08 -2.063872E-09
       218  11  3.559292E+05 -1.020415E+05 -6.106233E+04 -1.892964E+05  8.169083E-10 -2.725765E-09
       218  12  5.255815E+05 -6.321647E+04 -3.810365E+04 -2.050887E+05  6.487454E-08 -1.504278E-09
       218  13  8.007539E+05  2.190149E+02  7.331531E+03 -2.048503E+05 -1.720037E-10 -1.380488E-09
       218  14  8.005809E+05 -1.262561E+02  4.149779E+03 -1.890363E+05 -2.235967E-09 -2.751564E-09
       218  15  8.008066E+05 -1.111273E+02  2.404819E+03 -2.048503E+05 -3.304057E-09 -2.469214E-09
       218  16  1.415342E+06  1.410858E+05  9.787101E+04 -2.045669E+05  6.273036E-08 -6.397539E-10
       218  17  1.245432E+06  1.017798E+05  6.935844E+04 -1.887760E+05 -1.156829E-09 -3.021157E-09
       218  18  1.076108E+06  6.299069E+04  4.291194E+04 -2.046118E+05 -6.421019E-08 -3.396434E-09
       218  19  1.865466E+05 -1.406628E+05 -8.320871E+04 -2.051321E+05 -3.167257E+04 -4.682433E+04
       218  20  3.559305E+05 -1.020400E+05 -6.105839E+04 -1.892955E+05 -3.052939E+04 -3.413965E+04
       218  21  5.255825E+05 -6.321576E+04 -3.810120E+04 -2.050882E+05 -2.938266E+04 -2.101570E+04
       218  22  8.007545E+05  2.213793E+02  7.335719E+03 -2.048500E+05 -5.942615E+03 -4.682029E+04
       218  23  8.005812E+05 -1.250000E+02  4.151998E+03 -1.890362E+05 -3.887413E+03 -3.413921E+04
       218  24  8.008067E+05 -1.106518E+02  2.405656E+03 -2.048503E+05 -1.828963E+03 -2.101901E+04
       218  25  1.415343E+06  1.410883E+05  9.787587E+04 -2.045676E+05  1.981174E+04 -4.681623E+04
       218  26  1.245432E+06  1.017812E+05  6.936160E+04 -1.887766E+05  2.277285E+04 -3.413875E+04
       218  27  1.076109E+06  6.299134E+04  4.291401E+04 -2.046122E+05  2.573643E+04 -2.102229E+04
       219   1  6.320952E+05 -3.865116E+04 -2.249358E+04 -2.050191E+05  2.899624E+04  1.323520E+04
       219   2  8.015466E+05  1.058213E+02  1.154428E+03 -1.891382E+05  2.854581E+04 -1.230415E+02
       219   3  9.711078E+05  3.885829E+04  2.510056E+04 -2.049071E+05  2.809529E+04 -1.352487E+04
       219   4  8.007479E+05 -8.078830E+01  1.842183E+03 -2.048551E+05  1.446938E+03  1.323960E+04
       219   5  8.007011E+05 -7.355035E+01  1.101153E+03 -1.890303E+05  9.024566E+02 -1.186296E+02
       219   6  8.007480E+05 -5.455857E+01  7.204691E+02 -2.048552E+05  3.579908E+02 -1.352047E+04
       219   7  9.694309E+05  3.848869E+04  2.618034E+04 -2.046911E+05 -2.610952E+04  1.324398E+04
       219   8  7.998571E+05 -2.525123E+02  1.050747E+03 -1.889223E+05 -2.674086E+04 -1.142273E+02
       219   9  6.304191E+05 -3.896831E+04 -2.365717E+04 -2.048033E+05 -2.737203E+04 -1.351607E+04
       219  10  6.320943E+05 -3.865157E+04 -2.249548E+04 -2.050194E+05  1.694378E-10 -7.808306E-10
       219  11  8.015457E+05  1.056029E+02  1.152898E+03 -1.891382E+05  2.569691E-09 -4.550574E-10
       219  12  9.711069E+05  3.885789E+04  2.509873E+04 -2.049068E+05  9.868972E-10  2.373821E-10
       219  13  8.007478E+05 -8.097717E+01  1.841849E+03 -2.048551E+05 -3.170023E-09 -1.411861E-09
       219  14  8.007011E+05 -7.355059E+01  1.101151E+03 -1.890303E+05  1.426627E-09  2.880980E-11
       219  15  8.007480E+05 -5.475497E+01  7.201253E+02 -2.048552E+05 -4.575622E-10  5.569053E-10
       219  16  9.694301E+05  3.848831E+04  2.617873E+04 -2.046908E+05 -3.836818E-09 -2.054645E-09
       219  17  7.998564E+05 -2.527040E+02  1.049405E+03 -1.889223E+05 -2.567382E-09  5.355308E-10
       219  18  6.304183E+05 -3.896871E+04 -2.365892E+04 -2.048036E+05 -2.104570E-09  8.645877E-10
       219  19  6.320952E+05 -3.865116E+04 -2.249358E+04 -2.050191E+05 -2.899624E+04 -1.323520E+04
       219  20  8.015466E+05  1.058213E+02  1.154428E+03 -1.891382E+05 -2.854581E+04  1.230415E+02
       219  21  9.711078E+05  3.885829E+04  2.510056E+04 -2.049071E+05 -2.809529E+04  1.352487E+04
       219  22  8.007479E+05 -8.078830E+01  1.842183E+03 -2.048551E+05 -1.446938E+03 -1.323960E+04
       219  23  8.007011E+05 -7.355035E+01  1.101153E+03 -1.890303E+05 -9.024566E+02  1.186296E+02
       219  24  8.007480E+05 -5.455857E+01  7.204691E+02 -2.048552E+05 -3.579908E+02  1.352047E+04
       219  25  9.694309E+05  3.848869E+04  2.618034E+04 -2.046911E+05  2.610952E+04 -1.324398E+04
       219  26  7.998571E+05 -2.525123E+02  1.050747E+03 -1.889223E+05  2.674086E+04  1.142273E+02
       219  27  6.304191E+05 -3.896831E+04 -2.365717E+04 -2.048033E+05  2.737203E+04  1.351607E+04
       220   1  1.077690E+06  6.336574E+04  4.111177E+04 -2.048960E+05  2.797785E+04 -2.134088E+04
       220   2  1.247245E+06  1.020619E+05  6.538217E+04 -1.890008E+05  2.759687E+04 -3.473401E+04
       220   3  1.416924E+06  1.407713E+05  8.991432E+04 -2.047644E+05  2.721932E+04 -4.807054E+04
       220   4  8.007347E+05 -6.353012E+01  6.180262E+02 -2.048575E+05  2.354503E+02 -2.133759E+04
       220   5  8.006719E+05 -1.141913E+02  5.414751E+02 -1.890274E+05 -3.202686E+01 -3.473448E+04
       220   6  8.006834E+05 -1.707249E+02  6.459715E+02 -2.048575E+05 -2.959607E+02 -4.807476E+04
       220   7  5.238584E+05 -6.349594E+04 -3.987414E+04 -2.048190E+05 -2.749511E+04 -2.133430E+04
       220   8  3.543010E+05 -1.022991E+05 -6.429964E+04 -1.890540E+05 -2.764191E+04 -3.473494E+04
       220   9  1.848267E+05 -1.411297E+05 -8.862571E+04 -2.049505E+05 -2.778513E+04 -4.807897E+04
       220  10  1.077689E+06  6.336505E+04  4.110944E+04 -2.048955E+05 -1.041318E-09  5.824148E-10
       220  11  1.247244E+06  1.020604E+05  6.537847E+04 -1.890000E+05  2.218640E-09  8.134722E-10
       220  12  1.416923E+06  1.407686E+05  8.990859E+04 -2.047633E+05 -1.552642E-10  5.774391E-10
       220  13  8.007346E+05 -6.401922E+01  6.171702E+02 -2.048575E+05 -4.742651E-10  6.962243E-10
       220  14  8.006715E+05 -1.154873E+02  5.392070E+02 -1.890274E+05 -1.644594E-09  1.064046E-09
       220  15  8.006828E+05 -1.732076E+02  6.416265E+02 -2.048575E+05 -2.401368E-09  8.970600E-10
       220  16  5.238575E+05 -6.349663E+04 -3.987642E+04 -2.048195E+05 -2.312741E-10  7.324900E-10
       220  17  3.542998E+05 -1.023006E+05 -6.430334E+04 -1.890548E+05 -4.283429E-10  1.046424E-09
       220  18  1.848252E+05 -1.411324E+05 -8.863151E+04 -2.049515E+05 -2.144013E-09  1.048319E-09
       220  19  1.077690E+06  6.336574E+04  4.111177E+04 -2.048960E+05 -2.797785E+04  2.134088E+04
       220  20  1.247245E+06  1.020619E+05  6.538217E+04 -1.890008E+05 -2.759687E+04  3.473401E+04
       220  21  1.416924E+06  1.407713E+05  8.991432E+04 -2.047644E+05 -2.721932E+04  4.807054E+04
       220  22  8.007347E+05 -6.353012E+01  6.180262E+02 -2.048575E+05 -2.354503E+02  2.133759E+04
       220  23  8.006719E+05 -1.141913E+02  5.414751E+02 -1.890274E+05  3.202686E+01  3.473448E+04
       220  24  8.006834E+05 -1.707249E+02  6.459715E+02 -2.048575E+05  2.959607E+02  4.807476E+04
       220  25  5.238584E+05 -6.349594E+04 -3.987414E+04 -2.048190E+05  2.749511E+04  2.133430E+04
       220  26  3.543010E+05 -1.022991E+05 -6.429964E+04 -1.890540E+05  2.764191E+04  3.473494E+04
       220  27  1.848267E+05 -1.411297E+05 -8.862571E+04 -2.049505E+05  2.778513E+04  4.807897E+04
       221   1  1.523672E+06  1.652793E+05  1.062392E+05 -2.047039E+05  2.710959E+04 -5.583801E+04
       221   2  1.693304E+06  2.040478E+05  1.315165E+05 -1.887385E+05  2.535988E+04 -6.886781E+04
       221   3  1.863367E+06  2.431012E+05  1.580298E+05 -2.044269E+05  2.361632E+04 -8.133486E+04
       221   4  8.006849E+05 -2.151844E+02  7.699498E+02 -2.048567E+05 -4.215658E+02 -5.584553E+04
       221   5  8.005323E+05 -3.097307E+02  1.195180E+03 -1.890284E+05 -1.009610E+03 -6.888250E+04
       221   6  8.005821E+05 -3.190254E+02  2.050526E+03 -2.048566E+05 -1.591088E+03 -8.135632E+04
       221   7  7.822506E+04 -1.657334E+05 -1.047053E+05 -2.050093E+05 -2.792205E+04 -5.585304E+04
       221   8 -9.143711E+04 -2.047037E+05 -1.291371E+05 -1.893178E+05 -2.734284E+04 -6.889718E+04
       221   9 -2.610672E+05 -2.437913E+05 -1.539462E+05 -2.052855E+05 -2.675722E+04 -8.137775E+04
       221  10  1.523670E+06  1.652758E+05  1.062320E+05 -2.047027E+05 -3.342325E-10  3.896465E-10
       221  11  1.693302E+06  2.040425E+05  1.315064E+05 -1.887370E+05 -1.430226E-09 -1.161727E-09
       221  12  1.863365E+06  2.430940E+05  1.580163E+05 -2.044254E+05  8.367790E-10 -3.408879E-10
       221  13  8.006841E+05 -2.185347E+02  7.640865E+02 -2.048567E+05  1.101417E-10  4.998077E-10
       221  14  8.005310E+05 -3.148280E+02  1.186258E+03 -1.890284E+05 -4.205950E-09 -6.588657E-10
       221  15  8.005803E+05 -3.261363E+02  2.038078E+03 -2.048567E+05 -2.386732E-10 -8.740364E-10
       221  16  7.822339E+04 -1.657370E+05 -1.047127E+05 -2.050105E+05 -1.479190E-09  4.527664E-10
       221  17 -9.143919E+04 -2.047090E+05 -1.291475E+05 -1.893193E+05  3.013347E-10 -4.653326E-10
       221  18 -2.610697E+05 -2.437986E+05 -1.539600E+05 -2.052872E+05  5.049821E-10 -7.173507E-10
       221  19  1.523672E+06  1.652793E+05  1.062392E+05 -2.047039E+05 -2.710959E+04  5.583801E+04
       221  20  1.693304E+06  2.040478E+05  1.315165E+05 -1.887385E+05 -2.535988E+04  6.886781E+04
       221  21  1.863367E+06  2.431012E+05  1.580298E+05 -2.044269E+05 -2.361632E+04  8.133486E+04
       221  22  8.006849E+05 -2.151844E+02  7.699498E+02 -2.048567E+05  4.215658E+02  5.584553E+04
       221  23  8.005323E+05 -3.097307E+02  1.195180E+03 -1.890284E+05  1.009610E+03  6.888250E+04
       221  24  8.005821E+05 -3.190254E+02  2.050526E+03 -2.048566E+05  1.591088E+03  8.135632E+04
       221  25  7.822506E+04 -1.657334E+05 -1.047053E+05 -2.050093E+05  2.792205E+04  5.585304E+04
       221  26 -9.143711E+04 -2.047037E+05 -1.291371E+05 -1.893178E+05  2.734284E+04  6.889718E+04
       221  27 -2.610672E+05 -2.437913E+05 -1.539462E+05 -2.052855E+05  2.675722E+04  8.137775E+04
       222   1  1.970686E+06  2.678389E+05  1.756258E+05 -2.040830E+05  2.327876E+04 -8.861912E+04
       222   2  2.139577E+06  3.078611E+05  2.067822E+05 -1.889042E+05  1.074312E+04 -9.837470E+04
       222   3  2.311129E+06  3.510653E+05  2.469303E+05 -2.050741E+05 -1.793552E+03 -1.032070E+05
       222   4  8.006851E+05 -3.664393E+02  2.694435E+03 -2.047888E+05 -1.991970E+03 -8.864573E+04
       222   5  8.001739E+05  2.972740E+01  4.709286E+03 -1.891130E+05 -4.333002E+03 -9.840457E+04
       222   6  8.005310E+05  1.845421E+03  8.654393E+03 -2.047900E+05 -6.671607E+03 -1.032346E+05
       222   7 -3.679408E+05 -2.686353E+05 -1.702595E+05 -2.054932E+05 -2.721714E+04 -8.867231E+04
       222   8 -5.374344E+05 -3.078867E+05 -1.973993E+05 -1.893214E+05 -1.937797E+04 -9.843446E+04
       222   9 -7.078010E+05 -3.474873E+05 -2.296782E+05 -2.045067E+05 -1.153825E+04 -1.032623E+05
       222  10  1.970683E+06  2.678304E+05  1.756100E+05 -2.040813E+05  1.594574E-09  2.375832E-10
       222  11  2.139574E+06  3.078506E+05  2.067638E+05 -1.889033E+05  5.063125E-09  3.523716E-10
       222  12  2.311126E+06  3.510539E+05  2.469102E+05 -2.050743E+05  3.253113E-09 -1.712870E-09
       222  13  8.006830E+05 -3.748818E+02  2.679655E+03 -2.047890E+05  1.269728E-09 -5.190355E-10
       222  14  8.001713E+05  1.931997E+01  4.691046E+03 -1.891134E+05 -2.930261E-09 -8.539340E-10
       222  15  8.005281E+05  1.833960E+03  8.634273E+03 -2.047906E+05  9.942140E-10 -1.588635E-09
       222  16 -3.679437E+05 -2.686440E+05 -1.702757E+05 -2.054952E+05 -1.229429E-09 -1.110531E-09
       222  17 -5.374374E+05 -3.078972E+05 -1.974182E+05 -1.893229E+05 -2.239652E-09  9.046203E-11
       222  18 -7.078040E+05 -3.474988E+05 -2.296985E+05 -2.045077E+05 -1.758881E-09 -1.051639E-09
       222  19  1.970686E+06  2.678389E+05  1.756258E+05 -2.040830E+05 -2.327876E+04  8.861912E+04
       222  20  2.139577E+06  3.078611E+05  2.067822E+05 -1.889042E+05 -1.074312E+04  9.837470E+04
       222  21  2.311129E+06  3.510653E+05  2.469303E+05 -2.050741E+05  1.793552E+03  1.032070E+05
       222  22  8.006851E+05 -3.664393E+02  2.694435E+03 -2.047888E+05  1.991970E+03  8.864573E+04
       222  23  8.001739E+05  2.972740E+01  4.709286E+03 -1.891130E+05  4.333002E+03  9.840457E+04
       222  24  8.005310E+05  1.845421E+03  8.654393E+03 -2.047900E+05  6.671607E+03  1.032346E+05
       222  25 -3.679408E+05 -2.686353E+05 -1.702595E+05 -2.054932E+05  2.721714E+04  8.867231E+04
       222  26 -5.374344E+05 -3.078867E+05 -1.973993E+05 -1.893214E+05  1.937797E+04  9.843446E+04
       222  27 -7.078010E+05 -3.474873E+05 -2.296782E+05 -2.045067E+05  1.153825E+04  1.032623E+05
       223   1  2.422129E+06  3.781346E+05  2.730933E+05 -2.025824E+05 -2.850868E+03 -1.062433E+05
       223   2  2.582163E+06  4.324940E+05  3.486881E+05 -2.012343E+05 -1.020694E+05 -8.757226E+04
       223   3  2.764005E+06  5.211935E+05  4.973674E+05 -2.283154E+05 -2.014132E+05 -2.621833E+04
       223   4  8.017211E+05  2.350970E+03  1.152006E+04 -2.041334E+05 -8.163716E+03 -1.062741E+05
       223   5  7.983660E+05  1.097030E+04  2.112835E+04 -1.899419E+05 -1.894588E+04 -8.749439E+04
       223   6  8.015123E+05  3.865911E+04  4.257139E+04 -2.041741E+05 -2.981821E+04 -2.597957E+04
       223   7 -8.160888E+05 -3.735652E+05 -2.501248E+05 -2.056804E+05 -1.346321E+04 -1.063050E+05
       223   8 -9.823382E+05 -4.107295E+05 -3.065362E+05 -1.786833E+05  6.394600E+04 -8.741341E+04
       223   9 -1.157372E+06 -4.441276E+05 -4.123721E+05 -1.801102E+05  1.412403E+05 -2.572720E+04
       223  10  2.422125E+06  3.781225E+05  2.730721E+05 -2.025826E+05  1.512675E-09 -3.239391E-09
       223  11  2.582150E+06  4.324830E+05  3.486542E+05 -2.012415E+05  1.708408E-09 -4.812457E-09
       223  12  2.763962E+06  5.211819E+05  4.972902E+05 -2.283196E+05 -2.375201E-09 -1.441226E-09
       223  13  8.017180E+05  2.338820E+03  1.149870E+04 -2.041341E+05  1.665518E-09 -6.239265E-09
       223  14  7.983636E+05  1.096198E+04  2.111328E+04 -1.899433E+05  1.509188E-09  2.281299E-09
       223  15  8.015112E+05  3.865815E+04  4.256845E+04 -2.041748E+05 -8.035087E-10 -6.871527E-11
       223  16 -8.160920E+05 -3.735774E+05 -2.501464E+05 -2.056815E+05 -1.101859E-09 -1.451971E-09
       223  17 -9.823447E+05 -4.107388E+05 -3.065582E+05 -1.786788E+05  4.964046E-10  2.164422E-09
       223  18 -1.157393E+06 -4.441337E+05 -4.124109E+05 -1.801072E+05  3.297444E-09 -1.423086E-09
       223  19  2.422129E+06  3.781346E+05  2.730933E+05 -2.025824E+05  2.850868E+03  1.062433E+05
       223  20  2.582163E+06  4.324940E+05  3.486881E+05 -2.012343E+05  1.020694E+05  8.757226E+04
       223  21  2.764005E+06  5.211935E+05  4.973674E+05 -2.283154E+05  2.014132E+05  2.621833E+04
       223  22  8.017211E+05  2.350970E+03  1.152006E+04 -2.041334E+05  8.163716E+03  1.062741E+05
       223  23  7.983660E+05  1.097030E+04  2.112835E+04 -1.899419E+05  1.894588E+04  8.749439E+04
       223  24  8.015123E+05  3.865911E+04  4.257139E+04 -2.041741E+05  2.981821E+04  2.597957E+04
       223  25 -8.160888E+05 -3.735652E+05 -2.501248E+05 -2.056804E+05  1.346321E+04  1.063050E+05
       223  26 -9.823382E+05 -4.107295E+05 -3.065362E+05 -1.786833E+05 -6.394600E+04  8.741341E+04
       223  27 -1.157372E+06 -4.441276E+05 -4.123721E+05 -1.801102E+05 -1.412403E+05  2.572720E+04
       224   1  5.928179E+05  2.481017E+06  5.673798E+05 -7.476986E+05  2.266930E+04  1.630017E+05
       224   2  4.122045E+05  1.865065E+06  3.425785E+05 -6.852850E+05  6.847988E+04  4.811050E+04
       224   3  2.615915E+05  1.271713E+06  1.998444E+05 -7.313406E+05  6.203235E+04 -6.671915E+04
       224   4  2.419807E+04  1.784257E+05  2.360538E+04 -7.291409E+05  2.304520E+04  1.467368E+04
       224   5  9.085396E+03  1.769814E+05  1.325717E+04 -6.749238E+05  6.860290E+04  8.035567E+03
       224   6  5.286521E+03  1.790976E+05  1.000953E+04 -7.291868E+05  6.183981E+04  1.344789E+03
       224   7 -5.447881E+05 -2.119257E+06 -5.204532E+05 -7.106466E+05  2.341322E+04 -1.331089E+05
       224   8 -3.942035E+05 -1.508371E+06 -3.161942E+05 -6.645883E+05  6.872483E+04 -3.193306E+04
       224   9 -2.510804E+05 -9.123389E+05 -1.798499E+05 -7.270356E+05  6.164751E+04  6.929278E+04
       224  10  5.928102E+05  2.480989E+06  5.673291E+05 -7.477016E+05  1.227645E-09  3.933127E-10
       224  11  4.121989E+05  1.865061E+06  3.425654E+05 -6.852876E+05  5.046383E-10  3.491850E-10
       224  12  2.615861E+05  1.271707E+06  1.998289E+05 -7.313372E+05  1.502846E-09 -6.640679E-10
       224  13  2.419744E+04  1.784253E+05  2.360398E+04 -7.291411E+05  1.761496E-09 -1.716239E-11
       224  14  9.080323E+03  1.769800E+05  1.324820E+04 -6.749243E+05 -1.215041E-10  1.089138E-10
       224  15  5.282414E+03  1.790966E+05  1.000234E+04 -7.291869E+05  2.087532E-09  3.489280E-10
       224  16 -5.447935E+05 -2.119276E+06 -5.204876E+05 -7.106441E+05  1.206625E-10 -1.131315E-09
       224  17 -3.942088E+05 -1.508373E+06 -3.162050E+05 -6.645865E+05  2.427255E-09  7.634596E-10
       224  18 -2.510858E+05 -9.123451E+05 -1.798661E+05 -7.270390E+05 -2.197315E-09  1.508511E-10
       224  19  5.928179E+05  2.481017E+06  5.673798E+05 -7.476986E+05 -2.266930E+04 -1.630017E+05
       224  20  4.122045E+05  1.865065E+06  3.425785E+05 -6.852850E+05 -6.847988E+04 -4.811050E+04
       224  21  2.615915E+05  1.271713E+06  1.998444E+05 -7.313406E+05 -6.203235E+04  6.671915E+04
       224  22  2.419807E+04  1.784257E+05  2.360538E+04 -7.291409E+05 -2.304520E+04 -1.467368E+04
       224  23  9.085396E+03  1.769814E+05  1.325717E+04 -6.749238E+05 -6.860290E+04 -8.035567E+03
       224  24  5.286521E+03  1.790976E+05  1.000953E+04 -7.291868E+05 -6.183981E+04 -1.344789E+03
       224  25 -5.447881E+05 -2.119257E+06 -5.204532E+05 -7.106466E+05 -2.341322E+04  1.331089E+05
       224  26 -3.942035E+05 -1.508371E+06 -3.161942E+05 -6.645883E+05 -6.872483E+04  3.193306E+04
       224  27 -2.510804E+05 -9.123389E+05 -1.798499E+05 -7.270356E+05 -6.164751E+04 -6.929278E+04
       225   1  1.714783E+05  8.878741E+05  1.324722E+05 -7.325185E+05  4.074879E+04 -6.787002E+04
       225   2  2.919151E+04  2.831822E+05  2.776976E+04 -6.734284E+05  7.803393E+03 -7.482317E+04
       225   3 -1.088673E+05 -3.196249E+05 -7.149819E+04 -7.261721E+05 -2.565595E+04 -8.177315E+04
       225   4  5.188607E+03  1.787319E+05  9.768273E+03 -7.299297E+05  4.054666E+04 -3.034668E+02
       225   5  4.964993E+03  1.780824E+05  1.167584E+04 -6.740088E+05  7.596302E+03 -6.224990E+03
       225   6  8.804247E+03  1.787741E+05  1.829154E+04 -7.299201E+05 -2.586847E+04 -1.214962E+04
       225   7 -1.611257E+05 -5.299076E+05 -1.129359E+05 -7.273433E+05  4.034494E+04  6.718837E+04
       225   8 -1.925953E+04  7.300372E+04 -4.400641E+03 -6.745891E+05  7.389058E+03  6.236203E+04
       225   9  1.264646E+05  6.774255E+05  1.080898E+05 -7.336709E+05 -2.608170E+04  5.752826E+04
       225  10  1.714753E+05  8.878687E+05  1.324604E+05 -7.325162E+05  3.882655E-10  3.919000E-09
       225  11  2.918994E+04  2.831761E+05  2.775913E+04 -6.734280E+05  3.521644E-09 -2.712228E-10
       225  12 -1.088698E+05 -3.196323E+05 -7.151201E+04 -7.261738E+05  6.794222E-10 -4.465885E-09
       225  13  5.186841E+03  1.787315E+05  9.765183E+03 -7.299297E+05  6.178836E-11  1.957168E-10
       225  14  4.964921E+03  1.780823E+05  1.167566E+04 -6.740088E+05  1.201403E-09  6.913189E-11
       225  15  8.803488E+03  1.787737E+05  1.829000E+04 -7.299203E+05 -2.521976E-09  2.454390E-10
       225  16 -1.611287E+05 -5.299129E+05 -1.129475E+05 -7.273455E+05 -1.347800E-10 -4.753253E-09
       225  17 -1.926063E+04  7.299953E+04 -4.408053E+03 -6.745894E+05 -2.250882E-09  7.571573E-10
       225  18  1.264629E+05  6.774218E+05  1.080823E+05 -7.336697E+05 -1.459087E-09  3.817939E-09
       225  19  1.714783E+05  8.878741E+05  1.324722E+05 -7.325185E+05 -4.074879E+04  6.787002E+04
       225  20  2.919151E+04  2.831822E+05  2.776976E+04 -6.734284E+05 -7.803393E+03  7.482317E+04
       225  21 -1.088673E+05 -3.196249E+05 -7.149819E+04 -7.261721E+05  2.565595E+04  8.177315E+04
       225  22  5.188607E+03  1.787319E+05  9.768273E+03 -7.299297E+05 -4.054666E+04  3.034668E+02
       225  23  4.964993E+03  1.780824E+05  1.167584E+04 -6.740088E+05 -7.596302E+03  6.224990E+03
       225  24  8.804247E+03  1.787741E+05  1.829154E+04 -7.299201E+05  2.586847E+04  1.214962E+04
       225  25 -1.611257E+05 -5.299076E+05 -1.129359E+05 -7.273433E+05 -4.034494E+04 -6.718837E+04
       225  26 -1.925953E+04  7.300372E+04 -4.400641E+03 -6.745891E+05 -7.389058E+03 -6.236203E+04
       225  27  1.264646E+05  6.774255E+05  1.080898E+05 -7.336709E+05  2.608170E+04 -5.752826E+04
       226   1 -1.977249E+05 -6.999930E+05 -1.327594E+05 -7.279093E+05 -4.739531E+04 -8.537548E+04
       226   2 -3.278367E+05 -1.300990E+06 -2.499040E+05 -6.467665E+05 -5.768832E+04 -8.098396E+03
       226   3 -4.374628E+05 -1.906773E+06 -4.123687E+05 -6.744775E+05 -2.013777E+04  6.915677E+04
       226   4  9.800050E+03  1.810381E+05  2.352219E+04 -7.292599E+05 -4.760108E+04 -1.535606E+04
       226   5  2.601173E+04  1.747578E+05  4.175855E+04 -6.747690E+05 -5.759801E+04 -3.668734E+04
       226   6  7.981889E+04  1.804446E+05  8.317992E+04 -7.290897E+05 -1.981041E+04 -5.796453E+04
       226   7  2.172849E+05  1.062839E+06  1.797933E+05 -7.306115E+05 -4.780695E+04  5.475994E+04
       226   8  3.797309E+05  1.652595E+06  3.333175E+05 -7.028371E+05 -5.750528E+04 -6.534285E+04
       226   9  5.968060E+05  2.271711E+06  5.784870E+05 -7.838821E+05 -1.946139E+04 -1.855118E+05
       226  10 -1.977293E+05 -7.000015E+05 -1.327773E+05 -7.279125E+05  6.980722E-10 -1.613444E-10
       226  11 -3.278403E+05 -1.300991E+06 -2.499103E+05 -6.467669E+05  4.204557E-10  3.086232E-10
       226  12 -4.374645E+05 -1.906778E+06 -4.123785E+05 -6.744764E+05  5.240973E-10  6.744345E-10
       226  13  9.797552E+03  1.810373E+05  2.351748E+04 -7.292605E+05 -1.237586E-10 -1.542618E-10
       226  14  2.600780E+04  1.747555E+05  4.174978E+04 -6.747707E+05  1.172781E-09  9.749423E-11
       226  15  7.981757E+04  1.804409E+05  8.317287E+04 -7.290906E+05 -8.217225E-11  1.303259E-10
       226  16  2.172817E+05  1.062835E+06  1.797834E+05 -7.306094E+05 -2.693629E-09 -6.032157E-10
       226  17  3.797262E+05  1.652590E+06  3.333033E+05 -7.028402E+05 -2.130948E-09  8.240119E-10
       226  18  5.967964E+05  2.271674E+06  5.784219E+05 -7.838851E+05 -1.331490E-09 -8.382992E-10
       226  19 -1.977249E+05 -6.999930E+05 -1.327594E+05 -7.279093E+05  4.739531E+04  8.537548E+04
       226  20 -3.278367E+05 -1.300990E+06 -2.499040E+05 -6.467665E+05  5.768832E+04  8.098396E+03
       226  21 -4.374628E+05 -1.906773E+06 -4.123687E+05 -6.744775E+05  2.013777E+04 -6.915677E+04
       226  22  9.800050E+03  1.810381E+05  2.352219E+04 -7.292599E+05  4.760108E+04  1.535606E+04
       226  23  2.601173E+04  1.747578E+05  4.175855E+04 -6.747690E+05  5.759801E+04  3.668734E+04
       226  24  7.981889E+04  1.804446E+05  8.317992E+04 -7.290897E+05  1.981041E+04  5.796453E+04
       226  25  2.172849E+05  1.062839E+06  1.797933E+05 -7.306115E+05  4.780695E+04 -5.475994E+04
       226  26  3.797309E+05  1.652595E+06  3.333175E+05 -7.028371E+05  5.750528E+04  6.534285E+04
       226  27  5.968060E+05  2.271711E+06  5.784870E+05 -7.838821E+05  1.946139E+04  1.855118E+05
       227   1 -1.127835E+06 -5.661996E+05 -3.212003E+05 -4.689955E+05 -1.474964E+05 -4.198515E+04
       227   2 -1.052051E+06 -4.345754E+05 -2.010251E+05 -4.379708E+05 -9.211370E+04  1.018932E+04
       227   3 -9.943539E+05 -3.687176E+05 -1.445449E+05 -4.077851E+05 -2.906589E+04  4.204464E+04
       227   4 -3.373657E+05 -2.112232E+05 -1.082029E+05 -1.922629E+05 -7.494012E+04 -1.471294E+04
       227   5 -3.263872E+05 -1.411556E+05 -5.116160E+04 -2.072727E+05 -5.874417E+04  2.272615E+04
       227   6 -3.256980E+05 -1.290479E+05 -2.669672E+04 -2.231336E+05 -3.489832E+04  3.984677E+04
       227   7  4.537226E+05  1.438734E+05  1.047580E+05  8.481469E+04 -2.284250E+03  1.261405E+04
       227   8  3.998230E+05  1.523431E+05  9.867874E+04  2.368665E+04 -2.533295E+04  3.528250E+04
       227   9  3.434356E+05  1.106649E+05  9.113876E+04 -3.829576E+04 -4.073749E+04  3.764643E+04
       227  10 -1.127859E+06 -5.662073E+05 -3.212446E+05 -4.690005E+05  1.624463E-09  3.052036E-10
       227  11 -1.052060E+06 -4.345778E+05 -2.010413E+05 -4.379701E+05  1.935738E-09 -9.918533E-10
       227  12 -9.943552E+05 -3.687197E+05 -1.445498E+05 -4.077841E+05 -1.845381E-09 -1.167799E-09
       227  13 -3.373718E+05 -2.112249E+05 -1.082139E+05 -1.922638E+05  3.153139E-09  1.140384E-09
       227  14 -3.263911E+05 -1.411571E+05 -5.116905E+04 -2.072716E+05  1.468711E-09 -2.977247E-10
       227  15 -3.256997E+05 -1.290500E+05 -2.670199E+04 -2.231325E+05 -3.679246E-09 -1.903931E-09
       227  16  4.537225E+05  1.438733E+05  1.047577E+05  8.481472E+04  1.573413E-10  1.502914E-09
       227  17  3.998219E+05  1.523416E+05  9.867520E+04  2.368736E+04 -6.000372E-11 -1.026326E-09
       227  18  3.434335E+05  1.106629E+05  9.113298E+04 -3.829453E+04 -7.114550E-09 -9.322751E-10
       227  19 -1.127835E+06 -5.661996E+05 -3.212003E+05 -4.689955E+05  1.474964E+05  4.198515E+04
       227  20 -1.052051E+06 -4.345754E+05 -2.010251E+05 -4.379708E+05  9.211370E+04 -1.018932E+04
       227  21 -9.943539E+05 -3.687176E+05 -1.445449E+05 -4.077851E+05  2.906589E+04 -4.204464E+04
       227  22 -3.373657E+05 -2.112232E+05 -1.082029E+05 -1.922629E+05  7.494012E+04  1.471294E+04
       227  23 -3.263872E+05 -1.411556E+05 -5.116160E+04 -2.072727E+05  5.874417E+04 -2.272615E+04
       227  24 -3.256980E+05 -1.290479E+05 -2.669672E+04 -2.231336E+05  3.489832E+04 -3.984677E+04
       227  25  4.537226E+05  1.438734E+05  1.047580E+05  8.481469E+04  2.284250E+03 -1.261405E+04
       227  26  3.998230E+05  1.523431E+05  9.867874E+04  2.368665E+04  2.533295E+04 -3.528250E+04
       227  27  3.434356E+05  1.106649E+05  9.113876E+04 -3.829576E+04  4.073749E+04 -3.764643E+04
       228   1 -9.342630E+05 -3.517942E+05 -1.263374E+05 -3.962182E+05 -2.661693E+04  4.032339E+04
       228   2 -8.574438E+05 -3.101870E+05 -9.875713E+04 -3.665577E+05 -1.614499E+04  4.048010E+04
       228   3 -7.714000E+05 -2.843639E+05 -7.907602E+04 -3.498137E+05 -4.899678E+03  3.857723E+04
       228   4 -3.224298E+05 -1.283844E+05 -1.993217E+04 -2.224663E+05 -3.102713E+04  3.866096E+04
       228   5 -3.270650E+05 -1.183786E+05 -1.042495E+04 -2.169426E+05 -2.452496E+04  3.732787E+04
       228   6 -3.216925E+05 -1.233675E+05 -5.664256E+03 -2.243377E+05 -1.725100E+04  3.393567E+04
       228   7  2.897942E+05  9.506182E+04  8.646011E+04 -4.855514E+04 -3.544190E+04  3.699677E+04
       228   8  2.036146E+05  7.345916E+04  7.790067E+04 -6.720717E+04 -3.291255E+04  3.417275E+04
       228   9  1.282370E+05  3.765123E+04  6.774509E+04 -9.877513E+04 -2.961196E+04  2.929053E+04
       228  10 -9.342642E+05 -3.517961E+05 -1.263418E+05 -3.962173E+05 -5.320086E-09 -1.651889E-09
       228  11 -8.574445E+05 -3.101888E+05 -9.876069E+04 -3.665572E+05 -2.444019E-09  1.166513E-09
       228  12 -7.714004E+05 -2.843655E+05 -7.907886E+04 -3.498135E+05  1.364625E-09  2.233677E-09
       228  13 -3.224312E+05 -1.283863E+05 -1.993679E+04 -2.224653E+05 -2.808798E-09 -1.897600E-09
       228  14 -3.270660E+05 -1.183802E+05 -1.042869E+04 -2.169419E+05 -1.485725E-09 -1.257539E-09
       228  15 -3.216931E+05 -1.233688E+05 -5.666979E+03 -2.243373E+05  2.498797E-09  1.141038E-09
       228  16  2.897924E+05  9.506002E+04  8.645518E+04 -4.855408E+04 -2.669351E-09 -5.971296E-10
       228  17  2.036131E+05  7.345762E+04  7.789644E+04 -6.720626E+04  2.325990E-09  8.098623E-11
       228  18  1.282358E+05  3.765008E+04  6.774183E+04 -9.877443E+04  1.564832E-09 -1.098185E-09
       228  19 -9.342630E+05 -3.517942E+05 -1.263374E+05 -3.962182E+05  2.661693E+04 -4.032339E+04
       228  20 -8.574438E+05 -3.101870E+05 -9.875713E+04 -3.665577E+05  1.614499E+04 -4.048010E+04
       228  21 -7.714000E+05 -2.843639E+05 -7.907602E+04 -3.498137E+05  4.899678E+03 -3.857723E+04
       228  22 -3.224298E+05 -1.283844E+05 -1.993217E+04 -2.224663E+05  3.102713E+04 -3.866096E+04
       228  23 -3.270650E+05 -1.183786E+05 -1.042495E+04 -2.169426E+05  2.452496E+04 -3.732787E+04
       228  24 -3.216925E+05 -1.233675E+05 -5.664256E+03 -2.243377E+05  1.725100E+04 -3.393567E+04
       228  25  2.897942E+05  9.506182E+04  8.646011E+04 -4.855514E+04  3.544190E+04 -3.699677E+04
       228  26  2.036146E+05  7.345916E+04  7.790067E+04 -6.720717E+04  3.291255E+04 -3.417275E+04
       228  27  1.282370E+05  3.765123E+04  6.774509E+04 -9.877513E+04  2.961196E+04 -2.929053E+04
       229   1 -7.184790E+05 -2.657366E+05 -6.861070E+04 -3.354181E+05 -2.848252E+03  3.503361E+04
       229   2 -6.420643E+05 -2.299923E+05 -5.317211E+04 -3.055981E+05  1.134954E+03  2.919300E+04
       229   3 -5.539963E+05 -2.064682E+05 -3.896631E+04 -2.894226E+05  5.195452E+03  2.314249E+04
       229   4 -3.213877E+05 -1.233535E+05 -4.248198E+03 -2.242617E+05 -1.505917E+04  3.044605E+04
       229   5 -3.272242E+05 -1.171628E+05 -2.329680E+03 -2.174795E+05 -1.148078E+04  2.445507E+04
       229   6 -3.213347E+05 -1.231122E+05 -1.323239E+03 -2.243439E+05 -7.825340E+03  1.825419E+04
       229   7  7.587277E+04  1.904582E+04  6.011155E+04 -1.130385E+05 -2.727837E+04  2.585539E+04
       229   8 -1.227929E+04 -4.323730E+03  4.851085E+04 -1.293193E+05 -2.410322E+04  1.971463E+04
       229   9 -8.861734E+04 -3.975161E+04  3.631867E+04 -1.592429E+05 -2.085116E+04  1.336402E+04
       229  10 -7.184793E+05 -2.657380E+05 -6.861302E+04 -3.354180E+05  5.674539E-08  2.320403E-08
       229  11 -6.420645E+05 -2.299932E+05 -5.317371E+04 -3.055981E+05  1.100029E-08  5.224324E-09
       229  12 -5.539965E+05 -2.064688E+05 -3.896737E+04 -2.894227E+05 -5.024911E-08 -1.930002E-08
       229  13 -3.213882E+05 -1.233545E+05 -4.250366E+03 -2.242613E+05  4.182024E-09  2.202068E-09
       229  14 -3.272245E+05 -1.171634E+05 -2.331051E+03 -2.174792E+05  7.882498E-09  6.799403E-09
       229  15 -3.213348E+05 -1.231126E+05 -1.323980E+03 -2.243438E+05  2.772333E-09  3.047081E-09
       229  16  7.587179E+04  1.904490E+04  6.010890E+04 -1.130379E+05 -4.843898E-08 -1.862359E-08
       229  17 -1.228002E+04 -4.324303E+03  4.850902E+04 -1.293189E+05  1.009765E-08  6.124857E-09
       229  18 -8.861786E+04 -3.975192E+04  3.631752E+04 -1.592427E+05  5.687013E-08  2.544046E-08
       229  19 -7.184790E+05 -2.657366E+05 -6.861070E+04 -3.354181E+05  2.848252E+03 -3.503361E+04
       229  20 -6.420643E+05 -2.299923E+05 -5.317211E+04 -3.055981E+05 -1.134954E+03 -2.919300E+04
       229  21 -5.539963E+05 -2.064682E+05 -3.896631E+04 -2.894226E+05 -5.195452E+03 -2.314249E+04
       229  22 -3.213877E+05 -1.233535E+05 -4.248198E+03 -2.242617E+05  1.505917E+04 -3.044605E+04
       229  23 -3.272242E+05 -1.171628E+05 -2.329680E+03 -2.174795E+05  1.148078E+04 -2.445507E+04
       229  24 -3.213347E+05 -1.231122E+05 -1.323239E+03 -2.243439E+05  7.825340E+03 -1.825419E+04
       229  25  7.587277E+04  1.904582E+04  6.011155E+04 -1.130385E+05  2.727837E+04 -2.585539E+04
       229  26 -1.227929E+04 -4.323730E+03  4.851085E+04 -1.293193E+05  2.410322E+04 -1.971463E+04
       229  27 -8.861734E+04 -3.975161E+04  3.631867E+04 -1.592429E+05  2.085116E+04 -1.336402E+04
       230   1 -5.016444E+05 -1.876831E+05 -2.985842E+04 -2.748213E+05  6.852435E+03  1.927991E+04
       230   2 -4.253043E+05 -1.522545E+05 -1.643787E+04 -2.449418E+05  9.758412E+03  1.267430E+04
       230   3 -3.370572E+05 -1.287938E+05 -3.296865E+03 -2.287385E+05  1.267117E+04  6.049237E+03
       230   4 -3.212978E+05 -1.231150E+05 -1.029325E+03 -2.243339E+05 -6.156051E+03  1.439689E+04
       230   5 -3.272465E+05 -1.171308E+05 -6.731933E+02 -2.174939E+05 -3.288439E+03  7.777375E+03
       230   6 -3.212903E+05 -1.231084E+05 -5.675153E+02 -2.243335E+05 -4.141024E+02  1.138399E+03
       230   7 -1.409137E+05 -5.854258E+04  2.780045E+04 -1.738321E+05 -1.916869E+04  9.512306E+03
       230   8 -2.291775E+05 -8.200571E+04  1.509218E+04 -1.900417E+05 -1.633755E+04  2.879600E+03
       230   9 -3.055227E+05 -1.174229E+05  2.162564E+03 -2.199282E+05 -1.349974E+04 -3.772574E+03
       230  10 -5.016446E+05 -1.876835E+05 -2.985921E+04 -2.748214E+05  2.294729E-09 -5.110683E-10
       230  11 -4.253044E+05 -1.522547E+05 -1.643835E+04 -2.449419E+05 -8.541577E-09 -3.285989E-09
       230  12 -3.370573E+05 -1.287939E+05 -3.297236E+03 -2.287386E+05 -1.058325E-08 -3.684303E-09
       230  13 -3.212979E+05 -1.231152E+05 -1.029785E+03 -2.243339E+05 -4.112000E-09 -3.027821E-10
       230  14 -3.272466E+05 -1.171309E+05 -6.733273E+02 -2.174939E+05 -5.479304E-09 -3.370244E-09
       230  15 -3.212903E+05 -1.231084E+05 -5.675181E+02 -2.243335E+05 -5.915895E-09  1.514855E-11
       230  16 -1.409142E+05 -5.854277E+04  2.779959E+04 -1.738320E+05 -7.078337E-09  3.528552E-11
       230  17 -2.291778E+05 -8.200579E+04  1.509167E+04 -1.900417E+05 -6.234032E-09 -1.790389E-09
       230  18 -3.055229E+05 -1.174229E+05  2.162195E+03 -2.199283E+05  6.102887E-09  3.184749E-09
       230  19 -5.016444E+05 -1.876831E+05 -2.985842E+04 -2.748213E+05 -6.852435E+03 -1.927991E+04
       230  20 -4.253043E+05 -1.522545E+05 -1.643787E+04 -2.449418E+05 -9.758412E+03 -1.267430E+04
       230  21 -3.370572E+05 -1.287938E+05 -3.296865E+03 -2.287385E+05 -1.267117E+04 -6.049237E+03
       230  22 -3.212978E+05 -1.231150E+05 -1.029325E+03 -2.243339E+05  6.156051E+03 -1.439689E+04
       230  23 -3.272465E+05 -1.171308E+05 -6.731933E+02 -2.174939E+05  3.288439E+03 -7.777375E+03
       230  24 -3.212903E+05 -1.231084E+05 -5.675153E+02 -2.243335E+05  4.141024E+02 -1.138399E+03
       230  25 -1.409137E+05 -5.854258E+04  2.780045E+04 -1.738321E+05  1.916869E+04 -9.512306E+03
       230  26 -2.291775E+05 -8.200571E+04  1.509218E+04 -1.900417E+05  1.633755E+04 -2.879600E+03
       230  27 -3.055227E+05 -1.174229E+05  2.162564E+03 -2.199282E+05  1.349974E+04  3.772574E+03
       231   1 -2.847549E+05 -1.099931E+05  5.471866E+03 -2.141243E+05  1.424897E+04  2.141457E+03
       231   2 -2.084003E+05 -7.457522E+04  1.829523E+04 -1.842423E+05  1.714995E+04 -4.486586E+03
       231   3 -1.201372E+05 -5.111487E+04  3.084944E+04 -1.680389E+05  2.004393E+04 -1.109440E+04
       231   4 -3.212932E+05 -1.231081E+05 -5.908801E+02 -2.243346E+05  1.163095E+03 -2.769626E+03
       231   5 -3.272434E+05 -1.171254E+05 -8.025394E+02 -2.174953E+05  4.101945E+03 -9.384066E+03
       231   6 -3.212995E+05 -1.231083E+05 -1.313706E+03 -2.243373E+05  7.033765E+03 -1.597833E+04
       231   7 -3.578293E+05 -1.362227E+05 -6.652809E+03 -2.345441E+05 -1.192182E+04 -7.680350E+03
       231   8 -4.460710E+05 -1.596739E+05 -1.989986E+04 -2.507421E+05 -8.943414E+03 -1.428055E+04
       231   9 -5.224202E+05 -1.950984E+05 -3.347754E+04 -2.806191E+05 -5.972074E+03 -2.086065E+04
       231  10 -2.847551E+05 -1.099932E+05  5.471475E+03 -2.141243E+05  1.732017E-09  1.922977E-09
       231  11 -2.084006E+05 -7.457532E+04  1.829464E+04 -1.842422E+05 -6.887803E-09 -2.652046E-09
       231  12 -1.201377E+05 -5.111511E+04  3.084845E+04 -1.680387E+05 -1.087068E-08 -2.218314E-09
       231  13 -3.212932E+05 -1.231081E+05 -5.908970E+02 -2.243346E+05 -4.361789E-09 -2.894651E-10
       231  14 -3.272435E+05 -1.171255E+05 -8.027364E+02 -2.174952E+05 -6.600551E-09 -3.210350E-09
       231  15 -3.212996E+05 -1.231086E+05 -1.314279E+03 -2.243372E+05 -2.982583E-09 -1.793301E-09
       231  16 -3.578294E+05 -1.362228E+05 -6.653188E+03 -2.345442E+05 -1.077217E-08 -2.279363E-09
       231  17 -4.460711E+05 -1.596742E+05 -1.990040E+04 -2.507422E+05 -7.604526E-09 -2.191576E-09
       231  18 -5.224204E+05 -1.950988E+05 -3.347843E+04 -2.806192E+05  3.122096E-09 -1.134229E-10
       231  19 -2.847549E+05 -1.099931E+05  5.471866E+03 -2.141243E+05 -1.424897E+04 -2.141457E+03
       231  20 -2.084003E+05 -7.457522E+04  1.829523E+04 -1.842423E+05 -1.714995E+04  4.486586E+03
       231  21 -1.201372E+05 -5.111487E+04  3.084944E+04 -1.680389E+05 -2.004393E+04  1.109440E+04
       231  22 -3.212932E+05 -1.231081E+05 -5.908801E+02 -2.243346E+05 -1.163095E+03  2.769626E+03
       231  23 -3.272434E+05 -1.171254E+05 -8.025394E+02 -2.174953E+05 -4.101945E+03  9.384066E+03
       231  24 -3.212995E+05 -1.231083E+05 -1.313706E+03 -2.243373E+05 -7.033765E+03  1.597833E+04
       231  25 -3.578293E+05 -1.362227E+05 -6.652809E+03 -2.345441E+05  1.192182E+04  7.680350E+03
       231  26 -4.460710E+05 -1.596739E+05 -1.989986E+04 -2.507421E+05  8.943414E+03  1.428055E+04
       231  27 -5.224202E+05 -1.950984E+05 -3.347754E+04 -2.806191E+05  5.972074E+03  2.086065E+04
       232   1 -6.784618E+04 -3.233225E+04  3.925993E+04 -1.534665E+05  2.178226E+04 -1.492438E+04
       232   2  8.521269E+03  3.098073E+03  5.111601E+04 -1.235316E+05  2.538948E+04 -2.113725E+04
       232   3  9.662763E+04  2.639979E+04  6.209716E+04 -1.072420E+05  2.891779E+04 -2.713525E+04
       232   4 -3.213506E+05 -1.231049E+05 -1.715867E+03 -2.243541E+05  8.758519E+03 -1.981414E+04
       232   5 -3.272080E+05 -1.171520E+05 -3.062461E+03 -2.174771E+05  1.277876E+04 -2.587371E+04
       232   6 -3.214152E+05 -1.234109E+05 -5.611955E+03 -2.242487E+05  1.671989E+04 -3.171839E+04
       232   7 -5.747857E+05 -2.138709E+05 -4.269225E+04 -2.952143E+05 -4.259583E+03 -2.470179E+04
       232   8 -6.628140E+05 -2.373897E+05 -5.724202E+04 -3.113742E+05  1.753363E+02 -3.060743E+04
       232   9 -7.392656E+05 -2.732017E+05 -7.332277E+04 -3.411801E+05  4.530843E+03 -3.629822E+04
       232  10 -6.784675E+04 -3.233262E+04  3.925862E+04 -1.534663E+05 -2.037726E-09  2.016536E-09
       232  11  8.520457E+03  3.097420E+03  5.111396E+04 -1.235312E+05 -3.636986E-09  2.022742E-09
       232  12  9.662653E+04  2.639877E+04  6.209420E+04 -1.072414E+05  7.002848E-10  2.237783E-09
       232  13 -3.213508E+05 -1.231054E+05 -1.716749E+03 -2.243539E+05 -2.736486E-11 -3.765279E-10
       232  14 -3.272083E+05 -1.171528E+05 -3.064025E+03 -2.174768E+05  4.812049E-10 -4.456045E-10
       232  15 -3.214158E+05 -1.234120E+05 -5.614370E+03 -2.242483E+05  9.701125E-09  1.535899E-09
       232  16 -5.747858E+05 -2.138716E+05 -4.269343E+04 -2.952144E+05  7.754636E-10 -3.418132E-09
       232  17 -6.628142E+05 -2.373907E+05 -5.724378E+04 -3.113742E+05  4.095697E-09 -2.384314E-09
       232  18 -7.392659E+05 -2.732031E+05 -7.332529E+04 -3.411800E+05  1.325092E-08  2.129519E-09
       232  19 -6.784618E+04 -3.233225E+04  3.925993E+04 -1.534665E+05 -2.178226E+04  1.492438E+04
       232  20  8.521269E+03  3.098073E+03  5.111601E+04 -1.235316E+05 -2.538948E+04  2.113725E+04
       232  21  9.662763E+04  2.639979E+04  6.209716E+04 -1.072420E+05 -2.891779E+04  2.713525E+04
       232  22 -3.213506E+05 -1.231049E+05 -1.715867E+03 -2.243541E+05 -8.758519E+03  1.981414E+04
       232  23 -3.272080E+05 -1.171520E+05 -3.062461E+03 -2.174771E+05 -1.277876E+04  2.587371E+04
       232  24 -3.214152E+05 -1.234109E+05 -5.611955E+03 -2.242487E+05 -1.671989E+04  3.171839E+04
       232  25 -5.747857E+05 -2.138709E+05 -4.269225E+04 -2.952143E+05  4.259583E+03  2.470179E+04
       232  26 -6.628140E+05 -2.373897E+05 -5.724202E+04 -3.113742E+05 -1.753363E+02  3.060743E+04
       232  27 -7.392656E+05 -2.732017E+05 -7.332277E+04 -3.411801E+05 -4.530843E+03  3.629822E+04
       233   1  1.489900E+05  4.490921E+04  6.927522E+04 -9.311293E+04  3.150182E+04 -3.047144E+04
       233   2  2.241767E+05  8.079824E+04  7.793492E+04 -6.093021E+04  3.639166E+04 -3.471705E+04
       233   3  3.095794E+05  1.014808E+05  8.353918E+04 -4.146574E+04  4.049174E+04 -3.685452E+04
       233   4 -3.218052E+05 -1.234310E+05 -7.487732E+03 -2.243562E+05  1.915882E+04 -3.511039E+04
       233   5 -3.269898E+05 -1.187315E+05 -1.378967E+04 -2.167594E+05  2.811674E+04 -3.783046E+04
       233   6 -3.227746E+05 -1.300495E+05 -2.637475E+04 -2.218857E+05  3.628412E+04 -3.844144E+04
       233   7 -7.923685E+05 -2.917511E+05 -8.425644E+04 -3.555077E+05  6.825606E+03 -3.974570E+04
       233   8 -8.778351E+05 -3.182306E+05 -1.055223E+05 -3.724594E+05  1.984956E+04 -4.094091E+04
       233   9 -9.547046E+05 -3.615375E+05 -1.363005E+05 -4.021327E+05  3.208105E+04 -4.002659E+04
       233  10  1.489887E+05  4.490795E+04  6.927161E+04 -9.311215E+04  8.139958E-09  3.690107E-09
       233  11  2.241750E+05  8.079659E+04  7.793017E+04 -6.092919E+04  1.275125E-08  1.917551E-09
       233  12  3.095773E+05  1.014789E+05  8.353355E+04 -4.146454E+04  1.120108E-08  3.166012E-10
       233  13 -3.218059E+05 -1.234325E+05 -7.490738E+03 -2.243556E+05  1.475914E-08  3.380243E-09
       233  14 -3.269910E+05 -1.187332E+05 -1.379384E+04 -2.167586E+05  1.422528E-08  3.331111E-09
       233  15 -3.227764E+05 -1.300515E+05 -2.638000E+04 -2.218846E+05  2.830310E-09  6.609008E-10
       233  16 -7.923689E+05 -2.917528E+05 -8.425949E+04 -3.555074E+05  1.173771E-08  3.359754E-09
       233  17 -8.778360E+05 -3.182325E+05 -1.055262E+05 -3.724588E+05  3.512438E-09  4.947784E-09
       233  18 -9.547061E+05 -3.615395E+05 -1.363055E+05 -4.021317E+05 -5.027522E-09  1.557342E-09
       233  19  1.489900E+05  4.490921E+04  6.927522E+04 -9.311293E+04 -3.150182E+04  3.047144E+04
       233  20  2.241767E+05  8.079824E+04  7.793492E+04 -6.093021E+04 -3.639166E+04  3.471705E+04
       233  21  3.095794E+05  1.014808E+05  8.353918E+04 -4.146574E+04 -4.049174E+04  3.685452E+04
       233  22 -3.218052E+05 -1.234310E+05 -7.487732E+03 -2.243562E+05 -1.915882E+04  3.511039E+04
       233  23 -3.269898E+05 -1.187315E+05 -1.378967E+04 -2.167594E+05 -2.811674E+04  3.783046E+04
       233  24 -3.227746E+05 -1.300495E+05 -2.637475E+04 -2.218857E+05 -3.628412E+04  3.844144E+04
       233  25 -7.923685E+05 -2.917511E+05 -8.425644E+04 -3.555077E+05 -6.825606E+03  3.974570E+04
       233  26 -8.778351E+05 -3.182306E+05 -1.055223E+05 -3.724594E+05 -1.984956E+04  4.094091E+04
       233  27 -9.547046E+05 -3.615375E+05 -1.363005E+05 -4.021327E+05 -3.208105E+04  4.002659E+04
       234   1  3.633662E+05  1.157186E+05  8.609219E+04 -3.276356E+04  4.677983E+04 -3.708615E+04
       234   2  4.140813E+05  1.589471E+05  8.618552E+04  4.045059E+04  3.887423E+04 -3.151633E+04
       234   3  4.556326E+05  1.369878E+05  7.503774E+04  1.165538E+05  2.313911E+04 -5.146802E+03
       234   4 -3.270243E+05 -1.309896E+05 -3.532655E+04 -2.228491E+05  4.111099E+04 -3.922300E+04
       234   5 -3.261642E+05 -1.487577E+05 -6.769808E+04 -2.038684E+05  7.340280E+04 -1.854013E+04
       234   6 -3.424682E+05 -2.397322E+05 -1.431850E+05 -1.819982E+05  9.785876E+04  2.295539E+04
       234   7 -1.016910E+06 -3.776539E+05 -1.567598E+05 -4.127382E+05  3.544887E+04 -4.135739E+04
       234   8 -1.065822E+06 -4.563610E+05 -2.216008E+05 -4.478966E+05  1.078867E+05 -5.585980E+03
       234   9 -1.139890E+06 -6.162765E+05 -3.614321E+05 -4.801520E+05  1.724713E+05  5.099374E+04
       234  10  3.633635E+05  1.157165E+05  8.608550E+04 -3.276216E+04  1.512919E-09 -2.141058E-09
       234  11  4.140795E+05  1.589456E+05  8.618081E+04  4.045158E+04  6.173431E-11  2.028915E-10
       234  12  4.556320E+05  1.369876E+05  7.503668E+04  1.165539E+05 -9.418639E-10  1.927282E-10
       234  13 -3.270266E+05 -1.309917E+05 -3.533261E+04 -2.228478E+05  2.193374E-10 -8.372110E-10
       234  14 -3.261701E+05 -1.487596E+05 -6.770886E+04 -2.038674E+05 -2.019471E-09  1.379114E-09
       234  15 -3.424786E+05 -2.397353E+05 -1.432040E+05 -1.820000E+05 -1.511991E-09  2.704640E-09
       234  16 -1.016912E+06 -3.776561E+05 -1.567654E+05 -4.127370E+05 -7.439016E-10  3.932434E-10
       234  17 -1.065834E+06 -4.563641E+05 -2.216227E+05 -4.478961E+05 -1.143127E-09  1.321468E-10
       234  18 -1.139923E+06 -6.162873E+05 -3.614930E+05 -4.801591E+05  8.526161E-10 -1.202234E-10
       234  19  3.633662E+05  1.157186E+05  8.609219E+04 -3.276356E+04 -4.677983E+04  3.708615E+04
       234  20  4.140813E+05  1.589471E+05  8.618552E+04  4.045059E+04 -3.887423E+04  3.151633E+04
       234  21  4.556326E+05  1.369878E+05  7.503774E+04  1.165538E+05 -2.313911E+04  5.146802E+03
       234  22 -3.270243E+05 -1.309896E+05 -3.532655E+04 -2.228491E+05 -4.111099E+04  3.922300E+04
       234  23 -3.261642E+05 -1.487577E+05 -6.769808E+04 -2.038684E+05 -7.340280E+04  1.854013E+04
       234  24 -3.424682E+05 -2.397322E+05 -1.431850E+05 -1.819982E+05 -9.785876E+04 -2.295539E+04
       234  25 -1.016910E+06 -3.776539E+05 -1.567598E+05 -4.127382E+05 -3.544887E+04  4.135739E+04
       234  26 -1.065822E+06 -4.563610E+05 -2.216008E+05 -4.478966E+05 -1.078867E+05  5.585980E+03
       234  27 -1.139890E+06 -6.162765E+05 -3.614321E+05 -4.801520E+05 -1.724713E+05 -5.099374E+04
       235   1  1.220818E+06  1.744038E+05  1.523438E+05  8.174259E+03  3.436233E+04 -1.446181E+04
       235   2  1.172812E+06  2.084607E+05  1.355903E+05  3.156053E+04  1.056155E+04 -4.994593E+04
       235   3  1.120223E+06  2.116159E+05  1.266420E+05  6.252134E+04 -1.327685E+04 -6.299182E+04
       235   4  1.790843E+05 -8.165469E+04 -8.830431E+04  6.056999E+04 -6.201800E+04 -1.465620E+04
       235   5  1.854177E+05 -2.462242E+04 -4.388983E+04  5.669755E+04 -3.944727E+04 -5.006107E+04
       235   6  1.791084E+05 -6.567017E+03 -2.385574E+04  6.039929E+04 -1.691592E+04 -6.300923E+04
       235   7 -8.616220E+05 -3.377737E+05 -3.289884E+05  1.128768E+05 -1.582380E+05 -1.486701E+04
       235   8 -8.010233E+05 -2.577565E+05 -2.233991E+05  8.179305E+04 -8.937880E+04 -5.018035E+04
       235   9 -7.611271E+05 -2.247943E+05 -1.743767E+05  5.828004E+04 -2.054967E+04 -6.302663E+04
       235  10  1.220817E+06  1.744033E+05  1.523412E+05  8.174659E+03  6.478176E-09 -1.053801E-09
       235  11  1.172811E+06  2.084579E+05  1.355854E+05  3.156095E+04  6.307407E-09 -4.845338E-09
       235  12  1.120222E+06  2.116116E+05  1.266342E+05  6.252067E+04 -1.606411E-09 -3.371364E-09
       235  13  1.790801E+05 -8.165595E+04 -8.831194E+04  6.056926E+04 -1.579172E-09  7.602215E-10
       235  14  1.854153E+05 -2.462553E+04 -4.389746E+04  5.669596E+04 -3.784416E-09 -4.149496E-09
       235  15  1.791070E+05 -6.571358E+03 -2.386374E+04  6.039843E+04  2.776696E-09 -1.666219E-11
       235  16 -8.616490E+05 -3.377807E+05 -3.290359E+05  1.128749E+05 -7.702216E-09 -4.528458E-10
       235  17 -8.010326E+05 -2.577613E+05 -2.234189E+05  8.178943E+04 -2.087692E-09 -8.420255E-09
       235  18 -7.611286E+05 -2.247987E+05 -1.743850E+05  5.827899E+04  2.265569E-09 -6.518898E-09
       235  19  1.220818E+06  1.744038E+05  1.523438E+05  8.174259E+03 -3.436233E+04  1.446181E+04
       235  20  1.172812E+06  2.084607E+05  1.355903E+05  3.156053E+04 -1.056155E+04  4.994593E+04
       235  21  1.120223E+06  2.116159E+05  1.266420E+05  6.252134E+04  1.327685E+04  6.299182E+04
       235  22  1.790843E+05 -8.165469E+04 -8.830431E+04  6.056999E+04  6.201800E+04  1.465620E+04
       235  23  1.854177E+05 -2.462242E+04 -4.388983E+04  5.669755E+04  3.944727E+04  5.006107E+04
       235  24  1.791084E+05 -6.567017E+03 -2.385574E+04  6.039929E+04  1.691592E+04  6.300923E+04
       235  25 -8.616220E+05 -3.377737E+05 -3.289884E+05  1.128768E+05  1.582380E+05  1.486701E+04
       235  26 -8.010233E+05 -2.577565E+05 -2.233991E+05  8.179305E+04  8.937880E+04  5.018035E+04
       235  27 -7.611271E+05 -2.247943E+05 -1.743767E+05  5.828004E+04  2.054967E+04  6.302663E+04
       236   1  1.089938E+06  2.045843E+05  1.240758E+05  5.960068E+04 -9.951941E+03 -6.320553E+04
       236   2  1.040185E+06  1.959262E+05  1.188534E+05  5.665581E+04 -1.040638E+04 -6.379301E+04
       236   3  9.899993E+05  1.853015E+05  1.134401E+05  6.283386E+04 -1.086810E+04 -6.179071E+04
       236   4  1.816258E+05 -5.329462E+03 -1.793029E+04  6.075697E+04 -1.382515E+04 -6.322368E+04
       236   5  1.823210E+05 -1.243331E+03 -9.771341E+03  5.618813E+04 -8.932245E+03 -6.379788E+04
       236   6  1.816533E+05 -5.323373E+01 -5.516185E+03  6.074309E+04 -4.046545E+03 -6.178044E+04
       236   7 -7.258643E+05 -2.152837E+05 -1.599561E+05  6.191101E+04 -1.769291E+04 -6.324187E+04
       236   8 -6.748048E+05 -1.984477E+05 -1.384106E+05  5.572065E+04 -7.460059E+03 -6.380275E+04
       236   9 -6.260357E+05 -1.854384E+05 -1.244839E+05  5.865470E+04  2.766503E+03 -6.177022E+04
       236  10  1.089936E+06  2.045799E+05  1.240681E+05  5.960017E+04 -7.591902E-09 -4.551884E-09
       236  11  1.040183E+06  1.959218E+05  1.188456E+05  5.665527E+04  1.999275E-09  6.059952E-10
       236  12  9.899981E+05  1.852974E+05  1.134327E+05  6.283332E+04  2.671735E-09  2.530487E-09
       236  13  1.816245E+05 -5.333806E+03 -1.793816E+04  6.075627E+04  6.166232E-10 -2.390557E-09
       236  14  1.823199E+05 -1.247724E+03 -9.779140E+03  5.618767E+04  4.206561E-10  7.138036E-11
       236  15  1.816523E+05 -5.733707E+01 -5.523389E+03  6.074288E+04  1.356286E-09 -2.366007E-09
       236  16 -7.258657E+05 -2.152881E+05 -1.599642E+05  6.191010E+04  7.205456E-09  1.378361E-09
       236  17 -6.748059E+05 -1.984521E+05 -1.384183E+05  5.572027E+04  6.297940E-10  3.182013E-09
       236  18 -6.260367E+05 -1.854425E+05 -1.244911E+05  5.865483E+04 -4.820498E-09  1.304657E-11
       236  19  1.089938E+06  2.045843E+05  1.240758E+05  5.960068E+04  9.951941E+03  6.320553E+04
       236  20  1.040185E+06  1.959262E+05  1.188534E+05  5.665581E+04  1.040638E+04  6.379301E+04
       236  21  9.899993E+05  1.853015E+05  1.134401E+05  6.283386E+04  1.086810E+04  6.179071E+04
       236  22  1.816258E+05 -5.329462E+03 -1.793029E+04  6.075697E+04  1.382515E+04  6.322368E+04
       236  23  1.823210E+05 -1.243331E+03 -9.771341E+03  5.618813E+04  8.932245E+03  6.379788E+04
       236  24  1.816533E+05 -5.323373E+01 -5.516185E+03  6.074309E+04  4.046545E+03  6.178044E+04
       236  25 -7.258643E+05 -2.152837E+05 -1.599561E+05  6.191101E+04  1.769291E+04  6.324187E+04
       236  26 -6.748048E+05 -1.984477E+05 -1.384106E+05  5.572065E+04  7.460059E+03  6.380275E+04
       236  27 -6.260357E+05 -1.854384E+05 -1.244839E+05  5.865470E+04 -2.766503E+03  6.177022E+04
       237   1  9.587153E+05  1.780208E+05  1.096106E+05  6.251894E+04 -1.001223E+04 -5.977558E+04
       237   2  9.088775E+05  1.666988E+05  1.035651E+05  5.783441E+04 -9.463859E+03 -5.634006E+04
       237   3  8.589335E+05  1.553322E+05  9.714497E+04  6.244141E+04 -8.917962E+03 -5.260661E+04
       237   4  1.819177E+05  4.934231E+00 -4.172734E+03  6.078183E+04 -3.220268E+03 -5.976439E+04
       237   5  1.820376E+05  2.350742E+02 -2.358292E+03  5.613532E+04 -2.057734E+03 -5.632555E+04
       237   6  1.819421E+05  3.139419E+02 -1.345443E+03  6.078096E+04 -8.976275E+02 -5.258862E+04
       237   7 -5.942728E+05 -1.780389E+05 -1.179663E+05  5.904656E+04  3.563555E+03 -5.975323E+04
       237   8 -5.442702E+05 -1.662530E+05 -1.082904E+05  5.443791E+04  5.340093E+03 -5.631109E+04
       237   9 -4.945877E+05 -1.547254E+05 -9.984324E+04  5.912204E+04  7.114336E+03 -5.257066E+04
       237  10  9.587143E+05  1.780170E+05  1.096037E+05  6.251846E+04 -3.862260E-09  3.951349E-09
       237  11  9.088766E+05  1.666954E+05  1.035590E+05  5.783398E+04  3.180106E-09  3.219051E-09
       237  12  8.589327E+05  1.553292E+05  9.713962E+04  6.244103E+04  8.320725E-09  9.748564E-10
       237  13  1.819167E+05  1.095661E+00 -4.179466E+03  6.078168E+04 -4.855646E-10 -3.414776E-09
       237  14  1.820368E+05  2.316660E+02 -2.364263E+03  5.613522E+04 -2.054909E-10  5.078304E-09
       237  15  1.819413E+05  3.109717E+02 -1.350642E+03  6.078092E+04 -7.122649E-11  6.198078E-09
       237  16 -5.942738E+05 -1.780427E+05 -1.179731E+05  5.904673E+04  2.961375E-09  1.670698E-09
       237  17 -5.442711E+05 -1.662564E+05 -1.082964E+05  5.443815E+04 -3.554127E-09  6.086095E-09
       237  18 -4.945885E+05 -1.547284E+05 -9.984853E+04  5.912235E+04 -7.876424E-09  3.894892E-10
       237  19  9.587153E+05  1.780208E+05  1.096106E+05  6.251894E+04  1.001223E+04  5.977558E+04
       237  20  9.088775E+05  1.666988E+05  1.035651E+05  5.783441E+04  9.463859E+03  5.634006E+04
       237  21  8.589335E+05  1.553322E+05  9.714497E+04  6.244141E+04  8.917962E+03  5.260661E+04
       237  22  1.819177E+05  4.934231E+00 -4.172734E+03  6.078183E+04  3.220268E+03  5.976439E+04
       237  23  1.820376E+05  2.350742E+02 -2.358292E+03  5.613532E+04  2.057734E+03  5.632555E+04
       237  24  1.819421E+05  3.139419E+02 -1.345443E+03  6.078096E+04  8.976275E+02  5.258862E+04
       237  25 -5.942728E+05 -1.780389E+05 -1.179663E+05  5.904656E+04 -3.563555E+03  5.975323E+04
       237  26 -5.442702E+05 -1.662530E+05 -1.082904E+05  5.443791E+04 -5.340093E+03  5.631109E+04
       237  27 -4.945877E+05 -1.547254E+05 -9.984324E+04  5.912204E+04 -7.114336E+03  5.257066E+04
       238   1  8.275987E+05  1.481086E+05  9.268557E+04  6.235628E+04 -8.706033E+03 -5.033682E+04
       238   2  7.777815E+05  1.366908E+05  8.590706E+04  5.760048E+04 -8.498199E+03 -4.644067E+04
       238   3  7.279110E+05  1.253349E+05  7.899576E+04  6.214743E+04 -8.291880E+03 -4.251098E+04
       238   4  1.819825E+05  3.166179E+02 -1.018648E+03  6.078356E+04 -6.909489E+02 -5.031789E+04
       238   5  1.820269E+05  3.053611E+02 -5.791619E+02  5.613191E+04 -4.144173E+02 -4.642007E+04
       238   6  1.820026E+05  3.439365E+02 -3.206990E+02  6.078352E+04 -1.393857E+02 -4.248869E+04
       238   7 -4.632135E+05 -1.474945E+05 -9.472946E+04  5.921223E+04  7.316158E+03 -5.029898E+04
       238   8 -4.133699E+05 -1.360964E+05 -8.707097E+04  5.466453E+04  7.661940E+03 -4.639950E+04
       238   9 -3.636053E+05 -1.246607E+05 -7.964183E+04  5.942062E+04  8.006246E+03 -4.246643E+04
       238  10  8.275979E+05  1.481059E+05  9.268067E+04  6.235593E+04  3.401306E-09  1.677299E-09
       238  11  7.777809E+05  1.366885E+05  8.590287E+04  5.760016E+04  5.755492E-09  9.709186E-09
       238  12  7.279104E+05  1.253329E+05  7.899224E+04  6.214715E+04 -1.190691E-09  6.453531E-09
       238  13  1.819818E+05  3.138987E+02 -1.023407E+03  6.078353E+04  1.838897E-09  1.978347E-09
       238  14  1.820263E+05  3.030469E+02 -5.832119E+02  5.613190E+04 -1.223758E-09  8.804438E-09
       238  15  1.820021E+05  3.419978E+02 -3.240919E+02  6.078352E+04  5.630724E-10  1.600651E-09
       238  16 -4.632143E+05 -1.474973E+05 -9.473432E+04  5.921252E+04 -2.459240E-09 -4.407101E-10
       238  17 -4.133706E+05 -1.360987E+05 -8.707513E+04  5.466482E+04 -1.133974E-09  5.474146E-10
       238  18 -3.636059E+05 -1.246627E+05 -7.964534E+04  5.942090E+04 -7.069886E-10 -7.112827E-10
       238  19  8.275987E+05  1.481086E+05  9.268557E+04  6.235628E+04  8.706033E+03  5.033682E+04
       238  20  7.777815E+05  1.366908E+05  8.590706E+04  5.760048E+04  8.498199E+03  4.644067E+04
       238  21  7.279110E+05  1.253349E+05  7.899576E+04  6.214743E+04  8.291880E+03  4.251098E+04
       238  22  1.819825E+05  3.166179E+02 -1.018648E+03  6.078356E+04  6.909489E+02  5.031789E+04
       238  23  1.820269E+05  3.053611E+02 -5.791619E+02  5.613191E+04  4.144173E+02  4.642007E+04
       238  24  1.820026E+05  3.439365E+02 -3.206990E+02  6.078352E+04  1.393857E+02  4.248869E+04
       238  25 -4.632135E+05 -1.474945E+05 -9.472946E+04  5.921223E+04 -7.316158E+03  5.029898E+04
       238  26 -4.133699E+05 -1.360964E+05 -8.707097E+04  5.466453E+04 -7.661940E+03  4.639950E+04
       238  27 -3.636053E+05 -1.246607E+05 -7.964183E+04  5.942062E+04 -8.006246E+03  4.246643E+04
       239   1  6.965880E+05  1.181311E+05  7.434236E+04  6.208099E+04 -8.245635E+03 -4.021331E+04
       239   2  6.468049E+05  1.067276E+05  6.732524E+04  5.732147E+04 -8.208177E+03 -3.626624E+04
       239   3  5.969749E+05  9.538925E+04  6.028189E+04  6.186563E+04 -8.171827E+03 -3.231581E+04
       239   4  1.820131E+05  3.495083E+02 -2.351338E+02  6.078372E+04 -9.522984E+01 -4.019025E+04
       239   5  1.820458E+05  3.294057E+02 -1.125753E+02  5.613166E+04 -5.109089E+01 -3.624201E+04
       239   6  1.820288E+05  3.735343E+02 -2.086535E+01  6.078368E+04 -8.056990E+00 -3.229040E+04
       239   7 -3.322948E+05 -1.174443E+05 -7.481668E+04  5.948734E+04  8.048710E+03 -4.016722E+04
       239   8 -2.824954E+05 -1.060787E+05 -6.755368E+04  5.494260E+04  8.100150E+03 -3.621780E+04
       239   9 -2.327437E+05 -9.465007E+04 -6.032621E+04  5.970234E+04  8.150489E+03 -3.226501E+04
       239  10  6.965875E+05  1.181294E+05  7.433920E+04  6.208073E+04  1.587482E-08  1.199426E-09
       239  11  6.468044E+05  1.067262E+05  6.732264E+04  5.732123E+04  5.718973E-09 -2.855777E-09
       239  12  5.969746E+05  9.538811E+04  6.027980E+04  6.186542E+04 -6.372277E-09 -3.343932E-09
       239  13  1.820127E+05  3.477737E+02 -2.381695E+02  6.078371E+04 -1.032463E-10  7.507655E-09
       239  14  1.820455E+05  3.279951E+02 -1.150438E+02  5.613166E+04 -7.920656E-10  4.929325E-10
       239  15  1.820285E+05  3.724145E+02 -2.282489E+01  6.078368E+04 -2.217487E-10 -2.840905E-09
       239  16 -3.322953E+05 -1.174460E+05 -7.481984E+04  5.948760E+04 -1.446737E-08  1.803824E-09
       239  17 -2.824958E+05 -1.060801E+05 -6.755627E+04  5.494284E+04 -5.850968E-09 -4.224478E-09
       239  18 -2.327440E+05 -9.465120E+04 -6.032829E+04  5.970255E+04  5.527329E-09 -3.115123E-09
       239  19  6.965880E+05  1.181311E+05  7.434236E+04  6.208099E+04  8.245635E+03  4.021331E+04
       239  20  6.468049E+05  1.067276E+05  6.732524E+04  5.732147E+04  8.208177E+03  3.626624E+04
       239  21  5.969749E+05  9.538925E+04  6.028189E+04  6.186563E+04  8.171827E+03  3.231581E+04
       239  22  1.820131E+05  3.495083E+02 -2.351338E+02  6.078372E+04  9.522984E+01  4.019025E+04
       239  23  1.820458E+05  3.294057E+02 -1.125753E+02  5.613166E+04  5.109089E+01  3.624201E+04
       239  24  1.820288E+05  3.735343E+02 -2.086535E+01  6.078368E+04  8.056990E+00  3.229040E+04
       239  25 -3.322948E+05 -1.174443E+05 -7.481668E+04  5.948734E+04 -8.048710E+03  4.016722E+04
       239  26 -2.824954E+05 -1.060787E+05 -6.755368E+04  5.494260E+04 -8.100150E+03  3.621780E+04
       239  27 -2.327437E+05 -9.465007E+04 -6.032621E+04  5.970234E+04 -8.150489E+03  3.226501E+04
       240   1  5.656724E+05  8.819111E+04  5.559128E+04  6.179420E+04 -8.177288E+03 -3.001580E+04
       240   2  5.159141E+05  7.679500E+04  4.855373E+04  5.702430E+04 -8.247145E+03 -2.606332E+04
       240   3  4.661159E+05  6.547728E+04  4.155977E+04  6.155225E+04 -8.317790E+03 -2.210903E+04
       240   4  1.820350E+05  3.791750E+02  1.932456E+01  6.078237E+04 -1.489837E+01 -2.998982E+04
       240   5  1.820622E+05  3.594628E+02  1.082836E+02  5.613326E+04 -8.129908E+01 -2.603650E+04
       240   6  1.820463E+05  4.176022E+02  2.382651E+02  6.078227E+04 -1.484928E+02 -2.208136E+04
       240   7 -2.014539E+05 -8.743948E+04 -5.555476E+04  5.977106E+04  8.142663E+03 -2.996385E+04
       240   8 -1.516772E+05 -7.608116E+04 -4.833873E+04  5.524262E+04  8.080342E+03 -2.600968E+04
       240   9 -1.019419E+05 -6.464576E+04 -4.108433E+04  6.001259E+04  8.017225E+03 -2.205371E+04
       240  10  5.656721E+05  8.819012E+04  5.558946E+04  6.179400E+04  2.021242E-09  1.470911E-09
       240  11  5.159138E+05  7.679425E+04  4.855232E+04  5.702413E+04  3.519827E-08  1.311495E-10
       240  12  4.661157E+05  6.547674E+04  4.155872E+04  6.155210E+04  5.653033E-08 -1.484497E-10
       240  13  1.820348E+05  3.782091E+02  1.763429E+01  6.078237E+04 -1.861541E-10  2.337667E-09
       240  14  1.820620E+05  3.587348E+02  1.070096E+02  5.613326E+04  1.270351E-09  9.641573E-09
       240  15  1.820461E+05  4.170786E+02  2.373487E+02  6.078227E+04 -3.817372E-10  1.825963E-08
       240  16 -2.014542E+05 -8.744046E+04 -5.555658E+04  5.977126E+04 -1.455725E-09  3.053628E-09
       240  17 -1.516775E+05 -7.608191E+04 -4.834013E+04  5.524279E+04 -3.255137E-08 -1.055630E-08
       240  18 -1.019421E+05 -6.464630E+04 -4.108536E+04  6.001273E+04 -5.785173E-08 -4.242459E-09
       240  19  5.656724E+05  8.819111E+04  5.559128E+04  6.179420E+04  8.177288E+03  3.001580E+04
       240  20  5.159141E+05  7.679500E+04  4.855373E+04  5.702430E+04  8.247145E+03  2.606332E+04
       240  21  4.661159E+05  6.547728E+04  4.155977E+04  6.155225E+04  8.317790E+03  2.210903E+04
       240  22  1.820350E+05  3.791750E+02  1.932456E+01  6.078237E+04  1.489837E+01  2.998982E+04
       240  23  1.820622E+05  3.594628E+02  1.082836E+02  5.613326E+04  8.129908E+01  2.603650E+04
       240  24  1.820463E+05  4.176022E+02  2.382651E+02  6.078227E+04  1.484928E+02  2.208136E+04
       240  25 -2.014539E+05 -8.743948E+04 -5.555476E+04  5.977106E+04 -8.142663E+03  2.996385E+04
       240  26 -1.516772E+05 -7.608116E+04 -4.833873E+04  5.524262E+04 -8.080342E+03  2.600968E+04
       240  27 -1.019419E+05 -6.464576E+04 -4.108433E+04  6.001259E+04 -8.017225E+03  2.205371E+04
       241   1  4.348435E+05  5.828458E+04  3.692231E+04  6.149196E+04 -8.372689E+03 -1.980787E+04
       241   2  3.850702E+05  4.695841E+04  3.008362E+04  5.661170E+04 -8.718698E+03 -1.584553E+04
       241   3  3.353303E+05  3.588724E+04  2.351020E+04  6.102631E+04 -9.065213E+03 -1.186667E+04
       241   4  1.820644E+05  4.249559E+02  3.266107E+02  6.078170E+04 -2.044844E+02 -1.977982E+04
       241   5  1.820557E+05  4.700528E+02  5.970097E+02  5.613361E+04 -5.166562E+02 -1.581685E+04
       241   6  1.820712E+05  7.641683E+02  1.108804E+03  6.078054E+04 -8.293596E+02 -1.183736E+04
       241   7 -7.065008E+04 -5.743756E+04 -3.626986E+04  6.007169E+04  7.960536E+03 -1.975177E+04
       241   8 -2.091706E+04 -4.602016E+04 -2.889003E+04  5.565564E+04  7.682817E+03 -1.578818E+04
       241   9  2.883595E+04 -3.435995E+04 -2.129274E+04  6.053480E+04  7.404547E+03 -1.180806E+04
       241  10  4.348433E+05  5.828414E+04  3.692144E+04  6.149183E+04 -7.272583E-08  4.620995E-09
       241  11  3.850700E+05  4.695812E+04  3.008301E+04  5.661159E+04 -3.349232E-08  9.643985E-10
       241  12  3.353301E+05  3.588707E+04  2.350979E+04  6.102623E+04  4.131621E-09  6.282844E-09
       241  13  1.820643E+05  4.245358E+02  3.258753E+02  6.078170E+04  1.008384E-09  1.938511E-08
       241  14  1.820557E+05  4.697841E+02  5.965390E+02  5.613360E+04  1.525571E-10  1.398555E-08
       241  15  1.820712E+05  7.640176E+02  1.108539E+03  6.078053E+04  3.143600E-10  1.338750E-09
       241  16 -7.065026E+04 -5.743800E+04 -3.627072E+04  6.007182E+04  7.077666E-08  1.848385E-09
       241  17 -2.091719E+04 -4.602044E+04 -2.889061E+04  5.565574E+04  3.276872E-08  1.687728E-09
       241  18  2.883585E+04 -3.436012E+04 -2.129311E+04  6.053488E+04 -3.839941E-09 -8.956363E-09
       241  19  4.348435E+05  5.828458E+04  3.692231E+04  6.149196E+04  8.372689E+03  1.980787E+04
       241  20  3.850702E+05  4.695841E+04  3.008362E+04  5.661170E+04  8.718698E+03  1.584553E+04
       241  21  3.353303E+05  3.588724E+04  2.351020E+04  6.102631E+04  9.065213E+03  1.186667E+04
       241  22  1.820644E+05  4.249559E+02  3.266107E+02  6.078170E+04  2.044844E+02  1.977982E+04
       241  23  1.820557E+05  4.700528E+02  5.970097E+02  5.613361E+04  5.166562E+02  1.581685E+04
       241  24  1.820712E+05  7.641683E+02  1.108804E+03  6.078054E+04  8.293596E+02  1.183736E+04
       241  25 -7.065008E+04 -5.743756E+04 -3.626986E+04  6.007169E+04 -7.960536E+03  1.975177E+04
       241  26 -2.091706E+04 -4.602016E+04 -2.889003E+04  5.565564E+04 -7.682817E+03  1.578818E+04
       241  27  2.883595E+04 -3.435995E+04 -2.129274E+04  6.053480E+04 -7.404547E+03  1.180806E+04
       242   1  3.042144E+05  2.877408E+04  1.917613E+04  6.114727E+04 -9.262539E+03 -9.551818E+03
       242   2  2.540937E+05  1.850349E+04  1.343902E+04  5.466036E+04 -1.097228E+04 -5.497348E+03
       242   3  2.047512E+05  1.077848E+04  9.425655E+03  5.747300E+04 -1.268261E+04 -1.297326E+03
       242   4  1.822284E+05  8.425543E+02  1.478114E+03  6.078303E+04 -1.028734E+03 -9.522315E+03
       242   5  1.818674E+05  1.932294E+03  2.723372E+03  5.612498E+04 -2.438129E+03 -5.466608E+03
       242   6  1.822305E+05  5.515836E+03  5.483907E+03  6.076643E+04 -3.848222E+03 -1.265353E+03
       242   7  6.025756E+04 -2.708961E+04 -1.621989E+04  6.041885E+04  7.203521E+03 -9.492818E+03
       242   8  1.096464E+05 -1.463910E+04 -7.992096E+03  5.758942E+04  6.095073E+03 -5.435826E+03
       242   9  1.597104E+05  2.532433E+02  1.542440E+03  6.405973E+04  4.985860E+03 -1.233286E+03
       242  10  3.042143E+05  2.877395E+04  1.917580E+04  6.114720E+04 -3.293233E-09  3.526983E-09
       242  11  2.540936E+05  1.850343E+04  1.343874E+04  5.466031E+04 -1.324113E-10 -2.221366E-09
       242  12  2.047510E+05  1.077844E+04  9.425350E+03  5.747299E+04 -2.055081E-09 -9.737114E-10
       242  13  1.822284E+05  8.424566E+02  1.477942E+03  6.078302E+04  1.062383E-09  4.143786E-09
       242  14  1.818673E+05  1.932260E+03  2.723304E+03  5.612497E+04 -1.598450E-09 -7.993375E-09
       242  15  1.822305E+05  5.515830E+03  5.483876E+03  6.076642E+04  5.702709E-10  5.167801E-09
       242  16  6.025748E+04 -2.708973E+04 -1.622016E+04  6.041891E+04  5.042139E-09  2.950480E-10
       242  17  1.096464E+05 -1.463914E+04 -7.992222E+03  5.758945E+04  2.745369E-09 -2.616992E-10
       242  18  1.597104E+05  2.532350E+02  1.542390E+03  6.405973E+04  3.894623E-09 -2.817721E-09
       242  19  3.042144E+05  2.877408E+04  1.917613E+04  6.114727E+04  9.262539E+03  9.551818E+03
       242  20  2.540937E+05  1.850349E+04  1.343902E+04  5.466036E+04  1.097228E+04  5.497348E+03
       242  21  2.047512E+05  1.077848E+04  9.425655E+03  5.747300E+04  1.268261E+04  1.297326E+03
       242  22  1.822284E+05  8.425543E+02  1.478114E+03  6.078303E+04  1.028734E+03  9.522315E+03
       242  23  1.818674E+05  1.932294E+03  2.723372E+03  5.612498E+04  2.438129E+03  5.466608E+03
       242  24  1.822305E+05  5.515836E+03  5.483907E+03  6.076643E+04  3.848222E+03  1.265353E+03
       242  25  6.025756E+04 -2.708961E+04 -1.621989E+04  6.041885E+04 -7.203521E+03  9.492818E+03
       242  26  1.096464E+05 -1.463910E+04 -7.992096E+03  5.758942E+04 -6.095073E+03  5.435826E+03
       242  27  1.597104E+05  2.532433E+02  1.542440E+03  6.405973E+04 -4.985860E+03  1.233286E+03
       243   1 -4.080261E+04  4.487991E+05 -3.372280E+04 -1.205841E+05 -5.222154E+03 -2.349575E+04
       243   2 -7.205981E+04  3.599611E+05 -4.427178E+04 -1.056369E+05 -2.018374E+04 -1.964692E+04
       243   3 -9.561714E+04  2.724831E+05 -5.543080E+04 -1.075090E+05 -3.024795E+04 -1.578830E+04
       243   4  1.959910E+04  6.964880E+05  2.106469E+04 -1.080162E+05 -5.296186E+03  1.244251E+04
       243   5  6.166509E+03  6.949270E+05  1.223877E+04 -9.962360E+04 -2.023445E+04  6.175816E+03
       243   6  2.186795E+03  6.964732E+05  9.821434E+03 -1.080485E+05 -3.027661E+04 -8.064199E+01
       243   7  7.999799E+04  9.442372E+05  7.585333E+04 -9.544325E+04 -5.368748E+03  4.839493E+04
       243   8  8.438743E+04  1.030005E+06  6.874826E+04 -9.360691E+04 -2.028463E+04  3.201202E+04
       243   9  9.998216E+04  1.120643E+06  7.507059E+04 -1.085882E+05 -3.030528E+04  1.563732E+04
       243  10 -4.080279E+04  4.487985E+05 -3.372389E+04 -1.205842E+05  6.682718E-10  4.999254E-09
       243  11 -7.206035E+04  3.599606E+05 -4.427327E+04 -1.056372E+05  2.967586E-10 -2.778292E-09
       243  12 -9.561819E+04  2.724826E+05 -5.543299E+04 -1.075094E+05 -1.301199E-10 -6.165028E-09
       243  13  1.959903E+04  6.964878E+05  2.106435E+04 -1.080162E+05  1.168267E-09  1.975149E-09
       243  14  6.166059E+03  6.949269E+05  1.223793E+04 -9.962350E+04  1.984722E-09 -1.796636E-09
       243  15  2.185810E+03  6.964730E+05  9.819711E+03 -1.080485E+05 -2.070770E-09  2.314225E-09
       243  16  7.999733E+04  9.442347E+05  7.584888E+04 -9.544304E+04 -3.546084E-10 -5.970834E-09
       243  17  8.438671E+04  1.030004E+06  6.874557E+04 -9.360638E+04  3.673287E-09  1.332673E-09
       243  18  9.998111E+04  1.120643E+06  7.506840E+04 -1.085878E+05 -1.238989E-09  4.590942E-09
       243  19 -4.080261E+04  4.487991E+05 -3.372280E+04 -1.205841E+05  5.222154E+03  2.349575E+04
       243  20 -7.205981E+04  3.599611E+05 -4.427178E+04 -1.056369E+05  2.018374E+04  1.964692E+04
       243  21 -9.561714E+04  2.724831E+05 -5.543080E+04 -1.075090E+05  3.024795E+04  1.578830E+04
       243  22  1.959910E+04  6.964880E+05  2.106469E+04 -1.080162E+05  5.296186E+03 -1.244251E+04
       243  23  6.166509E+03  6.949270E+05  1.223877E+04 -9.962360E+04  2.023445E+04 -6.175816E+03
       243  24  2.186795E+03  6.964732E+05  9.821434E+03 -1.080485E+05  3.027661E+04  8.064199E+01
       243  25  7.999799E+04  9.442372E+05  7.585333E+04 -9.544325E+04  5.368748E+03 -4.839493E+04
       243  26  8.438743E+04  1.030005E+06  6.874826E+04 -9.360691E+04  2.028463E+04 -3.201202E+04
       243  27  9.998216E+04  1.120643E+06  7.507059E+04 -1.085882E+05  3.030528E+04 -1.563732E+04
       244   1 -1.085300E+05  2.168552E+05 -6.323378E+04 -1.084598E+05 -3.459350E+04 -1.744716E+04
       244   2 -1.285871E+05  1.281348E+05 -7.390074E+04 -9.799005E+04 -4.084482E+04 -1.815253E+04
       244   3 -1.456129E+05  4.022829E+04 -8.336464E+04 -1.038792E+05 -4.431289E+04 -1.885154E+04
       244   4  1.928859E+03  6.961735E+05  1.000308E+04 -1.079442E+05 -3.462111E+04 -1.668605E+03
       244   5  2.148963E+03  6.952542E+05  1.288475E+04 -9.976114E+04 -4.085944E+04 -8.124586E+03
       244   6  6.396513E+03  6.961371E+05  2.095827E+04 -1.079356E+05 -4.431583E+04 -1.457433E+04
       244   7  1.123768E+05  1.175722E+06  8.323592E+04 -1.074282E+05 -3.464869E+04  1.412166E+04
       244   8  1.328696E+05  1.262695E+06  9.966363E+04 -1.015338E+05 -4.087411E+04  1.912158E+03
       244   9  1.583845E+05  1.352474E+06  1.252702E+05 -1.119962E+05 -4.431882E+04 -1.029277E+04
       244  10 -1.085314E+05  2.168545E+05 -6.323660E+04 -1.084603E+05 -1.395543E-09 -2.140230E-09
       244  11 -1.285890E+05  1.281340E+05 -7.390450E+04 -9.799064E+04 -9.630019E-10 -5.529705E-09
       244  12 -1.456151E+05  4.022738E+04 -8.336900E+04 -1.038798E+05 -1.149748E-09 -4.524887E-09
       244  13  1.927571E+03  6.961732E+05  1.000082E+04 -1.079443E+05 -2.752840E-09  1.741945E-09
       244  14  2.147152E+03  6.952537E+05  1.288149E+04 -9.976141E+04 -2.835903E-11 -1.599329E-09
       244  15  6.394346E+03  6.961363E+05  2.095418E+04 -1.079361E+05 -3.750488E-09  1.624963E-09
       244  16  1.123755E+05  1.175722E+06  8.323329E+04 -1.074278E+05  2.679703E-10  1.075431E-09
       244  17  1.328678E+05  1.262695E+06  9.966049E+04 -1.015337E+05 -4.396610E-09  4.566813E-09
       244  18  1.583824E+05  1.352473E+06  1.252663E+05 -1.119966E+05 -4.217173E-10  3.033109E-09
       244  19 -1.085300E+05  2.168552E+05 -6.323378E+04 -1.084598E+05  3.459350E+04  1.744716E+04
       244  20 -1.285871E+05  1.281348E+05 -7.390074E+04 -9.799005E+04  4.084482E+04  1.815253E+04
       244  21 -1.456129E+05  4.022829E+04 -8.336464E+04 -1.038792E+05  4.431289E+04  1.885154E+04
       244  22  1.928859E+03  6.961735E+05  1.000308E+04 -1.079442E+05  3.462111E+04  1.668605E+03
       244  23  2.148963E+03  6.952542E+05  1.288475E+04 -9.976114E+04  4.085944E+04  8.124586E+03
       244  24  6.396513E+03  6.961371E+05  2.095827E+04 -1.079356E+05  4.431583E+04  1.457433E+04
       244  25  1.123768E+05  1.175722E+06  8.323592E+04 -1.074282E+05  3.464869E+04 -1.412166E+04
       244  26  1.328696E+05  1.262695E+06  9.966363E+04 -1.015338E+05  4.087411E+04 -1.912158E+03
       244  27  1.583845E+05  1.352474E+06  1.252702E+05 -1.119962E+05  4.431882E+04  1.029277E+04
       245   1 -1.579329E+05 -1.377589E+04 -8.868408E+04 -1.072260E+05 -4.625353E+04 -2.263850E+04
       245   2 -1.615198E+05 -1.058415E+05 -9.849775E+04 -6.952588E+04 -3.868658E+04 -7.296585E+03
       245   3 -1.287405E+05 -1.908035E+05 -1.091988E+05 -4.676729E+04 -1.157667E+04  8.066291E+03
       245   4  7.717826E+03  6.988525E+05  2.720013E+04 -1.076299E+05 -4.625613E+04 -1.816257E+04
       245   5  2.753639E+04  6.917757E+05  4.886612E+04 -1.000947E+05 -3.862617E+04 -4.316415E+04
       245   6  9.069208E+04  6.987784E+05  9.763891E+04 -1.074977E+05 -1.146628E+04 -6.814315E+04
       245   7  1.733427E+05  1.411984E+06  1.430702E+05 -1.080341E+05 -4.625874E+04 -1.368168E+04
       245   8  2.165603E+05  1.490014E+06  1.962088E+05 -1.307035E+05 -3.856228E+04 -7.907658E+04
       245   9  3.100856E+05  1.589111E+06  3.044470E+05 -1.683155E+05 -1.134108E+04 -1.444610E+05
       245  10 -1.579353E+05 -1.377702E+04 -8.868906E+04 -1.072269E+05  8.265374E-10 -6.198810E-08
       245  11 -1.615214E+05 -1.058420E+05 -9.850066E+04 -6.952611E+04  3.915799E-09 -2.415624E-09
       245  12 -1.287406E+05 -1.908036E+05 -1.091992E+05 -4.676721E+04 -7.706816E-10  6.026081E-08
       245  13  7.715439E+03  6.988516E+05  2.719549E+04 -1.076306E+05  1.562261E-09  1.696175E-09
       245  14  2.753429E+04  6.917733E+05  4.885981E+04 -1.000960E+05  1.229321E-09 -1.124417E-09
       245  15  9.069070E+04  6.987734E+05  9.762995E+04 -1.074984E+05 -2.634451E-11  1.401346E-09
       245  16  1.733404E+05  1.411983E+06  1.430658E+05 -1.080346E+05 -2.941255E-12  6.118680E-08
       245  17  2.165571E+05  1.490007E+06  1.961942E+05 -1.307060E+05  1.023665E-09  1.849676E-09
       245  18  3.100799E+05  1.589088E+06  3.044077E+05 -1.683169E+05  1.087123E-09 -6.138126E-08
       245  19 -1.579329E+05 -1.377589E+04 -8.868408E+04 -1.072260E+05  4.625353E+04  2.263850E+04
       245  20 -1.615198E+05 -1.058415E+05 -9.849775E+04 -6.952588E+04  3.868658E+04  7.296585E+03
       245  21 -1.287405E+05 -1.908035E+05 -1.091988E+05 -4.676729E+04  1.157667E+04 -8.066291E+03
       245  22  7.717826E+03  6.988525E+05  2.720013E+04 -1.076299E+05  4.625613E+04  1.816257E+04
       245  23  2.753639E+04  6.917757E+05  4.886612E+04 -1.000947E+05  3.862617E+04  4.316415E+04
       245  24  9.069208E+04  6.987784E+05  9.763891E+04 -1.074977E+05  1.146628E+04  6.814315E+04
       245  25  1.733427E+05  1.411984E+06  1.430702E+05 -1.080341E+05  4.625874E+04  1.368168E+04
       245  26  2.165603E+05  1.490014E+06  1.962088E+05 -1.307035E+05  3.856228E+04  7.907658E+04
       245  27  3.100856E+05  1.589111E+06  3.044470E+05 -1.683155E+05  1.134108E+04  1.444610E+05
       246   1  1.236362E+06  4.053990E+05  1.962612E+05  4.425804E+05  5.947113E+04  6.101700E+03
       246   2  1.161119E+06  4.059951E+05  1.544913E+05  4.219898E+05  3.954015E+04 -4.015981E+04
       246   3  1.075699E+06  4.017489E+05  1.330307E+05  4.172285E+05  1.071953E+04 -6.282813E+04
       246   4  2.377858E+05  5.935039E+04 -5.272974E+04  1.974163E+05 -2.897794E+04 -2.727666E+04
       246   5  2.502744E+05  8.627897E+04 -2.494312E+04  1.819647E+05 -3.236681E+03 -5.631737E+04
       246   6  2.435316E+05  9.931095E+04 -1.301116E+04  1.823456E+05  1.360262E+04 -6.174842E+04
       246   7 -7.597619E+05 -2.866473E+05 -3.017528E+05 -4.739279E+04 -1.172676E+05 -6.060513E+04
       246   8 -6.596917E+05 -2.333721E+05 -2.044026E+05 -5.773615E+04 -4.594518E+04 -7.245152E+04
       246   9 -5.879016E+05 -2.030567E+05 -1.590739E+05 -5.224274E+04  1.648162E+04 -6.067028E+04
       246  10  1.236358E+06  4.053980E+05  1.962545E+05  4.425801E+05  3.936526E-09  1.103308E-09
       246  11  1.161117E+06  4.059929E+05  1.544853E+05  4.219911E+05  5.194765E-09 -4.785822E-09
       246  12  1.075698E+06  4.017447E+05  1.330231E+05  4.172291E+05 -1.892979E-09 -3.008410E-09
       246  13  2.377847E+05  5.934937E+04 -5.273271E+04  1.974157E+05  2.872451E-09  1.457843E-09
       246  14  2.502736E+05  8.627556E+04 -2.494910E+04  1.819646E+05  3.219973E-10 -5.236819E-09
       246  15  2.435304E+05  9.930680E+04 -1.301868E+04  1.823463E+05 -3.229347E-09 -3.824507E-09
       246  16 -7.597776E+05 -2.866550E+05 -3.017856E+05 -4.739852E+04 -1.641796E-09 -3.683495E-10
       246  17 -6.596954E+05 -2.333783E+05 -2.044165E+05 -5.773883E+04 -1.848928E-09 -8.141854E-09
       246  18 -5.879029E+05 -2.030607E+05 -1.590813E+05 -5.224194E+04 -6.760502E-09 -3.624019E-09
       246  19  1.236362E+06  4.053990E+05  1.962612E+05  4.425804E+05 -5.947113E+04 -6.101700E+03
       246  20  1.161119E+06  4.059951E+05  1.544913E+05  4.219898E+05 -3.954015E+04  4.015981E+04
       246  21  1.075699E+06  4.017489E+05  1.330307E+05  4.172285E+05 -1.071953E+04  6.282813E+04
       246  22  2.377858E+05  5.935039E+04 -5.272974E+04  1.974163E+05  2.897794E+04  2.727666E+04
       246  23  2.502744E+05  8.627897E+04 -2.494312E+04  1.819647E+05  3.236681E+03  5.631737E+04
       246  24  2.435316E+05  9.931095E+04 -1.301116E+04  1.823456E+05 -1.360262E+04  6.174842E+04
       246  25 -7.597619E+05 -2.866473E+05 -3.017528E+05 -4.739279E+04  1.172676E+05  6.060513E+04
       246  26 -6.596917E+05 -2.333721E+05 -2.044026E+05 -5.773615E+04  4.594518E+04  7.245152E+04
       246  27 -5.879016E+05 -2.030567E+05 -1.590739E+05 -5.224274E+04 -1.648162E+04  6.067028E+04
       247   1  1.031878E+06  3.835130E+05  1.256300E+05  4.031988E+05  1.326875E+04 -6.013702E+04
       247   2  9.654153E+05  3.543102E+05  1.131386E+05  3.776753E+05  1.053012E+04 -5.909092E+04
       247   3  8.887892E+05  3.347211E+05  1.020021E+05  3.640529E+05  6.888248E+03 -5.565944E+04
       247   4  2.447474E+05  1.000304E+05 -9.714279E+03  1.831029E+05  1.449454E+04 -5.968260E+04
       247   5  2.504821E+05  9.692382E+04 -5.081149E+03  1.766897E+05  1.637094E+04 -5.689109E+04
       247   6  2.451349E+05  1.025168E+05 -2.749692E+03  1.821770E+05  1.734337E+04 -5.171266E+04
       247   7 -5.417361E+05 -1.833952E+05 -1.450788E+05 -3.673568E+04  1.571869E+04 -5.922880E+04
       247   8 -4.639101E+05 -1.604122E+05 -1.233141E+05 -2.408052E+04  2.220467E+04 -5.469393E+04
       247   9 -3.980761E+05 -1.296442E+05 -1.075100E+05  4.779704E+02  2.778702E+04 -4.777023E+04
       247  10  1.031877E+06  3.835090E+05  1.256228E+05  4.031995E+05 -1.274563E-08 -3.943021E-09
       247  11  9.654142E+05  3.543064E+05  1.131318E+05  3.776758E+05 -3.716556E-09  1.664412E-10
       247  12  8.887884E+05  3.347178E+05  1.019962E+05  3.640532E+05 -2.307682E-09 -3.639139E-10
       247  13  2.447462E+05  1.000265E+05 -9.721369E+03  1.831036E+05 -3.781130E-09 -2.001156E-09
       247  14  2.504809E+05  9.692027E+04 -5.087735E+03  1.766905E+05 -1.403089E-09 -1.128211E-08
       247  15  2.451338E+05  1.025138E+05 -2.755284E+03  1.821777E+05  1.525159E-09 -1.516544E-09
       247  16 -5.417373E+05 -1.833990E+05 -1.450859E+05 -3.673493E+04  3.667229E-09  1.420847E-09
       247  17 -4.639114E+05 -1.604155E+05 -1.233206E+05 -2.407954E+04  8.041602E-09  7.167876E-09
       247  18 -3.980776E+05 -1.296469E+05 -1.075158E+05  4.790398E+02  2.550551E-09  6.852620E-09
       247  19  1.031878E+06  3.835130E+05  1.256300E+05  4.031988E+05 -1.326875E+04  6.013702E+04
       247  20  9.654153E+05  3.543102E+05  1.131386E+05  3.776753E+05 -1.053012E+04  5.909092E+04
       247  21  8.887892E+05  3.347211E+05  1.020021E+05  3.640529E+05 -6.888248E+03  5.565944E+04
       247  22  2.447474E+05  1.000304E+05 -9.714279E+03  1.831029E+05 -1.449454E+04  5.968260E+04
       247  23  2.504821E+05  9.692382E+04 -5.081149E+03  1.766897E+05 -1.637094E+04  5.689109E+04
       247  24  2.451349E+05  1.025168E+05 -2.749692E+03  1.821770E+05 -1.734337E+04  5.171266E+04
       247  25 -5.417361E+05 -1.833952E+05 -1.450788E+05 -3.673568E+04 -1.571869E+04  5.922880E+04
       247  26 -4.639101E+05 -1.604122E+05 -1.233141E+05 -2.408052E+04 -2.220467E+04  5.469393E+04
       247  27 -3.980761E+05 -1.296442E+05 -1.075100E+05  4.779704E+02 -2.778702E+04  4.777023E+04
       248   1  8.437819E+05  3.182712E+05  9.480827E+04  3.512684E+05  6.222042E+03 -5.224445E+04
       248   2  7.780192E+05  2.876278E+05  8.394877E+04  3.253938E+05  4.259666E+03 -4.677731E+04
       248   3  7.019291E+05  2.673248E+05  7.302855E+04  3.112464E+05  2.204636E+03 -4.107127E+04
       248   4  2.452488E+05  1.025707E+05 -2.056176E+03  1.822522E+05  1.650518E+04 -4.836114E+04
       248   5  2.504879E+05  9.752562E+04 -1.107030E+03  1.763657E+05  1.500469E+04 -4.271700E+04
       248   6  2.453011E+05  1.027294E+05 -5.859994E+02  1.822052E+05  1.341151E+04 -3.683383E+04
       248   7 -3.528935E+05 -1.130897E+05 -9.892582E+04  1.339078E+04  2.677770E+04 -4.448184E+04
       248   8 -2.767447E+05 -9.254722E+04 -8.616806E+04  2.745640E+04  2.574004E+04 -3.866036E+04
       248   9 -2.111083E+05 -6.184589E+04 -7.420571E+04  5.325166E+04  2.460977E+04 -3.259964E+04
       248  10  8.437812E+05  3.182682E+05  9.480306E+04  3.512687E+05 -3.262682E-09 -3.763189E-10
       248  11  7.780185E+05  2.876254E+05  8.394463E+04  3.253940E+05  5.859886E-10  2.646347E-09
       248  12  7.019287E+05  2.673230E+05  7.302537E+04  3.112465E+05 -1.017218E-09  4.161890E-09
       248  13  2.452479E+05  1.025681E+05 -2.061084E+03  1.822529E+05 -1.562214E-09 -2.490739E-09
       248  14  2.504872E+05  9.752360E+04 -1.110882E+03  1.763662E+05  6.105137E-10  1.674569E-09
       248  15  2.453005E+05  1.027279E+05 -5.888874E+02  1.822056E+05 -1.680370E-09  5.831330E-10
       248  16 -3.528948E+05 -1.130920E+05 -9.893089E+04  1.339174E+04 -2.364197E-10  8.531751E-09
       248  17 -2.767458E+05 -9.254901E+04 -8.617211E+04  2.745721E+04 -8.403540E-10  5.778936E-09
       248  18 -2.111092E+05 -6.184719E+04 -7.420885E+04  5.325230E+04 -1.450737E-09  6.505778E-09
       248  19  8.437819E+05  3.182712E+05  9.480827E+04  3.512684E+05 -6.222042E+03  5.224445E+04
       248  20  7.780192E+05  2.876278E+05  8.394877E+04  3.253938E+05 -4.259666E+03  4.677731E+04
       248  21  7.019291E+05  2.673248E+05  7.302855E+04  3.112464E+05 -2.204636E+03  4.107127E+04
       248  22  2.452488E+05  1.025707E+05 -2.056176E+03  1.822522E+05 -1.650518E+04  4.836114E+04
       248  23  2.504879E+05  9.752562E+04 -1.107030E+03  1.763657E+05 -1.500469E+04  4.271700E+04
       248  24  2.453011E+05  1.027294E+05 -5.859994E+02  1.822052E+05 -1.341151E+04  3.683383E+04
       248  25 -3.528935E+05 -1.130897E+05 -9.892582E+04  1.339078E+04 -2.677770E+04  4.448184E+04
       248  26 -2.767447E+05 -9.254722E+04 -8.616806E+04  2.745640E+04 -2.574004E+04  3.866036E+04
       248  27 -2.111083E+05 -6.184589E+04 -7.420571E+04  5.325166E+04 -2.460977E+04  3.259964E+04
       249   1  6.569109E+05  2.510454E+05  6.559413E+04  2.985478E+05  1.030405E+03 -3.765502E+04
       249   2  5.912532E+05  2.203905E+05  5.456952E+04  2.726660E+05 -1.110452E+03 -3.184254E+04
       249   3  5.152544E+05  2.000913E+05  4.351165E+04  2.585056E+05 -3.260916E+03 -2.600858E+04
       249   4  2.453211E+05  1.027388E+05 -4.232874E+02  1.822111E+05  1.221701E+04 -3.342406E+04
       249   5  2.505091E+05  9.757954E+04 -1.848074E+02  1.763497E+05  1.011733E+04 -2.759442E+04
       249   6  2.453418E+05  1.027672E+05 -1.318655E+01  1.822076E+05  8.008057E+03 -2.174333E+04
       249   7 -1.660864E+05 -4.554982E+04 -6.644349E+04  6.594691E+04  2.339575E+04 -2.919606E+04
       249   8 -9.010809E+04 -2.521827E+04 -5.494036E+04  8.008359E+04  2.133852E+04 -2.334880E+04
       249   9 -2.448935E+04  5.452029E+03 -4.353810E+04  1.059418E+05  1.927171E+04 -1.748009E+04
       249  10  6.569105E+05  2.510439E+05  6.559146E+04  2.985479E+05 -6.312480E-08 -2.084548E-08
       249  11  5.912530E+05  2.203894E+05  5.456761E+04  2.726660E+05 -7.001819E-09  1.213752E-09
       249  12  5.152542E+05  2.000906E+05  4.351036E+04  2.585056E+05  5.819300E-08  2.640775E-08
       249  13  2.453207E+05  1.027375E+05 -4.256677E+02  1.822114E+05 -2.416685E-09  2.412646E-09
       249  14  2.505088E+05  9.757870E+04 -1.864309E+02  1.763499E+05 -5.613127E-09 -1.809224E-09
       249  15  2.453416E+05  1.027666E+05 -1.419565E+01  1.822078E+05 -2.866296E-09 -1.709121E-09
       249  16 -1.660872E+05 -4.555088E+04 -6.644612E+04  6.594746E+04  5.813531E-08  2.477992E-08
       249  17 -9.010873E+04 -2.521898E+04 -5.494224E+04  8.008399E+04 -2.075964E-09 -4.267938E-09
       249  18 -2.448983E+04  5.451601E+03 -4.353938E+04  1.059420E+05 -6.269010E-08 -2.488534E-08
       249  19  6.569109E+05  2.510454E+05  6.559413E+04  2.985478E+05 -1.030405E+03  3.765502E+04
       249  20  5.912532E+05  2.203905E+05  5.456952E+04  2.726660E+05  1.110452E+03  3.184254E+04
       249  21  5.152544E+05  2.000913E+05  4.351165E+04  2.585056E+05  3.260916E+03  2.600858E+04
       249  22  2.453211E+05  1.027388E+05 -4.232874E+02  1.822111E+05 -1.221701E+04  3.342406E+04
       249  23  2.505091E+05  9.757954E+04 -1.848074E+02  1.763497E+05 -1.011733E+04  2.759442E+04
       249  24  2.453418E+05  1.027672E+05 -1.318655E+01  1.822076E+05 -8.008057E+03  2.174333E+04
       249  25 -1.660864E+05 -4.554982E+04 -6.644349E+04  6.594691E+04 -2.339575E+04  2.919606E+04
       249  26 -9.010809E+04 -2.521827E+04 -5.494036E+04  8.008359E+04 -2.133852E+04  2.334880E+04
       249  27 -2.448935E+04  5.452029E+03 -4.353810E+04  1.059418E+05 -1.927171E+04  1.748009E+04
       250   1  4.702675E+05  1.838275E+05  3.602126E+04  2.458181E+05 -4.546113E+03 -2.261732E+04
       250   2  4.046434E+05  1.531786E+05  2.498945E+04  2.199541E+05 -6.850804E+03 -1.683574E+04
       250   3  3.286899E+05  1.328842E+05  1.403435E+04  2.058113E+05 -9.152115E+03 -1.106484E+04
       250   4  2.453538E+05  1.027717E+05  6.389812E+01  1.822096E+05  6.719706E+03 -1.835258E+04
       250   5  2.505221E+05  9.759415E+04  2.464681E+02  1.763506E+05  4.393988E+03 -1.257823E+04
       250   6  2.453611E+05  1.027754E+05  5.223496E+02  1.822112E+05  2.071647E+03 -6.814567E+03
       250   7  2.049205E+04  2.172048E+04 -3.589464E+04  1.186221E+05  1.798133E+04 -1.408944E+04
       250   8  9.642565E+04  4.201201E+04 -2.449670E+04  1.327570E+05  1.563589E+04 -8.321806E+03
       250   9  1.620400E+05  7.266740E+04 -1.298926E+04  1.586142E+05  1.329382E+04 -2.564899E+03
       250  10  4.702673E+05  1.838269E+05  3.602026E+04  2.458180E+05  3.948231E-09 -2.706857E-09
       250  11  4.046433E+05  1.531782E+05  2.498883E+04  2.199540E+05  1.609101E-09 -6.795766E-09
       250  12  3.286897E+05  1.328840E+05  1.403396E+04  2.058112E+05 -6.738326E-09 -1.150472E-08
       250  13  2.453536E+05  1.027714E+05  6.318021E+01  1.822097E+05 -1.761993E-09 -7.441081E-09
       250  14  2.505221E+05  9.759398E+04  2.461345E+02  1.763506E+05 -4.526370E-09  3.041791E-09
       250  15  2.453611E+05  1.027753E+05  5.222542E+02  1.822112E+05 -1.316658E-08 -1.231324E-08
       250  16  2.049165E+04  2.172018E+04 -3.589562E+04  1.186224E+05 -2.322165E-10  2.463024E-09
       250  17  9.642537E+04  4.201187E+04 -2.449729E+04  1.327571E+05 -8.117027E-10  1.166044E-09
       250  18  1.620398E+05  7.266734E+04 -1.298961E+04  1.586142E+05 -6.157099E-09 -1.170564E-09
       250  19  4.702675E+05  1.838275E+05  3.602126E+04  2.458181E+05  4.546113E+03  2.261732E+04
       250  20  4.046434E+05  1.531786E+05  2.498945E+04  2.199541E+05  6.850804E+03  1.683574E+04
       250  21  3.286899E+05  1.328842E+05  1.403435E+04  2.058113E+05  9.152115E+03  1.106484E+04
       250  22  2.453538E+05  1.027717E+05  6.389812E+01  1.822096E+05 -6.719706E+03  1.835258E+04
       250  23  2.505221E+05  9.759415E+04  2.464681E+02  1.763506E+05 -4.393988E+03  1.257823E+04
       250  24  2.453611E+05  1.027754E+05  5.223496E+02  1.822112E+05 -2.071647E+03  6.814567E+03
       250  25  2.049205E+04  2.172048E+04 -3.589464E+04  1.186221E+05 -1.798133E+04  1.408944E+04
       250  26  9.642565E+04  4.201201E+04 -2.449670E+04  1.327570E+05 -1.563589E+04  8.321806E+03
       250  27  1.620400E+05  7.266740E+04 -1.298926E+04  1.586142E+05 -1.329382E+04  2.564899E+03
       251   1  2.837238E+05  1.166280E+05  6.651824E+03  1.931518E+05 -1.054282E+04 -7.722160E+03
       251   2  2.180886E+05  8.596063E+04 -4.046039E+03  1.672820E+05 -1.314791E+04 -2.135760E+03
       251   3  1.421999E+05  6.571497E+04 -1.440540E+04  1.531220E+05 -1.570694E+04  3.329695E+03
       251   4  2.453842E+05  1.027717E+05  7.153549E+02  1.822196E+05  6.884295E+02 -3.468898E+03
       251   5  2.504974E+05  9.759161E+04  1.328948E+03  1.763451E+05 -2.151297E+03  2.028487E+03
       251   6  2.453977E+05  1.028788E+05  2.466419E+03  1.821781E+05 -4.945030E+03  7.404938E+03
       251   7  2.070470E+05  8.891579E+04 -5.220475E+03  1.712882E+05  1.191882E+04  7.840357E+02
       251   8  2.829076E+05  1.092228E+05  6.704428E+03  1.854088E+05  8.845926E+03  6.192961E+03
       251   9  3.486082E+05  1.400443E+05  1.933882E+04  2.112392E+05  5.818900E+03  1.148094E+04
       251  10  2.837237E+05  1.166279E+05  6.651503E+03  1.931517E+05 -1.783237E-08 -8.260809E-09
       251  11  2.180884E+05  8.596058E+04 -4.046372E+03  1.672819E+05 -6.989354E-09 -3.124136E-09
       251  12  1.421997E+05  6.571489E+04 -1.440588E+04  1.531220E+05  5.279415E-09  5.309871E-09
       251  13  2.453842E+05  1.027717E+05  7.153314E+02  1.822196E+05 -1.427720E-08 -2.031989E-09
       251  14  2.504974E+05  9.759160E+04  1.328931E+03  1.763451E+05 -6.033202E-09 -5.143883E-10
       251  15  2.453976E+05  1.028788E+05  2.466270E+03  1.821782E+05 -1.581840E-09 -2.334483E-09
       251  16  2.070468E+05  8.891575E+04 -5.220743E+03  1.712882E+05  2.543167E-09  3.123929E-09
       251  17  2.829075E+05  1.092227E+05  6.704209E+03  1.854087E+05  1.714832E-09 -2.315502E-09
       251  18  3.486081E+05  1.400442E+05  1.933851E+04  2.112391E+05 -2.817715E-09 -4.874835E-09
       251  19  2.837238E+05  1.166280E+05  6.651824E+03  1.931518E+05  1.054282E+04  7.722160E+03
       251  20  2.180886E+05  8.596063E+04 -4.046039E+03  1.672820E+05  1.314791E+04  2.135760E+03
       251  21  1.421999E+05  6.571497E+04 -1.440540E+04  1.531220E+05  1.570694E+04 -3.329695E+03
       251  22  2.453842E+05  1.027717E+05  7.153549E+02  1.822196E+05 -6.884295E+02  3.468898E+03
       251  23  2.504974E+05  9.759161E+04  1.328948E+03  1.763451E+05  2.151297E+03 -2.028487E+03
       251  24  2.453977E+05  1.028788E+05  2.466419E+03  1.821781E+05  4.945030E+03 -7.404938E+03
       251  25  2.070470E+05  8.891579E+04 -5.220475E+03  1.712882E+05 -1.191882E+04 -7.840357E+02
       251  26  2.829076E+05  1.092228E+05  6.704428E+03  1.854088E+05 -8.845926E+03 -6.192961E+03
       251  27  3.486082E+05  1.400443E+05  1.933882E+04  2.112392E+05 -5.818900E+03 -1.148094E+04
       252   1  9.717061E+04  4.956275E+04 -2.129061E+04  1.406650E+05 -1.748857E+04  6.426436E+03
       252   2  3.202748E+04  1.864912E+04 -3.083328E+04  1.138498E+05 -2.013523E+04  1.115597E+04
       252   3 -4.276116E+04 -5.767279E+02 -3.943371E+04  9.833565E+04 -2.232797E+04  1.468863E+04
       252   4  2.455686E+05  1.028772E+05  3.299393E+03  1.822280E+05 -6.642796E+03  1.053313E+04
       252   5  2.503643E+05  9.823381E+04  6.082093E+03  1.760352E+05 -1.160462E+04  1.438513E+04
       252   6  2.459676E+05  1.057356E+05  1.164164E+04  1.811410E+05 -1.611268E+04  1.704046E+04
       252   7  3.939902E+05  1.561940E+05  2.788936E+04  2.238003E+05  4.205731E+03  1.464084E+04
       252   8  4.687508E+05  1.778231E+05  4.299616E+04  2.382410E+05 -3.070865E+03  1.761549E+04
       252   9  5.347814E+05  2.120555E+05  6.271356E+04  2.639817E+05 -9.894375E+03  1.939346E+04
       252  10  9.717027E+04  4.956262E+04 -2.129126E+04  1.406651E+05 -5.397627E-08 -2.199256E-08
       252  11  3.202701E+04  1.864888E+04 -3.083427E+04  1.138500E+05 -1.646583E-08 -2.807883E-09
       252  12 -4.276176E+04 -5.770935E+02 -3.943505E+04  9.833592E+04  3.325362E-08  2.135596E-08
       252  13  2.455685E+05  1.028771E+05  3.299101E+03  1.822281E+05 -2.888826E-09 -4.628783E-09
       252  14  2.503641E+05  9.823355E+04  6.081451E+03  1.760354E+05 -7.306476E-09  9.205226E-09
       252  15  2.459673E+05  1.057352E+05  1.164060E+04  1.811413E+05 -5.829695E-09 -3.785138E-10
       252  16  3.939902E+05  1.561937E+05  2.788892E+04  2.238003E+05  4.769772E-08  1.529871E-08
       252  17  4.687507E+05  1.778228E+05  4.299556E+04  2.382410E+05 -5.807139E-09 -3.411097E-09
       252  18  5.347812E+05  2.120551E+05  6.271267E+04  2.639819E+05 -4.633761E-08 -1.187141E-08
       252  19  9.717061E+04  4.956275E+04 -2.129061E+04  1.406650E+05  1.748857E+04 -6.426436E+03
       252  20  3.202748E+04  1.864912E+04 -3.083328E+04  1.138498E+05  2.013523E+04 -1.115597E+04
       252  21 -4.276116E+04 -5.767279E+02 -3.943371E+04  9.833565E+04  2.232797E+04 -1.468863E+04
       252  22  2.455686E+05  1.028772E+05  3.299393E+03  1.822280E+05  6.642796E+03 -1.053313E+04
       252  23  2.503643E+05  9.823381E+04  6.082093E+03  1.760352E+05  1.160462E+04 -1.438513E+04
       252  24  2.459676E+05  1.057356E+05  1.164164E+04  1.811410E+05  1.611268E+04 -1.704046E+04
       252  25  3.939902E+05  1.561940E+05  2.788936E+04  2.238003E+05 -4.205731E+03 -1.464084E+04
       252  26  4.687508E+05  1.778231E+05  4.299616E+04  2.382410E+05  3.070865E+03 -1.761549E+04
       252  27  5.347814E+05  2.120555E+05  6.271356E+04  2.639817E+05  9.894375E+03 -1.939346E+04
       253   1 -8.859886E+04 -1.496418E+04 -4.460327E+04  8.822943E+04 -2.583407E+04  1.615902E+04
       253   2 -1.427086E+05 -4.940287E+04 -5.263868E+04  4.366042E+04 -1.758345E+04  1.668978E+04
       253   3 -1.986321E+05 -5.109850E+04 -5.976583E+04  3.342652E+03 -4.859638E+03  5.390564E+03
       253   4  2.478593E+05  1.061095E+05  1.559539E+04  1.815416E+05 -1.879389E+04  1.882265E+04
       253   5  2.499224E+05  1.114184E+05  2.987539E+04  1.703508E+05 -3.340493E+04  1.070023E+04
       253   6  2.546935E+05  1.539902E+05  6.318615E+04  1.634112E+05 -4.354455E+04 -9.247665E+03
       253   7  5.844424E+05  2.271957E+05  7.579201E+04  2.749023E+05 -1.174953E+04  2.148782E+04
       253   8  6.427130E+05  2.722638E+05  1.123820E+05  2.971189E+05 -4.923710E+04  4.705568E+03
       253   9  7.082167E+05  3.591170E+05  1.861235E+05  3.235922E+05 -8.225948E+04 -2.390264E+04
       253  10 -8.859965E+04 -1.496464E+04 -4.460502E+04  8.822976E+04  8.679739E-09  1.159697E-08
       253  11 -1.427090E+05 -4.940325E+04 -5.263978E+04  4.366066E+04  4.596569E-09  3.259218E-09
       253  12 -1.986322E+05 -5.109854E+04 -5.976593E+04  3.342673E+03  6.635232E-10 -4.005081E-09
       253  13  2.478588E+05  1.061090E+05  1.559406E+04  1.815419E+05  1.219969E-09  2.641514E-10
       253  14  2.499212E+05  1.114180E+05  2.987307E+04  1.703511E+05  1.391555E-09 -2.168291E-09
       253  15  2.546914E+05  1.539896E+05  6.318243E+04  1.634108E+05  2.565132E-09 -2.559923E-09
       253  16  5.844421E+05  2.271952E+05  7.579088E+04  2.749025E+05 -1.379057E-08  4.614369E-09
       253  17  6.427104E+05  2.722632E+05  1.123774E+05  2.971191E+05 -5.328725E-09  2.695938E-09
       253  18  7.082093E+05  3.591146E+05  1.861097E+05  3.235906E+05 -1.922496E-09 -1.735598E-09
       253  19 -8.859886E+04 -1.496418E+04 -4.460327E+04  8.822943E+04  2.583407E+04 -1.615902E+04
       253  20 -1.427086E+05 -4.940287E+04 -5.263868E+04  4.366042E+04  1.758345E+04 -1.668978E+04
       253  21 -1.986321E+05 -5.109850E+04 -5.976583E+04  3.342652E+03  4.859638E+03 -5.390564E+03
       253  22  2.478593E+05  1.061095E+05  1.559539E+04  1.815416E+05  1.879389E+04 -1.882265E+04
       253  23  2.499224E+05  1.114184E+05  2.987539E+04  1.703508E+05  3.340493E+04 -1.070023E+04
       253  24  2.546935E+05  1.539902E+05  6.318615E+04  1.634112E+05  4.354455E+04  9.247665E+03
       253  25  5.844424E+05  2.271957E+05  7.579201E+04  2.749023E+05  1.174953E+04 -2.148782E+04
       253  26  6.427130E+05  2.722638E+05  1.123820E+05  2.971189E+05  4.923710E+04 -4.705568E+03
       253  27  7.082167E+05  3.591170E+05  1.861235E+05  3.235922E+05  8.225948E+04  2.390264E+04
       254   1  3.662783E+05  6.555550E+04  5.837480E+04  6.922703E+03 -1.767265E+04 -2.735116E+03
       254   2  3.505820E+05  8.801113E+04  6.922897E+04 -3.261268E+02 -1.270023E+04 -7.904852E+03
       254   3  3.266471E+05  7.980973E+04  6.921116E+04  1.444465E+04 -7.751284E+03 -6.883025E+03
       254   4  1.064007E+04 -2.317521E+04 -2.992276E+04  1.113308E+04 -2.044920E+04 -2.745474E+03
       254   5  1.494232E+04  4.472255E+03 -1.294298E+04  7.790401E+01 -1.339891E+04 -7.907904E+03
       254   6  1.064012E+04  1.092978E+03 -8.282553E+03  1.104318E+04 -6.371915E+03 -6.877360E+03
       254   7 -3.448833E+05 -1.119153E+05 -1.182297E+05  1.534093E+04 -2.322416E+04 -2.755873E+03
       254   8 -3.205948E+05 -7.907496E+04 -9.512316E+04  4.816154E+02 -1.409721E+04 -7.910957E+03
       254   9 -3.052759E+05 -7.763114E+04 -8.578359E+04  7.643346E+03 -4.993245E+03 -6.871710E+03
       254  10  3.662780E+05  6.555541E+04  5.837420E+04  6.922664E+03 -1.762900E-09  2.111646E-09
       254  11  3.505818E+05  8.801102E+04  6.922855E+04 -3.262077E+02  1.885072E-09  1.254919E-08
       254  12  3.266470E+05  7.980966E+04  6.921096E+04  1.444461E+04  1.921548E-09  7.844779E-09
       254  13  1.063962E+04 -2.317533E+04 -2.992356E+04  1.113303E+04 -1.093196E-10 -5.343614E-09
       254  14  1.494211E+04  4.472140E+03 -1.294343E+04  7.781867E+01 -1.098530E-09 -1.167964E-08
       254  15  1.064007E+04  1.092916E+03 -8.282718E+03  1.104314E+04  5.652824E-09  3.373077E-09
       254  16 -3.448839E+05 -1.119155E+05 -1.182307E+05  1.534088E+04  3.673553E-09  1.509934E-09
       254  17 -3.205950E+05 -7.907508E+04 -9.512365E+04  4.815256E+02 -4.464451E-09  8.032788E-09
       254  18 -3.052759E+05 -7.763120E+04 -8.578372E+04  7.643318E+03 -1.464960E-09 -2.946793E-09
       254  19  3.662783E+05  6.555550E+04  5.837480E+04  6.922703E+03  1.767265E+04  2.735116E+03
       254  20  3.505820E+05  8.801113E+04  6.922897E+04 -3.261268E+02  1.270023E+04  7.904852E+03
       254  21  3.266471E+05  7.980973E+04  6.921116E+04  1.444465E+04  7.751284E+03  6.883025E+03
       254  22  1.064007E+04 -2.317521E+04 -2.992276E+04  1.113308E+04  2.044920E+04  2.745474E+03
       254  23  1.494232E+04  4.472255E+03 -1.294298E+04  7.790401E+01  1.339891E+04  7.907904E+03
       254  24  1.064012E+04  1.092978E+03 -8.282553E+03  1.104318E+04  6.371915E+03  6.877360E+03
       254  25 -3.448833E+05 -1.119153E+05 -1.182297E+05  1.534093E+04  2.322416E+04  2.755873E+03
       254  26 -3.205948E+05 -7.907496E+04 -9.512316E+04  4.816154E+02  1.409721E+04  7.910957E+03
       254  27 -3.052759E+05 -7.763114E+04 -8.578359E+04  7.643346E+03  4.993245E+03  6.871710E+03
       255   1  2.829614E+05  6.446929E+04  5.963704E+04  1.134179E+04 -4.950493E+03 -5.530994E+03
       255   2  2.638776E+05  6.307111E+04  5.817900E+04  7.814645E+02 -3.440945E+03 -5.474123E+03
       255   3  2.435465E+05  5.784635E+04  5.476357E+04  1.223656E+04 -1.934995E+03 -4.730602E+03
       255   4  1.227408E+04 -2.947540E+03 -6.817436E+03  1.108187E+04 -5.047526E+03 -5.531580E+03
       255   5  1.291839E+04  5.772845E+02 -3.357169E+03  6.678764E+01 -3.307849E+03 -5.473651E+03
       255   6  1.227412E+04  2.346073E+02 -2.014768E+03  1.106771E+04 -1.571727E+03 -4.728951E+03
       255   7 -2.583465E+05 -7.036981E+04 -7.327730E+04  1.082198E+04 -5.144515E+03 -5.532166E+03
       255   8 -2.379835E+05 -6.192121E+04 -6.489796E+04 -6.476659E+02 -3.174807E+03 -5.473179E+03
       255   9 -2.189496E+05 -5.738111E+04 -5.879704E+04  9.899239E+03 -1.208595E+03 -4.727301E+03
       255  10  2.829613E+05  6.446925E+04  5.963694E+04  1.134177E+04 -2.359713E-09 -2.095938E-09
       255  11  2.638776E+05  6.307107E+04  5.817892E+04  7.814494E+02  3.259918E-09  1.189330E-09
       255  12  2.435465E+05  5.784633E+04  5.476353E+04  1.223655E+04  3.292060E-09  1.320580E-08
       255  13  1.227405E+04 -2.947580E+03 -6.817542E+03  1.108184E+04  7.912999E-11  1.456232E-08
       255  14  1.291837E+04  5.772494E+02 -3.357246E+03  6.677305E+01  1.112426E-09 -2.569292E-08
       255  15  1.227411E+04  2.345826E+02 -2.014814E+03  1.106770E+04  4.074581E-09  1.185399E-08
       255  16 -2.583466E+05 -7.036985E+04 -7.327741E+04  1.082196E+04  3.048398E-09 -1.428239E-08
       255  17 -2.379835E+05 -6.192124E+04 -6.489803E+04 -6.476799E+02 -1.050801E-09 -1.908852E-09
       255  18 -2.189496E+05 -5.738113E+04 -5.879708E+04  9.899234E+03 -2.803007E-09  8.571452E-10
       255  19  2.829614E+05  6.446929E+04  5.963704E+04  1.134179E+04  4.950493E+03  5.530994E+03
       255  20  2.638776E+05  6.307111E+04  5.817900E+04  7.814645E+02  3.440945E+03  5.474123E+03
       255  21  2.435465E+05  5.784635E+04  5.476357E+04  1.223656E+04  1.934995E+03  4.730602E+03
       255  22  1.227408E+04 -2.947540E+03 -6.817436E+03  1.108187E+04  5.047526E+03  5.531580E+03
       255  23  1.291839E+04  5.772845E+02 -3.357169E+03  6.678764E+01  3.307849E+03  5.473651E+03
       255  24  1.227412E+04  2.346073E+02 -2.014768E+03  1.106771E+04  1.571727E+03  4.728951E+03
       255  25 -2.583465E+05 -7.036981E+04 -7.327730E+04  1.082198E+04  5.144515E+03  5.532166E+03
       255  26 -2.379835E+05 -6.192121E+04 -6.489796E+04 -6.476659E+02  3.174807E+03  5.473179E+03
       255  27 -2.189496E+05 -5.738111E+04 -5.879704E+04  9.899239E+03  1.208595E+03  4.727301E+03
       256   1  1.984827E+05  4.601672E+04  4.398154E+04  1.169051E+04 -1.452838E+03 -4.215727E+03
       256   2  1.789784E+05  4.149399E+04  3.997700E+04  6.926493E+02 -1.068380E+03 -3.583033E+03
       256   3  1.591384E+05  3.667206E+04  3.560350E+04  1.169446E+04 -6.846417E+02 -2.874510E+03
       256   4  1.249075E+04 -2.946739E+02 -1.590678E+03  1.107029E+04 -1.253340E+03 -4.214819E+03
       256   5  1.266090E+04  7.200244E+01 -8.158247E+02  6.919920E+01 -8.435104E+02 -3.581948E+03
       256   6  1.249076E+04  1.350787E+02 -4.275429E+02  1.106814E+04 -4.343867E+02 -2.873236E+03
       256   7 -1.734697E+05 -4.660863E+04 -4.716543E+04  1.045022E+04 -1.053902E+03 -4.213910E+03
       256   8 -1.536314E+05 -4.135204E+04 -4.161068E+04 -5.541156E+02 -6.187005E+02 -3.580862E+03
       256   9 -1.341373E+05 -3.640350E+04 -3.646017E+04  1.044195E+04 -1.841907E+02 -2.871964E+03
       256  10  1.984827E+05  4.601670E+04  4.398150E+04  1.169050E+04  7.245314E-10 -5.233225E-09
       256  11  1.789784E+05  4.149398E+04  3.997698E+04  6.926462E+02  1.395091E-09 -7.171970E-09
       256  12  1.591384E+05  3.667205E+04  3.560349E+04  1.169446E+04  3.203859E-09 -7.737595E-09
       256  13  1.249075E+04 -2.946934E+02 -1.590715E+03  1.107029E+04  1.333686E-09 -2.962998E-09
       256  14  1.266089E+04  7.198847E+01 -8.158501E+02  6.919677E+01 -2.687115E-09 -8.956334E-09
       256  15  1.249076E+04  1.350698E+02 -4.275587E+02  1.106814E+04  5.732246E-09 -7.650303E-09
       256  16 -1.734697E+05 -4.660865E+04 -4.716547E+04  1.045022E+04  6.317448E-10 -1.007178E-08
       256  17 -1.536314E+05 -4.135205E+04 -4.161071E+04 -5.541174E+02 -3.935263E-09  8.173560E-09
       256  18 -1.341373E+05 -3.640351E+04 -3.646019E+04  1.044195E+04 -8.273751E-09  1.392801E-08
       256  19  1.984827E+05  4.601672E+04  4.398154E+04  1.169051E+04  1.452838E+03  4.215727E+03
       256  20  1.789784E+05  4.149399E+04  3.997700E+04  6.926493E+02  1.068380E+03  3.583033E+03
       256  21  1.591384E+05  3.667206E+04  3.560350E+04  1.169446E+04  6.846417E+02  2.874510E+03
       256  22  1.249075E+04 -2.946739E+02 -1.590678E+03  1.107029E+04  1.253340E+03  4.214819E+03
       256  23  1.266090E+04  7.200244E+01 -8.158247E+02  6.919920E+01  8.435104E+02  3.581948E+03
       256  24  1.249076E+04  1.350787E+02 -4.275429E+02  1.106814E+04  4.343867E+02  2.873236E+03
       256  25 -1.734697E+05 -4.660863E+04 -4.716543E+04  1.045022E+04  1.053902E+03  4.213910E+03
       256  26 -1.536314E+05 -4.135204E+04 -4.161068E+04 -5.541156E+02  6.187005E+02  3.580862E+03
       256  27 -1.341373E+05 -3.640350E+04 -3.646017E+04  1.044195E+04  1.841907E+02  2.871964E+03
       257   1  1.139204E+05  2.530449E+04  2.451774E+04  1.146643E+04 -6.044385E+02 -2.453460E+03
       257   2  9.437847E+04  2.036586E+04  2.000086E+04  4.050758E+02 -5.850890E+02 -1.758457E+03
       257   3  7.460248E+04  1.561780E+04  1.546083E+04  1.132741E+04 -5.659455E+02 -1.055945E+03
       257   4  1.251771E+04  6.027603E+01 -2.955775E+02  1.106551E+04 -3.721511E+02 -2.452249E+03
       257   5  1.263513E+04  5.869647E+00 -5.016369E+01  7.335982E+01 -3.502883E+02 -1.757206E+03
       257   6  1.251771E+04  1.416264E+02  1.703740E+02  1.106507E+04 -3.286308E+02 -1.054653E+03
       257   7 -8.887562E+04 -2.518469E+04 -2.510965E+04  1.066465E+04 -1.399015E+02 -2.451038E+03
       257   8 -6.910212E+04 -2.035461E+04 -2.010167E+04 -2.583205E+02 -1.155184E+02 -1.755956E+03
       257   9 -4.956355E+04 -1.533484E+04 -1.512036E+04  1.080276E+04 -9.133971E+01 -1.053361E+03
       257  10  1.139204E+05  2.530448E+04  2.451773E+04  1.146643E+04  1.904206E-09 -9.303772E-09
       257  11  9.437846E+04  2.036585E+04  2.000085E+04  4.050749E+02 -1.270763E-10  7.646699E-09
       257  12  7.460248E+04  1.561780E+04  1.546083E+04  1.132741E+04 -5.576819E-09  1.757092E-09
       257  13  1.251771E+04  6.026954E+01 -2.955891E+02  1.106551E+04  3.439092E-10  5.669579E-09
       257  14  1.263513E+04  5.866298E+00 -5.016972E+01  7.335933E+01 -1.075193E-09 -4.601376E-09
       257  15  1.251771E+04  1.416252E+02  1.703717E+02  1.106507E+04  5.485811E-09 -3.371025E-09
       257  16 -8.887563E+04 -2.518470E+04 -2.510966E+04  1.066465E+04 -1.006998E-09  1.118037E-08
       257  17 -6.910212E+04 -2.035462E+04 -2.010168E+04 -2.583207E+02  8.778598E-10  1.948485E-08
       257  18 -4.956355E+04 -1.533484E+04 -1.512037E+04  1.080276E+04  4.754097E-09  3.611461E-09
       257  19  1.139204E+05  2.530449E+04  2.451774E+04  1.146643E+04  6.044385E+02  2.453460E+03
       257  20  9.437847E+04  2.036586E+04  2.000086E+04  4.050758E+02  5.850890E+02  1.758457E+03
       257  21  7.460248E+04  1.561780E+04  1.546083E+04  1.132741E+04  5.659455E+02  1.055945E+03
       257  22  1.251771E+04  6.027603E+01 -2.955775E+02  1.106551E+04  3.721511E+02  2.452249E+03
       257  23  1.263513E+04  5.869647E+00 -5.016369E+01  7.335982E+01  3.502883E+02  1.757206E+03
       257  24  1.251771E+04  1.416264E+02  1.703740E+02  1.106507E+04  3.286308E+02  1.054653E+03
       257  25 -8.887562E+04 -2.518469E+04 -2.510965E+04  1.066465E+04  1.399015E+02  2.451038E+03
       257  26 -6.910212E+04 -2.035461E+04 -2.010167E+04 -2.583205E+02  1.155184E+02  1.755956E+03
       257  27 -4.956355E+04 -1.533484E+04 -1.512036E+04  1.080276E+04  9.133971E+01  1.053361E+03
       258   1  2.939914E+04  4.295297E+03  4.363057E+03  1.115273E+04 -6.093055E+02 -6.449738E+02
       258   2  9.821912E+03 -7.238946E+02 -7.897547E+01  6.399716E+01 -9.143238E+02  5.550939E+01
       258   3 -9.907523E+03 -5.308054E+03 -4.276364E+03  1.095403E+04 -1.219291E+03  7.502277E+02
       258   4  1.253712E+04  1.072308E+02  2.878621E+02  1.106443E+04 -3.724097E+02 -6.436735E+02
       258   5  1.261339E+04 -2.861589E+01  6.056580E+02  7.460174E+01 -6.793733E+02  5.679739E+01
       258   6  1.253712E+04  2.708572E+02  1.169391E+03  1.106353E+04 -9.862954E+02  7.515047E+02
       258   7 -4.324636E+03 -4.080856E+03 -3.787353E+03  1.097613E+04 -1.355204E+02 -6.423733E+02
       258   8  1.540487E+04  6.666623E+02  1.290291E+03  8.520636E+01 -4.444218E+02  5.808540E+01
       258   9  3.498223E+04  5.849732E+03  6.615110E+03  1.117303E+04 -7.532913E+02  7.527817E+02
       258  10  2.939914E+04  4.295296E+03  4.363056E+03  1.115273E+04 -2.853673E-09  1.020330E-09
       258  11  9.821911E+03 -7.238948E+02 -7.897704E+01  6.399720E+01  2.420228E-09 -6.953958E-09
       258  12 -9.907525E+03 -5.308055E+03 -4.276368E+03  1.095403E+04 -5.559718E-09 -7.685511E-09
       258  13  1.253712E+04  1.072303E+02  2.878611E+02  1.106443E+04  1.472987E-09  9.596310E-09
       258  14  1.261339E+04 -2.861601E+01  6.056571E+02  7.460177E+01 -1.046038E-09 -7.798288E-09
       258  15  1.253712E+04  2.708564E+02  1.169388E+03  1.106353E+04  6.589954E-09 -8.276976E-09
       258  16 -4.324636E+03 -4.080856E+03 -3.787354E+03  1.097613E+04  5.440371E-09 -3.852900E-09
       258  17  1.540487E+04  6.666622E+02  1.290291E+03  8.520638E+01  1.539286E-10 -1.827030E-08
       258  18  3.498223E+04  5.849731E+03  6.615108E+03  1.117303E+04  3.657565E-09 -1.596178E-08
       258  19  2.939914E+04  4.295297E+03  4.363057E+03  1.115273E+04  6.093055E+02  6.449738E+02
       258  20  9.821912E+03 -7.238946E+02 -7.897547E+01  6.399716E+01  9.143238E+02 -5.550939E+01
       258  21 -9.907523E+03 -5.308054E+03 -4.276364E+03  1.095403E+04  1.219291E+03 -7.502277E+02
       258  22  1.253712E+04  1.072308E+02  2.878621E+02  1.106443E+04  3.724097E+02  6.436735E+02
       258  23  1.261339E+04 -2.861589E+01  6.056580E+02  7.460174E+01  6.793733E+02 -5.679739E+01
       258  24  1.253712E+04  2.708572E+02  1.169391E+03  1.106353E+04  9.862954E+02 -7.515047E+02
       258  25 -4.324636E+03 -4.080856E+03 -3.787353E+03  1.097613E+04  1.355204E+02  6.423733E+02
       258  26  1.540487E+04  6.666623E+02  1.290291E+03  8.520636E+01  4.444218E+02 -5.808540E+01
       258  27  3.498223E+04  5.849732E+03  6.615110E+03  1.117303E+04  7.532913E+02 -7.527817E+02
       259   1 -5.501608E+04 -1.679405E+04 -1.513335E+04  1.092378E+04 -1.478337E+03  1.167006E+03
       259   2 -7.485048E+04 -2.199010E+04 -1.881309E+04 -3.169533E+02 -2.783007E+03  1.865733E+03
       259   3 -9.432767E+04 -2.533181E+04 -2.123750E+04  1.041901E+04 -4.087164E+03  2.504648E+03
       259   4  1.264985E+04  7.152234E+01  1.526530E+03  1.106579E+04 -1.231263E+03  1.168348E+03
       259   5  1.246958E+04 -2.386182E+02  2.606928E+03  7.425120E+01 -2.556197E+03  1.866935E+03
       259   6  1.264987E+04  1.309047E+03  4.956680E+03  1.105921E+04 -3.880660E+03  2.505714E+03
       259   7  8.031994E+04  1.693675E+04  1.818608E+04  1.120781E+04 -9.841620E+02  1.169691E+03
       259   8  9.979659E+04  2.151229E+04  2.402639E+04  4.655015E+02 -2.329356E+03  1.868138E+03
       259   9  1.196378E+05  2.794906E+04  3.115002E+04  1.169950E+04 -3.674121E+03  2.506781E+03
       259  10 -5.501608E+04 -1.679405E+04 -1.513336E+04  1.092378E+04 -3.990819E-09  6.602504E-10
       259  11 -7.485049E+04 -2.199010E+04 -1.881311E+04 -3.169492E+02 -8.773451E-10 -1.414323E-08
       259  12 -9.432769E+04 -2.533182E+04 -2.123754E+04  1.041902E+04  1.681761E-09 -1.980958E-09
       259  13  1.264985E+04  7.152047E+01  1.526525E+03  1.106579E+04  1.484682E-09 -1.482665E-09
       259  14  1.246958E+04 -2.386237E+02  2.606909E+03  7.425504E+01 -4.773744E-12 -3.432407E-09
       259  15  1.264985E+04  1.309037E+03  4.956640E+03  1.105921E+04  4.917646E-09  1.269943E-08
       259  16  8.031994E+04  1.693675E+04  1.818607E+04  1.120781E+04  7.146469E-09  4.721771E-09
       259  17  9.979658E+04  2.151229E+04  2.402637E+04  4.655051E+02  9.446531E-10 -1.231335E-08
       259  18  1.196378E+05  2.794905E+04  3.114999E+04  1.169951E+04 -3.889813E-09  1.432771E-08
       259  19 -5.501608E+04 -1.679405E+04 -1.513335E+04  1.092378E+04  1.478337E+03 -1.167006E+03
       259  20 -7.485048E+04 -2.199010E+04 -1.881309E+04 -3.169533E+02  2.783007E+03 -1.865733E+03
       259  21 -9.432767E+04 -2.533181E+04 -2.123750E+04  1.041901E+04  4.087164E+03 -2.504648E+03
       259  22  1.264985E+04  7.152234E+01  1.526530E+03  1.106579E+04  1.231263E+03 -1.168348E+03
       259  23  1.246958E+04 -2.386182E+02  2.606928E+03  7.425120E+01  2.556197E+03 -1.866935E+03
       259  24  1.264987E+04  1.309047E+03  4.956680E+03  1.105921E+04  3.880660E+03 -2.505714E+03
       259  25  8.031994E+04  1.693675E+04  1.818608E+04  1.120781E+04  9.841620E+02 -1.169691E+03
       259  26  9.979659E+04  2.151229E+04  2.402639E+04  4.655015E+02  2.329356E+03 -1.868138E+03
       259  27  1.196378E+05  2.794906E+04  3.115002E+04  1.169950E+04  3.674121E+03 -2.506781E+03
       260   1 -1.388387E+05 -3.819565E+04 -3.112797E+04  1.146226E+04 -5.222427E+03  2.989745E+03
       260   2 -1.603236E+05 -4.463939E+04 -3.184453E+04 -1.050793E+03 -1.039299E+04  3.693766E+03
       260   3 -1.781552E+05 -3.834946E+04 -2.605346E+04  8.383482E+03 -1.556041E+04  3.856732E+03
       260   4  1.338453E+04 -2.779126E+02  6.268892E+03  1.107295E+04 -4.886853E+03  2.991465E+03
       260   5  1.154292E+04 -1.822585E+03  1.030830E+04  7.551305E+01 -1.024051E+04  3.694466E+03
       260   6  1.338477E+04  9.396280E+03  2.098116E+04  1.102498E+04 -1.559117E+04  3.856454E+03
       260   7  1.656289E+05  3.763811E+04  4.366405E+04  1.068351E+04 -4.551196E+03  2.993183E+03
       260   8  1.834363E+05  4.099203E+04  5.245897E+04  1.202097E+03 -1.008797E+04  3.695166E+03
       260   9  2.049582E+05  5.713931E+04  6.801309E+04  1.366726E+04 -1.562193E+04  3.856176E+03
       260  10 -1.388388E+05 -3.819567E+04 -3.112803E+04  1.146227E+04  1.209625E-08  1.528215E-09
       260  11 -1.603237E+05 -4.463943E+04 -3.184476E+04 -1.050762E+03  3.895092E-09  1.021047E-08
       260  12 -1.781555E+05 -3.834954E+04 -2.605394E+04  8.383530E+03 -3.927291E-09 -1.230735E-08
       260  13  1.338450E+04 -2.779286E+02  6.268830E+03  1.107296E+04  1.428032E-09 -1.159866E-08
       260  14  1.154280E+04 -1.822628E+03  1.030808E+04  7.554352E+01  5.776423E-10  1.561893E-08
       260  15  1.338451E+04  9.396199E+03  2.098068E+04  1.102503E+04  3.503995E-09 -1.790560E-09
       260  16  1.656289E+05  3.763809E+04  4.366399E+04  1.068352E+04 -1.019581E-08 -2.946511E-09
       260  17  1.834362E+05  4.099199E+04  5.245876E+04  1.202127E+03  2.047949E-09 -3.653077E-08
       260  18  2.049579E+05  5.713923E+04  6.801260E+04  1.366730E+04  1.295343E-09 -6.128403E-09
       260  19 -1.388387E+05 -3.819565E+04 -3.112797E+04  1.146226E+04  5.222427E+03 -2.989745E+03
       260  20 -1.603236E+05 -4.463939E+04 -3.184453E+04 -1.050793E+03  1.039299E+04 -3.693766E+03
       260  21 -1.781552E+05 -3.834946E+04 -2.605346E+04  8.383482E+03  1.556041E+04 -3.856732E+03
       260  22  1.338453E+04 -2.779126E+02  6.268892E+03  1.107295E+04  4.886853E+03 -2.991465E+03
       260  23  1.154292E+04 -1.822585E+03  1.030830E+04  7.551305E+01  1.024051E+04 -3.694466E+03
       260  24  1.338477E+04  9.396280E+03  2.098116E+04  1.102498E+04  1.559117E+04 -3.856454E+03
       260  25  1.656289E+05  3.763811E+04  4.366405E+04  1.068351E+04  4.551196E+03 -2.993183E+03
       260  26  1.834363E+05  4.099203E+04  5.245897E+04  1.202097E+03  1.008797E+04 -3.695166E+03
       260  27  2.049582E+05  5.713931E+04  6.801309E+04  1.366726E+04  1.562193E+04 -3.856176E+03
       261   1 -2.183683E+05 -6.191081E+04 -3.258807E+04  1.758377E+04 -2.083567E+04  4.977759E+03
       261   2 -2.512683E+05 -7.775642E+04 -2.309385E+04 -5.057313E+03 -4.077858E+04  5.832768E+03
       261   3 -2.576346E+05  2.452837E+03  2.338644E+04 -6.051386E+03 -6.069858E+04  1.805748E+03
       261   4  1.851690E+04 -2.987658E+03  2.551228E+04  1.109971E+04 -1.970180E+04  4.983344E+03
       261   5  5.114250E+03 -1.386010E+04  3.970447E+04  1.125382E+02 -4.129262E+04  5.829973E+03
       261   6  1.851921E+04  7.158667E+04  9.201587E+04  1.077156E+04 -6.286120E+04  1.794712E+03
       261   7  2.554533E+05  5.593151E+04  8.360855E+04  4.613105E+03 -1.856751E+04  4.988904E+03
       261   8  2.615567E+05  5.003143E+04  1.024980E+05  5.284462E+03 -4.180687E+04  5.827170E+03
       261   9  2.947428E+05  1.407158E+05  1.606398E+05  2.760192E+04 -6.502478E+04  1.783561E+03
       261  10 -2.183687E+05 -6.191095E+04 -3.258893E+04  1.758385E+04  4.102712E-09 -9.819793E-09
       261  11 -2.512701E+05 -7.775690E+04 -2.309704E+04 -5.057122E+03  3.466221E-09 -2.205978E-09
       261  12 -2.576385E+05  2.451844E+03  2.337951E+04 -6.051297E+03  6.095747E-10  8.433985E-09
       261  13  1.851648E+04 -2.987789E+03  2.551151E+04  1.109979E+04  1.284098E-09  9.509652E-10
       261  14  5.112410E+03 -1.386060E+04  3.970120E+04  1.127320E+02  2.154025E-09  9.077605E-09
       261  15  1.851496E+04  7.158560E+04  9.200844E+04  1.077165E+04  2.100318E-09  7.043540E-09
       261  16  2.554529E+05  5.593139E+04  8.360786E+04  4.613179E+03 -3.420909E-09  7.895319E-09
       261  17  2.615548E+05  5.003093E+04  1.024946E+05  5.284658E+03 -4.015906E-09  5.608822E-09
       261  18  2.947382E+05  1.407146E+05  1.606318E+05  2.760201E+04 -2.648131E-09 -1.096458E-09
       261  19 -2.183683E+05 -6.191081E+04 -3.258807E+04  1.758377E+04  2.083567E+04 -4.977759E+03
       261  20 -2.512683E+05 -7.775642E+04 -2.309385E+04 -5.057313E+03  4.077858E+04 -5.832768E+03
       261  21 -2.576346E+05  2.452837E+03  2.338644E+04 -6.051386E+03  6.069858E+04 -1.805748E+03
       261  22  1.851690E+04 -2.987658E+03  2.551228E+04  1.109971E+04  1.970180E+04 -4.983344E+03
       261  23  5.114250E+03 -1.386010E+04  3.970447E+04  1.125382E+02  4.129262E+04 -5.829973E+03
       261  24  1.851921E+04  7.158667E+04  9.201587E+04  1.077156E+04  6.286120E+04 -1.794712E+03
       261  25  2.554533E+05  5.593151E+04  8.360855E+04  4.613105E+03  1.856751E+04 -4.988904E+03
       261  26  2.615567E+05  5.003143E+04  1.024980E+05  5.284462E+03  4.180687E+04 -5.827170E+03
       261  27  2.947428E+05  1.407158E+05  1.606398E+05  2.760192E+04  6.502478E+04 -1.783561E+03
       262   1 -2.856538E+05 -1.394478E+06 -3.374625E+05  7.655528E+04 -2.591817E+03 -1.566171E+05
       262   2 -5.516706E+04 -1.301718E+06 -1.933558E+05  1.459094E+04 -8.343190E+03 -9.735752E+04
       262   3 -7.093188E+04 -1.277458E+06 -1.492981E+05  1.744987E+04 -6.079720E+03 -3.806719E+04
       262   4 -1.799561E+05 -9.731064E+05 -2.325808E+05  3.515190E+04 -2.592064E+03 -1.534741E+05
       262   5  3.531619E+04 -9.390662E+05 -1.044474E+05  3.046475E+03 -8.342677E+03 -9.686995E+04
       262   6  4.874797E+03 -9.730244E+05 -7.446922E+04  3.576684E+04 -6.074794E+03 -4.024081E+04
       262   7 -7.426556E+04 -5.515697E+05 -1.277114E+05 -6.279534E+03 -2.592734E+03 -1.503291E+05
       262   8  1.257901E+05 -5.762943E+05 -1.554853E+04 -8.504672E+03 -8.342182E+03 -9.638208E+04
       262   9  8.067588E+04 -6.685052E+05  3.530276E+02  5.409288E+04 -6.069998E+03 -4.241550E+04
       262  10 -2.856604E+05 -1.394504E+06 -3.375087E+05  7.655496E+04  3.153941E-10  3.369151E-10
       262  11 -5.516968E+04 -1.301728E+06 -1.933738E+05  1.459029E+04 -9.535814E-10 -2.300382E-09
       262  12 -7.093231E+04 -1.277460E+06 -1.493009E+05  1.744968E+04  1.639855E-09  1.746120E-09
       262  13 -1.799625E+05 -9.731317E+05 -2.326251E+05  3.515158E+04  1.146846E-09  1.166630E-09
       262  14  3.531359E+04 -9.390763E+05 -1.044652E+05  3.045824E+03  1.224841E-09  4.382169E-09
       262  15  4.874322E+03 -9.730262E+05 -7.447234E+04  3.576664E+04  1.499895E-09  4.542695E-09
       262  16 -7.427164E+04 -5.515940E+05 -1.277540E+05 -6.279848E+03  1.385078E-09  3.882767E-09
       262  17  1.257876E+05 -5.763043E+05 -1.556614E+04 -8.505319E+03  3.839622E-09 -2.708593E-10
       262  18  8.067536E+04 -6.685072E+05  3.495740E+02  5.409268E+04  9.886906E-10 -8.606453E-10
       262  19 -2.856538E+05 -1.394478E+06 -3.374625E+05  7.655528E+04  2.591817E+03  1.566171E+05
       262  20 -5.516706E+04 -1.301718E+06 -1.933558E+05  1.459094E+04  8.343190E+03  9.735752E+04
       262  21 -7.093188E+04 -1.277458E+06 -1.492981E+05  1.744987E+04  6.079720E+03  3.806719E+04
       262  22 -1.799561E+05 -9.731064E+05 -2.325808E+05  3.515190E+04  2.592064E+03  1.534741E+05
       262  23  3.531619E+04 -9.390662E+05 -1.044474E+05  3.046475E+03  8.342677E+03  9.686995E+04
       262  24  4.874797E+03 -9.730244E+05 -7.446922E+04  3.576684E+04  6.074794E+03  4.024081E+04
       262  25 -7.426556E+04 -5.515697E+05 -1.277114E+05 -6.279534E+03  2.592734E+03  1.503291E+05
       262  26  1.257901E+05 -5.762943E+05 -1.554853E+04 -8.504672E+03  8.342182E+03  9.638208E+04
       262  27  8.067588E+04 -6.685052E+05  3.530276E+02  5.409288E+04  6.069998E+03  4.241550E+04
       263   1 -6.434535E+04 -1.128691E+06 -1.071627E+05  4.355371E+04 -3.585904E+03 -2.742498E+04
       263   2 -1.786889E+04 -1.059445E+06 -7.478767E+04  2.761061E+03 -2.325147E+03 -2.046117E+03
       263   3 -3.178934E+04 -1.008154E+06 -7.396149E+04  2.931545E+04 -6.701458E+02  2.333568E+04
       263   4 -2.271083E+04 -9.618989E+05 -6.620489E+04  3.611000E+04 -3.584534E+03 -2.780832E+04
       263   5  8.688758E+03 -9.529317E+05 -4.863828E+04  2.441243E+03 -2.323834E+03 -2.556842E+03
       263   6 -2.028050E+04 -9.618974E+05 -6.252707E+04  3.611950E+04 -6.683497E+02  2.269513E+04
       263   7  1.892183E+04 -7.950808E+05 -2.524907E+04  2.866429E+04 -3.583155E+03 -2.819176E+04
       263   8  3.524556E+04 -8.464077E+05 -2.248973E+04  2.121376E+03 -2.322522E+03 -3.067655E+03
       263   9 -8.771631E+03 -9.156385E+05 -5.109279E+04  4.292406E+04 -6.665677E+02  2.205453E+04
       263  10 -6.434557E+04 -1.128692E+06 -1.071642E+05  4.355363E+04 -4.680443E-10  1.162059E-09
       263  11 -1.786889E+04 -1.059445E+06 -7.478768E+04  2.761057E+03 -2.433620E-09  1.189446E-09
       263  12 -3.178949E+04 -1.008155E+06 -7.396251E+04  2.931546E+04  1.006576E-09  1.336388E-09
       263  13 -2.271105E+04 -9.618997E+05 -6.620637E+04  3.610992E+04 -2.331907E-09  1.075973E-09
       263  14  8.688751E+03 -9.529317E+05 -4.863830E+04  2.441238E+03 -5.066075E-09  4.075320E-09
       263  15 -2.028063E+04 -9.618979E+05 -6.252804E+04  3.611951E+04  7.552221E-10  4.853186E-10
       263  16  1.892160E+04 -7.950817E+05 -2.525059E+04  2.866421E+04 -4.195717E-10  1.664471E-09
       263  17  3.524555E+04 -8.464077E+05 -2.248976E+04  2.121370E+03 -2.187981E-09  1.049437E-09
       263  18 -8.771763E+03 -9.156390E+05 -5.109370E+04  4.292407E+04  1.595081E-09 -8.891381E-10
       263  19 -6.434535E+04 -1.128691E+06 -1.071627E+05  4.355371E+04  3.585904E+03  2.742498E+04
       263  20 -1.786889E+04 -1.059445E+06 -7.478767E+04  2.761061E+03  2.325147E+03  2.046117E+03
       263  21 -3.178934E+04 -1.008154E+06 -7.396149E+04  2.931545E+04  6.701458E+02 -2.333568E+04
       263  22 -2.271083E+04 -9.618989E+05 -6.620489E+04  3.611000E+04  3.584534E+03  2.780832E+04
       263  23  8.688758E+03 -9.529317E+05 -4.863828E+04  2.441243E+03  2.323834E+03  2.556842E+03
       263  24 -2.028050E+04 -9.618974E+05 -6.252707E+04  3.611950E+04  6.683497E+02 -2.269513E+04
       263  25  1.892183E+04 -7.950808E+05 -2.524907E+04  2.866429E+04  3.583155E+03  2.819176E+04
       263  26  3.524556E+04 -8.464077E+05 -2.248973E+04  2.121376E+03  2.322522E+03  3.067655E+03
       263  27 -8.771631E+03 -9.156385E+05 -5.109279E+04  4.292406E+04  6.665677E+02 -2.205453E+04
       264   1  2.695996E+04 -8.785231E+05 -4.638779E+04  5.316051E+04  1.393781E+03  3.588878E+04
       264   2  7.017886E+04 -7.877402E+05 -5.765730E+04 -7.400485E+03  3.546602E+03  8.592376E+04
       264   3 -1.087117E+05 -7.585172E+05 -1.569450E+05 -1.199506E+03  1.138103E+03  1.359522E+05
       264   4  3.824374E+03 -9.716409E+05 -6.934724E+04  3.614659E+04  1.396494E+03  3.435448E+04
       264   5  3.199142E+04 -9.407531E+05 -9.513670E+04  2.541493E+03  3.548040E+03  8.590783E+04
       264   6 -1.622482E+05 -9.717143E+05 -2.100185E+05  3.570031E+04  1.142113E+03  1.374497E+05
       264   7 -1.931076E+04 -1.064750E+06 -9.230717E+04  1.913523E+04  1.399291E+03  3.282042E+04
       264   8 -6.197399E+03 -1.093745E+06 -1.326178E+05  1.248103E+04  3.549477E+03  8.589191E+04
       264   9 -2.157830E+05 -1.184867E+06 -2.630946E+05  7.258746E+04  1.146304E+03  1.389467E+05
       264  10  2.695961E+04 -8.785245E+05 -4.639021E+04  5.316047E+04  2.758671E-09  2.144533E-09
       264  11  7.017686E+04 -7.877481E+05 -5.767122E+04 -7.400731E+03 -1.048463E-09 -1.670874E-09
       264  12 -1.087166E+05 -7.585370E+05 -1.569798E+05 -1.199631E+03 -5.025939E-10 -1.751302E-10
       264  13  3.824054E+03 -9.716421E+05 -6.934946E+04  3.614655E+04  1.893873E-09  1.164260E-09
       264  14  3.198942E+04 -9.407611E+05 -9.515061E+04  2.541247E+03 -1.322383E-09  3.362218E-09
       264  15 -1.622532E+05 -9.717346E+05 -2.100540E+05  3.570019E+04 -3.312661E-11  3.696529E-09
       264  16 -1.931105E+04 -1.064751E+06 -9.230920E+04  1.913519E+04 -7.799061E-10  8.999205E-10
       264  17 -6.199398E+03 -1.093752E+06 -1.326317E+05  1.248078E+04  6.487555E-10 -9.635423E-10
       264  18 -2.157882E+05 -1.184888E+06 -2.631310E+05  7.258733E+04  3.079550E-10 -3.976422E-10
       264  19  2.695996E+04 -8.785231E+05 -4.638779E+04  5.316051E+04 -1.393781E+03 -3.588878E+04
       264  20  7.017886E+04 -7.877402E+05 -5.765730E+04 -7.400485E+03 -3.546602E+03 -8.592376E+04
       264  21 -1.087117E+05 -7.585172E+05 -1.569450E+05 -1.199506E+03 -1.138103E+03 -1.359522E+05
       264  22  3.824374E+03 -9.716409E+05 -6.934724E+04  3.614659E+04 -1.396494E+03 -3.435448E+04
       264  23  3.199142E+04 -9.407531E+05 -9.513670E+04  2.541493E+03 -3.548040E+03 -8.590783E+04
       264  24 -1.622482E+05 -9.717143E+05 -2.100185E+05  3.570031E+04 -1.142113E+03 -1.374497E+05
       264  25 -1.931076E+04 -1.064750E+06 -9.230717E+04  1.913523E+04 -1.399291E+03 -3.282042E+04
       264  26 -6.197399E+03 -1.093745E+06 -1.326178E+05  1.248103E+04 -3.549477E+03 -8.589191E+04
       264  27 -2.157830E+05 -1.184867E+06 -2.630946E+05  7.258746E+04 -1.146304E+03 -1.389467E+05
       265   1  1.325070E+06  4.377240E+05  2.916961E+05  4.565027E+05  1.350283E+05  4.847231E+04
       265   2  1.277801E+06  2.297658E+05  1.624498E+05  4.760468E+05  8.788189E+04  2.540757E+04
       265   3  1.294703E+06  2.407996E+05  1.246722E+05  4.638801E+05  3.859423E+04  7.991962E+03
       265   4  1.041379E+06  2.989897E+05  2.078553E+05  3.469062E+05  1.326659E+05  4.756806E+04
       265   5  9.988651E+05  1.157350E+05  8.551112E+04  3.908131E+05  8.731952E+04  2.519248E+04
       265   6  1.020200E+06  1.511695E+05  5.324270E+04  4.030001E+05  3.983079E+04  8.462537E+03
       265   7  7.577682E+05  1.602781E+05  1.240071E+05  2.373607E+05  1.303046E+05  4.666455E+04
       265   8  7.200043E+05  1.712618E+03  8.565382E+03  3.056152E+05  8.675743E+04  2.497750E+04
       265   9  7.457696E+05  6.153941E+04 -1.819304E+04  3.421420E+05  4.106674E+04  8.932955E+03
       265  10  1.325050E+06  4.377166E+05  2.916575E+05  4.564974E+05 -2.869120E-09  5.206458E-09
       265  11  1.277793E+06  2.297630E+05  1.624341E+05  4.760450E+05 -1.152964E-09  1.939694E-08
       265  12  1.294701E+06  2.407991E+05  1.246693E+05  4.638799E+05  4.029198E-09  4.189134E-09
       265  13  1.041359E+06  2.989826E+05  2.078180E+05  3.469011E+05  6.581249E-10 -6.500574E-09
       265  14  9.988567E+05  1.157323E+05  8.549563E+04  3.908113E+05 -7.650140E-09 -9.010466E-09
       265  15  1.020199E+06  1.511690E+05  5.323959E+04  4.029999E+05 -2.688393E-09 -8.916888E-10
       265  16  7.577494E+05  1.602712E+05  1.239712E+05  2.373558E+05 -1.006718E-09 -8.235586E-09
       265  17  7.199961E+05  1.709932E+03  8.550086E+03  3.056135E+05 -4.707353E-09 -1.471246E-08
       265  18  7.457678E+05  6.153887E+04 -1.819636E+04  3.421417E+05 -7.797757E-09 -8.127787E-09
       265  19  1.325070E+06  4.377240E+05  2.916961E+05  4.565027E+05 -1.350283E+05 -4.847231E+04
       265  20  1.277801E+06  2.297658E+05  1.624498E+05  4.760468E+05 -8.788189E+04 -2.540757E+04
       265  21  1.294703E+06  2.407996E+05  1.246722E+05  4.638801E+05 -3.859423E+04 -7.991962E+03
       265  22  1.041379E+06  2.989897E+05  2.078553E+05  3.469062E+05 -1.326659E+05 -4.756806E+04
       265  23  9.988651E+05  1.157350E+05  8.551112E+04  3.908131E+05 -8.731952E+04 -2.519248E+04
       265  24  1.020200E+06  1.511695E+05  5.324270E+04  4.030001E+05 -3.983079E+04 -8.462537E+03
       265  25  7.577682E+05  1.602781E+05  1.240071E+05  2.373607E+05 -1.303046E+05 -4.666455E+04
       265  26  7.200043E+05  1.712618E+03  8.565382E+03  3.056152E+05 -8.675743E+04 -2.497750E+04
       265  27  7.457696E+05  6.153941E+04 -1.819304E+04  3.421420E+05 -4.106674E+04 -8.932955E+03
       266   1  1.224865E+06  2.580321E+05  1.015936E+05  4.512994E+05  3.150854E+04  6.806715E+03
       266   2  1.209217E+06  2.174083E+05  7.296603E+04  4.416288E+05  2.062118E+04  2.818975E+03
       266   3  1.188802E+06  2.199920E+05  5.975386E+04  4.436619E+05  9.499989E+03 -5.533228E+02
       266   4  1.013840E+06  1.740290E+05  4.367130E+04  3.891673E+05  3.144551E+04  6.782400E+03
       266   5  1.014834E+06  1.426465E+05  2.018437E+04  3.870418E+05  2.075560E+04  2.869940E+03
       266   6  1.011024E+06  1.544378E+05  1.196058E+04  3.966193E+05  9.831518E+03 -4.272288E+02
       266   7  8.028587E+05  9.002990E+04 -1.425513E+04  3.270546E+05  3.138249E+04  6.758095E+03
       266   8  8.204871E+05  6.788733E+04 -3.260063E+04  3.324703E+05  2.088997E+04  2.920886E+03
       266   9  8.332764E+05  8.888518E+04 -3.583539E+04  3.495887E+05  1.016294E+04 -3.011723E+02
       266  10  1.224864E+06  2.580318E+05  1.015917E+05  4.512992E+05  4.348338E-09  6.239522E-09
       266  11  1.209217E+06  2.174082E+05  7.296522E+04  4.416287E+05  3.363008E-09  4.613046E-09
       266  12  1.188802E+06  2.199920E+05  5.975369E+04  4.436619E+05 -7.084348E-10 -7.595987E-10
       266  13  1.013839E+06  1.740287E+05  4.366936E+04  3.891671E+05 -1.467994E-09  4.214286E-09
       266  14  1.014833E+06  1.426464E+05  2.018355E+04  3.870417E+05 -2.190419E-09 -2.678095E-08
       266  15  1.011024E+06  1.544378E+05  1.196040E+04  3.966193E+05 -4.467070E-09 -2.008866E-09
       266  16  8.028576E+05  9.002959E+04 -1.425706E+04  3.270544E+05 -4.156957E-09 -1.704898E-09
       266  17  8.204866E+05  6.788720E+04 -3.260146E+04  3.324702E+05 -7.144759E-11 -1.201196E-08
       266  18  8.332763E+05  8.888515E+04 -3.583558E+04  3.495887E+05  1.847910E-09  2.223895E-09
       266  19  1.224865E+06  2.580321E+05  1.015936E+05  4.512994E+05 -3.150854E+04 -6.806715E+03
       266  20  1.209217E+06  2.174083E+05  7.296603E+04  4.416288E+05 -2.062118E+04 -2.818975E+03
       266  21  1.188802E+06  2.199920E+05  5.975386E+04  4.436619E+05 -9.499989E+03  5.533228E+02
       266  22  1.013840E+06  1.740290E+05  4.367130E+04  3.891673E+05 -3.144551E+04 -6.782400E+03
       266  23  1.014834E+06  1.426465E+05  2.018437E+04  3.870418E+05 -2.075560E+04 -2.869940E+03
       266  24  1.011024E+06  1.544378E+05  1.196058E+04  3.966193E+05 -9.831518E+03  4.272288E+02
       266  25  8.028587E+05  9.002990E+04 -1.425513E+04  3.270546E+05 -3.138249E+04 -6.758095E+03
       266  26  8.204871E+05  6.788733E+04 -3.260063E+04  3.324703E+05 -2.088997E+04 -2.920886E+03
       266  27  8.332764E+05  8.888518E+04 -3.583539E+04  3.495887E+05 -1.016294E+04  3.011723E+02
       267   1  1.140798E+06  2.072287E+05  4.483620E+04  4.309996E+05  7.693867E+03 -6.628430E+02
       267   2  1.130326E+06  1.897691E+05  3.549662E+04  4.183314E+05  4.999846E+03 -9.811592E+02
       267   3  1.106399E+06  1.910426E+05  2.896620E+04  4.218447E+05  2.287244E+03 -1.251295E+03
       267   4  1.010287E+06  1.571926E+05  9.471511E+03  3.945027E+05  7.879876E+03 -5.921073E+02
       267   5  1.016832E+06  1.465473E+05  4.753817E+03  3.868996E+05  5.201556E+03 -9.043996E+02
       267   6  1.009918E+06  1.546326E+05  2.833423E+03  3.954781E+05  2.504583E+03 -1.168537E+03
       267   7  8.797914E+05  1.071575E+05 -2.589477E+04  3.580126E+05  8.065841E+03 -5.213883E+02
       267   8  9.033493E+05  1.033262E+05 -2.599017E+04  3.554729E+05  5.403226E+03 -8.276556E+02
       267   9  9.134461E+05  1.182232E+05 -2.330019E+04  3.691151E+05  2.721884E+03 -1.085793E+03
       267  10  1.140798E+06  2.072287E+05  4.483609E+04  4.309996E+05 -3.504892E-09 -1.092209E-08
       267  11  1.130326E+06  1.897691E+05  3.549658E+04  4.183314E+05 -1.304833E-09  1.017964E-09
       267  12  1.106399E+06  1.910426E+05  2.896619E+04  4.218447E+05  2.307356E-09 -8.925845E-09
       267  13  1.010286E+06  1.571926E+05  9.471394E+03  3.945027E+05 -2.126760E-09  2.847181E-09
       267  14  1.016832E+06  1.465472E+05  4.753765E+03  3.868996E+05  1.086413E-09  7.501483E-09
       267  15  1.009918E+06  1.546326E+05  2.833408E+03  3.954781E+05 -2.705916E-09  1.598094E-10
       267  16  8.797913E+05  1.071575E+05 -2.589489E+04  3.580126E+05  1.155510E-09  3.345521E-09
       267  17  9.033493E+05  1.033262E+05 -2.599023E+04  3.554729E+05 -8.192616E-09  1.980296E-08
       267  18  9.134461E+05  1.182232E+05 -2.330020E+04  3.691151E+05 -2.666479E-09 -4.021543E-09
       267  19  1.140798E+06  2.072287E+05  4.483620E+04  4.309996E+05 -7.693867E+03  6.628430E+02
       267  20  1.130326E+06  1.897691E+05  3.549662E+04  4.183314E+05 -4.999846E+03  9.811592E+02
       267  21  1.106399E+06  1.910426E+05  2.896620E+04  4.218447E+05 -2.287244E+03  1.251295E+03
       267  22  1.010287E+06  1.571926E+05  9.471511E+03  3.945027E+05 -7.879876E+03  5.921073E+02
       267  23  1.016832E+06  1.465473E+05  4.753817E+03  3.868996E+05 -5.201556E+03  9.043996E+02
       267  24  1.009918E+06  1.546326E+05  2.833423E+03  3.954781E+05 -2.504583E+03  1.168537E+03
       267  25  8.797914E+05  1.071575E+05 -2.589477E+04  3.580126E+05 -8.065841E+03  5.213883E+02
       267  26  9.033493E+05  1.033262E+05 -2.599017E+04  3.554729E+05 -5.403226E+03  8.276556E+02
       267  27  9.134461E+05  1.182232E+05 -2.330019E+04  3.691151E+05 -2.721884E+03  1.085793E+03
       268   1  1.063390E+06  1.752522E+05  1.670015E+04  4.099237E+05  1.730988E+03 -1.015644E+03
       268   2  1.053955E+06  1.612415E+05  1.143623E+04  3.972481E+05  7.634708E+02 -6.459951E+02
       268   3  1.030276E+06  1.623348E+05  6.859102E+03  4.007821E+05 -2.035526E+02 -2.777970E+02
       268   4  1.009897E+06  1.548732E+05  2.270210E+03  3.950867E+05  1.934249E+03 -9.382255E+02
       268   5  1.017000E+06  1.471867E+05  1.428835E+03  3.870332E+05  9.663335E+02 -5.687153E+02
       268   6  1.009858E+06  1.546043E+05  1.274655E+03  3.951893E+05 -1.111446E+00 -2.006629E+02
       268   7  9.564070E+05  1.344944E+05 -1.215996E+04  3.802509E+05  2.137491E+03 -8.608146E+02
       268   8  9.800460E+05  1.331319E+05 -8.578679E+03  3.768188E+05  1.169183E+03 -4.914405E+02
       268   9  9.894410E+05  1.468738E+05 -4.309840E+03  3.895966E+05  2.013228E+02 -1.235314E+02
       268  10  1.063390E+06  1.752522E+05  1.670014E+04  4.099237E+05 -9.350940E-09 -9.393623E-09
       268  11  1.053955E+06  1.612415E+05  1.143623E+04  3.972481E+05  7.139291E-10  2.084525E-08
       268  12  1.030276E+06  1.623348E+05  6.859102E+03  4.007821E+05  1.230691E-08  2.165708E-09
       268  13  1.009897E+06  1.548732E+05  2.270201E+03  3.950867E+05  2.972878E-09  1.900554E-10
       268  14  1.017000E+06  1.471867E+05  1.428832E+03  3.870332E+05  3.180760E-10  3.099720E-08
       268  15  1.009858E+06  1.546043E+05  1.274655E+03  3.951893E+05  3.392053E-09 -1.150250E-08
       268  16  9.564070E+05  1.344944E+05 -1.215997E+04  3.802509E+05  1.101058E-08  1.337103E-09
       268  17  9.800460E+05  1.331319E+05 -8.578682E+03  3.768188E+05 -2.802240E-09 -8.258625E-09
       268  18  9.894410E+05  1.468738E+05 -4.309840E+03  3.895966E+05 -6.903140E-09  5.667346E-09
       268  19  1.063390E+06  1.752522E+05  1.670015E+04  4.099237E+05 -1.730988E+03  1.015644E+03
       268  20  1.053955E+06  1.612415E+05  1.143623E+04  3.972481E+05 -7.634708E+02  6.459951E+02
       268  21  1.030276E+06  1.623348E+05  6.859102E+03  4.007821E+05  2.035526E+02  2.777970E+02
       268  22  1.009897E+06  1.548732E+05  2.270210E+03  3.950867E+05 -1.934249E+03  9.382255E+02
       268  23  1.017000E+06  1.471867E+05  1.428835E+03  3.870332E+05 -9.663335E+02  5.687153E+02
       268  24  1.009858E+06  1.546043E+05  1.274655E+03  3.951893E+05  1.111446E+00  2.006629E+02
       268  25  9.564070E+05  1.344944E+05 -1.215996E+04  3.802509E+05 -2.137491E+03  8.608146E+02
       268  26  9.800460E+05  1.331319E+05 -8.578679E+03  3.768188E+05 -1.169183E+03  4.914405E+02
       268  27  9.894410E+05  1.468738E+05 -4.309840E+03  3.895966E+05 -2.013228E+02  1.235314E+02
       269   1  9.883560E+05  1.464507E+05 -4.538460E+03  3.893243E+05 -5.624233E+02  1.349659E+01
       269   2  9.789372E+05  1.326882E+05 -8.496942E+03  3.765197E+05 -1.721343E+03  3.085828E+02
       269   3  9.553728E+05  1.342170E+05 -1.157451E+04  3.798850E+05 -2.880808E+03  6.054786E+02
       269   4  1.009871E+06  1.545829E+05  1.340200E+03  3.952044E+05 -3.600605E+02  9.060101E+01
       269   5  1.016976E+06  1.471573E+05  1.804657E+03  3.870356E+05 -1.518477E+03  3.858638E+02
       269   6  1.009934E+06  1.550227E+05  3.149577E+03  3.950366E+05 -2.677464E+03  6.829270E+02
       269   7  1.031386E+06  1.627151E+05  7.218818E+03  4.010847E+05 -1.576900E+02  1.677083E+02
       269   8  1.055015E+06  1.616264E+05  1.210612E+04  3.975522E+05 -1.315596E+03  4.631500E+02
       269   9  1.064498E+06  1.758285E+05  1.787337E+04  4.101894E+05 -2.474101E+03  7.603828E+02
       269  10  9.883560E+05  1.464507E+05 -4.538461E+03  3.893243E+05  1.046561E-08 -2.173509E-08
       269  11  9.789372E+05  1.326882E+05 -8.496948E+03  3.765197E+05  6.370190E-10 -1.472999E-08
       269  12  9.553728E+05  1.342170E+05 -1.157452E+04  3.798850E+05 -5.405008E-09 -8.622761E-09
       269  13  1.009871E+06  1.545829E+05  1.340199E+03  3.952044E+05  7.127683E-09  5.951388E-09
       269  14  1.016976E+06  1.471573E+05  1.804653E+03  3.870356E+05  6.895972E-09 -1.084974E-08
       269  15  1.009934E+06  1.550227E+05  3.149563E+03  3.950366E+05  5.162736E-09  1.389351E-08
       269  16  1.031386E+06  1.627151E+05  7.218818E+03  4.010847E+05  2.837234E-09  8.547602E-10
       269  17  1.055015E+06  1.616264E+05  1.210611E+04  3.975522E+05  9.448628E-09 -4.279850E-10
       269  18  1.064498E+06  1.758285E+05  1.787335E+04  4.101894E+05  6.845684E-09 -5.036947E-09
       269  19  9.883560E+05  1.464507E+05 -4.538460E+03  3.893243E+05  5.624233E+02 -1.349659E+01
       269  20  9.789372E+05  1.326882E+05 -8.496942E+03  3.765197E+05  1.721343E+03 -3.085828E+02
       269  21  9.553728E+05  1.342170E+05 -1.157451E+04  3.798850E+05  2.880808E+03 -6.054786E+02
       269  22  1.009871E+06  1.545829E+05  1.340200E+03  3.952044E+05  3.600605E+02 -9.060101E+01
       269  23  1.016976E+06  1.471573E+05  1.804657E+03  3.870356E+05  1.518477E+03 -3.858638E+02
       269  24  1.009934E+06  1.550227E+05  3.149577E+03  3.950366E+05  2.677464E+03 -6.829270E+02
       269  25  1.031386E+06  1.627151E+05  7.218818E+03  4.010847E+05  1.576900E+02 -1.677083E+02
       269  26  1.055015E+06  1.616264E+05  1.210612E+04  3.975522E+05  1.315596E+03 -4.631500E+02
       269  27  1.064498E+06  1.758285E+05  1.787337E+04  4.101894E+05  2.474101E+03 -7.603828E+02
       270   1  9.123375E+05  1.178574E+05 -2.243422E+04  3.689704E+05 -3.634717E+03  7.664387E+02
       270   2  9.020573E+05  1.026067E+05 -2.420228E+04  3.551488E+05 -7.394978E+03  9.846050E+01
       270   3  8.790584E+05  1.077101E+05 -2.194179E+04  3.571373E+05 -1.113647E+04 -6.179755E+02
       270   4  1.010026E+06  1.546051E+05  4.004618E+03  3.955434E+05 -3.417202E+03  8.492631E+02
       270   5  1.016653E+06  1.462943E+05  6.851721E+03  3.869268E+05 -7.193385E+03  1.751728E+02
       270   6  1.010564E+06  1.583401E+05  1.373949E+04  3.941203E+05 -1.095090E+04 -5.474162E+02
       270   7  1.107725E+06  1.913534E+05  3.044266E+04  4.221203E+05 -3.199649E+03  9.321017E+02
       270   8  1.131262E+06  1.899828E+05  3.790458E+04  4.187102E+05 -6.991750E+03  2.519008E+02
       270   9  1.142086E+06  2.089713E+05  4.941921E+04  4.311103E+05 -1.076529E+04 -4.768398E+02
       270  10  9.123374E+05  1.178574E+05 -2.243425E+04  3.689704E+05  5.325983E-09  8.167526E-09
       270  11  9.020572E+05  1.026066E+05 -2.420238E+04  3.551488E+05  2.967759E-09  5.897214E-09
       270  12  8.790583E+05  1.077100E+05 -2.194202E+04  3.571373E+05 -6.229393E-09  3.157189E-09
       270  13  1.010026E+06  1.546051E+05  4.004594E+03  3.955434E+05  6.681368E-09 -4.220990E-09
       270  14  1.016653E+06  1.462943E+05  6.851624E+03  3.869268E+05  8.873939E-09 -5.578740E-09
       270  15  1.010564E+06  1.583401E+05  1.373926E+04  3.941202E+05 -1.348939E-09 -1.328977E-09
       270  16  1.107725E+06  1.913534E+05  3.044264E+04  4.221203E+05 -3.593447E-09 -3.286318E-09
       270  17  1.131262E+06  1.899828E+05  3.790449E+04  4.187102E+05  8.214905E-09  4.943694E-10
       270  18  1.142086E+06  2.089713E+05  4.941900E+04  4.311103E+05  6.787374E-09  3.291814E-09
       270  19  9.123375E+05  1.178574E+05 -2.243422E+04  3.689704E+05  3.634717E+03 -7.664387E+02
       270  20  9.020573E+05  1.026067E+05 -2.420228E+04  3.551488E+05  7.394978E+03 -9.846050E+01
       270  21  8.790584E+05  1.077101E+05 -2.194179E+04  3.571373E+05  1.113647E+04  6.179755E+02
       270  22  1.010026E+06  1.546051E+05  4.004618E+03  3.955434E+05  3.417202E+03 -8.492631E+02
       270  23  1.016653E+06  1.462943E+05  6.851721E+03  3.869268E+05  7.193385E+03 -1.751728E+02
       270  24  1.010564E+06  1.583401E+05  1.373949E+04  3.941203E+05  1.095090E+04  5.474162E+02
       270  25  1.107725E+06  1.913534E+05  3.044266E+04  4.221203E+05  3.199649E+03 -9.321017E+02
       270  26  1.131262E+06  1.899828E+05  3.790458E+04  4.187102E+05  6.991750E+03 -2.519008E+02
       270  27  1.142086E+06  2.089713E+05  4.941921E+04  4.311103E+05  1.076529E+04  4.768398E+02
       271   1  8.321618E+05  8.885240E+04 -3.075349E+04  3.504336E+05 -1.402836E+04 -1.139371E+03
       271   2  8.183466E+05  6.523467E+04 -2.377566E+04  3.320413E+05 -2.958076E+04 -6.193807E+03
       271   3  8.048996E+05  9.694332E+04  5.234247E+03  3.223122E+05 -4.489815E+04 -1.186430E+04
       271   4  1.011756E+06  1.542066E+05  1.736582E+04  3.970609E+05 -1.369675E+04 -1.013211E+03
       271   5  1.013603E+06  1.407780E+05  2.934152E+04  3.873088E+05 -2.944803E+04 -6.143527E+03
       271   6  1.015853E+06  1.827066E+05  6.350129E+04  3.862204E+05 -4.496477E+04 -1.189024E+04
       271   7  1.191381E+06  2.195620E+05  6.548224E+04  4.436999E+05 -1.336504E+04 -8.870140E+02
       271   8  1.208897E+06  2.163240E+05  8.245526E+04  4.425921E+05 -2.931524E+04 -6.093228E+03
       271   9  1.226849E+06  2.684747E+05  1.217643E+05  4.501488E+05 -4.503141E+04 -1.191619E+04
       271  10  8.321616E+05  8.885235E+04 -3.075386E+04  3.504336E+05 -6.148324E-09  7.739530E-09
       271  11  8.183456E+05  6.523440E+04 -2.377738E+04  3.320411E+05 -5.624596E-09  1.677914E-08
       271  12  8.048974E+05  9.694263E+04  5.230201E+03  3.223118E+05 -6.186534E-09  7.154979E-09
       271  13  1.011756E+06  1.542066E+05  1.736547E+04  3.970609E+05 -5.571816E-09 -2.888524E-09
       271  14  1.013602E+06  1.407777E+05  2.933982E+04  3.873087E+05  2.255880E-09  1.371161E-08
       271  15  1.015851E+06  1.827060E+05  6.349723E+04  3.862199E+05 -3.993176E-09  1.293075E-08
       271  16  1.191381E+06  2.195620E+05  6.548190E+04  4.436998E+05  2.342076E-09  2.174404E-09
       271  17  1.208896E+06  2.163238E+05  8.245358E+04  4.425920E+05  1.959705E-09 -6.869303E-09
       271  18  1.226847E+06  2.684740E+05  1.217603E+05  4.501484E+05 -3.160093E-09  4.182986E-09
       271  19  8.321618E+05  8.885240E+04 -3.075349E+04  3.504336E+05  1.402836E+04  1.139371E+03
       271  20  8.183466E+05  6.523467E+04 -2.377566E+04  3.320413E+05  2.958076E+04  6.193807E+03
       271  21  8.048996E+05  9.694332E+04  5.234247E+03  3.223122E+05  4.489815E+04  1.186430E+04
       271  22  1.011756E+06  1.542066E+05  1.736582E+04  3.970609E+05  1.369675E+04  1.013211E+03
       271  23  1.013603E+06  1.407780E+05  2.934152E+04  3.873088E+05  2.944803E+04  6.143527E+03
       271  24  1.015853E+06  1.827066E+05  6.350129E+04  3.862204E+05  4.496477E+04  1.189024E+04
       271  25  1.191381E+06  2.195620E+05  6.548224E+04  4.436999E+05  1.336504E+04  8.870140E+02
       271  26  1.208897E+06  2.163240E+05  8.245526E+04  4.425921E+05  2.931524E+04  6.093228E+03
       271  27  1.226849E+06  2.684747E+05  1.217643E+05  4.501488E+05  4.503141E+04  1.191619E+04
       272   1  7.447560E+05  6.391400E+04  5.628504E+03  3.502728E+05 -5.816928E+04 -1.539620E+04
       272   2  7.126601E+05 -1.538009E+04  4.705288E+04  3.044164E+05 -1.252261E+05 -3.953641E+04
       272   3  7.812945E+05  2.147706E+05  2.180608E+05  2.030688E+05 -1.901362E+05 -6.932399E+04
       272   4  1.025283E+06  1.492687E+05  7.742035E+04  4.061151E+05 -5.693331E+04 -1.492455E+04
       272   5  9.901661E+05  1.018937E+05  1.243697E+05  3.930706E+05 -1.258003E+05 -3.975754E+04
       272   6  1.056082E+06  3.642346E+05  3.022898E+05  3.245496E+05 -1.925205E+05 -7.024527E+04
       272   7  1.305886E+06  2.346225E+05  1.492063E+05  4.619771E+05 -5.569672E+04 -1.445276E+04
       272   8  1.267746E+06  2.191771E+05  2.016790E+05  4.817622E+05 -1.263747E+05 -3.997878E+04
       272   9  1.330946E+06  5.137298E+05  3.865109E+05  4.460859E+05 -1.949059E+05 -7.116741E+04
       272  10  7.447523E+05  6.391284E+04  5.621709E+03  3.502720E+05  3.354846E-09  1.387152E-08
       272  11  7.126429E+05 -1.538596E+04  4.702052E+04  3.044124E+05  2.074056E-09  5.318177E-09
       272  12  7.812544E+05  2.147557E+05  2.179839E+05  2.030582E+05 -2.037079E-09 -7.943264E-09
       272  13  1.025279E+06  1.492676E+05  7.741386E+04  4.061144E+05  4.513732E-10  3.504161E-09
       272  14  9.901487E+05  1.018877E+05  1.243370E+05  3.930666E+05 -4.436184E-09 -6.351841E-09
       272  15  1.056041E+06  3.642194E+05  3.022110E+05  3.245387E+05  2.079792E-09  5.342042E-10
       272  16  1.305883E+06  2.346215E+05  1.492001E+05  4.619765E+05 -1.123925E-08  1.615939E-09
       272  17  1.267728E+06  2.191711E+05  2.016461E+05  4.817581E+05 -3.350940E-09  4.386978E-09
       272  18  1.330904E+06  5.137142E+05  3.864301E+05  4.460747E+05 -5.576495E-11  6.919450E-10
       272  19  7.447560E+05  6.391400E+04  5.628504E+03  3.502728E+05  5.816928E+04  1.539620E+04
       272  20  7.126601E+05 -1.538009E+04  4.705288E+04  3.044164E+05  1.252261E+05  3.953641E+04
       272  21  7.812945E+05  2.147706E+05  2.180608E+05  2.030688E+05  1.901362E+05  6.932399E+04
       272  22  1.025283E+06  1.492687E+05  7.742035E+04  4.061151E+05  5.693331E+04  1.492455E+04
       272  23  9.901661E+05  1.018937E+05  1.243697E+05  3.930706E+05  1.258003E+05  3.975754E+04
       272  24  1.056082E+06  3.642346E+05  3.022898E+05  3.245496E+05  1.925205E+05  7.024527E+04
       272  25  1.305886E+06  2.346225E+05  1.492063E+05  4.619771E+05  5.569672E+04  1.445276E+04
       272  26  1.267746E+06  2.191771E+05  2.016790E+05  4.817622E+05  1.263747E+05  3.997878E+04
       272  27  1.330946E+06  5.137298E+05  3.865109E+05  4.460859E+05  1.949059E+05  7.116741E+04
       273   1 -1.403370E+05 -1.158530E+06 -1.615936E+05  3.697850E+04 -1.710020E+03 -6.408848E+04
       273   2 -4.443524E+04 -1.115240E+06 -1.015513E+05  8.656177E+03 -5.445329E+03 -3.886405E+04
       273   3 -5.019763E+04 -1.100209E+06 -8.328688E+04  1.261909E+04 -4.267574E+03 -1.361833E+04
       273   4 -7.373273E+04 -8.927884E+05 -9.547613E+04  1.956443E+04 -1.716695E+03 -6.206302E+04
       273   5  1.454481E+04 -8.787911E+05 -4.358720E+04  3.577315E+03 -5.446449E+03 -3.847822E+04
       273   6  1.463734E+03 -8.927556E+05 -3.232390E+04  1.987573E+04 -4.262957E+03 -1.487341E+04
       273   7 -7.132650E+03 -6.269825E+05 -2.936379E+04  2.142954E+03 -1.723484E+03 -6.003669E+04
       273   8  7.352080E+04 -6.422908E+05  1.437281E+04 -1.503438E+03 -5.447574E+03 -3.809225E+04
       273   9  5.312211E+04 -6.852633E+05  1.863596E+04  2.713484E+04 -4.258369E+03 -1.612892E+04
       273  10 -1.403381E+05 -1.158534E+06 -1.616014E+05  3.697842E+04  2.623233E-09  5.515527E-09
       273  11 -4.443568E+04 -1.115242E+06 -1.015542E+05  8.656006E+03  1.977235E-09  1.536264E-08
       273  12 -5.019770E+04 -1.100209E+06 -8.328727E+04  1.261904E+04  2.276731E-10  5.935136E-09
       273  13 -7.373376E+04 -8.927926E+05 -9.548339E+04  1.956435E+04  2.030187E-09  2.230045E-09
       273  14  1.454438E+04 -8.787927E+05 -4.359004E+04  3.577146E+03  9.059249E-10 -4.340411E-09
       273  15  1.463655E+03 -8.927558E+05 -3.232435E+04  1.987568E+04  1.993881E-10  2.949675E-09
       273  16 -7.133622E+03 -6.269864E+05 -2.937057E+04  2.142871E+03  2.572588E-09  2.534271E-09
       273  17  7.352038E+04 -6.422923E+05  1.437002E+04 -1.503605E+03  4.685766E-09 -8.345395E-09
       273  18  5.312202E+04 -6.852635E+05  1.863544E+04  2.713478E+04 -1.828197E-09 -8.122897E-10
       273  19 -1.403370E+05 -1.158530E+06 -1.615936E+05  3.697850E+04  1.710020E+03  6.408848E+04
       273  20 -4.443524E+04 -1.115240E+06 -1.015513E+05  8.656177E+03  5.445329E+03  3.886405E+04
       273  21 -5.019763E+04 -1.100209E+06 -8.328688E+04  1.261909E+04  4.267574E+03  1.361833E+04
       273  22 -7.373273E+04 -8.927884E+05 -9.547613E+04  1.956443E+04  1.716695E+03  6.206302E+04
       273  23  1.454481E+04 -8.787911E+05 -4.358720E+04  3.577315E+03  5.446449E+03  3.847822E+04
       273  24  1.463734E+03 -8.927556E+05 -3.232390E+04  1.987573E+04  4.262957E+03  1.487341E+04
       273  25 -7.132650E+03 -6.269825E+05 -2.936379E+04  2.142954E+03  1.723484E+03  6.003669E+04
       273  26  7.352080E+04 -6.422908E+05  1.437281E+04 -1.503438E+03  5.447574E+03  3.809225E+04
       273  27  5.312211E+04 -6.852633E+05  1.863596E+04  2.713484E+04  4.258369E+03  1.612892E+04
       274   1 -4.378233E+04 -1.027019E+06 -6.351950E+04  2.380787E+04 -2.900286E+03 -9.279521E+03
       274   2 -2.271198E+04 -9.923154E+05 -5.048443E+04  3.332442E+03 -2.378398E+03  3.272832E+03
       274   3 -3.142182E+04 -9.663630E+05 -5.300810E+04  1.673438E+04 -1.458025E+03  1.582693E+04
       274   4 -9.207196E+03 -8.884813E+05 -2.948305E+04  2.012158E+04 -2.899738E+03 -9.404526E+03
       274   5  4.262084E+03 -8.841184E+05 -2.392428E+04  3.178822E+03 -2.377455E+03  3.016215E+03
       274   6 -1.202311E+04 -8.884829E+05 -3.383073E+04  2.011323E+04 -1.456578E+03  1.543810E+04
       274   7  2.536655E+04 -7.499264E+05  4.551997E+03  1.643448E+04 -2.899188E+03 -9.529558E+03
       274   8  3.123528E+04 -7.759107E+05  2.635001E+03  3.025185E+03 -2.376512E+03  2.759553E+03
       274   9  7.375191E+03 -8.105973E+05 -1.465380E+04  2.349252E+04 -1.455136E+03  1.504921E+04
       274  10 -4.378236E+04 -1.027019E+06 -6.351968E+04  2.380785E+04 -2.553165E-10  1.239295E-08
       274  11 -2.271199E+04 -9.923154E+05 -5.048446E+04  3.332448E+03  2.351648E-09  1.401463E-08
       274  12 -3.142189E+04 -9.663633E+05 -5.300857E+04  1.673439E+04 -4.843148E-10  4.109182E-09
       274  13 -9.207229E+03 -8.884814E+05 -2.948323E+04  2.012156E+04 -2.624166E-09 -3.095132E-11
       274  14  4.262075E+03 -8.841184E+05 -2.392431E+04  3.178828E+03 -1.704313E-09  1.004931E-08
       274  15 -1.202318E+04 -8.884832E+05 -3.383118E+04  2.011325E+04  1.291439E-09 -7.138209E-09
       274  16  2.536652E+04 -7.499265E+05  4.551811E+03  1.643446E+04 -1.444775E-09 -5.666031E-09
       274  17  3.123527E+04 -7.759108E+05  2.634976E+03  3.025190E+03 -3.109816E-11 -1.522273E-09
       274  18  7.375128E+03 -8.105976E+05 -1.465423E+04  2.349254E+04  1.955958E-09  3.810252E-09
       274  19 -4.378233E+04 -1.027019E+06 -6.351950E+04  2.380787E+04  2.900286E+03  9.279521E+03
       274  20 -2.271198E+04 -9.923154E+05 -5.048443E+04  3.332442E+03  2.378398E+03 -3.272832E+03
       274  21 -3.142182E+04 -9.663630E+05 -5.300810E+04  1.673438E+04  1.458025E+03 -1.582693E+04
       274  22 -9.207196E+03 -8.884813E+05 -2.948305E+04  2.012158E+04  2.899738E+03  9.404526E+03
       274  23  4.262084E+03 -8.841184E+05 -2.392428E+04  3.178822E+03  2.377455E+03 -3.016215E+03
       274  24 -1.202311E+04 -8.884829E+05 -3.383073E+04  2.011323E+04  1.456578E+03 -1.543810E+04
       274  25  2.536655E+04 -7.499264E+05  4.551997E+03  1.643448E+04  2.899188E+03  9.529558E+03
       274  26  3.123528E+04 -7.759107E+05  2.635001E+03  3.025185E+03  2.376512E+03 -2.759553E+03
       274  27  7.375191E+03 -8.105973E+05 -1.465380E+04  2.349252E+04  1.455136E+03 -1.504921E+04
       275   1  8.271508E+02 -9.018003E+05 -4.016030E+04  3.019529E+04 -5.383653E+02  2.243112E+04
       275   2  2.436828E+04 -8.534134E+05 -4.890729E+04 -2.577532E+03  4.680105E+02  5.156304E+04
       275   3 -8.100704E+04 -8.407634E+05 -1.088034E+05 -1.423686E+03  6.724735E+01  8.069137E+04
       275   4  2.721077E+03 -8.944922E+05 -3.841523E+04  2.025196E+04 -5.366367E+02  2.182311E+04
       275   5  1.854482E+04 -8.766017E+05 -5.457833E+04  3.118825E+03  4.689568E+02  5.142579E+04
       275   6 -9.463363E+04 -8.945342E+05 -1.222202E+05  1.991255E+04  6.885384E+01  8.102344E+04
       275   7  4.615372E+03 -8.871837E+05 -3.667011E+04  1.030851E+04 -5.348886E+02  2.121509E+04
       275   8  1.272144E+04 -8.997895E+05 -6.024939E+04  8.814969E+03  4.699005E+02  5.128854E+04
       275   9 -1.082587E+05 -9.483013E+05 -1.356370E+05  4.124694E+04  7.048336E+01  8.135547E+04
       275  10  8.270151E+02 -9.018009E+05 -4.016124E+04  3.019530E+04 -1.428995E-09  1.170292E-08
       275  11  2.436757E+04 -8.534163E+05 -4.891229E+04 -2.577551E+03 -1.818358E-09  1.223999E-08
       275  12 -8.100879E+04 -8.407704E+05 -1.088157E+05 -1.423691E+03 -1.017751E-09  3.785602E-09
       275  13  2.720949E+03 -8.944927E+05 -3.841612E+04  2.025197E+04  1.038088E-09 -2.070630E-09
       275  14  1.854411E+04 -8.766046E+05 -5.458331E+04  3.118806E+03 -1.344215E-09  5.913944E-09
       275  15 -9.463539E+04 -8.945412E+05 -1.222326E+05  1.991255E+04  5.513996E-10  2.889083E-09
       275  16  4.615251E+03 -8.871842E+05 -3.667096E+04  1.030852E+04 -1.936583E-10 -4.123255E-09
       275  17  1.272073E+04 -8.997923E+05 -6.025434E+04  8.814950E+03 -1.443307E-09 -7.229361E-09
       275  18 -1.082605E+05 -9.483085E+05 -1.356494E+05  4.124694E+04 -1.314605E-09  2.469964E-09
       275  19  8.271508E+02 -9.018003E+05 -4.016030E+04  3.019529E+04  5.383653E+02 -2.243112E+04
       275  20  2.436828E+04 -8.534134E+05 -4.890729E+04 -2.577532E+03 -4.680105E+02 -5.156304E+04
       275  21 -8.100704E+04 -8.407634E+05 -1.088034E+05 -1.423686E+03 -6.724735E+01 -8.069137E+04
       275  22  2.721077E+03 -8.944922E+05 -3.841523E+04  2.025196E+04  5.366367E+02 -2.182311E+04
       275  23  1.854482E+04 -8.766017E+05 -5.457833E+04  3.118825E+03 -4.689568E+02 -5.142579E+04
       275  24 -9.463363E+04 -8.945342E+05 -1.222202E+05  1.991255E+04 -6.885384E+01 -8.102344E+04
       275  25  4.615372E+03 -8.871837E+05 -3.667011E+04  1.030851E+04  5.348886E+02 -2.121509E+04
       275  26  1.272144E+04 -8.997895E+05 -6.024939E+04  8.814969E+03 -4.699005E+02 -5.128854E+04
       275  27 -1.082587E+05 -9.483013E+05 -1.356370E+05  4.124694E+04 -7.048336E+01 -8.135547E+04
       276   1  2.894463E+05 -2.749538E+04 -8.810497E+03  1.629632E+03  5.291935E+04  2.806973E+03
       276   2  3.005202E+05 -9.722256E+04 -4.829880E+04  4.234674E+03  3.590450E+04  8.032899E+03
       276   3  3.353996E+05 -8.205912E+04 -5.541702E+04 -1.872897E+04  1.889704E+04  6.896174E+03
       276   4  6.538533E+05  6.338757E+04  8.163567E+04 -1.210497E+04  5.577585E+04  2.809829E+03
       276   5  6.417817E+05 -1.231014E+04  3.522208E+04  7.249863E+02  3.661238E+04  8.033218E+03
       276   6  6.538739E+05 -2.769937E+03  2.265607E+04 -1.201253E+04  1.745698E+04  6.894932E+03
       276   7  1.018381E+06  1.542613E+05  1.720721E+05 -2.584767E+04  5.863401E+04  2.812559E+03
       276   8  9.831492E+05  7.259371E+04  1.187345E+05 -2.786664E+03  3.732065E+04  8.033529E+03
       276   9  9.724406E+05  7.651190E+04  1.007218E+05 -5.292652E+03  1.601619E+04  6.893659E+03
       276  10  2.894433E+05 -2.749614E+04 -8.815772E+03  1.629512E+03 -3.954184E-10  3.631622E-11
       276  11  3.005188E+05 -9.722297E+04 -4.830134E+04  4.234442E+03 -5.174243E-10  5.604701E-11
       276  12  3.353992E+05 -8.205927E+04 -5.541778E+04 -1.872907E+04  7.565904E-11 -2.053978E-10
       276  13  6.538500E+05  6.338672E+04  8.162981E+04 -1.210509E+04  7.910405E-10  9.427985E-11
       276  14  6.417802E+05 -1.231057E+04  3.521944E+04  7.247495E+02 -3.527644E-10  1.580555E-10
       276  15  6.538736E+05 -2.770070E+03  2.265540E+04 -1.201262E+04  1.197858E-10 -1.385929E-10
       276  16  1.018378E+06  1.542604E+05  1.720656E+05 -2.584781E+04  4.940858E-10  1.211170E-10
       276  17  9.831476E+05  7.259326E+04  1.187317E+05 -2.786906E+03 -1.921810E-10  1.437814E-10
       276  18  9.724403E+05  7.651178E+04  1.007212E+05 -5.292741E+03  3.084209E-10 -2.226686E-10
       276  19  2.894463E+05 -2.749538E+04 -8.810497E+03  1.629632E+03 -5.291935E+04 -2.806973E+03
       276  20  3.005202E+05 -9.722256E+04 -4.829880E+04  4.234674E+03 -3.590450E+04 -8.032899E+03
       276  21  3.353996E+05 -8.205912E+04 -5.541702E+04 -1.872897E+04 -1.889704E+04 -6.896174E+03
       276  22  6.538533E+05  6.338757E+04  8.163567E+04 -1.210497E+04 -5.577585E+04 -2.809829E+03
       276  23  6.417817E+05 -1.231014E+04  3.522208E+04  7.249863E+02 -3.661238E+04 -8.033218E+03
       276  24  6.538739E+05 -2.769937E+03  2.265607E+04 -1.201253E+04 -1.745698E+04 -6.894932E+03
       276  25  1.018381E+06  1.542613E+05  1.720721E+05 -2.584767E+04 -5.863401E+04 -2.812559E+03
       276  26  9.831492E+05  7.259371E+04  1.187345E+05 -2.786664E+03 -3.732065E+04 -8.033529E+03
       276  27  9.724406E+05  7.651190E+04  1.007218E+05 -5.292652E+03 -1.601619E+04 -6.893659E+03
       277   1  3.816188E+05 -5.842926E+04 -4.705257E+04 -1.011785E+04  1.372626E+04  5.467731E+03
       277   2  4.013131E+05 -6.290591E+04 -5.117306E+04  6.305144E+02  9.196168E+03  5.357760E+03
       277   3  4.245462E+05 -5.631381E+04 -4.954105E+04 -1.260287E+04  4.665873E+03  4.565565E+03
       277   4  6.493032E+05  8.212641E+03  1.863613E+04 -1.169198E+04  1.380899E+04  5.467600E+03
       277   5  6.475166E+05 -1.624678E+03  9.171411E+03  3.013629E+02  9.047728E+03  5.357547E+03
       277   6  6.493069E+05 -3.555596E+02  5.617842E+03 -1.168642E+04  4.286422E+03  4.565372E+03
       277   7  9.170529E+05  7.484924E+04  8.431957E+04 -1.326679E+04  1.389175E+04  5.467468E+03
       277   8  8.937753E+05  5.965206E+04  6.951144E+04 -2.792580E+01  8.899230E+03  5.357334E+03
       277   9  8.741136E+05  5.559895E+04  6.077302E+04 -1.076963E+04  3.906834E+03  4.565177E+03
       277  10  3.816186E+05 -5.842934E+04 -4.705298E+04 -1.011791E+04 -8.323409E-10 -1.169322E-10
       277  11  4.013130E+05 -6.290596E+04 -5.117327E+04  6.304747E+02 -7.368111E-10  1.603894E-10
       277  12  4.245462E+05 -5.631384E+04 -4.954113E+04 -1.260289E+04 -6.401451E-11  1.397473E-10
       277  13  6.493030E+05  8.212558E+03  1.863571E+04 -1.169204E+04  6.615728E-10 -7.263993E-11
       277  14  6.475165E+05 -1.624731E+03  9.171203E+03  3.013239E+02 -7.111334E-10  2.343793E-10
       277  15  6.493069E+05 -3.555869E+02  5.617769E+03 -1.168643E+04 -2.287870E-10 -1.419057E-11
       277  16  9.170527E+05  7.484915E+04  8.431915E+04 -1.326685E+04  2.059419E-10 -1.195070E-10
       277  17  8.937752E+05  5.965201E+04  6.951123E+04 -2.796418E+01 -5.118811E-10  7.015055E-11
       277  18  8.741136E+05  5.559892E+04  6.077295E+04 -1.076965E+04  1.753594E-10 -1.725948E-10
       277  19  3.816188E+05 -5.842926E+04 -4.705257E+04 -1.011785E+04 -1.372626E+04 -5.467731E+03
       277  20  4.013131E+05 -6.290591E+04 -5.117306E+04  6.305144E+02 -9.196168E+03 -5.357760E+03
       277  21  4.245462E+05 -5.631381E+04 -4.954105E+04 -1.260287E+04 -4.665873E+03 -4.565565E+03
       277  22  6.493032E+05  8.212641E+03  1.863613E+04 -1.169198E+04 -1.380899E+04 -5.467600E+03
       277  23  6.475166E+05 -1.624678E+03  9.171411E+03  3.013629E+02 -9.047728E+03 -5.357547E+03
       277  24  6.493069E+05 -3.555596E+02  5.617842E+03 -1.168642E+04 -4.286422E+03 -4.565372E+03
       277  25  9.170529E+05  7.484924E+04  8.431957E+04 -1.326679E+04 -1.389175E+04 -5.467468E+03
       277  26  8.937753E+05  5.965206E+04  6.951144E+04 -2.792580E+01 -8.899230E+03 -5.357334E+03
       277  27  8.741136E+05  5.559895E+04  6.077302E+04 -1.076963E+04 -3.906834E+03 -4.565177E+03
       278   1  4.719614E+05 -4.292177E+04 -3.879847E+04 -1.127663E+04  3.597060E+03  4.024384E+03
       278   2  4.921550E+05 -3.909610E+04 -3.586680E+04  3.439513E+01  2.389873E+03  3.357094E+03
       278   3  5.129291E+05 -3.382699E+04 -3.177603E+04 -1.155049E+04  1.182348E+03  2.628488E+03
       278   4  6.486473E+05  1.046515E+03  4.465626E+03 -1.144690E+04  3.383716E+03  4.024278E+03
       278   5  6.483557E+05 -2.171866E+02  2.424588E+03  9.388107E-01  2.155600E+03  3.357036E+03
       278   6  6.486480E+05 -3.392722E+01  1.557025E+03 -1.144677E+04  9.271860E+02  2.628486E+03
       278   7  8.253615E+05  4.501249E+04  4.772744E+04 -1.161722E+04  3.170311E+03  4.024173E+03
       278   8  8.045785E+05  3.865992E+04  4.071418E+04 -3.252601E+01  1.921268E+03  3.356979E+03
       278   9  7.843836E+05  3.375777E+04  3.488873E+04 -1.134302E+04  6.719684E+02  2.628485E+03
       278  10  4.719614E+05 -4.292179E+04 -3.879852E+04 -1.127664E+04 -5.513037E-10 -6.558606E-11
       278  11  4.921550E+05 -3.909612E+04 -3.586683E+04  3.438867E+01 -1.218281E-10  8.930367E-11
       278  12  5.129291E+05 -3.382700E+04 -3.177605E+04 -1.155049E+04  3.276487E-10 -1.179148E-10
       278  13  6.486473E+05  1.046494E+03  4.465574E+03 -1.144691E+04 -9.843217E-10 -3.322366E-11
       278  14  6.483557E+05 -2.172000E+02  2.424558E+03  9.329840E-01 -5.311037E-10  2.014945E-10
       278  15  6.486480E+05 -3.393487E+01  1.557010E+03 -1.144677E+04 -1.001704E-10 -1.031426E-10
       278  16  8.253615E+05  4.501247E+04  4.772739E+04 -1.161723E+04 -2.674558E-10 -1.597992E-10
       278  17  8.045785E+05  3.865991E+04  4.071416E+04 -3.253120E+01 -9.733094E-13  1.113977E-10
       278  18  7.843836E+05  3.375776E+04  3.488872E+04 -1.134303E+04 -2.014895E-10 -3.147599E-11
       278  19  4.719614E+05 -4.292177E+04 -3.879847E+04 -1.127663E+04 -3.597060E+03 -4.024384E+03
       278  20  4.921550E+05 -3.909610E+04 -3.586680E+04  3.439513E+01 -2.389873E+03 -3.357094E+03
       278  21  5.129291E+05 -3.382699E+04 -3.177603E+04 -1.155049E+04 -1.182348E+03 -2.628488E+03
       278  22  6.486473E+05  1.046515E+03  4.465626E+03 -1.144690E+04 -3.383716E+03 -4.024278E+03
       278  23  6.483557E+05 -2.171866E+02  2.424588E+03  9.388107E-01 -2.155600E+03 -3.357036E+03
       278  24  6.486480E+05 -3.392722E+01  1.557025E+03 -1.144677E+04 -9.271860E+02 -2.628486E+03
       278  25  8.253615E+05  4.501249E+04  4.772744E+04 -1.161722E+04 -3.170311E+03 -4.024173E+03
       278  26  8.045785E+05  3.865992E+04  4.071418E+04 -3.252601E+01 -1.921268E+03 -3.356979E+03
       278  27  7.843836E+05  3.375777E+04  3.488873E+04 -1.134302E+04 -6.719684E+02 -2.628485E+03
       279   1  5.591714E+05 -2.210224E+04 -2.054889E+04 -1.127662E+04  9.076791E+02  2.198594E+03
       279   2  5.790444E+05 -1.732143E+04 -1.603296E+04 -1.517636E+02  4.135392E+02  1.489420E+03
       279   3  5.990447E+05 -1.228557E+04 -1.113209E+04 -1.131681E+04 -8.076585E+01  7.800118E+02
       279   4  6.485496E+05  1.312526E+02  1.299801E+03 -1.131216E+04  6.693038E+02  2.198620E+03
       279   5  6.484863E+05 -3.786657E+01  9.899268E+02 -1.672932E+02  1.750221E+02  1.489468E+03
       279   6  6.485497E+05  4.801452E+01  1.065000E+03 -1.131218E+04 -3.194091E+02  7.800843E+02
       279   7  7.379350E+05  2.236416E+04  2.314791E+04 -1.134771E+04  4.308943E+02  2.198646E+03
       279   8  7.179326E+05  1.724534E+04  1.801246E+04 -1.828243E+02 -6.352169E+01  1.489517E+03
       279   9  6.980568E+05  1.238142E+04  1.326191E+04 -1.130754E+04 -5.580714E+02  7.801568E+02
       279  10  5.591714E+05 -2.210225E+04 -2.054890E+04 -1.127662E+04 -8.075087E-11 -1.856714E-10
       279  11  5.790444E+05 -1.732143E+04 -1.603296E+04 -1.517640E+02 -7.095727E-10  1.003817E-10
       279  12  5.990447E+05 -1.228557E+04 -1.113209E+04 -1.131681E+04  3.820847E-11 -1.101020E-12
       279  13  6.485496E+05  1.312473E+02  1.299791E+03 -1.131216E+04 -5.849556E-10 -4.696342E-11
       279  14  6.484863E+05 -3.786896E+01  9.899226E+02 -1.672934E+02  4.237939E-11  2.072519E-10
       279  15  6.485497E+05  4.801384E+01  1.064999E+03 -1.131218E+04 -1.959569E-10  7.348079E-11
       279  16  7.379350E+05  2.236415E+04  2.314790E+04 -1.134771E+04  2.972305E-10 -1.125664E-10
       279  17  7.179326E+05  1.724534E+04  1.801245E+04 -1.828242E+02  2.076875E-11  4.690052E-11
       279  18  6.980568E+05  1.238142E+04  1.326191E+04 -1.130754E+04 -4.022135E-12  1.421850E-10
       279  19  5.591714E+05 -2.210224E+04 -2.054889E+04 -1.127662E+04 -9.076791E+02 -2.198594E+03
       279  20  5.790444E+05 -1.732143E+04 -1.603296E+04 -1.517636E+02 -4.135392E+02 -1.489420E+03
       279  21  5.990447E+05 -1.228557E+04 -1.113209E+04 -1.131681E+04  8.076585E+01 -7.800118E+02
       279  22  6.485496E+05  1.312526E+02  1.299801E+03 -1.131216E+04 -6.693038E+02 -2.198620E+03
       279  23  6.484863E+05 -3.786657E+01  9.899268E+02 -1.672932E+02 -1.750221E+02 -1.489468E+03
       279  24  6.485497E+05  4.801452E+01  1.065000E+03 -1.131218E+04  3.194091E+02 -7.800843E+02
       279  25  7.379350E+05  2.236416E+04  2.314791E+04 -1.134771E+04 -4.308943E+02 -2.198646E+03
       279  26  7.179326E+05  1.724534E+04  1.801246E+04 -1.828243E+02  6.352169E+01 -1.489517E+03
       279  27  6.980568E+05  1.238142E+04  1.326191E+04 -1.130754E+04  5.580714E+02 -7.801568E+02
       280   1  6.446403E+05 -9.585581E+02  3.025340E+02 -1.123157E+04 -2.860221E+02  3.667602E+02
       280   2  6.643315E+05  3.871343E+03  5.659296E+03 -2.116171E+02 -1.172182E+03 -3.406117E+02
       280   3  6.842582E+05  9.245712E+03  1.172516E+04 -1.133558E+04 -2.058337E+03 -1.043335E+03
       280   4  6.485745E+05  8.281036E+00  1.205175E+03 -1.127981E+04 -5.247581E+02  3.668399E+02
       280   5  6.484568E+05 -7.951822E+01  1.768111E+03 -2.077788E+02 -1.409338E+03 -3.405385E+02
       280   6  6.485741E+05  3.769189E+02  3.039102E+03 -1.127970E+04 -2.293886E+03 -1.043267E+03
       280   7  6.525087E+05  9.751191E+02  2.107814E+03 -1.132805E+04 -7.634955E+02  3.669196E+02
       280   8  6.325824E+05 -4.030398E+03 -2.123092E+03 -2.039405E+02 -1.646488E+03 -3.404653E+02
       280   9  6.128911E+05 -8.491967E+03 -5.647046E+03 -1.122381E+04 -2.529420E+03 -1.043199E+03
       280  10  6.446403E+05 -9.585582E+02  3.025336E+02 -1.123157E+04  3.720664E-11 -6.338848E-11
       280  11  6.643315E+05  3.871343E+03  5.659293E+03 -2.116174E+02 -5.737770E-10  1.253354E-11
       280  12  6.842582E+05  9.245709E+03  1.172515E+04 -1.133558E+04  9.985293E-11  1.372717E-10
       280  13  6.485745E+05  8.280818E+00  1.205174E+03 -1.127981E+04  3.510674E-11  1.086019E-10
       280  14  6.484568E+05 -7.951887E+01  1.768107E+03 -2.077792E+02 -5.045794E-10  1.447919E-10
       280  15  6.485741E+05  3.769163E+02  3.039090E+03 -1.127970E+04 -3.516192E-10 -9.571318E-12
       280  16  6.525087E+05  9.751188E+02  2.107813E+03 -1.132805E+04 -8.629010E-11 -2.800130E-11
       280  17  6.325824E+05 -4.030399E+03 -2.123098E+03 -2.039410E+02  9.202714E-11 -3.880592E-11
       280  18  6.128911E+05 -8.491970E+03 -5.647060E+03 -1.122382E+04 -5.643579E-10 -1.941709E-10
       280  19  6.446403E+05 -9.585581E+02  3.025340E+02 -1.123157E+04  2.860221E+02 -3.667602E+02
       280  20  6.643315E+05  3.871343E+03  5.659296E+03 -2.116171E+02  1.172182E+03  3.406117E+02
       280  21  6.842582E+05  9.245712E+03  1.172516E+04 -1.133558E+04  2.058337E+03  1.043335E+03
       280  22  6.485745E+05  8.281036E+00  1.205175E+03 -1.127981E+04  5.247581E+02 -3.668399E+02
       280  23  6.484568E+05 -7.951822E+01  1.768111E+03 -2.077788E+02  1.409338E+03  3.405385E+02
       280  24  6.485741E+05  3.769189E+02  3.039102E+03 -1.127970E+04  2.293886E+03  1.043267E+03
       280  25  6.525087E+05  9.751191E+02  2.107814E+03 -1.132805E+04  7.634955E+02 -3.669196E+02
       280  26  6.325824E+05 -4.030398E+03 -2.123092E+03 -2.039405E+02  1.646488E+03  3.404653E+02
       280  27  6.128911E+05 -8.491967E+03 -5.647046E+03 -1.122381E+04  2.529420E+03  1.043199E+03
       281   1  7.302772E+05  2.016753E+04  2.390061E+04 -1.103334E+04 -2.666805E+03 -1.465833E+03
       281   2  7.496463E+05  2.467904E+04  3.137094E+04 -2.296135E+02 -5.972610E+03 -2.182242E+03
       281   3  7.704637E+05  3.319956E+04  4.199695E+04 -1.188745E+04 -9.278270E+03 -2.844042E+03
       281   4  6.488416E+05 -1.113577E+02  3.878226E+03 -1.135054E+04 -2.916909E+03 -1.465775E+03
       281   5  6.481179E+05 -5.878048E+02  6.486293E+03 -1.194808E+02 -6.203868E+03 -2.182225E+03
       281   6  6.488396E+05  2.942004E+03  1.223747E+04 -1.135021E+04 -9.490578E+03 -2.844065E+03
       281   7  5.674120E+05 -2.039074E+04 -1.614465E+04 -1.166770E+04 -3.166980E+03 -1.465716E+03
       281   8  5.465989E+05 -2.585541E+04 -1.839911E+04 -9.365644E+00 -6.435089E+03 -2.182209E+03
       281   9  5.272289E+05 -2.731664E+04 -1.752308E+04 -1.081307E+04 -9.702844E+03 -2.844090E+03
       281  10  7.302772E+05  2.016753E+04  2.390059E+04 -1.103334E+04  2.268052E-10 -5.966960E-11
       281  11  7.496462E+05  2.467902E+04  3.137087E+04 -2.296240E+02 -3.643068E-10  4.988900E-11
       281  12  7.704636E+05  3.319953E+04  4.199677E+04 -1.188747E+04  2.085110E-11 -3.992426E-11
       281  13  6.488416E+05 -1.113623E+02  3.878206E+03 -1.135054E+04 -6.323661E-10 -1.666689E-10
       281  14  6.481179E+05 -5.878203E+02  6.486212E+03 -1.194917E+02 -1.192901E-10 -5.499907E-11
       281  15  6.488395E+05  2.941971E+03  1.223729E+04 -1.135023E+04  2.496049E-10 -1.829671E-10
       281  16  5.674119E+05 -2.039075E+04 -1.614467E+04 -1.166770E+04  2.107090E-10 -1.547842E-10
       281  17  5.465989E+05 -2.585543E+04 -1.839920E+04 -9.376952E+00 -1.550451E-10 -9.432107E-11
       281  18  5.272288E+05 -2.731668E+04 -1.752327E+04 -1.081309E+04 -4.822922E-10 -9.754948E-11
       281  19  7.302772E+05  2.016753E+04  2.390061E+04 -1.103334E+04  2.666805E+03  1.465833E+03
       281  20  7.496463E+05  2.467904E+04  3.137094E+04 -2.296135E+02  5.972610E+03  2.182242E+03
       281  21  7.704637E+05  3.319956E+04  4.199695E+04 -1.188745E+04  9.278270E+03  2.844042E+03
       281  22  6.488416E+05 -1.113577E+02  3.878226E+03 -1.135054E+04  2.916909E+03  1.465775E+03
       281  23  6.481179E+05 -5.878048E+02  6.486293E+03 -1.194808E+02  6.203868E+03  2.182225E+03
       281  24  6.488396E+05  2.942004E+03  1.223747E+04 -1.135021E+04  9.490578E+03  2.844065E+03
       281  25  5.674120E+05 -2.039074E+04 -1.614465E+04 -1.166770E+04  3.166980E+03  1.465716E+03
       281  26  5.465989E+05 -2.585541E+04 -1.839911E+04 -9.365644E+00  6.435089E+03  2.182209E+03
       281  27  5.272289E+05 -2.731664E+04 -1.752308E+04 -1.081307E+04  9.702844E+03  2.844090E+03
       282   1  8.191379E+05  4.097666E+04  5.680880E+04 -9.090035E+03 -1.161509E+04 -3.357267E+03
       282   2  8.351676E+05  4.263094E+04  7.177159E+04 -1.042584E+03 -2.498725E+04 -4.124241E+03
       282   3  8.607473E+05  7.514013E+04  1.031659E+05 -1.623849E+04 -3.835996E+04 -4.318244E+03
       282   4  6.506310E+05 -9.684660E+02  1.545145E+04 -1.152229E+04 -1.196703E+04 -3.357273E+03
       282   5  6.458669E+05 -4.474333E+03  2.538759E+04  9.604371E+01 -2.514295E+04 -4.124394E+03
       282   6  6.506212E+05  2.284581E+04  5.162273E+04 -1.152925E+04 -3.831896E+04 -4.318618E+03
       282   7  4.821500E+05 -4.291567E+04 -2.590798E+04 -1.395389E+04 -1.231889E+04 -3.357277E+03
       282   8  4.565987E+05 -5.158226E+04 -2.099904E+04  1.234323E+03 -2.529860E+04 -4.124547E+03
       282   9  4.405352E+05 -2.945170E+04  7.637069E+01 -6.821600E+03 -3.827798E+04 -4.318991E+03
       282  10  8.191378E+05  4.097661E+04  5.680852E+04 -9.090067E+03 -2.266279E-10 -1.963023E-11
       282  11  8.351670E+05  4.263076E+04  7.177038E+04 -1.042667E+03  6.340458E-11  1.659703E-10
       282  12  8.607458E+05  7.513971E+04  1.031631E+05 -1.623862E+04  4.782951E-10 -1.745575E-10
       282  13  6.506309E+05 -9.685165E+02  1.545116E+04 -1.152233E+04  2.237967E-10 -2.229586E-11
       282  14  6.458662E+05 -4.474521E+03  2.538637E+04  9.596022E+01 -1.925173E-10  2.735833E-10
       282  15  6.506196E+05  2.284539E+04  5.161994E+04 -1.152938E+04  9.664341E-11 -1.622956E-10
       282  16  4.821498E+05 -4.291573E+04 -2.590828E+04 -1.395392E+04  1.771637E-10 -1.485541E-10
       282  17  4.565980E+05 -5.158245E+04 -2.100027E+04  1.234239E+03 -4.331418E-10  1.218228E-10
       282  18  4.405336E+05 -2.945211E+04  7.358420E+01 -6.821733E+03 -2.035089E-10 -3.568884E-11
       282  19  8.191379E+05  4.097666E+04  5.680880E+04 -9.090035E+03  1.161509E+04  3.357267E+03
       282  20  8.351676E+05  4.263094E+04  7.177159E+04 -1.042584E+03  2.498725E+04  4.124241E+03
       282  21  8.607473E+05  7.514013E+04  1.031659E+05 -1.623849E+04  3.835996E+04  4.318244E+03
       282  22  6.506310E+05 -9.684660E+02  1.545145E+04 -1.152229E+04  1.196703E+04  3.357273E+03
       282  23  6.458669E+05 -4.474333E+03  2.538759E+04  9.604371E+01  2.514295E+04  4.124394E+03
       282  24  6.506212E+05  2.284581E+04  5.162273E+04 -1.152925E+04  3.831896E+04  4.318618E+03
       282  25  4.821500E+05 -4.291567E+04 -2.590798E+04 -1.395389E+04  1.231889E+04  3.357277E+03
       282  26  4.565987E+05 -5.158226E+04 -2.099904E+04  1.234323E+03  2.529860E+04  4.124547E+03
       282  27  4.405352E+05 -2.945170E+04  7.637069E+01 -6.821600E+03  3.827798E+04  4.318991E+03
       283   1  9.222908E+05  5.686850E+04  1.262535E+05  6.383066E+03 -4.718563E+04 -5.579285E+03
       283   2  9.110689E+05  3.582000E+04  1.664285E+05 -9.965602E+03 -1.021093E+05 -6.657321E+03
       283   3  9.663421E+05  2.513126E+05  3.015123E+05 -5.092600E+04 -1.570387E+05 -2.403296E+03
       283   4  6.632265E+05 -7.617805E+03  6.275842E+04 -1.177869E+04 -4.842215E+04 -5.578611E+03
       283   5  6.300958E+05 -3.405676E+04  9.769346E+04  4.435760E+02 -1.015326E+05 -6.658839E+03
       283   6  6.631744E+05  1.757853E+05  2.263097E+05 -1.194419E+04 -1.546467E+05 -2.410994E+03
       283   7  4.042239E+05 -7.210785E+04 -7.414115E+02 -2.993287E+04 -4.965815E+04 -5.577865E+03
       283   8  3.491946E+05 -1.039390E+05  2.895273E+04  1.084803E+04 -1.009561E+05 -6.660338E+03
       283   9  3.600932E+05  1.002568E+05  1.511012E+05  2.701858E+04 -1.522557E+05 -2.418396E+03
       283  10  9.222884E+05  5.686787E+04  1.262493E+05  6.382854E+03  1.750813E-10 -3.317325E-11
       283  11  9.110578E+05  3.581716E+04  1.664088E+05 -9.966149E+03 -1.485130E-10  2.074510E-10
       283  12  9.663157E+05  2.513060E+05  3.014660E+05 -5.092631E+04  1.709300E-10 -8.868587E-11
       283  13  6.632239E+05 -7.618467E+03  6.275396E+04 -1.177891E+04  5.231103E-10 -1.223002E-10
       283  14  6.300847E+05 -3.405958E+04  9.767402E+04  4.430317E+02  4.278313E-10  4.035670E-11
       283  15  6.631487E+05  1.757789E+05  2.262648E+05 -1.194449E+04  1.315140E-10  1.424218E-10
       283  16  4.042212E+05 -7.210854E+04 -7.461009E+02 -2.993309E+04 -4.588676E-11 -1.698835E-10
       283  17  3.491837E+05 -1.039417E+05  2.893351E+04  1.084749E+04 -2.481309E-10  4.455120E-10
       283  18  3.600684E+05  1.002506E+05  1.510576E+05  2.701828E+04  4.889576E-10  8.998039E-11
       283  19  9.222908E+05  5.686850E+04  1.262535E+05  6.383066E+03  4.718563E+04  5.579285E+03
       283  20  9.110689E+05  3.582000E+04  1.664285E+05 -9.965602E+03  1.021093E+05  6.657321E+03
       283  21  9.663421E+05  2.513126E+05  3.015123E+05 -5.092600E+04  1.570387E+05  2.403296E+03
       283  22  6.632265E+05 -7.617805E+03  6.275842E+04 -1.177869E+04  4.842215E+04  5.578611E+03
       283  23  6.300958E+05 -3.405676E+04  9.769346E+04  4.435760E+02  1.015326E+05  6.658839E+03
       283  24  6.631744E+05  1.757853E+05  2.263097E+05 -1.194419E+04  1.546467E+05  2.410994E+03
       283  25  4.042239E+05 -7.210785E+04 -7.414115E+02 -2.993287E+04  4.965815E+04  5.577865E+03
       283  26  3.491946E+05 -1.039390E+05  2.895273E+04  1.084803E+04  1.009561E+05  6.660338E+03
       283  27  3.600932E+05  1.002568E+05  1.511012E+05  2.701858E+04  1.522557E+05  2.418396E+03
       284   1  1.234775E+05  8.957865E+05  1.412988E+05 -4.250029E+04  1.599507E+03  5.942487E+04
       284   2  3.428992E+04  8.357762E+05  8.079131E+04 -5.386069E+03  4.445885E+03  3.883062E+04
       284   3  3.156107E+04  7.998974E+05  5.526351E+04 -2.167524E+04  2.606504E+03  1.822901E+04
       284   4  6.462151E+04  6.600961E+05  8.278951E+04 -2.788717E+04  1.603852E+03  5.767789E+04
       284   5 -1.239249E+04  6.481744E+05  3.491500E+04 -1.242931E+03  4.446515E+03  3.866633E+04
       284   6 -3.207548E+03  6.601176E+05  2.093198E+04 -2.800224E+04  2.603492E+03  1.964578E+04
       284   7  5.762128E+03  4.244565E+05  2.427616E+04 -1.327958E+04  1.608116E+03  5.593158E+04
       284   8 -5.907743E+04  4.606047E+05 -1.096387E+04  2.898968E+03  4.447144E+03  3.850208E+04
       284   9 -3.797746E+04  5.203557E+05 -1.340095E+04 -3.432781E+04  2.600450E+03  2.106224E+04
       284  10  1.234766E+05  8.957827E+05  1.412922E+05 -4.250036E+04  5.300340E-11 -1.370367E-10
       284  11  3.428949E+04  8.357745E+05  8.078844E+04 -5.386208E+03 -5.219978E-10 -1.038345E-10
       284  12  3.156097E+04  7.998970E+05  5.526287E+04 -2.167528E+04  6.647256E-10  8.973134E-11
       284  13  6.462061E+04  6.600925E+05  8.278326E+04 -2.788724E+04  3.808868E-10 -1.113049E-10
       284  14 -1.239291E+04  6.481728E+05  3.491216E+04 -1.243070E+03 -1.329699E-09  2.391500E-10
       284  15 -3.207659E+03  6.601172E+05  2.093124E+04 -2.800228E+04  3.248406E-10 -5.591189E-11
       284  16  5.761286E+03  4.244532E+05  2.427028E+04 -1.327965E+04 -4.812353E-11  1.239580E-10
       284  17 -5.907785E+04  4.606031E+05 -1.096669E+04  2.898830E+03 -3.304319E-10  1.052251E-10
       284  18 -3.797758E+04  5.203552E+05 -1.340180E+04 -3.432786E+04  2.569650E-10 -1.507010E-10
       284  19  1.234775E+05  8.957865E+05  1.412988E+05 -4.250029E+04 -1.599507E+03 -5.942487E+04
       284  20  3.428992E+04  8.357762E+05  8.079131E+04 -5.386069E+03 -4.445885E+03 -3.883062E+04
       284  21  3.156107E+04  7.998974E+05  5.526351E+04 -2.167524E+04 -2.606504E+03 -1.822901E+04
       284  22  6.462151E+04  6.600961E+05  8.278951E+04 -2.788717E+04 -1.603852E+03 -5.767789E+04
       284  23 -1.239249E+04  6.481744E+05  3.491500E+04 -1.242931E+03 -4.446515E+03 -3.866633E+04
       284  24 -3.207548E+03  6.601176E+05  2.093198E+04 -2.800224E+04 -2.603492E+03 -1.964578E+04
       284  25  5.762128E+03  4.244565E+05  2.427616E+04 -1.327958E+04 -1.608116E+03 -5.593158E+04
       284  26 -5.907743E+04  4.606047E+05 -1.096387E+04  2.898968E+03 -4.447144E+03 -3.850208E+04
       284  27 -3.797746E+04  5.203557E+05 -1.340095E+04 -3.432781E+04 -2.600450E+03 -2.106224E+04
       285   1  1.621276E+04  6.854756E+05  2.360084E+04 -2.923026E+04  8.159596E+02  1.594454E+04
       285   2 -5.110653E+03  6.371823E+05  4.828457E+02 -1.952960E+03 -4.028916E+02  1.352281E+04
       285   3 -2.046203E+04  5.904319E+05 -1.962255E+04 -2.776547E+04 -1.560671E+03  1.110147E+04
       285   4  8.669337E+03  6.551580E+05  1.621150E+04 -2.787840E+04  8.151262E+02  1.636623E+04
       285   5 -8.317870E+02  6.543883E+05  4.698517E+03 -1.346794E+03 -4.036903E+02  1.392432E+04
       285   6 -4.357021E+03  6.551637E+05 -3.787072E+03 -2.790484E+04 -1.561435E+03  1.148262E+04
       285   7  1.125851E+03  6.248412E+05  8.822086E+03 -2.652662E+04  8.142946E+02  1.678791E+04
       285   8  3.447058E+03  6.715945E+05  8.914168E+03 -7.406119E+02 -4.044882E+02  1.432585E+04
       285   9  1.174768E+04  7.198992E+05  1.204810E+04 -2.804423E+04 -1.562200E+03  1.186381E+04
       285  10  1.621269E+04  6.854754E+05  2.360036E+04 -2.923027E+04 -1.087480E-10 -3.413176E-10
       285  11 -5.110702E+03  6.371821E+05  4.825021E+02 -1.952956E+03  3.388860E-10 -2.225027E-10
       285  12 -2.046206E+04  5.904318E+05 -1.962279E+04 -2.776545E+04 -7.791000E-10  2.809672E-10
       285  13  8.669264E+03  6.551577E+05  1.621099E+04 -2.787841E+04  3.903694E-10 -9.234823E-11
       285  14 -8.318391E+02  6.543881E+05  4.698153E+03 -1.346790E+03  1.279419E-09 -1.428138E-10
       285  15 -4.357059E+03  6.551635E+05 -3.787325E+03 -2.790483E+04  1.724432E-09 -2.071293E-10
       285  16  1.125775E+03  6.248409E+05  8.821556E+03 -2.652663E+04  2.789358E-11  3.227569E-10
       285  17  3.447003E+03  6.715943E+05  8.913782E+03 -7.406073E+02 -1.511901E-09  2.521135E-10
       285  18  1.174763E+04  7.198991E+05  1.204783E+04 -2.804422E+04 -1.603613E-10 -2.346402E-10
       285  19  1.621276E+04  6.854756E+05  2.360084E+04 -2.923026E+04 -8.159596E+02 -1.594454E+04
       285  20 -5.110653E+03  6.371823E+05  4.828457E+02 -1.952960E+03  4.028916E+02 -1.352281E+04
       285  21 -2.046203E+04  5.904319E+05 -1.962255E+04 -2.776547E+04  1.560671E+03 -1.110147E+04
       285  22  8.669337E+03  6.551580E+05  1.621150E+04 -2.787840E+04 -8.151262E+02 -1.636623E+04
       285  23 -8.317870E+02  6.543883E+05  4.698517E+03 -1.346794E+03  4.036903E+02 -1.392432E+04
       285  24 -4.357021E+03  6.551637E+05 -3.787072E+03 -2.790484E+04  1.561435E+03 -1.148262E+04
       285  25  1.125851E+03  6.248412E+05  8.822086E+03 -2.652662E+04 -8.142946E+02 -1.678791E+04
       285  26  3.447058E+03  6.715945E+05  8.914168E+03 -7.406119E+02  4.044882E+02 -1.432585E+04
       285  27  1.174768E+04  7.198992E+05  1.204810E+04 -2.804423E+04  1.562200E+03 -1.186381E+04
       286   1 -4.086882E+04  4.779354E+05 -4.985124E+04 -2.470293E+04 -3.433046E+03  1.089240E+04
       286   2 -4.943215E+04  4.356330E+05 -7.006059E+04 -2.811419E+03 -5.362006E+03  2.124182E+04
       286   3 -9.902039E+04  3.816224E+05 -1.072853E+05 -3.464240E+04 -2.016998E+03  3.159944E+04
       286   4  2.555649E+03  6.522758E+05 -7.036098E+03 -2.801440E+04 -3.436052E+03  1.242344E+04
       286   5  5.880976E+03  6.579813E+05 -1.567260E+04 -1.180767E+03 -5.361400E+03  2.100274E+04
       286   6 -3.150340E+04  6.522878E+05 -4.009131E+04 -2.806893E+04 -2.013442E+03  2.959110E+04
       286   7  4.597790E+04  8.266439E+05  3.577683E+04 -3.132677E+04 -3.439075E+03  1.395491E+04
       286   8  6.119046E+04  8.803746E+05  3.871178E+04  4.504890E+02 -5.360795E+03  2.076357E+04
       286   9  3.600828E+04  9.230198E+05  2.709726E+04 -2.149257E+04 -2.009929E+03  2.758188E+04
       286  10 -4.086886E+04  4.779352E+05 -4.985149E+04 -2.470290E+04  9.161733E-11 -3.196437E-10
       286  11 -4.943231E+04  4.356325E+05 -7.006149E+04 -2.811327E+03  2.049710E-10 -1.617135E-10
       286  12 -9.902067E+04  3.816213E+05 -1.072872E+05 -3.464235E+04 -3.925561E-10  2.389303E-10
       286  13  2.555595E+03  6.522756E+05 -7.036409E+03 -2.801436E+04 -1.186075E-09  1.182264E-10
       286  14  5.880827E+03  6.579808E+05 -1.567348E+04 -1.180677E+03  3.047000E-10 -1.235505E-10
       286  15 -3.150364E+04  6.522868E+05 -4.009296E+04 -2.806888E+04 -5.639442E-10  3.249322E-11
       286  16  4.597784E+04  8.266437E+05  3.577644E+04 -3.132673E+04  7.626469E-10  1.849077E-10
       286  17  6.119032E+04  8.803742E+05  3.871092E+04  4.505786E+02 -5.199107E-10  1.933451E-11
       286  18  3.600807E+04  9.230189E+05  2.709583E+04 -2.149253E+04 -9.253955E-10 -5.510531E-11
       286  19 -4.086882E+04  4.779354E+05 -4.985124E+04 -2.470293E+04  3.433046E+03 -1.089240E+04
       286  20 -4.943215E+04  4.356330E+05 -7.006059E+04 -2.811419E+03  5.362006E+03 -2.124182E+04
       286  21 -9.902039E+04  3.816224E+05 -1.072853E+05 -3.464240E+04  2.016998E+03 -3.159944E+04
       286  22  2.555649E+03  6.522758E+05 -7.036098E+03 -2.801440E+04  3.436052E+03 -1.242344E+04
       286  23  5.880976E+03  6.579813E+05 -1.567260E+04 -1.180767E+03  5.361400E+03 -2.100274E+04
       286  24 -3.150340E+04  6.522878E+05 -4.009131E+04 -2.806893E+04  2.013442E+03 -2.959110E+04
       286  25  4.597790E+04  8.266439E+05  3.577683E+04 -3.132677E+04  3.439075E+03 -1.395491E+04
       286  26  6.119046E+04  8.803746E+05  3.871178E+04  4.504890E+02  5.360795E+03 -2.076357E+04
       286  27  3.600828E+04  9.230198E+05  2.709726E+04 -2.149257E+04  2.009929E+03 -2.758188E+04
       287   1 -8.095709E+05 -3.215166E+05 -2.505499E+05 -2.624337E+05 -1.235151E+05 -4.457433E+04
       287   2 -7.726463E+05 -1.391191E+05 -1.348817E+05 -2.887061E+05 -8.023288E+04 -2.443458E+04
       287   3 -8.040528E+05 -1.486234E+05 -1.030596E+05 -2.749001E+05 -3.547325E+04 -8.214257E+03
       287   4 -6.139156E+05 -2.190947E+05 -1.912709E+05 -1.799652E+05 -1.218710E+05 -4.396207E+04
       287   5 -5.701900E+05 -5.510875E+04 -7.868046E+04 -2.256704E+05 -7.980857E+04 -2.427619E+04
       287   6 -5.945306E+05 -8.274795E+04 -4.894814E+04 -2.313045E+05 -3.626846E+04 -8.512630E+03
       287   7 -4.182219E+05 -1.166590E+05 -1.319957E+05 -9.746993E+04 -1.202263E+05 -4.334940E+04
       287   8 -3.676942E+05  2.890634E+04 -2.248310E+04 -1.626153E+05 -7.938410E+04 -2.411772E+04
       287   9 -3.849658E+05 -1.687278E+04  5.159946E+03 -1.876971E+05 -3.706396E+04 -8.811071E+03
       287  10 -8.095878E+05 -3.215229E+05 -2.505824E+05 -2.624382E+05  3.340570E-10  1.724234E-10
       287  11 -7.726534E+05 -1.391215E+05 -1.348949E+05 -2.887077E+05 -5.153923E-10  3.166419E-10
       287  12 -8.040542E+05 -1.486238E+05 -1.030621E+05 -2.749003E+05 -4.086722E-10  1.647012E-10
       287  13 -6.139321E+05 -2.191008E+05 -1.913024E+05 -1.799695E+05 -3.116801E-10  1.281870E-10
       287  14 -5.701970E+05 -5.511110E+04 -7.869355E+04 -2.256719E+05 -8.834542E-10  2.485835E-10
       287  15 -5.945320E+05 -8.274838E+04 -4.895075E+04 -2.313048E+05  6.890598E-10  2.130118E-11
       287  16 -4.182380E+05 -1.166649E+05 -1.320264E+05 -9.747413E+04  4.049688E-10  1.863675E-10
       287  17 -3.677011E+05  2.890402E+04 -2.249604E+04 -1.626168E+05  2.766177E-11  2.254647E-10
       287  18 -3.849673E+05 -1.687324E+04  5.157217E+03 -1.876974E+05  2.020901E-10  2.275229E-11
       287  19 -8.095709E+05 -3.215166E+05 -2.505499E+05 -2.624337E+05  1.235151E+05  4.457433E+04
       287  20 -7.726463E+05 -1.391191E+05 -1.348817E+05 -2.887061E+05  8.023288E+04  2.443458E+04
       287  21 -8.040528E+05 -1.486234E+05 -1.030596E+05 -2.749001E+05  3.547325E+04  8.214257E+03
       287  22 -6.139156E+05 -2.190947E+05 -1.912709E+05 -1.799652E+05  1.218710E+05  4.396207E+04
       287  23 -5.701900E+05 -5.510875E+04 -7.868046E+04 -2.256704E+05  7.980857E+04  2.427619E+04
       287  24 -5.945306E+05 -8.274795E+04 -4.894814E+04 -2.313045E+05  3.626846E+04  8.512630E+03
       287  25 -4.182219E+05 -1.166590E+05 -1.319957E+05 -9.746993E+04  1.202263E+05  4.334940E+04
       287  26 -3.676942E+05  2.890634E+04 -2.248310E+04 -1.626153E+05  7.938410E+04  2.411772E+04
       287  27 -3.849658E+05 -1.687278E+04  5.159946E+03 -1.876971E+05  3.706396E+04  8.811071E+03
       288   1 -7.632831E+05 -1.742046E+05 -8.834474E+04 -2.708022E+05 -2.882994E+04 -6.604389E+03
       288   2 -7.535252E+05 -1.433845E+05 -6.419217E+04 -2.680344E+05 -1.892479E+04 -2.785036E+03
       288   3 -7.462888E+05 -1.452202E+05 -5.416709E+04 -2.681253E+05 -8.839710E+03  5.560201E+02
       288   4 -5.880566E+05 -1.044979E+05 -4.015639E+04 -2.193579E+05 -2.873449E+04 -6.568774E+03
       288   5 -5.855269E+05 -7.912411E+04 -1.855908E+04 -2.213346E+05 -1.897699E+04 -2.804771E+03
       288   6 -5.854866E+05 -8.637261E+04 -1.096906E+04 -2.261705E+05 -9.039700E+03  4.808483E+02
       288   7 -4.128009E+05 -3.478874E+04  8.029054E+03 -1.679004E+05 -2.863900E+04 -6.533147E+03
       288   8 -4.175015E+05 -1.486191E+04  2.707148E+04 -1.746233E+05 -1.902920E+04 -2.824512E+03
       288   9 -4.246594E+05 -2.752383E+04  3.222677E+04 -1.842061E+05 -9.239747E+03  4.056564E+02
       288  10 -7.632840E+05 -1.742048E+05 -8.834639E+04 -2.708023E+05 -4.675898E-10 -7.446086E-11
       288  11 -7.535256E+05 -1.433846E+05 -6.419286E+04 -2.680344E+05  1.138255E-10 -2.184125E-10
       288  12 -7.462888E+05 -1.452202E+05 -5.416723E+04 -2.681253E+05  2.225768E-10  1.808380E-11
       288  13 -5.880575E+05 -1.044982E+05 -4.015802E+04 -2.193581E+05  2.995233E-10 -1.957590E-10
       288  14 -5.855273E+05 -7.912422E+04 -1.855977E+04 -2.213346E+05 -1.396114E-09 -3.599486E-11
       288  15 -5.854867E+05 -8.637263E+04 -1.096921E+04 -2.261705E+05 -6.391447E-10  2.975702E-11
       288  16 -4.128018E+05 -3.478901E+04  8.027431E+03 -1.679005E+05  6.876069E-11 -1.124095E-10
       288  17 -4.175019E+05 -1.486201E+04  2.707078E+04 -1.746233E+05 -3.613680E-10 -2.724665E-11
       288  18 -4.246594E+05 -2.752385E+04  3.222661E+04 -1.842061E+05 -3.722082E-10  5.749150E-11
       288  19 -7.632831E+05 -1.742046E+05 -8.834474E+04 -2.708022E+05  2.882994E+04  6.604389E+03
       288  20 -7.535252E+05 -1.433845E+05 -6.419217E+04 -2.680344E+05  1.892479E+04  2.785036E+03
       288  21 -7.462888E+05 -1.452202E+05 -5.416709E+04 -2.681253E+05  8.839710E+03 -5.560201E+02
       288  22 -5.880566E+05 -1.044979E+05 -4.015639E+04 -2.193579E+05  2.873449E+04  6.568774E+03
       288  23 -5.855269E+05 -7.912411E+04 -1.855908E+04 -2.213346E+05  1.897699E+04  2.804771E+03
       288  24 -5.854866E+05 -8.637261E+04 -1.096906E+04 -2.261705E+05  9.039700E+03 -4.808483E+02
       288  25 -4.128009E+05 -3.478874E+04  8.029054E+03 -1.679004E+05  2.863900E+04  6.533147E+03
       288  26 -4.175015E+05 -1.486191E+04  2.707148E+04 -1.746233E+05  1.902920E+04  2.824512E+03
       288  27 -4.246594E+05 -2.752383E+04  3.222677E+04 -1.842061E+05  9.239747E+03 -4.056564E+02
       289   1 -7.191701E+05 -1.405870E+05 -4.521416E+04 -2.618520E+05 -7.227455E+03  8.349763E+02
       289   2 -7.128710E+05 -1.294164E+05 -3.819948E+04 -2.547478E+05 -4.846525E+03  1.353818E+03
       289   3 -6.994007E+05 -1.301799E+05 -3.374815E+04 -2.567349E+05 -2.439030E+03  1.801497E+03
       289   4 -5.844083E+05 -8.935197E+04 -8.687559E+03 -2.247066E+05 -7.320632E+03  7.999229E+02
       289   5 -5.878268E+05 -8.219088E+04 -4.346488E+03 -2.206100E+05 -4.961580E+03  1.310578E+03
       289   6 -5.840696E+05 -8.695891E+04 -2.550966E+03 -2.256047E+05 -2.576009E+03  1.750060E+03
       289   7 -4.496291E+05 -3.811579E+04  2.783742E+04 -1.875539E+05 -7.413830E+03  7.648611E+02
       289   8 -4.627677E+05 -3.496446E+04  2.950507E+04 -1.864661E+05 -5.076662E+03  1.267329E+03
       289   9 -4.687259E+05 -4.373724E+04  2.864498E+04 -1.944694E+05 -2.713015E+03  1.698614E+03
       289  10 -7.191702E+05 -1.405870E+05 -4.521426E+04 -2.618520E+05 -1.597103E-10  2.053925E-10
       289  11 -7.128711E+05 -1.294164E+05 -3.819952E+04 -2.547477E+05  2.278444E-10  3.288095E-11
       289  12 -6.994007E+05 -1.301799E+05 -3.374817E+04 -2.567349E+05 -2.476679E-10 -1.640662E-10
       289  13 -5.844084E+05 -8.935198E+04 -8.687661E+03 -2.247066E+05  2.594107E-10  2.929948E-10
       289  14 -5.878268E+05 -8.219089E+04 -4.346538E+03 -2.206100E+05  7.965811E-10  2.600456E-10
       289  15 -5.840696E+05 -8.695892E+04 -2.550984E+03 -2.256047E+05 -1.312283E-10 -1.074861E-10
       289  16 -4.496291E+05 -3.811580E+04  2.783731E+04 -1.875539E+05 -1.643846E-10  1.373140E-10
       289  17 -4.627677E+05 -3.496447E+04  2.950502E+04 -1.864661E+05  8.866648E-11  1.865557E-10
       289  18 -4.687259E+05 -4.373724E+04  2.864496E+04 -1.944694E+05  1.235627E-10 -8.275379E-11
       289  19 -7.191701E+05 -1.405870E+05 -4.521416E+04 -2.618520E+05  7.227455E+03 -8.349763E+02
       289  20 -7.128710E+05 -1.294164E+05 -3.819948E+04 -2.547478E+05  4.846525E+03 -1.353818E+03
       289  21 -6.994007E+05 -1.301799E+05 -3.374815E+04 -2.567349E+05  2.439030E+03 -1.801497E+03
       289  22 -5.844083E+05 -8.935197E+04 -8.687559E+03 -2.247066E+05  7.320632E+03 -7.999229E+02
       289  23 -5.878268E+05 -8.219088E+04 -4.346488E+03 -2.206100E+05  4.961580E+03 -1.310578E+03
       289  24 -5.840696E+05 -8.695891E+04 -2.550966E+03 -2.256047E+05  2.576009E+03 -1.750060E+03
       289  25 -4.496291E+05 -3.811579E+04  2.783742E+04 -1.875539E+05  7.413830E+03 -7.648611E+02
       289  26 -4.627677E+05 -3.496446E+04  2.950507E+04 -1.864661E+05  5.076662E+03 -1.267329E+03
       289  27 -4.687259E+05 -4.373724E+04  2.864498E+04 -1.944694E+05  2.713015E+03 -1.698614E+03
       290   1 -6.727794E+05 -1.209886E+05 -2.606355E+04 -2.497703E+05 -1.985454E+03  1.695373E+03
       290   2 -6.667117E+05 -1.120519E+05 -2.243653E+04 -2.417490E+05 -1.219722E+03  1.528674E+03
       290   3 -6.517684E+05 -1.127242E+05 -1.939600E+04 -2.440619E+05 -4.476880E+02  1.344912E+03
       290   4 -5.838289E+05 -8.742773E+04 -2.025297E+03 -2.255106E+05 -2.107991E+03  1.649374E+03
       290   5 -5.882474E+05 -8.248471E+04 -1.206977E+03 -2.203956E+05 -1.347535E+03  1.480713E+03
       290   6 -5.837896E+05 -8.714958E+04 -9.709402E+02 -2.256149E+05 -5.807905E+02  1.294987E+03
       290   7 -4.948707E+05 -5.386635E+04  2.201230E+04 -2.012477E+05 -2.230549E+03  1.603368E+03
       290   8 -5.097771E+05 -5.291716E+04  2.002205E+04 -1.990398E+05 -1.475367E+03  1.432746E+03
       290   9 -5.158063E+05 -6.157473E+04  1.745371E+04 -2.071660E+05 -7.139091E+02  1.245057E+03
       290  10 -6.727794E+05 -1.209886E+05 -2.606356E+04 -2.497703E+05  6.778478E-11 -2.106338E-10
       290  11 -6.667117E+05 -1.120519E+05 -2.243654E+04 -2.417490E+05 -1.954285E-11 -3.165364E-10
       290  12 -6.517684E+05 -1.127242E+05 -1.939600E+04 -2.440619E+05  2.279710E-10 -6.719333E-11
       290  13 -5.838289E+05 -8.742773E+04 -2.025310E+03 -2.255106E+05  1.704785E-10 -6.250868E-11
       290  14 -5.882474E+05 -8.248471E+04 -1.206985E+03 -2.203956E+05 -6.276443E-11 -1.253443E-10
       290  15 -5.837896E+05 -8.714958E+04 -9.709440E+02 -2.256149E+05 -1.006935E-10 -2.341435E-11
       290  16 -4.948708E+05 -5.386636E+04  2.201228E+04 -2.012477E+05  1.043922E-10 -2.340290E-10
       290  17 -5.097771E+05 -5.291716E+04  2.002204E+04 -1.990398E+05 -8.985034E-12 -2.575852E-10
       290  18 -5.158063E+05 -6.157473E+04  1.745370E+04 -2.071660E+05  6.726079E-11  9.958374E-11
       290  19 -6.727794E+05 -1.209886E+05 -2.606355E+04 -2.497703E+05  1.985454E+03 -1.695373E+03
       290  20 -6.667117E+05 -1.120519E+05 -2.243653E+04 -2.417490E+05  1.219722E+03 -1.528674E+03
       290  21 -6.517684E+05 -1.127242E+05 -1.939600E+04 -2.440619E+05  4.476880E+02 -1.344912E+03
       290  22 -5.838289E+05 -8.742773E+04 -2.025297E+03 -2.255106E+05  2.107991E+03 -1.649374E+03
       290  23 -5.882474E+05 -8.248471E+04 -1.206977E+03 -2.203956E+05  1.347535E+03 -1.480713E+03
       290  24 -5.837896E+05 -8.714958E+04 -9.709402E+02 -2.256149E+05  5.807905E+02 -1.294987E+03
       290  25 -4.948707E+05 -5.386635E+04  2.201230E+04 -2.012477E+05  2.230549E+03 -1.603368E+03
       290  26 -5.097771E+05 -5.291716E+04  2.002205E+04 -1.990398E+05  1.475367E+03 -1.432746E+03
       290  27 -5.158063E+05 -6.157473E+04  1.745371E+04 -2.071660E+05  7.139091E+02 -1.245057E+03
       291   1 -6.244196E+05 -1.025639E+05 -1.194314E+04 -2.367870E+05 -1.969267E+02  1.159025E+03
       291   2 -6.182070E+05 -9.366541E+04 -9.284347E+03 -2.284359E+05  5.673598E+02  9.685124E+02
       291   3 -6.028799E+05 -9.462770E+04 -7.208253E+03 -2.307224E+05  1.332115E+03  7.766462E+02
       291   4 -5.837363E+05 -8.720965E+04 -9.711013E+02 -2.256804E+05 -3.281918E+02  1.109800E+03
       291   5 -5.883122E+05 -8.241194E+04 -1.198269E+03 -2.203119E+05  4.356987E+02  9.191468E+02
       291   6 -5.837738E+05 -8.747491E+04 -2.007805E+03 -2.255811E+05  1.200047E+03  7.271354E+02
       291   7 -5.430514E+05 -7.185534E+04  1.000077E+04 -2.145732E+05 -4.594661E+02  1.060572E+03
       291   8 -5.584165E+05 -7.115842E+04  6.887729E+03 -2.121875E+05  3.040305E+02  8.697785E+02
       291   9 -5.646673E+05 -8.032209E+04  3.192620E+03 -2.204396E+05  1.067975E+03  6.776229E+02
       291  10 -6.244196E+05 -1.025639E+05 -1.194314E+04 -2.367870E+05 -7.496172E-11  4.905297E-11
       291  11 -6.182070E+05 -9.366541E+04 -9.284350E+03 -2.284359E+05  3.834922E-10  5.178299E-12
       291  12 -6.028799E+05 -9.462770E+04 -7.208258E+03 -2.307224E+05 -1.337352E-11  7.475337E-11
       291  13 -5.837363E+05 -8.720965E+04 -9.711038E+02 -2.256804E+05 -1.131504E-10  6.007598E-11
       291  14 -5.883122E+05 -8.241194E+04 -1.198271E+03 -2.203119E+05 -7.503708E-11  1.029238E-11
       291  15 -5.837738E+05 -8.747491E+04 -2.007808E+03 -2.255811E+05 -7.751925E-11 -7.631415E-11
       291  16 -5.430514E+05 -7.185535E+04  1.000077E+04 -2.145732E+05 -2.308441E-10 -5.437604E-11
       291  17 -5.584165E+05 -7.115842E+04  6.887728E+03 -2.121875E+05 -5.457497E-10 -8.768330E-11
       291  18 -5.646673E+05 -8.032209E+04  3.192617E+03 -2.204396E+05 -2.196563E-11 -9.797223E-11
       291  19 -6.244196E+05 -1.025639E+05 -1.194314E+04 -2.367870E+05  1.969267E+02 -1.159025E+03
       291  20 -6.182070E+05 -9.366541E+04 -9.284347E+03 -2.284359E+05 -5.673598E+02 -9.685124E+02
       291  21 -6.028799E+05 -9.462770E+04 -7.208253E+03 -2.307224E+05 -1.332115E+03 -7.766462E+02
       291  22 -5.837363E+05 -8.720965E+04 -9.711013E+02 -2.256804E+05  3.281918E+02 -1.109800E+03
       291  23 -5.883122E+05 -8.241194E+04 -1.198269E+03 -2.203119E+05 -4.356987E+02 -9.191468E+02
       291  24 -5.837738E+05 -8.747491E+04 -2.007805E+03 -2.255811E+05 -1.200047E+03 -7.271354E+02
       291  25 -5.430514E+05 -7.185534E+04  1.000077E+04 -2.145732E+05  4.594661E+02 -1.060572E+03
       291  26 -5.584165E+05 -7.115842E+04  6.887729E+03 -2.121875E+05 -3.040305E+02 -8.697785E+02
       291  27 -5.646673E+05 -8.032209E+04  3.192620E+03 -2.204396E+05 -1.067975E+03 -6.776229E+02
       292   1 -5.751484E+05 -8.406499E+04 -1.668264E+02 -2.236749E+05  1.808334E+03  6.671205E+02
       292   2 -5.686537E+05 -7.459748E+04  9.542622E+02 -2.150047E+05  4.170281E+03  1.067843E+03
       292   3 -5.542710E+05 -7.778631E+04 -4.496423E+02 -2.163308E+05  6.519248E+03  1.503311E+03
       292   4 -5.839102E+05 -8.712674E+04 -2.530821E+03 -2.258021E+05  1.669234E+03  6.149755E+02
       292   5 -5.880198E+05 -8.197837E+04 -4.300810E+03 -2.203614E+05  4.042032E+03  1.019759E+03
       292   6 -5.842435E+05 -8.948857E+04 -8.604452E+03 -2.249172E+05  6.401806E+03  1.459270E+03
       292   7 -5.926719E+05 -9.018850E+04 -4.894822E+03 -2.279292E+05  1.530136E+03  5.628312E+02
       292   8 -6.073855E+05 -8.935923E+04 -9.555911E+03 -2.257180E+05  3.913788E+03  9.716774E+02
       292   9 -6.142151E+05 -1.011907E+05 -1.675933E+04 -2.335032E+05  6.284372E+03  1.415233E+03
       292  10 -5.751484E+05 -8.406499E+04 -1.668334E+02 -2.236749E+05  2.023708E-10  3.292371E-10
       292  11 -5.686538E+05 -7.459748E+04  9.542274E+02 -2.150047E+05  2.079078E-10  4.512474E-10
       292  12 -5.542711E+05 -7.778633E+04 -4.497265E+02 -2.163308E+05 -5.032338E-10  1.018555E-10
       292  13 -5.839102E+05 -8.712674E+04 -2.530827E+03 -2.258021E+05  5.074304E-10 -7.265641E-12
       292  14 -5.880198E+05 -8.197837E+04 -4.300843E+03 -2.203614E+05  6.783621E-10  2.021499E-10
       292  15 -5.842436E+05 -8.948858E+04 -8.604533E+03 -2.249172E+05  5.121343E-10 -5.555672E-11
       292  16 -5.926719E+05 -9.018850E+04 -4.894827E+03 -2.279292E+05  3.255175E-10  6.367320E-11
       292  17 -6.073855E+05 -8.935923E+04 -9.555942E+03 -2.257180E+05 -7.074560E-11  3.087558E-10
       292  18 -6.142152E+05 -1.011907E+05 -1.675941E+04 -2.335032E+05 -7.249947E-10 -4.860138E-11
       292  19 -5.751484E+05 -8.406499E+04 -1.668264E+02 -2.236749E+05 -1.808334E+03 -6.671205E+02
       292  20 -5.686537E+05 -7.459748E+04  9.542622E+02 -2.150047E+05 -4.170281E+03 -1.067843E+03
       292  21 -5.542710E+05 -7.778631E+04 -4.496423E+02 -2.163308E+05 -6.519248E+03 -1.503311E+03
       292  22 -5.839102E+05 -8.712674E+04 -2.530821E+03 -2.258021E+05 -1.669234E+03 -6.149755E+02
       292  23 -5.880198E+05 -8.197837E+04 -4.300810E+03 -2.203614E+05 -4.042032E+03 -1.019759E+03
       292  24 -5.842435E+05 -8.948857E+04 -8.604452E+03 -2.249172E+05 -6.401806E+03 -1.459270E+03
       292  25 -5.926719E+05 -9.018850E+04 -4.894822E+03 -2.279292E+05 -1.530136E+03 -5.628312E+02
       292  26 -6.073855E+05 -8.935923E+04 -9.555911E+03 -2.257180E+05 -3.913788E+03 -9.716774E+02
       292  27 -6.142151E+05 -1.011907E+05 -1.675933E+04 -2.335032E+05 -6.284372E+03 -1.415233E+03
       293   1 -5.262466E+05 -6.621002E+04  4.774654E+03 -2.122834E+05  8.288500E+03  1.839639E+03
       293   2 -5.182225E+05 -5.245512E+04  9.149073E+01 -2.016248E+05  1.805595E+04  5.008938E+03
       293   3 -5.114101E+05 -7.231516E+04 -1.840828E+04 -1.953594E+05  2.771630E+04  8.464961E+03
       293   4 -5.852134E+05 -8.664661E+04 -1.086573E+04 -2.264859E+05  8.106912E+03  1.771572E+03
       293   5 -5.858647E+05 -7.880535E+04 -1.837100E+04 -2.209238E+05  1.796341E+04  4.974185E+03
       293   6 -5.877467E+05 -1.045987E+05 -3.976480E+04 -2.197550E+05  2.771264E+04  8.463377E+03
       293   7 -6.441770E+05 -1.070832E+05 -2.650644E+04 -2.406873E+05  7.925342E+03  1.703510E+03
       293   8 -6.535025E+05 -1.051553E+05 -3.683392E+04 -2.402209E+05  1.787087E+04  4.939436E+03
       293   9 -6.640777E+05 -1.368815E+05 -6.112187E+04 -2.441478E+05  2.770898E+04  8.461793E+03
       293  10 -5.262467E+05 -6.621004E+04  4.774518E+03 -2.122834E+05 -9.414372E-10 -9.596547E-11
       293  11 -5.182229E+05 -5.245524E+04  9.083030E+01 -2.016249E+05  8.214590E-10  1.358765E-10
       293  12 -5.114109E+05 -7.231544E+04 -1.840986E+04 -1.953596E+05  3.333078E-10  7.352977E-11
       293  13 -5.852135E+05 -8.664663E+04 -1.086586E+04 -2.264859E+05  5.413819E-10 -7.539410E-11
       293  14 -5.858650E+05 -7.880547E+04 -1.837165E+04 -2.209239E+05  9.575576E-10  2.026387E-10
       293  15 -5.877476E+05 -1.045990E+05 -3.976638E+04 -2.197552E+05  2.331603E-10  3.703385E-11
       293  16 -6.441770E+05 -1.070832E+05 -2.650656E+04 -2.406873E+05 -3.862656E-10  2.278133E-11
       293  17 -6.535029E+05 -1.051554E+05 -3.683457E+04 -2.402210E+05  1.226086E-10  4.497118E-10
       293  18 -6.640786E+05 -1.368818E+05 -6.112345E+04 -2.441480E+05  1.237560E-10 -4.577183E-11
       293  19 -5.262466E+05 -6.621002E+04  4.774654E+03 -2.122834E+05 -8.288500E+03 -1.839639E+03
       293  20 -5.182225E+05 -5.245512E+04  9.149073E+01 -2.016248E+05 -1.805595E+04 -5.008938E+03
       293  21 -5.114101E+05 -7.231516E+04 -1.840828E+04 -1.953594E+05 -2.771630E+04 -8.464961E+03
       293  22 -5.852134E+05 -8.664661E+04 -1.086573E+04 -2.264859E+05 -8.106912E+03 -1.771572E+03
       293  23 -5.858647E+05 -7.880535E+04 -1.837100E+04 -2.209238E+05 -1.796341E+04 -4.974185E+03
       293  24 -5.877467E+05 -1.045987E+05 -3.976480E+04 -2.197550E+05 -2.771264E+04 -8.463377E+03
       293  25 -6.441770E+05 -1.070832E+05 -2.650644E+04 -2.406873E+05 -7.925342E+03 -1.703510E+03
       293  26 -6.535025E+05 -1.051553E+05 -3.683392E+04 -2.402209E+05 -1.787087E+04 -4.939436E+03
       293  27 -6.640777E+05 -1.368815E+05 -6.112187E+04 -2.441478E+05 -2.770898E+04 -8.461793E+03
       294   1 -4.792489E+05 -5.293515E+04 -1.995994E+04 -2.138691E+05  3.565657E+04  1.076677E+04
       294   2 -4.608409E+05 -5.974469E+03 -4.674085E+04 -1.874234E+05  7.803301E+04  2.606363E+04
       294   3 -5.078962E+05 -1.504984E+05 -1.549897E+05 -1.235163E+05  1.195119E+05  4.375613E+04
       294   4 -5.940785E+05 -8.314881E+04 -4.847189E+04 -2.316801E+05  3.510884E+04  1.056216E+04
       294   5 -5.708090E+05 -5.488224E+04 -7.789938E+04 -2.250566E+05  7.823041E+04  2.613651E+04
       294   6 -6.131650E+05 -2.182702E+05 -1.893974E+05 -1.809684E+05  1.204546E+05  4.410328E+04
       294   7 -7.088951E+05 -1.133628E+05 -7.698472E+04 -2.494888E+05  3.456121E+04  1.035756E+04
       294   8 -6.807649E+05 -1.037877E+05 -1.090590E+05 -2.626832E+05  7.842777E+04  2.620937E+04
       294   9 -7.184204E+05 -2.860328E+05 -2.238059E+05 -2.384094E+05  1.213971E+05  4.445026E+04
       294  10 -4.792503E+05 -5.293562E+04 -1.996255E+04 -2.138695E+05 -2.929741E-10 -1.155439E-10
       294  11 -4.608477E+05 -5.976835E+03 -4.675358E+04 -1.874250E+05 -4.858494E-10  1.918948E-10
       294  12 -5.079121E+05 -1.505043E+05 -1.550202E+05 -1.235205E+05 -3.125761E-10  1.622981E-10
       294  13 -5.940798E+05 -8.314926E+04 -4.847442E+04 -2.316804E+05  9.796400E-11 -4.274529E-11
       294  14 -5.708157E+05 -5.488462E+04 -7.791218E+04 -2.250582E+05  3.728096E-10  8.998157E-11
       294  15 -6.131811E+05 -2.182762E+05 -1.894284E+05 -1.809727E+05  8.248852E-11  2.565516E-10
       294  16 -7.088964E+05 -1.133633E+05 -7.698717E+04 -2.494891E+05  2.645874E-10  4.022333E-11
       294  17 -6.807717E+05 -1.037901E+05 -1.090719E+05 -2.626849E+05 -1.738403E-10  4.775176E-10
       294  18 -7.184368E+05 -2.860389E+05 -2.238373E+05 -2.384137E+05 -7.181759E-12  2.724157E-10
       294  19 -4.792489E+05 -5.293515E+04 -1.995994E+04 -2.138691E+05 -3.565657E+04 -1.076677E+04
       294  20 -4.608409E+05 -5.974469E+03 -4.674085E+04 -1.874234E+05 -7.803301E+04 -2.606363E+04
       294  21 -5.078962E+05 -1.504984E+05 -1.549897E+05 -1.235163E+05 -1.195119E+05 -4.375613E+04
       294  22 -5.940785E+05 -8.314881E+04 -4.847189E+04 -2.316801E+05 -3.510884E+04 -1.056216E+04
       294  23 -5.708090E+05 -5.488224E+04 -7.789938E+04 -2.250566E+05 -7.823041E+04 -2.613651E+04
       294  24 -6.131650E+05 -2.182702E+05 -1.893974E+05 -1.809684E+05 -1.204546E+05 -4.410328E+04
       294  25 -7.088951E+05 -1.133628E+05 -7.698472E+04 -2.494888E+05 -3.456121E+04 -1.035756E+04
       294  26 -6.807649E+05 -1.037877E+05 -1.090590E+05 -2.626832E+05 -7.842777E+04 -2.620937E+04
       294  27 -7.184204E+05 -2.860328E+05 -2.238059E+05 -2.384094E+05 -1.213971E+05 -4.445026E+04
       295   1 -3.870928E+05 -6.336106E+04 -2.346987E+04 -2.988473E+03  1.125809E+05  6.040013E+03
       295   2 -3.542997E+05 -2.096490E+05 -1.053011E+05  8.007417E+03  7.653850E+04  1.729577E+04
       295   3 -2.700909E+05 -1.747216E+05 -1.180569E+05 -4.611854E+04  4.049916E+04  1.451381E+04
       295   4  4.081061E+05  1.351124E+05  1.740107E+05 -3.261876E+04  1.188313E+05  6.038990E+03
       295   5  3.820292E+05 -2.632028E+04  7.499810E+04 -1.390339E+01  7.802769E+04  1.729367E+04
       295   6  4.081297E+05 -5.827671E+03  4.830389E+04 -3.252526E+04  3.723093E+04  1.451545E+04
       295   7  1.203881E+06  3.335418E+05  3.714446E+05 -6.228713E+04  1.250897E+05  6.037374E+03
       295   8  1.118852E+06  1.569686E+05  2.552577E+05 -8.044779E+03  7.951861E+04  1.729154E+04
       295   9  1.086770E+06  1.630328E+05  2.146311E+05 -1.891704E+04  3.395913E+04  1.451695E+04
       295  10 -3.871065E+05 -6.336450E+04 -2.349377E+04 -2.989021E+03  2.526295E-11  7.783183E-11
       295  11 -3.543061E+05 -2.096509E+05 -1.053127E+05  8.006350E+03  3.376277E-10 -6.556031E-11
       295  12 -2.700927E+05 -1.747222E+05 -1.180604E+05 -4.611901E+04 -8.805559E-11  4.184089E-11
       295  13  4.080909E+05  1.351086E+05  1.739841E+05 -3.261933E+04  4.364528E-10 -1.999589E-10
       295  14  3.820226E+05 -2.632223E+04  7.498610E+04 -1.498992E+01  3.174472E-10 -1.703269E-10
       295  15  4.081282E+05 -5.828269E+03  4.830089E+04 -3.252570E+04  3.556512E-10  2.977636E-10
       295  16  1.203864E+06  3.335376E+05  3.714151E+05 -6.228774E+04 -1.760602E-11  1.958478E-10
       295  17  1.118845E+06  1.569666E+05  2.552453E+05 -8.045886E+03 -9.071970E-10 -1.100793E-10
       295  18  1.086768E+06  1.630323E+05  2.146285E+05 -1.891743E+04 -3.803180E-10  2.973726E-10
       295  19 -3.870928E+05 -6.336106E+04 -2.346987E+04 -2.988473E+03 -1.125809E+05 -6.040013E+03
       295  20 -3.542997E+05 -2.096490E+05 -1.053011E+05  8.007417E+03 -7.653850E+04 -1.729577E+04
       295  21 -2.700909E+05 -1.747216E+05 -1.180569E+05 -4.611854E+04 -4.049916E+04 -1.451381E+04
       295  22  4.081061E+05  1.351124E+05  1.740107E+05 -3.261876E+04 -1.188313E+05 -6.038990E+03
       295  23  3.820292E+05 -2.632028E+04  7.499810E+04 -1.390339E+01 -7.802769E+04 -1.729367E+04
       295  24  4.081297E+05 -5.827671E+03  4.830389E+04 -3.252526E+04 -3.723093E+04 -1.451545E+04
       295  25  1.203881E+06  3.335418E+05  3.714446E+05 -6.228713E+04 -1.250897E+05 -6.037374E+03
       295  26  1.118852E+06  1.569686E+05  2.552577E+05 -8.044779E+03 -7.951861E+04 -1.729154E+04
       295  27  1.086770E+06  1.630328E+05  2.146311E+05 -1.891704E+04 -3.395913E+04 -1.451695E+04
       296   1 -1.482111E+05 -1.185884E+05 -9.445242E+04 -2.811236E+04  2.935819E+04  1.119658E+04
       296   2 -9.551317E+04 -1.254933E+05 -1.006337E+05  8.241988E+02  1.975148E+04  1.065081E+04
       296   3 -3.520219E+04 -1.085993E+05 -9.452433E+04 -3.340800E+04  1.013972E+04  8.576654E+03
       296   4  3.982882E+05  1.753733E+04  3.970178E+04 -3.210142E+04  2.944594E+04  1.119570E+04
       296   5  3.944438E+05 -3.484707E+03  1.950257E+04 -5.272029E+02  1.931774E+04  1.065079E+04
       296   6  3.982928E+05 -6.278346E+02  1.194802E+04 -3.211837E+04  9.185361E+03  8.577960E+03
       296   7  9.450595E+05  1.536410E+05  1.738341E+05 -3.609392E+04  2.953374E+04  1.119482E+04
       296   8  8.846194E+05  1.185061E+05  1.396212E+05 -1.879604E+03  1.888366E+04  1.065078E+04
       296   9  8.319588E+05  1.073297E+05  1.184066E+05 -3.082776E+04  8.230338E+03  8.579261E+03
       296  10 -1.482121E+05 -1.185888E+05 -9.445427E+04 -2.811262E+04  2.861469E-10  7.027505E-11
       296  11 -9.551362E+04 -1.254935E+05 -1.006346E+05  8.240293E+02  5.029413E-10 -3.235983E-10
       296  12 -3.520232E+04 -1.085994E+05 -9.452466E+04 -3.340807E+04 -3.027019E-10  1.027785E-09
       296  13  3.982872E+05  1.753697E+04  3.969992E+04 -3.210168E+04  2.838431E-11  4.717490E-10
       296  14  3.944434E+05 -3.484929E+03  1.950166E+04 -5.273686E+02 -1.951871E-10 -1.471459E-09
       296  15  3.982927E+05 -6.279363E+02  1.194772E+04 -3.211843E+04 -2.485456E-10  7.445746E-10
       296  16  9.450585E+05  1.536406E+05  1.738322E+05 -3.609419E+04 -1.916578E-10 -1.283877E-10
       296  17  8.846189E+05  1.185059E+05  1.396203E+05 -1.879766E+03 -4.904318E-10 -5.682115E-10
       296  18  8.319587E+05  1.073296E+05  1.184063E+05 -3.082782E+04 -2.047237E-10  3.496187E-10
       296  19 -1.482111E+05 -1.185884E+05 -9.445242E+04 -2.811236E+04 -2.935819E+04 -1.119658E+04
       296  20 -9.551317E+04 -1.254933E+05 -1.006337E+05  8.241988E+02 -1.975148E+04 -1.065081E+04
       296  21 -3.520219E+04 -1.085993E+05 -9.452433E+04 -3.340800E+04 -1.013972E+04 -8.576654E+03
       296  22  3.982882E+05  1.753733E+04  3.970178E+04 -3.210142E+04 -2.944594E+04 -1.119570E+04
       296  23  3.944438E+05 -3.484707E+03  1.950257E+04 -5.272029E+02 -1.931774E+04 -1.065079E+04
       296  24  3.982928E+05 -6.278346E+02  1.194802E+04 -3.211837E+04 -9.185361E+03 -8.577960E+03
       296  25  9.450595E+05  1.536410E+05  1.738341E+05 -3.609392E+04 -2.953374E+04 -1.119482E+04
       296  26  8.846194E+05  1.185061E+05  1.396212E+05 -1.879604E+03 -1.888366E+04 -1.065078E+04
       296  27  8.319588E+05  1.073297E+05  1.184066E+05 -3.082776E+04 -8.230338E+03 -8.579261E+03
       297   1  9.181685E+04 -7.359315E+04 -6.519802E+04 -3.100318E+04  7.849847E+03  7.183016E+03
       297   2  1.467369E+05 -6.260609E+04 -5.612667E+04 -3.926161E+02  5.326240E+03  5.360984E+03
       297   3  2.026439E+05 -4.831518E+04 -4.462247E+04 -3.174744E+04  2.800702E+03  3.382817E+03
       297   4  3.968328E+05  2.329302E+03  9.462117E+03 -3.184197E+04  7.264426E+03  7.183915E+03
       297   5  3.963369E+05 -4.577066E+02  5.080255E+03 -8.622831E+02  4.687175E+03  5.362207E+03
       297   6  3.968337E+05  6.788527E+01  3.167721E+03 -3.184641E+04  2.108215E+03  3.384399E+03
       297   7  7.019335E+05  7.824487E+04  8.411545E+04 -3.268112E+04  6.678719E+03  7.184815E+03
       297   8  6.459936E+05  6.168606E+04  6.628261E+04 -1.332109E+03  4.047853E+03  5.363430E+03
       297   9  5.910578E+05  4.844814E+04  5.095513E+04 -3.194538E+04  1.415512E+03  3.385981E+03
       297  10  9.181677E+04 -7.359322E+04 -6.519824E+04 -3.100323E+04  9.762855E-10  1.655524E-10
       297  11  1.467369E+05 -6.260613E+04 -5.612677E+04 -3.926391E+02 -3.998457E-10  1.625945E-11
       297  12  2.026439E+05 -4.831519E+04 -4.462250E+04 -3.174745E+04 -7.639245E-10 -8.308288E-10
       297  13  3.968327E+05  2.329233E+03  9.461921E+03 -3.184201E+04 -1.550743E-09  3.428336E-10
       297  14  3.963369E+05 -4.577434E+02  5.080160E+03 -8.623033E+02 -1.212648E-09  6.539434E-10
       297  15  3.968337E+05  6.787177E+01  3.167691E+03 -3.184641E+04  3.774897E-10  2.082744E-09
       297  16  7.019334E+05  7.824480E+04  8.411527E+04 -3.268116E+04 -1.017879E-09  2.108355E-10
       297  17  6.459935E+05  6.168602E+04  6.628252E+04 -1.332126E+03 -7.956579E-10 -1.800218E-09
       297  18  5.910578E+05  4.844813E+04  5.095510E+04 -3.194539E+04 -2.818419E-10 -2.693901E-10
       297  19  9.181685E+04 -7.359315E+04 -6.519802E+04 -3.100318E+04 -7.849847E+03 -7.183016E+03
       297  20  1.467369E+05 -6.260609E+04 -5.612667E+04 -3.926161E+02 -5.326240E+03 -5.360984E+03
       297  21  2.026439E+05 -4.831518E+04 -4.462247E+04 -3.174744E+04 -2.800702E+03 -3.382817E+03
       297  22  3.968328E+05  2.329302E+03  9.462117E+03 -3.184197E+04 -7.264426E+03 -7.183915E+03
       297  23  3.963369E+05 -4.577066E+02  5.080255E+03 -8.622831E+02 -4.687175E+03 -5.362207E+03
       297  24  3.968337E+05  6.788527E+01  3.167721E+03 -3.184641E+04 -2.108215E+03 -3.384399E+03
       297  25  7.019335E+05  7.824487E+04  8.411545E+04 -3.268112E+04 -6.678719E+03 -7.184815E+03
       297  26  6.459936E+05  6.168606E+04  6.628261E+04 -1.332109E+03 -4.047853E+03 -5.363430E+03
       297  27  5.910578E+05  4.844814E+04  5.095513E+04 -3.194538E+04 -1.415512E+03 -3.385981E+03
       298   1  3.292173E+05 -1.632534E+04 -1.378767E+04 -3.158703E+04  2.240844E+03  2.212597E+03
       298   2  3.842905E+05 -3.138137E+03 -1.262671E+03 -9.560198E+02  1.360372E+03  2.633983E+02
       298   3  4.392907E+05  1.077694E+04  1.193917E+04 -3.185977E+04  4.797289E+02 -1.701584E+03
       298   4  3.966070E+05  4.189183E+02  2.567917E+03 -3.174912E+04  1.587642E+03  2.214180E+03
       298   5  3.966441E+05 -6.265448E+01  1.766061E+03 -9.820700E+02  7.017697E+02  2.650017E+02
       298   6  3.966071E+05  1.849865E+02  1.645134E+03 -3.174969E+04 -1.841968E+02 -1.699951E+03
       298   7  4.640008E+05  1.716284E+04  1.892317E+04 -3.191123E+04  9.343693E+02  2.215764E+03
       298   8  4.089979E+05  3.012817E+03  4.794784E+03 -1.008121E+03  4.315409E+01  2.666051E+02
       298   9  3.539252E+05 -1.040710E+04 -8.649029E+03 -3.163962E+04 -8.480771E+02 -1.698318E+03
       298  10  3.292173E+05 -1.632535E+04 -1.378768E+04 -3.158703E+04  1.658465E-09  2.713721E-10
       298  11  3.842905E+05 -3.138138E+03 -1.262674E+03 -9.560201E+02  4.740935E-10 -8.184032E-11
       298  12  4.392907E+05  1.077694E+04  1.193916E+04 -3.185977E+04 -1.901666E-10 -2.881045E-10
       298  13  3.966070E+05  4.189123E+02  2.567903E+03 -3.174912E+04 -1.461389E-09 -1.577416E-09
       298  14  3.966441E+05 -6.265469E+01  1.766060E+03 -9.820702E+02 -1.785588E-10  2.724594E-10
       298  15  3.966071E+05  1.849834E+02  1.645128E+03 -3.174969E+04  8.218718E-10 -1.323078E-09
       298  16  4.640008E+05  1.716284E+04  1.892316E+04 -3.191123E+04 -5.915781E-10  9.511152E-10
       298  17  4.089979E+05  3.012817E+03  4.794783E+03 -1.008121E+03 -4.011233E-10 -8.409038E-10
       298  18  3.539252E+05 -1.040711E+04 -8.649035E+03 -3.163962E+04 -8.538085E-10 -2.289521E-09
       298  19  3.292173E+05 -1.632534E+04 -1.378767E+04 -3.158703E+04 -2.240844E+03 -2.212597E+03
       298  20  3.842905E+05 -3.138137E+03 -1.262671E+03 -9.560198E+02 -1.360372E+03 -2.633983E+02
       298  21  4.392907E+05  1.077694E+04  1.193917E+04 -3.185977E+04 -4.797289E+02  1.701584E+03
       298  22  3.966070E+05  4.189183E+02  2.567917E+03 -3.174912E+04 -1.587642E+03 -2.214180E+03
       298  23  3.966441E+05 -6.265448E+01  1.766061E+03 -9.820700E+02 -7.017697E+02 -2.650017E+02
       298  24  3.966071E+05  1.849865E+02  1.645134E+03 -3.174969E+04  1.841968E+02  1.699951E+03
       298  25  4.640008E+05  1.716284E+04  1.892317E+04 -3.191123E+04 -9.343693E+02 -2.215764E+03
       298  26  4.089979E+05  3.012817E+03  4.794784E+03 -1.008121E+03 -4.315409E+01 -2.666051E+02
       298  27  3.539252E+05 -1.040710E+04 -8.649029E+03 -3.163962E+04  8.480771E+02  1.698318E+03
       299   1  5.660811E+05  4.238144E+04  4.347581E+04 -3.208114E+04  1.679115E+02 -2.851378E+03
       299   2  6.213548E+05  5.584735E+04  5.747884E+04 -1.250381E+03 -1.024871E+03 -4.820719E+03
       299   3  6.768110E+05  7.024461E+04  7.244583E+04 -3.230158E+04 -2.216486E+03 -6.783133E+03
       299   4  3.966548E+05  1.719464E+02  1.765753E+03 -3.182725E+04 -4.962660E+02 -2.849823E+03
       299   5  3.965654E+05 -1.076629E+02  2.368692E+03 -8.852041E+02 -1.686379E+03 -4.819383E+03
       299   6  3.966545E+05  5.437821E+02  3.933989E+03 -3.182650E+04 -2.875220E+03 -6.782005E+03
       299   7  2.272546E+05 -4.203968E+04 -3.994642E+04 -3.157341E+04 -1.160263E+03 -2.848269E+03
       299   8  1.718219E+05 -5.606642E+04 -5.274516E+04 -5.201341E+02 -2.347648E+03 -4.818048E+03
       299   9  1.165695E+05 -6.916285E+04 -6.458358E+04 -3.135160E+04 -3.533657E+03 -6.780878E+03
       299  10  5.660811E+05  4.238143E+04  4.347579E+04 -3.208114E+04  3.189730E-10  1.488783E-09
       299  11  6.213548E+05  5.584732E+04  5.747879E+04 -1.250385E+03  2.869461E-10  3.307306E-09
       299  12  6.768110E+05  7.024456E+04  7.244573E+04 -3.230159E+04  9.431551E-10 -2.220436E-09
       299  13  3.966548E+05  1.719376E+02  1.765738E+03 -3.182725E+04 -9.915223E-10  6.322157E-10
       299  14  3.965654E+05 -1.076886E+02  2.368643E+03 -8.852107E+02 -4.713514E-10 -9.995753E-10
       299  15  3.966545E+05  5.437304E+02  3.933887E+03 -3.182652E+04 -7.823841E-10  1.074548E-10
       299  16  2.272546E+05 -4.203969E+04 -3.994644E+04 -3.157341E+04  7.456666E-10  4.340076E-11
       299  17  1.718219E+05 -5.606645E+04 -5.274521E+04 -5.201432E+02  3.656673E-11 -8.183005E-10
       299  18  1.165694E+05 -6.916290E+04 -6.458369E+04 -3.135162E+04 -1.822929E-09 -2.055352E-10
       299  19  5.660811E+05  4.238144E+04  4.347581E+04 -3.208114E+04 -1.679115E+02  2.851378E+03
       299  20  6.213548E+05  5.584735E+04  5.747884E+04 -1.250381E+03  1.024871E+03  4.820719E+03
       299  21  6.768110E+05  7.024461E+04  7.244583E+04 -3.230158E+04  2.216486E+03  6.783133E+03
       299  22  3.966548E+05  1.719464E+02  1.765753E+03 -3.182725E+04  4.962660E+02  2.849823E+03
       299  23  3.965654E+05 -1.076629E+02  2.368692E+03 -8.852041E+02  1.686379E+03  4.819383E+03
       299  24  3.966545E+05  5.437821E+02  3.933989E+03 -3.182650E+04  2.875220E+03  6.782005E+03
       299  25  2.272546E+05 -4.203968E+04 -3.994642E+04 -3.157341E+04  1.160263E+03  2.848269E+03
       299  26  1.718219E+05 -5.606642E+04 -5.274516E+04 -5.201341E+02  2.347648E+03  4.818048E+03
       299  27  1.165695E+05 -6.916285E+04 -6.458358E+04 -3.135160E+04  3.533657E+03  6.780878E+03
       300   1  8.055309E+05  1.016704E+05  1.053113E+05 -3.223487E+04 -2.979501E+03 -7.973418E+03
       300   2  8.608296E+05  1.149066E+05  1.221879E+05 -1.165552E+03 -7.232797E+03 -9.980374E+03
       300   3  9.183250E+05  1.333991E+05  1.432095E+05 -3.311763E+04 -1.148363E+04 -1.180052E+04
       300   4  3.970725E+05 -2.448358E+01  5.012469E+03 -3.208206E+04 -3.686712E+03 -7.972457E+03
       300   5  3.959799E+05 -7.864260E+02  8.244644E+03 -5.679336E+02 -7.874409E+03 -9.979963E+03
       300   6  3.970710E+05  3.698867E+03  1.557865E+04 -3.207811E+04 -1.205926E+04 -1.180060E+04
       300   7 -1.123423E+04 -1.017317E+05 -9.529858E+04 -3.192928E+04 -4.393459E+03 -7.971495E+03
       300   8 -6.867336E+04 -1.164955E+05 -1.057145E+05  2.930565E+01 -8.515540E+03 -9.979554E+03
       300   9 -1.239357E+05 -1.260215E+05 -1.120720E+05 -3.103938E+04 -1.263440E+04 -1.180067E+04
       300  10  8.055309E+05  1.016703E+05  1.053111E+05 -3.223489E+04  1.795104E-10 -2.034161E-09
       300  11  8.608296E+05  1.149065E+05  1.221876E+05 -1.165611E+03  7.058177E-10  1.287897E-09
       300  12  9.183248E+05  1.333989E+05  1.432090E+05 -3.311774E+04 -1.325713E-10  2.921890E-10
       300  13  3.970725E+05 -2.455549E+01  5.012324E+03 -3.208209E+04 -2.066035E-09  1.308944E-10
       300  14  3.959798E+05 -7.865496E+02  8.244340E+03 -5.679968E+02 -5.602381E-10  3.729532E-10
       300  15  3.970708E+05  3.698678E+03  1.557811E+04 -3.207822E+04 -2.163089E-10 -1.108671E-09
       300  16 -1.123427E+04 -1.017318E+05 -9.529874E+04 -3.192931E+04  2.081692E-10  4.044493E-10
       300  17 -6.867346E+04 -1.164956E+05 -1.057148E+05  2.923719E+01 -1.806189E-10  2.346874E-09
       300  18 -1.239359E+05 -1.260217E+05 -1.120726E+05 -3.103950E+04 -6.181868E-10  3.731615E-10
       300  19  8.055309E+05  1.016704E+05  1.053113E+05 -3.223487E+04  2.979501E+03  7.973418E+03
       300  20  8.608296E+05  1.149066E+05  1.221879E+05 -1.165552E+03  7.232797E+03  9.980374E+03
       300  21  9.183250E+05  1.333991E+05  1.432095E+05 -3.311763E+04  1.148363E+04  1.180052E+04
       300  22  3.970725E+05 -2.448358E+01  5.012469E+03 -3.208206E+04  3.686712E+03  7.972457E+03
       300  23  3.959799E+05 -7.864260E+02  8.244644E+03 -5.679336E+02  7.874409E+03  9.979963E+03
       300  24  3.970710E+05  3.698867E+03  1.557865E+04 -3.207811E+04  1.205926E+04  1.180060E+04
       300  25 -1.123423E+04 -1.017317E+05 -9.529858E+04 -3.192928E+04  4.393459E+03  7.971495E+03
       300  26 -6.867336E+04 -1.164955E+05 -1.057145E+05  2.930565E+01  8.515540E+03  9.979554E+03
       300  27 -1.239357E+05 -1.260215E+05 -1.120720E+05 -3.103938E+04  1.263440E+04  1.180067E+04
       301   1  1.052237E+06  1.612708E+05  1.798475E+05 -2.978304E+04 -1.418158E+04 -1.328812E+04
       301   2  1.103720E+06  1.710975E+05  2.063791E+05 -1.506785E+03 -3.157504E+04 -1.544800E+04
       301   3  1.168567E+06  2.202757E+05  2.543146E+05 -3.820372E+04 -4.896699E+04 -1.568154E+04
       301   4  3.994853E+05 -1.194001E+03  1.970735E+04 -3.251218E+04 -1.522459E+04 -1.328823E+04
       301   5  3.928514E+05 -5.790764E+03  3.219735E+04 -3.047840E+01 -3.195288E+04 -1.544919E+04
       301   6  3.994781E+05  2.887337E+04  6.564766E+04 -3.252626E+04 -4.867805E+04 -1.568308E+04
       301   7 -2.528788E+05 -1.636903E+05 -1.404641E+05 -3.523838E+04 -1.626650E+04 -1.328832E+04
       301   8 -3.175577E+05 -1.827164E+05 -1.420214E+05  1.444140E+03 -3.233027E+04 -1.545039E+04
       301   9 -3.690733E+05 -1.625726E+05 -1.230626E+05 -2.685589E+04 -4.838943E+04 -1.568462E+04
       301  10  1.052237E+06  1.612705E+05  1.798468E+05 -2.978319E+04 -1.202274E-10  2.258131E-11
       301  11  1.103719E+06  1.710969E+05  2.063768E+05 -1.507178E+03 -4.901824E-10  1.605042E-10
       301  12  1.168565E+06  2.202748E+05  2.543096E+05 -3.820434E+04 -3.701516E-10  8.460436E-10
       301  13  3.994850E+05 -1.194253E+03  1.970659E+04 -3.251234E+04 -1.137878E-09  1.632284E-10
       301  14  3.928503E+05 -5.791294E+03  3.219498E+04 -3.087590E+01 -1.349813E-10 -1.828951E-09
       301  15  3.994755E+05  2.887247E+04  6.564274E+04 -3.252687E+04 -1.006557E-11 -4.085879E-11
       301  16 -2.528792E+05 -1.636906E+05 -1.404649E+05 -3.523855E+04 -1.938760E-10  1.140417E-10
       301  17 -3.175589E+05 -1.827169E+05 -1.420238E+05  1.443738E+03 -6.623427E-10 -7.318362E-10
       301  18 -3.690759E+05 -1.625735E+05 -1.230675E+05 -2.685650E+04  3.749464E-10 -5.741735E-10
       301  19  1.052237E+06  1.612708E+05  1.798475E+05 -2.978304E+04  1.418158E+04  1.328812E+04
       301  20  1.103720E+06  1.710975E+05  2.063791E+05 -1.506785E+03  3.157504E+04  1.544800E+04
       301  21  1.168567E+06  2.202757E+05  2.543146E+05 -3.820372E+04  4.896699E+04  1.568154E+04
       301  22  3.994853E+05 -1.194001E+03  1.970735E+04 -3.251218E+04  1.522459E+04  1.328823E+04
       301  23  3.928514E+05 -5.790764E+03  3.219735E+04 -3.047840E+01  3.195288E+04  1.544919E+04
       301  24  3.994781E+05  2.887337E+04  6.564766E+04 -3.252626E+04  4.867805E+04  1.568308E+04
       301  25 -2.528788E+05 -1.636903E+05 -1.404641E+05 -3.523838E+04  1.626650E+04  1.328832E+04
       301  26 -3.175577E+05 -1.827164E+05 -1.420214E+05  1.444140E+03  3.233027E+04  1.545039E+04
       301  27 -3.690733E+05 -1.625726E+05 -1.230626E+05 -2.685589E+04  4.838943E+04  1.568462E+04
       302   1  1.320949E+06  2.155003E+05  3.016671E+05 -9.381613E+03 -5.757019E+04 -1.964219E+04
       302   2  1.338218E+06  1.966391E+05  3.602711E+05 -1.131212E+04 -1.310951E+05 -2.283326E+04
       302   3  1.443014E+06  4.792037E+05  5.425663E+05 -8.135691E+04 -2.046708E+05 -8.244757E+03
       302   4  4.157153E+05 -9.785778E+03  7.986558E+04 -3.303663E+04 -6.154561E+04 -1.964596E+04
       302   5  3.723993E+05 -4.353047E+04  1.240213E+05  7.187792E+02 -1.289955E+05 -2.283432E+04
       302   6  4.156829E+05  2.233417E+05  2.877873E+05 -3.364053E+04 -1.964881E+05 -8.239363E+03
       302   7 -4.887724E+05 -2.351305E+05 -1.419956E+05 -5.665732E+04 -6.551520E+04 -1.964944E+04
       302   8 -5.925701E+05 -2.837684E+05 -1.122966E+05  1.273055E+04 -1.268990E+05 -2.283529E+04
       302   9 -6.106865E+05 -3.259040E+04  3.293120E+04  1.399637E+04 -1.883186E+05 -8.232719E+03
       302  10  1.320946E+06  2.154990E+05  3.016602E+05 -9.382523E+03  5.036234E-10  1.303723E-09
       302  11  1.338199E+06  1.966340E+05  3.602378E+05 -1.131452E+04  4.113548E-10  2.568693E-10
       302  12  1.442969E+06  4.791924E+05  5.424877E+05 -8.135827E+04  8.949706E-10 -4.338973E-10
       302  13  4.157111E+05 -9.787208E+03  7.985774E+04 -3.303761E+04  2.080404E-10  1.369882E-09
       302  14  3.723813E+05 -4.353550E+04  1.239890E+05  7.164076E+02  7.163273E-10  3.672337E-09
       302  15  4.156414E+05  2.233312E+05  2.877147E+05 -3.364183E+04  8.448820E-10  9.931399E-11
       302  16 -4.887771E+05 -2.351320E+05 -1.420044E+05 -5.665836E+04 -1.107404E-10  3.369401E-10
       302  17 -5.925875E+05 -2.837733E+05 -1.123278E+05  1.272821E+04 -1.389880E-09  9.716707E-10
       302  18 -6.107246E+05 -3.260000E+04  3.286436E+04  1.399512E+04  8.108789E-10 -1.201418E-09
       302  19  1.320949E+06  2.155003E+05  3.016671E+05 -9.381613E+03  5.757019E+04  1.964219E+04
       302  20  1.338218E+06  1.966391E+05  3.602711E+05 -1.131212E+04  1.310951E+05  2.283326E+04
       302  21  1.443014E+06  4.792037E+05  5.425663E+05 -8.135691E+04  2.046708E+05  8.244757E+03
       302  22  4.157153E+05 -9.785778E+03  7.986558E+04 -3.303663E+04  6.154561E+04  1.964596E+04
       302  23  3.723993E+05 -4.353047E+04  1.240213E+05  7.187792E+02  1.289955E+05  2.283432E+04
       302  24  4.156829E+05  2.233417E+05  2.877873E+05 -3.364053E+04  1.964881E+05  8.239363E+03
       302  25 -4.887724E+05 -2.351305E+05 -1.419956E+05 -5.665732E+04  6.551520E+04  1.964944E+04
       302  26 -5.925701E+05 -2.837684E+05 -1.122966E+05  1.273055E+04  1.268990E+05  2.283529E+04
       302  27 -6.106865E+05 -3.259040E+04  3.293120E+04  1.399637E+04  1.883186E+05  8.232719E+03
       303   1  2.219617E+05  6.962595E+05  2.525924E+05 -8.151989E+04  3.104180E+03  9.958452E+04
       303   2  6.569416E+04  5.743830E+05  1.460361E+05 -7.404603E+03  8.352342E+03  6.352741E+04
       303   3  5.723686E+04  4.940262E+05  9.986510E+04 -4.599863E+04  4.483486E+03  2.746117E+04
       303   4  1.094729E+05  2.457833E+05  1.407330E+05 -5.672685E+04  3.112428E+03  9.626037E+04
       303   5 -2.119704E+04  2.252854E+05  6.064740E+04 -4.448243E+02  8.353680E+03  6.329093E+04
       303   6 -4.545248E+03  2.457937E+05  3.883640E+04 -5.687288E+04  4.477726E+03  3.030643E+04
       303   7 -3.028879E+03 -2.045077E+05  2.885874E+04 -3.195172E+04  3.120416E+03  9.293860E+04
       303   8 -1.080971E+05 -1.237012E+05 -2.475015E+04  6.511078E+03  8.355014E+03  6.305458E+04
       303   9 -6.633147E+04 -2.382492E+03 -2.219673E+04 -6.774275E+04  4.471865E+03  3.315054E+04
       303  10  2.219590E+05  6.962489E+05  2.525738E+05 -8.152014E+04  1.646397E-10  3.448732E-10
       303  11  6.569301E+04  5.743787E+05  1.460284E+05 -7.405030E+03  2.599027E-10 -2.187447E-10
       303  12  5.723664E+04  4.940254E+05  9.986364E+04 -4.599873E+04  1.200477E-09 -2.536876E-10
       303  13  1.094704E+05  2.457733E+05  1.407156E+05 -5.672709E+04  8.809468E-10  8.248173E-10
       303  14 -2.119818E+04  2.252811E+05  6.063975E+04 -4.452500E+02 -1.760193E-09  4.747112E-10
       303  15 -4.545516E+03  2.457927E+05  3.883464E+04 -5.687299E+04  2.817638E-10  4.894189E-10
       303  16 -3.031209E+03 -2.045169E+05  2.884249E+04 -3.195195E+04  4.314616E-10 -5.081098E-10
       303  17 -1.080982E+05 -1.237055E+05 -2.475775E+04  6.510653E+03  5.060892E-10  5.854763E-10
       303  18 -6.633179E+04 -2.383677E+03 -2.219883E+04 -6.774287E+04  7.568517E-11 -1.866951E-10
       303  19  2.219617E+05  6.962595E+05  2.525924E+05 -8.151989E+04 -3.104180E+03 -9.958452E+04
       303  20  6.569416E+04  5.743830E+05  1.460361E+05 -7.404603E+03 -8.352342E+03 -6.352741E+04
       303  21  5.723686E+04  4.940262E+05  9.986510E+04 -4.599863E+04 -4.483486E+03 -2.746117E+04
       303  22  1.094729E+05  2.457833E+05  1.407330E+05 -5.672685E+04 -3.112428E+03 -9.626037E+04
       303  23 -2.119704E+04  2.252854E+05  6.064740E+04 -4.448243E+02 -8.353680E+03 -6.329093E+04
       303  24 -4.545248E+03  2.457937E+05  3.883640E+04 -5.687288E+04 -4.477726E+03 -3.030643E+04
       303  25 -3.028879E+03 -2.045077E+05  2.885874E+04 -3.195172E+04 -3.120416E+03 -9.293860E+04
       303  26 -1.080971E+05 -1.237012E+05 -2.475015E+04  6.511078E+03 -8.355014E+03 -6.305458E+04
       303  27 -6.633147E+04 -2.382492E+03 -2.219673E+04 -6.774275E+04 -4.471865E+03 -3.315054E+04
       304   1  1.847364E+04  2.541504E+05  3.571292E+04 -5.973445E+04  7.955327E+02  2.310398E+04
       304   2 -2.376562E+04  1.506739E+05 -5.407952E+03 -1.095076E+03 -1.874286E+03  1.524803E+04
       304   3 -4.684545E+04  5.252749E+04 -3.673041E+04 -5.511004E+04 -4.241450E+03  7.394626E+03
       304   4  1.443064E+04  2.378837E+05  3.182870E+04 -5.678943E+04  7.937728E+02  2.405812E+04
       304   5 -2.718620E+03  2.352151E+05  1.531833E+04 -4.772436E+02 -1.875820E+03  1.610088E+04
       304   6 -6.907884E+02  2.378859E+05  8.678448E+03 -5.681806E+04 -4.242743E+03  8.144938E+03
       304   7  1.038765E+04  2.216173E+05  2.794446E+04 -5.384449E+04  7.920220E+02  2.501223E+04
       304   8  1.832785E+04  3.197628E+05  3.604409E+04  1.406760E+02 -1.877352E+03  1.695385E+04
       304   9  4.546134E+04  4.232755E+05  5.408480E+04 -5.852658E+04 -4.244039E+03  8.895473E+03
       304  10  1.847349E+04  2.541499E+05  3.571192E+04 -5.973446E+04  2.385330E-10 -4.835593E-11
       304  11 -2.376569E+04  1.506737E+05 -5.408396E+03 -1.095053E+03  3.836480E-10 -1.711512E-10
       304  12 -4.684548E+04  5.252743E+04 -3.673055E+04 -5.511001E+04 -1.219597E-10  5.232363E-10
       304  13  1.443048E+04  2.378831E+05  3.182761E+04 -5.678945E+04  1.970307E-10  1.488470E-09
       304  14 -2.718693E+03  2.352148E+05  1.531784E+04 -4.772192E+02  1.256175E-09  5.771846E-10
       304  15 -6.908256E+02  2.378858E+05  8.678290E+03 -5.681804E+04  1.945083E-09  4.664986E-10
       304  16  1.038748E+04  2.216166E+05  2.794329E+04 -5.384451E+04 -4.556390E-10 -2.088696E-10
       304  17  1.832777E+04  3.197625E+05  3.604354E+04  1.407016E+02 -1.672650E-09  6.103135E-10
       304  18  4.546130E+04  4.232754E+05  5.408461E+04 -5.852655E+04  1.995764E-11 -7.794440E-10
       304  19  1.847364E+04  2.541504E+05  3.571292E+04 -5.973445E+04 -7.955327E+02 -2.310398E+04
       304  20 -2.376562E+04  1.506739E+05 -5.407952E+03 -1.095076E+03  1.874286E+03 -1.524803E+04
       304  21 -4.684545E+04  5.252749E+04 -3.673041E+04 -5.511004E+04  4.241450E+03 -7.394626E+03
       304  22  1.443064E+04  2.378837E+05  3.182870E+04 -5.678943E+04 -7.937728E+02 -2.405812E+04
       304  23 -2.718620E+03  2.352151E+05  1.531833E+04 -4.772436E+02  1.875820E+03 -1.610088E+04
       304  24 -6.907884E+02  2.378859E+05  8.678448E+03 -5.681806E+04  4.242743E+03 -8.144938E+03
       304  25  1.038765E+04  2.216173E+05  2.794446E+04 -5.384449E+04 -7.920220E+02 -2.501223E+04
       304  26  1.832785E+04  3.197628E+05  3.604409E+04  1.406760E+02  1.877352E+03 -1.695385E+04
       304  27  4.546134E+04  4.232755E+05  5.408480E+04 -5.852658E+04  4.244039E+03 -8.895473E+03
       305   1 -1.019153E+05 -1.807742E+05 -9.608816E+04 -5.651626E+04 -8.304967E+03  3.392440E+03
       305   2 -1.292087E+05 -2.821497E+05 -1.248856E+05 -7.730470E+01 -1.239824E+04  6.367303E+03
       305   3 -1.567574E+05 -3.836014E+05 -1.556152E+05 -5.675160E+04 -4.538513E+03  9.354632E+03
       305   4  2.112166E+03  2.367907E+05  6.486373E+03 -5.690701E+04 -8.310194E+03  6.776896E+03
       305   5 -8.521204E+01  2.364856E+05  2.069185E+03 -3.555954E+02 -1.239686E+04  5.736851E+03
       305   6 -1.839959E+03  2.367914E+05 -1.490871E+03 -5.691159E+04 -4.534895E+03  4.709831E+03
       305   7  1.061267E+05  6.545144E+05  1.090481E+05 -5.729794E+04 -8.315423E+03  1.016362E+04
       305   8  1.290184E+05  7.553659E+05  1.290043E+05 -6.340494E+02 -1.239547E+04  5.105871E+03
       305   9  1.530486E+05  8.575336E+05  1.526047E+05 -5.707166E+04 -4.531277E+03  6.038718E+01
       305  10 -1.019154E+05 -1.807742E+05 -9.608832E+04 -5.651624E+04  6.177063E-10 -1.729106E-10
       305  11 -1.292089E+05 -2.821498E+05 -1.248860E+05 -7.724110E+01  2.258325E-10 -1.935151E-10
       305  12 -1.567575E+05 -3.836015E+05 -1.556154E+05 -5.675156E+04 -1.959950E-10  1.313867E-10
       305  13  2.112080E+03  2.367907E+05  6.486157E+03 -5.690696E+04 -7.994587E-10  1.351234E-09
       305  14 -8.538592E+01  2.364855E+05  2.068834E+03 -3.555381E+02  2.555732E-10  2.095624E-10
       305  15 -1.839987E+03  2.367913E+05 -1.490952E+03 -5.691157E+04  3.299984E-11  1.865013E-10
       305  16  1.061266E+05  6.545143E+05  1.090478E+05 -5.729787E+04  6.694019E-10 -7.338976E-11
       305  17  1.290182E+05  7.553658E+05  1.290040E+05 -6.339985E+02 -1.714086E-10  4.804903E-10
       305  18  1.530486E+05  8.575336E+05  1.526047E+05 -5.707166E+04 -3.224576E-10 -1.186847E-10
       305  19 -1.019153E+05 -1.807742E+05 -9.608816E+04 -5.651626E+04  8.304967E+03 -3.392440E+03
       305  20 -1.292087E+05 -2.821497E+05 -1.248856E+05 -7.730470E+01  1.239824E+04 -6.367303E+03
       305  21 -1.567574E+05 -3.836014E+05 -1.556152E+05 -5.675160E+04  4.538513E+03 -9.354632E+03
       305  22  2.112166E+03  2.367907E+05  6.486373E+03 -5.690701E+04  8.310194E+03 -6.776896E+03
       305  23 -8.521204E+01  2.364856E+05  2.069185E+03 -3.555954E+02  1.239686E+04 -5.736851E+03
       305  24 -1.839959E+03  2.367914E+05 -1.490871E+03 -5.691159E+04  4.534895E+03 -4.709831E+03
       305  25  1.061267E+05  6.545144E+05  1.090481E+05 -5.729794E+04  8.315423E+03 -1.016362E+04
       305  26  1.290184E+05  7.553659E+05  1.290043E+05 -6.340494E+02  1.239547E+04 -5.105871E+03
       305  27  1.530486E+05  8.575336E+05  1.526047E+05 -5.707166E+04  4.531277E+03 -6.038718E+01
       306   1 -2.031081E+06 -6.113880E+05 -3.968976E+05 -6.961549E+05 -2.023561E+05 -7.336454E+04
       306   2 -1.973233E+06 -3.155830E+05 -2.082622E+05 -7.431498E+05 -1.312464E+05 -4.121959E+04
       306   3 -2.032057E+06 -3.309810E+05 -1.572894E+05 -7.192863E+05 -5.809418E+04 -1.450807E+04
       306   4 -1.764600E+06 -4.640229E+05 -3.144955E+05 -5.758413E+05 -2.000797E+05 -7.252754E+04
       306   5 -1.690494E+06 -1.964627E+05 -1.293251E+05 -6.533928E+05 -1.306484E+05 -4.099840E+04
       306   6 -1.732675E+06 -2.396923E+05 -8.043794E+04 -6.601015E+05 -5.917310E+04 -1.491085E+04
       306   7 -1.498044E+06 -3.166252E+05 -2.321002E+05 -4.554728E+05 -1.978021E+05 -7.168970E+04
       306   8 -1.407677E+06 -7.733230E+04 -5.039567E+04 -5.635969E+05 -1.300500E+05 -4.077707E+04
       306   9 -1.433207E+06 -1.484050E+05 -3.593489E+03 -6.008945E+05 -6.025258E+04 -1.531375E+04
       306  10 -2.031127E+06 -6.114048E+05 -3.969850E+05 -6.961669E+05  3.092859E-10 -6.251095E-11
       306  11 -1.973252E+06 -3.155894E+05 -2.082979E+05 -7.431542E+05 -2.357169E-11  1.881651E-10
       306  12 -2.032061E+06 -3.309821E+05 -1.572962E+05 -7.192870E+05  5.164968E-10 -1.039879E-11
       306  13 -1.764645E+06 -4.640393E+05 -3.145809E+05 -5.758530E+05  6.781727E-11 -2.023591E-10
       306  14 -1.690512E+06 -1.964691E+05 -1.293605E+05 -6.533971E+05 -1.757310E-10 -3.179942E-10
       306  15 -1.732679E+06 -2.396935E+05 -8.044496E+04 -6.601022E+05 -3.256175E-10  5.148836E-11
       306  16 -1.498088E+06 -3.166413E+05 -2.321837E+05 -4.554842E+05  3.953879E-10  7.095681E-11
       306  17 -1.407695E+06 -7.733865E+04 -5.043067E+04 -5.636012E+05 -1.512459E-10 -1.658836E-10
       306  18 -1.433211E+06 -1.484062E+05 -3.600771E+03 -6.008952E+05 -7.913744E-11 -8.748417E-11
       306  19 -2.031081E+06 -6.113880E+05 -3.968976E+05 -6.961549E+05  2.023561E+05  7.336454E+04
       306  20 -1.973233E+06 -3.155830E+05 -2.082622E+05 -7.431498E+05  1.312464E+05  4.121959E+04
       306  21 -2.032057E+06 -3.309810E+05 -1.572894E+05 -7.192863E+05  5.809418E+04  1.450807E+04
       306  22 -1.764600E+06 -4.640229E+05 -3.144955E+05 -5.758413E+05  2.000797E+05  7.252754E+04
       306  23 -1.690494E+06 -1.964627E+05 -1.293251E+05 -6.533928E+05  1.306484E+05  4.099840E+04
       306  24 -1.732675E+06 -2.396923E+05 -8.043794E+04 -6.601015E+05  5.917310E+04  1.491085E+04
       306  25 -1.498044E+06 -3.166252E+05 -2.321002E+05 -4.554728E+05  1.978021E+05  7.168970E+04
       306  26 -1.407677E+06 -7.733230E+04 -5.039567E+04 -5.635969E+05  1.300500E+05  4.077707E+04
       306  27 -1.433207E+06 -1.484050E+05 -3.593489E+03 -6.008945E+05  6.025258E+04  1.531375E+04
       307   1 -1.974051E+06 -3.770901E+05 -1.356440E+05 -7.157574E+05 -4.704581E+04 -1.153545E+04
       307   2 -1.959441E+06 -3.284428E+05 -9.662775E+04 -7.131098E+05 -3.080409E+04 -5.272695E+03
       307   3 -1.951129E+06 -3.313143E+05 -8.082103E+04 -7.127031E+05 -1.429042E+04  2.663973E+02
       307   4 -1.721531E+06 -2.759910E+05 -6.598735E+04 -6.410725E+05 -4.689918E+04 -1.148116E+04
       307   5 -1.716290E+06 -2.353418E+05 -3.048442E+04 -6.455391E+05 -3.087825E+04 -5.300756E+03
       307   6 -1.717297E+06 -2.461573E+05 -1.800836E+04 -6.522480E+05 -1.458570E+04  1.557170E+02
       307   7 -1.468950E+06 -1.748859E+05  3.663503E+03 -5.663593E+05 -4.675249E+04 -1.142683E+04
       307   8 -1.473082E+06 -1.422368E+05  3.565364E+04 -5.779443E+05 -3.095243E+04 -5.328827E+03
       307   9 -1.483412E+06 -1.609981E+05  4.479951E+04 -5.917727E+05 -1.488109E+04  4.499465E+01
       307  10 -1.974053E+06 -3.770908E+05 -1.356484E+05 -7.157578E+05 -2.686566E-10  2.904465E-10
       307  11 -1.959442E+06 -3.284431E+05 -9.662959E+04 -7.131099E+05  3.080495E-10  3.893287E-12
       307  12 -1.951129E+06 -3.313143E+05 -8.082142E+04 -7.127031E+05  1.833898E-10 -2.292293E-11
       307  13 -1.721534E+06 -2.759917E+05 -6.599175E+04 -6.410730E+05  5.193529E-10 -4.717002E-11
       307  14 -1.716291E+06 -2.353421E+05 -3.048627E+04 -6.455392E+05 -4.811312E-11 -1.443249E-10
       307  15 -1.717297E+06 -2.461574E+05 -1.800876E+04 -6.522480E+05  3.229985E-10 -3.252263E-10
       307  16 -1.468952E+06 -1.748866E+05  3.659138E+03 -5.663597E+05 -1.489994E-10 -3.482907E-10
       307  17 -1.473084E+06 -1.422371E+05  3.565178E+04 -5.779444E+05 -5.506026E-10  1.623441E-10
       307  18 -1.483413E+06 -1.609982E+05  4.479910E+04 -5.917727E+05 -2.025009E-10 -9.495964E-11
       307  19 -1.974051E+06 -3.770901E+05 -1.356440E+05 -7.157574E+05  4.704581E+04  1.153545E+04
       307  20 -1.959441E+06 -3.284428E+05 -9.662775E+04 -7.131098E+05  3.080409E+04  5.272695E+03
       307  21 -1.951129E+06 -3.313143E+05 -8.082103E+04 -7.127031E+05  1.429042E+04 -2.663973E+02
       307  22 -1.721531E+06 -2.759910E+05 -6.598735E+04 -6.410725E+05  4.689918E+04  1.148116E+04
       307  23 -1.716290E+06 -2.353418E+05 -3.048442E+04 -6.455391E+05  3.087825E+04  5.300756E+03
       307  24 -1.717297E+06 -2.461573E+05 -1.800836E+04 -6.522480E+05  1.458570E+04 -1.557170E+02
       307  25 -1.468950E+06 -1.748859E+05  3.663503E+03 -5.663593E+05  4.675249E+04  1.142683E+04
       307  26 -1.473082E+06 -1.422368E+05  3.565364E+04 -5.779443E+05  3.095243E+04  5.328827E+03
       307  27 -1.483412E+06 -1.609981E+05  4.479951E+04 -5.917727E+05  1.488109E+04 -4.499465E+01
       308   1 -1.909651E+06 -3.254248E+05 -6.704848E+04 -7.038362E+05 -1.164483E+04  7.759864E+02
       308   2 -1.899539E+06 -3.074226E+05 -5.562798E+04 -6.924840E+05 -7.742020E+03  1.653266E+03
       308   3 -1.878025E+06 -3.086411E+05 -4.842232E+04 -6.956802E+05 -3.784055E+03  2.382456E+03
       308   4 -1.715127E+06 -2.514639E+05 -1.426190E+04 -6.503068E+05 -1.178462E+04  7.235141E+02
       308   5 -1.720553E+06 -2.398857E+05 -7.127481E+03 -6.437699E+05 -7.927143E+03  1.583893E+03
       308   6 -1.714568E+06 -2.475179E+05 -4.170855E+03 -6.517815E+05 -4.014612E+03  2.296159E+03
       308   7 -1.520567E+06 -1.775009E+05  3.852117E+04 -5.967623E+05 -1.192447E+04  6.710237E+02
       308   8 -1.541537E+06 -1.723469E+05  4.137015E+04 -5.950431E+05 -8.112325E+03  1.514498E+03
       308   9 -1.551085E+06 -1.863931E+05  4.007830E+04 -6.078723E+05 -4.245235E+03  2.209838E+03
       308  10 -1.909652E+06 -3.254248E+05 -6.704873E+04 -7.038362E+05 -3.504170E-10 -5.977694E-12
       308  11 -1.899539E+06 -3.074227E+05 -5.562810E+04 -6.924840E+05  3.090611E-10  1.141043E-10
       308  12 -1.878025E+06 -3.086411E+05 -4.842235E+04 -6.956802E+05 -3.423922E-10 -2.003330E-10
       308  13 -1.715128E+06 -2.514640E+05 -1.426217E+04 -6.503068E+05 -1.833162E-10 -4.738919E-10
       308  14 -1.720554E+06 -2.398857E+05 -7.127604E+03 -6.437698E+05 -6.897456E-11 -3.348978E-10
       308  15 -1.714568E+06 -2.475179E+05 -4.170896E+03 -6.517815E+05  2.076817E-10  1.190706E-09
       308  16 -1.520568E+06 -1.775009E+05  3.852090E+04 -5.967623E+05 -1.794765E-10 -1.058522E-09
       308  17 -1.541537E+06 -1.723469E+05  4.137002E+04 -5.950431E+05 -2.778555E-10 -1.318903E-10
       308  18 -1.551085E+06 -1.863931E+05  4.007825E+04 -6.078723E+05 -9.601042E-10 -9.370989E-10
       308  19 -1.909651E+06 -3.254248E+05 -6.704848E+04 -7.038362E+05  1.164483E+04 -7.759864E+02
       308  20 -1.899539E+06 -3.074226E+05 -5.562798E+04 -6.924840E+05  7.742020E+03 -1.653266E+03
       308  21 -1.878025E+06 -3.086411E+05 -4.842232E+04 -6.956802E+05  3.784055E+03 -2.382456E+03
       308  22 -1.715127E+06 -2.514639E+05 -1.426190E+04 -6.503068E+05  1.178462E+04 -7.235141E+02
       308  23 -1.720553E+06 -2.398857E+05 -7.127481E+03 -6.437699E+05  7.927143E+03 -1.583893E+03
       308  24 -1.714568E+06 -2.475179E+05 -4.170855E+03 -6.517815E+05  4.014612E+03 -2.296159E+03
       308  25 -1.520567E+06 -1.775009E+05  3.852117E+04 -5.967623E+05  1.192447E+04 -6.710237E+02
       308  26 -1.541537E+06 -1.723469E+05  4.137015E+04 -5.950431E+05  8.112325E+03 -1.514498E+03
       308  27 -1.551085E+06 -1.863931E+05  4.007830E+04 -6.078723E+05  4.245235E+03 -2.209838E+03
       309   1 -1.833149E+06 -2.934802E+05 -3.554100E+04 -6.843296E+05 -3.042898E+03  2.196174E+03
       309   2 -1.822654E+06 -2.781006E+05 -2.932202E+04 -6.704655E+05 -1.788924E+03  1.895165E+03
       309   3 -1.796838E+06 -2.792379E+05 -2.405754E+04 -6.745039E+05 -5.162669E+02  1.543493E+03
       309   4 -1.713923E+06 -2.485443E+05 -3.304911E+03 -6.519169E+05 -3.247205E+03  2.119738E+03
       309   5 -1.721552E+06 -2.400539E+05 -1.946433E+03 -6.430528E+05 -2.008934E+03  1.812898E+03
       309   6 -1.713857E+06 -2.480770E+05 -1.529789E+03 -6.520913E+05 -7.520147E+02  1.455389E+03
       309   7 -1.594683E+06 -2.036077E+05  2.892991E+04 -6.194986E+05 -3.451555E+03  2.043285E+03
       309   8 -1.620440E+06 -2.020067E+05  2.542821E+04 -6.156362E+05 -2.228983E+03  1.730616E+03
       309   9 -1.630869E+06 -2.169157E+05  2.099730E+04 -6.296759E+05 -9.877969E+02  1.367272E+03
       309  10 -1.833149E+06 -2.934802E+05 -3.554103E+04 -6.843296E+05 -5.259166E-10 -3.738165E-10
       309  11 -1.822654E+06 -2.781006E+05 -2.932203E+04 -6.704655E+05  2.962629E-11  7.973866E-10
       309  12 -1.796838E+06 -2.792379E+05 -2.405754E+04 -6.745039E+05  9.988789E-11  3.038921E-10
       309  13 -1.713923E+06 -2.485443E+05 -3.304939E+03 -6.519169E+05 -1.214979E-09  1.119452E-10
       309  14 -1.721552E+06 -2.400539E+05 -1.946447E+03 -6.430528E+05 -1.395596E-09 -4.343870E-10
       309  15 -1.713857E+06 -2.480770E+05 -1.529794E+03 -6.520913E+05  2.106927E-10  1.802330E-10
       309  16 -1.594683E+06 -2.036077E+05  2.892988E+04 -6.194986E+05 -3.304538E-10  1.478963E-10
       309  17 -1.620440E+06 -2.020067E+05  2.542820E+04 -6.156362E+05 -2.489382E-10  8.088282E-10
       309  18 -1.630869E+06 -2.169157E+05  2.099730E+04 -6.296759E+05 -1.294040E-10  9.278126E-10
       309  19 -1.833149E+06 -2.934802E+05 -3.554100E+04 -6.843296E+05  3.042898E+03 -2.196174E+03
       309  20 -1.822654E+06 -2.781006E+05 -2.932202E+04 -6.704655E+05  1.788924E+03 -1.895165E+03
       309  21 -1.796838E+06 -2.792379E+05 -2.405754E+04 -6.745039E+05  5.162669E+02 -1.543493E+03
       309  22 -1.713923E+06 -2.485443E+05 -3.304911E+03 -6.519169E+05  3.247205E+03 -2.119738E+03
       309  23 -1.721552E+06 -2.400539E+05 -1.946433E+03 -6.430528E+05  2.008934E+03 -1.812898E+03
       309  24 -1.713857E+06 -2.480770E+05 -1.529789E+03 -6.520913E+05  7.520147E+02 -1.455389E+03
       309  25 -1.594683E+06 -2.036077E+05  2.892991E+04 -6.194986E+05  3.451555E+03 -2.043285E+03
       309  26 -1.620440E+06 -2.020067E+05  2.542821E+04 -6.156362E+05  2.228983E+03 -1.730616E+03
       309  27 -1.630869E+06 -2.169157E+05  2.099730E+04 -6.296759E+05  9.877969E+02 -1.367272E+03
       310   1 -1.748588E+06 -2.614415E+05 -1.090017E+04 -6.618149E+05 -1.069615E+02  1.200550E+03
       310   2 -1.737609E+06 -2.457838E+05 -6.106774E+03 -6.470724E+05  1.090862E+03  8.080173E+02
       310   3 -1.710511E+06 -2.473854E+05 -2.200443E+03 -6.511904E+05  2.288922E+03  4.148574E+02
       310   4 -1.713682E+06 -2.482684E+05 -1.511337E+03 -6.522938E+05 -3.382191E+02  1.114145E+03
       310   5 -1.721769E+06 -2.398354E+05 -1.820237E+03 -6.427901E+05  8.594269E+02  7.215516E+02
       310   6 -1.713738E+06 -2.486617E+05 -3.016124E+03 -6.521472E+05  2.057278E+03  3.283205E+02
       310   7 -1.678775E+06 -2.350952E+05  7.877403E+03 -6.427722E+05 -5.694915E+02  1.027734E+03
       310   8 -1.705929E+06 -2.338869E+05  2.466282E+03 -6.385078E+05  6.279856E+02  6.350834E+02
       310   9 -1.716965E+06 -2.499380E+05 -3.831806E+03 -6.531041E+05  1.825635E+03  2.417842E+02
       310  10 -1.748588E+06 -2.614415E+05 -1.090017E+04 -6.618149E+05 -3.112708E-10  1.222283E-09
       310  11 -1.737609E+06 -2.457838E+05 -6.106778E+03 -6.470724E+05  1.330924E-09  2.016202E-09
       310  12 -1.710511E+06 -2.473854E+05 -2.200453E+03 -6.511904E+05  8.817083E-10 -1.063285E-09
       310  13 -1.713682E+06 -2.482684E+05 -1.511340E+03 -6.522938E+05 -4.688161E-10 -2.771163E-10
       310  14 -1.721769E+06 -2.398354E+05 -1.820240E+03 -6.427901E+05 -3.025407E-11 -9.369103E-10
       310  15 -1.713738E+06 -2.486617E+05 -3.016132E+03 -6.521472E+05 -1.017732E-09 -2.585454E-10
       310  16 -1.678775E+06 -2.350952E+05  7.877400E+03 -6.427722E+05  2.881322E-10 -4.336362E-10
       310  17 -1.705929E+06 -2.338869E+05  2.466280E+03 -6.385078E+05 -2.089527E-09 -1.199543E-09
       310  18 -1.716965E+06 -2.499380E+05 -3.831812E+03 -6.531041E+05 -1.330326E-10  2.626060E-10
       310  19 -1.748588E+06 -2.614415E+05 -1.090017E+04 -6.618149E+05  1.069615E+02 -1.200550E+03
       310  20 -1.737609E+06 -2.457838E+05 -6.106774E+03 -6.470724E+05 -1.090862E+03 -8.080173E+02
       310  21 -1.710511E+06 -2.473854E+05 -2.200443E+03 -6.511904E+05 -2.288922E+03 -4.148574E+02
       310  22 -1.713682E+06 -2.482684E+05 -1.511337E+03 -6.522938E+05  3.382191E+02 -1.114145E+03
       310  23 -1.721769E+06 -2.398354E+05 -1.820237E+03 -6.427901E+05 -8.594269E+02 -7.215516E+02
       310  24 -1.713738E+06 -2.486617E+05 -3.016124E+03 -6.521472E+05 -2.057278E+03 -3.283205E+02
       310  25 -1.678775E+06 -2.350952E+05  7.877403E+03 -6.427722E+05  5.694915E+02 -1.027734E+03
       310  26 -1.705929E+06 -2.338869E+05  2.466282E+03 -6.385078E+05 -6.279856E+02 -6.350834E+02
       310  27 -1.716965E+06 -2.499380E+05 -3.831806E+03 -6.531041E+05 -1.825635E+03 -2.417842E+02
       311   1 -1.661879E+06 -2.287905E+05  1.032774E+04 -6.386289E+05  3.032443E+03  1.829316E+02
       311   2 -1.650759E+06 -2.126646E+05  1.267122E+04 -6.237634E+05  6.591547E+03  6.673047E+02
       311   3 -1.625727E+06 -2.175712E+05  1.124664E+04 -6.263312E+05  1.011787E+04  1.240194E+03
       311   4 -1.714027E+06 -2.480485E+05 -3.791097E+03 -6.523732E+05  2.785537E+03  9.068558E+01
       311   5 -1.721230E+06 -2.393016E+05 -6.430393E+03 -6.429952E+05  6.372026E+03  5.852562E+02
       311   6 -1.714528E+06 -2.515932E+05 -1.285986E+04 -6.510508E+05  9.925635E+03  1.168305E+03
       311   7 -1.766172E+06 -2.673064E+05 -1.791015E+04 -6.661164E+05  2.538654E+03 -1.552132E+00
       311   8 -1.791696E+06 -2.659384E+05 -2.553245E+04 -6.622251E+05  6.152532E+03  5.032181E+02
       311   9 -1.803321E+06 -2.856148E+05 -3.696712E+04 -6.757672E+05  9.733427E+03  1.096427E+03
       311  10 -1.661879E+06 -2.287905E+05  1.032772E+04 -6.386289E+05 -4.105345E-10 -1.841266E-09
       311  11 -1.650759E+06 -2.126646E+05  1.267114E+04 -6.237634E+05  4.591831E-10  1.254199E-09
       311  12 -1.625727E+06 -2.175712E+05  1.124644E+04 -6.263312E+05  3.867796E-10  1.537320E-09
       311  13 -1.714027E+06 -2.480485E+05 -3.791112E+03 -6.523732E+05  8.508866E-10 -7.721641E-10
       311  14 -1.721230E+06 -2.393017E+05 -6.430470E+03 -6.429952E+05 -2.023876E-10 -1.097698E-09
       311  15 -1.714528E+06 -2.515933E+05 -1.286005E+04 -6.510508E+05  2.744503E-11 -4.429033E-11
       311  16 -1.766172E+06 -2.673064E+05 -1.791016E+04 -6.661164E+05  1.260726E-09  4.386698E-10
       311  17 -1.791696E+06 -2.659384E+05 -2.553252E+04 -6.622251E+05  1.366527E-09  1.206626E-09
       311  18 -1.803321E+06 -2.856148E+05 -3.696730E+04 -6.757672E+05 -2.487388E-10 -1.270446E-09
       311  19 -1.661879E+06 -2.287905E+05  1.032774E+04 -6.386289E+05 -3.032443E+03 -1.829316E+02
       311  20 -1.650759E+06 -2.126646E+05  1.267122E+04 -6.237634E+05 -6.591547E+03 -6.673047E+02
       311  21 -1.625727E+06 -2.175712E+05  1.124664E+04 -6.263312E+05 -1.011787E+04 -1.240194E+03
       311  22 -1.714027E+06 -2.480485E+05 -3.791097E+03 -6.523732E+05 -2.785537E+03 -9.068558E+01
       311  23 -1.721230E+06 -2.393016E+05 -6.430393E+03 -6.429952E+05 -6.372026E+03 -5.852562E+02
       311  24 -1.714528E+06 -2.515932E+05 -1.285986E+04 -6.510508E+05 -9.925635E+03 -1.168305E+03
       311  25 -1.766172E+06 -2.673064E+05 -1.791015E+04 -6.661164E+05 -2.538654E+03  1.552132E+00
       311  26 -1.791696E+06 -2.659384E+05 -2.553245E+04 -6.622251E+05 -6.152532E+03 -5.032181E+02
       311  27 -1.803321E+06 -2.856148E+05 -3.696712E+04 -6.757672E+05 -9.733427E+03 -1.096427E+03
       312   1 -1.579303E+06 -1.981775E+05  2.038287E+04 -6.186964E+05  1.280775E+04  1.689657E+03
       312   2 -1.566735E+06 -1.767923E+05  1.365321E+04 -6.019522E+05  2.738788E+04  6.328915E+03
       312   3 -1.555048E+06 -2.065746E+05 -1.370531E+04 -5.928397E+05  4.175534E+04  1.153810E+04
       312   4 -1.716247E+06 -2.470574E+05 -1.623495E+04 -6.530758E+05  1.249271E+04  1.571894E+03
       312   5 -1.717686E+06 -2.348992E+05 -2.745831E+04 -6.442360E+05  2.724825E+04  6.276548E+03
       312   6 -1.720045E+06 -2.739492E+05 -5.945384E+04 -6.430276E+05  4.179072E+04  1.155083E+04
       312   7 -1.853173E+06 -2.959368E+05 -5.285440E+04 -6.874486E+05  1.217774E+04  1.454157E+03
       312   8 -1.868615E+06 -2.930043E+05 -6.857185E+04 -6.865103E+05  2.710865E+04  6.224195E+03
       312   9 -1.885016E+06 -3.413208E+05 -1.052048E+05 -6.932030E+05  4.182609E+04  1.156355E+04
       312  10 -1.579304E+06 -1.981775E+05  2.038255E+04 -6.186964E+05  7.921465E-11  1.168245E-09
       312  11 -1.566736E+06 -1.767926E+05  1.365172E+04 -6.019523E+05  3.210644E-11 -8.411706E-11
       312  12 -1.555050E+06 -2.065752E+05 -1.370885E+04 -5.928401E+05  5.522314E-10 -4.926867E-10
       312  13 -1.716247E+06 -2.470575E+05 -1.623525E+04 -6.530758E+05  1.041884E-09  1.385827E-09
       312  14 -1.717687E+06 -2.348994E+05 -2.745978E+04 -6.442361E+05  3.316918E-10  6.468513E-10
       312  15 -1.720047E+06 -2.739498E+05 -5.945738E+04 -6.430280E+05  3.612963E-10 -1.517874E-09
       312  16 -1.853173E+06 -2.959368E+05 -5.285468E+04 -6.874486E+05 -9.123926E-10 -7.021780E-10
       312  17 -1.868616E+06 -2.930046E+05 -6.857331E+04 -6.865105E+05  1.093042E-09  5.630919E-10
       312  18 -1.885017E+06 -3.413214E+05 -1.052084E+05 -6.932033E+05  1.862371E-10 -1.824892E-10
       312  19 -1.579303E+06 -1.981775E+05  2.038287E+04 -6.186964E+05 -1.280775E+04 -1.689657E+03
       312  20 -1.566735E+06 -1.767923E+05  1.365321E+04 -6.019522E+05 -2.738788E+04 -6.328915E+03
       312  21 -1.555048E+06 -2.065746E+05 -1.370531E+04 -5.928397E+05 -4.175534E+04 -1.153810E+04
       312  22 -1.716247E+06 -2.470574E+05 -1.623495E+04 -6.530758E+05 -1.249271E+04 -1.571894E+03
       312  23 -1.717686E+06 -2.348992E+05 -2.745831E+04 -6.442360E+05 -2.724825E+04 -6.276548E+03
       312  24 -1.720045E+06 -2.739492E+05 -5.945384E+04 -6.430276E+05 -4.179072E+04 -1.155083E+04
       312  25 -1.853173E+06 -2.959368E+05 -5.285440E+04 -6.874486E+05 -1.217774E+04 -1.454157E+03
       312  26 -1.868615E+06 -2.930043E+05 -6.857185E+04 -6.865103E+05 -2.710865E+04 -6.224195E+03
       312  27 -1.885016E+06 -3.413208E+05 -1.052048E+05 -6.932030E+05 -4.182609E+04 -1.156355E+04
       313   1 -1.507290E+06 -1.770143E+05 -1.600008E+04 -6.199759E+05  5.384654E+04  1.491644E+04
       313   2 -1.480486E+06 -1.078299E+05 -5.641853E+04 -5.813769E+05  1.169681E+05  3.762674E+04
       313   3 -1.552519E+06 -3.240500E+05 -2.185185E+05 -4.855942E+05  1.784296E+05  6.477855E+04
       313   4 -1.729945E+06 -2.413858E+05 -7.247158E+04 -6.603274E+05  5.288167E+04  1.455719E+04
       313   5 -1.694674E+06 -1.996482E+05 -1.165029E+05 -6.510572E+05  1.173746E+05  3.777626E+04
       313   6 -1.758552E+06 -4.436514E+05 -2.833383E+05 -5.845935E+05  1.802079E+05  6.543000E+04
       313   7 -1.952552E+06 -3.057587E+05 -1.289469E+05 -7.006682E+05  5.191718E+04  1.419800E+04
       313   8 -1.908818E+06 -2.914599E+05 -1.765916E+05 -7.207143E+05  1.177809E+05  3.792569E+04
       313   9 -1.964540E+06 -5.632287E+05 -3.481618E+05 -6.835569E+05  1.819854E+05  6.608089E+04
       313  10 -1.507293E+06 -1.770153E+05 -1.600597E+04 -6.199765E+05 -4.223247E-10 -3.660476E-10
       313  11 -1.480501E+06 -1.078351E+05 -5.644698E+04 -5.813805E+05 -2.656067E-10  6.010397E-10
       313  12 -1.552554E+06 -3.240631E+05 -2.185864E+05 -4.856036E+05 -2.532318E-11  1.267769E-10
       313  13 -1.729948E+06 -2.413868E+05 -7.247725E+04 -6.603280E+05 -8.783850E-10 -6.406302E-10
       313  14 -1.694690E+06 -1.996535E+05 -1.165316E+05 -6.510607E+05  7.264482E-10  8.898075E-10
       313  15 -1.758588E+06 -4.436647E+05 -2.834076E+05 -5.846030E+05  1.519156E-11  3.187864E-10
       313  16 -1.952555E+06 -3.057596E+05 -1.289523E+05 -7.006688E+05 -1.477171E-10  1.918321E-10
       313  17 -1.908833E+06 -2.914652E+05 -1.766205E+05 -7.207179E+05 -2.107177E-10  7.585360E-10
       313  18 -1.964576E+06 -5.632424E+05 -3.482325E+05 -6.835666E+05 -2.238802E-10  5.559573E-11
       313  19 -1.507290E+06 -1.770143E+05 -1.600008E+04 -6.199759E+05 -5.384654E+04 -1.491644E+04
       313  20 -1.480486E+06 -1.078299E+05 -5.641853E+04 -5.813769E+05 -1.169681E+05 -3.762674E+04
       313  21 -1.552519E+06 -3.240500E+05 -2.185185E+05 -4.855942E+05 -1.784296E+05 -6.477855E+04
       313  22 -1.729945E+06 -2.413858E+05 -7.247158E+04 -6.603274E+05 -5.288167E+04 -1.455719E+04
       313  23 -1.694674E+06 -1.996482E+05 -1.165029E+05 -6.510572E+05 -1.173746E+05 -3.777626E+04
       313  24 -1.758552E+06 -4.436514E+05 -2.833383E+05 -5.845935E+05 -1.802079E+05 -6.543000E+04
       313  25 -1.952552E+06 -3.057587E+05 -1.289469E+05 -7.006682E+05 -5.191718E+04 -1.419800E+04
       313  26 -1.908818E+06 -2.914599E+05 -1.765916E+05 -7.207143E+05 -1.177809E+05 -3.792569E+04
       313  27 -1.964540E+06 -5.632287E+05 -3.481618E+05 -6.835569E+05 -1.819854E+05 -6.608089E+04
       314   1  2.444409E+06  4.900184E+05  6.764985E+05  1.212501E+05  5.649217E+05  6.450432E+03
       314   2  2.372977E+06 -2.699915E+05  2.174087E+05  4.517106E+04  3.730934E+05  1.455532E+04
       314   3  2.544743E+06 -1.611040E+05  1.004922E+05 -8.737843E+04  1.812654E+05  1.180055E+04
       314   4  3.078331E+06  6.467051E+05  8.332204E+05 -2.188574E+04  5.701013E+05  6.334008E+03
       314   5  2.956992E+06 -1.252336E+05  3.599351E+05  7.291368E+03  3.744134E+05  1.453433E+04
       314   6  3.079253E+06 -2.808857E+04  2.312432E+05 -2.000895E+04  1.787423E+05  1.181469E+04
       314   7  3.712661E+06  8.034393E+05  9.899237E+05 -1.651675E+05  5.752859E+05  6.215313E+03
       314   8  3.541320E+06  1.950482E+04  5.024375E+05 -3.062410E+04  3.757344E+05  1.451319E+04
       314   9  3.614031E+06  1.049226E+05  3.619757E+05  4.741833E+04  1.762170E+05  1.182826E+04
       314  10  2.444068E+06  4.899331E+05  6.759011E+05  1.212472E+05 -1.024745E-09  1.398066E-09
       314  11  2.372828E+06 -2.700289E+05  2.171477E+05  4.516670E+04 -1.415112E-09 -1.867120E-10
       314  12  2.544707E+06 -1.611129E+05  1.004305E+05 -8.738015E+04  1.267155E-09 -4.319965E-11
       314  13  3.077984E+06  6.466183E+05  8.326125E+05 -2.188865E+04  1.816470E-09  7.419963E-10
       314  14  2.956842E+06 -1.252712E+05  3.596725E+05  7.286991E+03 -4.209925E-10 -1.458984E-09
       314  15  3.079218E+06 -2.809724E+04  2.311832E+05 -2.001065E+04  3.945472E-10  3.061085E-10
       314  16  3.712307E+06  8.033511E+05  9.893054E+05 -1.651704E+05  7.226785E-10  5.179544E-11
       314  17  3.541169E+06  1.946697E+04  5.021733E+05 -3.062848E+04 -8.162206E-10  6.715565E-10
       314  18  3.613998E+06  1.049142E+05  3.619174E+05  4.741666E+04  1.455494E-10 -2.773247E-10
       314  19  2.444409E+06  4.900184E+05  6.764985E+05  1.212501E+05 -5.649217E+05 -6.450432E+03
       314  20  2.372977E+06 -2.699915E+05  2.174087E+05  4.517106E+04 -3.730934E+05 -1.455532E+04
       314  21  2.544743E+06 -1.611040E+05  1.004922E+05 -8.737843E+04 -1.812654E+05 -1.180055E+04
       314  22  3.078331E+06  6.467051E+05  8.332204E+05 -2.188574E+04 -5.701013E+05 -6.334008E+03
       314  23  2.956992E+06 -1.252336E+05  3.599351E+05  7.291368E+03 -3.744134E+05 -1.453433E+04
       314  24  3.079253E+06 -2.808857E+04  2.312432E+05 -2.000895E+04 -1.787423E+05 -1.181469E+04
       314  25  3.712661E+06  8.034393E+05  9.899237E+05 -1.651675E+05 -5.752859E+05 -6.215313E+03
       314  26  3.541320E+06  1.950482E+04  5.024375E+05 -3.062410E+04 -3.757344E+05 -1.451319E+04
       314  27  3.614031E+06  1.049226E+05  3.619757E+05  4.741833E+04 -1.762170E+05 -1.182826E+04
       315   1  2.596055E+06 -2.437379E+04  8.336636E+04 -5.517223E+02  1.412886E+05  9.125833E+03
       315   2  2.616637E+06 -1.154012E+05 -3.793313E+03  7.659403E+03  9.303508E+04  8.754148E+03
       315   3  2.672304E+06 -9.316217E+04 -3.119613E+04 -2.665159E+04  4.478095E+04  7.352533E+03
       315   4  3.032707E+06  8.399022E+04  1.902236E+05 -1.757551E+04  1.414299E+05  9.121683E+03
       315   5  3.015230E+06 -1.645079E+04  9.365102E+04  3.750880E+03  9.279786E+04  8.752861E+03
       315   6  3.032879E+06 -3.601105E+03  5.706690E+04 -1.744251E+04  4.416822E+04  7.352375E+03
       315   7  3.469533E+06  1.923413E+05  2.970671E+05 -3.461131E+04  1.415712E+05  9.117527E+03
       315   8  3.413968E+06  8.248795E+04  1.910838E+05 -1.601923E+02  9.256046E+04  8.751578E+03
       315   9  3.393571E+06  8.595069E+04  1.453205E+05 -8.228106E+03  4.355513E+04  7.352198E+03
       315  10  2.596033E+06 -2.437921E+04  8.332884E+04 -5.527598E+02 -1.136875E-09 -1.450698E-09
       315  11  2.616627E+06 -1.154036E+05 -3.809654E+03  7.658748E+03 -3.873243E-10  9.959919E-10
       315  12  2.672302E+06 -9.316276E+04 -3.119998E+04 -2.665186E+04  2.271475E-10 -8.941653E-10
       315  13  3.032686E+06  8.398479E+04  1.901860E+05 -1.757655E+04  9.469459E-10 -4.227248E-10
       315  14  3.015221E+06 -1.645318E+04  9.363477E+04  3.750227E+03  3.093026E-10  5.655715E-11
       315  15  3.032877E+06 -3.601684E+03  5.706315E+04 -1.744277E+04 -1.524783E-09 -6.008174E-10
       315  16  3.469512E+06  1.923359E+05  2.970295E+05 -3.461235E+04  8.827863E-10  7.207097E-10
       315  17  3.413959E+06  8.248558E+04  1.910676E+05 -1.608438E+02 -2.052176E-09 -1.527263E-09
       315  18  3.393569E+06  8.595012E+04  1.453168E+05 -8.228363E+03 -5.159498E-10  2.842734E-10
       315  19  2.596055E+06 -2.437379E+04  8.336636E+04 -5.517223E+02 -1.412886E+05 -9.125833E+03
       315  20  2.616637E+06 -1.154012E+05 -3.793313E+03  7.659403E+03 -9.303508E+04 -8.754148E+03
       315  21  2.672304E+06 -9.316217E+04 -3.119613E+04 -2.665159E+04 -4.478095E+04 -7.352533E+03
       315  22  3.032707E+06  8.399022E+04  1.902236E+05 -1.757551E+04 -1.414299E+05 -9.121683E+03
       315  23  3.015230E+06 -1.645079E+04  9.365102E+04  3.750880E+03 -9.279786E+04 -8.752861E+03
       315  24  3.032879E+06 -3.601105E+03  5.706690E+04 -1.744251E+04 -4.416822E+04 -7.352375E+03
       315  25  3.469533E+06  1.923413E+05  2.970671E+05 -3.461131E+04 -1.415712E+05 -9.117527E+03
       315  26  3.413968E+06  8.248795E+04  1.910838E+05 -1.601923E+02 -9.256046E+04 -8.751578E+03
       315  27  3.393571E+06  8.595069E+04  1.453205E+05 -8.228106E+03 -4.355513E+04 -7.352198E+03
       316   1  2.743428E+06 -5.941930E+04 -2.384000E+04 -1.385873E+04  3.533853E+04  6.455268E+03
       316   2  2.771415E+06 -6.476756E+04 -3.754703E+04  1.749740E+03  2.312278E+04  5.406974E+03
       316   3  2.804859E+06 -5.542734E+04 -3.961225E+04 -1.692013E+04  1.090566E+04  4.352865E+03
       316   4  3.026272E+06  1.078233E+04  4.523796E+04 -1.565635E+04  3.499948E+04  6.454731E+03
       316   5  3.023562E+06 -2.168256E+03  2.410766E+04  1.486061E+03  2.277675E+04  5.406650E+03
       316   6  3.026306E+06 -4.328511E+02  1.461998E+04 -1.564889E+04  1.055324E+04  4.352698E+03
       316   7  3.309189E+06  8.097810E+04  1.143101E+05 -1.745481E+04  3.466028E+04  6.454197E+03
       316   8  3.275766E+06  6.042637E+04  8.575771E+04  1.222269E+03  2.243058E+04  5.406326E+03
       316   9  3.247797E+06  5.455803E+04  6.884864E+04 -1.437721E+04  1.020070E+04  4.352529E+03
       316  10  2.743427E+06 -5.941968E+04 -2.384241E+04 -1.385891E+04  1.277418E-09  1.666489E-10
       316  11  2.771415E+06 -6.476774E+04 -3.754808E+04  1.749639E+03  8.887567E-10  5.897837E-10
       316  12  2.804859E+06 -5.542740E+04 -3.961251E+04 -1.692017E+04  9.434927E-10  6.734644E-10
       316  13  3.026271E+06  1.078196E+04  4.523559E+04 -1.565653E+04 -2.725804E-10 -3.012061E-10
       316  14  3.023561E+06 -2.168426E+03  2.410663E+04  1.485962E+03 -6.629821E-10  3.419733E-10
       316  15  3.026306E+06 -4.329012E+02  1.461974E+04 -1.564893E+04  1.167895E-09  8.220449E-10
       316  16  3.309187E+06  8.097773E+04  1.143078E+05 -1.745499E+04 -9.406172E-10 -5.438011E-10
       316  17  3.275766E+06  6.042620E+04  8.575672E+04  1.222171E+03 -8.013016E-10 -1.206419E-09
       316  18  3.247797E+06  5.455798E+04  6.884840E+04 -1.437724E+04 -2.369216E-10  4.929478E-10
       316  19  2.743428E+06 -5.941930E+04 -2.384000E+04 -1.385873E+04 -3.533853E+04 -6.455268E+03
       316  20  2.771415E+06 -6.476756E+04 -3.754703E+04  1.749740E+03 -2.312278E+04 -5.406974E+03
       316  21  2.804859E+06 -5.542734E+04 -3.961225E+04 -1.692013E+04 -1.090566E+04 -4.352865E+03
       316  22  3.026272E+06  1.078233E+04  4.523796E+04 -1.565635E+04 -3.499948E+04 -6.454731E+03
       316  23  3.023562E+06 -2.168256E+03  2.410766E+04  1.486061E+03 -2.277675E+04 -5.406650E+03
       316  24  3.026306E+06 -4.328511E+02  1.461998E+04 -1.564889E+04 -1.055324E+04 -4.352698E+03
       316  25  3.309189E+06  8.097810E+04  1.143101E+05 -1.745481E+04 -3.466028E+04 -6.454197E+03
       316  26  3.275766E+06  6.042637E+04  8.575771E+04  1.222269E+03 -2.243058E+04 -5.406326E+03
       316  27  3.247797E+06  5.455803E+04  6.884864E+04 -1.437721E+04 -1.020070E+04 -4.352529E+03
       317   1  2.868558E+06 -3.755276E+04 -2.663199E+04 -1.441827E+04  8.520158E+03  3.753376E+03
       317   2  2.894460E+06 -3.267474E+04 -2.467304E+04  1.555583E+02  4.899997E+03  2.783494E+03
       317   3  2.921395E+06 -2.573004E+04 -1.983894E+04 -1.475548E+04  1.279339E+03  1.867118E+03
       317   4  3.025327E+06  1.348153E+03  1.161220E+04 -1.458614E+04  8.185640E+03  3.753260E+03
       317   5  3.024816E+06 -3.138540E+02  7.200675E+03  1.561938E+02  4.582715E+03  2.783439E+03
       317   6  3.025333E+06  8.757664E+01  5.651870E+03 -1.458595E+04  9.794448E+02  1.867120E+03
       317   7  3.182120E+06  4.024726E+04  4.985461E+04 -1.475406E+04  7.851038E+03  3.753144E+03
       317   8  3.155187E+06  3.204578E+04  3.907316E+04  1.568292E+02  4.265367E+03  2.783385E+03
       317   9  3.129281E+06  2.590439E+04  3.114189E+04 -1.441638E+04  6.795008E+02  1.867122E+03
       317  10  2.868558E+06 -3.755280E+04 -2.663215E+04 -1.441829E+04 -2.069725E-10  4.945681E-10
       317  11  2.894460E+06 -3.267476E+04 -2.467310E+04  1.555473E+02 -8.361211E-10 -4.864773E-10
       317  12  2.921395E+06 -2.573004E+04 -1.983895E+04 -1.475549E+04 -7.568407E-10  4.771687E-12
       317  13  3.025327E+06  1.348119E+03  1.161205E+04 -1.458617E+04 -1.595084E-09  5.862140E-10
       317  14  3.024816E+06 -3.138679E+02  7.200621E+03  1.561835E+02 -2.424960E-10 -1.064621E-10
       317  15  3.025333E+06  8.757264E+01  5.651862E+03 -1.458595E+04 -4.340189E-10  1.474627E-10
       317  16  3.182119E+06  4.024723E+04  4.985447E+04 -1.475408E+04  1.288240E-09  1.100456E-09
       317  17  3.155187E+06  3.204577E+04  3.907311E+04  1.568197E+02  1.503523E-10 -4.496971E-10
       317  18  3.129281E+06  2.590439E+04  3.114189E+04 -1.441638E+04  1.665945E-09  3.961905E-10
       317  19  2.868558E+06 -3.755276E+04 -2.663199E+04 -1.441827E+04 -8.520158E+03 -3.753376E+03
       317  20  2.894460E+06 -3.267474E+04 -2.467304E+04  1.555583E+02 -4.899997E+03 -2.783494E+03
       317  21  2.921395E+06 -2.573004E+04 -1.983894E+04 -1.475548E+04 -1.279339E+03 -1.867118E+03
       317  22  3.025327E+06  1.348153E+03  1.161220E+04 -1.458614E+04 -8.185640E+03 -3.753260E+03
       317  23  3.024816E+06 -3.138540E+02  7.200675E+03  1.561938E+02 -4.582715E+03 -2.783439E+03
       317  24  3.025333E+06  8.757664E+01  5.651870E+03 -1.458595E+04 -9.794448E+02 -1.867120E+03
       317  25  3.182120E+06  4.024726E+04  4.985461E+04 -1.475406E+04 -7.851038E+03 -3.753144E+03
       317  26  3.155187E+06  3.204578E+04  3.907316E+04  1.568292E+02 -4.265367E+03 -2.783385E+03
       317  27  3.129281E+06  2.590439E+04  3.114189E+04 -1.441638E+04 -6.795008E+02 -1.867122E+03
       318   1  2.979263E+06 -1.128681E+04 -5.684282E+03 -1.401886E+04  2.747593E+02  1.347123E+03
       318   2  3.003558E+06 -5.553855E+03  1.122712E+03 -3.790602E+02 -2.899125E+03  4.543271E+02
       318   3  3.028697E+06  1.935074E+03  1.042604E+04 -1.432632E+04 -6.073146E+03 -4.196492E+02
       318   4  3.025294E+06  1.240785E+02  5.490795E+03 -1.416438E+04 -2.957481E+01  1.347150E+03
       318   5  3.024871E+06 -2.631440E+02  6.333966E+03 -3.708024E+02 -3.197234E+03  4.543616E+02
       318   6  3.025290E+06  1.104644E+03  9.669267E+03 -1.416423E+04 -6.364905E+03 -4.196075E+02
       318   7  3.071328E+06  1.153481E+04  1.666572E+04 -1.430990E+04 -3.339314E+02  1.347178E+03
       318   8  3.046185E+06  5.027533E+03  1.154519E+04 -3.625443E+02 -3.495353E+03  4.543960E+02
       318   9  3.021884E+06  2.742136E+02  8.912491E+03 -1.400214E+04 -6.656662E+03 -4.195658E+02
       318  10  2.979263E+06 -1.128681E+04 -5.684286E+03 -1.401886E+04  3.616421E-10  6.065279E-10
       318  11  3.003558E+06 -5.553857E+03  1.122695E+03 -3.790592E+02  1.132395E-09  2.395772E-10
       318  12  3.028697E+06  1.935064E+03  1.042597E+04 -1.432633E+04  1.953396E-10  5.338133E-10
       318  13  3.025294E+06  1.240765E+02  5.490792E+03 -1.416438E+04 -1.000864E-09  6.037861E-10
       318  14  3.024871E+06 -2.631469E+02  6.333946E+03 -3.708012E+02  1.037559E-09  2.358211E-10
       318  15  3.025290E+06  1.104633E+03  9.669191E+03 -1.416423E+04  2.034343E-09 -2.707441E-10
       318  16  3.071328E+06  1.153481E+04  1.666572E+04 -1.430990E+04 -1.088398E-09  6.033973E-10
       318  17  3.046185E+06  5.027530E+03  1.154516E+04 -3.625430E+02 -2.618376E-09  7.973904E-10
       318  18  3.021884E+06  2.742016E+02  8.912408E+03 -1.400214E+04 -6.016953E-11 -1.336356E-10
       318  19  2.979263E+06 -1.128681E+04 -5.684282E+03 -1.401886E+04 -2.747593E+02 -1.347123E+03
       318  20  3.003558E+06 -5.553855E+03  1.122712E+03 -3.790602E+02  2.899125E+03 -4.543271E+02
       318  21  3.028697E+06  1.935074E+03  1.042604E+04 -1.432632E+04  6.073146E+03  4.196492E+02
       318  22  3.025294E+06  1.240785E+02  5.490795E+03 -1.416438E+04  2.957481E+01 -1.347150E+03
       318  23  3.024871E+06 -2.631440E+02  6.333966E+03 -3.708024E+02  3.197234E+03 -4.543616E+02
       318  24  3.025290E+06  1.104644E+03  9.669267E+03 -1.416423E+04  6.364905E+03  4.196075E+02
       318  25  3.071328E+06  1.153481E+04  1.666572E+04 -1.430990E+04  3.339314E+02 -1.347178E+03
       318  26  3.046185E+06  5.027533E+03  1.154519E+04 -3.625443E+02  3.495353E+03 -4.543960E+02
       318  27  3.021884E+06  2.742136E+02  8.912491E+03 -1.400214E+04  6.656662E+03  4.195658E+02
       319   1  3.086263E+06  1.462640E+04  2.681297E+04 -1.335676E+04 -8.013426E+03 -9.387750E+02
       319   2  3.109557E+06  1.951808E+04  4.052072E+04 -4.429174E+02 -1.795371E+04 -1.835458E+03
       319   3  3.137123E+06  3.629599E+04  6.365073E+04 -1.591892E+04 -2.789443E+04 -2.693702E+03
       319   4  3.026053E+06 -3.338462E+02  1.201702E+04 -1.434281E+04 -8.322014E+03 -9.387270E+02
       319   5  3.023905E+06 -1.742130E+03  1.958209E+04 -1.478460E+02 -1.824812E+04 -1.835469E+03
       319   6  3.026026E+06  8.734371E+03  3.656072E+04 -1.434290E+04 -2.817427E+04 -2.693808E+03
       319   7  2.965846E+06 -1.529436E+04 -2.779204E+03 -1.532878E+04 -8.630571E+03 -9.386780E+02
       319   8  2.938259E+06 -2.300287E+04 -1.357064E+03  1.471849E+02 -1.854249E+04 -1.835481E+03
       319   9  2.914940E+06 -1.882815E+04  9.469803E+03 -1.276716E+04 -2.845405E+04 -2.693917E+03
       319  10  3.086263E+06  1.462638E+04  2.681285E+04 -1.335676E+04 -1.121163E-09  4.251774E-10
       319  11  3.109557E+06  1.951799E+04  4.052011E+04 -4.429439E+02 -8.835528E-11  1.371808E-10
       319  12  3.137123E+06  3.629577E+04  6.364926E+04 -1.591898E+04 -2.532039E-10  2.954797E-10
       319  13  3.026053E+06 -3.338656E+02  1.201689E+04 -1.434282E+04  1.069128E-09  1.402571E-10
       319  14  3.023904E+06 -1.742222E+03  1.958146E+04 -1.478730E+02  1.629219E-09  3.236632E-10
       319  15  3.026025E+06  8.734151E+03  3.655922E+04 -1.434296E+04  1.671044E-10 -1.596628E-10
       319  16  2.965846E+06 -1.529438E+04 -2.779345E+03 -1.532878E+04 -5.556106E-10  1.710154E-10
       319  17  2.938259E+06 -2.300297E+04 -1.357713E+03  1.471575E+02  9.033243E-10  6.591594E-10
       319  18  2.914939E+06 -1.882837E+04  9.468275E+03 -1.276722E+04 -8.658974E-11 -3.912610E-10
       319  19  3.086263E+06  1.462640E+04  2.681297E+04 -1.335676E+04  8.013426E+03  9.387750E+02
       319  20  3.109557E+06  1.951808E+04  4.052072E+04 -4.429174E+02  1.795371E+04  1.835458E+03
       319  21  3.137123E+06  3.629599E+04  6.365073E+04 -1.591892E+04  2.789443E+04  2.693702E+03
       319  22  3.026053E+06 -3.338462E+02  1.201702E+04 -1.434281E+04  8.322014E+03  9.387270E+02
       319  23  3.023905E+06 -1.742130E+03  1.958209E+04 -1.478460E+02  1.824812E+04  1.835469E+03
       319  24  3.026026E+06  8.734371E+03  3.656072E+04 -1.434290E+04  2.817427E+04  2.693808E+03
       319  25  2.965846E+06 -1.529436E+04 -2.779204E+03 -1.532878E+04  8.630571E+03  9.386780E+02
       319  26  2.938259E+06 -2.300287E+04 -1.357064E+03  1.471849E+02  1.854249E+04  1.835481E+03
       319  27  2.914940E+06 -1.882815E+04  9.469803E+03 -1.276716E+04  2.845405E+04  2.693917E+03
       320   1  3.203674E+06  3.991493E+04  8.827881E+04 -7.878930E+03 -3.513148E+04 -3.356305E+03
       320   2  3.218240E+06  3.663069E+04  1.247011E+05 -2.566464E+03 -7.460388E+04 -4.387740E+03
       320   3  3.260881E+06  1.248077E+05  2.096191E+05 -2.925329E+04 -1.140788E+05 -4.778768E+03
       320   4  3.031327E+06 -2.878277E+03  4.607467E+04 -1.513641E+04 -3.557854E+04 -3.355997E+03
       320   5  3.017235E+06 -1.325393E+04  7.558063E+04  8.483923E+02 -7.482405E+04 -4.388306E+03
       320   6  3.031187E+06  6.780870E+04  1.534375E+05 -1.516627E+04 -1.140702E+05 -4.781465E+03
       320   7  2.859007E+06 -4.567347E+04  3.868385E+03 -2.239189E+04 -3.602547E+04 -3.355679E+03
       320   8  2.816266E+06 -6.314147E+04  2.645727E+04  4.262143E+03 -7.504414E+04 -4.388875E+03
       320   9  2.801542E+06  1.080656E+04  9.725206E+04 -1.084451E+03 -1.140617E+05 -4.784162E+03
       320  10  3.203672E+06  3.991459E+04  8.827648E+04 -7.879025E+03  7.190843E-10  5.636186E-10
       320  11  3.218234E+06  3.662918E+04  1.246906E+05 -2.566727E+03 -6.204978E-10  4.643925E-10
       320  12  3.260867E+06  1.248042E+05  2.095947E+05 -2.925373E+04 -1.631134E-09 -4.083080E-10
       320  13  3.031326E+06 -2.878627E+03  4.607228E+04 -1.513651E+04  3.216498E-13 -1.604079E-10
       320  14  3.017229E+06 -1.325544E+04  7.557012E+04  8.481281E+02  1.164443E-09 -3.599475E-10
       320  15  3.031174E+06  6.780520E+04  1.534131E+05 -1.516671E+04  5.022363E-10 -4.238380E-10
       320  16  2.859006E+06 -4.567383E+04  3.865936E+03 -2.239198E+04 -4.092012E-10 -5.832212E-10
       320  17  2.816260E+06 -6.314300E+04  2.644670E+04  4.261878E+03  2.404746E-10 -3.849064E-10
       320  18  2.801528E+06  1.080306E+04  9.722768E+04 -1.084890E+03  1.732365E-09 -9.996953E-11
       320  19  3.203674E+06  3.991493E+04  8.827881E+04 -7.878930E+03  3.513148E+04  3.356305E+03
       320  20  3.218240E+06  3.663069E+04  1.247011E+05 -2.566464E+03  7.460388E+04  4.387740E+03
       320  21  3.260881E+06  1.248077E+05  2.096191E+05 -2.925329E+04  1.140788E+05  4.778768E+03
       320  22  3.031327E+06 -2.878277E+03  4.607467E+04 -1.513641E+04  3.557854E+04  3.355997E+03
       320  23  3.017235E+06 -1.325393E+04  7.558063E+04  8.483923E+02  7.482405E+04  4.388306E+03
       320  24  3.031187E+06  6.780870E+04  1.534375E+05 -1.516627E+04  1.140702E+05  4.781465E+03
       320  25  2.859007E+06 -4.567347E+04  3.868385E+03 -2.239189E+04  3.602547E+04  3.355679E+03
       320  26  2.816266E+06 -6.314147E+04  2.645727E+04  4.262143E+03  7.504414E+04  4.388875E+03
       320  27  2.801542E+06  1.080656E+04  9.725206E+04 -1.084451E+03  1.140617E+05  4.784162E+03
       321   1  3.369876E+06  5.223386E+04  2.601426E+05  3.734661E+04 -1.425777E+05 -6.484607E+03
       321   2  3.306349E+06 -1.768120E+04  3.722684E+05 -2.844456E+04 -3.027047E+05 -8.132255E+03
       321   3  3.439027E+06  6.136679E+05  7.636931E+05 -1.335132E+05 -4.628379E+05 -3.202669E+03
       321   4  3.068679E+06 -2.260223E+04  1.864996E+05 -1.657443E+04 -1.441607E+05 -6.473443E+03
       321   5  2.970343E+06 -1.009801E+05  2.903057E+05  2.747826E+03 -3.020080E+05 -8.147141E+03
       321   6  3.067915E+06  5.216890E+05  6.719405E+05 -1.719302E+04 -4.598518E+05 -3.285741E+03
       321   7  2.767570E+06 -9.743415E+04  1.128516E+05 -7.046940E+04 -1.457430E+05 -6.462000E+03
       321   8  2.634441E+06 -1.842836E+05  2.083354E+05  3.392335E+04 -3.013116E+05 -8.161965E+03
       321   9  2.696956E+06  4.297505E+05  5.801850E+05  9.905791E+04 -4.568675E+05 -3.367744E+03
       321  10  3.369854E+06  5.222839E+04  2.601045E+05  3.734587E+04 -8.459573E-10 -2.245948E-10
       321  11  3.306251E+06 -1.770571E+04  3.720970E+05 -2.844654E+04 -8.545959E-11  2.457422E-10
       321  12  3.438798E+06  6.136108E+05  7.632927E+05 -1.335144E+05  1.121206E-09  6.292334E-10
       321  13  3.068657E+06 -2.260782E+04  1.864607E+05 -1.657518E+04 -1.240789E-09 -8.153788E-10
       321  14  2.970245E+06 -1.010045E+05  2.901350E+05  2.745847E+03  7.553691E-10  5.555725E-10
       321  15  3.067689E+06  5.216325E+05  6.715450E+05 -1.719424E+04  2.923203E-10 -3.856238E-10
       321  16  2.767547E+06 -9.743986E+04  1.128118E+05 -7.047016E+04 -6.908554E-10  3.698995E-10
       321  17  2.634344E+06 -1.843079E+05  2.081654E+05  3.392137E+04 -2.874895E-09 -3.984692E-11
       321  18  2.696733E+06  4.296947E+05  5.797944E+05  9.905668E+04  9.913866E-10  1.172351E-09
       321  19  3.369876E+06  5.223386E+04  2.601426E+05  3.734661E+04  1.425777E+05  6.484607E+03
       321  20  3.306349E+06 -1.768120E+04  3.722684E+05 -2.844456E+04  3.027047E+05  8.132255E+03
       321  21  3.439027E+06  6.136679E+05  7.636931E+05 -1.335132E+05  4.628379E+05  3.202669E+03
       321  22  3.068679E+06 -2.260223E+04  1.864996E+05 -1.657443E+04  1.441607E+05  6.473443E+03
       321  23  2.970343E+06 -1.009801E+05  2.903057E+05  2.747826E+03  3.020080E+05  8.147141E+03
       321  24  3.067915E+06  5.216890E+05  6.719405E+05 -1.719302E+04  4.598518E+05  3.285741E+03
       321  25  2.767570E+06 -9.743415E+04  1.128516E+05 -7.046940E+04  1.457430E+05  6.462000E+03
       321  26  2.634441E+06 -1.842836E+05  2.083354E+05  3.392335E+04  3.013116E+05  8.161965E+03
       321  27  2.696956E+06  4.297505E+05  5.801850E+05  9.905791E+04  4.568675E+05  3.367744E+03
       322   1  1.532375E+05  2.465359E+05  2.335074E+05 -5.671658E+04 -4.330699E+03  2.298497E+05
       322   2 -1.703681E+05  2.028084E+05  4.213606E+04 -1.718359E+04 -1.129953E+04  1.472984E+05
       322   3 -1.235021E+05  2.630725E+05 -2.736292E+03  3.187485E+04 -1.033588E+04  6.476498E+04
       322   4  2.721894E+05  7.250913E+05  3.521871E+05  3.346484E+03 -4.319386E+03  2.337383E+05
       322   5 -5.346616E+04  6.729373E+05  1.571973E+05 -1.819242E+03 -1.129808E+04  1.484593E+05
       322   6 -8.333278E+03  7.251683E+05  1.105202E+05  2.542212E+03 -1.033508E+04  6.319965E+04
       322   7  3.911379E+05  1.203863E+06  4.708518E+05  6.345600E+04 -4.307333E+03  2.376299E+05
       322   8  6.342035E+04  1.143268E+06  2.722426E+05  1.355689E+04 -1.129658E+04  1.496211E+05
       322   9  1.068229E+05  1.187460E+06  2.237615E+05 -2.681219E+04 -1.033412E+04  6.163313E+04
       322  10  1.532233E+05  2.464792E+05  2.334081E+05 -5.671578E+04 -2.807397E-10 -1.777313E-10
       322  11 -1.703740E+05  2.027850E+05  4.209507E+04 -1.718225E+04 -3.225284E-10 -3.196495E-09
       322  12 -1.235034E+05  2.630680E+05 -2.744371E+03  3.187539E+04  9.553456E-10 -1.600742E-10
       322  13  2.721747E+05  7.250327E+05  3.520845E+05  3.347296E+03  1.881747E-09  1.749866E-09
       322  14 -5.347221E+04  6.729136E+05  1.571557E+05 -1.817891E+03 -3.150317E-09 -2.079017E-09
       322  15 -8.334463E+03  7.251640E+05  1.105125E+05  2.542738E+03  5.559098E-10  1.137949E-09
       322  16  3.911228E+05  1.203802E+06  4.707459E+05  6.345682E+04 -1.167905E-11  3.042253E-11
       322  17  6.341422E+04  1.143244E+06  2.722003E+05  1.355825E+04  5.446851E-10  6.525941E-10
       322  18  1.068218E+05  1.187456E+06  2.237542E+05 -2.681168E+04  4.064023E-10 -1.535032E-09
       322  19  1.532375E+05  2.465359E+05  2.335074E+05 -5.671658E+04  4.330699E+03 -2.298497E+05
       322  20 -1.703681E+05  2.028084E+05  4.213606E+04 -1.718359E+04  1.129953E+04 -1.472984E+05
       322  21 -1.235021E+05  2.630725E+05 -2.736292E+03  3.187485E+04  1.033588E+04 -6.476498E+04
       322  22  2.721894E+05  7.250913E+05  3.521871E+05  3.346484E+03  4.319386E+03 -2.337383E+05
       322  23 -5.346616E+04  6.729373E+05  1.571973E+05 -1.819242E+03  1.129808E+04 -1.484593E+05
       322  24 -8.333278E+03  7.251683E+05  1.105202E+05  2.542212E+03  1.033508E+04 -6.319965E+04
       322  25  3.911379E+05  1.203863E+06  4.708518E+05  6.345600E+04  4.307333E+03 -2.376299E+05
       322  26  6.342035E+04  1.143268E+06  2.722426E+05  1.355689E+04  1.129658E+04 -1.496211E+05
       322  27  1.068229E+05  1.187460E+06  2.237615E+05 -2.681219E+04  1.033412E+04 -6.163313E+04
       323   1 -7.701866E+04  2.607696E+05 -1.248193E+04 -7.535868E+03 -9.061764E+03  4.431087E+04
       323   2 -1.221346E+05  2.532373E+05 -3.978078E+04 -9.736886E+02 -9.649256E+03  9.321825E+03
       323   3 -8.301334E+04  2.718336E+05 -2.313759E+04  1.182753E+04 -8.674831E+03 -2.566531E+04
       323   4  3.423483E+04  7.077778E+05  9.723494E+04  2.092380E+03 -9.061563E+03  4.481549E+04
       323   5 -1.225206E+04  6.946765E+05  6.841237E+04 -1.043202E+03 -9.648747E+03  9.278763E+03
       323   6  2.556069E+04  7.077813E+05  8.389040E+04  2.059872E+03 -8.673414E+03 -2.625574E+04
       323   7  1.454739E+05  1.154968E+06  2.069372E+05  1.172765E+04 -9.061347E+03  4.532047E+04
       323   8  9.761607E+04  1.136293E+06  1.765912E+05 -1.112700E+03 -9.648238E+03  9.235669E+03
       323   9  1.341210E+05  1.143902E+06  1.909045E+05 -7.714607E+03 -8.671979E+03 -2.684658E+04
       323  10 -7.701928E+04  2.607675E+05 -1.248577E+04 -7.535544E+03  2.265815E-10 -8.211116E-10
       323  11 -1.221348E+05  2.532371E+05 -3.978112E+04 -9.736162E+02 -1.134809E-10 -2.355643E-09
       323  12 -8.301359E+04  2.718329E+05 -2.313897E+04  1.182735E+04 -3.675166E-10  5.172052E-11
       323  13  3.423420E+04  7.077756E+05  9.723101E+04  2.092707E+03  2.703006E-10  1.276428E-09
       323  14 -1.225218E+04  6.946763E+05  6.841203E+04 -1.043130E+03  6.884406E-10 -1.656714E-09
       323  15  2.556043E+04  7.077805E+05  8.388896E+04  2.059688E+03  9.237285E-10  6.721334E-10
       323  16  1.454732E+05  1.154966E+06  2.069332E+05  1.172798E+04  5.075948E-10  9.616271E-10
       323  17  9.761595E+04  1.136293E+06  1.765909E+05 -1.112628E+03 -3.029561E-10  2.893241E-10
       323  18  1.341207E+05  1.143901E+06  1.909030E+05 -7.714795E+03  2.919401E-10 -8.892369E-10
       323  19 -7.701866E+04  2.607696E+05 -1.248193E+04 -7.535868E+03  9.061764E+03 -4.431087E+04
       323  20 -1.221346E+05  2.532373E+05 -3.978078E+04 -9.736886E+02  9.649256E+03 -9.321825E+03
       323  21 -8.301334E+04  2.718336E+05 -2.313759E+04  1.182753E+04  8.674831E+03  2.566531E+04
       323  22  3.423483E+04  7.077778E+05  9.723494E+04  2.092380E+03  9.061563E+03 -4.481549E+04
       323  23 -1.225206E+04  6.946765E+05  6.841237E+04 -1.043202E+03  9.648747E+03 -9.278763E+03
       323  24  2.556069E+04  7.077813E+05  8.389040E+04  2.059872E+03  8.673414E+03  2.625574E+04
       323  25  1.454739E+05  1.154968E+06  2.069372E+05  1.172765E+04  9.061347E+03 -4.532047E+04
       323  26  9.761607E+04  1.136293E+06  1.765912E+05 -1.112700E+03  9.648238E+03 -9.235669E+03
       323  27  1.341210E+05  1.143902E+06  1.909045E+05 -7.714607E+03  8.671979E+03  2.684658E+04
       324   1 -1.104427E+05  2.939687E+05 -1.248763E+04 -2.045177E+04 -9.464027E+03 -4.305752E+04
       324   2 -1.464440E+05  2.569562E+05  1.998118E+04  1.217737E+04 -9.735216E+03 -1.075795E+05
       324   3  1.033817E+05  3.002587E+05  1.660140E+05  4.852693E+04 -3.201291E+03 -1.720983E+05
       324   4 -4.480479E+03  7.199021E+05  9.184575E+04  1.478493E+03 -9.466203E+03 -4.182374E+04
       324   5 -4.126300E+04  6.795378E+05  1.234314E+05 -3.621643E+02 -9.732121E+03 -1.086749E+05
       324   6  2.080786E+05  7.198394E+05  2.701439E+05  1.515584E+03 -3.187811E+03 -1.755229E+05
       324   7  1.014702E+05  1.146002E+06  1.961661E+05  2.342386E+04 -9.468290E+03 -4.058911E+04
       324   8  6.390542E+04  1.102282E+06  2.268686E+05 -1.291022E+04 -9.728983E+03 -1.097711E+05
       324   9  3.127706E+05  1.139585E+06  3.742619E+05 -4.552754E+04 -3.173820E+03 -1.789498E+05
       324  10 -1.104433E+05  2.939667E+05 -1.249128E+04 -2.045210E+04  2.780634E-10 -9.210648E-10
       324  11 -1.464472E+05  2.569437E+05  1.995926E+04  1.217652E+04  8.486430E-12 -5.088283E-10
       324  12  1.033738E+05  3.002270E+05  1.659583E+05  4.852648E+04 -1.448237E-10  1.926580E-10
       324  13 -4.481044E+03  7.199002E+05  9.184230E+04  1.478174E+03 -2.371175E-10  3.047627E-10
       324  14 -4.126626E+04  6.795251E+05  1.234091E+05 -3.630158E+02 -3.457567E-10 -1.198684E-09
       324  15  2.080704E+05  7.198064E+05  2.700860E+05  1.515134E+03 -2.261295E-10  1.496725E-10
       324  16  1.014696E+05  1.146000E+06  1.961629E+05  2.342355E+04  2.155200E-10  5.440361E-10
       324  17  6.390209E+04  1.102269E+06  2.268459E+05 -1.291108E+04 -2.446145E-11 -5.619667E-10
       324  18  3.127620E+05  1.139550E+06  3.742018E+05 -4.552799E+04 -5.452300E-10 -5.279685E-10
       324  19 -1.104427E+05  2.939687E+05 -1.248763E+04 -2.045177E+04  9.464027E+03  4.305752E+04
       324  20 -1.464440E+05  2.569562E+05  1.998118E+04  1.217737E+04  9.735216E+03  1.075795E+05
       324  21  1.033817E+05  3.002587E+05  1.660140E+05  4.852693E+04  3.201291E+03  1.720983E+05
       324  22 -4.480479E+03  7.199021E+05  9.184575E+04  1.478493E+03  9.466203E+03  4.182374E+04
       324  23 -4.126300E+04  6.795378E+05  1.234314E+05 -3.621643E+02  9.732121E+03  1.086749E+05
       324  24  2.080786E+05  7.198394E+05  2.701439E+05  1.515584E+03  3.187811E+03  1.755229E+05
       324  25  1.014702E+05  1.146002E+06  1.961661E+05  2.342386E+04  9.468290E+03  4.058911E+04
       324  26  6.390542E+04  1.102282E+06  2.268686E+05 -1.291022E+04  9.728983E+03  1.097711E+05
       324  27  3.127706E+05  1.139585E+06  3.742619E+05 -4.552754E+04  3.173820E+03  1.789498E+05
       325   1 -3.244337E+06 -1.181498E+06 -6.254388E+05 -1.210240E+06 -2.970724E+05 -8.391120E+04
       325   2 -3.169316E+06 -9.619616E+05 -4.058558E+05 -1.178715E+06 -1.929942E+05  2.386492E+04
       325   3 -3.140169E+06 -8.573685E+05 -3.091912E+05 -1.136058E+06 -7.389055E+04  9.207255E+04
       325   4 -1.685408E+06 -4.820884E+05 -2.069037E+05 -6.665523E+05 -1.439934E+05 -2.608084E+04
       325   5 -1.658797E+06 -3.538416E+05 -9.781067E+04 -7.016743E+05 -1.159509E+05  5.294105E+04
       325   6 -1.662817E+06 -3.252712E+05 -5.101587E+04 -7.256989E+05 -7.292414E+04  9.240772E+04
       325   7 -1.240456E+05  2.177919E+05  2.115062E+05 -1.215178E+05  9.502937E+03  3.197733E+04
       325   8 -1.458866E+05  2.546182E+05  2.101447E+05 -2.235032E+05 -3.870620E+04  8.211036E+04
       325   9 -1.831201E+05  2.070434E+05  2.070996E+05 -3.144184E+05 -7.195520E+04  9.274388E+04
       325  10 -3.244434E+06 -1.181530E+06 -6.256189E+05 -1.210261E+06 -2.446410E-09 -3.415335E-10
       325  11 -3.169357E+06 -9.619723E+05 -4.059272E+05 -1.178712E+06 -1.861751E-09  8.944346E-10
       325  12 -3.140177E+06 -8.573791E+05 -3.092174E+05 -1.136053E+06  1.011032E-09  3.362924E-10
       325  13 -1.685430E+06 -4.820948E+05 -2.069441E+05 -6.665553E+05  1.010278E-09  9.591661E-10
       325  14 -1.658813E+06 -3.538482E+05 -9.784123E+04 -7.016693E+05 -2.770884E-09 -2.456181E-09
       325  15 -1.662825E+06 -3.252818E+05 -5.104190E+04 -7.256935E+05 -1.536429E-09  1.087816E-09
       325  16 -1.240460E+05  2.177908E+05  2.115041E+05 -1.215181E+05  1.289239E-09  4.244133E-10
       325  17 -1.458900E+05  2.546106E+05  2.101293E+05 -2.235006E+05  4.022488E-10  1.750478E-09
       325  18 -1.831280E+05  2.070328E+05  2.070738E+05 -3.144130E+05 -3.053303E-09  5.832429E-10
       325  19 -3.244337E+06 -1.181498E+06 -6.254388E+05 -1.210240E+06  2.970724E+05  8.391120E+04
       325  20 -3.169316E+06 -9.619616E+05 -4.058558E+05 -1.178715E+06  1.929942E+05 -2.386492E+04
       325  21 -3.140169E+06 -8.573685E+05 -3.091912E+05 -1.136058E+06  7.389055E+04 -9.207255E+04
       325  22 -1.685408E+06 -4.820884E+05 -2.069037E+05 -6.665523E+05  1.439934E+05  2.608084E+04
       325  23 -1.658797E+06 -3.538416E+05 -9.781067E+04 -7.016743E+05  1.159509E+05 -5.294105E+04
       325  24 -1.662817E+06 -3.252712E+05 -5.101587E+04 -7.256989E+05  7.292414E+04 -9.240772E+04
       325  25 -1.240456E+05  2.177919E+05  2.115062E+05 -1.215178E+05 -9.502937E+03 -3.197733E+04
       325  26 -1.458866E+05  2.546182E+05  2.101447E+05 -2.235032E+05  3.870620E+04 -8.211036E+04
       325  27 -1.831201E+05  2.070434E+05  2.070996E+05 -3.144184E+05  7.195520E+04 -9.274388E+04
       326   1 -3.073023E+06 -8.420838E+05 -2.823119E+05 -1.127183E+06 -7.062571E+04  9.241093E+04
       326   2 -2.995649E+06 -7.944709E+05 -2.412109E+05 -1.097507E+06 -5.282380E+04  9.905887E+04
       326   3 -2.911375E+06 -7.662040E+05 -2.153185E+05 -1.080068E+06 -3.350204E+04  1.016764E+05
       326   4 -1.656535E+06 -3.240448E+05 -3.809003E+04 -7.244533E+05 -6.690546E+04  9.378579E+04
       326   5 -1.660023E+06 -3.103412E+05 -1.993126E+04 -7.201247E+05 -5.683202E+04  9.751913E+04
       326   6 -1.655072E+06 -3.144334E+05 -1.081356E+04 -7.280335E+05 -4.524324E+04  9.722584E+04
       326   7 -2.379051E+05  1.942063E+05  2.060746E+05 -3.208546E+05 -6.317612E+04  9.516421E+04
       326   8 -3.224900E+05  1.739732E+05  2.013042E+05 -3.419771E+05 -6.084941E+04  9.597594E+04
       326   9 -3.970844E+05  1.374939E+05  1.936540E+05 -3.753310E+05 -5.700962E+04  9.276587E+04
       326  10 -3.073031E+06 -8.420943E+05 -2.823373E+05 -1.127178E+06 -1.571895E-09 -4.196908E-10
       326  11 -2.995654E+06 -7.944822E+05 -2.412346E+05 -1.097503E+06 -3.553556E-09  4.594587E-10
       326  12 -2.911379E+06 -7.662154E+05 -2.153401E+05 -1.080065E+06 -1.372271E-09 -1.072808E-09
       326  13 -1.656542E+06 -3.240555E+05 -3.811495E+04 -7.244482E+05 -2.263094E-09  7.611989E-10
       326  14 -1.660029E+06 -3.103523E+05 -1.995518E+04 -7.201202E+05 -1.108012E-09 -1.630265E-09
       326  15 -1.655077E+06 -3.144441E+05 -1.083515E+04 -7.280300E+05 -3.540519E-10 -5.262286E-10
       326  16 -2.379119E+05  1.941955E+05  2.060501E+05 -3.208498E+05 -5.904841E-10  1.952488E-09
       326  17 -3.224965E+05  1.739623E+05  2.012800E+05 -3.419724E+05  1.679331E-09  1.212986E-09
       326  18 -3.970902E+05  1.374838E+05  1.936317E+05 -3.753268E+05  1.509683E-09  1.154287E-09
       326  19 -3.073023E+06 -8.420838E+05 -2.823119E+05 -1.127183E+06  7.062571E+04 -9.241093E+04
       326  20 -2.995649E+06 -7.944709E+05 -2.412109E+05 -1.097507E+06  5.282380E+04 -9.905887E+04
       326  21 -2.911375E+06 -7.662040E+05 -2.153185E+05 -1.080068E+06  3.350204E+04 -1.016764E+05
       326  22 -1.656535E+06 -3.240448E+05 -3.809003E+04 -7.244533E+05  6.690546E+04 -9.378579E+04
       326  23 -1.660023E+06 -3.103412E+05 -1.993126E+04 -7.201247E+05  5.683202E+04 -9.751913E+04
       326  24 -1.655072E+06 -3.144334E+05 -1.081356E+04 -7.280335E+05  4.524324E+04 -9.722584E+04
       326  25 -2.379051E+05  1.942063E+05  2.060746E+05 -3.208546E+05  6.317612E+04 -9.516421E+04
       326  26 -3.224900E+05  1.739732E+05  2.013042E+05 -3.419771E+05  6.084941E+04 -9.597594E+04
       326  27 -3.970844E+05  1.374939E+05  1.936540E+05 -3.753310E+05  5.700962E+04 -9.276587E+04
       327   1 -2.857458E+06 -7.474595E+05 -2.032123E+05 -1.065686E+06 -3.088640E+04  9.847531E+04
       327   2 -2.780142E+06 -7.107293E+05 -1.853325E+05 -1.035426E+06 -2.550726E+04  9.343390E+04
       327   3 -2.691155E+06 -6.866492E+05 -1.698175E+05 -1.018949E+06 -1.997135E+04  8.796198E+04
       327   4 -1.654468E+06 -3.144238E+05 -8.110593E+03 -7.279272E+05 -4.238633E+04  9.411928E+04
       327   5 -1.660306E+06 -3.079127E+05 -4.446706E+03 -7.211205E+05 -3.783061E+04  8.877331E+04
       327   6 -1.654319E+06 -3.138871E+05 -2.492286E+03 -7.280970E+05 -3.311875E+04  8.299712E+04
       327   7 -4.499053E+05  1.187675E+05  1.869652E+05 -3.895465E+05 -5.391014E+04  8.975430E+04
       327   8 -5.391112E+05  9.503685E+04  1.764159E+05 -4.062774E+05 -5.017771E+04  8.410381E+04
       327   9 -6.163238E+05  5.898685E+04  1.648118E+05 -4.367866E+05 -4.628953E+04  7.802348E+04
       327  10 -2.857462E+06 -7.474702E+05 -2.032323E+05 -1.065684E+06  6.360942E-10  9.685217E-10
       327  11 -2.780145E+06 -7.107389E+05 -1.853501E+05 -1.035425E+06 -1.982087E-10  1.102022E-10
       327  12 -2.691158E+06 -6.866576E+05 -1.698328E+05 -1.018947E+06  3.909167E-10 -1.442964E-10
       327  13 -1.654472E+06 -3.144338E+05 -8.130598E+03 -7.279240E+05 -2.737427E-10  3.683841E-10
       327  14 -1.660309E+06 -3.079215E+05 -4.464188E+03 -7.211178E+05  3.306021E-09 -2.456636E-09
       327  15 -1.654322E+06 -3.138947E+05 -2.507278E+03 -7.280948E+05 -6.259157E-10  3.508968E-10
       327  16 -4.499106E+05  1.187580E+05  1.869446E+05 -3.895427E+05  1.928670E-10  2.193112E-11
       327  17 -5.391158E+05  9.502859E+04  1.763978E+05 -4.062740E+05  4.636336E-10 -6.476345E-10
       327  18 -6.163277E+05  5.897974E+04  1.647964E+05 -4.367837E+05  1.463968E-10 -1.636831E-09
       327  19 -2.857458E+06 -7.474595E+05 -2.032123E+05 -1.065686E+06  3.088640E+04 -9.847531E+04
       327  20 -2.780142E+06 -7.107293E+05 -1.853325E+05 -1.035426E+06  2.550726E+04 -9.343390E+04
       327  21 -2.691155E+06 -6.866492E+05 -1.698175E+05 -1.018949E+06  1.997135E+04 -8.796198E+04
       327  22 -1.654468E+06 -3.144238E+05 -8.110593E+03 -7.279272E+05  4.238633E+04 -9.411928E+04
       327  23 -1.660306E+06 -3.079127E+05 -4.446706E+03 -7.211205E+05  3.783061E+04 -8.877331E+04
       327  24 -1.654319E+06 -3.138871E+05 -2.492286E+03 -7.280970E+05  3.311875E+04 -8.299712E+04
       327  25 -4.499053E+05  1.187675E+05  1.869652E+05 -3.895465E+05  5.391014E+04 -8.975430E+04
       327  26 -5.391112E+05  9.503685E+04  1.764159E+05 -4.062774E+05  5.017771E+04 -8.410381E+04
       327  27 -6.163238E+05  5.898685E+04  1.648118E+05 -4.367866E+05  4.628953E+04 -7.802348E+04
       328   1 -2.637880E+06 -6.674559E+05 -1.602279E+05 -1.004072E+06 -1.809634E+04  8.410950E+04
       328   2 -2.560022E+06 -6.310607E+05 -1.460709E+05 -9.734937E+05 -1.479554E+04  7.751459E+04
       328   3 -2.469938E+06 -6.069255E+05 -1.324262E+05 -9.568796E+05 -1.147641E+04  7.085771E+04
       328   4 -1.654210E+06 -3.138914E+05 -1.916941E+03 -7.281047E+05 -3.125089E+04  7.914522E+04
       328   5 -1.660299E+06 -3.077167E+05 -1.199868E+03 -7.211316E+05 -2.806793E+04  7.251094E+04
       328   6 -1.654145E+06 -3.137791E+05 -9.026250E+02 -7.281254E+05 -2.486674E+04  6.581465E+04
       328   7 -6.695092E+05  3.976954E+04  1.563722E+05 -4.517273E+05 -4.442747E+04  7.417266E+04
       328   8 -7.597030E+05  1.571136E+04  1.436555E+05 -4.684243E+05 -4.136078E+04  6.749960E+04
       328   9 -8.376263E+05 -2.056019E+04  1.306108E+05 -4.990849E+05 -3.827593E+04  6.076451E+04
       328  10 -2.637882E+06 -6.674636E+05 -1.602418E+05 -1.004071E+06 -2.433506E-09 -5.759822E-10
       328  11 -2.560024E+06 -6.310672E+05 -1.460826E+05 -9.734927E+05 -1.698441E-09  7.299115E-10
       328  12 -2.469940E+06 -6.069309E+05 -1.324359E+05 -9.568789E+05  4.131355E-10  4.536065E-10
       328  13 -1.654213E+06 -3.138984E+05 -1.930534E+03 -7.281027E+05 -4.443566E-10 -3.770219E-10
       328  14 -1.660301E+06 -3.077226E+05 -1.211218E+03 -7.211300E+05  1.545112E-09 -9.585396E-10
       328  15 -1.654147E+06 -3.137840E+05 -9.119182E+02 -7.281241E+05 -8.428460E-10  4.038125E-10
       328  16 -6.695128E+05  3.976310E+04  1.563582E+05 -4.517247E+05  1.442215E-09  1.214853E-09
       328  17 -7.597060E+05  1.570601E+04  1.436438E+05 -4.684220E+05  7.913971E-10  1.108583E-09
       328  18 -8.376289E+05 -2.056455E+04  1.306011E+05 -4.990830E+05 -2.167969E-10 -6.973574E-11
       328  19 -2.637880E+06 -6.674559E+05 -1.602279E+05 -1.004072E+06  1.809634E+04 -8.410950E+04
       328  20 -2.560022E+06 -6.310607E+05 -1.460709E+05 -9.734937E+05  1.479554E+04 -7.751459E+04
       328  21 -2.469938E+06 -6.069255E+05 -1.324262E+05 -9.568796E+05  1.147641E+04 -7.085771E+04
       328  22 -1.654210E+06 -3.138914E+05 -1.916941E+03 -7.281047E+05  3.125089E+04 -7.914522E+04
       328  23 -1.660299E+06 -3.077167E+05 -1.199868E+03 -7.211316E+05  2.806793E+04 -7.251094E+04
       328  24 -1.654145E+06 -3.137791E+05 -9.026250E+02 -7.281254E+05  2.486674E+04 -6.581465E+04
       328  25 -6.695092E+05  3.976954E+04  1.563722E+05 -4.517273E+05  4.442747E+04 -7.417266E+04
       328  26 -7.597030E+05  1.571136E+04  1.436555E+05 -4.684243E+05  4.136078E+04 -6.749960E+04
       328  27 -8.376263E+05 -2.056019E+04  1.306108E+05 -4.990849E+05  3.827593E+04 -6.076451E+04
       329   1 -2.416327E+06 -5.875719E+05 -1.233700E+05 -9.418916E+05 -9.776991E+03  6.687019E+04
       329   2 -2.337860E+06 -5.509903E+05 -1.101363E+05 -9.111404E+05 -6.577822E+03  6.011127E+04
       329   3 -2.247098E+06 -5.267345E+05 -9.731770E+04 -8.944684E+05 -3.375802E+03  5.333449E+04
       329   4 -1.654111E+06 -3.137710E+05 -8.853024E+02 -7.281519E+05 -2.319271E+04  6.182016E+04
       329   5 -1.660227E+06 -3.075520E+05 -1.090305E+03 -7.211247E+05 -2.002705E+04  5.505242E+04
       329   6 -1.654052E+06 -3.136521E+05 -1.684950E+03 -7.281781E+05 -1.685863E+04  4.826683E+04
       329   7 -8.912681E+05 -3.990969E+04  1.215885E+05 -5.141645E+05 -3.662594E+04  5.676354E+04
       329   8 -9.821038E+05 -6.406759E+04  1.079461E+05 -5.309142E+05 -3.349180E+04  4.998774E+04
       329   9 -1.060634E+06 -1.005359E+05  9.393949E+04 -5.617398E+05 -3.035499E+04  4.319408E+04
       329  10 -2.416328E+06 -5.875768E+05 -1.233786E+05 -9.418910E+05  5.179553E-10 -5.047470E-10
       329  11 -2.337861E+06 -5.509941E+05 -1.101432E+05 -9.111401E+05 -3.322789E-10 -7.515735E-10
       329  12 -2.247099E+06 -5.267375E+05 -9.732307E+04 -8.944682E+05 -1.340491E-09 -7.337504E-10
       329  13 -1.654112E+06 -3.137752E+05 -8.934874E+02 -7.281507E+05 -1.246100E-10 -2.637776E-10
       329  14 -1.660228E+06 -3.075554E+05 -1.096749E+03 -7.211238E+05 -8.625987E-10 -2.860168E-10
       329  15 -1.654053E+06 -3.136547E+05 -1.689857E+03 -7.281775E+05  9.192870E-10 -4.266013E-10
       329  16 -8.912704E+05 -3.991350E+04  1.215799E+05 -5.141628E+05 -6.562747E-12  2.078790E-10
       329  17 -9.821057E+05 -6.407058E+04  1.079393E+05 -5.309129E+05  1.061759E-09 -4.715971E-10
       329  18 -1.060635E+06 -1.005382E+05  9.393425E+04 -5.617387E+05  9.421642E-10  3.184952E-10
       329  19 -2.416327E+06 -5.875719E+05 -1.233700E+05 -9.418916E+05  9.776991E+03 -6.687019E+04
       329  20 -2.337860E+06 -5.509903E+05 -1.101363E+05 -9.111404E+05  6.577822E+03 -6.011127E+04
       329  21 -2.247098E+06 -5.267345E+05 -9.731770E+04 -8.944684E+05  3.375802E+03 -5.333449E+04
       329  22 -1.654111E+06 -3.137710E+05 -8.853024E+02 -7.281519E+05  2.319271E+04 -6.182016E+04
       329  23 -1.660227E+06 -3.075520E+05 -1.090305E+03 -7.211247E+05  2.002705E+04 -5.505242E+04
       329  24 -1.654052E+06 -3.136521E+05 -1.684950E+03 -7.281781E+05  1.685863E+04 -4.826683E+04
       329  25 -8.912681E+05 -3.990969E+04  1.215885E+05 -5.141645E+05  3.662594E+04 -5.676354E+04
       329  26 -9.821038E+05 -6.406759E+04  1.079461E+05 -5.309142E+05  3.349180E+04 -4.998774E+04
       329  27 -1.060634E+06 -1.005359E+05  9.393949E+04 -5.617398E+05  3.035499E+04 -4.319408E+04
       330   1 -2.193144E+06 -5.073124E+05 -8.871580E+04 -8.794734E+05 -1.504172E+03  4.938323E+04
       330   2 -2.114130E+06 -4.705777E+05 -7.686929E+04 -8.485084E+05  3.016392E+03  4.308989E+04
       330   3 -2.023073E+06 -4.465493E+05 -6.650622E+04 -8.316934E+05  7.529122E+03  3.681135E+04
       330   4 -1.654088E+06 -3.136386E+05 -2.179398E+03 -7.282283E+05 -1.500865E+04  4.430930E+04
       330   5 -1.660105E+06 -3.074084E+05 -3.846964E+03 -7.210986E+05 -1.045871E+04  3.802949E+04
       330   6 -1.654097E+06 -3.138914E+05 -7.022694E+03 -7.281217E+05 -5.916878E+03  3.176437E+04
       330   7 -1.114712E+06 -1.199320E+05  8.435377E+04 -5.768575E+05 -2.852575E+04  3.923063E+04
       330   8 -1.205855E+06 -1.442165E+05  6.917277E+04 -5.935999E+05 -2.394436E+04  3.296512E+04
       330   9 -1.284973E+06 -1.812191E+05  5.245888E+04 -6.244916E+05 -1.937137E+04  2.671420E+04
       330  10 -2.193145E+06 -5.073150E+05 -8.872039E+04 -8.794733E+05  6.503125E-11 -3.563184E-10
       330  11 -2.114130E+06 -4.705797E+05 -7.687279E+04 -8.485085E+05 -4.569744E-10 -4.494194E-10
       330  12 -2.023074E+06 -4.465507E+05 -6.650887E+04 -8.316937E+05 -7.645921E-10 -3.497323E-10
       330  13 -1.654089E+06 -3.136407E+05 -2.183507E+03 -7.282278E+05 -6.630673E-10 -1.532171E-10
       330  14 -1.660105E+06 -3.074100E+05 -3.849885E+03 -7.210983E+05  8.147733E-10 -4.616081E-10
       330  15 -1.654097E+06 -3.138925E+05 -7.024655E+03 -7.281215E+05 -1.370689E-10  3.995781E-11
       330  16 -1.114713E+06 -1.199339E+05  8.434935E+04 -5.768566E+05  4.924674E-10 -3.251985E-10
       330  17 -1.205856E+06 -1.442178E+05  6.916965E+04 -5.935993E+05 -3.131186E-10 -3.813184E-11
       330  18 -1.284973E+06 -1.812200E+05  5.245684E+04 -6.244912E+05  5.639619E-10  5.560586E-10
       330  19 -2.193144E+06 -5.073124E+05 -8.871580E+04 -8.794734E+05  1.504172E+03 -4.938323E+04
       330  20 -2.114130E+06 -4.705777E+05 -7.686929E+04 -8.485084E+05 -3.016392E+03 -4.308989E+04
       330  21 -2.023073E+06 -4.465493E+05 -6.650622E+04 -8.316934E+05 -7.529122E+03 -3.681135E+04
       330  22 -1.654088E+06 -3.136386E+05 -2.179398E+03 -7.282283E+05  1.500865E+04 -4.430930E+04
       330  23 -1.660105E+06 -3.074084E+05 -3.846964E+03 -7.210986E+05  1.045871E+04 -3.802949E+04
       330  24 -1.654097E+06 -3.138914E+05 -7.022694E+03 -7.281217E+05  5.916878E+03 -3.176437E+04
       330  25 -1.114712E+06 -1.199320E+05  8.435377E+04 -5.768575E+05  2.852575E+04 -3.923063E+04
       330  26 -1.205855E+06 -1.442165E+05  6.917277E+04 -5.935999E+05  2.394436E+04 -3.296512E+04
       330  27 -1.284973E+06 -1.812191E+05  5.245888E+04 -6.244916E+05  1.937137E+04 -2.671420E+04
       331   1 -1.968866E+06 -4.275225E+05 -5.969396E+04 -8.172660E+05  1.036428E+04  3.322450E+04
       331   2 -1.890679E+06 -3.902926E+05 -5.379862E+04 -7.831166E+05  2.114306E+04  2.943393E+04
       331   3 -1.803056E+06 -3.706262E+05 -5.539040E+04 -7.621784E+05  3.182650E+04  2.589667E+04
       331   4 -1.654537E+06 -3.139253E+05 -9.368693E+03 -7.283095E+05 -3.112447E+03  2.816716E+04
       331   5 -1.659778E+06 -3.091727E+05 -1.724353E+04 -7.201725E+05  8.156166E+03  2.456150E+04
       331   6 -1.655687E+06 -3.220810E+05 -3.299418E+04 -7.252504E+05  1.932846E+04  2.120858E+04
       331   7 -1.340104E+06 -2.003186E+05  4.095446E+04 -6.393112E+05 -1.659627E+04  2.310712E+04
       331   8 -1.428819E+06 -2.280477E+05  1.931128E+04 -6.572065E+05 -4.835860E+03  1.968723E+04
       331   9 -1.508293E+06 -2.735337E+05 -1.059716E+04 -6.883140E+05  6.827127E+03  1.651948E+04
       331  10 -1.968867E+06 -4.275237E+05 -5.969624E+04 -8.172663E+05  6.786550E-10  2.497700E-10
       331  11 -1.890680E+06 -3.902937E+05 -5.380109E+04 -7.831171E+05  2.177272E-10  4.035040E-10
       331  12 -1.803057E+06 -3.706272E+05 -5.539358E+04 -7.621790E+05 -2.193729E-11 -3.243392E-10
       331  13 -1.654537E+06 -3.139261E+05 -9.370201E+03 -7.283094E+05 -4.765860E-10  2.451218E-10
       331  14 -1.659778E+06 -3.091733E+05 -1.724479E+04 -7.201727E+05 -3.174757E-10  1.412728E-10
       331  15 -1.655688E+06 -3.220816E+05 -3.299574E+04 -7.252507E+05 -2.095193E-10 -1.671747E-10
       331  16 -1.340105E+06 -2.003192E+05  4.095294E+04 -6.393108E+05 -9.681912E-11  2.343175E-10
       331  17 -1.428819E+06 -2.280481E+05  1.931051E+04 -6.572064E+05  4.182270E-10  1.274223E-11
       331  18 -1.508293E+06 -2.735340E+05 -1.059776E+04 -6.883140E+05 -5.674928E-10 -2.859390E-10
       331  19 -1.968866E+06 -4.275225E+05 -5.969396E+04 -8.172660E+05 -1.036428E+04 -3.322450E+04
       331  20 -1.890679E+06 -3.902926E+05 -5.379862E+04 -7.831166E+05 -2.114306E+04 -2.943393E+04
       331  21 -1.803056E+06 -3.706262E+05 -5.539040E+04 -7.621784E+05 -3.182650E+04 -2.589667E+04
       331  22 -1.654537E+06 -3.139253E+05 -9.368693E+03 -7.283095E+05  3.112447E+03 -2.816716E+04
       331  23 -1.659778E+06 -3.091727E+05 -1.724353E+04 -7.201725E+05 -8.156166E+03 -2.456150E+04
       331  24 -1.655687E+06 -3.220810E+05 -3.299418E+04 -7.252504E+05 -1.932846E+04 -2.120858E+04
       331  25 -1.340104E+06 -2.003186E+05  4.095446E+04 -6.393112E+05  1.659627E+04 -2.310712E+04
       331  26 -1.428819E+06 -2.280477E+05  1.931128E+04 -6.572065E+05  4.835860E+03 -1.968723E+04
       331  27 -1.508293E+06 -2.735337E+05 -1.059716E+04 -6.883140E+05 -6.827127E+03 -1.651948E+04
       332   1 -1.747960E+06 -3.580463E+05 -5.711580E+04 -7.550082E+05  3.843868E+04  2.392642E+04
       332   2 -1.697674E+06 -3.134416E+05 -8.168695E+04 -6.664515E+05  7.937988E+04  3.324676E+04
       332   3 -1.669147E+06 -3.584929E+05 -1.563674E+05 -5.729965E+05  1.193610E+05  4.514251E+04
       332   4 -1.660723E+06 -3.234883E+05 -4.419822E+04 -7.267800E+05  2.575295E+04  1.916892E+04
       332   5 -1.658995E+06 -3.462894E+05 -8.471115E+04 -7.036963E+05  7.164452E+04  3.033799E+04
       332   6 -1.680030E+06 -4.597475E+05 -1.792688E+05 -6.757244E+05  1.165720E+05  4.407299E+04
       332   7 -1.573476E+06 -2.889286E+05 -3.127982E+04 -6.985475E+05  1.306525E+04  1.441049E+04
       332   8 -1.620310E+06 -3.791276E+05 -8.773365E+04 -7.409422E+05  6.390877E+04  2.743054E+04
       332   9 -1.690889E+06 -5.609462E+05 -2.021636E+05 -7.784398E+05  1.137832E+05  4.300464E+04
       332  10 -1.747962E+06 -3.580473E+05 -5.711967E+04 -7.550089E+05  4.860190E-10 -6.092455E-10
       332  11 -1.697681E+06 -3.134445E+05 -8.170091E+04 -6.664537E+05  2.878742E-10 -5.728467E-10
       332  12 -1.669163E+06 -3.584989E+05 -1.563981E+05 -5.730008E+05 -8.136500E-11 -3.983147E-10
       332  13 -1.660724E+06 -3.234889E+05 -4.420016E+04 -7.267804E+05  1.290051E-09 -2.407074E-10
       332  14 -1.659001E+06 -3.462918E+05 -8.472256E+04 -7.036981E+05  1.350657E-09 -3.207538E-10
       332  15 -1.680045E+06 -4.597532E+05 -1.792981E+05 -6.757286E+05  2.295801E-10 -1.358363E-10
       332  16 -1.573476E+06 -2.889288E+05 -3.128053E+04 -6.985477E+05 -7.608580E-11 -2.254294E-10
       332  17 -1.620315E+06 -3.791295E+05 -8.774277E+04 -7.409436E+05  4.805264E-10 -2.245805E-10
       332  18 -1.690904E+06 -5.609517E+05 -2.021915E+05 -7.784437E+05 -1.705614E-11 -9.227521E-11
       332  19 -1.747960E+06 -3.580463E+05 -5.711580E+04 -7.550082E+05 -3.843868E+04 -2.392642E+04
       332  20 -1.697674E+06 -3.134416E+05 -8.168695E+04 -6.664515E+05 -7.937988E+04 -3.324676E+04
       332  21 -1.669147E+06 -3.584929E+05 -1.563674E+05 -5.729965E+05 -1.193610E+05 -4.514251E+04
       332  22 -1.660723E+06 -3.234883E+05 -4.419822E+04 -7.267800E+05 -2.575295E+04 -1.916892E+04
       332  23 -1.658995E+06 -3.462894E+05 -8.471115E+04 -7.036963E+05 -7.164452E+04 -3.033799E+04
       332  24 -1.680030E+06 -4.597475E+05 -1.792688E+05 -6.757244E+05 -1.165720E+05 -4.407299E+04
       332  25 -1.573476E+06 -2.889286E+05 -3.127982E+04 -6.985475E+05 -1.306525E+04 -1.441049E+04
       332  26 -1.620310E+06 -3.791276E+05 -8.773365E+04 -7.409422E+05 -6.390877E+04 -2.743054E+04
       332  27 -1.690889E+06 -5.609462E+05 -2.021636E+05 -7.784398E+05 -1.137832E+05 -4.300464E+04
       333   1  1.225814E+06  2.077441E+05  2.845981E+05  5.097133E+04  2.329347E+05  2.080546E+03
       333   2  1.193098E+06 -1.063429E+05  9.449038E+04  1.737567E+04  1.537209E+05  5.319937E+03
       333   3  1.260405E+06 -6.211326E+04  4.552445E+04 -3.555361E+04  7.450624E+04  4.425887E+03
       333   4  1.463280E+06  2.667495E+05  3.434461E+05 -8.315731E+03  2.348210E+05  2.060554E+03
       333   5  1.413259E+06 -5.164810E+04  1.483126E+05  1.518811E+03  1.541850E+05  5.316344E+03
       333   6  1.463465E+06 -1.155811E+04  9.526779E+04 -7.981190E+03  7.355066E+04  4.428277E+03
       333   7  1.700806E+06  3.257638E+05  4.022918E+05 -6.762546E+04  2.367080E+05  2.040210E+03
       333   8  1.633465E+06  3.044081E+03  2.021314E+05 -1.434368E+04  1.546494E+05  5.312730E+03
       333   9  1.666564E+06  3.899683E+04  1.450085E+05  1.960024E+04  7.259475E+04  4.430582E+03
       333  10  1.225755E+06  2.077296E+05  2.844964E+05  5.097094E+04  1.196324E-10 -1.606861E-09
       333  11  1.193073E+06 -1.063493E+05  9.444601E+04  1.737501E+04 -4.591212E-11 -5.995530E-10
       333  12  1.260399E+06 -6.211477E+04  4.551401E+04 -3.555388E+04 -1.665125E-09 -1.327711E-09
       333  13  1.463221E+06  2.667347E+05  3.433427E+05 -8.316121E+03  2.770045E-09  5.717438E-10
       333  14  1.413234E+06 -5.165450E+04  1.482679E+05  1.518151E+03 -8.381736E-10 -7.019005E-10
       333  15  1.463459E+06 -1.155958E+04  9.525762E+04 -7.981452E+03  1.582634E-09 -1.313431E-09
       333  16  1.700746E+06  3.257488E+05  4.021868E+05 -6.762585E+04  8.704920E-10  6.170803E-10
       333  17  1.633439E+06  3.037652E+03  2.020865E+05 -1.434434E+04  1.324663E-09 -3.264479E-10
       333  18  1.666558E+06  3.899540E+04  1.449986E+05  1.959999E+04  2.481767E-09  1.659954E-09
       333  19  1.225814E+06  2.077441E+05  2.845981E+05  5.097133E+04 -2.329347E+05 -2.080546E+03
       333  20  1.193098E+06 -1.063429E+05  9.449038E+04  1.737567E+04 -1.537209E+05 -5.319937E+03
       333  21  1.260405E+06 -6.211326E+04  4.552445E+04 -3.555361E+04 -7.450624E+04 -4.425887E+03
       333  22  1.463280E+06  2.667495E+05  3.434461E+05 -8.315731E+03 -2.348210E+05 -2.060554E+03
       333  23  1.413259E+06 -5.164810E+04  1.483126E+05  1.518811E+03 -1.541850E+05 -5.316344E+03
       333  24  1.463465E+06 -1.155811E+04  9.526779E+04 -7.981190E+03 -7.355066E+04 -4.428277E+03
       333  25  1.700806E+06  3.257638E+05  4.022918E+05 -6.762546E+04 -2.367080E+05 -2.040210E+03
       333  26  1.633465E+06  3.044081E+03  2.021314E+05 -1.434368E+04 -1.546494E+05 -5.312730E+03
       333  27  1.666564E+06  3.899683E+04  1.450085E+05  1.960024E+04 -7.259475E+04 -4.430582E+03
       334   1  1.277845E+06 -6.723395E+03  3.756058E+04 -4.147769E+02  5.816070E+04  3.445955E+03
       334   2  1.285763E+06 -4.442996E+04  1.494796E+03  2.582021E+03  3.828898E+04  3.313853E+03
       334   3  1.308028E+06 -3.539773E+04 -9.949107E+03 -1.127135E+04  1.841713E+04  2.754684E+03
       334   4  1.444341E+06  3.467527E+04  7.837402E+04 -7.550617E+03  5.820367E+04  3.445253E+03
       334   5  1.437174E+06 -6.780656E+03  3.856976E+04  8.873454E+02  3.818330E+04  3.313627E+03
       334   6  1.444375E+06 -1.478549E+03  2.348563E+04 -7.524465E+03  1.816328E+04  2.754634E+03
       334   7  1.610862E+06  7.607208E+04  1.191855E+05 -1.468837E+04  5.824666E+04  3.444550E+03
       334   8  1.588605E+06  3.086696E+04  7.564304E+04 -8.077471E+02  3.807760E+04  3.313402E+03
       334   9  1.580738E+06  3.243931E+04  5.691901E+04 -3.776763E+03  1.790937E+04  2.754581E+03
       334  10  1.277841E+06 -6.724313E+03  3.755422E+04 -4.149383E+02 -5.441307E-10 -6.518526E-10
       334  11  1.285762E+06 -4.443036E+04  1.492026E+03  2.581919E+03  9.883316E-10  5.028115E-10
       334  12  1.308028E+06 -3.539783E+04 -9.949757E+03 -1.127139E+04 -1.715954E-09 -4.768995E-11
       334  13  1.444337E+06  3.467435E+04  7.836764E+04 -7.550778E+03  8.958304E-10  1.158363E-09
       334  14  1.437172E+06 -6.781059E+03  3.856700E+04  8.872435E+02  1.500763E-09  7.825187E-10
       334  15  1.444374E+06 -1.478645E+03  2.348500E+04 -7.524506E+03 -1.972651E-10 -3.625510E-10
       334  16  1.610858E+06  7.607115E+04  1.191791E+05 -1.468854E+04  1.027647E-09  8.203254E-10
       334  17  1.588603E+06  3.086656E+04  7.564030E+04 -8.078487E+02  1.654770E-10 -1.346032E-10
       334  18  1.580737E+06  3.243922E+04  5.691839E+04 -3.776802E+03  4.923480E-10  2.212828E-11
       334  19  1.277845E+06 -6.723395E+03  3.756058E+04 -4.147769E+02 -5.816070E+04 -3.445955E+03
       334  20  1.285763E+06 -4.442996E+04  1.494796E+03  2.582021E+03 -3.828898E+04 -3.313853E+03
       334  21  1.308028E+06 -3.539773E+04 -9.949107E+03 -1.127135E+04 -1.841713E+04 -2.754684E+03
       334  22  1.444341E+06  3.467527E+04  7.837402E+04 -7.550617E+03 -5.820367E+04 -3.445253E+03
       334  23  1.437174E+06 -6.780656E+03  3.856976E+04  8.873454E+02 -3.818330E+04 -3.313627E+03
       334  24  1.444375E+06 -1.478549E+03  2.348563E+04 -7.524465E+03 -1.816328E+04 -2.754634E+03
       334  25  1.610862E+06  7.607208E+04  1.191855E+05 -1.468837E+04 -5.824666E+04 -3.444550E+03
       334  26  1.588605E+06  3.086696E+04  7.564304E+04 -8.077471E+02 -3.807760E+04 -3.313402E+03
       334  27  1.580738E+06  3.243931E+04  5.691901E+04 -3.776763E+03 -1.790937E+04 -2.754581E+03
       335   1  1.338233E+06 -2.125229E+04 -6.680556E+03 -6.435845E+03  1.454294E+04  2.385772E+03
       335   2  1.350908E+06 -2.318810E+04 -1.204929E+04  6.108541E+02  9.531485E+03  1.927900E+03
       335   3  1.365784E+06 -1.906052E+04 -1.263781E+04 -7.728619E+03  4.519911E+03  1.440649E+03
       335   4  1.441668E+06  4.461781E+03  1.861756E+04 -7.208524E+03  1.439604E+04  2.385666E+03
       335   5  1.440570E+06 -8.914336E+02  9.910546E+03  4.854186E+02  9.373944E+03  1.927826E+03
       335   6  1.441674E+06 -1.799144E+02  5.990575E+03 -7.206666E+03  4.351833E+03  1.440599E+03
       335   7  1.545112E+06  3.017507E+04  4.391490E+04 -7.981332E+03  1.424913E+04  2.385562E+03
       335   8  1.530240E+06  2.140463E+04  3.186979E+04  3.599643E+02  9.216381E+03  1.927753E+03
       335   9  1.517570E+06  1.870027E+04  2.461854E+04 -6.684650E+03  4.183735E+03  1.440548E+03
       335  10  1.338233E+06 -2.125236E+04 -6.680963E+03 -6.435873E+03 -1.400149E-09 -2.528941E-10
       335  11  1.350908E+06 -2.318812E+04 -1.204947E+04  6.108393E+02 -2.424986E-09 -6.119347E-10
       335  12  1.365784E+06 -1.906053E+04 -1.263785E+04 -7.728624E+03  1.341479E-10 -3.041219E-10
       335  13  1.441667E+06  4.461719E+03  1.861716E+04 -7.208551E+03  7.059199E-10 -1.278443E-10
       335  14  1.440570E+06 -8.914611E+02  9.910374E+03  4.854040E+02 -2.043758E-09 -2.326431E-10
       335  15  1.441674E+06 -1.799217E+02  5.990535E+03 -7.206671E+03 -2.789245E-09 -6.439353E-10
       335  16  1.545112E+06  3.017501E+04  4.391451E+04 -7.981360E+03 -1.119350E-09  1.148379E-10
       335  17  1.530240E+06  2.140461E+04  3.186963E+04  3.599500E+02 -1.886914E-09 -9.468595E-10
       335  18  1.517570E+06  1.870026E+04  2.461850E+04 -6.684655E+03 -2.891801E-10 -1.153300E-10
       335  19  1.338233E+06 -2.125229E+04 -6.680556E+03 -6.435845E+03 -1.454294E+04 -2.385772E+03
       335  20  1.350908E+06 -2.318810E+04 -1.204929E+04  6.108541E+02 -9.531485E+03 -1.927900E+03
       335  21  1.365784E+06 -1.906052E+04 -1.263781E+04 -7.728619E+03 -4.519911E+03 -1.440649E+03
       335  22  1.441668E+06  4.461781E+03  1.861756E+04 -7.208524E+03 -1.439604E+04 -2.385666E+03
       335  23  1.440570E+06 -8.914336E+02  9.910546E+03  4.854186E+02 -9.373944E+03 -1.927826E+03
       335  24  1.441674E+06 -1.799144E+02  5.990575E+03 -7.206666E+03 -4.351833E+03 -1.440599E+03
       335  25  1.545112E+06  3.017507E+04  4.391490E+04 -7.981332E+03 -1.424913E+04 -2.385562E+03
       335  26  1.530240E+06  2.140463E+04  3.186979E+04  3.599643E+02 -9.216381E+03 -1.927753E+03
       335  27  1.517570E+06  1.870027E+04  2.461854E+04 -6.684650E+03 -4.183735E+03 -1.440548E+03
       336   1  1.396087E+06 -1.066924E+04 -6.278272E+03 -6.975763E+03  3.542264E+03  1.156559E+03
       336   2  1.409000E+06 -8.102724E+03 -4.942059E+03  2.807285E+02  2.084671E+03  6.874437E+02
       336   3  1.422324E+06 -4.694575E+03 -2.445946E+03 -7.120352E+03  6.269843E+02  2.210768E+02
       336   4  1.441277E+06  5.599303E+02  4.748654E+03 -7.045433E+03  3.384171E+03  1.156518E+03
       336   5  1.441072E+06 -1.273585E+02  2.913066E+03  2.833868E+02  1.927407E+03  6.874101E+02
       336   6  1.441278E+06  2.676431E+01  2.236694E+03 -7.045316E+03  4.705784E+02  2.210507E+02
       336   7  1.486469E+06  1.178895E+04  1.577543E+04 -7.115108E+03  3.226067E+03  1.156477E+03
       336   8  1.473146E+06  7.847931E+03  1.076812E+04  2.860452E+02  1.770134E+03  6.873764E+02
       336   9  1.460232E+06  4.748077E+03  6.919308E+03 -6.970277E+03  3.141677E+02  2.210245E+02
       336  10  1.396087E+06 -1.066925E+04 -6.278298E+03 -6.975767E+03 -9.731478E-11 -5.886243E-11
       336  11  1.409000E+06 -8.102726E+03 -4.942068E+03  2.807274E+02  2.033345E-10  2.521271E-10
       336  12  1.422324E+06 -4.694575E+03 -2.445946E+03 -7.120352E+03 -1.661174E-10 -5.795390E-10
       336  13  1.441277E+06  5.599258E+02  4.748630E+03 -7.045436E+03  1.621160E-10  5.671097E-11
       336  14  1.441072E+06 -1.273600E+02  2.913058E+03  2.833858E+02 -3.975393E-09  1.166957E-10
       336  15  1.441278E+06  2.676420E+01  2.236694E+03 -7.045316E+03 -1.095028E-10 -2.363138E-10
       336  16  1.486469E+06  1.178895E+04  1.577541E+04 -7.115112E+03 -6.290143E-10 -5.520958E-12
       336  17  1.473146E+06  7.847930E+03  1.076811E+04  2.860443E+02 -2.503654E-09 -4.373180E-10
       336  18  1.460232E+06  4.748077E+03  6.919307E+03 -6.970277E+03 -9.750009E-11 -1.906627E-10
       336  19  1.396087E+06 -1.066924E+04 -6.278272E+03 -6.975763E+03 -3.542264E+03 -1.156559E+03
       336  20  1.409000E+06 -8.102724E+03 -4.942059E+03  2.807285E+02 -2.084671E+03 -6.874437E+02
       336  21  1.422324E+06 -4.694575E+03 -2.445946E+03 -7.120352E+03 -6.269843E+02 -2.210768E+02
       336  22  1.441277E+06  5.599303E+02  4.748654E+03 -7.045433E+03 -3.384171E+03 -1.156518E+03
       336  23  1.441072E+06 -1.273585E+02  2.913066E+03  2.833868E+02 -1.927407E+03 -6.874101E+02
       336  24  1.441278E+06  2.676431E+01  2.236694E+03 -7.045316E+03 -4.705784E+02 -2.210507E+02
       336  25  1.486469E+06  1.178895E+04  1.577543E+04 -7.115108E+03 -3.226067E+03 -1.156477E+03
       336  26  1.473146E+06  7.847931E+03  1.076812E+04  2.860452E+02 -1.770134E+03 -6.873764E+02
       336  27  1.460232E+06  4.748077E+03  6.919308E+03 -6.970277E+03 -3.141677E+02 -2.210245E+02
       337   1  1.452215E+06  2.783292E+03  4.869163E+03 -6.980183E+03  2.309108E+02 -4.935915E+01
       337   2  1.465125E+06  5.875573E+03  8.297579E+03  2.692226E+02 -9.743298E+02 -5.150380E+02
       337   3  1.478366E+06  9.624896E+03  1.267527E+04 -7.090248E+03 -2.179564E+03 -9.817657E+02
       337   4  1.441260E+06  5.117724E+01  2.145712E+03 -7.034528E+03  7.441333E+01 -4.938473E+01
       337   5  1.441095E+06 -9.982978E+01  2.412282E+03  2.698901E+02 -1.131146E+03 -5.150691E+02
       337   6  1.441259E+06  4.062912E+02  3.628387E+03 -7.034602E+03 -2.336674E+03 -9.818021E+02
       337   7  1.430306E+06 -2.680947E+03 -5.777472E+02 -7.088872E+03 -8.208135E+01 -4.941028E+01
       337   8  1.417065E+06 -6.075275E+03 -3.473058E+03  2.705576E+02 -1.287956E+03 -5.151003E+02
       337   9  1.404154E+06 -8.812415E+03 -5.418597E+03 -6.978959E+03 -2.493775E+03 -9.818385E+02
       337  10  1.452215E+06  2.783292E+03  4.869163E+03 -6.980183E+03 -2.142505E-10 -1.503141E-10
       337  11  1.465125E+06  5.875572E+03  8.297577E+03  2.692222E+02 -4.692415E-10  5.438771E-10
       337  12  1.478366E+06  9.624893E+03  1.267526E+04 -7.090250E+03 -3.721988E-10 -2.676761E-11
       337  13  1.441260E+06  5.117723E+01  2.145712E+03 -7.034528E+03  2.265304E-09  3.113837E-10
       337  14  1.441095E+06 -9.983040E+01  2.412279E+03  2.698896E+02  5.727815E-10  1.041546E-09
       337  15  1.441259E+06  4.062887E+02  3.628375E+03 -7.034604E+03 -2.837496E-09  2.614472E-10
       337  16  1.430306E+06 -2.680947E+03 -5.777472E+02 -7.088872E+03  4.730017E-10  7.278097E-11
       337  17  1.417065E+06 -6.075276E+03 -3.473062E+03  2.705570E+02 -9.275828E-10  5.710260E-10
       337  18  1.404154E+06 -8.812417E+03 -5.418610E+03 -6.978961E+03 -1.996468E-09  2.059150E-10
       337  19  1.452215E+06  2.783292E+03  4.869163E+03 -6.980183E+03 -2.309108E+02  4.935915E+01
       337  20  1.465125E+06  5.875573E+03  8.297579E+03  2.692226E+02  9.743298E+02  5.150380E+02
       337  21  1.478366E+06  9.624896E+03  1.267527E+04 -7.090248E+03  2.179564E+03  9.817657E+02
       337  22  1.441260E+06  5.117724E+01  2.145712E+03 -7.034528E+03 -7.441333E+01  4.938473E+01
       337  23  1.441095E+06 -9.982978E+01  2.412282E+03  2.698901E+02  1.131146E+03  5.150691E+02
       337  24  1.441259E+06  4.062912E+02  3.628387E+03 -7.034602E+03  2.336674E+03  9.818021E+02
       337  25  1.430306E+06 -2.680947E+03 -5.777472E+02 -7.088872E+03  8.208135E+01  4.941028E+01
       337  26  1.417065E+06 -6.075275E+03 -3.473058E+03  2.705576E+02  1.287956E+03  5.151003E+02
       337  27  1.404154E+06 -8.812415E+03 -5.418597E+03 -6.978959E+03  2.493775E+03  9.818385E+02
       338   1  1.509156E+06  1.669219E+04  2.109313E+04 -6.793987E+03 -2.901759E+03 -1.263596E+03
       338   2  1.521987E+06  1.955246E+04  2.719428E+04  3.553478E+02 -6.608717E+03 -1.746312E+03
       338   3  1.536434E+06  2.683813E+04  3.681659E+04 -7.736405E+03 -1.031561E+04 -2.199618E+03
       338   4  1.441544E+06 -1.280682E+02  4.494093E+03 -7.174676E+03 -3.068640E+03 -1.263642E+03
       338   5  1.440735E+06 -6.508169E+02  7.296258E+03  4.453096E+02 -6.765270E+03 -1.746377E+03
       338   6  1.441540E+06  3.250454E+03  1.361284E+04 -7.175913E+03 -1.046176E+04 -2.199705E+03
       338   7  1.373937E+06 -1.694866E+04 -1.210528E+04 -7.555324E+03 -3.235504E+03 -1.263688E+03
       338   8  1.359489E+06 -2.085458E+04 -1.260225E+04  5.352592E+02 -6.921803E+03 -1.746441E+03
       338   9  1.346654E+06 -2.033788E+04 -9.591569E+03 -6.615508E+03 -1.060788E+04 -2.199792E+03
       338  10  1.509156E+06  1.669219E+04  2.109311E+04 -6.793990E+03 -1.235522E-09  1.267308E-10
       338  11  1.521987E+06  1.955245E+04  2.719420E+04  3.553385E+02 -2.425188E-09  2.243678E-10
       338  12  1.536434E+06  2.683810E+04  3.681638E+04 -7.736423E+03 -8.125682E-10 -6.973004E-11
       338  13  1.441544E+06 -1.280724E+02  4.494072E+03 -7.174679E+03 -1.987221E-09  3.602185E-10
       338  14  1.440735E+06 -6.508325E+02  7.296167E+03  4.453001E+02 -1.510938E-09  2.651955E-10
       338  15  1.441539E+06  3.250420E+03  1.361262E+04 -7.175932E+03  7.264342E-10 -5.507169E-11
       338  16  1.373937E+06 -1.694867E+04 -1.210530E+04 -7.555327E+03 -1.022177E-09 -1.625204E-10
       338  17  1.359489E+06 -2.085460E+04 -1.260235E+04  5.352495E+02 -1.964117E-09  2.507621E-10
       338  18  1.346653E+06 -2.033792E+04 -9.591789E+03 -6.615527E+03  2.352480E-10  2.555093E-10
       338  19  1.509156E+06  1.669219E+04  2.109313E+04 -6.793987E+03  2.901759E+03  1.263596E+03
       338  20  1.521987E+06  1.955246E+04  2.719428E+04  3.553478E+02  6.608717E+03  1.746312E+03
       338  21  1.536434E+06  2.683813E+04  3.681659E+04 -7.736405E+03  1.031561E+04  2.199618E+03
       338  22  1.441544E+06 -1.280682E+02  4.494093E+03 -7.174676E+03  3.068640E+03  1.263642E+03
       338  23  1.440735E+06 -6.508169E+02  7.296258E+03  4.453096E+02  6.765270E+03  1.746377E+03
       338  24  1.441540E+06  3.250454E+03  1.361284E+04 -7.175913E+03  1.046176E+04  2.199705E+03
       338  25  1.373937E+06 -1.694866E+04 -1.210528E+04 -7.555324E+03  3.235504E+03  1.263688E+03
       338  26  1.359489E+06 -2.085458E+04 -1.260225E+04  5.352592E+02  6.921803E+03  1.746441E+03
       338  27  1.346654E+06 -2.033788E+04 -9.591569E+03 -6.615508E+03  1.060788E+04  2.199792E+03
       339   1  1.570921E+06  3.061121E+04  4.839212E+04 -4.731189E+03 -1.296591E+04 -2.561014E+03
       339   2  1.580506E+06  3.042184E+04  6.295822E+04 -4.102317E+02 -2.770961E+04 -3.107181E+03
       339   3  1.600600E+06  6.433518E+04  9.564644E+04 -1.267606E+04 -4.245410E+04 -3.242330E+03
       339   4  1.443513E+06 -1.078718E+03  1.715200E+04 -7.468677E+03 -1.321476E+04 -2.561100E+03
       339   5  1.438257E+06 -4.943712E+03  2.813274E+04  8.159526E+02 -2.781718E+04 -3.107345E+03
       339   6  1.443488E+06  2.527378E+04  5.714070E+04 -7.486290E+03 -4.242003E+04 -3.242718E+03
       339   7  1.316120E+06 -3.276982E+04 -1.408930E+04 -1.020561E+04 -1.346356E+04 -2.561184E+03
       339   8  1.296027E+06 -4.031075E+04 -6.694221E+03  2.041853E+03 -2.792472E+04 -3.107509E+03
       339   9  1.286399E+06 -1.378935E+04  1.863316E+04 -2.297836E+03 -4.238597E+04 -3.243105E+03
       339  10  1.570921E+06  3.061116E+04  4.839179E+04 -4.731215E+03 -5.484302E-10 -4.885402E-10
       339  11  1.580505E+06  3.042162E+04  6.295676E+04 -4.103010E+02 -5.958801E-10 -4.174257E-10
       339  12  1.600598E+06  6.433469E+04  9.564304E+04 -1.267617E+04  8.222750E-10 -8.643713E-10
       339  13  1.443513E+06 -1.078771E+03  1.715166E+04 -7.468704E+03  1.941068E-10 -3.549067E-10
       339  14  1.438256E+06 -4.943929E+03  2.813127E+04  8.158830E+02  6.956453E-10 -7.277780E-11
       339  15  1.443486E+06  2.527328E+04  5.713730E+04 -7.486401E+03  1.283980E-09 -8.258922E-10
       339  16  1.316120E+06 -3.276987E+04 -1.408965E+04 -1.020563E+04  1.013751E-09 -2.440073E-10
       339  17  1.296026E+06 -4.031097E+04 -6.695702E+03  2.041784E+03  9.183279E-10  1.673389E-09
       339  18  1.286397E+06 -1.378984E+04  1.862978E+04 -2.297947E+03  1.947312E-09 -1.012123E-10
       339  19  1.570921E+06  3.061121E+04  4.839212E+04 -4.731189E+03  1.296591E+04  2.561014E+03
       339  20  1.580506E+06  3.042184E+04  6.295822E+04 -4.102317E+02  2.770961E+04  3.107181E+03
       339  21  1.600600E+06  6.433518E+04  9.564644E+04 -1.267606E+04  4.245410E+04  3.242330E+03
       339  22  1.443513E+06 -1.078718E+03  1.715200E+04 -7.468677E+03  1.321476E+04  2.561100E+03
       339  23  1.438257E+06 -4.943712E+03  2.813274E+04  8.159526E+02  2.781718E+04  3.107345E+03
       339  24  1.443488E+06  2.527378E+04  5.714070E+04 -7.486290E+03  4.242003E+04  3.242718E+03
       339  25  1.316120E+06 -3.276982E+04 -1.408930E+04 -1.020561E+04  1.346356E+04  2.561184E+03
       339  26  1.296027E+06 -4.031075E+04 -6.694221E+03  2.041853E+03  2.792472E+04  3.107509E+03
       339  27  1.286399E+06 -1.378935E+04  1.863316E+04 -2.297836E+03  4.238597E+04  3.243105E+03
       340   1  1.650515E+06  3.961778E+04  1.167398E+05  1.221745E+04 -5.268531E+04 -4.187907E+03
       340   2  1.630642E+06  1.447219E+04  1.593909E+05 -1.013031E+04 -1.128229E+05 -5.022424E+03
       340   3  1.684071E+06  2.508436E+05  3.065372E+05 -5.133488E+04 -1.729655E+05 -1.877536E+03
       340   4  1.457432E+06 -8.428491E+03  6.945270E+04 -7.907600E+03 -5.360829E+04 -4.187017E+03
       340   5  1.420817E+06 -3.765258E+04  1.081067E+05  1.405748E+03 -1.123906E+05 -5.024227E+03
       340   6  1.457293E+06  1.944491E+05  2.503414E+05 -8.135560E+03 -1.711761E+05 -1.887562E+03
       340   7  1.264383E+06 -5.647601E+04  2.216305E+04 -2.802640E+04 -5.453098E+04 -4.186067E+03
       340   8  1.211032E+06 -8.978009E+04  5.681932E+04  1.293790E+04 -1.119584E+05 -5.026015E+03
       340   9  1.230566E+06  1.380578E+05  1.941428E+05  3.504799E+04 -1.693874E+05 -1.897343E+03
       340  10  1.650512E+06  3.961702E+04  1.167346E+05  1.221728E+04 -2.947334E-10 -1.512912E-09
       340  11  1.630628E+06  1.446876E+04  1.593670E+05 -1.013076E+04 -6.832084E-10 -2.855348E-09
       340  12  1.684039E+06  2.508356E+05  3.064811E+05 -5.133514E+04 -6.903279E-10 -9.262025E-10
       340  13  1.457429E+06 -8.429279E+03  6.944728E+04 -7.907781E+03 -2.939506E-11 -4.028505E-09
       340  14  1.420803E+06 -3.765598E+04  1.080829E+05  1.405294E+03  4.485552E-09  1.738376E-09
       340  15  1.457262E+06  1.944413E+05  2.502864E+05 -8.135820E+03 -9.253173E-10 -6.656502E-11
       340  16  1.264379E+06 -5.647683E+04  2.215744E+04 -2.802659E+04  9.392120E-10 -9.372939E-10
       340  17  1.211019E+06 -8.978347E+04  5.679577E+04  1.293744E+04  1.032170E-09  1.004304E-09
       340  18  1.230535E+06  1.380502E+05  1.940890E+05  3.504773E+04  3.782863E-10 -1.241045E-09
       340  19  1.650515E+06  3.961778E+04  1.167398E+05  1.221745E+04  5.268531E+04  4.187907E+03
       340  20  1.630642E+06  1.447219E+04  1.593909E+05 -1.013031E+04  1.128229E+05  5.022424E+03
       340  21  1.684071E+06  2.508436E+05  3.065372E+05 -5.133488E+04  1.729655E+05  1.877536E+03
       340  22  1.457432E+06 -8.428491E+03  6.945270E+04 -7.907600E+03  5.360829E+04  4.187017E+03
       340  23  1.420817E+06 -3.765258E+04  1.081067E+05  1.405748E+03  1.123906E+05  5.024227E+03
       340  24  1.457293E+06  1.944491E+05  2.503414E+05 -8.135560E+03  1.711761E+05  1.887562E+03
       340  25  1.264383E+06 -5.647601E+04  2.216305E+04 -2.802640E+04  5.453098E+04  4.186067E+03
       340  26  1.211032E+06 -8.978009E+04  5.681932E+04  1.293790E+04  1.119584E+05  5.026015E+03
       340  27  1.230566E+06  1.380578E+05  1.941428E+05  3.504799E+04  1.693874E+05  1.897343E+03
       341   1  1.014351E+06  4.352496E+06  1.074247E+06 -4.175990E+05  2.252218E+04  2.032823E+05
       341   2  5.920688E+05  3.662257E+06  7.544054E+05 -2.757724E+04  6.099870E+04  1.118400E+05
       341   3  4.802461E+05  3.070033E+06  5.730553E+05 -3.504539E+05  3.643158E+04  2.018760E+04
       341   4  2.159285E+05  1.145640E+06  2.801654E+05 -3.621202E+05  2.261196E+04  1.791565E+05
       341   5 -4.461634E+04  1.098540E+06  1.286976E+05 -5.893509E+03  6.102910E+04  1.093433E+05
       341   6  2.260216E+03  1.145750E+06  1.012354E+05 -3.627116E+05  3.629805E+04  3.922405E+04
       341   7 -5.832504E+05 -2.051918E+06 -5.146776E+05 -3.069176E+05  2.269775E+04  1.551525E+05
       341   8 -6.817844E+05 -1.459213E+06 -4.974883E+05  1.570802E+04  6.105941E+04  1.068560E+05
       341   9 -4.759982E+05 -7.751734E+05 -3.708541E+05 -3.749243E+05  3.616357E+04  5.820169E+04
       341  10  1.014339E+06  4.352451E+06  1.074169E+06 -4.176027E+05  1.659223E-09 -4.945427E-09
       341  11  5.920614E+05  3.662243E+06  7.543750E+05 -2.758273E+04  8.517113E-10 -8.444745E-09
       341  12  4.802446E+05  3.070032E+06  5.730520E+05 -3.504545E+05  5.559771E-10  1.427403E-08
       341  13  2.159194E+05  1.145606E+06  2.801042E+05 -3.621234E+05  1.266964E-09 -2.493702E-10
       341  14 -4.462355E+04  1.098526E+06  1.286682E+05 -5.898881E+03  6.779448E-10 -2.553101E-09
       341  15  2.258388E+03  1.145748E+06  1.012300E+05 -3.627127E+05  7.637565E-10 -8.770110E-10
       341  16 -5.832574E+05 -2.051945E+06 -5.147240E+05 -3.069204E+05 -4.681227E-10  4.985104E-09
       341  17 -6.817914E+05 -1.459226E+06 -4.975169E+05  1.570276E+04  5.165093E-10  1.387342E-08
       341  18 -4.760006E+05 -7.751774E+05 -3.708630E+05 -3.749260E+05  8.774406E-10 -1.106574E-08
       341  19  1.014351E+06  4.352496E+06  1.074247E+06 -4.175990E+05 -2.252218E+04 -2.032823E+05
       341  20  5.920688E+05  3.662257E+06  7.544054E+05 -2.757724E+04 -6.099870E+04 -1.118400E+05
       341  21  4.802461E+05  3.070033E+06  5.730553E+05 -3.504539E+05 -3.643158E+04 -2.018760E+04
       341  22  2.159285E+05  1.145640E+06  2.801654E+05 -3.621202E+05 -2.261196E+04 -1.791565E+05
       341  23 -4.461634E+04  1.098540E+06  1.286976E+05 -5.893509E+03 -6.102910E+04 -1.093433E+05
       341  24  2.260216E+03  1.145750E+06  1.012354E+05 -3.627116E+05 -3.629805E+04 -3.922405E+04
       341  25 -5.832504E+05 -2.051918E+06 -5.146776E+05 -3.069176E+05 -2.269775E+04 -1.551525E+05
       341  26 -6.817844E+05 -1.459213E+06 -4.974883E+05  1.570802E+04 -6.105941E+04 -1.068560E+05
       341  27 -4.759982E+05 -7.751734E+05 -3.708541E+05 -3.749243E+05 -3.616357E+04 -5.820169E+04
       342   1  1.477800E+05  1.602256E+06  2.085652E+05 -3.732214E+05  1.250054E+04  1.613427E+04
       342   2 -5.316610E+04  9.631597E+05  4.407874E+04 -7.027306E+03 -3.229220E+03 -2.660611E+04
       342   3 -1.462634E+05  3.441359E+05 -6.838062E+04 -3.431561E+05 -1.839108E+04 -6.929177E+04
       342   4  3.028171E+04  1.130246E+06  9.346826E+04 -3.600607E+05  1.245762E+04  2.162725E+04
       342   5 -1.403116E+04  1.120376E+06  8.259074E+04 -8.843270E+03 -3.269177E+03 -2.130214E+04
       342   6  4.955058E+04  1.130233E+06  1.238915E+05 -3.599232E+05 -1.842721E+04 -6.421954E+04
       342   7 -8.723239E+04  6.584384E+05 -2.164465E+04 -3.469096E+05  1.241491E+04  2.711607E+04
       342   8  2.510197E+04  1.277614E+06  1.211010E+05 -1.065965E+04 -3.309161E+03 -1.599684E+04
       342   9  2.453197E+05  1.916893E+06  3.161188E+05 -3.767103E+05 -1.846360E+04 -5.914086E+04
       342  10  1.477797E+05  1.602256E+06  2.085644E+05 -3.732215E+05 -2.148072E-09 -1.378927E-09
       342  11 -5.316630E+04  9.631589E+05  4.407739E+04 -7.027376E+03  2.815164E-09 -1.624331E-08
       342  12 -1.462650E+05  3.441306E+05 -6.839028E+04 -3.431571E+05 -1.487900E-09  1.263776E-08
       342  13  3.028142E+04  1.130245E+06  9.346709E+04 -3.600609E+05 -6.189785E-10  2.085506E-11
       342  14 -1.403129E+04  1.120375E+06  8.258986E+04 -8.843326E+03  4.627519E-09 -4.367263E-09
       342  15  4.954911E+04  1.130229E+06  1.238832E+05 -3.599241E+05  8.144970E-09 -1.328341E-09
       342  16 -8.723275E+04  6.584375E+05 -2.164633E+04 -3.469098E+05 -1.058415E-10  1.358673E-09
       342  17  2.510189E+04  1.277614E+06  1.211005E+05 -1.065969E+04 -7.086366E-09  2.427717E-08
       342  18  2.453184E+05  1.916889E+06  3.161116E+05 -3.767112E+05  1.617395E-09 -8.729605E-09
       342  19  1.477800E+05  1.602256E+06  2.085652E+05 -3.732214E+05 -1.250054E+04 -1.613427E+04
       342  20 -5.316610E+04  9.631597E+05  4.407874E+04 -7.027306E+03  3.229220E+03  2.660611E+04
       342  21 -1.462634E+05  3.441359E+05 -6.838062E+04 -3.431561E+05  1.839108E+04  6.929177E+04
       342  22  3.028171E+04  1.130246E+06  9.346826E+04 -3.600607E+05 -1.245762E+04 -2.162725E+04
       342  23 -1.403116E+04  1.120376E+06  8.259074E+04 -8.843270E+03  3.269177E+03  2.130214E+04
       342  24  4.955058E+04  1.130233E+06  1.238915E+05 -3.599232E+05  1.842721E+04  6.421954E+04
       342  25 -8.723239E+04  6.584384E+05 -2.164465E+04 -3.469096E+05 -1.241491E+04 -2.711607E+04
       342  26  2.510197E+04  1.277614E+06  1.211010E+05 -1.065965E+04  3.309161E+03  1.599684E+04
       342  27  2.453197E+05  1.916893E+06  3.161188E+05 -3.767103E+05  1.846360E+04  5.914086E+04
       343   1 -5.636769E+05 -1.078949E+06 -4.056274E+05 -3.893019E+05 -4.286617E+04 -1.081952E+05
       343   2 -7.899086E+05 -1.795309E+06 -4.990112E+05  2.489443E+04 -6.818683E+04 -1.968920E+05
       343   3 -5.179459E+05 -2.360819E+06 -4.070856E+05 -2.773696E+05 -2.510722E+04 -2.852218E+05
       343   4 -6.674886E+03  1.158694E+06  1.441376E+05 -3.635051E+05 -4.300013E+04 -8.829692E+04
       343   5 -7.300968E+04  1.081693E+06  2.055291E+05 -5.053417E+03 -6.814543E+04 -2.003850E+05
       343   6  3.617112E+05  1.158515E+06  4.678061E+05 -3.628071E+05 -2.501411E+04 -3.122011E+05
       343   7  5.499594E+05  3.400898E+06  6.935370E+05 -3.376059E+05 -4.313219E+04 -6.832650E+04
       343   8  6.432791E+05  3.966243E+06  9.094644E+05 -3.513301E+04 -6.810384E+04 -2.038924E+05
       343   9  1.240465E+06  4.689123E+06  1.341778E+06 -4.487225E+05 -2.491396E+04 -3.393297E+05
       343  10 -5.636820E+05 -1.078962E+06 -4.056529E+05 -3.893056E+05 -1.781083E-10  2.487649E-10
       343  11 -7.899241E+05 -1.795352E+06 -4.990930E+05  2.488361E+04 -1.635525E-09 -1.040495E-08
       343  12 -5.179685E+05 -2.360907E+06 -4.072403E+05 -2.773754E+05 -1.011663E-09 -6.165867E-10
       343  13 -6.678964E+03  1.158685E+06  1.441195E+05 -3.635082E+05 -3.120875E-09  1.804539E-10
       343  14 -7.302543E+04  1.081649E+06  2.054451E+05 -5.064408E+03 -1.791933E-09 -2.369681E-09
       343  15  3.616844E+05  1.158410E+06  4.676220E+05 -3.628134E+05 -2.215156E-09 -1.097728E-10
       343  16  5.499562E+05  3.400892E+06  6.935247E+05 -3.376083E+05  4.302948E-09 -4.615855E-10
       343  17  6.432630E+05  3.966197E+06  9.093780E+05 -3.514416E+04 -4.826334E-09  1.428525E-08
       343  18  1.240434E+06  4.689000E+06  1.341562E+06 -4.487294E+05 -3.496554E-09  1.366691E-09
       343  19 -5.636769E+05 -1.078949E+06 -4.056274E+05 -3.893019E+05  4.286617E+04  1.081952E+05
       343  20 -7.899086E+05 -1.795309E+06 -4.990112E+05  2.489443E+04  6.818683E+04  1.968920E+05
       343  21 -5.179459E+05 -2.360819E+06 -4.070856E+05 -2.773696E+05  2.510722E+04  2.852218E+05
       343  22 -6.674886E+03  1.158694E+06  1.441376E+05 -3.635051E+05  4.300013E+04  8.829692E+04
       343  23 -7.300968E+04  1.081693E+06  2.055291E+05 -5.053417E+03  6.814543E+04  2.003850E+05
       343  24  3.617112E+05  1.158515E+06  4.678061E+05 -3.628071E+05  2.501411E+04  3.122011E+05
       343  25  5.499594E+05  3.400898E+06  6.935370E+05 -3.376059E+05  4.313219E+04  6.832650E+04
       343  26  6.432791E+05  3.966243E+06  9.094644E+05 -3.513301E+04  6.810384E+04  2.038924E+05
       343  27  1.240465E+06  4.689123E+06  1.341778E+06 -4.487225E+05  2.491396E+04  3.393297E+05
       344   1 -1.334894E+06 -5.849036E+05 -3.078978E+05 -5.655887E+05 -1.566121E+05 -4.980187E+04
       344   2 -1.279105E+06 -4.212028E+05 -1.780376E+05 -5.378673E+05 -9.697718E+04 -6.446999E+03
       344   3 -1.251437E+06 -3.418144E+05 -1.181894E+05 -5.030239E+05 -3.202843E+04  2.283508E+04
       344   4 -8.241260E+05 -3.061205E+05 -1.608023E+05 -3.361006E+05 -1.077149E+05 -3.142888E+04
       344   5 -8.040867E+05 -2.056074E+05 -7.601131E+04 -3.626096E+05 -7.522049E+04  1.728616E+03
       344   6 -8.067590E+05 -1.839959E+05 -3.966498E+04 -3.820076E+05 -3.742210E+04  2.080398E+04
       344   7 -3.130685E+05 -2.721275E+04 -1.371675E+04 -1.064072E+05 -5.877314E+04 -1.302180E+04
       344   8 -3.288237E+05  1.004778E+04  2.600644E+04 -1.872135E+05 -5.344581E+04  9.914721E+03
       344   9 -3.618715E+05 -2.616026E+04  3.885330E+04 -2.609110E+05 -4.281988E+04  1.877140E+04
       344  10 -1.334921E+06 -5.849129E+05 -3.079486E+05 -5.655950E+05 -6.202292E-10  4.188381E-10
       344  11 -1.279115E+06 -4.212054E+05 -1.780554E+05 -5.378678E+05 -2.785434E-10 -2.389938E-09
       344  12 -1.251439E+06 -3.418152E+05 -1.181923E+05 -5.030233E+05 -3.757388E-09 -2.039053E-09
       344  13 -8.241388E+05 -3.061247E+05 -1.608260E+05 -3.361033E+05 -2.014576E-10  1.147019E-09
       344  14 -8.040928E+05 -2.056090E+05 -7.602196E+04 -3.626095E+05 -1.587175E-09  5.921423E-10
       344  15 -8.067607E+05 -1.839967E+05 -3.966842E+04 -3.820070E+05 -1.890504E-09  9.275811E-12
       344  16 -3.130723E+05 -2.721386E+04 -1.372357E+04 -1.064078E+05 -4.870692E-10 -6.678833E-10
       344  17 -3.288268E+05  1.004691E+04  2.600089E+04 -1.872131E+05  2.923840E-09  1.041675E-09
       344  18 -3.618735E+05 -2.616113E+04  3.884919E+04 -2.609104E+05  2.520601E-09  3.841508E-09
       344  19 -1.334894E+06 -5.849036E+05 -3.078978E+05 -5.655887E+05  1.566121E+05  4.980187E+04
       344  20 -1.279105E+06 -4.212028E+05 -1.780376E+05 -5.378673E+05  9.697718E+04  6.446999E+03
       344  21 -1.251437E+06 -3.418144E+05 -1.181894E+05 -5.030239E+05  3.202843E+04 -2.283508E+04
       344  22 -8.241260E+05 -3.061205E+05 -1.608023E+05 -3.361006E+05  1.077149E+05  3.142888E+04
       344  23 -8.040867E+05 -2.056074E+05 -7.601131E+04 -3.626096E+05  7.522049E+04 -1.728616E+03
       344  24 -8.067590E+05 -1.839959E+05 -3.966498E+04 -3.820076E+05  3.742210E+04 -2.080398E+04
       344  25 -3.130685E+05 -2.721275E+04 -1.371675E+04 -1.064072E+05  5.877314E+04  1.302180E+04
       344  26 -3.288237E+05  1.004778E+04  2.600644E+04 -1.872135E+05  5.344581E+04 -9.914721E+03
       344  27 -3.618715E+05 -2.616026E+04  3.885330E+04 -2.609110E+05  4.281988E+04 -1.877140E+04
       345   1 -1.199321E+06 -3.301902E+05 -9.930583E+04 -4.958670E+05 -2.780218E+04  2.212955E+04
       345   2 -1.138133E+06 -2.935917E+05 -7.130905E+04 -4.721862E+05 -1.612319E+04  2.310453E+04
       345   3 -1.070796E+06 -2.716964E+05 -5.256083E+04 -4.583964E+05 -3.907031E+03  2.265208E+04
       345   4 -8.020960E+05 -1.828508E+05 -2.961233E+04 -3.808001E+05 -3.220951E+04  2.046976E+04
       345   5 -8.049115E+05 -1.720815E+05 -1.548001E+04 -3.772373E+05 -2.328007E+04  2.041182E+04
       345   6 -8.010325E+05 -1.754679E+05 -8.410315E+03 -3.835672E+05 -1.381467E+04  1.892636E+04
       345   7 -4.047080E+05 -3.549524E+04  4.007519E+04 -2.656646E+05 -3.661979E+04  1.880880E+04
       345   8 -4.715707E+05 -5.055918E+04  4.034648E+04 -2.822402E+05 -3.044103E+04  1.771752E+04
       345   9 -5.311880E+05 -7.923109E+04  3.573982E+04 -3.087066E+05 -2.372699E+04  1.519891E+04
       345  10 -1.199322E+06 -3.301910E+05 -9.930821E+04 -4.958665E+05 -2.068610E-08 -7.402060E-09
       345  11 -1.138134E+06 -2.935923E+05 -7.131054E+04 -4.721859E+05 -3.470543E-10  4.403991E-09
       345  12 -1.070796E+06 -2.716969E+05 -5.256182E+04 -4.583963E+05  3.101686E-08  1.827256E-08
       345  13 -8.020973E+05 -1.828515E+05 -2.961507E+04 -3.807995E+05 -1.870276E-09 -2.310640E-09
       345  14 -8.049122E+05 -1.720820E+05 -1.548181E+04 -3.772369E+05 -2.670239E-09 -9.074087E-09
       345  15 -8.010328E+05 -1.754683E+05 -8.411346E+03 -3.835669E+05  2.011885E-09 -9.355266E-09
       345  16 -4.047096E+05 -3.549598E+04  4.007200E+04 -2.656640E+05  1.758430E-08  9.166072E-09
       345  17 -4.715718E+05 -5.055977E+04  4.034414E+04 -2.822398E+05 -8.606465E-09  2.323853E-09
       345  18 -5.311887E+05 -7.923149E+04  3.573833E+04 -3.087063E+05 -2.704637E-08 -3.690553E-09
       345  19 -1.199321E+06 -3.301902E+05 -9.930583E+04 -4.958670E+05  2.780218E+04 -2.212955E+04
       345  20 -1.138133E+06 -2.935917E+05 -7.130905E+04 -4.721862E+05  1.612319E+04 -2.310453E+04
       345  21 -1.070796E+06 -2.716964E+05 -5.256083E+04 -4.583964E+05  3.907031E+03 -2.265208E+04
       345  22 -8.020960E+05 -1.828508E+05 -2.961233E+04 -3.808001E+05  3.220951E+04 -2.046976E+04
       345  23 -8.049115E+05 -1.720815E+05 -1.548001E+04 -3.772373E+05  2.328007E+04 -2.041182E+04
       345  24 -8.010325E+05 -1.754679E+05 -8.410315E+03 -3.835672E+05  1.381467E+04 -1.892636E+04
       345  25 -4.047080E+05 -3.549524E+04  4.007519E+04 -2.656646E+05  3.661979E+04 -1.880880E+04
       345  26 -4.715707E+05 -5.055918E+04  4.034648E+04 -2.822402E+05  3.044103E+04 -1.771752E+04
       345  27 -5.311880E+05 -7.923109E+04  3.573982E+04 -3.087066E+05  2.372699E+04 -1.519891E+04
       346   1 -1.028296E+06 -2.570466E+05 -4.327429E+04 -4.470767E+05 -1.719535E+03  2.001885E+04
       346   2 -9.673749E+05 -2.284491E+05 -2.970013E+04 -4.233511E+05  2.221358E+03  1.561473E+04
       346   3 -8.973158E+05 -2.097334E+05 -1.770498E+04 -4.104931E+05  6.216492E+03  1.106494E+04
       346   4 -8.006056E+05 -1.754431E+05 -6.304480E+03 -3.834293E+05 -1.153130E+04  1.632976E+04
       346   5 -8.051740E+05 -1.703760E+05 -3.448046E+03 -3.780508E+05 -7.871266E+03  1.182075E+04
       346   6 -8.005535E+05 -1.751351E+05 -1.947678E+03 -3.835412E+05 -4.157229E+03  7.166010E+03
       346   7 -5.728593E+05 -9.383430E+04  3.066461E+04 -3.197599E+05 -2.134689E+04  1.263925E+04
       346   8 -6.429457E+05 -1.123006E+05  2.280365E+04 -3.327395E+05 -1.796663E+04  8.025742E+03
       346   9 -7.037821E+05 -1.405362E+05  1.380957E+04 -3.565856E+05 -1.453255E+04  3.266486E+03
       346  10 -1.028296E+06 -2.570470E+05 -4.327505E+04 -4.470767E+05 -2.885884E-08 -4.358968E-09
       346  11 -9.673749E+05 -2.284493E+05 -2.970060E+04 -4.233512E+05 -9.418757E-09  1.338821E-09
       346  12 -8.973159E+05 -2.097335E+05 -1.770529E+04 -4.104931E+05  1.831641E-08  9.306915E-09
       346  13 -8.006058E+05 -1.754434E+05 -6.305231E+03 -3.834291E+05  2.924913E-09 -1.092683E-08
       346  14 -8.051741E+05 -1.703762E+05 -3.448424E+03 -3.780507E+05 -2.303873E-09 -5.458018E-09
       346  15 -8.005535E+05 -1.751352E+05 -1.947807E+03 -3.835412E+05 -2.065107E-09 -1.263262E-09
       346  16 -5.728599E+05 -9.383459E+04  3.066345E+04 -3.197597E+05  3.310491E-08  1.786923E-08
       346  17 -6.429461E+05 -1.123007E+05  2.280292E+04 -3.327394E+05  1.869062E-09  3.476666E-09
       346  18 -7.037823E+05 -1.405363E+05  1.380915E+04 -3.565856E+05 -2.202261E-08 -7.809343E-09
       346  19 -1.028296E+06 -2.570466E+05 -4.327429E+04 -4.470767E+05  1.719535E+03 -2.001885E+04
       346  20 -9.673749E+05 -2.284491E+05 -2.970013E+04 -4.233511E+05 -2.221358E+03 -1.561473E+04
       346  21 -8.973158E+05 -2.097334E+05 -1.770498E+04 -4.104931E+05 -6.216492E+03 -1.106494E+04
       346  22 -8.006056E+05 -1.754431E+05 -6.304480E+03 -3.834293E+05  1.153130E+04 -1.632976E+04
       346  23 -8.051740E+05 -1.703760E+05 -3.448046E+03 -3.780508E+05  7.871266E+03 -1.182075E+04
       346  24 -8.005535E+05 -1.751351E+05 -1.947678E+03 -3.835412E+05  4.157229E+03 -7.166010E+03
       346  25 -5.728593E+05 -9.383430E+04  3.066461E+04 -3.197599E+05  2.134689E+04 -1.263925E+04
       346  26 -6.429457E+05 -1.123006E+05  2.280365E+04 -3.327395E+05  1.796663E+04 -8.025742E+03
       346  27 -7.037821E+05 -1.405362E+05  1.380957E+04 -3.565856E+05  1.453255E+04 -3.266486E+03
       347   1 -8.555874E+05 -1.947890E+05 -1.024010E+04 -3.988675E+05  7.669443E+03  8.036153E+03
       347   2 -7.947936E+05 -1.665751E+05  7.126258E+02 -3.750749E+05  1.018933E+04  2.847633E+03
       347   3 -7.245383E+05 -1.479107E+05  1.129076E+04 -3.621763E+05  1.271395E+04 -2.353275E+03
       347   4 -8.005025E+05 -1.751442E+05 -1.503598E+03 -3.835200E+05 -2.695807E+03  4.140599E+03
       347   5 -8.052337E+05 -1.703796E+05 -9.534209E+02 -3.780688E+05 -2.004962E+02 -1.057227E+03
       347   6 -8.005048E+05 -1.751608E+05 -7.591728E+02 -3.835138E+05  2.299483E+03 -6.267451E+03
       347   7 -7.454135E+05 -1.554988E+05  7.233484E+03 -3.681711E+05 -1.306215E+04  2.446382E+02
       347   8 -8.156735E+05 -1.741840E+05 -2.619024E+03 -3.810625E+05 -1.059020E+04 -4.962038E+03
       347   9 -8.764648E+05 -2.024102E+05 -1.280875E+04 -4.048487E+05 -8.113639E+03 -1.018112E+04
       347  10 -8.555875E+05 -1.947891E+05 -1.024033E+04 -3.988675E+05  7.492962E-10  2.382077E-09
       347  11 -7.947937E+05 -1.665752E+05  7.124151E+02 -3.750750E+05 -3.403937E-10  2.807186E-09
       347  12 -7.245385E+05 -1.479107E+05  1.129044E+04 -3.621763E+05 -1.406014E-09  1.950161E-09
       347  13 -8.005025E+05 -1.751443E+05 -1.503643E+03 -3.835200E+05 -4.147567E-10  1.502528E-09
       347  14 -8.052337E+05 -1.703796E+05 -9.534231E+02 -3.780688E+05 -1.321338E-10  7.950061E-10
       347  15 -8.005048E+05 -1.751608E+05 -7.592566E+02 -3.835138E+05 -2.992901E-09  3.018234E-09
       347  16 -7.454137E+05 -1.554989E+05  7.233162E+03 -3.681711E+05 -1.957943E-09  7.042714E-10
       347  17 -8.156737E+05 -1.741841E+05 -2.619281E+03 -3.810626E+05  3.010817E-10  2.767724E-09
       347  18 -8.764649E+05 -2.024103E+05 -1.280907E+04 -4.048488E+05 -4.880649E-10  1.908507E-09
       347  19 -8.555874E+05 -1.947890E+05 -1.024010E+04 -3.988675E+05 -7.669443E+03 -8.036153E+03
       347  20 -7.947936E+05 -1.665751E+05  7.126258E+02 -3.750749E+05 -1.018933E+04 -2.847633E+03
       347  21 -7.245383E+05 -1.479107E+05  1.129076E+04 -3.621763E+05 -1.271395E+04  2.353275E+03
       347  22 -8.005025E+05 -1.751442E+05 -1.503598E+03 -3.835200E+05  2.695807E+03 -4.140599E+03
       347  23 -8.052337E+05 -1.703796E+05 -9.534209E+02 -3.780688E+05  2.004962E+02  1.057227E+03
       347  24 -8.005048E+05 -1.751608E+05 -7.591728E+02 -3.835138E+05 -2.299483E+03  6.267451E+03
       347  25 -7.454135E+05 -1.554988E+05  7.233484E+03 -3.681711E+05  1.306215E+04 -2.446382E+02
       347  26 -8.156735E+05 -1.741840E+05 -2.619024E+03 -3.810625E+05  1.059020E+04  4.962038E+03
       347  27 -8.764648E+05 -2.024102E+05 -1.280875E+04 -4.048487E+05  8.113639E+03  1.018112E+04
       348   1 -6.829031E+05 -1.329330E+05  1.828926E+04 -3.505335E+05  1.402096E+04 -5.446426E+03
       348   2 -6.221416E+05 -1.047266E+05  2.844762E+04 -3.267493E+05  1.649812E+04 -1.065960E+04
       348   3 -5.519132E+05 -8.605421E+04  3.826833E+04 -3.138526E+05  1.896849E+04 -1.585270E+04
       348   4 -8.005085E+05 -1.751622E+05 -7.650296E+02 -3.835124E+05  3.607386E+03 -9.360499E+03
       348   5 -8.052401E+05 -1.703931E+05 -9.862997E+02 -3.780687E+05  6.122304E+03 -1.456024E+04
       348   6 -8.005166E+05 -1.751659E+05 -1.575317E+03 -3.835143E+05  8.630406E+03 -1.973996E+04
       348   7 -9.180974E+05 -2.173894E+05 -1.981878E+04 -4.164849E+05 -6.803980E+03 -1.327374E+04
       348   8 -9.883023E+05 -2.360560E+05 -3.042043E+04 -4.293738E+05 -4.250263E+03 -1.845966E+04
       348   9 -1.049056E+06 -2.642721E+05 -4.142050E+04 -4.531505E+05 -1.703401E+03 -2.362561E+04
       348  10 -6.829033E+05 -1.329331E+05  1.828883E+04 -3.505334E+05 -3.624336E-09  2.975557E-09
       348  11 -6.221420E+05 -1.047268E+05  2.844689E+04 -3.267491E+05 -4.529900E-09  3.837520E-09
       348  12 -5.519136E+05 -8.605457E+04  3.826718E+04 -3.138524E+05 -3.627129E-09  1.835287E-09
       348  13 -8.005085E+05 -1.751623E+05 -7.652186E+02 -3.835123E+05 -1.799380E-09  3.963311E-09
       348  14 -8.052402E+05 -1.703933E+05 -9.867683E+02 -3.780686E+05 -1.746183E-09  2.559054E-09
       348  15 -8.005168E+05 -1.751663E+05 -1.576189E+03 -3.835142E+05  1.106511E-10  1.631046E-09
       348  16 -9.180975E+05 -2.173896E+05 -1.981919E+04 -4.164850E+05  1.973534E-09  2.350209E-09
       348  17 -9.883025E+05 -2.360564E+05 -3.042111E+04 -4.293739E+05  2.643781E-09  4.446301E-09
       348  18 -1.049056E+06 -2.642727E+05 -4.142156E+04 -4.531506E+05  9.031220E-10  4.319169E-09
       348  19 -6.829031E+05 -1.329330E+05  1.828926E+04 -3.505335E+05 -1.402096E+04  5.446426E+03
       348  20 -6.221416E+05 -1.047266E+05  2.844762E+04 -3.267493E+05 -1.649812E+04  1.065960E+04
       348  21 -5.519132E+05 -8.605421E+04  3.826833E+04 -3.138526E+05 -1.896849E+04  1.585270E+04
       348  22 -8.005085E+05 -1.751622E+05 -7.650296E+02 -3.835124E+05 -3.607386E+03  9.360499E+03
       348  23 -8.052401E+05 -1.703931E+05 -9.862997E+02 -3.780687E+05 -6.122304E+03  1.456024E+04
       348  24 -8.005166E+05 -1.751659E+05 -1.575317E+03 -3.835143E+05 -8.630406E+03  1.973996E+04
       348  25 -9.180974E+05 -2.173894E+05 -1.981878E+04 -4.164849E+05  6.803980E+03  1.327374E+04
       348  26 -9.883023E+05 -2.360560E+05 -3.042043E+04 -4.293738E+05  4.250263E+03  1.845966E+04
       348  27 -1.049056E+06 -2.642721E+05 -4.142050E+04 -4.531505E+05  1.703401E+03  2.362561E+04
       349   1 -5.103302E+05 -7.110498E+04  4.481522E+04 -3.022705E+05  2.045081E+04 -1.886136E+04
       349   2 -4.496013E+05 -4.290511E+04  5.374837E+04 -2.784445E+05  2.386911E+04 -2.358031E+04
       349   3 -3.796330E+05 -2.445800E+04  6.155120E+04 -2.654615E+05  2.721573E+04 -2.810458E+04
       349   4 -8.005771E+05 -1.751591E+05 -2.046379E+03 -3.835332E+05  1.010366E+04 -2.275272E+04
       349   5 -8.051915E+05 -1.704181E+05 -3.632803E+03 -3.780497E+05  1.389590E+04 -2.733254E+04
       349   6 -8.006450E+05 -1.755050E+05 -6.646769E+03 -3.834116E+05  1.761628E+04 -3.171767E+04
       349   7 -1.090733E+06 -2.792045E+05 -4.890923E+04 -4.647601E+05 -2.383687E+02 -2.664215E+04
       349   8 -1.160644E+06 -2.979172E+05 -6.101556E+04 -4.776007E+05  3.928814E+03 -3.108247E+04
       349   9 -1.221462E+06 -3.265320E+05 -7.484672E+04 -5.012851E+05  8.023839E+03 -3.532813E+04
       349  10 -5.103307E+05 -7.110547E+04  4.481377E+04 -3.022702E+05 -1.379833E-08 -4.416021E-09
       349  11 -4.496020E+05 -4.290586E+04  5.374625E+04 -2.784440E+05 -1.334097E-08 -3.400887E-09
       349  12 -3.796340E+05 -2.445905E+04  6.154832E+04 -2.654609E+05 -1.261850E-08 -2.684289E-09
       349  13 -8.005773E+05 -1.751597E+05 -2.047543E+03 -3.835330E+05 -2.180230E-09  1.614585E-10
       349  14 -8.051919E+05 -1.704190E+05 -3.634569E+03 -3.780494E+05 -3.300053E-09 -7.770049E-09
       349  15 -8.006456E+05 -1.755062E+05 -6.649241E+03 -3.834111E+05 -5.228509E-09 -1.694887E-08
       349  16 -1.090733E+06 -2.792053E+05 -4.891057E+04 -4.647601E+05  1.068952E-08  7.597448E-09
       349  17 -1.160644E+06 -2.979183E+05 -6.101740E+04 -4.776006E+05  9.806537E-09  8.202113E-09
       349  18 -1.221462E+06 -3.265334E+05 -7.484919E+04 -5.012849E+05  1.720720E-09  5.461043E-09
       349  19 -5.103302E+05 -7.110498E+04  4.481522E+04 -3.022705E+05 -2.045081E+04  1.886136E+04
       349  20 -4.496013E+05 -4.290511E+04  5.374837E+04 -2.784445E+05 -2.386911E+04  2.358031E+04
       349  21 -3.796330E+05 -2.445800E+04  6.155120E+04 -2.654615E+05 -2.721573E+04  2.810458E+04
       349  22 -8.005771E+05 -1.751591E+05 -2.046379E+03 -3.835332E+05 -1.010366E+04  2.275272E+04
       349  23 -8.051915E+05 -1.704181E+05 -3.632803E+03 -3.780497E+05 -1.389590E+04  2.733254E+04
       349  24 -8.006450E+05 -1.755050E+05 -6.646769E+03 -3.834116E+05 -1.761628E+04  3.171767E+04
       349  25 -1.090733E+06 -2.792045E+05 -4.890923E+04 -4.647601E+05  2.383687E+02  2.664215E+04
       349  26 -1.160644E+06 -2.979172E+05 -6.101556E+04 -4.776007E+05 -3.928814E+03  3.108247E+04
       349  27 -1.221462E+06 -3.265320E+05 -7.484672E+04 -5.012851E+05 -8.023839E+03  3.532813E+04
       350   1 -3.380348E+05 -9.876751E+03  6.655690E+04 -2.544355E+05  2.967203E+04 -3.058504E+04
       350   2 -2.787053E+05  1.878948E+04  7.117820E+04 -2.279157E+05  3.579489E+04 -3.294814E+04
       350   3 -2.121388E+05  3.382765E+04  7.125158E+04 -2.111681E+05  4.120826E+04 -3.342046E+04
       350   4 -8.011002E+05 -1.755278E+05 -8.866358E+03 -3.835460E+05  1.994663E+04 -3.424654E+04
       350   5 -8.049214E+05 -1.722503E+05 -1.632322E+04 -3.771980E+05  2.971427E+04 -3.524035E+04
       350   6 -8.022363E+05 -1.833286E+05 -3.122325E+04 -3.806255E+05  3.877159E+04 -3.434266E+04
       350   7 -1.263941E+06 -3.411594E+05 -8.429539E+04 -5.125678E+05  1.022881E+04 -3.790521E+04
       350   8 -1.330845E+06 -3.632619E+05 -1.038321E+05 -5.263619E+05  2.363909E+04 -3.753047E+04
       350   9 -1.391964E+06 -4.004470E+05 -1.337084E+05 -5.499309E+05  3.633738E+04 -3.526390E+04
       350  10 -3.380360E+05 -9.877991E+03  6.655349E+04 -2.544348E+05  3.978523E-09  4.566007E-09
       350  11 -2.787069E+05  1.878797E+04  7.117376E+04 -2.279147E+05  7.841825E-09  7.371753E-09
       350  12 -2.121409E+05  3.382599E+04  7.124630E+04 -2.111670E+05  1.159590E-08  6.681997E-09
       350  13 -8.011009E+05 -1.755292E+05 -8.869308E+03 -3.835455E+05 -5.297202E-09 -1.664004E-08
       350  14 -8.049227E+05 -1.722519E+05 -1.632722E+04 -3.771971E+05 -1.896075E-09 -8.756547E-09
       350  15 -8.022382E+05 -1.833303E+05 -3.122830E+04 -3.806244E+05 -1.147176E-09 -2.536555E-09
       350  16 -1.263942E+06 -3.411610E+05 -8.429829E+04 -5.125674E+05 -1.470493E-08 -2.451541E-09
       350  17 -1.330845E+06 -3.632636E+05 -1.038358E+05 -5.263611E+05 -1.746630E-08 -4.613085E-09
       350  18 -1.391966E+06 -4.004487E+05 -1.337132E+05 -5.499298E+05 -1.256786E-08 -7.202686E-09
       350  19 -3.380348E+05 -9.876751E+03  6.655690E+04 -2.544355E+05 -2.967203E+04  3.058504E+04
       350  20 -2.787053E+05  1.878948E+04  7.117820E+04 -2.279157E+05 -3.579489E+04  3.294814E+04
       350  21 -2.121388E+05  3.382765E+04  7.125158E+04 -2.111681E+05 -4.120826E+04  3.342046E+04
       350  22 -8.011002E+05 -1.755278E+05 -8.866358E+03 -3.835460E+05 -1.994663E+04  3.424654E+04
       350  23 -8.049214E+05 -1.722503E+05 -1.632322E+04 -3.771980E+05 -2.971427E+04  3.524035E+04
       350  24 -8.022363E+05 -1.833286E+05 -3.122325E+04 -3.806255E+05 -3.877159E+04  3.434266E+04
       350  25 -1.263941E+06 -3.411594E+05 -8.429539E+04 -5.125678E+05 -1.022881E+04  3.790521E+04
       350  26 -1.330845E+06 -3.632619E+05 -1.038321E+05 -5.263619E+05 -2.363909E+04  3.753047E+04
       350  27 -1.391964E+06 -4.004470E+05 -1.337084E+05 -5.499309E+05 -3.633738E+04  3.526390E+04
       351   1 -1.691784E+05  4.302632E+04  7.005949E+04 -2.067158E+05  4.782979E+04 -3.279489E+04
       351   2 -1.383354E+05  7.993244E+04  5.946526E+04 -1.309184E+05  5.060550E+04 -2.330322E+04
       351   3 -1.250226E+05  4.164316E+04  2.635906E+04 -4.672833E+04  4.635847E+04  4.826811E+03
       351   4 -8.071984E+05 -1.844949E+05 -4.182180E+04 -3.818467E+05  4.408588E+04 -3.420944E+04
       351   5 -8.040190E+05 -2.076607E+05 -8.014714E+04 -3.618335E+05  8.284341E+04 -1.117106E+04
       351   6 -8.255448E+05 -3.132177E+05 -1.695462E+05 -3.334245E+05  1.145713E+05  3.051379E+04
       351   7 -1.444787E+06 -4.119790E+05 -1.537154E+05 -5.568103E+05  4.034607E+04 -3.562250E+04
       351   8 -1.469222E+06 -4.951558E+05 -2.197741E+05 -5.924966E+05  1.150437E+05  9.411482E+02
       351   9 -1.525529E+06 -6.678970E+05 -3.654674E+05 -6.197745E+05  1.826981E+05  5.614287E+04
       351  10 -1.691811E+05  4.302455E+04  7.005317E+04 -2.067146E+05 -9.546265E-10  1.068431E-09
       351  11 -1.383383E+05  7.993117E+04  5.945943E+04 -1.309174E+05  1.902579E-09  2.829741E-09
       351  12 -1.250249E+05  4.164256E+04  2.635498E+04 -4.672851E+04  8.030083E-10  1.666953E-09
       351  13 -8.072008E+05 -1.844967E+05 -4.182765E+04 -3.818455E+05  1.899480E-09 -4.710624E-10
       351  14 -8.040264E+05 -2.076627E+05 -8.016029E+04 -3.618327E+05 -3.657672E-11  9.160662E-09
       351  15 -8.255591E+05 -3.132222E+05 -1.695726E+05 -3.334273E+05 -2.895195E-10  5.159014E-09
       351  16 -1.444789E+06 -4.119808E+05 -1.537208E+05 -5.568092E+05  1.255172E-09 -1.116079E-09
       351  17 -1.469236E+06 -4.951593E+05 -2.197990E+05 -5.924966E+05  4.321150E-10  1.909666E-10
       351  18 -1.525566E+06 -6.679093E+05 -3.655363E+05 -6.197828E+05 -1.662749E-09 -3.013041E-10
       351  19 -1.691784E+05  4.302632E+04  7.005949E+04 -2.067158E+05 -4.782979E+04  3.279489E+04
       351  20 -1.383354E+05  7.993244E+04  5.946526E+04 -1.309184E+05 -5.060550E+04  2.330322E+04
       351  21 -1.250226E+05  4.164316E+04  2.635906E+04 -4.672833E+04 -4.635847E+04 -4.826811E+03
       351  22 -8.071984E+05 -1.844949E+05 -4.182180E+04 -3.818467E+05 -4.408588E+04  3.420944E+04
       351  23 -8.040190E+05 -2.076607E+05 -8.014714E+04 -3.618335E+05 -8.284341E+04  1.117106E+04
       351  24 -8.255448E+05 -3.132177E+05 -1.695462E+05 -3.334245E+05 -1.145713E+05 -3.051379E+04
       351  25 -1.444787E+06 -4.119790E+05 -1.537154E+05 -5.568103E+05 -4.034607E+04  3.562250E+04
       351  26 -1.469222E+06 -4.951558E+05 -2.197741E+05 -5.924966E+05 -1.150437E+05 -9.411482E+02
       351  27 -1.525529E+06 -6.678970E+05 -3.654674E+05 -6.197745E+05 -1.826981E+05 -5.614287E+04
       352   1 -6.569154E+05 -1.144057E+05 -1.697080E+05 -3.760787E+04 -1.661696E+05 -2.557037E+03
       352   2 -6.321490E+05  1.116778E+05 -3.320579E+04 -1.265014E+04 -1.099991E+05 -7.164786E+03
       352   3 -6.788929E+05  8.030740E+04  2.395479E+03  2.461688E+04 -5.383926E+04 -6.424996E+03
       352   4 -9.674448E+05 -1.918722E+05 -2.468737E+05  4.790389E+03 -1.685778E+05 -2.571744E+03
       352   5 -9.314740E+05  3.713451E+04 -1.065656E+05 -1.502505E+03 -1.106395E+05 -7.168062E+03
       352   6 -9.673575E+05  8.309913E+03 -6.842318E+04  4.513653E+03 -5.271068E+04 -6.421370E+03
       352   7 -1.277883E+06 -2.693392E+05 -3.240457E+05  4.716738E+04 -1.709848E+05 -2.586785E+03
       352   8 -1.230717E+06 -3.741495E+04 -1.799319E+05  9.639708E+03 -1.112797E+05 -7.171362E+03
       352   9 -1.255745E+06 -6.369226E+04 -1.392477E+05 -1.558024E+04 -5.158262E+04 -6.417816E+03
       352  10 -6.569451E+05 -1.144132E+05 -1.697599E+05 -3.760821E+04 -1.479246E-09  5.283274E-10
       352  11 -6.321620E+05  1.116745E+05 -3.322865E+04 -1.265077E+04  1.196088E-09 -1.010541E-09
       352  12 -6.788960E+05  8.030657E+04  2.389948E+03  2.461660E+04  2.910564E-09 -3.213928E-09
       352  13 -9.674753E+05 -1.918799E+05 -2.469272E+05  4.790040E+03  3.786515E-10  2.145508E-09
       352  14 -9.314871E+05  3.713116E+04 -1.065887E+05 -1.503144E+03 -1.132643E-10  4.758625E-10
       352  15 -9.673605E+05  8.309122E+03 -6.842849E+04  4.513381E+03  2.288530E-09  5.685224E-10
       352  16 -1.277914E+06 -2.693471E+05 -3.241008E+05  4.716702E+04 -7.518690E-12  9.539737E-10
       352  17 -1.230730E+06 -3.741834E+04 -1.799553E+05  9.639064E+03 -8.605185E-10 -2.377536E-09
       352  18 -1.255748E+06 -6.369302E+04 -1.392528E+05 -1.558051E+04 -7.876083E-11 -4.346156E-09
       352  19 -6.569154E+05 -1.144057E+05 -1.697080E+05 -3.760787E+04  1.661696E+05  2.557037E+03
       352  20 -6.321490E+05  1.116778E+05 -3.320579E+04 -1.265014E+04  1.099991E+05  7.164786E+03
       352  21 -6.788929E+05  8.030740E+04  2.395479E+03  2.461688E+04  5.383926E+04  6.424996E+03
       352  22 -9.674448E+05 -1.918722E+05 -2.468737E+05  4.790389E+03  1.685778E+05  2.571744E+03
       352  23 -9.314740E+05  3.713451E+04 -1.065656E+05 -1.502505E+03  1.106395E+05  7.168062E+03
       352  24 -9.673575E+05  8.309913E+03 -6.842318E+04  4.513653E+03  5.271068E+04  6.421370E+03
       352  25 -1.277883E+06 -2.693392E+05 -3.240457E+05  4.716738E+04  1.709848E+05  2.586785E+03
       352  26 -1.230717E+06 -3.741495E+04 -1.799319E+05  9.639708E+03  1.112797E+05  7.171362E+03
       352  27 -1.255745E+06 -6.369226E+04 -1.392477E+05 -1.558024E+04  5.158262E+04  6.417816E+03
       353   1 -6.926067E+05  4.011663E+04  7.873378E+03  3.107619E+02 -4.158183E+04 -5.364484E+03
       353   2 -7.003838E+05  6.671890E+04  3.322194E+04 -2.972828E+03 -2.742156E+04 -5.459091E+03
       353   3 -7.183187E+05  5.977769E+04  4.097527E+04  8.151357E+03 -1.326285E+04 -4.923931E+03
       353   4 -9.536748E+05 -2.495376E+04 -5.629367E+04  5.112250E+03 -4.171686E+04 -5.365247E+03
       353   5 -9.485678E+05  4.859066E+03 -2.769882E+04 -2.118609E+03 -2.735061E+04 -5.459128E+03
       353   6 -9.536586E+05  1.085129E+03 -1.684763E+04  5.058697E+03 -1.298562E+04 -4.923312E+03
       353   7 -1.214681E+06 -9.002912E+04 -1.204657E+05  9.911682E+03 -4.185183E+04 -5.366011E+03
       353   8 -1.196696E+06 -5.700534E+04 -8.862411E+04 -1.264764E+03 -2.727968E+04 -5.459165E+03
       353   9 -1.188948E+06 -5.761152E+04 -7.467460E+04  1.967182E+03 -1.270848E+04 -4.922696E+03
       353  10 -6.926085E+05  4.011613E+04  7.870072E+03  3.105822E+02  6.700626E-10 -6.072311E-09
       353  11 -7.003847E+05  6.671867E+04  3.322047E+04 -2.972948E+03  5.478207E-10  1.037971E-09
       353  12 -7.183189E+05  5.977761E+04  4.097490E+04  8.151305E+03 -1.469104E-09  4.294535E-09
       353  13 -9.536766E+05 -2.495426E+04 -5.629700E+04  5.112070E+03  2.183759E-09 -3.932406E-09
       353  14 -9.485686E+05  4.858833E+03 -2.770029E+04 -2.118729E+03 -1.014356E-09 -1.147545E-09
       353  15 -9.536588E+05  1.085057E+03 -1.684799E+04  5.058646E+03  5.206468E-10 -6.135426E-10
       353  16 -1.214683E+06 -9.002962E+04 -1.204691E+05  9.911501E+03  6.353931E-10 -9.968920E-10
       353  17 -1.196696E+06 -5.700557E+04 -8.862557E+04 -1.264884E+03 -1.133987E-09 -1.133668E-09
       353  18 -1.188948E+06 -5.761159E+04 -7.467495E+04  1.967131E+03  4.828752E-09  2.899099E-09
       353  19 -6.926067E+05  4.011663E+04  7.873378E+03  3.107619E+02  4.158183E+04  5.364484E+03
       353  20 -7.003838E+05  6.671890E+04  3.322194E+04 -2.972828E+03  2.742156E+04  5.459091E+03
       353  21 -7.183187E+05  5.977769E+04  4.097527E+04  8.151357E+03  1.326285E+04  4.923931E+03
       353  22 -9.536748E+05 -2.495376E+04 -5.629367E+04  5.112250E+03  4.171686E+04  5.365247E+03
       353  23 -9.485678E+05  4.859066E+03 -2.769882E+04 -2.118609E+03  2.735061E+04  5.459128E+03
       353  24 -9.536586E+05  1.085129E+03 -1.684763E+04  5.058697E+03  1.298562E+04  4.923312E+03
       353  25 -1.214681E+06 -9.002912E+04 -1.204657E+05  9.911682E+03  4.185183E+04  5.366011E+03
       353  26 -1.196696E+06 -5.700534E+04 -8.862411E+04 -1.264764E+03  2.727968E+04  5.459165E+03
       353  27 -1.188948E+06 -5.761152E+04 -7.467460E+04  1.967182E+03  1.270848E+04  4.922696E+03
       354   1 -7.478916E+05  4.761143E+04  3.665846E+04  5.275081E+03 -1.042305E+04 -4.544144E+03
       354   2 -7.615190E+05  4.785207E+04  3.938822E+04 -2.321131E+03 -6.849768E+03 -4.098854E+03
       354   3 -7.767017E+05  4.381452E+04  3.871584E+04  6.204710E+03 -3.277090E+03 -3.557314E+03
       354   4 -9.517378E+05 -3.197675E+03 -1.336232E+04  5.463673E+03 -1.029054E+04 -4.543908E+03
       354   5 -9.509556E+05  6.262757E+02 -7.123245E+03 -2.601900E+03 -6.686012E+03 -4.098487E+03
       354   6 -9.517347E+05  1.658030E+02 -4.308842E+03  5.454900E+03 -3.082002E+03 -3.556807E+03
       354   7 -1.155546E+06 -5.400986E+04 -6.338615E+04  5.652179E+03 -1.015808E+04 -4.543672E+03
       354   8 -1.140359E+06 -4.660219E+04 -5.363735E+04 -2.882605E+03 -6.522307E+03 -4.098120E+03
       354   9 -1.126740E+06 -4.348519E+04 -4.733579E+04  4.705281E+03 -2.886968E+03 -3.556301E+03
       354  10 -7.478917E+05  4.761137E+04  3.665822E+04  5.275043E+03 -3.712511E-09  6.144082E-09
       354  11 -7.615191E+05  4.785204E+04  3.938810E+04 -2.321154E+03  7.442015E-10  3.894808E-09
       354  12 -7.767017E+05  4.381450E+04  3.871580E+04  6.204700E+03  5.086397E-09 -2.865875E-10
       354  13 -9.517379E+05 -3.197726E+03 -1.336255E+04  5.463635E+03  9.777372E-10 -1.096559E-09
       354  14 -9.509556E+05  6.262457E+02 -7.123360E+03 -2.601922E+03  7.119589E-10  4.002332E-09
       354  15 -9.517347E+05  1.657869E+02 -4.308884E+03  5.454891E+03  2.363659E-10  6.886145E-09
       354  16 -1.155546E+06 -5.400991E+04 -6.338638E+04  5.652141E+03  2.645567E-09  4.735924E-09
       354  17 -1.140359E+06 -4.660222E+04 -5.363746E+04 -2.882626E+03 -8.676181E-10  4.911368E-09
       354  18 -1.126740E+06 -4.348521E+04 -4.733583E+04  4.705273E+03 -3.673039E-09  4.858459E-09
       354  19 -7.478916E+05  4.761143E+04  3.665846E+04  5.275081E+03  1.042305E+04  4.544144E+03
       354  20 -7.615190E+05  4.785207E+04  3.938822E+04 -2.321131E+03  6.849768E+03  4.098854E+03
       354  21 -7.767017E+05  4.381452E+04  3.871584E+04  6.204710E+03  3.277090E+03  3.557314E+03
       354  22 -9.517378E+05 -3.197675E+03 -1.336232E+04  5.463673E+03  1.029054E+04  4.543908E+03
       354  23 -9.509556E+05  6.262757E+02 -7.123245E+03 -2.601900E+03  6.686012E+03  4.098487E+03
       354  24 -9.517347E+05  1.658030E+02 -4.308842E+03  5.454900E+03  3.082002E+03  3.556807E+03
       354  25 -1.155546E+06 -5.400986E+04 -6.338615E+04  5.652179E+03  1.015808E+04  4.543672E+03
       354  26 -1.140359E+06 -4.660219E+04 -5.363735E+04 -2.882605E+03  6.522307E+03  4.098120E+03
       354  27 -1.126740E+06 -4.348519E+04 -4.733579E+04  4.705281E+03  2.886968E+03  3.556301E+03
       355   1 -8.110290E+05  3.463067E+04  3.100799E+04  5.993180E+03 -2.563881E+03 -3.231428E+03
       355   2 -8.263730E+05  3.122278E+04  2.853382E+04 -2.661492E+03 -1.507004E+03 -2.691305E+03
       355   3 -8.420777E+05  2.730320E+04  2.522312E+04  6.052952E+03 -4.504505E+02 -2.124110E+03
       355   4 -9.514652E+05 -3.722079E+02 -3.430182E+03  5.735770E+03 -2.387827E+03 -3.230947E+03
       355   5 -9.512835E+05  8.095164E+01 -2.136997E+03 -2.949488E+03 -1.322079E+03 -2.690765E+03
       355   6 -9.514646E+05  2.074538E+01 -1.686698E+03  5.734589E+03 -2.566280E+02 -2.123509E+03
       355   7 -1.091883E+06 -3.537655E+04 -3.786981E+04  5.478404E+03 -2.211814E+03 -3.230466E+03
       355   8 -1.076180E+06 -3.106204E+04 -3.280896E+04 -3.237437E+03 -1.137191E+03 -2.690226E+03
       355   9 -1.060841E+06 -2.726260E+04 -2.859740E+04  5.416274E+03 -6.283958E+01 -2.122909E+03
       355  10 -8.110290E+05  3.463066E+04  3.100796E+04  5.993174E+03  1.500302E-09  2.388426E-10
       355  11 -8.263730E+05  3.122278E+04  2.853381E+04 -2.661495E+03 -2.561008E-09  9.222230E-09
       355  12 -8.420777E+05  2.730320E+04  2.522311E+04  6.052951E+03 -2.600897E-09  6.754844E-09
       355  13 -9.514652E+05 -3.722206E+02 -3.430213E+03  5.735763E+03  5.226451E-10  2.202041E-09
       355  14 -9.512835E+05  8.094340E+01 -2.137014E+03 -2.949491E+03 -1.462376E-09  6.862817E-09
       355  15 -9.514646E+05  2.074052E+01 -1.686706E+03  5.734589E+03 -3.990253E-10 -5.189550E-10
       355  16 -1.091883E+06 -3.537656E+04 -3.786983E+04  5.478398E+03 -3.329272E-09  2.565667E-09
       355  17 -1.076180E+06 -3.106205E+04 -3.280898E+04 -3.237440E+03 -1.856954E-10 -3.054894E-09
       355  18 -1.060841E+06 -2.726261E+04 -2.859740E+04  5.416274E+03  5.251619E-09 -2.573596E-09
       355  19 -8.110290E+05  3.463067E+04  3.100799E+04  5.993180E+03  2.563881E+03  3.231428E+03
       355  20 -8.263730E+05  3.122278E+04  2.853382E+04 -2.661492E+03  1.507004E+03  2.691305E+03
       355  21 -8.420777E+05  2.730320E+04  2.522312E+04  6.052952E+03  4.504505E+02  2.124110E+03
       355  22 -9.514652E+05 -3.722079E+02 -3.430182E+03  5.735770E+03  2.387827E+03  3.230947E+03
       355  23 -9.512835E+05  8.095164E+01 -2.136997E+03 -2.949488E+03  1.322079E+03  2.690765E+03
       355  24 -9.514646E+05  2.074538E+01 -1.686698E+03  5.734589E+03  2.566280E+02  2.123509E+03
       355  25 -1.091883E+06 -3.537655E+04 -3.786981E+04  5.478404E+03  2.211814E+03  3.230466E+03
       355  26 -1.076180E+06 -3.106204E+04 -3.280896E+04 -3.237437E+03  1.137191E+03  2.690226E+03
       355  27 -1.060841E+06 -2.726260E+04 -2.859740E+04  5.416274E+03  6.283958E+01  2.122909E+03
       356   1 -8.787188E+05  1.813462E+04  1.616286E+04  6.029755E+03 -1.478381E+02 -1.788668E+03
       356   2 -8.947012E+05  1.417710E+04  1.196770E+04 -3.007939E+03  8.099341E+02 -1.213581E+03
       356   3 -9.110569E+05  9.794211E+03  7.012364E+03  6.050261E+03  1.767581E+03 -6.325190E+02
       356   4 -9.514649E+05  7.518922E+00 -1.651032E+03  5.896147E+03  4.312979E+01 -1.788057E+03
       356   5 -9.512784E+05  7.095276E+01 -1.925125E+03 -3.151348E+03  1.002825E+03 -1.212948E+03
       356   6 -9.514654E+05 -2.912595E+02 -2.960694E+03  5.897154E+03  1.962421E+03 -6.318643E+02
       356   7 -1.024206E+06 -1.811997E+04 -1.946531E+04  5.762550E+03  2.340753E+02 -1.787446E+03
       356   8 -1.007853E+06 -1.403543E+04 -1.581819E+04 -3.294747E+03  1.195699E+03 -1.212316E+03
       356   9 -9.918723E+05 -1.037685E+04 -1.293387E+04  5.744057E+03  2.157247E+03 -6.312098E+02
       356  10 -8.787188E+05  1.813461E+04  1.616285E+04  6.029755E+03  5.081172E-10  1.874641E-09
       356  11 -8.947012E+05  1.417709E+04  1.196770E+04 -3.007938E+03  2.170504E-09  1.562128E-09
       356  12 -9.110569E+05  9.794210E+03  7.012357E+03  6.050262E+03  1.947382E-09 -6.743176E-09
       356  13 -9.514649E+05  7.515490E+00 -1.651038E+03  5.896147E+03  2.044565E-09  8.940806E-09
       356  14 -9.512784E+05  7.095091E+01 -1.925130E+03 -3.151347E+03 -5.378790E-10  2.743053E-09
       356  15 -9.514654E+05 -2.912609E+02 -2.960702E+03  5.897155E+03 -2.218810E-10 -7.422771E-09
       356  16 -1.024206E+06 -1.811998E+04 -1.946532E+04  5.762550E+03 -1.668102E-09  3.848320E-09
       356  17 -1.007853E+06 -1.403543E+04 -1.581819E+04 -3.294745E+03 -5.176797E-09  1.251985E-09
       356  18 -9.918723E+05 -1.037685E+04 -1.293388E+04  5.744058E+03  4.199575E-10 -9.039918E-09
       356  19 -8.787188E+05  1.813462E+04  1.616286E+04  6.029755E+03  1.478381E+02  1.788668E+03
       356  20 -8.947012E+05  1.417710E+04  1.196770E+04 -3.007939E+03 -8.099341E+02  1.213581E+03
       356  21 -9.110569E+05  9.794211E+03  7.012364E+03  6.050261E+03 -1.767581E+03  6.325190E+02
       356  22 -9.514649E+05  7.518922E+00 -1.651032E+03  5.896147E+03 -4.312979E+01  1.788057E+03
       356  23 -9.512784E+05  7.095276E+01 -1.925125E+03 -3.151348E+03 -1.002825E+03  1.212948E+03
       356  24 -9.514654E+05 -2.912595E+02 -2.960694E+03  5.897154E+03 -1.962421E+03  6.318643E+02
       356  25 -1.024206E+06 -1.811997E+04 -1.946531E+04  5.762550E+03 -2.340753E+02  1.787446E+03
       356  26 -1.007853E+06 -1.403543E+04 -1.581819E+04 -3.294747E+03 -1.195699E+03  1.212316E+03
       356  27 -9.918723E+05 -1.037685E+04 -1.293387E+04  5.744057E+03 -2.157247E+03  6.312098E+02
       357   1 -9.488564E+05  8.515499E+02 -3.038402E+03  5.633294E+03  2.355919E+03 -2.836760E+02
       357   2 -9.644603E+05 -2.829911E+03 -9.329983E+03 -3.142477E+03  5.415469E+03  3.119086E+02
       357   3 -9.815084E+05 -1.007899E+04 -1.853965E+04  6.355334E+03  8.475081E+03  8.687794E+02
       357   4 -9.517021E+05  1.547022E+02 -3.686263E+03  5.932771E+03  2.558853E+03 -2.829878E+02
       357   5 -9.509823E+05  5.296963E+02 -6.021259E+03 -3.199287E+03  5.605472E+03  3.125469E+02
       357   6 -9.517047E+05 -2.660587E+03 -1.126524E+04  5.942221E+03  8.652233E+03  8.693656E+02
       357   7 -9.545477E+05 -5.421457E+02 -4.334124E+03  6.232247E+03  2.761786E+03 -2.822995E+02
       357   8 -9.375042E+05  3.889290E+03 -2.712549E+03 -3.256099E+03  5.795479E+03  3.131853E+02
       357   9 -9.219002E+05  4.757746E+03 -3.990887E+03  5.529087E+03  8.829393E+03  8.699515E+02
       357  10 -9.488564E+05  8.515483E+02 -3.038412E+03  5.633294E+03 -6.706259E-09 -7.407846E-10
       357  11 -9.644603E+05 -2.829919E+03 -9.330038E+03 -3.142478E+03 -1.206658E-09  2.048580E-09
       357  12 -9.815085E+05 -1.007901E+04 -1.853978E+04  6.355328E+03  4.946596E-10  1.508018E-10
       357  13 -9.517021E+05  1.547004E+02 -3.686275E+03  5.932771E+03  1.825618E-09 -4.632230E-09
       357  14 -9.509823E+05  5.296878E+02 -6.021318E+03 -3.199288E+03  3.042946E-09  3.809150E-09
       357  15 -9.517048E+05 -2.660608E+03 -1.126538E+04  5.942215E+03  8.893422E-10  2.433005E-09
       357  16 -9.545478E+05 -5.421478E+02 -4.334139E+03  6.232247E+03  6.274724E-09 -1.331685E-09
       357  17 -9.375042E+05  3.889281E+03 -2.712612E+03 -3.256100E+03  1.411173E-09 -6.610214E-09
       357  18 -9.219003E+05  4.757725E+03 -3.991035E+03  5.529081E+03  1.122221E-09  9.996494E-11
       357  19 -9.488564E+05  8.515499E+02 -3.038402E+03  5.633294E+03 -2.355919E+03  2.836760E+02
       357  20 -9.644603E+05 -2.829911E+03 -9.329983E+03 -3.142477E+03 -5.415469E+03 -3.119086E+02
       357  21 -9.815084E+05 -1.007899E+04 -1.853965E+04  6.355334E+03 -8.475081E+03 -8.687794E+02
       357  22 -9.517021E+05  1.547022E+02 -3.686263E+03  5.932771E+03 -2.558853E+03  2.829878E+02
       357  23 -9.509823E+05  5.296963E+02 -6.021259E+03 -3.199287E+03 -5.605472E+03 -3.125469E+02
       357  24 -9.517047E+05 -2.660587E+03 -1.126524E+04  5.942221E+03 -8.652233E+03 -8.693656E+02
       357  25 -9.545477E+05 -5.421457E+02 -4.334124E+03  6.232247E+03 -2.761786E+03  2.822995E+02
       357  26 -9.375042E+05  3.889290E+03 -2.712549E+03 -3.256099E+03 -5.795479E+03 -3.131853E+02
       357  27 -9.219002E+05  4.757746E+03 -3.990887E+03  5.529087E+03 -8.829393E+03 -8.699515E+02
       358   1 -1.020459E+06 -1.582633E+04 -3.073255E+04  3.435886E+03  1.066686E+04  1.264805E+03
       358   2 -1.032076E+06 -1.662137E+04 -4.371260E+04 -2.231311E+03  2.287070E+04  1.896767E+03
       358   3 -1.052474E+06 -4.565144E+04 -7.173296E+04  1.003946E+04  3.507520E+04  2.183351E+03
       358   4 -9.533298E+05  9.400338E+02 -1.419664E+04  5.838155E+03  1.092419E+04  1.265693E+03
       358   5 -9.489564E+05  4.093794E+03 -2.330981E+04 -3.095832E+03  2.301355E+04  1.897177E+03
       358   6 -9.533436E+05 -2.096549E+04 -4.738211E+04  5.908131E+03  3.510387E+04  2.183174E+03
       358   7 -8.861961E+05  1.770608E+04  2.338929E+03  8.240681E+03  1.118155E+04  1.266584E+03
       358   8 -8.658308E+05  2.480845E+04 -2.907520E+03 -3.960475E+03  2.315642E+04  1.897586E+03
       358   9 -8.542046E+05  3.719803E+03 -2.303197E+04  1.776130E+03  3.513255E+04  2.182997E+03
       358  10 -1.020460E+06 -1.582636E+04 -3.073276E+04  3.435875E+03 -2.821647E-09  6.263615E-09
       358  11 -1.032076E+06 -1.662151E+04 -4.371360E+04 -2.231346E+03 -8.519532E-10  3.887646E-09
       358  12 -1.052475E+06 -4.565177E+04 -7.173528E+04  1.003940E+04  1.518111E-09  6.134803E-09
       358  13 -9.533300E+05  9.400000E+02 -1.419687E+04  5.838144E+03  6.971867E-10  3.060434E-09
       358  14 -9.489570E+05  4.093648E+03 -2.331081E+04 -3.095868E+03  1.944121E-09  5.251522E-09
       358  15 -9.533449E+05 -2.096582E+04 -4.738444E+04  5.908070E+03  2.010888E-09 -3.057739E-10
       358  16 -8.861963E+05  1.770605E+04  2.338691E+03  8.240670E+03  3.018548E-09  1.813847E-09
       358  17 -8.658314E+05  2.480830E+04 -2.908535E+03 -3.960511E+03 -1.001199E-09 -1.225856E-09
       358  18 -8.542060E+05  3.719466E+03 -2.303430E+04  1.776068E+03  1.537328E-09 -5.004053E-09
       358  19 -1.020459E+06 -1.582633E+04 -3.073255E+04  3.435886E+03 -1.066686E+04 -1.264805E+03
       358  20 -1.032076E+06 -1.662137E+04 -4.371260E+04 -2.231311E+03 -2.287070E+04 -1.896767E+03
       358  21 -1.052474E+06 -4.565144E+04 -7.173296E+04  1.003946E+04 -3.507520E+04 -2.183351E+03
       358  22 -9.533298E+05  9.400338E+02 -1.419664E+04  5.838155E+03 -1.092419E+04 -1.265693E+03
       358  23 -9.489564E+05  4.093794E+03 -2.330981E+04 -3.095832E+03 -2.301355E+04 -1.897177E+03
       358  24 -9.533436E+05 -2.096549E+04 -4.738211E+04  5.908131E+03 -3.510387E+04 -2.183174E+03
       358  25 -8.861961E+05  1.770608E+04  2.338929E+03  8.240681E+03 -1.118155E+04 -1.266584E+03
       358  26 -8.658308E+05  2.480845E+04 -2.907520E+03 -3.960475E+03 -2.315642E+04 -1.897586E+03
       358  27 -8.542046E+05  3.719803E+03 -2.303197E+04  1.776130E+03 -3.513255E+04 -2.182997E+03
       359   1 -1.099862E+06 -2.676673E+04 -9.078270E+04 -1.132221E+04  4.361454E+04  2.982130E+03
       359   2 -1.084791E+06 -6.114558E+03 -1.264857E+05  6.484987E+03  9.336243E+04  3.824688E+03
       359   3 -1.130588E+06 -2.025977E+05 -2.489118E+05  4.162037E+04  1.431193E+05  1.652785E+03
       359   4 -9.648634E+05  7.027247E+03 -5.759001E+04  5.564719E+03  4.435795E+04  2.985579E+03
       359   5 -9.345622E+05  3.125855E+04 -8.967419E+04 -2.857724E+03  9.310343E+04  3.822402E+03
       359   6 -9.649392E+05 -1.614453E+05 -2.077695E+05  6.049156E+03  1.418592E+05  1.640873E+03
       359   7 -8.298479E+05  4.082092E+04 -2.439852E+04  2.245532E+04  4.510153E+04  2.989068E+03
       359   8 -7.843121E+05  6.863032E+04 -5.286434E+04 -1.220272E+04  9.284437E+04  3.820125E+03
       359   9 -7.992628E+05 -1.202901E+05 -1.666286E+05 -2.953158E+04  1.405987E+05  1.629108E+03
       359  10 -1.099864E+06 -2.676725E+04 -9.078630E+04 -1.132232E+04 -1.112491E-09  2.881631E-09
       359  11 -1.084801E+06 -6.116919E+03 -1.265021E+05  6.484699E+03  1.046759E-09 -2.926229E-09
       359  12 -1.130610E+06 -2.026032E+05 -2.489504E+05  4.162018E+04 -7.061609E-11 -6.905492E-10
       359  13 -9.648655E+05  7.026709E+03 -5.759373E+04  5.564612E+03  2.065836E-09  5.484640E-09
       359  14 -9.345715E+05  3.125620E+04 -8.969053E+04 -2.858010E+03  9.299969E-10 -5.001891E-09
       359  15 -9.649609E+05 -1.614507E+05 -2.078074E+05  6.048968E+03 -8.933575E-11  2.835551E-09
       359  16 -8.298500E+05  4.082036E+04 -2.440236E+04  2.245521E+04  1.129670E-09  2.254986E-09
       359  17 -7.843214E+05  6.862799E+04 -5.288058E+04 -1.220300E+04 -7.888461E-10 -7.226658E-10
       359  18 -7.992841E+05 -1.202955E+05 -1.666658E+05 -2.953177E+04  1.305092E-09 -1.043858E-09
       359  19 -1.099862E+06 -2.676673E+04 -9.078270E+04 -1.132221E+04 -4.361454E+04 -2.982130E+03
       359  20 -1.084791E+06 -6.114558E+03 -1.264857E+05  6.484987E+03 -9.336243E+04 -3.824688E+03
       359  21 -1.130588E+06 -2.025977E+05 -2.489118E+05  4.162037E+04 -1.431193E+05 -1.652785E+03
       359  22 -9.648634E+05  7.027247E+03 -5.759001E+04  5.564719E+03 -4.435795E+04 -2.985579E+03
       359  23 -9.345622E+05  3.125855E+04 -8.967419E+04 -2.857724E+03 -9.310343E+04 -3.822402E+03
       359  24 -9.649392E+05 -1.614453E+05 -2.077695E+05  6.049156E+03 -1.418592E+05 -1.640873E+03
       359  25 -8.298479E+05  4.082092E+04 -2.439852E+04  2.245532E+04 -4.510153E+04 -2.989068E+03
       359  26 -7.843121E+05  6.863032E+04 -5.286434E+04 -1.220272E+04 -9.284437E+04 -3.820125E+03
       359  27 -7.992628E+05 -1.202901E+05 -1.666286E+05 -2.953158E+04 -1.405987E+05 -1.629108E+03
       360   1  7.535321E+05  4.251213E+06  8.797085E+05 -2.394877E+05  8.572580E+03  3.768285E+05
       360   2  1.753726E+05  3.928791E+06  5.107621E+05 -3.581301E+04  2.448539E+04  2.302901E+05
       360   3  1.922145E+05  3.774901E+06  3.857226E+05 -9.704996E+04  1.553309E+04  8.373662E+04
       360   4  4.322352E+05  2.960750E+06  5.604157E+05 -1.399928E+05  8.650575E+03  3.668872E+05
       360   5 -8.556575E+04  2.877385E+06  2.543950E+05 -7.950889E+03  2.450101E+04  2.289961E+05
       360   6 -9.314883E+03  2.961342E+06  1.866564E+05 -1.408127E+05  1.550142E+04  9.103260E+04
       360   7  1.108507E+05  1.671810E+06  2.410049E+05 -4.070283E+04  8.725532E+03  3.569659E+05
       360   8 -3.465825E+05  1.826982E+06 -2.052010E+03  1.986485E+04  2.451653E+04  2.277040E+05
       360   9 -2.108854E+05  2.148387E+06 -1.245669E+04 -1.845176E+05  1.546871E+04  9.831902E+04
       360  10  7.534942E+05  4.251062E+06  8.794433E+05 -2.394903E+05 -5.586939E-10  3.555628E-10
       360  11  1.753578E+05  3.928734E+06  5.106620E+05 -3.581754E+04 -2.336156E-09 -6.044754E-10
       360  12  1.922123E+05  3.774893E+06  3.857091E+05 -9.705101E+04  4.511362E-09 -7.321123E-09
       360  13  4.321992E+05  2.960606E+06  5.601638E+05 -1.399954E+05 -2.251511E-09  9.115204E-10
       360  14 -8.558039E+04  2.877329E+06  2.542958E+05 -7.955402E+03 -2.517460E-09  3.049045E-09
       360  15 -9.317353E+03  2.961333E+06  1.866405E+05 -1.408138E+05  2.581749E-09  4.106278E-09
       360  16  1.108165E+05  1.671674E+06  2.407659E+05 -4.070534E+04 -3.691330E-10 -2.867781E-09
       360  17 -3.465970E+05  1.826926E+06 -2.150275E+03  1.986036E+04  1.102252E-09  3.146373E-10
       360  18 -2.108883E+05  2.148377E+06 -1.247524E+04 -1.845189E+05  1.712683E-09  8.974127E-09
       360  19  7.535321E+05  4.251213E+06  8.797085E+05 -2.394877E+05 -8.572580E+03 -3.768285E+05
       360  20  1.753726E+05  3.928791E+06  5.107621E+05 -3.581301E+04 -2.448539E+04 -2.302901E+05
       360  21  1.922145E+05  3.774901E+06  3.857226E+05 -9.704996E+04 -1.553309E+04 -8.373662E+04
       360  22  4.322352E+05  2.960750E+06  5.604157E+05 -1.399928E+05 -8.650575E+03 -3.668872E+05
       360  23 -8.556575E+04  2.877385E+06  2.543950E+05 -7.950889E+03 -2.450101E+04 -2.289961E+05
       360  24 -9.314883E+03  2.961342E+06  1.866564E+05 -1.408127E+05 -1.550142E+04 -9.103260E+04
       360  25  1.108507E+05  1.671810E+06  2.410049E+05 -4.070283E+04 -8.725532E+03 -3.569659E+05
       360  26 -3.465825E+05  1.826982E+06 -2.052010E+03  1.986485E+04 -2.451653E+04 -2.277040E+05
       360  27 -2.108854E+05  2.148387E+06 -1.245669E+04 -1.845176E+05 -1.546871E+04 -9.831902E+04
       361   1  1.256733E+05  3.221845E+06  2.386870E+05 -1.570089E+05  6.631209E+03  5.764076E+04
       361   2 -8.366762E+03  2.971924E+06  1.476839E+05 -1.133192E+04  1.370818E+03 -1.145652E+04
       361   3  2.211675E+04  2.769689E+06  1.421426E+05 -1.175353E+05 -4.098343E+03 -8.053112E+04
       361   4  5.426926E+04  2.934789E+06  1.686386E+05 -1.375494E+05  6.625941E+03  5.945772E+04
       361   5 -2.349540E+04  2.910966E+06  1.327855E+05 -1.159180E+04  1.363396E+03 -9.553666E+03
       361   6  6.326084E+04  2.934772E+06  1.823504E+05 -1.375089E+05 -4.103736E+03 -7.856718E+04
       361   7 -1.713944E+04  2.647808E+06  9.858433E+04 -1.180987E+05  6.620786E+03  6.127384E+04
       361   8 -3.862430E+04  2.850012E+06  1.178869E+05 -1.185166E+04  1.355973E+03 -7.651001E+03
       361   9  1.044044E+05  3.099881E+06  2.225564E+05 -1.574879E+05 -4.109255E+03 -7.660272E+04
       361  10  1.256723E+05  3.221841E+06  2.386807E+05 -1.570092E+05  2.080612E-09 -1.099175E-08
       361  11 -8.366799E+03  2.971924E+06  1.476837E+05 -1.133191E+04 -2.745590E-09 -3.146743E-09
       361  12  2.211500E+04  2.769682E+06  1.421305E+05 -1.175355E+05 -2.411743E-09 -5.256974E-09
       361  13  5.426827E+04  2.934785E+06  1.686319E+05 -1.375497E+05  2.197475E-09  4.048955E-09
       361  14 -2.349542E+04  2.910966E+06  1.327854E+05 -1.159179E+04 -1.977744E-09  3.511744E-09
       361  15  6.325917E+04  2.934766E+06  1.823388E+05 -1.375092E+05  3.311212E-09  3.827823E-09
       361  16 -1.714049E+04  2.647804E+06  9.857722E+04 -1.180991E+05  1.870150E-09  4.977828E-09
       361  17 -3.862432E+04  2.850011E+06  1.178868E+05 -1.185165E+04 -5.267665E-09  3.496958E-09
       361  18  1.044028E+05  3.099874E+06  2.225454E+05 -1.574882E+05 -6.222255E-10  7.937035E-09
       361  19  1.256733E+05  3.221845E+06  2.386870E+05 -1.570089E+05 -6.631209E+03 -5.764076E+04
       361  20 -8.366762E+03  2.971924E+06  1.476839E+05 -1.133192E+04 -1.370818E+03  1.145652E+04
       361  21  2.211675E+04  2.769689E+06  1.421426E+05 -1.175353E+05  4.098343E+03  8.053112E+04
       361  22  5.426926E+04  2.934789E+06  1.686386E+05 -1.375494E+05 -6.625941E+03 -5.945772E+04
       361  23 -2.349540E+04  2.910966E+06  1.327855E+05 -1.159180E+04 -1.363396E+03  9.553666E+03
       361  24  6.326084E+04  2.934772E+06  1.823504E+05 -1.375089E+05  4.103736E+03  7.856718E+04
       361  25 -1.713944E+04  2.647808E+06  9.858433E+04 -1.180987E+05 -6.620786E+03 -6.127384E+04
       361  26 -3.862430E+04  2.850012E+06  1.178869E+05 -1.185166E+04 -1.355973E+03  7.651001E+03
       361  27  1.044044E+05  3.099881E+06  2.225564E+05 -1.574879E+05  4.109255E+03  7.660272E+04
       362   1 -1.837141E+05  2.278465E+06  3.722404E+04 -1.907378E+05 -1.260416E+04 -1.198871E+05
       362   2 -3.273530E+05  1.948080E+06  6.385225E+04  2.294639E+04 -2.137401E+04 -2.689223E+05
       362   3  2.090799E+05  1.807406E+06  3.574824E+05 -2.504050E+04 -7.484747E+03 -4.178235E+05
       362   4 -1.324361E+04  2.966580E+06  2.057891E+05 -1.401926E+05 -1.263971E+04 -1.130362E+05
       362   5 -9.798664E+04  2.870912E+06  2.891286E+05 -8.805570E+03 -2.135616E+04 -2.699219E+05
       362   6  4.981232E+05  2.965899E+06  6.445861E+05 -1.390457E+05 -7.389003E+03 -4.267310E+05
       362   7  1.572019E+05  3.655130E+06  3.743212E+05 -8.959091E+04 -1.267412E+04 -1.061777E+05
       362   8  1.313206E+05  3.794518E+06  5.143436E+05 -4.060413E+04 -2.133822E+04 -2.709227E+05
       362   9  7.871143E+05  4.125634E+06  9.315970E+05 -2.532625E+05 -7.290144E+03 -4.356545E+05
       362  10 -1.837181E+05  2.278449E+06  3.719683E+04 -1.907390E+05  1.290147E-09 -9.378490E-09
       362  11 -3.273728E+05  1.948003E+06  6.371594E+04  2.294176E+04  2.333271E-09 -2.666578E-09
       362  12  2.090331E+05  1.807219E+06  3.571552E+05 -2.504302E+04 -1.163737E-10 -1.649295E-10
       362  13 -1.324719E+04  2.966566E+06  2.057649E+05 -1.401937E+05 -1.268801E-09  4.664693E-09
       362  14 -9.800657E+04  2.870834E+06  2.889915E+05 -8.810207E+03  1.381967E-09  3.118589E-09
       362  15  4.980745E+05  2.965705E+06  6.442454E+05 -1.390483E+05 -5.527184E-10  2.442614E-09
       362  16  1.571987E+05  3.655118E+06  3.742998E+05 -8.959199E+04  2.726408E-09  2.880568E-09
       362  17  1.313006E+05  3.794439E+06  5.142057E+05 -4.060878E+04 -6.811170E-10  1.407603E-09
       362  18  7.870637E+05  4.125431E+06  9.312426E+05 -2.532651E+05 -1.962190E-09  1.886996E-09
       362  19 -1.837141E+05  2.278465E+06  3.722404E+04 -1.907378E+05  1.260416E+04  1.198871E+05
       362  20 -3.273530E+05  1.948080E+06  6.385225E+04  2.294639E+04  2.137401E+04  2.689223E+05
       362  21  2.090799E+05  1.807406E+06  3.574824E+05 -2.504050E+04  7.484747E+03  4.178235E+05
       362  22 -1.324361E+04  2.966580E+06  2.057891E+05 -1.401926E+05  1.263971E+04  1.130362E+05
       362  23 -9.798664E+04  2.870912E+06  2.891286E+05 -8.805570E+03  2.135616E+04  2.699219E+05
       362  24  4.981232E+05  2.965899E+06  6.445861E+05 -1.390457E+05  7.389003E+03  4.267310E+05
       362  25  1.572019E+05  3.655130E+06  3.743212E+05 -8.959091E+04  1.267412E+04  1.061777E+05
       362  26  1.313206E+05  3.794518E+06  5.143436E+05 -4.060413E+04  2.133822E+04  2.709227E+05
       362  27  7.871143E+05  4.125634E+06  9.315970E+05 -2.532625E+05  7.290144E+03  4.356545E+05
       363   1 -1.857269E+05 -7.676608E+04 -7.797721E+04 -7.253924E+04 -9.845702E+04 -3.977243E+04
       363   2 -1.661655E+05  6.017785E+04  1.183519E+04 -1.091153E+05 -6.207962E+04 -3.138674E+04
       363   3 -2.196388E+05  5.342455E+04  3.360916E+04 -9.329665E+04 -2.776094E+04 -1.754009E+04
       363   4 -5.035388E+05 -1.731578E+05 -1.603173E+05 -1.348576E+05 -1.007393E+05 -4.063668E+04
       363   5 -4.587202E+05 -4.397795E+04 -6.596376E+04 -1.825724E+05 -6.266300E+04 -3.160770E+04
       363   6 -4.873023E+05 -5.887639E+04 -4.102251E+04 -1.778844E+05 -2.664405E+04 -1.711832E+04
       363   7 -8.212514E+05 -2.695504E+05 -2.426646E+05 -1.971508E+05 -1.030203E+05 -4.150066E+04
       363   8 -7.511918E+05 -1.481307E+05 -1.437698E+05 -2.559990E+05 -6.324608E+04 -3.182856E+04
       363   9 -7.548964E+05 -1.711683E+05 -1.156609E+05 -2.624375E+05 -2.552769E+04 -1.669680E+04
       363  10 -1.857377E+05 -7.677038E+04 -7.799840E+04 -7.254239E+04 -6.289003E-10  2.832440E-10
       363  11 -1.661699E+05  6.017576E+04  1.182609E+04 -1.091169E+05 -2.102366E-09 -2.254932E-09
       363  12 -2.196397E+05  5.342402E+04  3.360714E+04 -9.329704E+04  1.709255E-09 -2.478470E-09
       363  13 -5.035502E+05 -1.731623E+05 -1.603394E+05 -1.348609E+05 -5.088322E-10  1.461256E-09
       363  14 -4.587247E+05 -4.398008E+04 -6.597302E+04 -1.825739E+05 -3.366609E-09  1.084668E-09
       363  15 -4.873031E+05 -5.887690E+04 -4.102440E+04 -1.778847E+05 -1.544625E-09  8.669344E-11
       363  16 -8.212633E+05 -2.695551E+05 -2.426878E+05 -1.971542E+05  1.215481E-09  2.357075E-09
       363  17 -7.511964E+05 -1.481328E+05 -1.437792E+05 -2.560006E+05 -4.904710E-10 -5.648819E-10
       363  18 -7.548971E+05 -1.711688E+05 -1.156626E+05 -2.624378E+05 -1.934250E-09 -4.257523E-09
       363  19 -1.857269E+05 -7.676608E+04 -7.797721E+04 -7.253924E+04  9.845702E+04  3.977243E+04
       363  20 -1.661655E+05  6.017785E+04  1.183519E+04 -1.091153E+05  6.207962E+04  3.138674E+04
       363  21 -2.196388E+05  5.342455E+04  3.360916E+04 -9.329665E+04  2.776094E+04  1.754009E+04
       363  22 -5.035388E+05 -1.731578E+05 -1.603173E+05 -1.348576E+05  1.007393E+05  4.063668E+04
       363  23 -4.587202E+05 -4.397795E+04 -6.596376E+04 -1.825724E+05  6.266300E+04  3.160770E+04
       363  24 -4.873023E+05 -5.887639E+04 -4.102251E+04 -1.778844E+05  2.664405E+04  1.711832E+04
       363  25 -8.212514E+05 -2.695504E+05 -2.426646E+05 -1.971508E+05  1.030203E+05  4.150066E+04
       363  26 -7.511918E+05 -1.481307E+05 -1.437698E+05 -2.559990E+05  6.324608E+04  3.182856E+04
       363  27 -7.548964E+05 -1.711683E+05 -1.156609E+05 -2.624375E+05  2.552769E+04  1.669680E+04
       364   1 -2.372547E+05  1.300804E+04  3.217945E+04 -1.033997E+05 -2.087106E+04 -1.367652E+04
       364   2 -2.411013E+05  2.164510E+04  4.654560E+04 -1.173094E+05 -1.284132E+04 -1.074523E+04
       364   3 -2.652825E+05  2.137543E+04  4.935756E+04 -1.126870E+05 -5.060881E+03 -7.154636E+03
       364   4 -4.823150E+05 -7.667995E+04 -3.365512E+04 -1.673854E+05 -2.099527E+04 -1.372369E+04
       364   5 -4.710414E+05 -6.460990E+04 -1.555823E+04 -1.795174E+05 -1.276133E+04 -1.071520E+04
       364   6 -4.801464E+05 -6.149168E+04 -9.181027E+03 -1.731164E+05 -4.776532E+03 -7.047269E+03
       364   7 -7.273181E+05 -1.663655E+05 -9.949509E+04 -2.313490E+05 -2.111941E+04 -1.377085E+04
       364   8 -7.009311E+05 -1.508621E+05 -7.766683E+04 -2.417049E+05 -1.268137E+04 -1.068518E+04
       364   9 -6.949660E+05 -1.443556E+05 -6.772379E+04 -2.335269E+05 -4.492291E+03 -6.939945E+03
       364  10 -2.372552E+05  1.300772E+04  3.217828E+04 -1.034000E+05 -1.852866E-09 -7.109581E-10
       364  11 -2.411015E+05  2.164493E+04  4.654507E+04 -1.173095E+05 -7.117309E-10  3.021682E-09
       364  12 -2.652826E+05  2.137537E+04  4.935741E+04 -1.126870E+05  1.286472E-09  2.078860E-09
       364  13 -4.823155E+05 -7.668028E+04 -3.365630E+04 -1.673857E+05  5.388970E-10 -5.171582E-10
       364  14 -4.710416E+05 -6.461007E+04 -1.555875E+04 -1.795175E+05  2.020289E-09 -1.306391E-08
       364  15 -4.801465E+05 -6.149174E+04 -9.181163E+03 -1.731165E+05  1.176363E-10  2.172813E-10
       364  16 -7.273187E+05 -1.663659E+05 -9.949629E+04 -2.313492E+05  2.950437E-09 -4.558660E-09
       364  17 -7.009313E+05 -1.508622E+05 -7.766735E+04 -2.417050E+05  4.293635E-10 -2.199960E-09
       364  18 -6.949661E+05 -1.443557E+05 -6.772392E+04 -2.335269E+05 -2.667984E-11  3.187718E-10
       364  19 -2.372547E+05  1.300804E+04  3.217945E+04 -1.033997E+05  2.087106E+04  1.367652E+04
       364  20 -2.411013E+05  2.164510E+04  4.654560E+04 -1.173094E+05  1.284132E+04  1.074523E+04
       364  21 -2.652825E+05  2.137543E+04  4.935756E+04 -1.126870E+05  5.060881E+03  7.154636E+03
       364  22 -4.823150E+05 -7.667995E+04 -3.365512E+04 -1.673854E+05  2.099527E+04  1.372369E+04
       364  23 -4.710414E+05 -6.460990E+04 -1.555823E+04 -1.795174E+05  1.276133E+04  1.071520E+04
       364  24 -4.801464E+05 -6.149168E+04 -9.181027E+03 -1.731164E+05  4.776532E+03  7.047269E+03
       364  25 -7.273181E+05 -1.663655E+05 -9.949509E+04 -2.313490E+05  2.111941E+04  1.377085E+04
       364  26 -7.009311E+05 -1.508621E+05 -7.766683E+04 -2.417049E+05  1.268137E+04  1.068518E+04
       364  27 -6.949660E+05 -1.443556E+05 -6.772379E+04 -2.335269E+05  4.492291E+03  6.939945E+03
       365   1 -2.986826E+05  4.429240E+03  4.161201E+04 -1.223298E+05 -3.721147E+03 -6.179009E+03
       365   2 -3.062141E+05 -4.603962E+03  4.142758E+04 -1.337773E+05 -2.068952E+03 -5.009385E+03
       365   3 -3.274002E+05 -3.910724E+03  3.914976E+04 -1.304249E+05 -4.522841E+02 -3.746832E+03
       365   4 -4.795558E+05 -6.369205E+04 -7.268819E+03 -1.715461E+05 -3.584710E+03 -6.127523E+03
       365   5 -4.725807E+05 -6.754516E+04 -3.621826E+03 -1.793270E+05 -1.903803E+03 -4.946991E+03
       365   6 -4.792669E+05 -6.167768E+04 -2.091492E+03 -1.723075E+05 -2.583796E+02 -3.673498E+03
       365   7 -6.603972E+05 -1.318113E+05 -5.615247E+04 -2.207495E+05 -3.448317E+03 -6.076054E+03
       365   8 -6.389208E+05 -1.304847E+05 -4.867371E+04 -2.248657E+05 -1.738704E+03 -4.884614E+03
       365   9 -6.311117E+05 -1.194433E+05 -4.333489E+04 -2.141809E+05 -6.452698E+01 -3.600184E+03
       365  10 -2.986826E+05  4.429196E+03  4.161191E+04 -1.223298E+05 -2.318370E-09 -1.693589E-09
       365  11 -3.062141E+05 -4.603990E+03  4.142753E+04 -1.337773E+05 -1.481031E-09  2.379303E-09
       365  12 -3.274002E+05 -3.910739E+03  3.914973E+04 -1.304249E+05  4.303286E-09 -1.884138E-09
       365  13 -4.795558E+05 -6.369209E+04 -7.268914E+03 -1.715461E+05 -3.431150E-11  3.068555E-09
       365  14 -4.725808E+05 -6.754519E+04 -3.621879E+03 -1.793270E+05  1.326005E-09 -2.104068E-09
       365  15 -4.792669E+05 -6.167770E+04 -2.091517E+03 -1.723075E+05 -1.432169E-09 -2.149473E-09
       365  16 -6.603973E+05 -1.318114E+05 -5.615256E+04 -2.207495E+05  5.059050E-10  5.352315E-09
       365  17 -6.389208E+05 -1.304848E+05 -4.867376E+04 -2.248657E+05 -1.469229E-09 -1.366495E-10
       365  18 -6.311117E+05 -1.194433E+05 -4.333492E+04 -2.141809E+05 -1.226547E-09  1.954239E-09
       365  19 -2.986826E+05  4.429240E+03  4.161201E+04 -1.223298E+05  3.721147E+03  6.179009E+03
       365  20 -3.062141E+05 -4.603962E+03  4.142758E+04 -1.337773E+05  2.068952E+03  5.009385E+03
       365  21 -3.274002E+05 -3.910724E+03  3.914976E+04 -1.304249E+05  4.522841E+02  3.746832E+03
       365  22 -4.795558E+05 -6.369205E+04 -7.268819E+03 -1.715461E+05  3.584710E+03  6.127523E+03
       365  23 -4.725807E+05 -6.754516E+04 -3.621826E+03 -1.793270E+05  1.903803E+03  4.946991E+03
       365  24 -4.792669E+05 -6.167768E+04 -2.091492E+03 -1.723075E+05  2.583796E+02  3.673498E+03
       365  25 -6.603972E+05 -1.318113E+05 -5.615247E+04 -2.207495E+05  3.448317E+03  6.076054E+03
       365  26 -6.389208E+05 -1.304847E+05 -4.867371E+04 -2.248657E+05  1.738704E+03  4.884614E+03
       365  27 -6.311117E+05 -1.194433E+05 -4.333489E+04 -2.141809E+05  6.452698E+01  3.600184E+03
       366   1 -3.644008E+05 -1.838701E+04  2.942143E+04 -1.405055E+05 -2.563691E+02 -3.279717E+03
       366   2 -3.726937E+05 -3.015120E+04  2.618284E+04 -1.519903E+05 -1.803788E+01 -2.543906E+03
       366   3 -3.941488E+05 -2.931277E+04  2.250955E+04 -1.486986E+05  2.126855E+02 -1.788599E+03
       366   4 -4.792729E+05 -6.187305E+04 -1.638432E+03 -1.719953E+05 -8.173022E+01 -3.213639E+03
       366   5 -4.726724E+05 -6.804505E+04 -9.052228E+02 -1.794323E+05  1.626586E+02 -2.475501E+03
       366   6 -4.792360E+05 -6.161564E+04 -6.116079E+02 -1.720928E+05  3.994503E+02 -1.717862E+03
       366   7 -5.941322E+05 -1.053583E+05 -3.269947E+04 -2.034799E+05  9.287304E+01 -3.147575E+03
       366   8 -5.726415E+05 -1.059383E+05 -2.799415E+04 -2.068703E+05  3.433229E+02 -2.407109E+03
       366   9 -5.643160E+05 -9.391802E+04 -2.373337E+04 -1.954840E+05  5.861864E+02 -1.647136E+03
       366  10 -3.644008E+05 -1.838702E+04  2.942141E+04 -1.405055E+05 -5.272033E-10  2.060978E-09
       366  11 -3.726937E+05 -3.015121E+04  2.618283E+04 -1.519903E+05  6.546899E-10  2.800054E-09
       366  12 -3.941488E+05 -2.931277E+04  2.250954E+04 -1.486986E+05  3.302731E-09 -2.006214E-09
       366  13 -4.792729E+05 -6.187306E+04 -1.638451E+03 -1.719953E+05  2.329745E-09 -3.347502E-10
       366  14 -4.726724E+05 -6.804505E+04 -9.052343E+02 -1.794323E+05  1.307071E-09 -3.470157E-09
       366  15 -4.792360E+05 -6.161564E+04 -6.116138E+02 -1.720928E+05 -5.832337E-10  9.569316E-10
       366  16 -5.941322E+05 -1.053583E+05 -3.269949E+04 -2.034799E+05 -2.108283E-10  7.592561E-10
       366  17 -5.726415E+05 -1.059383E+05 -2.799417E+04 -2.068703E+05 -1.563032E-09 -4.635905E-09
       366  18 -5.643160E+05 -9.391802E+04 -2.373338E+04 -1.954840E+05 -1.929999E-09 -1.547516E-09
       366  19 -3.644008E+05 -1.838701E+04  2.942143E+04 -1.405055E+05  2.563691E+02  3.279717E+03
       366  20 -3.726937E+05 -3.015120E+04  2.618284E+04 -1.519903E+05  1.803788E+01  2.543906E+03
       366  21 -3.941488E+05 -2.931277E+04  2.250955E+04 -1.486986E+05 -2.126855E+02  1.788599E+03
       366  22 -4.792729E+05 -6.187305E+04 -1.638432E+03 -1.719953E+05  8.173022E+01  3.213639E+03
       366  23 -4.726724E+05 -6.804505E+04 -9.052228E+02 -1.794323E+05 -1.626586E+02  2.475501E+03
       366  24 -4.792360E+05 -6.161564E+04 -6.116079E+02 -1.720928E+05 -3.994503E+02  1.717862E+03
       366  25 -5.941322E+05 -1.053583E+05 -3.269947E+04 -2.034799E+05 -9.287304E+01  3.147575E+03
       366  26 -5.726415E+05 -1.059383E+05 -2.799415E+04 -2.068703E+05 -3.433229E+02  2.407109E+03
       366  27 -5.643160E+05 -9.391802E+04 -2.373337E+04 -1.954840E+05 -5.861864E+02  1.647136E+03
       367   1 -4.324306E+05 -4.384332E+04  1.208592E+04 -1.591583E+05  1.799662E+02 -1.406910E+03
       367   2 -4.409182E+05 -5.611840E+04  8.055586E+03 -1.707977E+05  2.278374E+02 -7.173474E+02
       367   3 -4.627585E+05 -5.535521E+04  3.769180E+03 -1.674281E+05  2.759132E+02 -2.850407E+01
       367   4 -4.792857E+05 -6.158517E+04 -5.496925E+02 -1.720151E+05  3.646906E+02 -1.336928E+03
       367   5 -4.726146E+05 -6.814062E+04 -5.343882E+02 -1.795059E+05  4.123226E+02 -6.474441E+02
       367   6 -4.792963E+05 -6.165761E+04 -7.748805E+02 -1.719877E+05  4.601661E+02  4.132277E+01
       367   7 -5.261388E+05 -7.932692E+04 -1.318552E+04 -1.848711E+05  5.494000E+02 -1.266950E+03
       367   8 -5.043102E+05 -8.016278E+04 -9.124461E+03 -1.882138E+05  5.967977E+02 -5.775447E+02
       367   9 -4.958338E+05 -6.795999E+04 -5.318966E+03 -1.765473E+05  6.444135E+02  1.111475E+02
       367  10 -4.324306E+05 -4.384332E+04  1.208592E+04 -1.591583E+05  3.178393E-09 -1.397074E-08
       367  11 -4.409182E+05 -5.611840E+04  8.055585E+03 -1.707977E+05 -3.830752E-11 -5.828123E-09
       367  12 -4.627585E+05 -5.535521E+04  3.769180E+03 -1.674281E+05 -2.762157E-11 -8.638045E-09
       367  13 -4.792857E+05 -6.158517E+04 -5.496961E+02 -1.720151E+05  3.562256E-09 -3.155654E-09
       367  14 -4.726146E+05 -6.814062E+04 -5.343893E+02 -1.795059E+05 -1.796233E-09  2.752073E-09
       367  15 -4.792963E+05 -6.165761E+04 -7.748809E+02 -1.719877E+05  5.245631E-10  9.121662E-10
       367  16 -5.261388E+05 -7.932692E+04 -1.318553E+04 -1.848711E+05 -7.966401E-10  4.365819E-09
       367  17 -5.043102E+05 -8.016278E+04 -9.124462E+03 -1.882138E+05  6.229400E-09  2.063498E-09
       367  18 -4.958338E+05 -6.795999E+04 -5.318967E+03 -1.765473E+05  2.251624E-09 -3.620936E-10
       367  19 -4.324306E+05 -4.384332E+04  1.208592E+04 -1.591583E+05 -1.799662E+02  1.406910E+03
       367  20 -4.409182E+05 -5.611840E+04  8.055586E+03 -1.707977E+05 -2.278374E+02  7.173474E+02
       367  21 -4.627585E+05 -5.535521E+04  3.769180E+03 -1.674281E+05 -2.759132E+02  2.850407E+01
       367  22 -4.792857E+05 -6.158517E+04 -5.496925E+02 -1.720151E+05 -3.646906E+02  1.336928E+03
       367  23 -4.726146E+05 -6.814062E+04 -5.343882E+02 -1.795059E+05 -4.123226E+02  6.474441E+02
       367  24 -4.792963E+05 -6.165761E+04 -7.748805E+02 -1.719877E+05 -4.601661E+02 -4.132277E+01
       367  25 -5.261388E+05 -7.932692E+04 -1.318552E+04 -1.848711E+05 -5.494000E+02  1.266950E+03
       367  26 -5.043102E+05 -8.016278E+04 -9.124461E+03 -1.882138E+05 -5.967977E+02  5.775447E+02
       367  27 -4.958338E+05 -6.795999E+04 -5.318966E+03 -1.765473E+05 -6.444135E+02 -1.111475E+02
       368   1 -5.013429E+05 -6.998063E+04 -6.985104E+03 -1.781961E+05  2.733422E+02  3.742255E+02
       368   2 -5.097372E+05 -8.207150E+04 -1.163470E+04 -1.897124E+05  8.635939E+02  1.277111E+03
       368   3 -5.319007E+05 -8.210275E+04 -1.720870E+04 -1.859984E+05  1.473410E+03  2.128541E+03
       368   4 -4.793398E+05 -6.153752E+04 -9.460037E+02 -1.720663E+05  4.681741E+02  4.480606E+02
       368   5 -4.725172E+05 -6.798900E+04 -1.555595E+03 -1.795222E+05  1.042292E+03  1.344818E+03
       368   6 -4.794607E+05 -6.237767E+04 -3.076700E+03 -1.717481E+05  1.635996E+03  2.190132E+03
       368   7 -4.573362E+05 -5.309439E+04  5.093041E+03 -1.659362E+05  6.630134E+02  5.218985E+02
       368   8 -4.352959E+05 -5.390642E+04  8.523384E+03 -1.693315E+05  1.221002E+03  1.412530E+03
       368   9 -4.270180E+05 -4.265241E+04  1.105509E+04 -1.574967E+05  1.798597E+03  2.251728E+03
       368  10 -5.013429E+05 -6.998063E+04 -6.985104E+03 -1.781961E+05  2.906637E-10 -8.202774E-09
       368  11 -5.097372E+05 -8.207150E+04 -1.163470E+04 -1.897124E+05  6.091170E-10 -7.028888E-09
       368  12 -5.319007E+05 -8.210275E+04 -1.720872E+04 -1.859984E+05 -2.230521E-09 -7.388015E-10
       368  13 -4.793398E+05 -6.153752E+04 -9.460045E+02 -1.720663E+05 -7.049817E-10 -3.290226E-09
       368  14 -4.725172E+05 -6.798900E+04 -1.555601E+03 -1.795222E+05  7.801769E-10 -9.787896E-10
       368  15 -4.794607E+05 -6.237768E+04 -3.076714E+03 -1.717481E+05  5.308089E-10  2.672455E-09
       368  16 -4.573362E+05 -5.309439E+04  5.093040E+03 -1.659362E+05  9.222788E-10  7.492196E-09
       368  17 -4.352959E+05 -5.390642E+04  8.523378E+03 -1.693315E+05 -2.406638E-09  2.704356E-09
       368  18 -4.270180E+05 -4.265242E+04  1.105507E+04 -1.574967E+05  1.597967E-09  3.182161E-09
       368  19 -5.013429E+05 -6.998063E+04 -6.985104E+03 -1.781961E+05 -2.733422E+02 -3.742255E+02
       368  20 -5.097372E+05 -8.207150E+04 -1.163470E+04 -1.897124E+05 -8.635939E+02 -1.277111E+03
       368  21 -5.319007E+05 -8.210275E+04 -1.720870E+04 -1.859984E+05 -1.473410E+03 -2.128541E+03
       368  22 -4.793398E+05 -6.153752E+04 -9.460037E+02 -1.720663E+05 -4.681741E+02 -4.480606E+02
       368  23 -4.725172E+05 -6.798900E+04 -1.555595E+03 -1.795222E+05 -1.042292E+03 -1.344818E+03
       368  24 -4.794607E+05 -6.237767E+04 -3.076700E+03 -1.717481E+05 -1.635996E+03 -2.190132E+03
       368  25 -4.573362E+05 -5.309439E+04  5.093041E+03 -1.659362E+05 -6.630134E+02 -5.218985E+02
       368  26 -4.352959E+05 -5.390642E+04  8.523384E+03 -1.693315E+05 -1.221002E+03 -1.412530E+03
       368  27 -4.270180E+05 -4.265241E+04  1.105509E+04 -1.574967E+05 -1.798597E+03 -2.251728E+03
       369   1 -5.697916E+05 -9.624672E+04 -2.846562E+04 -1.977796E+05  1.795989E+03  2.711882E+03
       369   2 -5.774429E+05 -1.064784E+05 -3.508681E+04 -2.082814E+05  5.147377E+03  4.674610E+03
       369   3 -6.017557E+05 -1.124718E+05 -4.675052E+04 -2.019275E+05  8.657430E+03  6.218473E+03
       369   4 -4.797172E+05 -6.144356E+04 -3.875797E+03 -1.723975E+05  2.052717E+03  2.809121E+03
       369   5 -4.718582E+05 -6.676815E+04 -6.547362E+03 -1.796171E+05  5.273022E+03  4.722155E+03
       369   6 -4.806342E+05 -6.782750E+04 -1.415670E+04 -1.699814E+05  8.652074E+03  6.216381E+03
       369   7 -3.896351E+05 -2.663984E+04  2.071329E+04 -1.470120E+05  2.309487E+03  2.906376E+03
       369   8 -3.662628E+05 -2.705726E+04  2.199106E+04 -1.509485E+05  5.398690E+03  4.769707E+03
       369   9 -3.594988E+05 -2.318264E+04  1.843576E+04 -1.380299E+05  8.646717E+03  6.214288E+03
       369  10 -5.697917E+05 -9.624673E+04 -2.846564E+04 -1.977796E+05 -1.529607E-09  4.213997E-09
       369  11 -5.774429E+05 -1.064785E+05 -3.508690E+04 -2.082814E+05  2.958319E-09 -5.012753E-09
       369  12 -6.017558E+05 -1.124718E+05 -4.675074E+04 -2.019275E+05  2.038896E-09 -4.115981E-09
       369  13 -4.797173E+05 -6.144357E+04 -3.875820E+03 -1.723975E+05 -3.149543E-09 -5.751882E-09
       369  14 -4.718582E+05 -6.676818E+04 -6.547456E+03 -1.796171E+05 -2.021854E-09  1.301424E-08
       369  15 -4.806343E+05 -6.782756E+04 -1.415692E+04 -1.699815E+05  4.784709E-11  7.326053E-10
       369  16 -3.896351E+05 -2.663985E+04  2.071326E+04 -1.470120E+05  1.315244E-09  1.732188E-09
       369  17 -3.662629E+05 -2.705730E+04  2.199097E+04 -1.509485E+05 -2.239570E-09 -2.222177E-09
       369  18 -3.594989E+05 -2.318271E+04  1.843555E+04 -1.380300E+05  3.995650E-10  1.946904E-10
       369  19 -5.697916E+05 -9.624672E+04 -2.846562E+04 -1.977796E+05 -1.795989E+03 -2.711882E+03
       369  20 -5.774429E+05 -1.064784E+05 -3.508681E+04 -2.082814E+05 -5.147377E+03 -4.674610E+03
       369  21 -6.017557E+05 -1.124718E+05 -4.675052E+04 -2.019275E+05 -8.657430E+03 -6.218473E+03
       369  22 -4.797172E+05 -6.144356E+04 -3.875797E+03 -1.723975E+05 -2.052717E+03 -2.809121E+03
       369  23 -4.718582E+05 -6.676815E+04 -6.547362E+03 -1.796171E+05 -5.273022E+03 -4.722155E+03
       369  24 -4.806342E+05 -6.782750E+04 -1.415670E+04 -1.699814E+05 -8.652074E+03 -6.216381E+03
       369  25 -3.896351E+05 -2.663984E+04  2.071329E+04 -1.470120E+05 -2.309487E+03 -2.906376E+03
       369  26 -3.662628E+05 -2.705726E+04  2.199106E+04 -1.509485E+05 -5.398690E+03 -4.769707E+03
       369  27 -3.594988E+05 -2.318264E+04  1.843576E+04 -1.380299E+05 -8.646717E+03 -6.214288E+03
       370   1 -6.365356E+05 -1.233625E+05 -5.987315E+04 -2.214217E+05  1.008432E+04  7.738607E+03
       370   2 -6.400717E+05 -1.210372E+05 -7.408907E+04 -2.256754E+05  2.615979E+04  1.469330E+04
       370   3 -6.826511E+05 -1.715746E+05 -1.183733E+05 -1.989172E+05  4.356369E+04  1.813500E+04
       370   4 -4.826889E+05 -6.037528E+04 -1.725168E+04 -1.744375E+05  1.087822E+04  8.039114E+03
       370   5 -4.667176E+05 -5.806471E+04 -2.773877E+04 -1.808688E+05  2.585370E+04  1.457728E+04
       370   6 -4.895643E+05 -1.083875E+05 -6.741457E+04 -1.562898E+05  4.215797E+04  1.760263E+04
       370   7 -3.288189E+05  2.614672E+03  2.536772E+04 -1.274423E+05  1.167234E+04  8.339718E+03
       370   8 -2.933347E+05  4.908942E+03  1.860889E+04 -1.360512E+05  2.554752E+04  1.446122E+04
       370   9 -2.964425E+05 -4.520062E+04 -1.645910E+04 -1.136516E+05  4.075177E+04  1.707014E+04
       370  10 -6.365357E+05 -1.233626E+05 -5.987346E+04 -2.214218E+05  1.746410E-09  1.222078E-09
       370  11 -6.400725E+05 -1.210376E+05 -7.409077E+04 -2.256757E+05 -7.934405E-10  5.181821E-09
       370  12 -6.826532E+05 -1.715755E+05 -1.183775E+05 -1.989178E+05 -6.985210E-10  1.842496E-09
       370  13 -4.826890E+05 -6.037538E+04 -1.725202E+04 -1.744376E+05  2.967537E-09 -5.688383E-09
       370  14 -4.667184E+05 -5.806511E+04 -2.774043E+04 -1.808691E+05  2.427397E-09  6.500998E-11
       370  15 -4.895663E+05 -1.083883E+05 -6.741849E+04 -1.562904E+05 -1.292653E-10  1.969707E-09
       370  16 -3.288191E+05  2.614561E+03  2.536733E+04 -1.274424E+05  2.455811E-09  3.840167E-09
       370  17 -2.933355E+05  4.908542E+03  1.860727E+04 -1.360515E+05  6.876508E-10  3.285701E-09
       370  18 -2.964443E+05 -4.520138E+04 -1.646277E+04 -1.136522E+05 -1.908938E-09  3.514264E-09
       370  19 -6.365356E+05 -1.233625E+05 -5.987315E+04 -2.214217E+05 -1.008432E+04 -7.738607E+03
       370  20 -6.400717E+05 -1.210372E+05 -7.408907E+04 -2.256754E+05 -2.615979E+04 -1.469330E+04
       370  21 -6.826511E+05 -1.715746E+05 -1.183733E+05 -1.989172E+05 -4.356369E+04 -1.813500E+04
       370  22 -4.826889E+05 -6.037528E+04 -1.725168E+04 -1.744375E+05 -1.087822E+04 -8.039114E+03
       370  23 -4.667176E+05 -5.806471E+04 -2.773877E+04 -1.808688E+05 -2.585370E+04 -1.457728E+04
       370  24 -4.895643E+05 -1.083875E+05 -6.741457E+04 -1.562898E+05 -4.215797E+04 -1.760263E+04
       370  25 -3.288189E+05  2.614672E+03  2.536772E+04 -1.274423E+05 -1.167234E+04 -8.339718E+03
       370  26 -2.933347E+05  4.908942E+03  1.860889E+04 -1.360512E+05 -2.554752E+04 -1.446122E+04
       370  27 -2.964425E+05 -4.520062E+04 -1.645910E+04 -1.136516E+05 -4.075177E+04 -1.707014E+04
       371   1 -5.104133E+05 -3.849338E+04 -9.022032E+04 -2.637050E+04 -1.524469E+05 -4.672197E+03
       371   2 -5.050469E+05  1.672064E+05  3.146859E+04 -1.294538E+04 -1.017750E+05 -1.282824E+04
       371   3 -5.655341E+05  1.340571E+05  6.056663E+04  3.135528E+04 -5.113730E+04 -1.119067E+04
       371   4 -1.071359E+06 -1.783867E+05 -2.296037E+05  1.210501E+04 -1.567812E+05 -4.695062E+03
       371   5 -1.038073E+06  3.447284E+04 -9.915665E+04 -3.618975E+03 -1.028652E+05 -1.283443E+04
       371   6 -1.071266E+06  7.805950E+03 -6.361531E+04  1.153421E+04 -4.898097E+04 -1.118126E+04
       371   7 -1.632015E+06 -3.182980E+05 -3.690097E+05  5.054550E+04 -1.611116E+05 -4.718479E+03
       371   8 -1.570840E+06 -9.828139E+04 -2.298027E+05  5.699179E+03 -1.039546E+05 -1.284066E+04
       371   9 -1.576763E+06 -1.184628E+05 -1.878159E+05 -8.270899E+03 -4.682638E+04 -1.117199E+04
       371  10 -5.104383E+05 -3.849965E+04 -9.026407E+04 -2.637108E+04 -6.310574E-09  3.664371E-09
       371  11 -5.050581E+05  1.672034E+05  3.144880E+04 -1.294643E+04 -2.303182E-09  1.227427E-08
       371  12 -5.655369E+05  1.340563E+05  6.056148E+04  3.135482E+04  3.331658E-09  8.273017E-09
       371  13 -1.071385E+06 -1.783934E+05 -2.296500E+05  1.210442E+04  2.327580E-09 -1.650775E-09
       371  14 -1.038084E+06  3.446982E+04 -9.917688E+04 -3.620039E+03  2.211215E-09 -7.648077E-09
       371  15 -1.071268E+06  7.805170E+03 -6.362006E+04  1.153377E+04  2.049838E-10  1.655993E-09
       371  16 -1.632043E+06 -3.183050E+05 -3.690587E+05  5.054489E+04  5.594261E-09  2.547324E-09
       371  17 -1.570851E+06 -9.828447E+04 -2.298233E+05  5.698103E+03 -1.541428E-09  1.153678E-08
       371  18 -1.576765E+06 -1.184636E+05 -1.878202E+05 -8.271321E+03 -1.378121E-09  7.235286E-10
       371  19 -5.104133E+05 -3.849338E+04 -9.022032E+04 -2.637050E+04  1.524469E+05  4.672197E+03
       371  20 -5.050469E+05  1.672064E+05  3.146859E+04 -1.294538E+04  1.017750E+05  1.282824E+04
       371  21 -5.655341E+05  1.340571E+05  6.056663E+04  3.135528E+04  5.113730E+04  1.119067E+04
       371  22 -1.071359E+06 -1.783867E+05 -2.296037E+05  1.210501E+04  1.567812E+05  4.695062E+03
       371  23 -1.038073E+06  3.447284E+04 -9.915665E+04 -3.618975E+03  1.028652E+05  1.283443E+04
       371  24 -1.071266E+06  7.805950E+03 -6.361531E+04  1.153421E+04  4.898097E+04  1.118126E+04
       371  25 -1.632015E+06 -3.182980E+05 -3.690097E+05  5.054550E+04  1.611116E+05  4.718479E+03
       371  26 -1.570840E+06 -9.828139E+04 -2.298027E+05  5.699179E+03  1.039546E+05  1.284066E+04
       371  27 -1.576763E+06 -1.184628E+05 -1.878159E+05 -8.270899E+03  4.682638E+04  1.117199E+04
       372   1 -6.203039E+05  8.609794E+04  5.536708E+04  9.206646E+03 -3.861120E+04 -9.083716E+03
       372   2 -6.467018E+05  1.059677E+05  7.416832E+04 -4.580668E+03 -2.562541E+04 -8.984792E+03
       372   3 -6.824887E+05  9.494644E+04  7.679513E+04  1.643537E+04 -1.264649E+04 -7.734540E+03
       372   4 -1.058600E+06 -2.314331E+04 -5.234870E+04  1.267248E+04 -3.877102E+04 -9.085090E+03
       372   5 -1.053860E+06  4.477775E+03 -2.577540E+04 -4.781642E+03 -2.540715E+04 -8.984226E+03
       372   6 -1.058583E+06  1.130401E+03 -1.564776E+04  1.256928E+04 -1.204952E+04 -7.731855E+03
       372   7 -1.496722E+06 -1.323988E+05 -1.600786E+05  1.613567E+04 -3.893071E+04 -9.086467E+03
       372   8 -1.460868E+06 -9.702450E+04 -1.257313E+05 -4.982653E+03 -2.518903E+04 -8.983660E+03
       372   9 -1.434549E+06 -9.269613E+04 -1.081011E+05  8.705383E+03 -1.145290E+04 -7.729176E+03
       372  10 -6.203055E+05  8.609745E+04  5.536412E+04  9.206363E+03 -1.848410E-09 -1.713817E-09
       372  11 -6.467025E+05  1.059675E+05  7.416693E+04 -4.580853E+03 -2.249440E-09  4.742580E-09
       372  12 -6.824889E+05  9.494633E+04  7.679471E+04  1.643529E+04  2.799942E-09  1.215932E-08
       372  13 -1.058602E+06 -2.314381E+04 -5.235169E+04  1.267219E+04  1.458812E-09  1.336093E-08
       372  14 -1.053861E+06  4.477515E+03 -2.577676E+04 -4.781826E+03  4.083246E-09 -2.840349E-08
       372  15 -1.058583E+06  1.130298E+03 -1.564815E+04  1.256921E+04 -1.296027E-10  1.159164E-08
       372  16 -1.496724E+06 -1.323993E+05 -1.600816E+05  1.613538E+04  3.847782E-09 -1.123541E-08
       372  17 -1.460868E+06 -9.702476E+04 -1.257326E+05 -4.982836E+03 -3.137879E-10 -7.750078E-09
       372  18 -1.434549E+06 -9.269623E+04 -1.081014E+05  8.705312E+03 -1.890947E-09  4.432686E-10
       372  19 -6.203039E+05  8.609794E+04  5.536708E+04  9.206646E+03  3.861120E+04  9.083716E+03
       372  20 -6.467018E+05  1.059677E+05  7.416832E+04 -4.580668E+03  2.562541E+04  8.984792E+03
       372  21 -6.824887E+05  9.494644E+04  7.679513E+04  1.643537E+04  1.264649E+04  7.734540E+03
       372  22 -1.058600E+06 -2.314331E+04 -5.234870E+04  1.267248E+04  3.877102E+04  9.085090E+03
       372  23 -1.053860E+06  4.477775E+03 -2.577540E+04 -4.781642E+03  2.540715E+04  8.984226E+03
       372  24 -1.058583E+06  1.130401E+03 -1.564776E+04  1.256928E+04  1.204952E+04  7.731855E+03
       372  25 -1.496722E+06 -1.323988E+05 -1.600786E+05  1.613567E+04  3.893071E+04  9.086467E+03
       372  26 -1.460868E+06 -9.702450E+04 -1.257313E+05 -4.982653E+03  2.518903E+04  8.983660E+03
       372  27 -1.434549E+06 -9.269613E+04 -1.081011E+05  8.705383E+03  1.145290E+04  7.729176E+03
       373   1 -7.556559E+05  7.220340E+04  6.145978E+04  1.387329E+04 -9.883576E+03 -6.880958E+03
       373   2 -7.885472E+05  6.723678E+04  5.905792E+04 -4.648657E+03 -6.597216E+03 -5.799444E+03
       373   3 -8.231027E+05  5.860910E+04  5.353244E+04  1.457494E+04 -3.312763E+03 -4.550270E+03
       373   4 -1.056840E+06 -2.868879E+03 -1.241717E+04  1.326859E+04 -9.551235E+03 -6.879488E+03
       373   5 -1.056001E+06  5.523048E+02 -6.613442E+03 -5.612843E+03 -6.210061E+03 -5.797546E+03
       373   6 -1.056836E+06  3.020103E+02 -3.972408E+03  1.325230E+04 -2.870617E+03 -4.547913E+03
       373   7 -1.357941E+06 -7.794790E+04 -8.630078E+04  1.266408E+04 -9.219054E+03 -6.878018E+03
       373   8 -1.323389E+06 -6.613749E+04 -7.229006E+04 -6.576697E+03 -5.823073E+03 -5.795648E+03
       373   9 -1.290520E+06 -5.800915E+04 -6.148129E+04  1.193008E+04 -2.428637E+03 -4.545557E+03
       373  10 -7.556560E+05  7.220332E+04  6.145950E+04  1.387323E+04  3.700588E-09 -4.806105E-09
       373  11 -7.885472E+05  6.723673E+04  5.905777E+04 -4.648688E+03 -1.295844E-09 -1.040033E-08
       373  12 -8.231027E+05  5.860908E+04  5.353238E+04  1.457493E+04  1.330041E-09 -8.201702E-09
       373  13 -1.056840E+06 -2.868955E+03 -1.241743E+04  1.326854E+04  2.753232E-09 -2.292397E-09
       373  14 -1.056001E+06  5.522584E+02 -6.613577E+03 -5.612872E+03  1.318270E-09 -1.131203E-08
       373  15 -1.056836E+06  3.019859E+02 -3.972463E+03  1.325229E+04  1.844630E-09 -9.594258E-09
       373  16 -1.357941E+06 -7.794797E+04 -8.630103E+04  1.266403E+04 -4.115718E-09 -1.116573E-08
       373  17 -1.323389E+06 -6.613753E+04 -7.229019E+04 -6.576725E+03 -1.579861E-09  6.033887E-09
       373  18 -1.290520E+06 -5.800917E+04 -6.148134E+04  1.193007E+04  1.477253E-09  1.201612E-08
       373  19 -7.556559E+05  7.220340E+04  6.145978E+04  1.387329E+04  9.883576E+03  6.880958E+03
       373  20 -7.885472E+05  6.723678E+04  5.905792E+04 -4.648657E+03  6.597216E+03  5.799444E+03
       373  21 -8.231027E+05  5.860910E+04  5.353244E+04  1.457494E+04  3.312763E+03  4.550270E+03
       373  22 -1.056840E+06 -2.868879E+03 -1.241717E+04  1.326859E+04  9.551235E+03  6.879488E+03
       373  23 -1.056001E+06  5.523048E+02 -6.613442E+03 -5.612843E+03  6.210061E+03  5.797546E+03
       373  24 -1.056836E+06  3.020103E+02 -3.972408E+03  1.325230E+04  2.870617E+03  4.547913E+03
       373  25 -1.357941E+06 -7.794790E+04 -8.630078E+04  1.266408E+04  9.219054E+03  6.878018E+03
       373  26 -1.323389E+06 -6.613749E+04 -7.229006E+04 -6.576697E+03  5.823073E+03  5.795648E+03
       373  27 -1.290520E+06 -5.800915E+04 -6.148129E+04  1.193008E+04  2.428637E+03  4.545557E+03
       374   1 -9.026540E+05  3.815951E+04  3.454837E+04  1.423670E+04 -2.644526E+03 -3.803906E+03
       374   2 -9.375568E+05  2.965054E+04  2.723018E+04 -5.575852E+03 -1.702430E+03 -2.564175E+03
       374   3 -9.731458E+05  2.101591E+04  1.915555E+04  1.405462E+04 -7.610069E+02 -1.291239E+03
       374   4 -1.056608E+06 -2.086966E+02 -3.153750E+03  1.363633E+04 -2.235469E+03 -3.801644E+03
       374   5 -1.056263E+06  4.938814E+01 -1.921071E+03 -6.086519E+03 -1.282449E+03 -2.561783E+03
       374   6 -1.056607E+06  1.799120E+02 -1.452501E+03  1.363413E+04 -3.300492E+02 -1.288710E+03
       374   7 -1.210540E+06 -3.857866E+04 -4.085760E+04  1.303608E+04 -1.826513E+03 -3.799383E+03
       374   8 -1.174956E+06 -2.955281E+04 -3.107336E+04 -6.597106E+03 -8.625489E+02 -2.559392E+03
       374   9 -1.140063E+06 -2.065660E+04 -2.206107E+04  1.321368E+04  1.008507E+02 -1.286183E+03
       374  10 -9.026540E+05  3.815949E+04  3.454833E+04  1.423670E+04 -3.702805E-09 -1.340144E-08
       374  11 -9.375569E+05  2.965053E+04  2.723016E+04 -5.575855E+03 -4.719917E-09  4.357822E-09
       374  12 -9.731458E+05  2.101591E+04  1.915555E+04  1.405462E+04 -1.323967E-09  1.369560E-09
       374  13 -1.056608E+06 -2.087135E+02 -3.153786E+03  1.363633E+04  3.568042E-09  3.609070E-09
       374  14 -1.056263E+06  4.938066E+01 -1.921086E+03 -6.086521E+03  2.289876E-09 -6.148981E-09
       374  15 -1.056607E+06  1.799102E+02 -1.452504E+03  1.363413E+04  2.359937E-09 -7.295691E-09
       374  16 -1.210540E+06 -3.857867E+04 -4.085764E+04  1.303608E+04  2.622050E-09  8.057941E-09
       374  17 -1.174956E+06 -2.955282E+04 -3.107337E+04 -6.597108E+03  1.844352E-09  2.138984E-08
       374  18 -1.140063E+06 -2.065661E+04 -2.206107E+04  1.321368E+04  4.342401E-09  2.047871E-09
       374  19 -9.026540E+05  3.815951E+04  3.454837E+04  1.423670E+04  2.644526E+03  3.803906E+03
       374  20 -9.375568E+05  2.965054E+04  2.723018E+04 -5.575852E+03  1.702430E+03  2.564175E+03
       374  21 -9.731458E+05  2.101591E+04  1.915555E+04  1.405462E+04  7.610069E+02  1.291239E+03
       374  22 -1.056608E+06 -2.086966E+02 -3.153750E+03  1.363633E+04  2.235469E+03  3.801644E+03
       374  23 -1.056263E+06  4.938814E+01 -1.921071E+03 -6.086519E+03  1.282449E+03  2.561783E+03
       374  24 -1.056607E+06  1.799120E+02 -1.452501E+03  1.363413E+04  3.300492E+02  1.288710E+03
       374  25 -1.210540E+06 -3.857866E+04 -4.085760E+04  1.303608E+04  1.826513E+03  3.799383E+03
       374  26 -1.174956E+06 -2.955281E+04 -3.107336E+04 -6.597106E+03  8.625489E+02  2.559392E+03
       374  27 -1.140063E+06 -2.065660E+04 -2.206107E+04  1.321368E+04 -1.008507E+02  1.286183E+03
       375   1 -1.055066E+06  5.180886E+02 -1.117968E+03  1.368876E+04 -5.084854E+02 -5.415306E+02
       375   2 -1.090305E+06 -8.459405E+03 -9.890541E+03 -6.337196E+03  2.541159E+02  7.347639E+02
       375   3 -1.126218E+06 -1.741164E+04 -1.927500E+04  1.345529E+04  1.016882E+03  1.994637E+03
       375   4 -1.056602E+06  1.576570E+02 -1.384545E+03  1.371774E+04 -7.896823E+01 -5.389904E+02
       375   5 -1.056265E+06  2.976541E+01 -1.530523E+03 -6.190736E+03  6.781359E+02  7.372493E+02
       375   6 -1.056602E+06 -7.193486E+01 -2.284590E+03  1.371908E+04  1.435449E+03  1.997072E+03
       375   7 -1.058138E+06 -2.027747E+02 -1.651121E+03  1.374672E+04  3.505479E+02 -5.364502E+02
       375   8 -1.022224E+06  8.518850E+03  6.829409E+03 -6.044270E+03  1.102179E+03  7.397348E+02
       375   9 -9.869819E+05  1.726741E+04  1.470547E+04  1.398290E+04  1.854062E+03  1.999508E+03
       375  10 -1.055066E+06  5.180883E+02 -1.117970E+03  1.368876E+04 -7.945503E-09 -4.661478E-09
       375  11 -1.090305E+06 -8.459406E+03 -9.890542E+03 -6.337196E+03  9.781236E-10 -7.725710E-09
       375  12 -1.126218E+06 -1.741164E+04 -1.927501E+04  1.345529E+04 -8.475894E-10 -7.491522E-09
       375  13 -1.056602E+06  1.576567E+02 -1.384545E+03  1.371774E+04  2.410086E-09  9.124499E-09
       375  14 -1.056265E+06  2.976470E+01 -1.530525E+03 -6.190737E+03  8.459846E-12 -3.724009E-09
       375  15 -1.056602E+06 -7.193970E+01 -2.284601E+03  1.371908E+04  1.124342E-09 -1.201238E-08
       375  16 -1.058138E+06 -2.027751E+02 -1.651121E+03  1.374672E+04  6.294561E-09 -1.437895E-09
       375  17 -1.022224E+06  8.518849E+03  6.829406E+03 -6.044271E+03 -6.187571E-10 -2.234485E-08
       375  18 -9.869819E+05  1.726741E+04  1.470545E+04  1.398290E+04  5.048963E-09 -2.200728E-08
       375  19 -1.055066E+06  5.180886E+02 -1.117968E+03  1.368876E+04  5.084854E+02  5.415306E+02
       375  20 -1.090305E+06 -8.459405E+03 -9.890541E+03 -6.337196E+03 -2.541159E+02 -7.347639E+02
       375  21 -1.126218E+06 -1.741164E+04 -1.927500E+04  1.345529E+04 -1.016882E+03 -1.994637E+03
       375  22 -1.056602E+06  1.576570E+02 -1.384545E+03  1.371774E+04  7.896823E+01  5.389904E+02
       375  23 -1.056265E+06  2.976541E+01 -1.530523E+03 -6.190736E+03 -6.781359E+02 -7.372493E+02
       375  24 -1.056602E+06 -7.193487E+01 -2.284590E+03  1.371908E+04 -1.435449E+03 -1.997072E+03
       375  25 -1.058138E+06 -2.027747E+02 -1.651121E+03  1.374672E+04 -3.505479E+02  5.364502E+02
       375  26 -1.022224E+06  8.518850E+03  6.829409E+03 -6.044270E+03 -1.102179E+03 -7.397348E+02
       375  27 -9.869819E+05  1.726741E+04  1.470547E+04  1.398290E+04 -1.854062E+03 -1.999508E+03
       376   1 -1.207667E+06 -3.739061E+04 -3.999272E+04  1.260758E+04  1.442707E+03  2.752118E+03
       376   2 -1.241697E+06 -4.592202E+04 -5.016621E+04 -6.629828E+03  3.798180E+03  4.025278E+03
       376   3 -1.277085E+06 -5.682675E+04 -6.256501E+04  1.298232E+04  6.154980E+03  5.158785E+03
       376   4 -1.056758E+06  2.725628E+02 -2.816176E+03  1.349871E+04  1.889066E+03  2.754663E+03
       376   5 -1.056084E+06  3.701694E+02 -4.578179E+03 -5.919755E+03  4.198299E+03  4.027446E+03
       376   6 -1.056760E+06 -1.896766E+03 -8.532598E+03  1.351061E+04  6.508989E+03  5.160596E+03
       376   7 -9.058278E+05  3.793403E+04  3.435868E+04  1.439004E+04  2.335533E+03  2.757208E+03
       376   8 -8.704395E+05  4.665980E+04  4.100731E+04 -5.209513E+03  4.598537E+03  4.029614E+03
       376   9 -8.363915E+05  5.302961E+04  4.549625E+04  1.403903E+04  6.863124E+03  5.162408E+03
       376  10 -1.207667E+06 -3.739061E+04 -3.999274E+04  1.260757E+04 -1.414412E-08  3.523274E-10
       376  11 -1.241697E+06 -4.592204E+04 -5.016626E+04 -6.629841E+03 -4.627560E-09 -1.064819E-08
       376  12 -1.277085E+06 -5.682679E+04 -6.256513E+04  1.298230E+04  2.715130E-09  8.741033E-10
       376  13 -1.056758E+06  2.725537E+02 -2.816197E+03  1.349871E+04  3.165360E-09 -6.155707E-09
       376  14 -1.056084E+06  3.701472E+02 -4.578243E+03 -5.919769E+03  1.442254E-09  3.318742E-09
       376  15 -1.056760E+06 -1.896806E+03 -8.532728E+03  1.351059E+04 -1.302264E-11  9.638403E-09
       376  16 -9.058278E+05  3.793402E+04  3.435866E+04  1.439003E+04  1.247255E-08  4.977406E-09
       376  17 -8.704395E+05  4.665977E+04  4.100724E+04 -5.209528E+03  3.184435E-09 -1.856512E-09
       376  18 -8.363915E+05  5.302957E+04  4.549611E+04  1.403900E+04  1.864770E-10  1.925114E-08
       376  19 -1.207667E+06 -3.739061E+04 -3.999272E+04  1.260758E+04 -1.442707E+03 -2.752118E+03
       376  20 -1.241697E+06 -4.592202E+04 -5.016621E+04 -6.629828E+03 -3.798180E+03 -4.025278E+03
       376  21 -1.277085E+06 -5.682675E+04 -6.256501E+04  1.298232E+04 -6.154980E+03 -5.158785E+03
       376  22 -1.056758E+06  2.725628E+02 -2.816176E+03  1.349871E+04 -1.889066E+03 -2.754663E+03
       376  23 -1.056084E+06  3.701694E+02 -4.578179E+03 -5.919755E+03 -4.198299E+03 -4.027446E+03
       376  24 -1.056760E+06 -1.896766E+03 -8.532598E+03  1.351061E+04 -6.508989E+03 -5.160596E+03
       376  25 -9.058278E+05  3.793403E+04  3.435868E+04  1.439004E+04 -2.335533E+03 -2.757208E+03
       376  26 -8.704395E+05  4.665980E+04  4.100731E+04 -5.209513E+03 -4.598537E+03 -4.029614E+03
       376  27 -8.363915E+05  5.302961E+04  4.549625E+04  1.403903E+04 -6.863124E+03 -5.162408E+03
       377   1 -1.356166E+06 -7.358222E+04 -8.408945E+04  1.009082E+04  7.633818E+03  6.017892E+03
       377   2 -1.385508E+06 -7.945896E+04 -9.891008E+04 -5.718636E+03  1.711901E+04  7.304780E+03
       377   3 -1.421551E+06 -1.064541E+05 -1.252355E+05  1.507995E+04  2.660959E+04  7.571971E+03
       377   4 -1.057946E+06  8.426940E+02 -1.073456E+04  1.297788E+04  8.222536E+03  6.020862E+03
       377   5 -1.054632E+06  3.055119E+03 -1.765668E+04 -5.285851E+03  1.737003E+04  7.305767E+03
       377   6 -1.057958E+06 -1.578566E+04 -3.584412E+04  1.305736E+04  2.652342E+04  7.571141E+03
       377   7 -7.596455E+05  7.526100E+04  6.261376E+04  1.586622E+04  8.811536E+03  6.023837E+03
       377   8 -7.236567E+05  8.556106E+04  6.358867E+04 -4.852960E+03  1.762119E+04  7.306755E+03
       377   9 -6.942443E+05  7.487299E+04  5.353753E+04  1.103344E+04  2.643719E+04  7.570311E+03
       377  10 -1.356166E+06 -7.358227E+04 -8.408963E+04  1.009079E+04  6.175246E-09  3.904529E-09
       377  11 -1.385508E+06 -7.945910E+04 -9.891073E+04 -5.718737E+03 -2.258419E-09  1.342189E-08
       377  12 -1.421552E+06 -1.064544E+05 -1.252370E+05  1.507978E+04  9.965090E-10 -1.786166E-09
       377  13 -1.057946E+06  8.426369E+02 -1.073476E+04  1.297784E+04  3.609444E-09 -1.335402E-08
       377  14 -1.054632E+06  3.054981E+03 -1.765735E+04 -5.285954E+03  2.856730E-09  8.692985E-09
       377  15 -1.057959E+06 -1.578591E+04 -3.584556E+04  1.305720E+04 -1.538630E-10 -1.272144E-08
       377  16 -7.596456E+05  7.526094E+04  6.261355E+04  1.586618E+04 -7.288792E-09 -3.720914E-09
       377  17 -7.236570E+05  8.556092E+04  6.358799E+04 -4.853063E+03  7.248753E-10 -3.295340E-08
       377  18 -6.942451E+05  7.487274E+04  5.353610E+04  1.103328E+04  1.749732E-09 -3.597668E-09
       377  19 -1.356166E+06 -7.358222E+04 -8.408945E+04  1.009082E+04 -7.633818E+03 -6.017892E+03
       377  20 -1.385508E+06 -7.945896E+04 -9.891008E+04 -5.718636E+03 -1.711901E+04 -7.304780E+03
       377  21 -1.421551E+06 -1.064541E+05 -1.252355E+05  1.507995E+04 -2.660959E+04 -7.571971E+03
       377  22 -1.057946E+06  8.426940E+02 -1.073456E+04  1.297788E+04 -8.222536E+03 -6.020862E+03
       377  23 -1.054632E+06  3.055119E+03 -1.765668E+04 -5.285851E+03 -1.737003E+04 -7.305767E+03
       377  24 -1.057958E+06 -1.578566E+04 -3.584412E+04  1.305736E+04 -2.652342E+04 -7.571141E+03
       377  25 -7.596455E+05  7.526100E+04  6.261376E+04  1.586622E+04 -8.811536E+03 -6.023837E+03
       377  26 -7.236567E+05  8.556106E+04  6.358867E+04 -4.852960E+03 -1.762119E+04 -7.306755E+03
       377  27 -6.942443E+05  7.487299E+04  5.353753E+04  1.103344E+04 -2.643719E+04 -7.570311E+03
       378   1 -1.502006E+06 -1.033408E+05 -1.505337E+05 -1.907846E+03  3.153170E+04  9.538067E+03
       378   2 -1.508712E+06 -9.225320E+04 -1.818732E+05  1.594515E+03  7.132015E+04  1.120209E+04
       378   3 -1.561533E+06 -2.455594E+05 -2.802229E+05  3.838915E+04  1.111399E+05  4.137621E+03
       378   4 -1.066611E+06  5.403735E+03 -4.355064E+04  1.210510E+04  3.351033E+04  9.547212E+03
       378   5 -1.043857E+06  2.358236E+04 -6.788865E+04 -4.301740E+03  7.039529E+04  1.119695E+04
       378   6 -1.066677E+06 -1.220632E+05 -1.571822E+05  1.258396E+04  1.073137E+05  4.118498E+03
       378   7 -6.310429E+05  1.141348E+05  6.341853E+04  2.612772E+04  3.549033E+04  9.556444E+03
       378   8 -5.788033E+05  1.394020E+05  4.608009E+04 -1.020263E+04  6.946972E+04  1.119182E+04
       378   9 -5.715978E+05  1.417172E+03 -3.415945E+04 -1.324205E+04  1.034844E+05  4.099702E+03
       378  10 -1.502007E+06 -1.033412E+05 -1.505357E+05 -1.908089E+03  4.569089E-09 -6.018564E-09
       378  11 -1.508718E+06 -9.225470E+04 -1.818830E+05  1.593871E+03  4.686045E-09 -3.737086E-09
       378  12 -1.561546E+06 -2.455628E+05 -2.802462E+05  3.838878E+04  3.070468E-09  6.427896E-09
       378  13 -1.066612E+06  5.403335E+03 -4.355293E+04  1.210485E+04  3.434499E-09 -7.726339E-10
       378  14 -1.043862E+06  2.358089E+04 -6.789822E+04 -4.302375E+03 -5.512575E-10  6.073431E-10
       378  15 -1.066690E+06 -1.220664E+05 -1.572040E+05  1.258361E+04  6.663693E-10  1.038647E-08
       378  16 -6.310442E+05  1.141344E+05  6.341598E+04  2.612745E+04 -5.563747E-09  1.100222E-08
       378  17 -5.788085E+05  1.394006E+05  4.607078E+04 -1.020325E+04 -6.085494E-09  1.582429E-08
       378  18 -5.716093E+05  1.414276E+03 -3.417963E+04 -1.324239E+04 -2.619268E-09  3.361538E-09
       378  19 -1.502006E+06 -1.033408E+05 -1.505337E+05 -1.907846E+03 -3.153170E+04 -9.538067E+03
       378  20 -1.508712E+06 -9.225320E+04 -1.818732E+05  1.594515E+03 -7.132015E+04 -1.120209E+04
       378  21 -1.561533E+06 -2.455594E+05 -2.802229E+05  3.838915E+04 -1.111399E+05 -4.137621E+03
       378  22 -1.066611E+06  5.403735E+03 -4.355064E+04  1.210510E+04 -3.351033E+04 -9.547212E+03
       378  23 -1.043857E+06  2.358236E+04 -6.788865E+04 -4.301740E+03 -7.039529E+04 -1.119695E+04
       378  24 -1.066677E+06 -1.220632E+05 -1.571822E+05  1.258396E+04 -1.073137E+05 -4.118498E+03
       378  25 -6.310429E+05  1.141348E+05  6.341853E+04  2.612772E+04 -3.549033E+04 -9.556444E+03
       378  26 -5.788033E+05  1.394020E+05  4.608009E+04 -1.020263E+04 -6.946972E+04 -1.119182E+04
       378  27 -5.715978E+05  1.417172E+03 -3.415945E+04 -1.324205E+04 -1.034844E+05 -4.099702E+03
       379   1 -1.506950E+05 -5.744829E+05 -1.443235E+05  1.379686E+05 -6.051410E+03 -5.229264E+04
       379   2 -1.097236E+05 -4.658137E+05 -9.075820E+04  1.235095E+05 -1.946433E+04 -2.334279E+04
       379   3 -8.023988E+04 -3.636412E+05 -5.892051E+04  1.277318E+05 -2.061016E+04  5.647729E+03
       379   4 -1.556110E+04 -2.776582E+04 -1.589475E+04  1.272094E+05 -6.153294E+03 -1.213366E+04
       379   5 -5.124856E+03 -2.669513E+04 -7.173044E+03  1.178860E+05 -1.950029E+04 -8.479313E+03
       379   6 -1.777708E+03 -2.773516E+04 -2.600272E+03  1.272444E+05 -2.058371E+04 -4.790113E+03
       379   7  1.195527E+05  5.192303E+05  1.125196E+05  1.164408E+05 -6.256527E+03  2.806051E+04
       379   8  9.946279E+04  4.126100E+05  7.640428E+04  1.122585E+05 -1.953650E+04  6.394434E+03
       379   9  7.667862E+04  3.082825E+05  5.371685E+04  1.267568E+05 -2.055726E+04 -1.523342E+04
       379  10 -1.506958E+05 -5.744859E+05 -1.443287E+05  1.379684E+05 -1.128962E-09  1.347338E-09
       379  11 -1.097242E+05 -4.658144E+05 -9.075993E+04  1.235091E+05 -1.430401E-09 -1.356035E-09
       379  12 -8.024035E+04 -3.636414E+05 -5.892137E+04  1.277319E+05  1.001153E-09 -3.805572E-09
       379  13 -1.556118E+04 -2.776598E+04 -1.589510E+04  1.272094E+05  1.627467E-09  8.184892E-12
       379  14 -5.125283E+03 -2.669531E+04 -7.173894E+03  1.178858E+05 -3.161689E-09 -2.391867E-09
       379  15 -1.778169E+03 -2.773530E+04 -2.601111E+03  1.272443E+05  1.744442E-09  1.639863E-09
       379  16  1.195525E+05  5.192295E+05  1.125181E+05  1.164410E+05  4.954565E-10  2.186897E-09
       379  17  9.946237E+04  4.126098E+05  7.640349E+04  1.122586E+05 -3.068833E-10 -5.377256E-10
       379  18  7.667810E+04  3.082821E+05  5.371562E+04  1.267565E+05 -8.193490E-10  4.072497E-09
       379  19 -1.506950E+05 -5.744829E+05 -1.443235E+05  1.379686E+05  6.051410E+03  5.229264E+04
       379  20 -1.097236E+05 -4.658137E+05 -9.075820E+04  1.235095E+05  1.946433E+04  2.334279E+04
       379  21 -8.023988E+04 -3.636412E+05 -5.892051E+04  1.277318E+05  2.061016E+04 -5.647729E+03
       379  22 -1.556110E+04 -2.776582E+04 -1.589475E+04  1.272094E+05  6.153294E+03  1.213366E+04
       379  23 -5.124856E+03 -2.669513E+04 -7.173044E+03  1.178860E+05  1.950029E+04  8.479313E+03
       379  24 -1.777708E+03 -2.773516E+04 -2.600272E+03  1.272444E+05  2.058371E+04  4.790113E+03
       379  25  1.195527E+05  5.192303E+05  1.125196E+05  1.164408E+05  6.256527E+03 -2.806051E+04
       379  26  9.946279E+04  4.126100E+05  7.640428E+04  1.122585E+05  1.953650E+04 -6.394434E+03
       379  27  7.667862E+04  3.082825E+05  5.371685E+04  1.267568E+05  2.055726E+04  1.523342E+04
       380   1 -6.414397E+04 -2.960226E+05 -4.502213E+04  1.282335E+05 -1.719775E+04  5.746957E+03
       380   2 -3.790313E+04 -1.907336E+05 -2.244809E+04  1.187092E+05 -1.179678E+04  6.134543E+03
       380   3 -1.126064E+04 -8.525110E+04  8.428692E+00  1.287129E+05 -5.593655E+03  6.523699E+03
       380   4 -1.528484E+03 -2.715407E+04 -8.820684E+02  1.274284E+05 -1.717221E+04 -4.572126E+03
       380   5 -2.212679E+02 -2.738352E+04  2.563672E+03  1.176685E+05 -1.176784E+04 -5.840584E+03
       380   6  1.775699E+03 -2.714237E+04  7.042324E+03  1.274365E+05 -5.561437E+03 -7.107541E+03
       380   7  6.108335E+04  2.417862E+05  4.325630E+04  1.266229E+05 -1.714664E+04 -1.489553E+04
       380   8  3.745938E+04  1.359936E+05  2.757539E+04  1.166276E+05 -1.173886E+04 -1.781874E+04
       380   9  1.481201E+04  3.097024E+04  1.407692E+04  1.261599E+05 -5.529165E+03 -2.073999E+04
       380  10 -6.414429E+04 -2.960227E+05 -4.502275E+04  1.282336E+05  2.664007E-09 -1.577571E-09
       380  11 -3.790329E+04 -1.907337E+05 -2.244842E+04  1.187092E+05  2.359944E-09 -1.764585E-09
       380  12 -1.126069E+04 -8.525116E+04  8.289872E+00  1.287130E+05  1.475756E-09 -8.309788E-09
       380  13 -1.528806E+03 -2.715417E+04 -8.826618E+02  1.274283E+05  8.485160E-10  1.081897E-09
       380  14 -2.214258E+02 -2.738359E+04  2.563347E+03  1.176685E+05  1.135614E-09 -4.399194E-09
       380  15  1.775652E+03 -2.714244E+04  7.042171E+03  1.274364E+05  1.595791E-09  8.924708E-10
       380  16  6.108297E+04  2.417859E+05  4.325533E+04  1.266227E+05 -1.302241E-09  4.936210E-09
       380  17  3.745915E+04  1.359932E+05  2.757453E+04  1.166275E+05  3.339146E-10  4.192923E-09
       380  18  1.481187E+04  3.096977E+04  1.407606E+04  1.261598E+05 -2.453101E-09  5.889923E-09
       380  19 -6.414397E+04 -2.960226E+05 -4.502213E+04  1.282335E+05  1.719775E+04 -5.746957E+03
       380  20 -3.790313E+04 -1.907336E+05 -2.244809E+04  1.187092E+05  1.179678E+04 -6.134543E+03
       380  21 -1.126064E+04 -8.525110E+04  8.428692E+00  1.287129E+05  5.593655E+03 -6.523699E+03
       380  22 -1.528484E+03 -2.715407E+04 -8.820684E+02  1.274284E+05  1.717221E+04  4.572126E+03
       380  23 -2.212679E+02 -2.738352E+04  2.563672E+03  1.176685E+05  1.176784E+04  5.840584E+03
       380  24  1.775699E+03 -2.714237E+04  7.042324E+03  1.274365E+05  5.561437E+03  7.107541E+03
       380  25  6.108335E+04  2.417862E+05  4.325630E+04  1.266229E+05  1.714664E+04  1.489553E+04
       380  26  3.745938E+04  1.359936E+05  2.757539E+04  1.166276E+05  1.173886E+04  1.781874E+04
       380  27  1.481201E+04  3.097024E+04  1.407692E+04  1.261599E+05  5.529165E+03  2.073999E+04
       381   1  4.868028E+03 -1.740722E+04  1.408619E+04  1.271165E+05 -1.486308E+03  5.335780E+03
       381   2  3.801231E+04  8.426127E+04  4.417277E+04  1.295246E+05  2.575958E+03 -1.533355E+04
       381   3  9.041088E+04  1.935711E+05  9.255953E+04  1.512111E+05  1.416876E+03 -3.602002E+04
       381   4  2.330887E+03 -2.596541E+04  9.966034E+03  1.273727E+05 -1.454065E+03 -8.335705E+03
       381   5  1.048938E+04 -2.885104E+04  1.932406E+04  1.177758E+05  2.583183E+03 -1.822770E+04
       381   6  3.603415E+04 -2.597260E+04  3.950046E+04  1.274557E+05  1.399446E+03 -2.813344E+04
       381   7 -2.061637E+02 -3.452314E+04  5.846573E+03  1.276289E+05 -1.421834E+03 -2.200698E+04
       381   8 -1.703387E+04 -1.419511E+05 -5.525322E+03  1.060292E+05  2.590518E+03 -2.112132E+04
       381   9 -1.834392E+04 -2.454708E+05 -1.356152E+04  1.037088E+05  1.381410E+03 -2.024963E+04
       381  10  4.868018E+03 -1.740725E+04  1.408613E+04  1.271165E+05  2.811647E-09  3.482973E-09
       381  11  3.801224E+04  8.426102E+04  4.417231E+04  1.295246E+05  1.516751E-09 -2.824726E-09
       381  12  9.041053E+04  1.935697E+05  9.255709E+04  1.512112E+05 -6.570915E-10 -5.055860E-09
       381  13  2.330866E+03 -2.596548E+04  9.965899E+03  1.273726E+05 -2.406072E-09 -2.154887E-09
       381  14  1.048929E+04 -2.885140E+04  1.932342E+04  1.177759E+05  2.787633E-09 -4.929100E-09
       381  15  3.603393E+04 -2.597345E+04  3.949897E+04  1.274558E+05  1.111044E-09  4.152361E-09
       381  16 -2.062959E+02 -3.452366E+04  5.845659E+03  1.276288E+05 -1.196106E-09 -7.132844E-10
       381  17 -1.703400E+04 -1.419515E+05 -5.526173E+03  1.060293E+05  3.274975E-09  9.651504E-10
       381  18 -1.834403E+04 -2.454713E+05 -1.356229E+04  1.037088E+05  1.189840E-09  4.554321E-09
       381  19  4.868028E+03 -1.740722E+04  1.408619E+04  1.271165E+05  1.486308E+03 -5.335780E+03
       381  20  3.801231E+04  8.426127E+04  4.417277E+04  1.295246E+05 -2.575958E+03  1.533355E+04
       381  21  9.041088E+04  1.935711E+05  9.255953E+04  1.512111E+05 -1.416876E+03  3.602002E+04
       381  22  2.330887E+03 -2.596541E+04  9.966034E+03  1.273727E+05  1.454065E+03  8.335705E+03
       381  23  1.048938E+04 -2.885104E+04  1.932406E+04  1.177758E+05 -2.583183E+03  1.822770E+04
       381  24  3.603415E+04 -2.597260E+04  3.950046E+04  1.274557E+05 -1.399446E+03  2.813344E+04
       381  25 -2.061637E+02 -3.452314E+04  5.846573E+03  1.276289E+05  1.421834E+03  2.200698E+04
       381  26 -1.703387E+04 -1.419511E+05 -5.525322E+03  1.060292E+05 -2.590518E+03  2.112132E+04
       381  27 -1.834392E+04 -2.454708E+05 -1.356152E+04  1.037088E+05 -1.381410E+03  2.024963E+04
       382   1  1.547026E+06  5.380786E+05  3.715352E+05  5.249409E+05  1.644574E+05  5.834049E+04
       382   2  1.488054E+06  2.837069E+05  2.138404E+05  5.464588E+05  1.072861E+05  2.928359E+04
       382   3  1.504761E+06  2.973253E+05  1.673668E+05  5.323632E+05  4.708772E+04  8.229759E+03
       382   4  1.137454E+06  3.452790E+05  2.520016E+05  3.742235E+05  1.610733E+05  5.704744E+04
       382   5  1.087051E+06  1.218459E+05  1.036534E+05  4.259894E+05  1.064600E+05  2.896799E+04
       382   6  1.111879E+06  1.659907E+05  6.455857E+04  4.421259E+05  4.881734E+04  8.887055E+03
       382   7  7.280501E+05  1.525188E+05  1.324522E+05  2.236055E+05  1.576916E+05  5.575582E+04
       382   8  6.862022E+05 -3.999915E+04 -6.548243E+03  3.055922E+05  1.056345E+05  2.865264E+04
       382   9  7.191428E+05  3.465733E+04 -3.826265E+04  3.519359E+05  5.054575E+04  9.544016E+03
       382  10  1.546996E+06  5.380678E+05  3.714782E+05  5.249332E+05  1.363233E-09  6.133994E-09
       382  11  1.488042E+06  2.837029E+05  2.138172E+05  5.464563E+05  4.397218E-09  1.676708E-08
       382  12  1.504759E+06  2.973246E+05  1.673625E+05  5.323628E+05  1.554586E-10  3.529621E-09
       382  13  1.137426E+06  3.452686E+05  2.519468E+05  3.742161E+05  1.524685E-09 -8.615544E-09
       382  14  1.087038E+06  1.218419E+05  1.036305E+05  4.259869E+05  4.224225E-09 -8.786717E-09
       382  15  1.111876E+06  1.659900E+05  6.455395E+04  4.421256E+05 -2.146346E-09  1.319387E-09
       382  16  7.280226E+05  1.525088E+05  1.323997E+05  2.235984E+05 -4.676955E-10 -5.920142E-09
       382  17  6.861900E+05 -4.000302E+04 -6.570725E+03  3.055897E+05  8.946081E-10 -1.209057E-08
       382  18  7.191400E+05  3.465655E+04 -3.826761E+04  3.519355E+05  1.498453E-09 -8.507408E-09
       382  19  1.547026E+06  5.380786E+05  3.715352E+05  5.249409E+05 -1.644574E+05 -5.834049E+04
       382  20  1.488054E+06  2.837069E+05  2.138404E+05  5.464588E+05 -1.072861E+05 -2.928359E+04
       382  21  1.504761E+06  2.973253E+05  1.673668E+05  5.323632E+05 -4.708772E+04 -8.229759E+03
       382  22  1.137454E+06  3.452790E+05  2.520016E+05  3.742235E+05 -1.610733E+05 -5.704744E+04
       382  23  1.087051E+06  1.218459E+05  1.036534E+05  4.259894E+05 -1.064600E+05 -2.896799E+04
       382  24  1.111879E+06  1.659907E+05  6.455857E+04  4.421259E+05 -4.881734E+04 -8.887055E+03
       382  25  7.280501E+05  1.525188E+05  1.324522E+05  2.236055E+05 -1.576916E+05 -5.575582E+04
       382  26  6.862022E+05 -3.999915E+04 -6.548243E+03  3.055922E+05 -1.056345E+05 -2.865264E+04
       382  27  7.191428E+05  3.465733E+04 -3.826265E+04  3.519359E+05 -5.054575E+04 -9.544016E+03
       383   1  1.414548E+06  3.159374E+05  1.378798E+05  5.154254E+05  3.867187E+04  7.128380E+03
       383   2  1.394450E+06  2.652074E+05  1.026407E+05  5.022769E+05  2.545330E+04  2.238910E+03
       383   3  1.367084E+06  2.684884E+05  8.614185E+04  5.051909E+05  1.190712E+04 -1.787905E+03
       383   4  1.104290E+06  1.935464E+05  5.294642E+04  4.251841E+05  3.855822E+04  7.084626E+03
       383   5  1.106246E+06  1.546946E+05  2.445906E+04  4.216637E+05  2.561787E+04  2.301138E+03
       383   6  1.100886E+06  1.698084E+05  1.449896E+04  4.342046E+05  1.234932E+04 -1.619875E+03
       383   7  7.941239E+05  7.116328E+04 -3.199570E+04  3.349840E+05  3.844464E+04  7.040896E+03
       383   8  8.181229E+05  4.418731E+04 -5.372992E+04  3.410843E+05  2.578235E+04  2.363332E+03
       383   9  8.347555E+05  7.113218E+04 -5.715005E+04  3.632455E+05  1.279131E+04 -1.451921E+03
       383  10  1.414546E+06  3.159370E+05  1.378769E+05  5.154252E+05 -2.343022E-09  2.432199E-09
       383  11  1.394449E+06  2.652073E+05  1.026394E+05  5.022768E+05 -2.952272E-10  1.309572E-09
       383  12  1.367084E+06  2.684883E+05  8.614158E+04  5.051909E+05  4.325552E-09 -4.799889E-09
       383  13  1.104288E+06  1.935459E+05  5.294354E+04  4.251838E+05 -1.771542E-09  6.210997E-09
       383  14  1.106246E+06  1.546944E+05  2.445782E+04  4.216636E+05 -2.458749E-09 -2.309988E-08
       383  15  1.100886E+06  1.698084E+05  1.449867E+04  4.342046E+05  2.798491E-09 -8.586892E-10
       383  16  7.941223E+05  7.116283E+04 -3.199857E+04  3.349838E+05  4.448140E-10 -1.120517E-09
       383  17  8.181222E+05  4.418713E+04 -5.373118E+04  3.410842E+05  4.763926E-10 -6.500141E-09
       383  18  8.347553E+05  7.113214E+04 -5.715036E+04  3.632455E+05  9.907177E-10  5.547881E-09
       383  19  1.414548E+06  3.159374E+05  1.378798E+05  5.154254E+05 -3.867187E+04 -7.128380E+03
       383  20  1.394450E+06  2.652074E+05  1.026407E+05  5.022769E+05 -2.545330E+04 -2.238910E+03
       383  21  1.367084E+06  2.684884E+05  8.614185E+04  5.051909E+05 -1.190712E+04  1.787905E+03
       383  22  1.104290E+06  1.935464E+05  5.294642E+04  4.251841E+05 -3.855822E+04 -7.084626E+03
       383  23  1.106246E+06  1.546946E+05  2.445906E+04  4.216637E+05 -2.561787E+04 -2.301138E+03
       383  24  1.100886E+06  1.698084E+05  1.449896E+04  4.342046E+05 -1.234932E+04  1.619875E+03
       383  25  7.941239E+05  7.116328E+04 -3.199570E+04  3.349840E+05 -3.844464E+04 -7.040896E+03
       383  26  8.181229E+05  4.418731E+04 -5.372992E+04  3.410843E+05 -2.578235E+04 -2.363332E+03
       383  27  8.347555E+05  7.113218E+04 -5.715005E+04  3.632455E+05 -1.279131E+04  1.451921E+03
       384   1  1.305200E+06  2.514501E+05  6.701923E+04  4.886597E+05  9.724732E+03 -1.855131E+03
       384   2  1.291800E+06  2.293323E+05  5.536560E+04  4.723903E+05  6.454144E+03 -2.197086E+03
       384   3  1.261101E+06  2.309658E+05  4.712076E+04  4.769274E+05  3.160836E+03 -2.480656E+03
       384   4  1.100105E+06  1.730121E+05  1.147327E+04  4.314935E+05  9.962060E+03 -1.764973E+03
       384   5  1.108534E+06  1.595919E+05  5.739642E+03  4.216789E+05  6.710860E+03 -2.099457E+03
       384   6  1.099660E+06  1.699205E+05  3.400477E+03  4.326711E+05  3.436825E+03 -2.375592E+03
       384   7  8.950495E+05  9.457663E+04 -4.407655E+04  3.743442E+05  1.019930E+04 -1.674848E+03
       384   8  9.252990E+05  8.985353E+04 -4.388937E+04  3.709809E+05  6.967493E+03 -2.001859E+03
       384   9  9.382432E+05  1.088768E+05 -4.032214E+04  3.884251E+05  3.712734E+03 -2.270558E+03
       384  10  1.305199E+06  2.514501E+05  6.701904E+04  4.886597E+05 -7.507314E-09 -1.499945E-08
       384  11  1.291800E+06  2.293323E+05  5.536552E+04  4.723903E+05 -4.354691E-09  4.314905E-11
       384  12  1.261101E+06  2.309657E+05  4.712073E+04  4.769275E+05 -2.848354E-09 -7.423130E-09
       384  13  1.100105E+06  1.730120E+05  1.147308E+04  4.314935E+05  2.587964E-09  3.208360E-09
       384  14  1.108533E+06  1.595919E+05  5.739550E+03  4.216789E+05  1.894575E-09  5.700290E-09
       384  15  1.099660E+06  1.699205E+05  3.400445E+03  4.326711E+05 -4.781155E-09 -6.644751E-09
       384  16  8.950494E+05  9.457660E+04 -4.407675E+04  3.743442E+05  5.018075E-09  4.740542E-09
       384  17  9.252990E+05  8.985351E+04 -4.388947E+04  3.709809E+05  2.628124E-10  2.352676E-08
       384  18  9.382432E+05  1.088768E+05 -4.032218E+04  3.884251E+05 -2.885125E-10 -5.237807E-09
       384  19  1.305200E+06  2.514501E+05  6.701923E+04  4.886597E+05 -9.724732E+03  1.855131E+03
       384  20  1.291800E+06  2.293323E+05  5.536560E+04  4.723903E+05 -6.454144E+03  2.197086E+03
       384  21  1.261101E+06  2.309658E+05  4.712076E+04  4.769274E+05 -3.160836E+03  2.480656E+03
       384  22  1.100105E+06  1.730121E+05  1.147327E+04  4.314935E+05 -9.962060E+03  1.764973E+03
       384  23  1.108534E+06  1.595919E+05  5.739642E+03  4.216789E+05 -6.710860E+03  2.099457E+03
       384  24  1.099660E+06  1.699205E+05  3.400477E+03  4.326711E+05 -3.436825E+03  2.375592E+03
       384  25  8.950495E+05  9.457663E+04 -4.407655E+04  3.743442E+05 -1.019930E+04  1.674848E+03
       384  26  9.252990E+05  8.985353E+04 -4.388937E+04  3.709809E+05 -6.967493E+03  2.001859E+03
       384  27  9.382432E+05  1.088768E+05 -4.032214E+04  3.884251E+05 -3.712734E+03  2.270558E+03
       385   1  1.206746E+06  2.108402E+05  3.160623E+04  4.617193E+05  2.485606E+03 -2.169481E+03
       385   2  1.194933E+06  1.933228E+05  2.500850E+04  4.458452E+05  1.350028E+03 -1.672040E+03
       385   3  1.165266E+06  1.946787E+05  1.920380E+04  4.502800E+05  2.189432E+02 -1.186967E+03
       385   4  1.099726E+06  1.701061E+05  2.701859E+03  4.320795E+05  2.743299E+03 -2.071334E+03
       385   5  1.108628E+06  1.605025E+05  1.640587E+03  4.219885E+05  1.603968E+03 -1.575284E+03
       385   6  1.099678E+06  1.697733E+05  1.375470E+03  4.322065E+05  4.690970E+02 -1.091612E+03
       385   7  9.927163E+05  1.293727E+05 -2.620348E+04  4.024443E+05  3.000944E+03 -1.973207E+03
       385   8  1.022331E+06  1.276826E+05 -2.172799E+04  3.981348E+05  1.857869E+03 -1.478542E+03
       385   9  1.034094E+06  1.448681E+05 -1.645328E+04  4.141347E+05  7.192221E+02 -9.962682E+02
       385  10  1.206746E+06  2.108402E+05  3.160621E+04  4.617193E+05 -6.226494E-09 -5.827680E-09
       385  11  1.194933E+06  1.933228E+05  2.500849E+04  4.458452E+05  2.708193E-09  1.935585E-08
       385  12  1.165266E+06  1.946787E+05  1.920380E+04  4.502800E+05  1.009438E-08 -2.879792E-09
       385  13  1.099726E+06  1.701061E+05  2.701837E+03  4.320795E+05 -2.233210E-09 -3.610417E-09
       385  14  1.108628E+06  1.605025E+05  1.640578E+03  4.219885E+05  4.031172E-09  2.656313E-08
       385  15  1.099678E+06  1.697733E+05  1.375467E+03  4.322065E+05  2.080462E-09 -1.441752E-08
       385  16  9.927163E+05  1.293727E+05 -2.620350E+04  4.024443E+05  5.745552E-09 -4.445329E-09
       385  17  1.022331E+06  1.276826E+05 -2.172800E+04  3.981348E+05 -6.652845E-09 -7.406594E-09
       385  18  1.034094E+06  1.448681E+05 -1.645328E+04  4.141347E+05 -5.227953E-09  8.325510E-09
       385  19  1.206746E+06  2.108402E+05  3.160623E+04  4.617193E+05 -2.485606E+03  2.169481E+03
       385  20  1.194933E+06  1.933228E+05  2.500850E+04  4.458452E+05 -1.350028E+03  1.672040E+03
       385  21  1.165266E+06  1.946787E+05  1.920380E+04  4.502800E+05 -2.189432E+02  1.186967E+03
       385  22  1.099726E+06  1.701061E+05  2.701859E+03  4.320795E+05 -2.743299E+03  2.071334E+03
       385  23  1.108628E+06  1.605025E+05  1.640587E+03  4.219885E+05 -1.603968E+03  1.575284E+03
       385  24  1.099678E+06  1.697733E+05  1.375470E+03  4.322065E+05 -4.690970E+02  1.091612E+03
       385  25  9.927163E+05  1.293727E+05 -2.620348E+04  4.024443E+05 -3.000944E+03  1.973207E+03
       385  26  1.022331E+06  1.276826E+05 -2.172799E+04  3.981348E+05 -1.857869E+03  1.478542E+03
       385  27  1.034094E+06  1.448681E+05 -1.645328E+04  4.141347E+05 -7.192221E+02  9.962682E+02
       386   1  1.113401E+06  1.749123E+05  5.024561E+03  4.359557E+05 -1.885763E+02 -8.121999E+02
       386   2  1.101878E+06  1.580569E+05 -1.222758E+01  4.202581E+05 -1.394743E+03 -3.621316E+02
       386   3  1.072878E+06  1.597881E+05 -4.183010E+03  4.244362E+05 -2.598395E+03  8.155201E+01
       386   4  1.099759E+06  1.696810E+05  1.399400E+03  4.321216E+05  6.275347E+01 -7.163811E+02
       386   5  1.108527E+06  1.605943E+05  1.789757E+03  4.221049E+05 -1.145443E+03 -2.670911E+02
       386   6  1.099818E+06  1.700945E+05  3.047702E+03  4.319637E+05 -2.351157E+03  1.758032E+02
       386   7  1.086117E+06  1.644496E+05 -2.225776E+03  4.282875E+05  3.140771E+02 -6.205647E+02
       386   8  1.115176E+06  1.631317E+05  3.591735E+03  4.239517E+05 -8.961407E+02 -1.720497E+02
       386   9  1.126759E+06  1.804009E+05  1.027834E+04  4.394915E+05 -2.103909E+03  2.700588E+02
       386  10  1.113401E+06  1.749123E+05  5.024559E+03  4.359557E+05  8.530536E-09 -2.301072E-08
       386  11  1.101878E+06  1.580569E+05 -1.223147E+01  4.202581E+05  2.100641E-09 -5.345543E-09
       386  12  1.072878E+06  1.597881E+05 -4.183023E+03  4.244362E+05 -3.514999E-09 -9.047358E-09
       386  13  1.099759E+06  1.696810E+05  1.399399E+03  4.321216E+05  5.153986E-09 -2.082781E-09
       386  14  1.108527E+06  1.605943E+05  1.789754E+03  4.221049E+05  1.429578E-09 -1.315425E-08
       386  15  1.099818E+06  1.700945E+05  3.047692E+03  4.319637E+05  7.838160E-09  1.151498E-08
       386  16  1.086117E+06  1.644496E+05 -2.225777E+03  4.282875E+05 -2.232979E-10  1.733959E-09
       386  17  1.115176E+06  1.631317E+05  3.591734E+03  4.239517E+05  1.276867E-08 -4.860908E-09
       386  18  1.126759E+06  1.804009E+05  1.027833E+04  4.394915E+05  6.562848E-09 -5.527732E-09
       386  19  1.113401E+06  1.749123E+05  5.024561E+03  4.359557E+05  1.885763E+02  8.121999E+02
       386  20  1.101878E+06  1.580569E+05 -1.222758E+01  4.202581E+05  1.394743E+03  3.621316E+02
       386  21  1.072878E+06  1.597881E+05 -4.183010E+03  4.244362E+05  2.598395E+03 -8.155201E+01
       386  22  1.099759E+06  1.696810E+05  1.399400E+03  4.321216E+05 -6.275347E+01  7.163811E+02
       386  23  1.108527E+06  1.605943E+05  1.789757E+03  4.221049E+05  1.145443E+03  2.670911E+02
       386  24  1.099818E+06  1.700945E+05  3.047702E+03  4.319637E+05  2.351157E+03 -1.758032E+02
       386  25  1.086117E+06  1.644496E+05 -2.225776E+03  4.282875E+05 -3.140771E+02  6.205647E+02
       386  26  1.115176E+06  1.631317E+05  3.591735E+03  4.239517E+05  8.961407E+02  1.720497E+02
       386  27  1.126759E+06  1.804009E+05  1.027834E+04  4.394915E+05  2.103909E+03 -2.700588E+02
       387   1  1.020607E+06  1.398677E+05 -1.762773E+04  4.108806E+05 -3.365584E+03  3.322649E+02
       387   2  1.008347E+06  1.217114E+05 -2.048960E+04  3.943169E+05 -7.031780E+03 -1.383431E+02
       387   3  9.800847E+05  1.268472E+05 -1.949791E+04  3.971469E+05 -1.067606E+04 -6.655245E+02
       387   4  1.099932E+06  1.696690E+05  3.856811E+03  4.324168E+05 -3.101977E+03  4.327382E+02
       387   5  1.108188E+06  1.598056E+05  6.569154E+03  4.220394E+05 -6.786555E+03 -4.492725E+01
       387   6  1.100446E+06  1.732374E+05  1.314923E+04  4.310557E+05 -1.044933E+04 -5.792124E+02
       387   7  1.179262E+06  1.994708E+05  2.534083E+04  4.539554E+05 -2.838333E+03  5.332254E+02
       387   8  1.208039E+06  1.979005E+05  3.362704E+04  4.497661E+05 -6.541286E+03  4.850539E+01
       387   9  1.220821E+06  2.196285E+05  4.579508E+04  4.649705E+05 -1.022256E+04 -4.928812E+02
       387  10  1.020607E+06  1.398677E+05 -1.762775E+04  4.108806E+05  5.946724E-09  6.609148E-09
       387  11  1.008347E+06  1.217114E+05 -2.048969E+04  3.943169E+05 -8.029379E-10  4.201266E-09
       387  12  9.800846E+05  1.268472E+05 -1.949813E+04  3.971469E+05 -1.320042E-08  4.287217E-09
       387  13  1.099932E+06  1.696690E+05  3.856792E+03  4.324168E+05  4.815464E-10  2.822701E-09
       387  14  1.108188E+06  1.598056E+05  6.569068E+03  4.220394E+05  6.226440E-09 -2.195137E-09
       387  15  1.100446E+06  1.732373E+05  1.314903E+04  4.310557E+05  2.385514E-09 -8.702406E-10
       387  16  1.179262E+06  1.994708E+05  2.534081E+04  4.539554E+05  1.498571E-09 -3.058899E-09
       387  17  1.208039E+06  1.979005E+05  3.362696E+04  4.497661E+05  1.274354E-08  9.556632E-09
       387  18  1.220821E+06  2.196285E+05  4.579488E+04  4.649705E+05  1.269172E-08  4.420703E-09
       387  19  1.020607E+06  1.398677E+05 -1.762773E+04  4.108806E+05  3.365584E+03 -3.322649E+02
       387  20  1.008347E+06  1.217114E+05 -2.048960E+04  3.943169E+05  7.031780E+03  1.383431E+02
       387  21  9.800847E+05  1.268472E+05 -1.949791E+04  3.971469E+05  1.067606E+04  6.655245E+02
       387  22  1.099932E+06  1.696690E+05  3.856811E+03  4.324168E+05  3.101977E+03 -4.327382E+02
       387  23  1.108188E+06  1.598056E+05  6.569154E+03  4.220394E+05  6.786555E+03  4.492725E+01
       387  24  1.100446E+06  1.732374E+05  1.314923E+04  4.310557E+05  1.044933E+04  5.792124E+02
       387  25  1.179262E+06  1.994708E+05  2.534083E+04  4.539554E+05  2.838333E+03 -5.332254E+02
       387  26  1.208039E+06  1.979005E+05  3.362704E+04  4.497661E+05  6.541286E+03 -4.850539E+01
       387  27  1.220821E+06  2.196285E+05  4.579508E+04  4.649705E+05  1.022256E+04  4.928812E+02
       388   1  9.240934E+05  1.046027E+05 -3.096747E+04  3.876848E+05 -1.350471E+04 -1.061707E+03
       388   2  9.083705E+05  7.833990E+04 -2.549106E+04  3.666541E+05 -2.842342E+04 -5.715171E+03
       388   3  8.890684E+05  1.089180E+05  1.039312E+03  3.583089E+05 -4.308701E+04 -1.103643E+04
       388   4  1.101563E+06  1.693132E+05  1.661718E+04  4.338979E+05 -1.311939E+04 -9.149710E+02
       388   5  1.105295E+06  1.544973E+05  2.806760E+04  4.223686E+05 -2.825314E+04 -5.650549E+03
       388   6  1.105485E+06  1.965567E+05  6.073695E+04  4.235249E+05 -4.313234E+04 -1.105425E+04
       388   7  1.279063E+06  2.340249E+05  6.419899E+04  4.801226E+05 -1.273395E+04 -7.681937E+02
       388   8  1.302256E+06  2.306576E+05  8.162277E+04  4.780991E+05 -2.808279E+04 -5.585903E+03
       388   9  1.321947E+06  2.842002E+05  1.204304E+05  4.887620E+05 -4.317767E+04 -1.107208E+04
       388  10  9.240932E+05  1.046027E+05 -3.096781E+04  3.876848E+05 -1.286054E-09  1.280041E-08
       388  11  9.083696E+05  7.833964E+04 -2.549264E+04  3.666540E+05  1.170423E-09  2.679237E-08
       388  12  8.890664E+05  1.089174E+05  1.035601E+03  3.583085E+05  7.598851E-10  7.160997E-09
       388  13  1.101563E+06  1.693132E+05  1.661686E+04  4.338979E+05 -2.745999E-09 -1.831613E-09
       388  14  1.105294E+06  1.544971E+05  2.806605E+04  4.223685E+05 -6.885523E-09  9.423685E-09
       388  15  1.105483E+06  1.965561E+05  6.073323E+04  4.235245E+05 -6.580006E-10  1.410080E-08
       388  16  1.279063E+06  2.340249E+05  6.419868E+04  4.801226E+05  2.120003E-09  1.248053E-10
       388  17  1.302256E+06  2.306573E+05  8.162124E+04  4.780990E+05 -2.617134E-09 -1.829616E-08
       388  18  1.321945E+06  2.841996E+05  1.204266E+05  4.887616E+05 -3.355639E-09 -1.017353E-08
       388  19  9.240934E+05  1.046027E+05 -3.096747E+04  3.876848E+05  1.350471E+04  1.061707E+03
       388  20  9.083705E+05  7.833990E+04 -2.549106E+04  3.666541E+05  2.842342E+04  5.715171E+03
       388  21  8.890684E+05  1.089180E+05  1.039312E+03  3.583089E+05  4.308701E+04  1.103643E+04
       388  22  1.101563E+06  1.693132E+05  1.661718E+04  4.338979E+05  1.311939E+04  9.149710E+02
       388  23  1.105295E+06  1.544973E+05  2.806760E+04  4.223686E+05  2.825314E+04  5.650549E+03
       388  24  1.105485E+06  1.965567E+05  6.073695E+04  4.235249E+05  4.313234E+04  1.105425E+04
       388  25  1.279063E+06  2.340249E+05  6.419899E+04  4.801226E+05  1.273395E+04  7.681937E+02
       388  26  1.302256E+06  2.306576E+05  8.162277E+04  4.780991E+05  2.808279E+04  5.585903E+03
       388  27  1.321947E+06  2.842002E+05  1.204304E+05  4.887620E+05  4.317767E+04  1.107208E+04
       389   1  8.196709E+05  7.295344E+04 -1.781939E+03  3.818850E+05 -5.602908E+04 -1.426648E+04
       389   2  7.862226E+05 -6.895117E+03  3.653507E+04  3.342894E+05 -1.200167E+05 -3.705893E+04
       389   3  8.448733E+05  2.134263E+05  1.986161E+05  2.383934E+05 -1.816757E+05 -6.597242E+04
       389   4  1.114426E+06  1.646711E+05  7.405200E+04  4.426544E+05 -5.466250E+04 -1.374496E+04
       389   5  1.082954E+06  1.172081E+05  1.189453E+05  4.277684E+05 -1.206101E+05 -3.728734E+04
       389   6  1.143912E+06  3.702143E+05  2.891075E+05  3.645961E+05 -1.842298E+05 -6.695739E+04
       389   7  1.409265E+06  2.563882E+05  1.498793E+05  5.034466E+05 -5.329519E+04 -1.322327E+04
       389   8  1.379769E+06  2.413217E+05  2.013472E+05  5.212892E+05 -1.212038E+05 -3.751588E+04
       389   9  1.443039E+06  5.270340E+05  3.795895E+05  4.908608E+05 -1.867852E+05 -6.794330E+04
       389  10  8.196675E+05  7.295238E+04 -1.788211E+03  3.818843E+05  5.632417E-09  1.233064E-08
       389  11  7.862068E+05 -6.900450E+03  3.650547E+04  3.342858E+05 -5.404386E-10  2.880528E-09
       389  12  8.448367E+05  2.134128E+05  1.985460E+05  2.383838E+05 -3.018315E-09 -7.893775E-09
       389  13  1.114423E+06  1.646701E+05  7.404604E+04  4.426538E+05  2.756138E-09 -3.186055E-10
       389  14  1.082938E+06  1.172027E+05  1.189155E+05  4.277647E+05 -5.029865E-10 -1.922218E-08
       389  15  1.143874E+06  3.702004E+05  2.890354E+05  3.645862E+05  1.495745E-09  1.610417E-09
       389  16  1.409262E+06  2.563872E+05  1.498736E+05  5.034461E+05 -7.740822E-09 -1.141121E-08
       389  17  1.379753E+06  2.413163E+05  2.013170E+05  5.212855E+05  6.276195E-09  1.868455E-09
       389  18  1.443000E+06  5.270197E+05  3.795155E+05  4.908506E+05  1.213798E-09 -8.146599E-10
       389  19  8.196709E+05  7.295344E+04 -1.781939E+03  3.818850E+05  5.602908E+04  1.426648E+04
       389  20  7.862226E+05 -6.895117E+03  3.653507E+04  3.342894E+05  1.200167E+05  3.705893E+04
       389  21  8.448733E+05  2.134263E+05  1.986161E+05  2.383934E+05  1.816757E+05  6.597242E+04
       389  22  1.114426E+06  1.646711E+05  7.405200E+04  4.426544E+05  5.466250E+04  1.374496E+04
       389  23  1.082954E+06  1.172081E+05  1.189453E+05  4.277684E+05  1.206101E+05  3.728734E+04
       389  24  1.143912E+06  3.702143E+05  2.891075E+05  3.645961E+05  1.842298E+05  6.695739E+04
       389  25  1.409265E+06  2.563882E+05  1.498793E+05  5.034466E+05  5.329519E+04  1.322327E+04
       389  26  1.379769E+06  2.413217E+05  2.013472E+05  5.212892E+05  1.212038E+05  3.751588E+04
       389  27  1.443039E+06  5.270340E+05  3.795895E+05  4.908608E+05  1.867852E+05  6.794330E+04
       390   1 -1.911156E+05 -1.122530E+06 -1.975988E+05  8.178743E+04 -4.687776E+03 -2.621122E+04
       390   2 -1.263122E+05 -9.871280E+05 -1.452078E+05  4.061274E+03 -1.267579E+04 -1.320911E+04
       390   3 -9.911223E+04 -8.610730E+05 -1.103643E+05  7.221929E+04 -7.549222E+03 -1.673618E+02
       390   4 -2.646927E+04 -4.639353E+05 -3.383059E+04  7.429809E+04 -4.702846E+03 -2.135863E+04
       390   5  5.128125E+03 -4.596373E+05 -1.600285E+04  1.401551E+03 -1.267635E+04 -1.274833E+04
       390   6 -9.597591E+01 -4.639292E+05 -1.265726E+04  7.438259E+04 -7.539975E+03 -4.101257E+03
       390   7  1.381446E+05  1.950538E+05  1.299053E+05  6.680108E+04 -4.718026E+03 -1.650088E+04
       390   8  1.365479E+05  6.810729E+04  1.131818E+05 -1.260262E+03 -1.267692E+04 -1.228715E+04
       390   9  9.890857E+04 -6.664166E+04  8.503819E+04  7.654735E+04 -7.530759E+03 -8.037666E+03
       390  10 -1.911158E+05 -1.122531E+06 -1.976002E+05  8.178733E+04 -3.989232E-10  3.438171E-09
       390  11 -1.263125E+05 -9.871282E+05 -1.452085E+05  4.061139E+03  4.254050E-10  3.839222E-09
       390  12 -9.911229E+04 -8.610730E+05 -1.103644E+05  7.221929E+04  1.850408E-09  6.014083E-09
       390  13 -2.646941E+04 -4.639358E+05 -3.383149E+04  7.429801E+04  1.326981E-09  8.364663E-11
       390  14  5.127909E+03 -4.596375E+05 -1.600345E+04  1.401421E+03 -3.803785E-09  5.112501E-09
       390  15 -9.604146E+01 -4.639292E+05 -1.265740E+04  7.438257E+04 -1.681948E-09 -3.100785E-09
       390  16  1.381445E+05  1.950535E+05  1.299047E+05  6.680102E+04  1.188768E-09  2.756217E-09
       390  17  1.365477E+05  6.810709E+04  1.131812E+05 -1.260387E+03  2.635795E-09 -3.314550E-10
       390  18  9.890849E+04 -6.664174E+04  8.503797E+04  7.654731E+04  4.505104E-10 -2.587125E-09
       390  19 -1.911156E+05 -1.122530E+06 -1.975988E+05  8.178743E+04  4.687776E+03  2.621122E+04
       390  20 -1.263122E+05 -9.871280E+05 -1.452078E+05  4.061274E+03  1.267579E+04  1.320911E+04
       390  21 -9.911223E+04 -8.610730E+05 -1.103643E+05  7.221929E+04  7.549222E+03  1.673618E+02
       390  22 -2.646927E+04 -4.639353E+05 -3.383059E+04  7.429809E+04  4.702846E+03  2.135863E+04
       390  23  5.128125E+03 -4.596373E+05 -1.600285E+04  1.401551E+03  1.267635E+04  1.274833E+04
       390  24 -9.597591E+01 -4.639292E+05 -1.265726E+04  7.438259E+04  7.539975E+03  4.101257E+03
       390  25  1.381446E+05  1.950538E+05  1.299053E+05  6.680108E+04  4.718026E+03  1.650088E+04
       390  26  1.365479E+05  6.810729E+04  1.131818E+05 -1.260262E+03  1.267692E+04  1.228715E+04
       390  27  9.890857E+04 -6.664166E+04  8.503819E+04  7.654735E+04  7.530759E+03  8.037666E+03
       391   1 -2.707170E+04 -5.575688E+05 -3.523496E+04  7.624234E+04 -2.575335E+03 -7.483945E+02
       391   2  1.119527E+04 -4.242197E+05 -2.246452E+03  8.384496E+02  7.921245E+02  5.065923E+03
       391   3  3.473798E+04 -2.944495E+05  2.344314E+04  7.250813E+04  4.025910E+03  1.088155E+04
       391   4 -3.464229E+03 -4.627757E+05 -1.208496E+04  7.462313E+04 -2.572827E+03 -1.906064E+03
       391   5  2.036008E+03 -4.609746E+05 -1.126423E+04  1.081566E+03  7.946162E+02  3.953068E+03
       391   6 -7.195106E+03 -4.627768E+05 -1.777274E+04  7.461451E+04  4.028375E+03  9.812288E+03
       391   7  2.014259E+04 -3.679743E+05  1.106439E+04  7.300366E+04 -2.570314E+03 -3.063910E+03
       391   8 -7.123355E+03 -4.977284E+05 -2.028211E+04  1.324670E+03  7.971071E+02  2.840279E+03
       391   9 -4.913028E+04 -6.310783E+05 -5.899068E+04  7.672034E+04  4.030833E+03  8.743318E+03
       391  10 -2.707171E+04 -5.575688E+05 -3.523497E+04  7.624234E+04  4.292957E-10  8.030487E-09
       391  11  1.119526E+04 -4.242197E+05 -2.246502E+03  8.384464E+02  2.346004E-10  7.245419E-09
       391  12  3.473793E+04 -2.944496E+05  2.344289E+04  7.250809E+04  2.334263E-09  5.198536E-09
       391  13 -3.464237E+03 -4.627757E+05 -1.208498E+04  7.462312E+04 -1.983684E-09 -8.600679E-09
       391  14  2.036003E+03 -4.609747E+05 -1.126426E+04  1.081564E+03 -2.782329E-11  2.638915E-09
       391  15 -7.195149E+03 -4.627769E+05 -1.777295E+04  7.461448E+04  2.984604E-09 -1.025532E-08
       391  16  2.014258E+04 -3.679743E+05  1.106436E+04  7.300366E+04  1.915884E-10 -6.328672E-09
       391  17 -7.123358E+03 -4.977284E+05 -2.028212E+04  1.324668E+03 -1.468947E-09 -9.219171E-09
       391  18 -4.913032E+04 -6.310784E+05 -5.899086E+04  7.672031E+04  9.745103E-10 -1.997525E-09
       391  19 -2.707170E+04 -5.575688E+05 -3.523496E+04  7.624234E+04  2.575335E+03  7.483945E+02
       391  20  1.119527E+04 -4.242197E+05 -2.246452E+03  8.384496E+02 -7.921245E+02 -5.065923E+03
       391  21  3.473798E+04 -2.944495E+05  2.344314E+04  7.250813E+04 -4.025910E+03 -1.088155E+04
       391  22 -3.464229E+03 -4.627757E+05 -1.208496E+04  7.462313E+04  2.572827E+03  1.906064E+03
       391  23  2.036008E+03 -4.609746E+05 -1.126423E+04  1.081566E+03 -7.946162E+02 -3.953068E+03
       391  24 -7.195106E+03 -4.627768E+05 -1.777274E+04  7.461451E+04 -4.028375E+03 -9.812288E+03
       391  25  2.014259E+04 -3.679743E+05  1.106439E+04  7.300366E+04  2.570314E+03  3.063910E+03
       391  26 -7.123355E+03 -4.977284E+05 -2.028211E+04  1.324670E+03 -7.971071E+02 -2.840279E+03
       391  27 -4.913028E+04 -6.310783E+05 -5.899068E+04  7.672034E+04 -4.030833E+03 -8.743318E+03
       392   1  1.187732E+05  4.457547E+03  9.506198E+04  7.905244E+04  9.136595E+03  1.736912E+04
       392   2  1.599013E+05  1.437845E+05  1.166615E+05 -3.048269E+03  1.431867E+04  2.906804E+04
       392   3  1.289977E+05  2.656139E+05  1.130530E+05  6.030757E+04  5.186259E+03  4.072644E+04
       392   4  1.535125E+03 -4.661150E+05 -2.059576E+04  7.432400E+04  9.146783E+03  1.320488E+04
       392   5  1.030111E+04 -4.569377E+05 -3.039720E+04  1.496221E+03  1.431784E+04  2.970042E+04
       392   6 -5.383462E+04 -4.661280E+05 -6.875798E+04  7.413539E+04  5.168667E+03  4.615279E+04
       392   7 -1.157193E+05 -9.364859E+05 -1.362697E+05  6.959926E+04  9.157038E+03  9.043777E+03
       392   8 -1.393258E+05 -1.057331E+06 -1.774823E+05  6.036548E+03  1.431701E+04  3.033217E+04
       392   9 -2.367065E+05 -1.197383E+06 -2.506089E+05  8.794731E+04  5.151306E+03  5.157273E+04
       392  10  1.187730E+05  4.457201E+03  9.506125E+04  7.905232E+04  2.886708E-09  1.492592E-10
       392  11  1.599009E+05  1.437835E+05  1.166595E+05 -3.048604E+03  9.599688E-10  1.267650E-08
       392  12  1.289972E+05  2.656121E+05  1.130498E+05  6.030740E+04 -9.218296E-10  7.532965E-09
       392  13  1.534988E+03 -4.661152E+05 -2.059624E+04  7.432390E+04  5.703780E-10 -8.706767E-09
       392  14  1.030065E+04 -4.569387E+05 -3.039925E+04  1.495878E+03 -1.241264E-10  1.237907E-09
       392  15 -5.383522E+04 -4.661302E+05 -6.876204E+04  7.413520E+04 -1.005517E-09 -2.282836E-09
       392  16 -1.157194E+05 -9.364860E+05 -1.362700E+05  6.959919E+04  1.935210E-09 -3.196485E-09
       392  17 -1.393262E+05 -1.057332E+06 -1.774844E+05  6.036198E+03 -2.143253E-09 -4.308976E-09
       392  18 -2.367072E+05 -1.197386E+06 -2.506139E+05  8.794709E+04 -2.445779E-09  3.143952E-09
       392  19  1.187732E+05  4.457547E+03  9.506198E+04  7.905244E+04 -9.136595E+03 -1.736912E+04
       392  20  1.599013E+05  1.437845E+05  1.166615E+05 -3.048269E+03 -1.431867E+04 -2.906804E+04
       392  21  1.289977E+05  2.656139E+05  1.130530E+05  6.030757E+04 -5.186259E+03 -4.072644E+04
       392  22  1.535125E+03 -4.661150E+05 -2.059576E+04  7.432400E+04 -9.146783E+03 -1.320488E+04
       392  23  1.030111E+04 -4.569377E+05 -3.039720E+04  1.496221E+03 -1.431784E+04 -2.970042E+04
       392  24 -5.383462E+04 -4.661280E+05 -6.875798E+04  7.413539E+04 -5.168667E+03 -4.615279E+04
       392  25 -1.157193E+05 -9.364859E+05 -1.362697E+05  6.959926E+04 -9.157038E+03 -9.043777E+03
       392  26 -1.393258E+05 -1.057331E+06 -1.774823E+05  6.036548E+03 -1.431701E+04 -3.033217E+04
       392  27 -2.367065E+05 -1.197383E+06 -2.506089E+05  8.794731E+04 -5.151306E+03 -5.157273E+04
       393   1  7.524547E+05 -4.290226E+04 -3.302013E+04 -2.146647E+03  2.664995E+04  2.313801E+03
       393   2  7.648531E+05 -7.744342E+04 -5.154166E+04  2.885392E+03  1.845995E+04  6.702163E+03
       393   3  7.895894E+05 -6.793496E+04 -5.367252E+04 -1.270999E+04  1.027615E+04  5.794237E+03
       393   4  1.056770E+06  3.297645E+04  4.247958E+04 -9.194890E+03  2.902973E+04  2.316642E+03
       393   5  1.050459E+06 -6.410089E+03  1.832581E+04  1.140920E+03  1.905431E+04  6.702565E+03
       393   6  1.056788E+06 -1.448384E+03  1.179532E+04 -9.149924E+03  9.085350E+03  5.793130E+03
       393   7  1.361170E+06  1.088484E+05  1.179724E+05 -1.624661E+04  3.141068E+04  2.319428E+03
       393   8  1.336139E+06  6.461723E+04  8.818733E+04 -6.043761E+02  1.964895E+04  6.702964E+03
       393   9  1.324052E+06  6.503296E+04  7.725795E+04 -5.588332E+03  7.894039E+03  5.792010E+03
       393  10  7.524540E+05 -4.290246E+04 -3.302147E+04 -2.146697E+03 -3.639805E-10  9.072855E-11
       393  11  7.648528E+05 -7.744356E+04 -5.154239E+04  2.885292E+03  4.635127E-10  1.630048E-10
       393  12  7.895893E+05 -6.793502E+04 -5.367278E+04 -1.271004E+04 -2.047376E-10  2.532472E-10
       393  13  1.056769E+06  3.297622E+04  4.247799E+04 -9.194944E+03  1.606682E-11  7.681596E-11
       393  14  1.050458E+06 -6.410235E+03  1.832504E+04  1.140817E+03  3.142983E-10  2.274015E-10
       393  15  1.056788E+06 -1.448442E+03  1.179510E+04 -9.149966E+03 -9.324176E-11  4.248391E-11
       393  16  1.361169E+06  1.088482E+05  1.179706E+05 -1.624667E+04  6.303786E-11 -3.255707E-11
       393  17  1.336138E+06  6.461708E+04  8.818652E+04 -6.044821E+02 -1.339227E-09  1.181274E-10
       393  18  1.324052E+06  6.503290E+04  7.725777E+04 -5.588369E+03  4.011584E-10 -1.454075E-10
       393  19  7.524547E+05 -4.290226E+04 -3.302013E+04 -2.146647E+03 -2.664995E+04 -2.313801E+03
       393  20  7.648531E+05 -7.744342E+04 -5.154166E+04  2.885392E+03 -1.845995E+04 -6.702163E+03
       393  21  7.895894E+05 -6.793496E+04 -5.367252E+04 -1.270999E+04 -1.027615E+04 -5.794237E+03
       393  22  1.056770E+06  3.297645E+04  4.247958E+04 -9.194890E+03 -2.902973E+04 -2.316642E+03
       393  23  1.050459E+06 -6.410089E+03  1.832581E+04  1.140920E+03 -1.905431E+04 -6.702565E+03
       393  24  1.056788E+06 -1.448384E+03  1.179532E+04 -9.149924E+03 -9.085350E+03 -5.793130E+03
       393  25  1.361170E+06  1.088484E+05  1.179724E+05 -1.624661E+04 -3.141068E+04 -2.319428E+03
       393  26  1.336139E+06  6.461723E+04  8.818733E+04 -6.043761E+02 -1.964895E+04 -6.702964E+03
       393  27  1.324052E+06  6.503296E+04  7.725795E+04 -5.588332E+03 -7.894039E+03 -5.792010E+03
       394   1  8.272732E+05 -5.225498E+04 -4.600999E+04 -7.920881E+03  7.106282E+03  4.625177E+03
       394   2  8.428900E+05 -5.323406E+04 -4.680861E+04  6.869281E+02  4.813002E+03  4.575854E+03
       394   3  8.603767E+05 -4.847180E+04 -4.465245E+04 -9.190184E+03  2.519710E+03  3.971556E+03
       394   4  1.054404E+06  4.265421E+03  9.702953E+03 -8.689764E+03  7.185333E+03  4.625116E+03
       394   5  1.053455E+06 -8.479452E+02  4.777240E+03  5.540046E+02  4.704591E+03  4.575695E+03
       394   6  1.054407E+06 -1.885195E+02  2.935566E+03 -8.686741E+03  2.223898E+03  3.971379E+03
       394   7  1.281581E+06  6.078200E+04  6.541211E+04 -9.458936E+03  7.264412E+03  4.625054E+03
       394   8  1.264060E+06  5.153489E+04  5.635984E+04  4.210306E+02  4.596143E+03  4.575537E+03
       394   9  1.248471E+06  4.809197E+04  5.052082E+04 -8.183143E+03  1.927994E+03  3.971202E+03
       394  10  8.272731E+05 -5.225501E+04 -4.601012E+04 -7.920907E+03 -4.075784E-10  8.644346E-11
       394  11  8.428900E+05 -5.323408E+04 -4.680869E+04  6.869103E+02  4.382653E-11  1.211108E-10
       394  12  8.603767E+05 -4.847181E+04 -4.465249E+04 -9.190192E+03 -8.309992E-11  3.057047E-10
       394  13  1.054404E+06  4.265384E+03  9.702816E+03 -8.689790E+03  6.038086E-11 -2.995265E-11
       394  14  1.053455E+06 -8.479737E+02  4.777159E+03  5.539872E+02  8.745958E-11  1.912231E-10
       394  15  1.054407E+06 -1.885378E+02  2.935527E+03 -8.686748E+03 -1.861712E-11  2.045381E-10
       394  16  1.281581E+06  6.078196E+04  6.541197E+04 -9.458963E+03  1.928440E-10 -9.653271E-11
       394  17  1.264060E+06  5.153486E+04  5.635976E+04  4.210137E+02 -5.382806E-10  2.757615E-10
       394  18  1.248471E+06  4.809195E+04  5.052078E+04 -8.183149E+03  6.775482E-11  3.319519E-10
       394  19  8.272732E+05 -5.225498E+04 -4.600999E+04 -7.920881E+03 -7.106282E+03 -4.625177E+03
       394  20  8.428900E+05 -5.323406E+04 -4.680861E+04  6.869281E+02 -4.813002E+03 -4.575854E+03
       394  21  8.603767E+05 -4.847180E+04 -4.465245E+04 -9.190184E+03 -2.519710E+03 -3.971556E+03
       394  22  1.054404E+06  4.265421E+03  9.702953E+03 -8.689764E+03 -7.185333E+03 -4.625116E+03
       394  23  1.053455E+06 -8.479452E+02  4.777240E+03  5.540046E+02 -4.704591E+03 -4.575695E+03
       394  24  1.054407E+06 -1.885195E+02  2.935566E+03 -8.686741E+03 -2.223898E+03 -3.971379E+03
       394  25  1.281581E+06  6.078200E+04  6.541211E+04 -9.458936E+03 -7.264412E+03 -4.625054E+03
       394  26  1.264060E+06  5.153489E+04  5.635984E+04  4.210306E+02 -4.596143E+03 -4.575537E+03
       394  27  1.248471E+06  4.809197E+04  5.052082E+04 -8.183143E+03 -1.927994E+03 -3.971202E+03
       395   1  8.962970E+05 -3.870367E+04 -3.628304E+04 -8.275164E+03  1.910334E+03  3.555453E+03
       395   2  9.112935E+05 -3.559321E+04 -3.365904E+04  1.300933E+02  1.273828E+03  3.061911E+03
       395   3  9.266166E+05 -3.173400E+04 -3.042235E+04 -8.403531E+03  6.371068E+02  2.528308E+03
       395   4  1.054061E+06  5.394188E+02  2.337942E+03 -8.344204E+03  1.751408E+03  3.555356E+03
       395   5  1.053897E+06 -1.148907E+02  1.283452E+03  1.251782E+02  1.101279E+03  3.061845E+03
       395   6  1.054062E+06 -1.811611E+01  8.510695E+02 -8.344079E+03  4.509499E+02  2.528277E+03
       395   7  1.211848E+06  3.978067E+04  4.095710E+04 -8.413263E+03  1.592441E+03  3.555259E+03
       395   8  1.196519E+06  3.536193E+04  3.622446E+04  1.202613E+02  9.286895E+02  3.061778E+03
       395   9  1.181521E+06  3.169657E+04  3.212330E+04 -8.284615E+03  2.647549E+02  2.528246E+03
       395  10  8.962970E+05 -3.870369E+04 -3.628307E+04 -8.275170E+03 -4.388292E-11  1.103011E-11
       395  11  9.112935E+05 -3.559322E+04 -3.365906E+04  1.300902E+02  2.236829E-11 -8.621181E-11
       395  12  9.266165E+05 -3.173401E+04 -3.042236E+04 -8.403533E+03 -4.331205E-12 -7.202747E-11
       395  13  1.054061E+06  5.394044E+02  2.337913E+03 -8.344209E+03 -4.065852E-11  1.318488E-10
       395  14  1.053897E+06 -1.149011E+02  1.283432E+03  1.251754E+02  1.969574E-11 -5.994558E-11
       395  15  1.054062E+06 -1.812303E+01  8.510571E+02 -8.344080E+03  7.529013E-11 -6.733831E-11
       395  16  1.211848E+06  3.978065E+04  4.095707E+04 -8.413267E+03 -2.978575E-11 -9.615528E-11
       395  17  1.196519E+06  3.536192E+04  3.622444E+04  1.202590E+02 -7.774280E-11  1.361620E-10
       395  18  1.181521E+06  3.169656E+04  3.212329E+04 -8.284615E+03 -9.245002E-12  1.240643E-10
       395  19  8.962970E+05 -3.870367E+04 -3.628304E+04 -8.275164E+03 -1.910334E+03 -3.555453E+03
       395  20  9.112935E+05 -3.559321E+04 -3.365904E+04  1.300933E+02 -1.273828E+03 -3.061911E+03
       395  21  9.266166E+05 -3.173400E+04 -3.042235E+04 -8.403531E+03 -6.371068E+02 -2.528308E+03
       395  22  1.054061E+06  5.394188E+02  2.337942E+03 -8.344204E+03 -1.751408E+03 -3.555356E+03
       395  23  1.053897E+06 -1.148907E+02  1.283452E+03  1.251782E+02 -1.101279E+03 -3.061845E+03
       395  24  1.054062E+06 -1.811611E+01  8.510695E+02 -8.344079E+03 -4.509499E+02 -2.528277E+03
       395  25  1.211848E+06  3.978067E+04  4.095710E+04 -8.413263E+03 -1.592441E+03 -3.555259E+03
       395  26  1.196519E+06  3.536193E+04  3.622446E+04  1.202613E+02 -9.286895E+02 -3.061778E+03
       395  27  1.181521E+06  3.169657E+04  3.212330E+04 -8.284615E+03 -2.647549E+02 -2.528246E+03
       396   1  9.602518E+05 -2.325151E+04 -2.220017E+04 -8.110799E+03  4.816180E+02  2.215102E+03
       396   2  9.744940E+05 -1.979418E+04 -1.886888E+04 -1.344874E+02  1.773605E+02  1.703088E+03
       396   3  9.888235E+05 -1.619069E+04 -1.530098E+04 -8.126624E+03 -1.270241E+02  1.198563E+03
       396   4  1.054010E+06  6.507197E+01  7.287510E+02 -8.128485E+03  3.081469E+02  2.215092E+03
       396   5  1.053967E+06 -2.274243E+01  6.045055E+02 -1.443235E+02  6.367886E+00  1.703097E+03
       396   6  1.054010E+06  3.511819E+01  7.150869E+02 -8.128483E+03 -2.955312E+02  1.198590E+03
       396   7  1.147776E+06  2.338101E+04  2.365704E+04 -8.146174E+03  1.346496E+02  2.215082E+03
       396   8  1.133445E+06  1.974823E+04  2.007743E+04 -1.541608E+02 -1.646466E+02  1.703106E+03
       396   9  1.119200E+06  1.626062E+04  1.673084E+04 -8.130342E+03 -4.640560E+02  1.198618E+03
       396  10  9.602518E+05 -2.325152E+04 -2.220018E+04 -8.110800E+03  3.201986E-11  1.437547E-10
       396  11  9.744940E+05 -1.979418E+04 -1.886889E+04 -1.344876E+02  1.392442E-10 -3.884170E-10
       396  12  9.888235E+05 -1.619070E+04 -1.530098E+04 -8.126624E+03  5.480758E-11  1.072817E-10
       396  13  1.054010E+06  6.506667E+01  7.287416E+02 -8.128486E+03  6.441172E-11 -1.718948E-10
       396  14  1.053967E+06 -2.274555E+01  6.045001E+02 -1.443236E+02 -8.047721E-11 -3.941602E-11
       396  15  1.054010E+06  3.511662E+01  7.150840E+02 -8.128483E+03 -8.258208E-11  7.783723E-11
       396  16  1.147776E+06  2.338100E+04  2.365703E+04 -8.146174E+03 -1.707393E-11  6.186421E-11
       396  17  1.133445E+06  1.974823E+04  2.007742E+04 -1.541606E+02  2.871871E-10 -1.214411E-10
       396  18  1.119200E+06  1.626061E+04  1.673084E+04 -8.130342E+03 -1.336261E-10  1.451560E-10
       396  19  9.602518E+05 -2.325151E+04 -2.220017E+04 -8.110799E+03 -4.816180E+02 -2.215102E+03
       396  20  9.744940E+05 -1.979418E+04 -1.886888E+04 -1.344874E+02 -1.773605E+02 -1.703088E+03
       396  21  9.888235E+05 -1.619069E+04 -1.530098E+04 -8.126624E+03  1.270241E+02 -1.198563E+03
       396  22  1.054010E+06  6.507197E+01  7.287510E+02 -8.128485E+03 -3.081469E+02 -2.215092E+03
       396  23  1.053967E+06 -2.274243E+01  6.045055E+02 -1.443235E+02 -6.367886E+00 -1.703097E+03
       396  24  1.054010E+06  3.511819E+01  7.150869E+02 -8.128483E+03  2.955312E+02 -1.198590E+03
       396  25  1.147776E+06  2.338101E+04  2.365704E+04 -8.146174E+03 -1.346496E+02 -2.215082E+03
       396  26  1.133445E+06  1.974823E+04  2.007743E+04 -1.541608E+02  1.646466E+02 -1.703106E+03
       396  27  1.119200E+06  1.626062E+04  1.673084E+04 -8.130342E+03  4.640560E+02 -1.198618E+03
       397   1  1.021093E+06 -8.185174E+03 -7.190365E+03 -7.991242E+03 -2.667752E+02  9.065859E+02
       397   2  1.034906E+06 -4.794266E+03 -3.385543E+03 -2.611983E+02 -9.092281E+02  4.076132E+02
       397   3  1.048894E+06 -1.005813E+03  9.345951E+02 -8.066124E+03 -1.551721E+03 -8.421676E+01
       397   4  1.054030E+06  1.040853E-02  8.361573E+02 -8.032202E+03 -4.358992E+02  9.066227E+02
       397   5  1.053943E+06 -5.836161E+01  1.279065E+03 -2.646950E+02 -1.075968E+03  4.076536E+02
       397   6  1.054030E+06  2.804075E+02  2.235645E+03 -8.032127E+03 -1.716062E+03 -8.417240E+01
       397   7  1.086969E+06  8.185115E+03  8.862601E+03 -8.073164E+03 -6.050322E+02  9.066596E+02
       397   8  1.072980E+06  4.677516E+03  5.943646E+03 -2.681917E+02 -1.242712E+03  4.076939E+02
       397   9  1.059166E+06  1.566626E+03  3.536693E+03 -7.998129E+03 -1.880404E+03 -8.412806E+01
       397  10  1.021093E+06 -8.185175E+03 -7.190367E+03 -7.991241E+03  1.209947E-10 -6.489726E-11
       397  11  1.034906E+06 -4.794266E+03 -3.385545E+03 -2.611980E+02 -4.387379E-11 -3.209058E-10
       397  12  1.048894E+06 -1.005813E+03  9.345905E+02 -8.066124E+03  2.003982E-10 -1.803100E-10
       397  13  1.054030E+06  9.474550E-03  8.361554E+02 -8.032202E+03  5.886269E-12  2.897236E-10
       397  14  1.053943E+06 -5.836210E+01  1.279062E+03 -2.646946E+02 -4.390111E-11 -1.718374E-12
       397  15  1.054030E+06  2.804067E+02  2.235640E+03 -8.032127E+03  6.252579E-11  1.162000E-10
       397  16  1.086969E+06  8.185114E+03  8.862599E+03 -8.073164E+03 -1.808148E-10  1.393811E-10
       397  17  1.072980E+06  4.677515E+03  5.943643E+03 -2.681913E+02  2.101611E-10  9.681092E-11
       397  18  1.059166E+06  1.566625E+03  3.536687E+03 -7.998129E+03 -2.706656E-10  1.273935E-10
       397  19  1.021093E+06 -8.185174E+03 -7.190365E+03 -7.991242E+03  2.667752E+02 -9.065859E+02
       397  20  1.034906E+06 -4.794266E+03 -3.385543E+03 -2.611983E+02  9.092281E+02 -4.076132E+02
       397  21  1.048894E+06 -1.005813E+03  9.345951E+02 -8.066124E+03  1.551721E+03  8.421676E+01
       397  22  1.054030E+06  1.040853E-02  8.361573E+02 -8.032202E+03  4.358992E+02 -9.066227E+02
       397  23  1.053943E+06 -5.836161E+01  1.279065E+03 -2.646950E+02  1.075968E+03 -4.076536E+02
       397  24  1.054030E+06  2.804075E+02  2.235645E+03 -8.032127E+03  1.716062E+03  8.417240E+01
       397  25  1.086969E+06  8.185115E+03  8.862601E+03 -8.073164E+03  6.050322E+02 -9.066596E+02
       397  26  1.072980E+06  4.677516E+03  5.943646E+03 -2.681917E+02  1.242712E+03 -4.076939E+02
       397  27  1.059166E+06  1.566626E+03  3.536693E+03 -7.998129E+03  1.880404E+03  8.412806E+01
       398   1  1.080995E+06  6.583804E+03  9.463022E+03 -7.810495E+03 -2.001672E+03 -3.774454E+02
       398   2  1.094452E+06  9.703971E+03  1.478792E+04 -3.170992E+02 -4.447141E+03 -8.762229E+02
       398   3  1.108966E+06  1.579624E+04  2.244485E+04 -8.453526E+03 -6.892571E+03 -1.341996E+03
       398   4  1.054226E+06 -8.402171E+01  2.861221E+03 -8.053430E+03 -2.175161E+03 -3.773997E+02
       398   5  1.053697E+06 -4.343621E+02  4.803160E+03 -2.382644E+02 -4.609381E+03 -8.761911E+02
       398   6  1.054223E+06  2.185638E+03  9.069529E+03 -8.052983E+03 -7.043507E+03 -1.341979E+03
       398   7  1.027456E+06 -6.751900E+03 -3.740632E+03 -8.296354E+03 -2.348642E+03 -3.773539E+02
       398   8  1.012943E+06 -1.057282E+04 -5.181725E+03 -1.594348E+02 -4.771610E+03 -8.761594E+02
       398   9  9.994834E+05 -1.142518E+04 -4.306011E+03 -7.652476E+03 -7.194431E+03 -1.341962E+03
       398  10  1.080995E+06  6.583802E+03  9.463014E+03 -7.810495E+03  7.831481E-11 -1.720486E-10
       398  11  1.094452E+06  9.703965E+03  1.478789E+04 -3.171023E+02 -2.431249E-10 -2.176271E-12
       398  12  1.108966E+06  1.579622E+04  2.244476E+04 -8.453533E+03 -1.076434E-11 -2.138559E-10
       398  13  1.054226E+06 -8.402313E+01  2.861212E+03 -8.053430E+03  1.118906E-10 -1.977598E-10
       398  14  1.053697E+06 -4.343686E+02  4.803119E+03 -2.382677E+02  4.505269E-12 -2.824243E-10
       398  15  1.054223E+06  2.185623E+03  9.069433E+03 -8.052991E+03  1.335489E-10 -2.350619E-10
       398  16  1.027456E+06 -6.751902E+03 -3.740643E+03 -8.296355E+03 -1.197646E-10 -1.193675E-10
       398  17  1.012943E+06 -1.057283E+04 -5.181769E+03 -1.594382E+02  4.145793E-10 -2.614832E-10
       398  18  9.994834E+05 -1.142520E+04 -4.306112E+03 -7.652484E+03 -4.082581E-10  4.053879E-12
       398  19  1.080995E+06  6.583804E+03  9.463022E+03 -7.810495E+03  2.001672E+03  3.774454E+02
       398  20  1.094452E+06  9.703971E+03  1.478792E+04 -3.170992E+02  4.447141E+03  8.762229E+02
       398  21  1.108966E+06  1.579624E+04  2.244485E+04 -8.453526E+03  6.892571E+03  1.341996E+03
       398  22  1.054226E+06 -8.402171E+01  2.861221E+03 -8.053430E+03  2.175161E+03  3.773997E+02
       398  23  1.053697E+06 -4.343621E+02  4.803160E+03 -2.382644E+02  4.609381E+03  8.761911E+02
       398  24  1.054223E+06  2.185638E+03  9.069529E+03 -8.052983E+03  7.043507E+03  1.341979E+03
       398  25  1.027456E+06 -6.751900E+03 -3.740632E+03 -8.296354E+03  2.348642E+03  3.773539E+02
       398  26  1.012943E+06 -1.057282E+04 -5.181725E+03 -1.594348E+02  4.771610E+03  8.761594E+02
       398  27  9.994834E+05 -1.142518E+04 -4.306011E+03 -7.652476E+03  7.194431E+03  1.341962E+03
       399   1  1.142933E+06  2.102969E+04  3.290156E+04 -6.395173E+03 -8.643356E+03 -1.690651E+03
       399   2  1.153968E+06  2.204178E+04  4.378944E+04 -9.324902E+02 -1.853146E+04 -2.220460E+03
       399   3  1.172026E+06  4.592425E+04  6.682859E+04 -1.171955E+04 -2.841987E+04 -2.405035E+03
       399   4  1.055546E+06 -7.157796E+02  1.145175E+04 -8.191127E+03 -8.879242E+03 -1.690604E+03
       399   5  1.052038E+06 -3.312408E+03  1.882436E+04 -6.633929E+01 -1.864978E+04 -2.220503E+03
       399   6  1.055534E+06  1.694300E+04  3.826819E+04 -8.191361E+03 -2.842038E+04 -2.405225E+03
       399   7  9.681656E+05 -2.246180E+04 -9.998617E+03 -9.986828E+03 -9.115095E+03 -1.690557E+03
       399   8  9.501171E+05 -2.866736E+04 -6.141481E+03  7.996695E+02 -1.876808E+04 -2.220545E+03
       399   9  9.390543E+05 -1.203920E+04  9.706807E+03 -4.663833E+03 -2.842090E+04 -2.405415E+03
       399  10  1.142933E+06  2.102967E+04  3.290142E+04 -6.395185E+03  4.759857E-11 -1.338889E-10
       399  11  1.153967E+06  2.204169E+04  4.378879E+04 -9.325233E+02  2.292846E-10  2.390857E-10
       399  12  1.172025E+06  4.592403E+04  6.682707E+04 -1.171961E+04  1.239836E-10 -5.332962E-11
       399  13  1.055546E+06 -7.158038E+02  1.145160E+04 -8.191139E+03 -4.146325E-10  3.463375E-11
       399  14  1.052037E+06 -3.312506E+03  1.882370E+04 -6.637262E+01 -1.164163E-10  1.842005E-10
       399  15  1.055533E+06  1.694278E+04  3.826667E+04 -8.191416E+03  8.919094E-11  2.685377E-11
       399  16  9.681655E+05 -2.246183E+04 -9.998778E+03 -9.986841E+03 -5.693932E-11 -1.426582E-11
       399  17  9.501167E+05 -2.866746E+04 -6.142151E+03  7.996360E+02 -1.704213E-10  2.369454E-10
       399  18  9.390534E+05 -1.203942E+04  9.705280E+03 -4.663888E+03 -2.024860E-10 -1.789702E-10
       399  19  1.142933E+06  2.102969E+04  3.290156E+04 -6.395173E+03  8.643356E+03  1.690651E+03
       399  20  1.153968E+06  2.204178E+04  4.378944E+04 -9.324902E+02  1.853146E+04  2.220460E+03
       399  21  1.172026E+06  4.592425E+04  6.682859E+04 -1.171955E+04  2.841987E+04  2.405035E+03
       399  22  1.055546E+06 -7.157796E+02  1.145175E+04 -8.191127E+03  8.879242E+03  1.690604E+03
       399  23  1.052038E+06 -3.312408E+03  1.882436E+04 -6.633929E+01  1.864978E+04  2.220503E+03
       399  24  1.055534E+06  1.694300E+04  3.826819E+04 -8.191361E+03  2.842038E+04  2.405225E+03
       399  25  9.681656E+05 -2.246180E+04 -9.998617E+03 -9.986828E+03  9.115095E+03  1.690557E+03
       399  26  9.501171E+05 -2.866736E+04 -6.141481E+03  7.996695E+02  1.876808E+04  2.220545E+03
       399  27  9.390543E+05 -1.203920E+04  9.706807E+03 -4.663833E+03  2.842090E+04  2.405415E+03
       400   1  1.215837E+06  3.191711E+04  8.351106E+04  4.973667E+03 -3.513106E+04 -3.213284E+03
       400   2  1.206886E+06  1.617220E+04  1.131432E+05 -7.544769E+03 -7.561142E+04 -3.930289E+03
       400   3  1.247078E+06  1.757218E+05  2.129350E+05 -3.750147E+04 -1.160934E+05 -1.396794E+03
       400   4  1.064873E+06 -5.639385E+03  4.651998E+04 -8.440666E+03 -3.591148E+04 -3.212653E+03
       400   5  1.040356E+06 -2.523253E+04  7.242082E+04  2.528049E+02 -7.528961E+04 -3.931226E+03
       400   6  1.064805E+06  1.303014E+05  1.677304E+05 -8.490985E+03 -1.146683E+05 -1.401679E+03
       400   7  9.139295E+05 -4.319689E+04  9.527336E+03 -2.185174E+04 -3.669171E+04 -3.211988E+03
       400   8  8.738516E+05 -6.663907E+04  3.169646E+04  8.048285E+03 -7.496788E+04 -3.932156E+03
       400   9  8.825626E+05  8.488164E+04  1.225238E+05  2.051099E+04 -1.132436E+05 -1.406431E+03
       400  10  1.215836E+06  3.191677E+04  8.350873E+04  4.973576E+03 -6.368982E-11 -4.028983E-11
       400  11  1.206880E+06  1.617065E+04  1.131324E+05 -7.545008E+03 -2.672745E-11  2.101007E-10
       400  12  1.247064E+06  1.757182E+05  2.129097E+05 -3.750160E+04 -4.727261E-11  1.097506E-10
       400  13  1.064871E+06 -5.639742E+03  4.651755E+04 -8.440759E+03 -1.431009E-10 -1.071809E-10
       400  14  1.040350E+06 -2.523406E+04  7.241016E+04  2.525666E+02 -2.443305E-10 -1.109430E-10
       400  15  1.064790E+06  1.302979E+05  1.677057E+05 -8.491114E+03 -1.510730E-10 -1.358649E-11
       400  16  9.139281E+05 -4.319726E+04  9.524790E+03 -2.185183E+04  1.339180E-10 -5.742030E-12
       400  17  8.738456E+05 -6.664059E+04  3.168588E+04  8.048047E+03  7.912975E-11  2.117314E-10
       400  18  8.825488E+05  8.487820E+04  1.224997E+05  2.051086E+04  1.246865E-10  1.950048E-10
       400  19  1.215837E+06  3.191711E+04  8.351106E+04  4.973667E+03  3.513106E+04  3.213284E+03
       400  20  1.206886E+06  1.617220E+04  1.131432E+05 -7.544769E+03  7.561142E+04  3.930289E+03
       400  21  1.247078E+06  1.757218E+05  2.129350E+05 -3.750147E+04  1.160934E+05  1.396794E+03
       400  22  1.064873E+06 -5.639385E+03  4.651998E+04 -8.440666E+03  3.591148E+04  3.212653E+03
       400  23  1.040356E+06 -2.523253E+04  7.242082E+04  2.528049E+02  7.528961E+04  3.931226E+03
       400  24  1.064805E+06  1.303014E+05  1.677304E+05 -8.490985E+03  1.146683E+05  1.401679E+03
       400  25  9.139295E+05 -4.319689E+04  9.527336E+03 -2.185174E+04  3.669171E+04  3.211988E+03
       400  26  8.738516E+05 -6.663907E+04  3.169646E+04  8.048285E+03  7.496788E+04  3.932156E+03
       400  27  8.825626E+05  8.488164E+04  1.225238E+05  2.051099E+04  1.132436E+05  1.406431E+03
       401   1  3.835149E+04 -6.557833E+04 -5.821039E+04 -6.979143E+03  1.828558E+04  2.696519E+03
       401   2  5.588313E+04 -8.847767E+04 -6.910825E+04  1.409761E+03  1.315137E+04  7.885330E+03
       401   3  8.236015E+04 -7.942780E+04 -6.861758E+04 -1.462481E+04  8.018392E+03  6.803729E+03
       401   4  3.971933E+05  2.398887E+04  3.088967E+04 -1.223185E+04  2.109144E+04  2.697231E+03
       401   5  3.925424E+05 -4.677372E+03  1.331178E+04 -1.697131E+01  1.384669E+04  7.885060E+03
       401   6  3.971982E+05 -1.037296E+03  8.582823E+03 -1.222470E+04  6.603424E+03  6.803909E+03
       401   7  7.561519E+05  1.135465E+05  1.199802E+05 -1.748760E+04  2.389892E+04  2.697895E+03
       401   8  7.293048E+05  7.911454E+04  9.572352E+04 -1.444480E+03  1.454240E+04  7.884788E+03
       401   9  7.121264E+05  7.734588E+04  8.577597E+04 -9.823367E+03  5.187740E+03  6.804078E+03
       401  10  3.835113E+04 -6.557843E+04 -5.821103E+04 -6.979183E+03 -4.893294E-11  2.807615E-11
       401  11  5.588293E+04 -8.847778E+04 -6.910869E+04  1.409678E+03 -1.842874E-10 -8.098207E-11
       401  12  8.236007E+04 -7.942787E+04 -6.861779E+04 -1.462486E+04  9.442570E-11 -1.683286E-10
       401  13  3.971928E+05  2.398874E+04  3.088882E+04 -1.223190E+04 -4.373139E-11 -5.972379E-11
       401  14  3.925421E+05 -4.677490E+03  1.331130E+04 -1.705923E+01  8.567199E-11  2.581043E-10
       401  15  3.971981E+05 -1.037358E+03  8.582654E+03 -1.222474E+04 -2.627295E-10 -7.028581E-11
       401  16  7.561513E+05  1.135464E+05  1.199791E+05 -1.748766E+04  2.574676E-10  7.979405E-11
       401  17  7.293046E+05  7.911442E+04  9.572301E+04 -1.444572E+03 -4.430984E-11 -2.061249E-10
       401  18  7.121264E+05  7.734583E+04  8.577583E+04 -9.823395E+03 -2.743984E-10  1.213857E-10
       401  19  3.835149E+04 -6.557833E+04 -5.821039E+04 -6.979143E+03 -1.828558E+04 -2.696519E+03
       401  20  5.588313E+04 -8.847767E+04 -6.910825E+04  1.409761E+03 -1.315137E+04 -7.885330E+03
       401  21  8.236015E+04 -7.942780E+04 -6.861758E+04 -1.462481E+04 -8.018392E+03 -6.803729E+03
       401  22  3.971933E+05  2.398887E+04  3.088967E+04 -1.223185E+04 -2.109144E+04 -2.697231E+03
       401  23  3.925424E+05 -4.677372E+03  1.331178E+04 -1.697131E+01 -1.384669E+04 -7.885060E+03
       401  24  3.971982E+05 -1.037296E+03  8.582823E+03 -1.222470E+04 -6.603424E+03 -6.803909E+03
       401  25  7.561519E+05  1.135465E+05  1.199802E+05 -1.748760E+04 -2.389892E+04 -2.697895E+03
       401  26  7.293048E+05  7.911454E+04  9.572352E+04 -1.444480E+03 -1.454240E+04 -7.884788E+03
       401  27  7.121264E+05  7.734588E+04  8.577597E+04 -9.823367E+03 -5.187740E+03 -6.804078E+03
       402   1  1.299784E+05 -6.300218E+04 -5.810690E+04 -1.130608E+04  5.136491E+03  5.411137E+03
       402   2  1.503726E+05 -6.146640E+04 -5.643719E+04  1.670664E+01  3.560786E+03  5.313260E+03
       402   3  1.721381E+05 -5.572462E+04 -5.266667E+04 -1.222027E+04  1.984200E+03  4.533955E+03
       402   4  3.954511E+05  3.111322E+03  7.058619E+03 -1.203341E+04  5.219369E+03  5.410949E+03
       402   5  3.947465E+05 -6.228332E+02  3.475793E+03 -2.545582E+02  3.413987E+03  5.313217E+03
       402   6  3.954520E+05 -1.120797E+02  2.152519E+03 -1.203487E+04  1.607774E+03  4.534172E+03
       402   7  6.609880E+05  6.921960E+04  7.221896E+04 -1.276105E+04  5.302282E+03  5.410762E+03
       402   8  6.391749E+05  6.021631E+04  6.338440E+04 -5.259214E+02  3.267130E+03  5.313173E+03
       402   9  6.188113E+05  5.549676E+04  5.696804E+04 -1.184939E+04  1.231213E+03  4.534389E+03
       402  10  1.299784E+05 -6.300222E+04 -5.810700E+04 -1.130610E+04 -3.209424E-11 -2.777839E-10
       402  11  1.503725E+05 -6.146643E+04 -5.643727E+04  1.669140E+01 -2.648547E-10 -1.362446E-10
       402  12  1.721381E+05 -5.572464E+04 -5.266671E+04 -1.222028E+04  3.091320E-11  4.766968E-10
       402  13  3.954511E+05  3.111284E+03  7.058512E+03 -1.203343E+04 -2.016160E-10  3.918323E-11
       402  14  3.947465E+05 -6.228667E+02  3.475718E+03 -2.545728E+02 -5.598444E-10 -8.662013E-10
       402  15  3.954520E+05 -1.121025E+02  2.152476E+03 -1.203488E+04  1.816627E-10  3.246800E-10
       402  16  6.609880E+05  6.921956E+04  7.221885E+04 -1.276107E+04 -1.689061E-10 -6.889326E-11
       402  17  6.391749E+05  6.021627E+04  6.338433E+04 -5.259354E+02  8.301956E-10 -3.652768E-10
       402  18  6.188112E+05  5.549674E+04  5.696800E+04 -1.184940E+04 -1.795264E-10  2.276180E-10
       402  19  1.299784E+05 -6.300218E+04 -5.810690E+04 -1.130608E+04 -5.136491E+03 -5.411137E+03
       402  20  1.503726E+05 -6.146640E+04 -5.643719E+04  1.670664E+01 -3.560786E+03 -5.313260E+03
       402  21  1.721381E+05 -5.572462E+04 -5.266667E+04 -1.222027E+04 -1.984200E+03 -4.533955E+03
       402  22  3.954511E+05  3.111322E+03  7.058619E+03 -1.203341E+04 -5.219369E+03 -5.410949E+03
       402  23  3.947465E+05 -6.228332E+02  3.475793E+03 -2.545582E+02 -3.413987E+03 -5.313217E+03
       402  24  3.954520E+05 -1.120797E+02  2.152519E+03 -1.203487E+04 -1.607774E+03 -4.534172E+03
       402  25  6.609880E+05  6.921960E+04  7.221896E+04 -1.276105E+04 -5.302282E+03 -5.410762E+03
       402  26  6.391749E+05  6.021631E+04  6.338440E+04 -5.259214E+02 -3.267130E+03 -5.313173E+03
       402  27  6.188113E+05  5.549676E+04  5.696804E+04 -1.184939E+04 -1.231213E+03 -4.534389E+03
       403   1  2.195950E+05 -4.329876E+04 -4.128969E+04 -1.169292E+04  1.471835E+03  3.998352E+03
       403   2  2.399785E+05 -3.870286E+04 -3.706582E+04 -2.959338E+02  1.003606E+03  3.334029E+03
       403   3  2.605710E+05 -3.351118E+04 -3.238866E+04 -1.180751E+04  5.349730E+02  2.602871E+03
       403   4  3.951917E+05  4.111701E+02  1.719995E+03 -1.188940E+04  1.259878E+03  3.998482E+03
       403   5  3.950856E+05 -8.514728E+01  9.680655E+02 -4.354867E+02  7.690602E+02  3.334231E+03
       403   6  3.951919E+05  1.818352E+01  6.850288E+02 -1.188978E+04  2.778531E+02  2.603152E+03
       403   7  5.708165E+05  4.411881E+04  4.472743E+04 -1.208593E+04  1.047861E+03  3.998612E+03
       403   8  5.502145E+05  3.853078E+04  3.900018E+04 -5.750686E+02  5.344556E+02  3.334432E+03
       403   9  5.298292E+05  3.354620E+04  3.375739E+04 -1.197206E+04  2.067757E+01  2.603434E+03
       403  10  2.195949E+05 -4.329877E+04 -4.128973E+04 -1.169292E+04  6.836339E-10  7.454674E-11
       403  11  2.399785E+05 -3.870287E+04 -3.706584E+04 -2.959365E+02 -3.429698E-10  3.123893E-11
       403  12  2.605710E+05 -3.351119E+04 -3.238867E+04 -1.180752E+04  5.438798E-10 -5.229040E-10
       403  13  3.951917E+05  4.111525E+02  1.719962E+03 -1.188940E+04  2.778960E-10  1.736473E-10
       403  14  3.950856E+05 -8.515937E+01  9.680435E+02 -4.354888E+02 -3.952941E-10  4.872333E-10
       403  15  3.951919E+05  1.817622E+01  6.850159E+02 -1.188978E+04 -1.565519E-10  1.081133E-09
       403  16  5.708165E+05  4.411880E+04  4.472739E+04 -1.208593E+04 -4.064601E-10  1.108870E-10
       403  17  5.502145E+05  3.853077E+04  3.900016E+04 -5.750701E+02  1.407080E-09 -9.388859E-10
       403  18  5.298292E+05  3.354620E+04  3.375737E+04 -1.197206E+04 -7.915511E-10 -8.881656E-11
       403  19  2.195950E+05 -4.329876E+04 -4.128969E+04 -1.169292E+04 -1.471835E+03 -3.998352E+03
       403  20  2.399785E+05 -3.870286E+04 -3.706582E+04 -2.959338E+02 -1.003606E+03 -3.334029E+03
       403  21  2.605710E+05 -3.351118E+04 -3.238866E+04 -1.180751E+04 -5.349730E+02 -2.602871E+03
       403  22  3.951917E+05  4.111701E+02  1.719995E+03 -1.188940E+04 -1.259878E+03 -3.998482E+03
       403  23  3.950856E+05 -8.514728E+01  9.680655E+02 -4.354867E+02 -7.690602E+02 -3.334231E+03
       403  24  3.951919E+05  1.818352E+01  6.850288E+02 -1.188978E+04 -2.778531E+02 -2.603152E+03
       403  25  5.708165E+05  4.411881E+04  4.472743E+04 -1.208593E+04 -1.047861E+03 -3.998612E+03
       403  26  5.502145E+05  3.853078E+04  3.900018E+04 -5.750686E+02 -5.344556E+02 -3.334432E+03
       403  27  5.298292E+05  3.354620E+04  3.375739E+04 -1.197206E+04 -2.067757E+01 -2.603434E+03
       404   1  3.071959E+05 -2.181274E+04 -2.089101E+04 -1.171113E+04  3.996594E+02  2.169936E+03
       404   2  3.273466E+05 -1.689761E+04 -1.603592E+04 -4.666640E+02  1.067537E+02  1.454793E+03
       404   3  3.475174E+05 -1.179949E+04 -1.095790E+04 -1.176316E+04 -1.863016E+02  7.364678E+02
       404   4  3.951524E+05  7.312745E+01  6.148766E+02 -1.180799E+04  1.597019E+02  2.170226E+03
       404   5  3.951423E+05 -1.895943E+01  5.880185E+02 -5.375829E+02 -1.343066E+02  1.455107E+03
       404   6  3.951524E+05  7.224324E+01  7.849424E+02 -1.180798E+04 -4.284553E+02  7.368069E+02
       404   7  4.831159E+05  2.195842E+04  2.212020E+04 -1.190486E+04 -8.028944E+01  2.170517E+03
       404   8  4.629421E+05  1.685935E+04  1.721162E+04 -6.085081E+02 -3.753932E+02  1.455421E+03
       404   9  4.427894E+05  1.194381E+04  1.252761E+04 -1.185281E+04 -6.706276E+02  7.371459E+02
       404  10  3.071959E+05 -2.181274E+04 -2.089102E+04 -1.171113E+04  9.038035E-10  8.456467E-11
       404  11  3.273466E+05 -1.689762E+04 -1.603592E+04 -4.666641E+02 -3.791178E-10 -6.627486E-11
       404  12  3.475174E+05 -1.179949E+04 -1.095790E+04 -1.176316E+04  7.035236E-10 -3.527746E-10
       404  13  3.951524E+05  7.312238E+01  6.148677E+02 -1.180799E+04 -5.543374E-11 -7.205702E-10
       404  14  3.951423E+05 -1.896171E+01  5.880145E+02 -5.375827E+02 -4.255060E-10  2.371643E-10
       404  15  3.951524E+05  7.224261E+01  7.849410E+02 -1.180798E+04  4.940426E-10 -7.225162E-10
       404  16  4.831159E+05  2.195841E+04  2.212019E+04 -1.190486E+04 -6.291295E-10  4.627528E-10
       404  17  4.629421E+05  1.685935E+04  1.721162E+04 -6.085077E+02  1.743498E-09 -4.896475E-10
       404  18  4.427894E+05  1.194381E+04  1.252761E+04 -1.185281E+04 -7.398441E-10 -1.085488E-09
       404  19  3.071959E+05 -2.181274E+04 -2.089101E+04 -1.171113E+04 -3.996594E+02 -2.169936E+03
       404  20  3.273466E+05 -1.689761E+04 -1.603592E+04 -4.666640E+02 -1.067537E+02 -1.454793E+03
       404  21  3.475174E+05 -1.179949E+04 -1.095790E+04 -1.176316E+04  1.863016E+02 -7.364678E+02
       404  22  3.951524E+05  7.312745E+01  6.148766E+02 -1.180799E+04 -1.597019E+02 -2.170226E+03
       404  23  3.951423E+05 -1.895943E+01  5.880185E+02 -5.375829E+02  1.343066E+02 -1.455107E+03
       404  24  3.951524E+05  7.224324E+01  7.849424E+02 -1.180798E+04  4.284553E+02 -7.368069E+02
       404  25  4.831159E+05  2.195842E+04  2.212020E+04 -1.190486E+04  8.028944E+01 -2.170517E+03
       404  26  4.629421E+05  1.685935E+04  1.721162E+04 -6.085081E+02  3.753932E+02 -1.455421E+03
       404  27  4.427894E+05  1.194381E+04  1.252761E+04 -1.185281E+04  6.706276E+02 -7.371459E+02
       405   1  3.937560E+05 -3.180713E+02  6.665434E+02 -1.174603E+04 -3.441430E+02  3.171508E+02
       405   2  4.137675E+05  4.576530E+03  6.100022E+03 -5.789574E+02 -1.109488E+03 -3.993755E+02
       405   3  4.339344E+05  1.000220E+04  1.214809E+04 -1.187208E+04 -1.874823E+03 -1.110708E+03
       405   4  3.951829E+05  2.480071E+01  9.538762E+02 -1.179026E+04 -5.862406E+02  3.174964E+02
       405   5  3.951056E+05 -6.934142E+01  1.524343E+03 -5.598988E+02 -1.349823E+03 -3.990393E+02
       405   6  3.951827E+05  3.672455E+02  2.708159E+03 -1.178978E+04 -2.113372E+03 -1.110380E+03
       405   7  3.966099E+05  3.676727E+02  1.241209E+03 -1.183449E+04 -8.283388E+02  3.178420E+02
       405   8  3.764440E+05 -4.715238E+03 -3.051360E+03 -5.408407E+02 -1.590151E+03 -3.987032E+02
       405   9  3.564324E+05 -9.267816E+03 -6.731886E+03 -1.170747E+04 -2.351906E+03 -1.110052E+03
       405  10  3.937560E+05 -3.180715E+02  6.665430E+02 -1.174603E+04  1.658591E-10  8.811548E-10
       405  11  4.137675E+05  4.576529E+03  6.100019E+03 -5.789578E+02 -9.730622E-10  2.547725E-09
       405  12  4.339344E+05  1.000219E+04  1.214809E+04 -1.187209E+04  1.738898E-09 -1.232661E-09
       405  13  3.951829E+05  2.480051E+01  9.538754E+02 -1.179026E+04 -1.654172E-11  1.402913E-10
       405  14  3.951056E+05 -6.934208E+01  1.524340E+03 -5.598993E+02 -2.660849E-10 -4.877277E-10
       405  15  3.951827E+05  3.672430E+02  2.708148E+03 -1.178978E+04  2.623893E-11  1.097721E-10
       405  16  3.966099E+05  3.676724E+02  1.241208E+03 -1.183449E+04  3.585969E-10  2.477365E-10
       405  17  3.764440E+05 -4.715239E+03 -3.051365E+03 -5.408412E+02  2.150358E-09 -4.938365E-10
       405  18  3.564324E+05 -9.267819E+03 -6.731899E+03 -1.170748E+04 -2.122660E-09 -1.539353E-10
       405  19  3.937560E+05 -3.180713E+02  6.665434E+02 -1.174603E+04  3.441430E+02 -3.171508E+02
       405  20  4.137675E+05  4.576530E+03  6.100022E+03 -5.789574E+02  1.109488E+03  3.993755E+02
       405  21  4.339344E+05  1.000220E+04  1.214809E+04 -1.187208E+04  1.874823E+03  1.110708E+03
       405  22  3.951829E+05  2.480071E+01  9.538762E+02 -1.179026E+04  5.862406E+02 -3.174964E+02
       405  23  3.951056E+05 -6.934142E+01  1.524343E+03 -5.598988E+02  1.349823E+03  3.990393E+02
       405  24  3.951827E+05  3.672455E+02  2.708159E+03 -1.178978E+04  2.113372E+03  1.110380E+03
       405  25  3.966099E+05  3.676727E+02  1.241209E+03 -1.183449E+04  8.283388E+02 -3.178420E+02
       405  26  3.764440E+05 -4.715238E+03 -3.051360E+03 -5.408407E+02  1.590151E+03  3.987032E+02
       405  27  3.564324E+05 -9.267816E+03 -6.731886E+03 -1.170747E+04  2.351906E+03  1.110052E+03
       406   1  4.805178E+05  2.111801E+04  2.440395E+04 -1.162033E+04 -2.417502E+03 -1.538458E+03
       406   2  5.001576E+05  2.569650E+04  3.168756E+04 -6.902822E+02 -5.406189E+03 -2.259817E+03
       406   3  5.210636E+05  3.395664E+04  4.182697E+04 -1.242197E+04 -8.394694E+03 -2.922162E+03
       406   4  3.954273E+05 -7.587951E+01  3.479193E+03 -1.183603E+04 -2.671010E+03 -1.538125E+03
       406   5  3.947954E+05 -5.321191E+02  5.856025E+03 -5.034055E+02 -5.639408E+03 -2.259549E+03
       406   6  3.954262E+05  2.690186E+03  1.107499E+04 -1.183274E+04 -8.607528E+03 -2.921957E+03
       406   7  3.103433E+05 -2.127031E+04 -1.744610E+04 -1.205170E+04 -2.924483E+03 -1.537792E+03
       406   8  2.894433E+05 -2.676156E+04 -1.997633E+04 -3.165573E+02 -5.872587E+03 -2.259281E+03
       406   9  2.698032E+05 -2.857743E+04 -1.967814E+04 -1.124363E+04 -8.820319E+03 -2.921753E+03
       406  10  4.805178E+05  2.111801E+04  2.440394E+04 -1.162034E+04  7.394694E-10 -1.667541E-09
       406  11  5.001575E+05  2.569648E+04  3.168750E+04 -6.902920E+02 -3.666790E-10  8.473861E-10
       406  12  5.210635E+05  3.395661E+04  4.182682E+04 -1.242199E+04  2.794389E-10  6.167166E-10
       406  13  3.954273E+05 -7.588397E+01  3.479175E+03 -1.183604E+04 -4.713031E-10  1.690473E-10
       406  14  3.947954E+05 -5.321331E+02  5.855956E+03 -5.034157E+02 -3.977560E-10 -9.034184E-11
       406  15  3.954261E+05  2.690157E+03  1.107484E+04 -1.183276E+04  2.308543E-10 -7.903256E-10
       406  16  3.103433E+05 -2.127032E+04 -1.744612E+04 -1.205171E+04 -2.289082E-10 -1.052739E-10
       406  17  2.894433E+05 -2.676157E+04 -1.997640E+04 -3.165680E+02  1.643830E-09  1.847549E-09
       406  18  2.698031E+05 -2.857746E+04 -1.967831E+04 -1.124365E+04 -7.333899E-10  5.017951E-10
       406  19  4.805178E+05  2.111801E+04  2.440395E+04 -1.162033E+04  2.417502E+03  1.538458E+03
       406  20  5.001576E+05  2.569650E+04  3.168756E+04 -6.902822E+02  5.406189E+03  2.259817E+03
       406  21  5.210636E+05  3.395664E+04  4.182697E+04 -1.242197E+04  8.394694E+03  2.922162E+03
       406  22  3.954273E+05 -7.587951E+01  3.479193E+03 -1.183603E+04  2.671010E+03  1.538125E+03
       406  23  3.947954E+05 -5.321191E+02  5.856025E+03 -5.034055E+02  5.639408E+03  2.259549E+03
       406  24  3.954262E+05  2.690186E+03  1.107499E+04 -1.183274E+04  8.607528E+03  2.921957E+03
       406  25  3.103433E+05 -2.127031E+04 -1.744610E+04 -1.205170E+04  2.924483E+03  1.537792E+03
       406  26  2.894433E+05 -2.676156E+04 -1.997633E+04 -3.165573E+02  5.872587E+03  2.259281E+03
       406  27  2.698032E+05 -2.857743E+04 -1.967814E+04 -1.124363E+04  8.820319E+03  2.921753E+03
       407   1  5.697505E+05  4.214251E+04  5.638582E+04 -9.883443E+03 -1.049532E+04 -3.435517E+03
       407   2  5.861525E+05  4.408602E+04  7.039611E+04 -1.553682E+03 -2.262906E+04 -4.189814E+03
       407   3  6.111761E+05  7.404264E+04  9.931211E+04 -1.636178E+04 -3.476228E+04 -4.360394E+03
       407   4  3.970509E+05 -8.522742E+02  1.398988E+04 -1.194668E+04 -1.084927E+04 -3.435154E+03
       407   5  3.927534E+05 -4.055476E+03  2.299404E+04 -3.691535E+02 -2.278347E+04 -4.189796E+03
       407   6  3.970457E+05  2.072472E+04  4.676898E+04 -1.192988E+04 -3.471674E+04 -4.360766E+03
       407   7  2.243785E+05 -4.384925E+04 -2.840826E+04 -1.400934E+04 -1.120313E+04 -3.434788E+03
       407   8  1.993884E+05 -5.219974E+04 -2.441077E+04  8.150129E+02 -2.293783E+04 -4.189778E+03
       407   9  1.829570E+05 -3.259653E+04 -5.777506E+03 -7.499490E+03 -3.467121E+04 -4.361137E+03
       407  10  5.697503E+05  4.214246E+04  5.638559E+04 -9.883472E+03  4.175151E-10  6.805309E-10
       407  11  5.861520E+05  4.408587E+04  7.039511E+04 -1.553758E+03 -2.774886E-10 -1.318368E-09
       407  12  6.111748E+05  7.404229E+04  9.930980E+04 -1.636190E+04  2.968767E-10 -5.035335E-10
       407  13  3.970508E+05 -8.523185E+02  1.398963E+04 -1.194671E+04 -1.427290E-10  3.117155E-10
       407  14  3.927529E+05 -4.055634E+03  2.299303E+04 -3.692303E+02 -5.161376E-10  8.122099E-10
       407  15  3.970444E+05  2.072437E+04  4.676668E+04 -1.193000E+04  1.158538E-10 -7.640087E-10
       407  16  2.243784E+05 -4.384930E+04 -2.840851E+04 -1.400937E+04 -2.968736E-10 -7.202127E-11
       407  17  1.993878E+05 -5.219990E+04 -2.441179E+04  8.149355E+02  1.129007E-09 -6.677894E-10
       407  18  1.829557E+05 -3.259687E+04 -5.779800E+03 -7.499612E+03 -6.437636E-10 -5.753969E-10
       407  19  5.697505E+05  4.214251E+04  5.638582E+04 -9.883443E+03  1.049532E+04  3.435517E+03
       407  20  5.861525E+05  4.408602E+04  7.039611E+04 -1.553682E+03  2.262906E+04  4.189814E+03
       407  21  6.111761E+05  7.404264E+04  9.931211E+04 -1.636178E+04  3.476228E+04  4.360394E+03
       407  22  3.970509E+05 -8.522742E+02  1.398988E+04 -1.194668E+04  1.084927E+04  3.435154E+03
       407  23  3.927534E+05 -4.055476E+03  2.299404E+04 -3.691535E+02  2.278347E+04  4.189796E+03
       407  24  3.970457E+05  2.072472E+04  4.676898E+04 -1.192988E+04  3.471674E+04  4.360766E+03
       407  25  2.243785E+05 -4.384925E+04 -2.840826E+04 -1.400934E+04  1.120313E+04  3.434788E+03
       407  26  1.993884E+05 -5.219974E+04 -2.441077E+04  8.150129E+02  2.293783E+04  4.189778E+03
       407  27  1.829570E+05 -3.259653E+04 -5.777506E+03 -7.499490E+03  3.467121E+04  4.361137E+03
       408   1  6.709605E+05  5.843383E+04  1.212043E+05  4.138551E+03 -4.263126E+04 -5.610413E+03
       408   2  6.622902E+05  3.976883E+04  1.579715E+05 -9.814901E+03 -9.257261E+04 -6.619621E+03
       408   3  7.138874E+05  2.355309E+05  2.808741E+05 -4.762029E+04 -1.425147E+05 -2.260208E+03
       408   4  4.084660E+05 -6.878508E+03  5.686032E+04 -1.211244E+04 -4.387028E+04 -5.608671E+03
       408   5  3.784640E+05 -3.086427E+04  8.851331E+04 -1.739921E+02 -9.198814E+04 -6.621450E+03
       408   6  4.084394E+05  1.593106E+05  2.050639E+05 -1.208573E+04 -1.401048E+05 -2.268691E+03
       408   7  1.460348E+05 -7.219495E+04 -7.488602E+03 -2.835654E+04 -4.510877E+04 -5.606864E+03
       408   8  9.471142E+04 -1.015030E+05  1.904926E+04  9.462510E+03 -9.140393E+04 -6.623261E+03
       408   9  1.030786E+05  8.308816E+04  1.292475E+05  2.343136E+04 -1.376961E+05 -2.276902E+03
       408  10  6.709585E+05  5.843331E+04  1.212009E+05  4.138358E+03 -9.261253E-12 -3.082310E-10
       408  11  6.622810E+05  3.976648E+04  1.579554E+05 -9.815394E+03 -4.709223E-10  4.762849E-10
       408  12  7.138656E+05  2.355254E+05  2.808359E+05 -4.762055E+04  4.358066E-11  5.141723E-11
       408  13  4.084639E+05 -6.879058E+03  5.685664E+04 -1.211264E+04  2.733113E-10 -1.256309E-09
       408  14  3.784549E+05 -3.086658E+04  8.849734E+04 -1.744826E+02  1.637576E-10 -2.577835E-10
       408  15  4.084183E+05  1.593054E+05  2.050270E+05 -1.208598E+04 -2.253580E-10  7.172053E-11
       408  16  1.460326E+05 -7.219553E+04 -7.492484E+03 -2.835674E+04  1.469449E-10 -7.822009E-10
       408  17  9.470244E+04 -1.015053E+05  1.903348E+04  9.462022E+03  4.343293E-10 -3.893888E-10
       408  18  1.030583E+05  8.308306E+04  1.292119E+05  2.343111E+04  1.393312E-10  1.770302E-10
       408  19  6.709605E+05  5.843383E+04  1.212043E+05  4.138551E+03  4.263126E+04  5.610413E+03
       408  20  6.622902E+05  3.976883E+04  1.579715E+05 -9.814901E+03  9.257261E+04  6.619621E+03
       408  21  7.138874E+05  2.355309E+05  2.808741E+05 -4.762029E+04  1.425147E+05  2.260208E+03
       408  22  4.084660E+05 -6.878508E+03  5.686032E+04 -1.211244E+04  4.387028E+04  5.608671E+03
       408  23  3.784640E+05 -3.086427E+04  8.851331E+04 -1.739921E+02  9.198814E+04  6.621450E+03
       408  24  4.084394E+05  1.593106E+05  2.050639E+05 -1.208573E+04  1.401048E+05  2.268691E+03
       408  25  1.460348E+05 -7.219495E+04 -7.488602E+03 -2.835654E+04  4.510877E+04  5.606864E+03
       408  26  9.471142E+04 -1.015030E+05  1.904926E+04  9.462510E+03  9.140393E+04  6.623261E+03
       408  27  1.030786E+05  8.308816E+04  1.292475E+05  2.343136E+04  1.376961E+05  2.276902E+03
       409   1 -1.268195E+06 -9.148268E+04 -1.310782E+05 -2.615133E+04 -1.191446E+05 -1.384089E+03
       409   2 -1.250879E+06  7.015176E+04 -3.337693E+04 -8.466975E+03 -7.877022E+04 -4.107019E+03
       409   3 -1.284854E+06  4.747177E+04 -8.055594E+03  1.849723E+04 -3.839732E+04 -3.635702E+03
       409   4 -1.451422E+06 -1.372984E+05 -1.766529E+05  4.378366E+03 -1.205683E+05 -1.390048E+03
       409   5 -1.425626E+06  2.658369E+04 -7.623376E+04 -2.668545E+02 -7.913416E+04 -4.108211E+03
       409   6 -1.451322E+06  5.937261E+03 -4.894702E+04  4.367387E+03 -3.770085E+04 -3.634641E+03
       409   7 -1.634616E+06 -1.831131E+05 -2.222296E+05  3.489902E+04 -1.219916E+05 -1.396150E+03
       409   8 -1.600346E+06 -1.698639E+04 -1.190928E+05  7.930947E+03 -7.949800E+04 -4.109413E+03
       409   9 -1.617765E+06 -3.559857E+04 -8.984037E+04 -9.758652E+03 -3.700457E+04 -3.633612E+03
       409  10 -1.268210E+06 -9.148651E+04 -1.311049E+05 -2.615146E+04 -3.856945E-10  2.180597E-10
       409  11 -1.250885E+06  7.015008E+04 -3.338865E+04 -8.467236E+03  4.578666E-10  1.582624E-11
       409  12 -1.284855E+06  4.747136E+04 -8.058396E+03  1.849712E+04  2.720947E-13 -2.136707E-10
       409  13 -1.451438E+06 -1.373023E+05 -1.766803E+05  4.378231E+03 -5.883102E-11 -1.825254E-10
       409  14 -1.425633E+06  2.658199E+04 -7.624559E+04 -2.671165E+02  1.205967E-09 -7.884565E-11
       409  15 -1.451324E+06  5.936864E+03 -4.894972E+04  4.367277E+03  1.716782E-10 -3.090429E-10
       409  16 -1.634632E+06 -1.831171E+05 -2.222576E+05  3.489889E+04  4.626373E-10  7.117371E-11
       409  17 -1.600353E+06 -1.698811E+04 -1.191047E+05  7.930684E+03 -4.977818E-11 -5.546186E-10
       409  18 -1.617767E+06 -3.559895E+04 -8.984298E+04 -9.758761E+03  3.579082E-10 -9.718834E-10
       409  19 -1.268195E+06 -9.148268E+04 -1.310782E+05 -2.615133E+04  1.191446E+05  1.384089E+03
       409  20 -1.250879E+06  7.015176E+04 -3.337693E+04 -8.466975E+03  7.877022E+04  4.107019E+03
       409  21 -1.284854E+06  4.747177E+04 -8.055594E+03  1.849723E+04  3.839732E+04  3.635702E+03
       409  22 -1.451422E+06 -1.372984E+05 -1.766529E+05  4.378366E+03  1.205683E+05  1.390048E+03
       409  23 -1.425626E+06  2.658369E+04 -7.623376E+04 -2.668545E+02  7.913416E+04  4.108211E+03
       409  24 -1.451322E+06  5.937261E+03 -4.894702E+04  4.367387E+03  3.770085E+04  3.634641E+03
       409  25 -1.634616E+06 -1.831131E+05 -2.222296E+05  3.489902E+04  1.219916E+05  1.396150E+03
       409  26 -1.600346E+06 -1.698639E+04 -1.190928E+05  7.930947E+03  7.949800E+04  4.109413E+03
       409  27 -1.617765E+06 -3.559857E+04 -8.984037E+04 -9.758652E+03  3.700457E+04  3.633612E+03
       410   1 -1.296354E+06  1.835279E+04 -4.563418E+03  1.143338E+03 -2.978097E+04 -2.968252E+03
       410   2 -1.302718E+06  3.719202E+04  1.339452E+04 -1.652518E+03 -1.963981E+04 -2.956350E+03
       410   3 -1.316388E+06  3.198455E+04  1.873542E+04  6.764195E+03 -9.499216E+03 -2.561273E+03
       410   4 -1.441532E+06 -1.786358E+04 -4.026619E+04  4.808739E+03 -2.983801E+04 -2.968501E+03
       410   5 -1.437857E+06  3.485997E+03 -1.979737E+04 -8.020109E+02 -1.957049E+04 -2.956381E+03
       410   6 -1.441514E+06  7.639067E+02 -1.203567E+04  4.800051E+03 -9.303367E+03 -2.561142E+03
       410   7 -1.586690E+06 -5.408147E+04 -7.597051E+04  8.473277E+03 -2.989503E+04 -2.968749E+03
       410   8 -1.572981E+06 -3.022138E+04 -5.299061E+04  4.830823E+01 -1.950118E+04 -2.956412E+03
       410   9 -1.566625E+06 -3.045789E+04 -4.280791E+04  2.836302E+03 -9.107556E+03 -2.561013E+03
       410  10 -1.296355E+06  1.835254E+04 -4.565105E+03  1.143267E+03 -3.607638E-10 -7.981226E-11
       410  11 -1.302718E+06  3.719191E+04  1.339378E+04 -1.652565E+03 -2.013034E-10  2.542090E-10
       410  12 -1.316389E+06  3.198452E+04  1.873523E+04  6.764176E+03  1.816261E-10 -1.439375E-09
       410  13 -1.441533E+06 -1.786383E+04 -4.026789E+04  4.808667E+03  3.196878E-10 -1.558161E-10
       410  14 -1.437858E+06  3.485885E+03 -1.979811E+04 -8.020575E+02  5.691869E-10  4.256286E-10
       410  15 -1.441514E+06  7.638764E+02 -1.203584E+04  4.800032E+03  3.635529E-10 -1.320615E-09
       410  16 -1.586691E+06 -5.408172E+04 -7.597221E+04  8.473206E+03 -2.667568E-11 -5.611304E-11
       410  17 -1.572981E+06 -3.022149E+04 -5.299135E+04  4.826177E+01 -1.043110E-10 -8.771587E-10
       410  18 -1.566625E+06 -3.045792E+04 -4.280807E+04  2.836283E+03 -1.557083E-10 -8.475907E-11
       410  19 -1.296354E+06  1.835279E+04 -4.563418E+03  1.143338E+03  2.978097E+04  2.968252E+03
       410  20 -1.302718E+06  3.719202E+04  1.339452E+04 -1.652518E+03  1.963981E+04  2.956350E+03
       410  21 -1.316388E+06  3.198455E+04  1.873542E+04  6.764195E+03  9.499216E+03  2.561273E+03
       410  22 -1.441532E+06 -1.786358E+04 -4.026619E+04  4.808739E+03  2.983801E+04  2.968501E+03
       410  23 -1.437857E+06  3.485997E+03 -1.979737E+04 -8.020109E+02  1.957049E+04  2.956381E+03
       410  24 -1.441514E+06  7.639067E+02 -1.203567E+04  4.800051E+03  9.303367E+03  2.561142E+03
       410  25 -1.586690E+06 -5.408147E+04 -7.597051E+04  8.473277E+03  2.989503E+04  2.968749E+03
       410  26 -1.572981E+06 -3.022138E+04 -5.299061E+04  4.830823E+01  1.950118E+04  2.956412E+03
       410  27 -1.566625E+06 -3.045789E+04 -4.280791E+04  2.836302E+03  9.107556E+03  2.561013E+03
       411   1 -1.339639E+06  2.276271E+04  1.512778E+04  4.748366E+03 -7.487401E+03 -2.283748E+03
       411   2 -1.350311E+06  2.272162E+04  1.687487E+04 -1.202904E+03 -4.948712E+03 -1.929366E+03
       411   3 -1.362097E+06  1.957625E+04  1.618922E+04  5.419926E+03 -2.410175E+03 -1.514339E+03
       411   4 -1.440134E+06 -2.299473E+03 -9.536376E+03  5.106891E+03 -7.378543E+03 -2.283695E+03
       411   5 -1.439574E+06  4.557969E+02 -5.054156E+03 -1.181131E+03 -4.819886E+03 -1.929278E+03
       411   6 -1.440131E+06  1.030838E+02 -3.018827E+03  5.105062E+03 -2.261334E+03 -1.514216E+03
       411   7 -1.540621E+06 -2.736241E+04 -3.420128E+04  5.465355E+03 -7.269703E+03 -2.283643E+03
       411   8 -1.528829E+06 -2.181062E+04 -2.698377E+04 -1.159363E+03 -4.691079E+03 -1.929191E+03
       411   9 -1.518159E+06 -1.937054E+04 -2.222732E+04  4.790236E+03 -2.112512E+03 -1.514092E+03
       411  10 -1.339639E+06  2.276269E+04  1.512767E+04  4.748352E+03 -7.539267E-10  1.094025E-10
       411  11 -1.350311E+06  2.272161E+04  1.687482E+04 -1.202912E+03 -9.277102E-11  8.856983E-10
       411  12 -1.362097E+06  1.957624E+04  1.618920E+04  5.419924E+03  1.588740E-10 -3.000057E-10
       411  13 -1.440134E+06 -2.299493E+03 -9.536489E+03  5.106877E+03 -3.303288E-11 -5.271043E-10
       411  14 -1.439574E+06  4.557867E+02 -5.054207E+03 -1.181139E+03  1.604390E-10  7.773271E-10
       411  15 -1.440131E+06  1.030800E+02 -3.018841E+03  5.105059E+03 -5.559022E-11 -3.942887E-10
       411  16 -1.540621E+06 -2.736243E+04 -3.420139E+04  5.465342E+03  4.380733E-10 -9.645831E-10
       411  17 -1.528829E+06 -2.181063E+04 -2.698382E+04 -1.159370E+03 -8.688573E-10 -1.457358E-09
       411  18 -1.518159E+06 -1.937054E+04 -2.222733E+04  4.790234E+03  5.689654E-10 -7.461837E-10
       411  19 -1.339639E+06  2.276271E+04  1.512778E+04  4.748366E+03  7.487401E+03  2.283748E+03
       411  20 -1.350311E+06  2.272162E+04  1.687487E+04 -1.202904E+03  4.948712E+03  1.929366E+03
       411  21 -1.362097E+06  1.957625E+04  1.618922E+04  5.419926E+03  2.410175E+03  1.514339E+03
       411  22 -1.440134E+06 -2.299473E+03 -9.536376E+03  5.106891E+03  7.378543E+03  2.283695E+03
       411  23 -1.439574E+06  4.557969E+02 -5.054156E+03 -1.181131E+03  4.819886E+03  1.929278E+03
       411  24 -1.440131E+06  1.030838E+02 -3.018827E+03  5.105062E+03  2.261334E+03  1.514216E+03
       411  25 -1.540621E+06 -2.736241E+04 -3.420128E+04  5.465355E+03  7.269703E+03  2.283643E+03
       411  26 -1.528829E+06 -2.181062E+04 -2.698377E+04 -1.159363E+03  4.691079E+03  1.929191E+03
       411  27 -1.518159E+06 -1.937054E+04 -2.222732E+04  4.790236E+03  2.112512E+03  1.514092E+03
       412   1 -1.388738E+06  1.248036E+04  1.017312E+04  5.275835E+03 -1.915050E+03 -1.263765E+03
       412   2 -1.400554E+06  9.856883E+03  8.266414E+03 -1.368732E+03 -1.229633E+03 -8.467772E+02
       412   3 -1.412587E+06  6.837904E+03  5.807910E+03  5.336470E+03 -5.442888E+02 -4.163472E+02
       412   4 -1.439930E+06 -2.825818E+02 -2.369022E+03  5.278228E+03 -1.777559E+03 -1.263642E+03
       412   5 -1.439821E+06  6.160302E+01 -1.380869E+03 -1.396821E+03 -1.087685E+03 -8.466428E+02
       412   6 -1.439930E+06  9.495026E+00 -9.476401E+02  5.277952E+03 -3.978714E+02 -4.162000E+02
       412   7 -1.491120E+06 -1.304572E+04 -1.491136E+04  5.280621E+03 -1.640078E+03 -1.263520E+03
       412   8 -1.479087E+06 -9.733792E+03 -1.102827E+04 -1.424908E+03 -9.457459E+02 -8.465083E+02
       412   9 -1.467271E+06 -6.818969E+03 -7.703245E+03  5.219436E+03 -2.514605E+02 -4.160530E+02
       412  10 -1.388738E+06  1.248035E+04  1.017311E+04  5.275833E+03 -1.788879E-10 -7.992832E-10
       412  11 -1.400554E+06  9.856882E+03  8.266410E+03 -1.368732E+03  3.974556E-10 -1.012752E-09
       412  12 -1.412587E+06  6.837903E+03  5.807909E+03  5.336470E+03 -7.690809E-10 -1.026086E-09
       412  13 -1.439930E+06 -2.825844E+02 -2.369031E+03  5.278226E+03  7.230329E-10 -9.870588E-10
       412  14 -1.439821E+06  6.160193E+01 -1.380873E+03 -1.396821E+03  3.515298E-10  6.067212E-10
       412  15 -1.439930E+06  9.494797E+00 -9.476407E+02  5.277952E+03 -1.954306E-10  6.921925E-10
       412  16 -1.491120E+06 -1.304572E+04 -1.491137E+04  5.280619E+03 -5.186818E-10  1.358462E-09
       412  17 -1.479087E+06 -9.733793E+03 -1.102827E+04 -1.424909E+03 -2.761268E-10  1.003615E-09
       412  18 -1.467271E+06 -6.818970E+03 -7.703246E+03  5.219436E+03  9.266683E-10  2.936513E-10
       412  19 -1.388738E+06  1.248036E+04  1.017312E+04  5.275835E+03  1.915050E+03  1.263765E+03
       412  20 -1.400554E+06  9.856883E+03  8.266414E+03 -1.368732E+03  1.229633E+03  8.467772E+02
       412  21 -1.412587E+06  6.837904E+03  5.807910E+03  5.336470E+03  5.442888E+02  4.163472E+02
       412  22 -1.439930E+06 -2.825818E+02 -2.369022E+03  5.278228E+03  1.777559E+03  1.263642E+03
       412  23 -1.439821E+06  6.160302E+01 -1.380869E+03 -1.396821E+03  1.087685E+03  8.466428E+02
       412  24 -1.439930E+06  9.495026E+00 -9.476401E+02  5.277952E+03  3.978714E+02  4.162000E+02
       412  25 -1.491120E+06 -1.304572E+04 -1.491136E+04  5.280621E+03  1.640078E+03  1.263520E+03
       412  26 -1.479087E+06 -9.733792E+03 -1.102827E+04 -1.424908E+03  9.457459E+02  8.465083E+02
       412  27 -1.467271E+06 -6.818969E+03 -7.703245E+03  5.219436E+03  2.514605E+02  4.160530E+02
       413   1 -1.440379E+06 -1.443629E+02 -9.943728E+02  5.298932E+03 -3.826924E+02 -1.617869E+02
       413   2 -1.452383E+06 -3.098122E+03 -3.874808E+03 -1.448655E+03  1.541338E+01  2.702413E+02
       413   3 -1.464516E+06 -6.230313E+03 -7.066437E+03  5.315286E+03  4.135275E+02  6.957845E+02
       413   4 -1.439910E+06 -1.979651E+01 -8.415924E+02  5.313957E+03 -2.368324E+02 -1.616382E+02
       413   5 -1.439845E+06  2.952223E+01 -7.944568E+02 -1.441759E+03  1.591001E+02  2.703851E+02
       413   6 -1.439910E+06 -9.924492E+01 -1.057036E+03  5.314036E+03  5.550486E+02  6.959237E+02
       413   7 -1.439441E+06  1.047699E+02 -6.888119E+02  5.328982E+03 -9.097223E+01 -1.614895E+02
       413   8 -1.427307E+06  3.157155E+03  2.285883E+03 -1.434863E+03  3.027897E+02  2.705288E+02
       413   9 -1.415303E+06  6.031778E+03  4.952321E+03  5.312785E+03  6.965754E+02  6.960630E+02
       413  10 -1.440379E+06 -1.443630E+02 -9.943731E+02  5.298932E+03  9.406726E-10 -6.731776E-10
       413  11 -1.452383E+06 -3.098122E+03 -3.874809E+03 -1.448655E+03  1.194777E-09  4.200153E-10
       413  12 -1.464516E+06 -6.230313E+03 -7.066439E+03  5.315285E+03 -2.118646E-10  3.514365E-10
       413  13 -1.439910E+06 -1.979655E+01 -8.415925E+02  5.313957E+03  6.195938E-10 -1.476446E-09
       413  14 -1.439845E+06  2.952215E+01 -7.944570E+02 -1.441759E+03  1.124579E-09 -7.946657E-10
       413  15 -1.439910E+06 -9.924553E+01 -1.057037E+03  5.314035E+03 -6.538091E-10  1.702957E-09
       413  16 -1.439441E+06  1.047699E+02 -6.888119E+02  5.328982E+03 -1.280757E-09 -6.997846E-10
       413  17 -1.427307E+06  3.157155E+03  2.285883E+03 -1.434863E+03 -1.653076E-09 -5.625577E-10
       413  18 -1.415303E+06  6.031778E+03  4.952320E+03  5.312785E+03  1.878597E-10  3.270742E-10
       413  19 -1.440379E+06 -1.443629E+02 -9.943728E+02  5.298932E+03  3.826924E+02  1.617869E+02
       413  20 -1.452383E+06 -3.098122E+03 -3.874808E+03 -1.448655E+03 -1.541338E+01 -2.702413E+02
       413  21 -1.464516E+06 -6.230313E+03 -7.066437E+03  5.315286E+03 -4.135275E+02 -6.957845E+02
       413  22 -1.439910E+06 -1.979651E+01 -8.415924E+02  5.313957E+03  2.368324E+02  1.616382E+02
       413  23 -1.439845E+06  2.952223E+01 -7.944568E+02 -1.441759E+03 -1.591001E+02 -2.703851E+02
       413  24 -1.439910E+06 -9.924492E+01 -1.057036E+03  5.314036E+03 -5.550486E+02 -6.959237E+02
       413  25 -1.439441E+06  1.047699E+02 -6.888119E+02  5.328982E+03  9.097223E+01  1.614895E+02
       413  26 -1.427307E+06  3.157155E+03  2.285883E+03 -1.434863E+03 -3.027897E+02 -2.705288E+02
       413  27 -1.415303E+06  6.031778E+03  4.952321E+03  5.312785E+03 -6.965754E+02 -6.960630E+02
       414   1 -1.492086E+06 -1.296296E+04 -1.410676E+04  5.073870E+03  6.126156E+02  9.516683E+02
       414   2 -1.503520E+06 -1.573284E+04 -1.765593E+04 -1.326597E+03  1.636082E+03  1.377662E+03
       414   3 -1.515402E+06 -1.967881E+04 -2.217083E+04  5.321832E+03  2.659663E+03  1.752994E+03
       414   4 -1.439980E+06  4.349074E+01 -1.266969E+03  5.210884E+03  7.637022E+02  9.518108E+02
       414   5 -1.439759E+06  1.734424E+02 -1.990453E+03 -1.313126E+03  1.770269E+03  1.377775E+03
       414   6 -1.439982E+06 -8.696284E+02 -3.667774E+03  5.211678E+03  2.776971E+03  1.753081E+03
       414   7 -1.387872E+06  1.304974E+04  1.157262E+04  5.347908E+03  9.148014E+02  9.519534E+02
       414   8 -1.375994E+06  1.607942E+04  1.367473E+04 -1.299654E+03  1.904471E+03  1.377888E+03
       414   9 -1.364556E+06  1.793913E+04  1.483487E+04  5.101510E+03  2.894293E+03  1.753168E+03
       414  10 -1.492086E+06 -1.296296E+04 -1.410676E+04  5.073869E+03  2.988621E-10 -1.095211E-09
       414  11 -1.503520E+06 -1.573284E+04 -1.765594E+04 -1.326599E+03  3.931891E-10  3.190063E-10
       414  12 -1.515402E+06 -1.967881E+04 -2.217085E+04  5.321829E+03  2.561399E-10 -4.412924E-10
       414  13 -1.439980E+06  4.348961E+01 -1.266972E+03  5.210883E+03 -4.197531E-10  9.380668E-10
       414  14 -1.439759E+06  1.734396E+02 -1.990462E+03 -1.313128E+03 -3.695936E-10  1.609396E-09
       414  15 -1.439982E+06 -8.696338E+02 -3.667794E+03  5.211674E+03 -7.170135E-11 -5.106845E-10
       414  16 -1.387872E+06  1.304974E+04  1.157262E+04  5.347907E+03  3.340396E-10 -4.370676E-10
       414  17 -1.375994E+06  1.607942E+04  1.367472E+04 -1.299656E+03 -2.028204E-09  1.523468E-09
       414  18 -1.364556E+06  1.793912E+04  1.483485E+04  5.101506E+03 -2.153083E-10  2.592210E-10
       414  19 -1.492086E+06 -1.296296E+04 -1.410676E+04  5.073870E+03 -6.126156E+02 -9.516683E+02
       414  20 -1.503520E+06 -1.573284E+04 -1.765593E+04 -1.326597E+03 -1.636082E+03 -1.377662E+03
       414  21 -1.515402E+06 -1.967881E+04 -2.217083E+04  5.321832E+03 -2.659663E+03 -1.752994E+03
       414  22 -1.439980E+06  4.349074E+01 -1.266969E+03  5.210884E+03 -7.637022E+02 -9.518108E+02
       414  23 -1.439759E+06  1.734424E+02 -1.990453E+03 -1.313126E+03 -1.770269E+03 -1.377775E+03
       414  24 -1.439982E+06 -8.696284E+02 -3.667774E+03  5.211678E+03 -2.776971E+03 -1.753081E+03
       414  25 -1.387872E+06  1.304974E+04  1.157262E+04  5.347908E+03 -9.148014E+02 -9.519534E+02
       414  26 -1.375994E+06  1.607942E+04  1.367473E+04 -1.299654E+03 -1.904471E+03 -1.377888E+03
       414  27 -1.364556E+06  1.793913E+04  1.483487E+04  5.101510E+03 -2.894293E+03 -1.753168E+03
       415   1 -1.541841E+06 -2.499235E+04 -2.954086E+04  4.188277E+03  3.319598E+03  2.036944E+03
       415   2 -1.551150E+06 -2.662377E+04 -3.507323E+04 -7.307181E+02  7.349902E+03  2.450269E+03
       415   3 -1.563269E+06 -3.742478E+04 -4.552480E+04  6.334678E+03  1.138046E+04  2.519463E+03
       415   4 -1.440503E+06  2.969147E+02 -4.608769E+03  4.973039E+03  3.515248E+03  2.037086E+03
       415   5 -1.439112E+06  1.324995E+03 -7.551798E+03 -1.016860E+03  7.430769E+03  2.450294E+03
       415   6 -1.440510E+06 -6.795613E+03 -1.533351E+04  4.977515E+03  1.134662E+04  2.519384E+03
       415   7 -1.339155E+06  2.558541E+04  2.032257E+04  5.757928E+03  3.710930E+03  2.037228E+03
       415   8 -1.327062E+06  2.927283E+04  1.996871E+04 -1.303057E+03  7.511651E+03  2.450318E+03
       415   9 -1.317737E+06  2.383243E+04  1.485667E+04  3.620079E+03  1.131276E+04  2.519306E+03
       415  10 -1.541841E+06 -2.499235E+04 -2.954089E+04  4.188271E+03 -5.746295E-10  6.650679E-10
       415  11 -1.551150E+06 -2.662379E+04 -3.507334E+04 -7.307326E+02  1.843755E-10 -6.088262E-11
       415  12 -1.563269E+06 -3.742482E+04 -4.552506E+04  6.334655E+03 -4.288632E-10 -2.783173E-10
       415  13 -1.440503E+06  2.969069E+02 -4.608800E+03  4.973033E+03  1.012146E-10 -4.328320E-10
       415  14 -1.439112E+06  1.324974E+03 -7.551913E+03 -1.016875E+03 -5.438032E-11 -1.562862E-10
       415  15 -1.440510E+06 -6.795654E+03 -1.533377E+04  4.977492E+03  1.419888E-10 -1.033651E-10
       415  16 -1.339155E+06  2.558540E+04  2.032254E+04  5.757922E+03 -2.445135E-10 -5.736056E-10
       415  17 -1.327062E+06  2.927280E+04  1.996859E+04 -1.303071E+03 -7.294068E-10 -1.013106E-09
       415  18 -1.317737E+06  2.383239E+04  1.485641E+04  3.620056E+03  4.846434E-10  3.157854E-10
       415  19 -1.541841E+06 -2.499235E+04 -2.954086E+04  4.188277E+03 -3.319598E+03 -2.036944E+03
       415  20 -1.551150E+06 -2.662377E+04 -3.507323E+04 -7.307181E+02 -7.349902E+03 -2.450269E+03
       415  21 -1.563269E+06 -3.742478E+04 -4.552480E+04  6.334678E+03 -1.138046E+04 -2.519463E+03
       415  22 -1.440503E+06  2.969147E+02 -4.608769E+03  4.973039E+03 -3.515248E+03 -2.037086E+03
       415  23 -1.439112E+06  1.324995E+03 -7.551798E+03 -1.016860E+03 -7.430769E+03 -2.450294E+03
       415  24 -1.440510E+06 -6.795613E+03 -1.533351E+04  4.977515E+03 -1.134662E+04 -2.519384E+03
       415  25 -1.339155E+06  2.558541E+04  2.032257E+04  5.757928E+03 -3.710930E+03 -2.037228E+03
       415  26 -1.327062E+06  2.927283E+04  1.996871E+04 -1.303057E+03 -7.511651E+03 -2.450318E+03
       415  27 -1.317737E+06  2.383243E+04  1.485667E+04  3.620079E+03 -1.131276E+04 -2.519306E+03
       416   1 -1.590135E+06 -3.414372E+04 -5.448390E+04 -8.171415E+02  1.369068E+04  3.159096E+03
       416   2 -1.589577E+06 -2.856776E+04 -6.706835E+04  2.527050E+03  3.042683E+04  3.651763E+03
       416   3 -1.608763E+06 -9.338076E+04 -1.081566E+05  1.620238E+04  4.716344E+04  1.253494E+03
       416   4 -1.444232E+06  2.263205E+03 -1.863397E+04  4.601259E+03  1.434004E+04  3.159518E+03
       416   5 -1.434466E+06  1.011309E+04 -2.902133E+04 -5.565482E+02  3.011007E+04  3.651425E+03
       416   6 -1.444271E+06 -5.224882E+04 -6.723535E+04  4.616995E+03  4.588086E+04  1.252254E+03
       416   7 -1.298309E+06  3.866866E+04  1.721441E+04  1.002094E+04  1.498956E+04  3.159951E+03
       416   8 -1.279332E+06  4.879218E+04  9.023922E+03 -3.640922E+03  2.979323E+04  3.651090E+03
       416   9 -1.279754E+06 -1.111841E+04 -2.631610E+04 -6.971467E+03  4.459793E+04  1.251063E+03
       416  10 -1.590135E+06 -3.414379E+04 -5.448427E+04 -8.171763E+02  1.732220E-11 -4.525637E-13
       416  11 -1.589578E+06 -2.856803E+04 -6.707012E+04  2.526960E+03  3.371021E-10  1.467964E-10
       416  12 -1.608765E+06 -9.338136E+04 -1.081608E+05  1.620233E+04 -1.476322E-10  5.023988E-11
       416  13 -1.444232E+06  2.263139E+03 -1.863437E+04  4.601223E+03  1.017568E-09 -7.570964E-10
       416  14 -1.434467E+06  1.011283E+04 -2.902307E+04 -5.566368E+02  8.800302E-11  1.110193E-11
       416  15 -1.444273E+06 -5.224939E+04 -6.723932E+04  4.616949E+03  1.792793E-10 -1.132889E-10
       416  16 -1.298309E+06  3.866859E+04  1.721397E+04  1.002090E+04  1.658186E-10  4.420469E-10
       416  17 -1.279333E+06  4.879193E+04  9.022225E+03 -3.641010E+03 -2.723912E-10  3.538042E-10
       416  18 -1.279756E+06 -1.111894E+04 -2.631984E+04 -6.971511E+03 -3.607280E-10  2.541281E-11
       416  19 -1.590135E+06 -3.414372E+04 -5.448390E+04 -8.171415E+02 -1.369068E+04 -3.159096E+03
       416  20 -1.589577E+06 -2.856776E+04 -6.706835E+04  2.527050E+03 -3.042683E+04 -3.651763E+03
       416  21 -1.608763E+06 -9.338076E+04 -1.081566E+05  1.620238E+04 -4.716344E+04 -1.253494E+03
       416  22 -1.444232E+06  2.263205E+03 -1.863397E+04  4.601259E+03 -1.434004E+04 -3.159518E+03
       416  23 -1.434466E+06  1.011309E+04 -2.902133E+04 -5.565482E+02 -3.011007E+04 -3.651425E+03
       416  24 -1.444271E+06 -5.224882E+04 -6.723535E+04  4.616995E+03 -4.588086E+04 -1.252254E+03
       416  25 -1.298309E+06  3.866866E+04  1.721441E+04  1.002094E+04 -1.498956E+04 -3.159951E+03
       416  26 -1.279332E+06  4.879218E+04  9.023922E+03 -3.640922E+03 -2.979323E+04 -3.651090E+03
       416  27 -1.279754E+06 -1.111841E+04 -2.631610E+04 -6.971467E+03 -4.459793E+04 -1.251063E+03
       417   1  4.174439E+06  8.467683E+05  1.086631E+06  1.885838E+05  7.347682E+05 -4.128602E+01
       417   2  4.016885E+06 -1.473875E+05  4.768978E+05  5.131416E+04  4.824786E+05 -1.100049E+03
       417   3  4.171228E+06 -2.308541E+04  3.104788E+05 -8.337959E+04  2.301658E+05 -1.111473E+03
       417   4  4.117172E+06  8.323798E+05  1.072457E+06  2.300775E+03  7.342871E+05 -2.604723E+02
       417   5  3.962060E+06 -1.610170E+05  4.635257E+05  1.130648E+03  4.823346E+05 -1.138847E+03
       417   6  4.118776E+06 -3.603066E+04  2.976936E+05  2.506701E+03  2.303578E+05 -1.079774E+03
       417   7  4.059983E+06  8.181206E+05  1.058302E+06 -1.839652E+05  7.338060E+05 -4.793891E+02
       417   8  3.907244E+06 -1.746373E+05  4.501547E+05 -4.904845E+04  4.821906E+05 -1.177625E+03
       417   9  4.066341E+06 -4.894857E+04  2.849122E+05  8.838577E+04  2.305498E+05 -1.048020E+03
       417  10  4.173862E+06  8.466246E+05  1.085623E+06  1.885839E+05 -4.031256E-10 -7.276816E-10
       417  11  4.016636E+06 -1.474495E+05  4.764633E+05  5.131459E+04  1.720610E-09 -6.112854E-10
       417  12  4.171172E+06 -2.309952E+04  3.103799E+05 -8.337939E+04 -1.646207E-09 -7.424020E-10
       417  13  4.116596E+06  8.322362E+05  1.071451E+06  2.300929E+03  1.418161E-09 -2.184621E-10
       417  14  3.961812E+06 -1.610790E+05  4.630914E+05  1.131090E+03  1.331285E-09 -8.374923E-10
       417  15  4.118719E+06 -3.604479E+04  2.975946E+05  2.506901E+03 -1.699652E-09 -1.017062E-09
       417  16  4.059407E+06  8.179772E+05  1.057297E+06 -1.839649E+05  9.746810E-10 -4.008044E-10
       417  17  3.906995E+06 -1.746993E+05  4.497206E+05 -4.904799E+04  1.541296E-09 -1.460854E-09
       417  18  4.066284E+06 -4.896272E+04  2.848130E+05  8.838597E+04  3.067519E-09  3.975207E-10
       417  19  4.174439E+06  8.467683E+05  1.086631E+06  1.885838E+05 -7.347682E+05  4.128602E+01
       417  20  4.016885E+06 -1.473875E+05  4.768978E+05  5.131416E+04 -4.824786E+05  1.100049E+03
       417  21  4.171228E+06 -2.308541E+04  3.104788E+05 -8.337959E+04 -2.301658E+05  1.111473E+03
       417  22  4.117172E+06  8.323798E+05  1.072457E+06  2.300775E+03 -7.342871E+05  2.604723E+02
       417  23  3.962060E+06 -1.610170E+05  4.635257E+05  1.130648E+03 -4.823346E+05  1.138847E+03
       417  24  4.118776E+06 -3.603066E+04  2.976936E+05  2.506701E+03 -2.303578E+05  1.079774E+03
       417  25  4.059983E+06  8.181206E+05  1.058302E+06 -1.839652E+05 -7.338060E+05  4.793891E+02
       417  26  3.907244E+06 -1.746373E+05  4.501547E+05 -4.904845E+04 -4.821906E+05  1.177625E+03
       417  27  4.066341E+06 -4.894857E+04  2.849122E+05  8.838577E+04 -2.305498E+05  1.048020E+03
       418   1  4.107583E+06  1.203081E+05  2.568167E+05  2.469665E+04  1.823166E+05 -9.008998E+02
       418   2  4.084567E+06 -9.284242E+03  1.323160E+05  7.128248E+03  1.196209E+05 -9.800066E+02
       418   3  4.106084E+06  7.009393E+03  8.492411E+04 -9.461628E+03  5.692765E+04 -9.828558E+02
       418   4  4.058947E+06  1.082262E+05  2.449221E+05  2.059367E+03  1.822771E+05 -9.075207E+02
       418   5  4.036830E+06 -2.112570E+04  1.206595E+05  1.590417E+03  1.196103E+05 -9.810734E+02
       418   6  4.059243E+06 -4.591671E+03  7.348973E+04  2.100025E+03  5.694593E+04 -9.817978E+02
       418   7  4.010314E+06  9.614612E+04  2.330277E+05 -2.057615E+04  1.822377E+05 -9.141392E+02
       418   8  3.989094E+06 -3.296720E+04  1.090029E+05 -3.946989E+03  1.195998E+05 -9.821400E+02
       418   9  4.012404E+06 -1.619240E+04  6.205526E+04  1.366081E+04  5.696420E+04 -9.807391E+02
       418  10  4.107547E+06  1.202992E+05  2.567546E+05  2.469678E+04 -1.593029E-09 -1.023663E-09
       418  11  4.084552E+06 -9.288054E+03  1.322892E+05  7.128342E+03  1.445945E-09  6.337689E-10
       418  12  4.106080E+06  7.008528E+03  8.491805E+04 -9.461583E+03 -7.526146E-11 -1.059327E-09
       418  13  4.058911E+06  1.082174E+05  2.448601E+05  2.059500E+03  1.450712E-09  1.380033E-10
       418  14  4.036814E+06 -2.112951E+04  1.206328E+05  1.590512E+03  2.180147E-09  3.380164E-10
       418  15  4.059239E+06 -4.592535E+03  7.348367E+04  2.100070E+03 -1.631147E-09 -7.149522E-10
       418  16  4.010278E+06  9.613727E+04  2.329657E+05 -2.057601E+04  6.987125E-10 -1.244365E-10
       418  17  3.989079E+06 -3.297101E+04  1.089761E+05 -3.946895E+03  7.921936E-10 -9.182037E-10
       418  18  4.012401E+06 -1.619326E+04  6.204920E+04  1.366086E+04 -1.872878E-10 -2.369563E-10
       418  19  4.107583E+06  1.203081E+05  2.568167E+05  2.469665E+04 -1.823166E+05  9.008998E+02
       418  20  4.084567E+06 -9.284242E+03  1.323160E+05  7.128248E+03 -1.196209E+05  9.800066E+02
       418  21  4.106084E+06  7.009393E+03  8.492411E+04 -9.461628E+03 -5.692765E+04  9.828558E+02
       418  22  4.058947E+06  1.082262E+05  2.449221E+05  2.059367E+03 -1.822771E+05  9.075207E+02
       418  23  4.036830E+06 -2.112570E+04  1.206595E+05  1.590417E+03 -1.196103E+05  9.810734E+02
       418  24  4.059243E+06 -4.591671E+03  7.348973E+04  2.100025E+03 -5.694593E+04  9.817978E+02
       418  25  4.010314E+06  9.614612E+04  2.330277E+05 -2.057615E+04 -1.822377E+05  9.141392E+02
       418  26  3.989094E+06 -3.296720E+04  1.090029E+05 -3.946989E+03 -1.195998E+05  9.821400E+02
       418  27  4.012404E+06 -1.619240E+04  6.205526E+04  1.366081E+04 -5.696420E+04  9.807391E+02
       419   1  4.097183E+06  2.545249E+04  6.960517E+04  4.272906E+03  4.513313E+04 -9.650393E+02
       419   2  4.094333E+06  8.851400E+03  4.253390E+04  2.508786E+03  2.937621E+04 -9.849833E+02
       419   3  4.098257E+06  1.119921E+04  3.041015E+04  1.737990E+02  1.361979E+04 -1.026260E+03
       419   4  4.050804E+06  1.394995E+04  5.827771E+04  1.737348E+03  4.513019E+04 -9.652273E+02
       419   5  4.047445E+06 -2.774941E+03  3.108315E+04  2.026196E+03  2.936705E+04 -9.850145E+02
       419   6  4.050861E+06 -5.490749E+02  1.884114E+04  1.744164E+03  1.360443E+04 -1.026239E+03
       419   7  4.004426E+06  2.447280E+03  4.695009E+04 -7.980210E+02  4.512724E+04 -9.654154E+02
       419   8  4.000558E+06 -1.440144E+04  1.963223E+04  1.543643E+03  2.935789E+04 -9.850457E+02
       419   9  4.003468E+06 -1.229752E+04  7.271955E+03  3.314409E+03  1.358907E+04 -1.026218E+03
       419  10  4.097181E+06  2.545194E+04  6.960137E+04  4.272941E+03 -1.162563E-09 -1.509311E-09
       419  11  4.094332E+06  8.851169E+03  4.253229E+04  2.508809E+03 -3.371015E-09 -9.268740E-10
       419  12  4.098257E+06  1.119916E+04  3.040981E+04  1.738103E+02 -6.331804E-10 -8.629193E-10
       419  13  4.050801E+06  1.394941E+04  5.827391E+04  1.737383E+03 -1.391754E-09 -4.963906E-10
       419  14  4.047444E+06 -2.775172E+03  3.108153E+04  2.026219E+03  2.698037E-10  1.136014E-10
       419  15  4.050861E+06 -5.491254E+02  1.884079E+04  1.744175E+03 -2.954992E-09 -9.032390E-10
       419  16  4.004424E+06  2.446736E+03  4.694629E+04 -7.979860E+02 -1.141826E-09 -3.447451E-10
       419  17  4.000557E+06 -1.440167E+04  1.963062E+04  1.543666E+03 -1.982882E-09 -4.484005E-10
       419  18  4.003468E+06 -1.229757E+04  7.271608E+03  3.314420E+03  4.882973E-10  7.920774E-10
       419  19  4.097183E+06  2.545249E+04  6.960517E+04  4.272906E+03 -4.513313E+04  9.650393E+02
       419  20  4.094333E+06  8.851400E+03  4.253390E+04  2.508786E+03 -2.937621E+04  9.849833E+02
       419  21  4.098257E+06  1.119921E+04  3.041015E+04  1.737990E+02 -1.361979E+04  1.026260E+03
       419  22  4.050804E+06  1.394995E+04  5.827771E+04  1.737348E+03 -4.513019E+04  9.652273E+02
       419  23  4.047445E+06 -2.774941E+03  3.108315E+04  2.026196E+03 -2.936705E+04  9.850145E+02
       419  24  4.050861E+06 -5.490749E+02  1.884114E+04  1.744164E+03 -1.360443E+04  1.026239E+03
       419  25  4.004426E+06  2.447280E+03  4.695009E+04 -7.980210E+02 -4.512724E+04  9.654154E+02
       419  26  4.000558E+06 -1.440144E+04  1.963223E+04  1.543643E+03 -2.935789E+04  9.850457E+02
       419  27  4.003468E+06 -1.229752E+04  7.271955E+03  3.314409E+03 -1.358907E+04  1.026218E+03
       420   1  4.099839E+06  1.421070E+04  2.724310E+04  1.641858E+03  1.056350E+04 -1.050771E+03
       420   2  4.101194E+06  1.254041E+04  2.205196E+04  2.516933E+03  5.917497E+03 -1.107991E+03
       420   3  4.103827E+06  1.354103E+04  2.054067E+04  1.174916E+03  1.271466E+03 -1.200014E+03
       420   4  4.049635E+06  1.761978E+03  1.497966E+04  1.375376E+03  1.055035E+04 -1.050788E+03
       420   5  4.049000E+06 -4.008307E+02  9.305335E+03  2.484398E+03  5.892923E+03 -1.108012E+03
       420   6  4.049645E+06  1.093785E+02  7.318928E+03  1.376322E+03  1.235482E+03 -1.200044E+03
       420   7  3.999433E+06 -1.068693E+04  2.716046E+03  1.108914E+03  1.053720E+04 -1.050805E+03
       420   8  3.996809E+06 -1.334227E+04 -3.441491E+03  2.451865E+03  5.868351E+03 -1.108033E+03
       420   9  3.995466E+06 -1.332249E+04 -5.903031E+03  1.577709E+03  1.199501E+03 -1.200073E+03
       420  10  4.099839E+06  1.421067E+04  2.724289E+04  1.641867E+03  8.013866E-11  6.652611E-11
       420  11  4.101194E+06  1.254040E+04  2.205190E+04  2.516939E+03 -6.839363E-11 -1.144984E-09
       420  12  4.103827E+06  1.354103E+04  2.054067E+04  1.174918E+03 -1.123100E-09 -1.804168E-09
       420  13  4.049635E+06  1.761947E+03  1.497945E+04  1.375384E+03  4.720834E-10 -4.548892E-11
       420  14  4.049000E+06 -4.008413E+02  9.305268E+03  2.484403E+03 -2.468093E-11 -1.142988E-09
       420  15  4.049645E+06  1.093766E+02  7.318922E+03  1.376323E+03  1.649962E-09  2.252800E-10
       420  16  3.999433E+06 -1.068696E+04  2.715836E+03  1.108923E+03  8.092772E-10  1.335643E-10
       420  17  3.996809E+06 -1.334228E+04 -3.441557E+03  2.451871E+03 -1.290874E-09 -1.473910E-09
       420  18  3.995466E+06 -1.332249E+04 -5.903036E+03  1.577710E+03  1.095207E-09 -9.038112E-10
       420  19  4.099839E+06  1.421070E+04  2.724310E+04  1.641858E+03 -1.056350E+04  1.050771E+03
       420  20  4.101194E+06  1.254041E+04  2.205196E+04  2.516933E+03 -5.917497E+03  1.107991E+03
       420  21  4.103827E+06  1.354103E+04  2.054067E+04  1.174916E+03 -1.271466E+03  1.200014E+03
       420  22  4.049635E+06  1.761978E+03  1.497966E+04  1.375376E+03 -1.055035E+04  1.050788E+03
       420  23  4.049000E+06 -4.008307E+02  9.305335E+03  2.484398E+03 -5.892923E+03  1.108012E+03
       420  24  4.049645E+06  1.093785E+02  7.318928E+03  1.376322E+03 -1.235482E+03  1.200044E+03
       420  25  3.999433E+06 -1.068693E+04  2.716046E+03  1.108914E+03 -1.053720E+04  1.050805E+03
       420  26  3.996809E+06 -1.334227E+04 -3.441491E+03  2.451865E+03 -5.868351E+03  1.108033E+03
       420  27  3.995466E+06 -1.332249E+04 -5.903031E+03  1.577709E+03 -1.199501E+03  1.200073E+03
       421   1  4.110233E+06  1.519401E+04  2.193847E+04  1.161954E+03 -4.209281E+01 -1.258476E+03
       421   2  4.113401E+06  1.561408E+04  2.395847E+04  3.048252E+03 -4.152245E+03 -1.373975E+03
       421   3  4.117688E+06  1.831143E+04  2.921428E+04  7.728742E+02 -8.262378E+03 -1.530065E+03
       421   4  4.049610E+06  1.611575E+02  7.126160E+03  9.441861E+02 -7.327494E+01 -1.258505E+03
       421   5  4.049046E+06 -3.424410E+02  8.241917E+03  3.024521E+03 -4.196766E+03 -1.374017E+03
       421   6  4.049602E+06  1.433702E+03  1.260292E+04  9.431550E+02 -8.320215E+03 -1.530125E+03
       421   7  3.988990E+06 -1.487197E+04 -7.686414E+03  7.264393E+02 -1.044541E+02 -1.258534E+03
       421   8  3.984694E+06 -1.629926E+04 -7.474935E+03  3.000793E+03 -4.241283E+03 -1.374060E+03
       421   9  3.981520E+06 -1.544436E+04 -4.008763E+03  1.113416E+03 -8.378044E+03 -1.530185E+03
       421  10  4.110233E+06  1.519401E+04  2.193846E+04  1.161954E+03 -1.470505E-09 -6.319862E-10
       421  11  4.113401E+06  1.561407E+04  2.395843E+04  3.048247E+03  1.681747E-09  1.237934E-09
       421  12  4.117688E+06  1.831141E+04  2.921415E+04  7.728641E+02  7.440197E-10 -3.678288E-10
       421  13  4.049610E+06  1.611558E+02  7.126157E+03  9.441860E+02  3.326758E-09  1.620311E-09
       421  14  4.049046E+06 -3.424478E+02  8.241881E+03  3.024517E+03  3.258692E-09  2.303254E-09
       421  15  4.049602E+06  1.433681E+03  1.260279E+04  9.431447E+02  5.613026E-10 -7.985707E-11
       421  16  3.988990E+06 -1.487197E+04 -7.686417E+03  7.264391E+02  2.265311E-09  9.494233E-10
       421  17  3.984694E+06 -1.629927E+04 -7.474972E+03  3.000788E+03 -9.519613E-10  1.164172E-10
       421  18  3.981520E+06 -1.544439E+04 -4.008899E+03  1.113406E+03 -1.071727E-09 -3.879369E-10
       421  19  4.110233E+06  1.519401E+04  2.193847E+04  1.161954E+03  4.209281E+01  1.258476E+03
       421  20  4.113401E+06  1.561408E+04  2.395847E+04  3.048252E+03  4.152245E+03  1.373975E+03
       421  21  4.117688E+06  1.831143E+04  2.921428E+04  7.728742E+02  8.262378E+03  1.530065E+03
       421  22  4.049610E+06  1.611575E+02  7.126160E+03  9.441861E+02  7.327494E+01  1.258505E+03
       421  23  4.049046E+06 -3.424410E+02  8.241917E+03  3.024521E+03  4.196766E+03  1.374017E+03
       421  24  4.049602E+06  1.433702E+03  1.260292E+04  9.431550E+02  8.320215E+03  1.530125E+03
       421  25  3.988990E+06 -1.487197E+04 -7.686414E+03  7.264393E+02  1.044541E+02  1.258534E+03
       421  26  3.984694E+06 -1.629926E+04 -7.474935E+03  3.000793E+03  4.241283E+03  1.374060E+03
       421  27  3.981520E+06 -1.544436E+04 -4.008763E+03  1.113416E+03  8.378044E+03  1.530185E+03
       422   1  4.129599E+06  1.915079E+04  3.497399E+04  1.737113E+03 -1.081397E+04 -1.635307E+03
       422   2  4.132758E+06  1.880086E+04  4.628743E+04  3.394407E+03 -2.375733E+04 -1.835234E+03
       422   3  4.141486E+06  3.392111E+04  6.986107E+04 -1.610226E+03 -3.670073E+04 -2.056359E+03
       422   4  4.050595E+06 -4.427905E+02  1.566735E+04  3.919744E+02 -1.087322E+04 -1.635347E+03
       422   5  4.047786E+06 -2.266178E+03  2.553735E+04  3.717185E+03 -2.382221E+04 -1.835324E+03
       422   6  4.050548E+06  1.138283E+04  4.767264E+04  3.803927E+02 -3.677111E+04 -2.056569E+03
       422   7  3.971596E+06 -2.003682E+04 -3.639745E+03 -9.529953E+02 -1.093247E+04 -1.635387E+03
       422   8  3.962820E+06 -2.333375E+04  4.786733E+03  4.039918E+03 -2.388708E+04 -1.835414E+03
       422   9  3.959617E+06 -1.115604E+04  2.548362E+04  2.370719E+03 -3.684148E+04 -2.056779E+03
       422  10  4.129599E+06  1.915076E+04  3.497377E+04  1.737099E+03  4.160020E-10  3.879373E-10
       422  11  4.132757E+06  1.880071E+04  4.628637E+04  3.394372E+03 -2.270695E-09 -9.110990E-11
       422  12  4.141484E+06  3.392075E+04  6.985854E+04 -1.610286E+03  2.992342E-10  7.306452E-10
       422  13  4.050595E+06 -4.428248E+02  1.566713E+04  3.919601E+02 -4.722494E-10  1.017597E-10
       422  14  4.047785E+06 -2.266333E+03  2.553628E+04  3.717150E+03 -1.009635E-09  3.901532E-10
       422  15  4.050546E+06  1.138247E+04  4.767011E+04  3.803318E+02 -1.231536E-10 -2.398333E-10
       422  16  3.971596E+06 -2.003686E+04 -3.639973E+03 -9.530096E+02 -1.247753E-09 -1.793796E-09
       422  17  3.962819E+06 -2.333390E+04  4.785661E+03  4.039883E+03 -2.760981E-09  8.500007E-10
       422  18  3.959615E+06 -1.115641E+04  2.548108E+04  2.370658E+03  1.764422E-10  3.408210E-10
       422  19  4.129599E+06  1.915079E+04  3.497399E+04  1.737113E+03  1.081397E+04  1.635307E+03
       422  20  4.132758E+06  1.880086E+04  4.628743E+04  3.394407E+03  2.375733E+04  1.835234E+03
       422  21  4.141486E+06  3.392111E+04  6.986107E+04 -1.610226E+03  3.670073E+04  2.056359E+03
       422  22  4.050595E+06 -4.427905E+02  1.566735E+04  3.919744E+02  1.087322E+04  1.635347E+03
       422  23  4.047786E+06 -2.266178E+03  2.553735E+04  3.717185E+03  2.382221E+04  1.835324E+03
       422  24  4.050548E+06  1.138283E+04  4.767264E+04  3.803927E+02  3.677111E+04  2.056569E+03
       422  25  3.971596E+06 -2.003682E+04 -3.639745E+03 -9.529953E+02  1.093247E+04  1.635387E+03
       422  26  3.962820E+06 -2.333375E+04  4.786733E+03  4.039918E+03  2.388708E+04  1.835414E+03
       422  27  3.959617E+06 -1.115604E+04  2.548362E+04  2.370719E+03  3.684148E+04  2.056779E+03
       423   1  4.165181E+06  2.298605E+04  8.640182E+04  9.192120E+03 -4.628971E+04 -2.271561E+03
       423   2  4.155868E+06  1.168769E+04  1.270463E+05  2.484143E+02 -9.756810E+04 -2.633972E+03
       423   3  4.182977E+06  1.194824E+05  2.307074E+05 -1.881119E+04 -1.488498E+05 -2.729805E+03
       423   4  4.057440E+06 -3.754522E+03  6.007087E+04 -3.431020E+02 -4.643328E+04 -2.271035E+03
       423   5  4.039113E+06 -1.724618E+04  9.854506E+04  4.657979E+03 -9.761391E+04 -2.634759E+03
       423   6  4.057197E+06  8.834990E+04  1.999769E+05 -4.565892E+02 -1.487972E+05 -2.734172E+03
       423   7  3.949710E+06 -3.049561E+04  3.373911E+04 -9.876678E+03 -4.657682E+04 -2.270504E+03
       423   8  3.922370E+06 -4.618098E+04  7.004285E+04  9.066714E+03 -9.765972E+04 -2.635547E+03
       423   9  3.931431E+06  5.721752E+04  1.692453E+05  1.789431E+04 -1.487445E+05 -2.738538E+03
       423  10  4.165179E+06  2.298547E+04  8.639781E+04  9.192035E+03 -3.813051E-10 -3.310284E-10
       423  11  4.155858E+06  1.168515E+04  1.270285E+05  2.482076E+02  4.871886E-10 -2.696729E-09
       423  12  4.182953E+06  1.194765E+05  2.306661E+05 -1.881152E+04  5.591188E-10 -1.210006E-09
       423  13  4.057438E+06 -3.755102E+03  6.006683E+04 -3.431868E+02  4.052197E-10 -3.017775E-10
       423  14  4.039103E+06 -1.724872E+04  9.852726E+04  4.657772E+03  3.132407E-10 -9.342911E-10
       423  15  4.057173E+06  8.834399E+04  1.999355E+05 -4.569163E+02  1.082267E-09 -1.834872E-09
       423  16  3.949708E+06 -3.049619E+04  3.373505E+04 -9.876764E+03  6.077235E-10 -1.371160E-10
       423  17  3.922359E+06 -4.618352E+04  7.002503E+04  9.066507E+03  2.711933E-09  3.280209E-09
       423  18  3.931408E+06  5.721162E+04  1.692040E+05  1.789398E+04  1.669392E-09  1.656818E-10
       423  19  4.165181E+06  2.298605E+04  8.640182E+04  9.192120E+03  4.628971E+04  2.271561E+03
       423  20  4.155868E+06  1.168769E+04  1.270463E+05  2.484143E+02  9.756810E+04  2.633972E+03
       423  21  4.182977E+06  1.194824E+05  2.307074E+05 -1.881119E+04  1.488498E+05  2.729805E+03
       423  22  4.057440E+06 -3.754522E+03  6.007087E+04 -3.431020E+02  4.643328E+04  2.271035E+03
       423  23  4.039113E+06 -1.724618E+04  9.854506E+04  4.657979E+03  9.761391E+04  2.634759E+03
       423  24  4.057197E+06  8.834990E+04  1.999769E+05 -4.565892E+02  1.487972E+05  2.734172E+03
       423  25  3.949710E+06 -3.049561E+04  3.373911E+04 -9.876678E+03  4.657682E+04  2.270504E+03
       423  26  3.922370E+06 -4.618098E+04  7.004285E+04  9.066714E+03  9.765972E+04  2.635547E+03
       423  27  3.931431E+06  5.721752E+04  1.692453E+05  1.789431E+04  1.487445E+05  2.738538E+03
       424   1  4.256469E+06  8.098068E+03  2.798113E+05  6.901080E+04 -1.873583E+05 -3.516684E+03
       424   2  4.141967E+06 -9.097710E+04  4.182948E+05 -3.475017E+04 -3.941632E+05 -4.373107E+03
       424   3  4.282295E+06  7.231240E+05  9.192081E+05 -1.542866E+05 -6.009642E+05 -2.132011E+03
       424   4  4.106050E+06 -2.943104E+04  2.430484E+05 -1.275139E+03 -1.880484E+05 -3.496615E+03
       424   5  3.978038E+06 -1.314631E+05  3.783678E+05  6.038575E+03 -3.937843E+05 -4.398461E+03
       424   6  4.104715E+06  6.795791E+05  8.754407E+05 -2.400337E+03 -5.995114E+05 -2.275978E+03
       424   7  3.955661E+06 -6.694341E+04  2.062866E+05 -7.154412E+04 -1.887383E+05 -3.476387E+03
       424   8  3.814136E+06 -1.719448E+05  3.384398E+05  4.681659E+04 -3.934054E+05 -4.423772E+03
       424   9  3.927212E+06  6.361182E+05  8.316833E+05  1.494428E+05 -5.980589E+05 -2.419273E+03
       424  10  4.256432E+06  8.088711E+03  2.797457E+05  6.901028E+04 -1.435418E-09 -1.548958E-09
       424  11  4.141801E+06 -9.101847E+04  4.180048E+05 -3.475156E+04 -1.604972E-09 -3.258622E-09
       424  12  4.281910E+06  7.230278E+05  9.185340E+05 -1.542877E+05 -1.261709E-10 -7.093178E-10
       424  13  4.106012E+06 -2.944047E+04  2.429824E+05 -1.275668E+03 -3.137639E-09 -6.074863E-09
       424  14  3.977872E+06 -1.315044E+05  3.780783E+05  6.037183E+03  4.385128E-09  3.316169E-09
       424  15  4.104331E+06  6.794834E+05  8.747697E+05 -2.401434E+03  4.223990E-10 -4.566244E-11
       424  16  3.955623E+06 -6.695291E+04  2.062201E+05 -7.154465E+04  1.273689E-09 -2.226747E-09
       424  17  3.813971E+06 -1.719861E+05  3.381508E+05  4.681519E+04  2.720099E-09  2.804973E-09
       424  18  3.926830E+06  6.360229E+05  8.310153E+05  1.494417E+05  8.920913E-10 -1.076761E-09
       424  19  4.256469E+06  8.098068E+03  2.798113E+05  6.901080E+04  1.873583E+05  3.516684E+03
       424  20  4.141967E+06 -9.097710E+04  4.182948E+05 -3.475017E+04  3.941632E+05  4.373107E+03
       424  21  4.282295E+06  7.231240E+05  9.192081E+05 -1.542866E+05  6.009642E+05  2.132011E+03
       424  22  4.106050E+06 -2.943104E+04  2.430484E+05 -1.275139E+03  1.880484E+05  3.496615E+03
       424  23  3.978038E+06 -1.314631E+05  3.783678E+05  6.038575E+03  3.937843E+05  4.398461E+03
       424  24  4.104715E+06  6.795791E+05  8.754407E+05 -2.400337E+03  5.995114E+05  2.275978E+03
       424  25  3.955661E+06 -6.694341E+04  2.062866E+05 -7.154412E+04  1.887383E+05  3.476387E+03
       424  26  3.814136E+06 -1.719448E+05  3.384398E+05  4.681659E+04  3.934054E+05  4.423772E+03
       424  27  3.927212E+06  6.361182E+05  8.316833E+05  1.494428E+05  5.980589E+05  2.419273E+03
       425   1  5.798646E+05  1.885511E+05  1.752297E+05  5.250178E+04  6.412744E+04 -1.113293E+04
       425   2  5.270148E+05  1.772759E+05  1.326485E+05  5.299857E+04  3.124060E+04 -3.836829E+04
       425   3  4.784403E+05  1.659272E+05  1.114823E+05  6.151675E+04 -1.670118E+03 -4.783921E+04
       425   4 -2.406696E+05 -1.347664E+04 -1.474362E+04  6.036066E+04 -1.034307E+04 -1.126735E+04
       425   5 -2.396082E+05 -3.997123E+03 -7.331814E+03  5.633786E+04 -6.530384E+03 -3.844447E+04
       425   6 -2.406437E+05 -9.619837E+02 -3.981835E+03  6.033591E+04 -2.745553E+03 -4.784659E+04
       425   7 -1.060570E+06 -2.155484E+05 -2.047411E+05  6.820879E+04 -8.471593E+04 -1.140374E+04
       425   8 -1.005657E+06 -1.853026E+05 -1.473305E+05  5.967263E+04 -4.425601E+04 -3.852111E+04
       425   9 -9.592142E+05 -1.678772E+05 -1.194597E+05  5.915621E+04 -3.819786E+03 -4.785398E+04
       425  10  5.798601E+05  1.885498E+05  1.752217E+05  5.250235E+04  4.338203E-09 -3.194265E-09
       425  11  5.270134E+05  1.772741E+05  1.326439E+05  5.299954E+04  2.128534E-09 -5.967312E-09
       425  12  4.784397E+05  1.659247E+05  1.114780E+05  6.151668E+04  4.531683E-10 -4.949402E-09
       425  13 -2.406697E+05 -1.347680E+04 -1.474406E+04  6.036056E+04  4.499298E-10  1.364271E-09
       425  14 -2.396087E+05 -3.998722E+03 -7.334671E+03  5.633766E+04  4.464125E-10 -2.919174E-09
       425  15 -2.406443E+05 -9.644437E+02 -3.986151E+03  6.033580E+04  8.306472E-10 -4.594797E-09
       425  16 -1.060578E+06 -2.155505E+05 -2.047549E+05  6.820801E+04 -5.215884E-09  6.208477E-10
       425  17 -1.005660E+06 -1.853047E+05 -1.473370E+05  5.967126E+04 -1.548715E-09 -5.093154E-09
       425  18 -9.592149E+05 -1.678796E+05 -1.194641E+05  5.915607E+04 -3.839360E-10 -4.870717E-09
       425  19  5.798646E+05  1.885511E+05  1.752297E+05  5.250178E+04 -6.412744E+04  1.113293E+04
       425  20  5.270148E+05  1.772759E+05  1.326485E+05  5.299857E+04 -3.124060E+04  3.836829E+04
       425  21  4.784403E+05  1.659272E+05  1.114823E+05  6.151675E+04  1.670118E+03  4.783921E+04
       425  22 -2.406696E+05 -1.347664E+04 -1.474362E+04  6.036066E+04  1.034307E+04  1.126735E+04
       425  23 -2.396082E+05 -3.997123E+03 -7.331814E+03  5.633786E+04  6.530384E+03  3.844447E+04
       425  24 -2.406437E+05 -9.619837E+02 -3.981835E+03  6.033591E+04  2.745553E+03  4.784659E+04
       425  25 -1.060570E+06 -2.155484E+05 -2.047411E+05  6.820879E+04  8.471593E+04  1.140374E+04
       425  26 -1.005657E+06 -1.853026E+05 -1.473305E+05  5.967263E+04  4.425601E+04  3.852111E+04
       425  27 -9.592142E+05 -1.678772E+05 -1.194597E+05  5.915621E+04  3.819786E+03  4.785398E+04
       426   1  4.459498E+05  1.580075E+05  1.046985E+05  6.123788E+04 -9.755200E+02 -4.750134E+04
       426   2  3.950712E+05  1.460550E+05  9.387380E+04  5.682561E+04 -4.393895E+03 -4.709134E+04
       426   3  3.446927E+05  1.343933E+05  8.534433E+04  6.170597E+04 -7.817223E+03 -4.462941E+04
       426   4 -2.402222E+05 -7.459859E+02 -2.993914E+03  6.062061E+04 -2.230542E+03 -4.750896E+04
       426   5 -2.400928E+05 -6.681810E+01 -1.634620E+03  5.597299E+04 -1.411428E+03 -4.708951E+04
       426   6 -2.402005E+05  1.678298E+02 -9.218646E+02  6.061859E+04 -5.974735E+02 -4.461705E+04
       426   7 -9.259249E+05 -1.595227E+05 -1.106977E+05  6.000379E+04 -3.484228E+03 -4.751658E+04
       426   8 -8.748521E+05 -1.462078E+05 -9.715104E+04  5.512105E+04  1.568111E+03 -4.708769E+04
       426   9 -8.247495E+05 -1.340735E+05 -8.719401E+04  5.953207E+04  6.615756E+03 -4.460470E+04
       426  10  4.459492E+05  1.580051E+05  1.046942E+05  6.123784E+04 -5.222827E-09 -4.783327E-09
       426  11  3.950706E+05  1.460526E+05  9.386960E+04  5.682545E+04 -7.270350E-10  8.229580E-10
       426  12  3.446921E+05  1.343911E+05  8.534047E+04  6.170569E+04  2.187778E-09  1.082218E-09
       426  13 -2.402228E+05 -7.484107E+02 -2.998165E+03  6.062052E+04  1.065733E-09 -2.394961E-09
       426  14 -2.400934E+05 -6.919949E+01 -1.638790E+03  5.597294E+04  5.855097E-10 -5.714118E-10
       426  15 -2.402011E+05  1.656923E+02 -9.256057E+02  6.061857E+04  2.224239E-10 -4.000328E-09
       426  16 -9.259255E+05 -1.595251E+05 -1.107020E+05  6.000366E+04  4.577701E-09  8.694700E-10
       426  17 -8.748527E+05 -1.462102E+05 -9.715521E+04  5.512110E+04  2.130171E-10  1.608826E-09
       426  18 -8.247501E+05 -1.340757E+05 -8.719783E+04  5.953231E+04 -3.703536E-09  3.260715E-11
       426  19  4.459498E+05  1.580075E+05  1.046985E+05  6.123788E+04  9.755200E+02  4.750134E+04
       426  20  3.950712E+05  1.460550E+05  9.387380E+04  5.682561E+04  4.393895E+03  4.709134E+04
       426  21  3.446927E+05  1.343933E+05  8.534433E+04  6.170597E+04  7.817223E+03  4.462941E+04
       426  22 -2.402222E+05 -7.459859E+02 -2.993914E+03  6.062061E+04  2.230542E+03  4.750896E+04
       426  23 -2.400928E+05 -6.681810E+01 -1.634620E+03  5.597299E+04  1.411428E+03  4.708951E+04
       426  24 -2.402005E+05  1.678298E+02 -9.218646E+02  6.061859E+04  5.974735E+02  4.461705E+04
       426  25 -9.259249E+05 -1.595227E+05 -1.106977E+05  6.000379E+04  3.484228E+03  4.751658E+04
       426  26 -8.748521E+05 -1.462078E+05 -9.715104E+04  5.512105E+04 -1.568111E+03  4.708769E+04
       426  27 -8.247495E+05 -1.340735E+05 -8.719401E+04  5.953207E+04 -6.615756E+03  4.460470E+04
       427   1  3.127695E+05  1.269886E+05  8.041250E+04  6.164959E+04 -7.663150E+03 -4.252033E+04
       427   2  2.620998E+05  1.153198E+05  7.288666E+04  5.686592E+04 -7.963263E+03 -3.891526E+04
       427   3  2.114595E+05  1.037490E+05  6.557022E+04  6.152621E+04 -8.265046E+03 -3.507245E+04
       427   4 -2.401540E+05  1.857633E+02 -6.985669E+02  6.065237E+04 -4.626287E+02 -4.250725E+04
       427   5 -2.401161E+05  2.200660E+02 -3.980733E+02  5.593009E+04 -2.722090E+02 -3.889987E+04
       427   6 -2.401367E+05  2.673052E+02 -2.289762E+02  6.065220E+04 -8.348181E+01 -3.505464E+04
       427   7 -7.927696E+05 -1.266312E+05 -8.181477E+04  5.965589E+04  6.731747E+03 -4.249419E+04
       427   8 -7.420778E+05 -1.148913E+05 -7.368684E+04  5.499488E+04  7.412884E+03 -3.888449E+04
       427   9 -6.915272E+05 -1.032237E+05 -6.603134E+04  5.977873E+04  8.092381E+03 -3.503684E+04
       427  10  3.127690E+05  1.269866E+05  8.040899E+04  6.164933E+04 -4.028531E-10  2.281861E-09
       427  11  2.620993E+05  1.153181E+05  7.288369E+04  5.686567E+04  1.606712E-09  2.287339E-09
       427  12  2.114591E+05  1.037476E+05  6.556778E+04  6.152598E+04  7.212094E-09 -1.444189E-09
       427  13 -2.401545E+05  1.838232E+02 -7.019623E+02  6.065235E+04  1.626579E-10 -4.864277E-09
       427  14 -2.401165E+05  2.184413E+02 -4.009167E+02  5.593008E+04  1.787019E-09  1.370564E-09
       427  15 -2.401370E+05  2.659858E+02 -2.312852E+02  6.065220E+04  7.488515E-11  3.281502E-09
       427  16 -7.927701E+05 -1.266332E+05 -8.181825E+04  5.965612E+04  5.624583E-10  1.310327E-09
       427  17 -7.420783E+05 -1.148929E+05 -7.368979E+04  5.499512E+04 -3.104574E-09  3.130688E-09
       427  18 -6.915276E+05 -1.032251E+05 -6.603377E+04  5.977896E+04 -9.131138E-09 -1.831737E-09
       427  19  3.127695E+05  1.269886E+05  8.041250E+04  6.164959E+04  7.663150E+03  4.252033E+04
       427  20  2.620998E+05  1.153198E+05  7.288666E+04  5.686592E+04  7.963263E+03  3.891526E+04
       427  21  2.114595E+05  1.037490E+05  6.557022E+04  6.152621E+04  8.265046E+03  3.507245E+04
       427  22 -2.401540E+05  1.857633E+02 -6.985669E+02  6.065237E+04  4.626287E+02  4.250725E+04
       427  23 -2.401161E+05  2.200660E+02 -3.980733E+02  5.593009E+04  2.722090E+02  3.889987E+04
       427  24 -2.401367E+05  2.673052E+02 -2.289762E+02  6.065220E+04  8.348181E+01  3.505464E+04
       427  25 -7.927696E+05 -1.266312E+05 -8.181477E+04  5.965589E+04 -6.731747E+03  4.249419E+04
       427  26 -7.420778E+05 -1.148913E+05 -7.368684E+04  5.499488E+04 -7.412884E+03  3.888449E+04
       427  27 -6.915272E+05 -1.032237E+05 -6.603134E+04  5.977873E+04 -8.092381E+03  3.503684E+04
       428   1  1.795897E+05  9.641015E+04  6.076652E+04  6.147474E+04 -8.232826E+03 -3.275740E+04
       428   2  1.289213E+05  8.479677E+04  5.350667E+04  5.665351E+04 -8.244640E+03 -2.878143E+04
       428   3  7.822269E+04  7.324059E+04  4.625423E+04  6.129796E+04 -8.257402E+03 -2.477814E+04
       428   4 -2.401281E+05  2.739780E+02 -1.762112E+02  6.065702E+04 -5.228860E+01 -3.273894E+04
       428   5 -2.401001E+05  2.636885E+02 -1.077458E+02  5.592399E+04 -8.112715E+00 -2.876191E+04
       428   6 -2.401154E+05  3.007270E+02 -7.120078E+01  6.065698E+04  3.511445E+01 -2.475754E+04
       428   7 -6.596681E+05 -9.587027E+04 -6.112158E+04  5.983976E+04  8.122951E+03 -3.272051E+04
       428   8 -6.089839E+05 -8.427563E+04 -5.372415E+04  5.519485E+04  8.223725E+03 -2.874240E+04
       428   9 -5.583512E+05 -7.264377E+04 -4.639805E+04  6.001628E+04  8.323557E+03 -2.473696E+04
       428  10  1.795893E+05  9.640898E+04  6.076437E+04  6.147453E+04  2.041102E-09 -1.006098E-09
       428  11  1.289210E+05  8.479586E+04  5.350499E+04  5.665331E+04  2.086219E-09  6.765559E-09
       428  12  7.822245E+04  7.323991E+04  4.625294E+04  6.129780E+04  4.307428E-09  4.945024E-09
       428  13 -2.401284E+05  2.728271E+02 -1.782252E+02  6.065702E+04 -5.254059E-10 -1.728456E-10
       428  14 -2.401003E+05  2.628003E+02 -1.093002E+02  5.592399E+04  8.870714E-10  6.120582E-09
       428  15 -2.401156E+05  3.000689E+02 -7.235248E+01  6.065698E+04 -1.434659E-09  2.493284E-09
       428  16 -6.596685E+05 -9.587143E+04 -6.112371E+04  5.983997E+04 -2.322056E-09 -1.781474E-09
       428  17 -6.089842E+05 -8.427653E+04 -5.372583E+04  5.519504E+04 -3.596439E-09  7.212200E-10
       428  18 -5.583514E+05 -7.264444E+04 -4.639933E+04  6.001644E+04 -6.123611E-09  2.750303E-10
       428  19  1.795897E+05  9.641015E+04  6.076652E+04  6.147474E+04  8.232826E+03  3.275740E+04
       428  20  1.289213E+05  8.479677E+04  5.350667E+04  5.665351E+04  8.244640E+03  2.878143E+04
       428  21  7.822269E+04  7.324059E+04  4.625423E+04  6.129796E+04  8.257402E+03  2.477814E+04
       428  22 -2.401281E+05  2.739780E+02 -1.762112E+02  6.065702E+04  5.228860E+01  3.273894E+04
       428  23 -2.401001E+05  2.636885E+02 -1.077458E+02  5.592399E+04  8.112715E+00  2.876191E+04
       428  24 -2.401154E+05  3.007270E+02 -7.120078E+01  6.065698E+04 -3.511445E+01  2.475754E+04
       428  25 -6.596681E+05 -9.587027E+04 -6.112158E+04  5.983976E+04 -8.122951E+03  3.272051E+04
       428  26 -6.089839E+05 -8.427563E+04 -5.372415E+04  5.519485E+04 -8.223725E+03  2.874240E+04
       428  27 -5.583512E+05 -7.264377E+04 -4.639805E+04  6.001628E+04 -8.323557E+03  2.473696E+04
       429   1  4.634396E+04  6.590485E+04  4.143671E+04  6.123931E+04 -8.251747E+03 -2.243874E+04
       429   2 -4.334718E+03  5.429186E+04  3.415966E+04  5.640181E+04 -8.223817E+03 -1.842286E+04
       429   3 -5.506136E+04  4.272668E+04  2.685864E+04  6.103849E+04 -8.196444E+03 -1.441087E+04
       429   4 -2.401129E+05  3.059920E+02 -6.290021E+01  6.065884E+04  4.145181E+01 -2.241770E+04
       429   5 -2.400846E+05  2.901993E+02 -6.022329E+01  5.592163E+04  6.107888E+01 -1.840124E+04
       429   6 -2.401047E+05  3.239300E+02 -7.571417E+01  6.065881E+04  8.015079E+01 -1.438868E+04
       429   7 -5.264868E+05 -6.529660E+04 -4.156358E+04  6.007859E+04  8.330985E+03 -2.239666E+04
       429   8 -4.757783E+05 -5.371398E+04 -3.428076E+04  5.544161E+04  8.342960E+03 -1.837963E+04
       429   9 -4.251135E+05 -4.208037E+04 -2.701038E+04  6.027923E+04  8.354382E+03 -1.436650E+04
       429  10  4.634375E+04  6.590430E+04  4.143564E+04  6.123916E+04  7.965359E-08 -3.280125E-10
       429  11 -4.334881E+03  5.429148E+04  3.415890E+04  5.640169E+04  3.755539E-09 -3.451075E-09
       429  12 -5.506149E+04  4.272644E+04  2.685812E+04  6.103840E+04 -6.933078E-08 -1.509521E-09
       429  13 -2.401130E+05  3.054524E+02 -6.384450E+01  6.065884E+04 -1.461171E-10  7.412402E-09
       429  14 -2.400847E+05  2.898357E+02 -6.085953E+01  5.592164E+04  1.107169E-09 -8.820279E-10
       429  15 -2.401048E+05  3.237077E+02 -7.610320E+01  6.065881E+04 -7.765254E-10 -1.781010E-09
       429  16 -5.264870E+05 -6.529716E+04 -4.156465E+04  6.007874E+04 -8.055218E-08  2.486354E-09
       429  17 -4.757785E+05 -5.371436E+04 -3.428153E+04  5.544174E+04 -4.820870E-09 -6.797281E-10
       429  18 -4.251136E+05 -4.208061E+04 -2.701090E+04  6.027932E+04  6.843749E-08 -1.574822E-09
       429  19  4.634396E+04  6.590485E+04  4.143671E+04  6.123931E+04  8.251747E+03  2.243874E+04
       429  20 -4.334718E+03  5.429186E+04  3.415966E+04  5.640181E+04  8.223817E+03  1.842286E+04
       429  21 -5.506136E+04  4.272668E+04  2.685864E+04  6.103849E+04  8.196444E+03  1.441087E+04
       429  22 -2.401129E+05  3.059920E+02 -6.290021E+01  6.065884E+04 -4.145181E+01  2.241770E+04
       429  23 -2.400846E+05  2.901993E+02 -6.022329E+01  5.592163E+04 -6.107888E+01  1.840124E+04
       429  24 -2.401047E+05  3.239300E+02 -7.571417E+01  6.065881E+04 -8.015079E+01  1.438868E+04
       429  25 -5.264868E+05 -6.529660E+04 -4.156358E+04  6.007859E+04 -8.330985E+03  2.239666E+04
       429  26 -4.757783E+05 -5.371398E+04 -3.428076E+04  5.544161E+04 -8.342960E+03  1.837963E+04
       429  27 -4.251135E+05 -4.208037E+04 -2.701038E+04  6.027923E+04 -8.354382E+03  1.436650E+04
       430   1 -8.695223E+04  3.538498E+04  2.200884E+04  6.096989E+04 -8.188649E+03 -1.207423E+04
       430   2 -1.376234E+05  2.375354E+04  1.462046E+04  5.612933E+04 -7.990960E+03 -8.095172E+03
       430   3 -1.883770E+05  1.213657E+04  7.087909E+03  6.076028E+04 -7.793362E+03 -4.181006E+03
       430   4 -2.401057E+05  3.274930E+02 -9.241448E+01  6.065818E+04  8.898528E+01 -1.205178E+04
       430   5 -2.400730E+05  3.046257E+02 -1.494543E+02  5.592240E+04  1.524262E+02 -8.072838E+03
       430   6 -2.401022E+05  3.196037E+02 -2.576113E+02  6.065821E+04  2.157919E+02 -4.158790E+03
       430   7 -3.932353E+05 -3.473103E+04 -2.219378E+04  6.034654E+04  8.364663E+03 -1.202934E+04
       430   8 -3.425119E+05 -2.314473E+04 -1.491928E+04  5.571550E+04  8.294525E+03 -8.050508E+03
       430   9 -2.918245E+05 -1.149745E+04 -7.602928E+03  6.055615E+04  8.224308E+03 -4.136576E+03
       430  10 -8.695234E+04  3.538480E+04  2.200844E+04  6.096981E+04  1.429561E-08  2.919496E-09
       430  11 -1.376234E+05  2.375345E+04  1.462022E+04  5.612928E+04  1.096144E-08 -1.148847E-09
       430  12 -1.883770E+05  1.213653E+04  7.087762E+03  6.076026E+04  9.120570E-09 -2.700844E-09
       430  13 -2.401057E+05  3.273371E+02 -9.268741E+01  6.065818E+04  6.930594E-12  2.243753E-09
       430  14 -2.400730E+05  3.045557E+02 -1.495768E+02  5.592240E+04  1.453439E-09  6.399979E-09
       430  15 -2.401022E+05  3.195851E+02 -2.576439E+02  6.065822E+04  3.527967E-10  1.548053E-08
       430  16 -3.932354E+05 -3.473120E+04 -2.219418E+04  6.034662E+04 -1.403430E-08  1.910080E-09
       430  17 -3.425120E+05 -2.314482E+04 -1.491954E+04  5.571555E+04 -1.298029E-08 -1.042382E-08
       430  18 -2.918246E+05 -1.149748E+04 -7.603088E+03  6.055618E+04 -1.023797E-08 -6.276616E-09
       430  19 -8.695223E+04  3.538498E+04  2.200884E+04  6.096989E+04  8.188649E+03  1.207423E+04
       430  20 -1.376234E+05  2.375354E+04  1.462046E+04  5.612933E+04  7.990960E+03  8.095172E+03
       430  21 -1.883770E+05  1.213657E+04  7.087909E+03  6.076028E+04  7.793362E+03  4.181006E+03
       430  22 -2.401057E+05  3.274930E+02 -9.241448E+01  6.065818E+04 -8.898528E+01  1.205178E+04
       430  23 -2.400730E+05  3.046257E+02 -1.494543E+02  5.592240E+04 -1.524262E+02  8.072838E+03
       430  24 -2.401022E+05  3.196037E+02 -2.576113E+02  6.065821E+04 -2.157919E+02  4.158790E+03
       430  25 -3.932353E+05 -3.473103E+04 -2.219378E+04  6.034654E+04 -8.364663E+03  1.202934E+04
       430  26 -3.425119E+05 -2.314473E+04 -1.491928E+04  5.571550E+04 -8.294525E+03  8.050508E+03
       430  27 -2.918245E+05 -1.149745E+04 -7.602928E+03  6.055615E+04 -8.224308E+03  4.136576E+03
       431   1 -2.203140E+05  4.764941E+03  2.089363E+03  6.066352E+04 -7.754334E+03 -1.899906E+03
       431   2 -2.708621E+05 -7.019881E+03 -5.988389E+03  5.594142E+04 -6.294101E+03  1.704759E+03
       431   3 -3.217441E+05 -1.913800E+04 -1.511910E+04  6.065150E+04 -4.832454E+03  4.742005E+03
       431   4 -2.401178E+05  3.175325E+02 -3.389780E+02  6.064935E+04  2.605722E+02 -1.877621E+03
       431   5 -2.400514E+05  2.219218E+02 -5.977941E+02  5.593372E+04  5.496951E+02  1.723729E+03
       431   6 -2.401189E+05 -3.715217E+00 -1.096397E+03  6.065023E+04  8.403615E+02  4.757675E+03
       431   7 -2.599210E+05 -4.129857E+03 -2.767077E+03  6.063518E+04  8.275236E+03 -1.855337E+03
       431   8 -2.092396E+05  7.463698E+03  4.792943E+03  5.592603E+04  7.393821E+03  1.742698E+03
       431   9 -1.584870E+05  1.913023E+04  1.292620E+04  6.064896E+04  6.513900E+03  4.773345E+03
       431  10 -2.203140E+05  4.764921E+03  2.089243E+03  6.066351E+04 -1.624552E-08  9.243075E-10
       431  11 -2.708621E+05 -7.019895E+03 -5.988469E+03  5.594143E+04 -1.473485E-08 -2.548870E-09
       431  12 -3.217441E+05 -1.913803E+04 -1.511919E+04  6.065152E+04 -7.427620E-09  3.580518E-09
       431  13 -2.401178E+05  3.175287E+02 -3.389847E+02  6.064935E+04 -5.110909E-10  1.484770E-08
       431  14 -2.400514E+05  2.219186E+02 -5.978002E+02  5.593372E+04  1.448740E-09  1.170953E-08
       431  15 -2.401189E+05 -3.739710E+00 -1.096441E+03  6.065023E+04  7.019644E-10 -1.367089E-09
       431  16 -2.599211E+05 -4.129879E+03 -2.767212E+03  6.063520E+04  1.691876E-08 -1.798021E-09
       431  17 -2.092397E+05  7.463680E+03  4.792834E+03  5.592602E+04  1.349867E-08 -1.426471E-09
       431  18 -1.584871E+05  1.913019E+04  1.292608E+04  6.064894E+04  6.268644E-09 -8.597454E-09
       431  19 -2.203140E+05  4.764941E+03  2.089363E+03  6.066352E+04  7.754334E+03  1.899906E+03
       431  20 -2.708621E+05 -7.019881E+03 -5.988389E+03  5.594142E+04  6.294101E+03 -1.704759E+03
       431  21 -3.217441E+05 -1.913800E+04 -1.511910E+04  6.065150E+04  4.832454E+03 -4.742005E+03
       431  22 -2.401178E+05  3.175325E+02 -3.389780E+02  6.064935E+04 -2.605722E+02  1.877621E+03
       431  23 -2.400514E+05  2.219218E+02 -5.977941E+02  5.593372E+04 -5.496951E+02 -1.723729E+03
       431  24 -2.401189E+05 -3.715217E+00 -1.096397E+03  6.065023E+04 -8.403615E+02 -4.757675E+03
       431  25 -2.599210E+05 -4.129857E+03 -2.767077E+03  6.063518E+04 -8.275236E+03  1.855337E+03
       431  26 -2.092396E+05  7.463698E+03  4.792943E+03  5.592603E+04 -7.393821E+03 -1.742698E+03
       431  27 -1.584870E+05  1.913023E+04  1.292620E+04  6.064896E+04 -6.513900E+03 -4.773345E+03
       432   1 -3.540823E+05 -2.678416E+04 -2.112374E+04  6.030581E+04 -4.698447E+03  6.533748E+03
       432   2 -4.035380E+05 -4.029116E+04 -3.439401E+04  5.733496E+04  6.818131E+03  6.881073E+03
       432   3 -4.555759E+05 -5.790043E+04 -5.620328E+04  6.344875E+04  1.834662E+04  2.311970E+03
       432   4 -2.402729E+05 -8.047465E+01 -1.458590E+03  6.057191E+04  1.024082E+03  6.549454E+03
       432   5 -2.398650E+05 -1.212001E+03 -2.683914E+03  5.603584E+04  2.398602E+03  6.868817E+03
       432   6 -2.402789E+05 -4.683399E+03 -5.401705E+03  6.058437E+04  3.785877E+03  2.272291E+03
       432   7 -1.264506E+05  2.662254E+04  1.820624E+04  6.083805E+04  6.747628E+03  6.565163E+03
       432   8 -7.616626E+04  3.786558E+04  2.902500E+04  5.473634E+04 -2.022066E+03  6.856581E+03
       432   9 -2.493874E+04  4.853046E+04  4.539747E+04  5.771897E+04 -1.077989E+04  2.232753E+03
       432  10 -3.540824E+05 -2.678422E+04 -2.112386E+04  6.030583E+04 -3.510483E-09  2.426115E-09
       432  11 -4.035381E+05 -4.029122E+04 -3.439419E+04  5.733492E+04 -3.785176E-09 -2.182296E-09
       432  12 -4.555763E+05 -5.790052E+04 -5.620392E+04  6.344872E+04 -4.432275E-09 -1.623391E-10
       432  13 -2.402729E+05 -8.052099E+01 -1.458673E+03  6.057190E+04 -1.704733E-10  2.636187E-09
       432  14 -2.398651E+05 -1.212053E+03 -2.684014E+03  5.603582E+04  2.681288E-09 -8.403688E-09
       432  15 -2.402789E+05 -4.683408E+03 -5.401742E+03  6.058437E+04 -1.332878E-10  2.388816E-09
       432  16 -1.264507E+05  2.662248E+04  1.820607E+04  6.083801E+04  4.129388E-09 -1.336098E-09
       432  17 -7.616628E+04  3.786553E+04  2.902491E+04  5.473636E+04  2.429538E-09 -6.054417E-10
       432  18 -2.493886E+04  4.853042E+04  4.539724E+04  5.771898E+04  2.017795E-09 -3.179691E-09
       432  19 -3.540823E+05 -2.678416E+04 -2.112374E+04  6.030581E+04  4.698447E+03 -6.533748E+03
       432  20 -4.035380E+05 -4.029116E+04 -3.439401E+04  5.733496E+04 -6.818131E+03 -6.881073E+03
       432  21 -4.555759E+05 -5.790043E+04 -5.620328E+04  6.344875E+04 -1.834662E+04 -2.311970E+03
       432  22 -2.402729E+05 -8.047465E+01 -1.458590E+03  6.057191E+04 -1.024082E+03 -6.549454E+03
       432  23 -2.398650E+05 -1.212001E+03 -2.683914E+03  5.603584E+04 -2.398602E+03 -6.868817E+03
       432  24 -2.402789E+05 -4.683399E+03 -5.401705E+03  6.058437E+04 -3.785877E+03 -2.272291E+03
       432  25 -1.264506E+05  2.662254E+04  1.820624E+04  6.083805E+04 -6.747628E+03 -6.565163E+03
       432  26 -7.616626E+04  3.786558E+04  2.902500E+04  5.473634E+04  2.022066E+03 -6.856581E+03
       432  27 -2.493874E+04  4.853046E+04  4.539747E+04  5.771897E+04  1.077989E+04 -2.232753E+03
       433   1 -6.870822E+05 -2.570820E+04 -7.313867E+04 -2.529052E+04 -1.392792E+05 -4.545056E+03
       433   2 -6.813449E+05  1.628429E+05  3.837614E+04 -1.246830E+04 -9.308517E+04 -1.263230E+04
       433   3 -7.358227E+05  1.326816E+05  6.524629E+04  2.763298E+04 -4.692217E+04 -1.113279E+04
       433   4 -1.238840E+06 -1.633724E+05 -2.102707E+05  9.933347E+03 -1.435571E+05 -4.565322E+03
       433   5 -1.208379E+06  3.156463E+04 -9.080956E+04 -3.951709E+03 -9.418463E+04 -1.263801E+04
       433   6 -1.238740E+06  7.134172E+03 -5.825681E+04  9.443694E+03 -4.484101E+04 -1.112433E+04
       433   7 -1.790319E+06 -3.010546E+05 -3.474247E+05  4.512567E+04 -1.478312E+05 -4.586085E+03
       433   8 -1.735160E+06 -9.973393E+04 -2.200156E+05  4.557431E+03 -9.528313E+04 -1.264375E+04
       433   9 -1.741426E+06 -1.184309E+05 -1.817784E+05 -8.731029E+03 -4.276153E+04 -1.111600E+04
       433  10 -6.871030E+05 -2.571344E+04 -7.317520E+04 -2.529103E+04 -4.963701E-09  5.436280E-09
       433  11 -6.813542E+05  1.628404E+05  3.835954E+04 -1.246925E+04  2.953116E-11  1.417352E-08
       433  12 -7.358251E+05  1.326809E+05  6.524192E+04  2.763256E+04  1.932428E-09  4.854680E-09
       433  13 -1.238863E+06 -1.633779E+05 -2.103095E+05  9.932819E+03  3.232096E-10 -3.402178E-09
       433  14 -1.208389E+06  3.156207E+04 -9.082656E+04 -3.952668E+03  2.212308E-09 -4.630362E-09
       433  15 -1.238742E+06  7.133498E+03 -5.826083E+04  9.443292E+03  2.099556E-10 -5.914775E-09
       433  16 -1.790343E+06 -3.010605E+05 -3.474659E+05  4.512512E+04  4.955731E-09  1.412642E-09
       433  17 -1.735169E+06 -9.973655E+04 -2.200330E+05  4.556460E+03 -4.062341E-09  1.315059E-08
       433  18 -1.741428E+06 -1.184316E+05 -1.817820E+05 -8.731412E+03 -3.440334E-10  7.773606E-10
       433  19 -6.870822E+05 -2.570820E+04 -7.313867E+04 -2.529052E+04  1.392792E+05  4.545056E+03
       433  20 -6.813449E+05  1.628429E+05  3.837614E+04 -1.246830E+04  9.308517E+04  1.263230E+04
       433  21 -7.358227E+05  1.326816E+05  6.524629E+04  2.763298E+04  4.692217E+04  1.113279E+04
       433  22 -1.238840E+06 -1.633724E+05 -2.102707E+05  9.933347E+03  1.435571E+05  4.565322E+03
       433  23 -1.208379E+06  3.156463E+04 -9.080956E+04 -3.951709E+03  9.418463E+04  1.263801E+04
       433  24 -1.238740E+06  7.134172E+03 -5.825681E+04  9.443694E+03  4.484101E+04  1.112433E+04
       433  25 -1.790319E+06 -3.010546E+05 -3.474247E+05  4.512567E+04  1.478312E+05  4.586085E+03
       433  26 -1.735160E+06 -9.973393E+04 -2.200156E+05  4.557431E+03  9.528313E+04  1.264375E+04
       433  27 -1.741426E+06 -1.184309E+05 -1.817784E+05 -8.731029E+03  4.276153E+04  1.111600E+04
       434   1 -7.851161E+05  8.899227E+04  6.071787E+04  7.592176E+03 -3.530820E+04 -9.123009E+03
       434   2 -8.093766E+05  1.071731E+05  7.789476E+04 -5.044027E+03 -2.344111E+04 -9.106033E+03
       434   3 -8.421707E+05  9.706118E+04  8.028642E+04  1.425145E+04 -1.158044E+04 -7.949171E+03
       434   4 -1.227145E+06 -2.120645E+04 -4.794003E+04  1.070676E+04 -3.549256E+04 -9.124405E+03
       434   5 -1.222832E+06  4.093144E+03 -2.361417E+04 -5.304873E+03 -2.325065E+04 -9.105634E+03
       434   6 -1.227126E+06  1.024086E+03 -1.434191E+04  1.061673E+04 -1.101461E+04 -7.946772E+03
       434   7 -1.668995E+06 -1.314197E+05 -1.566123E+05  1.381894E+04 -3.567678E+04 -9.125804E+03
       434   8 -1.636132E+06 -9.899947E+04 -1.251357E+05 -5.565713E+03 -2.306031E+04 -9.105236E+03
       434   9 -1.611947E+06 -9.502400E+04 -1.089812E+05  6.984116E+03 -1.044913E+04 -7.944379E+03
       434  10 -7.851174E+05  8.899185E+04  6.071537E+04  7.591917E+03 -7.129419E-11 -6.958026E-09
       434  11 -8.093772E+05  1.071728E+05  7.789357E+04 -5.044199E+03  1.769845E-09  1.361997E-09
       434  12 -8.421709E+05  9.706107E+04  8.028605E+04  1.425138E+04 -1.837390E-09  1.107785E-08
       434  13 -1.227146E+06 -2.120688E+04 -4.794256E+04  1.070650E+04  1.364696E-10  1.057903E-08
       434  14 -1.222833E+06  4.092909E+03 -2.361534E+04 -5.305044E+03  2.799908E-09 -2.890955E-08
       434  15 -1.227127E+06  1.023986E+03 -1.434225E+04  1.061666E+04 -6.792406E-10  9.372618E-09
       434  16 -1.668996E+06 -1.314201E+05 -1.566149E+05  1.381868E+04  1.192663E-09 -9.731882E-09
       434  17 -1.636133E+06 -9.899971E+04 -1.251368E+05 -5.565882E+03 -5.317355E-09 -2.142022E-09
       434  18 -1.611947E+06 -9.502410E+04 -1.089815E+05  6.984049E+03  1.443672E-09  2.275983E-09
       434  19 -7.851161E+05  8.899227E+04  6.071787E+04  7.592176E+03  3.530820E+04  9.123009E+03
       434  20 -8.093766E+05  1.071731E+05  7.789476E+04 -5.044027E+03  2.344111E+04  9.106033E+03
       434  21 -8.421707E+05  9.706118E+04  8.028642E+04  1.425145E+04  1.158044E+04  7.949171E+03
       434  22 -1.227145E+06 -2.120645E+04 -4.794003E+04  1.070676E+04  3.549256E+04  9.124405E+03
       434  23 -1.222832E+06  4.093144E+03 -2.361417E+04 -5.304873E+03  2.325065E+04  9.105634E+03
       434  24 -1.227126E+06  1.024086E+03 -1.434191E+04  1.061673E+04  1.101461E+04  7.946772E+03
       434  25 -1.668995E+06 -1.314197E+05 -1.566123E+05  1.381894E+04  3.567678E+04  9.125804E+03
       434  26 -1.636132E+06 -9.899947E+04 -1.251357E+05 -5.565713E+03  2.306031E+04  9.105236E+03
       434  27 -1.611947E+06 -9.502400E+04 -1.089812E+05  6.984116E+03  1.044913E+04  7.944379E+03
       435   1 -9.102459E+05  7.596681E+04  6.597138E+04  1.210402E+04 -9.030039E+03 -7.147811E+03
       435   2 -9.411976E+05  7.121701E+04  6.355040E+04 -5.302021E+03 -6.009575E+03 -6.143906E+03
       435   3 -9.736346E+05  6.311363E+04  5.826958E+04  1.277052E+04 -2.991010E+03 -4.963983E+03
       435   4 -1.225534E+06 -2.637848E+03 -1.138970E+04  1.144480E+04 -8.724680E+03 -7.146553E+03
       435   5 -1.224784E+06  4.976778E+02 -6.094729E+03 -6.302202E+03 -5.646550E+03 -6.142218E+03
       435   6 -1.225531E+06  2.687099E+02 -3.700620E+03  1.143040E+04 -2.570165E+03 -4.961830E+03
       435   7 -1.540732E+06 -8.124989E+04 -8.875809E+04  1.078581E+04 -8.419476E+03 -7.145295E+03
       435   8 -1.508297E+06 -7.022764E+04 -7.574577E+04 -7.302019E+03 -5.283691E+03 -6.140530E+03
       435   9 -1.477369E+06 -6.258093E+04 -6.567550E+04  1.009074E+04 -2.149491E+03 -4.959678E+03
       435  10 -9.102460E+05  7.596673E+04  6.597113E+04  1.210397E+04 -1.291125E-09 -5.090087E-09
       435  11 -9.411977E+05  7.121696E+04  6.355026E+04 -5.302051E+03  3.211667E-09 -7.004490E-09
       435  12 -9.736346E+05  6.311360E+04  5.826952E+04  1.277051E+04  2.871576E-09 -7.585070E-09
       435  13 -1.225534E+06 -2.637923E+03 -1.138994E+04  1.144475E+04 -5.335682E-10 -2.035206E-09
       435  14 -1.224784E+06  4.976287E+02 -6.094860E+03 -6.302230E+03  7.564161E-10 -9.306974E-09
       435  15 -1.225531E+06  2.686817E+02 -3.700679E+03  1.143039E+04  3.546747E-10 -7.254486E-09
       435  16 -1.540732E+06 -8.124997E+04 -8.875832E+04  1.078576E+04  1.281988E-09 -8.603164E-09
       435  17 -1.508298E+06 -7.022768E+04 -7.574590E+04 -7.302045E+03 -6.934504E-09  4.943811E-09
       435  18 -1.477369E+06 -6.258096E+04 -6.567556E+04  1.009073E+04 -2.024628E-09  1.090259E-08
       435  19 -9.102459E+05  7.596681E+04  6.597138E+04  1.210402E+04  9.030039E+03  7.147811E+03
       435  20 -9.411976E+05  7.121701E+04  6.355040E+04 -5.302021E+03  6.009575E+03  6.143906E+03
       435  21 -9.736346E+05  6.311363E+04  5.826958E+04  1.277052E+04  2.991010E+03  4.963983E+03
       435  22 -1.225534E+06 -2.637848E+03 -1.138970E+04  1.144480E+04  8.724680E+03  7.146553E+03
       435  23 -1.224784E+06  4.976778E+02 -6.094729E+03 -6.302202E+03  5.646550E+03  6.142218E+03
       435  24 -1.225531E+06  2.687099E+02 -3.700620E+03  1.143040E+04  2.570165E+03  4.961830E+03
       435  25 -1.540732E+06 -8.124989E+04 -8.875809E+04  1.078581E+04  8.419476E+03  7.145295E+03
       435  26 -1.508297E+06 -7.022764E+04 -7.574577E+04 -7.302019E+03  5.283691E+03  6.140530E+03
       435  27 -1.477369E+06 -6.258093E+04 -6.567550E+04  1.009074E+04  2.149491E+03  4.959678E+03
       436   1 -1.049085E+06  4.373774E+04  4.021641E+04  1.259807E+04 -2.362595E+03 -4.255355E+03
       436   2 -1.082416E+06  3.560462E+04  3.311511E+04 -6.309907E+03 -1.429601E+03 -3.077169E+03
       436   3 -1.116379E+06  2.734302E+04  2.527354E+04  1.243957E+04 -4.973823E+02 -1.857561E+03
       436   4 -1.225330E+06 -1.974380E+02 -2.972987E+03  1.192062E+04 -1.975564E+03 -4.253292E+03
       436   5 -1.225011E+06  4.037306E+01 -1.908728E+03 -6.909328E+03 -1.028914E+03 -3.074953E+03
       436   6 -1.225329E+06  1.473153E+02 -1.594330E+03  1.191871E+04 -8.298902E+01 -1.855183E+03
       436   7 -1.401546E+06 -4.413493E+04 -4.616466E+04  1.124332E+04 -1.588643E+03 -4.251229E+03
       436   8 -1.367588E+06 -3.552539E+04 -3.693407E+04 -7.508637E+03 -6.283194E+02 -3.072736E+03
       436   9 -1.334268E+06 -2.704928E+04 -2.846308E+04  1.139794E+04  3.313315E+02 -1.852805E+03
       436  10 -1.049085E+06  4.373772E+04  4.021637E+04  1.259807E+04  9.967842E-10 -1.054768E-08
       436  11 -1.082416E+06  3.560461E+04  3.311509E+04 -6.309911E+03 -2.731520E-09  7.611799E-09
       436  12 -1.116379E+06  2.734302E+04  2.527353E+04  1.243957E+04 -1.076731E-08 -2.530850E-09
       436  13 -1.225330E+06 -1.974585E+02 -2.973029E+03  1.192061E+04 -4.432911E-11  1.951361E-09
       436  14 -1.225011E+06  4.036262E+01 -1.908747E+03 -6.909331E+03  2.698829E-09 -9.814259E-09
       436  15 -1.225329E+06  1.473116E+02 -1.594337E+03  1.191871E+04 -2.256365E-10 -9.638152E-09
       436  16 -1.401546E+06 -4.413495E+04 -4.616470E+04  1.124332E+04 -1.247982E-09  7.628405E-09
       436  17 -1.367588E+06 -3.552540E+04 -3.693408E+04 -7.508638E+03 -3.173215E-09  2.601827E-08
       436  18 -1.334268E+06 -2.704928E+04 -2.846309E+04  1.139794E+04  1.168835E-08  3.639126E-09
       436  19 -1.049085E+06  4.373774E+04  4.021641E+04  1.259807E+04  2.362595E+03  4.255355E+03
       436  20 -1.082416E+06  3.560462E+04  3.311511E+04 -6.309907E+03  1.429601E+03  3.077169E+03
       436  21 -1.116379E+06  2.734302E+04  2.527354E+04  1.243957E+04  4.973823E+02  1.857561E+03
       436  22 -1.225330E+06 -1.974380E+02 -2.972987E+03  1.192062E+04  1.975564E+03  4.253292E+03
       436  23 -1.225011E+06  4.037306E+01 -1.908728E+03 -6.909328E+03  1.028914E+03  3.074953E+03
       436  24 -1.225329E+06  1.473153E+02 -1.594330E+03  1.191871E+04  8.298902E+01  1.855183E+03
       436  25 -1.401546E+06 -4.413493E+04 -4.616466E+04  1.124332E+04  1.588643E+03  4.251229E+03
       436  26 -1.367588E+06 -3.552539E+04 -3.693407E+04 -7.508637E+03  6.283194E+02  3.072736E+03
       436  27 -1.334268E+06 -2.704928E+04 -2.846308E+04  1.139794E+04 -3.313315E+02  1.852805E+03
       437   1 -1.195040E+06  7.684149E+03  5.723078E+03  1.215899E+04 -2.100084E+02 -1.137165E+03
       437   2 -1.228959E+06 -9.436361E+02 -2.973093E+03 -7.122143E+03  7.842097E+02  9.105977E+01
       437   3 -1.263600E+06 -9.720103E+03 -1.247066E+04  1.196724E+04  1.778429E+03  1.309235E+03
       437   4 -1.225345E+06  1.472762E+02 -1.614831E+03  1.207702E+04  2.018121E+02 -1.134769E+03
       437   5 -1.224984E+06  4.786290E+01 -1.996803E+03 -7.107219E+03  1.192645E+03  9.343156E+01
       437   6 -1.225346E+06 -1.996768E+02 -3.177848E+03  1.207904E+04  2.183533E+03  1.311587E+03
       437   7 -1.255649E+06 -7.389664E+03 -8.952806E+03  1.199505E+04  6.136125E+02 -1.132374E+03
       437   8 -1.221008E+06  1.039361E+03 -1.020513E+03 -7.092294E+03  1.601082E+03  9.580335E+01
       437   9 -1.187090E+06  9.320642E+03  6.114857E+03  1.219084E+04  2.588663E+03  1.313939E+03
       437  10 -1.195040E+06  7.684148E+03  5.723076E+03  1.215899E+04 -5.598445E-09 -7.908947E-09
       437  11 -1.228959E+06 -9.436363E+02 -2.973094E+03 -7.122143E+03  6.909149E-09 -8.611114E-09
       437  12 -1.263600E+06 -9.720106E+03 -1.247067E+04  1.196723E+04 -5.186714E-09 -6.125657E-09
       437  13 -1.225345E+06  1.472748E+02 -1.614834E+03  1.207702E+04 -9.138978E-10  6.859724E-09
       437  14 -1.224984E+06  4.786251E+01 -1.996805E+03 -7.107219E+03  1.613184E-09 -9.137702E-09
       437  15 -1.225346E+06 -1.996799E+02 -3.177860E+03  1.207903E+04 -1.484425E-10 -4.400236E-09
       437  16 -1.255649E+06 -7.389665E+03 -8.952809E+03  1.199505E+04  3.792358E-09  4.576717E-10
       437  17 -1.221008E+06  1.039360E+03 -1.020518E+03 -7.092295E+03 -1.011493E-08 -2.268264E-08
       437  18 -1.187090E+06  9.320638E+03  6.114842E+03  1.219084E+04  7.128944E-09 -1.297593E-08
       437  19 -1.195040E+06  7.684149E+03  5.723078E+03  1.215899E+04  2.100084E+02  1.137165E+03
       437  20 -1.228959E+06 -9.436361E+02 -2.973093E+03 -7.122143E+03 -7.842097E+02 -9.105977E+01
       437  21 -1.263600E+06 -9.720103E+03 -1.247066E+04  1.196724E+04 -1.778429E+03 -1.309235E+03
       437  22 -1.225345E+06  1.472762E+02 -1.614831E+03  1.207702E+04 -2.018121E+02  1.134769E+03
       437  23 -1.224984E+06  4.786290E+01 -1.996803E+03 -7.107219E+03 -1.192645E+03 -9.343156E+01
       437  24 -1.225346E+06 -1.996768E+02 -3.177848E+03  1.207904E+04 -2.183533E+03 -1.311587E+03
       437  25 -1.255649E+06 -7.389664E+03 -8.952806E+03  1.199505E+04 -6.136125E+02  1.132374E+03
       437  26 -1.221008E+06  1.039361E+03 -1.020513E+03 -7.092294E+03 -1.601082E+03 -9.580335E+01
       437  27 -1.187090E+06  9.320642E+03  6.114857E+03  1.219084E+04 -2.588663E+03 -1.313939E+03
       438   1 -1.342393E+06 -2.886634E+04 -3.278194E+04  1.105284E+04  2.392294E+03  2.041896E+03
       438   2 -1.375059E+06 -3.695939E+04 -4.350135E+04 -7.420615E+03  5.749773E+03  3.278203E+03
       438   3 -1.409542E+06 -4.868041E+04 -5.741609E+04  1.169207E+04  9.108335E+03  4.386489E+03
       438   4 -1.225591E+06  2.958439E+02 -3.981451E+03  1.189748E+04  2.822415E+03  2.044358E+03
       438   5 -1.224688E+06  5.490292E+02 -6.563263E+03 -6.886718E+03  6.137667E+03  3.280334E+03
       438   6 -1.225594E+06 -2.817590E+03 -1.231018E+04  1.191467E+04  9.454183E+03  4.388303E+03
       438   7 -1.108776E+06  2.945701E+04  2.481803E+04  1.274226E+04  3.252616E+03  2.046821E+03
       438   8 -1.074296E+06  3.805577E+04  3.037316E+04 -6.352719E+03  6.525655E+03  3.282466E+03
       438   9 -1.041616E+06  4.304272E+04  3.279323E+04  1.213730E+04  9.800133E+03  4.390116E+03
       438  10 -1.342393E+06 -2.886634E+04 -3.278196E+04  1.105283E+04 -1.574574E-08 -1.431900E-09
       438  11 -1.375059E+06 -3.695941E+04 -4.350144E+04 -7.420630E+03 -6.580558E-10 -1.080175E-08
       438  12 -1.409542E+06 -4.868045E+04 -5.741628E+04  1.169204E+04  4.071023E-09  1.663248E-09
       438  13 -1.225591E+06  2.958373E+02 -3.981474E+03  1.189747E+04  3.366187E-11  6.032984E-10
       438  14 -1.224688E+06  5.490075E+02 -6.563354E+03 -6.886734E+03  1.199826E-09 -6.851537E-10
       438  15 -1.225594E+06 -2.817634E+03 -1.231039E+04  1.191464E+04 -6.156140E-10  7.462135E-09
       438  16 -1.108776E+06  2.945700E+04  2.481800E+04  1.274225E+04  1.297038E-08  1.060236E-08
       438  17 -1.074296E+06  3.805574E+04  3.037306E+04 -6.352737E+03 -1.589813E-09 -4.754107E-09
       438  18 -1.041616E+06  4.304267E+04  3.279301E+04  1.213726E+04 -2.905788E-09  1.518712E-08
       438  19 -1.342393E+06 -2.886634E+04 -3.278194E+04  1.105284E+04 -2.392294E+03 -2.041896E+03
       438  20 -1.375059E+06 -3.695939E+04 -4.350135E+04 -7.420615E+03 -5.749773E+03 -3.278203E+03
       438  21 -1.409542E+06 -4.868041E+04 -5.741609E+04  1.169207E+04 -9.108335E+03 -4.386489E+03
       438  22 -1.225591E+06  2.958439E+02 -3.981451E+03  1.189748E+04 -2.822415E+03 -2.044358E+03
       438  23 -1.224688E+06  5.490292E+02 -6.563263E+03 -6.886718E+03 -6.137667E+03 -3.280334E+03
       438  24 -1.225594E+06 -2.817590E+03 -1.231018E+04  1.191467E+04 -9.454183E+03 -4.388303E+03
       438  25 -1.108776E+06  2.945701E+04  2.481803E+04  1.274226E+04 -3.252616E+03 -2.046821E+03
       438  26 -1.074296E+06  3.805577E+04  3.037316E+04 -6.352719E+03 -6.525655E+03 -3.282466E+03
       438  27 -1.041616E+06  4.304272E+04  3.279323E+04  1.213730E+04 -9.800133E+03 -4.390116E+03
       439   1 -1.486632E+06 -6.360231E+04 -7.931448E+04  7.879321E+03  1.137163E+04  5.214021E+03
       439   2 -1.513380E+06 -6.809453E+04 -9.694425E+04 -6.206347E+03  2.490249E+04  6.477971E+03
       439   3 -1.549812E+06 -1.032830E+05 -1.311242E+05  1.510226E+04  3.843806E+04  6.806898E+03
       439   4 -1.227338E+06  1.134307E+03 -1.551115E+04  1.137667E+04  1.193164E+04  5.216945E+03
       439   5 -1.222536E+06  4.442464E+03 -2.551139E+04 -6.261081E+03  2.515441E+04  6.479020E+03
       439   6 -1.227358E+06 -2.288382E+04 -5.184161E+04  1.149457E+04  3.838258E+04  6.806110E+03
       439   7 -9.679830E+05  6.586595E+04  4.828723E+04  1.487540E+04  1.249189E+04  5.219876E+03
       439   8 -9.316135E+05  7.697317E+04  4.591524E+04 -6.315939E+03  2.540645E+04  6.480069E+03
       439   9 -9.048098E+05  5.750766E+04  2.743329E+04  7.884894E+03  3.832706E+04  6.805322E+03
       439  10 -1.486632E+06 -6.360238E+04 -7.931477E+04  7.879273E+03  1.009180E-08  3.964895E-10
       439  11 -1.513381E+06 -6.809475E+04 -9.694550E+04 -6.206477E+03  1.567355E-10  7.555256E-09
       439  12 -1.549813E+06 -1.032834E+05 -1.311270E+05  1.510205E+04 -4.912774E-09 -9.838161E-09
       439  13 -1.227338E+06  1.134239E+03 -1.551147E+04  1.137662E+04  9.930169E-11 -7.443348E-09
       439  14 -1.222536E+06  4.442248E+03 -2.551266E+04 -6.261213E+03  3.207702E-10  1.076572E-08
       439  15 -1.227360E+06 -2.288426E+04 -5.184447E+04  1.149436E+04 -8.333783E-10  4.903650E-09
       439  16 -9.679832E+05  6.586588E+04  4.828688E+04  1.487535E+04 -1.202102E-08 -1.036927E-09
       439  17 -9.316142E+05  7.697295E+04  4.591395E+04 -6.316072E+03 -5.254147E-09 -1.995799E-08
       439  18 -9.048114E+05  5.750721E+04  2.743044E+04  7.884683E+03  6.102401E-09  3.213431E-09
       439  19 -1.486632E+06 -6.360231E+04 -7.931448E+04  7.879321E+03 -1.137163E+04 -5.214021E+03
       439  20 -1.513380E+06 -6.809453E+04 -9.694425E+04 -6.206347E+03 -2.490249E+04 -6.477971E+03
       439  21 -1.549812E+06 -1.032830E+05 -1.311242E+05  1.510226E+04 -3.843806E+04 -6.806898E+03
       439  22 -1.227338E+06  1.134307E+03 -1.551115E+04  1.137667E+04 -1.193164E+04 -5.216945E+03
       439  23 -1.222536E+06  4.442464E+03 -2.551139E+04 -6.261081E+03 -2.515441E+04 -6.479020E+03
       439  24 -1.227358E+06 -2.288382E+04 -5.184161E+04  1.149457E+04 -3.838258E+04 -6.806110E+03
       439  25 -9.679830E+05  6.586595E+04  4.828723E+04  1.487540E+04 -1.249189E+04 -5.219876E+03
       439  26 -9.316135E+05  7.697317E+04  4.591524E+04 -6.315939E+03 -2.540645E+04 -6.480069E+03
       439  27 -9.048098E+05  5.750766E+04  2.743329E+04  7.884894E+03 -3.832706E+04 -6.805322E+03
       440   1 -1.631453E+06 -9.013412E+04 -1.592471E+05 -9.056196E+03  4.666992E+04  8.645626E+03
       440   2 -1.626737E+06 -7.043659E+04 -2.011192E+05  3.975367E+03  1.026521E+05  1.030397E+04
       440   3 -1.688700E+06 -2.884601E+05 -3.389182E+05  4.916101E+04  1.586640E+05  4.006263E+03
       440   4 -1.239912E+06  7.759480E+03 -6.300069E+04  1.044771E+04  4.849442E+04  8.655179E+03
       440   5 -1.206878E+06  3.415639E+04 -9.816148E+04 -5.262405E+03  1.018391E+05  1.029830E+04
       440   6 -1.240021E+06 -1.766257E+05 -2.273687E+05  1.118322E+04  1.552164E+05  3.982537E+03
       440   7 -8.482295E+05  1.056430E+05  3.323456E+04  2.996380E+04  5.032007E+04  8.664844E+03
       440   8 -7.868579E+05  1.387366E+05  4.783354E+03 -1.450662E+04  1.010256E+05  1.029266E+04
       440   9 -7.911557E+05 -6.480077E+04 -1.158334E+05 -2.682227E+04  1.517663E+05  3.959245E+03
       440  10 -1.631455E+06 -9.013478E+04 -1.592513E+05 -9.056521E+03  8.639411E-09 -4.681709E-09
       440  11 -1.626748E+06 -7.043955E+04 -2.011393E+05  3.974515E+03  7.162892E-09  4.395764E-10
       440  12 -1.688727E+06 -2.884669E+05 -3.389656E+05  4.916049E+04 -2.805866E-09  9.220540E-09
       440  13 -1.239914E+06  7.758766E+03 -6.300526E+04  1.044737E+04  2.671766E-10  1.267583E-08
       440  14 -1.206889E+06  3.415348E+04 -9.818121E+04 -5.263250E+03  1.699471E-09  1.166405E-08
       440  15 -1.240047E+06 -1.766322E+05 -2.274141E+05  1.118272E+04 -6.704397E-10  8.013344E-09
       440  16 -8.482323E+05  1.056422E+05  3.322966E+04  2.996345E+04 -1.030174E-08  5.880896E-09
       440  17 -7.868689E+05  1.387338E+05  4.763950E+03 -1.450746E+04 -9.990392E-09  9.644611E-09
       440  18 -7.911805E+05 -6.480698E+04 -1.158767E+05 -2.682276E+04  2.867976E-09  9.613746E-10
       440  19 -1.631453E+06 -9.013412E+04 -1.592471E+05 -9.056196E+03 -4.666992E+04 -8.645626E+03
       440  20 -1.626737E+06 -7.043659E+04 -2.011192E+05  3.975367E+03 -1.026521E+05 -1.030397E+04
       440  21 -1.688700E+06 -2.884601E+05 -3.389182E+05  4.916101E+04 -1.586640E+05 -4.006263E+03
       440  22 -1.239912E+06  7.759480E+03 -6.300069E+04  1.044771E+04 -4.849442E+04 -8.655179E+03
       440  23 -1.206878E+06  3.415639E+04 -9.816148E+04 -5.262405E+03 -1.018391E+05 -1.029830E+04
       440  24 -1.240021E+06 -1.766257E+05 -2.273687E+05  1.118322E+04 -1.552164E+05 -3.982537E+03
       440  25 -8.482295E+05  1.056430E+05  3.323456E+04  2.996380E+04 -5.032007E+04 -8.664844E+03
       440  26 -7.868579E+05  1.387366E+05  4.783354E+03 -1.450662E+04 -1.010256E+05 -1.029266E+04
       440  27 -7.911557E+05 -6.480077E+04 -1.158334E+05 -2.682227E+04 -1.517663E+05 -3.959245E+03
