    1C
    1UUSER                                                              
    1UDATE              11.october.2022                                 
    1UTIME              17:34:16                                        
    1UHOST                                                              
    1UPGM               CalculiX                                        
    1UVERSION           Version 2.20                             
    1UCOMPILETIME       Sun Jul 31 18:08:37 CEST 2022                    
    1UDIR                                                               
    1UDBN                                                               
    1UMAT    1MESH_MATERIAL                                             
    2C                           841                                     1
 -1         1 0.00000E+00 0.00000E+00 0.00000E+00
 -1         2 1.66667E-02 0.00000E+00 0.00000E+00
 -1         3 3.33333E-02 0.00000E+00 0.00000E+00
 -1         4 5.00000E-02 0.00000E+00 0.00000E+00
 -1         5 6.66667E-02 0.00000E+00 0.00000E+00
 -1         8 0.00000E+00 6.25000E-03 0.00000E+00
 -1         9 1.66667E-02 6.25000E-03 0.00000E+00
 -1        10 3.33333E-02 6.25000E-03 0.00000E+00
 -1        11 5.00000E-02 6.25000E-03 0.00000E+00
 -1        12 6.66667E-02 6.25000E-03 0.00000E+00
 -1        15 0.00000E+00 1.25000E-02 0.00000E+00
 -1        16 1.66667E-02 1.25000E-02 0.00000E+00
 -1        17 3.33333E-02 1.25000E-02 0.00000E+00
 -1        18 5.00000E-02 1.25000E-02 0.00000E+00
 -1        19 6.66667E-02 1.25000E-02 0.00000E+00
 -1        20 8.33333E-02 1.25000E-02 0.00000E+00
 -1        21 1.00000E-01 1.25000E-02 0.00000E+00
 -1        22 0.00000E+00 1.87500E-02 0.00000E+00
 -1        23 1.66667E-02 1.87500E-02 0.00000E+00
 -1        24 3.33333E-02 1.87500E-02 0.00000E+00
 -1        25 5.00000E-02 1.87500E-02 0.00000E+00
 -1        26 6.66667E-02 1.87500E-02 0.00000E+00
 -1        27 8.33333E-02 1.87500E-02 0.00000E+00
 -1        28 1.00000E-01 1.87500E-02 0.00000E+00
 -1        29 0.00000E+00 2.50000E-02 0.00000E+00
 -1        30 1.66667E-02 2.50000E-02 0.00000E+00
 -1        31 3.33333E-02 2.50000E-02 0.00000E+00
 -1        32 5.00000E-02 2.50000E-02 0.00000E+00
 -1        33 6.66667E-02 2.50000E-02 0.00000E+00
 -1        34 8.33333E-02 2.50000E-02 0.00000E+00
 -1        35 1.00000E-01 2.50000E-02 0.00000E+00
 -1        36 1.04167E-03 0.00000E+00 0.00000E+00
 -1        37 2.08333E-03 0.00000E+00 0.00000E+00
 -1        38 3.12500E-03 0.00000E+00 0.00000E+00
 -1        39 4.16667E-03 0.00000E+00 0.00000E+00
 -1        40 5.20833E-03 0.00000E+00 0.00000E+00
 -1        41 6.25000E-03 0.00000E+00 0.00000E+00
 -1        42 7.29167E-03 0.00000E+00 0.00000E+00
 -1        43 8.33333E-03 0.00000E+00 0.00000E+00
 -1        44 9.37500E-03 0.00000E+00 0.00000E+00
 -1        45 1.04167E-02 0.00000E+00 0.00000E+00
 -1        46 1.14583E-02 0.00000E+00 0.00000E+00
 -1        47 1.25000E-02 0.00000E+00 0.00000E+00
 -1        48 1.35417E-02 0.00000E+00 0.00000E+00
 -1        49 1.45833E-02 0.00000E+00 0.00000E+00
 -1        50 1.56250E-02 0.00000E+00 0.00000E+00
 -1        51 0.00000E+00 1.04167E-03 0.00000E+00
 -1        52 0.00000E+00 2.08333E-03 0.00000E+00
 -1        53 0.00000E+00 3.12500E-03 0.00000E+00
 -1        54 0.00000E+00 4.16667E-03 0.00000E+00
 -1        55 0.00000E+00 5.20833E-03 0.00000E+00
 -1        56 1.04167E-03 3.90630E-04 0.00000E+00
 -1        57 2.08333E-03 7.81250E-04 0.00000E+00
 -1        58 3.12500E-03 1.17188E-03 0.00000E+00
 -1        59 4.16667E-03 1.56250E-03 0.00000E+00
 -1        60 5.20833E-03 1.95312E-03 0.00000E+00
 -1        61 6.25000E-03 2.34375E-03 0.00000E+00
 -1        62 7.29167E-03 2.73438E-03 0.00000E+00
 -1        63 8.33333E-03 3.12500E-03 0.00000E+00
 -1        64 9.37500E-03 3.51563E-03 0.00000E+00
 -1        65 1.04167E-02 3.90625E-03 0.00000E+00
 -1        66 1.14583E-02 4.29688E-03 0.00000E+00
 -1        67 1.25000E-02 4.68750E-03 0.00000E+00
 -1        68 1.35417E-02 5.07813E-03 0.00000E+00
 -1        69 1.45833E-02 5.46875E-03 0.00000E+00
 -1        70 1.56250E-02 5.85938E-03 0.00000E+00
 -1        71 1.77083E-02 0.00000E+00 0.00000E+00
 -1        72 1.87500E-02 0.00000E+00 0.00000E+00
 -1        73 1.97917E-02 0.00000E+00 0.00000E+00
 -1        74 2.08333E-02 0.00000E+00 0.00000E+00
 -1        75 2.18750E-02 0.00000E+00 0.00000E+00
 -1        76 2.29167E-02 0.00000E+00 0.00000E+00
 -1        77 2.39583E-02 0.00000E+00 0.00000E+00
 -1        78 2.50000E-02 0.00000E+00 0.00000E+00
 -1        79 2.60417E-02 0.00000E+00 0.00000E+00
 -1        80 2.70833E-02 0.00000E+00 0.00000E+00
 -1        81 2.81250E-02 0.00000E+00 0.00000E+00
 -1        82 2.91667E-02 0.00000E+00 0.00000E+00
 -1        83 3.02083E-02 0.00000E+00 0.00000E+00
 -1        84 3.12500E-02 0.00000E+00 0.00000E+00
 -1        85 3.22917E-02 0.00000E+00 0.00000E+00
 -1        86 1.66667E-02 1.04167E-03 0.00000E+00
 -1        87 1.66667E-02 2.08333E-03 0.00000E+00
 -1        88 1.66667E-02 3.12500E-03 0.00000E+00
 -1        89 1.66667E-02 4.16667E-03 0.00000E+00
 -1        90 1.66667E-02 5.20833E-03 0.00000E+00
 -1        91 1.77083E-02 3.90630E-04 0.00000E+00
 -1        92 1.87500E-02 7.81250E-04 0.00000E+00
 -1        93 1.97917E-02 1.17188E-03 0.00000E+00
 -1        94 2.08333E-02 1.56250E-03 0.00000E+00
 -1        95 2.18750E-02 1.95312E-03 0.00000E+00
 -1        96 2.29167E-02 2.34375E-03 0.00000E+00
 -1        97 2.39583E-02 2.73438E-03 0.00000E+00
 -1        98 2.50000E-02 3.12500E-03 0.00000E+00
 -1        99 2.60417E-02 3.51563E-03 0.00000E+00
 -1       100 2.70833E-02 3.90625E-03 0.00000E+00
 -1       101 2.81250E-02 4.29688E-03 0.00000E+00
 -1       102 2.91667E-02 4.68750E-03 0.00000E+00
 -1       103 3.02083E-02 5.07813E-03 0.00000E+00
 -1       104 3.12500E-02 5.46875E-03 0.00000E+00
 -1       105 3.22917E-02 5.85938E-03 0.00000E+00
 -1       106 3.43750E-02 0.00000E+00 0.00000E+00
 -1       107 3.54167E-02 0.00000E+00 0.00000E+00
 -1       108 3.64583E-02 0.00000E+00 0.00000E+00
 -1       109 3.75000E-02 0.00000E+00 0.00000E+00
 -1       110 3.85417E-02 0.00000E+00 0.00000E+00
 -1       111 3.95833E-02 0.00000E+00 0.00000E+00
 -1       112 4.06250E-02 0.00000E+00 0.00000E+00
 -1       113 4.16667E-02 0.00000E+00 0.00000E+00
 -1       114 4.27083E-02 0.00000E+00 0.00000E+00
 -1       115 4.37500E-02 0.00000E+00 0.00000E+00
 -1       116 4.47917E-02 0.00000E+00 0.00000E+00
 -1       117 4.58333E-02 0.00000E+00 0.00000E+00
 -1       118 4.68750E-02 0.00000E+00 0.00000E+00
 -1       119 4.79167E-02 0.00000E+00 0.00000E+00
 -1       120 4.89583E-02 0.00000E+00 0.00000E+00
 -1       121 3.33333E-02 1.04167E-03 0.00000E+00
 -1       122 3.33333E-02 2.08333E-03 0.00000E+00
 -1       123 3.33333E-02 3.12500E-03 0.00000E+00
 -1       124 3.33333E-02 4.16667E-03 0.00000E+00
 -1       125 3.33333E-02 5.20833E-03 0.00000E+00
 -1       126 3.43750E-02 3.90630E-04 0.00000E+00
 -1       127 3.54167E-02 7.81250E-04 0.00000E+00
 -1       128 3.64583E-02 1.17188E-03 0.00000E+00
 -1       129 3.75000E-02 1.56250E-03 0.00000E+00
 -1       130 3.85417E-02 1.95312E-03 0.00000E+00
 -1       131 3.95833E-02 2.34375E-03 0.00000E+00
 -1       132 4.06250E-02 2.73438E-03 0.00000E+00
 -1       133 4.16667E-02 3.12500E-03 0.00000E+00
 -1       134 4.27083E-02 3.51563E-03 0.00000E+00
 -1       135 4.37500E-02 3.90625E-03 0.00000E+00
 -1       136 4.47917E-02 4.29688E-03 0.00000E+00
 -1       137 4.58333E-02 4.68750E-03 0.00000E+00
 -1       138 4.68750E-02 5.07813E-03 0.00000E+00
 -1       139 4.79167E-02 5.46875E-03 0.00000E+00
 -1       140 4.89583E-02 5.85938E-03 0.00000E+00
 -1       141 5.10417E-02 0.00000E+00 0.00000E+00
 -1       142 5.20833E-02 0.00000E+00 0.00000E+00
 -1       143 5.31250E-02 0.00000E+00 0.00000E+00
 -1       144 5.41667E-02 0.00000E+00 0.00000E+00
 -1       145 5.52083E-02 0.00000E+00 0.00000E+00
 -1       146 5.62500E-02 0.00000E+00 0.00000E+00
 -1       147 5.72917E-02 0.00000E+00 0.00000E+00
 -1       148 5.83333E-02 0.00000E+00 0.00000E+00
 -1       149 5.93750E-02 0.00000E+00 0.00000E+00
 -1       150 6.04167E-02 0.00000E+00 0.00000E+00
 -1       151 6.14583E-02 0.00000E+00 0.00000E+00
 -1       152 6.25000E-02 0.00000E+00 0.00000E+00
 -1       153 6.35417E-02 0.00000E+00 0.00000E+00
 -1       154 6.45833E-02 0.00000E+00 0.00000E+00
 -1       155 6.56250E-02 0.00000E+00 0.00000E+00
 -1       156 5.00000E-02 1.04167E-03 0.00000E+00
 -1       157 5.00000E-02 2.08333E-03 0.00000E+00
 -1       158 5.00000E-02 3.12500E-03 0.00000E+00
 -1       159 5.00000E-02 4.16667E-03 0.00000E+00
 -1       160 5.00000E-02 5.20833E-03 0.00000E+00
 -1       161 5.10417E-02 3.90630E-04 0.00000E+00
 -1       162 5.20833E-02 7.81250E-04 0.00000E+00
 -1       163 5.31250E-02 1.17188E-03 0.00000E+00
 -1       164 5.41667E-02 1.56250E-03 0.00000E+00
 -1       165 5.52083E-02 1.95312E-03 0.00000E+00
 -1       166 5.62500E-02 2.34375E-03 0.00000E+00
 -1       167 5.72917E-02 2.73438E-03 0.00000E+00
 -1       168 5.83333E-02 3.12500E-03 0.00000E+00
 -1       169 5.93750E-02 3.51563E-03 0.00000E+00
 -1       170 6.04167E-02 3.90625E-03 0.00000E+00
 -1       171 6.14583E-02 4.29688E-03 0.00000E+00
 -1       172 6.25000E-02 4.68750E-03 0.00000E+00
 -1       173 6.35417E-02 5.07813E-03 0.00000E+00
 -1       174 6.45833E-02 5.46875E-03 0.00000E+00
 -1       175 6.56250E-02 5.85938E-03 0.00000E+00
 -1       191 6.66667E-02 1.04167E-03 0.00000E+00
 -1       192 6.66667E-02 2.08333E-03 0.00000E+00
 -1       193 6.66667E-02 3.12500E-03 0.00000E+00
 -1       194 6.66667E-02 4.16667E-03 0.00000E+00
 -1       195 6.66667E-02 5.20833E-03 0.00000E+00
 -1       251 1.04167E-03 6.25000E-03 0.00000E+00
 -1       252 2.08333E-03 6.25000E-03 0.00000E+00
 -1       253 3.12500E-03 6.25000E-03 0.00000E+00
 -1       254 4.16667E-03 6.25000E-03 0.00000E+00
 -1       255 5.20833E-03 6.25000E-03 0.00000E+00
 -1       256 6.25000E-03 6.25000E-03 0.00000E+00
 -1       257 7.29167E-03 6.25000E-03 0.00000E+00
 -1       258 8.33333E-03 6.25000E-03 0.00000E+00
 -1       259 9.37500E-03 6.25000E-03 0.00000E+00
 -1       260 1.04167E-02 6.25000E-03 0.00000E+00
 -1       261 1.14583E-02 6.25000E-03 0.00000E+00
 -1       262 1.25000E-02 6.25000E-03 0.00000E+00
 -1       263 1.35417E-02 6.25000E-03 0.00000E+00
 -1       264 1.45833E-02 6.25000E-03 0.00000E+00
 -1       265 1.56250E-02 6.25000E-03 0.00000E+00
 -1       266 0.00000E+00 7.29167E-03 0.00000E+00
 -1       267 0.00000E+00 8.33333E-03 0.00000E+00
 -1       268 0.00000E+00 9.37500E-03 0.00000E+00
 -1       269 0.00000E+00 1.04167E-02 0.00000E+00
 -1       270 0.00000E+00 1.14583E-02 0.00000E+00
 -1       271 1.04167E-03 6.64063E-03 0.00000E+00
 -1       272 2.08333E-03 7.03125E-03 0.00000E+00
 -1       273 3.12500E-03 7.42188E-03 0.00000E+00
 -1       274 4.16667E-03 7.81250E-03 0.00000E+00
 -1       275 5.20833E-03 8.20313E-03 0.00000E+00
 -1       276 6.25000E-03 8.59375E-03 0.00000E+00
 -1       277 7.29167E-03 8.98438E-03 0.00000E+00
 -1       278 8.33333E-03 9.37500E-03 0.00000E+00
 -1       279 9.37500E-03 9.76562E-03 0.00000E+00
 -1       280 1.04167E-02 1.01562E-02 0.00000E+00
 -1       281 1.14583E-02 1.05469E-02 0.00000E+00
 -1       282 1.25000E-02 1.09375E-02 0.00000E+00
 -1       283 1.35417E-02 1.13281E-02 0.00000E+00
 -1       284 1.45833E-02 1.17188E-02 0.00000E+00
 -1       285 1.56250E-02 1.21094E-02 0.00000E+00
 -1       286 1.77083E-02 6.25000E-03 0.00000E+00
 -1       287 1.87500E-02 6.25000E-03 0.00000E+00
 -1       288 1.97917E-02 6.25000E-03 0.00000E+00
 -1       289 2.08333E-02 6.25000E-03 0.00000E+00
 -1       290 2.18750E-02 6.25000E-03 0.00000E+00
 -1       291 2.29167E-02 6.25000E-03 0.00000E+00
 -1       292 2.39583E-02 6.25000E-03 0.00000E+00
 -1       293 2.50000E-02 6.25000E-03 0.00000E+00
 -1       294 2.60417E-02 6.25000E-03 0.00000E+00
 -1       295 2.70833E-02 6.25000E-03 0.00000E+00
 -1       296 2.81250E-02 6.25000E-03 0.00000E+00
 -1       297 2.91667E-02 6.25000E-03 0.00000E+00
 -1       298 3.02083E-02 6.25000E-03 0.00000E+00
 -1       299 3.12500E-02 6.25000E-03 0.00000E+00
 -1       300 3.22917E-02 6.25000E-03 0.00000E+00
 -1       301 1.66667E-02 7.29167E-03 0.00000E+00
 -1       302 1.66667E-02 8.33333E-03 0.00000E+00
 -1       303 1.66667E-02 9.37500E-03 0.00000E+00
 -1       304 1.66667E-02 1.04167E-02 0.00000E+00
 -1       305 1.66667E-02 1.14583E-02 0.00000E+00
 -1       306 1.77083E-02 6.64063E-03 0.00000E+00
 -1       307 1.87500E-02 7.03125E-03 0.00000E+00
 -1       308 1.97917E-02 7.42188E-03 0.00000E+00
 -1       309 2.08333E-02 7.81250E-03 0.00000E+00
 -1       310 2.18750E-02 8.20313E-03 0.00000E+00
 -1       311 2.29167E-02 8.59375E-03 0.00000E+00
 -1       312 2.39583E-02 8.98438E-03 0.00000E+00
 -1       313 2.50000E-02 9.37500E-03 0.00000E+00
 -1       314 2.60417E-02 9.76562E-03 0.00000E+00
 -1       315 2.70833E-02 1.01562E-02 0.00000E+00
 -1       316 2.81250E-02 1.05469E-02 0.00000E+00
 -1       317 2.91667E-02 1.09375E-02 0.00000E+00
 -1       318 3.02083E-02 1.13281E-02 0.00000E+00
 -1       319 3.12500E-02 1.17188E-02 0.00000E+00
 -1       320 3.22917E-02 1.21094E-02 0.00000E+00
 -1       321 3.43750E-02 6.25000E-03 0.00000E+00
 -1       322 3.54167E-02 6.25000E-03 0.00000E+00
 -1       323 3.64583E-02 6.25000E-03 0.00000E+00
 -1       324 3.75000E-02 6.25000E-03 0.00000E+00
 -1       325 3.85417E-02 6.25000E-03 0.00000E+00
 -1       326 3.95833E-02 6.25000E-03 0.00000E+00
 -1       327 4.06250E-02 6.25000E-03 0.00000E+00
 -1       328 4.16667E-02 6.25000E-03 0.00000E+00
 -1       329 4.27083E-02 6.25000E-03 0.00000E+00
 -1       330 4.37500E-02 6.25000E-03 0.00000E+00
 -1       331 4.47917E-02 6.25000E-03 0.00000E+00
 -1       332 4.58333E-02 6.25000E-03 0.00000E+00
 -1       333 4.68750E-02 6.25000E-03 0.00000E+00
 -1       334 4.79167E-02 6.25000E-03 0.00000E+00
 -1       335 4.89583E-02 6.25000E-03 0.00000E+00
 -1       336 3.33333E-02 7.29167E-03 0.00000E+00
 -1       337 3.33333E-02 8.33333E-03 0.00000E+00
 -1       338 3.33333E-02 9.37500E-03 0.00000E+00
 -1       339 3.33333E-02 1.04167E-02 0.00000E+00
 -1       340 3.33333E-02 1.14583E-02 0.00000E+00
 -1       341 3.43750E-02 6.64063E-03 0.00000E+00
 -1       342 3.54167E-02 7.03125E-03 0.00000E+00
 -1       343 3.64583E-02 7.42188E-03 0.00000E+00
 -1       344 3.75000E-02 7.81250E-03 0.00000E+00
 -1       345 3.85417E-02 8.20313E-03 0.00000E+00
 -1       346 3.95833E-02 8.59375E-03 0.00000E+00
 -1       347 4.06250E-02 8.98438E-03 0.00000E+00
 -1       348 4.16667E-02 9.37500E-03 0.00000E+00
 -1       349 4.27083E-02 9.76562E-03 0.00000E+00
 -1       350 4.37500E-02 1.01562E-02 0.00000E+00
 -1       351 4.47917E-02 1.05469E-02 0.00000E+00
 -1       352 4.58333E-02 1.09375E-02 0.00000E+00
 -1       353 4.68750E-02 1.13281E-02 0.00000E+00
 -1       354 4.79167E-02 1.17188E-02 0.00000E+00
 -1       355 4.89583E-02 1.21094E-02 0.00000E+00
 -1       356 5.10417E-02 6.25000E-03 0.00000E+00
 -1       357 5.20833E-02 6.25000E-03 0.00000E+00
 -1       358 5.31250E-02 6.25000E-03 0.00000E+00
 -1       359 5.41667E-02 6.25000E-03 0.00000E+00
 -1       360 5.52083E-02 6.25000E-03 0.00000E+00
 -1       361 5.62500E-02 6.25000E-03 0.00000E+00
 -1       362 5.72917E-02 6.25000E-03 0.00000E+00
 -1       363 5.83333E-02 6.25000E-03 0.00000E+00
 -1       364 5.93750E-02 6.25000E-03 0.00000E+00
 -1       365 6.04167E-02 6.25000E-03 0.00000E+00
 -1       366 6.14583E-02 6.25000E-03 0.00000E+00
 -1       367 6.25000E-02 6.25000E-03 0.00000E+00
 -1       368 6.35417E-02 6.25000E-03 0.00000E+00
 -1       369 6.45833E-02 6.25000E-03 0.00000E+00
 -1       370 6.56250E-02 6.25000E-03 0.00000E+00
 -1       371 5.00000E-02 7.29167E-03 0.00000E+00
 -1       372 5.00000E-02 8.33333E-03 0.00000E+00
 -1       373 5.00000E-02 9.37500E-03 0.00000E+00
 -1       374 5.00000E-02 1.04167E-02 0.00000E+00
 -1       375 5.00000E-02 1.14583E-02 0.00000E+00
 -1       376 5.10417E-02 6.64063E-03 0.00000E+00
 -1       377 5.20833E-02 7.03125E-03 0.00000E+00
 -1       378 5.31250E-02 7.42188E-03 0.00000E+00
 -1       379 5.41667E-02 7.81250E-03 0.00000E+00
 -1       380 5.52083E-02 8.20313E-03 0.00000E+00
 -1       381 5.62500E-02 8.59375E-03 0.00000E+00
 -1       382 5.72917E-02 8.98438E-03 0.00000E+00
 -1       383 5.83333E-02 9.37500E-03 0.00000E+00
 -1       384 5.93750E-02 9.76562E-03 0.00000E+00
 -1       385 6.04167E-02 1.01562E-02 0.00000E+00
 -1       386 6.14583E-02 1.05469E-02 0.00000E+00
 -1       387 6.25000E-02 1.09375E-02 0.00000E+00
 -1       388 6.35417E-02 1.13281E-02 0.00000E+00
 -1       389 6.45833E-02 1.17188E-02 0.00000E+00
 -1       390 6.56250E-02 1.21094E-02 0.00000E+00
 -1       406 6.66667E-02 7.29167E-03 0.00000E+00
 -1       407 6.66667E-02 8.33333E-03 0.00000E+00
 -1       408 6.66667E-02 9.37500E-03 0.00000E+00
 -1       409 6.66667E-02 1.04167E-02 0.00000E+00
 -1       410 6.66667E-02 1.14583E-02 0.00000E+00
 -1       466 1.04167E-03 1.25000E-02 0.00000E+00
 -1       467 2.08333E-03 1.25000E-02 0.00000E+00
 -1       468 3.12500E-03 1.25000E-02 0.00000E+00
 -1       469 4.16667E-03 1.25000E-02 0.00000E+00
 -1       470 5.20833E-03 1.25000E-02 0.00000E+00
 -1       471 6.25000E-03 1.25000E-02 0.00000E+00
 -1       472 7.29167E-03 1.25000E-02 0.00000E+00
 -1       473 8.33333E-03 1.25000E-02 0.00000E+00
 -1       474 9.37500E-03 1.25000E-02 0.00000E+00
 -1       475 1.04167E-02 1.25000E-02 0.00000E+00
 -1       476 1.14583E-02 1.25000E-02 0.00000E+00
 -1       477 1.25000E-02 1.25000E-02 0.00000E+00
 -1       478 1.35417E-02 1.25000E-02 0.00000E+00
 -1       479 1.45833E-02 1.25000E-02 0.00000E+00
 -1       480 1.56250E-02 1.25000E-02 0.00000E+00
 -1       481 0.00000E+00 1.35417E-02 0.00000E+00
 -1       482 0.00000E+00 1.45833E-02 0.00000E+00
 -1       483 0.00000E+00 1.56250E-02 0.00000E+00
 -1       484 0.00000E+00 1.66667E-02 0.00000E+00
 -1       485 0.00000E+00 1.77083E-02 0.00000E+00
 -1       486 1.04167E-03 1.28906E-02 0.00000E+00
 -1       487 2.08333E-03 1.32813E-02 0.00000E+00
 -1       488 3.12500E-03 1.36719E-02 0.00000E+00
 -1       489 4.16667E-03 1.40625E-02 0.00000E+00
 -1       490 5.20833E-03 1.44531E-02 0.00000E+00
 -1       491 6.25000E-03 1.48437E-02 0.00000E+00
 -1       492 7.29167E-03 1.52344E-02 0.00000E+00
 -1       493 8.33333E-03 1.56250E-02 0.00000E+00
 -1       494 9.37500E-03 1.60156E-02 0.00000E+00
 -1       495 1.04167E-02 1.64062E-02 0.00000E+00
 -1       496 1.14583E-02 1.67969E-02 0.00000E+00
 -1       497 1.25000E-02 1.71875E-02 0.00000E+00
 -1       498 1.35417E-02 1.75781E-02 0.00000E+00
 -1       499 1.45833E-02 1.79687E-02 0.00000E+00
 -1       500 1.56250E-02 1.83594E-02 0.00000E+00
 -1       501 1.77083E-02 1.25000E-02 0.00000E+00
 -1       502 1.87500E-02 1.25000E-02 0.00000E+00
 -1       503 1.97917E-02 1.25000E-02 0.00000E+00
 -1       504 2.08333E-02 1.25000E-02 0.00000E+00
 -1       505 2.18750E-02 1.25000E-02 0.00000E+00
 -1       506 2.29167E-02 1.25000E-02 0.00000E+00
 -1       507 2.39583E-02 1.25000E-02 0.00000E+00
 -1       508 2.50000E-02 1.25000E-02 0.00000E+00
 -1       509 2.60417E-02 1.25000E-02 0.00000E+00
 -1       510 2.70833E-02 1.25000E-02 0.00000E+00
 -1       511 2.81250E-02 1.25000E-02 0.00000E+00
 -1       512 2.91667E-02 1.25000E-02 0.00000E+00
 -1       513 3.02083E-02 1.25000E-02 0.00000E+00
 -1       514 3.12500E-02 1.25000E-02 0.00000E+00
 -1       515 3.22917E-02 1.25000E-02 0.00000E+00
 -1       516 1.66667E-02 1.35417E-02 0.00000E+00
 -1       517 1.66667E-02 1.45833E-02 0.00000E+00
 -1       518 1.66667E-02 1.56250E-02 0.00000E+00
 -1       519 1.66667E-02 1.66667E-02 0.00000E+00
 -1       520 1.66667E-02 1.77083E-02 0.00000E+00
 -1       521 1.77083E-02 1.28906E-02 0.00000E+00
 -1       522 1.87500E-02 1.32813E-02 0.00000E+00
 -1       523 1.97917E-02 1.36719E-02 0.00000E+00
 -1       524 2.08333E-02 1.40625E-02 0.00000E+00
 -1       525 2.18750E-02 1.44531E-02 0.00000E+00
 -1       526 2.29167E-02 1.48437E-02 0.00000E+00
 -1       527 2.39583E-02 1.52344E-02 0.00000E+00
 -1       528 2.50000E-02 1.56250E-02 0.00000E+00
 -1       529 2.60417E-02 1.60156E-02 0.00000E+00
 -1       530 2.70833E-02 1.64062E-02 0.00000E+00
 -1       531 2.81250E-02 1.67969E-02 0.00000E+00
 -1       532 2.91667E-02 1.71875E-02 0.00000E+00
 -1       533 3.02083E-02 1.75781E-02 0.00000E+00
 -1       534 3.12500E-02 1.79687E-02 0.00000E+00
 -1       535 3.22917E-02 1.83594E-02 0.00000E+00
 -1       536 3.43750E-02 1.25000E-02 0.00000E+00
 -1       537 3.54167E-02 1.25000E-02 0.00000E+00
 -1       538 3.64583E-02 1.25000E-02 0.00000E+00
 -1       539 3.75000E-02 1.25000E-02 0.00000E+00
 -1       540 3.85417E-02 1.25000E-02 0.00000E+00
 -1       541 3.95833E-02 1.25000E-02 0.00000E+00
 -1       542 4.06250E-02 1.25000E-02 0.00000E+00
 -1       543 4.16667E-02 1.25000E-02 0.00000E+00
 -1       544 4.27083E-02 1.25000E-02 0.00000E+00
 -1       545 4.37500E-02 1.25000E-02 0.00000E+00
 -1       546 4.47917E-02 1.25000E-02 0.00000E+00
 -1       547 4.58333E-02 1.25000E-02 0.00000E+00
 -1       548 4.68750E-02 1.25000E-02 0.00000E+00
 -1       549 4.79167E-02 1.25000E-02 0.00000E+00
 -1       550 4.89583E-02 1.25000E-02 0.00000E+00
 -1       551 3.33333E-02 1.35417E-02 0.00000E+00
 -1       552 3.33333E-02 1.45833E-02 0.00000E+00
 -1       553 3.33333E-02 1.56250E-02 0.00000E+00
 -1       554 3.33333E-02 1.66667E-02 0.00000E+00
 -1       555 3.33333E-02 1.77083E-02 0.00000E+00
 -1       556 3.43750E-02 1.28906E-02 0.00000E+00
 -1       557 3.54167E-02 1.32813E-02 0.00000E+00
 -1       558 3.64583E-02 1.36719E-02 0.00000E+00
 -1       559 3.75000E-02 1.40625E-02 0.00000E+00
 -1       560 3.85417E-02 1.44531E-02 0.00000E+00
 -1       561 3.95833E-02 1.48437E-02 0.00000E+00
 -1       562 4.06250E-02 1.52344E-02 0.00000E+00
 -1       563 4.16667E-02 1.56250E-02 0.00000E+00
 -1       564 4.27083E-02 1.60156E-02 0.00000E+00
 -1       565 4.37500E-02 1.64062E-02 0.00000E+00
 -1       566 4.47917E-02 1.67969E-02 0.00000E+00
 -1       567 4.58333E-02 1.71875E-02 0.00000E+00
 -1       568 4.68750E-02 1.75781E-02 0.00000E+00
 -1       569 4.79167E-02 1.79687E-02 0.00000E+00
 -1       570 4.89583E-02 1.83594E-02 0.00000E+00
 -1       571 5.10417E-02 1.25000E-02 0.00000E+00
 -1       572 5.20833E-02 1.25000E-02 0.00000E+00
 -1       573 5.31250E-02 1.25000E-02 0.00000E+00
 -1       574 5.41667E-02 1.25000E-02 0.00000E+00
 -1       575 5.52083E-02 1.25000E-02 0.00000E+00
 -1       576 5.62500E-02 1.25000E-02 0.00000E+00
 -1       577 5.72917E-02 1.25000E-02 0.00000E+00
 -1       578 5.83333E-02 1.25000E-02 0.00000E+00
 -1       579 5.93750E-02 1.25000E-02 0.00000E+00
 -1       580 6.04167E-02 1.25000E-02 0.00000E+00
 -1       581 6.14583E-02 1.25000E-02 0.00000E+00
 -1       582 6.25000E-02 1.25000E-02 0.00000E+00
 -1       583 6.35417E-02 1.25000E-02 0.00000E+00
 -1       584 6.45833E-02 1.25000E-02 0.00000E+00
 -1       585 6.56250E-02 1.25000E-02 0.00000E+00
 -1       586 5.00000E-02 1.35417E-02 0.00000E+00
 -1       587 5.00000E-02 1.45833E-02 0.00000E+00
 -1       588 5.00000E-02 1.56250E-02 0.00000E+00
 -1       589 5.00000E-02 1.66667E-02 0.00000E+00
 -1       590 5.00000E-02 1.77083E-02 0.00000E+00
 -1       591 5.10417E-02 1.28906E-02 0.00000E+00
 -1       592 5.20833E-02 1.32813E-02 0.00000E+00
 -1       593 5.31250E-02 1.36719E-02 0.00000E+00
 -1       594 5.41667E-02 1.40625E-02 0.00000E+00
 -1       595 5.52083E-02 1.44531E-02 0.00000E+00
 -1       596 5.62500E-02 1.48437E-02 0.00000E+00
 -1       597 5.72917E-02 1.52344E-02 0.00000E+00
 -1       598 5.83333E-02 1.56250E-02 0.00000E+00
 -1       599 5.93750E-02 1.60156E-02 0.00000E+00
 -1       600 6.04167E-02 1.64062E-02 0.00000E+00
 -1       601 6.14583E-02 1.67969E-02 0.00000E+00
 -1       602 6.25000E-02 1.71875E-02 0.00000E+00
 -1       603 6.35417E-02 1.75781E-02 0.00000E+00
 -1       604 6.45833E-02 1.79687E-02 0.00000E+00
 -1       605 6.56250E-02 1.83594E-02 0.00000E+00
 -1       606 6.77083E-02 1.25000E-02 0.00000E+00
 -1       607 6.87500E-02 1.25000E-02 0.00000E+00
 -1       608 6.97917E-02 1.25000E-02 0.00000E+00
 -1       609 7.08333E-02 1.25000E-02 0.00000E+00
 -1       610 7.18750E-02 1.25000E-02 0.00000E+00
 -1       611 7.29167E-02 1.25000E-02 0.00000E+00
 -1       612 7.39583E-02 1.25000E-02 0.00000E+00
 -1       613 7.50000E-02 1.25000E-02 0.00000E+00
 -1       614 7.60417E-02 1.25000E-02 0.00000E+00
 -1       615 7.70833E-02 1.25000E-02 0.00000E+00
 -1       616 7.81250E-02 1.25000E-02 0.00000E+00
 -1       617 7.91667E-02 1.25000E-02 0.00000E+00
 -1       618 8.02083E-02 1.25000E-02 0.00000E+00
 -1       619 8.12500E-02 1.25000E-02 0.00000E+00
 -1       620 8.22917E-02 1.25000E-02 0.00000E+00
 -1       621 6.66667E-02 1.35417E-02 0.00000E+00
 -1       622 6.66667E-02 1.45833E-02 0.00000E+00
 -1       623 6.66667E-02 1.56250E-02 0.00000E+00
 -1       624 6.66667E-02 1.66667E-02 0.00000E+00
 -1       625 6.66667E-02 1.77083E-02 0.00000E+00
 -1       626 6.77083E-02 1.28906E-02 0.00000E+00
 -1       627 6.87500E-02 1.32813E-02 0.00000E+00
 -1       628 6.97917E-02 1.36719E-02 0.00000E+00
 -1       629 7.08333E-02 1.40625E-02 0.00000E+00
 -1       630 7.18750E-02 1.44531E-02 0.00000E+00
 -1       631 7.29167E-02 1.48437E-02 0.00000E+00
 -1       632 7.39583E-02 1.52344E-02 0.00000E+00
 -1       633 7.50000E-02 1.56250E-02 0.00000E+00
 -1       634 7.60417E-02 1.60156E-02 0.00000E+00
 -1       635 7.70833E-02 1.64062E-02 0.00000E+00
 -1       636 7.81250E-02 1.67969E-02 0.00000E+00
 -1       637 7.91667E-02 1.71875E-02 0.00000E+00
 -1       638 8.02083E-02 1.75781E-02 0.00000E+00
 -1       639 8.12500E-02 1.79687E-02 0.00000E+00
 -1       640 8.22917E-02 1.83594E-02 0.00000E+00
 -1       641 8.43750E-02 1.25000E-02 0.00000E+00
 -1       642 8.54167E-02 1.25000E-02 0.00000E+00
 -1       643 8.64583E-02 1.25000E-02 0.00000E+00
 -1       644 8.75000E-02 1.25000E-02 0.00000E+00
 -1       645 8.85417E-02 1.25000E-02 0.00000E+00
 -1       646 8.95833E-02 1.25000E-02 0.00000E+00
 -1       647 9.06250E-02 1.25000E-02 0.00000E+00
 -1       648 9.16667E-02 1.25000E-02 0.00000E+00
 -1       649 9.27083E-02 1.25000E-02 0.00000E+00
 -1       650 9.37500E-02 1.25000E-02 0.00000E+00
 -1       651 9.47917E-02 1.25000E-02 0.00000E+00
 -1       652 9.58333E-02 1.25000E-02 0.00000E+00
 -1       653 9.68750E-02 1.25000E-02 0.00000E+00
 -1       654 9.79167E-02 1.25000E-02 0.00000E+00
 -1       655 9.89583E-02 1.25000E-02 0.00000E+00
 -1       656 8.33333E-02 1.35417E-02 0.00000E+00
 -1       657 8.33333E-02 1.45833E-02 0.00000E+00
 -1       658 8.33333E-02 1.56250E-02 0.00000E+00
 -1       659 8.33333E-02 1.66667E-02 0.00000E+00
 -1       660 8.33333E-02 1.77083E-02 0.00000E+00
 -1       661 8.43750E-02 1.28906E-02 0.00000E+00
 -1       662 8.54167E-02 1.32813E-02 0.00000E+00
 -1       663 8.64583E-02 1.36719E-02 0.00000E+00
 -1       664 8.75000E-02 1.40625E-02 0.00000E+00
 -1       665 8.85417E-02 1.44531E-02 0.00000E+00
 -1       666 8.95833E-02 1.48437E-02 0.00000E+00
 -1       667 9.06250E-02 1.52344E-02 0.00000E+00
 -1       668 9.16667E-02 1.56250E-02 0.00000E+00
 -1       669 9.27083E-02 1.60156E-02 0.00000E+00
 -1       670 9.37500E-02 1.64062E-02 0.00000E+00
 -1       671 9.47917E-02 1.67969E-02 0.00000E+00
 -1       672 9.58333E-02 1.71875E-02 0.00000E+00
 -1       673 9.68750E-02 1.75781E-02 0.00000E+00
 -1       674 9.79167E-02 1.79687E-02 0.00000E+00
 -1       675 9.89583E-02 1.83594E-02 0.00000E+00
 -1       676 1.00000E-01 1.35417E-02 0.00000E+00
 -1       677 1.00000E-01 1.45833E-02 0.00000E+00
 -1       678 1.00000E-01 1.56250E-02 0.00000E+00
 -1       679 1.00000E-01 1.66667E-02 0.00000E+00
 -1       680 1.00000E-01 1.77083E-02 0.00000E+00
 -1       681 1.04167E-03 1.87500E-02 0.00000E+00
 -1       682 2.08333E-03 1.87500E-02 0.00000E+00
 -1       683 3.12500E-03 1.87500E-02 0.00000E+00
 -1       684 4.16667E-03 1.87500E-02 0.00000E+00
 -1       685 5.20833E-03 1.87500E-02 0.00000E+00
 -1       686 6.25000E-03 1.87500E-02 0.00000E+00
 -1       687 7.29167E-03 1.87500E-02 0.00000E+00
 -1       688 8.33333E-03 1.87500E-02 0.00000E+00
 -1       689 9.37500E-03 1.87500E-02 0.00000E+00
 -1       690 1.04167E-02 1.87500E-02 0.00000E+00
 -1       691 1.14583E-02 1.87500E-02 0.00000E+00
 -1       692 1.25000E-02 1.87500E-02 0.00000E+00
 -1       693 1.35417E-02 1.87500E-02 0.00000E+00
 -1       694 1.45833E-02 1.87500E-02 0.00000E+00
 -1       695 1.56250E-02 1.87500E-02 0.00000E+00
 -1       696 0.00000E+00 1.97917E-02 0.00000E+00
 -1       697 0.00000E+00 2.08333E-02 0.00000E+00
 -1       698 0.00000E+00 2.18750E-02 0.00000E+00
 -1       699 0.00000E+00 2.29167E-02 0.00000E+00
 -1       700 0.00000E+00 2.39583E-02 0.00000E+00
 -1       701 1.04167E-03 1.91406E-02 0.00000E+00
 -1       702 2.08333E-03 1.95312E-02 0.00000E+00
 -1       703 3.12500E-03 1.99219E-02 0.00000E+00
 -1       704 4.16667E-03 2.03125E-02 0.00000E+00
 -1       705 5.20833E-03 2.07031E-02 0.00000E+00
 -1       706 6.25000E-03 2.10938E-02 0.00000E+00
 -1       707 7.29167E-03 2.14844E-02 0.00000E+00
 -1       708 8.33333E-03 2.18750E-02 0.00000E+00
 -1       709 9.37500E-03 2.22656E-02 0.00000E+00
 -1       710 1.04167E-02 2.26563E-02 0.00000E+00
 -1       711 1.14583E-02 2.30469E-02 0.00000E+00
 -1       712 1.25000E-02 2.34375E-02 0.00000E+00
 -1       713 1.35417E-02 2.38281E-02 0.00000E+00
 -1       714 1.45833E-02 2.42187E-02 0.00000E+00
 -1       715 1.56250E-02 2.46094E-02 0.00000E+00
 -1       716 1.77083E-02 1.87500E-02 0.00000E+00
 -1       717 1.87500E-02 1.87500E-02 0.00000E+00
 -1       718 1.97917E-02 1.87500E-02 0.00000E+00
 -1       719 2.08333E-02 1.87500E-02 0.00000E+00
 -1       720 2.18750E-02 1.87500E-02 0.00000E+00
 -1       721 2.29167E-02 1.87500E-02 0.00000E+00
 -1       722 2.39583E-02 1.87500E-02 0.00000E+00
 -1       723 2.50000E-02 1.87500E-02 0.00000E+00
 -1       724 2.60417E-02 1.87500E-02 0.00000E+00
 -1       725 2.70833E-02 1.87500E-02 0.00000E+00
 -1       726 2.81250E-02 1.87500E-02 0.00000E+00
 -1       727 2.91667E-02 1.87500E-02 0.00000E+00
 -1       728 3.02083E-02 1.87500E-02 0.00000E+00
 -1       729 3.12500E-02 1.87500E-02 0.00000E+00
 -1       730 3.22917E-02 1.87500E-02 0.00000E+00
 -1       731 1.66667E-02 1.97917E-02 0.00000E+00
 -1       732 1.66667E-02 2.08333E-02 0.00000E+00
 -1       733 1.66667E-02 2.18750E-02 0.00000E+00
 -1       734 1.66667E-02 2.29167E-02 0.00000E+00
 -1       735 1.66667E-02 2.39583E-02 0.00000E+00
 -1       736 1.77083E-02 1.91406E-02 0.00000E+00
 -1       737 1.87500E-02 1.95312E-02 0.00000E+00
 -1       738 1.97917E-02 1.99219E-02 0.00000E+00
 -1       739 2.08333E-02 2.03125E-02 0.00000E+00
 -1       740 2.18750E-02 2.07031E-02 0.00000E+00
 -1       741 2.29167E-02 2.10938E-02 0.00000E+00
 -1       742 2.39583E-02 2.14844E-02 0.00000E+00
 -1       743 2.50000E-02 2.18750E-02 0.00000E+00
 -1       744 2.60417E-02 2.22656E-02 0.00000E+00
 -1       745 2.70833E-02 2.26563E-02 0.00000E+00
 -1       746 2.81250E-02 2.30469E-02 0.00000E+00
 -1       747 2.91667E-02 2.34375E-02 0.00000E+00
 -1       748 3.02083E-02 2.38281E-02 0.00000E+00
 -1       749 3.12500E-02 2.42187E-02 0.00000E+00
 -1       750 3.22917E-02 2.46094E-02 0.00000E+00
 -1       751 3.43750E-02 1.87500E-02 0.00000E+00
 -1       752 3.54167E-02 1.87500E-02 0.00000E+00
 -1       753 3.64583E-02 1.87500E-02 0.00000E+00
 -1       754 3.75000E-02 1.87500E-02 0.00000E+00
 -1       755 3.85417E-02 1.87500E-02 0.00000E+00
 -1       756 3.95833E-02 1.87500E-02 0.00000E+00
 -1       757 4.06250E-02 1.87500E-02 0.00000E+00
 -1       758 4.16667E-02 1.87500E-02 0.00000E+00
 -1       759 4.27083E-02 1.87500E-02 0.00000E+00
 -1       760 4.37500E-02 1.87500E-02 0.00000E+00
 -1       761 4.47917E-02 1.87500E-02 0.00000E+00
 -1       762 4.58333E-02 1.87500E-02 0.00000E+00
 -1       763 4.68750E-02 1.87500E-02 0.00000E+00
 -1       764 4.79167E-02 1.87500E-02 0.00000E+00
 -1       765 4.89583E-02 1.87500E-02 0.00000E+00
 -1       766 3.33333E-02 1.97917E-02 0.00000E+00
 -1       767 3.33333E-02 2.08333E-02 0.00000E+00
 -1       768 3.33333E-02 2.18750E-02 0.00000E+00
 -1       769 3.33333E-02 2.29167E-02 0.00000E+00
 -1       770 3.33333E-02 2.39583E-02 0.00000E+00
 -1       771 3.43750E-02 1.91406E-02 0.00000E+00
 -1       772 3.54167E-02 1.95312E-02 0.00000E+00
 -1       773 3.64583E-02 1.99219E-02 0.00000E+00
 -1       774 3.75000E-02 2.03125E-02 0.00000E+00
 -1       775 3.85417E-02 2.07031E-02 0.00000E+00
 -1       776 3.95833E-02 2.10938E-02 0.00000E+00
 -1       777 4.06250E-02 2.14844E-02 0.00000E+00
 -1       778 4.16667E-02 2.18750E-02 0.00000E+00
 -1       779 4.27083E-02 2.22656E-02 0.00000E+00
 -1       780 4.37500E-02 2.26563E-02 0.00000E+00
 -1       781 4.47917E-02 2.30469E-02 0.00000E+00
 -1       782 4.58333E-02 2.34375E-02 0.00000E+00
 -1       783 4.68750E-02 2.38281E-02 0.00000E+00
 -1       784 4.79167E-02 2.42187E-02 0.00000E+00
 -1       785 4.89583E-02 2.46094E-02 0.00000E+00
 -1       786 5.10417E-02 1.87500E-02 0.00000E+00
 -1       787 5.20833E-02 1.87500E-02 0.00000E+00
 -1       788 5.31250E-02 1.87500E-02 0.00000E+00
 -1       789 5.41667E-02 1.87500E-02 0.00000E+00
 -1       790 5.52083E-02 1.87500E-02 0.00000E+00
 -1       791 5.62500E-02 1.87500E-02 0.00000E+00
 -1       792 5.72917E-02 1.87500E-02 0.00000E+00
 -1       793 5.83333E-02 1.87500E-02 0.00000E+00
 -1       794 5.93750E-02 1.87500E-02 0.00000E+00
 -1       795 6.04167E-02 1.87500E-02 0.00000E+00
 -1       796 6.14583E-02 1.87500E-02 0.00000E+00
 -1       797 6.25000E-02 1.87500E-02 0.00000E+00
 -1       798 6.35417E-02 1.87500E-02 0.00000E+00
 -1       799 6.45833E-02 1.87500E-02 0.00000E+00
 -1       800 6.56250E-02 1.87500E-02 0.00000E+00
 -1       801 5.00000E-02 1.97917E-02 0.00000E+00
 -1       802 5.00000E-02 2.08333E-02 0.00000E+00
 -1       803 5.00000E-02 2.18750E-02 0.00000E+00
 -1       804 5.00000E-02 2.29167E-02 0.00000E+00
 -1       805 5.00000E-02 2.39583E-02 0.00000E+00
 -1       806 5.10417E-02 1.91406E-02 0.00000E+00
 -1       807 5.20833E-02 1.95312E-02 0.00000E+00
 -1       808 5.31250E-02 1.99219E-02 0.00000E+00
 -1       809 5.41667E-02 2.03125E-02 0.00000E+00
 -1       810 5.52083E-02 2.07031E-02 0.00000E+00
 -1       811 5.62500E-02 2.10938E-02 0.00000E+00
 -1       812 5.72917E-02 2.14844E-02 0.00000E+00
 -1       813 5.83333E-02 2.18750E-02 0.00000E+00
 -1       814 5.93750E-02 2.22656E-02 0.00000E+00
 -1       815 6.04167E-02 2.26563E-02 0.00000E+00
 -1       816 6.14583E-02 2.30469E-02 0.00000E+00
 -1       817 6.25000E-02 2.34375E-02 0.00000E+00
 -1       818 6.35417E-02 2.38281E-02 0.00000E+00
 -1       819 6.45833E-02 2.42187E-02 0.00000E+00
 -1       820 6.56250E-02 2.46094E-02 0.00000E+00
 -1       821 6.77083E-02 1.87500E-02 0.00000E+00
 -1       822 6.87500E-02 1.87500E-02 0.00000E+00
 -1       823 6.97917E-02 1.87500E-02 0.00000E+00
 -1       824 7.08333E-02 1.87500E-02 0.00000E+00
 -1       825 7.18750E-02 1.87500E-02 0.00000E+00
 -1       826 7.29167E-02 1.87500E-02 0.00000E+00
 -1       827 7.39583E-02 1.87500E-02 0.00000E+00
 -1       828 7.50000E-02 1.87500E-02 0.00000E+00
 -1       829 7.60417E-02 1.87500E-02 0.00000E+00
 -1       830 7.70833E-02 1.87500E-02 0.00000E+00
 -1       831 7.81250E-02 1.87500E-02 0.00000E+00
 -1       832 7.91667E-02 1.87500E-02 0.00000E+00
 -1       833 8.02083E-02 1.87500E-02 0.00000E+00
 -1       834 8.12500E-02 1.87500E-02 0.00000E+00
 -1       835 8.22917E-02 1.87500E-02 0.00000E+00
 -1       836 6.66667E-02 1.97917E-02 0.00000E+00
 -1       837 6.66667E-02 2.08333E-02 0.00000E+00
 -1       838 6.66667E-02 2.18750E-02 0.00000E+00
 -1       839 6.66667E-02 2.29167E-02 0.00000E+00
 -1       840 6.66667E-02 2.39583E-02 0.00000E+00
 -1       841 6.77083E-02 1.91406E-02 0.00000E+00
 -1       842 6.87500E-02 1.95312E-02 0.00000E+00
 -1       843 6.97917E-02 1.99219E-02 0.00000E+00
 -1       844 7.08333E-02 2.03125E-02 0.00000E+00
 -1       845 7.18750E-02 2.07031E-02 0.00000E+00
 -1       846 7.29167E-02 2.10938E-02 0.00000E+00
 -1       847 7.39583E-02 2.14844E-02 0.00000E+00
 -1       848 7.50000E-02 2.18750E-02 0.00000E+00
 -1       849 7.60417E-02 2.22656E-02 0.00000E+00
 -1       850 7.70833E-02 2.26563E-02 0.00000E+00
 -1       851 7.81250E-02 2.30469E-02 0.00000E+00
 -1       852 7.91667E-02 2.34375E-02 0.00000E+00
 -1       853 8.02083E-02 2.38281E-02 0.00000E+00
 -1       854 8.12500E-02 2.42187E-02 0.00000E+00
 -1       855 8.22917E-02 2.46094E-02 0.00000E+00
 -1       856 8.43750E-02 1.87500E-02 0.00000E+00
 -1       857 8.54167E-02 1.87500E-02 0.00000E+00
 -1       858 8.64583E-02 1.87500E-02 0.00000E+00
 -1       859 8.75000E-02 1.87500E-02 0.00000E+00
 -1       860 8.85417E-02 1.87500E-02 0.00000E+00
 -1       861 8.95833E-02 1.87500E-02 0.00000E+00
 -1       862 9.06250E-02 1.87500E-02 0.00000E+00
 -1       863 9.16667E-02 1.87500E-02 0.00000E+00
 -1       864 9.27083E-02 1.87500E-02 0.00000E+00
 -1       865 9.37500E-02 1.87500E-02 0.00000E+00
 -1       866 9.47917E-02 1.87500E-02 0.00000E+00
 -1       867 9.58333E-02 1.87500E-02 0.00000E+00
 -1       868 9.68750E-02 1.87500E-02 0.00000E+00
 -1       869 9.79167E-02 1.87500E-02 0.00000E+00
 -1       870 9.89583E-02 1.87500E-02 0.00000E+00
 -1       871 8.33333E-02 1.97917E-02 0.00000E+00
 -1       872 8.33333E-02 2.08333E-02 0.00000E+00
 -1       873 8.33333E-02 2.18750E-02 0.00000E+00
 -1       874 8.33333E-02 2.29167E-02 0.00000E+00
 -1       875 8.33333E-02 2.39583E-02 0.00000E+00
 -1       876 8.43750E-02 1.91406E-02 0.00000E+00
 -1       877 8.54167E-02 1.95312E-02 0.00000E+00
 -1       878 8.64583E-02 1.99219E-02 0.00000E+00
 -1       879 8.75000E-02 2.03125E-02 0.00000E+00
 -1       880 8.85417E-02 2.07031E-02 0.00000E+00
 -1       881 8.95833E-02 2.10938E-02 0.00000E+00
 -1       882 9.06250E-02 2.14844E-02 0.00000E+00
 -1       883 9.16667E-02 2.18750E-02 0.00000E+00
 -1       884 9.27083E-02 2.22656E-02 0.00000E+00
 -1       885 9.37500E-02 2.26563E-02 0.00000E+00
 -1       886 9.47917E-02 2.30469E-02 0.00000E+00
 -1       887 9.58333E-02 2.34375E-02 0.00000E+00
 -1       888 9.68750E-02 2.38281E-02 0.00000E+00
 -1       889 9.79167E-02 2.42187E-02 0.00000E+00
 -1       890 9.89583E-02 2.46094E-02 0.00000E+00
 -1       891 1.00000E-01 1.97917E-02 0.00000E+00
 -1       892 1.00000E-01 2.08333E-02 0.00000E+00
 -1       893 1.00000E-01 2.18750E-02 0.00000E+00
 -1       894 1.00000E-01 2.29167E-02 0.00000E+00
 -1       895 1.00000E-01 2.39583E-02 0.00000E+00
 -1       896 1.04167E-03 2.50000E-02 0.00000E+00
 -1       897 2.08333E-03 2.50000E-02 0.00000E+00
 -1       898 3.12500E-03 2.50000E-02 0.00000E+00
 -1       899 4.16667E-03 2.50000E-02 0.00000E+00
 -1       900 5.20833E-03 2.50000E-02 0.00000E+00
 -1       901 6.25000E-03 2.50000E-02 0.00000E+00
 -1       902 7.29167E-03 2.50000E-02 0.00000E+00
 -1       903 8.33333E-03 2.50000E-02 0.00000E+00
 -1       904 9.37500E-03 2.50000E-02 0.00000E+00
 -1       905 1.04167E-02 2.50000E-02 0.00000E+00
 -1       906 1.14583E-02 2.50000E-02 0.00000E+00
 -1       907 1.25000E-02 2.50000E-02 0.00000E+00
 -1       908 1.35417E-02 2.50000E-02 0.00000E+00
 -1       909 1.45833E-02 2.50000E-02 0.00000E+00
 -1       910 1.56250E-02 2.50000E-02 0.00000E+00
 -1       911 1.77083E-02 2.50000E-02 0.00000E+00
 -1       912 1.87500E-02 2.50000E-02 0.00000E+00
 -1       913 1.97917E-02 2.50000E-02 0.00000E+00
 -1       914 2.08333E-02 2.50000E-02 0.00000E+00
 -1       915 2.18750E-02 2.50000E-02 0.00000E+00
 -1       916 2.29167E-02 2.50000E-02 0.00000E+00
 -1       917 2.39583E-02 2.50000E-02 0.00000E+00
 -1       918 2.50000E-02 2.50000E-02 0.00000E+00
 -1       919 2.60417E-02 2.50000E-02 0.00000E+00
 -1       920 2.70833E-02 2.50000E-02 0.00000E+00
 -1       921 2.81250E-02 2.50000E-02 0.00000E+00
 -1       922 2.91667E-02 2.50000E-02 0.00000E+00
 -1       923 3.02083E-02 2.50000E-02 0.00000E+00
 -1       924 3.12500E-02 2.50000E-02 0.00000E+00
 -1       925 3.22917E-02 2.50000E-02 0.00000E+00
 -1       926 3.43750E-02 2.50000E-02 0.00000E+00
 -1       927 3.54167E-02 2.50000E-02 0.00000E+00
 -1       928 3.64583E-02 2.50000E-02 0.00000E+00
 -1       929 3.75000E-02 2.50000E-02 0.00000E+00
 -1       930 3.85417E-02 2.50000E-02 0.00000E+00
 -1       931 3.95833E-02 2.50000E-02 0.00000E+00
 -1       932 4.06250E-02 2.50000E-02 0.00000E+00
 -1       933 4.16667E-02 2.50000E-02 0.00000E+00
 -1       934 4.27083E-02 2.50000E-02 0.00000E+00
 -1       935 4.37500E-02 2.50000E-02 0.00000E+00
 -1       936 4.47917E-02 2.50000E-02 0.00000E+00
 -1       937 4.58333E-02 2.50000E-02 0.00000E+00
 -1       938 4.68750E-02 2.50000E-02 0.00000E+00
 -1       939 4.79167E-02 2.50000E-02 0.00000E+00
 -1       940 4.89583E-02 2.50000E-02 0.00000E+00
 -1       941 5.10417E-02 2.50000E-02 0.00000E+00
 -1       942 5.20833E-02 2.50000E-02 0.00000E+00
 -1       943 5.31250E-02 2.50000E-02 0.00000E+00
 -1       944 5.41667E-02 2.50000E-02 0.00000E+00
 -1       945 5.52083E-02 2.50000E-02 0.00000E+00
 -1       946 5.62500E-02 2.50000E-02 0.00000E+00
 -1       947 5.72917E-02 2.50000E-02 0.00000E+00
 -1       948 5.83333E-02 2.50000E-02 0.00000E+00
 -1       949 5.93750E-02 2.50000E-02 0.00000E+00
 -1       950 6.04167E-02 2.50000E-02 0.00000E+00
 -1       951 6.14583E-02 2.50000E-02 0.00000E+00
 -1       952 6.25000E-02 2.50000E-02 0.00000E+00
 -1       953 6.35417E-02 2.50000E-02 0.00000E+00
 -1       954 6.45833E-02 2.50000E-02 0.00000E+00
 -1       955 6.56250E-02 2.50000E-02 0.00000E+00
 -1       956 6.77083E-02 2.50000E-02 0.00000E+00
 -1       957 6.87500E-02 2.50000E-02 0.00000E+00
 -1       958 6.97917E-02 2.50000E-02 0.00000E+00
 -1       959 7.08333E-02 2.50000E-02 0.00000E+00
 -1       960 7.18750E-02 2.50000E-02 0.00000E+00
 -1       961 7.29167E-02 2.50000E-02 0.00000E+00
 -1       962 7.39583E-02 2.50000E-02 0.00000E+00
 -1       963 7.50000E-02 2.50000E-02 0.00000E+00
 -1       964 7.60417E-02 2.50000E-02 0.00000E+00
 -1       965 7.70833E-02 2.50000E-02 0.00000E+00
 -1       966 7.81250E-02 2.50000E-02 0.00000E+00
 -1       967 7.91667E-02 2.50000E-02 0.00000E+00
 -1       968 8.02083E-02 2.50000E-02 0.00000E+00
 -1       969 8.12500E-02 2.50000E-02 0.00000E+00
 -1       970 8.22917E-02 2.50000E-02 0.00000E+00
 -1       971 8.43750E-02 2.50000E-02 0.00000E+00
 -1       972 8.54167E-02 2.50000E-02 0.00000E+00
 -1       973 8.64583E-02 2.50000E-02 0.00000E+00
 -1       974 8.75000E-02 2.50000E-02 0.00000E+00
 -1       975 8.85417E-02 2.50000E-02 0.00000E+00
 -1       976 8.95833E-02 2.50000E-02 0.00000E+00
 -1       977 9.06250E-02 2.50000E-02 0.00000E+00
 -1       978 9.16667E-02 2.50000E-02 0.00000E+00
 -1       979 9.27083E-02 2.50000E-02 0.00000E+00
 -1       980 9.37500E-02 2.50000E-02 0.00000E+00
 -1       981 9.47917E-02 2.50000E-02 0.00000E+00
 -1       982 9.58333E-02 2.50000E-02 0.00000E+00
 -1       983 9.68750E-02 2.50000E-02 0.00000E+00
 -1       984 9.79167E-02 2.50000E-02 0.00000E+00
 -1       985 9.89583E-02 2.50000E-02 0.00000E+00
 -3
    3C                           440                                     1
 -1         1   12    0    1
 -2         1        37        36
 -1         2   12    0    1
 -2        37        39        38
 -1         3   12    0    1
 -2        39        41        40
 -1         4   12    0    1
 -2        41        43        42
 -1         5   12    0    1
 -2        43        45        44
 -1         6   12    0    1
 -2        45        47        46
 -1         7   12    0    1
 -2        47        49        48
 -1         8   12    0    1
 -2        49         2        50
 -1         9   12    0    1
 -2         1        52        51
 -1        10   12    0    1
 -2        52        54        53
 -1        11   12    0    1
 -2        54         8        55
 -1        12   12    0    1
 -2         1        57        56
 -1        13   12    0    1
 -2        57        59        58
 -1        14   12    0    1
 -2        59        61        60
 -1        15   12    0    1
 -2        61        63        62
 -1        16   12    0    1
 -2        63        65        64
 -1        17   12    0    1
 -2        65        67        66
 -1        18   12    0    1
 -2        67        69        68
 -1        19   12    0    1
 -2        69         9        70
 -1        20   12    0    1
 -2         2        72        71
 -1        21   12    0    1
 -2        72        74        73
 -1        22   12    0    1
 -2        74        76        75
 -1        23   12    0    1
 -2        76        78        77
 -1        24   12    0    1
 -2        78        80        79
 -1        25   12    0    1
 -2        80        82        81
 -1        26   12    0    1
 -2        82        84        83
 -1        27   12    0    1
 -2        84         3        85
 -1        28   12    0    1
 -2         2        87        86
 -1        29   12    0    1
 -2        87        89        88
 -1        30   12    0    1
 -2        89         9        90
 -1        31   12    0    1
 -2         2        92        91
 -1        32   12    0    1
 -2        92        94        93
 -1        33   12    0    1
 -2        94        96        95
 -1        34   12    0    1
 -2        96        98        97
 -1        35   12    0    1
 -2        98       100        99
 -1        36   12    0    1
 -2       100       102       101
 -1        37   12    0    1
 -2       102       104       103
 -1        38   12    0    1
 -2       104        10       105
 -1        39   12    0    1
 -2         3       107       106
 -1        40   12    0    1
 -2       107       109       108
 -1        41   12    0    1
 -2       109       111       110
 -1        42   12    0    1
 -2       111       113       112
 -1        43   12    0    1
 -2       113       115       114
 -1        44   12    0    1
 -2       115       117       116
 -1        45   12    0    1
 -2       117       119       118
 -1        46   12    0    1
 -2       119         4       120
 -1        47   12    0    1
 -2         3       122       121
 -1        48   12    0    1
 -2       122       124       123
 -1        49   12    0    1
 -2       124        10       125
 -1        50   12    0    1
 -2         3       127       126
 -1        51   12    0    1
 -2       127       129       128
 -1        52   12    0    1
 -2       129       131       130
 -1        53   12    0    1
 -2       131       133       132
 -1        54   12    0    1
 -2       133       135       134
 -1        55   12    0    1
 -2       135       137       136
 -1        56   12    0    1
 -2       137       139       138
 -1        57   12    0    1
 -2       139        11       140
 -1        58   12    0    1
 -2         4       142       141
 -1        59   12    0    1
 -2       142       144       143
 -1        60   12    0    1
 -2       144       146       145
 -1        61   12    0    1
 -2       146       148       147
 -1        62   12    0    1
 -2       148       150       149
 -1        63   12    0    1
 -2       150       152       151
 -1        64   12    0    1
 -2       152       154       153
 -1        65   12    0    1
 -2       154         5       155
 -1        66   12    0    1
 -2         4       157       156
 -1        67   12    0    1
 -2       157       159       158
 -1        68   12    0    1
 -2       159        11       160
 -1        69   12    0    1
 -2         4       162       161
 -1        70   12    0    1
 -2       162       164       163
 -1        71   12    0    1
 -2       164       166       165
 -1        72   12    0    1
 -2       166       168       167
 -1        73   12    0    1
 -2       168       170       169
 -1        74   12    0    1
 -2       170       172       171
 -1        75   12    0    1
 -2       172       174       173
 -1        76   12    0    1
 -2       174        12       175
 -1        77   12    0    1
 -2         5       192       191
 -1        78   12    0    1
 -2       192       194       193
 -1        79   12    0    1
 -2       194        12       195
 -1        80   12    0    1
 -2         8       252       251
 -1        81   12    0    1
 -2       252       254       253
 -1        82   12    0    1
 -2       254       256       255
 -1        83   12    0    1
 -2       256       258       257
 -1        84   12    0    1
 -2       258       260       259
 -1        85   12    0    1
 -2       260       262       261
 -1        86   12    0    1
 -2       262       264       263
 -1        87   12    0    1
 -2       264         9       265
 -1        88   12    0    1
 -2         8       267       266
 -1        89   12    0    1
 -2       267       269       268
 -1        90   12    0    1
 -2       269        15       270
 -1        91   12    0    1
 -2         8       272       271
 -1        92   12    0    1
 -2       272       274       273
 -1        93   12    0    1
 -2       274       276       275
 -1        94   12    0    1
 -2       276       278       277
 -1        95   12    0    1
 -2       278       280       279
 -1        96   12    0    1
 -2       280       282       281
 -1        97   12    0    1
 -2       282       284       283
 -1        98   12    0    1
 -2       284        16       285
 -1        99   12    0    1
 -2         9       287       286
 -1       100   12    0    1
 -2       287       289       288
 -1       101   12    0    1
 -2       289       291       290
 -1       102   12    0    1
 -2       291       293       292
 -1       103   12    0    1
 -2       293       295       294
 -1       104   12    0    1
 -2       295       297       296
 -1       105   12    0    1
 -2       297       299       298
 -1       106   12    0    1
 -2       299        10       300
 -1       107   12    0    1
 -2         9       302       301
 -1       108   12    0    1
 -2       302       304       303
 -1       109   12    0    1
 -2       304        16       305
 -1       110   12    0    1
 -2         9       307       306
 -1       111   12    0    1
 -2       307       309       308
 -1       112   12    0    1
 -2       309       311       310
 -1       113   12    0    1
 -2       311       313       312
 -1       114   12    0    1
 -2       313       315       314
 -1       115   12    0    1
 -2       315       317       316
 -1       116   12    0    1
 -2       317       319       318
 -1       117   12    0    1
 -2       319        17       320
 -1       118   12    0    1
 -2        10       322       321
 -1       119   12    0    1
 -2       322       324       323
 -1       120   12    0    1
 -2       324       326       325
 -1       121   12    0    1
 -2       326       328       327
 -1       122   12    0    1
 -2       328       330       329
 -1       123   12    0    1
 -2       330       332       331
 -1       124   12    0    1
 -2       332       334       333
 -1       125   12    0    1
 -2       334        11       335
 -1       126   12    0    1
 -2        10       337       336
 -1       127   12    0    1
 -2       337       339       338
 -1       128   12    0    1
 -2       339        17       340
 -1       129   12    0    1
 -2        10       342       341
 -1       130   12    0    1
 -2       342       344       343
 -1       131   12    0    1
 -2       344       346       345
 -1       132   12    0    1
 -2       346       348       347
 -1       133   12    0    1
 -2       348       350       349
 -1       134   12    0    1
 -2       350       352       351
 -1       135   12    0    1
 -2       352       354       353
 -1       136   12    0    1
 -2       354        18       355
 -1       137   12    0    1
 -2        11       357       356
 -1       138   12    0    1
 -2       357       359       358
 -1       139   12    0    1
 -2       359       361       360
 -1       140   12    0    1
 -2       361       363       362
 -1       141   12    0    1
 -2       363       365       364
 -1       142   12    0    1
 -2       365       367       366
 -1       143   12    0    1
 -2       367       369       368
 -1       144   12    0    1
 -2       369        12       370
 -1       145   12    0    1
 -2        11       372       371
 -1       146   12    0    1
 -2       372       374       373
 -1       147   12    0    1
 -2       374        18       375
 -1       148   12    0    1
 -2        11       377       376
 -1       149   12    0    1
 -2       377       379       378
 -1       150   12    0    1
 -2       379       381       380
 -1       151   12    0    1
 -2       381       383       382
 -1       152   12    0    1
 -2       383       385       384
 -1       153   12    0    1
 -2       385       387       386
 -1       154   12    0    1
 -2       387       389       388
 -1       155   12    0    1
 -2       389        19       390
 -1       156   12    0    1
 -2        12       407       406
 -1       157   12    0    1
 -2       407       409       408
 -1       158   12    0    1
 -2       409        19       410
 -1       159   12    0    1
 -2        15       467       466
 -1       160   12    0    1
 -2       467       469       468
 -1       161   12    0    1
 -2       469       471       470
 -1       162   12    0    1
 -2       471       473       472
 -1       163   12    0    1
 -2       473       475       474
 -1       164   12    0    1
 -2       475       477       476
 -1       165   12    0    1
 -2       477       479       478
 -1       166   12    0    1
 -2       479        16       480
 -1       167   12    0    1
 -2        15       482       481
 -1       168   12    0    1
 -2       482       484       483
 -1       169   12    0    1
 -2       484        22       485
 -1       170   12    0    1
 -2        15       487       486
 -1       171   12    0    1
 -2       487       489       488
 -1       172   12    0    1
 -2       489       491       490
 -1       173   12    0    1
 -2       491       493       492
 -1       174   12    0    1
 -2       493       495       494
 -1       175   12    0    1
 -2       495       497       496
 -1       176   12    0    1
 -2       497       499       498
 -1       177   12    0    1
 -2       499        23       500
 -1       178   12    0    1
 -2        16       502       501
 -1       179   12    0    1
 -2       502       504       503
 -1       180   12    0    1
 -2       504       506       505
 -1       181   12    0    1
 -2       506       508       507
 -1       182   12    0    1
 -2       508       510       509
 -1       183   12    0    1
 -2       510       512       511
 -1       184   12    0    1
 -2       512       514       513
 -1       185   12    0    1
 -2       514        17       515
 -1       186   12    0    1
 -2        16       517       516
 -1       187   12    0    1
 -2       517       519       518
 -1       188   12    0    1
 -2       519        23       520
 -1       189   12    0    1
 -2        16       522       521
 -1       190   12    0    1
 -2       522       524       523
 -1       191   12    0    1
 -2       524       526       525
 -1       192   12    0    1
 -2       526       528       527
 -1       193   12    0    1
 -2       528       530       529
 -1       194   12    0    1
 -2       530       532       531
 -1       195   12    0    1
 -2       532       534       533
 -1       196   12    0    1
 -2       534        24       535
 -1       197   12    0    1
 -2        17       537       536
 -1       198   12    0    1
 -2       537       539       538
 -1       199   12    0    1
 -2       539       541       540
 -1       200   12    0    1
 -2       541       543       542
 -1       201   12    0    1
 -2       543       545       544
 -1       202   12    0    1
 -2       545       547       546
 -1       203   12    0    1
 -2       547       549       548
 -1       204   12    0    1
 -2       549        18       550
 -1       205   12    0    1
 -2        17       552       551
 -1       206   12    0    1
 -2       552       554       553
 -1       207   12    0    1
 -2       554        24       555
 -1       208   12    0    1
 -2        17       557       556
 -1       209   12    0    1
 -2       557       559       558
 -1       210   12    0    1
 -2       559       561       560
 -1       211   12    0    1
 -2       561       563       562
 -1       212   12    0    1
 -2       563       565       564
 -1       213   12    0    1
 -2       565       567       566
 -1       214   12    0    1
 -2       567       569       568
 -1       215   12    0    1
 -2       569        25       570
 -1       216   12    0    1
 -2        18       572       571
 -1       217   12    0    1
 -2       572       574       573
 -1       218   12    0    1
 -2       574       576       575
 -1       219   12    0    1
 -2       576       578       577
 -1       220   12    0    1
 -2       578       580       579
 -1       221   12    0    1
 -2       580       582       581
 -1       222   12    0    1
 -2       582       584       583
 -1       223   12    0    1
 -2       584        19       585
 -1       224   12    0    1
 -2        18       587       586
 -1       225   12    0    1
 -2       587       589       588
 -1       226   12    0    1
 -2       589        25       590
 -1       227   12    0    1
 -2        18       592       591
 -1       228   12    0    1
 -2       592       594       593
 -1       229   12    0    1
 -2       594       596       595
 -1       230   12    0    1
 -2       596       598       597
 -1       231   12    0    1
 -2       598       600       599
 -1       232   12    0    1
 -2       600       602       601
 -1       233   12    0    1
 -2       602       604       603
 -1       234   12    0    1
 -2       604        26       605
 -1       235   12    0    1
 -2        19       607       606
 -1       236   12    0    1
 -2       607       609       608
 -1       237   12    0    1
 -2       609       611       610
 -1       238   12    0    1
 -2       611       613       612
 -1       239   12    0    1
 -2       613       615       614
 -1       240   12    0    1
 -2       615       617       616
 -1       241   12    0    1
 -2       617       619       618
 -1       242   12    0    1
 -2       619        20       620
 -1       243   12    0    1
 -2        19       622       621
 -1       244   12    0    1
 -2       622       624       623
 -1       245   12    0    1
 -2       624        26       625
 -1       246   12    0    1
 -2        19       627       626
 -1       247   12    0    1
 -2       627       629       628
 -1       248   12    0    1
 -2       629       631       630
 -1       249   12    0    1
 -2       631       633       632
 -1       250   12    0    1
 -2       633       635       634
 -1       251   12    0    1
 -2       635       637       636
 -1       252   12    0    1
 -2       637       639       638
 -1       253   12    0    1
 -2       639        27       640
 -1       254   12    0    1
 -2        20       642       641
 -1       255   12    0    1
 -2       642       644       643
 -1       256   12    0    1
 -2       644       646       645
 -1       257   12    0    1
 -2       646       648       647
 -1       258   12    0    1
 -2       648       650       649
 -1       259   12    0    1
 -2       650       652       651
 -1       260   12    0    1
 -2       652       654       653
 -1       261   12    0    1
 -2       654        21       655
 -1       262   12    0    1
 -2        20       657       656
 -1       263   12    0    1
 -2       657       659       658
 -1       264   12    0    1
 -2       659        27       660
 -1       265   12    0    1
 -2        20       662       661
 -1       266   12    0    1
 -2       662       664       663
 -1       267   12    0    1
 -2       664       666       665
 -1       268   12    0    1
 -2       666       668       667
 -1       269   12    0    1
 -2       668       670       669
 -1       270   12    0    1
 -2       670       672       671
 -1       271   12    0    1
 -2       672       674       673
 -1       272   12    0    1
 -2       674        28       675
 -1       273   12    0    1
 -2        21       677       676
 -1       274   12    0    1
 -2       677       679       678
 -1       275   12    0    1
 -2       679        28       680
 -1       276   12    0    1
 -2        22       682       681
 -1       277   12    0    1
 -2       682       684       683
 -1       278   12    0    1
 -2       684       686       685
 -1       279   12    0    1
 -2       686       688       687
 -1       280   12    0    1
 -2       688       690       689
 -1       281   12    0    1
 -2       690       692       691
 -1       282   12    0    1
 -2       692       694       693
 -1       283   12    0    1
 -2       694        23       695
 -1       284   12    0    1
 -2        22       697       696
 -1       285   12    0    1
 -2       697       699       698
 -1       286   12    0    1
 -2       699        29       700
 -1       287   12    0    1
 -2        22       702       701
 -1       288   12    0    1
 -2       702       704       703
 -1       289   12    0    1
 -2       704       706       705
 -1       290   12    0    1
 -2       706       708       707
 -1       291   12    0    1
 -2       708       710       709
 -1       292   12    0    1
 -2       710       712       711
 -1       293   12    0    1
 -2       712       714       713
 -1       294   12    0    1
 -2       714        30       715
 -1       295   12    0    1
 -2        23       717       716
 -1       296   12    0    1
 -2       717       719       718
 -1       297   12    0    1
 -2       719       721       720
 -1       298   12    0    1
 -2       721       723       722
 -1       299   12    0    1
 -2       723       725       724
 -1       300   12    0    1
 -2       725       727       726
 -1       301   12    0    1
 -2       727       729       728
 -1       302   12    0    1
 -2       729        24       730
 -1       303   12    0    1
 -2        23       732       731
 -1       304   12    0    1
 -2       732       734       733
 -1       305   12    0    1
 -2       734        30       735
 -1       306   12    0    1
 -2        23       737       736
 -1       307   12    0    1
 -2       737       739       738
 -1       308   12    0    1
 -2       739       741       740
 -1       309   12    0    1
 -2       741       743       742
 -1       310   12    0    1
 -2       743       745       744
 -1       311   12    0    1
 -2       745       747       746
 -1       312   12    0    1
 -2       747       749       748
 -1       313   12    0    1
 -2       749        31       750
 -1       314   12    0    1
 -2        24       752       751
 -1       315   12    0    1
 -2       752       754       753
 -1       316   12    0    1
 -2       754       756       755
 -1       317   12    0    1
 -2       756       758       757
 -1       318   12    0    1
 -2       758       760       759
 -1       319   12    0    1
 -2       760       762       761
 -1       320   12    0    1
 -2       762       764       763
 -1       321   12    0    1
 -2       764        25       765
 -1       322   12    0    1
 -2        24       767       766
 -1       323   12    0    1
 -2       767       769       768
 -1       324   12    0    1
 -2       769        31       770
 -1       325   12    0    1
 -2        24       772       771
 -1       326   12    0    1
 -2       772       774       773
 -1       327   12    0    1
 -2       774       776       775
 -1       328   12    0    1
 -2       776       778       777
 -1       329   12    0    1
 -2       778       780       779
 -1       330   12    0    1
 -2       780       782       781
 -1       331   12    0    1
 -2       782       784       783
 -1       332   12    0    1
 -2       784        32       785
 -1       333   12    0    1
 -2        25       787       786
 -1       334   12    0    1
 -2       787       789       788
 -1       335   12    0    1
 -2       789       791       790
 -1       336   12    0    1
 -2       791       793       792
 -1       337   12    0    1
 -2       793       795       794
 -1       338   12    0    1
 -2       795       797       796
 -1       339   12    0    1
 -2       797       799       798
 -1       340   12    0    1
 -2       799        26       800
 -1       341   12    0    1
 -2        25       802       801
 -1       342   12    0    1
 -2       802       804       803
 -1       343   12    0    1
 -2       804        32       805
 -1       344   12    0    1
 -2        25       807       806
 -1       345   12    0    1
 -2       807       809       808
 -1       346   12    0    1
 -2       809       811       810
 -1       347   12    0    1
 -2       811       813       812
 -1       348   12    0    1
 -2       813       815       814
 -1       349   12    0    1
 -2       815       817       816
 -1       350   12    0    1
 -2       817       819       818
 -1       351   12    0    1
 -2       819        33       820
 -1       352   12    0    1
 -2        26       822       821
 -1       353   12    0    1
 -2       822       824       823
 -1       354   12    0    1
 -2       824       826       825
 -1       355   12    0    1
 -2       826       828       827
 -1       356   12    0    1
 -2       828       830       829
 -1       357   12    0    1
 -2       830       832       831
 -1       358   12    0    1
 -2       832       834       833
 -1       359   12    0    1
 -2       834        27       835
 -1       360   12    0    1
 -2        26       837       836
 -1       361   12    0    1
 -2       837       839       838
 -1       362   12    0    1
 -2       839        33       840
 -1       363   12    0    1
 -2        26       842       841
 -1       364   12    0    1
 -2       842       844       843
 -1       365   12    0    1
 -2       844       846       845
 -1       366   12    0    1
 -2       846       848       847
 -1       367   12    0    1
 -2       848       850       849
 -1       368   12    0    1
 -2       850       852       851
 -1       369   12    0    1
 -2       852       854       853
 -1       370   12    0    1
 -2       854        34       855
 -1       371   12    0    1
 -2        27       857       856
 -1       372   12    0    1
 -2       857       859       858
 -1       373   12    0    1
 -2       859       861       860
 -1       374   12    0    1
 -2       861       863       862
 -1       375   12    0    1
 -2       863       865       864
 -1       376   12    0    1
 -2       865       867       866
 -1       377   12    0    1
 -2       867       869       868
 -1       378   12    0    1
 -2       869        28       870
 -1       379   12    0    1
 -2        27       872       871
 -1       380   12    0    1
 -2       872       874       873
 -1       381   12    0    1
 -2       874        34       875
 -1       382   12    0    1
 -2        27       877       876
 -1       383   12    0    1
 -2       877       879       878
 -1       384   12    0    1
 -2       879       881       880
 -1       385   12    0    1
 -2       881       883       882
 -1       386   12    0    1
 -2       883       885       884
 -1       387   12    0    1
 -2       885       887       886
 -1       388   12    0    1
 -2       887       889       888
 -1       389   12    0    1
 -2       889        35       890
 -1       390   12    0    1
 -2        28       892       891
 -1       391   12    0    1
 -2       892       894       893
 -1       392   12    0    1
 -2       894        35       895
 -1       393   12    0    1
 -2        29       897       896
 -1       394   12    0    1
 -2       897       899       898
 -1       395   12    0    1
 -2       899       901       900
 -1       396   12    0    1
 -2       901       903       902
 -1       397   12    0    1
 -2       903       905       904
 -1       398   12    0    1
 -2       905       907       906
 -1       399   12    0    1
 -2       907       909       908
 -1       400   12    0    1
 -2       909        30       910
 -1       401   12    0    1
 -2        30       912       911
 -1       402   12    0    1
 -2       912       914       913
 -1       403   12    0    1
 -2       914       916       915
 -1       404   12    0    1
 -2       916       918       917
 -1       405   12    0    1
 -2       918       920       919
 -1       406   12    0    1
 -2       920       922       921
 -1       407   12    0    1
 -2       922       924       923
 -1       408   12    0    1
 -2       924        31       925
 -1       409   12    0    1
 -2        31       927       926
 -1       410   12    0    1
 -2       927       929       928
 -1       411   12    0    1
 -2       929       931       930
 -1       412   12    0    1
 -2       931       933       932
 -1       413   12    0    1
 -2       933       935       934
 -1       414   12    0    1
 -2       935       937       936
 -1       415   12    0    1
 -2       937       939       938
 -1       416   12    0    1
 -2       939        32       940
 -1       417   12    0    1
 -2        32       942       941
 -1       418   12    0    1
 -2       942       944       943
 -1       419   12    0    1
 -2       944       946       945
 -1       420   12    0    1
 -2       946       948       947
 -1       421   12    0    1
 -2       948       950       949
 -1       422   12    0    1
 -2       950       952       951
 -1       423   12    0    1
 -2       952       954       953
 -1       424   12    0    1
 -2       954        33       955
 -1       425   12    0    1
 -2        33       957       956
 -1       426   12    0    1
 -2       957       959       958
 -1       427   12    0    1
 -2       959       961       960
 -1       428   12    0    1
 -2       961       963       962
 -1       429   12    0    1
 -2       963       965       964
 -1       430   12    0    1
 -2       965       967       966
 -1       431   12    0    1
 -2       967       969       968
 -1       432   12    0    1
 -2       969        34       970
 -1       433   12    0    1
 -2        34       972       971
 -1       434   12    0    1
 -2       972       974       973
 -1       435   12    0    1
 -2       974       976       975
 -1       436   12    0    1
 -2       976       978       977
 -1       437   12    0    1
 -2       978       980       979
 -1       438   12    0    1
 -2       980       982       981
 -1       439   12    0    1
 -2       982       984       983
 -1       440   12    0    1
 -2       984        35       985
 -3
    1PSTEP                         1           1           1          
  100CL  101 1.000000000         841                     0    1           1
 -4  DISP        4    1
 -5  D1          1    2    1    0
 -5  D2          1    2    2    0
 -5  D3          1    2    3    0
 -5  ALL         1    2    0    0    1ALL
 -1         1 8.64368E-05 0.00000E+00 0.00000E+00
 -1         2 6.77043E-05 0.00000E+00 0.00000E+00
 -1         3 6.01832E-05 0.00000E+00 0.00000E+00
 -1         4 5.79732E-05 0.00000E+00 0.00000E+00
 -1         5 5.78950E-05 0.00000E+00 0.00000E+00
 -1         8 5.93149E-05-1.12720E-06 0.00000E+00
 -1         9 5.71022E-05 1.38137E-06 0.00000E+00
 -1        10 5.50094E-05-3.01642E-06 0.00000E+00
 -1        11 5.40900E-05-7.32995E-07 0.00000E+00
 -1        12 5.44518E-05 2.87484E-06 0.00000E+00
 -1        15 2.47100E-05-1.84905E-06 0.00000E+00
 -1        16 3.25058E-05 1.58320E-06 0.00000E+00
 -1        17 3.40396E-05-6.03681E-06 0.00000E+00
 -1        18 4.00674E-05-1.36752E-06 0.00000E+00
 -1        19 4.45077E-05 5.64525E-06 0.00000E+00
 -1        20 4.55439E-05 5.54279E-05 0.00000E+00
 -1        21 4.54736E-05 1.22669E-04 0.00000E+00
 -1        22 9.83575E-06-1.16741E-06 0.00000E+00
 -1        23 1.28567E-05 2.04751E-06 0.00000E+00
 -1        24 1.49820E-05-6.75066E-06 0.00000E+00
 -1        25 2.68130E-05-1.07123E-06 0.00000E+00
 -1        26 3.32794E-05 7.25973E-06 0.00000E+00
 -1        27 2.89861E-05 5.40377E-05 0.00000E+00
 -1        28 2.52920E-05 1.21419E-04 0.00000E+00
 -1        29 0.00000E+00 0.00000E+00 0.00000E+00
 -1        30 4.81916E-06 2.46527E-06 0.00000E+00
 -1        31 6.30973E-06-5.68002E-06 0.00000E+00
 -1        32 0.00000E+00 0.00000E+00 0.00000E+00
 -1        33 1.53123E-05 1.12681E-05 0.00000E+00
 -1        34 1.36813E-05 5.39431E-05 0.00000E+00
 -1        35 9.00009E-06 1.20754E-04 0.00000E+00
 -1        36 8.52930E-05 7.55712E-21 0.00000E+00
 -1        37 8.41217E-05 1.62160E-20 0.00000E+00
 -1        38 8.29511E-05 8.22548E-21 0.00000E+00
 -1        39 8.17761E-05-1.38536E-20 0.00000E+00
 -1        40 8.06006E-05-3.66573E-20 2.64698E-23
 -1        41 7.94244E-05-5.33498E-20 0.00000E+00
 -1        42 7.82479E-05-5.08484E-20 2.64698E-23
 -1        43 7.70713E-05-3.21112E-20 1.32349E-23
 -1        44 7.58947E-05-1.36749E-20 0.00000E+00
 -1        45 7.47182E-05-1.55510E-22 1.32349E-23
 -1        46 7.35419E-05 1.62458E-20-2.64698E-23
 -1        47 7.23664E-05 1.20437E-20 0.00000E+00
 -1        48 7.11914E-05 2.20361E-21 0.00000E+00
 -1        49 7.00206E-05 9.78058E-21 1.32349E-23
 -1        50 6.88491E-05 3.73224E-21 0.00000E+00
 -1        51 8.46380E-05-1.96367E-07 0.00000E+00
 -1        52 8.13492E-05-3.78945E-07 0.00000E+00
 -1        53 7.68653E-05-5.61070E-07 0.00000E+00
 -1        54 7.14933E-05-7.45151E-07-3.30872E-24
 -1        55 6.55404E-05-9.32423E-07-6.61744E-24
 -1        56 8.49554E-05-7.19986E-07 0.00000E+00
 -1        57 8.35137E-05-1.68312E-06 2.64698E-23
 -1        58 8.21307E-05-2.79844E-06 0.00000E+00
 -1        59 8.07694E-05-3.99247E-06-2.64698E-23
 -1        60 7.94067E-05-5.18484E-06 0.00000E+00
 -1        61 7.80129E-05-6.29779E-06 0.00000E+00
 -1        62 7.65604E-05-7.25455E-06-5.29396E-23
 -1        63 7.50216E-05-7.98160E-06 0.00000E+00
 -1        64 7.33707E-05-8.40962E-06-5.29396E-23
 -1        65 7.15838E-05-8.47482E-06 0.00000E+00
 -1        66 6.96395E-05-8.12023E-06 5.29396E-23
 -1        67 6.75201E-05-7.29627E-06 0.00000E+00
 -1        68 6.52097E-05-5.96274E-06 5.29396E-23
 -1        69 6.27037E-05-4.08585E-06 2.64698E-23
 -1        70 5.99837E-05-1.64835E-06 0.00000E+00
 -1        71 6.72304E-05 3.87121E-21-1.32349E-23
 -1        72 6.67595E-05 4.00521E-21-6.61744E-24
 -1        73 6.62886E-05-1.17427E-20-1.32349E-23
 -1        74 6.58182E-05-3.09150E-20-6.61744E-24
 -1        75 6.53478E-05-4.38058E-20 0.00000E+00
 -1        76 6.48776E-05-5.53185E-20 0.00000E+00
 -1        77 6.44073E-05-6.23694E-20 0.00000E+00
 -1        78 6.39371E-05-6.61265E-20 0.00000E+00
 -1        79 6.34669E-05-7.25603E-20 0.00000E+00
 -1        80 6.29967E-05-7.50964E-20-6.61744E-24
 -1        81 6.25266E-05-7.69030E-20-1.32349E-23
 -1        82 6.20566E-05-7.00473E-20 0.00000E+00
 -1        83 6.15866E-05-4.77796E-20 1.32349E-23
 -1        84 6.11174E-05-2.84236E-20 0.00000E+00
 -1        85 6.06481E-05-8.26519E-21 0.00000E+00
 -1        86 6.74629E-05 2.08472E-07-6.61744E-24
 -1        87 6.66864E-05 4.49060E-07 0.00000E+00
 -1        88 6.53195E-05 6.87782E-07 3.30872E-24
 -1        89 6.33056E-05 9.27118E-07 1.65436E-24
 -1        90 6.05864E-05 1.16609E-06-4.13590E-25
 -1        91 6.69794E-05-3.45387E-07 2.64698E-23
 -1        92 6.62851E-05-8.00076E-07 1.32349E-23
 -1        93 6.56207E-05-1.33367E-06 0.00000E+00
 -1        94 6.49741E-05-1.91916E-06 0.00000E+00
 -1        95 6.43362E-05-2.52801E-06 0.00000E+00
 -1        96 6.36961E-05-3.13194E-06-1.32349E-23
 -1        97 6.30435E-05-3.70267E-06 0.00000E+00
 -1        98 6.23681E-05-4.21229E-06-1.32349E-23
 -1        99 6.16594E-05-4.63339E-06 2.64698E-23
 -1       100 6.09076E-05-4.93934E-06 1.32349E-23
 -1       101 6.01031E-05-5.10455E-06 2.64698E-23
 -1       102 5.92370E-05-5.10460E-06 1.32349E-23
 -1       103 5.83006E-05-4.91667E-06-2.64698E-23
 -1       104 5.72876E-05-4.51893E-06-1.32349E-23
 -1       105 5.61883E-05-3.89290E-06 1.32349E-23
 -1       106 6.00345E-05-3.66358E-21 6.61744E-24
 -1       107 5.98953E-05-4.55197E-21-3.30872E-24
 -1       108 5.97559E-05-3.86004E-21 0.00000E+00
 -1       109 5.96180E-05-1.10371E-20-1.65436E-24
 -1       110 5.94803E-05-1.41589E-20-3.30872E-24
 -1       111 5.93429E-05-1.43768E-20-1.65436E-24
 -1       112 5.92056E-05-1.53558E-20-3.30872E-24
 -1       113 5.90683E-05-1.27576E-20 0.00000E+00
 -1       114 5.89311E-05-3.82199E-21-3.30872E-24
 -1       115 5.87939E-05 8.70608E-22 1.65436E-24
 -1       116 5.86567E-05 3.72728E-21 3.30872E-24
 -1       117 5.85195E-05-5.01975E-21 1.65436E-24
 -1       118 5.83824E-05-4.20497E-21-3.30872E-24
 -1       119 5.82455E-05 7.62785E-21-1.65436E-24
 -1       120 5.81086E-05 8.20977E-21-3.30872E-24
 -1       121 5.99747E-05-4.97598E-07 1.32349E-23
 -1       122 5.94129E-05-1.00110E-06 0.00000E+00
 -1       123 5.85654E-05-1.50461E-06 0.00000E+00
 -1       124 5.75019E-05-2.00891E-06-6.61744E-24
 -1       125 5.62928E-05-2.51354E-06-1.32349E-23
 -1       126 5.98510E-05-1.80034E-07 1.32349E-23
 -1       127 5.95492E-05-4.38978E-07 0.00000E+00
 -1       128 5.92693E-05-7.56451E-07 0.00000E+00
 -1       129 5.90036E-05-1.11149E-06 6.61744E-24
 -1       130 5.87441E-05-1.48304E-06-1.32349E-23
 -1       131 5.84829E-05-1.84993E-06 0.00000E+00
 -1       132 5.82121E-05-2.19108E-06 0.00000E+00
 -1       133 5.79237E-05-2.48548E-06 6.61744E-24
 -1       134 5.76100E-05-2.71229E-06-1.32349E-23
 -1       135 5.72633E-05-2.85096E-06-6.61744E-24
 -1       136 5.68760E-05-2.88131E-06 0.00000E+00
 -1       137 5.64409E-05-2.78353E-06-6.61744E-24
 -1       138 5.59506E-05-2.53844E-06 0.00000E+00
 -1       139 5.53992E-05-2.12704E-06 3.30872E-24
 -1       140 5.47785E-05-1.53191E-06 0.00000E+00
 -1       141 5.79621E-05 4.22948E-21 0.00000E+00
 -1       142 5.79550E-05 1.00560E-20-4.13590E-25
 -1       143 5.79477E-05 6.83090E-21 0.00000E+00
 -1       144 5.79411E-05 7.59509E-21-2.06795E-25
 -1       145 5.79346E-05-2.56136E-21 0.00000E+00
 -1       146 5.79282E-05-1.19090E-20 0.00000E+00
 -1       147 5.79219E-05-1.93612E-20 0.00000E+00
 -1       148 5.79156E-05-2.65596E-20-1.03398E-25
 -1       149 5.79093E-05-2.92631E-20-1.03398E-25
 -1       150 5.79032E-05-2.91658E-20 0.00000E+00
 -1       151 5.78972E-05-3.22668E-20 0.00000E+00
 -1       152 5.78916E-05-2.85303E-20 0.00000E+00
 -1       153 5.78865E-05-2.24065E-20 0.00000E+00
 -1       154 5.78839E-05-1.35435E-20 0.00000E+00
 -1       155 5.78810E-05-1.34334E-21 6.61744E-24
 -1       156 5.78263E-05-1.20595E-07 0.00000E+00
 -1       157 5.74245E-05-2.42197E-07 1.65436E-24
 -1       158 5.68087E-05-3.63925E-07-3.30872E-24
 -1       159 5.60200E-05-4.86211E-07 1.65436E-24
 -1       160 5.50999E-05-6.08578E-07 0.00000E+00
 -1       161 5.78490E-05-7.77787E-08 0.00000E+00
 -1       162 5.77384E-05-1.96534E-07 1.65436E-24
 -1       163 5.76370E-05-3.39629E-07-3.30872E-24
 -1       164 5.75385E-05-4.91034E-07 0.00000E+00
 -1       165 5.74369E-05-6.34526E-07 0.00000E+00
 -1       166 5.73264E-05-7.53981E-07-1.65436E-24
 -1       167 5.72008E-05-8.33302E-07 0.00000E+00
 -1       168 5.70541E-05-8.56460E-07 1.65436E-24
 -1       169 5.68804E-05-8.07517E-07 0.00000E+00
 -1       170 5.66739E-05-6.70626E-07 1.65436E-24
 -1       171 5.64286E-05-4.30105E-07 0.00000E+00
 -1       172 5.61392E-05-7.02726E-08 0.00000E+00
 -1       173 5.57996E-05 4.24095E-07 1.65436E-24
 -1       174 5.54071E-05 1.06922E-06 0.00000E+00
 -1       175 5.49522E-05 1.87848E-06 0.00000E+00
 -1       191 5.77960E-05 4.76944E-07 0.00000E+00
 -1       192 5.75064E-05 9.57452E-07-6.61744E-24
 -1       193 5.70260E-05 1.43855E-06 0.00000E+00
 -1       194 5.63558E-05 1.91946E-06 0.00000E+00
 -1       195 5.54970E-05 2.39939E-06-1.32349E-23
 -1       251 5.91610E-05 3.31143E-06 6.61744E-24
 -1       252 5.90204E-05 6.22077E-06-3.30872E-24
 -1       253 5.88826E-05 7.80174E-06-6.61744E-24
 -1       254 5.87471E-05 8.25809E-06-3.30872E-24
 -1       255 5.86119E-05 7.79490E-06-6.61744E-24
 -1       256 5.84764E-05 6.61860E-06 0.00000E+00
 -1       257 5.83404E-05 4.93660E-06 0.00000E+00
 -1       258 5.82038E-05 2.95703E-06 0.00000E+00
 -1       259 5.80671E-05 8.88362E-07 3.30872E-24
 -1       260 5.79306E-05-1.06075E-06-1.65436E-24
 -1       261 5.77946E-05-2.68182E-06 0.00000E+00
 -1       262 5.76591E-05-3.76686E-06 0.00000E+00
 -1       263 5.75238E-05-4.10856E-06 0.00000E+00
 -1       264 5.73874E-05-3.50073E-06 1.65436E-24
 -1       265 5.72497E-05-1.73827E-06 0.00000E+00
 -1       266 5.34551E-05-1.25690E-06 0.00000E+00
 -1       267 4.69598E-05-1.38103E-06-1.65436E-24
 -1       268 4.03330E-05-1.50609E-06-3.30872E-24
 -1       269 3.40797E-05-1.62689E-06 0.00000E+00
 -1       270 2.87046E-05-1.74289E-06 0.00000E+00
 -1       271 5.62137E-05 2.95261E-06-2.64698E-23
 -1       272 5.35583E-05 5.71717E-06 1.32349E-23
 -1       273 5.13479E-05 7.30898E-06 5.29396E-23
 -1       274 4.95180E-05 7.86969E-06 0.00000E+00
 -1       275 4.80131E-05 7.56365E-06 0.00000E+00
 -1       276 4.67657E-05 6.56710E-06 0.00000E+00
 -1       277 4.57059E-05 5.06851E-06 0.00000E+00
 -1       278 4.47602E-05 3.26443E-06-2.64698E-23
 -1       279 4.38532E-05 1.35656E-06 0.00000E+00
 -1       280 4.29092E-05-4.51557E-07 2.64698E-23
 -1       281 4.18529E-05-1.95824E-06 0.00000E+00
 -1       282 4.06115E-05-2.96651E-06 0.00000E+00
 -1       283 3.91136E-05-3.28832E-06 0.00000E+00
 -1       284 3.72996E-05-2.74419E-06 0.00000E+00
 -1       285 3.50974E-05-1.17532E-06 2.64698E-23
 -1       286 5.69612E-05 4.66914E-06 0.00000E+00
 -1       287 5.68300E-05 6.86539E-06 0.00000E+00
 -1       288 5.67002E-05 8.09895E-06 6.61744E-24
 -1       289 5.65722E-05 8.50067E-06 0.00000E+00
 -1       290 5.64444E-05 8.20233E-06 0.00000E+00
 -1       291 5.63165E-05 7.33667E-06 0.00000E+00
 -1       292 5.61883E-05 6.03718E-06 0.00000E+00
 -1       293 5.60596E-05 4.43788E-06 0.00000E+00
 -1       294 5.59307E-05 2.67322E-06 0.00000E+00
 -1       295 5.58016E-05 8.77862E-07-1.65436E-24
 -1       296 5.56726E-05-8.13534E-07 0.00000E+00
 -1       297 5.55436E-05-2.26640E-06 0.00000E+00
 -1       298 5.54147E-05-3.34648E-06 6.61744E-24
 -1       299 5.52840E-05-3.92007E-06 0.00000E+00
 -1       300 5.51538E-05-3.85398E-06 6.61744E-24
 -1       301 5.30644E-05 1.40290E-06-3.30872E-24
 -1       302 4.89602E-05 1.43875E-06-6.20385E-25
 -1       303 4.48206E-05 1.47741E-06-4.13590E-25
 -1       304 4.06774E-05 1.51668E-06-4.13590E-25
 -1       305 3.65621E-05 1.55448E-06 0.00000E+00
 -1       306 5.44717E-05 4.21524E-06 0.00000E+00
 -1       307 5.21771E-05 6.01579E-06 0.00000E+00
 -1       308 5.02333E-05 6.89090E-06-5.29396E-23
 -1       309 4.85909E-05 6.94271E-06-2.64698E-23
 -1       310 4.72110E-05 6.29273E-06 5.29396E-23
 -1       311 4.60437E-05 5.07156E-06 0.00000E+00
 -1       312 4.50371E-05 3.42002E-06 0.00000E+00
 -1       313 4.41360E-05 1.48570E-06 0.00000E+00
 -1       314 4.32834E-05-5.78875E-07 5.29396E-23
 -1       315 4.24221E-05-2.61899E-06 0.00000E+00
 -1       316 4.14943E-05-4.48057E-06 0.00000E+00
 -1       317 4.04446E-05-6.01210E-06 2.64698E-23
 -1       318 3.92178E-05-7.06817E-06 5.29396E-23
 -1       319 3.77689E-05-7.50864E-06 0.00000E+00
 -1       320 3.60403E-05-7.20941E-06-2.64698E-23
 -1       321 5.49337E-05-1.92588E-06 0.00000E+00
 -1       322 5.48750E-05-1.18225E-06 0.00000E+00
 -1       323 5.48162E-05-7.38782E-07-3.30872E-24
 -1       324 5.47601E-05-5.48316E-07 4.96308E-24
 -1       325 5.47043E-05-5.63612E-07 0.00000E+00
 -1       326 5.46490E-05-7.37288E-07-8.27181E-25
 -1       327 5.45939E-05-1.02188E-06 0.00000E+00
 -1       328 5.45388E-05-1.36987E-06 8.27181E-25
 -1       329 5.44837E-05-1.73367E-06 1.65436E-24
 -1       330 5.44286E-05-2.06573E-06-8.27181E-25
 -1       331 5.43736E-05-2.31848E-06 0.00000E+00
 -1       332 5.43184E-05-2.44441E-06 0.00000E+00
 -1       333 5.42631E-05-2.39609E-06 1.65436E-24
 -1       334 5.42070E-05-2.12619E-06 0.00000E+00
 -1       335 5.41510E-05-1.58745E-06-3.30872E-24
 -1       336 5.28200E-05-3.51750E-06-1.32349E-23
 -1       337 4.93579E-05-4.02333E-06 6.61744E-24
 -1       338 4.51836E-05-4.53129E-06-1.32349E-23
 -1       339 4.08622E-05-5.03848E-06 0.00000E+00
 -1       340 3.69600E-05-5.54439E-06 0.00000E+00
 -1       341 5.38097E-05-2.17087E-06-2.64698E-23
 -1       342 5.26984E-05-1.60312E-06 0.00000E+00
 -1       343 5.16777E-05-1.27504E-06-2.64698E-23
 -1       344 5.07318E-05-1.15251E-06-1.32349E-23
 -1       345 4.98486E-05-1.19789E-06 2.64698E-23
 -1       346 4.90136E-05-1.37271E-06 0.00000E+00
 -1       347 4.82122E-05-1.63719E-06-2.64698E-23
 -1       348 4.74291E-05-1.95080E-06 1.32349E-23
 -1       349 4.66491E-05-2.27248E-06 0.00000E+00
 -1       350 4.58569E-05-2.56114E-06 1.32349E-23
 -1       351 4.50373E-05-2.77603E-06-2.64698E-23
 -1       352 4.41758E-05-2.87684E-06-1.32349E-23
 -1       353 4.32575E-05-2.82472E-06-2.64698E-23
 -1       354 4.22729E-05-2.58034E-06 0.00000E+00
 -1       355 4.12021E-05-2.11015E-06 1.32349E-23
 -1       356 5.41020E-05 1.45745E-07 0.00000E+00
 -1       357 5.41221E-05 7.50746E-07-4.13590E-25
 -1       358 5.41421E-05 1.12198E-06-2.06795E-25
 -1       359 5.41635E-05 1.29954E-06 0.00000E+00
 -1       360 5.41850E-05 1.32343E-06 0.00000E+00
 -1       361 5.42068E-05 1.23365E-06 2.06795E-25
 -1       362 5.42286E-05 1.07016E-06 0.00000E+00
 -1       363 5.42506E-05 8.72911E-07 4.13590E-25
 -1       364 5.42725E-05 6.81841E-07-8.27181E-25
 -1       365 5.42946E-05 5.36893E-07 0.00000E+00
 -1       366 5.43168E-05 4.78021E-07-8.27181E-25
 -1       367 5.43394E-05 5.45194E-07-8.27181E-25
 -1       368 5.43623E-05 7.78414E-07 0.00000E+00
 -1       369 5.43875E-05 1.21770E-06 0.00000E+00
 -1       370 5.44123E-05 1.90319E-06-6.61744E-24
 -1       371 5.24630E-05-8.41147E-07 0.00000E+00
 -1       372 5.00289E-05-9.47923E-07 0.00000E+00
 -1       373 4.71793E-05-1.05562E-06 0.00000E+00
 -1       374 4.43074E-05-1.16222E-06-3.30872E-24
 -1       375 4.18061E-05-1.26798E-06 0.00000E+00
 -1       376 5.33689E-05 1.41970E-08 6.61744E-24
 -1       377 5.27316E-05 5.09327E-07 6.61744E-24
 -1       378 5.21721E-05 7.97843E-07-1.32349E-23
 -1       379 5.16728E-05 9.21893E-07-6.61744E-24
 -1       380 5.12185E-05 9.25534E-07 0.00000E+00
 -1       381 5.07925E-05 8.52849E-07 6.61744E-24
 -1       382 5.03784E-05 7.48401E-07 0.00000E+00
 -1       383 4.99594E-05 6.56838E-07-6.61744E-24
 -1       384 4.95189E-05 6.22756E-07 0.00000E+00
 -1       385 4.90404E-05 6.90514E-07 6.61744E-24
 -1       386 4.85073E-05 9.03929E-07-1.32349E-23
 -1       387 4.79040E-05 1.30634E-06 0.00000E+00
 -1       388 4.72143E-05 1.93988E-06 1.32349E-23
 -1       389 4.64263E-05 2.84708E-06 0.00000E+00
 -1       390 4.55199E-05 4.06607E-06-3.30872E-24
 -1       406 5.31546E-05 3.33683E-06-1.32349E-23
 -1       407 5.16847E-05 3.80212E-06-6.61744E-24
 -1       408 5.00629E-05 4.26761E-06-1.32349E-23
 -1       409 4.83113E-05 4.73207E-06 6.61744E-24
 -1       410 4.64520E-05 5.19407E-06 1.32349E-23
 -1       466 2.51749E-05 6.25162E-07-6.61744E-24
 -1       467 2.56632E-05 2.07982E-06 0.00000E+00
 -1       468 2.61520E-05 2.67649E-06-1.32349E-23
 -1       469 2.66443E-05 2.57288E-06 0.00000E+00
 -1       470 2.71369E-05 1.92321E-06 0.00000E+00
 -1       471 2.76298E-05 8.78840E-07 0.00000E+00
 -1       472 2.81226E-05-4.10754E-07 1.32349E-23
 -1       473 2.86154E-05-1.79738E-06 0.00000E+00
 -1       474 2.91082E-05-3.13337E-06 0.00000E+00
 -1       475 2.96011E-05-4.27073E-06-6.61744E-24
 -1       476 3.00941E-05-5.06051E-06 1.32349E-23
 -1       477 3.05865E-05-5.35198E-06-6.61744E-24
 -1       478 3.10783E-05-4.99195E-06 0.00000E+00
 -1       479 3.15651E-05-3.82387E-06-6.61744E-24
 -1       480 3.20509E-05-1.68713E-06-6.61744E-24
 -1       481 2.16806E-05-1.74152E-06 0.00000E+00
 -1       482 1.87827E-05-1.62791E-06-8.27181E-25
 -1       483 1.60826E-05-1.51394E-06 3.30872E-24
 -1       484 1.36467E-05-1.39871E-06 0.00000E+00
 -1       485 1.15421E-05-1.28260E-06 0.00000E+00
 -1       486 2.31374E-05 6.72795E-07 1.32349E-23
 -1       487 2.17746E-05 2.56851E-06-6.61744E-24
 -1       488 2.06233E-05 3.90565E-06 1.32349E-23
 -1       489 1.96552E-05 4.74519E-06 6.61744E-24
 -1       490 1.88486E-05 5.15421E-06-1.32349E-23
 -1       491 1.81771E-05 5.20142E-06 6.61744E-24
 -1       492 1.76145E-05 4.95826E-06 1.32349E-23
 -1       493 1.71331E-05 4.49796E-06 0.00000E+00
 -1       494 1.67051E-05 3.89523E-06 0.00000E+00
 -1       495 1.63022E-05 3.22576E-06-6.61744E-24
 -1       496 1.58959E-05 2.56568E-06-1.32349E-23
 -1       497 1.54581E-05 1.99117E-06 0.00000E+00
 -1       498 1.49603E-05 1.57761E-06 0.00000E+00
 -1       499 1.43774E-05 1.40039E-06 6.61744E-24
 -1       500 1.36782E-05 1.53097E-06 1.32349E-23
 -1       501 3.25871E-05 4.79099E-06 0.00000E+00
 -1       502 3.26830E-05 6.74011E-06-2.06795E-25
 -1       503 3.27801E-05 7.59675E-06 1.65436E-24
 -1       504 3.28794E-05 7.52678E-06 1.65436E-24
 -1       505 3.29787E-05 6.69501E-06-3.30872E-24
 -1       506 3.30777E-05 5.26548E-06 1.65436E-24
 -1       507 3.31761E-05 3.40166E-06 3.30872E-24
 -1       508 3.32741E-05 1.26653E-06 0.00000E+00
 -1       509 3.33719E-05-9.77195E-07 0.00000E+00
 -1       510 3.34696E-05-3.16687E-06 1.65436E-24
 -1       511 3.35677E-05-5.13987E-06 3.30872E-24
 -1       512 3.36660E-05-6.73329E-06-1.65436E-24
 -1       513 3.37647E-05-7.78384E-06 1.65436E-24
 -1       514 3.38615E-05-8.12774E-06 0.00000E+00
 -1       515 3.39584E-05-7.60035E-06 1.65436E-24
 -1       516 2.84388E-05 1.65061E-06 0.00000E+00
 -1       517 2.43316E-05 1.72849E-06 1.03398E-25
 -1       518 2.04516E-05 1.80679E-06 0.00000E+00
 -1       519 1.70669E-05 1.88724E-06 1.03398E-25
 -1       520 1.44458E-05 1.97021E-06 0.00000E+00
 -1       521 3.01683E-05 4.48352E-06-2.64698E-23
 -1       522 2.82115E-05 6.25347E-06-1.32349E-23
 -1       523 2.66339E-05 7.02115E-06 2.64698E-23
 -1       524 2.53795E-05 6.91026E-06 1.32349E-23
 -1       525 2.44014E-05 6.06099E-06 0.00000E+00
 -1       526 2.36430E-05 4.62121E-06-1.32349E-23
 -1       527 2.30467E-05 2.74724E-06 2.64698E-23
 -1       528 2.25518E-05 6.00882E-07-1.32349E-23
 -1       529 2.20968E-05-1.65229E-06 2.64698E-23
 -1       530 2.16195E-05-3.84527E-06-1.32349E-23
 -1       531 2.10580E-05-5.81197E-06 0.00000E+00
 -1       532 2.03519E-05-7.38901E-06 0.00000E+00
 -1       533 1.94417E-05-8.41871E-06 0.00000E+00
 -1       534 1.82755E-05-8.74880E-06 0.00000E+00
 -1       535 1.67931E-05-8.24051E-06 0.00000E+00
 -1       536 3.43878E-05-4.16671E-06 0.00000E+00
 -1       537 3.47632E-05-2.81237E-06 0.00000E+00
 -1       538 3.51385E-05-1.90493E-06 6.61744E-24
 -1       539 3.55182E-05-1.37694E-06 6.61744E-24
 -1       540 3.58986E-05-1.16247E-06 1.32349E-23
 -1       541 3.62798E-05-1.19683E-06-6.61744E-24
 -1       542 3.66612E-05-1.41627E-06 0.00000E+00
 -1       543 3.70427E-05-1.75779E-06 0.00000E+00
 -1       544 3.74242E-05-2.15884E-06 0.00000E+00
 -1       545 3.78056E-05-2.55712E-06-6.61744E-24
 -1       546 3.81869E-05-2.89031E-06 0.00000E+00
 -1       547 3.85679E-05-3.09584E-06-6.61744E-24
 -1       548 3.89485E-05-3.11064E-06 0.00000E+00
 -1       549 3.93266E-05-2.87091E-06 0.00000E+00
 -1       550 3.97050E-05-2.31182E-06 0.00000E+00
 -1       551 3.12177E-05-6.15878E-06 5.99706E-24
 -1       552 2.80647E-05-6.27553E-06 0.00000E+00
 -1       553 2.47211E-05-6.39168E-06-3.30872E-24
 -1       554 2.13308E-05-6.50816E-06 3.30872E-24
 -1       555 1.80373E-05-6.62588E-06 0.00000E+00
 -1       556 3.30771E-05-4.36501E-06 0.00000E+00
 -1       557 3.22751E-05-3.12481E-06 0.00000E+00
 -1       558 3.16159E-05-2.26530E-06 1.32349E-23
 -1       559 3.10795E-05-1.73266E-06 0.00000E+00
 -1       560 3.06455E-05-1.47296E-06-1.32349E-23
 -1       561 3.02936E-05-1.43190E-06 0.00000E+00
 -1       562 3.00034E-05-1.55513E-06 0.00000E+00
 -1       563 2.97543E-05-1.78820E-06 0.00000E+00
 -1       564 2.95261E-05-2.07664E-06 0.00000E+00
 -1       565 2.92982E-05-2.36598E-06-3.30872E-24
 -1       566 2.90503E-05-2.60170E-06 0.00000E+00
 -1       567 2.87620E-05-2.72934E-06 0.00000E+00
 -1       568 2.84130E-05-2.69443E-06 0.00000E+00
 -1       569 2.79837E-05-2.44259E-06 8.27181E-25
 -1       570 2.74544E-05-1.91954E-06 4.13590E-24
 -1       571 4.03297E-05-4.87625E-07-2.89513E-24
 -1       572 4.06042E-05 1.24533E-07-2.06795E-24
 -1       573 4.08815E-05 5.11995E-07-6.61744E-24
 -1       574 4.11603E-05 7.19744E-07 3.30872E-24
 -1       575 4.14396E-05 7.92838E-07-6.61744E-24
 -1       576 4.17192E-05 7.76514E-07 0.00000E+00
 -1       577 4.19989E-05 7.16003E-07 0.00000E+00
 -1       578 4.22786E-05 6.56547E-07 0.00000E+00
 -1       579 4.25583E-05 6.43390E-07 0.00000E+00
 -1       580 4.28381E-05 7.21787E-07 0.00000E+00
 -1       581 4.31178E-05 9.37002E-07 0.00000E+00
 -1       582 4.33973E-05 1.33431E-06 0.00000E+00
 -1       583 4.36766E-05 1.95901E-06-1.32349E-23
 -1       584 4.39553E-05 2.85616E-06 0.00000E+00
 -1       585 4.42330E-05 4.07076E-06-1.32349E-23
 -1       586 3.81719E-05-1.31764E-06 6.61744E-24
 -1       587 3.59379E-05-1.26628E-06 0.00000E+00
 -1       588 3.35239E-05-1.21500E-06 0.00000E+00
 -1       589 3.10912E-05-1.16428E-06 0.00000E+00
 -1       590 2.88013E-05-1.11473E-06 0.00000E+00
 -1       591 3.95098E-05-4.44092E-07 0.00000E+00
 -1       592 3.90112E-05 2.95049E-07-6.61744E-24
 -1       593 3.85687E-05 8.79241E-07 0.00000E+00
 -1       594 3.81728E-05 1.33682E-06 0.00000E+00
 -1       595 3.78134E-05 1.69614E-06 0.00000E+00
 -1       596 3.74801E-05 1.98551E-06 0.00000E+00
 -1       597 3.71624E-05 2.23322E-06 0.00000E+00
 -1       598 3.68497E-05 2.46757E-06 0.00000E+00
 -1       599 3.65313E-05 2.71687E-06 0.00000E+00
 -1       600 3.61968E-05 3.00941E-06 0.00000E+00
 -1       601 3.58355E-05 3.37347E-06 3.30872E-24
 -1       602 3.54369E-05 3.83737E-06 2.48154E-24
 -1       603 3.49907E-05 4.42939E-06-1.65436E-24
 -1       604 3.44871E-05 5.17792E-06 2.06795E-25
 -1       605 3.39167E-05 6.11137E-06-1.65436E-24
 -1       606 4.45838E-05 7.70462E-06 0.00000E+00
 -1       607 4.46528E-05 9.96790E-06 0.00000E+00
 -1       608 4.47200E-05 1.24227E-05-6.61744E-24
 -1       609 4.47859E-05 1.50553E-05 0.00000E+00
 -1       610 4.48511E-05 1.78517E-05 0.00000E+00
 -1       611 4.49158E-05 2.07981E-05 0.00000E+00
 -1       612 4.49801E-05 2.38803E-05 0.00000E+00
 -1       613 4.50440E-05 2.70845E-05 0.00000E+00
 -1       614 4.51075E-05 3.03965E-05 0.00000E+00
 -1       615 4.51707E-05 3.38025E-05 0.00000E+00
 -1       616 4.52336E-05 3.72885E-05 0.00000E+00
 -1       617 4.52963E-05 4.08404E-05 0.00000E+00
 -1       618 4.53588E-05 4.44442E-05 3.30872E-24
 -1       619 4.54210E-05 4.80861E-05 0.00000E+00
 -1       620 4.54829E-05 5.17520E-05 1.65436E-24
 -1       621 4.24842E-05 5.91462E-06 0.00000E+00
 -1       622 4.04752E-05 6.18612E-06 0.00000E+00
 -1       623 3.85154E-05 6.45787E-06 0.00000E+00
 -1       624 3.66399E-05 6.72902E-06-1.65436E-24
 -1       625 3.48833E-05 6.99852E-06 3.30872E-24
 -1       626 4.38714E-05 7.80049E-06-1.32349E-23
 -1       627 4.31456E-05 1.01831E-05-1.32349E-23
 -1       628 4.23414E-05 1.27714E-05 6.61744E-24
 -1       629 4.14683E-05 1.55411E-05 0.00000E+00
 -1       630 4.05357E-05 1.84680E-05 6.61744E-24
 -1       631 3.95529E-05 2.15276E-05 3.30872E-24
 -1       632 3.85290E-05 2.46954E-05 0.00000E+00
 -1       633 3.74735E-05 2.79469E-05 0.00000E+00
 -1       634 3.63955E-05 3.12578E-05 0.00000E+00
 -1       635 3.53044E-05 3.46034E-05 0.00000E+00
 -1       636 3.42092E-05 3.79595E-05 0.00000E+00
 -1       637 3.31193E-05 4.13015E-05-1.65436E-24
 -1       638 3.20437E-05 4.46049E-05-3.30872E-24
 -1       639 3.09913E-05 4.78452E-05 8.27181E-25
 -1       640 2.99706E-05 5.09979E-05 1.65436E-24
 -1       641 4.55437E-05 5.91613E-05 8.27181E-25
 -1       642 4.55411E-05 6.30725E-05-2.06795E-25
 -1       643 4.55380E-05 6.71368E-05 0.00000E+00
 -1       644 4.55341E-05 7.13295E-05 0.00000E+00
 -1       645 4.55297E-05 7.56259E-05-2.06795E-25
 -1       646 4.55249E-05 8.00013E-05 0.00000E+00
 -1       647 4.55199E-05 8.44311E-05 0.00000E+00
 -1       648 4.55148E-05 8.88904E-05 0.00000E+00
 -1       649 4.55096E-05 9.33547E-05 1.03398E-25
 -1       650 4.55045E-05 9.77992E-05 0.00000E+00
 -1       651 4.54995E-05 1.02199E-04 0.00000E+00
 -1       652 4.54947E-05 1.06530E-04 0.00000E+00
 -1       653 4.54901E-05 1.10767E-04-4.13590E-25
 -1       654 4.54854E-05 1.14886E-04 4.13590E-25
 -1       655 4.54814E-05 1.18861E-04 1.65436E-24
 -1       656 4.22041E-05 5.52023E-05 0.00000E+00
 -1       657 3.93016E-05 5.49666E-05 0.00000E+00
 -1       658 3.66831E-05 5.47322E-05 6.61744E-24
 -1       659 3.41940E-05 5.44978E-05-3.30872E-24
 -1       660 3.16799E-05 5.42630E-05 0.00000E+00
 -1       661 4.43847E-05 5.92473E-05 1.32349E-23
 -1       662 4.31712E-05 6.32367E-05 0.00000E+00
 -1       663 4.19046E-05 6.73649E-05 0.00000E+00
 -1       664 4.05971E-05 7.16052E-05 0.00000E+00
 -1       665 3.92577E-05 7.59300E-05 6.61744E-24
 -1       666 3.78966E-05 8.03124E-05 0.00000E+00
 -1       667 3.65238E-05 8.47259E-05 0.00000E+00
 -1       668 3.51494E-05 8.91438E-05 3.30872E-24
 -1       669 3.37833E-05 9.35396E-05 6.61744E-24
 -1       670 3.24357E-05 9.78867E-05 3.30872E-24
 -1       671 3.11166E-05 1.02158E-04-6.61744E-24
 -1       672 2.98361E-05 1.06327E-04-3.30872E-24
 -1       673 2.86046E-05 1.10366E-04-6.61744E-24
 -1       674 2.74307E-05 1.14247E-04 3.30872E-24
 -1       675 2.63276E-05 1.17943E-04-3.30872E-24
 -1       676 4.18582E-05 1.22462E-04 3.30872E-24
 -1       677 3.83964E-05 1.22252E-04-3.30872E-24
 -1       678 3.50487E-05 1.22042E-04 0.00000E+00
 -1       679 3.17753E-05 1.21832E-04 0.00000E+00
 -1       680 2.85364E-05 1.21623E-04 0.00000E+00
 -1       681 1.00200E-05 1.01891E-07 3.30872E-24
 -1       682 1.02094E-05 1.00759E-06-1.65436E-24
 -1       683 1.03990E-05 1.59821E-06 6.61744E-24
 -1       684 1.05895E-05 1.92185E-06 0.00000E+00
 -1       685 1.07801E-05 2.02607E-06 0.00000E+00
 -1       686 1.09708E-05 1.95799E-06 0.00000E+00
 -1       687 1.11616E-05 1.76443E-06-6.61744E-24
 -1       688 1.13524E-05 1.49193E-06 0.00000E+00
 -1       689 1.15431E-05 1.18690E-06 0.00000E+00
 -1       690 1.17338E-05 8.95657E-07 0.00000E+00
 -1       691 1.19244E-05 6.64583E-07-6.61744E-24
 -1       692 1.21147E-05 5.40150E-07 0.00000E+00
 -1       693 1.23047E-05 5.69049E-07 6.61744E-24
 -1       694 1.24927E-05 7.98257E-07 0.00000E+00
 -1       695 1.26810E-05 1.27518E-06 0.00000E+00
 -1       696 8.24715E-06-9.78024E-07 0.00000E+00
 -1       697 6.51812E-06-7.83672E-07 0.00000E+00
 -1       698 4.73874E-06-5.89461E-07 0.00000E+00
 -1       699 2.99911E-06-3.94039E-07-3.30872E-24
 -1       700 1.38944E-06-1.98345E-07 0.00000E+00
 -1       701 9.14957E-06 8.56085E-08 0.00000E+00
 -1       702 8.55533E-06 1.05881E-06 0.00000E+00
 -1       703 8.05438E-06 1.78508E-06-6.61744E-24
 -1       704 7.63355E-06 2.29272E-06-3.30872E-24
 -1       705 7.28331E-06 2.61190E-06 6.61744E-24
 -1       706 6.99219E-06 2.77263E-06 0.00000E+00
 -1       707 6.74900E-06 2.80544E-06 6.61744E-24
 -1       708 6.54221E-06 2.74105E-06 3.30872E-24
 -1       709 6.36024E-06 2.61047E-06-6.61744E-24
 -1       710 6.19148E-06 2.44481E-06 0.00000E+00
 -1       711 6.02422E-06 2.27532E-06 0.00000E+00
 -1       712 5.84700E-06 2.13328E-06 3.30872E-24
 -1       713 5.64800E-06 2.04982E-06 0.00000E+00
 -1       714 5.41716E-06 2.05651E-06 0.00000E+00
 -1       715 5.14080E-06 2.18339E-06 0.00000E+00
 -1       716 1.29810E-05 2.62119E-06 1.03398E-25
 -1       717 1.31156E-05 2.55808E-06 0.00000E+00
 -1       718 1.32498E-05 1.96353E-06-3.30872E-24
 -1       719 1.33853E-05 9.42538E-07 0.00000E+00
 -1       720 1.35206E-05-4.00581E-07 3.30872E-24
 -1       721 1.36559E-05-1.96192E-06-1.65436E-24
 -1       722 1.37911E-05-3.63785E-06 3.30872E-24
 -1       723 1.39263E-05-5.32498E-06 1.65436E-24
 -1       724 1.40617E-05-6.91987E-06 0.00000E+00
 -1       725 1.41972E-05-8.31895E-06 1.65436E-24
 -1       726 1.43329E-05-9.41843E-06 0.00000E+00
 -1       727 1.44685E-05-1.01140E-05 0.00000E+00
 -1       728 1.46039E-05-1.03010E-05 0.00000E+00
 -1       729 1.47364E-05-9.87378E-06 0.00000E+00
 -1       730 1.48687E-05-8.72598E-06-1.65436E-24
 -1       731 1.16507E-05 2.11069E-06-4.13590E-25
 -1       732 1.01174E-05 2.18084E-06 0.00000E+00
 -1       733 8.46205E-06 2.25065E-06-1.65436E-24
 -1       734 6.89020E-06 2.32169E-06 0.00000E+00
 -1       735 5.60744E-06 2.39328E-06 0.00000E+00
 -1       736 1.20682E-05 2.62792E-06 0.00000E+00
 -1       737 1.13824E-05 2.88165E-06-6.61744E-24
 -1       738 1.08044E-05 2.84993E-06-1.32349E-23
 -1       739 1.03171E-05 2.56790E-06-6.61744E-24
 -1       740 9.90893E-06 2.07430E-06 1.32349E-23
 -1       741 9.56481E-06 1.40819E-06 0.00000E+00
 -1       742 9.27009E-06 6.09920E-07-1.32349E-23
 -1       743 9.00940E-06-2.79528E-07 0.00000E+00
 -1       744 8.76726E-06-1.21855E-06 0.00000E+00
 -1       745 8.52805E-06-2.16525E-06 6.61744E-24
 -1       746 8.27613E-06-3.07771E-06 0.00000E+00
 -1       747 7.99619E-06-3.91413E-06 0.00000E+00
 -1       748 7.67262E-06-4.63330E-06 0.00000E+00
 -1       749 7.29229E-06-5.19396E-06 6.61744E-24
 -1       750 6.83757E-06-5.55756E-06 1.32349E-23
 -1       751 1.56762E-05-4.63776E-06-6.61744E-24
 -1       752 1.64147E-05-3.10176E-06-6.61744E-24
 -1       753 1.71530E-05-2.06152E-06 2.64698E-23
 -1       754 1.78983E-05-1.43944E-06-1.32349E-23
 -1       755 1.86448E-05-1.16110E-06-2.64698E-23
 -1       756 1.93924E-05-1.15473E-06 0.00000E+00
 -1       757 2.01405E-05-1.35061E-06 0.00000E+00
 -1       758 2.08887E-05-1.68059E-06 0.00000E+00
 -1       759 2.16369E-05-2.07753E-06-2.64698E-23
 -1       760 2.23849E-05-2.47483E-06 0.00000E+00
 -1       761 2.31327E-05-2.80587E-06 0.00000E+00
 -1       762 2.38796E-05-3.00351E-06-1.32349E-23
 -1       763 2.46257E-05-2.99963E-06 0.00000E+00
 -1       764 2.53662E-05-2.72452E-06 6.61744E-24
 -1       765 2.61074E-05-2.10646E-06-1.32349E-23
 -1       766 1.26697E-05-6.58764E-06-1.65436E-24
 -1       767 1.06521E-05-6.40452E-06-8.27181E-25
 -1       768 8.96782E-06-6.22158E-06 3.30872E-24
 -1       769 7.65597E-06-6.03729E-06-8.27181E-25
 -1       770 6.75646E-06-5.85178E-06 0.00000E+00
 -1       771 1.34932E-05-4.80134E-06 0.00000E+00
 -1       772 1.21093E-05-3.18335E-06 0.00000E+00
 -1       773 1.08355E-05-1.86781E-06 2.64698E-23
 -1       774 9.66333E-06-8.27925E-07 1.32349E-23
 -1       775 8.58414E-06-3.68428E-08 0.00000E+00
 -1       776 7.58808E-06 5.32310E-07 1.32349E-23
 -1       777 6.66517E-06 9.06496E-07-2.64698E-23
 -1       778 5.80530E-06 1.11278E-06-1.32349E-23
 -1       779 4.99829E-06 1.17830E-06 2.64698E-23
 -1       780 4.23393E-06 1.13032E-06 0.00000E+00
 -1       781 3.50205E-06 9.96134E-07-2.64698E-23
 -1       782 2.79255E-06 8.03160E-07 0.00000E+00
 -1       783 2.09540E-06 5.78858E-07-2.64698E-23
 -1       784 1.40154E-06 3.51028E-07 0.00000E+00
 -1       785 7.02158E-07 1.47544E-07 0.00000E+00
 -1       786 2.71953E-05 5.86166E-08-3.30872E-24
 -1       787 2.75989E-05 9.26735E-07 0.00000E+00
 -1       788 2.80022E-05 1.57345E-06-1.32349E-23
 -1       789 2.84089E-05 2.03829E-06 0.00000E+00
 -1       790 2.88161E-05 2.36002E-06-1.32349E-23
 -1       791 2.92239E-05 2.57682E-06 0.00000E+00
 -1       792 2.96318E-05 2.72642E-06 0.00000E+00
 -1       793 3.00399E-05 2.84627E-06-6.61744E-24
 -1       794 3.04481E-05 2.97370E-06-1.32349E-23
 -1       795 3.08561E-05 3.14607E-06-6.61744E-24
 -1       796 3.12640E-05 3.40093E-06 0.00000E+00
 -1       797 3.16715E-05 3.77619E-06 0.00000E+00
 -1       798 3.20787E-05 4.31022E-06 0.00000E+00
 -1       799 3.24835E-05 5.04208E-06 0.00000E+00
 -1       800 3.28885E-05 6.01168E-06-6.61744E-24
 -1       801 2.38681E-05-8.91775E-07 0.00000E+00
 -1       802 1.87382E-05-7.08479E-07 0.00000E+00
 -1       803 1.26049E-05-5.30786E-07 0.00000E+00
 -1       804 6.64942E-06-3.53635E-07 4.13590E-25
 -1       805 2.05357E-06-1.69654E-07-3.30872E-24
 -1       806 2.60266E-05-7.82389E-08 0.00000E+00
 -1       807 2.52829E-05 7.63151E-07 0.00000E+00
 -1       808 2.45828E-05 1.48095E-06 0.00000E+00
 -1       809 2.39180E-05 2.10097E-06 1.98523E-23
 -1       810 2.32797E-05 2.64904E-06 0.00000E+00
 -1       811 2.26585E-05 3.15083E-06 0.00000E+00
 -1       812 2.20450E-05 3.63201E-06-1.32349E-23
 -1       813 2.14296E-05 4.11823E-06 6.61744E-24
 -1       814 2.08026E-05 4.63514E-06 0.00000E+00
 -1       815 2.01545E-05 5.20836E-06 3.30872E-24
 -1       816 1.94757E-05 5.86351E-06 1.32349E-23
 -1       817 1.87568E-05 6.62623E-06 0.00000E+00
 -1       818 1.79883E-05 7.52210E-06-6.61744E-24
 -1       819 1.71617E-05 8.57685E-06 3.30872E-24
 -1       820 1.62689E-05 9.81622E-06-3.30872E-24
 -1       821 3.30285E-05 8.85396E-06 0.00000E+00
 -1       822 3.27626E-05 1.07920E-05-3.30872E-24
 -1       823 3.24964E-05 1.30404E-05-6.61744E-24
 -1       824 3.22273E-05 1.55645E-05-3.30872E-24
 -1       825 3.19573E-05 1.83290E-05 6.61744E-24
 -1       826 3.16863E-05 2.12978E-05 3.30872E-24
 -1       827 3.14148E-05 2.44344E-05 6.61744E-24
 -1       828 3.11427E-05 2.77018E-05-3.30872E-24
 -1       829 3.08704E-05 3.10627E-05 0.00000E+00
 -1       830 3.05979E-05 3.44793E-05 0.00000E+00
 -1       831 3.03255E-05 3.79140E-05 6.61744E-24
 -1       832 3.00534E-05 4.13288E-05 0.00000E+00
 -1       833 2.97818E-05 4.46861E-05 6.61744E-24
 -1       834 2.95123E-05 4.79482E-05 0.00000E+00
 -1       835 2.92430E-05 5.10777E-05 0.00000E+00
 -1       836 3.11770E-05 7.91551E-06-1.32349E-23
 -1       837 2.81231E-05 8.59355E-06 6.61744E-24
 -1       838 2.45652E-05 9.26884E-06-1.32349E-23
 -1       839 2.09478E-05 9.94303E-06 6.61744E-24
 -1       840 1.77147E-05 1.06197E-05 0.00000E+00
 -1       841 3.25721E-05 8.83210E-06-4.13590E-25
 -1       842 3.17163E-05 1.07743E-05-8.27181E-25
 -1       843 3.07353E-05 1.30491E-05-3.30872E-24
 -1       844 2.96429E-05 1.56151E-05-1.65436E-24
 -1       845 2.84557E-05 1.84316E-05 3.30872E-24
 -1       846 2.71893E-05 2.14569E-05 1.65436E-24
 -1       847 2.58596E-05 2.46493E-05 3.30872E-24
 -1       848 2.44825E-05 2.79668E-05 1.65436E-24
 -1       849 2.30740E-05 3.13673E-05 0.00000E+00
 -1       850 2.16501E-05 3.48084E-05-1.65436E-24
 -1       851 2.02268E-05 3.82478E-05 3.30872E-24
 -1       852 1.88202E-05 4.16433E-05 0.00000E+00
 -1       853 1.74462E-05 4.49526E-05-3.30872E-24
 -1       854 1.61211E-05 4.81336E-05-1.65436E-24
 -1       855 1.48604E-05 5.11441E-05-3.30872E-24
 -1       856 2.87695E-05 5.71187E-05 3.30872E-24
 -1       857 2.85417E-05 6.05972E-05 0.00000E+00
 -1       858 2.83128E-05 6.44223E-05 0.00000E+00
 -1       859 2.80813E-05 6.85419E-05-3.30872E-24
 -1       860 2.78485E-05 7.29031E-05 0.00000E+00
 -1       861 2.76147E-05 7.74525E-05 3.30872E-24
 -1       862 2.73802E-05 8.21365E-05 0.00000E+00
 -1       863 2.71453E-05 8.69009E-05 3.30872E-24
 -1       864 2.69103E-05 9.16915E-05 6.61744E-24
 -1       865 2.66754E-05 9.64540E-05-3.30872E-24
 -1       866 2.64409E-05 1.01134E-04 6.61744E-24
 -1       867 2.62072E-05 1.05678E-04 0.00000E+00
 -1       868 2.59745E-05 1.10031E-04 0.00000E+00
 -1       869 2.57438E-05 1.14141E-04 3.30872E-24
 -1       870 2.55140E-05 1.17954E-04 6.61744E-24
 -1       871 2.63120E-05 5.40240E-05 0.00000E+00
 -1       872 2.37384E-05 5.40092E-05 0.00000E+00
 -1       873 2.12274E-05 5.39942E-05-8.27181E-25
 -1       874 1.87400E-05 5.39787E-05 4.13590E-25
 -1       875 1.62374E-05 5.39625E-05-8.27181E-25
 -1       876 2.81114E-05 5.71871E-05 0.00000E+00
 -1       877 2.71205E-05 6.06778E-05-3.30872E-24
 -1       878 2.60186E-05 6.44604E-05 0.00000E+00
 -1       879 2.48246E-05 6.84913E-05 0.00000E+00
 -1       880 2.35532E-05 7.27264E-05-6.61744E-24
 -1       881 2.22209E-05 7.71231E-05-3.30872E-24
 -1       882 2.08433E-05 8.16389E-05-6.61744E-24
 -1       883 1.94365E-05 8.62321E-05 0.00000E+00
 -1       884 1.80160E-05 9.08611E-05 0.00000E+00
 -1       885 1.65977E-05 9.54843E-05 0.00000E+00
 -1       886 1.51972E-05 1.00060E-04-6.61744E-24
 -1       887 1.38301E-05 1.04547E-04 0.00000E+00
 -1       888 1.25124E-05 1.08904E-04 0.00000E+00
 -1       889 1.12584E-05 1.13086E-04 0.00000E+00
 -1       890 1.00868E-05 1.17053E-04 0.00000E+00
 -1       891 2.23127E-05 1.21308E-04 0.00000E+00
 -1       892 1.97118E-05 1.21197E-04 1.65436E-24
 -1       893 1.72848E-05 1.21086E-04-3.30872E-24
 -1       894 1.48270E-05 1.20975E-04 1.65436E-24
 -1       895 1.21335E-05 1.20864E-04 0.00000E+00
 -1       896 2.99329E-07 1.08089E-06-6.61744E-24
 -1       897 6.01188E-07 1.88588E-06 0.00000E+00
 -1       898 9.03160E-07 2.44916E-06 6.61744E-24
 -1       899 1.20558E-06 2.80428E-06 0.00000E+00
 -1       900 1.50809E-06 2.98416E-06-6.61744E-24
 -1       901 1.81069E-06 3.02118E-06 0.00000E+00
 -1       902 2.11329E-06 2.94726E-06 6.61744E-24
 -1       903 2.41589E-06 2.79399E-06-3.30872E-24
 -1       904 2.71846E-06 2.59271E-06 6.61744E-24
 -1       905 3.02097E-06 2.37462E-06-3.30872E-24
 -1       906 3.32341E-06 2.17086E-06 0.00000E+00
 -1       907 3.62556E-06 2.01260E-06-3.30872E-24
 -1       908 3.92752E-06 1.93118E-06 0.00000E+00
 -1       909 4.22792E-06 1.95816E-06 0.00000E+00
 -1       910 4.52854E-06 2.12544E-06 0.00000E+00
 -1       911 4.91231E-06 2.74498E-06 0.00000E+00
 -1       912 5.00674E-06 2.73851E-06 1.65436E-24
 -1       913 5.10111E-06 2.48498E-06 0.00000E+00
 -1       914 5.19561E-06 2.02349E-06 1.65436E-24
 -1       915 5.29005E-06 1.39289E-06 0.00000E+00
 -1       916 5.38443E-06 6.31865E-07 1.65436E-24
 -1       917 5.47875E-06-2.20990E-07 0.00000E+00
 -1       918 5.57302E-06-1.12721E-06-1.65436E-24
 -1       919 5.66725E-06-2.04837E-06 0.00000E+00
 -1       920 5.76144E-06-2.94602E-06 0.00000E+00
 -1       921 5.85559E-06-3.78176E-06-3.30872E-24
 -1       922 5.94951E-06-4.51707E-06-4.96308E-24
 -1       923 6.04329E-06-5.11336E-06 0.00000E+00
 -1       924 6.13548E-06-5.53191E-06 0.00000E+00
 -1       925 6.22797E-06-5.73378E-06 0.00000E+00
 -1       926 5.92577E-06-5.45206E-06 6.61744E-24
 -1       927 5.53200E-06-5.17504E-06 6.61744E-24
 -1       928 5.13843E-06-4.85547E-06 0.00000E+00
 -1       929 4.74332E-06-4.50008E-06 0.00000E+00
 -1       930 4.34800E-06-4.11573E-06-1.32349E-23
 -1       931 3.95239E-06-3.70940E-06 0.00000E+00
 -1       932 3.55670E-06-3.28817E-06 1.32349E-23
 -1       933 3.16094E-06-2.85916E-06 0.00000E+00
 -1       934 2.76518E-06-2.42955E-06 0.00000E+00
 -1       935 2.36941E-06-2.00648E-06 0.00000E+00
 -1       936 1.97367E-06-1.59711E-06 0.00000E+00
 -1       937 1.57803E-06-1.20852E-06 0.00000E+00
 -1       938 1.18245E-06-8.47697E-07 0.00000E+00
 -1       939 7.87342E-07-5.21535E-07 0.00000E+00
 -1       940 3.92184E-07-2.36789E-07 0.00000E+00
 -1       941 9.03059E-07 2.13388E-07 0.00000E+00
 -1       942 1.86025E-06 4.42233E-07 0.00000E+00
 -1       943 2.81623E-06 6.95657E-07 0.00000E+00
 -1       944 3.78066E-06 9.83043E-07 0.00000E+00
 -1       945 4.74619E-06 1.31409E-06 0.00000E+00
 -1       946 5.71327E-06 1.69895E-06 0.00000E+00
 -1       947 6.68072E-06 2.14829E-06-2.64698E-23
 -1       948 7.64841E-06 2.67343E-06 0.00000E+00
 -1       949 8.61608E-06 3.28643E-06 0.00000E+00
 -1       950 9.58350E-06 4.00024E-06-1.32349E-23
 -1       951 1.05505E-05 4.82877E-06 0.00000E+00
 -1       952 1.15162E-05 5.78711E-06 1.32349E-23
 -1       953 1.24808E-05 6.89159E-06 2.64698E-23
 -1       954 1.34386E-05 8.16001E-06 1.32349E-23
 -1       955 1.43971E-05 9.61181E-06 0.00000E+00
 -1       956 1.52143E-05 1.31852E-05 2.48154E-24
 -1       957 1.51140E-05 1.52823E-05 0.00000E+00
 -1       958 1.50131E-05 1.75434E-05 0.00000E+00
 -1       959 1.49116E-05 1.99512E-05 8.27181E-25
 -1       960 1.48097E-05 2.24885E-05-2.06795E-25
 -1       961 1.47075E-05 2.51377E-05-8.27181E-25
 -1       962 1.46051E-05 2.78815E-05-8.27181E-25
 -1       963 1.45025E-05 3.07023E-05 8.27181E-25
 -1       964 1.43997E-05 3.35826E-05-1.65436E-24
 -1       965 1.42967E-05 3.65050E-05 0.00000E+00
 -1       966 1.41938E-05 3.94519E-05 3.30872E-24
 -1       967 1.40908E-05 4.24058E-05 1.65436E-24
 -1       968 1.39879E-05 4.53493E-05-3.30872E-24
 -1       969 1.38851E-05 4.82648E-05 0.00000E+00
 -1       970 1.37827E-05 5.11351E-05 0.00000E+00
 -1       971 1.34013E-05 5.68810E-05 6.61744E-24
 -1       972 1.31115E-05 6.02168E-05 0.00000E+00
 -1       973 1.28207E-05 6.39031E-05 6.61744E-24
 -1       974 1.25274E-05 6.78911E-05 0.00000E+00
 -1       975 1.22330E-05 7.21310E-05 6.61744E-24
 -1       976 1.19375E-05 7.65724E-05 0.00000E+00
 -1       977 1.16413E-05 8.11645E-05 6.61744E-24
 -1       978 1.13446E-05 8.58556E-05-3.30872E-24
 -1       979 1.10477E-05 9.05941E-05-6.61744E-24
 -1       980 1.07508E-05 9.53281E-05 0.00000E+00
 -1       981 1.04543E-05 1.00006E-04 0.00000E+00
 -1       982 1.01586E-05 1.04575E-04 0.00000E+00
 -1       983 9.86379E-06 1.08986E-04-6.61744E-24
 -1       984 9.57148E-06 1.13186E-04 3.30872E-24
 -1       985 9.27995E-06 1.17125E-04-6.61744E-24
 -3
    1PSTEP                         2           1           1          
  100CL  101 1.000000000         841                     0    1           1
 -4  STRESS      6    1
 -5  SXX         1    4    1    1
 -5  SYY         1    4    2    2
 -5  SZZ         1    4    3    3
 -5  SXY         1    4    1    2
 -5  SYZ         1    4    2    3
 -5  SZX         1    4    3    1
 -1         1-2.43319E+06-7.31340E+05-3.39145E+05-8.49597E+05-5.14168E-10-1.07684E-09
 -1         2-1.52555E+06-1.22758E+04 2.58663E+03-1.61723E+05-4.30646E-10 3.93447E-09
 -1         3-6.73689E+05-3.71100E+05-2.55861E+02-9.44646E+04-6.53699E-12-8.51628E-10
 -1         4-1.90713E+05-9.59633E+04 2.74168E+02-3.75548E+04-1.34719E-11-8.15362E-10
 -1         5 3.60872E+03 5.44087E+05-1.17782E+05-2.24876E+03 9.85892E-10 7.38191E-09
 -1         8-9.42544E+05-4.73678E+05-1.01340E+05-7.05147E+05 2.54659E-11 4.56203E-09
 -1         9-1.33055E+06-2.58562E+05-1.52996E+05-4.41115E+05-6.18456E-10 2.25979E-09
 -1        10-7.48975E+05-5.54586E+05-4.08157E+02-3.00113E+05-5.72982E-10 2.77881E-09
 -1        11-3.17827E+05-1.60945E+05 1.12884E+02-1.56178E+05 2.26161E-10 4.04195E-09
 -1        12-6.46071E+04 5.18309E+05-1.27487E+05-3.62956E+04 4.31771E-09-1.03505E-09
 -1        15-1.44729E+03-3.91918E+04 2.10480E+03-2.16054E+05-2.04636E-10 6.18456E-10
 -1        16-7.57366E+05-2.22220E+05-9.83459E+04-4.18529E+05-3.52884E-10-1.55220E-09
 -1        17-4.91621E+05-4.35380E+05-4.30976E+04-4.31342E+05-5.56611E-10 3.12866E-09
 -1        18-1.10120E+05-1.26012E+05-5.19871E+04-3.19148E+05-7.97930E-10 1.64922E-10
 -1        19 7.16632E+04 2.62619E+05-5.99417E+04-6.67009E+04 6.51501E-10 1.49460E-09
 -1        20 1.66588E+05-1.17582E+05-1.70503E+04 9.27912E+04 3.39969E-09-1.46701E-09
 -1        21-2.85086E+04-2.60885E+05-1.22072E+03 1.91244E+04 5.19158E-08 2.18137E-11
 -1        22 3.36233E+04 1.84969E+05 9.06536E+02-6.56390E+04-5.09317E-11-2.54659E-10
 -1        23-2.66483E+05-1.92673E+04 1.87020E+03-2.07210E+05 1.72804E-11-7.46240E-10
 -1        24-2.50463E+05-3.49294E+04 1.06900E+05-3.81175E+05-1.55827E-09-6.16031E-10
 -1        25 3.66410E+05 1.70449E+05 1.60434E+05-3.59303E+05 3.84413E-10-9.62852E-10
 -1        26 3.48458E+04 3.91893E+05 4.03185E+04-1.10363E+05 3.35118E-09-3.38393E-09
 -1        27-9.66685E+04-1.03524E+05-4.95795E+04 1.17744E+05 2.06001E-09-5.80379E-09
 -1        28-2.46299E+04-1.78263E+05-1.48194E+03 8.88866E+04 3.27607E-08-2.36822E-09
 -1        29 4.16765E+05 2.99270E+05 1.09343E+03-3.60048E+04-3.01839E-11-9.04038E-10
 -1        30 1.56039E+05 3.70486E+04 1.28863E+03-7.63123E+04 3.05061E-10-5.33873E-10
 -1        31-4.88177E+05 3.98283E+04 2.75636E+03-1.17743E+05 4.87681E-11 3.67436E-10
 -1        32 1.09502E+05 2.48543E+05 2.56431E+05-3.30956E+05-1.05992E-09 2.10639E-09
 -1        33 5.49938E+05 5.91389E+05 2.60462E+05-1.39233E+05 5.60178E-10-3.08319E-10
 -1        34-3.42676E+05-6.03567E+04-3.49695E+04 4.34457E+04 1.62487E-08-2.34922E-09
 -1        35-4.65344E+04-5.74359E+04-1.14364E+03 1.21418E+05 3.23940E-08-2.95889E-09
 -1        36-3.32992E+06 4.42750E+04-1.70385E+05 1.04301E-08-3.36001E-10-2.71393E-09
 -1        37-3.39275E+06-5.74408E+04-1.10625E+05 9.03092E-08 3.76616E-10 1.02209E-08
 -1        38-3.35598E+06 4.81267E+03-4.41816E+04 8.78538E-09-4.30116E-10 5.80258E-09
 -1        39-3.36341E+06-6.07307E+03-2.49968E+04 8.67965E-09-1.14351E-09-4.10864E-09
 -1        40-3.35908E+06 5.37997E+02-1.13090E+04 1.07673E-08-2.66260E-11 8.44921E-10
 -1        41-3.35987E+06-6.41494E+02-6.24995E+03-1.57868E-08-8.42470E-10-5.94162E-09
 -1        42-3.35948E+06 7.11597E+01-3.45380E+03-2.56801E-08-2.43478E-10 1.64664E-09
 -1        43-3.35946E+06-1.27760E+02-2.82745E+03-4.48584E-08-1.21386E-09 3.95955E-09
 -1        44-3.35948E+06 6.94649E+01-3.38935E+03-3.89516E-09-5.80039E-10 1.48668E-09
 -1        45-3.35985E+06-6.22102E+02-6.07872E+03 2.62409E-09 8.99591E-11-3.79180E-09
 -1        46-3.35909E+06 5.21501E+02-1.09708E+04 1.84919E-08-5.83304E-10-6.42467E-09
 -1        47-3.36328E+06-5.88588E+03-2.42317E+04 7.49810E-09 9.46858E-10 2.49065E-09
 -1        48-3.35609E+06 4.66426E+03-4.28226E+04-3.92054E-08-1.92979E-10 3.88536E-09
 -1        49-3.39172E+06-5.56706E+04-1.07216E+05-4.19368E-08-8.75424E-10 8.07631E-10
 -1        50-3.33084E+06 4.29095E+04-1.65137E+05 4.40195E-09-4.52359E-10-2.24827E-09
 -1        51 4.84703E+04-4.68225E+05 1.03906E+05-1.08838E+06-4.36557E-10 4.51109E-10
 -1        52 2.09579E+04-4.56962E+05 5.70992E+04-1.25982E+06-2.98314E-10-8.73115E-09
 -1        53 9.63885E+03-4.78107E+05 3.30509E+04-1.08454E+06-3.34694E-10 4.77303E-09
 -1        54 2.04913E+04-4.78592E+05 3.44714E+04-1.26367E+06-1.89175E-10-2.00453E-09
 -1        55 3.48909E+04-4.90059E+05 5.00656E+04-1.08402E+06-1.74623E-10 1.33878E-09
 -1        56-3.91623E+06-4.88169E+05-2.62183E+05-1.50266E+06 3.45608E-10-2.80852E-09
 -1        57-4.00829E+06-6.75828E+05-1.67768E+05-1.50428E+06 1.68438E-09 6.54836E-09
 -1        58-3.96318E+06-5.52982E+05-6.18073E+04-1.49370E+06-7.19410E-10 4.30373E-09
 -1        59-3.95413E+06-5.94206E+05-3.44912E+04-1.51742E+06-2.86832E-09-2.49020E-09
 -1        60-3.96874E+06-5.60389E+05-1.44092E+04-1.49291E+06 1.03728E-09 3.92629E-09
 -1        61-3.94820E+06-5.84512E+05-7.80309E+03-1.51791E+06-1.44723E-09 5.59112E-09
 -1        62-3.96889E+06-5.61835E+05-4.13839E+03-1.49349E+06 2.40107E-10-4.32578E-10
 -1        63-3.94907E+06-5.82050E+05-3.59040E+03-1.51606E+06 2.09616E-09-1.84946E-09
 -1        64-3.96780E+06-5.62934E+05-4.71060E+03-1.49470E+06-2.76486E-10-1.99316E-09
 -1        65-3.95242E+06-5.80620E+05-9.34038E+03-1.51292E+06-1.27307E-09 7.91078E-09
 -1        66-3.96539E+06-5.63425E+05-1.75384E+04-1.49649E+06-1.51431E-09-2.00180E-09
 -1        67-3.96350E+06-5.88389E+05-4.19884E+04-1.50758E+06 2.39584E-09-6.52017E-09
 -1        68-3.95670E+06-5.56245E+05-7.53784E+04-1.49956E+06 2.76486E-10-7.06132E-09
 -1        69-4.03278E+06-6.84511E+05-2.04468E+05-1.48775E+06-2.57069E-09-2.24099E-09
 -1        70-3.89798E+06-4.78670E+05-3.19587E+05-1.51211E+06-6.54836E-11 4.04543E-09
 -1        71-1.34742E+06-4.91294E+03 1.89583E+04 2.72300E-08-8.62976E-10-4.61114E-09
 -1        72-1.34028E+06 6.37932E+03 1.22979E+04 5.53746E-09 9.04457E-10 1.01750E-09
 -1        73-1.34452E+06-5.33913E+02 4.90763E+03-4.08534E-08-6.38431E-10 3.36968E-10
 -1        74-1.34354E+06 6.73960E+02 2.75966E+03-3.01911E-08 2.84444E-10 3.76076E-09
 -1        75-1.34418E+06-5.93502E+01 1.21398E+03-1.18381E-08-3.15579E-10 6.45952E-09
 -1        76-1.34394E+06 6.95046E+01 6.01539E+02-6.54675E-09 5.56191E-10 7.25578E-09
 -1        77-1.34413E+06-5.68900E+00 1.98678E+02 3.69701E-09 4.09654E-10 2.54778E-09
 -1        78-1.34401E+06-3.21096E+00-7.15637E+01 5.20884E-08-1.81648E-09-4.86480E-09
 -1        79-1.34411E+06 9.23305E+00-3.71853E+02-7.52300E-09 5.76679E-10 4.52388E-09
 -1        80-1.34409E+06-1.01296E+02-9.13260E+02 5.63798E-10 1.12998E-09 1.19640E-09
 -1        81-1.34404E+06 8.60161E+01-1.77711E+03-2.89287E-08-5.74030E-10 2.78737E-09
 -1        82-1.34466E+06-9.75028E+02-4.00277E+03-1.11348E-08-1.63901E-10-7.06223E-10
 -1        83-1.34354E+06 7.72440E+02-7.10429E+03-6.88837E-09-1.17725E-10-2.35150E-09
 -1        84-1.34938E+06-9.22842E+03-1.77926E+04 6.23754E-09-7.21274E-10-1.98247E-09
 -1        85-1.33934E+06 7.10795E+03-2.74212E+04-5.08348E-08 4.45476E-10-1.97178E-09
 -1        86-5.39237E+04 6.75258E+05 2.13323E+05 5.80647E+03-8.73115E-11-6.23277E-09
 -1        87 7.41606E+04 7.55846E+05 1.53006E+05 3.15512E+04-6.96673E-10 9.06766E-10
 -1        88-9.93074E+03 7.04314E+05 8.85246E+04 5.45911E+03-4.57476E-10 8.18272E-09
 -1        89 5.41578E+04 7.44812E+05 1.19372E+05 3.23379E+04-1.65801E-09 4.85170E-09
 -1        90-3.71900E+04 6.86683E+05 1.50350E+05 5.04301E+03-6.83940E-10-6.94854E-10
 -1        91-1.89096E+06-2.53983E+05-5.34355E+04-7.17063E+05-1.30967E-10 3.57613E-09
 -1        92-1.90612E+06-2.95606E+05-3.41698E+04-7.21360E+05 2.47496E-10 4.93947E-09
 -1        93-1.90056E+06-2.67126E+05-1.26099E+04-7.15213E+05 1.59662E-09 7.91078E-09
 -1        94-1.89504E+06-2.79091E+05-7.04081E+03-7.24124E+05 1.24061E-10 2.06001E-10
 -1        95-1.90175E+06-2.68587E+05-2.95159E+03-7.15005E+05-4.21039E-10-1.97940E-09
 -1        96-1.89374E+06-2.77217E+05-1.61044E+03-7.24342E+05 1.05570E-09-1.18302E-08
 -1        97-1.90183E+06-2.68818E+05-8.73433E+02-7.15059E+05 1.47907E-10-1.01724E-08
 -1        98-1.89380E+06-2.76834E+05-7.96236E+02-7.24110E+05 8.14453E-10-4.04691E-09
 -1        99-1.90167E+06-2.68967E+05-1.08174E+03-7.15233E+05-6.18456E-11-3.22063E-09
 -1       100-1.89439E+06-2.76712E+05-2.18557E+03-7.23623E+05 8.15476E-10-4.55339E-09
 -1       101-1.90122E+06-2.68973E+05-4.11107E+03-7.15524E+05 6.32099E-11-4.27394E-09
 -1       102-1.89679E+06-2.78755E+05-9.85270E+03-7.22624E+05 5.93900E-10-2.43108E-09
 -1       103-1.89929E+06-2.67196E+05-1.76779E+04-7.16120E+05-1.22628E-09 2.14823E-09
 -1       104-1.91279E+06-3.01418E+05-4.78955E+04-7.18185E+05 4.84135E-10 1.92904E-09
 -1       105-1.88561E+06-2.48990E+05-7.49126E+04-7.18960E+05-9.64064E-10 2.16824E-09
 -1       106-4.02867E+05-1.53882E+04 5.94420E+04-2.91511E-08-5.73236E-10 1.33878E-09
 -1       107-3.80830E+05 1.99864E+04 3.85630E+04-2.81175E-08 1.83780E-10 1.51886E-09
 -1       108-3.93765E+05-1.67213E+03 1.54116E+04-5.36724E-08-1.52324E-10-2.86582E-09
 -1       109-3.91033E+05 2.11118E+03 8.69514E+03 2.76772E-08 5.60665E-10 4.39195E-09
 -1       110-3.92678E+05-1.86421E+02 3.88682E+03 1.58380E-08-2.44747E-10 1.95791E-09
 -1       111-3.92269E+05 2.20417E+02 2.04694E+03-1.97428E-08-1.63962E-10 9.92031E-10
 -1       112-3.92532E+05-2.15036E+01 9.35836E+02-1.42310E-08 1.00590E-10-1.90141E-10
 -1       113-3.92442E+05 1.89125E+01 4.22532E+02 4.31934E-09-4.35945E-10 4.04854E-09
 -1       114-3.92506E+05 6.58466E-01 8.65565E+01-1.03151E-09 3.13455E-10 1.33716E-09
 -1       115-3.92496E+05-3.32200E+01-2.07365E+02 1.63309E-09-8.15213E-10-4.73267E-09
 -1       116-3.92479E+05 2.94518E+01-5.64095E+02 5.04472E-09 2.76891E-10-1.94942E-09
 -1       117-3.92699E+05-3.38146E+02-1.36361E+03 4.24929E-09-3.72109E-10-1.33298E-11
 -1       118-3.92303E+05 2.67900E+02-2.45509E+03-1.53160E-08 1.33832E-10 1.89209E-09
 -1       119-3.94335E+05-3.20268E+03-6.17248E+03 1.41042E-08-4.86700E-10 2.02681E-09
 -1       120-3.90844E+05 2.46629E+03-9.51987E+03-3.78094E-09-1.33034E-11 3.12730E-09
 -1       121 9.41582E+03-1.43591E+06-3.70199E+04-7.24937E+03 5.78439E-10-1.41881E-10
 -1       122-1.26577E+04-1.44950E+06-2.52895E+04-3.83854E+04 1.23873E-09-6.42103E-10
 -1       123 1.37576E+03-1.44126E+06-1.25460E+04-6.72613E+03 1.69121E-09 6.69615E-09
 -1       124-5.48326E+03-1.44556E+06-1.32498E+04-3.91461E+04 2.32217E-09-6.93490E-11
 -1       125 3.41671E+03-1.44000E+06-1.45089E+04-6.48934E+03 1.98270E-09 9.50763E-10
 -1       126-8.75972E+05-1.25430E+05 3.80719E+03-3.29780E+05-1.89402E-10-3.07466E-09
 -1       127-8.68201E+05-1.29040E+05 2.43385E+03-3.36996E+05-3.53111E-10-6.32426E-09
 -1       128-8.75355E+05-1.24423E+05 8.92179E+02-3.29835E+05-3.60615E-10-4.49722E-09
 -1       129-8.68913E+05-1.30301E+05 4.87149E+02-3.36901E+05-1.77536E-10-3.57193E-09
 -1       130-8.75287E+05-1.24300E+05 1.78908E+02-3.29830E+05 7.31024E-10-3.93658E-09
 -1       131-8.69016E+05-1.30431E+05 4.56248E+01-3.36878E+05-1.25979E-10 3.61409E-09
 -1       132-8.75253E+05-1.24306E+05-7.92914E+01-3.29853E+05-3.69823E-10 1.22907E-09
 -1       133-8.69118E+05-1.30393E+05-2.55007E+02-3.36789E+05-7.25777E-10 1.38925E-10
 -1       134-8.75179E+05-1.24344E+05-5.47381E+02-3.29914E+05-2.64663E-10-1.84878E-09
 -1       135-8.69392E+05-1.30431E+05-1.26014E+03-3.36607E+05 5.26143E-10-5.87312E-09
 -1       136-8.74968E+05-1.24289E+05-2.44047E+03-3.30021E+05 1.30512E-10-1.59116E-09
 -1       137-8.70687E+05-1.31790E+05-5.88846E+03-3.36164E+05 1.20679E-09-4.20971E-09
 -1       138-8.73889E+05-1.23149E+05-1.05804E+04-3.30287E+05 1.05990E-09 1.02773E-10
 -1       139-8.80093E+05-1.45505E+05-2.86581E+04-3.33693E+05 8.08583E-10-1.00772E-09
 -1       140-8.65776E+05-1.12180E+05-4.48278E+04-3.31883E+05-2.77987E-09 2.82671E-09
 -1       141-2.24078E+04-6.37542E+03 2.46240E+04-1.96248E-08 4.44652E-10 2.38470E-09
 -1       142-1.32869E+04 8.28028E+03 1.59684E+04-4.88217E-09 1.79393E-10-1.71667E-10
 -1       143-1.86324E+04-6.92567E+02 6.36233E+03 1.76276E-09-1.88792E-10 3.00838E-09
 -1       144-1.75160E+04 8.74300E+02 3.55195E+03-6.24408E-09-1.74635E-10 8.62428E-10
 -1       145-1.81798E+04-7.64794E+01 1.50842E+03-5.04361E-09 9.84718E-11-3.23860E-09
 -1       146-1.80364E+04 8.76303E+01 6.37332E+02-1.26851E-09-1.44333E-10 3.04601E-09
 -1       147-1.81121E+04-4.02798E+00-2.61436E+01-1.44160E-08 3.29149E-10 8.53788E-10
 -1       148-1.81540E+04-3.05400E+01-6.83156E+02-4.68532E-09-2.03290E-10 3.22997E-09
 -1       149-1.80623E+04 3.77069E+01-1.62681E+03-2.91955E-08-2.65415E-10-8.75616E-10
 -1       150-1.84631E+04-3.89973E+02-3.61101E+03-2.88287E-08 6.14547E-10 2.92408E-09
 -1       151-1.78030E+04 3.30044E+02-6.87901E+03-2.22091E-08-5.07997E-10 2.02863E-09
 -1       152-2.06507E+04-3.73826E+03-1.54003E+04 1.35742E-10 4.16682E-11-3.42902E-09
 -1       153-1.58738E+04 2.96114E+03-2.72966E+04-1.02554E-08 6.81706E-10 1.60435E-09
 -1       154-3.87172E+04-3.53917E+04-6.83002E+04-1.40672E-08-9.07762E-11 8.60655E-09
 -1       155 2.80703E+02 2.72583E+04-1.05213E+05-2.77978E-08 6.94512E-10 8.87667E-10
 -1       156 1.35016E+03-3.46905E+05-4.87101E+03-4.65299E+03-5.68434E-11-3.01861E-09
 -1       157-1.39626E+03-3.48529E+05-1.85974E+03-2.33752E+04 6.91671E-10-2.11071E-09
 -1       158-1.91480E+02-3.47973E+05 1.67691E+03-4.51881E+03 2.48974E-10-4.29509E-09
 -1       159 3.89214E+03-3.45581E+05 7.04176E+03-2.35704E+04 8.65384E-10-4.44163E-09
 -1       160-3.09825E+03-3.49927E+05 1.17651E+04-4.45724E+03 3.41970E-10 1.45610E-09
 -1       161-3.38959E+05-4.64976E+04-8.76038E+03-1.29457E+05 3.19460E-11 1.25920E-09
 -1       162-3.38027E+05-5.67250E+04-5.60751E+03-1.34074E+05 1.55239E-10-8.11906E-09
 -1       163-3.40523E+05-4.86596E+04-2.08497E+03-1.29168E+05-7.25748E-11-3.49200E-09
 -1       164-3.36234E+05-5.40028E+04-1.19098E+03-1.34504E+05 1.35984E-10 8.97110E-10
 -1       165-3.40707E+05-4.89076E+04-5.58686E+02-1.29144E+05-1.56604E-10 5.12017E-10
 -1       166-3.36040E+05-5.36903E+04-4.24747E+02-1.34526E+05 2.31552E-10-5.39342E-09
 -1       167-3.40710E+05-4.89433E+04-4.69907E+02-1.29155E+05 1.03682E-10-9.44169E-11
 -1       168-3.36100E+05-5.36787E+04-8.49118E+02-1.34487E+05-1.81956E-10-5.69514E-10
 -1       169-3.40640E+05-4.89212E+04-1.61302E+03-1.29179E+05-7.51015E-10-2.15505E-09
 -1       170-3.36550E+05-5.41188E+04-3.61893E+03-1.34381E+05 1.88265E-09-2.16960E-09
 -1       171-3.40255E+05-4.85426E+04-6.95749E+03-1.29241E+05-4.87717E-11 7.97172E-10
 -1       172-3.39761E+05-5.84844E+04-1.67777E+04-1.33722E+05 1.99501E-09-8.37645E-10
 -1       173-3.37480E+05-4.49996E+04-3.01168E+04-1.29667E+05 1.42063E-09 5.14774E-09
 -1       174-3.65855E+05-9.82072E+04-8.15812E+04-1.27519E+05 1.73600E-09-2.14004E-09
 -1       175-3.14777E+05-1.33517E+04-1.27535E+05-1.33728E+05-1.37516E-09 4.52565E-09
 -1       191 1.25483E+04 1.37932E+06 2.66428E+04-4.99564E+03 2.11003E-10 3.34694E-10
 -1       192 4.10898E+03 1.38418E+06 1.59908E+04-4.85129E+03 5.53882E-10-2.03909E-09
 -1       193 1.06268E+03 1.38109E+06 1.23489E+04-4.60359E+03-6.83826E-11 2.47019E-09
 -1       194 4.84461E+03 1.38457E+06 1.78598E+04-5.60884E+03 1.23691E-09 2.03727E-10
 -1       195 1.49345E+04 1.37890E+06 3.11935E+04-4.20361E+03-2.21917E-10-1.96269E-09
 -1       251-3.92850E+05-1.37280E+04 4.75345E+04-2.47605E+04 2.47383E-10 5.08953E-09
 -1       252-3.72006E+05 1.53005E+04 3.14215E+04-1.17002E+05 7.38510E-10-3.62706E-09
 -1       253-3.85716E+05-1.93575E+03 1.22135E+04-2.39041E+04 2.83762E-10-8.89213E-09
 -1       254-3.82333E+05 1.45930E+03 7.15842E+03-1.18268E+05 1.55615E-09 8.18545E-11
 -1       255-3.85040E+05-3.18731E+02 3.10153E+03-2.34973E+04 5.82077E-10 2.97541E-09
 -1       256-3.84620E+05 4.16454E+02 1.80203E+03-1.18897E+05 7.91260E-11 4.52565E-09
 -1       257-3.85040E+05 3.75149E+01 9.55870E+02-2.32775E+04 1.53705E-10-3.21597E-09
 -1       258-3.85278E+05 4.79960E+02 7.73261E+02-1.19152E+05-3.39924E-11 3.46654E-09
 -1       259-3.85058E+05 7.95824E+01 8.76463E+02-2.32408E+04-1.46838E-09-3.48700E-09
 -1       260-3.84969E+05 5.13921E+02 1.53487E+03-1.19051E+05 8.76753E-10-4.61114E-10
 -1       261-3.85078E+05-1.76433E+02 2.64793E+03-2.33790E+04 1.02136E-09-1.19621E-09
 -1       262-3.83161E+05 1.42822E+03 5.99650E+03-1.18572E+05 1.78170E-09-3.63264E-09
 -1       263-3.85651E+05-1.52055E+03 1.02767E+04-2.37201E+04-1.25146E-09 7.67250E-09
 -1       264-3.74483E+05 1.30133E+04 2.63224E+04-1.17471E+05-2.75759E-09 2.01715E-09
 -1       265-3.91618E+05-1.14203E+04 3.98620E+04-2.44803E+04-1.99361E-09-1.05501E-10
 -1       266-1.41060E+04-3.02634E+05 5.54660E+04-5.65298E+04-1.92813E-10 3.24690E-09
 -1       267 2.19457E+04-2.84905E+05 3.37525E+04-2.88045E+05-1.50976E-10-2.83819E-10
 -1       268-2.83673E+02-2.93581E+05 8.91431E+03-5.62761E+04-5.72982E-11 4.83851E-10
 -1       269-2.24852E+03-2.96733E+05-6.15108E+03-2.87738E+05 1.79170E-10 1.52795E-09
 -1       270 5.12908E+03-2.88765E+05-1.95730E+04-5.68688E+04-3.38332E-10 1.45155E-09
 -1       271-3.48515E+06-4.41365E+05-2.71690E+05-1.36225E+06-1.35333E-09-2.35741E-09
 -1       272-3.56365E+06-6.49868E+05-1.73465E+05-1.38016E+06-3.64139E-10 3.72529E-09
 -1       273-3.53723E+06-5.04742E+05-6.42058E+04-1.34926E+06 2.19188E-10-4.36194E-09
 -1       274-3.50246E+06-5.71592E+05-3.56330E+04-1.40143E+06-4.62933E-10-2.36832E-09
 -1       275-3.54589E+06-5.09384E+05-1.50153E+04-1.34534E+06 5.22050E-10-5.94810E-09
 -1       276-3.49218E+06-5.66371E+05-8.02672E+03-1.40817E+06-1.08230E-09-1.45837E-09
 -1       277-3.54824E+06-5.08468E+05-4.21959E+03-1.34349E+06-9.59972E-10-3.63229E-09
 -1       278-3.48988E+06-5.67282E+05-3.55747E+03-1.41072E+06-9.22341E-10 1.29830E-09
 -1       279-3.54856E+06-5.08073E+05-4.54417E+03-1.34312E+06-2.09980E-10 2.30375E-09
 -1       280-3.49126E+06-5.67766E+05-9.00986E+03-1.40982E+06 8.78345E-10-5.30008E-10
 -1       281-3.54675E+06-5.08165E+05-1.69096E+04-1.34426E+06 3.96994E-10-1.01227E-09
 -1       282-3.50146E+06-5.75472E+05-4.04314E+04-1.40444E+06 5.49335E-10 2.57478E-09
 -1       283-3.53794E+06-5.01917E+05-7.27100E+04-1.34765E+06 9.29504E-10 7.45786E-10
 -1       284-3.56908E+06-6.66270E+05-1.96784E+05-1.38272E+06 5.00677E-10 2.14277E-09
 -1       285-3.47992E+06-4.28913E+05-3.07939E+05-1.36122E+06-1.12777E-09-2.47383E-10
 -1       286-3.71367E+05-1.15789E+04 4.19548E+04-1.60051E+04 2.07365E-09 2.43926E-09
 -1       287-3.54132E+05 1.37589E+04 2.75226E+04-7.51501E+04 1.66165E-09-1.77806E-10
 -1       288-3.65005E+05-1.50622E+03 1.08255E+04-1.53973E+04-2.16460E-10 3.22234E-09
 -1       289-3.62367E+05 1.34923E+03 6.27925E+03-7.60477E+04 2.37378E-10-2.00998E-09
 -1       290-3.64333E+05-2.47993E+02 2.79295E+03-1.51053E+04 5.60249E-10 4.79417E-09
 -1       291-3.63898E+05 2.57521E+02 1.67313E+03-7.65137E+04 2.10639E-09 9.78707E-09
 -1       292-3.64299E+05-1.04016E+01 1.03186E+03-1.49322E+04 2.56023E-09 6.28017E-09
 -1       293-3.64329E+05 2.82949E+02 1.09515E+03-7.67537E+04 1.05501E-09 4.77121E-09
 -1       294-3.64340E+05 2.31744E+01 1.58629E+03-1.48646E+04 1.64050E-09-5.02791E-09
 -1       295-3.64142E+05 5.68711E+02 3.07717E+03-7.67786E+04 2.68153E-09-2.09560E-09
 -1       296-3.64531E+05-2.42364E+02 5.65354E+03-1.49070E+04 1.31467E-09-2.15891E-09
 -1       297-3.62085E+05 3.18570E+03 1.25797E+04-7.65767E+04 2.18051E-09 2.92562E-09
 -1       298-3.66044E+05-2.49244E+03 2.21693E+04-1.50667E+04 7.38510E-10 1.88538E-09
 -1       299-3.46776E+05 2.87522E+04 5.56248E+04-7.59941E+04-1.56206E-09-4.11092E-10
 -1       300-3.79081E+05-2.24655E+04 8.55152E+04-1.54953E+04 8.05812E-10 1.40062E-09
 -1       301 5.15118E+04 1.35033E+05 1.04133E+05-1.12501E+05-1.22600E-09 1.67756E-09
 -1       302 1.76661E+04 1.53833E+05 5.79733E+04-1.30765E+05 2.71757E-09-2.61093E-09
 -1       303 4.59439E+03 1.42364E+05 3.72914E+04-1.12523E+05-9.51786E-10 3.76627E-09
 -1       304 1.22823E+04 1.50837E+05 4.41455E+04-1.30792E+05 2.15368E-09 5.03928E-09
 -1       305 3.39438E+04 1.38003E+05 7.04593E+04-1.12558E+05-1.07684E-09 6.00494E-09
 -1       306-3.49712E+06-4.35259E+05-2.79754E+05-1.36055E+06 1.21872E-09-3.92902E-10
 -1       307-3.59042E+06-6.38715E+05-1.78785E+05-1.36610E+06-8.02970E-10 1.35333E-09
 -1       308-3.54979E+06-5.01660E+05-6.60598E+04-1.34818E+06 1.43223E-09 5.97720E-09
 -1       309-3.52847E+06-5.56549E+05-3.67377E+04-1.38597E+06-6.27551E-10 3.44971E-09
 -1       310-3.55808E+06-5.07156E+05-1.54219E+04-1.34479E+06-3.19233E-10 2.68847E-09
 -1       311-3.51842E+06-5.50354E+05-8.24665E+03-1.39169E+06-4.23825E-10-2.27851E-09
 -1       312-3.56023E+06-5.06564E+05-4.27621E+03-1.34318E+06 2.29193E-10 6.10271E-10
 -1       313-3.51612E+06-5.51110E+05-3.50400E+03-1.39401E+06-1.77408E-09 6.13909E-10
 -1       314-3.56063E+06-5.06094E+05-4.34526E+03-1.34271E+06-2.71143E-11-2.13481E-09
 -1       315-3.51705E+06-5.51967E+05-8.51272E+03-1.39373E+06 3.65071E-09-2.69984E-09
 -1       316-3.55928E+06-5.05789E+05-1.58883E+04-1.34342E+06 1.79966E-09-2.68392E-09
 -1       317-3.52602E+06-5.60037E+05-3.80367E+04-1.38984E+06-2.91334E-09-3.77986E-09
 -1       318-3.55157E+06-4.99285E+05-6.82844E+04-1.34602E+06 1.43109E-09 6.51198E-10
 -1       319-3.58866E+06-6.46669E+05-1.85036E+05-1.37113E+06-1.68802E-09-1.51704E-09
 -1       320-3.49782E+06-4.29792E+05-2.89367E+05-1.35796E+06-1.85537E-09-8.14907E-10
 -1       321-1.75375E+05-2.71295E+04 1.04563E+05-5.60102E+03-5.18412E-10 3.51429E-09
 -1       322-1.36500E+05 3.51060E+04 6.78591E+04-2.70620E+04-2.21848E-09 4.49018E-09
 -1       323-1.59377E+05-2.97123E+03 2.71147E+04-5.48237E+03 1.27920E-09 1.28057E-09
 -1       324-1.54555E+05 3.69624E+03 1.53276E+04-2.72168E+04-1.32604E-09-5.70026E-10
 -1       325-1.57474E+05-3.37272E+02 6.88191E+03-5.43995E+03 3.09456E-10 1.80444E-09
 -1       326-1.56790E+05 3.96891E+02 3.70059E+03-2.72782E+04-1.51658E-10 5.89944E-09
 -1       327-1.57227E+05-3.78393E+01 1.83595E+03-5.42112E+03-4.87944E-10 8.24343E-10
 -1       328-1.57098E+05 6.85199E+01 1.13609E+03-2.72999E+04-1.12264E-09 9.16424E-09
 -1       329-1.57199E+05-1.20843E+01 9.11072E+02-5.41831E+03 5.93559E-10 1.11066E-09
 -1       330-1.57050E+05 1.25777E+02 1.24351E+03-2.72879E+04-9.46045E-10-3.43866E-09
 -1       331-1.57259E+05-9.73495E+01 2.03368E+03-5.43304E+03-1.85082E-10 2.30000E-09
 -1       332-1.56395E+05 1.03847E+03 4.36652E+03-2.72389E+04 1.37106E-09 7.25822E-09
 -1       333-1.57788E+05-8.50426E+02 7.64948E+03-5.46733E+03-3.38787E-10 4.62251E-09
 -1       334-1.51250E+05 9.85992E+03 1.91187E+04-2.70960E+04 8.13998E-10-4.78667E-09
 -1       335-1.62286E+05-7.67402E+03 2.94130E+04-5.57725E+03-1.00044E-09-3.92356E-09
 -1       336 2.81946E+03-1.42900E+06-1.54265E+04-6.06038E+04 4.19504E-09-1.57888E-09
 -1       337-3.96822E+03-1.43596E+06-1.64665E+04-3.17717E+05 6.97037E-09-2.85036E-09
 -1       338 2.72337E+03-1.42995E+06-1.96293E+04-5.91826E+04 7.03722E-09-1.94177E-09
 -1       339-1.98790E+04-1.44594E+06-4.37851E+04-3.18255E+05 8.01117E-09 5.04224E-09
 -1       340 1.69508E+04-1.41995E+06-6.61641E+04-6.00663E+04 6.50107E-09 1.98270E-10
 -1       341-1.95811E+06-2.58339E+05-8.22910E+04-7.48305E+05-2.47201E-09 5.50426E-09
 -1       342-1.98393E+06-3.19967E+05-5.26180E+04-7.52068E+05-1.12459E-09 1.77079E-09
 -1       343-1.97314E+06-2.78340E+05-1.94373E+04-7.45193E+05-5.03945E-10 2.88128E-09
 -1       344-1.96643E+06-2.95008E+05-1.08644E+04-7.56887E+05 4.34738E-10 9.21091E-10
 -1       345-1.97520E+06-2.80342E+05-4.60072E+03-7.44602E+05-6.13909E-10 3.58091E-09
 -1       346-1.96398E+06-2.92610E+05-2.59158E+03-7.57808E+05-8.75161E-10 3.37195E-09
 -1       347-1.97558E+06-2.80432E+05-1.57314E+03-7.44399E+05 6.07884E-10 2.33746E-09
 -1       348-1.96365E+06-2.92547E+05-1.73008E+03-7.58043E+05 1.07794E-09-6.63135E-10
 -1       349-1.97554E+06-2.80374E+05-2.66745E+03-7.44384E+05-9.74680E-10-2.69495E-09
 -1       350-1.96435E+06-2.93159E+05-5.65572E+03-7.57842E+05-8.25395E-10-1.95087E-09
 -1       351-1.97488E+06-2.79878E+05-1.07346E+04-7.44578E+05-7.19439E-10 3.16459E-09
 -1       352-1.96958E+06-2.99603E+05-2.58310E+04-7.56487E+05-4.83737E-11 4.28372E-10
 -1       353-1.97041E+06-2.74625E+05-4.63418E+04-7.45476E+05-8.04903E-10-3.74894E-09
 -1       354-2.01034E+06-3.60319E+05-1.25637E+05-7.46303E+05-1.14960E-09 2.63753E-10
 -1       355-1.93515E+06-2.26157E+05-1.96376E+05-7.52147E+05-2.81943E-09 1.11322E-09
 -1       356 5.41028E+04-1.28513E+04 4.94718E+04-4.63318E+03 1.19144E-10 3.59250E-09
 -1       357 7.25187E+04 1.66048E+04 3.21082E+04-2.29721E+04-9.66565E-10-2.39015E-09
 -1       358 6.16795E+04-1.40993E+03 1.28068E+04-4.59496E+03 3.82897E-10 1.08867E-09
 -1       359 6.39534E+04 1.74549E+03 7.20118E+03-2.30010E+04 9.08130E-10-4.43299E-09
 -1       360 6.25807E+04-1.59305E+02 3.14881E+03-4.60193E+03-1.49930E-09 2.38265E-09
 -1       361 6.28781E+04 1.83747E+02 1.52773E+03-2.29899E+04-5.28814E-10 2.03272E-09
 -1       362 6.27053E+04-1.22276E+01 4.29507E+02-4.60606E+03-8.28209E-11-8.70841E-10
 -1       363 6.26837E+04-8.79681E+00-3.74136E+02-2.29861E+04 1.64903E-10-1.23725E-09
 -1       364 6.27605E+04 3.32717E+01-1.33600E+03-4.60575E+03 6.43468E-11 3.19346E-09
 -1       365 6.24120E+04-3.44527E+02-3.15725E+03-2.29926E+04 6.03791E-10 8.33296E-09
 -1       366 6.29973E+04 2.87361E+02-6.10169E+03-4.59967E+03-4.42697E-10 3.17641E-09
 -1       367 6.05059E+04-3.34379E+03-1.36986E+04-2.30041E+04-4.49290E-10 1.04228E-09
 -1       368 6.47232E+04 2.61595E+03-2.43135E+04-4.59425E+03 2.77396E-10-3.01588E-09
 -1       369 4.44910E+04-3.15555E+04-6.08175E+04-2.29609E+04-3.86990E-09-4.45107E-09
 -1       370 7.91190E+04 2.42277E+04-9.37248E+04-4.63776E+03 1.64027E-09-1.77170E-09
 -1       371-4.38062E+03-2.98975E+05 1.51230E+04-4.47476E+04 2.44654E-10 2.24645E-09
 -1       372 5.73805E+03-2.94096E+05 6.90432E+03-2.24746E+05 3.03032E-09 4.91764E-09
 -1       373 6.17481E+02-2.96014E+05-3.09814E+03-4.44095E+04 1.17666E-09 6.69843E-10
 -1       374-8.00999E+03-3.02049E+05-1.63814E+04-2.24782E+05 2.41130E-09 3.62343E-09
 -1       375 7.37918E+03-2.91123E+05-2.83130E+04-4.47120E+04 1.55887E-09 1.38789E-09
 -1       376-9.81917E+05-1.27179E+05-5.66378E+04-3.78910E+05 1.14233E-09 4.33647E-09
 -1       377-9.94115E+05-1.75165E+05-3.62131E+04-3.87934E+05-9.02105E-11 8.44011E-10
 -1       378-9.92169E+05-1.41027E+05-1.33868E+04-3.76893E+05-2.85581E-10-1.94177E-09
 -1       379-9.82294E+05-1.57798E+05-7.48719E+03-3.91029E+05 8.68624E-10-6.01869E-09
 -1       380-9.93489E+05-1.42501E+05-3.17991E+03-3.76602E+05-3.41061E-11 3.17198E-09
 -1       381-9.80792E+05-1.55969E+05-1.81015E+03-3.91454E+05 6.59838E-10 1.15247E-09
 -1       382-9.93664E+05-1.42646E+05-1.13292E+03-3.76557E+05-7.34559E-11-2.87298E-09
 -1       383-9.80699E+05-1.55793E+05-1.29999E+03-3.91445E+05 5.78495E-10 3.78293E-09
 -1       384-9.93576E+05-1.42665E+05-2.05631E+03-3.76613E+05 1.28580E-10 3.33534E-09
 -1       385-9.81317E+05-1.56186E+05-4.38495E+03-3.91172E+05 5.74119E-11 1.59514E-09
 -1       386-9.93020E+05-1.42314E+05-8.34352E+03-3.76792E+05-2.64436E-10 4.88262E-09
 -1       387-9.85373E+05-1.61161E+05-2.00604E+04-3.90070E+05-1.97088E-09-3.68527E-09
 -1       388-9.89544E+05-1.38249E+05-3.60065E+04-3.77482E+05 1.25328E-09-2.92493E-09
 -1       389-1.01694E+06-2.08273E+05-9.75266E+04-3.82156E+05 1.53477E-09-5.38421E-09
 -1       390-9.62169E+05-1.00654E+05-1.52482E+05-3.82621E+05-1.00590E-09 7.85803E-10
 -1       406 1.30528E+04 1.33888E+06 2.90159E+04-8.08662E+04 2.54659E-10 1.72804E-09
 -1       407 4.81100E+03 1.34416E+06 2.09733E+04-9.30133E+04 2.59843E-09 3.50701E-09
 -1       408 2.38216E+03 1.34021E+06 2.21827E+04-8.04995E+04 1.07320E-10-1.43700E-09
 -1       409 1.22283E+04 1.34804E+06 3.97755E+04-9.35282E+04 2.71757E-09-1.16415E-10
 -1       410 3.71126E+04 1.33452E+06 7.48056E+04-8.02647E+04-4.62023E-10 2.72848E-09
 -1       466 1.39107E+06-3.51246E+04 1.33525E+05-1.65178E+04-4.54747E-10 1.24419E-09
 -1       467 1.44170E+06 4.45850E+04 8.68887E+04-9.05227E+04 4.87489E-10-7.49424E-10
 -1       468 1.41147E+06-3.96995E+03 3.46560E+04-1.76440E+04-3.81988E-11-3.72893E-10
 -1       469 1.41778E+06 4.71548E+03 1.97248E+04-8.85462E+04-4.32919E-10 2.72848E-09
 -1       470 1.41383E+06-4.50702E+02 8.93722E+03-1.84778E+04 6.25732E-10-1.09048E-09
 -1       471 1.41450E+06 6.70239E+02 5.04125E+03-8.73358E+04 4.15639E-10-1.68711E-09
 -1       472 1.41411E+06-8.73739E+00 2.92105E+03-1.88552E+04 2.52157E-10-1.82763E-09
 -1       473 1.41408E+06 3.32806E+02 2.62340E+03-8.70369E+04 9.36723E-10 2.62662E-09
 -1       474 1.41410E+06-3.80180E+01 3.40737E+03-1.87768E+04-3.47882E-10 1.77579E-10
 -1       475 1.41476E+06 7.64951E+02 6.35436E+03-8.76555E+04 4.59295E-10-1.27588E-09
 -1       476 1.41374E+06-6.25200E+02 1.14987E+04-1.82364E+04 6.97582E-10-2.58206E-09
 -1       477 1.41902E+06 6.02488E+03 2.55666E+04-8.91835E+04 2.65572E-10-2.17779E-09
 -1       478 1.41066E+06-5.17739E+03 4.49764E+04-1.72474E+04-1.76442E-10-2.18097E-09
 -1       479 1.44996E+06 5.78374E+04 1.12815E+05-9.14838E+04-2.90765E-09-1.09503E-09
 -1       480 1.38417E+06-4.55805E+04 1.73432E+05-1.59624E+04-1.75896E-09 3.19415E-09
 -1       481-9.28163E+03 3.33872E+05 3.64348E+04-8.58451E+03-1.09139E-10 2.61912E-09
 -1       482 1.26659E+04 3.47334E+05 2.48176E+04-3.91270E+04-1.30967E-10 5.29712E-09
 -1       483-1.32002E+03 3.39178E+05 1.20951E+04-8.52087E+03-8.66294E-11 3.52247E-09
 -1       484 5.27828E+03 3.43298E+05 1.24171E+04-3.92340E+04 2.55795E-10 6.24823E-10
 -1       485-3.12445E+03 3.38103E+05 1.32327E+04-8.48226E+03 1.40517E-10-1.07138E-09
 -1       486-1.40334E+06-1.69655E+05-1.36779E+05-5.50122E+05-3.03771E-10-1.60071E-10
 -1       487-1.44488E+06-2.73227E+05-8.74083E+04-5.57731E+05 1.38471E-09 7.09042E-09
 -1       488-1.42839E+06-2.02797E+05-3.23182E+04-5.44932E+05 3.30829E-10 2.91220E-09
 -1       489-1.41583E+06-2.31857E+05-1.79810E+04-5.65932E+05-6.02768E-10 9.69521E-10
 -1       490-1.43189E+06-2.06038E+05-7.53807E+03-5.43900E+05-3.67891E-10 1.00090E-09
 -1       491-1.41169E+06-2.28011E+05-4.00984E+03-5.67718E+05-6.84395E-11 2.93039E-09
 -1       492-1.43264E+06-2.06063E+05-2.03150E+03-5.43450E+05 3.38787E-10 5.63773E-10
 -1       493-1.41085E+06-2.28071E+05-1.56531E+03-5.68470E+05-3.43221E-10 3.65816E-10
 -1       494-1.43284E+06-2.05868E+05-1.82127E+03-5.43245E+05-4.35989E-10-3.59819E-10
 -1       495-1.41102E+06-2.28625E+05-3.45639E+03-5.68651E+05 1.88152E-10-2.36861E-09
 -1       496-1.43251E+06-2.05512E+05-6.38571E+03-5.43285E+05 3.02066E-10-8.24002E-10
 -1       497-1.41406E+06-2.32436E+05-1.52561E+04-5.67852E+05-4.88285E-11 7.27596E-11
 -1       498-1.42983E+06-2.02485E+05-2.73464E+04-5.43867E+05 5.86624E-11 1.43882E-09
 -1       499-1.43822E+06-2.67989E+05-7.40577E+04-5.61528E+05 4.66002E-10 9.14042E-10
 -1       500-1.40886E+06-1.74153E+05-1.15821E+05-5.47993E+05 5.74801E-10 3.51429E-09
 -1       501 2.74842E+05-1.91847E+04 7.05108E+04-1.88473E+04 2.72485E-09 3.29601E-09
 -1       502 3.03030E+05 2.33162E+04 4.61454E+04-9.50396E+04 8.18545E-10 3.07318E-09
 -1       503 2.85550E+05-2.37125E+03 1.82283E+04-1.89297E+04-1.27329E-11 1.20326E-09
 -1       504 2.89482E+05 2.42618E+03 1.04931E+04-9.47262E+04-4.20187E-10 1.99793E-09
 -1       505 2.86713E+05-3.26100E+02 4.67687E+03-1.91548E+04 8.44011E-10 5.03860E-10
 -1       506 2.87159E+05 4.98291E+02 2.68844E+03-9.43652E+04 2.29011E-09-5.53882E-10
 -1       507 2.86801E+05 1.83281E+01 1.53473E+03-1.92913E+04 1.85037E-09 2.22826E-10
 -1       508 2.86615E+05 4.42451E+02 1.39084E+03-9.41947E+04 1.60423E-09 2.77760E-09
 -1       509 2.86773E+05 4.94932E+01 1.80269E+03-1.93244E+04 1.96667E-09-3.73348E-10
 -1       510 2.86918E+05 6.93531E+02 3.34595E+03-9.42290E+04 2.99042E-09-2.32151E-09
 -1       511 2.86594E+05-2.76244E+02 6.04646E+03-1.92571E+04 1.91994E-09-1.65801E-09
 -1       512 2.89351E+05 3.39261E+03 1.34555E+04-9.44536E+04 3.51247E-09-1.27898E-10
 -1       513 2.85017E+05-2.75311E+03 2.36163E+04-1.91001E+04 7.02130E-10-6.23913E-10
 -1       514 3.06074E+05 3.05358E+04 5.93835E+04-9.46653E+04-5.89353E-10-6.62112E-10
 -1       515 2.71144E+05-2.41850E+04 9.11201E+04-1.90538E+04-5.43878E-10 2.92493E-09
 -1       516-1.74583E+04 2.41114E+05 7.03405E+04-3.18817E+04-1.11686E-09 4.66969E-10
 -1       517 2.57490E+04 2.66749E+05 5.08746E+04-1.54925E+05-2.14823E-09 8.80937E-09
 -1       518-3.18589E+03 2.50661E+05 3.00902E+04-3.17603E+04-1.25951E-09 3.46427E-09
 -1       519 1.99961E+04 2.64871E+05 4.18425E+04-1.55034E+05-1.09685E-09 9.38599E-10
 -1       520-1.35172E+04 2.44443E+05 5.30848E+04-3.17887E+04-7.73070E-10-1.93722E-09
 -1       521-2.78919E+06-3.46062E+05-2.38264E+05-1.09003E+06 8.14907E-10-1.36788E-09
 -1       522-2.85757E+06-5.29693E+05-1.52164E+05-1.10685E+06 1.65301E-09-2.15368E-09
 -1       523-2.83412E+06-4.02399E+05-5.62988E+04-1.07947E+06 2.69665E-10-1.16052E-09
 -1       524-2.80508E+06-4.59792E+05-3.12639E+04-1.12396E+06-1.28239E-10-2.28874E-09
 -1       525-2.84116E+06-4.07041E+05-1.31296E+04-1.07664E+06 5.27507E-10 1.67984E-09
 -1       526-2.79677E+06-4.54393E+05-6.96981E+03-1.12882E+06 6.20730E-10 1.66256E-09
 -1       527-2.84293E+06-4.06574E+05-3.54009E+03-1.07536E+06 4.40195E-10 1.40631E-09
 -1       528-2.79500E+06-4.54865E+05-2.75686E+03-1.13066E+06-9.87598E-10 1.59173E-09
 -1       529-2.84321E+06-4.06274E+05-3.24776E+03-1.07505E+06 2.68207E-09 2.83762E-09
 -1       530-2.79581E+06-4.55289E+05-6.21427E+03-1.13021E+06 4.51223E-09 2.99224E-09
 -1       531-2.84206E+06-4.06251E+05-1.15512E+04-1.07574E+06 2.77578E-09-2.48292E-10
 -1       532-2.80258E+06-4.60699E+05-2.75530E+04-1.12675E+06 1.40972E-11-2.27828E-09
 -1       533-2.83616E+06-4.01902E+05-4.95201E+04-1.07794E+06 4.49518E-10 5.85715E-10
 -1       534-2.84840E+06-5.22654E+05-1.33960E+05-1.11215E+06-5.29553E-10-2.63572E-09
 -1       535-2.79674E+06-3.52191E+05-2.09698E+05-1.08708E+06-1.44428E-09-1.74623E-09
 -1       536 1.06409E+06-4.27726E+04 1.64895E+05-6.49223E+03-6.53927E-10-1.39698E-09
 -1       537 1.12539E+06 5.52642E+04 1.07022E+05-3.80508E+04-1.53523E-09-3.23780E-09
 -1       538 1.08934E+06-4.70217E+03 4.27882E+04-6.93378E+03-3.40151E-10 2.91038E-11
 -1       539 1.09689E+06 5.79292E+03 2.42168E+04-3.72272E+04 9.52923E-10 2.44154E-09
 -1       540 1.09234E+06-5.43537E+02 1.09135E+04-7.29982E+03-1.60526E-10 2.05046E-09
 -1       541 1.09334E+06 6.12121E+02 5.95269E+03-3.66389E+04-2.66482E-10 6.86589E-09
 -1       542 1.09273E+06-6.65612E+01 3.10915E+03-7.52237E+03 1.92813E-10 2.06978E-09
 -1       543 1.09285E+06 1.22812E+02 2.23084E+03-3.63451E+04-1.62970E-10-2.21598E-09
 -1       544 1.09275E+06-3.68358E+01 2.28275E+03-7.59384E+03 3.27205E-11-3.94949E-09
 -1       545 1.09305E+06 3.91126E+02 3.74871E+03-3.63507E+04-2.60115E-10-2.82431E-09
 -1       546 1.09253E+06-3.08847E+02 6.57755E+03-7.51677E+03 2.96723E-10-3.57977E-09
 -1       547 1.09513E+06 3.46082E+03 1.43959E+04-3.66509E+04 3.52429E-10-8.20592E-10
 -1       548 1.09075E+06-2.77170E+03 2.53705E+04-7.29344E+03 3.28782E-10-4.78121E-09
 -1       549 1.11202E+06 3.27540E+04 6.33922E+04-3.71834E+04 5.51154E-10 5.31145E-10
 -1       550 1.07579E+06-2.53284E+04 9.76350E+04-6.98958E+03-1.37697E-09 7.20320E-10
 -1       551 2.34282E+04-3.16768E+05 4.40411E+04-5.08317E+05-3.94721E-09 8.18545E-10
 -1       552 1.06830E+04-3.09905E+05 2.68423E+04-5.90302E+05 2.25555E-10-1.97906E-09
 -1       553 5.33585E+03-3.15224E+05 2.12082E+04-5.07484E+05-4.27463E-09 1.84264E-09
 -1       554 1.26121E+04-3.09362E+05 3.12641E+04-5.90499E+05 1.16779E-09 5.89534E-09
 -1       555 2.94197E+04-3.18379E+05 5.48383E+04-5.08086E+05-4.27644E-09 2.14641E-10
 -1       556-6.27163E+05-2.20148E+05-1.28994E+04-4.00222E+05-2.01544E-09-7.27596E-11
 -1       557-6.09653E+05-2.35969E+05-6.23808E+03-4.24529E+05-7.38510E-10-8.07177E-10
 -1       558-6.28756E+05-2.14281E+05-2.69852E+03-4.02184E+05 4.36557E-11 2.50020E-09
 -1       559-6.08399E+05-2.34604E+05-1.29752E+03-4.26061E+05 1.19508E-09 3.08864E-09
 -1       560-6.29404E+05-2.13719E+05-6.31746E+02-4.02558E+05-1.69894E-09-8.76412E-09
 -1       561-6.08725E+05-2.34392E+05-3.41971E+02-4.26482E+05 7.89441E-10-2.15414E-09
 -1       562-6.29752E+05-2.13535E+05-2.63758E+02-4.02761E+05-4.47471E-10-4.41105E-10
 -1       563-6.08959E+05-2.34288E+05-3.37268E+02-4.26667E+05-6.11180E-10-6.46651E-10
 -1       564-6.29854E+05-2.13453E+05-6.08478E+02-4.02834E+05-1.73713E-10-9.27685E-10
 -1       565-6.09020E+05-2.34276E+05-1.26722E+03-4.26690E+05-3.38673E-10 1.81171E-09
 -1       566-6.29690E+05-2.13477E+05-2.60034E+03-4.02768E+05-7.87622E-10 4.16730E-09
 -1       567-6.09283E+05-2.34664E+05-5.69524E+03-4.26509E+05-1.21599E-09 2.52840E-09
 -1       568-6.29079E+05-2.14557E+05-1.17125E+04-4.02141E+05-8.80391E-10 1.14596E-09
 -1       569-6.15152E+05-2.42323E+05-2.76058E+04-4.24599E+05 1.04228E-09 1.11504E-09
 -1       570-6.26870E+05-2.37048E+05-5.66247E+04-3.92300E+05-6.43922E-10 1.04592E-09
 -1       571 7.94839E+05 4.00403E+04 8.11184E+04-1.60219E+05 2.14277E-09-1.04774E-09
 -1       572 8.09301E+05 1.25887E+04 4.08100E+04-1.85195E+05 1.03319E-09-5.02951E-10
 -1       573 8.00671E+05 1.52620E+03 1.83103E+04-1.59544E+05-4.72937E-11 1.84446E-09
 -1       574 8.01928E+05 3.68337E+02 9.31004E+03-1.85843E+05-1.45155E-09-4.66025E-09
 -1       575 8.00944E+05-1.58682E+02 4.47528E+03-1.59492E+05-2.82307E-09-6.38465E-10
 -1       576 8.01023E+05-4.88456E+01 2.30897E+03-1.85900E+05-4.07454E-10 2.45745E-09
 -1       577 8.00921E+05-5.36556E+01 1.17558E+03-1.59489E+05 6.25903E-10 8.47649E-10
 -1       578 8.00933E+05-2.39363E+01 6.96226E+02-1.85907E+05 7.47150E-10 3.64344E-09
 -1       579 8.01042E+05-8.77717E+01 5.17657E+02-1.59485E+05 7.58519E-10 4.83851E-10
 -1       580 8.01184E+05-1.51686E+02 6.34113E+02-1.85914E+05 1.36788E-09 1.78443E-09
 -1       581 8.01350E+05-2.86941E+02 1.01213E+03-1.59481E+05-1.27329E-09 2.78305E-09
 -1       582 8.01819E+05-3.04274E+02 2.02586E+03-1.85850E+05-1.41699E-09-1.61708E-09
 -1       583 8.01754E+05-2.13250E+02 3.89859E+03-1.59547E+05-9.24047E-10 3.67618E-09
 -1       584 8.04040E+05 1.99141E+03 8.72591E+03-1.85021E+05-5.79166E-09-4.32192E-09
 -1       585 8.01076E+05 7.72651E+03 1.72658E+04-1.60334E+05 1.33514E-09 1.36788E-09
 -1       586 8.79623E+03 1.55467E+05 1.57214E+04-5.73054E+05 2.40107E-10-2.67391E-09
 -1       587 5.48044E+03 1.57150E+05 1.19121E+04-6.65374E+05-6.94854E-10 1.94268E-09
 -1       588 3.90177E+03 1.54825E+05 1.30607E+04-5.72174E+05-3.49246E-10 4.32510E-09
 -1       589 1.02361E+04 1.59552E+05 2.38799E+04-6.65443E+05-3.34694E-10-6.11180E-10
 -1       590 2.41690E+04 1.52585E+05 4.48704E+04-5.72960E+05 1.77806E-10 1.39698E-09
 -1       591-4.34992E+05-1.50041E+05-5.76405E+04-2.40085E+05-1.77579E-10-6.74481E-09
 -1       592-4.32811E+05-1.45673E+05-2.81271E+04-2.61624E+05-2.80124E-10-5.82077E-11
 -1       593-4.36656E+05-1.27511E+05-1.19319E+04-2.50147E+05-9.65883E-10 6.70298E-10
 -1       594-4.26734E+05-1.37755E+05-5.82800E+03-2.63046E+05-6.15728E-10 6.90335E-09
 -1       595-4.37028E+05-1.26555E+05-2.68880E+03-2.50669E+05 1.88084E-09 7.74867E-09
 -1       596-4.26328E+05-1.37403E+05-1.37612E+03-2.63088E+05 1.56979E-09-1.24010E-09
 -1       597-4.37122E+05-1.26562E+05-7.80427E+02-2.50699E+05 4.20187E-10-3.76986E-09
 -1       598-4.26299E+05-1.37399E+05-6.81686E+02-2.63084E+05-4.42836E-09-6.12818E-09
 -1       599-4.37102E+05-1.26563E+05-9.41268E+02-2.50691E+05-2.18279E-11 7.63976E-10
 -1       600-4.26319E+05-1.37413E+05-1.80057E+03-2.63074E+05 5.08362E-09 1.04983E-08
 -1       601-4.36953E+05-1.26554E+05-3.59364E+03-2.50641E+05-3.88354E-10 8.85848E-10
 -1       602-4.26860E+05-1.37892E+05-7.83285E+03-2.63021E+05 5.76983E-09 1.20599E-08
 -1       603-4.36465E+05-1.27835E+05-1.60497E+04-2.49937E+05-5.31145E-10 1.56069E-09
 -1       604-4.34991E+05-1.48597E+05-3.78424E+04-2.61188E+05-5.25142E-09 3.96540E-09
 -1       605-4.34299E+05-1.58056E+05-7.75389E+04-2.36339E+05 1.10776E-09-4.80213E-10
 -1       606 2.00929E+05-2.26892E+04-4.55366E+04 5.03916E+04-1.49284E-08 6.58474E-10
 -1       607 1.92661E+05-7.16280E+03-2.28910E+04 5.75702E+04-2.31194E-09 6.03904E-10
 -1       608 1.97272E+05-9.03844E+02-1.02865E+04 4.99404E+04 1.06556E-08-7.59883E-10
 -1       609 1.96369E+05-9.59177E+01-5.21124E+03 5.80200E+04-7.79983E-09-2.35150E-09
 -1       610 1.96828E+05 2.22764E+02-2.50449E+03 4.98971E+04-1.64946E-08-1.60526E-10
 -1       611 1.96614E+05 2.82827E+02-1.26225E+03 5.80603E+04-2.91038E-08-5.34419E-09
 -1       612 1.96684E+05 2.60377E+02-6.06444E+02 4.98952E+04-1.17016E-08-3.88991E-09
 -1       613 1.96567E+05 3.21808E+02-2.72251E+02 5.80608E+04-2.09620E-08-3.28419E-09
 -1       614 1.96595E+05 2.81683E+02-7.04429E+01 4.98953E+04-5.58975E-09-2.64026E-09
 -1       615 1.96507E+05 3.53264E+02 1.03223E+02 5.80579E+04 1.35624E-08 7.49878E-10
 -1       616 1.96528E+05 3.07607E+02 3.18514E+02 4.98972E+04-8.92851E-09-5.50244E-09
 -1       617 1.96507E+05 4.25808E+02 7.29935E+02 5.80535E+04-1.07684E-09-6.81212E-10
 -1       618 1.96443E+05 4.81114E+02 1.46725E+03 4.98983E+04 8.13998E-10 2.16460E-10
 -1       619 1.97031E+05 1.44862E+03 3.28734E+03 5.80420E+04 4.43242E-09-3.03226E-09
 -1       620 1.95917E+05 3.61823E+03 6.54428E+03 4.98930E+04 3.70255E-09-3.92447E-09
 -1       621 8.42821E+03 7.84477E+05 1.83847E+04-1.24963E+05-5.41149E-11-1.42973E-09
 -1       622 3.47224E+03 7.87857E+05 1.43165E+04-1.45285E+05 3.39060E-09 8.98581E-10
 -1       623 2.06903E+03 7.85376E+05 1.65803E+04-1.24971E+05-2.14641E-10-1.20053E-10
 -1       624 9.91855E+03 7.91661E+05 3.10901E+04-1.44933E+05 3.37059E-09 1.89266E-09
 -1       625 2.95826E+04 7.81129E+05 5.92065E+04-1.25293E+05 7.58519E-10-1.73713E-09
 -1       626 3.22776E+05 9.49217E+04-2.05232E+04 2.01496E+05 1.29148E-09 5.89716E-09
 -1       627 3.11155E+05 1.08821E+05-1.00074E+04 2.07806E+05-4.80213E-10-8.52594E-09
 -1       628 3.22475E+05 1.02549E+05-4.25230E+03 1.97359E+05 1.96451E-09-6.91125E-09
 -1       629 3.12721E+05 1.12151E+05-2.05925E+03 2.07738E+05 3.16868E-09 2.87537E-09
 -1       630 3.22278E+05 1.02909E+05-9.29286E+02 1.97064E+05 7.76527E-09-1.80501E-09
 -1       631 3.12719E+05 1.12356E+05-4.17086E+02 2.07694E+05-3.00961E-08-9.57098E-09
 -1       632 3.22161E+05 1.02942E+05-1.26671E+02 1.97000E+05 2.50293E-09 3.57250E-09
 -1       633 3.12661E+05 1.12386E+05 8.63961E+01 2.07650E+05 4.42242E-09 1.97088E-09
 -1       634 3.22093E+05 1.02947E+05 3.39480E+02 1.96971E+05-7.40329E-10-3.46063E-10
 -1       635 3.12667E+05 1.12391E+05 8.11841E+02 2.07643E+05-1.84900E-09-3.14139E-09
 -1       636 3.22047E+05 1.02923E+05 1.69814E+03 1.96965E+05-1.69280E-10-1.30058E-10
 -1       637 3.13000E+05 1.12590E+05 3.74550E+03 2.07668E+05 6.18820E-09 1.13323E-09
 -1       638 3.21906E+05 1.03480E+05 7.67962E+03 1.96687E+05 1.16333E-08-2.86764E-09
 -1       639 3.17080E+05 1.17627E+05 1.81261E+04 2.06858E+05 1.11595E-09 2.20280E-09
 -1       640 3.21007E+05 1.17915E+05 3.71293E+04 1.90284E+05-3.05408E-09 1.15415E-09
 -1       641 1.45015E+04 2.87466E+03-1.10835E+04 2.92559E+03-1.65642E-08 7.78982E-10
 -1       642 1.03458E+04-3.62049E+03-7.18247E+03 1.42244E+04-1.48686E-08 1.94177E-10
 -1       643 1.27998E+04 3.27719E+02-2.87041E+03 2.89512E+03-2.02356E-08 2.86877E-09
 -1       644 1.22188E+04-2.80142E+02-1.60691E+03 1.42548E+04 5.04406E-09 6.56178E-09
 -1       645 1.25938E+04 5.63981E+01-7.00239E+02 2.89318E+03 3.74916E-09-2.02681E-09
 -1       646 1.24341E+04 7.95316E+01-3.28489E+02 1.42555E+04-1.56253E-08-5.77199E-09
 -1       647 1.25633E+04 2.75664E+01-7.12629E+01 2.89404E+03 1.61293E-08 9.46073E-10
 -1       648 1.24714E+04 1.28204E+02 1.35275E+02 1.42545E+04 5.11876E-08 4.16142E-09
 -1       649 1.25486E+04 1.55992E+01 3.98052E+02 2.89404E+03 1.86170E-08 2.99849E-09
 -1       650 1.25571E+04 2.20347E+02 9.16736E+02 1.42545E+04 2.45772E-08 4.23131E-09
 -1       651 1.24830E+04-6.19440E+01 1.75873E+03 2.89405E+03-5.17275E-09 3.43493E-09
 -1       652 1.31334E+04 1.07347E+03 3.94832E+03 1.42523E+04-2.49102E-08 2.43517E-10
 -1       653 1.19908E+04-7.41765E+02 6.99721E+03 2.89578E+03-3.04226E-09-6.73936E-10
 -1       654 1.77936E+04 9.18260E+03 1.75188E+04 1.42061E+04-2.74400E-08-2.75736E-09
 -1       655 7.85547E+03-6.97947E+03 2.69898E+04 2.93621E+03 1.16261E-08-2.19370E-09
 -1       656 1.89946E+04-6.57404E+05-7.65926E+04 1.97450E+04-2.32467E-08 2.87037E-09
 -1       657-2.74733E+04-6.85730E+05-5.64997E+04 9.01232E+04-2.20098E-08-7.53062E-10
 -1       658 3.80840E+03-6.67480E+05-3.54539E+04 1.94248E+04-1.56317E-08 3.86149E-09
 -1       659-2.50341E+04-6.84545E+05-5.24799E+04 9.03683E+04-2.11003E-08-3.53929E-09
 -1       660 1.70611E+04-6.58806E+05-6.90357E+04 1.95045E+04-1.72695E-08-1.39426E-09
 -1       661 6.29793E+05 7.94458E+04 5.17141E+04 2.47030E+05 1.65528E-09-9.53150E-10
 -1       662 6.44039E+05 1.20245E+05 3.30712E+04 2.51747E+05-4.54469E-09 5.18412E-10
 -1       663 6.38908E+05 9.23450E+04 1.22214E+04 2.45475E+05-1.47819E-08 6.48924E-10
 -1       664 6.33588E+05 1.04022E+05 6.82913E+03 2.54086E+05-3.50840E-08-1.06056E-08
 -1       665 6.39967E+05 9.38484E+04 2.87101E+03 2.45374E+05 3.16442E-09-1.33014E-09
 -1       666 6.32375E+05 1.02167E+05 1.57605E+03 2.54238E+05 3.65389E-10-3.57559E-09
 -1       667 6.40087E+05 9.40311E+04 8.71711E+02 2.45383E+05-2.12235E-08-6.83779E-09
 -1       668 6.32251E+05 1.01997E+05 8.23693E+02 2.54249E+05-5.30042E-08-5.86266E-09
 -1       669 6.40088E+05 9.40064E+04 1.14482E+03 2.45368E+05-7.88879E-09 1.98611E-09
 -1       670 6.32436E+05 1.02339E+05 2.34209E+03 2.54293E+05 2.60538E-08 2.04568E-09
 -1       671 6.39914E+05 9.37025E+04 4.40172E+03 2.45337E+05 3.29123E-10-2.16437E-09
 -1       672 6.34310E+05 1.05235E+05 1.05627E+04 2.54080E+05 1.66142E-09-1.03228E-09
 -1       673 6.38271E+05 9.13700E+04 1.89295E+04 2.45491E+05 2.53194E-08-3.41151E-09
 -1       674 6.50519E+05 1.30373E+05 5.12535E+04 2.50446E+05 4.18918E-08 1.11067E-08
 -1       675 6.24134E+05 7.13904E+04 8.01553E+04 2.47913E+05 1.60462E-08 6.80302E-10
 -1       676 7.26256E+03-5.83591E+05-2.95867E+04 6.56674E+03 1.98270E-08 1.10049E-09
 -1       677-1.07806E+04-5.94642E+05-2.29538E+04 2.46366E+04 1.12022E-08-1.04637E-09
 -1       678 1.75211E+03-5.87196E+05-1.62575E+04 6.45363E+03 1.73238E-08-8.54129E-10
 -1       679-1.31792E+04-5.96044E+05-2.70218E+04 2.47579E+04 1.26415E-08-6.52443E-09
 -1       680 9.32483E+03-5.82223E+05-3.71693E+04 6.44501E+03 1.80244E-08 6.40199E-10
 -1       681 5.40978E+05-7.91373E+03 3.02720E+04-5.15319E+03-9.54969E-11-1.65710E-09
 -1       682 5.52330E+05 1.01229E+04 1.96827E+04-2.73801E+04-1.38698E-10-1.18553E-09
 -1       683 5.45613E+05-8.86732E+02 7.86589E+03-5.27028E+03-1.64164E-10-1.15597E-09
 -1       684 5.47017E+05 1.05022E+03 4.48304E+03-2.71343E+04-1.05501E-10-1.12209E-09
 -1       685 5.46156E+05-1.07710E+02 2.06109E+03-5.39715E+03-1.64619E-10 4.72710E-10
 -1       686 5.46324E+05 1.16486E+02 1.21782E+03-2.69337E+04 5.13865E-11-2.49884E-10
 -1       687 5.46218E+05-1.45255E+01 8.11772E+02-5.47087E+03 3.20597E-11-1.01011E-10
 -1       688 5.46241E+05 5.42199E+01 9.09601E+02-2.68402E+04 2.66880E-11-2.46416E-10
 -1       689 5.46199E+05-2.62414E+01 1.38668E+03-5.49066E+03-1.52653E-10 1.63737E-10
 -1       690 5.46450E+05 2.97669E+02 2.73885E+03-2.68566E+04-1.76897E-10 6.41933E-10
 -1       691 5.46016E+05-2.43424E+02 5.07010E+03-5.45450E+03 9.14042E-11-4.32010E-10
 -1       692 5.48084E+05 2.72160E+03 1.12692E+04-2.69786E+04 4.02338E-10-1.39403E-09
 -1       693 5.44615E+05-2.17724E+03 1.99302E+04-5.36854E+03-3.94266E-10 3.09228E-11
 -1       694 5.61347E+05 2.57842E+04 4.98541E+04-2.71562E+04-1.89175E-10-1.16052E-09
 -1       695 5.32849E+05-1.99196E+04 7.68067E+04-5.28031E+03-5.27507E-10-1.85901E-09
 -1       696-8.17442E+03 5.57478E+05 3.11479E+04-1.13433E+04 1.16415E-10-7.64203E-10
 -1       697 1.04036E+04 5.68734E+05 1.87455E+04-5.27761E+04 1.47338E-10-1.25397E-09
 -1       698-4.78692E+02 5.62612E+05 4.70075E+03-1.13327E+04-1.93722E-10 1.17461E-09
 -1       699-3.23291E+03 5.60977E+05-4.29700E+03-5.28194E+04-3.75508E-10 2.26953E-09
 -1       700 3.39904E+03 5.65283E+05-1.18760E+04-1.13024E+04-2.42835E-10 1.64573E-09
 -1       701-4.91900E+05-5.43443E+04-6.83653E+04-1.95134E+05 2.63753E-11-4.22006E-10
 -1       702-5.13123E+05-1.05821E+05-4.37084E+04-1.98668E+05-7.16796E-11-4.80213E-10
 -1       703-5.04166E+05-7.11778E+04-1.61519E+04-1.92835E+05-1.75646E-10-1.05683E-09
 -1       704-4.99001E+05-8.47067E+04-9.00344E+03-2.02212E+05 2.63185E-10-2.15095E-10
 -1       705-5.05719E+05-7.30039E+04-3.77019E+03-1.92535E+05 1.93495E-10 4.07908E-10
 -1       706-4.97204E+05-8.24725E+04-2.02160E+03-2.02704E+05-7.62839E-11-1.21645E-10
 -1       707-5.05963E+05-7.31559E+04-1.03803E+03-1.92455E+05 4.88853E-11-1.53250E-10
 -1       708-4.96947E+05-8.23215E+04-8.35819E+02-2.02840E+05-2.37890E-10 2.01439E-11
 -1       709-5.05996E+05-7.31230E+04-1.01352E+03-1.92421E+05 4.94538E-11-2.54261E-10
 -1       710-4.97103E+05-8.25782E+04-1.95994E+03-2.02860E+05 2.63981E-10-1.92927E-10
 -1       711-5.05818E+05-7.29108E+04-3.63703E+03-1.92434E+05 1.56206E-10 3.75167E-10
 -1       712-4.98748E+05-8.48456E+04-8.69675E+03-2.02533E+05 4.88630E-10 1.33650E-09
 -1       713-5.04378E+05-7.10857E+04-1.55843E+04-1.92661E+05-5.41149E-11-7.98536E-10
 -1       714-5.12276E+05-1.05355E+05-4.21994E+04-1.99273E+05-1.89175E-10 4.58840E-10
 -1       715-4.92607E+05-5.47574E+04-6.59841E+04-1.94803E+05 6.09361E-11 6.76664E-10
 -1       716 3.80271E+05-1.64091E+04 6.25679E+04-1.22695E+04 2.71029E-10-7.93079E-10
 -1       717 4.03821E+05 2.10393E+04 4.07040E+04-6.05732E+04-6.82121E-12 1.13141E-09
 -1       718 3.89826E+05-1.81887E+03 1.62459E+04-1.23553E+04-4.96584E-10 2.18188E-09
 -1       719 3.92671E+05 2.32877E+03 9.24770E+03-6.03547E+04-6.19139E-10 2.04864E-09
 -1       720 3.90936E+05-1.80662E+02 4.21802E+03-1.24849E+04 1.44792E-09 1.80671E-09
 -1       721 3.91182E+05 4.14795E+02 2.41873E+03-6.01766E+04 2.15573E-09 1.97406E-09
 -1       722 3.91069E+05 1.37396E+01 1.48693E+03-1.25335E+04 1.99648E-09 1.89470E-09
 -1       723 3.91045E+05 2.47514E+02 1.47583E+03-6.01668E+04 1.74384E-09 1.79932E-09
 -1       724 3.91061E+05-2.21200E+01 2.07023E+03-1.24947E+04 1.33241E-09 1.89993E-09
 -1       725 3.91506E+05 5.26355E+02 3.99565E+03-6.03343E+04 1.14437E-09 8.99973E-10
 -1       726 3.90829E+05-3.92538E+02 7.29267E+03-1.23661E+04 8.28550E-10 1.02636E-09
 -1       727 3.94167E+05 3.90229E+03 1.62652E+04-6.06709E+04 1.20463E-09-1.33423E-09
 -1       728 3.88860E+05-3.27316E+03 2.86425E+04-1.21577E+04-6.02995E-10-2.18279E-09
 -1       729 4.13739E+05 3.69855E+04 7.18644E+04-6.10270E+04-1.05001E-09-2.46291E-09
 -1       730 3.71972E+05-2.89851E+04 1.10516E+05-1.20210E+04-5.45697E-12-2.27010E-09
 -1       731-1.18956E+04 2.00217E+05 4.60371E+04-2.40516E+04-3.78350E-10-1.24601E-09
 -1       732 1.58945E+04 2.17036E+05 3.00507E+04-1.18434E+05-6.33463E-10 3.97449E-10
 -1       733-1.26895E+03 2.07213E+05 1.22641E+04-2.39870E+04-4.25644E-10 2.19507E-09
 -1       734 2.59893E+03 2.09618E+05 7.65992E+03-1.18449E+05-6.48583E-10 2.11708E-09
 -1       735-7.09219E+02 2.07823E+05 4.18556E+03-2.40383E+04-6.24368E-10 1.49703E-09
 -1       736-1.28182E+06-1.57232E+05-1.02858E+05-4.95846E+05 5.27507E-11-1.65892E-09
 -1       737-1.31612E+06-2.32331E+05-6.57670E+04-4.98425E+05-9.65088E-10-2.67937E-09
 -1       738-1.30042E+06-1.82425E+05-2.42873E+04-4.92196E+05-2.20652E-10 7.66704E-10
 -1       739-1.29459E+06-2.00814E+05-1.35385E+04-5.04071E+05 2.73303E-10 1.91085E-09
 -1       740-1.30288E+06-1.85055E+05-5.65826E+03-4.91606E+05 1.64391E-10-5.43423E-10
 -1       741-1.29169E+06-1.97634E+05-3.02423E+03-5.05022E+05 1.22782E-11-3.04283E-10
 -1       742-1.30331E+06-1.85221E+05-1.52784E+03-4.91409E+05-1.00158E-10 1.79966E-10
 -1       743-1.29121E+06-1.97481E+05-1.18868E+03-5.05314E+05-6.65182E-10 1.43393E-09
 -1       744-1.30337E+06-1.85164E+05-1.38802E+03-4.91343E+05 9.05573E-10 1.70240E-09
 -1       745-1.29143E+06-1.97799E+05-2.64092E+03-5.05310E+05 1.49738E-09 5.86397E-10
 -1       746-1.30310E+06-1.84923E+05-4.88099E+03-4.91407E+05 1.48114E-09 6.98265E-10
 -1       747-1.29377E+06-2.00701E+05-1.16608E+04-5.04698E+05-4.22006E-10 1.11163E-09
 -1       748-1.30106E+06-1.82580E+05-2.08955E+04-4.91828E+05 1.16574E-09 1.80626E-09
 -1       749-1.31218E+06-2.27963E+05-5.65964E+04-5.00010E+05-1.04410E-09-3.41061E-10
 -1       750-1.28513E+06-1.60836E+05-8.85019E+04-4.94896E+05-2.03727E-10-5.16593E-10
 -1       751 2.09736E+06-7.00196E+04 2.70595E+05-5.99356E+03-1.21599E-09-3.04135E-09
 -1       752 2.19772E+06 9.06308E+04 1.75551E+05-4.31290E+04-3.66344E-09-1.51704E-09
 -1       753 2.13880E+06-7.67314E+03 7.02543E+04-7.06101E+03-4.24734E-10-3.12866E-10
 -1       754 2.15109E+06 9.51309E+03 3.97724E+04-4.12327E+04 7.89441E-10 1.92540E-09
 -1       755 2.14375E+06-8.79741E+02 1.79870E+04-7.85962E+03-4.85670E-10 1.14960E-09
 -1       756 2.14534E+06 1.00263E+03 9.89926E+03-3.99576E+04-9.93623E-11 1.22236E-09
 -1       757 2.14438E+06-1.11933E+02 5.35475E+03-8.33650E+03-3.93129E-10 1.43291E-09
 -1       758 2.14460E+06 2.10302E+02 4.17374E+03-3.93233E+04 1.82467E-10 1.79125E-09
 -1       759 2.14440E+06-8.53200E+01 4.73570E+03-8.49427E+03 6.83187E-11 7.63066E-10
 -1       760 2.14510E+06 8.50191E+02 8.24331E+03-3.93204E+04-4.87660E-10 3.07625E-09
 -1       761 2.14388E+06-6.91439E+02 1.47363E+04-8.33926E+03 3.34239E-11-1.31922E-09
 -1       762 2.14971E+06 7.79284E+03 3.23986E+04-3.99436E+04 5.43878E-10 1.64300E-09
 -1       763 2.13985E+06-6.20556E+03 5.71896E+04-7.87065E+03 1.43700E-10 2.15732E-09
 -1       764 2.18757E+06 7.38021E+04 1.42816E+05-4.11481E+04 1.34060E-09-3.76167E-09
 -1       765 2.10612E+06-5.69153E+04 2.20120E+05-7.14844E+03-2.36832E-09-5.09317E-10
 -1       766-3.24862E+04 5.21141E+05 1.28975E+05-5.49475E+03 3.23053E-09-2.39925E-09
 -1       767 4.51217E+04 5.69678E+05 9.32328E+04-2.33171E+04 2.93494E-09-2.54204E-10
 -1       768-6.11312E+03 5.38534E+05 5.52061E+04-5.33262E+03 2.76168E-09 1.41790E-09
 -1       769 3.52033E+04 5.64163E+05 7.65344E+04-2.36392E+04 2.05910E-09 9.29049E-10
 -1       770-2.41594E+04 5.26812E+05 9.77372E+04-5.18602E+03 8.22183E-10 7.93079E-10
 -1       771-1.65880E+06-3.42514E+05-1.12180E+05-6.86668E+05-9.54287E-10 2.24827E-09
 -1       772-1.66505E+06-3.23343E+05-5.47324E+04-7.16240E+05-1.29330E-09-2.20098E-10
 -1       773-1.66187E+06-2.98833E+05-2.32254E+04-7.06323E+05 8.73115E-11-7.47241E-09
 -1       774-1.65325E+06-3.07923E+05-1.13298E+04-7.18988E+05-7.65795E-10-5.23869E-10
 -1       775-1.66264E+06-2.96927E+05-5.22109E+03-7.07338E+05 5.09317E-10 6.98492E-10
 -1       776-1.65250E+06-3.07248E+05-2.62778E+03-7.19178E+05 2.12822E-10-2.39879E-09
 -1       777-1.66296E+06-2.96868E+05-1.41740E+03-7.07439E+05 8.73115E-10-1.41995E-09
 -1       778-1.65255E+06-3.07214E+05-1.07995E+03-7.19320E+05-2.42835E-10-7.25322E-10
 -1       779-1.66313E+06-2.96778E+05-1.32425E+03-7.07508E+05-6.09361E-10-7.47946E-10
 -1       780-1.65273E+06-3.07187E+05-2.39611E+03-7.19478E+05-3.13776E-10-2.62833E-09
 -1       781-1.66313E+06-2.96652E+05-4.71572E+03-7.07541E+05-4.27463E-10-4.41105E-10
 -1       782-1.65361E+06-3.07774E+05-1.02545E+04-7.19621E+05-5.49335E-10 1.37743E-09
 -1       783-1.66274E+06-2.98177E+05-2.09903E+04-7.06712E+05 1.57343E-10 9.78616E-10
 -1       784-1.66418E+06-3.22047E+05-4.95440E+04-7.17787E+05-2.97860E-10 4.64752E-10
 -1       785-1.66040E+06-3.37399E+05-1.01501E+05-6.88766E+05 8.54925E-11-6.83940E-10
 -1       786 1.14594E+06-3.39438E+04 1.31171E+05-3.65266E+03 8.19909E-10-2.10275E-09
 -1       787 1.19449E+06 4.40111E+04 8.51114E+04-2.21407E+04-1.04228E-09-1.74805E-09
 -1       788 1.16605E+06-3.70185E+03 3.40528E+04-3.88865E+03-4.59295E-11-1.76078E-09
 -1       789 1.17194E+06 4.62910E+03 1.92606E+04-2.17166E+04-3.68345E-10 1.09685E-09
 -1       790 1.16845E+06-4.17849E+02 8.69721E+03-4.06909E+03 7.54881E-10 2.56023E-09
 -1       791 1.16919E+06 4.79861E+02 4.74976E+03-2.14507E+04 7.01959E-10 5.62136E-09
 -1       792 1.16876E+06-5.36299E+01 2.50935E+03-4.15446E+03 4.03645E-10 3.69687E-09
 -1       793 1.16885E+06 7.64828E+01 1.84510E+03-2.13750E+04 8.01862E-10-3.71142E-09
 -1       794 1.16878E+06-3.97898E+01 1.95351E+03-4.14482E+03-8.97330E-10-2.41077E-09
 -1       795 1.16905E+06 3.12629E+02 3.27590E+03-2.14907E+04 7.62270E-10 2.85263E-09
 -1       796 1.16858E+06-2.79011E+02 5.78632E+03-4.03878E+03-1.14346E-09-3.56749E-09
 -1       797 1.17087E+06 3.02851E+03 1.26889E+04-2.17951E+04-5.08862E-10-3.38059E-09
 -1       798 1.16701E+06-2.44078E+03 2.23778E+04-3.84049E+03-4.77485E-10-3.14685E-09
 -1       799 1.18570E+06 2.88832E+04 5.59067E+04-2.22511E+04-4.22915E-09-1.82081E-09
 -1       800 1.15380E+06-2.23134E+04 8.61246E+04-3.58825E+03-1.08230E-10-1.53523E-09
 -1       801-2.13130E+04 5.58345E+05 8.19466E+04-1.39362E+05-9.82254E-11 1.18234E-09
 -1       802 3.78633E+04 5.86536E+05 6.90380E+04-6.82738E+05 7.17228E-09 2.39743E-09
 -1       803-4.15423E+03 5.66467E+05 5.47712E+04-1.39387E+05 2.35377E-09 4.98585E-09
 -1       804 5.53534E+04 5.98770E+05 9.97202E+04-6.82875E+05 3.87081E-09-3.27782E-09
 -1       805-3.76911E+04 5.48424E+05 1.38646E+05-1.39244E+05 2.73576E-09 1.86265E-09
 -1       806-8.96712E+05-2.18241E+05-8.02938E+04-4.01483E+05 7.21229E-10-9.50968E-09
 -1       807-8.98557E+05-2.07276E+05-3.91897E+04-4.25827E+05 1.94086E-09 4.14639E-09
 -1       808-8.98777E+05-1.87057E+05-1.66138E+04-4.15613E+05-1.35515E-09 3.30874E-09
 -1       809-8.90142E+05-1.96117E+05-8.11508E+03-4.27549E+05-6.33463E-10-1.44311E-09
 -1       810-8.99206E+05-1.85780E+05-3.73393E+03-4.16307E+05-9.73159E-11 1.96405E-09
 -1       811-8.89520E+05-1.95641E+05-1.89835E+03-4.27545E+05 3.60887E-09 5.91854E-09
 -1       812-8.99297E+05-1.85816E+05-1.04719E+03-4.16323E+05-1.73145E-09-6.17820E-09
 -1       813-8.89452E+05-1.95647E+05-8.63933E+02-4.27515E+05-1.01295E-09 2.77396E-09
 -1       814-8.99264E+05-1.85830E+05-1.13314E+03-4.16308E+05 1.84309E-09 1.14596E-10
 -1       815-8.89478E+05-1.95660E+05-2.12353E+03-4.27497E+05-2.16914E-09-5.65797E-09
 -1       816-8.99098E+05-1.85818E+05-4.21426E+03-4.16258E+05-7.54881E-10 7.85803E-10
 -1       817-8.90137E+05-1.96210E+05-9.17453E+03-4.27448E+05 1.76897E-09 9.05857E-10
 -1       818-8.98560E+05-1.87299E+05-1.87922E+04-4.15453E+05 4.27644E-09-2.04818E-09
 -1       819-8.99658E+05-2.08783E+05-4.43176E+04-4.25397E+05 1.18325E-09 4.83124E-09
 -1       820-8.96150E+05-2.22599E+05-9.08020E+04-3.99489E+05 3.23780E-09-6.36646E-10
 -1       821-7.47826E+05 2.32965E+04-9.00852E+04 2.58791E+03-8.67658E-09-1.05501E-09
 -1       822-7.81045E+05-3.02481E+04-5.84520E+04 1.80401E+04-4.70641E-09-6.61203E-10
 -1       823-7.61642E+05 2.51852E+03-2.33926E+04 2.27287E+03 7.79210E-09-1.77261E-09
 -1       824-7.65666E+05-3.11902E+03-1.32171E+04 1.85538E+04-2.66482E-09-4.97039E-09
 -1       825-7.63296E+05 2.83393E+02-5.98768E+03 2.06908E+03-1.54096E-08-2.37014E-09
 -1       826-7.63866E+05-2.28767E+02-3.28242E+03 1.88964E+04-2.75556E-08-3.37064E-09
 -1       827-7.63517E+05 4.92268E+01-1.78172E+03 1.92879E+03-1.50544E-08-3.23098E-09
 -1       828-7.63688E+05 6.42515E+01-1.38661E+03 1.91151E+04-1.88902E-08-2.30955E-09
 -1       829-7.63526E+05 5.10787E+01-1.58025E+03 1.84969E+03-3.37855E-09-3.09235E-09
 -1       830-7.63875E+05-1.43910E+02-2.75824E+03 1.92086E+04 7.75708E-09-6.87800E-09
 -1       831-7.63353E+05 2.53687E+02-4.93895E+03 1.83493E+03-9.97349E-09-5.07725E-09
 -1       832-7.65398E+05-2.49742E+03-1.08723E+04 1.91754E+04-7.41198E-09-3.97483E-09
 -1       833-7.62000E+05 2.09893E+03-1.92048E+04 1.88397E+03-3.70733E-09-4.72755E-09
 -1       834-7.78068E+05-2.47633E+04-4.80092E+04 1.90046E+04-1.91585E-09-5.65979E-09
 -1       835-7.50658E+05 1.91712E+04-7.39653E+04 2.01498E+03 8.18090E-09-5.27143E-09
 -1       836-4.18782E+04 1.94564E+06 1.68724E+05-5.72124E+04-6.14818E-09-3.73439E-09
 -1       837 6.19839E+04 2.00870E+06 1.30144E+05-2.63181E+05 1.18598E-09-2.65482E-09
 -1       838-9.51395E+03 1.96626E+06 9.05751E+04-5.80226E+04-1.06274E-08 3.49439E-09
 -1       839 7.26724E+04 2.01453E+06 1.48097E+05-2.62927E+05 2.64845E-09-4.54020E-09
 -1       840-5.07679E+04 1.93952E+06 2.02361E+05-5.74606E+04-8.14907E-09 3.79441E-09
 -1       841-2.71502E+05-2.41868E+04-4.67596E+04-1.03935E+05 2.39925E-09 3.60706E-09
 -1       842-3.03445E+05-4.18347E+04-2.98727E+04-8.64064E+04 5.25324E-09 1.40562E-09
 -1       843-2.79662E+05-3.59094E+04-1.10490E+04-1.02636E+05 1.07293E-08-3.37877E-10
 -1       844-2.94203E+05-2.70335E+04-6.14140E+03-8.84468E+04 4.49290E-09 7.56017E-11
 -1       845-2.80598E+05-3.72741E+04-2.55869E+03-1.02582E+05 4.07135E-09 3.41363E-09
 -1       846-2.93219E+05-2.52859E+04-1.32953E+03-8.85629E+04-1.21040E-08-8.73487E-09
 -1       847-2.80687E+05-3.74572E+04-6.05360E+02-1.02626E+05-3.06954E-11-6.75868E-10
 -1       848-2.93172E+05-2.50343E+04-3.38353E+02-8.85235E+04 8.27208E-09-5.80454E-09
 -1       849-2.80683E+05-3.74889E+04-2.27897E+02-1.02654E+05 6.74163E-11-4.30721E-09
 -1       850-2.93206E+05-2.50202E+04-2.82980E+02-8.85035E+04-4.53220E-09-2.05770E-09
 -1       851-2.80666E+05-3.74653E+04-4.51202E+02-1.02655E+05 1.55751E-11 5.31543E-10
 -1       852-2.93354E+05-2.53143E+04-1.03012E+03-8.84892E+04-8.92101E-09-7.53451E-09
 -1       853-2.80525E+05-3.72301E+04-1.83647E+03-1.02648E+05 2.72530E-09-3.80106E-09
 -1       854-2.94795E+05-2.78318E+04-4.94638E+03-8.82100E+04 1.28289E-08-1.72884E-09
 -1       855-2.79225E+05-3.52477E+04-7.75027E+03-1.02802E+05 2.73913E-08 4.15116E-09
 -1       856-6.29868E+05 1.62212E+04-6.28074E+04 3.89750E+03-1.81781E-08-3.84534E-09
 -1       857-6.53052E+05-2.09428E+04-4.07296E+04 2.74082E+04-1.75849E-08-8.67203E-09
 -1       858-6.39504E+05 1.76756E+03-1.63087E+04 3.59266E+03-1.43791E-08-9.54788E-09
 -1       859-6.42414E+05-2.01016E+03-9.20382E+03 2.78812E+04 4.36557E-10-8.54607E-09
 -1       860-6.40664E+05 2.24551E+02-4.16289E+03 3.41619E+03 5.01132E-09-6.82303E-09
 -1       861-6.41203E+05 2.16631E+01-2.26414E+03 2.81496E+04-1.80994E-08-5.20140E-09
 -1       862-6.40821E+05 6.72042E+01-1.19498E+03 3.32195E+03 1.80902E-08-5.78120E-09
 -1       863-6.41082E+05 2.33041E+02-8.73177E+02 2.82615E+04 4.34211E-08-1.20583E-08
 -1       864-6.40831E+05 6.29890E+01-9.20645E+02 3.30347E+03 2.58715E-08-8.33876E-09
 -1       865-6.41155E+05 1.13566E+02-1.54022E+03 2.82212E+04 3.25670E-08-8.04435E-09
 -1       866-6.40732E+05 1.63718E+02-2.72800E+03 3.36252E+03-4.17094E-09-8.98297E-09
 -1       867-6.41928E+05-1.20232E+03-5.97108E+03 2.80263E+04-1.09321E-09-6.05007E-09
 -1       868-6.39981E+05 1.15746E+03-1.05577E+04 3.49993E+03 1.74909E-08-7.33917E-09
 -1       869-6.48780E+05-1.34567E+04-2.63459E+04 2.76292E+04-5.38648E-10-5.68434E-09
 -1       870-6.33747E+05 1.04962E+04-4.06323E+04 3.76620E+03 1.90103E-08-7.52880E-09
 -1       871-5.00793E+03-3.28562E+04-7.70442E+03 1.37994E+05 4.49563E-09-1.45064E-09
 -1       872-2.02442E+03-3.41415E+04-2.09546E+03 1.60155E+05 8.03448E-09-8.43556E-10
 -1       873-4.07991E+02-3.37882E+04 2.60461E+03 1.37758E+05 6.82121E-09-8.64020E-12
 -1       874 2.41673E+03-3.17483E+04 9.23038E+03 1.60259E+05 1.23255E-08 5.65933E-10
 -1       875 9.43042E+03-3.53949E+04 1.98683E+04 1.37940E+05 3.58250E-09 2.12822E-10
 -1       876 7.00960E+05 8.67592E+04 6.65497E+04 2.76786E+05 5.89262E-09-1.05501E-09
 -1       877 7.16642E+05 1.42046E+05 4.25732E+04 2.86003E+05-5.01427E-09 5.80803E-09
 -1       878 7.12618E+05 1.03450E+05 1.57194E+04 2.74861E+05-2.00473E-08 4.50746E-09
 -1       879 7.03286E+05 1.21028E+05 8.78642E+03 2.88824E+05-2.92722E-08-6.06269E-09
 -1       880 7.13909E+05 1.05463E+05 3.67630E+03 2.74804E+05 5.02268E-09 3.18710E-09
 -1       881 7.01814E+05 1.18524E+05 1.99682E+03 2.88862E+05-2.80670E-09-1.52750E-09
 -1       882 7.14009E+05 1.05761E+05 1.05343E+03 2.74874E+05-2.06757E-08-5.38182E-09
 -1       883 7.01718E+05 1.18203E+05 9.10608E+02 2.88756E+05-4.45359E-08-2.53675E-09
 -1       884 7.13978E+05 1.05783E+05 1.17575E+03 2.74900E+05-1.00060E-08 2.65061E-10
 -1       885 7.01937E+05 1.18487E+05 2.33495E+03 2.88740E+05 1.10955E-08-1.46628E-09
 -1       886 7.13794E+05 1.05496E+05 4.35854E+03 2.74884E+05-2.41852E-09-4.48404E-09
 -1       887 7.03796E+05 1.21342E+05 1.04378E+04 2.88529E+05-1.63626E-08-2.57137E-09
 -1       888 7.12182E+05 1.03180E+05 1.86973E+04 2.75026E+05 2.24318E-08 2.73758E-10
 -1       889 7.19790E+05 1.46198E+05 5.06224E+04 2.84991E+05 4.53383E-08 1.28457E-08
 -1       890 6.98245E+05 8.34148E+04 7.91575E+04 2.77391E+05 1.53022E-08 7.15227E-09
 -1       891 2.57271E+03-3.08585E+05-1.14611E+04 2.44540E+04 7.84712E-09-8.27640E-11
 -1       892-4.77358E+03-3.12421E+05-9.42854E+03 1.18305E+05 1.64414E-09-2.36469E-11
 -1       893 7.32212E+02-3.09863E+05-7.60467E+03 2.42988E+04 1.22968E-08 2.60593E-09
 -1       894-7.45870E+03-3.13889E+05-1.39346E+04 1.18269E+05 1.92358E-09-1.47975E-09
 -1       895 4.81226E+03-3.07048E+05-1.98892E+04 2.44881E+04 8.54379E-09 3.22507E-09
 -1       896 8.63870E+05-3.71546E+03 1.41831E+04-3.27360E+03-2.28738E-10-1.89402E-09
 -1       897 8.69159E+05 4.73393E+03 9.22852E+03-1.89090E+04 3.13776E-10-9.81572E-10
 -1       898 8.66042E+05-4.20358E+02 3.69114E+03-3.44900E+03-5.72982E-11-9.64064E-10
 -1       899 8.66661E+05 4.85603E+02 2.11554E+03-1.85698E+04-1.34150E-10-4.88171E-10
 -1       900 8.66296E+05-5.39106E+01 9.91316E+02-3.61213E+03-2.11003E-10-2.66937E-10
 -1       901 8.66332E+05 5.15822E+01 6.25721E+02-1.83025E+04 5.09772E-10 9.06084E-11
 -1       902 8.66322E+05-9.78933E+00 4.86345E+02-3.71632E+03 2.11912E-10 2.56279E-10
 -1       903 8.66298E+05 3.38956E+01 6.47186E+02-1.81524E+04-1.38584E-10 1.06894E-10
 -1       904 8.66302E+05-2.19492E+01 1.07724E+03-3.76227E+03-2.14300E-10 2.14271E-10
 -1       905 8.66462E+05 2.37315E+02 2.18906E+03-1.81200E+04 1.41966E-11 3.83125E-10
 -1       906 8.66151E+05-1.93702E+02 4.08377E+03-3.74868E+03 1.29148E-10 5.35465E-10
 -1       907 8.67758E+05 2.20181E+03 9.08922E+03-1.82031E+04-5.24437E-10 4.97607E-10
 -1       908 8.65016E+05-1.74651E+03 1.60881E+04-3.67910E+03 1.46201E-10 1.70985E-10
 -1       909 8.78420E+05 2.08217E+04 4.02284E+04-1.83707E+04-9.81117E-11-5.37511E-10
 -1       910 8.55511E+05-1.60490E+04 6.19891E+04-3.58240E+03-7.33053E-10-8.36735E-10
 -1       911 2.69632E+05-2.03570E+03 7.69421E+03-4.56765E+03-3.63798E-11-3.29010E-10
 -1       912 2.72550E+05 2.58496E+03 5.01919E+03-2.25096E+04-2.18279E-10 1.48702E-10
 -1       913 2.70806E+05-2.32105E+02 2.00803E+03-4.57997E+03-1.82808E-10 6.40057E-10
 -1       914 2.71155E+05 2.88917E+02 1.16708E+03-2.24504E+04-2.25782E-10 1.08355E-09
 -1       915 2.70939E+05-2.54289E+01 5.70867E+02-4.62671E+03 8.39236E-10 1.21889E-09
 -1       916 2.70956E+05 6.25069E+01 4.09535E+02-2.23764E+04 1.00863E-09 6.33577E-10
 -1       917 2.70950E+05 7.80796E-01 4.00385E+02-4.65397E+03 9.22682E-10 1.37453E-09
 -1       918 2.70947E+05 6.66023E+01 6.33281E+02-2.23448E+04 5.20814E-10 1.48864E-09
 -1       919 2.70926E+05-1.69998E+01 1.13060E+03-4.65826E+03 7.26686E-10 2.38396E-09
 -1       920 2.71140E+05 2.83948E+02 2.34566E+03-2.23587E+04 9.26889E-10 1.41836E-09
 -1       921 2.70766E+05-2.06892E+02 4.39570E+03-4.64000E+03 1.12914E-09 1.48589E-09
 -1       922 2.72562E+05 2.39792E+03 9.80418E+03-2.24147E+04 1.34503E-09 8.64361E-10
 -1       923 2.69546E+05-1.89002E+03 1.73530E+04-4.60214E+03-2.01908E-10 1.03773E-09
 -1       924 2.84104E+05 2.24929E+04 4.34203E+04-2.24603E+04-4.18595E-10-1.58707E-10
 -1       925 2.59299E+05-1.73429E+04 6.69006E+04-4.59527E+03 5.00222E-12 2.25555E-10
 -1       926-1.12068E+06 1.58162E+04-6.10177E+04 4.75862E+02 9.29390E-10-2.58296E-10
 -1       927-1.14318E+06-2.05328E+04-3.96028E+04 3.47593E+03 2.91038E-11 3.48336E-10
 -1       928-1.13003E+06 1.71864E+03-1.58265E+04 4.14767E+02 3.38900E-10-9.65883E-10
 -1       929-1.13270E+06-2.16713E+03-8.93984E+03 3.57333E+03 1.18396E-09-2.23588E-09
 -1       930-1.13114E+06 1.92184E+02-4.01707E+03 3.77975E+02-3.46631E-10-7.72616E-10
 -1       931-1.13143E+06-2.24474E+02-2.15892E+03 3.62848E+03-3.54817E-10-2.44654E-10
 -1       932-1.13129E+06 2.40682E+01-1.07503E+03 3.59518E+02 1.41853E-10-9.53548E-10
 -1       933-1.13126E+06-2.68290E+01-6.71990E+02 3.64770E+03 5.03789E-10-8.63487E-10
 -1       934-1.13130E+06 1.03734E+01-5.51131E+02 3.58737E+02-3.35376E-11-7.34062E-10
 -1       935-1.13129E+06-6.76954E+01-7.68009E+02 3.63133E+03 8.98112E-10-9.46560E-10
 -1       936-1.13126E+06 5.87663E+01-1.27071E+03 3.75899E+02-8.90736E-11-5.17844E-10
 -1       937-1.13167E+06-6.53574E+02-2.73122E+03 3.57915E+03 5.71731E-10-1.32547E-09
 -1       938-1.13093E+06 5.19618E+02-4.79909E+03 4.10949E+02 5.66331E-10-1.52454E-09
 -1       939-1.13483E+06-6.20661E+03-1.19802E+04 3.48377E+03 7.55108E-10-6.28461E-10
 -1       940-1.12810E+06 4.78090E+03-1.84543E+04 4.71446E+02-9.35643E-11-9.73159E-11
 -1       941 2.71587E+06-8.71221E+04 3.37990E+05-4.47855E+02 1.34682E-09 2.47383E-09
 -1       942 2.84057E+06 1.13296E+05 2.19127E+05-4.71238E+03 1.49407E-09-2.91766E-09
 -1       943 2.76766E+06-9.46478E+03 8.77816E+04-3.79990E+02 1.81217E-10-7.60338E-10
 -1       944 2.78276E+06 1.19557E+04 4.96497E+04-4.90962E+03-9.09949E-10-2.32831E-09
 -1       945 2.77388E+06-1.05806E+03 2.24796E+04-2.47422E+02 1.00795E-09 1.18780E-09
 -1       946 2.77581E+06 1.25359E+03 1.23456E+04-5.23772E+03 1.45701E-09 3.42516E-09
 -1       947 2.77469E+06-1.40079E+02 6.66344E+03-5.15187E+01 6.76664E-10 1.99839E-09
 -1       948 2.77499E+06 2.18788E+02 5.15318E+03-5.70170E+03 1.05376E-09 9.67461E-10
 -1       949 2.77472E+06-1.19721E+02 5.79739E+03 2.16591E+02-2.51816E-09-4.99426E-09
 -1       950 2.77561E+06 9.88417E+02 1.00523E+04-6.31983E+03 2.16482E-09 1.97997E-09
 -1       951 2.77409E+06-8.45960E+02 1.79478E+04 5.66680E+02-2.50998E-09-6.17456E-09
 -1       952 2.78113E+06 9.46042E+03 3.94314E+04-7.11364E+03-1.27170E-09-3.90810E-09
 -1       953 2.76916E+06-7.51533E+03 6.96186E+04 1.00952E+03-2.20143E-09-8.94943E-10
 -1       954 2.82699E+06 8.97953E+04 1.73747E+05-8.12033E+03-6.96309E-09-4.30737E-09
 -1       955 2.72808E+06-6.91052E+04 2.67892E+05 1.55193E+03-2.14231E-09-3.17232E-09
 -1       956-2.81523E+05-6.14458E+03-1.25435E+04 6.12651E+04-1.30185E-08-3.63798E-10
 -1       957-2.83813E+05-1.81320E+03-6.29966E+03 7.05350E+04-2.93858E-09-2.28647E-09
 -1       958-2.82623E+05-1.02589E+02-2.83736E+03 6.08675E+04 9.65338E-09-3.52702E-09
 -1       959-2.82907E+05 1.88389E+02-1.43654E+03 7.09641E+04-5.50790E-09-4.41969E-09
 -1       960-2.82828E+05 2.59690E+02-6.97570E+02 6.08235E+04-1.50594E-08-2.46746E-09
 -1       961-2.82923E+05 3.39326E+02-3.59272E+02 7.10128E+04-2.44072E-08-1.76760E-09
 -1       962-2.82926E+05 3.08254E+02-1.92074E+02 6.08168E+04-7.31779E-09-2.13959E-09
 -1       963-2.82991E+05 3.81446E+02-1.25076E+02 7.10215E+04-1.57493E-08-1.31240E-09
 -1       964-2.82981E+05 3.38746E+02-1.19447E+02 6.08139E+04-6.34918E-09-8.67203E-10
 -1       965-2.83039E+05 4.05576E+02-1.77818E+02 7.10228E+04 1.21493E-08-4.52383E-09
 -1       966-2.82998E+05 3.53814E+02-3.19721E+02 6.08150E+04-1.19204E-08-2.30830E-09
 -1       967-2.83091E+05 3.70558E+02-6.51038E+02 7.10053E+04-2.00396E-09-3.64207E-09
 -1       968-2.82949E+05 2.16755E+02-1.27856E+03 6.08318E+04 3.68800E-10-2.10593E-09
 -1       969-2.83541E+05-5.14792E+02-2.84533E+03 7.08339E+04-3.40606E-10-5.19731E-09
 -1       970-2.82472E+05-2.50633E+03-5.66267E+03 6.09961E+04-1.22509E-09-2.89583E-09
 -1       971-8.08989E+05 1.38989E+04-5.38629E+04 3.02897E+03-1.29494E-08-3.99086E-09
 -1       972-8.28819E+05-1.79579E+04-3.49247E+04 2.49082E+04-3.34194E-09-4.76211E-09
 -1       973-8.17249E+05 1.50795E+03-1.39940E+04 2.65068E+03-1.18748E-08-7.10497E-09
 -1       974-8.19713E+05-1.71721E+03-7.90551E+03 2.55127E+04 6.54836E-10-6.55473E-09
 -1       975-8.18244E+05 1.87775E+02-3.60226E+03 2.41757E+03 5.25188E-09-8.70341E-09
 -1       976-8.18692E+05 3.03891E+01-2.00448E+03 2.58784E+04-9.95203E-09-5.40848E-09
 -1       977-8.18377E+05 5.68634E+01-1.15108E+03 2.28282E+03 1.64134E-08-9.99324E-09
 -1       978-8.18615E+05 2.06476E+02-1.00919E+03 2.60546E+04 4.63958E-08-1.01463E-08
 -1       979-8.18375E+05 6.56314E+01-1.29449E+03 2.24031E+03 2.37116E-08-1.13481E-08
 -1       980-8.18774E+05 4.99948E+00-2.39265E+03 2.60457E+04 2.82510E-08-1.03689E-08
 -1       981-8.18216E+05 2.39424E+02-4.35909E+03 2.29169E+03-3.58023E-09-9.69067E-09
 -1       982-8.20084E+05-2.10287E+03-9.63417E+03 2.58508E+04-6.50357E-09-7.32416E-09
 -1       983-8.17010E+05 1.86473E+03-1.70478E+04 2.43729E+03 8.22956E-09-1.04574E-08
 -1       984-8.31262E+05-2.18912E+04-4.26057E+04 2.54393E+04 2.07524E-09-6.76209E-09
 -1       985-8.06938E+05 1.69991E+04-6.56723E+04 2.71367E+03 7.13590E-09-1.00626E-08
 -3
 9999
