
 stresses (elem, integ.pnt.,sxx,syy,szz,sxy,sxz,syz) for set ELALL and time  0.1000000E+01

         1   1 -3.383765E+06 -3.085099E+05 -3.896349E+05 -9.674157E+04 -2.659095E+05  4.165105E+01
         1   2 -3.329787E+06  4.426271E+04 -1.704245E+05 -2.800801E+04 -1.739646E+05  7.888649E+00
         1   3 -3.383249E+06  1.587088E+04 -1.065772E+05  4.073272E+04 -8.202057E+04 -5.409570E+00
         1   4 -3.383775E+06 -3.085276E+05 -3.896374E+05  4.341545E-09 -2.659095E+05 -1.171004E-09
         1   5 -3.329788E+06  4.426123E+04 -1.704247E+05 -2.478512E-08 -1.739646E+05 -2.040660E-09
         1   6 -3.383250E+06  1.586774E+04 -1.065776E+05  5.234926E-09 -8.202057E+04  2.714763E-09
         1   7 -3.383765E+06 -3.085099E+05 -3.896349E+05  9.674157E+04 -2.659095E+05 -4.165105E+01
         1   8 -3.329787E+06  4.426271E+04 -1.704245E+05  2.800801E+04 -1.739646E+05 -7.888649E+00
         1   9 -3.383249E+06  1.587088E+04 -1.065772E+05 -4.073272E+04 -8.202057E+04  5.409570E+00
         1  10 -3.383842E+06 -3.085290E+05 -3.897685E+05 -9.674157E+04  6.684225E-11 -2.577791E-10
         1  11 -3.329819E+06  4.425453E+04 -1.704816E+05 -2.800801E+04 -2.213192E-09 -3.860674E-10
         1  12 -3.383256E+06  1.586906E+04 -1.065899E+05  4.073272E+04 -4.508900E-09  3.361903E-10
         1  13 -3.383852E+06 -3.085467E+05 -3.897710E+05  8.642916E-09 -8.390631E-11 -4.614437E-11
         1  14 -3.329820E+06  4.425305E+04 -1.704819E+05 -1.616455E-08 -5.395475E-09  4.222534E-11
         1  15 -3.383258E+06  1.586592E+04 -1.065903E+05  6.350528E-09 -1.782158E-09  3.480862E-10
         1  16 -3.383842E+06 -3.085290E+05 -3.897685E+05  9.674157E+04 -1.551660E-10  9.982602E-11
         1  17 -3.329819E+06  4.425453E+04 -1.704816E+05  2.800801E+04  1.154189E-09  4.786089E-10
         1  18 -3.383256E+06  1.586906E+04 -1.065899E+05 -4.073272E+04  2.089364E-09  5.299996E-10
         1  19 -3.383765E+06 -3.085099E+05 -3.896349E+05 -9.674157E+04  2.659095E+05 -4.165105E+01
         1  20 -3.329787E+06  4.426271E+04 -1.704245E+05 -2.800801E+04  1.739646E+05 -7.888649E+00
         1  21 -3.383249E+06  1.587088E+04 -1.065772E+05  4.073272E+04  8.202057E+04  5.409570E+00
         1  22 -3.383775E+06 -3.085276E+05 -3.896374E+05  2.152914E-08  2.659095E+05  1.127253E-09
         1  23 -3.329788E+06  4.426123E+04 -1.704247E+05  9.656302E-09  1.739646E+05  1.844865E-09
         1  24 -3.383250E+06  1.586774E+04 -1.065776E+05  1.715848E-08  8.202057E+04 -1.991510E-09
         1  25 -3.383765E+06 -3.085099E+05 -3.896349E+05  9.674157E+04  2.659095E+05  4.165105E+01
         1  26 -3.329787E+06  4.426271E+04 -1.704245E+05  2.800801E+04  1.739646E+05  7.888649E+00
         1  27 -3.383249E+06  1.587088E+04 -1.065772E+05 -4.073272E+04  8.202057E+04 -5.409570E+00
         2   1 -3.362400E+06 -3.245560E+04 -8.695247E+04 -9.165899E+03 -6.552147E+04  9.723898E-01
         2   2 -3.355818E+06  4.812344E+03 -4.418214E+04 -2.299083E+03 -4.289474E+04  1.596755E-01
         2   3 -3.362317E+06  1.655904E+03 -2.630628E+04  4.567697E+03 -2.026757E+04 -1.498937E-01
         2   4 -3.362400E+06 -3.245575E+04 -8.695249E+04  1.234131E-08 -6.552147E+04  2.644085E-09
         2   5 -3.355818E+06  4.812334E+03 -4.418214E+04 -6.332245E-10 -4.289474E+04 -1.797325E-09
         2   6 -3.362317E+06  1.655865E+03 -2.630629E+04  5.217842E-09 -2.026757E+04 -6.678361E-11
         2   7 -3.362400E+06 -3.245560E+04 -8.695247E+04  9.165899E+03 -6.552147E+04 -9.723898E-01
         2   8 -3.355818E+06  4.812344E+03 -4.418214E+04  2.299083E+03 -4.289474E+04 -1.596755E-01
         2   9 -3.362317E+06  1.655904E+03 -2.630628E+04 -4.567697E+03 -2.026757E+04  1.498937E-01
         2  10 -3.362405E+06 -3.245676E+04 -8.696058E+04 -9.165899E+03 -8.668793E-10 -4.205244E-10
         2  11 -3.355820E+06  4.811847E+03 -4.418562E+04 -2.299083E+03  2.585329E-09 -3.853883E-10
         2  12 -3.362317E+06  1.655793E+03 -2.630706E+04  4.567697E+03 -1.039922E-09 -8.070788E-10
         2  13 -3.362405E+06 -3.245691E+04 -8.696060E+04 -2.211724E-08 -1.873847E-09  3.844302E-10
         2  14 -3.355820E+06  4.811837E+03 -4.418562E+04  7.931171E-09 -8.862804E-10 -3.706654E-10
         2  15 -3.362317E+06  1.655754E+03 -2.630706E+04 -9.343719E-09 -3.062578E-10 -8.419745E-10
         2  16 -3.362405E+06 -3.245676E+04 -8.696058E+04  9.165899E+03 -7.127300E-10  2.833699E-10
         2  17 -3.355820E+06  4.811847E+03 -4.418562E+04  2.299083E+03  3.587745E-10 -1.229899E-10
         2  18 -3.362317E+06  1.655793E+03 -2.630706E+04 -4.567697E+03  1.871552E-09 -6.900185E-10
         2  19 -3.362400E+06 -3.245560E+04 -8.695247E+04 -9.165899E+03  6.552147E+04 -9.723898E-01
         2  20 -3.355818E+06  4.812344E+03 -4.418214E+04 -2.299083E+03  4.289474E+04 -1.596755E-01
         2  21 -3.362317E+06  1.655904E+03 -2.630628E+04  4.567697E+03  2.026757E+04  1.498937E-01
         2  22 -3.362400E+06 -3.245575E+04 -8.695249E+04  1.658470E-08  6.552147E+04 -1.888725E-09
         2  23 -3.355818E+06  4.812334E+03 -4.418214E+04  1.650616E-08  4.289474E+04  1.378264E-09
         2  24 -3.362317E+06  1.655865E+03 -2.630629E+04  3.525703E-08  2.026757E+04 -1.669384E-09
         2  25 -3.362400E+06 -3.245560E+04 -8.695247E+04  9.165899E+03  6.552147E+04  9.723898E-01
         2  26 -3.355818E+06  4.812344E+03 -4.418214E+04  2.299083E+03  4.289474E+04  1.596755E-01
         2  27 -3.362317E+06  1.655904E+03 -2.630628E+04 -4.567697E+03  2.026757E+04 -1.498937E-01
         3   1 -3.359823E+06 -3.356261E+03 -2.061218E+04 -6.961246E+02 -1.613050E+04  1.818099E-02
         3   2 -3.358910E+06  5.379872E+02 -1.130861E+04 -7.904337E+01 -1.046447E+04  1.339260E-03
         3   3 -3.359807E+06  1.663259E+02 -6.775115E+03  5.380262E+02 -4.798495E+03 -4.180148E-03
         3   4 -3.359823E+06 -3.356262E+03 -2.061218E+04  1.382598E-08 -1.613050E+04  8.221685E-10
         3   5 -3.358910E+06  5.379872E+02 -1.130861E+04  5.394863E-08 -1.046447E+04 -6.841880E-10
         3   6 -3.359807E+06  1.663254E+02 -6.775115E+03  1.071000E-08 -4.798495E+03  4.083313E-10
         3   7 -3.359823E+06 -3.356261E+03 -2.061218E+04  6.961246E+02 -1.613050E+04 -1.818098E-02
         3   8 -3.358910E+06  5.379872E+02 -1.130861E+04  7.904337E+01 -1.046447E+04 -1.339263E-03
         3   9 -3.359807E+06  1.663259E+02 -6.775115E+03 -5.380262E+02 -4.798495E+03  4.180149E-03
         3  10 -3.359823E+06 -3.356331E+03 -2.061267E+04 -6.961246E+02 -4.880630E-09 -5.022535E-10
         3  11 -3.358910E+06  5.379576E+02 -1.130882E+04 -7.904337E+01  1.989013E-09 -6.178483E-10
         3  12 -3.359807E+06  1.663197E+02 -6.775158E+03  5.380262E+02 -1.118569E-09  1.016194E-10
         3  13 -3.359823E+06 -3.356332E+03 -2.061267E+04  5.324620E-09 -2.007988E-09 -5.631404E-10
         3  14 -3.358910E+06  5.379576E+02 -1.130882E+04  1.954247E-08 -1.075505E-09  3.541370E-10
         3  15 -3.359807E+06  1.663192E+02 -6.775159E+03  4.023849E-08 -9.073239E-10 -1.236575E-10
         3  16 -3.359823E+06 -3.356331E+03 -2.061267E+04  6.961246E+02  1.772332E-09 -5.723930E-10
         3  17 -3.358910E+06  5.379576E+02 -1.130882E+04  7.904337E+01 -2.588051E-09  3.232002E-10
         3  18 -3.359807E+06  1.663197E+02 -6.775158E+03 -5.380262E+02 -6.957085E-10 -1.239778E-10
         3  19 -3.359823E+06 -3.356261E+03 -2.061218E+04 -6.961246E+02  1.613050E+04 -1.818099E-02
         3  20 -3.358910E+06  5.379872E+02 -1.130861E+04 -7.904337E+01  1.046447E+04 -1.339259E-03
         3  21 -3.359807E+06  1.663259E+02 -6.775115E+03  5.380262E+02  4.798495E+03  4.180147E-03
         3  22 -3.359823E+06 -3.356262E+03 -2.061218E+04  3.552308E-08  1.613050E+04 -1.967754E-09
         3  23 -3.358910E+06  5.379872E+02 -1.130861E+04 -1.946946E-09  1.046447E+04  1.115608E-09
         3  24 -3.359807E+06  1.663254E+02 -6.775115E+03  4.071541E-08  4.798495E+03 -5.790025E-10
         3  25 -3.359823E+06 -3.356261E+03 -2.061218E+04  6.961246E+02  1.613050E+04  1.818098E-02
         3  26 -3.358910E+06  5.379872E+02 -1.130861E+04  7.904337E+01  1.046447E+04  1.339262E-03
         3  27 -3.359807E+06  1.663259E+02 -6.775115E+03 -5.380262E+02  4.798495E+03 -4.180149E-03
         4   1 -3.359483E+06 -3.314200E+02 -5.360535E+03 -1.487290E+01 -3.712212E+03  8.939593E-05
         4   2 -3.359308E+06  7.115970E+01 -3.453622E+03  2.043747E+01 -1.998647E+03 -6.613621E-05
         4   3 -3.359480E+06 -1.256146E+01 -2.788438E+03  5.574833E+01 -2.850534E+02 -2.573109E-05
         4   4 -3.359483E+06 -3.314200E+02 -5.360535E+03  1.050005E-08 -3.712212E+03  1.629730E-09
         4   5 -3.359308E+06  7.115970E+01 -3.453622E+03  6.179677E-09 -1.998647E+03  9.685709E-10
         4   6 -3.359480E+06 -1.256146E+01 -2.788438E+03  8.295617E-09 -2.850534E+02 -1.711886E-09
         4   7 -3.359483E+06 -3.314200E+02 -5.360535E+03  1.487290E+01 -3.712212E+03 -8.939405E-05
         4   8 -3.359308E+06  7.115970E+01 -3.453622E+03 -2.043747E+01 -1.998647E+03  6.613713E-05
         4   9 -3.359480E+06 -1.256146E+01 -2.788438E+03 -5.574833E+01 -2.850534E+02  2.572797E-05
         4  10 -3.359483E+06 -3.314237E+02 -5.360561E+03 -1.487290E+01 -2.262977E-09 -4.312257E-10
         4  11 -3.359308E+06  7.115862E+01 -3.453630E+03  2.043747E+01 -2.281297E-09  9.948848E-11
         4  12 -3.359480E+06 -1.256148E+01 -2.788438E+03  5.574833E+01  6.862790E-11  9.495693E-11
         4  13 -3.359483E+06 -3.314237E+02 -5.360561E+03  3.208381E-08 -2.269301E-09 -2.820851E-11
         4  14 -3.359308E+06  7.115862E+01 -3.453630E+03  2.982845E-08 -3.074689E-09  3.909976E-10
         4  15 -3.359480E+06 -1.256149E+01 -2.788438E+03  1.769100E-09 -5.509175E-09 -4.353702E-10
         4  16 -3.359483E+06 -3.314237E+02 -5.360561E+03  1.487290E+01  2.161479E-09 -1.682957E-10
         4  17 -3.359308E+06  7.115862E+01 -3.453630E+03 -2.043747E+01 -2.954903E-09  2.756748E-10
         4  18 -3.359480E+06 -1.256148E+01 -2.788438E+03 -5.574833E+01 -3.023061E-09 -7.410824E-10
         4  19 -3.359483E+06 -3.314200E+02 -5.360535E+03 -1.487290E+01  3.712212E+03 -8.939593E-05
         4  20 -3.359308E+06  7.115970E+01 -3.453622E+03  2.043747E+01  1.998647E+03  6.613744E-05
         4  21 -3.359480E+06 -1.256146E+01 -2.788438E+03  5.574833E+01  2.850534E+02  2.573129E-05
         4  22 -3.359483E+06 -3.314200E+02 -5.360535E+03  4.508860E-08  3.712212E+03 -1.620292E-09
         4  23 -3.359308E+06  7.115970E+01 -3.453622E+03  6.156603E-09  1.998647E+03 -2.771033E-10
         4  24 -3.359480E+06 -1.256146E+01 -2.788438E+03  3.823634E-09  2.850534E+02  7.418381E-10
         4  25 -3.359483E+06 -3.314200E+02 -5.360535E+03  1.487290E+01  3.712212E+03  8.939236E-05
         4  26 -3.359308E+06  7.115970E+01 -3.453622E+03 -2.043747E+01  1.998647E+03 -6.613849E-05
         4  27 -3.359480E+06 -1.256146E+01 -2.788438E+03 -5.574833E+01  2.850534E+02 -2.573061E-05
         5   1 -3.359478E+06 -1.394896E+01 -2.776623E+03 -5.300360E+01  2.159374E+02 -1.853320E-05
         5   2 -3.359310E+06  6.946496E+01 -3.389173E+03 -1.895482E+01  1.897481E+03 -5.823428E-05
         5   3 -3.359481E+06 -3.211331E+02 -5.219433E+03  1.509399E+01  3.579022E+03  8.746749E-05
         5   4 -3.359478E+06 -1.394897E+01 -2.776623E+03  6.272086E-09  2.159374E+02 -1.690584E-09
         5   5 -3.359310E+06  6.946496E+01 -3.389173E+03 -2.542281E-09  1.897481E+03 -8.729316E-11
         5   6 -3.359481E+06 -3.211331E+02 -5.219433E+03  1.985430E-08  3.579022E+03 -1.361150E-09
         5   7 -3.359478E+06 -1.394896E+01 -2.776623E+03  5.300360E+01  2.159374E+02  1.852995E-05
         5   8 -3.359310E+06  6.946496E+01 -3.389173E+03  1.895482E+01  1.897481E+03  5.823303E-05
         5   9 -3.359481E+06 -3.211331E+02 -5.219433E+03 -1.509399E+01  3.579022E+03 -8.747064E-05
         5  10 -3.359478E+06 -1.394898E+01 -2.776623E+03 -5.300360E+01 -3.445900E-09 -2.952809E-10
         5  11 -3.359310E+06  6.946399E+01 -3.389180E+03 -1.895482E+01  1.393904E-09 -2.363715E-10
         5  12 -3.359481E+06 -3.211365E+02 -5.219457E+03  1.509399E+01  2.106881E-09  1.995965E-10
         5  13 -3.359478E+06 -1.394898E+01 -2.776623E+03  6.311944E-09 -3.998355E-09 -7.602922E-10
         5  14 -3.359310E+06  6.946399E+01 -3.389180E+03 -6.810781E-09 -8.901008E-10 -3.129751E-10
         5  15 -3.359481E+06 -3.211365E+02 -5.219457E+03 -5.742162E-10  7.889030E-10  1.437651E-10
         5  16 -3.359478E+06 -1.394898E+01 -2.776623E+03  5.300360E+01 -1.268442E-09 -6.884648E-10
         5  17 -3.359310E+06  6.946399E+01 -3.389180E+03  1.895482E+01 -2.162576E-09 -3.924520E-10
         5  18 -3.359481E+06 -3.211365E+02 -5.219457E+03 -1.509399E+01 -2.862622E-09 -1.218159E-11
         5  19 -3.359478E+06 -1.394896E+01 -2.776623E+03 -5.300360E+01 -2.159374E+02  1.853216E-05
         5  20 -3.359310E+06  6.946496E+01 -3.389173E+03 -1.895482E+01 -1.897481E+03  5.823468E-05
         5  21 -3.359481E+06 -3.211331E+02 -5.219433E+03  1.509399E+01 -3.579022E+03 -8.746647E-05
         5  22 -3.359478E+06 -1.394897E+01 -2.776623E+03 -1.083338E-08 -2.159374E+02  2.572272E-10
         5  23 -3.359310E+06  6.946496E+01 -3.389173E+03 -1.108767E-08 -1.897481E+03 -3.585579E-10
         5  24 -3.359481E+06 -3.211331E+02 -5.219433E+03 -1.456852E-08 -3.579022E+03  1.642976E-09
         5  25 -3.359478E+06 -1.394896E+01 -2.776623E+03  5.300360E+01 -2.159374E+02 -1.853281E-05
         5  26 -3.359310E+06  6.946496E+01 -3.389173E+03  1.895482E+01 -1.897481E+03 -5.823493E-05
         5  27 -3.359481E+06 -3.211331E+02 -5.219433E+03 -1.509399E+01 -3.579022E+03  8.746932E-05
         6   1 -3.359795E+06  1.611004E+02 -6.584558E+03 -5.210771E+02  4.635571E+03 -3.911007E-03
         6   2 -3.358925E+06  5.214922E+02 -1.097040E+04  7.685275E+01  1.013212E+04  1.260790E-03
         6   3 -3.359810E+06 -3.252795E+03 -1.998281E+04  6.747760E+02  1.562855E+04  1.707502E-02
         6   4 -3.359795E+06  1.610999E+02 -6.584559E+03  3.054310E-08  4.635571E+03 -1.563337E-09
         6   5 -3.358925E+06  5.214922E+02 -1.097040E+04  5.071616E-09  1.013212E+04  7.005988E-10
         6   6 -3.359810E+06 -3.252796E+03 -1.998281E+04 -3.762960E-09  1.562855E+04  2.014387E-09
         6   7 -3.359795E+06  1.611004E+02 -6.584558E+03  5.210771E+02  4.635571E+03  3.911003E-03
         6   8 -3.358925E+06  5.214922E+02 -1.097040E+04 -7.685275E+01  1.013212E+04 -1.260790E-03
         6   9 -3.359810E+06 -3.252795E+03 -1.998281E+04 -6.747760E+02  1.562855E+04 -1.707501E-02
         6  10 -3.359795E+06  1.610946E+02 -6.584599E+03 -5.210771E+02  3.485086E-09  1.562689E-10
         6  11 -3.358925E+06  5.214645E+02 -1.097059E+04  7.685275E+01 -2.952459E-10  1.536121E-10
         6  12 -3.359810E+06 -3.252861E+03 -1.998327E+04  6.747760E+02 -2.337535E-09  1.036530E-09
         6  13 -3.359795E+06  1.610941E+02 -6.584599E+03  9.009684E-09  3.864248E-09  7.479205E-11
         6  14 -3.358925E+06  5.214645E+02 -1.097059E+04  7.249921E-09  1.847483E-09 -6.208993E-11
         6  15 -3.359810E+06 -3.252862E+03 -1.998327E+04 -1.819650E-08  1.923355E-09  9.305314E-10
         6  16 -3.359795E+06  1.610946E+02 -6.584599E+03  5.210771E+02 -4.103256E-10 -2.075659E-10
         6  17 -3.358925E+06  5.214645E+02 -1.097059E+04 -7.685275E+01 -8.149100E-10 -1.475561E-10
         6  18 -3.359810E+06 -3.252861E+03 -1.998327E+04 -6.747760E+02  1.729456E-09  7.887013E-10
         6  19 -3.359795E+06  1.611004E+02 -6.584558E+03 -5.210771E+02 -4.635571E+03  3.911007E-03
         6  20 -3.358925E+06  5.214922E+02 -1.097040E+04  7.685275E+01 -1.013212E+04 -1.260790E-03
         6  21 -3.359810E+06 -3.252795E+03 -1.998281E+04  6.747760E+02 -1.562855E+04 -1.707501E-02
         6  22 -3.359795E+06  1.610999E+02 -6.584559E+03  8.986603E-09 -4.635571E+03  1.589371E-09
         6  23 -3.358925E+06  5.214922E+02 -1.097040E+04  2.975118E-09 -1.013212E+04 -6.957255E-10
         6  24 -3.359810E+06 -3.252796E+03 -1.998281E+04  1.794461E-08 -1.562855E+04 -1.592777E-10
         6  25 -3.359795E+06  1.611004E+02 -6.584558E+03  5.210771E+02 -4.635571E+03 -3.911003E-03
         6  26 -3.358925E+06  5.214922E+02 -1.097040E+04 -7.685275E+01 -1.013212E+04  1.260787E-03
         6  27 -3.359810E+06 -3.252795E+03 -1.998281E+04 -6.747760E+02 -1.562855E+04  1.707501E-02
         7   1 -3.362227E+06  1.604913E+03 -2.550003E+04 -4.426794E+03  1.963933E+04 -1.407668E-01
         7   2 -3.355929E+06  4.663959E+03 -4.282305E+04  2.228331E+03  4.157000E+04  1.499821E-01
         7   3 -3.362308E+06 -3.145547E+04 -8.427374E+04  8.883587E+03  6.350060E+04  9.133724E-01
         7   4 -3.362227E+06  1.604876E+03 -2.550004E+04 -1.339461E-10  1.963933E+04  2.274143E-09
         7   5 -3.355929E+06  4.663949E+03 -4.282305E+04  9.450590E-09  4.157000E+04  1.270175E-09
         7   6 -3.362308E+06 -3.145562E+04 -8.427376E+04  9.348935E-09  6.350060E+04 -1.176306E-09
         7   7 -3.362227E+06  1.604913E+03 -2.550003E+04  4.426794E+03  1.963933E+04  1.407668E-01
         7   8 -3.355929E+06  4.663959E+03 -4.282305E+04 -2.228331E+03  4.157000E+04 -1.499821E-01
         7   9 -3.362308E+06 -3.145547E+04 -8.427374E+04 -8.883587E+03  6.350060E+04 -9.133724E-01
         7  10 -3.362227E+06  1.604808E+03 -2.550076E+04 -4.426794E+03  5.360854E-11  9.782838E-10
         7  11 -3.355930E+06  4.663492E+03 -4.282631E+04  2.228331E+03  1.473388E-09  1.587228E-10
         7  12 -3.362312E+06 -3.145656E+04 -8.428136E+04  8.883587E+03 -8.680342E-10 -1.076517E-09
         7  13 -3.362227E+06  1.604771E+03 -2.550077E+04 -1.739064E-08  2.386600E-09  1.072936E-09
         7  14 -3.355930E+06  4.663482E+03 -4.282632E+04 -1.856800E-08 -2.302326E-09  1.254157E-10
         7  15 -3.362312E+06 -3.145671E+04 -8.428138E+04 -6.834191E-09  5.591225E-10 -5.286992E-10
         7  16 -3.362227E+06  1.604808E+03 -2.550076E+04  4.426794E+03 -5.577896E-10  1.099304E-09
         7  17 -3.355930E+06  4.663492E+03 -4.282631E+04 -2.228331E+03 -1.632696E-09  3.394643E-10
         7  18 -3.362312E+06 -3.145656E+04 -8.428136E+04 -8.883587E+03 -9.819907E-10 -2.735349E-10
         7  19 -3.362227E+06  1.604913E+03 -2.550003E+04 -4.426794E+03 -1.963933E+04  1.407668E-01
         7  20 -3.355929E+06  4.663959E+03 -4.282305E+04  2.228331E+03 -4.157000E+04 -1.499821E-01
         7  21 -3.362308E+06 -3.145547E+04 -8.427374E+04  8.883587E+03 -6.350060E+04 -9.133724E-01
         7  22 -3.362227E+06  1.604876E+03 -2.550004E+04 -8.853565E-09 -1.963933E+04 -1.079795E-10
         7  23 -3.355929E+06  4.663949E+03 -4.282305E+04 -2.076519E-08 -4.157000E+04 -1.118240E-09
         7  24 -3.362308E+06 -3.145562E+04 -8.427376E+04  1.247906E-08 -6.350060E+04  1.227012E-10
         7  25 -3.362227E+06  1.604913E+03 -2.550003E+04  4.426794E+03 -1.963933E+04 -1.407668E-01
         7  26 -3.355929E+06  4.663959E+03 -4.282305E+04 -2.228331E+03 -4.157000E+04  1.499821E-01
         7  27 -3.362308E+06 -3.145547E+04 -8.427374E+04 -8.883587E+03 -6.350060E+04  9.133724E-01
         8   1 -3.382513E+06  1.538129E+04 -1.032934E+05 -3.947673E+04  7.949168E+04 -5.081115E+00
         8   2 -3.330700E+06  4.289800E+04 -1.651743E+05  2.714446E+04  1.686014E+05  7.409734E+00
         8   3 -3.383015E+06 -2.990016E+05 -3.776301E+05  9.375987E+04  2.577132E+05  3.912306E+01
         8   4 -3.382515E+06  1.537834E+04 -1.032938E+05  1.192138E-08  7.949168E+04 -1.152258E-09
         8   5 -3.330701E+06  4.289661E+04 -1.651745E+05 -1.521401E-09  1.686014E+05  6.107918E-10
         8   6 -3.383025E+06 -2.990182E+05 -3.776325E+05 -3.004166E-08  2.577132E+05  2.890533E-10
         8   7 -3.382513E+06  1.538129E+04 -1.032934E+05  3.947673E+04  7.949168E+04  5.081115E+00
         8   8 -3.330700E+06  4.289800E+04 -1.651743E+05 -2.714446E+04  1.686014E+05 -7.409734E+00
         8   9 -3.383015E+06 -2.990016E+05 -3.776301E+05 -9.375987E+04  2.577132E+05 -3.912306E+01
         8  10 -3.382520E+06  1.537958E+04 -1.033054E+05 -3.947673E+04 -4.801460E-09 -7.481366E-10
         8  11 -3.330731E+06  4.289032E+04 -1.652280E+05  2.714446E+04 -4.185785E-10  3.384126E-10
         8  12 -3.383087E+06 -2.990195E+05 -3.777556E+05  9.375987E+04  4.970465E-09  2.126787E-10
         8  13 -3.382522E+06  1.537664E+04 -1.033058E+05 -7.929793E-09 -2.083693E-09 -4.097482E-10
         8  14 -3.330732E+06  4.288893E+04 -1.652282E+05  2.802040E-09 -9.259139E-10  1.585193E-11
         8  15 -3.383096E+06 -2.990361E+05 -3.777580E+05  1.245999E-08 -1.146230E-09  1.038230E-10
         8  16 -3.382520E+06  1.537958E+04 -1.033054E+05  3.947673E+04  6.182793E-09 -3.752094E-10
         8  17 -3.330731E+06  4.289032E+04 -1.652280E+05 -2.714446E+04  3.803518E-12 -4.423843E-10
         8  18 -3.383087E+06 -2.990195E+05 -3.777556E+05 -9.375987E+04 -4.751897E-09 -3.566339E-11
         8  19 -3.382513E+06  1.538129E+04 -1.032934E+05 -3.947673E+04 -7.949168E+04  5.081115E+00
         8  20 -3.330700E+06  4.289800E+04 -1.651743E+05  2.714446E+04 -1.686014E+05 -7.409734E+00
         8  21 -3.383015E+06 -2.990016E+05 -3.776301E+05  9.375987E+04 -2.577132E+05 -3.912306E+01
         8  22 -3.382515E+06  1.537834E+04 -1.032938E+05 -4.502153E-08 -7.949168E+04  4.027823E-10
         8  23 -3.330701E+06  4.289661E+04 -1.651745E+05 -1.492034E-09 -1.686014E+05 -5.687685E-10
         8  24 -3.383025E+06 -2.990182E+05 -3.776325E+05  4.903019E-08 -2.577132E+05 -7.594890E-11
         8  25 -3.382513E+06  1.538129E+04 -1.032934E+05  3.947673E+04 -7.949168E+04 -5.081115E+00
         8  26 -3.330700E+06  4.289800E+04 -1.651743E+05 -2.714446E+04 -1.686014E+05  7.409734E+00
         8  27 -3.383015E+06 -2.990016E+05 -3.776301E+05 -9.375987E+04 -2.577132E+05  3.912306E+01
         9   1  2.153177E+06  7.475333E+06  2.070937E+06 -1.330200E+06  9.883045E+04  7.562063E+05
         9   2  1.679818E+06  6.357031E+06  1.409590E+06 -1.164156E+06  3.273946E+05  3.532285E+05
         9   3  1.373540E+06  5.336633E+06  1.051199E+06 -1.200258E+06  3.737205E+05 -4.885941E+04
         9   4  1.946274E+05 -4.899939E+05  2.116210E+05 -1.188381E+06  1.004683E+05  1.456897E+05
         9   5  5.075448E+04 -5.062525E+05  1.053258E+05 -1.087643E+06  3.285928E+05  9.267528E+04
         9   6  1.457457E+04 -4.853188E+05  6.109553E+04 -1.188997E+06  3.736367E+05  3.975915E+04
         9   7 -1.768141E+06 -8.396424E+06 -1.650610E+06 -1.048293E+06  1.018463E+05 -4.571243E+05
         9   8 -1.581011E+06 -7.324245E+06 -1.200801E+06 -1.011919E+06  3.297367E+05 -1.650921E+05
         9   9 -1.346180E+06 -6.274078E+06 -9.300929E+05 -1.177779E+06  3.735555E+05  1.275772E+05
         9  10  2.153015E+06  7.474722E+06  2.069856E+06 -1.330260E+06  8.131754E-10 -5.417110E-08
         9  11  1.679669E+06  6.356869E+06  1.409155E+06 -1.164249E+06  4.881220E-09  1.690514E-09
         9  12  1.373390E+06  5.336592E+06  1.050932E+06 -1.200244E+06 -3.285619E-09  5.748924E-08
         9  13  1.946108E+05 -4.900195E+05  2.115620E+05 -1.188393E+06 -9.622701E-10  8.142145E-11
         9  14  5.063619E+04 -5.062908E+05  1.051065E+05 -1.087668E+06  1.485478E-09 -8.776070E-12
         9  15  1.442423E+04 -4.853580E+05  6.083015E+04 -1.189009E+06  1.906244E-09  7.575342E-11
         9  16 -1.768209E+06 -8.396654E+06 -1.651027E+06 -1.048256E+06  1.061493E-09  5.340496E-08
         9  17 -1.581135E+06 -7.324304E+06 -1.201056E+06 -1.011875E+06  2.011598E-09 -1.872880E-09
         9  18 -1.346335E+06 -6.274133E+06 -9.303863E+05 -1.177818E+06  2.032717E-09 -5.719788E-08
         9  19  2.153177E+06  7.475333E+06  2.070937E+06 -1.330200E+06 -9.883045E+04 -7.562063E+05
         9  20  1.679818E+06  6.357031E+06  1.409590E+06 -1.164156E+06 -3.273946E+05 -3.532285E+05
         9  21  1.373540E+06  5.336633E+06  1.051199E+06 -1.200258E+06 -3.737205E+05  4.885941E+04
         9  22  1.946274E+05 -4.899939E+05  2.116210E+05 -1.188381E+06 -1.004683E+05 -1.456897E+05
         9  23  5.075448E+04 -5.062525E+05  1.053258E+05 -1.087643E+06 -3.285928E+05 -9.267528E+04
         9  24  1.457457E+04 -4.853188E+05  6.109553E+04 -1.188997E+06 -3.736367E+05 -3.975915E+04
         9  25 -1.768141E+06 -8.396424E+06 -1.650610E+06 -1.048293E+06 -1.018463E+05  4.571243E+05
         9  26 -1.581011E+06 -7.324245E+06 -1.200801E+06 -1.011919E+06 -3.297367E+05  1.650921E+05
         9  27 -1.346180E+06 -6.274078E+06 -9.300929E+05 -1.177779E+06 -3.735555E+05 -1.275772E+05
        10   1  1.211030E+06  4.638071E+06  9.065880E+05 -1.214254E+06  3.412344E+05 -4.719232E+04
        10   2  9.507468E+05  3.563867E+06  6.869365E+05 -1.100326E+06  2.909389E+05 -9.950467E+04
        10   3  7.081914E+05  2.501609E+06  5.054934E+05 -1.201024E+06  2.219987E+05 -1.519638E+05
        10   4  1.603780E+04 -4.911310E+05  4.846188E+04 -1.191768E+06  3.410955E+05  3.130706E+04
        10   5  1.028997E+04 -4.920478E+05  3.329701E+04 -1.084427E+06  2.904764E+05  1.461137E+04
        10   6  1.620970E+04 -4.882516E+05  3.177035E+04 -1.191792E+06  2.211497E+05 -2.316479E+03
        10   7 -1.180323E+06 -5.594480E+06 -8.104597E+05 -1.169421E+06  3.409616E+05  1.091822E+05
        10   8 -9.309896E+05 -4.531660E+06 -6.207403E+05 -1.068600E+06  2.900177E+05  1.280113E+05
        10   9 -6.762043E+05 -3.469186E+06 -4.420954E+05 -1.182585E+06  2.203024E+05  1.466387E+05
        10  10  1.210905E+06  4.638037E+06  9.063652E+05 -1.214241E+06 -5.269644E-10  1.111989E-08
        10  11  9.506534E+05  3.563834E+06  6.867592E+05 -1.100303E+06 -3.752795E-09  3.356128E-09
        10  12  7.081324E+05  2.501571E+06  5.053579E+05 -1.200997E+06 -2.729201E-09 -3.487937E-09
        10  13  1.591261E+04 -4.911633E+05  4.824136E+04 -1.191777E+06 -2.863864E-09  1.291432E-10
        10  14  1.019932E+04 -4.920707E+05  3.313806E+04 -1.084430E+06 -8.646945E-10  2.383325E-10
        10  15  1.615720E+04 -4.882647E+05  3.167846E+04 -1.191792E+06 -3.091710E-09  1.740985E-11
        10  16 -1.180451E+06 -5.594524E+06 -8.107010E+05 -1.169451E+06  6.495407E-10 -1.064508E-08
        10  17 -9.310844E+05 -4.531700E+06 -6.209296E+05 -1.068630E+06  2.573117E-09 -3.278477E-09
        10  18 -6.762623E+05 -3.469222E+06 -4.422275E+05 -1.182611E+06 -3.582870E-09  3.734656E-09
        10  19  1.211030E+06  4.638071E+06  9.065880E+05 -1.214254E+06 -3.412344E+05  4.719232E+04
        10  20  9.507468E+05  3.563867E+06  6.869365E+05 -1.100326E+06 -2.909389E+05  9.950467E+04
        10  21  7.081914E+05  2.501609E+06  5.054934E+05 -1.201024E+06 -2.219987E+05  1.519638E+05
        10  22  1.603780E+04 -4.911310E+05  4.846188E+04 -1.191768E+06 -3.410955E+05 -3.130706E+04
        10  23  1.028997E+04 -4.920478E+05  3.329701E+04 -1.084427E+06 -2.904764E+05 -1.461137E+04
        10  24  1.620970E+04 -4.882516E+05  3.177035E+04 -1.191792E+06 -2.211497E+05  2.316479E+03
        10  25 -1.180323E+06 -5.594480E+06 -8.104597E+05 -1.169421E+06 -3.409616E+05 -1.091822E+05
        10  26 -9.309896E+05 -4.531660E+06 -6.207403E+05 -1.068600E+06 -2.900177E+05 -1.280113E+05
        10  27 -6.762043E+05 -3.469186E+06 -4.420954E+05 -1.182585E+06 -2.203024E+05 -1.466387E+05
        11   1  5.509569E+05  1.821821E+06  3.954501E+05 -1.204090E+06  1.755053E+05 -1.565146E+05
        11   2  3.206288E+05  7.486978E+05  2.401730E+05 -1.062669E+06  9.830346E+04 -1.788296E+05
        11   3  1.366516E+05 -3.109840E+05  1.103450E+05 -1.136976E+06  2.301018E+04 -2.011687E+05
        11   4  1.753317E+04 -4.857484E+05  3.436071E+04 -1.192053E+06  1.745843E+05 -7.760176E+03
        11   5  3.494519E+04 -4.917396E+05  5.000855E+04 -1.083979E+06  9.735518E+04 -3.378485E+04
        11   6  9.941360E+04 -4.848383E+05  9.362683E+04 -1.191600E+06  2.203806E+04 -5.986635E+04
        11   7 -5.161404E+05 -2.787968E+06 -3.267737E+05 -1.180050E+06  1.736668E+05  1.404633E+05
        11   8 -2.507993E+05 -1.730592E+06 -1.401103E+05 -1.105241E+06  9.639568E+04  1.109816E+05
        11   9  6.219681E+04 -6.586112E+05  7.698594E+04 -1.246208E+06  2.104087E+04  8.139888E+04
        11  10  5.509174E+05  1.821787E+06  3.953466E+05 -1.204068E+06 -3.135761E-09  3.136530E-09
        11  11  3.206099E+05  7.486610E+05  2.400950E+05 -1.062655E+06 -1.908861E-09  1.202144E-09
        11  12  1.366401E+05 -3.110276E+05  1.102680E+05 -1.136972E+06 -5.256334E-10 -7.055905E-10
        11  13  1.750043E+04 -4.857566E+05  3.430335E+04 -1.192052E+06 -6.215643E-10 -3.388227E-11
        11  14  3.493472E+04 -4.917434E+05  4.998862E+04 -1.083976E+06  1.065836E-09 -3.463707E-11
        11  15  9.941212E+04 -4.848423E+05  9.361919E+04 -1.191599E+06 -6.765778E-10 -1.164438E-10
        11  16 -5.161781E+05 -2.787998E+06 -3.268678E+05 -1.180070E+06 -2.954054E-09 -2.915772E-09
        11  17 -2.508126E+05 -1.730607E+06 -1.401510E+05 -1.105250E+06 -1.006789E-09 -1.298130E-09
        11  18  6.219454E+04 -6.586184E+05  7.697263E+04 -1.246209E+06  2.154732E-10  5.442057E-10
        11  19  5.509569E+05  1.821821E+06  3.954501E+05 -1.204090E+06 -1.755053E+05  1.565146E+05
        11  20  3.206288E+05  7.486978E+05  2.401730E+05 -1.062669E+06 -9.830346E+04  1.788296E+05
        11  21  1.366516E+05 -3.109840E+05  1.103450E+05 -1.136976E+06 -2.301018E+04  2.011687E+05
        11  22  1.753317E+04 -4.857484E+05  3.436071E+04 -1.192053E+06 -1.745843E+05  7.760176E+03
        11  23  3.494519E+04 -4.917396E+05  5.000855E+04 -1.083979E+06 -9.735518E+04  3.378485E+04
        11  24  9.941360E+04 -4.848383E+05  9.362683E+04 -1.191600E+06 -2.203806E+04  5.986635E+04
        11  25 -5.161404E+05 -2.787968E+06 -3.267737E+05 -1.180050E+06 -1.736668E+05 -1.404633E+05
        11  26 -2.507993E+05 -1.730592E+06 -1.401103E+05 -1.105241E+06 -9.639568E+04 -1.109816E+05
        11  27  6.219681E+04 -6.586112E+05  7.698594E+04 -1.246208E+06 -2.104087E+04 -8.139888E+04
        12   1 -4.236703E+06 -1.221722E+06 -7.066767E+05 -1.544222E+06 -4.040986E+05 -1.481445E+05
        12   2 -4.124662E+06 -6.048438E+05 -3.248902E+05 -1.598672E+06 -2.593127E+05 -8.795567E+04
        12   3 -4.223073E+06 -5.882423E+05 -2.103187E+05 -1.533540E+06 -1.118797E+05 -3.479715E+04
        12   4 -4.053902E+06 -1.018553E+06 -6.300913E+05 -1.356644E+06 -4.000606E+05 -1.467412E+05
        12   5 -3.916138E+06 -4.881955E+05 -2.622896E+05 -1.502633E+06 -2.585621E+05 -8.769468E+04
        12   6 -3.988093E+06 -5.573794E+05 -1.590206E+05 -1.529073E+06 -1.144100E+05 -3.573200E+04
        12   7 -3.871023E+06 -8.152528E+05 -5.535016E+05 -1.168993E+06 -3.960213E+05 -1.453352E+05
        12   8 -3.707568E+06 -3.715259E+05 -1.996930E+05 -1.406560E+06 -2.578112E+05 -8.743345E+04
        12   9 -3.753052E+06 -5.265142E+05 -1.077235E+05 -1.524610E+06 -1.169413E+05 -3.666665E+04
        12  10 -4.236885E+06 -1.221790E+06 -7.070275E+05 -1.544270E+06 -3.237730E-10 -2.720014E-11
        12  11 -4.124737E+06 -6.048704E+05 -3.250322E+05 -1.598690E+06 -1.299209E-10  8.800246E-10
        12  12 -4.223086E+06 -5.882470E+05 -2.103447E+05 -1.533543E+06  1.181344E-09  1.500491E-09
        12  13 -4.054081E+06 -1.018620E+06 -6.304351E+05 -1.356692E+06 -2.921893E-11  1.645355E-10
        12  14 -3.916213E+06 -4.882219E+05 -2.624307E+05 -1.502652E+06  3.001562E-09  5.170845E-10
        12  15 -3.988107E+06 -5.573844E+05 -1.590478E+05 -1.529076E+06  1.291529E-09  1.137150E-09
        12  16 -3.871198E+06 -8.153181E+05 -5.538383E+05 -1.169039E+06 -2.735709E-09  8.347610E-11
        12  17 -3.707642E+06 -3.715521E+05 -1.998332E+05 -1.406579E+06  5.465474E-10  8.000710E-10
        12  18 -3.753067E+06 -5.265194E+05 -1.077519E+05 -1.524613E+06  2.314005E-09  6.180901E-10
        12  19 -4.236703E+06 -1.221722E+06 -7.066767E+05 -1.544222E+06  4.040986E+05  1.481445E+05
        12  20 -4.124662E+06 -6.048438E+05 -3.248902E+05 -1.598672E+06  2.593127E+05  8.795567E+04
        12  21 -4.223073E+06 -5.882423E+05 -2.103187E+05 -1.533540E+06  1.118797E+05  3.479715E+04
        12  22 -4.053902E+06 -1.018553E+06 -6.300913E+05 -1.356644E+06  4.000606E+05  1.467412E+05
        12  23 -3.916138E+06 -4.881955E+05 -2.622896E+05 -1.502633E+06  2.585621E+05  8.769468E+04
        12  24 -3.988093E+06 -5.573794E+05 -1.590206E+05 -1.529073E+06  1.144100E+05  3.573200E+04
        12  25 -3.871023E+06 -8.152528E+05 -5.535016E+05 -1.168993E+06  3.960213E+05  1.453352E+05
        12  26 -3.707568E+06 -3.715259E+05 -1.996930E+05 -1.406560E+06  2.578112E+05  8.743345E+04
        12  27 -3.753052E+06 -5.265142E+05 -1.077235E+05 -1.524610E+06  1.169413E+05  3.666665E+04
        13   1 -4.083698E+06 -6.812349E+05 -1.629784E+05 -1.537559E+06 -9.050317E+04 -2.923700E+04
        13   2 -4.039993E+06 -5.853762E+05 -8.290226E+04 -1.518107E+06 -5.751636E+04 -1.854131E+04
        13   3 -3.997337E+06 -5.806093E+05 -4.449836E+04 -1.514195E+06 -2.430356E+04 -8.438914E+03
        13   4 -3.967129E+06 -6.238408E+05 -1.294108E+05 -1.491940E+06 -9.105475E+04 -2.944606E+04
        13   5 -3.962991E+06 -5.529552E+05 -6.180951E+04 -1.493630E+06 -5.834121E+04 -1.885055E+04
        13   6 -3.959842E+06 -5.731009E+05 -3.565509E+04 -1.510862E+06 -2.540401E+04 -8.850477E+03
        13   7 -3.850547E+06 -5.664428E+05 -9.584450E+04 -1.446312E+06 -9.160645E+04 -2.965519E+04
        13   8 -3.885983E+06 -5.205335E+05 -4.071737E+04 -1.469150E+06 -5.916618E+04 -1.915983E+04
        13   9 -3.922346E+06 -5.655925E+05 -2.681193E+04 -1.507529E+06 -2.650454E+04 -9.262036E+03
        13  10 -4.083707E+06 -6.812381E+05 -1.629955E+05 -1.537562E+06 -2.241750E-09  1.480806E-09
        13  11 -4.039997E+06 -5.853775E+05 -8.290917E+04 -1.518108E+06 -1.345721E-09 -9.354655E-10
        13  12 -3.997338E+06 -5.806095E+05 -4.449961E+04 -1.514196E+06  2.526355E-09 -2.011214E-09
        13  13 -3.967138E+06 -6.238440E+05 -1.294281E+05 -1.491942E+06 -2.705426E-11  1.124664E-09
        13  14 -3.962995E+06 -5.529565E+05 -6.181663E+04 -1.493631E+06  2.679752E-09 -4.024348E-10
        13  15 -3.959843E+06 -5.731011E+05 -3.565646E+04 -1.510863E+06  7.701585E-10 -1.774669E-09
        13  16 -3.850556E+06 -5.664460E+05 -9.586204E+04 -1.446314E+06  1.475106E-09  1.101951E-09
        13  17 -3.885987E+06 -5.205348E+05 -4.072469E+04 -1.469151E+06  1.769538E-09 -1.438822E-10
        13  18 -3.922347E+06 -5.655928E+05 -2.681343E+04 -1.507530E+06  1.155838E-09 -2.114190E-09
        13  19 -4.083698E+06 -6.812349E+05 -1.629784E+05 -1.537559E+06  9.050317E+04  2.923700E+04
        13  20 -4.039993E+06 -5.853762E+05 -8.290226E+04 -1.518107E+06  5.751636E+04  1.854131E+04
        13  21 -3.997337E+06 -5.806093E+05 -4.449836E+04 -1.514195E+06  2.430356E+04  8.438914E+03
        13  22 -3.967129E+06 -6.238408E+05 -1.294108E+05 -1.491940E+06  9.105475E+04  2.944606E+04
        13  23 -3.962991E+06 -5.529552E+05 -6.180951E+04 -1.493630E+06  5.834121E+04  1.885055E+04
        13  24 -3.959842E+06 -5.731009E+05 -3.565509E+04 -1.510862E+06  2.540401E+04  8.850477E+03
        13  25 -3.850547E+06 -5.664428E+05 -9.584450E+04 -1.446312E+06  9.160645E+04  2.965519E+04
        13  26 -3.885983E+06 -5.205335E+05 -4.071737E+04 -1.469150E+06  5.916618E+04  1.915983E+04
        13  27 -3.922346E+06 -5.655925E+05 -2.681193E+04 -1.507529E+06  2.650454E+04  9.262036E+03
        14   1 -3.919693E+06 -5.672663E+05 -1.796864E+04 -1.497674E+06 -1.886253E+04 -7.872377E+03
        14   2 -3.884982E+06 -5.291288E+05  7.728713E+03 -1.470354E+06 -1.077805E+04 -7.137123E+03
        14   3 -3.826764E+06 -5.252016E+05  2.603125E+04 -1.472604E+06 -2.689718E+03 -6.409150E+03
        14   4 -3.957185E+06 -5.801976E+05 -2.785435E+04 -1.506605E+06 -1.980233E+04 -8.224187E+03
        14   5 -3.968549E+06 -5.603607E+05 -1.440809E+04 -1.492838E+06 -1.172179E+04 -7.490482E+03
        14   6 -3.956404E+06 -5.747340E+05 -8.352901E+03 -1.508644E+06 -3.638010E+03 -6.764303E+03
        14   7 -3.994676E+06 -5.931290E+05 -3.774025E+04 -1.515535E+06 -2.074208E+04 -8.575981E+03
        14   8 -4.052109E+06 -5.915924E+05 -3.654559E+04 -1.515321E+06 -1.266540E+04 -7.843790E+03
        14   9 -4.086029E+06 -6.242653E+05 -4.273863E+04 -1.544677E+06 -4.586087E+03 -7.119372E+03
        14  10 -3.919693E+06 -5.672665E+05 -1.796943E+04 -1.497674E+06  3.153924E-10 -1.067469E-09
        14  11 -3.884982E+06 -5.291289E+05  7.728397E+03 -1.470354E+06  2.469657E-09  8.033615E-10
        14  12 -3.826764E+06 -5.252017E+05  2.603116E+04 -1.472604E+06  2.055067E-10  1.316316E-09
        14  13 -3.957185E+06 -5.801978E+05 -2.785522E+04 -1.506605E+06 -1.965735E-09 -1.214176E-09
        14  14 -3.968549E+06 -5.603608E+05 -1.440845E+04 -1.492839E+06 -4.817425E-10  1.365206E-09
        14  15 -3.956404E+06 -5.747340E+05 -8.353013E+03 -1.508644E+06 -2.483710E-09  5.606343E-10
        14  16 -3.994677E+06 -5.931292E+05 -3.774120E+04 -1.515536E+06 -1.250254E-09 -9.503638E-10
        14  17 -4.052109E+06 -5.915925E+05 -3.654601E+04 -1.515321E+06  6.598077E-10  7.561764E-10
        14  18 -4.086029E+06 -6.242653E+05 -4.273877E+04 -1.544677E+06 -1.159602E-09  5.801120E-10
        14  19 -3.919693E+06 -5.672663E+05 -1.796864E+04 -1.497674E+06  1.886253E+04  7.872377E+03
        14  20 -3.884982E+06 -5.291288E+05  7.728713E+03 -1.470354E+06  1.077805E+04  7.137123E+03
        14  21 -3.826764E+06 -5.252016E+05  2.603125E+04 -1.472604E+06  2.689718E+03  6.409150E+03
        14  22 -3.957185E+06 -5.801976E+05 -2.785435E+04 -1.506605E+06  1.980233E+04  8.224187E+03
        14  23 -3.968549E+06 -5.603607E+05 -1.440809E+04 -1.492838E+06  1.172179E+04  7.490482E+03
        14  24 -3.956404E+06 -5.747340E+05 -8.352901E+03 -1.508644E+06  3.638010E+03  6.764303E+03
        14  25 -3.994676E+06 -5.931290E+05 -3.774025E+04 -1.515535E+06  2.074208E+04  8.575981E+03
        14  26 -4.052109E+06 -5.915924E+05 -3.654559E+04 -1.515321E+06  1.266540E+04  7.843790E+03
        14  27 -4.086029E+06 -6.242653E+05 -4.273863E+04 -1.544677E+06  4.586087E+03  7.119372E+03
        15   1 -3.759709E+06 -5.010226E+05  4.579976E+04 -1.454278E+06 -1.050767E+03 -7.126862E+03
        15   2 -3.728759E+06 -4.714695E+05  5.955556E+04 -1.428179E+06  1.703771E+03 -8.294149E+03
        15   3 -3.673234E+06 -4.678685E+05  7.158005E+04 -1.430689E+06  4.423985E+03 -9.365919E+03
        15   4 -3.956482E+06 -5.750121E+05 -6.580544E+03 -1.507647E+06 -1.977243E+03 -7.473998E+03
        15   5 -3.968743E+06 -5.618099E+05 -4.134118E+03 -1.493430E+06  8.213181E+02 -8.625081E+03
        15   6 -3.956440E+06 -5.745694E+05 -3.454361E+03 -1.507822E+06  3.585400E+03 -9.680679E+03
        15   7 -4.153216E+06 -6.489989E+05 -5.896395E+04 -1.561000E+06 -2.903389E+03 -7.821012E+03
        15   8 -4.208671E+06 -6.521466E+05 -6.782869E+04 -1.558657E+06 -6.075604E+01 -8.955871E+03
        15   9 -4.239569E+06 -6.812656E+05 -7.849587E+04 -1.584923E+06  2.747236E+03 -9.995281E+03
        15  10 -3.759709E+06 -5.010226E+05  4.579966E+04 -1.454278E+06  5.263798E-10 -2.100429E-10
        15  11 -3.728759E+06 -4.714696E+05  5.955542E+04 -1.428179E+06 -4.613405E-09  1.160891E-09
        15  12 -3.673234E+06 -4.678686E+05  7.157985E+04 -1.430689E+06 -4.093387E-09  9.438317E-10
        15  13 -3.956482E+06 -5.750121E+05 -6.580656E+03 -1.507647E+06 -1.214052E-10  3.863576E-11
        15  14 -3.968743E+06 -5.618099E+05 -4.134259E+03 -1.493430E+06 -3.390670E-09  6.276180E-10
        15  15 -3.956440E+06 -5.745695E+05 -3.454561E+03 -1.507822E+06  1.502118E-10  1.409528E-09
        15  16 -4.153216E+06 -6.489990E+05 -5.896408E+04 -1.561000E+06  3.129779E-09 -1.742796E-10
        15  17 -4.208671E+06 -6.521467E+05 -6.782884E+04 -1.558657E+06  8.330473E-10  1.026935E-09
        15  18 -4.239569E+06 -6.812657E+05 -7.849607E+04 -1.584923E+06  1.984200E-09  1.215237E-09
        15  19 -3.759709E+06 -5.010226E+05  4.579976E+04 -1.454278E+06  1.050767E+03  7.126862E+03
        15  20 -3.728759E+06 -4.714695E+05  5.955556E+04 -1.428179E+06 -1.703771E+03  8.294149E+03
        15  21 -3.673234E+06 -4.678685E+05  7.158005E+04 -1.430689E+06 -4.423985E+03  9.365919E+03
        15  22 -3.956482E+06 -5.750121E+05 -6.580544E+03 -1.507647E+06  1.977243E+03  7.473998E+03
        15  23 -3.968743E+06 -5.618099E+05 -4.134118E+03 -1.493430E+06 -8.213181E+02  8.625081E+03
        15  24 -3.956440E+06 -5.745694E+05 -3.454361E+03 -1.507822E+06 -3.585400E+03  9.680679E+03
        15  25 -4.153216E+06 -6.489989E+05 -5.896395E+04 -1.561000E+06  2.903389E+03  7.821012E+03
        15  26 -4.208671E+06 -6.521466E+05 -6.782869E+04 -1.558657E+06  6.075604E+01  8.955871E+03
        15  27 -4.239569E+06 -6.812656E+05 -7.849587E+04 -1.584923E+06 -2.747236E+03  9.995281E+03
        16   1 -3.614923E+06 -4.448349E+05  8.746743E+04 -1.413825E+06  5.369233E+03 -1.018830E+04
        16   2 -3.588872E+06 -4.201638E+05  9.586160E+04 -1.391516E+06  8.275889E+03 -1.100124E+04
        16   3 -3.542050E+06 -4.177179E+05  1.023325E+05 -1.393295E+06  1.112323E+04 -1.165125E+04
        16   4 -3.957294E+06 -5.736844E+05 -3.543096E+03 -1.506847E+06  4.547598E+03 -1.049695E+04
        16   5 -3.967723E+06 -5.629125E+05 -4.700135E+03 -1.494672E+06  7.529205E+03 -1.128216E+04
        16   6 -3.957396E+06 -5.743821E+05 -7.840902E+03 -1.506587E+06  1.045133E+04 -1.190445E+04
        16   7 -4.299551E+06 -7.025267E+05 -9.456358E+04 -1.599821E+06  3.726466E+03 -1.080542E+04
        16   8 -4.346434E+06 -7.056527E+05 -1.052743E+05 -1.597771E+06  6.783023E+03 -1.156290E+04
        16   9 -4.372577E+06 -7.310362E+05 -1.180296E+05 -1.619810E+06  9.779934E+03 -1.215746E+04
        16  10 -3.614923E+06 -4.448350E+05  8.746718E+04 -1.413825E+06  6.961858E-10  4.558313E-10
        16  11 -3.588872E+06 -4.201639E+05  9.586124E+04 -1.391516E+06  1.029860E-09 -8.188016E-10
        16  12 -3.542050E+06 -4.177180E+05  1.023320E+05 -1.393295E+06  5.798639E-10 -8.235053E-11
        16  13 -3.957294E+06 -5.736846E+05 -3.543341E+03 -1.506846E+06  1.805052E-09  6.434172E-10
        16  14 -3.967723E+06 -5.629127E+05 -4.700480E+03 -1.494672E+06  1.193147E-09 -5.040301E-11
        16  15 -3.957397E+06 -5.743823E+05 -7.841373E+03 -1.506587E+06  1.425404E-09 -2.388062E-10
        16  16 -4.299551E+06 -7.025268E+05 -9.456382E+04 -1.599821E+06  6.339934E-10  5.758714E-10
        16  17 -4.346434E+06 -7.056528E+05 -1.052747E+05 -1.597771E+06 -3.339960E-10  5.902435E-10
        16  18 -4.372577E+06 -7.310364E+05 -1.180301E+05 -1.619810E+06  2.613843E-09 -1.906772E-10
        16  19 -3.614923E+06 -4.448349E+05  8.746743E+04 -1.413825E+06 -5.369233E+03  1.018830E+04
        16  20 -3.588872E+06 -4.201638E+05  9.586160E+04 -1.391516E+06 -8.275889E+03  1.100124E+04
        16  21 -3.542050E+06 -4.177179E+05  1.023325E+05 -1.393295E+06 -1.112323E+04  1.165125E+04
        16  22 -3.957294E+06 -5.736844E+05 -3.543096E+03 -1.506847E+06 -4.547598E+03  1.049695E+04
        16  23 -3.967723E+06 -5.629125E+05 -4.700135E+03 -1.494672E+06 -7.529205E+03  1.128216E+04
        16  24 -3.957396E+06 -5.743821E+05 -7.840902E+03 -1.506587E+06 -1.045133E+04  1.190445E+04
        16  25 -4.299551E+06 -7.025267E+05 -9.456358E+04 -1.599821E+06 -3.726466E+03  1.080542E+04
        16  26 -4.346434E+06 -7.056527E+05 -1.052743E+05 -1.597771E+06 -6.783023E+03  1.156290E+04
        16  27 -4.372577E+06 -7.310362E+05 -1.180296E+05 -1.619810E+06 -9.779934E+03  1.215746E+04
        17   1 -3.495812E+06 -3.985051E+05  1.128964E+05 -1.380491E+06  1.289649E+04 -1.193678E+04
        17   2 -3.475962E+06 -3.784477E+05  1.124882E+05 -1.362654E+06  2.214492E+04 -9.916794E+03
        17   3 -3.444325E+06 -3.827474E+05  1.032881E+05 -1.360871E+06  3.128498E+04 -7.603875E+03
        17   4 -3.959028E+06 -5.722531E+05 -1.003334E+04 -1.505783E+06  1.222484E+04 -1.219015E+04
        17   5 -3.965385E+06 -5.634096E+05 -1.752100E+04 -1.496495E+06  2.160380E+04 -1.012148E+04
        17   6 -3.959982E+06 -5.789552E+05 -3.390987E+04 -1.503262E+06  3.087395E+04 -7.759971E+03
        17   7 -4.422036E+06 -7.459888E+05 -1.329817E+05 -1.630991E+06  1.155374E+04 -1.244332E+04
        17   8 -4.454573E+06 -7.483565E+05 -1.475509E+05 -1.630240E+06  2.106316E+04 -1.032600E+04
        17   9 -4.475379E+06 -7.751451E+05 -1.711307E+05 -1.645545E+06  3.046329E+04 -7.915926E+03
        17  10 -3.495812E+06 -3.985053E+05  1.128958E+05 -1.380491E+06  1.252523E-09  1.002377E-09
        17  11 -3.475963E+06 -3.784479E+05  1.124871E+05 -1.362654E+06 -1.759831E-09 -8.235518E-10
        17  12 -3.444326E+06 -3.827478E+05  1.032861E+05 -1.360871E+06 -1.817056E-09  8.124152E-10
        17  13 -3.959029E+06 -5.722533E+05 -1.003390E+04 -1.505783E+06  4.398036E-09 -6.490332E-10
        17  14 -3.965385E+06 -5.634099E+05 -1.752207E+04 -1.496495E+06 -2.944892E-09 -1.296469E-09
        17  15 -3.959983E+06 -5.789555E+05 -3.391178E+04 -1.503262E+06 -2.013766E-09  5.993392E-10
        17  16 -4.422037E+06 -7.459890E+05 -1.329822E+05 -1.630991E+06 -2.078301E-09 -9.220582E-10
        17  17 -4.454574E+06 -7.483568E+05 -1.475519E+05 -1.630240E+06 -4.837019E-09 -1.320904E-09
        17  18 -4.475380E+06 -7.751454E+05 -1.711325E+05 -1.645545E+06  2.931031E-12  5.439364E-10
        17  19 -3.495812E+06 -3.985051E+05  1.128964E+05 -1.380491E+06 -1.289649E+04  1.193678E+04
        17  20 -3.475962E+06 -3.784477E+05  1.124882E+05 -1.362654E+06 -2.214492E+04  9.916794E+03
        17  21 -3.444325E+06 -3.827474E+05  1.032881E+05 -1.360871E+06 -3.128498E+04  7.603875E+03
        17  22 -3.959028E+06 -5.722531E+05 -1.003334E+04 -1.505783E+06 -1.222484E+04  1.219015E+04
        17  23 -3.965385E+06 -5.634096E+05 -1.752100E+04 -1.496495E+06 -2.160380E+04  1.012148E+04
        17  24 -3.959982E+06 -5.789552E+05 -3.390987E+04 -1.503262E+06 -3.087395E+04  7.759971E+03
        17  25 -4.422036E+06 -7.459888E+05 -1.329817E+05 -1.630991E+06 -1.155374E+04  1.244332E+04
        17  26 -4.454573E+06 -7.483565E+05 -1.475509E+05 -1.630240E+06 -2.106316E+04  1.032600E+04
        17  27 -4.475379E+06 -7.751451E+05 -1.711307E+05 -1.645545E+06 -3.046329E+04  7.915926E+03
        18   1 -3.410240E+06 -3.674810E+05  1.023500E+05 -1.363568E+06  3.805735E+04 -5.857947E+03
        18   2 -3.395724E+06 -3.398614E+05  7.448992E+04 -1.341706E+06  7.693701E+04  7.933338E+03
        18   3 -3.405824E+06 -3.989339E+05 -3.269827E+03 -1.310992E+06  1.153094E+05  2.307207E+04
        18   4 -3.964647E+06 -5.688133E+05 -4.341530E+04 -1.506779E+06  3.736470E+04 -6.119835E+03
        18   5 -3.956758E+06 -5.562371E+05 -7.536053E+04 -1.499597E+06  7.684177E+04  7.895370E+03
        18   6 -3.973635E+06 -6.305191E+05 -1.577164E+05 -1.483557E+06  1.158108E+05  2.325646E+04
        18   7 -4.518757E+06 -7.701333E+05 -1.892072E+05 -1.649878E+06  3.667271E+04 -6.381494E+03
        18   8 -4.517487E+06 -7.725902E+05 -2.252389E+05 -1.657357E+06  7.674658E+04  7.857427E+03
        18   9 -4.541131E+06 -8.620697E+05 -3.121922E+05 -1.655973E+06  1.163117E+05  2.344060E+04
        18  10 -3.410241E+06 -3.674814E+05  1.023472E+05 -1.363568E+06  4.332939E-10  1.767150E-09
        18  11 -3.395730E+06 -3.398631E+05  7.447862E+04 -1.341707E+06 -2.837339E-09 -1.471704E-09
        18  12 -3.405838E+06 -3.989381E+05 -3.295972E+03 -1.310994E+06 -2.013074E-09 -3.682704E-10
        18  13 -3.964648E+06 -5.688137E+05 -4.341801E+04 -1.506779E+06 -1.298264E-09  5.453624E-10
        18  14 -3.956765E+06 -5.562388E+05 -7.537182E+04 -1.499597E+06  6.664134E-09 -1.333782E-09
        18  15 -3.973649E+06 -6.305233E+05 -1.577428E+05 -1.483559E+06 -1.648208E-09 -1.950346E-09
        18  16 -4.518758E+06 -7.701337E+05 -1.892099E+05 -1.649878E+06 -1.214449E-09 -1.037554E-10
        18  17 -4.517494E+06 -7.725919E+05 -2.252502E+05 -1.657357E+06  3.769958E-09 -1.775624E-11
        18  18 -4.541146E+06 -8.620740E+05 -3.122189E+05 -1.655975E+06  2.395155E-10 -1.473302E-09
        18  19 -3.410240E+06 -3.674810E+05  1.023500E+05 -1.363568E+06 -3.805735E+04  5.857947E+03
        18  20 -3.395724E+06 -3.398614E+05  7.448992E+04 -1.341706E+06 -7.693701E+04 -7.933338E+03
        18  21 -3.405824E+06 -3.989339E+05 -3.269827E+03 -1.310992E+06 -1.153094E+05 -2.307207E+04
        18  22 -3.964647E+06 -5.688133E+05 -4.341530E+04 -1.506779E+06 -3.736470E+04  6.119835E+03
        18  23 -3.956758E+06 -5.562371E+05 -7.536053E+04 -1.499597E+06 -7.684177E+04 -7.895370E+03
        18  24 -3.973635E+06 -6.305191E+05 -1.577164E+05 -1.483557E+06 -1.158108E+05 -2.325646E+04
        18  25 -4.518757E+06 -7.701333E+05 -1.892072E+05 -1.649878E+06 -3.667271E+04  6.381494E+03
        18  26 -4.517487E+06 -7.725902E+05 -2.252389E+05 -1.657357E+06 -7.674658E+04 -7.857427E+03
        18  27 -4.541131E+06 -8.620697E+05 -3.121922E+05 -1.655973E+06 -1.163117E+05 -2.344060E+04
        19   1 -3.354521E+06 -3.751787E+05 -3.615615E+04 -1.423226E+06  1.473770E+05  3.271231E+04
        19   2 -3.335664E+06 -2.186403E+05 -1.613721E+05 -1.309846E+06  3.157258E+05  9.652735E+04
        19   3 -3.600714E+06 -7.608687E+05 -6.036543E+05 -1.016022E+06  4.788210E+05  1.742300E+05
        19   4 -4.000022E+06 -5.486821E+05 -1.938145E+05 -1.527894E+06  1.440682E+05  3.147956E+04
        19   5 -3.898159E+06 -4.787513E+05 -3.197302E+05 -1.512214E+06  3.187611E+05  9.764563E+04
        19   6 -4.081764E+06 -1.109302E+06 -7.679919E+05 -1.315993E+06  4.882212E+05  1.776339E+05
        19   7 -4.645109E+06 -7.221961E+05 -3.514998E+05 -1.632486E+06  1.407632E+05  3.024730E+04
        19   8 -4.460338E+06 -7.387940E+05 -4.781177E+05 -1.714400E+06  3.217933E+05  9.876210E+04
        19   9 -4.562518E+06 -1.457469E+06 -9.323449E+05 -1.615693E+06  4.976133E+05  1.810284E+05
        19  10 -3.354545E+06 -3.751857E+05 -3.619925E+04 -1.423229E+06 -1.430812E-09  5.880478E-10
        19  11 -3.335774E+06 -2.186773E+05 -1.615782E+05 -1.309871E+06 -2.767768E-09  2.394274E-09
        19  12 -3.600970E+06 -7.609634E+05 -6.041452E+05 -1.016089E+06 -4.920709E-10  6.321624E-10
        19  13 -4.000045E+06 -5.486888E+05 -1.938557E+05 -1.527898E+06  2.384616E-09 -4.525404E-10
        19  14 -3.898271E+06 -4.787892E+05 -3.199406E+05 -1.512240E+06 -1.357559E-09  1.027110E-09
        19  15 -4.082030E+06 -1.109400E+06 -7.685029E+05 -1.316064E+06 -2.510074E-09  2.103146E-09
        19  16 -4.645131E+06 -7.222025E+05 -3.515391E+05 -1.632489E+06  1.701412E-10  2.570349E-10
        19  17 -4.460453E+06 -7.388326E+05 -4.783324E+05 -1.714426E+06 -7.093102E-12  2.344029E-09
        19  18 -4.562795E+06 -1.457571E+06 -9.328762E+05 -1.615766E+06 -6.550515E-10 -1.944682E-12
        19  19 -3.354521E+06 -3.751787E+05 -3.615615E+04 -1.423226E+06 -1.473770E+05 -3.271231E+04
        19  20 -3.335664E+06 -2.186403E+05 -1.613721E+05 -1.309846E+06 -3.157258E+05 -9.652735E+04
        19  21 -3.600714E+06 -7.608687E+05 -6.036543E+05 -1.016022E+06 -4.788210E+05 -1.742300E+05
        19  22 -4.000022E+06 -5.486821E+05 -1.938145E+05 -1.527894E+06 -1.440682E+05 -3.147956E+04
        19  23 -3.898159E+06 -4.787513E+05 -3.197302E+05 -1.512214E+06 -3.187611E+05 -9.764563E+04
        19  24 -4.081764E+06 -1.109302E+06 -7.679919E+05 -1.315993E+06 -4.882212E+05 -1.776339E+05
        19  25 -4.645109E+06 -7.221961E+05 -3.514998E+05 -1.632486E+06 -1.407632E+05 -3.024730E+04
        19  26 -4.460338E+06 -7.387940E+05 -4.781177E+05 -1.714400E+06 -3.217933E+05 -9.876210E+04
        19  27 -4.562518E+06 -1.457469E+06 -9.323449E+05 -1.615693E+06 -4.976133E+05 -1.810284E+05
        20   1 -1.341380E+06  3.428559E+04  4.331811E+04  1.077470E+04  2.960121E+04  5.148043E-01
        20   2 -1.347356E+06 -4.913290E+03  1.895653E+04  3.119422E+03  1.937321E+04  9.754509E-02
        20   3 -1.341405E+06 -1.763899E+03  1.185193E+04 -4.535667E+03  9.145332E+03 -6.695239E-02
        20   4 -1.341380E+06  3.428537E+04  4.331808E+04  1.022044E-08  2.960121E+04 -8.081493E-11
        20   5 -1.347356E+06 -4.913308E+03  1.895653E+04  8.822068E-09  1.937321E+04 -2.332684E-11
        20   6 -1.341405E+06 -1.763938E+03  1.185193E+04  1.819407E-08  9.145332E+03  2.533949E-10
        20   7 -1.341380E+06  3.428559E+04  4.331811E+04 -1.077470E+04  2.960121E+04 -5.148043E-01
        20   8 -1.347356E+06 -4.913290E+03  1.895653E+04 -3.119422E+03  1.937321E+04 -9.754509E-02
        20   9 -1.341405E+06 -1.763899E+03  1.185193E+04  4.535667E+03  9.145332E+03  6.695239E-02
        20  10 -1.341381E+06  3.428535E+04  4.331646E+04  1.077470E+04  2.097113E-09 -5.115960E-10
        20  11 -1.347357E+06 -4.913391E+03  1.895582E+04  3.119422E+03 -2.440281E-09 -8.921734E-10
        20  12 -1.341405E+06 -1.763921E+03  1.185177E+04 -4.535667E+03 -1.826343E-09  2.329975E-10
        20  13 -1.341381E+06  3.428513E+04  4.331643E+04 -2.769932E-09 -9.543843E-10 -3.794580E-10
        20  14 -1.347357E+06 -4.913409E+03  1.895582E+04  1.100214E-08  2.152816E-09 -7.505145E-10
        20  15 -1.341405E+06 -1.763960E+03  1.185177E+04  2.262989E-08 -3.235434E-09  3.146152E-10
        20  16 -1.341381E+06  3.428535E+04  4.331646E+04 -1.077470E+04 -7.265525E-10 -3.841463E-10
        20  17 -1.347357E+06 -4.913391E+03  1.895582E+04 -3.119422E+03 -2.452767E-10 -7.510193E-10
        20  18 -1.341405E+06 -1.763921E+03  1.185177E+04  4.535667E+03  2.126575E-09  3.725473E-10
        20  19 -1.341380E+06  3.428559E+04  4.331811E+04  1.077470E+04 -2.960121E+04 -5.148043E-01
        20  20 -1.347356E+06 -4.913290E+03  1.895653E+04  3.119422E+03 -1.937321E+04 -9.754509E-02
        20  21 -1.341405E+06 -1.763899E+03  1.185193E+04 -4.535667E+03 -9.145332E+03  6.695239E-02
        20  22 -1.341380E+06  3.428537E+04  4.331808E+04  1.867515E-08 -2.960121E+04 -7.200792E-10
        20  23 -1.347356E+06 -4.913308E+03  1.895653E+04  8.872519E-09 -1.937321E+04 -1.456921E-09
        20  24 -1.341405E+06 -1.763938E+03  1.185193E+04  2.758813E-08 -9.145332E+03  4.212084E-10
        20  25 -1.341380E+06  3.428559E+04  4.331811E+04 -1.077470E+04 -2.960121E+04  5.148043E-01
        20  26 -1.347356E+06 -4.913290E+03  1.895653E+04 -3.119422E+03 -1.937321E+04  9.754508E-02
        20  27 -1.341405E+06 -1.763899E+03  1.185193E+04  4.535667E+03 -9.145332E+03 -6.695239E-02
        21   1 -1.343728E+06  3.604678E+03  9.667265E+03  1.019942E+03  7.307059E+03  1.202944E-02
        21   2 -1.344455E+06 -5.339370E+02  4.907316E+03  2.554978E+02  4.792379E+03  1.976358E-03
        21   3 -1.343731E+06 -1.839539E+02  2.909410E+03 -5.089585E+02  2.277666E+03 -1.871110E-03
        21   4 -1.343728E+06  3.604676E+03  9.667265E+03  2.552543E-08  7.307059E+03 -1.144463E-12
        21   5 -1.344455E+06 -5.339371E+02  4.907316E+03  5.054724E-09  4.792379E+03 -5.299847E-10
        21   6 -1.343731E+06 -1.839544E+02  2.909410E+03 -1.003294E-08  2.277666E+03  1.978996E-10
        21   7 -1.343728E+06  3.604678E+03  9.667265E+03 -1.019942E+03  7.307059E+03 -1.202944E-02
        21   8 -1.344455E+06 -5.339370E+02  4.907316E+03 -2.554978E+02  4.792379E+03 -1.976359E-03
        21   9 -1.343731E+06 -1.839539E+02  2.909410E+03  5.089585E+02  2.277666E+03  1.871110E-03
        21  10 -1.343728E+06  3.604664E+03  9.667164E+03  1.019942E+03  7.234094E-10  3.761553E-10
        21  11 -1.344455E+06 -5.339432E+02  4.907272E+03  2.554978E+02  3.247855E-09 -3.420326E-10
        21  12 -1.343731E+06 -1.839553E+02  2.909400E+03 -5.089585E+02 -5.803458E-10 -1.953485E-10
        21  13 -1.343728E+06  3.604662E+03  9.667164E+03  2.542037E-08 -2.986015E-09  4.003229E-10
        21  14 -1.344455E+06 -5.339433E+02  4.907272E+03  5.031613E-09 -5.031688E-10 -4.908737E-10
        21  15 -1.343731E+06 -1.839558E+02  2.909400E+03 -2.396402E-08  1.712299E-09 -8.388868E-11
        21  16 -1.343728E+06  3.604664E+03  9.667164E+03 -1.019942E+03 -1.345656E-09  4.561185E-10
        21  17 -1.344455E+06 -5.339432E+02  4.907272E+03 -2.554978E+02 -7.088538E-10 -9.781494E-10
        21  18 -1.343731E+06 -1.839553E+02  2.909400E+03  5.089585E+02  2.843860E-10  1.373071E-10
        21  19 -1.343728E+06  3.604678E+03  9.667265E+03  1.019942E+03 -7.307059E+03 -1.202944E-02
        21  20 -1.344455E+06 -5.339370E+02  4.907316E+03  2.554978E+02 -4.792379E+03 -1.976358E-03
        21  21 -1.343731E+06 -1.839539E+02  2.909410E+03 -5.089585E+02 -2.277666E+03  1.871110E-03
        21  22 -1.343728E+06  3.604676E+03  9.667265E+03  1.669158E-08 -7.307059E+03  8.149315E-10
        21  23 -1.344455E+06 -5.339371E+02  4.907316E+03 -2.512301E-08 -4.792379E+03 -5.412276E-10
        21  24 -1.343731E+06 -1.839544E+02  2.909410E+03 -2.227379E-08 -2.277666E+03 -2.737731E-10
        21  25 -1.343728E+06  3.604678E+03  9.667265E+03 -1.019942E+03 -7.307059E+03  1.202944E-02
        21  26 -1.344455E+06 -5.339370E+02  4.907316E+03 -2.554978E+02 -4.792379E+03  1.976357E-03
        21  27 -1.343731E+06 -1.839539E+02  2.909410E+03  5.089585E+02 -2.277666E+03 -1.871110E-03
        22   1 -1.344010E+06  3.725534E+02  2.269000E+03  7.674911E+01  1.820351E+03  2.255046E-04
        22   2 -1.344109E+06 -5.935231E+01  1.213912E+03  7.598887E+00  1.211411E+03  1.485816E-05
        22   3 -1.344010E+06 -1.889638E+01  6.740071E+02 -6.155137E+01  6.024722E+02 -5.985354E-05
        22   4 -1.344010E+06  3.725534E+02  2.269000E+03 -1.146384E-08  1.820351E+03  3.325052E-11
        22   5 -1.344109E+06 -5.935231E+01  1.213912E+03 -1.668458E-08  1.211411E+03 -3.436702E-10
        22   6 -1.344010E+06 -1.889639E+01  6.740071E+02  4.455731E-09  6.024722E+02  1.755489E-09
        22   7 -1.344010E+06  3.725534E+02  2.269000E+03 -7.674911E+01  1.820351E+03 -2.255047E-04
        22   8 -1.344109E+06 -5.935231E+01  1.213912E+03 -7.598887E+00  1.211411E+03 -1.485933E-05
        22   9 -1.344010E+06 -1.889638E+01  6.740071E+02  6.155137E+01  6.024722E+02  5.985701E-05
        22  10 -1.344010E+06  3.725525E+02  2.268994E+03  7.674911E+01  8.152381E-10  6.817810E-11
        22  11 -1.344109E+06 -5.935271E+01  1.213909E+03  7.598887E+00  1.834859E-09  1.311593E-10
        22  12 -1.344010E+06 -1.889648E+01  6.740064E+02 -6.155137E+01  3.401410E-09  5.257831E-11
        22  13 -1.344010E+06  3.725525E+02  2.268994E+03 -4.162378E-08  9.923451E-10  8.966037E-11
        22  14 -1.344109E+06 -5.935271E+01  1.213909E+03 -2.313242E-08  3.576866E-09 -2.259887E-10
        22  15 -1.344010E+06 -1.889649E+01  6.740064E+02 -1.432437E-08  1.299781E-09  2.884302E-10
        22  16 -1.344010E+06  3.725525E+02  2.268994E+03 -7.674911E+01 -1.885143E-09  3.495263E-10
        22  17 -1.344109E+06 -5.935271E+01  1.213909E+03 -7.598887E+00  8.645257E-10 -4.688436E-10
        22  18 -1.344010E+06 -1.889648E+01  6.740064E+02  6.155137E+01 -8.891427E-10  5.411631E-10
        22  19 -1.344010E+06  3.725534E+02  2.269000E+03  7.674911E+01 -1.820351E+03 -2.255044E-04
        22  20 -1.344109E+06 -5.935231E+01  1.213912E+03  7.598887E+00 -1.211411E+03 -1.485775E-05
        22  21 -1.344010E+06 -1.889638E+01  6.740071E+02 -6.155137E+01 -6.024722E+02  5.985390E-05
        22  22 -1.344010E+06  3.725534E+02  2.269000E+03 -1.583243E-08 -1.820351E+03  1.641284E-10
        22  23 -1.344109E+06 -5.935231E+01  1.213912E+03 -3.819348E-08 -1.211411E+03 -5.330199E-11
        22  24 -1.344010E+06 -1.889639E+01  6.740071E+02 -2.127468E-08 -6.024722E+02 -1.147854E-09
        22  25 -1.344010E+06  3.725534E+02  2.269000E+03 -7.674911E+01 -1.820351E+03  2.255047E-04
        22  26 -1.344109E+06 -5.935231E+01  1.213912E+03 -7.598887E+00 -1.211411E+03  1.485789E-05
        22  27 -1.344010E+06 -1.889638E+01  6.740071E+02  6.155137E+01 -6.024722E+02 -5.985648E-05
        23   1 -1.344049E+06  3.707517E+01  4.904728E+02 -1.418444E+00  4.982052E+02 -1.138863E-06
        23   2 -1.344061E+06 -5.689166E+00  1.986674E+02 -6.100910E+00  3.992736E+02 -3.932277E-06
        23   3 -1.344049E+06 -6.435581E+00 -1.812283E+01 -1.078331E+01  3.003436E+02 -5.229059E-06
        23   4 -1.344049E+06  3.707517E+01  4.904728E+02  7.724887E-09  4.982052E+02  1.850958E-09
        23   5 -1.344061E+06 -5.689167E+00  1.986674E+02 -8.531985E-09  3.992736E+02 -3.749174E-10
        23   6 -1.344049E+06 -6.435582E+00 -1.812283E+01  3.064527E-08  3.003436E+02 -1.441301E-09
        23   7 -1.344049E+06  3.707517E+01  4.904728E+02  1.418444E+00  4.982052E+02  1.142505E-06
        23   8 -1.344061E+06 -5.689166E+00  1.986674E+02  6.100910E+00  3.992736E+02  3.931045E-06
        23   9 -1.344049E+06 -6.435581E+00 -1.812283E+01  1.078331E+01  3.003436E+02  5.226319E-06
        23  10 -1.344049E+06  3.707510E+01  4.904723E+02 -1.418444E+00  1.590984E-09  5.855002E-10
        23  11 -1.344061E+06 -5.689209E+00  1.986671E+02 -6.100910E+00 -2.716782E-09  5.077009E-10
        23  12 -1.344049E+06 -6.435606E+00 -1.812300E+01 -1.078331E+01  6.140897E-10 -1.092350E-09
        23  13 -1.344049E+06  3.707510E+01  4.904723E+02 -9.465847E-09 -1.369778E-09  7.190479E-10
        23  14 -1.344061E+06 -5.689209E+00  1.986671E+02  2.170988E-09 -8.334350E-10  4.910866E-10
        23  15 -1.344049E+06 -6.435606E+00 -1.812300E+01 -3.395519E-09 -1.302048E-09 -1.091163E-09
        23  16 -1.344049E+06  3.707510E+01  4.904723E+02  1.418444E+00 -1.791827E-10  9.195272E-10
        23  17 -1.344061E+06 -5.689209E+00  1.986671E+02  6.100910E+00 -2.694351E-10  4.743608E-10
        23  18 -1.344049E+06 -6.435606E+00 -1.812300E+01  1.078331E+01 -3.780042E-09 -8.599974E-10
        23  19 -1.344049E+06  3.707517E+01  4.904728E+02 -1.418444E+00 -4.982052E+02  1.140088E-06
        23  20 -1.344061E+06 -5.689166E+00  1.986674E+02 -6.100910E+00 -3.992736E+02  3.933476E-06
        23  21 -1.344049E+06 -6.435581E+00 -1.812283E+01 -1.078331E+01 -3.003436E+02  5.226793E-06
        23  22 -1.344049E+06  3.707517E+01  4.904728E+02 -8.400129E-10 -4.982052E+02 -3.706428E-10
        23  23 -1.344061E+06 -5.689167E+00  1.986674E+02 -8.649652E-09 -3.992736E+02  1.293844E-09
        23  24 -1.344049E+06 -6.435582E+00 -1.812283E+01  1.797681E-08 -3.003436E+02 -7.965254E-10
        23  25 -1.344049E+06  3.707517E+01  4.904728E+02  1.418444E+00 -4.982052E+02 -1.140640E-06
        23  26 -1.344061E+06 -5.689166E+00  1.986674E+02  6.100910E+00 -3.992736E+02 -3.930699E-06
        23  27 -1.344049E+06 -6.435581E+00 -1.812283E+01  1.078331E+01 -3.003436E+02 -5.228353E-06
        24   1 -1.344063E+06  5.775358E+00 -1.227453E+02 -1.352609E+01  3.130485E+02 -6.835748E-06
        24   2 -1.344043E+06  9.233195E+00 -3.718329E+02 -7.105629E+00  4.979568E+02 -5.710548E-06
        24   3 -1.344064E+06 -5.348899E+01 -7.580422E+02 -6.850710E-01  6.828677E+02 -7.533733E-07
        24   4 -1.344063E+06  5.775357E+00 -1.227453E+02  2.537158E-08  3.130485E+02 -1.069210E-09
        24   5 -1.344043E+06  9.233195E+00 -3.718329E+02  7.505084E-09  4.979568E+02  3.368320E-10
        24   6 -1.344064E+06 -5.348899E+01 -7.580422E+02  9.396386E-10  6.828677E+02  1.420937E-09
        24   7 -1.344063E+06  5.775358E+00 -1.227453E+02  1.352609E+01  3.130485E+02  6.833806E-06
        24   8 -1.344043E+06  9.233195E+00 -3.718329E+02  7.105629E+00  4.979568E+02  5.711311E-06
        24   9 -1.344064E+06 -5.348899E+01 -7.580422E+02  6.850709E-01  6.828677E+02  7.565563E-07
        24  10 -1.344063E+06  5.775331E+00 -1.227455E+02 -1.352609E+01  1.862925E-10 -1.358912E-09
        24  11 -1.344043E+06  9.233128E+00 -3.718334E+02 -7.105629E+00  7.438516E-10  6.426863E-10
        24  12 -1.344064E+06 -5.348912E+01 -7.580431E+02 -6.850709E-01 -3.469954E-09  1.073088E-09
        24  13 -1.344063E+06  5.775331E+00 -1.227455E+02 -3.294248E-10 -3.229172E-09 -1.118589E-09
        24  14 -1.344043E+06  9.233128E+00 -3.718334E+02  7.577575E-09 -3.593571E-09  4.971496E-10
        24  15 -1.344064E+06 -5.348912E+01 -7.580431E+02  1.009001E-08 -4.574183E-09  1.108655E-09
        24  16 -1.344063E+06  5.775331E+00 -1.227455E+02  1.352609E+01  6.536670E-10 -9.434635E-10
        24  17 -1.344043E+06  9.233128E+00 -3.718334E+02  7.105629E+00 -5.009190E-10  3.703415E-10
        24  18 -1.344064E+06 -5.348912E+01 -7.580431E+02  6.850709E-01  6.659165E-10  1.241118E-09
        24  19 -1.344063E+06  5.775358E+00 -1.227453E+02 -1.352609E+01 -3.130485E+02  6.833254E-06
        24  20 -1.344043E+06  9.233195E+00 -3.718329E+02 -7.105629E+00 -4.979568E+02  5.712164E-06
        24  21 -1.344064E+06 -5.348899E+01 -7.580422E+02 -6.850709E-01 -6.828677E+02  7.562502E-07
        24  22 -1.344063E+06  5.775357E+00 -1.227453E+02  8.441393E-09 -3.130485E+02 -1.197353E-09
        24  23 -1.344043E+06  9.233195E+00 -3.718329E+02  7.650065E-09 -4.979568E+02  7.039535E-10
        24  24 -1.344064E+06 -5.348899E+01 -7.580422E+02  1.763841E-08 -6.828677E+02  7.883230E-10
        24  25 -1.344063E+06  5.775358E+00 -1.227453E+02  1.352609E+01 -3.130485E+02 -6.835797E-06
        24  26 -1.344043E+06  9.233195E+00 -3.718329E+02  7.105629E+00 -4.979568E+02 -5.710938E-06
        24  27 -1.344064E+06 -5.348899E+01 -7.580422E+02  6.850710E-01 -6.828677E+02 -7.543078E-07
        25   1 -1.344118E+06  2.715097E+01 -1.011825E+03 -8.829573E+01  8.414172E+02 -1.199147E-04
        25   2 -1.343975E+06  8.601798E+01 -1.777018E+03  1.149325E+01  1.732681E+03  3.214361E-05
        25   3 -1.344119E+06 -5.389448E+02 -3.294359E+03  1.112823E+02  2.623943E+03  4.713117E-04
        25   4 -1.344118E+06  2.715095E+01 -1.011825E+03 -4.893666E-09  8.414172E+02  1.194194E-09
        25   5 -1.343975E+06  8.601798E+01 -1.777018E+03  9.493518E-09  1.732681E+03  3.845086E-10
        25   6 -1.344119E+06 -5.389449E+02 -3.294359E+03  2.010388E-08  2.623943E+03  6.075797E-10
        25   7 -1.344118E+06  2.715097E+01 -1.011825E+03  8.829573E+01  8.414172E+02  1.199169E-04
        25   8 -1.343975E+06  8.601798E+01 -1.777018E+03 -1.149325E+01  1.732681E+03 -3.214334E-05
        25   9 -1.344119E+06 -5.389448E+02 -3.294359E+03 -1.112823E+02  2.623943E+03 -4.713104E-04
        25  10 -1.344118E+06  2.715078E+01 -1.011826E+03 -8.829573E+01 -9.439437E-10  6.079365E-10
        25  11 -1.343975E+06  8.601717E+01 -1.777024E+03  1.149325E+01  4.158940E-10  5.932580E-12
        25  12 -1.344119E+06 -5.389467E+02 -3.294372E+03  1.112823E+02 -1.721631E-09 -3.263107E-10
        25  13 -1.344118E+06  2.715076E+01 -1.011826E+03 -1.358254E-08 -8.671368E-10  5.673580E-10
        25  14 -1.343975E+06  8.601717E+01 -1.777024E+03 -1.294563E-09  8.335173E-10 -4.260423E-10
        25  15 -1.344119E+06 -5.389467E+02 -3.294372E+03  3.471288E-09  9.309909E-11 -2.942453E-10
        25  16 -1.344118E+06  2.715078E+01 -1.011826E+03  8.829573E+01 -1.107979E-09  5.604403E-10
        25  17 -1.343975E+06  8.601717E+01 -1.777024E+03 -1.149325E+01 -1.275637E-09 -8.405605E-10
        25  18 -1.344119E+06 -5.389467E+02 -3.294372E+03 -1.112823E+02  5.689084E-10 -2.001160E-10
        25  19 -1.344118E+06  2.715097E+01 -1.011825E+03 -8.829573E+01 -8.414172E+02  1.199164E-04
        25  20 -1.343975E+06  8.601798E+01 -1.777018E+03  1.149325E+01 -1.732681E+03 -3.214367E-05
        25  21 -1.344119E+06 -5.389448E+02 -3.294359E+03  1.112823E+02 -2.623943E+03 -4.713120E-04
        25  22 -1.344118E+06  2.715095E+01 -1.011825E+03 -5.078571E-09 -8.414172E+02 -9.853940E-11
        25  23 -1.343975E+06  8.601798E+01 -1.777018E+03 -2.069903E-08 -1.732681E+03 -1.207617E-09
        25  24 -1.344119E+06 -5.389449E+02 -3.294359E+03  2.019003E-08 -2.623943E+03 -1.169502E-09
        25  25 -1.344118E+06  2.715097E+01 -1.011825E+03  8.829573E+01 -8.414172E+02 -1.199167E-04
        25  26 -1.343975E+06  8.601798E+01 -1.777018E+03 -1.149325E+01 -1.732681E+03  3.214126E-05
        25  27 -1.344119E+06 -5.389448E+02 -3.294359E+03 -1.112823E+02 -2.623943E+03  4.713096E-04
        26   1 -1.344521E+06  2.661503E+02 -4.217835E+03 -7.360669E+02  3.287403E+03 -3.905687E-03
        26   2 -1.343474E+06  7.724534E+02 -7.103971E+03  3.697493E+02  6.927790E+03  4.134551E-03
        26   3 -1.344527E+06 -5.214641E+03 -1.398729E+04  1.475550E+03  1.056811E+04  2.516970E-02
        26   4 -1.344521E+06  2.661493E+02 -4.217835E+03  1.453219E-08  3.287403E+03 -1.166907E-10
        26   5 -1.343474E+06  7.724532E+02 -7.103971E+03 -9.643191E-09  6.927790E+03 -1.605575E-09
        26   6 -1.344527E+06 -5.214645E+03 -1.398730E+04  1.837711E-08  1.056811E+04  1.785526E-11
        26   7 -1.344521E+06  2.661503E+02 -4.217835E+03  7.360669E+02  3.287403E+03  3.905687E-03
        26   8 -1.343474E+06  7.724534E+02 -7.103971E+03 -3.697493E+02  6.927790E+03 -4.134555E-03
        26   9 -1.344527E+06 -5.214641E+03 -1.398729E+04 -1.475550E+03  1.056811E+04 -2.516970E-02
        26  10 -1.344521E+06  2.661474E+02 -4.217856E+03 -7.360669E+02 -1.540099E-09 -2.408051E-10
        26  11 -1.343475E+06  7.724405E+02 -7.104061E+03  3.697493E+02 -2.174372E-10 -1.803301E-10
        26  12 -1.344527E+06 -5.214671E+03 -1.398751E+04  1.475550E+03 -9.754546E-11 -1.975905E-10
        26  13 -1.344521E+06  2.661464E+02 -4.217856E+03  1.885772E-08  1.042768E-09  5.137563E-11
        26  14 -1.343475E+06  7.724403E+02 -7.104061E+03 -9.663143E-09  5.020341E-10  2.725469E-11
        26  15 -1.344527E+06 -5.214676E+03 -1.398751E+04 -6.960131E-09 -3.629492E-09 -5.380299E-10
        26  16 -1.344521E+06  2.661474E+02 -4.217856E+03  7.360669E+02  1.531695E-09  3.416319E-10
        26  17 -1.343475E+06  7.724405E+02 -7.104061E+03 -3.697493E+02 -2.359904E-09 -3.426639E-11
        26  18 -1.344527E+06 -5.214671E+03 -1.398751E+04 -1.475550E+03 -1.421281E-09 -7.269192E-10
        26  19 -1.344521E+06  2.661503E+02 -4.217835E+03 -7.360669E+02 -3.287403E+03  3.905687E-03
        26  20 -1.343474E+06  7.724534E+02 -7.103971E+03  3.697493E+02 -6.927790E+03 -4.134551E-03
        26  21 -1.344527E+06 -5.214641E+03 -1.398729E+04  1.475550E+03 -1.056811E+04 -2.516970E-02
        26  22 -1.344521E+06  2.661493E+02 -4.217835E+03  2.747516E-08 -3.287403E+03  1.829448E-10
        26  23 -1.343474E+06  7.724532E+02 -7.103971E+03 -1.829112E-08 -6.927790E+03  1.534367E-09
        26  24 -1.344527E+06 -5.214645E+03 -1.398730E+04 -7.017905E-09 -1.056811E+04 -1.081560E-09
        26  25 -1.344521E+06  2.661503E+02 -4.217835E+03  7.360669E+02 -3.287403E+03 -3.905687E-03
        26  26 -1.343474E+06  7.724534E+02 -7.103971E+03 -3.697493E+02 -6.927790E+03  4.134554E-03
        26  27 -1.344527E+06 -5.214641E+03 -1.398729E+04 -1.475550E+03 -1.056811E+04  2.516970E-02
        27   1 -1.347887E+06  2.551940E+03 -1.714652E+04 -6.561406E+03  1.322756E+04 -1.400896E-01
        27   2 -1.339277E+06  7.107850E+03 -2.742085E+04  4.512879E+03  2.802430E+04  2.041323E-01
        27   3 -1.347921E+06 -4.959748E+04 -6.265851E+04  1.558717E+04  4.282132E+04  1.077342E+00
        27   4 -1.347887E+06  2.551859E+03 -1.714654E+04  3.210340E-08  1.322756E+04  8.695206E-10
        27   5 -1.339277E+06  7.107811E+03 -2.742085E+04 -3.213673E-10  2.802430E+04  3.835607E-10
        27   6 -1.347921E+06 -4.959793E+04 -6.265857E+04  2.269319E-08  4.282132E+04 -8.507211E-11
        27   7 -1.347887E+06  2.551940E+03 -1.714652E+04  6.561406E+03  1.322756E+04  1.400896E-01
        27   8 -1.339277E+06  7.107850E+03 -2.742085E+04 -4.512879E+03  2.802430E+04 -2.041323E-01
        27   9 -1.347921E+06 -4.959748E+04 -6.265851E+04 -1.558717E+04  4.282132E+04 -1.077342E+00
        27  10 -1.347887E+06  2.551893E+03 -1.714685E+04 -6.561406E+03 -8.386673E-10  7.034611E-11
        27  11 -1.339278E+06  7.107638E+03 -2.742233E+04  4.512879E+03 -1.909446E-09  1.083082E-09
        27  12 -1.347923E+06 -4.959797E+04 -6.266196E+04  1.558717E+04 -7.257801E-10  4.907805E-10
        27  13 -1.347887E+06  2.551812E+03 -1.714687E+04 -6.559772E-09 -3.795851E-09 -2.677339E-10
        27  14 -1.339278E+06  7.107600E+03 -2.742233E+04 -1.752609E-08 -2.026546E-10  6.452417E-10
        27  15 -1.347923E+06 -4.959843E+04 -6.266203E+04 -2.662513E-09 -1.991521E-09  3.245461E-10
        27  16 -1.347887E+06  2.551893E+03 -1.714685E+04  6.561406E+03 -2.197474E-09 -6.047661E-10
        27  17 -1.339278E+06  7.107638E+03 -2.742233E+04 -4.512879E+03  7.727466E-10  3.372809E-10
        27  18 -1.347923E+06 -4.959797E+04 -6.266196E+04 -1.558717E+04 -1.222657E-09  2.938283E-10
        27  19 -1.347887E+06  2.551940E+03 -1.714652E+04 -6.561406E+03 -1.322756E+04  1.400896E-01
        27  20 -1.339277E+06  7.107850E+03 -2.742085E+04  4.512879E+03 -2.802430E+04 -2.041323E-01
        27  21 -1.347921E+06 -4.959748E+04 -6.265851E+04  1.558717E+04 -4.282132E+04 -1.077342E+00
        27  22 -1.347887E+06  2.551859E+03 -1.714654E+04  2.154392E-09 -1.322756E+04 -1.418190E-09
        27  23 -1.339277E+06  7.107811E+03 -2.742085E+04 -2.611849E-08 -2.802430E+04  1.004247E-09
        27  24 -1.347921E+06 -4.959793E+04 -6.265857E+04  1.396347E-08 -4.282132E+04  7.433885E-10
        27  25 -1.347887E+06  2.551940E+03 -1.714652E+04  6.561406E+03 -1.322756E+04 -1.400896E-01
        27  26 -1.339277E+06  7.107850E+03 -2.742085E+04 -4.512879E+03 -2.802430E+04  2.041323E-01
        27  27 -1.347921E+06 -4.959748E+04 -6.265851E+04 -1.558717E+04 -4.282132E+04  1.077342E+00
        28   1  5.280065E+05  1.363782E+06  6.263964E+05 -9.701168E+04  6.535742E+03  3.260708E+05
        28   2  1.102910E+05  1.337835E+06  3.718578E+05 -2.843803E+04  2.110817E+04  2.048086E+05
        28   3  1.575005E+05  1.444363E+06  3.125297E+05  7.052334E+04  2.313186E+04  8.353603E+04
        28   4  3.727902E+05  7.405264E+05  4.729537E+05  2.107951E+04  6.598836E+03  3.153602E+05
        28   5 -5.392121E+04  6.748419E+05  2.132670E+05  5.833462E+03  2.112294E+04  2.005184E+05
        28   6 -1.658934E+04  7.406220E+05  1.444599E+05  2.097994E+04  2.312503E+04  8.567240E+04
        28   7  2.175974E+05  1.176531E+05  3.194902E+05  1.390522E+05  6.657917E+03  3.046601E+05
        28   8 -2.181608E+05  1.225367E+04  5.464588E+04  4.006831E+04  2.113725E+04  1.962328E+05
        28   9 -1.907056E+05  3.733972E+04 -2.364340E+04 -2.850709E+04  2.311786E+04  8.780631E+04
        28  10  5.279779E+05  1.363668E+06  6.261969E+05 -9.701340E+04 -5.582387E-10 -2.330477E-10
        28  11  1.102793E+05  1.337790E+06  3.717783E+05 -2.844151E+04 -4.258330E-10  3.785439E-10
        28  12  1.574980E+05  1.444355E+06  3.125157E+05  7.052179E+04  1.069764E-09  2.202129E-10
        28  13  3.727635E+05  7.404197E+05  4.727669E+05  2.107784E+04  9.812079E-10  5.740082E-11
        28  14 -5.393246E+04  6.747987E+05  2.131907E+05  5.830053E+03 -4.195099E-10 -1.449731E-10
        28  15 -1.659188E+04  7.406139E+05  1.444451E+05  2.097834E+04  1.945989E-09  2.958983E-10
        28  16  2.175725E+05  1.175535E+05  3.193158E+05  1.390506E+05  9.325867E-10  2.584815E-10
        28  17 -2.181716E+05  1.221220E+04  5.457269E+04  4.006497E+04 -1.670625E-09  2.729443E-10
        28  18 -1.907083E+05  3.733130E+04 -2.365889E+04 -2.850872E+04 -2.234666E-09 -3.159713E-10
        28  19  5.280065E+05  1.363782E+06  6.263964E+05 -9.701168E+04 -6.535742E+03 -3.260708E+05
        28  20  1.102910E+05  1.337835E+06  3.718578E+05 -2.843803E+04 -2.110817E+04 -2.048086E+05
        28  21  1.575005E+05  1.444363E+06  3.125297E+05  7.052334E+04 -2.313186E+04 -8.353603E+04
        28  22  3.727902E+05  7.405264E+05  4.729537E+05  2.107951E+04 -6.598836E+03 -3.153602E+05
        28  23 -5.392121E+04  6.748419E+05  2.132670E+05  5.833462E+03 -2.112294E+04 -2.005184E+05
        28  24 -1.658934E+04  7.406220E+05  1.444599E+05  2.097994E+04 -2.312503E+04 -8.567240E+04
        28  25  2.175974E+05  1.176531E+05  3.194902E+05  1.390522E+05 -6.657917E+03 -3.046601E+05
        28  26 -2.181608E+05  1.225367E+04  5.464588E+04  4.006831E+04 -2.113725E+04 -1.962328E+05
        28  27 -1.907056E+05  3.733972E+04 -2.364340E+04 -2.850709E+04 -2.311786E+04 -8.780631E+04
        29   1  2.258599E+05  1.476726E+06  3.077642E+05  5.831848E+03  2.256560E+04  6.445123E+04
        29   2  1.886564E+05  1.505605E+06  2.804585E+05  3.586211E+03  2.523595E+04  1.772506E+04
        29   3  2.335200E+05  1.561912E+06  3.042237E+05  3.313229E+04  2.544458E+04 -2.900536E+04
        29   4  3.771320E+04  7.174065E+05  1.256018E+05  2.135766E+04  2.257120E+04  6.245513E+04
        29   5 -9.893273E+03  7.037863E+05  8.855384E+04  5.459854E+03  2.523927E+04  1.702116E+04
        29   6  2.439994E+04  7.173994E+05  1.017226E+05  2.135539E+04  2.544623E+04 -2.841394E+04
        29   7 -1.504745E+05 -4.138558E+04 -5.660138E+04  3.686458E+04  2.257671E+04  6.046142E+04
        29   8 -2.084895E+05 -9.744483E+04 -1.033962E+05  7.331306E+03  2.524258E+04  1.631815E+04
        29   9 -1.847713E+05 -1.264613E+05 -1.008290E+05  9.594864E+03  2.544786E+04 -2.782329E+04
        29  10  2.258582E+05  1.476721E+06  3.077555E+05  5.830678E+03  1.385610E-09  2.508265E-09
        29  11  1.886556E+05  1.505605E+06  2.804567E+05  3.585851E+03  4.340380E-09  2.140708E-09
        29  12  2.335191E+05  1.561911E+06  3.042209E+05  3.313288E+04  1.644061E-09 -1.927107E-09
        29  13  3.771161E+04  7.174022E+05  1.255935E+05  2.135652E+04  3.102289E-09  6.104017E-10
        29  14 -9.894035E+03  7.037858E+05  8.855210E+04  5.459508E+03 -1.735077E-09 -4.790352E-10
        29  15  2.439903E+04  7.173984E+05  1.017198E+05  2.135597E+04  3.633991E-10  7.031480E-10
        29  16 -1.504760E+05 -4.138964E+04 -5.660921E+04  3.686348E+04 -1.846068E-09 -1.994490E-09
        29  17 -2.084902E+05 -9.744529E+04 -1.033979E+05  7.330974E+03  2.132972E-09  2.979542E-11
        29  18 -1.847722E+05 -1.264623E+05 -1.008316E+05  9.595434E+03  2.580657E-10  1.819134E-09
        29  19  2.258599E+05  1.476726E+06  3.077642E+05  5.831848E+03 -2.256560E+04 -6.445123E+04
        29  20  1.886564E+05  1.505605E+06  2.804585E+05  3.586211E+03 -2.523595E+04 -1.772506E+04
        29  21  2.335200E+05  1.561912E+06  3.042237E+05  3.313229E+04 -2.544458E+04  2.900536E+04
        29  22  3.771320E+04  7.174065E+05  1.256018E+05  2.135766E+04 -2.257120E+04 -6.245513E+04
        29  23 -9.893273E+03  7.037863E+05  8.855384E+04  5.459854E+03 -2.523927E+04 -1.702116E+04
        29  24  2.439994E+04  7.173994E+05  1.017226E+05  2.135539E+04 -2.544623E+04  2.841394E+04
        29  25 -1.504745E+05 -4.138558E+04 -5.660138E+04  3.686458E+04 -2.257671E+04 -6.046142E+04
        29  26 -2.084895E+05 -9.744483E+04 -1.033962E+05  7.331306E+03 -2.524258E+04 -1.631815E+04
        29  27 -1.847713E+05 -1.264613E+05 -1.008290E+05  9.594864E+03 -2.544786E+04  2.782329E+04
        30   1  2.145965E+05  1.634931E+06  3.265150E+05 -1.446246E+04  2.942805E+04 -4.074830E+04
        30   2  1.974338E+05  1.634162E+06  3.770628E+05  2.600532E+04  3.084380E+04 -1.325075E+05
        30   3  4.999304E+05  1.726421E+06  5.674203E+05  1.004632E+05  1.076900E+04 -2.243461E+05
        30   4 -9.214982E+03  7.316164E+05  1.105851E+05  2.157154E+04  2.944290E+04 -4.672903E+04
        30   5 -3.714677E+04  6.859429E+05  1.503639E+05  5.014768E+03  3.083702E+04 -1.275329E+05
        30   6  2.529296E+05  7.315277E+05  3.224933E+05  2.244363E+04  1.074289E+04 -2.084079E+05
        30   7 -2.330808E+05 -1.709498E+05 -1.054015E+05  5.755342E+04  2.945707E+04 -5.270108E+04
        30   8 -2.717906E+05 -2.614525E+05 -7.639806E+04 -1.594305E+04  3.082989E+04 -1.225658E+05
        30   9  5.878820E+03 -2.624529E+05  7.749777E+04 -5.545033E+04  1.071277E+04 -1.924950E+05
        30  10  2.145952E+05  1.634929E+06  3.265103E+05 -1.446149E+04 -5.358602E-10  5.778277E-10
        30  11  1.974281E+05  1.634143E+06  3.770281E+05  2.600860E+04  2.895929E-10  3.233107E-09
        30  12  4.999168E+05  1.726367E+06  5.673257E+05  1.004652E+05 -9.657000E-10  3.515231E-10
        30  13 -9.216498E+03  7.316138E+05  1.105794E+05  2.157264E+04 -1.178570E-09  1.348903E-09
        30  14 -3.715215E+04  6.859252E+05  1.503316E+05  5.017934E+03 -2.009802E-09 -8.143211E-10
        30  15  2.529178E+05  7.314811E+05  3.224115E+05  2.244543E+04  4.441939E-10  1.189985E-09
        30  16 -2.330825E+05 -1.709531E+05 -1.054084E+05  5.755467E+04 -1.989820E-10  3.333101E-10
        30  17 -2.717957E+05 -2.614689E+05 -7.642809E+04 -1.594001E+04 -1.840012E-09  7.993654E-10
        30  18  5.868745E+03 -2.624927E+05  7.742789E+04 -5.544867E+04 -1.188685E-10 -5.554553E-10
        30  19  2.145965E+05  1.634931E+06  3.265150E+05 -1.446246E+04 -2.942805E+04  4.074830E+04
        30  20  1.974338E+05  1.634162E+06  3.770628E+05  2.600532E+04 -3.084380E+04  1.325075E+05
        30  21  4.999304E+05  1.726421E+06  5.674203E+05  1.004632E+05 -1.076900E+04  2.243461E+05
        30  22 -9.214982E+03  7.316164E+05  1.105851E+05  2.157154E+04 -2.944290E+04  4.672903E+04
        30  23 -3.714677E+04  6.859429E+05  1.503639E+05  5.014768E+03 -3.083702E+04  1.275329E+05
        30  24  2.529296E+05  7.315277E+05  3.224933E+05  2.244363E+04 -1.074289E+04  2.084079E+05
        30  25 -2.330808E+05 -1.709498E+05 -1.054015E+05  5.755342E+04 -2.945707E+04  5.270108E+04
        30  26 -2.717906E+05 -2.614525E+05 -7.639806E+04 -1.594305E+04 -3.082989E+04  1.225658E+05
        30  27  5.878820E+03 -2.624529E+05  7.749777E+04 -5.545033E+04 -1.071277E+04  1.924950E+05
        31   1 -2.024078E+06 -4.317666E+05 -1.629346E+05 -7.469876E+05 -8.371270E+04 -2.990028E+04
        31   2 -1.996142E+06 -3.013243E+05 -8.275542E+04 -7.537179E+05 -5.394201E+04 -1.592949E+04
        31   3 -2.006984E+06 -2.972734E+05 -5.754254E+04 -7.408621E+05 -2.300143E+04 -5.077863E+03
        31   4 -1.916762E+06 -3.639215E+05 -1.282684E+05 -6.896770E+05 -8.182856E+04 -2.919846E+04
        31   5 -1.890878E+06 -2.539721E+05 -5.343650E+04 -7.170335E+05 -5.352194E+04 -1.577291E+04
        31   6 -1.903474E+06 -2.701118E+05 -3.240070E+04 -7.248063E+05 -2.404554E+04 -5.468681E+03
        31   7 -1.809434E+06 -2.960685E+05 -9.360354E+04 -6.323560E+05 -7.994410E+04 -2.849630E+04
        31   8 -1.785605E+06 -2.066180E+05 -2.411877E+04 -6.803431E+05 -5.310180E+04 -1.561628E+04
        31   9 -1.799954E+06 -2.429505E+05 -7.259567E+03 -7.087487E+05 -2.508984E+04 -5.859520E+03
        31  10 -2.024086E+06 -4.317695E+05 -1.629495E+05 -7.469896E+05  8.357045E-10  1.070604E-10
        31  11 -1.996145E+06 -3.013254E+05 -8.276138E+04 -7.537186E+05 -3.328908E-10 -1.570320E-10
        31  12 -2.006985E+06 -2.972735E+05 -5.754359E+04 -7.408621E+05 -2.365624E-09 -5.698133E-11
        31  13 -1.916770E+06 -3.639243E+05 -1.282826E+05 -6.896790E+05 -6.045478E-11  2.310145E-10
        31  14 -1.890882E+06 -2.539732E+05 -5.344237E+04 -7.170341E+05 -1.696426E-10  3.209039E-10
        31  15 -1.903475E+06 -2.701120E+05 -3.240185E+04 -7.248064E+05 -2.251691E-09  1.272687E-11
        31  16 -1.809441E+06 -2.960711E+05 -9.361712E+04 -6.323579E+05  7.492066E-10  2.349316E-10
        31  17 -1.785608E+06 -2.066190E+05 -2.412454E+04 -6.803438E+05 -1.669306E-09  2.143877E-10
        31  18 -1.799955E+06 -2.429507E+05 -7.260819E+03 -7.087488E+05  1.828443E-09 -2.895246E-10
        31  19 -2.024078E+06 -4.317666E+05 -1.629346E+05 -7.469876E+05  8.371270E+04  2.990028E+04
        31  20 -1.996142E+06 -3.013243E+05 -8.275542E+04 -7.537179E+05  5.394201E+04  1.592949E+04
        31  21 -2.006984E+06 -2.972734E+05 -5.754254E+04 -7.408621E+05  2.300143E+04  5.077863E+03
        31  22 -1.916762E+06 -3.639215E+05 -1.282684E+05 -6.896770E+05  8.182856E+04  2.919846E+04
        31  23 -1.890878E+06 -2.539721E+05 -5.343650E+04 -7.170335E+05  5.352194E+04  1.577291E+04
        31  24 -1.903474E+06 -2.701118E+05 -3.240070E+04 -7.248063E+05  2.404554E+04  5.468681E+03
        31  25 -1.809434E+06 -2.960685E+05 -9.360354E+04 -6.323560E+05  7.994410E+04  2.849630E+04
        31  26 -1.785605E+06 -2.066180E+05 -2.411877E+04 -6.803431E+05  5.310180E+04  1.561628E+04
        31  27 -1.799954E+06 -2.429505E+05 -7.259567E+03 -7.087487E+05  2.508984E+04  5.859520E+03
        32   1 -1.967937E+06 -3.122612E+05 -4.512937E+04 -7.388262E+05 -1.895157E+04 -4.546181E+03
        32   2 -1.953809E+06 -2.878612E+05 -2.686160E+04 -7.304163E+05 -1.208685E+04 -2.516089E+03
        32   3 -1.935637E+06 -2.862544E+05 -1.712226E+04 -7.300482E+05 -5.124017E+03 -7.469152E+02
        32   4 -1.899170E+06 -2.836526E+05 -2.636945E+04 -7.172713E+05 -1.911532E+04 -4.607665E+03
        32   5 -1.900472E+06 -2.671130E+05 -1.260919E+04 -7.151787E+05 -1.237271E+04 -2.623230E+03
        32   6 -1.897706E+06 -2.733415E+05 -7.279604E+03 -7.211280E+05 -5.532223E+03 -8.998377E+02
        32   7 -1.830399E+06 -2.550433E+05 -7.609872E+03 -6.957141E+05 -1.927909E+04 -4.669159E+03
        32   8 -1.847134E+06 -2.463646E+05  1.642942E+03 -6.999399E+05 -1.265860E+04 -2.730382E+03
        32   9 -1.859775E+06 -2.604288E+05  2.562860E+03 -7.122074E+05 -5.940452E+03 -1.052767E+03
        32  10 -1.967937E+06 -3.122613E+05 -4.513008E+04 -7.388262E+05 -6.097295E-09 -2.275789E-10
        32  11 -1.953809E+06 -2.878613E+05 -2.686189E+04 -7.304163E+05 -4.443074E-09  7.281554E-10
        32  12 -1.935637E+06 -2.862544E+05 -1.712231E+04 -7.300482E+05  1.133004E-09  8.570933E-10
        32  13 -1.899171E+06 -2.836527E+05 -2.637018E+04 -7.172714E+05 -8.449087E-10  2.331572E-10
        32  14 -1.900473E+06 -2.671131E+05 -1.260949E+04 -7.151787E+05  8.140062E-10  7.562326E-10
        32  15 -1.897706E+06 -2.733415E+05 -7.279663E+03 -7.211280E+05  5.848666E-09  8.782505E-10
        32  16 -1.830400E+06 -2.550434E+05 -7.610614E+03 -6.957142E+05  1.540637E-09  1.539876E-10
        32  17 -1.847134E+06 -2.463647E+05  1.642626E+03 -6.999399E+05  3.947404E-09  2.162552E-10
        32  18 -1.859775E+06 -2.604288E+05  2.562791E+03 -7.122074E+05  4.754107E-09  4.522097E-10
        32  19 -1.967937E+06 -3.122612E+05 -4.512937E+04 -7.388262E+05  1.895157E+04  4.546181E+03
        32  20 -1.953809E+06 -2.878612E+05 -2.686160E+04 -7.304163E+05  1.208685E+04  2.516089E+03
        32  21 -1.935637E+06 -2.862544E+05 -1.712226E+04 -7.300482E+05  5.124017E+03  7.469152E+02
        32  22 -1.899170E+06 -2.836526E+05 -2.636945E+04 -7.172713E+05  1.911532E+04  4.607665E+03
        32  23 -1.900472E+06 -2.671130E+05 -1.260919E+04 -7.151787E+05  1.237271E+04  2.623230E+03
        32  24 -1.897706E+06 -2.733415E+05 -7.279604E+03 -7.211280E+05  5.532223E+03  8.998377E+02
        32  25 -1.830399E+06 -2.550433E+05 -7.609872E+03 -6.957141E+05  1.927909E+04  4.669159E+03
        32  26 -1.847134E+06 -2.463646E+05  1.642942E+03 -6.999399E+05  1.265860E+04  2.730382E+03
        32  27 -1.859775E+06 -2.604288E+05  2.562860E+03 -7.122074E+05  5.940452E+03  1.052767E+03
        33   1 -1.908877E+06 -2.794678E+05 -8.787785E+03 -7.237534E+05 -3.970497E+03 -8.523292E+02
        33   2 -1.896373E+06 -2.666327E+05 -1.561889E+03 -7.135771E+05 -2.189383E+03 -1.013953E+03
        33   3 -1.874671E+06 -2.651759E+05  4.149656E+03 -7.144823E+05 -4.015154E+02 -1.193431E+03
        33   4 -1.897131E+06 -2.748196E+05 -5.689875E+03 -7.203020E+05 -4.308421E+03 -9.789276E+02
        33   5 -1.901651E+06 -2.685739E+05 -2.951415E+03 -7.149693E+05 -2.535695E+03 -1.143697E+03
        33   6 -1.896972E+06 -2.737050E+05 -1.720531E+03 -7.207184E+05 -7.562559E+02 -1.326337E+03
        33   7 -1.885385E+06 -2.701713E+05 -2.591964E+03 -7.168504E+05 -4.646354E+03 -1.105529E+03
        33   8 -1.906929E+06 -2.705152E+05 -4.340951E+03 -7.163616E+05 -2.882005E+03 -1.273441E+03
        33   9 -1.919272E+06 -2.822340E+05 -7.590815E+03 -7.269544E+05 -1.110986E+03 -1.459239E+03
        33  10 -1.908877E+06 -2.794678E+05 -8.787816E+03 -7.237534E+05  3.118914E-10 -8.725102E-11
        33  11 -1.896373E+06 -2.666327E+05 -1.561900E+03 -7.135771E+05 -5.627615E-10 -7.685919E-10
        33  12 -1.874671E+06 -2.651759E+05  4.149653E+03 -7.144823E+05 -2.014590E-09  6.221423E-10
        33  13 -1.897131E+06 -2.748196E+05 -5.689912E+03 -7.203020E+05  1.696321E-09  2.287180E-10
        33  14 -1.901651E+06 -2.685739E+05 -2.951429E+03 -7.149693E+05  4.826230E-09 -4.877910E-10
        33  15 -1.896972E+06 -2.737050E+05 -1.720535E+03 -7.207184E+05  6.824778E-10  4.061444E-10
        33  16 -1.885385E+06 -2.701713E+05 -2.592007E+03 -7.168505E+05  2.201077E-09  5.355645E-10
        33  17 -1.906929E+06 -2.705152E+05 -4.340970E+03 -7.163616E+05  3.811086E-10  7.958757E-10
        33  18 -1.919272E+06 -2.822340E+05 -7.590821E+03 -7.269544E+05 -1.122652E-09  3.242278E-10
        33  19 -1.908877E+06 -2.794678E+05 -8.787785E+03 -7.237534E+05  3.970497E+03  8.523292E+02
        33  20 -1.896373E+06 -2.666327E+05 -1.561889E+03 -7.135771E+05  2.189383E+03  1.013953E+03
        33  21 -1.874671E+06 -2.651759E+05  4.149656E+03 -7.144823E+05  4.015154E+02  1.193431E+03
        33  22 -1.897131E+06 -2.748196E+05 -5.689875E+03 -7.203020E+05  4.308421E+03  9.789276E+02
        33  23 -1.901651E+06 -2.685739E+05 -2.951415E+03 -7.149693E+05  2.535695E+03  1.143697E+03
        33  24 -1.896972E+06 -2.737050E+05 -1.720531E+03 -7.207184E+05  7.562559E+02  1.326337E+03
        33  25 -1.885385E+06 -2.701713E+05 -2.591964E+03 -7.168504E+05  4.646354E+03  1.105529E+03
        33  26 -1.906929E+06 -2.705152E+05 -4.340951E+03 -7.163616E+05  2.882005E+03  1.273441E+03
        33  27 -1.919272E+06 -2.822340E+05 -7.590815E+03 -7.269544E+05  1.110986E+03  1.459239E+03
        34   1 -1.849677E+06 -2.560492E+05  1.121252E+04 -7.077305E+05  7.967270E+00 -1.536931E+03
        34   2 -1.837682E+06 -2.447297E+05  1.608519E+04 -6.975945E+05  7.166969E+02 -2.108960E+03
        34   3 -1.816085E+06 -2.433156E+05  2.058722E+04 -6.985804E+05  1.421668E+03 -2.670623E+03
        34   4 -1.896944E+06 -2.738056E+05 -1.362657E+03 -7.205677E+05 -3.401246E+02 -1.667358E+03
        34   5 -1.901738E+06 -2.688044E+05 -8.731511E+02 -7.150249E+05  3.734376E+02 -2.237604E+03
        34   6 -1.896931E+06 -2.737095E+05 -7.580581E+02 -7.206040E+05  1.083230E+03 -2.797487E+03
        34   7 -1.944207E+06 -2.915618E+05 -1.393792E+04 -7.334039E+05 -6.881845E+02 -1.797773E+03
        34   8 -1.965789E+06 -2.928787E+05 -1.783177E+04 -7.324536E+05  3.021884E+01 -2.366232E+03
        34   9 -1.977771E+06 -3.041028E+05 -2.210387E+04 -7.426250E+05  7.448405E+02 -2.924333E+03
        34  10 -1.849677E+06 -2.560492E+05  1.121251E+04 -7.077305E+05 -1.666478E-09  9.366652E-10
        34  11 -1.837682E+06 -2.447297E+05  1.608518E+04 -6.975945E+05 -3.203002E-10 -2.321267E-11
        34  12 -1.816085E+06 -2.433157E+05  2.058720E+04 -6.985804E+05 -7.179176E-10 -1.428096E-10
        34  13 -1.896944E+06 -2.738056E+05 -1.362663E+03 -7.205677E+05 -1.484419E-09  2.635083E-10
        34  14 -1.901738E+06 -2.688044E+05 -8.731608E+02 -7.150249E+05  1.352732E-09  7.736456E-10
        34  15 -1.896931E+06 -2.737095E+05 -7.580750E+02 -7.206040E+05  3.376199E-10  4.346260E-10
        34  16 -1.944207E+06 -2.915618E+05 -1.393793E+04 -7.334039E+05 -3.523455E-09 -3.394699E-10
        34  17 -1.965789E+06 -2.928787E+05 -1.783178E+04 -7.324536E+05 -4.139407E-10 -2.733768E-11
        34  18 -1.977771E+06 -3.041029E+05 -2.210389E+04 -7.426250E+05  4.435716E-10  1.111490E-09
        34  19 -1.849677E+06 -2.560492E+05  1.121252E+04 -7.077305E+05 -7.967270E+00  1.536931E+03
        34  20 -1.837682E+06 -2.447297E+05  1.608519E+04 -6.975945E+05 -7.166969E+02  2.108960E+03
        34  21 -1.816085E+06 -2.433156E+05  2.058722E+04 -6.985804E+05 -1.421668E+03  2.670623E+03
        34  22 -1.896944E+06 -2.738056E+05 -1.362657E+03 -7.205677E+05  3.401246E+02  1.667358E+03
        34  23 -1.901738E+06 -2.688044E+05 -8.731511E+02 -7.150249E+05 -3.734376E+02  2.237604E+03
        34  24 -1.896931E+06 -2.737095E+05 -7.580581E+02 -7.206040E+05 -1.083230E+03  2.797487E+03
        34  25 -1.944207E+06 -2.915618E+05 -1.393792E+04 -7.334039E+05  6.881845E+02  1.797773E+03
        34  26 -1.965789E+06 -2.928787E+05 -1.783177E+04 -7.324536E+05 -3.021884E+01  2.366232E+03
        34  27 -1.977771E+06 -3.041028E+05 -2.210387E+04 -7.426250E+05 -7.448405E+02  2.924333E+03
        35   1 -1.792222E+06 -2.341913E+05  2.701999E+04 -6.919685E+05  1.703996E+03 -3.041249E+03
        35   2 -1.780923E+06 -2.235951E+05  3.086460E+04 -6.823566E+05  2.496504E+03 -3.543425E+03
        35   3 -1.760587E+06 -2.224064E+05  3.425636E+04 -6.832150E+05  3.279145E+03 -4.018598E+03
        35   4 -1.897056E+06 -2.735794E+05 -7.931010E+02 -7.204674E+05  1.367768E+03 -3.167315E+03
        35   5 -1.901584E+06 -2.689546E+05 -1.080614E+03 -7.152023E+05  2.172858E+03 -3.664828E+03
        35   6 -1.897080E+06 -2.737403E+05 -1.831092E+03 -7.204077E+05  2.968063E+03 -4.135340E+03
        35   7 -2.001878E+06 -3.129669E+05 -2.860723E+04 -7.489620E+05  1.031601E+03 -3.293358E+03
        35   8 -2.022232E+06 -3.143133E+05 -3.302714E+04 -7.480421E+05  1.849280E+03 -3.786205E+03
        35   9 -2.033554E+06 -3.250730E+05 -3.792016E+04 -7.575930E+05  2.657057E+03 -4.252054E+03
        35  10 -1.792222E+06 -2.341913E+05  2.701997E+04 -6.919685E+05  9.219529E-10  2.527651E-10
        35  11 -1.780923E+06 -2.235951E+05  3.086457E+04 -6.823566E+05  1.107945E-09 -2.260774E-11
        35  12 -1.760587E+06 -2.224064E+05  3.425631E+04 -6.832150E+05 -9.590050E-10 -5.805635E-10
        35  13 -1.897056E+06 -2.735794E+05 -7.931234E+02 -7.204674E+05  9.229619E-10  3.077317E-10
        35  14 -1.901584E+06 -2.689546E+05 -1.080648E+03 -7.152022E+05  1.428663E-09  4.254302E-10
        35  15 -1.897080E+06 -2.737403E+05 -1.831140E+03 -7.204077E+05 -1.342739E-09  2.920399E-11
        35  16 -2.001878E+06 -3.129669E+05 -2.860725E+04 -7.489620E+05  9.535714E-10  2.796503E-10
        35  17 -2.022232E+06 -3.143134E+05 -3.302717E+04 -7.480421E+05 -6.204404E-10 -8.395736E-10
        35  18 -2.033554E+06 -3.250730E+05 -3.792021E+04 -7.575930E+05 -7.474876E-10  3.599618E-10
        35  19 -1.792222E+06 -2.341913E+05  2.701999E+04 -6.919685E+05 -1.703996E+03  3.041249E+03
        35  20 -1.780923E+06 -2.235951E+05  3.086460E+04 -6.823566E+05 -2.496504E+03  3.543425E+03
        35  21 -1.760587E+06 -2.224064E+05  3.425636E+04 -6.832150E+05 -3.279145E+03  4.018598E+03
        35  22 -1.897056E+06 -2.735794E+05 -7.931010E+02 -7.204674E+05 -1.367768E+03  3.167315E+03
        35  23 -1.901584E+06 -2.689546E+05 -1.080614E+03 -7.152023E+05 -2.172858E+03  3.664828E+03
        35  24 -1.897080E+06 -2.737403E+05 -1.831092E+03 -7.204077E+05 -2.968063E+03  4.135340E+03
        35  25 -2.001878E+06 -3.129669E+05 -2.860723E+04 -7.489620E+05 -1.031601E+03  3.293358E+03
        35  26 -2.022232E+06 -3.143133E+05 -3.302714E+04 -7.480421E+05 -1.849280E+03  3.786205E+03
        35  27 -2.033554E+06 -3.250730E+05 -3.792016E+04 -7.575930E+05 -2.657057E+03  4.252054E+03
        36   1 -1.738584E+06 -2.138389E+05  3.970837E+04 -6.773139E+05  3.775837E+03 -4.278243E+03
        36   2 -1.728233E+06 -2.038613E+05  4.168787E+04 -6.683263E+05  6.069242E+03 -4.147113E+03
        36   3 -1.710551E+06 -2.041984E+05  4.160343E+04 -6.684002E+05  8.335149E+03 -3.941773E+03
        36   4 -1.897376E+06 -2.733357E+05 -2.350709E+03 -7.203231E+05  3.457201E+03 -4.397860E+03
        36   5 -1.901150E+06 -2.689612E+05 -4.108745E+03 -7.154979E+05  5.784936E+03 -4.253921E+03
        36   6 -1.897601E+06 -2.749086E+05 -7.958424E+03 -7.197343E+05  8.085125E+03 -4.035782E+03
        36   7 -2.056142E+06 -3.328310E+05 -4.441185E+04 -7.633223E+05  3.138656E+03 -4.517444E+03
        36   8 -2.074038E+06 -3.340593E+05 -4.990794E+04 -7.626577E+05  5.500718E+03 -4.360697E+03
        36   9 -2.084617E+06 -3.456168E+05 -5.752344E+04 -7.710545E+05  7.835182E+03 -4.129759E+03
        36  10 -1.738584E+06 -2.138389E+05  3.970831E+04 -6.773139E+05 -6.618531E-10 -3.143574E-10
        36  11 -1.728233E+06 -2.038614E+05  4.168777E+04 -6.683263E+05  1.426425E-10 -3.728287E-10
        36  12 -1.710551E+06 -2.041984E+05  4.160327E+04 -6.684002E+05 -2.622172E-10  2.567681E-11
        36  13 -1.897376E+06 -2.733358E+05 -2.350767E+03 -7.203231E+05  3.313501E-09 -1.682034E-10
        36  14 -1.901150E+06 -2.689613E+05 -4.108842E+03 -7.154979E+05  1.794453E-09 -4.083418E-10
        36  15 -1.897601E+06 -2.749087E+05 -7.958577E+03 -7.197343E+05  2.510314E-10 -3.668873E-10
        36  16 -2.056142E+06 -3.328310E+05 -4.441190E+04 -7.633223E+05  1.657248E-09 -1.665220E-10
        36  17 -2.074038E+06 -3.340593E+05 -4.990804E+04 -7.626576E+05  1.502599E-09 -4.034145E-10
        36  18 -2.084617E+06 -3.456169E+05 -5.752359E+04 -7.710545E+05 -4.595068E-09 -4.892237E-10
        36  19 -1.738584E+06 -2.138389E+05  3.970837E+04 -6.773139E+05 -3.775837E+03  4.278243E+03
        36  20 -1.728233E+06 -2.038613E+05  4.168787E+04 -6.683263E+05 -6.069242E+03  4.147113E+03
        36  21 -1.710551E+06 -2.041984E+05  4.160343E+04 -6.684002E+05 -8.335149E+03  3.941773E+03
        36  22 -1.897376E+06 -2.733357E+05 -2.350709E+03 -7.203231E+05 -3.457201E+03  4.397860E+03
        36  23 -1.901150E+06 -2.689612E+05 -4.108745E+03 -7.154979E+05 -5.784936E+03  4.253921E+03
        36  24 -1.897601E+06 -2.749086E+05 -7.958424E+03 -7.197343E+05 -8.085125E+03  4.035782E+03
        36  25 -2.056142E+06 -3.328310E+05 -4.441185E+04 -7.633223E+05 -3.138656E+03  4.517444E+03
        36  26 -2.074038E+06 -3.340593E+05 -4.990794E+04 -7.626577E+05 -5.500718E+03  4.360697E+03
        36  27 -2.084617E+06 -3.456168E+05 -5.752344E+04 -7.710545E+05 -7.835182E+03  4.129759E+03
        37   1 -1.690410E+06 -1.961680E+05  4.462287E+04 -6.658491E+05  1.008977E+04 -3.751741E+03
        37   2 -1.680848E+06 -1.839967E+05  4.034326E+04 -6.555226E+05  1.924251E+04 -9.378436E+02
        37   3 -1.672061E+06 -1.970899E+05  2.446320E+04 -6.488724E+05  2.819276E+04  2.415949E+03
        37   4 -1.898618E+06 -2.726204E+05 -1.019003E+04 -7.206483E+05  9.703944E+03 -3.896753E+03
        37   5 -1.899235E+06 -2.671853E+05 -1.767411E+04 -7.161007E+05  1.910767E+04 -9.887367E+02
        37   6 -1.900679E+06 -2.870688E+05 -3.696117E+04 -7.152291E+05  2.830870E+04  2.459095E+03
        37   7 -2.106784E+06 -3.490708E+05 -6.500662E+04 -7.754311E+05  9.318265E+03 -4.041713E+03
        37   8 -2.117575E+06 -3.503706E+05 -7.569554E+04 -7.766593E+05  1.897289E+04 -1.039610E+03
        37   9 -2.129247E+06 -3.770431E+05 -9.838999E+04 -7.815630E+05  2.842459E+04  2.502221E+03
        37  10 -1.690410E+06 -1.961680E+05  4.462265E+04 -6.658491E+05 -2.238072E-09 -2.905660E-10
        37  11 -1.680848E+06 -1.839968E+05  4.034256E+04 -6.555226E+05 -3.655513E-09  1.408616E-10
        37  12 -1.672061E+06 -1.970901E+05  2.446169E+04 -6.488724E+05 -1.282803E-09  2.553366E-10
        37  13 -1.898618E+06 -2.726205E+05 -1.019023E+04 -7.206483E+05 -2.030428E-09 -1.474572E-10
        37  14 -1.899235E+06 -2.671854E+05 -1.767480E+04 -7.161007E+05 -2.142693E-09 -1.881841E-10
        37  15 -1.900680E+06 -2.870691E+05 -3.696269E+04 -7.152291E+05 -8.750295E-10 -1.830653E-10
        37  16 -2.106784E+06 -3.490709E+05 -6.500682E+04 -7.754311E+05 -4.148279E-09 -5.787465E-10
        37  17 -2.117576E+06 -3.503707E+05 -7.569622E+04 -7.766592E+05 -3.794178E-09  1.880941E-10
        37  18 -2.129248E+06 -3.770433E+05 -9.839153E+04 -7.815631E+05 -1.674182E-10 -4.663443E-10
        37  19 -1.690410E+06 -1.961680E+05  4.462287E+04 -6.658491E+05 -1.008977E+04  3.751741E+03
        37  20 -1.680848E+06 -1.839967E+05  4.034326E+04 -6.555226E+05 -1.924251E+04  9.378436E+02
        37  21 -1.672061E+06 -1.970899E+05  2.446320E+04 -6.488724E+05 -2.819276E+04 -2.415949E+03
        37  22 -1.898618E+06 -2.726204E+05 -1.019003E+04 -7.206483E+05 -9.703944E+03  3.896753E+03
        37  23 -1.899235E+06 -2.671853E+05 -1.767411E+04 -7.161007E+05 -1.910767E+04  9.887367E+02
        37  24 -1.900679E+06 -2.870688E+05 -3.696117E+04 -7.152291E+05 -2.830870E+04 -2.459095E+03
        37  25 -2.106784E+06 -3.490708E+05 -6.500662E+04 -7.754311E+05 -9.318265E+03  4.041713E+03
        37  26 -2.117575E+06 -3.503706E+05 -7.569554E+04 -7.766593E+05 -1.897289E+04  1.039610E+03
        37  27 -2.129247E+06 -3.770431E+05 -9.838999E+04 -7.815630E+05 -2.842459E+04 -2.502221E+03
        38   1 -1.647124E+06 -1.866544E+05  2.010915E+04 -6.717040E+05  3.682270E+04  4.333810E+03
        38   2 -1.636164E+06 -1.440937E+05 -6.846090E+03 -6.395860E+05  7.501870E+04  1.831287E+04
        38   3 -1.685930E+06 -2.702021E+05 -1.068738E+05 -5.714372E+05  1.108876E+05  3.848222E+04
        38   4 -1.906861E+06 -2.679362E+05 -4.541671E+04 -7.256200E+05  3.519823E+04  3.723997E+03
        38   5 -1.885568E+06 -2.489855E+05 -7.491353E+04 -7.189514E+05  7.629167E+04  1.878977E+04
        38   6 -1.925603E+06 -3.993242E+05 -1.798074E+05 -6.762448E+05  1.150580E+05  4.004301E+04
        38   7 -2.166534E+06 -3.492186E+05 -1.109479E+05 -7.795180E+05  3.357450E+04  3.114353E+03
        38   8 -2.134911E+06 -3.538692E+05 -1.429867E+05 -7.982864E+05  7.756407E+04  1.926640E+04
        38   9 -2.165217E+06 -5.284224E+05 -2.527465E+05 -7.810098E+05  1.192266E+05  4.160248E+04
        38  10 -1.647126E+06 -1.866548E+05  2.010656E+04 -6.717041E+05  6.170514E-10 -2.066355E-10
        38  11 -1.636171E+06 -1.440956E+05 -6.857330E+03 -6.395872E+05 -1.807322E-09 -3.659618E-10
        38  12 -1.685943E+06 -2.702070E+05 -1.068997E+05 -5.714406E+05 -9.529965E-10 -5.207183E-10
        38  13 -1.906863E+06 -2.679365E+05 -4.541907E+04 -7.256201E+05 -1.745240E-09  1.678110E-10
        38  14 -1.885574E+06 -2.489874E+05 -7.492517E+04 -7.189525E+05 -2.033833E-09  9.609282E-10
        38  15 -1.925618E+06 -3.993295E+05 -1.798354E+05 -6.762485E+05 -1.798097E-09 -2.272662E-10
        38  16 -2.166535E+06 -3.492189E+05 -1.109500E+05 -7.795181E+05  2.712268E-10 -3.104029E-10
        38  17 -2.134918E+06 -3.538712E+05 -1.429988E+05 -7.982876E+05 -2.088760E-09  1.061867E-09
        38  18 -2.165232E+06 -5.284281E+05 -2.527766E+05 -7.810138E+05  2.693296E-09 -1.442085E-10
        38  19 -1.647124E+06 -1.866544E+05  2.010915E+04 -6.717040E+05 -3.682270E+04 -4.333810E+03
        38  20 -1.636164E+06 -1.440937E+05 -6.846090E+03 -6.395860E+05 -7.501870E+04 -1.831287E+04
        38  21 -1.685930E+06 -2.702021E+05 -1.068738E+05 -5.714372E+05 -1.108876E+05 -3.848222E+04
        38  22 -1.906861E+06 -2.679362E+05 -4.541671E+04 -7.256200E+05 -3.519823E+04 -3.723997E+03
        38  23 -1.885568E+06 -2.489855E+05 -7.491353E+04 -7.189514E+05 -7.629167E+04 -1.878977E+04
        38  24 -1.925603E+06 -3.993242E+05 -1.798074E+05 -6.762448E+05 -1.150580E+05 -4.004301E+04
        38  25 -2.166534E+06 -3.492186E+05 -1.109479E+05 -7.795180E+05 -3.357450E+04 -3.114353E+03
        38  26 -2.134911E+06 -3.538692E+05 -1.429867E+05 -7.982864E+05 -7.756407E+04 -1.926640E+04
        38  27 -2.165217E+06 -5.284224E+05 -2.527465E+05 -7.810098E+05 -1.192266E+05 -4.160248E+04
        39   1 -3.841579E+05  1.074472E+05  1.357674E+05  3.380224E+04  9.283583E+04  5.057673E+00
        39   2 -4.028513E+05 -1.539040E+04  5.943247E+04  9.786875E+03  6.076327E+04  9.584767E-01
        39   3 -3.841838E+05 -5.528699E+03  3.716691E+04 -1.422774E+04  2.869042E+04 -6.578948E-01
        39   4 -3.841591E+05  1.074450E+05  1.357671E+05  1.195304E-08  9.283583E+04 -2.453251E-11
        39   5 -4.028514E+05 -1.539058E+04  5.943244E+04  3.742817E-09  6.076327E+04  3.981223E-10
        39   6 -3.841841E+05 -5.529080E+03  3.716685E+04  1.437996E-08  2.869042E+04  4.520060E-11
        39   7 -3.841579E+05  1.074472E+05  1.357674E+05 -3.380224E+04  9.283583E+04 -5.057673E+00
        39   8 -4.028513E+05 -1.539040E+04  5.943247E+04 -9.786875E+03  6.076327E+04 -9.584767E-01
        39   9 -3.841838E+05 -5.528699E+03  3.716691E+04  1.422774E+04  2.869042E+04  6.578948E-01
        39  10 -3.841671E+05  1.074449E+05  1.357512E+05  3.380224E+04 -7.029227E-11  8.031814E-11
        39  11 -4.028553E+05 -1.539139E+04  5.942552E+04  9.786875E+03  4.185638E-10  9.195815E-11
        39  12 -3.841847E+05 -5.528920E+03  3.716536E+04 -1.422774E+04  9.886152E-10  1.211439E-10
        39  13 -3.841684E+05  1.074427E+05  1.357509E+05  1.195357E-08  3.264281E-09  1.991771E-11
        39  14 -4.028554E+05 -1.539157E+04  5.942550E+04  1.594533E-09 -1.392089E-09  8.846993E-11
        39  15 -3.841850E+05 -5.529301E+03  3.716530E+04 -2.061245E-08 -1.136610E-09  1.805487E-10
        39  16 -3.841671E+05  1.074449E+05  1.357512E+05 -3.380224E+04  2.403118E-11  3.063989E-11
        39  17 -4.028553E+05 -1.539139E+04  5.942552E+04 -9.786875E+03  2.872631E-10  8.786104E-11
        39  18 -3.841847E+05 -5.528920E+03  3.716536E+04  1.422774E+04 -8.953979E-10  1.433316E-10
        39  19 -3.841579E+05  1.074472E+05  1.357674E+05  3.380224E+04 -9.283583E+04 -5.057673E+00
        39  20 -4.028513E+05 -1.539040E+04  5.943247E+04  9.786875E+03 -6.076327E+04 -9.584767E-01
        39  21 -3.841838E+05 -5.528699E+03  3.716691E+04 -1.422774E+04 -2.869042E+04  6.578948E-01
        39  22 -3.841591E+05  1.074450E+05  1.357671E+05  7.652504E-09 -9.283583E+04  7.801590E-11
        39  23 -4.028514E+05 -1.539058E+04  5.943244E+04  3.752270E-09 -6.076327E+04 -2.169701E-10
        39  24 -3.841841E+05 -5.529080E+03  3.716685E+04 -2.301826E-09 -2.869042E+04  2.937275E-10
        39  25 -3.841579E+05  1.074472E+05  1.357674E+05 -3.380224E+04 -9.283583E+04  5.057673E+00
        39  26 -4.028513E+05 -1.539040E+04  5.943247E+04 -9.786875E+03 -6.076327E+04  9.584767E-01
        39  27 -3.841838E+05 -5.528699E+03  3.716691E+04  1.422774E+04 -2.869042E+04 -6.578948E-01
        40   1 -3.914714E+05  1.129389E+04  3.032126E+04  3.198932E+03  2.292065E+04  1.181736E-01
        40   2 -3.937458E+05 -1.672246E+03  1.541037E+04  8.016696E+02  1.502191E+04  1.940930E-02
        40   3 -3.914751E+05 -5.766078E+02  9.159976E+03 -1.595561E+03  7.123337E+03 -1.831828E-02
        40   4 -3.914714E+05  1.129387E+04  3.032125E+04 -8.817655E-10  2.292065E+04  2.762770E-11
        40   5 -3.937458E+05 -1.672248E+03  1.541037E+04 -1.033357E-08  1.502191E+04 -9.948928E-11
        40   6 -3.914751E+05 -5.766126E+02  9.159975E+03  9.284161E-09  7.123337E+03 -3.865900E-10
        40   7 -3.914714E+05  1.129389E+04  3.032126E+04 -3.198932E+03  2.292065E+04 -1.181736E-01
        40   8 -3.937458E+05 -1.672246E+03  1.541037E+04 -8.016696E+02  1.502191E+04 -1.940930E-02
        40   9 -3.914751E+05 -5.766078E+02  9.159976E+03  1.595561E+03  7.123337E+03  1.831828E-02
        40  10 -3.914719E+05  1.129375E+04  3.032027E+04  3.198932E+03  7.754606E-10  1.571821E-10
        40  11 -3.937461E+05 -1.672307E+03  1.540995E+04  8.016696E+02  1.162189E-09  2.911410E-10
        40  12 -3.914751E+05 -5.766214E+02  9.159880E+03 -1.595561E+03 -2.526871E-09  5.512590E-10
        40  13 -3.914720E+05  1.129373E+04  3.032027E+04 -5.212101E-09  3.163894E-27  5.182848E-11
        40  14 -3.937461E+05 -1.672308E+03  1.540995E+04 -3.860711E-09 -1.606815E-09 -6.871664E-11
        40  15 -3.914751E+05 -5.766262E+02  9.159879E+03  6.106597E-09 -1.105025E-09  3.653266E-10
        40  16 -3.914719E+05  1.129375E+04  3.032027E+04 -3.198932E+03 -1.358112E-09 -6.339943E-11
        40  17 -3.937461E+05 -1.672307E+03  1.540995E+04 -8.016696E+02 -1.395566E-09 -4.166477E-10
        40  18 -3.914751E+05 -5.766214E+02  9.159880E+03  1.595561E+03  9.177668E-10  2.213478E-10
        40  19 -3.914714E+05  1.129389E+04  3.032126E+04  3.198932E+03 -2.292065E+04 -1.181736E-01
        40  20 -3.937458E+05 -1.672246E+03  1.541037E+04  8.016696E+02 -1.502191E+04 -1.940930E-02
        40  21 -3.914751E+05 -5.766078E+02  9.159976E+03 -1.595561E+03 -7.123337E+03  1.831828E-02
        40  22 -3.914714E+05  1.129387E+04  3.032125E+04 -9.290801E-10 -2.292065E+04  8.114194E-11
        40  23 -3.937458E+05 -1.672248E+03  1.541037E+04 -1.031123E-08 -1.502191E+04 -1.630843E-11
        40  24 -3.914751E+05 -5.766126E+02  9.159975E+03  2.284036E-08 -7.123337E+03  1.126177E-09
        40  25 -3.914714E+05  1.129389E+04  3.032126E+04 -3.198932E+03 -2.292065E+04  1.181736E-01
        40  26 -3.937458E+05 -1.672246E+03  1.541037E+04 -8.016696E+02 -1.502191E+04  1.940930E-02
        40  27 -3.914751E+05 -5.766078E+02  9.159976E+03  1.595561E+03 -7.123337E+03 -1.831828E-02
        41   1 -3.923459E+05  1.166942E+03  7.162126E+03  2.413929E+02  5.680421E+03  2.210005E-03
        41   2 -3.926585E+05 -1.864302E+02  3.886589E+03  2.553875E+01  3.730773E+03  1.535632E-04
        41   3 -3.923466E+05 -5.851491E+01  2.251327E+03 -1.903190E+02  1.781101E+03 -5.463341E-04
        41   4 -3.923459E+05  1.166941E+03  7.162126E+03  1.691856E-08  5.680421E+03 -2.178468E-10
        41   5 -3.926585E+05 -1.864302E+02  3.886589E+03  1.310386E-08  3.730773E+03  3.073011E-10
        41   6 -3.923466E+05 -5.851498E+01  2.251327E+03  1.682941E-08  1.781101E+03  3.338384E-10
        41   7 -3.923459E+05  1.166942E+03  7.162126E+03 -2.413929E+02  5.680421E+03 -2.210006E-03
        41   8 -3.926585E+05 -1.864302E+02  3.886589E+03 -2.553875E+01  3.730773E+03 -1.535628E-04
        41   9 -3.923466E+05 -5.851491E+01  2.251327E+03  1.903190E+02  1.781101E+03  5.463349E-04
        41  10 -3.923460E+05  1.166933E+03  7.162065E+03  2.413929E+02 -1.288329E-09  3.271251E-10
        41  11 -3.926585E+05 -1.864340E+02  3.886563E+03  2.553875E+01 -2.010074E-09 -2.072109E-10
        41  12 -3.923466E+05 -5.851576E+01  2.251321E+03 -1.903190E+02  2.290027E-09 -1.755414E-10
        41  13 -3.923460E+05  1.166933E+03  7.162065E+03  3.939901E-09 -3.209401E-09  3.425989E-10
        41  14 -3.926585E+05 -1.864340E+02  3.886563E+03  1.954417E-08 -1.147901E-09 -1.836999E-10
        41  15 -3.923466E+05 -5.851583E+01  2.251321E+03 -3.618020E-09  2.244254E-09 -2.431551E-10
        41  16 -3.923460E+05  1.166933E+03  7.162065E+03 -2.413929E+02  1.719679E-10  3.744411E-10
        41  17 -3.926585E+05 -1.864340E+02  3.886563E+03 -2.553875E+01  3.593162E-10 -1.507320E-10
        41  18 -3.923466E+05 -5.851576E+01  2.251321E+03  1.903190E+02  1.215791E-09 -3.244184E-10
        41  19 -3.923459E+05  1.166942E+03  7.162126E+03  2.413929E+02 -5.680421E+03 -2.210004E-03
        41  20 -3.926585E+05 -1.864302E+02  3.886589E+03  2.553875E+01 -3.730773E+03 -1.535637E-04
        41  21 -3.923466E+05 -5.851491E+01  2.251327E+03 -1.903190E+02 -1.781101E+03  5.463340E-04
        41  22 -3.923459E+05  1.166941E+03  7.162126E+03  2.112194E-08 -5.680421E+03  9.082028E-10
        41  23 -3.926585E+05 -1.864302E+02  3.886589E+03  1.306417E-08 -3.730773E+03 -6.925970E-10
        41  24 -3.923466E+05 -5.851498E+01  2.251327E+03  2.116159E-08 -1.781101E+03 -8.231017E-10
        41  25 -3.923459E+05  1.166942E+03  7.162126E+03 -2.413929E+02 -5.680421E+03  2.210006E-03
        41  26 -3.926585E+05 -1.864302E+02  3.886589E+03 -2.553875E+01 -3.730773E+03  1.535623E-04
        41  27 -3.923466E+05 -5.851491E+01  2.251327E+03  1.903190E+02 -1.781101E+03 -5.463357E-04
        42   1 -3.924634E+05  1.155664E+02  1.718685E+03  5.131440E-01  1.425058E+03  1.178758E-06
        42   2 -3.925128E+05 -2.150423E+01  9.357846E+02 -1.283518E+01  9.598511E+02 -1.985623E-05
        42   3 -3.924636E+05 -7.111439E+00  4.937651E+02 -2.618351E+01  4.946446E+02 -2.087461E-05
        42   4 -3.924634E+05  1.155664E+02  1.718685E+03  6.249303E-09  1.425058E+03  2.419694E-10
        42   5 -3.925128E+05 -2.150423E+01  9.357846E+02  7.430737E-09  9.598511E+02  1.256192E-11
        42   6 -3.924636E+05 -7.111440E+00  4.937651E+02 -4.845772E-09  4.946446E+02 -3.695415E-10
        42   7 -3.924634E+05  1.155664E+02  1.718685E+03 -5.131440E-01  1.425058E+03 -1.178401E-06
        42   8 -3.925128E+05 -2.150423E+01  9.357846E+02  1.283518E+01  9.598511E+02  1.985619E-05
        42   9 -3.924636E+05 -7.111439E+00  4.937651E+02  2.618351E+01  4.946446E+02  2.087378E-05
        42  10 -3.924634E+05  1.155659E+02  1.718681E+03  5.131439E-01 -7.073421E-10  7.421042E-12
        42  11 -3.925128E+05 -2.150448E+01  9.357828E+02 -1.283518E+01  1.462783E-09 -1.697492E-12
        42  12 -3.924636E+05 -7.111505E+00  4.937647E+02 -2.618351E+01 -1.593568E-09 -2.868390E-10
        42  13 -3.924634E+05  1.155659E+02  1.718681E+03 -2.339889E-09  2.303956E-09 -1.056335E-11
        42  14 -3.925128E+05 -2.150448E+01  9.357828E+02 -3.344658E-09 -7.096685E-11  1.660612E-10
        42  15 -3.924636E+05 -7.111506E+00  4.937647E+02 -5.427281E-09 -8.953925E-10 -1.947052E-10
        42  16 -3.924634E+05  1.155659E+02  1.718681E+03 -5.131439E-01  5.903778E-10 -3.772090E-12
        42  17 -3.925128E+05 -2.150448E+01  9.357828E+02  1.283518E+01 -2.936057E-09  3.171917E-10
        42  18 -3.924636E+05 -7.111505E+00  4.937647E+02  2.618351E+01  1.206404E-09 -8.762431E-11
        42  19 -3.924634E+05  1.155664E+02  1.718685E+03  5.131440E-01 -1.425058E+03 -1.178703E-06
        42  20 -3.925128E+05 -2.150423E+01  9.357846E+02 -1.283518E+01 -9.598511E+02  1.985630E-05
        42  21 -3.924636E+05 -7.111439E+00  4.937651E+02 -2.618351E+01 -4.946446E+02  2.087402E-05
        42  22 -3.924634E+05  1.155664E+02  1.718685E+03  1.060777E-08 -1.425058E+03 -2.638399E-10
        42  23 -3.925128E+05 -2.150423E+01  9.357846E+02 -9.812576E-09 -9.598511E+02  3.204174E-10
        42  24 -3.924636E+05 -7.111440E+00  4.937651E+02  1.229792E-08 -4.946446E+02 -9.130472E-12
        42  25 -3.924634E+05  1.155664E+02  1.718685E+03 -5.131440E-01 -1.425058E+03  1.178284E-06
        42  26 -3.925128E+05 -2.150423E+01  9.357846E+02  1.283518E+01 -9.598511E+02 -1.985577E-05
        42  27 -3.924636E+05 -7.111439E+00  4.937651E+02  2.618351E+01 -4.946446E+02 -2.087416E-05
        43   1 -3.924848E+05  1.101557E+01  3.379992E+02 -1.001770E+01  4.195729E+02 -6.774349E-06
        43   2 -3.924864E+05  6.584992E-01  8.655177E+01 -6.881456E+00  3.770242E+02 -4.181097E-06
        43   3 -3.924848E+05 -1.891023E+01 -1.394866E+02 -3.745260E+00  3.344762E+02 -2.018440E-06
        43   4 -3.924848E+05  1.101557E+01  3.379992E+02 -5.259986E-09  4.195729E+02 -2.771713E-10
        43   5 -3.924864E+05  6.584991E-01  8.655177E+01 -1.125226E-08  3.770242E+02  3.736235E-10
        43   6 -3.924848E+05 -1.891023E+01 -1.394866E+02 -5.566936E-10  3.344762E+02  6.819837E-10
        43   7 -3.924848E+05  1.101557E+01  3.379992E+02  1.001770E+01  4.195729E+02  6.773874E-06
        43   8 -3.924864E+05  6.584991E-01  8.655177E+01  6.881456E+00  3.770242E+02  4.181668E-06
        43   9 -3.924848E+05 -1.891023E+01 -1.394866E+02  3.745260E+00  3.344762E+02  2.019825E-06
        43  10 -3.924848E+05  1.101552E+01  3.379988E+02 -1.001770E+01 -4.230661E-09  3.586482E-11
        43  11 -3.924864E+05  6.584610E-01  8.655151E+01 -6.881456E+00 -2.054007E-09  5.443752E-10
        43  12 -3.924848E+05 -1.891026E+01 -1.394868E+02 -3.745260E+00 -2.182330E-09 -5.331115E-10
        43  13 -3.924848E+05  1.101552E+01  3.379988E+02  3.424625E-09  1.334541E-10 -4.679253E-11
        43  14 -3.924864E+05  6.584609E-01  8.655151E+01  8.123642E-09 -9.349397E-10  4.273222E-10
        43  15 -3.924848E+05 -1.891026E+01 -1.394868E+02  4.207178E-09  8.682146E-10 -3.051568E-10
        43  16 -3.924848E+05  1.101552E+01  3.379988E+02  1.001770E+01  2.102286E-09 -1.202194E-10
        43  17 -3.924864E+05  6.584610E-01  8.655151E+01  6.881456E+00 -2.999727E-10  2.936690E-10
        43  18 -3.924848E+05 -1.891026E+01 -1.394868E+02  3.745260E+00  1.506889E-09 -5.203713E-11
        43  19 -3.924848E+05  1.101557E+01  3.379992E+02 -1.001770E+01 -4.195729E+02  6.774510E-06
        43  20 -3.924864E+05  6.584991E-01  8.655177E+01 -6.881456E+00 -3.770242E+02  4.182163E-06
        43  21 -3.924848E+05 -1.891023E+01 -1.394866E+02 -3.745260E+00 -3.344762E+02  2.017383E-06
        43  22 -3.924848E+05  1.101557E+01  3.379992E+02  2.933626E-08 -4.195729E+02  1.701331E-10
        43  23 -3.924864E+05  6.584991E-01  8.655177E+01  2.319049E-08 -3.770242E+02  4.411995E-10
        43  24 -3.924848E+05 -1.891023E+01 -1.394866E+02  3.804239E-08 -3.344762E+02 -1.289669E-09
        43  25 -3.924848E+05  1.101557E+01  3.379992E+02  1.001770E+01 -4.195729E+02 -6.774183E-06
        43  26 -3.924864E+05  6.584992E-01  8.655177E+01  6.881456E+00 -3.770242E+02 -4.181415E-06
        43  27 -3.924848E+05 -1.891023E+01 -1.394866E+02  3.745260E+00 -3.344762E+02 -2.020237E-06
        44   1 -3.925068E+05  9.907811E+00 -2.576689E+02 -3.259255E+01  3.699024E+02 -1.943112E-05
        44   2 -3.924589E+05  2.945258E+01 -5.640652E+02  2.690316E+00  6.532910E+02  2.831846E-06
        44   3 -3.925070E+05 -1.869958E+02 -1.114042E+03  3.797372E+01  9.366836E+02  5.732805E-05
        44   4 -3.925068E+05  9.907809E+00 -2.576689E+02  7.124813E-09  3.699024E+02 -1.689482E-10
        44   5 -3.924589E+05  2.945258E+01 -5.640652E+02 -5.673960E-09  6.532910E+02 -1.339952E-09
        44   6 -3.925070E+05 -1.869958E+02 -1.114042E+03  2.523107E-09  9.366836E+02  3.383970E-10
        44   7 -3.925068E+05  9.907811E+00 -2.576689E+02  3.259255E+01  3.699024E+02  1.943083E-05
        44   8 -3.924589E+05  2.945258E+01 -5.640652E+02 -2.690316E+00  6.532910E+02 -2.834520E-06
        44   9 -3.925070E+05 -1.869958E+02 -1.114042E+03 -3.797372E+01  9.366836E+02 -5.732746E-05
        44  10 -3.925068E+05  9.907775E+00 -2.576692E+02 -3.259255E+01 -2.069795E-09 -4.784815E-10
        44  11 -3.924589E+05  2.945247E+01 -5.640660E+02  2.690316E+00 -6.887115E-10  7.354208E-10
        44  12 -3.925070E+05 -1.869960E+02 -1.114044E+03  3.797372E+01  4.894109E-10  5.255294E-11
        44  13 -3.925068E+05  9.907772E+00 -2.576692E+02  7.200514E-09 -1.670419E-10 -3.602951E-10
        44  14 -3.924589E+05  2.945247E+01 -5.640660E+02  7.981681E-10  8.682951E-10  2.774779E-10
        44  15 -3.925070E+05 -1.869960E+02 -1.114044E+03 -6.680985E-09  5.020776E-09 -3.474345E-11
        44  16 -3.925068E+05  9.907774E+00 -2.576692E+02  3.259255E+01  2.800177E-09 -2.426812E-10
        44  17 -3.924589E+05  2.945247E+01 -5.640660E+02 -2.690316E+00  4.384425E-10 -1.259791E-10
        44  18 -3.925070E+05 -1.869960E+02 -1.114044E+03 -3.797372E+01 -1.740949E-10 -7.764530E-11
        44  19 -3.925068E+05  9.907811E+00 -2.576689E+02 -3.259255E+01 -3.699024E+02  1.943029E-05
        44  20 -3.924589E+05  2.945258E+01 -5.640652E+02  2.690316E+00 -6.532910E+02 -2.830329E-06
        44  21 -3.925070E+05 -1.869958E+02 -1.114042E+03  3.797372E+01 -9.366836E+02 -5.732805E-05
        44  22 -3.925068E+05  9.907809E+00 -2.576689E+02  3.311715E-08 -3.699024E+02 -5.565033E-10
        44  23 -3.924589E+05  2.945258E+01 -5.640652E+02  7.269506E-09 -6.532910E+02  1.909875E-09
        44  24 -3.925070E+05 -1.869958E+02 -1.114042E+03  1.533646E-08 -9.366836E+02 -4.081344E-10
        44  25 -3.925068E+05  9.907811E+00 -2.576689E+02  3.259255E+01 -3.699024E+02 -1.943151E-05
        44  26 -3.924589E+05  2.945258E+01 -5.640652E+02 -2.690316E+00 -6.532910E+02  2.834199E-06
        44  27 -3.925070E+05 -1.869958E+02 -1.114042E+03 -3.797372E+01 -9.366836E+02  5.732721E-05
        45   1 -3.926472E+05  9.232860E+01 -1.442389E+03 -2.562764E+02  1.162532E+03 -4.801767E-04
        45   2 -3.922838E+05  2.679077E+02 -2.454962E+03  1.280892E+02  2.421165E+03  4.998325E-04
        45   3 -3.926478E+05 -1.809781E+03 -4.850656E+03  5.124550E+02  3.679796E+03  3.039258E-03
        45   4 -3.926472E+05  9.232848E+01 -1.442389E+03  1.455043E-08  1.162532E+03  7.498230E-10
        45   5 -3.922838E+05  2.679077E+02 -2.454962E+03 -1.075369E-09  2.421165E+03 -2.785400E-10
        45   6 -3.926478E+05 -1.809781E+03 -4.850656E+03  2.421715E-08  3.679796E+03  3.952255E-10
        45   7 -3.926472E+05  9.232860E+01 -1.442389E+03  2.562764E+02  1.162532E+03  4.801781E-04
        45   8 -3.922838E+05  2.679077E+02 -2.454962E+03 -1.280892E+02  2.421165E+03 -4.998332E-04
        45   9 -3.926478E+05 -1.809781E+03 -4.850656E+03 -5.124550E+02  3.679796E+03 -3.039257E-03
        45  10 -3.926472E+05  9.232824E+01 -1.442391E+03 -2.562764E+02 -3.914402E-10 -3.115776E-10
        45  11 -3.922838E+05  2.679062E+02 -2.454973E+03  1.280892E+02 -9.775511E-10  1.208863E-11
        45  12 -3.926478E+05 -1.809784E+03 -4.850681E+03  5.124550E+02  7.625545E-10 -3.226456E-10
        45  13 -3.926472E+05  9.232812E+01 -1.442391E+03  5.979101E-09  2.162016E-09 -9.237251E-11
        45  14 -3.922838E+05  2.679061E+02 -2.454973E+03  3.226596E-09  1.544389E-09  2.102010E-10
        45  15 -3.926478E+05 -1.809785E+03 -4.850681E+03  1.877977E-08  5.788932E-10 -2.232842E-10
        45  16 -3.926472E+05  9.232824E+01 -1.442391E+03  2.562764E+02  1.907074E-09  1.184305E-10
        45  17 -3.922838E+05  2.679062E+02 -2.454973E+03 -1.280892E+02  2.319348E-09  3.903220E-10
        45  18 -3.926478E+05 -1.809784E+03 -4.850681E+03 -5.124550E+02  2.050989E-09 -1.219965E-10
        45  19 -3.926472E+05  9.232860E+01 -1.442389E+03 -2.562764E+02 -1.162532E+03  4.801762E-04
        45  20 -3.922838E+05  2.679077E+02 -2.454962E+03  1.280892E+02 -2.421165E+03 -4.998325E-04
        45  21 -3.926478E+05 -1.809781E+03 -4.850656E+03  5.124550E+02 -3.679796E+03 -3.039259E-03
        45  22 -3.926472E+05  9.232848E+01 -1.442389E+03  2.325082E-08 -1.162532E+03 -9.445861E-10
        45  23 -3.922838E+05  2.679077E+02 -2.454962E+03  1.614458E-08 -2.421165E+03  7.051888E-10
        45  24 -3.926478E+05 -1.809781E+03 -4.850656E+03  4.564994E-08 -3.679796E+03 -8.283268E-10
        45  25 -3.926472E+05  9.232860E+01 -1.442389E+03  2.562764E+02 -1.162532E+03 -4.801782E-04
        45  26 -3.922838E+05  2.679077E+02 -2.454962E+03 -1.280892E+02 -2.421165E+03  4.998339E-04
        45  27 -3.926478E+05 -1.809781E+03 -4.850656E+03 -5.124550E+02 -3.679796E+03  3.039257E-03
        46   1 -3.938156E+05  8.860407E+02 -5.949603E+03 -2.280153E+03  4.602972E+03 -1.691575E-02
        46   2 -3.908242E+05  2.466334E+03 -9.519467E+03  1.568303E+03  9.741371E+03  2.462276E-02
        46   3 -3.938191E+05 -1.721747E+04 -2.175218E+04  5.416681E+03  1.487970E+04  1.299019E-01
        46   4 -3.938156E+05  8.860309E+02 -5.949604E+03  7.849664E-09  4.602972E+03  3.668562E-10
        46   5 -3.908242E+05  2.466330E+03 -9.519468E+03 -2.402917E-09  9.741371E+03 -6.630498E-10
        46   6 -3.938191E+05 -1.721752E+04 -2.175219E+04 -5.658371E-09  1.487970E+04 -3.545290E-10
        46   7 -3.938156E+05  8.860407E+02 -5.949603E+03  2.280153E+03  4.602972E+03  1.691575E-02
        46   8 -3.908242E+05  2.466334E+03 -9.519467E+03 -1.568303E+03  9.741371E+03 -2.462276E-02
        46   9 -3.938191E+05 -1.721747E+04 -2.175218E+04 -5.416681E+03  1.487970E+04 -1.299019E-01
        46  10 -3.938157E+05  8.860350E+02 -5.949642E+03 -2.280153E+03 -2.307319E-09 -3.222294E-10
        46  11 -3.908243E+05  2.466309E+03 -9.519645E+03  1.568303E+03  2.366355E-09  1.287511E-10
        46  12 -3.938194E+05 -1.721753E+04 -2.175260E+04  5.416681E+03  2.488638E-10  1.151968E-10
        46  13 -3.938157E+05  8.860253E+02 -5.949644E+03  1.218501E-08 -7.868921E-10 -3.424453E-10
        46  14 -3.908243E+05  2.466304E+03 -9.519646E+03 -1.315919E-08  5.383977E-10 -3.753670E-11
        46  15 -3.938194E+05 -1.721758E+04 -2.175261E+04 -2.450207E-08  1.545985E-09  2.622844E-11
        46  16 -3.938157E+05  8.860350E+02 -5.949642E+03  2.280153E+03  1.288278E-09 -3.196839E-10
        46  17 -3.908243E+05  2.466309E+03 -9.519645E+03 -1.568303E+03  1.779290E-09 -1.955783E-10
        46  18 -3.938194E+05 -1.721753E+04 -2.175260E+04 -5.416681E+03  8.672843E-10 -4.111120E-11
        46  19 -3.938156E+05  8.860407E+02 -5.949603E+03 -2.280153E+03 -4.602972E+03  1.691575E-02
        46  20 -3.908242E+05  2.466334E+03 -9.519467E+03  1.568303E+03 -9.741371E+03 -2.462276E-02
        46  21 -3.938191E+05 -1.721747E+04 -2.175218E+04  5.416681E+03 -1.487970E+04 -1.299019E-01
        46  22 -3.938156E+05  8.860309E+02 -5.949604E+03  3.374691E-08 -4.602972E+03 -1.050047E-09
        46  23 -3.908242E+05  2.466330E+03 -9.519468E+03 -2.379259E-09 -9.741371E+03  5.953900E-10
        46  24 -3.938191E+05 -1.721752E+04 -2.175219E+04 -1.356174E-09 -1.487970E+04  4.269823E-10
        46  25 -3.938156E+05  8.860407E+02 -5.949603E+03  2.280153E+03 -4.602972E+03 -1.691575E-02
        46  26 -3.908242E+05  2.466334E+03 -9.519467E+03 -1.568303E+03 -9.741371E+03  2.462276E-02
        46  27 -3.938191E+05 -1.721747E+04 -2.175218E+04 -5.416681E+03 -1.487970E+04  1.299019E-01
        47   1  5.569400E+04 -9.608617E+05  3.697699E+04 -4.943414E+03  4.780713E+03 -4.874039E+04
        47   2  1.177408E+05 -9.995870E+05  6.761034E+04 -1.386841E+03  1.411236E+04 -3.431351E+04
        47   3  9.929086E+04 -1.060137E+06  6.875888E+04 -3.455638E+04  1.245109E+04 -1.989032E+04
        47   4 -6.578820E+04 -1.447415E+06 -8.325570E+04 -2.562381E+04  4.783532E+03 -5.617591E+04
        47   5  9.427098E+03 -1.435984E+06 -3.700860E+04 -7.252371E+03  1.411407E+04 -3.622889E+04
        47   6  3.154306E+03 -1.447358E+06 -2.410243E+04 -2.560927E+04  1.244896E+04 -1.628412E+04
        47   7 -1.872865E+05 -1.933751E+06 -2.035056E+05 -4.628795E+04  4.786849E+03 -6.360559E+04
        47   8 -9.890033E+04 -1.872206E+06 -1.416410E+05 -1.311374E+04  1.411582E+04 -3.814292E+04
        47   9 -9.299286E+04 -1.834441E+06 -1.169743E+05 -1.666775E+04  1.244694E+04 -1.268015E+04
        47  10  5.569334E+04 -9.608643E+05  3.697248E+04 -4.943226E+03 -1.383218E-09 -5.298755E-10
        47  11  1.177403E+05 -9.995884E+05  6.760775E+04 -1.386451E+03 -6.599990E-10 -8.135724E-10
        47  12  9.929059E+04 -1.060138E+06  6.875784E+04 -3.455618E+04 -6.152672E-10  2.691263E-10
        47  13 -6.578908E+04 -1.447418E+06 -8.326169E+04 -2.562360E+04  8.107800E-10 -3.455050E-11
        47  14  9.426531E+03 -1.435986E+06 -3.701145E+04 -7.251959E+03  1.196995E-09 -3.564896E-10
        47  15  3.154068E+03 -1.447358E+06 -2.410322E+04 -2.560911E+04  1.245663E-09  2.749738E-10
        47  16 -1.872876E+05 -1.933755E+06 -2.035132E+05 -4.628771E+04  2.982132E-10  5.347421E-10
        47  17 -9.890094E+04 -1.872208E+06 -1.416441E+05 -1.311330E+04 -1.128457E-09  4.154642E-10
        47  18 -9.299307E+04 -1.834441E+06 -1.169749E+05 -1.666762E+04 -1.507621E-09 -4.392468E-10
        47  19  5.569400E+04 -9.608617E+05  3.697699E+04 -4.943414E+03 -4.780713E+03  4.874039E+04
        47  20  1.177408E+05 -9.995870E+05  6.761034E+04 -1.386841E+03 -1.411236E+04  3.431351E+04
        47  21  9.929086E+04 -1.060137E+06  6.875888E+04 -3.455638E+04 -1.245109E+04  1.989032E+04
        47  22 -6.578820E+04 -1.447415E+06 -8.325570E+04 -2.562381E+04 -4.783532E+03  5.617591E+04
        47  23  9.427098E+03 -1.435984E+06 -3.700860E+04 -7.252371E+03 -1.411407E+04  3.622889E+04
        47  24  3.154306E+03 -1.447358E+06 -2.410243E+04 -2.560927E+04 -1.244896E+04  1.628412E+04
        47  25 -1.872865E+05 -1.933751E+06 -2.035056E+05 -4.628795E+04 -4.786849E+03  6.360559E+04
        47  26 -9.890033E+04 -1.872206E+06 -1.416410E+05 -1.311374E+04 -1.411582E+04  3.814292E+04
        47  27 -9.299286E+04 -1.834441E+06 -1.169743E+05 -1.666775E+04 -1.244694E+04  1.268015E+04
        48   1  7.235330E+04 -1.124472E+06  5.624130E+04 -2.392195E+04  9.696083E+03 -1.290162E+04
        48   2  6.764333E+04 -1.174361E+06  5.150859E+04 -6.589217E+03  8.441648E+03 -6.898703E+03
        48   3  5.146446E+04 -1.227905E+06  3.999420E+04 -2.788128E+04  6.336423E+03 -8.980714E+02
        48   4 -6.780917E+03 -1.443117E+06 -2.035424E+04 -2.604024E+04  9.696134E+03 -1.248250E+04
        48   5  1.380131E+03 -1.441245E+06 -1.254121E+04 -6.725496E+03  8.441112E+03 -6.054269E+03
        48   6 -2.004415E+03 -1.443107E+06 -1.180799E+04 -2.603674E+04  6.335168E+03  3.721700E+02
        48   7 -8.592252E+04 -1.761669E+06 -9.695702E+04 -2.815743E+04  9.696182E+03 -1.206359E+04
        48   8 -6.488826E+04 -1.708064E+06 -7.659606E+04 -6.861700E+03  8.440576E+03 -5.210197E+03
        48   9 -5.547666E+04 -1.658266E+06 -6.361348E+04 -2.419284E+04  6.333919E+03  1.641972E+03
        48  10  7.235315E+04 -1.124472E+06  5.624081E+04 -2.392184E+04  2.552986E-09  1.301450E-09
        48  11  6.764324E+04 -1.174361E+06  5.150836E+04 -6.589171E+03  3.983052E-09 -1.098753E-09
        48  12  5.146442E+04 -1.227905E+06  3.999412E+04 -2.788128E+04  1.128884E-09 -1.559124E-09
        48  13 -6.781060E+03 -1.443117E+06 -2.035471E+04 -2.604014E+04  2.732015E-09  5.069674E-10
        48  14  1.380044E+03 -1.441245E+06 -1.254141E+04 -6.725455E+03  2.924729E-09 -8.195477E-10
        48  15 -2.004458E+03 -1.443107E+06 -1.180807E+04 -2.603675E+04  1.843623E-09  4.066096E-10
        48  16 -8.592266E+04 -1.761669E+06 -9.695747E+04 -2.815733E+04 -5.431388E-10 -1.300169E-09
        48  17 -6.488834E+04 -1.708064E+06 -7.659624E+04 -6.861665E+03  6.774923E-10  1.036489E-10
        48  18 -5.547671E+04 -1.658266E+06 -6.361356E+04 -2.419285E+04  3.024963E-09  1.328099E-09
        48  19  7.235330E+04 -1.124472E+06  5.624130E+04 -2.392195E+04 -9.696083E+03  1.290162E+04
        48  20  6.764333E+04 -1.174361E+06  5.150859E+04 -6.589217E+03 -8.441648E+03  6.898703E+03
        48  21  5.146446E+04 -1.227905E+06  3.999420E+04 -2.788128E+04 -6.336423E+03  8.980714E+02
        48  22 -6.780917E+03 -1.443117E+06 -2.035424E+04 -2.604024E+04 -9.696134E+03  1.248250E+04
        48  23  1.380131E+03 -1.441245E+06 -1.254121E+04 -6.725496E+03 -8.441112E+03  6.054269E+03
        48  24 -2.004415E+03 -1.443107E+06 -1.180799E+04 -2.603674E+04 -6.335168E+03 -3.721700E+02
        48  25 -8.592252E+04 -1.761669E+06 -9.695702E+04 -2.815743E+04 -9.696182E+03  1.206359E+04
        48  26 -6.488826E+04 -1.708064E+06 -7.659606E+04 -6.861700E+03 -8.440576E+03  5.210197E+03
        48  27 -5.547666E+04 -1.658266E+06 -6.361348E+04 -2.419284E+04 -6.333919E+03 -1.641972E+03
        49   1  3.635890E+04 -1.299645E+06  2.255880E+04 -2.316577E+04  4.980151E+03  1.410108E+03
        49   2  2.618477E+04 -1.348275E+06  7.495522E+03 -8.655227E+03  2.881496E+03  9.105060E+03
        49   3 -1.313966E+04 -1.405304E+06 -1.989629E+04 -3.363847E+04  6.495510E+02  1.679871E+04
        49   4  5.168344E+02 -1.444137E+06 -1.198298E+04 -2.622158E+04  4.979036E+03  2.427933E+03
        49   5  3.417317E+03 -1.439937E+06 -1.450768E+04 -6.488514E+03  2.880251E+03  1.018879E+04
        49   6 -2.284614E+04 -1.444151E+06 -2.940768E+04 -2.625017E+04  6.482867E+02  1.794898E+04
        49   7 -3.532671E+04 -1.588610E+06 -4.652624E+04 -2.927666E+04  4.977911E+03  3.445521E+03
        49   8 -1.935073E+04 -1.531591E+06 -3.651147E+04 -4.322120E+03  2.879013E+03  1.127236E+04
        49   9 -3.255253E+04 -1.482996E+06 -3.891914E+04 -1.886233E+04  6.470498E+02  1.909918E+04
        49  10  3.635887E+04 -1.299645E+06  2.255875E+04 -2.316577E+04 -1.324554E-10  3.033003E-10
        49  11  2.618474E+04 -1.348275E+06  7.495350E+03 -8.655249E+03  9.383066E-10 -2.053297E-09
        49  12 -1.313974E+04 -1.405304E+06 -1.989682E+04 -3.363848E+04  9.620087E-11 -1.345401E-09
        49  13  5.168063E+02 -1.444137E+06 -1.198304E+04 -2.622159E+04  2.496290E-09  7.651520E-10
        49  14  3.417280E+03 -1.439937E+06 -1.450789E+04 -6.488538E+03  2.425416E-09 -1.284080E-09
        49  15 -2.284623E+04 -1.444151E+06 -2.940828E+04 -2.625018E+04  2.495660E-12  5.287144E-10
        49  16 -3.532674E+04 -1.588610E+06 -4.652631E+04 -2.927668E+04  1.337893E-09 -4.370214E-11
        49  17 -1.935077E+04 -1.531591E+06 -3.651172E+04 -4.322146E+03  2.238253E-09  6.253711E-10
        49  18 -3.255263E+04 -1.482996E+06 -3.891983E+04 -1.886234E+04  1.054124E-09  1.177449E-09
        49  19  3.635890E+04 -1.299645E+06  2.255880E+04 -2.316577E+04 -4.980151E+03 -1.410108E+03
        49  20  2.618477E+04 -1.348275E+06  7.495522E+03 -8.655227E+03 -2.881496E+03 -9.105060E+03
        49  21 -1.313966E+04 -1.405304E+06 -1.989629E+04 -3.363847E+04 -6.495510E+02 -1.679871E+04
        49  22  5.168344E+02 -1.444137E+06 -1.198298E+04 -2.622158E+04 -4.979036E+03 -2.427933E+03
        49  23  3.417317E+03 -1.439937E+06 -1.450768E+04 -6.488514E+03 -2.880251E+03 -1.018879E+04
        49  24 -2.284614E+04 -1.444151E+06 -2.940768E+04 -2.625017E+04 -6.482867E+02 -1.794898E+04
        49  25 -3.532671E+04 -1.588610E+06 -4.652624E+04 -2.927666E+04 -4.977911E+03 -3.445521E+03
        49  26 -1.935073E+04 -1.531591E+06 -3.651147E+04 -4.322120E+03 -2.879013E+03 -1.127236E+04
        49  27 -3.255253E+04 -1.482996E+06 -3.891914E+04 -1.886233E+04 -6.470498E+02 -1.909918E+04
        50   1 -9.672876E+05 -1.561660E+05 -1.691023E+04 -3.605911E+05  4.018268E+03  2.619200E+03
        50   2 -9.594179E+05 -1.562239E+05 -1.812398E+04 -3.519322E+05  2.350258E+03  4.090749E+03
        50   3 -9.411806E+05 -1.553415E+05 -1.637765E+04 -3.536414E+05  1.560967E+03  3.218558E+03
        50   4 -8.701699E+05 -1.215031E+05  9.142440E+03 -3.362022E+05  5.437645E+03  3.151393E+03
        50   5 -8.759343E+05 -1.254236E+05  3.807479E+03 -3.297660E+05  2.664816E+03  4.208642E+03
        50   6 -8.711126E+05 -1.281854E+05  2.308440E+03 -3.336981E+05  7.706619E+02  2.922311E+03
        50   7 -7.730440E+05 -8.684027E+04  3.519407E+04 -3.118101E+05  6.857255E+03  3.683663E+03
        50   8 -7.924442E+05 -9.462299E+04  2.573829E+04 -3.075973E+05  2.979420E+03  4.326551E+03
        50   9 -8.010395E+05 -1.010288E+05  2.099418E+04 -3.137526E+05 -1.974449E+01  2.626023E+03
        50  10 -9.672876E+05 -1.561660E+05 -1.691027E+04 -3.605911E+05 -1.276203E-10 -2.831070E-10
        50  11 -9.594179E+05 -1.562239E+05 -1.812402E+04 -3.519322E+05  1.708575E-09 -5.826633E-10
        50  12 -9.411807E+05 -1.553415E+05 -1.637768E+04 -3.536414E+05 -2.325149E-09 -4.915065E-10
        50  13 -8.701699E+05 -1.215032E+05  9.142365E+03 -3.362022E+05  2.069334E-09 -2.701292E-10
        50  14 -8.759343E+05 -1.254236E+05  3.807432E+03 -3.297660E+05  2.567569E-10 -1.502763E-10
        50  15 -8.711126E+05 -1.281854E+05  2.308423E+03 -3.336981E+05 -3.786471E-10 -4.469235E-10
        50  16 -7.730440E+05 -8.684030E+04  3.519396E+04 -3.118101E+05 -1.812185E-09 -1.168068E-10
        50  17 -7.924442E+05 -9.462301E+04  2.573824E+04 -3.075973E+05 -3.846994E-09 -1.281140E-10
        50  18 -8.010395E+05 -1.010288E+05  2.099417E+04 -3.137526E+05 -1.973507E-09 -5.770375E-10
        50  19 -9.672876E+05 -1.561660E+05 -1.691023E+04 -3.605911E+05 -4.018268E+03 -2.619200E+03
        50  20 -9.594179E+05 -1.562239E+05 -1.812398E+04 -3.519322E+05 -2.350258E+03 -4.090749E+03
        50  21 -9.411806E+05 -1.553415E+05 -1.637765E+04 -3.536414E+05 -1.560967E+03 -3.218558E+03
        50  22 -8.701699E+05 -1.215031E+05  9.142440E+03 -3.362022E+05 -5.437645E+03 -3.151393E+03
        50  23 -8.759343E+05 -1.254236E+05  3.807479E+03 -3.297660E+05 -2.664816E+03 -4.208642E+03
        50  24 -8.711126E+05 -1.281854E+05  2.308440E+03 -3.336981E+05 -7.706619E+02 -2.922311E+03
        50  25 -7.730440E+05 -8.684027E+04  3.519407E+04 -3.118101E+05 -6.857255E+03 -3.683663E+03
        50  26 -7.924442E+05 -9.462299E+04  2.573829E+04 -3.075973E+05 -2.979420E+03 -4.326551E+03
        50  27 -8.010395E+05 -1.010288E+05  2.099418E+04 -3.137526E+05  1.974449E+01 -2.626023E+03
        51   1 -9.237556E+05 -1.467592E+05 -1.195472E+04 -3.483584E+05  8.127223E+02  2.189794E+03
        51   2 -9.148178E+05 -1.392035E+05 -9.541424E+03 -3.405234E+05  5.740271E+02  1.688700E+03
        51   3 -8.981111E+05 -1.381170E+05 -6.601313E+03 -3.413722E+05  4.074777E+02  9.949135E+02
        51   4 -8.713677E+05 -1.272759E+05  1.876664E+03 -3.342980E+05  6.880971E+02  2.143072E+03
        51   5 -8.753125E+05 -1.244165E+05  8.922751E+02 -3.298190E+05  3.585488E+02  1.607938E+03
        51   6 -8.714708E+05 -1.280082E+05  5.067211E+02 -3.340237E+05  1.011545E+02  8.801231E+02
        51   7 -8.189770E+05 -1.077924E+05  1.570783E+04 -3.202366E+05  5.634602E+02  2.096345E+03
        51   8 -8.358059E+05 -1.096295E+05  1.132579E+04 -3.191140E+05  1.430564E+02  1.527170E+03
        51   9 -8.448301E+05 -1.178995E+05  7.614615E+03 -3.266750E+05 -2.051800E+02  7.653284E+02
        51  10 -9.237556E+05 -1.467592E+05 -1.195473E+04 -3.483584E+05 -1.703954E-09 -3.561219E-10
        51  11 -9.148178E+05 -1.392035E+05 -9.541430E+03 -3.405234E+05  1.169368E-09 -6.939651E-10
        51  12 -8.981111E+05 -1.381170E+05 -6.601315E+03 -3.413722E+05 -1.245059E-09  6.831679E-10
        51  13 -8.713677E+05 -1.272759E+05  1.876654E+03 -3.342980E+05 -1.914707E-09 -6.821023E-10
        51  14 -8.753125E+05 -1.244165E+05  8.922700E+02 -3.298190E+05  2.311670E-09 -4.399464E-10
        51  15 -8.714708E+05 -1.280082E+05  5.067196E+02 -3.340237E+05  2.917175E-09  8.979182E-10
        51  16 -8.189770E+05 -1.077924E+05  1.570783E+04 -3.202366E+05  7.698515E-11 -9.009062E-10
        51  17 -8.358059E+05 -1.096295E+05  1.132579E+04 -3.191140E+05  2.918681E-09  1.645900E-10
        51  18 -8.448301E+05 -1.178995E+05  7.614614E+03 -3.266750E+05  2.725805E-09  5.998554E-10
        51  19 -9.237556E+05 -1.467592E+05 -1.195472E+04 -3.483584E+05 -8.127223E+02 -2.189794E+03
        51  20 -9.148178E+05 -1.392035E+05 -9.541424E+03 -3.405234E+05 -5.740271E+02 -1.688700E+03
        51  21 -8.981111E+05 -1.381170E+05 -6.601313E+03 -3.413722E+05 -4.074777E+02 -9.949135E+02
        51  22 -8.713677E+05 -1.272759E+05  1.876664E+03 -3.342980E+05 -6.880971E+02 -2.143072E+03
        51  23 -8.753125E+05 -1.244165E+05  8.922751E+02 -3.298190E+05 -3.585488E+02 -1.607938E+03
        51  24 -8.714708E+05 -1.280082E+05  5.067211E+02 -3.340237E+05 -1.011545E+02 -8.801231E+02
        51  25 -8.189770E+05 -1.077924E+05  1.570783E+04 -3.202366E+05 -5.634602E+02 -2.096345E+03
        51  26 -8.358059E+05 -1.096295E+05  1.132579E+04 -3.191140E+05 -1.430564E+02 -1.527170E+03
        51  27 -8.448301E+05 -1.178995E+05  7.614615E+03 -3.266750E+05  2.051800E+02 -7.653284E+02
        52   1 -8.794884E+05 -1.308929E+05 -1.676627E+03 -3.362594E+05  4.137930E+02  5.949795E+02
        52   2 -8.703732E+05 -1.224626E+05  1.467348E+03 -3.284854E+05  5.328370E+02  1.989692E+01
        52   3 -8.537829E+05 -1.213601E+05  4.701084E+03 -3.292511E+05  6.571846E+02 -5.692956E+02
        52   4 -8.714994E+05 -1.279169E+05  3.885721E+02 -3.340988E+05  1.610002E+02  5.002528E+02
        52   5 -8.752432E+05 -1.242940E+05  1.789106E+02 -3.298137E+05  2.733873E+02 -7.732887E+01
        52   6 -8.715108E+05 -1.279977E+05  6.426430E+01 -3.340685E+05  3.910796E+02 -6.690189E+02
        52   7 -8.635104E+05 -1.249409E+05  2.453786E+03 -3.319381E+05 -9.179842E+01  4.055239E+02
        52   8 -8.801132E+05 -1.261254E+05 -1.109538E+03 -3.311420E+05  1.393793E+01 -1.745546E+02
        52   9 -8.892384E+05 -1.346353E+05 -4.572613E+03 -3.388857E+05  1.249814E+02 -7.687397E+02
        52  10 -8.794884E+05 -1.308929E+05 -1.676628E+03 -3.362594E+05 -8.869194E-10  1.161539E-09
        52  11 -8.703732E+05 -1.224626E+05  1.467347E+03 -3.284854E+05  2.565282E-10  5.329728E-10
        52  12 -8.537829E+05 -1.213601E+05  4.701083E+03 -3.292511E+05  5.270539E-10  3.444352E-10
        52  13 -8.714994E+05 -1.279169E+05  3.885716E+02 -3.340988E+05  2.854292E-09  1.042249E-09
        52  14 -8.752432E+05 -1.242940E+05  1.789104E+02 -3.298137E+05 -3.380730E-10  4.098053E-10
        52  15 -8.715108E+05 -1.279977E+05  6.426318E+01 -3.340685E+05  7.946676E-10  4.049890E-11
        52  16 -8.635104E+05 -1.249409E+05  2.453786E+03 -3.319381E+05  1.582365E-09  7.813197E-10
        52  17 -8.801132E+05 -1.261254E+05 -1.109538E+03 -3.311420E+05  8.715676E-10  1.161428E-09
        52  18 -8.892384E+05 -1.346353E+05 -4.572614E+03 -3.388857E+05  1.403823E-09  8.252035E-11
        52  19 -8.794884E+05 -1.308929E+05 -1.676627E+03 -3.362594E+05 -4.137930E+02 -5.949795E+02
        52  20 -8.703732E+05 -1.224626E+05  1.467348E+03 -3.284854E+05 -5.328370E+02 -1.989692E+01
        52  21 -8.537829E+05 -1.213601E+05  4.701084E+03 -3.292511E+05 -6.571846E+02  5.692956E+02
        52  22 -8.714994E+05 -1.279169E+05  3.885721E+02 -3.340988E+05 -1.610002E+02 -5.002528E+02
        52  23 -8.752432E+05 -1.242940E+05  1.789106E+02 -3.298137E+05 -2.733873E+02  7.732887E+01
        52  24 -8.715108E+05 -1.279977E+05  6.426430E+01 -3.340685E+05 -3.910796E+02  6.690189E+02
        52  25 -8.635104E+05 -1.249409E+05  2.453786E+03 -3.319381E+05  9.179842E+01 -4.055239E+02
        52  26 -8.801132E+05 -1.261254E+05 -1.109538E+03 -3.311420E+05 -1.393793E+01  1.745546E+02
        52  27 -8.892384E+05 -1.346353E+05 -4.572613E+03 -3.388857E+05 -1.249814E+02  7.687397E+02
        53   1 -8.351749E+05 -1.143087E+05  9.681806E+03 -3.241652E+05  7.683201E+02 -9.000415E+02
        53   2 -8.261288E+05 -1.058676E+05  1.289897E+04 -3.164751E+05  1.013724E+03 -1.439329E+03
        53   3 -8.097302E+05 -1.047867E+05  1.608748E+04 -3.172204E+05  1.258018E+03 -1.975471E+03
        53   4 -8.715339E+05 -1.279700E+05  1.943320E+01 -3.340587E+05  5.066705E+02 -9.981014E+02
        53   5 -8.752115E+05 -1.243002E+05 -7.913996E+01 -3.298371E+05  7.535445E+02 -1.536853E+03
        53   6 -8.715370E+05 -1.279906E+05 -2.075016E+02 -3.340510E+05  9.993085E+02 -2.072460E+03
        53   7 -9.078913E+05 -1.416311E+05 -9.642948E+03 -3.439515E+05  2.450404E+02 -1.096154E+03
        53   8 -9.242917E+05 -1.427325E+05 -1.305741E+04 -3.431982E+05  4.933884E+02 -1.634368E+03
        53   9 -9.333404E+05 -1.511944E+05 -1.650289E+04 -3.508803E+05  7.406262E+02 -2.169439E+03
        53  10 -8.351749E+05 -1.143087E+05  9.681803E+03 -3.241652E+05  2.100504E-09  5.186032E-10
        53  11 -8.261288E+05 -1.058676E+05  1.289896E+04 -3.164751E+05  1.622859E-09  3.156386E-10
        53  12 -8.097302E+05 -1.047867E+05  1.608747E+04 -3.172204E+05  7.473559E-10  1.829880E-10
        53  13 -8.715339E+05 -1.279700E+05  1.943085E+01 -3.340587E+05  2.608826E-10  3.989475E-10
        53  14 -8.752115E+05 -1.243002E+05 -7.914546E+01 -3.298371E+05 -2.542476E-11  1.932406E-10
        53  15 -8.715370E+05 -1.279906E+05 -2.075116E+02 -3.340510E+05 -6.121708E-10 -2.739327E-10
        53  16 -9.078913E+05 -1.416311E+05 -9.642950E+03 -3.439515E+05  7.893039E-10 -5.089340E-10
        53  17 -9.242917E+05 -1.427325E+05 -1.305742E+04 -3.431982E+05 -2.477250E-09  2.453630E-10
        53  18 -9.333404E+05 -1.511945E+05 -1.650290E+04 -3.508803E+05 -7.671233E-10 -7.514977E-10
        53  19 -8.351749E+05 -1.143087E+05  9.681806E+03 -3.241652E+05 -7.683201E+02  9.000415E+02
        53  20 -8.261288E+05 -1.058676E+05  1.289897E+04 -3.164751E+05 -1.013724E+03  1.439329E+03
        53  21 -8.097302E+05 -1.047867E+05  1.608748E+04 -3.172204E+05 -1.258018E+03  1.975471E+03
        53  22 -8.715339E+05 -1.279700E+05  1.943320E+01 -3.340587E+05 -5.066705E+02  9.981014E+02
        53  23 -8.752115E+05 -1.243002E+05 -7.913996E+01 -3.298371E+05 -7.535445E+02  1.536853E+03
        53  24 -8.715370E+05 -1.279906E+05 -2.075016E+02 -3.340510E+05 -9.993085E+02  2.072460E+03
        53  25 -9.078913E+05 -1.416311E+05 -9.642948E+03 -3.439515E+05 -2.450404E+02  1.096154E+03
        53  26 -9.242917E+05 -1.427325E+05 -1.305741E+04 -3.431982E+05 -4.933884E+02  1.634368E+03
        53  27 -9.333404E+05 -1.511944E+05 -1.650289E+04 -3.508803E+05 -7.406262E+02  2.169439E+03
        54   1 -7.914481E+05 -9.783945E+04  2.094762E+04 -3.122082E+05  1.418101E+03 -2.279662E+03
        54   2 -7.826288E+05 -8.958655E+04  2.391604E+04 -3.047042E+05  1.891105E+03 -2.720594E+03
        54   3 -7.667208E+05 -8.862688E+04  2.665107E+04 -3.053850E+05  2.360191E+03 -3.150721E+03
        54   4 -8.715906E+05 -1.279334E+05 -2.891729E+02 -3.340117E+05  1.160016E+03 -2.376436E+03
        54   5 -8.751421E+05 -1.243381E+05 -5.467780E+02 -3.299000E+05  1.638061E+03 -2.815508E+03
        54   6 -8.716058E+05 -1.280371E+05 -1.041764E+03 -3.339731E+05  2.112181E+03 -3.243777E+03
        54   7 -9.517268E+05 -1.580270E+05 -2.152651E+04 -3.558126E+05  9.019663E+02 -2.473195E+03
        54   8 -9.676469E+05 -1.590891E+05 -2.501029E+04 -3.550923E+05  1.385058E+03 -2.910407E+03
        54   9 -9.764799E+05 -1.674465E+05 -2.873546E+04 -3.625568E+05  1.864218E+03 -3.336815E+03
        54  10 -7.914481E+05 -9.783946E+04  2.094760E+04 -3.122082E+05 -1.727001E-09 -8.704264E-11
        54  11 -7.826288E+05 -8.958656E+04  2.391602E+04 -3.047042E+05  4.108460E-10 -5.869530E-11
        54  12 -7.667208E+05 -8.862690E+04  2.665104E+04 -3.053850E+05 -7.668295E-10  5.991912E-10
        54  13 -8.715906E+05 -1.279334E+05 -2.891861E+02 -3.340117E+05  4.338926E-10 -1.247769E-10
        54  14 -8.751421E+05 -1.243381E+05 -5.467979E+02 -3.298999E+05  1.861502E-09  1.939881E-10
        54  15 -8.716058E+05 -1.280371E+05 -1.041792E+03 -3.339731E+05  2.458993E-09  4.661259E-10
        54  16 -9.517268E+05 -1.580270E+05 -2.152653E+04 -3.558126E+05  3.388575E-09 -3.962149E-10
        54  17 -9.676469E+05 -1.590891E+05 -2.501031E+04 -3.550923E+05 -3.262048E-10  3.217254E-10
        54  18 -9.764799E+05 -1.674465E+05 -2.873549E+04 -3.625568E+05  2.138069E-09  4.257388E-10
        54  19 -7.914481E+05 -9.783945E+04  2.094762E+04 -3.122082E+05 -1.418101E+03  2.279662E+03
        54  20 -7.826288E+05 -8.958655E+04  2.391604E+04 -3.047042E+05 -1.891105E+03  2.720594E+03
        54  21 -7.667208E+05 -8.862688E+04  2.665107E+04 -3.053850E+05 -2.360191E+03  3.150721E+03
        54  22 -8.715906E+05 -1.279334E+05 -2.891729E+02 -3.340117E+05 -1.160016E+03  2.376436E+03
        54  23 -8.751421E+05 -1.243381E+05 -5.467780E+02 -3.299000E+05 -1.638061E+03  2.815508E+03
        54  24 -8.716058E+05 -1.280371E+05 -1.041764E+03 -3.339731E+05 -2.112181E+03  3.243777E+03
        54  25 -9.517268E+05 -1.580270E+05 -2.152651E+04 -3.558126E+05 -9.019663E+02  2.473195E+03
        54  26 -9.676469E+05 -1.590891E+05 -2.501029E+04 -3.550923E+05 -1.385058E+03  2.910407E+03
        54  27 -9.764799E+05 -1.674465E+05 -2.873546E+04 -3.625568E+05 -1.864218E+03  3.336815E+03
        55   1 -7.490498E+05 -8.186892E+04  3.109746E+04 -3.006909E+05  2.682930E+03 -3.386149E+03
        55   2 -7.405350E+05 -7.373693E+04  3.311071E+04 -2.933435E+05  4.096814E+03 -3.449142E+03
        55   3 -7.257483E+05 -7.365626E+04  3.389854E+04 -2.935739E+05  5.493780E+03 -3.466401E+03
        55   4 -8.717376E+05 -1.278406E+05 -1.366821E+03 -3.339759E+05  2.426831E+03 -3.482265E+03
        55   5 -8.749383E+05 -1.242834E+05 -2.439030E+03 -3.300105E+05  3.861986E+03 -3.537324E+03
        55   6 -8.718716E+05 -1.287822E+05 -4.753792E+03 -3.336232E+05  5.280194E+03 -3.546654E+03
        55   7 -9.944112E+05 -1.738115E+05 -3.383249E+04 -3.672550E+05  2.170788E+03 -3.578361E+03
        55   8 -1.009324E+06 -1.748288E+05 -3.799038E+04 -3.666704E+05  3.627214E+03 -3.625484E+03
        55   9 -1.017974E+06 -1.839068E+05 -4.340797E+04 -3.736640E+05  5.066664E+03 -3.626885E+03
        55  10 -7.490498E+05 -8.186893E+04  3.109742E+04 -3.006909E+05  7.279395E-10  4.565018E-10
        55  11 -7.405350E+05 -7.373694E+04  3.311066E+04 -2.933435E+05 -1.436211E-09 -2.642116E-10
        55  12 -7.257484E+05 -7.365628E+04  3.389846E+04 -2.935739E+05 -1.675098E-09  1.512799E-09
        55  13 -8.717376E+05 -1.278406E+05 -1.366855E+03 -3.339759E+05  6.130780E-10  3.167043E-10
        55  14 -8.749383E+05 -1.242834E+05 -2.439081E+03 -3.300105E+05  2.326035E-09  1.905675E-10
        55  15 -8.718717E+05 -1.287822E+05 -4.753868E+03 -3.336232E+05  1.592773E-09  8.652198E-10
        55  16 -9.944112E+05 -1.738115E+05 -3.383253E+04 -3.672550E+05 -1.775293E-10  2.391806E-10
        55  17 -1.009324E+06 -1.748289E+05 -3.799043E+04 -3.666704E+05  1.146988E-09  5.042952E-10
        55  18 -1.017974E+06 -1.839068E+05 -4.340804E+04 -3.736640E+05 -7.341752E-10  5.559053E-10
        55  19 -7.490498E+05 -8.186892E+04  3.109746E+04 -3.006909E+05 -2.682930E+03  3.386149E+03
        55  20 -7.405350E+05 -7.373693E+04  3.311071E+04 -2.933435E+05 -4.096814E+03  3.449142E+03
        55  21 -7.257483E+05 -7.365626E+04  3.389854E+04 -2.935739E+05 -5.493780E+03  3.466401E+03
        55  22 -8.717376E+05 -1.278406E+05 -1.366821E+03 -3.339759E+05 -2.426831E+03  3.482265E+03
        55  23 -8.749383E+05 -1.242834E+05 -2.439030E+03 -3.300105E+05 -3.861986E+03  3.537324E+03
        55  24 -8.718716E+05 -1.287822E+05 -4.753792E+03 -3.336232E+05 -5.280194E+03  3.546654E+03
        55  25 -9.944112E+05 -1.738115E+05 -3.383249E+04 -3.672550E+05 -2.170788E+03  3.578361E+03
        55  26 -1.009324E+06 -1.748288E+05 -3.799038E+04 -3.666704E+05 -3.627214E+03  3.625484E+03
        55  27 -1.017974E+06 -1.839068E+05 -4.340797E+04 -3.736640E+05 -5.066664E+03  3.626885E+03
        56   1 -7.085612E+05 -6.700857E+04  3.705967E+04 -2.907372E+05  6.617541E+03 -3.444534E+03
        56   2 -7.001749E+05 -5.724030E+04  3.546927E+04 -2.822931E+05  1.210524E+04 -1.935205E+03
        56   3 -6.900700E+05 -6.473505E+04  2.698369E+04 -2.785280E+05  1.743210E+04  3.208749E+00
        56   4 -8.724185E+05 -1.274763E+05 -6.093208E+03 -3.342413E+05  6.288053E+03 -3.568312E+03
        56   5 -8.738697E+05 -1.231445E+05 -1.057785E+04 -3.302806E+05  1.197650E+04 -1.983692E+03
        56   6 -8.736437E+05 -1.361175E+05 -2.211839E+04 -3.309985E+05  1.750400E+04  3.000439E+01
        56   7 -1.036249E+06 -1.879426E+05 -4.924826E+04 -3.777351E+05  5.958662E+03 -3.692056E+03
        56   8 -1.047535E+06 -1.890468E+05 -5.662757E+04 -3.782559E+05  1.184780E+04 -2.032165E+03
        56   9 -1.057185E+06 -2.074975E+05 -7.122358E+04 -3.834550E+05  1.757588E+04  5.679037E+01
        56  10 -7.085613E+05 -6.700859E+04  3.705957E+04 -2.907371E+05 -3.191514E-10  1.822999E-09
        56  11 -7.001751E+05 -5.724035E+04  3.546898E+04 -2.822931E+05  5.690668E-09 -1.389805E-10
        56  12 -6.900704E+05 -6.473514E+04  2.698312E+04 -2.785280E+05  2.986827E-10 -7.267322E-11
        56  13 -8.724185E+05 -1.274764E+05 -6.093307E+03 -3.342413E+05  2.948507E-09  9.174712E-10
        56  14 -8.738699E+05 -1.231446E+05 -1.057812E+04 -3.302806E+05  1.859342E-09  8.967195E-10
        56  15 -8.736440E+05 -1.361176E+05 -2.211897E+04 -3.309985E+05  1.566801E-09 -3.856347E-10
        56  16 -1.036249E+06 -1.879426E+05 -4.924835E+04 -3.777351E+05 -2.170569E-10  3.043958E-11
        56  17 -1.047536E+06 -1.890468E+05 -5.662784E+04 -3.782559E+05  1.288764E-10  2.432834E-10
        56  18 -1.057186E+06 -2.074976E+05 -7.122416E+04 -3.834550E+05  2.259032E-09 -6.872668E-10
        56  19 -7.085612E+05 -6.700857E+04  3.705967E+04 -2.907372E+05 -6.617541E+03  3.444534E+03
        56  20 -7.001749E+05 -5.724030E+04  3.546927E+04 -2.822931E+05 -1.210524E+04  1.935205E+03
        56  21 -6.900700E+05 -6.473505E+04  2.698369E+04 -2.785280E+05 -1.743210E+04 -3.208749E+00
        56  22 -8.724185E+05 -1.274763E+05 -6.093208E+03 -3.342413E+05 -6.288053E+03  3.568312E+03
        56  23 -8.738697E+05 -1.231445E+05 -1.057785E+04 -3.302806E+05 -1.197650E+04  1.983692E+03
        56  24 -8.736437E+05 -1.361175E+05 -2.211839E+04 -3.309985E+05 -1.750400E+04 -3.000439E+01
        56  25 -1.036249E+06 -1.879426E+05 -4.924826E+04 -3.777351E+05 -5.958662E+03  3.692056E+03
        56  26 -1.047535E+06 -1.890468E+05 -5.662757E+04 -3.782559E+05 -1.184780E+04  2.032165E+03
        56  27 -1.057185E+06 -2.074975E+05 -7.122358E+04 -3.834550E+05 -1.757588E+04 -5.679037E+01
        57   1 -6.692585E+05 -5.638315E+04  2.587469E+04 -2.906787E+05  2.312922E+04  9.989917E+02
        57   2 -6.596728E+05 -2.808663E+04  1.086747E+04 -2.688631E+05  4.537580E+04  8.950708E+03
        57   3 -6.837758E+05 -1.030082E+05 -4.729778E+04 -2.283303E+05  6.569441E+04  2.203107E+04
        57   4 -8.772844E+05 -1.247410E+05 -2.717857E+04 -3.372902E+05  2.174685E+04  4.798241E+02
        57   5 -8.657696E+05 -1.121783E+05 -4.482570E+04 -3.318833E+05  4.640339E+04  9.336215E+03
        57   6 -8.884348E+05 -2.033328E+05 -1.075536E+05 -3.077558E+05  6.913154E+04  2.332058E+04
        57   7 -1.085268E+06 -1.930985E+05 -8.023523E+04 -3.838886E+05  2.036499E+04 -3.920763E+01
        57   8 -1.071825E+06 -1.962651E+05 -1.005226E+05 -3.948837E+05  4.743060E+04  9.721552E+03
        57   9 -1.093051E+06 -3.036454E+05 -1.678133E+05 -3.871546E+05  7.256742E+04  2.460929E+04
        57  10 -6.692591E+05 -5.638330E+04  2.587368E+04 -2.906787E+05  1.336540E-10  6.156873E-10
        57  11 -6.596750E+05 -2.808727E+04  1.086344E+04 -2.688635E+05  3.918641E-10  1.054461E-09
        57  12 -6.837806E+05 -1.030099E+05 -4.730681E+04 -2.283315E+05 -6.500650E-10  6.050489E-10
        57  13 -8.772849E+05 -1.247411E+05 -2.717946E+04 -3.372902E+05  1.500809E-09 -7.460737E-10
        57  14 -8.657719E+05 -1.121789E+05 -4.482992E+04 -3.318837E+05 -1.196632E-09  1.779068E-10
        57  15 -8.884401E+05 -2.033346E+05 -1.075636E+05 -3.077571E+05 -1.327991E-09 -1.405438E-11
        57  16 -1.085269E+06 -1.930986E+05 -8.023601E+04 -3.838886E+05  2.435385E-09 -1.393646E-09
        57  17 -1.071827E+06 -1.962658E+05 -1.005270E+05 -3.948841E+05 -1.047428E-10 -3.522310E-10
        57  18 -1.093057E+06 -3.036474E+05 -1.678244E+05 -3.871560E+05 -8.294169E-10  3.715424E-10
        57  19 -6.692585E+05 -5.638315E+04  2.587469E+04 -2.906787E+05 -2.312922E+04 -9.989917E+02
        57  20 -6.596728E+05 -2.808663E+04  1.086747E+04 -2.688631E+05 -4.537580E+04 -8.950708E+03
        57  21 -6.837758E+05 -1.030082E+05 -4.729778E+04 -2.283303E+05 -6.569441E+04 -2.203107E+04
        57  22 -8.772844E+05 -1.247410E+05 -2.717857E+04 -3.372902E+05 -2.174685E+04 -4.798241E+02
        57  23 -8.657696E+05 -1.121783E+05 -4.482570E+04 -3.318833E+05 -4.640339E+04 -9.336215E+03
        57  24 -8.884348E+05 -2.033328E+05 -1.075536E+05 -3.077558E+05 -6.913154E+04 -2.332058E+04
        57  25 -1.085268E+06 -1.930985E+05 -8.023523E+04 -3.838886E+05 -2.036499E+04  3.920763E+01
        57  26 -1.071825E+06 -1.962651E+05 -1.005226E+05 -3.948837E+05 -4.743060E+04 -9.721552E+03
        57  27 -1.093051E+06 -3.036454E+05 -1.678133E+05 -3.871546E+05 -7.256742E+04 -2.460929E+04
        58   1 -1.466883E+04  4.451973E+04  5.624972E+04  1.401179E+04  3.848391E+04  8.685816E-01
        58   2 -2.240749E+04 -6.375936E+03  2.462150E+04  4.056973E+03  2.519385E+04  1.646407E-01
        58   3 -1.466989E+04 -2.291135E+03  1.539185E+04 -5.897867E+03  1.190354E+04 -1.130854E-01
        58   4 -1.466904E+04  4.451936E+04  5.624967E+04  8.807423E-09  3.848391E+04 -1.819813E-10
        58   5 -2.240751E+04 -6.375967E+03  2.462149E+04 -4.691031E-10  2.519385E+04 -1.479651E-10
        58   6 -1.466992E+04 -2.291200E+03  1.539184E+04  1.556223E-08  1.190354E+04 -1.302927E-10
        58   7 -1.466883E+04  4.451973E+04  5.624972E+04 -1.401179E+04  3.848391E+04 -8.685816E-01
        58   8 -2.240749E+04 -6.375936E+03  2.462150E+04 -4.056973E+03  2.519385E+04 -1.646407E-01
        58   9 -1.466989E+04 -2.291135E+03  1.539185E+04  5.897867E+03  1.190354E+04  1.130854E-01
        58  10 -1.467042E+04  4.451933E+04  5.624694E+04  1.401179E+04 -6.790131E-10  2.218319E-10
        58  11 -2.240817E+04 -6.376106E+03  2.462030E+04  4.056973E+03 -2.887178E-10  4.768284E-10
        58  12 -1.467004E+04 -2.291173E+03  1.539159E+04 -5.897867E+03 -1.202565E-09 -2.197627E-10
        58  13 -1.467063E+04  4.451896E+04  5.624688E+04  4.518694E-09 -9.417296E-12  1.014878E-10
        58  14 -2.240819E+04 -6.376137E+03  2.462030E+04 -2.621945E-09 -1.620693E-09  2.577657E-10
        58  15 -1.467008E+04 -2.291239E+03  1.539158E+04  6.390727E-09 -2.628580E-10  1.208785E-10
        58  16 -1.467042E+04  4.451933E+04  5.624694E+04 -1.401179E+04  1.217013E-09 -4.527310E-11
        58  17 -2.240817E+04 -6.376106E+03  2.462030E+04 -4.056973E+03 -1.081060E-09  4.041424E-11
        58  18 -1.467004E+04 -2.291173E+03  1.539159E+04  5.897867E+03 -3.512668E-10  4.769810E-10
        58  19 -1.466883E+04  4.451973E+04  5.624972E+04  1.401179E+04 -3.848391E+04 -8.685816E-01
        58  20 -2.240749E+04 -6.375936E+03  2.462150E+04  4.056973E+03 -2.519385E+04 -1.646407E-01
        58  21 -1.466989E+04 -2.291135E+03  1.539185E+04 -5.897867E+03 -1.190354E+04  1.130854E-01
        58  22 -1.466904E+04  4.451936E+04  5.624967E+04  1.315347E-08 -3.848391E+04  3.858260E-10
        58  23 -2.240751E+04 -6.375967E+03  2.462149E+04 -4.775329E-09 -2.519385E+04  6.575364E-10
        58  24 -1.466992E+04 -2.291200E+03  1.539184E+04  1.552647E-08 -1.190354E+04  3.671876E-10
        58  25 -1.466883E+04  4.451973E+04  5.624972E+04 -1.401179E+04 -3.848391E+04  8.685816E-01
        58  26 -2.240749E+04 -6.375936E+03  2.462150E+04 -4.056973E+03 -2.519385E+04  1.646407E-01
        58  27 -1.466989E+04 -2.291135E+03  1.539185E+04  5.897867E+03 -1.190354E+04 -1.130854E-01
        59   1 -1.769094E+04  4.679098E+03  1.255161E+04  1.325551E+03  9.514094E+03  2.031427E-02
        59   2 -1.863156E+04 -6.926013E+02  6.361913E+03  3.315866E+02  6.252314E+03  3.339452E-03
        59   3 -1.769105E+04 -2.387905E+02  3.752258E+03 -6.623789E+02  2.990544E+03 -3.190756E-03
        59   4 -1.769095E+04  4.679095E+03  1.255161E+04  7.791803E-09  9.514094E+03 -5.427587E-10
        59   5 -1.863156E+04 -6.926015E+02  6.361913E+03  2.846293E-09  6.252314E+03 -8.643627E-10
        59   6 -1.769105E+04 -2.387913E+02  3.752258E+03  2.267106E-08  2.990544E+03  3.961209E-10
        59   7 -1.769094E+04  4.679098E+03  1.255161E+04 -1.325551E+03  9.514094E+03 -2.031427E-02
        59   8 -1.863156E+04 -6.926013E+02  6.361913E+03 -3.315866E+02  6.252314E+03 -3.339454E-03
        59   9 -1.769105E+04 -2.387905E+02  3.752258E+03  6.623789E+02  2.990544E+03  3.190757E-03
        59  10 -1.769104E+04  4.679074E+03  1.255144E+04  1.325551E+03  6.752828E-10 -2.898513E-10
        59  11 -1.863160E+04 -6.926118E+02  6.361840E+03  3.315866E+02  1.646883E-09  1.466365E-10
        59  12 -1.769106E+04 -2.387929E+02  3.752241E+03 -6.623789E+02  7.471472E-10 -3.817335E-10
        59  13 -1.769104E+04  4.679070E+03  1.255144E+04 -5.150048E-09 -1.084119E-09 -6.110859E-11
        59  14 -1.863160E+04 -6.926120E+02  6.361840E+03 -1.439023E-08 -5.492009E-10 -2.385218E-10
        59  15 -1.769106E+04 -2.387937E+02  3.752241E+03 -5.322064E-09 -2.631509E-10 -2.168292E-10
        59  16 -1.769104E+04  4.679074E+03  1.255144E+04 -1.325551E+03 -1.751316E-09  1.713028E-10
        59  17 -1.863160E+04 -6.926118E+02  6.361840E+03 -3.315866E+02 -2.465327E-09 -6.255777E-10
        59  18 -1.769106E+04 -2.387929E+02  3.752241E+03  6.623789E+02 -1.754495E-09 -5.171864E-11
        59  19 -1.769094E+04  4.679098E+03  1.255161E+04  1.325551E+03 -9.514094E+03 -2.031427E-02
        59  20 -1.863156E+04 -6.926013E+02  6.361913E+03  3.315866E+02 -6.252314E+03 -3.339452E-03
        59  21 -1.769105E+04 -2.387905E+02  3.752258E+03 -6.623789E+02 -2.990544E+03  3.190755E-03
        59  22 -1.769095E+04  4.679095E+03  1.255161E+04 -8.604310E-10 -9.514094E+03  4.176802E-10
        59  23 -1.863156E+04 -6.926015E+02  6.361913E+03 -2.731888E-08 -6.252314E+03  3.861329E-10
        59  24 -1.769105E+04 -2.387913E+02  3.752258E+03 -7.467709E-09 -2.990544E+03 -8.295027E-10
        59  25 -1.769094E+04  4.679098E+03  1.255161E+04 -1.325551E+03 -9.514094E+03  2.031428E-02
        59  26 -1.863156E+04 -6.926013E+02  6.361913E+03 -3.315866E+02 -6.252314E+03  3.339453E-03
        59  27 -1.769105E+04 -2.387905E+02  3.752258E+03  6.623789E+02 -2.990544E+03 -3.190757E-03
        60   1 -1.805319E+04  4.834232E+02  2.909821E+03  9.876954E+01  2.401678E+03  3.820986E-04
        60   2 -1.817892E+04 -7.648232E+01  1.508338E+03  8.105293E+00  1.644183E+03  2.146654E-05
        60   3 -1.805321E+04 -2.516883E+01  7.528214E+02 -8.255767E+01  8.867005E+02 -1.179163E-04
        60   4 -1.805319E+04  4.834232E+02  2.909821E+03  1.345641E-08  2.401678E+03  9.464399E-10
        60   5 -1.817892E+04 -7.648232E+01  1.508338E+03  1.298521E-09  1.644183E+03  3.621062E-10
        60   6 -1.805321E+04 -2.516884E+01  7.528214E+02 -1.409020E-08  8.867005E+02 -4.660021E-10
        60   7 -1.805319E+04  4.834232E+02  2.909821E+03 -9.876954E+01  2.401678E+03 -3.820967E-04
        60   8 -1.817892E+04 -7.648232E+01  1.508338E+03 -8.105293E+00  1.644183E+03 -2.146581E-05
        60   9 -1.805321E+04 -2.516883E+01  7.528214E+02  8.255767E+01  8.867005E+02  1.179154E-04
        60  10 -1.805320E+04  4.834217E+02  2.909810E+03  9.876954E+01  9.278876E-10 -4.382590E-10
        60  11 -1.817892E+04 -7.648304E+01  1.508333E+03  8.105293E+00 -1.879507E-09  2.835961E-11
        60  12 -1.805321E+04 -2.516904E+01  7.528199E+02 -8.255767E+01  8.766484E-10 -2.688511E-10
        60  13 -1.805320E+04  4.834217E+02  2.909810E+03 -1.237117E-08  3.238105E-09 -7.276190E-11
        60  14 -1.817892E+04 -7.648304E+01  1.508333E+03 -1.162426E-08 -3.230903E-09  8.622922E-11
        60  15 -1.805321E+04 -2.516905E+01  7.528199E+02 -3.338621E-09  5.497268E-10 -4.675846E-11
        60  16 -1.805320E+04  4.834217E+02  2.909810E+03 -9.876954E+01 -2.534645E-09  2.964887E-10
        60  17 -1.817892E+04 -7.648304E+01  1.508333E+03 -8.105293E+00 -3.214401E-09  1.448644E-10
        60  18 -1.805321E+04 -2.516904E+01  7.528199E+02  8.255767E+01 -9.425533E-10  1.725389E-10
        60  19 -1.805319E+04  4.834232E+02  2.909821E+03  9.876954E+01 -2.401678E+03 -3.820995E-04
        60  20 -1.817892E+04 -7.648232E+01  1.508338E+03  8.105293E+00 -1.644183E+03 -2.146647E-05
        60  21 -1.805321E+04 -2.516883E+01  7.528214E+02 -8.255767E+01 -8.867005E+02  1.179158E-04
        60  22 -1.805319E+04  4.834232E+02  2.909821E+03 -8.043672E-09 -2.401678E+03 -1.091497E-09
        60  23 -1.817892E+04 -7.648232E+01  1.508338E+03 -2.454699E-08 -1.644183E+03 -1.910258E-10
        60  24 -1.805321E+04 -2.516884E+01  7.528214E+02 -1.843422E-08 -8.867005E+02  3.737897E-10
        60  25 -1.805319E+04  4.834232E+02  2.909821E+03 -9.876954E+01 -2.401678E+03  3.820974E-04
        60  26 -1.817892E+04 -7.648232E+01  1.508338E+03 -8.105293E+00 -1.644183E+03  2.146604E-05
        60  27 -1.805321E+04 -2.516883E+01  7.528214E+02  8.255767E+01 -8.867005E+02 -1.179151E-04
        61   1 -1.810741E+04  4.855598E+01  4.745168E+02 -6.503461E+00  7.769263E+02 -8.139378E-06
        61   2 -1.811118E+04 -4.028250E+00 -2.614312E+01 -1.378187E+01  7.890882E+02 -1.751712E-05
        61   3 -1.810742E+04 -2.021192E+01 -5.256166E+02 -2.106038E+01  8.012502E+02 -2.718170E-05
        61   4 -1.810741E+04  4.855598E+01  4.745168E+02  3.919663E-09  7.769263E+02 -4.980228E-10
        61   5 -1.811118E+04 -4.028251E+00 -2.614312E+01 -8.730025E-09  7.890882E+02  4.132840E-11
        61   6 -1.810742E+04 -2.021192E+01 -5.256166E+02 -7.917604E-09  8.012502E+02  4.343573E-11
        61   7 -1.810741E+04  4.855598E+01  4.745168E+02  6.503461E+00  7.769263E+02  8.138361E-06
        61   8 -1.811118E+04 -4.028251E+00 -2.614312E+01  1.378187E+01  7.890882E+02  1.751717E-05
        61   9 -1.810742E+04 -2.021192E+01 -5.256166E+02  2.106038E+01  8.012502E+02  2.718181E-05
        61  10 -1.810741E+04  4.855582E+01  4.745157E+02 -6.503461E+00  7.870932E-10 -4.115951E-12
        61  11 -1.811118E+04 -4.028418E+00 -2.614429E+01 -1.378187E+01 -3.483395E-09  6.427640E-10
        61  12 -1.810742E+04 -2.021209E+01 -5.256178E+02 -2.106038E+01 -1.565153E-09 -3.323720E-10
        61  13 -1.810741E+04  4.855582E+01  4.745157E+02 -8.965822E-09 -1.077230E-09  5.674041E-11
        61  14 -1.811118E+04 -4.028418E+00 -2.614429E+01  4.192075E-09 -1.073695E-09  3.376996E-10
        61  15 -1.810742E+04 -2.021209E+01 -5.256178E+02  1.195545E-09  1.267337E-10  8.961299E-12
        61  16 -1.810741E+04  4.855582E+01  4.745157E+02  6.503461E+00 -7.903648E-10  1.149890E-10
        61  17 -1.811118E+04 -4.028418E+00 -2.614429E+01  1.378187E+01  2.412972E-09  3.119540E-11
        61  18 -1.810742E+04 -2.021209E+01 -5.256178E+02  2.106038E+01  2.779178E-09  3.501875E-10
        61  19 -1.810741E+04  4.855598E+01  4.745168E+02 -6.503461E+00 -7.769263E+02  8.139368E-06
        61  20 -1.811118E+04 -4.028251E+00 -2.614312E+01 -1.378187E+01 -7.890882E+02  1.751841E-05
        61  21 -1.810742E+04 -2.021192E+01 -5.256166E+02 -2.106038E+01 -8.012502E+02  2.718104E-05
        61  22 -1.810741E+04  4.855598E+01  4.745168E+02 -3.120180E-10 -7.769263E+02  6.118857E-10
        61  23 -1.811118E+04 -4.028251E+00 -2.614312E+01 -1.173191E-10 -7.890882E+02  6.329490E-10
        61  24 -1.810742E+04 -2.021192E+01 -5.256166E+02  2.215518E-08 -8.012502E+02 -2.571632E-11
        61  25 -1.810741E+04  4.855598E+01  4.745168E+02  6.503461E+00 -7.769263E+02 -8.138154E-06
        61  26 -1.811118E+04 -4.028251E+00 -2.614312E+01  1.378187E+01 -7.890882E+02 -1.751715E-05
        61  27 -1.810742E+04 -2.021192E+01 -5.256166E+02  2.106038E+01 -8.012502E+02 -2.718109E-05
        62   1 -1.814728E+04  1.391794E+01 -8.192175E+02 -4.718189E+01  9.226694E+02 -7.012289E-05
        62   2 -1.806135E+04  3.770704E+01 -1.626730E+03 -2.342076E+01  1.731540E+03 -6.532306E-05
        62   3 -1.814729E+04 -2.046596E+02 -3.027398E+03  3.403914E-01  2.540409E+03  1.392486E-06
        62   4 -1.814728E+04  1.391794E+01 -8.192176E+02 -4.124688E-09  9.226694E+02  2.803918E-10
        62   5 -1.806135E+04  3.770704E+01 -1.626730E+03  1.350287E-08  1.731540E+03  5.395139E-10
        62   6 -1.814729E+04 -2.046596E+02 -3.027398E+03  6.360058E-09  2.540409E+03 -6.152706E-10
        62   7 -1.814728E+04  1.391794E+01 -8.192175E+02  4.718189E+01  9.226694E+02  7.012346E-05
        62   8 -1.806135E+04  3.770704E+01 -1.626730E+03  2.342076E+01  1.731540E+03  6.532409E-05
        62   9 -1.814729E+04 -2.046596E+02 -3.027398E+03 -3.403914E-01  2.540409E+03 -1.393768E-06
        62  10 -1.814728E+04  1.391771E+01 -8.192191E+02 -4.718189E+01 -2.035213E-09 -7.606985E-10
        62  11 -1.806136E+04  3.770623E+01 -1.626736E+03 -2.342076E+01  1.989937E-09 -1.366193E-10
        62  12 -1.814730E+04 -2.046613E+02 -3.027410E+03  3.403913E-01 -4.329518E-10  6.020903E-10
        62  13 -1.814728E+04  1.391771E+01 -8.192192E+02 -4.139593E-09  1.063878E-09 -2.902799E-10
        62  14 -1.806136E+04  3.770623E+01 -1.626736E+03  2.754415E-09 -2.705237E-09 -2.395309E-10
        62  15 -1.814730E+04 -2.046613E+02 -3.027410E+03 -2.198279E-09 -3.233690E-09  3.654379E-10
        62  16 -1.814728E+04  1.391771E+01 -8.192191E+02  4.718189E+01 -1.217271E-10  1.815234E-10
        62  17 -1.806136E+04  3.770623E+01 -1.626736E+03  2.342076E+01 -3.608525E-09 -3.408300E-10
        62  18 -1.814730E+04 -2.046613E+02 -3.027410E+03 -3.403913E-01  1.004742E-10  1.286015E-10
        62  19 -1.814728E+04  1.391794E+01 -8.192175E+02 -4.718189E+01 -9.226694E+02  7.012135E-05
        62  20 -1.806135E+04  3.770704E+01 -1.626730E+03 -2.342076E+01 -1.731540E+03  6.532281E-05
        62  21 -1.814729E+04 -2.046596E+02 -3.027398E+03  3.403914E-01 -2.540409E+03 -1.391299E-06
        62  22 -1.814728E+04  1.391794E+01 -8.192176E+02  1.536815E-10 -9.226694E+02 -8.606979E-10
        62  23 -1.806135E+04  3.770704E+01 -1.626730E+03 -2.307146E-08 -1.731540E+03 -1.018604E-09
        62  24 -1.814729E+04 -2.046596E+02 -3.027398E+03  5.397858E-09 -2.540409E+03  1.337745E-09
        62  25 -1.814728E+04  1.391794E+01 -8.192175E+02  4.718189E+01 -9.226694E+02 -7.012314E-05
        62  26 -1.806135E+04  3.770704E+01 -1.626730E+03  2.342076E+01 -1.731540E+03 -6.532483E-05
        62  27 -1.814729E+04 -2.046596E+02 -3.027398E+03 -3.403914E-01 -2.540409E+03  1.393906E-06
        63   1 -1.835467E+04  1.037075E+02 -3.975601E+03 -3.374751E+02  3.168637E+03 -1.722470E-03
        63   2 -1.780214E+04  3.300432E+02 -6.878711E+03  4.496504E+01  6.619854E+03  4.794685E-04
        63   3 -1.835468E+04 -2.066330E+03 -1.268437E+04  4.274005E+02  1.007100E+04  6.933374E-03
        63   4 -1.835467E+04  1.037073E+02 -3.975601E+03  2.761267E-09  3.168637E+03 -9.065869E-10
        63   5 -1.780214E+04  3.300431E+02 -6.878711E+03  1.331733E-08  6.619854E+03  4.628824E-11
        63   6 -1.835468E+04 -2.066330E+03 -1.268437E+04  1.148821E-08  1.007100E+04  7.462665E-10
        63   7 -1.835467E+04  1.037075E+02 -3.975601E+03  3.374751E+02  3.168637E+03  1.722468E-03
        63   8 -1.780214E+04  3.300432E+02 -6.878711E+03 -4.496504E+01  6.619854E+03 -4.794685E-04
        63   9 -1.835468E+04 -2.066330E+03 -1.268437E+04 -4.274005E+02  1.007100E+04 -6.933373E-03
        63  10 -1.835468E+04  1.037048E+02 -3.975620E+03 -3.374751E+02 -4.702923E-10  2.487607E-10
        63  11 -1.780219E+04  3.300314E+02 -6.878794E+03  4.496504E+01  3.897383E-09 -5.707090E-10
        63  12 -1.835479E+04 -2.066357E+03 -1.268456E+04  4.274005E+02  1.838684E-09  4.831459E-10
        63  13 -1.835468E+04  1.037046E+02 -3.975620E+03  2.681585E-09 -3.229861E-09  2.457950E-10
        63  14 -1.780219E+04  3.300314E+02 -6.878794E+03  3.790138E-10 -5.324212E-10 -4.822225E-10
        63  15 -1.835479E+04 -2.066357E+03 -1.268456E+04  6.692203E-09  2.695338E-09 -2.089876E-10
        63  16 -1.835468E+04  1.037048E+02 -3.975620E+03  3.374751E+02 -1.679540E-09  2.424547E-10
        63  17 -1.780219E+04  3.300314E+02 -6.878794E+03 -4.496504E+01 -3.071050E-09 -3.926975E-10
        63  18 -1.835479E+04 -2.066357E+03 -1.268456E+04 -4.274005E+02 -6.963668E-10 -8.997338E-10
        63  19 -1.835467E+04  1.037075E+02 -3.975601E+03 -3.374751E+02 -3.168637E+03  1.722471E-03
        63  20 -1.780214E+04  3.300432E+02 -6.878711E+03  4.496504E+01 -6.619854E+03 -4.794694E-04
        63  21 -1.835468E+04 -2.066330E+03 -1.268437E+04  4.274005E+02 -1.007100E+04 -6.933373E-03
        63  22 -1.835467E+04  1.037073E+02 -3.975601E+03  1.121740E-08 -3.168637E+03  1.397589E-09
        63  23 -1.780214E+04  3.300431E+02 -6.878711E+03 -2.117521E-08 -6.619854E+03 -1.011195E-09
        63  24 -1.835468E+04 -2.066330E+03 -1.268437E+04  4.588459E-09 -1.007100E+04 -1.128538E-09
        63  25 -1.835467E+04  1.037075E+02 -3.975601E+03  3.374751E+02 -3.168637E+03 -1.722468E-03
        63  26 -1.780214E+04  3.300432E+02 -6.878711E+03 -4.496504E+01 -6.619854E+03  4.794673E-04
        63  27 -1.835468E+04 -2.066330E+03 -1.268437E+04 -4.274005E+02 -1.007100E+04  6.933371E-03
        64   1 -1.989729E+04  1.021302E+03 -1.622456E+04 -2.826897E+03  1.262738E+04 -5.749909E-02
        64   2 -1.587360E+04  2.961051E+03 -2.729618E+04  1.420150E+03  2.662122E+04  6.089716E-02
        64   3 -1.989688E+04 -2.000026E+04 -5.370262E+04  5.667273E+03  4.061510E+04  3.707643E-01
        64   4 -1.989730E+04  1.021287E+03 -1.622456E+04  6.385797E-09  1.262738E+04  5.402707E-10
        64   5 -1.587360E+04  2.961048E+03 -2.729618E+04  6.782030E-09  2.662122E+04 -2.651815E-10
        64   6 -1.989691E+04 -2.000032E+04 -5.370263E+04  8.255140E-09  4.061510E+04 -6.222074E-10
        64   7 -1.989729E+04  1.021302E+03 -1.622456E+04  2.826897E+03  1.262738E+04  5.749909E-02
        64   8 -1.587360E+04  2.961051E+03 -2.729618E+04 -1.420150E+03  2.662122E+04 -6.089716E-02
        64   9 -1.989688E+04 -2.000026E+04 -5.370262E+04 -5.667273E+03  4.061510E+04 -3.707643E-01
        64  10 -1.989746E+04  1.021260E+03 -1.622486E+04 -2.826897E+03 -1.312322E-10  7.244011E-10
        64  11 -1.587436E+04  2.960861E+03 -2.729752E+04  1.420150E+03  1.643311E-09 -4.671013E-11
        64  12 -1.989865E+04 -2.000071E+04 -5.370572E+04  5.667273E+03 -1.228148E-09  1.242032E-10
        64  13 -1.989747E+04  1.021245E+03 -1.622486E+04  6.402495E-09  3.680979E-12  1.482468E-10
        64  14 -1.587436E+04  2.960857E+03 -2.729752E+04  3.159472E-10 -5.389970E-10  2.386155E-10
        64  15 -1.989868E+04 -2.000077E+04 -5.370573E+04  1.576892E-08 -3.230142E-09  1.837021E-11
        64  16 -1.989746E+04  1.021260E+03 -1.622486E+04  2.826897E+03 -9.532318E-10 -4.342935E-10
        64  17 -1.587436E+04  2.960861E+03 -2.729752E+04 -1.420150E+03 -2.733354E-09  5.626398E-10
        64  18 -1.989865E+04 -2.000071E+04 -5.370572E+04 -5.667273E+03  1.404938E-10 -1.039941E-10
        64  19 -1.989729E+04  1.021302E+03 -1.622456E+04 -2.826897E+03 -1.262738E+04  5.749909E-02
        64  20 -1.587360E+04  2.961051E+03 -2.729618E+04  1.420150E+03 -2.662122E+04 -6.089716E-02
        64  21 -1.989688E+04 -2.000026E+04 -5.370262E+04  5.667273E+03 -4.061510E+04 -3.707643E-01
        64  22 -1.989730E+04  1.021287E+03 -1.622456E+04 -2.195969E-09 -1.262738E+04 -2.444190E-10
        64  23 -1.587360E+04  2.961048E+03 -2.729618E+04  2.465942E-09 -2.662122E+04  7.589922E-10
        64  24 -1.989691E+04 -2.000032E+04 -5.370263E+04  1.197453E-08 -4.061510E+04  6.590990E-10
        64  25 -1.989729E+04  1.021302E+03 -1.622456E+04  2.826897E+03 -1.262738E+04 -5.749909E-02
        64  26 -1.587360E+04  2.961051E+03 -2.729618E+04 -1.420150E+03 -2.662122E+04  6.089716E-02
        64  27 -1.989688E+04 -2.000026E+04 -5.370262E+04 -5.667273E+03 -4.061510E+04  3.707643E-01
        65   1 -3.280609E+04  9.795442E+03 -6.582246E+04 -2.520822E+04  5.083443E+04 -2.064170E+00
        65   2  2.692290E+02  2.725404E+04 -1.052258E+05  1.734356E+04  1.076543E+05  3.007408E+00
        65   3 -3.279630E+04 -1.902799E+05 -2.403582E+05  5.989301E+04  1.644751E+05  1.586758E+01
        65   4 -3.280677E+04  9.794247E+03 -6.582263E+04  2.241455E-08  5.083443E+04 -2.552904E-10
        65   5  2.689060E+02  2.725347E+04 -1.052259E+05  5.915836E-09  1.076543E+05  4.597368E-10
        65   6 -3.280015E+04 -1.902866E+05 -2.403591E+05 -3.504587E-10  1.644751E+05 -9.923963E-10
        65   7 -3.280609E+04  9.795442E+03 -6.582246E+04  2.520822E+04  5.083443E+04  2.064170E+00
        65   8  2.692290E+02  2.725404E+04 -1.052258E+05 -1.734356E+04  1.076543E+05 -3.007408E+00
        65   9 -3.279630E+04 -1.902799E+05 -2.403582E+05 -5.989301E+04  1.644751E+05 -1.586758E+01
        65  10 -3.280886E+04  9.794748E+03 -6.582732E+04 -2.520822E+04 -4.494101E-10  1.305993E-10
        65  11  2.567823E+02  2.725092E+04 -1.052476E+05  1.734356E+04  2.124139E-09 -3.192979E-10
        65  12 -3.282535E+04 -1.902872E+05 -2.404090E+05  5.989301E+04 -1.620207E-09 -1.522547E-10
        65  13 -3.280954E+04  9.793554E+03 -6.582749E+04  9.481391E-09 -5.084491E-11 -1.669251E-10
        65  14  2.564593E+02  2.725036E+04 -1.052476E+05  3.764963E-09 -5.254513E-10 -1.857998E-10
        65  15 -3.282921E+04 -1.902939E+05 -2.404100E+05 -8.752358E-10 -2.025328E-09 -7.319364E-11
        65  16 -3.280886E+04  9.794748E+03 -6.582732E+04  2.520822E+04 -6.645991E-10 -4.703196E-10
        65  17  2.567823E+02  2.725092E+04 -1.052476E+05 -1.734356E+04  5.748191E-10 -2.193363E-10
        65  18 -3.282535E+04 -1.902872E+05 -2.404090E+05 -5.989301E+04 -3.639245E-10  1.129103E-10
        65  19 -3.280609E+04  9.795442E+03 -6.582246E+04 -2.520822E+04 -5.083443E+04  2.064170E+00
        65  20  2.692290E+02  2.725404E+04 -1.052258E+05  1.734356E+04 -1.076543E+05 -3.007408E+00
        65  21 -3.279630E+04 -1.902799E+05 -2.403582E+05  5.989301E+04 -1.644751E+05 -1.586758E+01
        65  22 -3.280677E+04  9.794247E+03 -6.582263E+04  3.101042E-08 -5.083443E+04 -8.259001E-11
        65  23  2.689060E+02  2.725347E+04 -1.052259E+05 -2.695478E-09 -1.076543E+05 -9.002926E-10
        65  24 -3.280015E+04 -1.902866E+05 -2.403591E+05  7.752444E-09 -1.644751E+05  2.651854E-10
        65  25 -3.280609E+04  9.795442E+03 -6.582246E+04  2.520822E+04 -5.083443E+04 -2.064170E+00
        65  26  2.692290E+02  2.725404E+04 -1.052258E+05 -1.734356E+04 -1.076543E+05  3.007408E+00
        65  27 -3.279630E+04 -1.902799E+05 -2.403582E+05 -5.989301E+04 -1.644751E+05  1.586758E+01
        66   1  7.634770E+04 -2.779645E+03  7.300352E+04 -1.276831E+04  3.414669E+03 -3.820398E+03
        66   2  7.951055E+04 -3.173721E+04  7.062184E+04 -3.814877E+03  1.016593E+04 -5.063285E+03
        66   3  7.149841E+04 -6.322809E+04  6.627673E+04 -1.716635E+04  9.197524E+03 -6.307258E+03
        66   4 -9.891348E+03 -3.485717E+05 -1.233975E+04 -1.580657E+04  3.415272E+03 -9.164831E+03
        66   5  1.356235E+03 -3.469636E+05 -4.864923E+03 -4.652912E+03  1.016667E+04 -6.518042E+03
        66   6  7.504161E+02 -3.485663E+05 -2.056594E+03 -1.580490E+04  9.196657E+03 -3.872322E+03
        66   7 -9.613927E+04 -6.942550E+05 -9.769177E+04 -1.884314E+04  3.415928E+03 -1.450629E+04
        66   8 -7.680529E+04 -6.620989E+05 -8.035871E+04 -5.490514E+03  1.016741E+04 -7.972063E+03
        66   9 -7.000347E+04 -6.338298E+05 -7.039565E+04 -1.444408E+04  9.195800E+03 -1.438500E+03
        66  10  7.634768E+04 -2.779663E+03  7.300347E+04 -1.276830E+04  2.044804E-10 -2.681014E-10
        66  11  7.951043E+04 -3.173727E+04  7.062160E+04 -3.814835E+03  1.228747E-09  3.521082E-10
        66  12  7.149830E+04 -6.322815E+04  6.627649E+04 -1.716630E+04 -1.120271E-10  3.126312E-10
        66  13 -9.891383E+03 -3.485718E+05 -1.233993E+04 -1.580655E+04  7.786244E-10 -6.483915E-12
        66  14  1.356113E+03 -3.469637E+05 -4.865197E+03 -4.652859E+03 -1.175949E-09  2.823078E-10
        66  15  7.503213E+02 -3.485663E+05 -2.056781E+03 -1.580488E+04  2.202198E-09 -5.396204E-11
        66  16 -9.613934E+04 -6.942553E+05 -9.769219E+04 -1.884310E+04 -8.616987E-10  2.163731E-10
        66  17 -7.680542E+04 -6.620990E+05 -8.035902E+04 -5.490449E+03 -3.069724E-09 -7.819876E-11
        66  18 -7.000356E+04 -6.338298E+05 -7.039581E+04 -1.444407E+04  7.247427E-10 -2.523001E-10
        66  19  7.634770E+04 -2.779645E+03  7.300352E+04 -1.276831E+04 -3.414669E+03  3.820398E+03
        66  20  7.951055E+04 -3.173721E+04  7.062184E+04 -3.814877E+03 -1.016593E+04  5.063285E+03
        66  21  7.149841E+04 -6.322809E+04  6.627673E+04 -1.716635E+04 -9.197524E+03  6.307258E+03
        66  22 -9.891348E+03 -3.485717E+05 -1.233975E+04 -1.580657E+04 -3.415272E+03  9.164831E+03
        66  23  1.356235E+03 -3.469636E+05 -4.864923E+03 -4.652912E+03 -1.016667E+04  6.518042E+03
        66  24  7.504161E+02 -3.485663E+05 -2.056594E+03 -1.580490E+04 -9.196657E+03  3.872322E+03
        66  25 -9.613927E+04 -6.942550E+05 -9.769177E+04 -1.884314E+04 -3.415928E+03  1.450629E+04
        66  26 -7.680529E+04 -6.620989E+05 -8.035871E+04 -5.490514E+03 -1.016741E+04  7.972063E+03
        66  27 -7.000347E+04 -6.338298E+05 -7.039565E+04 -1.444408E+04 -9.195800E+03  1.438500E+03
        67   1  5.947082E+04 -1.033595E+05  5.768187E+04 -1.604524E+04  7.401557E+03 -3.780592E+03
        67   2  5.283188E+04 -1.341910E+05  5.292869E+04 -4.390697E+03  6.752269E+03 -4.982309E+03
        67   3  4.784447E+04 -1.644385E+05  4.937395E+04 -1.552431E+04  5.429429E+03 -6.184908E+03
        67   4 -1.151135E+03 -3.477307E+05 -9.976301E+02 -1.591392E+04  7.401661E+03 -3.621851E+03
        67   5 -1.887292E+02 -3.479911E+05  1.679460E+03 -4.518377E+03  6.752086E+03 -4.483921E+03
        67   6  2.366543E+03 -3.477273E+05  5.319244E+03 -1.591146E+04  5.428856E+03 -5.346932E+03
        67   7 -6.177743E+04 -5.920472E+05 -5.968138E+04 -1.578265E+04  7.401764E+03 -3.463171E+03
        67   8 -5.321266E+04 -5.617493E+05 -4.957301E+04 -4.646006E+03  6.751904E+03 -3.985704E+03
        67   9 -4.311383E+04 -5.309854E+05 -3.873785E+04 -1.629849E+04  5.428282E+03 -4.509202E+03
        67  10  5.947075E+04 -1.033595E+05  5.768174E+04 -1.604522E+04  4.818975E-10 -1.084749E-09
        67  11  5.283182E+04 -1.341910E+05  5.292856E+04 -4.390670E+03  8.626067E-10  1.116572E-10
        67  12  4.784443E+04 -1.644385E+05  4.937382E+04 -1.552428E+04 -3.498285E-10  7.556155E-10
        67  13 -1.151197E+03 -3.477307E+05 -9.977577E+02 -1.591390E+04  1.055822E-09  3.727693E-11
        67  14 -1.887835E+02 -3.479912E+05  1.679336E+03 -4.518353E+03  8.005307E-11  7.412183E-10
        67  15  2.366504E+03 -3.477273E+05  5.319135E+03 -1.591144E+04 -9.273716E-10 -9.168688E-11
        67  16 -6.177749E+04 -5.920472E+05 -5.968150E+04 -1.578263E+04  4.394286E-10  5.446260E-10
        67  17 -5.321271E+04 -5.617494E+05 -4.957313E+04 -4.645984E+03  8.030699E-10  6.202883E-10
        67  18 -4.311387E+04 -5.309854E+05 -3.873794E+04 -1.629847E+04 -1.187497E-09 -6.823984E-10
        67  19  5.947082E+04 -1.033595E+05  5.768187E+04 -1.604524E+04 -7.401557E+03  3.780592E+03
        67  20  5.283188E+04 -1.341910E+05  5.292869E+04 -4.390697E+03 -6.752269E+03  4.982309E+03
        67  21  4.784447E+04 -1.644385E+05  4.937395E+04 -1.552431E+04 -5.429429E+03  6.184908E+03
        67  22 -1.151135E+03 -3.477307E+05 -9.976301E+02 -1.591392E+04 -7.401661E+03  3.621851E+03
        67  23 -1.887292E+02 -3.479911E+05  1.679460E+03 -4.518377E+03 -6.752086E+03  4.483921E+03
        67  24  2.366543E+03 -3.477273E+05  5.319244E+03 -1.591146E+04 -5.428856E+03  5.346932E+03
        67  25 -6.177743E+04 -5.920472E+05 -5.968138E+04 -1.578265E+04 -7.401764E+03  3.463171E+03
        67  26 -5.321266E+04 -5.617493E+05 -4.957301E+04 -4.646006E+03 -6.751904E+03  3.985704E+03
        67  27 -4.311383E+04 -5.309854E+05 -3.873785E+04 -1.629849E+04 -5.428282E+03  4.509202E+03
        68   1  3.398150E+04 -2.042286E+05  4.083241E+04 -1.892145E+04  4.797474E+03 -6.693852E+03
        68   2  2.445866E+04 -2.387835E+05  3.839590E+04 -2.548683E+03  3.551079E+03 -1.370983E+04
        68   3  4.185884E+04 -2.657302E+05  4.725116E+04 -9.170880E+03  1.007165E+03 -2.072691E+04
        68   4 -1.207771E+03 -3.461757E+05  6.906150E+03 -1.596553E+04  4.797250E+03 -6.388806E+03
        68   5 -3.097679E+03 -3.499199E+05  1.176490E+04 -4.456979E+03  3.550272E+03 -1.275011E+04
        68   6  2.182397E+04 -3.461701E+05  2.746159E+04 -1.594337E+04  1.005777E+03 -1.911286E+04
        68   7 -3.639847E+04 -4.881042E+05 -2.702153E+04 -1.301027E+04  4.797028E+03 -6.083829E+03
        68   8 -3.065490E+04 -4.610449E+05 -1.486696E+04 -6.364929E+03  3.549459E+03 -1.179056E+04
        68   9  1.788807E+03 -4.266041E+05  7.671573E+03 -2.271498E+04  1.004353E+03 -1.749901E+04
        68  10  3.398146E+04 -2.042287E+05  4.083229E+04 -1.892143E+04 -2.181135E-09  9.815544E-11
        68  11  2.445860E+04 -2.387838E+05  3.839552E+04 -2.548644E+03 -3.258569E-09  4.678246E-10
        68  12  4.185872E+04 -2.657307E+05  4.725035E+04 -9.170863E+03 -2.371261E-09  7.933442E-10
        68  13 -1.207807E+03 -3.461757E+05  6.906030E+03 -1.596550E+04 -5.905270E-11  1.957488E-11
        68  14 -3.097737E+03 -3.499201E+05  1.176457E+04 -4.456943E+03 -2.908578E-09  9.799710E-10
        68  15  2.182388E+04 -3.461705E+05  2.746090E+04 -1.594336E+04 -5.873190E-10 -1.599392E-10
        68  16 -3.639850E+04 -4.881042E+05 -2.702164E+04 -1.301025E+04  4.224888E-10 -1.014591E-09
        68  17 -3.065495E+04 -4.610450E+05 -1.486725E+04 -6.364895E+03 -5.201336E-10  5.120452E-10
        68  18  1.788723E+03 -4.266044E+05  7.670995E+03 -2.271497E+04 -1.036797E-09 -6.471005E-10
        68  19  3.398150E+04 -2.042286E+05  4.083241E+04 -1.892145E+04 -4.797474E+03  6.693852E+03
        68  20  2.445866E+04 -2.387835E+05  3.839590E+04 -2.548683E+03 -3.551079E+03  1.370983E+04
        68  21  4.185884E+04 -2.657302E+05  4.725116E+04 -9.170880E+03 -1.007165E+03  2.072691E+04
        68  22 -1.207771E+03 -3.461757E+05  6.906150E+03 -1.596553E+04 -4.797250E+03  6.388806E+03
        68  23 -3.097679E+03 -3.499199E+05  1.176490E+04 -4.456979E+03 -3.550272E+03  1.275011E+04
        68  24  2.182397E+04 -3.461701E+05  2.746159E+04 -1.594337E+04 -1.005777E+03  1.911286E+04
        68  25 -3.639847E+04 -4.881042E+05 -2.702153E+04 -1.301027E+04 -4.797028E+03  6.083829E+03
        68  26 -3.065490E+04 -4.610449E+05 -1.486696E+04 -6.364929E+03 -3.549459E+03  1.179056E+04
        68  27  1.788807E+03 -4.266041E+05  7.671573E+03 -2.271498E+04 -1.004353E+03  1.749901E+04
        69   1 -3.901656E+05 -8.952610E+04 -3.524456E+04 -1.452794E+05 -1.428132E+04 -4.763792E+03
        69   2 -3.804723E+05 -6.336551E+04 -1.995848E+04 -1.420849E+05 -9.209061E+03 -1.806464E+03
        69   3 -3.730899E+05 -6.208456E+04 -1.397572E+04 -1.403925E+05 -3.638991E+03 -1.762587E+02
        69   4 -3.411177E+05 -6.655332E+04 -2.100933E+04 -1.273227E+05 -1.353262E+04 -4.483177E+03
        69   5 -3.389430E+05 -4.649525E+04 -8.759839E+03 -1.294510E+05 -9.085977E+03 -1.760345E+03
        69   6 -3.389548E+05 -5.119216E+04 -5.317336E+03 -1.330815E+05 -4.141605E+03 -3.646852E+02
        69   7 -2.920677E+05 -4.358012E+04 -6.774417E+03 -1.093647E+05 -1.278387E+04 -4.202525E+03
        69   8 -2.974122E+05 -2.962483E+04  2.438633E+03 -1.168162E+05 -8.962884E+03 -1.714222E+03
        69   9 -3.048186E+05 -4.029975E+04  3.340977E+03 -1.257702E+05 -4.644251E+03 -5.531196E+02
        69  10 -3.901658E+05 -8.952618E+04 -3.524498E+04 -1.452795E+05  1.402317E-09  6.820429E-11
        69  11 -3.804724E+05 -6.336553E+04 -1.995865E+04 -1.420850E+05  1.264863E-09  1.182803E-11
        69  12 -3.730899E+05 -6.208456E+04 -1.397575E+04 -1.403925E+05  1.024952E-09  9.051823E-11
        69  13 -3.411179E+05 -6.655339E+04 -2.100972E+04 -1.273228E+05 -1.688683E-10  7.206075E-11
        69  14 -3.389431E+05 -4.649527E+04 -8.760000E+03 -1.294510E+05  2.987617E-10  2.189212E-10
        69  15 -3.389549E+05 -5.119217E+04 -5.317368E+03 -1.330815E+05 -8.096579E-10  1.888453E-10
        69  16 -2.920679E+05 -4.358018E+04 -6.774758E+03 -1.093648E+05  6.584120E-10  2.168254E-10
        69  17 -2.974122E+05 -2.962485E+04  2.438477E+03 -1.168162E+05 -4.034519E-09  3.436643E-10
        69  18 -3.048186E+05 -4.029976E+04  3.340936E+03 -1.257702E+05 -6.212660E-10 -5.392204E-11
        69  19 -3.901656E+05 -8.952610E+04 -3.524456E+04 -1.452794E+05  1.428132E+04  4.763792E+03
        69  20 -3.804723E+05 -6.336551E+04 -1.995848E+04 -1.420849E+05  9.209061E+03  1.806464E+03
        69  21 -3.730899E+05 -6.208456E+04 -1.397572E+04 -1.403925E+05  3.638991E+03  1.762587E+02
        69  22 -3.411177E+05 -6.655332E+04 -2.100933E+04 -1.273227E+05  1.353262E+04  4.483177E+03
        69  23 -3.389430E+05 -4.649525E+04 -8.759839E+03 -1.294510E+05  9.085977E+03  1.760345E+03
        69  24 -3.389548E+05 -5.119216E+04 -5.317336E+03 -1.330815E+05  4.141605E+03  3.646852E+02
        69  25 -2.920677E+05 -4.358012E+04 -6.774417E+03 -1.093647E+05  1.278387E+04  4.202525E+03
        69  26 -2.974122E+05 -2.962483E+04  2.438633E+03 -1.168162E+05  8.962884E+03  1.714222E+03
        69  27 -3.048186E+05 -4.029975E+04  3.340977E+03 -1.257702E+05  4.644251E+03  5.531196E+02
        70   1 -3.563914E+05 -6.066233E+04 -9.209635E+03 -1.372436E+05 -3.095320E+03 -4.723782E+02
        70   2 -3.490631E+05 -5.198559E+04 -4.366552E+03 -1.316117E+05 -1.840197E+03 -3.638453E+02
        70   3 -3.370082E+05 -5.111815E+04 -9.503394E+02 -1.319628E+05 -5.447816E+02 -3.627415E+02
        70   4 -3.382570E+05 -5.340030E+04 -4.331457E+03 -1.318366E+05 -3.219743E+03 -5.190283E+02
        70   5 -3.405065E+05 -4.865711E+04 -2.084850E+03 -1.291613E+05 -2.015261E+03 -4.294760E+02
        70   6 -3.380194E+05 -5.171317E+04 -1.224951E+03 -1.324689E+05 -7.705080E+02 -4.473607E+02
        70   7 -3.201222E+05 -4.613825E+04  5.466869E+02 -1.264295E+05 -3.344170E+03 -5.656800E+02
        70   8 -3.319498E+05 -4.532864E+04  1.968375E+02 -1.267109E+05 -2.190327E+03 -4.951075E+02
        70   9 -3.390307E+05 -5.230819E+04 -1.499560E+03 -1.329751E+05 -9.962329E+02 -5.319791E+02
        70  10 -3.563914E+05 -6.066233E+04 -9.209653E+03 -1.372436E+05  1.179615E-09 -1.965085E-10
        70  11 -3.490631E+05 -5.198559E+04 -4.366558E+03 -1.316117E+05  1.086444E-09 -1.960335E-10
        70  12 -3.370082E+05 -5.111815E+04 -9.503402E+02 -1.319628E+05 -3.862544E-09  2.251912E-10
        70  13 -3.382570E+05 -5.340031E+04 -4.331477E+03 -1.318366E+05  3.277272E-09 -1.481615E-10
        70  14 -3.405065E+05 -4.865711E+04 -2.084858E+03 -1.291613E+05 -1.332076E-09  2.176465E-10
        70  15 -3.380194E+05 -5.171317E+04 -1.224952E+03 -1.324689E+05 -1.941623E-09 -7.006530E-11
        70  16 -3.201223E+05 -4.613826E+04  5.466652E+02 -1.264295E+05 -3.855976E-10  1.529451E-10
        70  17 -3.319498E+05 -4.532864E+04  1.968280E+02 -1.267109E+05 -1.028410E-09 -3.707884E-10
        70  18 -3.390307E+05 -5.230819E+04 -1.499563E+03 -1.329751E+05 -4.845533E-10 -2.979113E-10
        70  19 -3.563914E+05 -6.066233E+04 -9.209635E+03 -1.372436E+05  3.095320E+03  4.723782E+02
        70  20 -3.490631E+05 -5.198559E+04 -4.366552E+03 -1.316117E+05  1.840197E+03  3.638453E+02
        70  21 -3.370082E+05 -5.111815E+04 -9.503394E+02 -1.319628E+05  5.447816E+02  3.627415E+02
        70  22 -3.382570E+05 -5.340030E+04 -4.331457E+03 -1.318366E+05  3.219743E+03  5.190283E+02
        70  23 -3.405065E+05 -4.865711E+04 -2.084850E+03 -1.291613E+05  2.015261E+03  4.294760E+02
        70  24 -3.380194E+05 -5.171317E+04 -1.224951E+03 -1.324689E+05  7.705080E+02  4.473607E+02
        70  25 -3.201222E+05 -4.613825E+04  5.466869E+02 -1.264295E+05  3.344170E+03  5.656800E+02
        70  26 -3.319498E+05 -4.532864E+04  1.968375E+02 -1.267109E+05  2.190327E+03  4.951075E+02
        70  27 -3.390307E+05 -5.230819E+04 -1.499560E+03 -1.329751E+05  9.962329E+02  5.319791E+02
        71   1 -3.224325E+05 -4.616254E+04  3.148778E+03 -1.281479E+05 -2.984369E+02 -5.713506E+02
        71   2 -3.154143E+05 -3.942200E+04  6.119648E+03 -1.222606E+05  1.449542E+02 -8.813141E+02
        71   3 -3.028564E+05 -3.858777E+04  8.812599E+03 -1.228157E+05  5.912096E+02 -1.198826E+03
        71   4 -3.379329E+05 -5.194759E+04 -9.742454E+02 -1.323255E+05 -4.935792E+02 -6.445065E+02
        71   5 -3.406906E+05 -4.890512E+04 -5.585821E+02 -1.291378E+05 -5.375825E+01 -9.558164E+02
        71   6 -3.379077E+05 -5.176825E+04 -4.179558E+02 -1.323927E+05  3.889216E+02 -1.274676E+03
        71   7 -3.534332E+05 -5.773267E+04 -5.097315E+03 -1.365030E+05 -6.887174E+02 -7.176608E+02
        71   8 -3.659664E+05 -5.838824E+04 -7.236900E+03 -1.360148E+05 -2.524628E+02 -1.030316E+03
        71   9 -3.729579E+05 -6.494870E+04 -9.648648E+03 -1.419692E+05  1.866454E+02 -1.350522E+03
        71  10 -3.224325E+05 -4.616254E+04  3.148777E+03 -1.281479E+05 -3.668550E-09  8.953141E-11
        71  11 -3.154143E+05 -3.942200E+04  6.119646E+03 -1.222606E+05 -1.618803E-09 -2.094727E-10
        71  12 -3.028564E+05 -3.858778E+04  8.812596E+03 -1.228157E+05 -2.675047E-09  7.856168E-10
        71  13 -3.379329E+05 -5.194759E+04 -9.742467E+02 -1.323255E+05 -9.323785E-10  8.103613E-11
        71  14 -3.406906E+05 -4.890512E+04 -5.585838E+02 -1.291378E+05 -2.898674E-09 -3.850211E-10
        71  15 -3.379077E+05 -5.176825E+04 -4.179591E+02 -1.323927E+05 -1.489727E-09  3.620037E-10
        71  16 -3.534333E+05 -5.773267E+04 -5.097317E+03 -1.365030E+05 -5.921037E-10 -2.263013E-10
        71  17 -3.659664E+05 -5.838824E+04 -7.236902E+03 -1.360148E+05 -3.131012E-09 -1.007071E-10
        71  18 -3.729579E+05 -6.494870E+04 -9.648652E+03 -1.419692E+05 -6.923565E-11 -4.082605E-11
        71  19 -3.224325E+05 -4.616254E+04  3.148778E+03 -1.281479E+05  2.984369E+02  5.713506E+02
        71  20 -3.154143E+05 -3.942200E+04  6.119648E+03 -1.222606E+05 -1.449542E+02  8.813141E+02
        71  21 -3.028564E+05 -3.858777E+04  8.812599E+03 -1.228157E+05 -5.912096E+02  1.198826E+03
        71  22 -3.379329E+05 -5.194759E+04 -9.742454E+02 -1.323255E+05  4.935792E+02  6.445065E+02
        71  23 -3.406906E+05 -4.890512E+04 -5.585821E+02 -1.291378E+05  5.375825E+01  9.558164E+02
        71  24 -3.379077E+05 -5.176825E+04 -4.179558E+02 -1.323927E+05 -3.889216E+02  1.274676E+03
        71  25 -3.534332E+05 -5.773267E+04 -5.097315E+03 -1.365030E+05  6.887174E+02  7.176608E+02
        71  26 -3.659664E+05 -5.838824E+04 -7.236900E+03 -1.360148E+05  2.524628E+02  1.030316E+03
        71  27 -3.729579E+05 -6.494870E+04 -9.648648E+03 -1.419692E+05 -1.866454E+02  1.350522E+03
        72   1 -2.886196E+05 -3.327234E+04  1.265755E+04 -1.189509E+05  7.495095E+02 -1.422771E+03
        72   2 -2.816875E+05 -2.678456E+04  1.512369E+04 -1.130760E+05  1.142370E+03 -1.757506E+03
        72   3 -2.691854E+05 -2.598466E+04  1.739909E+04 -1.136337E+05  1.534725E+03 -2.090691E+03
        72   4 -3.379102E+05 -5.177970E+04 -4.038508E+02 -1.323683E+05  5.497936E+02 -1.497665E+03
        72   5 -3.406957E+05 -4.894097E+04 -4.696542E+02 -1.291500E+05  9.433545E+02 -1.832152E+03
        72   6 -3.379118E+05 -5.179031E+04 -7.268018E+02 -1.323644E+05  1.336406E+03 -2.165091E+03
        72   7 -3.871981E+05 -7.028681E+04 -1.346540E+04 -1.457846E+05  3.500960E+02 -1.572551E+03
        72   8 -3.997005E+05 -7.109715E+04 -1.606327E+04 -1.452226E+05  7.443598E+02 -1.906790E+03
        72   9 -4.066337E+05 -7.759572E+04 -1.885313E+04 -1.510932E+05  1.138111E+03 -2.239482E+03
        72  10 -2.886196E+05 -3.327234E+04  1.265755E+04 -1.189509E+05 -2.774795E-09  1.172137E-09
        72  11 -2.816875E+05 -2.678456E+04  1.512368E+04 -1.130760E+05  1.713156E-09  1.541892E-10
        72  12 -2.691855E+05 -2.598467E+04  1.739907E+04 -1.136337E+05  1.101003E-09 -5.008386E-10
        72  13 -3.379102E+05 -5.177970E+04 -4.038556E+02 -1.323683E+05 -1.261282E-09  5.196086E-10
        72  14 -3.406957E+05 -4.894098E+04 -4.696622E+02 -1.291500E+05  4.972815E-10  2.321848E-10
        72  15 -3.379118E+05 -5.179031E+04 -7.268140E+02 -1.323644E+05 -1.161840E-09 -5.625284E-11
        72  16 -3.871981E+05 -7.028682E+04 -1.346540E+04 -1.457846E+05 -7.886628E-10 -5.541737E-11
        72  17 -3.997005E+05 -7.109715E+04 -1.606328E+04 -1.452226E+05 -2.496674E-09  4.472854E-10
        72  18 -4.066337E+05 -7.759572E+04 -1.885314E+04 -1.510932E+05 -5.522246E-10  4.355956E-10
        72  19 -2.886196E+05 -3.327234E+04  1.265755E+04 -1.189509E+05 -7.495095E+02  1.422771E+03
        72  20 -2.816875E+05 -2.678456E+04  1.512369E+04 -1.130760E+05 -1.142370E+03  1.757506E+03
        72  21 -2.691854E+05 -2.598466E+04  1.739909E+04 -1.136337E+05 -1.534725E+03  2.090691E+03
        72  22 -3.379102E+05 -5.177970E+04 -4.038508E+02 -1.323683E+05 -5.497936E+02  1.497665E+03
        72  23 -3.406957E+05 -4.894097E+04 -4.696542E+02 -1.291500E+05 -9.433545E+02  1.832152E+03
        72  24 -3.379118E+05 -5.179031E+04 -7.268018E+02 -1.323644E+05 -1.336406E+03  2.165091E+03
        72  25 -3.871981E+05 -7.028681E+04 -1.346540E+04 -1.457846E+05 -3.500960E+02  1.572551E+03
        72  26 -3.997005E+05 -7.109715E+04 -1.606327E+04 -1.452226E+05 -7.443598E+02  1.906790E+03
        72  27 -4.066337E+05 -7.759572E+04 -1.885313E+04 -1.510932E+05 -1.138111E+03  2.239482E+03
        73   1 -2.551349E+05 -2.067424E+04  2.098811E+04 -1.098504E+05  1.763427E+03 -2.284224E+03
        73   2 -2.482576E+05 -1.422710E+04  2.279883E+04 -1.040039E+05  2.728082E+03 -2.398909E+03
        73   3 -2.360718E+05 -1.370346E+04  2.391042E+04 -1.044413E+05  3.690727E+03 -2.507923E+03
        73   4 -3.379563E+05 -5.174049E+04 -9.275424E+02 -1.323700E+05  1.564978E+03 -2.358687E+03
        73   5 -3.406302E+05 -4.891915E+04 -1.612332E+03 -1.291754E+05  2.532176E+03 -2.472441E+03
        73   6 -3.379963E+05 -5.202186E+04 -2.998347E+03 -1.322646E+05  3.497354E+03 -2.580528E+03
        73   7 -4.207708E+05 -8.280626E+04 -2.284373E+04 -1.548868E+05  1.366558E+03 -2.433138E+03
        73   8 -4.329945E+05 -8.361069E+04 -2.602423E+04 -1.543435E+05  2.336303E+03 -2.545961E+03
        73   9 -4.399110E+05 -9.033973E+04 -2.990808E+04 -1.600838E+05  3.304016E+03 -2.653121E+03
        73  10 -2.551349E+05 -2.067424E+04  2.098810E+04 -1.098504E+05  5.475243E-10 -4.552042E-10
        73  11 -2.482576E+05 -1.422710E+04  2.279881E+04 -1.040039E+05  1.787531E-10 -2.851754E-10
        73  12 -2.360718E+05 -1.370347E+04  2.391038E+04 -1.044413E+05  4.546592E-10  5.143794E-10
        73  13 -3.379563E+05 -5.174050E+04 -9.275574E+02 -1.323700E+05 -2.459438E-09 -2.799547E-10
        73  14 -3.406302E+05 -4.891916E+04 -1.612355E+03 -1.291754E+05  3.131253E-10 -5.872342E-10
        73  15 -3.379963E+05 -5.202187E+04 -2.998383E+03 -1.322646E+05  2.819857E-09  8.493546E-10
        73  16 -4.207708E+05 -8.280627E+04 -2.284374E+04 -1.548868E+05 -1.943847E-10 -2.967051E-10
        73  17 -4.329945E+05 -8.361070E+04 -2.602425E+04 -1.543434E+05 -7.857372E-10 -3.481700E-10
        73  18 -4.399110E+05 -9.033974E+04 -2.990812E+04 -1.600838E+05  1.586332E-09  1.279049E-09
        73  19 -2.551349E+05 -2.067424E+04  2.098811E+04 -1.098504E+05 -1.763427E+03  2.284224E+03
        73  20 -2.482576E+05 -1.422710E+04  2.279883E+04 -1.040039E+05 -2.728082E+03  2.398909E+03
        73  21 -2.360718E+05 -1.370346E+04  2.391042E+04 -1.044413E+05 -3.690727E+03  2.507923E+03
        73  22 -3.379563E+05 -5.174049E+04 -9.275424E+02 -1.323700E+05 -1.564978E+03  2.358687E+03
        73  23 -3.406302E+05 -4.891915E+04 -1.612332E+03 -1.291754E+05 -2.532176E+03  2.472441E+03
        73  24 -3.379963E+05 -5.202186E+04 -2.998347E+03 -1.322646E+05 -3.497354E+03  2.580528E+03
        73  25 -4.207708E+05 -8.280626E+04 -2.284373E+04 -1.548868E+05 -1.366558E+03  2.433138E+03
        73  26 -4.329945E+05 -8.361069E+04 -2.602423E+04 -1.543435E+05 -2.336303E+03  2.545961E+03
        73  27 -4.399110E+05 -9.033973E+04 -2.990808E+04 -1.600838E+05 -3.304016E+03  2.653121E+03
        74   1 -2.221675E+05 -8.417961E+03  2.671133E+04 -1.012286E+05  4.358025E+03 -2.536179E+03
        74   2 -2.151902E+05 -1.444068E+03  2.611713E+04 -9.502789E+04  8.033435E+03 -1.623089E+03
        74   3 -2.044971E+05 -3.327855E+03  2.198298E+04 -9.428909E+04  1.169605E+04 -6.755017E+02
        74   4 -3.382058E+05 -5.163921E+04 -3.919439E+03 -1.324710E+05  4.156699E+03 -2.611787E+03
        74   5 -3.402506E+05 -4.854101E+04 -6.956117E+03 -1.292401E+05  7.847676E+03 -1.692889E+03
        74   6 -3.385830E+05 -5.430416E+04 -1.354562E+04 -1.314712E+05  1.152579E+04 -7.395201E+02
        74   7 -4.542311E+05 -9.485971E+04 -3.455136E+04 -1.637082E+05  3.955414E+03 -2.687380E+03
        74   8 -4.652957E+05 -9.563693E+04 -4.003066E+04 -1.634460E+05  7.661959E+03 -1.762674E+03
        74   9 -4.726513E+05 -1.052791E+05 -4.907566E+04 -1.686459E+05  1.135558E+04 -8.035230E+02
        74  10 -2.221676E+05 -8.417973E+03  2.671128E+04 -1.012286E+05  4.205915E-09  8.824042E-10
        74  11 -2.151902E+05 -1.444088E+03  2.611700E+04 -9.502788E+04  3.546758E-09  4.419516E-11
        74  12 -2.044972E+05 -3.327892E+03  2.198272E+04 -9.428908E+04 -7.103126E-10  1.117942E-09
        74  13 -3.382058E+05 -5.163922E+04 -3.919485E+03 -1.324710E+05  7.020357E-10  9.915481E-10
        74  14 -3.402507E+05 -4.854103E+04 -6.956239E+03 -1.292401E+05  5.696907E-10 -3.032229E-11
        74  15 -3.385832E+05 -5.430420E+04 -1.354587E+04 -1.314712E+05  4.124472E-09  1.184876E-09
        74  16 -4.542311E+05 -9.485972E+04 -3.455140E+04 -1.637082E+05  3.531772E-10  1.120197E-09
        74  17 -4.652958E+05 -9.563695E+04 -4.003078E+04 -1.634460E+05 -4.691403E-10 -2.625111E-10
        74  18 -4.726514E+05 -1.052792E+05 -4.907591E+04 -1.686459E+05  3.252310E-10  1.747007E-09
        74  19 -2.221675E+05 -8.417961E+03  2.671133E+04 -1.012286E+05 -4.358025E+03  2.536179E+03
        74  20 -2.151902E+05 -1.444068E+03  2.611713E+04 -9.502789E+04 -8.033435E+03  1.623089E+03
        74  21 -2.044971E+05 -3.327855E+03  2.198298E+04 -9.428909E+04 -1.169605E+04  6.755017E+02
        74  22 -3.382058E+05 -5.163921E+04 -3.919439E+03 -1.324710E+05 -4.156699E+03  2.611787E+03
        74  23 -3.402506E+05 -4.854101E+04 -6.956117E+03 -1.292401E+05 -7.847676E+03  1.692889E+03
        74  24 -3.385830E+05 -5.430416E+04 -1.354562E+04 -1.314712E+05 -1.152579E+04  7.395201E+02
        74  25 -4.542311E+05 -9.485971E+04 -3.455136E+04 -1.637082E+05 -3.955414E+03  2.687380E+03
        74  26 -4.652957E+05 -9.563693E+04 -4.003066E+04 -1.634460E+05 -7.661959E+03  1.762674E+03
        74  27 -4.726513E+05 -1.052791E+05 -4.907566E+04 -1.686459E+05 -1.135558E+04  8.035230E+02
        75   1 -1.895680E+05  2.453958E+03  2.178485E+04 -9.581208E+04  1.440684E+04  1.556647E+01
        75   2 -1.816196E+05  1.528742E+04  1.140392E+04 -8.539196E+04  3.006236E+04  5.450580E+03
        75   3 -1.819636E+05 -8.067140E+03 -1.893218E+04 -7.340442E+04  4.557728E+04  1.126126E+04
        75   4 -3.399102E+05 -5.082776E+04 -1.736039E+04 -1.334996E+05  1.413218E+04 -8.759109E+01
        75   5 -3.374829E+05 -4.499877E+04 -3.011479E+04 -1.296687E+05  2.996091E+04  5.412264E+03
        75   6 -3.433858E+05 -7.539761E+04 -6.296564E+04 -1.242701E+05  4.564886E+04  1.128746E+04
        75   7 -4.902311E+05 -1.041089E+05 -5.650762E+04 -1.711793E+05  1.385759E+04 -1.907252E+02
        75   8 -4.933230E+05 -1.052832E+05 -7.163569E+04 -1.739353E+05  2.985949E+04  5.373960E+03
        75   9 -5.047827E+05 -1.427248E+05 -1.070015E+05 -1.751232E+05  4.572041E+04  1.131365E+04
        75  10 -1.895682E+05  2.453902E+03  2.178446E+04 -9.581208E+04 -4.941123E-10  1.965142E-09
        75  11 -1.816206E+05  1.528714E+04  1.140217E+04 -8.539209E+04  4.132142E-09  2.232296E-10
        75  12 -1.819659E+05 -8.067834E+03 -1.893632E+04 -7.340483E+04  9.692217E-10 -4.185725E-10
        75  13 -3.399105E+05 -5.082782E+04 -1.736076E+04 -1.334996E+05  4.896363E-10  1.605434E-09
        75  14 -3.374839E+05 -4.499904E+04 -3.011654E+04 -1.296688E+05  2.374034E-09  5.555959E-10
        75  15 -3.433881E+05 -7.539831E+04 -6.296980E+04 -1.242705E+05  5.391369E-10 -7.976817E-10
        75  16 -4.902313E+05 -1.041089E+05 -5.650799E+04 -1.711793E+05  1.488728E-09  1.032103E-09
        75  17 -4.933239E+05 -1.052835E+05 -7.163742E+04 -1.739355E+05  4.264575E-10  6.668946E-11
        75  18 -5.047849E+05 -1.427255E+05 -1.070056E+05 -1.751237E+05  1.490948E-09 -3.304423E-10
        75  19 -1.895680E+05  2.453958E+03  2.178485E+04 -9.581208E+04 -1.440684E+04 -1.556647E+01
        75  20 -1.816196E+05  1.528742E+04  1.140392E+04 -8.539196E+04 -3.006236E+04 -5.450580E+03
        75  21 -1.819636E+05 -8.067140E+03 -1.893218E+04 -7.340442E+04 -4.557728E+04 -1.126126E+04
        75  22 -3.399102E+05 -5.082776E+04 -1.736039E+04 -1.334996E+05 -1.413218E+04  8.759109E+01
        75  23 -3.374829E+05 -4.499877E+04 -3.011479E+04 -1.296687E+05 -2.996091E+04 -5.412264E+03
        75  24 -3.433858E+05 -7.539761E+04 -6.296564E+04 -1.242701E+05 -4.564886E+04 -1.128746E+04
        75  25 -4.902311E+05 -1.041089E+05 -5.650762E+04 -1.711793E+05 -1.385759E+04  1.907252E+02
        75  26 -4.933230E+05 -1.052832E+05 -7.163569E+04 -1.739353E+05 -2.985949E+04 -5.373960E+03
        75  27 -5.047827E+05 -1.427248E+05 -1.070015E+05 -1.751232E+05 -4.572041E+04 -1.131365E+04
        76   1 -1.536555E+05  3.612886E+03 -3.003006E+04 -1.169621E+05  5.821667E+04  1.500764E+04
        76   2 -1.404366E+05  7.089811E+04 -7.794402E+04 -6.689974E+04  1.259987E+05  4.016216E+04
        76   3 -2.356713E+05 -1.449700E+05 -2.524257E+05  4.960358E+04  1.920628E+05  6.989269E+04
        76   4 -3.534262E+05 -4.336319E+04 -7.736804E+04 -1.425668E+05  5.698930E+04  1.454934E+04
        76   5 -3.148037E+05 -1.336429E+04 -1.275546E+05 -1.337420E+05  1.269071E+05  4.049893E+04
        76   6 -3.850969E+05 -2.670000E+05 -3.060304E+05 -5.846532E+04  1.951094E+05  7.101329E+04
        76   7 -5.531570E+05 -9.034040E+04 -1.247082E+05 -1.681667E+05  5.576236E+04  1.409106E+04
        76   8 -4.891396E+05 -9.761816E+04 -1.771679E+05 -2.005650E+05  1.278153E+05  4.083551E+04
        76   9 -5.344885E+05 -3.889917E+05 -3.596353E+05 -1.665018E+05  1.981552E+05  7.213276E+04
        76  10 -1.536592E+05  3.611734E+03 -3.003686E+04 -1.169628E+05  1.272784E-09  3.769865E-10
        76  11 -1.404541E+05  7.089212E+04 -7.797689E+04 -6.690382E+04  5.561777E-09  2.000359E-09
        76  12 -2.357123E+05 -1.449851E+05 -2.525043E+05  4.959276E+04  1.589600E-09 -4.284345E-10
        76  13 -3.534298E+05 -4.336429E+04 -7.737454E+04 -1.425674E+05  1.819775E-11 -3.308591E-10
        76  14 -3.148215E+05 -1.337038E+04 -1.275880E+05 -1.337461E+05 -8.685746E-11 -3.525876E-10
        76  15 -3.851391E+05 -2.670157E+05 -3.061115E+05 -5.847648E+04  7.143323E-10  1.950776E-09
        76  16 -5.531604E+05 -9.034145E+04 -1.247144E+05 -1.681673E+05 -1.183177E-09  5.729210E-10
        76  17 -4.891576E+05 -9.762434E+04 -1.772017E+05 -2.005692E+05  9.644109E-10  1.254453E-09
        76  18 -5.345321E+05 -3.890079E+05 -3.597189E+05 -1.665134E+05 -7.464220E-10 -6.589791E-10
        76  19 -1.536555E+05  3.612886E+03 -3.003006E+04 -1.169621E+05 -5.821667E+04 -1.500764E+04
        76  20 -1.404366E+05  7.089811E+04 -7.794402E+04 -6.689974E+04 -1.259987E+05 -4.016216E+04
        76  21 -2.356713E+05 -1.449700E+05 -2.524257E+05  4.960358E+04 -1.920628E+05 -6.989269E+04
        76  22 -3.534262E+05 -4.336319E+04 -7.736804E+04 -1.425668E+05 -5.698930E+04 -1.454934E+04
        76  23 -3.148037E+05 -1.336429E+04 -1.275546E+05 -1.337420E+05 -1.269071E+05 -4.049893E+04
        76  24 -3.850969E+05 -2.670000E+05 -3.060304E+05 -5.846532E+04 -1.951094E+05 -7.101329E+04
        76  25 -5.531570E+05 -9.034040E+04 -1.247082E+05 -1.681667E+05 -5.576236E+04 -1.409106E+04
        76  26 -4.891396E+05 -9.761816E+04 -1.771679E+05 -2.005650E+05 -1.278153E+05 -4.083551E+04
        76  27 -5.344885E+05 -3.889917E+05 -3.596353E+05 -1.665018E+05 -1.981552E+05 -7.213276E+04
        77   1  2.646668E+05  2.267009E+06  2.562115E+05 -3.557180E+04  1.322005E+04  1.158543E+05
        77   2  2.199723E+05  2.255391E+06  1.886555E+05 -1.993919E+04  4.595268E+04  6.468812E+04
        77   3  2.066473E+05  2.258314E+06  1.621926E+05 -3.692822E+03  5.897369E+04  1.352715E+04
        77   4  4.729889E+04  1.382646E+06  5.189506E+04 -4.663045E+03  1.323102E+04  3.486592E+04
        77   5  1.258141E+04  1.378631E+06  2.665803E+04 -4.977734E+03  4.596800E+04  2.119758E+04
        77   6  2.759564E+03  1.382676E+06  1.654633E+04 -4.676794E+03  5.898324E+04  7.532056E+03
        77   7 -1.701166E+05  4.990192E+05 -1.524485E+05  2.620150E+04  1.323395E+04 -4.600830E+04
        77   8 -1.948515E+05  5.026178E+05 -1.353643E+05  9.962145E+03  4.598125E+04 -2.223332E+04
        77   9 -2.011678E+05  5.077931E+05 -1.291232E+05 -5.659275E+03  5.899283E+04  1.545105E+03
        77  10  2.646630E+05  2.266995E+06  2.561861E+05 -3.557303E+04 -8.024729E-10  1.327371E-09
        77  11  2.199690E+05  2.255386E+06  1.886437E+05 -1.994158E+04 -2.636262E-09 -9.623100E-11
        77  12  2.066435E+05  2.258313E+06  1.621857E+05 -3.693463E+03 -1.006152E-09 -1.532163E-09
        77  13  4.729838E+04  1.382645E+06  5.189246E+04 -4.663416E+03 -8.526859E-10 -1.347595E-10
        77  14  1.257902E+04  1.378630E+06  2.665322E+04 -4.978519E+03 -3.813566E-10 -3.940477E-10
        77  15  2.755811E+03  1.382675E+06  1.653968E+04 -4.677152E+03  2.681393E-09  8.215223E-10
        77  16 -1.701174E+05  4.990169E+05 -1.524528E+05  2.620199E+04  1.332921E-09 -1.416774E-09
        77  17 -1.948539E+05  5.026167E+05 -1.353692E+05  9.962968E+03 -6.664663E-10  1.635500E-10
        77  18 -2.011716E+05  5.077922E+05 -1.291297E+05 -5.659348E+03 -1.381688E-09  1.342026E-09
        77  19  2.646668E+05  2.267009E+06  2.562115E+05 -3.557180E+04 -1.322005E+04 -1.158543E+05
        77  20  2.199723E+05  2.255391E+06  1.886555E+05 -1.993919E+04 -4.595268E+04 -6.468812E+04
        77  21  2.066473E+05  2.258314E+06  1.621926E+05 -3.692822E+03 -5.897369E+04 -1.352715E+04
        77  22  4.729889E+04  1.382646E+06  5.189506E+04 -4.663045E+03 -1.323102E+04 -3.486592E+04
        77  23  1.258141E+04  1.378631E+06  2.665803E+04 -4.977734E+03 -4.596800E+04 -2.119758E+04
        77  24  2.759564E+03  1.382676E+06  1.654633E+04 -4.676794E+03 -5.898324E+04 -7.532056E+03
        77  25 -1.701166E+05  4.990192E+05 -1.524485E+05  2.620150E+04 -1.323395E+04  4.600830E+04
        77  26 -1.948515E+05  5.026178E+05 -1.353643E+05  9.962145E+03 -4.598125E+04  2.223332E+04
        77  27 -2.011678E+05  5.077931E+05 -1.291232E+05 -5.659275E+03 -5.899283E+04 -1.545105E+03
        78   1  2.052736E+05  2.253362E+06  1.572231E+05 -6.899043E+03  6.032580E+04  1.238780E+04
        78   2  2.022169E+05  2.248064E+06  1.521439E+05 -4.887060E+03  6.211840E+04 -1.388373E+03
        78   3  2.039840E+05  2.245821E+06  1.572346E+05 -3.632567E+03  5.991747E+04 -1.516679E+04
        78   4  2.601634E+03  1.381271E+06  1.413023E+04 -4.981592E+03  6.033662E+04  5.189022E+03
        78   5  1.091787E+03  1.380401E+06  1.236105E+04 -4.603057E+03  6.212626E+04 -9.846055E+02
        78   6  3.092474E+03  1.381273E+06  1.549987E+04 -4.982066E+03  5.991962E+04 -7.160552E+03
        78   7 -2.001092E+05  5.099309E+05 -1.289845E+05 -3.066842E+03  6.034741E+04 -2.000024E+03
        78   8 -2.000712E+05  5.134829E+05 -1.274422E+05 -4.319361E+03  6.213413E+04 -5.813797E+02
        78   9 -1.978372E+05  5.174615E+05 -1.262562E+05 -6.329502E+03  5.992175E+04  8.349582E+02
        78  10  2.052697E+05  2.253360E+06  1.572159E+05 -6.899644E+03 -9.230137E-11  3.332823E-09
        78  11  2.022128E+05  2.248063E+06  1.521367E+05 -4.886991E+03 -1.061326E-09  3.074240E-10
        78  12  2.039801E+05  2.245820E+06  1.572274E+05 -3.631836E+03  1.271140E-09 -2.601597E-09
        78  13  2.597715E+03  1.381270E+06  1.412333E+04 -4.981844E+03  1.460941E-09 -1.928332E-11
        78  14  1.087639E+03  1.380400E+06  1.235379E+04 -4.603007E+03  2.332640E-09 -1.317726E-09
        78  15  3.088603E+03  1.381272E+06  1.549303E+04 -4.981721E+03  5.669475E-10  1.798913E-09
        78  16 -2.001131E+05  5.099300E+05 -1.289913E+05 -3.066745E+03 -2.217878E-11 -3.673924E-09
        78  17 -2.000754E+05  5.134819E+05 -1.274495E+05 -4.319332E+03  1.595032E-09 -3.647682E-11
        78  18 -1.978411E+05  5.174605E+05 -1.262630E+05 -6.329543E+03  2.260513E-09  2.220458E-09
        78  19  2.052736E+05  2.253362E+06  1.572231E+05 -6.899043E+03 -6.032580E+04 -1.238780E+04
        78  20  2.022169E+05  2.248064E+06  1.521439E+05 -4.887060E+03 -6.211840E+04  1.388373E+03
        78  21  2.039840E+05  2.245821E+06  1.572346E+05 -3.632567E+03 -5.991747E+04  1.516679E+04
        78  22  2.601634E+03  1.381271E+06  1.413023E+04 -4.981592E+03 -6.033662E+04 -5.189022E+03
        78  23  1.091787E+03  1.380401E+06  1.236105E+04 -4.603057E+03 -6.212626E+04  9.846055E+02
        78  24  3.092474E+03  1.381273E+06  1.549987E+04 -4.982066E+03 -5.991962E+04  7.160552E+03
        78  25 -2.001092E+05  5.099309E+05 -1.289845E+05 -3.066842E+03 -6.034741E+04  2.000024E+03
        78  26 -2.000712E+05  5.134829E+05 -1.274422E+05 -4.319361E+03 -6.213413E+04  5.813797E+02
        78  27 -1.978372E+05  5.174615E+05 -1.262562E+05 -6.329502E+03 -5.992175E+04 -8.349582E+02
        79   1  2.042508E+05  2.246241E+06  1.621328E+05 -7.276230E+03  5.828754E+04 -1.658942E+04
        79   2  2.175738E+05  2.235189E+06  1.892673E+05  1.272003E+04  4.520947E+04 -6.886579E+04
        79   3  2.666435E+05  2.239906E+06  2.593042E+05  3.064668E+04  1.307271E+04 -1.211676E+05
        79   4  3.276407E+03  1.383001E+06  1.870862E+04 -5.279635E+03  5.828959E+04 -9.753627E+03
        79   5  1.496536E+04  1.378232E+06  3.120693E+04 -4.222984E+03  4.517724E+04 -2.577632E+04
        79   6  5.614445E+04  1.382969E+06  6.150070E+04 -5.237628E+03  1.299734E+04 -4.182252E+04
        79   7 -1.977365E+05  5.204936E+05 -1.247380E+05 -3.285760E+03  5.829168E+04 -2.926990E+03
        79   8 -1.876828E+05  5.219901E+05 -1.268768E+05 -2.114192E+04  4.514264E+04  1.725542E+04
        79   9 -1.543976E+05  5.267244E+05 -1.363274E+05 -4.107202E+04  1.291278E+04  3.741423E+04
        79  10  2.042471E+05  2.246240E+06  1.621259E+05 -7.275452E+03 -8.530190E-10 -1.015510E-09
        79  11  2.175704E+05  2.235183E+06  1.892546E+05  1.272254E+04 -7.595697E-10 -6.414481E-10
        79  12  2.666394E+05  2.239890E+06  2.592764E+05  3.064796E+04 -1.501907E-09 -5.113377E-10
        79  13  3.272731E+03  1.383000E+06  1.870205E+04 -5.279177E+03  7.853097E-10  3.705669E-11
        79  14  1.496299E+04  1.378231E+06  3.120185E+04 -4.222046E+03  2.892591E-09 -1.909350E-09
        79  15  5.614380E+04  1.382967E+06  6.149710E+04 -5.237191E+03  1.177536E-09  2.699691E-09
        79  16 -1.977402E+05  5.204927E+05 -1.247444E+05 -3.285622E+03  2.341228E-10  5.147878E-11
        79  17 -1.876851E+05  5.219893E+05 -1.268812E+05 -2.114254E+04  1.339659E-10  1.216643E-09
        79  18 -1.543982E+05  5.267228E+05 -1.363303E+05 -4.107241E+04  1.015637E-09  2.889357E-12
        79  19  2.042508E+05  2.246241E+06  1.621328E+05 -7.276230E+03 -5.828754E+04  1.658942E+04
        79  20  2.175738E+05  2.235189E+06  1.892673E+05  1.272003E+04 -4.520947E+04  6.886579E+04
        79  21  2.666435E+05  2.239906E+06  2.593042E+05  3.064668E+04 -1.307271E+04  1.211676E+05
        79  22  3.276407E+03  1.383001E+06  1.870862E+04 -5.279635E+03 -5.828959E+04  9.753627E+03
        79  23  1.496536E+04  1.378232E+06  3.120693E+04 -4.222984E+03 -4.517724E+04  2.577632E+04
        79  24  5.614445E+04  1.382969E+06  6.150070E+04 -5.237628E+03 -1.299734E+04  4.182252E+04
        79  25 -1.977365E+05  5.204936E+05 -1.247380E+05 -3.285760E+03 -5.829168E+04  2.926990E+03
        79  26 -1.876828E+05  5.219901E+05 -1.268768E+05 -2.114192E+04 -4.514264E+04 -1.725542E+04
        79  27 -1.543976E+05  5.267244E+05 -1.363274E+05 -4.107202E+04 -1.291278E+04 -3.741423E+04
        80   1 -2.418272E+06 -4.231258E+05 -3.941195E+05 -5.957795E+04  4.309512E+04  2.051244E+04
        80   2 -2.285263E+06 -4.826383E+05 -4.054116E+05 -2.182970E+04  3.983863E+04  6.110317E+04
        80   3 -2.120734E+06 -4.379577E+05 -3.875940E+05 -9.411413E+04  3.677543E+04  5.655261E+04
        80   4 -3.779272E+05  8.617661E+04  1.100733E+05 -7.994540E+04  7.500987E+04  2.065315E+04
        80   5 -3.955715E+05 -1.351240E+04  4.773823E+04 -2.474782E+04  4.900513E+04  6.112250E+04
        80   6 -3.778439E+05 -5.220247E+03  3.025215E+04 -7.955899E+04  2.319496E+04  5.651117E+04
        80   7  1.666216E+06  5.951704E+05  6.139613E+05 -1.003842E+05  1.070294E+05  2.079153E+04
        80   8  1.497400E+06  4.553539E+05  5.006353E+05 -2.767769E+04  5.819933E+04  6.114173E+04
        80   9  1.367837E+06  4.272971E+05  4.478839E+05 -6.496416E+04  9.576352E+03  5.646916E+04
        80  10 -2.418274E+06 -4.231268E+05 -3.941238E+05 -5.957866E+04  4.203944E-10 -2.326551E-10
        80  11 -2.285266E+06 -4.826427E+05 -4.054216E+05 -2.183166E+04 -1.671736E-09 -2.957685E-10
        80  12 -2.120737E+06 -4.379615E+05 -3.876026E+05 -9.411581E+04  1.196773E-09  3.736958E-10
        80  13 -3.779333E+05  8.617464E+04  1.100619E+05 -7.994665E+04  8.665397E-12 -8.622255E-11
        80  14 -3.955751E+05 -1.351706E+04  4.772670E+04 -2.475023E+04  2.386921E-09 -1.630757E-10
        80  15 -3.778453E+05 -5.223821E+03  3.024514E+04 -7.956005E+04 -8.857558E-11 -1.120026E-10
        80  16  1.666204E+06  5.951669E+05  6.139390E+05 -1.003860E+05  1.097052E-09  1.106472E-10
        80  17  1.497396E+06  4.553490E+05  5.006219E+05 -2.768055E+04 -1.658493E-09  4.051490E-11
        80  18  1.367836E+06  4.272937E+05  4.478777E+05 -6.496459E+04  5.711750E-10 -2.283985E-10
        80  19 -2.418272E+06 -4.231258E+05 -3.941195E+05 -5.957795E+04 -4.309512E+04 -2.051244E+04
        80  20 -2.285263E+06 -4.826383E+05 -4.054116E+05 -2.182970E+04 -3.983863E+04 -6.110317E+04
        80  21 -2.120734E+06 -4.379577E+05 -3.875940E+05 -9.411413E+04 -3.677543E+04 -5.655261E+04
        80  22 -3.779272E+05  8.617661E+04  1.100733E+05 -7.994540E+04 -7.500987E+04 -2.065315E+04
        80  23 -3.955715E+05 -1.351240E+04  4.773823E+04 -2.474782E+04 -4.900513E+04 -6.112250E+04
        80  24 -3.778439E+05 -5.220247E+03  3.025215E+04 -7.955899E+04 -2.319496E+04 -5.651117E+04
        80  25  1.666216E+06  5.951704E+05  6.139613E+05 -1.003842E+05 -1.070294E+05 -2.079153E+04
        80  26  1.497400E+06  4.553539E+05  5.006353E+05 -2.767769E+04 -5.819933E+04 -6.114173E+04
        80  27  1.367837E+06  4.272971E+05  4.478839E+05 -6.496416E+04 -9.576352E+03 -5.646916E+04
        81   1 -1.925251E+06 -3.743857E+05 -3.459302E+05 -7.983339E+04  1.895081E+04  4.657938E+04
        81   2 -1.777225E+06 -3.468919E+05 -3.212248E+05 -2.432313E+04  1.434153E+04  4.390132E+04
        81   3 -1.623332E+06 -3.083176E+05 -2.902214E+05 -8.159397E+04  9.719683E+03  3.782436E+04
        81   4 -3.841512E+05  8.351050E+03  2.459061E+04 -8.029205E+04  1.849367E+04  4.657087E+04
        81   5 -3.871825E+05 -1.819317E+03  1.232521E+04 -2.390250E+04  1.216140E+04  4.389270E+04
        81   6 -3.840758E+05 -6.205370E+02  7.545529E+03 -8.027817E+04  5.817672E+03  3.781908E+04
        81   7  1.159128E+06  3.909147E+05  3.949424E+05 -8.075268E+04  1.803536E+04  4.656237E+04
        81   8  1.004633E+06  3.431127E+05  3.457382E+05 -2.348132E+04  9.976365E+03  4.388409E+04
        81   9  8.565894E+05  3.069647E+05  3.052034E+05 -7.895967E+04  1.907877E+03  3.781380E+04
        81  10 -1.925252E+06 -3.743881E+05 -3.459350E+05 -7.983410E+04 -8.246655E-10 -4.559015E-10
        81  11 -1.777225E+06 -3.468941E+05 -3.212288E+05 -2.432363E+04 -2.623227E-09 -9.471451E-10
        81  12 -1.623333E+06 -3.083192E+05 -2.902243E+05 -8.159427E+04 -2.093162E-09  4.008867E-10
        81  13 -3.841522E+05  8.348630E+03  2.458589E+04 -8.029275E+04  3.418675E-11  1.970234E-12
        81  14 -3.871831E+05 -1.821425E+03  1.232132E+04 -2.390293E+04  1.171198E-09 -2.789324E-10
        81  15 -3.840762E+05 -6.220817E+02  7.542778E+03 -8.027835E+04 -1.484974E-09 -3.021848E-11
        81  16  1.159127E+06  3.909123E+05  3.949377E+05 -8.075336E+04  1.259332E-10 -2.560883E-10
        81  17  1.004633E+06  3.431106E+05  3.457343E+05 -2.348168E+04  1.553908E-09  1.639080E-10
        81  18  8.565890E+05  3.069632E+05  3.052007E+05 -7.895973E+04  8.089402E-10 -1.252054E-10
        81  19 -1.925251E+06 -3.743857E+05 -3.459302E+05 -7.983339E+04 -1.895081E+04 -4.657938E+04
        81  20 -1.777225E+06 -3.468919E+05 -3.212248E+05 -2.432313E+04 -1.434153E+04 -4.390132E+04
        81  21 -1.623332E+06 -3.083176E+05 -2.902214E+05 -8.159397E+04 -9.719683E+03 -3.782436E+04
        81  22 -3.841512E+05  8.351050E+03  2.459061E+04 -8.029205E+04 -1.849367E+04 -4.657087E+04
        81  23 -3.871825E+05 -1.819317E+03  1.232521E+04 -2.390250E+04 -1.216140E+04 -4.389270E+04
        81  24 -3.840758E+05 -6.205370E+02  7.545529E+03 -8.027817E+04 -5.817672E+03 -3.781908E+04
        81  25  1.159128E+06  3.909147E+05  3.949424E+05 -8.075268E+04 -1.803536E+04 -4.656237E+04
        81  26  1.004633E+06  3.431127E+05  3.457382E+05 -2.348132E+04 -9.976365E+03 -4.388409E+04
        81  27  8.565894E+05  3.069647E+05  3.052034E+05 -7.895967E+04 -1.907877E+03 -3.781380E+04
        82   1 -1.419479E+06 -2.559930E+05 -2.419751E+05 -8.023218E+04  7.550156E+03  3.373204E+04
        82   2 -1.267227E+06 -2.190631E+05 -2.083549E+05 -2.298691E+04  6.106822E+03  2.776263E+04
        82   3 -1.113763E+06 -1.807925E+05 -1.733190E+05 -7.997313E+04  4.651402E+03  2.151850E+04
        82   4 -3.850389E+05  6.759626E+02  5.837710E+03 -8.060524E+04  4.620562E+03  3.372925E+04
        82   5 -3.856223E+05 -2.716419E+02  3.146804E+03 -2.349459E+04  3.036289E+03  2.776250E+04
        82   6 -3.849887E+05  1.475669E+02  1.969933E+03 -8.060539E+04  1.440285E+03  2.152127E+04
        82   7  6.503833E+05  2.572672E+05  2.535749E+05 -8.097879E+04  1.686093E+03  3.372646E+04
        82   8  4.966952E+05  2.184633E+05  2.145935E+05 -2.400283E+04 -3.859683E+01  2.776237E+04
        82   9  3.442720E+05  1.810489E+05  1.772210E+05 -8.123820E+04 -1.774592E+03  2.152405E+04
        82  10 -1.419479E+06 -2.559942E+05 -2.419774E+05 -8.023239E+04 -3.905117E-10  9.848539E-10
        82  11 -1.267227E+06 -2.190640E+05 -2.083565E+05 -2.298705E+04 -2.423624E-09 -1.412672E-10
        82  12 -1.113763E+06 -1.807930E+05 -1.733199E+05 -7.997321E+04 -7.142455E-10 -2.918433E-10
        82  13 -3.850392E+05  6.747354E+02  5.835532E+03 -8.060537E+04 -3.221622E-09  2.208669E-10
        82  14 -3.856225E+05 -2.724719E+02  3.145338E+03 -2.349466E+04  1.030407E-09 -1.212262E-10
        82  15 -3.849888E+05  1.470691E+02  1.969059E+03 -8.060541E+04  6.563883E-10 -4.429560E-10
        82  16  6.503830E+05  2.572660E+05  2.535727E+05 -8.097884E+04 -1.363526E-10 -1.133663E-10
        82  17  4.966950E+05  2.184625E+05  2.145920E+05 -2.400283E+04  2.791741E-10 -1.859322E-10
        82  18  3.442719E+05  1.810484E+05  1.772202E+05 -8.123817E+04  8.330384E-10 -1.909239E-10
        82  19 -1.419479E+06 -2.559930E+05 -2.419751E+05 -8.023218E+04 -7.550156E+03 -3.373204E+04
        82  20 -1.267227E+06 -2.190631E+05 -2.083549E+05 -2.298691E+04 -6.106822E+03 -2.776263E+04
        82  21 -1.113763E+06 -1.807925E+05 -1.733190E+05 -7.997313E+04 -4.651402E+03 -2.151850E+04
        82  22 -3.850389E+05  6.759626E+02  5.837710E+03 -8.060524E+04 -4.620562E+03 -3.372925E+04
        82  23 -3.856223E+05 -2.716419E+02  3.146804E+03 -2.349459E+04 -3.036289E+03 -2.776250E+04
        82  24 -3.849887E+05  1.475669E+02  1.969933E+03 -8.060539E+04 -1.440285E+03 -2.152127E+04
        82  25  6.503833E+05  2.572672E+05  2.535749E+05 -8.097879E+04 -1.686093E+03 -3.372646E+04
        82  26  4.966952E+05  2.184633E+05  2.145935E+05 -2.400283E+04  3.859683E+01 -2.776237E+04
        82  27  3.442720E+05  1.810489E+05  1.772210E+05 -8.123820E+04  1.774592E+03 -2.152405E+04
        83   1 -9.071363E+05 -1.291882E+05 -1.232110E+05 -8.018689E+04  4.259106E+03  1.783414E+04
        83   2 -7.531319E+05 -9.125444E+04 -8.729466E+04 -2.281043E+04  3.787111E+03  1.157795E+04
        83   3 -5.992644E+05 -5.287354E+04 -5.103329E+04 -8.044976E+04  3.310029E+03  5.294080E+03
        83   4 -3.852220E+05  2.177219E+02  1.510672E+03 -8.078085E+04  1.116465E+03  1.783818E+04
        83   5 -3.851319E+05  4.615030E+01  9.641184E+02 -2.327498E+04  6.298080E+02  1.158310E+04
        83   6 -3.852005E+05  3.252319E+02  7.732966E+02 -8.078065E+04  1.381799E+02  5.300446E+03
        83   7  1.369424E+05  1.296040E+05  1.262132E+05 -8.137520E+04 -2.028810E+03  1.784222E+04
        83   8 -1.700781E+04  9.133690E+04  8.921333E+04 -2.373975E+04 -2.529360E+03  1.158826E+04
        83   9 -1.710947E+05  5.352065E+04  5.257662E+04 -8.111163E+04 -3.034761E+03  5.306814E+03
        83  10 -9.071364E+05 -1.291886E+05 -1.232117E+05 -8.018695E+04 -7.318415E-10  3.496168E-11
        83  11 -7.531319E+05 -9.125459E+04 -8.729494E+04 -2.281046E+04 -3.579109E-09  2.920513E-10
        83  12 -5.992644E+05 -5.287357E+04 -5.103336E+04 -8.044977E+04 -4.942082E-10 -3.688224E-10
        83  13 -3.852220E+05  2.173800E+02  1.510072E+03 -8.078087E+04  2.165498E-09 -2.091233E-10
        83  14 -3.851320E+05  4.600615E+01  9.638656E+02 -2.327498E+04  4.495560E-10  9.702879E-10
        83  15 -3.852005E+05  3.252017E+02  7.732437E+02 -8.078065E+04 -2.413407E-11  4.087804E-10
        83  16  1.369423E+05  1.296036E+05  1.262126E+05 -8.137517E+04  4.346077E-10 -2.043327E-10
        83  17 -1.700785E+04  9.133676E+04  8.921306E+04 -2.373973E+04  2.240998E-09  2.343608E-10
        83  18 -1.710947E+05  5.352062E+04  5.257655E+04 -8.111162E+04  1.843370E-09  4.216744E-10
        83  19 -9.071363E+05 -1.291882E+05 -1.232110E+05 -8.018689E+04 -4.259106E+03 -1.783414E+04
        83  20 -7.531319E+05 -9.125444E+04 -8.729466E+04 -2.281043E+04 -3.787111E+03 -1.157795E+04
        83  21 -5.992644E+05 -5.287354E+04 -5.103329E+04 -8.044976E+04 -3.310029E+03 -5.294080E+03
        83  22 -3.852220E+05  2.177219E+02  1.510672E+03 -8.078085E+04 -1.116465E+03 -1.783818E+04
        83  23 -3.851319E+05  4.615030E+01  9.641184E+02 -2.327498E+04 -6.298080E+02 -1.158310E+04
        83  24 -3.852005E+05  3.252319E+02  7.732966E+02 -8.078065E+04 -1.381799E+02 -5.300446E+03
        83  25  1.369424E+05  1.296040E+05  1.262132E+05 -8.137520E+04  2.028810E+03 -1.784222E+04
        83  26 -1.700781E+04  9.133690E+04  8.921333E+04 -2.373975E+04  2.529360E+03 -1.158826E+04
        83  27 -1.710947E+05  5.352065E+04  5.257662E+04 -8.111163E+04  3.034761E+03 -5.306814E+03
        84   1 -3.915206E+05 -1.151984E+03 -2.920094E+02 -8.080773E+04  3.163008E+03  1.627057E+03
        84   2 -2.371857E+05  3.675819E+04  3.633284E+04 -2.344264E+04  2.706351E+03 -4.659377E+03
        84   3 -8.316648E+04  7.512905E+04  7.325553E+04 -8.121860E+04  2.251599E+03 -1.092632E+04
        84   4 -3.852278E+05  3.146921E+02  7.458300E+02 -8.080984E+04 -9.483547E+00  1.633666E+03
        84   5 -3.850625E+05  8.141809E+01  8.781475E+02 -2.323849E+04 -4.565971E+02 -4.653288E+03
        84   6 -3.852365E+05  3.088341E+02  1.303118E+03 -8.080985E+04 -9.016967E+02 -1.092067E+04
        84   7 -3.789349E+05  1.781371E+03  1.783706E+03 -8.081195E+04 -3.182006E+03  1.640274E+03
        84   8 -5.329193E+05 -3.659694E+04 -3.457806E+04 -2.303438E+04 -3.618795E+03 -4.647201E+03
        84   9 -6.872227E+05 -7.451796E+04 -7.065566E+04 -8.040126E+04 -4.053465E+03 -1.091502E+04
        84  10 -3.915206E+05 -1.151989E+03 -2.920332E+02 -8.080773E+04 -3.536070E-10 -6.001563E-10
        84  11 -2.371857E+05  3.675816E+04  3.633279E+04 -2.344263E+04 -1.418225E-09 -3.248957E-10
        84  12 -8.316651E+04  7.512892E+04  7.325530E+04 -8.121858E+04 -1.946882E-10  4.019929E-10
        84  13 -3.852278E+05  3.146893E+02  7.458250E+02 -8.080984E+04  1.119759E-09  2.032110E-10
        84  14 -3.850625E+05  8.139479E+01  8.781064E+02 -2.323849E+04 -6.494519E-10 -3.656613E-10
        84  15 -3.852365E+05  3.087058E+02  1.302892E+03 -8.080986E+04  6.557908E-10  4.819211E-10
        84  16 -3.789350E+05  1.781366E+03  1.783682E+03 -8.081194E+04  4.760979E-10 -4.273995E-10
        84  17 -5.329193E+05 -3.659696E+04 -3.457812E+04 -2.303439E+04 -1.318091E-10 -9.409597E-10
        84  18 -6.872227E+05 -7.451809E+04 -7.065592E+04 -8.040130E+04  1.824682E-09 -3.298492E-10
        84  19 -3.915206E+05 -1.151984E+03 -2.920094E+02 -8.080773E+04 -3.163008E+03 -1.627057E+03
        84  20 -2.371857E+05  3.675819E+04  3.633284E+04 -2.344264E+04 -2.706351E+03  4.659377E+03
        84  21 -8.316648E+04  7.512905E+04  7.325553E+04 -8.121860E+04 -2.251599E+03  1.092632E+04
        84  22 -3.852278E+05  3.146921E+02  7.458300E+02 -8.080984E+04  9.483547E+00 -1.633666E+03
        84  23 -3.850625E+05  8.141809E+01  8.781475E+02 -2.323849E+04  4.565971E+02  4.653288E+03
        84  24 -3.852365E+05  3.088341E+02  1.303118E+03 -8.080985E+04  9.016967E+02  1.092067E+04
        84  25 -3.789349E+05  1.781371E+03  1.783706E+03 -8.081195E+04  3.182006E+03 -1.640274E+03
        84  26 -5.329193E+05 -3.659694E+04 -3.457806E+04 -2.303438E+04  3.618795E+03  4.647201E+03
        84  27 -6.872227E+05 -7.451796E+04 -7.065566E+04 -8.040126E+04  4.053465E+03  1.091502E+04
        85   1  1.245462E+05  1.266979E+05  1.242944E+05 -8.126899E+04  2.037506E+03 -1.461362E+04
        85   2  2.777770E+05  1.642812E+05  1.616248E+05 -2.401583E+04  5.571526E+02 -2.087163E+04
        85   3  4.316783E+05  2.031379E+05  2.002575E+05 -8.140196E+04 -9.145110E+02 -2.688568E+04
        85   4 -3.850682E+05  2.367592E+02  1.669332E+03 -8.069993E+04 -1.179432E+03 -1.460874E+04
        85   5 -3.854022E+05 -1.495954E+02  2.673671E+03 -2.337625E+04 -2.535792E+03 -2.086902E+04
        85   6 -3.851063E+05  7.186222E+02  4.897160E+03 -8.069946E+04 -3.883104E+03 -2.688516E+04
        85   7 -8.944449E+05 -1.262433E+05 -1.209742E+05 -8.013123E+04 -4.393739E+03 -1.460386E+04
        85   8 -1.048178E+06 -1.646123E+05 -1.563086E+05 -2.273722E+04 -5.625446E+03 -2.086643E+04
        85   9 -1.201279E+06 -2.017490E+05 -1.905103E+05 -7.999770E+04 -6.847808E+03 -2.688464E+04
        85  10  1.245462E+05  1.266976E+05  1.242940E+05 -8.126896E+04  2.270842E-10 -2.313338E-11
        85  11  2.777769E+05  1.642807E+05  1.616240E+05 -2.401582E+04  2.065276E-09  4.605789E-11
        85  12  4.316781E+05  2.031371E+05  2.002562E+05 -8.140198E+04  2.867480E-09  1.308368E-09
        85  13 -3.850683E+05  2.365297E+02  1.668929E+03 -8.069995E+04 -2.196021E-09 -5.574922E-10
        85  14 -3.854023E+05 -1.500648E+02  2.672841E+03 -2.337630E+04 -4.962273E-09 -8.514194E-10
        85  15 -3.851065E+05  7.178421E+02  4.895773E+03 -8.069954E+04  2.380869E-10  8.320823E-10
        85  16 -8.944450E+05 -1.262435E+05 -1.209747E+05 -8.013128E+04 -1.116565E-09 -2.273269E-10
        85  17 -1.048179E+06 -1.646128E+05 -1.563095E+05 -2.273732E+04 -4.508195E-09 -1.319394E-09
        85  18 -1.201280E+06 -2.017498E+05 -1.905117E+05 -7.999785E+04 -5.976291E-09  9.305346E-10
        85  19  1.245462E+05  1.266979E+05  1.242944E+05 -8.126899E+04 -2.037506E+03  1.461362E+04
        85  20  2.777770E+05  1.642812E+05  1.616248E+05 -2.401583E+04 -5.571526E+02  2.087163E+04
        85  21  4.316783E+05  2.031379E+05  2.002575E+05 -8.140196E+04  9.145110E+02  2.688568E+04
        85  22 -3.850682E+05  2.367592E+02  1.669332E+03 -8.069993E+04  1.179432E+03  1.460874E+04
        85  23 -3.854022E+05 -1.495954E+02  2.673671E+03 -2.337625E+04  2.535792E+03  2.086902E+04
        85  24 -3.851063E+05  7.186222E+02  4.897160E+03 -8.069946E+04  3.883104E+03  2.688516E+04
        85  25 -8.944449E+05 -1.262433E+05 -1.209742E+05 -8.013123E+04  4.393739E+03  1.460386E+04
        85  26 -1.048178E+06 -1.646123E+05 -1.563086E+05 -2.273722E+04  5.625446E+03  2.086643E+04
        85  27 -1.201279E+06 -2.017490E+05 -1.905103E+05 -7.999770E+04  6.847808E+03  2.688464E+04
        86   1  6.386637E+05  2.532903E+05  2.518628E+05 -7.987262E+04 -1.039341E+03 -3.094330E+04
        86   2  7.883139E+05  2.898006E+05  2.918671E+05 -2.410864E+04 -7.922479E+03 -3.705175E+04
        86   3  9.429606E+05  3.362096E+05  3.391512E+05 -8.175600E+04 -1.479499E+04 -4.010186E+04
        86   4 -3.843058E+05 -3.713687E+02  6.323624E+03 -8.042735E+04 -4.888288E+03 -3.094419E+04
        86   5 -3.866925E+05 -1.437394E+03  1.035641E+04 -2.371731E+04 -1.021935E+04 -3.705665E+04
        86   6 -3.843700E+05  7.136437E+03  2.060111E+04 -8.043174E+04 -1.553808E+04 -4.010813E+04
        86   7 -1.406317E+06 -2.541092E+05 -2.392898E+05 -8.098095E+04 -8.730917E+03 -3.094507E+04
        86   8 -1.560435E+06 -2.927756E+05 -2.712520E+05 -2.332674E+04 -1.251187E+04 -3.706155E+04
        86   9 -1.710088E+06 -3.220648E+05 -2.980741E+05 -7.911053E+04 -1.627956E+04 -4.011442E+04
        86  10  6.386635E+05  2.532893E+05  2.518610E+05 -7.987265E+04 -2.467233E-09  9.534149E-10
        86  11  7.883134E+05  2.897991E+05  2.918644E+05 -2.410888E+04 -3.531437E-09 -1.885803E-10
        86  12  9.429599E+05  3.362079E+05  3.391478E+05 -8.175648E+04  2.301000E-09 -3.680902E-10
        86  13 -3.843060E+05 -3.724032E+02  6.321780E+03 -8.042747E+04  2.173717E-09  1.318585E-09
        86  14 -3.866930E+05 -1.438896E+03  1.035364E+04 -2.371762E+04 -5.408861E-10 -4.290989E-10
        86  15 -3.843707E+05  7.134645E+03  2.059764E+04 -8.043224E+04  4.202366E-10 -4.826073E-10
        86  16 -1.406318E+06 -2.541102E+05 -2.392917E+05 -8.098117E+04  2.898780E-09  1.183793E-09
        86  17 -1.560435E+06 -2.927771E+05 -2.712549E+05 -2.332711E+04  3.208451E-09 -5.788257E-10
        86  18 -1.710089E+06 -3.220666E+05 -2.980776E+05 -7.911105E+04 -2.380029E-10 -8.455721E-10
        86  19  6.386637E+05  2.532903E+05  2.518628E+05 -7.987262E+04  1.039341E+03  3.094330E+04
        86  20  7.883139E+05  2.898006E+05  2.918671E+05 -2.410864E+04  7.922479E+03  3.705175E+04
        86  21  9.429606E+05  3.362096E+05  3.391512E+05 -8.175600E+04  1.479499E+04  4.010186E+04
        86  22 -3.843058E+05 -3.713687E+02  6.323624E+03 -8.042735E+04  4.888288E+03  3.094419E+04
        86  23 -3.866925E+05 -1.437394E+03  1.035641E+04 -2.371731E+04  1.021935E+04  3.705665E+04
        86  24 -3.843700E+05  7.136437E+03  2.060111E+04 -8.043174E+04  1.553808E+04  4.010813E+04
        86  25 -1.406317E+06 -2.541092E+05 -2.392898E+05 -8.098095E+04  8.730917E+03  3.094507E+04
        86  26 -1.560435E+06 -2.927756E+05 -2.712520E+05 -2.332674E+04  1.251187E+04  3.706155E+04
        86  27 -1.710088E+06 -3.220648E+05 -2.980741E+05 -7.911053E+04  1.627956E+04  4.011442E+04
        87   1  1.152088E+06  3.751618E+05  3.917385E+05 -6.866859E+04 -6.875577E+03 -4.941548E+04
        87   2  1.286009E+06  4.048709E+05  4.419577E+05 -2.816383E+04 -4.907131E+04 -5.421663E+04
        87   3  1.452743E+06  5.285743E+05  5.438958E+05 -9.854295E+04 -9.140048E+04 -1.841332E+04
        87   4 -3.790709E+05 -4.227723E+03  2.535023E+04 -7.980343E+04 -1.948293E+04 -4.943945E+04
        87   5 -3.937585E+05 -1.125022E+04  4.002286E+04 -2.446785E+04 -4.112220E+04 -5.420836E+04
        87   6 -3.791475E+05  7.228885E+04  9.222653E+04 -8.003036E+04 -6.288376E+04 -1.832628E+04
        87   7 -1.908083E+06 -3.837867E+05 -3.412030E+05 -9.091128E+04 -3.205931E+04 -4.946301E+04
        87   8 -2.070942E+06 -4.275758E+05 -3.621110E+05 -2.078335E+04 -3.319434E+04 -5.419999E+04
        87   9 -2.207987E+06 -3.842447E+05 -3.596877E+05 -6.157467E+04 -3.445072E+04 -1.823743E+04
        87  10  1.152088E+06  3.751591E+05  3.917338E+05 -6.866887E+04  1.261820E-09  2.422490E-10
        87  11  1.286005E+06  4.048671E+05  4.419476E+05 -2.816597E+04 -1.631999E-09  2.031126E-10
        87  12  1.452734E+06  5.285717E+05  5.438795E+05 -9.854431E+04  1.036153E-09 -4.751679E-10
        87  13 -3.790719E+05 -4.230449E+03  2.534492E+04 -7.980421E+04  1.076855E-09  4.967514E-11
        87  14 -3.937611E+05 -1.125383E+04  4.001416E+04 -2.446965E+04  3.411675E-09  1.987742E-10
        87  15 -3.791518E+05  7.228742E+04  9.221847E+04 -8.003129E+04  1.373294E-09  3.998415E-10
        87  16 -1.908085E+06 -3.837896E+05 -3.412095E+05 -9.091256E+04  2.227449E-09 -6.030280E-11
        87  17 -2.070944E+06 -4.275792E+05 -3.621186E+05 -2.078480E+04 -4.031913E-09  1.969405E-09
        87  18 -2.207988E+06 -3.842454E+05 -3.596905E+05 -6.157518E+04 -2.167620E-09  5.565634E-10
        87  19  1.152088E+06  3.751618E+05  3.917385E+05 -6.866859E+04  6.875577E+03  4.941548E+04
        87  20  1.286009E+06  4.048709E+05  4.419577E+05 -2.816383E+04  4.907131E+04  5.421663E+04
        87  21  1.452743E+06  5.285743E+05  5.438958E+05 -9.854295E+04  9.140048E+04  1.841332E+04
        87  22 -3.790709E+05 -4.227723E+03  2.535023E+04 -7.980343E+04  1.948293E+04  4.943945E+04
        87  23 -3.937585E+05 -1.125022E+04  4.002286E+04 -2.446785E+04  4.112220E+04  5.420836E+04
        87  24 -3.791475E+05  7.228885E+04  9.222653E+04 -8.003036E+04  6.288376E+04  1.832628E+04
        87  25 -1.908083E+06 -3.837867E+05 -3.412030E+05 -9.091128E+04  3.205931E+04  4.946301E+04
        87  26 -2.070942E+06 -4.275758E+05 -3.621110E+05 -2.078335E+04  3.319434E+04  5.419999E+04
        87  27 -2.207987E+06 -3.842447E+05 -3.596877E+05 -6.157467E+04  3.445072E+04  1.823743E+04
        88   1  3.943846E+05  8.740359E+05  4.160622E+05 -2.318555E+05  9.479902E+03  1.051637E+05
        88   2  1.809469E+05  4.831032E+05  2.436348E+05 -6.933194E+04  2.530777E+04  6.034129E+04
        88   3  9.941818E+04  1.277715E+05  1.326922E+05 -1.839982E+05  1.168331E+04  1.536951E+04
        88   4  1.045035E+05 -2.866985E+05  1.292148E+05 -1.948024E+05  9.572926E+03  8.978209E+04
        88   5 -1.406737E+04 -3.031364E+05  5.549705E+04 -5.650686E+04  2.531363E+04  5.987323E+04
        88   6 -3.209359E+03 -2.866100E+05  3.299772E+04 -1.954084E+05  1.158887E+04  2.978761E+04
        88   7 -1.854736E+05 -1.446206E+06 -1.577312E+05 -1.578167E+05  9.664210E+03  7.442910E+04
        88   8 -2.091259E+05 -1.088809E+06 -1.326844E+05 -4.369722E+04  2.531946E+04  5.940571E+04
        88   9 -1.058487E+05 -7.008335E+05 -6.670808E+04 -2.068106E+05  1.149387E+04  4.419611E+04
        88  10  3.943816E+05  8.740240E+05  4.160412E+05 -2.318563E+05  1.699260E-09  5.952093E-10
        88  11  1.809452E+05  4.830991E+05  2.436268E+05 -6.933317E+04 -4.598676E-11 -1.040089E-10
        88  12  9.941797E+04  1.277712E+05  1.326915E+05 -1.839984E+05 -1.731625E-10 -3.717710E-10
        88  13  1.045012E+05 -2.867072E+05  1.291995E+05 -1.948031E+05  7.407897E-10  3.640864E-11
        88  14 -1.406902E+04 -3.031405E+05  5.548910E+04 -5.650808E+04  4.072203E-09  5.974764E-12
        88  15 -3.209741E+03 -2.866109E+05  3.299580E+04 -1.954087E+05 -5.061805E-11 -1.769485E-12
        88  16 -1.854752E+05 -1.446212E+06 -1.577418E+05 -1.578172E+05  6.315237E-10 -6.517128E-10
        88  17 -2.091276E+05 -1.088813E+06 -1.326922E+05 -4.369843E+04 -8.232840E-11  1.678227E-10
        88  18 -1.058494E+05 -7.008356E+05 -6.671200E+04 -2.068110E+05 -9.878433E-10  3.429340E-10
        88  19  3.943846E+05  8.740359E+05  4.160622E+05 -2.318555E+05 -9.479902E+03 -1.051637E+05
        88  20  1.809469E+05  4.831032E+05  2.436348E+05 -6.933194E+04 -2.530777E+04 -6.034129E+04
        88  21  9.941818E+04  1.277715E+05  1.326922E+05 -1.839982E+05 -1.168331E+04 -1.536951E+04
        88  22  1.045035E+05 -2.866985E+05  1.292148E+05 -1.948024E+05 -9.572926E+03 -8.978209E+04
        88  23 -1.406737E+04 -3.031364E+05  5.549705E+04 -5.650686E+04 -2.531363E+04 -5.987323E+04
        88  24 -3.209359E+03 -2.866100E+05  3.299772E+04 -1.954084E+05 -1.158887E+04 -2.978761E+04
        88  25 -1.854736E+05 -1.446206E+06 -1.577312E+05 -1.578167E+05 -9.664210E+03 -7.442910E+04
        88  26 -2.091259E+05 -1.088809E+06 -1.326844E+05 -4.369722E+04 -2.531946E+04 -5.940571E+04
        88  27 -1.058487E+05 -7.008335E+05 -6.670808E+04 -2.068106E+05 -1.149387E+04 -4.419611E+04
        89   1 -8.592533E+03 -3.829460E+05  3.982682E+03 -1.973636E+05 -1.909007E+03  1.787103E+04
        89   2 -1.148550E+05 -7.556716E+05 -1.018303E+05 -5.521473E+04 -1.467192E+04  1.394250E+04
        89   3 -2.099595E+05 -1.128932E+06 -2.031699E+05 -1.915034E+05 -2.598702E+04  1.003801E+04
        89   4  1.349879E+04 -2.940027E+05  2.563284E+04 -1.954302E+05 -1.954023E+03  2.468406E+04
        89   5 -2.678179E+02 -2.937725E+05  8.928636E+03 -5.626950E+04 -1.470908E+04  2.002694E+04
        89   6 -2.740272E+03 -2.940722E+05 -2.781896E+03 -1.955319E+05 -2.601718E+04  1.539159E+04
        89   7  3.558957E+04 -2.050520E+05  4.728260E+04 -1.934964E+05 -1.998994E+03  3.149806E+04
        89   8  1.143039E+05  1.683224E+05  1.196726E+05 -5.732475E+04 -1.474625E+04  2.611588E+04
        89   9  2.044283E+05  5.414265E+05  1.975567E+05 -1.995649E+05 -2.604739E+04  2.075234E+04
        89  10 -8.592623E+03 -3.829463E+05  3.982075E+03 -1.973636E+05 -4.787860E-10  5.672227E-10
        89  11 -1.148553E+05 -7.556719E+05 -1.018310E+05 -5.521456E+04 -2.103462E-09  3.852423E-10
        89  12 -2.099603E+05 -1.128932E+06 -2.031713E+05 -1.915032E+05  1.792286E-09  8.175627E-10
        89  13  1.349862E+04 -2.940033E+05  2.563169E+04 -1.954301E+05  2.301345E-09  1.506187E-10
        89  14 -2.681579E+02 -2.937730E+05  8.927475E+03 -5.626926E+04 -4.535286E-10  6.510226E-11
        89  15 -2.741062E+03 -2.940727E+05 -2.783613E+03 -1.955316E+05  2.822493E-09  8.585932E-11
        89  16  3.558930E+04 -2.050531E+05  4.728073E+04 -1.934964E+05 -1.432668E-09 -5.540079E-10
        89  17  1.143035E+05  1.683216E+05  1.196709E+05 -5.732444E+04 -5.127993E-10 -3.610987E-10
        89  18  2.044275E+05  5.414259E+05  1.975546E+05 -1.995645E+05 -1.170103E-09 -6.457991E-10
        89  19 -8.592533E+03 -3.829460E+05  3.982682E+03 -1.973636E+05  1.909007E+03 -1.787103E+04
        89  20 -1.148550E+05 -7.556716E+05 -1.018303E+05 -5.521473E+04  1.467192E+04 -1.394250E+04
        89  21 -2.099595E+05 -1.128932E+06 -2.031699E+05 -1.915034E+05  2.598702E+04 -1.003801E+04
        89  22  1.349879E+04 -2.940027E+05  2.563284E+04 -1.954302E+05  1.954023E+03 -2.468406E+04
        89  23 -2.678179E+02 -2.937725E+05  8.928636E+03 -5.626950E+04  1.470908E+04 -2.002694E+04
        89  24 -2.740272E+03 -2.940722E+05 -2.781896E+03 -1.955319E+05  2.601718E+04 -1.539159E+04
        89  25  3.558957E+04 -2.050520E+05  4.728260E+04 -1.934964E+05  1.998994E+03 -3.149806E+04
        89  26  1.143039E+05  1.683224E+05  1.196726E+05 -5.732475E+04  1.474625E+04 -2.611588E+04
        89  27  2.044283E+05  5.414265E+05  1.975567E+05 -1.995649E+05  2.604739E+04 -2.075234E+04
        90   1 -3.266696E+05 -1.633723E+06 -3.279553E+05 -1.842602E+05 -4.200917E+04 -2.961346E+03
        90   2 -4.182352E+05 -1.997443E+06 -4.284335E+05 -5.475445E+04 -5.546137E+04  3.212905E+04
        90   3 -5.582026E+05 -2.377471E+06 -5.639074E+05 -2.017157E+05 -1.984388E+04  6.740406E+04
        90   4  5.257511E+03 -2.969453E+05 -7.147332E+03 -1.949890E+05 -4.211133E+04  1.607170E+04
        90   5  5.309521E+03 -2.910192E+05 -1.939751E+04 -5.686242E+04 -5.542561E+04  2.652440E+04
        90   6 -3.866805E+04 -2.971906E+05 -4.945192E+04 -1.951616E+05 -1.972868E+04  3.718357E+04
        90   7  3.370551E+05  1.041473E+06  3.135352E+05 -2.057385E+05 -4.221402E+04  3.514562E+04
        90   8  4.286427E+05  1.418079E+06  3.894324E+05 -5.897308E+04 -5.538987E+04  2.090430E+04
        90   9  4.805435E+05  1.787035E+06  4.646855E+05 -1.885813E+05 -1.961432E+04  6.861466E+03
        90  10 -3.266715E+05 -1.633724E+06 -3.279586E+05 -1.842603E+05  7.228856E-10 -2.828179E-10
        90  11 -4.182388E+05 -1.997445E+06 -4.284412E+05 -5.475302E+04 -2.001186E-09  4.297681E-10
        90  12 -5.582043E+05 -2.377476E+06 -5.639167E+05 -2.017146E+05 -5.370371E-10  9.631632E-10
        90  13  5.255538E+03 -2.969461E+05 -7.151149E+03 -1.949885E+05 -1.275908E-09  5.896818E-13
        90  14  5.306034E+03 -2.910208E+05 -1.940460E+04 -5.686124E+04 -6.417220E-10 -3.333428E-11
        90  15 -3.866884E+04 -2.971922E+05 -4.945525E+04 -1.951610E+05 -8.975351E-10 -3.132773E-11
        90  16  3.370529E+05  1.041471E+06  3.135295E+05 -2.057373E+05 -1.491536E-09  3.151881E-10
        90  17  4.286393E+05  1.418077E+06  3.894258E+05 -5.897215E+04 -3.434175E-10 -3.338641E-10
        90  18  4.805431E+05  1.787035E+06  4.646847E+05 -1.885812E+05  1.081213E-09 -9.933508E-10
        90  19 -3.266696E+05 -1.633723E+06 -3.279553E+05 -1.842602E+05  4.200917E+04  2.961346E+03
        90  20 -4.182352E+05 -1.997443E+06 -4.284335E+05 -5.475445E+04  5.546137E+04 -3.212905E+04
        90  21 -5.582026E+05 -2.377471E+06 -5.639074E+05 -2.017157E+05  1.984388E+04 -6.740406E+04
        90  22  5.257511E+03 -2.969453E+05 -7.147332E+03 -1.949890E+05  4.211133E+04 -1.607170E+04
        90  23  5.309521E+03 -2.910192E+05 -1.939751E+04 -5.686242E+04  5.542561E+04 -2.652440E+04
        90  24 -3.866805E+04 -2.971906E+05 -4.945192E+04 -1.951616E+05  1.972868E+04 -3.718357E+04
        90  25  3.370551E+05  1.041473E+06  3.135352E+05 -2.057385E+05  4.221402E+04 -3.514562E+04
        90  26  4.286427E+05  1.418079E+06  3.894324E+05 -5.897308E+04  5.538987E+04 -2.090430E+04
        90  27  4.805435E+05  1.787035E+06  4.646855E+05 -1.885813E+05  1.961432E+04 -6.861466E+03
        91   1 -4.945713E+06 -1.640849E+06 -1.042367E+06 -1.723863E+06 -4.398235E+05 -1.497982E+05
        91   2 -4.811721E+06 -9.843451E+05 -6.314777E+05 -1.767866E+06 -2.877840E+05 -5.663886E+04
        91   3 -4.882820E+06 -9.635397E+05 -5.063362E+05 -1.701131E+06 -1.229219E+05  2.865015E+03
        91   4 -3.622057E+06 -9.951921E+05 -6.518191E+05 -1.217456E+06 -4.180859E+05 -1.416554E+05
        91   5 -3.486487E+06 -4.415387E+05 -2.716759E+05 -1.362882E+06 -2.815344E+05 -5.429865E+04
        91   6 -3.552429E+06 -5.197492E+05 -1.644659E+05 -1.397714E+06 -1.321775E+05 -6.298674E+02
        91   7 -2.296650E+06 -3.490700E+05 -2.614437E+05 -7.099551E+05 -3.962962E+05 -1.334801E+05
        91   8 -2.159535E+06  1.014608E+05  8.796669E+04 -9.570807E+05 -2.752695E+05 -5.195155E+04
        91   9 -2.220312E+06 -7.593940E+04  1.772634E+05 -1.093748E+06 -1.414548E+05 -4.130730E+03
        91  10 -4.945928E+06 -1.640926E+06 -1.042777E+06 -1.723916E+06 -3.874649E-09 -1.673712E-09
        91  11 -4.811811E+06 -9.843711E+05 -6.316407E+05 -1.767880E+06 -1.532629E-09 -7.654725E-10
        91  12 -4.882836E+06 -9.635438E+05 -5.063648E+05 -1.701130E+06  2.843135E-09  1.115528E-09
        91  13 -3.622251E+06 -9.952611E+05 -6.521877E+05 -1.217504E+06 -2.884595E-09 -4.142325E-10
        91  14 -3.486573E+06 -4.415634E+05 -2.718313E+05 -1.362895E+06  5.626451E-11 -1.194932E-09
        91  15 -3.552448E+06 -5.197539E+05 -1.644989E+05 -1.397714E+06 -2.226195E-09 -9.806573E-10
        91  16 -2.296824E+06 -3.491316E+05 -2.617737E+05 -7.099978E+05  5.386164E-09  1.075821E-09
        91  17 -2.159617E+06  1.014375E+05  8.781863E+04 -9.570923E+05  7.260994E-10 -1.717992E-09
        91  18 -2.220334E+06 -7.594482E+04  1.772257E+05 -1.093749E+06 -6.600161E-09 -2.970653E-09
        91  19 -4.945713E+06 -1.640849E+06 -1.042367E+06 -1.723863E+06  4.398235E+05  1.497982E+05
        91  20 -4.811721E+06 -9.843451E+05 -6.314777E+05 -1.767866E+06  2.877840E+05  5.663886E+04
        91  21 -4.882820E+06 -9.635397E+05 -5.063362E+05 -1.701131E+06  1.229219E+05 -2.865015E+03
        91  22 -3.622057E+06 -9.951921E+05 -6.518191E+05 -1.217456E+06  4.180859E+05  1.416554E+05
        91  23 -3.486487E+06 -4.415387E+05 -2.716759E+05 -1.362882E+06  2.815344E+05  5.429865E+04
        91  24 -3.552429E+06 -5.197492E+05 -1.644659E+05 -1.397714E+06  1.321775E+05  6.298674E+02
        91  25 -2.296650E+06 -3.490700E+05 -2.614437E+05 -7.099551E+05  3.962962E+05  1.334801E+05
        91  26 -2.159535E+06  1.014608E+05  8.796669E+04 -9.570807E+05  2.752695E+05  5.195155E+04
        91  27 -2.220312E+06 -7.593940E+04  1.772634E+05 -1.093748E+06  1.414548E+05  4.130730E+03
        92   1 -4.684941E+06 -1.042892E+06 -4.447083E+05 -1.693146E+06 -1.064060E+05  1.361332E+03
        92   2 -4.609251E+06 -9.131311E+05 -3.494516E+05 -1.645950E+06 -7.127173E+04  1.335098E+04
        92   3 -4.507170E+06 -9.035431E+05 -2.978480E+05 -1.643678E+06 -3.497139E+04  2.224015E+04
        92   4 -3.528464E+06 -5.910355E+05 -1.338930E+05 -1.362141E+06 -1.063284E+05  1.382209E+03
        92   5 -3.537991E+06 -5.047810E+05 -6.412642E+04 -1.349580E+06 -7.258618E+04  1.285019E+04
        92   6 -3.520806E+06 -5.383417E+05 -3.683840E+04 -1.381951E+06 -3.768408E+04  2.121683E+04
        92   7 -2.370686E+06 -1.390736E+05  1.768024E+05 -1.030566E+06 -1.062504E+05  1.403221E+03
        92   8 -2.465614E+06 -9.635492E+04  2.210983E+05 -1.052742E+06 -7.390306E+04  1.234847E+04
        92   9 -2.533496E+06 -1.730897E+05  2.240880E+05 -1.119849E+06 -4.040152E+04  2.019180E+04
        92  10 -4.684953E+06 -1.042895E+06 -4.447297E+05 -1.693146E+06  3.204724E-11 -3.610933E-10
        92  11 -4.609257E+06 -9.131326E+05 -3.494616E+05 -1.645949E+06  9.769197E-10 -5.444385E-10
        92  12 -4.507171E+06 -9.035439E+05 -2.978513E+05 -1.643677E+06  1.538944E-09 -4.983932E-10
        92  13 -3.528476E+06 -5.910385E+05 -1.339144E+05 -1.362140E+06 -2.014554E-09 -6.309631E-10
        92  14 -3.537997E+06 -5.047826E+05 -6.413668E+04 -1.349579E+06 -1.524965E-09  7.878088E-11
        92  15 -3.520808E+06 -5.383426E+05 -3.684192E+04 -1.381950E+06 -2.821890E-10 -5.581552E-10
        92  16 -2.370699E+06 -1.390767E+05  1.767811E+05 -1.030566E+06 -1.679789E-09 -5.953091E-10
        92  17 -2.465620E+06 -9.635655E+04  2.210878E+05 -1.052741E+06 -3.093489E-09 -5.520740E-10
        92  18 -2.533498E+06 -1.730906E+05  2.240842E+05 -1.119848E+06 -1.787550E-09 -4.604760E-10
        92  19 -4.684941E+06 -1.042892E+06 -4.447083E+05 -1.693146E+06  1.064060E+05 -1.361332E+03
        92  20 -4.609251E+06 -9.131311E+05 -3.494516E+05 -1.645950E+06  7.127173E+04 -1.335098E+04
        92  21 -4.507170E+06 -9.035431E+05 -2.978480E+05 -1.643678E+06  3.497139E+04 -2.224015E+04
        92  22 -3.528464E+06 -5.910355E+05 -1.338930E+05 -1.362141E+06  1.063284E+05 -1.382209E+03
        92  23 -3.537991E+06 -5.047810E+05 -6.412642E+04 -1.349580E+06  7.258618E+04 -1.285019E+04
        92  24 -3.520806E+06 -5.383417E+05 -3.683840E+04 -1.381951E+06  3.768408E+04 -2.121683E+04
        92  25 -2.370686E+06 -1.390736E+05  1.768024E+05 -1.030566E+06  1.062504E+05 -1.403221E+03
        92  26 -2.465614E+06 -9.635492E+04  2.210983E+05 -1.052742E+06  7.390306E+04 -1.234847E+04
        92  27 -2.533496E+06 -1.730897E+05  2.240880E+05 -1.119849E+06  4.040152E+04 -2.019180E+04
        93   1 -4.346330E+06 -8.622187E+05 -2.492547E+05 -1.607580E+06 -2.928158E+04  2.095403E+04
        93   2 -4.266838E+06 -7.809846E+05 -2.063183E+05 -1.541679E+06 -1.979013E+04  1.942957E+04
        93   3 -4.126237E+06 -7.711300E+05 -1.710367E+05 -1.547405E+06 -1.012386E+04  1.741749E+04
        93   4 -3.516009E+06 -5.480418E+05 -2.883910E+04 -1.380146E+06 -3.127847E+04  2.020119E+04
        93   5 -3.546134E+06 -5.093848E+05 -1.497743E+04 -1.345446E+06 -2.200514E+04  1.859695E+04
        93   6 -3.515117E+06 -5.420520E+05 -8.587399E+03 -1.382371E+06 -1.255863E+04  1.650482E+04
        93   7 -2.685016E+06 -2.338216E+05  1.915166E+05 -1.152434E+06 -3.327830E+04  1.944723E+04
        93   8 -2.824926E+06 -2.377539E+05  1.763180E+05 -1.149005E+06 -2.422298E+04  1.776327E+04
        93   9 -2.903637E+06 -3.129532E+05  1.538290E+05 -1.217191E+06 -1.499605E+04  1.559117E+04
        93  10 -4.346331E+06 -8.622194E+05 -2.492572E+05 -1.607580E+06  1.482465E-09 -1.455252E-09
        93  11 -4.266838E+06 -7.809851E+05 -2.063198E+05 -1.541679E+06  2.583961E-10 -8.729096E-11
        93  12 -4.126237E+06 -7.711303E+05 -1.710375E+05 -1.547405E+06 -1.130316E-09 -9.171210E-10
        93  13 -3.516010E+06 -5.480425E+05 -2.884171E+04 -1.380145E+06  4.828215E-10 -8.671632E-10
        93  14 -3.546134E+06 -5.093853E+05 -1.497899E+04 -1.345445E+06 -2.145318E-09 -6.797870E-10
        93  15 -3.515117E+06 -5.420523E+05 -8.588207E+03 -1.382371E+06 -2.424614E-09 -1.423934E-09
        93  16 -2.685018E+06 -2.338223E+05  1.915138E+05 -1.152434E+06 -1.755132E-09 -6.668845E-10
        93  17 -2.824927E+06 -2.377544E+05  1.763163E+05 -1.149005E+06 -2.608341E-09 -1.415680E-09
        93  18 -2.903637E+06 -3.129535E+05  1.538281E+05 -1.217191E+06 -3.842964E-09 -1.680251E-09
        93  19 -4.346330E+06 -8.622187E+05 -2.492547E+05 -1.607580E+06  2.928158E+04 -2.095403E+04
        93  20 -4.266838E+06 -7.809846E+05 -2.063183E+05 -1.541679E+06  1.979013E+04 -1.942957E+04
        93  21 -4.126237E+06 -7.711300E+05 -1.710367E+05 -1.547405E+06  1.012386E+04 -1.741749E+04
        93  22 -3.516009E+06 -5.480418E+05 -2.883910E+04 -1.380146E+06  3.127847E+04 -2.020119E+04
        93  23 -3.546134E+06 -5.093848E+05 -1.497743E+04 -1.345446E+06  2.200514E+04 -1.859695E+04
        93  24 -3.515117E+06 -5.420520E+05 -8.587399E+03 -1.382371E+06  1.255863E+04 -1.650482E+04
        93  25 -2.685016E+06 -2.338216E+05  1.915166E+05 -1.152434E+06  3.327830E+04 -1.944723E+04
        93  26 -2.824926E+06 -2.377539E+05  1.763180E+05 -1.149005E+06  2.422298E+04 -1.776327E+04
        93  27 -2.903637E+06 -3.129532E+05  1.538290E+05 -1.217191E+06  1.499605E+04 -1.559117E+04
        94   1 -3.953372E+06 -7.095298E+05 -1.230532E+05 -1.502875E+06 -7.779172E+03  1.486366E+04
        94   2 -3.867360E+06 -6.283935E+05 -8.887383E+04 -1.430043E+06 -3.663780E+03  1.050097E+04
        94   3 -3.712023E+06 -6.180171E+05 -5.654651E+04 -1.437315E+06  4.979751E+02  6.003069E+03
        94   4 -3.513561E+06 -5.441721E+05 -6.794453E+03 -1.383389E+06 -1.017958E+04  1.396505E+04
        94   5 -3.548155E+06 -5.084471E+05 -4.211757E+03 -1.343460E+06 -6.126133E+03  9.580189E+03
        94   6 -3.513430E+06 -5.434681E+05 -3.430715E+03 -1.383637E+06 -2.026840E+03  5.060055E+03
        94   7 -3.073560E+06 -3.788020E+05  1.094482E+05 -1.263826E+06 -1.258188E+04  1.306574E+04
        94   8 -3.228851E+06 -3.884949E+05  8.044135E+04 -1.256836E+06 -8.589880E+03  8.658891E+03
        94   9 -3.314801E+06 -4.689174E+05  4.968122E+04 -1.329944E+06 -4.552528E+03  4.116715E+03
        94  10 -3.953372E+06 -7.095300E+05 -1.230537E+05 -1.502875E+06 -2.339967E-09 -1.523181E-09
        94  11 -3.867360E+06 -6.283936E+05 -8.887406E+04 -1.430043E+06 -1.925285E-09 -2.766207E-10
        94  12 -3.712023E+06 -6.180171E+05 -5.654658E+04 -1.437315E+06  2.092359E-10  1.682120E-10
        94  13 -3.513562E+06 -5.441723E+05 -6.795014E+03 -1.383389E+06 -1.735751E-09 -1.695838E-09
        94  14 -3.548155E+06 -5.084472E+05 -4.211999E+03 -1.343459E+06 -3.065486E-09 -2.230059E-10
        94  15 -3.513430E+06 -5.434681E+05 -3.430771E+03 -1.383637E+06 -2.005703E-09  7.046243E-10
        94  16 -3.073561E+06 -3.788022E+05  1.094476E+05 -1.263826E+06 -6.581284E-10 -1.088356E-09
        94  17 -3.228851E+06 -3.884950E+05  8.044107E+04 -1.256836E+06 -1.200395E-09  2.878787E-10
        94  18 -3.314801E+06 -4.689174E+05  4.968115E+04 -1.329944E+06 -1.032772E-09  2.628874E-11
        94  19 -3.953372E+06 -7.095298E+05 -1.230532E+05 -1.502875E+06  7.779172E+03 -1.486366E+04
        94  20 -3.867360E+06 -6.283935E+05 -8.887383E+04 -1.430043E+06  3.663780E+03 -1.050097E+04
        94  21 -3.712023E+06 -6.180171E+05 -5.654651E+04 -1.437315E+06 -4.979751E+02 -6.003069E+03
        94  22 -3.513561E+06 -5.441721E+05 -6.794453E+03 -1.383389E+06  1.017958E+04 -1.396505E+04
        94  23 -3.548155E+06 -5.084471E+05 -4.211757E+03 -1.343460E+06  6.126133E+03 -9.580189E+03
        94  24 -3.513430E+06 -5.434681E+05 -3.430715E+03 -1.383637E+06  2.026840E+03 -5.060055E+03
        94  25 -3.073560E+06 -3.788020E+05  1.094482E+05 -1.263826E+06  1.258188E+04 -1.306574E+04
        94  26 -3.228851E+06 -3.884949E+05  8.044135E+04 -1.256836E+06  8.589880E+03 -8.658891E+03
        94  27 -3.314801E+06 -4.689174E+05  4.968122E+04 -1.329944E+06  4.552528E+03 -4.116715E+03
        95   1 -3.531802E+06 -5.507677E+05 -7.987279E+03 -1.389163E+06  2.247687E+03  3.076863E+03
        95   2 -3.444214E+06 -4.689289E+05  2.307742E+04 -1.314821E+06  6.512473E+03 -1.440415E+03
        95   3 -3.286306E+06 -4.591393E+05  5.217004E+04 -1.322024E+06  1.075868E+04 -5.902131E+03
        95   4 -3.513194E+06 -5.437379E+05 -3.501201E+03 -1.383960E+06 -2.834622E+02  2.131751E+03
        95   5 -3.548397E+06 -5.080476E+05 -4.542636E+03 -1.343060E+06  4.006648E+03 -2.376465E+03
        95   6 -3.513298E+06 -5.444135E+05 -7.575279E+03 -1.383712E+06  8.277673E+03 -6.829244E+03
        95   7 -3.494586E+06 -5.367081E+05  9.848962E+02 -1.378756E+06 -2.814703E+03  1.186604E+03
        95   8 -3.652570E+06 -5.471659E+05 -3.216379E+04 -1.371294E+06  1.501271E+03 -3.312349E+03
        95   9 -3.740242E+06 -6.296854E+05 -6.732555E+04 -1.445379E+06  5.797644E+03 -7.755991E+03
        95  10 -3.531802E+06 -5.507677E+05 -7.987306E+03 -1.389163E+06  1.994753E-09  8.154779E-10
        95  11 -3.444214E+06 -4.689289E+05  2.307734E+04 -1.314821E+06 -1.185254E-11 -8.180574E-10
        95  12 -3.286306E+06 -4.591394E+05  5.216976E+04 -1.322024E+06  6.931051E-10  1.362482E-10
        95  13 -3.513194E+06 -5.437379E+05 -3.501210E+03 -1.383960E+06 -8.415303E-10  4.232749E-10
        95  14 -3.548397E+06 -5.080476E+05 -4.542677E+03 -1.343060E+06 -1.907360E-10  1.944284E-10
        95  15 -3.513298E+06 -5.444136E+05 -7.575495E+03 -1.383712E+06 -1.974557E-09  6.658690E-10
        95  16 -3.494586E+06 -5.367081E+05  9.848786E+02 -1.378756E+06 -1.017215E-09 -3.747810E-10
        95  17 -3.652570E+06 -5.471659E+05 -3.216381E+04 -1.371294E+06 -4.145590E-10 -2.876187E-10
        95  18 -3.740242E+06 -6.296855E+05 -6.732572E+04 -1.445379E+06 -1.429615E-09  1.881998E-10
        95  19 -3.531802E+06 -5.507677E+05 -7.987279E+03 -1.389163E+06 -2.247687E+03 -3.076863E+03
        95  20 -3.444214E+06 -4.689289E+05  2.307742E+04 -1.314821E+06 -6.512473E+03  1.440415E+03
        95  21 -3.286306E+06 -4.591393E+05  5.217004E+04 -1.322024E+06 -1.075868E+04  5.902131E+03
        95  22 -3.513194E+06 -5.437379E+05 -3.501201E+03 -1.383960E+06  2.834622E+02 -2.131751E+03
        95  23 -3.548397E+06 -5.080476E+05 -4.542636E+03 -1.343060E+06 -4.006648E+03  2.376465E+03
        95  24 -3.513298E+06 -5.444135E+05 -7.575279E+03 -1.383712E+06 -8.277673E+03  6.829244E+03
        95  25 -3.494586E+06 -5.367081E+05  9.848962E+02 -1.378756E+06  2.814703E+03 -1.186604E+03
        95  26 -3.652570E+06 -5.471659E+05 -3.216379E+04 -1.371294E+06 -1.501271E+03  3.312349E+03
        95  27 -3.740242E+06 -6.296854E+05 -6.732555E+04 -1.445379E+06 -5.797644E+03  7.755991E+03
        96   1 -3.109969E+06 -3.916685E+05  9.784917E+04 -1.274655E+06  1.337151E+04 -8.470273E+03
        96   2 -3.026468E+06 -3.123001E+05  1.211155E+05 -1.202708E+06  2.370633E+04 -1.049291E+04
        96   3 -2.879219E+06 -3.087572E+05  1.359512E+05 -1.206435E+06  3.390266E+04 -1.212141E+04
        96   4 -3.514449E+06 -5.427383E+05 -9.666749E+03 -1.383368E+06  1.084933E+04 -9.413507E+03
        96   5 -3.546800E+06 -5.081534E+05 -1.689009E+04 -1.344286E+06  2.136120E+04 -1.137164E+04
        96   6 -3.515452E+06 -5.494383E+05 -3.268962E+04 -1.380888E+06  3.173282E+04 -1.293611E+04
        96   7 -3.918768E+06 -6.937979E+05 -1.171960E+05 -1.492016E+06  8.328970E+03 -1.035607E+04
        96   8 -4.066867E+06 -7.039895E+05 -1.549185E+05 -1.485757E+06  1.901825E+04 -1.224956E+04
        96   9 -4.151291E+06 -7.900935E+05 -2.013654E+05 -1.555178E+06  2.956544E+04 -1.374988E+04
        96  10 -3.109969E+06 -3.916686E+05  9.784870E+04 -1.274655E+06  1.179577E-09  5.419766E-10
        96  11 -3.026469E+06 -3.123004E+05  1.211142E+05 -1.202707E+06 -3.966905E-10 -8.052507E-10
        96  12 -2.879221E+06 -3.087577E+05  1.359487E+05 -1.206434E+06  3.865865E-10 -3.957733E-10
        96  13 -3.514449E+06 -5.427384E+05 -9.667137E+03 -1.383368E+06  5.745768E-11  4.997405E-10
        96  14 -3.546800E+06 -5.081537E+05 -1.689119E+04 -1.344286E+06 -8.732589E-11 -8.465824E-10
        96  15 -3.515453E+06 -5.494387E+05 -3.269184E+04 -1.380887E+06  2.786150E-10 -2.998317E-10
        96  16 -3.918768E+06 -6.937980E+05 -1.171963E+05 -1.492016E+06 -6.106978E-10  1.131853E-10
        96  17 -4.066867E+06 -7.039898E+05 -1.549194E+05 -1.485757E+06  3.125229E-09 -8.135973E-10
        96  18 -4.151292E+06 -7.900939E+05 -2.013674E+05 -1.555178E+06  4.908148E-10  4.481898E-10
        96  19 -3.109969E+06 -3.916685E+05  9.784917E+04 -1.274655E+06 -1.337151E+04  8.470273E+03
        96  20 -3.026468E+06 -3.123001E+05  1.211155E+05 -1.202708E+06 -2.370633E+04  1.049291E+04
        96  21 -2.879219E+06 -3.087572E+05  1.359512E+05 -1.206435E+06 -3.390266E+04  1.212141E+04
        96  22 -3.514449E+06 -5.427383E+05 -9.666749E+03 -1.383368E+06 -1.084933E+04  9.413507E+03
        96  23 -3.546800E+06 -5.081534E+05 -1.689009E+04 -1.344286E+06 -2.136120E+04  1.137164E+04
        96  24 -3.515452E+06 -5.494383E+05 -3.268962E+04 -1.380888E+06 -3.173282E+04  1.293611E+04
        96  25 -3.918768E+06 -6.937979E+05 -1.171960E+05 -1.492016E+06 -8.328970E+03  1.035607E+04
        96  26 -4.066867E+06 -7.039895E+05 -1.549185E+05 -1.485757E+06 -1.901825E+04  1.224956E+04
        96  27 -4.151291E+06 -7.900935E+05 -2.013654E+05 -1.555178E+06 -2.956544E+04  1.374988E+04
        97   1 -2.715062E+06 -2.439986E+05  1.705988E+05 -1.172834E+06  4.175701E+04 -1.279848E+04
        97   2 -2.639330E+06 -1.590561E+05  1.665872E+05 -1.098545E+06  7.997920E+04 -3.666761E+03
        97   3 -2.535470E+06 -2.081274E+05  1.152988E+05 -1.073750E+06  1.171522E+05  8.301187E+03
        97   4 -3.520198E+06 -5.392371E+05 -4.179333E+04 -1.383804E+06  3.891719E+04 -1.386534E+04
        97   5 -3.538430E+06 -5.019380E+05 -7.265612E+04 -1.347859E+06  7.841671E+04 -4.257963E+03
        97   6 -3.528845E+06 -5.989893E+05 -1.518690E+05 -1.361413E+06  1.168602E+05  8.183570E+03
        97   7 -4.324708E+06 -8.344462E+05 -2.542417E+05 -1.594530E+06  3.608140E+04 -1.493077E+04
        97   8 -4.436746E+06 -8.447663E+05 -3.119705E+05 -1.596844E+06  7.685664E+04 -4.848232E+03
        97   9 -4.521260E+06 -9.897677E+05 -4.191247E+05 -1.648650E+06  1.165685E+05  8.066108E+03
        97  10 -2.715064E+06 -2.439993E+05  1.705952E+05 -1.172833E+06  1.356347E-09  5.276415E-10
        97  11 -2.639337E+06 -1.590578E+05  1.665751E+05 -1.098545E+06 -3.099133E-10  1.387656E-09
        97  12 -2.535485E+06 -2.081312E+05  1.152727E+05 -1.073751E+06  2.482686E-09  9.502781E-10
        97  13 -3.520200E+06 -5.392378E+05 -4.179655E+04 -1.383803E+06  1.037229E-09  6.615406E-10
        97  14 -3.538436E+06 -5.019397E+05 -7.266777E+04 -1.347859E+06  2.813411E-09  8.312808E-10
        97  15 -3.528859E+06 -5.989931E+05 -1.518949E+05 -1.361414E+06  2.900727E-09  5.023428E-10
        97  16 -4.324710E+06 -8.344468E+05 -2.542446E+05 -1.594530E+06 -4.442908E-10  2.828248E-10
        97  17 -4.436752E+06 -8.447679E+05 -3.119817E+05 -1.596843E+06  1.727132E-09  5.794130E-10
        97  18 -4.521275E+06 -9.897715E+05 -4.191505E+05 -1.648650E+06  1.322137E-09  6.900969E-10
        97  19 -2.715062E+06 -2.439986E+05  1.705988E+05 -1.172834E+06 -4.175701E+04  1.279848E+04
        97  20 -2.639330E+06 -1.590561E+05  1.665872E+05 -1.098545E+06 -7.997920E+04  3.666761E+03
        97  21 -2.535470E+06 -2.081274E+05  1.152988E+05 -1.073750E+06 -1.171522E+05 -8.301187E+03
        97  22 -3.520198E+06 -5.392371E+05 -4.179333E+04 -1.383804E+06 -3.891719E+04  1.386534E+04
        97  23 -3.538430E+06 -5.019380E+05 -7.265612E+04 -1.347859E+06 -7.841671E+04  4.257963E+03
        97  24 -3.528845E+06 -5.989893E+05 -1.518690E+05 -1.361413E+06 -1.168602E+05 -8.183570E+03
        97  25 -4.324708E+06 -8.344462E+05 -2.542417E+05 -1.594530E+06 -3.608140E+04  1.493077E+04
        97  26 -4.436746E+06 -8.447663E+05 -3.119705E+05 -1.596844E+06 -7.685664E+04  4.848232E+03
        97  27 -4.521260E+06 -9.897677E+05 -4.191247E+05 -1.648650E+06 -1.165685E+05 -8.066108E+03
        98   1 -2.363901E+06 -1.371196E+05  1.162449E+05 -1.146530E+06  1.547709E+05  1.477801E+04
        98   2 -2.291301E+06  6.602530E+04  1.605857E+04 -9.893416E+05  3.099280E+05  6.983984E+04
        98   3 -2.442356E+06 -4.464648E+05 -3.820084E+05 -7.101098E+05  4.533081E+05  1.561091E+05
        98   4 -3.555319E+06 -5.188811E+05 -1.865479E+05 -1.402590E+06  1.458179E+05  1.141709E+04
        98   5 -3.480995E+06 -4.290827E+05 -3.079867E+05 -1.361741E+06  3.153226E+05  7.184477E+04
        98   6 -3.633734E+06 -1.058649E+06 -7.391863E+05 -1.198715E+06  4.730347E+05  1.634369E+05
        98   7 -4.745353E+06 -9.006422E+05 -4.894497E+05 -1.658246E+06  1.368837E+05  8.060803E+03
        98   8 -4.669303E+06 -9.240168E+05 -6.321603E+05 -1.733461E+06  3.207052E+05  7.384414E+04
        98   9 -4.823668E+06 -1.670355E+06 -1.096503E+06 -1.686350E+06  4.927188E+05  1.707357E+05
        98  10 -2.363927E+06 -1.371263E+05  1.161993E+05 -1.146532E+06  9.155139E-10  8.402794E-10
        98  11 -2.291405E+06  6.599411E+04  1.586807E+04 -9.893590E+05 -7.410167E-10  9.621376E-10
        98  12 -2.442584E+06 -4.465465E+05 -3.824423E+05 -7.101669E+05  1.677327E-10 -3.175805E-10
        98  13 -3.555342E+06 -5.188869E+05 -1.865883E+05 -1.402591E+06  6.286127E-10  5.037928E-10
        98  14 -3.481103E+06 -4.291152E+05 -3.081845E+05 -1.361759E+06 -7.490439E-10 -7.466315E-11
        98  15 -3.633982E+06 -1.058738E+06 -7.396601E+05 -1.198777E+06  8.380320E-10  1.563206E-09
        98  16 -4.745373E+06 -9.006473E+05 -4.894853E+05 -1.658247E+06  3.312117E-10  6.465287E-10
        98  17 -4.669416E+06 -9.240507E+05 -6.323656E+05 -1.733480E+06 -5.513545E-10  7.692064E-10
        98  18 -4.823939E+06 -1.670453E+06 -1.097018E+06 -1.686418E+06 -5.288912E-10 -6.172936E-11
        98  19 -2.363901E+06 -1.371196E+05  1.162449E+05 -1.146530E+06 -1.547709E+05 -1.477801E+04
        98  20 -2.291301E+06  6.602530E+04  1.605857E+04 -9.893416E+05 -3.099280E+05 -6.983984E+04
        98  21 -2.442356E+06 -4.464648E+05 -3.820084E+05 -7.101098E+05 -4.533081E+05 -1.561091E+05
        98  22 -3.555319E+06 -5.188811E+05 -1.865479E+05 -1.402590E+06 -1.458179E+05 -1.141709E+04
        98  23 -3.480995E+06 -4.290827E+05 -3.079867E+05 -1.361741E+06 -3.153226E+05 -7.184477E+04
        98  24 -3.633734E+06 -1.058649E+06 -7.391863E+05 -1.198715E+06 -4.730347E+05 -1.634369E+05
        98  25 -4.745353E+06 -9.006422E+05 -4.894497E+05 -1.658246E+06 -1.368837E+05 -8.060803E+03
        98  26 -4.669303E+06 -9.240168E+05 -6.321603E+05 -1.733461E+06 -3.207052E+05 -7.384414E+04
        98  27 -4.823668E+06 -1.670355E+06 -1.096503E+06 -1.686350E+06 -4.927188E+05 -1.707357E+05
        99   1 -1.804257E+06 -2.848319E+05 -2.606034E+05 -3.100272E+04  4.319896E+04  1.458837E+04
        99   2 -1.721932E+06 -3.462916E+05 -2.813692E+05 -1.170380E+04  3.642620E+04  4.359571E+04
        99   3 -1.613198E+06 -3.158133E+05 -2.742626E+05 -6.288804E+04  2.975450E+04  4.076877E+04
        99   4 -3.581912E+05  7.599544E+04  9.658655E+04 -5.135619E+04  6.590769E+04  1.466186E+04
        99   5 -3.727454E+05 -1.146962E+04  4.205644E+04 -1.599460E+04  4.308396E+04  4.360648E+04
        99   6 -3.581605E+05 -4.313079E+03  2.650578E+04 -5.110521E+04  2.036315E+04  4.074708E+04
        99   7  1.089782E+06  4.366686E+05  4.536236E+05 -7.175879E+04  8.866924E+04  1.473377E+04
        99   8  9.781124E+05  3.232201E+05  3.653533E+05 -2.029586E+04  4.975607E+04  4.361714E+04
        99   9  8.983229E+05  3.070732E+05  3.271630E+05 -3.929900E+04  1.095283E+04  4.072505E+04
        99  10 -1.804259E+06 -2.848326E+05 -2.606073E+05 -3.100323E+04  2.218708E-09 -2.627772E-10
        99  11 -1.721934E+06 -3.462939E+05 -2.813753E+05 -1.170508E+04 -2.122645E-09 -2.704501E-09
        99  12 -1.613199E+06 -3.158153E+05 -2.742674E+05 -6.288902E+04 -3.032778E-09  3.408633E-10
        99  13 -3.581960E+05  7.599405E+04  9.657798E+04 -5.135697E+04  1.122901E-09 -1.693084E-09
        99  14 -3.727479E+05 -1.147216E+04  4.204938E+04 -1.599612E+04 -8.919191E-10 -1.731944E-09
        99  15 -3.581614E+05 -4.314973E+03  2.650188E+04 -5.110588E+04 -4.981246E-10 -2.800658E-10
        99  16  1.089774E+06  4.366662E+05  4.536085E+05 -7.175984E+04 -4.224780E-10  8.377263E-10
        99  17  9.781093E+05  3.232174E+05  3.653451E+05 -2.029761E+04 -2.709858E-10 -1.953137E-09
        99  18  8.983224E+05  3.070714E+05  3.271597E+05 -3.929936E+04  1.911346E-09 -3.182760E-10
        99  19 -1.804257E+06 -2.848319E+05 -2.606034E+05 -3.100272E+04 -4.319896E+04 -1.458837E+04
        99  20 -1.721932E+06 -3.462916E+05 -2.813692E+05 -1.170380E+04 -3.642620E+04 -4.359571E+04
        99  21 -1.613198E+06 -3.158133E+05 -2.742626E+05 -6.288804E+04 -2.975450E+04 -4.076877E+04
        99  22 -3.581912E+05  7.599544E+04  9.658655E+04 -5.135619E+04 -6.590769E+04 -1.466186E+04
        99  23 -3.727454E+05 -1.146962E+04  4.205644E+04 -1.599460E+04 -4.308396E+04 -4.360648E+04
        99  24 -3.581605E+05 -4.313079E+03  2.650578E+04 -5.110521E+04 -2.036315E+04 -4.074708E+04
        99  25  1.089782E+06  4.366686E+05  4.536236E+05 -7.175879E+04 -8.866924E+04 -1.473377E+04
        99  26  9.781124E+05  3.232201E+05  3.653533E+05 -2.029586E+04 -4.975607E+04 -4.361714E+04
        99  27  8.983229E+05  3.070732E+05  3.271630E+05 -3.929900E+04 -1.095283E+04 -4.072505E+04
       100   1 -1.488966E+06 -2.718038E+05 -2.489353E+05 -5.055355E+04  1.637357E+04  3.396617E+04
       100   2 -1.394160E+06 -2.566673E+05 -2.358173E+05 -1.545504E+04  1.199985E+04  3.246655E+04
       100   3 -1.294981E+06 -2.317323E+05 -2.171144E+05 -5.280672E+04  7.620394E+03  2.856969E+04
       100   4 -3.635313E+05  7.626309E+03  2.158732E+04 -5.162194E+04  1.624499E+04  3.396187E+04
       100   5 -3.657985E+05 -1.442622E+03  1.088628E+04 -1.539585E+04  1.065628E+04  3.246194E+04
       100   6 -3.634968E+05 -5.102345E+02  6.607345E+03 -5.161232E+04  5.062495E+03  2.856654E+04
       100   7  7.630654E+05  2.869641E+05  2.920198E+05 -5.269264E+04  1.611616E+04  3.395758E+04
       100   8  6.635333E+05  2.537051E+05  2.575148E+05 -1.533674E+04  9.310478E+03  3.245733E+04
       100   9  5.687832E+05  2.306487E+05  2.302674E+05 -5.041610E+04  2.500763E+03  2.856340E+04
       100  10 -1.488967E+06 -2.718051E+05 -2.489380E+05 -5.055400E+04 -5.904056E-10  6.589301E-10
       100  11 -1.394161E+06 -2.566685E+05 -2.358195E+05 -1.545535E+04 -1.779238E-09 -5.231626E-10
       100  12 -1.294981E+06 -2.317332E+05 -2.171160E+05 -5.280690E+04 -4.043880E-09 -1.136181E-10
       100  13 -3.635319E+05  7.624999E+03  2.158466E+04 -5.162239E+04 -2.096364E-09 -6.218650E-11
       100  14 -3.657989E+05 -1.443784E+03  1.088408E+04 -1.539613E+04 -8.445046E-11  4.944783E-10
       100  15 -3.634971E+05 -5.111176E+02  6.605763E+03 -5.161243E+04 -7.871489E-10  4.684336E-10
       100  16  7.630649E+05  2.869628E+05  2.920172E+05 -5.269308E+04 -1.811343E-09  3.516053E-10
       100  17  6.635329E+05  2.537040E+05  2.575127E+05 -1.533698E+04 -2.084589E-09 -5.835900E-10
       100  18  5.687829E+05  2.306478E+05  2.302659E+05 -5.041616E+04  1.275762E-09  6.233963E-10
       100  19 -1.488966E+06 -2.718038E+05 -2.489353E+05 -5.055355E+04 -1.637357E+04 -3.396617E+04
       100  20 -1.394160E+06 -2.566673E+05 -2.358173E+05 -1.545504E+04 -1.199985E+04 -3.246655E+04
       100  21 -1.294981E+06 -2.317323E+05 -2.171144E+05 -5.280672E+04 -7.620394E+03 -2.856969E+04
       100  22 -3.635313E+05  7.626309E+03  2.158732E+04 -5.162194E+04 -1.624499E+04 -3.396187E+04
       100  23 -3.657985E+05 -1.442622E+03  1.088628E+04 -1.539585E+04 -1.065628E+04 -3.246194E+04
       100  24 -3.634968E+05 -5.102345E+02  6.607345E+03 -5.161232E+04 -5.062495E+03 -2.856654E+04
       100  25  7.630654E+05  2.869641E+05  2.920198E+05 -5.269264E+04 -1.611616E+04 -3.395758E+04
       100  26  6.635333E+05  2.537051E+05  2.575148E+05 -1.533674E+04 -9.310478E+03 -3.245733E+04
       100  27  5.687832E+05  2.306487E+05  2.302674E+05 -5.041610E+04 -2.500763E+03 -2.856340E+04
       101   1 -1.164029E+06 -1.977514E+05 -1.864695E+05 -5.160530E+04  5.886867E+03  2.590965E+04
       101   2 -1.066145E+06 -1.742771E+05 -1.654383E+05 -1.480692E+04  4.567793E+03  2.208718E+04
       101   3 -9.673376E+05 -1.496708E+05 -1.431677E+05 -5.149981E+04  3.242503E+03  1.806999E+04
       101   4 -3.642413E+05  6.728596E+02  5.152721E+03 -5.184664E+04  4.015344E+03  2.590777E+04
       101   5 -3.646941E+05 -2.183065E+02  2.821457E+03 -1.510363E+04  2.596486E+03  2.208665E+04
       101   6 -3.642158E+05  3.994300E+01  1.798459E+03 -5.184677E+04  1.171620E+03  1.807095E+04
       101   7  4.361329E+05  1.990506E+05  1.967296E+05 -5.208825E+04  2.141413E+03  2.590589E+04
       101   8  3.372077E+05  1.738047E+05  1.710463E+05 -1.540062E+04  6.229563E+02  2.208613E+04
       101   9  2.392394E+05  1.497242E+05  1.467387E+05 -5.219396E+04 -9.012695E+02  1.807191E+04
       101  10 -1.164029E+06 -1.977521E+05 -1.864708E+05 -5.160542E+04  1.153093E-10  3.989108E-11
       101  11 -1.066145E+06 -1.742776E+05 -1.654393E+05 -1.480700E+04 -7.559372E-10 -8.005085E-10
       101  12 -9.673377E+05 -1.496712E+05 -1.431683E+05 -5.149986E+04 -2.192798E-09 -5.061569E-10
       101  13 -3.642415E+05  6.721346E+02  5.151430E+03 -5.184673E+04 -2.128382E-09  4.535308E-10
       101  14 -3.646942E+05 -2.188320E+02  2.820528E+03 -1.510368E+04 -3.165044E-09 -2.857929E-10
       101  15 -3.642159E+05  3.959202E+01  1.797843E+03 -5.184678E+04 -2.588128E-09  4.332195E-10
       101  16  4.361327E+05  1.990499E+05  1.967284E+05 -5.208829E+04 -7.083775E-10  7.868309E-10
       101  17  3.372076E+05  1.738042E+05  1.710454E+05 -1.540063E+04 -1.110401E-09 -5.045005E-10
       101  18  2.392393E+05  1.497238E+05  1.467381E+05 -5.219395E+04 -7.133560E-10 -7.793673E-10
       101  19 -1.164029E+06 -1.977514E+05 -1.864695E+05 -5.160530E+04 -5.886867E+03 -2.590965E+04
       101  20 -1.066145E+06 -1.742771E+05 -1.654383E+05 -1.480692E+04 -4.567793E+03 -2.208718E+04
       101  21 -9.673376E+05 -1.496708E+05 -1.431677E+05 -5.149981E+04 -3.242503E+03 -1.806999E+04
       101  22 -3.642413E+05  6.728596E+02  5.152721E+03 -5.184664E+04 -4.015344E+03 -2.590777E+04
       101  23 -3.646941E+05 -2.183065E+02  2.821457E+03 -1.510363E+04 -2.596486E+03 -2.208665E+04
       101  24 -3.642158E+05  3.994300E+01  1.798459E+03 -5.184677E+04 -1.171620E+03 -1.807095E+04
       101  25  4.361329E+05  1.990506E+05  1.967296E+05 -5.208825E+04 -2.141413E+03 -2.590589E+04
       101  26  3.372077E+05  1.738047E+05  1.710463E+05 -1.540062E+04 -6.229563E+02 -2.208613E+04
       101  27  2.392394E+05  1.497242E+05  1.467387E+05 -5.219396E+04  9.012695E+02 -1.807191E+04
       102   1 -8.343024E+05 -1.164105E+05 -1.109707E+05 -5.157201E+04  2.897492E+03  1.569590E+04
       102   2 -7.351251E+05 -9.197900E+04 -8.787306E+04 -1.455414E+04  2.388243E+03  1.166704E+04
       102   3 -6.358927E+05 -6.724136E+04 -6.438910E+04 -5.164775E+04  1.875699E+03  7.616109E+03
       102   4 -3.643717E+05  1.234827E+02  1.441666E+03 -5.198501E+04  8.745977E+02  1.569756E+04
       102   5 -3.643893E+05 -1.954347E+00  1.039951E+03 -1.493058E+04  3.537802E+02  1.166943E+04
       102   6 -3.643575E+05  1.817460E+02  1.033377E+03 -5.198487E+04 -1.702515E+02  7.619280E+03
       102   7  1.057617E+05  1.166415E+05  1.138384E+05 -5.239826E+04 -1.149823E+03  1.569922E+04
       102   8  6.472469E+03  9.196511E+04  8.994324E+04 -1.530720E+04 -1.681894E+03  1.167183E+04
       102   9 -9.275485E+04  6.759947E+04  6.645060E+04 -5.232212E+04 -2.217094E+03  7.622452E+03
       102  10 -8.343025E+05 -1.164108E+05 -1.109712E+05 -5.157204E+04 -1.412013E-09  7.357240E-10
       102  11 -7.351251E+05 -9.197915E+04 -8.787333E+04 -1.455416E+04  1.175925E-09  6.992754E-10
       102  12 -6.358927E+05 -6.724142E+04 -6.438921E+04 -5.164776E+04 -1.074456E-09 -6.219914E-10
       102  13 -3.643717E+05  1.232180E+02  1.441202E+03 -5.198502E+04 -2.220128E-09 -7.236954E-10
       102  14 -3.643894E+05 -2.100584E+00  1.039694E+03 -1.493058E+04 -1.634008E-09  1.087656E-09
       102  15 -3.643575E+05  1.816837E+02  1.033268E+03 -5.198487E+04 -1.948895E-09 -8.483362E-10
       102  16  1.057617E+05  1.166412E+05  1.138380E+05 -5.239825E+04  6.959121E-10 -1.754782E-10
       102  17  6.472430E+03  9.196496E+04  8.994297E+04 -1.530718E+04 -1.097343E-09 -7.719542E-11
       102  18 -9.275487E+04  6.759941E+04  6.645048E+04 -5.232211E+04  9.976301E-10 -1.064723E-09
       102  19 -8.343024E+05 -1.164105E+05 -1.109707E+05 -5.157201E+04 -2.897492E+03 -1.569590E+04
       102  20 -7.351251E+05 -9.197900E+04 -8.787306E+04 -1.455414E+04 -2.388243E+03 -1.166704E+04
       102  21 -6.358927E+05 -6.724136E+04 -6.438910E+04 -5.164775E+04 -1.875699E+03 -7.616109E+03
       102  22 -3.643717E+05  1.234827E+02  1.441666E+03 -5.198501E+04 -8.745977E+02 -1.569756E+04
       102  23 -3.643893E+05 -1.954347E+00  1.039951E+03 -1.493058E+04 -3.537802E+02 -1.166943E+04
       102  24 -3.643575E+05  1.817460E+02  1.033377E+03 -5.198487E+04  1.702515E+02 -7.619280E+03
       102  25  1.057617E+05  1.166415E+05  1.138384E+05 -5.239826E+04  1.149823E+03 -1.569922E+04
       102  26  6.472469E+03  9.196511E+04  8.994324E+04 -1.530720E+04  1.681894E+03 -1.167183E+04
       102  27 -9.275485E+04  6.759947E+04  6.645060E+04 -5.232212E+04  2.217094E+03 -7.622452E+03
       103   1 -5.018986E+05 -3.389828E+04 -3.155452E+04 -5.183846E+04  1.676205E+03  5.250760E+03
       103   2 -4.023124E+05 -9.398873E+03 -7.521999E+03 -1.480150E+04  8.784897E+02  1.193694E+03
       103   3 -3.028092E+05  1.554506E+04  1.707376E+04 -5.211609E+04  8.032093E+01 -2.855441E+03
       103   4 -3.643741E+05  1.553470E+02  1.119620E+03 -5.203887E+04 -3.700963E+02  5.254219E+03
       103   5 -3.643261E+05  2.347825E+01  1.586477E+03 -1.486308E+04 -1.164024E+03  1.197205E+03
       103   6 -3.643724E+05  3.357982E+02  2.614165E+03 -5.203854E+04 -1.958279E+03 -2.851843E+03
       103   7 -2.268322E+05  3.420762E+04  3.379246E+04 -5.223932E+04 -2.416849E+03  5.257680E+03
       103   8 -3.263385E+05  9.445727E+03  1.069487E+04 -1.492466E+04 -3.206662E+03  1.200717E+03
       103   9 -4.259321E+05 -1.487373E+04 -1.184567E+04 -5.196098E+04 -3.996677E+03 -2.848246E+03
       103  10 -5.018986E+05 -3.389831E+04 -3.155458E+04 -5.183847E+04 -2.575632E-09  4.609305E-10
       103  11 -4.023124E+05 -9.398874E+03 -7.522003E+03 -1.480150E+04 -6.255621E-10  2.817236E-09
       103  12 -3.028092E+05  1.554505E+04  1.707374E+04 -5.211609E+04  1.050949E-09 -1.479956E-09
       103  13 -3.643741E+05  1.553174E+02  1.119568E+03 -5.203887E+04 -1.081499E-09 -1.591064E-10
       103  14 -3.643261E+05  2.347634E+01  1.586472E+03 -1.486308E+04 -2.098395E-10 -9.377247E-10
       103  15 -3.643724E+05  3.357885E+02  2.614142E+03 -5.203854E+04  1.367320E-09  1.848458E-10
       103  16 -2.268322E+05  3.420759E+04  3.379239E+04 -5.223931E+04  1.792227E-09 -1.833623E-10
       103  17 -3.263385E+05  9.445722E+03  1.069485E+04 -1.492465E+04 -1.925945E-09 -7.583866E-10
       103  18 -4.259321E+05 -1.487374E+04 -1.184572E+04 -5.196099E+04 -1.243311E-09  8.735425E-11
       103  19 -5.018986E+05 -3.389828E+04 -3.155452E+04 -5.183846E+04 -1.676205E+03 -5.250760E+03
       103  20 -4.023124E+05 -9.398873E+03 -7.521999E+03 -1.480150E+04 -8.784897E+02 -1.193694E+03
       103  21 -3.028092E+05  1.554506E+04  1.707376E+04 -5.211609E+04 -8.032093E+01  2.855441E+03
       103  22 -3.643741E+05  1.553470E+02  1.119620E+03 -5.203887E+04  3.700963E+02 -5.254219E+03
       103  23 -3.643261E+05  2.347825E+01  1.586477E+03 -1.486308E+04  1.164024E+03 -1.197205E+03
       103  24 -3.643724E+05  3.357982E+02  2.614165E+03 -5.203854E+04  1.958279E+03  2.851843E+03
       103  25 -2.268322E+05  3.420762E+04  3.379246E+04 -5.223932E+04  2.416849E+03 -5.257680E+03
       103  26 -3.263385E+05  9.445727E+03  1.069487E+04 -1.492466E+04  3.206662E+03 -1.200717E+03
       103  27 -4.259321E+05 -1.487373E+04 -1.184567E+04 -5.196098E+04  3.996677E+03  2.848246E+03
       104   1 -1.684937E+05  4.868825E+04  5.057617E+04 -5.199493E+04 -4.236454E+02 -5.236678E+03
       104   2 -6.952333E+04  7.293580E+04  7.639215E+04 -1.527077E+04 -3.339915E+03 -9.283321E+03
       104   3  3.024563E+04  9.952279E+04  1.046513E+05 -5.274195E+04 -6.253937E+03 -1.319164E+04
       104   4 -3.641883E+05  9.487771E+01  3.357222E+03 -5.200535E+04 -2.499500E+03 -5.233197E+03
       104   5 -3.645825E+05 -2.369492E+02  5.658421E+03 -1.490544E+04 -5.344969E+03 -9.280562E+03
       104   6 -3.641987E+05  1.759768E+03  1.035521E+04 -5.200300E+04 -8.187730E+03 -1.318954E+04
       104   7 -5.598479E+05 -4.850129E+04 -4.386445E+04 -5.201576E+04 -4.574703E+03 -5.229715E+03
       104   8 -6.595619E+05 -7.341602E+04 -6.508146E+04 -1.454025E+04 -7.349073E+03 -9.277804E+03
       104   9 -7.585005E+05 -9.601452E+04 -8.395182E+04 -5.126446E+04 -1.012030E+04 -1.318745E+04
       104  10 -1.684937E+05  4.868822E+04  5.057612E+04 -5.199493E+04 -1.221530E-09 -1.707584E-09
       104  11 -6.952336E+04  7.293571E+04  7.639197E+04 -1.527080E+04  1.305700E-11  4.494635E-10
       104  12  3.024554E+04  9.952259E+04  1.046509E+05 -5.274202E+04 -6.122723E-10  3.435395E-11
       104  13 -3.641883E+05  9.484662E+01  3.357159E+03 -5.200536E+04  1.163408E-09  1.836776E-10
       104  14 -3.645826E+05 -2.370494E+02  5.658206E+03 -1.490548E+04  3.745117E-10 -6.873177E-10
       104  15 -3.641989E+05  1.759563E+03  1.035476E+04 -5.200309E+04  1.086237E-09 -1.021672E-09
       104  16 -5.598479E+05 -4.850133E+04 -4.386454E+04 -5.201578E+04  9.998643E-10  2.931918E-10
       104  17 -6.595620E+05 -7.341613E+04 -6.508172E+04 -1.454031E+04 -1.594662E-09  1.392356E-09
       104  18 -7.585006E+05 -9.601473E+04 -8.395234E+04 -5.126457E+04  3.149741E-09 -3.499702E-10
       104  19 -1.684937E+05  4.868825E+04  5.057617E+04 -5.199493E+04  4.236454E+02  5.236678E+03
       104  20 -6.952333E+04  7.293580E+04  7.639215E+04 -1.527077E+04  3.339915E+03  9.283321E+03
       104  21  3.024563E+04  9.952279E+04  1.046513E+05 -5.274195E+04  6.253937E+03  1.319164E+04
       104  22 -3.641883E+05  9.487771E+01  3.357222E+03 -5.200535E+04  2.499500E+03  5.233197E+03
       104  23 -3.645825E+05 -2.369492E+02  5.658421E+03 -1.490544E+04  5.344969E+03  9.280562E+03
       104  24 -3.641987E+05  1.759768E+03  1.035521E+04 -5.200300E+04  8.187730E+03  1.318954E+04
       104  25 -5.598479E+05 -4.850129E+04 -4.386445E+04 -5.201576E+04  4.574703E+03  5.229715E+03
       104  26 -6.595619E+05 -7.341602E+04 -6.508146E+04 -1.454025E+04  7.349073E+03  9.277804E+03
       104  27 -7.585005E+05 -9.601452E+04 -8.395182E+04 -5.126446E+04  1.012030E+04  1.318745E+04
       105   1  1.651364E+05  1.302484E+05  1.400794E+05 -5.007260E+04 -7.837924E+03 -1.579091E+04
       105   2  2.603007E+05  1.528986E+05  1.723646E+05 -1.658012E+04 -2.012251E+04 -1.975231E+04
       105   3  3.625090E+05  1.960990E+05  2.178415E+05 -5.670699E+04 -3.240304E+04 -2.194712E+04
       105   4 -3.628760E+05 -7.228181E+02  1.325162E+04 -5.188064E+04 -1.028098E+04 -1.578880E+04
       105   5 -3.663292E+05 -2.468898E+03  2.219027E+04 -1.506402E+04 -2.166460E+04 -1.975242E+04
       105   6 -3.628943E+05  1.619162E+04  4.370588E+04 -5.187089E+04 -3.304223E+04 -2.194876E+04
       105   7 -8.906331E+05 -1.317144E+05 -1.135959E+05 -5.368706E+04 -1.272197E+04 -1.578668E+04
       105   8 -9.925994E+05 -1.578649E+05 -1.280118E+05 -1.354938E+04 -2.320513E+04 -1.975254E+04
       105   9 -1.087816E+06 -1.637539E+05 -1.304671E+05 -4.704039E+04 -3.368067E+04 -2.195041E+04
       105  10  1.651362E+05  1.302482E+05  1.400788E+05 -5.007270E+04 -4.061308E-09  6.292905E-10
       105  11  2.603002E+05  1.528981E+05  1.723631E+05 -1.658044E+04 -3.820992E-09 -4.778087E-10
       105  12  3.625077E+05  1.960982E+05  2.178387E+05 -5.670757E+04  8.822728E-10 -1.120238E-09
       105  13 -3.628762E+05 -7.231142E+02  1.325095E+04 -5.188078E+04  1.051898E-09  3.491954E-10
       105  14 -3.663298E+05 -2.469443E+03  2.218866E+04 -1.506436E+04  3.315500E-09  1.139421E-09
       105  15 -3.628956E+05  1.619081E+04  4.370292E+04 -5.187148E+04  6.457220E-10 -8.991830E-10
       105  16 -8.906334E+05 -1.317147E+05 -1.135967E+05 -5.368722E+04  2.121057E-09 -3.616416E-11
       105  17 -9.926001E+05 -1.578655E+05 -1.280136E+05 -1.354975E+04 -2.874194E-09  2.351495E-10
       105  18 -1.087817E+06 -1.637547E+05 -1.304702E+05 -4.704099E+04 -1.504026E-09 -6.834220E-10
       105  19  1.651364E+05  1.302484E+05  1.400794E+05 -5.007260E+04  7.837924E+03  1.579091E+04
       105  20  2.603007E+05  1.528986E+05  1.723646E+05 -1.658012E+04  2.012251E+04  1.975231E+04
       105  21  3.625090E+05  1.960990E+05  2.178415E+05 -5.670699E+04  3.240304E+04  2.194712E+04
       105  22 -3.628760E+05 -7.228181E+02  1.325162E+04 -5.188064E+04  1.028098E+04  1.578880E+04
       105  23 -3.663292E+05 -2.468898E+03  2.219027E+04 -1.506402E+04  2.166460E+04  1.975242E+04
       105  24 -3.628943E+05  1.619162E+04  4.370588E+04 -5.187089E+04  3.304223E+04  2.194876E+04
       105  25 -8.906331E+05 -1.317144E+05 -1.135959E+05 -5.368706E+04  1.272197E+04  1.578668E+04
       105  26 -9.925994E+05 -1.578649E+05 -1.280118E+05 -1.354938E+04  2.320513E+04  1.975254E+04
       105  27 -1.087816E+06 -1.637539E+05 -1.304671E+05 -4.704039E+04  3.368067E+04  2.195041E+04
       106   1  5.055139E+05  2.045695E+05  2.589589E+05 -3.114170E+04 -3.387212E+04 -2.760484E+04
       106   2  5.747887E+05  2.141564E+05  3.140479E+05 -2.927773E+04 -9.196749E+04 -3.080234E+04
       106   3  7.010633E+05  4.171445E+05  4.555098E+05 -9.967871E+04 -1.500919E+05 -1.049748E+04
       106   4 -3.522659E+05 -8.029397E+03  5.360761E+04 -5.154377E+04 -4.137322E+04 -2.760488E+04
       106   5 -3.797689E+05 -2.241480E+04  8.555132E+04 -1.547495E+04 -8.755253E+04 -3.080569E+04
       106   6 -3.522648E+05  1.546886E+05  1.956818E+05 -5.167042E+04 -1.337504E+05 -1.049458E+04
       106   7 -1.209371E+06 -2.206800E+05 -1.517953E+05 -7.191748E+04 -4.886397E+04 -2.760444E+04
       106   8 -1.333491E+06 -2.590513E+05 -1.430095E+05 -1.693545E+03 -8.314423E+04 -3.080886E+04
       106   9 -1.404579E+06 -1.078412E+05 -6.422609E+04 -3.743837E+03 -1.174365E+05 -1.048916E+04
       106  10  5.055125E+05  2.045683E+05  2.589553E+05 -3.114246E+04  2.419681E-10 -6.553996E-10
       106  11  5.747794E+05  2.141531E+05  3.140302E+05 -2.928001E+04  9.332759E-10  1.331136E-09
       106  12  7.010391E+05  4.171384E+05  4.554674E+05 -9.967997E+04  5.717483E-10  3.900492E-10
       106  13 -3.522679E+05 -8.030676E+03  5.360296E+04 -5.154469E+04 -1.503814E-10 -7.205509E-10
       106  14 -3.797774E+05 -2.241788E+04  8.553512E+04 -1.547712E+04  1.418394E-09  1.688451E-09
       106  15 -3.522840E+05  1.546836E+05  1.956480E+05 -5.167156E+04  8.007501E-10  4.560559E-10
       106  16 -1.209373E+06 -2.206815E+05 -1.518012E+05 -7.191857E+04  5.832498E-10 -7.344337E-10
       106  17 -1.333499E+06 -2.590542E+05 -1.430243E+05 -1.695609E+03 -6.242093E-10  9.680360E-10
       106  18 -1.404594E+06 -1.078451E+05 -6.425227E+04 -3.744830E+03 -8.818868E-10  1.122591E-10
       106  19  5.055139E+05  2.045695E+05  2.589589E+05 -3.114170E+04  3.387212E+04  2.760484E+04
       106  20  5.747887E+05  2.141564E+05  3.140479E+05 -2.927773E+04  9.196749E+04  3.080234E+04
       106  21  7.010633E+05  4.171445E+05  4.555098E+05 -9.967871E+04  1.500919E+05  1.049748E+04
       106  22 -3.522659E+05 -8.029397E+03  5.360761E+04 -5.154377E+04  4.137322E+04  2.760488E+04
       106  23 -3.797689E+05 -2.241480E+04  8.555132E+04 -1.547495E+04  8.755253E+04  3.080569E+04
       106  24 -3.522648E+05  1.546886E+05  1.956818E+05 -5.167042E+04  1.337504E+05  1.049458E+04
       106  25 -1.209371E+06 -2.206800E+05 -1.517953E+05 -7.191748E+04  4.886397E+04  2.760444E+04
       106  26 -1.333491E+06 -2.590513E+05 -1.430095E+05 -1.693545E+03  8.314423E+04  3.080886E+04
       106  27 -1.404579E+06 -1.078412E+05 -6.422609E+04 -3.743837E+03  1.174365E+05  1.048916E+04
       107   1  2.938661E+05  5.667784E+05  3.054758E+05 -2.463358E+05  3.637137E+03  1.669630E+05
       107   2  1.251607E+05  4.399943E+05  1.646457E+05 -1.720059E+05  1.242961E+04  9.473743E+04
       107   3  5.876015E+04  3.479979E+05  9.637456E+04 -1.189411E+05  1.130818E+04  2.248834E+04
       107   4  1.897336E+05  1.506811E+05  2.066055E+05 -1.227433E+05  3.771281E+03  1.414234E+05
       107   5  5.149543E+04  1.349314E+05  1.041158E+05 -1.124672E+05  1.246594E+04  8.801250E+04
       107   6  1.231577E+04  1.507129E+05  6.115054E+04 -1.234434E+05  1.125933E+04  3.456415E+04
       107   7  8.564573E+04 -2.652237E+05  1.077336E+05  7.661278E+02  3.895317E+03  1.159008E+05
       107   8 -2.216234E+04 -1.700351E+05  4.358330E+04 -5.295820E+04  1.250099E+04  8.129080E+04
       107   9 -3.413060E+04 -4.653382E+04  2.592560E+04 -1.279442E+05  1.121029E+04  4.663623E+04
       107  10  2.938586E+05  5.667485E+05  3.054234E+05 -2.463363E+05  4.548933E-11 -7.753571E-09
       107  11  1.251581E+05  4.399846E+05  1.646286E+05 -1.720069E+05  3.664175E-10  1.703807E-08
       107  12  5.875988E+04  3.479973E+05  9.637337E+04 -1.189413E+05 -2.432339E-09  4.409712E-08
       107  13  1.897282E+05  1.506596E+05  2.065679E+05 -1.227437E+05 -1.334326E-09  9.739905E-10
       107  14  5.149318E+04  1.349230E+05  1.041010E+05 -1.124681E+05  1.234506E-09  1.189272E-09
       107  15  1.231531E+04  1.507115E+05  6.114806E+04 -1.234437E+05 -3.152299E-09 -1.755290E-09
       107  16  8.564210E+04 -2.652382E+05  1.077083E+05  7.657642E+02 -5.719972E-10  7.691416E-09
       107  17 -2.216428E+04 -1.700422E+05  4.357059E+04 -5.295902E+04  1.319245E-09 -2.220547E-08
       107  18 -3.413132E+04 -4.653619E+04  2.592128E+04 -1.279446E+05 -2.979326E-09 -4.293586E-08
       107  19  2.938661E+05  5.667784E+05  3.054758E+05 -2.463358E+05 -3.637137E+03 -1.669630E+05
       107  20  1.251607E+05  4.399943E+05  1.646457E+05 -1.720059E+05 -1.242961E+04 -9.473743E+04
       107  21  5.876015E+04  3.479979E+05  9.637456E+04 -1.189411E+05 -1.130818E+04 -2.248834E+04
       107  22  1.897336E+05  1.506811E+05  2.066055E+05 -1.227433E+05 -3.771281E+03 -1.414234E+05
       107  23  5.149543E+04  1.349314E+05  1.041158E+05 -1.124672E+05 -1.246594E+04 -8.801250E+04
       107  24  1.231577E+04  1.507129E+05  6.115054E+04 -1.234434E+05 -1.125933E+04 -3.456415E+04
       107  25  8.564573E+04 -2.652237E+05  1.077336E+05  7.661278E+02 -3.895317E+03 -1.159008E+05
       107  26 -2.216234E+04 -1.700351E+05  4.358330E+04 -5.295820E+04 -1.250099E+04 -8.129080E+04
       107  27 -3.413060E+04 -4.653382E+04  2.592560E+04 -1.279442E+05 -1.121029E+04 -4.663623E+04
       108   1  4.162661E+04  2.714067E+05  7.231459E+04 -1.297436E+05  7.293121E+03  1.461569E+04
       108   2  8.509540E+03  1.591827E+05  4.000631E+04 -1.131886E+05  1.224434E+03 -4.190678E+03
       108   3 -1.389155E+04  5.188323E+04  2.255985E+04 -1.187303E+05 -4.922565E+03 -2.299422E+04
       108   4  1.173617E+04  1.447949E+05  4.973533E+04 -1.235579E+05  7.246244E+03  2.619383E+04
       108   5  4.594089E+03  1.423517E+05  3.728856E+04 -1.125172E+05  1.176752E+03  7.536845E+03
       108   6  8.143171E+03  1.447962E+05  3.960175E+04 -1.235725E+05 -4.970746E+03 -1.112042E+04
       108   7 -1.815496E+04  1.819908E+04  2.715598E+04 -1.173734E+05  7.199591E+03  3.776967E+04
       108   8  6.786991E+02  1.255212E+05  3.457132E+04 -1.118459E+05  1.129094E+03  1.926406E+04
       108   9  3.017756E+04  2.377179E+05  5.664384E+04 -1.284153E+05 -5.019108E+03  7.551142E+02
       108  10  4.162650E+04  2.714064E+05  7.231409E+04 -1.297437E+05 -2.619157E-09 -3.252937E-08
       108  11  8.509533E+03  1.591827E+05  4.000627E+04 -1.131886E+05  8.789268E-10 -4.027058E-08
       108  12 -1.389172E+04  5.188265E+04  2.255881E+04 -1.187304E+05  3.105683E-09 -3.875108E-08
       108  13  1.173593E+04  1.447941E+05  4.973394E+04 -1.235580E+05 -6.043368E-10  1.169506E-09
       108  14  4.594072E+03  1.423516E+05  3.728845E+04 -1.125172E+05 -1.435715E-09  1.204207E-09
       108  15  8.143111E+03  1.447961E+05  3.960147E+04 -1.235725E+05  1.947114E-09 -1.802201E-09
       108  16 -1.815540E+04  1.819754E+04  2.715320E+04 -1.173736E+05 -3.683600E-09  3.255630E-08
       108  17  6.785981E+02  1.255209E+05  3.457062E+04 -1.118459E+05  4.613662E-10  3.552929E-08
       108  18  3.017754E+04  2.377179E+05  5.664379E+04 -1.284153E+05  8.477092E-10  3.967323E-08
       108  19  4.162661E+04  2.714067E+05  7.231459E+04 -1.297436E+05 -7.293121E+03 -1.461569E+04
       108  20  8.509540E+03  1.591827E+05  4.000631E+04 -1.131886E+05 -1.224434E+03  4.190678E+03
       108  21 -1.389155E+04  5.188323E+04  2.255985E+04 -1.187303E+05  4.922565E+03  2.299422E+04
       108  22  1.173617E+04  1.447949E+05  4.973533E+04 -1.235579E+05 -7.246244E+03 -2.619383E+04
       108  23  4.594089E+03  1.423517E+05  3.728856E+04 -1.125172E+05 -1.176752E+03 -7.536845E+03
       108  24  8.143171E+03  1.447962E+05  3.960175E+04 -1.235725E+05  4.970746E+03  1.112042E+04
       108  25 -1.815496E+04  1.819908E+04  2.715598E+04 -1.173734E+05 -7.199591E+03 -3.776967E+04
       108  26  6.786991E+02  1.255212E+05  3.457132E+04 -1.118459E+05 -1.129094E+03 -1.926406E+04
       108  27  3.017756E+04  2.377179E+05  5.664384E+04 -1.284153E+05  5.019108E+03 -7.551142E+02
       109   1 -3.003519E+04 -1.518206E+04  1.554411E+04 -1.260005E+05 -8.999611E+03 -2.998197E+04
       109   2 -3.159897E+04 -1.335901E+05  1.613705E+04 -7.311224E+04 -1.085594E+04 -4.875147E+04
       109   3  2.887334E+04 -2.342182E+05  4.441998E+04 -4.162408E+04 -3.562805E+03 -6.748249E+04
       109   4  8.557800E+03  1.483216E+05  4.515033E+04 -1.234611E+05 -9.049660E+03 -1.765514E+04
       109   5  3.393793E+04  1.379266E+05  7.045229E+04 -1.125357E+05 -1.083233E+04 -5.378633E+04
       109   6  1.243450E+05  1.482956E+05  1.354897E+05 -1.230033E+05 -3.464833E+03 -8.988274E+04
       109   7  4.714940E+04  3.118515E+05  7.475607E+04 -1.209210E+05 -9.099600E+03 -5.325154E+03
       109   8  9.947604E+04  4.095170E+05  1.247647E+05 -1.519766E+05 -1.080807E+04 -5.882334E+04
       109   9  2.198310E+05  5.309587E+05  2.265546E+05 -2.044327E+05 -3.361022E+03 -1.122967E+05
       109  10 -3.003552E+04 -1.518305E+04  1.554227E+04 -1.260007E+05  2.438768E-09  5.257592E-08
       109  11 -3.159973E+04 -1.335927E+05  1.613236E+04 -7.311266E+04  4.732553E-09  1.965771E-08
       109  12  2.887210E+04 -2.342231E+05  4.441139E+04 -4.162428E+04  1.062107E-09 -1.199294E-08
       109  13  8.557629E+03  1.483212E+05  4.514959E+04 -1.234612E+05 -5.730593E-10  1.213970E-09
       109  14  3.393702E+04  1.379235E+05  7.044663E+04 -1.125361E+05 -5.639387E-10  1.101494E-09
       109  15  1.243429E+05  1.482869E+05  1.354745E+05 -1.230035E+05 -7.945079E-10 -1.726321E-09
       109  16  4.714930E+04  3.118515E+05  7.475586E+04 -1.209211E+05  1.233989E-09 -5.246893E-08
       109  17  9.947498E+04  4.095133E+05  1.247580E+05 -1.519771E+05 -2.430952E-10 -2.420685E-08
       109  18  2.198276E+05  5.309451E+05  2.265309E+05 -2.044330E+05  5.041942E-11  1.291007E-08
       109  19 -3.003519E+04 -1.518206E+04  1.554411E+04 -1.260005E+05  8.999611E+03  2.998197E+04
       109  20 -3.159897E+04 -1.335901E+05  1.613705E+04 -7.311224E+04  1.085594E+04  4.875147E+04
       109  21  2.887334E+04 -2.342182E+05  4.441998E+04 -4.162408E+04  3.562805E+03  6.748249E+04
       109  22  8.557800E+03  1.483216E+05  4.515033E+04 -1.234611E+05  9.049660E+03  1.765514E+04
       109  23  3.393793E+04  1.379266E+05  7.045229E+04 -1.125357E+05  1.083233E+04  5.378633E+04
       109  24  1.243450E+05  1.482956E+05  1.354897E+05 -1.230033E+05  3.464833E+03  8.988274E+04
       109  25  4.714940E+04  3.118515E+05  7.475607E+04 -1.209210E+05  9.099600E+03  5.325154E+03
       109  26  9.947604E+04  4.095170E+05  1.247647E+05 -1.519766E+05  1.080807E+04  5.882334E+04
       109  27  2.198310E+05  5.309587E+05  2.265546E+05 -2.044327E+05  3.361022E+03  1.122967E+05
       110   1 -4.650363E+06 -1.527321E+06 -9.756770E+05 -1.627089E+06 -4.464634E+05 -1.555022E+05
       110   2 -4.527952E+06 -8.664065E+05 -5.611775E+05 -1.685196E+06 -2.907575E+05 -6.888306E+04
       110   3 -4.629626E+06 -8.474616E+05 -4.381479E+05 -1.615555E+06 -1.251378E+05 -8.394380E+03
       110   4 -3.644186E+06 -1.000032E+06 -6.716176E+05 -1.204500E+06 -4.294855E+05 -1.491994E+05
       110   5 -3.497896E+06 -4.353854E+05 -2.797994E+05 -1.360931E+06 -2.858183E+05 -6.704382E+04
       110   6 -3.572906E+06 -5.097237E+05 -1.694957E+05 -1.389730E+06 -1.322419E+05 -1.106475E+04
       110   7 -2.636968E+06 -4.723713E+05 -3.676560E+05 -7.811943E+05 -4.124768E+05 -1.428749E+05
       110   8 -2.466799E+06 -4.230604E+03  1.481732E+03 -1.036152E+06 -2.808697E+05 -6.520016E+04
       110   9 -2.515100E+06 -1.719883E+05  9.906933E+04 -1.163590E+06 -1.393592E+05 -1.373834E+04
       110  10 -4.650585E+06 -1.527401E+06 -9.761006E+05 -1.627145E+06  1.284385E-09 -3.278412E-10
       110  11 -4.528044E+06 -8.664346E+05 -5.613466E+05 -1.685212E+06 -2.019030E-09  1.105272E-09
       110  12 -4.629643E+06 -8.474659E+05 -4.381777E+05 -1.615556E+06 -8.800020E-10 -1.202246E-09
       110  13 -3.644391E+06 -1.000106E+06 -6.720086E+05 -1.204551E+06  8.233130E-10 -8.652752E-10
       110  14 -3.497985E+06 -4.354124E+05 -2.799624E+05 -1.360947E+06 -3.988331E-10 -3.959357E-10
       110  15 -3.572925E+06 -5.097286E+05 -1.695290E+05 -1.389731E+06 -2.210753E-09 -1.301924E-09
       110  16 -2.637156E+06 -4.724393E+05 -3.680157E+05 -7.812419E+05  2.064934E-10  3.484835E-10
       110  17 -2.466886E+06 -4.256493E+03  1.324771E+03 -1.036167E+06 -2.093904E-10  1.925974E-11
       110  18 -2.515121E+06 -1.719938E+05  9.903232E+04 -1.163592E+06 -2.728254E-10 -1.591611E-09
       110  19 -4.650363E+06 -1.527321E+06 -9.756770E+05 -1.627089E+06  4.464634E+05  1.555022E+05
       110  20 -4.527952E+06 -8.664065E+05 -5.611775E+05 -1.685196E+06  2.907575E+05  6.888306E+04
       110  21 -4.629626E+06 -8.474616E+05 -4.381479E+05 -1.615555E+06  1.251378E+05  8.394380E+03
       110  22 -3.644186E+06 -1.000032E+06 -6.716176E+05 -1.204500E+06  4.294855E+05  1.491994E+05
       110  23 -3.497896E+06 -4.353854E+05 -2.797994E+05 -1.360931E+06  2.858183E+05  6.704382E+04
       110  24 -3.572906E+06 -5.097237E+05 -1.694957E+05 -1.389730E+06  1.322419E+05  1.106475E+04
       110  25 -2.636968E+06 -4.723713E+05 -3.676560E+05 -7.811943E+05  4.124768E+05  1.428749E+05
       110  26 -2.466799E+06 -4.230604E+03  1.481732E+03 -1.036152E+06  2.808697E+05  6.520016E+04
       110  27 -2.515100E+06 -1.719883E+05  9.906933E+04 -1.163590E+06  1.393592E+05  1.373834E+04
       111   1 -4.463241E+06 -9.425258E+05 -3.842424E+05 -1.616937E+06 -1.064312E+05 -7.216897E+03
       111   2 -4.404509E+06 -8.277429E+05 -2.936056E+05 -1.585186E+06 -7.077452E+04  5.441451E+03
       111   3 -4.335415E+06 -8.206062E+05 -2.478084E+05 -1.581557E+06 -3.420784E+04  1.568344E+04
       111   4 -3.548825E+06 -5.824416E+05 -1.379638E+05 -1.352267E+06 -1.062854E+05 -7.168400E+03
       111   5 -3.550215E+06 -5.016773E+05 -6.601107E+04 -1.348365E+06 -7.171245E+04  5.084984E+03
       111   6 -3.540993E+06 -5.282792E+05 -3.798210E+04 -1.372591E+06 -3.623401E+04  1.492060E+04
       111   7 -2.633591E+06 -2.222856E+05  1.082407E+05 -1.087233E+06 -1.061393E+05 -7.119760E+03
       111   8 -2.695210E+06 -1.755622E+05  1.615199E+05 -1.111245E+06 -7.265177E+04  4.727989E+03
       111   9 -2.745957E+06 -2.359216E+05  1.717899E+05 -1.163386E+06 -3.826302E+04  1.415674E+04
       111  10 -4.463254E+06 -9.425289E+05 -3.842639E+05 -1.616938E+06 -3.787356E-09 -4.133245E-10
       111  11 -4.404515E+06 -8.277443E+05 -2.936152E+05 -1.585186E+06 -6.396161E-10  1.201428E-09
       111  12 -4.335417E+06 -8.206068E+05 -2.478110E+05 -1.581556E+06 -8.021574E-10  6.474884E-10
       111  13 -3.548837E+06 -5.824447E+05 -1.379853E+05 -1.352267E+06 -1.173427E-09 -1.000582E-09
       111  14 -3.550221E+06 -5.016787E+05 -6.602083E+04 -1.348364E+06 -8.899604E-10  1.280690E-09
       111  15 -3.540994E+06 -5.282798E+05 -3.798499E+04 -1.372591E+06  9.270796E-10  9.477483E-10
       111  16 -2.633603E+06 -2.222887E+05  1.082194E+05 -1.087234E+06  2.103739E-09  8.582200E-11
       111  17 -2.695216E+06 -1.755637E+05  1.615099E+05 -1.111245E+06  2.024627E-09  1.680662E-09
       111  18 -2.745959E+06 -2.359222E+05  1.717868E+05 -1.163385E+06 -1.288003E-10  1.095909E-09
       111  19 -4.463241E+06 -9.425258E+05 -3.842424E+05 -1.616937E+06  1.064312E+05  7.216897E+03
       111  20 -4.404509E+06 -8.277429E+05 -2.936056E+05 -1.585186E+06  7.077452E+04 -5.441451E+03
       111  21 -4.335415E+06 -8.206062E+05 -2.478084E+05 -1.581557E+06  3.420784E+04 -1.568344E+04
       111  22 -3.548825E+06 -5.824416E+05 -1.379638E+05 -1.352267E+06  1.062854E+05  7.168400E+03
       111  23 -3.550215E+06 -5.016773E+05 -6.601107E+04 -1.348365E+06  7.171245E+04 -5.084984E+03
       111  24 -3.540993E+06 -5.282792E+05 -3.798210E+04 -1.372591E+06  3.623401E+04 -1.492060E+04
       111  25 -2.633591E+06 -2.222856E+05  1.082407E+05 -1.087233E+06  1.061393E+05  7.119760E+03
       111  26 -2.695210E+06 -1.755622E+05  1.615199E+05 -1.111245E+06  7.265177E+04 -4.727989E+03
       111  27 -2.745957E+06 -2.359216E+05  1.717899E+05 -1.163386E+06  3.826302E+04 -1.415674E+04
       112   1 -4.213928E+06 -7.941496E+05 -2.095732E+05 -1.555816E+06 -2.847956E+04  1.529083E+04
       112   2 -4.154285E+06 -7.316947E+05 -1.736269E+05 -1.507066E+06 -1.925195E+04  1.498869E+04
       112   3 -4.050317E+06 -7.244258E+05 -1.455769E+05 -1.511204E+06 -9.882084E+03  1.429460E+04
       112   4 -3.536454E+06 -5.377391E+05 -2.970530E+04 -1.370163E+06 -2.995176E+04  1.473660E+04
       112   5 -3.558191E+06 -5.071481E+05 -1.539598E+04 -1.344843E+06 -2.089933E+04  1.437009E+04
       112   6 -3.535572E+06 -5.317005E+05 -8.836006E+03 -1.372411E+06 -1.170584E+04  1.361138E+04
       112   7 -2.858535E+06 -2.813005E+05  1.501222E+05 -1.184326E+06 -3.142573E+04  1.418171E+04
       112   8 -2.961751E+06 -2.825800E+05  1.428041E+05 -1.182479E+06 -2.254845E+04  1.375084E+04
       112   9 -3.020568E+06 -3.389595E+05  1.278822E+05 -1.233514E+06 -1.353127E+04  1.292753E+04
       112  10 -4.213928E+06 -7.941501E+05 -2.095752E+05 -1.555816E+06 -6.881411E-09 -2.606238E-09
       112  11 -4.154285E+06 -7.316950E+05 -1.736280E+05 -1.507066E+06 -8.519357E-10 -1.376655E-09
       112  12 -4.050317E+06 -7.244261E+05 -1.455775E+05 -1.511204E+06  3.342185E-09  1.427262E-09
       112  13 -3.536455E+06 -5.377396E+05 -2.970740E+04 -1.370163E+06  2.354623E-10 -4.918505E-10
       112  14 -3.558191E+06 -5.071484E+05 -1.539719E+04 -1.344843E+06 -2.353343E-09 -7.418376E-10
       112  15 -3.535572E+06 -5.317007E+05 -8.836611E+03 -1.372411E+06  1.617550E-10  4.354861E-11
       112  16 -2.858537E+06 -2.813010E+05  1.501199E+05 -1.184325E+06  5.024157E-09  2.054441E-09
       112  17 -2.961752E+06 -2.825804E+05  1.428028E+05 -1.182479E+06 -9.197410E-10  6.143018E-10
       112  18 -3.020568E+06 -3.389597E+05  1.278816E+05 -1.233514E+06 -5.160542E-09 -2.406189E-09
       112  19 -4.213928E+06 -7.941496E+05 -2.095732E+05 -1.555816E+06  2.847956E+04 -1.529083E+04
       112  20 -4.154285E+06 -7.316947E+05 -1.736269E+05 -1.507066E+06  1.925195E+04 -1.498869E+04
       112  21 -4.050317E+06 -7.244258E+05 -1.455769E+05 -1.511204E+06  9.882084E+03 -1.429460E+04
       112  22 -3.536454E+06 -5.377391E+05 -2.970530E+04 -1.370163E+06  2.995176E+04 -1.473660E+04
       112  23 -3.558191E+06 -5.071481E+05 -1.539598E+04 -1.344843E+06  2.089933E+04 -1.437009E+04
       112  24 -3.535572E+06 -5.317005E+05 -8.836006E+03 -1.372411E+06  1.170584E+04 -1.361138E+04
       112  25 -2.858535E+06 -2.813005E+05  1.501222E+05 -1.184326E+06  3.142573E+04 -1.418171E+04
       112  26 -2.961751E+06 -2.825800E+05  1.428041E+05 -1.182479E+06  2.254845E+04 -1.375084E+04
       112  27 -3.020568E+06 -3.389595E+05  1.278822E+05 -1.233514E+06  1.353127E+04 -1.292753E+04
       113   1 -3.920440E+06 -6.788432E+05 -1.091201E+05 -1.478097E+06 -7.775391E+03  1.251287E+04
       113   2 -3.855552E+06 -6.175206E+05 -8.261882E+04 -1.423245E+06 -4.120369E+03  9.445276E+03
       113   3 -3.738593E+06 -6.097176E+05 -5.798533E+04 -1.428720E+06 -4.220503E+02  6.253855E+03
       113   4 -3.534144E+06 -5.336331E+05 -6.958918E+03 -1.373189E+06 -9.574214E+03  1.183974E+04
       113   5 -3.560121E+06 -5.065424E+05 -4.269350E+03 -1.343145E+06 -5.975906E+03  8.751644E+03
       113   6 -3.534025E+06 -5.329577E+05 -3.400954E+03 -1.373430E+06 -2.334696E+03  5.539666E+03
       113   7 -3.147703E+06 -3.884138E+05  9.518955E+04 -1.268222E+06 -1.137427E+04  1.116613E+04
       113   8 -3.264607E+06 -3.955597E+05  7.407219E+04 -1.263012E+06 -7.832410E+03  8.057651E+03
       113   9 -3.329419E+06 -4.561962E+05  5.117917E+04 -1.318124E+06 -4.248016E+03  4.825226E+03
       113  10 -3.920440E+06 -6.788434E+05 -1.091205E+05 -1.478097E+06  1.336541E-09  1.196654E-09
       113  11 -3.855552E+06 -6.175207E+05 -8.261902E+04 -1.423245E+06  5.912022E-10 -6.103672E-10
       113  12 -3.738593E+06 -6.097176E+05 -5.798541E+04 -1.428720E+06 -8.807179E-10 -4.758061E-10
       113  13 -3.534144E+06 -5.336333E+05 -6.959353E+03 -1.373189E+06 -4.062362E-09 -4.906795E-10
       113  14 -3.560121E+06 -5.065425E+05 -4.269560E+03 -1.343145E+06 -2.246549E-09 -3.015887E-09
       113  15 -3.534025E+06 -5.329577E+05 -3.401022E+03 -1.373430E+06 -2.144163E-09 -3.881433E-10
       113  16 -3.147703E+06 -3.884140E+05  9.518907E+04 -1.268221E+06 -2.517596E-09 -1.856837E-09
       113  17 -3.264607E+06 -3.955598E+05  7.407195E+04 -1.263012E+06 -2.021121E-09 -1.438117E-09
       113  18 -3.329419E+06 -4.561962E+05  5.117909E+04 -1.318124E+06 -2.215581E-09 -8.787669E-10
       113  19 -3.920440E+06 -6.788432E+05 -1.091201E+05 -1.478097E+06  7.775391E+03 -1.251287E+04
       113  20 -3.855552E+06 -6.175206E+05 -8.261882E+04 -1.423245E+06  4.120369E+03 -9.445276E+03
       113  21 -3.738593E+06 -6.097176E+05 -5.798533E+04 -1.428720E+06  4.220503E+02 -6.253855E+03
       113  22 -3.534144E+06 -5.336331E+05 -6.958918E+03 -1.373189E+06  9.574214E+03 -1.183974E+04
       113  23 -3.560121E+06 -5.065424E+05 -4.269350E+03 -1.343145E+06  5.975906E+03 -8.751644E+03
       113  24 -3.534025E+06 -5.329577E+05 -3.400954E+03 -1.373430E+06  2.334696E+03 -5.539666E+03
       113  25 -3.147703E+06 -3.884138E+05  9.518955E+04 -1.268222E+06  1.137427E+04 -1.116613E+04
       113  26 -3.264607E+06 -3.955597E+05  7.407219E+04 -1.263012E+06  7.832410E+03 -8.057651E+03
       113  27 -3.329419E+06 -4.561962E+05  5.117917E+04 -1.318124E+06  4.248016E+03 -4.825226E+03
       114   1 -3.601792E+06 -5.589059E+05 -2.114029E+04 -1.392405E+06  1.036201E+03  4.084813E+03
       114   2 -3.534986E+06 -4.965133E+05  2.406725E+03 -1.335754E+06  4.734173E+03  8.201790E+02
       114   3 -3.414765E+06 -4.891691E+05  2.406544E+04 -1.341233E+06  8.424390E+03 -2.421537E+03
       114   4 -3.533716E+06 -5.333021E+05 -3.426441E+03 -1.373825E+06 -8.835760E+02  3.368214E+03
       114   5 -3.560459E+06 -5.060686E+05 -4.344755E+03 -1.342648E+06  2.824872E+03  1.073860E+02
       114   6 -3.533798E+06 -5.338872E+05 -7.159483E+03 -1.373607E+06  6.525189E+03 -3.130621E+03
       114   7 -3.465634E+06 -5.076978E+05  1.428721E+04 -1.355243E+06 -2.803602E+03  2.651521E+03
       114   8 -3.585931E+06 -5.156240E+05 -1.109633E+04 -1.349542E+06  9.156435E+02 -6.053801E+02
       114   9 -3.652818E+06 -5.786048E+05 -3.838580E+04 -1.405975E+06  4.626377E+03 -3.839559E+03
       114  10 -3.601792E+06 -5.589059E+05 -2.114033E+04 -1.392405E+06  1.134565E-09  6.157225E-10
       114  11 -3.534987E+06 -4.965133E+05  2.406681E+03 -1.335754E+06 -1.266034E-09  3.260069E-09
       114  12 -3.414765E+06 -4.891691E+05  2.406529E+04 -1.341233E+06 -3.306886E-09 -3.399863E-10
       114  13 -3.533716E+06 -5.333021E+05 -3.426464E+03 -1.373825E+06 -1.586951E-09  3.761293E-10
       114  14 -3.560459E+06 -5.060686E+05 -4.344770E+03 -1.342648E+06 -2.595598E-09 -1.044885E-09
       114  15 -3.533798E+06 -5.338872E+05 -7.159582E+03 -1.373607E+06 -2.043066E-09  1.195381E-09
       114  16 -3.465634E+06 -5.076978E+05  1.428718E+04 -1.355243E+06 -4.013441E-09 -1.033088E-09
       114  17 -3.585931E+06 -5.156240E+05 -1.109633E+04 -1.349542E+06 -9.191341E-10 -1.536486E-09
       114  18 -3.652818E+06 -5.786048E+05 -3.838587E+04 -1.405975E+06 -1.036459E-09  1.962962E-10
       114  19 -3.601792E+06 -5.589059E+05 -2.114029E+04 -1.392405E+06 -1.036201E+03 -4.084813E+03
       114  20 -3.534986E+06 -4.965133E+05  2.406725E+03 -1.335754E+06 -4.734173E+03 -8.201790E+02
       114  21 -3.414765E+06 -4.891691E+05  2.406544E+04 -1.341233E+06 -8.424390E+03  2.421537E+03
       114  22 -3.533716E+06 -5.333021E+05 -3.426441E+03 -1.373825E+06  8.835760E+02 -3.368214E+03
       114  23 -3.560459E+06 -5.060686E+05 -4.344755E+03 -1.342648E+06 -2.824872E+03 -1.073860E+02
       114  24 -3.533798E+06 -5.338872E+05 -7.159483E+03 -1.373607E+06 -6.525189E+03  3.130621E+03
       114  25 -3.465634E+06 -5.076978E+05  1.428721E+04 -1.355243E+06  2.803602E+03 -2.651521E+03
       114  26 -3.585931E+06 -5.156240E+05 -1.109633E+04 -1.349542E+06 -9.156435E+02  6.053801E+02
       114  27 -3.652818E+06 -5.786048E+05 -3.838580E+04 -1.405975E+06 -4.626377E+03  3.839559E+03
       115   1 -3.279499E+06 -4.376297E+05  5.869502E+04 -1.305382E+06  1.068043E+04 -4.294069E+03
       115   2 -3.214855E+06 -3.761904E+05  7.545335E+04 -1.249747E+06  2.011106E+04 -5.297911E+03
       115   3 -3.101961E+06 -3.745826E+05  8.420719E+04 -1.252231E+06  2.944372E+04 -6.026215E+03
       115   4 -3.534639E+06 -5.326034E+05 -9.129110E+03 -1.373602E+06  8.747963E+03 -5.015896E+03
       115   5 -3.559203E+06 -5.057698E+05 -1.587935E+04 -1.343392E+06  1.830295E+04 -5.974158E+03
       115   6 -3.535551E+06 -5.387975E+05 -3.073636E+04 -1.371307E+06  2.775875E+04 -6.657272E+03
       115   7 -3.789712E+06 -6.275726E+05 -7.695815E+04 -1.441795E+06  6.816388E+03 -5.737396E+03
       115   8 -3.903435E+06 -6.353417E+05 -1.072220E+05 -1.436991E+06  1.649595E+04 -6.649989E+03
       115   9 -3.968960E+06 -7.030011E+05 -1.456968E+05 -1.490308E+06  2.607505E+04 -7.287839E+03
       115  10 -3.279499E+06 -4.376297E+05  5.869477E+04 -1.305382E+06 -2.865381E-09  1.352372E-09
       115  11 -3.214856E+06 -3.761906E+05  7.545254E+04 -1.249747E+06  3.758389E-10  1.345646E-09
       115  12 -3.101962E+06 -3.745829E+05  8.420549E+04 -1.252230E+06  1.994724E-09  1.292875E-09
       115  13 -3.534639E+06 -5.326035E+05 -9.129301E+03 -1.373602E+06 -4.569818E-09  8.492821E-10
       115  14 -3.559204E+06 -5.057699E+05 -1.588005E+04 -1.343392E+06 -3.440983E-09  1.148234E-09
       115  15 -3.535552E+06 -5.387977E+05 -3.073790E+04 -1.371307E+06 -9.487712E-11 -1.863433E-10
       115  16 -3.789713E+06 -6.275727E+05 -7.695829E+04 -1.441795E+06 -2.869851E-09  9.766061E-10
       115  17 -3.903435E+06 -6.353418E+05 -1.072226E+05 -1.436991E+06 -1.399954E-09  1.351864E-09
       115  18 -3.968961E+06 -7.030013E+05 -1.456981E+05 -1.490308E+06 -2.220735E-09 -5.681423E-10
       115  19 -3.279499E+06 -4.376297E+05  5.869502E+04 -1.305382E+06 -1.068043E+04  4.294069E+03
       115  20 -3.214855E+06 -3.761904E+05  7.545335E+04 -1.249747E+06 -2.011106E+04  5.297911E+03
       115  21 -3.101961E+06 -3.745826E+05  8.420719E+04 -1.252231E+06 -2.944372E+04  6.026215E+03
       115  22 -3.534639E+06 -5.326034E+05 -9.129110E+03 -1.373602E+06 -8.747963E+03  5.015896E+03
       115  23 -3.559203E+06 -5.057698E+05 -1.587935E+04 -1.343392E+06 -1.830295E+04  5.974158E+03
       115  24 -3.535551E+06 -5.387975E+05 -3.073636E+04 -1.371307E+06 -2.775875E+04  6.657272E+03
       115  25 -3.789712E+06 -6.275726E+05 -7.695815E+04 -1.441795E+06 -6.816388E+03  5.737396E+03
       115  26 -3.903435E+06 -6.353417E+05 -1.072220E+05 -1.436991E+06 -1.649595E+04  6.649989E+03
       115  27 -3.968960E+06 -7.030011E+05 -1.456968E+05 -1.490308E+06 -2.607505E+04  7.287839E+03
       116   1 -2.973978E+06 -3.243219E+05  1.095528E+05 -1.228521E+06  3.649791E+04 -6.180127E+03
       116   2 -2.913919E+06 -2.554913E+05  1.015883E+05 -1.168686E+06  7.240882E+04  3.204691E+03
       116   3 -2.837542E+06 -3.033025E+05  4.883268E+04 -1.144829E+06  1.075502E+05  1.466776E+04
       116   4 -3.539647E+06 -5.296820E+05 -3.931892E+04 -1.374559E+06  3.431811E+04 -6.996675E+03
       116   5 -3.551728E+06 -4.992839E+05 -6.825901E+04 -1.346089E+06  7.116833E+04  2.737489E+03
       116   6 -3.547713E+06 -5.857679E+05 -1.427754E+05 -1.353599E+06  1.072442E+05  1.454770E+04
       116   7 -4.105007E+06 -7.350285E+05 -1.882179E+05 -1.520477E+06  3.214048E+04 -7.812473E+03
       116   8 -4.189140E+06 -7.430484E+05 -2.381416E+05 -1.523325E+06  6.992922E+04  2.270820E+03
       116   9 -4.257392E+06 -8.681864E+05 -3.344280E+05 -1.562146E+06  1.069385E+05  1.442777E+04
       116  10 -2.973979E+06 -3.243223E+05  1.095502E+05 -1.228521E+06  1.126028E-09  3.709514E-10
       116  11 -2.913924E+06 -2.554927E+05  1.015783E+05 -1.168686E+06 -9.941756E-10 -1.095644E-09
       116  12 -2.837554E+06 -3.033059E+05  4.881043E+04 -1.144830E+06 -6.065981E-10 -9.006218E-10
       116  13 -3.539649E+06 -5.296823E+05 -3.932123E+04 -1.374558E+06  1.125252E-09  2.535825E-10
       116  14 -3.551733E+06 -4.992853E+05 -6.826860E+04 -1.346089E+06  2.955987E-09  6.424790E-10
       116  15 -3.547726E+06 -5.857713E+05 -1.427975E+05 -1.353600E+06  2.340010E-09 -1.037811E-09
       116  16 -4.105008E+06 -7.350288E+05 -1.882200E+05 -1.520477E+06 -8.870552E-10 -4.601916E-10
       116  17 -4.189145E+06 -7.430497E+05 -2.381509E+05 -1.523325E+06  1.591498E-09  3.232808E-10
       116  18 -4.257404E+06 -8.681897E+05 -3.344501E+05 -1.562148E+06  1.806517E-09 -3.453241E-10
       116  19 -2.973978E+06 -3.243219E+05  1.095528E+05 -1.228521E+06 -3.649791E+04  6.180127E+03
       116  20 -2.913919E+06 -2.554913E+05  1.015883E+05 -1.168686E+06 -7.240882E+04 -3.204691E+03
       116  21 -2.837542E+06 -3.033025E+05  4.883268E+04 -1.144829E+06 -1.075502E+05 -1.466776E+04
       116  22 -3.539647E+06 -5.296820E+05 -3.931892E+04 -1.374559E+06 -3.431811E+04  6.996675E+03
       116  23 -3.551728E+06 -4.992839E+05 -6.825901E+04 -1.346089E+06 -7.116833E+04 -2.737489E+03
       116  24 -3.547713E+06 -5.857679E+05 -1.427754E+05 -1.353599E+06 -1.072442E+05 -1.454770E+04
       116  25 -4.105007E+06 -7.350285E+05 -1.882179E+05 -1.520477E+06 -3.214048E+04  7.812473E+03
       116  26 -4.189140E+06 -7.430484E+05 -2.381416E+05 -1.523325E+06 -6.992922E+04 -2.270820E+03
       116  27 -4.257392E+06 -8.681864E+05 -3.344280E+05 -1.562146E+06 -1.069385E+05 -1.442777E+04
       117   1 -2.696817E+06 -2.449599E+05  4.433403E+04 -1.219878E+06  1.407064E+05  2.130451E+04
       117   2 -2.635749E+06 -6.221991E+04 -5.278352E+04 -1.079210E+06  2.893396E+05  7.437263E+04
       117   3 -2.792963E+06 -5.469435E+05 -4.325916E+05 -8.169829E+05  4.293337E+05  1.504528E+05
       117   4 -3.572162E+06 -5.110003E+05 -1.754017E+05 -1.392899E+06  1.340166E+05  1.880552E+04
       117   5 -3.498336E+06 -4.298995E+05 -2.894463E+05 -1.358229E+06  2.932356E+05  7.581139E+04
       117   6 -3.645287E+06 -1.018981E+06 -6.949234E+05 -1.201909E+06  4.438091E+05  1.557811E+05
       117   7 -4.446762E+06 -7.770511E+05 -3.951950E+05 -1.565729E+06  1.273370E+05  1.630869E+04
       117   8 -4.360192E+06 -7.974730E+05 -5.261768E+05 -1.636875E+06  2.971255E+05  7.724710E+04
       117   9 -4.496841E+06 -1.490681E+06 -9.573222E+05 -1.586270E+06  4.582622E+05  1.610921E+05
       117  10 -2.696839E+06 -2.449657E+05  4.429579E+04 -1.219880E+06 -4.298795E-10 -1.316146E-09
       117  11 -2.635841E+06 -6.224850E+04 -5.295207E+04 -1.079227E+06  5.823155E-10 -1.130408E-09
       117  12 -2.793168E+06 -5.470177E+05 -4.329824E+05 -8.170351E+05 -6.272058E-11 -1.047329E-09
       117  13 -3.572181E+06 -5.110055E+05 -1.754363E+05 -1.392901E+06 -1.410102E-09 -9.797038E-10
       117  14 -3.498431E+06 -4.299290E+05 -2.896198E+05 -1.358247E+06 -3.582908E-09  2.873790E-11
       117  15 -3.645506E+06 -1.019060E+06 -6.953419E+05 -1.201965E+06  9.186906E-10 -6.542427E-10
       117  16 -4.446780E+06 -7.770558E+05 -3.952263E+05 -1.565731E+06  1.966090E-09 -1.354436E-09
       117  17 -4.360289E+06 -7.975034E+05 -5.263553E+05 -1.636894E+06 -1.391919E-09 -3.154011E-10
       117  18 -4.497075E+06 -1.490766E+06 -9.577693E+05 -1.586330E+06  8.961126E-10 -5.410375E-10
       117  19 -2.696817E+06 -2.449599E+05  4.433403E+04 -1.219878E+06 -1.407064E+05 -2.130451E+04
       117  20 -2.635749E+06 -6.221991E+04 -5.278352E+04 -1.079210E+06 -2.893396E+05 -7.437263E+04
       117  21 -2.792963E+06 -5.469435E+05 -4.325916E+05 -8.169829E+05 -4.293337E+05 -1.504528E+05
       117  22 -3.572162E+06 -5.110003E+05 -1.754017E+05 -1.392899E+06 -1.340166E+05 -1.880552E+04
       117  23 -3.498336E+06 -4.298995E+05 -2.894463E+05 -1.358229E+06 -2.932356E+05 -7.581139E+04
       117  24 -3.645287E+06 -1.018981E+06 -6.949234E+05 -1.201909E+06 -4.438091E+05 -1.557811E+05
       117  25 -4.446762E+06 -7.770511E+05 -3.951950E+05 -1.565729E+06 -1.273370E+05 -1.630869E+04
       117  26 -4.360192E+06 -7.974730E+05 -5.261768E+05 -1.636875E+06 -2.971255E+05 -7.724710E+04
       117  27 -4.496841E+06 -1.490681E+06 -9.573222E+05 -1.586270E+06 -4.582622E+05 -1.610921E+05
       118   1 -6.068850E+05  7.330367E+04  1.242746E+05  4.047541E+04  1.560394E+05  4.801852E+03
       118   2 -6.046462E+05 -1.335113E+05  1.767470E+03  1.134087E+04  1.048067E+05  1.392090E+04
       118   3 -5.372766E+05 -1.076911E+05 -2.913412E+04 -4.359293E+04  5.358052E+04  1.280323E+04
       118   4 -1.425197E+05  1.889615E+05  2.388621E+05 -1.859210E+04  1.633282E+05  4.794864E+03
       118   5 -1.755200E+05 -2.712506E+04  1.045492E+05 -5.590259E+03  1.068991E+05  1.391919E+04
       118   6 -1.425386E+05 -9.767712E+03  6.540308E+04 -1.838658E+04  5.047997E+04  1.280297E+04
       118   7  3.220495E+05  3.046165E+05  3.534358E+05 -7.770393E+04  1.706224E+05  4.786496E+03
       118   8  2.537758E+05  7.924889E+04  2.073181E+05 -2.253319E+04  1.089929E+05  1.391737E+04
       118   9  2.523435E+05  8.814674E+04  1.599296E+05  6.835867E+03  4.737744E+04  1.280246E+04
       118  10 -6.069112E+05  7.329710E+04  1.242288E+05  4.047481E+04 -1.043497E-10  5.832775E-10
       118  11 -6.046581E+05 -1.335144E+05  1.746446E+03  1.133969E+04  1.113737E-09 -1.710669E-10
       118  12 -5.372797E+05 -1.076920E+05 -2.913983E+04 -4.359349E+04  5.416981E-10 -8.177490E-10
       118  13 -1.425484E+05  1.889543E+05  2.388120E+05 -1.859273E+04 -1.094001E-09  1.843827E-10
       118  14 -1.755323E+05 -2.712833E+04  1.045273E+05 -5.591457E+03 -9.121417E-10 -1.352436E-09
       118  15 -1.425414E+05 -9.768572E+03  6.539798E+04 -1.838710E+04  2.593538E-10 -6.162049E-10
       118  16  3.220183E+05  3.046087E+05  3.533811E+05 -7.770459E+04 -1.917640E-10 -2.632627E-10
       118  17  2.537630E+05  7.924550E+04  2.072954E+05 -2.253441E+04 -3.438093E-10 -7.177071E-10
       118  18  2.523411E+05  8.814596E+04  1.599251E+05  6.835379E+03 -2.744761E-10 -7.946811E-10
       118  19 -6.068850E+05  7.330367E+04  1.242746E+05  4.047541E+04 -1.560394E+05 -4.801852E+03
       118  20 -6.046462E+05 -1.335113E+05  1.767470E+03  1.134087E+04 -1.048067E+05 -1.392090E+04
       118  21 -5.372766E+05 -1.076911E+05 -2.913412E+04 -4.359293E+04 -5.358052E+04 -1.280323E+04
       118  22 -1.425197E+05  1.889615E+05  2.388621E+05 -1.859210E+04 -1.633282E+05 -4.794864E+03
       118  23 -1.755200E+05 -2.712506E+04  1.045492E+05 -5.590259E+03 -1.068991E+05 -1.391919E+04
       118  24 -1.425386E+05 -9.767712E+03  6.540308E+04 -1.838658E+04 -5.047997E+04 -1.280297E+04
       118  25  3.220495E+05  3.046165E+05  3.534358E+05 -7.770393E+04 -1.706224E+05 -4.786496E+03
       118  26  2.537758E+05  7.924889E+04  2.073181E+05 -2.253319E+04 -1.089929E+05 -1.391737E+04
       118  27  2.523435E+05  8.814674E+04  1.599296E+05  6.835867E+03 -4.737744E+04 -1.280246E+04
       119   1 -5.032899E+05 -6.649163E+04 -3.020707E+04 -1.300938E+04  4.043437E+04  1.051977E+04
       119   2 -4.724279E+05 -8.059127E+04 -4.791597E+04 -4.145060E+03  2.692648E+04  9.880990E+03
       119   3 -4.335047E+05 -7.002397E+04 -5.062977E+04 -2.132243E+04  1.341766E+04  8.476645E+03
       119   4 -1.553830E+05  1.982191E+04  5.335427E+04 -1.850597E+04  4.032385E+04  1.051896E+04
       119   5 -1.594446E+05 -2.965619E+03  2.711780E+04 -5.481329E+03  2.642321E+04  9.880449E+03
       119   6 -1.553822E+05 -1.025069E+03  1.614323E+04 -1.849738E+04  1.252240E+04  8.476364E+03
       119   7  1.926348E+05  1.061268E+05  1.369070E+05 -2.400567E+04  4.021327E+04  1.051816E+04
       119   8  1.536284E+05  7.465293E+04  1.021446E+05 -6.818281E+03  2.591969E+04  9.879910E+03
       119   9  1.228112E+05  6.796823E+04  8.291075E+04 -1.567105E+04  1.162674E+04  8.476075E+03
       119  10 -5.032917E+05 -6.649219E+04 -3.021035E+04 -1.300972E+04 -1.916773E-09 -4.814504E-10
       119  11 -4.724287E+05 -8.059157E+04 -4.791752E+04 -4.145274E+03 -3.472895E-10  1.856850E-09
       119  12 -4.335049E+05 -7.002409E+04 -5.063025E+04 -2.132252E+04  7.791223E-10 -2.534425E-10
       119  13 -1.553848E+05  1.982135E+04  5.335100E+04 -1.850631E+04  1.089612E-09 -5.875756E-11
       119  14 -1.594454E+05 -2.965911E+03  2.711630E+04 -5.481539E+03  1.094287E-09  1.260628E-09
       119  15 -1.553824E+05 -1.025188E+03  1.614280E+04 -1.849746E+04 -1.559024E-09 -5.603473E-10
       119  16  1.926330E+05  1.061262E+05  1.369038E+05 -2.400601E+04  4.382945E-10  4.628338E-10
       119  17  1.536277E+05  7.465264E+04  1.021432E+05 -6.818488E+03  9.816774E-10  6.945739E-10
       119  18  1.228110E+05  6.796812E+04  8.291036E+04 -1.567113E+04 -2.377957E-09 -7.330971E-10
       119  19 -5.032899E+05 -6.649163E+04 -3.020707E+04 -1.300938E+04 -4.043437E+04 -1.051977E+04
       119  20 -4.724279E+05 -8.059127E+04 -4.791597E+04 -4.145060E+03 -2.692648E+04 -9.880990E+03
       119  21 -4.335047E+05 -7.002397E+04 -5.062977E+04 -2.132243E+04 -1.341766E+04 -8.476645E+03
       119  22 -1.553830E+05  1.982191E+04  5.335427E+04 -1.850597E+04 -4.032385E+04 -1.051896E+04
       119  23 -1.594446E+05 -2.965619E+03  2.711780E+04 -5.481329E+03 -2.642321E+04 -9.880449E+03
       119  24 -1.553822E+05 -1.025069E+03  1.614323E+04 -1.849738E+04 -1.252240E+04 -8.476364E+03
       119  25  1.926348E+05  1.061268E+05  1.369070E+05 -2.400567E+04 -4.021327E+04 -1.051816E+04
       119  26  1.536284E+05  7.465293E+04  1.021446E+05 -6.818281E+03 -2.591969E+04 -9.879910E+03
       119  27  1.228112E+05  6.796823E+04  8.291075E+04 -1.567105E+04 -1.162674E+04 -8.476075E+03
       120   1 -3.879207E+05 -5.523607E+04 -4.266370E+04 -1.811246E+04  1.065056E+04  7.536801E+03
       120   2 -3.534337E+05 -4.892898E+04 -4.009121E+04 -5.381896E+03  7.228233E+03  6.166579E+03
       120   3 -3.178093E+05 -4.001645E+04 -3.462994E+04 -1.883653E+04  3.805084E+03  4.737474E+03
       120   4 -1.569271E+05  2.035833E+03  1.262954E+04 -1.853171E+04  9.977546E+03  7.536599E+03
       120   5 -1.574964E+05 -3.349665E+02  6.883715E+03 -5.439418E+03  6.524357E+03  6.166516E+03
       120   6 -1.569250E+05 -9.558383E+01  4.047176E+03 -1.853178E+04  3.070539E+03  4.737560E+03
       120   7  7.411552E+04  5.930387E+04  6.791902E+04 -1.895112E+04  9.304278E+03  7.536399E+03
       120   8  3.847621E+04  4.825626E+04  5.385592E+04 -5.496957E+03  5.820258E+03  6.166454E+03
       120   9  3.982943E+03  3.982340E+04  4.272245E+04 -1.822695E+04  2.335804E+03  4.737644E+03
       120  10 -3.879209E+05 -5.523616E+04 -4.266402E+04 -1.811253E+04 -4.398798E-10 -1.183905E-09
       120  11 -3.534338E+05 -4.892904E+04 -4.009138E+04 -5.381932E+03  2.587974E-10 -4.157116E-10
       120  12 -3.178093E+05 -4.001648E+04 -3.463001E+04 -1.883654E+04  1.576301E-09  9.286493E-10
       120  13 -1.569272E+05  2.035745E+03  1.262925E+04 -1.853178E+04 -2.155880E-09 -9.933448E-10
       120  14 -1.574964E+05 -3.350188E+02  6.883563E+03 -5.439450E+03 -1.108116E-09  1.690920E-10
       120  15 -1.569250E+05 -9.561047E+01  4.047116E+03 -1.853179E+04 -2.929897E-10  1.202311E-10
       120  16  7.411541E+04  5.930378E+04  6.791875E+04 -1.895118E+04 -1.427551E-10 -7.612516E-10
       120  17  3.847616E+04  4.825621E+04  5.385579E+04 -5.496986E+03 -5.251343E-10  8.650644E-10
       120  18  3.982932E+03  3.982337E+04  4.272240E+04 -1.822696E+04  8.673365E-10 -2.969594E-10
       120  19 -3.879207E+05 -5.523607E+04 -4.266370E+04 -1.811246E+04 -1.065056E+04 -7.536801E+03
       120  20 -3.534337E+05 -4.892898E+04 -4.009121E+04 -5.381896E+03 -7.228233E+03 -6.166579E+03
       120  21 -3.178093E+05 -4.001645E+04 -3.462994E+04 -1.883653E+04 -3.805084E+03 -4.737474E+03
       120  22 -1.569271E+05  2.035833E+03  1.262954E+04 -1.853171E+04 -9.977546E+03 -7.536599E+03
       120  23 -1.574964E+05 -3.349665E+02  6.883715E+03 -5.439418E+03 -6.524357E+03 -6.166516E+03
       120  24 -1.569250E+05 -9.558383E+01  4.047176E+03 -1.853178E+04 -3.070539E+03 -4.737560E+03
       120  25  7.411552E+04  5.930387E+04  6.791902E+04 -1.895112E+04 -9.304278E+03 -7.536399E+03
       120  26  3.847621E+04  4.825626E+04  5.385592E+04 -5.496957E+03 -5.820258E+03 -6.166454E+03
       120  27  3.982943E+03  3.982340E+04  4.272245E+04 -1.822695E+04 -2.335804E+03 -4.737644E+03
       121   1 -2.707086E+05 -2.793830E+04 -2.398843E+04 -1.852158E+04  3.144210E+03  3.895609E+03
       121   2 -2.356467E+05 -1.948549E+04 -1.696404E+04 -5.422183E+03  2.234017E+03  2.466989E+03
       121   3 -2.004048E+05 -1.074357E+04 -9.277326E+03 -1.857539E+04  1.323533E+03  1.033536E+03
       121   4 -1.571350E+05  2.063122E+02  3.133307E+03 -1.854676E+04  2.425773E+03  3.895757E+03
       121   5 -1.572241E+05 -3.744515E+01  1.836225E+03 -5.420586E+03  1.512973E+03  2.467191E+03
       121   6 -1.571340E+05  8.399529E+00  1.203232E+03 -1.854681E+04  5.999333E+02  1.033796E+03
       121   7 -4.354958E+04  2.834999E+04  3.025414E+04 -1.857193E+04  1.707204E+03  3.895905E+03
       121   8 -7.879597E+04  1.941015E+04  2.063605E+04 -5.418987E+03  7.918379E+02  2.467392E+03
       121   9 -1.138616E+05  1.076023E+04  1.168366E+04 -1.851824E+04 -1.237169E+02  1.034056E+03
       121  10 -2.707086E+05 -2.793832E+04 -2.398848E+04 -1.852159E+04 -2.125551E-09  7.454228E-10
       121  11 -2.356467E+05 -1.948550E+04 -1.696406E+04 -5.422188E+03 -1.927191E-09 -1.320292E-10
       121  12 -2.004048E+05 -1.074357E+04 -9.277331E+03 -1.857539E+04  8.894664E-10 -1.327979E-10
       121  13 -1.571350E+05  2.062943E+02  3.133267E+03 -1.854676E+04 -1.028337E-09  2.361811E-10
       121  14 -1.572242E+05 -3.745230E+01  1.836209E+03 -5.420589E+03 -1.664982E-09 -4.151932E-10
       121  15 -1.571340E+05  8.398285E+00  1.203229E+03 -1.854681E+04 -2.457266E-09 -8.103437E-10
       121  16 -4.354959E+04  2.834997E+04  3.025410E+04 -1.857194E+04 -7.683580E-11 -1.077696E-09
       121  17 -7.879597E+04  1.941015E+04  2.063604E+04 -5.418989E+03 -4.315556E-10  9.207742E-11
       121  18 -1.138616E+05  1.076023E+04  1.168365E+04 -1.851824E+04 -1.293028E-09 -1.245085E-09
       121  19 -2.707086E+05 -2.793830E+04 -2.398843E+04 -1.852158E+04 -3.144210E+03 -3.895609E+03
       121  20 -2.356467E+05 -1.948549E+04 -1.696404E+04 -5.422183E+03 -2.234017E+03 -2.466989E+03
       121  21 -2.004048E+05 -1.074357E+04 -9.277326E+03 -1.857539E+04 -1.323533E+03 -1.033536E+03
       121  22 -1.571350E+05  2.063122E+02  3.133307E+03 -1.854676E+04 -2.425773E+03 -3.895757E+03
       121  23 -1.572241E+05 -3.744515E+01  1.836225E+03 -5.420586E+03 -1.512973E+03 -2.467191E+03
       121  24 -1.571340E+05  8.399529E+00  1.203232E+03 -1.854681E+04 -5.999333E+02 -1.033796E+03
       121  25 -4.354958E+04  2.834999E+04  3.025414E+04 -1.857193E+04 -1.707204E+03 -3.895905E+03
       121  26 -7.879597E+04  1.941015E+04  2.063605E+04 -5.418987E+03 -7.918379E+02 -2.467392E+03
       121  27 -1.138616E+05  1.076023E+04  1.168366E+04 -1.851824E+04  1.237169E+02 -1.034056E+03
       122   1 -1.530432E+05  1.069518E+03  2.126907E+03 -1.854926E+04  1.121192E+03  1.974675E+02
       122   2 -1.179102E+05  9.729039E+03  1.032767E+04 -5.430017E+03  6.666337E+02 -1.236274E+03
       122   3 -8.270753E+04  1.850444E+04  1.884890E+04 -1.857321E+04  2.121773E+02 -2.665978E+03
       122   4 -1.571581E+05  2.762793E+01  1.033071E+03 -1.854905E+04  3.975905E+02  1.977372E+02
       122   5 -1.571927E+05 -1.196472E+01  9.111367E+02 -5.417774E+03 -5.493277E+01 -1.236035E+03
       122   6 -1.571586E+05  6.418718E+01  1.108467E+03 -1.854904E+04 -5.073282E+02 -2.665765E+03
       122   7 -1.612730E+05 -1.014263E+03 -6.076500E+01 -1.854884E+04 -3.260066E+02  1.980069E+02
       122   8 -1.964738E+05 -9.753080E+03 -8.505503E+03 -5.405532E+03 -7.764538E+02 -1.235796E+03
       122   9 -2.316046E+05 -1.837646E+04 -1.663235E+04 -1.852486E+04 -1.226748E+03 -2.665552E+03
       122  10 -1.530432E+05  1.069517E+03  2.126905E+03 -1.854926E+04 -7.376893E-10  1.960965E-10
       122  11 -1.179102E+05  9.729037E+03  1.032767E+04 -5.430016E+03 -2.997120E-09  4.374122E-10
       122  12 -8.270753E+04  1.850443E+04  1.884888E+04 -1.857321E+04 -1.240940E-09 -7.593998E-11
       122  13 -1.571581E+05  2.762784E+01  1.033070E+03 -1.854905E+04  6.314244E-11  6.244421E-11
       122  14 -1.571927E+05 -1.196636E+01  9.111339E+02 -5.417774E+03 -3.194618E-09  8.603972E-10
       122  15 -1.571586E+05  6.417948E+01  1.108454E+03 -1.854904E+04  3.157226E-10 -3.757610E-10
       122  16 -1.612730E+05 -1.014263E+03 -6.076527E+01 -1.854884E+04  1.185584E-10 -8.432793E-10
       122  17 -1.964738E+05 -9.753082E+03 -8.505507E+03 -5.405533E+03 -1.540456E-09  9.053860E-10
       122  18 -2.316046E+05 -1.837647E+04 -1.663237E+04 -1.852487E+04 -1.577755E-09  7.597166E-11
       122  19 -1.530432E+05  1.069518E+03  2.126907E+03 -1.854926E+04 -1.121192E+03 -1.974675E+02
       122  20 -1.179102E+05  9.729039E+03  1.032767E+04 -5.430017E+03 -6.666337E+02  1.236274E+03
       122  21 -8.270753E+04  1.850444E+04  1.884890E+04 -1.857321E+04 -2.121773E+02  2.665978E+03
       122  22 -1.571581E+05  2.762793E+01  1.033071E+03 -1.854905E+04 -3.975905E+02 -1.977372E+02
       122  23 -1.571927E+05 -1.196472E+01  9.111367E+02 -5.417774E+03  5.493277E+01  1.236035E+03
       122  24 -1.571586E+05  6.418718E+01  1.108467E+03 -1.854904E+04  5.073282E+02  2.665765E+03
       122  25 -1.612730E+05 -1.014263E+03 -6.076500E+01 -1.854884E+04  3.260066E+02 -1.980069E+02
       122  26 -1.964738E+05 -9.753080E+03 -8.505503E+03 -5.405532E+03  7.764538E+02  1.235796E+03
       122  27 -2.316046E+05 -1.837646E+04 -1.663235E+04 -1.852486E+04  1.226748E+03  2.665552E+03
       123   1 -3.529518E+04  3.020678E+04  3.061608E+04 -1.847474E+04  9.221285E+00 -3.507717E+03
       123   2 -3.596229E+02  3.881098E+04  3.964552E+04 -5.467772E+03 -1.039121E+03 -4.938005E+03
       123   3  3.491768E+04  4.816297E+04  4.954759E+04 -1.866990E+04 -2.087058E+03 -6.313982E+03
       123   4 -1.571019E+05 -1.774102E+01  1.312316E+03 -1.853729E+04 -7.253469E+02 -3.507549E+03
       123   5 -1.572706E+05 -9.585225E+01  2.035009E+03 -5.432502E+03 -1.746110E+03 -4.937956E+03
       123   6 -1.571039E+05  5.691090E+02  3.611305E+03 -1.853721E+04 -2.766408E+03 -6.314042E+03
       123   7 -2.788951E+05 -3.024334E+04 -2.799251E+04 -1.859983E+04 -1.459771E+03 -3.507380E+03
       123   8 -3.141591E+05 -3.900447E+04 -3.557724E+04 -5.397241E+03 -2.452921E+03 -4.937907E+03
       123   9 -3.490917E+05 -4.702742E+04 -4.232758E+04 -1.840456E+04 -3.445549E+03 -6.314103E+03
       123  10 -3.529518E+04  3.020676E+04  3.061606E+04 -1.847474E+04 -9.576716E-10 -1.180163E-11
       123  11 -3.596306E+02  3.881095E+04  3.964547E+04 -5.467776E+03 -1.584555E-09  1.633224E-10
       123  12  3.491767E+04  4.816292E+04  4.954751E+04 -1.866991E+04 -9.213371E-10  3.371639E-10
       123  13 -1.571019E+05 -1.775438E+01  1.312292E+03 -1.853729E+04 -2.198279E-09 -6.334425E-10
       123  14 -1.572706E+05 -9.587925E+01  2.034957E+03 -5.432509E+03 -3.327015E-09 -4.693580E-10
       123  15 -1.571039E+05  5.690642E+02  3.611216E+03 -1.853722E+04  2.895373E-10  6.892169E-10
       123  16 -2.788951E+05 -3.024335E+04 -2.799253E+04 -1.859983E+04  4.208411E-10 -3.306868E-10
       123  17 -3.141591E+05 -3.900450E+04 -3.557730E+04 -5.397251E+03 -2.587679E-09 -8.281965E-10
       123  18 -3.490917E+05 -4.702747E+04 -4.232768E+04 -1.840458E+04  1.183238E-09  9.928211E-10
       123  19 -3.529518E+04  3.020678E+04  3.061608E+04 -1.847474E+04 -9.221285E+00  3.507717E+03
       123  20 -3.596229E+02  3.881098E+04  3.964552E+04 -5.467772E+03  1.039121E+03  4.938005E+03
       123  21  3.491768E+04  4.816297E+04  4.954759E+04 -1.866990E+04  2.087058E+03  6.313982E+03
       123  22 -1.571019E+05 -1.774102E+01  1.312316E+03 -1.853729E+04  7.253469E+02  3.507549E+03
       123  23 -1.572706E+05 -9.585225E+01  2.035009E+03 -5.432502E+03  1.746110E+03  4.937956E+03
       123  24 -1.571039E+05  5.691090E+02  3.611305E+03 -1.853721E+04  2.766408E+03  6.314042E+03
       123  25 -2.788951E+05 -3.024334E+04 -2.799251E+04 -1.859983E+04  1.459771E+03  3.507380E+03
       123  26 -3.141591E+05 -3.900447E+04 -3.557724E+04 -5.397241E+03  2.452921E+03  4.937907E+03
       123  27 -3.490917E+05 -4.702742E+04 -4.232758E+04 -1.840456E+04  3.445549E+03  6.314103E+03
       124   1  8.258006E+04  5.904761E+04  6.202437E+04 -1.772719E+04 -2.607568E+03 -7.245499E+03
       124   2  1.163469E+05  6.713322E+04  7.336231E+04 -5.830817E+03 -6.889612E+03 -8.648775E+03
       124   3  1.525228E+05  8.224098E+04  8.926274E+04 -2.002158E+04 -1.117133E+04 -9.344273E+03
       124   4 -1.566626E+05 -2.893123E+02  4.589508E+03 -1.850984E+04 -3.492320E+03 -7.245656E+03
       124   5 -1.578376E+05 -8.459373E+02  7.653344E+03 -5.466669E+03 -7.416037E+03 -8.649110E+03
       124   6 -1.566655E+05  5.559226E+03  1.503237E+04 -1.851129E+04 -1.133919E+04 -9.344659E+03
       124   7 -3.958529E+05 -5.963039E+04 -5.284942E+04 -1.929218E+04 -4.376733E+03 -7.245811E+03
       124   8 -4.319531E+05 -6.883055E+04 -5.806094E+04 -5.102685E+03 -7.942230E+03 -8.649446E+03
       124   9 -4.657663E+05 -7.112947E+04 -5.920478E+04 -1.700176E+04 -1.150696E+04 -9.345046E+03
       124  10  8.258004E+04  5.904755E+04  6.202426E+04 -1.772721E+04 -1.225713E-09  2.280373E-10
       124  11  1.163468E+05  6.713312E+04  7.336208E+04 -5.830865E+03  5.451885E-11 -5.781815E-11
       124  12  1.525227E+05  8.224085E+04  8.926234E+04 -2.002166E+04 -1.934626E-09 -6.633860E-11
       124  13 -1.566627E+05 -2.893720E+02  4.589386E+03 -1.850986E+04 -8.421563E-12  4.916551E-10
       124  14 -1.578377E+05 -8.460324E+02  7.653100E+03 -5.466721E+03 -1.093851E-09 -3.252832E-10
       124  15 -1.566657E+05  5.559097E+03  1.503197E+04 -1.851138E+04  2.176889E-09 -2.532796E-12
       124  16 -3.958530E+05 -5.963046E+04 -5.284955E+04 -1.929221E+04  1.005656E-10  8.839998E-10
       124  17 -4.319532E+05 -6.883065E+04 -5.806120E+04 -5.102741E+03 -2.033955E-09 -8.644436E-10
       124  18 -4.657664E+05 -7.112960E+04 -5.920520E+04 -1.700185E+04  1.942662E-09  3.168043E-10
       124  19  8.258006E+04  5.904761E+04  6.202437E+04 -1.772719E+04  2.607568E+03  7.245499E+03
       124  20  1.163469E+05  6.713322E+04  7.336231E+04 -5.830817E+03  6.889612E+03  8.648775E+03
       124  21  1.525228E+05  8.224098E+04  8.926274E+04 -2.002158E+04  1.117133E+04  9.344273E+03
       124  22 -1.566626E+05 -2.893123E+02  4.589508E+03 -1.850984E+04  3.492320E+03  7.245656E+03
       124  23 -1.578376E+05 -8.459373E+02  7.653344E+03 -5.466669E+03  7.416037E+03  8.649110E+03
       124  24 -1.566655E+05  5.559226E+03  1.503237E+04 -1.851129E+04  1.133919E+04  9.344659E+03
       124  25 -3.958529E+05 -5.963039E+04 -5.284942E+04 -1.929218E+04  4.376733E+03  7.245811E+03
       124  26 -4.319531E+05 -6.883055E+04 -5.806094E+04 -5.102685E+03  7.942230E+03  8.649446E+03
       124  27 -4.657663E+05 -7.112947E+04 -5.920478E+04 -1.700176E+04  1.150696E+04  9.345046E+03
       125   1  2.031735E+05  8.553295E+04  1.036990E+05 -1.125733E+04 -1.127275E+04 -1.150732E+04
       125   2  2.282668E+05  8.916109E+04  1.229456E+05 -1.022770E+04 -3.192736E+04 -1.260963E+04
       125   3  2.728952E+05  1.593258E+05  1.723141E+05 -3.493248E+04 -5.259070E+04 -4.259622E+03
       125   4 -1.530372E+05 -2.768590E+03  1.842379E+04 -1.841886E+04 -1.420063E+04 -1.150886E+04
       125   5 -1.623960E+05 -7.665486E+03  2.941872E+04 -5.574128E+03 -3.008098E+04 -1.260918E+04
       125   6 -1.530371E+05  5.316756E+04  6.723258E+04 -1.846412E+04 -4.596883E+04 -4.255339E+03
       125   7 -5.091315E+05 -9.107914E+04 -6.686027E+04 -2.557627E+04 -1.712683E+04 -1.151033E+04
       125   8 -5.529190E+05 -1.045031E+05 -6.411897E+04 -9.235221E+02 -2.823576E+04 -1.260870E+04
       125   9 -5.788038E+05 -5.300315E+04 -3.786203E+04 -2.007113E+03 -3.935148E+04 -4.250704E+03
       125  10  2.031733E+05  8.553277E+04  1.036985E+05 -1.125743E+04  7.023648E-10  9.050144E-11
       125  11  2.282656E+05  8.916065E+04  1.229434E+05 -1.022802E+04 -2.448716E-09  3.000015E-10
       125  12  2.728922E+05  1.593250E+05  1.723088E+05 -3.493266E+04  6.301045E-10  4.951672E-10
       125  13 -1.530375E+05 -2.768786E+03  1.842317E+04 -1.841899E+04  1.208241E-10 -4.146684E-10
       125  14 -1.623971E+05 -7.665900E+03  2.941672E+04 -5.574434E+03 -2.107513E-09  2.083189E-10
       125  15 -1.530394E+05  5.316697E+04  6.722857E+04 -1.846428E+04  5.809240E-10 -3.340632E-10
       125  16 -5.091318E+05 -9.107936E+04 -6.686107E+04 -2.557643E+04 -1.198091E-09  6.831256E-10
       125  17 -5.529199E+05 -1.045034E+05 -6.412077E+04 -9.238089E+02 -1.271193E-09 -4.369164E-10
       125  18 -5.788055E+05 -5.300359E+04 -3.786498E+04 -2.007247E+03 -6.838660E-10  6.072973E-10
       125  19  2.031735E+05  8.553295E+04  1.036990E+05 -1.125733E+04  1.127275E+04  1.150732E+04
       125  20  2.282668E+05  8.916109E+04  1.229456E+05 -1.022770E+04  3.192736E+04  1.260963E+04
       125  21  2.728952E+05  1.593258E+05  1.723141E+05 -3.493248E+04  5.259070E+04  4.259622E+03
       125  22 -1.530372E+05 -2.768590E+03  1.842379E+04 -1.841886E+04  1.420063E+04  1.150886E+04
       125  23 -1.623960E+05 -7.665486E+03  2.941872E+04 -5.574128E+03  3.008098E+04  1.260918E+04
       125  24 -1.530371E+05  5.316756E+04  6.723258E+04 -1.846412E+04  4.596883E+04  4.255339E+03
       125  25 -5.091315E+05 -9.107914E+04 -6.686027E+04 -2.557627E+04  1.712683E+04  1.151033E+04
       125  26 -5.529190E+05 -1.045031E+05 -6.411897E+04 -9.235221E+02  2.823576E+04  1.260870E+04
       125  27 -5.788038E+05 -5.300315E+04 -3.786203E+04 -2.007113E+03  3.935148E+04  4.250704E+03
       126   1  4.752902E+05  5.538616E+05  4.636291E+05 -2.100329E+05  1.840216E+04  1.347391E+04
       126   2  3.930339E+05  1.417657E+05  3.613938E+05 -6.182178E+04  5.103855E+04 -2.354364E+03
       126   3  2.896806E+05 -2.725368E+05  2.643854E+05 -2.204280E+05  3.610107E+04 -1.829338E+04
       126   4 -2.070647E+04 -1.434273E+06 -2.755256E+04 -2.140552E+05  1.846092E+04 -1.493140E+04
       126   5  2.974280E+03 -1.430873E+06 -1.527534E+04 -6.059765E+04  5.105938E+04 -6.779474E+03
       126   6  1.371341E+03 -1.434016E+06 -1.443191E+04 -2.140091E+05  3.603044E+04  1.251397E+03
       126   7 -5.169982E+05 -3.418811E+06 -5.190248E+05 -2.180623E+05  1.852017E+04 -4.324583E+04
       126   8 -3.872651E+05 -3.001243E+06 -3.921196E+05 -5.937497E+04  5.108023E+04 -1.119340E+04
       126   9 -2.870359E+05 -2.594258E+06 -2.933436E+05 -2.076010E+05  3.596014E+04  2.075973E+04
       126  10  4.752898E+05  5.538613E+05  4.636281E+05 -2.100331E+05  3.887251E-10 -1.928493E-10
       126  11  3.930311E+05  1.417650E+05  3.613889E+05 -6.182169E+04  1.996596E-10 -4.545772E-09
       126  12  2.896791E+05 -2.725375E+05  2.643823E+05 -2.204275E+05 -1.108391E-09 -1.518200E-09
       126  13 -2.070689E+04 -1.434274E+06 -2.755362E+04 -2.140550E+05 -1.410205E-09  8.489325E-10
       126  14  2.971470E+03 -1.430874E+06 -1.528032E+04 -6.059737E+04  1.482056E-09 -2.899433E-09
       126  15  1.369948E+03 -1.434017E+06 -1.443435E+04 -2.140092E+05 -4.658448E-10  1.280717E-09
       126  16 -5.169991E+05 -3.418813E+06 -5.190290E+05 -2.180616E+05 -1.362973E-09  2.953912E-10
       126  17 -3.872679E+05 -3.001244E+06 -3.921247E+05 -5.937451E+04  5.776576E-10  1.366432E-09
       126  18 -2.870374E+05 -2.594259E+06 -2.933468E+05 -2.076016E+05  9.383965E-10  9.447394E-10
       126  19  4.752902E+05  5.538616E+05  4.636291E+05 -2.100329E+05 -1.840216E+04 -1.347391E+04
       126  20  3.930339E+05  1.417657E+05  3.613938E+05 -6.182178E+04 -5.103855E+04  2.354364E+03
       126  21  2.896806E+05 -2.725368E+05  2.643854E+05 -2.204280E+05 -3.610107E+04  1.829338E+04
       126  22 -2.070647E+04 -1.434273E+06 -2.755256E+04 -2.140552E+05 -1.846092E+04  1.493140E+04
       126  23  2.974280E+03 -1.430873E+06 -1.527534E+04 -6.059765E+04 -5.105938E+04  6.779474E+03
       126  24  1.371341E+03 -1.434016E+06 -1.443191E+04 -2.140091E+05 -3.603044E+04 -1.251397E+03
       126  25 -5.169982E+05 -3.418811E+06 -5.190248E+05 -2.180623E+05 -1.852017E+04  4.324583E+04
       126  26 -3.872651E+05 -3.001243E+06 -3.921196E+05 -5.937497E+04 -5.108023E+04  1.119340E+04
       126  27 -2.870359E+05 -2.594258E+06 -2.933436E+05 -2.076010E+05 -3.596014E+04 -2.075973E+04
       127   1  1.486206E+05 -8.348274E+05  1.281996E+05 -2.144907E+05  1.899023E+04 -2.757384E+03
       127   2  4.779762E+04 -1.248485E+06  2.393165E+04 -6.043426E+04  5.707463E+03  6.974846E+03
       127   3 -6.919803E+04 -1.670305E+06 -9.139336E+04 -2.183663E+05 -8.159149E+03  1.669253E+04
       127   4 -1.328499E+02 -1.434148E+06 -1.558606E+04 -2.151525E+05  1.896441E+04  3.761440E+03
       127   5  2.729386E+03 -1.429955E+06 -1.962296E+04 -5.917670E+04  5.679450E+03  1.378255E+04
       127   6 -1.062044E+04 -1.434131E+06 -3.490620E+04 -2.151966E+05 -8.189861E+03  2.379560E+04
       127   7 -1.489124E+05 -2.033140E+06 -1.593971E+05 -2.158132E+05  1.893857E+04  1.027399E+04
       127   8 -4.234122E+04 -1.611394E+06 -6.317975E+04 -5.791948E+04  5.651461E+03  2.058827E+04
       127   9  4.795318E+04 -1.197906E+06  2.157722E+04 -2.120256E+05 -8.220493E+03  3.090136E+04
       127  10  1.486202E+05 -8.348276E+05  1.281989E+05 -2.144906E+05 -1.848007E-09 -5.048241E-10
       127  11  4.779757E+04 -1.248485E+06  2.393150E+04 -6.043429E+04 -1.017700E-10 -6.012038E-09
       127  12 -6.919818E+04 -1.670306E+06 -9.139401E+04 -2.183662E+05 -1.006268E-09 -1.221184E-09
       127  13 -1.332397E+02 -1.434149E+06 -1.558676E+04 -2.151525E+05  9.934509E-10  2.038327E-09
       127  14  2.729300E+03 -1.429955E+06 -1.962338E+04 -5.917676E+04  2.255476E-09 -4.132078E-09
       127  15 -1.062066E+04 -1.434132E+06 -3.490739E+04 -2.151964E+05  2.699412E-10  1.458942E-09
       127  16 -1.489128E+05 -2.033140E+06 -1.593979E+05 -2.158134E+05 -1.447110E-09  4.425502E-10
       127  17 -4.234137E+04 -1.611394E+06 -6.318060E+04 -5.791957E+04 -5.102717E-10  1.079620E-09
       127  18  4.795285E+04 -1.197907E+06  2.157530E+04 -2.120254E+05 -1.249565E-09  5.855923E-10
       127  19  1.486206E+05 -8.348274E+05  1.281996E+05 -2.144907E+05 -1.899023E+04  2.757384E+03
       127  20  4.779762E+04 -1.248485E+06  2.393165E+04 -6.043426E+04 -5.707463E+03 -6.974846E+03
       127  21 -6.919803E+04 -1.670305E+06 -9.139336E+04 -2.183663E+05  8.159149E+03 -1.669253E+04
       127  22 -1.328499E+02 -1.434148E+06 -1.558606E+04 -2.151525E+05 -1.896441E+04 -3.761440E+03
       127  23  2.729386E+03 -1.429955E+06 -1.962296E+04 -5.917670E+04 -5.679450E+03 -1.378255E+04
       127  24 -1.062044E+04 -1.434131E+06 -3.490620E+04 -2.151966E+05  8.189861E+03 -2.379560E+04
       127  25 -1.489124E+05 -2.033140E+06 -1.593971E+05 -2.158132E+05 -1.893857E+04 -1.027399E+04
       127  26 -4.234122E+04 -1.611394E+06 -6.317975E+04 -5.791948E+04 -5.651461E+03 -2.058827E+04
       127  27  4.795318E+04 -1.197906E+06  2.157722E+04 -2.120256E+05  8.220493E+03 -3.090136E+04
       128   1 -1.911607E+05 -2.240605E+06 -2.342216E+05 -1.961444E+05 -2.424790E+04  1.248877E+04
       128   2 -2.839472E+05 -2.632896E+06 -3.567713E+05 -6.788786E+04 -3.972558E+04  6.814422E+04
       128   3 -5.243061E+05 -3.070014E+06 -5.527850E+05 -2.485739E+05 -1.507561E+04  1.238910E+05
       128   4  7.591672E+03 -1.441609E+06 -4.195680E+04 -2.143653E+05 -2.432057E+04  3.027204E+04
       128   5  1.704328E+04 -1.421058E+06 -6.607598E+04 -6.007928E+04 -3.971154E+04  6.582991E+04
       128   6 -1.174049E+05 -1.441885E+06 -1.495580E+05 -2.147171E+05 -1.500476E+04  1.015176E+05
       128   7  2.062986E+05 -6.420246E+05  1.502638E+05 -2.326092E+05 -2.439424E+04  4.807816E+04
       128   8  3.179272E+05 -2.078697E+05  2.245152E+05 -5.225417E+04 -3.969758E+04  6.351099E+04
       128   9  2.893024E+05  1.886670E+05  2.534740E+05 -1.807691E+05 -1.493648E+04  7.908509E+04
       128  10 -1.911613E+05 -2.240606E+06 -2.342230E+05 -1.961441E+05 -1.477102E-09 -5.298658E-10
       128  11 -2.839502E+05 -2.632902E+06 -3.567830E+05 -6.788567E+04 -1.429473E-09 -4.651020E-09
       128  12 -5.243104E+05 -3.070031E+06 -5.528144E+05 -2.485724E+05 -6.344243E-10  7.417176E-11
       128  13  7.590790E+03 -1.441610E+06 -4.195963E+04 -2.143647E+05 -3.284373E-09  2.118314E-09
       128  14  1.704042E+04 -1.421064E+06 -6.608711E+04 -6.007718E+04 -6.425015E-10 -3.446030E-09
       128  15 -1.174079E+05 -1.441896E+06 -1.495778E+05 -2.147159E+05  1.502370E-10  7.394553E-10
       128  16  2.062974E+05 -6.420273E+05  1.502583E+05 -2.326082E+05 -1.136732E-09  5.566656E-10
       128  17  3.179244E+05 -2.078745E+05  2.245046E+05 -5.225214E+04 -1.904523E-09  6.817922E-10
       128  18  2.893005E+05  1.886602E+05  2.534619E+05 -1.807681E+05  3.961910E-10 -5.966889E-10
       128  19 -1.911607E+05 -2.240605E+06 -2.342216E+05 -1.961444E+05  2.424790E+04 -1.248877E+04
       128  20 -2.839472E+05 -2.632896E+06 -3.567713E+05 -6.788786E+04  3.972558E+04 -6.814422E+04
       128  21 -5.243061E+05 -3.070014E+06 -5.527850E+05 -2.485739E+05  1.507561E+04 -1.238910E+05
       128  22  7.591672E+03 -1.441609E+06 -4.195680E+04 -2.143653E+05  2.432057E+04 -3.027204E+04
       128  23  1.704328E+04 -1.421058E+06 -6.607598E+04 -6.007928E+04  3.971154E+04 -6.582991E+04
       128  24 -1.174049E+05 -1.441885E+06 -1.495580E+05 -2.147171E+05  1.500476E+04 -1.015176E+05
       128  25  2.062986E+05 -6.420246E+05  1.502638E+05 -2.326092E+05  2.439424E+04 -4.807816E+04
       128  26  3.179272E+05 -2.078697E+05  2.245152E+05 -5.225417E+04  3.969758E+04 -6.351099E+04
       128  27  2.893024E+05  1.886670E+05  2.534740E+05 -1.807691E+05  1.493648E+04 -7.908509E+04
       129   1 -2.274007E+06 -5.719456E+05 -2.807013E+05 -8.222700E+05 -1.310873E+05 -4.564810E+04
       129   2 -2.234764E+06 -3.745951E+05 -1.578075E+05 -8.361982E+05 -8.515334E+04 -2.101566E+04
       129   3 -2.258712E+06 -3.687669E+05 -1.204330E+05 -8.160637E+05 -3.651543E+04 -3.564159E+03
       129   4 -1.999623E+06 -4.259087E+05 -1.975116E+05 -7.041564E+05 -1.264077E+05 -4.389836E+04
       129   5 -1.958081E+06 -2.583363E+05 -8.229261E+04 -7.483007E+05 -8.383511E+04 -2.052226E+04
       129   6 -1.979032E+06 -2.815728E+05 -4.989327E+04 -7.583918E+05 -3.855915E+04 -4.331396E+03
       129   7 -1.725162E+06 -2.798425E+05 -1.143293E+05 -5.859883E+05 -1.217258E+05 -4.214694E+04
       129   8 -1.681324E+06 -1.420675E+05 -6.784696E+03 -6.603658E+05 -8.251623E+04 -2.002854E+04
       129   9 -1.699275E+06 -1.943791E+05  2.064074E+04 -7.006990E+05 -4.060389E+04 -5.098866E+03
       129  10 -2.274026E+06 -5.719524E+05 -2.807376E+05 -8.222748E+05 -3.309418E-11  3.393899E-10
       129  11 -2.234772E+06 -3.745976E+05 -1.578220E+05 -8.361997E+05 -8.642568E-10 -8.706643E-10
       129  12 -2.258714E+06 -3.687673E+05 -1.204355E+05 -8.160638E+05  1.529945E-09 -5.668587E-10
       129  13 -1.999641E+06 -4.259151E+05 -1.975454E+05 -7.041608E+05 -4.527997E-10  5.336536E-10
       129  14 -1.958089E+06 -2.583387E+05 -8.230666E+04 -7.483021E+05  2.567309E-09 -1.564464E-09
       129  15 -1.979034E+06 -2.815733E+05 -4.989611E+04 -7.583920E+05 -2.463292E-09 -5.920681E-10
       129  16 -1.725179E+06 -2.798484E+05 -1.143606E+05 -5.859925E+05  1.108591E-09  1.173703E-10
       129  17 -1.681331E+06 -1.420698E+05 -6.798287E+03 -6.603671E+05 -1.174873E-09 -4.275338E-10
       129  18 -1.699277E+06 -1.943796E+05  2.063759E+04 -7.006991E+05 -2.987146E-09 -4.821247E-10
       129  19 -2.274007E+06 -5.719456E+05 -2.807013E+05 -8.222700E+05  1.310873E+05  4.564810E+04
       129  20 -2.234764E+06 -3.745951E+05 -1.578075E+05 -8.361982E+05  8.515334E+04  2.101566E+04
       129  21 -2.258712E+06 -3.687669E+05 -1.204330E+05 -8.160637E+05  3.651543E+04  3.564159E+03
       129  22 -1.999623E+06 -4.259087E+05 -1.975116E+05 -7.041564E+05  1.264077E+05  4.389836E+04
       129  23 -1.958081E+06 -2.583363E+05 -8.229261E+04 -7.483007E+05  8.383511E+04  2.052226E+04
       129  24 -1.979032E+06 -2.815728E+05 -4.989327E+04 -7.583918E+05  3.855915E+04  4.331396E+03
       129  25 -1.725162E+06 -2.798425E+05 -1.143293E+05 -5.859883E+05  1.217258E+05  4.214694E+04
       129  26 -1.681324E+06 -1.420675E+05 -6.784696E+03 -6.603658E+05  8.251623E+04  2.002854E+04
       129  27 -1.699275E+06 -1.943791E+05  2.064074E+04 -7.006990E+05  4.060389E+04  5.098866E+03
       130   1 -2.205541E+06 -3.947198E+05 -1.033593E+05 -8.149801E+05 -3.086811E+04 -3.201910E+03
       130   2 -2.186793E+06 -3.598658E+05 -7.625040E+04 -8.045586E+05 -2.033869E+04  3.634707E+02
       130   3 -2.164177E+06 -3.577187E+05 -6.234572E+04 -8.037003E+05 -9.576105E+03  3.308019E+03
       130   4 -1.972248E+06 -3.025906E+05 -4.061011E+04 -7.469758E+05 -3.089084E+04 -3.210927E+03
       130   5 -1.973078E+06 -2.783284E+05 -1.943352E+04 -7.451712E+05 -2.064977E+04  2.463989E+02
       130   6 -1.969981E+06 -2.867110E+05 -1.122807E+04 -7.529301E+05 -1.017594E+04  3.082725E+03
       130   7 -1.738902E+06 -2.104566E+05  2.213426E+04 -6.789477E+05 -3.091357E+04 -3.219946E+03
       130   8 -1.759320E+06 -1.967880E+05  3.737928E+04 -6.857652E+05 -2.096096E+04  1.292819E+02
       130   9 -1.775750E+06 -2.157016E+05  3.988622E+04 -7.021460E+05 -1.077598E+04  2.857359E+03
       130  10 -2.205542E+06 -3.947201E+05 -1.033612E+05 -8.149802E+05  6.468722E-10 -5.064069E-10
       130  11 -2.186793E+06 -3.598659E+05 -7.625118E+04 -8.045586E+05  2.112350E-09 -1.708625E-10
       130  12 -2.164177E+06 -3.577188E+05 -6.234592E+04 -8.037002E+05  9.936563E-10  3.940978E-10
       130  13 -1.972249E+06 -3.025908E+05 -4.061193E+04 -7.469758E+05 -1.117454E-09 -3.419311E-10
       130  14 -1.973079E+06 -2.783285E+05 -1.943433E+04 -7.451712E+05 -1.996837E-09 -1.103484E-10
       130  15 -1.969981E+06 -2.867110E+05 -1.122828E+04 -7.529301E+05 -1.428925E-09  1.896229E-10
       130  16 -1.738903E+06 -2.104568E+05  2.213244E+04 -6.789478E+05 -6.066913E-10 -1.584891E-10
       130  17 -1.759321E+06 -1.967881E+05  3.737845E+04 -6.857652E+05  1.438890E-09 -4.589451E-10
       130  18 -1.775750E+06 -2.157017E+05  3.988598E+04 -7.021460E+05 -1.601145E-10  7.199157E-12
       130  19 -2.205541E+06 -3.947198E+05 -1.033593E+05 -8.149801E+05  3.086811E+04  3.201910E+03
       130  20 -2.186793E+06 -3.598658E+05 -7.625040E+04 -8.045586E+05  2.033869E+04 -3.634707E+02
       130  21 -2.164177E+06 -3.577187E+05 -6.234572E+04 -8.037003E+05  9.576105E+03 -3.308019E+03
       130  22 -1.972248E+06 -3.025906E+05 -4.061011E+04 -7.469758E+05  3.089084E+04  3.210927E+03
       130  23 -1.973078E+06 -2.783284E+05 -1.943352E+04 -7.451712E+05  2.064977E+04 -2.463989E+02
       130  24 -1.969981E+06 -2.867110E+05 -1.122807E+04 -7.529301E+05  1.017594E+04 -3.082725E+03
       130  25 -1.738902E+06 -2.104566E+05  2.213426E+04 -6.789477E+05  3.091357E+04  3.219946E+03
       130  26 -1.759320E+06 -1.967880E+05  3.737928E+04 -6.857652E+05  2.096096E+04 -1.292819E+02
       130  27 -1.775750E+06 -2.157016E+05  3.988622E+04 -7.021460E+05  1.077598E+04 -2.857359E+03
       131   1 -2.127863E+06 -3.493556E+05 -5.089554E+04 -7.955806E+05 -7.870115E+03  3.189884E+03
       131   2 -2.110554E+06 -3.313472E+05 -4.048363E+04 -7.815336E+05 -5.135070E+03  3.108040E+03
       131   3 -2.080598E+06 -3.293238E+05 -3.243420E+04 -7.827463E+05 -2.372492E+03  2.952219E+03
       131   4 -1.968914E+06 -2.891820E+05 -8.790493E+03 -7.518772E+05 -8.310937E+03  3.024324E+03
       131   5 -1.975116E+06 -2.803288E+05 -4.599237E+03 -7.445704E+05 -5.610106E+03  2.929725E+03
       131   6 -1.968665E+06 -2.874536E+05 -2.742857E+03 -7.525235E+05 -2.881850E+03  2.761118E+03
       131   7 -1.809939E+06 -2.290066E+05  3.331249E+04 -7.081635E+05 -8.751884E+03  2.858716E+03
       131   8 -1.839659E+06 -2.293093E+05  3.128363E+04 -7.075999E+05 -6.085258E+03  2.751366E+03
       131   9 -1.856720E+06 -2.455826E+05  2.694741E+04 -7.222957E+05 -3.391309E+03  2.569979E+03
       131  10 -2.127863E+06 -3.493556E+05 -5.089567E+04 -7.955806E+05 -9.853380E-10  3.608825E-10
       131  11 -2.110554E+06 -3.313472E+05 -4.048370E+04 -7.815335E+05  3.891631E-09 -9.855941E-10
       131  12 -2.080598E+06 -3.293238E+05 -3.243423E+04 -7.827463E+05  3.051209E-09 -7.076082E-10
       131  13 -1.968914E+06 -2.891820E+05 -8.790640E+03 -7.518772E+05 -2.110261E-09  1.127302E-10
       131  14 -1.975116E+06 -2.803288E+05 -4.599313E+03 -7.445704E+05 -1.811352E-09 -7.602375E-10
       131  15 -1.968665E+06 -2.874536E+05 -2.742887E+03 -7.525234E+05 -8.251944E-11 -7.930709E-10
       131  16 -1.809940E+06 -2.290066E+05  3.331233E+04 -7.081635E+05 -7.866680E-10 -3.902946E-10
       131  17 -1.839659E+06 -2.293093E+05  3.128354E+04 -7.075998E+05  9.988909E-10 -3.566371E-11
       131  18 -1.856720E+06 -2.455826E+05  2.694737E+04 -7.222957E+05 -6.662965E-10 -3.360817E-10
       131  19 -2.127863E+06 -3.493556E+05 -5.089554E+04 -7.955806E+05  7.870115E+03 -3.189884E+03
       131  20 -2.110554E+06 -3.313472E+05 -4.048363E+04 -7.815336E+05  5.135070E+03 -3.108040E+03
       131  21 -2.080598E+06 -3.293238E+05 -3.243420E+04 -7.827463E+05  2.372492E+03 -2.952219E+03
       131  22 -1.968914E+06 -2.891820E+05 -8.790493E+03 -7.518772E+05  8.310937E+03 -3.024324E+03
       131  23 -1.975116E+06 -2.803288E+05 -4.599237E+03 -7.445704E+05  5.610106E+03 -2.929725E+03
       131  24 -1.968665E+06 -2.874536E+05 -2.742857E+03 -7.525235E+05  2.881850E+03 -2.761118E+03
       131  25 -1.809939E+06 -2.290066E+05  3.331249E+04 -7.081635E+05  8.751884E+03 -2.858716E+03
       131  26 -1.839659E+06 -2.293093E+05  3.128363E+04 -7.075999E+05  6.085258E+03 -2.751366E+03
       131  27 -1.856720E+06 -2.455826E+05  2.694741E+04 -7.222957E+05  3.391309E+03 -2.569979E+03
       132   1 -2.044614E+06 -3.164798E+05 -2.231667E+04 -7.733091E+05 -1.740982E+03  2.475223E+03
       132   2 -2.026930E+06 -2.997687E+05 -1.519847E+04 -7.583746E+05 -5.451305E+02  1.706388E+03
       132   3 -1.995123E+06 -2.977050E+05 -8.754063E+03 -7.598196E+05  6.560463E+02  9.230178E+02
       132   4 -1.968429E+06 -2.878125E+05 -2.225502E+03 -7.525258E+05 -2.239870E+03  2.288092E+03
       132   5 -1.975480E+06 -2.804175E+05 -1.572821E+03 -7.443628E+05 -1.050773E+03  1.516759E+03
       132   6 -1.968407E+06 -2.876686E+05 -1.588508E+03 -7.525793E+05  1.436113E+02  7.308800E+02
       132   7 -1.892237E+06 -2.591449E+05  1.786515E+04 -7.317401E+05 -2.738826E+03  2.100937E+03
       132   8 -1.924027E+06 -2.610663E+05  1.205256E+04 -7.303499E+05 -1.556461E+03  1.327113E+03
       132   9 -1.941692E+06 -2.776322E+05  5.576946E+03 -7.453388E+05 -3.688454E+02  5.387340E+02
       132  10 -2.044615E+06 -3.164798E+05 -2.231669E+04 -7.733091E+05  2.690473E-09  1.320084E-10
       132  11 -2.026930E+06 -2.997687E+05 -1.519848E+04 -7.583746E+05  4.960382E-10  1.081262E-10
       132  12 -1.995123E+06 -2.977050E+05 -8.754065E+03 -7.598196E+05 -6.727719E-11  3.262999E-10
       132  13 -1.968429E+06 -2.878125E+05 -2.225522E+03 -7.525258E+05 -4.817858E-10 -5.134145E-10
       132  14 -1.975480E+06 -2.804175E+05 -1.572827E+03 -7.443628E+05 -1.600978E-09  1.179348E-09
       132  15 -1.968407E+06 -2.876686E+05 -1.588509E+03 -7.525793E+05 -7.057713E-11 -1.598335E-10
       132  16 -1.892237E+06 -2.591449E+05  1.786512E+04 -7.317401E+05 -1.623381E-09 -5.156114E-10
       132  17 -1.924027E+06 -2.610663E+05  1.205255E+04 -7.303499E+05  5.131806E-10  3.009550E-10
       132  18 -1.941692E+06 -2.776322E+05  5.576945E+03 -7.453388E+05  2.789354E-09  5.402518E-10
       132  19 -2.044614E+06 -3.164798E+05 -2.231667E+04 -7.733091E+05  1.740982E+03 -2.475223E+03
       132  20 -2.026930E+06 -2.997687E+05 -1.519847E+04 -7.583746E+05  5.451305E+02 -1.706388E+03
       132  21 -1.995123E+06 -2.977050E+05 -8.754063E+03 -7.598196E+05 -6.560463E+02 -9.230178E+02
       132  22 -1.968429E+06 -2.878125E+05 -2.225502E+03 -7.525258E+05  2.239870E+03 -2.288092E+03
       132  23 -1.975480E+06 -2.804175E+05 -1.572821E+03 -7.443628E+05  1.050773E+03 -1.516759E+03
       132  24 -1.968407E+06 -2.876686E+05 -1.588508E+03 -7.525793E+05 -1.436113E+02 -7.308800E+02
       132  25 -1.892237E+06 -2.591449E+05  1.786515E+04 -7.317401E+05  2.738826E+03 -2.100937E+03
       132  26 -1.924027E+06 -2.610663E+05  1.205256E+04 -7.303499E+05  1.556461E+03 -1.327113E+03
       132  27 -1.941692E+06 -2.776322E+05  5.576946E+03 -7.453388E+05  3.688454E+02 -5.387340E+02
       133   1 -1.958659E+06 -2.840335E+05  8.860673E+02 -7.500390E+05  1.172359E+03  3.924185E+02
       133   2 -1.940888E+06 -2.673744E+05  6.482152E+03 -7.349481E+05  2.913165E+03 -1.907632E+02
       133   3 -1.909131E+06 -2.657111E+05  1.092218E+04 -7.362392E+05  4.649872E+03 -7.626031E+02
       133   4 -1.968424E+06 -2.876493E+05 -1.781533E+03 -7.526163E+05  6.597047E+02  2.002026E+02
       133   5 -1.975447E+06 -2.803596E+05 -2.667184E+03 -7.443473E+05  2.405756E+03 -3.810405E+02
       133   6 -1.968485E+06 -2.880669E+05 -4.712967E+03 -7.524605E+05  4.147646E+03 -9.509611E+02
       133   7 -1.978189E+06 -2.912650E+05 -4.449158E+03 -7.551936E+05  1.470563E+02  7.988774E+00
       133   8 -2.010005E+06 -2.933449E+05 -1.181667E+04 -7.537460E+05  1.898375E+03 -5.713071E+02
       133   9 -2.027836E+06 -3.104226E+05 -2.034847E+04 -7.686805E+05  3.645471E+03 -1.139300E+03
       133  10 -1.958659E+06 -2.840335E+05  8.860645E+02 -7.500390E+05  2.098881E-09 -2.061929E-11
       133  11 -1.940888E+06 -2.673744E+05  6.482136E+03 -7.349481E+05  2.370205E-09 -1.042906E-09
       133  12 -1.909131E+06 -2.657111E+05  1.092214E+04 -7.362392E+05 -2.543258E-09 -4.820209E-10
       133  13 -1.968424E+06 -2.876493E+05 -1.781534E+03 -7.526163E+05  8.538893E-10  2.958968E-10
       133  14 -1.975447E+06 -2.803596E+05 -2.667195E+03 -7.443473E+05  2.478496E-09 -3.683412E-10
       133  15 -1.968485E+06 -2.880669E+05 -4.713001E+03 -7.524605E+05 -3.307696E-09 -4.358993E-10
       133  16 -1.978189E+06 -2.912650E+05 -4.449158E+03 -7.551936E+05  1.112280E-09  2.912451E-10
       133  17 -2.010005E+06 -2.933449E+05 -1.181668E+04 -7.537460E+05  1.098150E-09 -2.710863E-10
       133  18 -2.027836E+06 -3.104226E+05 -2.034850E+04 -7.686805E+05 -2.390204E-09  2.015635E-10
       133  19 -1.958659E+06 -2.840335E+05  8.860673E+02 -7.500390E+05 -1.172359E+03 -3.924185E+02
       133  20 -1.940888E+06 -2.673744E+05  6.482152E+03 -7.349481E+05 -2.913165E+03  1.907632E+02
       133  21 -1.909131E+06 -2.657111E+05  1.092218E+04 -7.362392E+05 -4.649872E+03  7.626031E+02
       133  22 -1.968424E+06 -2.876493E+05 -1.781533E+03 -7.526163E+05 -6.597047E+02 -2.002026E+02
       133  23 -1.975447E+06 -2.803596E+05 -2.667184E+03 -7.443473E+05 -2.405756E+03  3.810405E+02
       133  24 -1.968485E+06 -2.880669E+05 -4.712967E+03 -7.524605E+05 -4.147646E+03  9.509611E+02
       133  25 -1.978189E+06 -2.912650E+05 -4.449158E+03 -7.551936E+05 -1.470563E+02 -7.988774E+00
       133  26 -2.010005E+06 -2.933449E+05 -1.181667E+04 -7.537460E+05 -1.898375E+03  5.713071E+02
       133  27 -2.027836E+06 -3.104226E+05 -2.034847E+04 -7.686805E+05 -3.645471E+03  1.139300E+03
       134   1 -1.873265E+06 -2.520319E+05  1.919584E+04 -7.272808E+05  5.782924E+03 -1.055901E+03
       134   2 -1.855715E+06 -2.349238E+05  2.082778E+04 -7.119519E+05  1.160220E+04 -7.585768E+01
       134   3 -1.826912E+06 -2.370167E+05  1.699409E+04 -7.113939E+05  1.739611E+04  9.735179E+02
       134   4 -1.968871E+06 -2.874106E+05 -6.101438E+03 -7.527004E+05  5.269887E+03 -1.248344E+03
       134   5 -1.974789E+06 -2.798644E+05 -1.073321E+04 -7.445450E+05  1.112067E+04 -2.565703E+02
       134   6 -1.969461E+06 -2.915264E+05 -2.085660E+04 -7.511610E+05  1.694587E+04  8.044494E+02
       134   7 -2.064467E+06 -3.227887E+05 -3.139937E+04 -7.781163E+05  4.756939E+03 -1.440755E+03
       134   8 -2.093849E+06 -3.248041E+05 -4.229537E+04 -7.771324E+05  1.063923E+04 -4.372443E+02
       134   9 -2.111992E+06 -3.460348E+05 -5.870912E+04 -7.909197E+05  1.649575E+04  6.354248E+02
       134  10 -1.873265E+06 -2.520319E+05  1.919578E+04 -7.272808E+05  3.510464E-11  6.691262E-11
       134  11 -1.855715E+06 -2.349239E+05  2.082753E+04 -7.119519E+05 -3.174941E-09 -4.404556E-10
       134  12 -1.826912E+06 -2.370167E+05  1.699352E+04 -7.113940E+05 -2.742205E-09 -5.609507E-10
       134  13 -1.968871E+06 -2.874106E+05 -6.101493E+03 -7.527004E+05 -2.968390E-09 -2.321835E-10
       134  14 -1.974789E+06 -2.798645E+05 -1.073344E+04 -7.445450E+05  1.358760E-09 -1.025591E-09
       134  15 -1.969462E+06 -2.915265E+05 -2.085714E+04 -7.511610E+05  1.236246E-09 -9.684498E-11
       134  16 -2.064467E+06 -3.227887E+05 -3.139942E+04 -7.781163E+05 -3.814447E-09 -2.554633E-11
       134  17 -2.093849E+06 -3.248041E+05 -4.229558E+04 -7.771324E+05  2.901553E-12 -3.607627E-10
       134  18 -2.111992E+06 -3.460349E+05 -5.870964E+04 -7.909197E+05  3.531654E-09  2.413747E-10
       134  19 -1.873265E+06 -2.520319E+05  1.919584E+04 -7.272808E+05 -5.782924E+03  1.055901E+03
       134  20 -1.855715E+06 -2.349238E+05  2.082778E+04 -7.119519E+05 -1.160220E+04  7.585768E+01
       134  21 -1.826912E+06 -2.370167E+05  1.699409E+04 -7.113939E+05 -1.739611E+04 -9.735179E+02
       134  22 -1.968871E+06 -2.874106E+05 -6.101438E+03 -7.527004E+05 -5.269887E+03  1.248344E+03
       134  23 -1.974789E+06 -2.798644E+05 -1.073321E+04 -7.445450E+05 -1.112067E+04  2.565703E+02
       134  24 -1.969461E+06 -2.915264E+05 -2.085660E+04 -7.511610E+05 -1.694587E+04 -8.044494E+02
       134  25 -2.064467E+06 -3.227887E+05 -3.139937E+04 -7.781163E+05 -4.756939E+03  1.440755E+03
       134  26 -2.093849E+06 -3.248041E+05 -4.229537E+04 -7.771324E+05 -1.063923E+04  4.372443E+02
       134  27 -2.111992E+06 -3.460348E+05 -5.870912E+04 -7.909197E+05 -1.649575E+04 -6.354248E+02
       135   1 -1.790886E+06 -2.229484E+05  2.027903E+04 -7.099657E+05  2.164094E+04  1.802047E+03
       135   2 -1.772781E+06 -1.976764E+05  6.471459E+03 -6.889257E+05  4.585364E+04  9.777862E+03
       135   3 -1.762673E+06 -2.330020E+05 -3.809213E+04 -6.709624E+05  6.984220E+04  1.835335E+04
       135   4 -1.971668E+06 -2.859959E+05 -2.671727E+04 -7.540953E+05  2.103669E+04  1.575331E+03
       135   5 -1.970340E+06 -2.746144E+05 -4.633981E+04 -7.454527E+05  4.552372E+04  9.653579E+03
       135   6 -1.977072E+06 -3.238958E+05 -9.694429E+04 -7.398862E+05  6.978594E+04  1.833062E+04
       135   7 -2.152417E+06 -3.490423E+05 -7.371614E+04 -7.982137E+05  2.043263E+04  1.348675E+03
       135   8 -2.167862E+06 -3.515493E+05 -9.915452E+04 -8.019632E+05  4.519392E+04  9.529343E+03
       135   9 -2.191427E+06 -4.147835E+05 -1.558008E+05 -8.087875E+05  6.972971E+04  1.830790E+04
       135  10 -1.790887E+06 -2.229486E+05  2.027814E+04 -7.099657E+05 -1.126555E-09  1.244511E-11
       135  11 -1.772784E+06 -1.976770E+05  6.467315E+03 -6.889260E+05 -2.726770E-09 -6.741560E-10
       135  12 -1.762679E+06 -2.330037E+05 -3.810196E+04 -6.709634E+05  9.839197E-11 -6.702455E-11
       135  13 -1.971668E+06 -2.859960E+05 -2.671811E+04 -7.540953E+05 -4.779338E-11 -1.841703E-10
       135  14 -1.970343E+06 -2.746151E+05 -4.634390E+04 -7.454531E+05 -1.735854E-09 -2.000363E-10
       135  15 -1.977078E+06 -3.238975E+05 -9.695411E+04 -7.398873E+05  1.235673E-09 -3.366490E-10
       135  16 -2.152417E+06 -3.490424E+05 -7.371694E+04 -7.982137E+05  2.095399E-09  6.684833E-11
       135  17 -2.167864E+06 -3.515500E+05 -9.915854E+04 -8.019636E+05 -6.934746E-10 -4.322095E-10
       135  18 -2.191432E+06 -4.147852E+05 -1.558106E+05 -8.087886E+05  3.361089E-09 -1.363543E-09
       135  19 -1.790886E+06 -2.229484E+05  2.027903E+04 -7.099657E+05 -2.164094E+04 -1.802047E+03
       135  20 -1.772781E+06 -1.976764E+05  6.471459E+03 -6.889257E+05 -4.585364E+04 -9.777862E+03
       135  21 -1.762673E+06 -2.330020E+05 -3.809213E+04 -6.709624E+05 -6.984220E+04 -1.835335E+04
       135  22 -1.971668E+06 -2.859959E+05 -2.671727E+04 -7.540953E+05 -2.103669E+04 -1.575331E+03
       135  23 -1.970340E+06 -2.746144E+05 -4.633981E+04 -7.454527E+05 -4.552372E+04 -9.653579E+03
       135  24 -1.977072E+06 -3.238958E+05 -9.694429E+04 -7.398862E+05 -6.978594E+04 -1.833062E+04
       135  25 -2.152417E+06 -3.490423E+05 -7.371614E+04 -7.982137E+05 -2.043263E+04 -1.348675E+03
       135  26 -2.167862E+06 -3.515493E+05 -9.915452E+04 -8.019632E+05 -4.519392E+04 -9.529343E+03
       135  27 -2.191427E+06 -4.147835E+05 -1.558008E+05 -8.087875E+05 -6.972971E+04 -1.830790E+04
       136   1 -1.708592E+06 -2.105638E+05 -5.225228E+04 -7.347674E+05  8.928351E+04  2.392045E+04
       136   2 -1.683826E+06 -1.028160E+05 -1.244457E+05 -6.540211E+05  1.938016E+05  6.237536E+04
       136   3 -1.822676E+06 -4.351142E+05 -3.918100E+05 -4.750198E+05  2.957093E+05  1.077903E+05
       136   4 -1.992759E+06 -2.742388E+05 -1.191200E+05 -7.677563E+05  8.727609E+04  2.317346E+04
       136   5 -1.935148E+06 -2.261782E+05 -1.964297E+05 -7.521533E+05  1.950187E+05  6.282151E+04
       136   6 -2.041882E+06 -6.189361E+05 -4.715366E+05 -6.382708E+05  3.001553E+05  1.094023E+05
       136   7 -2.276845E+06 -3.379161E+05 -1.859920E+05 -8.007374E+05  8.526967E+04  2.242649E+04
       136   8 -2.186404E+06 -3.495215E+05 -2.684192E+05 -8.502445E+05  1.962353E+05  6.326730E+04
       136   9 -2.261012E+06 -8.026689E+05 -5.512633E+05 -8.014492E+05  3.045995E+05  1.110118E+05
       136  10 -1.708600E+06 -2.105666E+05 -5.226838E+04 -7.347691E+05 -1.177571E-09  9.150999E-10
       136  11 -1.683868E+06 -1.028303E+05 -1.245239E+05 -6.540309E+05  2.027450E-09  1.420795E-09
       136  12 -1.822773E+06 -4.351503E+05 -3.919968E+05 -4.750455E+05  2.133794E-09 -4.931697E-11
       136  13 -1.992767E+06 -2.742415E+05 -1.191353E+05 -7.677580E+05  3.615076E-09 -7.163430E-11
       136  14 -1.935190E+06 -2.261927E+05 -1.965089E+05 -7.521632E+05  1.905409E-09  1.243760E-09
       136  15 -2.041982E+06 -6.189733E+05 -4.717291E+05 -6.382973E+05  1.664979E-09  4.342520E-10
       136  16 -2.276853E+06 -3.379187E+05 -1.860067E+05 -8.007389E+05  5.878093E-09 -4.181837E-10
       136  17 -2.186446E+06 -3.495362E+05 -2.684995E+05 -8.502545E+05 -2.536129E-11  1.420274E-09
       136  18 -2.261115E+06 -8.027072E+05 -5.514616E+05 -8.014765E+05 -1.981615E-09  8.091270E-10
       136  19 -1.708592E+06 -2.105638E+05 -5.225228E+04 -7.347674E+05 -8.928351E+04 -2.392045E+04
       136  20 -1.683826E+06 -1.028160E+05 -1.244457E+05 -6.540211E+05 -1.938016E+05 -6.237536E+04
       136  21 -1.822676E+06 -4.351142E+05 -3.918100E+05 -4.750198E+05 -2.957093E+05 -1.077903E+05
       136  22 -1.992759E+06 -2.742388E+05 -1.191200E+05 -7.677563E+05 -8.727609E+04 -2.317346E+04
       136  23 -1.935148E+06 -2.261782E+05 -1.964297E+05 -7.521533E+05 -1.950187E+05 -6.282151E+04
       136  24 -2.041882E+06 -6.189361E+05 -4.715366E+05 -6.382708E+05 -3.001553E+05 -1.094023E+05
       136  25 -2.276845E+06 -3.379161E+05 -1.859920E+05 -8.007374E+05 -8.526967E+04 -2.242649E+04
       136  26 -2.186404E+06 -3.495215E+05 -2.684192E+05 -8.502445E+05 -1.962353E+05 -6.326730E+04
       136  27 -2.261012E+06 -8.026689E+05 -5.512633E+05 -8.014492E+05 -3.045995E+05 -1.110118E+05
       137   1 -2.992300E+05 -2.498487E+03  2.202230E+04  1.221761E+04  7.157767E+04  3.719541E+03
       137   2 -2.847138E+05 -9.680884E+04 -3.163552E+04  3.340665E+03  4.900108E+04  1.095043E+04
       137   3 -2.396280E+05 -8.131669E+04 -4.310259E+04 -2.757023E+04  2.642960E+04  1.000580E+04
       137   4  6.964067E+04  8.942477E+04  1.130394E+05 -1.568436E+04  7.732275E+04  3.721344E+03
       137   5  5.400923E+04 -1.284611E+04  4.947146E+04 -4.628897E+03  5.061259E+04  1.095053E+04
       137   6  6.964543E+04 -4.630828E+03  3.094706E+04 -1.560594E+04  2.390877E+04  1.000472E+04
       137   7  4.386368E+05  1.813409E+05  2.040469E+05 -4.360296E+04  8.307123E+04  3.722631E+03
       137   8  3.928376E+05  7.110854E+04  1.305704E+05 -1.260285E+04  5.222497E+04  1.095060E+04
       137   9  3.790069E+05  7.204864E+04  1.049900E+05 -3.635669E+03  2.138669E+04  1.000355E+04
       137  10 -2.992355E+05 -2.499878E+03  2.201265E+04  1.221740E+04  9.739589E-10 -1.172394E-09
       137  11 -2.847164E+05 -9.680961E+04 -3.164026E+04  3.340233E+03 -3.008227E-09 -6.045978E-10
       137  12 -2.396288E+05 -8.131699E+04 -4.310409E+04 -2.757045E+04  1.180060E-11 -7.027816E-10
       137  13  6.963425E+04  8.942315E+04  1.130281E+05 -1.568459E+04  1.711941E-11  4.330276E-10
       137  14  5.400645E+04 -1.284693E+04  4.946643E+04 -4.629343E+03 -3.164382E-09 -6.150329E-10
       137  15  6.964478E+04 -4.631089E+03  3.094580E+04 -1.560613E+04  7.981701E-10 -9.605774E-10
       137  16  4.386294E+05  1.813390E+05  2.040339E+05 -4.360321E+04 -1.143059E-09  5.351211E-10
       137  17  3.928346E+05  7.110768E+04  1.305650E+05 -1.260331E+04  8.183993E-10 -2.696276E-10
       137  18  3.790064E+05  7.204841E+04  1.049890E+05 -3.635841E+03  1.518357E-11  5.245932E-10
       137  19 -2.992300E+05 -2.498487E+03  2.202230E+04  1.221761E+04 -7.157767E+04 -3.719541E+03
       137  20 -2.847138E+05 -9.680884E+04 -3.163552E+04  3.340665E+03 -4.900108E+04 -1.095043E+04
       137  21 -2.396280E+05 -8.131669E+04 -4.310259E+04 -2.757023E+04 -2.642960E+04 -1.000580E+04
       137  22  6.964067E+04  8.942477E+04  1.130394E+05 -1.568436E+04 -7.732275E+04 -3.721344E+03
       137  23  5.400923E+04 -1.284611E+04  4.947146E+04 -4.628897E+03 -5.061259E+04 -1.095053E+04
       137  24  6.964543E+04 -4.630828E+03  3.094706E+04 -1.560594E+04 -2.390877E+04 -1.000472E+04
       137  25  4.386368E+05  1.813409E+05  2.040469E+05 -4.360296E+04 -8.307123E+04 -3.722631E+03
       137  26  3.928376E+05  7.110854E+04  1.305704E+05 -1.260285E+04 -5.222497E+04 -1.095060E+04
       137  27  3.790069E+05  7.204864E+04  1.049900E+05 -3.635669E+03 -2.138669E+04 -1.000355E+04
       138   1 -2.057586E+05 -5.742611E+04 -3.942588E+04 -1.306589E+04  1.923540E+04  8.142386E+03
       138   2 -1.780454E+05 -6.083405E+04 -4.463398E+04 -3.976472E+03  1.297746E+04  7.562685E+03
       138   3 -1.465236E+05 -5.259382E+04 -4.283763E+04 -1.698780E+04  6.718915E+03  6.374479E+03
       138   4  6.356051E+04  9.373146E+03  2.523962E+04 -1.564609E+04  1.910337E+04  8.142019E+03
       138   5  6.163214E+04 -1.406554E+03  1.280913E+04 -4.594326E+03  1.253622E+04  7.562364E+03
       138   6  6.356347E+04 -4.869952E+02  7.595601E+03 -1.564268E+04  5.968758E+03  6.374271E+03
       138   7  3.329460E+05  7.616716E+04  8.989998E+04 -1.822742E+04  1.897128E+04  8.141652E+03
       138   8  3.013623E+05  5.801677E+04  7.024818E+04 -5.212423E+03  1.209481E+04  7.562043E+03
       138   9  2.736910E+05  5.161663E+04  5.802570E+04 -1.429711E+04  5.218348E+03  6.374060E+03
       138  10 -2.057590E+05 -5.742629E+04 -3.942670E+04 -1.306602E+04  4.325707E-09 -8.782355E-12
       138  11 -1.780456E+05 -6.083415E+04 -4.463441E+04 -3.976551E+03  2.205873E-09  7.567178E-10
       138  12 -1.465237E+05 -5.259388E+04 -4.283779E+04 -1.698783E+04 -6.251310E-09  8.522599E-10
       138  13  6.356010E+04  9.372977E+03  2.523881E+04 -1.564621E+04  2.367252E-11  7.968999E-10
       138  14  6.163196E+04 -1.406658E+03  1.280873E+04 -4.594403E+03 -1.024953E-09  9.218360E-10
       138  15  6.356342E+04 -4.870484E+02  7.595458E+03 -1.564271E+04 -8.265321E-10  6.837179E-10
       138  16  3.329456E+05  7.616699E+04  8.989918E+04 -1.822754E+04 -5.823918E-09  4.704251E-10
       138  17  3.013621E+05  5.801667E+04  7.024780E+04 -5.212497E+03 -3.565239E-09  7.369367E-10
       138  18  2.736909E+05  5.161658E+04  5.802557E+04 -1.429713E+04  6.942245E-09  7.295302E-10
       138  19 -2.057586E+05 -5.742611E+04 -3.942588E+04 -1.306589E+04 -1.923540E+04 -8.142386E+03
       138  20 -1.780454E+05 -6.083405E+04 -4.463398E+04 -3.976472E+03 -1.297746E+04 -7.562685E+03
       138  21 -1.465236E+05 -5.259382E+04 -4.283763E+04 -1.698780E+04 -6.718915E+03 -6.374479E+03
       138  22  6.356051E+04  9.373146E+03  2.523962E+04 -1.564609E+04 -1.910337E+04 -8.142019E+03
       138  23  6.163214E+04 -1.406554E+03  1.280913E+04 -4.594326E+03 -1.253622E+04 -7.562364E+03
       138  24  6.356347E+04 -4.869952E+02  7.595601E+03 -1.564268E+04 -5.968758E+03 -6.374271E+03
       138  25  3.329460E+05  7.616716E+04  8.989998E+04 -1.822742E+04 -1.897128E+04 -8.141652E+03
       138  26  3.013623E+05  5.801677E+04  7.024818E+04 -5.212423E+03 -1.209481E+04 -7.562043E+03
       138  27  2.736910E+05  5.161663E+04  5.802570E+04 -1.429711E+04 -5.218348E+03 -6.374060E+03
       139   1 -1.074124E+05 -4.123456E+04 -3.481258E+04 -1.544487E+04  5.345630E+03  5.585693E+03
       139   2 -7.811570E+04 -3.503762E+04 -3.056763E+04 -4.580113E+03  3.787673E+03  4.426711E+03
       139   3 -4.828773E+04 -2.761388E+04 -2.499718E+04 -1.578736E+04  2.229313E+03  3.222918E+03
       139   4  6.282877E+04  9.605454E+02  5.916245E+03 -1.563733E+04  4.773729E+03  5.585566E+03
       139   5  6.256222E+04 -1.581089E+02  3.149783E+03 -4.601482E+03  3.192782E+03  4.426666E+03
       139   6  6.283041E+04 -4.599234E+01  1.724630E+03 -1.563732E+04  1.611504E+03  3.222960E+03
       139   7  2.330965E+05  4.315355E+04  4.664303E+04 -1.582984E+04  4.201671E+03  5.585441E+03
       139   8  2.032583E+05  3.471997E+04  3.686579E+04 -4.622856E+03  2.597756E+03  4.426620E+03
       139   9  1.739599E+05  2.752100E+04  2.844557E+04 -1.548726E+04  9.935856E+02  3.223002E+03
       139  10 -1.074124E+05 -4.123460E+04 -3.481270E+04 -1.544490E+04 -5.882069E-09  2.098619E-10
       139  11 -7.811572E+04 -3.503765E+04 -3.056769E+04 -4.580126E+03 -3.047932E-10 -1.049203E-09
       139  12 -4.828774E+04 -2.761390E+04 -2.499721E+04 -1.578736E+04  6.001943E-09 -8.214115E-10
       139  13  6.282873E+04  9.605058E+02  5.916143E+03 -1.563735E+04 -2.314044E-11  6.688187E-11
       139  14  6.256220E+04 -1.581327E+02  3.149727E+03 -4.601493E+03  5.378162E-10 -1.101928E-09
       139  15  6.283040E+04 -4.600419E+01  1.724606E+03 -1.563733E+04  7.594944E-10 -3.515054E-10
       139  16  2.330964E+05  4.315351E+04  4.664294E+04 -1.582986E+04  5.838661E-09 -1.654789E-11
       139  17  2.032583E+05  3.471995E+04  3.686574E+04 -4.622865E+03 -2.939333E-10 -1.292962E-09
       139  18  1.739598E+05  2.752099E+04  2.844554E+04 -1.548726E+04 -6.842415E-09 -4.243150E-10
       139  19 -1.074124E+05 -4.123456E+04 -3.481258E+04 -1.544487E+04 -5.345630E+03 -5.585693E+03
       139  20 -7.811570E+04 -3.503762E+04 -3.056763E+04 -4.580113E+03 -3.787673E+03 -4.426711E+03
       139  21 -4.828773E+04 -2.761388E+04 -2.499718E+04 -1.578736E+04 -2.229313E+03 -3.222918E+03
       139  22  6.282877E+04  9.605454E+02  5.916245E+03 -1.563733E+04 -4.773729E+03 -5.585566E+03
       139  23  6.256222E+04 -1.581089E+02  3.149783E+03 -4.601482E+03 -3.192782E+03 -4.426666E+03
       139  24  6.283041E+04 -4.599234E+01  1.724630E+03 -1.563732E+04 -1.611504E+03 -3.222960E+03
       139  25  2.330965E+05  4.315355E+04  4.664303E+04 -1.582984E+04 -4.201671E+03 -5.585441E+03
       139  26  2.032583E+05  3.471997E+04  3.686579E+04 -4.622856E+03 -2.597756E+03 -4.426620E+03
       139  27  1.739599E+05  2.752100E+04  2.844557E+04 -1.548726E+04 -9.935856E+02 -3.223002E+03
       140   1 -8.596429E+03 -1.756634E+04 -1.577366E+04 -1.563182E+04  1.950892E+03  2.515219E+03
       140   2  2.091775E+04 -1.037107E+04 -9.584330E+03 -4.618374E+03  1.738052E+03  1.314112E+03
       140   3  5.048090E+04 -3.068224E+03 -3.231032E+03 -1.566184E+04  1.525092E+03  1.100211E+02
       140   4  6.272427E+04  9.827659E+01  1.230618E+03 -1.563400E+04  1.346357E+03  2.515297E+03
       140   5  6.270053E+04 -1.210427E+01  4.296004E+02 -4.605606E+03  1.131961E+03  1.314213E+03
       140   6  6.272476E+04 -1.470581E+01 -2.064682E+02 -1.563402E+04  9.174552E+02  1.101491E+02
       140   7  1.340496E+05  1.776252E+04  1.823454E+04 -1.563619E+04  7.417521E+02  2.515374E+03
       140   8  1.044849E+05  1.034673E+04  1.044341E+04 -4.592837E+03  5.258293E+02  1.314315E+03
       140   9  7.496876E+04  3.038802E+03  2.818086E+03 -1.560621E+04  3.098062E+02  1.102771E+02
       140  10 -8.596435E+03 -1.756635E+04 -1.577368E+04 -1.563182E+04  1.855698E-09 -9.824916E-11
       140  11  2.091774E+04 -1.037107E+04 -9.584339E+03 -4.618376E+03  1.483611E-09  6.730017E-10
       140  12  5.048090E+04 -3.068225E+03 -3.231036E+03 -1.566184E+04  1.114700E-09  4.792078E-10
       140  13  6.272426E+04  9.826930E+01  1.230603E+03 -1.563401E+04 -1.569249E-12  1.428122E-10
       140  14  6.270053E+04 -1.210647E+01  4.295947E+02 -4.605607E+03  3.209373E-09  6.062248E-10
       140  15  6.272476E+04 -1.470605E+01 -2.064698E+02 -1.563402E+04  1.907288E-09  4.490649E-10
       140  16  1.340496E+05  1.776252E+04  1.823453E+04 -1.563619E+04 -3.480448E-09  1.327131E-10
       140  17  1.044849E+05  1.034673E+04  1.044341E+04 -4.592837E+03  2.275489E-09  4.842153E-10
       140  18  7.496876E+04  3.038802E+03  2.818085E+03 -1.560621E+04  5.110566E-10  9.486974E-10
       140  19 -8.596429E+03 -1.756634E+04 -1.577366E+04 -1.563182E+04 -1.950892E+03 -2.515219E+03
       140  20  2.091775E+04 -1.037107E+04 -9.584330E+03 -4.618374E+03 -1.738052E+03 -1.314112E+03
       140  21  5.048090E+04 -3.068224E+03 -3.231032E+03 -1.566184E+04 -1.525092E+03 -1.100211E+02
       140  22  6.272427E+04  9.827659E+01  1.230618E+03 -1.563400E+04 -1.346357E+03 -2.515297E+03
       140  23  6.270053E+04 -1.210427E+01  4.296004E+02 -4.605606E+03 -1.131961E+03 -1.314213E+03
       140  24  6.272476E+04 -1.470581E+01 -2.064682E+02 -1.563402E+04 -9.174552E+02 -1.101491E+02
       140  25  1.340496E+05  1.776252E+04  1.823454E+04 -1.563619E+04 -7.417521E+02 -2.515374E+03
       140  26  1.044849E+05  1.034673E+04  1.044341E+04 -4.592837E+03 -5.258293E+02 -1.314315E+03
       140  27  7.496876E+04  3.038802E+03  2.818086E+03 -1.560621E+04 -3.098062E+02 -1.102771E+02
       141   1  9.022290E+04  6.869149E+03  6.160616E+03 -1.568406E+04  1.591429E+03 -5.918818E+02
       141   2  1.198393E+05  1.418534E+04  1.234477E+04 -4.634923E+03  2.254195E+03 -1.796047E+03
       141   3  1.493093E+05  2.127555E+04  1.803983E+04 -1.564364E+04  2.917138E+03 -2.997204E+03
       141   4  6.268114E+04  2.309785E+01 -5.301372E+02 -1.563426E+04  9.837115E+02 -5.917568E+02
       141   5  6.275463E+04  3.348615E+01 -1.335728E+03 -4.605292E+03  1.647918E+03 -1.795958E+03
       141   6  6.268055E+04 -1.823251E+02 -2.631419E+03 -1.563430E+04  2.312271E+03 -2.997147E+03
       141   7  3.514007E+04 -6.823009E+03 -7.220944E+03 -1.558447E+04  3.760213E+02 -5.916320E+02
       141   8  5.672921E+03 -1.411861E+04 -1.501645E+04 -4.575663E+03  1.041697E+03 -1.795868E+03
       141   9 -2.394130E+04 -2.164075E+04 -2.330319E+04 -1.562496E+04  1.707487E+03 -2.997091E+03
       141  10  9.022290E+04  6.869148E+03  6.160611E+03 -1.568406E+04  1.828214E-09  5.936324E-11
       141  11  1.198393E+05  1.418534E+04  1.234475E+04 -4.634920E+03  2.689237E-10 -4.864200E-10
       141  12  1.493093E+05  2.127554E+04  1.803980E+04 -1.564364E+04 -9.810044E-11 -1.179701E-12
       141  13  6.268114E+04  2.309721E+01 -5.301397E+02 -1.563426E+04  2.199550E-09 -2.788874E-10
       141  14  6.275463E+04  3.348196E+01 -1.335739E+03 -4.605289E+03  2.728313E-09 -1.023139E-09
       141  15  6.268055E+04 -1.823361E+02 -2.631445E+03 -1.563430E+04 -1.069209E-09  2.114307E-10
       141  16  3.514007E+04 -6.823009E+03 -7.220945E+03 -1.558447E+04  1.869114E-09  1.221307E-10
       141  17  5.672919E+03 -1.411861E+04 -1.501646E+04 -4.575662E+03 -2.945342E-09 -9.121511E-10
       141  18 -2.394130E+04 -2.164076E+04 -2.330321E+04 -1.562496E+04  6.753730E-10  6.424571E-10
       141  19  9.022290E+04  6.869149E+03  6.160616E+03 -1.568406E+04 -1.591429E+03  5.918818E+02
       141  20  1.198393E+05  1.418534E+04  1.234477E+04 -4.634923E+03 -2.254195E+03  1.796047E+03
       141  21  1.493093E+05  2.127555E+04  1.803983E+04 -1.564364E+04 -2.917138E+03  2.997204E+03
       141  22  6.268114E+04  2.309785E+01 -5.301372E+02 -1.563426E+04 -9.837115E+02  5.917568E+02
       141  23  6.275463E+04  3.348615E+01 -1.335728E+03 -4.605292E+03 -1.647918E+03  1.795958E+03
       141  24  6.268055E+04 -1.823251E+02 -2.631419E+03 -1.563430E+04 -2.312271E+03  2.997147E+03
       141  25  3.514007E+04 -6.823009E+03 -7.220944E+03 -1.558447E+04 -3.760213E+02  5.916320E+02
       141  26  5.672921E+03 -1.411861E+04 -1.501645E+04 -4.575663E+03 -1.041697E+03  1.795868E+03
       141  27 -2.394130E+04 -2.164075E+04 -2.330319E+04 -1.562496E+04 -1.707487E+03  2.997091E+03
       142   1  1.889384E+05  3.145727E+04  2.689994E+04 -1.595139E+04  3.479920E+03 -3.705147E+03
       142   2  2.189869E+05  3.896321E+04  3.128600E+04 -4.558154E+03  6.517302E+03 -4.908565E+03
       142   3  2.480858E+05  4.413720E+04  3.311782E+04 -1.524433E+04  9.555163E+03 -6.064933E+03
       142   4  6.249892E+04  9.505133E+01 -3.489769E+03 -1.563914E+04  2.861055E+03 -3.705132E+03
       142   5  6.297527E+04  2.888362E+02 -6.099990E+03 -4.599216E+03  5.921454E+03 -4.908648E+03
       142   6  6.249739E+04 -1.853537E+03 -1.128081E+04 -1.563905E+04  8.982189E+03 -6.065108E+03
       142   7 -6.392596E+04 -3.126833E+04 -3.388061E+04 -1.532696E+04  2.242316E+03 -3.705117E+03
       142   8 -9.301405E+04 -3.838730E+04 -4.348770E+04 -4.640267E+03  5.325755E+03 -4.908730E+03
       142   9 -1.230595E+05 -4.784677E+04 -5.568186E+04 -1.603366E+04  8.409384E+03 -6.065282E+03
       142  10  1.889384E+05  3.145725E+04  2.689989E+04 -1.595138E+04  1.086812E-09  4.757556E-11
       142  11  2.189868E+05  3.896317E+04  3.128588E+04 -4.558129E+03 -1.818693E-09 -1.232729E-10
       142  12  2.480857E+05  4.413714E+04  3.311758E+04 -1.524428E+04  8.766292E-10 -4.308103E-10
       142  13  6.249891E+04  9.503439E+01 -3.489810E+03 -1.563913E+04  1.086517E-12  5.279277E-10
       142  14  6.297522E+04  2.888009E+02 -6.100101E+03 -4.599193E+03  5.168368E-10 -2.415204E-10
       142  15  6.249730E+04 -1.853598E+03 -1.128103E+04 -1.563901E+04  2.544152E-10 -5.288281E-10
       142  16 -6.392597E+04 -3.126835E+04 -3.388064E+04 -1.532695E+04  5.860049E-10  1.097459E-09
       142  17 -9.301409E+04 -3.838733E+04 -4.348780E+04 -4.640246E+03 -5.079467E-10 -3.573266E-10
       142  18 -1.230596E+05 -4.784683E+04 -5.568206E+04 -1.603362E+04  3.205843E-10 -5.130346E-10
       142  19  1.889384E+05  3.145727E+04  2.689994E+04 -1.595139E+04 -3.479920E+03  3.705147E+03
       142  20  2.189869E+05  3.896321E+04  3.128600E+04 -4.558154E+03 -6.517302E+03  4.908565E+03
       142  21  2.480858E+05  4.413720E+04  3.311782E+04 -1.524433E+04 -9.555163E+03  6.064933E+03
       142  22  6.249892E+04  9.505133E+01 -3.489769E+03 -1.563914E+04 -2.861055E+03  3.705132E+03
       142  23  6.297527E+04  2.888362E+02 -6.099990E+03 -4.599216E+03 -5.921454E+03  4.908648E+03
       142  24  6.249739E+04 -1.853537E+03 -1.128081E+04 -1.563905E+04 -8.982189E+03  6.065108E+03
       142  25 -6.392596E+04 -3.126833E+04 -3.388061E+04 -1.532696E+04 -2.242316E+03  3.705117E+03
       142  26 -9.301405E+04 -3.838730E+04 -4.348770E+04 -4.640267E+03 -5.325755E+03  4.908730E+03
       142  27 -1.230595E+05 -4.784677E+04 -5.568186E+04 -1.603366E+04 -8.409384E+03  6.065282E+03
       143   1  2.865978E+05  5.680394E+04  3.967053E+04 -1.813740E+04  1.201532E+04 -6.855905E+03
       143   2  3.197439E+05  6.584710E+04  3.680663E+04 -3.265700E+03  2.416083E+04 -8.035418E+03
       143   3  3.458736E+05  5.276753E+04  2.052831E+04 -1.048510E+04  3.630729E+04 -8.577568E+03
       143   4  6.113229E+04  9.001323E+02 -1.443430E+04 -1.564401E+04  1.125588E+04 -6.856140E+03
       143   5  6.466963E+04  2.619808E+03 -2.430929E+04 -4.594212E+03  2.371807E+04 -8.035827E+03
       143   6  6.113086E+04 -1.784354E+04 -4.782285E+04 -1.563633E+04  3.618064E+04 -8.578181E+03
       143   7 -1.642867E+05 -5.500734E+04 -6.854273E+04 -1.315152E+04  1.049671E+04 -6.856381E+03
       143   8 -1.903450E+05 -6.061220E+04 -8.542981E+04 -5.922180E+03  2.327549E+04 -8.036234E+03
       143   9 -2.235376E+05 -8.846041E+04 -1.161797E+05 -2.078520E+04  3.605405E+04 -8.578793E+03
       143  10  2.865976E+05  5.680385E+04  3.967017E+04 -1.813734E+04 -8.930154E-10 -2.451093E-10
       143  11  3.197432E+05  6.584688E+04  3.680542E+04 -3.265544E+03 -1.055983E-09 -5.533736E-11
       143  12  3.458721E+05  5.276710E+04  2.052569E+04 -1.048485E+04 -3.196908E-10 -9.787315E-10
       143  13  6.113214E+04  9.000478E+02 -1.443462E+04 -1.564395E+04 -1.076958E-09 -1.598320E-10
       143  14  6.466900E+04  2.619588E+03 -2.431046E+04 -4.594058E+03  1.634239E-09  2.237978E-12
       143  15  6.112943E+04 -1.784397E+04 -4.782544E+04 -1.563608E+04  4.252346E-10 -1.000061E-09
       143  16 -1.642868E+05 -5.500742E+04 -6.854303E+04 -1.315147E+04 -1.686841E-09 -6.753382E-12
       143  17 -1.903456E+05 -6.061242E+04 -8.543095E+04 -5.922030E+03 -2.211446E-09  9.350802E-10
       143  18 -2.235390E+05 -8.846084E+04 -1.161823E+05 -2.078495E+04 -1.343263E-09 -7.721033E-10
       143  19  2.865978E+05  5.680394E+04  3.967053E+04 -1.813740E+04 -1.201532E+04  6.855905E+03
       143  20  3.197439E+05  6.584710E+04  3.680663E+04 -3.265700E+03 -2.416083E+04  8.035418E+03
       143  21  3.458736E+05  5.276753E+04  2.052831E+04 -1.048510E+04 -3.630729E+04  8.577568E+03
       143  22  6.113229E+04  9.001323E+02 -1.443430E+04 -1.564401E+04 -1.125588E+04  6.856140E+03
       143  23  6.466963E+04  2.619808E+03 -2.430929E+04 -4.594212E+03 -2.371807E+04  8.035827E+03
       143  24  6.113086E+04 -1.784354E+04 -4.782285E+04 -1.563633E+04 -3.618064E+04  8.578181E+03
       143  25 -1.642867E+05 -5.500734E+04 -6.854273E+04 -1.315152E+04 -1.049671E+04  6.856381E+03
       143  26 -1.903450E+05 -6.061220E+04 -8.542981E+04 -5.922180E+03 -2.327549E+04  8.036234E+03
       143  27 -2.235376E+05 -8.846041E+04 -1.161797E+05 -2.078520E+04 -3.605405E+04  8.578793E+03
       144   1  3.744677E+05  8.915573E+04  1.912117E+04 -3.794035E+04  4.790016E+04 -1.047585E+04
       144   2  4.331855E+05  1.120300E+05 -8.945560E+03  1.101754E+04  9.423096E+04 -1.133704E+04
       144   3  4.339680E+05 -7.355125E+04 -1.192221E+05  3.818545E+04  1.405571E+05 -3.658922E+03
       144   4  4.964757E+04  8.691912E+03 -5.861354E+04 -1.562257E+04  4.528144E+04 -1.047597E+04
       144   5  7.900979E+04  2.423149E+04 -9.372701E+04 -4.645093E+03  9.589030E+04 -1.133850E+04
       144   6  4.965580E+04 -1.694965E+05 -2.140549E+05 -1.545826E+04  1.464918E+05 -3.665235E+03
       144   7 -2.750749E+05 -7.177767E+04 -1.363554E+05  6.683480E+03  4.266407E+04 -1.047628E+04
       144   8 -2.750506E+05 -6.357524E+04 -1.785172E+05 -2.029878E+04  9.754868E+04 -1.134005E+04
       144   9 -3.345160E+05 -2.654420E+05 -3.088970E+05 -6.906877E+04  1.524229E+05 -3.672579E+03
       144  10  3.744652E+05  8.915500E+04  1.911665E+04 -3.793995E+04 -1.223849E-10 -1.741394E-09
       144  11  4.331760E+05  1.120275E+05 -8.962478E+03  1.101840E+04 -2.560181E-09 -2.380517E-09
       144  12  4.339468E+05 -7.355657E+04 -1.192592E+05  3.818586E+04  2.270336E-10 -6.807965E-10
       144  13  4.964534E+04  8.691244E+03 -5.861760E+04 -1.562219E+04 -1.154494E-09 -3.630782E-09
       144  14  7.899988E+04  2.422889E+04 -9.374453E+04 -4.644217E+03 -1.998348E-09  1.235616E-09
       144  15  4.963275E+04 -1.695023E+05 -2.140953E+05 -1.545783E+04  2.461498E-09 -9.006498E-11
       144  16 -2.750768E+05 -7.177827E+04 -1.363590E+05  6.683840E+03 -3.420897E-10 -1.604694E-09
       144  17 -2.750608E+05 -6.357793E+04 -1.785353E+05 -2.029789E+04 -4.293240E-09  5.541028E-10
       144  18 -3.345410E+05 -2.654483E+05 -3.089407E+05 -6.906832E+04  1.857642E-09 -1.034556E-09
       144  19  3.744677E+05  8.915573E+04  1.912117E+04 -3.794035E+04 -4.790016E+04  1.047585E+04
       144  20  4.331855E+05  1.120300E+05 -8.945560E+03  1.101754E+04 -9.423096E+04  1.133704E+04
       144  21  4.339680E+05 -7.355125E+04 -1.192221E+05  3.818545E+04 -1.405571E+05  3.658922E+03
       144  22  4.964757E+04  8.691912E+03 -5.861354E+04 -1.562257E+04 -4.528144E+04  1.047597E+04
       144  23  7.900979E+04  2.423149E+04 -9.372701E+04 -4.645093E+03 -9.589030E+04  1.133850E+04
       144  24  4.965580E+04 -1.694965E+05 -2.140549E+05 -1.545826E+04 -1.464918E+05  3.665235E+03
       144  25 -2.750749E+05 -7.177767E+04 -1.363554E+05  6.683480E+03 -4.266407E+04  1.047628E+04
       144  26 -2.750506E+05 -6.357524E+04 -1.785172E+05 -2.029878E+04 -9.754868E+04  1.134005E+04
       144  27 -3.345160E+05 -2.654420E+05 -3.088970E+05 -6.906877E+04 -1.524229E+05  3.672579E+03
       145   1  3.523748E+05  9.962018E+05  3.565835E+05 -1.633659E+05  1.176546E+04  4.596552E+04
       145   2  2.432249E+05  6.991321E+05  2.542035E+05 -4.893980E+04  3.236201E+04  2.201884E+04
       145   3  1.746435E+05  4.155241E+05  1.775719E+05 -1.500898E+05  2.185372E+04 -1.974955E+03
       145   4  3.060093E+04 -2.944552E+05  3.794493E+04 -1.525091E+05  1.179459E+04  2.770955E+04
       145   5 -4.318255E+03 -2.997470E+05  1.518249E+04 -4.473714E+04  3.237060E+04  1.947843E+04
       145   6 -1.352957E+03 -2.943520E+05  7.294558E+03 -1.525597E+05  2.182019E+04  1.118893E+04
       145   7 -2.912966E+05 -1.583598E+06 -2.808158E+05 -1.416742E+05  1.182313E+04  9.491381E+03
       145   8 -2.519337E+05 -1.297712E+06 -2.239089E+05 -4.054079E+04  3.237917E+04  1.694206E+04
       145   9 -1.773859E+05 -1.003766E+06 -1.630178E+05 -1.550265E+05  2.178654E+04  2.433782E+04
       145  10  3.523740E+05  9.961995E+05  3.565793E+05 -1.633663E+05  1.284071E-09 -1.022613E-10
       145  11  2.432237E+05  6.991313E+05  2.542006E+05 -4.894037E+04  1.443227E-09  2.204503E-09
       145  12  1.746429E+05  4.155239E+05  1.775710E+05 -1.500898E+05 -1.729974E-10  2.663531E-09
       145  13  3.060057E+04 -2.944560E+05  3.794323E+04 -1.525094E+05 -1.792269E-09 -1.422373E-11
       145  14 -4.319482E+03 -2.997477E+05  1.517981E+04 -4.473765E+04  1.607292E-09  2.069985E-09
       145  15 -1.353502E+03 -2.943523E+05  7.293428E+03 -1.525599E+05 -7.664610E-10 -3.112091E-10
       145  16 -2.912968E+05 -1.583598E+06 -2.808163E+05 -1.416743E+05 -5.941478E-10 -1.243570E-09
       145  17 -2.519349E+05 -1.297713E+06 -2.239114E+05 -4.054123E+04 -1.052276E-09 -1.771559E-10
       145  18 -1.773865E+05 -1.003767E+06 -1.630198E+05 -1.550269E+05 -5.446015E-10 -2.264834E-09
       145  19  3.523748E+05  9.962018E+05  3.565835E+05 -1.633659E+05 -1.176546E+04 -4.596552E+04
       145  20  2.432249E+05  6.991321E+05  2.542035E+05 -4.893980E+04 -3.236201E+04 -2.201884E+04
       145  21  1.746435E+05  4.155241E+05  1.775719E+05 -1.500898E+05 -2.185372E+04  1.974955E+03
       145  22  3.060093E+04 -2.944552E+05  3.794493E+04 -1.525091E+05 -1.179459E+04 -2.770955E+04
       145  23 -4.318255E+03 -2.997470E+05  1.518249E+04 -4.473714E+04 -3.237060E+04 -1.947843E+04
       145  24 -1.352957E+03 -2.943520E+05  7.294558E+03 -1.525597E+05 -2.182019E+04 -1.118893E+04
       145  25 -2.912966E+05 -1.583598E+06 -2.808158E+05 -1.416742E+05 -1.182313E+04 -9.491381E+03
       145  26 -2.519337E+05 -1.297712E+06 -2.239089E+05 -4.054079E+04 -3.237917E+04 -1.694206E+04
       145  27 -1.773859E+05 -1.003766E+06 -1.630178E+05 -1.550265E+05 -2.178654E+04 -2.433782E+04
       146   1  8.310838E+04  2.117347E+04  8.046655E+04 -1.535436E+05  1.020903E+04  5.489384E+03
       146   2  7.489861E+03 -2.683409E+05  3.540973E+03 -4.507363E+04  8.545660E+02  7.012376E+03
       146   3 -7.008295E+04 -5.598876E+05 -7.518363E+04 -1.534259E+05 -8.589816E+03  8.533807E+03
       146   4  4.201526E+03 -2.970834E+05  4.246084E+03 -1.528039E+05  1.019600E+04  1.017689E+04
       146   5  6.194572E+02 -2.960256E+05 -3.096291E+03 -4.440508E+04  8.414030E+02  1.174555E+04
       146   6 -4.917757E+03 -2.970825E+05 -1.226133E+04 -1.528291E+05 -8.603358E+03  1.331335E+04
       146   7 -7.471267E+04 -6.152474E+05 -7.198147E+04 -1.520645E+05  1.018298E+04  1.486201E+04
       146   8 -6.250989E+03 -3.237095E+05 -9.733524E+03 -4.373655E+04  8.282499E+02  1.647851E+04
       146   9  6.024244E+04 -3.421399E+04  5.065617E+04 -1.522321E+05 -8.616887E+03  1.809492E+04
       146  10  8.310826E+04  2.117341E+04  8.046630E+04 -1.535437E+05 -2.086770E-09 -4.275918E-09
       146  11  7.489847E+03 -2.683409E+05  3.540880E+03 -4.507364E+04  1.078371E-10 -2.337603E-09
       146  12 -7.008305E+04 -5.598877E+05 -7.518391E+04 -1.534258E+05  5.756922E-11  4.746292E-11
       146  13  4.201387E+03 -2.970835E+05  4.245694E+03 -1.528040E+05  7.751336E-10  8.098068E-11
       146  14  6.194194E+02 -2.960257E+05 -3.096551E+03 -4.440509E+04 -8.805670E-10  2.985425E-09
       146  15 -4.917884E+03 -2.970827E+05 -1.226181E+04 -1.528290E+05  4.698396E-11 -3.247980E-10
       146  16 -7.471284E+04 -6.152476E+05 -7.198208E+04 -1.520646E+05 -2.214841E-10  1.543818E-09
       146  17 -6.251063E+03 -3.237098E+05 -9.734036E+03 -4.373657E+04  1.286964E-09  5.310234E-09
       146  18  6.024227E+04 -3.421436E+04  5.065541E+04 -1.522320E+05 -8.874239E-10  3.467671E-10
       146  19  8.310838E+04  2.117347E+04  8.046655E+04 -1.535436E+05 -1.020903E+04 -5.489384E+03
       146  20  7.489861E+03 -2.683409E+05  3.540973E+03 -4.507363E+04 -8.545660E+02 -7.012376E+03
       146  21 -7.008295E+04 -5.598876E+05 -7.518363E+04 -1.534259E+05  8.589816E+03 -8.533807E+03
       146  22  4.201526E+03 -2.970834E+05  4.246084E+03 -1.528039E+05 -1.019600E+04 -1.017689E+04
       146  23  6.194572E+02 -2.960256E+05 -3.096291E+03 -4.440508E+04 -8.414030E+02 -1.174555E+04
       146  24 -4.917757E+03 -2.970825E+05 -1.226133E+04 -1.528291E+05  8.603358E+03 -1.331335E+04
       146  25 -7.471267E+04 -6.152474E+05 -7.198147E+04 -1.520645E+05 -1.018298E+04 -1.486201E+04
       146  26 -6.250989E+03 -3.237095E+05 -9.733524E+03 -4.373655E+04 -8.282499E+02 -1.647851E+04
       146  27  6.024244E+04 -3.421399E+04  5.065617E+04 -1.522321E+05  8.616887E+03 -1.809492E+04
       147   1 -1.585528E+05 -9.547618E+05 -1.732332E+05 -1.443163E+05 -2.005047E+04  2.793698E+03
       147   2 -2.264461E+05 -1.234625E+06 -2.541165E+05 -4.807371E+04 -3.071076E+04  3.311400E+04
       147   3 -3.602548E+05 -1.534897E+06 -3.712849E+05 -1.676087E+05 -1.137005E+04  6.347870E+04
       147   4  3.823790E+03 -3.006726E+05 -1.615717E+04 -1.525482E+05 -2.008425E+04  1.568415E+04
       147   5  7.435209E+03 -2.918134E+05 -2.825825E+04 -4.471389E+04 -3.070289E+04  3.092857E+04
       147   6 -5.218706E+04 -3.007830E+05 -6.612573E+04 -1.526427E+05 -1.133949E+04  4.623213E+04
       147   7  1.661696E+05  3.538093E+05  1.408891E+05 -1.607884E+05 -2.011835E+04  2.858814E+04
       147   8  2.412520E+05  6.518145E+05  1.975372E+05 -4.134849E+04 -3.069504E+04  2.873980E+04
       147   9  2.557678E+05  9.347184E+05  2.389215E+05 -1.376462E+05 -1.130979E+04  2.895118E+04
       147  10 -1.585533E+05 -9.547619E+05 -1.732339E+05 -1.443163E+05 -8.021291E-11  6.153291E-10
       147  11 -2.264474E+05 -1.234627E+06 -2.541204E+05 -4.807289E+04  9.706165E-10  1.028535E-09
       147  12 -3.602560E+05 -1.534901E+06 -3.712927E+05 -1.676081E+05  9.112441E-10  1.721936E-10
       147  13  3.823291E+03 -3.006730E+05 -1.615839E+04 -1.525479E+05  5.458957E-11  1.014558E-11
       147  14  7.433940E+03 -2.918147E+05 -2.826182E+04 -4.471313E+04 -4.993444E-10  2.172072E-09
       147  15 -5.218778E+04 -3.007853E+05 -6.612999E+04 -1.526423E+05  2.035982E-10 -2.141029E-10
       147  16  1.661689E+05  3.538083E+05  1.408868E+05 -1.607879E+05 -1.151438E-09 -3.206738E-09
       147  17  2.412508E+05  6.518133E+05  1.975338E+05 -4.134778E+04 -6.246141E-10  1.159939E-09
       147  18  2.557675E+05  9.347174E+05  2.389197E+05 -1.376459E+05  1.126447E-09 -1.424381E-10
       147  19 -1.585528E+05 -9.547618E+05 -1.732332E+05 -1.443163E+05  2.005047E+04 -2.793698E+03
       147  20 -2.264461E+05 -1.234625E+06 -2.541165E+05 -4.807371E+04  3.071076E+04 -3.311400E+04
       147  21 -3.602548E+05 -1.534897E+06 -3.712849E+05 -1.676087E+05  1.137005E+04 -6.347870E+04
       147  22  3.823790E+03 -3.006726E+05 -1.615717E+04 -1.525482E+05  2.008425E+04 -1.568415E+04
       147  23  7.435209E+03 -2.918134E+05 -2.825825E+04 -4.471389E+04  3.070289E+04 -3.092857E+04
       147  24 -5.218706E+04 -3.007830E+05 -6.612573E+04 -1.526427E+05  1.133949E+04 -4.623213E+04
       147  25  1.661696E+05  3.538093E+05  1.408891E+05 -1.607884E+05  2.011835E+04 -2.858814E+04
       147  26  2.412520E+05  6.518145E+05  1.975372E+05 -4.134849E+04  3.069504E+04 -2.873980E+04
       147  27  2.557678E+05  9.347184E+05  2.389215E+05 -1.376462E+05  1.130979E+04 -2.895118E+04
       148   1 -1.272026E+06 -3.750696E+05 -2.138137E+05 -4.545334E+05 -9.166474E+04 -3.106685E+04
       148   2 -1.236537E+06 -2.312593E+05 -1.254943E+05 -4.569353E+05 -5.967920E+04 -1.237758E+04
       148   3 -1.237791E+06 -2.262054E+05 -9.668564E+04 -4.437445E+05 -2.512551E+04 -5.123222E+02
       148   4 -1.007015E+06 -2.458771E+05 -1.358794E+05 -3.524685E+05 -8.733284E+04 -2.944335E+04
       148   5 -9.819240E+05 -1.271788E+05 -5.663551E+04 -3.789175E+05 -5.855025E+04 -1.195453E+04
       148   6 -9.929211E+05 -1.465723E+05 -3.434148E+04 -3.897797E+05 -2.720091E+04 -1.291567E+03
       148   7 -7.419326E+05 -1.166650E+05 -5.795170E+04 -2.503593E+05 -8.299889E+04 -2.781856E+04
       148   8 -7.272474E+05 -2.309100E+04  1.221759E+04 -3.008694E+05 -5.742078E+04 -1.153125E+04
       148   9 -7.479929E+05 -6.693900E+04  2.799802E+04 -3.357974E+05 -2.927722E+04 -2.071045E+03
       148  10 -1.272035E+06 -3.750729E+05 -2.138313E+05 -4.545357E+05  8.163216E-10 -6.420946E-10
       148  11 -1.236541E+06 -2.312604E+05 -1.255013E+05 -4.569359E+05  1.752776E-09  5.752699E-10
       148  12 -1.237792E+06 -2.262056E+05 -9.668683E+04 -4.437445E+05 -2.084538E-09  5.586368E-10
       148  13 -1.007023E+06 -2.458801E+05 -1.358954E+05 -3.524706E+05 -3.164519E-10  4.508873E-10
       148  14 -9.819277E+05 -1.271799E+05 -5.664223E+04 -3.789180E+05  1.517859E-09 -1.844062E-11
       148  15 -9.929219E+05 -1.465725E+05 -3.434287E+04 -3.897798E+05 -1.456938E-09 -2.144950E-11
       148  16 -7.419402E+05 -1.166677E+05 -5.796612E+04 -2.503612E+05 -4.413090E-10 -5.877511E-10
       148  17 -7.272510E+05 -2.309203E+04  1.221113E+04 -3.008699E+05 -1.045579E-09 -6.818058E-11
       148  18 -7.479938E+05 -6.693923E+04  2.799640E+04 -3.357974E+05  5.054453E-10  8.438149E-10
       148  19 -1.272026E+06 -3.750696E+05 -2.138137E+05 -4.545334E+05  9.166474E+04  3.106685E+04
       148  20 -1.236537E+06 -2.312593E+05 -1.254943E+05 -4.569353E+05  5.967920E+04  1.237758E+04
       148  21 -1.237791E+06 -2.262054E+05 -9.668564E+04 -4.437445E+05  2.512551E+04  5.123222E+02
       148  22 -1.007015E+06 -2.458771E+05 -1.358794E+05 -3.524685E+05  8.733284E+04  2.944335E+04
       148  23 -9.819240E+05 -1.271788E+05 -5.663551E+04 -3.789175E+05  5.855025E+04  1.195453E+04
       148  24 -9.929211E+05 -1.465723E+05 -3.434148E+04 -3.897797E+05  2.720091E+04  1.291567E+03
       148  25 -7.419326E+05 -1.166650E+05 -5.795170E+04 -2.503593E+05  8.299889E+04  2.781856E+04
       148  26 -7.272474E+05 -2.309100E+04  1.221759E+04 -3.008694E+05  5.742078E+04  1.153125E+04
       148  27 -7.479929E+05 -6.693900E+04  2.799802E+04 -3.357974E+05  2.927722E+04  2.071045E+03
       149   1 -1.184479E+06 -2.376783E+05 -8.050805E+04 -4.383467E+05 -2.156454E+04 -1.030130E+03
       149   2 -1.163605E+06 -2.062437E+05 -5.888288E+04 -4.244040E+05 -1.411678E+04  1.112314E+03
       149   3 -1.133598E+06 -2.038027E+05 -4.639432E+04 -4.244679E+05 -6.456104E+03  2.687488E+03
       149   4 -9.883255E+05 -1.609536E+05 -2.795475E+04 -3.818383E+05 -2.170538E+04 -1.083299E+03
       149   5 -9.921436E+05 -1.410210E+05 -1.338424E+04 -3.768839E+05 -1.452273E+04  9.597796E+02
       149   6 -9.867753E+05 -1.500269E+05 -7.737653E+03 -3.859367E+05 -7.127481E+03  2.435490E+03
       149   7 -7.921350E+05 -8.422587E+04  2.459500E+04 -3.253136E+05 -2.184628E+04 -1.136486E+03
       149   8 -8.206536E+05 -7.579641E+04  3.211186E+04 -3.293520E+05 -1.492880E+04  8.071977E+02
       149   9 -8.399309E+05 -9.625002E+04  3.091729E+04 -3.473972E+05 -7.799035E+03  2.183429E+03
       149  10 -1.184480E+06 -2.376784E+05 -8.050893E+04 -4.383467E+05  1.463843E-09  8.408678E-10
       149  11 -1.163605E+06 -2.062437E+05 -5.888326E+04 -4.244040E+05  8.263911E-10 -1.548980E-10
       149  12 -1.133598E+06 -2.038027E+05 -4.639441E+04 -4.244679E+05 -9.595365E-10  2.282200E-10
       149  13 -9.883260E+05 -1.609537E+05 -2.795564E+04 -3.818383E+05  1.980966E-09  4.102954E-10
       149  14 -9.921438E+05 -1.410211E+05 -1.338463E+04 -3.768839E+05  2.609658E-09 -9.551345E-10
       149  15 -9.867753E+05 -1.500269E+05 -7.737760E+03 -3.859367E+05 -5.293489E-10  3.930114E-10
       149  16 -7.921355E+05 -8.422600E+04  2.459410E+04 -3.253136E+05 -7.779313E-10 -4.845115E-10
       149  17 -8.206538E+05 -7.579648E+04  3.211144E+04 -3.293520E+05 -8.458713E-10 -3.479099E-10
       149  18 -8.399310E+05 -9.625004E+04  3.091716E+04 -3.473972E+05  6.813862E-10  6.529731E-10
       149  19 -1.184479E+06 -2.376783E+05 -8.050805E+04 -4.383467E+05  2.156454E+04  1.030130E+03
       149  20 -1.163605E+06 -2.062437E+05 -5.888288E+04 -4.244040E+05  1.411678E+04 -1.112314E+03
       149  21 -1.133598E+06 -2.038027E+05 -4.639432E+04 -4.244679E+05  6.456104E+03 -2.687488E+03
       149  22 -9.883255E+05 -1.609536E+05 -2.795475E+04 -3.818383E+05  2.170538E+04  1.083299E+03
       149  23 -9.921436E+05 -1.410210E+05 -1.338424E+04 -3.768839E+05  1.452273E+04 -9.597796E+02
       149  24 -9.867753E+05 -1.500269E+05 -7.737653E+03 -3.859367E+05  7.127481E+03 -2.435490E+03
       149  25 -7.921350E+05 -8.422587E+04  2.459500E+04 -3.253136E+05  2.184628E+04  1.136486E+03
       149  26 -8.206536E+05 -7.579641E+04  3.211186E+04 -3.293520E+05  1.492880E+04 -8.071977E+02
       149  27 -8.399309E+05 -9.625002E+04  3.091729E+04 -3.473972E+05  7.799035E+03 -2.183429E+03
       150   1 -1.092869E+06 -1.920196E+05 -3.426340E+04 -4.144866E+05 -5.213153E+03  2.293203E+03
       150   2 -1.073416E+06 -1.725973E+05 -2.434144E+04 -3.984234E+05 -3.152208E+03  1.787116E+03
       150   3 -1.039147E+06 -1.702991E+05 -1.605244E+04 -3.998772E+05 -1.071690E+03  1.228307E+03
       150   4 -9.861201E+05 -1.516476E+05 -6.060803E+03 -3.851215E+05 -5.729665E+03  2.099364E+03
       150   5 -9.934452E+05 -1.424941E+05 -3.179253E+03 -3.765854E+05 -3.693275E+03  1.584122E+03
       150   6 -9.859506E+05 -1.504593E+05 -1.910819E+03 -3.855663E+05 -1.637393E+03  1.016133E+03
       150   7 -8.793604E+05 -1.112748E+05  2.214081E+04 -3.557518E+05 -6.246274E+03  1.905488E+03
       150   8 -9.134688E+05 -1.123904E+05  1.798236E+04 -3.547448E+05 -4.234417E+03  1.381099E+03
       150   9 -9.327516E+05 -1.306195E+05  1.223052E+04 -3.712543E+05 -2.203147E+03  8.039406E+02
       150  10 -1.092869E+06 -1.920196E+05 -3.426346E+04 -4.144866E+05  5.232288E-10  6.409083E-10
       150  11 -1.073416E+06 -1.725973E+05 -2.434147E+04 -3.984234E+05 -1.113935E-09 -3.233226E-10
       150  12 -1.039147E+06 -1.702991E+05 -1.605245E+04 -3.998772E+05 -5.116707E-10  2.663906E-10
       150  13 -9.861201E+05 -1.516476E+05 -6.060873E+03 -3.851215E+05 -8.961660E-10  5.566364E-10
       150  14 -9.934452E+05 -1.424941E+05 -3.179283E+03 -3.765854E+05  1.003059E-09 -2.175497E-11
       150  15 -9.859506E+05 -1.504593E+05 -1.910826E+03 -3.855663E+05 -1.314808E-09  4.313150E-10
       150  16 -8.793604E+05 -1.112748E+05  2.214073E+04 -3.557518E+05 -1.421432E-09  6.167372E-10
       150  17 -9.134688E+05 -1.123904E+05  1.798232E+04 -3.547448E+05  1.844832E-11  4.551343E-11
       150  18 -9.327516E+05 -1.306195E+05  1.223051E+04 -3.712543E+05 -1.383860E-09  7.178479E-10
       150  19 -1.092869E+06 -1.920196E+05 -3.426340E+04 -4.144866E+05  5.213153E+03 -2.293203E+03
       150  20 -1.073416E+06 -1.725973E+05 -2.434144E+04 -3.984234E+05  3.152208E+03 -1.787116E+03
       150  21 -1.039147E+06 -1.702991E+05 -1.605244E+04 -3.998772E+05  1.071690E+03 -1.228307E+03
       150  22 -9.861201E+05 -1.516476E+05 -6.060803E+03 -3.851215E+05  5.729665E+03 -2.099364E+03
       150  23 -9.934452E+05 -1.424941E+05 -3.179253E+03 -3.765854E+05  3.693275E+03 -1.584122E+03
       150  24 -9.859506E+05 -1.504593E+05 -1.910819E+03 -3.855663E+05  1.637393E+03 -1.016133E+03
       150  25 -8.793604E+05 -1.112748E+05  2.214081E+04 -3.557518E+05  6.246274E+03 -1.905488E+03
       150  26 -9.134688E+05 -1.123904E+05  1.798236E+04 -3.547448E+05  4.234417E+03 -1.381099E+03
       150  27 -9.327516E+05 -1.306195E+05  1.223052E+04 -3.712543E+05  2.203147E+03 -8.039406E+02
       151   1 -9.994241E+05 -1.557435E+05 -5.051845E+03 -3.892194E+05 -5.388569E+02  6.373716E+02
       151   2 -9.800841E+05 -1.375560E+05  2.445711E+03 -3.728542E+05  4.713620E+02 -3.247422E+02
       151   3 -9.452079E+05 -1.352800E+05  9.461462E+03 -3.744313E+05  1.482382E+03 -1.288776E+03
       151   4 -9.858540E+05 -1.506392E+05 -1.560737E+03 -3.854925E+05 -1.092426E+03  4.297654E+02
       151   5 -9.936153E+05 -1.426384E+05 -1.132846E+03 -3.765380E+05 -8.313002E+01 -5.327069E+02
       151   6 -9.858415E+05 -1.505493E+05 -1.186145E+03 -3.855263E+05  9.269341E+02 -1.497104E+03
       151   7 -9.722837E+05 -1.455349E+05  1.930375E+03 -3.817655E+05 -1.646012E+03  2.221533E+02
       151   8 -1.007146E+06 -1.477208E+05 -4.711410E+03 -3.802217E+05 -6.376079E+02 -7.406662E+02
       151   9 -1.026473E+06 -1.658183E+05 -1.183380E+04 -3.966206E+05  3.715307E+02 -1.705416E+03
       151  10 -9.994241E+05 -1.557435E+05 -5.051846E+03 -3.892194E+05 -1.370721E-09  7.981215E-10
       151  11 -9.800841E+05 -1.375560E+05  2.445710E+03 -3.728542E+05 -8.052764E-10  4.424743E-10
       151  12 -9.452079E+05 -1.352800E+05  9.461455E+03 -3.744313E+05 -1.407531E-09 -8.381932E-11
       151  13 -9.858540E+05 -1.506392E+05 -1.560739E+03 -3.854925E+05  9.943610E-10  5.126192E-10
       151  14 -9.936153E+05 -1.426384E+05 -1.132846E+03 -3.765380E+05 -3.502906E-10  6.714707E-11
       151  15 -9.858415E+05 -1.505493E+05 -1.186151E+03 -3.855263E+05  5.326903E-10  2.171998E-10
       151  16 -9.722837E+05 -1.455349E+05  1.930370E+03 -3.817655E+05  1.315453E-10  2.791686E-10
       151  17 -1.007146E+06 -1.477208E+05 -4.711412E+03 -3.802217E+05 -1.106655E-09 -3.773627E-10
       151  18 -1.026473E+06 -1.658183E+05 -1.183381E+04 -3.966206E+05  1.430358E-09  7.483517E-10
       151  19 -9.994241E+05 -1.557435E+05 -5.051845E+03 -3.892194E+05  5.388569E+02 -6.373716E+02
       151  20 -9.800841E+05 -1.375560E+05  2.445711E+03 -3.728542E+05 -4.713620E+02  3.247422E+02
       151  21 -9.452079E+05 -1.352800E+05  9.461462E+03 -3.744313E+05 -1.482382E+03  1.288776E+03
       151  22 -9.858540E+05 -1.506392E+05 -1.560737E+03 -3.854925E+05  1.092426E+03 -4.297654E+02
       151  23 -9.936153E+05 -1.426384E+05 -1.132846E+03 -3.765380E+05  8.313002E+01  5.327069E+02
       151  24 -9.858415E+05 -1.505493E+05 -1.186145E+03 -3.855263E+05 -9.269341E+02  1.497104E+03
       151  25 -9.722837E+05 -1.455349E+05  1.930375E+03 -3.817655E+05  1.646012E+03 -2.221533E+02
       151  26 -1.007146E+06 -1.477208E+05 -4.711410E+03 -3.802217E+05  6.376079E+02  7.406662E+02
       151  27 -1.026473E+06 -1.658183E+05 -1.183380E+04 -3.966206E+05 -3.715307E+02  1.705416E+03
       152   1 -9.058143E+05 -1.204240E+05  1.992825E+04 -3.637456E+05  1.948620E+03 -1.896889E+03
       152   2 -8.866926E+05 -1.025071E+05  2.620300E+04 -3.474880E+05  3.412405E+03 -2.682049E+03
       152   3 -8.523487E+05 -1.005694E+05  3.159453E+04 -3.489080E+05  4.870505E+03 -3.450958E+03
       152   4 -9.859010E+05 -1.504808E+05 -1.346808E+03 -3.854996E+05  1.393482E+03 -2.105131E+03
       152   5 -9.935354E+05 -1.426576E+05 -2.055229E+03 -3.765980E+05  2.864703E+03 -2.887584E+03
       152   6 -9.859495E+05 -1.508154E+05 -3.652768E+03 -3.853746E+05  4.330193E+03 -3.653800E+03
       152   7 -1.065982E+06 -1.805373E+05 -2.262249E+04 -4.072511E+05  8.384210E+02 -2.313345E+03
       152   8 -1.100368E+06 -1.828077E+05 -3.031462E+04 -4.057037E+05  2.317102E+03 -3.093081E+03
       152   9 -1.119534E+06 -2.010608E+05 -3.890193E+04 -4.218344E+05  3.790004E+03 -3.856596E+03
       152  10 -9.058143E+05 -1.204240E+05  1.992823E+04 -3.637456E+05  1.432261E-09  3.400664E-10
       152  11 -8.866926E+05 -1.025071E+05  2.620296E+04 -3.474879E+05 -3.924934E-10  1.551537E-10
       152  12 -8.523487E+05 -1.005695E+05  3.159447E+04 -3.489080E+05 -4.842976E-10  4.323127E-10
       152  13 -9.859010E+05 -1.504808E+05 -1.346820E+03 -3.854996E+05 -6.454471E-10  2.897682E-10
       152  14 -9.935354E+05 -1.426576E+05 -2.055261E+03 -3.765980E+05 -1.677604E-09  7.836782E-11
       152  15 -9.859495E+05 -1.508155E+05 -3.652828E+03 -3.853746E+05 -2.039682E-09  4.190577E-10
       152  16 -1.065982E+06 -1.805373E+05 -2.262251E+04 -4.072511E+05 -2.130588E-09  4.022258E-10
       152  17 -1.100368E+06 -1.828077E+05 -3.031465E+04 -4.057037E+05 -2.548768E-09 -2.449904E-10
       152  18 -1.119534E+06 -2.010608E+05 -3.890198E+04 -4.218344E+05 -1.568054E-09  3.967701E-10
       152  19 -9.058143E+05 -1.204240E+05  1.992825E+04 -3.637456E+05 -1.948620E+03  1.896889E+03
       152  20 -8.866926E+05 -1.025071E+05  2.620300E+04 -3.474880E+05 -3.412405E+03  2.682049E+03
       152  21 -8.523487E+05 -1.005694E+05  3.159453E+04 -3.489080E+05 -4.870505E+03  3.450958E+03
       152  22 -9.859010E+05 -1.504808E+05 -1.346808E+03 -3.854996E+05 -1.393482E+03  2.105131E+03
       152  23 -9.935354E+05 -1.426576E+05 -2.055229E+03 -3.765980E+05 -2.864703E+03  2.887584E+03
       152  24 -9.859495E+05 -1.508154E+05 -3.652768E+03 -3.853746E+05 -4.330193E+03  3.653800E+03
       152  25 -1.065982E+06 -1.805373E+05 -2.262249E+04 -4.072511E+05 -8.384210E+02  2.313345E+03
       152  26 -1.100368E+06 -1.828077E+05 -3.031462E+04 -4.057037E+05 -2.317102E+03  3.093081E+03
       152  27 -1.119534E+06 -2.010608E+05 -3.890193E+04 -4.218344E+05 -3.790004E+03  3.856596E+03
       153   1 -8.138009E+05 -8.588321E+04  4.089858E+04 -3.389939E+05  5.827465E+03 -3.865653E+03
       153   2 -7.950036E+05 -6.772917E+04  4.405723E+04 -3.226575E+05  1.045756E+04 -3.424083E+03
       153   3 -7.631879E+05 -6.871220E+04  4.299227E+04 -3.226162E+05  1.505826E+04 -2.902299E+03
       153   4 -9.862699E+05 -1.502800E+05 -4.733275E+03 -3.855341E+05  5.272290E+03 -4.074148E+03
       153   5 -9.930036E+05 -1.423086E+05 -8.340588E+03 -3.767863E+05  9.938789E+03 -3.619052E+03
       153   6 -9.867271E+05 -1.534825E+05 -1.620136E+04 -3.843337E+05  1.457572E+04 -3.083805E+03
       153   7 -1.158709E+06 -2.146747E+05 -5.036732E+04 -4.320623E+05  4.717289E+03 -4.282579E+03
       153   8 -1.190965E+06 -2.168854E+05 -6.074155E+04 -4.308992E+05  9.420206E+03 -3.813952E+03
       153   9 -1.210218E+06 -2.382494E+05 -7.539924E+04 -4.460310E+05  1.409338E+04 -3.265238E+03
       153  10 -8.138010E+05 -8.588324E+04  4.089849E+04 -3.389938E+05 -1.508178E-09  6.429866E-10
       153  11 -7.950038E+05 -6.772921E+04  4.405700E+04 -3.226575E+05  2.332467E-10  7.908255E-10
       153  12 -7.631881E+05 -6.871227E+04  4.299183E+04 -3.226162E+05  1.516649E-09  6.981953E-11
       153  13 -9.862700E+05 -1.502801E+05 -4.733358E+03 -3.855341E+05 -2.681453E-09  8.838561E-10
       153  14 -9.930037E+05 -1.423087E+05 -8.340799E+03 -3.767863E+05  1.515662E-09  1.142835E-09
       153  15 -9.867274E+05 -1.534825E+05 -1.620178E+04 -3.843337E+05 -7.843234E-10 -8.207793E-10
       153  16 -1.158709E+06 -2.146747E+05 -5.036739E+04 -4.320623E+05 -1.439858E-09  1.046685E-09
       153  17 -1.190965E+06 -2.168854E+05 -6.074174E+04 -4.308992E+05 -1.549200E-09  2.111299E-11
       153  18 -1.210218E+06 -2.382495E+05 -7.539964E+04 -4.460310E+05 -1.324617E-09 -1.232412E-09
       153  19 -8.138009E+05 -8.588321E+04  4.089858E+04 -3.389939E+05 -5.827465E+03  3.865653E+03
       153  20 -7.950036E+05 -6.772917E+04  4.405723E+04 -3.226575E+05 -1.045756E+04  3.424083E+03
       153  21 -7.631879E+05 -6.871220E+04  4.299227E+04 -3.226162E+05 -1.505826E+04  2.902299E+03
       153  22 -9.862699E+05 -1.502800E+05 -4.733275E+03 -3.855341E+05 -5.272290E+03  4.074148E+03
       153  23 -9.930036E+05 -1.423086E+05 -8.340588E+03 -3.767863E+05 -9.938789E+03  3.619052E+03
       153  24 -9.867271E+05 -1.534825E+05 -1.620136E+04 -3.843337E+05 -1.457572E+04  3.083805E+03
       153  25 -1.158709E+06 -2.146747E+05 -5.036732E+04 -4.320623E+05 -4.717289E+03  4.282579E+03
       153  26 -1.190965E+06 -2.168854E+05 -6.074155E+04 -4.308992E+05 -9.420206E+03  3.813952E+03
       153  27 -1.210218E+06 -2.382494E+05 -7.539924E+04 -4.460310E+05 -1.409338E+04  3.265238E+03
       154   1 -7.245826E+05 -5.378463E+04  4.838662E+04 -3.185887E+05  1.853124E+04 -2.450890E+03
       154   2 -7.053839E+05 -2.927564E+04  3.956024E+04 -2.978085E+05  3.731850E+04  3.391220E+03
       154   3 -6.880323E+05 -5.597054E+04  7.004246E+03 -2.842204E+05  5.581742E+04  1.000459E+04
       154   4 -9.884313E+05 -1.491901E+05 -2.075191E+04 -3.866110E+05  1.784160E+04 -2.710194E+03
       154   5 -9.895605E+05 -1.382470E+05 -3.600073E+04 -3.774909E+05  3.698372E+04  3.264843E+03
       154   6 -9.926155E+05 -1.785904E+05 -7.526953E+04 -3.755628E+05  5.583675E+04  1.001062E+04
       154   7 -1.252213E+06 -2.445929E+05 -8.989652E+04 -4.546079E+05  1.715229E+04 -2.969389E+03
       154   8 -1.273659E+06 -2.472127E+05 -1.115688E+05 -4.571401E+05  3.664910E+04  3.138531E+03
       154   9 -1.297109E+06 -3.012010E+05 -1.575516E+05 -4.668634E+05  5.585605E+04  1.001665E+04
       154  10 -7.245829E+05 -5.378473E+04  4.838596E+04 -3.185887E+05  6.900848E-10 -6.815962E-10
       154  11 -7.053854E+05 -2.927603E+04  3.955760E+04 -2.978086E+05  1.609902E-09 -3.627213E-10
       154  12 -6.880357E+05 -5.597149E+04  6.998195E+03 -2.842209E+05  9.801804E-11 -5.278177E-10
       154  13 -9.884316E+05 -1.491902E+05 -2.075252E+04 -3.866109E+05  1.101293E-09 -6.682450E-10
       154  14 -9.895620E+05 -1.382473E+05 -3.600332E+04 -3.774910E+05  2.739760E-09  3.288122E-10
       154  15 -9.926189E+05 -1.785914E+05 -7.527559E+04 -3.755633E+05  7.198945E-10 -1.878027E-09
       154  16 -1.252214E+06 -2.445930E+05 -8.989709E+04 -4.546078E+05  1.211813E-09 -8.428279E-10
       154  17 -1.273661E+06 -2.472131E+05 -1.115714E+05 -4.571402E+05  6.025743E-10  5.095470E-11
       154  18 -1.297112E+06 -3.012019E+05 -1.575577E+05 -4.668639E+05 -6.869368E-10 -1.787894E-09
       154  19 -7.245826E+05 -5.378463E+04  4.838662E+04 -3.185887E+05 -1.853124E+04  2.450890E+03
       154  20 -7.053839E+05 -2.927564E+04  3.956024E+04 -2.978085E+05 -3.731850E+04 -3.391220E+03
       154  21 -6.880323E+05 -5.597054E+04  7.004246E+03 -2.842204E+05 -5.581742E+04 -1.000459E+04
       154  22 -9.884313E+05 -1.491901E+05 -2.075191E+04 -3.866110E+05 -1.784160E+04  2.710194E+03
       154  23 -9.895605E+05 -1.382470E+05 -3.600073E+04 -3.774909E+05 -3.698372E+04 -3.264843E+03
       154  24 -9.926155E+05 -1.785904E+05 -7.526953E+04 -3.755628E+05 -5.583675E+04 -1.001062E+04
       154  25 -1.252213E+06 -2.445929E+05 -8.989652E+04 -4.546079E+05 -1.715229E+04  2.969389E+03
       154  26 -1.273659E+06 -2.472127E+05 -1.115688E+05 -4.571401E+05 -3.664910E+04 -3.138531E+03
       154  27 -1.297109E+06 -3.012010E+05 -1.575516E+05 -4.668634E+05 -5.585605E+04 -1.001665E+04
       155   1 -6.351608E+05 -3.460742E+04 -1.264022E+03 -3.307905E+05  7.228226E+04  1.402011E+04
       155   2 -6.108359E+05  5.406514E+04 -5.536319E+04 -2.635799E+05  1.517428E+05  4.300482E+04
       155   3 -7.087252E+05 -2.024465E+05 -2.594065E+05 -1.248519E+05  2.277462E+05  8.118046E+04
       155   4 -1.004768E+06 -1.400997E+05 -9.248272E+04 -3.972355E+05  6.970294E+04  1.305341E+04
       155   5 -9.622468E+05 -1.006769E+05 -1.525057E+05 -3.826630E+05  1.534456E+05  4.363895E+04
       155   6 -1.042874E+06 -4.074197E+05 -3.659382E+05 -2.965515E+05  2.337317E+05  8.340064E+04
       155   7 -1.374242E+06 -2.455948E+05 -1.837109E+05 -4.636510E+05  6.712530E+04  1.208699E+04
       155   8 -1.313535E+06 -2.553972E+05 -2.496592E+05 -5.016800E+05  1.551473E+05  4.427252E+04
       155   9 -1.376896E+06 -6.123163E+05 -4.724787E+05 -4.681481E+05  2.397137E+05  8.561754E+04
       155  10 -6.351664E+05 -3.460904E+04 -1.274222E+03 -3.307914E+05 -3.677339E-09 -2.298741E-10
       155  11 -6.108612E+05  5.405696E+04 -5.540999E+04 -2.635852E+05 -1.809682E-09  3.078257E-09
       155  12 -7.087828E+05 -2.024676E+05 -2.595165E+05 -1.248668E+05  9.346548E-10 -5.559950E-10
       155  13 -1.004773E+06 -1.401012E+05 -9.249219E+04 -3.972362E+05  7.267292E-12 -1.084436E-09
       155  14 -9.622727E+05 -1.006853E+05 -1.525536E+05 -3.826684E+05  2.175055E-09  5.250237E-11
       155  15 -1.042935E+06 -4.074419E+05 -3.660541E+05 -2.965672E+05 -2.140311E-09  3.493832E-09
       155  16 -1.374247E+06 -2.455962E+05 -1.837196E+05 -4.636517E+05  7.094672E-11  3.817384E-10
       155  17 -1.313561E+06 -2.554058E+05 -2.497082E+05 -5.016855E+05 -1.656907E-09  3.126848E-09
       155  18 -1.376960E+06 -6.123396E+05 -4.726008E+05 -4.681646E+05  2.755868E-10 -4.692231E-10
       155  19 -6.351608E+05 -3.460742E+04 -1.264022E+03 -3.307905E+05 -7.228226E+04 -1.402011E+04
       155  20 -6.108359E+05  5.406514E+04 -5.536319E+04 -2.635799E+05 -1.517428E+05 -4.300482E+04
       155  21 -7.087252E+05 -2.024465E+05 -2.594065E+05 -1.248519E+05 -2.277462E+05 -8.118046E+04
       155  22 -1.004768E+06 -1.400997E+05 -9.248272E+04 -3.972355E+05 -6.970294E+04 -1.305341E+04
       155  23 -9.622468E+05 -1.006769E+05 -1.525057E+05 -3.826630E+05 -1.534456E+05 -4.363895E+04
       155  24 -1.042874E+06 -4.074197E+05 -3.659382E+05 -2.965515E+05 -2.337317E+05 -8.340064E+04
       155  25 -1.374242E+06 -2.455948E+05 -1.837109E+05 -4.636510E+05 -6.712530E+04 -1.208699E+04
       155  26 -1.313535E+06 -2.553972E+05 -2.496592E+05 -5.016800E+05 -1.551473E+05 -4.427252E+04
       155  27 -1.376896E+06 -6.123163E+05 -4.724787E+05 -4.681481E+05 -2.397137E+05 -8.561754E+04
       156   1  2.642084E+05  2.218069E+06  2.573096E+05 -1.204657E+05  1.166426E+04  1.053698E+05
       156   2  2.017349E+05  2.133298E+06  1.786364E+05 -9.703968E+04  3.942588E+04  5.265882E+04
       156   3  1.714472E+05  2.063425E+06  1.422686E+05 -8.773433E+04  4.727146E+04 -6.438325E+01
       156   4  4.856130E+04  1.342446E+06  5.338596E+04 -8.787085E+04  1.176159E+04  3.377026E+04
       156   5  1.308084E+04  1.338306E+06  2.903101E+04 -8.084411E+04  3.947831E+04  1.894438E+04
       156   6  3.245690E+03  1.342513E+06  2.074744E+04 -8.793593E+04  4.727008E+04  4.098233E+03
       156   7 -1.671332E+05  4.675409E+05 -1.505697E+05 -5.532191E+04  1.185151E+04 -3.772932E+04
       156   8 -1.756083E+05  5.439247E+05 -1.205976E+05 -6.466949E+04  3.952903E+04 -1.472809E+04
       156   9 -1.649831E+05  6.221118E+05 -1.007902E+05 -8.813708E+04  4.726870E+04  8.256184E+03
       156  10  2.642053E+05  2.218057E+06  2.572885E+05 -1.204667E+05  2.668994E-10  1.078182E-08
       156  11  2.017325E+05  2.133295E+06  1.786283E+05 -9.704135E+04  6.389725E-10 -1.944693E-08
       156  12  1.714448E+05  2.063424E+06  1.422644E+05 -8.773433E+04  7.522373E-10 -4.785589E-08
       156  13  4.856085E+04  1.342444E+06  5.338356E+04 -8.787117E+04  1.234212E-10 -1.730179E-10
       156  14  1.307907E+04  1.338305E+06  2.902740E+04 -8.084471E+04  3.335212E-09 -2.796195E-09
       156  15  3.243285E+03  1.342512E+06  2.074321E+04 -8.793609E+04  1.087416E-09  3.838062E-09
       156  16 -1.671338E+05  4.675394E+05 -1.505726E+05 -5.532155E+04 -8.119903E-10 -1.205238E-08
       156  17 -1.756101E+05  5.439241E+05 -1.206010E+05 -6.466903E+04 -1.917081E-09  2.028428E-08
       156  18 -1.649855E+05  6.221112E+05 -1.007946E+05 -8.813739E+04  3.003665E-10  4.730131E-08
       156  19  2.642084E+05  2.218069E+06  2.573096E+05 -1.204657E+05 -1.166426E+04 -1.053698E+05
       156  20  2.017349E+05  2.133298E+06  1.786364E+05 -9.703968E+04 -3.942588E+04 -5.265882E+04
       156  21  1.714472E+05  2.063425E+06  1.422686E+05 -8.773433E+04 -4.727146E+04  6.438325E+01
       156  22  4.856130E+04  1.342446E+06  5.338596E+04 -8.787085E+04 -1.176159E+04 -3.377026E+04
       156  23  1.308084E+04  1.338306E+06  2.903101E+04 -8.084411E+04 -3.947831E+04 -1.894438E+04
       156  24  3.245690E+03  1.342513E+06  2.074744E+04 -8.793593E+04 -4.727008E+04 -4.098233E+03
       156  25 -1.671332E+05  4.675409E+05 -1.505697E+05 -5.532191E+04 -1.185151E+04  3.772932E+04
       156  26 -1.756083E+05  5.439247E+05 -1.205976E+05 -6.466949E+04 -3.952903E+04  1.472809E+04
       156  27 -1.649831E+05  6.221118E+05 -1.007902E+05 -8.813708E+04 -4.726870E+04 -8.256184E+03
       157   1  1.592236E+05  2.012057E+06  1.309515E+05 -9.126453E+04  4.544734E+04 -2.101606E+03
       157   2  1.399691E+05  1.933231E+06  1.178026E+05 -8.038906E+04  4.252024E+04 -1.839578E+04
       157   3  1.279272E+05  1.858299E+06  1.170358E+05 -8.497500E+04  3.686189E+04 -3.469411E+04
       157   4  3.075704E+03  1.341334E+06  1.968947E+04 -8.822975E+04  4.544702E+04  9.152072E+02
       157   5  2.395649E+03  1.339850E+06  2.218704E+04 -8.049516E+04  4.251023E+04 -1.017791E+04
       157   6  8.031061E+03  1.341357E+06  3.346787E+04 -8.822252E+04  3.684102E+04 -2.127703E+04
       157   7 -1.530954E+05  6.710532E+05 -9.158614E+04 -8.519815E+04  4.544674E+04  3.928879E+03
       157   8 -1.351955E+05  7.468185E+05 -7.343784E+04 -8.060099E+04  4.250021E+04 -1.967589E+03
       157   9 -1.118785E+05  8.246807E+05 -5.010674E+04 -9.146711E+04  3.682000E+04 -7.870706E+03
       157  10  1.592214E+05  2.012056E+06  1.309477E+05 -9.126446E+04  1.763638E-09  5.055432E-08
       157  11  1.399671E+05  1.933230E+06  1.177986E+05 -8.038843E+04 -1.069589E-09  2.024247E-08
       157  12  1.279255E+05  1.858297E+06  1.170310E+05 -8.497397E+04 -3.352366E-10 -1.299190E-08
       157  13  3.073485E+03  1.341333E+06  1.968558E+04 -8.822979E+04  1.699293E-09 -1.099220E-10
       157  14  2.393679E+03  1.339850E+06  2.218345E+04 -8.049481E+04  1.158555E-09 -3.336367E-09
       157  15  8.029482E+03  1.341357E+06  3.346447E+04 -8.822189E+04 -6.142367E-10  4.061088E-09
       157  16 -1.530976E+05  6.710526E+05 -9.159006E+04 -8.519830E+04  3.968043E-09 -5.207442E-08
       157  17 -1.351975E+05  7.468180E+05 -7.344125E+04 -8.060093E+04  4.247825E-09 -1.956440E-08
       157  18 -1.118799E+05  8.246803E+05 -5.010940E+04 -9.146688E+04 -2.664683E-10  1.199762E-08
       157  19  1.592236E+05  2.012057E+06  1.309515E+05 -9.126453E+04 -4.544734E+04  2.101606E+03
       157  20  1.399691E+05  1.933231E+06  1.178026E+05 -8.038906E+04 -4.252024E+04  1.839578E+04
       157  21  1.279272E+05  1.858299E+06  1.170358E+05 -8.497500E+04 -3.686189E+04  3.469411E+04
       157  22  3.075704E+03  1.341334E+06  1.968947E+04 -8.822975E+04 -4.544702E+04 -9.152072E+02
       157  23  2.395649E+03  1.339850E+06  2.218704E+04 -8.049516E+04 -4.251023E+04  1.017791E+04
       157  24  8.031061E+03  1.341357E+06  3.346787E+04 -8.822252E+04 -3.684102E+04  2.127703E+04
       157  25 -1.530954E+05  6.710532E+05 -9.158614E+04 -8.519815E+04 -4.544674E+04 -3.928879E+03
       157  26 -1.351955E+05  7.468185E+05 -7.343784E+04 -8.060099E+04 -4.250021E+04  1.967589E+03
       157  27 -1.118785E+05  8.246807E+05 -5.010674E+04 -9.146711E+04 -3.682000E+04  7.870706E+03
       158   1  1.172102E+05  1.814065E+06  1.187079E+05 -9.279380E+04  3.300351E+04 -3.990327E+04
       158   2  1.288000E+05  1.725089E+06  1.441119E+05 -3.825928E+04  2.298740E+04 -9.090589E+04
       158   3  2.143800E+05  1.661181E+06  2.211440E+05  3.680342E+02  6.363652E+03 -1.419173E+05
       158   4  8.466152E+03  1.345793E+06  4.249873E+04 -8.834638E+04  3.298188E+04 -2.696204E+04
       158   5  3.710712E+04  1.334317E+06  7.479482E+04 -8.028075E+04  2.294675E+04 -6.540607E+04
       158   6  1.375765E+05  1.345728E+06  1.500213E+05 -8.811812E+04  6.309677E+03 -1.038631E+05
       158   7 -1.002889E+05  8.777378E+05 -3.371599E+04 -8.390232E+04  3.296042E+04 -1.403019E+04
       158   8 -5.458712E+04  9.436995E+05  5.475491E+03 -1.222750E+05  2.290264E+04 -3.992180E+04
       158   9  6.079649E+04  1.030387E+06  7.890180E+04 -1.765590E+05  6.244867E+03 -6.582799E+04
       158  10  1.172086E+05  1.814063E+06  1.187029E+05 -9.279274E+04  2.608350E-10  2.390826E-09
       158  11  1.287972E+05  1.725080E+06  1.440954E+05 -3.825759E+04 -3.427572E-09  1.223836E-09
       158  12  2.143746E+05  1.661160E+06  2.211062E+05  3.687609E+02  2.045348E-10  2.490745E-10
       158  13  8.464789E+03  1.345792E+06  4.249533E+04 -8.834567E+04  3.580945E-10  1.345220E-10
       158  14  3.710541E+04  1.334313E+06  7.478581E+04 -8.027954E+04  1.667004E-09 -3.925295E-09
       158  15  1.375736E+05  1.345717E+06  1.500010E+05 -8.811759E+04 -2.817776E-10  4.851389E-09
       158  16 -1.002901E+05  8.777373E+05 -3.371840E+04 -8.390195E+04 -2.444361E-09 -4.128339E-09
       158  17 -5.458811E+04  9.436977E+05  5.471515E+03 -1.222743E+05  4.967818E-10 -4.541833E-10
       158  18  6.079529E+04  1.030383E+06  7.889360E+04 -1.765586E+05  4.668647E-10 -8.704136E-10
       158  19  1.172102E+05  1.814065E+06  1.187079E+05 -9.279380E+04 -3.300351E+04  3.990327E+04
       158  20  1.288000E+05  1.725089E+06  1.441119E+05 -3.825928E+04 -2.298740E+04  9.090589E+04
       158  21  2.143800E+05  1.661181E+06  2.211440E+05  3.680342E+02 -6.363652E+03  1.419173E+05
       158  22  8.466152E+03  1.345793E+06  4.249873E+04 -8.834638E+04 -3.298188E+04  2.696204E+04
       158  23  3.710712E+04  1.334317E+06  7.479482E+04 -8.028075E+04 -2.294675E+04  6.540607E+04
       158  24  1.375765E+05  1.345728E+06  1.500213E+05 -8.811812E+04 -6.309677E+03  1.038631E+05
       158  25 -1.002889E+05  8.777378E+05 -3.371599E+04 -8.390232E+04 -3.296042E+04  1.403019E+04
       158  26 -5.458712E+04  9.436995E+05  5.475491E+03 -1.222750E+05 -2.290264E+04  3.992180E+04
       158  27  6.079649E+04  1.030387E+06  7.890180E+04 -1.765590E+05 -6.244867E+03  6.582799E+04
       159   1  4.551250E+04 -1.038994E+05 -3.651602E+04  1.127307E+04  1.873811E+05  1.416543E+04
       159   2  1.260808E+05 -3.479473E+05 -1.687106E+05  3.764520E+03  1.308129E+05  4.092332E+04
       159   3  2.903489E+05 -2.957920E+05 -1.895636E+05 -9.450401E+04  7.430217E+04  3.694376E+04
       159   4  1.432757E+06  2.412248E+05  3.054244E+05 -6.214709E+04  2.090095E+05  1.419655E+04
       159   5  1.389762E+06 -3.503831E+04  1.335804E+05 -1.647904E+04  1.368044E+05  4.092442E+04
       159   6  1.432980E+06 -1.272230E+04  8.374578E+04 -6.155243E+04  6.466966E+04  3.693274E+04
       159   7  2.821762E+06  5.862270E+05  6.472276E+05 -1.357325E+05  2.306858E+05  1.422254E+04
       159   8  2.654906E+06  2.777569E+05  4.357592E+05 -3.676463E+04  1.428078E+05  4.092513E+04
       159   9  2.576808E+06  2.702569E+05  3.569640E+05 -2.854023E+04  5.501942E+04  3.692072E+04
       159  10  4.547474E+04 -1.039090E+05 -3.658238E+04  1.127093E+04 -2.549559E-10 -1.610958E-10
       159  11  1.260619E+05 -3.479537E+05 -1.687459E+05  3.760208E+03 -2.494743E-10 -4.358719E-10
       159  12  2.903426E+05 -2.957949E+05 -1.895765E+05 -9.450623E+04 -1.123010E-09  2.784458E-10
       159  13  1.432710E+06  2.412129E+05  3.053421E+05 -6.214948E+04  1.945951E-10 -1.876921E-10
       159  14  1.389741E+06 -3.504512E+04  1.335421E+05 -1.648355E+04 -5.279519E-10 -3.654202E-10
       159  15  1.432975E+06 -1.272489E+04  8.373537E+04 -6.155435E+04  1.418441E-09  2.396518E-10
       159  16  2.821705E+06  5.862126E+05  6.471276E+05 -1.357351E+05 -1.393353E-09 -2.388441E-10
       159  17  2.654883E+06  2.777496E+05  4.357179E+05 -3.676933E+04  2.647698E-10 -3.714485E-10
       159  18  2.576804E+06  2.702547E+05  3.569558E+05 -2.854187E+04  1.543079E-09  4.102627E-10
       159  19  4.551250E+04 -1.038994E+05 -3.651602E+04  1.127307E+04 -1.873811E+05 -1.416543E+04
       159  20  1.260808E+05 -3.479473E+05 -1.687106E+05  3.764520E+03 -1.308129E+05 -4.092332E+04
       159  21  2.903489E+05 -2.957920E+05 -1.895636E+05 -9.450401E+04 -7.430217E+04 -3.694376E+04
       159  22  1.432757E+06  2.412248E+05  3.054244E+05 -6.214709E+04 -2.090095E+05 -1.419655E+04
       159  23  1.389762E+06 -3.503831E+04  1.335804E+05 -1.647904E+04 -1.368044E+05 -4.092442E+04
       159  24  1.432980E+06 -1.272230E+04  8.374578E+04 -6.155243E+04 -6.466966E+04 -3.693274E+04
       159  25  2.821762E+06  5.862270E+05  6.472276E+05 -1.357325E+05 -2.306858E+05 -1.422254E+04
       159  26  2.654906E+06  2.777569E+05  4.357592E+05 -3.676463E+04 -1.428078E+05 -4.092513E+04
       159  27  2.576808E+06  2.702569E+05  3.569640E+05 -2.854023E+04 -5.501942E+04 -3.692072E+04
       160   1  4.327420E+05 -2.186247E+05 -1.676174E+05 -5.407333E+04  5.222894E+04  2.974056E+04
       160   2  5.427180E+05 -2.189289E+05 -1.731262E+05 -1.601333E+04  3.557047E+04  2.735434E+04
       160   3  6.636472E+05 -1.877853E+05 -1.597389E+05 -6.406955E+04  1.890253E+04  2.276028E+04
       160   4  1.416347E+06  2.507177E+04  6.828714E+04 -6.070152E+04  5.164233E+04  2.973645E+04
       160   5  1.410819E+06 -3.925063E+03  3.469606E+04 -1.764052E+04  3.384485E+04  2.735133E+04
       160   6  1.416412E+06 -1.301220E+03  2.076931E+04 -6.068734E+04  1.604099E+04  2.275952E+04
       160   7  2.400837E+06  2.686983E+05  3.041232E+05 -6.734035E+04  5.105474E+04  2.973236E+04
       160   8  2.279609E+06  2.110242E+05  2.424651E+05 -1.927002E+04  3.211681E+04  2.734834E+04
       160   9  2.169694E+06  1.851418E+05  2.012374E+05 -5.730094E+04  1.317598E+04  2.275874E+04
       160  10  4.327388E+05 -2.186264E+05 -1.676242E+05 -5.407459E+04 -4.985956E-10  3.399152E-10
       160  11  5.427165E+05 -2.189300E+05 -1.731300E+05 -1.601411E+04  8.511056E-10  1.114678E-11
       160  12  6.636467E+05 -1.877860E+05 -1.597405E+05 -6.406990E+04  7.009816E-10 -7.269860E-10
       160  13  1.416344E+06  2.507011E+04  6.828047E+04 -6.070275E+04  1.578124E-10  2.950209E-10
       160  14  1.410817E+06 -3.926173E+03  3.469251E+04 -1.764126E+04  6.873547E-10 -2.946304E-10
       160  15  1.416411E+06 -1.301845E+03  2.076785E+04 -6.068763E+04 -3.755470E-10 -4.133276E-10
       160  16  2.400834E+06  2.686966E+05  3.041167E+05 -6.734157E+04  5.276814E-10  3.729843E-10
       160  17  2.279608E+06  2.110231E+05  2.424618E+05 -1.927073E+04 -1.688585E-09 -2.319905E-10
       160  18  2.169694E+06  1.851412E+05  2.012361E+05 -5.730118E+04 -3.342607E-10  4.741532E-12
       160  19  4.327420E+05 -2.186247E+05 -1.676174E+05 -5.407333E+04 -5.222894E+04 -2.974056E+04
       160  20  5.427180E+05 -2.189289E+05 -1.731262E+05 -1.601333E+04 -3.557047E+04 -2.735434E+04
       160  21  6.636472E+05 -1.877853E+05 -1.597389E+05 -6.406955E+04 -1.890253E+04 -2.276028E+04
       160  22  1.416347E+06  2.507177E+04  6.828714E+04 -6.070152E+04 -5.164233E+04 -2.973645E+04
       160  23  1.410819E+06 -3.925063E+03  3.469606E+04 -1.764052E+04 -3.384485E+04 -2.735133E+04
       160  24  1.416412E+06 -1.301220E+03  2.076931E+04 -6.068734E+04 -1.604099E+04 -2.275952E+04
       160  25  2.400837E+06  2.686983E+05  3.041232E+05 -6.734035E+04 -5.105474E+04 -2.973236E+04
       160  26  2.279609E+06  2.110242E+05  2.424651E+05 -1.927002E+04 -3.211681E+04 -2.734834E+04
       160  27  2.169694E+06  1.851418E+05  2.012374E+05 -5.730094E+04 -1.317598E+04 -2.275874E+04
       161   1  8.136235E+05 -1.461372E+05 -1.272579E+05 -5.924749E+04  1.493125E+04  1.975481E+04
       161   2  9.242103E+05 -1.216131E+05 -1.081886E+05 -1.812979E+04  1.050256E+04  1.536925E+04
       161   3  1.036350E+06 -9.366102E+04 -8.536009E+04 -6.010215E+04  6.068410E+03  1.086249E+04
       161   4  1.414339E+06  2.564272E+03  1.625397E+04 -6.001804E+04  1.275583E+04  1.975477E+04
       161   5  1.413576E+06 -4.361768E+02  8.950660E+03 -1.847595E+04  8.261843E+03  1.537031E+04
       161   6  1.414365E+06  2.057607E+00  5.450046E+03 -6.001982E+04  3.763194E+03  1.086472E+04
       161   7  2.015386E+06  1.512396E+05  1.597404E+05 -6.078927E+04  1.057830E+04  1.975473E+04
       161   8  1.903161E+06  1.207234E+05  1.260731E+05 -1.882234E+04  6.019371E+03  1.537136E+04
       161   9  1.792511E+06  9.365476E+04  9.625006E+04 -5.993739E+04  1.456582E+03  1.086694E+04
       161  10  8.136231E+05 -1.461376E+05 -1.272590E+05 -5.924773E+04 -1.260981E-09 -4.135636E-10
       161  11  9.242101E+05 -1.216133E+05 -1.081893E+05 -1.812992E+04 -1.924598E-10  5.607896E-10
       161  12  1.036350E+06 -9.366116E+04 -8.536039E+04 -6.010221E+04 -1.216716E-10 -9.979906E-12
       161  13  1.414339E+06  2.563810E+03  1.625293E+04 -6.001824E+04  9.246356E-10 -1.093836E-10
       161  14  1.413576E+06 -4.364489E+02  8.950088E+03 -1.847605E+04  6.559740E-10  3.033681E-10
       161  15  1.414365E+06  1.926970E+00  5.449797E+03 -6.001985E+04 -1.774536E-09  4.624949E-12
       161  16  2.015385E+06  1.512392E+05  1.597395E+05 -6.078944E+04  8.121185E-10  1.535809E-10
       161  17  1.903161E+06  1.207231E+05  1.260725E+05 -1.882242E+04  1.196414E-10  1.554873E-10
       161  18  1.792511E+06  9.365464E+04  9.624984E+04 -5.993740E+04  4.947209E-11  1.502821E-11
       161  19  8.136235E+05 -1.461372E+05 -1.272579E+05 -5.924749E+04 -1.493125E+04 -1.975481E+04
       161  20  9.242103E+05 -1.216131E+05 -1.081886E+05 -1.812979E+04 -1.050256E+04 -1.536925E+04
       161  21  1.036350E+06 -9.366102E+04 -8.536009E+04 -6.010215E+04 -6.068410E+03 -1.086249E+04
       161  22  1.414339E+06  2.564272E+03  1.625397E+04 -6.001804E+04 -1.275583E+04 -1.975477E+04
       161  23  1.413576E+06 -4.361768E+02  8.950660E+03 -1.847595E+04 -8.261843E+03 -1.537031E+04
       161  24  1.414365E+06  2.057607E+00  5.450046E+03 -6.001982E+04 -3.763194E+03 -1.086472E+04
       161  25  2.015386E+06  1.512396E+05  1.597404E+05 -6.078927E+04 -1.057830E+04 -1.975473E+04
       161  26  1.903161E+06  1.207234E+05  1.260731E+05 -1.882234E+04 -6.019371E+03 -1.537136E+04
       161  27  1.792511E+06  9.365476E+04  9.625006E+04 -5.993739E+04 -1.456582E+03 -1.086694E+04
       162   1  1.184174E+06 -5.648620E+04 -5.034679E+04 -5.950081E+04  5.126883E+03  8.230832E+03
       162   2  1.293674E+06 -2.980210E+04 -2.588007E+04 -1.875355E+04  3.671543E+03  3.775433E+03
       162   3  1.403276E+06 -2.569296E+03 -3.822012E+02 -5.973538E+04  2.214787E+03 -6.796046E+02
       162   4  1.414065E+06  3.641025E+02  4.340824E+03 -5.971731E+04  2.877641E+03  8.233460E+03
       162   5  1.414024E+06 -7.610985E+00  2.921955E+03 -1.885341E+04  1.421839E+03  3.778304E+03
       162   6  1.414071E+06  1.697505E+02  2.534482E+03 -5.971760E+04 -3.512470E+01 -6.764481E+02
       162   7  1.644005E+06  5.721061E+04  5.902476E+04 -5.993387E+04  6.275709E+02  8.236090E+03
       162   8  1.534387E+06  2.978583E+04  3.172298E+04 -1.895329E+04 -8.282983E+02  3.781175E+03
       162   9  1.424867E+06  2.908790E+03  5.451174E+03 -5.969983E+04 -2.285076E+03 -6.732918E+02
       162  10  1.184174E+06 -5.648628E+04 -5.034696E+04 -5.950084E+04 -1.034407E-09 -5.743105E-10
       162  11  1.293674E+06 -2.980212E+04 -2.588012E+04 -1.875356E+04 -2.996726E-10 -7.749075E-11
       162  12  1.403276E+06 -2.569298E+03 -3.822113E+02 -5.973538E+04 -1.513888E-09  3.526297E-10
       162  13  1.414065E+06  3.640275E+02  4.340681E+03 -5.971732E+04  8.499703E-10 -3.644456E-10
       162  14  1.414024E+06 -7.626866E+00  2.921925E+03 -1.885342E+04 -1.516494E-09  1.076370E-10
       162  15  1.414071E+06  1.697500E+02  2.534481E+03 -5.971760E+04 -4.908209E-10  6.683950E-10
       162  16  1.644005E+06  5.721053E+04  5.902463E+04 -5.993387E+04  3.316549E-10 -1.371067E-10
       162  17  1.534387E+06  2.978582E+04  3.172295E+04 -1.895328E+04  1.106077E-09 -5.409132E-10
       162  18  1.424867E+06  2.908789E+03  5.451163E+03 -5.969983E+04  1.402265E-09  2.947070E-10
       162  19  1.184174E+06 -5.648620E+04 -5.034679E+04 -5.950081E+04 -5.126883E+03 -8.230832E+03
       162  20  1.293674E+06 -2.980210E+04 -2.588007E+04 -1.875355E+04 -3.671543E+03 -3.775433E+03
       162  21  1.403276E+06 -2.569296E+03 -3.822012E+02 -5.973538E+04 -2.214787E+03  6.796046E+02
       162  22  1.414065E+06  3.641025E+02  4.340824E+03 -5.971731E+04 -2.877641E+03 -8.233460E+03
       162  23  1.414024E+06 -7.610985E+00  2.921955E+03 -1.885341E+04 -1.421839E+03 -3.778304E+03
       162  24  1.414071E+06  1.697505E+02  2.534482E+03 -5.971760E+04  3.512470E+01  6.764481E+02
       162  25  1.644005E+06  5.721061E+04  5.902476E+04 -5.993387E+04 -6.275709E+02 -8.236090E+03
       162  26  1.534387E+06  2.978583E+04  3.172298E+04 -1.895329E+04  8.282983E+02 -3.781175E+03
       162  27  1.424867E+06  2.908790E+03  5.451174E+03 -5.969983E+04  2.285076E+03  6.732918E+02
       163   1  1.550492E+06  3.399364E+04  3.559927E+04 -5.987110E+04  1.744927E+03 -3.273003E+03
       163   2  1.660340E+06  6.094242E+04  6.235642E+04 -1.896317E+04  4.940247E+01 -7.736288E+03
       163   3  1.770410E+06  8.851974E+04  9.033361E+04 -6.006346E+04 -1.644089E+03 -1.221161E+04
       163   4  1.414093E+06  1.646985E+02  2.628945E+03 -5.978030E+04 -5.069200E+02 -3.269940E+03
       163   5  1.413981E+06 -3.413819E+01  3.410905E+03 -1.877502E+04 -2.208136E+03 -7.733780E+03
       163   6  1.414082E+06  3.975509E+02  5.417959E+03 -5.977995E+04 -3.907023E+03 -1.220962E+04
       163   7  1.277711E+06 -3.366560E+04 -3.034269E+04 -5.968952E+04 -2.758275E+03 -3.266878E+03
       163   8  1.167678E+06 -6.101508E+04 -5.553887E+04 -1.858693E+04 -4.464784E+03 -7.731273E+03
       163   9  1.057869E+06 -8.773378E+04 -7.950657E+04 -5.949657E+04 -6.168667E+03 -1.220762E+04
       163  10  1.550492E+06  3.399363E+04  3.559924E+04 -5.987109E+04 -6.125385E-10  1.212741E-10
       163  11  1.660340E+06  6.094236E+04  6.235631E+04 -1.896317E+04  9.666922E-12 -6.128658E-10
       163  12  1.770410E+06  8.851957E+04  9.033333E+04 -6.006347E+04 -8.941524E-10  7.067438E-11
       163  13  1.414093E+06  1.646870E+02  2.628924E+03 -5.978030E+04 -1.023776E-09  5.011847E-10
       163  14  1.413981E+06 -3.420376E+01  3.410783E+03 -1.877504E+04  8.632168E-11 -2.705466E-10
       163  15  1.414081E+06  3.973867E+02  5.417651E+03 -5.977999E+04  5.112299E-11  5.002535E-11
       163  16  1.277711E+06 -3.366561E+04 -3.034273E+04 -5.968953E+04  5.643021E-10  2.953328E-10
       163  17  1.167678E+06 -6.101515E+04 -5.553902E+04 -1.858696E+04  1.144276E-09 -5.965645E-10
       163  18  1.057869E+06 -8.773395E+04 -7.950692E+04 -5.949663E+04  4.503181E-10 -2.048659E-10
       163  19  1.550492E+06  3.399364E+04  3.559927E+04 -5.987110E+04 -1.744927E+03  3.273003E+03
       163  20  1.660340E+06  6.094242E+04  6.235642E+04 -1.896317E+04 -4.940247E+01  7.736288E+03
       163  21  1.770410E+06  8.851974E+04  9.033361E+04 -6.006346E+04  1.644089E+03  1.221161E+04
       163  22  1.414093E+06  1.646985E+02  2.628945E+03 -5.978030E+04  5.069200E+02  3.269940E+03
       163  23  1.413981E+06 -3.413819E+01  3.410905E+03 -1.877502E+04  2.208136E+03  7.733780E+03
       163  24  1.414082E+06  3.975509E+02  5.417959E+03 -5.977995E+04  3.907023E+03  1.220962E+04
       163  25  1.277711E+06 -3.366560E+04 -3.034269E+04 -5.968952E+04  2.758275E+03  3.266878E+03
       163  26  1.167678E+06 -6.101508E+04 -5.553887E+04 -1.858693E+04  4.464784E+03  7.731273E+03
       163  27  1.057869E+06 -8.773378E+04 -7.950657E+04 -5.949657E+04  6.168667E+03  1.220762E+04
       164   1  1.920060E+06  1.251106E+05  1.281925E+05 -6.003234E+04 -2.693918E+03 -1.486289E+04
       164   2  2.031549E+06  1.523673E+05  1.593929E+05 -1.853495E+04 -8.551262E+03 -1.940782E+04
       164   3  2.145236E+06  1.840277E+05  1.955623E+05 -6.098801E+04 -1.440360E+04 -2.382878E+04
       164   4  1.414483E+06 -7.059304E+01  6.913185E+03 -6.021288E+04 -5.020900E+03 -1.486151E+04
       164   5  1.413377E+06 -6.022019E+02  1.152016E+04 -1.823454E+04 -1.081061E+04 -1.940789E+04
       164   6  1.414450E+06  3.262041E+03  2.105431E+04 -6.021176E+04 -1.659427E+04 -2.383021E+04
       164   7  9.091390E+05 -1.252703E+05 -1.143842E+05 -6.039321E+04 -7.345999E+03 -1.486012E+04
       164   8  7.955538E+05 -1.535994E+05 -1.363795E+05 -1.793439E+04 -1.306772E+04 -1.940796E+04
       164   9  6.841523E+05 -1.775421E+05 -1.534912E+05 -5.943638E+04 -1.878237E+04 -2.383165E+04
       164  10  1.920060E+06  1.251104E+05  1.281921E+05 -6.003237E+04  4.754015E-10 -4.349076E-10
       164  11  2.031548E+06  1.523669E+05  1.593920E+05 -1.853508E+04 -8.432644E-10 -2.784555E-10
       164  12  2.145236E+06  1.840270E+05  1.955609E+05 -6.098829E+04 -2.942180E-10  3.418551E-10
       164  13  1.414483E+06 -7.083712E+01  6.912723E+03 -6.021294E+04 -4.259130E-11 -2.111258E-10
       164  14  1.413376E+06 -6.026379E+02  1.151923E+04 -1.823471E+04 -6.035964E-10 -4.864812E-10
       164  15  1.414450E+06  3.261358E+03  2.105273E+04 -6.021208E+04 -4.592073E-10 -2.197416E-10
       164  16  9.091388E+05 -1.252706E+05 -1.143847E+05 -6.039329E+04 -1.463410E-09  3.054644E-10
       164  17  7.955535E+05 -1.535998E+05 -1.363805E+05 -1.793459E+04  1.043854E-09 -3.466152E-10
       164  18  6.841518E+05 -1.775428E+05 -1.534930E+05 -5.943674E+04 -2.681461E-10 -7.317054E-10
       164  19  1.920060E+06  1.251106E+05  1.281925E+05 -6.003234E+04  2.693918E+03  1.486289E+04
       164  20  2.031549E+06  1.523673E+05  1.593929E+05 -1.853495E+04  8.551262E+03  1.940782E+04
       164  21  2.145236E+06  1.840277E+05  1.955623E+05 -6.098801E+04  1.440360E+04  2.382878E+04
       164  22  1.414483E+06 -7.059304E+01  6.913185E+03 -6.021288E+04  5.020900E+03  1.486151E+04
       164  23  1.413377E+06 -6.022019E+02  1.152016E+04 -1.823454E+04  1.081061E+04  1.940789E+04
       164  24  1.414450E+06  3.262041E+03  2.105431E+04 -6.021176E+04  1.659427E+04  2.383021E+04
       164  25  9.091390E+05 -1.252703E+05 -1.143842E+05 -6.039321E+04  7.345999E+03  1.486012E+04
       164  26  7.955538E+05 -1.535994E+05 -1.363795E+05 -1.793439E+04  1.306772E+04  1.940796E+04
       164  27  6.841523E+05 -1.775421E+05 -1.534912E+05 -5.943638E+04  1.878237E+04  2.383165E+04
       165   1  2.302238E+06  2.172842E+05  2.389084E+05 -5.630356E+04 -1.790325E+04 -2.690402E+04
       165   2  2.412392E+06  2.429084E+05  2.847722E+05 -1.900988E+04 -4.226024E+04 -3.157421E+04
       165   3  2.537297E+06  3.097100E+05  3.570090E+05 -6.926325E+04 -6.661607E+04 -3.383047E+04
       165   4  1.417133E+06 -1.762465E+03  2.692733E+04 -6.100225E+04 -2.085036E+04 -2.690665E+04
       165   5  1.409822E+06 -5.117821E+03  4.502900E+04 -1.724350E+04 -4.395387E+04 -3.157893E+04
       165   6  1.417055E+06  3.252473E+04  8.866658E+04 -6.103930E+04 -6.705163E+04 -3.383602E+04
       165   7  5.327428E+05 -2.208657E+05 -1.851090E+05 -6.569422E+04 -2.379327E+04 -2.690924E+04
       165   8  4.081696E+05 -2.532167E+05 -1.947850E+05 -1.548013E+04 -4.564473E+04 -3.158367E+04
       165   9  2.979579E+05 -2.447511E+05 -1.797645E+05 -5.283050E+04 -6.748633E+04 -3.384159E+04
       165  10  2.302237E+06  2.172833E+05  2.389064E+05 -5.630395E+04 -2.900577E-10  6.466197E-11
       165  11  2.412390E+06  2.429069E+05  2.847669E+05 -1.901095E+04 -5.653838E-11  3.466903E-11
       165  12  2.537292E+06  3.097076E+05  3.569986E+05 -6.926506E+04  5.696009E-11  4.844017E-11
       165  13  1.417132E+06 -1.763360E+03  2.692516E+04 -6.100271E+04 -1.048610E-10 -4.354138E-10
       165  14  1.409820E+06 -5.119409E+03  4.502350E+04 -1.724462E+04  1.032355E-09  2.230767E-10
       165  15  1.417050E+06  3.252229E+04  8.865600E+04 -6.104112E+04  3.332674E-10 -1.962619E-10
       165  16  5.327420E+05 -2.208667E+05 -1.851114E+05 -6.569474E+04 -4.590359E-10 -6.081045E-10
       165  17  4.081671E+05 -2.532183E+05 -1.947908E+05 -1.548129E+04 -1.080155E-09 -6.647906E-10
       165  18  2.979527E+05 -2.447536E+05 -1.797752E+05 -5.283234E+04  9.323204E-10  2.397457E-10
       165  19  2.302238E+06  2.172842E+05  2.389084E+05 -5.630356E+04  1.790325E+04  2.690402E+04
       165  20  2.412392E+06  2.429084E+05  2.847722E+05 -1.900988E+04  4.226024E+04  3.157421E+04
       165  21  2.537297E+06  3.097100E+05  3.570090E+05 -6.926325E+04  6.661607E+04  3.383047E+04
       165  22  1.417133E+06 -1.762465E+03  2.692733E+04 -6.100225E+04  2.085036E+04  2.690665E+04
       165  23  1.409822E+06 -5.117821E+03  4.502900E+04 -1.724350E+04  4.395387E+04  3.157893E+04
       165  24  1.417055E+06  3.252473E+04  8.866658E+04 -6.103930E+04  6.705163E+04  3.383602E+04
       165  25  5.327428E+05 -2.208657E+05 -1.851090E+05 -6.569422E+04  2.379327E+04  2.690924E+04
       165  26  4.081696E+05 -2.532167E+05 -1.947850E+05 -1.548013E+04  4.564473E+04  3.158367E+04
       165  27  2.979579E+05 -2.447511E+05 -1.797645E+05 -5.283050E+04  6.748633E+04  3.384159E+04
       166   1  2.721241E+06  3.008049E+05  4.150692E+05 -1.864649E+04 -7.356983E+04 -4.152426E+04
       166   2  2.789374E+06  3.022554E+05  5.094660E+05 -4.183849E+04 -1.844744E+05 -4.566031E+04
       166   3  2.972122E+06  6.938772E+05  7.739557E+05 -1.581532E+05 -2.955089E+05 -1.607365E+04
       166   4  1.438625E+06 -1.656136E+04  1.087363E+05 -6.195461E+04 -8.396357E+04 -4.154264E+04
       166   5  1.382554E+06 -4.547823E+04  1.734858E+05 -1.590832E+04 -1.776332E+05 -4.565789E+04
       166   6  1.438351E+06  3.132483E+05  3.966460E+05 -6.297763E+04 -2.714071E+05 -1.604142E+04
       166   7  1.575142E+05 -3.340395E+05 -1.977109E+05 -1.051738E+05 -9.433587E+04 -4.155958E+04
       166   8 -2.245637E+04 -3.933520E+05 -1.626329E+05  9.961928E+03 -1.708070E+05 -4.565492E+04
       166   9 -9.326713E+04 -6.751956E+04  1.917063E+04  3.196174E+04 -2.473639E+05 -1.600183E+04
       166  10  2.721235E+06  3.008016E+05  4.150559E+05 -1.864895E+04 -3.364546E-10  7.873685E-10
       166  11  2.789337E+06  3.022441E+05  5.093984E+05 -4.184527E+04  3.645155E-11  5.027333E-10
       166  12  2.972028E+06  6.938536E+05  7.737919E+05 -1.581570E+05  1.282191E-09 -2.653661E-10
       166  13  1.438617E+06 -1.656510E+04  1.087199E+05 -6.195742E+04  1.030886E-09  2.997551E-10
       166  14  1.382520E+06 -4.548891E+04  1.734228E+05 -1.591485E+04 -9.691640E-10 -6.819473E-11
       166  15  1.438272E+06  3.132283E+05  3.965074E+05 -6.298114E+04  1.592333E-10  2.542531E-10
       166  16  1.575041E+05 -3.340438E+05 -1.977309E+05 -1.051769E+05  1.571208E-09  2.894137E-10
       166  17 -2.248826E+04 -3.933620E+05 -1.626916E+05  9.955646E+03  7.499590E-10  1.369106E-09
       166  18 -9.333291E+04 -6.753626E+04  1.905515E+04  3.195855E+04 -7.575844E-10  9.243651E-11
       166  19  2.721241E+06  3.008049E+05  4.150692E+05 -1.864649E+04  7.356983E+04  4.152426E+04
       166  20  2.789374E+06  3.022554E+05  5.094660E+05 -4.183849E+04  1.844744E+05  4.566031E+04
       166  21  2.972122E+06  6.938772E+05  7.739557E+05 -1.581532E+05  2.955089E+05  1.607365E+04
       166  22  1.438625E+06 -1.656136E+04  1.087363E+05 -6.195461E+04  8.396357E+04  4.154264E+04
       166  23  1.382554E+06 -4.547823E+04  1.734858E+05 -1.590832E+04  1.776332E+05  4.565789E+04
       166  24  1.438351E+06  3.132483E+05  3.966460E+05 -6.297763E+04  2.714071E+05  1.604142E+04
       166  25  1.575142E+05 -3.340395E+05 -1.977109E+05 -1.051738E+05  9.433587E+04  4.155958E+04
       166  26 -2.245637E+04 -3.933520E+05 -1.626329E+05  9.961928E+03  1.708070E+05  4.565492E+04
       166  27 -9.326713E+04 -6.751956E+04  1.917063E+04  3.196174E+04  2.473639E+05  1.600183E+04
       167   1  3.676817E+04  2.310945E+05  5.409289E+04 -4.691488E+04 -1.581858E+03  5.315937E+04
       167   2 -4.958365E+04  1.710570E+05 -2.544633E+03 -1.414962E+04 -5.271858E+03  3.438991E+04
       167   3 -5.549431E+04  1.333432E+05 -2.690760E+04 -1.782667E+04 -7.205606E+03  1.562724E+04
       167   4  6.500716E+04  3.450662E+05  8.207987E+04 -2.670623E+04 -1.587024E+03  5.549962E+04
       167   5 -9.280995E+03  3.338331E+05  3.643212E+04 -8.584507E+03 -5.275579E+03  3.584144E+04
       167   6 -2.984383E+03  3.450731E+05  2.367266E+04 -2.690328E+04 -7.207216E+03  1.618865E+04
       167   7  9.324675E+04  4.590506E+05  1.100661E+05 -6.493862E+03 -1.592038E+03  5.784030E+04
       167   8  3.101987E+04  4.966336E+05  7.540702E+04 -3.017908E+03 -5.279274E+03  3.729335E+04
       167   9  4.952260E+04  5.568442E+05  7.424980E+04 -3.598297E+04 -7.208841E+03  1.675026E+04
       167  10  3.676741E+04  2.310915E+05  5.408758E+04 -4.691481E+04  4.050320E-10  5.546484E-09
       167  11 -4.958400E+04  1.710557E+05 -2.546907E+03 -1.414948E+04 -7.148078E-10 -5.620924E-10
       167  12 -5.549444E+04  1.333429E+05 -2.690816E+04 -1.782658E+04 -5.574452E-10 -7.485924E-09
       167  13  6.500633E+04  3.450629E+05  8.207408E+04 -2.670616E+04  1.187478E-09 -2.424987E-11
       167  14 -9.281369E+03  3.338317E+05  3.642965E+04 -8.584354E+03  1.735930E-09  5.518624E-11
       167  15 -2.984509E+03  3.450728E+05  2.367207E+04 -2.690319E+04 -2.396553E-10  5.661377E-12
       167  16  9.324585E+04  4.590470E+05  1.100598E+05 -6.493788E+03  1.683562E-10 -5.471588E-09
       167  17  3.101946E+04  4.966321E+05  7.540436E+04 -3.017750E+03  3.063374E-09  5.821522E-10
       167  18  4.952247E+04  5.568438E+05  7.424918E+04 -3.598288E+04  4.982568E-10  7.464138E-09
       167  19  3.676817E+04  2.310945E+05  5.409289E+04 -4.691488E+04  1.581858E+03 -5.315937E+04
       167  20 -4.958365E+04  1.710570E+05 -2.544633E+03 -1.414962E+04  5.271858E+03 -3.438991E+04
       167  21 -5.549431E+04  1.333432E+05 -2.690760E+04 -1.782667E+04  7.205606E+03 -1.562724E+04
       167  22  6.500716E+04  3.450662E+05  8.207987E+04 -2.670623E+04  1.587024E+03 -5.549962E+04
       167  23 -9.280995E+03  3.338331E+05  3.643212E+04 -8.584507E+03  5.275579E+03 -3.584144E+04
       167  24 -2.984383E+03  3.450731E+05  2.367266E+04 -2.690328E+04  7.207216E+03 -1.618865E+04
       167  25  9.324675E+04  4.590506E+05  1.100661E+05 -6.493862E+03  1.592038E+03 -5.784030E+04
       167  26  3.101987E+04  4.966336E+05  7.540702E+04 -3.017908E+03  5.279274E+03 -3.729335E+04
       167  27  4.952260E+04  5.568442E+05  7.424980E+04 -3.598297E+04  7.208841E+03 -1.675026E+04
       168   1 -6.207289E+04  6.292707E+04 -4.683146E+04 -2.858797E+04 -8.246315E+03  1.112336E+04
       168   2 -8.242487E+04  1.186488E+04 -6.630037E+04 -8.243835E+03 -1.033708E+04  5.427429E+03
       168   3 -9.147396E+04 -3.573302E+04 -7.925948E+04 -2.469632E+04 -1.140451E+04 -2.643215E+02
       168   4  6.842384E+03  3.408567E+05  1.993717E+04 -2.691094E+04 -8.249583E+03  1.244690E+04
       168   5 -1.313617E+03  3.390790E+05  1.210059E+04 -8.519922E+03 -1.033871E+04  6.232690E+03
       168   6  1.920333E+03  3.408518E+05  1.113188E+04 -2.692417E+04 -1.140471E+04  2.222012E+01
       168   7  7.575206E+04  6.188570E+05  8.670032E+04 -2.523311E+04 -8.252843E+03  1.377102E+04
       168   8  7.978987E+04  6.663911E+05  9.049398E+04 -8.796095E+03 -1.034034E+04  7.038374E+03
       168   9  9.530434E+04  7.175665E+05  1.015132E+05 -2.915330E+04 -1.140491E+04  3.089348E+02
       168  10 -6.207300E+04  6.292692E+04 -4.683182E+04 -2.858789E+04 -1.689595E-09 -4.566040E-10
       168  11 -8.242499E+04  1.186482E+04 -6.630063E+04 -8.243789E+03  1.986496E-10 -2.869673E-12
       168  12 -9.147410E+04 -3.573306E+04 -7.925973E+04 -2.469632E+04  1.437755E-10 -7.121135E-10
       168  13  6.842269E+03  3.408565E+05  1.993675E+04 -2.691086E+04 -1.370450E-10  1.328609E-10
       168  14 -1.313742E+03  3.390789E+05  1.210032E+04 -8.519870E+03  5.703780E-10  1.421122E-10
       168  15  1.920194E+03  3.408518E+05  1.113164E+04 -2.692417E+04 -2.099191E-10  9.253771E-11
       168  16  7.575194E+04  6.188568E+05  8.669983E+04 -2.523302E+04 -4.729728E-10  5.300353E-10
       168  17  7.978974E+04  6.663911E+05  9.049369E+04 -8.796037E+03 -7.144574E-10  2.488495E-10
       168  18  9.530420E+04  7.175665E+05  1.015129E+05 -2.915329E+04  3.111251E-10  7.668193E-10
       168  19 -6.207289E+04  6.292707E+04 -4.683146E+04 -2.858797E+04  8.246315E+03 -1.112336E+04
       168  20 -8.242487E+04  1.186488E+04 -6.630037E+04 -8.243835E+03  1.033708E+04 -5.427429E+03
       168  21 -9.147396E+04 -3.573302E+04 -7.925948E+04 -2.469632E+04  1.140451E+04  2.643215E+02
       168  22  6.842384E+03  3.408567E+05  1.993717E+04 -2.691094E+04  8.249583E+03 -1.244690E+04
       168  23 -1.313617E+03  3.390790E+05  1.210059E+04 -8.519922E+03  1.033871E+04 -6.232690E+03
       168  24  1.920333E+03  3.408518E+05  1.113188E+04 -2.692417E+04  1.140471E+04 -2.222012E+01
       168  25  7.575206E+04  6.188570E+05  8.670032E+04 -2.523311E+04  8.252843E+03 -1.377102E+04
       168  26  7.978987E+04  6.663911E+05  9.049398E+04 -8.796095E+03  1.034034E+04 -7.038374E+03
       168  27  9.530434E+04  7.175665E+05  1.015132E+05 -2.915330E+04  1.140491E+04 -3.089348E+02
       169   1 -1.101720E+05 -1.016933E+05 -9.497537E+04 -2.913676E+04 -1.426678E+04 -5.795977E+03
       169   2 -1.253065E+05 -1.550552E+05 -1.047700E+05 -5.912933E+03 -1.587933E+04 -6.761973E+03
       169   3 -1.147621E+05 -2.017611E+05 -1.074937E+05 -1.962427E+04 -5.338622E+03 -7.707792E+03
       169   4 -2.712856E+02  3.417617E+05  1.118734E+04 -2.696350E+04 -1.427445E+04 -1.921249E+03
       169   5 -3.109872E+03  3.379001E+05  1.324609E+04 -8.479753E+03 -1.587434E+04 -9.015505E+03
       169   6  2.078329E+04  3.417494E+05  2.662553E+04 -2.692902E+04 -5.325214E+03 -1.608963E+04
       169   7  1.096152E+05  7.853969E+05  1.173362E+05 -2.478857E+04 -1.428209E+04  1.956236E+03
       169   8  1.190692E+05  8.310779E+05  1.312450E+05 -1.104852E+04 -1.586933E+04 -1.127082E+04
       169   9  1.563069E+05  8.855287E+05  1.607232E+05 -3.424006E+04 -5.311615E+03 -2.447880E+04
       169  10 -1.101723E+05 -1.016934E+05 -9.497581E+04 -2.913683E+04 -6.718159E-10  2.652804E-10
       169  11 -1.253068E+05 -1.550553E+05 -1.047706E+05 -5.913019E+03  9.237393E-10  2.762524E-10
       169  12 -1.147622E+05 -2.017612E+05 -1.074939E+05 -1.962431E+04 -6.250648E-11 -2.349682E-10
       169  13 -2.715054E+02  3.417616E+05  1.118695E+04 -2.696352E+04  3.578480E-10 -1.279370E-11
       169  14 -3.110165E+03  3.378999E+05  1.324546E+04 -8.479868E+03  1.867293E-10 -3.258500E-11
       169  15  2.078319E+04  3.417491E+05  2.662499E+04 -2.692909E+04  3.989553E-10 -6.159419E-12
       169  16  1.096150E+05  7.853969E+05  1.173358E+05 -2.478855E+04 -9.950584E-10 -1.650660E-10
       169  17  1.190689E+05  8.310777E+05  1.312443E+05 -1.104866E+04  7.512206E-10 -4.278738E-10
       169  18  1.563067E+05  8.855280E+05  1.607220E+05 -3.424016E+04  5.469186E-10  2.135535E-10
       169  19 -1.101720E+05 -1.016933E+05 -9.497537E+04 -2.913676E+04  1.426678E+04  5.795977E+03
       169  20 -1.253065E+05 -1.550552E+05 -1.047700E+05 -5.912933E+03  1.587933E+04  6.761973E+03
       169  21 -1.147621E+05 -2.017611E+05 -1.074937E+05 -1.962427E+04  5.338622E+03  7.707792E+03
       169  22 -2.712856E+02  3.417617E+05  1.118734E+04 -2.696350E+04  1.427445E+04  1.921249E+03
       169  23 -3.109872E+03  3.379001E+05  1.324609E+04 -8.479753E+03  1.587434E+04  9.015505E+03
       169  24  2.078329E+04  3.417494E+05  2.662553E+04 -2.692902E+04  5.325214E+03  1.608963E+04
       169  25  1.096152E+05  7.853969E+05  1.173362E+05 -2.478857E+04  1.428209E+04 -1.956236E+03
       169  26  1.190692E+05  8.310779E+05  1.312450E+05 -1.104852E+04  1.586933E+04  1.127082E+04
       169  27  1.563069E+05  8.855287E+05  1.607232E+05 -3.424006E+04  5.311615E+03  2.447880E+04
       170   1 -2.102999E+06 -7.584648E+05 -5.142603E+05 -7.221317E+05 -2.212479E+05 -7.537347E+04
       170   2 -2.035915E+06 -4.285425E+05 -3.079813E+05 -7.441109E+05 -1.445991E+05 -2.965014E+04
       170   3 -2.072537E+06 -4.183652E+05 -2.451741E+05 -7.106675E+05 -6.191767E+04  1.359028E+02
       170   4 -1.471876E+06 -4.484961E+05 -3.281146E+05 -4.773348E+05 -2.107536E+05 -7.143676E+04
       170   5 -1.403613E+06 -1.696906E+05 -1.367747E+05 -5.502538E+05 -1.415363E+05 -2.850093E+04
       170   6 -1.437464E+06 -2.089769E+05 -8.289196E+04 -5.677859E+05 -6.629003E+04 -1.511333E+03
       170   7 -8.403571E+05 -1.384176E+05 -1.420083E+05 -2.322865E+05 -2.002475E+05 -6.749256E+04
       170   8 -7.709232E+05  8.920553E+04  3.439566E+04 -3.562109E+05 -1.384699E+05 -2.735014E+04
       170   9 -8.019988E+05  4.148633E+02  7.935870E+04 -4.247821E+05 -7.066731E+04 -3.159888E+03
       170  10 -2.103053E+06 -7.584841E+05 -5.143633E+05 -7.221452E+05 -3.157990E-11 -1.249599E-10
       170  11 -2.035937E+06 -4.285491E+05 -3.080223E+05 -7.441143E+05 -1.094458E-09 -2.763103E-10
       170  12 -2.072541E+06 -4.183662E+05 -2.451814E+05 -7.106675E+05  8.242528E-10  6.241692E-10
       170  13 -1.471925E+06 -4.485135E+05 -3.282079E+05 -4.773470E+05  8.467241E-10 -1.231055E-10
       170  14 -1.403635E+06 -1.696969E+05 -1.368140E+05 -5.502570E+05 -1.776312E-09 -2.443269E-10
       170  15 -1.437469E+06 -2.089781E+05 -8.290024E+04 -5.677860E+05  6.053128E-10  5.381243E-10
       170  16 -8.404015E+05 -1.384333E+05 -1.420924E+05 -2.322974E+05 -8.701610E-10 -3.494458E-10
       170  17 -7.709440E+05  8.919957E+04  3.435816E+04 -3.562140E+05  3.514524E-12 -2.594181E-10
       170  18 -8.020041E+05  4.135097E+02  7.934929E+04 -4.247823E+05  6.090595E-10  6.462432E-10
       170  19 -2.102999E+06 -7.584648E+05 -5.142603E+05 -7.221317E+05  2.212479E+05  7.537347E+04
       170  20 -2.035915E+06 -4.285425E+05 -3.079813E+05 -7.441109E+05  1.445991E+05  2.965014E+04
       170  21 -2.072537E+06 -4.183652E+05 -2.451741E+05 -7.106675E+05  6.191767E+04 -1.359028E+02
       170  22 -1.471876E+06 -4.484961E+05 -3.281146E+05 -4.773348E+05  2.107536E+05  7.143676E+04
       170  23 -1.403613E+06 -1.696906E+05 -1.367747E+05 -5.502538E+05  1.415363E+05  2.850093E+04
       170  24 -1.437464E+06 -2.089769E+05 -8.289196E+04 -5.677859E+05  6.629003E+04  1.511333E+03
       170  25 -8.403571E+05 -1.384176E+05 -1.420083E+05 -2.322865E+05  2.002475E+05  6.749256E+04
       170  26 -7.709232E+05  8.920553E+04  3.439566E+04 -3.562109E+05  1.384699E+05  2.735014E+04
       170  27 -8.019988E+05  4.148633E+02  7.935870E+04 -4.247821E+05  7.066731E+04  3.159888E+03
       171   1 -1.980309E+06 -4.600404E+05 -2.159521E+05 -7.076425E+05 -5.343499E+04 -3.131761E+02
       171   2 -1.947434E+06 -4.001837E+05 -1.700859E+05 -6.886591E+05 -3.587280E+04  5.899887E+03
       171   3 -1.906274E+06 -3.962460E+05 -1.462056E+05 -6.872330E+05 -1.779780E+04  1.075005E+04
       171   4 -1.426217E+06 -2.438933E+05 -6.747121E+04 -5.488096E+05 -5.331148E+04 -2.686158E+02
       171   5 -1.428536E+06 -2.028020E+05 -3.229891E+04 -5.449957E+05 -3.637593E+04  5.709197E+03
       171   6 -1.422436E+06 -2.174867E+05 -1.859942E+04 -5.587413E+05 -1.892883E+04  1.032390E+04
       171   7 -8.718288E+05 -2.772219E+04  8.098213E+04 -3.898467E+05 -5.318783E+04 -2.239982E+02
       171   8 -9.093781E+05 -5.402553E+03  1.054646E+05 -4.012233E+05 -3.687951E+04  5.518333E+03
       171   9 -9.383706E+05 -3.871486E+04  1.089870E+05 -4.301598E+05 -2.006083E+04  9.897396E+03
       171  10 -1.980312E+06 -4.600412E+05 -2.159575E+05 -7.076425E+05  1.558887E-09  1.221673E-09
       171  11 -1.947435E+06 -4.001841E+05 -1.700884E+05 -6.886590E+05 -5.196052E-10  1.051848E-10
       171  12 -1.906274E+06 -3.962463E+05 -1.462064E+05 -6.872328E+05  5.870431E-10  1.408871E-10
       171  13 -1.426220E+06 -2.438940E+05 -6.747656E+04 -5.488096E+05 -3.235803E-10  7.406108E-10
       171  14 -1.428538E+06 -2.028024E+05 -3.230146E+04 -5.449956E+05 -1.270199E-09 -7.729058E-11
       171  15 -1.422437E+06 -2.174869E+05 -1.860030E+04 -5.587412E+05 -6.208131E-10 -3.455031E-10
       171  16 -8.718318E+05 -2.772295E+04  8.097681E+04 -3.898467E+05  2.831646E-10  5.949526E-10
       171  17 -9.093796E+05 -5.402951E+03  1.054620E+05 -4.012231E+05 -3.187432E-10  3.005046E-10
       171  18 -9.383710E+05 -3.871507E+04  1.089861E+05 -4.301597E+05  1.137692E-11 -3.260832E-10
       171  19 -1.980309E+06 -4.600404E+05 -2.159521E+05 -7.076425E+05  5.343499E+04  3.131761E+02
       171  20 -1.947434E+06 -4.001837E+05 -1.700859E+05 -6.886591E+05  3.587280E+04 -5.899887E+03
       171  21 -1.906274E+06 -3.962460E+05 -1.462056E+05 -6.872330E+05  1.779780E+04 -1.075005E+04
       171  22 -1.426217E+06 -2.438933E+05 -6.747121E+04 -5.488096E+05  5.331148E+04  2.686158E+02
       171  23 -1.428536E+06 -2.028020E+05 -3.229891E+04 -5.449957E+05  3.637593E+04 -5.709197E+03
       171  24 -1.422436E+06 -2.174867E+05 -1.859942E+04 -5.587413E+05  1.892883E+04 -1.032390E+04
       171  25 -8.718288E+05 -2.772219E+04  8.098213E+04 -3.898467E+05  5.318783E+04  2.239982E+02
       171  26 -9.093781E+05 -5.402553E+03  1.054646E+05 -4.012233E+05  3.687951E+04 -5.518333E+03
       171  27 -9.383706E+05 -3.871486E+04  1.089870E+05 -4.301598E+05  2.006083E+04 -9.897396E+03
       172   1 -1.841811E+06 -3.808218E+05 -1.260724E+05 -6.726205E+05 -1.502163E+04  1.039961E+04
       172   2 -1.810972E+06 -3.487644E+05 -1.079026E+05 -6.473797E+05 -1.047988E+04  1.014656E+04
       172   3 -1.757131E+06 -3.450411E+05 -9.358245E+04 -6.494812E+05 -5.879292E+03  9.732426E+03
       172   4 -1.420636E+06 -2.216515E+05 -1.453745E+04 -5.570457E+05 -1.579710E+04  1.010740E+04
       172   5 -1.431933E+06 -2.060351E+05 -7.527431E+03 -5.439205E+05 -1.132849E+04  9.827297E+03
       172   6 -1.420215E+06 -2.187353E+05 -4.306659E+03 -5.581371E+05 -6.801362E+03  9.386038E+03
       172   7 -9.992889E+05 -6.247004E+04  9.698213E+04 -4.413999E+05 -1.657314E+04  9.814971E+03
       172   8 -1.052756E+06 -6.329720E+04  9.283518E+04 -4.404045E+05 -1.217766E+04  9.507817E+03
       172   9 -1.083191E+06 -9.242326E+04  8.495906E+04 -4.667486E+05 -7.723979E+03  9.039445E+03
       172  10 -1.841811E+06 -3.808220E+05 -1.260730E+05 -6.726204E+05  1.151296E-09  2.666027E-12
       172  11 -1.810972E+06 -3.487646E+05 -1.079030E+05 -6.473796E+05 -2.527876E-11 -7.580187E-11
       172  12 -1.757131E+06 -3.450412E+05 -9.358270E+04 -6.494811E+05 -8.431161E-11 -2.355466E-10
       172  13 -1.420636E+06 -2.216516E+05 -1.453811E+04 -5.570456E+05 -4.511879E-11 -3.243721E-10
       172  14 -1.431933E+06 -2.060352E+05 -7.527854E+03 -5.439204E+05  5.382554E-10  4.099053E-11
       172  15 -1.420215E+06 -2.187354E+05 -4.306912E+03 -5.581370E+05 -4.335671E-10 -2.302250E-10
       172  16 -9.992892E+05 -6.247022E+04  9.698143E+04 -4.413998E+05 -1.183753E-10 -5.274285E-10
       172  17 -1.052756E+06 -6.329734E+04  9.283473E+04 -4.404044E+05 -7.464980E-10 -3.309463E-11
       172  18 -1.083191E+06 -9.242337E+04  8.495879E+04 -4.667485E+05  1.725568E-11 -1.352859E-10
       172  19 -1.841811E+06 -3.808218E+05 -1.260724E+05 -6.726205E+05  1.502163E+04 -1.039961E+04
       172  20 -1.810972E+06 -3.487644E+05 -1.079026E+05 -6.473797E+05  1.047988E+04 -1.014656E+04
       172  21 -1.757131E+06 -3.450411E+05 -9.358245E+04 -6.494812E+05  5.879292E+03 -9.732426E+03
       172  22 -1.420636E+06 -2.216515E+05 -1.453745E+04 -5.570457E+05  1.579710E+04 -1.010740E+04
       172  23 -1.431933E+06 -2.060351E+05 -7.527431E+03 -5.439205E+05  1.132849E+04 -9.827297E+03
       172  24 -1.420215E+06 -2.187353E+05 -4.306659E+03 -5.581371E+05  6.801362E+03 -9.386038E+03
       172  25 -9.992889E+05 -6.247004E+04  9.698213E+04 -4.413999E+05  1.657314E+04 -9.814971E+03
       172  26 -1.052756E+06 -6.329720E+04  9.283518E+04 -4.404045E+05  1.217766E+04 -9.507817E+03
       172  27 -1.083191E+06 -9.242326E+04  8.495906E+04 -4.667486E+05  7.723979E+03 -9.039445E+03
       173   1 -1.692306E+06 -3.219190E+05 -7.536164E+04 -6.325258E+05 -4.850540E+03  8.829761E+03
       173   2 -1.660289E+06 -2.916186E+05 -6.228283E+04 -6.054176E+05 -3.090309E+03  7.289773E+03
       173   3 -1.602486E+06 -2.877687E+05 -5.007749E+04 -6.080281E+05 -1.315576E+03  5.708023E+03
       173   4 -1.419746E+06 -2.194372E+05 -3.373186E+03 -5.582411E+05 -5.749485E+03  8.492305E+03
       173   5 -1.432615E+06 -2.060553E+05 -2.027775E+03 -5.434401E+05 -4.008431E+03  6.945393E+03
       173   6 -1.419697E+06 -2.191196E+05 -1.540461E+03 -5.583580E+05 -2.252965E+03  5.356703E+03
       173   7 -1.147113E+06 -1.169506E+05  6.860909E+04 -4.839267E+05 -6.648866E+03  8.154685E+03
       173   8 -1.204890E+06 -1.204887E+05  5.822290E+04 -4.814420E+05 -4.926925E+03  6.600873E+03
       173   9 -1.236875E+06 -1.504687E+05  4.699368E+04 -5.086747E+05 -3.190658E+03  5.005270E+03
       173  10 -1.692306E+06 -3.219191E+05 -7.536184E+04 -6.325257E+05 -1.911455E-10 -1.284505E-10
       173  11 -1.660289E+06 -2.916186E+05 -6.228295E+04 -6.054176E+05  2.957510E-10  2.706005E-10
       173  12 -1.602486E+06 -2.877687E+05 -5.007756E+04 -6.080281E+05 -1.747204E-10 -1.558939E-10
       173  13 -1.419746E+06 -2.194373E+05 -3.373384E+03 -5.582410E+05  6.455963E-10 -1.207707E-10
       173  14 -1.432615E+06 -2.060553E+05 -2.027896E+03 -5.434401E+05  4.253503E-11  1.819569E-11
       173  15 -1.419697E+06 -2.191197E+05 -1.540525E+03 -5.583579E+05  2.758503E-10 -3.274718E-10
       173  16 -1.147113E+06 -1.169507E+05  6.860888E+04 -4.839267E+05  2.466493E-10 -4.956774E-10
       173  17 -1.204890E+06 -1.204888E+05  5.822277E+04 -4.814420E+05  5.442220E-10  1.952971E-11
       173  18 -1.236875E+06 -1.504687E+05  4.699361E+04 -5.086746E+05  1.030199E-10 -2.827213E-10
       173  19 -1.692306E+06 -3.219190E+05 -7.536164E+04 -6.325258E+05  4.850540E+03 -8.829761E+03
       173  20 -1.660289E+06 -2.916186E+05 -6.228283E+04 -6.054176E+05  3.090309E+03 -7.289773E+03
       173  21 -1.602486E+06 -2.877687E+05 -5.007749E+04 -6.080281E+05  1.315576E+03 -5.708023E+03
       173  22 -1.419746E+06 -2.194372E+05 -3.373186E+03 -5.582411E+05  5.749485E+03 -8.492305E+03
       173  23 -1.432615E+06 -2.060553E+05 -2.027775E+03 -5.434401E+05  4.008431E+03 -6.945393E+03
       173  24 -1.419697E+06 -2.191196E+05 -1.540461E+03 -5.583580E+05  2.252965E+03 -5.356703E+03
       173  25 -1.147113E+06 -1.169506E+05  6.860909E+04 -4.839267E+05  6.648866E+03 -8.154685E+03
       173  26 -1.204890E+06 -1.204887E+05  5.822290E+04 -4.814420E+05  4.926925E+03 -6.600873E+03
       173  27 -1.236875E+06 -1.504687E+05  4.699368E+04 -5.086747E+05  3.190658E+03 -5.005270E+03
       174   1 -1.535666E+06 -2.629089E+05 -3.206831E+04 -5.901699E+05 -6.265745E+02  4.641440E+03
       174   2 -1.502796E+06 -2.321604E+05 -2.034872E+04 -5.622709E+05  1.039355E+03  2.986343E+03
       174   3 -1.443518E+06 -2.284732E+05 -9.415658E+03 -5.649061E+05  2.707067E+03  1.325582E+03
       174   4 -1.419556E+06 -2.192825E+05 -1.510710E+03 -5.585267E+05 -1.566451E+03  4.289322E+03
       174   5 -1.432774E+06 -2.058572E+05 -1.820764E+03 -5.432196E+05  9.691108E+01  2.633347E+03
       174   6 -1.419585E+06 -2.194927E+05 -2.915172E+03 -5.584474E+05  1.761982E+03  9.716865E+02
       174   7 -1.303434E+06 -1.756554E+05  2.904565E+04 -5.268782E+05 -2.506519E+03  3.937133E+03
       174   8 -1.362746E+06 -1.795537E+05  1.670677E+04 -5.241663E+05 -8.456500E+02  2.280306E+03
       174   9 -1.395650E+06 -2.105122E+05  3.585285E+03 -5.519884E+05  8.168532E+02  6.177750E+02
       174  10 -1.535666E+06 -2.629089E+05 -3.206835E+04 -5.901699E+05 -4.514465E-10 -2.134034E-10
       174  11 -1.502796E+06 -2.321604E+05 -2.034874E+04 -5.622709E+05 -1.816558E-10 -1.375139E-10
       174  12 -1.443518E+06 -2.284732E+05 -9.415676E+03 -5.649061E+05  1.906055E-10  1.751476E-10
       174  13 -1.419556E+06 -2.192825E+05 -1.510749E+03 -5.585267E+05  4.791915E-10 -3.702075E-10
       174  14 -1.432774E+06 -2.058572E+05 -1.820777E+03 -5.432196E+05  1.204723E-09 -1.989771E-10
       174  15 -1.419585E+06 -2.194927E+05 -2.915179E+03 -5.584474E+05  7.134352E-10  2.002562E-10
       174  16 -1.303434E+06 -1.756554E+05  2.904561E+04 -5.268782E+05  7.286564E-10 -3.647354E-10
       174  17 -1.362746E+06 -1.795537E+05  1.670676E+04 -5.241663E+05  3.942935E-11 -7.836381E-11
       174  18 -1.395650E+06 -2.105122E+05  3.585284E+03 -5.519884E+05  1.088707E-10 -1.749929E-10
       174  19 -1.535666E+06 -2.629089E+05 -3.206831E+04 -5.901699E+05  6.265745E+02 -4.641440E+03
       174  20 -1.502796E+06 -2.321604E+05 -2.034872E+04 -5.622709E+05 -1.039355E+03 -2.986343E+03
       174  21 -1.443518E+06 -2.284732E+05 -9.415658E+03 -5.649061E+05 -2.707067E+03 -1.325582E+03
       174  22 -1.419556E+06 -2.192825E+05 -1.510710E+03 -5.585267E+05  1.566451E+03 -4.289322E+03
       174  23 -1.432774E+06 -2.058572E+05 -1.820764E+03 -5.432196E+05 -9.691108E+01 -2.633347E+03
       174  24 -1.419585E+06 -2.194927E+05 -2.915172E+03 -5.584474E+05 -1.761982E+03 -9.716865E+02
       174  25 -1.303434E+06 -1.756554E+05  2.904565E+04 -5.268782E+05  2.506519E+03 -3.937133E+03
       174  26 -1.362746E+06 -1.795537E+05  1.670677E+04 -5.241663E+05  8.456500E+02 -2.280306E+03
       174  27 -1.395650E+06 -2.105122E+05  3.585285E+03 -5.519884E+05 -8.168532E+02 -6.177750E+02
       175   1 -1.375990E+06 -2.030428E+05  7.987670E+03 -5.471130E+05  3.711889E+03  3.526227E+02
       175   2 -1.342966E+06 -1.718012E+05  1.730627E+04 -5.188211E+05  7.671745E+03 -4.517141E+02
       175   3 -1.284896E+06 -1.703020E+05  2.339381E+04 -5.203890E+05  1.160171E+04 -1.174349E+03
       175   4 -1.419758E+06 -2.191608E+05 -3.700752E+03 -5.586457E+05  2.747638E+03 -8.457261E+00
       175   5 -1.432451E+06 -2.055022E+05 -6.384841E+03 -5.432609E+05  6.745407E+03 -7.987138E+02
       175   6 -1.420106E+06 -2.215941E+05 -1.233034E+04 -5.577369E+05  1.071302E+04 -1.507357E+03
       175   7 -1.463524E+06 -2.352788E+05 -1.538934E+04 -5.701778E+05  1.783461E+03 -3.695105E+02
       175   8 -1.521927E+06 -2.392026E+05 -3.007660E+04 -5.676975E+05  5.819217E+03 -1.145658E+03
       175   9 -1.555298E+06 -2.728849E+05 -4.805596E+04 -5.950774E+05  9.824542E+03 -1.840282E+03
       175  10 -1.375990E+06 -2.030428E+05  7.987643E+03 -5.471130E+05  2.281083E-10  6.482184E-11
       175  11 -1.342966E+06 -1.718013E+05  1.730616E+04 -5.188211E+05  1.365673E-10  1.195264E-10
       175  12 -1.284896E+06 -1.703021E+05  2.339355E+04 -5.203890E+05 -1.445382E-10 -2.229169E-10
       175  13 -1.419758E+06 -2.191608E+05 -3.700766E+03 -5.586457E+05 -2.189006E-10  7.915630E-11
       175  14 -1.432451E+06 -2.055022E+05 -6.384928E+03 -5.432609E+05 -7.939395E-10  3.521955E-10
       175  15 -1.420106E+06 -2.215942E+05 -1.233056E+04 -5.577369E+05  4.733790E-11 -7.840183E-11
       175  16 -1.463524E+06 -2.352788E+05 -1.538934E+04 -5.701778E+05 -2.740520E-10 -3.406817E-10
       175  17 -1.521927E+06 -2.392026E+05 -3.007667E+04 -5.676975E+05 -7.196917E-11 -3.522805E-10
       175  18 -1.555298E+06 -2.728849E+05 -4.805614E+04 -5.950774E+05 -4.278233E-10  8.946512E-14
       175  19 -1.375990E+06 -2.030428E+05  7.987670E+03 -5.471130E+05 -3.711889E+03 -3.526227E+02
       175  20 -1.342966E+06 -1.718012E+05  1.730627E+04 -5.188211E+05 -7.671745E+03  4.517141E+02
       175  21 -1.284896E+06 -1.703020E+05  2.339381E+04 -5.203890E+05 -1.160171E+04  1.174349E+03
       175  22 -1.419758E+06 -2.191608E+05 -3.700752E+03 -5.586457E+05 -2.747638E+03  8.457261E+00
       175  23 -1.432451E+06 -2.055022E+05 -6.384841E+03 -5.432609E+05 -6.745407E+03  7.987138E+02
       175  24 -1.420106E+06 -2.215941E+05 -1.233034E+04 -5.577369E+05 -1.071302E+04  1.507357E+03
       175  25 -1.463524E+06 -2.352788E+05 -1.538934E+04 -5.701778E+05 -1.783461E+03  3.695105E+02
       175  26 -1.521927E+06 -2.392026E+05 -3.007660E+04 -5.676975E+05 -5.819217E+03  1.145658E+03
       175  27 -1.555298E+06 -2.728849E+05 -4.805596E+04 -5.950774E+05 -9.824542E+03  1.840282E+03
       176   1 -1.217278E+06 -1.444996E+05  3.783250E+04 -5.068884E+05  1.458920E+04 -1.511369E+03
       176   2 -1.184203E+06 -1.086584E+05  3.791997E+04 -4.754058E+05  2.914052E+04  1.725191E+03
       176   3 -1.137485E+06 -1.267122E+05  2.009009E+04 -4.666501E+05  4.336115E+04  5.850450E+03
       176   4 -1.421439E+06 -2.182860E+05 -1.577444E+04 -5.594127E+05  1.346146E+04 -1.934007E+03
       176   5 -1.429803E+06 -2.024783E+05 -2.734164E+04 -5.438600E+05  2.842552E+04  1.456783E+03
       176   6 -1.424614E+06 -2.406567E+05 -5.715997E+04 -5.510358E+05  4.305779E+04  5.735820E+03
       176   7 -1.625560E+06 -2.920710E+05 -6.938506E+04 -6.119218E+05  1.233413E+04 -2.356506E+03
       176   8 -1.675346E+06 -2.962942E+05 -9.260860E+04 -6.122896E+05  2.771082E+04  1.188496E+03
       176   9 -1.711664E+06 -3.545937E+05 -1.344174E+05 -6.353853E+05  4.275459E+04  5.621254E+03
       176  10 -1.217278E+06 -1.444996E+05  3.783209E+04 -5.068884E+05  3.254438E-11 -4.016412E-12
       176  11 -1.184204E+06 -1.086587E+05  3.791836E+04 -4.754059E+05  2.898743E-10 -1.749379E-10
       176  12 -1.137487E+06 -1.267127E+05  2.008649E+04 -4.666503E+05 -3.496701E-10  2.338615E-10
       176  13 -1.421439E+06 -2.182861E+05 -1.577479E+04 -5.594127E+05  1.470769E-10  8.870826E-11
       176  14 -1.429804E+06 -2.024785E+05 -2.734317E+04 -5.438600E+05  5.554955E-11 -2.207016E-11
       176  15 -1.424616E+06 -2.406572E+05 -5.716352E+04 -5.510360E+05  3.530929E-10  2.724140E-10
       176  16 -1.625560E+06 -2.920710E+05 -6.938535E+04 -6.119218E+05 -6.271113E-11 -1.641468E-10
       176  17 -1.675347E+06 -2.962944E+05 -9.261005E+04 -6.122897E+05  1.653917E-10  9.814816E-11
       176  18 -1.711666E+06 -3.545942E+05 -1.344209E+05 -6.353855E+05 -2.506363E-10  4.954385E-11
       176  19 -1.217278E+06 -1.444996E+05  3.783250E+04 -5.068884E+05 -1.458920E+04  1.511369E+03
       176  20 -1.184203E+06 -1.086584E+05  3.791997E+04 -4.754058E+05 -2.914052E+04 -1.725191E+03
       176  21 -1.137485E+06 -1.267122E+05  2.009009E+04 -4.666501E+05 -4.336115E+04 -5.850450E+03
       176  22 -1.421439E+06 -2.182860E+05 -1.577444E+04 -5.594127E+05 -1.346146E+04  1.934007E+03
       176  23 -1.429803E+06 -2.024783E+05 -2.734164E+04 -5.438600E+05 -2.842552E+04 -1.456783E+03
       176  24 -1.424614E+06 -2.406567E+05 -5.715997E+04 -5.510358E+05 -4.305779E+04 -5.735820E+03
       176  25 -1.625560E+06 -2.920710E+05 -6.938506E+04 -6.119218E+05 -1.233413E+04  2.356506E+03
       176  26 -1.675346E+06 -2.962942E+05 -9.260860E+04 -6.122896E+05 -2.771082E+04 -1.188496E+03
       176  27 -1.711664E+06 -3.545937E+05 -1.344174E+05 -6.353853E+05 -4.275459E+04 -5.621254E+03
       177   1 -1.060312E+06 -9.622416E+04  2.369276E+04 -4.916866E+05  5.731641E+04  8.105694E+03
       177   2 -1.024252E+06 -1.255939E+04 -1.095073E+04 -4.256751E+05  1.163597E+05  2.838462E+04
       177   3 -1.066192E+06 -2.051080E+05 -1.581220E+05 -3.218588E+05  1.714302E+05  5.925435E+04
       177   4 -1.434016E+06 -2.112187E+05 -7.022422E+04 -5.672643E+05  5.402105E+04  6.871325E+03
       177   5 -1.408919E+06 -1.741653E+05 -1.158269E+05 -5.480296E+05  1.180136E+05  2.900125E+04
       177   6 -1.462873E+06 -4.144163E+05 -2.779422E+05 -4.909755E+05  1.780307E+05  6.171460E+04
       177   7 -1.807583E+06 -3.262142E+05 -1.641514E+05 -6.428056E+05  5.072789E+04  5.637436E+03
       177   8 -1.793440E+06 -3.357517E+05 -2.207164E+05 -6.703117E+05  1.196664E+05  2.961734E+04
       177   9 -1.859393E+06 -6.236649E+05 -3.977777E+05 -6.599800E+05  1.846264E+05  6.417150E+04
       177  10 -1.060316E+06 -9.622511E+04  2.368645E+04 -4.916870E+05  5.467608E-10  4.950808E-10
       177  11 -1.024267E+06 -1.256390E+04 -1.097774E+04 -4.256778E+05  1.748650E-09  8.063473E-10
       177  12 -1.066224E+06 -2.051197E+05 -1.581839E+05 -3.218670E+05  6.254399E-10  2.836103E-10
       177  13 -1.434019E+06 -2.112195E+05 -7.022981E+04 -5.672646E+05  1.314608E-09  4.835531E-10
       177  14 -1.408934E+06 -1.741699E+05 -1.158547E+05 -5.480323E+05  1.730093E-09  5.271282E-10
       177  15 -1.462908E+06 -4.144289E+05 -2.780091E+05 -4.909844E+05  2.915241E-10  5.174591E-10
       177  16 -1.807586E+06 -3.262150E+05 -1.641563E+05 -6.428059E+05  8.169001E-10  3.961238E-10
       177  17 -1.793456E+06 -3.357565E+05 -2.207451E+05 -6.703146E+05  1.520881E-09  8.361705E-10
       177  18 -1.859431E+06 -6.236786E+05 -3.978497E+05 -6.599896E+05  4.004581E-10  9.605819E-11
       177  19 -1.060312E+06 -9.622416E+04  2.369276E+04 -4.916866E+05 -5.731641E+04 -8.105694E+03
       177  20 -1.024252E+06 -1.255939E+04 -1.095073E+04 -4.256751E+05 -1.163597E+05 -2.838462E+04
       177  21 -1.066192E+06 -2.051080E+05 -1.581220E+05 -3.218588E+05 -1.714302E+05 -5.925435E+04
       177  22 -1.434016E+06 -2.112187E+05 -7.022422E+04 -5.672643E+05 -5.402105E+04 -6.871325E+03
       177  23 -1.408919E+06 -1.741653E+05 -1.158269E+05 -5.480296E+05 -1.180136E+05 -2.900125E+04
       177  24 -1.462873E+06 -4.144163E+05 -2.779422E+05 -4.909755E+05 -1.780307E+05 -6.171460E+04
       177  25 -1.807583E+06 -3.262142E+05 -1.641514E+05 -6.428056E+05 -5.072789E+04 -5.637436E+03
       177  26 -1.793440E+06 -3.357517E+05 -2.207164E+05 -6.703117E+05 -1.196664E+05 -2.961734E+04
       177  27 -1.859393E+06 -6.236649E+05 -3.977777E+05 -6.599800E+05 -1.846264E+05 -6.417150E+04
       178   1 -1.386183E+06 -2.919784E+05 -2.534632E+05 -2.888361E+04  8.432327E+04  1.701295E+04
       178   2 -1.284226E+06 -4.052335E+05 -3.024161E+05 -1.004527E+04  6.482394E+04  5.034285E+04
       178   3 -1.137470E+06 -3.628658E+05 -2.991123E+05 -8.314537E+04  4.543562E+04  4.652192E+04
       178   4  2.968919E+05  1.276355E+05  1.620223E+05 -6.499017E+04  1.106769E+05  1.709307E+04
       178   5  2.729650E+05 -1.904069E+04  7.064062E+04 -1.882505E+04  7.239931E+04  5.035192E+04
       178   6  2.969780E+05 -7.042365E+03  4.445466E+04 -6.458059E+04  3.423819E+04  4.649940E+04
       178   7  1.982550E+06  5.470438E+05  5.773014E+05 -1.011969E+05  1.371017E+05  1.717003E+04
       178   8  1.832381E+06  3.669765E+05  4.435261E+05 -2.762831E+04  7.999345E+04  5.036077E+04
       178   9  1.733314E+06  3.486331E+05  3.878768E+05 -4.597328E+04  2.301488E+04  4.647625E+04
       178  10 -1.386191E+06 -2.919806E+05 -2.534771E+05 -2.888476E+04  2.809017E-10  2.150970E-10
       178  11 -1.284232E+06 -4.052373E+05 -3.024288E+05 -1.004790E+04 -1.306690E-09 -1.840906E-09
       178  12 -1.137473E+06 -3.628687E+05 -2.991203E+05 -8.314708E+04  2.511787E-10 -2.801541E-10
       178  13  2.968787E+05  1.276319E+05  1.619988E+05 -6.499170E+04  9.257986E-10 -1.098905E-09
       178  14  2.729587E+05 -1.904482E+04  7.062601E+04 -1.882798E+04  1.963606E-10 -7.240509E-10
       178  15  2.969762E+05 -7.045002E+03  4.444839E+04 -6.458188E+04 -1.064376E-09 -4.061168E-10
       178  16  1.982530E+06  5.470384E+05  5.772657E+05 -1.011988E+05 -6.569867E-10  1.244906E-09
       178  17  1.832373E+06  3.669721E+05  4.435094E+05 -2.763155E+04 -2.460129E-09 -9.352468E-10
       178  18  1.733313E+06  3.486306E+05  3.878717E+05 -4.597414E+04 -4.075456E-10 -6.916315E-10
       178  19 -1.386183E+06 -2.919784E+05 -2.534632E+05 -2.888361E+04 -8.432327E+04 -1.701295E+04
       178  20 -1.284226E+06 -4.052335E+05 -3.024161E+05 -1.004527E+04 -6.482394E+04 -5.034285E+04
       178  21 -1.137470E+06 -3.628658E+05 -2.991123E+05 -8.314537E+04 -4.543562E+04 -4.652192E+04
       178  22  2.968919E+05  1.276355E+05  1.620223E+05 -6.499017E+04 -1.106769E+05 -1.709307E+04
       178  23  2.729650E+05 -1.904069E+04  7.064062E+04 -1.882505E+04 -7.239931E+04 -5.035192E+04
       178  24  2.969780E+05 -7.042365E+03  4.445466E+04 -6.458059E+04 -3.423819E+04 -4.649940E+04
       178  25  1.982550E+06  5.470438E+05  5.773014E+05 -1.011969E+05 -1.371017E+05 -1.717003E+04
       178  26  1.832381E+06  3.669765E+05  4.435261E+05 -2.762831E+04 -7.999345E+04 -5.036077E+04
       178  27  1.733314E+06  3.486331E+05  3.878768E+05 -4.597328E+04 -2.301488E+04 -4.647625E+04
       179   1 -9.808700E+05 -3.018497E+05 -2.685792E+05 -6.177762E+04  2.767087E+04  3.831576E+04
       179   2 -8.620612E+05 -2.866734E+05 -2.565820E+05 -1.832806E+04  1.967594E+04  3.617354E+04
       179   3 -7.364622E+05 -2.548909E+05 -2.348884E+05 -6.613305E+04  1.167060E+04  3.128589E+04
       179   4  2.880028E+05  1.298762E+04  3.621103E+04 -6.455437E+04  2.732492E+04  3.831008E+04
       179   5  2.845267E+05 -2.292294E+03  1.830328E+04 -1.892708E+04  1.793074E+04  3.616847E+04
       179   6  2.880581E+05 -7.391198E+02  1.104961E+04 -6.454344E+04  8.527688E+03  3.128366E+04
       179   7  1.558351E+06  3.277078E+05  3.408869E+05 -6.733713E+04  2.697822E+04  3.830441E+04
       179   8  1.432320E+06  2.819934E+05  2.930955E+05 -1.952731E+04  1.618230E+04  3.616340E+04
       179   9  1.313540E+06  2.533364E+05  2.569131E+05 -6.295107E+04  5.379600E+03  3.128141E+04
       179  10 -9.808712E+05 -3.018515E+05 -2.685834E+05 -6.177848E+04 -6.751427E-10  1.937523E-10
       179  11 -8.620620E+05 -2.866749E+05 -2.565852E+05 -1.832863E+04 -7.335898E-10  4.121588E-10
       179  12 -7.364626E+05 -2.548920E+05 -2.348905E+05 -6.613334E+04 -2.094710E-10  3.769964E-10
       179  13  2.880017E+05  1.298584E+04  3.620687E+04 -6.455522E+04 -1.351296E-09 -8.083777E-10
       179  14  2.845260E+05 -2.293786E+03  1.830022E+04 -1.892760E+04  1.657070E-09  4.947700E-10
       179  15  2.880577E+05 -7.401904E+02  1.104763E+04 -6.454366E+04 -1.626050E-09  1.601136E-10
       179  16  1.558350E+06  3.277061E+05  3.408828E+05 -6.733796E+04  1.354635E-10  6.776832E-11
       179  17  1.432319E+06  2.819919E+05  2.930925E+05 -1.952778E+04 -9.646695E-10  4.399637E-11
       179  18  1.313540E+06  2.533354E+05  2.569112E+05 -6.295120E+04  2.037200E-10  3.301367E-10
       179  19 -9.808700E+05 -3.018497E+05 -2.685792E+05 -6.177762E+04 -2.767087E+04 -3.831576E+04
       179  20 -8.620612E+05 -2.866734E+05 -2.565820E+05 -1.832806E+04 -1.967594E+04 -3.617354E+04
       179  21 -7.364622E+05 -2.548909E+05 -2.348884E+05 -6.613305E+04 -1.167060E+04 -3.128589E+04
       179  22  2.880028E+05  1.298762E+04  3.621103E+04 -6.455437E+04 -2.732492E+04 -3.831008E+04
       179  23  2.845267E+05 -2.292294E+03  1.830328E+04 -1.892708E+04 -1.793074E+04 -3.616847E+04
       179  24  2.880581E+05 -7.391198E+02  1.104961E+04 -6.454344E+04 -8.527688E+03 -3.128366E+04
       179  25  1.558351E+06  3.277078E+05  3.408869E+05 -6.733713E+04 -2.697822E+04 -3.830441E+04
       179  26  1.432320E+06  2.819934E+05  2.930955E+05 -1.952731E+04 -1.618230E+04 -3.616340E+04
       179  27  1.313540E+06  2.533364E+05  2.569131E+05 -6.295107E+04 -5.379600E+03 -3.128141E+04
       180   1 -5.740007E+05 -2.121556E+05 -1.974478E+05 -6.367483E+04  9.107722E+03  2.800626E+04
       180   2 -4.535272E+05 -1.837408E+05 -1.726269E+05 -1.853978E+04  6.838737E+03  2.327312E+04
       180   3 -3.318768E+05 -1.533831E+05 -1.457625E+05 -6.383255E+04  4.561453E+03  1.834939E+04
       180   4  2.868489E+05  1.262424E+03  8.615571E+03 -6.436258E+04  6.777172E+03  2.800529E+04
       180   5  2.862761E+05 -2.930523E+02  4.708499E+03 -1.915247E+04  4.409009E+03  2.327396E+04
       180   6  2.868830E+05  1.113749E+02  2.912533E+03 -6.436350E+04  2.032985E+03  1.835219E+04
       180   7  1.148378E+06  2.146268E+05  2.146266E+05 -6.505114E+04  4.443397E+03  2.800434E+04
       180   8  1.026581E+06  1.831149E+05  1.820052E+05 -1.976575E+04  1.976393E+03  2.327481E+04
       180   9  9.059933E+05  1.535780E+05  1.515604E+05 -6.489482E+04 -4.979957E+02  1.835498E+04
       180  10 -5.740010E+05 -2.121565E+05 -1.974494E+05 -6.367503E+04  1.089988E-09  1.922504E-10
       180  11 -4.535274E+05 -1.837414E+05 -1.726280E+05 -1.853991E+04  6.931189E-10  1.259881E-11
       180  12 -3.318769E+05 -1.533834E+05 -1.457632E+05 -6.383262E+04 -7.846656E-10 -5.551823E-10
       180  13  2.868487E+05  1.261570E+03  8.614010E+03 -6.436273E+04 -2.297918E-09 -9.418926E-12
       180  14  2.862759E+05 -2.936392E+02  4.707445E+03 -1.915255E+04  5.971295E-10  4.667675E-10
       180  15  2.868829E+05  1.110121E+02  2.911892E+03 -6.436353E+04  1.058294E-09  1.228943E-09
       180  16  1.148378E+06  2.146259E+05  2.146251E+05 -6.505124E+04 -8.579955E-10 -2.837289E-10
       180  17  1.026581E+06  1.831143E+05  1.820042E+05 -1.976579E+04 -2.212616E-10 -8.772196E-10
       180  18  9.059932E+05  1.535776E+05  1.515598E+05 -6.489482E+04 -4.067652E-10 -6.162139E-10
       180  19 -5.740007E+05 -2.121556E+05 -1.974478E+05 -6.367483E+04 -9.107722E+03 -2.800626E+04
       180  20 -4.535272E+05 -1.837408E+05 -1.726269E+05 -1.853978E+04 -6.838737E+03 -2.327312E+04
       180  21 -3.318768E+05 -1.533831E+05 -1.457625E+05 -6.383255E+04 -4.561453E+03 -1.834939E+04
       180  22  2.868489E+05  1.262424E+03  8.615571E+03 -6.436258E+04 -6.777172E+03 -2.800529E+04
       180  23  2.862761E+05 -2.930523E+02  4.708499E+03 -1.915247E+04 -4.409009E+03 -2.327396E+04
       180  24  2.868830E+05  1.113749E+02  2.912533E+03 -6.436350E+04 -2.032985E+03 -1.835219E+04
       180  25  1.148378E+06  2.146268E+05  2.146266E+05 -6.505114E+04 -4.443397E+03 -2.800434E+04
       180  26  1.026581E+06  1.831149E+05  1.820052E+05 -1.976575E+04 -1.976393E+03 -2.327481E+04
       180  27  9.059933E+05  1.535780E+05  1.515604E+05 -6.489482E+04  4.979957E+02 -1.835498E+04
       181   1 -1.696140E+05 -1.127802E+05 -1.066910E+05 -6.366508E+04  4.022758E+03  1.545608E+04
       181   2 -4.914721E+04 -8.323356E+04 -7.894358E+04 -1.882237E+04  3.254023E+03  1.055747E+04
       181   3  7.126235E+04 -5.318886E+04 -5.063621E+04 -6.391137E+04  2.481631E+03  5.651406E+03
       181   4  2.866545E+05  2.684946E+02  2.297446E+03 -6.425363E+04  1.556157E+03  1.545969E+04
       181   5  2.866961E+05  2.538877E+01  1.541446E+03 -1.928929E+04  7.829875E+02  1.056187E+04
       181   6  2.866697E+05  2.824884E+02  1.349469E+03 -6.425363E+04  6.307186E+00  5.656655E+03
       181   7  7.431138E+05  1.133021E+05  1.112712E+05 -6.484252E+04 -9.122491E+02  1.546330E+04
       181   8  6.226428E+05  8.327615E+04  8.201851E+04 -1.975642E+04 -1.689379E+03  1.056628E+04
       181   9  5.021194E+05  5.375046E+04  5.333186E+04 -6.459599E+04 -2.469872E+03  5.661905E+03
       181  10 -1.696141E+05 -1.127804E+05 -1.066915E+05 -6.366513E+04  1.778267E-09  1.238589E-10
       181  11 -4.914725E+04 -8.323368E+04 -7.894381E+04 -1.882240E+04  1.833717E-09  8.341452E-11
       181  12  7.126234E+04 -5.318890E+04 -5.063629E+04 -6.391138E+04 -5.594725E-10 -5.759052E-10
       181  13  2.866544E+05  2.682372E+02  2.296992E+03 -6.425365E+04  1.232121E-09 -1.121841E-09
       181  14  2.866961E+05  2.526880E+01  1.541236E+03 -1.928930E+04  7.348831E-10  6.357273E-10
       181  15  2.866697E+05  2.824540E+02  1.349409E+03 -6.425363E+04 -2.434895E-09 -1.092689E-09
       181  16  7.431137E+05  1.133018E+05  1.112708E+05 -6.484251E+04  4.573690E-11  2.087245E-10
       181  17  6.226428E+05  8.327603E+04  8.201830E+04 -1.975640E+04  1.150869E-09 -1.384664E-10
       181  18  5.021194E+05  5.375042E+04  5.333178E+04 -6.459598E+04 -1.363196E-09 -1.658442E-09
       181  19 -1.696140E+05 -1.127802E+05 -1.066910E+05 -6.366508E+04 -4.022758E+03 -1.545608E+04
       181  20 -4.914721E+04 -8.323356E+04 -7.894358E+04 -1.882237E+04 -3.254023E+03 -1.055747E+04
       181  21  7.126235E+04 -5.318886E+04 -5.063621E+04 -6.391137E+04 -2.481631E+03 -5.651406E+03
       181  22  2.866545E+05  2.684946E+02  2.297446E+03 -6.425363E+04 -1.556157E+03 -1.545969E+04
       181  23  2.866961E+05  2.538877E+01  1.541446E+03 -1.928929E+04 -7.829875E+02 -1.056187E+04
       181  24  2.866697E+05  2.824884E+02  1.349469E+03 -6.425363E+04 -6.307186E+00 -5.656655E+03
       181  25  7.431138E+05  1.133021E+05  1.112712E+05 -6.484252E+04  9.122491E+02 -1.546330E+04
       181  26  6.226428E+05  8.327615E+04  8.201851E+04 -1.975642E+04  1.689379E+03 -1.056628E+04
       181  27  5.021194E+05  5.375046E+04  5.333186E+04 -6.459599E+04  2.469872E+03 -5.661905E+03
       182   1  2.332431E+05 -1.290046E+04 -1.104387E+04 -6.411922E+04  2.225357E+03  2.793851E+03
       182   2  3.536425E+05  1.662905E+04  1.782967E+04 -1.941479E+04  1.314886E+03 -2.106669E+03
       182   3  4.738571E+05  4.673348E+04  4.733807E+04 -6.451852E+04  4.049469E+02 -6.996657E+03
       182   4  2.866524E+05  2.647022E+02  1.386306E+03 -6.422708E+04 -2.489753E+02  2.799325E+03
       182   5  2.867512E+05  5.007765E+01  1.803136E+03 -1.932255E+04 -1.154298E+03 -2.101393E+03
       182   6  2.866493E+05  4.100753E+02  2.851719E+03 -6.422674E+04 -2.058915E+03 -6.991528E+03
       182   7  3.400643E+05  1.342966E+04  1.381632E+04 -6.433495E+04 -2.723519E+03  2.804801E+03
       182   8  2.198639E+05 -1.652922E+04 -1.422370E+04 -1.923032E+04 -3.623216E+03 -2.096117E+03
       182   9  9.947352E+04 -4.591585E+04 -4.163706E+04 -6.393504E+04 -4.522038E+03 -6.986400E+03
       182  10  2.332431E+05 -1.290047E+04 -1.104390E+04 -6.411922E+04 -1.122973E-09  1.167458E-09
       182  11  3.536425E+05  1.662905E+04  1.782966E+04 -1.941479E+04 -1.565070E-10  3.446692E-09
       182  12  4.738571E+05  4.673343E+04  4.733798E+04 -6.451851E+04  1.364467E-09 -2.020558E-09
       182  13  2.866524E+05  2.646938E+02  1.386291E+03 -6.422708E+04 -1.106064E-09  6.166983E-11
       182  14  2.867512E+05  5.007255E+01  1.803125E+03 -1.932255E+04 -1.844188E-10 -8.248419E-10
       182  15  2.866492E+05  4.100216E+02  2.851619E+03 -6.422676E+04 -9.836314E-10 -1.106014E-10
       182  16  3.400643E+05  1.342965E+04  1.381629E+04 -6.433494E+04  2.586670E-10  1.530918E-10
       182  17  2.198639E+05 -1.652923E+04 -1.422373E+04 -1.923033E+04  3.559238E-10 -4.091188E-10
       182  18  9.947349E+04 -4.591591E+04 -4.163719E+04 -6.393507E+04 -2.381232E-09 -2.091853E-10
       182  19  2.332431E+05 -1.290046E+04 -1.104387E+04 -6.411922E+04 -2.225357E+03 -2.793851E+03
       182  20  3.536425E+05  1.662905E+04  1.782967E+04 -1.941479E+04 -1.314886E+03  2.106669E+03
       182  21  4.738571E+05  4.673348E+04  4.733807E+04 -6.451852E+04 -4.049469E+02  6.996657E+03
       182  22  2.866524E+05  2.647022E+02  1.386306E+03 -6.422708E+04  2.489753E+02 -2.799325E+03
       182  23  2.867512E+05  5.007765E+01  1.803136E+03 -1.932255E+04  1.154298E+03  2.101393E+03
       182  24  2.866493E+05  4.100753E+02  2.851719E+03 -6.422674E+04  2.058915E+03  6.991528E+03
       182  25  3.400643E+05  1.342966E+04  1.381632E+04 -6.433495E+04  2.723519E+03 -2.804801E+03
       182  26  2.198639E+05 -1.652922E+04 -1.422370E+04 -1.923032E+04  3.623216E+03  2.096117E+03
       182  27  9.947352E+04 -4.591585E+04 -4.163706E+04 -6.393504E+04  4.522038E+03  6.986400E+03
       183   1  6.362472E+05  8.681764E+04  8.769813E+04 -6.454139E+04 -1.345503E+02 -9.875883E+03
       183   2  7.564517E+05  1.162091E+05  1.186490E+05 -1.988629E+04 -3.270688E+03 -1.477731E+04
       183   3  8.775907E+05  1.481619E+05  1.522477E+05 -6.527761E+04 -6.402306E+03 -1.951488E+04
       183   4  2.868713E+05  1.680733E+02  3.641161E+03 -6.428161E+04 -2.650250E+03 -9.871102E+03
       183   5  2.864065E+05 -2.627382E+02  6.059122E+03 -1.925497E+04 -5.701844E+03 -1.477385E+04
       183   6  2.868494E+05  1.855259E+03  1.106882E+04 -6.427891E+04 -8.748317E+03 -1.951263E+04
       183   7 -6.239307E+04 -8.649038E+04 -8.042448E+04 -6.402191E+04 -5.164540E+03 -9.866323E+03
       183   8 -1.834364E+05 -1.167506E+05 -1.065463E+05 -1.862404E+04 -8.131167E+03 -1.477040E+04
       183   9 -3.035724E+05 -1.444767E+05 -1.301347E+05 -6.328103E+04 -1.109211E+04 -1.951040E+04
       183  10  6.362472E+05  8.681754E+04  8.769795E+04 -6.454139E+04  6.555640E-10 -2.346489E-09
       183  11  7.564516E+05  1.162089E+05  1.186485E+05 -1.988633E+04  6.422282E-10  2.713520E-10
       183  12  8.775906E+05  1.481615E+05  1.522469E+05 -6.527771E+04 -7.533915E-10  8.690725E-10
       183  13  2.868712E+05  1.679668E+02  3.640965E+03 -6.428163E+04 -1.099794E-09  9.615090E-12
       183  14  2.864064E+05 -2.629813E+02  6.058651E+03 -1.925504E+04 -1.882494E-09 -6.414819E-10
       183  15  2.868492E+05  1.854830E+03  1.106796E+04 -6.427905E+04 -7.149482E-10 -1.719204E-10
       183  16 -6.239312E+04 -8.649049E+04 -8.042471E+04 -6.402195E+04 -4.994915E-10 -6.994945E-11
       183  17 -1.834365E+05 -1.167509E+05 -1.065469E+05 -1.862413E+04 -2.204266E-10  2.112551E-09
       183  18 -3.035727E+05 -1.444771E+05 -1.301356E+05 -6.328121E+04  9.171978E-10  2.766104E-10
       183  19  6.362472E+05  8.681764E+04  8.769813E+04 -6.454139E+04  1.345503E+02  9.875883E+03
       183  20  7.564517E+05  1.162091E+05  1.186490E+05 -1.988629E+04  3.270688E+03  1.477731E+04
       183  21  8.775907E+05  1.481619E+05  1.522477E+05 -6.527761E+04  6.402306E+03  1.951488E+04
       183  22  2.868713E+05  1.680733E+02  3.641161E+03 -6.428161E+04  2.650250E+03  9.871102E+03
       183  23  2.864065E+05 -2.627382E+02  6.059122E+03 -1.925497E+04  5.701844E+03  1.477385E+04
       183  24  2.868494E+05  1.855259E+03  1.106882E+04 -6.427891E+04  8.748317E+03  1.951263E+04
       183  25 -6.239307E+04 -8.649038E+04 -8.042448E+04 -6.402191E+04  5.164540E+03  9.866323E+03
       183  26 -1.834364E+05 -1.167506E+05 -1.065463E+05 -1.862404E+04  8.131167E+03  1.477040E+04
       183  27 -3.035724E+05 -1.444767E+05 -1.301347E+05 -6.328103E+04  1.109211E+04  1.951040E+04
       184   1  1.042073E+06  1.860286E+05  1.950112E+05 -6.268161E+04 -7.959938E+03 -2.271339E+04
       184   2  1.159640E+06  2.141074E+05  2.332285E+05 -2.074692E+04 -2.128710E+04 -2.756753E+04
       184   3  1.285160E+06  2.641636E+05  2.857484E+05 -6.942598E+04 -3.460757E+04 -3.011003E+04
       184   4  2.883086E+05 -7.689092E+02  1.417474E+04 -6.441034E+04 -1.099120E+04 -2.271140E+04
       184   5  2.844135E+05 -2.707192E+03  2.365880E+04 -1.909654E+04 -2.313625E+04 -2.756887E+04
       184   6  2.882655E+05  1.714553E+04  4.664135E+04 -6.440382E+04 -3.527203E+04 -3.011336E+04
       184   7 -4.649359E+05 -1.876076E+05 -1.667020E+05 -6.613678E+04 -1.401880E+04 -2.270939E+04
       184   8 -5.901123E+05 -2.195773E+05 -1.859650E+05 -1.744836E+04 -2.498279E+04 -2.757023E+04
       184   9 -7.077200E+05 -2.299446E+05 -1.925362E+05 -5.938966E+04 -3.593540E+04 -3.011670E+04
       184  10  1.042073E+06  1.860280E+05  1.950101E+05 -6.268176E+04 -3.480375E-10  6.681704E-10
       184  11  1.159639E+06  2.141065E+05  2.332262E+05 -2.074739E+04 -1.355491E-09 -7.471228E-10
       184  12  1.285158E+06  2.641623E+05  2.857445E+05 -6.942682E+04 -9.171514E-10 -6.379375E-10
       184  13  2.883084E+05 -7.694956E+02  1.417355E+04 -6.441054E+04 -1.912399E-09  4.400496E-10
       184  14  2.844127E+05 -2.708152E+03  2.365636E+04 -1.909705E+04 -1.096446E-09  3.897560E-10
       184  15  2.882639E+05  1.714422E+04  4.663731E+04 -6.440468E+04  7.687521E-10 -1.979642E-10
       184  16 -4.649362E+05 -1.876082E+05 -1.667033E+05 -6.613703E+04 -3.312539E-10  1.745632E-10
       184  17 -5.901131E+05 -2.195783E+05 -1.859676E+05 -1.744892E+04  5.279604E-10 -4.611121E-10
       184  18 -7.077217E+05 -2.299459E+05 -1.925403E+05 -5.939053E+04  3.517163E-10  2.009307E-11
       184  19  1.042073E+06  1.860286E+05  1.950112E+05 -6.268161E+04  7.959938E+03  2.271339E+04
       184  20  1.159640E+06  2.141074E+05  2.332285E+05 -2.074692E+04  2.128710E+04  2.756753E+04
       184  21  1.285160E+06  2.641636E+05  2.857484E+05 -6.942598E+04  3.460757E+04  3.011003E+04
       184  22  2.883086E+05 -7.689092E+02  1.417474E+04 -6.441034E+04  1.099120E+04  2.271140E+04
       184  23  2.844135E+05 -2.707192E+03  2.365880E+04 -1.909654E+04  2.313625E+04  2.756887E+04
       184  24  2.882655E+05  1.714553E+04  4.664135E+04 -6.440382E+04  3.527203E+04  3.011336E+04
       184  25 -4.649359E+05 -1.876076E+05 -1.667020E+05 -6.613678E+04  1.401880E+04  2.270939E+04
       184  26 -5.901123E+05 -2.195773E+05 -1.859650E+05 -1.744836E+04  2.498279E+04  2.757023E+04
       184  27 -7.077200E+05 -2.299446E+05 -1.925362E+05 -5.938966E+04  3.593540E+04  3.011670E+04
       185   1  1.461201E+06  2.789573E+05  3.350168E+05 -4.238015E+04 -3.434798E+04 -3.743979E+04
       185   2  1.553388E+06  2.937027E+05  3.981585E+05 -3.312922E+04 -9.946149E+04 -4.141319E+04
       185   3  1.707803E+06  5.153321E+05  5.557602E+05 -1.149690E+05 -1.646367E+05 -1.414380E+04
       185   4  2.996915E+05 -8.676276E+03  5.722758E+04 -6.444494E+04 -4.417354E+04 -3.744498E+04
       185   5  2.698611E+05 -2.409028E+04  9.119725E+04 -1.902590E+04 -9.341951E+04 -4.141527E+04
       185   6  2.996143E+05  1.648528E+05  2.087466E+05 -6.469952E+04 -1.427124E+05 -1.412182E+04
       185   7 -8.605821E+05 -2.964057E+05 -2.206562E+05 -8.646835E+04 -5.398076E+04 -3.744949E+04
       185   8 -1.012158E+06 -3.420017E+05 -2.158799E+05 -4.952140E+03 -8.738978E+04 -4.141709E+04
       185   9 -1.106767E+06 -1.857640E+05 -1.384103E+05 -1.454468E+04 -1.208374E+05 -1.409629E+04
       185  10  1.461199E+06  2.789555E+05  3.350120E+05 -4.238118E+04 -9.504349E-10  9.664984E-11
       185  11  1.553377E+06  2.936982E+05  3.981367E+05 -3.313254E+04  1.136555E-09  3.216669E-10
       185  12  1.707773E+06  5.153246E+05  5.557091E+05 -1.149708E+05 -4.192875E-10 -1.692013E-10
       185  13  2.996890E+05 -8.678305E+03  5.722128E+04 -6.444627E+04 -1.435543E-09  5.759419E-10
       185  14  2.698512E+05 -2.409446E+04  9.117764E+04 -1.902901E+04 -5.468269E-10  1.661878E-09
       185  15  2.995924E+05  1.648471E+05  2.087080E+05 -6.470114E+04  1.171754E-09 -2.589942E-12
       185  16 -8.605856E+05 -2.964080E+05 -2.206644E+05 -8.646998E+04 -4.364959E-10  1.071230E-10
       185  17 -1.012167E+06 -3.420056E+05 -2.158975E+05 -4.955057E+03 -7.977457E-10 -2.504685E-10
       185  18 -1.106783E+06 -1.857681E+05 -1.384381E+05 -1.454605E+04  4.011121E-10 -9.026600E-10
       185  19  1.461201E+06  2.789573E+05  3.350168E+05 -4.238015E+04  3.434798E+04  3.743979E+04
       185  20  1.553388E+06  2.937027E+05  3.981585E+05 -3.312922E+04  9.946149E+04  4.141319E+04
       185  21  1.707803E+06  5.153321E+05  5.557602E+05 -1.149690E+05  1.646367E+05  1.414380E+04
       185  22  2.996915E+05 -8.676276E+03  5.722758E+04 -6.444494E+04  4.417354E+04  3.744498E+04
       185  23  2.698611E+05 -2.409028E+04  9.119725E+04 -1.902590E+04  9.341951E+04  4.141527E+04
       185  24  2.996143E+05  1.648528E+05  2.087466E+05 -6.469952E+04  1.427124E+05  1.412182E+04
       185  25 -8.605821E+05 -2.964057E+05 -2.206562E+05 -8.646835E+04  5.398076E+04  3.744949E+04
       185  26 -1.012158E+06 -3.420017E+05 -2.158799E+05 -4.952140E+03  8.738978E+04  4.141709E+04
       185  27 -1.106767E+06 -1.857640E+05 -1.384103E+05 -1.454468E+04  1.208374E+05  1.409629E+04
       186   1  1.856589E+05  5.100098E+05  2.170589E+05 -1.447557E+05  1.125855E+03  1.056194E+05
       186   2 -5.044656E+03  2.907920E+05  8.217914E+04 -4.320303E+04  1.562563E+03  6.376988E+04
       186   3 -4.129009E+04  1.142397E+05  1.284969E+04 -8.884797E+04 -5.866335E+03  2.190243E+04
       186   4  1.234143E+05  2.620565E+05  1.555359E+05 -1.052203E+05  1.140977E+03  1.034852E+05
       186   5 -1.746030E+04  2.410824E+05  7.033000E+04 -3.187489E+04  1.556435E+03  6.561528E+04
       186   6 -4.552814E+03  2.620705E+05  4.793572E+04 -1.057184E+05 -5.890288E+03  2.771421E+04
       186   7  6.117078E+04  1.416226E+04  9.400915E+04 -6.570068E+04  1.155831E+03  1.013518E+05
       186   8 -2.987565E+04  1.913753E+05  5.848076E+04 -2.054767E+04  1.550373E+03  6.746053E+04
       186   9  3.218395E+04  4.099221E+05  8.302051E+04 -1.225928E+05 -5.914553E+03  3.352737E+04
       186  10  1.856559E+05  5.099979E+05  2.170379E+05 -1.447558E+05  9.627933E-10  1.985353E-09
       186  11 -5.045750E+03  2.907876E+05  8.217150E+04 -4.320311E+04 -6.682777E-10  4.089322E-09
       186  12 -4.129026E+04  1.142392E+05  1.284872E+04 -8.884787E+04 -4.664922E-10 -1.617677E-09
       186  13  1.234114E+05  2.620450E+05  1.555158E+05 -1.052204E+05  1.201693E-09  2.148578E-09
       186  14 -1.746146E+04  2.410777E+05  7.032191E+04 -3.187498E+04  3.933204E-10 -9.744085E-10
       186  15 -4.553057E+03  2.620697E+05  4.793422E+04 -1.057182E+05  8.196217E-10  1.390356E-09
       186  16  6.116802E+04  1.415123E+04  9.398984E+04 -6.570077E+04  7.043319E-10 -4.002706E-10
       186  17 -2.987687E+04  1.913704E+05  5.847221E+04 -2.054776E+04  3.671206E-09  1.269144E-09
       186  18  3.218362E+04  4.099209E+05  8.301833E+04 -1.225926E+05  1.124371E-09  1.463901E-09
       186  19  1.856589E+05  5.100098E+05  2.170589E+05 -1.447557E+05 -1.125855E+03 -1.056194E+05
       186  20 -5.044656E+03  2.907920E+05  8.217914E+04 -4.320303E+04 -1.562563E+03 -6.376988E+04
       186  21 -4.129009E+04  1.142397E+05  1.284969E+04 -8.884797E+04  5.866335E+03 -2.190243E+04
       186  22  1.234143E+05  2.620565E+05  1.555359E+05 -1.052203E+05 -1.140977E+03 -1.034852E+05
       186  23 -1.746030E+04  2.410824E+05  7.033000E+04 -3.187489E+04 -1.556435E+03 -6.561528E+04
       186  24 -4.552814E+03  2.620705E+05  4.793572E+04 -1.057184E+05  5.890288E+03 -2.771421E+04
       186  25  6.117078E+04  1.416226E+04  9.400915E+04 -6.570068E+04 -1.155831E+03 -1.013518E+05
       186  26 -2.987565E+04  1.913753E+05  5.848076E+04 -2.054767E+04 -1.550373E+03 -6.746053E+04
       186  27  3.218395E+04  4.099221E+05  8.302051E+04 -1.225928E+05  5.914553E+03 -3.352737E+04
       187   1 -8.961909E+04 -1.601630E+05 -5.783752E+04 -1.094512E+05 -1.203269E+04  1.575936E+04
       187   2 -1.551318E+05 -3.625287E+05 -1.167756E+05 -3.041633E+04 -1.934493E+04  1.255934E+03
       187   3 -1.919626E+05 -5.566354E+05 -1.592877E+05 -9.930373E+04 -2.474541E+04 -1.322725E+04
       187   4  1.323061E+04  2.545641E+05  4.190328E+04 -1.057023E+05 -1.204860E+04  1.996475E+04
       187   5 -3.162689E+03  2.503490E+05  3.011078E+04 -3.175586E+04 -1.935502E+04  4.487051E+03
       187   6  9.283662E+03  2.545189E+05  3.541460E+04 -1.057210E+05 -2.475039E+04 -1.097494E+04
       187   7  1.160679E+05  6.694487E+05  1.416319E+05 -1.019508E+05 -1.206446E+04  2.417293E+04
       187   8  1.487792E+05  8.635708E+05  1.769706E+05 -3.309641E+04 -1.936511E+04  7.721343E+03
       187   9  2.104822E+05  1.066276E+06  2.300702E+05 -1.121462E+05 -2.475542E+04 -8.719701E+03
       187  10 -8.961931E+04 -1.601633E+05 -5.783826E+04 -1.094510E+05 -1.861527E-09  9.160968E-10
       187  11 -1.551322E+05 -3.625288E+05 -1.167763E+05 -3.041631E+04  2.013628E-10  3.996382E-09
       187  12 -1.919633E+05 -5.566358E+05 -1.592891E+05 -9.930399E+04  6.385195E-10 -3.973737E-10
       187  13  1.323034E+04  2.545636E+05  4.190226E+04 -1.057021E+05  2.183534E-10  2.035510E-09
       187  14 -3.163097E+03  2.503489E+05  3.011003E+04 -3.175579E+04  6.631278E-10 -1.069471E-09
       187  15  9.282972E+03  2.545186E+05  3.541322E+04 -1.057212E+05 -1.776457E-10  9.807144E-10
       187  16  1.160675E+05  6.694481E+05  1.416305E+05 -1.019505E+05 -1.315331E-09  6.950932E-10
       187  17  1.487788E+05  8.635706E+05  1.769697E+05 -3.309629E+04 -2.206396E-09  9.101967E-10
       187  18  2.104816E+05  1.066276E+06  2.300689E+05 -1.121464E+05  7.837236E-10  2.373344E-10
       187  19 -8.961909E+04 -1.601630E+05 -5.783752E+04 -1.094512E+05  1.203269E+04 -1.575936E+04
       187  20 -1.551318E+05 -3.625287E+05 -1.167756E+05 -3.041633E+04  1.934493E+04 -1.255934E+03
       187  21 -1.919626E+05 -5.566354E+05 -1.592877E+05 -9.930373E+04  2.474541E+04  1.322725E+04
       187  22  1.323061E+04  2.545641E+05  4.190328E+04 -1.057023E+05  1.204860E+04 -1.996475E+04
       187  23 -3.162689E+03  2.503490E+05  3.011078E+04 -3.175586E+04  1.935502E+04 -4.487051E+03
       187  24  9.283662E+03  2.545189E+05  3.541460E+04 -1.057210E+05  2.475039E+04  1.097494E+04
       187  25  1.160679E+05  6.694487E+05  1.416319E+05 -1.019508E+05  1.206446E+04 -2.417293E+04
       187  26  1.487792E+05  8.635708E+05  1.769706E+05 -3.309641E+04  1.936511E+04 -7.721343E+03
       187  27  2.104822E+05  1.066276E+06  2.300702E+05 -1.121462E+05  2.475542E+04  8.719701E+03
       188   1 -2.702827E+05 -8.188833E+05 -2.196377E+05 -1.156679E+05 -3.429433E+04 -2.940553E+04
       188   2 -3.301200E+05 -1.033628E+06 -2.526506E+05 -2.161886E+04 -4.117168E+04 -4.093100E+04
       188   3 -2.783517E+05 -1.217783E+06 -2.500147E+05 -7.544215E+04 -1.416507E+04 -5.239460E+04
       188   4 -2.810959E+03  2.599508E+05  3.886749E+04 -1.057627E+05 -3.432538E+04 -1.742182E+04
       188   5 -1.341913E+04  2.431716E+05  5.317478E+04 -3.176711E+04 -4.115505E+04 -4.605103E+04
       188   6  9.042629E+04  2.598459E+05  1.149505E+05 -1.056194E+05 -1.413075E+04 -7.462258E+04
       188   7  2.645769E+05  1.339852E+06  2.972909E+05 -9.583940E+04 -3.435602E+04 -5.417324E+03
       188   8  3.031638E+05  1.521466E+06  3.588850E+05 -4.193555E+04 -4.113827E+04 -5.118147E+04
       188   9  4.590448E+05  1.739464E+06  4.797561E+05 -1.358678E+05 -1.409431E+04 -9.690330E+04
       188  10 -2.702842E+05 -8.188846E+05 -2.196415E+05 -1.156688E+05 -1.255540E-10  5.729147E-11
       188  11 -3.301223E+05 -1.033630E+06 -2.526570E+05 -2.162022E+04  1.316624E-09  2.305872E-09
       188  12 -2.783527E+05 -1.217786E+06 -2.500203E+05 -7.544275E+04  4.575956E-10 -1.263018E-10
       188  13 -2.812306E+03  2.599501E+05  3.886471E+04 -1.057632E+05  1.491269E-09  1.493781E-09
       188  14 -1.342151E+04  2.431688E+05  5.316761E+04 -3.176864E+04  1.512556E-09 -5.902591E-10
       188  15  9.042459E+04  2.598399E+05  1.149396E+05 -1.056202E+05 -2.675177E-10  3.888570E-10
       188  16  2.645756E+05  1.339852E+06  2.972886E+05 -9.583955E+04 -1.310539E-10  1.130618E-09
       188  17  3.031613E+05  1.521463E+06  3.588769E+05 -4.193725E+04  5.241008E-10  2.982311E-10
       188  18  4.590421E+05  1.739454E+06  4.797381E+05 -1.358689E+05  6.004656E-10 -7.635433E-11
       188  19 -2.702827E+05 -8.188833E+05 -2.196377E+05 -1.156679E+05  3.429433E+04  2.940553E+04
       188  20 -3.301200E+05 -1.033628E+06 -2.526506E+05 -2.161886E+04  4.117168E+04  4.093100E+04
       188  21 -2.783517E+05 -1.217783E+06 -2.500147E+05 -7.544215E+04  1.416507E+04  5.239460E+04
       188  22 -2.810959E+03  2.599508E+05  3.886749E+04 -1.057627E+05  3.432538E+04  1.742182E+04
       188  23 -1.341913E+04  2.431716E+05  5.317478E+04 -3.176711E+04  4.115505E+04  4.605103E+04
       188  24  9.042629E+04  2.598459E+05  1.149505E+05 -1.056194E+05  1.413075E+04  7.462258E+04
       188  25  2.645769E+05  1.339852E+06  2.972909E+05 -9.583940E+04  3.435602E+04  5.417324E+03
       188  26  3.031638E+05  1.521466E+06  3.588850E+05 -4.193555E+04  4.113827E+04  5.118147E+04
       188  27  4.590448E+05  1.739464E+06  4.797561E+05 -1.358678E+05  1.409431E+04  9.690330E+04
       189   1 -4.049829E+06 -1.390218E+06 -9.083042E+05 -1.402601E+06 -3.856646E+05 -1.310927E+05
       189   2 -3.930153E+06 -8.124491E+05 -5.473757E+05 -1.438706E+06 -2.521581E+05 -5.021528E+04
       189   3 -3.988405E+06 -7.941149E+05 -4.368251E+05 -1.380373E+06 -1.076410E+05  1.639530E+03
       189   4 -2.907853E+06 -8.329141E+05 -5.715851E+05 -9.644849E+05 -3.668879E+05 -1.240744E+05
       189   5 -2.790165E+06 -3.461900E+05 -2.382556E+05 -1.090490E+06 -2.467849E+05 -4.820722E+04
       189   6 -2.847367E+06 -4.156671E+05 -1.442798E+05 -1.122165E+06 -1.156851E+05 -1.388865E+03
       189   7 -1.764570E+06 -2.752587E+05 -2.349928E+05 -5.255499E+05 -3.480724E+05 -1.170320E+05
       189   8 -1.648907E+06  1.202117E+05  7.074700E+04 -7.416715E+05 -2.414003E+05 -4.619410E+04
       189   9 -1.705066E+06 -3.720888E+04  1.481611E+05 -8.635583E+05 -1.237453E+05 -4.421647E+03
       189  10 -4.049995E+06 -1.390277E+06 -9.086183E+05 -1.402642E+06  1.202782E-09 -4.229296E-10
       189  11 -3.930223E+06 -8.124690E+05 -5.475008E+05 -1.438716E+06 -5.871168E-10 -9.819247E-11
       189  12 -3.988418E+06 -7.941180E+05 -4.368470E+05 -1.380373E+06  7.888096E-10 -2.399171E-10
       189  13 -2.908003E+06 -8.329671E+05 -5.718685E+05 -9.645217E+05  7.873644E-10 -1.369106E-09
       189  14 -2.790231E+06 -3.462089E+05 -2.383750E+05 -1.090500E+06  3.058391E-09 -1.198832E-09
       189  15 -2.847381E+06 -4.156708E+05 -1.443051E+05 -1.122165E+06 -5.102824E-10 -2.229809E-10
       189  16 -1.764704E+06 -2.753060E+05 -2.352470E+05 -5.255828E+05 -8.693033E-10 -3.274316E-10
       189  17 -1.648971E+06  1.201937E+05  7.063312E+04 -7.416805E+05  2.406832E-09 -2.995192E-10
       189  18 -1.705083E+06 -3.721303E+04  1.481322E+05 -8.635588E+05 -7.384289E-11  4.110782E-10
       189  19 -4.049829E+06 -1.390218E+06 -9.083042E+05 -1.402601E+06  3.856646E+05  1.310927E+05
       189  20 -3.930153E+06 -8.124491E+05 -5.473757E+05 -1.438706E+06  2.521581E+05  5.021528E+04
       189  21 -3.988405E+06 -7.941149E+05 -4.368251E+05 -1.380373E+06  1.076410E+05 -1.639530E+03
       189  22 -2.907853E+06 -8.329141E+05 -5.715851E+05 -9.644849E+05  3.668879E+05  1.240744E+05
       189  23 -2.790165E+06 -3.461900E+05 -2.382556E+05 -1.090490E+06  2.467849E+05  4.820722E+04
       189  24 -2.847367E+06 -4.156671E+05 -1.442798E+05 -1.122165E+06  1.156851E+05  1.388865E+03
       189  25 -1.764570E+06 -2.752587E+05 -2.349928E+05 -5.255499E+05  3.480724E+05  1.170320E+05
       189  26 -1.648907E+06  1.202117E+05  7.074700E+04 -7.416715E+05  2.414003E+05  4.619410E+04
       189  27 -1.705066E+06 -3.720888E+04  1.481611E+05 -8.635583E+05  1.237453E+05  4.421647E+03
       190   1 -3.814278E+06 -8.628164E+05 -3.824994E+05 -1.372738E+06 -9.305013E+04  3.836911E+02
       190   2 -3.748624E+06 -7.501181E+05 -2.993398E+05 -1.332157E+06 -6.225710E+04  1.084241E+04
       190   3 -3.660923E+06 -7.419549E+05 -2.544666E+05 -1.330246E+06 -3.048571E+04  1.869593E+04
       190   4 -2.826833E+06 -4.776342E+05 -1.174561E+05 -1.090380E+06 -9.299936E+04  3.965724E+02
       190   5 -2.834661E+06 -4.024255E+05 -5.624126E+04 -1.079703E+06 -6.338331E+04  1.041511E+04
       190   6 -2.820178E+06 -4.314579E+05 -3.232768E+04 -1.107703E+06 -3.279362E+04  1.782765E+04
       190   7 -1.838437E+06 -9.237356E+04  1.475014E+05 -8.076061E+05 -9.294842E+04  4.095346E+02
       190   8 -1.919885E+06 -5.467762E+04  1.867848E+05 -8.269101E+05 -6.451129E+04  9.987133E+03
       190   9 -1.978747E+06 -1.209253E+05  1.897504E+05 -8.848886E+05 -3.510496E+04  1.695814E+04
       190  10 -3.814287E+06 -8.628187E+05 -3.825157E+05 -1.372738E+06 -7.641691E-10  1.167512E-09
       190  11 -3.748628E+06 -7.501192E+05 -2.993473E+05 -1.332156E+06 -2.204029E-11  7.920905E-10
       190  12 -3.660924E+06 -7.419555E+05 -2.544690E+05 -1.330246E+06 -4.431301E-10  3.165860E-10
       190  13 -2.826842E+06 -4.776365E+05 -1.174724E+05 -1.090380E+06 -9.456515E-10 -9.719932E-11
       190  14 -2.834665E+06 -4.024267E+05 -5.624904E+04 -1.079702E+06  4.546451E-10  3.991020E-10
       190  15 -2.820179E+06 -4.314585E+05 -3.233030E+04 -1.107702E+06  1.421409E-10 -2.945252E-10
       190  16 -1.838446E+06 -9.237589E+04  1.474851E+05 -8.076061E+05 -7.016430E-10  4.303949E-10
       190  17 -1.919889E+06 -5.467885E+04  1.867767E+05 -8.269095E+05  1.032767E-09  2.289522E-10
       190  18 -1.978749E+06 -1.209260E+05  1.897476E+05 -8.848882E+05 -5.087638E-10 -1.394738E-09
       190  19 -3.814278E+06 -8.628164E+05 -3.824994E+05 -1.372738E+06  9.305013E+04 -3.836911E+02
       190  20 -3.748624E+06 -7.501181E+05 -2.993398E+05 -1.332157E+06  6.225710E+04 -1.084241E+04
       190  21 -3.660923E+06 -7.419549E+05 -2.544666E+05 -1.330246E+06  3.048571E+04 -1.869593E+04
       190  22 -2.826833E+06 -4.776342E+05 -1.174561E+05 -1.090380E+06  9.299936E+04 -3.965724E+02
       190  23 -2.834661E+06 -4.024255E+05 -5.624126E+04 -1.079703E+06  6.338331E+04 -1.041511E+04
       190  24 -2.820178E+06 -4.314579E+05 -3.232768E+04 -1.107703E+06  3.279362E+04 -1.782765E+04
       190  25 -1.838437E+06 -9.237356E+04  1.475014E+05 -8.076061E+05  9.294842E+04 -4.095346E+02
       190  26 -1.919885E+06 -5.467762E+04  1.867848E+05 -8.269101E+05  6.451129E+04 -9.987133E+03
       190  27 -1.978747E+06 -1.209253E+05  1.897504E+05 -8.848886E+05  3.510496E+04 -1.695814E+04
       191   1 -3.525018E+06 -7.071715E+05 -2.131675E+05 -1.299477E+06 -2.552295E+04  1.765738E+04
       191   2 -3.458488E+06 -6.392151E+05 -1.767480E+05 -1.244540E+06 -1.730461E+04  1.647912E+04
       191   3 -3.341296E+06 -6.310416E+05 -1.470325E+05 -1.249366E+06 -8.952384E+03  1.492814E+04
       191   4 -2.816366E+06 -4.395125E+05 -2.529008E+04 -1.105628E+06 -2.720330E+04  1.702548E+04
       191   5 -2.841328E+06 -4.070393E+05 -1.310194E+04 -1.076714E+06 -1.915214E+04  1.578609E+04
       191   6 -2.815602E+06 -4.343081E+05 -7.477979E+03 -1.107563E+06 -1.096825E+04  1.417376E+04
       191   7 -2.107228E+06 -1.718230E+05  1.625432E+05 -9.115792E+05 -2.888576E+04  1.639278E+04
       191   8 -2.223799E+06 -1.748406E+05  1.505111E+05 -9.087370E+05 -2.100169E+04  1.509230E+04
       191   9 -2.289639E+06 -2.375584E+05  1.320530E+05 -9.656505E+05 -1.298601E+04  1.341868E+04
       191  10 -3.525019E+06 -7.071720E+05 -2.131693E+05 -1.299477E+06 -1.408268E-09 -5.744592E-10
       191  11 -3.458489E+06 -6.392155E+05 -1.767491E+05 -1.244540E+06  2.464254E-11 -4.790142E-10
       191  12 -3.341296E+06 -6.310418E+05 -1.470331E+05 -1.249366E+06 -1.035045E-09 -2.236302E-10
       191  13 -2.816366E+06 -4.395130E+05 -2.529201E+04 -1.105628E+06  4.623899E-10 -8.045921E-10
       191  14 -2.841329E+06 -4.070397E+05 -1.310310E+04 -1.076714E+06 -1.362905E-09  4.341855E-11
       191  15 -2.815602E+06 -4.343083E+05 -7.478582E+03 -1.107562E+06  2.762747E-10  5.157194E-10
       191  16 -2.107228E+06 -1.718235E+05  1.625411E+05 -9.115788E+05  1.362649E-10 -5.178201E-10
       191  17 -2.223799E+06 -1.748410E+05  1.505099E+05 -9.087368E+05  5.625170E-10  7.553569E-10
       191  18 -2.289639E+06 -2.375586E+05  1.320523E+05 -9.656504E+05  2.799813E-10  5.679224E-10
       191  19 -3.525018E+06 -7.071715E+05 -2.131675E+05 -1.299477E+06  2.552295E+04 -1.765738E+04
       191  20 -3.458488E+06 -6.392151E+05 -1.767480E+05 -1.244540E+06  1.730461E+04 -1.647912E+04
       191  21 -3.341296E+06 -6.310416E+05 -1.470325E+05 -1.249366E+06  8.952384E+03 -1.492814E+04
       191  22 -2.816366E+06 -4.395125E+05 -2.529008E+04 -1.105628E+06  2.720330E+04 -1.702548E+04
       191  23 -2.841328E+06 -4.070393E+05 -1.310194E+04 -1.076714E+06  1.915214E+04 -1.578609E+04
       191  24 -2.815602E+06 -4.343081E+05 -7.477979E+03 -1.107563E+06  1.096825E+04 -1.417376E+04
       191  25 -2.107228E+06 -1.718230E+05  1.625432E+05 -9.115792E+05  2.888576E+04 -1.639278E+04
       191  26 -2.223799E+06 -1.748406E+05  1.505111E+05 -9.087370E+05  2.100169E+04 -1.509230E+04
       191  27 -2.289639E+06 -2.375584E+05  1.320530E+05 -9.656505E+05  1.298601E+04 -1.341868E+04
       192   1 -3.198637E+06 -5.801407E+05 -1.073271E+05 -1.212434E+06 -6.969315E+03  1.283723E+04
       192   2 -3.127806E+06 -5.134715E+05 -7.902327E+04 -1.152545E+06 -3.555631E+03  9.254130E+03
       192   3 -3.000063E+06 -5.049283E+05 -5.226810E+04 -1.158552E+06 -1.081532E+02  5.571930E+03
       192   4 -2.814456E+06 -4.359170E+05 -5.872999E+03 -1.108171E+06 -8.950742E+03  1.209657E+04
       192   5 -2.842859E+06 -4.065575E+05 -3.533855E+03 -1.075331E+06 -5.582445E+03  8.497258E+03
       192   6 -2.814351E+06 -4.353131E+05 -2.705734E+03 -1.108387E+06 -2.180698E+03  4.798792E+03
       192   7 -2.430132E+06 -2.916845E+05  9.556840E+04 -1.003850E+06 -1.093352E+04  1.135540E+04
       192   8 -2.557833E+06 -2.996390E+05  7.194843E+04 -9.980842E+05 -7.610281E+03  7.740004E+03
       192   9 -2.628607E+06 -3.656962E+05  4.685349E+04 -1.058209E+06 -4.253922E+03  4.025401E+03
       192  10 -3.198637E+06 -5.801409E+05 -1.073275E+05 -1.212434E+06 -5.582835E-10 -1.493007E-10
       192  11 -3.127806E+06 -5.134716E+05 -7.902345E+04 -1.152545E+06  9.469558E-10 -6.455102E-10
       192  12 -3.000063E+06 -5.049283E+05 -5.226816E+04 -1.158552E+06  1.309249E-09 -2.870211E-09
       192  13 -2.814456E+06 -4.359172E+05 -5.873424E+03 -1.108171E+06  7.864575E-10  7.717294E-11
       192  14 -2.842859E+06 -4.065576E+05 -3.534049E+03 -1.075331E+06  9.314778E-10 -2.693310E-09
       192  15 -2.814351E+06 -4.353131E+05 -2.705786E+03 -1.108387E+06  1.306607E-09 -1.249563E-09
       192  16 -2.430132E+06 -2.916847E+05  9.556793E+04 -1.003850E+06  1.252642E-09 -3.797218E-11
       192  17 -2.557833E+06 -2.996391E+05  7.194821E+04 -9.980841E+05  2.813160E-09  1.573157E-09
       192  18 -2.628607E+06 -3.656962E+05  4.685342E+04 -1.058209E+06 -1.233716E-09 -5.959994E-10
       192  19 -3.198637E+06 -5.801407E+05 -1.073271E+05 -1.212434E+06  6.969315E+03 -1.283723E+04
       192  20 -3.127806E+06 -5.134715E+05 -7.902327E+04 -1.152545E+06  3.555631E+03 -9.254130E+03
       192  21 -3.000063E+06 -5.049283E+05 -5.226810E+04 -1.158552E+06  1.081532E+02 -5.571930E+03
       192  22 -2.814456E+06 -4.359170E+05 -5.872999E+03 -1.108171E+06  8.950742E+03 -1.209657E+04
       192  23 -2.842859E+06 -4.065575E+05 -3.533855E+03 -1.075331E+06  5.582445E+03 -8.497258E+03
       192  24 -2.814351E+06 -4.353131E+05 -2.705734E+03 -1.108387E+06  2.180698E+03 -4.798792E+03
       192  25 -2.430132E+06 -2.916845E+05  9.556840E+04 -1.003850E+06  1.093352E+04 -1.135540E+04
       192  26 -2.557833E+06 -2.996390E+05  7.194843E+04 -9.980842E+05  7.610281E+03 -7.740004E+03
       192  27 -2.628607E+06 -3.656962E+05  4.685349E+04 -1.058209E+06  4.253922E+03 -4.025401E+03
       193   1 -2.852247E+06 -4.498554E+05 -1.238708E+04 -1.119068E+06  1.298678E+03  3.163787E+03
       193   2 -2.780152E+06 -3.826589E+05  1.341742E+04 -1.057961E+06  4.561257E+03 -6.348325E+02
       193   3 -2.650244E+06 -3.744919E+05  3.781519E+04 -1.063965E+06  7.813260E+03 -4.402162E+03
       193   4 -2.814147E+06 -4.355532E+05 -2.666611E+03 -1.108640E+06 -7.782992E+02  2.389217E+03
       193   5 -2.843078E+06 -4.062536E+05 -3.247058E+03 -1.075001E+06  2.498587E+03 -1.404267E+03
       193   6 -2.814212E+06 -4.359885E+05 -5.245562E+03 -1.108479E+06  5.764590E+03 -5.166524E+03
       193   7 -2.776046E+06 -4.212507E+05  7.053784E+03 -1.098211E+06 -2.855422E+03  1.614592E+03
       193   8 -2.906001E+06 -4.298481E+05 -1.991188E+04 -1.092040E+06  4.361446E+02 -2.173617E+03
       193   9 -2.978153E+06 -4.974834E+05 -4.830860E+04 -1.152983E+06  3.716516E+03 -5.930664E+03
       193  10 -2.852247E+06 -4.498555E+05 -1.238710E+04 -1.119068E+06  2.405123E-10 -1.638739E-09
       193  11 -2.780152E+06 -3.826589E+05  1.341738E+04 -1.057961E+06  2.225987E-09  1.819817E-09
       193  12 -2.650244E+06 -3.744920E+05  3.781504E+04 -1.063965E+06  1.218023E-09  3.790881E-10
       193  13 -2.814147E+06 -4.355532E+05 -2.666623E+03 -1.108640E+06 -2.721091E-10 -8.975944E-10
       193  14 -2.843078E+06 -4.062536E+05 -3.247074E+03 -1.075001E+06  1.087159E-09 -1.755675E-09
       193  15 -2.814212E+06 -4.359885E+05 -5.245674E+03 -1.108479E+06  9.276009E-10  3.900540E-11
       193  16 -2.776046E+06 -4.212507E+05  7.053764E+03 -1.098211E+06 -1.154733E-09 -9.915327E-10
       193  17 -2.906001E+06 -4.298481E+05 -1.991189E+04 -1.092040E+06 -3.745212E-10 -1.668338E-09
       193  18 -2.978153E+06 -4.974835E+05 -4.830869E+04 -1.152983E+06 -1.217863E-09 -1.496358E-09
       193  19 -2.852247E+06 -4.498554E+05 -1.238708E+04 -1.119068E+06 -1.298678E+03 -3.163787E+03
       193  20 -2.780152E+06 -3.826589E+05  1.341742E+04 -1.057961E+06 -4.561257E+03  6.348325E+02
       193  21 -2.650244E+06 -3.744919E+05  3.781519E+04 -1.063965E+06 -7.813260E+03  4.402162E+03
       193  22 -2.814147E+06 -4.355532E+05 -2.666611E+03 -1.108640E+06  7.782992E+02 -2.389217E+03
       193  23 -2.843078E+06 -4.062536E+05 -3.247058E+03 -1.075001E+06 -2.498587E+03  1.404267E+03
       193  24 -2.814212E+06 -4.359885E+05 -5.245562E+03 -1.108479E+06 -5.764590E+03  5.166524E+03
       193  25 -2.776046E+06 -4.212507E+05  7.053784E+03 -1.098211E+06  2.855422E+03 -1.614592E+03
       193  26 -2.906001E+06 -4.298481E+05 -1.991188E+04 -1.092040E+06 -4.361446E+02  2.173617E+03
       193  27 -2.978153E+06 -4.974834E+05 -4.830860E+04 -1.152983E+06 -3.716516E+03  5.930664E+03
       194   1 -2.504382E+06 -3.190185E+05  7.584886E+04 -1.024864E+06  9.783468E+03 -6.593323E+03
       194   2 -2.434698E+06 -2.531925E+05  9.637783E+04 -9.650837E+05  1.711816E+04 -8.743301E+03
       194   3 -2.311390E+06 -2.492380E+05  1.111573E+05 -9.687624E+05  2.435058E+04 -1.060394E+04
       194   4 -2.814930E+06 -4.349150E+05 -6.650802E+03 -1.108317E+06  7.696532E+03 -7.372415E+03
       194   5 -2.842060E+06 -4.062382E+05 -1.153876E+04 -1.075742E+06  1.516280E+04 -9.474386E+03
       194   6 -2.815602E+06 -4.394649E+05 -2.228338E+04 -1.106632E+06  2.252579E+04 -1.128728E+04
       194   7 -3.125385E+06 -5.508058E+05 -8.915860E+04 -1.191731E+06  5.610750E+03 -8.151082E+03
       194   8 -3.249262E+06 -5.592740E+05 -1.194697E+05 -1.186334E+06  1.320885E+04 -1.020494E+04
       194   9 -3.319568E+06 -6.296766E+05 -1.557465E+05 -1.244401E+06  2.070263E+04 -1.196999E+04
       194  10 -2.504382E+06 -3.190186E+05  7.584860E+04 -1.024864E+06 -4.830649E-10 -3.263212E-10
       194  11 -2.434699E+06 -2.531927E+05  9.637713E+04 -9.650836E+05 -6.062359E-10  5.243566E-10
       194  12 -2.311391E+06 -2.492383E+05  1.111560E+05 -9.687622E+05 -4.838457E-11  4.328034E-10
       194  13 -2.814931E+06 -4.349151E+05 -6.651015E+03 -1.108317E+06  1.147561E-10 -4.421981E-10
       194  14 -2.842061E+06 -4.062384E+05 -1.153936E+04 -1.075742E+06 -1.572325E-09  2.793536E-10
       194  15 -2.815603E+06 -4.394652E+05 -2.228458E+04 -1.106632E+06 -5.484424E-11 -2.553453E-10
       194  16 -3.125385E+06 -5.508059E+05 -8.915878E+04 -1.191731E+06  2.311051E-10 -7.365482E-10
       194  17 -3.249262E+06 -5.592741E+05 -1.194702E+05 -1.186334E+06  9.906414E-10  6.087744E-10
       194  18 -3.319569E+06 -6.296769E+05 -1.557475E+05 -1.244401E+06 -4.585265E-10  9.585980E-11
       194  19 -2.504382E+06 -3.190185E+05  7.584886E+04 -1.024864E+06 -9.783468E+03  6.593323E+03
       194  20 -2.434698E+06 -2.531925E+05  9.637783E+04 -9.650837E+05 -1.711816E+04  8.743301E+03
       194  21 -2.311390E+06 -2.492380E+05  1.111573E+05 -9.687624E+05 -2.435058E+04  1.060394E+04
       194  22 -2.814930E+06 -4.349150E+05 -6.650802E+03 -1.108317E+06 -7.696532E+03  7.372415E+03
       194  23 -2.842060E+06 -4.062382E+05 -1.153876E+04 -1.075742E+06 -1.516280E+04  9.474386E+03
       194  24 -2.815602E+06 -4.394649E+05 -2.228338E+04 -1.106632E+06 -2.252579E+04  1.128728E+04
       194  25 -3.125385E+06 -5.508058E+05 -8.915860E+04 -1.191731E+06 -5.610750E+03  8.151082E+03
       194  26 -3.249262E+06 -5.592740E+05 -1.194697E+05 -1.186334E+06 -1.320885E+04  1.020494E+04
       194  27 -3.319568E+06 -6.296766E+05 -1.557465E+05 -1.244401E+06 -2.070263E+04  1.196999E+04
       195   1 -2.173119E+06 -1.953505E+05  1.418375E+05 -9.388551E+05  3.000870E+04 -1.153931E+04
       195   2 -2.108328E+06 -1.253691E+05  1.439214E+05 -8.771289E+05  5.616752E+04 -6.198186E+03
       195   3 -2.013776E+06 -1.571921E+05  1.139551E+05 -8.614548E+05  8.147528E+04  1.440970E+03
       195   4 -2.818769E+06 -4.325981E+05 -2.848068E+04 -1.108696E+06  2.761712E+04 -1.243544E+04
       195   5 -2.836448E+06 -4.019111E+05 -4.948357E+04 -1.078062E+06  5.482632E+04 -6.703367E+03
       195   6 -2.824605E+06 -4.732826E+05 -1.034022E+05 -1.093485E+06  8.118033E+04  1.325873E+03
       195   7 -3.464015E+06 -6.698256E+05 -1.988346E+05 -1.278379E+06  2.522828E+04 -1.333060E+04
       195   8 -3.564053E+06 -6.784181E+05 -2.429344E+05 -1.278781E+06  5.348683E+04 -7.207897E+03
       195   9 -3.634794E+06 -7.893200E+05 -3.208170E+05 -1.325236E+06  8.088574E+04  1.210922E+03
       195  10 -2.173120E+06 -1.953509E+05  1.418356E+05 -9.388548E+05  1.885759E-10 -3.543163E-10
       195  11 -2.108331E+06 -1.253700E+05  1.439154E+05 -8.771286E+05 -5.439582E-10 -1.333214E-09
       195  12 -2.013783E+06 -1.571939E+05  1.139426E+05 -8.614549E+05 -5.341865E-10 -5.941648E-10
       195  13 -2.818770E+06 -4.325984E+05 -2.848241E+04 -1.108696E+06  7.690783E-10  7.622451E-13
       195  14 -2.836451E+06 -4.019119E+05 -4.948932E+04 -1.078062E+06  1.361168E-09  1.679726E-10
       195  15 -2.824612E+06 -4.732844E+05 -1.034146E+05 -1.093485E+06  2.835377E-10  3.311487E-11
       195  16 -3.464016E+06 -6.698259E+05 -1.988361E+05 -1.278378E+06 -1.100200E-09 -3.202624E-10
       195  17 -3.564056E+06 -6.784189E+05 -2.429399E+05 -1.278781E+06  1.296400E-09 -1.063908E-09
       195  18 -3.634801E+06 -7.893217E+05 -3.208294E+05 -1.325236E+06  6.223845E-11 -4.936655E-10
       195  19 -2.173119E+06 -1.953505E+05  1.418375E+05 -9.388551E+05 -3.000870E+04  1.153931E+04
       195  20 -2.108328E+06 -1.253691E+05  1.439214E+05 -8.771289E+05 -5.616752E+04  6.198186E+03
       195  21 -2.013776E+06 -1.571921E+05  1.139551E+05 -8.614548E+05 -8.147528E+04 -1.440970E+03
       195  22 -2.818769E+06 -4.325981E+05 -2.848068E+04 -1.108696E+06 -2.761712E+04  1.243544E+04
       195  23 -2.836448E+06 -4.019111E+05 -4.948357E+04 -1.078062E+06 -5.482632E+04  6.703367E+03
       195  24 -2.824605E+06 -4.732826E+05 -1.034022E+05 -1.093485E+06 -8.118033E+04 -1.325873E+03
       195  25 -3.464015E+06 -6.698256E+05 -1.988346E+05 -1.278379E+06 -2.522828E+04  1.333060E+04
       195  26 -3.564053E+06 -6.784181E+05 -2.429344E+05 -1.278781E+06 -5.348683E+04  7.207897E+03
       195  27 -3.634794E+06 -7.893200E+05 -3.208170E+05 -1.325236E+06 -8.088574E+04 -1.210922E+03
       196   1 -1.869743E+06 -9.859092E+04  1.217172E+05 -9.036703E+05  1.089002E+05  5.181752E+03
       196   2 -1.806686E+06  5.198498E+04  5.845056E+04 -7.851444E+05  2.125986E+05  4.093067E+04
       196   3 -1.884201E+06 -2.951777E+05 -2.057457E+05 -5.964388E+05  3.065352E+05  1.026319E+05
       196   4 -2.842645E+06 -4.187626E+05 -1.270080E+05 -1.121482E+06  1.013532E+05  2.351591E+03
       196   5 -2.797443E+06 -3.522836E+05 -2.096919E+05 -1.087417E+06  2.170835E+05  4.260228E+04
       196   6 -2.895513E+06 -7.864285E+05 -5.031305E+05 -9.831070E+05  3.230378E+05  1.087911E+05
       196   7 -3.814633E+06 -7.389292E+05 -3.758090E+05 -1.339010E+06  9.381914E+04 -4.751310E+02
       196   8 -3.787243E+06 -7.564445E+05 -4.779223E+05 -1.389234E+06  2.215603E+05  4.427025E+04
       196   9 -3.905796E+06 -1.277405E+06 -8.006126E+05 -1.369136E+06  3.395102E+05  1.149317E+05
       196  10 -1.869755E+06 -9.859415E+04  1.216948E+05 -9.036708E+05  3.470285E-10  2.960480E-10
       196  11 -1.806735E+06  5.197098E+04  5.836217E+04 -7.851514E+05 -8.331344E-10  4.835139E-10
       196  12 -1.884305E+06 -2.952144E+05 -2.059427E+05 -5.964642E+05  2.694256E-10 -7.411870E-10
       196  13 -2.842656E+06 -4.187654E+05 -1.270274E+05 -1.121482E+06  4.294177E-10  3.924480E-11
       196  14 -2.797495E+06 -3.522983E+05 -2.097843E+05 -1.087424E+06 -1.239499E-09  1.236125E-09
       196  15 -2.895628E+06 -7.864695E+05 -5.033500E+05 -9.831354E+05  5.842636E-10 -4.136256E-10
       196  16 -3.814643E+06 -7.389316E+05 -3.758256E+05 -1.339010E+06 -3.960107E-10 -4.386621E-10
       196  17 -3.787296E+06 -7.564599E+05 -4.780188E+05 -1.389242E+06 -2.418062E-09  3.501864E-10
       196  18 -3.905924E+06 -1.277450E+06 -8.008557E+05 -1.369167E+06  4.332774E-11 -2.567724E-10
       196  19 -1.869743E+06 -9.859092E+04  1.217172E+05 -9.036703E+05 -1.089002E+05 -5.181752E+03
       196  20 -1.806686E+06  5.198498E+04  5.845056E+04 -7.851444E+05 -2.125986E+05 -4.093067E+04
       196  21 -1.884201E+06 -2.951777E+05 -2.057457E+05 -5.964388E+05 -3.065352E+05 -1.026319E+05
       196  22 -2.842645E+06 -4.187626E+05 -1.270080E+05 -1.121482E+06 -1.013532E+05 -2.351591E+03
       196  23 -2.797443E+06 -3.522836E+05 -2.096919E+05 -1.087417E+06 -2.170835E+05 -4.260228E+04
       196  24 -2.895513E+06 -7.864285E+05 -5.031305E+05 -9.831070E+05 -3.230378E+05 -1.087911E+05
       196  25 -3.814633E+06 -7.389292E+05 -3.758090E+05 -1.339010E+06 -9.381914E+04  4.751310E+02
       196  26 -3.787243E+06 -7.564445E+05 -4.779223E+05 -1.389234E+06 -2.215603E+05 -4.427025E+04
       196  27 -3.905796E+06 -1.277405E+06 -8.006126E+05 -1.369136E+06 -3.395102E+05 -1.149317E+05
       197   1  4.235697E+05  1.258421E+05  2.060254E+05  6.665402E+04  2.467912E+05  7.364531E+03
       197   2  4.244890E+05 -2.009870E+05  1.196522E+04  1.995827E+04  1.655286E+05  2.082277E+04
       197   3  5.283046E+05 -1.610553E+05 -3.736950E+04 -6.562640E+04  8.428319E+04  1.910249E+04
       197   4  1.115672E+06  2.977944E+05  3.765514E+05 -2.618934E+04  2.576938E+05  7.347574E+03
       197   5  1.063695E+06 -4.276373E+04  1.648622E+05 -6.467741E+03  1.686807E+05  2.081899E+04
       197   6  1.115835E+06 -1.543747E+04  1.031606E+05 -2.563282E+04  7.969299E+04  1.910141E+04
       197   7  1.808229E+06  4.697437E+05  5.470472E+05 -1.191365E+05  2.686083E+05  7.327384E+03
       197   8  1.703276E+06  1.154326E+05  3.177307E+05 -3.292120E+04  1.718359E+05  2.081495E+04
       197   9  1.703685E+06  1.301613E+05  2.436674E+05  1.439865E+04  7.509844E+04  1.909975E+04
       197  10  4.235043E+05  1.258257E+05  2.059109E+05  6.665256E+04 -2.114138E-10  4.281389E-10
       197  11  4.244594E+05 -2.009948E+05  1.191296E+04  1.995550E+04 -1.760133E-09 -1.160892E-09
       197  12  5.282969E+05 -1.610576E+05 -3.738353E+04 -6.562770E+04 -5.490997E-10  6.597551E-10
       197  13  1.115601E+06  2.977765E+05  3.764267E+05 -2.619087E+04  4.865787E-10  2.572990E-10
       197  14  1.063664E+06 -4.277181E+04  1.648080E+05 -6.470568E+03 -1.843901E-09 -2.193401E-09
       197  15  1.115828E+06 -1.543957E+04  1.031480E+05 -2.563405E+04 -4.157802E-10  3.375699E-10
       197  16  1.808152E+06  4.697244E+05  5.469119E+05 -1.191380E+05 -3.111019E-10 -1.094694E-10
       197  17  1.703244E+06  1.154243E+05  3.176746E+05 -3.292408E+04 -1.788555E-09 -9.126833E-11
       197  18  1.703679E+06  1.301594E+05  2.436561E+05  1.439750E+04 -2.306784E-10 -4.839120E-10
       197  19  4.235697E+05  1.258421E+05  2.060254E+05  6.665402E+04 -2.467912E+05 -7.364531E+03
       197  20  4.244890E+05 -2.009870E+05  1.196522E+04  1.995827E+04 -1.655286E+05 -2.082277E+04
       197  21  5.283046E+05 -1.610553E+05 -3.736950E+04 -6.562640E+04 -8.428319E+04 -1.910249E+04
       197  22  1.115672E+06  2.977944E+05  3.765514E+05 -2.618934E+04 -2.576938E+05 -7.347574E+03
       197  23  1.063695E+06 -4.276373E+04  1.648622E+05 -6.467741E+03 -1.686807E+05 -2.081899E+04
       197  24  1.115835E+06 -1.543747E+04  1.031606E+05 -2.563282E+04 -7.969299E+04 -1.910141E+04
       197  25  1.808229E+06  4.697437E+05  5.470472E+05 -1.191365E+05 -2.686083E+05 -7.327384E+03
       197  26  1.703276E+06  1.154326E+05  3.177307E+05 -3.292120E+04 -1.718359E+05 -2.081495E+04
       197  27  1.703685E+06  1.301613E+05  2.436674E+05  1.439865E+04 -7.509844E+04 -1.909975E+04
       198   1  5.758814E+05 -9.755456E+04 -4.049286E+04 -1.686237E+04  6.377641E+04  1.571966E+04
       198   2  6.188513E+05 -1.211712E+05 -6.979790E+04 -4.956180E+03  4.240025E+04  1.484146E+04
       198   3  6.746325E+05 -1.059317E+05 -7.541262E+04 -2.987121E+04  2.102225E+04  1.286813E+04
       198   4  1.095547E+06  3.119445E+04  8.415945E+04 -2.535543E+04  6.365572E+04  1.571777E+04
       198   5  1.089115E+06 -4.689527E+03  4.279585E+04 -6.931953E+03  4.171043E+04  1.484010E+04
       198   6  1.095580E+06 -1.635467E+03  2.550305E+04 -2.532752E+04  1.976501E+04  1.286722E+04
       198   7  1.615459E+06  1.599241E+05  2.087927E+05 -3.385566E+04  6.353491E+04  1.571589E+04
       198   8  1.559581E+06  1.117761E+05  1.553740E+05 -8.909260E+03  4.102009E+04  1.483874E+04
       198   9  1.516690E+06  1.026480E+05  1.264062E+05 -2.078075E+04  1.850691E+04  1.286629E+04
       198  10  5.758770E+05 -9.755592E+04 -4.050096E+04 -1.686318E+04 -2.722831E-10  5.652119E-11
       198  11  6.188494E+05 -1.211719E+05 -6.980169E+04 -4.956687E+03  1.048573E-09  6.503435E-10
       198  12  6.746319E+05 -1.059320E+05 -7.541376E+04 -2.987143E+04 -1.280563E-09 -6.544843E-10
       198  13  1.095542E+06  3.119310E+04  8.415138E+04 -2.535623E+04 -1.312698E-09  2.431886E-11
       198  14  1.089113E+06 -4.690230E+03  4.279217E+04 -6.932451E+03  4.251929E-10 -3.775848E-10
       198  15  1.095580E+06 -1.635750E+03  2.550201E+04 -2.532773E+04  6.838762E-10 -2.748104E-10
       198  16  1.615454E+06  1.599228E+05  2.087846E+05 -3.385647E+04 -1.102224E-09  1.408100E-10
       198  17  1.559579E+06  1.117755E+05  1.553704E+05 -8.909750E+03 -3.517578E-10 -1.561944E-09
       198  18  1.516690E+06  1.026477E+05  1.264053E+05 -2.078094E+04  2.043577E-09  4.003359E-10
       198  19  5.758814E+05 -9.755456E+04 -4.049286E+04 -1.686237E+04 -6.377641E+04 -1.571966E+04
       198  20  6.188513E+05 -1.211712E+05 -6.979790E+04 -4.956180E+03 -4.240025E+04 -1.484146E+04
       198  21  6.746325E+05 -1.059317E+05 -7.541262E+04 -2.987121E+04 -2.102225E+04 -1.286813E+04
       198  22  1.095547E+06  3.119445E+04  8.415945E+04 -2.535543E+04 -6.365572E+04 -1.571777E+04
       198  23  1.089115E+06 -4.689527E+03  4.279585E+04 -6.931953E+03 -4.171043E+04 -1.484010E+04
       198  24  1.095580E+06 -1.635467E+03  2.550305E+04 -2.532752E+04 -1.976501E+04 -1.286722E+04
       198  25  1.615459E+06  1.599241E+05  2.087927E+05 -3.385566E+04 -6.353491E+04 -1.571589E+04
       198  26  1.559581E+06  1.117761E+05  1.553740E+05 -8.909260E+03 -4.102009E+04 -1.483874E+04
       198  27  1.516690E+06  1.026480E+05  1.264062E+05 -2.078075E+04 -1.850691E+04 -1.286629E+04
       199   1  7.372061E+05 -8.495126E+04 -6.513843E+04 -2.444278E+04  1.665789E+04  1.155838E+04
       199   2  7.838151E+05 -7.692272E+04 -6.292176E+04 -7.249853E+03  1.121211E+04  9.694014E+03
       199   3  8.322755E+05 -6.479841E+04 -5.611386E+04 -2.553441E+04  5.764637E+03  7.769965E+03
       199   4  1.093137E+06  3.183787E+03  1.996326E+04 -2.503759E+04  1.573903E+04  1.155769E+04
       199   5  1.092216E+06 -5.378522E+02  1.091825E+04 -7.299128E+03  1.026025E+04  9.693619E+03
       199   6  1.093147E+06 -1.594104E+02  6.485250E+03 -2.503701E+04  4.780189E+03  7.769872E+03
       199   7  1.449184E+06  9.130968E+04  1.050560E+05 -2.563276E+04  1.481964E+04  1.155701E+04
       199   8  1.400703E+06  7.584013E+04  8.475155E+04 -7.348429E+03  9.307922E+03  9.693224E+03
       199   9  1.354081E+06  6.447465E+04  6.907955E+04 -2.453938E+04  3.795330E+03  7.769778E+03
       199  10  7.372058E+05 -8.495148E+04 -6.513921E+04 -2.444293E+04 -6.245230E-10 -2.530547E-10
       199  11  7.838150E+05 -7.692286E+04 -6.292217E+04 -7.249941E+03  4.453727E-11 -1.992600E-10
       199  12  8.322755E+05 -6.479848E+04 -5.611404E+04 -2.553445E+04 -7.562691E-10 -3.310685E-10
       199  13  1.093137E+06  3.183577E+03  1.996254E+04 -2.503774E+04  1.192323E-09 -4.448768E-11
       199  14  1.092215E+06 -5.379813E+02  1.091788E+04 -7.299208E+03  1.981764E-10 -3.961526E-10
       199  15  1.093147E+06 -1.594814E+02  6.485094E+03 -2.503704E+04  2.732405E-10 -1.762668E-10
       199  16  1.449183E+06  9.130948E+04  1.050554E+05 -2.563290E+04 -8.315499E-11  2.216384E-10
       199  17  1.400703E+06  7.584001E+04  8.475121E+04 -7.348501E+03 -7.525599E-10 -4.277659E-10
       199  18  1.354081E+06  6.447458E+04  6.907940E+04 -2.453941E+04  3.822387E-10  9.360711E-11
       199  19  7.372061E+05 -8.495126E+04 -6.513843E+04 -2.444278E+04 -1.665789E+04 -1.155838E+04
       199  20  7.838151E+05 -7.692272E+04 -6.292176E+04 -7.249853E+03 -1.121211E+04 -9.694014E+03
       199  21  8.322755E+05 -6.479841E+04 -5.611386E+04 -2.553441E+04 -5.764637E+03 -7.769965E+03
       199  22  1.093137E+06  3.183787E+03  1.996326E+04 -2.503759E+04 -1.573903E+04 -1.155769E+04
       199  23  1.092216E+06 -5.378522E+02  1.091825E+04 -7.299128E+03 -1.026025E+04 -9.693619E+03
       199  24  1.093147E+06 -1.594104E+02  6.485250E+03 -2.503701E+04 -4.780189E+03 -7.769872E+03
       199  25  1.449184E+06  9.130968E+04  1.050560E+05 -2.563276E+04 -1.481964E+04 -1.155701E+04
       199  26  1.400703E+06  7.584013E+04  8.475155E+04 -7.348429E+03 -9.307922E+03 -9.693224E+03
       199  27  1.354081E+06  6.447465E+04  6.907955E+04 -2.453938E+04 -3.795330E+03 -7.769778E+03
       200   1  8.950378E+05 -4.864121E+04 -4.213916E+04 -2.482454E+04  4.697458E+03  6.646701E+03
       200   2  9.413447E+05 -3.753860E+04 -3.311505E+04 -7.518435E+03  3.148691E+03  4.753455E+03
       200   3  9.879750E+05 -2.597264E+04 -2.296727E+04 -2.488759E+04  1.599204E+03  2.866221E+03
       200   4  1.092815E+06  3.126821E+02  5.069609E+03 -2.485898E+04  3.741289E+03  6.646751E+03
       200   5  1.092656E+06 -6.515018E+01  3.110332E+03 -7.521656E+03  2.195085E+03  4.753641E+03
       200   6  1.092818E+06  1.995135E+01  2.272780E+03 -2.485907E+04  6.482754E+02  2.866551E+03
       200   7  1.290627E+06  4.926375E+04  5.227563E+04 -2.489343E+04  2.784817E+03  6.646800E+03
       200   8  1.243989E+06  3.740664E+04  3.933410E+04 -7.524875E+03  1.241247E+03  4.753827E+03
       200   9  1.197672E+06  2.601174E+04  2.751205E+04 -2.483053E+04 -3.028134E+02  2.866880E+03
       200  10  8.950378E+05 -4.864127E+04 -4.213928E+04 -2.482456E+04 -2.302333E-10 -2.144419E-10
       200  11  9.413447E+05 -3.753863E+04 -3.311511E+04 -7.518447E+03 -2.957645E-11  6.008319E-10
       200  12  9.879750E+05 -2.597265E+04 -2.296729E+04 -2.488760E+04 -9.424309E-10  2.875509E-10
       200  13  1.092815E+06  3.126309E+02  5.069500E+03 -2.485900E+04 -4.515718E-10  2.161647E-10
       200  14  1.092656E+06 -6.517575E+01  3.110280E+03 -7.521664E+03 -8.478157E-10 -1.084468E-11
       200  15  1.092818E+06  1.994241E+01  2.272763E+03 -2.485907E+04  6.978447E-11 -1.521092E-10
       200  16  1.290627E+06  4.926370E+04  5.227553E+04 -2.489345E+04  6.594850E-10  1.968960E-10
       200  17  1.243989E+06  3.740662E+04  3.933406E+04 -7.524880E+03 -1.524400E-09  2.943620E-11
       200  18  1.197672E+06  2.601173E+04  2.751203E+04 -2.483053E+04  1.594791E-09 -3.808116E-10
       200  19  8.950378E+05 -4.864121E+04 -4.213916E+04 -2.482454E+04 -4.697458E+03 -6.646701E+03
       200  20  9.413447E+05 -3.753860E+04 -3.311505E+04 -7.518435E+03 -3.148691E+03 -4.753455E+03
       200  21  9.879750E+05 -2.597264E+04 -2.296727E+04 -2.488759E+04 -1.599204E+03 -2.866221E+03
       200  22  1.092815E+06  3.126821E+02  5.069609E+03 -2.485898E+04 -3.741289E+03 -6.646751E+03
       200  23  1.092656E+06 -6.515018E+01  3.110332E+03 -7.521656E+03 -2.195085E+03 -4.753641E+03
       200  24  1.092818E+06  1.995135E+01  2.272780E+03 -2.485907E+04 -6.482754E+02 -2.866551E+03
       200  25  1.290627E+06  4.926375E+04  5.227563E+04 -2.489343E+04 -2.784817E+03 -6.646800E+03
       200  26  1.243989E+06  3.740664E+04  3.933410E+04 -7.524875E+03 -1.241247E+03 -4.753827E+03
       200  27  1.197672E+06  2.601174E+04  2.751205E+04 -2.483053E+04  3.028134E+02 -2.866880E+03
       201   1  1.050102E+06 -1.050900E+04 -7.960452E+03 -2.476617E+04  1.200076E+03  1.770565E+03
       201   2  1.096132E+06  8.142024E+02  3.105286E+03 -7.587963E+03  6.369399E+01 -1.081243E+02
       201   3  1.142359E+06  1.244975E+04  1.498073E+04 -2.482725E+04 -1.072740E+03 -1.982620E+03
       201   4  1.092793E+06  3.496081E+01  2.118573E+03 -2.480190E+04  2.507148E+02  1.770942E+03
       201   5  1.092696E+06 -3.678898E+01  2.282668E+03 -7.593116E+03 -8.835902E+02 -1.077555E+02
       201   6  1.092793E+06  2.037663E+02  3.255339E+03 -2.480183E+04 -2.017864E+03 -1.982251E+03
       201   7  1.135486E+06  1.057879E+04  1.219748E+04 -2.483763E+04 -6.987109E+02  1.771318E+03
       201   8  1.089259E+06 -8.877808E+02  1.460053E+03 -7.598269E+03 -1.830869E+03 -1.073868E+02
       201   9  1.043229E+06 -1.204239E+04 -8.470220E+03 -2.477642E+04 -2.962913E+03 -1.981883E+03
       201  10  1.050102E+06 -1.050901E+04 -7.960461E+03 -2.476617E+04 -3.651113E-10 -2.298902E-10
       201  11  1.096132E+06  8.142024E+02  3.105286E+03 -7.587963E+03 -2.206880E-10 -2.076412E-10
       201  12  1.142359E+06  1.244974E+04  1.498072E+04 -2.482725E+04 -6.154613E-10  2.374610E-10
       201  13  1.092793E+06  3.495742E+01  2.118567E+03 -2.480190E+04  5.867243E-10  2.342126E-10
       201  14  1.092696E+06 -3.678921E+01  2.282667E+03 -7.593116E+03 -3.040477E-09  3.984514E-10
       201  15  1.092793E+06  2.037610E+02  3.255324E+03 -2.480183E+04 -3.606721E-09 -3.538903E-10
       201  16  1.135486E+06  1.057879E+04  1.219747E+04 -2.483763E+04  6.296107E-10 -1.504746E-10
       201  17  1.089259E+06 -8.877817E+02  1.460047E+03 -7.598269E+03 -2.059974E-09  1.628471E-10
       201  18  1.043229E+06 -1.204240E+04 -8.470244E+03 -2.477642E+04 -1.041256E-09 -1.069455E-10
       201  19  1.050102E+06 -1.050900E+04 -7.960452E+03 -2.476617E+04 -1.200076E+03 -1.770565E+03
       201  20  1.096132E+06  8.142024E+02  3.105286E+03 -7.587963E+03 -6.369399E+01  1.081243E+02
       201  21  1.142359E+06  1.244975E+04  1.498073E+04 -2.482725E+04  1.072740E+03  1.982620E+03
       201  22  1.092793E+06  3.496081E+01  2.118573E+03 -2.480190E+04 -2.507148E+02 -1.770942E+03
       201  23  1.092696E+06 -3.678898E+01  2.282668E+03 -7.593116E+03  8.835902E+02  1.077555E+02
       201  24  1.092793E+06  2.037663E+02  3.255339E+03 -2.480183E+04  2.017864E+03  1.982251E+03
       201  25  1.135486E+06  1.057879E+04  1.219748E+04 -2.483763E+04  6.987109E+02 -1.771318E+03
       201  26  1.089259E+06 -8.877808E+02  1.460053E+03 -7.598269E+03  1.830869E+03  1.073868E+02
       201  27  1.043229E+06 -1.204239E+04 -8.470220E+03 -2.477642E+04  2.962913E+03  1.981883E+03
       202   1  1.204729E+06  2.762259E+04  3.091989E+04 -2.459026E+04 -1.708065E+03 -3.086279E+03
       202   2  1.250712E+06  3.887934E+04  4.445955E+04 -7.590870E+03 -5.036653E+03 -4.972258E+03
       202   3  1.297749E+06  5.258630E+04  6.077649E+04 -2.528566E+04 -8.364906E+03 -6.805233E+03
       202   4  1.092980E+06 -7.616832E+01  4.031286E+03 -2.486362E+04 -2.673565E+03 -3.085954E+03
       202   5  1.092453E+06 -3.073224E+02  6.578622E+03 -7.516048E+03 -5.974679E+03 -4.972094E+03
       202   6  1.092974E+06  1.907390E+03  1.188476E+04 -2.486317E+04 -9.275212E+03 -6.805220E+03
       202   7  9.812415E+05 -2.777584E+04 -2.285820E+04 -2.513693E+04 -3.638893E+03 -3.085628E+03
       202   8  9.342167E+05 -3.949579E+04 -3.130407E+04 -7.441243E+03 -6.912467E+03 -4.971931E+03
       202   9  8.882365E+05 -4.877455E+04 -3.700992E+04 -2.444082E+04 -1.018522E+04 -6.805208E+03
       202  10  1.204729E+06  2.762258E+04  3.091987E+04 -2.459026E+04 -8.176875E-10  7.441540E-10
       202  11  1.250712E+06  3.887930E+04  4.445945E+04 -7.590890E+03 -1.837523E-09 -2.078196E-12
       202  12  1.297749E+06  5.258623E+04  6.077627E+04 -2.528571E+04 -8.277393E-10 -3.761085E-10
       202  13  1.092980E+06 -7.618047E+01  4.031255E+03 -2.486363E+04 -2.925410E-09 -6.799321E-11
       202  14  1.092453E+06 -3.073585E+02  6.578508E+03 -7.516072E+03 -9.939257E-10 -2.468673E-10
       202  15  1.092974E+06  1.907317E+03  1.188451E+04 -2.486322E+04  5.405675E-10 -1.738338E-10
       202  16  9.812415E+05 -2.777585E+04 -2.285825E+04 -2.513694E+04 -2.855167E-10  3.717949E-10
       202  17  9.342167E+05 -3.949583E+04 -3.130421E+04 -7.441271E+03 -1.586740E-10 -5.886503E-10
       202  18  8.882364E+05 -4.877463E+04 -3.701020E+04 -2.444088E+04  2.516892E-11 -1.225906E-10
       202  19  1.204729E+06  2.762259E+04  3.091989E+04 -2.459026E+04  1.708065E+03  3.086279E+03
       202  20  1.250712E+06  3.887934E+04  4.445955E+04 -7.590870E+03  5.036653E+03  4.972258E+03
       202  21  1.297749E+06  5.258630E+04  6.077649E+04 -2.528566E+04  8.364906E+03  6.805233E+03
       202  22  1.092980E+06 -7.616832E+01  4.031286E+03 -2.486362E+04  2.673565E+03  3.085954E+03
       202  23  1.092453E+06 -3.073224E+02  6.578622E+03 -7.516048E+03  5.974679E+03  4.972094E+03
       202  24  1.092974E+06  1.907390E+03  1.188476E+04 -2.486317E+04  9.275212E+03  6.805220E+03
       202  25  9.812415E+05 -2.777584E+04 -2.285820E+04 -2.513693E+04  3.638893E+03  3.085628E+03
       202  26  9.342167E+05 -3.949579E+04 -3.130407E+04 -7.441243E+03  6.912467E+03  4.971931E+03
       202  27  8.882365E+05 -4.877455E+04 -3.700992E+04 -2.444082E+04  1.018522E+04  6.805208E+03
       203   1  1.362383E+06  6.542345E+04  7.940911E+04 -2.244321E+04 -1.049834E+04 -8.041918E+03
       203   2  1.406177E+06  7.536076E+04  1.008908E+05 -8.582184E+03 -2.394665E+04 -9.941707E+03
       203   3  1.457626E+06  1.084435E+05  1.369247E+05 -3.022481E+04 -3.739513E+04 -1.098890E+04
       203   4  1.094419E+06 -9.468371E+02  1.515009E+04 -2.504236E+04 -1.166941E+04 -8.041983E+03
       203   5  1.090618E+06 -2.765963E+03  2.537387E+04 -7.292210E+03 -2.468141E+04 -9.942166E+03
       203   6  1.094398E+06  1.849159E+04  4.985316E+04 -2.504654E+04 -3.769256E+04 -1.098972E+04
       203   7  8.265215E+05 -6.732230E+04 -4.911400E+04 -2.764039E+04 -1.283997E+04 -8.042039E+03
       203   8  7.751502E+05 -8.089988E+04 -5.015004E+04 -6.002895E+03 -2.541580E+04 -9.942627E+03
       203   9  7.312914E+05 -7.146978E+04 -3.722768E+04 -1.987131E+04 -3.798981E+04 -1.099055E+04
       203  10  1.362382E+06  6.542335E+04  7.940879E+04 -2.244328E+04  5.842299E-10 -5.595614E-10
       203  11  1.406176E+06  7.536050E+04  1.008895E+05 -8.582375E+03 -1.707751E-09 -2.761647E-10
       203  12  1.457624E+06  1.084430E+05  1.369218E+05 -3.022514E+04 -4.418193E-10 -2.536733E-10
       203  13  1.094419E+06 -9.469431E+02  1.514972E+04 -2.504244E+04  5.344225E-11 -2.863807E-10
       203  14  1.090617E+06 -2.766232E+03  2.537255E+04 -7.292407E+03  1.608512E-10 -2.084012E-10
       203  15  1.094397E+06  1.849108E+04  4.985027E+04 -2.504687E+04  1.358350E-09  1.438236E-10
       203  16  8.265213E+05 -6.732242E+04 -4.911443E+04 -2.764047E+04 -1.201587E-10 -3.565965E-10
       203  17  7.751495E+05 -8.090016E+04 -5.015143E+04 -6.003098E+03  9.532431E-11 -1.836870E-10
       203  18  7.312898E+05 -7.147029E+04 -3.723062E+04 -1.987165E+04  3.256032E-11  9.006998E-10
       203  19  1.362383E+06  6.542345E+04  7.940911E+04 -2.244321E+04  1.049834E+04  8.041918E+03
       203  20  1.406177E+06  7.536076E+04  1.008908E+05 -8.582184E+03  2.394665E+04  9.941707E+03
       203  21  1.457626E+06  1.084435E+05  1.369247E+05 -3.022481E+04  3.739513E+04  1.098890E+04
       203  22  1.094419E+06 -9.468371E+02  1.515009E+04 -2.504236E+04  1.166941E+04  8.041983E+03
       203  23  1.090618E+06 -2.765963E+03  2.537387E+04 -7.292210E+03  2.468141E+04  9.942166E+03
       203  24  1.094398E+06  1.849159E+04  4.985316E+04 -2.504654E+04  3.769256E+04  1.098972E+04
       203  25  8.265215E+05 -6.732230E+04 -4.911400E+04 -2.764039E+04  1.283997E+04  8.042039E+03
       203  26  7.751502E+05 -8.089988E+04 -5.015004E+04 -6.002895E+03  2.541580E+04  9.942627E+03
       203  27  7.312914E+05 -7.146978E+04 -3.722768E+04 -1.987131E+04  3.798981E+04  1.099055E+04
       204   1  1.534840E+06  9.694399E+04  1.635253E+05 -1.735838E+03 -4.343996E+04 -1.380999E+04
       204   2  1.553143E+06  9.286485E+04  2.117939E+05 -2.282454E+04 -1.021109E+05 -1.543952E+04
       204   3  1.634060E+06  3.076197E+05  3.529674E+05 -8.067721E+04 -1.607961E+05 -5.322171E+03
       204   4  1.106416E+06 -9.123783E+03  6.110167E+04 -2.527575E+04 -4.719196E+04 -1.381053E+04
       204   5  1.075552E+06 -2.532047E+04  9.762626E+04 -6.978013E+03 -9.989847E+04 -1.544136E+04
       204   6  1.106313E+06  1.763683E+05  2.229693E+05 -2.544144E+04 -1.526140E+05 -5.328749E+03
       204   7  6.781620E+05 -1.152028E+05 -4.133455E+04 -4.879940E+04 -5.094138E+04 -1.381080E+04
       204   8  5.981694E+05 -1.435213E+05 -1.655727E+04  8.856262E+03 -9.768768E+04 -1.544309E+04
       204   9  5.788255E+05  4.510785E+04  9.295258E+04  2.974736E+04 -1.444387E+05 -5.333882E+03
       204  10  1.534838E+06  9.694328E+04  1.635214E+05 -1.736320E+03  9.405281E-10 -2.501560E-10
       204  11  1.553132E+06  9.286180E+04  2.117739E+05 -2.282581E+04 -1.896895E-09  2.685422E-10
       204  12  1.634032E+06  3.076127E+05  3.529189E+05 -8.067790E+04 -5.503760E-10  5.786148E-10
       204  13  1.106414E+06 -9.124584E+03  6.109714E+04 -2.527627E+04 -1.718479E-09 -5.692867E-10
       204  14  1.075541E+06 -2.532340E+04  9.760710E+04 -6.979255E+03 -1.178911E-09  2.168088E-10
       204  15  1.106288E+06  1.763621E+05  2.229256E+05 -2.544210E+04  1.606929E-09 -4.407936E-10
       204  16  6.781591E+05 -1.152037E+05 -4.133978E+04 -4.879996E+04  1.158016E-10  6.695259E-10
       204  17  5.981591E+05 -1.435241E+05 -1.657563E+04  8.855047E+03 -9.241486E-10 -5.703866E-10
       204  18  5.788032E+05  4.510222E+04  9.291335E+04  2.974674E+04 -5.563395E-10  6.814164E-10
       204  19  1.534840E+06  9.694399E+04  1.635253E+05 -1.735838E+03  4.343996E+04  1.380999E+04
       204  20  1.553143E+06  9.286485E+04  2.117939E+05 -2.282454E+04  1.021109E+05  1.543952E+04
       204  21  1.634060E+06  3.076197E+05  3.529674E+05 -8.067721E+04  1.607961E+05  5.322171E+03
       204  22  1.106416E+06 -9.123783E+03  6.110167E+04 -2.527575E+04  4.719196E+04  1.381053E+04
       204  23  1.075552E+06 -2.532047E+04  9.762626E+04 -6.978013E+03  9.989847E+04  1.544136E+04
       204  24  1.106313E+06  1.763683E+05  2.229693E+05 -2.544144E+04  1.526140E+05  5.328749E+03
       204  25  6.781620E+05 -1.152028E+05 -4.133455E+04 -4.879940E+04  5.094138E+04  1.381080E+04
       204  26  5.981694E+05 -1.435213E+05 -1.655727E+04  8.856262E+03  9.768768E+04  1.544309E+04
       204  27  5.788255E+05  4.510785E+04  9.295258E+04  2.974736E+04  1.444387E+05  5.333882E+03
       205   1  5.834476E+05  1.719595E+06  5.664516E+05 -6.121777E+05  2.115969E+04  1.861197E+05
       205   2  3.885491E+05  1.205999E+06  3.443312E+05 -5.361974E+05  6.520412E+04  7.229702E+04
       205   3  2.512620E+05  7.214636E+05  2.105492E+05 -5.575729E+05  6.122061E+04 -4.152567E+04
       205   4  8.089444E+04 -3.123918E+05  8.565388E+04 -5.567899E+05  2.157480E+04  5.742319E+04
       205   5  2.354861E+04 -3.186834E+05  4.412590E+04 -5.082278E+05  6.534240E+04  3.493936E+04
       205   6  8.075045E+03 -3.119059E+05  2.766575E+04 -5.570137E+05  6.103766E+04  1.235992E+04
       205   7 -4.219353E+05 -2.340548E+06 -3.953669E+05 -5.015796E+05  2.196782E+04 -7.085544E+04
       205   8 -3.415893E+05 -1.841137E+06 -2.561871E+05 -4.803256E+05  6.547753E+04 -2.328712E+03
       205   9 -2.351690E+05 -1.344226E+06 -1.552463E+05 -5.564542E+05  6.085462E+04  6.615849E+04
       205  10  5.834378E+05  1.719557E+06  5.663858E+05 -6.121809E+05 -9.745348E-11  3.492427E-10
       205  11  3.885431E+05  1.205992E+06  3.443133E+05 -5.362012E+05 -2.593617E-09 -4.460172E-09
       205  12  2.512575E+05  7.214607E+05  2.105389E+05 -5.575709E+05 -5.237312E-10 -3.183018E-09
       205  13  8.089305E+04 -3.123955E+05  8.564680E+04 -5.567909E+05  4.587599E-10  2.468929E-09
       205  14  2.354369E+04 -3.186859E+05  4.411557E+04 -5.082296E+05 -2.353589E-10  1.147203E-09
       205  15  8.071003E+03 -3.119071E+05  2.765846E+04 -5.570143E+05 -4.412097E-10  1.724931E-09
       205  16 -4.219372E+05 -2.340554E+06 -3.953773E+05 -5.015783E+05  1.012976E-09  4.194535E-10
       205  17 -3.415939E+05 -1.841138E+06 -2.561952E+05 -4.803255E+05  3.120644E-09  4.612827E-09
       205  18 -2.351741E+05 -1.344232E+06 -1.552615E+05 -5.564574E+05 -1.219952E-09  1.967115E-09
       205  19  5.834476E+05  1.719595E+06  5.664516E+05 -6.121777E+05 -2.115969E+04 -1.861197E+05
       205  20  3.885491E+05  1.205999E+06  3.443312E+05 -5.361974E+05 -6.520412E+04 -7.229702E+04
       205  21  2.512620E+05  7.214636E+05  2.105492E+05 -5.575729E+05 -6.122061E+04  4.152567E+04
       205  22  8.089444E+04 -3.123918E+05  8.565388E+04 -5.567899E+05 -2.157480E+04 -5.742319E+04
       205  23  2.354861E+04 -3.186834E+05  4.412590E+04 -5.082278E+05 -6.534240E+04 -3.493936E+04
       205  24  8.075045E+03 -3.119059E+05  2.766575E+04 -5.570137E+05 -6.103766E+04 -1.235992E+04
       205  25 -4.219353E+05 -2.340548E+06 -3.953669E+05 -5.015796E+05 -2.196782E+04  7.085544E+04
       205  26 -3.415893E+05 -1.841137E+06 -2.561871E+05 -4.803256E+05 -6.547753E+04  2.328712E+03
       205  27 -2.351690E+05 -1.344226E+06 -1.552463E+05 -5.564542E+05 -6.085462E+04 -6.615849E+04
       206   1  1.755029E+05  3.982636E+05  1.488967E+05 -5.622033E+05  4.308242E+04 -4.306799E+04
       206   2  5.494617E+04 -1.018285E+05  5.568098E+04 -5.077921E+05  1.552383E+04 -5.560266E+04
       206   3 -5.873348E+04 -5.989634E+05 -2.784700E+04 -5.538326E+05 -1.302034E+04 -6.813467E+04
       206   4  7.973914E+03 -3.141737E+05  2.378076E+04 -5.576841E+05  4.289906E+04  8.344135E+03
       206   5  5.339978E+03 -3.153329E+05  2.120046E+04 -5.074567E+05  1.533033E+04 -2.334874E+03
       206   6  9.272813E+03 -3.141021E+05  2.701827E+04 -5.576802E+05 -1.322440E+04 -1.302064E+04
       206   7 -1.595813E+05 -1.026109E+06 -1.013436E+05 -5.531696E+05  4.271632E+04  5.969904E+04
       206   8 -4.426700E+04 -5.287859E+05 -1.327063E+04 -5.071214E+05  1.513685E+04  5.091523E+04
       206   9  7.727596E+04 -2.915624E+04  8.189121E+04 -5.615294E+05 -1.342909E+04  4.211813E+04
       206  10  1.755004E+05  3.982611E+05  1.488898E+05 -5.622018E+05 -9.359503E-10  1.430556E-08
       206  11  5.494508E+04 -1.018319E+05  5.567472E+04 -5.077914E+05  4.286255E-10 -2.342732E-08
       206  12 -5.873491E+04 -5.989684E+05 -2.785605E+04 -5.538333E+05  2.470527E-09 -5.098646E-08
       206  13  7.971919E+03 -3.141743E+05  2.377717E+04 -5.576844E+05  4.876015E-11  3.081687E-09
       206  14  5.339725E+03 -3.153329E+05  2.120001E+04 -5.074567E+05 -1.951455E-09  1.521190E-09
       206  15  9.272580E+03 -3.141024E+05  2.701762E+04 -5.576803E+05  6.454613E-10  1.639038E-09
       206  16 -1.595842E+05 -1.026113E+06 -1.013538E+05 -5.531716E+05 -8.749764E-10 -1.352694E-08
       206  17 -4.426794E+04 -5.287887E+05 -1.327594E+04 -5.071220E+05  4.236043E-10  2.292666E-08
       206  18  7.727529E+04 -2.915819E+04  8.188754E+04 -5.615289E+05  1.775682E-09  5.002785E-08
       206  19  1.755029E+05  3.982636E+05  1.488967E+05 -5.622033E+05 -4.308242E+04  4.306799E+04
       206  20  5.494617E+04 -1.018285E+05  5.568098E+04 -5.077921E+05 -1.552383E+04  5.560266E+04
       206  21 -5.873348E+04 -5.989634E+05 -2.784700E+04 -5.538326E+05  1.302034E+04  6.813467E+04
       206  22  7.973914E+03 -3.141737E+05  2.378076E+04 -5.576841E+05 -4.289906E+04 -8.344135E+03
       206  23  5.339978E+03 -3.153329E+05  2.120046E+04 -5.074567E+05 -1.533033E+04  2.334874E+03
       206  24  9.272813E+03 -3.141021E+05  2.701827E+04 -5.576802E+05  1.322440E+04  1.302064E+04
       206  25 -1.595813E+05 -1.026109E+06 -1.013436E+05 -5.531696E+05 -4.271632E+04 -5.969904E+04
       206  26 -4.426700E+04 -5.287859E+05 -1.327063E+04 -5.071214E+05 -1.513685E+04 -5.091523E+04
       206  27  7.727596E+04 -2.915624E+04  8.189121E+04 -5.615294E+05  1.342909E+04 -4.211813E+04
       207   1 -1.338795E+05 -9.159796E+05 -7.885278E+04 -5.582655E+05 -3.189186E+04 -7.460224E+04
       207   2 -2.346324E+05 -1.416154E+06 -1.665515E+05 -4.745819E+05 -4.289303E+04 -2.977223E+04
       207   3 -2.953924E+05 -1.912389E+06 -2.736066E+05 -4.889842E+05 -1.534646E+04  1.510912E+04
       207   4  9.502173E+03 -3.110545E+05  3.276796E+04 -5.571733E+05 -3.209891E+04 -1.762365E+04
       207   5  2.948238E+04 -3.193999E+05  5.488397E+04 -5.080021E+05 -4.283017E+04 -4.578336E+04
       207   6  1.021003E+05 -3.113986E+05  1.083555E+05 -5.568782E+05 -1.505001E+04 -7.385614E+04
       207   7  1.528647E+05  2.942329E+05  1.443857E+05 -5.560796E+05 -3.230562E+04  3.940909E+04
       207   8  2.935265E+05  7.785055E+05  2.762589E+05 -5.414811E+05 -4.276565E+04 -6.182224E+04
       207   9  4.994283E+05  1.291974E+06  4.901693E+05 -6.249458E+05 -1.473452E+04 -1.630501E+05
       207  10 -1.338821E+05 -9.159859E+05 -7.886518E+04 -5.582674E+05  2.448733E-09  5.079635E-08
       207  11 -2.346346E+05 -1.416156E+06 -1.665566E+05 -4.745829E+05  1.965571E-09  1.752295E-08
       207  12 -2.953927E+05 -1.912389E+06 -2.736075E+05 -4.889840E+05  5.706341E-10 -1.198728E-08
       207  13  9.500983E+03 -3.110551E+05  3.276543E+04 -5.571738E+05  2.250581E-09  2.973262E-09
       207  14  2.947985E+04 -3.194027E+05  5.487657E+04 -5.080036E+05 -2.214245E-09  1.187455E-09
       207  15  1.020986E+05 -3.114045E+05  1.083448E+05 -5.568791E+05  1.239352E-09  1.968532E-09
       207  16  1.528632E+05  2.942309E+05  1.443809E+05 -5.560786E+05  6.258487E-10 -4.982884E-08
       207  17  2.935235E+05  7.785009E+05  2.762483E+05 -5.414833E+05  2.910023E-09 -1.805335E-08
       207  18  4.994209E+05  1.291946E+06  4.901191E+05 -6.249477E+05  1.250049E-09  1.118270E-08
       207  19 -1.338795E+05 -9.159796E+05 -7.885278E+04 -5.582655E+05  3.189186E+04  7.460224E+04
       207  20 -2.346324E+05 -1.416154E+06 -1.665515E+05 -4.745819E+05  4.289303E+04  2.977223E+04
       207  21 -2.953924E+05 -1.912389E+06 -2.736066E+05 -4.889842E+05  1.534646E+04 -1.510912E+04
       207  22  9.502173E+03 -3.110545E+05  3.276796E+04 -5.571733E+05  3.209891E+04  1.762365E+04
       207  23  2.948238E+04 -3.193999E+05  5.488397E+04 -5.080021E+05  4.283017E+04  4.578336E+04
       207  24  1.021003E+05 -3.113986E+05  1.083555E+05 -5.568782E+05  1.505001E+04  7.385614E+04
       207  25  1.528647E+05  2.942329E+05  1.443857E+05 -5.560796E+05  3.230562E+04 -3.940909E+04
       207  26  2.935265E+05  7.785055E+05  2.762589E+05 -5.414811E+05  4.276565E+04  6.182224E+04
       207  27  4.994283E+05  1.291974E+06  4.901693E+05 -6.249458E+05  1.473452E+04  1.630501E+05
       208   1 -2.453220E+06 -9.503593E+05 -5.003049E+05 -9.248299E+05 -1.809749E+05 -3.722633E+04
       208   2 -2.298417E+06 -8.394974E+05 -3.567991E+05 -8.714700E+05 -1.157338E+05  5.955206E+04
       208   3 -2.142863E+06 -7.798101E+05 -2.871009E+05 -8.404233E+05 -3.287211E+04  1.097527E+05
       208   4 -6.225127E+05 -2.481580E+05 -2.724055E+04 -4.084605E+05 -2.795640E+04  2.043743E+04
       208   5 -6.295249E+05 -2.203486E+05 -1.280290E+04 -4.011840E+05 -4.506915E+04  8.613441E+04
       208   6 -6.193965E+05 -2.273130E+05 -6.682903E+03 -4.162368E+05 -4.461473E+04  1.053048E+05
       208   7  1.211465E+06  4.542952E+05  4.456299E+05  1.093031E+05  1.255534E+05  7.829520E+04
       208   8  1.042234E+06  3.990542E+05  3.310660E+05  7.027839E+04  2.580005E+04  1.127957E+05
       208   9  9.065336E+05  3.254098E+05  2.736557E+05  8.927426E+03 -5.638844E+04  1.008454E+05
       208  10 -2.453255E+06 -9.503696E+05 -5.003693E+05 -9.248354E+05 -5.193044E-08 -2.018678E-08
       208  11 -2.298432E+06 -8.395048E+05 -3.568310E+05 -8.714644E+05 -3.062023E-09 -2.906377E-09
       208  12 -2.142867E+06 -7.798233E+05 -2.871256E+05 -8.404204E+05  5.117656E-08  1.971544E-08
       208  13 -6.225136E+05 -2.481586E+05 -2.724280E+04 -4.084601E+05 -1.992812E-09 -1.360857E-09
       208  14 -6.295291E+05 -2.203571E+05 -1.282065E+04 -4.011809E+05 -1.199068E-09 -2.300520E-09
       208  15 -6.194016E+05 -2.273254E+05 -6.707472E+03 -4.162330E+05 -2.812273E-09 -4.279356E-10
       208  16  1.211446E+06  4.542844E+05  4.455888E+05  1.092952E+05  4.969768E-08  1.888927E-08
       208  17  1.042230E+06  3.990404E+05  3.310409E+05  7.027605E+04 -2.416709E-09 -3.402621E-09
       208  18  9.065275E+05  3.253980E+05  2.736307E+05  8.932003E+03 -5.527195E-08 -2.021336E-08
       208  19 -2.453220E+06 -9.503593E+05 -5.003049E+05 -9.248299E+05  1.809749E+05  3.722633E+04
       208  20 -2.298417E+06 -8.394974E+05 -3.567991E+05 -8.714700E+05  1.157338E+05 -5.955206E+04
       208  21 -2.142863E+06 -7.798101E+05 -2.871009E+05 -8.404233E+05  3.287211E+04 -1.097527E+05
       208  22 -6.225127E+05 -2.481580E+05 -2.724055E+04 -4.084605E+05  2.795640E+04 -2.043743E+04
       208  23 -6.295249E+05 -2.203486E+05 -1.280290E+04 -4.011840E+05  4.506915E+04 -8.613441E+04
       208  24 -6.193965E+05 -2.273130E+05 -6.682903E+03 -4.162368E+05  4.461473E+04 -1.053048E+05
       208  25  1.211465E+06  4.542952E+05  4.456299E+05  1.093031E+05 -1.255534E+05 -7.829520E+04
       208  26  1.042234E+06  3.990542E+05  3.310660E+05  7.027839E+04 -2.580005E+04 -1.127957E+05
       208  27  9.065336E+05  3.254098E+05  2.736557E+05  8.927426E+03  5.638844E+04 -1.008454E+05
       209   1 -2.036305E+06 -7.427954E+05 -2.629431E+05 -8.129324E+05 -3.534613E+04  1.033134E+05
       209   2 -1.890042E+06 -6.702098E+05 -2.244738E+05 -7.549441E+05 -2.422095E+04  1.007371E+05
       209   3 -1.720776E+06 -6.245038E+05 -1.931315E+05 -7.249872E+05 -1.149950E+04  9.389515E+04
       209   4 -6.180646E+05 -2.277934E+05 -5.028337E+03 -4.165077E+05 -4.204999E+04  1.007655E+05
       209   5 -6.301323E+05 -2.144042E+05 -2.667558E+03 -4.027212E+05 -3.846872E+04  9.536044E+04
       209   6 -6.177247E+05 -2.263930E+05 -1.440221E+03 -4.169713E+05 -3.329543E+04  8.569383E+04
       209   7  8.022952E+05  2.874010E+05  2.528149E+05 -1.923622E+04 -4.877027E+04  9.821143E+04
       209   8  6.314535E+05  2.415538E+05  2.190878E+05 -4.983046E+04 -5.274732E+04  8.997223E+04
       209   9  4.866078E+05  1.718327E+05  1.902136E+05 -1.084457E+05 -5.513246E+04  7.747711E+04
       209  10 -2.036309E+06 -7.428072E+05 -2.629655E+05 -8.129294E+05  2.360447E-09  2.642255E-09
       209  11 -1.890046E+06 -6.702209E+05 -2.244940E+05 -7.549422E+05  3.188992E-09  2.133708E-09
       209  12 -1.720779E+06 -6.245133E+05 -1.931484E+05 -7.249863E+05  1.754138E-09  1.195024E-09
       209  13 -6.180692E+05 -2.278048E+05 -5.050731E+03 -4.165043E+05 -6.231411E-10  2.206449E-10
       209  14 -6.301363E+05 -2.144144E+05 -2.687420E+03 -4.027182E+05  5.507737E-10  3.508361E-10
       209  15 -6.177278E+05 -2.264012E+05 -1.456098E+03 -4.169690E+05 -4.523931E-10  1.205539E-09
       209  16  8.022900E+05  2.873900E+05  2.527923E+05 -1.923236E+04 -3.627559E-09  1.135797E-10
       209  17  6.314484E+05  2.415443E+05  2.190673E+05 -4.982664E+04 -3.198051E-09  1.969571E-10
       209  18  4.866029E+05  1.718255E+05  1.901966E+05 -1.084423E+05 -1.823764E-09  1.141433E-09
       209  19 -2.036305E+06 -7.427954E+05 -2.629431E+05 -8.129324E+05  3.534613E+04 -1.033134E+05
       209  20 -1.890042E+06 -6.702098E+05 -2.244738E+05 -7.549441E+05  2.422095E+04 -1.007371E+05
       209  21 -1.720776E+06 -6.245038E+05 -1.931315E+05 -7.249872E+05  1.149950E+04 -9.389515E+04
       209  22 -6.180646E+05 -2.277934E+05 -5.028337E+03 -4.165077E+05  4.204999E+04 -1.007655E+05
       209  23 -6.301323E+05 -2.144042E+05 -2.667558E+03 -4.027212E+05  3.846872E+04 -9.536044E+04
       209  24 -6.177247E+05 -2.263930E+05 -1.440221E+03 -4.169713E+05  3.329543E+04 -8.569383E+04
       209  25  8.022952E+05  2.874010E+05  2.528149E+05 -1.923622E+04  4.877027E+04 -9.821143E+04
       209  26  6.314535E+05  2.415538E+05  2.190878E+05 -4.983046E+04  5.274732E+04 -8.997223E+04
       209  27  4.866078E+05  1.718327E+05  1.902136E+05 -1.084457E+05  5.513246E+04 -7.747711E+04
       210   1 -1.618349E+06 -5.874267E+05 -1.740389E+05 -6.965694E+05 -9.016224E+03  8.654806E+04
       210   2 -1.472475E+06 -5.175354E+05 -1.458901E+05 -6.380501E+05 -3.392388E+03  7.467346E+04
       210   3 -1.301708E+06 -4.727637E+05 -1.185122E+05 -6.080615E+05  2.372395E+03  6.239956E+04
       210   4 -6.175836E+05 -2.263997E+05 -1.093282E+03 -4.170309E+05 -3.037002E+04  7.851869E+04
       210   5 -6.300164E+05 -2.137726E+05 -6.238830E+02 -4.027911E+05 -2.545334E+04  6.638676E+04
       210   6 -6.174479E+05 -2.261271E+05 -3.684818E+02 -4.170907E+05 -2.039612E+04  5.385577E+04
       210   7  3.842575E+05  1.347301E+05  1.718281E+05 -1.370670E+05 -5.176074E+04  7.047547E+04
       210   8  2.132028E+05  9.006217E+04  1.446253E+05 -1.672313E+05 -4.754632E+04  5.808806E+04
       210   9  6.731092E+04  2.055582E+04  1.177639E+05 -2.259223E+05 -4.319139E+04  4.530195E+04
       210  10 -1.618351E+06 -5.874348E+05 -1.740531E+05 -6.965687E+05  3.058981E-09  2.013183E-09
       210  11 -1.472477E+06 -5.175414E+05 -1.459006E+05 -6.380499E+05 -7.815386E-09 -1.658255E-09
       210  12 -1.301709E+06 -4.727679E+05 -1.185195E+05 -6.080616E+05 -9.257590E-09 -1.211739E-09
       210  13 -6.175862E+05 -2.264066E+05 -1.106596E+03 -4.170290E+05 -2.231343E-09 -2.692816E-10
       210  14 -6.300183E+05 -2.137775E+05 -6.333787E+02 -4.027897E+05 -7.466501E-09 -1.966717E-09
       210  15 -6.174491E+05 -2.261303E+05 -3.747116E+02 -4.170898E+05 -4.204998E-09 -5.344573E-10
       210  16  3.842533E+05  1.347241E+05  1.718137E+05 -1.370641E+05 -1.034369E-08 -1.947317E-09
       210  17  2.131995E+05  9.005794E+04  1.446147E+05 -1.672291E+05 -7.811203E-09 -2.420417E-09
       210  18  6.730837E+04  2.055311E+04  1.177566E+05 -2.259207E+05  1.491140E-09  2.761211E-10
       210  19 -1.618349E+06 -5.874267E+05 -1.740389E+05 -6.965694E+05  9.016224E+03 -8.654806E+04
       210  20 -1.472475E+06 -5.175354E+05 -1.458901E+05 -6.380501E+05  3.392388E+03 -7.467346E+04
       210  21 -1.301708E+06 -4.727637E+05 -1.185122E+05 -6.080615E+05 -2.372395E+03 -6.239956E+04
       210  22 -6.175836E+05 -2.263997E+05 -1.093282E+03 -4.170309E+05  3.037002E+04 -7.851869E+04
       210  23 -6.300164E+05 -2.137726E+05 -6.238830E+02 -4.027911E+05  2.545334E+04 -6.638676E+04
       210  24 -6.174479E+05 -2.261271E+05 -3.684818E+02 -4.170907E+05  2.039612E+04 -5.385577E+04
       210  25  3.842575E+05  1.347301E+05  1.718281E+05 -1.370670E+05  5.176074E+04 -7.047547E+04
       210  26  2.132028E+05  9.006217E+04  1.446253E+05 -1.672313E+05  4.754632E+04 -5.808806E+04
       210  27  6.731092E+04  2.055582E+04  1.177639E+05 -2.259223E+05  4.319139E+04 -4.530195E+04
       211   1 -1.199377E+06 -4.357153E+05 -1.000254E+05 -5.795742E+05  5.208362E+03  5.491979E+04
       211   2 -1.053219E+06 -3.660393E+05 -7.303422E+04 -5.209621E+05  1.023008E+04  4.214427E+04
       211   3 -8.820335E+05 -3.213726E+05 -4.618607E+04 -4.909759E+05  1.526154E+04  2.932979E+04
       211   4 -6.174135E+05 -2.261014E+05 -3.094745E+02 -4.171110E+05 -1.753155E+04  4.639049E+04
       211   5 -6.298895E+05 -2.135404E+05 -2.629429E+02 -4.028068E+05 -1.258049E+04  3.359275E+04
       211   6 -6.173510E+05 -2.259770E+05 -3.059728E+02 -4.171380E+05 -7.619715E+03  2.075599E+04
       211   7 -3.509483E+04 -1.645613E+04  9.939754E+04 -2.545064E+05 -4.029392E+04  3.785277E+04
       211   8 -2.063682E+05 -6.102350E+04  7.250546E+04 -2.845757E+05 -3.540762E+04  2.503503E+04
       211   9 -3.525902E+05 -1.305730E+05  4.557505E+04 -3.432696E+05 -3.051159E+04  1.217820E+04
       211  10 -1.199378E+06 -4.357185E+05 -1.000312E+05 -5.795744E+05 -3.002767E-10  1.654357E-09
       211  11 -1.053220E+06 -3.660412E+05 -7.303776E+04 -5.209625E+05 -5.925042E-11 -1.311168E-11
       211  12 -8.820340E+05 -3.213736E+05 -4.618812E+04 -4.909763E+05  2.186690E-10 -4.829265E-10
       211  13 -6.174144E+05 -2.261038E+05 -3.140944E+02 -4.171103E+05 -1.171549E-09  2.847062E-10
       211  14 -6.298900E+05 -2.135416E+05 -2.653600E+02 -4.028065E+05 -5.101595E-10 -4.751776E-10
       211  15 -6.173512E+05 -2.259774E+05 -3.068911E+02 -4.171379E+05  1.758765E-10 -8.141669E-10
       211  16 -3.509696E+04 -1.645810E+04  9.939180E+04 -2.545052E+05 -1.252174E-09 -9.176658E-10
       211  17 -2.063697E+05 -6.102451E+04  7.250193E+04 -2.845750E+05 -1.467272E-09 -5.938781E-10
       211  18 -3.525912E+05 -1.305734E+05  4.557303E+04 -3.432693E+05  1.050307E-09 -6.456659E-10
       211  19 -1.199377E+06 -4.357153E+05 -1.000254E+05 -5.795742E+05 -5.208362E+03 -5.491979E+04
       211  20 -1.053219E+06 -3.660393E+05 -7.303422E+04 -5.209621E+05 -1.023008E+04 -4.214427E+04
       211  21 -8.820335E+05 -3.213726E+05 -4.618607E+04 -4.909759E+05 -1.526154E+04 -2.932979E+04
       211  22 -6.174135E+05 -2.261014E+05 -3.094745E+02 -4.171110E+05  1.753155E+04 -4.639049E+04
       211  23 -6.298895E+05 -2.135404E+05 -2.629429E+02 -4.028068E+05  1.258049E+04 -3.359275E+04
       211  24 -6.173510E+05 -2.259770E+05 -3.059728E+02 -4.171380E+05  7.619715E+03 -2.075599E+04
       211  25 -3.509483E+04 -1.645613E+04  9.939754E+04 -2.545064E+05  4.029392E+04 -3.785277E+04
       211  26 -2.063682E+05 -6.102350E+04  7.250546E+04 -2.845757E+05  3.540762E+04 -2.503503E+04
       211  27 -3.525902E+05 -1.305730E+05  4.557505E+04 -3.432696E+05  3.051159E+04 -1.217820E+04
       212   1 -7.795719E+05 -2.843382E+05 -2.783445E+04 -4.624690E+05  1.813814E+04  2.183794E+04
       212   2 -6.332451E+05 -2.147227E+05 -1.173470E+03 -4.038296E+05  2.323545E+04  9.043156E+03
       212   3 -4.619101E+05 -1.701165E+05  2.529333E+04 -3.738482E+05  2.832358E+04 -3.727746E+03
       212   4 -6.173476E+05 -2.259652E+05 -3.700340E+02 -4.171472E+05 -4.748123E+03  1.326350E+04
       212   5 -6.298330E+05 -2.134438E+05 -6.105205E+02 -4.028175E+05  3.886477E+02  4.835572E+02
       212   6 -6.173451E+05 -2.259423E+05 -1.078177E+03 -4.171561E+05  5.516150E+03 -1.227250E+04
       212   7 -4.550942E+05 -1.675891E+05  2.709592E+04 -3.718139E+05 -2.764073E+04  4.686681E+03
       212   8 -6.264197E+05 -2.121644E+05 -4.533681E+01 -4.018050E+05 -2.245816E+04 -8.076050E+03
       212   9 -7.727515E+05 -2.817646E+05 -2.744764E+04 -4.604531E+05 -1.728497E+04 -2.081490E+04
       212  10 -7.795724E+05 -2.843388E+05 -2.783597E+04 -4.624694E+05 -1.199345E-09 -6.683246E-10
       212  11 -6.332457E+05 -2.147229E+05 -1.174639E+03 -4.038298E+05 -3.027134E-09 -1.306587E-10
       212  12 -4.619110E+05 -1.701167E+05  2.529179E+04 -3.738481E+05 -1.130802E-09 -5.280763E-11
       212  13 -6.173477E+05 -2.259654E+05 -3.704068E+02 -4.171471E+05 -3.850618E-10 -4.337990E-10
       212  14 -6.298330E+05 -2.134438E+05 -6.105212E+02 -4.028175E+05  1.132451E-10  3.188489E-10
       212  15 -6.173452E+05 -2.259424E+05 -1.078517E+03 -4.171560E+05 -6.441588E-10  6.491607E-10
       212  16 -4.550950E+05 -1.675893E+05  2.709444E+04 -3.718138E+05  1.727544E-09 -1.068802E-10
       212  17 -6.264202E+05 -2.121646E+05 -4.640862E+01 -4.018052E+05  1.175578E-09  8.746723E-10
       212  18 -7.727520E+05 -2.817652E+05 -2.744902E+04 -4.604534E+05  5.294170E-11  1.119376E-09
       212  19 -7.795719E+05 -2.843382E+05 -2.783445E+04 -4.624690E+05 -1.813814E+04 -2.183794E+04
       212  20 -6.332451E+05 -2.147227E+05 -1.173470E+03 -4.038296E+05 -2.323545E+04 -9.043156E+03
       212  21 -4.619101E+05 -1.701165E+05  2.529333E+04 -3.738482E+05 -2.832358E+04  3.727746E+03
       212  22 -6.173476E+05 -2.259652E+05 -3.700340E+02 -4.171472E+05  4.748123E+03 -1.326350E+04
       212  23 -6.298330E+05 -2.134438E+05 -6.105205E+02 -4.028175E+05 -3.886477E+02 -4.835572E+02
       212  24 -6.173451E+05 -2.259423E+05 -1.078177E+03 -4.171561E+05 -5.516150E+03  1.227250E+04
       212  25 -4.550942E+05 -1.675891E+05  2.709592E+04 -3.718139E+05  2.764073E+04 -4.686681E+03
       212  26 -6.264197E+05 -2.121644E+05 -4.533681E+01 -4.018050E+05  2.245816E+04  8.076050E+03
       212  27 -7.727515E+05 -2.817646E+05 -2.744764E+04 -4.604531E+05  1.728497E+04  2.081490E+04
       213   1 -3.594086E+05 -1.331028E+05  4.337764E+04 -3.453461E+05  3.137185E+04 -1.113739E+04
       213   2 -2.130921E+05 -6.352904E+04  6.930244E+04 -2.866807E+05  3.690015E+04 -2.357043E+04
       213   3 -4.186243E+04 -1.901562E+04  9.465110E+04 -2.566317E+05  4.231838E+04 -3.569759E+04
       213   4 -6.173912E+05 -2.259410E+05 -1.431220E+03 -4.171640E+05  8.533804E+03 -1.969484E+04
       213   5 -6.298211E+05 -2.134820E+05 -2.598935E+03 -4.028118E+05  1.459948E+04 -3.193068E+04
       213   6 -6.174743E+05 -2.261957E+05 -4.771310E+03 -4.170893E+05  2.055484E+04 -4.386056E+04
       213   7 -8.753049E+05 -3.187735E+05 -4.624060E+04 -4.889544E+05 -1.429438E+04 -2.824860E+04
       213   8 -1.046367E+06 -3.634185E+05 -7.450385E+04 -5.188703E+05 -7.685381E+03 -4.028502E+04
       213   9 -1.192734E+06 -4.333432E+05 -1.042014E+05 -5.774077E+05 -1.187242E+03 -5.201551E+04
       213  10 -3.594097E+05 -1.331032E+05  4.337556E+04 -3.453459E+05  1.020006E-08  4.086254E-09
       213  11 -2.130937E+05 -6.353000E+04  6.929884E+04 -2.866800E+05 -2.030992E-08 -8.334785E-09
       213  12 -4.186469E+04 -1.901746E+04  9.464534E+04 -2.566305E+05 -4.325957E-08 -1.917571E-08
       213  13 -6.173914E+05 -2.259415E+05 -1.432085E+03 -4.171638E+05  2.123494E-10  7.839465E-11
       213  14 -6.298217E+05 -2.134831E+05 -2.601250E+03 -4.028114E+05 -7.188786E-10 -1.442381E-09
       213  15 -6.174752E+05 -2.261978E+05 -4.775717E+03 -4.170886E+05  2.299292E-09 -1.628229E-09
       213  16 -8.753054E+05 -3.187744E+05 -4.624248E+04 -4.889547E+05 -1.148511E-08 -3.749402E-09
       213  17 -1.046368E+06 -3.634203E+05 -7.450701E+04 -5.188706E+05  2.038124E-08  6.287041E-09
       213  18 -1.192735E+06 -4.333461E+05 -1.042065E+05 -5.774077E+05  4.982678E-08  1.608182E-08
       213  19 -3.594086E+05 -1.331028E+05  4.337764E+04 -3.453461E+05 -3.137185E+04  1.113739E+04
       213  20 -2.130921E+05 -6.352904E+04  6.930244E+04 -2.866807E+05 -3.690015E+04  2.357043E+04
       213  21 -4.186243E+04 -1.901562E+04  9.465110E+04 -2.566317E+05 -4.231838E+04  3.569759E+04
       213  22 -6.173912E+05 -2.259410E+05 -1.431220E+03 -4.171640E+05 -8.533804E+03  1.969484E+04
       213  23 -6.298211E+05 -2.134820E+05 -2.598935E+03 -4.028118E+05 -1.459948E+04  3.193068E+04
       213  24 -6.174743E+05 -2.261957E+05 -4.771310E+03 -4.170893E+05 -2.055484E+04  4.386056E+04
       213  25 -8.753049E+05 -3.187735E+05 -4.624060E+04 -4.889544E+05  1.429438E+04  2.824860E+04
       213  26 -1.046367E+06 -3.634185E+05 -7.450385E+04 -5.188703E+05  7.685381E+03  4.028502E+04
       213  27 -1.192734E+06 -4.333432E+05 -1.042014E+05 -5.774077E+05  1.187242E+03  5.201551E+04
       214   1  6.072148E+04  1.783960E+04  1.117471E+05 -2.284880E+05  4.629216E+04 -4.255559E+04
       214   2  2.059176E+05  8.783149E+04  1.358290E+05 -1.683911E+05  5.039144E+04 -5.334147E+04
       214   3  3.752114E+05  1.309148E+05  1.593147E+05 -1.360583E+05  5.325805E+04 -6.082539E+04
       214   4 -6.178206E+05 -2.261550E+05 -6.362729E+03 -4.171696E+05  2.417745E+04 -5.085376E+04
       214   5 -6.296724E+05 -2.146062E+05 -1.169916E+04 -4.023680E+05  3.412920E+04 -5.945200E+04
       214   6 -6.186127E+05 -2.311324E+05 -2.227299E+04 -4.153431E+05  4.284734E+04 -6.474578E+04
       214   7 -1.295867E+06 -4.701025E+05 -1.244825E+05 -6.056565E+05  2.088681E+03 -5.914225E+04
       214   8 -1.464524E+06 -5.169754E+05 -1.592484E+05 -6.360503E+05  1.789027E+04 -6.555373E+04
       214   9 -1.611409E+06 -5.930874E+05 -2.038988E+05 -6.942130E+05  3.245429E+04 -6.865946E+04
       214  10  6.071870E+04  1.783708E+04  1.117397E+05 -2.284865E+05  5.231703E-08  1.602128E-08
       214  11  2.059141E+05  8.782776E+04  1.358189E+05 -1.683889E+05  2.118027E-08  6.687778E-09
       214  12  3.752073E+05  1.309101E+05  1.593024E+05 -1.360557E+05 -9.850594E-09 -3.316172E-09
       214  13 -6.178219E+05 -2.261579E+05 -6.368684E+03 -4.171686E+05  3.064913E-09 -1.432141E-09
       214  14 -6.296746E+05 -2.146103E+05 -1.170799E+04 -4.023663E+05 -1.050946E-11 -8.593303E-10
       214  15 -6.186158E+05 -2.311374E+05 -2.228431E+04 -4.153408E+05 -5.046228E-10  3.541223E-10
       214  16 -1.295868E+06 -4.701063E+05 -1.244890E+05 -6.056564E+05 -4.440539E-08 -1.855980E-08
       214  17 -1.464526E+06 -5.169801E+05 -1.592571E+05 -6.360494E+05 -2.047088E-08 -7.683826E-09
       214  18 -1.611412E+06 -5.930927E+05 -2.039097E+05 -6.942112E+05  9.027092E-09  4.793681E-09
       214  19  6.072148E+04  1.783960E+04  1.117471E+05 -2.284880E+05 -4.629216E+04  4.255559E+04
       214  20  2.059176E+05  8.783149E+04  1.358290E+05 -1.683911E+05 -5.039144E+04  5.334147E+04
       214  21  3.752114E+05  1.309148E+05  1.593147E+05 -1.360583E+05 -5.325805E+04  6.082539E+04
       214  22 -6.178206E+05 -2.261550E+05 -6.362729E+03 -4.171696E+05 -2.417745E+04  5.085376E+04
       214  23 -6.296724E+05 -2.146062E+05 -1.169916E+04 -4.023680E+05 -3.412920E+04  5.945200E+04
       214  24 -6.186127E+05 -2.311324E+05 -2.227299E+04 -4.153431E+05 -4.284734E+04  6.474578E+04
       214  25 -1.295867E+06 -4.701025E+05 -1.244825E+05 -6.056565E+05 -2.088681E+03  5.914225E+04
       214  26 -1.464524E+06 -5.169754E+05 -1.592484E+05 -6.360503E+05 -1.789027E+04  6.555373E+04
       214  27 -1.611409E+06 -5.930874E+05 -2.038988E+05 -6.942130E+05 -3.245429E+04  6.865946E+04
       215   1  4.804772E+05  1.648566E+05  1.735439E+05 -1.137507E+05  6.257217E+04 -6.353324E+04
       215   2  6.035697E+05  2.431407E+05  2.019766E+05 -2.107961E+04  2.420293E+04 -6.654272E+04
       215   3  7.375194E+05  2.546292E+05  2.438935E+05  5.923703E+04 -2.775549E+04 -3.348320E+04
       215   4 -6.224734E+05 -2.305872E+05 -2.965414E+04 -4.164431E+05  4.823120E+04 -6.893253E+04
       215   5 -6.281600E+05 -2.371976E+05 -5.657387E+04 -3.928729E+05  7.394133E+04 -4.786941E+04
       215   6 -6.357435E+05 -3.233720E+05 -1.208123E+05 -3.816635E+05  8.605453E+04  9.306675E+03
       215   7 -1.724150E+06 -6.259247E+05 -2.328968E+05 -7.186380E+05  3.391743E+04 -7.432188E+04
       215   8 -1.858314E+06 -7.173462E+05 -3.151935E+05 -7.639610E+05  1.235734E+05 -2.924203E+04
       215   9 -2.007110E+06 -9.010942E+05 -4.856217E+05 -8.216193E+05  1.995880E+05  5.196338E+04
       215  10  4.804719E+05  1.648512E+05  1.735290E+05 -1.137475E+05  5.097196E-10  3.809935E-10
       215  11  6.035679E+05  2.431358E+05  2.019671E+05 -2.107831E+04  1.677450E-09  8.037666E-10
       215  12  7.375182E+05  2.546278E+05  2.438900E+05  5.923628E+04  2.222086E-09  1.001499E-09
       215  13 -6.224772E+05 -2.305929E+05 -2.966743E+04 -4.164404E+05 -1.707980E-09  5.757049E-10
       215  14 -6.281665E+05 -2.372015E+05 -5.658845E+04 -3.928700E+05 -1.210606E-09  1.367212E-09
       215  15 -6.357515E+05 -3.233741E+05 -1.208264E+05 -3.816641E+05  9.343538E-10  4.392577E-10
       215  16 -1.724152E+06 -6.259309E+05 -2.329094E+05 -7.186359E+05 -6.826251E-10  1.008826E-09
       215  17 -1.858331E+06 -7.173513E+05 -3.152238E+05 -7.639581E+05 -2.873422E-09  5.696995E-10
       215  18 -2.007154E+06 -9.011079E+05 -4.857019E+05 -8.216276E+05 -2.841491E-09 -1.197952E-10
       215  19  4.804772E+05  1.648566E+05  1.735439E+05 -1.137507E+05 -6.257217E+04  6.353324E+04
       215  20  6.035697E+05  2.431407E+05  2.019766E+05 -2.107961E+04 -2.420293E+04  6.654272E+04
       215  21  7.375194E+05  2.546292E+05  2.438935E+05  5.923703E+04  2.775549E+04  3.348320E+04
       215  22 -6.224734E+05 -2.305872E+05 -2.965414E+04 -4.164431E+05 -4.823120E+04  6.893253E+04
       215  23 -6.281600E+05 -2.371976E+05 -5.657387E+04 -3.928729E+05 -7.394133E+04  4.786941E+04
       215  24 -6.357435E+05 -3.233720E+05 -1.208123E+05 -3.816635E+05 -8.605453E+04 -9.306675E+03
       215  25 -1.724150E+06 -6.259247E+05 -2.328968E+05 -7.186380E+05 -3.391743E+04  7.432188E+04
       215  26 -1.858314E+06 -7.173462E+05 -3.151935E+05 -7.639610E+05 -1.235734E+05  2.924203E+04
       215  27 -2.007110E+06 -9.010942E+05 -4.856217E+05 -8.216193E+05 -1.995880E+05 -5.196338E+04
       216   1 -5.869266E+05 -1.928664E+05 -1.608441E+05 -7.810314E+04  5.512028E+03  1.821613E+04
       216   2 -4.371829E+05 -2.525984E+05 -1.521684E+05 -1.140913E+05  2.430947E+04  6.020752E+04
       216   3 -2.725089E+05 -2.437405E+05 -1.385717E+05 -1.795572E+05  4.314824E+04  7.028333E+04
       216   4  8.061489E+05  1.506502E+05  1.648741E+05 -1.749031E+05  1.154398E+05  1.829755E+04
       216   5  7.935595E+05  4.009976E+04  8.114789E+04 -1.601303E+05  7.372245E+04  6.022471E+04
       216   6  8.063299E+05  8.555368E+03  4.432281E+04 -1.748245E+05  3.204397E+04  7.026841E+04
       216   7  2.201059E+06  4.940712E+05  4.905108E+05 -2.719219E+05  2.256127E+05  1.834461E+04
       216   8  2.025773E+06  3.327187E+05  3.144071E+05 -2.062629E+05  1.232310E+05  6.023457E+04
       216   9  1.886314E+06  2.607899E+05  2.271801E+05 -1.700833E+05  2.092099E+04  7.025334E+04
       216  10 -5.869267E+05 -1.928668E+05 -1.608448E+05 -7.810322E+04 -3.520490E-10 -4.430927E-10
       216  11 -4.371845E+05 -2.526024E+05 -1.521763E+05 -1.140925E+05 -6.494808E-11  1.980207E-09
       216  12 -2.725122E+05 -2.437463E+05 -1.385845E+05 -1.795597E+05 -2.938083E-09  2.013793E-09
       216  13  8.061345E+05  1.506463E+05  1.648484E+05 -1.749048E+05  1.348535E-09  1.025208E-09
       216  14  7.935527E+05  4.009440E+04  8.113087E+04 -1.601339E+05  8.278480E-10  1.332596E-09
       216  15  8.063275E+05  8.549788E+03  4.431160E+04 -1.748263E+05 -4.059938E-10  1.204299E-09
       216  16  2.201005E+06  4.940573E+05  4.904148E+05 -2.719252E+05  9.594883E-10  8.384442E-10
       216  17  2.025756E+06  3.327107E+05  3.143718E+05 -2.062689E+05  2.054314E-09  1.074238E-09
       216  18  1.886313E+06  2.607845E+05  2.271700E+05 -1.700845E+05  4.987705E-09  2.153093E-09
       216  19 -5.869266E+05 -1.928664E+05 -1.608441E+05 -7.810314E+04 -5.512028E+03 -1.821613E+04
       216  20 -4.371829E+05 -2.525984E+05 -1.521684E+05 -1.140913E+05 -2.430947E+04 -6.020752E+04
       216  21 -2.725089E+05 -2.437405E+05 -1.385717E+05 -1.795572E+05 -4.314824E+04 -7.028333E+04
       216  22  8.061489E+05  1.506502E+05  1.648741E+05 -1.749031E+05 -1.154398E+05 -1.829755E+04
       216  23  7.935595E+05  4.009976E+04  8.114789E+04 -1.601303E+05 -7.372245E+04 -6.022471E+04
       216  24  8.063299E+05  8.555368E+03  4.432281E+04 -1.748245E+05 -3.204397E+04 -7.026841E+04
       216  25  2.201059E+06  4.940712E+05  4.905108E+05 -2.719219E+05 -2.256127E+05 -1.834461E+04
       216  26  2.025773E+06  3.327187E+05  3.144071E+05 -2.062629E+05 -1.232310E+05 -6.023457E+04
       216  27  1.886314E+06  2.607899E+05  2.271801E+05 -1.700833E+05 -2.092099E+04 -7.025334E+04
       217   1 -1.759352E+05 -2.197865E+05 -1.293846E+05 -1.716280E+05  3.563746E+04  6.592146E+04
       217   2 -2.004682E+04 -1.887479E+05 -1.134091E+05 -1.582436E+05  3.280883E+04  5.931434E+04
       217   3  1.373314E+05 -1.537175E+05 -9.456638E+04 -1.763802E+05  2.997623E+04  4.938177E+04
       217   4  8.012978E+05  8.168171E+03  3.347863E+04 -1.752943E+05  2.629578E+04  6.590914E+04
       217   5  8.000653E+05  1.552275E+03  1.831938E+04 -1.595350E+05  1.714953E+04  5.930447E+04
       217   6  8.013899E+05  2.121745E+01  1.040499E+04 -1.752936E+05  8.000037E+03  4.937659E+04
       217   7  1.779474E+06  2.360732E+05  1.963130E+05 -1.789665E+05  1.693987E+04  6.589695E+04
       217   8  1.620846E+06  1.918188E+05  1.500308E+05 -1.608282E+05  1.470269E+03  5.929467E+04
       217   9  1.465888E+06  1.537383E+05  1.153671E+05 -1.742057E+05 -1.399880E+04  4.937134E+04
       217  10 -1.759378E+05 -2.197915E+05 -1.293952E+05 -1.716299E+05  6.968698E-10  1.632605E-09
       217  11 -2.004893E+04 -1.887520E+05 -1.134177E+05 -1.582451E+05 -1.075403E-09  1.136834E-10
       217  12  1.373298E+05 -1.537203E+05 -9.457266E+04 -1.763814E+05 -1.577290E-09 -1.284956E-09
       217  13  8.012959E+05  8.163318E+03  3.346916E+04 -1.752957E+05 -8.161645E-10  2.228820E-09
       217  14  8.000640E+05  1.548417E+03  1.831221E+04 -1.595358E+05  2.585872E-09  6.336010E-10
       217  15  8.013892E+05  1.858112E+01  1.040029E+04 -1.752939E+05 -1.097745E-09 -1.245492E-09
       217  16  1.779472E+06  2.360685E+05  1.963043E+05 -1.789674E+05  2.841640E-10  1.690499E-09
       217  17  1.620845E+06  1.918150E+05  1.500242E+05 -1.608283E+05 -3.614947E-11  6.504645E-10
       217  18  1.465887E+06  1.537356E+05  1.153622E+05 -1.742052E+05  9.329854E-10 -9.901655E-10
       217  19 -1.759352E+05 -2.197865E+05 -1.293846E+05 -1.716280E+05 -3.563746E+04 -6.592146E+04
       217  20 -2.004682E+04 -1.887479E+05 -1.134091E+05 -1.582436E+05 -3.280883E+04 -5.931434E+04
       217  21  1.373314E+05 -1.537175E+05 -9.456638E+04 -1.763802E+05 -2.997623E+04 -4.938177E+04
       217  22  8.012978E+05  8.168171E+03  3.347863E+04 -1.752943E+05 -2.629578E+04 -6.590914E+04
       217  23  8.000653E+05  1.552275E+03  1.831938E+04 -1.595350E+05 -1.714953E+04 -5.930447E+04
       217  24  8.013899E+05  2.121745E+01  1.040499E+04 -1.752936E+05 -8.000037E+03 -4.937659E+04
       217  25  1.779474E+06  2.360732E+05  1.963130E+05 -1.789665E+05 -1.693987E+04 -6.589695E+04
       217  26  1.620846E+06  1.918188E+05  1.500308E+05 -1.608282E+05 -1.470269E+03 -5.929467E+04
       217  27  1.465888E+06  1.537383E+05  1.153671E+05 -1.742057E+05  1.399880E+04 -4.937134E+04
       218   1  2.367580E+05 -1.303603E+05 -8.056583E+04 -1.757214E+05  2.820611E+04  4.253799E+04
       218   2  3.930619E+05 -9.438478E+04 -5.926249E+04 -1.597937E+05  2.664847E+04  3.087600E+04
       218   3  5.496734E+05 -5.821813E+04 -3.688791E+04 -1.755707E+05  2.508745E+04  1.886988E+04
       218   4  8.009336E+05  1.009153E+02  7.885409E+03 -1.753353E+05  6.418359E+03  4.253537E+04
       218   5  8.007563E+05 -1.524879E+02  4.475501E+03 -1.594837E+05  4.203681E+03  3.087635E+04
       218   6  8.009776E+05 -9.974943E+01  2.590872E+03 -1.753355E+05  1.985999E+03  1.887333E+04
       218   7  1.365427E+06  1.305467E+05  9.633073E+04 -1.749488E+05 -1.538845E+04  4.253272E+04
       218   8  1.208617E+06  9.407191E+04  6.821141E+04 -1.591734E+05 -1.825529E+04  3.087668E+04
       218   9  1.052346E+06  5.801580E+04  4.207012E+04 -1.751003E+05 -2.112445E+04  1.887677E+04
       218  10  2.367567E+05 -1.303624E+05 -8.057073E+04 -1.757224E+05 -6.036388E-08 -2.143460E-09
       218  11  3.930609E+05 -9.438599E+04 -5.926562E+04 -1.597944E+05 -6.206475E-10 -3.028064E-09
       218  12  5.496727E+05 -5.821868E+04 -3.688976E+04 -1.755711E+05  5.899924E-08 -1.697690E-09
       218  13  8.009330E+05  9.896055E+01  7.881930E+03 -1.753355E+05  8.033586E-10 -2.141289E-09
       218  14  8.007561E+05 -1.535168E+02  4.473676E+03 -1.594838E+05  3.236987E-09 -2.804267E-09
       218  15  8.009775E+05 -1.001331E+02  2.590195E+03 -1.753356E+05  9.592380E-10 -1.146794E-09
       218  16  1.365426E+06  1.305447E+05  9.632688E+04 -1.749482E+05  5.990699E-08 -2.081060E-09
       218  17  1.208617E+06  9.407080E+04  6.820899E+04 -1.591730E+05 -3.108799E-10 -2.605457E-09
       218  18  1.052345E+06  5.801530E+04  4.206861E+04 -1.751000E+05 -5.849319E-08 -7.985151E-10
       218  19  2.367580E+05 -1.303603E+05 -8.056583E+04 -1.757214E+05 -2.820611E+04 -4.253799E+04
       218  20  3.930619E+05 -9.438478E+04 -5.926249E+04 -1.597937E+05 -2.664847E+04 -3.087600E+04
       218  21  5.496734E+05 -5.821813E+04 -3.688791E+04 -1.755707E+05 -2.508745E+04 -1.886988E+04
       218  22  8.009336E+05  1.009153E+02  7.885409E+03 -1.753353E+05 -6.418359E+03 -4.253537E+04
       218  23  8.007563E+05 -1.524879E+02  4.475501E+03 -1.594837E+05 -4.203681E+03 -3.087635E+04
       218  24  8.009776E+05 -9.974943E+01  2.590872E+03 -1.753355E+05 -1.985999E+03 -1.887333E+04
       218  25  1.365427E+06  1.305467E+05  9.633073E+04 -1.749488E+05  1.538845E+04 -4.253272E+04
       218  26  1.208617E+06  9.407191E+04  6.821141E+04 -1.591734E+05  1.825529E+04 -3.087668E+04
       218  27  1.052346E+06  5.801580E+04  4.207012E+04 -1.751003E+05  2.112445E+04 -1.887677E+04
       219   1  6.492910E+05 -3.503459E+04 -2.135519E+04 -1.755053E+05  2.465476E+04  1.177329E+04
       219   2  8.056719E+05  1.046307E+03  1.877942E+03 -1.595931E+05  2.413682E+04 -4.061116E+02
       219   3  9.621603E+05  3.712642E+04  2.545140E+04 -1.753970E+05  2.361879E+04 -1.261700E+04
       219   4  8.009169E+05 -6.718242E+01  1.980250E+03 -1.753383E+05  1.572870E+03  1.177762E+04
       219   5  8.008713E+05 -5.362036E+01  1.173723E+03 -1.594804E+05  9.920635E+02 -4.018060E+02
       219   6  8.009167E+05 -2.992876E+01  7.488359E+02 -1.753384E+05  4.112953E+02 -1.261272E+04
       219   7  9.525669E+05  3.489940E+04  2.531718E+04 -1.751714E+05 -2.151444E+04  1.178194E+04
       219   8  7.960719E+05 -1.153262E+03  4.715140E+02 -1.593676E+05 -2.215252E+04 -3.975088E+02
       219   9  6.397002E+05 -3.718724E+04 -2.395228E+04 -1.752798E+05 -2.279042E+04 -1.260844E+04
       219  10  6.492903E+05 -3.503490E+04 -2.135659E+04 -1.755055E+05  4.885689E-10 -2.603017E-10
       219  11  8.056713E+05  1.046151E+03  1.876849E+03 -1.595931E+05  2.660403E-10  1.209757E-09
       219  12  9.621597E+05  3.712610E+04  2.545006E+04 -1.753967E+05 -2.532863E-09  1.510978E-09
       219  13  8.009169E+05 -6.733210E+01  1.979985E+03 -1.753384E+05  2.146236E-09 -4.098785E-11
       219  14  8.008713E+05 -5.362080E+01  1.173721E+03 -1.594804E+05 -1.760784E-09  8.533410E-10
       219  15  8.009166E+05 -3.009969E+01  7.485365E+02 -1.753384E+05 -3.640399E-09  1.019967E-09
       219  16  9.525664E+05  3.489913E+04  2.531605E+04 -1.751712E+05 -1.493210E-09  1.114221E-10
       219  17  7.960714E+05 -1.153394E+03  4.705927E+02 -1.593676E+05  5.084896E-10  3.993394E-10
       219  18  6.396996E+05 -3.718755E+04 -2.395355E+04 -1.752800E+05 -7.364889E-11  6.824331E-10
       219  19  6.492910E+05 -3.503459E+04 -2.135519E+04 -1.755053E+05 -2.465476E+04 -1.177329E+04
       219  20  8.056719E+05  1.046307E+03  1.877942E+03 -1.595931E+05 -2.413682E+04  4.061116E+02
       219  21  9.621603E+05  3.712642E+04  2.545140E+04 -1.753970E+05 -2.361879E+04  1.261700E+04
       219  22  8.009169E+05 -6.718242E+01  1.980250E+03 -1.753383E+05 -1.572870E+03 -1.177762E+04
       219  23  8.008713E+05 -5.362036E+01  1.173723E+03 -1.594804E+05 -9.920635E+02  4.018060E+02
       219  24  8.009167E+05 -2.992876E+01  7.488359E+02 -1.753384E+05 -4.112953E+02  1.261272E+04
       219  25  9.525669E+05  3.489940E+04  2.531718E+04 -1.751714E+05  2.151444E+04 -1.178194E+04
       219  26  7.960719E+05 -1.153262E+03  4.715140E+02 -1.593676E+05  2.215252E+04  3.975088E+02
       219  27  6.397002E+05 -3.718724E+04 -2.395228E+04 -1.752798E+05  2.279042E+04  1.260844E+04
       220   1  1.061849E+06  6.025813E+04  4.143999E+04 -1.753922E+05  2.349744E+04 -1.973542E+04
       220   2  1.218341E+06  9.628482E+04  6.534555E+04 -1.594724E+05  2.316876E+04 -3.194110E+04
       220   3  1.374937E+06  1.323189E+05  8.947492E+04 -1.752803E+05  2.284328E+04 -4.410728E+04
       220   4  8.009033E+05 -3.696364E+01  6.285760E+02 -1.753413E+05  2.848052E+02 -1.973208E+04
       220   5  8.008480E+05 -8.137941E+01  5.179415E+02 -1.594768E+05  2.846407E+01 -3.194091E+04
       220   6  8.008595E+05 -1.302578E+02  5.796052E+02 -1.753413E+05 -2.245956E+02 -4.411021E+04
       220   7  5.400270E+05 -6.033511E+04 -4.018245E+04 -1.752904E+05 -2.291845E+04 -1.972874E+04
       220   8  3.835301E+05 -9.645579E+04 -6.431171E+04 -1.594812E+05 -2.309688E+04 -3.194071E+04
       220   9  2.271114E+05 -1.325952E+05 -8.832129E+04 -1.754022E+05 -2.327199E+04 -4.411314E+04
       220  10  1.061848E+06  6.025756E+04  4.143823E+04 -1.753919E+05  1.699830E-10  1.199407E-09
       220  11  1.218340E+06  9.628358E+04  6.534263E+04 -1.594718E+05  5.701699E-10  9.185125E-10
       220  12  1.374936E+06  1.323167E+05  8.947029E+04 -1.752794E+05 -1.492219E-09  8.699958E-10
       220  13  8.009032E+05 -3.738192E+01  6.278439E+02 -1.753413E+05 -2.678789E-09  9.003473E-10
       220  14  8.008477E+05 -8.247536E+01  5.160236E+02 -1.594768E+05 -3.722432E-09  8.368393E-10
       220  15  8.008589E+05 -1.323480E+02  5.759473E+02 -1.753413E+05 -6.046709E-11  7.483055E-10
       220  16  5.400263E+05 -6.033567E+04 -4.018417E+04 -1.752907E+05 -1.453175E-09  7.108821E-10
       220  17  3.835292E+05 -9.645703E+04 -6.431463E+04 -1.594818E+05 -2.057321E-09  6.738355E-10
       220  18  2.271103E+05 -1.325974E+05 -8.832596E+04 -1.754030E+05  1.703242E-09  5.017478E-10
       220  19  1.061849E+06  6.025813E+04  4.143999E+04 -1.753922E+05 -2.349744E+04  1.973542E+04
       220  20  1.218341E+06  9.628482E+04  6.534555E+04 -1.594724E+05 -2.316876E+04  3.194110E+04
       220  21  1.374937E+06  1.323189E+05  8.947492E+04 -1.752803E+05 -2.284328E+04  4.410728E+04
       220  22  8.009033E+05 -3.696364E+01  6.285760E+02 -1.753413E+05 -2.848052E+02  1.973208E+04
       220  23  8.008480E+05 -8.137941E+01  5.179415E+02 -1.594768E+05 -2.846407E+01  3.194091E+04
       220  24  8.008595E+05 -1.302578E+02  5.796052E+02 -1.753413E+05  2.245956E+02  4.411021E+04
       220  25  5.400270E+05 -6.033511E+04 -4.018245E+04 -1.752904E+05  2.291845E+04  1.972874E+04
       220  26  3.835301E+05 -9.645579E+04 -6.431171E+04 -1.594812E+05  2.309688E+04  3.194071E+04
       220  27  2.271114E+05 -1.325952E+05 -8.832129E+04 -1.754022E+05  2.327199E+04  4.411314E+04
       221   1  1.474785E+06  1.554503E+05  1.057376E+05 -1.752346E+05  2.276588E+04 -5.119751E+04
       221   2  1.631397E+06  1.915232E+05  1.304538E+05 -1.592267E+05  2.142637E+04 -6.313705E+04
       221   3  1.788354E+06  2.277932E+05  1.561149E+05 -1.749576E+05  2.009271E+04 -7.463439E+04
       221   4  8.008604E+05 -1.682726E+02  6.757413E+02 -1.753440E+05 -3.366688E+02 -5.120320E+04
       221   5  8.007278E+05 -2.615461E+02  1.019124E+03 -1.594733E+05 -8.378273E+02 -6.314878E+04
       221   6  8.007728E+05 -3.014218E+02  1.726171E+03 -1.753440E+05 -1.332827E+03 -7.465184E+04
       221   7  1.273887E+05 -1.558088E+05 -1.043949E+05 -1.754533E+05 -2.341513E+04 -5.120889E+04
       221   8 -2.925328E+04 -1.920797E+05 -1.284300E+05 -1.597195E+05 -2.307342E+04 -6.316050E+04
       221   9 -1.858365E+05 -2.284437E+05 -1.526842E+05 -1.757297E+05 -2.272563E+04 -7.466928E+04
       221  10  1.474784E+06  1.554473E+05  1.057317E+05 -1.752337E+05 -1.518621E-09  8.572534E-10
       221  11  1.631395E+06  1.915188E+05  1.304454E+05 -1.592256E+05 -2.952738E-09 -6.133254E-10
       221  12  1.788352E+06  2.277871E+05  1.561037E+05 -1.749564E+05 -1.102408E-10 -4.675722E-10
       221  13  8.008597E+05 -1.710890E+02  6.708124E+02 -1.753440E+05 -1.043855E-09  5.441482E-10
       221  14  8.007267E+05 -2.658301E+02  1.011626E+03 -1.594733E+05  2.663127E-10 -1.790584E-10
       221  15  8.007713E+05 -3.074089E+02  1.715691E+03 -1.753441E+05  5.047387E-10 -5.112974E-10
       221  16  1.273874E+05 -1.558117E+05 -1.044008E+05 -1.754542E+05 -4.580351E-10  1.287705E-10
       221  17 -2.925492E+04 -1.920842E+05 -1.284385E+05 -1.597207E+05  9.324458E-10 -1.542527E-10
       221  18 -1.858386E+05 -2.284498E+05 -1.526957E+05 -1.757310E+05 -1.626648E-09  2.002239E-11
       221  19  1.474785E+06  1.554503E+05  1.057376E+05 -1.752346E+05 -2.276588E+04  5.119751E+04
       221  20  1.631397E+06  1.915232E+05  1.304538E+05 -1.592267E+05 -2.142637E+04  6.313705E+04
       221  21  1.788354E+06  2.277932E+05  1.561149E+05 -1.749576E+05 -2.009271E+04  7.463439E+04
       221  22  8.008604E+05 -1.682726E+02  6.757413E+02 -1.753440E+05  3.366688E+02  5.120320E+04
       221  23  8.007278E+05 -2.615461E+02  1.019124E+03 -1.594733E+05  8.378273E+02  6.314878E+04
       221  24  8.007728E+05 -3.014218E+02  1.726171E+03 -1.753440E+05  1.332827E+03  7.465184E+04
       221  25  1.273887E+05 -1.558088E+05 -1.043949E+05 -1.754533E+05  2.341513E+04  5.120889E+04
       221  26 -2.925328E+04 -1.920797E+05 -1.284300E+05 -1.597195E+05  2.307342E+04  6.316050E+04
       221  27 -1.858365E+05 -2.284437E+05 -1.526842E+05 -1.757297E+05  2.272563E+04  7.466928E+04
       222   1  1.888712E+06  2.510703E+05  1.733122E+05 -1.746546E+05  2.000655E+04 -8.139804E+04
       222   2  2.044806E+06  2.880394E+05  2.025847E+05 -1.591656E+05  9.885443E+03 -9.065917E+04
       222   3  2.203068E+06  3.275029E+05  2.391077E+05 -1.751757E+05 -2.351659E+02 -9.562240E+04
       222   4  8.008558E+05 -3.687767E+02  2.260209E+03 -1.752908E+05 -1.672584E+03 -8.141992E+04
       222   5  8.004259E+05 -1.536812E+02  3.922618E+03 -1.595397E+05 -3.619903E+03 -9.068433E+04
       222   6  8.007246E+05  1.142215E+03  7.173068E+03 -1.752915E+05 -5.564131E+03 -9.564643E+04
       222   7 -2.858229E+05 -2.518659E+05 -1.688191E+05 -1.759258E+05 -2.331523E+04 -8.144178E+04
       222   8 -4.424183E+05 -2.884241E+05 -1.947793E+05 -1.599131E+05 -1.709922E+04 -9.070950E+04
       222   9 -5.996804E+05 -3.253199E+05 -2.248201E+05 -1.754073E+05 -1.088149E+04 -9.567049E+04
       222  10  1.888709E+06  2.510631E+05  1.732990E+05 -1.746533E+05 -1.271863E-09 -4.216286E-10
       222  11  2.044803E+06  2.880306E+05  2.025691E+05 -1.591648E+05 -6.044299E-10 -6.908878E-10
       222  12  2.203065E+06  3.274931E+05  2.390905E+05 -1.751757E+05  1.992966E-09 -1.984688E-09
       222  13  8.008540E+05 -3.758988E+02  2.247742E+03 -1.752909E+05  1.043963E-09 -4.747053E-10
       222  14  8.004237E+05 -1.625189E+02  3.907134E+03 -1.595399E+05 -1.615261E-09 -8.217384E-10
       222  15  8.007221E+05  1.132379E+03  7.155812E+03 -1.752920E+05 -5.317723E-11 -1.432986E-09
       222  16 -2.858252E+05 -2.518732E+05 -1.688326E+05 -1.759273E+05 -7.023451E-10 -2.191645E-10
       222  17 -4.424209E+05 -2.884330E+05 -1.947953E+05 -1.599143E+05 -2.820099E-10  7.738427E-10
       222  18 -5.996830E+05 -3.253298E+05 -2.248376E+05 -1.754081E+05 -3.788672E-09 -5.942775E-10
       222  19  1.888712E+06  2.510703E+05  1.733122E+05 -1.746546E+05 -2.000655E+04  8.139804E+04
       222  20  2.044806E+06  2.880394E+05  2.025847E+05 -1.591656E+05 -9.885443E+03  9.065917E+04
       222  21  2.203068E+06  3.275029E+05  2.391077E+05 -1.751757E+05  2.351659E+02  9.562240E+04
       222  22  8.008558E+05 -3.687767E+02  2.260209E+03 -1.752908E+05  1.672584E+03  8.141992E+04
       222  23  8.004259E+05 -1.536812E+02  3.922618E+03 -1.595397E+05  3.619903E+03  9.068433E+04
       222  24  8.007246E+05  1.142215E+03  7.173068E+03 -1.752915E+05  5.564131E+03  9.564643E+04
       222  25 -2.858229E+05 -2.518659E+05 -1.688191E+05 -1.759258E+05  2.331523E+04  8.144178E+04
       222  26 -4.424183E+05 -2.884241E+05 -1.947793E+05 -1.599131E+05  1.709922E+04  9.070950E+04
       222  27 -5.996804E+05 -3.253199E+05 -2.248201E+05 -1.754073E+05  1.088149E+04  9.567049E+04
       223   1  2.306781E+06  3.522419E+05  2.626429E+05 -1.725507E+05  8.401229E+02 -9.917395E+04
       223   2  2.455044E+06  4.007158E+05  3.287184E+05 -1.687931E+05 -8.655004E+04 -8.264934E+04
       223   3  2.622658E+06  4.798484E+05  4.592823E+05 -1.938290E+05 -1.740513E+05 -2.486564E+04
       223   4  8.017889E+05  1.159853E+03  9.499052E+03 -1.746832E+05 -6.794256E+03 -9.920286E+04
       223   5  7.988189E+05  7.856091E+03  1.733998E+04 -1.603056E+05 -1.567245E+04 -8.258351E+04
       223   6  8.016108E+05  3.164987E+04  3.528727E+04 -1.747175E+05 -2.463379E+04 -2.465763E+04
       223   7 -7.009775E+05 -3.500407E+05 -2.437162E+05 -1.768107E+05 -1.441077E+04 -9.923176E+04
       223   8 -8.547529E+05 -3.851596E+05 -2.941393E+05 -1.518417E+05  5.502135E+04 -8.251568E+04
       223   9 -1.016339E+06 -4.167691E+05 -3.888479E+05 -1.556630E+05  1.243500E+05 -2.444018E+04
       223  10  2.306779E+06  3.522313E+05  2.626244E+05 -1.725506E+05  4.926142E-11 -3.059395E-09
       223  11  2.455034E+06  4.007065E+05  3.286915E+05 -1.687988E+05 -2.111831E-09 -4.384583E-09
       223  12  2.622626E+06  4.798396E+05  4.592244E+05 -1.938324E+05 -3.722436E-09 -1.335481E-09
       223  13  8.017862E+05  1.149269E+03  9.480464E+03 -1.746838E+05  2.068035E-10 -5.877499E-09
       223  14  7.988168E+05  7.848699E+03  1.732670E+04 -1.603067E+05  1.397949E-09  2.188359E-09
       223  15  8.016100E+05  3.164906E+04  3.528498E+04 -1.747180E+05 -1.219455E-09 -1.111445E-11
       223  16 -7.009804E+05 -3.500514E+05 -2.437351E+05 -1.768118E+05 -7.878688E-10 -1.454651E-09
       223  17 -8.547580E+05 -3.851677E+05 -2.941578E+05 -1.518381E+05  1.101353E-09  1.485017E-09
       223  18 -1.016356E+06 -4.167739E+05 -3.888781E+05 -1.556605E+05  4.499787E-09 -1.660785E-09
       223  19  2.306781E+06  3.522419E+05  2.626429E+05 -1.725507E+05 -8.401229E+02  9.917395E+04
       223  20  2.455044E+06  4.007158E+05  3.287184E+05 -1.687931E+05  8.655004E+04  8.264934E+04
       223  21  2.622658E+06  4.798484E+05  4.592823E+05 -1.938290E+05  1.740513E+05  2.486564E+04
       223  22  8.017889E+05  1.159853E+03  9.499052E+03 -1.746832E+05  6.794256E+03  9.920286E+04
       223  23  7.988189E+05  7.856091E+03  1.733998E+04 -1.603056E+05  1.567245E+04  8.258351E+04
       223  24  8.016108E+05  3.164987E+04  3.528727E+04 -1.747175E+05  2.463379E+04  2.465763E+04
       223  25 -7.009775E+05 -3.500407E+05 -2.437162E+05 -1.768107E+05  1.441077E+04  9.923176E+04
       223  26 -8.547529E+05 -3.851596E+05 -2.941393E+05 -1.518417E+05 -5.502135E+04  8.251568E+04
       223  27 -1.016339E+06 -4.167691E+05 -3.888479E+05 -1.556630E+05 -1.243500E+05  2.444018E+04
       224   1  5.545491E+05  2.285921E+06  5.333592E+05 -6.483736E+05  2.176457E+04  1.483595E+05
       224   2  3.824427E+05  1.713606E+06  3.246969E+05 -5.839005E+05  6.529949E+04  4.426665E+04
       224   3  2.414489E+05  1.162729E+06  1.913844E+05 -6.292136E+05  5.831735E+04 -5.978197E+04
       224   4  2.806431E+04  1.554120E+05  2.874785E+04 -6.278714E+05  2.206499E+04  1.801130E+04
       224   5  8.928692E+03  1.534278E+05  1.581763E+04 -5.730004E+05  6.539693E+04  1.002433E+04
       224   6  4.316855E+03  1.559861E+05  1.167533E+04 -6.279239E+05  5.815649E+04  1.985628E+03
       224   7 -4.987356E+05 -1.970900E+06 -4.761151E+05 -6.074356E+05  2.235753E+04 -1.118932E+05
       224   8 -3.647323E+05 -1.404424E+06 -2.931774E+05 -5.621258E+05  6.549334E+04 -2.413392E+04
       224   9 -2.328692E+05 -8.497610E+05 -1.680579E+05 -6.266353E+05  5.799572E+04  6.365607E+04
       224  10  5.545427E+05  2.285897E+06  5.333171E+05 -6.483762E+05  3.199758E-10  5.744050E-08
       224  11  3.824376E+05  1.713603E+06  3.246852E+05 -5.839028E+05 -3.289398E-09 -2.403386E-09
       224  12  2.414443E+05  1.162724E+06  1.913713E+05 -6.292108E+05  1.218891E-10 -5.946341E-08
       224  13  2.806370E+04  1.554115E+05  2.874632E+04 -6.278717E+05  9.910051E-10 -4.570240E-12
       224  14  8.924072E+03  1.534266E+05  1.580941E+04 -5.730009E+05 -1.295202E-09  1.044336E-09
       224  15  4.313222E+03  1.559852E+05  1.166897E+04 -6.279240E+05  7.788624E-10  3.680981E-10
       224  16 -4.987395E+05 -1.970913E+06 -4.761396E+05 -6.074336E+05  4.502303E-11 -5.871104E-08
       224  17 -3.647371E+05 -1.404426E+06 -2.931865E+05 -5.621245E+05  5.569904E-10  3.553786E-09
       224  18 -2.328739E+05 -8.497663E+05 -1.680718E+05 -6.266383E+05 -6.880375E-10  6.172574E-08
       224  19  5.545491E+05  2.285921E+06  5.333592E+05 -6.483736E+05 -2.176457E+04 -1.483595E+05
       224  20  3.824427E+05  1.713606E+06  3.246969E+05 -5.839005E+05 -6.529949E+04 -4.426665E+04
       224  21  2.414489E+05  1.162729E+06  1.913844E+05 -6.292136E+05 -5.831735E+04  5.978197E+04
       224  22  2.806431E+04  1.554120E+05  2.874785E+04 -6.278714E+05 -2.206499E+04 -1.801130E+04
       224  23  8.928692E+03  1.534278E+05  1.581763E+04 -5.730004E+05 -6.539693E+04 -1.002433E+04
       224  24  4.316855E+03  1.559861E+05  1.167533E+04 -6.279239E+05 -5.815649E+04 -1.985628E+03
       224  25 -4.987356E+05 -1.970900E+06 -4.761151E+05 -6.074356E+05 -2.235753E+04  1.118932E+05
       224  26 -3.647323E+05 -1.404424E+06 -2.931774E+05 -5.621258E+05 -6.549334E+04  2.413392E+04
       224  27 -2.328692E+05 -8.497610E+05 -1.680579E+05 -6.266353E+05 -5.799572E+04 -6.365607E+04
       225   1  1.565442E+05  8.014140E+05  1.263957E+05 -6.310638E+05  3.765193E+04 -5.908733E+04
       225   2  2.364270E+04  2.397054E+05  2.677627E+04 -5.717603E+05  6.282761E+03 -6.639810E+04
       225   3 -1.050228E+05 -3.201196E+05 -6.716949E+04 -6.254051E+05 -2.547707E+04 -7.370524E+04
       225   4  4.377841E+03  1.554094E+05  1.125085E+04 -6.286210E+05  3.748844E+04  9.884249E+01
       225   5  3.905229E+03  1.547020E+05  1.305083E+04 -5.721435E+05  6.115967E+03 -6.494568E+03
       225   6  7.556688E+03  1.554408E+05  2.001964E+04 -6.286129E+05 -2.564764E+04 -1.309051E+04
       225   7 -1.478097E+05 -4.901808E+05 -1.038967E+05 -6.261803E+05  3.732531E+04  5.922526E+04
       225   8 -1.583068E+04  6.971360E+04 -6.613244E+02 -5.725265E+05  5.949083E+03  5.340106E+04
       225   9  1.201254E+05  6.312288E+05  1.072133E+05 -6.318230E+05 -2.581875E+04  4.756944E+04
       225  10  1.565418E+05  8.014099E+05  1.263865E+05 -6.310620E+05  1.048673E-09 -2.644240E-09
       225  11  2.364148E+04  2.397006E+05  2.676791E+04 -5.717600E+05  2.740537E-09 -3.131318E-09
       225  12 -1.050250E+05 -3.201256E+05 -6.718093E+04 -6.254066E+05  1.758677E-09  3.841264E-10
       225  13  4.376332E+03  1.554090E+05  1.124821E+04 -6.286210E+05 -8.782726E-10  7.127476E-11
       225  14  3.905177E+03  1.547020E+05  1.305068E+04 -5.721434E+05 -1.258137E-10  1.143748E-09
       225  15  7.555935E+03  1.554405E+05  2.001808E+04 -6.286131E+05  1.984073E-10  4.549664E-10
       225  16 -1.478121E+05 -4.901849E+05 -1.039059E+05 -6.261821E+05 -1.088862E-11  6.752197E-10
       225  17 -1.583148E+04  6.971053E+04 -6.667505E+02 -5.725268E+05 -1.723006E-09  3.631440E-09
       225  18  1.201241E+05  6.312262E+05  1.072079E+05 -6.318220E+05  6.875943E-10  2.225646E-09
       225  19  1.565442E+05  8.014140E+05  1.263957E+05 -6.310638E+05 -3.765193E+04  5.908733E+04
       225  20  2.364270E+04  2.397054E+05  2.677627E+04 -5.717603E+05 -6.282761E+03  6.639810E+04
       225  21 -1.050228E+05 -3.201196E+05 -6.716949E+04 -6.254051E+05  2.547707E+04  7.370524E+04
       225  22  4.377841E+03  1.554094E+05  1.125085E+04 -6.286210E+05 -3.748844E+04 -9.884249E+01
       225  23  3.905229E+03  1.547020E+05  1.305083E+04 -5.721435E+05 -6.115967E+03  6.494568E+03
       225  24  7.556688E+03  1.554408E+05  2.001964E+04 -6.286129E+05  2.564764E+04  1.309051E+04
       225  25 -1.478097E+05 -4.901808E+05 -1.038967E+05 -6.261803E+05 -3.732531E+04 -5.922526E+04
       225  26 -1.583068E+04  6.971360E+04 -6.613244E+02 -5.725265E+05 -5.949083E+03 -5.340106E+04
       225  27  1.201254E+05  6.312288E+05  1.072133E+05 -6.318230E+05  2.581875E+04 -4.756944E+04
       226   1 -1.897637E+05 -6.774956E+05 -1.258452E+05 -6.287546E+05 -4.643378E+04 -7.948449E+04
       226   2 -3.092396E+05 -1.237346E+06 -2.326515E+05 -5.449327E+05 -5.645098E+04 -1.388673E+04
       226   3 -4.001622E+05 -1.798477E+06 -3.751408E+05 -5.712071E+05 -1.965562E+04  5.170441E+04
       226   4  7.673011E+03  1.580946E+05  2.551598E+04 -6.279850E+05 -4.660379E+04 -1.656575E+04
       226   5  2.427242E+04  1.509446E+05  4.494572E+04 -5.728711E+05 -5.637562E+04 -3.961165E+04
       226   6  8.479302E+04  1.575784E+05  9.026810E+04 -6.278127E+05 -1.938904E+04 -6.260458E+04
       226   7  2.050727E+05  9.943731E+05  1.768644E+05 -6.272137E+05 -4.677349E+04  4.643543E+04
       226   8  3.576691E+05  1.541081E+06  3.224486E+05 -6.008714E+05 -5.629804E+04 -6.539296E+04
       226   9  5.694906E+05  2.117186E+06  5.554600E+05 -6.845942E+05 -1.910215E+04 -1.772725E+05
       226  10 -1.897677E+05 -6.775029E+05 -1.258611E+05 -6.287575E+05  2.253227E-09  7.218383E-10
       226  11 -3.092431E+05 -1.237347E+06 -2.326579E+05 -5.449334E+05  1.725515E-09 -1.510584E-09
       226  12 -4.001633E+05 -1.798480E+06 -3.751466E+05 -5.712063E+05  1.712117E-10 -7.874077E-10
       226  13  7.670604E+03  1.580937E+05  2.551138E+04 -6.279857E+05  1.986175E-09  1.389638E-10
       226  14  2.426859E+04  1.509421E+05  4.493679E+04 -5.728729E+05  1.184304E-09  9.726343E-10
       226  15  8.479156E+04  1.575741E+05  9.026003E+04 -6.278136E+05  7.633490E-10  1.484180E-10
       226  16  2.050697E+05  9.943702E+05  1.768563E+05 -6.272120E+05 -2.000611E-10 -2.244428E-09
       226  17  3.576645E+05  1.541075E+06  3.224346E+05 -6.008744E+05  4.161443E-11  2.530524E-09
       226  18  5.694818E+05  2.117152E+06  5.554005E+05 -6.845969E+05  2.598349E-10  2.607854E-09
       226  19 -1.897637E+05 -6.774956E+05 -1.258452E+05 -6.287546E+05  4.643378E+04  7.948449E+04
       226  20 -3.092396E+05 -1.237346E+06 -2.326515E+05 -5.449327E+05  5.645098E+04  1.388673E+04
       226  21 -4.001622E+05 -1.798477E+06 -3.751408E+05 -5.712071E+05  1.965562E+04 -5.170441E+04
       226  22  7.673011E+03  1.580946E+05  2.551598E+04 -6.279850E+05  4.660379E+04  1.656575E+04
       226  23  2.427242E+04  1.509446E+05  4.494572E+04 -5.728711E+05  5.637562E+04  3.961165E+04
       226  24  8.479302E+04  1.575784E+05  9.026810E+04 -6.278127E+05  1.938904E+04  6.260458E+04
       226  25  2.050727E+05  9.943731E+05  1.768644E+05 -6.272137E+05  4.677349E+04 -4.643543E+04
       226  26  3.576691E+05  1.541081E+06  3.224486E+05 -6.008714E+05  5.629804E+04  6.539296E+04
       226  27  5.694906E+05  2.117186E+06  5.554600E+05 -6.845942E+05  1.910215E+04  1.772725E+05
       227   1 -1.192165E+06 -5.753570E+05 -3.261768E+05 -4.918448E+05 -1.481853E+05 -4.274202E+04
       227   2 -1.117172E+06 -4.297001E+05 -2.026700E+05 -4.601591E+05 -9.246600E+04  7.984834E+03
       227   3 -1.062876E+06 -3.608048E+05 -1.454521E+05 -4.278762E+05 -2.917748E+04  3.864108E+04
       227   4 -4.488866E+05 -2.321699E+05 -1.230741E+05 -2.222359E+05 -8.420324E+04 -1.870107E+04
       227   5 -4.353744E+05 -1.500961E+05 -5.762474E+04 -2.402708E+05 -6.403482E+04  1.866308E+04
       227   6 -4.354786E+05 -1.376948E+05 -3.022564E+04 -2.577219E+05 -3.631153E+04  3.595555E+04
       227   7  2.949410E+05  1.111381E+05  7.999342E+04  4.769231E+04 -2.013849E+04  5.387728E+03
       227   8  2.469037E+05  1.295805E+05  8.739757E+04 -2.014790E+04 -3.557019E+04  2.935736E+04
       227   9  1.923358E+05  8.544944E+04  8.498761E+04 -8.740777E+04 -4.345333E+04  3.326723E+04
       227  10 -1.192190E+06 -5.753649E+05 -3.262216E+05 -4.918500E+05  2.251232E-09  1.014162E-09
       227  11 -1.117181E+06 -4.297024E+05 -2.026862E+05 -4.601585E+05 -7.279380E-09 -3.986701E-09
       227  12 -1.062877E+06 -3.608066E+05 -1.454565E+05 -4.278753E+05 -7.089817E-09 -2.757276E-09
       227  13 -4.488943E+05 -2.321722E+05 -1.230881E+05 -2.222372E+05 -2.564211E-09 -1.123858E-09
       227  14 -4.353789E+05 -1.500976E+05 -5.763310E+04 -2.402699E+05 -6.769030E-09 -3.596057E-09
       227  15 -4.354804E+05 -1.376966E+05 -3.023055E+04 -2.577208E+05 -2.130178E-09 -3.302356E-09
       227  16  2.949405E+05  1.111379E+05  7.999260E+04  4.769240E+04 -7.545478E-09 -2.367869E-09
       227  17  2.469022E+05  1.295792E+05  8.739357E+04 -2.014706E+04 -6.807249E-09 -2.073987E-09
       227  18  1.923335E+05  8.544775E+04  8.498198E+04 -8.740661E+04  1.117618E-09 -1.100603E-09
       227  19 -1.192165E+06 -5.753570E+05 -3.261768E+05 -4.918448E+05  1.481853E+05  4.274202E+04
       227  20 -1.117172E+06 -4.297001E+05 -2.026700E+05 -4.601591E+05  9.246600E+04 -7.984834E+03
       227  21 -1.062876E+06 -3.608048E+05 -1.454521E+05 -4.278762E+05  2.917748E+04 -3.864108E+04
       227  22 -4.488866E+05 -2.321699E+05 -1.230741E+05 -2.222359E+05  8.420324E+04  1.870107E+04
       227  23 -4.353744E+05 -1.500961E+05 -5.762474E+04 -2.402708E+05  6.403482E+04 -1.866308E+04
       227  24 -4.354786E+05 -1.376948E+05 -3.022564E+04 -2.577219E+05  3.631153E+04 -3.595555E+04
       227  25  2.949410E+05  1.111381E+05  7.999342E+04  4.769231E+04  2.013849E+04 -5.387728E+03
       227  26  2.469037E+05  1.295805E+05  8.739757E+04 -2.014790E+04  3.557019E+04 -2.935736E+04
       227  27  1.923358E+05  8.544944E+04  8.498761E+04 -8.740777E+04  4.345333E+04 -3.326723E+04
       228   1 -1.000020E+06 -3.462622E+05 -1.265782E+05 -4.171617E+05 -2.691707E+04  3.634926E+04
       228   2 -9.234997E+05 -3.041544E+05 -9.784104E+04 -3.869379E+05 -1.626791E+04  3.612105E+04
       228   3 -8.367104E+05 -2.789356E+05 -7.703667E+04 -3.708411E+05 -4.929908E+03  3.405760E+04
       228   4 -4.317522E+05 -1.381028E+05 -2.270071E+04 -2.563670E+05 -3.186890E+04  3.448460E+04
       228   5 -4.368461E+05 -1.275246E+05 -1.192697E+04 -2.502187E+05 -2.446780E+04  3.303796E+04
       228   6 -4.310312E+05 -1.331891E+05 -6.505402E+03 -2.581998E+05 -1.637937E+04  2.975636E+04
       228   7  1.368500E+05  7.008686E+04  8.116355E+04 -9.543586E+04 -3.682551E+04  3.261809E+04
       228   8  5.005833E+04  4.912883E+04  7.397986E+04 -1.133991E+05 -3.267454E+04  2.995227E+04
       228   9 -2.517318E+04  1.257471E+04  6.402265E+04 -1.454887E+05 -2.783693E+04  2.545211E+04
       228  10 -1.000021E+06 -3.462638E+05 -1.265820E+05 -4.171609E+05  3.256065E-09  3.210036E-10
       228  11 -9.235004E+05 -3.041559E+05 -9.784399E+04 -3.869374E+05 -1.954140E-09 -9.700111E-11
       228  12 -8.367107E+05 -2.789368E+05 -7.703890E+04 -3.708410E+05 -1.711610E-09  2.975109E-10
       228  13 -4.317536E+05 -1.381043E+05 -2.270486E+04 -2.563661E+05 -6.262526E-10 -1.368130E-09
       228  14 -4.368470E+05 -1.275259E+05 -1.193015E+04 -2.502180E+05 -3.471683E-09 -8.930930E-10
       228  15 -4.310318E+05 -1.331901E+05 -6.507570E+03 -2.581995E+05 -1.519198E-09 -6.566902E-10
       228  16  1.368483E+05  7.008536E+04  8.115900E+04 -9.543490E+04 -1.151900E-09 -2.752394E-09
       228  17  5.005695E+04  4.912758E+04  7.397617E+04 -1.133983E+05  4.513036E-10 -1.852682E-09
       228  18 -2.517419E+04  1.257381E+04  6.401998E+04 -1.454881E+05  1.752322E-09 -1.630067E-09
       228  19 -1.000020E+06 -3.462622E+05 -1.265782E+05 -4.171617E+05  2.691707E+04 -3.634926E+04
       228  20 -9.234997E+05 -3.041544E+05 -9.784104E+04 -3.869379E+05  1.626791E+04 -3.612105E+04
       228  21 -8.367104E+05 -2.789356E+05 -7.703667E+04 -3.708411E+05  4.929908E+03 -3.405760E+04
       228  22 -4.317522E+05 -1.381028E+05 -2.270071E+04 -2.563670E+05  3.186890E+04 -3.448460E+04
       228  23 -4.368461E+05 -1.275246E+05 -1.192697E+04 -2.502187E+05  2.446780E+04 -3.303796E+04
       228  24 -4.310312E+05 -1.331891E+05 -6.505402E+03 -2.581998E+05  1.637937E+04 -2.975636E+04
       228  25  1.368500E+05  7.008686E+04  8.116355E+04 -9.543586E+04  3.682551E+04 -3.261809E+04
       228  26  5.005833E+04  4.912883E+04  7.397986E+04 -1.133991E+05  3.267454E+04 -2.995227E+04
       228  27 -2.517318E+04  1.257471E+04  6.402265E+04 -1.454887E+05  2.783693E+04 -2.545211E+04
       229   1 -7.828204E+05 -2.600201E+05 -6.570190E+04 -3.562641E+05 -2.802637E+03  3.052485E+04
       229   2 -7.067187E+05 -2.236176E+05 -4.918657E+04 -3.258592E+05  1.253134E+03  2.471028E+04
       229   3 -6.179091E+05 -2.004563E+05 -3.394962E+04 -3.103206E+05  5.371068E+03  1.872642E+04
       229   4 -4.307130E+05 -1.332365E+05 -4.886456E+03 -2.580865E+05 -1.405705E+04  2.629795E+04
       229   5 -4.370721E+05 -1.265550E+05 -2.687742E+03 -2.506827E+05 -1.030106E+04  2.037221E+04
       229   6 -4.306712E+05 -1.330553E+05 -1.529759E+03 -2.581473E+05 -6.483155E+03  1.427716E+04
       229   7 -7.847386E+04 -6.440711E+03  5.592588E+04 -1.598569E+05 -2.531826E+04  2.206852E+04
       229   8 -1.673494E+05 -2.948572E+04  4.380914E+04 -1.754760E+05 -2.186053E+04  1.603218E+04
       229   9 -2.433977E+05 -6.565147E+04  3.088912E+04 -2.059598E+05 -1.834106E+04  9.826529E+03
       229  10 -7.828206E+05 -2.600211E+05 -6.570366E+04 -3.562640E+05  2.661100E-08  1.163819E-08
       229  11 -7.067189E+05 -2.236183E+05 -4.918772E+04 -3.258592E+05  6.687078E-09  2.755231E-09
       229  12 -6.179093E+05 -2.004567E+05 -3.395034E+04 -3.103207E+05 -2.132476E-08 -7.727282E-09
       229  13 -4.307134E+05 -1.332373E+05 -4.888127E+03 -2.580862E+05  2.117581E-09  5.827226E-10
       229  14 -4.370723E+05 -1.265555E+05 -2.688721E+03 -2.506825E+05  4.815148E-09  2.864782E-09
       229  15 -4.306713E+05 -1.330555E+05 -1.530221E+03 -2.581473E+05  2.141053E-09  1.776653E-09
       229  16 -7.847468E+04 -6.441406E+03  5.592376E+04 -1.598564E+05 -2.479742E-08 -9.856621E-09
       229  17 -1.673500E+05 -2.948612E+04  4.380776E+04 -1.754757E+05  5.847529E-09  2.786811E-09
       229  18 -2.433981E+05 -6.565166E+04  3.088831E+04 -2.059597E+05  2.522220E-08  1.162692E-08
       229  19 -7.828204E+05 -2.600201E+05 -6.570190E+04 -3.562641E+05  2.802637E+03 -3.052485E+04
       229  20 -7.067187E+05 -2.236176E+05 -4.918657E+04 -3.258592E+05 -1.253134E+03 -2.471028E+04
       229  21 -6.179091E+05 -2.004563E+05 -3.394962E+04 -3.103206E+05 -5.371068E+03 -1.872642E+04
       229  22 -4.307130E+05 -1.332365E+05 -4.886456E+03 -2.580865E+05  1.405705E+04 -2.629795E+04
       229  23 -4.370721E+05 -1.265550E+05 -2.687742E+03 -2.506827E+05  1.030106E+04 -2.037221E+04
       229  24 -4.306712E+05 -1.330553E+05 -1.529759E+03 -2.581473E+05  6.483155E+03 -1.427716E+04
       229  25 -7.847386E+04 -6.440711E+03  5.592588E+04 -1.598569E+05  2.531826E+04 -2.206852E+04
       229  26 -1.673494E+05 -2.948572E+04  4.380914E+04 -1.754760E+05  2.186053E+04 -1.603218E+04
       229  27 -2.433977E+05 -6.565147E+04  3.088912E+04 -2.059598E+05  1.834106E+04 -9.826529E+03
       230   1 -5.646249E+05 -1.812422E+05 -2.403522E+04 -2.955056E+05  7.041532E+03  1.491121E+04
       230   2 -4.886035E+05 -1.450781E+05 -9.636768E+03 -2.650366E+05  9.963601E+03  8.385885E+03
       230   3 -3.996281E+05 -1.219310E+05  4.452130E+03 -2.494539E+05  1.289066E+04  1.846516E+03
       230   4 -4.306326E+05 -1.330612E+05 -1.190589E+03 -2.581347E+05 -4.796843E+03  1.046839E+04
       230   5 -4.371059E+05 -1.265568E+05 -7.809913E+02 -2.506881E+05 -1.900470E+03  3.933662E+03
       230   6 -4.306296E+05 -1.330660E+05 -6.616912E+02 -2.581313E+05  1.000827E+03 -2.615118E+03
       230   7 -2.966194E+05 -8.487771E+04  2.165455E+04 -2.207557E+05 -1.663806E+04  6.024511E+03
       230   8 -3.856049E+05 -1.080350E+05  8.075393E+03 -2.363384E+05 -1.376565E+04 -5.189767E+02
       230   9 -4.616297E+05 -1.442007E+05 -5.774931E+03 -2.668082E+05 -1.088838E+04 -7.076517E+03
       230  10 -5.646250E+05 -1.812425E+05 -2.403573E+04 -2.955057E+05  3.033216E-08  1.136370E-08
       230  11 -4.886036E+05 -1.450782E+05 -9.637087E+03 -2.650367E+05 -9.758404E-10  7.951161E-10
       230  12 -3.996283E+05 -1.219311E+05  4.451811E+03 -2.494539E+05 -3.044238E-08 -1.143641E-08
       230  13 -4.306326E+05 -1.330613E+05 -1.190838E+03 -2.581347E+05 -1.373254E-09  1.256763E-09
       230  14 -4.371059E+05 -1.265568E+05 -7.810271E+02 -2.506881E+05 -3.562155E-09 -1.911904E-10
       230  15 -4.306296E+05 -1.330660E+05 -6.617060E+02 -2.581313E+05 -7.668287E-09 -1.581864E-09
       230  16 -2.966197E+05 -8.487782E+04  2.165396E+04 -2.207556E+05 -3.060635E-08 -8.747882E-09
       230  17 -3.856051E+05 -1.080351E+05  8.075036E+03 -2.363384E+05 -4.680731E-09 -1.696357E-10
       230  18 -4.616298E+05 -1.442008E+05 -5.775249E+03 -2.668082E+05  1.960667E-08  6.786733E-09
       230  19 -5.646249E+05 -1.812422E+05 -2.403522E+04 -2.955056E+05 -7.041532E+03 -1.491121E+04
       230  20 -4.886035E+05 -1.450781E+05 -9.636768E+03 -2.650366E+05 -9.963601E+03 -8.385885E+03
       230  21 -3.996281E+05 -1.219310E+05  4.452130E+03 -2.494539E+05 -1.289066E+04 -1.846516E+03
       230  22 -4.306326E+05 -1.330612E+05 -1.190589E+03 -2.581347E+05  4.796843E+03 -1.046839E+04
       230  23 -4.371059E+05 -1.265568E+05 -7.809913E+02 -2.506881E+05  1.900470E+03 -3.933662E+03
       230  24 -4.306296E+05 -1.330660E+05 -6.616912E+02 -2.581313E+05 -1.000827E+03  2.615118E+03
       230  25 -2.966194E+05 -8.487771E+04  2.165455E+04 -2.207557E+05  1.663806E+04 -6.024511E+03
       230  26 -3.856049E+05 -1.080350E+05  8.075393E+03 -2.363384E+05  1.376565E+04  5.189767E+02
       230  27 -4.616297E+05 -1.442007E+05 -5.774931E+03 -2.668082E+05  1.088838E+04  7.076517E+03
       231   1 -3.463981E+05 -1.026949E+05  1.398626E+04 -2.346253E+05  1.446805E+04 -2.012434E+03
       231   2 -2.703740E+05 -6.653702E+04  2.770281E+04 -2.041582E+05  1.741888E+04 -8.539807E+03
       231   3 -1.813993E+05 -4.338806E+04  4.109326E+04 -1.885771E+05  2.036406E+04 -1.504966E+04
       231   4 -4.306341E+05 -1.330669E+05 -6.904331E+02 -2.581317E+05  2.578026E+03 -6.474304E+03
       231   5 -4.371074E+05 -1.265595E+05 -9.412691E+02 -2.506890E+05  5.558679E+03 -1.299133E+04
       231   6 -4.306430E+05 -1.330676E+05 -1.542080E+03 -2.581353E+05  8.533646E+03 -1.949089E+04
       231   7 -5.148613E+05 -1.634377E+05 -1.536649E+04 -2.816347E+05 -9.310160E+03 -1.093548E+04
       231   8 -6.038110E+05 -1.865791E+05 -2.958554E+04 -2.972081E+05 -6.298130E+03 -1.744158E+04
       231   9 -6.798230E+05 -2.227419E+05 -4.417926E+04 -3.276680E+05 -3.291838E+03 -2.393027E+04
       231  10 -3.463983E+05 -1.026950E+05  1.398585E+04 -2.346253E+05 -1.959554E-08 -6.686834E-09
       231  11 -2.703743E+05 -6.653718E+04  2.770211E+04 -2.041581E+05  1.391929E-08  7.863725E-09
       231  12 -1.813998E+05 -4.338842E+04  4.109205E+04 -1.885768E+05  4.768373E-08  1.974078E-08
       231  13 -4.306341E+05 -1.330669E+05 -6.905243E+02 -2.581317E+05 -5.853267E-09 -2.243801E-09
       231  14 -4.371075E+05 -1.265597E+05 -9.416443E+02 -2.506890E+05  9.029445E-10  1.116398E-09
       231  15 -4.306432E+05 -1.330680E+05 -1.542931E+03 -2.581352E+05  9.007030E-09  4.142534E-09
       231  16 -5.148614E+05 -1.634379E+05 -1.536688E+04 -2.816348E+05  9.757546E-09  1.883358E-09
       231  17 -6.038112E+05 -1.865794E+05 -2.958619E+04 -2.972082E+05 -1.386251E-08 -6.271838E-09
       231  18 -6.798231E+05 -2.227425E+05 -4.418036E+04 -3.276681E+05 -3.305191E-08 -1.063557E-08
       231  19 -3.463981E+05 -1.026949E+05  1.398626E+04 -2.346253E+05 -1.446805E+04  2.012434E+03
       231  20 -2.703740E+05 -6.653702E+04  2.770281E+04 -2.041582E+05 -1.741888E+04  8.539807E+03
       231  21 -1.813993E+05 -4.338806E+04  4.109326E+04 -1.885771E+05 -2.036406E+04  1.504966E+04
       231  22 -4.306341E+05 -1.330669E+05 -6.904331E+02 -2.581317E+05 -2.578026E+03  6.474304E+03
       231  23 -4.371074E+05 -1.265595E+05 -9.412691E+02 -2.506890E+05 -5.558679E+03  1.299133E+04
       231  24 -4.306430E+05 -1.330676E+05 -1.542080E+03 -2.581353E+05 -8.533646E+03  1.949089E+04
       231  25 -5.148613E+05 -1.634377E+05 -1.536649E+04 -2.816347E+05  9.310160E+03  1.093548E+04
       231  26 -6.038110E+05 -1.865791E+05 -2.958554E+04 -2.972081E+05  6.298130E+03  1.744158E+04
       231  27 -6.798230E+05 -2.227419E+05 -4.417926E+04 -3.276680E+05  3.291838E+03  2.393027E+04
       232   1 -1.282011E+05 -2.417356E+04  5.019330E+04 -1.737959E+05  2.213700E+04 -1.882194E+04
       232   2 -5.215622E+04  1.198224E+04  6.270411E+04 -1.433122E+05  2.605899E+04 -2.485533E+04
       232   3  3.663831E+04  3.496054E+04  7.409361E+04 -1.276882E+05  2.991048E+04 -3.069502E+04
       232   4 -4.306997E+05 -1.330622E+05 -2.014304E+03 -2.581537E+05  1.028842E+04 -2.327084E+04
       232   5 -4.370668E+05 -1.265616E+05 -3.592235E+03 -2.506814E+05  1.455175E+04 -2.917805E+04
       232   6 -4.307587E+05 -1.333076E+05 -6.562680E+03 -2.580723E+05  1.874433E+04 -3.489154E+04
       232   7 -7.331009E+05 -2.419418E+05 -5.422393E+04 -3.424729E+05 -1.554012E+03 -2.771744E+04
       232   8 -8.218178E+05 -2.650901E+05 -6.989169E+04 -3.579877E+05  3.052153E+03 -3.349791E+04
       232   9 -8.979187E+05 -3.015525E+05 -8.722339E+04 -3.883634E+05  7.587240E+03 -3.908468E+04
       232  10 -1.282017E+05 -2.417407E+04  5.019171E+04 -1.737956E+05 -3.582619E-08 -1.231690E-08
       232  11 -5.215712E+04  1.198139E+04  6.270168E+04 -1.433117E+05 -1.956466E-08 -7.760197E-09
       232  12  3.663709E+04  3.495929E+04  7.409016E+04 -1.276875E+05  1.194443E-08  2.296338E-09
       232  13 -4.307000E+05 -1.330628E+05 -2.015521E+03 -2.581535E+05  5.542644E-09  4.309221E-09
       232  14 -4.370673E+05 -1.265626E+05 -3.594232E+03 -2.506810E+05 -1.675952E-09  1.488926E-09
       232  15 -4.307594E+05 -1.333090E+05 -6.565627E+03 -2.580718E+05  5.090896E-09 -1.668270E-10
       232  16 -7.331011E+05 -2.419426E+05 -5.422538E+04 -3.424730E+05  4.636462E-08  2.072019E-08
       232  17 -8.218181E+05 -2.650914E+05 -6.989382E+04 -3.579876E+05  1.777532E-08  8.380326E-09
       232  18 -8.979191E+05 -3.015542E+05 -8.722637E+04 -3.883631E+05 -4.210910E-09 -1.337054E-09
       232  19 -1.282011E+05 -2.417356E+04  5.019330E+04 -1.737959E+05 -2.213700E+04  1.882194E+04
       232  20 -5.215622E+04  1.198224E+04  6.270411E+04 -1.433122E+05 -2.605899E+04  2.485533E+04
       232  21  3.663831E+04  3.496054E+04  7.409361E+04 -1.276882E+05 -2.991048E+04  3.069502E+04
       232  22 -4.306997E+05 -1.330622E+05 -2.014304E+03 -2.581537E+05 -1.028842E+04  2.327084E+04
       232  23 -4.370668E+05 -1.265616E+05 -3.592235E+03 -2.506814E+05 -1.455175E+04  2.917805E+04
       232  24 -4.307587E+05 -1.333076E+05 -6.562680E+03 -2.580723E+05 -1.874433E+04  3.489154E+04
       232  25 -7.331009E+05 -2.419418E+05 -5.422393E+04 -3.424729E+05  1.554012E+03  2.771744E+04
       232  26 -8.218178E+05 -2.650901E+05 -6.989169E+04 -3.579877E+05 -3.052153E+03  3.349791E+04
       232  27 -8.979187E+05 -3.015525E+05 -8.722339E+04 -3.883634E+05 -7.587240E+03  3.908468E+04
       233   1  8.992320E+04  5.387850E+04  8.164385E+04 -1.134889E+05  3.275900E+04 -3.393450E+04
       233   2  1.649082E+05  9.053635E+04  8.991539E+04 -8.080919E+04  3.915024E+04 -3.765765E+04
       233   3  2.508358E+05  1.105588E+05  9.393095E+04 -6.201084E+04  4.475797E+04 -3.928765E+04
       233   4 -4.311787E+05 -1.332456E+05 -8.743206E+03 -2.582269E+05  2.136945E+04 -3.821636E+04
       233   5 -4.367629E+05 -1.278586E+05 -1.604182E+04 -2.500523E+05  3.146833E+04 -4.054937E+04
       233   6 -4.321497E+05 -1.398477E+05 -3.053989E+04 -2.557640E+05  4.078267E+04 -4.078830E+04
       233   7 -9.519984E+05 -3.203459E+05 -9.913933E+04 -4.028530E+05  9.989965E+03 -4.249449E+04
       233   8 -1.038054E+06 -3.462188E+05 -1.220111E+05 -4.191427E+05  2.379431E+04 -4.343809E+04
       233   9 -1.114645E+06 -3.902070E+05 -1.550274E+05 -4.493175E+05  3.681203E+04 -4.228715E+04
       233  10  8.992174E+04  5.387697E+04  8.163967E+04 -1.134880E+05  8.185963E-09 -2.156879E-10
       233  11  1.649061E+05  9.053442E+04  8.990985E+04 -8.080800E+04  8.381021E-10 -2.952662E-09
       233  12  2.508332E+05  1.105566E+05  9.392429E+04 -6.200942E+04 -1.285940E-09 -2.120870E-09
       233  13 -4.311796E+05 -1.332473E+05 -8.746808E+03 -2.582262E+05  6.379341E-09 -3.527008E-10
       233  14 -4.367644E+05 -1.278607E+05 -1.604677E+04 -2.500512E+05  2.196669E-09 -9.467380E-10
       233  15 -4.321519E+05 -1.398499E+05 -3.054614E+04 -2.557626E+05  1.602944E-09 -1.522702E-09
       233  16 -9.519990E+05 -3.203479E+05 -9.914291E+04 -4.028527E+05  3.349365E-09  5.293484E-10
       233  17 -1.038055E+06 -3.462210E+05 -1.220157E+05 -4.191419E+05  9.026523E-10 -8.018905E-11
       233  18 -1.114647E+06 -3.902092E+05 -1.550333E+05 -4.493162E+05  2.874041E-09 -1.552819E-09
       233  19  8.992320E+04  5.387850E+04  8.164385E+04 -1.134889E+05 -3.275900E+04  3.393450E+04
       233  20  1.649082E+05  9.053635E+04  8.991539E+04 -8.080919E+04 -3.915024E+04  3.765765E+04
       233  21  2.508358E+05  1.105588E+05  9.393095E+04 -6.201084E+04 -4.475797E+04  3.928765E+04
       233  22 -4.311787E+05 -1.332456E+05 -8.743206E+03 -2.582269E+05 -2.136945E+04  3.821636E+04
       233  23 -4.367629E+05 -1.278586E+05 -1.604182E+04 -2.500523E+05 -3.146833E+04  4.054937E+04
       233  24 -4.321497E+05 -1.398477E+05 -3.053989E+04 -2.557640E+05 -4.078267E+04  4.078830E+04
       233  25 -9.519984E+05 -3.203459E+05 -9.913933E+04 -4.028530E+05 -9.989965E+03  4.249449E+04
       233  26 -1.038054E+06 -3.462188E+05 -1.220111E+05 -4.191427E+05 -2.379431E+04  4.343809E+04
       233  27 -1.114645E+06 -3.902070E+05 -1.550274E+05 -4.493175E+05 -3.681203E+04  4.228715E+04
       234   1  3.068985E+05  1.243912E+05  9.539923E+04 -5.643198E+04  5.281222E+04 -3.921190E+04
       234   2  3.544841E+05  1.710459E+05  9.057075E+04  2.403369E+04  4.959304E+04 -3.149565E+04
       234   3  3.875522E+05  1.363579E+05  6.676921E+04  1.101797E+05  3.775699E+04 -8.918312E+02
       234   4 -4.371136E+05 -1.393402E+05 -4.066397E+04 -2.576395E+05  4.634114E+04 -4.165144E+04
       234   5 -4.348368E+05 -1.581475E+05 -7.752526E+04 -2.366046E+05  8.374140E+04 -1.866012E+04
       234   6 -4.551733E+05 -2.664188E+05 -1.655810E+05 -2.098865E+05  1.125165E+05  2.723274E+04
       234   7 -1.180544E+06 -4.030256E+05 -1.767469E+05 -4.586249E+05  3.987835E+04 -4.408802E+04
       234   8 -1.223495E+06 -4.872272E+05 -2.456464E+05 -4.969131E+05  1.178426E+05 -5.847902E+03
       234   9 -1.297145E+06 -6.689922E+05 -3.979627E+05 -5.295017E+05  1.871631E+05  5.528852E+04
       234  10  3.068951E+05  1.243888E+05  9.539110E+04 -5.643031E+04 -1.090686E-09 -8.390554E-10
       234  11  3.544812E+05  1.710442E+05  9.056426E+04  2.403495E+04 -5.280247E-10  1.846218E-10
       234  12  3.875507E+05  1.363576E+05  6.676653E+04  1.101797E+05 -3.079584E-10 -6.071991E-10
       234  13 -4.371164E+05 -1.393426E+05 -4.067126E+04 -2.576379E+05  1.628731E-09 -1.973495E-09
       234  14 -4.348444E+05 -1.581498E+05 -7.753910E+04 -2.366033E+05 -4.877618E-11  2.788618E-09
       234  15 -4.551871E+05 -2.664230E+05 -1.656062E+05 -2.098889E+05 -9.607762E-10 -7.166883E-10
       234  16 -1.180547E+06 -4.030282E+05 -1.767535E+05 -4.586234E+05  2.793748E-09 -1.903972E-09
       234  17 -1.223510E+06 -4.872310E+05 -2.456727E+05 -4.969126E+05  1.581370E-10  8.856664E-10
       234  18 -1.297184E+06 -6.690049E+05 -3.980345E+05 -5.295101E+05  4.346365E-10  8.166339E-10
       234  19  3.068985E+05  1.243912E+05  9.539923E+04 -5.643198E+04 -5.281222E+04  3.921190E+04
       234  20  3.544841E+05  1.710459E+05  9.057075E+04  2.403369E+04 -4.959304E+04  3.149565E+04
       234  21  3.875522E+05  1.363579E+05  6.676921E+04  1.101797E+05 -3.775699E+04  8.918312E+02
       234  22 -4.371136E+05 -1.393402E+05 -4.066397E+04 -2.576395E+05 -4.634114E+04  4.165144E+04
       234  23 -4.348368E+05 -1.581475E+05 -7.752526E+04 -2.366046E+05 -8.374140E+04  1.866012E+04
       234  24 -4.551733E+05 -2.664188E+05 -1.655810E+05 -2.098865E+05 -1.125165E+05 -2.723274E+04
       234  25 -1.180544E+06 -4.030256E+05 -1.767469E+05 -4.586249E+05 -3.987835E+04  4.408802E+04
       234  26 -1.223495E+06 -4.872272E+05 -2.456464E+05 -4.969131E+05 -1.178426E+05  5.847902E+03
       234  27 -1.297145E+06 -6.689922E+05 -3.979627E+05 -5.295017E+05 -1.871631E+05 -5.528852E+04
       235   1  1.182723E+06  1.589346E+05  1.373413E+05  1.372635E+03  2.079871E+04 -1.401885E+04
       235   2  1.137213E+06  1.994280E+05  1.292406E+05  2.578716E+04  2.117421E+03 -4.802584E+04
       235   3  1.084988E+06  2.031428E+05  1.241451E+05  5.839302E+04 -1.660102E+04 -5.982451E+04
       235   4  1.931718E+05 -8.453155E+04 -9.244493E+04  5.460453E+04 -6.472411E+04 -1.418675E+04
       235   5  2.002049E+05 -2.265005E+04 -4.551507E+04  5.042116E+04 -4.125120E+04 -4.812361E+04
       235   6  1.931925E+05 -4.894630E+03 -2.484224E+04  5.442917E+04 -1.781645E+04 -5.983505E+04
       235   7 -7.954550E+05 -3.280518E+05 -3.222680E+05  1.077507E+05 -1.501117E+05 -1.436944E+04
       235   8 -7.359494E+05 -2.447753E+05 -2.203008E+05  7.501664E+04 -8.455609E+04 -4.822489E+04
       235   9 -6.978190E+05 -2.129734E+05 -1.738541E+05  5.047073E+04 -1.903019E+04 -5.984558E+04
       235  10  1.182723E+06  1.589342E+05  1.373401E+05  1.372870E+03  5.870055E-09 -1.504521E-09
       235  11  1.137213E+06  1.994256E+05  1.292362E+05  2.578724E+04  1.610978E-09 -5.977758E-09
       235  12  1.084987E+06  2.031389E+05  1.241379E+05  5.839222E+04 -1.368550E-09 -3.140577E-09
       235  13  1.931672E+05 -8.453289E+04 -9.245318E+04  5.460379E+04  9.384926E-11  7.987386E-10
       235  14  2.002025E+05 -2.265300E+04 -4.552262E+04  5.041956E+04  1.083285E-09 -3.822618E-09
       235  15  1.931912E+05 -4.898560E+03 -2.484957E+04  5.442831E+04  1.511828E-09 -1.653260E-10
       235  16 -7.954793E+05 -3.280581E+05 -3.223107E+05  1.077489E+05 -6.785882E-09  8.568408E-12
       235  17 -7.359578E+05 -2.447797E+05 -2.203187E+05  7.501336E+04 -2.554578E-09 -7.355900E-09
       235  18 -6.978204E+05 -2.129774E+05 -1.738615E+05  5.046981E+04  2.557730E-09 -6.535961E-09
       235  19  1.182723E+06  1.589346E+05  1.373413E+05  1.372635E+03 -2.079871E+04  1.401885E+04
       235  20  1.137213E+06  1.994280E+05  1.292406E+05  2.578716E+04 -2.117421E+03  4.802584E+04
       235  21  1.084988E+06  2.031428E+05  1.241451E+05  5.839302E+04  1.660102E+04  5.982451E+04
       235  22  1.931718E+05 -8.453155E+04 -9.244493E+04  5.460453E+04  6.472411E+04  1.418675E+04
       235  23  2.002049E+05 -2.265005E+04 -4.551507E+04  5.042116E+04  4.125120E+04  4.812361E+04
       235  24  1.931925E+05 -4.894630E+03 -2.484224E+04  5.442917E+04  1.781645E+04  5.983505E+04
       235  25 -7.954550E+05 -3.280518E+05 -3.222680E+05  1.077507E+05  1.501117E+05  1.436944E+04
       235  26 -7.359494E+05 -2.447753E+05 -2.203008E+05  7.501664E+04  8.455609E+04  4.822489E+04
       235  27 -6.978190E+05 -2.129734E+05 -1.738541E+05  5.047073E+04  1.903019E+04  5.984558E+04
       236   1  1.055644E+06  1.954116E+05  1.225208E+05  5.408651E+04 -1.213859E+04 -5.953967E+04
       236   2  1.007430E+06  1.869266E+05  1.186230E+05  5.063836E+04 -1.139036E+04 -5.968288E+04
       236   3  9.586130E+05  1.764153E+05  1.137366E+05  5.684963E+04 -1.064882E+04 -5.751054E+04
       236   4  1.960200E+05 -4.634041E+03 -1.876735E+04  5.477330E+04 -1.459704E+04 -5.955311E+04
       236   5  1.967166E+05 -8.787730E+02 -1.027605E+04  4.993708E+04 -9.458277E+03 -5.968544E+04
       236   6  1.960450E+05  8.688578E+01 -5.822581E+03  5.476114E+04 -4.326062E+03 -5.750069E+04
       236   7 -6.628737E+05 -2.047176E+05 -1.600770E+05  5.545867E+04 -1.705218E+04 -5.956657E+04
       236   8 -6.133440E+05 -1.887169E+05 -1.391920E+05  4.923635E+04 -7.528617E+03 -5.968801E+04
       236   9 -5.659437E+05 -1.762701E+05 -1.253957E+05  5.267492E+04  1.989226E+03 -5.749087E+04
       236  10  1.055643E+06  1.954078E+05  1.225138E+05  5.408592E+04 -2.345923E-09 -3.957787E-09
       236  11  1.007429E+06  1.869227E+05  1.186161E+05  5.063781E+04 -2.727837E-09  1.758487E-09
       236  12  9.586120E+05  1.764117E+05  1.137301E+05  5.684914E+04  2.299675E-09  1.548752E-09
       236  13  1.960188E+05 -4.637907E+03 -1.877441E+04  5.477260E+04  1.072670E-09 -2.367258E-09
       236  14  1.967156E+05 -8.826226E+02 -1.028291E+04  4.993663E+04  1.073023E-09  3.346008E-10
       236  15  1.960441E+05  8.333002E+01 -5.828830E+03  5.476094E+04 -2.143228E-10 -4.067505E-09
       236  16 -6.628750E+05 -2.047215E+05 -1.600842E+05  5.545785E+04  4.347389E-09  8.006638E-10
       236  17 -6.133450E+05 -1.887207E+05 -1.391988E+05  4.923598E+04  2.554157E-09  2.401727E-09
       236  18 -5.659446E+05 -1.762737E+05 -1.254019E+05  5.267501E+04 -1.574988E-09 -4.246622E-10
       236  19  1.055644E+06  1.954116E+05  1.225208E+05  5.408651E+04  1.213859E+04  5.953967E+04
       236  20  1.007430E+06  1.869266E+05  1.186230E+05  5.063836E+04  1.139036E+04  5.968288E+04
       236  21  9.586130E+05  1.764153E+05  1.137366E+05  5.684963E+04  1.064882E+04  5.751054E+04
       236  22  1.960200E+05 -4.634041E+03 -1.876735E+04  5.477330E+04  1.459704E+04  5.955311E+04
       236  23  1.967166E+05 -8.787730E+02 -1.027605E+04  4.993708E+04  9.458277E+03  5.968544E+04
       236  24  1.960450E+05  8.688578E+01 -5.822581E+03  5.476114E+04  4.326062E+03  5.750069E+04
       236  25 -6.628737E+05 -2.047176E+05 -1.600770E+05  5.545867E+04  1.705218E+04  5.956657E+04
       236  26 -6.133440E+05 -1.887169E+05 -1.391920E+05  4.923635E+04  7.528617E+03  5.968801E+04
       236  27 -5.659437E+05 -1.762701E+05 -1.253957E+05  5.267492E+04 -1.989226E+03  5.749087E+04
       237   1  9.278627E+05  1.691504E+05  1.098781E+05  5.648173E+04 -9.635005E+03 -5.550301E+04
       237   2  8.795001E+05  1.580431E+05  1.038554E+05  5.151050E+04 -8.858186E+03 -5.212138E+04
       237   3  8.310029E+05  1.469019E+05  9.731179E+04  5.633943E+04 -8.083666E+03 -4.849949E+04
       237   4  1.963098E+05  7.429539E+01 -4.410864E+03  5.479383E+04 -3.444685E+03 -5.549259E+04
       237   5  1.964289E+05  2.398612E+02 -2.498729E+03  4.989314E+04 -2.213292E+03 -5.210826E+04
       237   6  1.963319E+05  2.924349E+02 -1.423709E+03  5.479322E+04 -9.841410E+02 -4.848354E+04
       237   7 -5.347097E+05 -1.690281E+05 -1.187125E+05  5.310763E+04  2.738624E+03 -5.548219E+04
       237   8 -4.861769E+05 -1.575862E+05 -1.088636E+05  4.827729E+04  4.424575E+03 -5.209517E+04
       237   9 -4.379373E+05 -1.463367E+05 -1.001684E+05  5.324836E+04  6.108408E+03 -4.846763E+04
       237  10  9.278618E+05  1.691471E+05  1.098721E+05  5.648130E+04 -5.189285E-09  3.041297E-09
       237  11  8.794993E+05  1.580402E+05  1.038501E+05  5.151013E+04  1.653015E-09  3.484682E-09
       237  12  8.310022E+05  1.468993E+05  9.730724E+04  5.633912E+04  6.739492E-09  1.018217E-10
       237  13  1.963090E+05  7.098515E+01 -4.416673E+03  5.479368E+04 -2.308542E-09 -4.768256E-09
       237  14  1.964282E+05  2.369439E+02 -2.503841E+03  4.989304E+04 -2.695394E-09  2.872713E-09
       237  15  1.963313E+05  2.899102E+02 -1.428129E+03  5.479319E+04 -5.770985E-10  4.673026E-09
       237  16 -5.347105E+05 -1.690314E+05 -1.187182E+05  5.310775E+04  2.283457E-09  1.186449E-09
       237  17 -4.861777E+05 -1.575891E+05 -1.088688E+05  4.827747E+04 -8.815256E-10  4.030968E-09
       237  18 -4.379380E+05 -1.463392E+05 -1.001729E+05  5.324860E+04 -5.748851E-09  3.404715E-11
       237  19  9.278627E+05  1.691504E+05  1.098781E+05  5.648173E+04  9.635005E+03  5.550301E+04
       237  20  8.795001E+05  1.580431E+05  1.038554E+05  5.151050E+04  8.858186E+03  5.212138E+04
       237  21  8.310029E+05  1.469019E+05  9.731179E+04  5.633943E+04  8.083666E+03  4.849949E+04
       237  22  1.963098E+05  7.429539E+01 -4.410864E+03  5.479383E+04  3.444685E+03  5.549259E+04
       237  23  1.964289E+05  2.398612E+02 -2.498729E+03  4.989314E+04  2.213292E+03  5.210826E+04
       237  24  1.963319E+05  2.924349E+02 -1.423709E+03  5.479322E+04  9.841410E+02  4.848354E+04
       237  25 -5.347097E+05 -1.690281E+05 -1.187125E+05  5.310763E+04 -2.738624E+03  5.548219E+04
       237  26 -4.861769E+05 -1.575862E+05 -1.088636E+05  4.827729E+04 -4.424575E+03  5.209517E+04
       237  27 -4.379373E+05 -1.463367E+05 -1.001684E+05  5.324836E+04 -6.108408E+03  4.846763E+04
       238   1  8.001817E+05  1.397315E+05  9.264837E+04  5.625516E+04 -7.847873E+03 -4.631543E+04
       238   2  7.518358E+05  1.285499E+05  8.565610E+04  5.124959E+04 -7.604107E+03 -4.257080E+04
       238   3  7.034297E+05  1.174319E+05  7.850766E+04  5.604857E+04 -7.361787E+03 -3.880219E+04
       238   4  1.963713E+05  2.909359E+02 -1.074981E+03  5.479430E+04 -7.641490E+02 -4.629869E+04
       238   5  1.964160E+05  2.716212E+02 -6.028738E+02  4.989177E+04 -4.754316E+02 -4.255265E+04
       238   6  1.963894E+05  3.079146E+02 -3.186220E+02  5.479429E+04 -1.881422E+02 -3.878260E+04
       238   7 -4.070751E+05 -1.391674E+05 -9.480660E+04  5.333464E+04  6.312953E+03 -4.628198E+04
       238   8 -3.586959E+05 -1.280217E+05 -8.686882E+04  4.853497E+04  6.647114E+03 -4.253451E+04
       238   9 -3.103943E+05 -1.168286E+05 -7.915072E+04  5.354088E+04  6.979870E+03 -3.876304E+04
       238  10  8.001810E+05  1.397292E+05  9.264422E+04  5.625487E+04  1.287261E-09 -3.817775E-10
       238  11  7.518353E+05  1.285479E+05  8.565258E+04  5.124933E+04  2.171461E-09  8.147176E-09
       238  12  7.034292E+05  1.174302E+05  7.850473E+04  5.604834E+04  2.521675E-11  5.675796E-09
       238  13  1.963708E+05  2.886337E+02 -1.079010E+03  5.479427E+04 -2.154787E-09  9.769414E-10
       238  14  1.964156E+05  2.696766E+02 -6.062773E+02  4.989175E+04  1.287037E-10  9.777444E-09
       238  15  1.963890E+05  3.062993E+02 -3.214488E+02  5.479429E+04  2.391173E-10  2.694670E-09
       238  16 -4.070758E+05 -1.391697E+05 -9.481070E+04  5.333488E+04 -2.335653E-09  5.702498E-10
       238  17 -3.586964E+05 -1.280237E+05 -8.687230E+04  4.853520E+04 -2.379199E-09  2.222602E-09
       238  18 -3.103948E+05 -1.168302E+05 -7.915363E+04  5.354109E+04 -2.359012E-10  9.656025E-10
       238  19  8.001817E+05  1.397315E+05  9.264837E+04  5.625516E+04  7.847873E+03  4.631543E+04
       238  20  7.518358E+05  1.285499E+05  8.565610E+04  5.124959E+04  7.604107E+03  4.257080E+04
       238  21  7.034297E+05  1.174319E+05  7.850766E+04  5.604857E+04  7.361787E+03  3.880219E+04
       238  22  1.963713E+05  2.909359E+02 -1.074981E+03  5.479430E+04  7.641490E+02  4.629869E+04
       238  23  1.964160E+05  2.716212E+02 -6.028738E+02  4.989177E+04  4.754316E+02  4.255265E+04
       238  24  1.963894E+05  3.079146E+02 -3.186220E+02  5.479429E+04  1.881422E+02  3.878260E+04
       238  25 -4.070751E+05 -1.391674E+05 -9.480660E+04  5.333464E+04 -6.312953E+03  4.628198E+04
       238  26 -3.586959E+05 -1.280217E+05 -8.686882E+04  4.853497E+04 -6.647114E+03  4.253451E+04
       238  27 -3.103943E+05 -1.168286E+05 -7.915072E+04  5.354088E+04 -6.979870E+03  3.876304E+04
       239   1  6.726217E+05  1.102813E+05  7.362394E+04  5.598383E+04 -7.315592E+03 -3.660163E+04
       239   2  6.243122E+05  9.911391E+04  6.636544E+04  5.098076E+04 -7.294741E+03 -3.282237E+04
       239   3  5.759551E+05  8.801391E+04  5.909160E+04  5.578077E+04 -7.274941E+03 -2.904189E+04
       239   4  1.964000E+05  3.125392E+02 -2.204974E+02  5.479395E+04 -1.451550E+02 -3.658138E+04
       239   5  1.964318E+05  2.883467E+02 -6.841928E+01  4.989221E+04 -1.222196E+02 -3.280112E+04
       239   6  1.964139E+05  3.314160E+02  6.692632E+01  5.479393E+04 -1.003337E+02 -2.901964E+04
       239   7 -2.795953E+05 -1.096672E+05 -7.406998E+04  5.360484E+04  7.019996E+03 -3.656115E+04
       239   8 -2.312659E+05 -9.854613E+04 -6.650634E+04  4.880429E+04  7.045549E+03 -3.277988E+04
       239   9 -1.829834E+05 -8.735809E+04 -5.896092E+04  5.380760E+04  7.070056E+03 -2.899740E+04
       239  10  6.726213E+05  1.102798E+05  7.362132E+04  5.598361E+04  1.301109E-08  3.229182E-10
       239  11  6.243118E+05  9.911274E+04  6.636332E+04  5.098057E+04  4.087407E-09 -2.258507E-09
       239  12  5.759548E+05  8.801299E+04  5.908991E+04  5.578060E+04 -6.939081E-09 -2.272887E-09
       239  13  1.963996E+05  3.111021E+02 -2.230124E+02  5.479394E+04  2.274928E-09  7.629288E-09
       239  14  1.964315E+05  2.871913E+02 -7.044134E+01  4.989221E+04 -1.008477E-09  2.605156E-10
       239  15  1.964137E+05  3.305116E+02  6.534362E+01  5.479393E+04 -2.359131E-09 -1.578439E-09
       239  16 -2.795957E+05 -1.096687E+05 -7.407258E+04  5.360504E+04 -1.523670E-08  3.042409E-09
       239  17 -2.312662E+05 -9.854730E+04 -6.650845E+04  4.880448E+04 -4.803379E-09 -4.307153E-09
       239  18 -1.829837E+05 -8.735901E+04 -5.896259E+04  5.380776E+04  4.788150E-09 -4.854811E-09
       239  19  6.726217E+05  1.102813E+05  7.362394E+04  5.598383E+04  7.315592E+03  3.660163E+04
       239  20  6.243122E+05  9.911391E+04  6.636544E+04  5.098076E+04  7.294741E+03  3.282237E+04
       239  21  5.759551E+05  8.801391E+04  5.909160E+04  5.578077E+04  7.274941E+03  2.904189E+04
       239  22  1.964000E+05  3.125392E+02 -2.204974E+02  5.479395E+04  1.451550E+02  3.658138E+04
       239  23  1.964318E+05  2.883467E+02 -6.841928E+01  4.989221E+04  1.222196E+02  3.280112E+04
       239  24  1.964139E+05  3.314160E+02  6.692632E+01  5.479393E+04  1.003337E+02  2.901964E+04
       239  25 -2.795953E+05 -1.096672E+05 -7.406998E+04  5.360484E+04 -7.019996E+03  3.656115E+04
       239  26 -2.312659E+05 -9.854613E+04 -6.650634E+04  4.880429E+04 -7.045549E+03  3.277988E+04
       239  27 -1.829834E+05 -8.735809E+04 -5.896092E+04  5.380760E+04 -7.070056E+03  2.899740E+04
       240   1  5.451720E+05  8.086792E+04  5.418650E+04  5.571375E+04 -7.298817E+03 -2.684128E+04
       240   2  4.968849E+05  6.970696E+04  4.696305E+04  5.070347E+04 -7.459936E+03 -2.306338E+04
       240   3  4.485689E+05  5.863682E+04  3.984518E+04  5.548874E+04 -7.621763E+03 -1.929018E+04
       240   4  1.964226E+05  3.350951E+02  1.379293E+02  5.479225E+04 -1.254765E+02 -2.681853E+04
       240   5  1.964424E+05  3.108841E+02  3.194039E+02  4.989429E+04 -2.957294E+02 -2.303996E+04
       240   6  1.964324E+05  3.791445E+02  6.126876E+02  5.479214E+04 -4.667010E+02 -1.926610E+04
       240   7 -1.522052E+05 -8.020363E+04 -5.391325E+04  5.387119E+04  7.043990E+03 -2.679579E+04
       240   8 -1.039100E+05 -6.908957E+04 -4.632614E+04  4.908543E+04  6.865144E+03 -2.301655E+04
       240   9 -5.564059E+04 -5.788161E+04 -3.862110E+04  5.409577E+04  6.685566E+03 -1.924202E+04
       240  10  5.451717E+05  8.086713E+04  5.418505E+04  5.571359E+04 -3.662401E-09  2.371461E-09
       240  11  4.968847E+05  6.970637E+04  4.696195E+04  5.070333E+04 -2.083844E-09  1.080427E-09
       240  12  4.485687E+05  5.863640E+04  3.984437E+04  5.548862E+04 -3.092673E-09  5.077214E-09
       240  13  1.964224E+05  3.343227E+02  1.365776E+02  5.479225E+04 -3.235513E-09 -5.067371E-10
       240  14  1.964422E+05  3.103140E+02  3.184061E+02  4.989428E+04 -2.160618E-09 -7.549628E-10
       240  15  1.964323E+05  3.787458E+02  6.119896E+02  5.479213E+04  1.272158E-10  4.152797E-09
       240  16 -1.522055E+05 -8.020441E+04 -5.391469E+04  5.387134E+04  2.178404E-09  2.342328E-09
       240  17 -1.039102E+05 -6.909015E+04 -4.632723E+04  4.908556E+04 -3.083561E-10 -1.028170E-08
       240  18 -5.564074E+04 -5.788202E+04 -3.862188E+04  5.409587E+04  2.001779E-09 -2.665964E-10
       240  19  5.451720E+05  8.086792E+04  5.418650E+04  5.571375E+04  7.298817E+03  2.684128E+04
       240  20  4.968849E+05  6.970696E+04  4.696305E+04  5.070347E+04  7.459936E+03  2.306338E+04
       240  21  4.485689E+05  5.863682E+04  3.984518E+04  5.548874E+04  7.621763E+03  1.929018E+04
       240  22  1.964226E+05  3.350951E+02  1.379293E+02  5.479225E+04  1.254765E+02  2.681853E+04
       240  23  1.964424E+05  3.108841E+02  3.194039E+02  4.989429E+04  2.957294E+02  2.303996E+04
       240  24  1.964324E+05  3.791445E+02  6.126876E+02  5.479214E+04  4.667010E+02  1.926610E+04
       240  25 -1.522052E+05 -8.020363E+04 -5.391325E+04  5.387119E+04 -7.043990E+03  2.679579E+04
       240  26 -1.039100E+05 -6.908957E+04 -4.632614E+04  4.908543E+04 -6.865144E+03  2.301655E+04
       240  27 -5.564059E+04 -5.788161E+04 -3.862110E+04  5.409577E+04 -6.685566E+03  1.924202E+04
       241   1  4.178330E+05  5.148968E+04  3.507548E+04  5.546294E+04 -7.754342E+03 -1.709386E+04
       241   2  3.694933E+05  4.045325E+04  2.828934E+04  5.024129E+04 -8.420960E+03 -1.334455E+04
       241   3  3.212770E+05  2.988143E+04  2.202917E+04  5.480718E+04 -9.087801E+03 -9.636935E+03
       241   4  1.964716E+05  3.793248E+02  8.209473E+02  5.479063E+04 -5.979053E+02 -1.706944E+04
       241   5  1.964073E+05  4.821769E+02  1.467354E+03  4.989562E+04 -1.343769E+03 -1.332001E+04
       241   6  1.964771E+05  1.063318E+03  2.694440E+03  5.478827E+04 -2.089902E+03 -9.612285E+03
       241   7 -2.484080E+04 -5.073339E+04 -3.343451E+04  5.411852E+04  6.556079E+03 -1.704503E+04
       241   8  2.335129E+04 -3.949033E+04 -2.535513E+04  4.955002E+04  5.731524E+03 -1.329548E+04
       241   9  7.169275E+04 -2.775553E+04 -1.664046E+04  5.476935E+04  4.906644E+03 -9.587633E+03
       241  10  4.178328E+05  5.148935E+04  3.507482E+04  5.546283E+04 -6.226553E-09  9.711236E-09
       241  11  3.694931E+05  4.045304E+04  2.828887E+04  5.024120E+04  1.899753E-09  3.729442E-09
       241  12  3.212769E+05  2.988131E+04  2.202884E+04  5.480711E+04  1.273422E-08  6.839633E-09
       241  13  1.964715E+05  3.790118E+02  8.203991E+02  5.479062E+04 -2.162146E-09  4.889927E-09
       241  14  1.964072E+05  4.819859E+02  1.467018E+03  4.989560E+04 -5.568872E-10  3.692872E-09
       241  15  1.964770E+05  1.063217E+03  2.694259E+03  5.478826E+04  5.391428E-10 -1.746773E-09
       241  16 -2.484092E+04 -5.073372E+04 -3.343514E+04  5.411861E+04  4.720081E-09  3.285765E-09
       241  17  2.335121E+04 -3.949053E+04 -2.535553E+04  4.955008E+04 -4.137901E-09  4.690055E-10
       241  18  7.169270E+04 -2.775564E+04 -1.664068E+04  5.476939E+04 -1.229841E-08 -7.896646E-09
       241  19  4.178330E+05  5.148968E+04  3.507548E+04  5.546294E+04  7.754342E+03  1.709386E+04
       241  20  3.694933E+05  4.045325E+04  2.828934E+04  5.024129E+04  8.420960E+03  1.334455E+04
       241  21  3.212770E+05  2.988143E+04  2.202917E+04  5.480718E+04  9.087801E+03  9.636935E+03
       241  22  1.964716E+05  3.793248E+02  8.209473E+02  5.479063E+04  5.979053E+02  1.706944E+04
       241  23  1.964073E+05  4.821769E+02  1.467354E+03  4.989562E+04  1.343769E+03  1.332001E+04
       241  24  1.964771E+05  1.063318E+03  2.694440E+03  5.478827E+04  2.089902E+03  9.612285E+03
       241  25 -2.484080E+04 -5.073339E+04 -3.343451E+04  5.411852E+04 -6.556079E+03  1.704503E+04
       241  26  2.335129E+04 -3.949033E+04 -2.535513E+04  4.955002E+04 -5.731524E+03  1.329548E+04
       241  27  7.169275E+04 -2.775553E+04 -1.664046E+04  5.476935E+04 -4.906644E+03  9.587633E+03
       242   1  2.908964E+05  2.276441E+04  1.788443E+04  5.538830E+04 -9.579220E+03 -7.473230E+03
       242   2  2.417388E+05  1.406923E+04  1.313439E+04  4.625426E+04 -1.220271E+04 -3.979721E+03
       242   3  1.944143E+05  1.167550E+04  1.164252E+04  4.686583E+04 -1.482482E+04 -8.824358E+02
       242   4  1.968845E+05  1.100412E+03  3.569804E+03  5.478339E+04 -2.559877E+03 -7.448345E+03
       242   5  1.959040E+05  3.617990E+03  6.543732E+03  4.989054E+04 -5.934962E+03 -3.957489E+03
       242   6  1.968851E+05  1.256782E+04  1.329767E+04  5.474307E+04 -9.308848E+03 -8.629048E+02
       242   7  1.028816E+05 -2.056399E+04 -1.074482E+04  5.417857E+04  4.458445E+03 -7.423471E+03
       242   8  1.500714E+05 -6.833270E+03 -4.679973E+01  5.352654E+04  3.323456E+02 -3.935182E+03
       242   9  1.993561E+05  1.346039E+04  1.495298E+04  6.262033E+04 -3.792849E+03 -8.432338E+02
       242  10  2.908962E+05  2.276433E+04  1.788415E+04  5.538824E+04 -4.652163E-09  5.428853E-09
       242  11  2.417387E+05  1.406917E+04  1.313408E+04  4.625422E+04 -1.649719E-09 -2.183745E-09
       242  12  1.944141E+05  1.167544E+04  1.164210E+04  4.686582E+04  1.497905E-09  1.309381E-09
       242  13  1.968845E+05  1.100350E+03  3.569687E+03  5.478338E+04  3.363973E-09  6.014556E-09
       242  14  1.959040E+05  3.617964E+03  6.543636E+03  4.989052E+04  3.103950E-09 -5.444467E-09
       242  15  1.968850E+05  1.256779E+04  1.329751E+04  5.474306E+04  7.960612E-10  4.139092E-09
       242  16  1.028816E+05 -2.056405E+04 -1.074496E+04  5.417860E+04  3.780884E-09 -4.546470E-10
       242  17  1.500714E+05 -6.833287E+03 -4.682904E+01  5.352654E+04  1.435401E-09  1.896930E-09
       242  18  1.993561E+05  1.346038E+04  1.495295E+04  6.262033E+04  9.069810E-10 -2.237026E-09
       242  19  2.908964E+05  2.276441E+04  1.788443E+04  5.538830E+04  9.579220E+03  7.473230E+03
       242  20  2.417388E+05  1.406923E+04  1.313439E+04  4.625426E+04  1.220271E+04  3.979721E+03
       242  21  1.944143E+05  1.167550E+04  1.164252E+04  4.686583E+04  1.482482E+04  8.824358E+02
       242  22  1.968845E+05  1.100412E+03  3.569804E+03  5.478339E+04  2.559877E+03  7.448345E+03
       242  23  1.959040E+05  3.617990E+03  6.543732E+03  4.989054E+04  5.934962E+03  3.957489E+03
       242  24  1.968851E+05  1.256782E+04  1.329767E+04  5.474307E+04  9.308848E+03  8.629048E+02
       242  25  1.028816E+05 -2.056399E+04 -1.074482E+04  5.417857E+04 -4.458445E+03  7.423471E+03
       242  26  1.500714E+05 -6.833270E+03 -4.679973E+01  5.352654E+04 -3.323456E+02  3.935182E+03
       242  27  1.993561E+05  1.346039E+04  1.495298E+04  6.262033E+04  3.792849E+03  8.432338E+02
       243   1  4.467428E+04  8.430483E+05  4.853558E+04 -1.567168E+05 -1.333022E+03  1.106863E+04
       243   2 -6.094280E+03  7.191410E+05  1.077751E+04 -1.343450E+05 -7.038972E+03 -1.969092E+03
       243   3 -4.040408E+04  6.009454E+05 -1.441638E+04 -1.363288E+05 -1.465366E+04 -1.500754E+04
       243   4  3.024322E+04  7.869626E+05  3.289246E+04 -1.371070E+05 -1.351317E+03  2.013763E+04
       243   5  8.427426E+03  7.844285E+05  1.838283E+04 -1.249568E+05 -7.064739E+03  1.072113E+04
       243   6  2.442915E+03  7.869671E+05  1.392643E+04 -1.371602E+05 -1.468639E+04  1.301611E+03
       243   7  1.581337E+04  7.308806E+05  1.724958E+04 -1.174989E+05 -1.369041E+03  2.920580E+04
       243   8  2.294939E+04  8.497209E+05  2.598883E+04 -1.155676E+05 -7.090121E+03  2.341261E+04
       243   9  4.528839E+04  9.730238E+05  4.226949E+04 -1.379919E+05 -1.471915E+04  1.761546E+04
       243  10  4.467425E+04  8.430482E+05  4.853534E+04 -1.567168E+05  5.317128E-10 -1.279676E-08
       243  11 -6.094335E+03  7.191409E+05  1.077741E+04 -1.343450E+05 -2.584258E-09  2.108485E-08
       243  12 -4.040437E+04  6.009451E+05 -1.441720E+04 -1.363289E+05 -8.980345E-10  5.285867E-08
       243  13  3.024310E+04  7.869621E+05  3.289169E+04 -1.371069E+05 -7.293757E-11 -5.812465E-11
       243  14  8.427342E+03  7.844283E+05  1.838253E+04 -1.249567E+05 -7.687765E-10 -4.627629E-09
       243  15  2.442683E+03  7.869670E+05  1.392602E+04 -1.371602E+05 -1.747279E-10  4.750162E-09
       243  16  1.581314E+04  7.308797E+05  1.724797E+04 -1.174989E+05  1.536013E-09  1.066938E-08
       243  17  2.294919E+04  8.497203E+05  2.598771E+04 -1.155674E+05 -2.048970E-09 -2.079645E-08
       243  18  4.528807E+04  9.730235E+05  4.226850E+04 -1.379917E+05 -9.601059E-10 -5.371205E-08
       243  19  4.467428E+04  8.430483E+05  4.853558E+04 -1.567168E+05  1.333022E+03 -1.106863E+04
       243  20 -6.094280E+03  7.191410E+05  1.077751E+04 -1.343450E+05  7.038972E+03  1.969092E+03
       243  21 -4.040408E+04  6.009454E+05 -1.441638E+04 -1.363288E+05  1.465366E+04  1.500754E+04
       243  22  3.024322E+04  7.869626E+05  3.289246E+04 -1.371070E+05  1.351317E+03 -2.013763E+04
       243  23  8.427426E+03  7.844285E+05  1.838283E+04 -1.249568E+05  7.064739E+03 -1.072113E+04
       243  24  2.442915E+03  7.869671E+05  1.392643E+04 -1.371602E+05  1.468639E+04 -1.301611E+03
       243  25  1.581337E+04  7.308806E+05  1.724958E+04 -1.174989E+05  1.369041E+03 -2.920580E+04
       243  26  2.294939E+04  8.497209E+05  2.598883E+04 -1.155676E+05  7.090121E+03 -2.341261E+04
       243  27  4.528839E+04  9.730238E+05  4.226949E+04 -1.379919E+05  1.471915E+04 -1.761546E+04
       244   1 -5.858723E+04  5.229152E+05 -2.759051E+04 -1.383253E+05 -1.980727E+04 -1.720673E+04
       244   2 -8.712309E+04  4.009786E+05 -4.540653E+04 -1.236667E+05 -2.750569E+04 -2.213847E+04
       244   3 -1.114754E+05  2.806537E+05 -5.899397E+04 -1.334012E+05 -3.343065E+04 -2.706453E+04
       244   4  2.309316E+03  7.863169E+05  1.371654E+04 -1.371641E+05 -1.983932E+04 -9.028915E+02
       244   5  2.074744E+03  7.852099E+05  1.658135E+04 -1.249640E+05 -2.752917E+04 -9.204331E+03
       244   6  6.607045E+03  7.862825E+05  2.601003E+04 -1.371555E+05 -3.344608E+04 -1.750101E+04
       244   7  6.320260E+04  1.049788E+06  5.502290E+04 -1.360024E+05 -1.987130E+04  1.540760E+04
       244   8  9.126522E+04  1.169588E+06  7.856584E+04 -1.262621E+05 -2.755269E+04  3.737522E+03
       244   9  1.246762E+05  1.292163E+06  1.110063E+05 -1.409128E+05 -3.346163E+04 -7.929955E+03
       244  10 -5.858773E+04  5.229147E+05 -2.759180E+04 -1.383256E+05  1.237644E-09 -5.368568E-08
       244  11 -8.712403E+04  4.009779E+05 -4.540887E+04 -1.236672E+05 -5.002425E-10 -2.207827E-08
       244  12 -1.114768E+05  2.806526E+05 -5.899745E+04 -1.334019E+05 -7.163201E-10  1.209111E-08
       244  13  2.308893E+03  7.863168E+05  1.371579E+04 -1.371641E+05  3.094939E-10 -2.378901E-10
       244  14  2.073907E+03  7.852096E+05  1.657977E+04 -1.249642E+05  7.864730E-10 -3.551060E-09
       244  15  6.605761E+03  7.862819E+05  2.600735E+04 -1.371559E+05 -1.878114E-09  4.121851E-09
       244  16  6.320211E+04  1.049788E+06  5.502171E+04 -1.360022E+05 -1.140294E-09  5.158922E-08
       244  17  9.126440E+04  1.169588E+06  7.856439E+04 -1.262620E+05 -3.230296E-09  2.291419E-08
       244  18  1.246750E+05  1.292163E+06  1.110041E+05 -1.409130E+05 -2.852764E-10 -1.272402E-08
       244  19 -5.858723E+04  5.229152E+05 -2.759051E+04 -1.383253E+05  1.980727E+04  1.720673E+04
       244  20 -8.712309E+04  4.009786E+05 -4.540653E+04 -1.236667E+05  2.750569E+04  2.213847E+04
       244  21 -1.114754E+05  2.806537E+05 -5.899397E+04 -1.334012E+05  3.343065E+04  2.706453E+04
       244  22  2.309316E+03  7.863169E+05  1.371654E+04 -1.371641E+05  1.983932E+04  9.028915E+02
       244  23  2.074744E+03  7.852099E+05  1.658135E+04 -1.249640E+05  2.752917E+04  9.204331E+03
       244  24  6.607045E+03  7.862825E+05  2.601003E+04 -1.371555E+05  3.344608E+04  1.750101E+04
       244  25  6.320260E+04  1.049788E+06  5.502290E+04 -1.360024E+05  1.987130E+04 -1.540760E+04
       244  26  9.126522E+04  1.169588E+06  7.856584E+04 -1.262621E+05  2.755269E+04 -3.737522E+03
       244  27  1.246762E+05  1.292163E+06  1.110063E+05 -1.409128E+05  3.346163E+04  7.929955E+03
       245   1 -1.297682E+05  2.058958E+05 -6.649791E+04 -1.391554E+05 -3.725336E+04 -3.254208E+04
       245   2 -1.377394E+05  7.862382E+04 -7.506602E+04 -9.061368E+04 -3.331632E+04 -2.669103E+04
       245   3 -9.482272E+04 -3.670596E+04 -7.472212E+04 -6.516547E+04 -1.026929E+04 -2.081498E+04
       245   4  6.911319E+03  7.898277E+05  3.334086E+04 -1.368825E+05 -3.726983E+04 -2.193211E+04
       245   5  2.959896E+04  7.806835E+05  5.921340E+04 -1.252517E+05 -3.326783E+04 -5.233607E+04
       245   6  1.094269E+05  7.897329E+05  1.191447E+05 -1.367075E+05 -1.016645E+04 -8.271485E+04
       245   7  1.435728E+05  1.374095E+06  1.331687E+05 -1.346072E+05 -3.728622E+04 -1.131247E+04
       245   8  1.969130E+05  1.483222E+06  1.934735E+05 -1.599296E+05 -3.321651E+04 -7.800939E+04
       245   9  3.136491E+05  1.616819E+06  3.129820E+05 -2.083451E+05 -1.004942E+04 -1.446965E+05
       245  10 -1.297700E+05  2.058942E+05 -6.650251E+04 -1.391563E+05  1.014982E-09  3.240894E-10
       245  11 -1.377408E+05  7.862275E+04 -7.506945E+04 -9.061440E+04  1.041823E-09  4.606275E-10
       245  12 -9.482295E+04 -3.670646E+04 -7.472313E+04 -6.516564E+04 -5.986625E-10 -1.447267E-10
       245  13  6.909698E+03  7.898268E+05  3.333735E+04 -1.368831E+05  2.649084E-09  8.270208E-11
       245  14  2.959703E+04  7.806803E+05  5.920617E+04 -1.252531E+05  1.545696E-11 -2.829658E-09
       245  15  1.094250E+05  7.897255E+05  1.191317E+05 -1.367082E+05  1.031904E-10  3.700012E-09
       245  16  1.435713E+05  1.374094E+06  1.331659E+05 -1.346075E+05 -5.599331E-10 -2.147394E-09
       245  17  1.969102E+05  1.483215E+06  1.934600E+05 -1.599317E+05 -1.176652E-09  3.433681E-10
       245  18  3.136434E+05  1.616797E+06  3.129425E+05 -2.083463E+05 -4.898581E-10 -3.494872E-10
       245  19 -1.297682E+05  2.058958E+05 -6.649791E+04 -1.391554E+05  3.725336E+04  3.254208E+04
       245  20 -1.377394E+05  7.862382E+04 -7.506602E+04 -9.061368E+04  3.331632E+04  2.669103E+04
       245  21 -9.482272E+04 -3.670596E+04 -7.472212E+04 -6.516547E+04  1.026929E+04  2.081498E+04
       245  22  6.911319E+03  7.898277E+05  3.334086E+04 -1.368825E+05  3.726983E+04  2.193211E+04
       245  23  2.959896E+04  7.806835E+05  5.921340E+04 -1.252517E+05  3.326783E+04  5.233607E+04
       245  24  1.094269E+05  7.897329E+05  1.191447E+05 -1.367075E+05  1.016645E+04  8.271485E+04
       245  25  1.435728E+05  1.374095E+06  1.331687E+05 -1.346072E+05  3.728622E+04  1.131247E+04
       245  26  1.969130E+05  1.483222E+06  1.934735E+05 -1.599296E+05  3.321651E+04  7.800939E+04
       245  27  3.136491E+05  1.616819E+06  3.129820E+05 -2.083451E+05  1.004942E+04  1.446965E+05
       246   1  1.294540E+06  4.194975E+05  2.039623E+05  4.627464E+05  5.874784E+04  5.700621E+03
       246   2  1.220227E+06  4.138163E+05  1.615908E+05  4.405748E+05  3.901571E+04 -4.040699E+04
       246   3  1.135445E+06  4.062822E+05  1.399053E+05  4.348458E+05  1.013603E+04 -6.223438E+04
       246   4  3.101258E+05  7.290195E+04 -4.375696E+04  2.157586E+05 -2.300355E+04 -2.514509E+04
       246   5  3.220513E+05  9.486301E+04 -2.050170E+04  2.012191E+05  4.458118E+02 -5.497393E+04
       246   6  3.149487E+05  1.064132E+05 -1.074737E+04  2.031251E+05  1.473530E+04 -6.050610E+04
       246   7 -6.732952E+05 -2.736403E+05 -2.915135E+05 -3.087516E+04 -1.046099E+05 -5.594367E+04
       246   8 -5.752768E+05 -2.240259E+05 -2.026233E+05 -3.781744E+04 -3.806329E+04 -6.951959E+04
       246   9 -5.048399E+05 -1.933890E+05 -1.614243E+05 -2.830975E+04  1.932809E+04 -5.878031E+04
       246  10  1.294536E+06  4.194965E+05  2.039557E+05  4.627461E+05 -4.369940E-10 -2.199679E-09
       246  11  1.220225E+06  4.138141E+05  1.615849E+05  4.405760E+05  5.360080E-09 -9.005850E-10
       246  12  1.135444E+06  4.062780E+05  1.398979E+05  4.348463E+05 -8.454500E-10 -8.105860E-10
       246  13  3.101251E+05  7.290113E+04 -4.375914E+04  2.157581E+05  2.709453E-09  4.460247E-09
       246  14  3.220505E+05  9.485977E+04 -2.050738E+04  2.012191E+05 -2.058216E-09 -4.942422E-09
       246  15  3.149475E+05  1.064092E+05 -1.075466E+04  2.031258E+05 -6.852977E-09 -4.135157E-09
       246  16 -6.733078E+05 -2.736466E+05 -2.915400E+05 -3.087988E+04 -5.256213E-10  2.397015E-09
       246  17 -5.752796E+05 -2.240315E+05 -2.026351E+05 -3.781958E+04 -4.192274E-09 -1.958442E-09
       246  18 -5.048412E+05 -1.933928E+05 -1.614315E+05 -2.830884E+04 -1.106081E-08 -2.674722E-09
       246  19  1.294540E+06  4.194975E+05  2.039623E+05  4.627464E+05 -5.874784E+04 -5.700621E+03
       246  20  1.220227E+06  4.138163E+05  1.615908E+05  4.405748E+05 -3.901571E+04  4.040699E+04
       246  21  1.135445E+06  4.062822E+05  1.399053E+05  4.348458E+05 -1.013603E+04  6.223438E+04
       246  22  3.101258E+05  7.290195E+04 -4.375696E+04  2.157586E+05  2.300355E+04  2.514509E+04
       246  23  3.220513E+05  9.486301E+04 -2.050170E+04  2.012191E+05 -4.458118E+02  5.497393E+04
       246  24  3.149487E+05  1.064132E+05 -1.074737E+04  2.031251E+05 -1.473530E+04  6.050610E+04
       246  25 -6.732952E+05 -2.736403E+05 -2.915135E+05 -3.087516E+04  1.046099E+05  5.594367E+04
       246  26 -5.752768E+05 -2.240259E+05 -2.026233E+05 -3.781744E+04  3.806329E+04  6.951959E+04
       246  27 -5.048399E+05 -1.933890E+05 -1.614243E+05 -2.830975E+04 -1.932809E+04  5.878031E+04
       247   1  1.090479E+06  3.871456E+05  1.320730E+05  4.205090E+05  1.324229E+04 -5.877248E+04
       247   2  1.023987E+06  3.565860E+05  1.189081E+05  3.942120E+05  1.061922E+04 -5.725225E+04
       247   3  9.463874E+05  3.368630E+05  1.069699E+05  3.808829E+05  7.158033E+03 -5.351970E+04
       247   4  3.159353E+05  1.066308E+05 -8.071796E+03  2.039943E+05  1.519120E+04 -5.804434E+04
       247   5  3.220261E+05  1.025027E+05 -4.242148E+03  1.971772E+05  1.650044E+04 -5.503669E+04
       247   6  3.162247E+05  1.084326E+05 -2.301027E+03  2.033272E+05  1.697091E+04 -4.981535E+04
       247   7 -4.579864E+05 -1.738303E+05 -1.482399E+05 -1.227177E+04  1.713754E+04 -5.731716E+04
       247   8 -3.794187E+05 -1.515338E+05 -1.274087E+05  3.488723E+02  2.237463E+04 -5.282379E+04
       247   9 -3.135176E+05 -1.199579E+05 -1.115834E+05  2.593968E+04  2.677319E+04 -4.611502E+04
       247  10  1.090478E+06  3.871418E+05  1.320662E+05  4.205096E+05 -2.183109E-09 -3.982261E-10
       247  11  1.023986E+06  3.565824E+05  1.189017E+05  3.942125E+05 -7.020509E-09 -8.616043E-10
       247  12  9.463866E+05  3.368599E+05  1.069644E+05  3.808832E+05 -8.220487E-09 -3.814995E-09
       247  13  3.159342E+05  1.066271E+05 -8.078562E+03  2.039950E+05 -9.236749E-09 -3.259450E-09
       247  14  3.220249E+05  1.024994E+05 -4.248353E+03  1.971779E+05 -9.151016E-09 -1.193671E-08
       247  15  3.162237E+05  1.084299E+05 -2.306233E+03  2.033278E+05 -3.851491E-09 -1.035973E-09
       247  16 -4.579876E+05 -1.738340E+05 -1.482466E+05 -1.227098E+04 -1.264887E-08 -4.328638E-09
       247  17 -3.794200E+05 -1.515369E+05 -1.274148E+05  3.498245E+02 -5.968472E-09 -2.770455E-09
       247  18 -3.135190E+05 -1.199604E+05 -1.115887E+05  2.594068E+04  3.861741E-09  3.584078E-09
       247  19  1.090479E+06  3.871456E+05  1.320730E+05  4.205090E+05 -1.324229E+04  5.877248E+04
       247  20  1.023987E+06  3.565860E+05  1.189081E+05  3.942120E+05 -1.061922E+04  5.725225E+04
       247  21  9.463874E+05  3.368630E+05  1.069699E+05  3.808829E+05 -7.158033E+03  5.351970E+04
       247  22  3.159353E+05  1.066308E+05 -8.071796E+03  2.039943E+05 -1.519120E+04  5.804434E+04
       247  23  3.220261E+05  1.025027E+05 -4.242148E+03  1.971772E+05 -1.650044E+04  5.503669E+04
       247  24  3.162247E+05  1.084326E+05 -2.301027E+03  2.033272E+05 -1.697091E+04  4.981535E+04
       247  25 -4.579864E+05 -1.738303E+05 -1.482399E+05 -1.227177E+04 -1.713754E+04  5.731716E+04
       247  26 -3.794187E+05 -1.515338E+05 -1.274087E+05  3.488723E+02 -2.237463E+04  5.282379E+04
       247  27 -3.135176E+05 -1.199579E+05 -1.115834E+05  2.593968E+04 -2.677319E+04  4.611502E+04
       248   1  9.002689E+05  3.199451E+05  9.905864E+04  3.678418E+05  6.491424E+03 -5.005005E+04
       248   2  8.343910E+05  2.884443E+05  8.731363E+04  3.412905E+05  4.529608E+03 -4.452905E+04
       248   3  7.572055E+05  2.682798E+05  7.549792E+04  3.275789E+05  2.490210E+03 -3.880937E+04
       248   4  3.163125E+05  1.084563E+05 -1.721951E+03  2.033955E+05  1.605720E+04 -4.643761E+04
       248   5  3.220271E+05  1.028798E+05 -9.257040E+02  1.969610E+05  1.444831E+04 -4.078094E+04
       248   6  3.163571E+05  1.085698E+05 -4.810222E+02  2.033651E+05  1.276180E+04 -3.492546E+04
       248   7 -2.672764E+05 -1.029959E+05 -1.025104E+05  3.909534E+04  2.561331E+04 -4.282883E+04
       248   8 -1.900583E+05 -8.265814E+04 -8.917216E+04  5.274277E+04  2.435830E+04 -3.703612E+04
       248   9 -1.242896E+05 -5.112230E+04 -7.646637E+04  7.923241E+04  2.302574E+04 -3.104444E+04
       248  10  9.002682E+05  3.199424E+05  9.905385E+04  3.678421E+05  5.706291E-09  3.936031E-09
       248  11  8.343904E+05  2.884422E+05  8.730986E+04  3.412907E+05  1.864904E-09  3.743886E-09
       248  12  7.572051E+05  2.682782E+05  7.549508E+04  3.275790E+05  1.748809E-10  3.571598E-10
       248  13  3.163116E+05  1.084539E+05 -1.726489E+03  2.033961E+05  1.393676E-10  4.357838E-10
       248  14  3.220264E+05  1.028780E+05 -9.292222E+02  1.969614E+05  4.629807E-09 -1.864734E-09
       248  15  3.163566E+05  1.085685E+05 -4.836209E+02  2.033654E+05  1.189697E-09 -2.439425E-09
       248  16 -2.672776E+05 -1.029981E+05 -1.025151E+05  3.909623E+04 -5.445006E-09  1.864210E-09
       248  17 -1.900593E+05 -8.265977E+04 -8.917585E+04  5.274350E+04  6.994864E-10 -9.675336E-09
       248  18 -1.242904E+05 -5.112348E+04 -7.646918E+04  7.923298E+04  1.974844E-09 -6.016908E-09
       248  19  9.002689E+05  3.199451E+05  9.905864E+04  3.678418E+05 -6.491424E+03  5.005005E+04
       248  20  8.343910E+05  2.884443E+05  8.731363E+04  3.412905E+05 -4.529608E+03  4.452905E+04
       248  21  7.572055E+05  2.682798E+05  7.549792E+04  3.275789E+05 -2.490210E+03  3.880937E+04
       248  22  3.163125E+05  1.084563E+05 -1.721951E+03  2.033955E+05 -1.605720E+04  4.643761E+04
       248  23  3.220271E+05  1.028798E+05 -9.257040E+02  1.969610E+05 -1.444831E+04  4.078094E+04
       248  24  3.163571E+05  1.085698E+05 -4.810222E+02  2.033651E+05 -1.276180E+04  3.492546E+04
       248  25 -2.672764E+05 -1.029959E+05 -1.025104E+05  3.909534E+04 -2.561331E+04  4.282883E+04
       248  26 -1.900583E+05 -8.265814E+04 -8.917216E+04  5.274277E+04 -2.435830E+04  3.703612E+04
       248  27 -1.242896E+05 -5.112230E+04 -7.646637E+04  7.923241E+04 -2.302574E+04  3.104444E+04
       249   1  7.111123E+05  2.515295E+05  6.734186E+04  3.146177E+05  1.310489E+03 -3.540710E+04
       249   2  6.453525E+05  2.200471E+05  5.543257E+04  2.880737E+05 -8.376647E+02 -2.962086E+04
       249   3  5.682751E+05  1.998984E+05  4.350090E+04  2.743598E+05 -2.993144E+03 -2.381927E+04
       249   4  3.163748E+05  1.085772E+05 -3.400979E+02  2.033678E+05  1.155606E+04 -3.153191E+04
       249   5  3.220492E+05  1.029270E+05 -1.259116E+02  1.969521E+05  9.434882E+03 -2.573401E+04
       249   6  3.163945E+05  1.086046E+05  4.366975E+01  2.033644E+05  7.306388E+03 -1.992078E+04
       249   7 -7.819686E+04 -3.435913E+04 -6.802595E+04  9.218418E+04  2.179470E+04 -2.765935E+04
       249   8 -1.141200E+03 -1.418171E+04 -5.568641E+04  1.058754E+05  1.970168E+04 -2.184935E+04
       249   9  6.458409E+04  1.731826E+04 -4.341419E+04  1.323968E+05  1.760137E+04 -1.602402E+04
       249  10  7.111119E+05  2.515282E+05  6.733950E+04  3.146177E+05  5.582792E-09  7.294356E-09
       249  11  6.453522E+05  2.200461E+05  5.543092E+04  2.880737E+05  2.932296E-09 -2.510891E-09
       249  12  5.682749E+05  1.998978E+05  4.349982E+04  2.743597E+05  1.019484E-10 -2.196365E-09
       249  13  3.163744E+05  1.085761E+05 -3.422177E+02  2.033681E+05  2.721077E-09 -1.484637E-09
       249  14  3.220489E+05  1.029263E+05 -1.273236E+02  1.969523E+05  4.315380E-09  1.922680E-09
       249  15  3.163943E+05  1.086041E+05  4.282353E+01  2.033646E+05 -6.630181E-10 -2.011773E-09
       249  16 -7.819757E+04 -3.436008E+04 -6.802828E+04  9.218466E+04 -3.970417E-09 -1.127285E-09
       249  17 -1.141745E+03 -1.418233E+04 -5.568804E+04  1.058758E+05 -1.173094E-09 -4.767492E-09
       249  18  6.458369E+04  1.731790E+04 -4.341526E+04  1.323971E+05  8.302544E-10  5.489546E-09
       249  19  7.111123E+05  2.515295E+05  6.734186E+04  3.146177E+05 -1.310489E+03  3.540710E+04
       249  20  6.453525E+05  2.200471E+05  5.543257E+04  2.880737E+05  8.376647E+02  2.962086E+04
       249  21  5.682751E+05  1.998984E+05  4.350090E+04  2.743598E+05  2.993144E+03  2.381927E+04
       249  22  3.163748E+05  1.085772E+05 -3.400979E+02  2.033678E+05 -1.155606E+04  3.153191E+04
       249  23  3.220492E+05  1.029270E+05 -1.259116E+02  1.969521E+05 -9.434882E+03  2.573401E+04
       249  24  3.163945E+05  1.086046E+05  4.366975E+01  2.033644E+05 -7.306388E+03  1.992078E+04
       249  25 -7.819686E+04 -3.435913E+04 -6.802595E+04  9.218418E+04 -2.179470E+04  2.765935E+04
       249  26 -1.141200E+03 -1.418171E+04 -5.568641E+04  1.058754E+05 -1.970168E+04  2.184935E+04
       249  27  6.458409E+04  1.731826E+04 -4.341419E+04  1.323968E+05 -1.760137E+04  1.602402E+04
       250   1  5.222276E+05  1.831627E+05  3.530765E+04  2.614114E+05 -4.281357E+03 -2.044940E+04
       250   2  4.565074E+05  1.516884E+05  2.343334E+04  2.348918E+05 -6.625582E+03 -1.471630E+04
       250   3  3.794875E+05  1.315461E+05  1.167310E+04  2.212003E+05 -8.966940E+03 -8.992399E+03
       250   4  3.164067E+05  1.086085E+05  1.267786E+02  2.033658E+05  6.014677E+03 -1.655162E+04
       250   5  3.220598E+05  1.029400E+05  3.395255E+02  1.969540E+05  3.653773E+03 -1.082421E+04
       250   6  3.164124E+05  1.086068E+05  6.795721E+02  2.033690E+05  1.295724E+03 -5.106013E+03
       250   7  1.106288E+05  3.405775E+04 -3.505542E+04  1.453375E+05  1.630719E+04 -1.265519E+04
       250   8  1.876308E+05  5.419312E+04 -2.275456E+04  1.590238E+05  1.393081E+04 -6.933000E+03
       250   9  2.533416E+05  8.566807E+04 -1.031363E+04  1.855394E+05  1.155728E+04 -1.220049E+03
       250  10  5.222275E+05  1.831622E+05  3.530683E+04  2.614114E+05  1.006871E-08  5.965879E-09
       250  11  4.565073E+05  1.516882E+05  2.343286E+04  2.348917E+05 -4.633272E-09 -2.779288E-09
       250  12  3.794874E+05  1.315460E+05  1.167279E+04  2.212003E+05 -1.849764E-08 -1.482362E-08
       250  13  3.164066E+05  1.086082E+05  1.261957E+02  2.033658E+05  1.605377E-09  2.235130E-10
       250  14  3.220597E+05  1.029398E+05  3.392802E+02  1.969540E+05 -4.245170E-10 -1.239357E-08
       250  15  3.164124E+05  1.086068E+05  6.795200E+02  2.033690E+05 -2.524994E-09 -1.949270E-09
       250  16  1.106285E+05  3.405751E+04 -3.505622E+04  1.453377E+05 -8.055050E-09  4.786171E-09
       250  17  1.876306E+05  5.419302E+04 -2.275501E+04  1.590239E+05  6.155730E-09  1.034325E-08
       250  18  2.533415E+05  8.566803E+04 -1.031388E+04  1.855394E+05  1.528972E-08  5.036122E-09
       250  19  5.222276E+05  1.831627E+05  3.530765E+04  2.614114E+05  4.281357E+03  2.044940E+04
       250  20  4.565074E+05  1.516884E+05  2.343334E+04  2.348918E+05  6.625582E+03  1.471630E+04
       250  21  3.794875E+05  1.315461E+05  1.167310E+04  2.212003E+05  8.966940E+03  8.992399E+03
       250  22  3.164067E+05  1.086085E+05  1.267786E+02  2.033658E+05 -6.014677E+03  1.655162E+04
       250  23  3.220598E+05  1.029400E+05  3.395255E+02  1.969540E+05 -3.653773E+03  1.082421E+04
       250  24  3.164124E+05  1.086068E+05  6.795721E+02  2.033690E+05 -1.295724E+03  5.106013E+03
       250  25  1.106288E+05  3.405775E+04 -3.505542E+04  1.453375E+05 -1.630719E+04  1.265519E+04
       250  26  1.876308E+05  5.419312E+04 -2.275456E+04  1.590238E+05 -1.393081E+04  6.933000E+03
       250  27  2.533416E+05  8.566807E+04 -1.031363E+04  1.855394E+05 -1.155728E+04  1.220049E+03
       251   1  3.334668E+05  1.148210E+05  3.635976E+03  2.082862E+05 -1.038571E+04 -5.678211E+03
       251   2  2.677092E+05  8.333018E+04 -7.750717E+03  1.817722E+05 -1.320983E+04 -1.956068E+02
       251   3  1.907539E+05  6.325158E+04 -1.862863E+04  1.680827E+05 -1.599277E+04  5.179359E+03
       251   4  3.164389E+05  1.086014E+05  9.221220E+02  2.033800E+05 -1.122117E+02 -1.787625E+03
       251   5  3.220259E+05  1.029175E+05  1.697638E+03  1.969528E+05 -3.128345E+03  3.622009E+03
       251   6  3.164474E+05  1.086828E+05  3.133601E+03  2.033477E+05 -6.103395E+03  8.924008E+03
       251   7  2.994118E+05  1.023821E+05 -1.791236E+03  1.984740E+05  1.016089E+04  2.102804E+03
       251   8  3.763460E+05  1.225052E+05  1.114634E+04  2.121347E+05  6.954081E+03  7.439976E+03
       251   9  4.421591E+05  1.541162E+05  2.489614E+04  2.386197E+05  3.788212E+03  1.266950E+04
       251  10  3.334666E+05  1.148209E+05  3.635713E+03  2.082862E+05  9.312464E-09  1.031867E-09
       251  11  2.677090E+05  8.333014E+04 -7.751045E+03  1.817722E+05  6.727207E-09  3.712701E-09
       251  12  1.907536E+05  6.325149E+04 -1.862916E+04  1.680828E+05  5.250871E-09 -1.211026E-09
       251  13  3.164389E+05  1.086014E+05  9.221160E+02  2.033800E+05 -3.875673E-09  4.739259E-09
       251  14  3.220259E+05  1.029175E+05  1.697595E+03  1.969528E+05  1.738188E-09  3.854483E-09
       251  15  3.164473E+05  1.086827E+05  3.133382E+03  2.033477E+05  3.235225E-09  5.095842E-10
       251  16  2.994117E+05  1.023821E+05 -1.791438E+03  1.984739E+05 -1.536267E-08 -5.546640E-09
       251  17  3.763460E+05  1.225051E+05  1.114615E+04  2.121346E+05 -9.403777E-09  6.197541E-09
       251  18  4.421591E+05  1.541160E+05  2.489582E+04  2.386197E+05 -3.453541E-09 -2.254541E-09
       251  19  3.334668E+05  1.148210E+05  3.635976E+03  2.082862E+05  1.038571E+04  5.678211E+03
       251  20  2.677092E+05  8.333018E+04 -7.750717E+03  1.817722E+05  1.320983E+04  1.956068E+02
       251  21  1.907539E+05  6.325158E+04 -1.862863E+04  1.680827E+05  1.599277E+04 -5.179359E+03
       251  22  3.164389E+05  1.086014E+05  9.221220E+02  2.033800E+05  1.122117E+02  1.787625E+03
       251  23  3.220259E+05  1.029175E+05  1.697638E+03  1.969528E+05  3.128345E+03 -3.622009E+03
       251  24  3.164474E+05  1.086828E+05  3.133601E+03  2.033477E+05  6.103395E+03 -8.924008E+03
       251  25  2.994118E+05  1.023821E+05 -1.791236E+03  1.984740E+05 -1.016089E+04 -2.102804E+03
       251  26  3.763460E+05  1.225052E+05  1.114634E+04  2.121347E+05 -6.954081E+03 -7.439976E+03
       251  27  4.421591E+05  1.541162E+05  2.489614E+04  2.386197E+05 -3.788212E+03 -1.266950E+04
       252   1  1.446439E+05  4.665495E+04 -2.595700E+04  1.554556E+05 -1.795059E+04  8.220231E+03
       252   2  7.931139E+04  1.487579E+04 -3.548346E+04  1.279143E+05 -2.162655E+04  1.260388E+04
       252   3  3.612796E+03 -3.880418E+03 -4.322054E+04  1.127454E+05 -2.485378E+04  1.580524E+04
       252   4  3.166447E+05  1.086438E+05  4.183953E+03  2.034280E+05 -7.931965E+03  1.201345E+04
       252   5  3.218377E+05  1.034693E+05  7.680471E+03  1.966557E+05 -1.370957E+04  1.560037E+04
       252   6  3.170751E+05  1.117325E+05  1.463129E+04  2.022531E+05 -1.903874E+04  1.800517E+04
       252   7  4.886769E+05  1.706356E+05  3.432440E+04  2.514128E+05  2.089609E+03  1.580778E+04
       252   8  5.644250E+05  1.920683E+05  5.084237E+04  2.654219E+05 -5.789338E+03  1.859811E+04
       252   9  6.306373E+05  2.273543E+05  7.247866E+04  2.918022E+05 -1.322062E+04  2.020631E+04
       252  10  1.446435E+05  4.665479E+04 -2.595773E+04  1.554557E+05  1.911703E-09  1.321898E-09
       252  11  7.931085E+04  1.487549E+04 -3.548464E+04  1.279145E+05  3.252313E-09 -5.027414E-09
       252  12  3.612065E+03 -3.880852E+03 -4.322217E+04  1.127458E+05  2.124678E-09 -3.821965E-09
       252  13  3.166446E+05  1.086437E+05  4.183563E+03  2.034281E+05  4.347115E-09  4.787946E-09
       252  14  3.218375E+05  1.034690E+05  7.679661E+03  1.966559E+05  6.475706E-09  3.468001E-09
       252  15  3.170746E+05  1.117321E+05  1.463000E+04  2.022534E+05  4.809846E-09 -1.746357E-09
       252  16  4.886769E+05  1.706353E+05  3.432392E+04  2.514128E+05  2.148251E-09 -2.354764E-09
       252  17  5.644249E+05  1.920679E+05  5.084166E+04  2.654220E+05  3.225020E-09  4.120030E-09
       252  18  6.306370E+05  2.273538E+05  7.247757E+04  2.918024E+05  1.532260E-09  4.152720E-10
       252  19  1.446439E+05  4.665495E+04 -2.595700E+04  1.554556E+05  1.795059E+04 -8.220231E+03
       252  20  7.931139E+04  1.487579E+04 -3.548346E+04  1.279143E+05  2.162655E+04 -1.260388E+04
       252  21  3.612796E+03 -3.880418E+03 -4.322054E+04  1.127454E+05  2.485378E+04 -1.580524E+04
       252  22  3.166447E+05  1.086438E+05  4.183953E+03  2.034280E+05  7.931965E+03 -1.201345E+04
       252  23  3.218377E+05  1.034693E+05  7.680471E+03  1.966557E+05  1.370957E+04 -1.560037E+04
       252  24  3.170751E+05  1.117325E+05  1.463129E+04  2.022531E+05  1.903874E+04 -1.800517E+04
       252  25  4.886769E+05  1.706356E+05  3.432440E+04  2.514128E+05 -2.089609E+03 -1.580778E+04
       252  26  5.644250E+05  1.920683E+05  5.084237E+04  2.654219E+05  5.789338E+03 -1.859811E+04
       252  27  6.306373E+05  2.273543E+05  7.247866E+04  2.918022E+05  1.322062E+04 -2.020631E+04
       253   1 -4.400897E+04 -1.811270E+04 -4.781823E+04  1.042088E+05 -2.945922E+04  1.707693E+04
       253   2 -9.611519E+04 -5.492181E+04 -5.257038E+04  5.400954E+04 -2.482393E+04  1.607853E+04
       253   3 -1.468678E+05 -4.838478E+04 -5.104139E+04  6.700025E+03 -1.528642E+04  2.115515E+03
       253   4  3.194568E+05  1.114603E+05  1.948470E+04  2.031422E+05 -2.223654E+04  1.980924E+04
       253   5  3.208395E+05  1.178841E+05  3.713220E+04  1.901991E+05 -4.062104E+04  1.009852E+04
       253   6  3.281245E+05  1.721987E+05  7.930439E+04  1.801462E+05 -5.410589E+04 -1.257207E+04
       253   7  6.830664E+05  2.410463E+05  8.678433E+04  3.021303E+05 -1.500921E+04  2.254320E+04
       253   8  7.379737E+05  2.907183E+05  1.268258E+05  3.264776E+05 -5.642952E+04  4.112968E+03
       253   9  8.033360E+05  3.928304E+05  2.096337E+05  3.537218E+05 -9.295704E+04 -2.727817E+04
       253  10 -4.400998E+04 -1.811324E+04 -4.782041E+04  1.042092E+05 -6.386234E-09 -5.707442E-09
       253  11 -9.611592E+04 -5.492226E+04 -5.257203E+04  5.400986E+04 -2.184630E-09 -1.582452E-09
       253  12 -1.468681E+05 -4.838485E+04 -5.104183E+04  6.700051E+03 -1.007996E-09 -3.771296E-09
       253  13  3.194562E+05  1.114597E+05  1.948303E+04  2.031426E+05  1.493580E-09 -4.087313E-09
       253  14  3.208377E+05  1.178835E+05  3.712891E+04  1.901994E+05 -2.067660E-09 -4.975553E-10
       253  15  3.281213E+05  1.721978E+05  7.929860E+04  1.801456E+05  1.081135E-09  1.115082E-09
       253  16  6.830661E+05  2.410457E+05  8.678295E+04  3.021306E+05  7.346637E-09 -3.074744E-09
       253  17  7.379703E+05  2.907174E+05  1.268198E+05  3.264778E+05  2.359016E-09 -2.991745E-09
       253  18  8.033265E+05  3.928273E+05  2.096161E+05  3.537198E+05  3.058443E-10  3.084375E-09
       253  19 -4.400897E+04 -1.811270E+04 -4.781823E+04  1.042088E+05  2.945922E+04 -1.707693E+04
       253  20 -9.611519E+04 -5.492181E+04 -5.257038E+04  5.400954E+04  2.482393E+04 -1.607853E+04
       253  21 -1.468678E+05 -4.838478E+04 -5.104139E+04  6.700025E+03  1.528642E+04 -2.115515E+03
       253  22  3.194568E+05  1.114603E+05  1.948470E+04  2.031422E+05  2.223654E+04 -1.980924E+04
       253  23  3.208395E+05  1.178841E+05  3.713220E+04  1.901991E+05  4.062104E+04 -1.009852E+04
       253  24  3.281245E+05  1.721987E+05  7.930439E+04  1.801462E+05  5.410589E+04  1.257207E+04
       253  25  6.830664E+05  2.410463E+05  8.678433E+04  3.021303E+05  1.500921E+04 -2.254320E+04
       253  26  7.379737E+05  2.907183E+05  1.268258E+05  3.264776E+05  5.642952E+04 -4.112968E+03
       253  27  8.033360E+05  3.928304E+05  2.096337E+05  3.537218E+05  9.295704E+04  2.727817E+04
       254   1  2.495532E+05  3.947289E+04  3.355415E+04  4.080109E+03 -1.359436E+04 -2.413940E+03
       254   2  2.344500E+05  5.738687E+04  4.158003E+04  1.707694E+03 -1.025788E+04 -7.125022E+03
       254   3  2.128099E+05  5.115401E+04  4.139563E+04  1.290421E+04 -6.940440E+03 -6.553973E+03
       254   4  1.096208E+04 -1.995784E+04 -2.529786E+04  9.748194E+03 -1.730236E+04 -2.427281E+03
       254   5  1.446370E+04  2.877630E+03 -1.108026E+04  2.925726E+03 -1.130480E+04 -7.129063E+03
       254   6  1.096373E+04  1.099609E+03 -6.923094E+03  9.672589E+03 -5.326170E+03 -6.547935E+03
       254   7 -2.275772E+05 -7.939268E+04 -8.415401E+04  1.541405E+04 -2.100893E+04 -2.440692E+03
       254   8 -2.054782E+05 -5.163511E+04 -6.374396E+04  4.143284E+03 -1.235136E+04 -7.133108E+03
       254   9 -1.908451E+05 -4.895771E+04 -5.524468E+04  6.441984E+03 -3.712423E+03 -6.541912E+03
       254  10  2.495530E+05  3.947284E+04  3.355379E+04  4.080083E+03 -6.360609E-09  2.068890E-09
       254  11  2.344498E+05  5.738679E+04  4.157974E+04  1.707635E+03 -1.197911E-09  1.744639E-08
       254  12  2.128098E+05  5.115395E+04  4.139546E+04  1.290418E+04 -5.598281E-11  4.142596E-09
       254  13  1.096176E+04 -1.995793E+04 -2.529843E+04  9.748160E+03  9.385238E-10 -6.693425E-09
       254  14  1.446355E+04  2.877541E+03 -1.108059E+04  2.925661E+03  2.701624E-09 -1.101406E-08
       254  15  1.096369E+04  1.099556E+03 -6.923228E+03  9.672561E+03  2.124927E-09 -2.963008E-09
       254  16 -2.275776E+05 -7.939280E+04 -8.415485E+04  1.541401E+04  5.716528E-09  1.229840E-09
       254  17 -2.054784E+05 -5.163521E+04 -6.374434E+04  4.143213E+03 -2.537064E-09  1.073222E-08
       254  18 -1.908451E+05 -4.895776E+04 -5.524479E+04  6.441964E+03 -4.995441E-10  6.375142E-10
       254  19  2.495532E+05  3.947289E+04  3.355415E+04  4.080109E+03  1.359436E+04  2.413940E+03
       254  20  2.344500E+05  5.738687E+04  4.158003E+04  1.707694E+03  1.025788E+04  7.125022E+03
       254  21  2.128099E+05  5.115401E+04  4.139563E+04  1.290421E+04  6.940440E+03  6.553973E+03
       254  22  1.096208E+04 -1.995784E+04 -2.529786E+04  9.748194E+03  1.730236E+04  2.427281E+03
       254  23  1.446370E+04  2.877630E+03 -1.108026E+04  2.925726E+03  1.130480E+04  7.129063E+03
       254  24  1.096373E+04  1.099609E+03 -6.923094E+03  9.672589E+03  5.326170E+03  6.547935E+03
       254  25 -2.275772E+05 -7.939268E+04 -8.415401E+04  1.541405E+04  2.100893E+04  2.440692E+03
       254  26 -2.054782E+05 -5.163511E+04 -6.374396E+04  4.143284E+03  1.235136E+04  7.133108E+03
       254  27 -1.908451E+05 -4.895771E+04 -5.524468E+04  6.441984E+03  3.712423E+03  6.541912E+03
       255   1  1.895319E+05  4.190807E+04  3.689490E+04  9.635626E+03 -4.327440E+03 -5.365200E+03
       255   2  1.716969E+05  3.972613E+04  3.521201E+04  3.218519E+03 -3.056533E+03 -5.023422E+03
       255   3  1.529717E+05  3.506924E+04  3.206140E+04  1.043676E+04 -1.787449E+03 -4.287456E+03
       255   4  1.231654E+04 -2.036188E+03 -5.648104E+03  9.716922E+03 -4.256175E+03 -5.365029E+03
       255   5  1.277979E+04  3.292452E+02 -2.868789E+03  2.894787E+03 -2.786928E+03 -5.022438E+03
       255   6  1.231770E+04  1.848737E+02 -1.695280E+03  9.708235E+03 -1.319471E+03 -4.285616E+03
       255   7 -1.648701E+05 -4.598273E+04 -4.819334E+04  9.798167E+03 -4.184929E+03 -5.364858E+03
       255   8 -1.461142E+05 -3.906947E+04 -4.095137E+04  2.571115E+03 -2.517392E+03 -5.021455E+03
       255   9 -1.283182E+05 -3.470093E+04 -3.545337E+04  8.979858E+03 -8.515982E+02 -4.283777E+03
       255  10  1.895319E+05  4.190803E+04  3.689481E+04  9.635607E+03 -1.068395E-08 -5.804808E-09
       255  11  1.716968E+05  3.972610E+04  3.521194E+04  3.218506E+03 -9.840816E-10  3.467229E-09
       255  12  1.529717E+05  3.506922E+04  3.206136E+04  1.043675E+04  1.110642E-08  8.681391E-09
       255  13  1.231651E+04 -2.036223E+03 -5.648192E+03  9.716904E+03  2.082938E-09  9.665776E-09
       255  14  1.277977E+04  3.292160E+02 -2.868851E+03  2.894775E+03 -5.457724E-10 -2.861048E-08
       255  15  1.231769E+04  1.848536E+02 -1.695318E+03  9.708230E+03  2.302718E-09  7.018638E-09
       255  16 -1.648701E+05 -4.598276E+04 -4.819342E+04  9.798149E+03  9.598569E-09 -1.061212E-08
       255  17 -1.461142E+05 -3.906950E+04 -4.095143E+04  2.571105E+03 -1.174621E-09 -4.587314E-09
       255  18 -1.283182E+05 -3.470095E+04 -3.545340E+04  8.979855E+03 -9.280612E-09 -1.648932E-09
       255  19  1.895319E+05  4.190807E+04  3.689490E+04  9.635626E+03  4.327440E+03  5.365200E+03
       255  20  1.716969E+05  3.972613E+04  3.521201E+04  3.218519E+03  3.056533E+03  5.023422E+03
       255  21  1.529717E+05  3.506924E+04  3.206140E+04  1.043676E+04  1.787449E+03  4.287456E+03
       255  22  1.231654E+04 -2.036188E+03 -5.648104E+03  9.716922E+03  4.256175E+03  5.365029E+03
       255  23  1.277979E+04  3.292452E+02 -2.868789E+03  2.894787E+03  2.786928E+03  5.022438E+03
       255  24  1.231770E+04  1.848737E+02 -1.695280E+03  9.708235E+03  1.319471E+03  4.285616E+03
       255  25 -1.648701E+05 -4.598273E+04 -4.819334E+04  9.798167E+03  4.184929E+03  5.364858E+03
       255  26 -1.461142E+05 -3.906947E+04 -4.095137E+04  2.571115E+03  2.517392E+03  5.021455E+03
       255  27 -1.283182E+05 -3.470093E+04 -3.545337E+04  8.979858E+03  8.515982E+02  4.283777E+03
       256   1  1.285238E+05  2.862035E+04  2.644512E+04  1.002520E+04 -1.407765E+03 -3.796871E+03
       256   2  1.103673E+05  2.430020E+04  2.273471E+04  3.194351E+03 -1.074241E+03 -3.081248E+03
       256   3  9.199621E+04  1.982027E+04  1.873918E+04  1.000062E+04 -7.409970E+02 -2.336284E+03
       256   4  1.247684E+04 -1.415431E+02 -1.320541E+03  9.711974E+03 -1.055000E+03 -3.795468E+03
       256   5  1.258579E+04  5.697590E+01 -6.996426E+02  2.892863E+03 -7.067492E+02 -3.079749E+03
       256   6  1.247756E+04  9.322882E+01 -3.740385E+02  9.710995E+03 -3.587678E+02 -2.334688E+03
       256   7 -1.035578E+05 -2.890441E+04 -2.908715E+04  9.398798E+03 -7.023015E+02 -3.794064E+03
       256   8 -8.518695E+04 -2.418694E+04 -2.413467E+04  2.591413E+03 -3.393150E+02 -3.078251E+03
       256   9 -6.703531E+04 -1.963427E+04 -1.948771E+04  9.421405E+03  2.341271E+01 -2.333091E+03
       256  10  1.285238E+05  2.862034E+04  2.644509E+04  1.002519E+04  1.731001E-09 -4.689968E-09
       256  11  1.103673E+05  2.430019E+04  2.273469E+04  3.194348E+03 -2.962797E-09 -6.164345E-09
       256  12  9.199620E+04  1.982027E+04  1.873917E+04  1.000061E+04 -3.918310E-09 -4.737843E-10
       256  13  1.247683E+04 -1.415588E+02 -1.320570E+03  9.711971E+03  3.422861E-11 -2.358175E-09
       256  14  1.258579E+04  5.696558E+01 -6.996613E+02  2.892861E+03  5.264699E-10  2.194039E-09
       256  15  1.247755E+04  9.322293E+01 -3.740490E+02  9.710994E+03  2.141576E-09 -3.586029E-10
       256  16 -1.035578E+05 -2.890443E+04 -2.908718E+04  9.398796E+03 -4.392959E-09 -8.996783E-09
       256  17 -8.518696E+04 -2.418695E+04 -2.413469E+04  2.591412E+03 -2.964073E-10  9.189706E-09
       256  18 -6.703531E+04 -1.963428E+04 -1.948772E+04  9.421405E+03  5.260246E-09  1.254429E-08
       256  19  1.285238E+05  2.862035E+04  2.644512E+04  1.002520E+04  1.407765E+03  3.796871E+03
       256  20  1.103673E+05  2.430020E+04  2.273471E+04  3.194351E+03  1.074241E+03  3.081248E+03
       256  21  9.199621E+04  1.982027E+04  1.873918E+04  1.000062E+04  7.409970E+02  2.336284E+03
       256  22  1.247684E+04 -1.415431E+02 -1.320541E+03  9.711974E+03  1.055000E+03  3.795468E+03
       256  23  1.258579E+04  5.697590E+01 -6.996426E+02  2.892863E+03  7.067492E+02  3.079749E+03
       256  24  1.247756E+04  9.322882E+01 -3.740385E+02  9.710995E+03  3.587678E+02  2.334688E+03
       256  25 -1.035578E+05 -2.890441E+04 -2.908715E+04  9.398798E+03  7.023015E+02  3.794064E+03
       256  26 -8.518695E+04 -2.418694E+04 -2.413467E+04  2.591413E+03  3.393150E+02  3.078251E+03
       256  27 -6.703531E+04 -1.963427E+04 -1.948771E+04  9.421405E+03 -2.341271E+01  2.333091E+03
       257   1  6.741891E+04  1.366537E+04  1.284642E+04  9.887285E+03 -6.774501E+02 -1.898503E+03
       257   2  4.922196E+04  9.117400E+03  8.715296E+03  3.015709E+03 -6.459382E+02 -1.156060E+03
       257   3  3.090054E+04  4.662946E+03  4.556222E+03  9.777472E+03 -6.144939E+02 -4.116227E+02
       257   4  1.249899E+04  5.948847E+01 -2.611059E+02  9.710515E+03 -3.037931E+02 -1.896925E+03
       257   5  1.256159E+04  2.765189E+01 -7.117493E+01  2.893752E+03 -2.712854E+02 -1.154466E+03
       257   6  1.249926E+04  8.917740E+01  9.013095E+01  9.710375E+03 -2.388443E+02 -4.100095E+02
       257   7 -4.241817E+04 -1.354661E+04 -1.336885E+04  9.533758E+03  6.983095E+01 -1.895348E+03
       257   8 -2.409754E+04 -9.062194E+03 -8.857741E+03  2.771801E+03  1.033453E+02 -1.152871E+03
       257   9 -5.901721E+03 -4.484616E+03 -4.375984E+03  9.643281E+03  1.367942E+02 -4.083963E+02
       257  10  6.741891E+04  1.366537E+04  1.284642E+04  9.887284E+03 -3.523160E-10 -6.568520E-09
       257  11  4.922196E+04  9.117399E+03  8.715293E+03  3.015709E+03 -1.915991E-09  5.312464E-09
       257  12  3.090054E+04  4.662946E+03  4.556221E+03  9.777471E+03 -5.970085E-09 -3.373263E-09
       257  13  1.249899E+04  5.948458E+01 -2.611128E+02  9.710515E+03  2.193231E-09  3.409588E-09
       257  14  1.256159E+04  2.765044E+01 -7.117757E+01  2.893752E+03 -2.189455E-09 -8.623971E-09
       257  15  1.249926E+04  8.917721E+01  9.013053E+01  9.710375E+03  4.225654E-09 -3.170323E-09
       257  16 -4.241818E+04 -1.354661E+04 -1.336885E+04  9.533758E+03 -7.616263E-10  5.805735E-09
       257  17 -2.409754E+04 -9.062196E+03 -8.857743E+03  2.771801E+03  1.287011E-09  1.337451E-08
       257  18 -5.901721E+03 -4.484616E+03 -4.375984E+03  9.643281E+03  5.615783E-09  2.600835E-09
       257  19  6.741891E+04  1.366537E+04  1.284642E+04  9.887285E+03  6.774501E+02  1.898503E+03
       257  20  4.922196E+04  9.117400E+03  8.715296E+03  3.015709E+03  6.459382E+02  1.156060E+03
       257  21  3.090054E+04  4.662946E+03  4.556222E+03  9.777472E+03  6.144939E+02  4.116227E+02
       257  22  1.249899E+04  5.948847E+01 -2.611059E+02  9.710515E+03  3.037931E+02  1.896925E+03
       257  23  1.256159E+04  2.765189E+01 -7.117493E+01  2.893752E+03  2.712854E+02  1.154466E+03
       257  24  1.249926E+04  8.917740E+01  9.013095E+01  9.710375E+03  2.388443E+02  4.100095E+02
       257  25 -4.241817E+04 -1.354661E+04 -1.336885E+04  9.533758E+03 -6.983095E+01  1.895348E+03
       257  26 -2.409754E+04 -9.062194E+03 -8.857741E+03  2.771801E+03 -1.033453E+02  1.152871E+03
       257  27 -5.901721E+03 -4.484616E+03 -4.375984E+03  9.643281E+03 -1.367942E+02  4.083963E+02
       258   1  6.317734E+03 -1.467493E+03 -1.363928E+03  9.702774E+03 -6.403887E+02  2.218109E+01
       258   2 -1.190343E+04 -6.046949E+03 -5.462310E+03  2.821646E+03 -8.405290E+02  7.656454E+02
       258   3 -3.019765E+04 -1.044430E+04 -9.415902E+03  9.573675E+03 -1.040614E+03  1.507199E+03
       258   4  1.251078E+04  7.909135E+01  1.761300E+02  9.710440E+03 -2.647781E+02  2.379573E+01
       258   5  1.254743E+04  1.563981E+01  3.980717E+02  2.893753E+03 -4.658974E+02  7.672463E+02
       258   6  1.251060E+04  1.344137E+02  7.654236E+02  9.710186E+03 -6.669670E+02  1.508787E+03
       258   7  1.870386E+04  1.625673E+03  1.716186E+03  9.718106E+03  1.108362E+02  2.541038E+01
       258   8  3.699883E+04  6.078185E+03  6.258412E+03  2.965862E+03 -9.125116E+01  7.688472E+02
       258   9  5.522052E+04  1.071299E+04  1.094662E+04  9.846706E+03 -2.932946E+02  1.510376E+03
       258  10  6.317734E+03 -1.467493E+03 -1.363929E+03  9.702774E+03 -4.524508E-09 -1.988750E-09
       258  11 -1.190343E+04 -6.046949E+03 -5.462313E+03  2.821647E+03 -1.350557E-09 -8.065813E-09
       258  12 -3.019765E+04 -1.044430E+04 -9.415909E+03  9.573676E+03 -7.368971E-09 -4.932287E-09
       258  13  1.251078E+04  7.909133E+01  1.761299E+02  9.710440E+03  2.231491E-09  6.139704E-09
       258  14  1.254743E+04  1.563912E+01  3.980702E+02  2.893753E+03 -2.170860E-09 -4.389195E-09
       258  15  1.251060E+04  1.344112E+02  7.654185E+02  9.710187E+03  2.319166E-09 -8.915097E-09
       258  16  1.870386E+04  1.625673E+03  1.716186E+03  9.718106E+03  4.554036E-09  2.600238E-09
       258  17  3.699883E+04  6.078184E+03  6.258411E+03  2.965862E+03  1.081320E-09 -1.829631E-08
       258  18  5.522052E+04  1.071299E+04  1.094662E+04  9.846706E+03  9.106448E-09 -1.267709E-08
       258  19  6.317734E+03 -1.467493E+03 -1.363928E+03  9.702774E+03  6.403887E+02 -2.218109E+01
       258  20 -1.190343E+04 -6.046949E+03 -5.462310E+03  2.821646E+03  8.405290E+02 -7.656454E+02
       258  21 -3.019765E+04 -1.044430E+04 -9.415902E+03  9.573675E+03  1.040614E+03 -1.507199E+03
       258  22  1.251078E+04  7.909135E+01  1.761300E+02  9.710440E+03  2.647781E+02 -2.379573E+01
       258  23  1.254743E+04  1.563981E+01  3.980717E+02  2.893753E+03  4.658974E+02 -7.672463E+02
       258  24  1.251060E+04  1.344137E+02  7.654236E+02  9.710186E+03  6.669670E+02 -1.508787E+03
       258  25  1.870386E+04  1.625673E+03  1.716186E+03  9.718106E+03 -1.108362E+02 -2.541038E+01
       258  26  3.699883E+04  6.078185E+03  6.258412E+03  2.965862E+03  9.125116E+01 -7.688472E+02
       258  27  5.522052E+04  1.071299E+04  1.094662E+04  9.846706E+03  2.932946E+02 -1.510376E+03
       259   1 -5.473822E+04 -1.664271E+04 -1.517503E+04  9.582081E+03 -1.210087E+03  1.943820E+03
       259   2 -7.308542E+04 -2.127766E+04 -1.874904E+04  2.613083E+03 -2.081714E+03  2.683890E+03
       259   3 -9.125786E+04 -2.512897E+04 -2.158858E+04  9.275901E+03 -2.953080E+03  3.396117E+03
       259   4  1.256552E+04  5.599548E+01  1.011891E+03  9.710754E+03 -8.283227E+02  1.945429E+03
       259   5  1.247665E+04 -6.150419E+01  1.759061E+03  2.893748E+03 -1.714094E+03  2.685407E+03
       259   6  1.256489E+04  6.071087E+02  3.250529E+03  9.708440E+03 -2.599630E+03  3.397545E+03
       259   7  7.987340E+04  1.675437E+04  1.719849E+04  9.839436E+03 -4.465173E+02  1.947038E+03
       259   8  9.804543E+04  2.115412E+04  2.226665E+04  3.174446E+03 -1.346424E+03  2.686925E+03
       259   9  1.163975E+05  2.634241E+04  2.808888E+04  1.014104E+04 -2.246121E+03  3.398973E+03
       259  10 -5.473822E+04 -1.664272E+04 -1.517504E+04  9.582082E+03 -9.303158E-09 -2.736331E-09
       259  11 -7.308542E+04 -2.127767E+04 -1.874906E+04  2.613087E+03 -4.739217E-09 -9.111127E-09
       259  12 -9.125788E+04 -2.512899E+04 -2.158862E+04  9.275909E+03  9.628859E-10 -3.635384E-09
       259  13  1.256552E+04  5.599124E+01  1.011883E+03  9.710755E+03  1.127832E-09 -5.955231E-09
       259  14  1.247665E+04 -6.151272E+01  1.759042E+03  2.893752E+03 -1.669069E-09 -3.744121E-09
       259  15  1.256488E+04  6.070945E+02  3.250494E+03  9.708447E+03  1.247593E-09  5.448070E-10
       259  16  7.987340E+04  1.675437E+04  1.719848E+04  9.839437E+03  9.865864E-09 -1.229443E-09
       259  17  9.804542E+04  2.115411E+04  2.226663E+04  3.174448E+03  1.988746E-09 -9.532459E-09
       259  18  1.163975E+05  2.634239E+04  2.808885E+04  1.014105E+04 -2.282423E-09  1.004598E-08
       259  19 -5.473822E+04 -1.664271E+04 -1.517503E+04  9.582081E+03  1.210087E+03 -1.943820E+03
       259  20 -7.308542E+04 -2.127766E+04 -1.874904E+04  2.613083E+03  2.081714E+03 -2.683890E+03
       259  21 -9.125786E+04 -2.512897E+04 -2.158858E+04  9.275901E+03  2.953080E+03 -3.396117E+03
       259  22  1.256552E+04  5.599548E+01  1.011891E+03  9.710754E+03  8.283227E+02 -1.945429E+03
       259  23  1.247665E+04 -6.150419E+01  1.759061E+03  2.893748E+03  1.714094E+03 -2.685407E+03
       259  24  1.256489E+04  6.071087E+02  3.250529E+03  9.708440E+03  2.599630E+03 -3.397545E+03
       259  25  7.987340E+04  1.675437E+04  1.719849E+04  9.839436E+03  4.465173E+02 -1.947038E+03
       259  26  9.804543E+04  2.115412E+04  2.226665E+04  3.174446E+03  1.346424E+03 -2.686925E+03
       259  27  1.163975E+05  2.634241E+04  2.808888E+04  1.014104E+04  2.246121E+03 -3.398973E+03
       260   1 -1.154666E+05 -3.203190E+04 -2.667018E+04  1.004037E+04 -3.719902E+03  3.879435E+03
       260   2 -1.347008E+05 -3.711415E+04 -2.815641E+04  2.089461E+03 -7.121220E+03  4.597800E+03
       260   3 -1.519877E+05 -3.573144E+04 -2.583568E+04  7.751839E+03 -1.052076E+04  4.941897E+03
       260   4  1.296373E+04 -1.832556E+02  4.160362E+03  9.712556E+03 -3.257085E+03  3.881287E+03
       260   5  1.197361E+04 -7.405099E+02  6.997996E+03  2.895361E+03 -6.847769E+03  4.598821E+03
       260   6  1.296275E+04  5.199232E+03  1.377342E+04  9.691223E+03 -1.043677E+04  4.942115E+03
       260   7  1.414092E+05  3.166419E+04  3.498973E+04  9.384655E+03 -2.794173E+03  3.883138E+03
       260   8  1.586677E+05  3.563157E+04  4.215088E+04  3.701432E+03 -6.574253E+03  4.599842E+03
       260   9  1.779381E+05  4.612794E+04  5.338059E+04  1.163110E+04 -1.035276E+04  4.942334E+03
       260  10 -1.154667E+05 -3.203192E+04 -2.667023E+04  1.004038E+04  1.345563E-08 -1.589933E-09
       260  11 -1.347009E+05 -3.711419E+04 -2.815654E+04  2.089487E+03  4.072793E-09  4.264477E-09
       260  12 -1.519878E+05 -3.573150E+04 -2.583594E+04  7.751880E+03 -3.253243E-09 -9.952948E-09
       260  13  1.296372E+04 -1.832746E+02  4.160314E+03  9.712566E+03  2.160457E-09 -7.034941E-09
       260  14  1.197355E+04 -7.405452E+02  6.997868E+03  2.895386E+03 -5.287780E-10  9.109569E-09
       260  15  1.296262E+04  5.199177E+03  1.377317E+04  9.691265E+03  2.783211E-09  1.648110E-09
       260  16  1.414092E+05  3.166417E+04  3.498969E+04  9.384664E+03 -1.247247E-08 -4.911039E-09
       260  17  1.586677E+05  3.563153E+04  4.215076E+04  3.701457E+03 -2.649305E-09 -1.412149E-08
       260  18  1.779380E+05  4.612788E+04  5.338034E+04  1.163114E+04  3.830089E-09  6.372087E-09
       260  19 -1.154666E+05 -3.203190E+04 -2.667018E+04  1.004037E+04  3.719902E+03 -3.879435E+03
       260  20 -1.347008E+05 -3.711415E+04 -2.815641E+04  2.089461E+03  7.121220E+03 -4.597800E+03
       260  21 -1.519877E+05 -3.573144E+04 -2.583568E+04  7.751839E+03  1.052076E+04 -4.941897E+03
       260  22  1.296373E+04 -1.832556E+02  4.160362E+03  9.712556E+03  3.257085E+03 -3.881287E+03
       260  23  1.197361E+04 -7.405099E+02  6.997996E+03  2.895361E+03  6.847769E+03 -4.598821E+03
       260  24  1.296275E+04  5.199232E+03  1.377342E+04  9.691223E+03  1.043677E+04 -4.942115E+03
       260  25  1.414092E+05  3.166419E+04  3.498973E+04  9.384655E+03  2.794173E+03 -3.883138E+03
       260  26  1.586677E+05  3.563157E+04  4.215088E+04  3.701432E+03  6.574253E+03 -4.599842E+03
       260  27  1.779381E+05  4.612794E+04  5.338059E+04  1.163110E+04  1.035276E+04 -4.942334E+03
       261   1 -1.733700E+05 -4.939572E+04 -2.851015E+04  1.562051E+04 -1.461346E+04  6.068892E+03
       261   2 -1.998565E+05 -5.850803E+04 -2.274776E+04 -2.095720E+03 -2.665083E+04  6.594742E+03
       261   3 -2.098602E+05 -7.666794E+03  5.827037E+03 -6.451395E+03 -3.866921E+04  2.100876E+03
       261   4  1.627942E+04 -2.440607E+03  1.688448E+04  9.708395E+03 -1.306336E+04  6.074916E+03
       261   5  7.821074E+03 -6.977497E+03  2.698948E+04  2.934494E+03 -2.763447E+04  6.590726E+03
       261   6  1.627882E+04  4.886779E+04  6.166083E+04  9.520565E+03 -4.218697E+04  2.087137E+03
       261   7  2.059619E+05  4.451204E+04  6.227660E+04  3.794440E+03 -1.151280E+04  6.080910E+03
       261   8  2.155382E+05  4.454999E+04  7.672368E+04  7.966361E+03 -2.861843E+04  6.586695E+03
       261   9  2.424649E+05  1.053995E+05  1.174910E+05  2.549831E+04 -4.570600E+04  2.073221E+03
       261  10 -1.733702E+05 -4.939582E+04 -2.851062E+04  1.562058E+04 -2.594618E-10 -9.188123E-09
       261  11 -1.998572E+05 -5.850826E+04 -2.274917E+04 -2.095579E+03  6.763165E-09  7.154702E-09
       261  12 -2.098618E+05 -7.667201E+03  5.824218E+03 -6.451330E+03  5.201767E-09  7.576449E-09
       261  13  1.627922E+04 -2.440693E+03  1.688409E+04  9.708459E+03  1.028180E-09  6.998340E-09
       261  14  7.820243E+03 -6.977749E+03  2.698796E+04  2.934640E+03  1.444165E-11  7.153273E-09
       261  15  1.627690E+04  4.886731E+04  6.165748E+04  9.520636E+03  5.375270E-10  4.457700E-09
       261  16  2.059617E+05  4.451197E+04  6.227628E+04  3.794496E+03 -3.683388E-10  8.359339E-09
       261  17  2.155373E+05  4.454972E+04  7.672206E+04  7.966513E+03 -5.374904E-09  7.544602E-09
       261  18  2.424626E+05  1.053989E+05  1.174871E+05  2.549839E+04 -4.203745E-09  6.770137E-10
       261  19 -1.733700E+05 -4.939572E+04 -2.851015E+04  1.562051E+04  1.461346E+04 -6.068892E+03
       261  20 -1.998565E+05 -5.850803E+04 -2.274776E+04 -2.095720E+03  2.665083E+04 -6.594742E+03
       261  21 -2.098602E+05 -7.666794E+03  5.827037E+03 -6.451395E+03  3.866921E+04 -2.100876E+03
       261  22  1.627942E+04 -2.440607E+03  1.688448E+04  9.708395E+03  1.306336E+04 -6.074916E+03
       261  23  7.821074E+03 -6.977497E+03  2.698948E+04  2.934494E+03  2.763447E+04 -6.590726E+03
       261  24  1.627882E+04  4.886779E+04  6.166083E+04  9.520565E+03  4.218697E+04 -2.087137E+03
       261  25  2.059619E+05  4.451204E+04  6.227660E+04  3.794440E+03  1.151280E+04 -6.080910E+03
       261  26  2.155382E+05  4.454999E+04  7.672368E+04  7.966361E+03  2.861843E+04 -6.586695E+03
       261  27  2.424649E+05  1.053995E+05  1.174910E+05  2.549831E+04  4.570600E+04 -2.073221E+03
       262   1 -2.966368E+05 -1.334731E+06 -3.299991E+05  1.049289E+05 -5.796379E+03 -1.207446E+05
       262   2 -1.151702E+05 -1.197978E+06 -2.060921E+05  3.304030E+04 -1.730140E+04 -7.185584E+04
       262   3 -1.008930E+05 -1.108457E+06 -1.556949E+05  4.488227E+04 -1.341115E+04 -2.290979E+04
       262   4 -1.329552E+05 -6.805650E+05 -1.682188E+05  6.139992E+04 -5.818937E+03 -1.112324E+05
       262   5  1.901051E+04 -6.576036E+05 -7.657899E+04  1.975424E+04 -1.730437E+04 -7.005199E+04
       262   6  5.205633E+03 -6.804991E+05 -5.303775E+04  6.184181E+04 -1.339568E+04 -2.882380E+04
       262   7  3.070133E+04 -2.600578E+04 -6.468998E+03  1.782527E+04 -5.842823E+03 -1.017102E+05
       262   8  1.531706E+05 -1.169610E+05  5.291353E+04  6.456739E+03 -1.730742E+04 -6.824654E+04
       262   9  1.112920E+05 -2.523721E+05  4.960674E+04  7.881321E+04 -1.338054E+04 -3.474188E+04
       262  10 -2.966407E+05 -1.334746E+06 -3.300266E+05  1.049283E+05  3.745592E-09  3.183692E-09
       262  11 -1.151719E+05 -1.197983E+06 -2.061024E+05  3.303930E+04  2.432708E-09  1.022752E-08
       262  12 -1.008933E+05 -1.108458E+06 -1.556962E+05  4.488202E+04  7.032207E-10 -5.356581E-09
       262  13 -1.329586E+05 -6.805783E+05 -1.682421E+05  6.139940E+04  4.257531E-09  8.458084E-09
       262  14  1.900887E+04 -6.576089E+05 -7.658879E+04  1.975326E+04  4.465972E-09 -6.086422E-09
       262  15  5.205217E+03 -6.805000E+05 -5.303965E+04  6.184150E+04 -9.394000E-10  3.385831E-09
       262  16  3.069852E+04 -2.601690E+04 -6.488503E+03  1.782479E+04  2.417008E-09 -1.091406E-08
       262  17  1.531691E+05 -1.169661E+05  5.290421E+04  6.455788E+03  6.763590E-09 -8.111372E-09
       262  18  1.112915E+05 -2.523734E+05  4.960413E+04  7.881283E+04 -2.141690E-09 -1.672054E-09
       262  19 -2.966368E+05 -1.334731E+06 -3.299991E+05  1.049289E+05  5.796379E+03  1.207446E+05
       262  20 -1.151702E+05 -1.197978E+06 -2.060921E+05  3.304030E+04  1.730140E+04  7.185584E+04
       262  21 -1.008930E+05 -1.108457E+06 -1.556949E+05  4.488227E+04  1.341115E+04  2.290979E+04
       262  22 -1.329552E+05 -6.805650E+05 -1.682188E+05  6.139992E+04  5.818937E+03  1.112324E+05
       262  23  1.901051E+04 -6.576036E+05 -7.657899E+04  1.975424E+04  1.730437E+04  7.005199E+04
       262  24  5.205633E+03 -6.804991E+05 -5.303775E+04  6.184181E+04  1.339568E+04  2.882380E+04
       262  25  3.070133E+04 -2.600578E+04 -6.468998E+03  1.782527E+04  5.842823E+03  1.017102E+05
       262  26  1.531706E+05 -1.169610E+05  5.291353E+04  6.456739E+03  1.730742E+04  6.824654E+04
       262  27  1.112920E+05 -2.523721E+05  4.960674E+04  7.881321E+04  1.338054E+04  3.474188E+04
       263   1 -8.176692E+04 -9.468282E+05 -1.127640E+05  6.825657E+04 -8.454558E+03 -1.861669E+04
       263   2 -3.592049E+04 -8.275811E+05 -7.385320E+04  1.982885E+04 -5.057267E+03 -1.767504E+02
       263   3 -2.340897E+04 -7.184994E+05 -5.517711E+04  5.659997E+04 -1.150773E+03  1.826644E+04
       263   4 -1.365207E+04 -6.725400E+05 -4.690940E+04  6.201986E+04 -8.450111E+03 -2.022731E+04
       263   5  3.810285E+03 -6.674709E+05 -3.545062E+04  1.942335E+04 -5.052643E+03 -2.038111E+03
       263   6 -1.201285E+04 -6.725324E+05 -4.404665E+04  6.202539E+04 -1.145725E+03  1.615099E+04
       263   7  5.445743E+04 -3.981827E+05  1.893991E+04  5.578041E+04 -8.445633E+03 -2.183863E+04
       263   8  4.353920E+04 -5.073371E+05  2.950143E+03  1.901776E+04 -5.048017E+03 -3.899951E+03
       263   9 -6.167621E+02 -6.265634E+05 -3.291631E+04  6.745120E+04 -1.140714E+03  1.403539E+04
       263  10 -8.176709E+04 -9.468286E+05 -1.127648E+05  6.825644E+04 -1.246929E-09 -5.312675E-10
       263  11 -3.592052E+04 -8.275811E+05 -7.385324E+04  1.982885E+04  3.758119E-09  8.815518E-09
       263  12 -2.340906E+04 -7.184998E+05 -5.517774E+04  5.659999E+04 -2.712675E-10  1.017571E-09
       263  13 -1.365226E+04 -6.725405E+05 -4.691030E+04  6.201972E+04 -5.362245E-10  3.471550E-09
       263  14  3.810257E+03 -6.674709E+05 -3.545068E+04  1.942334E+04  5.333505E-10 -8.883635E-09
       263  15 -1.201292E+04 -6.725327E+05 -4.404714E+04  6.202540E+04 -1.049078E-09  9.246169E-10
       263  16  5.445723E+04 -3.981833E+05  1.893888E+04  5.578026E+04 -3.670014E-09 -7.870635E-09
       263  17  4.353917E+04 -5.073371E+05  2.950066E+03  1.901774E+04  2.544785E-09 -5.363965E-09
       263  18 -6.168164E+02 -6.265636E+05 -3.291668E+04  6.745122E+04 -2.064571E-09 -8.625665E-09
       263  19 -8.176692E+04 -9.468282E+05 -1.127640E+05  6.825657E+04  8.454558E+03  1.861669E+04
       263  20 -3.592049E+04 -8.275811E+05 -7.385320E+04  1.982885E+04  5.057267E+03  1.767504E+02
       263  21 -2.340897E+04 -7.184994E+05 -5.517711E+04  5.659997E+04  1.150773E+03 -1.826644E+04
       263  22 -1.365207E+04 -6.725400E+05 -4.690940E+04  6.201986E+04  8.450111E+03  2.022731E+04
       263  23  3.810285E+03 -6.674709E+05 -3.545062E+04  1.942335E+04  5.052643E+03  2.038111E+03
       263  24 -1.201285E+04 -6.725324E+05 -4.404665E+04  6.202539E+04  1.145725E+03 -1.615099E+04
       263  25  5.445743E+04 -3.981827E+05  1.893991E+04  5.578041E+04  8.445633E+03  2.183863E+04
       263  26  4.353920E+04 -5.073371E+05  2.950143E+03  1.901776E+04  5.048017E+03  3.899951E+03
       263  27 -6.167621E+02 -6.265634E+05 -3.291631E+04  6.745120E+04  1.140714E+03 -1.403539E+04
       264   1  3.115602E+04 -5.711647E+05 -2.290483E+04  7.778637E+04  2.934578E+03  2.848784E+04
       264   2  7.218237E+04 -4.368393E+05 -1.587556E+04  8.322122E+03  7.112932E+03  6.129024E+04
       264   3 -3.430366E+04 -3.430521E+05 -6.695847E+04  2.356787E+04  2.645369E+03  9.407724E+04
       264   4  4.352965E+03 -6.794589E+05 -4.899452E+04  6.202440E+04  2.943909E+03  2.416160E+04
       264   5  1.706283E+04 -6.588191E+05 -6.903502E+04  1.950761E+04  7.114129E+03  6.130586E+04
       264   6 -1.185261E+05 -6.795065E+05 -1.502231E+05  6.170628E+04  2.639903E+03  9.842849E+04
       264   7 -2.245000E+04 -7.877418E+05 -7.508485E+04  4.626520E+04  2.953461E+03  1.983611E+04
       264   8 -3.805983E+04 -8.807535E+05 -1.221979E+05  3.068912E+04  7.115327E+03  6.132147E+04
       264   9 -2.027516E+05 -1.015855E+06 -2.334954E+05  9.982405E+04  2.634972E+03  1.027774E+05
       264  10  3.115580E+04 -5.711656E+05 -2.290637E+04  7.778630E+04 -1.476549E-09  6.274358E-09
       264  11  7.218131E+04 -4.368433E+05 -1.588272E+04  8.321771E+03  1.696228E-09  9.325835E-09
       264  12 -3.430604E+04 -3.430616E+05 -6.697512E+04  2.356767E+04  7.310137E-12 -3.354626E-09
       264  13  4.352798E+03 -6.794596E+05 -4.899564E+04  6.202434E+04 -1.201097E-09  4.231390E-09
       264  14  1.706176E+04 -6.588232E+05 -6.904219E+04  1.950726E+04  1.551544E-10 -6.310652E-09
       264  15 -1.185287E+05 -6.795169E+05 -1.502414E+05  6.170607E+04  1.688281E-09  2.895399E-09
       264  16 -2.245011E+04 -7.877423E+05 -7.508560E+04  4.626515E+04 -4.021816E-09 -1.107485E-08
       264  17 -3.806090E+04 -8.807576E+05 -1.222051E+05  3.068876E+04  4.118636E-09 -7.765040E-09
       264  18 -2.027545E+05 -1.015866E+06 -2.335153E+05  9.982383E+04  2.738006E-09 -3.822580E-09
       264  19  3.115602E+04 -5.711647E+05 -2.290483E+04  7.778637E+04 -2.934578E+03 -2.848784E+04
       264  20  7.218237E+04 -4.368393E+05 -1.587556E+04  8.322122E+03 -7.112932E+03 -6.129024E+04
       264  21 -3.430366E+04 -3.430521E+05 -6.695847E+04  2.356787E+04 -2.645369E+03 -9.407724E+04
       264  22  4.352965E+03 -6.794589E+05 -4.899452E+04  6.202440E+04 -2.943909E+03 -2.416160E+04
       264  23  1.706283E+04 -6.588191E+05 -6.903502E+04  1.950761E+04 -7.114129E+03 -6.130586E+04
       264  24 -1.185261E+05 -6.795065E+05 -1.502231E+05  6.170628E+04 -2.639903E+03 -9.842849E+04
       264  25 -2.245000E+04 -7.877418E+05 -7.508485E+04  4.626520E+04 -2.953461E+03 -1.983611E+04
       264  26 -3.805983E+04 -8.807535E+05 -1.221979E+05  3.068912E+04 -7.115327E+03 -6.132147E+04
       264  27 -2.027516E+05 -1.015855E+06 -2.334954E+05  9.982405E+04 -2.634972E+03 -1.027774E+05
       265   1  8.277002E+05  2.784418E+05  1.764611E+05  2.956403E+05  8.240975E+04  2.895789E+04
       265   2  7.995034E+05  1.512314E+05  9.799336E+04  3.015511E+05  5.346302E+04  1.351313E+04
       265   3  8.081728E+05  1.470534E+05  7.320749E+04  2.892451E+05  2.278697E+04  2.632851E+03
       265   4  6.544396E+05  1.859504E+05  1.240257E+05  2.207512E+05  7.946954E+04  2.783894E+04
       265   5  6.297348E+05  7.943559E+04  5.170824E+04  2.470051E+05  5.268597E+04  1.321756E+04
       265   6  6.414797E+05  9.554225E+04  3.137004E+04  2.550391E+05  2.417239E+04  3.158755E+03
       265   7  4.812113E+05  9.347174E+04  7.158793E+04  1.458845E+05  7.653025E+04  2.672066E+04
       265   8  4.599947E+05  7.643863E+03  5.420621E+03  1.924734E+05  5.190915E+04  1.292211E+04
       265   9  4.748127E+05  4.403066E+04 -1.046964E+04  2.208402E+05  2.555741E+04  3.684570E+03
       265  10  8.276927E+05  2.784390E+05  1.764467E+05  2.956384E+05 -7.250559E-10 -1.035285E-09
       265  11  7.995003E+05  1.512304E+05  9.798765E+04  3.015505E+05  7.303708E-10 -6.167417E-11
       265  12  8.081723E+05  1.470533E+05  7.320650E+04  2.892451E+05 -1.858639E-09 -6.312366E-09
       265  13  6.544326E+05  1.859479E+05  1.240124E+05  2.207494E+05 -4.374075E-10 -9.287457E-09
       265  14  6.297318E+05  7.943466E+04  5.170270E+04  2.470045E+05 -9.785457E-10 -5.470342E-09
       265  15  6.414790E+05  9.554209E+04  3.136893E+04  2.550390E+05  1.927567E-09 -8.912927E-09
       265  16  4.812048E+05  9.346940E+04  7.157559E+04  1.458829E+05 -1.769755E-09 -1.333589E-09
       265  17  4.599917E+05  7.642962E+03  5.415248E+03  1.924729E+05 -1.386488E-09 -8.606981E-09
       265  18  4.748120E+05  4.403047E+04 -1.047089E+04  2.208401E+05  1.641717E-09 -1.674267E-09
       265  19  8.277002E+05  2.784418E+05  1.764611E+05  2.956403E+05 -8.240975E+04 -2.895789E+04
       265  20  7.995034E+05  1.512314E+05  9.799336E+04  3.015511E+05 -5.346302E+04 -1.351313E+04
       265  21  8.081728E+05  1.470534E+05  7.320749E+04  2.892451E+05 -2.278697E+04 -2.632851E+03
       265  22  6.544396E+05  1.859504E+05  1.240257E+05  2.207512E+05 -7.946954E+04 -2.783894E+04
       265  23  6.297348E+05  7.943559E+04  5.170824E+04  2.470051E+05 -5.268597E+04 -1.321756E+04
       265  24  6.414797E+05  9.554225E+04  3.137004E+04  2.550391E+05 -2.417239E+04 -3.158755E+03
       265  25  4.812113E+05  9.347174E+04  7.158793E+04  1.458845E+05 -7.653025E+04 -2.672066E+04
       265  26  4.599947E+05  7.643863E+03  5.420621E+03  1.924734E+05 -5.190915E+04 -1.292211E+04
       265  27  4.748127E+05  4.403066E+04 -1.046964E+04  2.208402E+05 -2.555741E+04 -3.684570E+03
       266   1  7.694510E+05  1.610022E+05  6.100620E+04  2.865960E+05  1.921867E+04  2.518663E+03
       266   2  7.556565E+05  1.372011E+05  4.324032E+04  2.783532E+05  1.255656E+04  3.897892E+02
       266   3  7.377744E+05  1.356306E+05  3.376039E+04  2.779362E+05  5.757449E+03 -1.377760E+03
       266   4  6.375154E+05  1.083964E+05  2.553079E+04  2.474883E+05  1.929534E+04  2.547582E+03
       266   5  6.388648E+05  9.233919E+04  1.222144E+04  2.454580E+05  1.280522E+04  4.840770E+02
       266   6  6.360933E+05  9.848003E+04  7.063152E+03  2.512533E+05  6.177917E+03 -1.218185E+03
       266   7  5.055966E+05  5.579214E+04 -9.946164E+03  2.083882E+05  1.937199E+04  2.576493E+03
       266   8  5.220864E+05  4.747829E+04 -1.879857E+04  2.125685E+05  1.305382E+04  5.783443E+02
       266   9  5.344225E+05  6.133002E+04 -1.963489E+04  2.245744E+05  6.598308E+03 -1.058638E+03
       266  10  7.694506E+05  1.610021E+05  6.100549E+04  2.865960E+05  1.681133E-09  4.126437E-09
       266  11  7.556563E+05  1.372011E+05  4.324002E+04  2.783532E+05  3.221828E-09  3.770228E-09
       266  12  7.377744E+05  1.356306E+05  3.376033E+04  2.779362E+05 -3.634067E-09  3.490985E-09
       266  13  6.375150E+05  1.083963E+05  2.553008E+04  2.474882E+05  6.393587E-10  8.017310E-09
       266  14  6.388646E+05  9.233914E+04  1.222113E+04  2.454580E+05  1.237472E-09  6.863684E-09
       266  15  6.360933E+05  9.848002E+04  7.063077E+03  2.512533E+05  6.885643E-11  1.813037E-08
       266  16  5.055962E+05  5.579203E+04 -9.946881E+03  2.083881E+05  3.561254E-09 -1.650995E-09
       266  17  5.220862E+05  4.747824E+04 -1.879889E+04  2.125685E+05  1.819905E-09 -9.164443E-09
       266  18  5.344224E+05  6.133001E+04 -1.963497E+04  2.245744E+05  2.931895E-09  1.742535E-08
       266  19  7.694510E+05  1.610022E+05  6.100620E+04  2.865960E+05 -1.921867E+04 -2.518663E+03
       266  20  7.556565E+05  1.372011E+05  4.324032E+04  2.783532E+05 -1.255656E+04 -3.897892E+02
       266  21  7.377744E+05  1.356306E+05  3.376039E+04  2.779362E+05 -5.757449E+03  1.377760E+03
       266  22  6.375154E+05  1.083964E+05  2.553079E+04  2.474883E+05 -1.929534E+04 -2.547582E+03
       266  23  6.388648E+05  9.233919E+04  1.222144E+04  2.454580E+05 -1.280522E+04 -4.840770E+02
       266  24  6.360933E+05  9.848003E+04  7.063152E+03  2.512533E+05 -6.177917E+03  1.218185E+03
       266  25  5.055966E+05  5.579214E+04 -9.946164E+03  2.083882E+05 -1.937199E+04 -2.576493E+03
       266  26  5.220864E+05  4.747829E+04 -1.879857E+04  2.125685E+05 -1.305382E+04 -5.783443E+02
       266  27  5.344225E+05  6.133002E+04 -1.963489E+04  2.245744E+05 -6.598308E+03  1.058638E+03
       267   1  7.123132E+05  1.290752E+05  2.580480E+04  2.717613E+05  4.668717E+03 -1.256293E+03
       267   2  7.005080E+05  1.168041E+05  1.890368E+04  2.621075E+05  2.940713E+03 -1.135798E+03
       267   3  6.799096E+05  1.154336E+05  1.347287E+04  2.628684E+05  1.202878E+03 -9.896596E+02
       267   4  6.356108E+05  9.982701E+04  5.521365E+03  2.503649E+05  4.982915E+03 -1.137043E+03
       267   5  6.399320E+05  9.384342E+04  2.871127E+03  2.453607E+05  3.267211E+03 -1.011851E+03
       267   6  6.354579E+05  9.875843E+04  1.681713E+03  2.507712E+05  1.541636E+03 -8.610298E+02
       267   7  5.589138E+05  7.057910E+04 -1.476263E+04  2.289709E+05  5.297072E+03 -1.017809E+03
       267   8  5.793596E+05  7.088299E+04 -1.316177E+04  2.286153E+05  3.593675E+03 -8.879169E+02
       267   9  5.910081E+05  8.208333E+04 -1.010962E+04  2.386747E+05  1.880368E+03 -7.324100E+02
       267  10  7.123132E+05  1.290752E+05  2.580475E+04  2.717613E+05  7.719591E-09 -5.406712E-09
       267  11  7.005079E+05  1.168041E+05  1.890366E+04  2.621075E+05  3.734548E-09  1.207156E-09
       267  12  6.799096E+05  1.154336E+05  1.347287E+04  2.628684E+05 -1.210482E-08  2.377057E-09
       267  13  6.356108E+05  9.982701E+04  5.521316E+03  2.503649E+05  7.068154E-10  5.220889E-09
       267  14  6.399320E+05  9.384342E+04  2.871105E+03  2.453607E+05  2.371859E-09 -3.033990E-09
       267  15  6.354579E+05  9.875843E+04  1.681707E+03  2.507712E+05 -8.640000E-10 -3.641300E-09
       267  16  5.589138E+05  7.057909E+04 -1.476269E+04  2.289709E+05 -8.757720E-09  9.752340E-09
       267  17  5.793596E+05  7.088298E+04 -1.316179E+04  2.286153E+05  4.616742E-09  5.114318E-09
       267  18  5.910081E+05  8.208332E+04 -1.010962E+04  2.386747E+05  7.009467E-09  2.872370E-09
       267  19  7.123132E+05  1.290752E+05  2.580480E+04  2.717613E+05 -4.668717E+03  1.256293E+03
       267  20  7.005080E+05  1.168041E+05  1.890368E+04  2.621075E+05 -2.940713E+03  1.135798E+03
       267  21  6.799096E+05  1.154336E+05  1.347287E+04  2.628684E+05 -1.202878E+03  9.896596E+02
       267  22  6.356108E+05  9.982701E+04  5.521365E+03  2.503649E+05 -4.982915E+03  1.137043E+03
       267  23  6.399320E+05  9.384342E+04  2.871127E+03  2.453607E+05 -3.267211E+03  1.011851E+03
       267  24  6.354579E+05  9.875843E+04  1.681713E+03  2.507712E+05 -1.541636E+03  8.610298E+02
       267  25  5.589138E+05  7.057910E+04 -1.476263E+04  2.289709E+05 -5.297072E+03  1.017809E+03
       267  26  5.793596E+05  7.088299E+04 -1.316177E+04  2.286153E+05 -3.593675E+03  8.879169E+02
       267  27  5.910081E+05  8.208333E+04 -1.010962E+04  2.386747E+05 -1.880368E+03  7.324100E+02
       268   1  6.562010E+05  1.067627E+05  6.782169E+03  2.564186E+05  8.067667E+02 -6.674086E+02
       268   2  6.447118E+05  9.578831E+04  2.103653E+03  2.466543E+05  1.030944E+02 -1.339198E+02
       268   3  6.239002E+05  9.443678E+04 -2.202477E+03  2.475071E+05 -6.012696E+02  4.014287E+02
       268   4  6.354003E+05  9.888537E+04  1.337134E+03  2.506605E+05  1.136850E+03 -5.420635E+02
       268   5  6.400549E+05  9.402627E+04  8.716666E+02  2.453701E+05  4.340637E+02 -8.237388E+00
       268   6  6.353867E+05  9.878988E+04  7.779259E+02  2.506968E+05 -2.694288E+02  5.274452E+02
       268   7  6.146000E+05  9.100809E+04 -4.107922E+03  2.449025E+05  1.466921E+03 -4.167232E+02
       268   8  6.353979E+05  9.226424E+04 -3.603209E+02  2.440859E+05  7.650303E+02  1.174440E+02
       268   9  6.468733E+05  1.031430E+05  3.758327E+03  2.538865E+05  6.241955E+01  6.534646E+02
       268  10  6.562010E+05  1.067627E+05  6.782167E+03  2.564186E+05 -3.620591E-09  1.320808E-08
       268  11  6.447118E+05  9.578831E+04  2.103653E+03  2.466543E+05 -1.165030E-08 -1.133169E-09
       268  12  6.239002E+05  9.443678E+04 -2.202478E+03  2.475071E+05 -1.153368E-08 -9.436417E-09
       268  13  6.354003E+05  9.888537E+04  1.337131E+03  2.506605E+05 -1.016056E-09  1.123180E-08
       268  14  6.400549E+05  9.402627E+04  8.716663E+02  2.453701E+05 -9.067929E-10  4.192582E-09
       268  15  6.353867E+05  9.878988E+04  7.779252E+02  2.506968E+05 -5.153422E-09 -8.248076E-09
       268  16  6.146000E+05  9.100809E+04 -4.107926E+03  2.449025E+05  9.508183E-10  1.418285E-08
       268  17  6.353979E+05  9.226424E+04 -3.603220E+02  2.440859E+05  5.732638E-09  2.135163E-08
       268  18  6.468733E+05  1.031430E+05  3.758326E+03  2.538865E+05  1.992263E-09  1.154106E-08
       268  19  6.562010E+05  1.067627E+05  6.782169E+03  2.564186E+05 -8.067667E+02  6.674086E+02
       268  20  6.447118E+05  9.578831E+04  2.103653E+03  2.466543E+05 -1.030944E+02  1.339198E+02
       268  21  6.239002E+05  9.443678E+04 -2.202477E+03  2.475071E+05  6.012696E+02 -4.014287E+02
       268  22  6.354003E+05  9.888537E+04  1.337134E+03  2.506605E+05 -1.136850E+03  5.420635E+02
       268  23  6.400549E+05  9.402627E+04  8.716666E+02  2.453701E+05 -4.340637E+02  8.237388E+00
       268  24  6.353867E+05  9.878988E+04  7.779259E+02  2.506968E+05  2.694288E+02 -5.274452E+02
       268  25  6.146000E+05  9.100809E+04 -4.107922E+03  2.449025E+05 -1.466921E+03  4.167232E+02
       268  26  6.353979E+05  9.226424E+04 -3.603209E+02  2.440859E+05 -7.650303E+02 -1.174440E+02
       268  27  6.468733E+05  1.031430E+05  3.758327E+03  2.538865E+05 -6.241955E+01 -6.534646E+02
       269   1  6.003644E+05  8.555905E+04 -8.494785E+03  2.410891E+05 -8.896327E+02  7.600769E+02
       269   2  5.888183E+05  7.461817E+04 -1.240956E+04  2.312295E+05 -1.731714E+03  1.245388E+03
       269   3  5.679565E+05  7.342110E+04 -1.582867E+04  2.320279E+05 -2.573918E+03  1.731389E+03
       269   4  6.353844E+05  9.879331E+04  8.266384E+02  2.507145E+05 -5.574741E+02  8.862073E+02
       269   5  6.400538E+05  9.400148E+04  1.144970E+03  2.453552E+05 -1.399296E+03  1.371594E+03
       269   6  6.354071E+05  9.895330E+04  1.958721E+03  2.506535E+05 -2.241255E+03  1.857665E+03
       269   7  6.704056E+05  1.120276E+05  1.014795E+04  2.603405E+05 -2.252950E+02  1.012346E+03
       269   8  6.912918E+05  1.133849E+05  1.469926E+04  2.594818E+05 -1.066847E+03  1.497811E+03
       269   9  7.028618E+05  1.244857E+05  1.974567E+04  2.692809E+05 -1.908554E+03  1.983956E+03
       269  10  6.003644E+05  8.555905E+04 -8.494787E+03  2.410891E+05 -4.290324E-09 -5.421580E-09
       269  11  5.888183E+05  7.461816E+04 -1.240957E+04  2.312295E+05 -1.173893E-09 -3.522881E-09
       269  12  5.679565E+05  7.342110E+04 -1.582869E+04  2.320279E+05  3.838313E-09 -1.785288E-08
       269  13  6.353844E+05  9.879331E+04  8.266364E+02  2.507145E+05 -5.145235E-09  7.451764E-09
       269  14  6.400538E+05  9.400148E+04  1.144963E+03  2.453552E+05 -4.378504E-09  3.713086E-09
       269  15  6.354070E+05  9.895329E+04  1.958705E+03  2.506535E+05  1.556257E-09  1.023623E-08
       269  16  6.704056E+05  1.120276E+05  1.014795E+04  2.603405E+05 -6.721518E-09  3.195110E-11
       269  17  6.912918E+05  1.133849E+05  1.469925E+04  2.594818E+05 -2.594996E-09  8.501681E-09
       269  18  7.028618E+05  1.244857E+05  1.974566E+04  2.692809E+05 -6.945604E-10 -4.620383E-09
       269  19  6.003644E+05  8.555905E+04 -8.494785E+03  2.410891E+05  8.896327E+02 -7.600769E+02
       269  20  5.888183E+05  7.461817E+04 -1.240956E+04  2.312295E+05  1.731714E+03 -1.245388E+03
       269  21  5.679565E+05  7.342110E+04 -1.582867E+04  2.320279E+05  2.573918E+03 -1.731389E+03
       269  22  6.353844E+05  9.879331E+04  8.266384E+02  2.507145E+05  5.574741E+02 -8.862073E+02
       269  23  6.400538E+05  9.400148E+04  1.144970E+03  2.453552E+05  1.399296E+03 -1.371594E+03
       269  24  6.354071E+05  9.895330E+04  1.958721E+03  2.506535E+05  2.241255E+03 -1.857665E+03
       269  25  6.704056E+05  1.120276E+05  1.014795E+04  2.603405E+05  2.252950E+02 -1.012346E+03
       269  26  6.912918E+05  1.133849E+05  1.469926E+04  2.594818E+05  1.066847E+03 -1.497811E+03
       269  27  7.028618E+05  1.244857E+05  1.974567E+04  2.692809E+05  1.908554E+03 -1.983956E+03
       270   1  5.440787E+05  6.441655E+04 -2.167691E+04  2.258892E+05 -3.111922E+03  2.005830E+03
       270   2  5.321732E+05  5.289290E+04 -2.410171E+04  2.155689E+05 -5.604594E+03  1.876121E+03
       270   3  5.117320E+05  5.316721E+04 -2.428883E+04  2.156608E+05 -8.085640E+03  1.716407E+03
       270   4  6.354876E+05  9.876912E+04  2.521558E+03  2.508418E+05 -2.767974E+03  2.136367E+03
       270   5  6.398724E+05  9.369699E+04  4.402242E+03  2.453210E+05 -5.275221E+03  2.001076E+03
       270   6  6.357243E+05  1.004255E+05  8.531948E+03  2.502123E+05 -7.770903E+03  1.835758E+03
       270   7  7.269049E+05  1.331223E+05  2.671937E+04  2.757977E+05 -2.423970E+03  2.266924E+03
       270   8  7.475830E+05  1.345019E+05  3.290524E+04  2.750777E+05 -4.945784E+03  2.126055E+03
       270   9  7.597314E+05  1.476848E+05  4.135141E+04  2.847701E+05 -7.456097E+03  1.955136E+03
       270  10  5.440787E+05  6.441654E+04 -2.167693E+04  2.258893E+05 -6.012088E-09 -4.199625E-09
       270  11  5.321731E+05  5.289289E+04 -2.410177E+04  2.155689E+05 -2.022430E-09 -1.859982E-09
       270  12  5.117319E+05  5.316719E+04 -2.428896E+04  2.156608E+05  8.887543E-09  1.487094E-09
       270  13  6.354876E+05  9.876911E+04  2.521535E+03  2.508418E+05 -2.416300E-10  3.568533E-09
       270  14  6.398724E+05  9.369698E+04  4.402182E+03  2.453210E+05 -1.163985E-09  4.606225E-09
       270  15  6.357242E+05  1.004255E+05  8.531828E+03  2.502123E+05  2.342382E-09  6.079020E-09
       270  16  7.269049E+05  1.331223E+05  2.671935E+04  2.757977E+05  7.155506E-09  9.324940E-09
       270  17  7.475829E+05  1.345019E+05  3.290518E+04  2.750778E+05 -4.643379E-09 -8.012168E-09
       270  18  7.597313E+05  1.476848E+05  4.135129E+04  2.847701E+05 -5.998206E-09  7.153019E-09
       270  19  5.440787E+05  6.441655E+04 -2.167691E+04  2.258892E+05  3.111922E+03 -2.005830E+03
       270  20  5.321732E+05  5.289290E+04 -2.410171E+04  2.155689E+05  5.604594E+03 -1.876121E+03
       270  21  5.117320E+05  5.316721E+04 -2.428883E+04  2.156608E+05  8.085640E+03 -1.716407E+03
       270  22  6.354876E+05  9.876912E+04  2.521558E+03  2.508418E+05  2.767974E+03 -2.136367E+03
       270  23  6.398724E+05  9.369699E+04  4.402242E+03  2.453210E+05  5.275221E+03 -2.001076E+03
       270  24  6.357243E+05  1.004255E+05  8.531948E+03  2.502123E+05  7.770903E+03 -1.835758E+03
       270  25  7.269049E+05  1.331223E+05  2.671937E+04  2.757977E+05  2.423970E+03 -2.266924E+03
       270  26  7.475830E+05  1.345019E+05  3.290524E+04  2.750777E+05  4.945784E+03 -2.126055E+03
       270  27  7.597314E+05  1.476848E+05  4.135141E+04  2.847701E+05  7.456097E+03 -1.955136E+03
       271   1  4.864215E+05  4.363114E+04 -2.842618E+04  2.123352E+05 -9.977743E+03  1.557897E+03
       271   2  4.734437E+05  2.799602E+04 -2.485444E+04  1.989938E+05 -1.988698E+04 -1.370165E+03
       271   3  4.591422E+05  4.164527E+04 -8.816199E+03  1.920625E+05 -2.962549E+04 -4.747094E+03
       271   4  6.364744E+05  9.833901E+04  1.092852E+04  2.515907E+05 -9.530083E+03  1.727673E+03
       271   5  6.382167E+05  9.136333E+04  1.892975E+04  2.454695E+05 -1.965393E+04 -1.281940E+03
       271   6  6.386755E+05  1.137108E+05  3.956489E+04  2.457584E+05 -2.960734E+04 -4.740585E+03
       271   7  7.865486E+05  1.530477E+05  5.028121E+04  2.908544E+05 -9.082304E+03  1.897489E+03
       271   8  8.030159E+05  1.547326E+05  6.271156E+04  2.919565E+05 -1.942080E+04 -1.193688E+03
       271   9  8.182405E+05  1.857796E+05  8.794324E+04  2.994689E+05 -2.958919E+04 -4.734072E+03
       271  10  4.864214E+05  4.363111E+04 -2.842637E+04  2.123352E+05 -6.246114E-10 -2.214628E-09
       271  11  4.734433E+05  2.799591E+04 -2.485518E+04  1.989938E+05 -1.706776E-09  4.322889E-09
       271  12  4.591413E+05  4.164501E+04 -8.817890E+03  1.920624E+05  6.911764E-09 -1.232599E-09
       271  13  6.364743E+05  9.833898E+04  1.092835E+04  2.515907E+05  1.676484E-09 -5.935129E-09
       271  14  6.382163E+05  9.136322E+04  1.892902E+04  2.454695E+05  2.490787E-09 -3.604614E-09
       271  15  6.386746E+05  1.137105E+05  3.956320E+04  2.457583E+05  2.763600E-09 -1.542845E-09
       271  16  7.865485E+05  1.530477E+05  5.028105E+04  2.908544E+05  5.349744E-09  4.675625E-10
       271  17  8.030155E+05  1.547325E+05  6.271085E+04  2.919564E+05  1.112557E-10 -7.394662E-09
       271  18  8.182396E+05  1.857794E+05  8.794155E+04  2.994688E+05 -2.123116E-09 -7.460657E-09
       271  19  4.864215E+05  4.363114E+04 -2.842618E+04  2.123352E+05  9.977743E+03 -1.557897E+03
       271  20  4.734437E+05  2.799602E+04 -2.485444E+04  1.989938E+05  1.988698E+04  1.370165E+03
       271  21  4.591422E+05  4.164527E+04 -8.816199E+03  1.920625E+05  2.962549E+04  4.747094E+03
       271  22  6.364744E+05  9.833901E+04  1.092852E+04  2.515907E+05  9.530083E+03 -1.727673E+03
       271  23  6.382167E+05  9.136333E+04  1.892975E+04  2.454695E+05  1.965393E+04  1.281940E+03
       271  24  6.386755E+05  1.137108E+05  3.956489E+04  2.457584E+05  2.960734E+04  4.740585E+03
       271  25  7.865486E+05  1.530477E+05  5.028121E+04  2.908544E+05  9.082304E+03 -1.897489E+03
       271  26  8.030159E+05  1.547326E+05  6.271156E+04  2.919565E+05  1.942080E+04  1.193688E+03
       271  27  8.182405E+05  1.857796E+05  8.794324E+04  2.994689E+05  2.958919E+04  4.734072E+03
       272   1  4.241810E+05  2.820740E+04 -6.260618E+03  2.148605E+05 -3.865889E+04 -6.731595E+03
       272   2  4.073904E+05 -2.229103E+04  2.066534E+04  1.761974E+05 -8.001668E+04 -2.163617E+04
       272   3  4.517005E+05  1.116722E+05  1.260390E+05  1.035558E+05 -1.192186E+05 -4.222737E+04
       272   4  6.448355E+05  9.377474E+04  4.861728E+04  2.574431E+05 -3.700780E+04 -6.104692E+03
       272   5  6.240583E+05  7.137572E+04  8.014256E+04  2.478793E+05 -8.106733E+04 -2.203626E+04
       272   6  6.648892E+05  2.339307E+05  1.922347E+05  2.043443E+05 -1.229711E+05 -4.365819E+04
       272   7  8.655377E+05  1.593415E+05  1.034918E+05  3.000374E+05 -3.535607E+04 -5.477661E+03
       272   8  8.407711E+05  1.650493E+05  1.396152E+05  3.195849E+05 -8.211837E+04 -2.243654E+04
       272   9  8.781241E+05  3.562117E+05  2.584255E+05  3.051688E+05 -1.267249E+05 -4.509014E+04
       272  10  4.241794E+05  2.820695E+04 -6.263509E+03  2.148603E+05  2.529816E-09 -4.052071E-09
       272  11  4.073834E+05 -2.229325E+04  2.065244E+04  1.761960E+05 -1.439471E-09 -4.783679E-09
       272  12  4.516847E+05  1.116665E+05  1.260090E+05  1.035518E+05 -3.651658E-10 -1.719731E-09
       272  13  6.448340E+05  9.377433E+04  4.861464E+04  2.574429E+05  4.002834E-09  1.402357E-11
       272  14  6.240511E+05  7.137344E+04  8.012931E+04  2.478779E+05 -5.651573E-10 -4.027618E-09
       272  15  6.648725E+05  2.339246E+05  1.922027E+05  2.043400E+05 -5.405473E-10  2.337073E-09
       272  16  8.655364E+05  1.593411E+05  1.034894E+05  3.000372E+05  3.713613E-09  8.391138E-09
       272  17  8.407637E+05  1.650469E+05  1.396016E+05  3.195834E+05 -6.232506E-10  7.388433E-09
       272  18  8.781064E+05  3.562052E+05  2.583915E+05  3.051642E+05 -9.010710E-10  7.590040E-09
       272  19  4.241810E+05  2.820740E+04 -6.260618E+03  2.148605E+05  3.865889E+04  6.731595E+03
       272  20  4.073904E+05 -2.229103E+04  2.066534E+04  1.761974E+05  8.001668E+04  2.163617E+04
       272  21  4.517005E+05  1.116722E+05  1.260390E+05  1.035558E+05  1.192186E+05  4.222737E+04
       272  22  6.448355E+05  9.377474E+04  4.861728E+04  2.574431E+05  3.700780E+04  6.104692E+03
       272  23  6.240583E+05  7.137572E+04  8.014256E+04  2.478793E+05  8.106733E+04  2.203626E+04
       272  24  6.648892E+05  2.339307E+05  1.922347E+05  2.043443E+05  1.229711E+05  4.365819E+04
       272  25  8.655377E+05  1.593415E+05  1.034918E+05  3.000374E+05  3.535607E+04  5.477661E+03
       272  26  8.407711E+05  1.650493E+05  1.396152E+05  3.195849E+05  8.211837E+04  2.243654E+04
       272  27  8.781241E+05  3.562117E+05  2.584255E+05  3.051688E+05  1.267249E+05  4.509014E+04
       273   1 -1.051484E+05 -8.114018E+05 -1.180396E+05  3.370791E+04 -1.958286E+03 -4.489039E+04
       273   2 -3.984111E+04 -7.733158E+05 -7.504736E+04  1.162769E+04 -6.045275E+03 -2.647260E+04
       273   3 -3.809191E+04 -7.533037E+05 -5.991144E+04  1.096947E+04 -5.101487E+03 -8.036340E+03
       273   4 -5.035396E+04 -5.924137E+05 -6.391352E+04  1.718848E+04 -1.968573E+03 -4.160740E+04
       273   5  7.264632E+03 -5.835904E+05 -2.958399E+04  6.567615E+03 -6.047517E+03 -2.571776E+04
       273   6  1.774617E+03 -5.923967E+05 -2.134727E+04  1.736925E+04 -5.095683E+03 -9.810620E+03
       273   7  4.437894E+03 -3.733814E+05 -9.790791E+03  6.632396E+02 -1.979033E+03 -3.832325E+04
       273   8  5.436785E+04 -3.938318E+05  1.587684E+04  1.506014E+03 -6.049772E+03 -2.496270E+04
       273   9  4.163942E+04 -4.314658E+05  1.721510E+04  2.377071E+04 -5.089917E+03 -1.158536E+04
       273  10 -1.051490E+05 -8.114040E+05 -1.180434E+05  3.370784E+04 -6.078386E-11  1.308055E-09
       273  11 -3.984134E+04 -7.733166E+05 -7.504874E+04  1.162756E+04 -1.233869E-09 -1.034166E-09
       273  12 -3.809195E+04 -7.533038E+05 -5.991161E+04  1.096943E+04 -2.279052E-09 -5.747499E-09
       273  13 -5.035443E+04 -5.924156E+05 -6.391678E+04  1.718841E+04  8.285090E-10 -9.714147E-09
       273  14  7.264415E+03 -5.835911E+05 -2.958530E+04  6.567490E+03 -1.672465E-09  3.023323E-09
       273  15  1.774563E+03 -5.923968E+05 -2.134750E+04  1.736921E+04  2.537761E-10 -1.731161E-08
       273  16  4.437495E+03 -3.733830E+05 -9.793560E+03  6.631785E+02 -6.063624E-10 -1.046440E-08
       273  17  5.436764E+04 -3.938325E+05  1.587560E+04  1.505892E+03  1.941456E-09 -2.014292E-08
       273  18  4.163936E+04 -4.314659E+05  1.721480E+04  2.377066E+04  2.141205E-10  1.005055E-08
       273  19 -1.051484E+05 -8.114018E+05 -1.180396E+05  3.370791E+04  1.958286E+03  4.489039E+04
       273  20 -3.984111E+04 -7.733158E+05 -7.504736E+04  1.162769E+04  6.045275E+03  2.647260E+04
       273  21 -3.809191E+04 -7.533037E+05 -5.991144E+04  1.096947E+04  5.101487E+03  8.036340E+03
       273  22 -5.035396E+04 -5.924137E+05 -6.391352E+04  1.718848E+04  1.968573E+03  4.160740E+04
       273  23  7.264632E+03 -5.835904E+05 -2.958399E+04  6.567615E+03  6.047517E+03  2.571776E+04
       273  24  1.774617E+03 -5.923967E+05 -2.134727E+04  1.736925E+04  5.095683E+03  9.810620E+03
       273  25  4.437894E+03 -3.733814E+05 -9.790791E+03  6.632396E+02  1.979033E+03  3.832325E+04
       273  26  5.436785E+04 -3.938318E+05  1.587684E+04  1.506014E+03  6.049772E+03  2.496270E+04
       273  27  4.163942E+04 -4.314658E+05  1.721510E+04  2.377071E+04  5.089917E+03  1.158536E+04
       274   1 -3.518473E+04 -7.108661E+05 -4.855582E+04  2.018060E+04 -3.690897E+03 -5.963621E+03
       274   2 -2.105265E+04 -6.790913E+05 -3.829966E+04  6.566354E+03 -2.911013E+03  2.520977E+03
       274   3 -2.214046E+04 -6.520427E+05 -3.733807E+04  1.488822E+04 -1.839830E+03  1.100669E+04
       274   4 -5.049418E+03 -5.895238E+05 -1.941100E+04  1.742349E+04 -3.689749E+03 -6.297548E+03
       274   5  1.752678E+03 -5.871732E+05 -1.625621E+04  6.453136E+03 -2.909462E+03  2.041575E+03
       274   6 -6.638574E+03 -5.895235E+05 -2.229384E+04  1.741882E+04 -1.837825E+03  1.038142E+04
       274   7  2.508485E+04 -4.681681E+05  9.732769E+03  1.466584E+04 -3.688599E+03 -6.631540E+03
       274   8  2.455739E+04 -4.952473E+05  5.786638E+03  6.339907E+03 -2.907911E+03  1.562101E+03
       274   9  8.863051E+03 -5.270007E+05 -7.249881E+03  1.994969E+04 -1.835826E+03  9.756078E+03
       274  10 -3.518476E+04 -7.108661E+05 -4.855591E+04  2.018058E+04 -2.744608E-09  2.747785E-09
       274  11 -2.105266E+04 -6.790913E+05 -3.829968E+04  6.566360E+03  1.146320E-09  7.399695E-09
       274  12 -2.214050E+04 -6.520428E+05 -3.733830E+04  1.488824E+04 -1.944419E-09 -3.570522E-09
       274  13 -5.049443E+03 -5.895239E+05 -1.941110E+04  1.742347E+04  5.013651E-12 -9.186669E-09
       274  14  1.752668E+03 -5.871732E+05 -1.625623E+04  6.453141E+03  1.767919E-10  5.621861E-09
       274  15 -6.638607E+03 -5.895236E+05 -2.229405E+04  1.741884E+04 -2.480772E-09 -2.152159E-08
       274  16  2.508483E+04 -4.681681E+05  9.732661E+03  1.466582E+04  1.250379E-09 -6.278496E-09
       274  17  2.455738E+04 -4.952473E+05  5.786618E+03  6.339911E+03  2.819099E-10 -1.637856E-08
       274  18  8.863022E+03 -5.270009E+05 -7.250066E+03  1.994970E+04 -9.402938E-10  5.584072E-09
       274  19 -3.518473E+04 -7.108661E+05 -4.855582E+04  2.018060E+04  3.690897E+03  5.963621E+03
       274  20 -2.105265E+04 -6.790913E+05 -3.829966E+04  6.566354E+03  2.911013E+03 -2.520977E+03
       274  21 -2.214046E+04 -6.520427E+05 -3.733807E+04  1.488822E+04  1.839830E+03 -1.100669E+04
       274  22 -5.049418E+03 -5.895238E+05 -1.941100E+04  1.742349E+04  3.689749E+03  6.297548E+03
       274  23  1.752678E+03 -5.871732E+05 -1.625621E+04  6.453136E+03  2.909462E+03 -2.041575E+03
       274  24 -6.638574E+03 -5.895235E+05 -2.229384E+04  1.741882E+04  1.837825E+03 -1.038142E+04
       274  25  2.508485E+04 -4.681681E+05  9.732769E+03  1.466584E+04  3.688599E+03  6.631540E+03
       274  26  2.455739E+04 -4.952473E+05  5.786638E+03  6.339907E+03  2.907911E+03 -1.562101E+03
       274  27  8.863051E+03 -5.270007E+05 -7.249881E+03  1.994969E+04  1.835826E+03 -9.756078E+03
       275   1 -2.996119E+03 -6.161600E+05 -3.083582E+04  2.620736E+04 -9.310471E+02  1.534659E+04
       275   2  1.104195E+04 -5.754482E+05 -3.555414E+04  5.359337E+02  1.421096E+02  3.478028E+04
       275   3 -5.559488E+04 -5.572685E+05 -7.306395E+04 -3.288294E+03  5.512469E+01  5.421108E+04
       275   4  2.681157E+03 -5.935037E+05 -2.544429E+04  1.747364E+04 -9.285879E+02  1.448357E+04
       275   5  9.324531E+03 -5.821955E+05 -3.716910E+04  6.444761E+03  1.433090E+02  3.450084E+04
       275   6 -6.480988E+04 -5.935231E+05 -8.209185E+04  1.726329E+04  5.597303E+01  5.451430E+04
       275   7  8.358682E+03 -5.708468E+05 -2.005276E+04  8.739601E+03 -9.261044E+02  1.362051E+04
       275   8  7.607244E+03 -5.889427E+05 -3.878404E+04  1.235352E+04  1.445030E+02  3.422140E+04
       275   9 -7.402340E+04 -6.297757E+05 -9.111962E+04  3.781368E+04  5.684153E+01  5.481750E+04
       275  10 -2.996184E+03 -6.161602E+05 -3.083627E+04  2.620738E+04 -1.741364E-09  2.352344E-09
       275  11  1.104162E+04 -5.754495E+05 -3.555641E+04  5.359297E+02  2.047802E-09  5.477400E-09
       275  12 -5.559567E+04 -5.572716E+05 -7.306947E+04 -3.288296E+03  1.876184E-09  4.311468E-09
       275  13  2.681100E+03 -5.935039E+05 -2.544469E+04  1.747365E+04 -1.198439E-09 -8.838385E-09
       275  14  9.324211E+03 -5.821968E+05 -3.717134E+04  6.444757E+03  1.418443E-09  6.746883E-09
       275  15 -6.481068E+04 -5.935263E+05 -8.209744E+04  1.726329E+04 -4.556963E-10 -2.172192E-08
       275  16  8.358631E+03 -5.708470E+05 -2.005311E+04  8.739611E+03  2.949174E-10 -4.534774E-09
       275  17  7.606929E+03 -5.889440E+05 -3.878625E+04  1.235352E+04  2.528210E-10 -1.991045E-08
       275  18 -7.402421E+04 -6.297789E+05 -9.112527E+04  3.781368E+04 -3.102135E-10  5.572780E-09
       275  19 -2.996119E+03 -6.161600E+05 -3.083582E+04  2.620736E+04  9.310471E+02 -1.534659E+04
       275  20  1.104195E+04 -5.754482E+05 -3.555414E+04  5.359337E+02 -1.421096E+02 -3.478028E+04
       275  21 -5.559488E+04 -5.572685E+05 -7.306395E+04 -3.288294E+03 -5.512469E+01 -5.421108E+04
       275  22  2.681157E+03 -5.935037E+05 -2.544429E+04  1.747364E+04  9.285879E+02 -1.448357E+04
       275  23  9.324531E+03 -5.821955E+05 -3.716910E+04  6.444761E+03 -1.433090E+02 -3.450084E+04
       275  24 -6.480988E+04 -5.935231E+05 -8.209185E+04  1.726329E+04 -5.597303E+01 -5.451430E+04
       275  25  8.358682E+03 -5.708468E+05 -2.005276E+04  8.739601E+03  9.261044E+02 -1.362051E+04
       275  26  7.607244E+03 -5.889427E+05 -3.878404E+04  1.235352E+04 -1.445030E+02 -3.422140E+04
       275  27 -7.402340E+04 -6.297757E+05 -9.111962E+04  3.781368E+04 -5.684153E+01 -5.481750E+04
       276   1  6.335395E+04 -6.665126E+04 -5.093171E+04 -1.851299E+03  3.974013E+04  4.885844E+03
       276   2  9.057989E+04 -1.194553E+05 -7.747525E+04 -5.097664E+02  2.880703E+04  1.452787E+04
       276   3  1.362135E+05 -1.055301E+05 -8.016211E+04 -2.604501E+04  1.788612E+04  1.341967E+04
       276   4  5.504513E+05  5.470882E+04  6.920467E+04 -1.862186E+04  4.734188E+04  4.894371E+03
       276   5  5.407949E+05 -7.902210E+03  3.028056E+04 -5.149692E+03  3.097925E+04  1.452920E+04
       276   6  5.504724E+05 -2.868523E+03  1.896809E+04 -1.855245E+04  1.462956E+04  1.341682E+04
       276   7  1.037765E+06  1.760523E+05  1.893239E+05 -3.540567E+04  5.494956E+04  4.902485E+03
       276   8  9.911956E+05  1.036363E+05  1.380221E+05 -9.793042E+03  3.315304E+04  1.453050E+04
       276   9  9.648886E+05  9.978088E+04  1.180862E+05 -1.105489E+04  1.137083E+04  1.341389E+04
       276  10  6.335225E+04 -6.665171E+04 -5.093472E+04 -1.851455E+03  2.849843E-10  1.780177E-11
       276  11  9.057894E+04 -1.194558E+05 -7.747721E+04 -5.101035E+02 -2.628493E-10 -2.398029E-11
       276  12  1.362131E+05 -1.055304E+05 -8.016305E+04 -2.604521E+04  3.416380E-10 -3.902545E-11
       276  13  5.504488E+05  5.470819E+04  6.920041E+04 -1.862205E+04  9.851464E-10  4.688900E-11
       276  14  5.407938E+05 -7.902694E+03  3.027836E+04 -5.150054E+03 -4.230267E-10  2.157817E-11
       276  15  5.504721E+05 -2.868774E+03  1.896735E+04 -1.855261E+04 -1.731255E-10  4.534832E-11
       276  16  1.037762E+06  1.760515E+05  1.893182E+05 -3.540589E+04 -6.023853E-10  2.826251E-11
       276  17  9.911944E+05  1.036358E+05  1.380196E+05 -9.793430E+03  7.249068E-10  3.746007E-11
       276  18  9.648884E+05  9.978065E+04  1.180857E+05 -1.105501E+04  5.006962E-10 -4.579905E-11
       276  19  6.335395E+04 -6.665126E+04 -5.093171E+04 -1.851299E+03 -3.974013E+04 -4.885844E+03
       276  20  9.057989E+04 -1.194553E+05 -7.747525E+04 -5.097664E+02 -2.880703E+04 -1.452787E+04
       276  21  1.362135E+05 -1.055301E+05 -8.016211E+04 -2.604501E+04 -1.788612E+04 -1.341967E+04
       276  22  5.504513E+05  5.470882E+04  6.920467E+04 -1.862186E+04 -4.734188E+04 -4.894371E+03
       276  23  5.407949E+05 -7.902210E+03  3.028056E+04 -5.149692E+03 -3.097925E+04 -1.452920E+04
       276  24  5.504724E+05 -2.868523E+03  1.896809E+04 -1.855245E+04 -1.462956E+04 -1.341682E+04
       276  25  1.037765E+06  1.760523E+05  1.893239E+05 -3.540567E+04 -5.494956E+04 -4.902485E+03
       276  26  9.911956E+05  1.036363E+05  1.380221E+05 -9.793042E+03 -3.315304E+04 -1.453050E+04
       276  27  9.648886E+05  9.978088E+04  1.180862E+05 -1.105489E+04 -1.137083E+04 -1.341389E+04
       277   1  1.806988E+05 -8.504285E+04 -7.237524E+04 -1.701368E+04  1.179046E+04  1.104496E+04
       277   2  2.148860E+05 -8.281626E+04 -7.132883E+04 -4.972131E+03  8.154393E+03  1.042445E+04
       277   3  2.514721E+05 -7.350421E+04 -6.611208E+04 -1.932495E+04  4.517655E+03  9.014204E+03
       277   4  5.467310E+05  5.702865E+03  1.547464E+04 -1.846801E+04  1.168245E+04  1.104443E+04
       277   5  5.455015E+05 -8.802085E+02  7.871707E+03 -5.269634E+03  7.646130E+03  1.042386E+04
       277   6  5.467377E+05 -3.104617E+02  4.715158E+03 -1.846469E+04  3.609347E+03  9.013723E+03
       277   7  9.128857E+05  9.643886E+04  1.033150E+05 -1.992322E+04  1.157438E+04  1.104391E+04
       277   8  8.762170E+05  8.104792E+04  8.706451E+04 -5.567306E+03  7.137597E+03  1.042326E+04
       277   9  8.420832E+05  7.287696E+04  7.553622E+04 -1.760401E+04  2.700609E+03  9.013239E+03
       277  10  1.806986E+05 -8.504302E+04 -7.237573E+04 -1.701379E+04  1.875852E-10 -5.849724E-11
       277  11  2.148859E+05 -8.281639E+04 -7.132916E+04 -4.972199E+03 -1.576341E-10 -1.004137E-10
       277  12  2.514720E+05 -7.350430E+04 -6.611227E+04 -1.932498E+04 -1.594224E-10  1.351419E-10
       277  13  5.467308E+05  5.702697E+03  1.547415E+04 -1.846812E+04  9.398887E-11  7.428632E-11
       277  14  5.455014E+05 -8.803409E+02  7.871393E+03 -5.269698E+03 -2.894897E-10 -7.138800E-11
       277  15  5.467377E+05 -3.105525E+02  4.714980E+03 -1.846471E+04 -4.589751E-10  1.987713E-10
       277  16  9.128855E+05  9.643869E+04  1.033145E+05 -1.992332E+04  1.213132E-10  2.707869E-11
       277  17  8.762169E+05  8.104779E+04  8.706421E+04 -5.567366E+03  1.310014E-10  2.113212E-10
       277  18  8.420832E+05  7.287687E+04  7.553605E+04 -1.760403E+04 -4.265028E-10  1.542835E-10
       277  19  1.806988E+05 -8.504285E+04 -7.237524E+04 -1.701368E+04 -1.179046E+04 -1.104496E+04
       277  20  2.148860E+05 -8.281626E+04 -7.132883E+04 -4.972131E+03 -8.154393E+03 -1.042445E+04
       277  21  2.514721E+05 -7.350421E+04 -6.611208E+04 -1.932495E+04 -4.517655E+03 -9.014204E+03
       277  22  5.467310E+05  5.702865E+03  1.547464E+04 -1.846801E+04 -1.168245E+04 -1.104443E+04
       277  23  5.455015E+05 -8.802085E+02  7.871707E+03 -5.269634E+03 -7.646130E+03 -1.042386E+04
       277  24  5.467377E+05 -3.104617E+02  4.715158E+03 -1.846469E+04 -3.609347E+03 -9.013723E+03
       277  25  9.128857E+05  9.643886E+04  1.033150E+05 -1.992322E+04 -1.157438E+04 -1.104391E+04
       277  26  8.762170E+05  8.104792E+04  8.706451E+04 -5.567306E+03 -7.137597E+03 -1.042326E+04
       277  27  8.420832E+05  7.287696E+04  7.553622E+04 -1.760401E+04 -2.700609E+03 -9.013239E+03
       278   1  2.981625E+05 -6.089988E+04 -5.565096E+04 -1.826802E+04  3.535394E+03  8.069723E+03
       278   2  3.327227E+05 -5.298183E+04 -4.905168E+04 -5.386459E+03  2.526723E+03  6.710536E+03
       278   3  3.676558E+05 -4.431318E+04 -4.159720E+04 -1.843918E+04  1.517380E+03  5.299909E+03
       278   4  5.462803E+05  5.716364E+02  3.702311E+03 -1.836351E+04  2.863887E+03  8.069421E+03
       278   5  5.460936E+05 -1.049669E+02  2.063624E+03 -5.396628E+03  1.828897E+03  6.710374E+03
       278   6  5.462835E+05 -2.636485E+01  1.298335E+03 -1.836346E+04  7.932897E+02  5.299900E+03
       278   7  7.944546E+05  6.203869E+04  6.305124E+04 -1.845905E+04  2.192113E+03  8.069120E+03
       278   8  7.595062E+05  5.276860E+04  5.317571E+04 -5.406801E+03  1.130831E+03  6.710213E+03
       278   9  7.249405E+05  4.425814E+04  4.419161E+04 -1.828773E+04  6.899168E+01  5.299890E+03
       278  10  2.981625E+05 -6.089995E+04 -5.565110E+04 -1.826804E+04 -1.377207E-12  3.038836E-11
       278  11  3.327227E+05 -5.298188E+04 -4.905177E+04 -5.386472E+03 -4.434323E-10 -8.671418E-11
       278  12  3.676558E+05 -4.431321E+04 -4.159726E+04 -1.843918E+04 -1.211858E-10  1.570107E-12
       278  13  5.462803E+05  5.715643E+02  3.702174E+03 -1.836353E+04 -4.356170E-10  1.176073E-10
       278  14  5.460936E+05 -1.050161E+02  2.063533E+03 -5.396638E+03  2.671917E-10  1.652394E-10
       278  15  5.462835E+05 -2.639519E+01  1.298281E+03 -1.836347E+04 -3.089618E-10  7.276507E-11
       278  16  7.944546E+05  6.203862E+04  6.305111E+04 -1.845906E+04 -6.327845E-10  1.582534E-10
       278  17  7.595062E+05  5.276855E+04  5.317562E+04 -5.406807E+03  4.499493E-10 -5.358219E-12
       278  18  7.249405E+05  4.425811E+04  4.419155E+04 -1.828773E+04  2.148495E-11  1.230236E-10
       278  19  2.981625E+05 -6.089988E+04 -5.565096E+04 -1.826802E+04 -3.535394E+03 -8.069723E+03
       278  20  3.327227E+05 -5.298183E+04 -4.905168E+04 -5.386459E+03 -2.526723E+03 -6.710536E+03
       278  21  3.676558E+05 -4.431318E+04 -4.159720E+04 -1.843918E+04 -1.517380E+03 -5.299909E+03
       278  22  5.462803E+05  5.716364E+02  3.702311E+03 -1.836351E+04 -2.863887E+03 -8.069421E+03
       278  23  5.460936E+05 -1.049669E+02  2.063624E+03 -5.396628E+03 -1.828897E+03 -6.710374E+03
       278  24  5.462835E+05 -2.636485E+01  1.298335E+03 -1.836346E+04 -7.932897E+02 -5.299900E+03
       278  25  7.944546E+05  6.203869E+04  6.305124E+04 -1.845905E+04 -2.192113E+03 -8.069120E+03
       278  26  7.595062E+05  5.276860E+04  5.317571E+04 -5.406801E+03 -1.130831E+03 -6.710213E+03
       278  27  7.249405E+05  4.425814E+04  4.419161E+04 -1.828773E+04 -6.899168E+01 -5.299890E+03
       279   1  4.140734E+05 -3.266894E+04 -3.048199E+04 -1.828315E+04  1.285362E+03  4.472661E+03
       279   2  4.484190E+05 -2.423992E+04 -2.260682E+04 -5.454555E+03  8.821928E+02  3.073547E+03
       279   3  4.828424E+05 -1.570530E+04 -1.444353E+04 -1.829453E+04  4.787044E+02  1.674091E+03
       279   4  5.462208E+05  5.697278E+01  1.069765E+03 -1.830449E+04  5.799801E+02  4.472725E+03
       279   5  5.461833E+05 -1.392861E+01  8.123030E+02 -5.470335E+03  1.765466E+02  3.073676E+03
       279   6  5.462221E+05  2.076010E+01  8.430309E+02 -1.830449E+04 -2.271843E+02  1.674290E+03
       279   7  6.783842E+05  3.278162E+04  3.262030E+04 -1.832583E+04 -1.255509E+02  4.472789E+03
       279   8  6.439564E+05  2.421137E+04  2.423075E+04 -5.486117E+03 -5.292101E+02  3.073805E+03
       279   9  6.096055E+05  1.574652E+04  1.612931E+04 -1.831446E+04 -9.331447E+02  1.674488E+03
       279  10  4.140734E+05 -3.266896E+04 -3.048203E+04 -1.828315E+04 -1.866589E-10 -3.639492E-12
       279  11  4.484190E+05 -2.423993E+04 -2.260684E+04 -5.454558E+03 -2.261625E-12  2.689239E-11
       279  12  4.828424E+05 -1.570530E+04 -1.444354E+04 -1.829453E+04 -2.032831E-10  6.561113E-11
       279  13  5.462208E+05  5.695120E+01  1.069727E+03 -1.830449E+04 -3.134690E-10  8.781629E-11
       279  14  5.461833E+05 -1.393877E+01  8.122852E+02 -5.470335E+03  7.030273E-10  6.849378E-11
       279  15  5.462221E+05  2.075708E+01  8.430256E+02 -1.830449E+04  1.987417E-10 -1.114265E-11
       279  16  6.783842E+05  3.278160E+04  3.262026E+04 -1.832583E+04 -3.058777E-10  8.943522E-11
       279  17  6.439564E+05  2.421136E+04  2.423073E+04 -5.486115E+03 -2.296798E-10  1.740730E-10
       279  18  6.096055E+05  1.574652E+04  1.612930E+04 -1.831446E+04 -2.454595E-10 -1.342089E-10
       279  19  4.140734E+05 -3.266894E+04 -3.048199E+04 -1.828315E+04 -1.285362E+03 -4.472661E+03
       279  20  4.484190E+05 -2.423992E+04 -2.260682E+04 -5.454555E+03 -8.821928E+02 -3.073547E+03
       279  21  4.828424E+05 -1.570530E+04 -1.444353E+04 -1.829453E+04 -4.787044E+02 -1.674091E+03
       279  22  5.462208E+05  5.697278E+01  1.069765E+03 -1.830449E+04 -5.799801E+02 -4.472725E+03
       279  23  5.461833E+05 -1.392861E+01  8.123030E+02 -5.470335E+03 -1.765466E+02 -3.073676E+03
       279  24  5.462221E+05  2.076010E+01  8.430309E+02 -1.830449E+04  2.271843E+02 -1.674290E+03
       279  25  6.783842E+05  3.278162E+04  3.262030E+04 -1.832583E+04  1.255509E+02 -4.472789E+03
       279  26  6.439564E+05  2.421137E+04  2.423075E+04 -5.486117E+03  5.292101E+02 -3.073805E+03
       279  27  6.096055E+05  1.574652E+04  1.612931E+04 -1.831446E+04  9.331447E+02 -1.674488E+03
       280   1  5.290325E+05 -4.234002E+03 -3.068326E+03 -1.825614E+04  3.160273E+02  8.597107E+02
       280   2  5.632623E+05  4.208763E+03  5.480535E+03 -5.480549E+03 -3.748824E+02 -5.373039E+02
       280   3  5.976200E+05  1.286784E+04  1.452908E+04 -1.830195E+04 -1.065779E+03 -1.931575E+03
       280   4  5.462343E+05  7.484419E+00  9.474397E+02 -1.828867E+04 -3.893211E+02  8.599284E+02
       280   5  5.461708E+05 -2.619868E+01  1.386642E+03 -5.490127E+03 -1.078848E+03 -5.371004E+02
       280   6  5.462339E+05  1.562831E+02  2.324668E+03 -1.828862E+04 -1.768324E+03 -1.931382E+03
       280   7  5.634364E+05  4.248950E+03  4.963187E+03 -1.832120E+04 -1.094689E+03  8.601462E+02
       280   8  5.290795E+05 -4.261181E+03 -2.707270E+03 -5.499705E+03 -1.782794E+03 -5.368969E+02
       280   9  4.948502E+05 -1.255546E+04 -9.879931E+03 -1.827529E+04 -2.470811E+03 -1.931188E+03
       280  10  5.290325E+05 -4.234003E+03 -3.068327E+03 -1.825614E+04  2.259975E-10  1.327570E-10
       280  11  5.632623E+05  4.208762E+03  5.480534E+03 -5.480549E+03 -4.963233E-10 -5.430291E-11
       280  12  5.976200E+05  1.286783E+04  1.452907E+04 -1.830195E+04  2.386985E-10  4.096211E-11
       280  13  5.462343E+05  7.483584E+00  9.474381E+02 -1.828867E+04  4.666323E-11  1.860233E-10
       280  14  5.461708E+05 -2.619931E+01  1.386639E+03 -5.490128E+03 -8.800474E-11  6.933390E-11
       280  15  5.462339E+05  1.562783E+02  2.324655E+03 -1.828862E+04  1.806910E-10 -1.181602E-12
       280  16  5.634364E+05  4.248949E+03  4.963183E+03 -1.832120E+04  8.389043E-11 -1.636508E-10
       280  17  5.290795E+05 -4.261182E+03 -2.707276E+03 -5.499706E+03  4.112567E-10  1.042796E-10
       280  18  4.948502E+05 -1.255547E+04 -9.879949E+03 -1.827529E+04 -8.172658E-11 -2.209026E-10
       280  19  5.290325E+05 -4.234002E+03 -3.068326E+03 -1.825614E+04 -3.160273E+02 -8.597107E+02
       280  20  5.632623E+05  4.208763E+03  5.480535E+03 -5.480549E+03  3.748824E+02  5.373039E+02
       280  21  5.976200E+05  1.286784E+04  1.452908E+04 -1.830195E+04  1.065779E+03  1.931575E+03
       280  22  5.462343E+05  7.484419E+00  9.474397E+02 -1.828867E+04  3.893211E+02 -8.599284E+02
       280  23  5.461708E+05 -2.619868E+01  1.386642E+03 -5.490127E+03  1.078848E+03  5.371004E+02
       280  24  5.462339E+05  1.562831E+02  2.324668E+03 -1.828862E+04  1.768324E+03  1.931382E+03
       280  25  5.634364E+05  4.248950E+03  4.963187E+03 -1.832120E+04  1.094689E+03 -8.601462E+02
       280  26  5.290795E+05 -4.261181E+03 -2.707270E+03 -5.499705E+03  1.782794E+03  5.368969E+02
       280  27  4.948502E+05 -1.255546E+04 -9.879931E+03 -1.827529E+04  2.470811E+03  1.931188E+03
       281   1  6.440091E+05  2.414277E+04  2.647709E+04 -1.809343E+04 -1.528386E+03 -2.752757E+03
       281   2  6.780665E+05  3.248538E+04  3.670808E+04 -5.503588E+03 -4.096046E+03 -4.153120E+03
       281   3  7.129484E+05  4.275090E+04  4.909160E+04 -1.864051E+04 -6.663419E+03 -5.508949E+03
       281   4  5.463862E+05 -6.591005E+01  2.991033E+03 -1.831762E+04 -2.246004E+03 -2.752595E+03
       281   5  5.459746E+05 -2.423683E+02  5.070817E+03 -5.453969E+03 -4.790722E+03 -4.153057E+03
       281   6  5.463833E+05  1.500599E+03  9.287808E+03 -1.831741E+04 -7.335014E+03 -5.508979E+03
       281   7  4.487719E+05 -2.427528E+04 -2.049570E+04 -1.854178E+04 -2.963509E+03 -2.752433E+03
       281   8  4.138986E+05 -3.297138E+04 -2.656768E+04 -5.404360E+03 -5.485251E+03 -4.152994E+03
       281   9  3.798436E+05 -3.975171E+04 -3.051793E+04 -1.799439E+04 -8.006430E+03 -5.509009E+03
       281  10  6.440091E+05  2.414276E+04  2.647707E+04 -1.809344E+04 -1.386432E-11 -1.100491E-10
       281  11  6.780664E+05  3.248535E+04  3.670802E+04 -5.503602E+03 -2.074545E-10 -1.850305E-10
       281  12  7.129484E+05  4.275085E+04  4.909146E+04 -1.864054E+04 -5.922047E-10  2.931762E-10
       281  13  5.463861E+05 -6.591954E+01  2.991009E+03 -1.831763E+04 -4.854295E-11 -2.397495E-10
       281  14  5.459745E+05 -2.423930E+02  5.070742E+03 -5.453985E+03 -4.530627E-11 -1.890553E-10
       281  15  5.463833E+05  1.500552E+03  9.287650E+03 -1.831744E+04  4.907125E-11  2.095609E-10
       281  16  4.487719E+05 -2.427529E+04 -2.049573E+04 -1.854178E+04  2.521803E-10 -3.535063E-10
       281  17  4.138986E+05 -3.297140E+04 -2.656777E+04 -5.404378E+03  7.525910E-10 -4.646512E-11
       281  18  3.798436E+05 -3.975176E+04 -3.051811E+04 -1.799443E+04  1.067232E-10  1.718799E-10
       281  19  6.440091E+05  2.414277E+04  2.647709E+04 -1.809343E+04  1.528386E+03  2.752757E+03
       281  20  6.780665E+05  3.248538E+04  3.670808E+04 -5.503588E+03  4.096046E+03  4.153120E+03
       281  21  7.129484E+05  4.275090E+04  4.909160E+04 -1.864051E+04  6.663419E+03  5.508949E+03
       281  22  5.463862E+05 -6.591005E+01  2.991033E+03 -1.831762E+04  2.246004E+03  2.752595E+03
       281  23  5.459746E+05 -2.423683E+02  5.070817E+03 -5.453969E+03  4.790722E+03  4.153057E+03
       281  24  5.463833E+05  1.500599E+03  9.287808E+03 -1.831741E+04  7.335014E+03  5.508979E+03
       281  25  4.487719E+05 -2.427528E+04 -2.049570E+04 -1.854178E+04  2.963509E+03  2.752433E+03
       281  26  4.138986E+05 -3.297138E+04 -2.656768E+04 -5.404360E+03  5.485251E+03  4.152994E+03
       281  27  3.798436E+05 -3.975171E+04 -3.051793E+04 -1.799439E+04  8.006430E+03  5.509009E+03
       282   1  7.607425E+05  5.209794E+04  6.302692E+04 -1.633116E+04 -8.339155E+03 -6.425189E+03
       282   2  7.926631E+05  5.929673E+04  7.934935E+04 -6.379452E+03 -1.889407E+04 -7.822233E+03
       282   3  8.305874E+05  8.470979E+04  1.071067E+05 -2.246784E+04 -2.944927E+04 -8.562115E+03
       282   4  5.475184E+05 -7.469894E+02  1.186884E+04 -1.838637E+04 -9.207453E+03 -6.425272E+03
       282   5  5.445404E+05 -2.173704E+03  1.993206E+04 -5.367696E+03 -1.942722E+04 -7.822534E+03
       282   6  5.475092E+05  1.455982E+04  3.920102E+04 -1.838956E+04 -2.964668E+04 -8.562619E+03
       282   7  3.343359E+05 -5.359521E+04 -3.929246E+04 -2.044086E+04 -1.007545E+04 -6.425349E+03
       282   8  2.964740E+05 -6.364859E+04 -3.948958E+04 -4.356347E+03 -1.996016E+04 -7.822837E+03
       282   9  2.645044E+05 -5.559589E+04 -2.871031E+04 -1.431314E+04 -2.984400E+04 -8.563125E+03
       282  10  7.607424E+05  5.209788E+04  6.302671E+04 -1.633121E+04  1.278340E-10  2.422891E-10
       282  11  7.926627E+05  5.929657E+04  7.934857E+04 -6.379571E+03 -4.672750E-10 -1.818736E-10
       282  12  8.305865E+05  8.470947E+04  1.071049E+05 -2.246804E+04 -8.016292E-10  1.996754E-10
       282  13  5.475183E+05 -7.470565E+02  1.186860E+04 -1.838641E+04 -3.199397E-10  1.303638E-10
       282  14  5.445400E+05 -2.173871E+03  1.993124E+04 -5.367818E+03 -5.533841E-10 -2.606969E-10
       282  15  5.475083E+05  1.455951E+04  3.919923E+04 -1.838976E+04  1.996262E-10  2.009224E-10
       282  16  3.343358E+05 -5.359528E+04 -3.929273E+04 -2.044091E+04 -1.315234E-10  3.486323E-12
       282  17  2.964736E+05 -6.364877E+04 -3.949044E+04 -4.356473E+03  6.073950E-10 -3.912655E-10
       282  18  2.645034E+05 -5.559621E+04 -2.871212E+04 -1.431335E+04  9.158160E-10  2.235244E-10
       282  19  7.607425E+05  5.209794E+04  6.302692E+04 -1.633116E+04  8.339155E+03  6.425189E+03
       282  20  7.926631E+05  5.929673E+04  7.934935E+04 -6.379452E+03  1.889407E+04  7.822233E+03
       282  21  8.305874E+05  8.470979E+04  1.071067E+05 -2.246784E+04  2.944927E+04  8.562115E+03
       282  22  5.475184E+05 -7.469894E+02  1.186884E+04 -1.838637E+04  9.207453E+03  6.425272E+03
       282  23  5.445404E+05 -2.173704E+03  1.993206E+04 -5.367696E+03  1.942722E+04  7.822534E+03
       282  24  5.475092E+05  1.455982E+04  3.920102E+04 -1.838956E+04  2.964668E+04  8.562619E+03
       282  25  3.343359E+05 -5.359521E+04 -3.929246E+04 -2.044086E+04  1.007545E+04  6.425349E+03
       282  26  2.964740E+05 -6.364859E+04 -3.948958E+04 -4.356347E+03  1.996016E+04  7.822837E+03
       282  27  2.645044E+05 -5.559589E+04 -2.871031E+04 -1.431314E+04  2.984400E+04  8.563125E+03
       283   1  8.874905E+05  7.471434E+04  1.271242E+05  4.580683E+01 -3.429520E+04 -1.066789E+04
       283   2  8.986454E+05  7.070240E+04  1.643358E+05 -1.777133E+04 -8.028218E+04 -1.182907E+04
       283   3  9.589972E+05  2.388699E+05  2.745413E+05 -6.205100E+04 -1.262783E+05 -4.051793E+03
       283   4  5.569526E+05 -7.171229E+03  4.805174E+04 -1.845014E+04 -3.711285E+04 -1.066828E+04
       283   5  5.327133E+05 -1.991527E+04  7.679990E+04 -5.273256E+03 -7.857022E+04 -1.183015E+04
       283   6  5.569122E+05  1.387856E+05  1.754284E+05 -1.855684E+04 -1.200337E+05 -4.055818E+03
       283   7  2.265155E+05 -8.906343E+04 -3.102822E+04 -3.693622E+04 -3.992900E+04 -1.066850E+04
       283   8  1.669041E+05 -1.105420E+05 -1.074536E+04  7.217413E+03 -7.685924E+04 -1.183116E+04
       283   9  1.549783E+05  3.869645E+04  7.630461E+04  2.490912E+04 -1.137931E+05 -4.058973E+03
       283  10  8.874892E+05  7.471391E+04  1.271218E+05  4.551231E+01  6.366825E-10  4.463797E-10
       283  11  8.986384E+05  7.070052E+04  1.643235E+05 -1.777210E+04 -1.271365E-10 -8.950333E-11
       283  12  9.589801E+05  2.388656E+05  2.745114E+05 -6.205141E+04  5.000528E-10 -2.142848E-10
       283  13  5.569511E+05 -7.171720E+03  4.804894E+04 -1.845046E+04  2.248145E-10  3.524243E-10
       283  14  5.327066E+05 -1.991707E+04  7.678805E+04 -5.274005E+03 -1.950943E-10 -2.326094E-10
       283  15  5.568968E+05  1.387817E+05  1.754013E+05 -1.855723E+04 -3.750297E-10 -1.309313E-10
       283  16  2.265138E+05 -8.906398E+04 -3.103143E+04 -3.693657E+04 -3.744582E-10  2.964032E-10
       283  17  1.668977E+05 -1.105438E+05 -1.075672E+04  7.216681E+03  2.520936E-10  1.459180E-10
       283  18  1.549644E+05  3.869296E+04  7.628025E+04  2.490875E+04 -4.894794E-10 -7.708208E-11
       283  19  8.874905E+05  7.471434E+04  1.271242E+05  4.580683E+01  3.429520E+04  1.066789E+04
       283  20  8.986454E+05  7.070240E+04  1.643358E+05 -1.777133E+04  8.028218E+04  1.182907E+04
       283  21  9.589972E+05  2.388699E+05  2.745413E+05 -6.205100E+04  1.262783E+05  4.051793E+03
       283  22  5.569526E+05 -7.171229E+03  4.805174E+04 -1.845014E+04  3.711285E+04  1.066828E+04
       283  23  5.327133E+05 -1.991527E+04  7.679990E+04 -5.273256E+03  7.857022E+04  1.183015E+04
       283  24  5.569122E+05  1.387856E+05  1.754284E+05 -1.855684E+04  1.200337E+05  4.055818E+03
       283  25  2.265155E+05 -8.906343E+04 -3.102822E+04 -3.693622E+04  3.992900E+04  1.066850E+04
       283  26  1.669041E+05 -1.105420E+05 -1.074536E+04  7.217413E+03  7.685924E+04  1.183116E+04
       283  27  1.549783E+05  3.869645E+04  7.630461E+04  2.490912E+04  1.137931E+05  4.058973E+03
       284   1  1.178223E+05  8.083422E+05  1.321032E+05 -5.447757E+04  2.061355E+03  5.379401E+04
       284   2  3.492450E+04  7.313401E+05  7.274110E+04 -1.679807E+04  5.602188E+03  3.394040E+04
       284   3  2.345894E+04  6.746139E+05  4.412000E+04 -2.877508E+04  3.170487E+03  1.407911E+04
       284   4  5.767960E+04  5.672924E+05  7.257895E+04 -3.612211E+04  2.067958E+03  5.050547E+04
       284   5 -8.173319E+03  5.574242E+05  3.114609E+04 -1.134053E+04  5.603010E+03  3.367085E+04
       284   6 -3.105917E+03  5.673132E+05  1.836830E+04 -3.621492E+04  3.165613E+03  1.682639E+04
       284   7 -2.466224E+03  3.262962E+05  1.305064E+04 -1.777375E+04  2.074369E+03  4.721821E+04
       284   8 -5.127322E+04  3.835361E+05 -1.045104E+04 -5.884508E+03  5.603828E+03  3.340137E+04
       284   9 -2.967139E+04  4.600232E+05 -7.384158E+03 -4.365346E+04  3.160673E+03  1.957319E+04
       284  10  1.178216E+05  8.083391E+05  1.320977E+05 -5.447766E+04 -1.168808E-10 -2.693988E-10
       284  11  3.492416E+04  7.313389E+05  7.273888E+04 -1.679823E+04 -6.956773E-10  1.109795E-10
       284  12  2.345888E+04  6.746137E+05  4.411961E+04 -2.877512E+04  9.096551E-10  3.833783E-10
       284  13  5.767891E+04  5.672897E+05  7.257416E+04 -3.612219E+04  4.372699E-10 -8.681804E-11
       284  14 -8.173657E+03  5.574230E+05  3.114390E+04 -1.134068E+04 -1.793408E-09  2.149330E-10
       284  15 -3.106003E+03  5.673129E+05  1.836775E+04 -3.621496E+04  7.355619E-10  2.405896E-11
       284  16 -2.466826E+03  3.262938E+05  1.304644E+04 -1.777383E+04 -2.185180E-10  2.265671E-10
       284  17 -5.127356E+04  3.835349E+05 -1.045320E+04 -5.884659E+03 -2.754152E-10 -5.775486E-11
       284  18 -2.967151E+04  4.600228E+05 -7.384896E+03 -4.365351E+04  2.086242E-10 -4.362825E-10
       284  19  1.178223E+05  8.083422E+05  1.321032E+05 -5.447757E+04 -2.061355E+03 -5.379401E+04
       284  20  3.492450E+04  7.313401E+05  7.274110E+04 -1.679807E+04 -5.602188E+03 -3.394040E+04
       284  21  2.345894E+04  6.746139E+05  4.412000E+04 -2.877508E+04 -3.170487E+03 -1.407911E+04
       284  22  5.767960E+04  5.672924E+05  7.257895E+04 -3.612211E+04 -2.067958E+03 -5.050547E+04
       284  23 -8.173319E+03  5.574242E+05  3.114609E+04 -1.134053E+04 -5.603010E+03 -3.367085E+04
       284  24 -3.105917E+03  5.673132E+05  1.836830E+04 -3.621492E+04 -3.165613E+03 -1.682639E+04
       284  25 -2.466224E+03  3.262962E+05  1.305064E+04 -1.777375E+04 -2.074369E+03 -4.721821E+04
       284  26 -5.127322E+04  3.835361E+05 -1.045104E+04 -5.884508E+03 -5.603828E+03 -3.340137E+04
       284  27 -2.967139E+04  4.600232E+05 -7.384158E+03 -4.365346E+04 -3.160673E+03 -1.957319E+04
       285   1  1.062044E+04  5.806429E+05  1.833611E+04 -3.756644E+04  6.552834E+02  1.288168E+04
       285   2 -1.267821E+04  5.133346E+05 -7.093467E+03 -1.187694E+04 -1.570943E+03  1.054382E+04
       285   3 -3.149056E+04  4.472512E+05 -2.992509E+04 -3.593296E+04 -3.643883E+03  8.206734E+03
       285   4  6.300176E+03  5.631964E+05  1.419858E+04 -3.619653E+04  6.532799E+02  1.404540E+04
       285   5 -4.784914E+02  5.625802E+05  4.700547E+03 -1.133162E+04 -1.572768E+03  1.163054E+04
       285   6 -2.757069E+03  5.631989E+05 -2.145160E+03 -3.621190E+04 -3.645544E+03  9.216201E+03
       285   7  1.979896E+03  5.457501E+05  1.006104E+04 -3.482665E+04  6.512815E+02  1.520908E+04
       285   8  1.172105E+04  6.118281E+05  1.649439E+04 -1.078626E+04 -1.574592E+03  1.271734E+04
       285   9  2.597545E+04  6.791589E+05  2.563383E+04 -3.649090E+04 -3.647205E+03  1.022586E+04
       285  10  1.062040E+04  5.806428E+05  1.833580E+04 -3.756645E+04  2.648142E-10 -6.007806E-10
       285  11 -1.267824E+04  5.133345E+05 -7.093680E+03 -1.187693E+04  3.782441E-10 -2.724629E-10
       285  12 -3.149059E+04  4.472511E+05 -2.992525E+04 -3.593294E+04 -6.731149E-10  2.250884E-10
       285  13  6.300123E+03  5.631962E+05  1.419821E+04 -3.619653E+04  2.430062E-10 -1.620409E-11
       285  14 -4.785303E+02  5.625801E+05  4.700288E+03 -1.133161E+04  1.267700E-09 -1.348935E-10
       285  15 -2.757106E+03  5.631988E+05 -2.145344E+03 -3.621188E+04  1.237730E-09 -1.535826E-10
       285  16  1.979833E+03  5.457499E+05  1.006061E+04 -3.482666E+04  4.228162E-10  6.603503E-10
       285  17  1.172101E+04  6.118279E+05  1.649409E+04 -1.078624E+04 -1.119712E-09  2.614635E-10
       285  18  2.597541E+04  6.791588E+05  2.563361E+04 -3.649087E+04 -2.891188E-10 -2.137936E-10
       285  19  1.062044E+04  5.806429E+05  1.833611E+04 -3.756644E+04 -6.552834E+02 -1.288168E+04
       285  20 -1.267821E+04  5.133346E+05 -7.093467E+03 -1.187694E+04  1.570943E+03 -1.054382E+04
       285  21 -3.149056E+04  4.472512E+05 -2.992509E+04 -3.593296E+04  3.643883E+03 -8.206734E+03
       285  22  6.300176E+03  5.631964E+05  1.419858E+04 -3.619653E+04 -6.532799E+02 -1.404540E+04
       285  23 -4.784914E+02  5.625802E+05  4.700547E+03 -1.133162E+04  1.572768E+03 -1.163054E+04
       285  24 -2.757069E+03  5.631989E+05 -2.145160E+03 -3.621190E+04  3.645544E+03 -9.216201E+03
       285  25  1.979896E+03  5.457501E+05  1.006104E+04 -3.482665E+04 -6.512815E+02 -1.520908E+04
       285  26  1.172105E+04  6.118281E+05  1.649439E+04 -1.078626E+04  1.574592E+03 -1.271734E+04
       285  27  2.597545E+04  6.791589E+05  2.563383E+04 -3.649090E+04  3.647205E+03 -1.022586E+04
       286   1 -4.905462E+04  3.551659E+05 -5.418857E+04 -3.286587E+04 -6.434011E+03  6.532514E+03
       286   2 -6.416086E+04  2.924628E+05 -7.712367E+04 -1.323061E+04 -8.857039E+03  1.706511E+04
       286   3 -1.091011E+05  2.208421E+05 -1.143938E+05 -4.347295E+04 -3.202036E+03  2.760771E+04
       286   4  1.992137E+03  5.610897E+05 -4.838238E+03 -3.622310E+04 -6.439209E+03  9.784803E+03
       286   5  3.403682E+03  5.651962E+05 -1.187116E+04 -1.130227E+04 -8.855538E+03  1.624737E+04
       286   6 -2.430517E+04  5.610909E+05 -3.040971E+04 -3.625837E+04 -3.195217E+03  2.272119E+04
       286   7  5.303586E+04  7.670523E+05  4.450913E+04 -3.958143E+04 -6.444442E+03  1.303816E+04
       286   8  7.096286E+04  8.379978E+05  5.337610E+04 -9.373052E+03 -8.854041E+03  1.542927E+04
       286   9  6.048232E+04  9.014450E+05  5.356591E+04 -2.903980E+04 -3.188514E+03  1.783200E+04
       286  10 -4.905467E+04  3.551658E+05 -5.418872E+04 -3.286584E+04 -7.096685E-11 -3.012738E-10
       286  11 -6.416102E+04  2.924625E+05 -7.712437E+04 -1.323049E+04  3.310057E-10 -1.169918E-10
       286  12 -1.091013E+05  2.208413E+05 -1.143952E+05 -4.347288E+04 -1.826159E-10  1.226003E-10
       286  13  1.992067E+03  5.610896E+05 -4.838496E+03 -3.622305E+04 -9.988644E-10  1.184959E-10
       286  14  3.403527E+03  5.651959E+05 -1.187181E+04 -1.130215E+04  5.418289E-10 -1.318092E-10
       286  15 -2.430532E+04  5.610903E+05 -3.041070E+04 -3.625831E+04 -3.664606E-10  3.911672E-11
       286  16  5.303577E+04  7.670521E+05  4.450874E+04 -3.958136E+04  4.658045E-10  1.816163E-10
       286  17  7.096271E+04  8.379975E+05  5.337550E+04 -9.372942E+03 -1.741137E-10  1.434718E-11
       286  18  6.048222E+04  9.014446E+05  5.356530E+04 -2.903975E+04 -5.746640E-10 -6.958059E-11
       286  19 -4.905462E+04  3.551659E+05 -5.418857E+04 -3.286587E+04  6.434011E+03 -6.532514E+03
       286  20 -6.416086E+04  2.924628E+05 -7.712367E+04 -1.323061E+04  8.857039E+03 -1.706511E+04
       286  21 -1.091011E+05  2.208421E+05 -1.143938E+05 -4.347295E+04  3.202036E+03 -2.760771E+04
       286  22  1.992137E+03  5.610897E+05 -4.838238E+03 -3.622310E+04  6.439209E+03 -9.784803E+03
       286  23  3.403682E+03  5.651962E+05 -1.187116E+04 -1.130227E+04  8.855538E+03 -1.624737E+04
       286  24 -2.430517E+04  5.610909E+05 -3.040971E+04 -3.625837E+04  3.195217E+03 -2.272119E+04
       286  25  5.303586E+04  7.670523E+05  4.450913E+04 -3.958143E+04  6.444442E+03 -1.303816E+04
       286  26  7.096286E+04  8.379978E+05  5.337610E+04 -9.373052E+03  8.854041E+03 -1.542927E+04
       286  27  6.048232E+04  9.014450E+05  5.356591E+04 -2.903980E+04  3.188514E+03 -1.783200E+04
       287   1 -8.072418E+05 -3.352127E+05 -2.474993E+05 -2.716276E+05 -1.100368E+05 -3.773099E+04
       287   2 -7.738359E+05 -1.704722E+05 -1.447411E+05 -2.824926E+05 -7.174147E+04 -1.586874E+04
       287   3 -7.922849E+05 -1.654732E+05 -1.133910E+05 -2.658079E+05 -3.075197E+04 -1.157223E+03
       287   4 -5.260308E+05 -1.937720E+05 -1.639961E+05 -1.588430E+05 -1.053105E+05 -3.595930E+04
       287   5 -4.919438E+05 -5.435016E+04 -6.836365E+04 -1.951571E+05 -7.037124E+04 -1.535489E+04
       287   6 -5.090200E+05 -7.396565E+04 -4.145333E+04 -2.039301E+05 -3.273847E+04 -1.903760E+03
       287   7 -2.447415E+05 -5.230726E+04 -8.050087E+04 -4.600672E+04 -1.005819E+05 -3.418605E+04
       287   8 -2.099747E+05  6.178095E+04  8.006573E+03 -1.077844E+05 -6.900032E+04 -1.484072E+04
       287   9 -2.256769E+05  1.754222E+04  3.047825E+04 -1.420290E+05 -3.472598E+04 -2.650552E+03
       287  10 -8.072552E+05 -3.352175E+05 -2.475247E+05 -2.716309E+05 -1.442496E-10  6.998423E-11
       287  11 -7.738415E+05 -1.704738E+05 -1.447513E+05 -2.824935E+05 -1.309290E-09  4.327349E-11
       287  12 -7.922859E+05 -1.654734E+05 -1.133928E+05 -2.658079E+05 -4.964528E-10 -1.719450E-10
       287  13 -5.260431E+05 -1.937764E+05 -1.640194E+05 -1.588461E+05  4.712554E-10  5.169254E-11
       287  14 -4.919492E+05 -5.435174E+04 -6.837341E+04 -1.951580E+05 -8.198337E-10  4.357690E-11
       287  15 -5.090211E+05 -7.396594E+04 -4.145535E+04 -2.039302E+05 -9.186805E-11 -1.646655E-10
       287  16 -2.447527E+05 -5.231124E+04 -8.052208E+04 -4.600949E+04 -2.639237E-10  7.932456E-11
       287  17 -2.099799E+05  6.177943E+04  7.997209E+03 -1.077853E+05  8.900157E-10  1.320599E-11
       287  18 -2.256782E+05  1.754188E+04  3.047597E+04 -1.420291E+05 -1.156837E-11 -1.188937E-10
       287  19 -8.072418E+05 -3.352127E+05 -2.474993E+05 -2.716276E+05  1.100368E+05  3.773099E+04
       287  20 -7.738359E+05 -1.704722E+05 -1.447411E+05 -2.824926E+05  7.174147E+04  1.586874E+04
       287  21 -7.922849E+05 -1.654732E+05 -1.133910E+05 -2.658079E+05  3.075197E+04  1.157223E+03
       287  22 -5.260308E+05 -1.937720E+05 -1.639961E+05 -1.588430E+05  1.053105E+05  3.595930E+04
       287  23 -4.919438E+05 -5.435016E+04 -6.836365E+04 -1.951571E+05  7.037124E+04  1.535489E+04
       287  24 -5.090200E+05 -7.396565E+04 -4.145333E+04 -2.039301E+05  3.273847E+04  1.903760E+03
       287  25 -2.447415E+05 -5.230726E+04 -8.050087E+04 -4.600672E+04  1.005819E+05  3.418605E+04
       287  26 -2.099747E+05  6.178095E+04  8.006573E+03 -1.077844E+05  6.900032E+04  1.484072E+04
       287  27 -2.256769E+05  1.754222E+04  3.047825E+04 -1.420290E+05  3.472598E+04  2.650552E+03
       288   1 -7.477620E+05 -1.866674E+05 -9.913905E+04 -2.645439E+05 -2.633584E+04 -1.167830E+03
       288   2 -7.324311E+05 -1.579338E+05 -7.667668E+04 -2.560745E+05 -1.758634E+04  1.912881E+03
       288   3 -7.140516E+05 -1.561654E+05 -6.519300E+04 -2.553221E+05 -8.615308E+03  4.404074E+03
       288   4 -5.035643E+05 -9.121891E+04 -3.373964E+04 -1.942261E+05 -2.628968E+04 -1.150899E+03
       288   5 -5.041831E+05 -7.117692E+04 -1.614770E+04 -1.928424E+05 -1.781487E+04  1.826755E+03
       288   6 -5.016965E+05 -7.804174E+04 -9.313261E+03 -1.991764E+05 -9.118783E+03  4.214819E+03
       288   7 -2.593096E+05  4.234146E+03  3.165432E+04 -1.238831E+05 -2.624350E+04 -1.133959E+03
       288   8 -2.758849E+05  1.558337E+04  4.437678E+04 -1.295893E+05 -1.804348E+04  1.740593E+03
       288   9 -2.892974E+05  8.437400E+01  4.656279E+04 -1.430134E+05 -9.622448E+03  4.025496E+03
       288  10 -7.477628E+05 -1.866675E+05 -9.914036E+04 -2.645440E+05 -2.650383E-10 -3.627230E-10
       288  11 -7.324314E+05 -1.579339E+05 -7.667727E+04 -2.560745E+05  1.269047E-10 -7.149261E-11
       288  12 -7.140517E+05 -1.561655E+05 -6.519318E+04 -2.553221E+05 -5.822599E-11  4.222758E-11
       288  13 -5.035651E+05 -9.121909E+04 -3.374094E+04 -1.942262E+05 -1.405709E-10 -2.775263E-10
       288  14 -5.041835E+05 -7.117701E+04 -1.614830E+04 -1.928424E+05  6.611371E-11 -2.870676E-10
       288  15 -5.016966E+05 -7.804178E+04 -9.313450E+03 -1.991764E+05 -1.712147E-10  4.372127E-11
       288  16 -2.593103E+05  4.233960E+03  3.165303E+04 -1.238831E+05 -4.278292E-10 -2.787075E-10
       288  17 -2.758852E+05  1.558328E+04  4.437616E+04 -1.295892E+05 -6.284991E-10 -3.608719E-10
       288  18 -2.892975E+05  8.433175E+01  4.656259E+04 -1.430134E+05  2.482333E-11  4.836921E-12
       288  19 -7.477620E+05 -1.866674E+05 -9.913905E+04 -2.645439E+05  2.633584E+04  1.167830E+03
       288  20 -7.324311E+05 -1.579338E+05 -7.667668E+04 -2.560745E+05  1.758634E+04 -1.912881E+03
       288  21 -7.140516E+05 -1.561654E+05 -6.519300E+04 -2.553221E+05  8.615308E+03 -4.404074E+03
       288  22 -5.035643E+05 -9.121891E+04 -3.373964E+04 -1.942261E+05  2.628968E+04  1.150899E+03
       288  23 -5.041831E+05 -7.117692E+04 -1.614770E+04 -1.928424E+05  1.781487E+04 -1.826755E+03
       288  24 -5.016965E+05 -7.804174E+04 -9.313261E+03 -1.991764E+05  9.118783E+03 -4.214819E+03
       288  25 -2.593096E+05  4.234146E+03  3.165432E+04 -1.238831E+05  2.624350E+04  1.133959E+03
       288  26 -2.758849E+05  1.558337E+04  4.437678E+04 -1.295893E+05  1.804348E+04 -1.740593E+03
       288  27 -2.892974E+05  8.437400E+01  4.656279E+04 -1.430134E+05  9.622448E+03 -4.025496E+03
       289   1 -6.853915E+05 -1.496117E+05 -5.605902E+04 -2.487902E+05 -7.234337E+03  4.304554E+03
       289   2 -6.719709E+05 -1.355459E+05 -4.773686E+04 -2.379259E+05 -5.012841E+03  4.285690E+03
       289   3 -6.487972E+05 -1.339669E+05 -4.134605E+04 -2.388313E+05 -2.770803E+03  4.211238E+03
       289   4 -5.009392E+05 -7.996051E+04 -7.277324E+03 -1.981502E+05 -7.574804E+03  4.176562E+03
       289   5 -5.057160E+05 -7.300144E+04 -3.767993E+03 -1.925347E+05 -5.378929E+03  4.148160E+03
       289   6 -5.007346E+05 -7.852340E+04 -2.169177E+03 -1.986889E+05 -3.162579E+03  4.064153E+03
       289   7 -3.164540E+05 -1.030715E+04  4.150143E+04 -1.474966E+05 -7.915382E+03  4.048528E+03
       289   8 -3.394346E+05 -1.045535E+04  4.019843E+04 -1.471327E+05 -5.745124E+03  4.010590E+03
       289   9 -3.526514E+05 -2.307877E+04  3.700569E+04 -1.585379E+05 -3.554456E+03  3.917031E+03
       289  10 -6.853915E+05 -1.496118E+05 -5.605915E+04 -2.487902E+05 -1.770005E-10  9.290381E-11
       289  11 -6.719709E+05 -1.355460E+05 -4.773695E+04 -2.379259E+05 -4.268013E-10  7.803477E-11
       289  12 -6.487972E+05 -1.339669E+05 -4.134610E+04 -2.388313E+05 -1.137851E-11 -1.793099E-13
       289  13 -5.009393E+05 -7.996055E+04 -7.277465E+03 -1.981502E+05  1.040372E-10  6.447099E-11
       289  14 -5.057160E+05 -7.300147E+04 -3.768080E+03 -1.925347E+05  7.673536E-11  2.160382E-10
       289  15 -5.007347E+05 -7.852342E+04 -2.169227E+03 -1.986888E+05 -6.060261E-11 -1.032554E-10
       289  16 -3.164541E+05 -1.030718E+04  4.150128E+04 -1.474966E+05 -1.108264E-11  1.270502E-10
       289  17 -3.394346E+05 -1.045538E+04  4.019834E+04 -1.471327E+05 -3.113449E-10  4.825721E-11
       289  18 -3.526514E+05 -2.307879E+04  3.700564E+04 -1.585379E+05  7.857965E-11  9.028740E-11
       289  19 -6.853915E+05 -1.496117E+05 -5.605902E+04 -2.487902E+05  7.234337E+03 -4.304554E+03
       289  20 -6.719709E+05 -1.355459E+05 -4.773686E+04 -2.379259E+05  5.012841E+03 -4.285690E+03
       289  21 -6.487972E+05 -1.339669E+05 -4.134605E+04 -2.388313E+05  2.770803E+03 -4.211238E+03
       289  22 -5.009392E+05 -7.996051E+04 -7.277324E+03 -1.981502E+05  7.574804E+03 -4.176562E+03
       289  23 -5.057160E+05 -7.300144E+04 -3.767993E+03 -1.925347E+05  5.378929E+03 -4.148160E+03
       289  24 -5.007346E+05 -7.852340E+04 -2.169177E+03 -1.986889E+05  3.162579E+03 -4.064153E+03
       289  25 -3.164540E+05 -1.030715E+04  4.150143E+04 -1.474966E+05  7.915382E+03 -4.048528E+03
       289  26 -3.394346E+05 -1.045535E+04  4.019843E+04 -1.471327E+05  5.745124E+03 -4.010590E+03
       289  27 -3.526514E+05 -2.307877E+04  3.700569E+04 -1.585379E+05  3.554456E+03 -3.917031E+03
       290   1 -6.214037E+05 -1.241637E+05 -3.357446E+04 -2.315719E+05 -2.286386E+03  3.847971E+03
       290   2 -6.080105E+05 -1.114941E+05 -2.801867E+04 -2.202592E+05 -1.457960E+03  3.235869E+03
       290   3 -5.838952E+05 -1.099046E+05 -2.290897E+04 -2.213428E+05 -6.263998E+02  2.614852E+03
       290   4 -5.005963E+05 -7.876420E+04 -1.701598E+03 -1.986200E+05 -2.665889E+03  3.705539E+03
       290   5 -5.059468E+05 -7.315273E+04 -1.037271E+03 -1.924486E+05 -1.841561E+03  3.091949E+03
       290   6 -5.005752E+05 -7.862059E+04 -8.158095E+02 -1.986734E+05 -1.014118E+03  2.469439E+03
       290   7 -3.797745E+05 -3.336368E+04  3.017011E+04 -1.656623E+05 -3.045474E+03  3.563076E+03
       290   8 -4.038729E+05 -3.481069E+04  2.594327E+04 -1.646338E+05 -2.225231E+03  2.948002E+03
       290   9 -4.172484E+05 -4.733613E+04  2.127675E+04 -1.760014E+05 -1.401893E+03  2.324005E+03
       290  10 -6.214037E+05 -1.241637E+05 -3.357450E+04 -2.315718E+05 -2.666817E-10 -1.015428E-10
       290  11 -6.080105E+05 -1.114941E+05 -2.801869E+04 -2.202592E+05 -1.742941E-10  9.163857E-11
       290  12 -5.838952E+05 -1.099046E+05 -2.290898E+04 -2.213428E+05 -1.957308E-10  2.469884E-11
       290  13 -5.005963E+05 -7.876421E+04 -1.701637E+03 -1.986200E+05 -3.118159E-10  5.407970E-11
       290  14 -5.059468E+05 -7.315274E+04 -1.037295E+03 -1.924486E+05  2.156052E-10  2.074386E-10
       290  15 -5.005752E+05 -7.862060E+04 -8.158229E+02 -1.986734E+05 -4.623773E-11 -3.152974E-11
       290  16 -3.797745E+05 -3.336370E+04  3.017006E+04 -1.656622E+05  1.929824E-10 -7.856209E-11
       290  17 -4.038729E+05 -3.481070E+04  2.594324E+04 -1.646338E+05  2.813552E-10  1.492320E-10
       290  18 -4.172484E+05 -4.733614E+04  2.127674E+04 -1.760014E+05  7.546522E-11  5.406084E-11
       290  19 -6.214037E+05 -1.241637E+05 -3.357446E+04 -2.315719E+05  2.286386E+03 -3.847971E+03
       290  20 -6.080105E+05 -1.114941E+05 -2.801867E+04 -2.202592E+05  1.457960E+03 -3.235869E+03
       290  21 -5.838952E+05 -1.099046E+05 -2.290897E+04 -2.213428E+05  6.263998E+02 -2.614852E+03
       290  22 -5.005963E+05 -7.876420E+04 -1.701598E+03 -1.986200E+05  2.665889E+03 -3.705539E+03
       290  23 -5.059468E+05 -7.315273E+04 -1.037271E+03 -1.924486E+05  1.841561E+03 -3.091949E+03
       290  24 -5.005752E+05 -7.862059E+04 -8.158095E+02 -1.986734E+05  1.014118E+03 -2.469439E+03
       290  25 -3.797745E+05 -3.336368E+04  3.017011E+04 -1.656623E+05  3.045474E+03 -3.563076E+03
       290  26 -4.038729E+05 -3.481069E+04  2.594327E+04 -1.646338E+05  2.225231E+03 -2.948002E+03
       290  27 -4.172484E+05 -4.733613E+04  2.127675E+04 -1.760014E+05  1.401893E+03 -2.324005E+03
       291   1 -5.563413E+05 -9.961193E+04 -1.549252E+04 -2.139282E+05 -3.121495E+02  2.186330E+03
       291   2 -5.428164E+05 -8.695908E+04 -1.075304E+04 -2.024507E+05  5.052414E+02  1.554645E+03
       291   3 -5.184715E+05 -8.548936E+04 -6.449387E+03 -2.035043E+05  1.322564E+03  9.229333E+02
       291   4 -5.005528E+05 -7.864748E+04 -8.129317E+02 -1.987015E+05 -7.000029E+02  2.040893E+03
       291   5 -5.059716E+05 -7.311933E+04 -1.013360E+03 -1.924120E+05  1.174062E+02  1.409233E+03
       291   6 -5.005706E+05 -7.877434E+04 -1.649603E+03 -1.986539E+05  9.347317E+02  7.775411E+02
       291   7 -4.447616E+05 -5.768291E+04  1.386635E+04 -1.834736E+05 -1.087893E+03  1.895442E+03
       291   8 -4.691254E+05 -5.927951E+04  8.726206E+03 -1.823728E+05 -2.704543E+02  1.263811E+03
       291   9 -4.826693E+05 -7.205928E+04  3.150167E+03 -1.938033E+05  5.468856E+02  6.321439E+02
       291  10 -5.563413E+05 -9.961194E+04 -1.549253E+04 -2.139282E+05 -1.682441E-10 -8.692757E-12
       291  11 -5.428164E+05 -8.695908E+04 -1.075305E+04 -2.024507E+05 -4.163316E-11  1.746469E-10
       291  12 -5.184715E+05 -8.548936E+04 -6.449392E+03 -2.035043E+05  1.452647E-10  1.069044E-10
       291  13 -5.005529E+05 -7.864749E+04 -8.129405E+02 -1.987015E+05 -1.103895E-10 -7.996003E-11
       291  14 -5.059716E+05 -7.311934E+04 -1.013364E+03 -1.924120E+05  1.522353E-10 -1.400929E-10
       291  15 -5.005706E+05 -7.877434E+04 -1.649606E+03 -1.986539E+05 -2.210274E-10  8.643453E-11
       291  16 -4.447616E+05 -5.768291E+04  1.386634E+04 -1.834736E+05  1.178180E-10 -6.702012E-11
       291  17 -4.691254E+05 -5.927951E+04  8.726203E+03 -1.823728E+05 -1.679773E-11 -8.255533E-11
       291  18 -4.826693E+05 -7.205928E+04  3.150165E+03 -1.938033E+05 -1.101038E-11  6.911504E-11
       291  19 -5.563413E+05 -9.961193E+04 -1.549252E+04 -2.139282E+05  3.121495E+02 -2.186330E+03
       291  20 -5.428164E+05 -8.695908E+04 -1.075304E+04 -2.024507E+05 -5.052414E+02 -1.554645E+03
       291  21 -5.184715E+05 -8.548936E+04 -6.449387E+03 -2.035043E+05 -1.322564E+03 -9.229333E+02
       291  22 -5.005528E+05 -7.864748E+04 -8.129317E+02 -1.987015E+05  7.000029E+02 -2.040893E+03
       291  23 -5.059716E+05 -7.311933E+04 -1.013360E+03 -1.924120E+05 -1.174062E+02 -1.409233E+03
       291  24 -5.005706E+05 -7.877434E+04 -1.649603E+03 -1.986539E+05 -9.347317E+02 -7.775411E+02
       291  25 -4.447616E+05 -5.768291E+04  1.386635E+04 -1.834736E+05  1.087893E+03 -1.895442E+03
       291  26 -4.691254E+05 -5.927951E+04  8.726206E+03 -1.823728E+05  2.704543E+02 -1.263811E+03
       291  27 -4.826693E+05 -7.205928E+04  3.150167E+03 -1.938033E+05 -5.468856E+02 -6.321439E+02
       292   1 -4.907588E+05 -7.505889E+04  5.503202E+02 -1.962867E+05  1.820091E+03  5.566120E+02
       292   2 -4.771026E+05 -6.208001E+04  3.956463E+03 -1.845554E+05  3.964915E+03  4.204390E+02
       292   3 -4.533766E+05 -6.184738E+04  5.517734E+03 -1.850097E+05  6.098909E+03  3.134134E+02
       292   4 -5.006633E+05 -7.859287E+04 -2.101660E+03 -1.987755E+05  1.424410E+03  4.082794E+02
       292   5 -5.057941E+05 -7.290711E+04 -3.636790E+03 -1.924246E+05  3.582880E+03  2.772062E+02
       292   6 -5.008580E+05 -7.997040E+04 -7.027650E+03 -1.982595E+05  5.730457E+03  1.752576E+02
       292   7 -5.105676E+05 -8.212685E+04 -4.753648E+03 -2.012643E+05  1.028736E+03  2.599492E+02
       292   8 -5.344847E+05 -8.373416E+04 -1.123010E+04 -2.002936E+05  3.200865E+03  1.339809E+02
       292   9 -5.483371E+05 -9.809321E+04 -1.957319E+04 -2.115085E+05  5.362037E+03  3.711418E+01
       292  10 -4.907588E+05 -7.505889E+04  5.503134E+02 -1.962867E+05  1.699575E-11  8.684383E-11
       292  11 -4.771027E+05 -6.208001E+04  3.956433E+03 -1.845554E+05  4.355455E-11  1.293542E-10
       292  12 -4.533766E+05 -6.184739E+04  5.517664E+03 -1.850097E+05  8.889760E-10  4.184005E-10
       292  13 -5.006633E+05 -7.859287E+04 -2.101664E+03 -1.987755E+05 -1.524989E-10  5.967959E-11
       292  14 -5.057941E+05 -7.290712E+04 -3.636814E+03 -1.924246E+05  1.817962E-11  2.752534E-10
       292  15 -5.008580E+05 -7.997041E+04 -7.027712E+03 -1.982595E+05  1.332480E-09  3.792197E-10
       292  16 -5.105676E+05 -8.212685E+04 -4.753650E+03 -2.012643E+05 -3.532047E-10  1.066126E-10
       292  17 -5.344847E+05 -8.373416E+04 -1.123012E+04 -2.002936E+05  1.636179E-10  1.469552E-10
       292  18 -5.483372E+05 -9.809322E+04 -1.957325E+04 -2.115085E+05  1.692725E-09  4.200547E-10
       292  19 -4.907588E+05 -7.505889E+04  5.503202E+02 -1.962867E+05 -1.820091E+03 -5.566120E+02
       292  20 -4.771026E+05 -6.208001E+04  3.956463E+03 -1.845554E+05 -3.964915E+03 -4.204390E+02
       292  21 -4.533766E+05 -6.184738E+04  5.517734E+03 -1.850097E+05 -6.098909E+03 -3.134134E+02
       292  22 -5.006633E+05 -7.859287E+04 -2.101660E+03 -1.987755E+05 -1.424410E+03 -4.082794E+02
       292  23 -5.057941E+05 -7.290711E+04 -3.636790E+03 -1.924246E+05 -3.582880E+03 -2.772062E+02
       292  24 -5.008580E+05 -7.997040E+04 -7.027650E+03 -1.982595E+05 -5.730457E+03 -1.752576E+02
       292  25 -5.105676E+05 -8.212685E+04 -4.753648E+03 -2.012643E+05 -1.028736E+03 -2.599492E+02
       292  26 -5.344847E+05 -8.373416E+04 -1.123010E+04 -2.002936E+05 -3.200865E+03 -1.339809E+02
       292  27 -5.483371E+05 -9.809321E+04 -1.957319E+04 -2.115085E+05 -5.362037E+03 -3.711418E+01
       293   1 -4.250923E+05 -5.111105E+04  1.095803E+04 -1.802003E+05  7.690108E+03  3.078625E+02
       293   2 -4.109636E+05 -3.513095E+04  9.265326E+03 -1.663065E+05  1.594710E+04  2.477307E+03
       293   3 -3.929738E+05 -4.600187E+04 -2.696989E+03 -1.609394E+05  2.407373E+04  4.995919E+03
       293   4 -5.015492E+05 -7.816580E+04 -8.994589E+03 -1.993015E+05  7.223976E+03  1.330855E+02
       293   5 -5.043601E+05 -7.108245E+04 -1.558318E+04 -1.926539E+05  1.564433E+04  2.363692E+03
       293   6 -5.033441E+05 -9.088458E+04 -3.257231E+04 -1.945333E+05  2.393406E+04  4.943319E+03
       293   7 -5.780006E+05 -1.052204E+05 -2.894776E+04 -2.184008E+05  6.757905E+03 -4.167150E+01
       293   8 -5.977484E+05 -1.070334E+05 -4.043249E+04 -2.189977E+05  1.534160E+04  2.250096E+03
       293   9 -6.137027E+05 -1.357660E+05 -6.244872E+04 -2.281216E+05  2.379443E+04  4.890731E+03
       293  10 -4.250924E+05 -5.111106E+04  1.095792E+04 -1.802003E+05  1.472352E-09  5.235230E-10
       293  11 -4.109639E+05 -3.513103E+04  9.264836E+03 -1.663065E+05  1.501455E-10  1.682691E-11
       293  12 -3.929744E+05 -4.600205E+04 -2.698125E+03 -1.609395E+05 -3.053513E-10 -4.317154E-11
       293  13 -5.015492E+05 -7.816581E+04 -8.994688E+03 -1.993016E+05  1.672444E-09  4.536017E-10
       293  14 -5.043604E+05 -7.108252E+04 -1.558365E+04 -1.926539E+05  1.002455E-10 -6.682698E-11
       293  15 -5.033448E+05 -9.088476E+04 -3.257343E+04 -1.945334E+05  1.038599E-10 -9.580589E-11
       293  16 -5.780006E+05 -1.052204E+05 -2.894784E+04 -2.184008E+05  1.295955E-09  2.510877E-10
       293  17 -5.977486E+05 -1.070334E+05 -4.043294E+04 -2.189977E+05 -3.974941E-10  2.226642E-10
       293  18 -6.137033E+05 -1.357662E+05 -6.244983E+04 -2.281217E+05  2.737603E-10  1.829931E-11
       293  19 -4.250923E+05 -5.111105E+04  1.095803E+04 -1.802003E+05 -7.690108E+03 -3.078625E+02
       293  20 -4.109636E+05 -3.513095E+04  9.265326E+03 -1.663065E+05 -1.594710E+04 -2.477307E+03
       293  21 -3.929738E+05 -4.600187E+04 -2.696989E+03 -1.609394E+05 -2.407373E+04 -4.995919E+03
       293  22 -5.015492E+05 -7.816580E+04 -8.994589E+03 -1.993015E+05 -7.223976E+03 -1.330855E+02
       293  23 -5.043601E+05 -7.108245E+04 -1.558318E+04 -1.926539E+05 -1.564433E+04 -2.363692E+03
       293  24 -5.033441E+05 -9.088458E+04 -3.257231E+04 -1.945333E+05 -2.393406E+04 -4.943319E+03
       293  25 -5.780006E+05 -1.052204E+05 -2.894776E+04 -2.184008E+05 -6.757905E+03  4.167150E+01
       293  26 -5.977484E+05 -1.070334E+05 -4.043249E+04 -2.189977E+05 -1.534160E+04 -2.250096E+03
       293  27 -6.137027E+05 -1.357660E+05 -6.244872E+04 -2.281216E+05 -2.379443E+04 -4.890731E+03
       294   1 -3.579794E+05 -3.222833E+04 -3.028745E+03 -1.778734E+05  3.138979E+04  6.505606E+03
       294   2 -3.412756E+05  1.173678E+04 -2.420225E+04 -1.436044E+05  6.577098E+04  1.857990E+04
       294   3 -3.724372E+05 -9.864088E+04 -1.101392E+05 -8.419255E+04  9.855225E+04  3.492197E+04
       294   4 -5.085752E+05 -7.427153E+04 -4.002030E+04 -2.039479E+05  3.003661E+04  5.998723E+03
       294   5 -4.926060E+05 -5.475908E+04 -6.598651E+04 -1.948046E+05  6.642116E+04  1.882255E+04
       294   6 -5.249156E+05 -1.900115E+05 -1.583172E+05 -1.605156E+05  1.012053E+05  3.591121E+04
       294   7 -6.591488E+05 -1.163152E+05 -7.701338E+04 -2.300177E+05  2.868378E+04  5.491896E+03
       294   8 -6.439133E+05 -1.212508E+05 -1.077727E+05 -2.459925E+05  6.707116E+04  1.906510E+04
       294   9 -6.773672E+05 -2.813670E+05 -2.064969E+05 -2.368175E+05  1.038577E+05  3.689980E+04
       294  10 -3.579805E+05 -3.222864E+04 -3.030677E+03 -1.778735E+05 -2.359304E-10  5.565042E-12
       294  11 -3.412804E+05  1.173525E+04 -2.421103E+04 -1.436054E+05  2.488754E-10  2.625632E-10
       294  12 -3.724480E+05 -9.864480E+04 -1.101598E+05 -8.419532E+04  1.250813E-10  1.331946E-10
       294  13 -5.085762E+05 -7.427181E+04 -4.002207E+04 -2.039480E+05  4.113183E-10  4.268579E-11
       294  14 -4.926108E+05 -5.476065E+04 -6.599547E+04 -1.948056E+05  5.152562E-10  4.356156E-12
       294  15 -5.249269E+05 -1.900157E+05 -1.583389E+05 -1.605185E+05 -2.286102E-10  2.457189E-10
       294  16 -6.591497E+05 -1.163155E+05 -7.701498E+04 -2.300178E+05  2.518482E-10  1.588494E-10
       294  17 -6.439182E+05 -1.212524E+05 -1.077818E+05 -2.459936E+05 -1.066065E-10  2.955659E-10
       294  18 -6.773792E+05 -2.813714E+05 -2.065197E+05 -2.368206E+05 -2.411596E-10 -5.926785E-12
       294  19 -3.579794E+05 -3.222833E+04 -3.028745E+03 -1.778734E+05 -3.138979E+04 -6.505606E+03
       294  20 -3.412756E+05  1.173678E+04 -2.420225E+04 -1.436044E+05 -6.577098E+04 -1.857990E+04
       294  21 -3.724372E+05 -9.864088E+04 -1.101392E+05 -8.419255E+04 -9.855225E+04 -3.492197E+04
       294  22 -5.085752E+05 -7.427153E+04 -4.002030E+04 -2.039479E+05 -3.003661E+04 -5.998723E+03
       294  23 -4.926060E+05 -5.475908E+04 -6.598651E+04 -1.948046E+05 -6.642116E+04 -1.882255E+04
       294  24 -5.249156E+05 -1.900115E+05 -1.583172E+05 -1.605156E+05 -1.012053E+05 -3.591121E+04
       294  25 -6.591488E+05 -1.163152E+05 -7.701338E+04 -2.300177E+05 -2.868378E+04 -5.491896E+03
       294  26 -6.439133E+05 -1.212508E+05 -1.077727E+05 -2.459925E+05 -6.707116E+04 -1.906510E+04
       294  27 -6.773672E+05 -2.813670E+05 -2.064969E+05 -2.368175E+05 -1.038577E+05 -3.689980E+04
       295   1 -4.678514E+05 -1.031392E+05 -7.098904E+04 -6.170377E+03  8.444864E+04  8.607855E+03
       295   2 -4.083941E+05 -2.117539E+05 -1.261160E+05 -2.082848E+03  6.042624E+04  2.541943E+04
       295   3 -3.104343E+05 -1.819239E+05 -1.308256E+05 -5.616994E+04  3.641068E+04  2.288685E+04
       295   4  3.998215E+05  1.131621E+05  1.431210E+05 -4.137246E+04  9.789068E+04  8.611452E+03
       295   5  3.797715E+05 -1.637405E+04  6.259408E+04 -1.225683E+04  6.408278E+04  2.541715E+04
       295   6  3.998650E+05 -5.863667E+03  3.922810E+04 -4.130947E+04  3.028555E+04  2.288759E+04
       295   7  1.268182E+06  3.294121E+05  3.571768E+05 -7.662392E+04  1.113514E+05  8.613525E+03
       295   8  1.168506E+06  1.789612E+05  2.512604E+05 -2.244382E+04  6.774392E+04  2.541475E+04
       295   9  1.110627E+06  1.701609E+05  2.092464E+05 -2.643188E+04  2.415343E+04  2.288805E+04
       295  10 -4.678591E+05 -1.031412E+05 -7.100259E+04 -6.170963E+03 -1.240346E-10  1.009595E-10
       295  11 -4.083982E+05 -2.117556E+05 -1.261241E+05 -2.084086E+03 -5.258043E-10 -6.130862E-11
       295  12 -3.104359E+05 -1.819249E+05 -1.308291E+05 -5.617061E+04 -2.155316E-11  1.360469E-10
       295  13  3.998112E+05  1.131595E+05  1.431029E+05 -4.137313E+04  6.576757E-10 -1.135103E-10
       295  14  3.797669E+05 -1.637585E+04  6.258515E+04 -1.225815E+04 -2.096310E-10 -1.328557E-10
       295  15  3.998639E+05 -5.864476E+03  3.922539E+04 -4.131003E+04 -3.065301E-10  6.289533E-11
       295  16  1.268169E+06  3.294087E+05  3.571534E+05 -7.662469E+04  5.497895E-10  3.743129E-10
       295  17  1.168501E+06  1.789593E+05  2.512506E+05 -2.244521E+04  5.422173E-10  8.625644E-11
       295  18  1.110626E+06  1.701602E+05  2.092444E+05 -2.643232E+04 -2.944451E-10 -5.843579E-11
       295  19 -4.678514E+05 -1.031392E+05 -7.098904E+04 -6.170377E+03 -8.444864E+04 -8.607855E+03
       295  20 -4.083941E+05 -2.117539E+05 -1.261160E+05 -2.082848E+03 -6.042624E+04 -2.541943E+04
       295  21 -3.104343E+05 -1.819239E+05 -1.308256E+05 -5.616994E+04 -3.641068E+04 -2.288685E+04
       295  22  3.998215E+05  1.131621E+05  1.431210E+05 -4.137246E+04 -9.789068E+04 -8.611452E+03
       295  23  3.797715E+05 -1.637405E+04  6.259408E+04 -1.225683E+04 -6.408278E+04 -2.541715E+04
       295  24  3.998650E+05 -5.863667E+03  3.922810E+04 -4.130947E+04 -3.028555E+04 -2.288759E+04
       295  25  1.268182E+06  3.294121E+05  3.571768E+05 -7.662392E+04 -1.113514E+05 -8.613525E+03
       295  26  1.168506E+06  1.789612E+05  2.512604E+05 -2.244382E+04 -6.774392E+04 -2.541475E+04
       295  27  1.110627E+06  1.701609E+05  2.092464E+05 -2.643188E+04 -2.415343E+04 -2.288805E+04
       296   1 -2.132739E+05 -1.382799E+05 -1.133298E+05 -3.765016E+04  2.465104E+04  1.830293E+04
       296   2 -1.383306E+05 -1.326771E+05 -1.102409E+05 -1.120913E+04  1.703898E+04  1.663633E+04
       296   3 -5.847914E+04 -1.122661E+05 -9.844788E+04 -4.252788E+04  9.421864E+03  1.354119E+04
       296   4  3.920936E+05  1.185288E+04  3.199054E+04 -4.122790E+04  2.418480E+04  1.830185E+04
       296   5  3.895917E+05 -1.802173E+03  1.626083E+04 -1.235339E+04  1.584553E+04  1.663631E+04
       296   6  3.921123E+05 -5.300645E+02  9.733549E+03 -4.123526E+04  7.502118E+03  1.354273E+04
       296   7  9.977967E+05  1.619591E+05  1.772849E+05 -4.480909E+04  2.371811E+04  1.830078E+04
       296   8  9.177691E+05  1.290525E+05  1.427428E+05 -1.349856E+04  1.465106E+04  1.663629E+04
       296   9  8.428896E+05  1.111912E+05  1.179006E+05 -3.994164E+04  5.580982E+03  1.354426E+04
       296  10 -2.132747E+05 -1.382805E+05 -1.133316E+05 -3.765053E+04 -3.765371E-11  1.772950E-10
       296  11 -1.383309E+05 -1.326774E+05 -1.102419E+05 -1.120936E+04 -9.174198E-11 -1.985744E-10
       296  12 -5.847928E+04 -1.122663E+05 -9.844839E+04 -4.252798E+04 -4.815721E-10  5.430094E-10
       296  13  3.920929E+05  1.185236E+04  3.198881E+04 -4.122826E+04 -2.735652E-10  1.341909E-10
       296  14  3.895913E+05 -1.802538E+03  1.625984E+04 -1.235360E+04 -6.878780E-11 -8.149543E-10
       296  15  3.921122E+05 -5.302766E+02  9.733099E+03 -4.123534E+04 -7.454533E-11  3.579332E-10
       296  16  9.977960E+05  1.619586E+05  1.772832E+05 -4.480944E+04 -3.029226E-11 -1.916396E-10
       296  17  9.177688E+05  1.290521E+05  1.427419E+05 -1.349876E+04  4.734551E-10 -1.231782E-10
       296  18  8.428895E+05  1.111910E+05  1.179002E+05 -3.994170E+04  2.625836E-10 -1.899086E-11
       296  19 -2.132739E+05 -1.382799E+05 -1.133298E+05 -3.765016E+04 -2.465104E+04 -1.830293E+04
       296  20 -1.383306E+05 -1.326771E+05 -1.102409E+05 -1.120913E+04 -1.703898E+04 -1.663633E+04
       296  21 -5.847914E+04 -1.122661E+05 -9.844788E+04 -4.252788E+04 -9.421864E+03 -1.354119E+04
       296  22  3.920936E+05  1.185288E+04  3.199054E+04 -4.122790E+04 -2.418480E+04 -1.830185E+04
       296  23  3.895917E+05 -1.802173E+03  1.626083E+04 -1.235339E+04 -1.584553E+04 -1.663631E+04
       296  24  3.921123E+05 -5.300645E+02  9.733549E+03 -4.123526E+04 -7.502118E+03 -1.354273E+04
       296  25  9.977967E+05  1.619591E+05  1.772849E+05 -4.480909E+04 -2.371811E+04 -1.830078E+04
       296  26  9.177691E+05  1.290525E+05  1.427428E+05 -1.349856E+04 -1.465106E+04 -1.663629E+04
       296  27  8.428896E+05  1.111912E+05  1.179006E+05 -3.994164E+04 -5.580982E+03 -1.354426E+04
       297   1  4.424289E+04 -8.466605E+04 -7.530045E+04 -4.055410E+04  7.457633E+03  1.151147E+04
       297   2  1.206862E+05 -6.714393E+04 -6.051385E+04 -1.217613E+04  5.387954E+03  8.492179E+03
       297   3  1.977159E+05 -4.792439E+04 -4.398027E+04 -4.109019E+04  3.316113E+03  5.372892E+03
       297   4  3.911498E+05  1.286323E+03  7.626373E+03 -4.112802E+04  5.961765E+03  1.151293E+04
       297   5  3.908593E+05 -1.761792E+02  4.222103E+03 -1.248360E+04  3.840512E+03  8.494106E+03
       297   6  3.911582E+05  6.758684E+01  2.600108E+03 -4.112965E+04  1.717350E+03  5.375323E+03
       297   7  7.381670E+05  8.722998E+04  9.054472E+04 -4.170222E+04  4.465064E+03  1.151440E+04
       297   8  6.610993E+05  6.678628E+04  6.895290E+04 -1.279119E+04  2.292399E+03  8.496035E+03
       297   9  5.846347E+05  4.805684E+04  4.917783E+04 -4.116911E+04  1.180904E+02  5.377754E+03
       297  10  4.424279E+04 -8.466620E+04 -7.530080E+04 -4.055417E+04  3.316401E-10  7.016793E-11
       297  11  1.206862E+05 -6.714401E+04 -6.051404E+04 -1.217616E+04  1.643513E-11  1.921612E-10
       297  12  1.977159E+05 -4.792442E+04 -4.398035E+04 -4.109020E+04 -7.448169E-11 -7.914894E-10
       297  13  3.911497E+05  1.286171E+03  7.626057E+03 -4.112807E+04 -8.771216E-10  1.225078E-10
       297  14  3.908593E+05 -1.762607E+02  4.221940E+03 -1.248363E+04 -2.816801E-10  6.483692E-10
       297  15  3.911582E+05  6.755502E+01  2.600049E+03 -4.112966E+04 -8.010237E-10  1.057370E-09
       297  16  7.381669E+05  8.722984E+04  9.054443E+04 -4.170226E+04  4.054098E-11 -1.171034E-11
       297  17  6.610993E+05  6.678620E+04  6.895275E+04 -1.279121E+04  2.521908E-10 -1.020698E-09
       297  18  5.846347E+05  4.805681E+04  4.917778E+04 -4.116911E+04 -2.978004E-10 -5.446373E-10
       297  19  4.424289E+04 -8.466605E+04 -7.530045E+04 -4.055410E+04 -7.457633E+03 -1.151147E+04
       297  20  1.206862E+05 -6.714393E+04 -6.051385E+04 -1.217613E+04 -5.387954E+03 -8.492179E+03
       297  21  1.977159E+05 -4.792439E+04 -4.398027E+04 -4.109019E+04 -3.316113E+03 -5.372892E+03
       297  22  3.911498E+05  1.286323E+03  7.626373E+03 -4.112802E+04 -5.961765E+03 -1.151293E+04
       297  23  3.908593E+05 -1.761792E+02  4.222103E+03 -1.248360E+04 -3.840512E+03 -8.494106E+03
       297  24  3.911582E+05  6.758684E+01  2.600108E+03 -4.112965E+04 -1.717350E+03 -5.375323E+03
       297  25  7.381670E+05  8.722998E+04  9.054472E+04 -4.170222E+04 -4.465064E+03 -1.151440E+04
       297  26  6.610993E+05  6.678628E+04  6.895290E+04 -1.279119E+04 -2.292399E+03 -8.496035E+03
       297  27  5.846347E+05  4.805684E+04  4.917783E+04 -4.116911E+04 -1.180904E+02 -5.377754E+03
       298   1  3.006722E+05 -2.210643E+04 -1.931570E+04 -4.097640E+04  2.858135E+03  3.542144E+03
       298   2  3.772042E+05 -3.416864E+03 -1.829420E+03 -1.251922E+04  2.118962E+03  4.320770E+02
       298   3  4.536979E+05  1.562121E+04  1.617547E+04 -4.117836E+04  1.379609E+03 -2.684952E+03
       298   4  3.910261E+05  2.409262E+02  2.100395E+03 -4.109029E+04  1.291255E+03  3.544676E+03
       298   5  3.910473E+05  1.387844E+01  1.486975E+03 -1.253226E+04  5.484175E+02  4.346263E+02
       298   6  3.910265E+05  1.366408E+02  1.395269E+03 -4.109046E+04 -1.945111E+02 -2.682365E+03
       298   7  4.813875E+05  2.258770E+04  2.351593E+04 -4.120419E+04 -2.758517E+02  3.547209E+03
       298   8  4.048906E+05  3.444608E+03  4.803366E+03 -1.254530E+04 -1.022162E+03  4.371758E+02
       298   9  3.283588E+05 -1.534821E+04 -1.338520E+04 -4.100257E+04 -1.768474E+03 -2.679779E+03
       298  10  3.006722E+05 -2.210645E+04 -1.931574E+04 -4.097641E+04  4.730544E-10 -1.257753E-10
       298  11  3.772042E+05 -3.416865E+03 -1.829429E+03 -1.251922E+04  4.803360E-10  2.897564E-10
       298  12  4.536979E+05  1.562120E+04  1.617546E+04 -4.117836E+04  6.187197E-10 -3.773396E-10
       298  13  3.910261E+05  2.409123E+02  2.100368E+03 -4.109029E+04 -1.341836E-09 -1.245091E-09
       298  14  3.910473E+05  1.387816E+01  1.486974E+03 -1.253226E+04 -4.569040E-10  2.210713E-10
       298  15  3.910265E+05  1.366330E+02  1.395256E+03 -4.109046E+04  1.802021E-10 -1.113250E-09
       298  16  4.813875E+05  2.258769E+04  2.351591E+04 -4.120419E+04 -8.189234E-11  9.165726E-11
       298  17  4.048906E+05  3.444608E+03  4.803364E+03 -1.254530E+04 -5.081987E-10 -8.504831E-10
       298  18  3.283588E+05 -1.534822E+04 -1.338521E+04 -4.100257E+04 -8.094964E-10 -1.579924E-09
       298  19  3.006722E+05 -2.210643E+04 -1.931570E+04 -4.097640E+04 -2.858135E+03 -3.542144E+03
       298  20  3.772042E+05 -3.416864E+03 -1.829420E+03 -1.251922E+04 -2.118962E+03 -4.320770E+02
       298  21  4.536979E+05  1.562121E+04  1.617547E+04 -4.117836E+04 -1.379609E+03  2.684952E+03
       298  22  3.910261E+05  2.409262E+02  2.100395E+03 -4.109029E+04 -1.291255E+03 -3.544676E+03
       298  23  3.910473E+05  1.387844E+01  1.486975E+03 -1.253226E+04 -5.484175E+02 -4.346263E+02
       298  24  3.910265E+05  1.366408E+02  1.395269E+03 -4.109046E+04  1.945111E+02  2.682365E+03
       298  25  4.813875E+05  2.258770E+04  2.351593E+04 -4.120419E+04  2.758517E+02 -3.547209E+03
       298  26  4.048906E+05  3.444608E+03  4.803366E+03 -1.254530E+04  1.022162E+03 -4.371758E+02
       298  27  3.283588E+05 -1.534821E+04 -1.338520E+04 -4.100257E+04  1.768474E+03  2.679779E+03
       299   1  5.568066E+05  4.125174E+04  4.144824E+04 -4.128683E+04  1.114905E+03 -4.502366E+03
       299   2  6.334669E+05  6.006444E+04  6.015505E+04 -1.273316E+04  7.750309E+01 -7.623446E+03
       299   3  7.102449E+05  7.932436E+04  7.961798E+04 -4.143397E+04 -9.584257E+02 -1.074195E+04
       299   4  3.910540E+05  1.307977E+02  1.508929E+03 -4.112151E+04 -4.606242E+02 -4.499900E+03
       299   5  3.909948E+05 -1.848094E+01  2.073623E+03 -1.249346E+04 -1.496477E+03 -7.621366E+03
       299   6  3.910468E+05  2.794049E+02  3.393645E+03 -4.112128E+04 -2.530731E+03 -1.074024E+04
       299   7  2.253264E+05 -4.099214E+04 -3.843233E+04 -4.095621E+04 -2.035735E+03 -4.497435E+03
       299   8  1.485766E+05 -6.010566E+04 -5.601195E+04 -1.225384E+04 -3.069846E+03 -7.619287E+03
       299   9  7.194201E+04 -7.877291E+04 -7.283785E+04 -4.080871E+04 -4.102232E+03 -1.073852E+04
       299  10  5.568066E+05  4.125172E+04  4.144820E+04 -4.128683E+04 -7.018343E-10  9.010421E-10
       299  11  6.334669E+05  6.006438E+04  6.015494E+04 -1.273316E+04  1.047846E-10  2.991395E-09
       299  12  7.102448E+05  7.932423E+04  7.961776E+04 -4.143398E+04  2.056274E-09 -1.161353E-09
       299  13  3.910540E+05  1.307759E+02  1.508890E+03 -4.112151E+04 -1.091439E-09 -8.134915E-11
       299  14  3.909948E+05 -1.854393E+01  2.073510E+03 -1.249347E+04  7.618370E-11  1.268109E-10
       299  15  3.910467E+05  2.792793E+02  3.393416E+03 -4.112130E+04 -1.042369E-11  1.927100E-10
       299  16  2.253264E+05 -4.099217E+04 -3.843238E+04 -4.095622E+04  1.231557E-09 -2.981931E-10
       299  17  1.485766E+05 -6.010573E+04 -5.601208E+04 -1.225386E+04 -3.451331E-10 -5.426007E-10
       299  18  7.194196E+04 -7.877304E+04 -7.283810E+04 -4.080875E+04 -1.491442E-09 -4.865514E-10
       299  19  5.568066E+05  4.125174E+04  4.144824E+04 -4.128683E+04 -1.114905E+03  4.502366E+03
       299  20  6.334669E+05  6.006444E+04  6.015505E+04 -1.273316E+04 -7.750309E+01  7.623446E+03
       299  21  7.102449E+05  7.932436E+04  7.961798E+04 -4.143397E+04  9.584257E+02  1.074195E+04
       299  22  3.910540E+05  1.307977E+02  1.508929E+03 -4.112151E+04  4.606242E+02  4.499900E+03
       299  23  3.909948E+05 -1.848094E+01  2.073623E+03 -1.249346E+04  1.496477E+03  7.621366E+03
       299  24  3.910468E+05  2.794049E+02  3.393645E+03 -4.112128E+04  2.530731E+03  1.074024E+04
       299  25  2.253264E+05 -4.099214E+04 -3.843233E+04 -4.095621E+04  2.035735E+03  4.497435E+03
       299  26  1.485766E+05 -6.010566E+04 -5.601195E+04 -1.225384E+04  3.069846E+03  7.619287E+03
       299  27  7.194201E+04 -7.877291E+04 -7.283785E+04 -4.080871E+04  4.102232E+03  1.073852E+04
       300   1  8.141497E+05  1.047911E+05  1.058657E+05 -4.126126E+04 -1.616915E+03 -1.258531E+04
       300   2  8.908183E+05  1.235492E+05  1.271042E+05 -1.272785E+04 -5.352580E+03 -1.572281E+04
       300   3  9.688552E+05  1.451741E+05  1.515200E+05 -4.191029E+04 -9.085315E+03 -1.874005E+04
       300   4  3.913014E+05 -2.155735E+01  4.357029E+03 -4.122483E+04 -3.230742E+03 -1.258394E+04
       300   5  3.906170E+05 -3.774846E+02  7.306750E+03 -1.236472E+04 -6.903167E+03 -1.572229E+04
       300   6  3.912858E+05  2.124282E+03  1.339228E+04 -4.122332E+04 -1.057220E+04 -1.874033E+04
       300   7 -3.138343E+04 -1.048472E+05 -9.716434E+04 -4.118837E+04 -4.843475E+03 -1.258258E+04
       300   8 -1.093553E+05 -1.243223E+05 -1.125083E+05 -1.200184E+04 -8.452509E+03 -1.572178E+04
       300   9 -1.859783E+05 -1.409497E+05 -1.247590E+05 -4.053693E+04 -1.205771E+04 -1.874061E+04
       300  10  8.141496E+05  1.047910E+05  1.058654E+05 -4.126128E+04 -1.129394E-10 -1.142442E-09
       300  11  8.908182E+05  1.235489E+05  1.271036E+05 -1.272791E+04 -2.832127E-10  6.311006E-10
       300  12  9.688550E+05  1.451737E+05  1.515192E+05 -4.191043E+04 -5.454328E-10  6.218112E-10
       300  13  3.913013E+05 -2.173023E+01  4.356712E+03 -4.122486E+04 -1.217841E-09  9.890673E-11
       300  14  3.906169E+05 -3.777629E+02  7.306196E+03 -1.236481E+04  4.239142E-10  2.845721E-10
       300  15  3.912856E+05  2.123875E+03  1.339141E+04 -4.122348E+04 -1.180164E-10  2.922405E-10
       300  16 -3.138350E+04 -1.048474E+05 -9.716468E+04 -4.118842E+04 -1.044433E-10 -3.692901E-10
       300  17 -1.093554E+05 -1.243226E+05 -1.125089E+05 -1.200194E+04  9.148133E-10  6.610386E-10
       300  18 -1.859786E+05 -1.409501E+05 -1.247599E+05 -4.053711E+04  5.149111E-10  2.233942E-12
       300  19  8.141497E+05  1.047911E+05  1.058657E+05 -4.126126E+04  1.616915E+03  1.258531E+04
       300  20  8.908183E+05  1.235492E+05  1.271042E+05 -1.272785E+04  5.352580E+03  1.572281E+04
       300  21  9.688552E+05  1.451741E+05  1.515200E+05 -4.191029E+04  9.085315E+03  1.874005E+04
       300  22  3.913014E+05 -2.155735E+01  4.357029E+03 -4.122483E+04  3.230742E+03  1.258394E+04
       300  23  3.906170E+05 -3.774846E+02  7.306750E+03 -1.236472E+04  6.903167E+03  1.572229E+04
       300  24  3.912858E+05  2.124282E+03  1.339228E+04 -4.122332E+04  1.057220E+04  1.874033E+04
       300  25 -3.138343E+04 -1.048472E+05 -9.716434E+04 -4.118837E+04  4.843475E+03  1.258258E+04
       300  26 -1.093553E+05 -1.243223E+05 -1.125083E+05 -1.200184E+04  8.452509E+03  1.572178E+04
       300  27 -1.859783E+05 -1.409497E+05 -1.247590E+05 -4.053693E+04  1.205771E+04  1.874061E+04
       301   1  1.075361E+06  1.679932E+05  1.807381E+05 -3.862593E+04 -1.125611E+04 -2.084252E+04
       301   2  1.149148E+06  1.852069E+05  2.108254E+05 -1.357000E+04 -2.688370E+04 -2.396868E+04
       301   3  1.232226E+06  2.287730E+05  2.577989E+05 -4.699235E+04 -4.250926E+04 -2.530612E+04
       301   4  3.929796E+05 -1.086873E+03  1.712957E+04 -4.139222E+04 -1.327730E+04 -2.084322E+04
       301   5  3.883969E+05 -3.238733E+03  2.867319E+04 -1.215524E+04 -2.798597E+04 -2.397079E+04
       301   6  3.929516E+05  2.082111E+04  5.648110E+04 -4.140054E+04 -4.269065E+04 -2.530887E+04
       301   7 -2.889759E+05 -1.702007E+05 -1.465119E+05 -4.415540E+04 -1.529628E+04 -2.084390E+04
       301   8 -3.718252E+05 -1.917263E+05 -1.535199E+05 -1.074223E+04 -2.908687E+04 -2.397292E+04
       301   9 -4.456783E+05 -1.871818E+05 -1.448867E+05 -3.581637E+04 -4.287176E+04 -2.531163E+04
       301  10  1.075361E+06  1.679927E+05  1.807371E+05 -3.862612E+04 -2.458116E-10  6.401594E-10
       301  11  1.149148E+06  1.852061E+05  2.108229E+05 -1.357052E+04 -2.093954E-12  8.136472E-10
       301  12  1.232223E+06  2.287719E+05  2.577944E+05 -4.699321E+04 -9.324648E-10 -2.446675E-10
       301  13  3.929793E+05 -1.087387E+03  1.712843E+04 -4.139244E+04  1.202985E-10  5.875089E-10
       301  14  3.883959E+05 -3.239560E+03  2.867064E+04 -1.215578E+04 -4.520477E-10  1.088659E-10
       301  15  3.929495E+05  2.081993E+04  5.647647E+04 -4.140141E+04  1.683986E-10  2.959544E-11
       301  16 -2.889763E+05 -1.702013E+05 -1.465132E+05 -4.415566E+04  5.714830E-10  1.222541E-11
       301  17 -3.718263E+05 -1.917272E+05 -1.535226E+05 -1.074279E+04  5.142723E-10 -6.273270E-10
       301  18 -4.456804E+05 -1.871830E+05 -1.448913E+05 -3.581724E+04  5.225201E-10 -2.274145E-10
       301  19  1.075361E+06  1.679932E+05  1.807381E+05 -3.862593E+04  1.125611E+04  2.084252E+04
       301  20  1.149148E+06  1.852069E+05  2.108254E+05 -1.357000E+04  2.688370E+04  2.396868E+04
       301  21  1.232226E+06  2.287730E+05  2.577989E+05 -4.699235E+04  4.250926E+04  2.530612E+04
       301  22  3.929796E+05 -1.086873E+03  1.712957E+04 -4.139222E+04  1.327730E+04  2.084322E+04
       301  23  3.883969E+05 -3.238733E+03  2.867319E+04 -1.215524E+04  2.798597E+04  2.397079E+04
       301  24  3.929516E+05  2.082111E+04  5.648110E+04 -4.140054E+04  4.269065E+04  2.530887E+04
       301  25 -2.889759E+05 -1.702007E+05 -1.465119E+05 -4.415540E+04  1.529628E+04  2.084390E+04
       301  26 -3.718252E+05 -1.917263E+05 -1.535199E+05 -1.074223E+04  2.908687E+04  2.397292E+04
       301  27 -4.456783E+05 -1.871818E+05 -1.448867E+05 -3.581637E+04  4.287176E+04  2.531163E+04
       302   1  1.352476E+06  2.237929E+05  2.954380E+05 -1.435115E+04 -4.614475E+04 -3.063961E+04
       302   2  1.396299E+06  2.248711E+05  3.557321E+05 -2.909175E+04 -1.181771E+05 -3.314994E+04
       302   3  1.513113E+06  4.750418E+05  5.254084E+05 -1.031946E+05 -1.902675E+05 -1.135890E+04
       302   4  4.066455E+05 -1.047502E+04  6.925831E+04 -4.147847E+04 -5.345520E+04 -3.064694E+04
       302   5  3.711362E+05 -2.892892E+04  1.105504E+05 -1.199505E+04 -1.131337E+05 -3.314950E+04
       302   6  4.065838E+05  1.997803E+05  2.527733E+05 -4.187097E+04 -1.728592E+05 -1.134321E+04
       302   7 -5.383648E+05 -2.448050E+05 -1.569839E+05 -6.856450E+04 -6.075454E+04 -3.065363E+04
       302   8 -6.530644E+05 -2.828039E+05 -1.347052E+05  5.072999E+03 -1.080985E+05 -3.314878E+04
       302   9 -6.988251E+05 -7.555776E+04 -1.994895E+04  1.934290E+04 -1.554816E+05 -1.132408E+04
       302  10  1.352473E+06  2.237913E+05  2.954322E+05 -1.435229E+04 -9.216197E-10  6.302113E-10
       302  11  1.396284E+06  2.248662E+05  3.557039E+05 -2.909490E+04 -9.874568E-10  2.049698E-10
       302  12  1.513074E+06  4.750320E+05  5.253403E+05 -1.031963E+05  2.476401E-10 -2.277149E-10
       302  13  4.066422E+05 -1.047680E+04  6.925118E+04 -4.147979E+04  6.169116E-10  1.387642E-09
       302  14  3.711222E+05 -2.893353E+04  1.105243E+05 -1.199807E+04 -9.003012E-10  2.838972E-09
       302  15  4.065517E+05  1.997721E+05  2.527169E+05 -4.187254E+04 -2.123227E-10 -2.512713E-10
       302  16 -5.383690E+05 -2.448070E+05 -1.569926E+05 -6.856600E+04 -1.128617E-10  2.467419E-10
       302  17 -6.530773E+05 -2.828082E+05 -1.347293E+05  5.070112E+03  4.097075E-10  2.234410E-11
       302  18 -6.988511E+05 -7.556440E+04 -1.999467E+04  1.934148E+04 -2.293672E-11 -9.200140E-10
       302  19  1.352476E+06  2.237929E+05  2.954380E+05 -1.435115E+04  4.614475E+04  3.063961E+04
       302  20  1.396299E+06  2.248711E+05  3.557321E+05 -2.909175E+04  1.181771E+05  3.314994E+04
       302  21  1.513113E+06  4.750418E+05  5.254084E+05 -1.031946E+05  1.902675E+05  1.135890E+04
       302  22  4.066455E+05 -1.047502E+04  6.925831E+04 -4.147847E+04  5.345520E+04  3.064694E+04
       302  23  3.711362E+05 -2.892892E+04  1.105504E+05 -1.199505E+04  1.131337E+05  3.314950E+04
       302  24  4.065838E+05  1.997803E+05  2.527733E+05 -4.187097E+04  1.728592E+05  1.134321E+04
       302  25 -5.383648E+05 -2.448050E+05 -1.569839E+05 -6.856450E+04  6.075454E+04  3.065363E+04
       302  26 -6.530644E+05 -2.828039E+05 -1.347052E+05  5.072999E+03  1.080985E+05  3.314878E+04
       302  27 -6.988251E+05 -7.555776E+04 -1.994895E+04  1.934290E+04  1.554816E+05  1.132408E+04
       303   1  2.224683E+05  7.725928E+05  2.428838E+05 -1.072276E+05  4.886017E+03  7.945592E+04
       303   2  8.853393E+04  6.052972E+05  1.429787E+05 -3.201806E+04  1.311519E+04  4.763378E+04
       303   3  5.882770E+04  4.680337E+05  8.979376E+04 -6.995252E+04  7.549204E+03  1.580089E+04
       303   4  8.327502E+04  2.144713E+05  1.050583E+05 -8.056481E+04  4.898338E+03  7.180651E+04
       303   5 -1.188658E+04  2.000717E+05  4.604101E+04 -2.404354E+04  1.311724E+04  4.696419E+04
       303   6 -3.990301E+03  2.145018E+05  2.893030E+04 -8.066608E+04  7.538899E+03  2.210322E+04
       303   7 -5.593882E+04 -3.433658E+05 -3.278975E+04 -5.392594E+04  4.910009E+03  6.416394E+04
       303   8 -1.123188E+05 -2.050032E+05 -5.090818E+04 -1.607420E+04  1.311926E+04  4.629504E+04
       303   9 -6.681251E+04 -3.897097E+04 -3.193750E+04 -9.137523E+04  7.528375E+03  2.840299E+04
       303  10  2.224665E+05  7.725860E+05  2.428719E+05 -1.072279E+05  2.271681E-11  1.739555E-10
       303  11  8.853314E+04  6.052947E+05  1.429741E+05 -3.201856E+04 -1.609790E-10  1.595959E-09
       303  12  5.882757E+04  4.680334E+05  8.979319E+04 -6.995261E+04  6.835241E-10  3.034839E-10
       303  13  8.327361E+04  2.144657E+05  1.050486E+05 -8.056509E+04  3.389106E-10  4.911729E-10
       303  14 -1.188736E+04  2.000693E+05  4.603655E+04 -2.404404E+04 -1.919466E-09 -2.890370E-10
       303  15 -3.990493E+03  2.145012E+05  2.892928E+04 -8.066622E+04  5.474399E-10  4.930653E-10
       303  16 -5.593995E+04 -3.433702E+05 -3.279754E+04 -5.392620E+04 -2.278861E-10  2.537571E-10
       303  17 -1.123195E+05 -2.050056E+05 -5.091253E+04 -1.607469E+04 -8.701871E-10  2.359434E-10
       303  18 -6.681279E+04 -3.897185E+04 -3.193913E+04 -9.137540E+04  1.269183E-10 -5.207888E-10
       303  19  2.224683E+05  7.725928E+05  2.428838E+05 -1.072276E+05 -4.886017E+03 -7.945592E+04
       303  20  8.853393E+04  6.052972E+05  1.429787E+05 -3.201806E+04 -1.311519E+04 -4.763378E+04
       303  21  5.882770E+04  4.680337E+05  8.979376E+04 -6.995252E+04 -7.549204E+03 -1.580089E+04
       303  22  8.327502E+04  2.144713E+05  1.050583E+05 -8.056481E+04 -4.898338E+03 -7.180651E+04
       303  23 -1.188658E+04  2.000717E+05  4.604101E+04 -2.404354E+04 -1.311724E+04 -4.696419E+04
       303  24 -3.990301E+03  2.145018E+05  2.893030E+04 -8.066608E+04 -7.538899E+03 -2.210322E+04
       303  25 -5.593882E+04 -3.433658E+05 -3.278975E+04 -5.392594E+04 -4.910009E+03 -6.416394E+04
       303  26 -1.123188E+05 -2.050032E+05 -5.090818E+04 -1.607420E+04 -1.311926E+04 -4.629504E+04
       303  27 -6.681251E+04 -3.897097E+04 -3.193750E+04 -9.137523E+04 -7.528375E+03 -2.840299E+04
       304   1  2.101768E+04  2.575047E+05  3.523443E+04 -8.325648E+04  1.788142E+03  1.495210E+04
       304   2 -2.688511E+04  1.038365E+05 -1.249854E+04 -2.445778E+04 -3.274576E+03  8.816322E+03
       304   3 -6.319511E+04 -4.652388E+04 -5.343222E+04 -7.907122E+04 -8.015134E+03  2.683710E+03
       304   4  8.965049E+03  2.088473E+05  2.366654E+04 -8.068272E+04  1.783790E+03  1.759107E+04
       304   5 -1.267865E+03  2.071870E+05  1.226436E+04 -2.398455E+04 -3.278416E+03  1.129331E+04
       304   6  1.214568E+02  2.088427E+05  7.776700E+03 -8.069684E+04 -8.018512E+03  4.997250E+03
       304   7 -3.087720E+03  1.601921E+05  1.209851E+04 -7.810916E+04  1.779459E+03  2.022983E+04
       304   8  2.434861E+04  3.105473E+05  3.702652E+04 -2.351124E+04 -3.282251E+03  1.377072E+04
       304   9  6.343330E+04  4.642689E+05  6.898102E+04 -8.232312E+04 -8.021901E+03  7.311737E+03
       304  10  2.101761E+04  2.575045E+05  3.523401E+04 -8.325650E+04  2.691761E-10 -3.496644E-10
       304  11 -2.688514E+04  1.038364E+05 -1.249871E+04 -2.445776E+04  3.497838E-10  1.487409E-09
       304  12 -6.319518E+04 -4.652391E+04 -5.343235E+04 -7.907120E+04 -8.762791E-10  2.907848E-11
       304  13  8.964963E+03  2.088470E+05  2.366595E+04 -8.068275E+04  6.228818E-10  8.147581E-10
       304  14 -1.267910E+03  2.071869E+05  1.226410E+04 -2.398452E+04  6.251050E-10 -4.447311E-10
       304  15  1.213811E+02  2.088426E+05  7.776533E+03 -8.069681E+04  7.887995E-10  3.114715E-10
       304  16 -3.087833E+03  1.601917E+05  1.209773E+04 -7.810919E+04  2.172154E-10  9.678119E-10
       304  17  2.434854E+04  3.105471E+05  3.702614E+04 -2.351121E+04 -1.573748E-09  5.345606E-10
       304  18  6.343322E+04  4.642689E+05  6.898080E+04 -8.232307E+04 -5.299723E-10 -2.723314E-10
       304  19  2.101768E+04  2.575047E+05  3.523443E+04 -8.325648E+04 -1.788142E+03 -1.495210E+04
       304  20 -2.688511E+04  1.038365E+05 -1.249854E+04 -2.445778E+04  3.274576E+03 -8.816322E+03
       304  21 -6.319511E+04 -4.652388E+04 -5.343222E+04 -7.907122E+04  8.015134E+03 -2.683710E+03
       304  22  8.965049E+03  2.088473E+05  2.366654E+04 -8.068272E+04 -1.783790E+03 -1.759107E+04
       304  23 -1.267865E+03  2.071870E+05  1.226436E+04 -2.398455E+04  3.278416E+03 -1.129331E+04
       304  24  1.214568E+02  2.088427E+05  7.776700E+03 -8.069684E+04  8.018512E+03 -4.997250E+03
       304  25 -3.087720E+03  1.601921E+05  1.209851E+04 -7.810916E+04 -1.779459E+03 -2.022983E+04
       304  26  2.434861E+04  3.105473E+05  3.702652E+04 -2.351124E+04  3.282251E+03 -1.377072E+04
       304  27  6.343330E+04  4.642689E+05  6.898102E+04 -8.232312E+04  8.021901E+03 -7.311737E+03
       305   1 -1.131944E+05 -2.517884E+05 -1.039828E+05 -8.080394E+04 -1.434124E+04 -3.610770E+03
       305   2 -1.523880E+05 -4.044037E+05 -1.422872E+05 -2.326902E+04 -1.983393E+04  3.356910E+03
       305   3 -1.873495E+05 -5.566877E+05 -1.840457E+05 -7.897761E+04 -7.124719E+03  1.033945E+04
       305   4  9.368627E+02  2.084870E+05  6.383391E+03 -8.065427E+04 -1.435102E+04  3.738875E+03
       305   5 -6.859356E+02  2.075196E+05  4.207971E+03 -2.403534E+04 -1.983079E+04  1.536495E+03
       305   6  3.514752E+03  2.084520E+05  4.947892E+03 -8.065282E+04 -7.116587E+03 -6.491622E+02
       305   7  1.150528E+05  6.689565E+05  1.167348E+05 -8.050440E+04 -1.436080E+04  1.109395E+04
       305   8  1.509890E+05  8.197861E+05  1.506767E+05 -2.480232E+04 -1.982765E+04 -2.857077E+02
       305   9  1.943354E+05  9.741243E+05  1.938985E+05 -8.232997E+04 -7.108402E+03 -1.165131E+04
       305  10 -1.131946E+05 -2.517885E+05 -1.039832E+05 -8.080398E+04 -1.683185E-10 -6.877699E-11
       305  11 -1.523885E+05 -4.044038E+05 -1.422879E+05 -2.326897E+04  4.342123E-11  1.158694E-09
       305  12 -1.873496E+05 -5.566879E+05 -1.840460E+05 -7.897755E+04 -9.851085E-11  2.569502E-10
       305  13  9.366378E+02  2.084869E+05  6.382977E+03 -8.065422E+04 -8.467184E-10  7.861917E-10
       305  14 -6.863586E+02  2.075195E+05  4.207227E+03 -2.403531E+04  1.442480E-10 -3.467810E-10
       305  15  3.514697E+03  2.084520E+05  4.947796E+03 -8.065282E+04 -3.008682E-11  2.536222E-10
       305  16  1.150525E+05  6.689563E+05  1.167341E+05 -8.050427E+04  6.373746E-10  4.763090E-10
       305  17  1.509886E+05  8.197860E+05  1.506759E+05 -2.480233E+04 -1.223954E-10 -2.897626E-12
       305  18  1.943353E+05  9.741241E+05  1.938981E+05 -8.233003E+04 -3.754411E-10 -2.565208E-10
       305  19 -1.131944E+05 -2.517884E+05 -1.039828E+05 -8.080394E+04  1.434124E+04  3.610770E+03
       305  20 -1.523880E+05 -4.044037E+05 -1.422872E+05 -2.326902E+04  1.983393E+04 -3.356910E+03
       305  21 -1.873495E+05 -5.566877E+05 -1.840457E+05 -7.897761E+04  7.124719E+03 -1.033945E+04
       305  22  9.368627E+02  2.084870E+05  6.383391E+03 -8.065427E+04  1.435102E+04 -3.738875E+03
       305  23 -6.859356E+02  2.075196E+05  4.207971E+03 -2.403534E+04  1.983079E+04 -1.536495E+03
       305  24  3.514752E+03  2.084520E+05  4.947892E+03 -8.065282E+04  7.116587E+03  6.491622E+02
       305  25  1.150528E+05  6.689565E+05  1.167348E+05 -8.050440E+04  1.436080E+04 -1.109395E+04
       305  26  1.509890E+05  8.197861E+05  1.506767E+05 -2.480232E+04  1.982765E+04  2.857077E+02
       305  27  1.943354E+05  9.741243E+05  1.938985E+05 -8.232997E+04  7.108402E+03  1.165131E+04
       306   1 -1.652949E+06 -5.386705E+05 -3.439707E+05 -5.804468E+05 -1.634849E+05 -5.714584E+04
       306   2 -1.606563E+06 -2.944358E+05 -1.915739E+05 -5.999115E+05 -1.061610E+05 -2.695342E+04
       306   3 -1.641078E+06 -2.874392E+05 -1.457876E+05 -5.744979E+05 -4.569741E+04 -5.108767E+03
       306   4 -1.334704E+06 -3.656456E+05 -2.468266E+05 -4.395589E+05 -1.580074E+05 -5.510428E+04
       306   5 -1.281857E+06 -1.572394E+05 -1.028626E+05 -4.958670E+05 -1.045899E+05 -2.636686E+04
       306   6 -1.309090E+06 -1.852288E+05 -6.236665E+04 -5.073101E+05 -4.803327E+04 -5.984129E+03
       306   7 -1.016353E+06 -1.925770E+05 -1.496921E+05 -2.985948E+05 -1.525269E+05 -5.306036E+04
       306   8 -9.570474E+05 -2.002875E+04 -1.416097E+04 -3.917706E+05 -1.030179E+05 -2.577985E+04
       306   9 -9.769958E+05 -8.301978E+04  2.104589E+04 -4.400939E+05 -5.037049E+04 -6.859788E+03
       306  10 -1.652978E+06 -5.386812E+05 -3.440273E+05 -5.804543E+05  6.371433E-10 -2.014266E-10
       306  11 -1.606575E+06 -2.944397E+05 -1.915965E+05 -5.999138E+05 -5.727086E-10 -5.919051E-11
       306  12 -1.641080E+06 -2.874398E+05 -1.457916E+05 -5.744981E+05 -1.379732E-09 -5.852644E-10
       306  13 -1.334731E+06 -3.656556E+05 -2.468794E+05 -4.395659E+05  6.540896E-10 -1.157426E-10
       306  14 -1.281869E+06 -1.572431E+05 -1.028845E+05 -4.958692E+05  7.213003E-11 -1.111750E-10
       306  15 -1.309092E+06 -1.852295E+05 -6.237106E+04 -5.073103E+05 -1.828876E-09 -4.501709E-10
       306  16 -1.016379E+06 -1.925862E+05 -1.497412E+05 -2.986013E+05 -3.853315E-10  1.727629E-11
       306  17 -9.570590E+05 -2.003232E+04 -1.418220E+04 -3.917728E+05  2.454257E-10 -1.180074E-10
       306  18 -9.769985E+05 -8.302051E+04  2.104102E+04 -4.400942E+05 -1.148614E-09 -4.449443E-10
       306  19 -1.652949E+06 -5.386705E+05 -3.439707E+05 -5.804468E+05  1.634849E+05  5.714584E+04
       306  20 -1.606563E+06 -2.944358E+05 -1.915739E+05 -5.999115E+05  1.061610E+05  2.695342E+04
       306  21 -1.641078E+06 -2.874392E+05 -1.457876E+05 -5.744979E+05  4.569741E+04  5.108767E+03
       306  22 -1.334704E+06 -3.656456E+05 -2.468266E+05 -4.395589E+05  1.580074E+05  5.510428E+04
       306  23 -1.281857E+06 -1.572394E+05 -1.028626E+05 -4.958670E+05  1.045899E+05  2.636686E+04
       306  24 -1.309090E+06 -1.852288E+05 -6.236665E+04 -5.073101E+05  4.803327E+04  5.984129E+03
       306  25 -1.016353E+06 -1.925770E+05 -1.496921E+05 -2.985948E+05  1.525269E+05  5.306036E+04
       306  26 -9.570474E+05 -2.002875E+04 -1.416097E+04 -3.917706E+05  1.030179E+05  2.577985E+04
       306  27 -9.769958E+05 -8.301978E+04  2.104589E+04 -4.400939E+05  5.037049E+04  6.859788E+03
       307   1 -1.580929E+06 -3.220502E+05 -1.260862E+05 -5.746916E+05 -3.853827E+04 -4.397641E+03
       307   2 -1.560910E+06 -2.816976E+05 -9.347086E+04 -5.645451E+05 -2.546524E+04  1.895859E+02
       307   3 -1.538819E+06 -2.794215E+05 -7.731950E+04 -5.631920E+05 -1.212637E+04  4.069211E+03
       307   4 -1.300750E+06 -2.113451E+05 -5.075986E+04 -4.928736E+05 -3.851452E+04 -4.389444E+03
       307   5 -1.300413E+06 -1.824192E+05 -2.428214E+04 -4.921947E+05 -2.576918E+04  7.523363E+01
       307   6 -1.297935E+06 -1.914978E+05 -1.400253E+04 -5.003101E+05 -1.275854E+04  3.832069E+03
       307   7 -1.020495E+06 -1.006327E+05  2.455974E+04 -4.110212E+05 -3.849075E+04 -4.381241E+03
       307   8 -1.039850E+06 -8.313604E+04  4.490079E+04 -4.198166E+05 -2.607327E+04 -3.917226E+01
       307   9 -1.056994E+06 -1.035715E+05  4.930951E+04 -4.374065E+05 -1.339098E+04  3.594832E+03
       307  10 -1.580930E+06 -3.220506E+05 -1.260890E+05 -5.746918E+05 -2.251640E-09 -6.549172E-10
       307  11 -1.560911E+06 -2.816978E+05 -9.347208E+04 -5.645451E+05  8.200641E-11 -2.255766E-10
       307  12 -1.538819E+06 -2.794216E+05 -7.731980E+04 -5.631919E+05  6.409761E-10  9.151939E-11
       307  13 -1.300752E+06 -2.113455E+05 -5.076269E+04 -4.928737E+05 -1.005236E-09 -4.503146E-10
       307  14 -1.300414E+06 -1.824194E+05 -2.428339E+04 -4.921947E+05 -1.675099E-10 -2.689470E-10
       307  15 -1.297935E+06 -1.914979E+05 -1.400286E+04 -5.003100E+05  2.221976E-10 -3.792599E-11
       307  16 -1.020496E+06 -1.006331E+05  2.455691E+04 -4.110213E+05 -3.961062E-10 -3.604945E-10
       307  17 -1.039851E+06 -8.313623E+04  4.489951E+04 -4.198166E+05  1.167323E-10 -2.659990E-10
       307  18 -1.056994E+06 -1.035715E+05  4.930915E+04 -4.374064E+05 -1.385860E-10 -3.634179E-10
       307  19 -1.580929E+06 -3.220502E+05 -1.260862E+05 -5.746916E+05  3.853827E+04  4.397641E+03
       307  20 -1.560910E+06 -2.816976E+05 -9.347086E+04 -5.645451E+05  2.546524E+04 -1.895859E+02
       307  21 -1.538819E+06 -2.794215E+05 -7.731950E+04 -5.631920E+05  1.212637E+04 -4.069211E+03
       307  22 -1.300750E+06 -2.113451E+05 -5.075986E+04 -4.928736E+05  3.851452E+04  4.389444E+03
       307  23 -1.300413E+06 -1.824192E+05 -2.428214E+04 -4.921947E+05  2.576918E+04 -7.523363E+01
       307  24 -1.297935E+06 -1.914978E+05 -1.400253E+04 -5.003101E+05  1.275854E+04 -3.832069E+03
       307  25 -1.020495E+06 -1.006327E+05  2.455974E+04 -4.110212E+05  3.849075E+04  4.381241E+03
       307  26 -1.039850E+06 -8.313604E+04  4.490079E+04 -4.198166E+05  2.607327E+04  3.917226E+01
       307  27 -1.056994E+06 -1.035715E+05  4.930951E+04 -4.374065E+05  1.339098E+04 -3.594832E+03
       308   1 -1.501235E+06 -2.717873E+05 -6.508040E+04 -5.550354E+05 -1.004079E+04  4.064751E+03
       308   2 -1.483551E+06 -2.530042E+05 -5.348208E+04 -5.408415E+05 -6.762223E+03  4.174738E+03
       308   3 -1.453284E+06 -2.509396E+05 -4.478963E+04 -5.420304E+05 -3.454520E+03  4.205920E+03
       308   4 -1.296697E+06 -1.944847E+05 -1.093963E+04 -4.988787E+05 -1.048597E+04  3.897738E+03
       308   5 -1.302838E+06 -1.850472E+05 -5.655676E+03 -4.915918E+05 -7.243568E+03  3.994295E+03
       308   6 -1.296388E+06 -1.923202E+05 -3.248091E+03 -4.996877E+05 -3.972145E+03  4.012010E+03
       308   7 -1.092118E+06 -1.171796E+05  4.319736E+04 -4.427054E+05 -1.093131E+04  3.730665E+03
       308   8 -1.122093E+06 -1.170881E+05  4.216791E+04 -4.423290E+05 -7.725067E+03  3.813794E+03
       308   9 -1.139469E+06 -1.336992E+05  3.829144E+04 -4.573352E+05 -4.489916E+03  3.818047E+03
       308  10 -1.501235E+06 -2.717873E+05 -6.508062E+04 -5.550354E+05  1.798611E-10 -3.687273E-10
       308  11 -1.483551E+06 -2.530043E+05 -5.348220E+04 -5.408415E+05 -6.267238E-10 -4.794451E-10
       308  12 -1.453284E+06 -2.509396E+05 -4.478969E+04 -5.420304E+05 -2.856549E-10 -7.541414E-11
       308  13 -1.296697E+06 -1.944847E+05 -1.093987E+04 -4.988787E+05 -1.507761E-10 -3.517033E-10
       308  14 -1.302838E+06 -1.850472E+05 -5.655805E+03 -4.915917E+05 -4.924289E-10 -1.785872E-11
       308  15 -1.296388E+06 -1.923202E+05 -3.248151E+03 -4.996876E+05 -3.513721E-10  3.535682E-10
       308  16 -1.092119E+06 -1.171797E+05  4.319711E+04 -4.427054E+05 -9.505136E-11 -1.904781E-10
       308  17 -1.122093E+06 -1.170882E+05  4.216777E+04 -4.423290E+05 -8.992342E-11  5.069139E-10
       308  18 -1.139469E+06 -1.336993E+05  3.829137E+04 -4.573351E+05 -6.440186E-11  3.783605E-10
       308  19 -1.501235E+06 -2.717873E+05 -6.508040E+04 -5.550354E+05  1.004079E+04 -4.064751E+03
       308  20 -1.483551E+06 -2.530042E+05 -5.348208E+04 -5.408415E+05  6.762223E+03 -4.174738E+03
       308  21 -1.453284E+06 -2.509396E+05 -4.478963E+04 -5.420304E+05  3.454520E+03 -4.205920E+03
       308  22 -1.296697E+06 -1.944847E+05 -1.093963E+04 -4.988787E+05  1.048597E+04 -3.897738E+03
       308  23 -1.302838E+06 -1.850472E+05 -5.655676E+03 -4.915918E+05  7.243568E+03 -3.994295E+03
       308  24 -1.296388E+06 -1.923202E+05 -3.248091E+03 -4.996877E+05  3.972145E+03 -4.012010E+03
       308  25 -1.092118E+06 -1.171796E+05  4.319736E+04 -4.427054E+05  1.093131E+04 -3.730665E+03
       308  26 -1.122093E+06 -1.170881E+05  4.216791E+04 -4.423290E+05  7.725067E+03 -3.813794E+03
       308  27 -1.139469E+06 -1.336992E+05  3.829144E+04 -4.573352E+05  4.489916E+03 -3.818047E+03
       309   1 -1.416801E+06 -2.380567E+05 -3.437715E+04 -5.324951E+05 -2.755638E+03  3.744835E+03
       309   2 -1.398865E+06 -2.211010E+05 -2.681770E+04 -5.173785E+05 -1.576555E+03  2.955182E+03
       309   3 -1.366642E+06 -2.189768E+05 -1.992048E+04 -5.188551E+05 -3.913164E+02  2.148331E+03
       309   4 -1.296125E+06 -1.927349E+05 -2.540417E+03 -4.996434E+05 -3.260360E+03  3.555821E+03
       309   5 -1.303253E+06 -1.852116E+05 -1.527068E+03 -4.913871E+05 -2.089216E+03  2.763260E+03
       309   6 -1.296093E+06 -1.925179E+05 -1.169470E+03 -4.997240E+05 -9.119541E+02  1.953491E+03
       309   7 -1.175435E+06 -1.474122E+05  2.929506E+04 -4.667860E+05 -3.765189E+03  3.366767E+03
       309   8 -1.207633E+06 -1.493216E+05  2.376273E+04 -4.653922E+05 -2.601963E+03  2.571305E+03
       309   9 -1.225540E+06 -1.660588E+05  1.758106E+04 -4.805910E+05 -1.432655E+03  1.758628E+03
       309  10 -1.416801E+06 -2.380567E+05 -3.437719E+04 -5.324951E+05  8.149641E-11  3.409427E-10
       309  11 -1.398865E+06 -2.211010E+05 -2.681772E+04 -5.173785E+05  2.912634E-10 -5.244334E-10
       309  12 -1.366642E+06 -2.189768E+05 -1.992049E+04 -5.188551E+05 -9.708623E-11 -8.789304E-10
       309  13 -1.296125E+06 -1.927349E+05 -2.540461E+03 -4.996434E+05  3.094782E-12  5.873455E-11
       309  14 -1.303253E+06 -1.852116E+05 -1.527090E+03 -4.913871E+05 -1.323631E-09 -3.691517E-10
       309  15 -1.296093E+06 -1.925179E+05 -1.169478E+03 -4.997240E+05  1.499978E-10 -4.733863E-10
       309  16 -1.175435E+06 -1.474122E+05  2.929501E+04 -4.667860E+05 -7.447385E-10 -2.200097E-10
       309  17 -1.207633E+06 -1.493216E+05  2.376271E+04 -4.653922E+05  5.205104E-10  2.305915E-10
       309  18 -1.225540E+06 -1.660588E+05  1.758105E+04 -4.805910E+05  1.994108E-10  4.335996E-10
       309  19 -1.416801E+06 -2.380567E+05 -3.437715E+04 -5.324951E+05  2.755638E+03 -3.744835E+03
       309  20 -1.398865E+06 -2.211010E+05 -2.681770E+04 -5.173785E+05  1.576555E+03 -2.955182E+03
       309  21 -1.366642E+06 -2.189768E+05 -1.992048E+04 -5.188551E+05  3.913164E+02 -2.148331E+03
       309  22 -1.296125E+06 -1.927349E+05 -2.540417E+03 -4.996434E+05  3.260360E+03 -3.555821E+03
       309  23 -1.303253E+06 -1.852116E+05 -1.527068E+03 -4.913871E+05  2.089216E+03 -2.763260E+03
       309  24 -1.296093E+06 -1.925179E+05 -1.169470E+03 -4.997240E+05  9.119541E+02 -1.953491E+03
       309  25 -1.175435E+06 -1.474122E+05  2.929506E+04 -4.667860E+05  3.765189E+03 -3.366767E+03
       309  26 -1.207633E+06 -1.493216E+05  2.376273E+04 -4.653922E+05  2.601963E+03 -2.571305E+03
       309  27 -1.225540E+06 -1.660588E+05  1.758106E+04 -4.805910E+05  1.432655E+03 -1.758628E+03
       310   1 -1.329566E+06 -2.051653E+05 -9.921563E+03 -5.089248E+05  4.174711E+01  1.575597E+03
       310   2 -1.311391E+06 -1.881889E+05 -3.525682E+03 -4.935163E+05  1.151639E+03  7.303686E+02
       310   3 -1.278711E+06 -1.862162E+05  2.273198E+03 -4.949588E+05  2.260757E+03 -1.127499E+02
       310   4 -1.296046E+06 -1.925706E+05 -1.146498E+03 -4.997756E+05 -4.795902E+02  1.380520E+03
       310   5 -1.303310E+06 -1.851542E+05 -1.387935E+03 -4.913180E+05  6.312913E+02  5.356653E+02
       310   6 -1.296070E+06 -1.927418E+05 -2.227254E+03 -4.997117E+05  1.741365E+03 -3.070892E+02
       310   7 -1.262525E+06 -1.799759E+05  7.628499E+03 -4.906260E+05 -1.000960E+03  1.185432E+03
       310   8 -1.295229E+06 -1.821195E+05  7.498109E+02 -4.891196E+05  1.109350E+02  3.409588E+02
       310   9 -1.313429E+06 -1.992675E+05 -6.727732E+03 -5.044644E+05  1.221989E+03 -5.014224E+02
       310  10 -1.329566E+06 -2.051653E+05 -9.921567E+03 -5.089248E+05  1.246998E-11 -3.644442E-10
       310  11 -1.311391E+06 -1.881889E+05 -3.525685E+03 -4.935163E+05  2.523725E-09  1.815185E-09
       310  12 -1.278711E+06 -1.862162E+05  2.273189E+03 -4.949588E+05  1.860548E-09  6.865945E-10
       310  13 -1.296046E+06 -1.925706E+05 -1.146502E+03 -4.997756E+05  1.117475E-09  9.905071E-11
       310  14 -1.303310E+06 -1.851542E+05 -1.387936E+03 -4.913180E+05  2.105063E-09  2.040147E-09
       310  15 -1.296070E+06 -1.927418E+05 -2.227260E+03 -4.997117E+05  1.079602E-09  1.817357E-10
       310  16 -1.262525E+06 -1.799759E+05  7.628494E+03 -4.906260E+05  1.191278E-09 -9.321435E-11
       310  17 -1.295229E+06 -1.821195E+05  7.498107E+02 -4.891196E+05  1.306778E-09  1.678834E-10
       310  18 -1.313429E+06 -1.992675E+05 -6.727735E+03 -5.044644E+05 -4.613101E-10 -5.351370E-10
       310  19 -1.329566E+06 -2.051653E+05 -9.921563E+03 -5.089248E+05 -4.174711E+01 -1.575597E+03
       310  20 -1.311391E+06 -1.881889E+05 -3.525682E+03 -4.935163E+05 -1.151639E+03 -7.303686E+02
       310  21 -1.278711E+06 -1.862162E+05  2.273198E+03 -4.949588E+05 -2.260757E+03  1.127499E+02
       310  22 -1.296046E+06 -1.925706E+05 -1.146498E+03 -4.997756E+05  4.795902E+02 -1.380520E+03
       310  23 -1.303310E+06 -1.851542E+05 -1.387935E+03 -4.913180E+05 -6.312913E+02 -5.356653E+02
       310  24 -1.296070E+06 -1.927418E+05 -2.227254E+03 -4.997117E+05 -1.741365E+03  3.070892E+02
       310  25 -1.262525E+06 -1.799759E+05  7.628499E+03 -4.906260E+05  1.000960E+03 -1.185432E+03
       310  26 -1.295229E+06 -1.821195E+05  7.498109E+02 -4.891196E+05 -1.109350E+02 -3.409588E+02
       310  27 -1.313429E+06 -1.992675E+05 -6.727732E+03 -5.044644E+05 -1.221989E+03  5.014224E+02
       311   1 -1.241604E+06 -1.722126E+05  1.166441E+04 -4.852699E+05  2.930295E+03 -6.040247E+02
       311   2 -1.223448E+06 -1.549710E+05  1.618257E+04 -4.696744E+05  5.798976E+03 -7.845702E+02
       311   3 -1.191927E+06 -1.546778E+05  1.822996E+04 -4.702897E+05  8.648309E+03 -9.124911E+02
       311   4 -1.296225E+06 -1.924636E+05 -2.827729E+03 -4.998360E+05  2.399574E+03 -8.026187E+02
       311   5 -1.303037E+06 -1.849143E+05 -4.880290E+03 -4.913840E+05  5.292680E+03 -9.740808E+02
       311   6 -1.296489E+06 -1.943188E+05 -9.423259E+03 -4.991432E+05  8.166335E+03 -1.092955E+03
       311   7 -1.350843E+06 -2.127143E+05 -1.732009E+04 -5.144009E+05  1.868905E+03 -1.001194E+03
       311   8 -1.382619E+06 -2.148573E+05 -2.594370E+04 -5.130911E+05  4.786455E+03 -1.163565E+03
       311   9 -1.401040E+06 -2.339592E+05 -3.707750E+04 -5.279924E+05  7.684449E+03 -1.273385E+03
       311  10 -1.241604E+06 -1.722126E+05  1.166440E+04 -4.852699E+05 -4.944404E-10 -6.603427E-11
       311  11 -1.223449E+06 -1.549710E+05  1.618251E+04 -4.696744E+05 -2.080189E-10  5.318194E-10
       311  12 -1.191927E+06 -1.546778E+05  1.822982E+04 -4.702897E+05  2.107921E-10  4.257156E-10
       311  13 -1.296225E+06 -1.924636E+05 -2.827742E+03 -4.998360E+05  5.523955E-11 -2.597331E-10
       311  14 -1.303037E+06 -1.849143E+05 -4.880345E+03 -4.913840E+05  7.240787E-11  2.981918E-10
       311  15 -1.296489E+06 -1.943188E+05 -9.423387E+03 -4.991432E+05 -2.277080E-10 -1.347146E-10
       311  16 -1.350843E+06 -2.127143E+05 -1.732010E+04 -5.144009E+05  1.556047E-10 -1.998578E-10
       311  17 -1.382619E+06 -2.148573E+05 -2.594374E+04 -5.130911E+05  4.976419E-10  6.300474E-10
       311  18 -1.401040E+06 -2.339592E+05 -3.707761E+04 -5.279924E+05 -1.660840E-10  1.159252E-10
       311  19 -1.241604E+06 -1.722126E+05  1.166441E+04 -4.852699E+05 -2.930295E+03  6.040247E+02
       311  20 -1.223448E+06 -1.549710E+05  1.618257E+04 -4.696744E+05 -5.798976E+03  7.845702E+02
       311  21 -1.191927E+06 -1.546778E+05  1.822996E+04 -4.702897E+05 -8.648309E+03  9.124911E+02
       311  22 -1.296225E+06 -1.924636E+05 -2.827729E+03 -4.998360E+05 -2.399574E+03  8.026187E+02
       311  23 -1.303037E+06 -1.849143E+05 -4.880290E+03 -4.913840E+05 -5.292680E+03  9.740808E+02
       311  24 -1.296489E+06 -1.943188E+05 -9.423259E+03 -4.991432E+05 -8.166335E+03  1.092955E+03
       311  25 -1.350843E+06 -2.127143E+05 -1.732009E+04 -5.144009E+05 -1.868905E+03  1.001194E+03
       311  26 -1.382619E+06 -2.148573E+05 -2.594370E+04 -5.130911E+05 -4.786455E+03  1.163565E+03
       311  27 -1.401040E+06 -2.339592E+05 -3.707750E+04 -5.279924E+05 -7.684449E+03  1.273385E+03
       312   1 -1.154780E+06 -1.404579E+05  2.534394E+04 -4.639513E+05  1.079287E+04 -9.127408E+02
       312   2 -1.136464E+06 -1.196169E+05  2.284837E+04 -4.458427E+05  2.181725E+04  2.008700E+03
       312   3 -1.113463E+06 -1.342804E+05  6.603365E+03 -4.386071E+05  3.263975E+04  5.471120E+03
       312   4 -1.297497E+06 -1.918115E+05 -1.205786E+04 -5.004445E+05  1.016553E+04 -1.147636E+03
       312   5 -1.301021E+06 -1.825724E+05 -2.089318E+04 -4.918129E+05  2.144185E+04  1.867942E+03
       312   6 -1.299913E+06 -2.088920E+05 -4.368080E+04 -4.940545E+05  3.251583E+04  5.424263E+03
       312   7 -1.440194E+06 -2.431642E+05 -4.946137E+04 -5.369303E+05  9.538354E+03 -1.382477E+03
       312   8 -1.465552E+06 -2.455259E+05 -6.463702E+04 -5.377719E+05  2.106656E+04  1.727226E+03
       312   9 -1.486328E+06 -2.835001E+05 -9.396792E+04 -5.494862E+05  3.239196E+04  5.377425E+03
       312  10 -1.154780E+06 -1.404580E+05  2.534372E+04 -4.639513E+05 -6.240537E-12 -2.605572E-10
       312  11 -1.136464E+06 -1.196170E+05  2.284747E+04 -4.458427E+05 -6.434813E-10 -1.248348E-09
       312  12 -1.113464E+06 -1.342807E+05  6.601303E+03 -4.386072E+05 -4.211824E-10 -8.285037E-10
       312  13 -1.297497E+06 -1.918115E+05 -1.205806E+04 -5.004445E+05  2.007585E-10 -3.352282E-10
       312  14 -1.301021E+06 -1.825725E+05 -2.089405E+04 -4.918129E+05  5.271102E-11  4.412641E-10
       312  15 -1.299914E+06 -2.088923E+05 -4.368285E+04 -4.940546E+05  1.313624E-10 -3.562702E-10
       312  16 -1.440195E+06 -2.431642E+05 -4.946154E+04 -5.369303E+05  7.495940E-11 -2.314713E-10
       312  17 -1.465552E+06 -2.455261E+05 -6.463786E+04 -5.377719E+05  2.968497E-10  2.748528E-11
       312  18 -1.486329E+06 -2.835004E+05 -9.396995E+04 -5.494864E+05  4.217042E-10  5.439722E-11
       312  19 -1.154780E+06 -1.404579E+05  2.534394E+04 -4.639513E+05 -1.079287E+04  9.127408E+02
       312  20 -1.136464E+06 -1.196169E+05  2.284837E+04 -4.458427E+05 -2.181725E+04 -2.008700E+03
       312  21 -1.113463E+06 -1.342804E+05  6.603365E+03 -4.386071E+05 -3.263975E+04 -5.471120E+03
       312  22 -1.297497E+06 -1.918115E+05 -1.205786E+04 -5.004445E+05 -1.016553E+04  1.147636E+03
       312  23 -1.301021E+06 -1.825724E+05 -2.089318E+04 -4.918129E+05 -2.144185E+04 -1.867942E+03
       312  24 -1.299913E+06 -2.088920E+05 -4.368080E+04 -4.940545E+05 -3.251583E+04 -5.424263E+03
       312  25 -1.440194E+06 -2.431642E+05 -4.946137E+04 -5.369303E+05 -9.538354E+03  1.382477E+03
       312  26 -1.465552E+06 -2.455259E+05 -6.463702E+04 -5.377719E+05 -2.106656E+04 -1.727226E+03
       312  27 -1.486328E+06 -2.835001E+05 -9.396792E+04 -5.494862E+05 -3.239196E+04 -5.377425E+03
       313   1 -1.068547E+06 -1.163351E+05  5.629434E+03 -4.616725E+05  4.266576E+04  7.495015E+03
       313   2 -1.047499E+06 -5.865637E+04 -2.327211E+04 -4.168658E+05  8.841001E+04  2.363152E+04
       313   3 -1.091661E+06 -2.068897E+05 -1.387998E+05 -3.370978E+05  1.317390E+05  4.621876E+04
       313   4 -1.307056E+06 -1.864565E+05 -5.366853E+04 -5.065176E+05  4.071850E+04  6.766674E+03
       313   5 -1.285115E+06 -1.608372E+05 -8.850665E+04 -4.948973E+05  8.948245E+04  2.403110E+04
       313   6 -1.329018E+06 -3.417818E+05 -2.123938E+05 -4.483092E+05  1.358303E+05  4.774138E+04
       313   7 -1.545510E+06 -2.565791E+05 -1.129708E+05 -5.513496E+05  3.877206E+04  6.038485E+03
       313   8 -1.522676E+06 -2.630094E+05 -1.537463E+05 -5.728998E+05  9.055443E+04  2.443046E+04
       313   9 -1.566314E+06 -4.766443E+05 -2.859926E+05 -5.594744E+05  1.399199E+05  4.926258E+04
       313  10 -1.068549E+06 -1.163357E+05  5.625901E+03 -4.616728E+05 -2.162372E-10 -3.361448E-10
       313  11 -1.047507E+06 -5.865907E+04 -2.328788E+04 -4.168675E+05 -4.212906E-10  1.627060E-10
       313  12 -1.091681E+06 -2.068966E+05 -1.388365E+05 -3.371027E+05  4.789277E-10  3.553937E-10
       313  13 -1.307058E+06 -1.864570E+05 -5.367174E+04 -5.065178E+05 -3.391195E-10 -8.000723E-10
       313  14 -1.285124E+06 -1.608400E+05 -8.852282E+04 -4.948990E+05 -9.209917E-10 -5.813143E-10
       313  15 -1.329039E+06 -3.417892E+05 -2.124328E+05 -4.483144E+05  4.677854E-12  8.270255E-11
       313  16 -1.545511E+06 -2.565796E+05 -1.129737E+05 -5.513498E+05  3.335487E-10 -1.221296E-10
       313  17 -1.522685E+06 -2.630123E+05 -1.537629E+05 -5.729016E+05 -1.109462E-09 -3.574082E-10
       313  18 -1.566335E+06 -4.766522E+05 -2.860340E+05 -5.594799E+05 -9.274185E-11  2.203390E-10
       313  19 -1.068547E+06 -1.163351E+05  5.629434E+03 -4.616725E+05 -4.266576E+04 -7.495015E+03
       313  20 -1.047499E+06 -5.865637E+04 -2.327211E+04 -4.168658E+05 -8.841001E+04 -2.363152E+04
       313  21 -1.091661E+06 -2.068897E+05 -1.387998E+05 -3.370978E+05 -1.317390E+05 -4.621876E+04
       313  22 -1.307056E+06 -1.864565E+05 -5.366853E+04 -5.065176E+05 -4.071850E+04 -6.766674E+03
       313  23 -1.285115E+06 -1.608372E+05 -8.850665E+04 -4.948973E+05 -8.948245E+04 -2.403110E+04
       313  24 -1.329018E+06 -3.417818E+05 -2.123938E+05 -4.483092E+05 -1.358303E+05 -4.774138E+04
       313  25 -1.545510E+06 -2.565791E+05 -1.129708E+05 -5.513496E+05 -3.877206E+04 -6.038485E+03
       313  26 -1.522676E+06 -2.630094E+05 -1.537463E+05 -5.728998E+05 -9.055443E+04 -2.443046E+04
       313  27 -1.566314E+06 -4.766443E+05 -2.859926E+05 -5.594744E+05 -1.399199E+05 -4.926258E+04
       314   1  1.402432E+06  2.952716E+05  4.258306E+05  1.229229E+05  4.105573E+05  8.671898E+03
       314   2  1.380634E+06 -2.470275E+05  9.939028E+04  3.770520E+04  2.733023E+05  2.349634E+04
       314   3  1.527945E+06 -1.873390E+05  1.291043E+04 -9.425337E+04  1.360598E+05  2.131115E+04
       314   4  2.181722E+06  4.883061E+05  6.175515E+05 -2.983543E+04  4.228903E+05  8.596192E+03
       314   5  2.096782E+06 -7.002961E+04  2.704838E+05 -5.948714E+03  2.768605E+05  2.348120E+04
       314   6  2.182236E+06 -2.527785E+04  1.692417E+05 -2.880409E+04  1.308596E+05  2.131712E+04
       314   7  2.961614E+06  6.813838E+05  8.092410E+05 -1.827856E+05  4.352385E+05  8.514527E+03
       314   8  2.813402E+06  1.069385E+05  4.415424E+05 -4.965329E+04  2.804226E+05  2.346558E+04
       314   9  2.836927E+06  1.367683E+05  3.255452E+05  3.671420E+04  1.256538E+05  2.132198E+04
       314  10  1.402251E+06  2.952264E+05  4.255144E+05  1.229200E+05 -2.000196E-10  7.057696E-10
       314  11  1.380553E+06 -2.470481E+05  9.924921E+04  3.770003E+04 -1.073613E-09 -5.598093E-10
       314  12  1.527925E+06 -1.873444E+05  1.287488E+04 -9.425570E+04  1.039821E-09  1.596774E-10
       314  13  2.181531E+06  4.882582E+05  6.172165E+05 -2.983836E+04  1.211822E-09  5.626932E-10
       314  14  2.096699E+06 -7.005069E+04  2.703392E+05 -5.953945E+03 -1.612929E-09 -1.982129E-09
       314  15  2.182217E+06 -2.528291E+04  1.692088E+05 -2.880633E+04  1.886882E-10 -1.534741E-10
       314  16  2.961412E+06  6.813332E+05  8.088866E+05 -1.827886E+05 -1.930238E-10 -7.734482E-11
       314  17  2.813318E+06  1.069170E+05  4.413943E+05 -4.965859E+04 -1.064693E-11  2.558294E-10
       314  18  2.836910E+06  1.367636E+05  3.255148E+05  3.671205E+04 -3.481853E-10 -8.517869E-10
       314  19  1.402432E+06  2.952716E+05  4.258306E+05  1.229229E+05 -4.105573E+05 -8.671898E+03
       314  20  1.380634E+06 -2.470275E+05  9.939028E+04  3.770520E+04 -2.733023E+05 -2.349634E+04
       314  21  1.527945E+06 -1.873390E+05  1.291043E+04 -9.425337E+04 -1.360598E+05 -2.131115E+04
       314  22  2.181722E+06  4.883061E+05  6.175515E+05 -2.983543E+04 -4.228903E+05 -8.596192E+03
       314  23  2.096782E+06 -7.002961E+04  2.704838E+05 -5.948714E+03 -2.768605E+05 -2.348120E+04
       314  24  2.182236E+06 -2.527785E+04  1.692417E+05 -2.880409E+04 -1.308596E+05 -2.131712E+04
       314  25  2.961614E+06  6.813838E+05  8.092410E+05 -1.827856E+05 -4.352385E+05 -8.514527E+03
       314  26  2.813402E+06  1.069385E+05  4.415424E+05 -4.965329E+04 -2.804226E+05 -2.346558E+04
       314  27  2.836927E+06  1.367683E+05  3.255452E+05  3.671420E+04 -1.256538E+05 -2.132198E+04
       315   1  1.573507E+06 -9.121348E+04  2.131614E+02 -1.401186E+04  1.046703E+05  1.744079E+04
       315   2  1.619432E+06 -1.360764E+05 -5.387413E+04 -3.726103E+03  6.926576E+04  1.638374E+04
       315   3  1.686279E+06 -1.171955E+05 -6.892921E+04 -3.545797E+04  3.385857E+04  1.413603E+04
       315   4  2.148943E+06  5.117331E+04  1.380780E+05 -2.809168E+04  1.045219E+05  1.743712E+04
       315   5  2.138485E+06 -7.658524E+03  7.025847E+04 -7.058162E+03  6.848538E+04  1.638182E+04
       315   6  2.149035E+06 -2.667795E+03  4.188265E+04 -2.803919E+04  3.244940E+04  1.413508E+04
       315   7  2.724680E+06  1.935369E+05  2.759196E+05 -4.218464E+04  1.043733E+05  1.743347E+04
       315   8  2.657783E+06  1.207400E+05  1.943721E+05 -1.039306E+04  6.770433E+04  1.637991E+04
       315   9  2.611986E+06  1.118446E+05  1.526794E+05 -2.061489E+04  3.103918E+04  1.413410E+04
       315  10  1.573496E+06 -9.121674E+04  1.920535E+02 -1.401333E+04  4.715861E-10 -7.675276E-10
       315  11  1.619427E+06 -1.360780E+05 -5.388362E+04 -3.727016E+03  2.336586E-10  6.675391E-10
       315  12  1.686278E+06 -1.171960E+05 -6.893174E+04 -3.545836E+04 -1.873391E-10 -3.312750E-10
       315  13  2.148931E+06  5.117006E+04  1.380570E+05 -2.809314E+04  3.644978E-10 -6.006009E-10
       315  14  2.138480E+06 -7.660067E+03  7.024918E+04 -7.059065E+03 -4.937135E-10 -1.425997E-10
       315  15  2.149034E+06 -2.668292E+03  4.188031E+04 -2.803956E+04 -3.773362E-10 -3.931910E-10
       315  16  2.724669E+06  1.935337E+05  2.758987E+05 -4.218610E+04  5.368487E-10 -2.116593E-10
       315  17  2.657778E+06  1.207385E+05  1.943630E+05 -1.039395E+04 -1.631032E-09 -1.246740E-09
       315  18  2.611985E+06  1.118441E+05  1.526773E+05 -2.061524E+04  1.267327E-10  2.162600E-10
       315  19  1.573507E+06 -9.121348E+04  2.131614E+02 -1.401186E+04 -1.046703E+05 -1.744079E+04
       315  20  1.619432E+06 -1.360764E+05 -5.387413E+04 -3.726103E+03 -6.926576E+04 -1.638374E+04
       315  21  1.686279E+06 -1.171955E+05 -6.892921E+04 -3.545797E+04 -3.385857E+04 -1.413603E+04
       315  22  2.148943E+06  5.117331E+04  1.380780E+05 -2.809168E+04 -1.045219E+05 -1.743712E+04
       315  23  2.138485E+06 -7.658524E+03  7.025847E+04 -7.058162E+03 -6.848538E+04 -1.638182E+04
       315  24  2.149035E+06 -2.667795E+03  4.188265E+04 -2.803919E+04 -3.244940E+04 -1.413508E+04
       315  25  2.724680E+06  1.935369E+05  2.759196E+05 -4.218464E+04 -1.043733E+05 -1.743347E+04
       315  26  2.657783E+06  1.207400E+05  1.943721E+05 -1.039306E+04 -6.770433E+04 -1.637991E+04
       315  27  2.611986E+06  1.118446E+05  1.526794E+05 -2.061489E+04 -3.103918E+04 -1.413410E+04
       316   1  1.755009E+06 -9.123048E+04 -6.033932E+04 -2.640952E+04  2.685189E+04  1.266785E+04
       316   2  1.805934E+06 -8.439868E+04 -6.275075E+04 -7.777373E+03  1.784739E+04  1.060063E+04
       316   3  1.859854E+06 -7.085070E+04 -5.760206E+04 -2.823963E+04  8.840599E+03  8.491524E+03
       316   4  2.145038E+06  5.236034E+03  3.280352E+04 -2.740603E+04  2.583036E+04  1.266696E+04
       316   5  2.143552E+06 -8.729891E+02  1.799215E+04 -7.858880E+03  1.679950E+04  1.060011E+04
       316   6  2.145060E+06 -2.637835E+02  1.075541E+04 -2.740473E+04  7.767119E+03  8.491375E+03
       316   7  2.535206E+06  1.016916E+05  1.259357E+05 -2.840317E+04  2.480818E+04  1.266607E+04
       316   8  2.481275E+06  8.264447E+04  9.872703E+04 -7.940434E+03  1.575106E+04  1.059960E+04
       316   9  2.430341E+06  7.031725E+04  7.910713E+04 -2.656944E+04  6.693148E+03  8.491222E+03
       316  10  1.755008E+06 -9.123085E+04 -6.034097E+04 -2.640980E+04  5.435117E-10  3.563662E-10
       316  11  1.805934E+06 -8.439889E+04 -6.275156E+04 -7.777525E+03  4.991567E-11  2.663802E-11
       316  12  1.859854E+06 -7.085080E+04 -5.760234E+04 -2.823969E+04 -3.912280E-10  2.537676E-10
       316  13  2.145037E+06  5.235683E+03  3.280197E+04 -2.740629E+04  2.678070E-10  3.563308E-11
       316  14  2.143552E+06 -8.731854E+02  1.799141E+04 -7.859023E+03  6.104067E-10 -1.679491E-10
       316  15  2.145060E+06 -2.638771E+02  1.075516E+04 -2.740478E+04 -4.826568E-10  2.211878E-10
       316  16  2.535205E+06  1.016912E+05  1.259342E+05 -2.840342E+04 -5.740126E-10 -1.578073E-11
       316  17  2.481274E+06  8.264428E+04  9.872636E+04 -7.940569E+03  2.040757E-10 -3.077635E-10
       316  18  2.430341E+06  7.031716E+04  7.910691E+04 -2.656949E+04 -3.732398E-10  2.471595E-10
       316  19  1.755009E+06 -9.123048E+04 -6.033932E+04 -2.640952E+04 -2.685189E+04 -1.266785E+04
       316  20  1.805934E+06 -8.439868E+04 -6.275075E+04 -7.777373E+03 -1.784739E+04 -1.060063E+04
       316  21  1.859854E+06 -7.085070E+04 -5.760206E+04 -2.823963E+04 -8.840599E+03 -8.491524E+03
       316  22  2.145038E+06  5.236034E+03  3.280352E+04 -2.740603E+04 -2.583036E+04 -1.266696E+04
       316  23  2.143552E+06 -8.729891E+02  1.799215E+04 -7.858880E+03 -1.679950E+04 -1.060011E+04
       316  24  2.145060E+06 -2.637835E+02  1.075541E+04 -2.740473E+04 -7.767119E+03 -8.491375E+03
       316  25  2.535206E+06  1.016916E+05  1.259357E+05 -2.840317E+04 -2.480818E+04 -1.266607E+04
       316  26  2.481275E+06  8.264447E+04  9.872703E+04 -7.940434E+03 -1.575106E+04 -1.059960E+04
       316  27  2.430341E+06  7.031725E+04  7.910713E+04 -2.656944E+04 -6.693148E+03 -8.491222E+03
       317   1  1.927918E+06 -5.304062E+04 -4.317601E+04 -2.698135E+04  7.075291E+03  7.270554E+03
       317   2  1.977769E+06 -4.129442E+04 -3.445653E+04 -8.343464E+03  4.403619E+03  5.223542E+03
       317   3  2.028169E+06 -2.878116E+04 -2.380819E+04 -2.708144E+04  1.731022E+03  3.195601E+03
       317   4  2.144526E+06  5.123078E+02  8.467850E+03 -2.702329E+04  6.037441E+03  7.270567E+03
       317   5  2.144256E+06 -1.102344E+02  5.356084E+03 -8.335728E+03  3.374549E+03  5.223716E+03
       317   6  2.144532E+06  3.273051E+01  4.166685E+03 -2.702341E+04  7.109454E+02  3.195943E+03
       317   7  2.361176E+06  5.406185E+04  6.010842E+04 -2.706524E+04  4.999231E+03  7.270580E+03
       317   8  2.310768E+06  4.107195E+04  4.516675E+04 -8.327988E+03  2.345205E+03  5.223890E+03
       317   9  2.260908E+06  2.884564E+04  3.214061E+04 -2.696536E+04 -3.093214E+02  3.196284E+03
       317  10  1.927918E+06 -5.304069E+04 -4.317620E+04 -2.698139E+04  8.157807E-10 -1.260791E-10
       317  11  1.977769E+06 -4.129446E+04 -3.445662E+04 -8.343483E+03 -8.411648E-10 -1.758084E-10
       317  12  2.028169E+06 -2.878118E+04 -2.380822E+04 -2.708145E+04 -8.020757E-10  7.642263E-10
       317  13  2.144526E+06  5.122412E+02  8.467682E+03 -2.702332E+04 -1.344616E-09  3.518922E-10
       317  14  2.144256E+06 -1.102668E+02  5.356011E+03 -8.335742E+03  1.770378E-10 -5.101443E-10
       317  15  2.144532E+06  3.271939E+01  4.166665E+03 -2.702341E+04 -8.471688E-10  1.897197E-11
       317  16  2.361176E+06  5.406179E+04  6.010828E+04 -2.706527E+04  8.710733E-12  2.194229E-10
       317  17  2.310768E+06  4.107192E+04  4.516668E+04 -8.327998E+03  1.789571E-10 -2.906173E-10
       317  18  2.260908E+06  2.884563E+04  3.214059E+04 -2.696536E+04  7.016365E-10 -2.716069E-10
       317  19  1.927918E+06 -5.304062E+04 -4.317601E+04 -2.698135E+04 -7.075291E+03 -7.270554E+03
       317  20  1.977769E+06 -4.129442E+04 -3.445653E+04 -8.343464E+03 -4.403619E+03 -5.223542E+03
       317  21  2.028169E+06 -2.878116E+04 -2.380819E+04 -2.708144E+04 -1.731022E+03 -3.195601E+03
       317  22  2.144526E+06  5.123078E+02  8.467850E+03 -2.702329E+04 -6.037441E+03 -7.270567E+03
       317  23  2.144256E+06 -1.102344E+02  5.356084E+03 -8.335728E+03 -3.374549E+03 -5.223716E+03
       317  24  2.144532E+06  3.273051E+01  4.166685E+03 -2.702341E+04 -7.109454E+02 -3.195943E+03
       317  25  2.361176E+06  5.406185E+04  6.010842E+04 -2.706524E+04 -4.999231E+03 -7.270580E+03
       317  26  2.310768E+06  4.107195E+04  4.516675E+04 -8.327988E+03 -2.345205E+03 -5.223890E+03
       317  27  2.260908E+06  2.884564E+04  3.214061E+04 -2.696536E+04  3.093214E+02 -3.196284E+03
       318   1  2.094709E+06 -1.224576E+04 -7.707326E+03 -2.681854E+04  9.839331E+02  2.023219E+03
       318   2  2.143857E+06 -1.928577E+02  4.631442E+03 -8.471017E+03 -1.372433E+03  1.402933E+01
       318   3  2.193444E+06  1.251545E+04  1.865651E+04 -2.693081E+04 -3.728953E+03 -1.990156E+03
       318   4  2.144511E+06  4.282033E+01  4.049971E+03 -2.689722E+04 -3.300309E+01  2.023617E+03
       318   5  2.144292E+06 -8.526970E+01  4.735475E+03 -8.493478E+03 -2.386902E+03  1.442211E+01
       318   6  2.144509E+06  4.419964E+02  7.105935E+03 -2.689705E+04 -4.740771E+03 -1.989760E+03
       318   7  2.194316E+06  1.233122E+04  1.580710E+04 -2.697590E+04 -1.050020E+03  2.024014E+03
       318   8  2.144727E+06  2.231889E+01  4.839513E+03 -8.515938E+03 -3.401373E+03  1.481496E+01
       318   9  2.095577E+06 -1.163163E+04 -4.444801E+03 -2.686329E+04 -5.752511E+03 -1.989363E+03
       318  10  2.094709E+06 -1.224576E+04 -7.707335E+03 -2.681855E+04  7.704310E-10  6.356481E-10
       318  11  2.143857E+06 -1.928582E+02  4.631439E+03 -8.471017E+03  1.679602E-09 -1.277637E-10
       318  12  2.193444E+06  1.251544E+04  1.865648E+04 -2.693082E+04 -2.731067E-10  1.457737E-10
       318  13  2.144511E+06  4.281593E+01  4.049964E+03 -2.689722E+04 -1.097434E-09  6.964489E-10
       318  14  2.144292E+06 -8.527122E+01  4.735465E+03 -8.493478E+03 -9.493565E-10  1.677021E-10
       318  15  2.144509E+06  4.419861E+02  7.105885E+03 -2.689706E+04  1.002863E-09 -7.342180E-10
       318  16  2.194316E+06  1.233122E+04  1.580709E+04 -2.697590E+04 -5.715808E-10 -1.537017E-10
       318  17  2.144727E+06  2.231580E+01  4.839491E+03 -8.515938E+03 -1.052753E-09  4.090773E-10
       318  18  2.095577E+06 -1.163164E+04 -4.444871E+03 -2.686330E+04  8.655577E-10 -4.512498E-10
       318  19  2.094709E+06 -1.224576E+04 -7.707326E+03 -2.681854E+04 -9.839331E+02 -2.023219E+03
       318  20  2.143857E+06 -1.928577E+02  4.631442E+03 -8.471017E+03  1.372433E+03 -1.402933E+01
       318  21  2.193444E+06  1.251545E+04  1.865651E+04 -2.693081E+04  3.728953E+03  1.990156E+03
       318  22  2.144511E+06  4.282033E+01  4.049971E+03 -2.689722E+04  3.300309E+01 -2.023617E+03
       318  23  2.144292E+06 -8.526970E+01  4.735475E+03 -8.493478E+03  2.386902E+03 -1.442211E+01
       318  24  2.144509E+06  4.419964E+02  7.105935E+03 -2.689705E+04  4.740771E+03  1.989760E+03
       318  25  2.194316E+06  1.233122E+04  1.580710E+04 -2.697590E+04  1.050020E+03 -2.024014E+03
       318  26  2.144727E+06  2.231889E+01  4.839513E+03 -8.515938E+03  3.401373E+03 -1.481496E+01
       318  27  2.095577E+06 -1.163163E+04 -4.444801E+03 -2.686329E+04  5.752511E+03  1.989363E+03
       319   1  2.260431E+06  2.840295E+04  3.667447E+04 -2.636130E+04 -5.147086E+03 -3.170654E+03
       319   2  2.309379E+06  4.027357E+04  5.433514E+04 -8.468523E+03 -1.256876E+04 -5.195390E+03
       319   3  2.360674E+06  5.763552E+04  7.818832E+04 -2.794003E+04 -1.999048E+04 -7.174435E+03
       319   4  2.144930E+06 -1.928671E+02  8.911078E+03 -2.702137E+04 -6.182239E+03 -3.170300E+03
       319   5  2.143752E+06 -6.898154E+02  1.473679E+04 -8.338466E+03 -1.357909E+04 -5.195221E+03
       319   6  2.144913E+06  4.301303E+03  2.673924E+04 -2.702039E+04 -2.097540E+04 -7.174454E+03
       319   7  2.029441E+06 -2.878965E+04 -1.885326E+04 -2.768131E+04 -7.217201E+03 -3.169943E+03
       319   8  1.978149E+06 -4.165518E+04 -2.486349E+04 -8.208442E+03 -1.458915E+04 -5.195052E+03
       319   9  1.929195E+06 -4.903626E+04 -2.471310E+04 -2.610107E+04 -2.195997E+04 -7.174477E+03
       319  10  2.260431E+06  2.840294E+04  3.667440E+04 -2.636131E+04 -1.345532E-09  7.004921E-11
       319  11  2.309379E+06  4.027349E+04  5.433480E+04 -8.468575E+03 -2.940705E-10 -2.397190E-10
       319  12  2.360674E+06  5.763536E+04  7.818748E+04 -2.794014E+04 -9.518029E-10  6.285766E-10
       319  13  2.144930E+06 -1.928881E+02  8.910987E+03 -2.702138E+04  1.138971E-09 -4.531716E-10
       319  14  2.143752E+06 -6.898937E+02  1.473639E+04 -8.338523E+03  1.489309E-09 -5.749002E-10
       319  15  2.144913E+06  4.301130E+03  2.673832E+04 -2.702051E+04  7.228599E-11  5.230541E-11
       319  16  2.029441E+06 -2.878968E+04 -1.885337E+04 -2.768133E+04  9.687156E-11 -1.624203E-10
       319  17  1.978149E+06 -4.165526E+04 -2.486394E+04 -8.208503E+03  1.921081E-09 -5.885864E-10
       319  18  1.929195E+06 -4.903645E+04 -2.471410E+04 -2.610120E+04  8.073913E-10 -4.106938E-10
       319  19  2.260431E+06  2.840295E+04  3.667447E+04 -2.636130E+04  5.147086E+03  3.170654E+03
       319  20  2.309379E+06  4.027357E+04  5.433514E+04 -8.468523E+03  1.256876E+04  5.195390E+03
       319  21  2.360674E+06  5.763552E+04  7.818832E+04 -2.794003E+04  1.999048E+04  7.174435E+03
       319  22  2.144930E+06 -1.928671E+02  8.911078E+03 -2.702137E+04  6.182239E+03  3.170300E+03
       319  23  2.143752E+06 -6.898154E+02  1.473679E+04 -8.338466E+03  1.357909E+04  5.195221E+03
       319  24  2.144913E+06  4.301303E+03  2.673924E+04 -2.702039E+04  2.097540E+04  7.174454E+03
       319  25  2.029441E+06 -2.878965E+04 -1.885326E+04 -2.768131E+04  7.217201E+03  3.169943E+03
       319  26  1.978149E+06 -4.165518E+04 -2.486349E+04 -8.208442E+03  1.458915E+04  5.195052E+03
       319  27  1.929195E+06 -4.903626E+04 -2.471310E+04 -2.610107E+04  2.195997E+04  7.174477E+03
       320   1  2.432527E+06  6.821888E+04  1.022235E+05 -2.150607E+04 -2.509494E+04 -8.517960E+03
       320   2  2.476430E+06  7.708174E+04  1.376869E+05 -1.080274E+04 -5.489773E+04 -1.060062E+04
       320   3  2.537332E+06  1.379624E+05  2.055318E+05 -3.916510E+04 -8.470257E+04 -1.178074E+04
       320   4  2.148154E+06 -2.132973E+03  3.410841E+04 -2.739635E+04 -2.636773E+04 -8.517863E+03
       320   5  2.139653E+06 -6.199789E+03  5.718801E+04 -7.868619E+03 -5.570040E+04 -1.060136E+04
       320   6  2.148079E+06  4.168598E+04  1.123373E+05 -2.740721E+04 -8.503262E+04 -1.178293E+04
       320   7  1.863854E+06 -7.249055E+04 -3.401242E+04 -3.328393E+04 -2.763995E+04 -8.517743E+03
       320   8  1.802980E+06 -8.948947E+04 -2.331887E+04 -4.936096E+03 -5.650263E+04 -1.060211E+04
       320   9  1.758966E+06 -5.460085E+04  1.913208E+04 -1.565670E+04 -8.536245E+04 -1.178514E+04
       320  10  2.432527E+06  6.821864E+04  1.022222E+05 -2.150624E+04  1.554738E-09  9.342835E-11
       320  11  2.476426E+06  7.708082E+04  1.376811E+05 -1.080321E+04 -3.406704E-11 -7.612768E-10
       320  12  2.537324E+06  1.379603E+05  2.055181E+05 -3.916590E+04 -5.334674E-10  2.416848E-10
       320  13  2.148153E+06 -2.133237E+03  3.410697E+04 -2.739653E+04 -6.254314E-10 -9.029060E-11
       320  14  2.139650E+06 -6.200739E+03  5.718198E+04 -7.869094E+03 -1.991563E-10 -7.471120E-10
       320  15  2.148072E+06  4.168390E+04  1.123235E+05 -2.740801E+04 -1.963956E-10  1.130474E-10
       320  16  1.863853E+06 -7.249083E+04 -3.401399E+04 -3.328412E+04 -1.268666E-09 -3.695263E-10
       320  17  1.802977E+06 -8.949045E+04 -2.332506E+04 -4.936578E+03  1.603305E-10 -4.919257E-10
       320  18  1.758958E+06 -5.460294E+04  1.911817E+04 -1.565751E+04  2.397346E-10  7.335406E-10
       320  19  2.432527E+06  6.821888E+04  1.022235E+05 -2.150607E+04  2.509494E+04  8.517960E+03
       320  20  2.476430E+06  7.708174E+04  1.376869E+05 -1.080274E+04  5.489773E+04  1.060062E+04
       320  21  2.537332E+06  1.379624E+05  2.055318E+05 -3.916510E+04  8.470257E+04  1.178074E+04
       320  22  2.148154E+06 -2.132973E+03  3.410841E+04 -2.739635E+04  2.636773E+04  8.517863E+03
       320  23  2.139653E+06 -6.199789E+03  5.718801E+04 -7.868619E+03  5.570040E+04  1.060136E+04
       320  24  2.148079E+06  4.168598E+04  1.123373E+05 -2.740721E+04  8.503262E+04  1.178293E+04
       320  25  1.863854E+06 -7.249055E+04 -3.401242E+04 -3.328393E+04  2.763995E+04  8.517743E+03
       320  26  1.802980E+06 -8.948947E+04 -2.331887E+04 -4.936096E+03  5.650263E+04  1.060211E+04
       320  27  1.758966E+06 -5.460085E+04  1.913208E+04 -1.565670E+04  8.536245E+04  1.178514E+04
       321   1  2.637110E+06  9.376298E+04  2.479915E+05  2.498453E+04 -1.023519E+05 -1.490721E+04
       321   2  2.623824E+06  7.109029E+04  3.437282E+05 -4.312966E+04 -2.276755E+05 -1.681041E+04
       321   3  2.749937E+06  5.399999E+05  6.438073E+05 -1.533261E+05 -3.530187E+05 -5.929418E+03
       321   4  2.175151E+06 -2.050928E+04  1.376802E+05 -2.795000E+04 -1.064589E+05 -1.490116E+04
       321   5  2.105751E+06 -5.692669E+04  2.200397E+05 -7.120892E+03 -2.252484E+05 -1.682268E+04
       321   6  2.174726E+06  3.972992E+05  5.023332E+05 -2.835934E+04 -3.440446E+05 -5.991094E+03
       321   7  1.713392E+06 -1.347865E+05  2.735542E+04 -8.084515E+04 -1.105629E+05 -1.489440E+04
       321   8  1.587927E+06 -1.849581E+05  9.633307E+04  2.885777E+04 -2.228232E+05 -1.683468E+04
       321   9  1.599849E+06  2.546327E+05  3.608435E+05  9.649185E+04 -3.350786E+05 -6.049223E+03
       321  10  2.637099E+06  9.375995E+04  2.479715E+05  2.498331E+04  1.124410E-09  3.968843E-10
       321  11  2.623768E+06  7.107615E+04  3.436306E+05 -4.313274E+04  4.257398E-10 -5.617889E-10
       321  12  2.749804E+06  5.399666E+05  6.435741E+05 -1.533278E+05  7.488813E-10  1.754881E-10
       321  13  2.175139E+06 -2.051255E+04  1.376585E+05 -2.795128E+04 -2.296621E-09 -4.235876E-10
       321  14  2.105697E+06 -5.694056E+04  2.199441E+05 -7.123941E+03 -1.301040E-09 -2.881525E-10
       321  15  2.174600E+06  3.972675E+05  5.021115E+05 -2.836099E+04  9.081114E-10 -7.482209E-10
       321  16  1.713379E+06 -1.347900E+05  2.733209E+04 -8.084647E+04 -1.071520E-09  2.429062E-10
       321  17  1.587874E+06 -1.849717E+05  9.623948E+04  2.885475E+04 -2.046141E-09 -8.366251E-10
       321  18  1.599729E+06  2.546026E+05  3.606330E+05  9.649023E+04 -1.915712E-10  7.549885E-10
       321  19  2.637110E+06  9.376298E+04  2.479915E+05  2.498453E+04  1.023519E+05  1.490721E+04
       321  20  2.623824E+06  7.109029E+04  3.437282E+05 -4.312966E+04  2.276755E+05  1.681041E+04
       321  21  2.749937E+06  5.399999E+05  6.438073E+05 -1.533261E+05  3.530187E+05  5.929418E+03
       321  22  2.175151E+06 -2.050928E+04  1.376802E+05 -2.795000E+04  1.064589E+05  1.490116E+04
       321  23  2.105751E+06 -5.692669E+04  2.200397E+05 -7.120892E+03  2.252484E+05  1.682268E+04
       321  24  2.174726E+06  3.972992E+05  5.023332E+05 -2.835934E+04  3.440446E+05  5.991094E+03
       321  25  1.713392E+06 -1.347865E+05  2.735542E+04 -8.084515E+04  1.105629E+05  1.489440E+04
       321  26  1.587927E+06 -1.849581E+05  9.633307E+04  2.885777E+04  2.228232E+05  1.683468E+04
       321  27  1.599849E+06  2.546327E+05  3.608435E+05  9.649185E+04  3.350786E+05  6.049223E+03
       322   1  1.412423E+05  2.232011E+05  2.022201E+05 -8.621125E+04 -4.062276E+03  1.839699E+05
       322   2 -1.228371E+05  1.559800E+05  4.158872E+04 -2.542942E+04 -1.193405E+04  1.179322E+05
       322   3 -1.073208E+05  1.673000E+05 -6.143165E+03  1.454636E+04 -1.310096E+04  5.191069E+04
       322   4  2.248750E+05  5.605174E+05  2.852403E+05 -1.564425E+04 -4.054512E+03  1.897903E+05
       322   5 -3.248729E+04  5.209956E+05  1.289505E+05 -5.502949E+03 -1.193470E+04  1.203345E+05
       322   6 -9.755371E+03  5.605638E+05  8.789128E+04 -1.616197E+04 -1.310104E+04  5.089258E+04
       322   7  3.085181E+05  8.979480E+05  3.682549E+05  5.496118E+04 -4.045432E+03  1.956138E+05
       322   8  5.785436E+04  8.861340E+05  2.163032E+05  1.443534E+04 -1.193520E+04  1.227382E+05
       322   9  8.780235E+04  9.539712E+05  1.819153E+05 -4.688976E+04 -1.310101E+04  4.987383E+04
       322  10  1.412332E+05  2.231648E+05  2.021565E+05 -8.621065E+04  1.884171E-10 -5.332956E-10
       322  11 -1.228410E+05  1.559651E+05  4.156232E+04 -2.542828E+04 -6.630546E-12 -3.090509E-09
       322  12 -1.073217E+05  1.672970E+05 -6.148550E+03  1.454691E+04  1.146597E-09  7.362160E-10
       322  13  2.248653E+05  5.604787E+05  2.851726E+05 -1.564363E+04  8.150658E-10  1.263944E-09
       322  14 -3.249133E+04  5.209800E+05  1.289231E+05 -5.501793E+03 -8.724985E-10 -1.875718E-09
       322  15 -9.756249E+03  5.605609E+05  8.788609E+04 -1.616143E+04  9.659623E-10  2.980917E-10
       322  16  3.085078E+05  8.979070E+05  3.681830E+05  5.496182E+04 -1.567888E-11  5.955497E-10
       322  17  5.785017E+04  8.861178E+05  2.162746E+05  1.443652E+04 -2.822297E-10  2.259788E-10
       322  18  8.780150E+04  9.539685E+05  1.819103E+05 -4.688924E+04  1.286654E-10 -1.208014E-09
       322  19  1.412423E+05  2.232011E+05  2.022201E+05 -8.621125E+04  4.062276E+03 -1.839699E+05
       322  20 -1.228371E+05  1.559800E+05  4.158872E+04 -2.542942E+04  1.193405E+04 -1.179322E+05
       322  21 -1.073208E+05  1.673000E+05 -6.143165E+03  1.454636E+04  1.310096E+04 -5.191069E+04
       322  22  2.248750E+05  5.605174E+05  2.852403E+05 -1.564425E+04  4.054512E+03 -1.897903E+05
       322  23 -3.248729E+04  5.209956E+05  1.289505E+05 -5.502949E+03  1.193470E+04 -1.203345E+05
       322  24 -9.755371E+03  5.605638E+05  8.789128E+04 -1.616197E+04  1.310104E+04 -5.089258E+04
       322  25  3.085181E+05  8.979480E+05  3.682549E+05  5.496118E+04  4.045432E+03 -1.956138E+05
       322  26  5.785436E+04  8.861340E+05  2.163032E+05  1.443534E+04  1.193520E+04 -1.227382E+05
       322  27  8.780235E+04  9.539712E+05  1.819153E+05 -4.688976E+04  1.310101E+04 -4.987383E+04
       323   1 -8.430826E+04  1.146203E+05 -2.696621E+04 -2.479901E+04 -1.294201E+04  3.552128E+04
       323   2 -1.204034E+05  7.716577E+04 -5.526746E+04 -5.276229E+03 -1.455735E+04  7.929153E+03
       323   3 -1.054429E+05  5.623133E+04 -5.280743E+04 -7.505318E+03 -1.474520E+04 -1.965855E+04
       323   4  2.278040E+04  5.466628E+05  7.676981E+04 -1.619901E+04 -1.294300E+04  3.673793E+04
       323   5 -6.100828E+03  5.383434E+05  5.521429E+04 -5.331979E+03 -1.455732E+04  8.408122E+03
       323   6  1.618096E+04  5.466599E+05  6.491735E+04 -1.621543E+04 -1.474386E+04 -1.991852E+04
       323   7  1.298558E+05  9.788762E+05  1.804926E+05 -7.592924E+03 -1.294395E+04  3.795540E+04
       323   8  1.081863E+05  9.997158E+05  1.656810E+05 -5.387699E+03 -1.455730E+04  8.887444E+03
       323   9  1.377876E+05  1.037309E+06  1.826251E+05 -2.493238E+04 -1.474252E+04 -2.017870E+04
       323  10 -8.430877E+04  1.146189E+05 -2.696889E+04 -2.479864E+04  5.489826E-10 -6.340529E-10
       323  11 -1.204037E+05  7.716564E+04 -5.526797E+04 -5.276136E+03  6.351770E-10 -2.519939E-09
       323  12 -1.054432E+05  5.623085E+04 -5.280856E+04 -7.505552E+03 -4.725283E-10 -1.417748E-10
       323  13  2.277985E+04  5.466613E+05  7.676696E+04 -1.619863E+04  6.405695E-10  1.196884E-09
       323  14 -6.101075E+03  5.383433E+05  5.521376E+04 -5.331880E+03  9.787659E-10 -1.741388E-09
       323  15  1.618062E+04  5.466594E+05  6.491620E+04 -1.621566E+04  8.543353E-10  5.274274E-10
       323  16  1.298552E+05  9.788746E+05  1.804896E+05 -7.592529E+03  3.197123E-10  5.669743E-10
       323  17  1.081861E+05  9.997157E+05  1.656805E+05 -5.387595E+03 -1.430864E-09  9.344614E-10
       323  18  1.377872E+05  1.037308E+06  1.826239E+05 -2.493262E+04 -4.498257E-10 -4.181882E-11
       323  19 -8.430826E+04  1.146203E+05 -2.696621E+04 -2.479901E+04  1.294201E+04 -3.552128E+04
       323  20 -1.204034E+05  7.716577E+04 -5.526746E+04 -5.276229E+03  1.455735E+04 -7.929153E+03
       323  21 -1.054429E+05  5.623133E+04 -5.280743E+04 -7.505318E+03  1.474520E+04  1.965855E+04
       323  22  2.278040E+04  5.466628E+05  7.676981E+04 -1.619901E+04  1.294300E+04 -3.673793E+04
       323  23 -6.100828E+03  5.383434E+05  5.521429E+04 -5.331979E+03  1.455732E+04 -8.408122E+03
       323  24  1.618096E+04  5.466599E+05  6.491735E+04 -1.621543E+04  1.474386E+04  1.991852E+04
       323  25  1.298558E+05  9.788762E+05  1.804926E+05 -7.592924E+03  1.294395E+04 -3.795540E+04
       323  26  1.081863E+05  9.997158E+05  1.656810E+05 -5.387699E+03  1.455730E+04 -8.887444E+03
       323  27  1.377876E+05  1.037309E+06  1.826251E+05 -2.493238E+04  1.474252E+04  2.017870E+04
       324   1 -1.375144E+05  2.546309E+04 -5.587506E+04 -3.839287E+04 -1.718477E+04 -3.529607E+04
       324   2 -1.630946E+05 -3.402857E+04 -3.645182E+04  1.017791E+04 -1.798286E+04 -8.130985E+04
       324   3  1.789282E+04 -3.555243E+04  6.465227E+04  3.641931E+04 -5.913162E+03 -1.273144E+05
       324   4 -6.084731E+03  5.560821E+05  7.107420E+04 -1.637546E+04 -1.718870E+04 -3.164794E+04
       324   5 -2.414555E+04  5.265370E+05  9.773719E+04 -5.173741E+03 -1.797793E+04 -8.419021E+04
       324   6  1.653893E+05  5.560365E+05  2.105603E+05 -1.629987E+04 -5.898985E+03 -1.367261E+05
       324   7  1.253264E+05  1.086960E+06  1.980039E+05  5.660912E+03 -1.719237E+04 -2.799670E+04
       324   8  1.147816E+05  1.087391E+06  2.319042E+05 -2.053927E+04 -1.797287E+04 -8.707314E+04
       324   9  3.128702E+05  1.147950E+06  3.564443E+05 -6.906933E+04 -5.883220E+03 -1.461466E+05
       324  10 -1.375151E+05  2.546168E+04 -5.587796E+04 -3.839336E+04 -6.901288E-11 -1.826133E-10
       324  11 -1.630967E+05 -3.403576E+04 -3.646485E+04  1.017674E+04 -1.102248E-10 -8.142472E-10
       324  12  1.788843E+04 -3.556984E+04  6.462174E+04  3.641870E+04 -8.160399E-11  3.376878E-11
       324  13 -6.085317E+03  5.560810E+05  7.107177E+04 -1.637590E+04 -4.663810E-10  7.333919E-10
       324  14 -2.414779E+04  5.265293E+05  9.772328E+04 -5.174959E+03 -2.515024E-10 -5.031334E-10
       324  15  1.653842E+05  5.560164E+05  2.105251E+05 -1.630052E+04 -7.340768E-11  2.586354E-10
       324  16  1.253259E+05  1.086959E+06  1.980019E+05  5.660525E+03  2.570111E-10  2.673532E-11
       324  17  1.147792E+05  1.087383E+06  2.318893E+05 -2.054053E+04 -1.320451E-10  2.209894E-10
       324  18  3.128644E+05  1.147927E+06  3.564041E+05 -6.907002E+04 -2.000147E-10 -1.881571E-10
       324  19 -1.375144E+05  2.546309E+04 -5.587506E+04 -3.839287E+04  1.718477E+04  3.529607E+04
       324  20 -1.630946E+05 -3.402857E+04 -3.645182E+04  1.017791E+04  1.798286E+04  8.130985E+04
       324  21  1.789282E+04 -3.555243E+04  6.465227E+04  3.641931E+04  5.913162E+03  1.273144E+05
       324  22 -6.084731E+03  5.560821E+05  7.107420E+04 -1.637546E+04  1.718870E+04  3.164794E+04
       324  23 -2.414555E+04  5.265370E+05  9.773719E+04 -5.173741E+03  1.797793E+04  8.419021E+04
       324  24  1.653893E+05  5.560365E+05  2.105603E+05 -1.629987E+04  5.898985E+03  1.367261E+05
       324  25  1.253264E+05  1.086960E+06  1.980039E+05  5.660912E+03  1.719237E+04  2.799670E+04
       324  26  1.147816E+05  1.087391E+06  2.319042E+05 -2.053927E+04  1.797287E+04  8.707314E+04
       324  27  3.128702E+05  1.147950E+06  3.564443E+05 -6.906933E+04  5.883220E+03  1.461466E+05
       325   1 -2.944438E+06 -1.092281E+06 -5.840425E+05 -1.116721E+06 -2.790620E+05 -8.181392E+04
       325   2 -2.876724E+06 -8.475945E+05 -3.695341E+05 -1.085507E+06 -1.796172E+05  1.143819E+04
       325   3 -2.860379E+06 -7.375629E+05 -2.765902E+05 -1.038272E+06 -6.739923E+04  7.096910E+04
       325   4 -1.692901E+06 -4.959131E+05 -2.395831E+05 -6.446950E+05 -1.631347E+05 -3.813230E+04
       325   5 -1.660020E+06 -3.427129E+05 -1.121431E+05 -6.872743E+05 -1.232397E+05  3.266791E+04
       325   6 -1.666561E+06 -3.121965E+05 -5.880309E+04 -7.138663E+05 -7.060052E+04  6.974440E+04
       325   7 -4.397850E+05  1.008530E+05  1.047848E+05 -1.717114E+05 -4.695443E+04  5.704056E+03
       325   8 -4.417699E+05  1.624169E+05  1.451801E+05 -2.882749E+05 -6.674340E+04  5.395584E+04
       325   9 -4.712245E+05  1.132969E+05  1.589374E+05 -3.888775E+05 -7.380842E+04  6.851735E+04
       325  10 -2.944524E+06 -1.092309E+06 -5.842023E+05 -1.116739E+06  1.071666E-09  3.082187E-10
       325  11 -2.876759E+06 -8.476033E+05 -3.695952E+05 -1.085505E+06 -7.388720E-10 -9.071396E-10
       325  12 -2.860385E+06 -7.375695E+05 -2.766082E+05 -1.038269E+06 -1.613800E-09 -1.334866E-09
       325  13 -1.692930E+06 -4.959219E+05 -2.396360E+05 -6.447001E+05 -2.379180E-10  9.019378E-12
       325  14 -1.660036E+06 -3.427181E+05 -1.121737E+05 -6.872711E+05 -7.634979E-10  4.924818E-10
       325  15 -1.666568E+06 -3.122030E+05 -5.882160E+04 -7.138623E+05 -5.562649E-10 -5.353423E-11
       325  16 -4.397874E+05  1.008523E+05  1.047806E+05 -1.717112E+05 -6.223870E-10  9.279218E-10
       325  17 -4.417755E+05  1.624125E+05  1.451662E+05 -2.882720E+05  5.978185E-10  3.547642E-10
       325  18 -4.712316E+05  1.132904E+05  1.589184E+05 -3.888735E+05  1.660983E-09  2.134209E-09
       325  19 -2.944438E+06 -1.092281E+06 -5.840425E+05 -1.116721E+06  2.790620E+05  8.181392E+04
       325  20 -2.876724E+06 -8.475945E+05 -3.695341E+05 -1.085507E+06  1.796172E+05 -1.143819E+04
       325  21 -2.860379E+06 -7.375629E+05 -2.765902E+05 -1.038272E+06  6.739923E+04 -7.096910E+04
       325  22 -1.692901E+06 -4.959131E+05 -2.395831E+05 -6.446950E+05  1.631347E+05  3.813230E+04
       325  23 -1.660020E+06 -3.427129E+05 -1.121431E+05 -6.872743E+05  1.232397E+05 -3.266791E+04
       325  24 -1.666561E+06 -3.121965E+05 -5.880309E+04 -7.138663E+05  7.060052E+04 -6.974440E+04
       325  25 -4.397850E+05  1.008530E+05  1.047848E+05 -1.717114E+05  4.695443E+04 -5.704056E+03
       325  26 -4.417699E+05  1.624169E+05  1.451801E+05 -2.882749E+05  6.674340E+04 -5.395584E+04
       325  27 -4.712245E+05  1.132969E+05  1.589374E+05 -3.888775E+05  7.380842E+04 -6.851735E+04
       326   1 -2.792123E+06 -7.287909E+05 -2.499858E+05 -1.032319E+06 -6.377714E+04  7.035277E+04
       326   2 -2.719807E+06 -6.833020E+05 -2.091440E+05 -1.004015E+06 -4.615136E+04  7.553634E+04
       326   3 -2.640294E+06 -6.574686E+05 -1.830578E+05 -9.882654E+05 -2.735848E+04  7.761871E+04
       326   4 -1.659350E+06 -3.129716E+05 -4.416213E+04 -7.111783E+05 -6.332847E+04  7.050369E+04
       326   5 -1.662776E+06 -2.989139E+05 -2.320319E+04 -7.066822E+05 -5.116337E+04  7.363264E+04
       326   6 -1.657918E+06 -3.034151E+05 -1.264106E+04 -7.147405E+05 -3.783465E+04  7.366231E+04
       326   7 -5.252195E+05  1.029782E+05  1.616162E+05 -3.894859E+05 -6.287891E+04  7.065498E+04
       326   8 -6.045639E+05  8.558412E+04  1.627013E+05 -4.088746E+05 -5.618447E+04  7.172551E+04
       326   9 -6.745254E+05  5.072789E+04  1.577447E+05 -4.408125E+05 -4.832844E+04  6.969936E+04
       326  10 -2.792129E+06 -7.287973E+05 -2.500027E+05 -1.032315E+06 -2.661656E-08 -1.060352E-08
       326  11 -2.719810E+06 -6.833087E+05 -2.091588E+05 -1.004012E+06 -6.340525E-09 -2.267977E-09
       326  12 -2.640296E+06 -6.574752E+05 -1.830705E+05 -9.882637E+05  2.250779E-08  9.293844E-09
       326  13 -1.659355E+06 -3.129780E+05 -4.417900E+04 -7.111747E+05 -1.474557E-09 -2.360176E-09
       326  14 -1.662780E+06 -2.989204E+05 -2.321829E+04 -7.066792E+05 -3.989106E-09 -4.622471E-09
       326  15 -1.657921E+06 -3.034213E+05 -1.265394E+04 -7.147382E+05 -2.261756E-09 -1.745286E-09
       326  16 -5.252251E+05  1.029718E+05  1.615994E+05 -3.894823E+05  2.114509E-08  9.198846E-09
       326  17 -6.045686E+05  8.557775E+04  1.626857E+05 -4.088713E+05 -4.132328E-09 -3.097045E-09
       326  18 -6.745292E+05  5.072206E+04  1.577312E+05 -4.408098E+05 -2.665124E-08 -1.193036E-08
       326  19 -2.792123E+06 -7.287909E+05 -2.499858E+05 -1.032319E+06  6.377714E+04 -7.035277E+04
       326  20 -2.719807E+06 -6.833020E+05 -2.091440E+05 -1.004015E+06  4.615136E+04 -7.553634E+04
       326  21 -2.640294E+06 -6.574686E+05 -1.830578E+05 -9.882654E+05  2.735848E+04 -7.761871E+04
       326  22 -1.659350E+06 -3.129716E+05 -4.416213E+04 -7.111783E+05  6.332847E+04 -7.050369E+04
       326  23 -1.662776E+06 -2.989139E+05 -2.320319E+04 -7.066822E+05  5.116337E+04 -7.363264E+04
       326  24 -1.657918E+06 -3.034151E+05 -1.264106E+04 -7.147405E+05  3.783465E+04 -7.366231E+04
       326  25 -5.252195E+05  1.029782E+05  1.616162E+05 -3.894859E+05  6.287891E+04 -7.065498E+04
       326  26 -6.045639E+05  8.558412E+04  1.627013E+05 -4.088746E+05  5.618447E+04 -7.172551E+04
       326  27 -6.745254E+05  5.072789E+04  1.577447E+05 -4.408125E+05  4.832844E+04 -6.969936E+04
       327   1 -2.588725E+06 -6.398698E+05 -1.705897E+05 -9.747190E+05 -2.459502E+04  7.464610E+04
       327   2 -2.516524E+06 -6.049904E+05 -1.524267E+05 -9.458860E+05 -1.924189E+04  6.992301E+04
       327   3 -2.432458E+06 -5.829177E+05 -1.366865E+05 -9.311486E+05 -1.377894E+04  6.489712E+04
       327   4 -1.657287E+06 -3.035235E+05 -9.492395E+03 -7.145460E+05 -3.476965E+04  7.080578E+04
       327   5 -1.663214E+06 -2.969767E+05 -5.211374E+03 -7.075597E+05 -2.994782E+04  6.588684E+04
       327   6 -1.657179E+06 -3.031304E+05 -2.930129E+03 -7.146704E+05 -2.501669E+04  6.066518E+04
       327   7 -7.249144E+05  3.291198E+04  1.515829E+05 -4.540036E+05 -4.496069E+04  6.695931E+04
       327   8 -8.091226E+05  1.111062E+04  1.419848E+05 -4.689244E+05 -4.066952E+04  6.184476E+04
       327   9 -8.812585E+05 -2.328380E+04  1.308096E+05 -4.979383E+05 -3.626944E+04  5.642762E+04
       327  10 -2.588727E+06 -6.398760E+05 -1.706013E+05 -9.747175E+05  1.071933E-09  1.107680E-09
       327  11 -2.516526E+06 -6.049958E+05 -1.524366E+05 -9.458849E+05  6.910942E-10  1.081429E-09
       327  12 -2.432459E+06 -5.829223E+05 -1.366948E+05 -9.311479E+05  5.565568E-10  4.778611E-10
       327  13 -1.657290E+06 -3.035292E+05 -9.504078E+03 -7.145440E+05  6.219048E-10 -1.339936E-09
       327  14 -1.663216E+06 -2.969816E+05 -5.221208E+03 -7.075581E+05  3.666404E-10  3.919274E-10
       327  15 -1.657180E+06 -3.031345E+05 -2.938214E+03 -7.146692E+05 -9.076353E-10  1.668825E-10
       327  16 -7.249178E+05  3.290663E+04  1.515707E+05 -4.540012E+05 -1.236921E-09 -2.433660E-09
       327  17 -8.091254E+05  1.110607E+04  1.419745E+05 -4.689224E+05 -1.563670E-09 -1.104280E-09
       327  18 -8.812608E+05 -2.328757E+04  1.308011E+05 -4.979366E+05 -1.101282E-09 -5.128587E-10
       327  19 -2.588725E+06 -6.398698E+05 -1.705897E+05 -9.747190E+05  2.459502E+04 -7.464610E+04
       327  20 -2.516524E+06 -6.049904E+05 -1.524267E+05 -9.458860E+05  1.924189E+04 -6.992301E+04
       327  21 -2.432458E+06 -5.829177E+05 -1.366865E+05 -9.311486E+05  1.377894E+04 -6.489712E+04
       327  22 -1.657287E+06 -3.035235E+05 -9.492395E+03 -7.145460E+05  3.476965E+04 -7.080578E+04
       327  23 -1.663214E+06 -2.969767E+05 -5.211374E+03 -7.075597E+05  2.994782E+04 -6.588684E+04
       327  24 -1.657179E+06 -3.031304E+05 -2.930129E+03 -7.146704E+05  2.501669E+04 -6.066518E+04
       327  25 -7.249144E+05  3.291198E+04  1.515829E+05 -4.540036E+05  4.496069E+04 -6.695931E+04
       327  26 -8.091226E+05  1.111062E+04  1.419848E+05 -4.689244E+05  4.066952E+04 -6.184476E+04
       327  27 -8.812585E+05 -2.328380E+04  1.308096E+05 -4.979383E+05  3.626944E+04 -5.642762E+04
       328   1 -2.381664E+06 -5.645943E+05 -1.268620E+05 -9.170511E+05 -1.195792E+04  6.134970E+04
       328   2 -2.309048E+06 -5.299184E+05 -1.125850E+05 -8.879193E+05 -8.785618E+03  5.526996E+04
       328   3 -2.224037E+06 -5.077121E+05 -9.887517E+04 -8.730289E+05 -5.600937E+03  4.914775E+04
       328   4 -1.657073E+06 -3.031473E+05 -2.254862E+03 -7.146685E+05 -2.319357E+04  5.712076E+04
       328   5 -1.663254E+06 -2.968896E+05 -1.411575E+03 -7.075509E+05 -2.009539E+04  5.101642E+04
       328   6 -1.657032E+06 -3.030872E+05 -1.077272E+03 -7.146767E+05 -1.698493E+04  4.486954E+04
       328   7 -9.319300E+05 -4.165114E+04  1.223358E+05 -5.120662E+05 -3.444310E+04  5.288663E+04
       328   8 -1.017016E+06 -6.381960E+04  1.097504E+05 -5.270062E+05 -3.141772E+04  4.675816E+04
       328   9 -1.089678E+06 -9.842826E+04  9.671355E+04 -5.561870E+05 -2.838013E+04  4.058714E+04
       328  10 -2.381665E+06 -5.645984E+05 -1.268694E+05 -9.170505E+05 -6.576758E-10  1.229259E-10
       328  11 -2.309049E+06 -5.299217E+05 -1.125908E+05 -8.879189E+05  5.618592E-10  7.569792E-10
       328  12 -2.224038E+06 -5.077147E+05 -9.887976E+04 -8.730287E+05  1.440564E-09  1.381375E-10
       328  13 -1.657075E+06 -3.031509E+05 -2.261998E+03 -7.146675E+05  1.052150E-10  2.624887E-10
       328  14 -1.663256E+06 -2.968925E+05 -1.417220E+03 -7.075501E+05 -4.438873E-10  7.517253E-10
       328  15 -1.657033E+06 -3.030894E+05 -1.081594E+03 -7.146761E+05  4.968886E-10  5.748239E-11
       328  16 -9.319320E+05 -4.165446E+04  1.223284E+05 -5.120647E+05  7.008265E-10  2.823198E-10
       328  17 -1.017018E+06 -6.382221E+04  1.097445E+05 -5.270050E+05 -4.209852E-10  3.049520E-10
       328  18 -1.089680E+06 -9.843024E+04  9.670894E+04 -5.561861E+05 -2.177536E-10 -6.550573E-11
       328  19 -2.381664E+06 -5.645943E+05 -1.268620E+05 -9.170511E+05  1.195792E+04 -6.134970E+04
       328  20 -2.309048E+06 -5.299184E+05 -1.125850E+05 -8.879193E+05  8.785618E+03 -5.526996E+04
       328  21 -2.224037E+06 -5.077121E+05 -9.887517E+04 -8.730289E+05  5.600937E+03 -4.914775E+04
       328  22 -1.657073E+06 -3.031473E+05 -2.254862E+03 -7.146685E+05  2.319357E+04 -5.712076E+04
       328  23 -1.663254E+06 -2.968896E+05 -1.411575E+03 -7.075509E+05  2.009539E+04 -5.101642E+04
       328  24 -1.657032E+06 -3.030872E+05 -1.077272E+03 -7.146767E+05  1.698493E+04 -4.486954E+04
       328  25 -9.319300E+05 -4.165114E+04  1.223358E+05 -5.120662E+05  3.444310E+04 -5.288663E+04
       328  26 -1.017016E+06 -6.381960E+04  1.097504E+05 -5.270062E+05  3.141772E+04 -4.675816E+04
       328  27 -1.089678E+06 -9.842826E+04  9.671355E+04 -5.561870E+05  2.838013E+04 -4.058714E+04
       329   1 -2.172980E+06 -4.892271E+05 -8.966847E+04 -8.588290E+05 -3.995874E+03  4.547309E+04
       329   2 -2.099879E+06 -4.543755E+05 -7.646543E+04 -8.295554E+05 -9.024081E+02  3.927821E+04
       329   3 -2.014322E+06 -4.320539E+05 -6.375714E+04 -8.146204E+05  2.191867E+03  3.307455E+04
       329   4 -1.657006E+06 -3.030869E+05 -1.062990E+03 -7.146986E+05 -1.539840E+04  4.118953E+04
       329   5 -1.663213E+06 -2.967791E+05 -1.321352E+03 -7.075397E+05 -1.232001E+04  3.499119E+04
       329   6 -1.656969E+06 -3.029983E+05 -2.063199E+03 -7.147210E+05 -9.240904E+03  2.878407E+04
       329   7 -1.140748E+06 -1.169204E+05  8.753547E+04 -5.704556E+05 -2.681103E+04  3.690217E+04
       329   8 -1.226346E+06 -1.391647E+05  7.381718E+04 -5.854439E+05 -2.374611E+04  3.070099E+04
       329   9 -1.299483E+06 -1.739314E+05  5.962655E+04 -6.147686E+05 -2.068057E+04  2.449099E+04
       329  10 -2.172981E+06 -4.892293E+05 -8.967239E+04 -8.588289E+05 -6.158755E-11 -7.126546E-10
       329  11 -2.099879E+06 -4.543771E+05 -7.646833E+04 -8.295554E+05  1.526168E-10 -3.280754E-10
       329  12 -2.014322E+06 -4.320551E+05 -6.375921E+04 -8.146205E+05 -8.817124E-10 -8.698615E-11
       329  13 -1.657007E+06 -3.030888E+05 -1.066620E+03 -7.146981E+05 -3.448341E-10 -2.861284E-10
       329  14 -1.663213E+06 -2.967805E+05 -1.323936E+03 -7.075393E+05  1.910069E-10 -3.371051E-10
       329  15 -1.656969E+06 -3.029992E+05 -2.064915E+03 -7.147208E+05 -1.246189E-10 -4.395856E-11
       329  16 -1.140749E+06 -1.169221E+05  8.753157E+04 -5.704548E+05  1.349045E-10  9.971033E-11
       329  17 -1.226347E+06 -1.391659E+05  7.381435E+04 -5.854433E+05  3.445779E-10 -4.998360E-10
       329  18 -1.299484E+06 -1.739322E+05  5.962462E+04 -6.147682E+05  2.677102E-10 -1.681387E-10
       329  19 -2.172980E+06 -4.892271E+05 -8.966847E+04 -8.588290E+05  3.995874E+03 -4.547309E+04
       329  20 -2.099879E+06 -4.543755E+05 -7.646543E+04 -8.295554E+05  9.024081E+02 -3.927821E+04
       329  21 -2.014322E+06 -4.320539E+05 -6.375714E+04 -8.146204E+05 -2.191867E+03 -3.307455E+04
       329  22 -1.657006E+06 -3.030869E+05 -1.062990E+03 -7.146986E+05  1.539840E+04 -4.118953E+04
       329  23 -1.663213E+06 -2.967791E+05 -1.321352E+03 -7.075397E+05  1.232001E+04 -3.499119E+04
       329  24 -1.656969E+06 -3.029983E+05 -2.063199E+03 -7.147210E+05  9.240904E+03 -2.878407E+04
       329  25 -1.140748E+06 -1.169204E+05  8.753547E+04 -5.704556E+05  2.681103E+04 -3.690217E+04
       329  26 -1.226346E+06 -1.391647E+05  7.381718E+04 -5.854439E+05  2.374611E+04 -3.070099E+04
       329  27 -1.299483E+06 -1.739314E+05  5.962655E+04 -6.147686E+05  2.068057E+04 -2.449099E+04
       330   1 -1.963011E+06 -4.135155E+05 -5.512144E+04 -8.004332E+05  4.014673E+03  2.946345E+04
       330   2 -1.889455E+06 -3.785477E+05 -4.362029E+04 -7.710233E+05  8.685627E+03  2.386743E+04
       330   3 -1.803732E+06 -3.564604E+05 -3.387329E+04 -7.560141E+05  1.333497E+04  1.832649E+04
       330   4 -1.657020E+06 -3.029856E+05 -2.670952E+03 -7.147689E+05 -7.437318E+03  2.516675E+04
       330   5 -1.663099E+06 -2.966426E+05 -4.715583E+03 -7.075244E+05 -2.668734E+03  1.960846E+04
       330   6 -1.657039E+06 -3.032008E+05 -8.592998E+03 -7.146835E+05  2.077928E+03  1.410514E+04
       330   7 -1.350925E+06 -1.924451E+05  4.977838E+04 -6.290640E+05 -1.889545E+04  2.086774E+04
       330   8 -1.436686E+06 -2.147319E+05  3.418858E+04 -6.440033E+05 -1.402757E+04  1.534780E+04
       330   9 -1.510322E+06 -2.499389E+05  1.668724E+04 -6.733436E+05 -9.181953E+03  9.882704E+03
       330  10 -1.963011E+06 -4.135164E+05 -5.512310E+04 -8.004333E+05  7.286435E-10  4.492242E-10
       330  11 -1.889455E+06 -3.785483E+05 -4.362151E+04 -7.710235E+05 -6.784604E-11 -3.577517E-10
       330  12 -1.803732E+06 -3.564608E+05 -3.387426E+04 -7.560143E+05  1.343804E-09 -4.706739E-10
       330  13 -1.657020E+06 -3.029863E+05 -2.672245E+03 -7.147687E+05 -2.940998E-10  9.805486E-11
       330  14 -1.663099E+06 -2.966430E+05 -4.716318E+03 -7.075244E+05 -1.709426E-09 -6.915496E-10
       330  15 -1.657039E+06 -3.032010E+05 -8.593381E+03 -7.146835E+05 -3.032084E-10 -9.985779E-10
       330  16 -1.350926E+06 -1.924456E+05  4.977689E+04 -6.290636E+05 -1.023859E-09 -4.750955E-10
       330  17 -1.436686E+06 -2.147322E+05  3.418777E+04 -6.440032E+05 -1.913817E-10 -4.768172E-10
       330  18 -1.510322E+06 -2.499390E+05  1.668690E+04 -6.733435E+05 -1.275573E-09 -1.231979E-09
       330  19 -1.963011E+06 -4.135155E+05 -5.512144E+04 -8.004332E+05 -4.014673E+03 -2.946345E+04
       330  20 -1.889455E+06 -3.785477E+05 -4.362029E+04 -7.710233E+05 -8.685627E+03 -2.386743E+04
       330  21 -1.803732E+06 -3.564604E+05 -3.387329E+04 -7.560141E+05 -1.333497E+04 -1.832649E+04
       330  22 -1.657020E+06 -3.029856E+05 -2.670952E+03 -7.147689E+05  7.437318E+03 -2.516675E+04
       330  23 -1.663099E+06 -2.966426E+05 -4.715583E+03 -7.075244E+05  2.668734E+03 -1.960846E+04
       330  24 -1.657039E+06 -3.032008E+05 -8.592998E+03 -7.146835E+05 -2.077928E+03 -1.410514E+04
       330  25 -1.350925E+06 -1.924451E+05  4.977838E+04 -6.290640E+05  1.889545E+04 -2.086774E+04
       330  26 -1.436686E+06 -2.147319E+05  3.418858E+04 -6.440033E+05  1.402757E+04 -1.534780E+04
       330  27 -1.510322E+06 -2.499389E+05  1.668724E+04 -6.733436E+05  9.181953E+03 -9.882704E+03
       331   1 -1.752175E+06 -3.383441E+05 -2.740934E+04 -7.426095E+05  1.639228E+04  1.520764E+04
       331   2 -1.679488E+06 -3.027647E+05 -2.290485E+04 -7.100403E+05  2.804186E+04  1.265906E+04
       331   3 -1.597568E+06 -2.854158E+05 -2.689880E+04 -6.907821E+05  3.943912E+04  1.078568E+04
       331   4 -1.657552E+06 -3.031281E+05 -1.144711E+04 -7.149316E+05  5.056104E+03  1.095702E+04
       331   5 -1.662655E+06 -2.981627E+05 -2.099013E+04 -7.066771E+05  1.790006E+04  8.856256E+03
       331   6 -1.658769E+06 -3.116664E+05 -3.998105E+04 -7.117369E+05  3.049058E+04  7.430140E+03
       331   7 -1.562920E+06 -2.679113E+05  4.515163E+03 -6.872499E+05 -6.281797E+03  6.705697E+03
       331   8 -1.645821E+06 -2.935607E+05 -1.907495E+04 -7.033139E+05  7.757965E+03  5.053397E+03
       331   9 -1.719966E+06 -3.379163E+05 -5.306333E+04 -7.326898E+05  2.154291E+04  4.075059E+03
       331  10 -1.752175E+06 -3.383444E+05 -2.741028E+04 -7.426097E+05  1.368435E-10 -6.382550E-10
       331  11 -1.679489E+06 -3.027651E+05 -2.290664E+04 -7.100405E+05 -3.683642E-10 -1.413787E-11
       331  12 -1.597570E+06 -2.854164E+05 -2.690195E+04 -6.907824E+05  3.010731E-10  1.940542E-10
       331  13 -1.657552E+06 -3.031283E+05 -1.144739E+04 -7.149316E+05  5.313051E-10 -5.629182E-10
       331  14 -1.662655E+06 -2.981629E+05 -2.099088E+04 -7.066773E+05 -8.583748E-10 -1.568904E-10
       331  15 -1.658770E+06 -3.116667E+05 -3.998290E+04 -7.117371E+05  5.754292E-10 -1.606479E-10
       331  16 -1.562920E+06 -2.679114E+05  4.515005E+03 -6.872499E+05  9.249617E-10 -2.921997E-10
       331  17 -1.645821E+06 -2.935607E+05 -1.907512E+04 -7.033139E+05 -6.973685E-10 -5.099812E-10
       331  18 -1.719966E+06 -3.379165E+05 -5.306424E+04 -7.326899E+05 -7.525845E-10 -1.070146E-09
       331  19 -1.752175E+06 -3.383441E+05 -2.740934E+04 -7.426095E+05 -1.639228E+04 -1.520764E+04
       331  20 -1.679488E+06 -3.027647E+05 -2.290485E+04 -7.100403E+05 -2.804186E+04 -1.265906E+04
       331  21 -1.597568E+06 -2.854158E+05 -2.689880E+04 -6.907821E+05 -3.943912E+04 -1.078568E+04
       331  22 -1.657552E+06 -3.031281E+05 -1.144711E+04 -7.149316E+05 -5.056104E+03 -1.095702E+04
       331  23 -1.662655E+06 -2.981627E+05 -2.099013E+04 -7.066771E+05 -1.790006E+04 -8.856256E+03
       331  24 -1.658769E+06 -3.116664E+05 -3.998105E+04 -7.117369E+05 -3.049058E+04 -7.430140E+03
       331  25 -1.562920E+06 -2.679113E+05  4.515163E+03 -6.872499E+05  6.281797E+03 -6.705697E+03
       331  26 -1.645821E+06 -2.935607E+05 -1.907495E+04 -7.033139E+05 -7.757965E+03 -5.053397E+03
       331  27 -1.719966E+06 -3.379163E+05 -5.306333E+04 -7.326898E+05 -2.154291E+04 -4.075059E+03
       332   1 -1.543176E+06 -2.748364E+05 -3.023275E+04 -6.891532E+05  4.750598E+04  9.979049E+03
       332   2 -1.503936E+06 -2.275888E+05 -5.913232E+04 -5.913503E+05  8.783679E+04  2.306795E+04
       332   3 -1.494979E+06 -2.919438E+05 -1.447317E+05 -4.825657E+05  1.253850E+05  4.359323E+04
       332   4 -1.665013E+06 -3.112089E+05 -5.324067E+04 -7.144906E+05  3.774524E+04  6.319784E+03
       332   5 -1.660359E+06 -3.374171E+05 -1.015121E+05 -6.887623E+05  9.122070E+04  2.432761E+04
       332   6 -1.688630E+06 -4.778795E+05 -2.169334E+05 -6.520587E+05  1.419087E+05  4.976140E+04
       332   7 -1.786835E+06 -3.475813E+05 -7.624897E+04 -7.398240E+05  2.798651E+04  2.660949E+03
       332   8 -1.816746E+06 -4.472150E+05 -1.438913E+05 -7.861435E+05  9.460363E+04  2.558618E+04
       332   9 -1.882203E+06 -6.637063E+05 -2.891290E+05 -8.214763E+05  1.584263E+05  5.591961E+04
       332  10 -1.543178E+06 -2.748371E+05 -3.023719E+04 -6.891536E+05  1.374360E-10 -1.199124E-10
       332  11 -1.503945E+06 -2.275915E+05 -5.914786E+04 -5.913519E+05  8.303132E-10  1.041518E-10
       332  12 -1.494996E+06 -2.919500E+05 -1.447649E+05 -4.825702E+05  3.712047E-10  7.259589E-11
       332  13 -1.665014E+06 -3.112093E+05 -5.324343E+04 -7.144908E+05  8.703073E-10 -1.083010E-10
       332  14 -1.660368E+06 -3.374200E+05 -1.015289E+05 -6.887641E+05  7.643865E-11 -1.734079E-10
       332  15 -1.688652E+06 -4.778876E+05 -2.169761E+05 -6.520644E+05 -7.875018E-11 -7.544214E-12
       332  16 -1.786836E+06 -3.475815E+05 -7.625046E+04 -7.398241E+05  7.351954E-10 -2.473583E-10
       332  17 -1.816756E+06 -4.472181E+05 -1.439094E+05 -7.861454E+05 -2.661244E-10 -3.424106E-11
       332  18 -1.882231E+06 -6.637165E+05 -2.891822E+05 -8.214834E+05 -7.994270E-10 -1.256323E-10
       332  19 -1.543176E+06 -2.748364E+05 -3.023275E+04 -6.891532E+05 -4.750598E+04 -9.979049E+03
       332  20 -1.503936E+06 -2.275888E+05 -5.913232E+04 -5.913503E+05 -8.783679E+04 -2.306795E+04
       332  21 -1.494979E+06 -2.919438E+05 -1.447317E+05 -4.825657E+05 -1.253850E+05 -4.359323E+04
       332  22 -1.665013E+06 -3.112089E+05 -5.324067E+04 -7.144906E+05 -3.774524E+04 -6.319784E+03
       332  23 -1.660359E+06 -3.374171E+05 -1.015121E+05 -6.887623E+05 -9.122070E+04 -2.432761E+04
       332  24 -1.688630E+06 -4.778795E+05 -2.169334E+05 -6.520587E+05 -1.419087E+05 -4.976140E+04
       332  25 -1.786835E+06 -3.475813E+05 -7.624897E+04 -7.398240E+05 -2.798651E+04 -2.660949E+03
       332  26 -1.816746E+06 -4.472150E+05 -1.438913E+05 -7.861435E+05 -9.460363E+04 -2.558618E+04
       332  27 -1.882203E+06 -6.637063E+05 -2.891290E+05 -8.214763E+05 -1.584263E+05 -5.591961E+04
       333   1  8.316648E+05  1.486370E+05  2.119327E+05  5.922635E+04  1.994345E+05  3.752066E+03
       333   2  8.213398E+05 -1.142354E+05  5.355551E+04  1.774054E+04  1.326372E+05  1.057014E+04
       333   3  8.928622E+05 -8.514037E+04  1.167297E+04 -4.643988E+04  6.584223E+04  9.541885E+03
       333   4  1.186960E+06  2.369027E+05  2.994596E+05 -1.512344E+04  2.049823E+05  3.734313E+03
       333   5  1.145784E+06 -3.394773E+04  1.311396E+05 -3.642412E+03  1.341846E+05  1.056664E+04
       333   6  1.187096E+06 -1.223049E+04  8.204091E+04 -1.485552E+04  6.339302E+04  9.543075E+03
       333   7  1.542381E+06  3.251799E+05  3.869803E+05 -8.951581E+04  2.105333E+05  3.715244E+03
       333   8  1.470326E+06  4.633409E+04  2.087165E+05 -2.503659E+04  1.357329E+05  1.056304E+04
       333   9  1.481412E+06  6.067687E+04  1.524033E+05  1.674383E+04  6.094265E+04  9.544016E+03
       333  10  8.316221E+05  1.486263E+05  2.118581E+05  5.922575E+04  1.144957E-09 -1.411406E-09
       333  11  8.213209E+05 -1.142403E+05  5.352229E+04  1.773941E+04 -1.457589E-10 -3.633625E-10
       333  12  8.928575E+05 -8.514163E+04  1.166466E+04 -4.644038E+04 -1.484568E-09 -9.231032E-10
       333  13  1.186915E+06  2.368914E+05  2.993808E+05 -1.512406E+04  1.548311E-09  5.769833E-10
       333  14  1.145765E+06 -3.395267E+04  1.311056E+05 -3.643553E+03  1.491638E-09 -5.638080E-10
       333  15  1.187092E+06 -1.223166E+04  8.203320E+04 -1.485601E+04 -8.085357E-10 -1.035779E-09
       333  16  1.542334E+06  3.251680E+05  3.868972E+05 -8.951644E+04 -1.229523E-09  5.600913E-10
       333  17  1.470306E+06  4.632904E+04  2.086818E+05 -2.503775E+04  7.811561E-10 -2.170243E-10
       333  18  1.481408E+06  6.067577E+04  1.523962E+05  1.674336E+04  2.587278E-09  1.558506E-09
       333  19  8.316648E+05  1.486370E+05  2.119327E+05  5.922635E+04 -1.994345E+05 -3.752066E+03
       333  20  8.213398E+05 -1.142354E+05  5.355551E+04  1.774054E+04 -1.326372E+05 -1.057014E+04
       333  21  8.928622E+05 -8.514037E+04  1.167297E+04 -4.643988E+04 -6.584223E+04 -9.541885E+03
       333  22  1.186960E+06  2.369027E+05  2.994596E+05 -1.512344E+04 -2.049823E+05 -3.734313E+03
       333  23  1.145784E+06 -3.394773E+04  1.311396E+05 -3.642412E+03 -1.341846E+05 -1.056664E+04
       333  24  1.187096E+06 -1.223049E+04  8.204091E+04 -1.485552E+04 -6.339302E+04 -9.543075E+03
       333  25  1.542381E+06  3.251799E+05  3.869803E+05 -8.951581E+04 -2.105333E+05 -3.715244E+03
       333  26  1.470326E+06  4.633409E+04  2.087165E+05 -2.503659E+04 -1.357329E+05 -1.056304E+04
       333  27  1.481412E+06  6.067687E+04  1.524033E+05  1.674383E+04 -6.094265E+04 -9.544016E+03
       334   1  9.165206E+05 -3.816574E+04  5.918037E+03 -7.775268E+03  5.077634E+04  7.713980E+03
       334   2  9.404973E+05 -5.952814E+04 -1.991368E+04 -2.209842E+03  3.360802E+04  7.119025E+03
       334   3  9.745246E+05 -4.996196E+04 -2.682791E+04 -1.826962E+04  1.643899E+04  5.956732E+03
       334   4  1.170983E+06  2.486068E+04  6.693650E+04 -1.470798E+04  5.063891E+04  7.713107E+03
       334   5  1.165947E+06 -3.699214E+03  3.405205E+04 -3.887777E+03  3.317770E+04  7.118531E+03
       334   6  1.171007E+06 -1.286371E+03  2.028246E+04 -1.469202E+04  1.571657E+04  5.956423E+03
       334   7  1.425504E+06  8.788259E+04  1.279504E+05 -2.164356E+04  5.050143E+04  7.712236E+03
       334   8  1.391443E+06  5.212604E+04  8.801419E+04 -5.566329E+03  3.274722E+04  7.118040E+03
       334   9  1.367525E+06  4.738646E+04  6.739010E+04 -1.111329E+04  1.499393E+04  5.956105E+03
       334  10  9.165178E+05 -3.816650E+04  5.913087E+03 -7.775584E+03  1.615684E-10 -4.253704E-10
       334  11  9.404961E+05 -5.952850E+04 -1.991590E+04 -2.210035E+03  2.183288E-09  5.083419E-10
       334  12  9.745243E+05 -4.996207E+04 -2.682848E+04 -1.826970E+04  4.426603E-10 -1.343424E-10
       334  13  1.170980E+06  2.485993E+04  6.693158E+04 -1.470830E+04  1.352656E-09  1.196206E-09
       334  14  1.165946E+06 -3.699564E+03  3.404989E+04 -3.887967E+03  2.105417E-10  6.568958E-10
       334  15  1.171007E+06 -1.286475E+03  2.028193E+04 -1.469210E+04 -1.072705E-09 -5.749672E-10
       334  16  1.425502E+06  8.788184E+04  1.279455E+05 -2.164387E+04  4.354938E-10  9.236766E-10
       334  17  1.391442E+06  5.212570E+04  8.801209E+04 -5.566516E+03 -6.341588E-10  1.170242E-10
       334  18  1.367525E+06  4.738637E+04  6.738961E+04 -1.111336E+04  1.557878E-11 -2.837007E-10
       334  19  9.165206E+05 -3.816574E+04  5.918037E+03 -7.775268E+03 -5.077634E+04 -7.713980E+03
       334  20  9.404973E+05 -5.952814E+04 -1.991368E+04 -2.209842E+03 -3.360802E+04 -7.119025E+03
       334  21  9.745246E+05 -4.996196E+04 -2.682791E+04 -1.826962E+04 -1.643899E+04 -5.956732E+03
       334  22  1.170983E+06  2.486068E+04  6.693650E+04 -1.470798E+04 -5.063891E+04 -7.713107E+03
       334  23  1.165947E+06 -3.699214E+03  3.405205E+04 -3.887777E+03 -3.317770E+04 -7.118531E+03
       334  24  1.171007E+06 -1.286371E+03  2.028246E+04 -1.469202E+04 -1.571657E+04 -5.956423E+03
       334  25  1.425504E+06  8.788259E+04  1.279504E+05 -2.164356E+04 -5.050143E+04 -7.712236E+03
       334  26  1.391443E+06  5.212604E+04  8.801419E+04 -5.566329E+03 -3.274722E+04 -7.118040E+03
       334  27  1.367525E+06  4.738646E+04  6.739010E+04 -1.111329E+04 -1.499393E+04 -5.956105E+03
       335   1  1.010894E+06 -3.660408E+04 -2.191125E+04 -1.405736E+04  1.306251E+04  5.197245E+03
       335   2  1.038288E+06 -3.263061E+04 -2.244288E+04 -4.036475E+03  8.715896E+03  4.090397E+03
       335   3  1.067093E+06 -2.540627E+04 -1.932837E+04 -1.497788E+04  4.368869E+03  2.950827E+03
       335   4  1.169079E+06  2.553274E+03  1.588302E+04 -1.455008E+04  1.251497E+04  5.196968E+03
       335   5  1.168375E+06 -4.168494E+02  8.697619E+03 -4.068685E+03  8.150815E+03  4.090196E+03
       335   6  1.169084E+06 -1.333991E+02  5.169890E+03 -1.454929E+04  3.786442E+03  2.950700E+03
       335   7  1.327286E+06  4.170882E+04  5.367554E+04 -1.504293E+04  1.196729E+04  5.196693E+03
       335   8  1.298477E+06  3.179569E+04  3.983692E+04 -4.100903E+03  7.585617E+03  4.089994E+03
       335   9  1.271085E+06  2.513872E+04  2.966742E+04 -1.412063E+04  3.203921E+03  2.950572E+03
       335  10  1.010894E+06 -3.660416E+04 -2.191162E+04 -1.405742E+04 -5.879267E-10 -1.897328E-10
       335  11  1.038288E+06 -3.263065E+04 -2.244305E+04 -4.036503E+03 -1.718531E-09 -3.675019E-10
       335  12  1.067093E+06 -2.540628E+04 -1.932842E+04 -1.497789E+04  5.701468E-10 -1.302758E-10
       335  13  1.169078E+06  2.553203E+03  1.588268E+04 -1.455014E+04 -8.537836E-10 -3.160934E-10
       335  14  1.168375E+06 -4.168851E+02  8.697463E+03 -4.068712E+03 -1.151900E-09  1.043500E-10
       335  15  1.169084E+06 -1.334123E+02  5.169847E+03 -1.454930E+04 -1.149573E-09 -3.936714E-10
       335  16  1.327286E+06  4.170876E+04  5.367522E+04 -1.504298E+04  1.182089E-10 -4.504824E-11
       335  17  1.298477E+06  3.179566E+04  3.983678E+04 -4.100928E+03  1.250576E-09 -2.106051E-10
       335  18  1.271085E+06  2.513870E+04  2.966738E+04 -1.412064E+04  1.126014E-10  1.442594E-10
       335  19  1.010894E+06 -3.660408E+04 -2.191125E+04 -1.405736E+04 -1.306251E+04 -5.197245E+03
       335  20  1.038288E+06 -3.263061E+04 -2.244288E+04 -4.036475E+03 -8.715896E+03 -4.090397E+03
       335  21  1.067093E+06 -2.540627E+04 -1.932837E+04 -1.497788E+04 -4.368869E+03 -2.950827E+03
       335  22  1.169079E+06  2.553274E+03  1.588302E+04 -1.455008E+04 -1.251497E+04 -5.196968E+03
       335  23  1.168375E+06 -4.168494E+02  8.697619E+03 -4.068685E+03 -8.150815E+03 -4.090196E+03
       335  24  1.169084E+06 -1.333991E+02  5.169890E+03 -1.454929E+04 -3.786442E+03 -2.950700E+03
       335  25  1.327286E+06  4.170882E+04  5.367554E+04 -1.504293E+04 -1.196729E+04 -5.196693E+03
       335  26  1.298477E+06  3.179569E+04  3.983692E+04 -4.100903E+03 -7.585617E+03 -4.089994E+03
       335  27  1.271085E+06  2.513872E+04  2.966742E+04 -1.412063E+04 -3.203921E+03 -2.950572E+03
       336   1  1.104268E+06 -1.572321E+04 -1.131782E+04 -1.448100E+04  3.526034E+03  2.285410E+03
       336   2  1.131821E+06 -9.185613E+03 -6.318614E+03 -4.177461E+03  2.279170E+03  1.158936E+03
       336   3  1.159633E+06 -2.295132E+03 -4.186139E+02 -1.452818E+04  1.032146E+03  3.251808E+01
       336   4  1.168829E+06  2.466904E+02  4.052259E+03 -1.448115E+04  2.957777E+03  2.285315E+03
       336   5  1.168700E+06 -5.353327E+01  2.509301E+03 -4.154044E+03  1.710810E+03  1.158860E+03
       336   6  1.168830E+06 -9.447503E-01  1.867051E+03 -1.448112E+04  4.637377E+02  3.246389E+01
       336   7  1.233394E+06  1.621630E+04  1.942205E+04 -1.448129E+04  2.389462E+03  2.285220E+03
       336   8  1.205581E+06  9.078448E+03  1.133712E+04 -4.130624E+03  1.142417E+03  1.158784E+03
       336   9  1.178027E+06  2.293236E+03  4.152710E+03 -1.443406E+04 -1.046794E+02  3.240961E+01
       336  10  1.104268E+06 -1.572322E+04 -1.131786E+04 -1.448101E+04  5.095486E-10 -3.608091E-10
       336  11  1.131821E+06 -9.185616E+03 -6.318626E+03 -4.177463E+03  1.000909E-09 -1.093635E-10
       336  12  1.159633E+06 -2.295132E+03 -4.186159E+02 -1.452818E+04  7.323023E-11  3.043085E-10
       336  13  1.168829E+06  2.466824E+02  4.052233E+03 -1.448115E+04 -4.477947E-10 -1.714754E-10
       336  14  1.168700E+06 -5.353550E+01  2.509293E+03 -4.154045E+03  2.882497E-10 -2.755575E-10
       336  15  1.168830E+06 -9.448090E-01  1.867050E+03 -1.448112E+04  7.020356E-10  4.353566E-10
       336  16  1.233394E+06  1.621629E+04  1.942203E+04 -1.448130E+04  4.265119E-11 -2.095418E-10
       336  17  1.205581E+06  9.078447E+03  1.133712E+04 -4.130626E+03  3.001526E-10 -2.636681E-10
       336  18  1.178027E+06  2.293236E+03  4.152710E+03 -1.443406E+04  1.447151E-09  3.590417E-10
       336  19  1.104268E+06 -1.572321E+04 -1.131782E+04 -1.448100E+04 -3.526034E+03 -2.285410E+03
       336  20  1.131821E+06 -9.185613E+03 -6.318614E+03 -4.177461E+03 -2.279170E+03 -1.158936E+03
       336  21  1.159633E+06 -2.295132E+03 -4.186139E+02 -1.452818E+04 -1.032146E+03 -3.251808E+01
       336  22  1.168829E+06  2.466904E+02  4.052259E+03 -1.448115E+04 -2.957777E+03 -2.285315E+03
       336  23  1.168700E+06 -5.353327E+01  2.509301E+03 -4.154044E+03 -1.710810E+03 -1.158860E+03
       336  24  1.168830E+06 -9.447503E-01  1.867051E+03 -1.448112E+04 -4.637377E+02 -3.246389E+01
       336  25  1.233394E+06  1.621630E+04  1.942205E+04 -1.448129E+04 -2.389462E+03 -2.285220E+03
       336  26  1.205581E+06  9.078448E+03  1.133712E+04 -4.130624E+03 -1.142417E+03 -1.158784E+03
       336  27  1.178027E+06  2.293236E+03  4.152710E+03 -1.443406E+04  1.046794E+02 -3.240961E+01
       337   1  1.196806E+06  6.958208E+03  8.548854E+03 -1.446403E+04  7.040746E+02 -6.230166E+02
       337   2  1.224437E+06  1.375700E+04  1.529069E+04 -4.131360E+03 -2.656144E+02 -1.750477E+03
       337   3  1.252268E+06  2.080326E+04  2.272704E+04 -1.448746E+04 -1.235213E+03 -2.879421E+03
       337   4  1.168817E+06  1.105779E+01  1.765273E+03 -1.448883E+04  1.354282E+02 -6.230745E+02
       337   5  1.168717E+06 -3.958828E+01  1.953602E+03 -4.144408E+03 -8.349538E+02 -1.750568E+03
       337   6  1.168816E+06  1.574225E+02  2.837023E+03 -1.448886E+04 -1.805202E+03 -2.879541E+03
       337   7  1.140829E+06 -6.936150E+03 -5.018363E+03 -1.451364E+04 -4.331927E+02 -6.231324E+02
       337   8  1.113000E+06 -1.383640E+04 -1.138370E+04 -4.157454E+03 -1.404242E+03 -1.750658E+03
       337   9  1.085371E+06 -2.048892E+04 -1.705348E+04 -1.449026E+04 -2.375116E+03 -2.879661E+03
       337  10  1.196806E+06  6.958208E+03  8.548852E+03 -1.446403E+04  7.737727E-10  3.682831E-10
       337  11  1.224437E+06  1.375700E+04  1.529068E+04 -4.131361E+03  6.011370E-10  1.397827E-10
       337  12  1.252268E+06  2.080325E+04  2.272702E+04 -1.448746E+04  8.255726E-11 -2.994291E-10
       337  13  1.168817E+06  1.105737E+01  1.765272E+03 -1.448883E+04  2.040999E-09  6.354467E-10
       337  14  1.168717E+06 -3.959176E+01  1.953595E+03 -4.144409E+03  1.339541E-09  2.569412E-10
       337  15  1.168816E+06  1.574128E+02  2.837002E+03 -1.448886E+04 -1.579551E-09 -2.153949E-11
       337  16  1.140829E+06 -6.936150E+03 -5.018365E+03 -1.451364E+04  1.053962E-09  4.671749E-10
       337  17  1.113000E+06 -1.383641E+04 -1.138371E+04 -4.157456E+03  2.507961E-10 -6.736996E-11
       337  18  1.085371E+06 -2.048893E+04 -1.705351E+04 -1.449027E+04 -8.473695E-10  1.876591E-10
       337  19  1.196806E+06  6.958208E+03  8.548854E+03 -1.446403E+04 -7.040746E+02  6.230166E+02
       337  20  1.224437E+06  1.375700E+04  1.529069E+04 -4.131360E+03  2.656144E+02  1.750477E+03
       337  21  1.252268E+06  2.080326E+04  2.272704E+04 -1.448746E+04  1.235213E+03  2.879421E+03
       337  22  1.168817E+06  1.105779E+01  1.765273E+03 -1.448883E+04 -1.354282E+02  6.230745E+02
       337  23  1.168717E+06 -3.958828E+01  1.953602E+03 -4.144408E+03  8.349538E+02  1.750568E+03
       337  24  1.168816E+06  1.574225E+02  2.837023E+03 -1.448886E+04  1.805202E+03  2.879541E+03
       337  25  1.140829E+06 -6.936150E+03 -5.018363E+03 -1.451364E+04  4.331927E+02  6.231324E+02
       337  26  1.113000E+06 -1.383640E+04 -1.138370E+04 -4.157454E+03  1.404242E+03  1.750658E+03
       337  27  1.085371E+06 -2.048892E+04 -1.705348E+04 -1.449026E+04  2.375116E+03  2.879661E+03
       338   1  1.289997E+06  2.988980E+04  3.257795E+04 -1.428534E+04 -1.792189E+03 -3.547295E+03
       338   2  1.317761E+06  3.667734E+04  4.151110E+04 -4.043529E+03 -4.713349E+03 -4.691241E+03
       338   3  1.346481E+06  4.560029E+04  5.288535E+04 -1.487242E+04 -7.634256E+03 -5.801498E+03
       338   4  1.168981E+06 -9.002022E+01  3.529364E+03 -1.457358E+04 -2.377482E+03 -3.547457E+03
       338   5  1.168503E+06 -2.776795E+02  5.787256E+03 -4.038380E+03 -5.281018E+03 -4.691485E+03
       338   6  1.168977E+06  1.667522E+03  1.047465E+04 -1.457419E+04 -8.184172E+03 -5.801820E+03
       338   7  1.047979E+06 -3.007090E+04 -2.552026E+04 -1.486176E+04 -2.962661E+03 -3.547618E+03
       338   8  1.019265E+06 -3.723431E+04 -2.993816E+04 -4.033234E+03 -5.848552E+03 -4.691730E+03
       338   9  9.915019E+05 -4.226752E+04 -3.193826E+04 -1.427604E+04 -8.733932E+03 -5.802143E+03
       338  10  1.289997E+06  2.988979E+04  3.257792E+04 -1.428534E+04  9.307349E-11  2.064819E-10
       338  11  1.317761E+06  3.667731E+04  4.151102E+04 -4.043547E+03 -2.079370E-09 -2.785799E-10
       338  12  1.346481E+06  4.560024E+04  5.288517E+04 -1.487246E+04 -4.486873E-10  1.398824E-10
       338  13  1.168981E+06 -9.003526E+01  3.529330E+03 -1.457358E+04  9.038643E-11  3.676318E-10
       338  14  1.168503E+06 -2.777106E+02  5.787163E+03 -4.038400E+03  5.694628E-10 -4.333529E-11
       338  15  1.168977E+06  1.667468E+03  1.047446E+04 -1.457423E+04 -1.984707E-09 -3.714051E-10
       338  16  1.047979E+06 -3.007092E+04 -2.552030E+04 -1.486177E+04 -2.831706E-10  1.699344E-10
       338  17  1.019265E+06 -3.723434E+04 -2.993826E+04 -4.033256E+03 -8.295757E-10 -1.037524E-10
       338  18  9.915018E+05 -4.226758E+04 -3.193847E+04 -1.427608E+04  9.155824E-11  1.262037E-10
       338  19  1.289997E+06  2.988980E+04  3.257795E+04 -1.428534E+04  1.792189E+03  3.547295E+03
       338  20  1.317761E+06  3.667734E+04  4.151110E+04 -4.043529E+03  4.713349E+03  4.691241E+03
       338  21  1.346481E+06  4.560029E+04  5.288535E+04 -1.487242E+04  7.634256E+03  5.801498E+03
       338  22  1.168981E+06 -9.002022E+01  3.529364E+03 -1.457358E+04  2.377482E+03  3.547457E+03
       338  23  1.168503E+06 -2.776795E+02  5.787256E+03 -4.038380E+03  5.281018E+03  4.691485E+03
       338  24  1.168977E+06  1.667522E+03  1.047465E+04 -1.457419E+04  8.184172E+03  5.801820E+03
       338  25  1.047979E+06 -3.007090E+04 -2.552026E+04 -1.486176E+04  2.962661E+03  3.547618E+03
       338  26  1.019265E+06 -3.723431E+04 -2.993816E+04 -4.033234E+03  5.848552E+03  4.691730E+03
       338  27  9.915019E+05 -4.226752E+04 -3.193826E+04 -1.427604E+04  8.733932E+03  5.802143E+03
       339   1  1.386319E+06  5.266012E+04  6.514161E+04 -1.234669E+04 -9.558689E+03 -6.569594E+03
       339   2  1.412189E+06  5.828780E+04  8.107759E+04 -4.889368E+03 -2.134139E+04 -7.736528E+03
       339   3  1.444784E+06  8.429700E+04  1.097883E+05 -1.922601E+04 -3.312478E+04 -8.302947E+03
       339   4  1.170246E+06 -8.527330E+02  1.335461E+04 -1.473098E+04 -1.029403E+04 -6.570038E+03
       339   5  1.166901E+06 -2.437373E+03  2.237925E+04 -3.839765E+03 -2.176955E+04 -7.737028E+03
       339   6  1.170229E+06  1.631077E+04  4.396934E+04 -1.474285E+04 -3.324520E+04 -8.303524E+03
       339   7  9.542160E+05 -5.436895E+04 -3.843568E+04 -1.711444E+04 -1.102911E+04 -6.570477E+03
       339   8  9.216672E+05 -6.316689E+04 -3.632334E+04 -2.790586E+03 -2.219753E+04 -7.737529E+03
       339   9  8.957422E+05 -5.168084E+04 -2.185497E+04 -1.026169E+04 -3.336557E+04 -8.304102E+03
       339  10  1.386319E+06  5.266005E+04  6.514135E+04 -1.234675E+04 -6.310383E-10 -3.176990E-10
       339  11  1.412189E+06  5.828761E+04  8.107662E+04 -4.889501E+03 -2.306201E-10 -5.135953E-10
       339  12  1.444783E+06  8.429664E+04  1.097861E+05 -1.922624E+04  2.816735E-10 -1.024304E-09
       339  13  1.170246E+06 -8.528078E+02  1.335433E+04 -1.473104E+04 -2.486479E-09 -2.133416E-10
       339  14  1.166900E+06 -2.437564E+03  2.237824E+04 -3.839901E+03 -1.245961E-09 -4.639290E-10
       339  15  1.170228E+06  1.631040E+04  4.396714E+04 -1.474307E+04  1.374033E-09 -6.739749E-10
       339  16  9.542158E+05 -5.436903E+04 -3.843599E+04 -1.711450E+04  2.356924E-10  3.126420E-10
       339  17  9.216666E+05 -6.316709E+04 -3.632438E+04 -2.790725E+03 -1.377918E-10  1.886806E-09
       339  18  8.957410E+05 -5.168122E+04 -2.185719E+04 -1.026191E+04  1.373716E-09 -5.879355E-11
       339  19  1.386319E+06  5.266012E+04  6.514161E+04 -1.234669E+04  9.558689E+03  6.569594E+03
       339  20  1.412189E+06  5.828780E+04  8.107759E+04 -4.889368E+03  2.134139E+04  7.736528E+03
       339  21  1.444784E+06  8.429700E+04  1.097883E+05 -1.922601E+04  3.312478E+04  8.302947E+03
       339  22  1.170246E+06 -8.527330E+02  1.335461E+04 -1.473098E+04  1.029403E+04  6.570038E+03
       339  23  1.166901E+06 -2.437373E+03  2.237925E+04 -3.839765E+03  2.176955E+04  7.737028E+03
       339  24  1.170229E+06  1.631077E+04  4.396934E+04 -1.474285E+04  3.324520E+04  8.303524E+03
       339  25  9.542160E+05 -5.436895E+04 -3.843568E+04 -1.711444E+04  1.102911E+04  6.570477E+03
       339  26  9.216672E+05 -6.316689E+04 -3.632334E+04 -2.790586E+03  2.219753E+04  7.737529E+03
       339  27  8.957422E+05 -5.168084E+04 -2.185497E+04 -1.026169E+04  3.336557E+04  8.304102E+03
       340   1  1.495580E+06  6.990224E+04  1.291310E+05  5.929382E+03 -3.905513E+04 -1.019920E+04
       340   2  1.498925E+06  6.311603E+04  1.686514E+05 -1.750992E+04 -8.976668E+04 -1.119864E+04
       340   3  1.557225E+06  2.491475E+05  2.893765E+05 -6.381212E+04 -1.404906E+05 -3.881607E+03
       340   4  1.180817E+06 -8.048437E+03  5.388681E+04 -1.491404E+04 -4.162220E+04 -1.020041E+04
       340   5  1.153643E+06 -2.231092E+04  8.611383E+04 -3.581036E+03 -8.811431E+04 -1.119934E+04
       340   6  1.180722E+06  1.555662E+05  1.966505E+05 -1.510845E+04 -1.346158E+05 -3.885436E+03
       340   7  8.661448E+05 -8.600466E+04 -2.136412E+04 -3.574688E+04 -4.418798E+04 -1.020145E+04
       340   8  8.084708E+05 -1.077457E+05  3.567927E+03  1.034006E+04 -8.646284E+04 -1.119997E+04
       340   9  8.043528E+05  6.198323E+04  1.039155E+05  3.356567E+04 -1.287446E+05 -3.888349E+03
       340  10  1.495578E+06  6.990172E+04  1.291280E+05  5.929061E+03 -4.344825E-11 -1.830236E-09
       340  11  1.498916E+06  6.311374E+04  1.686361E+05 -1.751073E+04 -6.033310E-10 -3.822023E-09
       340  12  1.557204E+06  2.491422E+05  2.893395E+05 -6.381256E+04  2.605974E-10 -1.037743E-09
       340  13  1.180815E+06 -8.049012E+03  5.388336E+04 -1.491438E+04 -1.291670E-09 -4.510234E-09
       340  14  1.153635E+06 -2.231314E+04  8.609903E+04 -3.581831E+03  9.536422E-10  1.231897E-09
       340  15  1.180703E+06  1.555613E+05  1.966165E+05 -1.510887E+04  7.374494E-11 -2.721564E-10
       340  16  8.661427E+05 -8.600529E+04 -2.136798E+04 -3.574724E+04  4.106629E-10 -1.398414E-09
       340  17  8.084628E+05 -1.077479E+05  3.553661E+03  1.033928E+04  4.105450E-10  9.049162E-10
       340  18  8.043350E+05  6.197878E+04  1.038843E+05  3.356527E+04  1.081708E-09 -1.454114E-09
       340  19  1.495580E+06  6.990224E+04  1.291310E+05  5.929382E+03  3.905513E+04  1.019920E+04
       340  20  1.498925E+06  6.311603E+04  1.686514E+05 -1.750992E+04  8.976668E+04  1.119864E+04
       340  21  1.557225E+06  2.491475E+05  2.893765E+05 -6.381212E+04  1.404906E+05  3.881607E+03
       340  22  1.180817E+06 -8.048437E+03  5.388681E+04 -1.491404E+04  4.162220E+04  1.020041E+04
       340  23  1.153643E+06 -2.231092E+04  8.611383E+04 -3.581036E+03  8.811431E+04  1.119934E+04
       340  24  1.180722E+06  1.555662E+05  1.966505E+05 -1.510845E+04  1.346158E+05  3.885436E+03
       340  25  8.661448E+05 -8.600466E+04 -2.136412E+04 -3.574688E+04  4.418798E+04  1.020145E+04
       340  26  8.084708E+05 -1.077457E+05  3.567927E+03  1.034006E+04  8.646284E+04  1.119997E+04
       340  27  8.043528E+05  6.198323E+04  1.039155E+05  3.356567E+04  1.287446E+05  3.888349E+03
       341   1  1.032692E+06  4.172166E+06  1.060910E+06 -5.162434E+05  3.206033E+04  1.627049E+05
       341   2  6.493629E+05  3.261827E+06  7.293939E+05 -1.595552E+05  8.750315E+04  7.415810E+04
       341   3  4.543450E+05  2.413134E+06  5.027791E+05 -4.548721E+05  5.586732E+04 -1.458969E+04
       341   4  1.387584E+05  5.788231E+05  1.757517E+05 -4.651459E+05  3.221581E+04  1.123106E+05
       341   5 -2.085333E+04  5.524973E+05  8.238406E+04 -1.392685E+05  8.755389E+04  6.812690E+04
       341   6  6.696374E+02  5.797451E+05  6.358810E+04 -4.655293E+05  5.565428E+04  2.361488E+04
       341   7 -7.561251E+05 -3.002822E+06 -7.103493E+05 -4.143311E+05  3.236359E+04  6.220455E+04
       341   8 -6.915986E+05 -2.150128E+06 -5.651421E+05 -1.190630E+05  8.760438E+04  6.212128E+04
       341   9 -4.532476E+05 -1.250570E+06 -3.758349E+05 -4.761493E+05  5.543958E+04  6.170736E+04
       341  10  1.032684E+06  4.172137E+06  1.060859E+06 -5.162476E+05  1.254530E-10  6.963982E-10
       341  11  6.493532E+05  3.261819E+06  7.293692E+05 -1.595605E+05 -4.167393E-11  8.483386E-10
       341  12  4.543415E+05  2.413132E+06  5.027728E+05 -4.548715E+05  1.794505E-09  6.932654E-10
       341  13  1.387539E+05  5.788093E+05  1.757261E+05 -4.651488E+05  1.404230E-09 -7.674696E-11
       341  14 -2.086281E+04  5.524902E+05  8.236093E+04 -1.392733E+05 -3.047446E-09  4.306655E-09
       341  15  6.661596E+02  5.797437E+05  6.358123E+04 -4.655303E+05  6.551771E-10 -6.298894E-10
       341  16 -7.561272E+05 -3.002827E+06 -7.103586E+05 -4.143327E+05  9.269035E-10 -2.665495E-09
       341  17 -6.916079E+05 -2.150134E+06 -5.651638E+05 -1.190674E+05  2.270824E-09  3.719367E-09
       341  18 -4.532519E+05 -1.250575E+06 -3.758479E+05 -4.761521E+05 -3.921815E-10 -3.849237E-10
       341  19  1.032692E+06  4.172166E+06  1.060910E+06 -5.162434E+05 -3.206033E+04 -1.627049E+05
       341  20  6.493629E+05  3.261827E+06  7.293939E+05 -1.595552E+05 -8.750315E+04 -7.415810E+04
       341  21  4.543450E+05  2.413134E+06  5.027791E+05 -4.548721E+05 -5.586732E+04  1.458969E+04
       341  22  1.387584E+05  5.788231E+05  1.757517E+05 -4.651459E+05 -3.221581E+04 -1.123106E+05
       341  23 -2.085333E+04  5.524973E+05  8.238406E+04 -1.392685E+05 -8.755389E+04 -6.812690E+04
       341  24  6.696374E+02  5.797451E+05  6.358810E+04 -4.655293E+05 -5.565428E+04 -2.361488E+04
       341  25 -7.561251E+05 -3.002822E+06 -7.103493E+05 -4.143311E+05 -3.236359E+04 -6.220455E+04
       341  26 -6.915986E+05 -2.150128E+06 -5.651421E+05 -1.190630E+05 -8.760438E+04 -6.212128E+04
       341  27 -4.532476E+05 -1.250570E+06 -3.758349E+05 -4.761493E+05 -5.543958E+04 -6.170736E+04
       342   1  1.800397E+05  1.224547E+06  2.153713E+05 -4.757007E+05  2.163095E+04 -1.894713E+03
       342   2 -5.874858E+04  3.458486E+05  2.012671E+03 -1.376463E+05 -6.772598E+03 -2.976196E+04
       342   3 -2.419518E+05 -5.233958E+05 -1.813217E+05 -4.514511E+05 -3.448145E+04 -5.757273E+04
       342   4  1.800612E+04  5.706045E+05  5.912759E+04 -4.653151E+05  2.154047E+04  1.268928E+04
       342   5 -4.134214E+03  5.661666E+05  5.478602E+04 -1.393685E+05 -6.856503E+03 -1.553414E+04
       342   6  2.941428E+04  5.705283E+05  8.075655E+04 -4.652509E+05 -3.456015E+04 -4.373948E+04
       342   7 -1.440580E+05 -8.294587E+04 -9.714539E+04 -4.549398E+05  2.145043E+04  2.725800E+04
       342   8  5.047674E+04  7.865295E+05  1.075567E+05 -1.410913E+05 -6.940470E+03 -1.301300E+03
       342   9  3.006942E+05  1.665549E+06  3.427509E+05 -4.790731E+05 -3.463940E+04 -2.988190E+04
       342  10  1.800392E+05  1.224547E+06  2.153704E+05 -4.757006E+05 -5.471993E-10  7.386747E-10
       342  11 -5.874886E+04  3.458477E+05  2.010921E+03 -1.376464E+05  1.880511E-09  1.342768E-09
       342  12 -2.419540E+05 -5.233997E+05 -1.813302E+05 -4.514527E+05 -7.785224E-10  5.232462E-10
       342  13  1.800558E+04  5.706042E+05  5.912642E+04 -4.653154E+05 -1.100777E-09 -8.139102E-12
       342  14 -4.134329E+03  5.661664E+05  5.478548E+04 -1.393686E+05  3.250074E-09  6.030837E-09
       342  15  2.941249E+04  5.705260E+05  8.075071E+04 -4.652521E+05  5.933871E-09 -8.061859E-10
       342  16 -1.440587E+05 -8.294679E+04 -9.714765E+04 -4.549403E+05 -4.977851E-10 -6.534910E-09
       342  17  5.047669E+04  7.865295E+05  1.075566E+05 -1.410913E+05 -4.274936E-09  4.828298E-09
       342  18  3.006927E+05  1.665548E+06  3.427470E+05 -4.790740E+05  2.799408E-10  3.007442E-10
       342  19  1.800397E+05  1.224547E+06  2.153713E+05 -4.757007E+05 -2.163095E+04  1.894713E+03
       342  20 -5.874858E+04  3.458486E+05  2.012671E+03 -1.376463E+05  6.772598E+03  2.976196E+04
       342  21 -2.419518E+05 -5.233958E+05 -1.813217E+05 -4.514511E+05  3.448145E+04  5.757273E+04
       342  22  1.800612E+04  5.706045E+05  5.912759E+04 -4.653151E+05 -2.154047E+04 -1.268928E+04
       342  23 -4.134214E+03  5.661666E+05  5.478602E+04 -1.393685E+05  6.856503E+03  1.553414E+04
       342  24  2.941428E+04  5.705283E+05  8.075655E+04 -4.652509E+05  3.456015E+04  4.373948E+04
       342  25 -1.440580E+05 -8.294587E+04 -9.714539E+04 -4.549398E+05 -2.145043E+04 -2.725800E+04
       342  26  5.047674E+04  7.865295E+05  1.075567E+05 -1.410913E+05  6.940470E+03  1.301300E+03
       342  27  3.006942E+05  1.665549E+06  3.427509E+05 -4.790731E+05  3.463940E+04  2.988190E+04
       343   1 -5.696999E+05 -1.682408E+06 -4.504614E+05 -4.893240E+05 -6.969049E+04 -9.937156E+04
       343   2 -8.175552E+05 -2.603114E+06 -6.142505E+05 -1.093593E+05 -1.016277E+05 -1.257722E+05
       343   3 -7.589750E+05 -3.436251E+06 -6.829058E+05 -3.824499E+05 -3.685504E+04 -1.518487E+05
       343   4 -6.534692E+03  5.885587E+05  9.454005E+04 -4.657294E+05 -6.989828E+04 -5.913315E+04
       343   5 -3.708204E+04  5.405875E+05  1.392099E+05 -1.390896E+05 -1.015603E+05 -1.344486E+05
       343   6  2.465134E+05  5.874665E+05  3.125928E+05 -4.652315E+05 -3.672420E+04 -2.094818E+05
       343   7  5.562595E+05  2.864260E+06  6.391826E+05 -4.420398E+05 -7.010258E+04 -1.874753E+04
       343   8  7.426760E+05  3.693365E+06  8.919715E+05 -1.689632E+05 -1.014924E+05 -1.431676E+05
       343   9  1.250817E+06  4.625963E+06  1.306904E+06 -5.485412E+05 -3.657856E+04 -2.674861E+05
       343  10 -5.697078E+05 -1.682420E+06 -4.504892E+05 -4.893296E+05  1.460094E-09 -1.867072E-09
       343  11 -8.175706E+05 -2.603134E+06 -6.142998E+05 -1.093696E+05  7.077245E-10  1.079956E-09
       343  12 -7.589827E+05 -3.436276E+06 -6.829520E+05 -3.824545E+05 -1.990107E-10  1.016118E-09
       343  13 -6.540882E+03  5.885536E+05  9.452429E+04 -4.657327E+05 -1.858986E-09  7.339962E-11
       343  14 -3.709797E+04  5.405654E+05  1.391566E+05 -1.391006E+05  9.979657E-10  3.218256E-09
       343  15  2.465002E+05  5.874190E+05  3.125079E+05 -4.652377E+05 -6.740666E-10 -1.038915E-10
       343  16  5.562541E+05  2.864258E+06  6.391727E+05 -4.420409E+05  3.166408E-09 -3.329187E-09
       343  17  7.426595E+05  3.693340E+06  8.919139E+05 -1.689748E+05 -3.704202E-10  1.930141E-09
       343  18  1.250796E+06  4.625886E+06  1.306768E+06 -5.485491E+05 -1.333280E-09 -8.459662E-10
       343  19 -5.696999E+05 -1.682408E+06 -4.504614E+05 -4.893240E+05  6.969049E+04  9.937156E+04
       343  20 -8.175552E+05 -2.603114E+06 -6.142505E+05 -1.093593E+05  1.016277E+05  1.257722E+05
       343  21 -7.589750E+05 -3.436251E+06 -6.829058E+05 -3.824499E+05  3.685504E+04  1.518487E+05
       343  22 -6.534692E+03  5.885587E+05  9.454005E+04 -4.657294E+05  6.989828E+04  5.913315E+04
       343  23 -3.708204E+04  5.405875E+05  1.392099E+05 -1.390896E+05  1.015603E+05  1.344486E+05
       343  24  2.465134E+05  5.874665E+05  3.125928E+05 -4.652315E+05  3.672420E+04  2.094818E+05
       343  25  5.562595E+05  2.864260E+06  6.391826E+05 -4.420398E+05  7.010258E+04  1.874753E+04
       343  26  7.426760E+05  3.693365E+06  8.919715E+05 -1.689632E+05  1.014924E+05  1.431676E+05
       343  27  1.250817E+06  4.625963E+06  1.306904E+06 -5.485412E+05  3.657856E+04  2.674861E+05
       344   1 -1.502197E+06 -6.385937E+05 -3.385445E+05 -6.251390E+05 -1.665632E+05 -5.211989E+04
       344   2 -1.437506E+06 -4.579833E+05 -1.983404E+05 -5.944645E+05 -1.034004E+05 -4.433916E+03
       344   3 -1.403440E+06 -3.746641E+05 -1.344813E+05 -5.564088E+05 -3.399325E+04  2.670983E+04
       344   4 -9.186857E+05 -3.298481E+05 -1.715230E+05 -3.731884E+05 -1.148067E+05 -3.267967E+04
       344   5 -8.969349E+05 -2.182923E+05 -8.028942E+04 -4.016079E+05 -8.093745E+04  4.003317E+03
       344   6 -8.999643E+05 -1.981796E+05 -4.211364E+04 -4.226602E+05 -4.083594E+04  2.413436E+04
       344   7 -3.348049E+05 -2.095927E+04 -4.517450E+03 -1.209842E+05 -6.299640E+04 -1.320033E+04
       344   8 -3.560515E+05  2.146715E+04  3.774861E+04 -2.085805E+05 -5.845330E+04  1.245232E+04
       344   9 -3.962226E+05 -2.167574E+04  5.024483E+04 -2.888122E+05 -4.768456E+04  2.155683E+04
       344  10 -1.502228E+06 -6.386041E+05 -3.386019E+05 -6.251460E+05  2.008696E-09  1.548776E-09
       344  11 -1.437518E+06 -4.579862E+05 -1.983606E+05 -5.944649E+05 -7.057710E-09 -2.927556E-09
       344  12 -1.403441E+06 -3.746652E+05 -1.344848E+05 -5.564081E+05 -9.191234E-09 -2.053947E-09
       344  13 -9.187002E+05 -3.298528E+05 -1.715498E+05 -3.731915E+05 -2.646084E-09 -1.197072E-09
       344  14 -8.969419E+05 -2.182941E+05 -8.030177E+04 -4.016077E+05 -7.612459E-09 -3.473778E-09
       344  15 -8.999662E+05 -1.981806E+05 -4.211787E+04 -4.226594E+05 -2.777374E-09 -2.465450E-09
       344  16 -3.348092E+05 -2.096052E+04 -4.525240E+03 -1.209849E+05 -8.363361E-09 -2.966126E-09
       344  17 -3.560552E+05  2.146606E+04  3.774190E+04 -2.085800E+05 -7.638228E-09 -3.014449E-09
       344  18 -3.962252E+05 -2.167685E+04  5.023968E+04 -2.888113E+05  2.786090E-09 -3.940912E-10
       344  19 -1.502197E+06 -6.385937E+05 -3.385445E+05 -6.251390E+05  1.665632E+05  5.211989E+04
       344  20 -1.437506E+06 -4.579833E+05 -1.983404E+05 -5.944645E+05  1.034004E+05  4.433916E+03
       344  21 -1.403440E+06 -3.746641E+05 -1.344813E+05 -5.564088E+05  3.399325E+04 -2.670983E+04
       344  22 -9.186857E+05 -3.298481E+05 -1.715230E+05 -3.731884E+05  1.148067E+05  3.267967E+04
       344  23 -8.969349E+05 -2.182923E+05 -8.028942E+04 -4.016079E+05  8.093745E+04 -4.003317E+03
       344  24 -8.999643E+05 -1.981796E+05 -4.211364E+04 -4.226602E+05  4.083594E+04 -2.413436E+04
       344  25 -3.348049E+05 -2.095927E+04 -4.517450E+03 -1.209842E+05  6.299640E+04  1.320033E+04
       344  26 -3.560515E+05  2.146715E+04  3.774861E+04 -2.085805E+05  5.845330E+04 -1.245232E+04
       344  27 -3.962226E+05 -2.167574E+04  5.024483E+04 -2.888122E+05  4.768456E+04 -2.155683E+04
       345   1 -1.342538E+06 -3.640847E+05 -1.138703E+05 -5.486993E+05 -3.007482E+04  2.523346E+04
       345   2 -1.273173E+06 -3.235105E+05 -8.291488E+04 -5.213298E+05 -1.768002E+04  2.578664E+04
       345   3 -1.195441E+06 -2.998348E+05 -6.155427E+04 -5.064669E+05 -4.715938E+03  2.482579E+04
       345   4 -8.949026E+05 -1.986415E+05 -3.162742E+04 -4.206243E+05 -3.511858E+04  2.333473E+04
       345   5 -8.988582E+05 -1.870595E+05 -1.661062E+04 -4.156421E+05 -2.540108E+04  2.288289E+04
       345   6 -8.939176E+05 -1.918425E+05 -9.059000E+03 -4.231684E+05 -1.511577E+04  2.091694E+04
       345   7 -4.470603E+05 -3.317907E+04  5.060692E+04 -2.924636E+05 -4.016618E+04  2.143450E+04
       345   8 -5.243947E+05 -5.059425E+04  4.968939E+04 -3.098944E+05 -3.312711E+04  1.997724E+04
       345   9 -5.922950E+05 -8.384053E+04  4.343485E+04 -3.398313E+05 -2.552109E+04  1.700607E+04
       345  10 -1.342539E+06 -3.640857E+05 -1.138732E+05 -5.486987E+05  7.612932E-10  2.314585E-09
       345  11 -1.273174E+06 -3.235112E+05 -8.291671E+04 -5.213294E+05 -1.240890E-09  8.295687E-10
       345  12 -1.195441E+06 -2.998354E+05 -6.155547E+04 -5.064668E+05 -2.933908E-09  1.944337E-11
       345  13 -8.949040E+05 -1.986424E+05 -3.163076E+04 -4.206237E+05 -5.757013E-10  4.689841E-11
       345  14 -8.988590E+05 -1.870602E+05 -1.661282E+04 -4.156416E+05 -1.905218E-09  4.536364E-10
       345  15 -8.939180E+05 -1.918430E+05 -9.060251E+03 -4.231681E+05  3.687085E-11  8.111934E-11
       345  16 -4.470621E+05 -3.318000E+04  5.060302E+04 -2.924630E+05 -2.739517E-10 -1.815371E-09
       345  17 -5.243960E+05 -5.059497E+04  4.968658E+04 -3.098939E+05  5.727136E-10 -1.420958E-10
       345  18 -5.922957E+05 -8.384102E+04  4.343309E+04 -3.398309E+05  2.066167E-09  1.987762E-10
       345  19 -1.342538E+06 -3.640847E+05 -1.138703E+05 -5.486993E+05  3.007482E+04 -2.523346E+04
       345  20 -1.273173E+06 -3.235105E+05 -8.291488E+04 -5.213298E+05  1.768002E+04 -2.578664E+04
       345  21 -1.195441E+06 -2.998348E+05 -6.155427E+04 -5.064669E+05  4.715938E+03 -2.482579E+04
       345  22 -8.949026E+05 -1.986415E+05 -3.162742E+04 -4.206243E+05  3.511858E+04 -2.333473E+04
       345  23 -8.988582E+05 -1.870595E+05 -1.661062E+04 -4.156421E+05  2.540108E+04 -2.288289E+04
       345  24 -8.939176E+05 -1.918425E+05 -9.059000E+03 -4.231684E+05  1.511577E+04 -2.091694E+04
       345  25 -4.470603E+05 -3.317907E+04  5.060692E+04 -2.924636E+05  4.016618E+04 -2.143450E+04
       345  26 -5.243947E+05 -5.059425E+04  4.968939E+04 -3.098944E+05  3.312711E+04 -1.997724E+04
       345  27 -5.922950E+05 -8.384053E+04  4.343485E+04 -3.398313E+05  2.552109E+04 -1.700607E+04
       346   1 -1.146348E+06 -2.828883E+05 -5.050778E+04 -4.933836E+05 -2.331693E+03  2.178819E+04
       346   2 -1.077366E+06 -2.498455E+05 -3.449719E+04 -4.658669E+05  1.975890E+03  1.673372E+04
       346   3 -9.969821E+05 -2.288988E+05 -2.013343E+04 -4.518222E+05  6.335379E+03  1.153918E+04
       346   4 -8.934894E+05 -1.919064E+05 -6.801728E+03 -4.229953E+05 -1.257266E+04  1.793977E+04
       346   5 -8.991911E+05 -1.857729E+05 -3.733479E+03 -4.162973E+05 -8.513017E+03  1.279298E+04
       346   6 -8.934478E+05 -1.916864E+05 -2.115125E+03 -4.230732E+05 -4.401750E+03  7.506053E+03
       346   7 -6.405626E+05 -1.009183E+05  3.690288E+04 -3.525801E+05 -2.281808E+04  1.408969E+04
       346   8 -7.209833E+05 -1.216975E+05  2.702951E+04 -3.667147E+05 -1.900507E+04  8.851060E+03
       346   9 -7.899030E+05 -1.544732E+05  1.590304E+04 -3.943200E+05 -1.514067E+04  3.472255E+03
       346  10 -1.146348E+06 -2.828889E+05 -5.050868E+04 -4.933836E+05  5.957000E-10  1.160918E-09
       346  11 -1.077366E+06 -2.498458E+05 -3.449773E+04 -4.658669E+05 -1.828035E-09 -4.255750E-10
       346  12 -9.969822E+05 -2.288990E+05 -2.013375E+04 -4.518222E+05  4.176513E-10 -1.219999E-10
       346  13 -8.934897E+05 -1.919068E+05 -6.802630E+03 -4.229951E+05  8.146295E-10 -3.535886E-10
       346  14 -8.991913E+05 -1.857731E+05 -3.733923E+03 -4.162972E+05  1.617865E-09  2.208605E-10
       346  15 -8.934478E+05 -1.916864E+05 -2.115267E+03 -4.230732E+05  4.546026E-09  1.990952E-09
       346  16 -6.405632E+05 -1.009186E+05  3.690153E+04 -3.525799E+05 -2.159407E-09 -1.372068E-09
       346  17 -7.209837E+05 -1.216976E+05  2.702868E+04 -3.667145E+05  1.750915E-09 -4.068068E-10
       346  18 -7.899032E+05 -1.544733E+05  1.590259E+04 -3.943200E+05  9.438812E-09  4.497052E-09
       346  19 -1.146348E+06 -2.828883E+05 -5.050778E+04 -4.933836E+05  2.331693E+03 -2.178819E+04
       346  20 -1.077366E+06 -2.498455E+05 -3.449719E+04 -4.658669E+05 -1.975890E+03 -1.673372E+04
       346  21 -9.969821E+05 -2.288988E+05 -2.013343E+04 -4.518222E+05 -6.335379E+03 -1.153918E+04
       346  22 -8.934894E+05 -1.919064E+05 -6.801728E+03 -4.229953E+05  1.257266E+04 -1.793977E+04
       346  23 -8.991911E+05 -1.857729E+05 -3.733479E+03 -4.162973E+05  8.513017E+03 -1.279298E+04
       346  24 -8.934478E+05 -1.916864E+05 -2.115125E+03 -4.230732E+05  4.401750E+03 -7.506053E+03
       346  25 -6.405626E+05 -1.009183E+05  3.690288E+04 -3.525801E+05  2.281808E+04 -1.408969E+04
       346  26 -7.209833E+05 -1.216975E+05  2.702951E+04 -3.667147E+05  1.900507E+04 -8.851060E+03
       346  27 -7.899030E+05 -1.544732E+05  1.590304E+04 -3.943200E+05  1.514067E+04 -3.472255E+03
       347   1 -9.486905E+05 -2.115035E+05 -1.097721E+04 -4.384040E+05  7.957922E+03  8.122508E+03
       347   2 -8.798396E+05 -1.787463E+05  2.284044E+03 -4.108101E+05  1.077316E+04  2.271445E+03
       347   3 -7.992703E+05 -1.577944E+05  1.514067E+04 -3.967021E+05  1.359252E+04 -3.590197E+03
       347   4 -8.933960E+05 -1.916974E+05 -1.636369E+03 -4.230515E+05 -2.766300E+03  4.094447E+03
       347   5 -8.992551E+05 -1.858073E+05 -1.047581E+03 -4.163029E+05  2.939763E+01 -1.764075E+03
       347   6 -8.933996E+05 -1.917201E+05 -8.487973E+02 -4.230432E+05  2.829133E+03 -7.633188E+03
       347   7 -8.380974E+05 -1.718908E+05  7.705047E+03 -4.076975E+05 -1.349165E+04  6.596669E+01
       347   8 -9.186700E+05 -1.928683E+05 -4.378750E+03 -4.217955E+05 -1.071407E+04 -5.799480E+03
       347   9 -9.875193E+05 -2.256448E+05 -1.683801E+04 -4.493804E+05 -7.932519E+03 -1.167553E+04
       347  10 -9.486906E+05 -2.115036E+05 -1.097745E+04 -4.384041E+05  1.014458E-08  3.599545E-09
       347  11 -8.798398E+05 -1.787463E+05  2.283815E+03 -4.108101E+05 -5.019900E-09 -2.493076E-09
       347  12 -7.992705E+05 -1.577945E+05  1.514030E+04 -3.967021E+05 -8.489878E-09 -2.459005E-09
       347  13 -8.933960E+05 -1.916975E+05 -1.636415E+03 -4.230515E+05  1.814738E-09  1.187243E-09
       347  14 -8.992551E+05 -1.858073E+05 -1.047587E+03 -4.163029E+05 -6.898781E-09 -3.534704E-09
       347  15 -8.933997E+05 -1.917201E+05 -8.489218E+02 -4.230432E+05 -4.881666E-09 -2.955685E-10
       347  16 -8.380975E+05 -1.718909E+05  7.704705E+03 -4.076975E+05 -6.608295E-09 -7.953791E-10
       347  17 -9.186701E+05 -1.928683E+05 -4.379030E+03 -4.217955E+05 -1.001693E-08 -1.157856E-09
       347  18 -9.875194E+05 -2.256450E+05 -1.683839E+04 -4.493805E+05  3.115425E-09 -4.929532E-10
       347  19 -9.486905E+05 -2.115035E+05 -1.097721E+04 -4.384040E+05 -7.957922E+03 -8.122508E+03
       347  20 -8.798396E+05 -1.787463E+05  2.284044E+03 -4.108101E+05 -1.077316E+04 -2.271445E+03
       347  21 -7.992703E+05 -1.577944E+05  1.514067E+04 -3.967021E+05 -1.359252E+04  3.590197E+03
       347  22 -8.933960E+05 -1.916974E+05 -1.636369E+03 -4.230515E+05  2.766300E+03 -4.094447E+03
       347  23 -8.992551E+05 -1.858073E+05 -1.047581E+03 -4.163029E+05 -2.939763E+01  1.764075E+03
       347  24 -8.933996E+05 -1.917201E+05 -8.487973E+02 -4.230432E+05 -2.829133E+03  7.633188E+03
       347  25 -8.380974E+05 -1.718908E+05  7.705047E+03 -4.076975E+05  1.349165E+04 -6.596669E+01
       347  26 -9.186700E+05 -1.928683E+05 -4.378750E+03 -4.217955E+05  1.071407E+04  5.799480E+03
       347  27 -9.875193E+05 -2.256448E+05 -1.683801E+04 -4.493804E+05  7.932519E+03  1.167553E+04
       348   1 -7.510752E+05 -1.403646E+05  2.379045E+04 -3.832675E+05  1.506168E+04 -7.070457E+03
       348   2 -6.822721E+05 -1.076187E+05  3.616967E+04 -3.556893E+05  1.786931E+04 -1.292982E+04
       348   3 -6.017524E+05 -8.666222E+04  4.815424E+04 -3.415866E+05  2.067086E+04 -1.877000E+04
       348   4 -8.934052E+05 -1.917215E+05 -8.638771E+02 -4.230410E+05  4.299754E+03 -1.111322E+04
       348   5 -8.992629E+05 -1.858247E+05 -1.132755E+03 -4.163038E+05  7.140192E+03 -1.696126E+04
       348   6 -8.934161E+05 -1.917245E+05 -1.822439E+03 -4.230444E+05  9.974491E+03 -2.279017E+04
       348   7 -1.035712E+06 -2.430757E+05 -2.551790E+04 -4.628055E+05 -6.459434E+03 -1.515495E+04
       348   8 -1.116203E+06 -2.640260E+05 -3.843602E+04 -4.768984E+05 -3.584938E+03 -2.099121E+04
       348   9 -1.184992E+06 -2.967794E+05 -5.180185E+04 -5.044672E+05 -7.166380E+02 -2.680838E+04
       348  10 -7.510754E+05 -1.403647E+05  2.378993E+04 -3.832674E+05 -2.131604E-09  1.278647E-09
       348  11 -6.822725E+05 -1.076190E+05  3.616875E+04 -3.556891E+05  1.875066E-09  1.241958E-09
       348  12 -6.017529E+05 -8.666271E+04  4.815277E+04 -3.415863E+05  1.929200E-10 -5.982495E-10
       348  13 -8.934053E+05 -1.917216E+05 -8.641438E+02 -4.230409E+05  4.443343E-11  1.034336E-09
       348  14 -8.992631E+05 -1.858250E+05 -1.133391E+03 -4.163037E+05  1.832122E-09 -5.015495E-10
       348  15 -8.934163E+05 -1.917251E+05 -1.823601E+03 -4.230442E+05 -4.955273E-09 -2.584669E-09
       348  16 -1.035712E+06 -2.430759E+05 -2.551841E+04 -4.628055E+05  3.728019E-09 -6.408503E-11
       348  17 -1.116204E+06 -2.640265E+05 -3.843688E+04 -4.768984E+05 -2.220825E-09  7.131544E-10
       348  18 -1.184992E+06 -2.967802E+05 -5.180320E+04 -5.044672E+05 -1.126705E-08 -3.105866E-09
       348  19 -7.510752E+05 -1.403646E+05  2.379045E+04 -3.832675E+05 -1.506168E+04  7.070457E+03
       348  20 -6.822721E+05 -1.076187E+05  3.616967E+04 -3.556893E+05 -1.786931E+04  1.292982E+04
       348  21 -6.017524E+05 -8.666222E+04  4.815424E+04 -3.415866E+05 -2.067086E+04  1.877000E+04
       348  22 -8.934052E+05 -1.917215E+05 -8.638771E+02 -4.230410E+05 -4.299754E+03  1.111322E+04
       348  23 -8.992629E+05 -1.858247E+05 -1.132755E+03 -4.163038E+05 -7.140192E+03  1.696126E+04
       348  24 -8.934161E+05 -1.917245E+05 -1.822439E+03 -4.230444E+05 -9.974491E+03  2.279017E+04
       348  25 -1.035712E+06 -2.430757E+05 -2.551790E+04 -4.628055E+05  6.459434E+03  1.515495E+04
       348  26 -1.116203E+06 -2.640260E+05 -3.843602E+04 -4.768984E+05  3.584938E+03  2.099121E+04
       348  27 -1.184992E+06 -2.967794E+05 -5.180185E+04 -5.044672E+05  7.166380E+02  2.680838E+04
       349   1 -5.536387E+05 -6.926796E+04  5.627236E+04 -3.282190E+05  2.235461E+04 -2.215321E+04
       349   2 -4.848764E+05 -3.655420E+04  6.718235E+04 -3.006497E+05  2.635257E+04 -2.743179E+04
       349   3 -4.046545E+05 -1.582924E+04  7.672736E+04 -2.865144E+05  3.028066E+04 -3.251861E+04
       349   4 -8.934839E+05 -1.917149E+05 -2.371089E+03 -4.230637E+05  1.164417E+04 -2.617955E+04
       349   5 -8.992092E+05 -1.858247E+05 -4.212415E+03 -4.162986E+05  1.597965E+04 -3.133319E+04
       349   6 -8.935475E+05 -1.919915E+05 -7.687203E+03 -4.229707E+05  2.024501E+04 -3.629508E+04
       349   7 -1.233206E+06 -3.141505E+05 -6.101735E+04 -5.178597E+05  9.399822E+02 -3.020356E+04
       349   8 -1.313357E+06 -3.350774E+05 -7.561102E+04 -5.318746E+05  5.614169E+03 -3.523182E+04
       349   9 -1.382181E+06 -3.681284E+05 -9.210683E+04 -5.593249E+05  1.021788E+04 -4.006835E+04
       349  10 -5.536393E+05 -6.926862E+04  5.627050E+04 -3.282186E+05 -9.865134E-09 -4.576943E-09
       349  11 -4.848773E+05 -3.655519E+04  6.717963E+04 -3.006491E+05 -7.742879E-10 -1.511135E-09
       349  12 -4.046558E+05 -1.583063E+04  7.672365E+04 -2.865136E+05  3.370721E-09 -1.638495E-10
       349  13 -8.934842E+05 -1.917157E+05 -2.372631E+03 -4.230635E+05 -5.748973E-09 -2.379562E-09
       349  14 -8.992098E+05 -1.858258E+05 -4.214739E+03 -4.162982E+05 -1.722331E-09  1.081340E-09
       349  15 -8.935483E+05 -1.919930E+05 -7.690447E+03 -4.229701E+05  1.157842E-09 -1.101143E-09
       349  16 -1.233206E+06 -3.141515E+05 -6.101907E+04 -5.178597E+05 -5.301165E-10  2.506297E-10
       349  17 -1.313358E+06 -3.350787E+05 -7.561341E+04 -5.318745E+05  3.544111E-09 -1.274109E-09
       349  18 -1.382182E+06 -3.681301E+05 -9.211004E+04 -5.593246E+05 -1.526166E-09 -7.385087E-10
       349  19 -5.536387E+05 -6.926796E+04  5.627236E+04 -3.282190E+05 -2.235461E+04  2.215321E+04
       349  20 -4.848764E+05 -3.655420E+04  6.718235E+04 -3.006497E+05 -2.635257E+04  2.743179E+04
       349  21 -4.046545E+05 -1.582924E+04  7.672736E+04 -2.865144E+05 -3.028066E+04  3.251861E+04
       349  22 -8.934839E+05 -1.917149E+05 -2.371089E+03 -4.230637E+05 -1.164417E+04  2.617955E+04
       349  23 -8.992092E+05 -1.858247E+05 -4.212415E+03 -4.162986E+05 -1.597965E+04  3.133319E+04
       349  24 -8.935475E+05 -1.919915E+05 -7.687203E+03 -4.229707E+05 -2.024501E+04  3.629508E+04
       349  25 -1.233206E+06 -3.141505E+05 -6.101735E+04 -5.178597E+05 -9.399822E+02  3.020356E+04
       349  26 -1.313357E+06 -3.350774E+05 -7.561102E+04 -5.318746E+05 -5.614169E+03  3.523182E+04
       349  27 -1.382181E+06 -3.681284E+05 -9.210683E+04 -5.593249E+05 -1.021788E+04  4.006835E+04
       350   1 -3.565128E+05  1.180833E+03  8.298382E+04 -2.738571E+05  3.318561E+04 -3.531167E+04
       350   2 -2.890427E+05  3.441340E+04  8.861148E+04 -2.437194E+05  4.081704E+04 -3.786556E+04
       350   3 -2.123650E+05  5.147079E+04  8.867818E+04 -2.258775E+05  4.768255E+04 -3.837550E+04
       350   4 -8.940374E+05 -1.919162E+05 -1.023972E+04 -4.231542E+05  2.293719E+04 -3.916946E+04
       350   5 -8.988434E+05 -1.873211E+05 -1.878406E+04 -4.155637E+05  3.418524E+04 -4.036566E+04
       350   6 -8.951687E+05 -1.996246E+05 -3.576381E+04 -4.202733E+05  4.466619E+04 -3.951708E+04
       350   7 -1.431261E+06 -3.849879E+05 -1.034730E+05 -5.723322E+05  1.269812E+04 -4.302379E+04
       350   8 -1.508254E+06 -4.090196E+05 -1.261920E+05 -5.872507E+05  2.756033E+04 -4.286314E+04
       350   9 -1.577482E+06 -4.506722E+05 -1.602225E+05 -6.144684E+05  4.165336E+04 -4.065729E+04
       350  10 -3.565143E+05  1.179200E+03  8.297941E+04 -2.738561E+05 -5.874125E-09 -3.273786E-09
       350  11 -2.890449E+05  3.441142E+04  8.860565E+04 -2.437181E+05  6.918638E-09  3.623428E-09
       350  12 -2.123678E+05  5.146860E+04  8.867114E+04 -2.258760E+05  2.276335E-08  1.206824E-08
       350  13 -8.940384E+05 -1.919180E+05 -1.024359E+04 -4.231535E+05 -1.148762E-09 -1.669229E-09
       350  14 -8.988451E+05 -1.873232E+05 -1.878932E+04 -4.155626E+05 -1.618132E-09 -6.029132E-10
       350  15 -8.951713E+05 -1.996268E+05 -3.577049E+04 -4.202719E+05  3.698102E-09  9.977225E-10
       350  16 -1.431262E+06 -3.849899E+05 -1.034768E+05 -5.723318E+05  4.148804E-09  1.887806E-09
       350  17 -1.508255E+06 -4.090217E+05 -1.261969E+05 -5.872497E+05 -9.322834E-09 -1.830739E-09
       350  18 -1.577484E+06 -4.506744E+05 -1.602288E+05 -6.144670E+05 -1.470355E-08 -6.195312E-09
       350  19 -3.565128E+05  1.180833E+03  8.298382E+04 -2.738571E+05 -3.318561E+04  3.531167E+04
       350  20 -2.890427E+05  3.441340E+04  8.861148E+04 -2.437194E+05 -4.081704E+04  3.786556E+04
       350  21 -2.123650E+05  5.147079E+04  8.867818E+04 -2.258775E+05 -4.768255E+04  3.837550E+04
       350  22 -8.940374E+05 -1.919162E+05 -1.023972E+04 -4.231542E+05 -2.293719E+04  3.916946E+04
       350  23 -8.988434E+05 -1.873211E+05 -1.878406E+04 -4.155637E+05 -3.418524E+04  4.036566E+04
       350  24 -8.951687E+05 -1.996246E+05 -3.576381E+04 -4.202733E+05 -4.466619E+04  3.951708E+04
       350  25 -1.431261E+06 -3.849879E+05 -1.034730E+05 -5.723322E+05 -1.269812E+04  4.302379E+04
       350  26 -1.508254E+06 -4.090196E+05 -1.261920E+05 -5.872507E+05 -2.756033E+04  4.286314E+04
       350  27 -1.577482E+06 -4.506722E+05 -1.602225E+05 -6.144684E+05 -4.165336E+04  4.065729E+04
       351   1 -1.612245E+05  6.230292E+04  8.742547E+04 -2.234413E+05  5.632179E+04 -3.768060E+04
       351   2 -1.255735E+05  1.069569E+05  7.443955E+04 -1.369001E+05  6.092130E+04 -2.668444E+04
       351   3 -1.118171E+05  5.798347E+04  3.289027E+04 -3.995186E+04  5.711076E+04  6.631905E+03
       351   4 -9.009342E+05 -1.990655E+05 -4.762065E+04 -4.225269E+05  5.087537E+04 -3.973702E+04
       351   5 -8.966448E+05 -2.226961E+05 -9.079236E+04 -3.997461E+05  9.504993E+04 -1.384353E+04
       351   6 -9.221536E+05 -3.478873E+05 -1.939512E+05 -3.665527E+05  1.308051E+05  3.438129E+04
       351   7 -1.640069E+06 -4.603894E+05 -1.826862E+05 -6.213943E+05  4.543589E+04 -4.179099E+04
       351   8 -1.667079E+06 -5.522274E+05 -2.560479E+05 -6.622634E+05  1.291325E+05 -1.026504E+03
       351   9 -1.731781E+06 -7.535301E+05 -4.208199E+05 -6.927024E+05  2.043923E+05  6.205992E+04
       351  10 -1.612283E+05  6.230054E+04  8.741685E+04 -2.234396E+05 -1.684343E-08 -4.186748E-09
       351  11 -1.255777E+05  1.069551E+05  7.443124E+04 -1.368988E+05 -6.846233E-09 -1.961263E-09
       351  12 -1.118206E+05  5.798255E+04  3.288406E+04 -3.995217E+04  4.251503E-09  5.115950E-10
       351  13 -9.009375E+05 -1.990679E+05 -4.762848E+04 -4.225253E+05  3.410144E-09  1.547226E-09
       351  14 -8.966545E+05 -2.226987E+05 -9.080971E+04 -3.997451E+05 -3.307977E-09  4.946732E-09
       351  15 -9.221723E+05 -3.478932E+05 -1.939856E+05 -3.665564E+05  2.037087E-10 -9.564860E-10
       351  16 -1.640072E+06 -4.603919E+05 -1.826934E+05 -6.213927E+05  2.210731E-08  1.129466E-08
       351  17 -1.667097E+06 -5.522319E+05 -2.560793E+05 -6.622633E+05  5.090795E-09  5.989690E-09
       351  18 -1.731827E+06 -7.535455E+05 -4.209060E+05 -6.927127E+05 -5.569928E-09 -8.170660E-10
       351  19 -1.612245E+05  6.230292E+04  8.742547E+04 -2.234413E+05 -5.632179E+04  3.768060E+04
       351  20 -1.255735E+05  1.069569E+05  7.443955E+04 -1.369001E+05 -6.092130E+04  2.668444E+04
       351  21 -1.118171E+05  5.798347E+04  3.289027E+04 -3.995186E+04 -5.711076E+04 -6.631905E+03
       351  22 -9.009342E+05 -1.990655E+05 -4.762065E+04 -4.225269E+05 -5.087537E+04  3.973702E+04
       351  23 -8.966448E+05 -2.226961E+05 -9.079236E+04 -3.997461E+05 -9.504993E+04  1.384353E+04
       351  24 -9.221536E+05 -3.478873E+05 -1.939512E+05 -3.665527E+05 -1.308051E+05 -3.438129E+04
       351  25 -1.640069E+06 -4.603894E+05 -1.826862E+05 -6.213943E+05 -4.543589E+04  4.179099E+04
       351  26 -1.667079E+06 -5.522274E+05 -2.560479E+05 -6.622634E+05 -1.291325E+05  1.026504E+03
       351  27 -1.731781E+06 -7.535301E+05 -4.208199E+05 -6.927024E+05 -2.043923E+05 -6.205992E+04
       352   1 -3.257840E+05 -5.065219E+04 -9.458952E+04 -3.887502E+04 -1.336424E+05 -4.703083E+03
       352   2 -3.227805E+05  1.286924E+05  1.176294E+04 -1.169832E+04 -8.994487E+04 -1.385025E+04
       352   3 -3.753634E+05  1.079203E+05  3.967742E+04  3.377104E+04 -4.626563E+04 -1.312037E+04
       352   4 -7.762116E+05 -1.628559E+05 -2.057492E+05  1.187501E+04 -1.406962E+05 -4.724559E+03
       352   5 -7.479355E+05  2.330405E+04 -9.008314E+04  2.595998E+03 -9.205611E+04 -1.385661E+04
       352   6 -7.761476E+05  8.409499E+03 -5.633021E+04  1.161067E+04 -4.343218E+04 -1.311376E+04
       352   7 -1.226449E+06 -2.750650E+05 -3.169224E+05  6.258809E+04 -1.477448E+05 -4.747201E+03
       352   8 -1.172924E+06 -8.209666E+04 -1.919419E+05  1.688041E+04 -9.416589E+04 -1.386307E+04
       352   9 -1.176783E+06 -9.111112E+04 -1.523489E+05 -1.053539E+04 -4.060055E+04 -1.310735E+04
       352  10 -3.258032E+05 -5.065702E+04 -9.462315E+04 -3.887553E+04 -5.831067E-11  3.879368E-10
       352  11 -3.227892E+05  1.286901E+05  1.174737E+04 -1.169932E+04 -3.150087E-10 -1.702121E-09
       352  12 -3.753658E+05  1.079195E+05  3.967307E+04  3.377055E+04  1.253387E-09 -4.330494E-09
       352  13 -7.762329E+05 -1.628612E+05 -2.057865E+05  1.187447E+04 -3.878752E-11  1.670272E-09
       352  14 -7.479447E+05  2.330157E+04 -9.009945E+04  2.594970E+03 -1.526398E-09 -3.666018E-10
       352  15 -7.761496E+05  8.408808E+03 -5.633408E+04  1.161022E+04  7.129965E-10 -2.751088E-10
       352  16 -1.226472E+06 -2.750709E+05 -3.169635E+05  6.258753E+04 -8.755604E-10  1.083690E-09
       352  17 -1.172934E+06 -8.209925E+04 -1.919589E+05  1.687936E+04  6.441110E-10 -3.428365E-09
       352  18 -1.176785E+06 -9.111175E+04 -1.523524E+05 -1.053582E+04 -4.877638E-10 -5.441226E-09
       352  19 -3.257840E+05 -5.065219E+04 -9.458952E+04 -3.887502E+04  1.336424E+05  4.703083E+03
       352  20 -3.227805E+05  1.286924E+05  1.176294E+04 -1.169832E+04  8.994487E+04  1.385025E+04
       352  21 -3.753634E+05  1.079203E+05  3.967742E+04  3.377104E+04  4.626563E+04  1.312037E+04
       352  22 -7.762116E+05 -1.628559E+05 -2.057492E+05  1.187501E+04  1.406962E+05  4.724559E+03
       352  23 -7.479355E+05  2.330405E+04 -9.008314E+04  2.595998E+03  9.205611E+04  1.385661E+04
       352  24 -7.761476E+05  8.409499E+03 -5.633021E+04  1.161067E+04  4.343218E+04  1.311376E+04
       352  25 -1.226449E+06 -2.750650E+05 -3.169224E+05  6.258809E+04  1.477448E+05  4.747201E+03
       352  26 -1.172924E+06 -8.209666E+04 -1.919419E+05  1.688041E+04  9.416589E+04  1.386307E+04
       352  27 -1.176783E+06 -9.111112E+04 -1.523489E+05 -1.053539E+04  4.060055E+04  1.310735E+04
       353   1 -3.983827E+05  7.389915E+04  4.215304E+04  7.673441E+03 -3.466144E+04 -1.111228E+04
       353   2 -4.208545E+05  8.707871E+04  5.835029E+04  1.642115E+03 -2.305247E+04 -1.080661E+04
       353   3 -4.501047E+05  7.911091E+04  6.170520E+04  1.492582E+04 -1.144602E+04 -9.744575E+03
       353   4 -7.651240E+05 -1.709613E+04 -4.596455E+04  1.195029E+04 -3.469628E+04 -1.111306E+04
       353   5 -7.616934E+05  2.525451E+03 -2.338535E+04  2.272824E+03 -2.271272E+04 -1.080626E+04
       353   6 -7.651108E+05  9.279733E+02 -1.391425E+04  1.191116E+04 -1.073118E+04 -9.743064E+03
       353   7 -1.131742E+06 -1.081011E+05 -1.340917E+05  1.622454E+04 -3.473111E+04 -1.111383E+04
       353   8 -1.102426E+06 -8.203625E+04 -1.051292E+05  2.903125E+03 -2.237315E+04 -1.080592E+04
       353   9 -1.080026E+06 -7.726216E+04 -8.954073E+04  8.897979E+03 -1.001669E+04 -9.741559E+03
       353  10 -3.983840E+05  7.389869E+04  4.215055E+04  7.673131E+03 -1.514865E-09 -6.263615E-09
       353  11 -4.208551E+05  8.707844E+04  5.834907E+04  1.641914E+03 -2.065476E-09  1.832536E-09
       353  12 -4.501049E+05  7.911077E+04  6.170477E+04  1.492573E+04 -2.461187E-09  4.213795E-09
       353  13 -7.651253E+05 -1.709659E+04 -4.596705E+04  1.194998E+04  1.636462E-09 -4.065219E-09
       353  14 -7.616940E+05  2.525187E+03 -2.338654E+04  2.272627E+03  4.654039E-10 -5.089276E-10
       353  15 -7.651110E+05  9.278404E+02 -1.391464E+04  1.191108E+04  1.109003E-10 -4.887980E-11
       353  16 -1.131743E+06 -1.081016E+05 -1.340942E+05  1.622423E+04  9.437832E-10 -1.816993E-09
       353  17 -1.102426E+06 -8.203651E+04 -1.051304E+05  2.902930E+03  1.962338E-09  7.741294E-10
       353  18 -1.080026E+06 -7.726229E+04 -8.954110E+04  8.897901E+03  4.234303E-09  3.100587E-09
       353  19 -3.983827E+05  7.389915E+04  4.215304E+04  7.673441E+03  3.466144E+04  1.111228E+04
       353  20 -4.208545E+05  8.707871E+04  5.835029E+04  1.642115E+03  2.305247E+04  1.080661E+04
       353  21 -4.501047E+05  7.911091E+04  6.170520E+04  1.492582E+04  1.144602E+04  9.744575E+03
       353  22 -7.651240E+05 -1.709613E+04 -4.596455E+04  1.195029E+04  3.469628E+04  1.111306E+04
       353  23 -7.616934E+05  2.525451E+03 -2.338535E+04  2.272824E+03  2.271272E+04  1.080626E+04
       353  24 -7.651108E+05  9.279733E+02 -1.391425E+04  1.191116E+04  1.073118E+04  9.743064E+03
       353  25 -1.131742E+06 -1.081011E+05 -1.340917E+05  1.622454E+04  3.473111E+04  1.111383E+04
       353  26 -1.102426E+06 -8.203625E+04 -1.051292E+05  2.903125E+03  2.237315E+04  1.080592E+04
       353  27 -1.080026E+06 -7.726216E+04 -8.954073E+04  8.897979E+03  1.001669E+04  9.741559E+03
       354   1 -4.843442E+05  6.760225E+04  5.606083E+04  1.226306E+04 -9.044140E+03 -9.009311E+03
       354   2 -5.106652E+05  6.297114E+04  5.461087E+04  2.548794E+03 -6.080342E+03 -7.972317E+03
       354   3 -5.379695E+05  5.621225E+04  5.068424E+04  1.286263E+04 -3.117427E+03 -6.866069E+03
       354   4 -7.638046E+05 -1.720138E+03 -1.090363E+04  1.208547E+04 -8.540588E+03 -9.008269E+03
       354   5 -7.633073E+05  2.872323E+02 -5.983696E+03  2.068625E+03 -5.543131E+03 -7.971051E+03
       354   6 -7.638002E+05  1.604016E+02 -3.564639E+03  1.208041E+04 -2.546431E+03 -6.864567E+03
       354   7 -1.043193E+06 -7.104820E+04 -7.787361E+04  1.190791E+04 -8.037261E+03 -9.007227E+03
       354   8 -1.015891E+06 -6.240132E+04 -6.658279E+04  1.588612E+03 -5.006138E+03 -7.969786E+03
       354   9 -9.895842E+05 -5.589516E+04 -5.781714E+04  1.129843E+04 -1.975642E+03 -6.863067E+03
       354  10 -4.843443E+05  6.760214E+04  5.606052E+04  1.226300E+04 -2.360810E-09  5.715922E-09
       354  11 -5.106653E+05  6.297106E+04  5.461068E+04  2.548755E+03 -2.755140E-09  4.288690E-09
       354  12 -5.379695E+05  5.621219E+04  5.068413E+04  1.286262E+04  9.144454E-10 -6.398710E-10
       354  13 -7.638047E+05 -1.720245E+03 -1.090392E+04  1.208541E+04  1.980210E-09 -1.042904E-09
       354  14 -7.633073E+05  2.871558E+02 -5.983873E+03  2.068589E+03 -1.287992E-09  4.703180E-09
       354  15 -7.638003E+05  1.603492E+02 -3.564740E+03  1.208039E+04  6.842446E-10  6.829150E-09
       354  16 -1.043193E+06 -7.104831E+04 -7.787389E+04  1.190785E+04  7.839695E-10  4.940631E-09
       354  17 -1.015891E+06 -6.240139E+04 -6.658295E+04  1.588579E+03 -2.955928E-10  6.883606E-09
       354  18 -9.895842E+05 -5.589521E+04 -5.781723E+04  1.129842E+04 -1.594646E-09  5.156507E-09
       354  19 -4.843442E+05  6.760225E+04  5.606083E+04  1.226306E+04  9.044140E+03  9.009311E+03
       354  20 -5.106652E+05  6.297114E+04  5.461087E+04  2.548794E+03  6.080342E+03  7.972317E+03
       354  21 -5.379695E+05  5.621225E+04  5.068424E+04  1.286263E+04  3.117427E+03  6.866069E+03
       354  22 -7.638046E+05 -1.720138E+03 -1.090363E+04  1.208547E+04  8.540588E+03  9.008269E+03
       354  23 -7.633073E+05  2.872323E+02 -5.983696E+03  2.068625E+03  5.543131E+03  7.971051E+03
       354  24 -7.638002E+05  1.604016E+02 -3.564639E+03  1.208041E+04  2.546431E+03  6.864567E+03
       354  25 -1.043193E+06 -7.104820E+04 -7.787361E+04  1.190791E+04  8.037261E+03  9.007227E+03
       354  26 -1.015891E+06 -6.240132E+04 -6.658279E+04  1.588612E+03  5.006138E+03  7.969786E+03
       354  27 -9.895842E+05 -5.589516E+04 -5.781714E+04  1.129843E+04  1.975642E+03  6.863067E+03
       355   1 -5.744638E+05  4.681690E+04  4.248217E+04  1.260985E+04 -2.534280E+03 -6.210687E+03
       355   2 -6.018141E+05  4.016979E+04  3.700144E+04  2.313063E+03 -1.659881E+03 -5.095695E+03
       355   3 -6.294369E+05  3.339686E+04  3.089218E+04  1.254606E+04 -7.859573E+02 -3.967791E+03
       355   4 -7.636371E+05 -1.056539E+02 -2.810908E+03  1.219380E+04 -1.976888E+03 -6.209147E+03
       355   5 -7.634987E+05  5.080795E+01 -1.780095E+03  1.928419E+03 -1.096237E+03 -5.094048E+03
       355   6 -7.636351E+05  8.023674E+01 -1.382350E+03  1.219315E+04 -2.160233E+02 -3.966033E+03
       355   7 -9.527776E+05 -4.703080E+04 -4.810652E+04  1.177786E+04 -1.419665E+03 -6.207607E+03
       355   8 -9.251593E+05 -4.007008E+04 -4.056348E+04  1.543856E+03 -5.327393E+02 -5.092401E+03
       355   9 -8.978167E+05 -3.323770E+04 -3.365817E+04  1.184031E+04  3.537878E+02 -3.964275E+03
       355  10 -5.744638E+05  4.681685E+04  4.248209E+04  1.260984E+04  3.772620E-09 -7.601318E-10
       355  11 -6.018141E+05  4.016976E+04  3.700138E+04  2.313056E+03 -1.401074E-09  7.745503E-09
       355  12 -6.294369E+05  3.339684E+04  3.089215E+04  1.254606E+04 -2.815793E-09  6.399273E-09
       355  13 -7.636371E+05 -1.056963E+02 -2.810988E+03  1.219379E+04  1.569859E-09  2.338918E-09
       355  14 -7.634987E+05  5.077977E+01 -1.780146E+03  1.928414E+03 -1.382997E-09  6.299136E-09
       355  15 -7.636351E+05  8.021985E+01 -1.382380E+03  1.219315E+04 -9.172659E-10  1.215116E-09
       355  16 -9.527776E+05 -4.703084E+04 -4.810660E+04  1.177785E+04 -4.053144E-09  4.546250E-09
       355  17 -9.251593E+05 -4.007011E+04 -4.056353E+04  1.543854E+03 -9.081208E-10 -7.899781E-10
       355  18 -8.978167E+05 -3.323771E+04 -3.365820E+04  1.184031E+04  3.190778E-09 -2.014684E-09
       355  19 -5.744638E+05  4.681690E+04  4.248217E+04  1.260985E+04  2.534280E+03  6.210687E+03
       355  20 -6.018141E+05  4.016979E+04  3.700144E+04  2.313063E+03  1.659881E+03  5.095695E+03
       355  21 -6.294369E+05  3.339686E+04  3.089218E+04  1.254606E+04  7.859573E+02  3.967791E+03
       355  22 -7.636371E+05 -1.056539E+02 -2.810908E+03  1.219380E+04  1.976888E+03  6.209147E+03
       355  23 -7.634987E+05  5.080795E+01 -1.780095E+03  1.928419E+03  1.096237E+03  5.094048E+03
       355  24 -7.636351E+05  8.023674E+01 -1.382350E+03  1.219315E+04  2.160233E+02  3.966033E+03
       355  25 -9.527776E+05 -4.703080E+04 -4.810652E+04  1.177786E+04  1.419665E+03  6.207607E+03
       355  26 -9.251593E+05 -4.007008E+04 -4.056348E+04  1.543856E+03  5.327393E+02  5.092401E+03
       355  27 -8.978167E+05 -3.323770E+04 -3.365817E+04  1.184031E+04 -3.537878E+02  3.964275E+03
       356   1 -6.668042E+05  2.408476E+04  2.179455E+04  1.246747E+04 -5.426810E+02 -3.307487E+03
       356   2 -6.945214E+05  1.716603E+04  1.496427E+04  2.010118E+03  2.373191E+02 -2.170730E+03
       356   3 -7.225243E+05  1.016475E+04  7.569921E+03  1.236685E+04  1.017122E+03 -1.032041E+03
       356   4 -7.636352E+05  7.403999E+01 -1.347828E+03  1.225631E+04  2.802065E+01 -3.305681E+03
       356   5 -7.634918E+05  5.137913E+01 -1.579878E+03  1.849373E+03  8.089047E+02 -2.168884E+03
       356   6 -7.636346E+05 -5.384273E+01 -2.376492E+03  1.225666E+04  1.589627E+03 -1.030151E+03
       356   7 -8.604576E+05 -2.393736E+04 -2.449087E+04  1.204517E+04  5.986336E+02 -3.303875E+03
       356   8 -8.324578E+05 -1.706362E+04 -1.812436E+04  1.688643E+03  1.380427E+03 -2.167038E+03
       356   9 -8.047434E+05 -1.027255E+04 -1.232302E+04  1.214649E+04  2.162093E+03 -1.028263E+03
       356  10 -6.668042E+05  2.408475E+04  2.179453E+04  1.246747E+04  3.405052E-09  2.675043E-09
       356  11 -6.945214E+05  1.716602E+04  1.496426E+04  2.010119E+03  5.720923E-10  2.610930E-10
       356  12 -7.225243E+05  1.016474E+04  7.569917E+03  1.236685E+04 -1.176653E-09 -3.358304E-09
       356  13 -7.636352E+05  7.402826E+01 -1.347849E+03  1.225631E+04 -1.020119E-09  9.196193E-09
       356  14 -7.634918E+05  5.137390E+01 -1.579888E+03  1.849375E+03 -2.764506E-09  3.741905E-10
       356  15 -7.636346E+05 -5.384455E+01 -2.376498E+03  1.225667E+04 -5.233832E-10 -4.188634E-09
       356  16 -8.604576E+05 -2.393737E+04 -2.449089E+04  1.204517E+04 -4.847697E-09  3.843719E-09
       356  17 -8.324578E+05 -1.706362E+04 -1.812438E+04  1.688645E+03 -8.286671E-10  1.226084E-10
       356  18 -8.047434E+05 -1.027256E+04 -1.232303E+04  1.214649E+04  1.761562E-09 -5.862387E-09
       356  19 -6.668042E+05  2.408476E+04  2.179455E+04  1.246747E+04  5.426810E+02  3.307487E+03
       356  20 -6.945214E+05  1.716603E+04  1.496427E+04  2.010118E+03 -2.373191E+02  2.170730E+03
       356  21 -7.225243E+05  1.016475E+04  7.569921E+03  1.236685E+04 -1.017122E+03  1.032041E+03
       356  22 -7.636352E+05  7.403999E+01 -1.347828E+03  1.225631E+04 -2.802065E+01  3.305681E+03
       356  23 -7.634918E+05  5.137912E+01 -1.579878E+03  1.849373E+03 -8.089047E+02  2.168884E+03
       356  24 -7.636346E+05 -5.384273E+01 -2.376492E+03  1.225666E+04 -1.589627E+03  1.030151E+03
       356  25 -8.604576E+05 -2.393736E+04 -2.449087E+04  1.204517E+04 -5.986336E+02  3.303875E+03
       356  26 -8.324578E+05 -1.706362E+04 -1.812436E+04  1.688643E+03 -1.380427E+03  2.167038E+03
       356  27 -8.047434E+05 -1.027255E+04 -1.232302E+04  1.214649E+04 -2.162093E+03  1.028263E+03
       357   1 -7.603308E+05  9.967630E+02 -2.240856E+03  1.204200E+04  1.486641E+03 -3.621947E+02
       357   2 -7.878027E+05 -5.822682E+03 -1.081249E+04  1.808567E+03  3.974988E+03  7.850781E+02
       357   3 -8.161982E+05 -1.435785E+04 -2.147130E+04  1.244531E+04  6.463378E+03  1.901151E+03
       357   4 -7.637752E+05  1.609098E+02 -2.981860E+03  1.226718E+04  2.068066E+03 -3.602667E+02
       357   5 -7.633154E+05  2.537404E+02 -4.938667E+03  1.834624E+03  4.540787E+03  7.869386E+02
       357   6 -7.637770E+05 -1.366312E+03 -8.971613E+03  1.227220E+04  7.013661E+03  1.902945E+03
       357   7 -7.672197E+05 -6.749437E+02 -3.722863E+03  1.249236E+04  2.649488E+03 -3.583383E+02
       357   8 -7.388275E+05  6.330119E+03  9.351172E+02  1.860682E+03  5.106608E+03  7.887990E+02
       357   9 -7.113533E+05  1.162503E+04  3.527884E+03  1.209907E+04  7.563990E+03  1.904739E+03
       357  10 -7.603308E+05  9.967622E+02 -2.240860E+03  1.204200E+04 -4.891688E-09  1.917811E-09
       357  11 -7.878027E+05 -5.822687E+03 -1.081252E+04  1.808565E+03 -3.589330E-09  2.626649E-09
       357  12 -8.161983E+05 -1.435787E+04 -2.147139E+04  1.244530E+04 -1.760566E-09  3.733170E-09
       357  13 -7.637753E+05  1.609085E+02 -2.981868E+03  1.226718E+04  1.765188E-09 -1.992640E-09
       357  14 -7.633154E+05  2.537341E+02 -4.938707E+03  1.834621E+03 -6.216053E-10  2.603793E-09
       357  15 -7.637771E+05 -1.366329E+03 -8.971712E+03  1.227219E+04 -6.777586E-10  3.676480E-09
       357  16 -7.672197E+05 -6.749457E+02 -3.722876E+03  1.249237E+04  2.623601E-09 -1.645726E-09
       357  17 -7.388276E+05  6.330112E+03  9.350670E+02  1.860679E+03  3.605875E-09 -6.376954E-09
       357  18 -7.113534E+05  1.162501E+04  3.527769E+03  1.209906E+04  3.118152E-09  5.534268E-10
       357  19 -7.603308E+05  9.967630E+02 -2.240856E+03  1.204200E+04 -1.486641E+03  3.621947E+02
       357  20 -7.878027E+05 -5.822682E+03 -1.081249E+04  1.808567E+03 -3.974988E+03 -7.850781E+02
       357  21 -8.161982E+05 -1.435785E+04 -2.147130E+04  1.244531E+04 -6.463378E+03 -1.901151E+03
       357  22 -7.637752E+05  1.609098E+02 -2.981860E+03  1.226718E+04 -2.068066E+03  3.602667E+02
       357  23 -7.633154E+05  2.537404E+02 -4.938667E+03  1.834624E+03 -4.540787E+03 -7.869386E+02
       357  24 -7.637770E+05 -1.366312E+03 -8.971613E+03  1.227220E+04 -7.013661E+03 -1.902945E+03
       357  25 -7.672197E+05 -6.749437E+02 -3.722863E+03  1.249236E+04 -2.649488E+03  3.583383E+02
       357  26 -7.388275E+05  6.330119E+03  9.351172E+02  1.860682E+03 -5.106608E+03 -7.887990E+02
       357  27 -7.113533E+05  1.162503E+04  3.527884E+03  1.209907E+04 -7.563990E+03 -1.904739E+03
       358   1 -8.548226E+05 -2.155271E+04 -3.310501E+04  1.001553E+04  8.148536E+03  2.625229E+03
       358   2 -8.796401E+05 -2.709328E+04 -4.742631E+04  2.601763E+03  1.819082E+04  3.775920E+03
       358   3 -9.102704E+05 -5.004877E+04 -7.267802E+04  1.590920E+04  2.823397E+04  4.518217E+03
       358   4 -7.648564E+05  8.057062E+02 -1.144227E+04  1.222114E+04  8.815289E+03  2.627405E+03
       358   5 -7.619727E+05  2.099750E+03 -1.920348E+04  1.883796E+03  1.865361E+04  3.777317E+03
       358   6 -7.648660E+05 -1.398377E+04 -3.775168E+04  1.226758E+04  2.849324E+04  4.518775E+03
       358   7 -6.748828E+05  2.316355E+04  1.021990E+04  1.442706E+04  9.482139E+03  2.629585E+03
       358   8 -6.442926E+05  3.129178E+04  9.018367E+03  1.165683E+03  1.911648E+04  3.778712E+03
       358   9 -6.194422E+05  2.207974E+04 -2.826830E+03  8.625094E+03  2.875256E+04  4.519331E+03
       358  10 -8.548227E+05 -2.155274E+04 -3.310515E+04  1.001551E+04 -3.399754E-09  7.355992E-09
       358  11 -8.796405E+05 -2.709339E+04 -4.742696E+04  2.601708E+03 -1.222751E-09  2.640632E-09
       358  12 -9.102712E+05 -5.004900E+04 -7.267956E+04  1.590909E+04  1.880119E-09  3.903035E-09
       358  13 -7.648565E+05  8.056779E+02 -1.144243E+04  1.222112E+04  1.229721E-09  4.210709E-09
       358  14 -7.619731E+05  2.099641E+03 -1.920416E+04  1.883740E+03 -5.923608E-10  3.938613E-09
       358  15 -7.648669E+05 -1.398401E+04 -3.775324E+04  1.226748E+04  6.273656E-10 -2.255887E-09
       358  16 -6.748829E+05  2.316352E+04  1.021972E+04  1.442704E+04  2.816397E-09  3.724444E-09
       358  17 -6.442930E+05  3.129167E+04  9.017652E+03  1.165625E+03  1.122599E-09 -3.018544E-09
       358  18 -6.194431E+05  2.207949E+04 -2.828424E+03  8.624989E+03 -1.372210E-09 -8.021021E-09
       358  19 -8.548226E+05 -2.155271E+04 -3.310501E+04  1.001553E+04 -8.148536E+03 -2.625229E+03
       358  20 -8.796401E+05 -2.709328E+04 -4.742631E+04  2.601763E+03 -1.819082E+04 -3.775920E+03
       358  21 -9.102704E+05 -5.004877E+04 -7.267802E+04  1.590920E+04 -2.823397E+04 -4.518217E+03
       358  22 -7.648564E+05  8.057062E+02 -1.144227E+04  1.222114E+04 -8.815289E+03 -2.627405E+03
       358  23 -7.619727E+05  2.099750E+03 -1.920348E+04  1.883796E+03 -1.865361E+04 -3.777317E+03
       358  24 -7.648660E+05 -1.398377E+04 -3.775168E+04  1.226758E+04 -2.849324E+04 -4.518775E+03
       358  25 -6.748828E+05  2.316355E+04  1.021990E+04  1.442706E+04 -9.482139E+03 -2.629585E+03
       358  26 -6.442926E+05  3.129178E+04  9.018367E+03  1.165683E+03 -1.911648E+04 -3.778712E+03
       358  27 -6.194422E+05  2.207974E+04 -2.826830E+03  8.625094E+03 -2.875256E+04 -4.519331E+03
       359   1 -9.562789E+05 -3.842415E+04 -9.000892E+04 -6.067290E+03  3.384092E+04  5.944571E+03
       359   2 -9.601636E+05 -3.272224E+04 -1.241572E+05  1.373622E+04  7.646805E+04  6.993626E+03
       359   3 -1.011115E+06 -1.925884E+05 -2.274996E+05  5.401287E+04  1.191096E+05  2.651507E+03
       359   4 -7.739246E+05  6.961621E+03 -4.626455E+04  1.205542E+04  3.566825E+04  5.951018E+03
       359   5 -7.506604E+05  1.917173E+04 -7.396777E+04  2.018305E+03  7.559146E+04  6.989406E+03
       359   6 -7.739777E+05 -1.336891E+05 -1.689691E+05  1.245589E+04  1.155311E+05  2.633316E+03
       359   7 -5.915391E+05  5.234619E+04 -2.522354E+03  3.018346E+04  3.749611E+04  5.957571E+03
       359   8 -5.411166E+05  7.106305E+04 -2.378137E+04 -9.703618E+03  7.471457E+04  6.985220E+03
       359   9 -5.367855E+05 -7.478740E+04 -1.104418E+05 -2.911704E+04  1.119513E+05  2.615610E+03
       359  10 -9.562801E+05 -3.842450E+04 -9.001114E+04 -6.067452E+03 -2.869289E-09  1.623422E-09
       359  11 -9.601699E+05 -3.272386E+04 -1.241683E+05  1.373579E+04 -3.764672E-10  1.795696E-10
       359  12 -1.011130E+06 -1.925923E+05 -2.275263E+05  5.401262E+04  1.857422E-09  1.239423E-10
       359  13 -7.739259E+05  6.961241E+03 -4.626701E+04  1.205525E+04  1.640101E-09  6.900295E-09
       359  14 -7.506666E+05  1.917014E+04 -7.397861E+04  2.017879E+03 -1.047151E-09 -3.170029E-09
       359  15 -7.739921E+05 -1.336927E+05 -1.689942E+05  1.245564E+04  3.087141E-10  3.515095E-09
       359  16 -5.915406E+05  5.234577E+04 -2.525065E+03  3.018328E+04 -2.115703E-10  1.097754E-09
       359  17 -5.411226E+05  7.106149E+04 -2.379196E+04 -9.704038E+03  5.265414E-10 -4.211409E-10
       359  18 -5.367989E+05 -7.479078E+04 -1.104654E+05 -2.911728E+04 -8.888265E-10 -5.176387E-11
       359  19 -9.562789E+05 -3.842415E+04 -9.000892E+04 -6.067290E+03 -3.384092E+04 -5.944571E+03
       359  20 -9.601636E+05 -3.272224E+04 -1.241572E+05  1.373622E+04 -7.646805E+04 -6.993626E+03
       359  21 -1.011115E+06 -1.925884E+05 -2.274996E+05  5.401287E+04 -1.191096E+05 -2.651507E+03
       359  22 -7.739246E+05  6.961621E+03 -4.626455E+04  1.205542E+04 -3.566825E+04 -5.951018E+03
       359  23 -7.506604E+05  1.917173E+04 -7.396777E+04  2.018305E+03 -7.559146E+04 -6.989406E+03
       359  24 -7.739777E+05 -1.336891E+05 -1.689691E+05  1.245589E+04 -1.155311E+05 -2.633316E+03
       359  25 -5.915391E+05  5.234619E+04 -2.522354E+03  3.018346E+04 -3.749611E+04 -5.957571E+03
       359  26 -5.411166E+05  7.106305E+04 -2.378137E+04 -9.703618E+03 -7.471457E+04 -6.985220E+03
       359  27 -5.367855E+05 -7.478740E+04 -1.104418E+05 -2.911704E+04 -1.119513E+05 -2.615610E+03
       360   1  6.655491E+05  3.512911E+06  7.393627E+05 -2.745778E+05  1.336062E+04  2.607749E+05
       360   2  2.503281E+05  3.125662E+06  4.507063E+05 -8.559784E+04  3.779682E+04  1.514999E+05
       360   3  1.995220E+05  2.843708E+06  3.240237E+05 -1.445996E+05  2.600982E+04  4.219584E+04
       360   4  2.878516E+05  1.995339E+06  3.656752E+05 -1.808369E+05  1.344255E+04  2.390076E+05
       360   5 -4.180574E+04  1.944425E+06  1.687601E+05 -5.715236E+04  3.781610E+04  1.482621E+05
       360   6 -9.867996E+03  1.995754E+06  1.212627E+05 -1.814388E+05  2.595895E+04  5.742695E+04
       360   7 -8.998449E+04  4.798688E+05 -8.175862E+03 -8.732304E+04  1.351807E+04  2.172926E+05
       360   8 -3.340374E+05  7.644637E+05 -1.132837E+05 -2.876015E+04  3.783511E+04  1.450301E+05
       360   9 -2.193044E+05  1.148459E+06 -8.154725E+04 -2.182270E+05  2.590623E+04  7.263738E+04
       360  10  6.655308E+05  3.512838E+06  7.392353E+05 -2.745806E+05  2.962174E-11  1.558975E-09
       360  11  2.503205E+05  3.125637E+06  4.506607E+05 -8.560245E+04 -5.837446E-10 -5.204852E-09
       360  12  1.995208E+05  2.843706E+06  3.240191E+05 -1.446005E+05  8.865193E-10  6.203954E-10
       360  13  2.878361E+05  1.995277E+06  3.655678E+05 -1.808395E+05 -2.079525E-10 -2.206217E-09
       360  14 -4.181316E+04  1.944402E+06  1.687162E+05 -5.715687E+04 -1.620386E-09 -4.116757E-09
       360  15 -9.869603E+03  1.995750E+06  1.212552E+05 -1.814400E+05 -5.459169E-10 -3.748263E-10
       360  16 -8.999735E+04  4.798181E+05 -8.264865E+03 -8.732541E+04  8.205779E-10  1.947595E-09
       360  17 -3.340446E+05  7.644408E+05 -1.133259E+05 -2.876457E+04  1.094937E-09 -2.166389E-09
       360  18 -2.193065E+05  1.148453E+06 -8.155841E+04 -2.182285E+05 -2.333727E-09 -3.672010E-09
       360  19  6.655491E+05  3.512911E+06  7.393627E+05 -2.745778E+05 -1.336062E+04 -2.607749E+05
       360  20  2.503281E+05  3.125662E+06  4.507063E+05 -8.559784E+04 -3.779682E+04 -1.514999E+05
       360  21  1.995220E+05  2.843708E+06  3.240237E+05 -1.445996E+05 -2.600982E+04 -4.219584E+04
       360  22  2.878516E+05  1.995339E+06  3.656752E+05 -1.808369E+05 -1.344255E+04 -2.390076E+05
       360  23 -4.180574E+04  1.944425E+06  1.687601E+05 -5.715236E+04 -3.781610E+04 -1.482621E+05
       360  24 -9.867996E+03  1.995754E+06  1.212627E+05 -1.814388E+05 -2.595895E+04 -5.742695E+04
       360  25 -8.998449E+04  4.798688E+05 -8.175862E+03 -8.732304E+04 -1.351807E+04 -2.172926E+05
       360  26 -3.340374E+05  7.644637E+05 -1.132837E+05 -2.876015E+04 -3.783511E+04 -1.450301E+05
       360  27 -2.193044E+05  1.148459E+06 -8.154725E+04 -2.182270E+05 -2.590623E+04 -7.263738E+04
       361   1  1.292079E+05  2.381855E+06  2.060452E+05 -1.953924E+05  1.269871E+04  3.220823E+04
       361   2  8.783837E+03  2.040091E+06  1.082568E+05 -5.772736E+04  2.378536E+03 -1.442618E+04
       361   3 -2.670183E+04  1.723684E+06  6.154709E+04 -1.651397E+05 -8.165669E+03 -6.103911E+04
       361   4  2.939132E+04  1.978738E+06  1.096977E+05 -1.805638E+05  1.268147E+04  3.743745E+04
       361   5 -9.512158E+03  1.966119E+06  9.056989E+04 -5.801492E+04  2.359912E+03 -9.070657E+03
       361   6  3.651409E+04  1.978737E+06  1.224496E+05 -1.805373E+05 -8.183790E+03 -5.558151E+04
       361   7 -7.043622E+04  1.575769E+06  1.333895E+04 -1.657446E+05  1.266447E+04  4.266330E+04
       361   8 -2.780853E+04  1.892151E+06  7.288273E+04 -5.830243E+04  2.341282E+03 -3.715766E+03
       361   9  9.972618E+04  2.233850E+06  1.833477E+05 -1.959412E+05 -8.202178E+03 -5.012169E+04
       361  10  1.292075E+05  2.381854E+06  2.060430E+05 -1.953927E+05  6.716986E-10  5.084700E-09
       361  11  8.783776E+03  2.040091E+06  1.082564E+05 -5.772733E+04  1.568257E-09 -8.600591E-09
       361  12 -2.670290E+04  1.723680E+06  6.153998E+04 -1.651401E+05 -2.820211E-10 -1.551598E-09
       361  13  2.939077E+04  1.978736E+06  1.096948E+05 -1.805642E+05 -9.308261E-10 -3.155346E-09
       361  14 -9.512186E+03  1.966119E+06  9.056973E+04 -5.801490E+04  2.814067E-09 -8.306957E-09
       361  15  3.651319E+04  1.978734E+06  1.224437E+05 -1.805377E+05  1.694901E-09 -9.238873E-10
       361  16 -7.043688E+04  1.575767E+06  1.333523E+04 -1.657451E+05 -1.682280E-09  1.891583E-09
       361  17 -2.780854E+04  1.892151E+06  7.288269E+04 -5.830243E+04 -7.922884E-10 -2.165697E-09
       361  18  9.972544E+04  2.233848E+06  1.833429E+05 -1.959416E+05 -2.980069E-09 -1.776192E-09
       361  19  1.292079E+05  2.381855E+06  2.060452E+05 -1.953924E+05 -1.269871E+04 -3.220823E+04
       361  20  8.783837E+03  2.040091E+06  1.082568E+05 -5.772736E+04 -2.378536E+03  1.442618E+04
       361  21 -2.670183E+04  1.723684E+06  6.154709E+04 -1.651397E+05  8.165669E+03  6.103911E+04
       361  22  2.939132E+04  1.978738E+06  1.096977E+05 -1.805638E+05 -1.268147E+04 -3.743745E+04
       361  23 -9.512158E+03  1.966119E+06  9.056989E+04 -5.801492E+04 -2.359912E+03  9.070657E+03
       361  24  3.651409E+04  1.978737E+06  1.224496E+05 -1.805373E+05  8.183790E+03  5.558151E+04
       361  25 -7.043622E+04  1.575769E+06  1.333895E+04 -1.657446E+05 -1.266447E+04 -4.266330E+04
       361  26 -2.780853E+04  1.892151E+06  7.288273E+04 -5.830243E+04 -2.341282E+03  3.715766E+03
       361  27  9.972618E+04  2.233850E+06  1.833477E+05 -1.959412E+05  8.202178E+03  5.012169E+04
       362   1 -1.863458E+05  1.301902E+06 -2.792780E+04 -2.266995E+05 -2.096069E+04 -9.261050E+04
       362   2 -3.058948E+05  9.084241E+05 -4.384830E+04 -2.327161E+04 -3.288547E+04 -1.847968E+05
       362   3  1.157011E+04  6.359760E+05  1.094125E+05 -6.683398E+04 -1.178323E+04 -2.768391E+05
       362   4 -1.379308E+04  2.000544E+06  1.393453E+05 -1.812832E+05 -2.101607E+04 -7.818526E+04
       362   5 -5.072242E+04  1.938536E+06  2.023538E+05 -5.739575E+04 -3.286570E+04 -1.872073E+05
       362   6  3.518565E+05  2.000089E+06  4.459798E+05 -1.804384E+05 -1.168896E+04 -2.961367E+05
       362   7  1.587325E+05  2.699637E+06  3.065860E+05 -1.358153E+05 -2.106931E+04 -6.374384E+04
       362   8  2.043774E+05  2.969620E+06  4.484818E+05 -9.157597E+04 -3.284569E+04 -1.896216E+05
       362   9  6.920521E+05  3.365918E+06  7.824175E+05 -2.942913E+05 -1.158778E+04 -3.154760E+05
       362  10 -1.863486E+05  1.301893E+06 -2.794471E+04 -2.267011E+05 -2.453927E-10  5.228373E-09
       362  11 -3.059051E+05  9.083872E+05 -4.391441E+04 -2.327651E+04 -1.042010E-10 -4.420876E-09
       362  12  1.154941E+04  6.358937E+05  1.092684E+05 -6.683661E+04 -7.487809E-10  2.240181E-11
       362  13 -1.379519E+04  2.000537E+06  1.393330E+05 -1.812845E+05 -3.522318E-09 -2.478880E-09
       362  14 -5.073295E+04  1.938498E+06  2.022861E+05 -5.740070E+04  2.096349E-09 -6.007645E-09
       362  15  3.518329E+05  1.999995E+06  4.458152E+05 -1.804412E+05 -3.139418E-10 -1.908998E-10
       362  16  1.587309E+05  2.699632E+06  3.065776E+05 -1.358163E+05 -1.093700E-09  1.237529E-09
       362  17  2.043666E+05  2.969581E+06  4.484126E+05 -9.158098E+04  3.371250E-09 -4.208203E-09
       362  18  6.920254E+05  3.365811E+06  7.822312E+05 -2.942942E+05  4.211150E-10 -1.827637E-09
       362  19 -1.863458E+05  1.301902E+06 -2.792780E+04 -2.266995E+05  2.096069E+04  9.261050E+04
       362  20 -3.058948E+05  9.084241E+05 -4.384830E+04 -2.327161E+04  3.288547E+04  1.847968E+05
       362  21  1.157011E+04  6.359760E+05  1.094125E+05 -6.683398E+04  1.178323E+04  2.768391E+05
       362  22 -1.379308E+04  2.000544E+06  1.393453E+05 -1.812832E+05  2.101607E+04  7.818526E+04
       362  23 -5.072242E+04  1.938536E+06  2.023538E+05 -5.739575E+04  3.286570E+04  1.872073E+05
       362  24  3.518565E+05  2.000089E+06  4.459798E+05 -1.804384E+05  1.168896E+04  2.961367E+05
       362  25  1.587325E+05  2.699637E+06  3.065860E+05 -1.358153E+05  2.106931E+04  6.374384E+04
       362  26  2.043774E+05  2.969620E+06  4.484818E+05 -9.157597E+04  3.284569E+04  1.896216E+05
       362  27  6.920521E+05  3.365918E+06  7.824175E+05 -2.942913E+05  1.158778E+04  3.154760E+05
       363   1  1.290336E+05  3.093077E+04  1.284608E+03  2.659310E+04 -6.309939E+04 -2.877323E+04
       363   2  1.250261E+05  1.183748E+05  5.665966E+04 -2.375074E+03 -3.877584E+04 -2.968571E+04
       363   3  6.640247E+04  1.188160E+05  6.874116E+04  1.109133E+04 -1.811522E+04 -2.088046E+04
       363   4 -3.052134E+05 -1.091031E+05 -1.121056E+05 -6.733590E+04 -6.951912E+04 -3.119478E+04
       363   5 -2.716190E+05 -2.419162E+04 -4.675035E+04 -1.039781E+05 -4.062599E+04 -3.038447E+04
       363   6 -2.935741E+05 -2.722753E+04 -2.833431E+04 -9.817799E+04 -1.539518E+04 -1.985433E+04
       363   7 -7.392750E+05 -2.491358E+05 -2.255097E+05 -1.612105E+05 -7.593382E+04 -3.361505E+04
       363   8 -6.681101E+05 -1.667511E+05 -1.501729E+05 -2.055237E+05 -4.247483E+04 -3.108279E+04
       363   9 -6.534246E+05 -1.732572E+05 -1.254212E+05 -2.073880E+05 -1.267686E+04 -1.882896E+04
       363  10  1.290291E+05  3.092881E+04  1.275572E+03  2.659164E+04  1.570954E-11  5.278117E-11
       363  11  1.250242E+05  1.183735E+05  5.665518E+04 -2.376001E+03  1.784751E-09  1.834779E-09
       363  12  6.640201E+04  1.188155E+05  6.873972E+04  1.109103E+04  5.431425E-09 -1.749905E-09
       363  13 -3.052188E+05 -1.091054E+05 -1.121165E+05 -6.733765E+04  1.389774E-09  2.237991E-09
       363  14 -2.716210E+05 -2.419305E+04 -4.675518E+04 -1.039791E+05  1.244466E-09  9.123102E-10
       363  15 -2.935744E+05 -2.722801E+04 -2.833549E+04 -9.817824E+04  1.946062E-09  9.136578E-10
       363  16 -7.392815E+05 -2.491386E+05 -2.255227E+05 -1.612125E+05  1.628157E-09  1.474331E-09
       363  17 -6.681123E+05 -1.667526E+05 -1.501781E+05 -2.055247E+05  4.283590E-09 -2.052818E-09
       363  18 -6.534249E+05 -1.732577E+05 -1.254222E+05 -2.073882E+05 -1.357009E-09 -3.499000E-09
       363  19  1.290336E+05  3.093077E+04  1.284608E+03  2.659310E+04  6.309939E+04  2.877323E+04
       363  20  1.250261E+05  1.183748E+05  5.665966E+04 -2.375074E+03  3.877584E+04  2.968571E+04
       363  21  6.640247E+04  1.188160E+05  6.874116E+04  1.109133E+04  1.811522E+04  2.088046E+04
       363  22 -3.052134E+05 -1.091031E+05 -1.121056E+05 -6.733590E+04  6.951912E+04  3.119478E+04
       363  23 -2.716190E+05 -2.419162E+04 -4.675035E+04 -1.039781E+05  4.062599E+04  3.038447E+04
       363  24 -2.935741E+05 -2.722753E+04 -2.833431E+04 -9.817799E+04  1.539518E+04  1.985433E+04
       363  25 -7.392750E+05 -2.491358E+05 -2.255097E+05 -1.612105E+05  7.593382E+04  3.361505E+04
       363  26 -6.681101E+05 -1.667511E+05 -1.501729E+05 -2.055237E+05  4.247483E+04  3.108279E+04
       363  27 -6.534246E+05 -1.732572E+05 -1.254212E+05 -2.073880E+05  1.267686E+04  1.882896E+04
       364   1  4.315361E+04  8.443832E+04  6.478120E+04 -2.461669E+03 -1.207782E+04 -1.629926E+04
       364   2  2.713596E+04  7.923623E+04  7.000572E+04 -1.911462E+04 -6.810562E+03 -1.398967E+04
       364   3 -8.184508E+03  7.731478E+04  6.819380E+04 -1.647522E+04 -1.843713E+03 -1.088693E+04
       364   4 -2.900576E+05 -3.881701E+04 -2.306277E+04 -9.131459E+04 -1.212576E+04 -1.631789E+04
       364   5 -2.797233E+05 -3.591225E+04 -1.104183E+04 -1.026617E+05 -6.487113E+03 -1.386793E+04
       364   6 -2.887685E+05 -2.980361E+04 -6.354722E+03 -9.471566E+04 -1.148703E+03 -1.062457E+04
       364   7 -6.231627E+05 -1.620670E+05 -1.109165E+05 -1.801253E+05 -1.217366E+04 -1.633650E+04
       364   8 -5.864920E+05 -1.510553E+05 -9.209759E+04 -1.861718E+05 -6.163837E+03 -1.374625E+04
       364   9 -5.692766E+05 -1.369167E+05 -8.091010E+04 -1.729241E+05 -4.540382E+02 -1.036234E+04
       364  10  4.315338E+04  8.443800E+04  6.478043E+04 -2.461828E+03  1.670433E-09 -4.223275E-09
       364  11  2.713586E+04  7.923601E+04  7.000526E+04 -1.911470E+04 -2.258765E-09 -2.067583E-09
       364  12 -8.184543E+03  7.731465E+04  6.819357E+04 -1.647523E+04 -1.476400E-09 -1.641154E-09
       364  13 -2.900578E+05 -3.881734E+04 -2.306354E+04 -9.131474E+04  2.554704E-10 -3.284728E-10
       364  14 -2.797234E+05 -3.591247E+04 -1.104227E+04 -1.026618E+05  3.382001E-09 -4.281905E-09
       364  15 -2.887686E+05 -2.980373E+04 -6.354936E+03 -9.471567E+04 -4.115980E-10 -1.470640E-10
       364  16 -6.231629E+05 -1.620673E+05 -1.109173E+05 -1.801254E+05 -3.879640E-10 -4.150365E-09
       364  17 -5.864921E+05 -1.510555E+05 -9.209802E+04 -1.861719E+05  8.292979E-10 -3.586812E-10
       364  18 -5.692766E+05 -1.369168E+05 -8.091030E+04 -1.729241E+05  4.067154E-09 -2.712809E-09
       364  19  4.315361E+04  8.443832E+04  6.478120E+04 -2.461669E+03  1.207782E+04  1.629926E+04
       364  20  2.713596E+04  7.923623E+04  7.000572E+04 -1.911462E+04  6.810562E+03  1.398967E+04
       364  21 -8.184508E+03  7.731478E+04  6.819380E+04 -1.647522E+04  1.843713E+03  1.088693E+04
       364  22 -2.900576E+05 -3.881701E+04 -2.306277E+04 -9.131459E+04  1.212576E+04  1.631789E+04
       364  23 -2.797233E+05 -3.591225E+04 -1.104183E+04 -1.026617E+05  6.487113E+03  1.386793E+04
       364  24 -2.887685E+05 -2.980361E+04 -6.354722E+03 -9.471566E+04  1.148703E+03  1.062457E+04
       364  25 -6.231627E+05 -1.620670E+05 -1.109165E+05 -1.801253E+05  1.217366E+04  1.633650E+04
       364  26 -5.864920E+05 -1.510553E+05 -9.209759E+04 -1.861718E+05  6.163837E+03  1.374625E+04
       364  27 -5.692766E+05 -1.369167E+05 -8.091010E+04 -1.729241E+05  4.540382E+02  1.036234E+04
       365   1 -4.339950E+04  6.124112E+04  5.974156E+04 -2.684791E+04 -9.905926E+02 -9.708847E+03
       365   2 -6.114678E+04  4.557416E+04  5.551790E+04 -4.234121E+04 -1.158683E+02 -8.197112E+03
       365   3 -9.422419E+04  4.342956E+04  5.003021E+04 -4.081597E+04  7.318775E+02 -6.615939E+03
       365   4 -2.883647E+05 -3.101423E+04 -4.962709E+03 -9.389589E+04 -5.183054E+02 -9.530553E+03
       365   5 -2.806233E+05 -3.727492E+04 -2.555158E+03 -1.025929E+05  3.887343E+02 -8.006456E+03
       365   6 -2.882199E+05 -3.001951E+04 -1.437679E+03 -9.427092E+04  1.268850E+03 -6.412883E+03
       365   7 -5.332714E+05 -1.232657E+05 -6.967196E+04 -1.609199E+05 -4.622398E+01 -9.352337E+03
       365   8 -5.000534E+05 -1.201210E+05 -6.063238E+04 -1.628253E+05  8.931410E+02 -7.815874E+03
       365   9 -4.821798E+05 -1.034664E+05 -5.290897E+04 -1.477109E+05  1.805639E+03 -6.209897E+03
       365  10 -4.339952E+04  6.124101E+04  5.974138E+04 -2.684792E+04  2.002220E-09 -2.601465E-09
       365  11 -6.114680E+04  4.557409E+04  5.551778E+04 -4.234121E+04 -1.077009E-09 -7.441283E-09
       365  12 -9.422421E+04  4.342951E+04  5.003013E+04 -4.081597E+04 -3.772336E-09 -1.210972E-09
       365  13 -2.883648E+05 -3.101432E+04 -4.962880E+03 -9.389589E+04  1.786804E-09 -2.310289E-09
       365  14 -2.806234E+05 -3.727499E+04 -2.555279E+03 -1.025929E+05  4.427630E-09  9.728564E-09
       365  15 -2.882199E+05 -3.001955E+04 -1.437759E+03 -9.427092E+04  3.313534E-09 -8.306061E-10
       365  16 -5.332714E+05 -1.232657E+05 -6.967212E+04 -1.609199E+05  4.077831E-10 -1.854247E-09
       365  17 -5.000534E+05 -1.201211E+05 -6.063249E+04 -1.628253E+05  3.282027E-09 -2.563886E-09
       365  18 -4.821798E+05 -1.034664E+05 -5.290905E+04 -1.477109E+05  4.042077E-09 -1.761228E-09
       365  19 -4.339950E+04  6.124112E+04  5.974156E+04 -2.684791E+04  9.905926E+02  9.708847E+03
       365  20 -6.114678E+04  4.557416E+04  5.551790E+04 -4.234121E+04  1.158683E+02  8.197112E+03
       365  21 -9.422419E+04  4.342956E+04  5.003021E+04 -4.081597E+04 -7.318775E+02  6.615939E+03
       365  22 -2.883647E+05 -3.101423E+04 -4.962709E+03 -9.389589E+04  5.183054E+02  9.530553E+03
       365  23 -2.806233E+05 -3.727492E+04 -2.555158E+03 -1.025929E+05 -3.887343E+02  8.006456E+03
       365  24 -2.882199E+05 -3.001951E+04 -1.437679E+03 -9.427092E+04 -1.268850E+03  6.412883E+03
       365  25 -5.332714E+05 -1.232657E+05 -6.967196E+04 -1.609199E+05  4.622398E+01  9.352337E+03
       365  26 -5.000534E+05 -1.201210E+05 -6.063238E+04 -1.628253E+05 -8.931410E+02  7.815874E+03
       365  27 -4.821798E+05 -1.034664E+05 -5.290897E+04 -1.477109E+05 -1.805639E+03  6.209897E+03
       366   1 -1.311853E+05  2.917713E+04  4.035442E+04 -5.099383E+04  7.098055E+02 -5.876729E+03
       366   2 -1.492880E+05  1.220334E+04  3.417723E+04 -6.649772E+04  5.908069E+02 -4.658148E+03
       366   3 -1.823890E+05  1.001698E+04  2.774420E+04 -6.508354E+04  4.682012E+02 -3.431117E+03
       366   4 -2.881959E+05 -3.012027E+04 -1.105403E+03 -9.414684E+04  1.229456E+03 -5.680142E+03
       366   5 -2.806871E+05 -3.745648E+04 -6.041359E+02 -1.026272E+05  1.114391E+03 -4.459983E+03
       366   6 -2.881783E+05 -3.000606E+04 -3.619142E+02 -9.418957E+04  9.957299E+02 -3.231368E+03
       366   7 -4.451827E+05 -8.941611E+04 -4.256734E+04 -1.372900E+05  1.748963E+03 -5.483609E+03
       366   8 -4.120693E+05 -8.711516E+04 -3.538694E+04 -1.387497E+05  1.637852E+03 -4.261866E+03
       366   9 -3.939565E+05 -7.002829E+04 -2.846892E+04 -1.232911E+05  1.523158E+03 -3.031657E+03
       366  10 -1.311853E+05  2.917709E+04  4.035436E+04 -5.099383E+04 -1.252177E-09  4.500103E-09
       366  11 -1.492880E+05  1.220332E+04  3.417719E+04 -6.649772E+04  1.341685E-10  6.220885E-09
       366  12 -1.823890E+05  1.001696E+04  2.774418E+04 -6.508354E+04  2.635253E-09 -2.099577E-09
       366  13 -2.881959E+05 -3.012030E+04 -1.105466E+03 -9.414683E+04  6.725300E-10  1.046670E-09
       366  14 -2.806871E+05 -3.745651E+04 -6.041756E+02 -1.026272E+05  3.070871E-09 -1.714450E-09
       366  15 -2.881783E+05 -3.000607E+04 -3.619357E+02 -9.418957E+04  1.098089E-09  1.696390E-09
       366  16 -4.451827E+05 -8.941614E+04 -4.256741E+04 -1.372900E+05  6.488940E-09 -1.877212E-10
       366  17 -4.120693E+05 -8.711518E+04 -3.538698E+04 -1.387497E+05 -3.633720E-10  1.074429E-08
       366  18 -3.939565E+05 -7.002830E+04 -2.846894E+04 -1.232911E+05 -1.726525E-09  3.459844E-09
       366  19 -1.311853E+05  2.917713E+04  4.035442E+04 -5.099383E+04 -7.098055E+02  5.876729E+03
       366  20 -1.492880E+05  1.220334E+04  3.417723E+04 -6.649772E+04 -5.908069E+02  4.658148E+03
       366  21 -1.823890E+05  1.001698E+04  2.774420E+04 -6.508354E+04 -4.682012E+02  3.431117E+03
       366  22 -2.881959E+05 -3.012027E+04 -1.105403E+03 -9.414684E+04 -1.229456E+03  5.680142E+03
       366  23 -2.806871E+05 -3.745648E+04 -6.041359E+02 -1.026272E+05 -1.114391E+03  4.459983E+03
       366  24 -2.881783E+05 -3.000606E+04 -3.619142E+02 -9.418957E+04 -9.957299E+02  3.231368E+03
       366  25 -4.451827E+05 -8.941611E+04 -4.256734E+04 -1.372900E+05 -1.748963E+03  5.483609E+03
       366  26 -4.120693E+05 -8.711516E+04 -3.538694E+04 -1.387497E+05 -1.637852E+03  4.261866E+03
       366  27 -3.939565E+05 -7.002829E+04 -2.846892E+04 -1.232911E+05 -1.523158E+03  3.031657E+03
       367   1 -2.197550E+05 -4.149660E+03  1.772086E+04 -7.533429E+04  2.762012E+02 -2.759488E+03
       367   2 -2.379573E+05 -2.133826E+04  1.108034E+04 -9.089980E+04 -3.201667E+01 -1.599141E+03
       367   3 -2.711977E+05 -2.355823E+04  4.343694E+03 -8.948867E+04 -3.397920E+02 -4.403004E+02
       367   4 -2.881898E+05 -3.000156E+04 -2.974432E+02 -9.416199E+04  8.034565E+02 -2.559800E+03
       367   5 -2.806708E+05 -3.748725E+04 -2.277234E+02 -1.026498E+05  4.945215E+02 -1.399695E+03
       367   6 -2.881898E+05 -3.000394E+04 -2.533808E+02 -9.416098E+04  1.860334E+02 -2.410927E+02
       367   7 -3.566203E+05 -5.585323E+04 -1.831620E+04 -1.129879E+05  1.330649E+03 -2.360135E+03
       367   8 -3.233825E+05 -5.363614E+04 -1.153596E+04 -1.143991E+05  1.021021E+03 -1.200263E+03
       367   9 -3.051817E+05 -3.644964E+04 -4.850481E+03 -9.883317E+04  7.118429E+02 -4.189088E+01
       367  10 -2.197550E+05 -4.149669E+03  1.772084E+04 -7.533429E+04 -4.833741E-09  4.226059E-09
       367  11 -2.379573E+05 -2.133827E+04  1.108033E+04 -9.089980E+04 -4.756455E-09  7.187002E-09
       367  12 -2.711977E+05 -2.355823E+04  4.343694E+03 -8.948867E+04 -1.874425E-09  5.532126E-10
       367  13 -2.881898E+05 -3.000157E+04 -2.974567E+02 -9.416199E+04 -3.264548E-09  1.034830E-08
       367  14 -2.806708E+05 -3.748725E+04 -2.277275E+02 -1.026498E+05 -4.271776E-09 -2.956889E-09
       367  15 -2.881898E+05 -3.000394E+04 -2.533810E+02 -9.416098E+04 -2.594088E-09  5.744932E-09
       367  16 -3.566203E+05 -5.585324E+04 -1.831621E+04 -1.129879E+05  3.198123E-09  1.118494E-08
       367  17 -3.233825E+05 -5.363615E+04 -1.153596E+04 -1.143991E+05 -9.263040E-10  1.231577E-08
       367  18 -3.051817E+05 -3.644964E+04 -4.850482E+03 -9.883317E+04 -1.291688E-09  5.432055E-09
       367  19 -2.197550E+05 -4.149660E+03  1.772086E+04 -7.533429E+04 -2.762012E+02  2.759488E+03
       367  20 -2.379573E+05 -2.133826E+04  1.108034E+04 -9.089980E+04  3.201667E+01  1.599141E+03
       367  21 -2.711977E+05 -2.355823E+04  4.343694E+03 -8.948867E+04  3.397920E+02  4.403004E+02
       367  22 -2.881898E+05 -3.000156E+04 -2.974432E+02 -9.416199E+04 -8.034565E+02  2.559800E+03
       367  23 -2.806708E+05 -3.748725E+04 -2.277234E+02 -1.026498E+05 -4.945215E+02  1.399695E+03
       367  24 -2.881898E+05 -3.000394E+04 -2.533808E+02 -9.416098E+04 -1.860334E+02  2.410927E+02
       367  25 -3.566203E+05 -5.585323E+04 -1.831620E+04 -1.129879E+05 -1.330649E+03  2.360135E+03
       367  26 -3.233825E+05 -5.363614E+04 -1.153596E+04 -1.143991E+05 -1.021021E+03  1.200263E+03
       367  27 -3.051817E+05 -3.644964E+04 -4.850481E+03 -9.883317E+04 -7.118429E+02  4.189088E+01
       368   1 -3.086443E+05 -3.775420E+04 -5.806640E+03 -9.981613E+04 -5.549951E+02  2.295745E+02
       368   2 -3.268346E+05 -5.491565E+04 -1.267534E+04 -1.153458E+05 -7.307121E+02  1.441224E+03
       368   3 -3.601395E+05 -5.728620E+04 -1.978597E+04 -1.138609E+05 -8.911056E+02  2.612810E+03
       368   4 -2.881976E+05 -2.998392E+04 -2.911582E+02 -9.417489E+04 -1.826092E+01  4.329136E+02
       368   5 -2.806541E+05 -3.746372E+04 -4.510178E+02 -1.026509E+05 -2.128802E+02  1.637368E+03
       368   6 -2.882219E+05 -3.014899E+04 -8.377181E+02 -9.411260E+04 -3.921663E+02  2.801769E+03
       368   7 -2.677507E+05 -2.221362E+04  5.224273E+03 -8.853349E+04  5.184913E+02  6.362595E+02
       368   8 -2.344716E+05 -2.001165E+04  1.177312E+04 -8.995503E+04  3.049941E+02  1.833528E+03
       368   9 -2.162991E+05 -3.011370E+03  1.811015E+04 -7.436215E+04  1.068379E+02  2.990753E+03
       368  10 -3.086443E+05 -3.775420E+04 -5.806641E+03 -9.981613E+04  1.033502E-09 -2.017007E-09
       368  11 -3.268346E+05 -5.491566E+04 -1.267535E+04 -1.153458E+05  1.529139E-09  9.562859E-10
       368  12 -3.601395E+05 -5.728621E+04 -1.978599E+04 -1.138609E+05 -3.059069E-09 -4.015915E-09
       368  13 -2.881976E+05 -2.998392E+04 -2.911585E+02 -9.417489E+04 -1.080447E-09  8.047768E-09
       368  14 -2.806541E+05 -3.746372E+04 -4.510229E+02 -1.026509E+05 -2.377506E-09  1.186497E-09
       368  15 -2.882219E+05 -3.014899E+04 -8.377331E+02 -9.411260E+04  1.273153E-09 -6.700089E-09
       368  16 -2.677507E+05 -2.221362E+04  5.224271E+03 -8.853349E+04 -1.707506E-09  1.741237E-09
       368  17 -2.344716E+05 -2.001165E+04  1.177312E+04 -8.995503E+04 -7.259305E-10  6.801019E-09
       368  18 -2.162991E+05 -3.011380E+03  1.811013E+04 -7.436215E+04  3.517581E-09  7.325074E-09
       368  19 -3.086443E+05 -3.775420E+04 -5.806640E+03 -9.981613E+04  5.549951E+02 -2.295745E+02
       368  20 -3.268346E+05 -5.491565E+04 -1.267534E+04 -1.153458E+05  7.307121E+02 -1.441224E+03
       368  21 -3.601395E+05 -5.728620E+04 -1.978597E+04 -1.138609E+05  8.911056E+02 -2.612810E+03
       368  22 -2.881976E+05 -2.998392E+04 -2.911582E+02 -9.417489E+04  1.826092E+01 -4.329136E+02
       368  23 -2.806541E+05 -3.746372E+04 -4.510178E+02 -1.026509E+05  2.128802E+02 -1.637368E+03
       368  24 -2.882219E+05 -3.014899E+04 -8.377181E+02 -9.411260E+04  3.921663E+02 -2.801769E+03
       368  25 -2.677507E+05 -2.221362E+04  5.224273E+03 -8.853349E+04 -5.184913E+02 -6.362595E+02
       368  26 -2.344716E+05 -2.001165E+04  1.177312E+04 -8.995503E+04 -3.049941E+02 -1.833528E+03
       368  27 -2.162991E+05 -3.011370E+03  1.811015E+04 -7.436215E+04 -1.068379E+02 -2.990753E+03
       369   1 -3.973820E+05 -7.141591E+04 -3.007525E+04 -1.244606E+05 -1.146915E+03  3.337850E+03
       369   2 -4.154216E+05 -8.810783E+04 -3.751957E+04 -1.396293E+05 -3.830810E+02  4.891054E+03
       369   3 -4.492204E+05 -9.180066E+04 -4.636039E+04 -1.374505E+05  5.646023E+02  5.959470E+03
       369   4 -2.882746E+05 -2.995711E+04 -1.062920E+03 -9.425937E+04 -5.110892E+02  3.578608E+03
       369   5 -2.805256E+05 -3.722929E+04 -1.835024E+03 -1.026493E+05  2.428717E+01  5.045208E+03
       369   6 -2.884909E+05 -3.145706E+04 -3.822100E+03 -9.369218E+04  7.435462E+02  6.027091E+03
       369   7 -1.791557E+05  1.150246E+04  2.794837E+04 -6.405338E+04  1.248598E+02  3.819413E+03
       369   8 -1.456123E+05  1.365030E+04  3.384790E+04 -6.566216E+04  4.317521E+02  5.199397E+03
       369   9 -1.277370E+05  2.888790E+04  3.871384E+04 -4.992385E+04  9.225404E+02  6.094731E+03
       369  10 -3.973820E+05 -7.141592E+04 -3.007527E+04 -1.244606E+05  2.980219E-09  9.408753E-10
       369  11 -4.154216E+05 -8.810786E+04 -3.751961E+04 -1.396293E+05  1.825076E-10 -7.672854E-09
       369  12 -4.492204E+05 -9.180070E+04 -4.636046E+04 -1.374505E+05 -3.513027E-09 -2.061348E-09
       369  13 -2.882746E+05 -2.995712E+04 -1.062944E+03 -9.425937E+04 -5.423678E-10  1.760181E-09
       369  14 -2.805256E+05 -3.722932E+04 -1.835072E+03 -1.026493E+05  3.245700E-09  1.067397E-08
       369  15 -2.884909E+05 -3.145710E+04 -3.822169E+03 -9.369218E+04 -2.767201E-09 -7.967889E-10
       369  16 -1.791557E+05  1.150245E+04  2.794834E+04 -6.405338E+04  4.883941E-10  2.458632E-09
       369  17 -1.456123E+05  1.365027E+04  3.384785E+04 -6.566216E+04  2.746181E-09  9.519254E-09
       369  18 -1.277370E+05  2.888786E+04  3.871377E+04 -4.992385E+04  4.309482E-09  8.124441E-09
       369  19 -3.973820E+05 -7.141591E+04 -3.007525E+04 -1.244606E+05  1.146915E+03 -3.337850E+03
       369  20 -4.154216E+05 -8.810783E+04 -3.751957E+04 -1.396293E+05  3.830810E+02 -4.891054E+03
       369  21 -4.492204E+05 -9.180066E+04 -4.636039E+04 -1.374505E+05 -5.646023E+02 -5.959470E+03
       369  22 -2.882746E+05 -2.995711E+04 -1.062920E+03 -9.425937E+04  5.110892E+02 -3.578608E+03
       369  23 -2.805256E+05 -3.722929E+04 -1.835024E+03 -1.026493E+05 -2.428717E+01 -5.045208E+03
       369  24 -2.884909E+05 -3.145706E+04 -3.822100E+03 -9.369218E+04 -7.435462E+02 -6.027091E+03
       369  25 -1.791557E+05  1.150246E+04  2.794837E+04 -6.405338E+04 -1.248598E+02 -3.819413E+03
       369  26 -1.456123E+05  1.365030E+04  3.384790E+04 -6.566216E+04 -4.317521E+02 -5.199397E+03
       369  27 -1.277370E+05  2.888790E+04  3.871384E+04 -4.992385E+04 -9.225404E+02 -6.094731E+03
       370   1 -4.853042E+05 -1.054522E+05 -5.694601E+04 -1.505693E+05 -1.034613E+03  7.068960E+03
       370   2 -5.027495E+05 -1.185111E+05 -6.658892E+04 -1.630431E+05  5.631198E+03  1.073215E+04
       370   3 -5.422407E+05 -1.343437E+05 -8.622531E+04 -1.545193E+05  1.455182E+04  8.431780E+03
       370   4 -2.890234E+05 -2.957787E+04 -4.691568E+03 -9.487594E+04  8.429170E+02  7.779294E+03
       370   5 -2.792512E+05 -3.524814E+04 -7.746293E+03 -1.028129E+05  4.698298E+03  1.037905E+04
       370   6 -2.909646E+05 -4.313064E+04 -1.856206E+04 -8.975300E+04  1.080838E+04  7.016323E+03
       370   7 -9.270460E+04  4.629967E+04  4.755974E+04 -3.916628E+04  2.721107E+03  8.489891E+03
       370   8 -5.570469E+04  4.801751E+04  5.109202E+04 -4.256336E+04  3.765028E+03  1.002581E+04
       370   9 -3.962949E+04  4.808434E+04  4.909531E+04 -2.496402E+04  7.063291E+03  5.600301E+03
       370  10 -4.853042E+05 -1.054523E+05 -5.694610E+04 -1.505693E+05  4.120650E-09 -4.210179E-09
       370  11 -5.027496E+05 -1.185112E+05 -6.658920E+04 -1.630431E+05  2.285442E-09 -4.364483E-09
       370  12 -5.422409E+05 -1.343438E+05 -8.622584E+04 -1.545194E+05 -1.180090E-09 -1.086320E-09
       370  13 -2.890235E+05 -2.957794E+04 -4.691683E+03 -9.487595E+04  2.488001E-09  3.821662E-09
       370  14 -2.792512E+05 -3.524826E+04 -7.746537E+03 -1.028129E+05  6.047633E-10 -2.432489E-10
       370  15 -2.909648E+05 -4.313073E+04 -1.856237E+04 -8.975306E+04  7.875950E-10 -1.482266E-09
       370  16 -9.270463E+04  4.629959E+04  4.755959E+04 -3.916630E+04 -2.628821E-09  1.899092E-09
       370  17 -5.570474E+04  4.801740E+04  5.109181E+04 -4.256339E+04 -1.158825E-09 -5.066756E-09
       370  18 -3.962955E+04  4.808429E+04  4.909516E+04 -2.496406E+04  3.863006E-09 -8.057919E-09
       370  19 -4.853042E+05 -1.054522E+05 -5.694601E+04 -1.505693E+05  1.034613E+03 -7.068960E+03
       370  20 -5.027495E+05 -1.185111E+05 -6.658892E+04 -1.630431E+05 -5.631198E+03 -1.073215E+04
       370  21 -5.422407E+05 -1.343437E+05 -8.622531E+04 -1.545193E+05 -1.455182E+04 -8.431780E+03
       370  22 -2.890234E+05 -2.957787E+04 -4.691568E+03 -9.487594E+04 -8.429170E+02 -7.779294E+03
       370  23 -2.792512E+05 -3.524814E+04 -7.746293E+03 -1.028129E+05 -4.698298E+03 -1.037905E+04
       370  24 -2.909646E+05 -4.313064E+04 -1.856206E+04 -8.975300E+04 -1.080838E+04 -7.016323E+03
       370  25 -9.270460E+04  4.629967E+04  4.755974E+04 -3.916628E+04 -2.721107E+03 -8.489891E+03
       370  26 -5.570469E+04  4.801751E+04  5.109202E+04 -4.256336E+04 -3.765028E+03 -1.002581E+04
       370  27 -3.962949E+04  4.808434E+04  4.909531E+04 -2.496402E+04 -7.063291E+03 -5.600301E+03
       371   1 -1.195255E+05  1.859922E+04 -1.256273E+04 -1.646796E+04 -8.981383E+04 -5.528953E+03
       371   2 -1.382432E+05  1.381118E+05  5.498517E+04 -5.272872E+03 -6.177376E+04 -1.604605E+04
       371   3 -1.952600E+05  1.187727E+05  6.960414E+04  3.396458E+04 -3.377060E+04 -1.483396E+04
       371   4 -6.497256E+05 -1.134141E+05 -1.433898E+05  1.810304E+04 -9.805069E+04 -5.558043E+03
       371   5 -6.300258E+05  1.623440E+04 -6.279625E+04  3.903492E+03 -6.412634E+04 -1.605534E+04
       371   6 -6.496820E+05  5.946975E+03 -3.925267E+04  1.774838E+04 -3.023681E+04 -1.482162E+04
       371   7 -1.179667E+06 -2.454438E+05 -2.742367E+05  5.264430E+04 -1.062805E+05 -5.588064E+03
       371   8 -1.121586E+06 -1.056602E+05 -1.805947E+05  1.307238E+04 -6.647705E+04 -1.606469E+04
       371   9 -1.103914E+06 -1.068928E+05 -1.481239E+05  1.543952E+03 -2.670559E+04 -1.480946E+04
       371  10 -1.195341E+05  1.859702E+04 -1.257795E+04 -1.646836E+04 -3.816982E-09  1.805278E-09
       371  11 -1.382474E+05  1.381105E+05  5.497751E+04 -5.273670E+03 -1.626668E-10  1.179396E-08
       371  12 -1.952613E+05  1.187721E+05  6.960158E+04  3.396417E+04  2.916737E-09  5.338781E-09
       371  13 -6.497360E+05 -1.134167E+05 -1.434079E+05  1.810261E+04  1.447939E-09 -1.576362E-09
       371  14 -6.300303E+05  1.623302E+04 -6.280447E+04  3.902662E+03  8.691992E-12 -7.949906E-09
       371  15 -6.496831E+05  5.946494E+03 -3.925480E+04  1.774802E+04  9.842157E-10  2.594013E-09
       371  16 -1.179679E+06 -2.454468E+05 -2.742580E+05  5.264382E+04  3.485729E-09  2.528953E-09
       371  17 -1.121591E+06 -1.056617E+05 -1.806035E+05  1.307152E+04  7.842873E-10  1.071458E-08
       371  18 -1.103915E+06 -1.068932E+05 -1.481257E+05  1.543633E+03 -1.867023E-09 -1.324076E-09
       371  19 -1.195255E+05  1.859922E+04 -1.256273E+04 -1.646796E+04  8.981383E+04  5.528953E+03
       371  20 -1.382432E+05  1.381118E+05  5.498517E+04 -5.272872E+03  6.177376E+04  1.604605E+04
       371  21 -1.952600E+05  1.187727E+05  6.960414E+04  3.396458E+04  3.377060E+04  1.483396E+04
       371  22 -6.497256E+05 -1.134141E+05 -1.433898E+05  1.810304E+04  9.805069E+04  5.558043E+03
       371  23 -6.300258E+05  1.623440E+04 -6.279625E+04  3.903492E+03  6.412634E+04  1.605534E+04
       371  24 -6.496820E+05  5.946975E+03 -3.925267E+04  1.774838E+04  3.023681E+04  1.482162E+04
       371  25 -1.179667E+06 -2.454438E+05 -2.742367E+05  5.264430E+04  1.062805E+05  5.588064E+03
       371  26 -1.121586E+06 -1.056602E+05 -1.805947E+05  1.307238E+04  6.647705E+04  1.606469E+04
       371  27 -1.103914E+06 -1.068928E+05 -1.481239E+05  1.543952E+03  2.670559E+04  1.480946E+04
       372   1 -2.391131E+05  8.812138E+04  6.474732E+04  1.580431E+04 -2.427774E+04 -1.224501E+04
       372   2 -2.755200E+05  9.207675E+04  7.098863E+04  3.785668E+03 -1.637142E+04 -1.154960E+04
       372   3 -3.167154E+05  8.149138E+04  6.842170E+04  2.072994E+04 -8.470049E+03 -9.962139E+03
       372   4 -6.420154E+05 -1.182862E+04 -3.203277E+04  1.809746E+04 -2.415595E+04 -1.224523E+04
       372   5 -6.395742E+05  1.775535E+03 -1.630051E+04  3.592149E+03 -1.580509E+04 -1.154790E+04
       372   6 -6.420040E+05  7.566086E+02 -9.689745E+03  1.805101E+04 -7.458700E+03 -9.958364E+03
       372   7 -1.044769E+06 -1.117904E+05 -1.288244E+05  2.038897E+04 -2.403424E+04 -1.224544E+04
       372   8 -1.003507E+06 -8.853531E+04 -1.035990E+05  3.398628E+03 -1.523910E+04 -1.154621E+04
       372   9 -9.671956E+05 -7.998584E+04 -8.780870E+04  1.537340E+04 -6.447879E+03 -9.954597E+03
       372  10 -2.391138E+05  8.812106E+04  6.474593E+04  1.580407E+04 -2.389462E-09 -2.594376E-09
       372  11 -2.755203E+05  9.207653E+04  7.098787E+04  3.785516E+03 -8.609314E-11  7.327140E-10
       372  12 -3.167155E+05  8.149125E+04  6.842137E+04  2.072987E+04  4.667748E-09  1.117701E-08
       372  13 -6.420161E+05 -1.182894E+04 -3.203415E+04  1.809722E+04  9.038138E-10  1.274142E-08
       372  14 -6.395745E+05  1.775325E+03 -1.630123E+04  3.592002E+03 -9.391381E-10 -2.500607E-08
       372  15 -6.420041E+05  7.564872E+02 -9.690036E+03  1.805095E+04 -9.953443E-10  7.470157E-09
       372  16 -1.044770E+06 -1.117907E+05 -1.288258E+05  2.038874E+04  3.066056E-09 -1.163076E-08
       372  17 -1.003507E+06 -8.853551E+04 -1.035997E+05  3.398486E+03 -1.534439E-09 -4.222456E-09
       372  18 -9.671957E+05 -7.998596E+04 -8.780896E+04  1.537335E+04 -5.160991E-09 -1.208675E-09
       372  19 -2.391131E+05  8.812138E+04  6.474732E+04  1.580431E+04  2.427774E+04  1.224501E+04
       372  20 -2.755200E+05  9.207675E+04  7.098863E+04  3.785668E+03  1.637142E+04  1.154960E+04
       372  21 -3.167154E+05  8.149138E+04  6.842170E+04  2.072994E+04  8.470049E+03  9.962139E+03
       372  22 -6.420154E+05 -1.182862E+04 -3.203277E+04  1.809746E+04  2.415595E+04  1.224523E+04
       372  23 -6.395742E+05  1.775535E+03 -1.630051E+04  3.592149E+03  1.580509E+04  1.154790E+04
       372  24 -6.420040E+05  7.566086E+02 -9.689745E+03  1.805101E+04  7.458700E+03  9.958364E+03
       372  25 -1.044769E+06 -1.117904E+05 -1.288244E+05  2.038897E+04  2.403424E+04  1.224544E+04
       372  26 -1.003507E+06 -8.853531E+04 -1.035990E+05  3.398628E+03  1.523910E+04  1.154621E+04
       372  27 -9.671956E+05 -7.998584E+04 -8.780870E+04  1.537340E+04  6.447879E+03  9.954597E+03
       373   1 -3.686939E+05  6.646693E+04  5.763566E+04  1.879496E+04 -6.695283E+03 -8.900485E+03
       373   2 -4.078586E+05  5.798752E+04  5.167304E+04  4.133733E+03 -4.653464E+03 -7.350688E+03
       373   3 -4.478700E+05  4.820074E+04  4.399914E+04  1.904420E+04 -2.612853E+03 -5.724705E+03
       373   4 -6.411034E+05 -1.092276E+03 -7.593328E+03  1.820457E+04 -5.936318E+03 -8.897593E+03
       373   5 -6.406738E+05  2.278301E+02 -4.159521E+03  3.415527E+03 -3.856966E+03 -7.347459E+03
       373   6 -6.410987E+05  2.338815E+02 -2.463457E+03  1.819887E+04 -1.778692E+03 -5.721122E+03
       373   7 -9.134448E+05 -6.865686E+04 -7.282756E+04  1.761437E+04 -5.177685E+03 -8.894701E+03
       373   8 -8.734393E+05 -5.753580E+04 -5.999593E+04  2.697538E+03 -3.060766E+03 -7.344231E+03
       373   9 -8.342932E+05 -4.773569E+04 -4.892871E+04  1.735377E+04 -9.447904E+02 -5.717541E+03
       373  10 -3.686940E+05  6.646683E+04  5.763542E+04  1.879491E+04  3.585834E-09 -7.406571E-09
       373  11 -4.078586E+05  5.798746E+04  5.167290E+04  4.133706E+03 -1.680620E-09 -6.891134E-09
       373  12 -4.478700E+05  4.820070E+04  4.399907E+04  1.904419E+04 -5.567020E-10 -7.508306E-09
       373  13 -6.411035E+05 -1.092371E+03 -7.593543E+03  1.820453E+04  6.004617E-10 -5.454994E-09
       373  14 -6.406738E+05  2.277682E+02 -4.159650E+03  3.415504E+03 -6.242742E-10 -7.914344E-09
       373  15 -6.410987E+05  2.338455E+02 -2.463525E+03  1.819886E+04  3.561172E-10 -6.463908E-09
       373  16 -9.134449E+05 -6.865696E+04 -7.282776E+04  1.761433E+04 -5.196837E-09 -9.579214E-09
       373  17 -8.734394E+05 -5.753586E+04 -5.999605E+04  2.697519E+03 -1.938040E-10  7.055689E-09
       373  18 -8.342933E+05 -4.773573E+04 -4.892877E+04  1.735376E+04  9.753001E-10  9.721736E-09
       373  19 -3.686939E+05  6.646693E+04  5.763566E+04  1.879496E+04  6.695283E+03  8.900485E+03
       373  20 -4.078586E+05  5.798752E+04  5.167304E+04  4.133733E+03  4.653464E+03  7.350688E+03
       373  21 -4.478700E+05  4.820074E+04  4.399914E+04  1.904420E+04  2.612853E+03  5.724705E+03
       373  22 -6.411034E+05 -1.092276E+03 -7.593328E+03  1.820457E+04  5.936318E+03  8.897593E+03
       373  23 -6.406738E+05  2.278301E+02 -4.159521E+03  3.415527E+03  3.856966E+03  7.347459E+03
       373  24 -6.410987E+05  2.338815E+02 -2.463457E+03  1.819887E+04  1.778692E+03  5.721122E+03
       373  25 -9.134448E+05 -6.865686E+04 -7.282756E+04  1.761437E+04  5.177685E+03  8.894701E+03
       373  26 -8.734393E+05 -5.753580E+04 -5.999593E+04  2.697538E+03  3.060766E+03  7.344231E+03
       373  27 -8.342932E+05 -4.773569E+04 -4.892871E+04  1.735377E+04  9.447904E+02  5.717541E+03
       374   1 -5.014985E+05  3.463144E+04  3.140075E+04  1.874022E+04 -2.205719E+03 -4.766685E+03
       374   2 -5.413470E+05  2.474314E+04  2.265754E+04  3.668886E+03 -1.624024E+03 -3.138287E+03
       374   3 -5.815742E+05  1.494771E+04  1.348842E+04  1.850445E+04 -1.042754E+03 -1.500771E+03
       374   4 -6.409885E+05  4.659978E+01 -1.933428E+03  1.827539E+04 -1.388952E+03 -4.763087E+03
       374   5 -6.407971E+05  6.782797E+01 -1.194314E+03  3.321444E+03 -8.028077E+02 -3.134591E+03
       374   6 -6.409867E+05  1.812444E+02 -8.841975E+02  1.827468E+04 -2.170495E+02 -1.496971E+03
       374   7 -7.804607E+05 -3.453965E+04 -3.526897E+04  1.781064E+04 -5.723685E+02 -4.759488E+03
       374   8 -7.402381E+05 -2.460820E+04 -2.504687E+04  2.974047E+03  1.827798E+01 -3.130895E+03
       374   9 -7.003960E+05 -1.458548E+04 -1.525707E+04  1.804494E+04  6.085762E+02 -1.493172E+03
       374  10 -5.014985E+05  3.463142E+04  3.140070E+04  1.874021E+04 -3.509937E-10 -1.283951E-08
       374  11 -5.413470E+05  2.474313E+04  2.265752E+04  3.668882E+03 -5.394202E-09  2.318175E-09
       374  12 -5.815742E+05  1.494771E+04  1.348842E+04  1.850444E+04 -5.123275E-09 -2.226642E-09
       374  13 -6.409885E+05  4.657490E+01 -1.933474E+03  1.827538E+04  1.867069E-09 -4.093974E-10
       374  14 -6.407971E+05  6.781725E+01 -1.194334E+03  3.321442E+03 -2.082552E-09 -7.023433E-09
       374  15 -6.409867E+05  1.812420E+02 -8.842018E+02  1.827468E+04 -4.218200E-10 -8.942751E-09
       374  16 -7.804607E+05 -3.453968E+04 -3.526902E+04  1.781064E+04 -3.084336E-10  3.821556E-09
       374  17 -7.402381E+05 -2.460821E+04 -2.504689E+04  2.974047E+03  3.335893E-09  1.446362E-08
       374  18 -7.003960E+05 -1.458549E+04 -1.525707E+04  1.804494E+04  5.027748E-09 -2.128810E-09
       374  19 -5.014985E+05  3.463144E+04  3.140075E+04  1.874022E+04  2.205719E+03  4.766685E+03
       374  20 -5.413470E+05  2.474314E+04  2.265754E+04  3.668886E+03  1.624024E+03  3.138287E+03
       374  21 -5.815742E+05  1.494771E+04  1.348842E+04  1.850445E+04  1.042754E+03  1.500771E+03
       374  22 -6.409885E+05  4.659978E+01 -1.933428E+03  1.827539E+04  1.388952E+03  4.763087E+03
       374  23 -6.407971E+05  6.782797E+01 -1.194314E+03  3.321444E+03  8.028077E+02  3.134591E+03
       374  24 -6.409867E+05  1.812444E+02 -8.841975E+02  1.827468E+04  2.170495E+02  1.496971E+03
       374  25 -7.804607E+05 -3.453965E+04 -3.526897E+04  1.781064E+04  5.723685E+02  4.759488E+03
       374  26 -7.402381E+05 -2.460820E+04 -2.504687E+04  2.974047E+03 -1.827798E+01  3.130895E+03
       374  27 -7.003960E+05 -1.458548E+04 -1.525707E+04  1.804494E+04 -6.085762E+02  1.493172E+03
       375   1 -6.356677E+05  1.468543E+03  3.170814E+02  1.829571E+04 -8.923653E+02 -5.451999E+02
       375   2 -6.756086E+05 -8.574167E+03 -9.269487E+03  3.180348E+03 -4.399172E+02  1.093977E+03
       375   3 -7.159118E+05 -1.847076E+04 -1.918762E+04  1.803832E+04  1.264121E+01  2.727571E+03
       375   4 -6.409819E+05  1.745929E+02 -8.348683E+02  1.828943E+04 -6.652657E+01 -5.413811E+02
       375   5 -6.408003E+05  6.309316E+01 -9.204946E+02  3.302997E+03  3.830954E+02  1.097752E+03
       375   6 -6.409826E+05  9.816592E+01 -1.335765E+03  1.828979E+04  8.328570E+02  2.731307E+03
       375   7 -6.462961E+05 -1.119359E+03 -1.986817E+03  1.828315E+04  7.593051E+02 -5.375623E+02
       375   8 -6.059908E+05  8.700266E+03  7.428415E+03  3.425652E+03  1.206154E+03  1.101527E+03
       375   9 -5.660482E+05  1.866669E+04  1.651570E+04  1.854128E+04  1.653171E+03  2.735045E+03
       375  10 -6.356677E+05  1.468542E+03  3.170793E+02  1.829571E+04 -4.767393E-09 -4.203475E-09
       375  11 -6.756086E+05 -8.574168E+03 -9.269490E+03  3.180348E+03 -1.470549E-09 -1.236124E-08
       375  12 -7.159118E+05 -1.847077E+04 -1.918763E+04  1.803832E+04 -4.749759E-09 -6.996437E-09
       375  13 -6.409819E+05  1.745926E+02 -8.348689E+02  1.828943E+04  1.465027E-09  2.885512E-09
       375  14 -6.408003E+05  6.309182E+01 -9.204971E+02  3.302996E+03 -1.738417E-09 -3.902369E-09
       375  15 -6.409826E+05  9.815772E+01 -1.335781E+03  1.828979E+04  1.406857E-10 -1.176752E-08
       375  16 -6.462961E+05 -1.119359E+03 -1.986819E+03  1.828315E+04  2.621157E-09 -2.549721E-09
       375  17 -6.059908E+05  8.700264E+03  7.428410E+03  3.425651E+03  7.951065E-10 -1.774697E-08
       375  18 -5.660482E+05  1.866668E+04  1.651568E+04  1.854127E+04  5.975437E-09 -1.139834E-08
       375  19 -6.356677E+05  1.468543E+03  3.170814E+02  1.829571E+04  8.923653E+02  5.451999E+02
       375  20 -6.756086E+05 -8.574167E+03 -9.269487E+03  3.180348E+03  4.399172E+02 -1.093977E+03
       375  21 -7.159118E+05 -1.847076E+04 -1.918762E+04  1.803832E+04 -1.264121E+01 -2.727571E+03
       375  22 -6.409819E+05  1.745929E+02 -8.348683E+02  1.828943E+04  6.652657E+01  5.413811E+02
       375  23 -6.408003E+05  6.309315E+01 -9.204946E+02  3.302997E+03 -3.830954E+02 -1.097752E+03
       375  24 -6.409826E+05  9.816592E+01 -1.335765E+03  1.828979E+04 -8.328570E+02 -2.731307E+03
       375  25 -6.462961E+05 -1.119359E+03 -1.986817E+03  1.828315E+04 -7.593051E+02  5.375623E+02
       375  26 -6.059908E+05  8.700266E+03  7.428415E+03  3.425652E+03 -1.206154E+03 -1.101527E+03
       375  27 -5.660482E+05  1.866669E+04  1.651570E+04  1.854128E+04 -1.653171E+03 -2.735045E+03
       376   1 -7.699443E+05 -3.179200E+04 -3.269755E+04  1.767239E+04  2.608239E+02  3.688316E+03
       376   2 -8.094532E+05 -4.170575E+04 -4.320012E+04  2.821103E+03  1.653004E+03  5.321780E+03
       376   3 -8.496299E+05 -5.237950E+04 -5.486414E+04  1.773381E+04  3.045981E+03  6.889266E+03
       376   4 -6.410521E+05  2.185424E+02 -1.658016E+03  1.824177E+04  1.096900E+03  3.692067E+03
       376   5 -6.407223E+05  1.654569E+02 -2.726184E+03  3.361949E+03  2.456177E+03  5.325245E+03
       376   6 -6.410554E+05 -6.414675E+02 -4.932430E+03  1.824562E+04  3.816339E+03  6.892458E+03
       376   7 -5.121446E+05  3.222787E+04  2.938033E+04  1.881125E+04  1.933149E+03  3.695819E+03
       376   8 -4.719654E+05  4.203459E+04  3.774573E+04  3.902915E+03  3.259567E+03  5.328711E+03
       376   9 -4.324410E+05  5.109341E+04  4.499621E+04  1.875756E+04  4.586956E+03  6.895650E+03
       376  10 -7.699443E+05 -3.179202E+04 -3.269757E+04  1.767239E+04 -8.507357E-09 -1.723682E-09
       376  11 -8.094532E+05 -4.170578E+04 -4.320017E+04  2.821096E+03 -6.803257E-09 -1.639649E-08
       376  12 -8.496300E+05 -5.237956E+04 -5.486425E+04  1.773380E+04 -1.491456E-09 -3.914827E-09
       376  13 -6.410521E+05  2.185274E+02 -1.658043E+03  1.824177E+04  3.014634E-09 -3.893565E-09
       376  14 -6.407223E+05  1.654249E+02 -2.726249E+03  3.361939E+03 -2.260209E-09 -2.802931E-09
       376  15 -6.410555E+05 -6.415224E+02 -4.932547E+03  1.824560E+04  2.429449E-10  3.477782E-09
       376  16 -5.121446E+05  3.222786E+04  2.938030E+04  1.881125E+04  7.302974E-09  1.102202E-08
       376  17 -4.719654E+05  4.203456E+04  3.774566E+04  3.902901E+03  7.427062E-09 -2.132036E-09
       376  18 -4.324410E+05  5.109335E+04  4.499608E+04  1.875754E+04  3.196245E-09  8.401155E-09
       376  19 -7.699443E+05 -3.179200E+04 -3.269755E+04  1.767239E+04 -2.608239E+02 -3.688316E+03
       376  20 -8.094532E+05 -4.170575E+04 -4.320012E+04  2.821103E+03 -1.653004E+03 -5.321780E+03
       376  21 -8.496299E+05 -5.237950E+04 -5.486414E+04  1.773381E+04 -3.045981E+03 -6.889266E+03
       376  22 -6.410521E+05  2.185424E+02 -1.658016E+03  1.824177E+04 -1.096900E+03 -3.692067E+03
       376  23 -6.407223E+05  1.654569E+02 -2.726184E+03  3.361949E+03 -2.456177E+03 -5.325245E+03
       376  24 -6.410554E+05 -6.414675E+02 -4.932430E+03  1.824562E+04 -3.816339E+03 -6.892458E+03
       376  25 -5.121446E+05  3.222787E+04  2.938033E+04  1.881125E+04 -1.933149E+03 -3.695819E+03
       376  26 -4.719654E+05  4.203459E+04  3.774573E+04  3.902915E+03 -3.259567E+03 -5.328711E+03
       376  27 -4.324410E+05  5.109341E+04  4.499621E+04  1.875756E+04 -4.586956E+03 -6.895650E+03
       377   1 -9.035386E+05 -6.447367E+04 -6.921786E+04  1.619714E+04  3.807166E+03  7.942511E+03
       377   2 -9.411002E+05 -7.354996E+04 -8.277091E+04  3.130327E+03  9.604340E+03  9.544413E+03
       377   3 -9.819716E+05 -9.206153E+04 -1.025039E+05  1.935265E+04  1.540520E+04  1.035290E+04
       377   4 -6.416347E+05  5.552881E+02 -6.282200E+03  1.812738E+04  4.802446E+03  7.946538E+03
       377   5 -6.400188E+05  1.162943E+03 -1.055198E+04  3.499367E+03  1.020255E+04  9.546532E+03
       377   6 -6.416432E+05 -7.592867E+03 -2.072341E+04  1.815970E+04  1.560669E+04  1.035325E+04
       377   7 -3.796680E+05  6.557926E+04  5.664858E+04  2.005837E+04  5.798145E+03  7.950570E+03
       377   8 -3.388543E+05  7.586925E+04  6.166051E+04  3.868502E+03  1.080104E+04  9.548652E+03
       377   9 -3.012087E+05  7.686737E+04  6.104888E+04  1.696599E+04  1.580830E+04  1.035361E+04
       377  10 -9.035386E+05 -6.447374E+04 -6.921801E+04  1.619712E+04  1.225451E-08  3.487927E-09
       377  11 -9.411003E+05 -7.355008E+04 -8.277125E+04  3.130253E+03  1.053125E-09  3.100266E-09
       377  12 -9.819719E+05 -9.206171E+04 -1.025046E+05  1.935252E+04 -4.832237E-09 -8.134028E-09
       377  13 -6.416348E+05  5.552141E+02 -6.282362E+03  1.812735E+04  3.286683E-09 -1.288017E-08
       377  14 -6.400189E+05  1.162817E+03 -1.055235E+04  3.499288E+03 -1.773749E-09  3.111209E-09
       377  15 -6.416435E+05 -7.593048E+03 -2.072406E+04  1.815957E+04  2.371620E-10  2.487738E-09
       377  16 -3.796681E+05  6.557919E+04  5.664840E+04  2.005833E+04 -1.326277E-08 -9.607132E-09
       377  17 -3.388545E+05  7.586912E+04  6.166012E+04  3.868419E+03 -1.489412E-09 -2.470008E-08
       377  18 -3.012090E+05  7.686718E+04  6.104820E+04  1.696586E+04  5.873750E-09  5.489703E-09
       377  19 -9.035386E+05 -6.447367E+04 -6.921786E+04  1.619714E+04 -3.807166E+03 -7.942511E+03
       377  20 -9.411002E+05 -7.354996E+04 -8.277091E+04  3.130327E+03 -9.604340E+03 -9.544413E+03
       377  21 -9.819716E+05 -9.206153E+04 -1.025039E+05  1.935265E+04 -1.540520E+04 -1.035290E+04
       377  22 -6.416347E+05  5.552881E+02 -6.282200E+03  1.812738E+04 -4.802446E+03 -7.946538E+03
       377  23 -6.400188E+05  1.162943E+03 -1.055198E+04  3.499367E+03 -1.020255E+04 -9.546532E+03
       377  24 -6.416432E+05 -7.592867E+03 -2.072341E+04  1.815970E+04 -1.560669E+04 -1.035325E+04
       377  25 -3.796680E+05  6.557926E+04  5.664858E+04  2.005837E+04 -5.798145E+03 -7.950570E+03
       377  26 -3.388543E+05  7.586925E+04  6.166051E+04  3.868502E+03 -1.080104E+04 -9.548652E+03
       377  27 -3.012087E+05  7.686737E+04  6.104888E+04  1.696599E+04 -1.580830E+04 -1.035361E+04
       378   1 -1.039135E+06 -9.358819E+04 -1.194771E+05  7.044493E+03  1.629619E+04  1.274631E+04
       378   2 -1.064340E+06 -9.625168E+04 -1.437797E+05  9.321740E+03  4.346369E+04  1.404127E+04
       378   3 -1.115977E+06 -1.902711E+05 -2.086405E+05  4.006440E+04  7.066375E+04  4.881918E+03
       378   4 -6.465955E+05  3.904514E+03 -2.539010E+04  1.787329E+04  1.953686E+04  1.275825E+04
       378   5 -6.338590E+05  1.050698E+04 -4.062176E+04  3.769264E+03  4.145548E+04  1.403313E+04
       378   6 -6.466263E+05 -7.330108E+04 -9.274435E+04  1.813102E+04  6.340866E+04  4.855471E+03
       378   7 -2.539143E+05  1.013864E+05  6.868610E+04  2.870884E+04  2.277957E+04  1.277030E+04
       378   8 -2.032081E+05  1.172523E+05  6.252309E+04 -1.787232E+03  3.944588E+04  1.402504E+04
       378   9 -1.770736E+05  4.365444E+04  2.313594E+04 -3.819154E+03  5.614806E+04  4.829549E+03
       378  10 -1.039135E+06 -9.358844E+04 -1.194779E+05  7.044326E+03 -4.049701E-09 -4.409319E-09
       378  11 -1.064342E+06 -9.625240E+04 -1.437836E+05  9.321248E+03  2.760698E-09 -6.429279E-11
       378  12 -1.115983E+06 -1.902725E+05 -2.086499E+05  4.006412E+04  8.158338E-09  1.046982E-08
       378  13 -6.465960E+05  3.904236E+03 -2.539112E+04  1.787309E+04  1.992448E-09  6.364136E-09
       378  14 -6.338609E+05  1.050631E+04 -4.062536E+04  3.768795E+03 -1.517433E-09  1.035747E-09
       378  15 -6.466306E+05 -7.330218E+04 -9.275196E+04  1.813077E+04 -1.033862E-09 -5.374676E-10
       378  16 -2.539150E+05  1.013861E+05  6.868482E+04  2.870860E+04  3.310118E-09  9.174304E-09
       378  17 -2.032098E+05  1.172517E+05  6.251980E+04 -1.787678E+03 -3.735831E-09  1.208043E-08
       378  18 -1.770770E+05  4.365357E+04  2.312997E+04 -3.819372E+03 -8.078985E-09  7.984821E-11
       378  19 -1.039135E+06 -9.358819E+04 -1.194771E+05  7.044493E+03 -1.629619E+04 -1.274631E+04
       378  20 -1.064340E+06 -9.625168E+04 -1.437797E+05  9.321740E+03 -4.346369E+04 -1.404127E+04
       378  21 -1.115977E+06 -1.902711E+05 -2.086405E+05  4.006440E+04 -7.066375E+04 -4.881918E+03
       378  22 -6.465955E+05  3.904514E+03 -2.539010E+04  1.787329E+04 -1.953686E+04 -1.275825E+04
       378  23 -6.338590E+05  1.050698E+04 -4.062176E+04  3.769264E+03 -4.145548E+04 -1.403313E+04
       378  24 -6.466263E+05 -7.330108E+04 -9.274435E+04  1.813102E+04 -6.340866E+04 -4.855471E+03
       378  25 -2.539143E+05  1.013864E+05  6.868610E+04  2.870884E+04 -2.277957E+04 -1.277030E+04
       378  26 -2.032081E+05  1.172523E+05  6.252309E+04 -1.787232E+03 -3.944588E+04 -1.402504E+04
       378  27 -1.770736E+05  4.365444E+04  2.313594E+04 -3.819154E+03 -5.614806E+04 -4.829549E+03
       379   1 -1.651347E+05 -6.340833E+05 -1.590137E+05  1.623828E+05 -6.517014E+03 -5.242859E+04
       379   2 -1.156648E+05 -4.955316E+05 -9.823631E+04  1.436520E+05 -2.030507E+04 -2.170283E+04
       379   3 -7.918650E+04 -3.640249E+05 -6.071157E+04  1.511940E+05 -1.995004E+04  9.069776E+03
       379   4 -1.668976E+04 -3.425458E+04 -1.718827E+04  1.511089E+05 -6.613048E+03 -1.305716E+04
       379   5 -4.996417E+03 -3.303120E+04 -7.696182E+03  1.379908E+05 -2.033397E+04 -9.119308E+03
       379   6 -1.635264E+03 -3.421342E+04 -2.839057E+03  1.511458E+05 -1.991608E+04 -5.142212E+03
       379   7  1.317307E+05  5.659087E+05  1.246181E+05  1.398242E+05 -6.710468E+03  2.635215E+04
       379   8  1.056593E+05  4.296748E+05  8.283427E+04  1.323253E+05 -2.036308E+04  3.473388E+03
       379   9  7.591015E+04  2.957050E+05  5.503029E+04  1.510975E+05 -1.988214E+04 -1.936153E+04
       379  10 -1.651355E+05 -6.340863E+05 -1.590189E+05  1.623825E+05  3.721239E-10  8.726038E-10
       379  11 -1.156654E+05 -4.955322E+05 -9.823797E+04  1.436516E+05  8.745196E-10  8.213022E-09
       379  12 -7.918695E+04 -3.640251E+05 -6.071247E+04  1.511941E+05  2.057383E-09 -2.746620E-09
       379  13 -1.668985E+04 -3.425478E+04 -1.718868E+04  1.511088E+05  1.714763E-09  5.868649E-09
       379  14 -4.996884E+03 -3.303140E+04 -7.697115E+03  1.379906E+05 -7.755161E-10 -5.715678E-09
       379  15 -1.635697E+03 -3.421356E+04 -2.839852E+03  1.511457E+05  1.499861E-09 -6.703231E-10
       379  16  1.317304E+05  5.659079E+05  1.246167E+05  1.398243E+05 -1.546537E-10 -5.123027E-09
       379  17  1.056589E+05  4.296747E+05  8.283347E+04  1.323254E+05  1.321738E-09 -6.351869E-10
       379  18  7.590962E+04  2.957045E+05  5.502884E+04  1.510972E+05 -7.345752E-10  1.413140E-09
       379  19 -1.651347E+05 -6.340833E+05 -1.590137E+05  1.623828E+05  6.517014E+03  5.242859E+04
       379  20 -1.156648E+05 -4.955316E+05 -9.823631E+04  1.436520E+05  2.030507E+04  2.170283E+04
       379  21 -7.918650E+04 -3.640249E+05 -6.071157E+04  1.511940E+05  1.995004E+04 -9.069776E+03
       379  22 -1.668976E+04 -3.425458E+04 -1.718827E+04  1.511089E+05  6.613048E+03  1.305716E+04
       379  23 -4.996417E+03 -3.303120E+04 -7.696182E+03  1.379908E+05  2.033397E+04  9.119308E+03
       379  24 -1.635264E+03 -3.421342E+04 -2.839057E+03  1.511458E+05  1.991608E+04  5.142212E+03
       379  25  1.317307E+05  5.659087E+05  1.246181E+05  1.398242E+05  6.710468E+03 -2.635215E+04
       379  26  1.056593E+05  4.296748E+05  8.283427E+04  1.323253E+05  2.036308E+04 -3.473388E+03
       379  27  7.591015E+04  2.957050E+05  5.503029E+04  1.510975E+05  1.988214E+04  1.936153E+04
       380   1 -5.861459E+04 -2.765148E+05 -4.314024E+04  1.519382E+05 -1.512051E+04  8.575320E+03
       380   2 -2.547596E+04 -1.416973E+05 -1.481578E+04  1.384566E+05 -7.761504E+03  8.238194E+03
       380   3  8.097142E+03 -6.530394E+03  1.388261E+04  1.521729E+05  9.591734E+01  7.901707E+03
       380   4 -1.590175E+03 -3.355926E+04 -1.029716E+03  1.513461E+05 -1.508906E+04 -4.900200E+03
       380   5 -4.073324E+02 -3.380251E+04  2.604089E+03  1.377508E+05 -7.728383E+03 -6.183359E+03
       380   6  1.375200E+03 -3.354940E+04  7.269206E+03  1.513531E+05  1.306348E+02 -7.465812E+03
       380   7  5.543116E+04  2.094546E+05  4.107944E+04  1.507539E+05 -1.505759E+04 -1.838083E+04
       380   8  2.466082E+04  7.410431E+04  2.002442E+04  1.370449E+05 -7.695232E+03 -2.060733E+04
       380   9 -5.346665E+03 -6.056723E+04  6.566359E+02  1.505332E+05  1.653936E+02 -2.283266E+04
       380  10 -5.861486E+04 -2.765149E+05 -4.314081E+04  1.519383E+05  3.440972E-09  4.473938E-09
       380  11 -2.547604E+04 -1.416974E+05 -1.481602E+04  1.384567E+05  2.762331E-09  6.279064E-09
       380  12  8.097125E+03 -6.530461E+03  1.388249E+04  1.521729E+05  9.017135E-10 -4.948637E-09
       380  13 -1.590426E+03 -3.355934E+04 -1.030189E+03  1.513461E+05  1.343213E-09  5.484807E-09
       380  14 -4.074068E+02 -3.380256E+04  2.603905E+03  1.377508E+05  3.488934E-09 -5.430131E-09
       380  15  1.375186E+03 -3.354946E+04  7.269102E+03  1.513531E+05  1.384838E-09 -3.349499E-09
       380  16  5.543082E+04  2.094542E+05  4.107838E+04  1.507537E+05 -2.650110E-10 -8.342067E-09
       380  17  2.466064E+04  7.410384E+04  2.002351E+04  1.370448E+05  7.407636E-10 -8.252685E-10
       380  18 -5.346805E+03 -6.056779E+04  6.556561E+02  1.505332E+05 -1.410498E-09  4.379005E-09
       380  19 -5.861459E+04 -2.765148E+05 -4.314024E+04  1.519382E+05  1.512051E+04 -8.575320E+03
       380  20 -2.547596E+04 -1.416973E+05 -1.481578E+04  1.384566E+05  7.761504E+03 -8.238194E+03
       380  21  8.097142E+03 -6.530394E+03  1.388261E+04  1.521729E+05 -9.591734E+01 -7.901707E+03
       380  22 -1.590175E+03 -3.355926E+04 -1.029716E+03  1.513461E+05  1.508906E+04  4.900200E+03
       380  23 -4.073324E+02 -3.380251E+04  2.604089E+03  1.377508E+05  7.728383E+03  6.183359E+03
       380  24  1.375200E+03 -3.354940E+04  7.269206E+03  1.513531E+05 -1.306348E+02  7.465812E+03
       380  25  5.543116E+04  2.094546E+05  4.107944E+04  1.507539E+05  1.505759E+04  1.838083E+04
       380  26  2.466082E+04  7.410431E+04  2.002442E+04  1.370449E+05  7.695232E+03  2.060733E+04
       380  27 -5.346665E+03 -6.056723E+04  6.566359E+02  1.505332E+05 -1.653936E+02  2.283266E+04
       381   1  2.858177E+04  8.140745E+04  3.211573E+04  1.498963E+05  5.297955E+03  7.085235E+03
       381   2  6.895196E+04  2.118119E+05  7.055274E+04  1.490612E+05  9.048306E+03 -2.076588E+04
       381   3  1.319032E+05  3.516804E+05  1.328036E+05  1.749141E+05  3.494862E+03 -4.864742E+04
       381   4  1.475129E+03 -3.224180E+04  1.026245E+04  1.512291E+05  5.333887E+03 -8.725576E+03
       381   5  9.432808E+03 -3.544775E+04  1.986944E+04  1.379286E+05  9.044721E+03 -1.893093E+04
       381   6  3.691503E+04 -3.226285E+04  4.104208E+04  1.513142E+05  3.451178E+03 -2.916070E+04
       381   7 -2.563213E+04 -1.458781E+05 -1.159048E+04  1.525617E+05  5.369753E+03 -2.453356E+04
       381   8 -5.008971E+04 -2.826491E+05 -3.081702E+04  1.268006E+05  9.041070E+03 -1.709670E+04
       381   9 -5.808147E+04 -4.160689E+05 -5.072811E+04  1.277291E+05  3.406001E+03 -9.685957E+03
       381  10  2.858172E+04  8.140739E+04  3.211558E+04  1.498963E+05  1.282087E-09  1.790301E-09
       381  11  6.895176E+04  2.118114E+05  7.055177E+04  1.490613E+05 -5.211706E-10  8.594056E-09
       381  12  1.319026E+05  3.516778E+05  1.327992E+05  1.749142E+05 -1.073656E-09 -1.946879E-09
       381  13  1.475078E+03 -3.224189E+04  1.026225E+04  1.512292E+05 -2.283457E-09  5.403819E-09
       381  14  9.432624E+03 -3.544816E+04  1.986861E+04  1.379287E+05 -3.025741E-10 -4.957762E-09
       381  15  3.691479E+04 -3.226377E+04  4.104046E+04  1.513143E+05 -2.768235E-10  2.288282E-09
       381  16 -2.563233E+04 -1.458787E+05 -1.159167E+04  1.525618E+05 -3.014473E-09 -7.192444E-09
       381  17 -5.008987E+04 -2.826494E+05 -3.081773E+04  1.268007E+05 -3.420363E-10 -6.285930E-09
       381  18 -5.808151E+04 -4.160690E+05 -5.072831E+04  1.277291E+05 -1.388780E-09 -9.253630E-10
       381  19  2.858177E+04  8.140745E+04  3.211573E+04  1.498963E+05 -5.297955E+03 -7.085235E+03
       381  20  6.895196E+04  2.118119E+05  7.055274E+04  1.490612E+05 -9.048306E+03  2.076588E+04
       381  21  1.319032E+05  3.516804E+05  1.328036E+05  1.749141E+05 -3.494862E+03  4.864742E+04
       381  22  1.475129E+03 -3.224180E+04  1.026245E+04  1.512291E+05 -5.333887E+03  8.725576E+03
       381  23  9.432808E+03 -3.544775E+04  1.986944E+04  1.379286E+05 -9.044721E+03  1.893093E+04
       381  24  3.691503E+04 -3.226285E+04  4.104208E+04  1.513142E+05 -3.451178E+03  2.916070E+04
       381  25 -2.563213E+04 -1.458781E+05 -1.159048E+04  1.525617E+05 -5.369753E+03  2.453356E+04
       381  26 -5.008971E+04 -2.826491E+05 -3.081702E+04  1.268006E+05 -9.041070E+03  1.709670E+04
       381  27 -5.808147E+04 -4.160689E+05 -5.072811E+04  1.277291E+05 -3.406001E+03  9.685957E+03
       382   1  1.089143E+06  3.956487E+05  2.638463E+05  3.783144E+05  1.087652E+05  3.657765E+04
       382   2  1.048376E+06  2.277412E+05  1.601444E+05  3.823385E+05  7.112011E+04  1.327114E+04
       382   3  1.052042E+06  2.219282E+05  1.267208E+05  3.668561E+05  3.008487E+04 -1.068206E+03
       382   4  7.309408E+05  2.256011E+05  1.596467E+05  2.449322E+05  1.028572E+05  3.433527E+04
       382   5  7.008220E+05  8.673971E+04  6.654640E+04  2.767246E+05  6.946936E+04  1.264440E+04
       382   6  7.143243E+05  1.091780E+05  4.038297E+04  2.890024E+05  3.268915E+04 -8.133909E+01
       382   7  3.728682E+05  5.558559E+04  5.543564E+04  1.116277E+05  9.695303E+04  3.209514E+04
       382   8  3.533858E+05 -5.424871E+04 -2.706214E+04  1.711662E+05  6.781962E+04  1.201810E+04
       382   9  3.767154E+05 -3.571193E+03 -4.596421E+04  2.111838E+05  3.529187E+04  9.050958E+02
       382  10  1.089130E+06  3.956441E+05  2.638216E+05  3.783112E+05 -1.114053E-09 -3.039695E-09
       382  11  1.048371E+06  2.277397E+05  1.601346E+05  3.823378E+05  2.586022E-09  9.750431E-10
       382  12  1.052041E+06  2.219280E+05  1.267191E+05  3.668561E+05 -5.891855E-10 -9.841332E-09
       382  13  7.309292E+05  2.255970E+05  1.596246E+05  2.449293E+05  1.010684E-09 -6.395449E-09
       382  14  7.008167E+05  8.673824E+04  6.653705E+04  2.767239E+05 -1.642237E-09 -3.799812E-09
       382  15  7.143232E+05  1.091778E+05  4.038097E+04  2.890024E+05 -1.973251E-09 -8.692526E-09
       382  16  3.728579E+05  5.558196E+04  5.541605E+04  1.116252E+05 -1.742913E-09  1.256453E-10
       382  17  3.533808E+05 -5.425010E+04 -2.707105E+04  1.711655E+05 -4.061363E-09 -7.952046E-09
       382  18  3.767140E+05 -3.571528E+03 -4.596655E+04  2.111838E+05  6.232739E-10 -1.472598E-09
       382  19  1.089143E+06  3.956487E+05  2.638463E+05  3.783144E+05 -1.087652E+05 -3.657765E+04
       382  20  1.048376E+06  2.277412E+05  1.601444E+05  3.823385E+05 -7.112011E+04 -1.327114E+04
       382  21  1.052042E+06  2.219282E+05  1.267208E+05  3.668561E+05 -3.008487E+04  1.068206E+03
       382  22  7.309408E+05  2.256011E+05  1.596467E+05  2.449322E+05 -1.028572E+05 -3.433527E+04
       382  23  7.008220E+05  8.673971E+04  6.654640E+04  2.767246E+05 -6.946936E+04 -1.264440E+04
       382  24  7.143243E+05  1.091780E+05  4.038297E+04  2.890024E+05 -3.268915E+04  8.133909E+01
       382  25  3.728682E+05  5.558559E+04  5.543564E+04  1.116277E+05 -9.695303E+04 -3.209514E+04
       382  26  3.533858E+05 -5.424871E+04 -2.706214E+04  1.711662E+05 -6.781962E+04 -1.201810E+04
       382  27  3.767154E+05 -3.571193E+03 -4.596421E+04  2.111838E+05 -3.529187E+04 -9.050958E+02
       383   1  9.940564E+05  2.367728E+05  1.089671E+05  3.611641E+05  2.615577E+04 -2.872873E+02
       383   2  9.724242E+05  2.025588E+05  8.460334E+04  3.473161E+05  1.747344E+04 -3.083706E+03
       383   3  9.424988E+05  2.001138E+05  7.100860E+04  3.471030E+05  8.523551E+03 -5.174672E+03
       383   4  7.092594E+05  1.256696E+05  3.286245E+04  2.792228E+05  2.618569E+04 -2.764487E+02
       383   5  7.125271E+05  1.034409E+05  1.572283E+04  2.748243E+05  1.784042E+04 -2.944878E+03
       383   6  7.074368E+05  1.129189E+05  9.089037E+03  2.840600E+05  9.227170E+03 -4.907936E+03
       383   7  4.245407E+05  1.457291E+04 -4.324928E+04  1.973159E+05  2.621560E+04 -2.656172E+02
       383   8  4.526954E+05  4.327711E+03 -5.316341E+04  2.023600E+05  1.820723E+04 -2.806117E+03
       383   9  4.724288E+05  2.572730E+04 -5.283507E+04  2.210384E+05  9.930493E+03 -4.641307E+03
       383  10  9.940556E+05  2.367726E+05  1.089658E+05  3.611641E+05 -6.471826E-09 -4.106817E-09
       383  11  9.724239E+05  2.025587E+05  8.460275E+04  3.473161E+05 -3.856275E-09  2.734545E-09
       383  12  9.424987E+05  2.001137E+05  7.100842E+04  3.471030E+05  2.133363E-09  4.696671E-09
       383  13  7.092586E+05  1.256694E+05  3.286117E+04  2.792228E+05 -9.354705E-10  1.718324E-09
       383  14  7.125267E+05  1.034408E+05  1.572222E+04  2.748243E+05 -1.197846E-09  3.729267E-09
       383  15  7.074367E+05  1.129189E+05  9.088832E+03  2.840600E+05 -4.056362E-09  1.247460E-08
       383  16  4.245400E+05  1.457272E+04 -4.325057E+04  1.973160E+05  8.138416E-09  1.393731E-09
       383  17  4.526951E+05  4.327614E+03 -5.316405E+04  2.023600E+05 -2.251394E-09 -8.751753E-09
       383  18  4.724286E+05  2.572725E+04 -5.283529E+04  2.210385E+05 -5.940972E-09  8.602828E-09
       383  19  9.940564E+05  2.367728E+05  1.089671E+05  3.611641E+05 -2.615577E+04  2.872873E+02
       383  20  9.724242E+05  2.025588E+05  8.460334E+04  3.473161E+05 -1.747344E+04  3.083706E+03
       383  21  9.424988E+05  2.001138E+05  7.100860E+04  3.471030E+05 -8.523551E+03  5.174672E+03
       383  22  7.092594E+05  1.256696E+05  3.286245E+04  2.792228E+05 -2.618569E+04  2.764487E+02
       383  23  7.125271E+05  1.034409E+05  1.572283E+04  2.748243E+05 -1.784042E+04  2.944878E+03
       383  24  7.074368E+05  1.129189E+05  9.089037E+03  2.840600E+05 -9.227170E+03  4.907936E+03
       383  25  4.245407E+05  1.457291E+04 -4.324928E+04  1.973159E+05 -2.621560E+04  2.656172E+02
       383  26  4.526954E+05  4.327711E+03 -5.316341E+04  2.023600E+05 -1.820723E+04  2.806117E+03
       383  27  4.724288E+05  2.572730E+04 -5.283507E+04  2.210384E+05 -9.930493E+03  4.641307E+03
       384   1  9.023052E+05  1.888005E+05  5.876596E+04  3.370463E+05  7.132289E+03 -4.824693E+03
       384   2  8.835940E+05  1.697200E+05  4.858377E+04  3.216401E+05  4.835226E+03 -4.471353E+03
       384   3  8.507188E+05  1.675539E+05  4.030012E+04  3.228979E+05  2.520378E+03 -4.072372E+03
       384   4  7.068632E+05  1.145934E+05  7.099324E+03  2.828535E+05  7.626341E+03 -4.637380E+03
       384   5  7.138506E+05  1.054565E+05  3.678183E+03  2.747807E+05  5.351460E+03 -4.275506E+03
       384   6  7.066694E+05  1.132305E+05  2.138669E+03  2.833721E+05  3.058707E+03 -3.868015E+03
       384   7  5.114575E+05  4.038861E+04 -4.457075E+04  2.286760E+05  8.120224E+03 -4.450132E+03
       384   8  5.441346E+05  4.119483E+04 -4.122996E+04  2.279328E+05  5.867538E+03 -4.079717E+03
       384   9  5.626400E+05  5.890825E+04 -3.602458E+04  2.438545E+05  3.596898E+03 -3.663710E+03
       384  10  9.023051E+05  1.888005E+05  5.876582E+04  3.370463E+05  1.503667E-09 -6.550171E-09
       384  11  8.835940E+05  1.697200E+05  4.858369E+04  3.216401E+05 -7.404553E-10  4.352493E-09
       384  12  8.507187E+05  1.675539E+05  4.030008E+04  3.228979E+05 -2.238015E-09  4.491600E-10
       384  13  7.068631E+05  1.145934E+05  7.099174E+03  2.828535E+05 -1.917457E-09  1.507994E-09
       384  14  7.138505E+05  1.054565E+05  3.678095E+03  2.747807E+05  9.047093E-10 -6.532768E-09
       384  15  7.066694E+05  1.132304E+05  2.138624E+03  2.833721E+05 -2.733181E-09 -4.474973E-09
       384  16  5.114574E+05  4.038858E+04 -4.457092E+04  2.286760E+05 -5.727204E-09  4.482381E-09
       384  17  5.441346E+05  4.119480E+04 -4.123005E+04  2.279329E+05 -1.372749E-09  3.625363E-09
       384  18  5.626400E+05  5.890823E+04 -3.602463E+04  2.438545E+05 -4.153977E-10  4.697910E-10
       384  19  9.023052E+05  1.888005E+05  5.876596E+04  3.370463E+05 -7.132289E+03  4.824693E+03
       384  20  8.835940E+05  1.697200E+05  4.858377E+04  3.216401E+05 -4.835226E+03  4.471353E+03
       384  21  8.507188E+05  1.675539E+05  4.030012E+04  3.228979E+05 -2.520378E+03  4.072372E+03
       384  22  7.068632E+05  1.145934E+05  7.099324E+03  2.828535E+05 -7.626341E+03  4.637380E+03
       384  23  7.138506E+05  1.054565E+05  3.678183E+03  2.747807E+05 -5.351460E+03  4.275506E+03
       384  24  7.066694E+05  1.132305E+05  2.138669E+03  2.833721E+05 -3.058707E+03  3.868015E+03
       384  25  5.114575E+05  4.038861E+04 -4.457075E+04  2.286760E+05 -8.120224E+03  4.450132E+03
       384  26  5.441346E+05  4.119483E+04 -4.122996E+04  2.279328E+05 -5.867538E+03  4.079717E+03
       384  27  5.626400E+05  5.890825E+04 -3.602458E+04  2.438545E+05 -3.596898E+03  3.663710E+03
       385   1  8.133417E+05  1.537318E+05  2.981849E+04  3.126438E+05  1.975601E+03 -3.530537E+03
       385   2  7.953061E+05  1.365382E+05  2.257117E+04  2.972990E+05  1.029509E+03 -2.629882E+03
       385   3  7.625858E+05  1.344072E+05  1.577577E+04  2.986408E+05  8.383003E+01 -1.730870E+03
       385   4  7.066331E+05  1.133468E+05  1.683573E+03  2.831782E+05  2.496088E+03 -3.332896E+03
       385   5  7.139676E+05  1.057555E+05  1.053850E+03  2.748579E+05  1.549313E+03 -2.432446E+03
       385   6  7.066168E+05  1.132271E+05  8.767054E+02  2.832243E+05  6.029247E+02 -1.533646E+03
       385   7  5.999358E+05  7.296268E+04 -2.645225E+04  2.537173E+05  3.016474E+03 -3.135292E+03
       385   8  6.326355E+05  7.497317E+04 -2.046404E+04  2.524195E+05  2.069042E+03 -2.235039E+03
       385   9  6.506507E+05  9.204712E+04 -1.402267E+04  2.678090E+05  1.121969E+03 -1.336441E+03
       385  10  8.133417E+05  1.537318E+05  2.981846E+04  3.126439E+05 -4.757634E-09  8.830909E-09
       385  11  7.953061E+05  1.365382E+05  2.257116E+04  2.972990E+05  4.200730E-10  6.587516E-09
       385  12  7.625858E+05  1.344072E+05  1.577576E+04  2.986408E+05  2.923419E-09  9.010622E-09
       385  13  7.066331E+05  1.133468E+05  1.683540E+03  2.831783E+05 -3.571441E-09  6.370022E-09
       385  14  7.139676E+05  1.057555E+05  1.053835E+03  2.748580E+05 -1.706060E-09 -6.625063E-10
       385  15  7.066168E+05  1.132271E+05  8.767002E+02  2.832243E+05  1.866701E-09 -6.583402E-09
       385  16  5.999358E+05  7.296267E+04 -2.645228E+04  2.537173E+05  1.971753E-09  1.408211E-08
       385  17  6.326355E+05  7.497316E+04 -2.046406E+04  2.524196E+05 -4.882388E-09  1.273545E-08
       385  18  6.506507E+05  9.204712E+04 -1.402268E+04  2.678090E+05 -4.370056E-09  7.868385E-09
       385  19  8.133417E+05  1.537318E+05  2.981849E+04  3.126438E+05 -1.975601E+03  3.530537E+03
       385  20  7.953061E+05  1.365382E+05  2.257117E+04  2.972990E+05 -1.029509E+03  2.629882E+03
       385  21  7.625858E+05  1.344072E+05  1.577577E+04  2.986408E+05 -8.383003E+01  1.730870E+03
       385  22  7.066331E+05  1.133468E+05  1.683573E+03  2.831782E+05 -2.496088E+03  3.332896E+03
       385  23  7.139676E+05  1.057555E+05  1.053850E+03  2.748579E+05 -1.549313E+03  2.432446E+03
       385  24  7.066168E+05  1.132271E+05  8.767054E+02  2.832243E+05 -6.029247E+02  1.533646E+03
       385  25  5.999358E+05  7.296268E+04 -2.645225E+04  2.537173E+05 -3.016474E+03  3.135292E+03
       385  26  6.326355E+05  7.497317E+04 -2.046404E+04  2.524195E+05 -2.069042E+03  2.235039E+03
       385  27  6.506507E+05  9.204712E+04 -1.402267E+04  2.678090E+05 -1.121969E+03  1.336441E+03
       386   1  7.258556E+05  1.204897E+05  5.890624E+03  2.885436E+05 -3.050187E+02 -1.147238E+03
       386   2  7.079475E+05  1.035109E+05 -4.098040E+02  2.732344E+05 -1.309829E+03 -2.749085E+02
       386   3  6.754526E+05  1.015420E+05 -6.206131E+03  2.745038E+05 -2.313486E+03  5.945832E+02
       386   4  7.066377E+05  1.132036E+05  8.974513E+02  2.832050E+05  2.133443E+02 -9.502739E+02
       386   5  7.139426E+05  1.057774E+05  1.175709E+03  2.748859E+05 -7.928323E+02 -7.846917E+01
       386   6  7.066602E+05  1.133611E+05  1.959135E+03  2.831451E+05 -1.797881E+03  7.904895E+02
       386   7  6.874201E+05  1.059176E+05 -4.095751E+03  2.778666E+05  7.316897E+02 -7.533161E+02
       386   8  7.199377E+05  1.080439E+05  2.761217E+03  2.765375E+05 -2.758309E+02  1.179719E+02
       386   9  7.378686E+05  1.251804E+05  1.012430E+04  2.917868E+05 -1.282250E+03  9.864061E+02
       386  10  7.258556E+05  1.204897E+05  5.890622E+03  2.885436E+05 -2.655624E-09  2.492272E-09
       386  11  7.079475E+05  1.035109E+05 -4.098074E+02  2.732344E+05 -5.997487E-09 -1.103804E-10
       386  12  6.754526E+05  1.015420E+05 -6.206142E+03  2.745038E+05 -6.083302E-10 -1.539152E-08
       386  13  7.066377E+05  1.132036E+05  8.974495E+02  2.832050E+05 -3.481891E-09  1.698468E-08
       386  14  7.139426E+05  1.057774E+05  1.175708E+03  2.748859E+05  5.971169E-09  8.530818E-10
       386  15  7.066602E+05  1.133611E+05  1.959128E+03  2.831451E+05 -3.681756E-10  9.200401E-09
       386  16  6.874201E+05  1.059176E+05 -4.095753E+03  2.778666E+05  2.793510E-09  2.563190E-09
       386  17  7.199377E+05  1.080439E+05  2.761217E+03  2.765375E+05  2.210647E-09  1.106082E-08
       386  18  7.378686E+05  1.251804E+05  1.012429E+04  2.917868E+05 -5.824125E-10 -5.291622E-09
       386  19  7.258556E+05  1.204897E+05  5.890624E+03  2.885436E+05  3.050187E+02  1.147238E+03
       386  20  7.079475E+05  1.035109E+05 -4.098040E+02  2.732344E+05  1.309829E+03  2.749085E+02
       386  21  6.754526E+05  1.015420E+05 -6.206131E+03  2.745038E+05  2.313486E+03 -5.945832E+02
       386  22  7.066377E+05  1.132036E+05  8.974513E+02  2.832050E+05 -2.133443E+02  9.502739E+02
       386  23  7.139426E+05  1.057774E+05  1.175709E+03  2.748859E+05  7.928323E+02  7.846917E+01
       386  24  7.066602E+05  1.133611E+05  1.959135E+03  2.831451E+05  1.797881E+03 -7.904895E+02
       386  25  6.874201E+05  1.059176E+05 -4.095751E+03  2.778666E+05 -7.316897E+02  7.533161E+02
       386  26  7.199377E+05  1.080439E+05  2.761217E+03  2.765375E+05  2.758309E+02 -1.179719E+02
       386  27  7.378686E+05  1.251804E+05  1.012430E+04  2.917868E+05  1.282250E+03 -9.864061E+02
       387   1  6.385973E+05  8.759424E+04 -1.557201E+04  2.647625E+05 -2.939273E+03  1.095370E+03
       387   2  6.203933E+05  7.009382E+04 -2.035212E+04  2.490470E+05 -5.552452E+03  1.362543E+03
       387   3  5.884157E+05  6.958083E+04 -2.292366E+04  2.496155E+05 -8.150252E+03  1.590161E+03
       387   4  7.067496E+05  1.131694E+05  2.509084E+03  2.833192E+05 -2.410018E+03  1.296440E+03
       387   5  7.137512E+05  1.054902E+05  4.358868E+03  2.748667E+05 -5.042251E+03  1.556309E+03
       387   6  7.069828E+05  1.148020E+05  8.432227E+03  2.826981E+05 -7.659200E+03  1.776589E+03
       387   7  7.749065E+05  1.387450E+05  2.058983E+04  3.018779E+05 -1.880699E+03  1.497534E+03
       387   8  8.071176E+05  1.408872E+05  2.906915E+04  3.006900E+05 -4.531964E+03  1.750108E+03
       387   9  8.255634E+05  1.600240E+05  3.978690E+04  3.157863E+05 -7.168044E+03  1.963058E+03
       387  10  6.385973E+05  8.759423E+04 -1.557202E+04  2.647625E+05 -2.502216E-09 -2.205709E-09
       387  11  6.203932E+05  7.009381E+04 -2.035219E+04  2.490470E+05 -1.090151E-09  1.638159E-09
       387  12  5.884156E+05  6.958081E+04 -2.292379E+04  2.496156E+05  1.154077E-09  2.080958E-10
       387  13  7.067495E+05  1.131694E+05  2.509070E+03  2.833192E+05  1.826083E-09 -8.450128E-09
       387  14  7.137511E+05  1.054902E+05  4.358816E+03  2.748667E+05 -2.106284E-09  1.662270E-09
       387  15  7.069827E+05  1.148019E+05  8.432111E+03  2.826981E+05 -7.466879E-10  6.688262E-11
       387  16  7.749064E+05  1.387450E+05  2.058982E+04  3.018779E+05  7.663029E-09  4.539695E-09
       387  17  8.071176E+05  1.408872E+05  2.906910E+04  3.006900E+05  9.478264E-10 -1.455703E-08
       387  18  8.255634E+05  1.600240E+05  3.978680E+04  3.157863E+05 -3.457678E-09  4.812075E-09
       387  19  6.385973E+05  8.759424E+04 -1.557201E+04  2.647625E+05  2.939273E+03 -1.095370E+03
       387  20  6.203933E+05  7.009382E+04 -2.035212E+04  2.490470E+05  5.552452E+03 -1.362543E+03
       387  21  5.884157E+05  6.958083E+04 -2.292366E+04  2.496155E+05  8.150252E+03 -1.590161E+03
       387  22  7.067496E+05  1.131694E+05  2.509084E+03  2.833192E+05  2.410018E+03 -1.296440E+03
       387  23  7.137512E+05  1.054902E+05  4.358868E+03  2.748667E+05  5.042251E+03 -1.556309E+03
       387  24  7.069828E+05  1.148020E+05  8.432227E+03  2.826981E+05  7.659200E+03 -1.776589E+03
       387  25  7.749065E+05  1.387450E+05  2.058983E+04  3.018779E+05  1.880699E+03 -1.497534E+03
       387  26  8.071176E+05  1.408872E+05  2.906915E+04  3.006900E+05  4.531964E+03 -1.750108E+03
       387  27  8.255634E+05  1.600240E+05  3.978690E+04  3.157863E+05  7.168044E+03 -1.963058E+03
       388   1  5.501408E+05  5.513618E+04 -3.058552E+04  2.426785E+05 -1.014883E+04  1.667458E+03
       388   2  5.308230E+05  3.353431E+04 -2.945625E+04  2.239458E+05 -2.003059E+04 -8.105696E+02
       388   3  5.048261E+05  4.621326E+04 -1.605672E+04  2.175898E+05 -2.969846E+04 -3.849820E+03
       388   4  7.077176E+05  1.127518E+05  1.079897E+04  2.840696E+05 -9.491909E+03  1.916842E+03
       388   5  7.121191E+05  1.031720E+05  1.869805E+04  2.750008E+05 -1.964163E+04 -6.631160E+02
       388   6  7.098919E+05  1.279218E+05  3.907684E+04  2.783083E+05 -2.957792E+04 -3.804488E+03
       388   7  8.653178E+05  1.703684E+05  5.218123E+04  3.254698E+05 -8.834809E+03  2.166290E+03
       388   8  8.934470E+05  1.728120E+05  6.684950E+04  3.260693E+05 -1.925255E+04 -5.156129E+02
       388   9  9.149988E+05  2.096345E+05  9.420682E+04  3.390454E+05 -2.945733E+04 -3.759138E+03
       388  10  5.501407E+05  5.513615E+04 -3.058572E+04  2.426785E+05 -1.916249E-11 -1.183977E-09
       388  11  5.308225E+05  3.353420E+04 -2.945701E+04  2.239458E+05  8.326181E-10  1.110501E-08
       388  12  5.048252E+05  4.621300E+04 -1.605840E+04  2.175897E+05 -2.552394E-09 -1.696000E-09
       388  13  7.077175E+05  1.127518E+05  1.079879E+04  2.840696E+05  1.869723E-11 -1.050901E-08
       388  14  7.121187E+05  1.031719E+05  1.869733E+04  2.750008E+05 -1.143607E-09  3.398242E-09
       388  15  7.098909E+05  1.279216E+05  3.907517E+04  2.783082E+05  1.088142E-09 -5.209079E-09
       388  16  8.653177E+05  1.703684E+05  5.218108E+04  3.254698E+05 -1.841872E-09 -1.179529E-09
       388  17  8.934466E+05  1.728119E+05  6.684880E+04  3.260693E+05 -2.890031E-09 -7.343214E-09
       388  18  9.149979E+05  2.096343E+05  9.420517E+04  3.390453E+05  2.176463E-09  1.872509E-09
       388  19  5.501408E+05  5.513618E+04 -3.058552E+04  2.426785E+05  1.014883E+04 -1.667458E+03
       388  20  5.308230E+05  3.353431E+04 -2.945625E+04  2.239458E+05  2.003059E+04  8.105696E+02
       388  21  5.048261E+05  4.621326E+04 -1.605672E+04  2.175898E+05  2.969846E+04  3.849820E+03
       388  22  7.077176E+05  1.127518E+05  1.079897E+04  2.840696E+05  9.491909E+03 -1.916842E+03
       388  23  7.121191E+05  1.031720E+05  1.869805E+04  2.750008E+05  1.964163E+04  6.631160E+02
       388  24  7.098919E+05  1.279218E+05  3.907684E+04  2.783083E+05  2.957792E+04  3.804488E+03
       388  25  8.653178E+05  1.703684E+05  5.218123E+04  3.254698E+05  8.834809E+03 -2.166290E+03
       388  26  8.934470E+05  1.728120E+05  6.684950E+04  3.260693E+05  1.925255E+04  5.156129E+02
       388  27  9.149988E+05  2.096345E+05  9.420682E+04  3.390454E+05  2.945733E+04  3.759138E+03
       389   1  4.567905E+05  2.788485E+04 -1.709232E+04  2.364148E+05 -3.921852E+04 -5.525498E+03
       389   2  4.335702E+05 -2.827069E+04  7.044694E+03  1.925824E+05 -7.949928E+04 -1.960667E+04
       389   3  4.651482E+05  1.030773E+05  1.081101E+05  1.213442E+05 -1.170849E+05 -4.079191E+04
       389   4  7.159545E+05  1.082636E+05  4.801891E+04  2.898811E+05 -3.705813E+04 -4.704987E+03
       389   5  6.981469E+05  8.339776E+04  7.914694E+04  2.773477E+05 -8.071297E+04 -2.006890E+04
       389   6  7.357731E+05  2.466526E+05  1.898507E+05  2.374160E+05 -1.216736E+05 -4.254017E+04
       389   7  9.751839E+05  1.886421E+05  1.131252E+05  3.433652E+05 -3.489674E+04 -3.884250E+03
       389   8  9.627907E+05  1.950751E+05  1.512425E+05  3.621469E+05 -8.192722E+04 -2.053140E+04
       389   9  1.006470E+06  3.902547E+05  2.715835E+05  3.535393E+05 -1.262645E+05 -4.428999E+04
       389  10  4.567889E+05  2.788441E+04 -1.709526E+04  2.364146E+05  1.279247E-08 -1.633752E-09
       389  11  4.335633E+05 -2.827279E+04  7.032106E+03  1.925812E+05  7.325008E-09 -5.398010E-09
       389  12  4.651331E+05  1.030718E+05  1.080812E+05  1.213403E+05 -1.373253E-09 -2.445594E-09
       389  13  7.159530E+05  1.082632E+05  4.801629E+04  2.898810E+05 -3.694796E-10 -2.843396E-09
       389  14  6.981398E+05  8.339558E+04  7.913396E+04  2.773464E+05  8.381163E-10 -9.664376E-09
       389  15  7.357568E+05  2.466467E+05  1.898195E+05  2.374118E+05  8.797037E-10  5.339601E-10
       389  16  9.751826E+05  1.886418E+05  1.131229E+05  3.433651E+05 -8.802691E-09 -5.007121E-09
       389  17  9.627834E+05  1.950729E+05  1.512292E+05  3.621455E+05 -5.400812E-09 -2.377913E-09
       389  18  1.006453E+06  3.902483E+05  2.715499E+05  3.535348E+05  4.572046E-09  1.768861E-09
       389  19  4.567905E+05  2.788485E+04 -1.709232E+04  2.364148E+05  3.921852E+04  5.525498E+03
       389  20  4.335702E+05 -2.827069E+04  7.044694E+03  1.925824E+05  7.949928E+04  1.960667E+04
       389  21  4.651482E+05  1.030773E+05  1.081101E+05  1.213442E+05  1.170849E+05  4.079191E+04
       389  22  7.159545E+05  1.082636E+05  4.801891E+04  2.898811E+05  3.705813E+04  4.704987E+03
       389  23  6.981469E+05  8.339776E+04  7.914694E+04  2.773477E+05  8.071297E+04  2.006890E+04
       389  24  7.357731E+05  2.466526E+05  1.898507E+05  2.374160E+05  1.216736E+05  4.254017E+04
       389  25  9.751839E+05  1.886421E+05  1.131252E+05  3.433652E+05  3.489674E+04  3.884250E+03
       389  26  9.627907E+05  1.950751E+05  1.512425E+05  3.621469E+05  8.192722E+04  2.053140E+04
       389  27  1.006470E+06  3.902547E+05  2.715835E+05  3.535393E+05  1.262645E+05  4.428999E+04
       390   1 -1.740983E+05 -9.313054E+05 -1.772950E+05  8.799330E+04 -5.558074E+03 -2.399043E+04
       390   2 -1.134476E+05 -7.765208E+05 -1.234784E+05  2.712327E+04 -1.517968E+04 -1.026879E+04
       390   3 -7.849909E+04 -6.289180E+05 -8.484871E+04  7.865377E+04 -9.676402E+03  3.497291E+03
       390   4 -1.940355E+04 -3.116958E+05 -2.411629E+04  8.062381E+04 -5.582451E+03 -1.536825E+04
       390   5  2.586646E+03 -3.087434E+05 -1.144706E+04  2.445356E+04 -1.518158E+04 -9.254708E+03
       390   6  2.084589E+02 -3.116663E+05 -8.667981E+03  8.067982E+04 -9.660669E+03 -3.100254E+03
       390   7  1.352628E+05  3.082635E+05  1.290342E+05  7.324718E+04 -5.607022E+03 -6.737464E+03
       390   8  1.186050E+05  1.592347E+05  1.005688E+05  2.178195E+04 -1.518350E+04 -8.239860E+03
       390   9  7.890873E+04  5.677779E+03  6.750577E+04  8.270695E+04 -9.644983E+03 -9.701158E+03
       390  10 -1.740985E+05 -9.313061E+05 -1.772961E+05  8.799319E+04  1.025445E-10  1.896304E-09
       390  11 -1.134478E+05 -7.765210E+05 -1.234791E+05  2.712315E+04  7.296016E-10 -1.039102E-09
       390  12 -7.849920E+04 -6.289181E+05 -8.484891E+04  7.865380E+04  8.605335E-10 -3.646345E-09
       390  13 -1.940364E+04 -3.116960E+05 -2.411679E+04  8.062374E+04  1.243121E-09 -6.513094E-09
       390  14  2.586375E+03 -3.087435E+05 -1.144765E+04  2.445345E+04 -1.313528E-09  3.703290E-09
       390  15  2.083561E+02 -3.116663E+05 -8.668174E+03  8.067979E+04 -1.416390E-10 -1.946713E-08
       390  16  1.352627E+05  3.082634E+05  1.290340E+05  7.324715E+04 -4.480168E-10 -7.344055E-09
       390  17  1.186047E+05  1.592346E+05  1.005683E+05  2.178185E+04  6.906548E-10 -1.582174E-08
       390  18  7.890861E+04  5.677653E+03  6.750542E+04  8.270687E+04 -1.012617E-09  3.340550E-09
       390  19 -1.740983E+05 -9.313054E+05 -1.772950E+05  8.799330E+04  5.558074E+03  2.399043E+04
       390  20 -1.134476E+05 -7.765208E+05 -1.234784E+05  2.712327E+04  1.517968E+04  1.026879E+04
       390  21 -7.849909E+04 -6.289180E+05 -8.484871E+04  7.865377E+04  9.676402E+03 -3.497291E+03
       390  22 -1.940355E+04 -3.116958E+05 -2.411629E+04  8.062381E+04  5.582451E+03  1.536825E+04
       390  23  2.586646E+03 -3.087434E+05 -1.144706E+04  2.445356E+04  1.518158E+04  9.254708E+03
       390  24  2.084589E+02 -3.116663E+05 -8.667981E+03  8.067982E+04  9.660669E+03  3.100254E+03
       390  25  1.352628E+05  3.082635E+05  1.290342E+05  7.324718E+04  5.607022E+03  6.737464E+03
       390  26  1.186050E+05  1.592347E+05  1.005688E+05  2.178195E+04  1.518350E+04  8.239860E+03
       390  27  7.890873E+04  5.677779E+03  6.750577E+04  8.270695E+04  9.644983E+03  9.701158E+03
       391   1 -3.027276E+04 -4.239452E+05 -3.525112E+04  8.208770E+04 -3.753704E+03  8.899125E+02
       391   2  1.020244E+04 -2.716770E+05  1.548835E+03  2.410914E+04  1.194265E+03  4.742233E+03
       391   3  4.304267E+04 -1.211132E+05  3.407098E+04  7.912316E+04  6.022069E+03  8.595618E+03
       391   4 -2.194782E+03 -3.107227E+05 -8.163270E+03  8.079538E+04 -3.747955E+03 -1.637636E+03
       391   5  7.328673E+02 -3.098558E+05 -7.603693E+03  2.429656E+04  1.200009E+03  2.275024E+03
       391   6 -3.983621E+03 -3.107253E+05 -1.136261E+04  8.079112E+04  6.027756E+03  6.187828E+03
       391   7  2.588228E+04 -1.974885E+05  1.892370E+04  7.950282E+04 -3.742195E+03 -4.165644E+03
       391   8 -8.736806E+03 -3.480332E+05 -1.675630E+04  2.448398E+04  1.205752E+03 -1.920331E+02
       391   9 -5.101251E+04 -5.003043E+05 -5.679872E+04  8.245858E+04  6.033430E+03  3.780769E+03
       391  10 -3.027278E+04 -4.239452E+05 -3.525115E+04  8.208770E+04  2.912138E-10 -2.004758E-10
       391  11  1.020243E+04 -2.716770E+05  1.548790E+03  2.410913E+04  4.706551E-10  2.606779E-09
       391  12  4.304261E+04 -1.211133E+05  3.407077E+04  7.912312E+04 -1.251411E-09 -1.761261E-09
       391  13 -2.194798E+03 -3.107227E+05 -8.163301E+03  8.079537E+04  3.035806E-10 -7.362199E-09
       391  14  7.328644E+02 -3.098558E+05 -7.603706E+03  2.429656E+04  1.738430E-09 -4.348955E-11
       391  15 -3.983670E+03 -3.107253E+05 -1.136275E+04  8.079109E+04  1.845299E-09 -1.248085E-08
       391  16  2.588226E+04 -1.974885E+05  1.892364E+04  7.950281E+04 -6.915210E-11 -4.579713E-09
       391  17 -8.736808E+03 -3.480332E+05 -1.675631E+04  2.448398E+04 -1.176997E-09 -1.795985E-08
       391  18 -5.101255E+04 -5.003044E+05 -5.679881E+04  8.245857E+04  3.009550E-10  5.991717E-09
       391  19 -3.027276E+04 -4.239452E+05 -3.525112E+04  8.208770E+04  3.753704E+03 -8.899125E+02
       391  20  1.020244E+04 -2.716770E+05  1.548835E+03  2.410914E+04 -1.194265E+03 -4.742233E+03
       391  21  4.304267E+04 -1.211132E+05  3.407098E+04  7.912316E+04 -6.022069E+03 -8.595618E+03
       391  22 -2.194782E+03 -3.107227E+05 -8.163270E+03  8.079538E+04  3.747955E+03  1.637636E+03
       391  23  7.328673E+02 -3.098558E+05 -7.603693E+03  2.429656E+04 -1.200009E+03 -2.275024E+03
       391  24 -3.983621E+03 -3.107253E+05 -1.136261E+04  8.079112E+04 -6.027756E+03 -6.187828E+03
       391  25  2.588228E+04 -1.974885E+05  1.892370E+04  7.950282E+04  3.742195E+03  4.165644E+03
       391  26 -8.736806E+03 -3.480332E+05 -1.675630E+04  2.448398E+04 -1.205752E+03  1.920331E+02
       391  27 -5.101251E+04 -5.003043E+05 -5.679872E+04  8.245858E+04 -6.033430E+03 -3.780769E+03
       392   1  9.880443E+04  8.082412E+04  8.123349E+04  8.461895E+04  1.212921E+04  1.528970E+04
       392   2  1.397398E+05  2.368932E+05  1.103848E+05  2.015331E+04  1.760472E+04  1.758066E+04
       392   3  1.382146E+05  3.832120E+05  1.276669E+05  6.790952E+04  6.351790E+03  1.982467E+04
       392   4  1.194690E+03 -3.128701E+05 -1.320435E+04  8.065916E+04  1.214641E+04  8.305526E+03
       392   5  4.830807E+03 -3.072659E+05 -1.987061E+04  2.448934E+04  1.760183E+04  1.902223E+04
       392   6 -3.547537E+04 -3.129065E+05 -4.426696E+04  8.054923E+04  6.322407E+03  2.969115E+04
       392   7 -9.642622E+04 -7.064222E+05 -1.076530E+05  7.670197E+04  1.216370E+04  1.325764E+03
       392   8 -1.300996E+05 -8.511536E+05 -1.501469E+05  2.882173E+04  1.759896E+04  2.046252E+04
       392   9 -2.092009E+05 -1.008584E+06 -2.162363E+05  9.317506E+04  6.293410E+03  3.954658E+04
       392  10  9.880421E+04  8.082383E+04  8.123278E+04  8.461880E+04  3.630268E-10  1.465951E-09
       392  11  1.397394E+05  2.368927E+05  1.103836E+05  2.015306E+04  1.209538E-09  9.147525E-09
       392  12  1.382145E+05  3.832116E+05  1.276661E+05  6.790941E+04 -1.463384E-10  7.466725E-09
       392  13  1.194513E+03 -3.128702E+05 -1.320476E+04  8.065908E+04 -1.254436E-09 -7.733438E-09
       392  14  4.830377E+03 -3.072664E+05 -1.987187E+04  2.448907E+04  2.493021E-09  3.052045E-09
       392  15 -3.547565E+04 -3.129075E+05 -4.426869E+04  8.054908E+04 -5.801703E-10 -1.498624E-08
       392  16 -9.642638E+04 -7.064222E+05 -1.076533E+05  7.670196E+04  1.171754E-09 -3.100557E-09
       392  17 -1.301000E+05 -8.511541E+05 -1.501483E+05  2.882144E+04  1.661440E-09 -1.556801E-08
       392  18 -2.092014E+05 -1.008586E+06 -2.162393E+05  9.317486E+04 -5.492667E-10  1.461694E-09
       392  19  9.880443E+04  8.082412E+04  8.123349E+04  8.461895E+04 -1.212921E+04 -1.528970E+04
       392  20  1.397398E+05  2.368932E+05  1.103848E+05  2.015331E+04 -1.760472E+04 -1.758066E+04
       392  21  1.382146E+05  3.832120E+05  1.276669E+05  6.790952E+04 -6.351790E+03 -1.982467E+04
       392  22  1.194690E+03 -3.128701E+05 -1.320435E+04  8.065916E+04 -1.214641E+04 -8.305526E+03
       392  23  4.830807E+03 -3.072659E+05 -1.987061E+04  2.448934E+04 -1.760183E+04 -1.902223E+04
       392  24 -3.547537E+04 -3.129065E+05 -4.426696E+04  8.054923E+04 -6.322407E+03 -2.969115E+04
       392  25 -9.642622E+04 -7.064222E+05 -1.076530E+05  7.670197E+04 -1.216370E+04 -1.325764E+03
       392  26 -1.300996E+05 -8.511536E+05 -1.501469E+05  2.882173E+04 -1.759896E+04 -2.046252E+04
       392  27 -2.092009E+05 -1.008584E+06 -2.162363E+05  9.317506E+04 -6.293410E+03 -3.954658E+04
       393   1  5.003313E+05 -6.602562E+04 -5.828432E+04 -5.003177E+03  1.643567E+04  3.675550E+03
       393   2  5.219397E+05 -8.836684E+04 -6.758530E+04 -1.163675E+03  1.284985E+04  1.101178E+04
       393   3  5.519378E+05 -7.971190E+04 -6.677217E+04 -1.632249E+04  9.272266E+03  1.025516E+04
       393   4  8.682756E+05  2.562949E+04  3.242840E+04 -1.278479E+04  2.218688E+04  3.681519E+03
       393   5  8.637371E+05 -3.708633E+03  1.418879E+04 -3.272217E+03  1.451614E+04  1.101283E+04
       393   6  8.682907E+05 -1.351362E+03  8.892849E+03 -1.275707E+04  6.853786E+03  1.025320E+04
       393   7  1.236343E+06  1.172748E+05  1.231313E+05 -2.057104E+04  2.794150E+04  3.687342E+03
       393   8  1.205641E+06  8.094114E+04  9.595465E+04 -5.381947E+03  1.618335E+04  1.101388E+04
       393   9  1.184735E+06  7.700198E+04  8.455084E+04 -9.189844E+03  4.434078E+03  1.025121E+04
       393  10  5.003310E+05 -6.602571E+04 -5.828485E+04 -5.003225E+03  3.768751E-10 -2.842373E-11
       393  11  5.219395E+05 -8.836702E+04 -6.758584E+04 -1.163789E+03 -1.336532E-10 -1.772919E-10
       393  12  5.519377E+05 -7.971203E+04 -6.677253E+04 -1.632257E+04  3.870317E-10  1.268310E-10
       393  13  8.682751E+05  2.562934E+04  3.242745E+04 -1.278485E+04  4.214956E-11 -3.228390E-11
       393  14  8.637368E+05 -3.708820E+03  1.418817E+04 -3.272346E+03 -2.599339E-10 -1.242203E-10
       393  15  8.682906E+05 -1.351487E+03  8.892563E+03 -1.275713E+04 -5.149960E-11  8.607934E-11
       393  16  1.236342E+06  1.172745E+05  1.231298E+05 -2.057112E+04 -8.971625E-10 -7.358101E-11
       393  17  1.205641E+06  8.094094E+04  9.595393E+04 -5.382091E+03  3.875058E-10 -5.256853E-11
       393  18  1.184735E+06  7.700186E+04  8.455060E+04 -9.189880E+03 -2.342551E-10  7.115928E-12
       393  19  5.003313E+05 -6.602562E+04 -5.828432E+04 -5.003177E+03 -1.643567E+04 -3.675550E+03
       393  20  5.219397E+05 -8.836684E+04 -6.758530E+04 -1.163675E+03 -1.284985E+04 -1.101178E+04
       393  21  5.519378E+05 -7.971190E+04 -6.677217E+04 -1.632249E+04 -9.272266E+03 -1.025516E+04
       393  22  8.682756E+05  2.562949E+04  3.242840E+04 -1.278479E+04 -2.218688E+04 -3.681519E+03
       393  23  8.637371E+05 -3.708633E+03  1.418879E+04 -3.272217E+03 -1.451614E+04 -1.101283E+04
       393  24  8.682907E+05 -1.351362E+03  8.892849E+03 -1.275707E+04 -6.853786E+03 -1.025320E+04
       393  25  1.236343E+06  1.172748E+05  1.231313E+05 -2.057104E+04 -2.794150E+04 -3.687342E+03
       393  26  1.205641E+06  8.094114E+04  9.595465E+04 -5.381947E+03 -1.618335E+04 -1.101388E+04
       393  27  1.184735E+06  7.700198E+04  8.455084E+04 -9.189844E+03 -4.434078E+03 -1.025121E+04
       394   1  5.840105E+05 -6.735065E+04 -6.052652E+04 -1.198367E+04  5.515507E+03  8.512057E+03
       394   2  6.080497E+05 -6.430564E+04 -5.806171E+04 -3.343533E+03  3.918627E+03  8.126592E+03
       394   3  6.332168E+05 -5.796369E+04 -5.371373E+04 -1.304680E+04  2.321509E+03  7.152156E+03
       394   4  8.665351E+05  2.665108E+03  7.256345E+03 -1.262081E+04  5.471763E+03  8.511770E+03
       394   5  8.659480E+05 -4.163854E+02  3.694770E+03 -3.448607E+03  3.577068E+03  8.126219E+03
       394   6  8.665392E+05 -1.500258E+02  2.222376E+03 -1.261932E+04  1.682197E+03  7.151804E+03
       394   7  1.149133E+06  7.267507E+04  7.503355E+04 -1.325824E+04  5.427998E+03  8.511483E+03
       394   8  1.123907E+06  6.346805E+04  6.544655E+04 -3.553730E+03  3.235366E+03  8.125846E+03
       394   9  1.099911E+06  5.765969E+04  5.815463E+04 -1.219168E+04  1.042645E+03  7.151452E+03
       394  10  5.840105E+05 -6.735073E+04 -6.052671E+04 -1.198371E+04  2.603919E-10  1.470921E-10
       394  11  6.080497E+05 -6.430571E+04 -5.806186E+04 -3.343559E+03 -8.559006E-12 -4.758282E-12
       394  12  6.332168E+05 -5.796375E+04 -5.371384E+04 -1.304681E+04  2.341946E-10  4.396064E-11
       394  13  8.665351E+05  2.665022E+03  7.256153E+03 -1.262084E+04 -4.489784E-11  4.063901E-11
       394  14  8.659479E+05 -4.164598E+02  3.694622E+03 -3.448630E+03 -1.212308E-10 -1.551140E-10
       394  15  8.665392E+05 -1.500815E+02  2.222275E+03 -1.261933E+04 -8.331202E-12  1.812248E-10
       394  16  1.149133E+06  7.267499E+04  7.503336E+04 -1.325828E+04 -5.393075E-10  1.328294E-10
       394  17  1.123907E+06  6.346797E+04  6.544641E+04 -3.553752E+03  7.573851E-11  3.966806E-11
       394  18  1.099911E+06  5.765964E+04  5.815453E+04 -1.219169E+04 -9.034683E-11  1.922850E-11
       394  19  5.840105E+05 -6.735065E+04 -6.052652E+04 -1.198367E+04 -5.515507E+03 -8.512057E+03
       394  20  6.080497E+05 -6.430564E+04 -5.806171E+04 -3.343533E+03 -3.918627E+03 -8.126592E+03
       394  21  6.332168E+05 -5.796369E+04 -5.371373E+04 -1.304680E+04 -2.321509E+03 -7.152156E+03
       394  22  8.665351E+05  2.665108E+03  7.256345E+03 -1.262081E+04 -5.471763E+03 -8.511770E+03
       394  23  8.659480E+05 -4.163854E+02  3.694770E+03 -3.448607E+03 -3.577068E+03 -8.126219E+03
       394  24  8.665392E+05 -1.500258E+02  2.222376E+03 -1.261932E+04 -1.682197E+03 -7.151804E+03
       394  25  1.149133E+06  7.267507E+04  7.503355E+04 -1.325824E+04 -5.427998E+03 -8.511483E+03
       394  26  1.123907E+06  6.346805E+04  6.544655E+04 -3.553730E+03 -3.235366E+03 -8.125846E+03
       394  27  1.099911E+06  5.765969E+04  5.815463E+04 -1.219168E+04 -1.042645E+03 -7.151452E+03
       395   1  6.655053E+05 -4.947351E+04 -4.628076E+04 -1.246326E+04  1.789784E+03  6.494083E+03
       395   2  6.892048E+05 -4.390485E+04 -4.139890E+04 -3.619138E+03  1.309227E+03  5.565158E+03
       395   3  7.130946E+05 -3.798717E+04 -3.610874E+04 -1.252974E+04  8.283035E+02  4.602137E+03
       395   4  8.663239E+05  2.627584E+02  1.750881E+03 -1.248900E+04  1.330157E+03  6.493852E+03
       395   5  8.662283E+05 -5.202902E+01  9.930795E+02 -3.611779E+03  8.322532E+02  5.565006E+03
       395   6  8.663257E+05 -1.473299E+01  6.556224E+02 -1.248896E+04  3.340010E+02  4.602069E+03
       395   7  1.067179E+06  4.999611E+04  4.977968E+04 -1.251476E+04  8.703819E+02  6.493621E+03
       395   8  1.043280E+06  4.379852E+04  4.338284E+04 -3.604419E+03  3.551439E+02  5.564853E+03
       395   9  1.019578E+06  3.795600E+04  3.741832E+04 -1.244817E+04 -1.604229E+02  4.602000E+03
       395  10  6.655053E+05 -4.947355E+04 -4.628085E+04 -1.246327E+04  9.306482E-11  1.005548E-10
       395  11  6.892048E+05 -4.390488E+04 -4.139896E+04 -3.619144E+03  1.464901E-10  3.770766E-11
       395  12  7.130946E+05 -3.798720E+04 -3.610878E+04 -1.252974E+04 -7.082501E-11  1.585272E-11
       395  13  8.663239E+05  2.627126E+02  1.750798E+03 -1.248901E+04 -1.116645E-11  2.377626E-12
       395  14  8.662283E+05 -5.206247E+01  9.930200E+02 -3.611783E+03  1.626389E-12 -3.181701E-11
       395  15  8.663256E+05 -1.475577E+01  6.555824E+02 -1.248896E+04 -5.557585E-11  5.017234E-11
       395  16  1.067179E+06  4.999606E+04  4.977960E+04 -1.251477E+04 -3.131735E-10 -5.834083E-11
       395  17  1.043280E+06  4.379848E+04  4.338278E+04 -3.604421E+03 -9.092488E-11 -3.953289E-11
       395  18  1.019578E+06  3.795598E+04  3.741828E+04 -1.244817E+04  5.810693E-11 -1.385747E-10
       395  19  6.655053E+05 -4.947351E+04 -4.628076E+04 -1.246326E+04 -1.789784E+03 -6.494083E+03
       395  20  6.892048E+05 -4.390485E+04 -4.139890E+04 -3.619138E+03 -1.309227E+03 -5.565158E+03
       395  21  7.130946E+05 -3.798717E+04 -3.610874E+04 -1.252974E+04 -8.283035E+02 -4.602137E+03
       395  22  8.663239E+05  2.627584E+02  1.750881E+03 -1.248900E+04 -1.330157E+03 -6.493852E+03
       395  23  8.662283E+05 -5.202902E+01  9.930795E+02 -3.611779E+03 -8.322532E+02 -5.565006E+03
       395  24  8.663257E+05 -1.473299E+01  6.556224E+02 -1.248896E+04 -3.340010E+02 -4.602069E+03
       395  25  1.067179E+06  4.999611E+04  4.977968E+04 -1.251476E+04 -8.703819E+02 -6.493621E+03
       395  26  1.043280E+06  4.379852E+04  4.338284E+04 -3.604419E+03 -3.551439E+02 -5.564853E+03
       395  27  1.019578E+06  3.795600E+04  3.741832E+04 -1.244817E+04  1.604229E+02 -4.602000E+03
       396   1  7.446883E+05 -3.008671E+04 -2.848699E+04 -1.239709E+04  7.034679E+02  4.038859E+03
       396   2  7.679471E+05 -2.436524E+04 -2.305798E+04 -3.706232E+03  4.603718E+02  3.090096E+03
       396   3  7.912589E+05 -1.858831E+04 -1.745560E+04 -1.239483E+04  2.170649E+02  2.144254E+03
       396   4  8.662966E+05  2.331618E+01  5.628185E+02 -1.240561E+04  2.241479E+02  4.038835E+03
       396   5  8.662712E+05 -9.200485E+00  4.868867E+02 -3.715962E+03 -1.752480E+01  3.090118E+03
       396   6  8.662974E+05  1.342910E+01  5.832634E+02 -1.240560E+04 -2.593993E+02  2.144321E+03
       396   7  9.879186E+05  3.013227E+04  2.961159E+04 -1.241413E+04 -2.552655E+02  4.038812E+03
       396   8  9.646040E+05  2.434614E+04  2.403107E+04 -3.725693E+03 -4.954967E+02  3.090139E+03
       396   9  9.413412E+05  1.861476E+04  1.862172E+04 -1.241638E+04 -7.359207E+02  2.144389E+03
       396  10  7.446883E+05 -3.008673E+04 -2.848702E+04 -1.239709E+04 -2.071486E-11  1.925320E-11
       396  11  7.679471E+05 -2.436525E+04 -2.305800E+04 -3.706233E+03  7.806892E-11 -8.344336E-11
       396  12  7.912589E+05 -1.858832E+04 -1.745560E+04 -1.239483E+04 -1.098765E-10 -1.178066E-11
       396  13  8.662966E+05  2.329865E+01  5.627878E+02 -1.240561E+04 -2.821376E-11 -1.798922E-11
       396  14  8.662712E+05 -9.210743E+00  4.868688E+02 -3.715962E+03 -6.418531E-11  6.515208E-12
       396  15  8.662974E+05  1.342415E+01  5.832547E+02 -1.240560E+04 -1.262718E-11 -8.966765E-11
       396  16  9.879186E+05  3.013226E+04  2.961155E+04 -1.241413E+04  1.883702E-10  1.225188E-10
       396  17  9.646040E+05  2.434613E+04  2.403105E+04 -3.725692E+03 -9.189237E-11  1.848658E-10
       396  18  9.413412E+05  1.861476E+04  1.862171E+04 -1.241638E+04  1.365764E-12 -1.327602E-10
       396  19  7.446883E+05 -3.008671E+04 -2.848699E+04 -1.239709E+04 -7.034679E+02 -4.038859E+03
       396  20  7.679471E+05 -2.436524E+04 -2.305798E+04 -3.706232E+03 -4.603718E+02 -3.090096E+03
       396  21  7.912589E+05 -1.858831E+04 -1.745560E+04 -1.239483E+04 -2.170649E+02 -2.144254E+03
       396  22  8.662966E+05  2.331618E+01  5.628185E+02 -1.240561E+04 -2.241479E+02 -4.038835E+03
       396  23  8.662712E+05 -9.200485E+00  4.868867E+02 -3.715962E+03  1.752480E+01 -3.090118E+03
       396  24  8.662974E+05  1.342910E+01  5.832634E+02 -1.240560E+04  2.593993E+02 -2.144321E+03
       396  25  9.879186E+05  3.013227E+04  2.961159E+04 -1.241413E+04  2.552655E+02 -4.038812E+03
       396  26  9.646040E+05  2.434614E+04  2.403107E+04 -3.725693E+03  4.954967E+02 -3.090139E+03
       396  27  9.413412E+05  1.861476E+04  1.862172E+04 -1.241638E+04  7.359207E+02 -2.144389E+03
       397   1  8.224067E+05 -1.086108E+04 -9.751499E+03 -1.233801E+04  1.006485E+02  1.595267E+03
       397   2  8.454211E+05 -5.183221E+03 -3.912212E+03 -3.747447E+03 -4.366659E+02  6.548407E+02
       397   3  8.685404E+05  6.635391E+02  2.317004E+03 -1.237075E+04 -9.740415E+02 -2.822829E+02
       397   4  8.663101E+05 -1.862745E-01  6.906165E+02 -1.236885E+04 -3.746965E+02  1.595354E+03
       397   5  8.662580E+05 -2.191215E+01  1.077218E+03 -3.761912E+03 -9.103675E+02  6.549360E+02
       397   6  8.663100E+05  1.250170E+02  1.852642E+03 -1.236881E+04 -1.446080E+03 -2.821775E+02
       397   7  9.102152E+05  1.086057E+04  1.113260E+04 -1.239968E+04 -8.500749E+02  1.595441E+03
       397   8  8.870953E+05  5.139365E+03  6.066618E+03 -3.776378E+03 -1.384085E+03  6.550313E+02
       397   9  8.640796E+05 -4.135053E+02  1.388280E+03 -1.236687E+04 -1.918117E+03 -2.820720E+02
       397  10  8.224067E+05 -1.086108E+04 -9.751504E+03 -1.233801E+04 -1.962943E-10 -7.265743E-11
       397  11  8.454211E+05 -5.183222E+03 -3.912213E+03 -3.747446E+03  8.967210E-11 -1.420412E-10
       397  12  8.685404E+05  6.635388E+02  2.317002E+03 -1.237076E+04 -2.301423E-10 -3.380451E-11
       397  13  8.663101E+05 -1.890463E-01  6.906114E+02 -1.236885E+04 -3.616322E-11  5.724255E-11
       397  14  8.662580E+05 -2.191283E+01  1.077216E+03 -3.761911E+03 -2.247969E-11 -3.315699E-11
       397  15  8.663100E+05  1.250163E+02  1.852638E+03 -1.236881E+04  3.514009E-11 -8.875415E-11
       397  16  9.102152E+05  1.086056E+04  1.113259E+04 -1.239968E+04  1.456167E-10 -7.732651E-11
       397  17  8.870953E+05  5.139364E+03  6.066614E+03 -3.776377E+03 -2.342140E-10 -5.926288E-11
       397  18  8.640796E+05 -4.135064E+02  1.388273E+03 -1.236687E+04  3.309624E-12  5.354615E-11
       397  19  8.224067E+05 -1.086108E+04 -9.751499E+03 -1.233801E+04 -1.006485E+02 -1.595267E+03
       397  20  8.454211E+05 -5.183221E+03 -3.912212E+03 -3.747447E+03  4.366659E+02 -6.548407E+02
       397  21  8.685404E+05  6.635391E+02  2.317004E+03 -1.237075E+04  9.740415E+02  2.822829E+02
       397  22  8.663101E+05 -1.862745E-01  6.906165E+02 -1.236885E+04  3.746965E+02 -1.595354E+03
       397  23  8.662580E+05 -2.191215E+01  1.077218E+03 -3.761912E+03  9.103675E+02 -6.549360E+02
       397  24  8.663100E+05  1.250170E+02  1.852642E+03 -1.236881E+04  1.446080E+03  2.821775E+02
       397  25  9.102152E+05  1.086057E+04  1.113260E+04 -1.239968E+04  8.500749E+02 -1.595441E+03
       397  26  8.870953E+05  5.139365E+03  6.066618E+03 -3.776378E+03  1.384085E+03 -6.550313E+02
       397  27  8.640796E+05 -4.135053E+02  1.388280E+03 -1.236687E+04  1.918117E+03  2.820720E+02
       398   1  8.996950E+05  8.197420E+03  1.042990E+04 -1.218779E+04 -1.346848E+03 -8.328268E+02
       398   2  9.225020E+05  1.377533E+04  1.758705E+04 -3.782396E+03 -3.409701E+03 -1.772564E+03
       398   3  9.459611E+05  2.090317E+04  2.647223E+04 -1.263954E+04 -5.472488E+03 -2.686032E+03
       398   4  8.664310E+05 -5.564847E+01  2.395451E+03 -1.237974E+04 -1.827749E+03 -8.327247E+02
       398   5  8.661051E+05 -1.935093E+02  4.083715E+03 -3.748323E+03 -3.877180E+03 -1.772492E+03
       398   6  8.664290E+05  1.216464E+03  7.490966E+03 -1.237953E+04 -5.926470E+03 -2.685989E+03
       398   7  8.331680E+05 -8.308798E+03 -5.639075E+03 -1.257168E+04 -2.308625E+03 -8.326224E+02
       398   8  8.097111E+05 -1.416258E+04 -9.419846E+03 -3.714254E+03 -4.344618E+03 -1.772421E+03
       398   9  7.869027E+05 -1.847069E+04 -1.149074E+04 -1.211956E+04 -6.380395E+03 -2.685946E+03
       398  10  8.996950E+05  8.197419E+03  1.042989E+04 -1.218779E+04 -1.714362E-10 -4.883768E-11
       398  11  9.225020E+05  1.377532E+04  1.758703E+04 -3.782401E+03  1.466543E-10 -1.442645E-11
       398  12  9.459611E+05  2.090315E+04  2.647216E+04 -1.263955E+04  6.056488E-11 -1.653147E-10
       398  13  8.664310E+05 -5.565011E+01  2.395444E+03 -1.237974E+04  1.924081E-11 -2.033400E-11
       398  14  8.661051E+05 -1.935167E+02  4.083681E+03 -3.748329E+03  5.372321E-11  1.545175E-11
       398  15  8.664290E+05  1.216447E+03  7.490886E+03 -1.237955E+04  5.864913E-11 -1.666832E-10
       398  16  8.331680E+05 -8.308800E+03 -5.639086E+03 -1.257168E+04  3.355783E-10  3.886578E-12
       398  17  8.097111E+05 -1.416258E+04 -9.419888E+03 -3.714260E+03 -1.557509E-10  7.178050E-11
       398  18  7.869027E+05 -1.847071E+04 -1.149083E+04 -1.211958E+04 -1.305193E-10 -2.867642E-10
       398  19  8.996950E+05  8.197420E+03  1.042990E+04 -1.218779E+04  1.346848E+03  8.328268E+02
       398  20  9.225020E+05  1.377533E+04  1.758705E+04 -3.782396E+03  3.409701E+03  1.772564E+03
       398  21  9.459611E+05  2.090317E+04  2.647223E+04 -1.263954E+04  5.472488E+03  2.686032E+03
       398  22  8.664310E+05 -5.564847E+01  2.395451E+03 -1.237974E+04  1.827749E+03  8.327247E+02
       398  23  8.661051E+05 -1.935093E+02  4.083715E+03 -3.748323E+03  3.877180E+03  1.772492E+03
       398  24  8.664290E+05  1.216464E+03  7.490966E+03 -1.237953E+04  5.926470E+03  2.685989E+03
       398  25  8.331680E+05 -8.308798E+03 -5.639075E+03 -1.257168E+04  2.308625E+03  8.326224E+02
       398  26  8.097111E+05 -1.416258E+04 -9.419846E+03 -3.714254E+03  4.344618E+03  1.772421E+03
       398  27  7.869027E+05 -1.847069E+04 -1.149074E+04 -1.211956E+04  6.380395E+03  2.685946E+03
       399   1  9.781914E+05  2.686845E+04  3.617687E+04 -1.078055E+04 -6.865087E+03 -3.293763E+03
       399   2  9.992853E+05  3.152340E+04  4.824525E+04 -4.517204E+03 -1.531305E+04 -4.232973E+03
       399   3  1.025168E+06  5.086626E+04  6.948305E+04 -1.576793E+04 -2.376127E+04 -4.781676E+03
       399   4  8.673406E+05 -5.990560E+02  9.573935E+03 -1.243556E+04 -7.436973E+03 -3.293716E+03
       399   5  8.649587E+05 -1.745549E+03  1.608791E+04 -3.678593E+03 -1.568631E+04 -4.233043E+03
       399   6  8.673316E+05  1.176321E+04  3.163502E+04 -1.243580E+04 -2.393559E+04 -4.781892E+03
       399   7  7.565010E+05 -2.806745E+04 -1.702987E+04 -1.409028E+04 -8.008757E+03 -3.293667E+03
       399   8  7.306486E+05 -3.501580E+04 -1.607070E+04 -2.840165E+03 -1.605949E+04 -4.233114E+03
       399   9  7.095180E+05 -2.734161E+04 -6.214765E+03 -9.104524E+03 -2.410986E+04 -4.782109E+03
       399  10  9.781913E+05  2.686843E+04  3.617676E+04 -1.078057E+04 -2.621933E-10  8.226327E-11
       399  11  9.992851E+05  3.152332E+04  4.824478E+04 -4.517256E+03 -2.160485E-11  4.295104E-10
       399  12  1.025167E+06  5.086609E+04  6.948195E+04 -1.576802E+04 -1.089711E-09  2.197989E-10
       399  13  8.673405E+05 -5.990825E+02  9.573811E+03 -1.243558E+04 -4.421181E-11  1.237924E-10
       399  14  8.649584E+05 -1.745634E+03  1.608742E+04 -3.678647E+03  2.440315E-10  5.318304E-10
       399  15  8.673310E+05  1.176303E+04  3.163390E+04 -1.243589E+04 -2.807723E-11  2.045508E-10
       399  16  7.565010E+05 -2.806748E+04 -1.703001E+04 -1.409030E+04  3.369846E-10  1.015725E-10
       399  17  7.306483E+05 -3.501589E+04 -1.607122E+04 -2.840219E+03  2.649175E-12  4.763955E-10
       399  18  7.095174E+05 -2.734179E+04 -6.215899E+03 -9.104617E+03  1.064940E-09  2.206309E-10
       399  19  9.781914E+05  2.686845E+04  3.617687E+04 -1.078055E+04  6.865087E+03  3.293763E+03
       399  20  9.992853E+05  3.152340E+04  4.824525E+04 -4.517204E+03  1.531305E+04  4.232973E+03
       399  21  1.025168E+06  5.086626E+04  6.948305E+04 -1.576793E+04  2.376127E+04  4.781676E+03
       399  22  8.673406E+05 -5.990560E+02  9.573935E+03 -1.243556E+04  7.436973E+03  3.293716E+03
       399  23  8.649587E+05 -1.745549E+03  1.608791E+04 -3.678593E+03  1.568631E+04  4.233043E+03
       399  24  8.673316E+05  1.176321E+04  3.163502E+04 -1.243580E+04  2.393559E+04  4.781892E+03
       399  25  7.565010E+05 -2.806745E+04 -1.702987E+04 -1.409028E+04  8.008757E+03  3.293667E+03
       399  26  7.306486E+05 -3.501580E+04 -1.607070E+04 -2.840165E+03  1.605949E+04  4.233114E+03
       399  27  7.095180E+05 -2.734161E+04 -6.214765E+03 -9.104524E+03  2.410986E+04  4.782109E+03
       400   1  1.064791E+06  4.124107E+04  8.418333E+04  2.358209E+03 -2.822058E+04 -6.103059E+03
       400   2  1.069249E+06  3.689089E+04  1.131165E+05 -1.376059E+04 -6.438621E+04 -6.901444E+03
       400   3  1.113148E+06  1.713173E+05  2.002739E+05 -4.778378E+04 -1.005548E+05 -2.360901E+03
       400   4  8.749468E+05 -5.772671E+03  3.877525E+04 -1.251152E+04 -2.996187E+04 -6.102691E+03
       400   5  8.554287E+05 -1.604885E+04  6.198152E+04 -3.578902E+03 -6.342432E+04 -6.902428E+03
       400   6  8.748965E+05  1.120063E+05  1.415507E+05 -1.254926E+04 -9.688815E+04 -2.365341E+03
       400   7  6.851361E+05 -5.278819E+04 -6.635239E+03 -2.737670E+04 -3.170263E+04 -6.102239E+03
       400   8  6.416508E+05 -6.899151E+04  1.084337E+04  6.599271E+03 -6.246275E+04 -6.903380E+03
       400   9  6.366988E+05  5.269584E+04  8.282409E+04  2.267173E+04 -9.322289E+04 -2.369366E+03
       400  10  1.064790E+06  4.124082E+04  8.418176E+04  2.358071E+03 -5.963353E-09 -2.827395E-10
       400  11  1.069244E+06  3.688973E+04  1.131087E+05 -1.376095E+04 -4.387348E-10 -4.942399E-10
       400  12  1.113138E+06  1.713146E+05  2.002549E+05 -4.778397E+04  4.827880E-09 -1.031603E-10
       400  13  8.749458E+05 -5.772951E+03  3.877350E+04 -1.251167E+04 -1.721923E-11 -1.876329E-10
       400  14  8.554244E+05 -1.604998E+04  6.197389E+04 -3.579254E+03 -1.097023E-10 -5.199828E-10
       400  15  8.748865E+05  1.120038E+05  1.415331E+05 -1.254944E+04 -1.186589E-10 -2.171017E-10
       400  16  6.851351E+05 -5.278850E+04 -6.637195E+03 -2.737686E+04  6.009413E-09 -1.214149E-10
       400  17  6.416466E+05 -6.899261E+04  1.083595E+04  6.598924E+03  5.668276E-10 -1.048813E-10
       400  18  6.366895E+05  5.269350E+04  8.280777E+04  2.267156E+04 -4.926777E-09 -1.054172E-10
       400  19  1.064791E+06  4.124107E+04  8.418333E+04  2.358209E+03  2.822058E+04  6.103059E+03
       400  20  1.069249E+06  3.689089E+04  1.131165E+05 -1.376059E+04  6.438621E+04  6.901444E+03
       400  21  1.113148E+06  1.713173E+05  2.002739E+05 -4.778378E+04  1.005548E+05  2.360901E+03
       400  22  8.749468E+05 -5.772671E+03  3.877525E+04 -1.251152E+04  2.996187E+04  6.102691E+03
       400  23  8.554287E+05 -1.604885E+04  6.198152E+04 -3.578902E+03  6.342432E+04  6.902428E+03
       400  24  8.748965E+05  1.120063E+05  1.415507E+05 -1.254926E+04  9.688815E+04  2.365341E+03
       400  25  6.851361E+05 -5.278819E+04 -6.635239E+03 -2.737670E+04  3.170263E+04  6.102239E+03
       400  26  6.416508E+05 -6.899151E+04  1.084337E+04  6.599271E+03  6.246275E+04  6.903380E+03
       400  27  6.366988E+05  5.269584E+04  8.282409E+04  2.267173E+04  9.322289E+04  2.369366E+03
       401   1 -1.118450E+05 -8.177983E+04 -7.709112E+04 -1.104927E+04  6.068514E+03  3.809957E+03
       401   2 -8.471575E+04 -8.983093E+04 -7.710599E+04 -3.330410E+03  6.187954E+03  1.141294E+04
       401   3 -5.332344E+04 -8.136547E+04 -7.303975E+04 -1.716418E+04  6.309721E+03  1.052419E+04
       401   4  2.720212E+05  1.392593E+04  1.761801E+04 -1.534438E+04  1.204461E+04  3.811745E+03
       401   5  2.695225E+05 -2.028195E+03  7.701036E+03 -4.566586E+03  7.882882E+03  1.141271E+04
       401   6  2.720271E+05 -7.275268E+02  4.835534E+03 -1.534060E+04  3.723574E+03  1.052409E+04
       401   7  6.560215E+05  1.096208E+05  1.123164E+05 -1.964217E+04  1.802439E+04  3.813450E+03
       401   8  6.238758E+05  8.576545E+04  9.249921E+04 -5.803473E+03  9.578772E+03  1.141247E+04
       401   9  5.974746E+05  7.990276E+04  8.270337E+04 -1.351605E+04  1.136077E+03  1.052397E+04
       401  10 -1.118450E+05 -8.177986E+04 -7.709121E+04 -1.104929E+04  2.313582E-10 -1.232563E-11
       401  11 -8.471582E+04 -8.983108E+04 -7.710631E+04 -3.330467E+03 -1.535004E-10 -2.430078E-10
       401  12 -5.332351E+04 -8.136560E+04 -7.304003E+04 -1.716423E+04  4.753133E-12 -4.509077E-11
       401  13  2.720211E+05  1.392587E+04  1.761771E+04 -1.534442E+04 -1.792275E-11 -1.285309E-10
       401  14  2.695224E+05 -2.028352E+03  7.700675E+03 -4.566658E+03 -2.421535E-10 -6.353733E-11
       401  15  2.720270E+05 -7.276495E+02  4.835300E+03 -1.534063E+04 -1.782459E-10 -3.069116E-11
       401  16  6.560212E+05  1.096207E+05  1.123157E+05 -1.964223E+04 -2.302454E-10  1.499286E-10
       401  17  6.238757E+05  8.576529E+04  9.249879E+04 -5.803561E+03 -2.059865E-10 -1.628810E-10
       401  18  5.974745E+05  7.990264E+04  8.270316E+04 -1.351606E+04 -1.393589E-10 -1.429419E-10
       401  19 -1.118450E+05 -8.177983E+04 -7.709112E+04 -1.104927E+04 -6.068514E+03 -3.809957E+03
       401  20 -8.471575E+04 -8.983093E+04 -7.710599E+04 -3.330410E+03 -6.187954E+03 -1.141294E+04
       401  21 -5.332344E+04 -8.136547E+04 -7.303975E+04 -1.716418E+04 -6.309721E+03 -1.052419E+04
       401  22  2.720212E+05  1.392593E+04  1.761801E+04 -1.534438E+04 -1.204461E+04 -3.811745E+03
       401  23  2.695225E+05 -2.028195E+03  7.701036E+03 -4.566586E+03 -7.882882E+03 -1.141271E+04
       401  24  2.720271E+05 -7.275268E+02  4.835534E+03 -1.534060E+04 -3.723574E+03 -1.052409E+04
       401  25  6.560215E+05  1.096208E+05  1.123164E+05 -1.964217E+04 -1.802439E+04 -3.813450E+03
       401  26  6.238758E+05  8.576545E+04  9.249921E+04 -5.803473E+03 -9.578772E+03 -1.141247E+04
       401  27  5.974746E+05  7.990276E+04  8.270337E+04 -1.351605E+04 -1.136077E+03 -1.052397E+04
       402   1 -1.521413E+04 -6.954102E+04 -6.478094E+04 -1.487511E+04  3.074299E+03  8.637516E+03
       402   2  1.330611E+04 -6.404513E+04 -5.967435E+04 -4.410240E+03  2.359895E+03  8.116220E+03
       402   3  4.242501E+04 -5.675843E+04 -5.364283E+04 -1.544757E+04  1.644708E+03  6.965921E+03
       402   4  2.710664E+05  1.453223E+03  3.945545E+03 -1.533010E+04  2.970920E+03  8.637272E+03
       402   5  2.707418E+05 -2.281271E+02  2.011768E+03 -4.579477E+03  1.939085E+03  8.116143E+03
       402   6  2.710695E+05 -6.403443E+01  1.222919E+03 -1.533048E+04  9.064957E+02  6.966129E+03
       402   7  5.574220E+05  7.244151E+04  7.266621E+04 -1.578530E+04  2.867493E+03  8.637029E+03
       402   8  5.282382E+05  6.358407E+04  6.369320E+04 -4.748779E+03  1.518101E+03  8.116066E+03
       402   9  4.997618E+05  5.662657E+04  5.608497E+04 -1.521334E+04  1.680124E+02  6.966337E+03
       402  10 -1.521416E+04 -6.954111E+04 -6.478110E+04 -1.487513E+04 -1.009583E-10  4.812687E-11
       402  11  1.330609E+04 -6.404521E+04 -5.967449E+04 -4.410256E+03 -2.059733E-10 -1.955752E-10
       402  12  4.242499E+04 -5.675849E+04 -5.364293E+04 -1.544758E+04 -4.266910E-10  1.299278E-10
       402  13  2.710664E+05  1.453140E+03  3.945388E+03 -1.533012E+04 -3.138874E-10  1.424805E-10
       402  14  2.707418E+05 -2.281989E+02  2.011637E+03 -4.579490E+03  2.525258E-10 -3.179088E-10
       402  15  2.710695E+05 -6.408676E+01  1.222826E+03 -1.533049E+04  6.407565E-11 -1.985732E-12
       402  16  5.574219E+05  7.244143E+04  7.266606E+04 -1.578532E+04  1.801917E-10 -1.129043E-10
       402  17  5.282382E+05  6.358400E+04  6.369307E+04 -4.748789E+03 -2.928255E-10 -5.437314E-11
       402  18  4.997618E+05  5.662652E+04  5.608487E+04 -1.521335E+04  1.721807E-10 -1.043987E-10
       402  19 -1.521413E+04 -6.954102E+04 -6.478094E+04 -1.487511E+04 -3.074299E+03 -8.637516E+03
       402  20  1.330611E+04 -6.404513E+04 -5.967435E+04 -4.410240E+03 -2.359895E+03 -8.116220E+03
       402  21  4.242501E+04 -5.675843E+04 -5.364283E+04 -1.544757E+04 -1.644708E+03 -6.965921E+03
       402  22  2.710664E+05  1.453223E+03  3.945545E+03 -1.533010E+04 -2.970920E+03 -8.637272E+03
       402  23  2.707418E+05 -2.281271E+02  2.011768E+03 -4.579477E+03 -1.939085E+03 -8.116143E+03
       402  24  2.710695E+05 -6.403443E+01  1.222919E+03 -1.533048E+04 -9.064957E+02 -6.966129E+03
       402  25  5.574220E+05  7.244151E+04  7.266621E+04 -1.578530E+04 -2.867493E+03 -8.637029E+03
       402  26  5.282382E+05  6.358407E+04  6.369320E+04 -4.748779E+03 -1.518101E+03 -8.116066E+03
       402  27  4.997618E+05  5.662657E+04  5.608497E+04 -1.521334E+04 -1.680124E+02 -6.966337E+03
       403   1  8.092735E+04 -4.693170E+04 -4.449317E+04 -1.517992E+04  1.263724E+03  6.196121E+03
       403   2  1.094597E+05 -4.004389E+04 -3.811436E+04 -4.541430E+03  9.985945E+02  5.078385E+03
       403   3  1.380761E+05 -3.293846E+04 -3.150988E+04 -1.523663E+04  7.330289E+02  3.916537E+03
       403   4  2.709483E+05  1.581230E+02  9.698837E+02 -1.529288E+04  7.115119E+02  6.196317E+03
       403   5  2.709057E+05 -2.385380E+01  5.723568E+02 -4.626256E+03  4.240580E+02  5.078684E+03
       403   6  2.709501E+05  1.569332E+01  4.159934E+02 -1.529297E+04  1.361802E+02  3.916945E+03
       403   7  4.610024E+05  4.724533E+04  4.643038E+04 -1.540588E+04  1.591313E+02  6.196514E+03
       403   8  4.323755E+05  3.999429E+04  3.925723E+04 -4.711100E+03 -1.506272E+02  5.078982E+03
       403   9  4.038403E+05  3.296856E+04  3.234062E+04 -1.534932E+04 -4.607956E+02  3.917354E+03
       403  10  8.092733E+04 -4.693175E+04 -4.449324E+04 -1.517992E+04 -2.147425E-10  4.775231E-11
       403  11  1.094597E+05 -4.004392E+04 -3.811441E+04 -4.541434E+03  2.036433E-10  1.099394E-10
       403  12  1.380761E+05 -3.293847E+04 -3.150991E+04 -1.523663E+04 -4.499773E-10 -4.115653E-10
       403  13  2.709483E+05  1.580816E+02  9.698106E+02 -1.529289E+04 -1.304259E-10  5.181763E-12
       403  14  2.709057E+05 -2.388155E+01  5.723080E+02 -4.626258E+03  3.037090E-10  4.139555E-10
       403  15  2.709501E+05  1.567683E+01  4.159645E+02 -1.529297E+04 -5.829505E-12  4.856680E-10
       403  16  4.610024E+05  4.724529E+04  4.643031E+04 -1.540588E+04  2.836749E-10 -1.077265E-10
       403  17  4.323755E+05  3.999427E+04  3.925718E+04 -4.711099E+03 -4.125105E-10 -3.348272E-10
       403  18  4.038403E+05  3.296854E+04  3.234059E+04 -1.534932E+04  2.612568E-10 -2.230325E-10
       403  19  8.092735E+04 -4.693170E+04 -4.449317E+04 -1.517992E+04 -1.263724E+03 -6.196121E+03
       403  20  1.094597E+05 -4.004389E+04 -3.811436E+04 -4.541430E+03 -9.985945E+02 -5.078385E+03
       403  21  1.380761E+05 -3.293846E+04 -3.150988E+04 -1.523663E+04 -7.330289E+02 -3.916537E+03
       403  22  2.709483E+05  1.581230E+02  9.698837E+02 -1.529288E+04 -7.115119E+02 -6.196317E+03
       403  23  2.709057E+05 -2.385380E+01  5.723568E+02 -4.626256E+03 -4.240580E+02 -5.078684E+03
       403  24  2.709501E+05  1.569332E+01  4.159934E+02 -1.529297E+04 -1.361802E+02 -3.916945E+03
       403  25  4.610024E+05  4.724533E+04  4.643038E+04 -1.540588E+04 -1.591313E+02 -6.196514E+03
       403  26  4.323755E+05  3.999429E+04  3.925723E+04 -4.711100E+03  1.506272E+02 -5.078982E+03
       403  27  4.038403E+05  3.296856E+04  3.234062E+04 -1.534932E+04  4.607956E+02 -3.917354E+03
       404   1  1.764297E+05 -2.337341E+04 -2.217542E+04 -1.520981E+04  6.461104E+02  3.233909E+03
       404   2  2.048720E+05 -1.637343E+04 -1.542844E+04 -4.608063E+03  4.476271E+02  2.077250E+03
       404   3  2.333186E+05 -9.303679E+03 -8.543431E+03 -1.524170E+04  2.489732E+02  9.185955E+02
       404   4  2.709341E+05  3.473886E+01  3.836347E+02 -1.527114E+04  6.344818E+01  3.234352E+03
       404   5  2.709324E+05  1.058995E+00  4.006318E+02 -4.653518E+03 -1.360692E+02  2.077730E+03
       404   6  2.709348E+05  3.748831E+01  5.565147E+02 -1.527114E+04 -3.357483E+02  9.191159E+02
       404   7  3.654468E+05  2.344225E+04  2.294206E+04 -1.533248E+04 -5.193023E+02  3.234795E+03
       404   8  3.369968E+05  1.637523E+04  1.622939E+04 -4.698977E+03 -7.198274E+02  2.078210E+03
       404   9  3.085523E+05  9.378552E+03  9.656360E+03 -1.530058E+04 -9.205051E+02  9.196362E+02
       404  10  1.764297E+05 -2.337343E+04 -2.217544E+04 -1.520981E+04 -2.334371E-10 -2.269992E-11
       404  11  2.048720E+05 -1.637344E+04 -1.542845E+04 -4.608064E+03  1.438502E-10  9.459246E-11
       404  12  2.333186E+05 -9.303680E+03 -8.543432E+03 -1.524170E+04 -4.689148E-10 -1.703609E-10
       404  13  2.709341E+05  3.472762E+01  3.836150E+02 -1.527114E+04  4.859477E-11 -6.436592E-10
       404  14  2.709324E+05  1.054353E+00  4.006237E+02 -4.653518E+03  2.409216E-10  2.604899E-10
       404  15  2.709348E+05  3.748737E+01  5.565129E+02 -1.527114E+04 -9.196717E-11 -4.885986E-10
       404  16  3.654468E+05  2.344224E+04  2.294204E+04 -1.533248E+04  6.807163E-10  7.667376E-11
       404  17  3.369968E+05  1.637523E+04  1.622938E+04 -4.698975E+03 -7.238632E-10 -4.268936E-11
       404  18  3.085523E+05  9.378551E+03  9.656356E+03 -1.530058E+04  5.380157E-11 -8.546639E-10
       404  19  1.764297E+05 -2.337341E+04 -2.217542E+04 -1.520981E+04 -6.461104E+02 -3.233909E+03
       404  20  2.048720E+05 -1.637343E+04 -1.542844E+04 -4.608063E+03 -4.476271E+02 -2.077250E+03
       404  21  2.333186E+05 -9.303679E+03 -8.543431E+03 -1.524170E+04 -2.489732E+02 -9.185955E+02
       404  22  2.709341E+05  3.473886E+01  3.836347E+02 -1.527114E+04 -6.344818E+01 -3.234352E+03
       404  23  2.709324E+05  1.058995E+00  4.006318E+02 -4.653518E+03  1.360692E+02 -2.077730E+03
       404  24  2.709348E+05  3.748831E+01  5.565147E+02 -1.527114E+04  3.357483E+02 -9.191159E+02
       404  25  3.654468E+05  2.344225E+04  2.294206E+04 -1.533248E+04  5.193023E+02 -3.234795E+03
       404  26  3.369968E+05  1.637523E+04  1.622939E+04 -4.698977E+03  7.198274E+02 -2.078210E+03
       404  27  3.085523E+05  9.378552E+03  9.656360E+03 -1.530058E+04  9.205051E+02 -9.196362E+02
       405   1  2.716063E+05  2.009588E+02  9.335104E+02 -1.524120E+04  1.355148E+02  2.436136E+02
       405   2  2.999901E+05  7.190339E+03  8.097811E+03 -4.663731E+03 -4.286953E+02 -9.141526E+02
       405   3  3.284559E+05  1.438875E+04  1.567188E+04 -1.530590E+04 -9.928660E+02 -2.069540E+03
       405   4  2.709522E+05  2.153824E+01  6.900613E+02 -1.526773E+04 -4.490403E+02  2.441412E+02
       405   5  2.709117E+05 -1.693254E+01  1.130601E+03 -4.657818E+03 -1.012042E+03 -9.136441E+02
       405   6  2.709518E+05  1.533808E+02  1.980033E+03 -1.526761E+04 -1.574979E+03 -2.069048E+03
       405   7  2.702981E+05 -1.578822E+02  4.466133E+02 -1.529425E+04 -1.033595E+03  2.446688E+02
       405   8  2.418340E+05 -7.224266E+03 -5.836667E+03 -4.651905E+03 -1.595362E+03 -9.131356E+02
       405   9  2.134507E+05 -1.408223E+04 -1.171204E+04 -1.522932E+04 -2.157039E+03 -2.068555E+03
       405  10  2.716063E+05  2.009587E+02  9.335103E+02 -1.524120E+04 -8.925943E-10  4.976533E-10
       405  11  2.999901E+05  7.190339E+03  8.097809E+03 -4.663731E+03 -1.216188E-10  1.395162E-09
       405  12  3.284559E+05  1.438875E+04  1.567187E+04 -1.530590E+04  3.991123E-10 -7.662944E-10
       405  13  2.709522E+05  2.153812E+01  6.900608E+02 -1.526773E+04 -1.261004E-11  4.972610E-11
       405  14  2.709117E+05 -1.693371E+01  1.130598E+03 -4.657819E+03  2.994956E-10 -2.255816E-10
       405  15  2.709518E+05  1.533756E+02  1.980021E+03 -1.526761E+04 -1.005991E-10 -5.733292E-11
       405  16  2.702981E+05 -1.578825E+02  4.466112E+02 -1.529425E+04  1.111879E-09 -9.693968E-12
       405  17  2.418340E+05 -7.224267E+03 -5.836673E+03 -4.651906E+03 -4.064007E-10 -9.334749E-11
       405  18  2.134507E+05 -1.408224E+04 -1.171206E+04 -1.522932E+04 -7.176558E-10 -2.829700E-10
       405  19  2.716063E+05  2.009588E+02  9.335104E+02 -1.524120E+04 -1.355148E+02 -2.436136E+02
       405  20  2.999901E+05  7.190339E+03  8.097811E+03 -4.663731E+03  4.286953E+02  9.141526E+02
       405  21  3.284559E+05  1.438875E+04  1.567188E+04 -1.530590E+04  9.928660E+02  2.069540E+03
       405  22  2.709522E+05  2.153824E+01  6.900613E+02 -1.526773E+04  4.490403E+02 -2.441412E+02
       405  23  2.709117E+05 -1.693254E+01  1.130601E+03 -4.657818E+03  1.012042E+03  9.136441E+02
       405  24  2.709518E+05  1.533808E+02  1.980033E+03 -1.526761E+04  1.574979E+03  2.069048E+03
       405  25  2.702981E+05 -1.578822E+02  4.466133E+02 -1.529425E+04  1.033595E+03 -2.446688E+02
       405  26  2.418340E+05 -7.224266E+03 -5.836667E+03 -4.651905E+03  1.595362E+03  9.131356E+02
       405  27  2.134507E+05 -1.408223E+04 -1.171204E+04 -1.522932E+04  2.157039E+03  2.068555E+03
       406   1  3.669085E+05  2.372571E+04  2.561514E+04 -1.513012E+04 -1.389330E+03 -2.750221E+03
       406   2  3.950771E+05  3.061012E+04  3.418558E+04 -4.738217E+03 -3.616839E+03 -3.908413E+03
       406   3  4.239391E+05  3.919508E+04  4.462560E+04 -1.563096E+04 -5.844122E+03 -5.026397E+03
       406   4  2.710854E+05 -4.052647E+01  2.570868E+03 -1.528249E+04 -1.984149E+03 -2.749748E+03
       406   5  2.707399E+05 -2.059606E+02  4.396339E+03 -4.639548E+03 -4.190996E+03 -3.908030E+03
       406   6  2.710836E+05  1.325858E+03  8.077419E+03 -1.528150E+04 -6.397516E+03 -5.026099E+03
       406   7  1.752707E+05 -2.380743E+04 -2.047406E+04 -1.543484E+04 -2.578876E+03 -2.749275E+03
       406   8  1.464168E+05 -3.102316E+04 -2.539399E+04 -4.540895E+03 -4.765038E+03 -3.907647E+03
       406   9  1.182495E+05 -3.654506E+04 -2.847241E+04 -1.493213E+04 -6.950773E+03 -5.025801E+03
       406  10  3.669085E+05  2.372570E+04  2.561512E+04 -1.513012E+04 -1.122683E-10 -9.712012E-10
       406  11  3.950771E+05  3.061010E+04  3.418552E+04 -4.738228E+03 -1.072218E-10  3.842499E-10
       406  12  4.239391E+05  3.919505E+04  4.462549E+04 -1.563099E+04 -6.319564E-10  4.434521E-10
       406  13  2.710854E+05 -4.053565E+01  2.570846E+03 -1.528250E+04 -1.753104E-10 -1.069196E-10
       406  14  2.707399E+05 -2.059817E+02  4.396277E+03 -4.639561E+03  2.511469E-10 -5.285425E-11
       406  15  2.710836E+05  1.325820E+03  8.077294E+03 -1.528153E+04  3.005159E-10  3.461260E-11
       406  16  1.752707E+05 -2.380744E+04 -2.047408E+04 -1.543485E+04  4.086404E-10 -2.035826E-10
       406  17  1.464168E+05 -3.102318E+04 -2.539406E+04 -4.540910E+03 -2.026121E-10  9.962866E-10
       406  18  1.182495E+05 -3.654510E+04 -2.847255E+04 -1.493216E+04  4.060937E-10  7.734441E-11
       406  19  3.669085E+05  2.372571E+04  2.561514E+04 -1.513012E+04  1.389330E+03  2.750221E+03
       406  20  3.950771E+05  3.061012E+04  3.418558E+04 -4.738217E+03  3.616839E+03  3.908413E+03
       406  21  4.239391E+05  3.919508E+04  4.462560E+04 -1.563096E+04  5.844122E+03  5.026397E+03
       406  22  2.710854E+05 -4.052647E+01  2.570868E+03 -1.528249E+04  1.984149E+03  2.749748E+03
       406  23  2.707399E+05 -2.059606E+02  4.396339E+03 -4.639548E+03  4.190996E+03  3.908030E+03
       406  24  2.710836E+05  1.325858E+03  8.077419E+03 -1.528150E+04  6.397516E+03  5.026099E+03
       406  25  1.752707E+05 -2.380743E+04 -2.047406E+04 -1.543484E+04  2.578876E+03  2.749275E+03
       406  26  1.464168E+05 -3.102316E+04 -2.539399E+04 -4.540895E+03  4.765038E+03  3.907647E+03
       406  27  1.182495E+05 -3.654506E+04 -2.847241E+04 -1.493213E+04  6.950773E+03  5.025801E+03
       407   1  4.634487E+05  4.680902E+04  5.625125E+04 -1.360905E+04 -7.304774E+03 -5.785130E+03
       407   2  4.895678E+05  5.265319E+04  7.007222E+04 -5.583517E+03 -1.649232E+04 -6.929715E+03
       407   3  5.208838E+05  7.439159E+04  9.385047E+04 -1.897705E+04 -2.567949E+04 -7.506240E+03
       407   4  2.720712E+05 -6.326846E+02  1.032738E+04 -1.531392E+04 -8.026252E+03 -5.784771E+03
       407   5  2.694945E+05 -1.887244E+03  1.735438E+04 -4.601437E+03 -1.692452E+04 -6.929689E+03
       407   6  2.720664E+05  1.270560E+04  3.414067E+04 -1.530842E+04 -2.582200E+04 -7.506535E+03
       407   7  8.072726E+04 -4.807704E+04 -3.559907E+04 -1.701825E+04 -8.747508E+03 -5.784408E+03
       407   8  4.946559E+04 -5.643119E+04 -3.536688E+04 -3.619700E+03 -1.735657E+04 -6.929665E+03
       407   9  2.330571E+04 -4.898484E+04 -2.557351E+04 -1.164126E+04 -2.596444E+04 -7.506831E+03
       407  10  4.634486E+05  4.680897E+04  5.625109E+04 -1.360909E+04 -2.699569E-10  3.438245E-10
       407  11  4.895674E+05  5.265306E+04  7.007162E+04 -5.583609E+03  4.951940E-11 -5.611435E-10
       407  12  5.208831E+05  7.439135E+04  9.384913E+04 -1.897721E+04 -2.528264E-10 -4.889669E-10
       407  13  2.720711E+05 -6.327378E+02  1.032720E+04 -1.531396E+04 -1.323789E-10  3.977197E-10
       407  14  2.694942E+05 -1.887373E+03  1.735375E+04 -4.601531E+03  1.647610E-10  6.313523E-10
       407  15  2.720657E+05  1.270536E+04  3.413931E+04 -1.530858E+04 -4.080062E-11 -1.320237E-10
       407  16  8.072717E+04 -4.807710E+04 -3.559928E+04 -1.701829E+04  5.550097E-10 -1.633765E-10
       407  17  4.946525E+04 -5.643132E+04 -3.536754E+04 -3.619797E+03 -1.826031E-10 -2.183653E-10
       407  18  2.330497E+04 -4.898508E+04 -2.557489E+04 -1.164141E+04  4.505399E-11 -5.130722E-11
       407  19  4.634487E+05  4.680902E+04  5.625125E+04 -1.360905E+04  7.304774E+03  5.785130E+03
       407  20  4.895678E+05  5.265319E+04  7.007222E+04 -5.583517E+03  1.649232E+04  6.929715E+03
       407  21  5.208838E+05  7.439159E+04  9.385047E+04 -1.897705E+04  2.567949E+04  7.506240E+03
       407  22  2.720712E+05 -6.326846E+02  1.032738E+04 -1.531392E+04  8.026252E+03  5.784771E+03
       407  23  2.694945E+05 -1.887244E+03  1.735438E+04 -4.601437E+03  1.692452E+04  6.929689E+03
       407  24  2.720664E+05  1.270560E+04  3.414067E+04 -1.530842E+04  2.582200E+04  7.506535E+03
       407  25  8.072726E+04 -4.807704E+04 -3.559907E+04 -1.701825E+04  8.747508E+03  5.784408E+03
       407  26  4.946559E+04 -5.643119E+04 -3.536688E+04 -3.619700E+03  1.735657E+04  6.929665E+03
       407  27  2.330571E+04 -4.898484E+04 -2.557351E+04 -1.164126E+04  2.596444E+04  7.506831E+03
       408   1  5.680118E+05  6.505159E+04  1.106960E+05  6.435188E+02 -2.993523E+04 -9.277662E+03
       408   2  5.757138E+05  6.108363E+04  1.426380E+05 -1.563374E+04 -6.992961E+04 -1.018762E+04
       408   3  6.262201E+05  2.071263E+05  2.381269E+05 -5.338833E+04 -1.099268E+05 -3.421647E+03
       408   4  2.802870E+05 -6.225237E+03  4.184989E+04 -1.532488E+04 -3.232428E+04 -9.276521E+03
       408   5  2.592035E+05 -1.733984E+04  6.689489E+04 -4.589879E+03 -6.843245E+04 -1.018932E+04
       408   6  2.802697E+05  1.209203E+05  1.528112E+05 -1.533027E+04 -1.045412E+05 -3.427931E+03
       408   7 -7.361425E+03 -7.750710E+04 -2.700187E+04 -3.128585E+04 -3.471223E+04 -9.275257E+03
       408   8 -5.721489E+04 -9.577011E+04 -8.855182E+03  6.448333E+03 -6.693604E+04 -1.019096E+04
       408   9 -6.556882E+04  3.471080E+04  6.748761E+04  2.270657E+04 -9.915859E+04 -3.433558E+03
       408  10  5.680108E+05  6.505126E+04  1.106941E+05  6.432952E+02  2.959050E-10 -3.024719E-10
       408  11  5.757086E+05  6.108220E+04  1.426286E+05 -1.563431E+04  9.375392E-11 -2.319757E-10
       408  12  6.262071E+05  2.071231E+05  2.381042E+05 -5.338863E+04 -4.857191E-11 -3.010674E-11
       408  13  2.802859E+05 -6.225610E+03  4.184777E+04 -1.532512E+04 -1.855562E-10 -2.943967E-10
       408  14  2.591984E+05 -1.734121E+04  6.688590E+04 -4.590440E+03 -5.256922E-11 -4.732918E-10
       408  15  2.802579E+05  1.209173E+05  1.527907E+05 -1.533056E+04 -2.887284E-10  2.556455E-10
       408  16 -7.362742E+03 -7.750752E+04 -2.700429E+04 -3.128611E+04 -5.592055E-11 -4.540803E-10
       408  17 -5.721973E+04 -9.577142E+04 -8.863797E+03  6.447784E+03 -1.286643E-10 -2.605987E-10
       408  18 -6.557938E+04  3.470815E+04  6.746911E+04  2.270629E+04  1.108154E-10 -2.178453E-10
       408  19  5.680118E+05  6.505159E+04  1.106960E+05  6.435188E+02  2.993523E+04  9.277662E+03
       408  20  5.757138E+05  6.108363E+04  1.426380E+05 -1.563374E+04  6.992961E+04  1.018762E+04
       408  21  6.262201E+05  2.071263E+05  2.381269E+05 -5.338833E+04  1.099268E+05  3.421647E+03
       408  22  2.802870E+05 -6.225237E+03  4.184989E+04 -1.532488E+04  3.232428E+04  9.276521E+03
       408  23  2.592035E+05 -1.733984E+04  6.689489E+04 -4.589879E+03  6.843245E+04  1.018932E+04
       408  24  2.802697E+05  1.209203E+05  1.528112E+05 -1.533027E+04  1.045412E+05  3.427931E+03
       408  25 -7.361425E+03 -7.750710E+04 -2.700187E+04 -3.128585E+04  3.471223E+04  9.275257E+03
       408  26 -5.721489E+04 -9.577011E+04 -8.855182E+03  6.448333E+03  6.693604E+04  1.019096E+04
       408  27 -6.556882E+04  3.471080E+04  6.748761E+04  2.270657E+04  9.915859E+04  3.433558E+03
       409   1 -1.074381E+06 -9.403700E+04 -1.232504E+05 -3.242644E+04 -9.428718E+04 -6.661129E+02
       409   2 -1.060012E+06  3.085326E+04 -4.649026E+04 -9.558130E+03 -6.208119E+04 -1.969894E+03
       409   3 -1.083899E+06  1.956212E+04 -2.476462E+04  1.685011E+04 -2.987611E+04 -1.818554E+03
       409   4 -1.139854E+06 -1.103674E+05 -1.394221E+05  2.259134E+03 -9.530349E+04 -6.716067E+02
       409   5 -1.120629E+06  1.581501E+04 -6.102027E+04  4.766543E+02 -6.236949E+04 -1.970983E+03
       409   6 -1.139791E+06  5.679964E+03 -3.816355E+04  2.233528E+03 -2.943609E+04 -1.817737E+03
       409   7 -1.205322E+06 -1.266936E+05 -1.555934E+05  3.694104E+04 -9.631970E+04 -6.772147E+02
       409   8 -1.181243E+06  7.768866E+02 -7.555049E+04  1.051045E+04 -6.265776E+04 -1.972081E+03
       409   9 -1.195680E+06 -8.201612E+03 -5.156259E+04 -1.238173E+04 -2.899612E+04 -1.816941E+03
       409  10 -1.074390E+06 -9.403940E+04 -1.232671E+05 -3.242649E+04  1.020862E-10  8.851847E-11
       409  11 -1.060016E+06  3.085221E+04 -4.649752E+04 -9.558228E+03 -1.224104E-10 -2.976311E-10
       409  12 -1.083900E+06  1.956187E+04 -2.476631E+04  1.685006E+04  7.012106E-11 -1.311447E-13
       409  13 -1.139864E+06 -1.103698E+05 -1.394392E+05  2.259082E+03  7.151906E-11 -6.692034E-11
       409  14 -1.120633E+06  1.581396E+04 -6.102760E+04  4.765553E+02  9.419942E-10 -6.418813E-10
       409  15 -1.139792E+06  5.679728E+03 -3.816519E+04  2.233484E+03 -1.572384E-10  9.880665E-11
       409  16 -1.205332E+06 -1.266961E+05 -1.556109E+05  3.694098E+04 -4.945438E-11 -2.289572E-10
       409  17 -1.181247E+06  7.758260E+02 -7.555789E+04  1.051035E+04  4.436040E-10 -2.647758E-10
       409  18 -1.195681E+06 -8.201842E+03 -5.156417E+04 -1.238177E+04  3.040301E-10 -6.443351E-11
       409  19 -1.074381E+06 -9.403700E+04 -1.232504E+05 -3.242644E+04  9.428718E+04  6.661129E+02
       409  20 -1.060012E+06  3.085326E+04 -4.649026E+04 -9.558130E+03  6.208119E+04  1.969894E+03
       409  21 -1.083899E+06  1.956212E+04 -2.476462E+04  1.685011E+04  2.987611E+04  1.818554E+03
       409  22 -1.139854E+06 -1.103674E+05 -1.394221E+05  2.259134E+03  9.530349E+04  6.716067E+02
       409  23 -1.120629E+06  1.581501E+04 -6.102027E+04  4.766543E+02  6.236949E+04  1.970983E+03
       409  24 -1.139791E+06  5.679964E+03 -3.816355E+04  2.233528E+03  2.943609E+04  1.817737E+03
       409  25 -1.205322E+06 -1.266936E+05 -1.555934E+05  3.694104E+04  9.631970E+04  6.772147E+02
       409  26 -1.181243E+06  7.768866E+02 -7.555049E+04  1.051045E+04  6.265776E+04  1.972081E+03
       409  27 -1.195680E+06 -8.201612E+03 -5.156259E+04 -1.238173E+04  2.899612E+04  1.816941E+03
       410   1 -1.083034E+06  6.323947E+02 -1.928997E+04 -9.825977E+02 -2.353505E+04 -1.495701E+03
       410   2 -1.085718E+06  1.270359E+04 -5.207305E+03 -3.978690E+02 -1.548055E+04 -1.402484E+03
       410   3 -1.093064E+06  1.033905E+04  1.613805E+01  3.935241E+03 -7.426244E+03 -1.197347E+03
       410   4 -1.132313E+06 -1.160259E+04 -3.113620E+04  2.290865E+03 -2.351620E+04 -1.495828E+03
       410   5 -1.129972E+06  1.718755E+03 -1.582592E+04  4.147519E+02 -1.540599E+04 -1.402487E+03
       410   6 -1.132303E+06  5.940406E+02 -9.414142E+03  2.287098E+03 -7.295902E+03 -1.197287E+03
       410   7 -1.181591E+06 -2.383771E+04 -4.298261E+04  5.564066E+03 -2.349736E+04 -1.495955E+03
       410   8 -1.174225E+06 -9.266219E+03 -2.644467E+04  1.227315E+03 -1.533144E+04 -1.402490E+03
       410   9 -1.171541E+06 -9.151069E+03 -1.884453E+04  6.390594E+02 -7.165568E+03 -1.197227E+03
       410  10 -1.083034E+06  6.322433E+02 -1.929101E+04 -9.826261E+02  2.475673E-10  3.186227E-11
       410  11 -1.085718E+06  1.270352E+04 -5.207759E+03 -3.978865E+02 -2.574390E-10  4.535610E-10
       410  12 -1.093064E+06  1.033903E+04  1.603154E+01  3.935234E+03  4.743619E-10 -3.444521E-10
       410  13 -1.132314E+06 -1.160274E+04 -3.113725E+04  2.290837E+03 -1.177802E-10  1.189330E-10
       410  14 -1.129972E+06  1.718689E+03 -1.582637E+04  4.147345E+02  9.865976E-11  3.748784E-11
       410  15 -1.132303E+06  5.940247E+02 -9.414244E+03  2.287091E+03  3.827135E-10 -5.406748E-10
       410  16 -1.181591E+06 -2.383787E+04 -4.298365E+04  5.564038E+03 -5.902082E-10  2.656888E-10
       410  17 -1.174225E+06 -9.266284E+03 -2.644512E+04  1.227297E+03  5.718701E-10 -4.320860E-10
       410  18 -1.171541E+06 -9.151085E+03 -1.884463E+04  6.390524E+02 -1.473007E-10 -5.887921E-11
       410  19 -1.083034E+06  6.323947E+02 -1.928997E+04 -9.825977E+02  2.353505E+04  1.495701E+03
       410  20 -1.085718E+06  1.270359E+04 -5.207305E+03 -3.978690E+02  1.548055E+04  1.402484E+03
       410  21 -1.093064E+06  1.033905E+04  1.613805E+01  3.935241E+03  7.426244E+03  1.197347E+03
       410  22 -1.132313E+06 -1.160259E+04 -3.113620E+04  2.290865E+03  2.351620E+04  1.495828E+03
       410  23 -1.129972E+06  1.718755E+03 -1.582592E+04  4.147519E+02  1.540599E+04  1.402487E+03
       410  24 -1.132303E+06  5.940406E+02 -9.414142E+03  2.287098E+03  7.295902E+03  1.197287E+03
       410  25 -1.181591E+06 -2.383771E+04 -4.298261E+04  5.564066E+03  2.349736E+04  1.495955E+03
       410  26 -1.174225E+06 -9.266219E+03 -2.644467E+04  1.227315E+03  1.533144E+04  1.402490E+03
       410  27 -1.171541E+06 -9.151069E+03 -1.884453E+04  6.390594E+02  7.165568E+03  1.197227E+03
       411   1 -1.099069E+06  6.827900E+03  3.805314E+02  2.078039E+03 -5.912747E+03 -1.059968E+03
       411   2 -1.103936E+06  6.931929E+03  2.498338E+03  3.586098E+02 -3.903585E+03 -8.569518E+02
       411   3 -1.109448E+06  5.516806E+03  2.925950E+03  2.518074E+03 -1.894422E+03 -6.436289E+02
       411   4 -1.131409E+06 -1.197581E+03 -7.367477E+03  2.317603E+03 -5.813331E+03 -1.059938E+03
       411   5 -1.131086E+06  1.922312E+02 -4.016831E+03  3.779162E+02 -3.799078E+03 -8.569147E+02
       411   6 -1.131407E+06  6.197998E+01 -2.359971E+03  2.317133E+03 -1.784806E+03 -6.435862E+02
       411   7 -1.163749E+06 -9.223138E+03 -1.511556E+04  2.557154E+03 -5.713920E+03 -1.059907E+03
       411   8 -1.158235E+06 -6.547520E+03 -1.053205E+04  3.972218E+02 -3.694575E+03 -8.568776E+02
       411   9 -1.153367E+06 -5.392881E+03 -7.645926E+03  2.116198E+03 -1.675195E+03 -6.435435E+02
       411  10 -1.099069E+06  6.827890E+03  3.804635E+02  2.078034E+03 -4.010593E-11  4.556113E-11
       411  11 -1.103936E+06  6.931924E+03  2.498308E+03  3.586071E+02 -5.729283E-10 -1.312566E-10
       411  12 -1.109448E+06  5.516805E+03  2.925942E+03  2.518073E+03  3.535740E-10 -5.340720E-10
       411  13 -1.131409E+06 -1.197591E+03 -7.367543E+03  2.317598E+03  5.051219E-11 -2.094211E-10
       411  14 -1.131086E+06  1.922266E+02 -4.016859E+03  3.779136E+02 -1.709840E-10  1.320411E-11
       411  15 -1.131407E+06  6.197868E+01 -2.359977E+03  2.317132E+03 -1.453476E-10 -1.921744E-10
       411  16 -1.163749E+06 -9.223148E+03 -1.511562E+04  2.557149E+03 -4.249864E-10 -1.709143E-11
       411  17 -1.158235E+06 -6.547525E+03 -1.053208E+04  3.972193E+02  3.682198E-10 -4.246977E-10
       411  18 -1.153367E+06 -5.392882E+03 -7.645932E+03  2.116198E+03  2.689399E-10 -3.913181E-10
       411  19 -1.099069E+06  6.827900E+03  3.805314E+02  2.078039E+03  5.912747E+03  1.059968E+03
       411  20 -1.103936E+06  6.931929E+03  2.498338E+03  3.586098E+02  3.903585E+03  8.569518E+02
       411  21 -1.109448E+06  5.516806E+03  2.925950E+03  2.518074E+03  1.894422E+03  6.436289E+02
       411  22 -1.131409E+06 -1.197581E+03 -7.367477E+03  2.317603E+03  5.813331E+03  1.059938E+03
       411  23 -1.131086E+06  1.922312E+02 -4.016831E+03  3.779162E+02  3.799078E+03  8.569147E+02
       411  24 -1.131407E+06  6.197998E+01 -2.359971E+03  2.317133E+03  1.784806E+03  6.435862E+02
       411  25 -1.163749E+06 -9.223138E+03 -1.511556E+04  2.557154E+03  5.713920E+03  1.059907E+03
       411  26 -1.158235E+06 -6.547520E+03 -1.053205E+04  3.972218E+02  3.694575E+03  8.568776E+02
       411  27 -1.153367E+06 -5.392881E+03 -7.645926E+03  2.116198E+03  1.675195E+03  6.435435E+02
       412   1 -1.116406E+06  3.575074E+03  1.726458E+03  2.334048E+03 -1.516870E+03 -5.175618E+02
       412   2 -1.121628E+06  2.408312E+03  1.229842E+03  3.731828E+02 -9.835541E+02 -3.029540E+02
       412   3 -1.126964E+06  1.081742E+03  3.447565E+02  2.357378E+03 -4.502475E+02 -8.700755E+01
       412   4 -1.131289E+06 -1.165262E+02 -1.829447E+03  2.332018E+03 -1.409280E+03 -5.175191E+02
       412   5 -1.131232E+06  2.407460E+01 -1.074968E+03  3.594604E+02 -8.753026E+02 -3.029100E+02
       412   6 -1.131289E+06  4.749112E+00 -7.094257E+02  2.331968E+03 -3.413300E+02 -8.696223E+01
       412   7 -1.146172E+06 -3.808142E+03 -5.385367E+03  2.329987E+03 -1.301692E+03 -5.174764E+02
       412   8 -1.140836E+06 -2.360170E+03 -3.379784E+03  3.457383E+02 -7.670527E+02 -3.028660E+02
       412   9 -1.135614E+06 -1.072245E+03 -1.763609E+03  2.306558E+03 -2.324132E+02 -8.691692E+01
       412  10 -1.116406E+06  3.575073E+03  1.726453E+03  2.334048E+03  3.289235E-10 -2.954827E-10
       412  11 -1.121628E+06  2.408312E+03  1.229840E+03  3.731825E+02  4.019109E-10 -2.356196E-10
       412  12 -1.126964E+06  1.081742E+03  3.447561E+02  2.357378E+03  8.062698E-10 -3.600546E-10
       412  13 -1.131289E+06 -1.165270E+02 -1.829451E+03  2.332017E+03  3.921263E-10 -3.558870E-10
       412  14 -1.131232E+06  2.407430E+01 -1.074969E+03  3.594602E+02 -3.135099E-10  2.473844E-10
       412  15 -1.131289E+06  4.749072E+00 -7.094259E+02  2.331968E+03 -2.489278E-10  3.437030E-10
       412  16 -1.146172E+06 -3.808143E+03 -5.385371E+03  2.329987E+03 -7.072547E-10  4.634949E-10
       412  17 -1.140836E+06 -2.360170E+03 -3.379785E+03  3.457381E+02  1.327906E-10  5.893213E-11
       412  18 -1.135614E+06 -1.072245E+03 -1.763609E+03  2.306558E+03 -7.070906E-10  4.419408E-10
       412  19 -1.116406E+06  3.575074E+03  1.726458E+03  2.334048E+03  1.516870E+03  5.175618E+02
       412  20 -1.121628E+06  2.408312E+03  1.229842E+03  3.731828E+02  9.835541E+02  3.029540E+02
       412  21 -1.126964E+06  1.081742E+03  3.447565E+02  2.357378E+03  4.502475E+02  8.700755E+01
       412  22 -1.131289E+06 -1.165262E+02 -1.829447E+03  2.332018E+03  1.409280E+03  5.175191E+02
       412  23 -1.131232E+06  2.407460E+01 -1.074968E+03  3.594604E+02  8.753026E+02  3.029100E+02
       412  24 -1.131289E+06  4.749112E+00 -7.094257E+02  2.331968E+03  3.413300E+02  8.696223E+01
       412  25 -1.146172E+06 -3.808142E+03 -5.385367E+03  2.329987E+03  1.301692E+03  5.174764E+02
       412  26 -1.140836E+06 -2.360170E+03 -3.379784E+03  3.457383E+02  7.670527E+02  3.028660E+02
       412  27 -1.135614E+06 -1.072245E+03 -1.763609E+03  2.306558E+03  2.324132E+02  8.691692E+01
       413   1 -1.134089E+06 -7.082109E+02 -1.304803E+03  2.329989E+03 -3.309900E+02  3.909762E+01
       413   2 -1.139345E+06 -1.999537E+03 -2.494062E+03  3.575466E+02 -5.707408E+01  2.550304E+02
       413   3 -1.144655E+06 -3.351565E+03 -3.877907E+03  2.332963E+03  2.168397E+02  4.697563E+02
       413   4 -1.131276E+06 -6.461336E+00 -6.133543E+02  2.332601E+03 -2.220632E+02  3.914298E+01
       413   5 -1.131248E+06  1.037805E+01 -5.510977E+02  3.586795E+02  5.124631E+01  2.550746E+02
       413   6 -1.131276E+06 -3.339520E+01 -6.830227E+02  2.332613E+03  3.245559E+02  4.697995E+02
       413   7 -1.128462E+06  6.952877E+02  7.809373E+01  2.335214E+03 -1.131358E+02  3.918835E+01
       413   8 -1.123152E+06  2.020289E+03  1.391862E+03  3.598125E+02  1.595681E+02  2.551188E+02
       413   9 -1.117897E+06  3.284761E+03  2.511849E+03  2.332264E+03  4.322744E+02  4.698426E+02
       413  10 -1.134089E+06 -7.082110E+02 -1.304803E+03  2.329989E+03  2.248678E-10 -1.055020E-10
       413  11 -1.139345E+06 -1.999537E+03 -2.494062E+03  3.575466E+02 -4.940477E-10  1.578323E-10
       413  12 -1.144655E+06 -3.351565E+03 -3.877908E+03  2.332963E+03  2.417269E-10 -8.798523E-11
       413  13 -1.131276E+06 -6.461351E+00 -6.133544E+02  2.332601E+03  3.249154E-10 -4.783526E-10
       413  14 -1.131248E+06  1.037798E+01 -5.510978E+02  3.586795E+02  9.791332E-11 -4.495045E-10
       413  15 -1.131276E+06 -3.339546E+01 -6.830233E+02  2.332613E+03 -7.161060E-10  4.861012E-10
       413  16 -1.128462E+06  6.952877E+02  7.809371E+01  2.335214E+03 -3.648283E-10  2.115487E-11
       413  17 -1.123152E+06  2.020289E+03  1.391862E+03  3.598125E+02  8.290402E-10 -6.082149E-10
       413  18 -1.117897E+06  3.284761E+03  2.511848E+03  2.332263E+03 -3.649636E-10  1.243793E-10
       413  19 -1.134089E+06 -7.082109E+02 -1.304803E+03  2.329989E+03  3.309900E+02 -3.909762E+01
       413  20 -1.139345E+06 -1.999537E+03 -2.494062E+03  3.575466E+02  5.707408E+01 -2.550304E+02
       413  21 -1.144655E+06 -3.351565E+03 -3.877907E+03  2.332963E+03 -2.168397E+02 -4.697563E+02
       413  22 -1.131276E+06 -6.461336E+00 -6.133543E+02  2.332601E+03  2.220632E+02 -3.914298E+01
       413  23 -1.131248E+06  1.037805E+01 -5.510977E+02  3.586795E+02 -5.124631E+01 -2.550746E+02
       413  24 -1.131276E+06 -3.339520E+01 -6.830227E+02  2.332613E+03 -3.245559E+02 -4.697995E+02
       413  25 -1.128462E+06  6.952877E+02  7.809373E+01  2.335214E+03  1.131358E+02 -3.918835E+01
       413  26 -1.123152E+06  2.020289E+03  1.391862E+03  3.598125E+02 -1.595681E+02 -2.551188E+02
       413  27 -1.117897E+06  3.284761E+03  2.511849E+03  2.332264E+03 -4.322744E+02 -4.698426E+02
       414   1 -1.151773E+06 -5.064020E+03 -5.739311E+03  2.255907E+03  3.490097E+02  5.958868E+02
       414   2 -1.156874E+06 -6.312699E+03 -7.429830E+03  3.779929E+02  9.906951E+02  8.091138E+02
       414   3 -1.162176E+06 -8.021115E+03 -9.654289E+03  2.386253E+03  1.632399E+03  1.012341E+03
       414   4 -1.131308E+06  1.971618E+01 -8.120046E+02  2.318850E+03  4.587253E+02  5.959295E+02
       414   5 -1.131208E+06  5.880773E+01 -1.270608E+03  3.758407E+02  1.095401E+03  8.091518E+02
       414   6 -1.131309E+06 -3.609336E+02 -2.259628E+03  2.318995E+03  1.732102E+03  1.012374E+03
       414   7 -1.110843E+06  5.103422E+03  4.115272E+03  2.381796E+03  5.684445E+02  5.959722E+02
       414   8 -1.105542E+06  6.430266E+03  4.888568E+03  3.736883E+02  1.200112E+03  8.091897E+02
       414   9 -1.100441E+06  7.299179E+03  5.134966E+03  2.251734E+03  1.831809E+03  1.012407E+03
       414  10 -1.151773E+06 -5.064020E+03 -5.739312E+03  2.255907E+03  6.536036E-10 -4.563628E-10
       414  11 -1.156874E+06 -6.312700E+03 -7.429833E+03  3.779923E+02 -3.051295E-10  2.050546E-10
       414  12 -1.162176E+06 -8.021117E+03 -9.654296E+03  2.386252E+03  5.231385E-10 -3.411761E-10
       414  13 -1.131308E+06  1.971574E+01 -8.120057E+02  2.318850E+03 -5.434300E-10  4.426268E-10
       414  14 -1.131208E+06  5.880671E+01 -1.270611E+03  3.758400E+02 -7.829106E-10  7.162325E-10
       414  15 -1.131309E+06 -3.609355E+02 -2.259636E+03  2.318994E+03  1.456486E-10 -1.040190E-10
       414  16 -1.110843E+06  5.103421E+03  4.115271E+03  2.381795E+03 -3.825827E-10 -5.970594E-11
       414  17 -1.105542E+06  6.430265E+03  4.888564E+03  3.736875E+02 -3.103597E-10  6.408133E-10
       414  18 -1.100441E+06  7.299177E+03  5.134957E+03  2.251732E+03 -5.078112E-10  2.645920E-10
       414  19 -1.151773E+06 -5.064020E+03 -5.739311E+03  2.255907E+03 -3.490097E+02 -5.958868E+02
       414  20 -1.156874E+06 -6.312699E+03 -7.429830E+03  3.779929E+02 -9.906951E+02 -8.091138E+02
       414  21 -1.162176E+06 -8.021115E+03 -9.654289E+03  2.386253E+03 -1.632399E+03 -1.012341E+03
       414  22 -1.131308E+06  1.971618E+01 -8.120046E+02  2.318850E+03 -4.587253E+02 -5.959295E+02
       414  23 -1.131208E+06  5.880773E+01 -1.270608E+03  3.758407E+02 -1.095401E+03 -8.091518E+02
       414  24 -1.131309E+06 -3.609336E+02 -2.259628E+03  2.318995E+03 -1.732102E+03 -1.012374E+03
       414  25 -1.110843E+06  5.103422E+03  4.115272E+03  2.381796E+03 -5.684445E+02 -5.959722E+02
       414  26 -1.105542E+06  6.430266E+03  4.888568E+03  3.736883E+02 -1.200112E+03 -8.091897E+02
       414  27 -1.100441E+06  7.299179E+03  5.134966E+03  2.251734E+03 -1.831809E+03 -1.012407E+03
       415   1 -1.169364E+06 -9.202739E+03 -1.195224E+04  1.785887E+03  2.055396E+03  1.149412E+03
       415   2 -1.173690E+06 -1.010938E+04 -1.507311E+04  6.495993E+02  4.569101E+03  1.353682E+03
       415   3 -1.179440E+06 -1.539151E+04 -2.092693E+04  3.273938E+03  7.082832E+03  1.448553E+03
       415   4 -1.131578E+06  1.808642E+02 -2.870506E+03  2.290629E+03  2.185380E+03  1.149455E+03
       415   5 -1.130873E+06  5.197407E+02 -4.798749E+03  4.109036E+02  4.644175E+03  1.353699E+03
       415   6 -1.131581E+06 -3.507157E+03 -9.421610E+03  2.291793E+03  7.103018E+03  1.448540E+03
       415   7 -1.093791E+06  9.564364E+03  6.211125E+03  2.795403E+03  2.315371E+03  1.149499E+03
       415   8 -1.088054E+06  1.114873E+04  5.475483E+03  1.721913E+02  4.719255E+03  1.353715E+03
       415   9 -1.083721E+06  8.377033E+03  2.083546E+03  1.309572E+03  7.123205E+03  1.448527E+03
       415  10 -1.169364E+06 -9.202742E+03 -1.195225E+04  1.785885E+03  3.156046E-11  2.474194E-10
       415  11 -1.173690E+06 -1.010939E+04 -1.507315E+04  6.495943E+02 -1.753151E-10 -1.815034E-10
       415  12 -1.179440E+06 -1.539153E+04 -2.092703E+04  3.273930E+03 -8.418044E-11  8.726473E-11
       415  13 -1.131578E+06  1.808615E+02 -2.870517E+03  2.290627E+03 -8.402794E-11 -8.192758E-11
       415  14 -1.130873E+06  5.197329E+02 -4.798793E+03  4.108986E+02 -2.921247E-10 -6.870182E-11
       415  15 -1.131581E+06 -3.507173E+03 -9.421709E+03  2.291785E+03  1.496917E-10  8.015162E-11
       415  16 -1.093791E+06  9.564361E+03  6.211112E+03  2.795401E+03 -5.836004E-10  1.363887E-10
       415  17 -1.088054E+06  1.114872E+04  5.475438E+03  1.721861E+02  2.227999E-10 -4.943888E-10
       415  18 -1.083721E+06  8.377017E+03  2.083447E+03  1.309564E+03  1.192567E-10  3.492284E-10
       415  19 -1.169364E+06 -9.202739E+03 -1.195224E+04  1.785887E+03 -2.055396E+03 -1.149412E+03
       415  20 -1.173690E+06 -1.010938E+04 -1.507311E+04  6.495993E+02 -4.569101E+03 -1.353682E+03
       415  21 -1.179440E+06 -1.539151E+04 -2.092693E+04  3.273938E+03 -7.082832E+03 -1.448553E+03
       415  22 -1.131578E+06  1.808642E+02 -2.870506E+03  2.290629E+03 -2.185380E+03 -1.149455E+03
       415  23 -1.130873E+06  5.197407E+02 -4.798749E+03  4.109036E+02 -4.644175E+03 -1.353699E+03
       415  24 -1.131581E+06 -3.507157E+03 -9.421610E+03  2.291793E+03 -7.103018E+03 -1.448540E+03
       415  25 -1.093791E+06  9.564364E+03  6.211125E+03  2.795403E+03 -2.315371E+03 -1.149499E+03
       415  26 -1.088054E+06  1.114873E+04  5.475483E+03  1.721913E+02 -4.719255E+03 -1.353715E+03
       415  27 -1.083721E+06  8.377033E+03  2.083546E+03  1.309572E+03 -7.123205E+03 -1.448527E+03
       416   1 -1.188346E+06 -1.181313E+04 -2.461015E+04 -2.186077E+03  8.461243E+03  1.765894E+03
       416   2 -1.187297E+06 -9.922475E+03 -3.265699E+04  3.497431E+03  1.913469E+04  1.916614E+03
       416   3 -1.197977E+06 -4.937005E+04 -5.799670E+04  1.272705E+04  2.980824E+04  6.447608E+02
       416   4 -1.133842E+06  1.718027E+03 -1.154434E+04  2.240783E+03  8.894093E+03  1.766069E+03
       416   5 -1.128049E+06  4.781108E+03 -1.845356E+04  4.716385E+02  1.885232E+04  1.916437E+03
       416   6 -1.133862E+06 -3.336779E+04 -4.215717E+04  2.248821E+03  2.881074E+04  6.440359E+02
       416   7 -1.079335E+06  1.524904E+04  1.521271E+03  6.668034E+03  9.326981E+03  1.766249E+03
       416   8 -1.068799E+06  1.948447E+04 -4.250374E+03 -2.554445E+03  1.856991E+04  1.916263E+03
       416   9 -1.069742E+06 -1.736542E+04 -2.631789E+04 -8.230491E+03  2.781314E+04  6.433447E+02
       416  10 -1.188346E+06 -1.181315E+04 -2.461029E+04 -2.186089E+03  2.311486E-10  1.266002E-10
       416  11 -1.187297E+06 -9.922578E+03 -3.265769E+04  3.497401E+03 -7.509335E-11  4.034531E-11
       416  12 -1.197978E+06 -4.937029E+04 -5.799837E+04  1.272703E+04 -1.086403E-10  7.158035E-11
       416  13 -1.133842E+06  1.718003E+03 -1.154449E+04  2.240770E+03  7.462929E-10 -2.430516E-10
       416  14 -1.128050E+06  4.781009E+03 -1.845424E+04  4.716093E+02 -6.663788E-11  1.449851E-10
       416  15 -1.133863E+06 -3.336801E+04 -4.215874E+04  2.248806E+03  1.530132E-10 -7.364954E-11
       416  16 -1.079335E+06  1.524901E+04  1.521102E+03  6.668021E+03 -2.420814E-10  3.401464E-10
       416  17 -1.068799E+06  1.948437E+04 -4.251030E+03 -2.554473E+03  4.418936E-10  9.167108E-11
       416  18 -1.069743E+06 -1.736563E+04 -2.631935E+04 -8.230505E+03 -3.472528E-10  2.255956E-10
       416  19 -1.188346E+06 -1.181313E+04 -2.461015E+04 -2.186077E+03 -8.461243E+03 -1.765894E+03
       416  20 -1.187297E+06 -9.922475E+03 -3.265699E+04  3.497431E+03 -1.913469E+04 -1.916614E+03
       416  21 -1.197977E+06 -4.937005E+04 -5.799670E+04  1.272705E+04 -2.980824E+04 -6.447608E+02
       416  22 -1.133842E+06  1.718027E+03 -1.154434E+04  2.240783E+03 -8.894093E+03 -1.766069E+03
       416  23 -1.128049E+06  4.781108E+03 -1.845356E+04  4.716385E+02 -1.885232E+04 -1.916437E+03
       416  24 -1.133862E+06 -3.336779E+04 -4.215717E+04  2.248821E+03 -2.881074E+04 -6.440359E+02
       416  25 -1.079335E+06  1.524904E+04  1.521271E+03  6.668034E+03 -9.326981E+03 -1.766249E+03
       416  26 -1.068799E+06  1.948447E+04 -4.250374E+03 -2.554445E+03 -1.856991E+04 -1.916263E+03
       416  27 -1.069742E+06 -1.736542E+04 -2.631789E+04 -8.230491E+03 -2.781314E+04 -6.433447E+02
       417   1  2.833466E+06  6.128893E+05  7.739317E+05  1.894001E+05  5.283850E+05  1.068706E+02
       417   2  2.734785E+06 -8.241119E+04  3.423608E+05  5.528640E+04  3.459959E+05 -5.024779E+02
       417   3  2.847780E+06 -2.501702E+04  2.174427E+05 -8.392251E+04  1.635928E+05 -8.729982E+02
       417   4  2.821017E+06  6.096430E+05  7.708629E+05 -3.072577E+03  5.281127E+05 -5.629520E+01
       417   5  2.715609E+06 -8.718550E+04  3.377749E+05 -4.486759E+02  3.458067E+05 -5.334490E+02
       417   6  2.821826E+06 -3.139270E+04  2.112755E+05 -2.940401E+03  1.634886E+05 -8.517765E+02
       417   7  2.808648E+06  6.065353E+05  7.678139E+05 -1.955414E+05  5.278404E+05 -2.192957E+02
       417   8  2.696440E+06 -9.194821E+04  3.331906E+05 -5.618203E+04  3.456176E+05 -5.643871E+02
       417   9  2.795886E+06 -3.774390E+04  2.051117E+05  7.803833E+04  1.633844E+05 -8.305810E+02
       417  10  2.833168E+06  6.128148E+05  7.734094E+05  1.894001E+05  3.014484E-10 -5.090304E-10
       417  11  2.734657E+06 -8.244314E+04  3.421368E+05  5.528655E+04  1.297757E-09 -6.849548E-10
       417  12  2.847752E+06 -2.502416E+04  2.173926E+05 -8.392240E+04 -1.412414E-09 -3.450284E-10
       417  13  2.820719E+06  6.095686E+05  7.703412E+05 -3.072554E+03  9.632245E-10 -2.139883E-10
       417  14  2.715481E+06 -8.721742E+04  3.375512E+05 -4.485275E+02  8.964687E-10 -8.031217E-10
       417  15  2.821797E+06 -3.139984E+04  2.112255E+05 -2.940289E+03 -1.195567E-09 -2.141750E-10
       417  16  2.808350E+06  6.064609E+05  7.672927E+05 -1.955413E+05  7.101956E-11 -4.655262E-10
       417  17  2.696312E+06 -9.198010E+04  3.329672E+05 -5.618188E+04  1.144175E-09 -5.602335E-10
       417  18  2.795858E+06 -3.775102E+04  2.050618E+05  7.803844E+04  2.405791E-09  8.399552E-10
       417  19  2.833466E+06  6.128893E+05  7.739317E+05  1.894001E+05 -5.283850E+05 -1.068706E+02
       417  20  2.734785E+06 -8.241119E+04  3.423608E+05  5.528640E+04 -3.459959E+05  5.024779E+02
       417  21  2.847780E+06 -2.501702E+04  2.174427E+05 -8.392251E+04 -1.635928E+05  8.729982E+02
       417  22  2.821017E+06  6.096430E+05  7.708629E+05 -3.072577E+03 -5.281127E+05  5.629520E+01
       417  23  2.715609E+06 -8.718550E+04  3.377749E+05 -4.486759E+02 -3.458067E+05  5.334490E+02
       417  24  2.821826E+06 -3.139270E+04  2.112755E+05 -2.940401E+03 -1.634886E+05  8.517765E+02
       417  25  2.808648E+06  6.065353E+05  7.678139E+05 -1.955414E+05 -5.278404E+05  2.192957E+02
       417  26  2.696440E+06 -9.194821E+04  3.331906E+05 -5.618203E+04 -3.456176E+05  5.643871E+02
       417  27  2.795886E+06 -3.774390E+04  2.051117E+05  7.803833E+04 -1.633844E+05  8.305810E+02
       418   1  2.815434E+06  7.272101E+04  1.808066E+05  1.516867E+04  1.307433E+05 -9.921294E+02
       418   2  2.809711E+06  9.661432E+02  9.784809E+04  4.187596E+03  8.571927E+04 -1.300395E+03
       418   3  2.829733E+06  8.896156E+03  6.403641E+04 -1.207965E+04  4.069643E+04 -1.605183E+03
       418   4  2.780319E+06  6.402601E+04  1.723902E+05 -3.031263E+03  1.305883E+05 -9.959840E+02
       418   5  2.767514E+06 -9.466953E+03  8.776512E+04 -3.800730E+02  8.556721E+04 -1.301067E+03
       418   6  2.780452E+06 -3.273537E+03  5.228624E+04 -3.014781E+03  4.054776E+04 -1.604641E+03
       418   7  2.745206E+06  5.533217E+04  1.639740E+05 -2.123017E+04  1.304334E+05 -9.998298E+02
       418   8  2.725317E+06 -1.990010E+04  7.768205E+04 -4.947431E+03  8.541515E+04 -1.301737E+03
       418   9  2.731173E+06 -1.544310E+04  4.053594E+04  6.049369E+03  4.039911E+04 -1.604103E+03
       418  10  2.815416E+06  7.271645E+04  1.807746E+05  1.516878E+04 -5.403593E-10  1.291075E-10
       418  11  2.809704E+06  9.641798E+02  9.783434E+04  4.187685E+03  7.745224E-10  4.004865E-10
       418  12  2.829732E+06  8.895711E+03  6.403331E+04 -1.207960E+04 -1.151415E-11  3.810693E-11
       418  13  2.780301E+06  6.402146E+04  1.723583E+05 -3.031158E+03  9.601829E-10  6.297773E-10
       418  14  2.767506E+06 -9.468910E+03  8.775142E+04 -3.799835E+02  1.487237E-09  1.667225E-10
       418  15  2.780451E+06 -3.273979E+03  5.228316E+04 -3.014729E+03 -1.106032E-09 -3.518071E-10
       418  16  2.745188E+06  5.532763E+04  1.639422E+05 -2.123006E+04 -6.687921E-11  3.728250E-10
       418  17  2.725309E+06 -1.990205E+04  7.766839E+04 -4.947342E+03  6.849473E-10 -4.171992E-10
       418  18  2.731172E+06 -1.544353E+04  4.053288E+04  6.049421E+03 -2.448626E-10  1.826419E-10
       418  19  2.815434E+06  7.272101E+04  1.808066E+05  1.516867E+04 -1.307433E+05  9.921294E+02
       418  20  2.809711E+06  9.661432E+02  9.784809E+04  4.187596E+03 -8.571927E+04  1.300395E+03
       418  21  2.829733E+06  8.896156E+03  6.403641E+04 -1.207965E+04 -4.069643E+04  1.605183E+03
       418  22  2.780319E+06  6.402601E+04  1.723902E+05 -3.031263E+03 -1.305883E+05  9.959840E+02
       418  23  2.767514E+06 -9.466953E+03  8.776512E+04 -3.800730E+02 -8.556721E+04  1.301067E+03
       418  24  2.780452E+06 -3.273537E+03  5.228624E+04 -3.014781E+03 -4.054776E+04  1.604641E+03
       418  25  2.745206E+06  5.533217E+04  1.639740E+05 -2.123017E+04 -1.304334E+05  9.998298E+02
       418  26  2.725317E+06 -1.990010E+04  7.768205E+04 -4.947431E+03 -8.541515E+04  1.301737E+03
       418  27  2.731173E+06 -1.544310E+04  4.053594E+04  6.049369E+03 -4.039911E+04  1.604103E+03
       419   1  2.834662E+06  2.123536E+04  5.512020E+04 -1.740099E+03  3.243580E+04 -1.778215E+03
       419   2  2.840611E+06  1.547171E+04  3.845696E+04 -7.939053E+01  2.115703E+04 -2.089461E+03
       419   3  2.850127E+06  1.809861E+04  3.121200E+04 -4.173327E+03  9.878491E+03 -2.413955E+03
       419   4  2.775507E+06  6.608745E+03  4.096397E+04 -3.125775E+03  3.228126E+04 -1.778344E+03
       419   5  2.773735E+06 -1.057926E+03  2.247798E+04 -2.473403E+02  2.099668E+04 -2.089536E+03
       419   6  2.775531E+06 -3.325369E+02  1.341480E+04 -3.123582E+03  9.712473E+03 -2.414021E+03
       419   7  2.716354E+06 -8.018119E+03  2.680750E+04 -4.511318E+03  3.212673E+04 -1.778472E+03
       419   8  2.706862E+06 -1.758788E+04  6.498684E+03 -4.152723E+02  2.083635E+04 -2.089611E+03
       419   9  2.700940E+06 -1.876408E+04 -4.382791E+03 -2.073964E+03  9.546474E+03 -2.414086E+03
       419  10  2.834661E+06  2.123508E+04  5.511822E+04 -1.740053E+03 -7.469827E-10 -5.305283E-10
       419  11  2.840611E+06  1.547159E+04  3.845611E+04 -7.935497E+01 -2.609237E-09 -3.824252E-10
       419  12  2.850127E+06  1.809858E+04  3.121181E+04 -4.173307E+03 -1.493170E-10  1.445895E-10
       419  13  2.775506E+06  6.608463E+03  4.096201E+04 -3.125728E+03 -1.135182E-09 -1.942305E-10
       419  14  2.773734E+06 -1.058049E+03  2.247715E+04 -2.473050E+02 -1.276067E-10  1.599174E-10
       419  15  2.775531E+06 -3.325683E+02  1.341461E+04 -3.123563E+03 -1.891706E-09 -6.368365E-10
       419  16  2.716353E+06 -8.018398E+03  2.680556E+04 -4.511272E+03 -9.422665E-10  1.765967E-10
       419  17  2.706862E+06 -1.758801E+04  6.497863E+03 -4.152372E+02 -9.744676E-10 -9.442153E-11
       419  18  2.700940E+06 -1.876411E+04 -4.382972E+03 -2.073946E+03 -2.287826E-10  2.334707E-10
       419  19  2.834662E+06  2.123536E+04  5.512020E+04 -1.740099E+03 -3.243580E+04  1.778215E+03
       419  20  2.840611E+06  1.547171E+04  3.845696E+04 -7.939053E+01 -2.115703E+04  2.089461E+03
       419  21  2.850127E+06  1.809861E+04  3.121200E+04 -4.173327E+03 -9.878491E+03  2.413955E+03
       419  22  2.775507E+06  6.608745E+03  4.096397E+04 -3.125775E+03 -3.228126E+04  1.778344E+03
       419  23  2.773735E+06 -1.057926E+03  2.247798E+04 -2.473403E+02 -2.099668E+04  2.089536E+03
       419  24  2.775531E+06 -3.325369E+02  1.341480E+04 -3.123582E+03 -9.712473E+03  2.414021E+03
       419  25  2.716354E+06 -8.018119E+03  2.680750E+04 -4.511318E+03 -3.212673E+04  1.778472E+03
       419  26  2.706862E+06 -1.758788E+04  6.498684E+03 -4.152723E+02 -2.083635E+04  2.089611E+03
       419  27  2.700940E+06 -1.876408E+04 -4.382791E+03 -2.073964E+03 -9.546474E+03  2.414086E+03
       420   1  2.860426E+06  2.179473E+04  3.102408E+04 -3.232253E+03  7.724678E+03 -2.606821E+03
       420   2  2.868758E+06  2.314498E+04  2.917271E+04 -6.490782E+01  4.420329E+03 -2.951622E+03
       420   3  2.877769E+06  2.542847E+04  2.970237E+04 -3.356360E+03  1.115976E+03 -3.315210E+03
       420   4  2.774888E+06  6.482922E+02  1.056287E+04 -3.280992E+03  7.554984E+03 -2.606914E+03
       420   5  2.774549E+06 -1.395581E+02  6.663558E+03 -5.144268E+01  4.241528E+03 -2.951734E+03
       420   6  2.774891E+06  7.478058E+00  5.151729E+03 -3.280749E+03  9.281141E+02 -3.315343E+03
       420   7  2.689356E+06 -2.049868E+04 -9.898855E+03 -3.329725E+03  7.385313E+03 -2.607007E+03
       420   8  2.680349E+06 -2.342473E+04 -1.584622E+04 -3.798051E+01  4.062755E+03 -2.951847E+03
       420   9  2.672024E+06 -2.541428E+04 -1.939966E+04 -3.205152E+03  7.402834E+02 -3.315477E+03
       420  10  2.860425E+06  2.179471E+04  3.102395E+04 -3.232237E+03  3.878572E-10 -5.970144E-11
       420  11  2.868758E+06  2.314496E+04  2.917266E+04 -6.489733E+01 -4.316938E-10 -5.456674E-10
       420  12  2.877769E+06  2.542846E+04  2.970235E+04 -3.356357E+03 -9.170015E-10 -5.658427E-10
       420  13  2.774888E+06  6.482697E+02  1.056275E+04 -3.280976E+03 -3.369858E-11 -1.102732E-10
       420  14  2.774549E+06 -1.395723E+02  6.663508E+03 -5.143260E+01 -7.627120E-10 -9.397852E-10
       420  15  2.774891E+06  7.466010E+00  5.151706E+03 -3.280747E+03  1.563166E-09  4.400854E-10
       420  16  2.689356E+06 -2.049870E+04 -9.898970E+03 -3.329709E+03 -1.098418E-10  1.417663E-10
       420  17  2.680349E+06 -2.342475E+04 -1.584627E+04 -3.797086E+01 -7.269732E-10 -5.901409E-10
       420  18  2.672024E+06 -2.541429E+04 -1.939968E+04 -3.205150E+03  1.083610E-09  3.748239E-10
       420  19  2.860426E+06  2.179473E+04  3.102408E+04 -3.232253E+03 -7.724678E+03  2.606821E+03
       420  20  2.868758E+06  2.314498E+04  2.917271E+04 -6.490782E+01 -4.420329E+03  2.951622E+03
       420  21  2.877769E+06  2.542847E+04  2.970237E+04 -3.356360E+03 -1.115976E+03  3.315210E+03
       420  22  2.774888E+06  6.482922E+02  1.056287E+04 -3.280992E+03 -7.554984E+03  2.606914E+03
       420  23  2.774549E+06 -1.395581E+02  6.663558E+03 -5.144268E+01 -4.241528E+03  2.951734E+03
       420  24  2.774891E+06  7.478058E+00  5.151729E+03 -3.280749E+03 -9.281141E+02  3.315343E+03
       420  25  2.689356E+06 -2.049868E+04 -9.898855E+03 -3.329725E+03 -7.385313E+03  2.607007E+03
       420  26  2.680349E+06 -2.342473E+04 -1.584622E+04 -3.798051E+01 -4.062755E+03  2.951847E+03
       420  27  2.672024E+06 -2.541428E+04 -1.939966E+04 -3.205152E+03 -7.402834E+02  3.315477E+03
       421   1  2.890189E+06  2.853328E+04  3.257244E+04 -3.367830E+03  2.031259E+02 -3.534699E+03
       421   2  2.899854E+06  3.084530E+04  3.573082E+04  3.035533E+02 -2.668111E+03 -3.929609E+03
       421   3  2.910112E+06  3.392492E+04  4.095013E+04 -3.449099E+03 -5.539277E+03 -4.347248E+03
       421   4  2.774872E+06  2.633379E+01  4.993562E+03 -3.495254E+03  9.958535E+00 -3.534850E+03
       421   5  2.774572E+06 -1.187922E+02  5.797964E+03  2.166352E+02 -2.872275E+03 -3.929791E+03
       421   6  2.774869E+06  5.057161E+02  8.671189E+03 -3.495603E+03 -5.754393E+03 -4.347463E+03
       421   7  2.659566E+06 -2.848157E+04 -2.258625E+04 -3.622657E+03 -1.831732E+02 -3.535001E+03
       421   8  2.649305E+06 -3.108401E+04 -2.413600E+04  1.297323E+02 -3.076399E+03 -3.929972E+03
       421   9  2.639642E+06 -3.291481E+04 -2.360904E+04 -3.542099E+03 -5.969463E+03 -4.347677E+03
       421  10  2.890189E+06  2.853326E+04  3.257242E+04 -3.367829E+03 -1.238796E-09 -2.158551E-10
       421  11  2.899854E+06  3.084528E+04  3.573078E+04  3.035449E+02  5.384879E-10  1.487897E-09
       421  12  2.910112E+06  3.392490E+04  4.095004E+04 -3.449119E+03  4.856046E-10 -4.776495E-10
       421  13  2.774872E+06  2.632036E+01  4.993538E+03 -3.495254E+03  1.901537E-09  1.553829E-09
       421  14  2.774572E+06 -1.188110E+02  5.797919E+03  2.166261E+02  1.492434E-09  1.709070E-09
       421  15  2.774869E+06  5.056869E+02  8.671092E+03 -3.495623E+03 -1.107455E-10  1.854180E-10
       421  16  2.659566E+06 -2.848158E+04 -2.258628E+04 -3.622657E+03  1.331473E-09  7.749275E-10
       421  17  2.649305E+06 -3.108403E+04 -2.413604E+04  1.297225E+02  1.657190E-11  4.774812E-10
       421  18  2.639642E+06 -3.291484E+04 -2.360914E+04 -3.542120E+03 -1.235114E-09 -3.559837E-10
       421  19  2.890189E+06  2.853328E+04  3.257244E+04 -3.367830E+03 -2.031259E+02  3.534699E+03
       421  20  2.899854E+06  3.084530E+04  3.573082E+04  3.035533E+02  2.668111E+03  3.929609E+03
       421  21  2.910112E+06  3.392492E+04  4.095013E+04 -3.449099E+03  5.539277E+03  4.347248E+03
       421  22  2.774872E+06  2.633379E+01  4.993562E+03 -3.495254E+03 -9.958535E+00  3.534850E+03
       421  23  2.774572E+06 -1.187922E+02  5.797964E+03  2.166352E+02  2.872275E+03  3.929791E+03
       421  24  2.774869E+06  5.057161E+02  8.671189E+03 -3.495603E+03  5.754393E+03  4.347463E+03
       421  25  2.659566E+06 -2.848157E+04 -2.258625E+04 -3.622657E+03  1.831732E+02  3.535001E+03
       421  26  2.649305E+06 -3.108401E+04 -2.413600E+04  1.297323E+02  3.076399E+03  3.929972E+03
       421  27  2.639642E+06 -3.291481E+04 -2.360904E+04 -3.542099E+03  5.969463E+03  4.347677E+03
       422   1  2.925051E+06  3.673150E+04  4.665274E+04 -2.845381E+03 -7.281620E+03 -4.607174E+03
       422   2  2.935257E+06  3.902783E+04  5.649207E+04  5.488159E+02 -1.629284E+04 -5.072684E+03
       422   3  2.948338E+06  4.796990E+04  7.384934E+04 -4.744471E+03 -2.530403E+04 -5.538493E+03
       422   4  2.775375E+06 -2.687101E+02  1.086199E+04 -3.774608E+03 -7.512230E+03 -4.607411E+03
       422   5  2.773928E+06 -8.445007E+02  1.794789E+04  5.667050E+02 -1.652154E+04 -5.072969E+03
       422   6  2.775356E+06  5.226252E+03  3.255185E+04 -3.779608E+03 -2.553066E+04 -5.538853E+03
       422   7  2.625720E+06 -3.727053E+04 -2.493034E+04 -4.703614E+03 -7.742784E+03 -4.607647E+03
       422   8  2.612623E+06 -4.071870E+04 -2.059812E+04  5.845843E+02 -1.675019E+04 -5.073254E+03
       422   9  2.602401E+06 -3.751954E+04 -8.747736E+03 -2.815020E+03 -2.575724E+04 -5.539213E+03
       422  10  2.925051E+06  3.673146E+04  4.665260E+04 -2.845408E+03 -1.811482E-10  9.781659E-10
       422  11  2.935256E+06  3.902773E+04  5.649153E+04  5.487494E+02 -2.184511E-09 -8.676510E-10
       422  12  2.948337E+06  4.796969E+04  7.384809E+04 -4.744584E+03  1.268190E-09  8.515156E-10
       422  13  2.775375E+06 -2.687480E+02  1.086184E+04 -3.774635E+03 -3.387026E-11  1.142110E-10
       422  14  2.773927E+06 -8.446012E+02  1.794733E+04  5.666375E+02 -1.604497E-09  1.329431E-10
       422  15  2.775355E+06  5.226045E+03  3.255058E+04 -3.779722E+03 -4.979263E-10  1.626017E-11
       422  16  2.625720E+06 -3.727057E+04 -2.493049E+04 -4.703643E+03 -1.395992E-09 -8.411555E-10
       422  17  2.612622E+06 -4.071881E+04 -2.059870E+04  5.845159E+02 -9.932970E-10  2.025672E-10
       422  18  2.602401E+06 -3.751975E+04 -8.749035E+03 -2.815134E+03 -7.640955E-10  5.280898E-10
       422  19  2.925051E+06  3.673150E+04  4.665274E+04 -2.845381E+03  7.281620E+03  4.607174E+03
       422  20  2.935257E+06  3.902783E+04  5.649207E+04  5.488159E+02  1.629284E+04  5.072684E+03
       422  21  2.948338E+06  4.796990E+04  7.384934E+04 -4.744471E+03  2.530403E+04  5.538493E+03
       422  22  2.775375E+06 -2.687101E+02  1.086199E+04 -3.774608E+03  7.512230E+03  4.607411E+03
       422  23  2.773928E+06 -8.445007E+02  1.794789E+04  5.667050E+02  1.652154E+04  5.072969E+03
       422  24  2.775356E+06  5.226252E+03  3.255185E+04 -3.779608E+03  2.553066E+04  5.538853E+03
       422  25  2.625720E+06 -3.727053E+04 -2.493034E+04 -4.703614E+03  7.742784E+03  4.607647E+03
       422  26  2.612623E+06 -4.071870E+04 -2.059812E+04  5.845843E+02  1.675019E+04  5.073254E+03
       422  27  2.602401E+06 -3.751954E+04 -8.747736E+03 -2.815020E+03  2.575724E+04  5.539213E+03
       423   1  2.969241E+06  4.436377E+04  8.692567E+04  3.217468E+03 -3.173394E+04 -5.908023E+03
       423   2  2.972766E+06  4.283826E+04  1.182884E+05 -2.430763E+03 -6.765109E+04 -6.477536E+03
       423   3  2.996801E+06  1.045011E+05  1.887703E+05 -1.840613E+04 -1.035709E+05 -6.650731E+03
       423   4  2.779280E+06 -2.607882E+03  4.151208E+04 -4.120890E+03 -3.209685E+04 -5.908141E+03
       423   5  2.768987E+06 -7.514347E+03  6.960978E+04  1.010369E+03 -6.780374E+04 -6.478239E+03
       423   6  2.779173E+06  5.074233E+04  1.366904E+05 -4.185406E+03 -1.035125E+05 -6.653203E+03
       423   7  2.589352E+06 -4.958194E+04 -3.904028E+03 -1.145701E+04 -3.245965E+04 -5.908251E+03
       423   8  2.565245E+06 -5.786990E+04  2.092829E+04  4.450361E+03 -6.795633E+04 -6.478945E+03
       423   9  2.561588E+06 -3.019103E+03  8.460715E+04  1.003032E+04 -1.034541E+05 -6.655674E+03
       423  10  2.969240E+06  4.436346E+04  8.692372E+04  3.217317E+03  6.385871E-10 -3.925124E-10
       423  11  2.972761E+06  4.283699E+04  1.182797E+05 -2.431115E+03 -1.237679E-10 -1.783835E-09
       423  12  2.996789E+06  1.044982E+05  1.887502E+05 -1.840668E+04  7.998534E-10 -1.309994E-09
       423  13  2.779279E+06 -2.608194E+03  4.151008E+04 -4.121043E+03 -1.346424E-10 -2.753135E-10
       423  14  2.768982E+06 -7.515620E+03  6.960110E+04  1.010016E+03 -4.762172E-10 -1.528852E-09
       423  15  2.779161E+06  5.073942E+04  1.366702E+05 -4.185960E+03 -2.262008E-10 -1.518154E-09
       423  16  2.589351E+06 -4.958226E+04 -3.906065E+03 -1.145717E+04 -9.960058E-10 -1.626803E-10
       423  17  2.565240E+06 -5.787118E+04  2.091957E+04  4.450007E+03  2.923881E-09  2.609726E-09
       423  18  2.561577E+06 -3.022009E+03  8.458704E+04  1.002977E+04  6.128712E-10 -1.451026E-10
       423  19  2.969241E+06  4.436377E+04  8.692567E+04  3.217468E+03  3.173394E+04  5.908023E+03
       423  20  2.972766E+06  4.283826E+04  1.182884E+05 -2.430763E+03  6.765109E+04  6.477536E+03
       423  21  2.996801E+06  1.045011E+05  1.887703E+05 -1.840613E+04  1.035709E+05  6.650731E+03
       423  22  2.779280E+06 -2.607882E+03  4.151208E+04 -4.120890E+03  3.209685E+04  5.908141E+03
       423  23  2.768987E+06 -7.514347E+03  6.960978E+04  1.010369E+03  6.780374E+04  6.478239E+03
       423  24  2.779173E+06  5.074233E+04  1.366904E+05 -4.185406E+03  1.035125E+05  6.653203E+03
       423  25  2.589352E+06 -4.958194E+04 -3.904028E+03 -1.145701E+04  3.245965E+04  5.908251E+03
       423  26  2.565245E+06 -5.786990E+04  2.092829E+04  4.450361E+03  6.795633E+04  6.478945E+03
       423  27  2.561588E+06 -3.019103E+03  8.460715E+04  1.003032E+04  1.034541E+05  6.655674E+03
       424   1  3.049731E+06  3.402113E+04  2.242364E+05  5.999723E+04 -1.279117E+05 -7.898223E+03
       424   2  2.982125E+06 -6.458778E+03  3.284210E+05 -4.234585E+04 -2.754749E+05 -8.539001E+03
       424   3  3.082886E+06  5.501931E+05  6.777038E+05 -1.575682E+05 -4.230464E+05 -3.283187E+03
       424   4  2.812085E+06 -2.491236E+04  1.675117E+05 -4.461345E+03 -1.295953E+05 -7.887489E+03
       424   5  2.727811E+06 -6.914166E+04  2.677573E+05  1.567280E+03 -2.741495E+05 -8.556770E+03
       424   6  2.811429E+06  4.833270E+05  6.110816E+05 -5.265808E+03 -4.187072E+05 -3.379692E+03
       424   7  2.574500E+06 -8.383443E+04  1.107853E+05 -6.889525E+04 -1.312782E+05 -7.876403E+03
       424   8  2.473561E+06 -1.318219E+05  2.070901E+05  4.546241E+04 -2.728247E+05 -8.574359E+03
       424   9  2.540088E+06  4.165424E+05  5.444666E+05  1.469702E+05 -4.143699E+05 -3.474115E+03
       424  10  3.049714E+06  3.401670E+04  2.242057E+05  5.999642E+04  4.868159E-10 -2.292147E-09
       424  11  2.982044E+06 -6.479103E+03  3.282789E+05 -4.234775E+04 -2.590646E-09 -5.388222E-09
       424  12  3.082694E+06  5.501453E+05  6.773691E+05 -1.575693E+05 -6.111936E-10 -1.512176E-09
       424  13  2.812067E+06 -2.491691E+04  1.674802E+05 -4.462167E+03 -3.142374E-09 -6.520110E-09
       424  14  2.727731E+06 -6.916180E+04  2.676165E+05  1.565393E+03  2.070952E-09  2.039240E-09
       424  15  2.811241E+06  4.832802E+05  6.107536E+05 -5.266946E+03 -5.551229E-10 -3.365661E-10
       424  16  2.574481E+06 -8.383910E+04  1.107529E+05 -6.889609E+04 -1.437713E-09 -1.890283E-09
       424  17  2.473481E+06 -1.318419E+05  2.069506E+05  4.546053E+04  2.882540E-09  1.296257E-09
       424  18  2.539904E+06  4.164965E+05  5.441452E+05  1.469690E+05  8.839034E-10 -1.795122E-09
       424  19  3.049731E+06  3.402113E+04  2.242364E+05  5.999723E+04  1.279117E+05  7.898223E+03
       424  20  2.982125E+06 -6.458778E+03  3.284210E+05 -4.234585E+04  2.754749E+05  8.539001E+03
       424  21  3.082886E+06  5.501931E+05  6.777038E+05 -1.575682E+05  4.230464E+05  3.283187E+03
       424  22  2.812085E+06 -2.491236E+04  1.675117E+05 -4.461345E+03  1.295953E+05  7.887489E+03
       424  23  2.727811E+06 -6.914166E+04  2.677573E+05  1.567280E+03  2.741495E+05  8.556770E+03
       424  24  2.811429E+06  4.833270E+05  6.110816E+05 -5.265808E+03  4.187072E+05  3.379692E+03
       424  25  2.574500E+06 -8.383443E+04  1.107853E+05 -6.889525E+04  1.312782E+05  7.876403E+03
       424  26  2.473561E+06 -1.318219E+05  2.070901E+05  4.546241E+04  2.728247E+05  8.574359E+03
       424  27  2.540088E+06  4.165424E+05  5.444666E+05  1.469702E+05  4.143699E+05  3.474115E+03
       425   1  6.059218E+05  1.962300E+05  1.817437E+05  5.286667E+04  5.719560E+04 -1.225197E+04
       425   2  5.441232E+05  1.900373E+05  1.423411E+05  5.533155E+04  2.554068E+04 -4.178403E+04
       425   3  4.851036E+05  1.784098E+05  1.222151E+05  6.848016E+04 -6.142298E+03 -5.121015E+04
       425   4 -2.840039E+05 -2.308845E+04 -2.543071E+04  6.663317E+04 -1.778858E+04 -1.239032E+04
       425   5 -2.820622E+05 -6.112127E+03 -1.252499E+04  6.126906E+04 -1.128868E+04 -4.186124E+04
       425   6 -2.839694E+05 -1.198256E+03 -6.831861E+03  6.658860E+04 -4.820984E+03 -5.121314E+04
       425   7 -1.173187E+06 -2.424590E+05 -2.326374E+05  8.037946E+04 -9.266607E+04 -1.253210E+04
       425   8 -1.107585E+06 -2.023002E+05 -1.674155E+05  6.719814E+04 -4.807027E+04 -4.193921E+04
       425   9 -1.052459E+06 -1.808373E+05 -1.358973E+05  6.469915E+04 -3.501250E+03 -5.121614E+04
       425  10  6.059182E+05  1.962289E+05  1.817373E+05  5.286723E+04  4.659102E-09 -1.045167E-09
       425  11  5.441220E+05  1.900353E+05  1.423366E+05  5.533241E+04  8.955620E-10 -5.102873E-09
       425  12  4.851029E+05  1.784070E+05  1.222101E+05  6.847990E+04  9.472741E-10 -4.373710E-09
       425  13 -2.840043E+05 -2.308870E+04 -2.543159E+04  6.663299E+04  1.370106E-09  1.017968E-09
       425  14 -2.820628E+05 -6.114042E+03 -1.252852E+04  6.126868E+04 -2.992005E-10 -3.557754E-09
       425  15 -2.839701E+05 -1.201078E+03 -6.836833E+03  6.658841E+04  2.856423E-11 -5.419472E-10
       425  16 -1.173196E+06 -2.424615E+05 -2.326539E+05  8.037853E+04 -5.252651E-09  1.142649E-10
       425  17 -1.107588E+06 -2.023027E+05 -1.674231E+05  6.719651E+04 -4.532672E-09 -6.918661E-09
       425  18 -1.052460E+06 -1.808401E+05 -1.359022E+05  6.469900E+04 -2.043117E-09 -6.675999E-09
       425  19  6.059218E+05  1.962300E+05  1.817437E+05  5.286667E+04 -5.719560E+04  1.225197E+04
       425  20  5.441232E+05  1.900373E+05  1.423411E+05  5.533155E+04 -2.554068E+04  4.178403E+04
       425  21  4.851036E+05  1.784098E+05  1.222151E+05  6.848016E+04  6.142298E+03  5.121015E+04
       425  22 -2.840039E+05 -2.308845E+04 -2.543071E+04  6.663317E+04  1.778858E+04  1.239032E+04
       425  23 -2.820622E+05 -6.112127E+03 -1.252499E+04  6.126906E+04  1.128868E+04  4.186124E+04
       425  24 -2.839694E+05 -1.198256E+03 -6.831861E+03  6.658860E+04  4.820984E+03  5.121314E+04
       425  25 -1.173187E+06 -2.424590E+05 -2.326374E+05  8.037946E+04  9.266607E+04  1.253210E+04
       425  26 -1.107585E+06 -2.023002E+05 -1.674155E+05  6.719814E+04  4.807027E+04  4.193921E+04
       425  27 -1.052459E+06 -1.808373E+05 -1.358973E+05  6.469915E+04  3.501250E+03  5.121614E+04
       426   1  4.463346E+05  1.688510E+05  1.152304E+05  6.749353E+04 -4.141180E+03 -5.021060E+04
       426   2  3.858697E+05  1.550070E+05  1.038283E+05  6.179099E+04 -6.707330E+03 -4.906172E+04
       426   3  3.257067E+05  1.411344E+05  9.408472E+04  6.816105E+04 -9.279192E+03 -4.581412E+04
       426   4 -2.831905E+05 -1.114802E+03 -5.162561E+03  6.690194E+04 -3.937955E+03 -5.021560E+04
       426   5 -2.829810E+05 -8.542455E+01 -2.830264E+03  6.086367E+04 -2.523544E+03 -4.905712E+04
       426   6 -2.831633E+05  2.246341E+02 -1.603140E+03  6.689883E+04 -1.115023E+03 -4.579875E+04
       426   7 -1.012189E+06 -1.711081E+05 -1.255713E+05  6.631077E+04 -3.734959E+03 -5.022060E+04
       426   8 -9.513869E+05 -1.552002E+05 -1.095003E+05  5.993712E+04  1.655901E+03 -4.905252E+04
       426   9 -8.916637E+05 -1.407034E+05 -9.729981E+04  6.563766E+04  7.041441E+03 -4.578340E+04
       426  10  4.463339E+05  1.688483E+05  1.152257E+05  6.749337E+04 -5.362475E-09 -4.772228E-09
       426  11  3.858690E+05  1.550044E+05  1.038237E+05  6.179072E+04 -2.661329E-09  1.186665E-09
       426  12  3.257060E+05  1.411321E+05  9.408061E+04  6.816071E+04  3.160090E-09  2.006869E-09
       426  13 -2.831912E+05 -1.117513E+03 -5.167328E+03  6.690178E+04  1.117748E-09 -3.286385E-09
       426  14 -2.829816E+05 -8.801018E+01 -2.834797E+03  6.086357E+04  3.143596E-10  1.788003E-10
       426  15 -2.831639E+05  2.223817E+02 -1.607083E+03  6.689879E+04  4.966740E-10 -3.771431E-09
       426  16 -1.012190E+06 -1.711108E+05 -1.255760E+05  6.631062E+04  4.853172E-09 -3.714310E-11
       426  17 -9.513875E+05 -1.552028E+05 -1.095049E+05  5.993718E+04 -2.495139E-09  1.954804E-09
       426  18 -8.916643E+05 -1.407057E+05 -9.730384E+04  6.563792E+04 -4.606519E-09 -3.297150E-10
       426  19  4.463346E+05  1.688510E+05  1.152304E+05  6.749353E+04  4.141180E+03  5.021060E+04
       426  20  3.858697E+05  1.550070E+05  1.038283E+05  6.179099E+04  6.707330E+03  4.906172E+04
       426  21  3.257067E+05  1.411344E+05  9.408472E+04  6.816105E+04  9.279192E+03  4.581412E+04
       426  22 -2.831905E+05 -1.114802E+03 -5.162561E+03  6.690194E+04  3.937955E+03  5.021560E+04
       426  23 -2.829810E+05 -8.542455E+01 -2.830264E+03  6.086367E+04  2.523544E+03  4.905712E+04
       426  24 -2.831633E+05  2.246341E+02 -1.603140E+03  6.689883E+04  1.115023E+03  4.579875E+04
       426  25 -1.012189E+06 -1.711081E+05 -1.255713E+05  6.631077E+04  3.734959E+03  5.022060E+04
       426  26 -9.513869E+05 -1.552002E+05 -1.095003E+05  5.993712E+04 -1.655901E+03  4.905252E+04
       426  27 -8.916637E+05 -1.407034E+05 -9.729981E+04  6.563766E+04 -7.041441E+03  4.578340E+04
       427   1  2.872096E+05  1.321340E+05  8.800055E+04  6.804478E+04 -8.926013E+03 -4.324667E+04
       427   2  2.268609E+05  1.181513E+05  7.880095E+04  6.184120E+04 -9.007859E+03 -3.889329E+04
       427   3  1.664959E+05  1.042575E+05  6.966207E+04  6.786380E+04 -9.091730E+03 -3.431977E+04
       427   4 -2.830881E+05  2.304593E+02 -1.216560E+03  6.693326E+04 -8.764202E+02 -4.323064E+04
       427   5 -2.830316E+05  2.692442E+02 -6.945194E+02  6.081978E+04 -5.413335E+02 -3.887484E+04
       427   6 -2.830674E+05  3.246617E+02 -4.015906E+02  6.693305E+04 -2.082800E+02 -3.429880E+04
       427   7 -8.530614E+05 -1.316891E+05 -9.044122E+04  6.582259E+04  7.166058E+03 -4.321464E+04
       427   8 -7.926644E+05 -1.176255E+05 -8.019586E+04  5.979905E+04  7.918501E+03 -3.885641E+04
       427   9 -7.324288E+05 -1.036180E+05 -7.046971E+04  6.600287E+04  8.668981E+03 -3.427785E+04
       427  10  2.872091E+05  1.321320E+05  8.799689E+04  6.804447E+04 -1.257034E-09  3.078555E-09
       427  11  2.268604E+05  1.181497E+05  7.879796E+04  6.184092E+04 -6.924291E-11  2.654689E-09
       427  12  1.664955E+05  1.042562E+05  6.965970E+04  6.786355E+04  5.689091E-09 -1.742916E-10
       427  13 -2.830886E+05  2.284525E+02 -1.220073E+03  6.693323E+04  1.473726E-09 -5.240166E-09
       427  14 -2.830320E+05  2.676216E+02 -6.973595E+02  6.081976E+04  7.895329E-10  3.049789E-09
       427  15 -2.830677E+05  3.233986E+02 -4.038011E+02  6.693305E+04  6.001680E-10  4.896787E-09
       427  16 -8.530619E+05 -1.316911E+05 -9.044482E+04  6.582284E+04  5.885920E-10  1.362889E-10
       427  17 -7.926649E+05 -1.176272E+05 -8.019881E+04  5.979930E+04 -5.101626E-09  3.066689E-09
       427  18 -7.324292E+05 -1.036193E+05 -7.047206E+04  6.600311E+04 -7.138077E-09  1.088037E-09
       427  19  2.872096E+05  1.321340E+05  8.800055E+04  6.804478E+04  8.926013E+03  4.324667E+04
       427  20  2.268609E+05  1.181513E+05  7.880095E+04  6.184120E+04  9.007859E+03  3.889329E+04
       427  21  1.664959E+05  1.042575E+05  6.966207E+04  6.786380E+04  9.091730E+03  3.431977E+04
       427  22 -2.830881E+05  2.304593E+02 -1.216560E+03  6.693326E+04  8.764202E+02  4.323064E+04
       427  23 -2.830316E+05  2.692442E+02 -6.945194E+02  6.081978E+04  5.413335E+02  3.887484E+04
       427  24 -2.830674E+05  3.246617E+02 -4.015906E+02  6.693305E+04  2.082800E+02  3.429880E+04
       427  25 -8.530614E+05 -1.316891E+05 -9.044122E+04  6.582259E+04 -7.166058E+03  4.321464E+04
       427  26 -7.926644E+05 -1.176255E+05 -8.019586E+04  5.979905E+04 -7.918501E+03  3.885641E+04
       427  27 -7.324288E+05 -1.036180E+05 -7.046971E+04  6.600287E+04 -8.668981E+03  3.427785E+04
       428   1  1.280127E+05  9.531614E+04  6.350570E+04  6.779202E+04 -9.023821E+03 -3.158675E+04
       428   2  6.764280E+04  8.135549E+04  5.431437E+04  6.154915E+04 -8.983964E+03 -2.689625E+04
       428   3  7.219952E+03  6.746661E+04  4.509476E+04  6.755552E+04 -8.945240E+03 -2.218280E+04
       428   4 -2.830550E+05  3.307865E+02 -3.096777E+02  6.693816E+04 -1.507776E+02 -3.156507E+04
       428   5 -2.830153E+05  3.127385E+02 -1.908464E+02  6.081332E+04 -6.791500E+01 -2.687345E+04
       428   6 -2.830407E+05  3.588447E+02 -1.306745E+02  6.693812E+04  1.381853E+01 -2.215886E+04
       428   7 -6.939537E+05 -9.466278E+04 -6.412867E+04  6.608477E+04  8.716615E+03 -3.154341E+04
       428   8 -6.335504E+05 -8.073599E+04 -5.469863E+04  6.007784E+04  8.843289E+03 -2.685065E+04
       428   9 -5.732171E+05 -6.675300E+04 -4.535780E+04  6.632095E+04  8.968846E+03 -2.213492E+04
       428  10  1.280123E+05  9.531505E+04  6.350367E+04  6.779179E+04  5.983259E-08  2.684755E-09
       428  11  6.764252E+04  8.135469E+04  5.431286E+04  6.154895E+04 -2.722166E-09  1.183587E-08
       428  12  7.219734E+03  6.746606E+04  4.509369E+04  6.755536E+04 -6.127809E-08  9.459811E-09
       428  13 -2.830552E+05  3.297167E+02 -3.115499E+02  6.693816E+04  1.405708E-09  2.623033E-09
       428  14 -2.830155E+05  3.119631E+02 -1.922033E+02  6.081332E+04  1.461839E-10  1.168393E-08
       428  15 -2.830408E+05  3.583175E+02 -1.315971E+02  6.693812E+04 -1.165323E-10  5.250857E-09
       428  16 -6.939540E+05 -9.466387E+04 -6.413069E+04  6.608499E+04 -5.999282E-08  2.218796E-09
       428  17 -6.335507E+05 -8.073678E+04 -5.470013E+04  6.007803E+04 -3.252529E-09  5.871841E-09
       428  18 -5.732173E+05 -6.675355E+04 -4.535887E+04  6.632111E+04  5.944788E-08  3.823868E-09
       428  19  1.280127E+05  9.531614E+04  6.350570E+04  6.779202E+04  9.023821E+03  3.158675E+04
       428  20  6.764280E+04  8.135549E+04  5.431437E+04  6.154915E+04  8.983964E+03  2.689625E+04
       428  21  7.219952E+03  6.746661E+04  4.509476E+04  6.755552E+04  8.945240E+03  2.218280E+04
       428  22 -2.830550E+05  3.307865E+02 -3.096777E+02  6.693816E+04  1.507776E+02  3.156507E+04
       428  23 -2.830153E+05  3.127385E+02 -1.908464E+02  6.081332E+04  6.791500E+01  2.687345E+04
       428  24 -2.830407E+05  3.588447E+02 -1.306745E+02  6.693812E+04 -1.381853E+01  2.215886E+04
       428  25 -6.939537E+05 -9.466278E+04 -6.412867E+04  6.608477E+04 -8.716615E+03  3.154341E+04
       428  26 -6.335504E+05 -8.073599E+04 -5.469863E+04  6.007784E+04 -8.843289E+03  2.685065E+04
       428  27 -5.732171E+05 -6.675300E+04 -4.535780E+04  6.632095E+04 -8.968846E+03  2.213492E+04
       429   1 -3.128235E+04  5.852478E+04  3.887744E+04  6.747759E+04 -8.930230E+03 -1.943152E+04
       429   2 -9.166692E+04  4.455929E+04  2.959883E+04  6.121690E+04 -8.871746E+03 -1.470894E+04
       429   3 -1.521215E+05  3.065799E+04  2.027406E+04  6.721505E+04 -8.813836E+03 -9.992619E+03
       429   4 -2.830379E+05  3.642202E+02 -1.180511E+02  6.694020E+04  2.904801E+01 -1.940711E+04
       429   5 -2.829987E+05  3.400700E+02 -1.192715E+02  6.081066E+04  7.528222E+01 -1.468400E+04
       429   6 -2.830302E+05  3.825775E+02 -1.580774E+02  6.694017E+04  1.209492E+02 -9.967164E+03
       429   7 -5.347300E+05 -5.779938E+04 -3.911470E+04  6.640299E+04  8.984830E+03 -1.938271E+04
       429   8 -4.742938E+05 -4.388090E+04 -2.983792E+04  6.040453E+04  9.019657E+03 -1.465908E+04
       429   9 -4.139215E+05 -2.989364E+04 -2.059032E+04  6.666534E+04  9.053921E+03 -9.941714E+03
       429  10 -3.128254E+04  5.852435E+04  3.887658E+04  6.747745E+04  2.371447E-08  2.106373E-09
       429  11 -9.166706E+04  4.455904E+04  2.959827E+04  6.121680E+04 -1.995151E-08 -4.271796E-09
       429  12 -1.521216E+05  3.065787E+04  2.027373E+04  6.721497E+04 -5.789313E-08 -4.196593E-09
       429  13 -2.830380E+05  3.638158E+02 -1.187587E+02  6.694020E+04  4.503124E-10  9.786647E-09
       429  14 -2.829988E+05  3.398385E+02 -1.196767E+02  6.081066E+04 -1.695599E-10 -1.242203E-09
       429  15 -2.830302E+05  3.824708E+02 -1.582641E+02  6.694017E+04 -9.698860E-11 -4.547217E-09
       429  16 -5.347302E+05 -5.779981E+04 -3.911555E+04  6.640313E+04 -2.407233E-08  4.837508E-09
       429  17 -4.742939E+05 -4.388115E+04 -2.983848E+04  6.040463E+04  1.450849E-08 -3.884228E-09
       429  18 -4.139216E+05 -2.989377E+04 -2.059066E+04  6.666541E+04  5.599861E-08 -5.417010E-09
       429  19 -3.128235E+04  5.852478E+04  3.887744E+04  6.747759E+04  8.930230E+03  1.943152E+04
       429  20 -9.166692E+04  4.455929E+04  2.959883E+04  6.121690E+04  8.871746E+03  1.470894E+04
       429  21 -1.521215E+05  3.065799E+04  2.027406E+04  6.721505E+04  8.813836E+03  9.992619E+03
       429  22 -2.830379E+05  3.642202E+02 -1.180511E+02  6.694020E+04 -2.904801E+01  1.940711E+04
       429  23 -2.829987E+05  3.400700E+02 -1.192715E+02  6.081066E+04 -7.528222E+01  1.468400E+04
       429  24 -2.830302E+05  3.825775E+02 -1.580774E+02  6.694017E+04 -1.209492E+02  9.967164E+03
       429  25 -5.347300E+05 -5.779938E+04 -3.911470E+04  6.640299E+04 -8.984830E+03  1.938271E+04
       429  26 -4.742938E+05 -4.388090E+04 -2.983792E+04  6.040453E+04 -9.019657E+03  1.465908E+04
       429  27 -4.139215E+05 -2.989364E+04 -2.059032E+04  6.666534E+04 -9.053921E+03  9.941714E+03
       430   1 -1.906394E+05  2.170917E+04  1.399763E+04  6.712465E+04 -8.794832E+03 -7.245218E+03
       430   2 -2.510068E+05  7.722346E+03  4.532907E+03  6.086168E+04 -8.482342E+03 -2.571988E+03
       430   3 -3.114925E+05 -6.247193E+03 -5.156296E+03  6.685361E+04 -8.169741E+03  2.013250E+03
       430   4 -2.830335E+05  3.862610E+02 -1.953427E+02  6.693923E+04  1.449794E+02 -7.219557E+03
       430   5 -2.829863E+05  3.538395E+02 -3.199505E+02  6.081180E+04  2.902611E+02 -2.546715E+03
       430   6 -2.830322E+05  3.678464E+02 -5.530858E+02  6.693929E+04  4.356838E+02  2.038132E+03
       430   7 -3.754189E+05 -2.093701E+04 -1.438820E+04  6.675383E+04  9.083512E+03 -7.193899E+03
       430   8 -3.149647E+05 -7.014674E+03 -5.172540E+03  6.076192E+04  9.062430E+03 -2.521443E+03
       430   9 -2.545709E+05  6.982885E+03  4.050381E+03  6.702497E+04  9.041489E+03  2.063016E+03
       430  10 -1.906395E+05  2.170909E+04  1.399739E+04  6.712460E+04  4.832221E-08  1.391283E-09
       430  11 -2.510068E+05  7.722319E+03  4.532760E+03  6.086167E+04  1.474842E-08 -7.828410E-10
       430  12 -3.114926E+05 -6.247216E+03 -5.156429E+03  6.685363E+04 -1.680569E-08  2.821559E-09
       430  13 -2.830335E+05  3.862050E+02 -1.954407E+02  6.693923E+04  1.728182E-09 -2.166990E-09
       430  14 -2.829863E+05  3.538326E+02 -3.199628E+02  6.081180E+04  6.190315E-10  7.617286E-10
       430  15 -2.830322E+05  3.678419E+02 -5.530940E+02  6.693929E+04  7.651381E-10  4.105862E-09
       430  16 -3.754190E+05 -2.093709E+04 -1.438846E+04  6.675389E+04 -4.845304E-08 -5.601817E-11
       430  17 -3.149647E+05 -7.014703E+03 -5.172707E+03  6.076194E+04 -2.061856E-08 -9.491994E-09
       430  18 -2.545710E+05  6.982858E+03  4.050219E+03  6.702496E+04  1.494937E-08  2.071693E-10
       430  19 -1.906394E+05  2.170917E+04  1.399763E+04  6.712465E+04  8.794832E+03  7.245218E+03
       430  20 -2.510068E+05  7.722346E+03  4.532907E+03  6.086168E+04  8.482342E+03  2.571988E+03
       430  21 -3.114925E+05 -6.247193E+03 -5.156296E+03  6.685361E+04  8.169741E+03 -2.013250E+03
       430  22 -2.830335E+05  3.862610E+02 -1.953427E+02  6.693923E+04 -1.449794E+02  7.219557E+03
       430  23 -2.829863E+05  3.538395E+02 -3.199505E+02  6.081180E+04 -2.902611E+02  2.546715E+03
       430  24 -2.830322E+05  3.678464E+02 -5.530858E+02  6.693929E+04 -4.356838E+02 -2.038132E+03
       430  25 -3.754189E+05 -2.093701E+04 -1.438820E+04  6.675383E+04 -9.083512E+03  7.193899E+03
       430  26 -3.149647E+05 -7.014674E+03 -5.172540E+03  6.076192E+04 -9.062430E+03  2.521443E+03
       430  27 -2.545709E+05  6.982885E+03  4.050381E+03  6.702497E+04 -9.041489E+03 -2.063016E+03
       431   1 -3.500784E+05 -1.522571E+04 -1.166199E+04  6.670876E+04 -8.113523E+03  4.695316E+03
       431   2 -4.102449E+05 -2.943211E+04 -2.217818E+04  6.065608E+04 -5.880004E+03  8.843408E+03
       431   3 -4.709225E+05 -4.420404E+04 -3.431435E+04  6.680032E+04 -3.644106E+03  1.214386E+04
       431   4 -2.830648E+05  3.698871E+02 -7.270641E+02  6.692615E+04  5.386173E+02  4.720255E+03
       431   5 -2.829492E+05  2.174285E+02 -1.278323E+03  6.082861E+04  1.165544E+03  8.863407E+03
       431   6 -2.830701E+05 -2.215377E+02 -2.333653E+03  6.692783E+04  1.795080E+03  1.215901E+04
       431   7 -2.160466E+05  1.596529E+04  1.020801E+04  6.714357E+04  9.191660E+03  4.745198E+03
       431   8 -1.556373E+05  2.986616E+04  1.962125E+04  6.100117E+04  8.212488E+03  8.883408E+03
       431   9 -9.518294E+04  4.375911E+04  2.964600E+04  6.705535E+04  7.235860E+03  1.217416E+04
       431  10 -3.500785E+05 -1.522575E+04 -1.166215E+04  6.670879E+04 -6.715238E-09  6.365829E-09
       431  11 -4.102449E+05 -2.943221E+04 -2.217839E+04  6.065612E+04  1.101925E-09  1.324990E-09
       431  12 -4.709226E+05 -4.420420E+04 -3.431465E+04  6.680036E+04  1.291509E-08  4.101776E-09
       431  13 -2.830648E+05  3.698631E+02 -7.271065E+02  6.692615E+04  1.227508E-09  3.787251E-09
       431  14 -2.829492E+05  2.173438E+02 -1.278473E+03  6.082860E+04  1.403109E-09  8.093454E-09
       431  15 -2.830702E+05 -2.216973E+02 -2.333937E+03  6.692781E+04  1.164863E-09 -1.217428E-09
       431  16 -2.160467E+05  1.596524E+04  1.020781E+04  6.714353E+04  6.511731E-09  5.157641E-09
       431  17 -1.556374E+05  2.986606E+04  1.962098E+04  6.100111E+04 -6.812392E-09  6.691123E-09
       431  18 -9.518303E+04  4.375893E+04  2.964562E+04  6.705528E+04 -1.409969E-08 -7.214148E-09
       431  19 -3.500784E+05 -1.522571E+04 -1.166199E+04  6.670876E+04  8.113523E+03 -4.695316E+03
       431  20 -4.102449E+05 -2.943211E+04 -2.217818E+04  6.065608E+04  5.880004E+03 -8.843408E+03
       431  21 -4.709225E+05 -4.420404E+04 -3.431435E+04  6.680032E+04  3.644106E+03 -1.214386E+04
       431  22 -2.830648E+05  3.698871E+02 -7.270641E+02  6.692615E+04 -5.386173E+02 -4.720255E+03
       431  23 -2.829492E+05  2.174285E+02 -1.278323E+03  6.082861E+04 -1.165544E+03 -8.863407E+03
       431  24 -2.830701E+05 -2.215377E+02 -2.333653E+03  6.692783E+04 -1.795080E+03 -1.215901E+04
       431  25 -2.160466E+05  1.596529E+04  1.020801E+04  6.714357E+04 -9.191660E+03 -4.745198E+03
       431  26 -1.556373E+05  2.986616E+04  1.962125E+04  6.100117E+04 -8.212488E+03 -8.883408E+03
       431  27 -9.518294E+04  4.375911E+04  2.964600E+04  6.705535E+04 -7.235860E+03 -1.217416E+04
       432   1 -5.102230E+05 -5.348080E+04 -4.228501E+04  6.601579E+04 -3.701247E+03  1.419165E+04
       432   2 -5.684564E+05 -7.072931E+04 -6.082095E+04  6.364352E+04  1.460698E+04  1.328844E+04
       432   3 -6.311706E+05 -9.608536E+04 -9.332289E+04  7.291375E+04  3.293454E+04  4.258665E+03
       432   4 -2.834221E+05 -2.567968E+02 -3.088555E+03  6.680170E+04  2.189106E+03  1.420783E+04
       432   5 -2.825249E+05 -2.502046E+03 -5.659661E+03  6.099410E+04  5.101786E+03  1.326147E+04
       432   6 -2.834348E+05 -1.017815E+04 -1.149813E+04  6.682908E+04  8.035557E+03  4.190072E+03
       432   7 -5.657057E+04  5.296445E+04  3.610626E+04  6.758787E+04  8.081544E+03  1.422403E+04
       432   8  3.485557E+03  6.572044E+04  4.949817E+04  5.834339E+04 -4.407685E+03  1.323460E+04
       432   9  6.441387E+04  7.572092E+04  7.032068E+04  6.074090E+04 -1.687730E+04  4.121987E+03
       432  10 -5.102230E+05 -5.348102E+04 -4.228542E+04  6.601583E+04 -4.200378E-09  2.360718E-09
       432  11 -5.684567E+05 -7.072956E+04 -6.082168E+04  6.364336E+04 -3.514992E-09  1.141529E-09
       432  12 -6.311718E+05 -9.608567E+04 -9.332497E+04  7.291364E+04  1.188607E-09 -7.935051E-10
       432  13 -2.834221E+05 -2.570149E+02 -3.088943E+03  6.680167E+04  9.779536E-10  5.302600E-09
       432  14 -2.825249E+05 -2.502242E+03 -5.660040E+03  6.099405E+04  7.945225E-10 -4.898461E-09
       432  15 -2.834348E+05 -1.017818E+04 -1.149828E+04  6.682905E+04  1.104138E-09  3.560181E-09
       432  16 -5.657070E+04  5.296422E+04  3.610576E+04  6.758778E+04  4.390284E-09 -3.054443E-10
       432  17  3.485489E+03  6.572025E+04  4.949781E+04  5.834343E+04 -2.113596E-09  4.718266E-11
       432  18  6.441356E+04  7.572083E+04  7.032012E+04  6.074095E+04 -2.410721E-09  4.803619E-10
       432  19 -5.102230E+05 -5.348080E+04 -4.228501E+04  6.601579E+04  3.701247E+03 -1.419165E+04
       432  20 -5.684564E+05 -7.072931E+04 -6.082095E+04  6.364352E+04 -1.460698E+04 -1.328844E+04
       432  21 -6.311706E+05 -9.608536E+04 -9.332289E+04  7.291375E+04 -3.293454E+04 -4.258665E+03
       432  22 -2.834221E+05 -2.567968E+02 -3.088555E+03  6.680170E+04 -2.189106E+03 -1.420783E+04
       432  23 -2.825249E+05 -2.502046E+03 -5.659661E+03  6.099410E+04 -5.101786E+03 -1.326147E+04
       432  24 -2.834348E+05 -1.017815E+04 -1.149813E+04  6.682908E+04 -8.035557E+03 -4.190072E+03
       432  25 -5.657057E+04  5.296445E+04  3.610626E+04  6.758787E+04 -8.081544E+03 -1.422403E+04
       432  26  3.485557E+03  6.572044E+04  4.949817E+04  5.834339E+04  4.407685E+03 -1.323460E+04
       432  27  6.441387E+04  7.572092E+04  7.032068E+04  6.074090E+04  1.687730E+04 -4.121987E+03
       433   1 -2.983127E+05  3.421072E+04  7.285243E+03 -1.337501E+04 -7.583274E+04 -5.469447E+03
       433   2 -3.170850E+05  1.358957E+05  6.402234E+04 -4.716407E+03 -5.258383E+04 -1.601904E+04
       433   3 -3.685265E+05  1.186701E+05  7.593447E+04  2.990136E+04 -2.936937E+04 -1.492808E+04
       433   4 -8.260177E+05 -9.725047E+04 -1.229556E+05  1.615954E+04 -8.406215E+04 -5.495948E+03
       433   5 -8.091370E+05  1.391262E+04 -5.385047E+04  3.034014E+03 -5.497073E+04 -1.602782E+04
       433   6 -8.259704E+05  5.097164E+03 -3.365814E+04  1.586954E+04 -2.591211E+04 -1.491670E+04
       433   7 -1.353467E+06 -2.287290E+05 -2.532164E+05  4.566876E+04 -9.228454E+04 -5.523244E+03
       433   8 -1.300967E+06 -1.080878E+05 -1.717404E+05  1.077810E+04 -5.735574E+04 -1.603667E+04
       433   9 -1.283222E+06 -1.084902E+05 -1.432654E+05  1.847940E+03 -2.245739E+04 -1.490548E+04
       433  10 -2.983189E+05  3.420915E+04  7.274375E+03 -1.337534E+04 -3.459192E-09  1.844626E-09
       433  11 -3.170880E+05  1.358947E+05  6.401666E+04 -4.717086E+03 -1.265599E-09  9.805893E-09
       433  12 -3.685275E+05  1.186696E+05  7.593243E+04  2.990101E+04  3.419773E-09  3.989358E-09
       433  13 -8.260253E+05 -9.725240E+04 -1.229690E+05  1.615916E+04  3.180918E-10 -3.556910E-09
       433  14 -8.091403E+05  1.391153E+04 -5.385664E+04  3.033304E+03  1.064948E-10 -9.093409E-09
       433  15 -8.259711E+05  5.096745E+03 -3.365982E+04  1.586923E+04 -9.990761E-11  3.572544E-09
       433  16 -1.353476E+06 -2.287314E+05 -2.532325E+05  4.566835E+04  2.243613E-09  2.671291E-10
       433  17 -1.300970E+06 -1.080890E+05 -1.717470E+05  1.077736E+04  9.069841E-10  9.018049E-09
       433  18 -1.283223E+06 -1.084906E+05 -1.432668E+05  1.847670E+03 -2.625090E-09  1.471964E-09
       433  19 -2.983127E+05  3.421072E+04  7.285243E+03 -1.337501E+04  7.583274E+04  5.469447E+03
       433  20 -3.170850E+05  1.358957E+05  6.402234E+04 -4.716407E+03  5.258383E+04  1.601904E+04
       433  21 -3.685265E+05  1.186701E+05  7.593447E+04  2.990136E+04  2.936937E+04  1.492808E+04
       433  22 -8.260177E+05 -9.725047E+04 -1.229556E+05  1.615954E+04  8.406215E+04  5.495948E+03
       433  23 -8.091370E+05  1.391262E+04 -5.385047E+04  3.034014E+03  5.497073E+04  1.602782E+04
       433  24 -8.259704E+05  5.097164E+03 -3.365814E+04  1.586954E+04  2.591211E+04  1.491670E+04
       433  25 -1.353467E+06 -2.287290E+05 -2.532164E+05  4.566876E+04  9.228454E+04  5.523244E+03
       433  26 -1.300967E+06 -1.080878E+05 -1.717404E+05  1.077810E+04  5.735574E+04  1.603667E+04
       433  27 -1.283222E+06 -1.084902E+05 -1.432654E+05  1.847940E+03  2.245739E+04  1.490548E+04
       434   1 -4.100696E+05  9.142575E+04  7.087828E+04  1.442347E+04 -2.077380E+04 -1.241646E+04
       434   2 -4.444422E+05  9.402408E+04  7.543580E+04  2.953379E+03 -1.405391E+04 -1.181867E+04
       434   3 -4.828923E+05  8.417840E+04  7.248776E+04  1.866140E+04 -7.338698E+03 -1.033075E+04
       434   4 -8.194007E+05 -1.014472E+04 -2.746907E+04  1.625902E+04 -2.069945E+04 -1.241684E+04
       434   5 -8.173151E+05  1.516321E+03 -1.398543E+04  2.650173E+03 -1.353543E+04 -1.181724E+04
       434   6 -8.193890E+05  6.517046E+02 -8.319789E+03  1.622063E+04 -6.375692E+03 -1.032732E+04
       434   7 -1.228578E+06 -1.117274E+05 -1.258283E+05  1.809321E+04 -2.062514E+04 -1.241721E+04
       434   8 -1.190061E+06 -9.100155E+04 -1.034165E+05  2.347034E+03 -1.301725E+04 -1.181581E+04
       434   9 -1.155782E+06 -8.288322E+04 -8.913538E+04  1.378108E+04 -5.413206E+03 -1.032390E+04
       434  10 -4.100701E+05  9.142547E+04  7.087718E+04  1.442326E+04 -1.516778E-09 -1.922387E-09
       434  11 -4.444425E+05  9.402388E+04  7.543516E+04  2.953245E+03 -1.230580E-09  6.989553E-09
       434  12 -4.828924E+05  8.417828E+04  7.248746E+04  1.866134E+04  6.981883E-09  9.686735E-09
       434  13 -8.194012E+05 -1.014501E+04 -2.747016E+04  1.625881E+04 -5.680670E-10  1.446622E-08
       434  14 -8.173154E+05  1.516121E+03 -1.398603E+04  2.650044E+03  5.405625E-10 -2.011409E-08
       434  15 -8.193891E+05  6.515792E+02 -8.320065E+03  1.622057E+04 -1.603285E-09  9.453730E-09
       434  16 -1.228579E+06 -1.117277E+05 -1.258294E+05  1.809300E+04  9.197379E-10 -6.067522E-09
       434  17 -1.190061E+06 -9.100174E+04 -1.034171E+05  2.346910E+03  2.675258E-09 -3.569397E-09
       434  18 -1.155782E+06 -8.288335E+04 -8.913564E+04  1.378104E+04 -7.182827E-09  4.920907E-09
       434  19 -4.100696E+05  9.142575E+04  7.087828E+04  1.442347E+04  2.077380E+04  1.241646E+04
       434  20 -4.444422E+05  9.402408E+04  7.543580E+04  2.953379E+03  1.405391E+04  1.181867E+04
       434  21 -4.828923E+05  8.417840E+04  7.248776E+04  1.866140E+04  7.338698E+03  1.033075E+04
       434  22 -8.194007E+05 -1.014472E+04 -2.746907E+04  1.625902E+04  2.069945E+04  1.241684E+04
       434  23 -8.173151E+05  1.516321E+03 -1.398543E+04  2.650173E+03  1.353543E+04  1.181724E+04
       434  24 -8.193890E+05  6.517046E+02 -8.319789E+03  1.622063E+04  6.375692E+03  1.032732E+04
       434  25 -1.228578E+06 -1.117274E+05 -1.258283E+05  1.809321E+04  2.062514E+04  1.241721E+04
       434  26 -1.190061E+06 -9.100155E+04 -1.034165E+05  2.347034E+03  1.301725E+04  1.181581E+04
       434  27 -1.155782E+06 -8.288322E+04 -8.913538E+04  1.378108E+04  5.413206E+03  1.032390E+04
       435   1 -5.319952E+05  7.016651E+04  6.213029E+04  1.706202E+04 -5.782119E+03 -9.323992E+03
       435   2 -5.691056E+05  6.201399E+04  5.616145E+04  3.170303E+03 -4.023383E+03 -7.863132E+03
       435   3 -6.069415E+05  5.275869E+04  4.872373E+04  1.727386E+04 -2.265852E+03 -6.322659E+03
       435   4 -8.186199E+05 -9.342919E+02 -6.527601E+03  1.641736E+04 -5.068419E+03 -9.321400E+03
       435   5 -8.182507E+05  1.915239E+02 -3.598461E+03  2.416957E+03 -3.270349E+03 -7.860199E+03
       435   6 -8.186150E+05  2.075822E+02 -2.165849E+03  1.641254E+04 -1.473380E+03 -6.319366E+03
       435   7 -1.105169E+06 -7.204106E+04 -7.519131E+04  1.577292E+04 -4.355047E+03 -9.318809E+03
       435   8 -1.067339E+06 -6.163546E+04 -6.336277E+04  1.663856E+03 -2.517617E+03 -7.857266E+03
       435   9 -1.030247E+06 -5.234679E+04 -5.305862E+04  1.555146E+04 -6.811777E+02 -6.316074E+03
       435  10 -5.319953E+05  7.016641E+04  6.213007E+04  1.706198E+04  7.154592E-09 -5.055814E-09
       435  11 -5.691056E+05  6.201392E+04  5.616130E+04  3.170278E+03 -1.676146E-10 -5.716117E-09
       435  12 -6.069415E+05  5.275865E+04  4.872365E+04  1.727385E+04  2.236443E-09 -2.869895E-09
       435  13 -8.186199E+05 -9.343921E+02 -6.527813E+03  1.641732E+04 -5.928836E-10 -3.235855E-09
       435  14 -8.182507E+05  1.914547E+02 -3.598598E+03  2.416936E+03 -1.472772E-09 -7.094994E-09
       435  15 -8.186151E+05  2.075387E+02 -2.165928E+03  1.641253E+04  2.844841E-10 -3.278306E-09
       435  16 -1.105169E+06 -7.204116E+04 -7.519151E+04  1.577289E+04 -8.738661E-09 -4.510868E-09
       435  17 -1.067339E+06 -6.163553E+04 -6.336290E+04  1.663840E+03  2.598666E-10  3.595936E-09
       435  18 -1.030248E+06 -5.234683E+04 -5.305870E+04  1.555146E+04 -1.665829E-09  1.226909E-08
       435  19 -5.319952E+05  7.016651E+04  6.213029E+04  1.706202E+04  5.782119E+03  9.323992E+03
       435  20 -5.691056E+05  6.201399E+04  5.616145E+04  3.170303E+03  4.023383E+03  7.863132E+03
       435  21 -6.069415E+05  5.275869E+04  4.872373E+04  1.727386E+04  2.265852E+03  6.322659E+03
       435  22 -8.186199E+05 -9.342919E+02 -6.527601E+03  1.641736E+04  5.068419E+03  9.321400E+03
       435  23 -8.182507E+05  1.915239E+02 -3.598461E+03  2.416957E+03  3.270349E+03  7.860199E+03
       435  24 -8.186150E+05  2.075822E+02 -2.165849E+03  1.641254E+04  1.473380E+03  6.319366E+03
       435  25 -1.105169E+06 -7.204106E+04 -7.519131E+04  1.577292E+04  4.355047E+03  9.318809E+03
       435  26 -1.067339E+06 -6.163546E+04 -6.336277E+04  1.663856E+03  2.517617E+03  7.857266E+03
       435  27 -1.030247E+06 -5.234679E+04 -5.305862E+04  1.555146E+04  6.811777E+02  6.316074E+03
       436   1 -6.578969E+05  3.988467E+04  3.668735E+04  1.704440E+04 -1.904242E+03 -5.412314E+03
       436   2 -6.958418E+05  3.045923E+04  2.823688E+04  2.697042E+03 -1.345628E+03 -3.863506E+03
       436   3 -7.341349E+05  2.112727E+04  1.938152E+04  1.682631E+04 -7.875045E+02 -2.302942E+03
       436   4 -8.185247E+05  4.685192E+01 -1.729714E+03  1.652117E+04 -1.128299E+03 -5.408993E+03
       436   5 -8.183483E+05  5.779114E+01 -1.150125E+03  2.282359E+03 -5.639129E+02 -3.860068E+03
       436   6 -8.185226E+05  1.612731E+02 -9.794354E+02  1.652052E+04  1.622623E-02 -2.299382E+03
       436   7 -9.791287E+05 -3.979284E+04 -4.014860E+04  1.599805E+04 -3.525564E+02 -5.405673E+03
       436   8 -9.408411E+05 -3.034474E+04 -3.053820E+04  1.867744E+03  2.176480E+02 -3.856631E+03
       436   9 -9.029037E+05 -2.080524E+04 -2.134090E+04  1.621476E+04  7.874301E+02 -2.295822E+03
       436  10 -6.578969E+05  3.988464E+04  3.668729E+04  1.704439E+04  4.247758E-09 -8.204112E-09
       436  11 -6.958418E+05  3.045921E+04  2.823685E+04  2.697038E+03 -3.602574E-09  2.546783E-09
       436  12 -7.341349E+05  2.112726E+04  1.938151E+04  1.682631E+04 -1.025557E-09  1.031494E-09
       436  13 -8.185247E+05  4.682017E+01 -1.729771E+03  1.652117E+04 -3.312765E-10  4.614991E-09
       436  14 -8.183483E+05  5.777506E+01 -1.150154E+03  2.282358E+03 -1.130136E-09 -4.886634E-09
       436  15 -8.185226E+05  1.612674E+02 -9.794453E+02  1.652052E+04  3.651218E-10 -5.865916E-09
       436  16 -9.791287E+05 -3.979287E+04 -4.014865E+04  1.599805E+04 -6.109862E-09  6.831652E-09
       436  17 -9.408411E+05 -3.034476E+04 -3.053822E+04  1.867744E+03  3.916518E-09  1.295095E-08
       436  18 -9.029038E+05 -2.080525E+04 -2.134091E+04  1.621476E+04  2.349442E-09  1.987397E-09
       436  19 -6.578969E+05  3.988467E+04  3.668735E+04  1.704440E+04  1.904242E+03  5.412314E+03
       436  20 -6.958418E+05  3.045923E+04  2.823688E+04  2.697042E+03  1.345628E+03  3.863506E+03
       436  21 -7.341349E+05  2.112727E+04  1.938152E+04  1.682631E+04  7.875045E+02  2.302942E+03
       436  22 -8.185247E+05  4.685192E+01 -1.729714E+03  1.652117E+04  1.128299E+03  5.408993E+03
       436  23 -8.183483E+05  5.779114E+01 -1.150125E+03  2.282359E+03  5.639129E+02  3.860068E+03
       436  24 -8.185226E+05  1.612731E+02 -9.794354E+02  1.652052E+04 -1.622622E-02  2.299382E+03
       436  25 -9.791287E+05 -3.979284E+04 -4.014860E+04  1.599805E+04  3.525564E+02  5.405673E+03
       436  26 -9.408411E+05 -3.034474E+04 -3.053820E+04  1.867744E+03 -2.176480E+02  3.856631E+03
       436  27 -9.029037E+05 -2.080524E+04 -2.134090E+04  1.621476E+04 -7.874301E+02  2.295822E+03
       437   1 -7.857577E+05  8.272645E+03  6.737463E+03  1.664311E+04 -6.130294E+02 -1.391006E+03
       437   2 -8.238829E+05 -1.311415E+03 -2.625414E+03  2.212188E+03  2.487174E+01  1.749352E+02
       437   3 -8.623971E+05 -1.082588E+04 -1.245626E+04  1.641067E+04  6.627592E+02  1.737037E+03
       437   4 -8.185298E+05  1.630565E+02 -1.007433E+03  1.655432E+04  1.749355E+02 -1.387411E+03
       437   5 -8.183346E+05  6.566218E+01 -1.294391E+03  2.239906E+03  8.108776E+02  1.785137E+02
       437   6 -8.185301E+05  3.816926E+01 -2.048006E+03  1.655487E+04  1.446845E+03  1.740605E+03
       437   7 -8.513008E+05 -7.946608E+03 -8.752401E+03  1.646555E+04  9.628590E+02 -1.383817E+03
       437   8 -8.127863E+05  1.442738E+03  3.663224E+01  2.267626E+03  1.596890E+03  1.820922E+02
       437   9 -7.746612E+05  1.090208E+04  8.360119E+03  1.669907E+04  2.230987E+03  1.744174E+03
       437  10 -7.857577E+05  8.272642E+03  6.737458E+03  1.664311E+04 -1.560877E-10 -2.254625E-09
       437  11 -8.238829E+05 -1.311415E+03 -2.625414E+03  2.212188E+03 -1.481434E-09 -8.183868E-09
       437  12 -8.623971E+05 -1.082588E+04 -1.245627E+04  1.641067E+04 -1.863444E-09 -4.438674E-09
       437  13 -8.185298E+05  1.630545E+02 -1.007437E+03  1.655432E+04 -2.688623E-10  8.571663E-09
       437  14 -8.183346E+05  6.566197E+01 -1.294392E+03  2.239906E+03 -1.448856E-09 -5.134451E-09
       437  15 -8.185301E+05  3.816545E+01 -2.048016E+03  1.655487E+04  1.454902E-10 -7.145368E-09
       437  16 -8.513008E+05 -7.946611E+03 -8.752406E+03  1.646555E+04 -2.704201E-09 -2.815228E-09
       437  17 -8.127863E+05  1.442737E+03  3.662738E+01  2.267625E+03  2.690425E-09 -1.893742E-08
       437  18 -7.746612E+05  1.090207E+04  8.360104E+03  1.669907E+04  3.069211E-09 -1.002325E-08
       437  19 -7.857577E+05  8.272645E+03  6.737463E+03  1.664311E+04  6.130294E+02  1.391006E+03
       437  20 -8.238829E+05 -1.311415E+03 -2.625414E+03  2.212188E+03 -2.487174E+01 -1.749352E+02
       437  21 -8.623971E+05 -1.082588E+04 -1.245626E+04  1.641067E+04 -6.627592E+02 -1.737037E+03
       437  22 -8.185298E+05  1.630565E+02 -1.007433E+03  1.655432E+04 -1.749355E+02  1.387411E+03
       437  23 -8.183346E+05  6.566218E+01 -1.294391E+03  2.239906E+03 -8.108776E+02 -1.785137E+02
       437  24 -8.185301E+05  3.816926E+01 -2.048006E+03  1.655487E+04 -1.446845E+03 -1.740605E+03
       437  25 -8.513008E+05 -7.946608E+03 -8.752401E+03  1.646555E+04 -9.628590E+02  1.383817E+03
       437  26 -8.127863E+05  1.442738E+03  3.663224E+01  2.267626E+03 -1.596890E+03 -1.820922E+02
       437  27 -7.746612E+05  1.090208E+04  8.360119E+03  1.669907E+04 -2.230987E+03 -1.744174E+03
       438   1 -9.141007E+05 -2.348462E+04 -2.561480E+04  1.597791E+04  1.060906E+03  2.655738E+03
       438   2 -9.517117E+05 -3.289919E+04 -3.639171E+04  1.876703E+03  3.268869E+03  4.221044E+03
       438   3 -9.902544E+05 -4.370973E+04 -4.902047E+04  1.622431E+04  5.477427E+03  5.726223E+03
       438   4 -8.186512E+05  2.310896E+02 -2.598293E+03  1.651237E+04  1.859262E+03  2.659333E+03
       438   5 -8.181895E+05  2.405228E+02 -4.357818E+03  2.291219E+03  4.037367E+03  4.224400E+03
       438   6 -8.186548E+05 -1.140324E+03 -7.947856E+03  1.651850E+04  6.216201E+03  5.729349E+03
       438   7 -7.231935E+05  2.394614E+04  2.041757E+04  1.704691E+04  2.657741E+03  2.662930E+03
       438   8 -6.846509E+05  3.337894E+04  2.767481E+04  2.705806E+03  4.806030E+03  4.227756E+03
       438   9 -6.470281E+05  4.142694E+04  3.312268E+04  1.681275E+04  6.955178E+03  5.732475E+03
       438  10 -9.141007E+05 -2.348463E+04 -2.561482E+04  1.597790E+04  2.694491E-09  1.556267E-09
       438  11 -9.517117E+05 -3.289922E+04 -3.639176E+04  1.876692E+03 -6.680779E-09 -1.421620E-08
       438  12 -9.902545E+05 -4.370977E+04 -4.902059E+04  1.622428E+04 -7.815873E-09  3.811732E-09
       438  13 -8.186513E+05  2.310811E+02 -2.598313E+03  1.651237E+04 -2.476284E-10 -4.744496E-10
       438  14 -8.181895E+05  2.404993E+02 -4.357883E+03  2.291205E+03 -1.435834E-09  9.060968E-09
       438  15 -8.186548E+05 -1.140370E+03 -7.947990E+03  1.651847E+04 -8.627138E-10  1.359476E-08
       438  16 -7.231935E+05  2.394613E+04  2.041754E+04  1.704690E+04 -5.390658E-09  9.086241E-09
       438  17 -6.846509E+05  3.337892E+04  2.767473E+04  2.705790E+03  8.438926E-09 -4.838388E-09
       438  18 -6.470281E+05  4.142690E+04  3.312253E+04  1.681272E+04  8.789752E-09  1.565847E-08
       438  19 -9.141007E+05 -2.348462E+04 -2.561480E+04  1.597791E+04 -1.060906E+03 -2.655738E+03
       438  20 -9.517117E+05 -3.289919E+04 -3.639171E+04  1.876703E+03 -3.268869E+03 -4.221044E+03
       438  21 -9.902544E+05 -4.370973E+04 -4.902047E+04  1.622431E+04 -5.477427E+03 -5.726223E+03
       438  22 -8.186512E+05  2.310896E+02 -2.598293E+03  1.651237E+04 -1.859262E+03 -2.659333E+03
       438  23 -8.181895E+05  2.405228E+02 -4.357818E+03  2.291219E+03 -4.037367E+03 -4.224400E+03
       438  24 -8.186548E+05 -1.140324E+03 -7.947856E+03  1.651850E+04 -6.216201E+03 -5.729349E+03
       438  25 -7.231935E+05  2.394614E+04  2.041757E+04  1.704691E+04 -2.657741E+03 -2.662930E+03
       438  26 -6.846509E+05  3.337894E+04  2.767481E+04  2.705806E+03 -4.806030E+03 -4.227756E+03
       438  27 -6.470281E+05  4.142694E+04  3.312268E+04  1.681275E+04 -6.955178E+03 -5.732475E+03
       439   1 -1.042140E+06 -5.448485E+04 -6.364025E+04  1.390468E+04  6.869521E+03  6.728868E+03
       439   2 -1.076935E+06 -6.263517E+04 -7.939733E+04  2.517259E+03  1.595397E+04  8.274155E+03
       439   3 -1.116970E+06 -8.615676E+04 -1.049654E+05  1.908641E+04  2.504147E+04  9.103768E+03
       439   4 -8.196040E+05  7.906042E+02 -1.014135E+04  1.638830E+04  7.809937E+03  6.732779E+03
       439   5 -8.170210E+05  1.868803E+03 -1.704338E+04  2.436943E+03  1.653742E+04  8.276319E+03
       439   6 -8.196157E+05 -1.235835E+04 -3.350498E+04  1.644157E+04  2.526850E+04  9.104246E+03
       439   7 -5.970223E+05  5.606246E+04  4.335403E+04  1.887277E+04  8.750688E+03  6.736696E+03
       439   8 -5.570454E+05  6.636787E+04  4.530578E+04  2.356528E+03  1.712111E+04  8.278482E+03
       439   9 -5.221803E+05  6.143365E+04  3.794912E+04  1.379538E+04  2.549563E+04  9.104722E+03
       439  10 -1.042140E+06 -5.448491E+04 -6.364043E+04  1.390464E+04  1.825462E-08  1.333382E-09
       439  11 -1.076935E+06 -6.263532E+04 -7.939794E+04  2.517153E+03  3.731384E-09  7.128076E-09
       439  12 -1.116971E+06 -8.615702E+04 -1.049667E+05  1.908623E+04 -2.048099E-09 -5.722353E-09
       439  13 -8.196040E+05  7.905391E+02 -1.014155E+04  1.638826E+04 -5.038324E-10 -7.608796E-09
       439  14 -8.170213E+05  1.868656E+03 -1.704402E+04  2.436832E+03 -1.852191E-09  6.130643E-09
       439  15 -8.196165E+05 -1.235861E+04 -3.350634E+04  1.644139E+04 -1.443531E-10  1.966001E-09
       439  16 -5.970224E+05  5.606239E+04  4.335380E+04  1.887272E+04 -2.079870E-08  1.472521E-10
       439  17 -5.570458E+05  6.636771E+04  4.530510E+04  2.356414E+03 -2.658478E-09 -2.214190E-08
       439  18 -5.221811E+05  6.143339E+04  3.794774E+04  1.379520E+04  4.012814E-09  3.578830E-09
       439  19 -1.042140E+06 -5.448485E+04 -6.364025E+04  1.390468E+04 -6.869521E+03 -6.728868E+03
       439  20 -1.076935E+06 -6.263517E+04 -7.939733E+04  2.517259E+03 -1.595397E+04 -8.274155E+03
       439  21 -1.116970E+06 -8.615676E+04 -1.049654E+05  1.908641E+04 -2.504147E+04 -9.103768E+03
       439  22 -8.196040E+05  7.906042E+02 -1.014135E+04  1.638830E+04 -7.809937E+03 -6.732779E+03
       439  23 -8.170210E+05  1.868803E+03 -1.704338E+04  2.436943E+03 -1.653742E+04 -8.276319E+03
       439  24 -8.196157E+05 -1.235835E+04 -3.350498E+04  1.644157E+04 -2.526850E+04 -9.104246E+03
       439  25 -5.970223E+05  5.606246E+04  4.335403E+04  1.887277E+04 -8.750688E+03 -6.736696E+03
       439  26 -5.570454E+05  6.636787E+04  4.530578E+04  2.356528E+03 -1.712111E+04 -8.278482E+03
       439  27 -5.221803E+05  6.143365E+04  3.794912E+04  1.379538E+04 -2.549563E+04 -9.104722E+03
       440   1 -1.174647E+06 -8.003665E+04 -1.242654E+05 -6.246750E+02  2.867475E+04  1.131217E+04
       440   2 -1.190136E+06 -7.797645E+04 -1.574822E+05  1.247931E+04  6.882192E+04  1.261721E+04
       440   3 -1.247778E+06 -2.231767E+05 -2.537057E+05  5.277785E+04  1.089989E+05  4.530349E+03
       440   4 -8.276421E+05  6.234143E+03 -4.105838E+04  1.609870E+04  3.162973E+04  1.132394E+04
       440   5 -8.070145E+05  1.700640E+04 -6.566720E+04  2.718703E+03  6.706831E+04  1.260912E+04
       440   6 -8.276970E+05 -1.186168E+05 -1.499826E+05  1.653502E+04  1.025395E+05  4.501521E+03
       440   7 -4.805259E+05  9.249718E+04  4.214027E+04  3.283138E+04  3.458635E+04  1.133588E+04
       440   8 -4.237577E+05  1.119790E+05  2.613751E+04 -7.048088E+03  6.531361E+04  1.260109E+04
       440   9 -4.074521E+05 -1.406498E+04 -4.627170E+04 -1.973255E+04  9.607564E+04  4.473460E+03
       440  10 -1.174648E+06 -8.003701E+04 -1.242672E+05 -6.249364E+02  5.672128E-09 -7.308177E-09
       440  11 -1.190142E+06 -7.797790E+04 -1.574915E+05  1.247861E+04  4.839980E-09  5.751777E-09
       440  12 -1.247791E+06 -2.231799E+05 -2.537281E+05  5.277745E+04  5.540654E-09  1.318996E-08
       440  13 -8.276432E+05  6.233736E+03 -4.106051E+04  1.609841E+04  2.390445E-10  3.496714E-09
       440  14 -8.070194E+05  1.700502E+04 -6.567597E+04  2.718022E+03 -7.216861E-10  5.207639E-09
       440  15 -8.277083E+05 -1.186196E+05 -1.500024E+05  1.653464E+04 -6.020057E-10  3.824522E-09
       440  16 -4.805272E+05  9.249672E+04  4.213778E+04  3.283106E+04 -7.358851E-09  1.261341E-08
       440  17 -4.237623E+05  1.119777E+05  2.612919E+04 -7.048751E+03 -4.569034E-09  8.226287E-09
       440  18 -4.074620E+05 -1.406748E+04 -4.628910E+04 -1.973289E+04 -5.009985E-09  3.220026E-09
       440  19 -1.174647E+06 -8.003665E+04 -1.242654E+05 -6.246750E+02 -2.867475E+04 -1.131217E+04
       440  20 -1.190136E+06 -7.797645E+04 -1.574822E+05  1.247931E+04 -6.882192E+04 -1.261721E+04
       440  21 -1.247778E+06 -2.231767E+05 -2.537057E+05  5.277785E+04 -1.089989E+05 -4.530349E+03
       440  22 -8.276421E+05  6.234143E+03 -4.105838E+04  1.609870E+04 -3.162973E+04 -1.132394E+04
       440  23 -8.070145E+05  1.700640E+04 -6.566720E+04  2.718703E+03 -6.706831E+04 -1.260912E+04
       440  24 -8.276970E+05 -1.186168E+05 -1.499826E+05  1.653502E+04 -1.025395E+05 -4.501521E+03
       440  25 -4.805259E+05  9.249718E+04  4.214027E+04  3.283138E+04 -3.458635E+04 -1.133588E+04
       440  26 -4.237577E+05  1.119790E+05  2.613751E+04 -7.048088E+03 -6.531361E+04 -1.260109E+04
       440  27 -4.074521E+05 -1.406498E+04 -4.627170E+04 -1.973255E+04 -9.607564E+04 -4.473460E+03
