    1C
    1UUSER                                                              
    1UDATE              11.october.2022                                 
    1UTIME              17:53:27                                        
    1UHOST                                                              
    1UPGM               CalculiX                                        
    1UVERSION           Version 2.20                             
    1UCOMPILETIME       Sun Jul 31 18:08:37 CEST 2022                    
    1UDIR                                                               
    1UDBN                                                               
    1UMAT    1MESH_MATERIAL                                             
    2C                           382                                     1
 -1         1 0.00000E+00 0.00000E+00 0.00000E+00
 -1         3 3.33333E-02 0.00000E+00 0.00000E+00
 -1         5 6.66667E-02 0.00000E+00 0.00000E+00
 -1         8 0.00000E+00 6.25000E-03 0.00000E+00
 -1         9 1.66667E-02 6.25000E-03 0.00000E+00
 -1        10 3.33333E-02 6.25000E-03 0.00000E+00
 -1        12 6.66667E-02 6.25000E-03 0.00000E+00
 -1        16 1.66667E-02 1.25000E-02 0.00000E+00
 -1        17 3.33333E-02 1.25000E-02 0.00000E+00
 -1        18 5.00000E-02 1.25000E-02 0.00000E+00
 -1        19 6.66667E-02 1.25000E-02 0.00000E+00
 -1        20 8.33333E-02 1.25000E-02 0.00000E+00
 -1        21 1.00000E-01 1.25000E-02 0.00000E+00
 -1        24 3.33333E-02 1.87500E-02 0.00000E+00
 -1        25 5.00000E-02 1.87500E-02 0.00000E+00
 -1        26 6.66667E-02 1.87500E-02 0.00000E+00
 -1        27 8.33333E-02 1.87500E-02 0.00000E+00
 -1        28 1.00000E-01 1.87500E-02 0.00000E+00
 -1        32 5.00000E-02 2.50000E-02 0.00000E+00
 -1        33 6.66667E-02 2.50000E-02 0.00000E+00
 -1        34 8.33333E-02 2.50000E-02 0.00000E+00
 -1        35 1.00000E-01 2.50000E-02 0.00000E+00
 -1        51 0.00000E+00 1.04167E-03 0.00000E+00
 -1        52 0.00000E+00 2.08333E-03 0.00000E+00
 -1        53 0.00000E+00 3.12500E-03 0.00000E+00
 -1        54 0.00000E+00 4.16667E-03 0.00000E+00
 -1        55 0.00000E+00 5.20833E-03 0.00000E+00
 -1        56 1.04167E-03 3.90630E-04 0.00000E+00
 -1        57 2.08333E-03 7.81250E-04 0.00000E+00
 -1        58 3.12500E-03 1.17188E-03 0.00000E+00
 -1        59 4.16667E-03 1.56250E-03 0.00000E+00
 -1        60 5.20833E-03 1.95312E-03 0.00000E+00
 -1        61 6.25000E-03 2.34375E-03 0.00000E+00
 -1        62 7.29167E-03 2.73438E-03 0.00000E+00
 -1        63 8.33333E-03 3.12500E-03 0.00000E+00
 -1        64 9.37500E-03 3.51563E-03 0.00000E+00
 -1        65 1.04167E-02 3.90625E-03 0.00000E+00
 -1        66 1.14583E-02 4.29688E-03 0.00000E+00
 -1        67 1.25000E-02 4.68750E-03 0.00000E+00
 -1        68 1.35417E-02 5.07813E-03 0.00000E+00
 -1        69 1.45833E-02 5.46875E-03 0.00000E+00
 -1        70 1.56250E-02 5.85938E-03 0.00000E+00
 -1       121 3.33333E-02 1.04167E-03 0.00000E+00
 -1       122 3.33333E-02 2.08333E-03 0.00000E+00
 -1       123 3.33333E-02 3.12500E-03 0.00000E+00
 -1       124 3.33333E-02 4.16667E-03 0.00000E+00
 -1       125 3.33333E-02 5.20833E-03 0.00000E+00
 -1       191 6.66667E-02 1.04167E-03 0.00000E+00
 -1       192 6.66667E-02 2.08333E-03 0.00000E+00
 -1       193 6.66667E-02 3.12500E-03 0.00000E+00
 -1       194 6.66667E-02 4.16667E-03 0.00000E+00
 -1       195 6.66667E-02 5.20833E-03 0.00000E+00
 -1       271 1.04167E-03 6.64063E-03 0.00000E+00
 -1       272 2.08333E-03 7.03125E-03 0.00000E+00
 -1       273 3.12500E-03 7.42188E-03 0.00000E+00
 -1       274 4.16667E-03 7.81250E-03 0.00000E+00
 -1       275 5.20833E-03 8.20313E-03 0.00000E+00
 -1       276 6.25000E-03 8.59375E-03 0.00000E+00
 -1       277 7.29167E-03 8.98438E-03 0.00000E+00
 -1       278 8.33333E-03 9.37500E-03 0.00000E+00
 -1       279 9.37500E-03 9.76562E-03 0.00000E+00
 -1       280 1.04167E-02 1.01562E-02 0.00000E+00
 -1       281 1.14583E-02 1.05469E-02 0.00000E+00
 -1       282 1.25000E-02 1.09375E-02 0.00000E+00
 -1       283 1.35417E-02 1.13281E-02 0.00000E+00
 -1       284 1.45833E-02 1.17188E-02 0.00000E+00
 -1       285 1.56250E-02 1.21094E-02 0.00000E+00
 -1       301 1.66667E-02 7.29167E-03 0.00000E+00
 -1       302 1.66667E-02 8.33333E-03 0.00000E+00
 -1       303 1.66667E-02 9.37500E-03 0.00000E+00
 -1       304 1.66667E-02 1.04167E-02 0.00000E+00
 -1       305 1.66667E-02 1.14583E-02 0.00000E+00
 -1       306 1.77083E-02 6.64063E-03 0.00000E+00
 -1       307 1.87500E-02 7.03125E-03 0.00000E+00
 -1       308 1.97917E-02 7.42188E-03 0.00000E+00
 -1       309 2.08333E-02 7.81250E-03 0.00000E+00
 -1       310 2.18750E-02 8.20313E-03 0.00000E+00
 -1       311 2.29167E-02 8.59375E-03 0.00000E+00
 -1       312 2.39583E-02 8.98438E-03 0.00000E+00
 -1       313 2.50000E-02 9.37500E-03 0.00000E+00
 -1       314 2.60417E-02 9.76562E-03 0.00000E+00
 -1       315 2.70833E-02 1.01562E-02 0.00000E+00
 -1       316 2.81250E-02 1.05469E-02 0.00000E+00
 -1       317 2.91667E-02 1.09375E-02 0.00000E+00
 -1       318 3.02083E-02 1.13281E-02 0.00000E+00
 -1       319 3.12500E-02 1.17188E-02 0.00000E+00
 -1       320 3.22917E-02 1.21094E-02 0.00000E+00
 -1       336 3.33333E-02 7.29167E-03 0.00000E+00
 -1       337 3.33333E-02 8.33333E-03 0.00000E+00
 -1       338 3.33333E-02 9.37500E-03 0.00000E+00
 -1       339 3.33333E-02 1.04167E-02 0.00000E+00
 -1       340 3.33333E-02 1.14583E-02 0.00000E+00
 -1       406 6.66667E-02 7.29167E-03 0.00000E+00
 -1       407 6.66667E-02 8.33333E-03 0.00000E+00
 -1       408 6.66667E-02 9.37500E-03 0.00000E+00
 -1       409 6.66667E-02 1.04167E-02 0.00000E+00
 -1       410 6.66667E-02 1.14583E-02 0.00000E+00
 -1       521 1.77083E-02 1.28906E-02 0.00000E+00
 -1       522 1.87500E-02 1.32813E-02 0.00000E+00
 -1       523 1.97917E-02 1.36719E-02 0.00000E+00
 -1       524 2.08333E-02 1.40625E-02 0.00000E+00
 -1       525 2.18750E-02 1.44531E-02 0.00000E+00
 -1       526 2.29167E-02 1.48437E-02 0.00000E+00
 -1       527 2.39583E-02 1.52344E-02 0.00000E+00
 -1       528 2.50000E-02 1.56250E-02 0.00000E+00
 -1       529 2.60417E-02 1.60156E-02 0.00000E+00
 -1       530 2.70833E-02 1.64062E-02 0.00000E+00
 -1       531 2.81250E-02 1.67969E-02 0.00000E+00
 -1       532 2.91667E-02 1.71875E-02 0.00000E+00
 -1       533 3.02083E-02 1.75781E-02 0.00000E+00
 -1       534 3.12500E-02 1.79687E-02 0.00000E+00
 -1       535 3.22917E-02 1.83594E-02 0.00000E+00
 -1       536 3.43750E-02 1.25000E-02 0.00000E+00
 -1       537 3.54167E-02 1.25000E-02 0.00000E+00
 -1       538 3.64583E-02 1.25000E-02 0.00000E+00
 -1       539 3.75000E-02 1.25000E-02 0.00000E+00
 -1       540 3.85417E-02 1.25000E-02 0.00000E+00
 -1       541 3.95833E-02 1.25000E-02 0.00000E+00
 -1       542 4.06250E-02 1.25000E-02 0.00000E+00
 -1       543 4.16667E-02 1.25000E-02 0.00000E+00
 -1       544 4.27083E-02 1.25000E-02 0.00000E+00
 -1       545 4.37500E-02 1.25000E-02 0.00000E+00
 -1       546 4.47917E-02 1.25000E-02 0.00000E+00
 -1       547 4.58333E-02 1.25000E-02 0.00000E+00
 -1       548 4.68750E-02 1.25000E-02 0.00000E+00
 -1       549 4.79167E-02 1.25000E-02 0.00000E+00
 -1       550 4.89583E-02 1.25000E-02 0.00000E+00
 -1       551 3.33333E-02 1.35417E-02 0.00000E+00
 -1       552 3.33333E-02 1.45833E-02 0.00000E+00
 -1       553 3.33333E-02 1.56250E-02 0.00000E+00
 -1       554 3.33333E-02 1.66667E-02 0.00000E+00
 -1       555 3.33333E-02 1.77083E-02 0.00000E+00
 -1       556 3.43750E-02 1.28906E-02 0.00000E+00
 -1       557 3.54167E-02 1.32813E-02 0.00000E+00
 -1       558 3.64583E-02 1.36719E-02 0.00000E+00
 -1       559 3.75000E-02 1.40625E-02 0.00000E+00
 -1       560 3.85417E-02 1.44531E-02 0.00000E+00
 -1       561 3.95833E-02 1.48437E-02 0.00000E+00
 -1       562 4.06250E-02 1.52344E-02 0.00000E+00
 -1       563 4.16667E-02 1.56250E-02 0.00000E+00
 -1       564 4.27083E-02 1.60156E-02 0.00000E+00
 -1       565 4.37500E-02 1.64062E-02 0.00000E+00
 -1       566 4.47917E-02 1.67969E-02 0.00000E+00
 -1       567 4.58333E-02 1.71875E-02 0.00000E+00
 -1       568 4.68750E-02 1.75781E-02 0.00000E+00
 -1       569 4.79167E-02 1.79687E-02 0.00000E+00
 -1       570 4.89583E-02 1.83594E-02 0.00000E+00
 -1       571 5.10417E-02 1.25000E-02 0.00000E+00
 -1       572 5.20833E-02 1.25000E-02 0.00000E+00
 -1       573 5.31250E-02 1.25000E-02 0.00000E+00
 -1       574 5.41667E-02 1.25000E-02 0.00000E+00
 -1       575 5.52083E-02 1.25000E-02 0.00000E+00
 -1       576 5.62500E-02 1.25000E-02 0.00000E+00
 -1       577 5.72917E-02 1.25000E-02 0.00000E+00
 -1       578 5.83333E-02 1.25000E-02 0.00000E+00
 -1       579 5.93750E-02 1.25000E-02 0.00000E+00
 -1       580 6.04167E-02 1.25000E-02 0.00000E+00
 -1       581 6.14583E-02 1.25000E-02 0.00000E+00
 -1       582 6.25000E-02 1.25000E-02 0.00000E+00
 -1       583 6.35417E-02 1.25000E-02 0.00000E+00
 -1       584 6.45833E-02 1.25000E-02 0.00000E+00
 -1       585 6.56250E-02 1.25000E-02 0.00000E+00
 -1       586 5.00000E-02 1.35417E-02 0.00000E+00
 -1       587 5.00000E-02 1.45833E-02 0.00000E+00
 -1       588 5.00000E-02 1.56250E-02 0.00000E+00
 -1       589 5.00000E-02 1.66667E-02 0.00000E+00
 -1       590 5.00000E-02 1.77083E-02 0.00000E+00
 -1       591 5.10417E-02 1.28906E-02 0.00000E+00
 -1       592 5.20833E-02 1.32813E-02 0.00000E+00
 -1       593 5.31250E-02 1.36719E-02 0.00000E+00
 -1       594 5.41667E-02 1.40625E-02 0.00000E+00
 -1       595 5.52083E-02 1.44531E-02 0.00000E+00
 -1       596 5.62500E-02 1.48437E-02 0.00000E+00
 -1       597 5.72917E-02 1.52344E-02 0.00000E+00
 -1       598 5.83333E-02 1.56250E-02 0.00000E+00
 -1       599 5.93750E-02 1.60156E-02 0.00000E+00
 -1       600 6.04167E-02 1.64062E-02 0.00000E+00
 -1       601 6.14583E-02 1.67969E-02 0.00000E+00
 -1       602 6.25000E-02 1.71875E-02 0.00000E+00
 -1       603 6.35417E-02 1.75781E-02 0.00000E+00
 -1       604 6.45833E-02 1.79687E-02 0.00000E+00
 -1       605 6.56250E-02 1.83594E-02 0.00000E+00
 -1       606 6.77083E-02 1.25000E-02 0.00000E+00
 -1       607 6.87500E-02 1.25000E-02 0.00000E+00
 -1       608 6.97917E-02 1.25000E-02 0.00000E+00
 -1       609 7.08333E-02 1.25000E-02 0.00000E+00
 -1       610 7.18750E-02 1.25000E-02 0.00000E+00
 -1       611 7.29167E-02 1.25000E-02 0.00000E+00
 -1       612 7.39583E-02 1.25000E-02 0.00000E+00
 -1       613 7.50000E-02 1.25000E-02 0.00000E+00
 -1       614 7.60417E-02 1.25000E-02 0.00000E+00
 -1       615 7.70833E-02 1.25000E-02 0.00000E+00
 -1       616 7.81250E-02 1.25000E-02 0.00000E+00
 -1       617 7.91667E-02 1.25000E-02 0.00000E+00
 -1       618 8.02083E-02 1.25000E-02 0.00000E+00
 -1       619 8.12500E-02 1.25000E-02 0.00000E+00
 -1       620 8.22917E-02 1.25000E-02 0.00000E+00
 -1       621 6.66667E-02 1.35417E-02 0.00000E+00
 -1       622 6.66667E-02 1.45833E-02 0.00000E+00
 -1       623 6.66667E-02 1.56250E-02 0.00000E+00
 -1       624 6.66667E-02 1.66667E-02 0.00000E+00
 -1       625 6.66667E-02 1.77083E-02 0.00000E+00
 -1       626 6.77083E-02 1.28906E-02 0.00000E+00
 -1       627 6.87500E-02 1.32813E-02 0.00000E+00
 -1       628 6.97917E-02 1.36719E-02 0.00000E+00
 -1       629 7.08333E-02 1.40625E-02 0.00000E+00
 -1       630 7.18750E-02 1.44531E-02 0.00000E+00
 -1       631 7.29167E-02 1.48437E-02 0.00000E+00
 -1       632 7.39583E-02 1.52344E-02 0.00000E+00
 -1       633 7.50000E-02 1.56250E-02 0.00000E+00
 -1       634 7.60417E-02 1.60156E-02 0.00000E+00
 -1       635 7.70833E-02 1.64062E-02 0.00000E+00
 -1       636 7.81250E-02 1.67969E-02 0.00000E+00
 -1       637 7.91667E-02 1.71875E-02 0.00000E+00
 -1       638 8.02083E-02 1.75781E-02 0.00000E+00
 -1       639 8.12500E-02 1.79687E-02 0.00000E+00
 -1       640 8.22917E-02 1.83594E-02 0.00000E+00
 -1       656 8.33333E-02 1.35417E-02 0.00000E+00
 -1       657 8.33333E-02 1.45833E-02 0.00000E+00
 -1       658 8.33333E-02 1.56250E-02 0.00000E+00
 -1       659 8.33333E-02 1.66667E-02 0.00000E+00
 -1       660 8.33333E-02 1.77083E-02 0.00000E+00
 -1       661 8.43750E-02 1.28906E-02 0.00000E+00
 -1       662 8.54167E-02 1.32813E-02 0.00000E+00
 -1       663 8.64583E-02 1.36719E-02 0.00000E+00
 -1       664 8.75000E-02 1.40625E-02 0.00000E+00
 -1       665 8.85417E-02 1.44531E-02 0.00000E+00
 -1       666 8.95833E-02 1.48437E-02 0.00000E+00
 -1       667 9.06250E-02 1.52344E-02 0.00000E+00
 -1       668 9.16667E-02 1.56250E-02 0.00000E+00
 -1       669 9.27083E-02 1.60156E-02 0.00000E+00
 -1       670 9.37500E-02 1.64062E-02 0.00000E+00
 -1       671 9.47917E-02 1.67969E-02 0.00000E+00
 -1       672 9.58333E-02 1.71875E-02 0.00000E+00
 -1       673 9.68750E-02 1.75781E-02 0.00000E+00
 -1       674 9.79167E-02 1.79687E-02 0.00000E+00
 -1       675 9.89583E-02 1.83594E-02 0.00000E+00
 -1       676 1.00000E-01 1.35417E-02 0.00000E+00
 -1       677 1.00000E-01 1.45833E-02 0.00000E+00
 -1       678 1.00000E-01 1.56250E-02 0.00000E+00
 -1       679 1.00000E-01 1.66667E-02 0.00000E+00
 -1       680 1.00000E-01 1.77083E-02 0.00000E+00
 -1       771 3.43750E-02 1.91406E-02 0.00000E+00
 -1       772 3.54167E-02 1.95312E-02 0.00000E+00
 -1       773 3.64583E-02 1.99219E-02 0.00000E+00
 -1       774 3.75000E-02 2.03125E-02 0.00000E+00
 -1       775 3.85417E-02 2.07031E-02 0.00000E+00
 -1       776 3.95833E-02 2.10938E-02 0.00000E+00
 -1       777 4.06250E-02 2.14844E-02 0.00000E+00
 -1       778 4.16667E-02 2.18750E-02 0.00000E+00
 -1       779 4.27083E-02 2.22656E-02 0.00000E+00
 -1       780 4.37500E-02 2.26563E-02 0.00000E+00
 -1       781 4.47917E-02 2.30469E-02 0.00000E+00
 -1       782 4.58333E-02 2.34375E-02 0.00000E+00
 -1       783 4.68750E-02 2.38281E-02 0.00000E+00
 -1       784 4.79167E-02 2.42187E-02 0.00000E+00
 -1       785 4.89583E-02 2.46094E-02 0.00000E+00
 -1       786 5.10417E-02 1.87500E-02 0.00000E+00
 -1       787 5.20833E-02 1.87500E-02 0.00000E+00
 -1       788 5.31250E-02 1.87500E-02 0.00000E+00
 -1       789 5.41667E-02 1.87500E-02 0.00000E+00
 -1       790 5.52083E-02 1.87500E-02 0.00000E+00
 -1       791 5.62500E-02 1.87500E-02 0.00000E+00
 -1       792 5.72917E-02 1.87500E-02 0.00000E+00
 -1       793 5.83333E-02 1.87500E-02 0.00000E+00
 -1       794 5.93750E-02 1.87500E-02 0.00000E+00
 -1       795 6.04167E-02 1.87500E-02 0.00000E+00
 -1       796 6.14583E-02 1.87500E-02 0.00000E+00
 -1       797 6.25000E-02 1.87500E-02 0.00000E+00
 -1       798 6.35417E-02 1.87500E-02 0.00000E+00
 -1       799 6.45833E-02 1.87500E-02 0.00000E+00
 -1       800 6.56250E-02 1.87500E-02 0.00000E+00
 -1       801 5.00000E-02 1.97917E-02 0.00000E+00
 -1       802 5.00000E-02 2.08333E-02 0.00000E+00
 -1       803 5.00000E-02 2.18750E-02 0.00000E+00
 -1       804 5.00000E-02 2.29167E-02 0.00000E+00
 -1       805 5.00000E-02 2.39583E-02 0.00000E+00
 -1       806 5.10417E-02 1.91406E-02 0.00000E+00
 -1       807 5.20833E-02 1.95312E-02 0.00000E+00
 -1       808 5.31250E-02 1.99219E-02 0.00000E+00
 -1       809 5.41667E-02 2.03125E-02 0.00000E+00
 -1       810 5.52083E-02 2.07031E-02 0.00000E+00
 -1       811 5.62500E-02 2.10938E-02 0.00000E+00
 -1       812 5.72917E-02 2.14844E-02 0.00000E+00
 -1       813 5.83333E-02 2.18750E-02 0.00000E+00
 -1       814 5.93750E-02 2.22656E-02 0.00000E+00
 -1       815 6.04167E-02 2.26563E-02 0.00000E+00
 -1       816 6.14583E-02 2.30469E-02 0.00000E+00
 -1       817 6.25000E-02 2.34375E-02 0.00000E+00
 -1       818 6.35417E-02 2.38281E-02 0.00000E+00
 -1       819 6.45833E-02 2.42187E-02 0.00000E+00
 -1       820 6.56250E-02 2.46094E-02 0.00000E+00
 -1       821 6.77083E-02 1.87500E-02 0.00000E+00
 -1       822 6.87500E-02 1.87500E-02 0.00000E+00
 -1       823 6.97917E-02 1.87500E-02 0.00000E+00
 -1       824 7.08333E-02 1.87500E-02 0.00000E+00
 -1       825 7.18750E-02 1.87500E-02 0.00000E+00
 -1       826 7.29167E-02 1.87500E-02 0.00000E+00
 -1       827 7.39583E-02 1.87500E-02 0.00000E+00
 -1       828 7.50000E-02 1.87500E-02 0.00000E+00
 -1       829 7.60417E-02 1.87500E-02 0.00000E+00
 -1       830 7.70833E-02 1.87500E-02 0.00000E+00
 -1       831 7.81250E-02 1.87500E-02 0.00000E+00
 -1       832 7.91667E-02 1.87500E-02 0.00000E+00
 -1       833 8.02083E-02 1.87500E-02 0.00000E+00
 -1       834 8.12500E-02 1.87500E-02 0.00000E+00
 -1       835 8.22917E-02 1.87500E-02 0.00000E+00
 -1       836 6.66667E-02 1.97917E-02 0.00000E+00
 -1       837 6.66667E-02 2.08333E-02 0.00000E+00
 -1       838 6.66667E-02 2.18750E-02 0.00000E+00
 -1       839 6.66667E-02 2.29167E-02 0.00000E+00
 -1       840 6.66667E-02 2.39583E-02 0.00000E+00
 -1       856 8.43750E-02 1.87500E-02 0.00000E+00
 -1       857 8.54167E-02 1.87500E-02 0.00000E+00
 -1       858 8.64583E-02 1.87500E-02 0.00000E+00
 -1       859 8.75000E-02 1.87500E-02 0.00000E+00
 -1       860 8.85417E-02 1.87500E-02 0.00000E+00
 -1       861 8.95833E-02 1.87500E-02 0.00000E+00
 -1       862 9.06250E-02 1.87500E-02 0.00000E+00
 -1       863 9.16667E-02 1.87500E-02 0.00000E+00
 -1       864 9.27083E-02 1.87500E-02 0.00000E+00
 -1       865 9.37500E-02 1.87500E-02 0.00000E+00
 -1       866 9.47917E-02 1.87500E-02 0.00000E+00
 -1       867 9.58333E-02 1.87500E-02 0.00000E+00
 -1       868 9.68750E-02 1.87500E-02 0.00000E+00
 -1       869 9.79167E-02 1.87500E-02 0.00000E+00
 -1       870 9.89583E-02 1.87500E-02 0.00000E+00
 -1       871 8.33333E-02 1.97917E-02 0.00000E+00
 -1       872 8.33333E-02 2.08333E-02 0.00000E+00
 -1       873 8.33333E-02 2.18750E-02 0.00000E+00
 -1       874 8.33333E-02 2.29167E-02 0.00000E+00
 -1       875 8.33333E-02 2.39583E-02 0.00000E+00
 -1       876 8.43750E-02 1.91406E-02 0.00000E+00
 -1       877 8.54167E-02 1.95312E-02 0.00000E+00
 -1       878 8.64583E-02 1.99219E-02 0.00000E+00
 -1       879 8.75000E-02 2.03125E-02 0.00000E+00
 -1       880 8.85417E-02 2.07031E-02 0.00000E+00
 -1       881 8.95833E-02 2.10938E-02 0.00000E+00
 -1       882 9.06250E-02 2.14844E-02 0.00000E+00
 -1       883 9.16667E-02 2.18750E-02 0.00000E+00
 -1       884 9.27083E-02 2.22656E-02 0.00000E+00
 -1       885 9.37500E-02 2.26563E-02 0.00000E+00
 -1       886 9.47917E-02 2.30469E-02 0.00000E+00
 -1       887 9.58333E-02 2.34375E-02 0.00000E+00
 -1       888 9.68750E-02 2.38281E-02 0.00000E+00
 -1       889 9.79167E-02 2.42187E-02 0.00000E+00
 -1       890 9.89583E-02 2.46094E-02 0.00000E+00
 -1       891 1.00000E-01 1.97917E-02 0.00000E+00
 -1       892 1.00000E-01 2.08333E-02 0.00000E+00
 -1       893 1.00000E-01 2.18750E-02 0.00000E+00
 -1       894 1.00000E-01 2.29167E-02 0.00000E+00
 -1       895 1.00000E-01 2.39583E-02 0.00000E+00
 -1       956 6.77083E-02 2.50000E-02 0.00000E+00
 -1       957 6.87500E-02 2.50000E-02 0.00000E+00
 -1       958 6.97917E-02 2.50000E-02 0.00000E+00
 -1       959 7.08333E-02 2.50000E-02 0.00000E+00
 -1       960 7.18750E-02 2.50000E-02 0.00000E+00
 -1       961 7.29167E-02 2.50000E-02 0.00000E+00
 -1       962 7.39583E-02 2.50000E-02 0.00000E+00
 -1       963 7.50000E-02 2.50000E-02 0.00000E+00
 -1       964 7.60417E-02 2.50000E-02 0.00000E+00
 -1       965 7.70833E-02 2.50000E-02 0.00000E+00
 -1       966 7.81250E-02 2.50000E-02 0.00000E+00
 -1       967 7.91667E-02 2.50000E-02 0.00000E+00
 -1       968 8.02083E-02 2.50000E-02 0.00000E+00
 -1       969 8.12500E-02 2.50000E-02 0.00000E+00
 -1       970 8.22917E-02 2.50000E-02 0.00000E+00
 -1       971 8.43750E-02 2.50000E-02 0.00000E+00
 -1       972 8.54167E-02 2.50000E-02 0.00000E+00
 -1       973 8.64583E-02 2.50000E-02 0.00000E+00
 -1       974 8.75000E-02 2.50000E-02 0.00000E+00
 -1       975 8.85417E-02 2.50000E-02 0.00000E+00
 -1       976 8.95833E-02 2.50000E-02 0.00000E+00
 -1       977 9.06250E-02 2.50000E-02 0.00000E+00
 -1       978 9.16667E-02 2.50000E-02 0.00000E+00
 -1       979 9.27083E-02 2.50000E-02 0.00000E+00
 -1       980 9.37500E-02 2.50000E-02 0.00000E+00
 -1       981 9.47917E-02 2.50000E-02 0.00000E+00
 -1       982 9.58333E-02 2.50000E-02 0.00000E+00
 -1       983 9.68750E-02 2.50000E-02 0.00000E+00
 -1       984 9.79167E-02 2.50000E-02 0.00000E+00
 -1       985 9.89583E-02 2.50000E-02 0.00000E+00
 -3
    3C                           197                                     1
 -1         1   12    0    1
 -2         1        52        51
 -1         2   12    0    1
 -2        52        54        53
 -1         3   12    0    1
 -2        54         8        55
 -1         4   12    0    1
 -2         1        57        56
 -1         5   12    0    1
 -2        57        59        58
 -1         6   12    0    1
 -2        59        61        60
 -1         7   12    0    1
 -2        61        63        62
 -1         8   12    0    1
 -2        63        65        64
 -1         9   12    0    1
 -2        65        67        66
 -1        10   12    0    1
 -2        67        69        68
 -1        11   12    0    1
 -2        69         9        70
 -1        12   12    0    1
 -2         3       122       121
 -1        13   12    0    1
 -2       122       124       123
 -1        14   12    0    1
 -2       124        10       125
 -1        15   12    0    1
 -2         5       192       191
 -1        16   12    0    1
 -2       192       194       193
 -1        17   12    0    1
 -2       194        12       195
 -1        18   12    0    1
 -2         8       272       271
 -1        19   12    0    1
 -2       272       274       273
 -1        20   12    0    1
 -2       274       276       275
 -1        21   12    0    1
 -2       276       278       277
 -1        22   12    0    1
 -2       278       280       279
 -1        23   12    0    1
 -2       280       282       281
 -1        24   12    0    1
 -2       282       284       283
 -1        25   12    0    1
 -2       284        16       285
 -1        26   12    0    1
 -2         9       302       301
 -1        27   12    0    1
 -2       302       304       303
 -1        28   12    0    1
 -2       304        16       305
 -1        29   12    0    1
 -2         9       307       306
 -1        30   12    0    1
 -2       307       309       308
 -1        31   12    0    1
 -2       309       311       310
 -1        32   12    0    1
 -2       311       313       312
 -1        33   12    0    1
 -2       313       315       314
 -1        34   12    0    1
 -2       315       317       316
 -1        35   12    0    1
 -2       317       319       318
 -1        36   12    0    1
 -2       319        17       320
 -1        37   12    0    1
 -2        10       337       336
 -1        38   12    0    1
 -2       337       339       338
 -1        39   12    0    1
 -2       339        17       340
 -1        40   12    0    1
 -2        12       407       406
 -1        41   12    0    1
 -2       407       409       408
 -1        42   12    0    1
 -2       409        19       410
 -1        43   12    0    1
 -2        16       522       521
 -1        44   12    0    1
 -2       522       524       523
 -1        45   12    0    1
 -2       524       526       525
 -1        46   12    0    1
 -2       526       528       527
 -1        47   12    0    1
 -2       528       530       529
 -1        48   12    0    1
 -2       530       532       531
 -1        49   12    0    1
 -2       532       534       533
 -1        50   12    0    1
 -2       534        24       535
 -1        51   12    0    1
 -2        17       537       536
 -1        52   12    0    1
 -2       537       539       538
 -1        53   12    0    1
 -2       539       541       540
 -1        54   12    0    1
 -2       541       543       542
 -1        55   12    0    1
 -2       543       545       544
 -1        56   12    0    1
 -2       545       547       546
 -1        57   12    0    1
 -2       547       549       548
 -1        58   12    0    1
 -2       549        18       550
 -1        59   12    0    1
 -2        17       552       551
 -1        60   12    0    1
 -2       552       554       553
 -1        61   12    0    1
 -2       554        24       555
 -1        62   12    0    1
 -2        17       557       556
 -1        63   12    0    1
 -2       557       559       558
 -1        64   12    0    1
 -2       559       561       560
 -1        65   12    0    1
 -2       561       563       562
 -1        66   12    0    1
 -2       563       565       564
 -1        67   12    0    1
 -2       565       567       566
 -1        68   12    0    1
 -2       567       569       568
 -1        69   12    0    1
 -2       569        25       570
 -1        70   12    0    1
 -2        18       572       571
 -1        71   12    0    1
 -2       572       574       573
 -1        72   12    0    1
 -2       574       576       575
 -1        73   12    0    1
 -2       576       578       577
 -1        74   12    0    1
 -2       578       580       579
 -1        75   12    0    1
 -2       580       582       581
 -1        76   12    0    1
 -2       582       584       583
 -1        77   12    0    1
 -2       584        19       585
 -1        78   12    0    1
 -2        18       587       586
 -1        79   12    0    1
 -2       587       589       588
 -1        80   12    0    1
 -2       589        25       590
 -1        81   12    0    1
 -2        18       592       591
 -1        82   12    0    1
 -2       592       594       593
 -1        83   12    0    1
 -2       594       596       595
 -1        84   12    0    1
 -2       596       598       597
 -1        85   12    0    1
 -2       598       600       599
 -1        86   12    0    1
 -2       600       602       601
 -1        87   12    0    1
 -2       602       604       603
 -1        88   12    0    1
 -2       604        26       605
 -1        89   12    0    1
 -2        19       607       606
 -1        90   12    0    1
 -2       607       609       608
 -1        91   12    0    1
 -2       609       611       610
 -1        92   12    0    1
 -2       611       613       612
 -1        93   12    0    1
 -2       613       615       614
 -1        94   12    0    1
 -2       615       617       616
 -1        95   12    0    1
 -2       617       619       618
 -1        96   12    0    1
 -2       619        20       620
 -1        97   12    0    1
 -2        19       622       621
 -1        98   12    0    1
 -2       622       624       623
 -1        99   12    0    1
 -2       624        26       625
 -1       100   12    0    1
 -2        19       627       626
 -1       101   12    0    1
 -2       627       629       628
 -1       102   12    0    1
 -2       629       631       630
 -1       103   12    0    1
 -2       631       633       632
 -1       104   12    0    1
 -2       633       635       634
 -1       105   12    0    1
 -2       635       637       636
 -1       106   12    0    1
 -2       637       639       638
 -1       107   12    0    1
 -2       639        27       640
 -1       108   12    0    1
 -2        20       657       656
 -1       109   12    0    1
 -2       657       659       658
 -1       110   12    0    1
 -2       659        27       660
 -1       111   12    0    1
 -2        20       662       661
 -1       112   12    0    1
 -2       662       664       663
 -1       113   12    0    1
 -2       664       666       665
 -1       114   12    0    1
 -2       666       668       667
 -1       115   12    0    1
 -2       668       670       669
 -1       116   12    0    1
 -2       670       672       671
 -1       117   12    0    1
 -2       672       674       673
 -1       118   12    0    1
 -2       674        28       675
 -1       119   12    0    1
 -2        21       677       676
 -1       120   12    0    1
 -2       677       679       678
 -1       121   12    0    1
 -2       679        28       680
 -1       122   12    0    1
 -2        24       772       771
 -1       123   12    0    1
 -2       772       774       773
 -1       124   12    0    1
 -2       774       776       775
 -1       125   12    0    1
 -2       776       778       777
 -1       126   12    0    1
 -2       778       780       779
 -1       127   12    0    1
 -2       780       782       781
 -1       128   12    0    1
 -2       782       784       783
 -1       129   12    0    1
 -2       784        32       785
 -1       130   12    0    1
 -2        25       787       786
 -1       131   12    0    1
 -2       787       789       788
 -1       132   12    0    1
 -2       789       791       790
 -1       133   12    0    1
 -2       791       793       792
 -1       134   12    0    1
 -2       793       795       794
 -1       135   12    0    1
 -2       795       797       796
 -1       136   12    0    1
 -2       797       799       798
 -1       137   12    0    1
 -2       799        26       800
 -1       138   12    0    1
 -2        25       802       801
 -1       139   12    0    1
 -2       802       804       803
 -1       140   12    0    1
 -2       804        32       805
 -1       141   12    0    1
 -2        25       807       806
 -1       142   12    0    1
 -2       807       809       808
 -1       143   12    0    1
 -2       809       811       810
 -1       144   12    0    1
 -2       811       813       812
 -1       145   12    0    1
 -2       813       815       814
 -1       146   12    0    1
 -2       815       817       816
 -1       147   12    0    1
 -2       817       819       818
 -1       148   12    0    1
 -2       819        33       820
 -1       149   12    0    1
 -2        26       822       821
 -1       150   12    0    1
 -2       822       824       823
 -1       151   12    0    1
 -2       824       826       825
 -1       152   12    0    1
 -2       826       828       827
 -1       153   12    0    1
 -2       828       830       829
 -1       154   12    0    1
 -2       830       832       831
 -1       155   12    0    1
 -2       832       834       833
 -1       156   12    0    1
 -2       834        27       835
 -1       157   12    0    1
 -2        26       837       836
 -1       158   12    0    1
 -2       837       839       838
 -1       159   12    0    1
 -2       839        33       840
 -1       160   12    0    1
 -2        27       857       856
 -1       161   12    0    1
 -2       857       859       858
 -1       162   12    0    1
 -2       859       861       860
 -1       163   12    0    1
 -2       861       863       862
 -1       164   12    0    1
 -2       863       865       864
 -1       165   12    0    1
 -2       865       867       866
 -1       166   12    0    1
 -2       867       869       868
 -1       167   12    0    1
 -2       869        28       870
 -1       168   12    0    1
 -2        27       872       871
 -1       169   12    0    1
 -2       872       874       873
 -1       170   12    0    1
 -2       874        34       875
 -1       171   12    0    1
 -2        27       877       876
 -1       172   12    0    1
 -2       877       879       878
 -1       173   12    0    1
 -2       879       881       880
 -1       174   12    0    1
 -2       881       883       882
 -1       175   12    0    1
 -2       883       885       884
 -1       176   12    0    1
 -2       885       887       886
 -1       177   12    0    1
 -2       887       889       888
 -1       178   12    0    1
 -2       889        35       890
 -1       179   12    0    1
 -2        28       892       891
 -1       180   12    0    1
 -2       892       894       893
 -1       181   12    0    1
 -2       894        35       895
 -1       182   12    0    1
 -2        33       957       956
 -1       183   12    0    1
 -2       957       959       958
 -1       184   12    0    1
 -2       959       961       960
 -1       185   12    0    1
 -2       961       963       962
 -1       186   12    0    1
 -2       963       965       964
 -1       187   12    0    1
 -2       965       967       966
 -1       188   12    0    1
 -2       967       969       968
 -1       189   12    0    1
 -2       969        34       970
 -1       190   12    0    1
 -2        34       972       971
 -1       191   12    0    1
 -2       972       974       973
 -1       192   12    0    1
 -2       974       976       975
 -1       193   12    0    1
 -2       976       978       977
 -1       194   12    0    1
 -2       978       980       979
 -1       195   12    0    1
 -2       980       982       981
 -1       196   12    0    1
 -2       982       984       983
 -1       197   12    0    1
 -2       984        35       985
 -3
    1PSTEP                         1           1           1          
  100CL  101 1.000000000         382                     0    1           1
 -4  DISP        4    1
 -5  D1          1    2    1    0
 -5  D2          1    2    2    0
 -5  D3          1    2    3    0
 -5  ALL         1    2    0    0    1ALL
 -1         1 1.45248E-04 0.00000E+00 0.00000E+00
 -1         3 9.05478E-05-1.22011E-26-1.32349E-23
 -1         5 6.97653E-05 4.05339E-25 0.00000E+00
 -1         8 1.15961E-04-1.47955E-06 0.00000E+00
 -1         9 9.89496E-05-3.77943E-05 0.00000E+00
 -1        10 8.33505E-05-2.76867E-06-6.61744E-24
 -1        12 6.84594E-05 1.22779E-06 0.00000E+00
 -1        16 8.36275E-05-3.79612E-05 0.00000E+00
 -1        17 6.26852E-05-5.55525E-06 0.00000E+00
 -1        18 6.24872E-05-5.63101E-07 0.00000E+00
 -1        19 6.45398E-05 2.44633E-06 0.00000E+00
 -1        20 6.53087E-05 2.77940E-05 0.00000E+00
 -1        21 6.52860E-05 6.28538E-05 6.61744E-24
 -1        24 2.50998E-05-6.86381E-06 0.00000E+00
 -1        25 5.78648E-05-2.10714E-07 0.00000E+00
 -1        26 5.95374E-05 3.26188E-06 0.00000E+00
 -1        27 5.74064E-05 2.66805E-05 0.00000E+00
 -1        28 5.54096E-05 6.17634E-05 0.00000E+00
 -1        32 0.00000E+00 0.00000E+00 0.00000E+00
 -1        33 5.39272E-05 4.58911E-06 0.00000E+00
 -1        34 5.14957E-05 2.65721E-05 0.00000E+00
 -1        35 4.80679E-05 6.12765E-05 0.00000E+00
 -1        51 1.43031E-04-2.45607E-07 0.00000E+00
 -1        52 1.39361E-04-4.84024E-07 0.00000E+00
 -1        53 1.34521E-04-7.23070E-07 0.00000E+00
 -1        54 1.28809E-04-9.65744E-07 0.00000E+00
 -1        55 1.22522E-04-1.21448E-06-4.60119E-24
 -1        56 1.41277E-04 9.38417E-07-5.29396E-23
 -1        57 1.35673E-04 5.82175E-06-5.29396E-23
 -1        58 1.29055E-04 1.33767E-05 0.00000E+00
 -1        59 1.21990E-04 2.20317E-05 5.29396E-23
 -1        60 1.15195E-04 2.99800E-05 0.00000E+00
 -1        61 1.09341E-04 3.54682E-05-5.29396E-23
 -1        62 1.04870E-04 3.73154E-05-1.05879E-22
 -1        63 1.02090E-04 3.46622E-05 5.29396E-23
 -1        64 1.00909E-04 2.77018E-05 0.00000E+00
 -1        65 1.01095E-04 1.70154E-05 5.29396E-23
 -1        66 1.02107E-04 4.06007E-06-1.05879E-22
 -1        67 1.03342E-04-9.49997E-06 0.00000E+00
 -1        68 1.04143E-04-2.18600E-05 0.00000E+00
 -1        69 1.03908E-04-3.13169E-05-5.29396E-23
 -1        70 1.02224E-04-3.68632E-05 0.00000E+00
 -1       121 9.03457E-05-4.60576E-07-1.32349E-23
 -1       122 8.97404E-05-9.21302E-07 6.61744E-24
 -1       123 8.87338E-05-1.38234E-06 0.00000E+00
 -1       124 8.73297E-05-1.84383E-06 6.61744E-24
 -1       125 8.55331E-05-2.30590E-06-1.32349E-23
 -1       191 6.97290E-05 2.04670E-07 1.32349E-23
 -1       192 6.96202E-05 4.09332E-07 0.00000E+00
 -1       193 6.94389E-05 6.13985E-07 1.32349E-23
 -1       194 6.91850E-05 8.18619E-07 0.00000E+00
 -1       195 6.88585E-05 1.02322E-06 0.00000E+00
 -1       271 1.11909E-04 1.89028E-06-5.29396E-23
 -1       272 1.08421E-04 3.52094E-06 2.64698E-23
 -1       273 1.05533E-04 3.56680E-06 0.00000E+00
 -1       274 1.03166E-04 2.18517E-06-2.64698E-23
 -1       275 1.01259E-04-4.27117E-07 0.00000E+00
 -1       276 9.97243E-05-4.04770E-06 0.00000E+00
 -1       277 9.84733E-05-8.43145E-06 1.05879E-22
 -1       278 9.74074E-05-1.33153E-05 0.00000E+00
 -1       279 9.64253E-05-1.84252E-05-1.05879E-22
 -1       280 9.54237E-05-2.34817E-05-5.29396E-23
 -1       281 9.42996E-05-2.82065E-05-1.05879E-22
 -1       282 9.29537E-05-3.23292E-05 0.00000E+00
 -1       283 9.12895E-05-3.55929E-05 5.29396E-23
 -1       284 8.92267E-05-3.77580E-05 0.00000E+00
 -1       285 8.66726E-05-3.86160E-05 5.29396E-23
 -1       301 9.63626E-05-3.78335E-05 0.00000E+00
 -1       302 9.37689E-05-3.78496E-05 3.30872E-24
 -1       303 9.11834E-05-3.78627E-05-6.61744E-24
 -1       304 8.86213E-05-3.78777E-05 0.00000E+00
 -1       305 8.60978E-05-3.78994E-05 0.00000E+00
 -1       306 9.67530E-05-3.58702E-05 2.64698E-23
 -1       307 9.46035E-05-3.41711E-05 0.00000E+00
 -1       308 9.25175E-05-3.26379E-05-5.29396E-23
 -1       309 9.04710E-05-3.12239E-05 2.64698E-23
 -1       310 8.84493E-05-2.98774E-05 5.29396E-23
 -1       311 8.64330E-05-2.85476E-05 0.00000E+00
 -1       312 8.44034E-05-2.71832E-05 5.29396E-23
 -1       313 8.23415E-05-2.57336E-05 0.00000E+00
 -1       314 8.02287E-05-2.41489E-05-5.29396E-23
 -1       315 7.80470E-05-2.23810E-05 2.64698E-23
 -1       316 7.57791E-05-2.03841E-05 0.00000E+00
 -1       317 7.34095E-05-1.81149E-05 0.00000E+00
 -1       318 7.09226E-05-1.55335E-05 0.00000E+00
 -1       319 6.83104E-05-1.26017E-05 0.00000E+00
 -1       320 6.55531E-05-9.29030E-06 0.00000E+00
 -1       336 8.07899E-05-3.23224E-06 0.00000E+00
 -1       337 7.78605E-05-3.69660E-06 0.00000E+00
 -1       338 7.45727E-05-4.16187E-06 0.00000E+00
 -1       339 7.09386E-05-4.62729E-06 0.00000E+00
 -1       340 6.69713E-05-5.09399E-06 0.00000E+00
 -1       406 6.79877E-05 1.43229E-06 0.00000E+00
 -1       407 6.74433E-05 1.63667E-06-3.30872E-24
 -1       408 6.68262E-05 1.84086E-06 6.61744E-24
 -1       409 6.61364E-05 2.04452E-06-9.92617E-24
 -1       410 6.53741E-05 2.24714E-06 0.00000E+00
 -1       521 8.02625E-05-3.65863E-05 0.00000E+00
 -1       522 7.68740E-05-3.53617E-05 0.00000E+00
 -1       523 7.35166E-05-3.42144E-05 5.29396E-23
 -1       524 7.01603E-05-3.31010E-05 0.00000E+00
 -1       525 6.67958E-05-3.19696E-05 0.00000E+00
 -1       526 6.34046E-05-3.07722E-05-5.29396E-23
 -1       527 5.99702E-05-2.94619E-05 1.05879E-22
 -1       528 5.64763E-05-2.79947E-05 5.29396E-23
 -1       529 5.29078E-05-2.63301E-05-1.05879E-22
 -1       530 4.92515E-05-2.44324E-05 0.00000E+00
 -1       531 4.54959E-05-2.22710E-05 0.00000E+00
 -1       532 4.16331E-05-1.98215E-05 0.00000E+00
 -1       533 3.76558E-05-1.70662E-05-5.29396E-23
 -1       534 3.35689E-05-1.39914E-05 0.00000E+00
 -1       535 2.93593E-05-1.05981E-05 5.29396E-23
 -1       536 6.26526E-05-1.63852E-06-6.61744E-24
 -1       537 6.26355E-05 1.34385E-06 0.00000E+00
 -1       538 6.26203E-05 3.48829E-06-1.65436E-24
 -1       539 6.26083E-05 4.89221E-06 0.00000E+00
 -1       540 6.25973E-05 5.65289E-06 0.00000E+00
 -1       541 6.25868E-05 5.86769E-06 0.00000E+00
 -1       542 6.25766E-05 5.63405E-06 0.00000E+00
 -1       543 6.25662E-05 5.04941E-06 8.27181E-25
 -1       544 6.25558E-05 4.21128E-06 0.00000E+00
 -1       545 6.25452E-05 3.21714E-06 0.00000E+00
 -1       546 6.25346E-05 2.16452E-06 2.06795E-25
 -1       547 6.25241E-05 1.15095E-06-6.46235E-26
 -1       548 6.25138E-05 2.73927E-07 0.00000E+00
 -1       549 6.25040E-05-3.69046E-07 0.00000E+00
 -1       550 6.24944E-05-6.80412E-07-8.27181E-25
 -1       551 5.70840E-05-5.76432E-06-4.13590E-24
 -1       552 5.08215E-05-5.97223E-06-8.27181E-25
 -1       553 4.41923E-05-6.18234E-06 6.61744E-24
 -1       554 3.74963E-05-6.39601E-06 6.61744E-24
 -1       555 3.10335E-05-6.61465E-06-2.64698E-23
 -1       556 6.10944E-05-1.82946E-06 0.00000E+00
 -1       557 5.98371E-05 1.03649E-06 0.00000E+00
 -1       558 5.88757E-05 3.12304E-06-1.32349E-23
 -1       559 5.81758E-05 4.51840E-06 0.00000E+00
 -1       560 5.77032E-05 5.31089E-06 0.00000E+00
 -1       561 5.74240E-05 5.58959E-06 0.00000E+00
 -1       562 5.73042E-05 5.44370E-06 0.00000E+00
 -1       563 5.73101E-05 4.96262E-06 0.00000E+00
 -1       564 5.74081E-05 4.23582E-06 0.00000E+00
 -1       565 5.75647E-05 3.35283E-06 0.00000E+00
 -1       566 5.77462E-05 2.40324E-06 3.30872E-24
 -1       567 5.79192E-05 1.47666E-06-1.65436E-24
 -1       568 5.80503E-05 6.62670E-07 2.89513E-24
 -1       569 5.81062E-05 5.07545E-08-8.27181E-25
 -1       570 5.80538E-05-2.69704E-07 0.00000E+00
 -1       571 6.26107E-05-3.08617E-07-1.65436E-24
 -1       572 6.27378E-05-1.40575E-07 8.27181E-25
 -1       573 6.28659E-05-4.31067E-08 0.00000E+00
 -1       574 6.29945E-05 4.64686E-10 0.00000E+00
 -1       575 6.31232E-05 6.88579E-09 3.30872E-24
 -1       576 6.32520E-05-6.98852E-09-1.65436E-24
 -1       577 6.33809E-05-2.42950E-08 3.30872E-24
 -1       578 6.35098E-05-2.81561E-08 0.00000E+00
 -1       579 6.36387E-05-1.69251E-09 0.00000E+00
 -1       580 6.37676E-05 7.19763E-08 0.00000E+00
 -1       581 6.38964E-05 2.09729E-07 0.00000E+00
 -1       582 6.40253E-05 4.28431E-07-3.30872E-24
 -1       583 6.41541E-05 7.44932E-07 0.00000E+00
 -1       584 6.42828E-05 1.17591E-06 0.00000E+00
 -1       585 6.44114E-05 1.73795E-06 0.00000E+00
 -1       586 6.18416E-05-5.03259E-07-3.30872E-24
 -1       587 6.10920E-05-4.43024E-07 0.00000E+00
 -1       588 6.02784E-05-3.82869E-07 0.00000E+00
 -1       589 5.94420E-05-3.23255E-07 4.13590E-25
 -1       590 5.86240E-05-2.64834E-07 0.00000E+00
 -1       591 6.22864E-05-2.60762E-07 0.00000E+00
 -1       592 6.21015E-05-1.86058E-08 0.00000E+00
 -1       593 6.19335E-05 1.75544E-07 0.00000E+00
 -1       594 6.17788E-05 3.32564E-07 0.00000E+00
 -1       595 6.16337E-05 4.63359E-07 0.00000E+00
 -1       596 6.14942E-05 5.78746E-07-1.65436E-24
 -1       597 6.13565E-05 6.89529E-07 3.30872E-24
 -1       598 6.12164E-05 8.06502E-07-1.65436E-24
 -1       599 6.10699E-05 9.40460E-07 0.00000E+00
 -1       600 6.09130E-05 1.10219E-06-1.65436E-24
 -1       601 6.07417E-05 1.30248E-06 0.00000E+00
 -1       602 6.05520E-05 1.55213E-06 8.27181E-25
 -1       603 6.03399E-05 1.86194E-06 1.65436E-24
 -1       604 6.01018E-05 2.24277E-06 8.27181E-25
 -1       605 5.98340E-05 2.70547E-06-4.13590E-25
 -1       606 6.45931E-05 3.41674E-06 0.00000E+00
 -1       607 6.46431E-05 4.50609E-06 6.61744E-24
 -1       608 6.46920E-05 5.70733E-06-6.61744E-24
 -1       609 6.47403E-05 7.01246E-06 0.00000E+00
 -1       610 6.47884E-05 8.41341E-06 0.00000E+00
 -1       611 6.48363E-05 9.90195E-06-6.61744E-24
 -1       612 6.48840E-05 1.14699E-05 0.00000E+00
 -1       613 6.49316E-05 1.31089E-05 0.00000E+00
 -1       614 6.49792E-05 1.48109E-05 3.30872E-24
 -1       615 6.50266E-05 1.65675E-05 0.00000E+00
 -1       616 6.50739E-05 1.83705E-05 0.00000E+00
 -1       617 6.51212E-05 2.02117E-05 0.00000E+00
 -1       618 6.51684E-05 2.20829E-05 0.00000E+00
 -1       619 6.52154E-05 2.39759E-05 0.00000E+00
 -1       620 6.52623E-05 2.58823E-05-1.65436E-24
 -1       621 6.36385E-05 2.58304E-06 0.00000E+00
 -1       622 6.27472E-05 2.72020E-06 1.65436E-24
 -1       623 6.18786E-05 2.85731E-06-3.30872E-24
 -1       624 6.10456E-05 2.99404E-06-1.65436E-24
 -1       625 6.02611E-05 3.13003E-06 1.65436E-24
 -1       626 6.42772E-05 3.47834E-06 0.00000E+00
 -1       627 6.39669E-05 4.63507E-06 0.00000E+00
 -1       628 6.36140E-05 5.90472E-06 0.00000E+00
 -1       629 6.32233E-05 7.27424E-06 0.00000E+00
 -1       630 6.27999E-05 8.73054E-06 0.00000E+00
 -1       631 6.23489E-05 1.02604E-05 0.00000E+00
 -1       632 6.18752E-05 1.18504E-05 0.00000E+00
 -1       633 6.13837E-05 1.34874E-05-1.65436E-24
 -1       634 6.08796E-05 1.51581E-05 0.00000E+00
 -1       635 6.03678E-05 1.68492E-05-1.65436E-24
 -1       636 5.98532E-05 1.85475E-05-3.30872E-24
 -1       637 5.93409E-05 2.02396E-05 0.00000E+00
 -1       638 5.88357E-05 2.19124E-05 1.65436E-24
 -1       639 5.83423E-05 2.35524E-05-8.27181E-25
 -1       640 5.78652E-05 2.51463E-05 8.27181E-25
 -1       656 6.36308E-05 2.76141E-05 3.30872E-24
 -1       657 6.22306E-05 2.74254E-05 0.00000E+00
 -1       658 6.10082E-05 2.72372E-05 0.00000E+00
 -1       659 5.98636E-05 2.70490E-05-1.65436E-24
 -1       660 5.86964E-05 2.68605E-05-1.65436E-24
 -1       661 6.47372E-05 2.97777E-05 0.00000E+00
 -1       662 6.41381E-05 3.18503E-05 1.65436E-24
 -1       663 6.35118E-05 3.39951E-05 0.00000E+00
 -1       664 6.28646E-05 3.61976E-05 0.00000E+00
 -1       665 6.22013E-05 3.84428E-05 6.61744E-24
 -1       666 6.15276E-05 4.07161E-05 3.30872E-24
 -1       667 6.08488E-05 4.30028E-05 0.00000E+00
 -1       668 6.01705E-05 4.52884E-05 0.00000E+00
 -1       669 5.94982E-05 4.75581E-05 6.61744E-24
 -1       670 5.88373E-05 4.97974E-05 0.00000E+00
 -1       671 5.81934E-05 5.19915E-05 3.30872E-24
 -1       672 5.75719E-05 5.41258E-05 1.65436E-24
 -1       673 5.69782E-05 5.61854E-05 0.00000E+00
 -1       674 5.64172E-05 5.81552E-05 1.65436E-24
 -1       675 5.58954E-05 6.00206E-05 0.00000E+00
 -1       676 6.36262E-05 6.26705E-05 6.61744E-24
 -1       677 6.19687E-05 6.24874E-05 3.30872E-24
 -1       678 6.03159E-05 6.23044E-05 0.00000E+00
 -1       679 5.86703E-05 6.21222E-05 0.00000E+00
 -1       680 5.70341E-05 6.19400E-05 0.00000E+00
 -1       771 2.22773E-05-3.07312E-06 0.00000E+00
 -1       772 1.97462E-05-8.94286E-08 0.00000E+00
 -1       773 1.74906E-05 2.16025E-06 0.00000E+00
 -1       774 1.54822E-05 3.75165E-06 0.00000E+00
 -1       775 1.36928E-05 4.76122E-06 0.00000E+00
 -1       776 1.20930E-05 5.26655E-06 2.64698E-23
 -1       777 1.06534E-05 5.34576E-06-5.29396E-23
 -1       778 9.34425E-06 5.07771E-06 0.00000E+00
 -1       779 8.13569E-06 4.54165E-06 5.29396E-23
 -1       780 6.99779E-06 3.81726E-06 0.00000E+00
 -1       781 5.90065E-06 2.98446E-06 0.00000E+00
 -1       782 4.81438E-06 2.12336E-06 0.00000E+00
 -1       783 3.70912E-06 1.31414E-06 0.00000E+00
 -1       784 2.55589E-06 6.36966E-07 0.00000E+00
 -1       785 1.32556E-06 1.71853E-07 0.00000E+00
 -1       786 5.79628E-05 2.45715E-07-8.27181E-25
 -1       787 5.80670E-05 5.89444E-07-8.27181E-25
 -1       788 5.81712E-05 8.37859E-07 0.00000E+00
 -1       789 5.82763E-05 1.00836E-06 1.65436E-24
 -1       790 5.83816E-05 1.11827E-06 0.00000E+00
 -1       791 5.84870E-05 1.18486E-06 0.00000E+00
 -1       792 5.85925E-05 1.22538E-06 0.00000E+00
 -1       793 5.86980E-05 1.25705E-06 0.00000E+00
 -1       794 5.88036E-05 1.29706E-06 0.00000E+00
 -1       795 5.89091E-05 1.36266E-06-1.65436E-24
 -1       796 5.90146E-05 1.47106E-06 0.00000E+00
 -1       797 5.91201E-05 1.63956E-06-1.65436E-24
 -1       798 5.92254E-05 1.88547E-06-3.30872E-24
 -1       799 5.93303E-05 2.22617E-06-1.65436E-24
 -1       800 5.94352E-05 2.67916E-06 3.30872E-24
 -1       801 5.29395E-05-1.35500E-07 0.00000E+00
 -1       802 4.23861E-05-9.13132E-08 0.00000E+00
 -1       803 2.90080E-05-7.60296E-08 0.00000E+00
 -1       804 1.56132E-05-6.66648E-08 0.00000E+00
 -1       805 5.00900E-06-2.92350E-08 0.00000E+00
 -1       806 5.75824E-05 1.98614E-07 3.30872E-24
 -1       807 5.73186E-05 5.48547E-07 0.00000E+00
 -1       808 5.70723E-05 8.48906E-07 0.00000E+00
 -1       809 5.68406E-05 1.10928E-06 4.96308E-24
 -1       810 5.66202E-05 1.33922E-06-3.30872E-24
 -1       811 5.64076E-05 1.54830E-06 1.65436E-24
 -1       812 5.61991E-05 1.74605E-06 0.00000E+00
 -1       813 5.59914E-05 1.94201E-06 0.00000E+00
 -1       814 5.57807E-05 2.14574E-06 0.00000E+00
 -1       815 5.55635E-05 2.36677E-06 0.00000E+00
 -1       816 5.53362E-05 2.61463E-06 0.00000E+00
 -1       817 5.50954E-05 2.89886E-06 0.00000E+00
 -1       818 5.48373E-05 3.22899E-06 3.30872E-24
 -1       819 5.45587E-05 3.61449E-06-1.24077E-24
 -1       820 5.42561E-05 4.06484E-06 0.00000E+00
 -1       821 5.94124E-05 4.02293E-06 0.00000E+00
 -1       822 5.92798E-05 4.96981E-06 1.65436E-24
 -1       823 5.91472E-05 6.08331E-06-3.30872E-24
 -1       824 5.90132E-05 7.34386E-06-1.65436E-24
 -1       825 5.88790E-05 8.73179E-06 0.00000E+00
 -1       826 5.87443E-05 1.02272E-05 1.65436E-24
 -1       827 5.86095E-05 1.18103E-05 3.30872E-24
 -1       828 5.84746E-05 1.34609E-05 1.65436E-24
 -1       829 5.83395E-05 1.51590E-05 3.30872E-24
 -1       830 5.82045E-05 1.68844E-05 0.00000E+00
 -1       831 5.80695E-05 1.86169E-05 0.00000E+00
 -1       832 5.79347E-05 2.03363E-05 0.00000E+00
 -1       833 5.78001E-05 2.20225E-05 3.30872E-24
 -1       834 5.76666E-05 2.36553E-05 0.00000E+00
 -1       835 5.75331E-05 2.52146E-05-1.65436E-24
 -1       836 5.87358E-05 3.47969E-06 0.00000E+00
 -1       837 5.77704E-05 3.70490E-06 3.30872E-24
 -1       838 5.67239E-05 3.92974E-06 0.00000E+00
 -1       839 5.56793E-05 4.15383E-06 0.00000E+00
 -1       840 5.47195E-05 4.37803E-06 1.65436E-24
 -1       856 5.72894E-05 2.82271E-05-8.27181E-25
 -1       857 5.71657E-05 3.00053E-05 0.00000E+00
 -1       858 5.70416E-05 3.19844E-05 0.00000E+00
 -1       859 5.69163E-05 3.41333E-05 0.00000E+00
 -1       860 5.67906E-05 3.64208E-05 0.00000E+00
 -1       861 5.66645E-05 3.88155E-05 0.00000E+00
 -1       862 5.65381E-05 4.12863E-05 3.30872E-24
 -1       863 5.64116E-05 4.38017E-05-1.65436E-24
 -1       864 5.62850E-05 4.63302E-05 0.00000E+00
 -1       865 5.61585E-05 4.88405E-05-1.65436E-24
 -1       866 5.60322E-05 5.13012E-05 3.30872E-24
 -1       867 5.59061E-05 5.36808E-05-1.65436E-24
 -1       868 5.57804E-05 5.59480E-05 3.30872E-24
 -1       869 5.56553E-05 5.80716E-05 1.65436E-24
 -1       870 5.55307E-05 6.00203E-05-6.61744E-24
 -1       871 5.62368E-05 2.66653E-05 0.00000E+00
 -1       872 5.52184E-05 2.66484E-05 0.00000E+00
 -1       873 5.42937E-05 2.66312E-05 0.00000E+00
 -1       874 5.34040E-05 2.66134E-05 0.00000E+00
 -1       875 5.24907E-05 2.65947E-05-8.27181E-25
 -1       876 5.70289E-05 2.82737E-05-3.30872E-24
 -1       877 5.65874E-05 3.00601E-05 0.00000E+00
 -1       878 5.60836E-05 3.20120E-05-6.61744E-24
 -1       879 5.55278E-05 3.41049E-05 0.00000E+00
 -1       880 5.49284E-05 3.63137E-05-6.61744E-24
 -1       881 5.42947E-05 3.86140E-05 3.30872E-24
 -1       882 5.36358E-05 4.09813E-05 6.61744E-24
 -1       883 5.29608E-05 4.33912E-05 0.00000E+00
 -1       884 5.22790E-05 4.58193E-05 6.61744E-24
 -1       885 5.15994E-05 4.82414E-05 3.30872E-24
 -1       886 5.09311E-05 5.06331E-05 6.61744E-24
 -1       887 5.02833E-05 5.29701E-05 3.30872E-24
 -1       888 4.96651E-05 5.52279E-05 0.00000E+00
 -1       889 4.90846E-05 5.73817E-05 0.00000E+00
 -1       890 4.85525E-05 5.94074E-05 3.30872E-24
 -1       891 5.40087E-05 6.16827E-05 0.00000E+00
 -1       892 5.28494E-05 6.16010E-05 1.65436E-24
 -1       893 5.18039E-05 6.15194E-05-1.65436E-24
 -1       894 5.07439E-05 6.14380E-05 0.00000E+00
 -1       895 4.95411E-05 6.13563E-05 0.00000E+00
 -1       956 5.37791E-05 5.37079E-06-1.65436E-24
 -1       957 5.36280E-05 6.31917E-06 0.00000E+00
 -1       958 5.34763E-05 7.41644E-06 1.65436E-24
 -1       959 5.33241E-05 8.64367E-06 0.00000E+00
 -1       960 5.31716E-05 9.98193E-06 0.00000E+00
 -1       961 5.30190E-05 1.14122E-05-1.65436E-24
 -1       962 5.28663E-05 1.29152E-05 3.30872E-24
 -1       963 5.27135E-05 1.44721E-05 1.65436E-24
 -1       964 5.25606E-05 1.60637E-05 0.00000E+00
 -1       965 5.24077E-05 1.76708E-05 1.65436E-24
 -1       966 5.22549E-05 1.92744E-05 0.00000E+00
 -1       967 5.21021E-05 2.08554E-05 0.00000E+00
 -1       968 5.19495E-05 2.23946E-05 0.00000E+00
 -1       969 5.17971E-05 2.38730E-05-3.30872E-24
 -1       970 5.16453E-05 2.52716E-05 6.61744E-24
 -1       971 5.12872E-05 2.79254E-05-3.30872E-24
 -1       972 5.10737E-05 2.95403E-05 0.00000E+00
 -1       973 5.08597E-05 3.13849E-05 0.00000E+00
 -1       974 5.06447E-05 3.34267E-05-3.30872E-24
 -1       975 5.04292E-05 3.56328E-05 0.00000E+00
 -1       976 5.02133E-05 3.79704E-05-3.30872E-24
 -1       977 4.99972E-05 4.04064E-05 0.00000E+00
 -1       978 4.97809E-05 4.29075E-05-3.30872E-24
 -1       979 4.95645E-05 4.54406E-05 0.00000E+00
 -1       980 4.93482E-05 4.79724E-05 3.30872E-24
 -1       981 4.91320E-05 5.04696E-05 0.00000E+00
 -1       982 4.89162E-05 5.28989E-05 0.00000E+00
 -1       983 4.87009E-05 5.52272E-05 0.00000E+00
 -1       984 4.84868E-05 5.74215E-05 0.00000E+00
 -1       985 4.82733E-05 5.94487E-05 3.30872E-24
 -3
    1PSTEP                         2           1           1          
  100CL  101 1.000000000         382                     0    1           1
 -4  STRESS      6    1
 -5  SXX         1    4    1    1
 -5  SYY         1    4    2    2
 -5  SZZ         1    4    3    3
 -5  SXY         1    4    1    2
 -5  SYZ         1    4    2    3
 -5  SZX         1    4    3    1
 -1         1-4.35616E+06-1.76956E+06-9.94174E+05-2.07142E+06 5.82077E-11 8.73115E-09
 -1         3-6.46387E+01-1.31599E+06-3.36055E+01-4.76172E+02 2.15874E-10-1.21872E-09
 -1         5-3.91534E+01 5.85866E+05 1.94763E+01 1.87130E+00 2.97075E-10-9.40599E-09
 -1         8-3.15816E+06-1.43138E+06-5.88851E+05-1.90021E+06 6.98492E-10 1.10886E-08
 -1         9-3.91841E+06-1.32013E+06-7.35256E+05-1.22327E+06-1.89175E-10 7.56215E-09
 -1        10-1.49669E+02-1.31617E+06-1.41944E+03-2.77072E+03-7.74556E-09 2.05955E-09
 -1        12-3.13227E+01 5.85906E+05 6.32602E+02 1.20298E+01 3.45750E-10-8.88122E-09
 -1        16-4.18054E+06-1.32806E+06-5.72347E+05-1.41757E+06 1.94268E-09-6.77270E-10
 -1        17-7.38529E+05-5.86960E+05-9.40466E+04-4.95816E+05-7.34872E-09 5.23578E-09
 -1        18 3.47751E+04 1.37233E+04-1.78007E+04-1.23008E+05 1.14915E-09 3.41242E-09
 -1        19 1.59478E+05 2.00923E+05 2.23530E+02 1.16505E+04-1.24819E-09-1.46611E-09
 -1        20 1.27814E+05-1.36792E+05-2.30857E+04 8.33691E+04 5.85078E-09-7.40935E-09
 -1        21-1.85119E+02-5.20986E+05-2.39487E+03-7.66806E+02-1.20952E-08-1.23095E-08
 -1        24-3.04013E+06-1.08840E+06-2.90040E+05-1.44492E+06-7.10376E-09-8.53712E-10
 -1        25-1.01275E+03 5.05769E+04 2.78911E+04-5.19972E+05 2.55532E-09 3.20142E-09
 -1        26-1.86112E+04 1.70349E+05 5.94847E+03-3.82608E+04-4.79486E-10 2.29288E-09
 -1        27-3.10618E+04-8.22554E+04-3.61593E+04 1.01100E+05 4.93704E-09-5.55762E-09
 -1        28-1.41496E+04-1.55382E+05-5.97640E+03 6.38258E+04 1.07252E-08-2.34444E-09
 -1        32-1.10604E+06-1.55257E+05 2.73669E+05-1.58220E+06-8.23638E-09 1.46724E-09
 -1        33-1.57130E+05 1.79244E+05 5.42098E+04-5.13058E+04 2.54810E-10-1.94389E-09
 -1        34-3.30922E+05-5.28415E+04-1.75520E+04 9.48610E+04 3.27038E-09-4.99070E-09
 -1        35-4.31406E+04-4.45593E+04-7.23466E+02 9.98559E+04 1.12441E-08-6.48894E-09
 -1        51 3.73411E+04-6.11280E+05 6.20608E+04-1.61392E+06-2.61934E-10 7.47968E-09
 -1        52 2.24749E+04-6.13103E+05 4.09324E+04-1.78000E+06 7.34872E-10 2.09548E-09
 -1        53 1.95223E+04-6.34105E+05 3.65998E+04-1.60950E+06-3.92902E-10-4.11819E-09
 -1        54 4.43761E+04-6.32759E+05 6.07672E+04-1.78443E+06-5.38421E-10-4.65661E-10
 -1        55 9.11378E+04-6.54265E+05 1.12707E+05-1.60842E+06-1.16415E-10 2.34286E-09
 -1        56-8.05015E+06-9.30698E+05-6.93921E+05-3.18776E+06 2.57569E-09-2.06637E-09
 -1        57-8.57705E+06-1.32395E+06-4.69736E+05-2.86498E+06 4.88944E-09-4.09636E-09
 -1        58-8.13395E+06-1.20803E+06-1.62144E+05-3.19779E+06 8.84029E-10-1.33732E-08
 -1        59-8.45826E+06-1.01799E+06-9.75612E+04-2.87733E+06-4.58385E-09-1.09194E-08
 -1        60-8.16871E+06-1.22974E+06-3.83632E+04-3.17847E+06-2.35195E-09-2.19006E-09
 -1        61-8.34609E+06-1.05599E+06-1.95880E+04-2.96491E+06-5.09863E-09-1.86901E-10
 -1        62-8.24116E+06-1.17265E+06-1.30460E+04-3.10672E+06 4.31100E-10-4.51200E-09
 -1        63-8.19975E+06-1.18999E+06-6.00234E+03-3.12227E+06-1.42518E-09-1.03046E-09
 -1        64-8.31336E+06-1.09731E+06-1.18535E+04-3.01971E+06-5.56611E-10 6.27301E-09
 -1        65-8.10185E+06-1.30704E+06-1.97943E+04-3.25911E+06-5.97174E-09 3.90173E-10
 -1        66-8.34399E+06-1.05210E+06-3.59683E+04-2.97342E+06-2.40652E-09 1.42609E-09
 -1        67-8.10992E+06-1.36236E+06-9.32066E+04-3.27579E+06-6.77937E-09-1.07466E-08
 -1        68-8.30700E+06-1.04142E+06-1.56124E+05-3.00388E+06-5.60976E-09-7.27596E-12
 -1        69-8.33786E+06-1.53412E+06-4.48202E+05-3.12041E+06-1.67347E-09-4.23461E-09
 -1        70-8.11329E+06-8.88921E+05-6.64595E+05-3.12407E+06-2.61934E-10 1.77533E-09
 -1       121-8.80843E+01-1.31635E+06-9.41078E+01 2.38000E+02-9.38028E-10-2.74667E-10
 -1       122-6.21862E+01-1.31600E+06-8.24001E+01-9.43488E+02-2.32750E-09-1.77988E-09
 -1       123-8.40733E+01-1.31635E+06-2.12096E+02 7.04967E+02-2.58228E-09 8.40191E-09
 -1       124-6.21742E+01-1.31604E+06-3.41378E+02-1.86779E+03-4.97779E-09 5.33691E-09
 -1       125-6.90391E+01-1.31634E+06-7.18329E+02 1.16187E+03-4.29705E-09 1.72622E-09
 -1       191-4.17416E+01 5.85909E+05 2.20092E+01-9.46941E-01 4.47354E-10 4.60386E-09
 -1       192-4.09702E+01 5.85867E+05 4.12901E+01 4.90640E+00 5.28451E-10 1.89211E-08
 -1       193-4.65535E+01 5.85908E+05 7.55446E+01-4.03148E+00 6.14598E-10 2.43199E-09
 -1       194-4.68081E+01 5.85873E+05 1.56293E+02 1.06284E+01 3.13507E-10-9.85619E-09
 -1       195-5.57942E+01 5.85903E+05 3.04451E+02-6.76432E+00 9.87711E-10-7.63976E-09
 -1       271-6.20493E+06-7.98530E+05-4.84031E+05-2.41230E+06 6.69388E-10-1.01863E-09
 -1       272-6.36077E+06-1.11185E+06-3.03199E+05-2.42403E+06 1.38516E-09-6.72298E-09
 -1       273-6.29471E+06-8.96357E+05-1.14205E+05-2.39329E+06 6.29370E-10-3.63070E-09
 -1       274-6.25405E+06-9.84782E+05-6.19755E+04-2.46024E+06 2.88310E-10 7.17500E-09
 -1       275-6.30982E+06-9.01160E+05-2.65526E+04-2.38617E+06 4.14730E-10-2.81034E-09
 -1       276-6.23581E+06-9.79333E+05-1.37778E+04-2.47348E+06 2.21917E-10 3.55567E-09
 -1       277-6.31465E+06-8.98408E+05-7.04830E+03-2.38227E+06-2.30739E-09-7.64089E-09
 -1       278-6.23105E+06-9.82310E+05-5.29452E+03-2.47944E+06 3.31352E-09-8.14418E-09
 -1       279-6.31579E+06-8.97260E+05-6.16117E+03-2.38114E+06-2.90555E-09-2.09229E-09
 -1       280-6.23234E+06-9.82904E+05-1.15293E+04-2.47875E+06 7.91488E-10 1.70076E-09
 -1       281-6.31327E+06-8.98016E+05-2.17459E+04-2.38284E+06 2.65209E-09 4.87489E-10
 -1       282-6.24548E+06-9.89378E+05-5.09012E+04-2.47040E+06-4.38058E-09-4.63842E-11
 -1       283-6.30159E+06-8.93381E+05-9.35649E+04-2.38790E+06 2.29829E-09 8.45466E-09
 -1       284-6.33195E+06-1.09443E+06-2.48685E+05-2.44134E+06 2.74576E-09 4.84943E-09
 -1       285-6.22794E+06-8.13300E+05-3.97053E+05-2.40345E+06-1.77897E-09 1.27184E-08
 -1       301 6.59153E+04-2.23926E+04 1.72940E+05-4.12998E+04 1.62254E-09 7.06225E-09
 -1       302 2.35084E+04 1.21217E+04 1.12465E+05-5.01919E+04 1.22327E-09-5.03258E-09
 -1       303 5.72562E+03-1.03997E+04 9.85795E+04-4.14487E+04 2.22099E-09-1.27784E-10
 -1       304 3.83196E+04 2.25853E+04 1.57077E+05-5.00884E+04 2.71029E-10 1.51042E-08
 -1       305 1.11613E+05-3.27336E+04 2.79753E+05-4.12856E+04 1.45519E-09 7.59610E-09
 -1       306-3.27953E+06-4.30792E+05-1.92794E+05-1.26333E+06 7.42148E-10 3.13594E-09
 -1       307-3.34423E+06-5.54345E+05-1.20919E+05-1.26674E+06 1.68347E-09 1.77533E-09
 -1       308-3.31266E+06-4.72438E+05-4.54241E+04-1.25867E+06-1.83991E-09-1.16779E-09
 -1       309-3.30582E+06-4.99240E+05-2.48256E+04-1.27534E+06-9.37007E-10-5.49335E-09
 -1       310-3.31648E+06-4.76657E+05-1.05909E+04-1.25816E+06-1.86355E-09-1.17370E-09
 -1       311-3.30150E+06-4.93665E+05-5.67466E+03-1.27606E+06 5.55474E-09-9.09637E-09
 -1       312-3.31683E+06-4.77215E+05-3.08396E+03-1.25824E+06-3.14390E-09-1.79898E-09
 -1       313-3.30146E+06-4.92752E+05-2.72909E+03-1.27559E+06-3.68163E-09 2.38742E-09
 -1       314-3.31647E+06-4.77547E+05-3.68329E+03-1.25861E+06-6.97128E-10 3.50110E-09
 -1       315-3.30291E+06-4.92576E+05-7.30348E+03-1.27450E+06 4.29463E-09 3.42084E-09
 -1       316-3.31531E+06-4.77508E+05-1.39304E+04-1.25925E+06 7.59883E-10-1.83900E-09
 -1       317-3.30980E+06-4.98742E+05-3.27770E+04-1.27211E+06-4.72824E-10-1.31549E-08
 -1       318-3.30969E+06-4.72499E+05-6.00605E+04-1.26056E+06-1.94905E-09-4.26371E-09
 -1       319-3.36156E+06-5.70605E+05-1.59859E+05-1.25959E+06-6.02995E-09 3.24508E-09
 -1       320-3.26543E+06-4.17857E+05-2.54863E+05-1.26718E+06-2.45564E-09 3.69619E-09
 -1       336 2.26824E+01-1.31626E+06-2.75725E+03 1.60761E+03-5.79064E-09 3.77986E-09
 -1       337-1.21959E+03-1.31699E+06-5.97766E+03-3.63934E+03-1.06797E-08-1.92358E-09
 -1       338 8.38184E+02-1.31558E+06-1.08323E+04 2.02979E+03-6.90216E-09 2.01999E-09
 -1       339-1.26473E+04-1.32398E+06-2.65535E+04-4.54146E+03-1.28020E-08 1.08103E-08
 -1       340 8.96668E+03-1.30935E+06-4.17907E+04 2.49886E+03-8.01992E-09 4.57112E-09
 -1       406 1.57572E+01 5.85875E+05 1.24752E+03-5.51485E+00 1.34264E-09-1.76169E-08
 -1       407 4.04193E+02 5.86125E+05 2.65396E+03-9.17980E+00 4.53042E-10-4.36448E-08
 -1       408 1.33401E+03 5.85683E+05 5.29852E+03 1.58011E+01 1.59389E-09-2.34377E-08
 -1       409 5.70137E+03 5.87817E+05 1.19298E+04-1.94444E+02-4.91127E-11-2.40107E-09
 -1       410 1.64374E+04 5.84171E+05 2.43528E+04 2.02299E+02 1.77170E-09-1.03882E-08
 -1       521-6.34388E+06-8.20159E+05-4.07520E+05-2.44036E+06-3.71074E-10-9.96806E-09
 -1       522-6.49750E+06-1.06573E+06-2.55773E+05-2.42862E+06 1.38243E-09-1.01682E-08
 -1       523-6.41332E+06-9.09142E+05-9.58677E+04-2.43096E+06-3.05590E-10 3.41606E-09
 -1       524-6.41693E+06-9.47892E+05-5.23659E+04-2.44566E+06-7.67250E-09 3.49974E-09
 -1       525-6.42090E+06-9.18556E+05-2.22337E+04-2.43032E+06-9.52696E-10 6.29734E-09
 -1       526-6.40850E+06-9.35256E+05-1.17696E+04-2.44624E+06 7.96035E-10-5.46936E-09
 -1       527-6.42126E+06-9.20104E+05-6.11623E+03-2.43090E+06 6.07997E-10-2.28579E-09
 -1       528-6.40898E+06-9.32675E+05-4.92625E+03-2.44458E+06-2.32467E-09-1.82774E-09
 -1       529-6.42031E+06-9.21067E+05-6.09837E+03-2.43196E+06 6.68433E-09-2.16096E-09
 -1       530-6.41209E+06-9.31580E+05-1.16957E+04-2.44199E+06 5.70799E-09-3.08410E-09
 -1       531-6.41814E+06-9.21354E+05-2.21081E+04-2.43342E+06 9.25411E-10 1.09249E-08
 -1       532-6.42375E+06-9.40794E+05-5.20141E+04-2.43757E+06-1.71326E-09 2.69301E-09
 -1       533-6.40904E+06-9.13570E+05-9.52517E+04-2.43580E+06-6.67569E-10-2.28101E-09
 -1       534-6.50658E+06-1.05504E+06-2.54056E+05-2.41748E+06-5.72527E-09-2.67755E-09
 -1       535-6.33886E+06-8.26399E+05-4.04818E+05-2.44651E+06-1.79716E-09 3.14321E-09
 -1       536-4.13594E+04-1.71575E+04 7.63529E+04-1.86653E+04 1.54796E-09-2.99406E-09
 -1       537-1.28750E+04 2.26498E+04 4.87581E+04-6.53547E+04-5.39876E-09-2.60479E-09
 -1       538-3.00753E+04-2.01420E+03 1.96756E+04-1.83868E+04-6.36646E-11-4.68572E-09
 -1       539-2.63254E+04 1.90526E+03 1.10043E+04-6.56568E+04 2.15641E-09-2.32922E-09
 -1       540-2.89494E+04-3.52674E+02 4.91161E+03-1.83488E+04 2.91038E-11 3.86808E-09
 -1       541-2.82801E+04 1.25417E+02 2.60722E+03-6.57070E+04-8.65839E-10 1.53523E-09
 -1       542-2.88825E+04-7.09237E+01 1.16098E+03-1.83390E+04 1.00408E-09 1.46247E-09
 -1       543-2.88134E+04 7.68100E+01 5.23424E+02-6.57230E+04-1.76442E-09 5.23482E-09
 -1       544-2.89060E+04 2.22703E+01 6.15563E+01-1.83333E+04 5.42514E-10 3.88718E-09
 -1       545-2.90324E+04 8.59727E+01-3.57365E+02-6.57300E+04-1.18331E-09-1.53841E-09
 -1       546-2.88813E+04 7.19994E+01-9.14120E+02-1.83318E+04 6.71662E-10-3.62320E-09
 -1       547-2.92837E+04-3.27980E+02-2.14287E+03-6.57201E+04-3.54476E-10 1.75987E-09
 -1       548-2.86002E+04 3.27269E+02-3.94251E+03-1.83434E+04-1.77124E-09 2.36287E-09
 -1       549-3.15842E+04-4.59304E+03-9.68664E+03-6.55707E+04-9.59972E-10 4.78849E-10
 -1       550-2.62543E+04 3.18825E+03-1.53172E+04-1.84809E+04-2.57387E-10 2.20098E-10
 -1       551 2.14649E+04-5.39091E+05 4.27035E+04-8.20923E+05-9.45874E-11-1.52795E-10
 -1       552 1.77194E+04-5.34697E+05 4.19711E+04-9.91573E+05 1.57161E-09 1.44064E-09
 -1       553 1.36210E+04-5.41844E+05 5.82403E+04-8.19352E+05 7.71252E-10-1.44610E-09
 -1       554 4.32691E+04-5.18018E+05 1.17367E+05-9.91731E+05 2.93949E-09 3.17868E-09
 -1       555 9.95632E+04-5.58137E+05 2.23209E+05-8.20284E+05-3.71074E-10-7.09770E-09
 -1       556-2.39260E+05-1.84292E+05 4.02700E+04-3.08285E+05 1.12050E-09 5.07134E-09
 -1       557-2.00891E+05-2.22369E+05 2.02555E+04-3.38035E+05 4.81668E-09 8.78936E-09
 -1       558-2.40505E+05-1.94813E+05 8.36318E+03-3.01826E+05-5.14410E-09 4.92764E-09
 -1       559-2.06296E+05-2.28076E+05 4.17661E+03-3.40441E+05-2.99769E-09 1.50776E-08
 -1       560-2.41855E+05-1.94215E+05 1.78550E+03-3.02457E+05-3.06318E-09 4.43015E-09
 -1       561-2.08074E+05-2.27704E+05 8.95347E+02-3.41663E+05-6.25732E-10 8.52651E-09
 -1       562-2.42884E+05-1.93560E+05 3.17153E+02-3.03150E+05-9.16771E-10 1.78852E-09
 -1       563-2.09115E+05-2.27257E+05 6.99210E+01-3.42378E+05-1.38061E-09-5.04770E-11
 -1       564-2.43483E+05-1.93179E+05-2.29037E+02-3.03559E+05 6.14818E-10-2.65209E-09
 -1       565-2.09633E+05-2.27043E+05-6.40785E+02-3.42716E+05 2.00089E-10-5.65160E-09
 -1       566-2.43613E+05-1.93051E+05-1.43274E+03-3.03672E+05 1.88174E-09-3.12139E-09
 -1       567-2.09851E+05-2.27172E+05-3.18928E+03-3.42661E+05 4.43833E-10 6.83940E-09
 -1       568-2.43134E+05-1.93526E+05-6.59443E+03-3.03350E+05-1.48430E-09 1.95723E-09
 -1       569-2.13208E+05-2.30867E+05-1.55301E+04-3.41325E+05-2.15368E-09-3.64162E-09
 -1       570-2.40632E+05-2.03999E+05-3.12630E+04-2.98763E+05-1.97178E-09 2.74122E-09
 -1       571 3.67264E+05 1.67417E+04 2.48729E+04-9.67775E+04 5.22050E-10-7.72161E-10
 -1       572 3.70958E+05 5.80329E+03 1.21879E+04-1.06094E+05 1.78261E-10-7.07769E-09
 -1       573 3.68709E+05 1.36707E+03 5.41445E+03-9.65231E+04-1.34787E-09-2.79215E-10
 -1       574 3.69143E+05 4.37008E+02 2.71364E+03-1.06369E+05-1.84446E-09 6.18456E-10
 -1       575 3.68851E+05 5.18582E+01 1.27846E+03-9.64906E+04-8.18727E-09 8.24002E-10
 -1       576 3.68887E+05 9.54631E+00 6.50080E+02-1.06406E+05-1.67516E-08 2.06091E-09
 -1       577 3.68875E+05-1.86732E+01 3.17576E+02-9.64863E+04-8.62701E-09-8.57654E-10
 -1       578 3.68875E+05-1.85245E+01 1.68166E+02-1.06410E+05-1.05001E-09-3.96813E-09
 -1       579 3.68924E+05-3.59821E+01 9.19951E+01-9.64859E+04-1.67893E-09 7.01948E-09
 -1       580 3.68946E+05-5.33817E+01 6.93418E+01-1.06406E+05-7.30324E-10 4.30646E-09
 -1       581 3.69018E+05-8.29838E+01 7.23254E+01-9.64909E+04 8.08905E-09-3.00588E-09
 -1       582 3.69083E+05-1.02185E+02 1.26074E+02-1.06350E+05 1.90648E-08 3.13685E-09
 -1       583 3.69149E+05-1.06391E+02 2.25938E+02-9.65420E+04 1.07102E-08-2.97996E-09
 -1       584 3.69335E+05 3.77135E+01 5.08388E+02-1.05915E+05-2.67119E-09 4.88990E-09
 -1       585 3.69252E+05 4.60463E+02 1.01805E+03-9.69262E+04-3.52884E-10 2.12458E-09
 -1       586 2.91300E+03 1.74086E+05 5.17873E+03-2.23577E+05 5.51154E-10-2.16996E-08
 -1       587 1.75251E+03 1.74890E+05 5.16468E+03-2.47105E+05 6.85759E-10-5.87570E-08
 -1       588 2.12298E+03 1.73896E+05 7.55610E+03-2.23269E+05 5.47516E-10-2.82530E-08
 -1       589 7.41378E+03 1.76746E+05 1.56356E+04-2.47219E+05 7.18501E-10-3.69710E-09
 -1       590 2.06387E+04 1.72001E+05 3.12070E+04-2.23450E+05 6.85759E-10-4.70163E-09
 -1       591-1.92939E+05-5.82765E+04-3.66461E+04-9.29466E+04 6.83258E-10 1.63163E-09
 -1       592-1.95054E+05-5.55294E+04-1.82748E+04-1.02992E+05 3.62206E-10 6.23504E-09
 -1       593-1.94536E+05-4.69041E+04-7.75966E+03-9.84565E+04 2.68165E-09 9.02446E-09
 -1       594-1.90987E+05-5.08763E+04-3.80672E+03-1.03421E+05-1.70576E-09 9.30683E-10
 -1       595-1.94734E+05-4.65699E+04-1.75591E+03-9.86756E+04-1.10942E-08-1.17985E-08
 -1       596-1.90704E+05-5.07094E+04-8.88203E+02-1.03385E+05-1.07489E-08-2.42744E-09
 -1       597-1.94768E+05-4.66001E+04-4.79418E+02-9.86762E+04-5.54282E-09 4.13820E-10
 -1       598-1.90673E+05-5.07123E+04-3.75611E+02-1.03371E+05-6.74277E-10 3.78805E-09
 -1       599-1.94763E+05-4.66039E+04-4.67547E+02-9.86730E+04-3.52065E-09-9.24001E-09
 -1       600-1.90693E+05-5.07144E+04-8.56662E+02-1.03375E+05-1.23327E-09 9.99034E-09
 -1       601-1.94718E+05-4.65812E+04-1.68771E+03-9.86663E+04 3.21916E-09 5.68207E-09
 -1       602-1.90957E+05-5.08749E+04-3.65550E+03-1.03395E+05 7.45649E-09 7.30438E-09
 -1       603-1.94514E+05-4.69133E+04-7.45012E+03-9.84543E+04 4.49836E-09 2.37742E-09
 -1       604-1.94893E+05-5.52989E+04-1.75411E+04-1.02922E+05 4.28736E-09-3.32102E-09
 -1       605-1.92930E+05-5.78682E+04-3.51746E+04-9.32035E+04 3.71574E-09-8.03084E-10
 -1       606 1.41770E+05-1.53136E+04-2.34586E+04 4.48085E+04-7.01039E-09 1.04228E-09
 -1       607 1.38112E+05-5.20810E+03-1.15182E+04 4.89290E+04-1.08048E-09 1.89721E-09
 -1       608 1.40215E+05-1.14969E+03-5.12729E+03 4.45075E+04 4.34193E-09 1.34605E-09
 -1       609 1.39711E+05-3.02394E+02-2.56823E+03 4.92573E+04-4.72937E-09-2.06364E-09
 -1       610 1.39971E+05 3.50023E+01-1.21339E+03 4.44690E+04-9.86802E-09-2.84626E-09
 -1       611 1.39855E+05 1.02624E+02-6.08791E+02 4.92980E+04-1.52686E-08-8.96762E-10
 -1       612 1.39891E+05 1.17167E+02-2.88443E+02 4.44649E+04-7.02676E-09-3.51974E-10
 -1       613 1.39835E+05 1.39472E+02-1.28113E+02 4.93025E+04-1.09339E-08 1.33969E-09
 -1       614 1.39844E+05 1.30184E+02-2.94824E+01 4.44640E+04-9.93441E-09-8.00355E-11
 -1       615 1.39805E+05 1.57008E+02 5.68764E+01 4.93024E+04-9.60426E-09-1.71894E-09
 -1       616 1.39808E+05 1.51687E+02 1.67364E+02 4.44647E+04-1.35506E-08 1.20235E-09
 -1       617 1.39810E+05 2.27061E+02 3.85435E+02 4.93003E+04-1.22918E-09 4.70754E-09
 -1       618 1.39760E+05 3.38510E+02 7.81813E+02 4.44655E+04-3.58341E-10 4.94038E-09
 -1       619 1.40051E+05 9.82760E+02 1.76568E+03 4.92912E+04 1.93631E-09-6.05269E-10
 -1       620 1.39521E+05 2.51418E+03 3.59813E+03 4.44679E+04 2.51669E-09-6.92580E-09
 -1       621 1.52913E+03 3.94171E+05 4.84722E+03-3.55975E+04-2.82171E-10 1.18575E-09
 -1       622 6.88452E+02 3.95131E+05 4.95626E+03-4.30555E+04-4.29463E-09-9.31959E-09
 -1       623 4.55382E+02 3.94300E+05 7.18604E+03-3.56034E+04-1.07775E-10-5.98948E-09
 -1       624 3.91391E+03 3.97433E+05 1.46935E+04-4.29262E+04-3.45517E-09-1.62595E-09
 -1       625 1.14745E+04 3.91923E+05 2.81285E+04-3.57201E+04 2.71029E-10-2.48292E-09
 -1       626 2.30984E+05 7.71854E+04-4.89568E+03 1.50828E+05-5.08862E-09-1.06720E-08
 -1       627 2.25809E+05 8.35178E+04-2.31966E+03 1.55113E+05 2.57205E-09 3.37013E-09
 -1       628 2.31154E+05 7.94691E+04-9.76087E+02 1.49465E+05-1.21872E-10 7.62475E-09
 -1       629 2.25958E+05 8.46831E+04-4.62715E+02 1.55153E+05-1.81990E-09 1.15861E-09
 -1       630 2.31106E+05 7.96461E+04-1.99712E+02 1.49319E+05-4.62387E-09-6.37448E-09
 -1       631 2.25913E+05 8.47916E+04-7.58499E+01 1.55137E+05-3.79350E-09 5.79399E-09
 -1       632 2.31058E+05 7.96681E+04 7.34662E+00 1.49285E+05-5.17866E-09-1.28148E-09
 -1       633 2.25884E+05 8.48088E+04 9.42530E+01 1.55120E+05-3.45563E-09-1.09469E-09
 -1       634 2.31024E+05 7.96680E+04 2.28383E+02 1.49271E+05 1.99361E-09-1.94950E-09
 -1       635 2.25896E+05 8.48201E+04 5.12840E+02 1.55117E+05-4.61205E-09-1.84991E-09
 -1       636 2.30998E+05 7.96930E+04 1.06105E+03 1.49251E+05-5.44924E-09-2.06137E-09
 -1       637 2.26151E+05 8.51030E+04 2.36752E+03 1.55075E+05-9.06664E-09 4.00178E-09
 -1       638 2.30950E+05 8.05464E+04 4.90383E+03 1.48881E+05 3.69118E-09-1.06038E-08
 -1       639 2.28665E+05 8.94488E+04 1.16673E+04 1.54017E+05 8.26822E-09 7.16682E-10
 -1       640 2.31078E+05 9.31277E+04 2.45879E+04 1.43649E+05 3.08273E-09-1.26010E-09
 -1       656 1.29147E+04-5.33593E+05-6.24859E+04 1.96722E+04 1.42609E-09-3.07955E-09
 -1       657-1.98846E+04-5.55954E+05-4.54723E+04 6.80059E+04-3.80351E-09-5.57884E-09
 -1       658 2.45260E+03-5.41621E+05-2.95311E+04 1.94963E+04-1.00465E-09-3.32875E-09
 -1       659-1.88700E+04-5.55434E+05-4.36798E+04 6.81226E+04-2.36105E-09 1.56747E-09
 -1       660 1.21940E+04-5.34223E+05-5.90500E+04 1.95579E+04 3.96540E-10 1.37379E-09
 -1       661 3.90456E+05 5.47059E+04 3.07821E+04 1.53800E+05 7.01698E-09-4.30737E-09
 -1       662 3.96821E+05 7.28469E+04 1.85373E+04 1.58600E+05-3.18266E-09 5.68321E-09
 -1       663 3.95178E+05 5.92997E+04 7.22508E+03 1.53831E+05-3.84830E-09 1.56979E-09
 -1       664 3.91298E+05 6.54065E+04 3.81316E+03 1.59454E+05 9.63644E-09 2.45848E-09
 -1       665 3.95624E+05 5.97251E+04 1.68729E+03 1.53854E+05 3.91549E-09-5.00944E-09
 -1       666 3.90776E+05 6.47807E+04 8.97676E+02 1.59480E+05 5.37125E-09-2.42564E-09
 -1       667 3.95672E+05 5.97698E+04 5.21731E+02 1.53861E+05-1.67785E-09 4.62276E-09
 -1       668 3.90730E+05 6.47370E+04 4.99198E+02 1.59480E+05 1.53356E-09-7.66931E-10
 -1       669 3.95670E+05 5.97619E+04 7.26506E+02 1.53857E+05-6.16319E-09-2.98382E-09
 -1       670 3.90818E+05 6.48318E+04 1.45165E+03 1.59502E+05 4.34852E-10-3.26463E-09
 -1       671 3.95592E+05 5.96788E+04 2.83965E+03 1.53841E+05 2.30034E-09 7.67000E-09
 -1       672 3.91709E+05 6.59055E+04 6.48500E+03 1.59467E+05 9.16862E-09-9.52923E-10
 -1       673 3.94829E+05 5.89506E+04 1.23114E+04 1.53799E+05 3.40191E-09-5.77893E-09
 -1       674 4.01122E+05 7.86037E+04 3.16088E+04 1.58020E+05 2.24907E-08 3.87854E-09
 -1       675 3.86782E+05 5.11118E+04 5.24934E+04 1.53740E+05 7.07132E-09-3.76895E-09
 -1       676 9.00159E+01-5.20719E+05-2.85431E+03 3.83406E+02-3.30112E-09 2.08941E-09
 -1       677-1.01268E+03-5.21552E+05-5.31216E+03-7.65078E+02-6.12238E-09-5.22512E-10
 -1       678 7.57414E+02-5.20155E+05-9.20023E+03 3.81424E+02-5.41968E-09 6.32774E-09
 -1       679-1.06062E+04-5.27351E+05-2.23396E+04-7.61078E+02-1.42963E-08 8.71367E-10
 -1       680 7.56082E+03-5.14925E+05-3.50442E+04 3.76128E+02-4.58385E-10 2.75313E-09
 -1       771-2.95935E+06-5.88084E+05-8.18626E+04-1.28759E+06 3.69255E-09 4.58385E-09
 -1       772-2.94566E+06-5.99247E+05-4.06673E+04-1.33008E+06 4.75120E-09 3.82715E-09
 -1       773-2.96506E+06-5.61300E+05-1.74545E+04-1.29962E+06-8.73115E-11-6.43922E-10
 -1       774-2.93704E+06-5.89579E+05-8.48613E+03-1.33359E+06 2.21917E-09-6.76664E-10
 -1       775-2.96693E+06-5.59607E+05-4.01957E+03-1.30063E+06 6.83940E-10 8.51287E-10
 -1       776-2.93734E+06-5.89024E+05-1.98786E+03-1.33482E+06-2.88856E-09-6.11226E-09
 -1       777-2.96806E+06-5.59010E+05-1.12223E+03-1.30109E+06-4.87489E-10 1.79648E-09
 -1       778-2.93798E+06-5.88832E+05-8.36187E+02-1.33566E+06 2.07365E-09 1.87333E-09
 -1       779-2.96873E+06-5.58588E+05-1.07055E+03-1.30139E+06 1.04046E-09 3.00133E-11
 -1       780-2.93844E+06-5.88722E+05-1.94162E+03-1.33616E+06 1.34332E-09 2.08638E-09
 -1       781-2.96893E+06-5.58345E+05-3.86187E+03-1.30151E+06 2.32649E-09 2.53749E-09
 -1       782-2.93917E+06-5.89052E+05-8.39077E+03-1.33631E+06-8.69306E-10-2.01908E-09
 -1       783-2.96837E+06-5.59173E+05-1.71562E+04-1.30101E+06 1.08321E-09 1.11686E-09
 -1       784-2.94822E+06-5.99163E+05-4.04604E+04-1.33477E+06-1.41881E-10 2.32103E-09
 -1       785-2.96419E+06-5.84824E+05-8.12288E+04-1.28892E+06 5.63887E-11 3.19415E-09
 -1       786 2.95617E+05-8.29427E+03 3.84174E+04-3.21741E+03 9.25866E-10-1.51522E-09
 -1       787 3.09279E+05 1.16210E+04 2.44337E+04-1.16371E+04-1.37788E-09-2.39925E-09
 -1       788 3.01356E+05-8.32892E+02 9.94560E+03-3.21047E+03 2.83535E-10 4.38331E-09
 -1       789 3.02893E+05 1.10002E+03 5.51867E+03-1.16284E+04-3.94436E-10-9.00400E-11
 -1       790 3.01986E+05-8.95938E+01 2.52434E+03-3.22488E+03 4.67139E-10-2.99110E-09
 -1       791 3.02174E+05 1.02266E+02 1.34948E+03-1.16073E+04 3.46290E-10 3.70554E-09
 -1       792 3.02066E+05-1.14379E+01 6.93979E+02-3.23151E+03 3.81760E-10 2.29647E-10
 -1       793 3.02085E+05 1.24583E+01 4.60306E+02-1.16030E+04 4.47358E-11-3.51801E-09
 -1       794 3.02073E+05-6.72009E+00 4.26103E+02-3.22929E+03 3.95744E-10 1.55033E-09
 -1       795 3.02114E+05 4.26220E+01 6.46567E+02-1.16168E+04-1.02773E-10 6.75328E-10
 -1       796 3.02042E+05-4.09671E+01 1.11915E+03-3.21769E+03-6.16069E-10-2.10107E-09
 -1       797 3.02429E+05 4.69236E+02 2.39541E+03-1.16461E+04-5.59226E-10-6.24095E-09
 -1       798 3.01773E+05-3.63854E+02 4.29359E+03-3.19999E+03 6.16637E-10-1.49248E-09
 -1       799 3.05193E+05 5.00109E+03 1.05377E+04-1.16578E+04-1.95178E-09-2.41062E-09
 -1       800 2.99301E+05-3.58478E+03 1.65585E+04-3.20656E+03-5.84350E-10 5.02041E-10
 -1       801-1.91387E+04 3.00044E+05 3.98886E+04-5.34177E+05-2.08238E-08 3.85626E-09
 -1       802 6.21221E+04 2.97717E+05 6.44993E+04-1.89518E+06-8.73115E-09-1.81535E-09
 -1       803 8.13363E+03 2.85301E+05 8.11659E+04-5.32666E+05-2.87182E-08 1.26024E-08
 -1       804 1.27303E+05 3.36666E+05 1.82789E+05-1.89484E+06-1.53086E-08-1.20344E-08
 -1       805-6.94455E+04 2.60504E+05 2.65585E+05-5.34549E+05-1.11613E-08 9.28412E-09
 -1       806-2.65707E+05-8.31949E+04-2.23120E+04-1.39263E+05 2.57666E-09 3.75076E-09
 -1       807-2.64527E+05-7.88433E+04-1.05840E+04-1.47562E+05-4.91127E-10-1.73816E-09
 -1       808-2.65649E+05-7.17504E+04-4.44969E+03-1.44029E+05 5.97538E-09-4.65161E-09
 -1       809-2.62289E+05-7.48849E+04-2.14779E+03-1.48556E+05 3.38969E-09-3.08282E-08
 -1       810-2.65723E+05-7.09595E+04-9.67891E+02-1.44381E+05 6.10726E-09 1.66619E-09
 -1       811-2.62077E+05-7.46221E+04-4.77452E+02-1.48607E+05-1.06866E-10 3.19233E-09
 -1       812-2.65747E+05-7.09340E+04-2.35367E+02-1.44400E+05 8.00810E-10-1.93722E-10
 -1       813-2.62054E+05-7.46163E+04-1.46710E+02-1.48602E+05 3.09524E-09 5.48334E-09
 -1       814-2.65745E+05-7.09419E+04-1.34610E+02-1.44396E+05-1.48930E-10 4.71800E-09
 -1       815-2.62053E+05-7.46251E+04-2.09478E+02-1.48594E+05-1.10458E-09-3.91901E-09
 -1       816-2.65722E+05-7.09615E+04-3.92710E+02-1.44381E+05-2.20280E-09-8.27640E-10
 -1       817-2.62132E+05-7.47250E+04-8.55567E+02-1.48547E+05 2.56478E-10 5.60249E-10
 -1       818-2.65666E+05-7.12967E+04-1.76620E+03-1.44243E+05 6.18456E-10-1.25328E-09
 -1       819-2.63094E+05-7.62016E+04-4.19485E+03-1.48024E+05-2.23008E-09-3.01043E-09
 -1       820-2.65573E+05-7.59242E+04-8.84244E+03-1.42442E+05-3.86535E-10-1.61526E-09
 -1       821-3.74599E+05 9.99026E+03-4.63550E+04 3.36536E+03-4.36467E-09-5.05679E-10
 -1       822-3.91042E+05-1.40227E+04-2.94790E+04 1.26815E+04-2.29647E-09 4.39468E-09
 -1       823-3.81531E+05 9.96488E+02-1.20077E+04 3.25914E+03 3.94812E-09-2.86400E-09
 -1       824-3.83379E+05-1.30682E+03-6.66515E+03 1.28318E+04-3.41970E-10-3.95312E-09
 -1       825-3.82298E+05 1.09950E+02-3.06822E+03 3.21345E+03-8.00060E-09-5.05997E-09
 -1       826-3.82542E+05-8.99177E+01-1.66991E+03 1.29067E+04-1.25925E-08-8.15032E-09
 -1       827-3.82397E+05 2.28348E+01-9.23692E+02 3.18380E+03-8.93215E-09-1.57240E-09
 -1       828-3.82459E+05 2.03116E+01-7.32479E+02 1.29529E+04-1.15029E-08-3.44386E-10
 -1       829-3.82401E+05 2.43685E+01-8.61248E+02 3.16723E+03-1.98469E-09-1.48403E-09
 -1       830-3.82547E+05-6.83302E+01-1.50891E+03 1.29716E+04 5.38847E-09-2.95496E-09
 -1       831-3.82317E+05 1.06593E+02-2.74272E+03 3.16503E+03-3.06184E-09-2.45564E-10
 -1       832-3.83309E+05-1.14633E+03-5.94858E+03 1.29615E+04 5.33191E-11 2.04352E-09
 -1       833-3.81636E+05 9.01601E+02-1.07048E+04 3.17772E+03 1.70303E-09-2.43108E-09
 -1       834-3.90157E+05-1.24794E+04-2.62876E+04 1.29015E+04 2.79238E-09-2.10593E-09
 -1       835-3.75458E+05 8.92578E+03-4.13277E+04 3.22836E+03 3.43402E-09-2.89583E-09
 -1       836-6.27268E+03 6.44522E+05 5.35724E+04-3.16566E+04-2.76304E-09 3.35194E-09
 -1       837 1.36816E+04 6.62134E+05 4.11101E+04-7.46607E+04-2.50475E-09 5.26279E-09
 -1       838-1.43856E+03 6.50344E+05 3.38105E+04-3.15883E+04-3.60296E-09 3.52549E-09
 -1       839 2.14534E+04 6.67491E+05 5.77201E+04-7.46574E+04-1.97542E-09 5.50881E-09
 -1       840-1.05817E+04 6.39167E+05 8.65548E+04-3.16582E+04-2.89947E-09 1.79307E-09
 -1       856-3.47131E+05 4.92775E+03-3.93013E+04 1.10615E+04-5.73618E-09-3.53975E-09
 -1       857-3.59972E+05-9.45258E+03-2.39982E+04 2.69518E+04-7.18865E-09-2.98496E-09
 -1       858-3.52696E+05 4.64383E+02-1.00933E+04 1.09106E+04-8.11269E-09 5.03860E-10
 -1       859-3.53984E+05-6.12962E+02-5.42859E+03 2.71345E+04 4.56316E-09-6.45741E-10
 -1       860-3.53234E+05 9.16851E+01-2.55087E+03 1.08736E+04 2.98678E-09 2.48178E-09
 -1       861-3.53446E+05 7.31231E+01-1.34393E+03 2.71869E+04-5.85749E-09-2.64890E-11
 -1       862-3.53308E+05 6.11797E+01-7.09070E+02 1.08573E+04 1.20506E-08-6.03745E-09
 -1       863-3.53397E+05 1.28815E+02-4.82624E+02 2.72060E+04 2.57431E-08-3.15094E-09
 -1       864-3.53315E+05 6.00335E+01-4.75506E+02 1.08544E+04 1.37921E-08-5.37642E-09
 -1       865-3.53414E+05 1.03764E+02-7.40621E+02 2.71974E+04 1.52704E-08-8.07819E-09
 -1       866-3.53278E+05 7.29568E+01-1.32357E+03 1.08659E+04 1.26965E-09 1.12570E-09
 -1       867-3.53674E+05-2.49392E+02-2.76976E+03 2.71576E+04 1.23055E-09 3.60318E-09
 -1       868-3.52998E+05 2.55685E+02-5.13244E+03 1.08948E+04 4.65661E-09-1.69575E-09
 -1       869-3.56689E+05-4.74638E+03-1.21850E+04 2.69963E+04-2.52658E-09-9.57016E-10
 -1       870-3.50164E+05 2.50988E+03-1.99586E+04 1.10304E+04 8.74024E-10-4.55839E-09
 -1       871-5.29055E+03-4.66346E+04-1.08069E+04 1.61378E+05 1.95905E-09-2.67937E-09
 -1       872-1.90303E+03-4.87673E+04-3.24416E+03 1.94701E+05 4.24006E-09 2.28101E-09
 -1       873-1.16952E+02-4.80509E+04 3.09160E+03 1.61050E+05 4.16821E-09 5.40194E-09
 -1       874 3.11601E+03-4.53678E+04 1.17021E+04 1.94830E+05 4.53656E-09 7.41113E-09
 -1       875 1.00964E+04-5.02886E+04 2.49395E+04 1.61274E+05 1.37334E-09 4.16730E-09
 -1       876 4.96377E+05 6.99938E+04 4.53346E+04 1.97692E+05 6.49607E-09 4.07454E-10
 -1       877 5.04741E+05 9.77661E+04 2.73043E+04 2.05961E+05-2.14322E-09-4.89626E-09
 -1       878 5.03322E+05 7.67705E+04 1.06362E+04 1.97733E+05-5.47288E-09-6.18502E-09
 -1       879 4.96604E+05 8.67932E+04 5.61168E+03 2.07184E+05 4.86125E-09-7.87441E-09
 -1       880 5.03958E+05 7.74192E+04 2.47204E+03 1.97782E+05 9.54446E-09 2.71189E-09
 -1       881 4.95848E+05 8.58468E+04 1.29760E+03 2.07178E+05 8.25787E-09-3.81908E-09
 -1       882 5.04012E+05 7.75035E+04 7.16848E+02 1.97803E+05-2.08854E-09 8.08527E-10
 -1       883 4.95788E+05 8.57595E+04 6.23999E+02 2.07145E+05-3.69005E-09 2.12162E-09
 -1       884 5.04001E+05 7.75075E+04 8.43670E+02 1.97807E+05-4.28116E-09 2.37776E-09
 -1       885 4.95891E+05 8.58543E+04 1.63889E+03 2.07154E+05-3.35197E-09 3.07477E-09
 -1       886 5.03912E+05 7.74170E+04 3.18407E+03 1.97792E+05-1.92347E-09 3.92356E-09
 -1       887 4.96890E+05 8.70548E+04 7.25788E+03 2.07117E+05 3.36786E-09 9.86711E-09
 -1       888 5.03064E+05 7.65973E+04 1.37728E+04 1.97743E+05-2.04886E-09 8.70295E-09
 -1       889 5.07424E+05 1.01259E+05 3.53568E+04 2.05510E+05 1.72043E-09 4.14184E-09
 -1       890 4.94068E+05 6.78241E+04 5.87144E+04 1.97678E+05 5.59157E-09 9.82254E-11
 -1       891 9.40609E+02-2.31508E+05-9.40185E+03 4.82109E+04 4.87944E-10-1.33514E-09
 -1       892-2.60603E+03-2.34465E+05-7.09765E+03 1.14594E+05-4.33647E-09-4.26303E-09
 -1       893 1.58519E+02-2.32616E+05-5.70567E+03 4.80499E+04-3.65344E-09 2.23520E-09
 -1       894-3.77846E+03-2.35241E+05-9.58048E+03 1.14577E+05-2.73303E-09 6.18547E-09
 -1       895 1.56786E+03-2.30690E+05-1.43352E+04 4.82267E+04-6.15455E-09 7.26232E-09
 -1       956-4.31880E+05-7.75298E+03-1.89882E+04 5.19309E+04-4.93310E-09-1.00317E-09
 -1       957-4.35618E+05-2.54995E+03-9.71899E+03 6.22372E+04-2.69483E-09-1.88084E-09
 -1       958-4.33620E+05-1.87513E+02-4.38299E+03 5.16023E+04 3.85990E-09-4.99631E-09
 -1       959-4.33966E+05 3.85684E+01-2.23367E+03 6.25956E+04-1.93995E-09-2.60343E-09
 -1       960-4.33834E+05 1.35344E+02-1.08834E+03 5.15681E+04-6.37556E-09-1.55023E-09
 -1       961-4.33902E+05 1.72056E+02-5.70160E+02 6.26351E+04-1.26238E-08 1.11186E-09
 -1       962-4.33907E+05 1.55322E+02-3.16731E+02 5.15617E+04-5.37239E-09-4.53883E-09
 -1       963-4.33932E+05 1.94873E+02-2.35100E+02 6.26436E+04-8.86484E-09-1.03682E-10
 -1       964-4.33934E+05 1.70278E+02-2.63900E+02 5.15593E+04 6.00448E-09-2.22371E-09
 -1       965-4.33958E+05 2.05085E+02-4.37982E+02 6.26441E+04 2.42171E-08-3.19369E-09
 -1       966-4.33919E+05 1.79508E+02-8.13674E+02 5.15611E+04 5.54792E-11-1.61344E-09
 -1       967-4.34048E+05 1.28775E+02-1.66432E+03 6.26225E+04-7.07132E-09 1.95996E-10
 -1       968-4.33790E+05-4.11090E+01-3.25904E+03 5.15815E+04-1.90357E-09-3.36058E-10
 -1       969-4.35311E+05-1.78228E+03-7.23377E+03 6.23988E+04-1.09139E-10-3.82113E-09
 -1       970-4.32514E+05-5.66417E+03-1.41293E+04 5.17931E+04 2.77942E-09-6.17365E-09
 -1       971-6.05498E+05 3.66136E+03-2.93493E+04 1.12391E+04-5.31509E-09 1.38698E-09
 -1       972-6.15033E+05-7.04878E+03-1.79164E+04 2.77986E+04-4.87626E-09-4.00360E-09
 -1       973-6.09661E+05 3.42460E+02-7.54701E+03 1.10330E+04-6.72844E-09-5.61522E-09
 -1       974-6.10596E+05-4.36016E+02-4.06826E+03 2.80705E+04-9.27685E-10-1.10942E-08
 -1       975-6.10072E+05 7.45492E+01-1.93998E+03 1.09638E+04-4.02270E-09-5.48880E-10
 -1       976-6.10221E+05 8.72084E+01-1.07165E+03 2.81753E+04-1.07009E-08-6.99481E-09
 -1       977-6.10132E+05 5.97448E+01-6.66007E+02 1.09274E+04 1.06168E-08-1.81672E-09
 -1       978-6.10210E+05 1.32837E+02-6.39157E+02 2.82234E+04 2.89997E-08-2.55147E-09
 -1       979-6.10132E+05 6.78865E+01-9.02990E+02 1.09156E+04 1.81126E-08-2.20206E-09
 -1       980-6.10292E+05 7.38479E+01-1.68879E+03 2.82217E+04 1.85387E-08-3.76005E-09
 -1       981-6.10049E+05 1.14546E+02-3.18983E+03 1.09291E+04 3.35604E-09 3.20944E-09
 -1       982-6.10990E+05-7.72690E+02-6.78871E+03 2.81667E+04-1.22054E-09-3.28924E-09
 -1       983-6.09386E+05 5.90655E+02-1.26134E+04 1.09715E+04 1.52531E-08-3.66117E-09
 -1       984-6.18507E+05-1.18161E+04-3.00066E+04 2.79748E+04-1.26624E-09-7.86167E-09
 -1       985-6.02441E+05 6.18635E+03-4.91286E+04 1.11289E+04 6.38647E-09-6.56655E-09
 -3
 9999
