
 stresses (elem, integ.pnt.,sxx,syy,szz,sxy,sxz,syz) for set ELALL and time  0.1000000E+01

         1   1  2.450950E+06  8.866428E+06  2.319987E+06 -1.811838E+06  1.091596E+05  9.160647E+05
         1   2  1.970673E+06  7.536544E+06  1.544497E+06 -1.677012E+06  3.687110E+05  4.232531E+05
         1   3  1.623602E+06  6.308022E+06  1.121120E+06 -1.737153E+06  4.326364E+05 -6.818534E+04
         1   4  1.149528E+05 -6.590333E+05  1.191895E+05 -1.710478E+06  1.120021E+05  7.860730E+04
         1   5  4.046856E+04 -6.661202E+05  6.363127E+04 -1.613220E+06  3.707052E+05  4.780868E+04
         1   6  2.047403E+04 -6.522520E+05  4.222349E+04 -1.710894E+06  4.326463E+05  1.722576E+04
         1   7 -2.226991E+06 -1.009986E+07 -2.085060E+06 -1.610502E+06  1.146095E+05 -7.462404E+05
         1   8 -1.893407E+06 -8.803459E+06 -1.419358E+06 -1.550149E+06  3.726427E+05 -3.228597E+05
         1   9 -1.585007E+06 -7.564425E+06 -1.037771E+06 -1.684820E+06  4.326632E+05  1.017220E+05
         1  10  2.450715E+06  8.865534E+06  2.318407E+06 -1.811918E+06 -2.885099E-09  2.491510E-08
         1  11  1.970479E+06  7.536316E+06  1.543907E+06 -1.677137E+06  1.315017E-08 -8.020226E-09
         1  12  1.623400E+06  6.307967E+06  1.120760E+06 -1.737130E+06  1.043876E-08 -4.183343E-08
         1  13  1.149376E+05 -6.590434E+05  1.191542E+05 -1.710486E+06 -4.972104E-09 -7.591852E-11
         1  14  4.032036E+04 -6.661596E+05  6.336860E+04 -1.613235E+06 -1.446093E-08  7.623249E-11
         1  15  2.027299E+04 -6.523026E+05  4.187120E+04 -1.710901E+06 -1.034645E-08  2.925853E-11
         1  16 -2.227157E+06 -1.010047E+07 -2.086147E+06 -1.610433E+06  4.796443E-09 -2.469216E-08
         1  17 -1.893584E+06 -8.803609E+06 -1.419816E+06 -1.550052E+06  1.651079E-09  7.755634E-09
         1  18 -1.585211E+06 -7.564486E+06 -1.038143E+06 -1.684856E+06  4.357550E-09  4.138645E-08
         1  19  2.450950E+06  8.866428E+06  2.319987E+06 -1.811838E+06 -1.091596E+05 -9.160647E+05
         1  20  1.970673E+06  7.536544E+06  1.544497E+06 -1.677012E+06 -3.687110E+05 -4.232531E+05
         1  21  1.623602E+06  6.308022E+06  1.121120E+06 -1.737153E+06 -4.326364E+05  6.818534E+04
         1  22  1.149528E+05 -6.590333E+05  1.191895E+05 -1.710478E+06 -1.120021E+05 -7.860730E+04
         1  23  4.046856E+04 -6.661202E+05  6.363127E+04 -1.613220E+06 -3.707052E+05 -4.780868E+04
         1  24  2.047403E+04 -6.522520E+05  4.222349E+04 -1.710894E+06 -4.326463E+05 -1.722576E+04
         1  25 -2.226991E+06 -1.009986E+07 -2.085060E+06 -1.610502E+06 -1.146095E+05  7.462404E+05
         1  26 -1.893407E+06 -8.803459E+06 -1.419358E+06 -1.550149E+06 -3.726427E+05  3.228597E+05
         1  27 -1.585007E+06 -7.564425E+06 -1.037771E+06 -1.684820E+06 -4.326632E+05 -1.017220E+05
         2   1  1.432189E+06  5.499855E+06  9.613388E+05 -1.742903E+06  4.028282E+05 -8.659106E+04
         2   2  1.129216E+06  4.213375E+06  7.235239E+05 -1.626780E+06  3.490936E+05 -1.643477E+05
         2   3  8.515956E+05  2.944733E+06  5.423383E+05 -1.720152E+06  2.700772E+05 -2.422180E+05
         2   4  2.016730E+04 -6.536722E+05  3.727445E+04 -1.714154E+06  4.026500E+05  1.078346E+04
         2   5  2.034782E+04 -6.545768E+05  3.667411E+04 -1.609341E+06  3.483719E+05 -7.653788E+03
         2   6  3.576217E+04 -6.494675E+05  5.174062E+04 -1.714114E+06  2.687091E+05 -2.635412E+04
         2   7 -1.393640E+06 -6.769382E+06 -8.875103E+05 -1.685602E+06  4.024793E+05  1.072373E+05
         2   8 -1.089569E+06 -5.498578E+06 -6.504088E+05 -1.591981E+06  3.476548E+05  1.478712E+05
         2   9 -7.806087E+05 -4.230463E+06 -4.388175E+05 -1.708075E+06  2.673394E+05  1.883214E+05
         2  10  1.432013E+06  5.499804E+06  9.610203E+05 -1.742875E+06  5.938685E-09  4.756512E-08
         2  11  1.129079E+06  4.213313E+06  7.232452E+05 -1.626734E+06  6.491597E-09  6.706373E-09
         2  12  8.515019E+05  2.944651E+06  5.420924E+05 -1.720099E+06  1.957199E-09 -3.402025E-08
         2  13  1.999322E+04 -6.537158E+05  3.696960E+04 -1.714158E+06 -2.019620E-09  1.205108E-10
         2  14  2.021754E+04 -6.546094E+05  3.644605E+04 -1.609339E+06 -3.977390E-09  5.321465E-11
         2  15  3.568451E+04 -6.494876E+05  5.160377E+04 -1.714108E+06 -6.678013E-09  1.837164E-10
         2  16 -1.393818E+06 -6.769438E+06 -8.878369E+05 -1.685637E+06  3.347134E-09 -4.704043E-08
         2  17 -1.089705E+06 -5.498634E+06 -6.506779E+05 -1.592022E+06  5.426824E-09 -6.558697E-09
         2  18 -7.806953E+05 -4.230521E+06 -4.390195E+05 -1.708116E+06  5.931728E-09  3.418563E-08
         2  19  1.432189E+06  5.499855E+06  9.613388E+05 -1.742903E+06 -4.028282E+05  8.659106E+04
         2  20  1.129216E+06  4.213375E+06  7.235239E+05 -1.626780E+06 -3.490936E+05  1.643477E+05
         2  21  8.515956E+05  2.944733E+06  5.423383E+05 -1.720152E+06 -2.700772E+05  2.422180E+05
         2  22  2.016730E+04 -6.536722E+05  3.727445E+04 -1.714154E+06 -4.026500E+05 -1.078346E+04
         2  23  2.034782E+04 -6.545768E+05  3.667411E+04 -1.609341E+06 -3.483719E+05  7.653788E+03
         2  24  3.576217E+04 -6.494675E+05  5.174062E+04 -1.714114E+06 -2.687091E+05  2.635412E+04
         2  25 -1.393640E+06 -6.769382E+06 -8.875103E+05 -1.685602E+06 -4.024793E+05 -1.072373E+05
         2  26 -1.089569E+06 -5.498578E+06 -6.504088E+05 -1.591981E+06 -3.476548E+05 -1.478712E+05
         2  27 -7.806087E+05 -4.230463E+06 -4.388175E+05 -1.708075E+06 -2.673394E+05 -1.883214E+05
         3   1  6.783127E+05  2.157519E+06  4.412506E+05 -1.721639E+06  2.151878E+05 -2.526284E+05
         3   2  4.347167E+05  8.682703E+05  3.113971E+05 -1.542580E+06  1.225587E+05 -3.103984E+05
         3   3  2.800151E+05 -3.914189E+05  2.408266E+05 -1.574712E+06  2.990001E+04 -3.681469E+05
         3   4  4.337807E+04 -6.436897E+05  6.487259E+04 -1.714505E+06  2.136952E+05 -3.550269E+04
         3   5  9.117481E+04 -6.568790E+05  1.125143E+05 -1.608433E+06  1.210063E+05 -9.335835E+04
         3   6  2.279640E+05 -6.422959E+05  2.193529E+05 -1.713431E+06  2.830234E+04 -1.512927E+05
         3   7 -5.918683E+05 -3.436814E+06 -3.113985E+05 -1.707382E+06  2.122027E+05  1.806913E+05
         3   8 -2.524207E+05 -2.179537E+06 -8.620284E+04 -1.674110E+06  1.194052E+05  1.231747E+05
         3   9  1.760096E+05 -8.929626E+05  1.980683E+05 -1.852091E+06  2.660720E+04  6.547951E+04
         3  10  6.782461E+05  2.157439E+06  4.410447E+05 -1.721595E+06  3.199063E-09 -6.160811E-08
         3  11  4.346749E+05  8.681630E+05  3.111885E+05 -1.542549E+06  2.702175E-09 -4.015299E-09
         3  12  2.799778E+05 -3.915647E+05  2.405702E+05 -1.574704E+06  1.746349E-09  5.370148E-08
         3  13  4.332875E+04 -6.437032E+05  6.478454E+04 -1.714499E+06  2.554777E-09 -1.175101E-10
         3  14  9.115680E+04 -6.568922E+05  1.124705E+05 -1.608424E+06  4.621995E-09 -1.493118E-10
         3  15  2.279571E+05 -6.423207E+05  2.193084E+05 -1.713428E+06 -1.575256E-09 -1.227572E-10
         3  16 -5.919256E+05 -3.436862E+06 -3.115453E+05 -1.707413E+06  8.491908E-10  6.177038E-08
         3  17 -2.524401E+05 -2.179557E+06 -8.625842E+04 -1.674122E+06  1.725029E-09  3.664046E-09
         3  18  1.760076E+05 -8.929674E+05  1.980588E+05 -1.852092E+06  4.556452E-10 -5.355864E-08
         3  19  6.783127E+05  2.157519E+06  4.412506E+05 -1.721639E+06 -2.151878E+05  2.526284E+05
         3  20  4.347167E+05  8.682703E+05  3.113971E+05 -1.542580E+06 -1.225587E+05  3.103984E+05
         3  21  2.800151E+05 -3.914189E+05  2.408266E+05 -1.574712E+06 -2.990001E+04  3.681469E+05
         3  22  4.337807E+04 -6.436897E+05  6.487259E+04 -1.714505E+06 -2.136952E+05  3.550269E+04
         3  23  9.117481E+04 -6.568790E+05  1.125143E+05 -1.608433E+06 -1.210063E+05  9.335835E+04
         3  24  2.279640E+05 -6.422959E+05  2.193529E+05 -1.713431E+06 -2.830234E+04  1.512927E+05
         3  25 -5.918683E+05 -3.436814E+06 -3.113985E+05 -1.707382E+06 -2.122027E+05 -1.806913E+05
         3  26 -2.524207E+05 -2.179537E+06 -8.620284E+04 -1.674110E+06 -1.194052E+05 -1.231747E+05
         3  27  1.760096E+05 -8.929626E+05  1.980683E+05 -1.852091E+06 -2.660720E+04 -6.547951E+04
         4   1 -6.305121E+06 -1.610120E+06 -1.109483E+06 -2.219951E+06 -1.058254E+06 -4.129307E+05
         4   2 -6.044309E+06 -2.111945E+05 -1.504660E+05 -2.686448E+06 -6.726313E+05 -2.972454E+05
         4   3 -6.611095E+06 -3.145788E+05  7.346084E+04 -2.516222E+06 -3.011385E+05 -1.446467E+05
         4   4 -8.556766E+06 -2.284469E+06 -1.697171E+06 -2.645415E+06 -1.065164E+06 -4.159288E+05
         4   5 -8.053497E+06 -9.309379E+05 -6.944812E+05 -3.188919E+06 -6.727443E+05 -2.973641E+05
         4   6 -8.381469E+06 -1.084530E+06 -4.344293E+05 -3.095120E+06 -2.943049E+05 -1.419791E+05
         4   7 -1.080347E+07 -2.958921E+06 -2.285255E+06 -3.069679E+06 -1.072038E+06 -4.189203E+05
         4   8 -1.005877E+07 -1.650559E+06 -1.238856E+06 -3.689954E+06 -6.728533E+05 -2.974816E+05
         4   9 -1.014877E+07 -1.854025E+06 -9.426288E+05 -3.672413E+06 -2.874918E+05 -1.393216E+05
         4  10 -6.306381E+06 -1.610610E+06 -1.111936E+06 -2.220306E+06  2.870129E-09  5.771509E-10
         4  11 -6.044823E+06 -2.114135E+05 -1.514944E+05 -2.686610E+06  5.246092E-09  9.897458E-10
         4  12 -6.611199E+06 -3.146262E+05  7.324856E+04 -2.516257E+06 -1.382131E-09 -2.291068E-10
         4  13 -8.558047E+06 -2.284968E+06 -1.699666E+06 -2.645775E+06 -4.470003E-09  4.307313E-10
         4  14 -8.054012E+06 -9.311578E+05 -6.955135E+05 -3.189081E+06 -8.848310E-10  1.543970E-10
         4  15 -8.381568E+06 -1.084576E+06 -4.346330E+05 -3.095154E+06  2.023403E-09 -1.393657E-09
         4  16 -1.080477E+07 -2.959428E+06 -2.287792E+06 -3.070045E+06 -4.984590E-10  5.851746E-10
         4  17 -1.005929E+07 -1.650779E+06 -1.239892E+06 -3.690117E+06 -4.738981E-09  1.975200E-09
         4  18 -1.014886E+07 -1.854069E+06 -9.428242E+05 -3.672445E+06 -8.767873E-10 -9.015565E-10
         4  19 -6.305121E+06 -1.610120E+06 -1.109483E+06 -2.219951E+06  1.058254E+06  4.129307E+05
         4  20 -6.044309E+06 -2.111945E+05 -1.504660E+05 -2.686448E+06  6.726313E+05  2.972454E+05
         4  21 -6.611095E+06 -3.145788E+05  7.346084E+04 -2.516222E+06  3.011385E+05  1.446467E+05
         4  22 -8.556766E+06 -2.284469E+06 -1.697171E+06 -2.645415E+06  1.065164E+06  4.159288E+05
         4  23 -8.053497E+06 -9.309379E+05 -6.944812E+05 -3.188919E+06  6.727443E+05  2.973641E+05
         4  24 -8.381469E+06 -1.084530E+06 -4.344293E+05 -3.095120E+06  2.943049E+05  1.419791E+05
         4  25 -1.080347E+07 -2.958921E+06 -2.285255E+06 -3.069679E+06  1.072038E+06  4.189203E+05
         4  26 -1.005877E+07 -1.650559E+06 -1.238856E+06 -3.689954E+06  6.728533E+05  2.974816E+05
         4  27 -1.014877E+07 -1.854025E+06 -9.426288E+05 -3.672413E+06  2.874918E+05  1.393216E+05
         5   1 -7.528049E+06 -9.451084E+05 -1.309149E+05 -2.733811E+06 -2.343419E+05 -1.075382E+05
         5   2 -7.581778E+06 -1.001186E+06 -1.068900E+04 -3.050666E+06 -1.518510E+05 -6.958198E+04
         5   3 -8.083434E+06 -9.566736E+05 -2.095262E+04 -2.921874E+06 -7.166970E+04 -2.580325E+04
         5   4 -8.371290E+06 -1.244365E+06 -3.588370E+05 -2.941859E+06 -2.335675E+05 -1.072546E+05
         5   5 -8.133836E+06 -1.207989E+06 -1.621549E+05 -3.197745E+06 -1.499026E+05 -6.883398E+04
         5   6 -8.344792E+06 -1.071406E+06 -9.706155E+04 -3.007976E+06 -6.850406E+04 -2.457788E+04
         5   7 -9.213839E+06 -1.543603E+06 -5.868220E+05 -3.149659E+06 -2.327941E+05 -1.069713E+05
         5   8 -8.685597E+06 -1.414777E+06 -3.136484E+05 -3.344706E+06 -1.479560E+05 -6.808667E+04
         5   9 -8.606082E+06 -1.186129E+06 -1.731771E+05 -3.094041E+06 -6.533991E+04 -2.335325E+04
         5  10 -7.528112E+06 -9.451359E+05 -1.310415E+05 -2.733832E+06  1.624827E-09 -2.300113E-09
         5  11 -7.581804E+06 -1.001197E+06 -1.074218E+04 -3.050675E+06  2.142401E-09  2.465711E-09
         5  12 -8.083440E+06 -9.566757E+05 -2.096369E+04 -2.921876E+06  2.195746E-10 -1.404987E-09
         5  13 -8.371352E+06 -1.244392E+06 -3.589631E+05 -2.941879E+06 -4.657477E-11 -2.423555E-09
         5  14 -8.133862E+06 -1.208000E+06 -1.622068E+05 -3.197754E+06  4.952245E-09 -7.788486E-10
         5  15 -8.344797E+06 -1.071408E+06 -9.707166E+04 -3.007977E+06 -2.280501E-09  1.020336E-09
         5  16 -9.213901E+06 -1.543630E+06 -5.869474E+05 -3.149679E+06 -2.410664E-09 -2.501806E-09
         5  17 -8.685622E+06 -1.414788E+06 -3.136991E+05 -3.344715E+06 -5.771392E-10 -1.149663E-09
         5  18 -8.606087E+06 -1.186131E+06 -1.731863E+05 -3.094042E+06 -9.350228E-10  2.736724E-09
         5  19 -7.528049E+06 -9.451084E+05 -1.309149E+05 -2.733811E+06  2.343419E+05  1.075382E+05
         5  20 -7.581778E+06 -1.001186E+06 -1.068900E+04 -3.050666E+06  1.518510E+05  6.958198E+04
         5  21 -8.083434E+06 -9.566736E+05 -2.095262E+04 -2.921874E+06  7.166970E+04  2.580325E+04
         5  22 -8.371290E+06 -1.244365E+06 -3.588370E+05 -2.941859E+06  2.335675E+05  1.072546E+05
         5  23 -8.133836E+06 -1.207989E+06 -1.621549E+05 -3.197745E+06  1.499026E+05  6.883398E+04
         5  24 -8.344792E+06 -1.071406E+06 -9.706155E+04 -3.007976E+06  6.850406E+04  2.457788E+04
         5  25 -9.213839E+06 -1.543603E+06 -5.868220E+05 -3.149659E+06  2.327941E+05  1.069713E+05
         5  26 -8.685597E+06 -1.414777E+06 -3.136484E+05 -3.344706E+06  1.479560E+05  6.808667E+04
         5  27 -8.606082E+06 -1.186129E+06 -1.731771E+05 -3.094041E+06  6.533991E+04  2.335325E+04
         6   1 -9.295244E+06 -1.487652E+06 -3.476222E+05 -3.275954E+06 -6.021590E+04 -1.201683E+04
         6   2 -9.383457E+06 -1.698070E+06 -3.745259E+05 -3.515229E+06 -4.380117E+04  6.334635E+03
         6   3 -9.778529E+06 -1.644186E+06 -4.247283E+05 -3.409478E+06 -2.581834E+04  2.070451E+04
         6   4 -8.324641E+06 -1.108302E+06 -7.677469E+04 -3.002296E+06 -5.752530E+04 -1.097975E+04
         6   5 -8.169515E+06 -1.229760E+06 -3.824795E+04 -3.178827E+06 -4.196554E+04  7.035729E+03
         6   6 -8.321067E+06 -1.086736E+06 -2.230152E+04 -3.010405E+06 -2.483029E+04  2.107667E+04
         6   7 -7.353118E+06 -7.288851E+05  1.939845E+05 -2.728242E+06 -5.482990E+04 -9.940773E+03
         6   8 -6.954136E+06 -7.613547E+05  2.978931E+05 -2.841818E+06 -4.012581E+04  7.738405E+03
         6   9 -6.861532E+06 -5.291590E+05  3.799287E+05 -2.610473E+06 -2.383962E+04  2.144984E+04
         6  10 -9.295248E+06 -1.487653E+06 -3.476294E+05 -3.275954E+06 -2.415237E-09 -2.142331E-09
         6  11 -9.383459E+06 -1.698071E+06 -3.745296E+05 -3.515229E+06  6.568652E-10  1.048576E-10
         6  12 -9.778530E+06 -1.644187E+06 -4.247304E+05 -3.409477E+06 -5.448288E-09 -1.093419E-09
         6  13 -8.324645E+06 -1.108303E+06 -7.678123E+04 -3.002297E+06 -1.331435E-09  3.083026E-09
         6  14 -8.169517E+06 -1.229761E+06 -3.825139E+04 -3.178826E+06  1.455271E-09  4.123142E-09
         6  15 -8.321067E+06 -1.086737E+06 -2.230351E+04 -3.010405E+06 -9.925473E-10  2.112595E-09
         6  16 -7.353122E+06 -7.288860E+05  1.939786E+05 -2.728243E+06  3.085396E-09  1.046578E-09
         6  17 -6.954138E+06 -7.613552E+05  2.978899E+05 -2.841818E+06  2.719111E-09  9.490221E-10
         6  18 -6.861533E+06 -5.291596E+05  3.799267E+05 -2.610473E+06 -3.732465E-09  1.608197E-09
         6  19 -9.295244E+06 -1.487652E+06 -3.476222E+05 -3.275954E+06  6.021590E+04  1.201683E+04
         6  20 -9.383457E+06 -1.698070E+06 -3.745259E+05 -3.515229E+06  4.380117E+04 -6.334635E+03
         6  21 -9.778529E+06 -1.644186E+06 -4.247283E+05 -3.409478E+06  2.581834E+04 -2.070451E+04
         6  22 -8.324641E+06 -1.108302E+06 -7.677469E+04 -3.002296E+06  5.752530E+04  1.097975E+04
         6  23 -8.169515E+06 -1.229760E+06 -3.824795E+04 -3.178827E+06  4.196554E+04 -7.035729E+03
         6  24 -8.321067E+06 -1.086736E+06 -2.230152E+04 -3.010405E+06  2.483029E+04 -2.107667E+04
         6  25 -7.353118E+06 -7.288851E+05  1.939845E+05 -2.728242E+06  5.482990E+04  9.940773E+03
         6  26 -6.954136E+06 -7.613547E+05  2.978931E+05 -2.841818E+06  4.012581E+04 -7.738405E+03
         6  27 -6.861532E+06 -5.291590E+05  3.799287E+05 -2.610473E+06  2.383962E+04 -2.144984E+04
         7   1 -1.042927E+07 -1.969648E+06 -6.161440E+05 -3.658784E+06 -2.578638E+04  2.576728E+04
         7   2 -1.046876E+07 -2.018546E+06 -6.266073E+05 -3.711610E+06 -2.046894E+04  3.458453E+04
         7   3 -1.054557E+07 -1.999462E+06 -6.362358E+05 -3.678033E+06 -1.209326E+04  3.531916E+04
         7   4 -8.263341E+06 -1.139524E+06 -1.615228E+04 -3.064702E+06 -2.360496E+04  2.658689E+04
         7   5 -8.244761E+06 -1.172830E+06 -1.266397E+04 -3.108216E+06 -2.005495E+04  3.472925E+04
         7   6 -8.263049E+06 -1.137749E+06 -6.899121E+03 -3.065342E+06 -1.345129E+04  3.480332E+04
         7   7 -6.092844E+06 -3.091170E+05  5.834001E+05 -2.468716E+06 -2.141497E+04  2.740979E+04
         7   8 -6.015948E+06 -3.268308E+05  6.008200E+05 -2.502838E+06 -1.963928E+04  3.487463E+04
         7   9 -5.975460E+06 -2.757529E+05  6.219562E+05 -2.450587E+06 -1.481491E+04  3.428543E+04
         7  10 -1.042928E+07 -1.969649E+06 -6.161465E+05 -3.658783E+06 -9.305629E-10 -2.102904E-09
         7  11 -1.046876E+07 -2.018547E+06 -6.266103E+05 -3.711610E+06 -2.704589E-09 -9.866780E-10
         7  12 -1.054557E+07 -1.999464E+06 -6.362384E+05 -3.678033E+06 -3.332819E-09 -1.077519E-09
         7  13 -8.263342E+06 -1.139525E+06 -1.615465E+04 -3.064701E+06 -6.561442E-09 -1.661850E-10
         7  14 -8.244762E+06 -1.172831E+06 -1.266698E+04 -3.108215E+06 -1.711181E-09 -2.322564E-09
         7  15 -8.263049E+06 -1.137750E+06 -6.901726E+03 -3.065341E+06 -2.576217E-10 -5.816865E-10
         7  16 -6.092845E+06 -3.091179E+05  5.833978E+05 -2.468715E+06 -3.007356E-09 -2.115360E-09
         7  17 -6.015949E+06 -3.268322E+05  6.008170E+05 -2.502837E+06  5.275454E-09  4.178890E-10
         7  18 -5.975461E+06 -2.757542E+05  6.219536E+05 -2.450587E+06  3.804385E-09 -6.670413E-10
         7  19 -1.042927E+07 -1.969648E+06 -6.161440E+05 -3.658784E+06  2.578638E+04 -2.576728E+04
         7  20 -1.046876E+07 -2.018546E+06 -6.266073E+05 -3.711610E+06  2.046894E+04 -3.458453E+04
         7  21 -1.054557E+07 -1.999462E+06 -6.362358E+05 -3.678033E+06  1.209326E+04 -3.531916E+04
         7  22 -8.263341E+06 -1.139524E+06 -1.615228E+04 -3.064702E+06  2.360496E+04 -2.658689E+04
         7  23 -8.244761E+06 -1.172830E+06 -1.266397E+04 -3.108216E+06  2.005495E+04 -3.472925E+04
         7  24 -8.263049E+06 -1.137749E+06 -6.899121E+03 -3.065342E+06  1.345129E+04 -3.480332E+04
         7  25 -6.092844E+06 -3.091170E+05  5.834001E+05 -2.468716E+06  2.141497E+04 -2.740979E+04
         7  26 -6.015948E+06 -3.268308E+05  6.008200E+05 -2.502838E+06  1.963928E+04 -3.487463E+04
         7  27 -5.975460E+06 -2.757529E+05  6.219562E+05 -2.450587E+06  1.481491E+04 -3.428543E+04
         8   1 -1.021509E+07 -1.955012E+06 -5.607045E+05 -3.672499E+06 -1.210759E+04  3.341650E+04
         8   2 -1.016004E+07 -1.787690E+06 -5.184096E+05 -3.509765E+06 -4.140671E+03  3.327734E+04
         8   3 -9.885676E+06 -1.822672E+06 -4.776212E+05 -3.575929E+06  6.231794E+03  2.643975E+04
         8   4 -8.205787E+06 -1.198458E+06 -7.589491E+03 -3.135009E+06 -1.196590E+04  3.346009E+04
         8   5 -8.315711E+06 -1.097394E+06 -1.159242E+04 -3.020669E+06 -5.463137E+03  3.278495E+04
         8   6 -8.206049E+06 -1.198259E+06 -1.591275E+04 -3.135190E+06  3.439545E+03  2.542030E+04
         8   7 -6.192559E+06 -4.416892E+05  5.451524E+05 -2.595927E+06 -1.182371E+04  3.350388E+04
         8   8 -6.468079E+06 -4.069248E+05  4.949120E+05 -2.530246E+06 -6.790020E+03  3.229095E+04
         8   9 -6.523686E+06 -5.737127E+05  4.455371E+05 -2.693364E+06  6.388408E+02  2.439780E+04
         8  10 -1.021509E+07 -1.955014E+06 -5.607069E+05 -3.672499E+06 -1.479745E-09 -6.902197E-11
         8  11 -1.016004E+07 -1.787691E+06 -5.184117E+05 -3.509765E+06  3.380436E-09  4.493764E-09
         8  12 -9.885676E+06 -1.822673E+06 -4.776226E+05 -3.575929E+06  1.342704E-09 -1.370973E-09
         8  13 -8.205787E+06 -1.198459E+06 -7.591854E+03 -3.135008E+06  4.233251E-10 -1.404821E-09
         8  14 -8.315711E+06 -1.097395E+06 -1.159449E+04 -3.020669E+06  1.350525E-09 -6.733738E-10
         8  15 -8.206049E+06 -1.198260E+06 -1.591399E+04 -3.135190E+06 -3.251161E-09  8.186055E-10
         8  16 -6.192559E+06 -4.416905E+05  5.451500E+05 -2.595927E+06  2.645335E-09 -5.776835E-10
         8  17 -6.468079E+06 -4.069259E+05  4.949100E+05 -2.530246E+06  3.386882E-10  1.300693E-09
         8  18 -6.523686E+06 -5.737133E+05  4.455360E+05 -2.693364E+06 -3.370731E-09  8.718328E-10
         8  19 -1.021509E+07 -1.955012E+06 -5.607045E+05 -3.672499E+06  1.210759E+04 -3.341650E+04
         8  20 -1.016004E+07 -1.787690E+06 -5.184096E+05 -3.509765E+06  4.140671E+03 -3.327734E+04
         8  21 -9.885676E+06 -1.822672E+06 -4.776212E+05 -3.575929E+06 -6.231794E+03 -2.643975E+04
         8  22 -8.205787E+06 -1.198458E+06 -7.589491E+03 -3.135009E+06  1.196590E+04 -3.346009E+04
         8  23 -8.315711E+06 -1.097394E+06 -1.159242E+04 -3.020669E+06  5.463137E+03 -3.278495E+04
         8  24 -8.206049E+06 -1.198259E+06 -1.591275E+04 -3.135190E+06 -3.439545E+03 -2.542030E+04
         8  25 -6.192559E+06 -4.416892E+05  5.451524E+05 -2.595927E+06  1.182371E+04 -3.350388E+04
         8  26 -6.468079E+06 -4.069248E+05  4.949120E+05 -2.530246E+06  6.790020E+03 -3.229095E+04
         8  27 -6.523686E+06 -5.737127E+05  4.455371E+05 -2.693364E+06 -6.388408E+02 -2.439780E+04
         9   1 -8.765744E+06 -1.446263E+06 -1.814358E+05 -3.330422E+06  1.091066E+04  2.054080E+04
         9   2 -8.644491E+06 -1.163011E+06 -1.182390E+05 -3.051458E+06  3.333066E+04  1.762667E+04
         9   3 -8.201931E+06 -1.253504E+06 -7.912442E+04 -3.167688E+06  5.597214E+04  1.408821E+04
         9   4 -8.181465E+06 -1.227511E+06 -2.175964E+04 -3.175017E+06  8.820091E+03  1.978255E+04
         9   5 -8.343675E+06 -1.052051E+06 -3.595920E+04 -2.973309E+06  3.110910E+04  1.682239E+04
         9   6 -8.184641E+06 -1.250296E+06 -7.412767E+04 -3.166818E+06  5.360993E+04  1.323468E+04
         9   7 -7.596855E+06 -1.008740E+06  1.378854E+05 -3.019478E+06  6.727337E+03  1.902348E+04
         9   8 -8.042772E+06 -9.410875E+05  4.631229E+04 -2.895127E+06  2.888634E+04  1.601768E+04
         9   9 -8.167351E+06 -1.247088E+06 -6.913092E+04 -3.165948E+06  5.124765E+04  1.238115E+04
         9  10 -8.765744E+06 -1.446264E+06 -1.814368E+05 -3.330422E+06  3.567310E-09  1.976099E-09
         9  11 -8.644492E+06 -1.163012E+06 -1.182417E+05 -3.051459E+06 -1.481354E-09 -3.297904E-09
         9  12 -8.201934E+06 -1.253505E+06 -7.913077E+04 -3.167689E+06  2.254869E-09  3.438119E-10
         9  13 -8.181465E+06 -1.227511E+06 -2.176053E+04 -3.175017E+06  3.142673E-09  4.802272E-10
         9  14 -8.343676E+06 -1.052052E+06 -3.596159E+04 -2.973310E+06 -2.976040E-09 -7.669522E-09
         9  15 -8.184644E+06 -1.250297E+06 -7.413348E+04 -3.166819E+06 -3.677095E-09  7.672633E-10
         9  16 -7.596855E+06 -1.008740E+06  1.378846E+05 -3.019478E+06 -1.344511E-09 -6.356479E-10
         9  17 -8.042773E+06 -9.410880E+05  4.631021E+04 -2.895127E+06 -6.948218E-09  8.364153E-09
         9  18 -8.167353E+06 -1.247089E+06 -6.913622E+04 -3.165948E+06 -6.487140E-09  2.846307E-09
         9  19 -8.765744E+06 -1.446263E+06 -1.814358E+05 -3.330422E+06 -1.091066E+04 -2.054080E+04
         9  20 -8.644491E+06 -1.163011E+06 -1.182390E+05 -3.051458E+06 -3.333066E+04 -1.762667E+04
         9  21 -8.201931E+06 -1.253504E+06 -7.912442E+04 -3.167688E+06 -5.597214E+04 -1.408821E+04
         9  22 -8.181465E+06 -1.227511E+06 -2.175964E+04 -3.175017E+06 -8.820091E+03 -1.978255E+04
         9  23 -8.343675E+06 -1.052051E+06 -3.595920E+04 -2.973309E+06 -3.110910E+04 -1.682239E+04
         9  24 -8.184641E+06 -1.250296E+06 -7.412767E+04 -3.166818E+06 -5.360993E+04 -1.323468E+04
         9  25 -7.596855E+06 -1.008740E+06  1.378854E+05 -3.019478E+06 -6.727337E+03 -1.902348E+04
         9  26 -8.042772E+06 -9.410875E+05  4.631229E+04 -2.895127E+06 -2.888634E+04 -1.601768E+04
         9  27 -8.167351E+06 -1.247088E+06 -6.913092E+04 -3.165948E+06 -5.124765E+04 -1.238115E+04
        10   1 -6.983591E+06 -7.641380E+05  2.412845E+05 -2.854144E+06  7.357371E+04  1.147287E+04
        10   2 -6.876395E+06 -5.026477E+05  2.372967E+05 -2.620500E+06  1.584113E+05  3.015251E+04
        10   3 -6.588934E+06 -7.375520E+05  1.121813E+05 -2.639583E+06  2.399909E+05  5.799862E+04
        10   4 -8.206779E+06 -1.205528E+06 -9.210121E+04 -3.161610E+06  7.007835E+04  1.020784E+04
        10   5 -8.308278E+06 -1.041461E+06 -1.559977E+05 -3.004416E+06  1.567651E+05  2.954618E+04
        10   6 -8.230149E+06 -1.374579E+06 -3.427406E+05 -3.099984E+06  2.401600E+05  5.804357E+04
        10   7 -9.428524E+06 -1.646869E+06 -4.256225E+05 -3.468535E+06  6.659049E+04  8.945336E+03
        10   8 -9.738177E+06 -1.580164E+06 -5.494809E+05 -3.387523E+06  1.551228E+05  2.894128E+04
        10   9 -9.868752E+06 -2.011414E+06 -7.979144E+05 -3.559257E+06  2.403279E+05  5.808798E+04
        10  10 -6.983597E+06 -7.641396E+05  2.412740E+05 -2.854145E+06  1.895209E-09  2.062261E-09
        10  11 -6.876423E+06 -5.026555E+05  2.372472E+05 -2.620504E+06  9.156961E-10  9.348738E-09
        10  12 -6.588998E+06 -7.375713E+05  1.120654E+05 -2.639594E+06 -1.717284E-10 -9.223498E-10
        10  13 -8.206784E+06 -1.205530E+06 -9.211077E+04 -3.161611E+06 -3.486082E-09  4.419079E-09
        10  14 -8.308305E+06 -1.041469E+06 -1.560462E+05 -3.004420E+06  3.386049E-09  1.597170E-09
        10  15 -8.230212E+06 -1.374599E+06 -3.428570E+05 -3.099996E+06 -8.906691E-09  1.312389E-10
        10  16 -9.428529E+06 -1.646870E+06 -4.256311E+05 -3.468536E+06 -5.102107E-09 -7.738304E-09
        10  17 -9.738203E+06 -1.580171E+06 -5.495285E+05 -3.387527E+06  2.000427E-09  6.251065E-10
        10  18 -9.868816E+06 -2.011434E+06 -7.980313E+05 -3.559268E+06 -8.580825E-10  4.445820E-10
        10  19 -6.983591E+06 -7.641380E+05  2.412845E+05 -2.854144E+06 -7.357371E+04 -1.147287E+04
        10  20 -6.876395E+06 -5.026477E+05  2.372967E+05 -2.620500E+06 -1.584113E+05 -3.015251E+04
        10  21 -6.588934E+06 -7.375520E+05  1.121813E+05 -2.639583E+06 -2.399909E+05 -5.799862E+04
        10  22 -8.206779E+06 -1.205528E+06 -9.210121E+04 -3.161610E+06 -7.007835E+04 -1.020784E+04
        10  23 -8.308278E+06 -1.041461E+06 -1.559977E+05 -3.004416E+06 -1.567651E+05 -2.954618E+04
        10  24 -8.230149E+06 -1.374579E+06 -3.427406E+05 -3.099984E+06 -2.401600E+05 -5.804357E+04
        10  25 -9.428524E+06 -1.646869E+06 -4.256225E+05 -3.468535E+06 -6.659049E+04 -8.945336E+03
        10  26 -9.738177E+06 -1.580164E+06 -5.494809E+05 -3.387523E+06 -1.551228E+05 -2.894128E+04
        10  27 -9.868752E+06 -2.011414E+06 -7.979144E+05 -3.559257E+06 -2.403279E+05 -5.808798E+04
        11   1 -6.021752E+06 -3.441322E+05  2.032794E+05 -2.608864E+06  3.107664E+05  7.590820E+04
        11   2 -5.883942E+06 -1.897174E+03 -4.281162E+04 -2.477718E+06  6.728512E+05  2.037691E+05
        11   3 -6.342306E+06 -1.279203E+06 -9.893041E+05 -1.945780E+06  1.021123E+06  3.686713E+05
        11   4 -8.333709E+06 -1.128710E+06 -4.152252E+05 -3.139493E+06  3.046826E+05  7.370508E+04
        11   5 -8.117361E+06 -8.893959E+05 -6.649890E+05 -3.125840E+06  6.737269E+05  2.040230E+05
        11   6 -8.500860E+06 -2.274699E+06 -1.622721E+06 -2.710753E+06  1.028979E+06  3.712650E+05
        11   7 -1.064050E+07 -1.913236E+06 -1.034191E+06 -3.668428E+06  2.986219E+05  7.150857E+04
        11   8 -1.034593E+07 -1.776470E+06 -1.287636E+06 -3.771780E+06  6.745950E+05  2.042736E+05
        11   9 -1.065479E+07 -3.269247E+06 -2.256604E+06 -3.473069E+06  1.036798E+06  3.738382E+05
        11  10 -6.021858E+06 -3.441648E+05  2.030849E+05 -2.608883E+06  3.605332E-09 -2.121417E-09
        11  11 -5.884443E+06 -2.065482E+03 -4.375099E+04 -2.477829E+06 -1.281831E-09  2.337146E-09
        11  12 -6.343473E+06 -1.279634E+06 -9.915442E+05 -1.946086E+06 -1.640288E-09 -1.068516E-10
        11  13 -8.333811E+06 -1.128741E+06 -4.154127E+05 -3.139511E+06 -8.328351E-09 -9.238550E-10
        11  14 -8.117865E+06 -8.895654E+05 -6.659345E+05 -3.125951E+06 -5.704785E-09 -3.291879E-09
        11  15 -8.502049E+06 -2.275139E+06 -1.625005E+06 -2.711064E+06 -2.148988E-09  1.173406E-09
        11  16 -1.064060E+07 -1.913266E+06 -1.034372E+06 -3.668445E+06 -2.540422E-09  5.088173E-10
        11  17 -1.034644E+07 -1.776641E+06 -1.288588E+06 -3.771892E+06 -2.728159E-09 -2.333359E-09
        11  18 -1.065600E+07 -3.269695E+06 -2.258931E+06 -3.473385E+06 -1.566232E-09 -1.994832E-10
        11  19 -6.021752E+06 -3.441322E+05  2.032794E+05 -2.608864E+06 -3.107664E+05 -7.590820E+04
        11  20 -5.883942E+06 -1.897174E+03 -4.281162E+04 -2.477718E+06 -6.728512E+05 -2.037691E+05
        11  21 -6.342306E+06 -1.279203E+06 -9.893041E+05 -1.945780E+06 -1.021123E+06 -3.686713E+05
        11  22 -8.333709E+06 -1.128710E+06 -4.152252E+05 -3.139493E+06 -3.046826E+05 -7.370508E+04
        11  23 -8.117361E+06 -8.893959E+05 -6.649890E+05 -3.125840E+06 -6.737269E+05 -2.040230E+05
        11  24 -8.500860E+06 -2.274699E+06 -1.622721E+06 -2.710753E+06 -1.028979E+06 -3.712650E+05
        11  25 -1.064050E+07 -1.913236E+06 -1.034191E+06 -3.668428E+06 -2.986219E+05 -7.150857E+04
        11  26 -1.034593E+07 -1.776470E+06 -1.287636E+06 -3.771780E+06 -6.745950E+05 -2.042736E+05
        11  27 -1.065479E+07 -3.269247E+06 -2.256604E+06 -3.473069E+06 -1.036798E+06 -3.738382E+05
        12   1  1.411589E+05 -7.460973E+05  1.351010E+05 -2.185544E+02  2.025911E+04 -5.602201E+00
        12   2  1.408226E+05 -7.475376E+05  1.347485E+05  7.315892E+01  2.022378E+04  5.217274E+00
        12   3  1.405205E+05 -7.486921E+05  1.344572E+05 -4.922013E+02  2.014591E+04  1.595864E+01
        12   4 -5.506775E+01 -1.316391E+06 -3.530687E+01 -1.904728E+02  2.026036E+04  2.486001E+00
        12   5 -6.895821E+01 -1.316532E+06 -7.583723E+01  2.380986E+02  2.022502E+04  3.777038E+01
        12   6 -5.293525E+01 -1.316391E+06 -7.230026E+01 -1.904475E+02  2.014711E+04  7.297701E+01
        12   7 -1.412925E+05 -1.886386E+06 -1.351942E+05 -1.624106E+02  2.026162E+04  1.056680E+01
        12   8 -1.409838E+05 -1.885228E+06 -1.349228E+05  4.029148E+02  2.022626E+04  7.029376E+01
        12   9 -1.406496E+05 -1.883793E+06 -1.346242E+05  1.110793E+02  2.014831E+04  1.299434E+02
        12  10  1.411585E+05 -7.460974E+05  1.351002E+05 -2.185543E+02 -1.813701E-09  4.285119E-10
        12  11  1.408222E+05 -7.475377E+05  1.347478E+05  7.315883E+01 -9.389314E-10 -1.349521E-09
        12  12  1.405201E+05 -7.486922E+05  1.344564E+05 -4.922015E+02  3.808029E-10 -1.725896E-09
        12  13 -5.550827E+01 -1.316391E+06 -3.607777E+01 -1.904729E+02  1.489165E-09  6.369913E-11
        12  14 -6.939719E+01 -1.316532E+06 -7.660545E+01  2.380980E+02  6.205673E-09 -3.018933E-12
        12  15 -5.337085E+01 -1.316391E+06 -7.306258E+01 -1.904487E+02  4.148411E-09  1.517665E-10
        12  16 -1.412929E+05 -1.886386E+06 -1.351950E+05 -1.624108E+02 -3.990915E-09 -3.643121E-10
        12  17 -1.409843E+05 -1.885228E+06 -1.349235E+05  4.029137E+02 -1.371594E-09  5.055474E-10
        12  18 -1.406500E+05 -1.883793E+06 -1.346250E+05  1.110772E+02 -6.333611E-10  1.541637E-09
        12  19  1.411589E+05 -7.460973E+05  1.351010E+05 -2.185544E+02 -2.025911E+04  5.602201E+00
        12  20  1.408226E+05 -7.475376E+05  1.347485E+05  7.315892E+01 -2.022378E+04 -5.217274E+00
        12  21  1.405205E+05 -7.486921E+05  1.344572E+05 -4.922013E+02 -2.014591E+04 -1.595864E+01
        12  22 -5.506775E+01 -1.316391E+06 -3.530687E+01 -1.904728E+02 -2.026036E+04 -2.486001E+00
        12  23 -6.895821E+01 -1.316532E+06 -7.583723E+01  2.380986E+02 -2.022502E+04 -3.777038E+01
        12  24 -5.293525E+01 -1.316391E+06 -7.230026E+01 -1.904475E+02 -2.014711E+04 -7.297701E+01
        12  25 -1.412925E+05 -1.886386E+06 -1.351942E+05 -1.624106E+02 -2.026162E+04 -1.056680E+01
        12  26 -1.409838E+05 -1.885228E+06 -1.349228E+05  4.029148E+02 -2.022626E+04 -7.029376E+01
        12  27 -1.406496E+05 -1.883793E+06 -1.346242E+05  1.110793E+02 -2.014831E+04 -1.299434E+02
        13   1  1.397655E+05 -7.517350E+05  1.336990E+05 -9.187409E+02  2.008003E+04  1.349348E+01
        13   2  1.387927E+05 -7.557470E+05  1.326837E+05  2.215658E+02  1.993175E+04  8.325390E+01
        13   3  1.378521E+05 -7.594959E+05  1.316876E+05 -1.176781E+03  1.974144E+04  1.527840E+02
        13   4 -5.275742E+01 -1.316395E+06 -9.495021E+01 -5.641578E+02  2.008120E+04  8.665602E+01
        13   5 -6.549551E+01 -1.316524E+06 -1.943423E+02  7.052526E+02  1.993285E+04  1.805400E+02
        13   6 -5.032449E+01 -1.316394E+06 -2.914592E+02 -5.641334E+02  1.974245E+04  2.741942E+02
        13   7 -1.398939E+05 -1.880761E+06 -1.339111E+05 -2.098364E+02  2.008236E+04  1.597523E+02
        13   8 -1.389463E+05 -1.877011E+06 -1.330943E+05  1.188583E+03  1.993395E+04  2.777386E+02
        13   9 -1.379750E+05 -1.873007E+06 -1.322921E+05  4.806426E+01  1.974347E+04  3.954958E+02
        13  10  1.397650E+05 -7.517351E+05  1.336982E+05 -9.187412E+02  2.518248E-09 -3.685084E-09
        13  11  1.387922E+05 -7.557471E+05  1.326830E+05  2.215645E+02  7.675168E-10 -8.064586E-09
        13  12  1.378516E+05 -7.594960E+05  1.316868E+05 -1.176783E+03 -1.569199E-09 -7.544653E-09
        13  13 -5.319018E+01 -1.316395E+06 -9.570755E+01 -5.641592E+02  4.927465E-10  4.424911E-10
        13  14 -6.592191E+01 -1.316524E+06 -1.950886E+02  7.052497E+02  4.709299E-09  2.052158E-11
        13  15 -5.074279E+01 -1.316394E+06 -2.921913E+02 -5.641377E+02  6.297969E-09  5.140354E-10
        13  16 -1.398944E+05 -1.880762E+06 -1.339118E+05 -2.098390E+02  1.554356E-09  3.885616E-09
        13  17 -1.389467E+05 -1.877011E+06 -1.330950E+05  1.188578E+03 -2.061539E-09  5.591786E-09
        13  18 -1.379754E+05 -1.873007E+06 -1.322928E+05  4.805797E+01 -5.405729E-09  7.120056E-09
        13  19  1.397655E+05 -7.517350E+05  1.336990E+05 -9.187409E+02 -2.008003E+04 -1.349348E+01
        13  20  1.387927E+05 -7.557470E+05  1.326837E+05  2.215658E+02 -1.993175E+04 -8.325390E+01
        13  21  1.378521E+05 -7.594959E+05  1.316876E+05 -1.176781E+03 -1.974144E+04 -1.527840E+02
        13  22 -5.275742E+01 -1.316395E+06 -9.495021E+01 -5.641578E+02 -2.008120E+04 -8.665602E+01
        13  23 -6.549551E+01 -1.316524E+06 -1.943423E+02  7.052526E+02 -1.993285E+04 -1.805400E+02
        13  24 -5.032449E+01 -1.316394E+06 -2.914592E+02 -5.641334E+02 -1.974245E+04 -2.741942E+02
        13  25 -1.398939E+05 -1.880761E+06 -1.339111E+05 -2.098364E+02 -2.008236E+04 -1.597523E+02
        13  26 -1.389463E+05 -1.877011E+06 -1.330943E+05  1.188583E+03 -1.993395E+04 -2.777386E+02
        13  27 -1.379750E+05 -1.873007E+06 -1.322921E+05  4.806426E+01 -1.974347E+04 -3.954958E+02
        14   1  1.363609E+05 -7.655378E+05  1.301339E+05 -1.578147E+03  1.961085E+04  1.973196E+02
        14   2  1.347690E+05 -7.720386E+05  1.283120E+05  3.927392E+02  1.935119E+04  5.182051E+02
        14   3  1.331484E+05 -7.783523E+05  1.263242E+05 -1.820300E+03  1.904819E+04  8.387087E+02
        14   4 -4.350212E+01 -1.316409E+06 -3.862086E+02 -9.297366E+02  1.961181E+04  3.338044E+02
        14   5 -5.152621E+01 -1.316500E+06 -7.015656E+02  1.162300E+03  1.935203E+04  6.793682E+02
        14   6 -9.273881E+01 -1.316408E+06 -1.200068E+03 -9.298211E+02  1.904890E+04  1.024553E+03
        14   7 -1.364698E+05 -1.867001E+06 -1.309274E+05 -2.817924E+02  1.961276E+04  4.701684E+02
        14   8 -1.348934E+05 -1.860688E+06 -1.297357E+05  1.931311E+03  1.935286E+04  8.403903E+02
        14   9 -1.333547E+05 -1.854197E+06 -1.287445E+05 -3.997377E+01  1.904960E+04  1.210236E+03
        14  10  1.363605E+05 -7.655379E+05  1.301332E+05 -1.578150E+03 -1.138702E-09  6.045229E-09
        14  11  1.347686E+05 -7.720387E+05  1.283113E+05  3.927312E+02  1.681800E-09  1.922125E-09
        14  12  1.331480E+05 -7.783524E+05  1.263235E+05 -1.820312E+03  2.302165E-09 -5.368856E-10
        14  13 -4.391491E+01 -1.316409E+06 -3.869312E+02 -9.297419E+02  2.641805E-09  1.002642E-09
        14  14 -5.192823E+01 -1.316500E+06 -7.022698E+02  1.162290E+03 -1.887175E-09 -8.976041E-11
        14  15 -9.312850E+01 -1.316408E+06 -1.200751E+03 -9.298368E+02 -7.140410E-10  6.144631E-10
        14  16 -1.364702E+05 -1.867001E+06 -1.309282E+05 -2.817999E+02 -4.434317E-09 -5.094610E-09
        14  17 -1.348938E+05 -1.860688E+06 -1.297364E+05  1.931298E+03  1.175722E-09 -6.137790E-09
        14  18 -1.333551E+05 -1.854197E+06 -1.287452E+05 -3.999235E+01 -3.345648E-09 -2.646558E-10
        14  19  1.363609E+05 -7.655378E+05  1.301339E+05 -1.578147E+03 -1.961085E+04 -1.973196E+02
        14  20  1.347690E+05 -7.720386E+05  1.283120E+05  3.927392E+02 -1.935119E+04 -5.182051E+02
        14  21  1.331484E+05 -7.783523E+05  1.263242E+05 -1.820300E+03 -1.904819E+04 -8.387087E+02
        14  22 -4.350212E+01 -1.316409E+06 -3.862086E+02 -9.297366E+02 -1.961181E+04 -3.338044E+02
        14  23 -5.152621E+01 -1.316500E+06 -7.015656E+02  1.162300E+03 -1.935203E+04 -6.793682E+02
        14  24 -9.273881E+01 -1.316408E+06 -1.200068E+03 -9.298211E+02 -1.904890E+04 -1.024553E+03
        14  25 -1.364698E+05 -1.867001E+06 -1.309274E+05 -2.817924E+02 -1.961276E+04 -4.701684E+02
        14  26 -1.348934E+05 -1.860688E+06 -1.297357E+05  1.931311E+03 -1.935286E+04 -8.403903E+02
        14  27 -1.333547E+05 -1.854197E+06 -1.287445E+05 -3.997377E+01 -1.904960E+04 -1.210236E+03
        15   1  9.345754E+04  1.001103E+06  5.250221E+04 -4.444897E+00  3.280665E+04  1.748083E-01
        15   2  9.346304E+04  1.001128E+06  5.251119E+04 -2.580608E+01  3.280797E+04 -6.579529E+00
        15   3  9.346985E+04  1.001163E+06  5.252785E+04 -4.380021E+01  3.281062E+04 -1.333348E+01
        15   4 -3.493104E+01  5.857377E+05  1.771372E+01  7.485690E-01  3.280897E+04 -1.387531E+00
        15   5 -3.666157E+01  5.857322E+05  2.111475E+01 -9.346097E-01  3.281028E+04 -1.134255E+01
        15   6 -3.653149E+01  5.857377E+05  3.441619E+01  7.500692E-01  3.281294E+04 -2.129722E+01
        15   7 -9.353442E+04  1.705499E+05 -5.246733E+04  5.939047E+00  3.281128E+04 -2.948878E+00
        15   8 -9.354339E+04  1.705138E+05 -5.246951E+04  2.392232E+01  3.281260E+04 -1.610254E+01
        15   9 -9.354993E+04  1.704893E+05 -5.245957E+04  4.527425E+01  3.281526E+04 -2.925590E+01
        15  10  9.345639E+04  1.001102E+06  5.250019E+04 -4.444902E+00  3.211117E-09  4.086801E-10
        15  11  9.346189E+04  1.001127E+06  5.250917E+04 -2.580590E+01  9.892812E-10  7.431346E-08
        15  12  9.346869E+04  1.001163E+06  5.252583E+04 -4.379986E+01  7.072918E-10  1.410383E-07
        15  13 -3.608726E+01  5.857374E+05  1.569035E+01  7.486055E-01  1.820727E-08  3.323071E-11
        15  14 -3.781787E+01  5.857319E+05  1.909121E+01 -9.343103E-01 -3.671468E-10 -1.616395E-10
        15  15 -3.768799E+01  5.857374E+05  3.239232E+01  7.506316E-01 -1.066158E-08  1.635943E-10
        15  16 -9.353558E+04  1.705496E+05 -5.246935E+04  5.939125E+00  4.822033E-09 -4.497227E-10
        15  17 -9.354454E+04  1.705135E+05 -5.247154E+04  2.392274E+01  2.749473E-09 -7.434385E-08
        15  18 -9.355109E+04  1.704890E+05 -5.246159E+04  4.527502E+01  2.538896E-09 -1.409313E-07
        15  19  9.345754E+04  1.001103E+06  5.250221E+04 -4.444897E+00 -3.280665E+04 -1.748083E-01
        15  20  9.346304E+04  1.001128E+06  5.251119E+04 -2.580608E+01 -3.280797E+04  6.579529E+00
        15  21  9.346985E+04  1.001163E+06  5.252785E+04 -4.380021E+01 -3.281062E+04  1.333348E+01
        15  22 -3.493104E+01  5.857377E+05  1.771372E+01  7.485689E-01 -3.280897E+04  1.387531E+00
        15  23 -3.666157E+01  5.857322E+05  2.111475E+01 -9.346100E-01 -3.281028E+04  1.134255E+01
        15  24 -3.653149E+01  5.857377E+05  3.441619E+01  7.500687E-01 -3.281294E+04  2.129722E+01
        15  25 -9.353442E+04  1.705499E+05 -5.246733E+04  5.939047E+00 -3.281128E+04  2.948878E+00
        15  26 -9.354339E+04  1.705138E+05 -5.246951E+04  2.392232E+01 -3.281260E+04  1.610254E+01
        15  27 -9.354993E+04  1.704893E+05 -5.245957E+04  4.527425E+01 -3.281526E+04  2.925590E+01
        16   1  9.347763E+04  1.001201E+06  5.254337E+04 -5.249662E+01  3.281301E+04 -1.711260E+01
        16   2  9.349481E+04  1.001284E+06  5.258993E+04 -8.287041E+01  3.281706E+04 -5.592286E+01
        16   3  9.351500E+04  1.001382E+06  5.266543E+04 -9.886776E+01  3.282013E+04 -9.473219E+01
        16   4 -3.733062E+01  5.857385E+05  4.434237E+01  3.196753E+00  3.281533E+04 -2.801774E+01
        16   5 -4.146853E+01  5.857312E+05  7.464842E+01 -3.991430E+00  3.281938E+04 -6.443078E+01
        16   6 -4.302341E+01  5.857385E+05  1.322522E+02  3.197379E+00  3.282245E+04 -1.008429E+02
        16   7 -9.355931E+04  1.704528E+05 -5.245523E+04  5.885752E+01  3.281765E+04 -3.891595E+01
        16   8 -9.358477E+04  1.703551E+05 -5.244118E+04  7.484093E+01  3.282170E+04 -7.293328E+01
        16   9 -9.360807E+04  1.702717E+05 -5.240148E+04  1.052019E+02  3.282477E+04 -1.069497E+02
        16  10  9.347647E+04  1.001201E+06  5.254135E+04 -5.249616E+01  8.510913E-10 -1.223870E-07
        16  11  9.349366E+04  1.001284E+06  5.258790E+04 -8.286894E+01 -3.730087E-09 -6.123169E-08
        16  12  9.351384E+04  1.001382E+06  5.266341E+04 -9.886526E+01 -1.642630E-09  6.296640E-09
        16  13 -3.848728E+01  5.857382E+05  4.231821E+01  3.197493E+00 -1.594319E-08  1.432884E-10
        16  14 -4.262548E+01  5.857309E+05  7.262376E+01 -3.989728E+00 -1.127973E-08 -4.698723E-10
        16  15 -4.418058E+01  5.857382E+05  1.302271E+02  3.200044E+00 -4.894144E-09  3.550181E-10
        16  16 -9.356047E+04  1.704525E+05 -5.245726E+04  5.885854E+01  7.648164E-10  1.220541E-07
        16  17 -9.358593E+04  1.703548E+05 -5.244320E+04  7.484285E+01 -3.909514E-09  6.092888E-08
        16  18 -9.360923E+04  1.702714E+05 -5.240350E+04  1.052047E+02 -3.469429E-09 -6.198398E-09
        16  19  9.347763E+04  1.001201E+06  5.254337E+04 -5.249662E+01 -3.281301E+04  1.711260E+01
        16  20  9.349481E+04  1.001284E+06  5.258993E+04 -8.287041E+01 -3.281706E+04  5.592286E+01
        16  21  9.351500E+04  1.001382E+06  5.266543E+04 -9.886776E+01 -3.282013E+04  9.473219E+01
        16  22 -3.733062E+01  5.857385E+05  4.434237E+01  3.196753E+00 -3.281533E+04  2.801774E+01
        16  23 -4.146853E+01  5.857312E+05  7.464842E+01 -3.991430E+00 -3.281938E+04  6.443078E+01
        16  24 -4.302341E+01  5.857385E+05  1.322522E+02  3.197379E+00 -3.282245E+04  1.008429E+02
        16  25 -9.355931E+04  1.704528E+05 -5.245523E+04  5.885752E+01 -3.281765E+04  3.891595E+01
        16  26 -9.358477E+04  1.703551E+05 -5.244118E+04  7.484093E+01 -3.282170E+04  7.293328E+01
        16  27 -9.360807E+04  1.702717E+05 -5.240148E+04  1.052019E+02 -3.282477E+04  1.069497E+02
        17   1  9.353109E+04  1.001463E+06  5.272297E+04 -1.119864E+02  3.282256E+04 -1.204788E+02
        17   2  9.356425E+04  1.001593E+06  5.289816E+04 -1.523625E+02  3.281658E+04 -3.147767E+02
        17   3  9.362169E+04  1.001765E+06  5.320873E+04 -1.686589E+02  3.279211E+04 -5.090787E+02
        17   4 -4.517691E+01  5.857425E+05  1.745735E+02  5.352348E+00  3.282488E+04 -1.281247E+02
        17   5 -5.069523E+01  5.857260E+05  3.035553E+02 -6.686222E+00  3.281889E+04 -2.778975E+02
        17   6 -3.963548E+01  5.857424E+05  5.370866E+02  5.355117E+00  3.279440E+04 -4.276749E+02
        17   7 -9.362848E+04  1.701997E+05 -5.237438E+04  1.226210E+02  3.282720E+04 -1.357658E+02
        17   8 -9.367268E+04  1.700361E+05 -5.229161E+04  1.389023E+02  3.282120E+04 -2.410417E+02
        17   9 -9.370801E+04  1.698978E+05 -5.213513E+04  1.792637E+02  3.279668E+04 -3.463228E+02
        17  10  9.352994E+04  1.001462E+06  5.272094E+04 -1.119832E+02  1.741341E-09 -7.137408E-08
        17  11  9.356309E+04  1.001593E+06  5.289613E+04 -1.523542E+02  5.699878E-10 -5.580177E-09
        17  12  9.362053E+04  1.001764E+06  5.320670E+04 -1.686454E+02 -1.265919E-09  6.098853E-08
        17  13 -4.633425E+01  5.857422E+05  1.725481E+02  5.355734E+00 -4.253175E-09  3.343746E-10
        17  14 -5.185217E+01  5.857257E+05  3.015306E+02 -6.678878E+00  2.478385E-09 -6.745278E-10
        17  15 -4.079072E+01  5.857421E+05  5.350647E+02  5.366410E+00  1.123293E-10  5.155514E-10
        17  16 -9.362964E+04  1.701994E+05 -5.237640E+04  1.226246E+02 -5.839127E-09  7.087266E-08
        17  17 -9.367383E+04  1.700358E+05 -5.229363E+04  1.389087E+02 -2.542020E-09  5.358718E-09
        17  18 -9.370916E+04  1.698975E+05 -5.213715E+04  1.792728E+02  8.067094E-10 -6.068106E-08
        17  19  9.353109E+04  1.001463E+06  5.272297E+04 -1.119864E+02 -3.282256E+04  1.204788E+02
        17  20  9.356425E+04  1.001593E+06  5.289816E+04 -1.523625E+02 -3.281658E+04  3.147767E+02
        17  21  9.362169E+04  1.001765E+06  5.320873E+04 -1.686589E+02 -3.279211E+04  5.090787E+02
        17  22 -4.517691E+01  5.857425E+05  1.745735E+02  5.352348E+00 -3.282488E+04  1.281247E+02
        17  23 -5.069523E+01  5.857260E+05  3.035553E+02 -6.686222E+00 -3.281889E+04  2.778975E+02
        17  24 -3.963548E+01  5.857424E+05  5.370866E+02  5.355116E+00 -3.279440E+04  4.276749E+02
        17  25 -9.362848E+04  1.701997E+05 -5.237438E+04  1.226210E+02 -3.282720E+04  1.357658E+02
        17  26 -9.367268E+04  1.700361E+05 -5.229161E+04  1.389023E+02 -3.282120E+04  2.410417E+02
        17  27 -9.370801E+04  1.698978E+05 -5.213513E+04  1.792637E+02 -3.279668E+04  3.463228E+02
        18   1 -8.365140E+06 -2.760599E+06 -1.732573E+06 -2.945756E+06 -7.791923E+05 -2.675287E+05
        18   2 -8.174228E+06 -1.626600E+06 -1.017996E+06 -3.036271E+06 -5.078295E+05 -1.055305E+05
        18   3 -8.368659E+06 -1.558053E+06 -8.031911E+05 -2.902639E+06 -2.162294E+05  3.376452E+03
        18   4 -6.460213E+06 -1.754112E+06 -1.155189E+06 -2.140877E+06 -7.391476E+05 -2.527472E+05
        18   5 -6.208062E+06 -7.990407E+05 -4.841363E+05 -2.413819E+06 -4.954006E+05 -1.009242E+05
        18   6 -6.334501E+06 -9.020430E+05 -2.895998E+05 -2.462996E+06 -2.314304E+05 -2.334707E+03
        18   7 -4.551528E+06 -7.462587E+05 -5.781582E+05 -1.333393E+06 -6.989633E+05 -2.378659E+05
        18   8 -4.238068E+06  2.902755E+04  4.937360E+04 -1.789462E+06 -4.829257E+05 -9.629612E+04
        18   9 -4.296267E+06 -2.460242E+05  2.236746E+05 -2.022152E+06 -2.466858E+05 -8.059401E+03
        18  10 -8.365819E+06 -2.760843E+06 -1.733868E+06 -2.945926E+06 -1.889634E-09  3.327011E-10
        18  11 -8.174511E+06 -1.626683E+06 -1.018509E+06 -3.036315E+06 -1.117033E-09  1.631887E-09
        18  12 -8.368710E+06 -1.558066E+06 -8.032801E+05 -2.902639E+06 -6.818254E-10  1.557955E-09
        18  13 -6.460822E+06 -1.754330E+06 -1.156349E+06 -2.141028E+06 -5.033706E-09  3.502117E-10
        18  14 -6.208331E+06 -7.991186E+05 -4.846221E+05 -2.413859E+06 -7.554499E-09  1.430296E-09
        18  15 -6.334559E+06 -9.020575E+05 -2.897014E+05 -2.462997E+06  2.047466E-09  1.761212E-09
        18  16 -4.552072E+06 -7.464523E+05 -5.791909E+05 -1.333528E+06  2.446699E-10  3.162242E-10
        18  17 -4.238322E+06  2.895427E+04  4.891430E+04 -1.789499E+06 -5.942120E-10  1.002160E-09
        18  18 -4.296332E+06 -2.460407E+05  2.235593E+05 -2.022154E+06  5.056828E-09  2.026656E-09
        18  19 -8.365140E+06 -2.760599E+06 -1.732573E+06 -2.945756E+06  7.791923E+05  2.675287E+05
        18  20 -8.174228E+06 -1.626600E+06 -1.017996E+06 -3.036271E+06  5.078295E+05  1.055305E+05
        18  21 -8.368659E+06 -1.558053E+06 -8.031911E+05 -2.902639E+06  2.162294E+05 -3.376452E+03
        18  22 -6.460213E+06 -1.754112E+06 -1.155189E+06 -2.140877E+06  7.391476E+05  2.527472E+05
        18  23 -6.208062E+06 -7.990407E+05 -4.841363E+05 -2.413819E+06  4.954006E+05  1.009242E+05
        18  24 -6.334501E+06 -9.020430E+05 -2.895998E+05 -2.462996E+06  2.314304E+05  2.334707E+03
        18  25 -4.551528E+06 -7.462587E+05 -5.781582E+05 -1.333393E+06  6.989633E+05  2.378659E+05
        18  26 -4.238068E+06  2.902755E+04  4.937360E+04 -1.789462E+06  4.829257E+05  9.629612E+04
        18  27 -4.296267E+06 -2.460242E+05  2.236746E+05 -2.022152E+06  2.466858E+05  8.059401E+03
        19   1 -8.091791E+06 -1.729783E+06 -7.149800E+05 -2.919677E+06 -1.875005E+05  2.922305E+03
        19   2 -7.980597E+06 -1.538083E+06 -5.585443E+05 -2.858871E+06 -1.256859E+05  2.415412E+04
        19   3 -7.847011E+06 -1.516330E+06 -4.756293E+05 -2.847941E+06 -6.216778E+04  4.084418E+04
        19   4 -6.291601E+06 -1.024141E+06 -2.347762E+05 -2.403037E+06 -1.875875E+05  2.864920E+03
        19   5 -6.296737E+06 -8.964750E+05 -1.140199E+05 -2.394145E+06 -1.280262E+05  2.325981E+04
        19   6 -6.278914E+06 -9.381071E+05 -6.481171E+04 -2.435149E+06 -6.677615E+04  3.910943E+04
        19   7 -4.488231E+06 -3.182315E+05  2.451405E+05 -1.885000E+06 -1.876742E+05  2.807725E+03
        19   8 -4.610092E+06 -2.546759E+05  3.302594E+05 -1.928258E+06 -1.303732E+05  2.236297E+04
        19   9 -4.708402E+06 -3.597586E+05  3.457981E+05 -2.021411E+06 -7.139732E+04  3.737013E+04
        19  10 -8.091829E+06 -1.729792E+06 -7.150469E+05 -2.919676E+06  1.024075E-09  1.056114E-09
        19  11 -7.980615E+06 -1.538088E+06 -5.585754E+05 -2.858869E+06 -1.540087E-09  3.818294E-10
        19  12 -7.847016E+06 -1.516333E+06 -4.756398E+05 -2.847939E+06  4.767006E-09  1.300948E-10
        19  13 -6.291639E+06 -1.024150E+06 -2.348430E+05 -2.403037E+06  9.826516E-09  1.486392E-09
        19  14 -6.296755E+06 -8.964800E+05 -1.140519E+05 -2.394143E+06  8.809309E-09  9.265206E-10
        19  15 -6.278919E+06 -9.381100E+05 -6.482300E+04 -2.435147E+06  5.794119E-09 -4.294465E-10
        19  16 -4.488269E+06 -3.182410E+05  2.450739E+05 -1.884999E+06  2.399113E-10  1.714621E-09
        19  17 -4.610111E+06 -2.546810E+05  3.302263E+05 -1.928256E+06  3.800230E-09  1.061181E-09
        19  18 -4.708407E+06 -3.597614E+05  3.457859E+05 -2.021409E+06 -1.318351E-09 -1.016586E-09
        19  19 -8.091791E+06 -1.729783E+06 -7.149800E+05 -2.919677E+06  1.875005E+05 -2.922305E+03
        19  20 -7.980597E+06 -1.538083E+06 -5.585443E+05 -2.858871E+06  1.256859E+05 -2.415412E+04
        19  21 -7.847011E+06 -1.516330E+06 -4.756293E+05 -2.847941E+06  6.216778E+04 -4.084418E+04
        19  22 -6.291601E+06 -1.024141E+06 -2.347762E+05 -2.403037E+06  1.875875E+05 -2.864920E+03
        19  23 -6.296737E+06 -8.964750E+05 -1.140199E+05 -2.394145E+06  1.280262E+05 -2.325981E+04
        19  24 -6.278914E+06 -9.381071E+05 -6.481171E+04 -2.435149E+06  6.677615E+04 -3.910943E+04
        19  25 -4.488231E+06 -3.182315E+05  2.451405E+05 -1.885000E+06  1.876742E+05 -2.807725E+03
        19  26 -4.610092E+06 -2.546759E+05  3.302594E+05 -1.928258E+06  1.303732E+05 -2.236297E+04
        19  27 -4.708402E+06 -3.597586E+05  3.457981E+05 -2.021411E+06  7.139732E+04 -3.737013E+04
        20   1 -7.635769E+06 -1.469425E+06 -4.095127E+05 -2.805436E+06 -5.209276E+04  3.932672E+04
        20   2 -7.506768E+06 -1.350478E+06 -3.408951E+05 -2.710106E+06 -3.554151E+04  3.710845E+04
        20   3 -7.295174E+06 -1.328568E+06 -2.850811E+05 -2.712260E+06 -1.868196E+04  3.401174E+04
        20   4 -6.270070E+06 -9.541847E+05 -5.041687E+04 -2.433612E+06 -5.584848E+04  3.791443E+04
        20   5 -6.310684E+06 -9.011872E+05 -2.645152E+04 -2.386527E+06 -3.973545E+04  3.553847E+04
        20   6 -6.268641E+06 -9.451110E+05 -1.491406E+04 -2.436924E+06 -2.331863E+04  3.228335E+04
        20   7 -4.902541E+06 -4.388284E+05  3.085189E+05 -2.061037E+06 -5.961328E+04  3.649874E+04
        20   8 -5.113200E+06 -4.518112E+05  2.878689E+05 -2.062377E+06 -4.393830E+04  3.396518E+04
        20   9 -5.241080E+06 -5.615950E+05  2.551617E+05 -2.161174E+06 -2.796377E+04  3.055185E+04
        20  10 -7.635773E+06 -1.469427E+06 -4.095207E+05 -2.805435E+06  8.058843E-10 -4.168250E-10
        20  11 -7.506770E+06 -1.350480E+06 -3.409001E+05 -2.710105E+06 -1.117360E-09 -6.740880E-10
        20  12 -7.295175E+06 -1.328570E+06 -2.850839E+05 -2.712260E+06  2.704893E-11  9.072580E-10
        20  13 -6.270074E+06 -9.541871E+05 -5.042545E+04 -2.433610E+06  4.059734E-10 -8.630790E-10
        20  14 -6.310686E+06 -9.011890E+05 -2.645686E+04 -2.386526E+06  5.948327E-09 -7.628675E-11
        20  15 -6.268642E+06 -9.451123E+05 -1.491703E+04 -2.436924E+06 -5.756524E-09  9.551911E-10
        20  16 -4.902545E+06 -4.388308E+05  3.085097E+05 -2.061036E+06  1.432110E-09 -9.361198E-10
        20  17 -5.113202E+06 -4.518129E+05  2.878631E+05 -2.062376E+06 -6.716783E-10 -3.537514E-10
        20  18 -5.241081E+06 -5.615962E+05  2.551584E+05 -2.161173E+06  2.049006E-09  2.145494E-09
        20  19 -7.635769E+06 -1.469425E+06 -4.095127E+05 -2.805436E+06  5.209276E+04 -3.932672E+04
        20  20 -7.506768E+06 -1.350478E+06 -3.408951E+05 -2.710106E+06  3.554151E+04 -3.710845E+04
        20  21 -7.295174E+06 -1.328568E+06 -2.850811E+05 -2.712260E+06  1.868196E+04 -3.401174E+04
        20  22 -6.270070E+06 -9.541847E+05 -5.041687E+04 -2.433612E+06  5.584848E+04 -3.791443E+04
        20  23 -6.310684E+06 -9.011872E+05 -2.645152E+04 -2.386527E+06  3.973545E+04 -3.553847E+04
        20  24 -6.268641E+06 -9.451110E+05 -1.491406E+04 -2.436924E+06  2.331863E+04 -3.228335E+04
        20  25 -4.902541E+06 -4.388284E+05  3.085189E+05 -2.061037E+06  5.961328E+04 -3.649874E+04
        20  26 -5.113200E+06 -4.518112E+05  2.878689E+05 -2.062377E+06  4.393830E+04 -3.396518E+04
        20  27 -5.241080E+06 -5.615950E+05  2.551617E+05 -2.161174E+06  2.796377E+04 -3.055185E+04
        21   1 -7.055930E+06 -1.245121E+06 -2.186134E+05 -2.652669E+06 -1.456500E+04  2.973434E+04
        21   2 -6.908637E+06 -1.120648E+06 -1.629668E+05 -2.542157E+06 -7.555511E+03  2.215206E+04
        21   3 -6.662686E+06 -1.096550E+06 -1.103214E+05 -2.546571E+06 -4.377355E+02  1.424505E+04
        21   4 -6.265423E+06 -9.491122E+05 -1.166449E+04 -2.439544E+06 -1.926550E+04  2.798573E+04
        21   5 -6.314634E+06 -8.983798E+05 -7.022477E+03 -2.382273E+06 -1.242479E+04  2.034410E+04
        21   6 -6.265203E+06 -9.479841E+05 -5.242984E+03 -2.439935E+06 -5.477222E+03  1.237760E+04
        21   7 -5.474298E+06 -6.530651E+05  1.952324E+05 -2.226170E+06 -2.397265E+04  2.623466E+04
        21   8 -5.720286E+06 -6.760915E+05  1.488915E+05 -2.222249E+06 -1.729921E+04  1.853424E+04
        21   9 -5.867568E+06 -7.994102E+05  9.982090E+04 -2.333238E+06 -1.052023E+04  1.050885E+04
        21  10 -7.055931E+06 -1.245122E+06 -2.186155E+05 -2.652669E+06  2.890007E-09  5.681121E-10
        21  11 -6.908638E+06 -1.120648E+06 -1.629679E+05 -2.542157E+06  2.274822E-09 -2.575628E-09
        21  12 -6.662686E+06 -1.096551E+06 -1.103218E+05 -2.546571E+06 -1.881194E-09 -5.559369E-10
        21  13 -6.265423E+06 -9.491131E+05 -1.166665E+04 -2.439544E+06  1.868564E-09  2.066040E-10
        21  14 -6.314634E+06 -8.983803E+05 -7.023542E+03 -2.382273E+06 -2.248395E-09 -3.614640E-10
        21  15 -6.265203E+06 -9.479842E+05 -5.243327E+03 -2.439935E+06  3.972173E-09  8.248008E-10
        21  16 -5.474299E+06 -6.530660E+05  1.952300E+05 -2.226170E+06 -2.164312E-09 -6.484522E-10
        21  17 -5.720287E+06 -6.760919E+05  1.488903E+05 -2.222249E+06  4.329208E-09 -1.988844E-09
        21  18 -5.867568E+06 -7.994103E+05  9.982049E+04 -2.333238E+06  1.171129E-09  1.944383E-09
        21  19 -7.055930E+06 -1.245121E+06 -2.186134E+05 -2.652669E+06  1.456500E+04 -2.973434E+04
        21  20 -6.908637E+06 -1.120648E+06 -1.629668E+05 -2.542157E+06  7.555511E+03 -2.215206E+04
        21  21 -6.662686E+06 -1.096550E+06 -1.103214E+05 -2.546571E+06  4.377355E+02 -1.424505E+04
        21  22 -6.265423E+06 -9.491122E+05 -1.166449E+04 -2.439544E+06  1.926550E+04 -2.798573E+04
        21  23 -6.314634E+06 -8.983798E+05 -7.022477E+03 -2.382273E+06  1.242479E+04 -2.034410E+04
        21  24 -6.265203E+06 -9.479841E+05 -5.242984E+03 -2.439935E+06  5.477222E+03 -1.237760E+04
        21  25 -5.474298E+06 -6.530651E+05  1.952324E+05 -2.226170E+06  2.397265E+04 -2.623466E+04
        21  26 -5.720286E+06 -6.760915E+05  1.488915E+05 -2.222249E+06  1.729921E+04 -1.853424E+04
        21  27 -5.867568E+06 -7.994102E+05  9.982090E+04 -2.333238E+06  1.052023E+04 -1.050885E+04
        22   1 -6.405319E+06 -1.001538E+06 -4.135361E+04 -2.478980E+06  2.499839E+03  9.047580E+03
        22   2 -6.252072E+06 -8.735325E+05  1.047517E+04 -2.363992E+06  9.073752E+03  6.993908E+02
        22   3 -5.996743E+06 -8.494671E+05  5.971649E+04 -2.368543E+06  1.563172E+04 -7.598025E+03
        22   4 -6.264423E+06 -9.488755E+05 -5.128836E+03 -2.440913E+06 -2.582694E+03  7.165329E+03
        22   5 -6.315492E+06 -8.972150E+05 -6.159482E+03 -2.381021E+06  4.017081E+03 -1.173790E+03
        22   6 -6.264523E+06 -9.495037E+05 -9.795318E+03 -2.440687E+06  1.059976E+04 -9.462384E+03
        22   7 -6.123507E+06 -8.962114E+05  3.109457E+04 -2.402838E+06 -7.666520E+03  5.282596E+03
        22   8 -6.378909E+06 -9.208975E+05 -2.279449E+04 -2.398049E+06 -1.039055E+03 -3.046773E+03
        22   9 -6.532236E+06 -1.049537E+06 -7.931380E+04 -2.512802E+06  5.570141E+03 -1.132587E+04
        22  10 -6.405319E+06 -1.001538E+06 -4.135378E+04 -2.478980E+06  3.203912E-09  2.387030E-09
        22  11 -6.252072E+06 -8.735325E+05  1.047501E+04 -2.363992E+06  5.795216E-09  9.486500E-10
        22  12 -5.996743E+06 -8.494672E+05  5.971592E+04 -2.368543E+06  5.369037E-09 -1.416905E-09
        22  13 -6.264423E+06 -9.488756E+05 -5.128944E+03 -2.440913E+06  3.515357E-09  1.496318E-09
        22  14 -6.315492E+06 -8.972150E+05 -6.159515E+03 -2.381021E+06  7.953057E-09 -1.111659E-09
        22  15 -6.264523E+06 -9.495039E+05 -9.795697E+03 -2.440686E+06 -2.287025E-09  1.635741E-10
        22  16 -6.123507E+06 -8.962114E+05  3.109441E+04 -2.402838E+06  3.890361E-10 -1.841530E-10
        22  17 -6.378909E+06 -9.208975E+05 -2.279451E+04 -2.398049E+06 -9.867181E-10 -2.926128E-09
        22  18 -6.532236E+06 -1.049537E+06 -7.931409E+04 -2.512802E+06 -1.579881E-09 -4.781101E-10
        22  19 -6.405319E+06 -1.001538E+06 -4.135361E+04 -2.478980E+06 -2.499839E+03 -9.047580E+03
        22  20 -6.252072E+06 -8.735325E+05  1.047517E+04 -2.363992E+06 -9.073752E+03 -6.993908E+02
        22  21 -5.996743E+06 -8.494671E+05  5.971649E+04 -2.368543E+06 -1.563172E+04  7.598025E+03
        22  22 -6.264423E+06 -9.488755E+05 -5.128836E+03 -2.440913E+06  2.582694E+03 -7.165329E+03
        22  23 -6.315492E+06 -8.972150E+05 -6.159482E+03 -2.381021E+06 -4.017081E+03  1.173790E+03
        22  24 -6.264523E+06 -9.495037E+05 -9.795318E+03 -2.440687E+06 -1.059976E+04  9.462384E+03
        22  25 -6.123507E+06 -8.962114E+05  3.109457E+04 -2.402838E+06  7.666520E+03 -5.282596E+03
        22  26 -6.378909E+06 -9.208975E+05 -2.279449E+04 -2.398049E+06  1.039055E+03  3.046773E+03
        22  27 -6.532236E+06 -1.049537E+06 -7.931380E+04 -2.512802E+06 -5.570141E+03  1.132587E+04
        23   1 -5.743552E+06 -7.529825E+05  1.252195E+05 -2.300439E+06  1.948729E+04 -1.242252E+04
        23   2 -5.598487E+06 -6.302734E+05  1.658820E+05 -2.190027E+06  3.354163E+04 -1.757847E+04
        23   3 -5.360009E+06 -6.135586E+05  1.963629E+05 -2.190773E+06  4.739382E+04 -2.213695E+04
        23   4 -6.266158E+06 -9.473614E+05 -1.243705E+04 -2.439820E+06  1.444648E+04 -1.429177E+04
        23   5 -6.313384E+06 -8.979976E+05 -2.170983E+04 -2.382892E+06  2.880522E+04 -1.933905E+04
        23   6 -6.267294E+06 -9.547056E+05 -4.141424E+04 -2.437145E+06  4.295805E+04 -2.378978E+04
        23   7 -6.788492E+06 -1.141724E+06 -1.501156E+05 -2.579093E+06  9.410406E+03 -1.615929E+04
        23   8 -7.027777E+06 -1.165690E+06 -2.093442E+05 -2.575554E+06  2.407484E+04 -2.109739E+04
        23   9 -7.173773E+06 -1.295802E+06 -2.792613E+05 -2.683188E+06  3.852941E+04 -2.543994E+04
        23  10 -5.743552E+06 -7.529827E+05  1.252185E+05 -2.300438E+06  5.585821E-09 -4.684208E-11
        23  11 -5.598488E+06 -6.302740E+05  1.658793E+05 -2.190026E+06  1.082222E-09 -7.273826E-10
        23  12 -5.360011E+06 -6.135597E+05  1.963577E+05 -2.190772E+06 -1.542351E-09  1.034436E-10
        23  13 -6.266158E+06 -9.473616E+05 -1.243783E+04 -2.439819E+06  1.731553E-09  3.863223E-10
        23  14 -6.313385E+06 -8.979982E+05 -2.171210E+04 -2.382892E+06 -1.375459E-09 -1.688782E-09
        23  15 -6.267296E+06 -9.547067E+05 -4.141878E+04 -2.437144E+06 -1.808478E-09 -2.284338E-09
        23  16 -6.788492E+06 -1.141724E+06 -1.501163E+05 -2.579092E+06 -1.723794E-09  2.916139E-09
        23  17 -7.027778E+06 -1.165691E+06 -2.093461E+05 -2.575553E+06 -1.996073E-09  1.732177E-09
        23  18 -7.173774E+06 -1.295803E+06 -2.792653E+05 -2.683187E+06  8.664554E-10 -1.025230E-09
        23  19 -5.743552E+06 -7.529825E+05  1.252195E+05 -2.300439E+06 -1.948729E+04  1.242252E+04
        23  20 -5.598487E+06 -6.302734E+05  1.658820E+05 -2.190027E+06 -3.354163E+04  1.757847E+04
        23  21 -5.360009E+06 -6.135586E+05  1.963629E+05 -2.190773E+06 -4.739382E+04  2.213695E+04
        23  22 -6.266158E+06 -9.473614E+05 -1.243705E+04 -2.439820E+06 -1.444648E+04  1.429177E+04
        23  23 -6.313384E+06 -8.979976E+05 -2.170983E+04 -2.382892E+06 -2.880522E+04  1.933905E+04
        23  24 -6.267294E+06 -9.547056E+05 -4.141424E+04 -2.437145E+06 -4.295805E+04  2.378978E+04
        23  25 -6.788492E+06 -1.141724E+06 -1.501156E+05 -2.579093E+06 -9.410406E+03  1.615929E+04
        23  26 -7.027777E+06 -1.165690E+06 -2.093442E+05 -2.575554E+06 -2.407484E+04  2.109739E+04
        23  27 -7.173773E+06 -1.295802E+06 -2.792613E+05 -2.683188E+06 -3.852941E+04  2.543994E+04
        24   1 -5.129552E+06 -5.230198E+05  2.458599E+05 -2.140223E+06  5.777467E+04 -2.438421E+04
        24   2 -5.004987E+06 -4.011665E+05  2.481433E+05 -2.031563E+06  1.069611E+05 -1.487802E+04
        24   3 -4.832898E+06 -4.468117E+05  1.932649E+05 -1.997953E+06  1.546943E+05 -1.381762E+03
        24   4 -6.273993E+06 -9.420676E+05 -5.320518E+04 -2.439007E+06  5.251542E+04 -2.634629E+04
        24   5 -6.302664E+06 -8.934308E+05 -9.345457E+04 -2.388353E+06  1.037334E+05 -1.609169E+04
        24   6 -6.284321E+06 -1.012839E+06 -1.925865E+05 -2.412767E+06  1.534839E+05 -1.850527E+03
        24   7 -7.417159E+06 -1.361055E+06 -3.523821E+05 -2.737296E+06  4.726682E+04 -2.830464E+04
        24   8 -7.598695E+06 -1.385585E+06 -4.351979E+05 -2.744460E+06  1.005129E+05 -1.730260E+04
        24   9 -7.733680E+06 -1.578696E+06 -5.786226E+05 -2.826679E+06  1.522763E+05 -2.318182E+03
        24  10 -5.129555E+06 -5.230213E+05  2.458525E+05 -2.140221E+06 -3.529447E-09 -8.186065E-10
        24  11 -5.005000E+06 -4.011698E+05  2.481212E+05 -2.031562E+06 -6.400272E-10  1.507268E-09
        24  12 -4.832924E+06 -4.468181E+05  1.932196E+05 -1.997953E+06  1.351524E-10 -5.275242E-11
        24  13 -6.273996E+06 -9.420691E+05 -5.321169E+04 -2.439006E+06 -4.368634E-09 -2.543434E-09
        24  14 -6.302676E+06 -8.934340E+05 -9.347544E+04 -2.388352E+06 -4.259288E-09  2.543540E-09
        24  15 -6.284346E+06 -1.012845E+06 -1.926312E+05 -2.412767E+06  2.879087E-10 -6.898028E-10
        24  16 -7.417161E+06 -1.361056E+06 -3.523878E+05 -2.737295E+06 -8.225197E-10 -1.537471E-09
        24  17 -7.598706E+06 -1.385588E+06 -4.352176E+05 -2.744458E+06  3.820030E-09  1.909220E-10
        24  18 -7.733705E+06 -1.578702E+06 -5.786667E+05 -2.826679E+06  7.598338E-10 -4.550271E-10
        24  19 -5.129552E+06 -5.230198E+05  2.458599E+05 -2.140223E+06 -5.777467E+04  2.438421E+04
        24  20 -5.004987E+06 -4.011665E+05  2.481433E+05 -2.031563E+06 -1.069611E+05  1.487802E+04
        24  21 -4.832898E+06 -4.468117E+05  1.932649E+05 -1.997953E+06 -1.546943E+05  1.381762E+03
        24  22 -6.273993E+06 -9.420676E+05 -5.320518E+04 -2.439007E+06 -5.251542E+04  2.634629E+04
        24  23 -6.302664E+06 -8.934308E+05 -9.345457E+04 -2.388353E+06 -1.037334E+05  1.609169E+04
        24  24 -6.284321E+06 -1.012839E+06 -1.925865E+05 -2.412767E+06 -1.534839E+05  1.850527E+03
        24  25 -7.417159E+06 -1.361055E+06 -3.523821E+05 -2.737296E+06 -4.726682E+04  2.830464E+04
        24  26 -7.598695E+06 -1.385585E+06 -4.351979E+05 -2.744460E+06 -1.005129E+05  1.730260E+04
        24  27 -7.733680E+06 -1.578696E+06 -5.786226E+05 -2.826679E+06 -1.522763E+05  2.318182E+03
        25   1 -4.602499E+06 -3.594524E+05  1.951332E+05 -2.090762E+06  2.053353E+05  5.707925E+03
        25   2 -4.510824E+06 -9.886304E+04  6.708835E+04 -1.867291E+06  3.976084E+05  7.413809E+04
        25   3 -4.693826E+06 -7.295728E+05 -4.308505E+05 -1.495395E+06  5.717217E+05  1.909464E+05
        25   4 -6.319682E+06 -9.124144E+05 -2.375208E+05 -2.461573E+06  1.903022E+05  9.726552E+01
        25   5 -6.230228E+06 -8.136517E+05 -3.970950E+05 -2.404555E+06  4.078847E+05  7.793395E+04
        25   6 -6.421509E+06 -1.612834E+06 -9.475909E+05 -2.198874E+06  6.072696E+05  2.040860E+05
        25   7 -8.033970E+06 -1.465370E+06 -6.703994E+05 -2.831531E+06  1.753145E+05 -5.502047E+03
        25   8 -7.946716E+06 -1.528073E+06 -8.615427E+05 -2.940393E+06  4.181282E+05  8.171450E+04
        25   9 -8.146143E+06 -2.495104E+06 -1.464620E+06 -2.900321E+06  6.427060E+05  2.171499E+05
        25  10 -4.602545E+06 -3.594638E+05  1.950534E+05 -2.090763E+06  1.500584E-09 -1.818455E-09
        25  11 -4.510996E+06 -9.891189E+04  6.677838E+04 -1.867315E+06 -3.289781E-10  1.698648E-10
        25  12 -4.694189E+06 -7.297008E+05 -4.315390E+05 -1.495483E+06  1.379509E-09 -1.384658E-09
        25  13 -6.319721E+06 -9.124242E+05 -2.375895E+05 -2.461573E+06 -9.885035E-11 -5.685997E-10
        25  14 -6.230410E+06 -8.137036E+05 -3.974227E+05 -2.404581E+06 -1.391640E-09 -3.159694E-10
        25  15 -6.421920E+06 -1.612980E+06 -9.483712E+05 -2.198975E+06  3.782654E-09 -4.588931E-10
        25  16 -8.034003E+06 -1.465379E+06 -6.704579E+05 -2.831530E+06  2.202481E-10 -8.292945E-10
        25  17 -7.946907E+06 -1.528128E+06 -8.618887E+05 -2.940421E+06 -2.472569E-09 -2.265391E-09
        25  18 -8.146604E+06 -2.495269E+06 -1.465498E+06 -2.900435E+06  1.736446E-09  7.631212E-10
        25  19 -4.602499E+06 -3.594524E+05  1.951332E+05 -2.090762E+06 -2.053353E+05 -5.707925E+03
        25  20 -4.510824E+06 -9.886304E+04  6.708835E+04 -1.867291E+06 -3.976084E+05 -7.413809E+04
        25  21 -4.693826E+06 -7.295728E+05 -4.308505E+05 -1.495395E+06 -5.717217E+05 -1.909464E+05
        25  22 -6.319682E+06 -9.124144E+05 -2.375208E+05 -2.461573E+06 -1.903022E+05 -9.726552E+01
        25  23 -6.230228E+06 -8.136517E+05 -3.970950E+05 -2.404555E+06 -4.078847E+05 -7.793395E+04
        25  24 -6.421509E+06 -1.612834E+06 -9.475909E+05 -2.198874E+06 -6.072696E+05 -2.040860E+05
        25  25 -8.033970E+06 -1.465370E+06 -6.703994E+05 -2.831531E+06 -1.753145E+05  5.502047E+03
        25  26 -7.946716E+06 -1.528073E+06 -8.615427E+05 -2.940393E+06 -4.181282E+05 -8.171450E+04
        25  27 -8.146143E+06 -2.495104E+06 -1.464620E+06 -2.900321E+06 -6.427060E+05 -2.171499E+05
        26   1  3.191965E+05  7.911029E+04  3.528307E+05 -2.342171E+05 -2.715572E+02  2.209143E+05
        26   2  7.322510E+04  5.001703E+03  1.795865E+05 -1.273921E+05 -9.427535E+01  1.284764E+05
        26   3  5.358939E+03 -1.259071E+04  1.110580E+05 -3.070331E+04 -1.982414E+03  3.603852E+04
        26   4  2.996448E+05  5.522955E+03  3.345912E+05 -4.599149E+04 -2.007351E+02  2.193675E+05
        26   5  6.586958E+04 -2.243179E+04  1.728943E+05 -4.129180E+04 -8.121073E+01  1.303585E+05
        26   6  9.573222E+03  5.521507E+03  1.135364E+05 -4.671296E+04 -1.996752E+03  4.134273E+04
        26   7  2.802258E+05 -6.798348E+04  3.163703E+05  1.422117E+05 -1.308438E+02  2.178210E+05
        26   8  5.854185E+04 -4.984867E+04  1.662060E+05  4.480466E+04 -6.762349E+01  1.322405E+05
        26   9  1.378847E+04  2.363467E+04  1.160150E+05 -6.272310E+04 -2.011364E+03  4.664708E+04
        26  10  3.191834E+05  7.905790E+04  3.527390E+05 -2.342171E+05  1.744504E-09 -1.579137E-09
        26  11  7.322067E+04  4.983981E+03  1.795555E+05 -1.273921E+05  1.353947E-09  3.826719E-10
        26  12  5.358586E+03 -1.259211E+04  1.110555E+05 -3.070325E+04  8.203619E-10  1.587636E-09
        26  13  2.996319E+05  5.471293E+03  3.345007E+05 -4.599146E+04 -4.858205E-10  1.968325E-09
        26  14  6.586502E+04 -2.245003E+04  1.728623E+05 -4.129179E+04 -2.130236E-09  5.582564E-10
        26  15  9.572759E+03  5.519671E+03  1.135332E+05 -4.671289E+04  2.357095E-10  1.234568E-10
        26  16  2.802130E+05 -6.803442E+04  3.162811E+05  1.422117E+05 -2.548563E-09  2.398807E-09
        26  17  5.853716E+04 -4.986745E+04  1.661731E+05  4.480466E+04  4.343019E-10 -2.231852E-09
        26  18  1.378788E+04  2.363233E+04  1.160109E+05 -6.272302E+04  2.655608E-09 -1.782171E-09
        26  19  3.191965E+05  7.911029E+04  3.528307E+05 -2.342171E+05  2.715572E+02 -2.209143E+05
        26  20  7.322510E+04  5.001703E+03  1.795865E+05 -1.273921E+05  9.427535E+01 -1.284764E+05
        26  21  5.358939E+03 -1.259071E+04  1.110580E+05 -3.070331E+04  1.982414E+03 -3.603852E+04
        26  22  2.996448E+05  5.522955E+03  3.345912E+05 -4.599149E+04  2.007351E+02 -2.193675E+05
        26  23  6.586958E+04 -2.243179E+04  1.728943E+05 -4.129180E+04  8.121073E+01 -1.303585E+05
        26  24  9.573222E+03  5.521507E+03  1.135364E+05 -4.671296E+04  1.996752E+03 -4.134273E+04
        26  25  2.802258E+05 -6.798348E+04  3.163703E+05  1.422117E+05  1.308438E+02 -2.178210E+05
        26  26  5.854185E+04 -4.984867E+04  1.662060E+05  4.480466E+04  6.762349E+01 -1.322405E+05
        26  27  1.378847E+04  2.363467E+04  1.160150E+05 -6.272310E+04  2.011364E+03 -4.664708E+04
        27   1  2.276411E+03 -5.267678E+04  9.347234E+04 -5.595080E+04 -3.852296E+03  1.953837E+04
        27   2 -1.652418E+04 -1.051992E+05  8.215736E+04 -4.023205E+04 -6.588332E+03 -2.899685E+04
        27   3 -1.036934E+04 -1.452175E+05  1.086774E+05 -3.499820E+04 -8.934312E+03 -7.752835E+04
        27   4  1.353018E+04 -4.102000E+03  1.014455E+05 -4.670025E+04 -3.864939E+03  2.467120E+04
        27   5  5.724802E+03 -1.040958E+04  9.857057E+04 -4.144625E+04 -6.599385E+03 -2.452780E+04
        27   6  2.298737E+04 -4.102642E+03  1.339881E+05 -4.667614E+04 -8.942178E+03 -7.372649E+04
        27   7  2.478416E+04  4.447536E+04  1.094188E+05 -3.744896E+04 -3.877429E+03  2.980441E+04
        27   8  2.797332E+04  8.438887E+04  1.149835E+05 -4.266063E+04 -6.610454E+03 -2.005808E+04
        27   9  5.634347E+04  1.370320E+05  1.592981E+05 -5.835680E+04 -8.950185E+03 -6.992379E+04
        27  10  2.276292E+03 -5.267719E+04  9.347160E+04 -5.595074E+04  5.678437E-10 -2.659777E-08
        27  11 -1.652446E+04 -1.052001E+05  8.215570E+04 -4.023221E+04  8.641105E-10 -9.163635E-10
        27  12 -1.037104E+04 -1.452240E+05  1.086660E+05 -3.499876E+04  1.786391E-09  2.091378E-08
        27  13  1.353000E+04 -4.102658E+03  1.014443E+05 -4.670018E+04  5.477625E-09 -1.827119E-10
        27  14  5.724594E+03 -1.041024E+04  9.856936E+04 -4.144638E+04  1.183187E-09 -5.661833E-10
        27  15  2.298582E+04 -4.108499E+03  1.339777E+05 -4.667667E+04 -3.242728E-09 -1.317253E-09
        27  16  2.478390E+04  4.447440E+04  1.094171E+05 -3.744887E+04  1.350418E-09  2.690533E-08
        27  17  2.797316E+04  8.438843E+04  1.149827E+05 -4.266073E+04  3.653546E-09  3.319831E-09
        27  18  5.634207E+04  1.370267E+05  1.592887E+05 -5.835730E+04 -3.484376E-09 -2.151780E-08
        27  19  2.276411E+03 -5.267678E+04  9.347234E+04 -5.595080E+04  3.852296E+03 -1.953837E+04
        27  20 -1.652418E+04 -1.051992E+05  8.215736E+04 -4.023205E+04  6.588332E+03  2.899685E+04
        27  21 -1.036934E+04 -1.452175E+05  1.086774E+05 -3.499820E+04  8.934312E+03  7.752835E+04
        27  22  1.353018E+04 -4.102000E+03  1.014455E+05 -4.670025E+04  3.864939E+03 -2.467120E+04
        27  23  5.724802E+03 -1.040958E+04  9.857057E+04 -4.144625E+04  6.599385E+03  2.452780E+04
        27  24  2.298737E+04 -4.102642E+03  1.339881E+05 -4.667614E+04  8.942178E+03  7.372649E+04
        27  25  2.478416E+04  4.447536E+04  1.094188E+05 -3.744896E+04  3.877429E+03 -2.980441E+04
        27  26  2.797332E+04  8.438887E+04  1.149835E+05 -4.266063E+04  6.610454E+03  2.005808E+04
        27  27  5.634347E+04  1.370320E+05  1.592981E+05 -5.835680E+04  8.950185E+03  6.992379E+04
        28   1 -2.475767E+04 -1.579499E+05  1.334417E+05 -7.509094E+04 -1.057348E+04 -1.007627E+05
        28   2  5.879443E+04 -2.492911E+05  2.365951E+05  1.029985E+05 -9.769322E+03 -2.340226E+05
        28   3  4.398181E+05 -2.488763E+05  5.009570E+05  2.714605E+05 -2.569612E+03 -3.672532E+05
        28   4  1.565949E+04  1.388653E+04  1.645222E+05 -4.664995E+04 -1.058906E+04 -9.625148E+04
        28   5  1.114907E+05 -3.288554E+04  2.796256E+05 -4.123706E+04 -9.699253E+03 -2.404175E+05
        28   6  5.065150E+05  1.388626E+04  5.634632E+05 -4.546150E+04 -2.340777E+03 -3.845667E+05
        28   7  5.607809E+04  1.857536E+05  1.956020E+05 -1.820085E+04 -1.060421E+04 -9.173903E+04
        28   8  1.642621E+05  1.836094E+05  3.226651E+05 -1.855240E+05 -9.626232E+03 -2.468147E+05
        28   9  5.735841E+05  2.769282E+05  6.260195E+05 -3.625189E+05 -2.094339E+03 -4.018876E+05
        28  10 -2.476052E+04 -1.579609E+05  1.334224E+05 -7.509180E+04 -2.608525E-09  4.105696E-09
        28  11  5.877962E+04 -2.493500E+05  2.364920E+05  1.029966E+05 -3.060007E-09  3.949247E-09
        28  12  4.397819E+05 -2.490212E+05  5.007034E+05  2.714598E+05  1.162235E-09  2.597962E-09
        28  13  1.565689E+04  1.387656E+04  1.645045E+05 -4.665077E+04 -5.218412E-09  3.021877E-09
        28  14  1.114751E+05 -3.294762E+04  2.795168E+05 -4.123894E+04 -5.207515E-09  1.012902E-09
        28  15  5.064752E+05  1.372752E+04  5.631853E+05 -4.546223E+04 -5.093991E-10 -1.481565E-09
        28  16  5.607571E+04  1.857445E+05  1.955859E+05 -1.820164E+04 -2.578079E-09 -4.869537E-09
        28  17  1.642457E+05  1.835440E+05  3.225504E+05 -1.855259E+05  1.929150E-09 -3.006817E-09
        28  18  5.735408E+05  2.767549E+05  6.257161E+05 -3.625196E+05 -2.701170E-09 -2.960851E-09
        28  19 -2.475767E+04 -1.579499E+05  1.334417E+05 -7.509094E+04  1.057348E+04  1.007627E+05
        28  20  5.879443E+04 -2.492911E+05  2.365951E+05  1.029985E+05  9.769322E+03  2.340226E+05
        28  21  4.398181E+05 -2.488763E+05  5.009570E+05  2.714605E+05  2.569612E+03  3.672532E+05
        28  22  1.565949E+04  1.388653E+04  1.645222E+05 -4.664995E+04  1.058906E+04  9.625148E+04
        28  23  1.114907E+05 -3.288554E+04  2.796256E+05 -4.123706E+04  9.699253E+03  2.404175E+05
        28  24  5.065150E+05  1.388626E+04  5.634632E+05 -4.546150E+04  2.340777E+03  3.845667E+05
        28  25  5.607809E+04  1.857536E+05  1.956020E+05 -1.820085E+04  1.060421E+04  9.173903E+04
        28  26  1.642621E+05  1.836094E+05  3.226651E+05 -1.855240E+05  9.626232E+03  2.468147E+05
        28  27  5.735841E+05  2.769282E+05  6.260195E+05 -3.625189E+05  2.094339E+03  4.018876E+05
        29   1 -3.586500E+06 -1.001779E+06 -5.385619E+05 -1.325832E+06 -2.979753E+05 -1.088098E+05
        29   2 -3.509491E+06 -5.501365E+05 -2.593354E+05 -1.359590E+06 -1.913188E+05 -6.141493E+04
        29   3 -3.583726E+06 -5.230171E+05 -1.733458E+05 -1.306996E+06 -8.184941E+04 -2.145626E+04
        29   4 -3.379167E+06 -8.124475E+05 -4.601688E+05 -1.156146E+06 -2.926823E+05 -1.068775E+05
        29   5 -3.279445E+06 -4.308039E+05 -1.928458E+05 -1.263303E+06 -1.900017E+05 -6.093043E+04
        29   6 -3.330117E+06 -4.728212E+05 -1.155430E+05 -1.284131E+06 -8.450416E+04 -2.245092E+04
        29   7 -3.171762E+06 -6.230188E+05 -3.817760E+05 -9.863899E+05 -2.873873E+05 -1.049420E+05
        29   8 -3.049346E+06 -3.114527E+05 -1.263614E+05 -1.166980E+06 -1.886840E+05 -6.044555E+04
        29   9 -3.076442E+06 -4.226264E+05 -5.774308E+04 -1.261262E+06 -8.716011E+04 -2.344554E+04
        29  10 -3.586599E+06 -1.001816E+06 -5.387523E+05 -1.325858E+06 -6.223972E-10  2.802282E-10
        29  11 -3.509531E+06 -5.501505E+05 -2.594118E+05 -1.359599E+06  6.762620E-10  5.271122E-11
        29  12 -3.583733E+06 -5.230194E+05 -1.733593E+05 -1.306998E+06  3.239983E-09 -9.810209E-10
        29  13 -3.379262E+06 -8.124830E+05 -4.603524E+05 -1.156171E+06  1.731314E-09  1.775124E-10
        29  14 -3.279485E+06 -4.308177E+05 -1.929211E+05 -1.263312E+06 -5.839294E-09  8.075567E-10
        29  15 -3.330125E+06 -4.728237E+05 -1.155575E+05 -1.284132E+06 -4.613611E-09 -1.019297E-09
        29  16 -3.171855E+06 -6.230530E+05 -3.819529E+05 -9.864143E+05 -1.555546E-09  2.532497E-09
        29  17 -3.049385E+06 -3.114663E+05 -1.264356E+05 -1.166989E+06 -2.117361E-09  4.137860E-09
        29  18 -3.076451E+06 -4.226291E+05 -5.775848E+04 -1.261264E+06 -3.286815E-09  1.592081E-09
        29  19 -3.586500E+06 -1.001779E+06 -5.385619E+05 -1.325832E+06  2.979753E+05  1.088098E+05
        29  20 -3.509491E+06 -5.501365E+05 -2.593354E+05 -1.359590E+06  1.913188E+05  6.141493E+04
        29  21 -3.583726E+06 -5.230171E+05 -1.733458E+05 -1.306996E+06  8.184941E+04  2.145626E+04
        29  22 -3.379167E+06 -8.124475E+05 -4.601688E+05 -1.156146E+06  2.926823E+05  1.068775E+05
        29  23 -3.279445E+06 -4.308039E+05 -1.928458E+05 -1.263303E+06  1.900017E+05  6.093043E+04
        29  24 -3.330117E+06 -4.728212E+05 -1.155430E+05 -1.284131E+06  8.450416E+04  2.245092E+04
        29  25 -3.171762E+06 -6.230188E+05 -3.817760E+05 -9.863899E+05  2.873873E+05  1.049420E+05
        29  26 -3.049346E+06 -3.114527E+05 -1.263614E+05 -1.166980E+06  1.886840E+05  6.044555E+04
        29  27 -3.076442E+06 -4.226264E+05 -5.774308E+04 -1.261262E+06  8.716011E+04  2.344554E+04
        30   1 -3.484124E+06 -5.930424E+05 -1.399936E+05 -1.314279E+06 -6.721814E+04 -1.817184E+04
        30   2 -3.450687E+06 -5.271143E+05 -8.214594E+04 -1.299075E+06 -4.301632E+04 -1.032612E+04
        30   3 -3.417311E+06 -5.209925E+05 -5.331112E+04 -1.294940E+06 -1.860577E+04 -3.027717E+03
        30   4 -3.314974E+06 -5.192467E+05 -9.365230E+04 -1.257777E+06 -6.768629E+04 -1.834991E+04
        30   5 -3.312515E+06 -4.724164E+05 -4.542356E+04 -1.258619E+06 -4.377254E+04 -1.061165E+04
        30   6 -3.310055E+06 -4.853291E+05 -2.597140E+04 -1.270530E+06 -1.965141E+04 -3.421853E+03
        30   7 -3.145795E+06 -4.454461E+05 -4.731345E+04 -1.201260E+06 -6.815459E+04 -1.852805E+04
        30   8 -3.174323E+06 -4.177168E+05 -8.702790E+03 -1.218155E+06 -4.452895E+04 -1.089726E+04
        30   9 -3.202788E+06 -4.496655E+05  1.367407E+03 -1.246117E+06 -2.069726E+04 -3.816042E+03
        30  10 -3.484129E+06 -5.930439E+05 -1.400027E+05 -1.314280E+06  9.004178E-10 -5.051901E-10
        30  11 -3.450689E+06 -5.271149E+05 -8.214964E+04 -1.299076E+06 -3.038553E-10 -7.189017E-10
        30  12 -3.417311E+06 -5.209926E+05 -5.331179E+04 -1.294940E+06 -3.490602E-09  1.315155E-09
        30  13 -3.314979E+06 -5.192483E+05 -9.366160E+04 -1.257778E+06 -3.756658E-09 -2.932163E-09
        30  14 -3.312517E+06 -4.724171E+05 -4.542740E+04 -1.258620E+06  9.929391E-10 -1.975491E-09
        30  15 -3.310055E+06 -4.853292E+05 -2.597216E+04 -1.270530E+06  2.243899E-09  1.701014E-09
        30  16 -3.145800E+06 -4.454477E+05 -4.732288E+04 -1.201261E+06 -1.193104E-09 -2.490030E-09
        30  17 -3.174326E+06 -4.177174E+05 -8.706762E+03 -1.218155E+06  1.187486E-09 -2.485299E-09
        30  18 -3.202789E+06 -4.496657E+05  1.366570E+03 -1.246118E+06  5.936379E-09  6.031473E-11
        30  19 -3.484124E+06 -5.930424E+05 -1.399936E+05 -1.314279E+06  6.721814E+04  1.817184E+04
        30  20 -3.450687E+06 -5.271143E+05 -8.214594E+04 -1.299075E+06  4.301632E+04  1.032612E+04
        30  21 -3.417311E+06 -5.209925E+05 -5.331112E+04 -1.294940E+06  1.860577E+04  3.027717E+03
        30  22 -3.314974E+06 -5.192467E+05 -9.365230E+04 -1.257777E+06  6.768629E+04  1.834991E+04
        30  23 -3.312515E+06 -4.724164E+05 -4.542356E+04 -1.258619E+06  4.377254E+04  1.061165E+04
        30  24 -3.310055E+06 -4.853291E+05 -2.597140E+04 -1.270530E+06  1.965141E+04  3.421853E+03
        30  25 -3.145795E+06 -4.454461E+05 -4.731345E+04 -1.201260E+06  6.815459E+04  1.852805E+04
        30  26 -3.174323E+06 -4.177168E+05 -8.702790E+03 -1.218155E+06  4.452895E+04  1.089726E+04
        30  27 -3.202788E+06 -4.496655E+05  1.367407E+03 -1.246117E+06  2.069726E+04  3.816042E+03
        31   1 -3.364684E+06 -5.119991E+05 -3.502804E+04 -1.284163E+06 -1.464628E+04 -2.761638E+03
        31   2 -3.335835E+06 -4.840944E+05 -1.572654E+04 -1.263536E+06 -8.632751E+03 -2.430541E+03
        31   3 -3.290110E+06 -4.795136E+05 -1.566632E+03 -1.263818E+06 -2.603764E+03 -2.139521E+03
        31   4 -3.308124E+06 -4.899541E+05 -2.018260E+04 -1.267924E+06 -1.554616E+04 -3.100941E+03
        31   5 -3.316319E+06 -4.766335E+05 -1.059046E+04 -1.258092E+06 -9.553726E+03 -2.777759E+03
        31   6 -3.307636E+06 -4.866325E+05 -6.122427E+03 -1.269170E+06 -3.546167E+03 -2.494789E+03
        31   7 -3.251561E+06 -4.679088E+05 -5.337479E+03 -1.251685E+06 -1.644613E+04 -3.440281E+03
        31   8 -3.296804E+06 -4.691726E+05 -5.454413E+03 -1.252649E+06 -1.047473E+04 -3.124989E+03
        31   9 -3.325162E+06 -4.937514E+05 -1.067826E+04 -1.274522E+06 -4.488544E+03 -2.850045E+03
        31  10 -3.364684E+06 -5.119992E+05 -3.502846E+04 -1.284163E+06 -3.043339E-09  1.508026E-09
        31  11 -3.335835E+06 -4.840944E+05 -1.572669E+04 -1.263536E+06 -2.870239E-09  8.461510E-10
        31  12 -3.290110E+06 -4.795136E+05 -1.566654E+03 -1.263818E+06 -2.083747E-09  1.592474E-10
        31  13 -3.308124E+06 -4.899541E+05 -2.018308E+04 -1.267924E+06  1.390609E-09  1.987732E-09
        31  14 -3.316320E+06 -4.766335E+05 -1.059065E+04 -1.258092E+06 -4.023867E-09  1.454147E-09
        31  15 -3.307636E+06 -4.866325E+05 -6.122462E+03 -1.269170E+06  2.945683E-09  1.030420E-09
        31  16 -3.251561E+06 -4.679089E+05 -5.338013E+03 -1.251685E+06  7.702120E-10 -4.466989E-10
        31  17 -3.296804E+06 -4.691726E+05 -5.454639E+03 -1.252649E+06 -1.863502E-09 -3.320962E-10
        31  18 -3.325162E+06 -4.937515E+05 -1.067831E+04 -1.274522E+06  2.451593E-09  2.779469E-09
        31  19 -3.364684E+06 -5.119991E+05 -3.502804E+04 -1.284163E+06  1.464628E+04  2.761638E+03
        31  20 -3.335835E+06 -4.840944E+05 -1.572654E+04 -1.263536E+06  8.632751E+03  2.430541E+03
        31  21 -3.290110E+06 -4.795136E+05 -1.566632E+03 -1.263818E+06  2.603764E+03  2.139521E+03
        31  22 -3.308124E+06 -4.899541E+05 -2.018260E+04 -1.267924E+06  1.554616E+04  3.100941E+03
        31  23 -3.316319E+06 -4.766335E+05 -1.059046E+04 -1.258092E+06  9.553726E+03  2.777759E+03
        31  24 -3.307636E+06 -4.866325E+05 -6.122427E+03 -1.269170E+06  3.546167E+03  2.494789E+03
        31  25 -3.251561E+06 -4.679088E+05 -5.337479E+03 -1.251685E+06  1.644613E+04  3.440281E+03
        31  26 -3.296804E+06 -4.691726E+05 -5.454413E+03 -1.252649E+06  1.047473E+04  3.124989E+03
        31  27 -3.325162E+06 -4.937514E+05 -1.067826E+04 -1.274522E+06  4.488544E+03  2.850045E+03
        32   1 -3.242509E+06 -4.624729E+05  1.235041E+04 -1.251059E+06 -1.340165E+03 -2.824329E+03
        32   2 -3.214862E+06 -4.387711E+05  2.361460E+04 -1.230293E+06  8.364377E+02 -3.964982E+03
        32   3 -3.168763E+06 -4.343679E+05  3.361356E+04 -1.230875E+06  3.004534E+03 -5.081698E+03
        32   4 -3.307465E+06 -4.869742E+05 -4.820028E+03 -1.268803E+06 -2.268227E+03 -3.174227E+03
        32   5 -3.316671E+06 -4.771913E+05 -3.083196E+03 -1.258178E+06 -7.900581E+01 -4.310235E+03
        32   6 -3.307427E+06 -4.867100E+05 -2.621543E+03 -1.268903E+06  2.101594E+03 -5.422333E+03
        32   7 -3.372417E+06 -5.114752E+05 -2.199086E+04 -1.286545E+06 -3.196183E+03 -3.524085E+03
        32   8 -3.418469E+06 -5.156107E+05 -2.978173E+04 -1.286059E+06 -9.942789E+02 -4.655423E+03
        32   9 -3.446072E+06 -5.390502E+05 -3.885781E+04 -1.306922E+06  1.198887E+03 -5.762880E+03
        32  10 -3.242509E+06 -4.624729E+05  1.235040E+04 -1.251059E+06 -9.871485E-10  3.430687E-09
        32  11 -3.214862E+06 -4.387711E+05  2.361457E+04 -1.230293E+06 -1.451292E-09  3.833404E-10
        32  12 -3.168763E+06 -4.343680E+05  3.361350E+04 -1.230875E+06 -8.852598E-10 -1.769536E-09
        32  13 -3.307465E+06 -4.869742E+05 -4.820056E+03 -1.268803E+06 -3.043408E-09  2.327295E-09
        32  14 -3.316671E+06 -4.771913E+05 -3.083231E+03 -1.258178E+06  3.370874E-09 -1.005340E-09
        32  15 -3.307427E+06 -4.867101E+05 -2.621607E+03 -1.268903E+06  1.345297E-10  1.101034E-09
        32  16 -3.372417E+06 -5.114752E+05 -2.199091E+04 -1.286545E+06 -1.172126E-09  1.229735E-09
        32  17 -3.418469E+06 -5.156107E+05 -2.978177E+04 -1.286059E+06  9.546501E-11 -2.077871E-09
        32  18 -3.446072E+06 -5.390503E+05 -3.885787E+04 -1.306922E+06  2.728108E-09  3.342986E-10
        32  19 -3.242509E+06 -4.624729E+05  1.235041E+04 -1.251059E+06  1.340165E+03  2.824329E+03
        32  20 -3.214862E+06 -4.387711E+05  2.361460E+04 -1.230293E+06 -8.364377E+02  3.964982E+03
        32  21 -3.168763E+06 -4.343679E+05  3.361356E+04 -1.230875E+06 -3.004534E+03  5.081698E+03
        32  22 -3.307465E+06 -4.869742E+05 -4.820028E+03 -1.268803E+06  2.268227E+03  3.174227E+03
        32  23 -3.316671E+06 -4.771913E+05 -3.083196E+03 -1.258178E+06  7.900581E+01  4.310235E+03
        32  24 -3.307427E+06 -4.867100E+05 -2.621543E+03 -1.268903E+06 -2.101594E+03  5.422333E+03
        32  25 -3.372417E+06 -5.114752E+05 -2.199086E+04 -1.286545E+06  3.196183E+03  3.524085E+03
        32  26 -3.418469E+06 -5.156107E+05 -2.978173E+04 -1.286059E+06  9.942789E+02  4.655423E+03
        32  27 -3.446072E+06 -5.390502E+05 -3.885781E+04 -1.306922E+06 -1.198887E+03  5.762880E+03
        33   1 -3.123672E+06 -4.170442E+05  4.565866E+04 -1.218298E+06  3.799877E+03 -5.894086E+03
        33   2 -3.097849E+06 -3.950837E+05  5.361117E+04 -1.198724E+06  6.218921E+03 -6.839604E+03
        33   3 -3.054792E+06 -3.913310E+05  6.007538E+04 -1.199084E+06  8.614445E+03 -7.719985E+03
        33   4 -3.307697E+06 -4.864270E+05 -2.722063E+03 -1.268606E+06  2.908920E+03 -6.230319E+03
        33   5 -3.316342E+06 -4.775250E+05 -3.679341E+03 -1.258561E+06  5.362183E+03 -7.163163E+03
        33   6 -3.307762E+06 -4.868389E+05 -6.152532E+03 -1.268454E+06  7.791804E+03 -8.030896E+03
        33   7 -3.491691E+06 -5.558084E+05 -5.110620E+04 -1.318901E+06  2.018246E+03 -6.566446E+03
        33   8 -3.534791E+06 -5.599641E+05 -6.097444E+04 -1.318380E+06  4.505769E+03 -7.486600E+03
        33   9 -3.560672E+06 -5.823433E+05 -7.238639E+04 -1.337798E+06  6.969528E+03 -8.341669E+03
        33  10 -3.123672E+06 -4.170442E+05  4.565857E+04 -1.218298E+06  1.081611E-10 -1.451915E-09
        33  11 -3.097849E+06 -3.950837E+05  5.361100E+04 -1.198724E+06 -4.013986E-09 -1.214923E-09
        33  12 -3.054792E+06 -3.913311E+05  6.007513E+04 -1.199084E+06 -2.945461E-09 -1.383672E-09
        33  13 -3.307697E+06 -4.864270E+05 -2.722151E+03 -1.268606E+06  4.579013E-10 -1.235980E-09
        33  14 -3.316342E+06 -4.775251E+05 -3.679491E+03 -1.258561E+06 -3.380783E-09 -2.717697E-09
        33  15 -3.307763E+06 -4.868389E+05 -6.152767E+03 -1.268454E+06 -4.180347E-09 -1.092107E-10
        33  16 -3.491691E+06 -5.558085E+05 -5.110629E+04 -1.318901E+06  2.512955E-10 -1.329779E-09
        33  17 -3.534791E+06 -5.599642E+05 -6.097459E+04 -1.318380E+06  4.004974E-09 -1.177165E-09
        33  18 -3.560672E+06 -5.823434E+05 -7.238661E+04 -1.337797E+06  4.529412E-09  1.393327E-09
        33  19 -3.123672E+06 -4.170442E+05  4.565866E+04 -1.218298E+06 -3.799877E+03  5.894086E+03
        33  20 -3.097849E+06 -3.950837E+05  5.361117E+04 -1.198724E+06 -6.218921E+03  6.839604E+03
        33  21 -3.054792E+06 -3.913310E+05  6.007538E+04 -1.199084E+06 -8.614445E+03  7.719985E+03
        33  22 -3.307697E+06 -4.864270E+05 -2.722063E+03 -1.268606E+06 -2.908920E+03  6.230319E+03
        33  23 -3.316342E+06 -4.775250E+05 -3.679341E+03 -1.258561E+06 -5.362183E+03  7.163163E+03
        33  24 -3.307762E+06 -4.868389E+05 -6.152532E+03 -1.268454E+06 -7.791804E+03  8.030896E+03
        33  25 -3.491691E+06 -5.558084E+05 -5.110620E+04 -1.318901E+06 -2.018246E+03  6.566446E+03
        33  26 -3.534791E+06 -5.599641E+05 -6.097444E+04 -1.318380E+06 -4.505769E+03  7.486600E+03
        33  27 -3.560672E+06 -5.823433E+05 -7.238639E+04 -1.337798E+06 -6.969528E+03  8.341669E+03
        34   1 -3.013988E+06 -3.753089E+05  6.931282E+04 -1.188308E+06  1.009775E+04 -8.178476E+03
        34   2 -2.990800E+06 -3.548089E+05  7.119100E+04 -1.170093E+06  1.760516E+04 -6.998805E+03
        34   3 -2.954852E+06 -3.554032E+05  6.641744E+04 -1.168411E+06  2.505844E+04 -5.672036E+03
        34   4 -3.308530E+06 -4.858352E+05 -7.925154E+03 -1.268322E+06  9.278294E+03 -8.488359E+03
        34   5 -3.315229E+06 -4.774903E+05 -1.392281E+04 -1.259226E+06  1.686089E+04 -7.280591E+03
        34   6 -3.309186E+06 -4.902565E+05 -2.663474E+04 -1.266662E+06  2.438903E+04 -5.925832E+03
        34   7 -3.602985E+06 -5.963550E+05 -8.516954E+04 -1.348302E+06  8.459272E+03 -8.798078E+03
        34   8 -3.639554E+06 -6.001645E+05 -9.904529E+04 -1.348316E+06  1.611705E+04 -7.562215E+03
        34   9 -3.663399E+06 -6.251021E+05 -1.196982E+05 -1.364861E+06  2.372004E+04 -6.179468E+03
        34  10 -3.013988E+06 -3.753090E+05  6.931250E+04 -1.188308E+06 -5.014653E-10  1.428093E-10
        34  11 -2.990800E+06 -3.548091E+05  7.119033E+04 -1.170093E+06  2.529001E-09  2.667606E-10
        34  12 -2.954853E+06 -3.554034E+05  6.641619E+04 -1.168411E+06  2.782813E-09 -1.305680E-11
        34  13 -3.308530E+06 -4.858353E+05 -7.925451E+03 -1.268322E+06 -1.937475E-09 -1.511301E-10
        34  14 -3.315229E+06 -4.774904E+05 -1.392345E+04 -1.259226E+06  1.781973E-09  6.599885E-10
        34  15 -3.309186E+06 -4.902567E+05 -2.663593E+04 -1.266661E+06  2.565995E-09  2.812749E-09
        34  16 -3.602985E+06 -5.963551E+05 -8.516982E+04 -1.348302E+06 -8.212810E-10  1.119642E-09
        34  17 -3.639554E+06 -6.001646E+05 -9.904589E+04 -1.348316E+06  1.785933E-09 -2.751726E-09
        34  18 -3.663399E+06 -6.251023E+05 -1.196993E+05 -1.364861E+06  2.419368E-09  3.994585E-10
        34  19 -3.013988E+06 -3.753089E+05  6.931282E+04 -1.188308E+06 -1.009775E+04  8.178476E+03
        34  20 -2.990800E+06 -3.548089E+05  7.119100E+04 -1.170093E+06 -1.760516E+04  6.998805E+03
        34  21 -2.954852E+06 -3.554032E+05  6.641744E+04 -1.168411E+06 -2.505844E+04  5.672036E+03
        34  22 -3.308530E+06 -4.858352E+05 -7.925154E+03 -1.268322E+06 -9.278294E+03  8.488359E+03
        34  23 -3.315229E+06 -4.774903E+05 -1.392281E+04 -1.259226E+06 -1.686089E+04  7.280591E+03
        34  24 -3.309186E+06 -4.902565E+05 -2.663474E+04 -1.266662E+06 -2.438903E+04  5.925832E+03
        34  25 -3.602985E+06 -5.963550E+05 -8.516954E+04 -1.348302E+06 -8.459272E+03  8.798078E+03
        34  26 -3.639554E+06 -6.001645E+05 -9.904529E+04 -1.348316E+06 -1.611705E+04  7.562215E+03
        34  27 -3.663399E+06 -6.251021E+05 -1.196982E+05 -1.364861E+06 -2.372004E+04  6.179468E+03
        35   1 -2.917345E+06 -3.408497E+05  6.814555E+04 -1.167745E+06  3.049682E+04 -4.612237E+03
        35   2 -2.896981E+06 -3.130192E+05  4.885785E+04 -1.143680E+06  6.147344E+04  5.783783E+03
        35   3 -2.888056E+06 -3.523039E+05 -8.009904E+03 -1.120824E+06  9.208089E+04  1.715828E+04
        35   4 -3.312169E+06 -4.837021E+05 -3.429771E+04 -1.269614E+06  2.960107E+04 -4.951501E+03
        35   5 -3.309667E+06 -4.724868E+05 -6.005108E+04 -1.260553E+06  6.108241E+04  5.634491E+03
        35   6 -3.318721E+06 -5.285123E+05 -1.238062E+05 -1.252698E+06  9.219344E+04  1.719768E+04
        35   7 -3.706842E+06 -6.265479E+05 -1.367539E+05 -1.371426E+06  2.870593E+04 -5.290553E+03
        35   8 -3.722186E+06 -6.319412E+05 -1.689745E+05 -1.377353E+06  6.069166E+04  5.485308E+03
        35   9 -3.749203E+06 -7.046994E+05 -2.396186E+05 -1.384485E+06  9.230590E+04  1.723702E+04
        35  10 -2.917346E+06 -3.408500E+05  6.814376E+04 -1.167745E+06 -1.208564E-09  6.427114E-10
        35  11 -2.896985E+06 -3.130202E+05  4.885065E+04 -1.143681E+06 -2.311624E-09  2.585844E-09
        35  12 -2.888065E+06 -3.523065E+05 -8.026475E+03 -1.120825E+06 -4.173528E-10 -3.330518E-10
        35  13 -3.312170E+06 -4.837024E+05 -3.429941E+04 -1.269614E+06  2.852403E-09  4.479099E-10
        35  14 -3.309671E+06 -4.724878E+05 -6.005819E+04 -1.260553E+06  1.929612E-09 -1.385254E-09
        35  15 -3.318730E+06 -5.285150E+05 -1.238228E+05 -1.252699E+06 -1.138034E-09 -6.684415E-10
        35  16 -3.706842E+06 -6.265482E+05 -1.367555E+05 -1.371425E+06  7.325736E-10  1.625268E-10
        35  17 -3.722190E+06 -6.319423E+05 -1.689816E+05 -1.377354E+06  3.650399E-09 -5.354247E-09
        35  18 -3.749212E+06 -7.047021E+05 -2.396353E+05 -1.384486E+06 -3.277716E-09  6.655678E-10
        35  19 -2.917345E+06 -3.408497E+05  6.814555E+04 -1.167745E+06 -3.049682E+04  4.612237E+03
        35  20 -2.896981E+06 -3.130192E+05  4.885785E+04 -1.143680E+06 -6.147344E+04 -5.783783E+03
        35  21 -2.888056E+06 -3.523039E+05 -8.009904E+03 -1.120824E+06 -9.208089E+04 -1.715828E+04
        35  22 -3.312169E+06 -4.837021E+05 -3.429771E+04 -1.269614E+06 -2.960107E+04  4.951501E+03
        35  23 -3.309667E+06 -4.724868E+05 -6.005108E+04 -1.260553E+06 -6.108241E+04 -5.634491E+03
        35  24 -3.318721E+06 -5.285123E+05 -1.238062E+05 -1.252698E+06 -9.219344E+04 -1.719768E+04
        35  25 -3.706842E+06 -6.265479E+05 -1.367539E+05 -1.371426E+06 -2.870593E+04  5.290553E+03
        35  26 -3.722186E+06 -6.319412E+05 -1.689745E+05 -1.377353E+06 -6.069166E+04 -5.485308E+03
        35  27 -3.749203E+06 -7.046994E+05 -2.396186E+05 -1.384485E+06 -9.230590E+04 -1.723702E+04
        36   1 -2.827171E+06 -3.336922E+05 -3.018233E+04 -1.208082E+06  1.178428E+05  2.428996E+04
        36   2 -2.811089E+06 -2.026636E+05 -1.275494E+05 -1.098154E+06  2.501069E+05  7.423264E+04
        36   3 -3.005838E+06 -6.164203E+05 -4.706516E+05 -8.585085E+05  3.776033E+05  1.367705E+05
        36   4 -3.338972E+06 -4.669020E+05 -1.527486E+05 -1.287280E+06  1.142981E+05  2.295881E+04
        36   5 -3.265506E+06 -4.179114E+05 -2.549497E+05 -1.267235E+06  2.532083E+05  7.538683E+04
        36   6 -3.404389E+06 -9.153252E+05 -6.083231E+05 -1.117417E+06  3.873601E+05  1.403635E+05
        36   7 -3.850514E+06 -6.001195E+05 -2.753316E+05 -1.366434E+06  1.107566E+05  2.162800E+04
        36   8 -3.719715E+06 -6.331084E+05 -3.823687E+05 -1.436192E+06  2.563071E+05  7.653949E+04
        36   9 -3.802728E+06 -1.214024E+06 -7.460026E+05 -1.376128E+06  3.971098E+05  1.439479E+05
        36  10 -2.827186E+06 -3.336966E+05 -3.020968E+04 -1.208084E+06  2.154829E-10 -7.695086E-10
        36  11 -2.811158E+06 -2.026864E+05 -1.276780E+05 -1.098169E+06 -2.270536E-09  3.882117E-10
        36  12 -3.005997E+06 -6.164790E+05 -4.709563E+05 -8.585502E+05  1.323774E-09  1.244640E-10
        36  13 -3.338986E+06 -4.669061E+05 -1.527743E+05 -1.287282E+06 -1.208001E-09  1.011662E-10
        36  14 -3.265577E+06 -4.179349E+05 -2.550817E+05 -1.267251E+06 -4.958668E-09  3.095168E-09
        36  15 -3.404557E+06 -9.153870E+05 -6.086441E+05 -1.117461E+06  2.616892E-09 -3.704920E-10
        36  16 -3.850527E+06 -6.001234E+05 -2.753557E+05 -1.366436E+06 -3.261006E-10  1.124879E-09
        36  17 -3.719788E+06 -6.331325E+05 -3.825041E+05 -1.436207E+06 -2.202809E-09  3.088632E-09
        36  18 -3.802904E+06 -1.214089E+06 -7.463402E+05 -1.376174E+06 -6.691293E-10 -3.864411E-10
        36  19 -2.827171E+06 -3.336922E+05 -3.018233E+04 -1.208082E+06 -1.178428E+05 -2.428996E+04
        36  20 -2.811089E+06 -2.026636E+05 -1.275494E+05 -1.098154E+06 -2.501069E+05 -7.423264E+04
        36  21 -3.005838E+06 -6.164203E+05 -4.706516E+05 -8.585085E+05 -3.776033E+05 -1.367705E+05
        36  22 -3.338972E+06 -4.669020E+05 -1.527486E+05 -1.287280E+06 -1.142981E+05 -2.295881E+04
        36  23 -3.265506E+06 -4.179114E+05 -2.549497E+05 -1.267235E+06 -2.532083E+05 -7.538683E+04
        36  24 -3.404389E+06 -9.153252E+05 -6.083231E+05 -1.117417E+06 -3.873601E+05 -1.403635E+05
        36  25 -3.850514E+06 -6.001195E+05 -2.753316E+05 -1.366434E+06 -1.107566E+05 -2.162800E+04
        36  26 -3.719715E+06 -6.331084E+05 -3.823687E+05 -1.436192E+06 -2.563071E+05 -7.653949E+04
        36  27 -3.802728E+06 -1.214024E+06 -7.460026E+05 -1.376128E+06 -3.971098E+05 -1.439479E+05
        37   1  1.310190E+05 -7.873622E+05  1.237874E+05 -2.096542E+03  1.885884E+04  1.082257E+03
        37   2  1.288756E+05 -7.961152E+05  1.205446E+05  5.750603E+02  1.848662E+04  2.405784E+03
        37   3  1.259815E+05 -8.050331E+05  1.162934E+05 -2.543442E+03  1.803601E+04  3.728709E+03
        37   4 -7.183798E-01 -1.316484E+06 -1.572373E+03 -1.286114E+03  1.885947E+04  1.271394E+03
        37   5  3.867738E+01 -1.316398E+06 -2.741837E+03  1.608151E+03  1.848705E+04  2.639032E+03
        37   6 -6.807365E+02 -1.316484E+06 -4.950973E+03 -1.287988E+03  1.803620E+04  4.006087E+03
        37   7 -1.310405E+05 -1.845349E+06 -1.269516E+05 -4.762301E+02  1.886011E+04  1.460369E+03
        37   8 -1.288177E+05 -1.836431E+06 -1.260471E+05  2.640532E+03  1.848748E+04  2.872084E+03
        37   9 -1.273618E+05 -1.827693E+06 -1.262136E+05 -3.340038E+01  1.803640E+04  4.283235E+03
        37  10  1.310186E+05 -7.873623E+05  1.237867E+05 -2.096559E+03  1.619241E-09  1.928706E-09
        37  11  1.288752E+05 -7.961153E+05  1.205440E+05  5.750245E+02  2.510723E-09 -5.444591E-09
        37  12  1.259811E+05 -8.050332E+05  1.162928E+05 -2.543496E+03  5.576320E-10 -6.043687E-09
        37  13 -1.100517E+00 -1.316484E+06 -1.573044E+03 -1.286134E+03  2.573167E-09  1.126355E-09
        37  14  3.830873E+01 -1.316398E+06 -2.742492E+03  1.608111E+03 -9.067302E-10  6.773674E-13
        37  15 -6.810900E+02 -1.316484E+06 -4.951614E+03 -1.288046E+03 -7.578184E-10  1.042809E-09
        37  16 -1.310409E+05 -1.845349E+06 -1.269523E+05 -4.762523E+02 -1.552583E-09 -7.821492E-10
        37  17 -1.288181E+05 -1.836431E+06 -1.260478E+05  2.640489E+03 -1.824579E-11 -3.273461E-10
        37  18 -1.273622E+05 -1.827693E+06 -1.262142E+05 -3.346265E+01 -3.022541E-09  5.071539E-09
        37  19  1.310190E+05 -7.873622E+05  1.237874E+05 -2.096542E+03 -1.885884E+04 -1.082257E+03
        37  20  1.288756E+05 -7.961152E+05  1.205446E+05  5.750603E+02 -1.848662E+04 -2.405784E+03
        37  21  1.259815E+05 -8.050331E+05  1.162934E+05 -2.543442E+03 -1.803601E+04 -3.728709E+03
        37  22 -7.183797E-01 -1.316484E+06 -1.572373E+03 -1.286114E+03 -1.885947E+04 -1.271394E+03
        37  23  3.867738E+01 -1.316398E+06 -2.741837E+03  1.608151E+03 -1.848705E+04 -2.639032E+03
        37  24 -6.807365E+02 -1.316484E+06 -4.950973E+03 -1.287988E+03 -1.803620E+04 -4.006087E+03
        37  25 -1.310405E+05 -1.845349E+06 -1.269516E+05 -4.762301E+02 -1.886011E+04 -1.460369E+03
        37  26 -1.288177E+05 -1.836431E+06 -1.260471E+05  2.640532E+03 -1.848748E+04 -2.872084E+03
        37  27 -1.273618E+05 -1.827693E+06 -1.262136E+05 -3.340038E+01 -1.803640E+04 -4.283235E+03
        38   1  1.241007E+05 -8.172886E+05  1.120147E+05 -1.679009E+03  1.786001E+04  4.894578E+03
        38   2  1.218459E+05 -8.271214E+05  1.049594E+05  2.576341E+02  1.732942E+04  1.003797E+04
        38   3  1.111662E+05 -8.395862E+05  9.247682E+04 -5.134272E+03  1.614879E+04  1.517846E+04
        38   4  3.616382E+02 -1.317041E+06 -6.365439E+03 -1.620846E+03  1.786064E+04  5.001110E+03
        38   5  8.523094E+02 -1.315694E+06 -1.081834E+04  2.030673E+03  1.732876E+04  1.051475E+04
        38   6 -7.150071E+03 -1.317046E+06 -2.095877E+04 -1.646746E+03  1.614664E+04  1.602557E+04
        38   7 -1.233954E+05 -1.816563E+06 -1.247630E+05 -1.562555E+03  1.786128E+04  5.107556E+03
        38   8 -1.201585E+05 -1.804047E+06 -1.266126E+05  3.802489E+03  1.732811E+04  1.099115E+04
        38   9 -1.254827E+05 -1.794296E+06 -1.344103E+05  1.838267E+03  1.614451E+04  1.687203E+04
        38  10  1.241003E+05 -8.172887E+05  1.120141E+05 -1.679080E+03 -9.685479E-10  7.757578E-10
        38  11  1.218456E+05 -8.271216E+05  1.049586E+05  2.574940E+02 -2.117595E-09 -4.991134E-09
        38  12  1.111658E+05 -8.395865E+05  9.247590E+04 -5.134469E+03  1.752052E-09 -2.553916E-09
        38  13  3.612891E+02 -1.317041E+06 -6.366085E+03 -1.620918E+03  3.756448E-09  1.628030E-09
        38  14  8.519574E+02 -1.315694E+06 -1.081911E+04  2.030527E+03 -5.248424E-10  9.766850E-11
        38  15 -7.150420E+03 -1.317046E+06 -2.095975E+04 -1.646955E+03 -2.663251E-10  1.416609E-09
        38  16 -1.233957E+05 -1.816563E+06 -1.247636E+05 -1.562629E+03 -4.971513E-09  6.543463E-10
        38  17 -1.201588E+05 -1.804047E+06 -1.266134E+05  3.802336E+03  2.600295E-09 -2.148211E-09
        38  18 -1.254831E+05 -1.794297E+06 -1.344113E+05  1.838047E+03  2.781230E-09  1.413349E-09
        38  19  1.241007E+05 -8.172886E+05  1.120147E+05 -1.679009E+03 -1.786001E+04 -4.894578E+03
        38  20  1.218459E+05 -8.271214E+05  1.049594E+05  2.576341E+02 -1.732942E+04 -1.003797E+04
        38  21  1.111662E+05 -8.395862E+05  9.247682E+04 -5.134272E+03 -1.614879E+04 -1.517846E+04
        38  22  3.616382E+02 -1.317041E+06 -6.365439E+03 -1.620846E+03 -1.786064E+04 -5.001110E+03
        38  23  8.523094E+02 -1.315694E+06 -1.081834E+04  2.030673E+03 -1.732876E+04 -1.051475E+04
        38  24 -7.150071E+03 -1.317046E+06 -2.095877E+04 -1.646746E+03 -1.614664E+04 -1.602557E+04
        38  25 -1.233954E+05 -1.816563E+06 -1.247630E+05 -1.562555E+03 -1.786128E+04 -5.107556E+03
        38  26 -1.201585E+05 -1.804047E+06 -1.266126E+05  3.802489E+03 -1.732811E+04 -1.099115E+04
        38  27 -1.254827E+05 -1.794296E+06 -1.344103E+05  1.838267E+03 -1.614451E+04 -1.687203E+04
        39   1  1.186484E+05 -8.586992E+05  8.370893E+04  7.339757E+03  1.710556E+04  2.201562E+04
        39   2  1.203826E+05 -8.599233E+05  6.478433E+04 -6.736971E+03  1.576042E+04  3.893581E+04
        39   3  3.357048E+04 -8.854116E+05  1.271440E+04 -3.006474E+04  4.754103E+03  5.581454E+04
        39   4  4.056423E+03 -1.322041E+06 -2.580263E+04 -1.959835E+03  1.711371E+04  1.996343E+04
        39   5  8.978139E+03 -1.309443E+06 -4.177964E+04  2.503967E+03  1.574784E+04  4.242875E+04
        39   6 -7.564576E+04 -1.322091E+06 -9.477454E+04 -2.284944E+03  4.718685E+03  6.485256E+04
        39   7 -1.105506E+05 -1.785186E+06 -1.353290E+05 -1.125226E+04  1.712192E+04  1.791277E+04
        39   8 -1.024406E+05 -1.758777E+06 -1.483576E+05  1.173835E+04  1.573536E+04  4.591916E+04
        39   9 -1.848734E+05 -1.758595E+06 -2.022769E+05  2.547543E+04  4.684066E+03  7.388422E+04
        39  10  1.186479E+05 -8.586998E+05  8.370747E+04  7.339454E+03 -1.606198E-09 -4.080159E-10
        39  11  1.203820E+05 -8.599250E+05  6.478101E+04 -6.737465E+03 -1.575934E-09 -7.062901E-09
        39  12  3.356962E+04 -8.854149E+05  1.270849E+04 -3.006496E+04 -1.976342E-09 -2.472175E-09
        39  13  4.056001E+03 -1.322042E+06 -2.580393E+04 -1.960110E+03 -3.536852E-10  2.052136E-09
        39  14  8.977389E+03 -1.309445E+06 -4.178350E+04  2.503429E+03  3.642920E-10 -3.832857E-10
        39  15 -7.564692E+04 -1.322096E+06 -9.478250E+04 -2.285191E+03 -5.025841E-10  1.255258E-09
        39  16 -1.105510E+05 -1.785186E+06 -1.353302E+05 -1.125250E+04  1.069010E-09  2.422139E-09
        39  17 -1.024414E+05 -1.758780E+06 -1.483620E+05  1.173777E+04 -2.124585E-09 -1.386786E-09
        39  18 -1.848749E+05 -1.758601E+06 -2.022872E+05  2.547515E+04 -7.383359E-10  1.190743E-09
        39  19  1.186484E+05 -8.586992E+05  8.370893E+04  7.339757E+03 -1.710556E+04 -2.201562E+04
        39  20  1.203826E+05 -8.599233E+05  6.478433E+04 -6.736971E+03 -1.576042E+04 -3.893581E+04
        39  21  3.357048E+04 -8.854116E+05  1.271440E+04 -3.006474E+04 -4.754103E+03 -5.581454E+04
        39  22  4.056423E+03 -1.322041E+06 -2.580263E+04 -1.959835E+03 -1.711371E+04 -1.996343E+04
        39  23  8.978139E+03 -1.309443E+06 -4.177964E+04  2.503967E+03 -1.574784E+04 -4.242875E+04
        39  24 -7.564576E+04 -1.322091E+06 -9.477454E+04 -2.284944E+03 -4.718685E+03 -6.485256E+04
        39  25 -1.105506E+05 -1.785186E+06 -1.353290E+05 -1.125226E+04 -1.712192E+04 -1.791277E+04
        39  26 -1.024406E+05 -1.758777E+06 -1.483576E+05  1.173835E+04 -1.573536E+04 -4.591916E+04
        39  27 -1.848734E+05 -1.758595E+06 -2.022769E+05  2.547543E+04 -4.684066E+03 -7.388422E+04
        40   1  9.366036E+04  1.001910E+06  5.343635E+04 -2.036737E+02  3.277692E+04 -6.277818E+02
        40   2  9.379783E+04  1.002024E+06  5.419232E+04 -1.674946E+02  3.266593E+04 -1.602678E+03
        40   3  9.417742E+04  1.002334E+06  5.564569E+04 -1.116413E+02  3.240703E+04 -2.577682E+03
        40   4 -3.636739E+01  5.857651E+05  7.102706E+02  4.359123E+00  3.277919E+04 -5.375354E+02
        40   5  2.090645E+01  5.856974E+05  1.246672E+03 -5.416707E+00  3.266802E+04 -1.156552E+03
        40   6  2.586663E+02  5.857648E+05  2.233835E+03  4.482096E+00  3.240887E+04 -1.775670E+03
        40   7 -9.374015E+04  1.697980E+05 -5.201640E+04  2.122639E+02  3.278147E+04 -4.473464E+02
        40   8 -9.376311E+04  1.695487E+05 -5.169962E+04  1.565678E+02  3.267011E+04 -7.107101E+02
        40   9 -9.366724E+04  1.693727E+05 -5.117880E+04  1.205466E+02  3.241072E+04 -9.741691E+02
        40  10  9.365920E+04  1.001909E+06  5.343432E+04 -2.036571E+02 -6.087290E-10 -1.206063E-07
        40  11  9.379669E+04  1.002024E+06  5.419030E+04 -1.674525E+02 -7.691878E-10  1.194918E-08
        40  12  9.417629E+04  1.002334E+06  5.564371E+04 -1.115741E+02 -1.017004E-08  1.483546E-07
        40  13 -3.752158E+01  5.857648E+05  7.082504E+02  4.373311E+00  5.681121E-09  5.878928E-10
        40  14  1.975979E+01  5.856972E+05  1.244663E+03 -5.386284E+00  1.475832E-08 -9.940879E-10
        40  15  2.575373E+02  5.857645E+05  2.231854E+03  4.528433E+00  2.258904E-08  6.595557E-10
        40  16 -9.374131E+04  1.697977E+05 -5.201842E+04  2.122757E+02  8.871073E-10  1.199108E-07
        40  17 -9.376426E+04  1.695484E+05 -5.170163E+04  1.565865E+02 -7.309917E-09 -1.231574E-08
        40  18 -9.366837E+04  1.693724E+05 -5.118078E+04  1.205720E+02 -1.240965E-08 -1.480943E-07
        40  19  9.366036E+04  1.001910E+06  5.343635E+04 -2.036737E+02 -3.277692E+04  6.277818E+02
        40  20  9.379783E+04  1.002024E+06  5.419232E+04 -1.674946E+02 -3.266593E+04  1.602678E+03
        40  21  9.417742E+04  1.002334E+06  5.564569E+04 -1.116413E+02 -3.240703E+04  2.577682E+03
        40  22 -3.636739E+01  5.857651E+05  7.102706E+02  4.359123E+00 -3.277919E+04  5.375354E+02
        40  23  2.090645E+01  5.856974E+05  1.246672E+03 -5.416707E+00 -3.266802E+04  1.156552E+03
        40  24  2.586663E+02  5.857648E+05  2.233835E+03  4.482095E+00 -3.240887E+04  1.775670E+03
        40  25 -9.374015E+04  1.697980E+05 -5.201640E+04  2.122639E+02 -3.278147E+04  4.473464E+02
        40  26 -9.376311E+04  1.695487E+05 -5.169962E+04  1.565678E+02 -3.267011E+04  7.107101E+02
        40  27 -9.366724E+04  1.693727E+05 -5.117880E+04  1.205466E+02 -3.241072E+04  9.741691E+02
        41   1  9.441162E+04  1.002715E+06  5.669183E+04 -2.569640E+02  3.224349E+04 -3.099206E+03
        41   2  9.566534E+04  1.002354E+06  6.047564E+04  1.016373E+03  3.132515E+04 -8.411528E+03
        41   3  9.924516E+04  1.003274E+06  6.829807E+04  2.238243E+03  2.930184E+04 -1.372474E+04
        41   4  3.844532E+02  5.859172E+05  2.966865E+03 -1.151357E+01  3.224525E+04 -2.211649E+03
        41   5  1.339396E+03  5.855059E+05  5.298119E+03  1.527209E+01  3.132512E+04 -4.866834E+03
        41   6  4.160435E+03  5.859156E+05  9.825811E+03 -9.418353E+00  2.929966E+04 -7.522881E+03
        41   7 -9.364990E+04  1.692969E+05 -5.075897E+04  2.337883E+02  3.224700E+04 -1.324658E+03
        41   8 -9.299390E+04  1.688350E+05 -4.988065E+04 -9.851001E+02  3.132507E+04 -1.324404E+03
        41   9 -9.093201E+04  1.687336E+05 -4.864856E+04 -2.255477E+03  2.929743E+04 -1.325001E+03
        41  10  9.441050E+04  1.002715E+06  5.668986E+04 -2.568835E+02 -1.161473E-08 -7.779189E-08
        41  11  9.566427E+04  1.002354E+06  6.047366E+04  1.016585E+03 -6.926022E-09 -1.175016E-08
        41  12  9.924419E+04  1.003274E+06  6.829610E+04  2.238567E+03 -2.861156E-10  5.520866E-08
        41  13  3.833351E+02  5.859169E+05  2.964902E+03 -1.145614E+01  2.116774E-08  7.036418E-10
        41  14  1.338336E+03  5.855056E+05  5.296230E+03  1.539484E+01  1.494517E-08 -1.378015E-09
        41  15  4.159498E+03  5.859153E+05  9.824091E+03 -9.240872E+00 -5.561124E-10  6.625505E-10
        41  16 -9.365102E+04  1.692966E+05 -5.076092E+04  2.338227E+02 -1.348121E-08  7.680053E-08
        41  17 -9.299495E+04  1.688347E+05 -4.988250E+04 -9.850667E+02 -4.362334E-09  1.121358E-08
        41  18 -9.093293E+04  1.687334E+05 -4.865018E+04 -2.255445E+03 -5.772334E-10 -5.502641E-08
        41  19  9.441162E+04  1.002715E+06  5.669183E+04 -2.569640E+02 -3.224349E+04  3.099206E+03
        41  20  9.566534E+04  1.002354E+06  6.047564E+04  1.016373E+03 -3.132515E+04  8.411528E+03
        41  21  9.924516E+04  1.003274E+06  6.829807E+04  2.238243E+03 -2.930184E+04  1.372474E+04
        41  22  3.844532E+02  5.859172E+05  2.966865E+03 -1.151357E+01 -3.224525E+04  2.211649E+03
        41  23  1.339396E+03  5.855059E+05  5.298119E+03  1.527209E+01 -3.132512E+04  4.866834E+03
        41  24  4.160435E+03  5.859156E+05  9.825811E+03 -9.418353E+00 -2.929966E+04  7.522881E+03
        41  25 -9.364990E+04  1.692969E+05 -5.075897E+04  2.337883E+02 -3.224700E+04  1.324658E+03
        41  26 -9.299390E+04  1.688350E+05 -4.988065E+04 -9.851001E+02 -3.132507E+04  1.324404E+03
        41  27 -9.093201E+04  1.687336E+05 -4.864856E+04 -2.255477E+03 -2.929743E+04  1.325001E+03
        42   1  1.014148E+05  1.005249E+06  7.384358E+04  1.396309E+03  2.802318E+04 -1.609235E+04
        42   2  1.139398E+05  1.000829E+06  9.554120E+04  1.638837E+04  2.110408E+04 -4.817076E+04
        42   3  1.483092E+05  1.006048E+06  1.435638E+05  3.073580E+04  6.001791E+03 -8.025731E+04
        42   4  5.735859E+03  5.871180E+05  1.317704E+04 -1.432631E+02  2.802021E+04 -9.238500E+03
        42   5  1.644242E+04  5.839969E+05  2.435228E+04  1.931180E+02  2.108632E+04 -2.164852E+04
        42   6  4.558880E+04  5.871066E+05  4.821091E+04 -1.154337E+02  5.968235E+03 -3.406587E+04
        42   7 -8.995109E+04  1.691631E+05 -4.749219E+04 -1.681727E+03  2.801721E+04 -2.389062E+03
        42   8 -8.106282E+04  1.673371E+05 -4.683962E+04 -1.599090E+04  2.106716E+04  4.856503E+03
        42   9 -5.713896E+04  1.683345E+05 -4.714489E+04 -3.094567E+04  5.930083E+03  1.209473E+04
        42  10  1.014139E+05  1.005249E+06  7.384161E+04  1.396672E+03  1.491016E-09  6.940332E-10
        42  11  1.139387E+05  1.000827E+06  9.553600E+04  1.638919E+04  1.483043E-09  2.048810E-10
        42  12  1.483074E+05  1.006041E+06  1.435517E+05  3.073619E+04  6.646769E-10  4.097394E-09
        42  13  5.734992E+03  5.871177E+05  1.317540E+04 -1.430547E+02 -1.436415E-09  5.924617E-10
        42  14  1.644182E+04  5.839963E+05  2.435056E+04  1.934855E+02  3.214693E-09 -1.633426E-09
        42  15  4.558845E+04  5.871053E+05  4.820866E+04 -1.152700E+02  1.686216E-09  1.099479E-09
        42  16 -8.995193E+04  1.691629E+05 -4.749367E+04 -1.681673E+03 -2.834521E-09 -1.934180E-09
        42  17 -8.106330E+04  1.673370E+05 -4.684050E+04 -1.599099E+04 -2.503088E-09 -9.905219E-10
        42  18 -5.713904E+04  1.683343E+05 -4.714523E+04 -3.094572E+04 -2.390514E-10 -3.833061E-09
        42  19  1.014148E+05  1.005249E+06  7.384358E+04  1.396309E+03 -2.802318E+04  1.609235E+04
        42  20  1.139398E+05  1.000829E+06  9.554120E+04  1.638837E+04 -2.110408E+04  4.817076E+04
        42  21  1.483092E+05  1.006048E+06  1.435638E+05  3.073580E+04 -6.001791E+03  8.025731E+04
        42  22  5.735859E+03  5.871180E+05  1.317704E+04 -1.432631E+02 -2.802021E+04  9.238500E+03
        42  23  1.644242E+04  5.839969E+05  2.435228E+04  1.931180E+02 -2.108632E+04  2.164852E+04
        42  24  4.558880E+04  5.871066E+05  4.821091E+04 -1.154337E+02 -5.968235E+03  3.406587E+04
        42  25 -8.995109E+04  1.691631E+05 -4.749219E+04 -1.681727E+03 -2.801721E+04  2.389062E+03
        42  26 -8.106282E+04  1.673371E+05 -4.683962E+04 -1.599090E+04 -2.106716E+04 -4.856503E+03
        42  27 -5.713896E+04  1.683345E+05 -4.714489E+04 -3.094567E+04 -5.930083E+03 -1.209473E+04
        43   1 -6.576122E+06 -1.857035E+06 -1.023487E+06 -2.444062E+06 -6.195200E+05 -2.313859E+05
        43   2 -6.440924E+06 -9.255544E+05 -4.464519E+05 -2.536998E+06 -3.961943E+05 -1.431996E+05
        43   3 -6.644655E+06 -8.733990E+05 -2.744369E+05 -2.425369E+06 -1.710632E+05 -5.978010E+04
        43   4 -6.565476E+06 -1.619449E+06 -9.742222E+05 -2.202749E+06 -6.163186E+05 -2.304722E+05
        43   5 -6.343758E+06 -8.202371E+05 -4.077979E+05 -2.440297E+06 -3.956246E+05 -1.430399E+05
        43   6 -6.460409E+06 -8.998533E+05 -2.442768E+05 -2.473318E+06 -1.730901E+05 -6.051168E+04
        43   7 -6.554698E+06 -1.381570E+06 -9.249248E+05 -1.961396E+06 -6.131173E+05 -2.295555E+05
        43   8 -6.246572E+06 -7.148850E+05 -3.691428E+05 -2.343577E+06 -3.950549E+05 -1.428801E+05
        43   9 -6.276109E+06 -9.262809E+05 -2.141118E+05 -2.521285E+06 -1.751176E+05 -6.124273E+04
        43  10 -6.576553E+06 -1.857198E+06 -1.024319E+06 -2.444178E+06 -2.307842E-09  1.171014E-10
        43  11 -6.441100E+06 -9.256194E+05 -4.467895E+05 -2.537044E+06 -6.769212E-11  2.522387E-10
        43  12 -6.644688E+06 -8.734109E+05 -2.744994E+05 -2.425377E+06 -1.585475E-09  2.163102E-09
        43  13 -6.565903E+06 -1.619610E+06 -9.750455E+05 -2.202864E+06  1.227774E-09  1.928542E-10
        43  14 -6.343934E+06 -8.203019E+05 -4.081345E+05 -2.440343E+06 -2.642472E-10 -2.525310E-10
        43  15 -6.460442E+06 -8.998654E+05 -2.443408E+05 -2.473327E+06  2.208248E-10  8.473512E-10
        43  16 -6.555120E+06 -1.381730E+06 -9.257396E+05 -1.961510E+06 -5.689778E-10  1.092097E-09
        43  17 -6.246746E+06 -7.149496E+05 -3.694783E+05 -2.343623E+06 -9.917952E-10  1.730007E-09
        43  18 -6.276144E+06 -9.262933E+05 -2.141773E+05 -2.521294E+06 -1.550331E-09 -2.266079E-09
        43  19 -6.576122E+06 -1.857035E+06 -1.023487E+06 -2.444062E+06  6.195200E+05  2.313859E+05
        43  20 -6.440924E+06 -9.255544E+05 -4.464519E+05 -2.536998E+06  3.961943E+05  1.431996E+05
        43  21 -6.644655E+06 -8.733990E+05 -2.744369E+05 -2.425369E+06  1.710632E+05  5.978010E+04
        43  22 -6.565476E+06 -1.619449E+06 -9.742222E+05 -2.202749E+06  6.163186E+05  2.304722E+05
        43  23 -6.343758E+06 -8.202371E+05 -4.077979E+05 -2.440297E+06  3.956246E+05  1.430399E+05
        43  24 -6.460409E+06 -8.998533E+05 -2.442768E+05 -2.473318E+06  1.730901E+05  6.051168E+04
        43  25 -6.554698E+06 -1.381570E+06 -9.249248E+05 -1.961396E+06  6.131173E+05  2.295555E+05
        43  26 -6.246572E+06 -7.148850E+05 -3.691428E+05 -2.343577E+06  3.950549E+05  1.428801E+05
        43  27 -6.276109E+06 -9.262809E+05 -2.141118E+05 -2.521285E+06  1.751176E+05  6.124273E+04
        44   1 -6.484661E+06 -1.039913E+06 -2.166649E+05 -2.453778E+06 -1.380335E+05 -4.910153E+04
        44   2 -6.444721E+06 -9.265173E+05 -1.052609E+05 -2.445062E+06 -8.783718E+04 -3.162842E+04
        44   3 -6.426137E+06 -9.186707E+05 -5.499670E+04 -2.435689E+06 -3.750442E+04 -1.449810E+04
        44   4 -6.428967E+06 -9.978095E+05 -1.979743E+05 -2.417030E+06 -1.386319E+05 -4.933320E+04
        44   5 -6.413004E+06 -9.090990E+05 -9.587709E+04 -2.430843E+06 -8.861696E+04 -3.192361E+04
        44   6 -6.418357E+06 -9.258991E+05 -5.476846E+04 -2.443999E+06 -3.846779E+04 -1.486075E+04
        44   7 -6.373268E+06 -9.557011E+05 -1.792839E+05 -2.380278E+06 -1.392303E+05 -4.956495E+04
        44   8 -6.381286E+06 -8.916802E+05 -8.649336E+04 -2.416622E+06 -8.939679E+04 -3.221883E+04
        44   9 -6.410577E+06 -9.331271E+05 -5.454014E+04 -2.452309E+06 -3.943117E+04 -1.522337E+04
        44  10 -6.484682E+06 -1.039921E+06 -2.167057E+05 -2.453784E+06 -3.396347E-09  2.278249E-10
        44  11 -6.444729E+06 -9.265205E+05 -1.052775E+05 -2.445065E+06  1.394820E-09  1.164681E-09
        44  12 -6.426138E+06 -9.186713E+05 -5.499977E+04 -2.435690E+06  1.731685E-09 -1.958426E-10
        44  13 -6.428988E+06 -9.978173E+05 -1.980155E+05 -2.417036E+06 -3.052216E-09  1.218067E-09
        44  14 -6.413013E+06 -9.091023E+05 -9.589396E+04 -2.430845E+06 -2.111816E-10  1.125479E-09
        44  15 -6.418359E+06 -9.258998E+05 -5.477169E+04 -2.443999E+06 -3.155509E-09  1.023767E-09
        44  16 -6.373290E+06 -9.557091E+05 -1.793254E+05 -2.380284E+06 -4.267166E-10 -2.767713E-10
        44  17 -6.381295E+06 -8.916835E+05 -8.651053E+04 -2.416625E+06 -1.750431E-09  3.618534E-09
        44  18 -6.410579E+06 -9.331278E+05 -5.454354E+04 -2.452309E+06  2.900574E-09 -9.954468E-10
        44  19 -6.484661E+06 -1.039913E+06 -2.166649E+05 -2.453778E+06  1.380335E+05  4.910153E+04
        44  20 -6.444721E+06 -9.265173E+05 -1.052609E+05 -2.445062E+06  8.783718E+04  3.162842E+04
        44  21 -6.426137E+06 -9.186707E+05 -5.499670E+04 -2.435689E+06  3.750442E+04  1.449810E+04
        44  22 -6.428967E+06 -9.978095E+05 -1.979743E+05 -2.417030E+06  1.386319E+05  4.933320E+04
        44  23 -6.413004E+06 -9.090990E+05 -9.587709E+04 -2.430843E+06  8.861696E+04  3.192361E+04
        44  24 -6.418357E+06 -9.258991E+05 -5.476846E+04 -2.443999E+06  3.846779E+04  1.486075E+04
        44  25 -6.373268E+06 -9.557011E+05 -1.792839E+05 -2.380278E+06  1.392303E+05  4.956495E+04
        44  26 -6.381286E+06 -8.916802E+05 -8.649336E+04 -2.416622E+06  8.939679E+04  3.221883E+04
        44  27 -6.410577E+06 -9.331271E+05 -5.454014E+04 -2.452309E+06  3.943117E+04  1.522337E+04
        45   1 -6.369208E+06 -9.196951E+05 -3.074573E+04 -2.427241E+06 -2.945388E+04 -1.261324E+04
        45   2 -6.341454E+06 -8.887834E+05 -1.440762E+03 -2.408774E+06 -1.763319E+04 -9.987620E+03
        45   3 -6.300713E+06 -8.845060E+05  1.706445E+04 -2.408664E+06 -5.818849E+03 -7.341711E+03
        45   4 -6.414627E+06 -9.353485E+05 -4.253491E+04 -2.438068E+06 -3.031502E+04 -1.293822E+04
        45   5 -6.420586E+06 -9.185099E+05 -2.223270E+04 -2.430204E+06 -1.848446E+04 -1.030887E+04
        45   6 -6.413562E+06 -9.283083E+05 -1.273809E+04 -2.440697E+06 -6.660884E+03 -7.659533E+03
        45   7 -6.460043E+06 -9.510017E+05 -5.432422E+04 -2.448894E+06 -3.117610E+04 -1.326319E+04
        45   8 -6.499713E+06 -9.482360E+05 -4.302517E+04 -2.451631E+06 -1.933562E+04 -1.063008E+04
        45   9 -6.526400E+06 -9.721097E+05 -4.254183E+04 -2.472724E+06 -7.502753E+03 -7.977287E+03
        45  10 -6.369209E+06 -9.196955E+05 -3.074769E+04 -2.427241E+06 -6.662998E-10 -1.238795E-09
        45  11 -6.341454E+06 -8.887836E+05 -1.441543E+03 -2.408775E+06  1.131966E-09  1.885218E-09
        45  12 -6.300713E+06 -8.845061E+05  1.706428E+04 -2.408664E+06  3.247694E-09  8.896796E-11
        45  13 -6.414628E+06 -9.353489E+05 -4.253698E+04 -2.438068E+06  3.631170E-09 -1.115790E-09
        45  14 -6.420587E+06 -9.185101E+05 -2.223355E+04 -2.430204E+06  2.109288E-09 -3.013045E-12
        45  15 -6.413563E+06 -9.283083E+05 -1.273829E+04 -2.440697E+06  8.419207E-10 -1.824580E-09
        45  16 -6.460044E+06 -9.510022E+05 -5.432641E+04 -2.448894E+06  9.182034E-09 -2.647932E-09
        45  17 -6.499713E+06 -9.482363E+05 -4.302610E+04 -2.451631E+06  2.625609E-09 -9.700179E-10
        45  18 -6.526400E+06 -9.721098E+05 -4.254206E+04 -2.472724E+06 -3.279531E-09 -1.852456E-09
        45  19 -6.369208E+06 -9.196951E+05 -3.074573E+04 -2.427241E+06  2.945388E+04  1.261324E+04
        45  20 -6.341454E+06 -8.887834E+05 -1.440762E+03 -2.408774E+06  1.763319E+04  9.987620E+03
        45  21 -6.300713E+06 -8.845060E+05  1.706445E+04 -2.408664E+06  5.818849E+03  7.341711E+03
        45  22 -6.414627E+06 -9.353485E+05 -4.253491E+04 -2.438068E+06  3.031502E+04  1.293822E+04
        45  23 -6.420586E+06 -9.185099E+05 -2.223270E+04 -2.430204E+06  1.848446E+04  1.030887E+04
        45  24 -6.413562E+06 -9.283083E+05 -1.273809E+04 -2.440697E+06  6.660884E+03  7.659533E+03
        45  25 -6.460043E+06 -9.510017E+05 -5.432422E+04 -2.448894E+06  3.117610E+04  1.326319E+04
        45  26 -6.499713E+06 -9.482360E+05 -4.302517E+04 -2.451631E+06  1.933562E+04  1.063008E+04
        45  27 -6.526400E+06 -9.721097E+05 -4.254183E+04 -2.472724E+06  7.502753E+03  7.977287E+03
        46   1 -6.257937E+06 -8.699143E+05  3.113141E+04 -2.397087E+06 -3.658202E+03 -7.561058E+03
        46   2 -6.234650E+06 -8.495093E+05  4.294509E+04 -2.379756E+06 -9.764962E+01 -7.904691E+03
        46   3 -6.196283E+06 -8.458773E+05  5.225944E+04 -2.380243E+06  3.427724E+03 -8.152975E+03
        46   4 -6.413480E+06 -9.287455E+05 -9.941623E+03 -2.439589E+06 -4.471984E+03 -7.868328E+03
        46   5 -6.420970E+06 -9.200600E+05 -6.113556E+03 -2.430789E+06 -8.613014E+02 -8.193212E+03
        46   6 -6.413389E+06 -9.281581E+05 -4.825119E+03 -2.439808E+06  2.714027E+03 -8.422792E+03
        46   7 -6.568999E+06 -9.875753E+05 -5.101674E+04 -2.482081E+06 -5.285540E+03 -8.175513E+03
        46   8 -6.607255E+06 -9.906084E+05 -5.517511E+04 -2.481808E+06 -1.624698E+03 -8.481636E+03
        46   9 -6.630449E+06 -1.010436E+06 -6.191353E+04 -2.499353E+06  2.000609E+03 -8.692504E+03
        46  10 -6.257937E+06 -8.699143E+05  3.113127E+04 -2.397087E+06 -3.963875E-09 -6.873719E-10
        46  11 -6.234650E+06 -8.495093E+05  4.294498E+04 -2.379756E+06 -8.691347E-10  8.001589E-10
        46  12 -6.196283E+06 -8.458774E+05  5.225929E+04 -2.380243E+06  4.455294E-09  5.713814E-10
        46  13 -6.413480E+06 -9.287456E+05 -9.941778E+03 -2.439589E+06 -2.595006E-09  1.036536E-09
        46  14 -6.420970E+06 -9.200601E+05 -6.113684E+03 -2.430789E+06  1.376804E-11  5.083878E-10
        46  15 -6.413389E+06 -9.281582E+05 -4.825265E+03 -2.439808E+06  1.781010E-09  6.020476E-10
        46  16 -6.568999E+06 -9.875753E+05 -5.101692E+04 -2.482081E+06 -8.666193E-10  9.081540E-10
        46  17 -6.607255E+06 -9.906085E+05 -5.517525E+04 -2.481808E+06  3.019281E-09  1.694362E-09
        46  18 -6.630449E+06 -1.010436E+06 -6.191368E+04 -2.499353E+06  7.190552E-10 -1.452819E-09
        46  19 -6.257937E+06 -8.699143E+05  3.113141E+04 -2.397087E+06  3.658202E+03  7.561058E+03
        46  20 -6.234650E+06 -8.495093E+05  4.294509E+04 -2.379756E+06  9.764962E+01  7.904691E+03
        46  21 -6.196283E+06 -8.458773E+05  5.225944E+04 -2.380243E+06 -3.427724E+03  8.152975E+03
        46  22 -6.413480E+06 -9.287455E+05 -9.941623E+03 -2.439589E+06  4.471984E+03  7.868328E+03
        46  23 -6.420970E+06 -9.200600E+05 -6.113556E+03 -2.430789E+06  8.613014E+02  8.193212E+03
        46  24 -6.413389E+06 -9.281581E+05 -4.825119E+03 -2.439808E+06 -2.714027E+03  8.422792E+03
        46  25 -6.568999E+06 -9.875753E+05 -5.101674E+04 -2.482081E+06  5.285540E+03  8.175513E+03
        46  26 -6.607255E+06 -9.906084E+05 -5.517511E+04 -2.481808E+06  1.624698E+03  8.481636E+03
        46  27 -6.630449E+06 -1.010436E+06 -6.191353E+04 -2.499353E+06 -2.000609E+03  8.692504E+03
        47   1 -6.161640E+06 -8.318932E+05  6.175976E+04 -2.369920E+06  4.469988E+03 -8.627213E+03
        47   2 -6.143441E+06 -8.162939E+05  6.673466E+04 -2.356106E+06  7.884741E+03 -8.701024E+03
        47   3 -6.113499E+06 -8.140465E+05  6.925632E+04 -2.356220E+06  1.124447E+04 -8.626681E+03
        47   4 -6.414136E+06 -9.273970E+05 -4.816700E+03 -2.438946E+06  3.792175E+03 -8.883611E+03
        47   5 -6.420051E+06 -9.210251E+05 -6.092611E+03 -2.431867E+06  7.284729E+03 -8.928232E+03
        47   6 -6.414238E+06 -9.280217E+05 -9.884877E+03 -2.438715E+06  1.072211E+04 -8.824713E+03
        47   7 -6.666571E+06 -1.022897E+06 -7.139888E+04 -2.507947E+06  3.114665E+03 -9.139895E+03
        47   8 -6.696586E+06 -1.025752E+06 -7.892659E+04 -2.507597E+06  6.685013E+03 -9.155329E+03
        47   9 -6.714889E+06 -1.041991E+06 -8.903386E+04 -2.521175E+06  1.020004E+04 -9.022640E+03
        47  10 -6.161640E+06 -8.318933E+05  6.175958E+04 -2.369920E+06  6.533914E-09  1.246142E-10
        47  11 -6.143441E+06 -8.162940E+05  6.673440E+04 -2.356106E+06  1.468481E-09  3.086518E-10
        47  12 -6.113499E+06 -8.140466E+05  6.925594E+04 -2.356219E+06 -6.312595E-09 -1.277429E-09
        47  13 -6.414136E+06 -9.273971E+05 -4.816875E+03 -2.438946E+06  5.351818E-11 -9.208958E-11
        47  14 -6.420051E+06 -9.210252E+05 -6.092860E+03 -2.431867E+06  3.433865E-10 -1.204090E-09
        47  15 -6.414239E+06 -9.280218E+05 -9.885240E+03 -2.438715E+06  2.431014E-09 -1.516687E-09
        47  16 -6.666571E+06 -1.022897E+06 -7.139905E+04 -2.507947E+06 -3.812316E-09 -1.314463E-09
        47  17 -6.696586E+06 -1.025752E+06 -7.892683E+04 -2.507597E+06 -3.430909E-09  3.727205E-09
        47  18 -6.714889E+06 -1.041991E+06 -8.903421E+04 -2.521175E+06  6.896921E-09  1.189773E-09
        47  19 -6.161640E+06 -8.318932E+05  6.175976E+04 -2.369920E+06 -4.469988E+03  8.627213E+03
        47  20 -6.143441E+06 -8.162939E+05  6.673466E+04 -2.356106E+06 -7.884741E+03  8.701024E+03
        47  21 -6.113499E+06 -8.140465E+05  6.925632E+04 -2.356220E+06 -1.124447E+04  8.626681E+03
        47  22 -6.414136E+06 -9.273970E+05 -4.816700E+03 -2.438946E+06 -3.792175E+03  8.883611E+03
        47  23 -6.420051E+06 -9.210251E+05 -6.092611E+03 -2.431867E+06 -7.284729E+03  8.928232E+03
        47  24 -6.414238E+06 -9.280217E+05 -9.884877E+03 -2.438715E+06 -1.072211E+04  8.824713E+03
        47  25 -6.666571E+06 -1.022897E+06 -7.139888E+04 -2.507947E+06 -3.114665E+03  9.139895E+03
        47  26 -6.696586E+06 -1.025752E+06 -7.892659E+04 -2.507597E+06 -6.685013E+03  9.155329E+03
        47  27 -6.714889E+06 -1.041991E+06 -8.903386E+04 -2.521175E+06 -1.020004E+04  9.022640E+03
        48   1 -6.088931E+06 -8.034044E+05  7.328584E+04 -2.349713E+06  1.325201E+04 -8.495377E+03
        48   2 -6.076755E+06 -7.917668E+05  6.779094E+04 -2.339503E+06  2.459134E+04 -5.112557E+03
        48   3 -6.061297E+06 -7.967712E+05  5.168359E+04 -2.336365E+06  3.584698E+04 -1.506645E+03
        48   4 -6.415747E+06 -9.261414E+05 -1.265507E+04 -2.438182E+06  1.276466E+04 -8.680278E+03
        48   5 -6.417911E+06 -9.213143E+05 -2.209951E+04 -2.433333E+06  2.421714E+04 -5.254835E+03
        48   6 -6.416818E+06 -9.331555E+05 -4.225137E+04 -2.435554E+06  3.558567E+04 -1.606394E+03
        48   7 -6.742459E+06 -1.048872E+06 -9.860487E+04 -2.526608E+06  1.227759E+04 -8.865075E+03
        48   8 -6.758953E+06 -1.050854E+06 -1.120000E+05 -2.527115E+06  2.384317E+04 -5.397027E+03
        48   9 -6.772216E+06 -1.069531E+06 -1.361976E+05 -2.534692E+06  3.532451E+04 -1.706080E+03
        48  10 -6.088931E+06 -8.034045E+05  7.328538E+04 -2.349713E+06 -2.721191E-09 -1.913664E-09
        48  11 -6.076756E+06 -7.917669E+05  6.778974E+04 -2.339503E+06  2.267178E-09 -9.104627E-10
        48  12 -6.061299E+06 -7.967715E+05  5.168114E+04 -2.336365E+06  1.866588E-09 -6.633843E-10
        48  13 -6.415748E+06 -9.261415E+05 -1.265552E+04 -2.438182E+06  8.820339E-13 -1.325283E-09
        48  14 -6.417912E+06 -9.213144E+05 -2.210067E+04 -2.433333E+06 -9.758764E-10 -8.156146E-11
        48  15 -6.416820E+06 -9.331558E+05 -4.225378E+04 -2.435554E+06 -1.112799E-09  1.074825E-09
        48  16 -6.742459E+06 -1.048872E+06 -9.860530E+04 -2.526608E+06  2.173955E-09  1.980658E-09
        48  17 -6.758954E+06 -1.050854E+06 -1.120011E+05 -2.527115E+06  6.062639E-09 -1.992312E-09
        48  18 -6.772217E+06 -1.069532E+06 -1.362000E+05 -2.534692E+06  5.937175E-10 -1.032863E-09
        48  19 -6.088931E+06 -8.034044E+05  7.328584E+04 -2.349713E+06 -1.325201E+04  8.495377E+03
        48  20 -6.076755E+06 -7.917668E+05  6.779094E+04 -2.339503E+06 -2.459134E+04  5.112557E+03
        48  21 -6.061297E+06 -7.967712E+05  5.168359E+04 -2.336365E+06 -3.584698E+04  1.506645E+03
        48  22 -6.415747E+06 -9.261414E+05 -1.265507E+04 -2.438182E+06 -1.276466E+04  8.680278E+03
        48  23 -6.417911E+06 -9.213143E+05 -2.209951E+04 -2.433333E+06 -2.421714E+04  5.254835E+03
        48  24 -6.416818E+06 -9.331555E+05 -4.225137E+04 -2.435554E+06 -3.558567E+04  1.606394E+03
        48  25 -6.742459E+06 -1.048872E+06 -9.860487E+04 -2.526608E+06 -1.227759E+04  8.865075E+03
        48  26 -6.758953E+06 -1.050854E+06 -1.120000E+05 -2.527115E+06 -2.384317E+04  5.397027E+03
        48  27 -6.772216E+06 -1.069531E+06 -1.361976E+05 -2.534692E+06 -3.532451E+04  1.706080E+03
        49   1 -6.044729E+06 -7.896762E+05  4.301277E+04 -2.346863E+06  4.382394E+04  1.103157E+03
        49   2 -6.038158E+06 -7.674361E+05  3.435233E+03 -2.328341E+06  9.270350E+04  1.930872E+04
        49   3 -6.067935E+06 -8.344158E+05 -9.633203E+04 -2.291578E+06  1.412698E+05  3.833413E+04
        49   4 -6.421747E+06 -9.225397E+05 -5.440052E+04 -2.440058E+06  4.343730E+04  9.567256E+02
        49   5 -6.408840E+06 -9.135368E+05 -9.525131E+04 -2.435730E+06  9.272565E+04  1.931543E+04
        49   6 -6.432385E+06 -9.938703E+05 -1.966463E+05 -2.413158E+06  1.417011E+05  3.849130E+04
        49   7 -6.798625E+06 -1.055399E+06 -1.518255E+05 -2.533202E+06  4.305092E+04  8.103744E+02
        49   8 -6.779385E+06 -1.059626E+06 -1.939498E+05 -2.543060E+06  9.274776E+04  1.932213E+04
        49   9 -6.796701E+06 -1.153303E+06 -2.969723E+05 -2.534668E+06  1.421321E+05  3.864831E+04
        49  10 -6.044731E+06 -7.896767E+05  4.300912E+04 -2.346863E+06 -9.673479E-10 -2.999968E-10
        49  11 -6.038168E+06 -7.674388E+05  3.418199E+03 -2.328342E+06  1.085942E-09  4.951429E-09
        49  12 -6.067957E+06 -8.344228E+05 -9.637274E+04 -2.291582E+06  3.423123E-09  1.997369E-09
        49  13 -6.421749E+06 -9.225402E+05 -5.440410E+04 -2.440058E+06  2.253084E-09 -9.012125E-10
        49  14 -6.408849E+06 -9.135396E+05 -9.526836E+04 -2.435732E+06  6.332004E-09 -1.078300E-09
        49  15 -6.432407E+06 -9.938774E+05 -1.966872E+05 -2.413163E+06  3.302378E-09 -2.360211E-10
        49  16 -6.798627E+06 -1.055399E+06 -1.518290E+05 -2.533202E+06  1.673856E-09 -8.368066E-10
        49  17 -6.779395E+06 -1.059628E+06 -1.939668E+05 -2.543061E+06  2.124947E-09 -2.180054E-09
        49  18 -6.796724E+06 -1.153310E+06 -2.970136E+05 -2.534672E+06 -2.137295E-09  1.901469E-10
        49  19 -6.044729E+06 -7.896762E+05  4.301277E+04 -2.346863E+06 -4.382394E+04 -1.103157E+03
        49  20 -6.038158E+06 -7.674361E+05  3.435233E+03 -2.328341E+06 -9.270350E+04 -1.930872E+04
        49  21 -6.067935E+06 -8.344158E+05 -9.633203E+04 -2.291578E+06 -1.412698E+05 -3.833413E+04
        49  22 -6.421747E+06 -9.225397E+05 -5.440052E+04 -2.440058E+06 -4.343730E+04 -9.567256E+02
        49  23 -6.408840E+06 -9.135368E+05 -9.525131E+04 -2.435730E+06 -9.272565E+04 -1.931543E+04
        49  24 -6.432385E+06 -9.938703E+05 -1.966463E+05 -2.413158E+06 -1.417011E+05 -3.849130E+04
        49  25 -6.798625E+06 -1.055399E+06 -1.518255E+05 -2.533202E+06 -4.305092E+04 -8.103744E+02
        49  26 -6.779385E+06 -1.059626E+06 -1.939498E+05 -2.543060E+06 -9.274776E+04 -1.932213E+04
        49  27 -6.796701E+06 -1.153303E+06 -2.969723E+05 -2.534668E+06 -1.421321E+05 -3.864831E+04
        50   1 -6.015220E+06 -8.213669E+05 -1.428416E+05 -2.442318E+06  1.778733E+05  5.083977E+04
        50   2 -6.015193E+06 -6.349816E+05 -3.067602E+05 -2.287795E+06  3.932915E+05  1.335284E+05
        50   3 -6.370575E+06 -1.299476E+06 -8.669059E+05 -1.906748E+06  6.052523E+05  2.253493E+05
        50   4 -6.464349E+06 -8.958463E+05 -2.426411E+05 -2.468249E+06  1.757524E+05  5.006737E+04
        50   5 -6.338817E+06 -8.264967E+05 -4.050839E+05 -2.446504E+06  3.958866E+05  1.344597E+05
        50   6 -6.569920E+06 -1.609367E+06 -9.676947E+05 -2.198135E+06  6.126085E+05  2.278599E+05
        50   7 -6.913265E+06 -9.703248E+05 -3.424474E+05 -2.494181E+06  1.736331E+05  4.929481E+04
        50   8 -6.662325E+06 -1.017949E+06 -5.034163E+05 -2.605122E+06  3.984802E+05  1.353896E+05
        50   9 -6.769090E+06 -1.918903E+06 -1.068460E+06 -2.489375E+06  6.199623E+05  2.303625E+05
        50  10 -6.015255E+06 -8.213783E+05 -1.429067E+05 -2.442325E+06  4.977550E-10 -5.893710E-10
        50  11 -6.015365E+06 -6.350430E+05 -3.070881E+05 -2.287837E+06  2.424020E-09  5.654154E-10
        50  12 -6.370986E+06 -1.299630E+06 -8.676986E+05 -1.906858E+06  3.222707E-09  1.719521E-10
        50  13 -6.464384E+06 -8.958574E+05 -2.427046E+05 -2.468256E+06  2.732051E-09  2.094485E-10
        50  14 -6.338992E+06 -8.265590E+05 -4.054163E+05 -2.446547E+06  1.041038E-08 -4.129590E-09
        50  15 -6.570341E+06 -1.609525E+06 -9.685071E+05 -2.198248E+06  5.598250E-10 -4.820110E-10
        50  16 -6.913299E+06 -9.703357E+05 -3.425094E+05 -2.494188E+06 -3.148602E-09  2.463130E-09
        50  17 -6.662502E+06 -1.018012E+06 -5.037534E+05 -2.605166E+06 -5.033942E-09  2.954137E-09
        50  18 -6.769521E+06 -1.919065E+06 -1.069292E+06 -2.489491E+06 -1.022348E-09 -2.345641E-09
        50  19 -6.015220E+06 -8.213669E+05 -1.428416E+05 -2.442318E+06 -1.778733E+05 -5.083977E+04
        50  20 -6.015193E+06 -6.349816E+05 -3.067602E+05 -2.287795E+06 -3.932915E+05 -1.335284E+05
        50  21 -6.370575E+06 -1.299476E+06 -8.669059E+05 -1.906748E+06 -6.052523E+05 -2.253493E+05
        50  22 -6.464349E+06 -8.958463E+05 -2.426411E+05 -2.468249E+06 -1.757524E+05 -5.006737E+04
        50  23 -6.338817E+06 -8.264967E+05 -4.050839E+05 -2.446504E+06 -3.958866E+05 -1.344597E+05
        50  24 -6.569920E+06 -1.609367E+06 -9.676947E+05 -2.198135E+06 -6.126085E+05 -2.278599E+05
        50  25 -6.913265E+06 -9.703248E+05 -3.424474E+05 -2.494181E+06 -1.736331E+05 -4.929481E+04
        50  26 -6.662325E+06 -1.017949E+06 -5.034163E+05 -2.605122E+06 -3.984802E+05 -1.353896E+05
        50  27 -6.769090E+06 -1.918903E+06 -1.068460E+06 -2.489375E+06 -6.199623E+05 -2.303625E+05
        51   1 -1.426931E+06 -2.124848E+05 -1.727570E+05 -2.740602E+03  9.126116E+04  1.564440E+04
        51   2 -1.362412E+06 -3.436617E+05 -2.362477E+05 -7.422583E+03  6.887700E+04  4.686702E+04
        51   3 -1.252611E+06 -3.134270E+05 -2.444372E+05 -6.828715E+04  4.661510E+04  4.540528E+04
        51   4 -1.849428E+04  1.383011E+05  1.738223E+05 -4.699676E+04  1.188478E+05  1.574454E+04
        51   5 -4.270129E+04 -1.705710E+04  7.643865E+04 -1.864218E+04  7.759227E+04  4.688748E+04
        51   6 -1.845213E+04 -7.912789E+03  4.737627E+04 -4.646009E+04  3.646360E+04  4.537449E+04
        51   7  1.391757E+06  4.889477E+05  5.202594E+05 -9.135537E+04  1.464968E+05  1.584063E+04
        51   8  1.278612E+06  3.094230E+05  3.890044E+05 -2.988708E+04  8.632587E+04  4.690759E+04
        51   9  1.217110E+06  2.974939E+05  3.390848E+05 -2.459017E+04  2.629194E+04  4.534302E+04
        51  10 -1.426940E+06 -2.124873E+05 -1.727731E+05 -2.741753E+03 -1.293597E-09  1.343530E-09
        51  11 -1.362417E+06 -3.436653E+05 -2.362608E+05 -7.425185E+03  3.684814E-09 -1.340979E-09
        51  12 -1.252614E+06 -3.134298E+05 -2.444452E+05 -6.828885E+04 -1.964546E-09 -4.641219E-10
        51  13 -1.850951E+04  1.382970E+05  1.737953E+05 -4.699826E+04 -1.020840E-11  4.396953E-10
        51  14 -4.270835E+04 -1.706107E+04  7.642320E+04 -1.864511E+04  3.547233E-11 -4.478143E-09
        51  15 -1.845411E+04 -7.915357E+03  4.736990E+04 -4.646142E+04 -1.050482E-09  2.371089E-11
        51  16  1.391734E+06  4.889417E+05  5.202187E+05 -9.135724E+04 -8.669645E-10 -5.473829E-10
        51  17  1.278604E+06  3.094186E+05  3.889863E+05 -2.989034E+04 -3.671462E-10 -7.563196E-10
        51  18  1.217109E+06  2.974915E+05  3.390796E+05 -2.459113E+04 -5.409817E-10 -5.874743E-10
        51  19 -1.426931E+06 -2.124848E+05 -1.727570E+05 -2.740602E+03 -9.126116E+04 -1.564440E+04
        51  20 -1.362412E+06 -3.436617E+05 -2.362477E+05 -7.422583E+03 -6.887700E+04 -4.686702E+04
        51  21 -1.252611E+06 -3.134270E+05 -2.444372E+05 -6.828715E+04 -4.661510E+04 -4.540528E+04
        51  22 -1.849428E+04  1.383011E+05  1.738223E+05 -4.699676E+04 -1.188478E+05 -1.574454E+04
        51  23 -4.270129E+04 -1.705710E+04  7.643865E+04 -1.864218E+04 -7.759227E+04 -4.688748E+04
        51  24 -1.845213E+04 -7.912789E+03  4.737627E+04 -4.646009E+04 -3.646360E+04 -4.537449E+04
        51  25  1.391757E+06  4.889477E+05  5.202594E+05 -9.135537E+04 -1.464968E+05 -1.584063E+04
        51  26  1.278612E+06  3.094230E+05  3.890044E+05 -2.988708E+04 -8.632587E+04 -4.690759E+04
        51  27  1.217110E+06  2.974939E+05  3.390848E+05 -2.459017E+04 -2.629194E+04 -4.534302E+04
        52   1 -1.160544E+06 -2.678470E+05 -2.304260E+05 -4.466426E+04  2.949850E+04  3.875462E+04
        52   2 -1.076883E+06 -2.608293E+05 -2.280001E+05 -1.873056E+04  2.063488E+04  3.717573E+04
        52   3 -9.870114E+05 -2.383951E+05 -2.156870E+05 -4.950759E+04  1.176770E+04  3.352581E+04
        52   4 -2.773179E+04  1.263879E+04  3.846323E+04 -4.675147E+04  2.923338E+04  3.874911E+04
        52   5 -3.091532E+04 -1.949577E+03  1.973585E+04 -1.838575E+04  1.916211E+04  3.716900E+04
        52   6 -2.769218E+04 -9.253665E+02  1.172214E+04 -4.672452E+04  9.088539E+03  3.351938E+04
        52   7  1.106260E+06  2.930323E+05  3.072630E+05 -4.884312E+04  2.896775E+04  3.874361E+04
        52   8  1.016059E+06  2.568516E+05  2.673957E+05 -1.804077E+04  1.768686E+04  3.716228E+04
        52   9  9.324734E+05  2.364782E+05  2.390673E+05 -4.393733E+04  6.405242E+03  3.351294E+04
        52  10 -1.160545E+06 -2.678489E+05 -2.304305E+05 -4.466518E+04 -4.231820E-09 -1.617677E-09
        52  11 -1.076884E+06 -2.608309E+05 -2.280035E+05 -1.873118E+04  1.323299E-09  1.318162E-09
        52  12 -9.870119E+05 -2.383963E+05 -2.156894E+05 -4.950791E+04  3.004494E-09 -1.657815E-09
        52  13 -2.773311E+04  1.263695E+04  3.845880E+04 -4.675238E+04  3.225830E-09 -5.687889E-10
        52  14 -3.091609E+04 -1.951159E+03  1.973256E+04 -1.838633E+04  1.077591E-09 -5.035634E-10
        52  15 -2.769257E+04 -9.265952E+02  1.171987E+04 -4.672477E+04  1.582514E-09 -1.294862E-09
        52  16  1.106259E+06  2.930304E+05  3.072586E+05 -4.884402E+04  2.339855E-09  1.163564E-09
        52  17  1.016058E+06  2.568500E+05  2.673926E+05 -1.804130E+04  6.761339E-10 -2.631719E-09
        52  18  9.324730E+05  2.364770E+05  2.390651E+05 -4.393750E+04 -9.396711E-10 -1.256477E-10
        52  19 -1.160544E+06 -2.678470E+05 -2.304260E+05 -4.466426E+04 -2.949850E+04 -3.875462E+04
        52  20 -1.076883E+06 -2.608293E+05 -2.280001E+05 -1.873056E+04 -2.063488E+04 -3.717573E+04
        52  21 -9.870114E+05 -2.383951E+05 -2.156870E+05 -4.950759E+04 -1.176770E+04 -3.352581E+04
        52  22 -2.773179E+04  1.263879E+04  3.846323E+04 -4.675147E+04 -2.923338E+04 -3.874911E+04
        52  23 -3.091532E+04 -1.949577E+03  1.973585E+04 -1.838575E+04 -1.916211E+04 -3.716900E+04
        52  24 -2.769218E+04 -9.253665E+02  1.172214E+04 -4.672452E+04 -9.088539E+03 -3.351938E+04
        52  25  1.106260E+06  2.930323E+05  3.072630E+05 -4.884312E+04 -2.896775E+04 -3.874361E+04
        52  26  1.016059E+06  2.568516E+05  2.673957E+05 -1.804077E+04 -1.768686E+04 -3.716228E+04
        52  27  9.324734E+05  2.364782E+05  2.390673E+05 -4.393733E+04 -6.405242E+03 -3.351294E+04
        53   1 -8.867183E+05 -2.113192E+05 -1.938678E+05 -4.710322E+04  9.303385E+03  3.103887E+04
        53   2 -8.005142E+05 -1.911368E+05 -1.776573E+05 -1.863121E+04  6.910602E+03  2.739124E+04
        53   3 -7.130392E+05 -1.694963E+05 -1.593967E+05 -4.698517E+04  4.512015E+03  2.361183E+04
        53   4 -2.878323E+04  9.554991E+02  9.096568E+03 -4.675880E+04  7.250383E+03  3.103427E+04
        53   5 -2.940616E+04 -3.174620E+02  4.944931E+03 -1.834761E+04  4.778539E+03  2.738799E+04
        53   6 -2.875350E+04 -1.195331E+02  2.896344E+03 -4.675804E+04  2.301223E+03  2.361003E+04
        53   7  8.298290E+05  2.131774E+05  2.120099E+05 -4.641403E+04  5.194550E+03  3.102966E+04
        53   8  7.422488E+05  1.904591E+05  1.875059E+05 -1.806371E+04  2.643837E+03  2.738474E+04
        53   9  6.559626E+05  1.692236E+05  1.651568E+05 -4.653064E+04  8.800346E+01  2.360823E+04
        53  10 -8.867187E+05 -2.113202E+05 -1.938698E+05 -4.710345E+04  2.054351E-09 -2.050905E-10
        53  11 -8.005145E+05 -1.911376E+05 -1.776588E+05 -1.863137E+04  4.652409E-09  7.987051E-10
        53  12 -7.130393E+05 -1.694969E+05 -1.593978E+05 -4.698526E+04  8.315819E-10 -9.317217E-10
        53  13 -2.878354E+04  9.544508E+02  9.094659E+03 -4.675899E+04  3.231631E-09 -7.622998E-10
        53  14 -2.940638E+04 -3.182736E+02  4.943478E+03 -1.834772E+04 -4.313258E-09  7.671393E-11
        53  15 -2.875365E+04 -1.201331E+02  2.895287E+03 -4.675808E+04  6.643902E-10 -2.898980E-10
        53  16  8.298287E+05  2.131763E+05  2.120081E+05 -4.641416E+04 -2.177030E-09 -6.206743E-10
        53  17  7.422486E+05  1.904583E+05  1.875044E+05 -1.806377E+04  1.541251E-09 -8.266228E-10
        53  18  6.559624E+05  1.692230E+05  1.651557E+05 -4.653064E+04 -2.625749E-09  1.163004E-10
        53  19 -8.867183E+05 -2.113192E+05 -1.938678E+05 -4.710322E+04 -9.303385E+03 -3.103887E+04
        53  20 -8.005142E+05 -1.911368E+05 -1.776573E+05 -1.863121E+04 -6.910602E+03 -2.739124E+04
        53  21 -7.130392E+05 -1.694963E+05 -1.593967E+05 -4.698517E+04 -4.512015E+03 -2.361183E+04
        53  22 -2.878323E+04  9.554991E+02  9.096568E+03 -4.675880E+04 -7.250383E+03 -3.103427E+04
        53  23 -2.940616E+04 -3.174620E+02  4.944931E+03 -1.834761E+04 -4.778539E+03 -2.738799E+04
        53  24 -2.875350E+04 -1.195331E+02  2.896344E+03 -4.675804E+04 -2.301223E+03 -2.361003E+04
        53  25  8.298290E+05  2.131774E+05  2.120099E+05 -4.641403E+04 -5.194550E+03 -3.102966E+04
        53  26  7.422488E+05  1.904591E+05  1.875059E+05 -1.806371E+04 -2.643837E+03 -2.738474E+04
        53  27  6.559626E+05  1.692236E+05  1.651568E+05 -4.653064E+04 -8.800346E+01 -2.360823E+04
        54   1 -6.117319E+05 -1.441243E+05 -1.355486E+05 -4.673074E+04  4.014520E+03  2.138897E+04
        54   2 -5.249542E+05 -1.227473E+05 -1.162328E+05 -1.822527E+04  3.436276E+03  1.760929E+04
        54   3 -4.378869E+05 -1.011906E+05 -9.646097E+04 -4.658013E+04  2.854362E+03  1.382090E+04
        54   4 -2.893964E+04  2.555206E+01  2.184167E+03 -4.676622E+04  1.842616E+03  2.138798E+04
        54   5 -2.907182E+04 -5.626747E+01  1.174898E+03 -1.833745E+04  1.258709E+03  1.760924E+04
        54   6 -2.892045E+04  4.295820E+01  6.256027E+02 -4.676622E+04  6.712133E+02  1.382180E+04
        54   7  5.541651E+05  1.441511E+05  1.398935E+05 -4.680172E+04 -3.313178E+02  2.138700E+04
        54   8  4.670367E+05  1.226171E+05  1.185655E+05 -1.844970E+04 -9.205888E+02  1.760918E+04
        54   9  3.801997E+05  1.012645E+05  9.770053E+04 -4.695240E+04 -1.513367E+03  1.382270E+04
        54  10 -6.117321E+05 -1.441248E+05 -1.355495E+05 -4.673081E+04  4.783847E-09 -1.933210E-10
        54  11 -5.249543E+05 -1.227476E+05 -1.162334E+05 -1.822532E+04 -1.409362E-09  2.136701E-09
        54  12 -4.378869E+05 -1.011908E+05 -9.646134E+04 -4.658016E+04 -7.093421E-09  1.345644E-11
        54  13 -2.893977E+04  2.505994E+01  2.183301E+03 -4.676626E+04 -1.067631E-09  4.607145E-10
        54  14 -2.907191E+04 -5.660086E+01  1.174312E+03 -1.833747E+04 -7.865814E-12  1.280506E-09
        54  15 -2.892050E+04  4.275293E+01  6.252429E+02 -4.676623E+04 -2.407888E-09 -8.383879E-10
        54  16  5.541650E+05  1.441506E+05  1.398926E+05 -4.680172E+04 -4.057162E-09  9.615833E-10
        54  17  4.670366E+05  1.226168E+05  1.185649E+05 -1.844969E+04  1.008711E-09  9.962491E-10
        54  18  3.801996E+05  1.012643E+05  9.770016E+04 -4.695238E+04  6.421166E-09 -1.073280E-09
        54  19 -6.117319E+05 -1.441243E+05 -1.355486E+05 -4.673074E+04 -4.014520E+03 -2.138897E+04
        54  20 -5.249542E+05 -1.227473E+05 -1.162328E+05 -1.822527E+04 -3.436276E+03 -1.760929E+04
        54  21 -4.378869E+05 -1.011906E+05 -9.646097E+04 -4.658013E+04 -2.854362E+03 -1.382090E+04
        54  22 -2.893964E+04  2.555206E+01  2.184167E+03 -4.676622E+04 -1.842616E+03 -2.138798E+04
        54  23 -2.907182E+04 -5.626747E+01  1.174898E+03 -1.833745E+04 -1.258709E+03 -1.760924E+04
        54  24 -2.892045E+04  4.295820E+01  6.256027E+02 -4.676622E+04 -6.712133E+02 -1.382180E+04
        54  25  5.541651E+05  1.441511E+05  1.398935E+05 -4.680172E+04  3.313178E+02 -2.138700E+04
        54  26  4.670367E+05  1.226171E+05  1.185655E+05 -1.844970E+04  9.205888E+02 -1.760918E+04
        54  27  3.801997E+05  1.012645E+05  9.770053E+04 -4.695240E+04  1.513367E+03 -1.382270E+04
        55   1 -3.363710E+05 -7.594985E+04 -7.210389E+04 -4.661376E+04  2.757490E+03  1.161356E+04
        55   2 -2.493700E+05 -5.450339E+04 -5.211604E+04 -1.820285E+04  2.721876E+03  7.824614E+03
        55   3 -1.624196E+05 -3.299114E+04 -3.210654E+04 -4.667109E+04  2.684664E+03  4.038970E+03
        55   4 -2.897661E+04  4.444018E+01  4.055405E+02 -4.677075E+04  5.750740E+02  1.161492E+04
        55   5 -2.894409E+04  2.529681E+01  6.442418E+01 -1.833178E+04  5.412052E+02  7.826377E+03
        55   6 -2.896807E+04  7.249007E+01 -2.555445E+02 -4.677074E+04  5.057440E+02  4.041163E+03
        55   7  2.785047E+05  7.603197E+04  7.290846E+04 -4.692779E+04 -1.608417E+03  1.161628E+04
        55   8  1.915265E+05  5.455050E+04  5.224153E+04 -1.846076E+04 -1.640236E+03  7.828141E+03
        55   9  1.044998E+05  3.313483E+04  3.159422E+04 -4.687040E+04 -1.673642E+03  4.043357E+03
        55  10 -3.363710E+05 -7.594999E+04 -7.210415E+04 -4.661379E+04 -3.087503E-09 -1.086587E-09
        55  11 -2.493701E+05 -5.450346E+04 -5.211617E+04 -1.820286E+04  1.298718E-09  1.579164E-10
        55  12 -1.624196E+05 -3.299115E+04 -3.210658E+04 -4.667110E+04  8.880167E-11 -5.519845E-10
        55  13 -2.897665E+04  4.429523E+01  4.052864E+02 -4.677075E+04 -1.066254E-09 -1.426924E-10
        55  14 -2.894411E+04  2.523096E+01  6.430853E+01 -1.833179E+04 -2.142904E-09  1.071230E-09
        55  15 -2.896808E+04  7.247246E+01 -2.555757E+02 -4.677074E+04  6.901512E-10 -1.663473E-09
        55  16  2.785047E+05  7.603183E+04  7.290820E+04 -4.692777E+04  4.739521E-09 -7.547303E-10
        55  17  1.915265E+05  5.455044E+04  5.224141E+04 -1.846075E+04 -1.896195E-09  9.353531E-10
        55  18  1.044997E+05  3.313481E+04  3.159418E+04 -4.687039E+04 -5.620821E-10 -5.630921E-11
        55  19 -3.363710E+05 -7.594985E+04 -7.210389E+04 -4.661376E+04 -2.757490E+03 -1.161356E+04
        55  20 -2.493700E+05 -5.450339E+04 -5.211604E+04 -1.820285E+04 -2.721876E+03 -7.824614E+03
        55  21 -1.624196E+05 -3.299114E+04 -3.210654E+04 -4.667109E+04 -2.684664E+03 -4.038970E+03
        55  22 -2.897661E+04  4.444018E+01  4.055405E+02 -4.677075E+04 -5.750740E+02 -1.161492E+04
        55  23 -2.894409E+04  2.529681E+01  6.442418E+01 -1.833178E+04 -5.412052E+02 -7.826377E+03
        55  24 -2.896807E+04  7.249007E+01 -2.555445E+02 -4.677074E+04 -5.057440E+02 -4.041163E+03
        55  25  2.785047E+05  7.603197E+04  7.290846E+04 -4.692779E+04  1.608417E+03 -1.161628E+04
        55  26  1.915265E+05  5.455050E+04  5.224153E+04 -1.846076E+04  1.640236E+03 -7.828141E+03
        55  27  1.044998E+05  3.313483E+04  3.159422E+04 -4.687040E+04  1.673642E+03 -4.043357E+03
        56   1 -6.083066E+04 -7.716517E+03 -7.709267E+03 -4.680003E+04  2.763954E+03  1.823877E+03
        56   2  2.628420E+04  1.371770E+04  1.214412E+04 -1.837194E+04  3.179294E+03 -1.961390E+03
        56   3  1.131709E+05  3.495350E+04  3.164754E+04 -4.682701E+04  3.595157E+03 -5.679419E+03
        56   4 -2.900509E+04  1.031680E+02 -4.375462E+02 -4.677189E+04  5.645787E+02  1.826199E+03
        56   5 -2.888454E+04  7.234372E+01 -9.137617E+02 -1.833029E+04  1.018447E+03 -1.959227E+03
        56   6 -2.900724E+04 -1.634418E+02 -1.766701E+03 -4.677216E+04  1.472781E+03 -5.677384E+03
        56   7  2.821424E+03  7.922786E+03  6.834127E+03 -4.674374E+04 -1.634908E+03  1.828520E+03
        56   8 -8.405047E+04 -1.357323E+04 -1.397183E+04 -1.828863E+04 -1.142209E+03 -1.957064E+03
        56   9 -1.711667E+05 -3.528182E+04 -3.518231E+04 -4.671731E+04 -6.491121E+02 -5.675349E+03
        56  10 -6.083067E+04 -7.716523E+03 -7.709288E+03 -4.680003E+04 -3.338739E-09  4.925241E-10
        56  11  2.628419E+04  1.371769E+04  1.214409E+04 -1.837194E+04  1.142878E-10  4.796817E-10
        56  12  1.131709E+05  3.495346E+04  3.164745E+04 -4.682699E+04 -1.831933E-09  1.020141E-09
        56  13 -2.900509E+04  1.031643E+02 -4.375531E+02 -4.677189E+04  1.065653E-09 -1.342858E-09
        56  14 -2.888454E+04  7.233932E+01 -9.137708E+02 -1.833028E+04  2.137867E-09 -1.298071E-09
        56  15 -2.900725E+04 -1.634770E+02 -1.766766E+03 -4.677215E+04  2.728148E-09  1.280549E-09
        56  16  2.821420E+03  7.922781E+03  6.834116E+03 -4.674374E+04  2.808505E-09  3.947466E-10
        56  17 -8.405047E+04 -1.357323E+04 -1.397184E+04 -1.828864E+04  3.782274E-09 -1.772873E-09
        56  18 -1.711667E+05 -3.528186E+04 -3.518237E+04 -4.671731E+04  1.704724E-09  5.182601E-10
        56  19 -6.083066E+04 -7.716517E+03 -7.709267E+03 -4.680003E+04 -2.763954E+03 -1.823877E+03
        56  20  2.628420E+04  1.371770E+04  1.214412E+04 -1.837194E+04 -3.179294E+03  1.961390E+03
        56  21  1.131709E+05  3.495350E+04  3.164754E+04 -4.682701E+04 -3.595157E+03  5.679419E+03
        56  22 -2.900509E+04  1.031680E+02 -4.375462E+02 -4.677189E+04 -5.645787E+02 -1.826199E+03
        56  23 -2.888454E+04  7.234372E+01 -9.137617E+02 -1.833029E+04 -1.018447E+03  1.959227E+03
        56  24 -2.900724E+04 -1.634418E+02 -1.766701E+03 -4.677216E+04 -1.472781E+03  5.677384E+03
        56  25  2.821424E+03  7.922786E+03  6.834127E+03 -4.674374E+04  1.634908E+03 -1.828520E+03
        56  26 -8.405047E+04 -1.357323E+04 -1.397183E+04 -1.828863E+04  1.142209E+03  1.957064E+03
        56  27 -1.711667E+05 -3.528182E+04 -3.518231E+04 -4.671731E+04  6.491121E+02  5.675349E+03
        57   1  2.146392E+05  6.057326E+04  5.565458E+04 -4.733691E+04  4.270391E+03 -8.027894E+03
        57   2  3.021056E+05  8.213730E+04  7.434737E+04 -1.831659E+04  5.664595E+03 -1.173890E+04
        57   3  3.886588E+05  1.007601E+05  9.139447E+04 -4.613698E+04  7.061863E+03 -1.438971E+04
        57   4 -2.919180E+04  2.231708E+02 -2.287521E+03 -4.676234E+04  1.826844E+03 -8.025802E+03
        57   5 -2.868485E+04  3.339096E+02 -3.935986E+03 -1.834193E+04  3.830862E+03 -1.173796E+04
        57   6 -2.920466E+04 -2.602945E+03 -7.654034E+03 -4.676418E+04  5.837752E+03 -1.438964E+04
        57   7 -2.729682E+05 -6.013120E+04 -6.023376E+04 -4.618798E+04 -6.157480E+02 -8.023714E+03
        57   8 -3.593747E+05 -8.147733E+04 -8.222692E+04 -1.836723E+04  1.998101E+03 -1.173701E+04
        57   9 -4.469078E+05 -1.059785E+05 -1.067147E+05 -4.739094E+04  4.614460E+03 -1.438957E+04
        57  10  2.146392E+05  6.057319E+04  5.565443E+04 -4.733689E+04  6.065379E-10 -7.919041E-10
        57  11  3.021055E+05  8.213715E+04  7.434705E+04 -1.831654E+04  1.959408E-09 -6.431891E-10
        57  12  3.886587E+05  1.007599E+05  9.139399E+04 -4.613689E+04  9.632945E-10 -3.124409E-10
        57  13 -2.919182E+04  2.231007E+02 -2.287648E+03 -4.676233E+04  1.519840E-12  8.474391E-10
        57  14 -2.868491E+04  3.337577E+02 -3.936272E+03 -1.834189E+04  4.301966E-09 -2.743695E-10
        57  15 -2.920475E+04 -2.603177E+03 -7.654487E+03 -4.676412E+04  2.713480E-09 -2.834859E-10
        57  16 -2.729683E+05 -6.013127E+04 -6.023388E+04 -4.618798E+04 -6.144220E-10  1.607481E-09
        57  17 -3.593748E+05 -8.147748E+04 -8.222718E+04 -1.836721E+04  3.524419E-10  9.354630E-10
        57  18 -4.469079E+05 -1.059788E+05 -1.067151E+05 -4.739088E+04 -1.828938E-09 -7.447476E-10
        57  19  2.146392E+05  6.057326E+04  5.565458E+04 -4.733691E+04 -4.270391E+03  8.027894E+03
        57  20  3.021056E+05  8.213730E+04  7.434737E+04 -1.831659E+04 -5.664595E+03  1.173890E+04
        57  21  3.886588E+05  1.007601E+05  9.139447E+04 -4.613698E+04 -7.061863E+03  1.438971E+04
        57  22 -2.919180E+04  2.231708E+02 -2.287521E+03 -4.676234E+04 -1.826844E+03  8.025802E+03
        57  23 -2.868485E+04  3.339096E+02 -3.935986E+03 -1.834193E+04 -3.830862E+03  1.173796E+04
        57  24 -2.920466E+04 -2.602945E+03 -7.654034E+03 -4.676418E+04 -5.837752E+03  1.438964E+04
        57  25 -2.729682E+05 -6.013120E+04 -6.023376E+04 -4.618798E+04  6.157480E+02  8.023714E+03
        57  26 -3.593747E+05 -8.147733E+04 -8.222692E+04 -1.836723E+04 -1.998101E+03  1.173701E+04
        57  27 -4.469078E+05 -1.059785E+05 -1.067147E+05 -4.739094E+04 -4.614460E+03  1.438957E+04
        58   1  4.886746E+05  1.299655E+05  1.134046E+05 -5.069747E+04  1.355325E+04 -1.884165E+04
        58   2  5.794344E+05  1.530472E+05  1.281269E+05 -1.563108E+04  1.216472E+04 -2.138857E+04
        58   3  6.629590E+05  1.451887E+05  1.360824E+05 -3.689428E+04  1.077470E+04 -7.246692E+03
        58   4 -3.098364E+04  1.495658E+03 -9.411893E+03 -4.664987E+04  7.270539E+03 -1.883980E+04
        58   5 -2.653623E+04  3.210463E+03 -1.529536E+04 -1.848198E+04  1.549576E+04 -2.139038E+04
        58   6 -3.100727E+04 -2.769944E+04 -3.462705E+04 -4.664778E+04  2.371943E+04 -7.244942E+03
        58   7 -5.503936E+05 -1.269935E+05 -1.322469E+05 -4.260564E+04  9.930535E+02 -1.883803E+04
        58   8 -6.321695E+05 -1.466526E+05 -1.587431E+05 -2.133008E+04  1.882357E+04 -2.139223E+04
        58   9 -7.245351E+05 -2.006230E+05 -2.053714E+05 -5.639038E+04  3.664972E+04 -7.243599E+03
        58  10  4.886743E+05  1.299651E+05  1.134036E+05 -5.069726E+04  7.710821E-10 -7.717302E-11
        58  11  5.794341E+05  1.530467E+05  1.281258E+05 -1.563087E+04  2.750139E-09 -9.884894E-11
        58  12  6.629589E+05  1.451886E+05  1.360821E+05 -3.689422E+04  1.209523E-09  8.916424E-11
        58  13 -3.098379E+04  1.495263E+03 -9.412659E+03 -4.664976E+04 -2.133782E-09  3.554052E-10
        58  14 -2.653661E+04  3.209907E+03 -1.529667E+04 -1.848171E+04 -2.153907E-09 -1.604243E-10
        58  15 -3.100789E+04 -2.769964E+04 -3.462820E+04 -4.664764E+04  6.671302E-10 -1.101697E-10
        58  16 -5.503937E+05 -1.269938E+05 -1.322476E+05 -4.260563E+04 -1.399229E-09 -7.793833E-10
        58  17 -6.321700E+05 -1.466532E+05 -1.587446E+05 -2.132975E+04  5.217200E-10 -2.008265E-10
        58  18 -7.245366E+05 -2.006234E+05 -2.053740E+05 -5.639017E+04 -9.270322E-11  1.668701E-10
        58  19  4.886746E+05  1.299655E+05  1.134046E+05 -5.069747E+04 -1.355325E+04  1.884165E+04
        58  20  5.794344E+05  1.530472E+05  1.281269E+05 -1.563108E+04 -1.216472E+04  2.138857E+04
        58  21  6.629590E+05  1.451887E+05  1.360824E+05 -3.689428E+04 -1.077470E+04  7.246692E+03
        58  22 -3.098364E+04  1.495658E+03 -9.411893E+03 -4.664987E+04 -7.270539E+03  1.883980E+04
        58  23 -2.653623E+04  3.210463E+03 -1.529536E+04 -1.848198E+04 -1.549576E+04  2.139038E+04
        58  24 -3.100727E+04 -2.769944E+04 -3.462705E+04 -4.664778E+04 -2.371943E+04  7.244942E+03
        58  25 -5.503936E+05 -1.269935E+05 -1.322469E+05 -4.260564E+04 -9.930535E+02  1.883803E+04
        58  26 -6.321695E+05 -1.466526E+05 -1.587431E+05 -2.133008E+04 -1.882357E+04  2.139223E+04
        58  27 -7.245351E+05 -2.006230E+05 -2.053714E+05 -5.639038E+04 -3.664972E+04  7.243599E+03
        59   1  9.710858E+05  3.096256E+06  9.350566E+05 -9.781224E+05  3.851482E+04  2.478661E+05
        59   2  6.710411E+05  2.156859E+06  5.878838E+05 -8.519732E+05  1.183740E+05  7.324520E+04
        59   3  4.381673E+05  1.256121E+06  3.706477E+05 -9.287200E+05  1.075481E+05 -1.014983E+05
        59   4  7.152840E+04 -5.401528E+05  7.098161E+04 -9.220444E+05  3.979160E+04  3.846933E+04
        59   5  2.186402E+04 -5.451055E+05  4.300645E+04 -8.207663E+05  1.187749E+05  1.697453E+04
        59   6  1.305986E+04 -5.385588E+05  3.904068E+04 -9.224006E+05  1.069053E+05 -4.908839E+03
        59   7 -8.289485E+05 -4.164358E+06 -7.938526E+05 -8.662695E+05  4.103520E+04 -1.697120E+05
        59   8 -6.277608E+05 -3.240118E+06 -5.022344E+05 -7.896826E+05  1.191713E+05 -3.905669E+04
        59   9 -4.122266E+05 -2.330098E+06 -2.926657E+05 -9.160926E+05  1.062633E+05  9.140910E+04
        59  10  9.710678E+05  3.096190E+06  9.349389E+05 -9.781301E+05  2.165542E-10  3.396687E-09
        59  11  6.710246E+05  2.156850E+06  5.878474E+05 -8.519801E+05 -3.178765E-09 -1.665039E-08
        59  12  4.381522E+05  1.256106E+06  3.706067E+05 -9.287113E+05  1.224360E-09 -2.858824E-08
        59  13  7.152630E+04 -5.401549E+05  7.097584E+04 -9.220457E+05  3.431888E-09  2.602715E-09
        59  14  2.184880E+04 -5.451096E+05  4.297940E+04 -8.207679E+05  4.304986E-09 -5.574530E-09
        59  15  1.304759E+04 -5.385619E+05  3.901917E+04 -9.224002E+05  9.320731E-09  8.901991E-10
        59  16 -8.289581E+05 -4.164390E+06 -7.939102E+05 -8.662639E+05  8.053438E-10 -2.336714E-09
        59  17 -6.277764E+05 -3.240123E+06 -5.022640E+05 -7.896789E+05  1.506022E-09  1.464827E-08
        59  18 -4.122410E+05 -2.330110E+06 -2.927028E+05 -9.161004E+05 -1.216555E-09  2.756032E-08
        59  19  9.710858E+05  3.096256E+06  9.350566E+05 -9.781224E+05 -3.851482E+04 -2.478661E+05
        59  20  6.710411E+05  2.156859E+06  5.878838E+05 -8.519732E+05 -1.183740E+05 -7.324520E+04
        59  21  4.381673E+05  1.256121E+06  3.706477E+05 -9.287200E+05 -1.075481E+05  1.014983E+05
        59  22  7.152840E+04 -5.401528E+05  7.098161E+04 -9.220444E+05 -3.979160E+04 -3.846933E+04
        59  23  2.186402E+04 -5.451055E+05  4.300645E+04 -8.207663E+05 -1.187749E+05 -1.697453E+04
        59  24  1.305986E+04 -5.385588E+05  3.904068E+04 -9.224006E+05 -1.069053E+05  4.908839E+03
        59  25 -8.289485E+05 -4.164358E+06 -7.938526E+05 -8.662695E+05 -4.103520E+04  1.697120E+05
        59  26 -6.277608E+05 -3.240118E+06 -5.022344E+05 -7.896826E+05 -1.191713E+05  3.905669E+04
        59  27 -4.122266E+05 -2.330098E+06 -2.926657E+05 -9.160926E+05 -1.062633E+05 -9.140910E+04
        60   1  2.960004E+05  6.502855E+05  2.615199E+05 -9.338112E+05  7.199369E+04 -9.876513E+04
        60   2  7.711714E+04 -2.716248E+05  1.050915E+05 -8.188819E+05  1.994471E+04 -1.299409E+05
        60   3 -1.243067E+05 -1.187017E+06 -2.744592E+04 -9.124695E+05 -3.320667E+04 -1.610914E+05
        60   4  1.404523E+04 -5.395785E+05  4.203378E+04 -9.236147E+05  7.138812E+04 -1.184320E+04
        60   5  1.363323E+04 -5.421665E+05  5.821802E+04 -8.193049E+05  1.931944E+04 -4.121729E+04
        60   6  3.040058E+04 -5.394013E+05  9.701923E+04 -9.235033E+05 -3.385274E+04 -7.060928E+04
        60   7 -2.679865E+05 -1.728053E+06 -1.774828E+05 -9.134351E+05  7.078468E+04  7.491664E+04
        60   8 -4.985039E+04 -8.126194E+05  1.137158E+04 -8.197276E+05  1.869386E+04  4.746886E+04
        60   9  1.850877E+05  1.086360E+05  2.214959E+05 -9.345481E+05 -3.450161E+04  1.996520E+04
        60  10  2.959923E+05  6.502736E+05  2.614920E+05 -9.338055E+05  6.786083E-10  3.193854E-08
        60  11  7.711219E+04 -2.716430E+05  1.050590E+05 -8.188798E+05  2.987509E-10  1.574139E-08
        60  12 -1.243148E+05 -1.187045E+06 -2.749689E+04 -9.124739E+05  1.057817E-09  2.448399E-09
        60  13  1.403973E+04 -5.395800E+05  4.202394E+04 -9.236141E+05  7.571033E-09  2.887005E-09
        60  14  1.363238E+04 -5.421684E+05  5.821413E+04 -8.193042E+05 -2.341613E-09 -6.095584E-09
        60  15  3.039801E+04 -5.394069E+05  9.700768E+04 -9.235053E+05 -5.841771E-10  1.162454E-09
        60  16 -2.679934E+05 -1.728061E+06 -1.775028E+05 -9.134394E+05 -1.183569E-09 -3.076994E-08
        60  17 -4.985137E+04 -8.126219E+05  1.136668E+04 -8.197283E+05 -2.195338E-09 -1.876688E-08
        60  18  1.850863E+05  1.086353E+05  2.214930E+05 -9.345475E+05  4.042864E-10 -2.743599E-09
        60  19  2.960004E+05  6.502855E+05  2.615199E+05 -9.338112E+05 -7.199369E+04  9.876513E+04
        60  20  7.711714E+04 -2.716248E+05  1.050915E+05 -8.188819E+05 -1.994471E+04  1.299409E+05
        60  21 -1.243067E+05 -1.187017E+06 -2.744592E+04 -9.124695E+05  3.320667E+04  1.610914E+05
        60  22  1.404523E+04 -5.395785E+05  4.203378E+04 -9.236147E+05 -7.138812E+04  1.184320E+04
        60  23  1.363323E+04 -5.421665E+05  5.821802E+04 -8.193049E+05 -1.931944E+04  4.121729E+04
        60  24  3.040058E+04 -5.394013E+05  9.701923E+04 -9.235033E+05  3.385274E+04  7.060928E+04
        60  25 -2.679865E+05 -1.728053E+06 -1.774828E+05 -9.134351E+05 -7.078468E+04 -7.491664E+04
        60  26 -4.985039E+04 -8.126194E+05  1.137158E+04 -8.197276E+05 -1.869386E+04 -4.746886E+04
        60  27  1.850877E+05  1.086360E+05  2.214959E+05 -9.345481E+05  3.450161E+04 -1.996520E+04
        61   1 -2.734265E+05 -1.774950E+06 -1.106984E+05 -9.403753E+05 -6.918707E+04 -1.858248E+05
        61   2 -4.222353E+05 -2.717241E+06 -2.181312E+05 -6.933262E+05 -8.910039E+04 -1.697661E+05
        61   3 -3.470572E+05 -3.606510E+06 -2.804949E+05 -6.497141E+05 -3.081001E+04 -1.533525E+05
        61   4  2.389050E+04 -5.242302E+05  1.251567E+05 -9.226396E+05 -6.988030E+04 -8.742732E+04
        61   5  9.974387E+04 -5.621294E+05  2.233295E+05 -8.198096E+05 -8.882679E+04 -2.026259E+05
        61   6  4.218962E+05 -5.253973E+05  4.576070E+05 -9.201764E+05 -2.970170E+04 -3.174606E+05
        61   7  3.211231E+05  7.280263E+05  3.609800E+05 -9.048637E+05 -7.056703E+04  1.116413E+04
        61   8  6.214871E+05  1.597442E+06  6.645548E+05 -9.467320E+05 -8.854038E+04 -2.355972E+05
        61   9  1.190436E+06  2.564656E+06  1.195174E+06 -1.191975E+06 -2.845326E+04 -4.823804E+05
        61  10 -2.734409E+05 -1.774989E+06 -1.107726E+05 -9.403857E+05  2.976271E-09  4.551086E-09
        61  11 -4.222516E+05 -2.717275E+06 -2.182005E+05 -6.933384E+05  5.623304E-09  4.290905E-10
        61  12 -3.470646E+05 -3.606536E+06 -2.805412E+05 -6.497179E+05  9.101101E-10  1.511590E-09
        61  13  2.388319E+04 -5.242397E+05  1.251331E+05 -9.226445E+05  1.703326E-09  2.775752E-09
        61  14  9.972434E+04 -5.621757E+05  2.232373E+05 -8.198241E+05 -5.842021E-09 -5.919714E-09
        61  15  4.218682E+05 -5.255058E+05  4.574157E+05 -9.201841E+05  1.008432E-09  1.243080E-09
        61  16  3.211178E+05  7.280248E+05  3.609704E+05 -9.048631E+05 -1.547653E-09 -3.018284E-09
        61  17  6.214638E+05  1.597381E+06  6.644359E+05 -9.467488E+05  2.361668E-09 -3.026125E-09
        61  18  1.190373E+06  2.564407E+06  1.194736E+06 -1.191986E+06  1.094572E-09 -1.941494E-09
        61  19 -2.734265E+05 -1.774950E+06 -1.106984E+05 -9.403753E+05  6.918707E+04  1.858248E+05
        61  20 -4.222353E+05 -2.717241E+06 -2.181312E+05 -6.933262E+05  8.910039E+04  1.697661E+05
        61  21 -3.470572E+05 -3.606510E+06 -2.804949E+05 -6.497141E+05  3.081001E+04  1.533525E+05
        61  22  2.389050E+04 -5.242302E+05  1.251567E+05 -9.226396E+05  6.988030E+04  8.742732E+04
        61  23  9.974387E+04 -5.621294E+05  2.233295E+05 -8.198096E+05  8.882679E+04  2.026259E+05
        61  24  4.218962E+05 -5.253973E+05  4.576070E+05 -9.201764E+05  2.970170E+04  3.174606E+05
        61  25  3.211231E+05  7.280263E+05  3.609800E+05 -9.048637E+05  7.056703E+04 -1.116413E+04
        61  26  6.214871E+05  1.597442E+06  6.645548E+05 -9.467320E+05  8.854038E+04  2.355972E+05
        61  27  1.190436E+06  2.564656E+06  1.195174E+06 -1.191975E+06  2.845326E+04  4.823804E+05
        62   1 -3.461494E+06 -1.327513E+06 -7.443080E+05 -1.200309E+06 -2.073465E+05 -2.239151E+04
        62   2 -3.233434E+06 -1.269309E+06 -5.917011E+05 -1.123101E+06 -1.387749E+05  1.343425E+05
        62   3 -2.973512E+06 -1.226826E+06 -5.160633E+05 -1.098599E+06 -3.784949E+04  2.061259E+05
        62   4 -2.130124E+05 -1.451026E+05  8.842906E+04 -3.507168E+05  3.829885E+04  7.075228E+04
        62   5 -2.468668E+05 -1.848464E+05  4.060859E+04 -3.112564E+05 -2.606664E+04  1.769216E+05
        62   6 -2.224689E+05 -2.139461E+05  2.162254E+04 -3.244983E+05 -5.821106E+04  1.983393E+05
        62   7  3.045801E+06  1.037830E+06  9.205411E+05  5.028463E+05  2.853549E+05  1.643867E+05
        62   8  2.748828E+06  9.002908E+05  6.724694E+05  5.041704E+05  8.722854E+04  2.197144E+05
        62   9  2.536496E+06  7.996610E+05  5.589805E+05  4.528166E+05 -7.867052E+04  1.905156E+05
        62  10 -3.461540E+06 -1.327525E+06 -7.443902E+05 -1.200313E+06  5.566338E-09 -2.025381E-12
        62  11 -3.233459E+06 -1.269334E+06 -5.917712E+05 -1.123086E+06  3.567937E-09 -1.705757E-09
        62  12 -2.973525E+06 -1.226872E+06 -5.161459E+05 -1.098593E+06 -9.137889E-10 -2.582087E-09
        62  13 -2.130153E+05 -1.451084E+05  8.841688E+04 -3.507190E+05  2.577957E-09  8.684354E-10
        62  14 -2.468759E+05 -1.848802E+05  4.054849E+04 -3.112527E+05 -4.621634E-10 -2.986982E-09
        62  15 -2.224831E+05 -2.139892E+05  2.154226E+04 -3.244890E+05  5.749437E-10 -3.089218E-09
        62  16  3.045707E+06  1.037779E+06  9.203382E+05  5.028087E+05 -4.438137E-09 -2.481517E-09
        62  17  2.748807E+06  9.002370E+05  6.723646E+05  5.041550E+05  2.363240E-09 -2.157760E-09
        62  18  2.536480E+06  7.996204E+05  5.589007E+05  4.528287E+05  3.536673E-10  5.502525E-10
        62  19 -3.461494E+06 -1.327513E+06 -7.443080E+05 -1.200309E+06  2.073465E+05  2.239151E+04
        62  20 -3.233434E+06 -1.269309E+06 -5.917011E+05 -1.123101E+06  1.387749E+05 -1.343425E+05
        62  21 -2.973512E+06 -1.226826E+06 -5.160633E+05 -1.098599E+06  3.784949E+04 -2.061259E+05
        62  22 -2.130124E+05 -1.451026E+05  8.842906E+04 -3.507168E+05 -3.829885E+04 -7.075228E+04
        62  23 -2.468668E+05 -1.848464E+05  4.060859E+04 -3.112564E+05  2.606664E+04 -1.769216E+05
        62  24 -2.224689E+05 -2.139461E+05  2.162254E+04 -3.244983E+05  5.821106E+04 -1.983393E+05
        62  25  3.045801E+06  1.037830E+06  9.205411E+05  5.028463E+05 -2.853549E+05 -1.643867E+05
        62  26  2.748828E+06  9.002908E+05  6.724694E+05  5.041704E+05 -8.722854E+04 -2.197144E+05
        62  27  2.536496E+06  7.996610E+05  5.589805E+05  4.528166E+05  7.867052E+04 -1.905156E+05
        63   1 -2.824871E+06 -1.163434E+06 -4.880653E+05 -1.052362E+06 -5.050073E+04  1.917209E+05
        63   2 -2.616040E+06 -1.059520E+06 -4.412586E+05 -9.652517E+05 -4.138390E+04  1.862179E+05
        63   3 -2.366467E+06 -9.956093E+05 -3.986630E+05 -9.243531E+05 -2.979190E+04  1.740758E+05
        63   4 -2.240823E+05 -2.132145E+05  1.635199E+04 -3.273438E+05 -5.749848E+04  1.889934E+05
        63   5 -2.454085E+05 -1.952560E+05  8.516311E+03 -3.037719E+05 -5.878693E+04  1.795839E+05
        63   6 -2.239910E+05 -2.152307E+05  4.729253E+03 -3.264191E+05 -5.760784E+04  1.635485E+05
        63   7  2.383755E+06  7.376191E+05  5.204719E+05  4.005018E+05 -6.452810E+04  1.862543E+05
        63   8  2.131092E+06  6.695236E+05  4.580584E+05  3.600599E+05 -7.626150E+04  1.729231E+05
        63   9  1.923274E+06  5.655684E+05  4.079352E+05  2.734347E+05 -8.552670E+04  1.529826E+05
        63  10 -2.824884E+06 -1.163474E+06 -4.881392E+05 -1.052354E+06  2.351744E-09  2.339290E-09
        63  11 -2.616051E+06 -1.059557E+06 -4.413270E+05 -9.652455E+05  1.739446E-08  5.552522E-09
        63  12 -2.366476E+06 -9.956420E+05 -3.987216E+05 -9.243489E+05  2.600562E-08  9.574067E-09
        63  13 -2.240954E+05 -2.132537E+05  1.627867E+04 -3.273350E+05 -2.582127E-09 -2.793422E-10
        63  14 -2.454209E+05 -1.952915E+05  8.449224E+03 -3.037634E+05 -7.444062E-10  1.396479E-09
        63  15 -2.240018E+05 -2.152603E+05  4.672762E+03 -3.264115E+05  6.465313E-09  9.388394E-09
        63  16  2.383742E+06  7.375807E+05  5.203989E+05  4.005114E+05 -7.971299E-09 -4.091452E-09
        63  17  2.131078E+06  6.694899E+05  4.579913E+05  3.600705E+05 -1.404299E-08 -9.107299E-09
        63  18  1.923259E+06  5.655413E+05  4.078775E+05  2.734453E+05 -9.877823E-09 -7.500411E-09
        63  19 -2.824871E+06 -1.163434E+06 -4.880653E+05 -1.052362E+06  5.050073E+04 -1.917209E+05
        63  20 -2.616040E+06 -1.059520E+06 -4.412586E+05 -9.652517E+05  4.138390E+04 -1.862179E+05
        63  21 -2.366467E+06 -9.956093E+05 -3.986630E+05 -9.243531E+05  2.979190E+04 -1.740758E+05
        63  22 -2.240823E+05 -2.132145E+05  1.635199E+04 -3.273438E+05  5.749848E+04 -1.889934E+05
        63  23 -2.454085E+05 -1.952560E+05  8.516311E+03 -3.037719E+05  5.878693E+04 -1.795839E+05
        63  24 -2.239910E+05 -2.152307E+05  4.729253E+03 -3.264191E+05  5.760784E+04 -1.635485E+05
        63  25  2.383755E+06  7.376191E+05  5.204719E+05  4.005018E+05  6.452810E+04 -1.862543E+05
        63  26  2.131092E+06  6.695236E+05  4.580584E+05  3.600599E+05  7.626150E+04 -1.729231E+05
        63  27  1.923274E+06  5.655684E+05  4.079352E+05  2.734347E+05  8.552670E+04 -1.529826E+05
        64   1 -2.214777E+06 -9.392545E+05 -3.698377E+05 -8.817063E+05 -2.753835E+04  1.630416E+05
        64   2 -2.005879E+06 -8.345937E+05 -3.281357E+05 -7.941070E+05 -2.107210E+04  1.456417E+05
        64   3 -1.755644E+06 -7.706492E+05 -2.862317E+05 -7.529647E+05 -1.443492E+04  1.277052E+05
        64   4 -2.240588E+05 -2.150809E+05  3.521560E+03 -3.266984E+05 -5.433957E+04  1.529122E+05
        64   5 -2.445840E+05 -1.944629E+05  1.857051E+03 -3.035288E+05 -4.871479E+04  1.352194E+05
        64   6 -2.236763E+05 -2.143956E+05  1.050966E+03 -3.268307E+05 -4.291940E+04  1.169908E+05
        64   7  1.770832E+06  5.094688E+05  3.767323E+05  2.299749E+05 -8.123336E+04  1.427481E+05
        64   8  1.519971E+06  4.459593E+05  3.317330E+05  1.883497E+05 -7.644178E+04  1.247654E+05
        64   9  1.310751E+06  3.420750E+05  2.882442E+05  1.002835E+05 -7.147926E+04  1.062482E+05
        64  10 -2.214785E+06 -9.392832E+05 -3.698891E+05 -8.817027E+05 -1.238932E-08 -5.945431E-09
        64  11 -2.005885E+06 -8.346166E+05 -3.281764E+05 -7.941046E+05 -1.173367E-08 -6.053837E-09
        64  12 -1.755649E+06 -7.706667E+05 -2.862627E+05 -7.529633E+05 -1.322578E-09 -1.882485E-09
        64  13 -2.240683E+05 -2.151068E+05  3.472081E+03 -3.266917E+05  1.580859E-09  1.070989E-08
        64  14 -2.445915E+05 -1.944831E+05  1.818239E+03 -3.035235E+05 -1.948180E-09  4.509761E-09
        64  15 -2.236819E+05 -2.144107E+05  1.021790E+03 -3.268267E+05 -9.643653E-10 -3.408520E-10
        64  16  1.770820E+06  5.094451E+05  3.766816E+05  2.299843E+05  2.891013E-08  8.249210E-09
        64  17  1.519961E+06  4.459410E+05  3.316928E+05  1.883574E+05  1.473696E-08  4.818701E-09
        64  18  1.310743E+06  3.420615E+05  2.882134E+05  1.002896E+05  1.934430E-09 -9.751470E-10
        64  19 -2.214777E+06 -9.392545E+05 -3.698377E+05 -8.817063E+05  2.753835E+04 -1.630416E+05
        64  20 -2.005879E+06 -8.345937E+05 -3.281357E+05 -7.941070E+05  2.107210E+04 -1.456417E+05
        64  21 -1.755644E+06 -7.706492E+05 -2.862317E+05 -7.529647E+05  1.443492E+04 -1.277052E+05
        64  22 -2.240588E+05 -2.150809E+05  3.521560E+03 -3.266984E+05  5.433957E+04 -1.529122E+05
        64  23 -2.445840E+05 -1.944629E+05  1.857051E+03 -3.035288E+05  4.871479E+04 -1.352194E+05
        64  24 -2.236763E+05 -2.143956E+05  1.050966E+03 -3.268307E+05  4.291940E+04 -1.169908E+05
        64  25  1.770832E+06  5.094688E+05  3.767323E+05  2.299749E+05  8.123336E+04 -1.427481E+05
        64  26  1.519971E+06  4.459593E+05  3.317330E+05  1.883497E+05  7.644178E+04 -1.247654E+05
        64  27  1.310751E+06  3.420750E+05  2.882442E+05  1.002835E+05  7.147926E+04 -1.062482E+05
        65   1 -1.603338E+06 -7.148411E+05 -2.567067E+05 -7.105943E+05 -1.067294E+04  1.170471E+05
        65   2 -1.393546E+06 -6.105433E+05 -2.145727E+05 -6.230560E+05 -3.950880E+03  9.887343E+04
        65   3 -1.142657E+06 -5.470103E+05 -1.723074E+05 -5.822140E+05  2.770441E+03  8.064656E+04
        65   4 -2.236450E+05 -2.142882E+05  7.579439E+02 -3.269003E+05 -3.909767E+04  1.063670E+05
        65   5 -2.440468E+05 -1.936589E+05  3.465994E+02 -3.035997E+05 -3.245959E+04  8.817760E+04
        65   6 -2.233957E+05 -2.137804E+05  1.265730E+02 -3.270130E+05 -2.582220E+04  6.993505E+04
        65   7  1.158031E+06  2.864362E+05  2.581484E+05  5.758515E+04 -6.758984E+04  9.566167E+04
        65   8  9.068376E+05  2.233475E+05  2.152176E+05  1.640774E+04 -6.102483E+04  7.746059E+04
        65   9  6.967597E+05  1.195304E+05  1.725329E+05 -7.145761E+04 -5.446043E+04  5.920647E+04
        65  10 -1.603342E+06 -7.148559E+05 -2.567327E+05 -7.105933E+05 -2.990600E-10 -2.000161E-09
        65  11 -1.393549E+06 -6.105538E+05 -2.145912E+05 -6.230556E+05  7.817508E-10 -2.159636E-09
        65  12 -1.142659E+06 -5.470172E+05 -1.723197E+05 -5.822142E+05  2.032921E-09 -1.262797E-09
        65  13 -2.236497E+05 -2.143008E+05  7.338150E+02 -3.268970E+05  4.383752E-10 -1.354551E-09
        65  14 -2.440501E+05 -1.936676E+05  3.300115E+02 -3.035974E+05  2.438439E-09 -6.044542E-10
        65  15 -2.233977E+05 -2.137858E+05  1.161311E+02 -3.270115E+05 -1.860104E-09 -2.711908E-10
        65  16  1.158024E+06  2.864252E+05  2.581226E+05  5.759035E+04  4.809941E-09 -4.521407E-10
        65  17  9.068319E+05  2.233401E+05  2.151993E+05  1.641154E+04  2.687531E-09  5.982401E-10
        65  18  6.967555E+05  1.195259E+05  1.725207E+05 -7.145501E+04 -7.364582E-10  7.621249E-10
        65  19 -1.603338E+06 -7.148411E+05 -2.567067E+05 -7.105943E+05  1.067294E+04 -1.170471E+05
        65  20 -1.393546E+06 -6.105433E+05 -2.145727E+05 -6.230560E+05  3.950880E+03 -9.887343E+04
        65  21 -1.142657E+06 -5.470103E+05 -1.723074E+05 -5.822140E+05 -2.770441E+03 -8.064656E+04
        65  22 -2.236450E+05 -2.142882E+05  7.579439E+02 -3.269003E+05  3.909767E+04 -1.063670E+05
        65  23 -2.440468E+05 -1.936589E+05  3.465994E+02 -3.035997E+05  3.245959E+04 -8.817760E+04
        65  24 -2.233957E+05 -2.137804E+05  1.265730E+02 -3.270130E+05  2.582220E+04 -6.993505E+04
        65  25  1.158031E+06  2.864362E+05  2.581484E+05  5.758515E+04  6.758984E+04 -9.566167E+04
        65  26  9.068376E+05  2.233475E+05  2.152176E+05  1.640774E+04  6.102483E+04 -7.746059E+04
        65  27  6.967597E+05  1.195304E+05  1.725329E+05 -7.145761E+04  5.446043E+04 -5.920647E+04
        66   1 -9.899317E+05 -4.913453E+05 -1.425918E+05 -5.399100E+05  6.736978E+03  7.004246E+04
        66   2 -7.795590E+05 -3.872902E+05 -1.003114E+05 -4.523988E+05  1.365305E+04  5.187470E+04
        66   3 -5.282687E+05 -3.240311E+05 -5.808659E+04 -4.117162E+05  2.055579E+04  3.371630E+04
        66   4 -2.233729E+05 -2.137173E+05  1.095726E+01 -3.270460E+05 -2.186629E+04  5.933382E+04
        66   5 -2.437409E+05 -1.931940E+05 -2.244764E+02 -3.036496E+05 -1.493827E+04  4.117787E+04
        66   6 -2.232529E+05 -2.134724E+05 -5.292052E+02 -3.271005E+05 -8.023651E+03  2.303137E+04
        66   7  5.438028E+05  6.396513E+04  1.425945E+05 -1.139371E+05 -5.050733E+04  4.861104E+04
        66   8  2.923767E+05  9.282058E+02  9.985397E+04 -1.547811E+05 -4.355584E+04  3.047121E+04
        66   9  8.185885E+04 -1.029057E+05  5.702712E+04 -2.424464E+05 -3.661785E+04  1.234090E+04
        66  10 -9.899331E+05 -4.913506E+05 -1.426011E+05 -5.399103E+05 -1.418443E-10  2.568251E-11
        66  11 -7.795599E+05 -3.872932E+05 -1.003168E+05 -4.523994E+05 -1.336269E-09  1.219266E-09
        66  12 -5.282694E+05 -3.240324E+05 -5.808953E+04 -4.117168E+05 -2.974755E-09  1.070946E-09
        66  13 -2.233744E+05 -2.137212E+05  3.444545E+00 -3.270450E+05 -1.929539E-09  2.351750E-10
        66  14 -2.437416E+05 -1.931959E+05 -2.280815E+02 -3.036491E+05 -3.946338E-10  9.030923E-10
        66  15 -2.232531E+05 -2.134730E+05 -5.303228E+02 -3.271003E+05 -2.268382E-09  5.275337E-10
        66  16  5.437994E+05  6.396191E+04  1.425852E+05 -1.139351E+05  8.609782E-10  3.967737E-10
        66  17  2.923745E+05  9.267003E+02  9.984866E+04 -1.547800E+05 -9.563549E-10  4.950210E-11
        66  18  8.185737E+04 -1.029062E+05  5.702431E+04 -2.424460E+05  2.525382E-09 -7.571666E-10
        66  19 -9.899317E+05 -4.913453E+05 -1.425918E+05 -5.399100E+05 -6.736978E+03 -7.004246E+04
        66  20 -7.795590E+05 -3.872902E+05 -1.003114E+05 -4.523988E+05 -1.365305E+04 -5.187470E+04
        66  21 -5.282687E+05 -3.240311E+05 -5.808659E+04 -4.117162E+05 -2.055579E+04 -3.371630E+04
        66  22 -2.233729E+05 -2.137173E+05  1.095726E+01 -3.270460E+05  2.186629E+04 -5.933382E+04
        66  23 -2.437409E+05 -1.931940E+05 -2.244764E+02 -3.036496E+05  1.493827E+04 -4.117787E+04
        66  24 -2.232529E+05 -2.134724E+05 -5.292052E+02 -3.271005E+05  8.023651E+03 -2.303137E+04
        66  25  5.438028E+05  6.396513E+04  1.425945E+05 -1.139371E+05  5.050733E+04 -4.861104E+04
        66  26  2.923767E+05  9.282058E+02  9.985397E+04 -1.547811E+05  4.355584E+04 -3.047121E+04
        66  27  8.185885E+04 -1.029057E+05  5.702712E+04 -2.424464E+05  3.661785E+04 -1.234090E+04
        67   1 -3.752959E+05 -2.684390E+05 -2.845171E+04 -3.694205E+05  2.466964E+04  2.317077E+04
        67   2 -1.646700E+05 -1.645229E+05  1.351832E+04 -2.818769E+05  3.175786E+04  5.211390E+03
        67   3  8.678583E+04 -1.014103E+05  5.524876E+04 -2.411886E+05  3.875281E+04 -1.249533E+04
        67   4 -2.232706E+05 -2.134505E+05 -7.501489E+02 -3.271173E+05 -3.955451E+03  1.247064E+04
        67   5 -2.436270E+05 -1.930434E+05 -1.435321E+03 -3.036661E+05  3.523869E+03 -5.343718E+03
        67   6 -2.232929E+05 -2.135261E+05 -2.674061E+03 -3.270943E+05  1.090975E+04 -2.290533E+04
        67   7 -7.121783E+04 -1.584585E+05  2.695449E+04 -2.848037E+05 -3.258828E+04  1.767598E+03
        67   8 -3.225761E+05 -2.215629E+05 -1.638591E+04 -3.254522E+05 -2.470642E+04 -1.589745E+04
        67   9 -5.332695E+05 -3.256326E+05 -6.059736E+04 -4.129597E+05 -1.691846E+04 -3.330979E+04
        67  10 -3.752967E+05 -2.684398E+05 -2.845386E+04 -3.694209E+05 -2.450863E-09  1.419746E-09
        67  11 -1.646710E+05 -1.645232E+05  1.351638E+04 -2.818771E+05  3.558338E-10 -1.107260E-09
        67  12  8.678418E+04 -1.014109E+05  5.524564E+04 -2.411882E+05  1.655379E-09 -1.418565E-09
        67  13 -2.232707E+05 -2.134506E+05 -7.504705E+02 -3.271173E+05 -1.234325E-09  4.189816E-10
        67  14 -2.436270E+05 -1.930434E+05 -1.435398E+03 -3.036660E+05  2.183525E-09  1.024885E-09
        67  15 -2.232932E+05 -2.135267E+05 -2.675270E+03 -3.270941E+05 -2.720347E-09 -4.940058E-10
        67  16 -7.121898E+04 -1.584588E+05  2.695249E+04 -2.848036E+05  1.245438E-09 -6.064622E-11
        67  17 -3.225768E+05 -2.215633E+05 -1.638753E+04 -3.254525E+05 -1.142744E-09 -1.734173E-09
        67  18 -5.332701E+05 -3.256338E+05 -6.059998E+04 -4.129601E+05 -1.011844E-09 -1.763525E-09
        67  19 -3.752959E+05 -2.684390E+05 -2.845171E+04 -3.694205E+05 -2.466964E+04 -2.317077E+04
        67  20 -1.646700E+05 -1.645229E+05  1.351832E+04 -2.818769E+05 -3.175786E+04 -5.211390E+03
        67  21  8.678583E+04 -1.014103E+05  5.524876E+04 -2.411886E+05 -3.875281E+04  1.249533E+04
        67  22 -2.232706E+05 -2.134505E+05 -7.501489E+02 -3.271173E+05  3.955451E+03 -1.247064E+04
        67  23 -2.436270E+05 -1.930434E+05 -1.435321E+03 -3.036661E+05 -3.523869E+03  5.343718E+03
        67  24 -2.232929E+05 -2.135261E+05 -2.674061E+03 -3.270943E+05 -1.090975E+04  2.290533E+04
        67  25 -7.121783E+04 -1.584585E+05  2.695449E+04 -2.848037E+05  3.258828E+04 -1.767598E+03
        67  26 -3.225761E+05 -2.215629E+05 -1.638591E+04 -3.254522E+05  2.470642E+04  1.589745E+04
        67  27 -5.332695E+05 -3.256326E+05 -6.059736E+04 -4.129597E+05  1.691846E+04  3.330979E+04
        68   1  2.399711E+05 -4.587787E+04  8.432434E+04 -1.990384E+05  4.369836E+04 -2.263935E+04
        68   2  4.500365E+05  5.827156E+04  1.257878E+05 -1.108845E+05  4.805128E+04 -3.970230E+04
        68   3  7.008378E+05  1.210964E+05  1.683920E+05 -6.905857E+04  5.119738E+04 -5.351857E+04
        68   4 -2.234918E+05 -2.134676E+05 -3.572865E+03 -3.271316E+05  1.534154E+04 -3.324447E+04
        68   5 -2.435584E+05 -1.935555E+05 -6.581759E+03 -3.035074E+05  2.479475E+04 -4.840863E+04
        68   6 -2.239523E+05 -2.159867E+05 -1.249005E+04 -3.262364E+05  3.304106E+04 -6.032379E+04
        68   7 -6.867250E+05 -3.810360E+05 -9.147432E+04 -4.551344E+05 -1.299238E+04 -4.384108E+04
        68   8 -9.366515E+05 -4.453388E+05 -1.389693E+05 -4.959304E+05  1.565998E+03 -5.710453E+04
        68   9 -1.147865E+06 -5.529964E+05 -1.934117E+05 -5.830614E+05  1.491353E+04 -6.711818E+04
        68  10  2.399689E+05 -4.587894E+04  8.431979E+04 -1.990376E+05  1.201067E-09 -1.692398E-09
        68  11  4.500336E+05  5.826925E+04  1.257805E+05 -1.108830E+05 -3.134872E-10 -3.323133E-09
        68  12  7.008342E+05  1.210926E+05  1.683817E+05 -6.905636E+04 -2.548111E-09 -1.871758E-09
        68  13 -2.234924E+05 -2.134688E+05 -3.575384E+03 -3.271311E+05  4.929421E-10 -1.146968E-09
        68  14 -2.435597E+05 -1.935582E+05 -6.587316E+03 -3.035065E+05 -4.858703E-09 -1.383867E-09
        68  15 -2.239545E+05 -2.159909E+05 -1.249893E+04 -3.262348E+05 -7.804042E-09 -9.199604E-10
        68  16 -6.867257E+05 -3.810381E+05 -9.147825E+04 -4.551349E+05 -1.043409E-09 -1.886856E-10
        68  17 -9.366524E+05 -4.453423E+05 -1.389754E+05 -4.959304E+05 -4.504604E-09  4.118598E-10
        68  18 -1.147866E+06 -5.530013E+05 -1.934206E+05 -5.830606E+05 -2.695624E-09 -2.499024E-10
        68  19  2.399711E+05 -4.587787E+04  8.432434E+04 -1.990384E+05 -4.369836E+04  2.263935E+04
        68  20  4.500365E+05  5.827156E+04  1.257878E+05 -1.108845E+05 -4.805128E+04  3.970230E+04
        68  21  7.008378E+05  1.210964E+05  1.683920E+05 -6.905857E+04 -5.119738E+04  5.351857E+04
        68  22 -2.234918E+05 -2.134676E+05 -3.572865E+03 -3.271316E+05 -1.534154E+04  3.324447E+04
        68  23 -2.435584E+05 -1.935555E+05 -6.581759E+03 -3.035074E+05 -2.479475E+04  4.840863E+04
        68  24 -2.239523E+05 -2.159867E+05 -1.249005E+04 -3.262364E+05 -3.304106E+04  6.032379E+04
        68  25 -6.867250E+05 -3.810360E+05 -9.147432E+04 -4.551344E+05  1.299238E+04  4.384108E+04
        68  26 -9.366515E+05 -4.453388E+05 -1.389693E+05 -4.959304E+05 -1.565998E+03  5.710453E+04
        68  27 -1.147865E+06 -5.529964E+05 -1.934117E+05 -5.830614E+05 -1.491353E+04  6.711818E+04
        69   1  8.569174E+05  1.756095E+05  1.959832E+05 -3.092066E+04  6.325461E+04 -5.989941E+04
        69   2  1.053510E+06  2.859516E+05  2.493725E+05  7.341817E+04  1.213729E+04 -7.322007E+04
        69   3  1.286948E+06  3.358672E+05  3.330777E+05  1.420776E+05 -5.463038E+04 -4.493352E+04
        69   4 -2.263700E+05 -2.145820E+05 -1.647633E+04 -3.270163E+05  3.849182E+04 -6.918382E+04
        69   5 -2.420777E+05 -2.041344E+05 -3.119506E+04 -2.993658E+05  5.293613E+04 -5.794619E+04
        69   6 -2.339814E+05 -2.671401E+05 -6.751393E+04 -3.074216E+05  5.173321E+04 -5.046721E+03
        69   7 -1.308449E+06 -6.046789E+05 -2.289885E+05 -6.226379E+05  1.377518E+04 -7.845136E+04
        69   8 -1.535934E+06 -6.940487E+05 -3.118485E+05 -6.714181E+05  9.364262E+04 -4.270940E+04
        69   9 -1.752582E+06 -8.698969E+05 -4.682407E+05 -7.558768E+05  1.578080E+05  3.471733E+04
        69  10  8.569121E+05  1.756046E+05  1.959689E+05 -3.091761E+04 -4.374524E-09 -7.844241E-10
        69  11  1.053508E+06  2.859458E+05  2.493622E+05  7.341888E+04 -4.708804E-09 -6.625388E-10
        69  12  1.286944E+06  3.358643E+05  3.330684E+05  1.420756E+05 -3.157846E-10 -7.118236E-10
        69  13 -2.263729E+05 -2.145876E+05 -1.648810E+04 -3.270141E+05 -8.127753E-09 -7.344088E-10
        69  14 -2.420816E+05 -2.041388E+05 -3.120664E+04 -2.993633E+05 -5.166377E-09 -1.008804E-09
        69  15 -2.339842E+05 -2.671408E+05 -6.751901E+04 -3.074214E+05 -3.770254E-09 -2.056504E-10
        69  16 -1.308451E+06 -6.046856E+05 -2.290004E+05 -6.226370E+05 -7.617790E-10 -1.576444E-09
        69  17 -1.535944E+06 -6.940530E+05 -3.118684E+05 -6.714149E+05 -8.141610E-10 -1.634969E-09
        69  18 -1.752609E+06 -8.699049E+05 -4.682899E+05 -7.558813E+05  8.716626E-10 -3.148020E-11
        69  19  8.569174E+05  1.756095E+05  1.959832E+05 -3.092066E+04 -6.325461E+04  5.989941E+04
        69  20  1.053510E+06  2.859516E+05  2.493725E+05  7.341817E+04 -1.213729E+04  7.322007E+04
        69  21  1.286948E+06  3.358672E+05  3.330777E+05  1.420776E+05  5.463038E+04  4.493352E+04
        69  22 -2.263700E+05 -2.145820E+05 -1.647633E+04 -3.270163E+05 -3.849182E+04  6.918382E+04
        69  23 -2.420777E+05 -2.041344E+05 -3.119506E+04 -2.993658E+05 -5.293613E+04  5.794619E+04
        69  24 -2.339814E+05 -2.671401E+05 -6.751393E+04 -3.074216E+05 -5.173321E+04  5.046721E+03
        69  25 -1.308449E+06 -6.046789E+05 -2.289885E+05 -6.226379E+05 -1.377518E+04  7.845136E+04
        69  26 -1.535934E+06 -6.940487E+05 -3.118485E+05 -6.714181E+05 -9.364262E+04  4.270940E+04
        69  27 -1.752582E+06 -8.698969E+05 -4.682407E+05 -7.558768E+05 -1.578080E+05 -3.471733E+04
        70   1 -2.077062E+05 -9.580780E+04 -8.457137E+04 -7.056630E+04 -1.728951E+04  6.807760E+03
        70   2 -1.344699E+05 -1.015298E+05 -6.511206E+04 -8.004912E+04 -1.770400E+03  2.263758E+04
        70   3 -5.973634E+04 -9.329546E+04 -5.226777E+04 -1.004530E+05  1.375579E+04  2.671836E+04
        70   4  3.702119E+05  4.651246E+04  4.924870E+04 -1.022228E+05  3.479847E+04  6.817827E+03
        70   5  3.670374E+05  1.675101E+04  2.487603E+04 -9.676055E+04  2.212472E+04  2.263902E+04
        70   6  3.702438E+05  5.832324E+03  1.346230E+04 -1.022177E+05  9.456006E+03  2.671629E+04
        70   7  9.484464E+05  1.888145E+05  1.830572E+05 -1.339089E+05  8.693458E+04  6.822580E+03
        70   8  8.687917E+05  1.350192E+05  1.148567E+05 -1.134859E+05  4.603859E+04  2.263917E+04
        70   9  8.004090E+05  1.049512E+05  7.918844E+04 -1.039837E+05  5.153361E+03  2.671425E+04
        70  10 -2.077065E+05 -9.580793E+04 -8.457202E+04 -7.056621E+04  1.504319E-09 -2.048665E-10
        70  11 -1.344700E+05 -1.015304E+05 -6.511303E+04 -8.004909E+04 -4.642111E-10 -7.282637E-10
        70  12 -5.973674E+04 -9.329628E+04 -5.226946E+04 -1.004533E+05  2.228075E-10 -9.863192E-10
        70  13  3.702106E+05  4.651209E+04  4.924633E+04 -1.022229E+05  1.187775E-09  3.300385E-10
        70  14  3.670368E+05  1.675033E+04  2.487415E+04 -9.676096E+04  2.318393E-09  4.077715E-10
        70  15  3.702435E+05  5.831534E+03  1.346079E+04 -1.022179E+05  2.954224E-09  3.327119E-10
        70  16  9.484383E+05  1.888124E+05  1.830429E+05 -1.339094E+05 -2.779760E-11  6.602775E-10
        70  17  8.687893E+05  1.350181E+05  1.148518E+05 -1.134867E+05 -6.043348E-10  1.627440E-09
        70  18  8.004087E+05  1.049505E+05  7.918705E+04 -1.039838E+05  7.468328E-10  2.138241E-09
        70  19 -2.077062E+05 -9.580780E+04 -8.457137E+04 -7.056630E+04  1.728951E+04 -6.807760E+03
        70  20 -1.344699E+05 -1.015298E+05 -6.511206E+04 -8.004912E+04  1.770400E+03 -2.263758E+04
        70  21 -5.973634E+04 -9.329546E+04 -5.226777E+04 -1.004530E+05 -1.375579E+04 -2.671836E+04
        70  22  3.702119E+05  4.651246E+04  4.924870E+04 -1.022228E+05 -3.479847E+04 -6.817827E+03
        70  23  3.670374E+05  1.675101E+04  2.487603E+04 -9.676055E+04 -2.212472E+04 -2.263902E+04
        70  24  3.702438E+05  5.832324E+03  1.346230E+04 -1.022177E+05 -9.456006E+03 -2.671629E+04
        70  25  9.484464E+05  1.888145E+05  1.830572E+05 -1.339089E+05 -8.693458E+04 -6.822580E+03
        70  26  8.687917E+05  1.350192E+05  1.148567E+05 -1.134859E+05 -4.603859E+04 -2.263917E+04
        70  27  8.004090E+05  1.049512E+05  7.918844E+04 -1.039837E+05 -5.153361E+03 -2.671425E+04
        71   1 -1.456529E+04 -8.379013E+04 -4.657180E+04 -9.992138E+04  1.293984E+04  2.513087E+04
        71   2  5.922042E+04 -6.903515E+04 -3.729813E+04 -9.530436E+04  1.404004E+04  2.215369E+04
        71   3  1.331901E+05 -5.303861E+04 -2.842714E+04 -1.024762E+05  1.514001E+04  1.758861E+04
        71   4  3.690191E+05  4.234007E+03  1.003857E+04 -1.024118E+05  7.703758E+03  2.512916E+04
        71   5  3.686075E+05  1.370239E+03  5.414296E+03 -9.651761E+04  4.991285E+03  2.215264E+04
        71   6  3.690356E+05  4.094464E+02  3.033534E+03 -1.024118E+05  2.278465E+03  1.758863E+04
        71   7  7.527515E+05  9.225131E+04  6.664639E+04 -1.049038E+05  2.464577E+03  2.512749E+04
        71   8  6.780919E+05  7.177146E+04  4.812593E+04 -9.773148E+04 -4.061774E+03  2.215161E+04
        71   9  6.049382E+05  5.385522E+04  3.449438E+04 -1.023473E+05 -1.058773E+04  1.758864E+04
        71  10 -1.456564E+04 -8.379085E+04 -4.657330E+04 -9.992164E+04  4.022766E-09 -1.076491E-09
        71  11  5.922007E+04 -6.903573E+04 -3.729942E+04 -9.530461E+04  2.713349E-09 -1.622049E-09
        71  12  1.331898E+05 -5.303901E+04 -2.842816E+04 -1.024765E+05  2.675830E-09 -2.190136E-09
        71  13  3.690188E+05  4.233312E+03  1.003727E+04 -1.024119E+05 -2.030027E-09  2.081915E-10
        71  14  3.686073E+05  1.369706E+03  5.413326E+03 -9.651770E+04  2.241179E-10 -1.102106E-09
        71  15  3.690355E+05  4.091127E+02  3.032943E+03 -1.024118E+05 -5.770941E-09 -1.802224E-09
        71  16  7.527513E+05  9.225063E+04  6.664519E+04 -1.049038E+05 -5.558336E-09  1.215296E-09
        71  17  6.780918E+05  7.177093E+04  4.812498E+04 -9.773141E+04 -2.421280E-09 -7.250625E-10
        71  18  6.049380E+05  5.385486E+04  3.449359E+04 -1.023472E+05 -3.416485E-09 -1.349563E-09
        71  19 -1.456529E+04 -8.379013E+04 -4.657180E+04 -9.992138E+04 -1.293984E+04 -2.513087E+04
        71  20  5.922042E+04 -6.903515E+04 -3.729813E+04 -9.530436E+04 -1.404004E+04 -2.215369E+04
        71  21  1.331901E+05 -5.303861E+04 -2.842714E+04 -1.024762E+05 -1.514001E+04 -1.758861E+04
        71  22  3.690191E+05  4.234007E+03  1.003857E+04 -1.024118E+05 -7.703758E+03 -2.512916E+04
        71  23  3.686075E+05  1.370239E+03  5.414296E+03 -9.651761E+04 -4.991285E+03 -2.215264E+04
        71  24  3.690356E+05  4.094464E+02  3.033534E+03 -1.024118E+05 -2.278465E+03 -1.758863E+04
        71  25  7.527515E+05  9.225131E+04  6.664639E+04 -1.049038E+05 -2.464577E+03 -2.512749E+04
        71  26  6.780919E+05  7.177146E+04  4.812593E+04 -9.773148E+04  4.061774E+03 -2.215161E+04
        71  27  6.049382E+05  5.385522E+04  3.449438E+04 -1.023473E+05  1.058773E+04 -1.758864E+04
        72   1  1.786948E+05 -4.274590E+04 -2.275050E+04 -1.023780E+05  1.482008E+04  1.439662E+04
        72   2  2.525282E+05 -2.623498E+04 -1.390851E+04 -9.648995E+04  1.469936E+04  8.879269E+03
        72   3  3.264095E+05 -9.632791E+03 -4.963826E+03 -1.025057E+05  1.457833E+04  3.148181E+03
        72   4  3.688821E+05  2.869423E+02  2.284758E+03 -1.024375E+05  1.832246E+03  1.439708E+04
        72   5  3.688189E+05  5.223922E+01  1.277732E+03 -9.648566E+04  1.197562E+03  8.880193E+03
        72   6  3.688882E+05 -1.638636E+00  7.299178E+02 -1.024375E+05  5.625831E+02  3.149578E+03
        72   7  5.591067E+05  4.331835E+04  2.732040E+04 -1.024969E+05 -1.115938E+04  1.439754E+04
        72   8  4.851239E+05  2.633899E+04  1.646458E+04 -9.648137E+04 -1.230665E+04  8.881117E+03
        72   9  4.113691E+05  9.629542E+03  6.424384E+03 -1.023694E+05 -1.345408E+04  3.150972E+03
        72  10  1.786945E+05 -4.274618E+04 -2.275130E+04 -1.023782E+05 -2.220044E-09 -1.473225E-09
        72  11  2.525279E+05 -2.623513E+04 -1.390907E+04 -9.649005E+04  3.664465E-08 -3.389005E-10
        72  12  3.264092E+05 -9.632859E+03 -4.964244E+03 -1.025057E+05  7.070938E-08 -1.920859E-09
        72  13  3.688820E+05  2.867188E+02  2.284362E+03 -1.024375E+05 -1.458466E-10  6.509074E-10
        72  14  3.688189E+05  5.215414E+01  1.277581E+03 -9.648567E+04 -3.220557E-09  8.261572E-09
        72  15  3.688882E+05 -1.649376E+00  7.298986E+02 -1.024375E+05  1.903298E-09  1.458835E-08
        72  16  5.591065E+05  4.331809E+04  2.731978E+04 -1.024968E+05 -1.342667E-10 -1.644192E-09
        72  17  4.851237E+05  2.633887E+04  1.646414E+04 -9.648128E+04 -3.929348E-08 -2.867901E-09
        72  18  4.113689E+05  9.629482E+03  6.424025E+03 -1.023693E+05 -6.948648E-08 -3.956535E-09
        72  19  1.786948E+05 -4.274590E+04 -2.275050E+04 -1.023780E+05 -1.482008E+04 -1.439662E+04
        72  20  2.525282E+05 -2.623498E+04 -1.390851E+04 -9.648995E+04 -1.469936E+04 -8.879269E+03
        72  21  3.264095E+05 -9.632791E+03 -4.963826E+03 -1.025057E+05 -1.457833E+04 -3.148181E+03
        72  22  3.688821E+05  2.869423E+02  2.284758E+03 -1.024375E+05 -1.832246E+03 -1.439708E+04
        72  23  3.688189E+05  5.223922E+01  1.277732E+03 -9.648566E+04 -1.197562E+03 -8.880193E+03
        72  24  3.688882E+05 -1.638636E+00  7.299178E+02 -1.024375E+05 -5.625831E+02 -3.149578E+03
        72  25  5.591067E+05  4.331835E+04  2.732040E+04 -1.024969E+05  1.115938E+04 -1.439754E+04
        72  26  4.851239E+05  2.633899E+04  1.646458E+04 -9.648137E+04  1.230665E+04 -8.881117E+03
        72  27  4.113691E+05  9.629542E+03  6.424384E+03 -1.023694E+05  1.345408E+04 -3.150972E+03
        73   1  3.719505E+05  6.859421E+02  9.219212E+02 -1.024864E+05  1.448166E+04 -2.593086E+02
        73   2  4.458020E+05  1.729997E+04  9.993582E+03 -9.651572E+04  1.438089E+04 -6.114936E+03
        73   3  5.196784E+05  3.391788E+04  1.913331E+04 -1.024641E+05  1.428035E+04 -1.199358E+04
        73   4  3.688652E+05 -4.481998E+00  5.534463E+02 -1.024410E+05  4.488448E+02 -2.578676E+02
        73   5  3.688494E+05 -1.854498E+01  3.168244E+02 -9.648138E+04  2.918854E+02 -6.113778E+03
        73   6  3.688614E+05 -1.919939E+01  1.863650E+02 -1.024410E+05  1.351620E+02 -1.199272E+04
        73   7  3.657804E+05 -6.948008E+02  1.857109E+02 -1.023955E+05 -1.358390E+04 -2.564287E+02
        73   8  2.919034E+05 -1.733719E+04 -9.359204E+03 -9.644704E+04 -1.379546E+04 -6.112622E+03
        73   9  2.180681E+05 -3.395709E+04 -1.875989E+04 -1.024178E+05 -1.400676E+04 -1.199186E+04
        73  10  3.719503E+05  6.858858E+02  9.215273E+02 -1.024864E+05 -6.807198E-08 -2.585721E-09
        73  11  4.458018E+05  1.729987E+04  9.993124E+03 -9.651565E+04 -3.800930E-08 -1.862881E-09
        73  12  5.196782E+05  3.391767E+04  1.913266E+04 -1.024640E+05 -6.027011E-09 -1.540865E-09
        73  13  3.688652E+05 -4.482124E+00  5.534458E+02 -1.024410E+05 -2.054102E-11  1.429348E-08
        73  14  3.688494E+05 -1.858515E+01  3.167540E+02 -9.648137E+04  1.020483E-09  7.815353E-09
        73  15  3.688613E+05 -1.935386E+01  1.860947E+02 -1.024410E+05  5.608392E-10  1.035583E-09
        73  16  3.657802E+05 -6.948504E+02  1.853643E+02 -1.023955E+05  6.870060E-08 -3.799432E-09
        73  17  2.919032E+05 -1.733728E+04 -9.359631E+03 -9.644710E+04  3.941473E-08 -2.247703E-09
        73  18  2.180678E+05 -3.395730E+04 -1.876053E+04 -1.024180E+05  7.036318E-09 -8.163737E-10
        73  19  3.719505E+05  6.859421E+02  9.219212E+02 -1.024864E+05 -1.448166E+04  2.593086E+02
        73  20  4.458020E+05  1.729997E+04  9.993582E+03 -9.651572E+04 -1.438089E+04  6.114936E+03
        73  21  5.196784E+05  3.391788E+04  1.913331E+04 -1.024641E+05 -1.428035E+04  1.199358E+04
        73  22  3.688652E+05 -4.481998E+00  5.534463E+02 -1.024410E+05 -4.488448E+02  2.578676E+02
        73  23  3.688494E+05 -1.854498E+01  3.168244E+02 -9.648138E+04 -2.918854E+02  6.113778E+03
        73  24  3.688614E+05 -1.919939E+01  1.863650E+02 -1.024410E+05 -1.351620E+02  1.199272E+04
        73  25  3.657804E+05 -6.948008E+02  1.857109E+02 -1.023955E+05  1.358390E+04  2.564287E+02
        73  26  2.919034E+05 -1.733719E+04 -9.359204E+03 -9.644704E+04  1.379546E+04  6.112622E+03
        73  27  2.180681E+05 -3.395709E+04 -1.875989E+04 -1.024178E+05  1.400676E+04  1.199186E+04
        74   1  5.652379E+05  4.422701E+04  2.511554E+04 -1.024581E+05  1.425030E+04 -1.542404E+04
        74   2  6.391090E+05  6.083927E+04  3.434918E+04 -9.648166E+04  1.410719E+04 -2.129270E+04
        74   3  7.130179E+05  7.746773E+04  4.368273E+04 -1.024258E+05  1.396487E+04 -2.712012E+04
        74   4  3.688556E+05 -2.203999E+01  1.449072E+02 -1.024413E+05  1.051503E+02 -1.542357E+04
        74   5  3.688412E+05 -3.386409E+01  9.093812E+01 -9.648091E+04  6.028871E+01 -2.129326E+04
        74   6  3.688418E+05 -4.645194E+01  6.816433E+01 -1.024413E+05  1.623804E+01 -2.712171E+04
        74   7  1.725132E+05 -4.427256E+04 -2.482511E+04 -1.024245E+05 -1.403575E+04 -1.542310E+04
        74   8  9.864879E+04 -6.090988E+04 -3.416681E+04 -9.648015E+04 -1.398080E+04 -2.129382E+04
        74   9  2.478770E+04 -7.756537E+04 -4.354608E+04 -1.024569E+05 -1.392505E+04 -2.712331E+04
        74  10  5.652376E+05  4.422670E+04  2.511471E+04 -1.024580E+05 -3.953434E-09 -1.637218E-09
        74  11  6.391087E+05  6.083873E+04  3.434795E+04 -9.648142E+04 -1.153682E-09 -1.783098E-09
        74  12  7.130175E+05  7.746689E+04  4.368098E+04 -1.024255E+05 -2.121973E-09 -1.750210E-09
        74  13  3.688555E+05 -2.229548E+01  1.444601E+02 -1.024413E+05  2.793498E-10 -1.170230E-09
        74  14  3.688411E+05 -3.435105E+01  9.008594E+01 -9.648091E+04 -7.923232E-10 -1.459332E-09
        74  15  3.688416E+05 -4.724197E+01  6.678178E+01 -1.024413E+05 -3.848679E-09 -1.326051E-09
        74  16  1.725129E+05 -4.427287E+04 -2.482593E+04 -1.024247E+05  4.876293E-09 -7.418964E-10
        74  17  9.864845E+04 -6.091042E+04 -3.416803E+04 -9.648039E+04  1.922421E-09 -1.340691E-09
        74  18  2.478729E+04 -7.756621E+04 -4.354782E+04 -1.024572E+05  2.265992E-09 -1.026019E-09
        74  19  5.652379E+05  4.422701E+04  2.511554E+04 -1.024581E+05 -1.425030E+04  1.542404E+04
        74  20  6.391090E+05  6.083927E+04  3.434918E+04 -9.648166E+04 -1.410719E+04  2.129270E+04
        74  21  7.130179E+05  7.746773E+04  4.368273E+04 -1.024258E+05 -1.396487E+04  2.712012E+04
        74  22  3.688556E+05 -2.203999E+01  1.449072E+02 -1.024413E+05 -1.051503E+02  1.542357E+04
        74  23  3.688412E+05 -3.386409E+01  9.093812E+01 -9.648091E+04 -6.028871E+01  2.129326E+04
        74  24  3.688418E+05 -4.645194E+01  6.816433E+01 -1.024413E+05 -1.623804E+01  2.712171E+04
        74  25  1.725132E+05 -4.427256E+04 -2.482511E+04 -1.024245E+05  1.403575E+04  1.542310E+04
        74  26  9.864879E+04 -6.090988E+04 -3.416681E+04 -9.648015E+04  1.398080E+04  2.129382E+04
        74  27  2.478770E+04 -7.756537E+04 -4.354608E+04 -1.024569E+05  1.392505E+04  2.712331E+04
        75   1  7.586232E+05  8.779152E+04  4.977637E+04 -1.024097E+05  1.392891E+04 -3.050889E+04
        75   2  8.324722E+05  1.044632E+05  5.943998E+04 -9.642854E+04  1.308455E+04 -3.613582E+04
        75   3  9.064926E+05  1.212799E+05  6.969482E+04 -1.023495E+05  1.224134E+04 -4.142530E+04
        75   4  3.688381E+05 -5.584290E+01  6.502940E+01 -1.024373E+05  4.759445E+00 -3.051130E+04
        75   5  3.688132E+05 -7.654409E+01  7.091791E+01 -9.648598E+04 -2.943187E+01 -3.613988E+04
        75   6  3.688146E+05 -9.228588E+01  1.058228E+02 -1.024373E+05 -6.238566E+01 -4.143088E+04
        75   7 -2.079080E+04 -8.790933E+04 -4.964619E+04 -1.024649E+05 -1.391108E+04 -3.051372E+04
        75   8 -9.462523E+04 -1.046250E+05 -5.929844E+04 -9.654336E+04 -1.313410E+04 -3.614394E+04
        75   9 -1.685674E+05 -1.214764E+05 -6.948416E+04 -1.025250E+05 -1.235598E+04 -4.143646E+04
        75  10  7.586227E+05  8.779047E+04  4.977426E+04 -1.024093E+05 -1.401328E-08 -7.026034E-10
        75  11  8.324717E+05  1.044617E+05  5.943721E+04 -9.642816E+04 -1.555712E-08  1.697093E-09
        75  12  9.064919E+05  1.212780E+05  6.969131E+04 -1.023491E+05 -1.200558E-08  5.059858E-09
        75  13  3.688379E+05 -5.684274E+01  6.327968E+01 -1.024373E+05  1.077218E-09 -2.704286E-09
        75  14  3.688129E+05 -7.794684E+01  6.846308E+01 -9.648598E+04 -4.412374E-09 -7.832446E-09
        75  15  3.688141E+05 -9.412944E+01  1.025965E+02 -1.024373E+05  6.439136E-10 -1.235105E-08
        75  16 -2.079126E+04 -8.791038E+04 -4.964831E+04 -1.024652E+05  1.692675E-08 -3.086630E-10
        75  17 -9.462577E+04 -1.046265E+05 -5.930122E+04 -9.654375E+04  1.516342E-08  2.128844E-09
        75  18 -1.685680E+05 -1.214783E+05 -6.948767E+04 -1.025254E+05  1.343570E-08  5.611686E-09
        75  19  7.586232E+05  8.779152E+04  4.977637E+04 -1.024097E+05 -1.392891E+04  3.050889E+04
        75  20  8.324722E+05  1.044632E+05  5.943998E+04 -9.642854E+04 -1.308455E+04  3.613582E+04
        75  21  9.064926E+05  1.212799E+05  6.969482E+04 -1.023495E+05 -1.224134E+04  4.142530E+04
        75  22  3.688381E+05 -5.584290E+01  6.502940E+01 -1.024373E+05 -4.759445E+00  3.051130E+04
        75  23  3.688132E+05 -7.654409E+01  7.091791E+01 -9.648598E+04  2.943187E+01  3.613988E+04
        75  24  3.688146E+05 -9.228588E+01  1.058228E+02 -1.024373E+05  6.238566E+01  4.143088E+04
        75  25 -2.079080E+04 -8.790933E+04 -4.964619E+04 -1.024649E+05  1.391108E+04  3.051372E+04
        75  26 -9.462523E+04 -1.046250E+05 -5.929844E+04 -9.654336E+04  1.313410E+04  3.614394E+04
        75  27 -1.685674E+05 -1.214764E+05 -6.948416E+04 -1.025250E+05  1.235598E+04  4.143646E+04
        76   1  9.522943E+05  1.317551E+05  7.639854E+04 -1.022778E+05  1.202518E+04 -4.447326E+04
        76   2  1.025743E+06  1.489357E+05  8.892959E+04 -9.641333E+04  5.890375E+03 -4.825899E+04
        76   3  1.100314E+06  1.672409E+05  1.057415E+05 -1.022666E+05 -2.451942E+02 -4.953814E+04
        76   4  3.688152E+05 -1.020736E+02  1.350222E+02 -1.023964E+05 -8.146089E+01 -4.447992E+04
        76   5  3.687628E+05 -9.224744E+01  2.267368E+02 -9.653713E+04 -1.920120E+02 -4.826594E+04
        76   6  3.687823E+05 -2.370675E+00  4.201019E+02 -1.023964E+05 -3.025364E+02 -4.954396E+04
        76   7 -2.143159E+05 -1.319734E+05 -7.613008E+04 -1.025148E+05 -1.217728E+04 -4.448659E+04
        76   8 -2.877780E+05 -1.491388E+05 -8.848002E+04 -9.666078E+04 -6.268267E+03 -4.827289E+04
        76   9 -3.622094E+05 -1.672700E+05 -1.049097E+05 -1.025260E+05 -3.598138E+02 -4.954979E+04
        76  10  9.522936E+05  1.317529E+05  7.639455E+04 -1.022774E+05  8.313154E-08  6.039124E-09
        76  11  1.025742E+06  1.489332E+05  8.892515E+04 -9.641311E+04  1.579113E-08  4.275511E-09
        76  12  1.100313E+06  1.672382E+05  1.057369E+05 -1.022666E+05 -5.099690E-08 -2.736163E-10
        76  13  3.688147E+05 -1.041985E+02  1.313036E+02 -1.023964E+05 -2.167110E-09 -1.146800E-08
        76  14  3.687622E+05 -9.474947E+01  2.223582E+02 -9.653713E+04  1.140177E-09 -5.763966E-09
        76  15  3.687817E+05 -5.006975E+00  4.154882E+02 -1.023964E+05 -1.661554E-09 -1.567838E-09
        76  16 -2.143166E+05 -1.319756E+05 -7.613408E+04 -1.025153E+05 -8.278910E-08  6.157771E-09
        76  17 -2.877786E+05 -1.491413E+05 -8.848448E+04 -9.666103E+04 -1.547079E-08  4.911809E-09
        76  18 -3.622101E+05 -1.672727E+05 -1.049143E+05 -1.025260E+05  5.150475E-08  1.772147E-09
        76  19  9.522943E+05  1.317551E+05  7.639854E+04 -1.022778E+05 -1.202518E+04  4.447326E+04
        76  20  1.025743E+06  1.489357E+05  8.892959E+04 -9.641333E+04 -5.890375E+03  4.825899E+04
        76  21  1.100314E+06  1.672409E+05  1.057415E+05 -1.022666E+05  2.451942E+02  4.953814E+04
        76  22  3.688152E+05 -1.020736E+02  1.350222E+02 -1.023964E+05  8.146089E+01  4.447992E+04
        76  23  3.687628E+05 -9.224744E+01  2.267368E+02 -9.653713E+04  1.920120E+02  4.826594E+04
        76  24  3.687823E+05 -2.370675E+00  4.201019E+02 -1.023964E+05  3.025364E+02  4.954396E+04
        76  25 -2.143159E+05 -1.319734E+05 -7.613008E+04 -1.025148E+05  1.217728E+04  4.448659E+04
        76  26 -2.877780E+05 -1.491388E+05 -8.848002E+04 -9.666078E+04  6.268267E+03  4.827289E+04
        76  27 -3.622094E+05 -1.672700E+05 -1.049097E+05 -1.025260E+05  3.598138E+02  4.954979E+04
        77   1  1.147356E+06  1.788654E+05  1.168156E+05 -1.018822E+05 -1.796057E+03 -5.005309E+04
        77   2  1.217515E+06  1.999546E+05  1.502681E+05 -9.728049E+04 -4.690231E+04 -4.020817E+04
        77   3  1.295736E+06  2.295991E+05  2.152013E+05 -1.030184E+05 -9.203344E+04 -1.181596E+04
        77   4  3.688270E+05  4.886262E+01  5.638227E+02 -1.020897E+05 -3.762267E+02 -5.005862E+04
        77   5  3.686421E+05  4.924139E+02  1.030463E+03 -9.692075E+04 -8.913577E+02 -4.018861E+04
        77   6  3.687864E+05  1.762785E+03  2.046949E+03 -1.020905E+05 -1.424364E+03 -1.175974E+04
        77   7 -4.090943E+05 -1.787962E+05 -1.156996E+05 -1.022969E+05  1.041898E+03 -5.006415E+04
        77   8 -4.795226E+05 -1.990080E+05 -1.482254E+05 -9.656157E+04  4.505864E+04 -4.016899E+04
        77   9 -5.573519E+05 -2.261291E+05 -2.111335E+05 -1.011640E+05  8.905073E+04 -1.170321E+04
        77  10  1.147355E+06  1.788627E+05  1.168109E+05 -1.018823E+05  3.261205E-09 -2.818310E-09
        77  11  1.217512E+06  1.999523E+05  1.502609E+05 -9.728201E+04  4.284994E-10 -4.148340E-09
        77  12  1.295727E+06  2.295967E+05  2.151852E+05 -1.030193E+05 -3.690816E-09 -1.334327E-09
        77  13  3.688263E+05  4.617125E+01  5.591126E+02 -1.020897E+05  6.752778E-10 -3.136185E-09
        77  14  3.686416E+05  4.906790E+02  1.027426E+03 -9.692078E+04  2.647429E-09 -1.618512E-10
        77  15  3.687864E+05  1.762636E+03  2.046685E+03 -1.020905E+05  1.276494E-09 -4.525618E-10
        77  16 -4.090950E+05 -1.787989E+05 -1.157043E+05 -1.022969E+05 -4.017683E-10  5.569561E-11
        77  17 -4.795253E+05 -1.990102E+05 -1.482323E+05 -9.656011E+04 -7.601141E-10  6.084285E-10
        77  18 -5.573605E+05 -2.261314E+05 -2.111486E+05 -1.011632E+05  3.227902E-09 -8.751751E-10
        77  19  1.147356E+06  1.788654E+05  1.168156E+05 -1.018822E+05  1.796057E+03  5.005309E+04
        77  20  1.217515E+06  1.999546E+05  1.502681E+05 -9.728049E+04  4.690231E+04  4.020817E+04
        77  21  1.295736E+06  2.295991E+05  2.152013E+05 -1.030184E+05  9.203344E+04  1.181596E+04
        77  22  3.688270E+05  4.886262E+01  5.638227E+02 -1.020897E+05  3.762267E+02  5.005862E+04
        77  23  3.686421E+05  4.924139E+02  1.030463E+03 -9.692075E+04  8.913577E+02  4.018861E+04
        77  24  3.687864E+05  1.762785E+03  2.046949E+03 -1.020905E+05  1.424364E+03  1.175974E+04
        77  25 -4.090943E+05 -1.787962E+05 -1.156996E+05 -1.022969E+05 -1.041898E+03  5.006415E+04
        77  26 -4.795226E+05 -1.990080E+05 -1.482254E+05 -9.656157E+04 -4.505864E+04  4.016899E+04
        77  27 -5.573519E+05 -2.261291E+05 -2.111335E+05 -1.011640E+05 -8.905073E+04  1.170321E+04
        78   1  1.969846E+05  9.412620E+05  1.880506E+05 -2.431339E+05  7.658580E+03  6.052851E+04
        78   2  1.424490E+05  7.609613E+05  1.159096E+05 -2.266125E+05  2.373060E+04  2.021482E+04
        78   3  9.782412E+04  5.883994E+05  7.246484E+04 -2.379816E+05  2.363188E+04 -2.009190E+04
        78   4  7.708461E+03  1.743455E+05  8.121250E+03 -2.375058E+05  7.703773E+03  4.301867E+03
        78   5  2.930521E+03  1.737906E+05  5.189625E+03 -2.235625E+05  2.374831E+04  1.685472E+03
        78   6  1.531555E+03  1.744144E+05  4.803107E+03 -2.375105E+05  2.361536E+04 -9.354464E+02
        78   7 -1.816078E+05 -5.920232E+05 -1.718365E+05 -2.318846E+05  7.747987E+03 -5.185583E+04
        78   8 -1.366078E+05 -4.130466E+05 -1.055442E+05 -2.205154E+05  2.376586E+04 -1.682679E+04
        78   9 -9.476957E+04 -2.394002E+05 -6.286214E+04 -2.370397E+05  2.359887E+04  1.820868E+04
        78  10  1.969836E+05  9.412581E+05  1.880437E+05 -2.431343E+05 -5.612723E-10 -4.999073E-08
        78  11  1.424483E+05  7.609607E+05  1.159077E+05 -2.266129E+05 -6.919340E-09 -2.211130E-08
        78  12  9.782341E+04  5.883988E+05  7.246303E+04 -2.379812E+05 -1.896737E-08  1.524958E-08
        78  13  7.708393E+03  1.743455E+05  8.121104E+03 -2.375059E+05  6.574498E-09 -2.570711E-11
        78  14  2.929914E+03  1.737905E+05  5.188560E+03 -2.235626E+05  2.127387E-08  8.548416E-12
        78  15  1.530956E+03  1.744143E+05  4.802058E+03 -2.375105E+05  3.614964E-08  8.924442E-11
        78  16 -1.816085E+05 -5.920261E+05 -1.718417E+05 -2.318842E+05 -3.873244E-09  4.974831E-08
        78  17 -1.366085E+05 -4.130471E+05 -1.055458E+05 -2.205151E+05 -9.620647E-09  2.205480E-08
        78  18 -9.477026E+04 -2.394007E+05 -6.286381E+04 -2.370401E+05 -1.656494E-08 -1.429170E-08
        78  19  1.969846E+05  9.412620E+05  1.880506E+05 -2.431339E+05 -7.658580E+03 -6.052851E+04
        78  20  1.424490E+05  7.609613E+05  1.159096E+05 -2.266125E+05 -2.373060E+04 -2.021482E+04
        78  21  9.782412E+04  5.883994E+05  7.246484E+04 -2.379816E+05 -2.363188E+04  2.009190E+04
        78  22  7.708461E+03  1.743455E+05  8.121250E+03 -2.375058E+05 -7.703773E+03 -4.301867E+03
        78  23  2.930521E+03  1.737906E+05  5.189625E+03 -2.235625E+05 -2.374831E+04 -1.685472E+03
        78  24  1.531555E+03  1.744144E+05  4.803107E+03 -2.375105E+05 -2.361536E+04  9.354464E+02
        78  25 -1.816078E+05 -5.920232E+05 -1.718365E+05 -2.318846E+05 -7.747987E+03  5.185583E+04
        78  26 -1.366078E+05 -4.130466E+05 -1.055442E+05 -2.205154E+05 -2.376586E+04  1.682679E+04
        78  27 -9.476957E+04 -2.394002E+05 -6.286214E+04 -2.370397E+05 -2.359887E+04 -1.820868E+04
        79   1  7.185603E+04  4.780477E+05  5.375764E+04 -2.384786E+05  1.807889E+04 -2.180641E+04
        79   2  3.114816E+04  3.010576E+05  2.553049E+04 -2.221579E+05  9.141100E+03 -2.714323E+04
        79   3 -6.633054E+03  1.254904E+05  1.497083E+03 -2.348302E+05 -4.609972E+02 -3.247967E+04
        79   4  1.449808E+03  1.744165E+05  5.247037E+03 -2.377554E+05  1.806032E+04 -1.749852E+03
        79   5  2.123653E+03  1.738623E+05  7.554409E+03 -2.232573E+05  9.120352E+03 -5.541649E+03
        79   6  5.457241E+03  1.744311E+05  1.298181E+04 -2.377521E+05 -4.839946E+02 -9.334470E+03
        79   7 -6.896082E+04 -1.291223E+05 -4.326447E+04 -2.370325E+05  1.804180E+04  1.829726E+04
        79   8 -2.690132E+04  4.668426E+04 -1.042014E+04 -2.243565E+05  9.099525E+03  1.605570E+04
        79   9  1.754769E+04  2.233753E+05  2.446840E+04 -2.406743E+05 -5.072086E+02  1.381254E+04
        79  10  7.185556E+04  4.780471E+05  5.375614E+04 -2.384783E+05 -2.009067E-08  5.679334E-08
        79  11  3.114787E+04  3.010568E+05  2.552895E+04 -2.221577E+05 -1.067023E-08  2.662660E-08
        79  12 -6.633337E+03  1.254893E+05  1.495101E+03 -2.348302E+05 -5.419895E-09 -6.080651E-09
        79  13  1.449457E+03  1.744164E+05  5.246419E+03 -2.377554E+05  3.551388E-08  1.930126E-11
        79  14  2.123555E+03  1.738622E+05  7.554195E+03 -2.232573E+05  1.915998E-08  2.115630E-11
        79  15  5.457218E+03  1.744311E+05  1.298165E+04 -2.377521E+05  9.100148E-10  9.406646E-11
        79  16 -6.896126E+04 -1.291228E+05 -4.326571E+04 -2.370328E+05 -1.515600E-08 -5.710145E-08
        79  17 -2.690148E+04  4.668396E+04 -1.042078E+04 -2.243566E+05 -1.292300E-08 -2.691703E-08
        79  18  1.754763E+04  2.233751E+05  2.446804E+04 -2.406743E+05 -3.241781E-09  7.121285E-09
        79  19  7.185603E+04  4.780477E+05  5.375764E+04 -2.384786E+05 -1.807889E+04  2.180641E+04
        79  20  3.114816E+04  3.010576E+05  2.553049E+04 -2.221579E+05 -9.141100E+03  2.714323E+04
        79  21 -6.633054E+03  1.254904E+05  1.497083E+03 -2.348302E+05  4.609972E+02  3.247967E+04
        79  22  1.449808E+03  1.744165E+05  5.247037E+03 -2.377554E+05 -1.806032E+04  1.749852E+03
        79  23  2.123653E+03  1.738623E+05  7.554409E+03 -2.232573E+05 -9.120352E+03  5.541649E+03
        79  24  5.457241E+03  1.744311E+05  1.298181E+04 -2.377521E+05  4.839946E+02  9.334470E+03
        79  25 -6.896082E+04 -1.291223E+05 -4.326447E+04 -2.370325E+05 -1.804180E+04 -1.829726E+04
        79  26 -2.690132E+04  4.668426E+04 -1.042014E+04 -2.243565E+05 -9.099525E+03 -1.605570E+04
        79  27  1.754769E+04  2.233753E+05  2.446840E+04 -2.406743E+05  5.072086E+02 -1.381254E+04
        80   1 -3.047833E+04  1.705329E+04 -1.243740E+04 -2.357931E+05 -6.670424E+03 -3.417419E+04
        80   2 -5.934155E+04 -1.610745E+05 -3.552713E+04 -2.026708E+05 -1.087247E+04 -2.441509E+04
        80   3 -6.825284E+04 -3.354739E+05 -5.998971E+04 -1.978632E+05 -4.047636E+03 -1.465408E+04
        80   4  7.222838E+03  1.759876E+05  1.712949E+04 -2.376017E+05 -6.692593E+03 -1.158770E+04
        80   5  2.064208E+04  1.718934E+05  3.120859E+04 -2.234271E+05 -1.086830E+04 -2.750025E+04
        80   6  5.846190E+04  1.759440E+05  6.173580E+04 -2.375605E+05 -4.020477E+03 -4.340810E+04
        80   7  4.492284E+04  3.349474E+05  4.669723E+04 -2.394108E+05 -6.714889E+03  1.100441E+04
        80   8  1.006205E+05  5.049681E+05  9.793896E+04 -2.441946E+05 -1.086394E+04 -3.058703E+04
        80   9  1.851641E+05  6.876071E+05  1.834469E+05 -2.772906E+05 -3.989655E+03 -7.218570E+04
        80  10 -3.047869E+04  1.705202E+04 -1.243968E+04 -2.357933E+05 -3.263822E-09  3.808209E-09
        80  11 -5.934184E+04 -1.610752E+05 -3.552847E+04 -2.026710E+05 -2.329166E-09  3.743061E-09
        80  12 -6.825291E+04 -3.354741E+05 -5.999015E+04 -1.978632E+05 -1.877915E-09  7.103895E-09
        80  13  7.222754E+03  1.759874E+05  1.712916E+04 -2.376018E+05 -1.752995E-09 -3.328429E-11
        80  14  2.064175E+04  1.718926E+05  3.120695E+04 -2.234273E+05 -3.925213E-09 -1.678799E-12
        80  15  5.846138E+04  1.759420E+05  6.173223E+04 -2.375606E+05 -1.520373E-10  6.055191E-11
        80  16  4.492276E+04  3.349472E+05  4.669692E+04 -2.394107E+05 -2.269888E-09 -4.118992E-09
        80  17  1.006201E+05  5.049670E+05  9.793698E+04 -2.441949E+05 -4.012506E-09 -3.954046E-09
        80  18  1.851627E+05  6.876015E+05  1.834371E+05 -2.772909E+05 -1.753312E-09 -6.134393E-09
        80  19 -3.047833E+04  1.705329E+04 -1.243740E+04 -2.357931E+05  6.670424E+03  3.417419E+04
        80  20 -5.934155E+04 -1.610745E+05 -3.552713E+04 -2.026708E+05  1.087247E+04  2.441509E+04
        80  21 -6.825284E+04 -3.354739E+05 -5.998971E+04 -1.978632E+05  4.047636E+03  1.465408E+04
        80  22  7.222838E+03  1.759876E+05  1.712949E+04 -2.376017E+05  6.692593E+03  1.158770E+04
        80  23  2.064208E+04  1.718934E+05  3.120859E+04 -2.234271E+05  1.086830E+04  2.750025E+04
        80  24  5.846190E+04  1.759440E+05  6.173580E+04 -2.375605E+05  4.020477E+03  4.340810E+04
        80  25  4.492284E+04  3.349474E+05  4.669723E+04 -2.394108E+05  6.714889E+03 -1.100441E+04
        80  26  1.006205E+05  5.049681E+05  9.793896E+04 -2.441946E+05  1.086394E+04  3.058703E+04
        80  27  1.851641E+05  6.876071E+05  1.834469E+05 -2.772906E+05  3.989655E+03  7.218570E+04
        81   1 -4.047418E+05 -2.264939E+05 -1.387548E+05 -1.742592E+05 -6.899685E+04 -2.213202E+04
        81   2 -3.807723E+05 -1.444415E+05 -7.949248E+04 -1.627115E+05 -4.295994E+04 -3.951101E+03
        81   3 -3.720152E+05 -1.100967E+05 -5.335942E+04 -1.462689E+05 -1.461855E+04  8.098183E+03
        81   4 -2.039521E+05 -1.119715E+05 -7.936873E+04 -7.895864E+04 -5.259497E+04 -1.598095E+04
        81   5 -1.929610E+05 -5.828152E+04 -3.664435E+04 -9.295993E+04 -3.619605E+04 -1.414283E+03
        81   6 -1.952674E+05 -5.038365E+04 -1.940547E+04 -1.020692E+05 -1.749396E+04  7.018898E+03
        81   7 -3.121451E+03  2.570878E+03 -1.998593E+04  1.637378E+04 -3.618757E+04 -9.825199E+03
        81   8 -5.113582E+03  2.788717E+04  6.201571E+03 -2.318725E+04 -2.942999E+04  1.123823E+03
        81   9 -1.848618E+04  9.331443E+03  1.454746E+04 -5.785802E+04 -2.037026E+04  5.939332E+03
        81  10 -4.047470E+05 -2.264957E+05 -1.387647E+05 -1.742605E+05 -1.985051E-09  4.142826E-10
        81  11 -3.807743E+05 -1.444421E+05 -7.949598E+04 -1.627116E+05 -4.097031E-09  5.909435E-10
        81  12 -3.720155E+05 -1.100968E+05 -5.335995E+04 -1.462688E+05 -8.524962E-10  1.050827E-09
        81  13 -2.039551E+05 -1.119725E+05 -7.937441E+04 -7.895932E+04 -3.168482E-09  2.788028E-10
        81  14 -1.929624E+05 -5.828188E+04 -3.664682E+04 -9.295997E+04  2.325504E-09  3.233479E-11
        81  15 -1.952677E+05 -5.038378E+04 -1.940614E+04 -1.020691E+05 -3.271619E-09  6.849541E-10
        81  16 -3.122883E+03  2.570423E+03 -1.998858E+04  1.637350E+04  4.562599E-10  1.768643E-11
        81  17 -5.114513E+03  2.788693E+04  6.199941E+03 -2.318722E+04  8.286445E-10 -9.407952E-10
        81  18 -1.848664E+04  9.331294E+03  1.454661E+04 -5.785793E+04  6.656412E-10  1.740755E-10
        81  19 -4.047418E+05 -2.264939E+05 -1.387548E+05 -1.742592E+05  6.899685E+04  2.213202E+04
        81  20 -3.807723E+05 -1.444415E+05 -7.949248E+04 -1.627115E+05  4.295994E+04  3.951101E+03
        81  21 -3.720152E+05 -1.100967E+05 -5.335942E+04 -1.462689E+05  1.461855E+04 -8.098183E+03
        81  22 -2.039521E+05 -1.119715E+05 -7.936873E+04 -7.895864E+04  5.259497E+04  1.598095E+04
        81  23 -1.929610E+05 -5.828152E+04 -3.664435E+04 -9.295993E+04  3.619605E+04  1.414283E+03
        81  24 -1.952674E+05 -5.038365E+04 -1.940547E+04 -1.020692E+05  1.749396E+04 -7.018898E+03
        81  25 -3.121451E+03  2.570878E+03 -1.998593E+04  1.637378E+04  3.618757E+04  9.825199E+03
        81  26 -5.113582E+03  2.788717E+04  6.201571E+03 -2.318725E+04  2.942999E+04 -1.123823E+03
        81  27 -1.848618E+04  9.331443E+03  1.454746E+04 -5.785802E+04  2.037026E+04 -5.939332E+03
        82   1 -3.467904E+05 -1.087153E+05 -4.480962E+04 -1.443787E+05 -1.295661E+04  7.440584E+03
        82   2 -3.210827E+05 -9.314668E+04 -3.185712E+04 -1.339245E+05 -7.757746E+03  7.738773E+03
        82   3 -2.918668E+05 -8.464862E+04 -2.293758E+04 -1.287372E+05 -2.379630E+03  7.559295E+03
        82   4 -1.928992E+05 -5.168621E+04 -1.470624E+04 -1.005952E+05 -1.486043E+04  6.725892E+03
        82   5 -1.945401E+05 -4.690298E+04 -7.758876E+03 -9.845716E+04 -1.041172E+04  6.742778E+03
        82   6 -1.925244E+05 -4.904137E+04 -4.249231E+03 -1.015864E+05 -5.783952E+03  6.281965E+03
        82   7 -3.898480E+04  5.344667E+03  1.539569E+04 -5.680187E+04 -1.676474E+04  6.011009E+03
        82   8 -6.798076E+04 -6.577659E+02  1.633873E+04 -6.298306E+04 -1.306627E+04  5.746564E+03
        82   9 -9.317069E+04 -1.343293E+04  1.443902E+04 -7.443126E+04 -9.188886E+03  5.004412E+03
        82  10 -3.467905E+05 -1.087154E+05 -4.481004E+04 -1.443786E+05 -2.309973E-09  8.022076E-10
        82  11 -3.210827E+05 -9.314676E+04 -3.185734E+04 -1.339245E+05  8.719591E-09  3.498032E-09
        82  12 -2.918668E+05 -8.464869E+04 -2.293770E+04 -1.287372E+05  1.041082E-08  6.918572E-10
        82  13 -1.928994E+05 -5.168632E+04 -1.470674E+04 -1.005951E+05  3.624156E-09  1.947894E-09
        82  14 -1.945402E+05 -4.690305E+04 -7.759166E+03 -9.845710E+04  9.644715E-09  3.527195E-09
        82  15 -1.925244E+05 -4.904142E+04 -4.249368E+03 -1.015863E+05  4.876132E-09  1.209898E-10
        82  16 -3.898511E+04  5.344553E+03  1.539510E+04 -5.680178E+04  5.477912E-09  3.006894E-09
        82  17 -6.798095E+04 -6.578472E+02  1.633834E+04 -6.298300E+04  6.430321E-09  2.734382E-09
        82  18 -9.317079E+04 -1.343298E+04  1.443881E+04 -7.443122E+04 -3.176953E-09 -4.942028E-10
        82  19 -3.467904E+05 -1.087153E+05 -4.480962E+04 -1.443787E+05  1.295661E+04 -7.440584E+03
        82  20 -3.210827E+05 -9.314668E+04 -3.185712E+04 -1.339245E+05  7.757746E+03 -7.738773E+03
        82  21 -2.918668E+05 -8.464862E+04 -2.293758E+04 -1.287372E+05  2.379630E+03 -7.559295E+03
        82  22 -1.928992E+05 -5.168621E+04 -1.470624E+04 -1.005952E+05  1.486043E+04 -6.725892E+03
        82  23 -1.945401E+05 -4.690298E+04 -7.758876E+03 -9.845716E+04  1.041172E+04 -6.742778E+03
        82  24 -1.925244E+05 -4.904137E+04 -4.249231E+03 -1.015864E+05  5.783952E+03 -6.281965E+03
        82  25 -3.898480E+04  5.344667E+03  1.539569E+04 -5.680187E+04  1.676474E+04 -6.011009E+03
        82  26 -6.798076E+04 -6.577659E+02  1.633873E+04 -6.298306E+04  1.306627E+04 -5.746564E+03
        82  27 -9.317069E+04 -1.343293E+04  1.443902E+04 -7.443126E+04  9.188886E+03 -5.004412E+03
        83   1 -2.730277E+05 -7.822887E+04 -1.827033E+04 -1.237811E+05 -1.387328E+03  6.488877E+03
        83   2 -2.475699E+05 -6.562815E+04 -1.164439E+04 -1.132570E+05  3.482455E+02  4.703643E+03
        83   3 -2.173479E+05 -5.806749E+04 -5.740072E+03 -1.083865E+05  2.097718E+03  2.881079E+03
        83   4 -1.923437E+05 -4.910995E+04 -3.194675E+03 -1.014882E+05 -4.716483E+03  5.239829E+03
        83   5 -1.947267E+05 -4.656771E+04 -1.755743E+03 -9.867159E+04 -3.039525E+03  3.432693E+03
        83   6 -1.923347E+05 -4.905386E+04 -9.918913E+02 -1.015088E+05 -1.348719E+03  1.588217E+03
        83   7 -1.116528E+05 -1.999046E+04  1.188076E+04 -7.919269E+04 -8.046099E+03  3.990611E+03
        83   8 -1.418809E+05 -2.750712E+04  8.132773E+03 -8.408510E+04 -6.427588E+03  2.161636E+03
        83   9 -1.673210E+05 -4.004026E+04  3.756249E+03 -9.463085E+04 -4.795273E+03  2.953122E+02
        83  10 -2.730277E+05 -7.822891E+04 -1.827041E+04 -1.237811E+05 -1.367815E-08 -9.373462E-09
        83  11 -2.475699E+05 -6.562817E+04 -1.164443E+04 -1.132570E+05 -8.452478E-09 -8.774733E-09
        83  12 -2.173479E+05 -5.806750E+04 -5.740096E+03 -1.083865E+05 -2.768938E-09 -4.061783E-09
        83  13 -1.923437E+05 -4.910999E+04 -3.194768E+03 -1.014882E+05 -4.482693E-09 -2.776450E-09
        83  14 -1.947268E+05 -4.656773E+04 -1.755783E+03 -9.867159E+04 -9.421545E-09 -2.584851E-09
        83  15 -1.923347E+05 -4.905386E+04 -9.918995E+02 -1.015088E+05 -1.150484E-08  3.275575E-09
        83  16 -1.116529E+05 -1.999049E+04  1.188061E+04 -7.919266E+04  5.292967E-09  1.462082E-09
        83  17 -1.418809E+05 -2.750713E+04  8.132686E+03 -8.408509E+04 -1.137364E-08 -6.346425E-09
        83  18 -1.673210E+05 -4.004027E+04  3.756206E+03 -9.463084E+04 -8.970687E-09 -7.124436E-09
        83  19 -2.730277E+05 -7.822887E+04 -1.827033E+04 -1.237811E+05  1.387328E+03 -6.488877E+03
        83  20 -2.475699E+05 -6.562815E+04 -1.164439E+04 -1.132570E+05 -3.482455E+02 -4.703643E+03
        83  21 -2.173479E+05 -5.806749E+04 -5.740072E+03 -1.083865E+05 -2.097718E+03 -2.881079E+03
        83  22 -1.923437E+05 -4.910995E+04 -3.194675E+03 -1.014882E+05  4.716483E+03 -5.239829E+03
        83  23 -1.947267E+05 -4.656771E+04 -1.755743E+03 -9.867159E+04  3.039525E+03 -3.432693E+03
        83  24 -1.923347E+05 -4.905386E+04 -9.918913E+02 -1.015088E+05  1.348719E+03 -1.588217E+03
        83  25 -1.116528E+05 -1.999046E+04  1.188076E+04 -7.919269E+04  8.046099E+03 -3.990611E+03
        83  26 -1.418809E+05 -2.750712E+04  8.132773E+03 -8.408510E+04  6.427588E+03 -2.161636E+03
        83  27 -1.673210E+05 -4.004026E+04  3.756249E+03 -9.463085E+04  4.795273E+03 -2.953122E+02
        84   1 -1.988890E+05 -5.138287E+04 -1.916624E+03 -1.032817E+05  2.716371E+03  1.657676E+03
        84   2 -1.735092E+05 -3.886476E+04  3.491294E+03 -9.273073E+04  3.780218E+03 -4.404706E+02
        84   3 -1.432368E+05 -3.127914E+04  8.718056E+03 -8.782836E+04  4.845021E+03 -2.541050E+03
        84   4 -1.923123E+05 -4.905828E+04 -7.638793E+02 -1.014980E+05 -7.243300E+02  3.669814E+02
        84   5 -1.947592E+05 -4.659782E+04 -4.794120E+02 -9.867143E+04  3.355716E+02 -1.732689E+03
        84   6 -1.923142E+05 -4.906944E+04 -3.731964E+02 -1.014940E+05  1.396416E+03 -3.834792E+03
        84   7 -1.857355E+05 -4.673366E+04  3.889323E+02 -9.971433E+04 -4.165102E+03 -9.237392E+02
        84   8 -2.160088E+05 -5.433087E+04 -4.450113E+03 -1.046120E+05 -3.108965E+03 -3.024867E+03
        84   9 -2.413891E+05 -6.685952E+04 -9.464494E+03 -1.151586E+05 -2.051899E+03 -5.128425E+03
        84  10 -1.988891E+05 -5.138287E+04 -1.916643E+03 -1.032817E+05  1.361919E-08  2.885618E-09
        84  11 -1.735092E+05 -3.886476E+04  3.491267E+03 -9.273073E+04  4.639771E-09 -2.224780E-09
        84  12 -1.432368E+05 -3.127915E+04  8.718000E+03 -8.782835E+04 -5.742914E-09 -6.273541E-09
        84  13 -1.923123E+05 -4.905828E+04 -7.638805E+02 -1.014980E+05 -8.199469E-09  5.153422E-09
        84  14 -1.947592E+05 -4.659782E+04 -4.794179E+02 -9.867143E+04 -5.654872E-09  2.512624E-09
        84  15 -1.923142E+05 -4.906946E+04 -3.732277E+02 -1.014940E+05  2.617834E-09  7.045247E-11
        84  16 -1.857355E+05 -4.673366E+04  3.888980E+02 -9.971433E+04 -2.031236E-08 -9.871879E-09
        84  17 -2.160088E+05 -5.433089E+04 -4.450149E+03 -1.046120E+05 -2.279492E-09 -2.185186E-09
        84  18 -2.413891E+05 -6.685955E+04 -9.464551E+03 -1.151586E+05  1.182666E-08  4.263304E-09
        84  19 -1.988890E+05 -5.138287E+04 -1.916624E+03 -1.032817E+05 -2.716371E+03 -1.657676E+03
        84  20 -1.735092E+05 -3.886476E+04  3.491294E+03 -9.273073E+04 -3.780218E+03  4.404706E+02
        84  21 -1.432368E+05 -3.127914E+04  8.718056E+03 -8.782836E+04 -4.845021E+03  2.541050E+03
        84  22 -1.923123E+05 -4.905828E+04 -7.638793E+02 -1.014980E+05  7.243300E+02 -3.669814E+02
        84  23 -1.947592E+05 -4.659782E+04 -4.794120E+02 -9.867143E+04 -3.355716E+02  1.732689E+03
        84  24 -1.923142E+05 -4.906944E+04 -3.731964E+02 -1.014940E+05 -1.396416E+03  3.834792E+03
        84  25 -1.857355E+05 -4.673366E+04  3.889323E+02 -9.971433E+04  4.165102E+03  9.237392E+02
        84  26 -2.160088E+05 -5.433087E+04 -4.450113E+03 -1.046120E+05  3.108965E+03  3.024867E+03
        84  27 -2.413891E+05 -6.685952E+04 -9.464494E+03 -1.151586E+05  2.051899E+03  5.128425E+03
        85   1 -1.248174E+05 -2.457908E+04  1.231362E+04 -8.271937E+04  5.386159E+03 -3.794148E+03
        85   2 -9.944547E+04 -1.205507E+04  1.733668E+04 -7.217175E+04  6.433756E+03 -5.899924E+03
        85   3 -6.917927E+04 -4.460447E+03  2.219157E+04 -6.727067E+04  7.479844E+03 -8.001195E+03
        85   4 -1.923149E+05 -4.906984E+04 -3.710275E+02 -1.014935E+05  1.937560E+03 -5.087941E+03
        85   5 -1.947614E+05 -4.660222E+04 -4.673202E+02 -9.867124E+04  2.992073E+03 -7.191274E+03
        85   6 -1.923157E+05 -4.906537E+04 -7.372430E+02 -1.014958E+05  4.045073E+03 -9.290114E+03
        85   7 -2.598070E+05 -7.355995E+04 -1.305563E+04 -1.202656E+05 -1.510608E+03 -6.381572E+03
        85   8 -2.900678E+05 -8.114853E+04 -1.827162E+04 -1.251669E+05 -4.490446E+02 -8.482413E+03
        85   9 -3.154373E+05 -9.366931E+04 -2.366691E+04 -1.357149E+05  6.109996E+02 -1.057877E+04
        85  10 -1.248175E+05 -2.457910E+04  1.231353E+04 -8.271936E+04  5.483317E-09 -1.380126E-09
        85  11 -9.944553E+04 -1.205512E+04  1.733653E+04 -7.217172E+04 -1.064853E-08 -2.174567E-09
        85  12 -6.917935E+04 -4.460530E+03  2.219135E+04 -6.727063E+04 -7.656199E-09 -6.100810E-11
        85  13 -1.923149E+05 -4.906987E+04 -3.710832E+02 -1.014935E+05 -4.910556E-09 -1.526962E-09
        85  14 -1.947614E+05 -4.660228E+04 -4.674342E+02 -9.867122E+04 -9.144131E-09 -3.348002E-09
        85  15 -1.923157E+05 -4.906546E+04 -7.374359E+02 -1.014958E+05 -3.038527E-10 -1.721724E-09
        85  16 -2.598070E+05 -7.355999E+04 -1.305571E+04 -1.202656E+05 -7.064330E-09 -2.022479E-09
        85  17 -2.900678E+05 -8.114861E+04 -1.827176E+04 -1.251669E+05 -8.872616E-09 -3.750832E-09
        85  18 -3.154374E+05 -9.366943E+04 -2.366712E+04 -1.357149E+05  9.952158E-10 -3.339366E-09
        85  19 -1.248174E+05 -2.457908E+04  1.231362E+04 -8.271937E+04 -5.386159E+03  3.794148E+03
        85  20 -9.944547E+04 -1.205507E+04  1.733668E+04 -7.217175E+04 -6.433756E+03  5.899924E+03
        85  21 -6.917927E+04 -4.460447E+03  2.219157E+04 -6.727067E+04 -7.479844E+03  8.001195E+03
        85  22 -1.923149E+05 -4.906984E+04 -3.710275E+02 -1.014935E+05 -1.937560E+03  5.087941E+03
        85  23 -1.947614E+05 -4.660222E+04 -4.673202E+02 -9.867124E+04 -2.992073E+03  7.191274E+03
        85  24 -1.923157E+05 -4.906537E+04 -7.372430E+02 -1.014958E+05 -4.045073E+03  9.290114E+03
        85  25 -2.598070E+05 -7.355995E+04 -1.305563E+04 -1.202656E+05  1.510608E+03  6.381572E+03
        85  26 -2.900678E+05 -8.114853E+04 -1.827162E+04 -1.251669E+05  4.490446E+02  8.482413E+03
        85  27 -3.154373E+05 -9.366931E+04 -2.366691E+04 -1.357149E+05 -6.109996E+02  1.057877E+04
        86   1 -5.077608E+04  2.231165E+03  2.556750E+04 -6.218492E+04  8.106807E+03 -9.219960E+03
        86   2 -2.536680E+04  1.475717E+04  2.998242E+04 -5.164277E+04  9.671603E+03 -1.109789E+04
        86   3  4.838801E+03  2.228014E+04  3.381846E+04 -4.674664E+04  1.121574E+04 -1.291983E+04
        86   4 -1.923389E+05 -4.906175E+04 -9.551231E+02 -1.015051E+05  4.663929E+03 -1.051205E+04
        86   5 -1.947342E+05 -4.658143E+04 -1.687162E+03 -9.867148E+04  6.316403E+03 -1.235735E+04
        86   6 -1.923512E+05 -4.912171E+04 -3.067636E+03 -1.014843E+05  7.948170E+03 -1.414667E+04
        86   7 -3.338807E+05 -1.003528E+05 -2.747847E+04 -1.408169E+05  1.221891E+03 -1.180384E+04
        86   8 -3.640708E+05 -1.079171E+05 -3.335759E+04 -1.456880E+05  2.962198E+03 -1.361645E+04
        86   9 -3.894988E+05 -1.205193E+05 -3.995470E+04 -1.562054E+05  4.681743E+03 -1.537309E+04
        86  10 -5.077618E+04  2.231056E+03  2.556721E+04 -6.218486E+04  2.067709E-08  1.169373E-08
        86  11 -2.536694E+04  1.475701E+04  2.998201E+04 -5.164268E+04  2.593573E-09  4.566643E-09
        86  12  4.838621E+03  2.227993E+04  3.381791E+04 -4.674653E+04 -2.092441E-08 -5.452500E-09
        86  13 -1.923389E+05 -4.906188E+04 -9.553716E+02 -1.015051E+05  6.796590E-10  8.477303E-10
        86  14 -1.947343E+05 -4.658161E+04 -1.687523E+03 -9.867141E+04  6.643009E-09  4.294620E-09
        86  15 -1.923514E+05 -4.912194E+04 -3.068131E+03 -1.014842E+05  1.328075E-08  5.729652E-09
        86  16 -3.338807E+05 -1.003530E+05 -2.747874E+04 -1.408169E+05 -1.810049E-08 -1.026208E-08
        86  17 -3.640709E+05 -1.079173E+05 -3.335796E+04 -1.456880E+05  9.167475E-09  3.554548E-09
        86  18 -3.894989E+05 -1.205196E+05 -3.995519E+04 -1.562053E+05  3.721558E-08  1.814807E-08
        86  19 -5.077608E+04  2.231165E+03  2.556750E+04 -6.218492E+04 -8.106807E+03  9.219960E+03
        86  20 -2.536680E+04  1.475717E+04  2.998242E+04 -5.164277E+04 -9.671603E+03  1.109789E+04
        86  21  4.838801E+03  2.228014E+04  3.381846E+04 -4.674664E+04 -1.121574E+04  1.291983E+04
        86  22 -1.923389E+05 -4.906175E+04 -9.551231E+02 -1.015051E+05 -4.663929E+03  1.051205E+04
        86  23 -1.947342E+05 -4.658143E+04 -1.687162E+03 -9.867148E+04 -6.316403E+03  1.235735E+04
        86  24 -1.923512E+05 -4.912171E+04 -3.067636E+03 -1.014843E+05 -7.948170E+03  1.414667E+04
        86  25 -3.338807E+05 -1.003528E+05 -2.747847E+04 -1.408169E+05 -1.221891E+03  1.180384E+04
        86  26 -3.640708E+05 -1.079171E+05 -3.335759E+04 -1.456880E+05 -2.962198E+03  1.361645E+04
        86  27 -3.894988E+05 -1.205193E+05 -3.995470E+04 -1.562054E+05 -4.681743E+03  1.537309E+04
        87   1  2.330453E+04  2.884796E+04  3.642523E+04 -4.196392E+04  1.236895E+04 -1.392124E+04
        87   2  4.843277E+04  4.160991E+04  3.860194E+04 -3.058533E+04  1.567285E+04 -1.472573E+04
        87   3  7.747635E+04  4.777473E+04  3.836679E+04 -2.446124E+04  1.871022E+04 -1.481872E+04
        87   4 -1.925271E+05 -4.905327E+04 -4.079055E+03 -1.015734E+05  8.989668E+03 -1.519021E+04
        87   5 -1.945553E+05 -4.691531E+04 -7.447951E+03 -9.846961E+04  1.341117E+04 -1.557555E+04
        87   6 -1.928913E+05 -5.159701E+04 -1.411526E+04 -1.006211E+05  1.756595E+04 -1.524929E+04
        87   7 -4.083122E+05 -1.269511E+05 -4.458571E+04 -1.611643E+05  5.611614E+03 -1.645871E+04
        87   8 -4.374830E+05 -1.354355E+05 -5.350057E+04 -1.663295E+05  1.115043E+04 -1.642501E+04
        87   9 -4.631830E+05 -1.509619E+05 -6.660055E+04 -1.767501E+05  1.642222E+04 -1.567965E+04
        87  10  2.330432E+04  2.884771E+04  3.642458E+04 -4.196378E+04  3.455688E-09  4.854982E-11
        87  11  4.843245E+04  4.160961E+04  3.860107E+04 -3.058515E+04  8.363813E-09 -2.505708E-09
        87  12  7.747592E+04  4.777440E+04  3.836572E+04 -2.446101E+04  9.394776E-09  3.647671E-09
        87  13 -1.925273E+05 -4.905354E+04 -4.079640E+03 -1.015733E+05  8.664278E-09  2.873781E-09
        87  14 -1.945556E+05 -4.691562E+04 -7.448745E+03 -9.846945E+04 -3.035364E-09 -4.903215E-09
        87  15 -1.928917E+05 -5.159735E+04 -1.411627E+04 -1.006209E+05 -1.015519E-08 -1.063342E-08
        87  16 -4.083123E+05 -1.269514E+05 -4.458628E+04 -1.611642E+05  1.041280E-08  9.648040E-09
        87  17 -4.374832E+05 -1.354358E+05 -5.350131E+04 -1.663294E+05 -1.141877E-08  2.834046E-09
        87  18 -4.631834E+05 -1.509622E+05 -6.660152E+04 -1.767499E+05 -2.663503E-08 -6.746978E-09
        87  19  2.330453E+04  2.884796E+04  3.642523E+04 -4.196392E+04 -1.236895E+04  1.392124E+04
        87  20  4.843277E+04  4.160991E+04  3.860194E+04 -3.058533E+04 -1.567285E+04  1.472573E+04
        87  21  7.747635E+04  4.777473E+04  3.836679E+04 -2.446124E+04 -1.871022E+04  1.481872E+04
        87  22 -1.925271E+05 -4.905327E+04 -4.079055E+03 -1.015734E+05 -8.989668E+03  1.519021E+04
        87  23 -1.945553E+05 -4.691531E+04 -7.447951E+03 -9.846961E+04 -1.341117E+04  1.557555E+04
        87  24 -1.928913E+05 -5.159701E+04 -1.411526E+04 -1.006211E+05 -1.756595E+04  1.524929E+04
        87  25 -4.083122E+05 -1.269511E+05 -4.458571E+04 -1.611643E+05 -5.611614E+03  1.645871E+04
        87  26 -4.374830E+05 -1.354355E+05 -5.350057E+04 -1.663295E+05 -1.115043E+04  1.642501E+04
        87  27 -4.631830E+05 -1.509619E+05 -6.660055E+04 -1.767501E+05 -1.642222E+04  1.567965E+04
        88   1  9.798228E+04  5.197118E+04  3.782847E+04 -2.519367E+04  2.267344E+04 -1.452441E+04
        88   2  1.114710E+05  7.040590E+04  3.201448E+04  8.140128E+03  2.561556E+04 -1.008577E+04
        88   3  1.150783E+05  4.773495E+04  1.312376E+04  4.614880E+04  2.512798E+04  3.483158E+03
        88   4 -1.951978E+05 -5.031448E+04 -1.862512E+04 -1.019968E+05  2.008194E+04 -1.549840E+04
        88   5 -1.930053E+05 -5.788129E+04 -3.517180E+04 -9.324121E+04  3.738156E+04 -5.668418E+03
        88   6 -2.035471E+05 -1.094121E+05 -7.617708E+04 -7.981009E+04  5.125008E+04  1.329348E+04
        88   7 -4.882885E+05 -1.525941E+05 -7.508228E+04 -1.787670E+05  1.749175E+04 -1.647194E+04
        88   8 -4.973814E+05 -1.861503E+05 -1.023618E+05 -1.945723E+05  4.914120E+04 -1.254251E+03
        88   9 -5.220598E+05 -2.665240E+05 -1.654816E+05 -2.056994E+05  7.735689E+04  2.309406E+04
        88  10  9.798167E+04  5.197082E+04  3.782711E+04 -2.519340E+04 -2.694755E-08 -7.839546E-09
        88  11  1.114702E+05  7.040561E+04  3.201306E+04  8.140336E+03 -8.847229E-09  3.654135E-12
        88  12  1.150776E+05  4.773477E+04  1.312255E+04  4.614873E+04  7.968695E-09  4.248212E-09
        88  13 -1.951983E+05 -5.031485E+04 -1.862633E+04 -1.019966E+05 -1.080603E-08 -1.024130E-08
        88  14 -1.930069E+05 -5.788170E+04 -3.517449E+04 -9.324104E+04 -2.188118E-09 -3.035878E-09
        88  15 -2.035500E+05 -1.094130E+05 -7.618235E+04 -7.981064E+04 -1.591152E-09 -7.533939E-13
        88  16 -4.882889E+05 -1.525945E+05 -7.508337E+04 -1.787668E+05  1.701567E-08  5.641548E-09
        88  17 -4.973840E+05 -1.861509E+05 -1.023663E+05 -1.945723E+05  5.375970E-09 -5.265779E-11
        88  18 -5.220664E+05 -2.665262E+05 -1.654939E+05 -2.057009E+05 -9.667728E-09 -4.722514E-09
        88  19  9.798228E+04  5.197118E+04  3.782847E+04 -2.519367E+04 -2.267344E+04  1.452441E+04
        88  20  1.114710E+05  7.040590E+04  3.201448E+04  8.140128E+03 -2.561556E+04  1.008577E+04
        88  21  1.150783E+05  4.773495E+04  1.312376E+04  4.614880E+04 -2.512798E+04 -3.483158E+03
        88  22 -1.951978E+05 -5.031448E+04 -1.862512E+04 -1.019968E+05 -2.008194E+04  1.549840E+04
        88  23 -1.930053E+05 -5.788129E+04 -3.517180E+04 -9.324121E+04 -3.738156E+04  5.668418E+03
        88  24 -2.035471E+05 -1.094121E+05 -7.617708E+04 -7.981009E+04 -5.125008E+04 -1.329348E+04
        88  25 -4.882885E+05 -1.525941E+05 -7.508228E+04 -1.787670E+05 -1.749175E+04  1.647194E+04
        88  26 -4.973814E+05 -1.861503E+05 -1.023618E+05 -1.945723E+05 -4.914120E+04  1.254251E+03
        88  27 -5.220598E+05 -2.665240E+05 -1.654816E+05 -2.056994E+05 -7.735689E+04 -2.309406E+04
        89   1  8.451897E+05  1.298716E+05  1.156636E+05  1.794814E+04  3.817952E+04 -9.446030E+03
        89   2  8.101924E+05  1.418186E+05  9.387488E+04  2.984392E+04  1.689948E+04 -3.282319E+04
        89   3  7.748504E+05  1.412355E+05  8.281331E+04  4.634789E+04 -4.389465E+03 -4.192395E+04
        89   4  1.383278E+05 -4.380398E+04 -4.657209E+04  4.714530E+04 -3.286841E+04 -9.511602E+03
        89   5  1.413945E+05 -1.529418E+04 -2.345108E+04  4.482016E+04 -2.087894E+04 -3.286461E+04
        89   6  1.383397E+05 -5.095958E+03 -1.269489E+04  4.710292E+04 -8.900020E+03 -4.193317E+04
        89   7 -5.680593E+05 -2.175084E+05 -2.088213E+05  7.630887E+04 -1.038362E+05 -9.583892E+03
        89   8 -5.269624E+05 -1.724296E+05 -1.407877E+05  5.977968E+04 -5.861790E+04 -3.290788E+04
        89   9 -4.977648E+05 -1.514465E+05 -1.082110E+05  4.785703E+04 -1.340614E+04 -4.194241E+04
        89  10  8.451881E+05  1.298711E+05  1.156607E+05  1.794843E+04  4.760073E-09 -1.675404E-10
        89  11  8.101918E+05  1.418173E+05  9.387232E+04  2.984437E+04  3.778466E-09 -1.479811E-09
        89  12  7.748499E+05  1.412336E+05  8.280997E+04  4.634774E+04 -2.861834E-10 -9.063597E-10
        89  13  1.383266E+05 -4.380437E+04 -4.657429E+04  4.714505E+04 -2.112871E-09  4.559954E-10
        89  14  1.413938E+05 -1.529546E+04 -2.345393E+04  4.481961E+04  1.074037E-09 -1.788188E-09
        89  15  1.383391E+05 -5.097867E+03 -1.269834E+04  4.710262E+04  2.072899E-09 -1.672410E-10
        89  16 -5.680709E+05 -2.175114E+05 -2.088418E+05  7.630807E+04 -1.909236E-09 -3.030855E-10
        89  17 -5.269664E+05 -1.724317E+05 -1.407962E+05  5.977813E+04 -5.481588E-10 -4.867119E-09
        89  18 -4.977654E+05 -1.514485E+05 -1.082146E+05  4.785658E+04  8.582985E-10 -4.311613E-09
        89  19  8.451897E+05  1.298716E+05  1.156636E+05  1.794814E+04 -3.817952E+04  9.446030E+03
        89  20  8.101924E+05  1.418186E+05  9.387488E+04  2.984392E+04 -1.689948E+04  3.282319E+04
        89  21  7.748504E+05  1.412355E+05  8.281331E+04  4.634789E+04  4.389465E+03  4.192395E+04
        89  22  1.383278E+05 -4.380398E+04 -4.657209E+04  4.714530E+04  3.286841E+04  9.511602E+03
        89  23  1.413945E+05 -1.529418E+04 -2.345108E+04  4.482016E+04  2.087894E+04  3.286461E+04
        89  24  1.383397E+05 -5.095958E+03 -1.269489E+04  4.710292E+04  8.900020E+03  4.193317E+04
        89  25 -5.680593E+05 -2.175084E+05 -2.088213E+05  7.630887E+04  1.038362E+05  9.583892E+03
        89  26 -5.269624E+05 -1.724296E+05 -1.407877E+05  5.977968E+04  5.861790E+04  3.290788E+04
        89  27 -4.977648E+05 -1.514465E+05 -1.082110E+05  4.785703E+04  1.340614E+04  4.194241E+04
        90   1  7.533709E+05  1.367748E+05  7.961282E+04  4.570620E+04 -3.602235E+03 -4.241806E+04
        90   2  7.183459E+05  1.303424E+05  7.416637E+04  4.401404E+04 -5.395894E+03 -4.305121E+04
        90   3  6.833149E+05  1.229375E+05  6.964636E+04  4.798372E+04 -7.192039E+03 -4.181089E+04
        90   4  1.395351E+05 -3.740136E+03 -9.480858E+03  4.733897E+04 -7.250083E+03 -4.242647E+04
        90   5  1.399238E+05 -1.138595E+03 -5.126064E+03  4.450561E+04 -4.679760E+03 -4.305442E+04
        90   6  1.395482E+05 -2.672844E+02 -2.874166E+03  4.733443E+04 -2.111945E+03 -4.180798E+04
        90   7 -4.739210E+05 -1.442723E+05 -9.858066E+04  4.896995E+04 -1.089448E+04 -4.243491E+04
        90   8 -4.381585E+05 -1.326342E+05 -8.442211E+04  4.499658E+04 -3.964262E+03 -4.305763E+04
        90   9 -4.039170E+05 -1.234847E+05 -7.539701E+04  4.668563E+04  2.963911E+03 -4.180507E+04
        90  10  7.533704E+05  1.367728E+05  7.960941E+04  4.570607E+04 -2.731902E-10 -1.819779E-09
        90  11  7.183454E+05  1.303404E+05  7.416284E+04  4.401386E+04  5.159983E-09  1.749973E-10
        90  12  6.833144E+05  1.229356E+05  6.964298E+04  4.798348E+04  3.119477E-09 -9.679201E-11
        90  13  1.395345E+05 -3.742083E+03 -9.484340E+03  4.733873E+04 -7.206002E-12 -1.569998E-09
        90  14  1.399233E+05 -1.140592E+03 -5.129589E+03  4.450544E+04  3.229571E-09 -4.445939E-10
        90  15  1.395478E+05 -2.691627E+02 -2.877459E+03  4.733436E+04 -2.174771E-10 -3.057506E-09
        90  16 -4.739216E+05 -1.442743E+05 -9.858427E+04  4.896958E+04  1.355093E-09 -6.952845E-10
        90  17 -4.381591E+05 -1.326362E+05 -8.442563E+04  4.499644E+04 -1.534968E-09  2.718245E-10
        90  18 -4.039175E+05 -1.234866E+05 -7.540032E+04  4.668573E+04 -4.651254E-09 -1.935123E-09
        90  19  7.533709E+05  1.367748E+05  7.961282E+04  4.570620E+04  3.602235E+03  4.241806E+04
        90  20  7.183459E+05  1.303424E+05  7.416637E+04  4.401404E+04  5.395894E+03  4.305121E+04
        90  21  6.833149E+05  1.229375E+05  6.964636E+04  4.798372E+04  7.192039E+03  4.181089E+04
        90  22  1.395351E+05 -3.740136E+03 -9.480858E+03  4.733897E+04  7.250083E+03  4.242647E+04
        90  23  1.399238E+05 -1.138595E+03 -5.126064E+03  4.450561E+04  4.679760E+03  4.305442E+04
        90  24  1.395482E+05 -2.672844E+02 -2.874166E+03  4.733443E+04  2.111945E+03  4.180798E+04
        90  25 -4.739210E+05 -1.442723E+05 -9.858066E+04  4.896995E+04  1.089448E+04  4.243491E+04
        90  26 -4.381585E+05 -1.326342E+05 -8.442211E+04  4.499658E+04  3.964262E+03  4.305763E+04
        90  27 -4.039170E+05 -1.234847E+05 -7.539701E+04  4.668563E+04 -2.963911E+03  4.180507E+04
        91   1  6.616678E+05  1.180069E+05  6.695819E+04  4.787711E+04 -6.880533E+03 -4.045903E+04
        91   2  6.266849E+05  1.101697E+05  6.271882E+04  4.501322E+04 -6.851239E+03 -3.810836E+04
        91   3  5.916836E+05  1.022931E+05  5.844910E+04  4.794434E+04 -6.822946E+03 -3.551224E+04
        91   4  1.396960E+05 -1.629348E+02 -2.166568E+03  4.736427E+04 -1.688340E+03 -4.045549E+04
        91   5  1.397612E+05  4.229332E+01 -1.213898E+03  4.446643E+04 -1.087701E+03 -3.810327E+04
        91   6  1.397075E+05  1.088753E+02 -6.884335E+02  4.736387E+04 -4.880622E+02 -3.550549E+04
        91   7 -3.819979E+05 -1.183443E+05 -7.129326E+04  4.685178E+04  3.499696E+03 -4.045196E+04
        91   8 -3.469202E+05 -1.100951E+05 -6.514808E+04  4.392000E+04  4.671534E+03 -3.809818E+04
        91   9 -3.120596E+05 -1.020839E+05 -5.982711E+04  4.678376E+04  5.842433E+03 -3.549875E+04
        91  10  6.616673E+05  1.180051E+05  6.695502E+04  4.787689E+04  1.359432E-09  8.979287E-10
        91  11  6.266845E+05  1.101681E+05  6.271600E+04  4.501301E+04  3.248016E-09  9.692657E-10
        91  12  5.916832E+05  1.022917E+05  5.844664E+04  4.794415E+04  4.164050E-09 -1.046339E-09
        91  13  1.396955E+05 -1.646931E+02 -2.169649E+03  4.736422E+04 -1.171764E-09 -3.442073E-09
        91  14  1.397608E+05  4.073386E+01 -1.216628E+03  4.446640E+04 -1.078041E-09  7.659030E-10
        91  15  1.397072E+05  1.075215E+02 -6.908031E+02  4.736386E+04 -9.392476E-10  2.722422E-09
        91  16 -3.819983E+05 -1.183461E+05 -7.129636E+04  4.685190E+04  7.063371E-10 -1.662741E-09
        91  17 -3.469206E+05 -1.100966E+05 -6.515085E+04  4.392015E+04 -2.021707E-09  1.208206E-09
        91  18 -3.120600E+05 -1.020852E+05 -5.982954E+04  4.678393E+04 -4.635968E-09  8.988419E-10
        91  19  6.616678E+05  1.180069E+05  6.695819E+04  4.787711E+04  6.880533E+03  4.045903E+04
        91  20  6.266849E+05  1.101697E+05  6.271882E+04  4.501322E+04  6.851239E+03  3.810836E+04
        91  21  5.916836E+05  1.022931E+05  5.844910E+04  4.794434E+04  6.822946E+03  3.551224E+04
        91  22  1.396960E+05 -1.629348E+02 -2.166568E+03  4.736427E+04  1.688340E+03  4.045549E+04
        91  23  1.397612E+05  4.229332E+01 -1.213898E+03  4.446643E+04  1.087701E+03  3.810327E+04
        91  24  1.397075E+05  1.088753E+02 -6.884335E+02  4.736387E+04  4.880622E+02  3.550549E+04
        91  25 -3.819979E+05 -1.183443E+05 -7.129326E+04  4.685178E+04 -3.499696E+03  4.045196E+04
        91  26 -3.469202E+05 -1.100951E+05 -6.514808E+04  4.392000E+04 -4.671534E+03  3.809818E+04
        91  27 -3.120596E+05 -1.020839E+05 -5.982711E+04  4.678376E+04 -5.842433E+03  3.549875E+04
        92   1  5.700391E+05  9.736916E+04  5.562037E+04  4.791008E+04 -6.731570E+03 -3.391895E+04
        92   2  5.350745E+05  8.946650E+04  5.126461E+04  4.496899E+04 -6.665781E+03 -3.117799E+04
        92   3  5.000953E+05  8.158462E+04  4.686743E+04  4.783697E+04 -6.600626E+03 -2.840524E+04
        92   4  1.397310E+05  1.152734E+02 -5.188475E+02  4.736702E+04 -3.827874E+02 -3.391172E+04
        92   5  1.397504E+05  1.219087E+02 -2.889976E+02  4.446237E+04 -2.432627E+02 -3.116994E+04
        92   6  1.397405E+05  1.363867E+02 -1.520666E+02  4.736700E+04 -1.043702E+02 -2.839637E+04
        92   7 -2.903876E+05 -9.714634E+04 -5.665904E+04  4.682428E+04  5.961808E+03 -3.390450E+04
        92   8 -2.554138E+05 -8.922920E+04 -5.184339E+04  4.395602E+04  6.175364E+03 -3.116190E+04
        92   9 -2.204814E+05 -8.131726E+04 -4.717219E+04  4.689726E+04  6.388298E+03 -2.838751E+04
        92  10  5.700387E+05  9.736791E+04  5.561813E+04  4.790990E+04  3.360107E-09 -5.903744E-10
        92  11  5.350742E+05  8.946545E+04  5.126270E+04  4.496882E+04  5.515694E-09  3.406232E-09
        92  12  5.000951E+05  8.158374E+04  4.686583E+04  4.783682E+04  2.985992E-09  2.003563E-09
        92  13  1.397307E+05  1.140383E+02 -5.210090E+02  4.736701E+04 -2.152590E-09  1.666848E-10
        92  14  1.397502E+05  1.208653E+02 -2.908236E+02  4.446236E+04  2.250323E-09  4.111010E-09
        92  15  1.397403E+05  1.355208E+02 -1.535820E+02  4.736700E+04 -1.689565E-09  4.521616E-10
        92  16 -2.903879E+05 -9.714758E+04 -5.666127E+04  4.682445E+04 -7.364447E-09  5.672490E-10
        92  17 -2.554141E+05 -8.923026E+04 -5.184529E+04  4.395618E+04 -3.049741E-09  6.490396E-10
        92  18 -2.204817E+05 -8.131813E+04 -4.717379E+04  4.689740E+04 -3.107528E-09  4.304670E-10
        92  19  5.700391E+05  9.736916E+04  5.562037E+04  4.791008E+04  6.731570E+03  3.391895E+04
        92  20  5.350745E+05  8.946650E+04  5.126461E+04  4.496899E+04  6.665781E+03  3.117799E+04
        92  21  5.000953E+05  8.158462E+04  4.686743E+04  4.783697E+04  6.600626E+03  2.840524E+04
        92  22  1.397310E+05  1.152734E+02 -5.188475E+02  4.736702E+04  3.827874E+02  3.391172E+04
        92  23  1.397504E+05  1.219087E+02 -2.889976E+02  4.446237E+04  2.432627E+02  3.116994E+04
        92  24  1.397405E+05  1.363867E+02 -1.520666E+02  4.736700E+04  1.043702E+02  2.839637E+04
        92  25 -2.903876E+05 -9.714634E+04 -5.665904E+04  4.682428E+04 -5.961808E+03  3.390450E+04
        92  26 -2.554138E+05 -8.922920E+04 -5.184339E+04  4.395602E+04 -6.175364E+03  3.116190E+04
        92  27 -2.204814E+05 -8.131726E+04 -4.717219E+04  4.689726E+04 -6.388298E+03  2.838751E+04
        93   1  4.784585E+05  7.667157E+04  4.396955E+04  4.781313E+04 -6.580793E+03 -2.678091E+04
        93   2  4.435083E+05  6.877658E+04  3.953882E+04  4.486838E+04 -6.577389E+03 -2.399010E+04
        93   3  4.085457E+05  6.090441E+04  3.510571E+04  4.773551E+04 -6.574441E+03 -2.119615E+04
        93   4  1.397466E+05  1.385284E+02 -1.044489E+02  4.736762E+04 -8.341895E+01 -2.677166E+04
        93   5  1.397575E+05  1.329714E+02 -2.989300E+01  4.446159E+04 -7.281793E+01 -2.398029E+04
        93   6  1.397539E+05  1.491584E+02  3.732765E+01  4.736761E+04 -6.267328E+01 -2.118578E+04
        93   7 -1.988478E+05 -7.639929E+04 -4.417896E+04  4.692231E+04  6.410582E+03 -2.676242E+04
        93   8 -1.638988E+05 -6.851447E+04 -3.959900E+04  4.405498E+04  6.428724E+03 -2.397049E+04
        93   9 -1.289639E+05 -6.060910E+04 -3.503133E+04  4.699984E+04  6.446411E+03 -2.117542E+04
        93  10  4.784582E+05  7.667079E+04  4.396812E+04  4.781298E+04  1.236222E-08 -1.259208E-09
        93  11  4.435081E+05  6.877595E+04  3.953766E+04  4.486825E+04  4.125076E-08 -4.006220E-09
        93  12  4.085455E+05  6.090392E+04  3.510478E+04  4.773540E+04  6.740365E-08 -6.538375E-09
        93  13  1.397464E+05  1.377587E+02 -1.057959E+02  4.736762E+04 -9.755735E-10  5.351613E-09
        93  14  1.397574E+05  1.323539E+02 -3.097372E+01  4.446159E+04  1.139350E-09  8.087263E-09
        93  15  1.397538E+05  1.486764E+02  3.648413E+01  4.736761E+04 -4.275755E-10  1.124586E-08
        93  16 -1.988480E+05 -7.640007E+04 -4.418038E+04  4.692245E+04 -1.044358E-08  1.404948E-09
        93  17 -1.638990E+05 -6.851510E+04 -3.960015E+04  4.405510E+04 -3.831653E-08 -4.703724E-09
        93  18 -1.289641E+05 -6.060959E+04 -3.503225E+04  4.699995E+04 -6.671972E-08 -5.754627E-09
        93  19  4.784585E+05  7.667157E+04  4.396955E+04  4.781313E+04  6.580793E+03  2.678091E+04
        93  20  4.435083E+05  6.877658E+04  3.953882E+04  4.486838E+04  6.577389E+03  2.399010E+04
        93  21  4.085457E+05  6.090441E+04  3.510571E+04  4.773551E+04  6.574441E+03  2.119615E+04
        93  22  1.397466E+05  1.385284E+02 -1.044489E+02  4.736762E+04  8.341895E+01  2.677166E+04
        93  23  1.397575E+05  1.329714E+02 -2.989300E+01  4.446159E+04  7.281793E+01  2.398029E+04
        93  24  1.397539E+05  1.491584E+02  3.732765E+01  4.736761E+04  6.267328E+01  2.118578E+04
        93  25 -1.988478E+05 -7.639929E+04 -4.417896E+04  4.692231E+04 -6.410582E+03  2.676242E+04
        93  26 -1.638988E+05 -6.851447E+04 -3.959900E+04  4.405498E+04 -6.428724E+03  2.397049E+04
        93  27 -1.289639E+05 -6.060910E+04 -3.503133E+04  4.699984E+04 -6.446411E+03  2.117542E+04
        94   1  3.869193E+05  5.599509E+04  3.220295E+04  4.771231E+04 -6.586004E+03 -1.956886E+04
        94   2  3.519748E+05  4.810982E+04  2.779679E+04  4.475636E+04 -6.660991E+03 -1.677620E+04
        94   3  3.170294E+05  4.026731E+04  2.344305E+04  4.760958E+04 -6.736280E+03 -1.398889E+04
        94   4  1.397592E+05  1.519191E+02  7.339180E+01  4.736700E+04 -7.492454E+01 -1.955822E+04
        94   5  1.397618E+05  1.530369E+02  1.670749E+02  4.446233E+04 -1.625382E+02 -1.676520E+04
        94   6  1.397643E+05  1.991358E+02  3.218500E+02  4.736693E+04 -2.504582E+02 -1.397753E+04
        94   7 -1.073382E+05 -5.569377E+04 -3.205636E+04  4.702181E+04  6.433689E+03 -1.954759E+04
        94   8 -7.240510E+04 -4.780560E+04 -2.746274E+04  4.416838E+04  6.333801E+03 -1.675420E+04
        94   9 -3.746853E+04 -3.987033E+04 -2.279938E+04  4.712434E+04  6.233601E+03 -1.396617E+04
        94  10  3.869191E+05  5.599466E+04  3.220215E+04  4.771221E+04 -7.029963E-08 -3.082561E-09
        94  11  3.519746E+05  4.810950E+04  2.779617E+04  4.475627E+04 -3.955255E-08 -9.046563E-10
        94  12  3.170293E+05  4.026709E+04  2.344260E+04  4.760950E+04 -5.779653E-09 -5.482242E-10
        94  13  1.397591E+05  1.515083E+02  7.267290E+01  4.736700E+04  3.264002E-09  1.319442E-08
        94  14  1.397617E+05  1.527351E+02  1.665467E+02  4.446232E+04  5.394762E-09  8.309859E-09
        94  15  1.397643E+05  1.989259E+02  3.214827E+02  4.736693E+04  8.874489E-10  2.143469E-09
        94  16 -1.073383E+05 -5.569420E+04 -3.205716E+04  4.702192E+04  7.248116E-08 -2.159239E-09
        94  17 -7.240521E+04 -4.780591E+04 -2.746335E+04  4.416847E+04  4.543928E-08 -7.576316E-09
        94  18 -3.746862E+04 -3.987055E+04 -2.279982E+04  4.712441E+04  8.054043E-09 -4.496708E-10
        94  19  3.869193E+05  5.599509E+04  3.220295E+04  4.771231E+04  6.586004E+03  1.956886E+04
        94  20  3.519748E+05  4.810982E+04  2.779679E+04  4.475636E+04  6.660991E+03  1.677620E+04
        94  21  3.170294E+05  4.026731E+04  2.344305E+04  4.760958E+04  6.736280E+03  1.398889E+04
        94  22  1.397592E+05  1.519191E+02  7.339180E+01  4.736700E+04  7.492454E+01  1.955822E+04
        94  23  1.397618E+05  1.530369E+02  1.670749E+02  4.446233E+04  1.625382E+02  1.676520E+04
        94  24  1.397643E+05  1.991358E+02  3.218500E+02  4.736693E+04  2.504582E+02  1.397753E+04
        94  25 -1.073382E+05 -5.569377E+04 -3.205636E+04  4.702181E+04 -6.433689E+03  1.954759E+04
        94  26 -7.240510E+04 -4.780560E+04 -2.746274E+04  4.416838E+04 -6.333801E+03  1.675420E+04
        94  27 -3.746853E+04 -3.987033E+04 -2.279938E+04  4.712434E+04 -6.233601E+03  1.396617E+04
        95   1  2.954255E+05  3.537116E+04  2.060781E+04  4.759980E+04 -6.799594E+03 -1.236702E+04
        95   2  2.604478E+05  2.760080E+04  1.641295E+04  4.447448E+04 -7.094948E+03 -9.605555E+03
        95   3  2.255532E+05  2.010261E+04  1.247063E+04  4.715343E+04 -7.390387E+03 -6.887417E+03
        95   4  1.397876E+05  2.160951E+02  4.329974E+02  4.736590E+04 -3.167634E+02 -1.235549E+04
        95   5  1.397396E+05  3.389210E+02  7.815757E+02  4.446326E+04 -7.131725E+02 -9.593995E+03
        95   6  1.397905E+05  7.513630E+02  1.452588E+03  4.736494E+04 -1.109679E+03 -6.875834E+03
        95   7 -1.582537E+04 -3.493996E+04 -1.974179E+04  4.713204E+04  6.164521E+03 -1.234396E+04
        95   8  1.904647E+04 -2.692354E+04 -1.484972E+04  4.445204E+04  5.667423E+03 -9.582433E+03
        95   9  5.403539E+04 -1.860016E+04 -9.565336E+03  4.757642E+04  5.170204E+03 -6.864245E+03
        95  10  2.954254E+05  3.537098E+04  2.060744E+04  4.759973E+04 -2.811893E-09  1.946135E-09
        95  11  2.604477E+05  2.760068E+04  1.641268E+04  4.447442E+04 -3.147911E-09 -1.889917E-09
        95  12  2.255531E+05  2.010254E+04  1.247043E+04  4.715339E+04 -3.861418E-10  3.027564E-09
        95  13  1.397876E+05  2.159312E+02  4.327103E+02  4.736590E+04 -5.412774E-12  7.029815E-10
        95  14  1.397396E+05  3.388220E+02  7.814018E+02  4.446325E+04 -3.229552E-09  5.913079E-10
        95  15  1.397905E+05  7.513119E+02  1.452497E+03  4.736494E+04 -1.970947E-09 -1.954980E-09
        95  16 -1.582545E+04 -3.494013E+04 -1.974215E+04  4.713211E+04  6.022451E-09  5.674349E-10
        95  17  1.904641E+04 -2.692365E+04 -1.484996E+04  4.445208E+04  4.419603E-09 -1.218371E-09
        95  18  5.403535E+04 -1.860022E+04 -9.565475E+03  4.757645E+04 -5.490141E-10 -5.598154E-09
        95  19  2.954255E+05  3.537116E+04  2.060781E+04  4.759980E+04  6.799594E+03  1.236702E+04
        95  20  2.604478E+05  2.760080E+04  1.641295E+04  4.447448E+04  7.094948E+03  9.605555E+03
        95  21  2.255532E+05  2.010261E+04  1.247063E+04  4.715343E+04  7.390387E+03  6.887417E+03
        95  22  1.397876E+05  2.160951E+02  4.329974E+02  4.736590E+04  3.167634E+02  1.235549E+04
        95  23  1.397396E+05  3.389210E+02  7.815757E+02  4.446326E+04  7.131725E+02  9.593995E+03
        95  24  1.397905E+05  7.513630E+02  1.452588E+03  4.736494E+04  1.109679E+03  6.875834E+03
        95  25 -1.582537E+04 -3.493996E+04 -1.974179E+04  4.713204E+04 -6.164521E+03  1.234396E+04
        95  26  1.904647E+04 -2.692354E+04 -1.484972E+04  4.445204E+04 -5.667423E+03  9.582433E+03
        95  27  5.403539E+04 -1.860016E+04 -9.565336E+03  4.757642E+04 -5.170204E+03  6.864245E+03
        96   1  2.040933E+05  1.538047E+04  9.948974E+03  4.725271E+04 -7.625800E+03 -5.308558E+03
        96   2  1.687721E+05  8.976709E+03  6.710039E+03  4.212784E+04 -8.697457E+03 -2.786818E+03
        96   3  1.342411E+05  5.277519E+03  4.836722E+03  4.277988E+04 -9.768545E+03 -5.947785E+02
        96   4  1.399742E+05  9.594578E+02  1.946666E+03  4.735949E+04 -1.365323E+03 -5.296932E+03
        96   5  1.395129E+05  2.514017E+03  3.597792E+03  4.446564E+04 -3.204781E+03 -2.776604E+03
        96   6  1.399745E+05  6.906599E+03  7.147661E+03  4.734862E+04 -5.043732E+03 -5.859936E+02
        96   7  7.585933E+04 -1.346170E+04 -6.055502E+03  4.746625E+04  4.894541E+03 -5.285304E+03
        96   8  1.102548E+05 -3.948669E+03  4.856704E+02  4.680333E+04  2.287651E+03 -2.766349E+03
        96   9  1.457080E+05  8.535765E+03  9.458692E+03  5.191740E+04 -3.188729E+02 -5.771391E+02
        96  10  2.040933E+05  1.538042E+04  9.948812E+03  4.725268E+04 -3.380648E-09  2.432015E-09
        96  11  1.687720E+05  8.976681E+03  6.709883E+03  4.212782E+04 -2.779687E-10 -1.500786E-10
        96  12  1.342410E+05  5.277493E+03  4.836542E+03  4.277988E+04  1.474968E-09 -5.713809E-10
        96  13  1.399742E+05  9.594272E+02  1.946610E+03  4.735948E+04 -9.781561E-10  4.410936E-09
        96  14  1.395129E+05  2.514006E+03  3.597758E+03  4.446564E+04 -2.249578E-09 -3.109247E-09
        96  15  1.399745E+05  6.906591E+03  7.147613E+03  4.734862E+04  1.080690E-09  2.867283E-09
        96  16  7.585930E+04 -1.346173E+04 -6.055600E+03  4.746627E+04  2.872440E-09 -2.464123E-10
        96  17  1.102548E+05 -3.948679E+03  4.856462E+02  4.680333E+04  1.380802E-09  1.963574E-09
        96  18  1.457080E+05  8.535764E+03  9.458691E+03  5.191740E+04 -1.369778E-09 -2.768092E-10
        96  19  2.040933E+05  1.538047E+04  9.948974E+03  4.725271E+04  7.625800E+03  5.308558E+03
        96  20  1.687721E+05  8.976709E+03  6.710039E+03  4.212784E+04  8.697457E+03  2.786818E+03
        96  21  1.342411E+05  5.277519E+03  4.836722E+03  4.277988E+04  9.768545E+03  5.947785E+02
        96  22  1.399742E+05  9.594578E+02  1.946666E+03  4.735949E+04  1.365323E+03  5.296932E+03
        96  23  1.395129E+05  2.514017E+03  3.597792E+03  4.446564E+04  3.204781E+03  2.776604E+03
        96  24  1.399745E+05  6.906599E+03  7.147661E+03  4.734862E+04  5.043732E+03  5.859936E+02
        96  25  7.585933E+04 -1.346170E+04 -6.055502E+03  4.746625E+04 -4.894541E+03  5.285304E+03
        96  26  1.102548E+05 -3.948669E+03  4.856704E+02  4.680333E+04 -2.287651E+03  2.766349E+03
        96  27  1.457080E+05  8.535765E+03  9.458692E+03  5.191740E+04  3.188729E+02  5.771391E+02
        97   1  6.864062E+03  3.942242E+05  8.354131E+03 -4.444228E+04 -6.796078E+02 -4.122536E+00
        97   2 -7.769848E+03  3.541481E+05 -1.685022E+03 -3.763845E+04 -3.163845E+03 -2.878367E+03
        97   3 -1.823627E+04  3.154704E+05 -8.817109E+03 -3.978998E+04 -5.882574E+03 -5.752595E+03
        97   4  6.853045E+03  3.948141E+05  7.756376E+03 -4.007050E+04 -6.831905E+02  3.978620E+03
        97   5  1.529065E+03  3.941495E+05  4.846908E+03 -3.559568E+04 -3.167725E+03  1.498333E+03
        97   6  3.043095E+02  3.948141E+05  4.571197E+03 -4.007607E+04 -5.886725E+03 -9.820954E+02
        97   7  6.842107E+03  3.954040E+05  7.158691E+03 -3.569871E+04 -6.867173E+02  7.961364E+03
        97   8  1.082792E+04  4.341525E+05  1.137887E+04 -3.355278E+04 -3.171576E+03  5.875306E+03
        97   9  1.884457E+04  4.741640E+05  1.795939E+04 -4.036219E+04 -5.890881E+03  3.788994E+03
        97  10  6.864062E+03  3.942242E+05  8.354130E+03 -4.444228E+04 -4.130999E-10  2.899518E-09
        97  11 -7.769861E+03  3.541481E+05 -1.685056E+03 -3.763846E+04 -5.297055E-10 -2.860700E-09
        97  12 -1.823632E+04  3.154704E+05 -8.817236E+03 -3.979000E+04 -5.074473E-10 -5.615455E-09
        97  13  6.853040E+03  3.948140E+05  7.756345E+03 -4.007050E+04 -2.345181E-09  2.833596E-11
        97  14  1.529054E+03  3.941495E+05  4.846885E+03 -3.559568E+04  2.543534E-09 -4.837778E-11
        97  15  3.042720E+02  3.948140E+05  4.571130E+03 -4.007607E+04  8.400310E-10 -1.405873E-09
        97  16  6.842090E+03  3.954039E+05  7.158571E+03 -3.569871E+04  2.266590E-09 -2.820623E-09
        97  17  1.082790E+04  4.341525E+05  1.137878E+04 -3.355276E+04  1.430289E-09  1.464149E-09
        97  18  1.884453E+04  4.741639E+05  1.795929E+04 -4.036218E+04 -1.307264E-09  4.371559E-09
        97  19  6.864062E+03  3.942242E+05  8.354131E+03 -4.444228E+04  6.796078E+02  4.122536E+00
        97  20 -7.769848E+03  3.541481E+05 -1.685022E+03 -3.763845E+04  3.163845E+03  2.878367E+03
        97  21 -1.823627E+04  3.154704E+05 -8.817109E+03 -3.978998E+04  5.882574E+03  5.752595E+03
        97  22  6.853045E+03  3.948141E+05  7.756376E+03 -4.007050E+04  6.831905E+02 -3.978620E+03
        97  23  1.529065E+03  3.941495E+05  4.846908E+03 -3.559568E+04  3.167725E+03 -1.498333E+03
        97  24  3.043095E+02  3.948141E+05  4.571197E+03 -4.007607E+04  5.886725E+03  9.820954E+02
        97  25  6.842107E+03  3.954040E+05  7.158691E+03 -3.569871E+04  6.867173E+02 -7.961364E+03
        97  26  1.082792E+04  4.341525E+05  1.137887E+04 -3.355278E+04  3.171576E+03 -5.875306E+03
        97  27  1.884457E+04  4.741640E+05  1.795939E+04 -4.036219E+04  5.890881E+03 -3.788994E+03
        98   1 -2.425116E+04  2.896512E+05 -1.293381E+04 -4.053445E+04 -7.575811E+03 -6.582579E+03
        98   2 -3.340693E+04  2.498834E+05 -1.780008E+04 -3.528499E+04 -1.013659E+04 -9.166627E+03
        98   3 -4.089843E+04  2.108544E+05 -2.057267E+04 -3.897524E+04 -1.209985E+04 -1.174981E+04
        98   4  3.464126E+02  3.947202E+05  5.030600E+03 -4.007211E+04 -7.579909E+03 -1.773575E+03
        98   5  4.562216E+02  3.942622E+05  7.186052E+03 -3.560145E+04 -1.013959E+04 -5.362620E+03
        98   6  2.404475E+03  3.947155E+05  1.213231E+04 -4.007032E+04 -1.210182E+04 -8.950963E+03
        98   7  2.494341E+04  4.998001E+05  2.299473E+04 -3.960968E+04 -7.584000E+03  3.036218E+03
        98   8  3.431826E+04  5.386614E+05  3.217152E+04 -3.591798E+04 -1.014260E+04 -1.557755E+03
        98   9  4.570552E+04  5.786096E+05  4.483606E+04 -4.116573E+04 -1.210380E+04 -6.151306E+03
        98  10 -2.425124E+04  2.896511E+05 -1.293400E+04 -4.053449E+04  8.292381E-10  2.297390E-08
        98  11 -3.340706E+04  2.498833E+05 -1.780043E+04 -3.528506E+04 -1.090247E-09 -1.990540E-08
        98  12 -4.089862E+04  2.108543E+05 -2.057321E+04 -3.897536E+04  1.008264E-09 -5.709221E-08
        98  13  3.463500E+02  3.947202E+05  5.030486E+03 -4.007212E+04  9.643311E-10  3.779047E-14
        98  14  4.561035E+02  3.942621E+05  7.185805E+03 -3.560149E+04  1.743206E-09 -6.308972E-12
        98  15  2.404296E+03  3.947154E+05  1.213189E+04 -4.007041E+04  6.564477E-09 -1.148137E-09
        98  16  2.494335E+04  4.998001E+05  2.299461E+04 -3.960966E+04 -3.233072E-09 -2.293706E-08
        98  17  3.431815E+04  5.386614E+05  3.217132E+04 -3.591799E+04 -6.717636E-09  1.902700E-08
        98  18  4.570536E+04  5.786095E+05  4.483571E+04 -4.116579E+04 -1.670457E-09  5.610093E-08
        98  19 -2.425116E+04  2.896512E+05 -1.293381E+04 -4.053445E+04  7.575811E+03  6.582579E+03
        98  20 -3.340693E+04  2.498834E+05 -1.780008E+04 -3.528499E+04  1.013659E+04  9.166627E+03
        98  21 -4.089843E+04  2.108544E+05 -2.057267E+04 -3.897524E+04  1.209985E+04  1.174981E+04
        98  22  3.464126E+02  3.947202E+05  5.030600E+03 -4.007211E+04  7.579909E+03  1.773575E+03
        98  23  4.562216E+02  3.942622E+05  7.186052E+03 -3.560145E+04  1.013959E+04  5.362620E+03
        98  24  2.404475E+03  3.947155E+05  1.213231E+04 -4.007032E+04  1.210182E+04  8.950963E+03
        98  25  2.494341E+04  4.998001E+05  2.299473E+04 -3.960968E+04  7.584000E+03 -3.036218E+03
        98  26  3.431826E+04  5.386614E+05  3.217152E+04 -3.591798E+04  1.014260E+04  1.557755E+03
        98  27  4.570552E+04  5.786096E+05  4.483606E+04 -4.116573E+04  1.210380E+04  6.151306E+03
        99   1 -4.788123E+04  1.867217E+05 -2.200857E+04 -4.287624E+04 -1.347687E+04 -1.461447E+04
        99   2 -4.796806E+04  1.435030E+05 -2.068440E+04 -2.087755E+04 -1.211237E+04 -1.735538E+04
        99   3 -1.942974E+04  1.077931E+05 -1.041995E+04 -7.364883E+03 -3.739655E+03 -2.009146E+04
        99   4  1.623207E+03  3.966332E+05  1.569741E+04 -3.997434E+04 -1.347942E+04 -1.101954E+04
        99   5  1.147551E+04  3.918520E+05  2.812785E+04 -3.571297E+04 -1.210541E+04 -2.554051E+04
        99   6  5.198965E+04  3.966172E+05  5.767292E+04 -3.993644E+04 -3.724303E+03 -4.005692E+04
        99   7  5.112523E+04  6.065878E+05  5.340175E+04 -3.707142E+04 -1.348194E+04 -7.423422E+03
        99   8  7.091622E+04  6.402607E+05  7.693747E+04 -5.055442E+04 -1.209806E+04 -3.372884E+04
        99   9  1.234073E+05  6.855212E+05  1.257621E+05 -7.252322E+04 -3.706860E+03 -6.003162E+04
        99  10 -4.788148E+04  1.867214E+05 -2.200931E+04 -4.287640E+04 -1.970870E-10  2.609995E-08
        99  11 -4.796830E+04  1.435027E+05 -2.068524E+04 -2.087772E+04 -2.134017E-10  1.279167E-08
        99  12 -1.942986E+04  1.077927E+05 -1.042074E+04 -7.364943E+03  6.486447E-10 -1.507120E-09
        99  13  1.622979E+03  3.966331E+05  1.569685E+04 -3.997446E+04  8.867963E-09  2.134272E-11
        99  14  1.147518E+04  3.918513E+05  2.812635E+04 -3.571321E+04  4.899574E-09 -1.366213E-10
        99  15  5.198920E+04  3.966155E+05  5.766988E+04 -3.993656E+04  3.119014E-09 -9.165671E-10
        99  16  5.112502E+04  6.065877E+05  5.340130E+04 -3.707150E+04  1.390555E-09 -2.608010E-08
        99  17  7.091576E+04  6.402595E+05  7.693506E+04 -5.055475E+04 -1.632254E-09 -1.366549E-08
        99  18  1.234063E+05  6.855173E+05  1.257553E+05 -7.252340E+04  4.474196E-10  7.476382E-10
        99  19 -4.788123E+04  1.867217E+05 -2.200857E+04 -4.287624E+04  1.347687E+04  1.461447E+04
        99  20 -4.796806E+04  1.435030E+05 -2.068440E+04 -2.087755E+04  1.211237E+04  1.735538E+04
        99  21 -1.942974E+04  1.077931E+05 -1.041995E+04 -7.364883E+03  3.739655E+03  2.009146E+04
        99  22  1.623207E+03  3.966332E+05  1.569741E+04 -3.997434E+04  1.347942E+04  1.101954E+04
        99  23  1.147551E+04  3.918520E+05  2.812785E+04 -3.571297E+04  1.210541E+04  2.554051E+04
        99  24  5.198965E+04  3.966172E+05  5.767292E+04 -3.993644E+04  3.724303E+03  4.005692E+04
        99  25  5.112523E+04  6.065878E+05  5.340175E+04 -3.707142E+04  1.348194E+04  7.423422E+03
        99  26  7.091622E+04  6.402607E+05  7.693747E+04 -5.055442E+04  1.209806E+04  3.372884E+04
        99  27  1.234073E+05  6.855212E+05  1.257621E+05 -7.252322E+04  3.706860E+03  6.003162E+04
       100   1  8.782714E+05  3.121003E+05  1.534891E+05  3.283661E+05  6.038987E+04  1.231377E+04
       100   2  8.284788E+05  2.918748E+05  1.094260E+05  3.142855E+05  3.908585E+04 -2.061340E+04
       100   3  7.779530E+05  2.793251E+05  8.777507E+04  3.071905E+05  1.226800E+04 -3.885879E+04
       100   4  2.265603E+05  7.402873E+04 -1.020068E+04  1.556082E+05 -3.261681E+03 -1.162697E+04
       100   5  2.306483E+05  7.715117E+04 -4.891538E+03  1.506951E+05  7.479529E+03 -3.250726E+04
       100   6  2.276595E+05  8.160818E+04 -2.535865E+03  1.527675E+05  1.270018E+04 -3.870033E+04
       100   7 -4.246970E+05 -1.640055E+05 -1.738983E+05 -1.697751E+04 -6.683722E+04 -3.554062E+04
       100   8 -3.667937E+05 -1.375361E+05 -1.192157E+05 -1.274588E+04 -2.409344E+04 -4.438895E+04
       100   9 -3.223090E+05 -1.160773E+05 -9.285326E+04 -1.526878E+03  1.313195E+04 -3.854202E+04
       100  10  8.782674E+05  3.120992E+05  1.534820E+05  3.283655E+05  2.953612E-09  1.995103E-09
       100  11  8.284770E+05  2.918739E+05  1.094223E+05  3.142861E+05 -8.970260E-09 -3.022000E-09
       100  12  7.779525E+05  2.793234E+05  8.777195E+04  3.071909E+05 -4.471216E-09 -9.236464E-10
       100  13  2.265603E+05  7.402858E+04 -1.020096E+04  1.556082E+05 -2.616234E-09 -2.939610E-10
       100  14  2.306480E+05  7.715002E+04 -4.893630E+03  1.506953E+05 -7.167805E-10 -3.541547E-09
       100  15  2.276589E+05  8.160653E+04 -2.538983E+03  1.527679E+05  1.195370E-08  3.670759E-09
       100  16 -4.247022E+05 -1.640080E+05 -1.739090E+05 -1.697942E+04 -8.017702E-09 -3.112649E-09
       100  17 -3.667949E+05 -1.375384E+05 -1.192205E+05 -1.274675E+04 -3.579912E-09 -4.680142E-09
       100  18 -3.223096E+05 -1.160789E+05 -9.285638E+04 -1.526471E+03  1.290961E-08  1.166669E-09
       100  19  8.782714E+05  3.121003E+05  1.534891E+05  3.283661E+05 -6.038987E+04 -1.231377E+04
       100  20  8.284788E+05  2.918748E+05  1.094260E+05  3.142855E+05 -3.908585E+04  2.061340E+04
       100  21  7.779530E+05  2.793251E+05  8.777507E+04  3.071905E+05 -1.226800E+04  3.885879E+04
       100  22  2.265603E+05  7.402873E+04 -1.020068E+04  1.556082E+05  3.261681E+03  1.162697E+04
       100  23  2.306483E+05  7.715117E+04 -4.891538E+03  1.506951E+05 -7.479529E+03  3.250726E+04
       100  24  2.276595E+05  8.160818E+04 -2.535865E+03  1.527675E+05 -1.270018E+04  3.870033E+04
       100  25 -4.246970E+05 -1.640055E+05 -1.738983E+05 -1.697751E+04  6.683722E+04  3.554062E+04
       100  26 -3.667937E+05 -1.375361E+05 -1.192157E+05 -1.274588E+04  2.409344E+04  4.438895E+04
       100  27 -3.223090E+05 -1.160773E+05 -9.285326E+04 -1.526878E+03 -1.313195E+04  3.854202E+04
       101   1  7.473732E+05  2.680487E+05  8.096922E+04  2.987106E+05  1.245009E+04 -3.805311E+04
       101   2  7.022155E+05  2.476961E+05  7.018527E+04  2.820283E+05  8.875345E+03 -3.827920E+04
       101   3  6.515454E+05  2.338232E+05  6.187999E+04  2.723429E+05  4.662022E+03 -3.681007E+04
       101   4  2.277706E+05  8.201069E+04 -1.878855E+03  1.529909E+05  1.274237E+04 -3.794703E+04
       101   5  2.309442E+05  7.944539E+04 -9.745879E+02  1.493796E+05  1.286707E+04 -3.678005E+04
       101   6  2.278719E+05  8.262774E+04 -5.206188E+02  1.527647E+05  1.235273E+04 -3.391715E+04
       101   7 -2.915493E+05 -1.040021E+05 -8.473404E+04  7.383713E+03  1.303440E+04 -3.784104E+04
       101   8 -2.400900E+05 -8.878282E+04 -7.213811E+04  1.682466E+04  1.685563E+04 -3.528208E+04
       101   9 -1.956068E+05 -6.854816E+04 -6.292279E+04  3.326336E+04  2.003791E+04 -3.102631E+04
       101  10  7.473727E+05  2.680471E+05  8.096621E+04  2.987110E+05  1.386684E-08  5.040058E-09
       101  11  7.022151E+05  2.476946E+05  7.018237E+04  2.820286E+05  3.885047E-09 -1.467265E-09
       101  12  6.515450E+05  2.338218E+05  6.187740E+04  2.723430E+05 -2.120579E-09 -4.639629E-09
       101  13  2.277700E+05  8.200910E+04 -1.881866E+03  1.529913E+05  1.457424E-08  3.345436E-09
       101  14  2.309437E+05  7.944389E+04 -9.774416E+02  1.493799E+05  7.308184E-09  5.905706E-11
       101  15  2.278714E+05  8.262646E+04 -5.230677E+02  1.527650E+05 -8.833183E-10  2.521507E-10
       101  16 -2.915499E+05 -1.040037E+05 -8.473705E+04  7.384110E+03  5.979715E-10 -2.650994E-10
       101  17 -2.400907E+05 -8.878424E+04 -7.214098E+04  1.682514E+04  2.115611E-10  3.057560E-09
       101  18 -1.956075E+05 -6.854930E+04 -6.292536E+04  3.326387E+04 -1.680799E-09  4.989954E-09
       101  19  7.473732E+05  2.680487E+05  8.096922E+04  2.987106E+05 -1.245009E+04  3.805311E+04
       101  20  7.022155E+05  2.476961E+05  7.018527E+04  2.820283E+05 -8.875345E+03  3.827920E+04
       101  21  6.515454E+05  2.338232E+05  6.187999E+04  2.723429E+05 -4.662022E+03  3.681007E+04
       101  22  2.277706E+05  8.201069E+04 -1.878855E+03  1.529909E+05 -1.274237E+04  3.794703E+04
       101  23  2.309442E+05  7.944539E+04 -9.745879E+02  1.493796E+05 -1.286707E+04  3.678005E+04
       101  24  2.278719E+05  8.262774E+04 -5.206188E+02  1.527647E+05 -1.235273E+04  3.391715E+04
       101  25 -2.915493E+05 -1.040021E+05 -8.473404E+04  7.383713E+03 -1.303440E+04  3.784104E+04
       101  26 -2.400900E+05 -8.878282E+04 -7.213811E+04  1.682466E+04 -1.685563E+04  3.528208E+04
       101  27 -1.956068E+05 -6.854816E+04 -6.292279E+04  3.326336E+04 -2.003791E+04  3.102631E+04
       102   1  6.216891E+05  2.231167E+05  5.718129E+04  2.639516E+05  3.954355E+03 -3.466495E+04
       102   2  5.770567E+05  2.030175E+05  5.003633E+04  2.470014E+05  2.269547E+03 -3.117344E+04
       102   3  5.263347E+05  1.891401E+05  4.314958E+04  2.370786E+05  5.105832E+02 -2.748724E+04
       102   4  2.278843E+05  8.266813E+04 -3.863797E+02  1.527904E+05  1.162685E+04 -3.177819E+04
       102   5  2.309843E+05  7.963028E+04 -2.003094E+02  1.492684E+05  1.036675E+04 -2.812570E+04
       102   6  2.279072E+05  8.273012E+04 -9.302828E+01  1.527733E+05  9.032448E+03 -2.427845E+04
       102   7 -1.657468E+05 -5.776152E+04 -5.795379E+04  4.169720E+04  1.929412E+04 -2.889339E+04
       102   8 -1.149576E+05 -4.374370E+04 -5.043764E+04  5.158689E+04  1.845921E+04 -2.507976E+04
       102   9 -7.042700E+04 -2.367141E+04 -4.333708E+04  6.850519E+04  1.755011E+04 -2.107125E+04
       102  10  6.216888E+05  2.231154E+05  5.717900E+04  2.639517E+05  3.593748E-09  6.595741E-10
       102  11  5.770564E+05  2.030165E+05  5.003450E+04  2.470015E+05 -9.724850E-09 -5.468342E-10
       102  12  5.263345E+05  1.891393E+05  4.314816E+04  2.370786E+05 -1.235834E-08 -1.516004E-09
       102  13  2.278838E+05  8.266701E+04 -3.885317E+02  1.527907E+05 -3.425140E-09 -2.849416E-09
       102  14  2.309840E+05  7.962940E+04 -2.019982E+02  1.492687E+05 -1.313978E-08 -3.567767E-09
       102  15  2.279070E+05  8.272946E+04 -9.428946E+01  1.527735E+05 -6.011273E-09  1.727580E-09
       102  16 -1.657474E+05 -5.776251E+04 -5.795606E+04  4.169765E+04 -1.396315E-08  4.224059E-10
       102  17 -1.149581E+05 -4.374447E+04 -5.043947E+04  5.158726E+04 -7.706178E-09 -4.206701E-09
       102  18 -7.042745E+04 -2.367197E+04 -4.333850E+04  6.850549E+04  9.473817E-09  1.401634E-09
       102  19  6.216891E+05  2.231167E+05  5.718129E+04  2.639516E+05 -3.954355E+03  3.466495E+04
       102  20  5.770567E+05  2.030175E+05  5.003633E+04  2.470014E+05 -2.269547E+03  3.117344E+04
       102  21  5.263347E+05  1.891401E+05  4.314958E+04  2.370786E+05 -5.105832E+02  2.748724E+04
       102  22  2.278843E+05  8.266813E+04 -3.863797E+02  1.527904E+05 -1.162685E+04  3.177819E+04
       102  23  2.309843E+05  7.963028E+04 -2.003094E+02  1.492684E+05 -1.036675E+04  2.812570E+04
       102  24  2.279072E+05  8.273012E+04 -9.302828E+01  1.527733E+05 -9.032448E+03  2.427845E+04
       102  25 -1.657468E+05 -5.776152E+04 -5.795379E+04  4.169720E+04 -1.929412E+04  2.889339E+04
       102  26 -1.149576E+05 -4.374370E+04 -5.043764E+04  5.158689E+04 -1.845921E+04  2.507976E+04
       102  27 -7.042700E+04 -2.367141E+04 -4.333708E+04  6.850519E+04 -1.755011E+04  2.107125E+04
       103   1  4.965906E+05  1.785068E+05  3.865859E+04  2.286950E+05 -3.326022E+02 -2.520107E+04
       103   2  4.520432E+05  1.584657E+05  3.189719E+04  2.117246E+05 -1.855145E+03 -2.130392E+04
       103   3  4.013395E+05  1.446028E+05  2.517427E+04  2.017850E+05 -3.385968E+03 -1.738622E+04
       103   4  2.279113E+05  8.273652E+04 -5.695748E+01  1.527751E+05  8.185743E+03 -2.199307E+04
       103   5  2.309997E+05  7.965872E+04  6.564570E+00  1.492592E+05  6.707801E+03 -1.807841E+04
       103   6  2.279203E+05  8.274982E+04  7.275834E+01  1.527732E+05  5.221580E+03 -1.414321E+04
       103   7 -4.068907E+04 -1.302567E+04 -3.877268E+04  7.688626E+04  1.670020E+04 -1.878652E+04
       103   8  1.001119E+04  8.577672E+02 -3.188369E+04  8.681533E+04  1.526748E+04 -1.485413E+04
       103   9  5.453638E+04  2.090115E+04 -2.502803E+04  1.037750E+05  1.382649E+04 -1.090121E+04
       103  10  4.965904E+05  1.785061E+05  3.865739E+04  2.286950E+05  7.687399E-09  4.383069E-09
       103  11  4.520431E+05  1.584652E+05  3.189633E+04  2.117245E+05  3.422126E-09  1.986998E-09
       103  12  4.013394E+05  1.446024E+05  2.517368E+04  2.017849E+05 -8.044930E-09 -6.810963E-10
       103  13  2.279111E+05  8.273598E+04 -5.799250E+01  1.527752E+05 -2.292675E-09 -1.692681E-09
       103  14  2.309996E+05  7.965836E+04  5.865740E+00  1.492593E+05 -5.195772E-09 -2.265966E-09
       103  15  2.279202E+05  8.274960E+04  7.233115E+01  1.527732E+05 -4.119546E-09 -3.399128E-09
       103  16 -4.068947E+04 -1.302613E+04 -3.877387E+04  7.688651E+04 -2.708477E-09 -1.297505E-09
       103  17  1.001088E+04  8.574676E+02 -3.188454E+04  8.681551E+04 -4.786392E-09 -1.850621E-09
       103  18  5.453614E+04  2.090097E+04 -2.502861E+04  1.037751E+05  3.680850E-09  6.804816E-10
       103  19  4.965906E+05  1.785068E+05  3.865859E+04  2.286950E+05  3.326022E+02  2.520107E+04
       103  20  4.520432E+05  1.584657E+05  3.189719E+04  2.117246E+05  1.855145E+03  2.130392E+04
       103  21  4.013395E+05  1.446028E+05  2.517427E+04  2.017850E+05  3.385968E+03  1.738622E+04
       103  22  2.279113E+05  8.273652E+04 -5.695748E+01  1.527751E+05 -8.185743E+03  2.199307E+04
       103  23  2.309997E+05  7.965872E+04  6.564570E+00  1.492592E+05 -6.707801E+03  1.807841E+04
       103  24  2.279203E+05  8.274982E+04  7.275834E+01  1.527732E+05 -5.221580E+03  1.414321E+04
       103  25 -4.068907E+04 -1.302567E+04 -3.877268E+04  7.688626E+04 -1.670020E+04  1.878652E+04
       103  26  1.001119E+04  8.577672E+02 -3.188369E+04  8.681533E+04 -1.526748E+04  1.485413E+04
       103  27  5.453638E+04  2.090115E+04 -2.502803E+04  1.037750E+05 -1.382649E+04  1.090121E+04
       104   1  3.716205E+05  1.339774E+05  2.072029E+04  1.934063E+05 -4.266025E+03 -1.509375E+04
       104   2  3.270900E+05  1.139427E+05  1.405899E+04  1.764430E+05 -5.843799E+03 -1.118737E+04
       104   3  2.764054E+05  1.000841E+05  7.467898E+03  1.665109E+05 -7.418227E+03 -7.290486E+03
       104   4  2.279268E+05  8.275167E+04  1.125594E+02  1.527749E+05  4.340230E+03 -1.185093E+04
       104   5  2.310041E+05  7.966316E+04  2.282180E+02  1.492596E+05  2.741546E+03 -7.952099E+03
       104   6  2.279299E+05  8.275517E+04  4.307118E+02  1.527748E+05  1.146207E+03 -4.062781E+03
       104   7  8.425393E+04  3.152753E+04 -2.049552E+04  1.121520E+05  1.294450E+04 -8.608862E+03
       104   8  1.349278E+05  4.538446E+04 -1.360249E+04  1.220800E+05  1.132555E+04 -4.717334E+03
       104   9  1.794572E+05  6.542651E+04 -6.606185E+03  1.390397E+05  9.709941E+03 -8.353405E+02
       104  10  3.716204E+05  1.339772E+05  2.071983E+04  1.934062E+05 -2.806601E-09  1.920795E-09
       104  11  3.270900E+05  1.139425E+05  1.405869E+04  1.764429E+05 -2.301610E-10  2.006532E-09
       104  12  2.764053E+05  1.000841E+05  7.467695E+03  1.665108E+05 -5.683149E-09 -4.022901E-09
       104  13  2.279268E+05  8.275151E+04  1.122601E+02  1.527750E+05 -5.579536E-10  9.868598E-10
       104  14  2.310041E+05  7.966309E+04  2.280850E+02  1.492596E+05 -3.894333E-09  3.834149E-09
       104  15  2.279299E+05  8.275515E+04  4.306783E+02  1.527748E+05 -1.768289E-08 -8.080394E-10
       104  16  8.425373E+04  3.152741E+04 -2.049597E+04  1.121521E+05 -8.420240E-11  2.548969E-09
       104  17  1.349276E+05  4.538440E+04 -1.360277E+04  1.220800E+05 -6.279363E-09  2.327952E-09
       104  18  1.794571E+05  6.542648E+04 -6.606363E+03  1.390397E+05 -9.462129E-09  1.025342E-10
       104  19  3.716205E+05  1.339774E+05  2.072029E+04  1.934063E+05  4.266025E+03  1.509375E+04
       104  20  3.270900E+05  1.139427E+05  1.405899E+04  1.764430E+05  5.843799E+03  1.118737E+04
       104  21  2.764054E+05  1.000841E+05  7.467898E+03  1.665109E+05  7.418227E+03  7.290486E+03
       104  22  2.279268E+05  8.275167E+04  1.125594E+02  1.527749E+05 -4.340230E+03  1.185093E+04
       104  23  2.310041E+05  7.966316E+04  2.282180E+02  1.492596E+05 -2.741546E+03  7.952099E+03
       104  24  2.279299E+05  8.275517E+04  4.307118E+02  1.527748E+05 -1.146207E+03  4.062781E+03
       104  25  8.425393E+04  3.152753E+04 -2.049552E+04  1.121520E+05 -1.294450E+04  8.608862E+03
       104  26  1.349278E+05  4.538446E+04 -1.360249E+04  1.220800E+05 -1.132555E+04  4.717334E+03
       104  27  1.794572E+05  6.542651E+04 -6.606185E+03  1.390397E+05 -9.709941E+03  8.353405E+02
       105   1  2.466967E+05  8.946802E+04  3.109902E+03  1.581538E+05 -8.363773E+03 -5.031994E+03
       105   2  2.021742E+05  6.941731E+04 -3.284216E+03  1.411506E+05 -1.013421E+04 -1.271271E+03
       105   3  1.515645E+05  5.562552E+04 -9.423668E+03  1.311599E+05 -1.186636E+04  2.388251E+03
       105   4  2.279500E+05  8.275470E+04  5.787440E+02  1.527811E+05  2.012296E+02 -1.804020E+03
       105   5  2.309845E+05  7.968870E+04  1.060654E+03  1.492431E+05 -1.790306E+03  1.873275E+03
       105   6  2.279728E+05  8.292488E+04  1.972004E+03  1.527164E+05 -3.743592E+03  5.449381E+03
       105   7  2.092040E+05  7.604158E+04 -1.952033E+03  1.474086E+05  8.765855E+03  1.423810E+03
       105   8  2.597959E+05  8.996024E+04  5.405812E+03  1.573359E+05  6.554005E+03  5.017975E+03
       105   9  3.043886E+05  1.102253E+05  1.336816E+04  1.742757E+05  4.380328E+03  8.510945E+03
       105  10  2.466966E+05  8.946797E+04  3.109723E+03  1.581538E+05 -1.899281E-08 -3.757569E-09
       105  11  2.021741E+05  6.941728E+04 -3.284412E+03  1.411506E+05 -1.134685E-08 -2.025783E-09
       105  12  1.515644E+05  5.562547E+04 -9.423943E+03  1.311599E+05  2.188565E-09  3.408516E-09
       105  13  2.279500E+05  8.275470E+04  5.787378E+02  1.527811E+05 -1.236971E-08  6.161770E-11
       105  14  2.309845E+05  7.968870E+04  1.060641E+03  1.492431E+05 -5.585555E-09  1.704950E-09
       105  15  2.279728E+05  8.292484E+04  1.971922E+03  1.527164E+05  3.880289E-09  6.621263E-10
       105  16  2.092039E+05  7.604156E+04 -1.952181E+03  1.474086E+05  1.441485E-09  3.125627E-09
       105  17  2.597959E+05  8.996020E+04  5.405684E+03  1.573359E+05  4.568083E-09 -1.092866E-10
       105  18  3.043886E+05  1.102252E+05  1.336799E+04  1.742757E+05  9.145382E-09  1.818753E-09
       105  19  2.466967E+05  8.946802E+04  3.109902E+03  1.581538E+05  8.363773E+03  5.031994E+03
       105  20  2.021742E+05  6.941731E+04 -3.284216E+03  1.411506E+05  1.013421E+04  1.271271E+03
       105  21  1.515645E+05  5.562552E+04 -9.423668E+03  1.311599E+05  1.186636E+04 -2.388251E+03
       105  22  2.279500E+05  8.275470E+04  5.787440E+02  1.527811E+05 -2.012296E+02  1.804020E+03
       105  23  2.309845E+05  7.968870E+04  1.060654E+03  1.492431E+05  1.790306E+03 -1.873275E+03
       105  24  2.279728E+05  8.292488E+04  1.972004E+03  1.527164E+05  3.743592E+03 -5.449381E+03
       105  25  2.092040E+05  7.604158E+04 -1.952033E+03  1.474086E+05 -8.765855E+03 -1.423810E+03
       105  26  2.597959E+05  8.996024E+04  5.405812E+03  1.573359E+05 -6.554005E+03 -5.017975E+03
       105  27  3.043886E+05  1.102253E+05  1.336816E+04  1.742757E+05 -4.380328E+03 -8.510945E+03
       106   1  1.218387E+05  4.511907E+04 -1.341535E+04  1.229245E+05 -1.305699E+04  4.454614E+03
       106   2  7.788425E+04  2.488593E+04 -1.894397E+04  1.049008E+05 -1.485756E+04  7.533946E+03
       106   3  2.838374E+04  1.208520E+04 -2.369563E+04  9.351979E+04 -1.632687E+04  9.735023E+03
       106   4  2.281273E+05  8.298262E+04  2.643417E+03  1.527383E+05 -4.925839E+03  7.518754E+03
       106   5  2.309172E+05  8.054027E+04  4.903829E+03  1.488651E+05 -8.642089E+03  9.875732E+03
       106   6  2.285378E+05  8.590903E+04  9.458586E+03  1.516334E+05 -1.202716E+04  1.135457E+04
       106   7  3.344282E+05  1.208474E+05  1.870231E+04  1.825569E+05  3.206779E+03  1.058344E+04
       106   8  3.839745E+05  1.361969E+05  2.875113E+04  1.928394E+05 -2.425041E+03  1.221813E+04
       106   9  4.287321E+05  1.597365E+05  4.261121E+04  2.097640E+05 -7.726032E+03  1.297468E+04
       106  10  1.218385E+05  4.511901E+04 -1.341571E+04  1.229245E+05 -7.960515E-08 -3.153090E-08
       106  11  7.788400E+04  2.488581E+04 -1.894449E+04  1.049009E+05 -1.612111E-09 -1.235830E-09
       106  12  2.838343E+04  1.208502E+04 -2.369631E+04  9.351992E+04  8.939285E-08  3.954251E-08
       106  13  2.281273E+05  8.298255E+04  2.643265E+03  1.527383E+05  2.083247E-10 -2.923716E-09
       106  14  2.309171E+05  8.054014E+04  4.903506E+03  1.488652E+05 -3.359396E-09 -2.381218E-09
       106  15  2.285376E+05  8.590885E+04  9.458072E+03  1.516335E+05  1.460952E-09 -1.222679E-08
       106  16  3.344282E+05  1.208473E+05  1.870208E+04  1.825569E+05  8.216896E-08  3.092885E-08
       106  17  3.839745E+05  1.361968E+05  2.875084E+04  1.928394E+05 -1.201114E-08 -2.947701E-09
       106  18  4.287320E+05  1.597363E+05  4.261078E+04  2.097640E+05 -9.033417E-08 -3.006732E-08
       106  19  1.218387E+05  4.511907E+04 -1.341535E+04  1.229245E+05  1.305699E+04 -4.454614E+03
       106  20  7.788425E+04  2.488593E+04 -1.894397E+04  1.049008E+05  1.485756E+04 -7.533946E+03
       106  21  2.838374E+04  1.208520E+04 -2.369563E+04  9.351979E+04  1.632687E+04 -9.735023E+03
       106  22  2.281273E+05  8.298262E+04  2.643417E+03  1.527383E+05  4.925839E+03 -7.518754E+03
       106  23  2.309172E+05  8.054027E+04  4.903829E+03  1.488651E+05  8.642089E+03 -9.875732E+03
       106  24  2.285378E+05  8.590903E+04  9.458586E+03  1.516334E+05  1.202716E+04 -1.135457E+04
       106  25  3.344282E+05  1.208474E+05  1.870231E+04  1.825569E+05 -3.206779E+03 -1.058344E+04
       106  26  3.839745E+05  1.361969E+05  2.875113E+04  1.928394E+05  2.425041E+03 -1.221813E+04
       106  27  4.287321E+05  1.597365E+05  4.261121E+04  2.097640E+05  7.726032E+03 -1.297468E+04
       107   1 -1.386525E+03  3.024517E+03 -2.641115E+04  8.625424E+04 -1.837941E+04  1.060895E+04
       107   2 -3.639028E+04 -1.926242E+04 -3.027233E+04  5.386904E+04 -1.380912E+04  1.028173E+04
       107   3 -7.122441E+04 -1.904908E+04 -3.237789E+04  2.320473E+04 -6.376282E+03  2.351626E+03
       107   4  2.300256E+05  8.691866E+04  1.276553E+04  1.516614E+05 -1.400915E+04  1.225487E+04
       107   5  2.310036E+05  9.311149E+04  2.458802E+04  1.436098E+05 -2.601298E+04  5.683256E+03
       107   6  2.354299E+05  1.250821E+05  5.129747E+04  1.372796E+05 -3.515536E+04 -8.489335E+03
       107   7  4.614991E+05  1.708200E+05  5.194209E+04  2.170926E+05 -9.637085E+03  1.390147E+04
       107   8  4.984721E+05  2.054984E+05  7.944529E+04  2.333885E+05 -3.822242E+04  1.081946E+03
       107   9  5.421729E+05  2.692334E+05  1.349659E+05  2.514086E+05 -6.394922E+04 -1.933926E+04
       107  10 -1.386918E+03  3.024306E+03 -2.641199E+04  8.625439E+04 -3.198822E-08 -7.673245E-09
       107  11 -3.639051E+04 -1.926259E+04 -3.027289E+04  5.386916E+04 -7.384516E-09  5.659608E-09
       107  12 -7.122446E+04 -1.904910E+04 -3.237798E+04  2.320474E+04  2.138151E-08  6.894070E-09
       107  13  2.300253E+05  8.691845E+04  1.276488E+04  1.516615E+05  4.069493E-09 -1.237847E-08
       107  14  2.310029E+05  9.311128E+04  2.458668E+04  1.436099E+05 -7.534143E-09 -7.475524E-09
       107  15  2.354286E+05  1.250817E+05  5.129501E+04  1.372794E+05 -1.378495E-09 -7.896263E-10
       107  16  4.614990E+05  1.708198E+05  5.194156E+04  2.170927E+05  3.455886E-08  1.803222E-08
       107  17  4.984705E+05  2.054980E+05  7.944254E+04  2.333885E+05 -1.737000E-09  2.761440E-09
       107  18  5.421684E+05  2.692319E+05  1.349575E+05  2.514076E+05 -2.438341E-08 -7.738753E-09
       107  19 -1.386525E+03  3.024517E+03 -2.641115E+04  8.625424E+04  1.837941E+04 -1.060895E+04
       107  20 -3.639028E+04 -1.926242E+04 -3.027233E+04  5.386904E+04  1.380912E+04 -1.028173E+04
       107  21 -7.122441E+04 -1.904908E+04 -3.237789E+04  2.320473E+04  6.376282E+03 -2.351626E+03
       107  22  2.300256E+05  8.691866E+04  1.276553E+04  1.516614E+05  1.400915E+04 -1.225487E+04
       107  23  2.310036E+05  9.311149E+04  2.458802E+04  1.436098E+05  2.601298E+04 -5.683256E+03
       107  24  2.354299E+05  1.250821E+05  5.129747E+04  1.372796E+05  3.515536E+04  8.489335E+03
       107  25  4.614991E+05  1.708200E+05  5.194209E+04  2.170926E+05  9.637085E+03 -1.390147E+04
       107  26  4.984721E+05  2.054984E+05  7.944529E+04  2.333885E+05  3.822242E+04 -1.081946E+03
       107  27  5.421729E+05  2.692334E+05  1.349659E+05  2.514086E+05  6.394922E+04  1.933926E+04
       108   1 -2.286078E+05 -1.033342E+06 -2.547762E+05  8.696261E+04 -4.702758E+03 -9.845978E+04
       108   2 -8.413816E+04 -9.255937E+05 -1.553558E+05  3.144084E+04 -1.375991E+04 -5.810147E+04
       108   3 -7.029202E+04 -8.554253E+05 -1.148391E+05  3.355758E+04 -1.085476E+04 -1.771817E+04
       108   4 -1.083401E+05 -5.518958E+05 -1.360910E+05  4.840877E+04 -4.710597E+03 -8.988684E+04
       108   5  1.292266E+04 -5.336898E+05 -6.247872E+04  1.967796E+04 -1.376077E+04 -5.638771E+04
       108   6  4.798147E+03 -5.518524E+05 -4.297229E+04  4.858857E+04 -1.084849E+04 -2.286984E+04
       108   7  1.191585E+04 -7.023520E+04 -1.742184E+04  9.825029E+03 -4.719501E+03 -8.130723E+04
       108   8  1.099730E+05 -1.416444E+05  3.038780E+04  7.907661E+03 -1.376169E+04 -5.467287E+04
       108   9  7.988257E+04 -2.481940E+05  2.888835E+04  6.362697E+04 -1.084247E+04 -2.802402E+04
       108  10 -2.286105E+05 -1.033352E+06 -2.547945E+05  8.696223E+04  1.633989E-09 -1.742226E-09
       108  11 -8.413927E+04 -9.255974E+05 -1.553625E+05  3.144020E+04 -1.778269E-09 -1.790698E-09
       108  12 -7.029223E+04 -8.554257E+05 -1.148399E+05  3.355742E+04 -1.758689E-09  1.748718E-10
       108  13 -1.083423E+05 -5.519045E+05 -1.361062E+05  4.840843E+04  1.089149E-09  6.172112E-11
       108  14  1.292161E+04 -5.336933E+05 -6.248506E+04  1.967734E+04 -7.667712E-10 -5.998892E-10
       108  15  4.797881E+03 -5.518529E+05 -4.297349E+04  4.858837E+04  8.886257E-12  4.755049E-11
       108  16  1.191405E+04 -7.024231E+04 -1.743431E+04  9.824720E+03 -1.994919E-09 -1.922020E-09
       108  17  1.099719E+05 -1.416476E+05  3.038182E+04  7.907055E+03 -2.077751E-09 -1.081550E-09
       108  18  7.988223E+04 -2.481949E+05  2.888665E+04  6.362673E+04 -2.638967E-09 -7.173116E-10
       108  19 -2.286078E+05 -1.033342E+06 -2.547762E+05  8.696261E+04  4.702758E+03  9.845978E+04
       108  20 -8.413816E+04 -9.255937E+05 -1.553558E+05  3.144084E+04  1.375991E+04  5.810147E+04
       108  21 -7.029202E+04 -8.554253E+05 -1.148391E+05  3.355758E+04  1.085476E+04  1.771817E+04
       108  22 -1.083401E+05 -5.518958E+05 -1.360910E+05  4.840877E+04  4.710597E+03  8.988684E+04
       108  23  1.292266E+04 -5.336898E+05 -6.247872E+04  1.967796E+04  1.376077E+04  5.638771E+04
       108  24  4.798147E+03 -5.518524E+05 -4.297229E+04  4.858857E+04  1.084849E+04  2.286984E+04
       108  25  1.191585E+04 -7.023520E+04 -1.742184E+04  9.825029E+03  4.719501E+03  8.130723E+04
       108  26  1.099730E+05 -1.416444E+05  3.038780E+04  7.907661E+03  1.376169E+04  5.467287E+04
       108  27  7.988257E+04 -2.481940E+05  2.888835E+04  6.362697E+04  1.084247E+04  2.802402E+04
       109   1 -5.913870E+04 -7.445974E+05 -8.525966E+04  5.349128E+04 -6.924936E+03 -1.432573E+04
       109   2 -2.470076E+04 -6.513176E+05 -5.551468E+04  1.963785E+04 -3.896853E+03  9.261319E+02
       109   3 -1.419198E+04 -5.658189E+05 -4.165149E+04  4.420399E+04 -5.532648E+02  1.617980E+04
       109   4 -9.831392E+03 -5.454863E+05 -3.804488E+04  4.870404E+04 -6.922756E+03 -1.599072E+04
       109   5  2.453539E+03 -5.416061E+05 -2.952895E+04  1.949492E+04 -3.894740E+03 -9.172005E+02
       109   6 -9.156670E+03 -5.454817E+05 -3.676771E+04  4.870539E+04 -5.510415E+02  1.415597E+04
       109   7  3.947315E+04 -3.463387E+05  9.167161E+03  4.391527E+04 -6.920551E+03 -1.765623E+04
       109   8  2.960698E+04 -4.318834E+05 -3.544032E+03  1.935197E+04 -3.892626E+03 -2.760857E+03
       109   9 -4.121316E+03 -5.251441E+05 -3.188393E+04  5.320694E+04 -5.488476E+02  1.213207E+04
       109  10 -5.913880E+04 -7.445976E+05 -8.526013E+04  5.349120E+04 -1.132790E-09  8.633867E-10
       109  11 -2.470078E+04 -6.513176E+05 -5.551472E+04  1.963786E+04  6.942459E-10 -2.736214E-10
       109  12 -1.419205E+04 -5.658191E+05 -4.165198E+04  4.420399E+04  5.984324E-10 -7.661668E-10
       109  13 -9.831512E+03 -5.454866E+05 -3.804545E+04  4.870395E+04  1.545191E-10  1.436180E-11
       109  14  2.453522E+03 -5.416061E+05 -2.952898E+04  1.949492E+04  2.615285E-09 -9.133965E-10
       109  15 -9.156724E+03 -5.454819E+05 -3.676808E+04  4.870540E+04  5.483838E-10 -1.489736E-09
       109  16  3.947301E+04 -3.463391E+05  9.166485E+03  4.391517E+04 -4.881348E-09 -3.385740E-09
       109  17  2.960696E+04 -4.318835E+05 -3.544075E+03  1.935196E+04 -2.412802E-09 -2.575263E-09
       109  18 -4.121355E+03 -5.251442E+05 -3.188420E+04  5.320695E+04  1.833372E-09 -9.108023E-10
       109  19 -5.913870E+04 -7.445974E+05 -8.525966E+04  5.349128E+04  6.924936E+03  1.432573E+04
       109  20 -2.470076E+04 -6.513176E+05 -5.551468E+04  1.963785E+04  3.896853E+03 -9.261319E+02
       109  21 -1.419198E+04 -5.658189E+05 -4.165149E+04  4.420399E+04  5.532648E+02 -1.617980E+04
       109  22 -9.831392E+03 -5.454863E+05 -3.804488E+04  4.870404E+04  6.922756E+03  1.599072E+04
       109  23  2.453539E+03 -5.416061E+05 -2.952895E+04  1.949492E+04  3.894740E+03  9.172005E+02
       109  24 -9.156670E+03 -5.454817E+05 -3.676771E+04  4.870539E+04  5.510415E+02 -1.415597E+04
       109  25  3.947315E+04 -3.463387E+05  9.167161E+03  4.391527E+04  6.920551E+03  1.765623E+04
       109  26  2.960698E+04 -4.318834E+05 -3.544032E+03  1.935197E+04  3.892626E+03  2.760857E+03
       109  27 -4.121316E+03 -5.251441E+05 -3.188393E+04  5.320694E+04  5.488476E+02 -1.213207E+04
       110   1  2.526151E+04 -4.670577E+05 -2.111131E+04  6.302938E+04  2.761995E+03  2.471450E+04
       110   2  5.512322E+04 -3.608890E+05 -1.797750E+04  8.754752E+03  6.046975E+03  5.234020E+04
       110   3 -3.603515E+04 -2.883604E+05 -6.304407E+04  1.258215E+04  2.296430E+03  7.996156E+04
       110   4  4.413489E+03 -5.513906E+05 -4.115370E+04  4.867817E+04  2.765579E+03  2.077735E+04
       110   5  1.219479E+04 -5.342250E+05 -5.904950E+04  1.955997E+04  6.047867E+03  5.244450E+04
       110   6 -1.017673E+05 -5.514237E+05 -1.279656E+05  4.854727E+04  2.295994E+03  8.410315E+04
       110   7 -1.643426E+04 -6.357165E+05 -6.119643E+04  3.432892E+04  2.769345E+03  1.684072E+04
       110   8 -3.073537E+04 -7.075331E+05 -1.001235E+05  3.036217E+04  6.048763E+03  5.254876E+04
       110   9 -1.674998E+05 -8.144213E+05 -1.928915E+05  8.449712E+04  2.296039E+03  8.824299E+04
       110  10  2.526134E+04 -4.670584E+05 -2.111247E+04  6.302932E+04 -1.653164E-09 -1.628797E-09
       110  11  5.512245E+04 -3.608920E+05 -1.798272E+04  8.754497E+03 -4.792661E-10 -2.815841E-09
       110  12 -3.603687E+04 -2.883672E+05 -6.305610E+04  1.258201E+04  1.010837E-09 -6.916648E-11
       110  13  4.413365E+03 -5.513911E+05 -4.115453E+04  4.867812E+04  3.955113E-10  4.472871E-11
       110  14  1.219401E+04 -5.342280E+05 -5.905474E+04  1.955972E+04  1.339144E-09 -4.489833E-10
       110  15 -1.017692E+05 -5.514313E+05 -1.279789E+05  4.854711E+04 -3.667029E-10 -8.361262E-10
       110  16 -1.643434E+04 -6.357168E+05 -6.119698E+04  3.432888E+04  3.875292E-09 -5.985559E-10
       110  17 -3.073615E+04 -7.075361E+05 -1.001288E+05  3.036191E+04  2.913892E-09 -3.361407E-09
       110  18 -1.675019E+05 -8.144297E+05 -1.929062E+05  8.449696E+04  1.852300E-09 -6.366704E-10
       110  19  2.526151E+04 -4.670577E+05 -2.111131E+04  6.302938E+04 -2.761995E+03 -2.471450E+04
       110  20  5.512322E+04 -3.608890E+05 -1.797750E+04  8.754752E+03 -6.046975E+03 -5.234020E+04
       110  21 -3.603515E+04 -2.883604E+05 -6.304407E+04  1.258215E+04 -2.296430E+03 -7.996156E+04
       110  22  4.413489E+03 -5.513906E+05 -4.115370E+04  4.867817E+04 -2.765579E+03 -2.077735E+04
       110  23  1.219479E+04 -5.342250E+05 -5.904950E+04  1.955997E+04 -6.047867E+03 -5.244450E+04
       110  24 -1.017673E+05 -5.514237E+05 -1.279656E+05  4.854727E+04 -2.295994E+03 -8.410315E+04
       110  25 -1.643426E+04 -6.357165E+05 -6.119643E+04  3.432892E+04 -2.769345E+03 -1.684072E+04
       110  26 -3.073537E+04 -7.075331E+05 -1.001235E+05  3.036217E+04 -6.048763E+03 -5.254876E+04
       110  27 -1.674998E+05 -8.144213E+05 -1.928915E+05  8.449712E+04 -2.296039E+03 -8.824299E+04
       111   1  5.338137E+05  1.848870E+05  1.115009E+05  1.961996E+05  5.059419E+04  1.699702E+04
       111   2  5.158465E+05  1.082937E+05  6.390552E+04  1.949679E+05  3.264142E+04  5.992830E+03
       111   3  5.172374E+05  9.808418E+04  4.725458E+04  1.850102E+05  1.319265E+04 -1.042345E+03
       111   4  4.037005E+05  1.148334E+05  7.236512E+04  1.391597E+05  4.674855E+04  1.554469E+04
       111   5  3.904219E+05  5.469966E+04  3.077963E+04  1.537858E+05  3.147624E+04  5.552862E+03
       111   6  3.959753E+05  6.042550E+04  1.802000E+04  1.596847E+05  1.470738E+04 -4.708354E+02
       111   7  2.736064E+05  4.478771E+04  3.322827E+04  8.213298E+04  4.290384E+04  1.409303E+04
       111   8  2.650132E+05  1.108214E+03 -2.347491E+03  1.126118E+05  3.031132E+04  5.113023E+03
       111   9  2.747269E+05  2.276659E+04 -1.121578E+04  1.343630E+05  1.622180E+04  1.006026E+02
       111  10  5.338109E+05  1.848860E+05  1.114956E+05  1.961989E+05  2.939269E-09  4.085605E-09
       111  11  5.158453E+05  1.082934E+05  6.390345E+04  1.949677E+05 -6.531732E-10 -8.265028E-09
       111  12  5.172372E+05  9.808413E+04  4.725425E+04  1.850102E+05 -2.280981E-09 -5.201654E-10
       111  13  4.036981E+05  1.148325E+05  7.236056E+04  1.391591E+05 -7.583296E-10 -4.529322E-09
       111  14  3.904208E+05  5.469936E+04  3.077771E+04  1.537856E+05  3.220569E-09 -4.746039E-09
       111  15  3.959751E+05  6.042544E+04  1.801959E+04  1.596847E+05  1.113786E-10  1.520966E-09
       111  16  2.736044E+05  4.478700E+04  3.322444E+04  8.213250E+04 -1.453411E-09 -1.360281E-09
       111  17  2.650122E+05  1.107939E+03 -2.349266E+03  1.126117E+05  9.858626E-11  4.366649E-09
       111  18  2.747266E+05  2.276651E+04 -1.121627E+04  1.343630E+05  3.797736E-09  5.338134E-10
       111  19  5.338137E+05  1.848870E+05  1.115009E+05  1.961996E+05 -5.059419E+04 -1.699702E+04
       111  20  5.158465E+05  1.082937E+05  6.390552E+04  1.949679E+05 -3.264142E+04 -5.992830E+03
       111  21  5.172374E+05  9.808418E+04  4.725458E+04  1.850102E+05 -1.319265E+04  1.042345E+03
       111  22  4.037005E+05  1.148334E+05  7.236512E+04  1.391597E+05 -4.674855E+04 -1.554469E+04
       111  23  3.904219E+05  5.469966E+04  3.077963E+04  1.537858E+05 -3.147624E+04 -5.552862E+03
       111  24  3.959753E+05  6.042550E+04  1.802000E+04  1.596847E+05 -1.470738E+04  4.708354E+02
       111  25  2.736064E+05  4.478771E+04  3.322827E+04  8.213298E+04 -4.290384E+04 -1.409303E+04
       111  26  2.650132E+05  1.108214E+03 -2.347491E+03  1.126118E+05 -3.031132E+04 -5.113023E+03
       111  27  2.747269E+05  2.276659E+04 -1.121578E+04  1.343630E+05 -1.622180E+04 -1.006026E+02
       112   1  4.932695E+05  1.057745E+05  4.006744E+04  1.846747E+05  1.164956E+04 -5.559446E+02
       112   2  4.808854E+05  9.182708E+04  2.903412E+04  1.777758E+05  7.605752E+03 -1.483900E+03
       112   3  4.648967E+05  8.883937E+04  2.221420E+04  1.765085E+05  3.483179E+03 -2.202990E+03
       112   4  3.936467E+05  6.695515E+04  1.447655E+04  1.558081E+05  1.193094E+04 -4.498769E+02
       112   5  3.951518E+05  5.929606E+04  7.225040E+03  1.538203E+05  8.028594E+03 -1.324403E+03
       112   6  3.930245E+05  6.256908E+04  4.075398E+03  1.574639E+05  4.047392E+03 -1.990099E+03
       112   7  2.940336E+05  2.813666E+04 -1.111515E+04  1.269457E+05  1.221227E+04 -3.438296E+02
       112   8  3.094256E+05  2.676563E+04 -1.458458E+04  1.298678E+05  8.451372E+03 -1.164931E+03
       112   9  3.211576E+05  3.629917E+04 -1.406374E+04  1.384214E+05  4.611532E+03 -1.777234E+03
       112  10  4.932693E+05  1.057745E+05  4.006719E+04  1.846747E+05  7.828180E-09  5.581867E-09
       112  11  4.808853E+05  9.182707E+04  2.903401E+04  1.777758E+05  3.615345E-09  3.513292E-09
       112  12  4.648967E+05  8.883937E+04  2.221417E+04  1.765085E+05 -1.853736E-09  8.487336E-10
       112  13  3.936465E+05  6.695511E+04  1.447628E+04  1.558081E+05 -6.156020E-10 -4.438832E-09
       112  14  3.951517E+05  5.929604E+04  7.224916E+03  1.538203E+05  6.628000E-10  1.157487E-08
       112  15  3.930245E+05  6.256908E+04  4.075359E+03  1.574639E+05 -1.034881E-09  6.351253E-09
       112  16  2.940335E+05  2.813662E+04 -1.111543E+04  1.269457E+05 -6.125842E-09 -1.631334E-09
       112  17  3.094255E+05  2.676561E+04 -1.458472E+04  1.298678E+05 -9.240776E-10 -4.537090E-09
       112  18  3.211575E+05  3.629916E+04 -1.406378E+04  1.384214E+05  2.543731E-09  5.576685E-09
       112  19  4.932695E+05  1.057745E+05  4.006744E+04  1.846747E+05 -1.164956E+04  5.559446E+02
       112  20  4.808854E+05  9.182708E+04  2.903412E+04  1.777758E+05 -7.605752E+03  1.483900E+03
       112  21  4.648967E+05  8.883937E+04  2.221420E+04  1.765085E+05 -3.483179E+03  2.202990E+03
       112  22  3.936467E+05  6.695515E+04  1.447655E+04  1.558081E+05 -1.193094E+04  4.498769E+02
       112  23  3.951518E+05  5.929606E+04  7.225040E+03  1.538203E+05 -8.028594E+03  1.324403E+03
       112  24  3.930245E+05  6.256908E+04  4.075398E+03  1.574639E+05 -4.047392E+03  1.990099E+03
       112  25  2.940336E+05  2.813666E+04 -1.111515E+04  1.269457E+05 -1.221227E+04  3.438296E+02
       112  26  3.094256E+05  2.676563E+04 -1.458458E+04  1.298678E+05 -8.451372E+03  1.164931E+03
       112  27  3.211576E+05  3.629917E+04 -1.406374E+04  1.384214E+05 -4.611532E+03  1.777234E+03
       113   1  4.493467E+05  8.433912E+04  1.743930E+04  1.727417E+05  2.795393E+03 -1.929261E+03
       113   2  4.376392E+05  7.548566E+04  1.234351E+04  1.654003E+05  1.659585E+03 -1.508415E+03
       113   3  4.202495E+05  7.299486E+04  7.993542E+03  1.647470E+05  5.198803E+02 -1.077383E+03
       113   4  3.927855E+05  6.307265E+04  3.137000E+03  1.571257E+05  3.293419E+03 -1.741330E+03
       113   5  3.956032E+05  5.972198E+04  1.687333E+03  1.538459E+05  2.164565E+03 -1.317839E+03
       113   6  3.927376E+05  6.273276E+04  9.781264E+02  1.572542E+05  1.031794E+03 -8.841678E+02
       113   7  3.362271E+05  4.180631E+04 -1.116561E+04  1.415109E+05  3.791398E+03 -1.553417E+03
       113   8  3.535689E+05  4.395839E+04 -8.969012E+03  1.422922E+05  2.669509E+03 -1.127276E+03
       113   9  3.652264E+05  5.247070E+04 -6.037351E+03  1.497617E+05  1.543683E+03 -6.909622E+02
       113  10  4.493467E+05  8.433912E+04  1.743928E+04  1.727417E+05 -4.148428E-09 -5.369846E-09
       113  11  4.376392E+05  7.548565E+04  1.234350E+04  1.654003E+05 -4.113447E-09 -6.246669E-09
       113  12  4.202495E+05  7.299486E+04  7.993540E+03  1.647470E+05 -7.373408E-09 -5.277907E-09
       113  13  3.927855E+05  6.307264E+04  3.136974E+03  1.571257E+05  5.425759E-10 -1.018925E-09
       113  14  3.956032E+05  5.972198E+04  1.687321E+03  1.538459E+05  1.542233E-09  6.695208E-09
       113  15  3.927376E+05  6.273276E+04  9.781230E+02  1.572542E+05  2.114626E-09  1.950875E-09
       113  16  3.362271E+05  4.180630E+04 -1.116565E+04  1.415109E+05  3.349664E-09  4.195164E-09
       113  17  3.535689E+05  4.395839E+04 -8.969028E+03  1.422922E+05  1.997992E-09  5.936626E-09
       113  18  3.652264E+05  5.247070E+04 -6.037356E+03  1.497617E+05  3.516565E-09  3.361947E-09
       113  19  4.493467E+05  8.433912E+04  1.743930E+04  1.727417E+05 -2.795393E+03  1.929261E+03
       113  20  4.376392E+05  7.548566E+04  1.234351E+04  1.654003E+05 -1.659585E+03  1.508415E+03
       113  21  4.202495E+05  7.299486E+04  7.993542E+03  1.647470E+05 -5.198803E+02  1.077383E+03
       113  22  3.927855E+05  6.307265E+04  3.137000E+03  1.571257E+05 -3.293419E+03  1.741330E+03
       113  23  3.956032E+05  5.972198E+04  1.687333E+03  1.538459E+05 -2.164565E+03  1.317839E+03
       113  24  3.927376E+05  6.273276E+04  9.781264E+02  1.572542E+05 -1.031794E+03  8.841678E+02
       113  25  3.362271E+05  4.180631E+04 -1.116561E+04  1.415109E+05 -3.791398E+03  1.553417E+03
       113  26  3.535689E+05  4.395839E+04 -8.969012E+03  1.422922E+05 -2.669509E+03  1.127276E+03
       113  27  3.652264E+05  5.247070E+04 -6.037351E+03  1.497617E+05 -1.543683E+03  6.909622E+02
       114   1  4.054739E+05  6.753957E+04  3.955043E+03  1.607297E+05  2.132194E+02 -6.898695E+02
       114   2  3.938688E+05  5.909329E+04  6.880862E+01  1.533580E+05 -3.319586E+02 -3.448132E+01
       114   3  3.763747E+05  5.662493E+04 -3.613848E+03  1.527337E+05 -8.773410E+02  6.215049E+02
       114   4  3.927090E+05  6.276669E+04  7.732572E+02  1.572224E+05  7.214610E+02 -4.980348E+02
       114   5  3.956520E+05  5.976671E+04  5.217017E+02  1.538530E+05  1.766825E+02  1.575019E+02
       114   6  3.927058E+05  6.274456E+04  4.734297E+02  1.572308E+05 -3.683089E+02  8.136363E+02
       114   7  3.799442E+05  5.799384E+04 -2.408526E+03  1.537153E+05  1.229689E+03 -3.062051E+02
       114   8  3.974352E+05  6.044013E+04  9.745955E+02  1.543479E+05  6.853252E+02  3.494858E+02
       114   9  4.090373E+05  6.886422E+04  4.560705E+03  1.617280E+05  1.407398E+02  1.005774E+03
       114  10  4.054739E+05  6.753957E+04  3.955042E+03  1.607297E+05 -1.217663E-08 -3.380576E-09
       114  11  3.938688E+05  5.909329E+04  6.880841E+01  1.533580E+05  1.561094E-09  2.401519E-09
       114  12  3.763747E+05  5.662493E+04 -3.613850E+03  1.527337E+05  6.983514E-09  3.571128E-09
       114  13  3.927090E+05  6.276669E+04  7.732558E+02  1.572224E+05  1.008349E-09  8.679941E-10
       114  14  3.956520E+05  5.976671E+04  5.217015E+02  1.538530E+05  3.268913E-09  2.427028E-09
       114  15  3.927058E+05  6.274456E+04  4.734282E+02  1.572308E+05 -3.420598E-10 -2.934820E-09
       114  16  3.799442E+05  5.799384E+04 -2.408529E+03  1.537153E+05  1.072376E-08  6.350824E-09
       114  17  3.974352E+05  6.044013E+04  9.745944E+02  1.543479E+05  3.754016E-09  3.311542E-09
       114  18  4.090373E+05  6.886422E+04  4.560703E+03  1.617280E+05 -8.468531E-09 -6.049538E-09
       114  19  4.054739E+05  6.753957E+04  3.955043E+03  1.607297E+05 -2.132194E+02  6.898695E+02
       114  20  3.938688E+05  5.909329E+04  6.880862E+01  1.533580E+05  3.319586E+02  3.448132E+01
       114  21  3.763747E+05  5.662493E+04 -3.613848E+03  1.527337E+05  8.773410E+02 -6.215049E+02
       114  22  3.927090E+05  6.276669E+04  7.732572E+02  1.572224E+05 -7.214610E+02  4.980348E+02
       114  23  3.956520E+05  5.976671E+04  5.217017E+02  1.538530E+05 -1.766825E+02 -1.575019E+02
       114  24  3.927058E+05  6.274456E+04  4.734297E+02  1.572308E+05  3.683089E+02 -8.136363E+02
       114  25  3.799442E+05  5.799384E+04 -2.408526E+03  1.537153E+05 -1.229689E+03  3.062051E+02
       114  26  3.974352E+05  6.044013E+04  9.745955E+02  1.543479E+05 -6.853252E+02 -3.494858E+02
       114  27  4.090373E+05  6.886422E+04  4.560705E+03  1.617280E+05 -1.407398E+02 -1.005774E+03
       115   1  3.616635E+05  5.110123E+04 -7.411890E+03  1.487129E+05 -1.125089E+03  1.029948E+03
       115   2  3.500289E+05  4.265780E+04 -1.083695E+04  1.413166E+05 -1.773042E+03  1.648295E+03
       115   3  3.325184E+05  4.022672E+04 -1.397602E+04  1.406809E+05 -2.421020E+03  2.266978E+03
       115   4  3.927077E+05  6.274621E+04  5.102109E+02  1.572359E+05 -6.157451E+02  1.222190E+03
       115   5  3.956483E+05  5.975878E+04  7.266275E+02  1.538485E+05 -1.263520E+03  1.840581E+03
       115   6  3.927127E+05  6.278358E+04  1.228874E+03  1.572217E+05 -1.911329E+03  2.459305E+03
       115   7  4.237528E+05  7.439125E+04  8.432233E+03  1.657593E+05 -1.063735E+02  1.414443E+03
       115   8  4.412696E+05  7.685986E+04  1.229002E+04  1.663812E+05 -7.539586E+02  2.032882E+03
       115   9  4.529102E+05  8.534059E+04  1.643341E+04  1.737638E+05 -1.401587E+03  2.651651E+03
       115  10  3.616635E+05  5.110123E+04 -7.411894E+03  1.487129E+05  5.756010E-09  4.338241E-09
       115  11  3.500289E+05  4.265780E+04 -1.083696E+04  1.413166E+05  3.856373E-10 -4.541970E-09
       115  12  3.325184E+05  4.022671E+04 -1.397604E+04  1.406809E+05 -6.333785E-09 -7.868065E-09
       115  13  3.927077E+05  6.274620E+04  5.102074E+02  1.572359E+05 -2.312577E-09  3.738583E-09
       115  14  3.956483E+05  5.975878E+04  7.266181E+02  1.538485E+05  3.509900E-10  1.939717E-09
       115  15  3.927126E+05  6.278357E+04  1.228856E+03  1.572217E+05  3.032865E-09  7.799660E-09
       115  16  4.237528E+05  7.439124E+04  8.432230E+03  1.657593E+05 -7.587337E-09 -9.292822E-11
       115  17  4.412696E+05  7.685986E+04  1.229001E+04  1.663812E+05  6.583114E-09  1.153677E-08
       115  18  4.529102E+05  8.534058E+04  1.643339E+04  1.737638E+05  1.226902E-08  8.197069E-09
       115  19  3.616635E+05  5.110123E+04 -7.411890E+03  1.487129E+05  1.125089E+03 -1.029948E+03
       115  20  3.500289E+05  4.265780E+04 -1.083695E+04  1.413166E+05  1.773042E+03 -1.648295E+03
       115  21  3.325184E+05  4.022672E+04 -1.397602E+04  1.406809E+05  2.421020E+03 -2.266978E+03
       115  22  3.927077E+05  6.274621E+04  5.102109E+02  1.572359E+05  6.157451E+02 -1.222190E+03
       115  23  3.956483E+05  5.975878E+04  7.266275E+02  1.538485E+05  1.263520E+03 -1.840581E+03
       115  24  3.927127E+05  6.278358E+04  1.228874E+03  1.572217E+05  1.911329E+03 -2.459305E+03
       115  25  4.237528E+05  7.439125E+04  8.432233E+03  1.657593E+05  1.063735E+02 -1.414443E+03
       115  26  4.412696E+05  7.685986E+04  1.229002E+04  1.663812E+05  7.539586E+02 -2.032882E+03
       115  27  4.529102E+05  8.534059E+04  1.643341E+04  1.737638E+05  1.401587E+03 -2.651651E+03
       116   1  3.177271E+05  3.469258E+04 -1.745347E+04  1.367741E+05 -2.826196E+03  2.619902E+03
       116   2  3.059532E+05  2.607383E+04 -1.987746E+04  1.292051E+05 -4.531199E+03  2.841886E+03
       116   3  2.886494E+05  2.414118E+04 -2.105812E+04  1.283173E+05 -6.231242E+03  3.051134E+03
       116   4  3.927603E+05  6.272989E+04  1.600998E+03  1.572806E+05 -2.311087E+03  2.814252E+03
       116   5  3.955650E+05  5.967524E+04  2.839967E+03  1.538307E+05 -4.024904E+03  3.032866E+03
       116   6  3.928416E+05  6.330846E+04  5.329205E+03  1.570619E+05 -5.733794E+03  3.238734E+03
       116   7  4.677994E+05  9.076767E+04  2.065510E+04  1.777895E+05 -1.795908E+03  3.008628E+03
       116   8  4.851849E+05  9.327726E+04  2.555680E+04  1.784595E+05 -3.518527E+03  3.223878E+03
       116   9  4.970444E+05  1.024765E+05  3.171566E+04  1.858108E+05 -5.236255E+03  3.426368E+03
       116  10  3.177271E+05  3.469257E+04 -1.745350E+04  1.367741E+05  7.751090E-09 -2.849204E-09
       116  11  3.059532E+05  2.607381E+04 -1.987751E+04  1.292051E+05  2.853594E-09 -4.717378E-09
       116  12  2.886493E+05  2.414116E+04 -2.105821E+04  1.283173E+05 -1.720152E-09 -4.569448E-09
       116  13  3.927603E+05  6.272988E+04  1.600973E+03  1.572806E+05  2.744539E-09 -1.062417E-10
       116  14  3.955650E+05  5.967523E+04  2.839920E+03  1.538307E+05  3.587767E-09  6.281424E-09
       116  15  3.928416E+05  6.330844E+04  5.329124E+03  1.570619E+05 -2.605692E-09 -4.835014E-09
       116  16  4.677994E+05  9.076766E+04  2.065507E+04  1.777895E+05  2.296003E-09  8.295540E-09
       116  17  4.851849E+05  9.327725E+04  2.555676E+04  1.784595E+05  3.755756E-09  3.199151E-09
       116  18  4.970444E+05  1.024764E+05  3.171559E+04  1.858108E+05  2.196106E-09  3.769995E-09
       116  19  3.177271E+05  3.469258E+04 -1.745347E+04  1.367741E+05  2.826196E+03 -2.619902E+03
       116  20  3.059532E+05  2.607383E+04 -1.987746E+04  1.292051E+05  4.531199E+03 -2.841886E+03
       116  21  2.886494E+05  2.414118E+04 -2.105812E+04  1.283173E+05  6.231242E+03 -3.051134E+03
       116  22  3.927603E+05  6.272989E+04  1.600998E+03  1.572806E+05  2.311087E+03 -2.814252E+03
       116  23  3.955650E+05  5.967524E+04  2.839967E+03  1.538307E+05  4.024904E+03 -3.032866E+03
       116  24  3.928416E+05  6.330846E+04  5.329205E+03  1.570619E+05  5.733794E+03 -3.238734E+03
       116  25  4.677994E+05  9.076767E+04  2.065510E+04  1.777895E+05  1.795908E+03 -3.008628E+03
       116  26  4.851849E+05  9.327726E+04  2.555680E+04  1.784595E+05  3.518527E+03 -3.223878E+03
       116  27  4.970444E+05  1.024765E+05  3.171566E+04  1.858108E+05  5.236255E+03 -3.426368E+03
       117   1  2.732483E+05  1.862740E+04 -2.331423E+04  1.258794E+05 -7.481947E+03  3.126151E+03
       117   2  2.613373E+05  8.263059E+03 -2.164812E+04  1.164552E+05 -1.388479E+04  1.546265E+03
       117   3  2.473600E+05  1.235370E+04 -1.313430E+04  1.119201E+05 -2.018373E+04 -3.083045E+02
       117   4  3.932499E+05  6.245139E+04  6.934907E+03  1.576406E+05 -6.896831E+03  3.346799E+03
       117   5  3.947950E+05  5.894638E+04  1.231158E+04  1.537848E+05 -1.348633E+04  1.696418E+03
       117   6  3.943098E+05  6.993182E+04  2.468266E+04  1.548178E+05 -1.997209E+04 -2.287229E+02
       117   7  5.132650E+05  1.062760E+05  3.718278E+04  1.894071E+05 -6.311593E+03  3.567490E+03
       117   8  5.282701E+05  1.096310E+05  4.626984E+04  1.911216E+05 -1.308776E+04  1.846608E+03
       117   9  5.412813E+05  1.275121E+05  6.249798E+04  1.977251E+05 -1.976039E+04 -1.491180E+02
       117  10  2.732482E+05  1.862738E+04 -2.331436E+04  1.258794E+05  6.911426E-09  1.758865E-11
       117  11  2.613371E+05  8.263005E+03 -2.164849E+04  1.164552E+05 -1.359637E-10  6.718759E-10
       117  12  2.473595E+05  1.235359E+04 -1.313506E+04  1.119201E+05 -3.005091E-09 -2.656498E-09
       117  13  3.932498E+05  6.245137E+04  6.934797E+03  1.576406E+05  6.561868E-10 -4.871132E-09
       117  14  3.947948E+05  5.894632E+04  1.231124E+04  1.537848E+05  8.301266E-09  6.483709E-09
       117  15  3.943093E+05  6.993171E+04  2.468191E+04  1.548178E+05  7.557053E-09  3.306367E-09
       117  16  5.132650E+05  1.062759E+05  3.718268E+04  1.894071E+05 -6.669172E-09 -5.172607E-09
       117  17  5.282699E+05  1.096309E+05  4.626952E+04  1.911216E+05  6.362947E-09 -4.348248E-09
       117  18  5.412808E+05  1.275120E+05  6.249725E+04  1.977251E+05  8.650686E-09  2.684634E-10
       117  19  2.732483E+05  1.862740E+04 -2.331423E+04  1.258794E+05  7.481947E+03 -3.126151E+03
       117  20  2.613373E+05  8.263059E+03 -2.164812E+04  1.164552E+05  1.388479E+04 -1.546265E+03
       117  21  2.473600E+05  1.235370E+04 -1.313430E+04  1.119201E+05  2.018373E+04  3.083045E+02
       117  22  3.932499E+05  6.245139E+04  6.934907E+03  1.576406E+05  6.896831E+03 -3.346799E+03
       117  23  3.947950E+05  5.894638E+04  1.231158E+04  1.537848E+05  1.348633E+04 -1.696418E+03
       117  24  3.943098E+05  6.993182E+04  2.468266E+04  1.548178E+05  1.997209E+04  2.287229E+02
       117  25  5.132650E+05  1.062760E+05  3.718278E+04  1.894071E+05  6.311593E+03 -3.567490E+03
       117  26  5.282701E+05  1.096310E+05  4.626984E+04  1.911216E+05  1.308776E+04 -1.846608E+03
       117  27  5.412813E+05  1.275121E+05  6.249798E+04  1.977251E+05  1.976039E+04  1.491180E+02
       118   1  2.247656E+05  7.065357E+03 -1.070504E+04  1.274160E+05 -2.635745E+04 -1.382853E+03
       118   2  2.162620E+05 -2.397569E+04  7.049200E+03  9.545376E+04 -5.129041E+04 -1.064856E+04
       118   3  2.433148E+05  5.249697E+04  7.117085E+04  4.393178E+04 -7.425097E+04 -2.514565E+04
       118   4  3.982783E+05  5.880065E+04  3.072682E+04  1.614312E+05 -2.451907E+04 -6.892721E+02
       118   5  3.867366E+05  5.110241E+04  5.248774E+04  1.537190E+05 -5.298873E+04 -1.128997E+04
       118   6  4.114382E+05  1.515974E+05  1.234079E+05  1.264508E+05 -7.948611E+04 -2.712367E+04
       118   7  5.718209E+05  1.105358E+05  7.215677E+04  1.954538E+05 -2.268011E+04  4.423417E+00
       118   8  5.572390E+05  1.261852E+05  9.792348E+04  2.119995E+05 -5.468753E+04 -1.193165E+04
       118   9  5.795900E+05  2.507129E+05  1.756418E+05  2.089928E+05 -8.472272E+04 -2.910300E+04
       118  10  2.247649E+05  7.065168E+03 -1.070635E+04  1.274160E+05  6.532204E-09  3.332594E-09
       118  11  2.162591E+05 -2.397651E+04  7.044045E+03  9.545332E+04 -3.771486E-10 -4.346973E-10
       118  12  2.433087E+05  5.249481E+04  7.115930E+04  4.393028E+04 -6.295070E-09  2.297514E-09
       118  13  3.982776E+05  5.880049E+04  3.072569E+04  1.614312E+05  4.520290E-09 -3.430755E-09
       118  14  3.867336E+05  5.110152E+04  5.248223E+04  1.537185E+05 -1.155894E-09 -9.876896E-10
       118  15  4.114313E+05  1.515949E+05  1.233947E+05  1.264491E+05 -1.956018E-10  3.439686E-10
       118  16  5.718204E+05  1.105356E+05  7.215581E+04  1.954538E+05 -4.726483E-09 -4.109711E-09
       118  17  5.572358E+05  1.261843E+05  9.791760E+04  2.119990E+05 -2.888988E-09 -1.219459E-09
       118  18  5.795820E+05  2.507101E+05  1.756267E+05  2.089909E+05  5.111670E-09  1.358618E-09
       118  19  2.247656E+05  7.065357E+03 -1.070504E+04  1.274160E+05  2.635745E+04  1.382853E+03
       118  20  2.162620E+05 -2.397569E+04  7.049200E+03  9.545376E+04  5.129041E+04  1.064856E+04
       118  21  2.433148E+05  5.249697E+04  7.117085E+04  4.393178E+04  7.425097E+04  2.514565E+04
       118  22  3.982783E+05  5.880065E+04  3.072682E+04  1.614312E+05  2.451907E+04  6.892721E+02
       118  23  3.867366E+05  5.110241E+04  5.248774E+04  1.537190E+05  5.298873E+04  1.128997E+04
       118  24  4.114382E+05  1.515974E+05  1.234079E+05  1.264508E+05  7.948611E+04  2.712367E+04
       118  25  5.718209E+05  1.105358E+05  7.215677E+04  1.954538E+05  2.268011E+04 -4.423417E+00
       118  26  5.572390E+05  1.261852E+05  9.792348E+04  2.119995E+05  5.468753E+04  1.193165E+04
       118  27  5.795900E+05  2.507129E+05  1.756418E+05  2.089928E+05  8.472272E+04  2.910300E+04
       119   1 -3.195562E+02 -5.221154E+05 -2.621841E+03 -2.096391E+02 -6.216747E+01  1.852538E+02
       119   2 -7.384785E+02 -5.240414E+05 -3.646947E+03  3.752408E+02 -1.216860E+02  1.592328E+03
       119   3 -1.896291E+03 -5.263409E+05 -5.774572E+03 -4.207872E+02 -2.115885E+02  2.999369E+03
       119   4 -1.516097E+01 -5.208816E+05 -2.336314E+03 -3.066297E+02 -6.220614E+01  2.094790E+02
       119   5  9.001867E+01 -5.206934E+05 -2.854161E+03  3.834003E+02 -1.217524E+02  1.634049E+03
       119   6 -5.467202E+02 -5.208819E+05 -4.486670E+03 -3.074756E+02 -2.116820E+02  3.058591E+03
       119   7  2.892341E+02 -5.196477E+05 -2.050787E+03 -4.036206E+02 -6.224481E+01  2.337042E+02
       119   8  9.185150E+02 -5.173455E+05 -2.061376E+03  3.915600E+02 -1.218188E+02  1.675771E+03
       119   9  8.028489E+02 -5.154229E+05 -3.198771E+03 -1.941631E+02 -2.117756E+02  3.117814E+03
       119  10 -3.195562E+02 -5.221154E+05 -2.621841E+03 -2.096390E+02 -1.642070E-09  3.271349E-11
       119  11 -7.384792E+02 -5.240414E+05 -3.646952E+03  3.752409E+02  2.550418E-09  1.095032E-09
       119  12 -1.896294E+03 -5.263409E+05 -5.774589E+03 -4.207866E+02 -2.318178E-10  2.326597E-09
       119  13 -1.516099E+01 -5.208816E+05 -2.336314E+03 -3.066297E+02 -1.224233E-10  1.110634E-11
       119  14  9.001794E+01 -5.206934E+05 -2.854166E+03  3.834005E+02  4.180786E-09 -6.619475E-10
       119  15 -5.467227E+02 -5.208819E+05 -4.486688E+03 -3.074751E+02  1.234967E-09 -9.446222E-09
       119  16  2.892341E+02 -5.196477E+05 -2.050788E+03 -4.036206E+02 -7.634863E-09 -1.774423E-09
       119  17  9.185142E+02 -5.173455E+05 -2.061381E+03  3.915601E+02 -2.091352E-09 -4.905122E-09
       119  18  8.028462E+02 -5.154229E+05 -3.198789E+03 -1.941625E+02  8.935257E-10 -2.388678E-09
       119  19 -3.195562E+02 -5.221154E+05 -2.621841E+03 -2.096391E+02  6.216747E+01 -1.852538E+02
       119  20 -7.384785E+02 -5.240414E+05 -3.646947E+03  3.752408E+02  1.216860E+02 -1.592328E+03
       119  21 -1.896291E+03 -5.263409E+05 -5.774572E+03 -4.207872E+02  2.115885E+02 -2.999369E+03
       119  22 -1.516097E+01 -5.208816E+05 -2.336314E+03 -3.066297E+02  6.220614E+01 -2.094790E+02
       119  23  9.001867E+01 -5.206934E+05 -2.854161E+03  3.834003E+02  1.217524E+02 -1.634049E+03
       119  24 -5.467202E+02 -5.208819E+05 -4.486670E+03 -3.074756E+02  2.116820E+02 -3.058591E+03
       119  25  2.892341E+02 -5.196477E+05 -2.050787E+03 -4.036206E+02  6.224481E+01 -2.337042E+02
       119  26  9.185150E+02 -5.173455E+05 -2.061376E+03  3.915600E+02  1.218188E+02 -1.675771E+03
       119  27  8.028489E+02 -5.154229E+05 -3.198771E+03 -1.941631E+02  2.117756E+02 -3.117814E+03
       120   1 -1.643069E+03 -5.292536E+05 -7.473384E+03  6.137012E+02 -2.746329E+02  3.890103E+03
       120   2 -1.721219E+03 -5.301520E+05 -1.157321E+04 -7.375728E+01 -3.694367E+02  8.595839E+03
       120   3 -8.982372E+03 -5.334651E+05 -2.053545E+04 -2.141328E+03 -4.375915E+02  1.330158E+04
       120   4  3.215025E+02 -5.213340E+05 -5.592243E+03 -3.036595E+02 -2.747305E+02  3.948079E+03
       120   5  7.574337E+02 -5.201292E+05 -9.199832E+03  3.814124E+02 -3.694975E+02  8.638533E+03
       120   6 -5.986920E+03 -5.213365E+05 -1.765914E+04 -3.136297E+02 -4.375948E+02  1.332901E+04
       120   7  2.286073E+03 -5.134142E+05 -3.711105E+03 -1.221032E+03 -2.748283E+02  4.006057E+03
       120   8  3.236080E+03 -5.101063E+05 -6.826457E+03  8.365895E+02 -3.695582E+02  8.681227E+03
       120   9 -2.991466E+03 -5.092077E+05 -1.478285E+04  1.514105E+03 -4.375979E+02  1.335644E+04
       120  10 -1.643073E+03 -5.292537E+05 -7.473412E+03  6.137021E+02 -2.127998E-09  3.081828E-09
       120  11 -1.721239E+03 -5.301521E+05 -1.157335E+04 -7.375472E+01 -9.273796E-10  1.396077E-09
       120  12 -8.982420E+03 -5.334653E+05 -2.053578E+04 -2.141324E+03 -1.927910E-09 -1.792598E-10
       120  13  3.214983E+02 -5.213340E+05 -5.592272E+03 -3.036586E+02 -1.680633E-10 -1.077010E-09
       120  14  7.574135E+02 -5.201293E+05 -9.199973E+03  3.814150E+02 -2.432256E-09 -2.406099E-09
       120  15 -5.986968E+03 -5.213367E+05 -1.765948E+04 -3.136251E+02 -2.798834E-09 -8.336736E-09
       120  16  2.286068E+03 -5.134142E+05 -3.711136E+03 -1.221031E+03  1.184259E-09 -8.027581E-09
       120  17  3.236060E+03 -5.101064E+05 -6.826599E+03  8.365921E+02  1.715766E-09 -7.431340E-10
       120  18 -2.991514E+03 -5.092079E+05 -1.478318E+04  1.514110E+03 -2.450192E-09  2.916884E-09
       120  19 -1.643069E+03 -5.292536E+05 -7.473384E+03  6.137012E+02  2.746329E+02 -3.890103E+03
       120  20 -1.721219E+03 -5.301520E+05 -1.157321E+04 -7.375728E+01  3.694367E+02 -8.595839E+03
       120  21 -8.982372E+03 -5.334651E+05 -2.053545E+04 -2.141328E+03  4.375915E+02 -1.330158E+04
       120  22  3.215025E+02 -5.213340E+05 -5.592243E+03 -3.036595E+02  2.747305E+02 -3.948079E+03
       120  23  7.574337E+02 -5.201292E+05 -9.199832E+03  3.814124E+02  3.694975E+02 -8.638533E+03
       120  24 -5.986920E+03 -5.213365E+05 -1.765914E+04 -3.136297E+02  4.375948E+02 -1.332901E+04
       120  25  2.286073E+03 -5.134142E+05 -3.711105E+03 -1.221032E+03  2.748283E+02 -4.006057E+03
       120  26  3.236080E+03 -5.101063E+05 -6.826457E+03  8.365895E+02  3.695582E+02 -8.681227E+03
       120  27 -2.991466E+03 -5.092077E+05 -1.478285E+04  1.514105E+03  4.375979E+02 -1.335644E+04
       121   1 -2.227247E+02 -5.400618E+05 -2.514288E+04  8.616932E+03 -5.557425E+02  1.648235E+04
       121   2  3.466098E+03 -5.315490E+05 -3.898318E+04 -6.236838E+03 -6.436409E+02  3.559192E+04
       121   3 -6.804775E+04 -5.443361E+05 -8.407332E+04 -2.251816E+04 -2.846814E+02  5.470191E+04
       121   4  3.409994E+03 -5.255201E+05 -2.169701E+04 -2.859307E+02 -5.562331E+02  1.664445E+04
       121   5  7.560478E+03 -5.149009E+05 -3.504418E+04  3.759638E+02 -6.431102E+02  3.549670E+04
       121   6 -6.344682E+04 -5.255368E+05 -7.946192E+04 -3.902571E+02 -2.821787E+02  5.434945E+04
       121   7  7.042995E+03 -5.109780E+05 -1.825111E+04 -9.189004E+03 -5.567284E+02  1.680657E+04
       121   8  1.165500E+04 -4.982524E+05 -3.110518E+04  6.988944E+03 -6.425815E+02  3.540147E+04
       121   9 -5.884408E+04 -5.067361E+05 -7.485029E+04  2.173831E+04 -2.797013E+02  5.399697E+04
       121  10 -2.227981E+02 -5.400621E+05 -2.514340E+04  8.616940E+03  2.242613E-09  5.587525E-09
       121  11  3.465757E+03 -5.315503E+05 -3.898557E+04 -6.236820E+03  6.664112E-09  4.700681E-09
       121  12 -6.804856E+04 -5.443393E+05 -8.407895E+04 -2.251814E+04  1.394691E-09 -1.971303E-10
       121  13  3.409919E+03 -5.255204E+05 -2.169753E+04 -2.859233E+02  1.469712E-09  4.041421E-11
       121  14  7.560139E+03 -5.149022E+05 -3.504656E+04  3.759822E+02  1.219137E-09 -1.327488E-09
       121  15 -6.344762E+04 -5.255400E+05 -7.946748E+04 -3.902448E+02 -1.841776E-09 -4.467140E-09
       121  16  7.042919E+03 -5.109783E+05 -1.825164E+04 -9.188996E+03 -2.308140E-09 -7.261665E-09
       121  17  1.165467E+04 -4.982538E+05 -3.110754E+04  6.988962E+03  1.227089E-09 -4.924773E-09
       121  18 -5.884486E+04 -5.067393E+05 -7.485578E+04  2.173832E+04  1.001351E-09  1.520794E-09
       121  19 -2.227247E+02 -5.400618E+05 -2.514288E+04  8.616932E+03  5.557425E+02 -1.648235E+04
       121  20  3.466098E+03 -5.315490E+05 -3.898318E+04 -6.236838E+03  6.436409E+02 -3.559192E+04
       121  21 -6.804775E+04 -5.443361E+05 -8.407332E+04 -2.251816E+04  2.846814E+02 -5.470191E+04
       121  22  3.409994E+03 -5.255201E+05 -2.169701E+04 -2.859307E+02  5.562331E+02 -1.664445E+04
       121  23  7.560478E+03 -5.149009E+05 -3.504418E+04  3.759638E+02  6.431102E+02 -3.549670E+04
       121  24 -6.344682E+04 -5.255368E+05 -7.946192E+04 -3.902571E+02  2.821787E+02 -5.434945E+04
       121  25  7.042995E+03 -5.109780E+05 -1.825111E+04 -9.189004E+03  5.567284E+02 -1.680657E+04
       121  26  1.165500E+04 -4.982524E+05 -3.110518E+04  6.988944E+03  6.425815E+02 -3.540147E+04
       121  27 -5.884408E+04 -5.067361E+05 -7.485029E+04  2.173831E+04  2.797013E+02 -5.399697E+04
       122   1 -5.873822E+06 -1.900664E+06 -9.443322E+05 -2.156417E+06 -3.587573E+05 -8.382460E+04
       122   2 -5.689828E+06 -1.636710E+06 -6.683264E+05 -2.088486E+06 -2.345184E+05  8.553260E+04
       122   3 -5.538954E+06 -1.517938E+06 -5.464517E+05 -2.031681E+06 -8.034788E+04  1.764894E+05
       122   4 -2.979901E+06 -7.171217E+05 -1.764613E+05 -1.270200E+06 -1.312503E+05  2.487371E+03
       122   5 -2.965594E+06 -5.887239E+05 -8.157441E+04 -1.290300E+06 -1.290943E+05  1.254092E+05
       122   6 -2.959795E+06 -5.808423E+05 -4.307221E+04 -1.321590E+06 -9.714290E+04  1.700505E+05
       122   7 -7.768281E+04  4.673847E+05  5.908828E+05 -3.800508E+05  9.742493E+04  8.932397E+04
       122   8 -2.336988E+05  4.600577E+05  5.047924E+05 -4.887881E+05 -2.316683E+04  1.654934E+05
       122   9 -3.736400E+05  3.568401E+05  4.600202E+05 -6.087386E+05 -1.140137E+05  1.635839E+05
       122  10 -5.873964E+06 -1.900707E+06 -9.445900E+05 -2.156441E+06  3.296028E-09 -7.576955E-10
       122  11 -5.689889E+06 -1.636733E+06 -6.684441E+05 -2.088470E+06  2.819412E-09 -5.821504E-10
       122  12 -5.538970E+06 -1.517973E+06 -5.465223E+05 -2.031670E+06  1.541048E-09 -8.237394E-10
       122  13 -2.979920E+06 -7.171264E+05 -1.764938E+05 -1.270200E+06  1.659518E-09  1.972901E-09
       122  14 -2.965616E+06 -5.887452E+05 -8.163525E+04 -1.290287E+06 -2.624939E-09 -6.755866E-10
       122  15 -2.959813E+06 -5.808758E+05 -4.314417E+04 -1.321576E+06  8.116457E-10 -2.104991E-09
       122  16 -7.769514E+04  4.673736E+05  5.908499E+05 -3.800578E+05 -3.038508E-09  5.128765E-10
       122  17 -2.337068E+05  4.600282E+05  5.047400E+05 -4.887850E+05 -2.239868E-09  1.200600E-09
       122  18 -3.736611E+05  3.568079E+05  4.599456E+05 -6.087236E+05 -3.092644E-09  9.181162E-10
       122  19 -5.873822E+06 -1.900664E+06 -9.443322E+05 -2.156417E+06  3.587573E+05  8.382460E+04
       122  20 -5.689828E+06 -1.636710E+06 -6.683264E+05 -2.088486E+06  2.345184E+05 -8.553260E+04
       122  21 -5.538954E+06 -1.517938E+06 -5.464517E+05 -2.031681E+06  8.034788E+04 -1.764894E+05
       122  22 -2.979901E+06 -7.171217E+05 -1.764613E+05 -1.270200E+06  1.312503E+05 -2.487371E+03
       122  23 -2.965594E+06 -5.887239E+05 -8.157441E+04 -1.290300E+06  1.290943E+05 -1.254092E+05
       122  24 -2.959795E+06 -5.808423E+05 -4.307221E+04 -1.321590E+06  9.714290E+04 -1.700505E+05
       122  25 -7.768281E+04  4.673847E+05  5.908828E+05 -3.800508E+05 -9.742493E+04 -8.932397E+04
       122  26 -2.336988E+05  4.600577E+05  5.047924E+05 -4.887881E+05  2.316683E+04 -1.654934E+05
       122  27 -3.736400E+05  3.568401E+05  4.600202E+05 -6.087386E+05  1.140137E+05 -1.635839E+05
       123   1 -5.392305E+06 -1.481451E+06 -5.075926E+05 -2.002811E+06 -8.504171E+04  1.666901E+05
       123   2 -5.213229E+06 -1.383238E+06 -4.446145E+05 -1.928629E+06 -6.438784E+04  1.676379E+05
       123   3 -5.003404E+06 -1.325839E+06 -3.968126E+05 -1.892812E+06 -4.140519E+04  1.623740E+05
       123   4 -2.953651E+06 -5.844146E+05 -3.266489E+04 -1.319338E+06 -8.960665E+04  1.648870E+05
       123   5 -2.969339E+06 -5.616820E+05 -1.731494E+04 -1.301325E+06 -7.860534E+04  1.622017E+05
       123   6 -2.952380E+06 -5.778144E+05 -9.411941E+03 -1.321681E+06 -6.528625E+04  1.533147E+05
       123   7 -5.087664E+05  3.131786E+05  4.419990E+05 -6.333447E+05 -9.419101E+04  1.630767E+05
       123   8 -7.201635E+05  2.603434E+05  4.097740E+05 -6.718943E+05 -9.287830E+04  1.567447E+05
       123   9 -8.969457E+05  1.705936E+05  3.778160E+05 -7.487839E+05 -8.925224E+04  1.442237E+05
       123  10 -5.392320E+06 -1.481483E+06 -5.076583E+05 -2.002800E+06  2.824117E-09  2.812403E-11
       123  11 -5.213240E+06 -1.383270E+06 -4.446750E+05 -1.928621E+06 -1.021588E-09 -1.438408E-09
       123  12 -5.003413E+06 -1.325867E+06 -3.968653E+05 -1.892807E+06 -2.587346E-10 -1.207557E-09
       123  13 -2.953667E+06 -5.844459E+05 -3.273097E+04 -1.319326E+06 -9.572242E-11 -5.571954E-10
       123  14 -2.969353E+06 -5.617119E+05 -1.737589E+04 -1.301315E+06 -3.762700E-09 -2.724291E-09
       123  15 -2.952391E+06 -5.778408E+05 -9.464034E+03 -1.321673E+06  7.000077E-10 -1.472404E-09
       123  16 -5.087830E+05  3.131478E+05  4.419324E+05 -6.333324E+05 -1.963548E-09 -9.871969E-10
       123  17 -7.201793E+05  2.603148E+05  4.097118E+05 -6.718826E+05 -1.162542E-09  1.489581E-10
       123  18 -8.969598E+05  1.705692E+05  3.777620E+05 -7.487736E+05  5.445075E-10  8.927326E-10
       123  19 -5.392305E+06 -1.481451E+06 -5.075926E+05 -2.002811E+06  8.504171E+04 -1.666901E+05
       123  20 -5.213229E+06 -1.383238E+06 -4.446145E+05 -1.928629E+06  6.438784E+04 -1.676379E+05
       123  21 -5.003404E+06 -1.325839E+06 -3.968126E+05 -1.892812E+06  4.140519E+04 -1.623740E+05
       123  22 -2.953651E+06 -5.844146E+05 -3.266489E+04 -1.319338E+06  8.960665E+04 -1.648870E+05
       123  23 -2.969339E+06 -5.616820E+05 -1.731494E+04 -1.301325E+06  7.860534E+04 -1.622017E+05
       123  24 -2.952380E+06 -5.778144E+05 -9.411941E+03 -1.321681E+06  6.528625E+04 -1.533147E+05
       123  25 -5.087664E+05  3.131786E+05  4.419990E+05 -6.333447E+05  9.419101E+04 -1.630767E+05
       123  26 -7.201635E+05  2.603434E+05  4.097740E+05 -6.718943E+05  9.287830E+04 -1.567447E+05
       123  27 -8.969457E+05  1.705936E+05  3.778160E+05 -7.487839E+05  8.925224E+04 -1.442237E+05
       124   1 -4.871185E+06 -1.278128E+06 -3.684796E+05 -1.856640E+06 -3.751136E+04  1.535765E+05
       124   2 -4.689546E+06 -1.186724E+06 -3.274294E+05 -1.780582E+06 -2.896669E+04  1.396036E+05
       124   3 -4.472350E+06 -1.131170E+06 -2.884703E+05 -1.744975E+06 -2.023042E+04  1.250556E+05
       124   4 -2.951741E+06 -5.780380E+05 -7.097144E+03 -1.321750E+06 -6.057858E+04  1.448375E+05
       124   5 -2.969404E+06 -5.598254E+05 -3.949848E+03 -1.301607E+06 -5.292401E+04  1.305494E+05
       124   6 -2.951385E+06 -5.772848E+05 -2.187927E+03 -1.321924E+06 -4.507918E+04  1.156866E+05
       124   7 -1.028396E+06  1.224032E+05  3.541456E+05 -7.853021E+05 -8.372295E+04  1.360696E+05
       124   8 -1.246135E+06  6.735231E+04  3.194168E+05 -8.213832E+05 -7.695300E+04  1.214683E+05
       124   9 -1.427983E+06 -2.318405E+04  2.840049E+05 -8.978999E+05 -6.999354E+04  1.062931E+05
       124  10 -4.871193E+06 -1.278153E+06 -3.685265E+05 -1.856635E+06 -5.580763E-10  4.837471E-11
       124  11 -4.689552E+06 -1.186745E+06 -3.274675E+05 -1.780579E+06  2.329234E-09  2.962312E-10
       124  12 -4.472355E+06 -1.131187E+06 -2.885004E+05 -1.744973E+06 -2.922702E-10 -6.746600E-10
       124  13 -2.951750E+06 -5.780615E+05 -7.143384E+03 -1.321743E+06  1.971422E-10  1.623742E-10
       124  14 -2.969411E+06 -5.598444E+05 -3.987077E+03 -1.301601E+06  7.366040E-10 -1.265488E-09
       124  15 -2.951391E+06 -5.772997E+05 -2.216848E+03 -1.321919E+06 -5.567648E-09 -1.949565E-09
       124  16 -1.028408E+06  1.223814E+05  3.540977E+05 -7.852929E+05  1.421272E-09  4.061577E-10
       124  17 -1.246145E+06  6.733491E+04  3.193780E+05 -8.213757E+05 -2.216728E-09 -3.913959E-10
       124  18 -1.427992E+06 -2.319748E+04  2.839745E+05 -8.978939E+05 -8.995871E-09 -3.832700E-09
       124  19 -4.871185E+06 -1.278128E+06 -3.684796E+05 -1.856640E+06  3.751136E+04 -1.535765E+05
       124  20 -4.689546E+06 -1.186724E+06 -3.274294E+05 -1.780582E+06  2.896669E+04 -1.396036E+05
       124  21 -4.472350E+06 -1.131170E+06 -2.884703E+05 -1.744975E+06  2.023042E+04 -1.250556E+05
       124  22 -2.951741E+06 -5.780380E+05 -7.097144E+03 -1.321750E+06  6.057858E+04 -1.448375E+05
       124  23 -2.969404E+06 -5.598254E+05 -3.949848E+03 -1.301607E+06  5.292401E+04 -1.305494E+05
       124  24 -2.951385E+06 -5.772848E+05 -2.187927E+03 -1.321924E+06  4.507918E+04 -1.156866E+05
       124  25 -1.028396E+06  1.224032E+05  3.541456E+05 -7.853021E+05  8.372295E+04 -1.360696E+05
       124  26 -1.246135E+06  6.735231E+04  3.194168E+05 -8.213832E+05  7.695300E+04 -1.214683E+05
       124  27 -1.427983E+06 -2.318405E+04  2.840049E+05 -8.978999E+05  6.999354E+04 -1.062931E+05
       125   1 -4.338809E+06 -1.082297E+06 -2.617637E+05 -1.707983E+06 -1.637813E+04  1.159095E+05
       125   2 -4.154295E+06 -9.902555E+05 -2.235429E+05 -1.630933E+06 -9.661443E+03  1.002032E+05
       125   3 -3.933580E+06 -9.342375E+05 -1.857892E+05 -1.595041E+06 -2.922995E+03  8.438982E+04
       125   4 -2.951182E+06 -5.773052E+05 -1.697058E+03 -1.322064E+06 -4.126514E+04  1.065367E+05
       125   5 -2.969164E+06 -5.590974E+05 -1.089691E+03 -1.301522E+06 -3.471444E+04  9.078252E+04
       125   6 -2.950960E+06 -5.768817E+05 -8.217250E+02 -1.322152E+06 -2.814224E+04  7.492118E+04
       125   7 -1.561538E+06 -7.213868E+04  2.582929E+05 -9.353390E+05 -6.621182E+04  9.714150E+04
       125   8 -1.782554E+06 -1.278088E+05  2.213106E+05 -9.715214E+05 -5.981891E+04  8.134251E+04
       125   9 -1.967313E+06 -2.194332E+05  1.841123E+05 -1.048855E+06 -5.340466E+04  6.543635E+04
       125  10 -4.338813E+06 -1.082312E+06 -2.617894E+05 -1.707982E+06 -7.358485E-09 -3.164364E-09
       125  11 -4.154298E+06 -9.902663E+05 -2.235620E+05 -1.630932E+06 -1.512125E-10 -3.073847E-10
       125  12 -3.933582E+06 -9.342451E+05 -1.858025E+05 -1.595041E+06  1.712227E-09  4.620292E-10
       125  13 -2.951187E+06 -5.773178E+05 -1.721546E+03 -1.322060E+06 -5.972510E-09 -1.707320E-09
       125  14 -2.969168E+06 -5.591065E+05 -1.107413E+03 -1.301520E+06  6.268461E-11 -3.488956E-10
       125  15 -2.950962E+06 -5.768880E+05 -8.337416E+02 -1.322150E+06  1.403562E-09  2.946495E-10
       125  16 -1.561545E+06 -7.214996E+04  2.582670E+05 -9.353338E+05 -2.169032E-09 -1.339412E-09
       125  17 -1.782560E+06 -1.278169E+05  2.212915E+05 -9.715175E+05  1.838952E-09 -2.569927E-10
       125  18 -1.967318E+06 -2.194385E+05  1.840989E+05 -1.048852E+06  3.842418E-10  7.175002E-10
       125  19 -4.338809E+06 -1.082297E+06 -2.617637E+05 -1.707983E+06  1.637813E+04 -1.159095E+05
       125  20 -4.154295E+06 -9.902555E+05 -2.235429E+05 -1.630933E+06  9.661443E+03 -1.002032E+05
       125  21 -3.933580E+06 -9.342375E+05 -1.857892E+05 -1.595041E+06  2.922995E+03 -8.438982E+04
       125  22 -2.951182E+06 -5.773052E+05 -1.697058E+03 -1.322064E+06  4.126514E+04 -1.065367E+05
       125  23 -2.969164E+06 -5.590974E+05 -1.089691E+03 -1.301522E+06  3.471444E+04 -9.078252E+04
       125  24 -2.950960E+06 -5.768817E+05 -8.217250E+02 -1.322152E+06  2.814224E+04 -7.492118E+04
       125  25 -1.561538E+06 -7.213868E+04  2.582929E+05 -9.353390E+05  6.621182E+04 -9.714150E+04
       125  26 -1.782554E+06 -1.278088E+05  2.213106E+05 -9.715214E+05  5.981891E+04 -8.134251E+04
       125  27 -1.967313E+06 -2.194332E+05  1.841123E+05 -1.048855E+06  5.340466E+04 -6.543635E+04
       126   1 -3.798421E+06 -8.848852E+05 -1.592945E+05 -1.557672E+06  8.083581E+02  7.506620E+04
       126   2 -3.611929E+06 -7.922911E+05 -1.216570E+05 -1.480043E+06  7.447602E+03  5.910476E+04
       126   3 -3.389073E+06 -7.360202E+05 -8.442527E+04 -1.444016E+06  1.408670E+04  4.311634E+04
       126   4 -2.950865E+06 -5.768851E+05 -8.293058E+02 -1.322253E+06 -2.447963E+04  6.557843E+04
       126   5 -2.968963E+06 -5.585940E+05 -1.062011E+03 -1.301474E+06 -1.788367E+04  4.960866E+04
       126   6 -2.950736E+06 -5.766196E+05 -1.669547E+03 -1.322312E+06 -1.128808E+04  3.361194E+04
       126   7 -2.102551E+06 -2.688183E+05  1.576105E+05 -1.086531E+06 -4.980473E+04  5.607676E+04
       126   8 -2.325564E+06 -3.248595E+05  1.195186E+05 -1.122733E+06 -4.324301E+04  4.010204E+04
       126   9 -2.512199E+06 -4.172024E+05  8.108004E+04 -1.200529E+06 -3.668188E+04  2.410039E+04
       126  10 -3.798422E+06 -8.848912E+05 -1.593051E+05 -1.557672E+06  4.006105E-10  4.841338E-10
       126  11 -3.611930E+06 -7.922948E+05 -1.216637E+05 -1.480043E+06  1.001354E-10  8.750196E-10
       126  12 -3.389074E+06 -7.360223E+05 -8.442915E+04 -1.444016E+06  1.269996E-09  6.561167E-10
       126  13 -2.950866E+06 -5.768899E+05 -8.384982E+02 -1.322251E+06 -3.011979E-10  4.335529E-10
       126  14 -2.968964E+06 -5.585968E+05 -1.067228E+03 -1.301474E+06 -7.870597E-10  3.360427E-10
       126  15 -2.950736E+06 -5.766209E+05 -1.671906E+03 -1.322312E+06 -3.136096E-10 -2.069532E-10
       126  16 -2.102555E+06 -2.688223E+05  1.576000E+05 -1.086529E+06 -2.749276E-10  1.026944E-09
       126  17 -2.325566E+06 -3.248618E+05  1.195120E+05 -1.122731E+06 -7.626259E-10  6.482953E-10
       126  18 -2.512201E+06 -4.172034E+05  8.107642E+04 -1.200528E+06 -1.578285E-09 -1.026629E-09
       126  19 -3.798421E+06 -8.848852E+05 -1.592945E+05 -1.557672E+06 -8.083581E+02 -7.506620E+04
       126  20 -3.611929E+06 -7.922911E+05 -1.216570E+05 -1.480043E+06 -7.447602E+03 -5.910476E+04
       126  21 -3.389073E+06 -7.360202E+05 -8.442527E+04 -1.444016E+06 -1.408670E+04 -4.311634E+04
       126  22 -2.950865E+06 -5.768851E+05 -8.293058E+02 -1.322253E+06  2.447963E+04 -6.557843E+04
       126  23 -2.968963E+06 -5.585940E+05 -1.062011E+03 -1.301474E+06  1.788367E+04 -4.960866E+04
       126  24 -2.950736E+06 -5.766196E+05 -1.669547E+03 -1.322312E+06  1.128808E+04 -3.361194E+04
       126  25 -2.102551E+06 -2.688183E+05  1.576105E+05 -1.086531E+06  4.980473E+04 -5.607676E+04
       126  26 -2.325564E+06 -3.248595E+05  1.195186E+05 -1.122733E+06  4.324301E+04 -4.010204E+04
       126  27 -2.512199E+06 -4.172024E+05  8.108004E+04 -1.200529E+06  3.668188E+04 -2.410039E+04
       127   1 -3.252967E+06 -6.864274E+05 -5.825352E+04 -1.406453E+06  1.800613E+04  3.380354E+04
       127   2 -3.065506E+06 -5.936513E+05 -2.185178E+04 -1.328560E+06  2.568614E+04  1.826545E+04
       127   3 -2.841823E+06 -5.374740E+05  1.329800E+04 -1.292455E+06  3.329351E+04  2.918374E+03
       127   4 -2.950752E+06 -5.766116E+05 -2.176233E+03 -1.322378E+06 -7.430351E+03  2.427875E+04
       127   5 -2.968808E+06 -5.583201E+05 -3.863919E+03 -1.301457E+06  5.445737E+02  8.852186E+03
       127   6 -2.950752E+06 -5.766928E+05 -7.042292E+03 -1.322343E+06  8.446269E+03 -6.383510E+03
       127   7 -2.648437E+06 -4.667856E+05  5.390116E+04 -1.238264E+06 -3.288036E+04  1.474887E+04
       127   8 -2.872100E+06 -5.229873E+05  1.412644E+04 -1.274350E+06 -2.460132E+04 -5.627241E+02
       127   9 -3.059668E+06 -6.159100E+05 -2.738040E+04 -1.352226E+06 -1.639630E+04 -1.568368E+04
       127  10 -3.252967E+06 -6.864287E+05 -5.825629E+04 -1.406453E+06 -2.799122E-10 -2.998738E-10
       127  11 -3.065506E+06 -5.936519E+05 -2.185366E+04 -1.328560E+06 -2.088077E-09 -1.341000E-09
       127  12 -2.841824E+06 -5.374743E+05  1.329589E+04 -1.292455E+06 -1.520482E-09  1.033054E-10
       127  13 -2.950753E+06 -5.766122E+05 -2.177443E+03 -1.322378E+06 -1.032518E-10 -3.320558E-10
       127  14 -2.968808E+06 -5.583202E+05 -3.864067E+03 -1.301457E+06  1.502490E-09  1.602317E-09
       127  15 -2.950752E+06 -5.766929E+05 -7.042503E+03 -1.322343E+06  3.871205E-10  1.091668E-09
       127  16 -2.648439E+06 -4.667861E+05  5.389871E+04 -1.238264E+06  9.602673E-10 -2.657485E-11
       127  17 -2.872100E+06 -5.229875E+05  1.412530E+04 -1.274350E+06 -5.017381E-10 -1.611004E-10
       127  18 -3.059669E+06 -6.159104E+05 -2.738137E+04 -1.352226E+06 -5.638843E-11  2.059996E-10
       127  19 -3.252967E+06 -6.864274E+05 -5.825352E+04 -1.406453E+06 -1.800613E+04 -3.380354E+04
       127  20 -3.065506E+06 -5.936513E+05 -2.185178E+04 -1.328560E+06 -2.568614E+04 -1.826545E+04
       127  21 -2.841823E+06 -5.374740E+05  1.329800E+04 -1.292455E+06 -3.329351E+04 -2.918374E+03
       127  22 -2.950752E+06 -5.766116E+05 -2.176233E+03 -1.322378E+06  7.430351E+03 -2.427875E+04
       127  23 -2.968808E+06 -5.583201E+05 -3.863919E+03 -1.301457E+06 -5.445737E+02 -8.852186E+03
       127  24 -2.950752E+06 -5.766928E+05 -7.042292E+03 -1.322343E+06 -8.446269E+03  6.383510E+03
       127  25 -2.648437E+06 -4.667856E+05  5.390116E+04 -1.238264E+06  3.288036E+04 -1.474887E+04
       127  26 -2.872100E+06 -5.229873E+05  1.412644E+04 -1.274350E+06  2.460132E+04  5.627241E+02
       127  27 -3.059668E+06 -6.159100E+05 -2.738040E+04 -1.352226E+06  1.639630E+04  1.568368E+04
       128   1 -2.705359E+06 -4.880924E+05  3.776043E+04 -1.255463E+06  3.851234E+04 -5.849107E+03
       128   2 -2.518845E+06 -3.949414E+05  6.942918E+04 -1.175758E+06  4.867632E+04 -1.894312E+04
       128   3 -2.297956E+06 -3.417134E+05  9.668056E+04 -1.136829E+06  5.788434E+04 -2.946766E+04
       128   4 -2.951187E+06 -5.765238E+05 -9.373130E+03 -1.322526E+06  1.326987E+04 -1.530015E+04
       128   5 -2.968416E+06 -5.591624E+05 -1.715091E+04 -1.301021E+06  2.744903E+04 -2.689583E+04
       128   6 -2.952115E+06 -5.825314E+05 -3.254408E+04 -1.320313E+06  4.067028E+04 -3.592161E+04
       128   7 -3.196948E+06 -6.649487E+05 -5.650590E+04 -1.389562E+06 -1.196163E+04 -2.474718E+04
       128   8 -3.417774E+06 -7.233645E+05 -1.037378E+05 -1.426199E+06  6.238249E+03 -3.484230E+04
       128   9 -3.605834E+06 -8.233117E+05 -1.617889E+05 -1.503618E+06  2.347557E+04 -4.236815E+04
       128  10 -2.705360E+06 -4.880929E+05  3.775757E+04 -1.255463E+06 -1.095083E-09 -6.994944E-11
       128  11 -2.518847E+06 -3.949424E+05  6.942405E+04 -1.175757E+06  9.501258E-12  5.661470E-10
       128  12 -2.297960E+06 -3.417152E+05  9.667262E+04 -1.136828E+06  1.741012E-09 -1.930673E-11
       128  13 -2.951187E+06 -5.765241E+05 -9.373900E+03 -1.322526E+06 -8.810962E-11  7.183203E-10
       128  14 -2.968417E+06 -5.591634E+05 -1.715368E+04 -1.301020E+06 -1.104814E-09 -5.118247E-10
       128  15 -2.952117E+06 -5.825333E+05 -3.254961E+04 -1.320312E+06  5.171676E-10 -1.008776E-09
       128  16 -3.196948E+06 -6.649494E+05 -5.650733E+04 -1.389563E+06  9.465900E-10  1.316521E-09
       128  17 -3.417775E+06 -7.233658E+05 -1.037401E+05 -1.426199E+06  6.419453E-10  9.417759E-10
       128  18 -3.605835E+06 -8.233138E+05 -1.617933E+05 -1.503617E+06 -6.447204E-10 -1.925863E-09
       128  19 -2.705359E+06 -4.880924E+05  3.776043E+04 -1.255463E+06 -3.851234E+04  5.849107E+03
       128  20 -2.518845E+06 -3.949414E+05  6.942918E+04 -1.175758E+06 -4.867632E+04  1.894312E+04
       128  21 -2.297956E+06 -3.417134E+05  9.668056E+04 -1.136829E+06 -5.788434E+04  2.946766E+04
       128  22 -2.951187E+06 -5.765238E+05 -9.373130E+03 -1.322526E+06 -1.326987E+04  1.530015E+04
       128  23 -2.968416E+06 -5.591624E+05 -1.715091E+04 -1.301021E+06 -2.744903E+04  2.689583E+04
       128  24 -2.952115E+06 -5.825314E+05 -3.254408E+04 -1.320313E+06 -4.067028E+04  3.592161E+04
       128  25 -3.196948E+06 -6.649487E+05 -5.650590E+04 -1.389562E+06  1.196163E+04  2.474718E+04
       128  26 -3.417774E+06 -7.233645E+05 -1.037378E+05 -1.426199E+06 -6.238249E+03  3.484230E+04
       128  27 -3.605834E+06 -8.233117E+05 -1.617889E+05 -1.503618E+06 -2.347557E+04  4.236815E+04
       129   1 -2.156928E+06 -2.975446E+05  1.142203E+05 -1.112340E+06  7.116088E+04 -3.432765E+04
       129   2 -1.999525E+06 -1.915656E+05  1.337263E+05 -9.835755E+05  6.136997E+04 -3.552681E+04
       129   3 -1.836928E+06 -2.010304E+05  1.376004E+05 -8.717070E+05  3.925112E+04 -3.910473E+03
       129   4 -2.957626E+06 -5.794136E+05 -4.294455E+04 -1.323278E+06  4.877348E+04 -4.272300E+04
       129   5 -2.964870E+06 -5.849219E+05 -8.119548E+04 -1.289250E+06  9.042169E+04 -2.464475E+04
       129   6 -2.977250E+06 -7.162146E+05 -1.760152E+05 -1.272144E+06  1.197314E+05  2.627661E+04
       129   7 -3.757662E+06 -8.612394E+05 -2.001379E+05 -1.533968E+06  2.641706E+04 -5.110770E+04
       129   8 -3.929238E+06 -9.781357E+05 -2.961664E+05 -1.594457E+06  1.194240E+05 -1.378574E+04
       129   9 -4.116221E+06 -1.231116E+06 -4.897082E+05 -1.671834E+06  2.000464E+05  5.637315E+04
       129  10 -2.156934E+06 -2.975472E+05  1.142086E+05 -1.112338E+06 -1.243890E-09 -9.393306E-10
       129  11 -1.999530E+06 -1.915680E+05  1.337168E+05 -9.835737E+05 -3.285075E-10 -2.603008E-10
       129  12 -1.836930E+06 -2.010308E+05  1.375974E+05 -8.717069E+05  3.191475E-10  7.508418E-11
       129  13 -2.957629E+06 -5.794162E+05 -4.295245E+04 -1.323276E+06  1.143620E-09 -4.189780E-10
       129  14 -2.964879E+06 -5.849248E+05 -8.121203E+04 -1.289248E+06  6.650101E-10  1.881830E-10
       129  15 -2.977265E+06 -7.162193E+05 -1.760436E+05 -1.272146E+06 -6.858626E-10  1.002165E-10
       129  16 -3.757663E+06 -8.612423E+05 -2.001441E+05 -1.533966E+06  1.454961E-09 -1.104560E-09
       129  17 -3.929253E+06 -9.781398E+05 -2.961937E+05 -1.594456E+06  1.529239E-09  2.739102E-10
       129  18 -4.116265E+06 -1.231130E+06 -4.897900E+05 -1.671843E+06 -8.371280E-10  1.311317E-10
       129  19 -2.156928E+06 -2.975446E+05  1.142203E+05 -1.112340E+06 -7.116088E+04  3.432765E+04
       129  20 -1.999525E+06 -1.915656E+05  1.337263E+05 -9.835755E+05 -6.136997E+04  3.552681E+04
       129  21 -1.836928E+06 -2.010304E+05  1.376004E+05 -8.717070E+05 -3.925112E+04  3.910473E+03
       129  22 -2.957626E+06 -5.794136E+05 -4.294455E+04 -1.323278E+06 -4.877348E+04  4.272300E+04
       129  23 -2.964870E+06 -5.849219E+05 -8.119548E+04 -1.289250E+06 -9.042169E+04  2.464475E+04
       129  24 -2.977250E+06 -7.162146E+05 -1.760152E+05 -1.272144E+06 -1.197314E+05 -2.627661E+04
       129  25 -3.757662E+06 -8.612394E+05 -2.001379E+05 -1.533968E+06 -2.641706E+04  5.110770E+04
       129  26 -3.929238E+06 -9.781357E+05 -2.961664E+05 -1.594457E+06 -1.194240E+05  1.378574E+04
       129  27 -4.116221E+06 -1.231116E+06 -4.897082E+05 -1.671834E+06 -2.000464E+05 -5.637315E+04
       130   1  1.320153E+05  2.594354E+04  4.405910E+04  1.595376E+04  5.630683E+04  1.896818E+03
       130   2  1.362479E+05 -4.768935E+04  7.011722E+02  4.016167E+03  3.801990E+04  5.639324E+03
       130   3  1.633972E+05 -3.931178E+04 -1.024215E+04 -1.804628E+04  1.973386E+04  5.256735E+03
       130   4  3.072369E+05  6.956821E+04  8.714682E+04 -8.293355E+03  5.966839E+04  1.896130E+03
       130   5  2.955811E+05 -8.294029E+03  3.841408E+04 -3.215508E+03  3.899931E+04  5.639155E+03
       130   6  3.072480E+05 -3.744953E+03  2.374319E+04 -8.262028E+03  1.833164E+04  5.256552E+03
       130   7  4.824877E+05  1.131928E+05  1.302326E+05 -3.254733E+04  6.303090E+04  1.895180E+03
       130   8  4.549377E+05  3.109967E+04  7.612526E+04 -1.044905E+04  3.997896E+04  5.638964E+03
       130   9  4.511180E+05  3.182075E+04  5.772715E+04  1.524500E+03  1.692909E+04  5.256324E+03
       130  10  1.320119E+05  2.594269E+04  4.405314E+04  1.595368E+04 -4.063344E-10 -2.560499E-10
       130  11  1.362463E+05 -4.768977E+04  6.983967E+02  4.015995E+03 -1.975473E-09  6.474820E-10
       130  12  1.633968E+05 -3.931191E+04 -1.024293E+04 -1.804636E+04 -4.277224E-10 -4.909027E-11
       130  13  3.072331E+05  6.956725E+04  8.714012E+04 -8.293446E+03 -2.044527E-09  5.943610E-10
       130  14  2.955795E+05 -8.294471E+03  3.841116E+04 -3.215685E+03 -8.634927E-10  5.108443E-10
       130  15  3.072476E+05 -3.745073E+03  2.374251E+04 -8.262105E+03  1.995044E-09 -7.051382E-10
       130  16  4.824834E+05  1.131917E+05  1.302252E+05 -3.254743E+04 -1.900869E-10  6.421594E-10
       130  17  4.549360E+05  3.109921E+04  7.612220E+04 -1.044923E+04  1.862341E-09  5.748428E-10
       130  18  4.511177E+05  3.182065E+04  5.772656E+04  1.524428E+03  6.554508E-10 -3.192263E-10
       130  19  1.320153E+05  2.594354E+04  4.405910E+04  1.595376E+04 -5.630683E+04 -1.896818E+03
       130  20  1.362479E+05 -4.768935E+04  7.011722E+02  4.016167E+03 -3.801990E+04 -5.639324E+03
       130  21  1.633972E+05 -3.931178E+04 -1.024215E+04 -1.804628E+04 -1.973386E+04 -5.256735E+03
       130  22  3.072369E+05  6.956821E+04  8.714682E+04 -8.293355E+03 -5.966839E+04 -1.896130E+03
       130  23  2.955811E+05 -8.294029E+03  3.841408E+04 -3.215508E+03 -3.899931E+04 -5.639155E+03
       130  24  3.072480E+05 -3.744953E+03  2.374319E+04 -8.262028E+03 -1.833164E+04 -5.256552E+03
       130  25  4.824877E+05  1.131928E+05  1.302326E+05 -3.254733E+04 -6.303090E+04 -1.895180E+03
       130  26  4.549377E+05  3.109967E+04  7.612526E+04 -1.044905E+04 -3.997896E+04 -5.638964E+03
       130  27  4.511180E+05  3.182075E+04  5.772715E+04  1.524500E+03 -1.692909E+04 -5.256324E+03
       131   1  1.769924E+05 -2.452430E+04 -1.050239E+04 -6.277581E+03  1.485463E+04  4.305292E+03
       131   2  1.911780E+05 -2.806983E+04 -1.611976E+04 -2.718702E+03  9.931179E+03  3.909645E+03
       131   3  2.079808E+05 -2.377467E+04 -1.656870E+04 -9.280817E+03  5.007559E+03  3.254057E+03
       131   4  3.026513E+05  6.558277E+03  1.929057E+04 -8.271355E+03  1.470427E+04  4.305148E+03
       131   5  3.013313E+05 -8.322329E+02  9.945587E+03 -3.210145E+03  9.630108E+03  3.909530E+03
       131   6  3.026536E+05 -3.567228E+02  5.872881E+03 -8.269776E+03  4.555901E+03  3.253970E+03
       131   7  4.283248E+05  3.763973E+04  4.908243E+04 -1.026554E+04  1.455388E+04  4.305004E+03
       131   8  4.114956E+05  2.640449E+04  3.601010E+04 -3.701676E+03  9.328983E+03  3.909416E+03
       131   9  3.973347E+05  2.306058E+04  2.831384E+04 -7.258581E+03  4.104175E+03  3.253882E+03
       131  10  1.769921E+05 -2.452438E+04 -1.050284E+04 -6.277632E+03 -6.997924E-10 -2.783864E-10
       131  11  1.911779E+05 -2.806987E+04 -1.611998E+04 -2.718734E+03 -2.140849E-09 -7.690528E-11
       131  12  2.079808E+05 -2.377468E+04 -1.656877E+04 -9.280830E+03 -5.874237E-10 -1.193479E-11
       131  13  3.026511E+05  6.558199E+03  1.929013E+04 -8.271406E+03 -9.688383E-10  4.844863E-11
       131  14  3.013311E+05 -8.322742E+02  9.945384E+03 -3.210175E+03 -5.166621E-09  5.611895E-10
       131  15  3.026536E+05 -3.567397E+02  5.872822E+03 -8.269788E+03 -1.266289E-10 -3.102609E-10
       131  16  4.283245E+05  3.763966E+04  4.908200E+04 -1.026559E+04  3.268756E-11 -3.673398E-10
       131  17  4.114955E+05  2.640445E+04  3.600990E+04 -3.701705E+03 -1.525172E-09  9.086597E-10
       131  18  3.973347E+05  2.306056E+04  2.831379E+04 -7.258592E+03 -5.955991E-10 -2.432390E-10
       131  19  1.769924E+05 -2.452430E+04 -1.050239E+04 -6.277581E+03 -1.485463E+04 -4.305292E+03
       131  20  1.911780E+05 -2.806983E+04 -1.611976E+04 -2.718702E+03 -9.931179E+03 -3.909645E+03
       131  21  2.079808E+05 -2.377467E+04 -1.656870E+04 -9.280817E+03 -5.007559E+03 -3.254057E+03
       131  22  3.026513E+05  6.558277E+03  1.929057E+04 -8.271355E+03 -1.470427E+04 -4.305148E+03
       131  23  3.013313E+05 -8.322329E+02  9.945587E+03 -3.210145E+03 -9.630108E+03 -3.909530E+03
       131  24  3.026536E+05 -3.567228E+02  5.872881E+03 -8.269776E+03 -4.555901E+03 -3.253970E+03
       131  25  4.283248E+05  3.763973E+04  4.908243E+04 -1.026554E+04 -1.455388E+04 -4.305004E+03
       131  26  4.114956E+05  2.640449E+04  3.601010E+04 -3.701676E+03 -9.328983E+03 -3.909416E+03
       131  27  3.973347E+05  2.306058E+04  2.831384E+04 -7.258581E+03 -4.104175E+03 -3.253882E+03
       132   1  2.255040E+05 -1.834209E+04 -1.352030E+04 -8.148726E+03  4.006121E+03  2.827294E+03
       132   2  2.407284E+05 -1.523180E+04 -1.196597E+04 -3.226459E+03  2.753060E+03  2.173645E+03
       132   3  2.563076E+05 -1.137719E+04 -9.408856E+03 -8.371839E+03  1.499912E+03  1.504436E+03
       132   4  3.021462E+05  6.008559E+02  4.574581E+03 -8.258442E+03  3.634358E+03  2.827228E+03
       132   5  3.019685E+05 -8.937213E+01  2.524409E+03 -3.224620E+03  2.372186E+03  2.173599E+03
       132   6  3.021470E+05 -3.369524E+01  1.483312E+03 -8.258383E+03  1.109958E+03  1.504411E+03
       132   7  3.787938E+05  1.954338E+04  2.266905E+04 -8.368171E+03  3.262549E+03  2.827163E+03
       132   8  3.632119E+05  1.505278E+04  1.701453E+04 -3.222781E+03  1.991274E+03  2.173554E+03
       132   9  3.479883E+05  1.130965E+04  1.237533E+04 -8.144919E+03  7.199755E+02  1.504386E+03
       132  10  2.255040E+05 -1.834211E+04 -1.352034E+04 -8.148735E+03 -3.670526E-09  7.032706E-11
       132  11  2.407284E+05 -1.523180E+04 -1.196599E+04 -3.226464E+03 -1.581701E-09  5.950452E-11
       132  12  2.563076E+05 -1.137720E+04 -9.408864E+03 -8.371841E+03 -8.688362E-10  3.922722E-10
       132  13  3.021462E+05  6.008438E+02  4.574541E+03 -8.258450E+03 -1.169200E-09 -3.176575E-10
       132  14  3.019685E+05 -8.937872E+01  2.524389E+03 -3.224625E+03 -1.590344E-09  2.546368E-10
       132  15  3.021470E+05 -3.369801E+01  1.483305E+03 -8.258384E+03 -1.172898E-09 -2.918531E-11
       132  16  3.787938E+05  1.954337E+04  2.266902E+04 -8.368179E+03  2.465440E-10 -5.925094E-10
       132  17  3.632119E+05  1.505278E+04  1.701451E+04 -3.222785E+03  2.290819E-09  6.832618E-11
       132  18  3.479883E+05  1.130965E+04  1.237533E+04 -8.144919E+03 -1.726397E-09 -2.430186E-10
       132  19  2.255040E+05 -1.834209E+04 -1.352030E+04 -8.148726E+03 -4.006121E+03 -2.827294E+03
       132  20  2.407284E+05 -1.523180E+04 -1.196597E+04 -3.226459E+03 -2.753060E+03 -2.173645E+03
       132  21  2.563076E+05 -1.137719E+04 -9.408856E+03 -8.371839E+03 -1.499912E+03 -1.504436E+03
       132  22  3.021462E+05  6.008559E+02  4.574581E+03 -8.258442E+03 -3.634358E+03 -2.827228E+03
       132  23  3.019685E+05 -8.937213E+01  2.524409E+03 -3.224620E+03 -2.372186E+03 -2.173599E+03
       132  24  3.021470E+05 -3.369524E+01  1.483312E+03 -8.258383E+03 -1.109958E+03 -1.504411E+03
       132  25  3.787938E+05  1.954338E+04  2.266905E+04 -8.368171E+03 -3.262549E+03 -2.827163E+03
       132  26  3.632119E+05  1.505278E+04  1.701453E+04 -3.222781E+03 -1.991274E+03 -2.173554E+03
       132  27  3.479883E+05  1.130965E+04  1.237533E+04 -8.144919E+03 -7.199755E+02 -1.504386E+03
       133   1  2.741983E+05 -6.834742E+03 -5.400685E+03 -8.260971E+03  1.258124E+03  1.112518E+03
       133   2  2.895294E+05 -3.107335E+03 -2.268640E+03 -3.241368E+03  9.143781E+02  4.444089E+02
       133   3  3.049247E+05  6.915165E+02  1.105260E+03 -8.265475E+03  5.706033E+02 -2.244716E+02
       133   4  3.020823E+05  5.059775E+01  1.150907E+03 -8.253094E+03  8.734149E+02  1.112501E+03
       133   5  3.020505E+05 -1.142372E+01  6.939544E+02 -3.231246E+03  5.292032E+02  4.443960E+02
       133   6  3.020825E+05 -1.967207E+00  4.791207E+02 -8.253094E+03  1.849707E+02 -2.244799E+02
       133   7  3.299670E+05  6.935883E+03  7.702447E+03 -8.245217E+03  4.886890E+02  1.112484E+03
       133   8  3.145717E+05  3.084476E+03  3.656539E+03 -3.221123E+03  1.440207E+02  4.443831E+02
       133   9  2.992402E+05 -6.954513E+02 -1.470186E+02 -8.240712E+03 -2.006602E+02 -2.244882E+02
       133  10  2.741983E+05 -6.834744E+03 -5.400691E+03 -8.260972E+03  3.431848E-10  4.106268E-10
       133  11  2.895294E+05 -3.107335E+03 -2.268642E+03 -3.241369E+03 -3.857690E-09  9.578553E-11
       133  12  3.049247E+05  6.915163E+02  1.105259E+03 -8.265475E+03  5.240996E-10  4.579266E-10
       133  13  3.020823E+05  5.059622E+01  1.150903E+03 -8.253095E+03 -1.089734E-09  9.769378E-11
       133  14  3.020505E+05 -1.142401E+01  6.939535E+02 -3.231246E+03  1.034392E-09  2.601925E-10
       133  15  3.020825E+05 -1.967271E+00  4.791205E+02 -8.253094E+03 -9.762350E-10  8.585991E-11
       133  16  3.299670E+05  6.935881E+03  7.702444E+03 -8.245218E+03  1.860881E-09 -1.627516E-10
       133  17  3.145717E+05  3.084476E+03  3.656538E+03 -3.221123E+03 -2.952924E-10  2.813120E-10
       133  18  2.992402E+05 -6.954514E+02 -1.470188E+02 -8.240712E+03 -1.014065E-09 -3.126104E-10
       133  19  2.741983E+05 -6.834742E+03 -5.400685E+03 -8.260971E+03 -1.258124E+03 -1.112518E+03
       133  20  2.895294E+05 -3.107335E+03 -2.268640E+03 -3.241368E+03 -9.143781E+02 -4.444089E+02
       133  21  3.049247E+05  6.915165E+02  1.105260E+03 -8.265475E+03 -5.706033E+02  2.244716E+02
       133  22  3.020823E+05  5.059775E+01  1.150907E+03 -8.253094E+03 -8.734149E+02 -1.112501E+03
       133  23  3.020505E+05 -1.142372E+01  6.939544E+02 -3.231246E+03 -5.292032E+02 -4.443960E+02
       133  24  3.020825E+05 -1.967207E+00  4.791207E+02 -8.253094E+03 -1.849707E+02  2.244799E+02
       133  25  3.299670E+05  6.935883E+03  7.702447E+03 -8.245217E+03 -4.886890E+02 -1.112484E+03
       133  26  3.145717E+05  3.084476E+03  3.656539E+03 -3.221123E+03 -1.440207E+02 -4.443831E+02
       133  27  2.992402E+05 -6.954513E+02 -1.470186E+02 -8.240712E+03  2.006602E+02  2.244882E+02
       134   1  3.228597E+05  5.149566E+03  5.393553E+03 -8.253668E+03  4.885563E+02 -6.140798E+02
       134   2  3.382163E+05  8.933633E+03  8.981441E+03 -3.226562E+03  2.770374E+02 -1.283275E+03
       134   3  3.536119E+05  1.275270E+04  1.271623E+04 -8.251113E+03  6.555947E+01 -1.951970E+03
       134   4  3.020768E+05  1.711781E+00  4.299272E+02 -8.254871E+03  1.028026E+02 -6.140908E+02
       134   5  3.020573E+05 -6.637988E+00  4.261579E+02 -3.229025E+03 -1.084228E+02 -1.283299E+03
       134   6  3.020765E+05  1.998029E+01  5.691070E+02 -8.254872E+03 -3.196020E+02 -1.952005E+03
       134   7  2.812943E+05 -5.146173E+03 -4.533728E+03 -8.256073E+03 -2.829383E+02 -6.141018E+02
       134   8  2.658994E+05 -8.947003E+03 -8.129215E+03 -3.231487E+03 -4.938606E+02 -1.283323E+03
       134   9  2.505436E+05 -1.271293E+04 -1.157820E+04 -8.258631E+03 -7.047316E+02 -1.952040E+03
       134  10  3.228597E+05  5.149565E+03  5.393552E+03 -8.253668E+03  5.045137E-10  4.188710E-10
       134  11  3.382163E+05  8.933632E+03  8.981438E+03 -3.226562E+03 -4.175383E-09  5.029752E-11
       134  12  3.536119E+05  1.275270E+04  1.271623E+04 -8.251112E+03  2.810356E-10  4.541838E-10
       134  13  3.020768E+05  1.711373E+00  4.299265E+02 -8.254871E+03  2.266522E-10  3.601307E-10
       134  14  3.020573E+05 -6.639760E+00  4.261548E+02 -3.229025E+03  1.311493E-09  6.553875E-10
       134  15  3.020765E+05  1.997617E+01  5.690997E+02 -8.254872E+03 -2.776076E-09 -1.577808E-10
       134  16  2.812943E+05 -5.146174E+03 -4.533729E+03 -8.256074E+03  3.409089E-11  1.147438E-10
       134  17  2.658994E+05 -8.947005E+03 -8.129219E+03 -3.231488E+03 -3.600035E-10  9.238487E-10
       134  18  2.505436E+05 -1.271294E+04 -1.157821E+04 -8.258632E+03  4.243497E-10 -6.971728E-10
       134  19  3.228597E+05  5.149566E+03  5.393553E+03 -8.253668E+03 -4.885563E+02  6.140798E+02
       134  20  3.382163E+05  8.933633E+03  8.981441E+03 -3.226562E+03 -2.770374E+02  1.283275E+03
       134  21  3.536119E+05  1.275270E+04  1.271623E+04 -8.251113E+03 -6.555947E+01  1.951970E+03
       134  22  3.020768E+05  1.711781E+00  4.299272E+02 -8.254871E+03 -1.028026E+02  6.140908E+02
       134  23  3.020573E+05 -6.637988E+00  4.261579E+02 -3.229025E+03  1.084228E+02  1.283299E+03
       134  24  3.020765E+05  1.998029E+01  5.691070E+02 -8.254872E+03  3.196020E+02  1.952005E+03
       134  25  2.812943E+05 -5.146173E+03 -4.533728E+03 -8.256073E+03  2.829383E+02  6.141018E+02
       134  26  2.658994E+05 -8.947003E+03 -8.129215E+03 -3.231487E+03  4.938606E+02  1.283323E+03
       134  27  2.505436E+05 -1.271293E+04 -1.157820E+04 -8.258631E+03  7.047316E+02  1.952040E+03
       135   1  3.716249E+05  1.718201E+04  1.718952E+04 -8.213135E+03 -4.197997E+01 -2.344779E+03
       135   2  3.869823E+05  2.096525E+04  2.122075E+04 -3.210510E+03 -6.116390E+02 -3.015132E+03
       135   3  4.025041E+05  2.507029E+04  2.570510E+04 -8.301274E+03 -1.181198E+03 -3.668131E+03
       135   4  3.021035E+05 -1.592833E+01  6.950356E+02 -8.264143E+03 -4.332200E+02 -2.344828E+03
       135   5  3.020218E+05 -4.053843E+01  1.119495E+03 -3.217427E+03 -9.928110E+02 -3.015209E+03
       135   6  3.021028E+05  2.550123E+02  1.990211E+03 -8.264183E+03 -1.552288E+03 -3.668234E+03
       135   7  2.325865E+05 -1.721421E+04 -1.579979E+04 -8.315146E+03 -8.244165E+02 -2.344878E+03
       135   8  2.170679E+05 -2.104684E+04 -1.898226E+04 -3.224342E+03 -1.373931E+03 -3.015287E+03
       135   9  2.017106E+05 -2.456098E+04 -2.172538E+04 -8.227099E+03 -1.923319E+03 -3.668338E+03
       135  10  3.716249E+05  1.718200E+04  1.718951E+04 -8.213135E+03 -8.122850E-10  7.462630E-10
       135  11  3.869823E+05  2.096524E+04  2.122073E+04 -3.210512E+03 -6.452773E-10 -7.698743E-11
       135  12  4.025041E+05  2.507027E+04  2.570507E+04 -8.301277E+03 -3.347197E-10 -3.589516E-10
       135  13  3.021035E+05 -1.593428E+01  6.950249E+02 -8.264144E+03 -1.064450E-09 -2.797076E-10
       135  14  3.020218E+05 -4.054846E+01  1.119476E+03 -3.217429E+03 -2.224945E-09 -1.517213E-10
       135  15  3.021028E+05  2.549972E+02  1.990181E+03 -8.264188E+03  3.698632E-09 -2.950524E-10
       135  16  2.325865E+05 -1.721422E+04 -1.579980E+04 -8.315148E+03 -8.577890E-10 -1.398080E-09
       135  17  2.170679E+05 -2.104685E+04 -1.898228E+04 -3.224346E+03  1.039592E-09 -4.146474E-10
       135  18  2.017106E+05 -2.456100E+04 -2.172541E+04 -8.227105E+03  1.997154E-09  1.071575E-10
       135  19  3.716249E+05  1.718201E+04  1.718952E+04 -8.213135E+03  4.197997E+01  2.344779E+03
       135  20  3.869823E+05  2.096525E+04  2.122075E+04 -3.210510E+03  6.116390E+02  3.015132E+03
       135  21  4.025041E+05  2.507029E+04  2.570510E+04 -8.301274E+03  1.181198E+03  3.668131E+03
       135  22  3.021035E+05 -1.592833E+01  6.950356E+02 -8.264143E+03  4.332200E+02  2.344828E+03
       135  23  3.020218E+05 -4.053843E+01  1.119495E+03 -3.217427E+03  9.928110E+02  3.015209E+03
       135  24  3.021028E+05  2.550123E+02  1.990211E+03 -8.264183E+03  1.552288E+03  3.668234E+03
       135  25  2.325865E+05 -1.721421E+04 -1.579979E+04 -8.315146E+03  8.244165E+02  2.344878E+03
       135  26  2.170679E+05 -2.104684E+04 -1.898226E+04 -3.224342E+03  1.373931E+03  3.015287E+03
       135  27  2.017106E+05 -2.456098E+04 -2.172538E+04 -8.227099E+03  1.923319E+03  3.668338E+03
       136   1  4.208164E+05  2.914668E+04  3.061977E+04 -7.828797E+03 -1.490805E+03 -4.100655E+03
       136   2  4.357824E+05  3.277611E+04  3.600692E+04 -3.390367E+03 -3.851662E+03 -4.755658E+03
       136   3  4.519331E+05  3.982302E+04  4.378947E+04 -9.109809E+03 -6.212554E+03 -5.116399E+03
       136   4  3.023223E+05 -1.574614E+02  2.545951E+03 -8.278217E+03 -1.952514E+03 -4.100801E+03
       136   5  3.017440E+05 -3.628095E+02  4.294339E+03 -3.199695E+03 -4.143365E+03 -4.755810E+03
       136   6  3.023207E+05  2.820213E+03  8.320449E+03 -8.279156E+03 -6.334190E+03 -5.116532E+03
       136   7  1.838411E+05 -2.946261E+04 -2.552884E+04 -8.727552E+03 -2.414136E+03 -4.100946E+03
       136   8  1.677221E+05 -3.350301E+04 -2.741949E+04 -3.009066E+03 -4.435005E+03 -4.755962E+03
       136   9  1.527288E+05 -3.418420E+04 -2.715013E+04 -7.448705E+03 -6.455797E+03 -5.116665E+03
       136  10  4.208163E+05  2.914666E+04  3.061973E+04 -7.828802E+03 -1.270036E-09 -2.236429E-10
       136  11  4.357824E+05  3.277608E+04  3.600685E+04 -3.390382E+03 -2.745379E-09  1.881364E-10
       136  12  4.519331E+05  3.982299E+04  4.378935E+04 -9.109834E+03 -7.118988E-10 -4.971704E-10
       136  13  3.023223E+05 -1.574805E+02  2.545912E+03 -8.278224E+03  3.231317E-09  2.277553E-11
       136  14  3.017440E+05 -3.628384E+02  4.294264E+03 -3.199711E+03  3.309546E-09  5.480122E-10
       136  15  3.023206E+05  2.820175E+03  8.320324E+03 -8.279182E+03 -2.005335E-09 -3.450220E-10
       136  16  1.838411E+05 -2.946263E+04 -2.552888E+04 -8.727560E+03  2.308789E-09  3.622265E-10
       136  17  1.677221E+05 -3.350304E+04 -2.741957E+04 -3.009083E+03 -1.394136E-09  1.457881E-09
       136  18  1.527287E+05 -3.418424E+04 -2.715026E+04 -7.448732E+03  2.215616E-10  2.326386E-10
       136  19  4.208164E+05  2.914668E+04  3.061977E+04 -7.828797E+03  1.490805E+03  4.100655E+03
       136  20  4.357824E+05  3.277611E+04  3.600692E+04 -3.390367E+03  3.851662E+03  4.755658E+03
       136  21  4.519331E+05  3.982302E+04  4.378947E+04 -9.109809E+03  6.212554E+03  5.116399E+03
       136  22  3.023223E+05 -1.574614E+02  2.545951E+03 -8.278217E+03  1.952514E+03  4.100801E+03
       136  23  3.017440E+05 -3.628095E+02  4.294339E+03 -3.199695E+03  4.143365E+03  4.755810E+03
       136  24  3.023207E+05  2.820213E+03  8.320449E+03 -8.279156E+03  6.334190E+03  5.116532E+03
       136  25  1.838411E+05 -2.946261E+04 -2.552884E+04 -8.727552E+03  2.414136E+03  4.100946E+03
       136  26  1.677221E+05 -3.350301E+04 -2.741949E+04 -3.009066E+03  4.435005E+03  4.755962E+03
       136  27  1.527288E+05 -3.418420E+04 -2.715013E+04 -7.448705E+03  6.455797E+03  5.116665E+03
       137   1  4.722092E+05  3.988000E+04  4.989552E+04 -4.016419E+03 -6.359262E+03 -6.141717E+03
       137   2  4.827111E+05  4.176991E+04  5.997199E+04 -6.275480E+03 -1.796318E+04 -6.484454E+03
       137   3  5.037600E+05  7.964995E+04  8.660498E+04 -1.868415E+04 -2.957009E+04 -2.156416E+03
       137   4  3.043040E+05 -1.621634E+03  1.023926E+04 -8.271636E+03 -7.898517E+03 -6.142392E+03
       137   5  2.992599E+05 -3.583101E+03  1.655897E+04 -3.205506E+03 -1.680821E+04 -6.484102E+03
       137   6  3.042982E+05  2.998357E+04  3.756821E+04 -8.288918E+03 -2.572055E+04 -2.154700E+03
       137   7  1.364248E+05 -4.312522E+04 -2.941894E+04 -1.252570E+04 -9.437358E+03 -6.143046E+03
       137   8  1.158396E+05 -4.893849E+04 -2.685638E+04 -1.364466E+02 -1.565358E+04 -6.483739E+03
       137   9  1.048727E+05 -1.968535E+04 -1.147138E+04  2.102972E+03 -2.187224E+04 -2.152855E+03
       137  10  4.722091E+05  3.987995E+04  4.989538E+04 -4.016450E+03 -6.500818E-10 -1.530273E-09
       137  11  4.827107E+05  4.176978E+04  5.997130E+04 -6.275574E+03 -2.600099E-09 -2.538874E-09
       137  12  5.037591E+05  7.964971E+04  8.660333E+04 -1.868421E+04 -2.137889E-09 -7.983867E-10
       137  13  3.043039E+05 -1.621691E+03  1.023907E+04 -8.271675E+03 -3.206741E-10 -2.706092E-09
       137  14  2.992596E+05 -3.583221E+03  1.655836E+04 -3.205594E+03 -6.186431E-10 -2.020765E-10
       137  15  3.042975E+05  2.998339E+04  3.756696E+04 -8.288962E+03 -4.488163E-10 -4.278152E-10
       137  16  1.364247E+05 -4.312528E+04 -2.941918E+04 -1.252575E+04  1.076919E-12 -8.456612E-10
       137  17  1.158394E+05 -4.893860E+04 -2.685692E+04 -1.365283E+02  1.051325E-09 -2.931004E-10
       137  18  1.048722E+05 -1.968549E+04 -1.147229E+04  2.102934E+03  1.582240E-09 -9.255778E-10
       137  19  4.722092E+05  3.988000E+04  4.989552E+04 -4.016419E+03  6.359262E+03  6.141717E+03
       137  20  4.827111E+05  4.176991E+04  5.997199E+04 -6.275480E+03  1.796318E+04  6.484454E+03
       137  21  5.037600E+05  7.964995E+04  8.660498E+04 -1.868415E+04  2.957009E+04  2.156416E+03
       137  22  3.043040E+05 -1.621634E+03  1.023926E+04 -8.271636E+03  7.898517E+03  6.142392E+03
       137  23  2.992599E+05 -3.583101E+03  1.655897E+04 -3.205506E+03  1.680821E+04  6.484102E+03
       137  24  3.042982E+05  2.998357E+04  3.756821E+04 -8.288918E+03  2.572055E+04  2.154700E+03
       137  25  1.364248E+05 -4.312522E+04 -2.941894E+04 -1.252570E+04  9.437358E+03  6.143046E+03
       137  26  1.158396E+05 -4.893849E+04 -2.685638E+04 -1.364466E+02  1.565358E+04  6.483739E+03
       137  27  1.048727E+05 -1.968535E+04 -1.147138E+04  2.102972E+03  2.187224E+04  2.152855E+03
       138   1  2.672611E+06  1.080950E+07  2.660215E+06 -1.407550E+06  1.009331E+05  2.230412E+05
       138   2  1.950750E+06  8.235822E+06  1.925097E+06 -5.841850E+05  2.798543E+05  4.502263E+04
       138   3  1.380042E+06  5.757920E+06  1.347779E+06 -1.391906E+06  1.938346E+05 -1.340236E+05
       138   4  6.421249E+04  2.770676E+05  8.268336E+04 -1.349866E+06  1.018349E+05  4.154961E+04
       138   5 -1.517537E+04  2.497146E+05  4.370698E+04 -5.337103E+05  2.803007E+05  1.875849E+04
       138   6  3.092732E+04  2.859471E+05  5.670217E+04 -1.349930E+06  1.923219E+05 -5.793357E+03
       138   7 -2.552340E+06 -1.015539E+07 -2.502837E+06 -1.292942E+06  1.027140E+05 -1.369136E+05
       138   8 -1.985639E+06 -7.678240E+06 -1.842074E+06 -4.837458E+05  2.807467E+05 -7.174097E+03
       138   9 -1.320313E+06 -5.158628E+06 -1.236381E+06 -1.308210E+06  1.908190E+05  1.213210E+05
       138  10  2.672587E+06  1.080944E+07  2.660103E+06 -1.407568E+06  1.942131E-09  2.124708E-09
       138  11  1.950665E+06  8.235799E+06  1.924946E+06 -5.841951E+05  4.884788E-09 -1.671794E-08
       138  12  1.379997E+06  5.757890E+06  1.347675E+06 -1.391885E+06  5.314930E-09 -6.891321E-09
       138  13  6.420087E+04  2.770629E+05  8.266058E+04 -1.349870E+06  4.896886E-09 -7.611048E-11
       138  14 -1.525985E+04  2.496931E+05  4.355863E+04 -5.337146E+05 -2.481198E-09  2.835418E-12
       138  15  3.088759E+04  2.859371E+05  5.663261E+04 -1.349929E+06  5.051403E-10 -1.434344E-09
       138  16 -2.552357E+06 -1.015541E+07 -2.502893E+06 -1.292930E+06  9.114260E-10 -1.100176E-09
       138  17 -1.985723E+06 -7.678261E+06 -1.842223E+06 -4.837442E+05  8.024876E-09  6.834483E-09
       138  18 -1.320357E+06 -5.158654E+06 -1.236478E+06 -1.308229E+06 -8.522763E-09  1.706478E-08
       138  19  2.672611E+06  1.080950E+07  2.660215E+06 -1.407550E+06 -1.009331E+05 -2.230412E+05
       138  20  1.950750E+06  8.235822E+06  1.925097E+06 -5.841850E+05 -2.798543E+05 -4.502263E+04
       138  21  1.380042E+06  5.757920E+06  1.347779E+06 -1.391906E+06 -1.938346E+05  1.340236E+05
       138  22  6.421249E+04  2.770676E+05  8.268336E+04 -1.349866E+06 -1.018349E+05 -4.154961E+04
       138  23 -1.517537E+04  2.497146E+05  4.370698E+04 -5.337103E+05 -2.803007E+05 -1.875849E+04
       138  24  3.092732E+04  2.859471E+05  5.670217E+04 -1.349930E+06 -1.923219E+05  5.793357E+03
       138  25 -2.552340E+06 -1.015539E+07 -2.502837E+06 -1.292942E+06 -1.027140E+05  1.369136E+05
       138  26 -1.985639E+06 -7.678240E+06 -1.842074E+06 -4.837458E+05 -2.807467E+05  7.174097E+03
       138  27 -1.320313E+06 -5.158628E+06 -1.236381E+06 -1.308210E+06 -1.908190E+05 -1.213210E+05
       139   1  6.587637E+05  2.805639E+06  6.570527E+05 -1.382528E+06  9.137704E+04 -6.977743E+04
       139   2  1.408887E+04  3.072722E+05  8.693627E+04 -5.296957E+05  2.332264E+03 -1.119687E+05
       139   3 -5.384149E+05 -2.204298E+06 -4.439600E+05 -1.312791E+06 -8.664961E+04 -1.540013E+05
       139   4  3.312877E+04  2.737953E+05  5.905871E+04 -1.350776E+06  9.068082E+04 -1.803233E+04
       139   5  8.273606E+03  2.833547E+05  8.128082E+04 -5.325874E+05  1.647491E+03 -6.034872E+04
       139   6  7.600099E+04  2.738234E+05  1.430912E+05 -1.350214E+06 -8.733914E+04 -1.026704E+05
       139   7 -5.929615E+05 -2.252167E+06 -5.393686E+05 -1.319127E+06  8.998827E+04  3.350374E+04
       139   8  2.459764E+03  2.594435E+05  7.563535E+04 -5.354790E+05  9.622239E+02 -8.730672E+03
       139   9  6.899798E+05  2.757606E+06  7.297259E+05 -1.387763E+06 -8.803333E+04 -5.113449E+04
       139  10  6.587534E+05  2.805632E+06  6.570280E+05 -1.382523E+06 -2.394655E-10  1.006793E-08
       139  11  1.408550E+04  3.072588E+05  8.691271E+04 -5.296955E+05  4.010685E-09 -2.542771E-08
       139  12 -5.384295E+05 -2.204326E+06 -4.440190E+05 -1.312802E+06 -5.961292E-10 -7.676548E-09
       139  13  3.311986E+04  2.737928E+05  5.904266E+04 -1.350774E+06 -2.712721E-09 -5.497203E-11
       139  14  8.272626E+03  2.833508E+05  8.127397E+04 -5.325873E+05  1.130260E-08 -4.816709E-11
       139  15  7.598994E+04  2.738100E+05  1.430570E+05 -1.350222E+06  1.189428E-08 -1.597050E-09
       139  16 -5.929705E+05 -2.252171E+06 -5.393860E+05 -1.319130E+06 -6.178146E-09 -3.566741E-09
       139  17  2.459742E+03  2.594434E+05  7.563520E+04 -5.354790E+05 -1.232067E-09  5.323921E-09
       139  18  6.899707E+05  2.757601E+06  7.297064E+05 -1.387767E+06 -3.216073E-09  2.039015E-08
       139  19  6.587637E+05  2.805639E+06  6.570527E+05 -1.382528E+06 -9.137704E+04  6.977743E+04
       139  20  1.408887E+04  3.072722E+05  8.693627E+04 -5.296957E+05 -2.332264E+03  1.119687E+05
       139  21 -5.384149E+05 -2.204298E+06 -4.439600E+05 -1.312791E+06  8.664961E+04  1.540013E+05
       139  22  3.312877E+04  2.737953E+05  5.905871E+04 -1.350776E+06 -9.068082E+04  1.803233E+04
       139  23  8.273606E+03  2.833547E+05  8.128082E+04 -5.325874E+05 -1.647491E+03  6.034872E+04
       139  24  7.600099E+04  2.738234E+05  1.430912E+05 -1.350214E+06  8.733914E+04  1.026704E+05
       139  25 -5.929615E+05 -2.252167E+06 -5.393686E+05 -1.319127E+06 -8.998827E+04 -3.350374E+04
       139  26  2.459764E+03  2.594435E+05  7.563535E+04 -5.354790E+05 -9.622239E+02  8.730672E+03
       139  27  6.899798E+05  2.757606E+06  7.297259E+05 -1.387763E+06  8.803333E+04  5.113449E+04
       140   1 -1.333305E+06 -5.079711E+06 -1.104469E+06 -1.368472E+06 -1.871443E+05 -2.580279E+05
       140   2 -2.025038E+06 -7.669159E+06 -1.605200E+06 -4.388504E+05 -2.768113E+05 -2.509046E+05
       140   3 -2.110128E+06 -1.007270E+07 -1.953841E+06 -1.142696E+06 -1.005500E+05 -2.420055E+05
       140   4  4.266879E+03  3.173924E+05  1.768915E+05 -1.350618E+06 -1.886693E+05 -1.318969E+05
       140   5 -6.557903E+04  2.106773E+05  2.692189E+05 -5.334822E+05 -2.763377E+05 -2.781049E+05
       140   6  4.944196E+05  3.085639E+05  6.186773E+05 -1.348138E+06 -9.957673E+04 -4.225433E+05
       140   7  1.339756E+06  5.741425E+06  1.456285E+06 -1.332493E+06 -1.901795E+05 -4.664250E+03
       140   8  1.889412E+06  8.147974E+06  2.139301E+06 -6.291967E+05 -2.758599E+05 -3.056343E+05
       140   9  3.091023E+06  1.078892E+07  3.183305E+06 -1.556853E+06 -9.849456E+04 -6.060860E+05
       140  10 -1.333361E+06 -5.079792E+06 -1.104661E+06 -1.368511E+06  3.230196E-09  5.329736E-09
       140  11 -2.025137E+06 -7.669248E+06 -1.605464E+06 -4.389067E+05  1.130441E-09 -1.258327E-08
       140  12 -2.110155E+06 -1.007277E+07 -1.953972E+06 -1.142716E+06 -4.091275E-10 -2.302529E-09
       140  13  4.223904E+03  3.173641E+05  1.767916E+05 -1.350638E+06 -6.672272E-09 -3.112235E-11
       140  14 -6.568187E+04  2.105737E+05  2.689298E+05 -5.335441E+05  5.203175E-09  1.541541E-10
       140  15  4.943609E+05  3.083696E+05  6.183229E+05 -1.348172E+06 -2.725499E-10 -2.198068E-10
       140  16  1.339717E+06  5.741415E+06  1.456216E+06 -1.332494E+06  1.872015E-09  1.579372E-10
       140  17  1.889306E+06  8.147854E+06  2.138984E+06 -6.292642E+05  4.790524E-09  6.556388E-10
       140  18  3.090916E+06  1.078852E+07  3.182607E+06 -1.556901E+06  4.141847E-10  4.747789E-09
       140  19 -1.333305E+06 -5.079711E+06 -1.104469E+06 -1.368472E+06  1.871443E+05  2.580279E+05
       140  20 -2.025038E+06 -7.669159E+06 -1.605200E+06 -4.388504E+05  2.768113E+05  2.509046E+05
       140  21 -2.110128E+06 -1.007270E+07 -1.953841E+06 -1.142696E+06  1.005500E+05  2.420055E+05
       140  22  4.266879E+03  3.173924E+05  1.768915E+05 -1.350618E+06  1.886693E+05  1.318969E+05
       140  23 -6.557903E+04  2.106773E+05  2.692189E+05 -5.334822E+05  2.763377E+05  2.781049E+05
       140  24  4.944196E+05  3.085639E+05  6.186773E+05 -1.348138E+06  9.957673E+04  4.225433E+05
       140  25  1.339756E+06  5.741425E+06  1.456285E+06 -1.332493E+06  1.901795E+05  4.664250E+03
       140  26  1.889412E+06  8.147974E+06  2.139301E+06 -6.291967E+05  2.758599E+05  3.056343E+05
       140  27  3.091023E+06  1.078892E+07  3.183305E+06 -1.556853E+06  9.849456E+04  6.060860E+05
       141   1 -5.642196E+05 -2.479307E+05 -1.260965E+05 -2.404353E+05 -6.118413E+04 -1.818164E+04
       141   2 -5.329519E+05 -1.937839E+05 -7.617325E+04 -2.273598E+05 -3.769454E+04  1.799268E+03
       141   3 -5.090998E+05 -1.649293E+05 -5.217190E+04 -2.145007E+05 -1.150264E+04  1.459312E+04
       141   4 -2.703588E+05 -1.116304E+05 -4.654835E+04 -1.328898E+05 -3.205450E+04 -7.247630E+03
       141   5 -2.657556E+05 -8.320070E+04 -2.230915E+04 -1.392872E+05 -2.421655E+04  6.857632E+03
       141   6 -2.654622E+05 -7.695664E+04 -1.157991E+04 -1.459029E+05 -1.367858E+04  1.377554E+04
       141   7  2.358397E+04  2.468755E+04  3.299392E+04 -2.529549E+04 -2.910492E+03  3.694899E+03
       141   8  1.514176E+03  2.739432E+04  3.155184E+04 -5.117771E+04 -1.073244E+04  1.191902E+04
       141   9 -2.175902E+04  1.102294E+04  2.901123E+04 -7.727923E+04 -1.585545E+04  1.295760E+04
       141  10 -5.642237E+05 -2.479321E+05 -1.261041E+05 -2.404362E+05 -2.077128E-09 -9.932820E-10
       141  11 -5.329535E+05 -1.937843E+05 -7.617593E+04 -2.273598E+05 -3.590779E-09 -3.359694E-10
       141  12 -5.091000E+05 -1.649296E+05 -5.217255E+04 -2.145006E+05 -5.128098E-09 -8.180976E-10
       141  13 -2.703599E+05 -1.116307E+05 -4.655038E+04 -1.328900E+05  9.300670E-10  4.987143E-10
       141  14 -2.657563E+05 -8.320091E+04 -2.231034E+04 -1.392870E+05 -2.775548E-09  1.371483E-09
       141  15 -2.654624E+05 -7.695690E+04 -1.158062E+04 -1.459027E+05 -7.065717E-09 -3.068256E-10
       141  16  2.358396E+04  2.468754E+04  3.299388E+04 -2.529548E+04  2.799119E-09  1.473642E-09
       141  17  1.514014E+03  2.739414E+04  3.155135E+04 -5.117760E+04 -1.928731E-09  2.599078E-09
       141  18 -2.175934E+04  1.102269E+04  2.901044E+04 -7.727906E+04 -4.627644E-10  1.029869E-09
       141  19 -5.642196E+05 -2.479307E+05 -1.260965E+05 -2.404353E+05  6.118413E+04  1.818164E+04
       141  20 -5.329519E+05 -1.937839E+05 -7.617325E+04 -2.273598E+05  3.769454E+04 -1.799268E+03
       141  21 -5.090998E+05 -1.649293E+05 -5.217190E+04 -2.145007E+05  1.150264E+04 -1.459312E+04
       141  22 -2.703588E+05 -1.116304E+05 -4.654835E+04 -1.328898E+05  3.205450E+04  7.247630E+03
       141  23 -2.657556E+05 -8.320070E+04 -2.230915E+04 -1.392872E+05  2.421655E+04 -6.857632E+03
       141  24 -2.654622E+05 -7.695664E+04 -1.157991E+04 -1.459029E+05  1.367858E+04 -1.377554E+04
       141  25  2.358397E+04  2.468755E+04  3.299392E+04 -2.529549E+04  2.910492E+03 -3.694899E+03
       141  26  1.514176E+03  2.739432E+04  3.155184E+04 -5.117771E+04  1.073244E+04 -1.191902E+04
       141  27 -2.175902E+04  1.102294E+04  2.901123E+04 -7.727923E+04  1.585545E+04 -1.295760E+04
       142   1 -4.850019E+05 -1.568846E+05 -4.450268E+04 -2.094713E+05 -9.951763E+03  1.421581E+04
       142   2 -4.528265E+05 -1.393284E+05 -3.311337E+04 -1.973692E+05 -5.375828E+03  1.435623E+04
       142   3 -4.174946E+05 -1.280308E+05 -2.523888E+04 -1.899663E+05 -4.880280E+02  1.366577E+04
       142   4 -2.641015E+05 -7.603878E+04 -8.579904E+03 -1.458829E+05 -1.205921E+04  1.342408E+04
       142   5 -2.656682E+05 -7.175013E+04 -4.449321E+03 -1.440347E+05 -9.292424E+03  1.288573E+04
       142   6 -2.637203E+05 -7.336124E+04 -2.398848E+03 -1.468860E+05 -6.214009E+03  1.151655E+04
       142   7 -4.315144E+04  4.811506E+03  2.734108E+04 -8.227383E+04 -1.416744E+04  1.263204E+04
       142   8 -7.847191E+04 -4.167902E+03  2.421430E+04 -9.068485E+04 -1.321027E+04  1.141474E+04
       142   9 -1.099183E+05 -1.868840E+04  2.044161E+04 -1.037951E+05 -1.194156E+04  9.366739E+03
       142  10 -4.850021E+05 -1.568848E+05 -4.450325E+04 -2.094711E+05 -1.035598E-08 -3.195311E-09
       142  11 -4.528266E+05 -1.393286E+05 -3.311381E+04 -1.973692E+05 -3.190041E-08 -1.372696E-08
       142  12 -4.174947E+05 -1.280310E+05 -2.523924E+04 -1.899663E+05 -6.808807E-08 -2.437165E-08
       142  13 -2.641017E+05 -7.603901E+04 -8.580516E+03 -1.458827E+05 -7.437829E-09 -1.140263E-09
       142  14 -2.656683E+05 -7.175033E+04 -4.449796E+03 -1.440346E+05 -6.885124E-09 -9.741491E-09
       142  15 -2.637204E+05 -7.336139E+04 -2.399170E+03 -1.468860E+05 -2.505654E-08 -2.327186E-08
       142  16 -4.315170E+04  4.811281E+03  2.734040E+04 -8.227369E+04  4.188477E-09  4.832553E-09
       142  17 -7.847213E+04 -4.168089E+03  2.421373E+04 -9.068473E+04  2.351632E-08  1.461742E-08
       142  18 -1.099185E+05 -1.868853E+04  2.044118E+04 -1.037951E+05  2.367552E-08  1.223867E-08
       142  19 -4.850019E+05 -1.568846E+05 -4.450268E+04 -2.094713E+05  9.951763E+03 -1.421581E+04
       142  20 -4.528265E+05 -1.393284E+05 -3.311337E+04 -1.973692E+05  5.375828E+03 -1.435623E+04
       142  21 -4.174946E+05 -1.280308E+05 -2.523888E+04 -1.899663E+05  4.880280E+02 -1.366577E+04
       142  22 -2.641015E+05 -7.603878E+04 -8.579904E+03 -1.458829E+05  1.205921E+04 -1.342408E+04
       142  23 -2.656682E+05 -7.175013E+04 -4.449321E+03 -1.440347E+05  9.292424E+03 -1.288573E+04
       142  24 -2.637203E+05 -7.336124E+04 -2.398848E+03 -1.468860E+05  6.214009E+03 -1.151655E+04
       142  25 -4.315144E+04  4.811506E+03  2.734108E+04 -8.227383E+04  1.416744E+04 -1.263204E+04
       142  26 -7.847191E+04 -4.167902E+03  2.421430E+04 -9.068485E+04  1.321027E+04 -1.141474E+04
       142  27 -1.099183E+05 -1.868840E+04  2.044161E+04 -1.037951E+05  1.194156E+04 -9.366739E+03
       143   1 -3.958600E+05 -1.204161E+05 -2.124212E+04 -1.840652E+05  4.099888E+02  1.222322E+04
       143   2 -3.638135E+05 -1.058486E+05 -1.528782E+04 -1.719420E+05  2.106706E+03  9.810414E+03
       143   3 -3.274994E+05 -9.585848E+04 -9.890236E+03 -1.648600E+05  3.839290E+03  7.301508E+03
       143   4 -2.635772E+05 -7.330619E+04 -1.790978E+03 -1.468681E+05 -5.308837E+03  1.007686E+04
       143   5 -2.657182E+05 -7.095670E+04 -9.678614E+02 -1.443773E+05 -3.821440E+03  7.585723E+03
       143   6 -2.635516E+05 -7.314308E+04 -5.356223E+02 -1.469281E+05 -2.298224E+03  4.998490E+03
       143   7 -1.312753E+05 -2.619438E+04  1.766012E+04 -1.096635E+05 -1.102894E+04  7.930014E+03
       143   8 -1.676131E+05 -3.606397E+04  1.335198E+04 -1.168087E+05 -9.750534E+03  5.360678E+03
       143   9 -1.996001E+05 -5.042754E+04  8.818882E+03 -1.289948E+05 -8.436325E+03  2.695253E+03
       143  10 -3.958601E+05 -1.204163E+05 -2.124240E+04 -1.840652E+05  2.172537E-08  1.362896E-08
       143  11 -3.638135E+05 -1.058487E+05 -1.528801E+04 -1.719420E+05  2.022163E-08  1.613630E-08
       143  12 -3.274995E+05 -9.585854E+04 -9.890364E+03 -1.648600E+05  6.888243E-09  6.079094E-09
       143  13 -2.635772E+05 -7.330631E+04 -1.791221E+03 -1.468680E+05 -2.194346E-08 -2.341278E-08
       143  14 -2.657182E+05 -7.095676E+04 -9.679970E+02 -1.443773E+05 -3.205834E-09 -9.306812E-09
       143  15 -2.635516E+05 -7.314311E+04 -5.356791E+02 -1.469281E+05  3.394082E-09 -1.231702E-09
       143  16 -1.312754E+05 -2.619448E+04  1.765977E+04 -1.096634E+05 -6.525366E-08 -2.579820E-08
       143  17 -1.676132E+05 -3.606402E+04  1.335174E+04 -1.168087E+05 -2.789365E-08 -1.547477E-08
       143  18 -1.996002E+05 -5.042756E+04  8.818735E+03 -1.289948E+05 -1.699325E-09 -4.354775E-09
       143  19 -3.958600E+05 -1.204161E+05 -2.124212E+04 -1.840652E+05 -4.099888E+02 -1.222322E+04
       143  20 -3.638135E+05 -1.058486E+05 -1.528782E+04 -1.719420E+05 -2.106706E+03 -9.810414E+03
       143  21 -3.274994E+05 -9.585848E+04 -9.890236E+03 -1.648600E+05 -3.839290E+03 -7.301508E+03
       143  22 -2.635772E+05 -7.330619E+04 -1.790978E+03 -1.468681E+05  5.308837E+03 -1.007686E+04
       143  23 -2.657182E+05 -7.095670E+04 -9.678614E+02 -1.443773E+05  3.821440E+03 -7.585723E+03
       143  24 -2.635516E+05 -7.314308E+04 -5.356223E+02 -1.469281E+05  2.298224E+03 -4.998490E+03
       143  25 -1.312753E+05 -2.619438E+04  1.766012E+04 -1.096635E+05  1.102894E+04 -7.930014E+03
       143  26 -1.676131E+05 -3.606397E+04  1.335198E+04 -1.168087E+05  9.750534E+03 -5.360678E+03
       143  27 -1.996001E+05 -5.042754E+04  8.818882E+03 -1.289948E+05  8.436325E+03 -2.695253E+03
       144   1 -3.061184E+05 -8.825242E+04 -6.517470E+03 -1.588751E+05  4.531904E+03  5.686981E+03
       144   2 -2.741196E+05 -7.389465E+04 -1.460061E+03 -1.467289E+05  5.728964E+03  2.917479E+03
       144   3 -2.377222E+05 -6.396749E+04  3.492173E+03 -1.396424E+05  6.929567E+03  1.384602E+02
       144   4 -2.635344E+05 -7.314352E+04 -4.056880E+02 -1.469231E+05 -1.605014E+03  3.384258E+03
       144   5 -2.657344E+05 -7.093053E+04 -2.355417E+02 -1.443925E+05 -4.289017E+02  6.069015E+02
       144   6 -2.635340E+05 -7.314454E+04 -1.543884E+02 -1.469225E+05  7.507416E+02 -2.179970E+03
       144   7 -2.209477E+05 -5.803417E+04  5.706400E+03 -1.349701E+05 -7.742455E+03  1.081340E+03
       144   8 -2.573491E+05 -6.796636E+04  9.891551E+02 -1.420561E+05 -6.586897E+03 -1.703724E+03
       144   9 -2.893450E+05 -8.232149E+04 -3.800792E+03 -1.542023E+05 -5.427816E+03 -4.498299E+03
       144  10 -3.061184E+05 -8.825246E+04 -6.517570E+03 -1.588751E+05  2.434095E-09  1.675713E-09
       144  11 -2.741196E+05 -7.389466E+04 -1.460138E+03 -1.467289E+05  1.710102E-09  2.037703E-10
       144  12 -2.377222E+05 -6.396750E+04  3.492082E+03 -1.396424E+05 -3.655123E-10  1.227564E-09
       144  13 -2.635344E+05 -7.314353E+04 -4.057143E+02 -1.469231E+05 -2.107714E-09 -2.627210E-10
       144  14 -2.657344E+05 -7.093053E+04 -2.355428E+02 -1.443925E+05 -5.568779E-09 -2.265557E-10
       144  15 -2.635340E+05 -7.314455E+04 -1.543984E+02 -1.469225E+05 -2.325430E-09  2.068188E-09
       144  16 -2.209477E+05 -5.803418E+04  5.706285E+03 -1.349701E+05 -3.026172E-09 -2.558421E-09
       144  17 -2.573491E+05 -6.796638E+04  9.890680E+02 -1.420561E+05 -3.747476E-09  3.128941E-10
       144  18 -2.893451E+05 -8.232152E+04 -3.800886E+03 -1.542023E+05  6.486572E-09  3.342677E-09
       144  19 -3.061184E+05 -8.825242E+04 -6.517470E+03 -1.588751E+05 -4.531904E+03 -5.686981E+03
       144  20 -2.741196E+05 -7.389465E+04 -1.460061E+03 -1.467289E+05 -5.728964E+03 -2.917479E+03
       144  21 -2.377222E+05 -6.396749E+04  3.492173E+03 -1.396424E+05 -6.929567E+03 -1.384602E+02
       144  22 -2.635344E+05 -7.314352E+04 -4.056880E+02 -1.469231E+05  1.605014E+03 -3.384258E+03
       144  23 -2.657344E+05 -7.093053E+04 -2.355417E+02 -1.443925E+05  4.289017E+02 -6.069015E+02
       144  24 -2.635340E+05 -7.314454E+04 -1.543884E+02 -1.469225E+05 -7.507416E+02  2.179970E+03
       144  25 -2.209477E+05 -5.803417E+04  5.706400E+03 -1.349701E+05  7.742455E+03 -1.081340E+03
       144  26 -2.573491E+05 -6.796636E+04  9.891551E+02 -1.420561E+05  6.586897E+03  1.703724E+03
       144  27 -2.893450E+05 -8.232149E+04 -3.800792E+03 -1.542023E+05  5.427816E+03  4.498299E+03
       145   1 -2.163730E+05 -5.635614E+04  6.737841E+03 -1.336492E+05  7.573375E+03 -1.503669E+03
       145   2 -1.843874E+05 -4.200538E+04  1.161189E+04 -1.214988E+05  8.675022E+03 -4.317858E+03
       145   3 -1.479873E+05 -3.207061E+04  1.645698E+04 -1.144063E+05  9.772060E+03 -7.119432E+03
       145   4 -2.635333E+05 -7.314580E+04 -1.364201E+02 -1.469213E+05  1.394572E+03 -3.822134E+03
       145   5 -2.657386E+05 -7.093893E+04 -1.347372E+02 -1.443910E+05  2.523469E+03 -6.626273E+03
       145   6 -2.635358E+05 -7.315345E+04 -1.836070E+02 -1.469191E+05  3.647763E+03 -9.417818E+03
       145   7 -3.106904E+05 -8.993495E+04 -7.010370E+03 -1.601923E+05 -4.783660E+03 -6.140384E+03
       145   8 -3.470825E+05 -9.987171E+04 -1.188125E+04 -1.672804E+05 -3.627235E+03 -8.934370E+03
       145   9 -3.790712E+05 -1.142354E+05 -1.682454E+04 -1.794265E+05 -2.475410E+03 -1.171578E+04
       145  10 -2.163731E+05 -5.635616E+04  6.737728E+03 -1.336492E+05  3.389615E-09  4.610964E-09
       145  11 -1.843875E+05 -4.200542E+04  1.161171E+04 -1.214987E+05  7.402076E-10  2.549178E-09
       145  12 -1.479874E+05 -3.207069E+04  1.645670E+04 -1.144062E+05 -1.684152E-09 -2.097454E-10
       145  13 -2.635333E+05 -7.314582E+04 -1.364512E+02 -1.469213E+05 -5.187951E-09  3.012358E-09
       145  14 -2.657386E+05 -7.093898E+04 -1.348316E+02 -1.443910E+05 -4.434242E-09  7.004380E-10
       145  15 -2.635359E+05 -7.315355E+04 -1.837987E+02 -1.469191E+05 -8.236687E-09 -1.284175E-09
       145  16 -3.106905E+05 -8.993500E+04 -7.010483E+03 -1.601923E+05 -4.441526E-10  6.793287E-10
       145  17 -3.470825E+05 -9.987180E+04 -1.188142E+04 -1.672804E+05 -9.251262E-10 -4.122513E-10
       145  18 -3.790713E+05 -1.142355E+05 -1.682481E+04 -1.794266E+05 -9.013566E-09 -2.351942E-09
       145  19 -2.163730E+05 -5.635614E+04  6.737841E+03 -1.336492E+05 -7.573375E+03  1.503669E+03
       145  20 -1.843874E+05 -4.200538E+04  1.161189E+04 -1.214988E+05 -8.675022E+03  4.317858E+03
       145  21 -1.479873E+05 -3.207061E+04  1.645698E+04 -1.144063E+05 -9.772060E+03  7.119432E+03
       145  22 -2.635333E+05 -7.314580E+04 -1.364201E+02 -1.469213E+05 -1.394572E+03  3.822134E+03
       145  23 -2.657386E+05 -7.093893E+04 -1.347372E+02 -1.443910E+05 -2.523469E+03  6.626273E+03
       145  24 -2.635358E+05 -7.315345E+04 -1.836070E+02 -1.469191E+05 -3.647763E+03  9.417818E+03
       145  25 -3.106904E+05 -8.993495E+04 -7.010370E+03 -1.601923E+05  4.783660E+03  6.140384E+03
       145  26 -3.470825E+05 -9.987171E+04 -1.188125E+04 -1.672804E+05  3.627235E+03  8.934370E+03
       145  27 -3.790712E+05 -1.142354E+05 -1.682454E+04 -1.794265E+05  2.475410E+03  1.171578E+04
       146   1 -1.266420E+05 -2.445617E+04  1.965718E+04 -1.084161E+05  1.042194E+04 -8.746556E+03
       146   2 -9.468331E+04 -1.009460E+04  2.448255E+04 -9.626047E+04  1.139450E+04 -1.152045E+04
       146   3 -5.830400E+04 -1.414147E+02  2.935314E+04 -8.914782E+04  1.232304E+04 -1.417636E+04
       146   4 -2.635448E+05 -7.315414E+04 -2.294423E+02 -1.469193E+05  4.297091E+03 -1.104533E+04
       146   5 -2.657369E+05 -7.096122E+04 -3.931814E+02 -1.443848E+05  5.526538E+03 -1.372319E+04
       146   6 -2.635603E+05 -7.322780E+04 -7.152829E+02 -1.468939E+05  6.711959E+03 -1.628305E+04
       146   7 -4.004271E+05 -1.218500E+05 -2.011604E+04 -1.854144E+05 -1.826332E+03 -1.334356E+04
       146   8 -4.367573E+05 -1.318242E+05 -2.526868E+04 -1.924963E+05 -3.396815E+02 -1.592528E+04
       146   9 -4.687679E+05 -1.463086E+05 -3.078320E+04 -2.046212E+05  1.102904E+03 -1.838898E+04
       146  10 -1.266421E+05 -2.445629E+04  1.965684E+04 -1.084160E+05 -5.882547E-09 -1.856066E-09
       146  11 -9.468348E+04 -1.009478E+04  2.448205E+04 -9.626037E+04 -6.578654E-09 -5.306634E-10
       146  12 -5.830422E+04 -1.416713E+02  2.935247E+04 -8.914768E+04 -3.858108E-09 -2.252404E-10
       146  13 -2.635449E+05 -7.315427E+04 -2.297062E+02 -1.469193E+05 -7.532809E-09 -1.448595E-09
       146  14 -2.657369E+05 -7.096143E+04 -3.935926E+02 -1.443847E+05 -4.331341E-09 -2.537326E-10
       146  15 -2.635604E+05 -7.322810E+04 -7.158657E+02 -1.468938E+05  9.305982E-10  1.765605E-10
       146  16 -4.004271E+05 -1.218502E+05 -2.011638E+04 -1.854145E+05 -3.302592E-09 -1.611685E-09
       146  17 -4.367574E+05 -1.318244E+05 -2.526916E+04 -1.924963E+05  2.817115E-09 -1.448843E-09
       146  18 -4.687680E+05 -1.463089E+05 -3.078384E+04 -2.046211E+05  3.736710E-09  2.008258E-10
       146  19 -1.266420E+05 -2.445617E+04  1.965718E+04 -1.084161E+05 -1.042194E+04  8.746556E+03
       146  20 -9.468331E+04 -1.009460E+04  2.448255E+04 -9.626047E+04 -1.139450E+04  1.152045E+04
       146  21 -5.830400E+04 -1.414147E+02  2.935314E+04 -8.914782E+04 -1.232304E+04  1.417636E+04
       146  22 -2.635448E+05 -7.315414E+04 -2.294423E+02 -1.469193E+05 -4.297091E+03  1.104533E+04
       146  23 -2.657369E+05 -7.096122E+04 -3.931814E+02 -1.443848E+05 -5.526538E+03  1.372319E+04
       146  24 -2.635603E+05 -7.322780E+04 -7.152829E+02 -1.468939E+05 -6.711959E+03  1.628305E+04
       146  25 -4.004271E+05 -1.218500E+05 -2.011604E+04 -1.854144E+05  1.826332E+03  1.334356E+04
       146  26 -4.367573E+05 -1.318242E+05 -2.526868E+04 -1.924963E+05  3.396815E+02  1.592528E+04
       146  27 -4.687679E+05 -1.463086E+05 -3.078320E+04 -2.046212E+05 -1.102904E+03  1.838898E+04
       147   1 -3.692809E+04  7.474961E+03  3.253935E+04 -8.318603E+04  1.303661E+04 -1.566268E+04
       147   2 -5.280659E+03  2.196278E+04  3.776852E+04 -7.076778E+04  1.248633E+04 -1.822982E+04
       147   3  3.082659E+04  3.193312E+04  4.393255E+04 -6.320950E+04  1.155389E+04 -1.977860E+04
       147   4 -2.636249E+05 -7.324257E+04 -9.541896E+02 -1.468895E+05  7.416893E+03 -1.777288E+04
       147   5 -2.657131E+05 -7.129898E+04 -1.765493E+03 -1.442596E+05  9.086000E+03 -1.950739E+04
       147   6 -2.637830E+05 -7.431333E+04 -3.400820E+03 -1.464907E+05  1.037297E+04 -2.022324E+04
       147   7 -4.902688E+05 -1.539557E+05 -3.444894E+04 -2.105718E+05  1.799273E+03 -1.988230E+04
       147   8 -5.260738E+05 -1.645541E+05 -4.130085E+04 -2.177228E+05  5.687156E+03 -2.078440E+04
       147   9 -5.582995E+05 -1.805506E+05 -5.073596E+04 -2.297347E+05  9.192641E+03 -2.066764E+04
       147  10 -3.692833E+04  7.474652E+03  3.253857E+04 -8.318586E+04 -5.540158E-10  1.042910E-09
       147  11 -5.280915E+03  2.196238E+04  3.776760E+04 -7.076760E+04 -1.927137E-09  6.561825E-10
       147  12  3.082634E+04  3.193267E+04  4.393156E+04 -6.320931E+04  1.930707E-09 -8.042230E-10
       147  13 -2.636250E+05 -7.324292E+04 -9.548865E+02 -1.468894E+05  1.698803E-09 -3.565062E-10
       147  14 -2.657133E+05 -7.129941E+04 -1.766363E+03 -1.442595E+05 -9.381771E-10 -4.250000E-10
       147  15 -2.637832E+05 -7.431380E+04 -3.401790E+03 -1.464905E+05  2.738893E-09 -1.454653E-09
       147  16 -4.902689E+05 -1.539561E+05 -3.444969E+04 -2.105718E+05 -5.907652E-10 -7.710257E-10
       147  17 -5.260740E+05 -1.645545E+05 -4.130172E+04 -2.177227E+05 -8.651381E-10 -8.498109E-10
       147  18 -5.582998E+05 -1.805511E+05 -5.073692E+04 -2.297346E+05 -2.927700E-09 -1.431374E-09
       147  19 -3.692809E+04  7.474961E+03  3.253935E+04 -8.318603E+04 -1.303661E+04  1.566268E+04
       147  20 -5.280659E+03  2.196278E+04  3.776852E+04 -7.076778E+04 -1.248633E+04  1.822982E+04
       147  21  3.082659E+04  3.193312E+04  4.393255E+04 -6.320950E+04 -1.155389E+04  1.977860E+04
       147  22 -2.636249E+05 -7.324257E+04 -9.541896E+02 -1.468895E+05 -7.416893E+03  1.777288E+04
       147  23 -2.657131E+05 -7.129898E+04 -1.765493E+03 -1.442596E+05 -9.086000E+03  1.950739E+04
       147  24 -2.637830E+05 -7.431333E+04 -3.400820E+03 -1.464907E+05 -1.037297E+04  2.022324E+04
       147  25 -4.902688E+05 -1.539557E+05 -3.444894E+04 -2.105718E+05 -1.799273E+03  1.988230E+04
       147  26 -5.260738E+05 -1.645541E+05 -4.130085E+04 -2.177228E+05 -5.687156E+03  2.078440E+04
       147  27 -5.582995E+05 -1.805506E+05 -5.073596E+04 -2.297347E+05 -9.192641E+03  2.066764E+04
       148   1  5.252488E+04  3.940286E+04  4.773957E+04 -5.748800E+04  1.240020E+04 -2.020944E+04
       148   2  8.024037E+04  5.521831E+04  5.865896E+04 -4.080819E+04 -3.674264E+03 -2.188104E+04
       148   3  1.123628E+05  6.375578E+04  7.944168E+04 -2.684555E+04 -2.305956E+04 -1.474525E+04
       148   4 -2.643946E+05 -7.460786E+04 -4.588708E+03 -1.464164E+05  1.113594E+04 -2.068552E+04
       148   5 -2.656703E+05 -7.593408E+04 -8.840858E+03 -1.424814E+05  1.426348E+04 -1.514573E+04
       148   6 -2.663453E+05 -8.834445E+04 -1.844532E+04 -1.412645E+05  1.408054E+04 -7.954871E+02
       148   7 -5.812059E+05 -1.886081E+05 -5.691912E+04 -2.353021E+05  9.872356E+03 -2.116134E+04
       148   8 -6.114491E+05 -2.070701E+05 -7.634280E+04 -2.440990E+05  3.219021E+04 -8.414954E+03
       148   9 -6.448967E+05 -2.404229E+05 -1.163347E+05 -2.556132E+05  5.119461E+04  1.314293E+04
       148  10  5.252461E+04  3.940238E+04  4.773851E+04 -5.748780E+04 -1.601550E-09 -9.295537E-10
       148  11  8.024023E+04  5.521779E+04  5.865804E+04 -4.080826E+04 -1.927503E-09  1.121321E-09
       148  12  1.123621E+05  6.375540E+04  7.944027E+04 -2.684583E+04  1.665445E-09  7.822904E-10
       148  13 -2.643948E+05 -7.460835E+04 -4.589745E+03 -1.464162E+05  1.362235E-09  1.833126E-11
       148  14 -2.656706E+05 -7.593438E+04 -8.841672E+03 -1.424812E+05  2.609126E-09  1.825450E-09
       148  15 -2.663456E+05 -8.834450E+04 -1.844569E+04 -1.412644E+05 -1.419487E-09  4.439467E-10
       148  16 -5.812062E+05 -1.886086E+05 -5.692015E+04 -2.353019E+05  7.405142E-10  4.926281E-10
       148  17 -6.114502E+05 -2.070705E+05 -7.634488E+04 -2.440988E+05  1.101843E-09  1.772831E-09
       148  18 -6.448996E+05 -2.404237E+05 -1.163399E+05 -2.556138E+05 -2.206105E-09 -4.245447E-10
       148  19  5.252488E+04  3.940286E+04  4.773957E+04 -5.748800E+04 -1.240020E+04  2.020944E+04
       148  20  8.024037E+04  5.521831E+04  5.865896E+04 -4.080819E+04  3.674264E+03  2.188104E+04
       148  21  1.123628E+05  6.375578E+04  7.944168E+04 -2.684555E+04  2.305956E+04  1.474525E+04
       148  22 -2.643946E+05 -7.460786E+04 -4.588708E+03 -1.464164E+05 -1.113594E+04  2.068552E+04
       148  23 -2.656703E+05 -7.593408E+04 -8.840858E+03 -1.424814E+05 -1.426348E+04  1.514573E+04
       148  24 -2.663453E+05 -8.834445E+04 -1.844532E+04 -1.412645E+05 -1.408054E+04  7.954871E+02
       148  25 -5.812059E+05 -1.886081E+05 -5.691912E+04 -2.353021E+05 -9.872356E+03  2.116134E+04
       148  26 -6.114491E+05 -2.070701E+05 -7.634280E+04 -2.440990E+05 -3.219021E+04  8.414954E+03
       148  27 -6.448967E+05 -2.404229E+05 -1.163347E+05 -2.556132E+05 -5.119461E+04 -1.314293E+04
       149   1 -1.085334E+05 -1.417851E+04 -3.624288E+04 -2.023452E+04 -6.651986E+04 -3.080640E+03
       149   2 -1.121120E+05  7.492753E+04  1.581441E+04 -5.248520E+03 -4.531989E+04 -9.313719E+03
       149   3 -1.430989E+05  6.528020E+04  2.939470E+04  2.081991E+04 -2.412577E+04 -9.030005E+03
       149   4 -3.886796E+05 -8.395909E+04 -1.051504E+05  8.942887E+03 -7.197100E+04 -3.087626E+03
       149   5 -3.746350E+05  9.993614E+03 -4.635199E+04  3.368215E+03 -4.702843E+04 -9.316029E+03
       149   6 -3.886621E+05  4.518773E+03 -2.864281E+04  8.876606E+03 -2.209099E+04 -9.027823E+03
       149   7 -6.687525E+05 -1.537423E+05 -1.740632E+05  3.810709E+04 -7.741967E+04 -3.095127E+03
       149   8 -6.370945E+05 -5.494497E+04 -1.085231E+05  1.198127E+04 -4.873626E+04 -9.318388E+03
       149   9 -6.341696E+05 -5.624645E+04 -8.668441E+04 -3.061961E+03 -2.005701E+04 -9.025719E+03
       149  10 -1.085381E+05 -1.417970E+04 -3.625122E+04 -2.023468E+04  7.814540E-10 -6.177271E-11
       149  11 -1.121142E+05  7.492689E+04  1.581039E+04 -5.248860E+03  1.103988E-09 -1.736370E-09
       149  12 -1.430996E+05  6.527996E+04  2.939345E+04  2.081974E+04 -1.302550E-09 -2.385817E-09
       149  13 -3.886852E+05 -8.396050E+04 -1.051602E+05  8.942708E+03 -1.207775E-09  6.849069E-10
       149  14 -3.746374E+05  9.992927E+03 -4.635631E+04  3.367862E+03 -1.937259E-09 -5.627118E-10
       149  15 -3.886627E+05  4.518554E+03 -2.864388E+04  8.876445E+03 -1.147458E-09 -3.841217E-10
       149  16 -6.687589E+05 -1.537439E+05 -1.740745E+05  3.810690E+04  4.558632E-10  4.539935E-10
       149  17 -6.370970E+05 -5.494570E+04 -1.085278E+05  1.198091E+04  7.673078E-10 -1.532242E-09
       149  18 -6.341701E+05 -5.624664E+04 -8.668532E+04 -3.062107E+03  5.538247E-10 -2.476206E-09
       149  19 -1.085334E+05 -1.417851E+04 -3.624288E+04 -2.023452E+04  6.651986E+04  3.080640E+03
       149  20 -1.121120E+05  7.492753E+04  1.581441E+04 -5.248520E+03  4.531989E+04  9.313719E+03
       149  21 -1.430989E+05  6.528020E+04  2.939470E+04  2.081991E+04  2.412577E+04  9.030005E+03
       149  22 -3.886796E+05 -8.395909E+04 -1.051504E+05  8.942887E+03  7.197100E+04  3.087626E+03
       149  23 -3.746350E+05  9.993614E+03 -4.635199E+04  3.368215E+03  4.702843E+04  9.316029E+03
       149  24 -3.886621E+05  4.518773E+03 -2.864281E+04  8.876606E+03  2.209099E+04  9.027823E+03
       149  25 -6.687525E+05 -1.537423E+05 -1.740632E+05  3.810709E+04  7.741967E+04  3.095127E+03
       149  26 -6.370945E+05 -5.494497E+04 -1.085231E+05  1.198127E+04  4.873626E+04  9.318388E+03
       149  27 -6.341696E+05 -5.624645E+04 -8.668441E+04 -3.061961E+03  2.005701E+04  9.025719E+03
       150   1 -1.578864E+05  4.782720E+04  3.016787E+04  6.721292E+03 -1.778474E+04 -7.709140E+03
       150   2 -1.738310E+05  5.238854E+04  3.717399E+04  2.822704E+03 -1.190073E+04 -7.387564E+03
       150   3 -1.928936E+05  4.752373E+04  3.799355E+04  1.036216E+04 -6.017494E+03 -6.647439E+03
       150   4 -3.831275E+05 -7.916709E+03 -2.327407E+04  8.982665E+03 -1.771922E+04 -7.709329E+03
       150   5 -3.815451E+05  9.990507E+02 -1.200483E+04  3.258965E+03 -1.159619E+04 -7.387393E+03
       150   6 -3.831234E+05  4.453737E+02 -7.089758E+03  8.973575E+03 -5.473766E+03 -6.646880E+03
       150   7 -6.083219E+05 -6.366425E+04 -7.671955E+04  1.124320E+04 -1.765373E+04 -7.709518E+03
       150   8 -5.892196E+05 -5.039354E+04 -6.118664E+04  3.695069E+03 -1.129176E+04 -7.387223E+03
       150   9 -5.733201E+05 -4.663558E+04 -5.217558E+04  7.585409E+03 -4.930204E+03 -6.646324E+03
       150  10 -1.578867E+05  4.782705E+04  3.016717E+04  6.721182E+03 -1.787205E-09 -3.019421E-09
       150  11 -1.738312E+05  5.238845E+04  3.717362E+04  2.822633E+03 -2.970190E-09  4.867381E-10
       150  12 -1.928936E+05  4.752367E+04  3.799340E+04  1.036213E+04 -4.309117E-09  2.403434E-09
       150  13 -3.831278E+05 -7.916857E+03 -2.327478E+04  8.982555E+03 -3.236472E-09 -2.414227E-09
       150  14 -3.815453E+05  9.989559E+02 -1.200518E+04  3.258896E+03  3.045901E-10 -4.401526E-10
       150  15 -3.831235E+05  4.453182E+02 -7.089897E+03  8.973546E+03  8.535769E-10  2.901045E-10
       150  16 -6.083223E+05 -6.366440E+04 -7.672025E+04  1.124309E+04  6.864274E-10 -9.566427E-10
       150  17 -5.892197E+05 -5.039363E+04 -6.118698E+04  3.695002E+03  9.703448E-10 -2.358799E-10
       150  18 -5.733201E+05 -4.663563E+04 -5.217571E+04  7.585382E+03  2.123501E-09  1.418669E-09
       150  19 -1.578864E+05  4.782720E+04  3.016787E+04  6.721292E+03  1.778474E+04  7.709140E+03
       150  20 -1.738310E+05  5.238854E+04  3.717399E+04  2.822704E+03  1.190073E+04  7.387564E+03
       150  21 -1.928936E+05  4.752373E+04  3.799355E+04  1.036216E+04  6.017494E+03  6.647439E+03
       150  22 -3.831275E+05 -7.916709E+03 -2.327407E+04  8.982665E+03  1.771922E+04  7.709329E+03
       150  23 -3.815451E+05  9.990507E+02 -1.200483E+04  3.258965E+03  1.159619E+04  7.387393E+03
       150  24 -3.831234E+05  4.453737E+02 -7.089758E+03  8.973575E+03  5.473766E+03  6.646880E+03
       150  25 -6.083219E+05 -6.366425E+04 -7.671955E+04  1.124320E+04  1.765373E+04  7.709518E+03
       150  26 -5.892196E+05 -5.039354E+04 -6.118664E+04  3.695069E+03  1.129176E+04  7.387223E+03
       150  27 -5.733201E+05 -4.663558E+04 -5.217558E+04  7.585409E+03  4.930204E+03  6.646324E+03
       151   1 -2.128886E+05  4.124783E+04  3.459051E+04  9.037543E+03 -4.782123E+03 -6.143471E+03
       151   2 -2.304064E+05  3.769236E+04  3.289585E+04  3.367308E+03 -3.266906E+03 -5.398783E+03
       151   3 -2.483581E+05  3.326986E+04  2.999335E+04  9.294645E+03 -1.751991E+03 -4.624426E+03
       151   4 -3.825165E+05 -7.123914E+02 -5.528809E+03  9.012542E+03 -4.362192E+03 -6.143034E+03
       151   5 -3.822971E+05  1.113184E+02 -3.066766E+03  3.213141E+03 -2.830273E+03 -5.398266E+03
       151   6 -3.825149E+05  6.497031E+01 -1.824398E+03  9.011491E+03 -1.298613E+03 -4.623826E+03
       151   7 -5.521180E+05 -4.267468E+04 -4.565012E+04  8.987539E+03 -3.942375E+03 -6.142597E+03
       151   8 -5.341666E+05 -3.747138E+04 -3.903098E+04  3.059004E+03 -2.393746E+03 -5.397749E+03
       151   9 -5.166552E+05 -3.314121E+04 -3.364340E+04  8.728393E+03 -8.453335E+02 -4.623225E+03
       151  10 -2.128886E+05  4.124779E+04  3.459040E+04  9.037519E+03 -1.094224E-09  3.225126E-09
       151  11 -2.304064E+05  3.769232E+04  3.289577E+04  3.367294E+03  1.947585E-09  1.904330E-09
       151  12 -2.483581E+05  3.326983E+04  2.999331E+04  9.294639E+03 -1.785102E-10 -4.574161E-11
       151  13 -3.825166E+05 -7.124371E+02 -5.528915E+03  9.012520E+03  1.372596E-09  3.508422E-11
       151  14 -3.822971E+05  1.112850E+02 -3.066835E+03  3.213129E+03 -1.710264E-10  2.039098E-09
       151  15 -3.825149E+05  6.494691E+01 -1.824442E+03  9.011486E+03 -8.672799E-10  3.650577E-09
       151  16 -5.521181E+05 -4.267473E+04 -4.565022E+04  8.987519E+03 -4.915222E-12  2.511669E-09
       151  17 -5.341666E+05 -3.747141E+04 -3.903105E+04  3.058994E+03 -9.036045E-10  2.769886E-09
       151  18 -5.166552E+05 -3.314123E+04 -3.364344E+04  8.728390E+03  1.002570E-09  2.560266E-09
       151  19 -2.128886E+05  4.124783E+04  3.459051E+04  9.037543E+03  4.782123E+03  6.143471E+03
       151  20 -2.304064E+05  3.769236E+04  3.289585E+04  3.367308E+03  3.266906E+03  5.398783E+03
       151  21 -2.483581E+05  3.326986E+04  2.999335E+04  9.294645E+03  1.751991E+03  4.624426E+03
       151  22 -3.825165E+05 -7.123914E+02 -5.528809E+03  9.012542E+03  4.362192E+03  6.143034E+03
       151  23 -3.822971E+05  1.113184E+02 -3.066766E+03  3.213141E+03  2.830273E+03  5.398266E+03
       151  24 -3.825149E+05  6.497031E+01 -1.824398E+03  9.011491E+03  1.298613E+03  4.623826E+03
       151  25 -5.521180E+05 -4.267468E+04 -4.565012E+04  8.987539E+03  3.942375E+03  6.142597E+03
       151  26 -5.341666E+05 -3.747138E+04 -3.903098E+04  3.059004E+03  2.393746E+03  5.397749E+03
       151  27 -5.166552E+05 -3.314121E+04 -3.364340E+04  8.728393E+03  8.453335E+02  4.623225E+03
       152   1 -2.691175E+05  2.799091E+04  2.534192E+04  9.170280E+03 -1.453127E+03 -4.168332E+03
       152   2 -2.869602E+05  2.363447E+04  2.167104E+04  3.304125E+03 -9.986308E+02 -3.390678E+03
       152   3 -3.049127E+05  1.922311E+04  1.768235E+04  9.141617E+03 -5.443018E+02 -2.609315E+03
       152   4 -3.824410E+05 -3.788853E+01 -1.436846E+03  9.035445E+03 -1.006685E+03 -4.167709E+03
       152   5 -3.823852E+05  2.337784E+01 -9.231247E+02  3.183514E+03 -5.501352E+02 -3.390015E+03
       152   6 -3.824401E+05  2.930379E+01 -7.287387E+02  9.035342E+03 -9.373954E+01 -2.608611E+03
       152   7 -4.957526E+05 -2.806760E+04 -2.821650E+04  8.900630E+03 -5.603243E+02 -4.167086E+03
       152   8 -4.778018E+05 -2.358837E+04 -2.351792E+04  3.062919E+03 -1.017081E+02 -3.389353E+03
       152   9 -4.599620E+05 -1.916493E+04 -1.914025E+04  8.929078E+03  3.567667E+02 -2.607907E+03
       152  10 -2.691175E+05  2.799089E+04  2.534188E+04  9.170275E+03  1.468216E-09 -6.619745E-10
       152  11 -2.869602E+05  2.363446E+04  2.167102E+04  3.304122E+03 -3.249692E-09  2.855476E-09
       152  12 -3.049127E+05  1.922310E+04  1.768234E+04  9.141616E+03 -2.485203E-09  3.862996E-09
       152  13 -3.824410E+05 -3.790745E+01 -1.436881E+03  9.035442E+03  2.165092E-09  1.036807E-09
       152  14 -3.823852E+05  2.336542E+01 -9.231468E+02  3.183513E+03  1.218901E-09  2.325599E-09
       152  15 -3.824401E+05  2.929648E+01 -7.287515E+02  9.035342E+03 -2.729885E-09  8.591571E-10
       152  16 -4.957526E+05 -2.806762E+04 -2.821653E+04  8.900628E+03 -9.414328E-10  1.631820E-09
       152  17 -4.778018E+05 -2.358838E+04 -2.351794E+04  3.062919E+03  1.287698E-09 -4.724202E-10
       152  18 -4.599621E+05 -1.916494E+04 -1.914026E+04  8.929079E+03  2.283803E-10 -1.453621E-09
       152  19 -2.691175E+05  2.799091E+04  2.534192E+04  9.170280E+03  1.453127E+03  4.168332E+03
       152  20 -2.869602E+05  2.363447E+04  2.167104E+04  3.304125E+03  9.986308E+02  3.390678E+03
       152  21 -3.049127E+05  1.922311E+04  1.768235E+04  9.141617E+03  5.443018E+02  2.609315E+03
       152  22 -3.824410E+05 -3.788853E+01 -1.436846E+03  9.035445E+03  1.006685E+03  4.167709E+03
       152  23 -3.823852E+05  2.337784E+01 -9.231247E+02  3.183514E+03  5.501352E+02  3.390015E+03
       152  24 -3.824401E+05  2.930379E+01 -7.287387E+02  9.035342E+03  9.373954E+01  2.608611E+03
       152  25 -4.957526E+05 -2.806760E+04 -2.821650E+04  8.900630E+03  5.603243E+02  4.167086E+03
       152  26 -4.778018E+05 -2.358837E+04 -2.351792E+04  3.062919E+03  1.017081E+02  3.389353E+03
       152  27 -4.599620E+05 -1.916493E+04 -1.914025E+04  8.929078E+03 -3.567667E+02  2.607907E+03
       153   1 -3.258931E+05  1.400891E+04  1.261709E+04  9.108118E+03 -4.147244E+02 -2.153381E+03
       153   2 -3.438214E+05  9.566111E+03  8.269604E+03  3.206977E+03  1.095612E+01 -1.369593E+03
       153   3 -3.618633E+05  5.077865E+03  3.623230E+03  9.069170E+03  4.365728E+02 -5.857606E+02
       153   4 -3.824401E+05  2.799453E+01 -7.179335E+02  9.048596E+03  3.614148E+01 -2.152659E+03
       153   5 -3.823831E+05  2.446239E+01 -8.611129E+02  3.166950E+03  4.618201E+02 -1.368857E+03
       153   6 -3.824398E+05 -2.443054E+01 -1.303096E+03  9.048685E+03  8.874471E+02 -5.850082E+02
       153   7 -4.389840E+05 -1.395315E+04 -1.405318E+04  8.989079E+03  4.869665E+02 -2.151937E+03
       153   8 -4.209434E+05 -9.517293E+03 -9.991932E+03  3.126926E+03  9.126562E+02 -1.368120E+03
       153   9 -4.030159E+05 -5.126757E+03 -6.229451E+03  9.028199E+03  1.338307E+03 -5.842558E+02
       153  10 -3.258931E+05  1.400890E+04  1.261709E+04  9.108117E+03  9.402182E-10  2.099815E-09
       153  11 -3.438214E+05  9.566109E+03  8.269600E+03  3.206977E+03  1.312646E-09 -2.777900E-10
       153  12 -3.618633E+05  5.077865E+03  3.623229E+03  9.069171E+03 -6.165964E-10 -1.585699E-09
       153  13 -3.824401E+05  2.798955E+01 -7.179422E+02  9.048596E+03  1.880683E-09  5.709437E-09
       153  14 -3.823831E+05  2.446033E+01 -8.611168E+02  3.166951E+03  2.455004E-09  1.256789E-09
       153  15 -3.824398E+05 -2.443112E+01 -1.303098E+03  9.048685E+03 -2.212187E-09 -2.115365E-09
       153  16 -4.389840E+05 -1.395315E+04 -1.405319E+04  8.989079E+03 -2.186784E-09  1.905271E-09
       153  17 -4.209434E+05 -9.517295E+03 -9.991937E+03  3.126927E+03 -5.484040E-09 -5.216997E-10
       153  18 -4.030159E+05 -5.126758E+03 -6.229455E+03  9.028200E+03 -1.998306E-09 -2.667227E-09
       153  19 -3.258931E+05  1.400891E+04  1.261709E+04  9.108118E+03  4.147244E+02  2.153381E+03
       153  20 -3.438214E+05  9.566111E+03  8.269604E+03  3.206977E+03 -1.095612E+01  1.369593E+03
       153  21 -3.618633E+05  5.077865E+03  3.623230E+03  9.069170E+03 -4.365728E+02  5.857606E+02
       153  22 -3.824401E+05  2.799453E+01 -7.179335E+02  9.048596E+03 -3.614148E+01  2.152659E+03
       153  23 -3.823831E+05  2.446239E+01 -8.611129E+02  3.166950E+03 -4.618201E+02  1.368857E+03
       153  24 -3.824398E+05 -2.443054E+01 -1.303096E+03  9.048685E+03 -8.874471E+02  5.850082E+02
       153  25 -4.389840E+05 -1.395315E+04 -1.405318E+04  8.989079E+03 -4.869665E+02  2.151937E+03
       153  26 -4.209434E+05 -9.517293E+03 -9.991932E+03  3.126926E+03 -9.126562E+02  1.368120E+03
       153  27 -4.030159E+05 -5.126757E+03 -6.229451E+03  9.028199E+03 -1.338307E+03  5.842558E+02
       154   1 -3.829698E+05 -5.932180E+01 -1.807862E+03  8.930228E+03  6.958958E+02 -1.266763E+02
       154   2 -4.007584E+05 -4.461266E+03 -7.113757E+03  3.145157E+03  2.073996E+03  6.590151E+02
       154   3 -4.189670E+05 -9.632287E+03 -1.352012E+04  9.132099E+03  3.452106E+03  1.429838E+03
       154   4 -3.825075E+05  6.638597E+01 -1.644202E+03  9.050183E+03  1.151209E+03 -1.259137E+02
       154   5 -3.822984E+05  1.066208E+02 -2.742559E+03  3.164756E+03  2.520782E+03  6.597555E+02
       154   6 -3.825080E+05 -6.206933E+02 -4.935393E+03  9.051324E+03  3.890406E+03  1.430557E+03
       154   7 -3.820452E+05  1.920939E+02 -1.480540E+03  9.170138E+03  1.606522E+03 -1.251509E+02
       154   8 -3.638380E+05  4.674483E+03  1.628616E+03  3.184356E+03  2.967582E+03  6.604960E+02
       154   9 -3.460478E+05  8.390806E+03  3.649239E+03  8.970543E+03  4.328731E+03  1.431276E+03
       154  10 -3.829698E+05 -5.932195E+01 -1.807863E+03  8.930228E+03 -3.764576E-09  7.524622E-10
       154  11 -4.007584E+05 -4.461267E+03 -7.113766E+03  3.145156E+03 -1.628436E-09  1.128689E-09
       154  12 -4.189670E+05 -9.632293E+03 -1.352014E+04  9.132095E+03  1.805810E-09  1.278126E-09
       154  13 -3.825075E+05  6.638560E+01 -1.644204E+03  9.050183E+03 -2.161343E-09 -6.836177E-10
       154  14 -3.822984E+05  1.066186E+02 -2.742572E+03  3.164755E+03  2.055049E-09  1.466955E-09
       154  15 -3.825080E+05 -6.206996E+02 -4.935426E+03  9.051320E+03 -1.434111E-09  7.837904E-10
       154  16 -3.820452E+05  1.920932E+02 -1.480545E+03  9.170138E+03  1.795403E-09  9.627779E-10
       154  17 -3.638380E+05  4.674480E+03  1.628598E+03  3.184354E+03 -2.070054E-09 -2.874568E-09
       154  18 -3.460478E+05  8.390799E+03  3.649200E+03  8.970538E+03 -2.153027E-09  1.166977E-10
       154  19 -3.829698E+05 -5.932180E+01 -1.807862E+03  8.930228E+03 -6.958958E+02  1.266763E+02
       154  20 -4.007584E+05 -4.461266E+03 -7.113757E+03  3.145157E+03 -2.073996E+03 -6.590151E+02
       154  21 -4.189670E+05 -9.632287E+03 -1.352012E+04  9.132099E+03 -3.452106E+03 -1.429838E+03
       154  22 -3.825075E+05  6.638597E+01 -1.644202E+03  9.050183E+03 -1.151209E+03  1.259137E+02
       154  23 -3.822984E+05  1.066208E+02 -2.742559E+03  3.164756E+03 -2.520782E+03 -6.597555E+02
       154  24 -3.825080E+05 -6.206933E+02 -4.935393E+03  9.051324E+03 -3.890406E+03 -1.430557E+03
       154  25 -3.820452E+05  1.920939E+02 -1.480540E+03  9.170138E+03 -1.606522E+03  1.251509E+02
       154  26 -3.638380E+05  4.674483E+03  1.628616E+03  3.184356E+03 -2.967582E+03 -6.604960E+02
       154  27 -3.460478E+05  8.390806E+03  3.649239E+03  8.970543E+03 -4.328731E+03 -1.431276E+03
       155   1 -4.405181E+05 -1.382364E+04 -1.998442E+04  7.890567E+03  4.375295E+03  1.918090E+03
       155   2 -4.570194E+05 -1.775357E+04 -2.855835E+04  3.634548E+03  9.966049E+03  2.692395E+03
       155   3 -4.764050E+05 -3.014033E+04 -4.289734E+04  1.111218E+04  1.555700E+04  3.236552E+03
       155   4 -3.830511E+05  4.109604E+02 -6.326697E+03  9.038439E+03  4.882408E+03  1.918918E+03
       155   5 -3.816217E+05  9.019552E+02 -1.070405E+04  3.177493E+03  1.034125E+04  2.692963E+03
       155   6 -3.830539E+05 -7.040384E+03 -2.075429E+04  9.050173E+03  1.580045E+04  3.236846E+03
       155   7 -3.255811E+05  1.464533E+04  7.330799E+03  1.018642E+04  5.389567E+03  1.919748E+03
       155   8 -3.062189E+05  1.955708E+04  7.149855E+03  2.720381E+03  1.071650E+04  2.693531E+03
       155   9 -2.896948E+05  1.605895E+04  1.388159E+03  6.987856E+03  1.604395E+04  3.237137E+03
       155  10 -4.405181E+05 -1.382365E+04 -1.998446E+04  7.890560E+03 -2.495602E-09  3.274605E-09
       155  11 -4.570195E+05 -1.775361E+04 -2.855855E+04  3.634526E+03 -2.091616E-09  1.095445E-09
       155  12 -4.764053E+05 -3.014040E+04 -4.289782E+04  1.111213E+04  7.934172E-10  1.956691E-09
       155  13 -3.830512E+05  4.109500E+02 -6.326748E+03  9.038431E+03  1.457583E-12  1.699001E-09
       155  14 -3.816219E+05  9.019187E+02 -1.070427E+04  3.177471E+03  9.599737E-10  1.966270E-09
       155  15 -3.830542E+05 -7.040463E+03 -2.075478E+04  9.050132E+03 -2.530514E-10 -1.213244E-09
       155  16 -3.255812E+05  1.464531E+04  7.330738E+03  1.018641E+04  6.767255E-10  6.547779E-10
       155  17 -3.062190E+05  1.955704E+04  7.149626E+03  2.720358E+03 -2.268933E-09  3.038217E-12
       155  18 -2.896950E+05  1.605887E+04  1.387655E+03  6.987815E+03 -1.253312E-10 -2.243063E-09
       155  19 -4.405181E+05 -1.382364E+04 -1.998442E+04  7.890567E+03 -4.375295E+03 -1.918090E+03
       155  20 -4.570194E+05 -1.775357E+04 -2.855835E+04  3.634548E+03 -9.966049E+03 -2.692395E+03
       155  21 -4.764050E+05 -3.014033E+04 -4.289734E+04  1.111218E+04 -1.555700E+04 -3.236552E+03
       155  22 -3.830511E+05  4.109604E+02 -6.326697E+03  9.038439E+03 -4.882408E+03 -1.918918E+03
       155  23 -3.816217E+05  9.019552E+02 -1.070405E+04  3.177493E+03 -1.034125E+04 -2.692963E+03
       155  24 -3.830539E+05 -7.040384E+03 -2.075429E+04  9.050173E+03 -1.580045E+04 -3.236846E+03
       155  25 -3.255811E+05  1.464533E+04  7.330799E+03  1.018642E+04 -5.389567E+03 -1.919748E+03
       155  26 -3.062189E+05  1.955708E+04  7.149855E+03  2.720381E+03 -1.071650E+04 -2.693531E+03
       155  27 -2.896948E+05  1.605895E+04  1.388159E+03  6.987856E+03 -1.604395E+04 -3.237137E+03
       156   1 -5.022331E+05 -2.425536E+04 -5.256873E+04 -1.636663E+03  1.836714E+04  4.177399E+03
       156   2 -5.074022E+05 -2.369919E+04 -7.257762E+04  1.091109E+04  4.266942E+04  4.723518E+03
       156   3 -5.380250E+05 -1.121630E+05 -1.306777E+05  3.507503E+04  6.697648E+04  1.669912E+03
       156   4 -3.879912E+05  4.048249E+03 -2.554165E+04  8.982067E+03  1.969896E+04  4.179695E+03
       156   5 -3.754542E+05  8.926258E+03 -4.132712E+04  3.229581E+03  4.193251E+04  4.721841E+03
       156   6 -3.880063E+05 -7.484723E+04 -9.376079E+04  9.093773E+03  6.417161E+04  1.663165E+03
       156   7 -2.737371E+05  3.235134E+04  1.484594E+03  1.960276E+04  2.103102E+04  4.182037E+03
       156   8 -2.434901E+05  4.155068E+04 -1.007780E+04 -4.453577E+03  4.119545E+04  4.720182E+03
       156   9 -2.379656E+05 -3.753056E+04 -5.684517E+04 -1.689378E+04  6.136607E+04  1.656654E+03
       156  10 -5.022334E+05 -2.425547E+04 -5.256940E+04 -1.636724E+03 -1.533501E-09  2.639271E-10
       156  11 -5.074042E+05 -2.369971E+04 -7.258109E+04  1.091093E+04 -1.461488E-09 -2.387927E-09
       156  12 -5.380298E+05 -1.121642E+05 -1.306861E+05  3.507494E+04  1.721159E-10 -5.869549E-10
       156  13 -3.879916E+05  4.048126E+03 -2.554241E+04  8.982001E+03 -2.682153E-10  2.642170E-09
       156  14 -3.754561E+05  8.925762E+03 -4.133047E+04  3.229422E+03  6.533732E-10 -5.145681E-09
       156  15 -3.880107E+05 -7.484834E+04 -9.376853E+04  9.093687E+03 -6.302130E-10  3.578253E-10
       156  16 -2.737376E+05  3.235120E+04  1.483729E+03  1.960269E+04  1.182915E-09  2.156000E-09
       156  17 -2.434919E+05  4.155020E+04 -1.008103E+04 -4.453733E+03 -6.717465E-10  1.331270E-09
       156  18 -2.379696E+05 -3.753157E+04 -5.685225E+04 -1.689386E+04 -1.116180E-09 -1.603114E-10
       156  19 -5.022331E+05 -2.425536E+04 -5.256873E+04 -1.636663E+03 -1.836714E+04 -4.177399E+03
       156  20 -5.074022E+05 -2.369919E+04 -7.257762E+04  1.091109E+04 -4.266942E+04 -4.723518E+03
       156  21 -5.380250E+05 -1.121630E+05 -1.306777E+05  3.507503E+04 -6.697648E+04 -1.669912E+03
       156  22 -3.879912E+05  4.048249E+03 -2.554165E+04  8.982067E+03 -1.969896E+04 -4.179695E+03
       156  23 -3.754542E+05  8.926258E+03 -4.132712E+04  3.229581E+03 -4.193251E+04 -4.721841E+03
       156  24 -3.880063E+05 -7.484723E+04 -9.376079E+04  9.093773E+03 -6.417161E+04 -1.663165E+03
       156  25 -2.737371E+05  3.235134E+04  1.484594E+03  1.960276E+04 -2.103102E+04 -4.182037E+03
       156  26 -2.434901E+05  4.155068E+04 -1.007780E+04 -4.453577E+03 -4.119545E+04 -4.720182E+03
       156  27 -2.379656E+05 -3.753056E+04 -5.684517E+04 -1.689378E+04 -6.136607E+04 -1.656654E+03
       157   1  1.868965E+05  1.047573E+06  2.067777E+05 -9.480393E+04  4.041030E+03  8.075949E+04
       157   2  6.490866E+04  9.335687E+05  1.204434E+05 -4.377789E+04  1.138088E+04  4.466890E+04
       157   3  4.278290E+04  8.491600E+05  8.253283E+04 -4.424654E+04  8.184781E+03  8.575161E+03
       157   4  9.004826E+04  6.585410E+05  1.115286E+05 -5.735685E+04  4.053048E+03  7.166728E+04
       157   5 -6.269912E+03  6.444192E+05  5.357068E+04 -3.164860E+04  1.138340E+04  4.318674E+04
       157   6 -4.019886E+03  6.585839E+05  3.877708E+04 -5.743211E+04  8.178556E+03  1.469713E+04
       157   7 -6.805927E+03  2.696494E+05  1.626939E+04 -1.993322E+04  4.063976E+03  6.258075E+04
       157   8 -7.745381E+04  3.553472E+05 -1.330757E+04 -1.952498E+04  1.138586E+04  4.170526E+04
       157   9 -5.082452E+04  4.680418E+05 -4.980817E+03 -7.061359E+04  8.172069E+03  2.081723E+04
       157  10  1.868948E+05  1.047566E+06  2.067655E+05 -9.480419E+04 -2.356442E-10  3.075497E-09
       157  11  6.490799E+04  9.335665E+05  1.204394E+05 -4.377830E+04 -2.050661E-09  2.515949E-09
       157  12  4.278281E+04  8.491599E+05  8.253256E+04 -4.424659E+04  2.446885E-09  2.279249E-09
       157  13  9.004686E+04  6.585355E+05  1.115189E+05 -5.735708E+04  2.209106E-10  6.609681E-10
       157  14 -6.270551E+03  6.444172E+05  5.356693E+04 -3.164900E+04 -2.259646E-09  3.704549E-10
       157  15 -4.020016E+03  6.585836E+05  3.877655E+04 -5.743220E+04 -2.689365E-09  1.348012E-09
       157  16 -6.806995E+03  2.696452E+05  1.626201E+04 -1.993343E+04  3.125400E-10 -2.626894E-09
       157  17 -7.745441E+04  3.553453E+05 -1.331108E+04 -1.952536E+04  3.269766E-09 -2.026994E-09
       157  18 -5.082471E+04  4.680413E+05 -4.981756E+03 -7.061373E+04  5.218672E-10 -1.717035E-09
       157  19  1.868965E+05  1.047573E+06  2.067777E+05 -9.480393E+04 -4.041030E+03 -8.075949E+04
       157  20  6.490866E+04  9.335687E+05  1.204434E+05 -4.377789E+04 -1.138088E+04 -4.466890E+04
       157  21  4.278290E+04  8.491600E+05  8.253283E+04 -4.424654E+04 -8.184781E+03 -8.575161E+03
       157  22  9.004826E+04  6.585410E+05  1.115286E+05 -5.735685E+04 -4.053048E+03 -7.166728E+04
       157  23 -6.269912E+03  6.444192E+05  5.357068E+04 -3.164860E+04 -1.138340E+04 -4.318674E+04
       157  24 -4.019886E+03  6.585839E+05  3.877708E+04 -5.743211E+04 -8.178556E+03 -1.469713E+04
       157  25 -6.805927E+03  2.696494E+05  1.626939E+04 -1.993322E+04 -4.063976E+03 -6.258075E+04
       157  26 -7.745381E+04  3.553472E+05 -1.330757E+04 -1.952498E+04 -1.138586E+04 -4.170526E+04
       157  27 -5.082452E+04  4.680418E+05 -4.980817E+03 -7.061359E+04 -8.172069E+03 -2.081723E+04
       158   1  2.971206E+04  7.495182E+05  5.796856E+04 -6.179137E+04  4.046785E+03  5.422118E+03
       158   2 -2.250013E+03  6.470105E+05  3.305073E+04 -3.119051E+04 -1.291763E+02 -1.169169E+04
       158   3 -1.396706E+04  5.516761E+05  2.429972E+04 -5.235275E+04 -4.296995E+03 -2.880290E+04
       158   4  6.193021E+03  6.538913E+05  3.597866E+04 -5.746966E+04  4.043688E+03  8.446488E+03
       158   5 -1.438569E+03  6.503076E+05  3.380831E+04 -3.158595E+04 -1.322734E+02 -8.672786E+03
       158   6  1.117624E+04  6.538884E+05  4.780912E+04 -5.746457E+04 -4.299868E+03 -2.579211E+04
       158   7 -1.732658E+04  5.582729E+05  1.398819E+04 -5.314861E+04  4.040633E+03  1.147040E+04
       158   8 -6.271197E+02  6.536047E+05  3.456592E+04 -3.198140E+04 -1.353744E+02 -5.653865E+03
       158   9  3.631891E+04  7.561105E+05  7.131788E+04 -6.257724E+04 -4.302789E+03 -2.278084E+04
       158  10  2.971203E+04  7.495181E+05  5.796848E+04 -6.179139E+04  1.555418E-09  2.188545E-09
       158  11 -2.250049E+03  6.470104E+05  3.305048E+04 -3.119051E+04  1.671228E-09 -4.001221E-09
       158  12 -1.396730E+04  5.516752E+05  2.429813E+04 -5.235285E+04  1.074313E-10 -6.903396E-09
       158  13  6.192985E+03  6.538912E+05  3.597849E+04 -5.746968E+04 -2.055152E-09  1.031026E-09
       158  14 -1.438589E+03  6.503075E+05  3.380817E+04 -3.158595E+04 -4.546554E-09  3.592771E-11
       158  15  1.117604E+04  6.538877E+05  4.780784E+04 -5.746466E+04 -2.700307E-09  1.170440E-09
       158  16 -1.732663E+04  5.582727E+05  1.398791E+04 -5.314864E+04 -9.083249E-10 -1.723876E-09
       158  17 -6.271283E+02  6.536047E+05  3.456586E+04 -3.198140E+04 -3.260163E-10  4.754740E-09
       158  18  3.631875E+04  7.561099E+05  7.131687E+04 -6.257731E+04 -5.751764E-10  7.550393E-09
       158  19  2.971206E+04  7.495182E+05  5.796856E+04 -6.179137E+04 -4.046785E+03 -5.422118E+03
       158  20 -2.250013E+03  6.470105E+05  3.305073E+04 -3.119051E+04  1.291763E+02  1.169169E+04
       158  21 -1.396706E+04  5.516761E+05  2.429972E+04 -5.235275E+04  4.296995E+03  2.880290E+04
       158  22  6.193021E+03  6.538913E+05  3.597866E+04 -5.746966E+04 -4.043688E+03 -8.446488E+03
       158  23 -1.438569E+03  6.503076E+05  3.380831E+04 -3.158595E+04  1.322734E+02  8.672786E+03
       158  24  1.117624E+04  6.538884E+05  4.780912E+04 -5.746457E+04  4.299868E+03  2.579211E+04
       158  25 -1.732658E+04  5.582729E+05  1.398819E+04 -5.314861E+04 -4.040633E+03 -1.147040E+04
       158  26 -6.271197E+02  6.536047E+05  3.456592E+04 -3.198140E+04  1.353744E+02  5.653865E+03
       158  27  3.631891E+04  7.561105E+05  7.131788E+04 -6.257724E+04  4.302789E+03  2.278084E+04
       159   1 -5.622105E+04  4.657122E+05  1.070018E+04 -7.989915E+04 -8.442955E+03 -4.052409E+04
       159   2 -8.340569E+04  3.433945E+05  1.814108E+04 -1.128656E+04 -1.162308E+04 -7.897081E+04
       159   3  5.459565E+04  2.673450E+05  9.189745E+04  5.858884E+03 -4.114751E+03 -1.174014E+05
       159   4 -7.814493E+03  6.628689E+05  5.596887E+04 -5.743987E+04 -8.450468E+03 -3.436739E+04
       159   5 -1.058251E+04  6.390562E+05  8.654352E+04 -3.164594E+04 -1.161878E+04 -8.053629E+04
       159   6  1.531238E+05  6.628064E+05  1.887659E+05 -5.731225E+04 -4.095599E+03 -1.266956E+05
       159   7  4.059128E+04  8.600628E+05  1.012354E+05 -3.497340E+04 -8.457533E+03 -2.820875E+04
       159   8  6.223608E+04  9.347994E+05  1.549403E+05 -5.201506E+04 -1.161438E+04 -8.210251E+04
       159   9  2.516554E+05  1.058419E+06  2.856253E+05 -1.205237E+05 -4.074567E+03 -1.359956E+05
       159  10 -5.622156E+04  4.657104E+05  1.069696E+04 -7.989943E+04  7.193255E-11 -1.860464E-09
       159  11 -8.340750E+04  3.433878E+05  1.812911E+04 -1.128730E+04  2.361371E-09  1.450060E-10
       159  12  5.459193E+04  2.673302E+05  9.187153E+04  5.858495E+03  1.515786E-09  3.640158E-09
       159  13 -7.814887E+03  6.628677E+05  5.596652E+04 -5.744011E+04 -4.925977E-09  1.084481E-09
       159  14 -1.058439E+04  6.390492E+05  8.653109E+04 -3.164669E+04 -5.416291E-10 -2.464374E-10
       159  15  1.531195E+05  6.627891E+05  1.887357E+05 -5.731267E+04 -1.630523E-09  1.241365E-09
       159  16  4.059099E+04  8.600620E+05  1.012338E+05 -3.497359E+04  6.363645E-10  2.369106E-09
       159  17  6.223413E+04  9.347921E+05  1.549274E+05 -5.201582E+04  2.840034E-09  2.833873E-10
       159  18  2.516504E+05  1.058399E+06  2.855906E+05 -1.205241E+05 -1.235913E-09 -3.041769E-09
       159  19 -5.622105E+04  4.657122E+05  1.070018E+04 -7.989915E+04  8.442955E+03  4.052409E+04
       159  20 -8.340569E+04  3.433945E+05  1.814108E+04 -1.128656E+04  1.162308E+04  7.897081E+04
       159  21  5.459565E+04  2.673450E+05  9.189745E+04  5.858884E+03  4.114751E+03  1.174014E+05
       159  22 -7.814493E+03  6.628689E+05  5.596887E+04 -5.743987E+04  8.450468E+03  3.436739E+04
       159  23 -1.058251E+04  6.390562E+05  8.654352E+04 -3.164594E+04  1.161878E+04  8.053629E+04
       159  24  1.531238E+05  6.628064E+05  1.887659E+05 -5.731225E+04  4.095599E+03  1.266956E+05
       159  25  4.059128E+04  8.600628E+05  1.012354E+05 -3.497340E+04  8.457533E+03  2.820875E+04
       159  26  6.223608E+04  9.347994E+05  1.549403E+05 -5.201506E+04  1.161438E+04  8.210251E+04
       159  27  2.516554E+05  1.058419E+06  2.856253E+05 -1.205237E+05  4.074567E+03  1.359956E+05
       160   1  8.771973E+04  3.950791E+04  2.111356E+04 -8.206203E+03 -4.819170E+04 -5.422558E+03
       160   2  6.103613E+04  1.054375E+05  5.504975E+04  2.178631E+03 -3.526274E+04 -1.656044E+04
       160   3  1.372726E+04  9.549531E+04  6.162020E+04  3.151487E+04 -2.235116E+04 -1.645146E+04
       160   4 -3.582776E+05 -7.140401E+04 -8.787108E+04  2.060025E+04 -6.024399E+04 -5.442446E+03
       160   5 -3.472443E+05  4.936945E+03 -3.929249E+04  1.106595E+04 -3.922966E+04 -1.656809E+04
       160   6 -3.582572E+05  3.973506E+03 -2.371025E+04  2.048447E+04 -1.823160E+04 -1.644441E+04
       160   7 -8.040914E+05 -1.823274E+05 -1.968692E+05  4.938589E+04 -7.228762E+04 -5.463460E+03
       160   8 -7.553704E+05 -9.557495E+04 -1.336457E+05  1.994733E+04 -4.319398E+04 -1.657586E+04
       160   9 -7.301132E+05 -8.755750E+04 -1.090497E+05  9.460684E+03 -1.411449E+04 -1.643751E+04
       160  10  8.771723E+04  3.950726E+04  2.110914E+04 -8.206414E+03 -4.674149E-09  6.253405E-10
       160  11  6.103472E+04  1.054368E+05  5.504689E+04  2.178160E+03 -1.313161E-11  6.692455E-09
       160  12  1.372665E+04  9.549489E+04  6.161875E+04  3.151457E+04  2.322478E-09  1.949474E-09
       160  13 -3.582815E+05 -7.140502E+04 -8.787796E+04  2.059998E+04  1.004118E-09 -1.093199E-09
       160  14 -3.472460E+05  4.936237E+03 -3.929589E+04  1.106543E+04  8.425133E-10 -4.359838E-09
       160  15 -3.582576E+05  3.973127E+03 -2.371139E+04  2.048423E+04  2.106484E-09  7.376717E-10
       160  16 -8.040970E+05 -1.823288E+05 -1.968791E+05  4.938558E+04  4.095833E-09 -6.145349E-10
       160  17 -7.553725E+05 -9.557575E+04 -1.336498E+05  1.994675E+04 -1.749063E-09  4.327047E-09
       160  18 -7.301135E+05 -8.755784E+04 -1.090506E+05  9.460497E+03 -1.841748E-09 -1.869175E-10
       160  19  8.771973E+04  3.950791E+04  2.111356E+04 -8.206203E+03  4.819170E+04  5.422558E+03
       160  20  6.103613E+04  1.054375E+05  5.504975E+04  2.178631E+03  3.526274E+04  1.656044E+04
       160  21  1.372726E+04  9.549531E+04  6.162020E+04  3.151487E+04  2.235116E+04  1.645146E+04
       160  22 -3.582776E+05 -7.140401E+04 -8.787108E+04  2.060025E+04  6.024399E+04  5.442446E+03
       160  23 -3.472443E+05  4.936945E+03 -3.929249E+04  1.106595E+04  3.922966E+04  1.656809E+04
       160  24 -3.582572E+05  3.973506E+03 -2.371025E+04  2.048447E+04  1.823160E+04  1.644441E+04
       160  25 -8.040914E+05 -1.823274E+05 -1.968692E+05  4.938589E+04  7.228762E+04  5.463460E+03
       160  26 -7.553704E+05 -9.557495E+04 -1.336457E+05  1.994733E+04  4.319398E+04  1.657586E+04
       160  27 -7.301132E+05 -8.755750E+04 -1.090497E+05  9.460684E+03  1.411449E+04  1.643751E+04
       161   1 -1.742488E+04  7.750566E+04  5.844946E+04  1.929012E+04 -1.539302E+04 -1.406030E+04
       161   2 -5.350096E+04  7.409191E+04  5.871954E+04  1.090400E+04 -1.069297E+04 -1.286409E+04
       161   3 -9.167586E+04  6.490510E+04  5.447723E+04  2.195055E+04 -5.995112E+03 -1.110665E+04
       161   4 -3.538372E+05 -5.290855E+03 -1.909173E+04  2.063208E+04 -1.473478E+04 -1.405964E+04
       161   5 -3.527475E+05  4.695301E+02 -1.008813E+04  1.090987E+04 -9.633200E+03 -1.286242E+04
       161   6 -3.538296E+05  3.853173E+02 -5.877817E+03  2.062103E+04 -4.533535E+03 -1.110386E+04
       161   7 -6.901448E+05 -8.809529E+04 -9.664045E+04  2.197325E+04 -1.407689E+04 -1.405898E+04
       161   8 -6.519112E+05 -7.315911E+04 -7.890172E+04  1.091570E+04 -8.573934E+03 -1.286075E+04
       161   9 -6.159197E+05 -6.413927E+04 -6.623741E+04  1.929204E+04 -3.072570E+03 -1.110108E+04
       161  10 -1.742519E+04  7.750539E+04  5.844865E+04  1.928995E+04 -1.477001E-09 -2.164590E-09
       161  11 -5.350113E+04  7.409170E+04  5.871901E+04  1.090389E+04  2.733950E-10 -8.916725E-10
       161  12 -9.167593E+04  6.490496E+04  5.447693E+04  2.195050E+04  3.945382E-09  5.174781E-09
       161  13 -3.538375E+05 -5.291125E+03 -1.909251E+04  2.063191E+04  1.807883E-09  3.917773E-09
       161  14 -3.527477E+05  4.693275E+02 -1.008862E+04  1.090977E+04  2.411573E-09 -1.261818E-08
       161  15 -3.538296E+05  3.851794E+02 -5.878087E+03  2.062099E+04 -8.663986E-10  4.678952E-09
       161  16 -6.901450E+05 -8.809555E+04 -9.664119E+04  2.197309E+04  1.369824E-09 -4.844863E-09
       161  17 -6.519113E+05 -7.315930E+04 -7.890217E+04  1.091562E+04 -1.239259E-09 -2.620492E-09
       161  18 -6.159197E+05 -6.413941E+04 -6.623766E+04  1.929202E+04 -3.743123E-09  2.827701E-09
       161  19 -1.742488E+04  7.750566E+04  5.844946E+04  1.929012E+04  1.539302E+04  1.406030E+04
       161  20 -5.350096E+04  7.409191E+04  5.871954E+04  1.090400E+04  1.069297E+04  1.286409E+04
       161  21 -9.167586E+04  6.490510E+04  5.447723E+04  2.195055E+04  5.995112E+03  1.110665E+04
       161  22 -3.538372E+05 -5.290855E+03 -1.909173E+04  2.063208E+04  1.473478E+04  1.405964E+04
       161  23 -3.527475E+05  4.695301E+02 -1.008813E+04  1.090987E+04  9.633200E+03  1.286242E+04
       161  24 -3.538296E+05  3.853173E+02 -5.877817E+03  2.062103E+04  4.533535E+03  1.110386E+04
       161  25 -6.901448E+05 -8.809529E+04 -9.664045E+04  2.197325E+04  1.407689E+04  1.405898E+04
       161  26 -6.519112E+05 -7.315911E+04 -7.890172E+04  1.091570E+04  8.573934E+03  1.286075E+04
       161  27 -6.159197E+05 -6.413927E+04 -6.623741E+04  1.929204E+04  3.072570E+03  1.110108E+04
       162   1 -1.269441E+05  5.540145E+04  4.742275E+04  2.099057E+04 -4.911796E+03 -9.969720E+03
       162   2 -1.640896E+05  4.663279E+04  4.093325E+04  1.122319E+04 -3.668998E+03 -8.158104E+03
       162   3 -2.015762E+05  3.750179E+04  3.352377E+04  2.101442E+04 -2.426868E+03 -6.316164E+03
       162   4 -3.534197E+05 -2.992001E+02 -4.542753E+03  2.065276E+04 -3.619662E+03 -9.967150E+03
       162   5 -3.532448E+05  9.374744E+01 -2.548835E+03  1.087279E+04 -2.355482E+03 -8.155312E+03
       162   6 -3.534156E+05  1.207339E+02 -1.489829E+03  2.065182E+04 -1.091896E+03 -6.313141E+03
       162   7 -5.798477E+05 -5.600342E+04 -5.651164E+04  2.031504E+04 -2.327995E+03 -9.964581E+03
       162   8 -5.423668E+05 -4.644780E+04 -4.603328E+04  1.052249E+04 -1.042363E+03 -8.152521E+03
       162   9 -5.052337E+05 -3.726194E+04 -3.650496E+04  2.028928E+04  2.427525E+02 -6.310118E+03
       162  10 -1.269442E+05  5.540133E+04  4.742252E+04  2.099053E+04  4.086854E-09 -1.994272E-09
       162  11 -1.640896E+05  4.663272E+04  4.093310E+04  1.122316E+04  1.157209E-09 -4.601373E-09
       162  12 -2.015762E+05  3.750175E+04  3.352369E+04  2.101441E+04 -2.132336E-09 -2.380110E-09
       162  13 -3.534197E+05 -2.993103E+02 -4.542964E+03  2.065273E+04  1.157304E-09  4.064714E-10
       162  14 -3.532448E+05  9.367454E+01 -2.548971E+03  1.087278E+04 -2.144670E-09 -1.367737E-09
       162  15 -3.534156E+05  1.206908E+02 -1.489906E+03  2.065181E+04 -2.790488E-09 -6.125677E-10
       162  16 -5.798477E+05 -5.600353E+04 -5.651183E+04  2.031502E+04 -4.136445E-09 -1.998255E-09
       162  17 -5.423668E+05 -4.644787E+04 -4.603341E+04  1.052248E+04 -2.634763E-09  5.473306E-09
       162  18 -5.052337E+05 -3.726198E+04 -3.650503E+04  2.028929E+04  2.219716E-09  7.442429E-09
       162  19 -1.269441E+05  5.540145E+04  4.742275E+04  2.099057E+04  4.911796E+03  9.969720E+03
       162  20 -1.640896E+05  4.663279E+04  4.093325E+04  1.122319E+04  3.668998E+03  8.158104E+03
       162  21 -2.015762E+05  3.750179E+04  3.352377E+04  2.101442E+04  2.426868E+03  6.316164E+03
       162  22 -3.534197E+05 -2.992001E+02 -4.542753E+03  2.065276E+04  3.619662E+03  9.967150E+03
       162  23 -3.532448E+05  9.374744E+01 -2.548835E+03  1.087279E+04  2.355482E+03  8.155312E+03
       162  24 -3.534156E+05  1.207339E+02 -1.489829E+03  2.065182E+04  1.091896E+03  6.313141E+03
       162  25 -5.798477E+05 -5.600342E+04 -5.651164E+04  2.031504E+04  2.327995E+03  9.964581E+03
       162  26 -5.423668E+05 -4.644780E+04 -4.603328E+04  1.052249E+04  1.042363E+03  8.152521E+03
       162  27 -5.052337E+05 -3.726194E+04 -3.650496E+04  2.028928E+04 -2.427525E+02  6.310118E+03
       163   1 -2.373508E+05  2.859820E+04  2.540647E+04  2.089404E+04 -2.184482E+03 -5.238142E+03
       163   2 -2.747051E+05  1.939891E+04  1.735803E+04  1.101400E+04 -1.839689E+03 -3.391700E+03
       163   3 -3.122025E+05  1.025559E+04  9.073550E+03  2.075047E+04 -1.495152E+03 -1.542839E+03
       163   4 -3.533686E+05  7.420152E+01 -1.154607E+03  2.066495E+04 -8.568144E+02 -5.235054E+03
       163   5 -3.532954E+05  6.155634E+01 -7.086870E+02  1.085659E+04 -5.103748E+02 -3.388536E+03
       163   6 -3.533669E+05  1.046846E+02 -4.999397E+02  2.066488E+04 -1.641702E+02 -1.539593E+03
       163   7 -4.693738E+05 -2.845073E+04 -2.771656E+04  2.043591E+04  4.706073E+02 -5.231966E+03
       163   8 -4.318800E+05 -1.927622E+04 -1.877581E+04  1.069920E+04  8.187726E+02 -3.385372E+03
       163   9 -3.945299E+05 -1.004634E+04 -1.007354E+04  2.057930E+04  1.166724E+03 -1.536347E+03
       163  10 -2.373508E+05  2.859817E+04  2.540641E+04  2.089403E+04 -1.410192E-09 -4.245532E-09
       163  11 -2.747051E+05  1.939889E+04  1.735801E+04  1.101399E+04 -4.436111E-09  1.676362E-09
       163  12 -3.122025E+05  1.025559E+04  9.073541E+03  2.075047E+04 -8.087329E-09  2.501680E-09
       163  13 -3.533686E+05  7.417190E+01 -1.154660E+03  2.066495E+04 -8.787412E-10  3.181220E-09
       163  14 -3.532954E+05  6.154395E+01 -7.087090E+02  1.085659E+04 -2.636520E-09 -9.090934E-09
       163  15 -3.533669E+05  1.046821E+02 -4.999442E+02  2.066488E+04 -1.605932E-09 -3.968088E-09
       163  16 -4.693738E+05 -2.845076E+04 -2.771661E+04  2.043591E+04  7.238847E-10  2.756818E-09
       163  17 -4.318800E+05 -1.927624E+04 -1.877583E+04  1.069920E+04  4.210811E-09  7.160652E-09
       163  18 -3.945299E+05 -1.004635E+04 -1.007354E+04  2.057930E+04  7.507464E-09  4.345360E-09
       163  19 -2.373508E+05  2.859820E+04  2.540647E+04  2.089404E+04  2.184482E+03  5.238142E+03
       163  20 -2.747051E+05  1.939891E+04  1.735803E+04  1.101400E+04  1.839689E+03  3.391700E+03
       163  21 -3.122025E+05  1.025559E+04  9.073550E+03  2.075047E+04  1.495152E+03  1.542839E+03
       163  22 -3.533686E+05  7.420152E+01 -1.154607E+03  2.066495E+04  8.568144E+02  5.235054E+03
       163  23 -3.532954E+05  6.155634E+01 -7.086870E+02  1.085659E+04  5.103748E+02  3.388536E+03
       163  24 -3.533669E+05  1.046846E+02 -4.999397E+02  2.066488E+04  1.641702E+02  1.539593E+03
       163  25 -4.693738E+05 -2.845073E+04 -2.771656E+04  2.043591E+04 -4.706073E+02  5.231966E+03
       163  26 -4.318800E+05 -1.927622E+04 -1.877581E+04  1.069920E+04 -8.187726E+02  3.385372E+03
       163  27 -3.945299E+05 -1.004634E+04 -1.007354E+04  2.057930E+04 -1.166724E+03  1.536347E+03
       164   1 -3.480793E+05  1.381799E+03  6.475179E+02  2.067783E+04 -1.411433E+03 -4.661250E+02
       164   2 -3.854577E+05 -7.853222E+03 -7.868803E+03  1.079120E+04 -1.179516E+03  1.383223E+03
       164   3 -4.229641E+05 -1.701613E+04 -1.654458E+04  2.053169E+04 -9.475193E+02  3.230949E+03
       164   4 -3.533632E+05  1.036562E+02 -4.571004E+02  2.066720E+04 -8.031037E+01 -4.628643E+02
       164   5 -3.532987E+05  6.011756E+01 -4.754057E+02  1.085370E+04  1.503991E+02  1.386448E+03
       164   6 -3.533639E+05  8.885088E+01 -6.524108E+02  2.066724E+04  3.812029E+02  3.234142E+03
       164   7 -3.586470E+05 -1.174487E+03 -1.561714E+03  2.065658E+04  1.250801E+03 -4.596035E+02
       164   8 -3.211387E+05  7.973385E+03  6.917929E+03  1.091620E+04  1.480383E+03  1.389672E+03
       164   9 -2.837591E+05  1.719350E+04  1.523945E+04  2.080280E+04  1.710073E+03  3.237336E+03
       164  10 -3.480794E+05  1.381798E+03  6.475138E+02  2.067783E+04 -1.496172E-09  2.569461E-09
       164  11 -3.854577E+05 -7.853224E+03 -7.868809E+03  1.079120E+04  3.099647E-09 -3.847306E-09
       164  12 -4.229641E+05 -1.701614E+04 -1.654460E+04  2.053169E+04  1.917647E-09 -1.811833E-09
       164  13 -3.533632E+05  1.036560E+02 -4.571009E+02  2.066720E+04 -6.478445E-11  2.359931E-09
       164  14 -3.532987E+05  6.011549E+01 -4.754094E+02  1.085370E+04  3.242137E-10 -9.934604E-09
       164  15 -3.533639E+05  8.883962E+01 -6.524307E+02  2.066724E+04 -1.959468E-09 -7.264001E-09
       164  16 -3.586470E+05 -1.174488E+03 -1.561717E+03  2.065658E+04 -1.233007E-09  2.721839E-09
       164  17 -3.211387E+05  7.973383E+03  6.917922E+03  1.091619E+04 -4.698989E-09 -1.115740E-08
       164  18 -2.837591E+05  1.719348E+04  1.523943E+04  2.080280E+04 -4.045885E-09 -6.619037E-09
       164  19 -3.480793E+05  1.381799E+03  6.475179E+02  2.067783E+04  1.411433E+03  4.661250E+02
       164  20 -3.854577E+05 -7.853222E+03 -7.868803E+03  1.079120E+04  1.179516E+03 -1.383223E+03
       164  21 -4.229641E+05 -1.701613E+04 -1.654458E+04  2.053169E+04  9.475193E+02 -3.230949E+03
       164  22 -3.533632E+05  1.036562E+02 -4.571004E+02  2.066720E+04  8.031037E+01  4.628643E+02
       164  23 -3.532987E+05  6.011756E+01 -4.754057E+02  1.085370E+04 -1.503991E+02 -1.386448E+03
       164  24 -3.533639E+05  8.885088E+01 -6.524108E+02  2.066724E+04 -3.812029E+02 -3.234142E+03
       164  25 -3.586470E+05 -1.174487E+03 -1.561714E+03  2.065658E+04 -1.250801E+03  4.596035E+02
       164  26 -3.211387E+05  7.973385E+03  6.917929E+03  1.091620E+04 -1.480383E+03 -1.389672E+03
       164  27 -2.837591E+05  1.719350E+04  1.523945E+04  2.080280E+04 -1.710073E+03 -3.237336E+03
       165   1 -4.588380E+05 -2.585902E+04 -2.516041E+04  2.042091E+04 -8.257991E+02  4.309656E+03
       165   2 -4.960928E+05 -3.507099E+04 -3.415915E+04  1.060120E+04 -1.532628E+02  6.153718E+03
       165   3 -5.335725E+05 -4.442707E+04 -4.365532E+04  2.036790E+04  5.197191E+02  7.970875E+03
       165   4 -3.533860E+05  1.127004E+02 -8.062164E+02  2.065798E+04  5.097284E+02  4.312812E+03
       165   5 -3.532764E+05  7.414408E+01 -1.322406E+03  1.086516E+04  1.163016E+03  6.156690E+03
       165   6 -3.533890E+05 -1.049005E+02 -2.322343E+03  2.065848E+04  1.816788E+03  7.973672E+03
       165   7 -2.479236E+05  2.608365E+04  2.354724E+04  2.089507E+04  1.845481E+03  4.315968E+03
       165   8 -2.104410E+05  3.521786E+04  3.151299E+04  1.112917E+04  2.479595E+03  6.159663E+03
       165   9 -1.731754E+05  4.421501E+04  3.900850E+04  2.094912E+04  3.114231E+03  7.976469E+03
       165  10 -4.588381E+05 -2.585904E+04 -2.516045E+04  2.042092E+04 -9.858218E-09  6.569384E-10
       165  11 -4.960928E+05 -3.507103E+04 -3.415922E+04  1.060121E+04 -1.557468E-09 -4.966682E-09
       165  12 -5.335725E+05 -4.442714E+04 -4.365544E+04  2.036790E+04  5.127829E-09 -4.834307E-10
       165  13 -3.533860E+05  1.126804E+02 -8.062519E+02  2.065797E+04 -8.943921E-10 -4.183138E-09
       165  14 -3.532764E+05  7.410302E+01 -1.322480E+03  1.086516E+04 -2.865817E-09  1.287580E-09
       165  15 -3.533890E+05 -1.049697E+02 -2.322469E+03  2.065847E+04 -4.010211E-09  1.556436E-09
       165  16 -2.479236E+05  2.608363E+04  2.354720E+04  2.089507E+04  7.690348E-09  4.625928E-09
       165  17 -2.104410E+05  3.521781E+04  3.151291E+04  1.112916E+04  1.558748E-09 -4.642821E-10
       165  18 -1.731754E+05  4.421494E+04  3.900836E+04  2.094910E+04 -5.185082E-09  4.754425E-09
       165  19 -4.588380E+05 -2.585902E+04 -2.516041E+04  2.042091E+04  8.257991E+02 -4.309656E+03
       165  20 -4.960928E+05 -3.507099E+04 -3.415915E+04  1.060120E+04  1.532628E+02 -6.153718E+03
       165  21 -5.335725E+05 -4.442707E+04 -4.365532E+04  2.036790E+04 -5.197191E+02 -7.970875E+03
       165  22 -3.533860E+05  1.127004E+02 -8.062164E+02  2.065798E+04 -5.097284E+02 -4.312812E+03
       165  23 -3.532764E+05  7.414408E+01 -1.322406E+03  1.086516E+04 -1.163016E+03 -6.156690E+03
       165  24 -3.533890E+05 -1.049005E+02 -2.322343E+03  2.065848E+04 -1.816788E+03 -7.973672E+03
       165  25 -2.479236E+05  2.608365E+04  2.354724E+04  2.089507E+04 -1.845481E+03 -4.315968E+03
       165  26 -2.104410E+05  3.521786E+04  3.151299E+04  1.112917E+04 -2.479595E+03 -6.159663E+03
       165  27 -1.731754E+05  4.421501E+04  3.900850E+04  2.094912E+04 -3.114231E+03 -7.976469E+03
       166   1 -5.695166E+05 -5.291633E+04 -5.273900E+04  1.981008E+04  8.320992E+02  9.102373E+03
       166   2 -6.061243E+05 -6.203014E+04 -6.334522E+04  1.072249E+04  3.785281E+03  1.087037E+04
       166   3 -6.439293E+05 -7.413056E+04 -7.663754E+04  2.112184E+04  6.739992E+03  1.213292E+04
       166   4 -3.535952E+05  2.427739E+02 -2.995358E+03  2.063428E+04  2.281834E+03  9.105390E+03
       166   5 -3.530307E+05  2.593805E+02 -5.128772E+03  1.089403E+04  4.872304E+03  1.087236E+04
       166   6 -3.536011E+05 -2.646763E+03 -9.695387E+03  2.064028E+04  7.464477E+03  1.213398E+04
       166   7 -1.376306E+05  5.339862E+04  4.674520E+04  2.145874E+04  3.732070E+03  9.108409E+03
       166   8 -9.987766E+04  6.254443E+04  5.308344E+04  1.106562E+04  5.959766E+03  1.087436E+04
       166   9 -6.319478E+04  6.883113E+04  5.724116E+04  2.015846E+04  8.189298E+03  1.213504E+04
       166  10 -5.695166E+05 -5.291642E+04 -5.273916E+04  1.981008E+04  3.379727E-09  9.019303E-10
       166  11 -6.061244E+05 -6.203027E+04 -6.334547E+04  1.072246E+04  2.497346E-09  3.562108E-09
       166  12 -6.439294E+05 -7.413073E+04 -7.663790E+04  2.112177E+04  4.279471E-09 -1.644538E-09
       166  13 -3.535952E+05  2.426835E+02 -2.995524E+03  2.063427E+04  1.435208E-09 -2.600018E-09
       166  14 -3.530307E+05  2.592472E+02 -5.129039E+03  1.089399E+04 -3.663611E-09  9.292451E-09
       166  15 -3.536012E+05 -2.646936E+03 -9.695769E+03  2.064021E+04  1.082199E-09  2.843961E-09
       166  16 -1.376306E+05  5.339853E+04  4.674501E+04  2.145872E+04 -5.855801E-09 -1.389057E-09
       166  17 -9.987773E+04  6.254429E+04  5.308315E+04  1.106557E+04 -4.980148E-09 -6.181661E-09
       166  18 -6.319489E+04  6.883095E+04  5.724076E+04  2.015838E+04 -4.568457E-09  3.501656E-09
       166  19 -5.695166E+05 -5.291633E+04 -5.273900E+04  1.981008E+04 -8.320992E+02 -9.102373E+03
       166  20 -6.061243E+05 -6.203014E+04 -6.334522E+04  1.072249E+04 -3.785281E+03 -1.087037E+04
       166  21 -6.439293E+05 -7.413056E+04 -7.663754E+04  2.112184E+04 -6.739992E+03 -1.213292E+04
       166  22 -3.535952E+05  2.427739E+02 -2.995358E+03  2.063428E+04 -2.281834E+03 -9.105390E+03
       166  23 -3.530307E+05  2.593805E+02 -5.128772E+03  1.089403E+04 -4.872304E+03 -1.087236E+04
       166  24 -3.536011E+05 -2.646763E+03 -9.695387E+03  2.064028E+04 -7.464477E+03 -1.213398E+04
       166  25 -1.376306E+05  5.339862E+04  4.674520E+04  2.145874E+04 -3.732070E+03 -9.108409E+03
       166  26 -9.987766E+04  6.254443E+04  5.308344E+04  1.106562E+04 -5.959766E+03 -1.087436E+04
       166  27 -6.319478E+04  6.883113E+04  5.724116E+04  2.015846E+04 -8.189298E+03 -1.213504E+04
       167   1 -6.818322E+05 -7.817067E+04 -8.685274E+04  1.469948E+04  5.395005E+03  1.438309E+04
       167   2 -7.126780E+05 -8.675205E+04 -1.037466E+05  1.530502E+04  2.334518E+04  1.468375E+04
       167   3 -7.559943E+05 -1.358037E+05 -1.424556E+05  3.494721E+04  4.131047E+04  4.843545E+03
       167   4 -3.558415E+05  2.054895E+03 -1.203792E+04  2.051746E+04  9.237653E+03  1.439008E+04
       167   5 -3.502490E+05  2.517585E+03 -1.995085E+04  1.103190E+04  1.989842E+04  1.467684E+04
       167   6 -3.558551E+05 -3.621129E+04 -4.460654E+04  2.058322E+04  3.057566E+04  4.824790E+03
       167   7 -2.975223E+04  8.227317E+04  6.276997E+04  2.633847E+04  1.308230E+04  1.439713E+04
       167   8  1.230168E+04  9.177807E+04  6.383617E+04  6.756211E+03  1.644965E+04  1.466998E+04
       167   9  4.443091E+04  6.337014E+04  5.323141E+04  6.209885E+03  1.983393E+04  4.806539E+03
       167  10 -6.818323E+05 -7.817090E+04 -8.685319E+04  1.469942E+04 -4.031728E-09 -1.235844E-09
       167  11 -7.126786E+05 -8.675242E+04 -1.037480E+05  1.530474E+04 -1.440414E-09 -4.756420E-09
       167  12 -7.559962E+05 -1.358042E+05 -1.424589E+05  3.494704E+04  2.681920E-09  2.227667E-09
       167  13 -3.558416E+05  2.054649E+03 -1.203847E+04  2.051735E+04 -5.726537E-11  3.610444E-09
       167  14 -3.502494E+05  2.517248E+03 -1.995200E+04  1.103166E+04 -1.481796E-09  3.332209E-09
       167  15 -3.558561E+05 -3.621157E+04 -4.460834E+04  2.058310E+04 -1.608357E-09  2.232010E-09
       167  16 -2.975246E+04  8.227290E+04  6.276926E+04  2.633832E+04  3.825355E-09  4.942212E-09
       167  17  1.230133E+04  9.177777E+04  6.383526E+04  6.756016E+03  1.451561E-09  3.450786E-09
       167  18  4.443048E+04  6.337001E+04  5.323063E+04  6.209808E+03 -1.561564E-09  1.273651E-09
       167  19 -6.818322E+05 -7.817067E+04 -8.685274E+04  1.469948E+04 -5.395005E+03 -1.438309E+04
       167  20 -7.126780E+05 -8.675205E+04 -1.037466E+05  1.530502E+04 -2.334518E+04 -1.468375E+04
       167  21 -7.559943E+05 -1.358037E+05 -1.424556E+05  3.494721E+04 -4.131047E+04 -4.843545E+03
       167  22 -3.558415E+05  2.054895E+03 -1.203792E+04  2.051746E+04 -9.237653E+03 -1.439008E+04
       167  23 -3.502490E+05  2.517585E+03 -1.995085E+04  1.103190E+04 -1.989842E+04 -1.467684E+04
       167  24 -3.558551E+05 -3.621129E+04 -4.460654E+04  2.058322E+04 -3.057566E+04 -4.824790E+03
       167  25 -2.975223E+04  8.227317E+04  6.276997E+04  2.633847E+04 -1.308230E+04 -1.439713E+04
       167  26  1.230168E+04  9.177807E+04  6.383617E+04  6.756211E+03 -1.644965E+04 -1.466998E+04
       167  27  4.443091E+04  6.337014E+04  5.323141E+04  6.209885E+03 -1.983393E+04 -4.806539E+03
       168   1 -2.205239E+05 -8.484641E+05 -2.142149E+05  1.953858E+05 -9.129272E+03 -6.641813E+04
       168   2 -1.534554E+05 -6.638368E+05 -1.344896E+05  1.679232E+05 -2.794651E+04 -2.749658E+04
       168   3 -1.051497E+05 -4.887835E+05 -8.480458E+04  1.800366E+05 -2.688962E+04  1.146448E+04
       168   4 -2.249376E+04 -4.888322E+04 -2.426509E+04  1.811528E+05 -9.176006E+03 -1.823528E+04
       168   5 -5.269828E+03 -4.694493E+04 -1.079127E+04  1.613752E+05 -2.795768E+04 -1.265603E+04
       168   6 -1.003849E+03 -4.881081E+04 -4.177168E+03  1.811738E+05 -2.687329E+04 -7.049823E+03
       168   7  1.754923E+05  7.512906E+05  1.656489E+05  1.669014E+05 -9.224927E+03  3.000940E+04
       168   8  1.428926E+05  5.703109E+05  1.128886E+05  1.548206E+05 -2.796915E+04  2.198997E+03
       168   9  1.031312E+05  3.913507E+05  7.644364E+04  1.823119E+05 -2.685704E+04 -2.557691E+04
       168  10 -2.205252E+05 -8.484689E+05 -2.142233E+05  1.953853E+05  1.795889E-09  1.645671E-09
       168  11 -1.534565E+05 -6.638379E+05 -1.344925E+05  1.679226E+05 -2.677746E-10  1.537459E-09
       168  12 -1.051505E+05 -4.887838E+05 -8.480619E+04  1.800368E+05  2.855465E-09 -8.432042E-10
       168  13 -2.249394E+04 -4.888360E+04 -2.426587E+04  1.811527E+05  1.819514E-09  5.409381E-10
       168  14 -5.270710E+03 -4.694531E+04 -1.079304E+04  1.613749E+05 -3.227746E-10  5.403731E-10
       168  15 -1.004638E+03 -4.881106E+04 -4.178618E+03  1.811737E+05  1.892529E-09  1.066283E-09
       168  16  1.754920E+05  7.512896E+05  1.656471E+05  1.669016E+05 -3.575422E-10 -3.067157E-09
       168  17  1.428917E+05  5.703107E+05  1.128871E+05  1.548207E+05  3.335426E-09 -1.132298E-09
       168  18  1.031302E+05  3.913498E+05  7.644106E+04  1.823113E+05 -6.186490E-10  1.271726E-09
       168  19 -2.205239E+05 -8.484641E+05 -2.142149E+05  1.953858E+05  9.129272E+03  6.641813E+04
       168  20 -1.534554E+05 -6.638368E+05 -1.344896E+05  1.679232E+05  2.794651E+04  2.749658E+04
       168  21 -1.051497E+05 -4.887835E+05 -8.480458E+04  1.800366E+05  2.688962E+04 -1.146448E+04
       168  22 -2.249376E+04 -4.888322E+04 -2.426509E+04  1.811528E+05  9.176006E+03  1.823528E+04
       168  23 -5.269828E+03 -4.694493E+04 -1.079127E+04  1.613752E+05  2.795768E+04  1.265603E+04
       168  24 -1.003849E+03 -4.881081E+04 -4.177168E+03  1.811738E+05  2.687329E+04  7.049823E+03
       168  25  1.754923E+05  7.512906E+05  1.656489E+05  1.669014E+05  9.224927E+03 -3.000940E+04
       168  26  1.428926E+05  5.703109E+05  1.128886E+05  1.548206E+05  2.796915E+04 -2.198997E+03
       168  27  1.031312E+05  3.913507E+05  7.644364E+04  1.823119E+05  2.685704E+04  2.557691E+04
       169   1 -7.744322E+04 -3.695749E+05 -6.031638E+04  1.816807E+05 -2.002636E+04  9.692412E+03
       169   2 -3.341575E+04 -1.899821E+05 -2.147908E+04  1.614833E+05 -9.982891E+03  9.147634E+03
       169   3  1.114216E+04 -1.003963E+04  1.787175E+04  1.820913E+05  6.479434E+02  8.602194E+03
       169   4 -1.368088E+03 -4.783922E+04 -1.758255E+03  1.814430E+05 -2.001317E+04 -6.681693E+03
       169   5 -1.157219E+02 -4.807606E+04  3.091143E+03  1.610418E+05 -9.969822E+03 -8.214905E+03
       169   6  1.840528E+03 -4.782218E+04  9.141471E+03  1.814455E+05  6.607605E+02 -9.748636E+03
       169   7  7.470136E+04  2.739977E+05  5.679673E+04  1.812052E+05 -1.999997E+04 -2.306406E+04
       169   8  3.318338E+04  9.385035E+04  2.766180E+04  1.606003E+05 -9.956730E+03 -2.558129E+04
       169   9 -7.461020E+03 -8.560270E+04  4.123616E+02  1.807998E+05  6.736160E+02 -2.809836E+04
       169  10 -7.744368E+04 -3.695751E+05 -6.031731E+04  1.816809E+05  4.370433E-09 -2.311141E-08
       169  11 -3.341588E+04 -1.899822E+05 -2.147942E+04  1.614833E+05  3.511982E-09  1.605602E-09
       169  12  1.114214E+04 -1.003971E+04  1.787161E+04  1.820913E+05  9.192143E-10  2.228532E-08
       169  13 -1.368530E+03 -4.783938E+04 -1.759092E+03  1.814429E+05  5.548406E-09  5.366132E-10
       169  14 -1.158467E+02 -4.807616E+04  3.090830E+03  1.610418E+05  3.944693E-09 -2.653530E-10
       169  15  1.840502E+03 -4.782229E+04  9.141291E+03  1.814455E+05  2.351740E-09 -5.993218E-10
       169  16  7.470078E+04  2.739970E+05  5.679498E+04  1.812048E+05  6.856282E-10  2.197677E-08
       169  17  3.318310E+04  9.384962E+04  2.766039E+04  1.606001E+05  3.778487E-09 -2.148112E-09
       169  18 -7.461233E+03 -8.560355E+04  4.108768E+02  1.807998E+05  2.616721E-09 -2.276164E-08
       169  19 -7.744322E+04 -3.695749E+05 -6.031638E+04  1.816807E+05  2.002636E+04 -9.692412E+03
       169  20 -3.341575E+04 -1.899821E+05 -2.147908E+04  1.614833E+05  9.982891E+03 -9.147634E+03
       169  21  1.114216E+04 -1.003963E+04  1.787175E+04  1.820913E+05 -6.479434E+02 -8.602194E+03
       169  22 -1.368088E+03 -4.783922E+04 -1.758255E+03  1.814430E+05  2.001317E+04  6.681693E+03
       169  23 -1.157219E+02 -4.807606E+04  3.091143E+03  1.610418E+05  9.969822E+03  8.214905E+03
       169  24  1.840528E+03 -4.782218E+04  9.141471E+03  1.814455E+05 -6.607605E+02  9.748636E+03
       169  25  7.470136E+04  2.739977E+05  5.679673E+04  1.812052E+05  1.999997E+04  2.306406E+04
       169  26  3.318338E+04  9.385035E+04  2.766180E+04  1.606003E+05  9.956730E+03  2.558129E+04
       169  27 -7.461020E+03 -8.560270E+04  4.123616E+02  1.807998E+05 -6.736160E+02  2.809836E+04
       170   1  3.832645E+04  1.097736E+05  4.327892E+04  1.783378E+05  7.817770E+03  8.332170E+03
       170   2  9.067848E+04  2.833965E+05  9.422471E+04  1.743278E+05  1.295157E+04 -2.673790E+04
       170   3  1.746515E+05  4.696386E+05  1.759262E+05  2.103989E+05  4.884267E+03 -6.183328E+04
       170   4  1.092734E+03 -4.599129E+04  1.289543E+04  1.812773E+05  7.831923E+03 -1.133937E+04
       170   5  1.010149E+04 -5.038490E+04  2.494246E+04  1.612585E+05  1.295070E+04 -2.422116E+04
       170   6  4.689185E+04 -4.602910E+04  5.234704E+04  1.813177E+05  4.866925E+03 -3.711806E+04
       170   7 -3.614219E+04 -2.017321E+05 -1.748775E+04  1.842160E+05  7.845891E+03 -3.100608E+04
       170   8 -7.048193E+04 -3.840604E+05 -4.434575E+04  1.481963E+05  1.294973E+04 -2.170574E+04
       170   9 -8.088354E+04 -5.614502E+05 -7.124816E+04  1.522608E+05  4.847265E+03 -1.242327E+04
       170  10  3.832636E+04  1.097735E+05  4.327867E+04  1.783377E+05  2.804329E-09  4.620902E-09
       170  11  9.067810E+04  2.833957E+05  9.422305E+04  1.743281E+05  1.395898E-09  4.231344E-09
       170  12  1.746504E+05  4.696345E+05  1.759189E+05  2.103991E+05  1.598412E-09 -1.218391E-09
       170  13  1.092634E+03 -4.599145E+04  1.289508E+04  1.812773E+05 -1.700540E-09  1.071176E-09
       170  14  1.010115E+04 -5.038558E+04  2.494104E+04  1.612587E+05  9.563934E-10 -2.579648E-10
       170  15  4.689145E+04 -4.603058E+04  5.234441E+04  1.813179E+05 -8.380728E-11  1.678282E-09
       170  16 -3.614252E+04 -2.017331E+05 -1.748967E+04  1.842162E+05 -4.216903E-10 -5.972594E-09
       170  17 -7.048223E+04 -3.840610E+05 -4.434695E+04  1.481965E+05  1.103383E-09 -3.612472E-09
       170  18 -8.088361E+04 -5.614504E+05 -7.124849E+04  1.522609E+05  7.176821E-10  9.922169E-10
       170  19  3.832645E+04  1.097736E+05  4.327892E+04  1.783378E+05 -7.817770E+03 -8.332170E+03
       170  20  9.067848E+04  2.833965E+05  9.422471E+04  1.743278E+05 -1.295157E+04  2.673790E+04
       170  21  1.746515E+05  4.696386E+05  1.759262E+05  2.103989E+05 -4.884267E+03  6.183328E+04
       170  22  1.092734E+03 -4.599129E+04  1.289543E+04  1.812773E+05 -7.831923E+03  1.133937E+04
       170  23  1.010149E+04 -5.038490E+04  2.494246E+04  1.612585E+05 -1.295070E+04  2.422116E+04
       170  24  4.689185E+04 -4.602910E+04  5.234704E+04  1.813177E+05 -4.866925E+03  3.711806E+04
       170  25 -3.614219E+04 -2.017321E+05 -1.748775E+04  1.842160E+05 -7.845891E+03  3.100608E+04
       170  26 -7.048193E+04 -3.840604E+05 -4.434575E+04  1.481963E+05 -1.294973E+04  2.170574E+04
       170  27 -8.088354E+04 -5.614502E+05 -7.124816E+04  1.522608E+05 -4.847265E+03  1.242327E+04
       171   1  8.038642E+05  2.988780E+05  1.902913E+05  2.873490E+05  7.772261E+04  2.475672E+04
       171   2  7.745306E+05  1.839008E+05  1.178774E+05  2.839396E+05  5.056449E+04  5.194255E+03
       171   3  7.728121E+05  1.683217E+05  9.241383E+04  2.691517E+05  2.024406E+04 -5.966782E+03
       171   4  5.152124E+05  1.592078E+05  1.065910E+05  1.768551E+05  6.935035E+04  2.159858E+04
       171   5  4.962851E+05  6.997978E+04  4.533338E+04  1.976509E+05  4.787235E+04  4.178535E+03
       171   6  5.038637E+05  7.904823E+04  2.654372E+04  2.070640E+05  2.323026E+04 -4.841220E+03
       171   7  2.266472E+05  1.956154E+04  2.288416E+04  6.641429E+04  6.098245E+04  1.844313E+04
       171   8  2.181165E+05 -4.393159E+04 -2.721687E+04  1.113989E+05  4.518152E+04  3.163418E+03
       171   9  2.349844E+05 -1.022455E+04 -3.933209E+04  1.449985E+05  2.621505E+04 -3.716046E+03
       171  10  8.038576E+05  2.988757E+05  1.902788E+05  2.873474E+05  2.808358E-09  2.375159E-09
       171  11  7.745279E+05  1.839001E+05  1.178725E+05  2.839394E+05 -3.551950E-09 -8.651565E-09
       171  12  7.728117E+05  1.683215E+05  9.241299E+04  2.691518E+05 -6.664383E-09  5.349070E-10
       171  13  5.152071E+05  1.592060E+05  1.065811E+05  1.768539E+05  1.052168E-11 -3.983668E-09
       171  14  4.962827E+05  6.997915E+04  4.532904E+04  1.976507E+05 -4.993492E-10 -5.683929E-09
       171  15  5.038632E+05  7.904806E+04  2.654267E+04  2.070640E+05 -2.699539E-09  4.348531E-10
       171  16  2.266432E+05  1.956018E+04  2.287653E+04  6.641339E+04 -3.414454E-09 -1.994103E-09
       171  17  2.181143E+05 -4.393215E+04 -2.722073E+04  1.113988E+05  2.733286E-09  2.537279E-09
       171  18  2.349837E+05 -1.022475E+04 -3.933341E+04  1.449986E+05  7.069448E-10 -1.604500E-09
       171  19  8.038642E+05  2.988780E+05  1.902913E+05  2.873490E+05 -7.772261E+04 -2.475672E+04
       171  20  7.745306E+05  1.839008E+05  1.178774E+05  2.839396E+05 -5.056449E+04 -5.194255E+03
       171  21  7.728121E+05  1.683217E+05  9.241383E+04  2.691517E+05 -2.024406E+04  5.966782E+03
       171  22  5.152124E+05  1.592078E+05  1.065910E+05  1.768551E+05 -6.935035E+04 -2.159858E+04
       171  23  4.962851E+05  6.997978E+04  4.533338E+04  1.976509E+05 -4.787235E+04 -4.178535E+03
       171  24  5.038637E+05  7.904823E+04  2.654372E+04  2.070640E+05 -2.323026E+04  4.841220E+03
       171  25  2.266472E+05  1.956154E+04  2.288416E+04  6.641429E+04 -6.098245E+04 -1.844313E+04
       171  26  2.181165E+05 -4.393159E+04 -2.721687E+04  1.113989E+05 -4.518152E+04 -3.163418E+03
       171  27  2.349844E+05 -1.022455E+04 -3.933209E+04  1.449985E+05 -2.621505E+04  3.716046E+03
       172   1  7.342802E+05  1.784720E+05  8.114621E+04  2.677788E+05  1.861167E+04 -4.537586E+03
       172   2  7.135606E+05  1.561564E+05  6.404839E+04  2.560714E+05  1.256343E+04 -5.929028E+03
       172   3  6.863272E+05  1.512489E+05  5.323123E+04  2.540866E+05  6.349187E+03 -6.880592E+03
       172   4  5.004304E+05  8.866521E+04  2.132269E+04  2.013516E+05  1.898443E+04 -4.397442E+03
       172   5  5.032606E+05  7.676372E+04  1.063824E+04  1.977084E+05  1.323505E+04 -5.676017E+03
       172   6  4.995184E+05  8.221278E+04  5.999592E+03  2.037873E+05  7.319425E+03 -6.514762E+03
       172   7  2.666340E+05 -1.137240E+03 -3.850530E+04  1.349474E+05  1.935703E+04 -4.257359E+03
       172   8  2.930042E+05 -2.625742E+03 -4.277536E+04  1.393633E+05  1.390643E+04 -5.423102E+03
       172   9  3.127443E+05  1.317898E+04 -4.123463E+04  1.535017E+05  8.289339E+03 -6.149049E+03
       172  10  7.342798E+05  1.784719E+05  8.114552E+04  2.677788E+05 -2.078337E-09  3.078137E-09
       172  11  7.135604E+05  1.561563E+05  6.404803E+04  2.560715E+05  3.593122E-10 -1.735049E-09
       172  12  6.863272E+05  1.512488E+05  5.323107E+04  2.540867E+05 -1.267970E-09 -8.443135E-10
       172  13  5.004300E+05  8.866510E+04  2.132197E+04  2.013517E+05 -3.651937E-09 -2.519754E-09
       172  14  5.032604E+05  7.676364E+04  1.063785E+04  1.977084E+05 -4.647334E-09 -9.583373E-09
       172  15  4.995183E+05  8.221272E+04  5.999411E+03  2.037873E+05 -3.207623E-09 -5.498076E-09
       172  16  2.666336E+05 -1.137360E+03 -3.850604E+04  1.349475E+05 -2.449818E-09 -1.553969E-09
       172  17  2.930039E+05 -2.625825E+03 -4.277578E+04  1.393634E+05 -4.701806E-09 -3.874718E-09
       172  18  3.127442E+05  1.317892E+04 -4.123483E+04  1.535017E+05 -9.138519E-09  1.290373E-09
       172  19  7.342802E+05  1.784720E+05  8.114621E+04  2.677788E+05 -1.861167E+04  4.537586E+03
       172  20  7.135606E+05  1.561564E+05  6.404839E+04  2.560714E+05 -1.256343E+04  5.929028E+03
       172  21  6.863272E+05  1.512489E+05  5.323123E+04  2.540866E+05 -6.349187E+03  6.880592E+03
       172  22  5.004304E+05  8.866521E+04  2.132269E+04  2.013516E+05 -1.898443E+04  4.397442E+03
       172  23  5.032606E+05  7.676372E+04  1.063824E+04  1.977084E+05 -1.323505E+04  5.676017E+03
       172  24  4.995184E+05  8.221278E+04  5.999592E+03  2.037873E+05 -7.319425E+03  6.514762E+03
       172  25  2.666340E+05 -1.137240E+03 -3.850530E+04  1.349474E+05 -1.935703E+04  4.257359E+03
       172  26  2.930042E+05 -2.625742E+03 -4.277536E+04  1.393633E+05 -1.390643E+04  5.423102E+03
       172  27  3.127443E+05  1.317898E+04 -4.123463E+04  1.535017E+05 -8.289339E+03  6.149049E+03
       173   1  6.604145E+05  1.434786E+05  4.541922E+04  2.476991E+05  5.340201E+03 -6.353840E+03
       173   2  6.408415E+05  1.287616E+05  3.717750E+04  2.354112E+05  3.615640E+03 -5.588895E+03
       173   3  6.117225E+05  1.246061E+05  3.003494E+04  2.343276E+05  1.883373E+03 -4.804365E+03
       173   4  4.991775E+05  8.294077E+04  4.614753E+03  2.032739E+05  6.169182E+03 -6.041214E+03
       173   5  5.039178E+05  7.741427E+04  2.473182E+03  1.977654E+05  4.458185E+03 -5.271040E+03
       173   6  4.991092E+05  8.244698E+04  1.420408E+03  2.034611E+05  2.739430E+03 -4.481297E+03
       173   7  3.379653E+05  2.240442E+04 -3.619197E+04  1.588590E+05  6.997931E+03 -5.728677E+03
       173   8  3.670121E+05  2.606807E+04 -3.223272E+04  1.601269E+05  5.300528E+03 -4.953261E+03
       173   9  3.865083E+05  4.028866E+04 -2.719514E+04  1.725997E+05  3.595316E+03 -4.158292E+03
       173  10  6.604144E+05  1.434786E+05  4.541909E+04  2.476991E+05 -1.128725E-08 -5.844736E-09
       173  11  6.408415E+05  1.287616E+05  3.717742E+04  2.354112E+05 -5.871174E-09 -6.219703E-09
       173  12  6.117225E+05  1.246061E+05  3.003489E+04  2.343276E+05  3.195862E-09 -3.904878E-09
       173  13  4.991774E+05  8.294072E+04  4.614613E+03  2.032739E+05 -6.754173E-09 -3.033043E-09
       173  14  5.039178E+05  7.741424E+04  2.473092E+03  1.977654E+05 -1.506157E-09 -4.567825E-09
       173  15  4.991092E+05  8.244695E+04  1.420357E+03  2.034612E+05 -4.862671E-09 -4.831465E-09
       173  16  3.379652E+05  2.240437E+04 -3.619212E+04  1.588590E+05  3.059908E-09 -6.123605E-10
       173  17  3.670121E+05  2.606803E+04 -3.223282E+04  1.601270E+05 -3.860371E-09  3.787815E-10
       173  18  3.865083E+05  4.028863E+04 -2.719520E+04  1.725997E+05 -7.502158E-09 -2.568746E-09
       173  19  6.604145E+05  1.434786E+05  4.541922E+04  2.476991E+05 -5.340201E+03  6.353840E+03
       173  20  6.408415E+05  1.287616E+05  3.717750E+04  2.354112E+05 -3.615640E+03  5.588895E+03
       173  21  6.117225E+05  1.246061E+05  3.003494E+04  2.343276E+05 -1.883373E+03  4.804365E+03
       173  22  4.991775E+05  8.294077E+04  4.614753E+03  2.032739E+05 -6.169182E+03  6.041214E+03
       173  23  5.039178E+05  7.741427E+04  2.473182E+03  1.977654E+05 -4.458185E+03  5.271040E+03
       173  24  4.991092E+05  8.244698E+04  1.420408E+03  2.034611E+05 -2.739430E+03  4.481297E+03
       173  25  3.379653E+05  2.240442E+04 -3.619197E+04  1.588590E+05 -6.997931E+03  5.728677E+03
       173  26  3.670121E+05  2.606807E+04 -3.223272E+04  1.601269E+05 -5.300528E+03  4.953261E+03
       173  27  3.865083E+05  4.028866E+04 -2.719514E+04  1.725997E+05 -3.595316E+03  4.158292E+03
       174   1  5.870917E+05  1.154785E+05  2.333060E+04  2.276076E+05  1.406404E+03 -4.144131E+03
       174   2  5.677776E+05  1.014253E+05  1.688713E+04  2.153333E+05  5.751507E+02 -3.023671E+03
       174   3  5.386469E+05  9.731513E+04  1.072356E+04  2.142893E+05 -2.559877E+02 -1.903869E+03
       174   4  4.990758E+05  8.248533E+04  1.110721E+03  2.034013E+05  2.253554E+03 -3.824372E+03
       174   5  5.039829E+05  7.749927E+04  7.170722E+02  1.977919E+05  1.421904E+03 -2.704013E+03
       174   6  4.990727E+05  8.245647E+04  6.036906E+02  2.034126E+05  5.903513E+02 -1.584313E+03
       174   7  4.110678E+05  4.949277E+04 -2.110968E+04  1.791982E+05  3.100570E+03 -3.504664E+03
       174   8  4.401920E+05  5.357351E+04 -1.545331E+04  1.802521E+05  2.268563E+03 -2.384390E+03
       174   9  4.594999E+05  6.759786E+04 -9.516345E+03  1.925366E+05  1.436634E+03 -1.264778E+03
       174  10  5.870917E+05  1.154785E+05  2.333056E+04  2.276076E+05 -2.579331E-09  1.141506E-09
       174  11  5.677776E+05  1.014253E+05  1.688712E+04  2.153333E+05  9.831212E-10  5.678203E-09
       174  12  5.386469E+05  9.731513E+04  1.072355E+04  2.142893E+05 -1.028803E-09  2.201194E-10
       174  13  4.990758E+05  8.248531E+04  1.110684E+03  2.034013E+05 -2.126964E-09 -2.841342E-09
       174  14  5.039829E+05  7.749926E+04  7.170546E+02  1.977919E+05  3.256169E-09  7.079934E-09
       174  15  4.990727E+05  8.245647E+04  6.036852E+02  2.034127E+05 -3.130268E-09  8.857454E-10
       174  16  4.110678E+05  4.949275E+04 -2.110972E+04  1.791982E+05 -1.704405E-09  3.408785E-10
       174  17  4.401920E+05  5.357351E+04 -1.545333E+04  1.802521E+05  2.667533E-09 -1.005506E-10
       174  18  4.594999E+05  6.759786E+04 -9.516352E+03  1.925366E+05  2.973672E-09 -5.790807E-10
       174  19  5.870917E+05  1.154785E+05  2.333060E+04  2.276076E+05 -1.406404E+03  4.144131E+03
       174  20  5.677776E+05  1.014253E+05  1.688713E+04  2.153333E+05 -5.751507E+02  3.023671E+03
       174  21  5.386469E+05  9.731513E+04  1.072356E+04  2.142893E+05  2.559877E+02  1.903869E+03
       174  22  4.990758E+05  8.248533E+04  1.110721E+03  2.034013E+05 -2.253554E+03  3.824372E+03
       174  23  5.039829E+05  7.749927E+04  7.170722E+02  1.977919E+05 -1.421904E+03  2.704013E+03
       174  24  4.990727E+05  8.245647E+04  6.036906E+02  2.034126E+05 -5.903513E+02  1.584313E+03
       174  25  4.110678E+05  4.949277E+04 -2.110968E+04  1.791982E+05 -3.100570E+03  3.504664E+03
       174  26  4.401920E+05  5.357351E+04 -1.545331E+04  1.802521E+05 -2.268563E+03  2.384390E+03
       174  27  4.594999E+05  6.759786E+04 -9.516345E+03  1.925366E+05 -1.436634E+03  1.264778E+03
       175   1  5.142139E+05  8.812616E+04  4.376013E+03  2.075904E+05 -6.330290E+02 -1.212344E+03
       175   2  4.949378E+05  7.412545E+04 -1.445206E+03  1.953242E+05 -1.526802E+03 -1.178168E+02
       175   3  4.658741E+05  7.006427E+04 -6.936400E+03  1.942661E+05 -2.420258E+03  9.760639E+02
       175   4  4.990789E+05  8.245177E+04  6.260851E+02  2.034093E+05  2.127307E+02 -8.929913E+02
       175   5  5.039759E+05  7.750347E+04  8.436484E+02  1.977972E+05 -6.815165E+02  2.013476E+02
       175   6  4.990849E+05  8.249465E+04  1.391592E+03  2.033930E+05 -1.575464E+03  1.295035E+03
       175   7  4.839441E+05  7.677739E+04 -3.123857E+03  1.992282E+05  1.058468E+03 -5.736469E+02
       175   8  5.130142E+05  8.088148E+04  3.132494E+03  2.002703E+05  1.637808E+02  5.205164E+02
       175   9  5.322966E+05  9.492506E+04  9.719464E+03  2.125203E+05 -7.306243E+02  1.614023E+03
       175  10  5.142139E+05  8.812615E+04  4.376010E+03  2.075904E+05  7.624446E-09  1.687325E-09
       175  11  4.949378E+05  7.412545E+04 -1.445210E+03  1.953242E+05 -5.148751E-10 -8.015085E-09
       175  12  4.658741E+05  7.006426E+04 -6.936413E+03  1.942661E+05 -5.685837E-09 -1.028627E-08
       175  13  4.990789E+05  8.245176E+04  6.260836E+02  2.034093E+05 -2.008568E-09  6.631046E-09
       175  14  5.039759E+05  7.750347E+04  8.436474E+02  1.977972E+05  3.013255E-09 -1.176433E-09
       175  15  4.990849E+05  8.249465E+04  1.391584E+03  2.033930E+05  1.088943E-09  1.465984E-09
       175  16  4.839441E+05  7.677739E+04 -3.123860E+03  1.992282E+05 -8.024426E-09 -3.770589E-09
       175  17  5.130142E+05  8.088148E+04  3.132493E+03  2.002703E+05  4.525878E-09 -2.455933E-09
       175  18  5.322966E+05  9.492506E+04  9.719458E+03  2.125203E+05  7.735699E-09  1.237819E-09
       175  19  5.142139E+05  8.812616E+04  4.376013E+03  2.075904E+05  6.330290E+02  1.212344E+03
       175  20  4.949378E+05  7.412545E+04 -1.445206E+03  1.953242E+05  1.526802E+03  1.178168E+02
       175  21  4.658741E+05  7.006427E+04 -6.936400E+03  1.942661E+05  2.420258E+03 -9.760639E+02
       175  22  4.990789E+05  8.245177E+04  6.260851E+02  2.034093E+05 -2.127307E+02  8.929913E+02
       175  23  5.039759E+05  7.750347E+04  8.436484E+02  1.977972E+05  6.815165E+02 -2.013476E+02
       175  24  4.990849E+05  8.249465E+04  1.391592E+03  2.033930E+05  1.575464E+03 -1.295035E+03
       175  25  4.839441E+05  7.677739E+04 -3.123857E+03  1.992282E+05 -1.058468E+03  5.736469E+02
       175  26  5.130142E+05  8.088148E+04  3.132494E+03  2.002703E+05 -1.637808E+02 -5.205164E+02
       175  27  5.322966E+05  9.492506E+04  9.719464E+03  2.125203E+05  7.306243E+02 -1.614023E+03
       176   1  4.413995E+05  6.088430E+04 -1.289829E+04  1.877128E+05 -2.966360E+03  1.606804E+03
       176   2  4.219861E+05  4.669868E+04 -1.757563E+04  1.752648E+05 -5.028914E+03  2.260701E+03
       176   3  3.931793E+05  4.319661E+04 -2.086190E+04  1.739262E+05 -7.084717E+03  2.897415E+03
       176   4  4.991399E+05  8.243275E+04  1.803753E+03  2.034568E+05 -2.114817E+03  1.928300E+03
       176   5  5.038807E+05  7.741259E+04  3.184289E+03  1.977799E+05 -4.189218E+03  2.577658E+03
       176   6  4.992302E+05  8.307835E+04  5.965286E+03  2.032123E+05 -6.256934E+03  3.209810E+03
       176   7  5.568838E+05  1.039815E+05  1.650559E+04  2.192021E+05 -1.263184E+03  2.249828E+03
       176   8  5.857821E+05  1.081270E+05  2.394372E+04  2.202978E+05 -3.349400E+03  2.894661E+03
       176   9  6.052922E+05  1.229609E+05  3.279158E+04  2.325030E+05 -5.428995E+03  3.522264E+03
       176  10  4.413995E+05  6.088430E+04 -1.289831E+04  1.877128E+05  5.090108E-09 -2.209284E-09
       176  11  4.219861E+05  4.669866E+04 -1.757569E+04  1.752649E+05  8.511126E-09  2.637549E-09
       176  12  3.931792E+05  4.319659E+04 -2.086201E+04  1.739262E+05  9.616603E-09 -4.672517E-09
       176  13  4.991399E+05  8.243275E+04  1.803738E+03  2.034568E+05  1.173458E-09 -2.107692E-09
       176  14  5.038807E+05  7.741258E+04  3.184244E+03  1.977800E+05 -5.013829E-10  5.934278E-10
       176  15  4.992302E+05  8.307833E+04  5.965193E+03  2.032123E+05  3.952667E-09  2.502422E-09
       176  16  5.568838E+05  1.039815E+05  1.650558E+04  2.192021E+05 -3.747424E-09  4.874543E-09
       176  17  5.857820E+05  1.081270E+05  2.394368E+04  2.202978E+05 -1.425677E-09 -6.398231E-10
       176  18  6.052922E+05  1.229608E+05  3.279150E+04  2.325030E+05  2.695416E-09  1.678454E-09
       176  19  4.413995E+05  6.088430E+04 -1.289829E+04  1.877128E+05  2.966360E+03 -1.606804E+03
       176  20  4.219861E+05  4.669868E+04 -1.757563E+04  1.752648E+05  5.028914E+03 -2.260701E+03
       176  21  3.931793E+05  4.319661E+04 -2.086190E+04  1.739262E+05  7.084717E+03 -2.897415E+03
       176  22  4.991399E+05  8.243275E+04  1.803753E+03  2.034568E+05  2.114817E+03 -1.928300E+03
       176  23  5.038807E+05  7.741259E+04  3.184289E+03  1.977799E+05  4.189218E+03 -2.577658E+03
       176  24  4.992302E+05  8.307835E+04  5.965286E+03  2.032123E+05  6.256934E+03 -3.209810E+03
       176  25  5.568838E+05  1.039815E+05  1.650559E+04  2.192021E+05  1.263184E+03 -2.249828E+03
       176  26  5.857821E+05  1.081270E+05  2.394372E+04  2.202978E+05  3.349400E+03 -2.894661E+03
       176  27  6.052922E+05  1.229609E+05  3.279158E+04  2.325030E+05  5.428995E+03 -3.522264E+03
       177   1  3.680138E+05  3.404421E+04 -2.545214E+04  1.690207E+05 -8.594654E+03  3.218093E+03
       177   2  3.484190E+05  1.788896E+04 -2.556196E+04  1.544857E+05 -1.587108E+04  1.864573E+03
       177   3  3.232924E+05  2.111037E+04 -1.804144E+04  1.490706E+05 -2.300992E+04  1.481160E+02
       177   4  4.996849E+05  8.212286E+04  7.760877E+03  2.038629E+05 -7.650861E+03  3.574228E+03
       177   5  5.030193E+05  7.659170E+04  1.377326E+04  1.977245E+05 -1.517395E+04  2.127458E+03
       177   6  5.008691E+05  9.048401E+04  2.760981E+04  2.007056E+05 -2.255978E+04  3.176316E+02
       177   7  6.313724E+05  1.302022E+05  4.097238E+04  2.387117E+05 -6.706853E+03  3.930440E+03
       177   8  6.576429E+05  1.352962E+05  5.310654E+04  2.409732E+05 -1.447663E+04  2.390417E+03
       177   9  6.784773E+05  1.598607E+05  7.325865E+04  2.523543E+05 -2.210949E+04  4.872064E+02
       177  10  3.680137E+05  3.404418E+04 -2.545230E+04  1.690207E+05  6.775569E-09 -3.979613E-09
       177  11  3.484188E+05  1.788889E+04 -2.556244E+04  1.544857E+05  6.985885E-10  5.891468E-10
       177  12  3.232919E+05  2.111022E+04 -1.804244E+04  1.490706E+05  2.512006E-09 -6.661555E-09
       177  13  4.996848E+05  8.212283E+04  7.760743E+03  2.038630E+05  5.852776E-09  4.732451E-09
       177  14  5.030190E+05  7.659163E+04  1.377282E+04  1.977246E+05 -8.406140E-10  1.455726E-08
       177  15  5.008686E+05  9.048387E+04  2.760885E+04  2.007056E+05 -3.167300E-09  6.606974E-09
       177  16  6.313724E+05  1.302022E+05  4.097227E+04  2.387117E+05  3.219433E-09 -1.892357E-09
       177  17  6.576427E+05  1.352961E+05  5.310614E+04  2.409732E+05  2.287219E-09 -6.007384E-09
       177  18  6.784768E+05  1.598606E+05  7.325773E+04  2.523544E+05 -4.002229E-10 -1.140769E-08
       177  19  3.680138E+05  3.404421E+04 -2.545214E+04  1.690207E+05  8.594654E+03 -3.218093E+03
       177  20  3.484190E+05  1.788896E+04 -2.556196E+04  1.544857E+05  1.587108E+04 -1.864573E+03
       177  21  3.232924E+05  2.111037E+04 -1.804144E+04  1.490706E+05  2.300992E+04 -1.481160E+02
       177  22  4.996849E+05  8.212286E+04  7.760877E+03  2.038629E+05  7.650861E+03 -3.574228E+03
       177  23  5.030193E+05  7.659170E+04  1.377326E+04  1.977245E+05  1.517395E+04 -2.127458E+03
       177  24  5.008691E+05  9.048401E+04  2.760981E+04  2.007056E+05  2.255978E+04 -3.176316E+02
       177  25  6.313724E+05  1.302022E+05  4.097238E+04  2.387117E+05  6.706853E+03 -3.930440E+03
       177  26  6.576429E+05  1.352962E+05  5.310654E+04  2.409732E+05  1.447663E+04 -2.390417E+03
       177  27  6.784773E+05  1.598607E+05  7.325865E+04  2.523543E+05  2.210949E+04 -4.872064E+02
       178   1  2.900052E+05  1.220330E+04 -1.734602E+04  1.642028E+05 -3.038949E+04 -8.094952E+02
       178   2  2.741846E+05 -2.711260E+04  4.654627E+02  1.244525E+05 -5.765781E+04 -1.062692E+04
       178   3  2.947885E+05  5.690889E+04  6.957044E+04  6.648384E+04 -8.231588E+04 -2.736417E+04
       178   4  5.053064E+05  7.803873E+04  3.437094E+04  2.081080E+05 -2.778681E+04  1.727754E+02
       178   5  4.940006E+05  6.781115E+04  5.870858E+04  1.976466E+05 -5.973441E+04 -1.141160E+04
       178   6  5.200263E+05  1.818177E+05  1.380319E+05  1.689713E+05 -8.907251E+04 -2.991760E+04
       178   7  7.206536E+05  1.438741E+05  8.608486E+04  2.520254E+05 -2.518313E+04  1.155265E+03
       178   8  7.138629E+05  1.627421E+05  1.169472E+05  2.708653E+05 -6.181180E+04 -1.219669E+04
       178   9  7.453143E+05  3.067484E+05  2.064879E+05  2.714967E+05 -9.583172E+04 -3.247308E+04
       178  10  2.900042E+05  1.220305E+04 -1.734776E+04  1.642028E+05 -7.255512E-09 -5.238368E-09
       178  11  2.741810E+05 -2.711362E+04  4.590066E+02  1.244520E+05 -7.814970E-09 -4.991278E-09
       178  12  2.947810E+05  5.690627E+04  6.955631E+04  6.648203E+04 -4.844683E-09  2.495984E-09
       178  13  5.053056E+05  7.803852E+04  3.436949E+04  2.081080E+05 -4.760044E-09  7.754884E-10
       178  14  4.939967E+05  6.781006E+04  5.870163E+04  1.976460E+05  3.700937E-10  4.884345E-09
       178  15  5.200176E+05  1.818146E+05  1.380154E+05  1.689692E+05 -5.535158E-10 -6.128533E-09
       178  16  7.206529E+05  1.438739E+05  8.608367E+04  2.520254E+05  7.449836E-09 -9.223663E-09
       178  17  7.138588E+05  1.627409E+05  1.169397E+05  2.708647E+05  3.543429E-09 -1.033230E-08
       178  18  7.453042E+05  3.067448E+05  2.064687E+05  2.714942E+05  3.217642E-09 -9.453582E-10
       178  19  2.900052E+05  1.220330E+04 -1.734602E+04  1.642028E+05  3.038949E+04  8.094952E+02
       178  20  2.741846E+05 -2.711260E+04  4.654627E+02  1.244525E+05  5.765781E+04  1.062692E+04
       178  21  2.947885E+05  5.690889E+04  6.957044E+04  6.648384E+04  8.231588E+04  2.736417E+04
       178  22  5.053064E+05  7.803873E+04  3.437094E+04  2.081080E+05  2.778681E+04 -1.727754E+02
       178  23  4.940006E+05  6.781115E+04  5.870858E+04  1.976466E+05  5.973441E+04  1.141160E+04
       178  24  5.200263E+05  1.818177E+05  1.380319E+05  1.689713E+05  8.907251E+04  2.991760E+04
       178  25  7.206536E+05  1.438741E+05  8.608486E+04  2.520254E+05  2.518313E+04 -1.155265E+03
       178  26  7.138629E+05  1.627421E+05  1.169472E+05  2.708653E+05  6.181180E+04  1.219669E+04
       178  27  7.453143E+05  3.067484E+05  2.064879E+05  2.714967E+05  9.583172E+04  3.247308E+04
       179   1 -1.605715E+05 -8.136832E+05 -1.617829E+05  9.504585E+04 -6.056310E+03 -2.605777E+04
       179   2 -1.040023E+05 -6.575231E+05 -1.080301E+05  5.070145E+04 -1.681481E+04 -9.718079E+03
       179   3 -6.688196E+04 -5.079748E+05 -6.972836E+04  8.581177E+04 -1.177255E+04  6.646473E+03
       179   4 -1.610642E+04 -2.339893E+05 -1.962070E+04  8.792496E+04 -6.073598E+03 -1.265848E+04
       179   5  9.519940E+02 -2.316434E+05 -9.390747E+03  4.820945E+04 -1.681641E+04 -7.678926E+03
       179   6  5.439672E+02 -2.339531E+05 -6.710120E+03  8.794655E+04 -1.176304E+04 -2.678800E+03
       179   7  1.283340E+05  3.460114E+05  1.225175E+05  8.079747E+04 -6.091186E+03  7.533173E+02
       179   8  1.058935E+05  1.944041E+05  8.923652E+04  4.571578E+04 -1.681802E+04 -5.638383E+03
       179   9  6.796471E+04  4.013824E+04  5.630348E+04  9.008230E+04 -1.175359E+04 -1.200816E+04
       179  10 -1.605717E+05 -8.136839E+05 -1.617842E+05  9.504572E+04 -5.569049E-10 -3.273833E-09
       179  11 -1.040026E+05 -6.575233E+05 -1.080309E+05  5.070132E+04 -2.104527E-09 -2.217957E-09
       179  12 -6.688212E+04 -5.079749E+05 -6.972870E+04  8.581183E+04  4.000407E-10 -5.270694E-10
       179  13 -1.610650E+04 -2.339895E+05 -1.962107E+04  8.792489E+04  1.734259E-09 -1.032656E-09
       179  14  9.516745E+02 -2.316435E+05 -9.391389E+03  4.820935E+04 -1.030544E-09  9.904353E-10
       179  15  5.438167E+02 -2.339532E+05 -6.710394E+03  8.794653E+04 -6.506595E-10 -1.973252E-09
       179  16  1.283340E+05  3.460114E+05  1.225174E+05  8.079748E+04 -1.825021E-11 -4.940810E-10
       179  17  1.058932E+05  1.944040E+05  8.923593E+04  4.571570E+04  1.324171E-09  3.232793E-09
       179  18  6.796453E+04  4.013804E+04  5.630295E+04  9.008219E+04 -1.534474E-09  1.543273E-09
       179  19 -1.605715E+05 -8.136832E+05 -1.617829E+05  9.504585E+04  6.056310E+03  2.605777E+04
       179  20 -1.040023E+05 -6.575231E+05 -1.080301E+05  5.070145E+04  1.681481E+04  9.718079E+03
       179  21 -6.688196E+04 -5.079748E+05 -6.972836E+04  8.581177E+04  1.177255E+04 -6.646473E+03
       179  22 -1.610642E+04 -2.339893E+05 -1.962070E+04  8.792496E+04  6.073598E+03  1.265848E+04
       179  23  9.519940E+02 -2.316434E+05 -9.390747E+03  4.820945E+04  1.681641E+04  7.678926E+03
       179  24  5.439672E+02 -2.339531E+05 -6.710120E+03  8.794655E+04  1.176304E+04  2.678800E+03
       179  25  1.283340E+05  3.460114E+05  1.225175E+05  8.079747E+04  6.091186E+03 -7.533173E+02
       179  26  1.058935E+05  1.944041E+05  8.923652E+04  4.571578E+04  1.681802E+04  5.638383E+03
       179  27  6.796471E+04  4.013824E+04  5.630348E+04  9.008230E+04  1.175359E+04  1.200816E+04
       180   1 -3.260797E+04 -3.604978E+05 -3.550048E+04  8.890051E+04 -5.422665E+03  3.110299E+03
       180   2  6.433216E+03 -2.071127E+05  1.592262E+02  4.796804E+04  1.087267E+03  5.961092E+03
       180   3  4.188086E+04 -5.475414E+04  3.310877E+04  8.708837E+04  7.535964E+03  8.812776E+03
       180   4 -1.263780E+03 -2.331391E+05 -6.190103E+03  8.807378E+04 -5.418215E+03 -1.599304E+03
       180   5  1.590854E+02 -2.326123E+05 -5.704944E+03  4.804680E+04  1.091807E+03  1.295180E+03
       180   6 -2.017733E+03 -2.331413E+05 -7.959169E+03  8.807303E+04  7.540522E+03  4.189873E+03
       180   7  3.007928E+04 -1.057654E+05  2.311929E+04  8.724688E+04 -5.413753E+03 -6.309866E+03
       180   8 -6.115079E+03 -2.581111E+05 -1.156908E+04  4.812555E+04  1.096345E+03 -3.370541E+03
       180   9 -4.591854E+04 -4.114990E+05 -4.902913E+04  8.905741E+04  7.545066E+03 -4.317127E+02
       180  10 -3.260800E+04 -3.604978E+05 -3.550056E+04  8.890052E+04  1.565807E-09  5.442523E-09
       180  11  6.433205E+03 -2.071128E+05  1.591571E+02  4.796804E+04  3.261019E-09 -4.779488E-11
       180  12  4.188078E+04 -5.475424E+04  3.310851E+04  8.708832E+04  9.177220E-10 -7.380040E-09
       180  13 -1.263813E+03 -2.331391E+05 -6.190163E+03  8.807377E+04 -4.233796E-10 -1.075045E-09
       180  14  1.590837E+02 -2.326123E+05 -5.704949E+03  4.804680E+04 -2.386623E-09 -4.664174E-10
       180  15 -2.017798E+03 -2.331414E+05 -7.959309E+03  8.807300E+04 -4.969249E-09 -1.942131E-09
       180  16  3.007924E+04 -1.057654E+05  2.311916E+04  8.724686E+04 -2.056601E-09 -7.812552E-09
       180  17 -6.115084E+03 -2.581111E+05 -1.156910E+04  4.812555E+04  2.968030E-09 -4.767846E-10
       180  18 -4.591860E+04 -4.114990E+05 -4.902924E+04  8.905741E+04  3.805115E-09  8.244324E-09
       180  19 -3.260797E+04 -3.604978E+05 -3.550048E+04  8.890051E+04  5.422665E+03 -3.110299E+03
       180  20  6.433216E+03 -2.071127E+05  1.592262E+02  4.796804E+04 -1.087267E+03 -5.961092E+03
       180  21  4.188086E+04 -5.475414E+04  3.310877E+04  8.708837E+04 -7.535964E+03 -8.812776E+03
       180  22 -1.263780E+03 -2.331391E+05 -6.190103E+03  8.807378E+04  5.418215E+03  1.599304E+03
       180  23  1.590854E+02 -2.326123E+05 -5.704944E+03  4.804680E+04 -1.091807E+03 -1.295180E+03
       180  24 -2.017733E+03 -2.331413E+05 -7.959169E+03  8.807303E+04 -7.540522E+03 -4.189873E+03
       180  25  3.007928E+04 -1.057654E+05  2.311929E+04  8.724688E+04  5.413753E+03  6.309866E+03
       180  26 -6.115079E+03 -2.581111E+05 -1.156908E+04  4.812555E+04 -1.096345E+03  3.370541E+03
       180  27 -4.591854E+04 -4.114990E+05 -4.902913E+04  8.905741E+04 -7.545066E+03  4.317127E+02
       181   1  8.106346E+04  9.053019E+04  6.543040E+04  9.140954E+04  1.401193E+04  1.525830E+04
       181   2  1.190635E+05  2.461224E+05  9.606487E+04  4.443502E+04  1.888584E+04  1.064142E+04
       181   3  1.315852E+05  3.963682E+05  1.234170E+05  7.683508E+04  6.729345E+03  6.000273E+03
       181   4  1.102244E+03 -2.345912E+05 -9.278591E+03  8.793451E+04  1.402211E+04  5.616578E+03
       181   5  1.581931E+03 -2.308611E+05 -1.432145E+04  4.822643E+04  1.888363E+04  1.326080E+04
       181   6 -2.555470E+04 -2.346326E+05 -3.116542E+04  8.789827E+04  6.708827E+03  2.088160E+04
       181   7 -7.886625E+04 -5.596145E+05 -8.399421E+04  8.446132E+04  1.403241E+04 -4.020133E+03
       181   8 -1.159156E+05 -7.076343E+05 -1.247230E+05  5.201497E+04  1.888146E+04  1.587819E+04
       181   9 -1.827236E+05 -8.652700E+05 -1.857761E+05  9.895030E+04  6.688829E+03  3.574782E+04
       181  10  8.106318E+04  9.052989E+04  6.542959E+04  9.140937E+04  3.325883E-09  6.840012E-10
       181  11  1.190631E+05  2.461222E+05  9.606398E+04  4.443486E+04  3.247393E-09 -8.270685E-09
       181  12  1.315852E+05  3.963681E+05  1.234168E+05  7.683505E+04  1.172110E-09 -5.891346E-09
       181  13  1.102024E+03 -2.345913E+05 -9.279020E+03  8.793444E+04 -4.145526E-09  1.043761E-09
       181  14  1.581501E+03 -2.308614E+05 -1.432245E+04  4.822623E+04 -3.244594E-09 -1.563934E-09
       181  15 -2.555486E+04 -2.346330E+05 -3.116632E+04  8.789816E+04  1.016665E-10 -4.861354E-09
       181  16 -7.886647E+04 -5.596146E+05 -8.399461E+04  8.446136E+04  3.352508E-09 -1.553435E-09
       181  17 -1.159161E+05 -7.076347E+05 -1.247241E+05  5.201473E+04  5.732999E-09  5.405509E-09
       181  18 -1.827240E+05 -8.652714E+05 -1.857786E+05  9.895011E+04  2.005417E-09  1.155140E-08
       181  19  8.106346E+04  9.053019E+04  6.543040E+04  9.140954E+04 -1.401193E+04 -1.525830E+04
       181  20  1.190635E+05  2.461224E+05  9.606487E+04  4.443502E+04 -1.888584E+04 -1.064142E+04
       181  21  1.315852E+05  3.963682E+05  1.234170E+05  7.683508E+04 -6.729345E+03 -6.000273E+03
       181  22  1.102244E+03 -2.345912E+05 -9.278591E+03  8.793451E+04 -1.402211E+04 -5.616578E+03
       181  23  1.581931E+03 -2.308611E+05 -1.432145E+04  4.822643E+04 -1.888363E+04 -1.326080E+04
       181  24 -2.555470E+04 -2.346326E+05 -3.116542E+04  8.789827E+04 -6.708827E+03 -2.088160E+04
       181  25 -7.886625E+04 -5.596145E+05 -8.399421E+04  8.446132E+04 -1.403241E+04  4.020133E+03
       181  26 -1.159156E+05 -7.076343E+05 -1.247230E+05  5.201497E+04 -1.888146E+04 -1.587819E+04
       181  27 -1.827236E+05 -8.652700E+05 -1.857761E+05  9.895030E+04 -6.688829E+03 -3.574782E+04
       182   1  3.045987E+05  1.475817E+05  1.346264E+05  3.644131E+04  2.823705E+04 -1.033474E+04
       182   2  2.470381E+05  1.545225E+05  1.130687E+05  4.244610E+04  8.404141E+03 -3.454002E+04
       182   3  1.882097E+05  1.459323E+05  1.005553E+05  6.043791E+04 -1.143657E+04 -4.110024E+04
       182   4 -4.354590E+05 -3.513796E+04 -3.906498E+04  5.794669E+04 -2.722623E+04 -1.037637E+04
       182   5 -4.322302E+05 -7.730206E+03 -1.897292E+04  5.193724E+04 -1.740547E+04 -3.456551E+04
       182   6 -4.354268E+05 -1.012485E+03 -1.043361E+04  5.791565E+04 -7.594714E+03 -4.109998E+04
       182   7 -1.175005E+06 -2.178932E+05 -2.127820E+05  7.942618E+04 -8.262381E+04 -1.042187E+04
       182   8 -1.111054E+06 -1.700098E+05 -1.510338E+05  6.141766E+04 -4.318747E+04 -3.459180E+04
       182   9 -1.058684E+06 -1.479787E+05 -1.214371E+05  5.539590E+04 -3.756604E+03 -4.109975E+04
       182  10  3.045978E+05  1.475813E+05  1.346247E+05  3.644154E+04  2.684557E-08  1.260164E-10
       182  11  2.470377E+05  1.545212E+05  1.130663E+05  4.244634E+04  2.073991E-09 -1.233419E-09
       182  12  1.882091E+05  1.459304E+05  1.005518E+05  6.043753E+04 -2.796167E-08 -1.978679E-09
       182  13 -4.354598E+05 -3.513828E+04 -3.906657E+04  5.794646E+04  1.296073E-09  7.398588E-10
       182  14 -4.322308E+05 -7.731570E+03 -1.897574E+04  5.193676E+04  1.206357E-09 -7.016996E-10
       182  15 -4.354273E+05 -1.014314E+03 -1.043690E+04  5.791540E+04 -1.268889E-09 -1.009741E-09
       182  16 -1.175012E+06 -2.178951E+05 -2.127951E+05  7.942549E+04 -2.770168E-08  1.854567E-10
       182  17 -1.111056E+06 -1.700116E+05 -1.510396E+05  6.141646E+04 -6.662059E-10 -2.716983E-09
       182  18 -1.058684E+06 -1.479805E+05 -1.214403E+05  5.539577E+04  2.679636E-08 -4.089253E-09
       182  19  3.045987E+05  1.475817E+05  1.346264E+05  3.644131E+04 -2.823705E+04  1.033474E+04
       182  20  2.470381E+05  1.545225E+05  1.130687E+05  4.244610E+04 -8.404141E+03  3.454002E+04
       182  21  1.882097E+05  1.459323E+05  1.005553E+05  6.043791E+04  1.143657E+04  4.110024E+04
       182  22 -4.354590E+05 -3.513796E+04 -3.906498E+04  5.794669E+04  2.722623E+04  1.037637E+04
       182  23 -4.322302E+05 -7.730206E+03 -1.897292E+04  5.193724E+04  1.740547E+04  3.456551E+04
       182  24 -4.354268E+05 -1.012485E+03 -1.043361E+04  5.791565E+04  7.594714E+03  4.109998E+04
       182  25 -1.175005E+06 -2.178932E+05 -2.127820E+05  7.942618E+04  8.262381E+04  1.042187E+04
       182  26 -1.111054E+06 -1.700098E+05 -1.510338E+05  6.141766E+04  4.318747E+04  3.459180E+04
       182  27 -1.058684E+06 -1.479787E+05 -1.214371E+05  5.539590E+04  3.756604E+03  4.109975E+04
       183   1  1.507508E+05  1.360775E+05  9.516721E+04  5.800752E+04 -8.068650E+03 -3.943543E+04
       183   2  9.263400E+04  1.232474E+05  8.618844E+04  5.186622E+04 -8.524837E+03 -3.756303E+04
       183   3  3.442482E+04  1.098200E+05  7.735713E+04  5.888275E+04 -8.983907E+03 -3.411855E+04
       183   4 -4.341137E+05 -1.533227E+03 -7.946873E+03  5.817971E+04 -6.238034E+03 -3.943677E+04
       183   5 -4.338264E+05 -1.759882E+02 -4.376565E+03  5.159944E+04 -4.054274E+03 -3.756072E+04
       183   6 -4.340927E+05  1.254652E+02 -2.492889E+03  5.817771E+04 -1.873391E+03 -3.411192E+04
       183   7 -1.018644E+06 -1.391627E+05 -1.110735E+05  5.835164E+04 -4.409091E+03 -3.943811E+04
       183   8 -9.600145E+05 -1.236142E+05 -9.495090E+04  5.133280E+04  4.126182E+02 -3.755841E+04
       183   9 -9.023942E+05 -1.095807E+05 -8.234995E+04  5.747315E+04  5.231930E+03 -3.410529E+04
       183  10  1.507504E+05  1.360759E+05  9.516417E+04  5.800727E+04 -4.003464E-09 -2.978447E-09
       183  11  9.263354E+04  1.232459E+05  8.618565E+04  5.186597E+04 -1.552853E-09 -1.277895E-10
       183  12  3.442442E+04  1.098187E+05  7.735479E+04  5.888250E+04  9.783986E-10  1.538219E-09
       183  13 -4.341142E+05 -1.534907E+03 -7.949868E+03  5.817952E+04  5.320324E-10 -2.788379E-09
       183  14 -4.338268E+05 -1.775073E+02 -4.379247E+03  5.159932E+04 -5.725923E-10 -1.192054E-09
       183  15 -4.340930E+05  1.242150E+02 -2.495081E+03  5.817766E+04  3.153156E-09 -1.314588E-09
       183  16 -1.018644E+06 -1.391644E+05 -1.110764E+05  5.835150E+04  3.916409E-09 -1.826009E-09
       183  17 -9.600149E+05 -1.236157E+05 -9.495355E+04  5.133282E+04  1.063291E-09 -9.139316E-10
       183  18 -9.023945E+05 -1.095820E+05 -8.235219E+04  5.747329E+04 -1.001957E-10 -1.925525E-10
       183  19  1.507508E+05  1.360775E+05  9.516721E+04  5.800752E+04  8.068650E+03  3.943543E+04
       183  20  9.263400E+04  1.232474E+05  8.618844E+04  5.186622E+04  8.524837E+03  3.756303E+04
       183  21  3.442482E+04  1.098200E+05  7.735713E+04  5.888275E+04  8.983907E+03  3.411855E+04
       183  22 -4.341137E+05 -1.533227E+03 -7.946873E+03  5.817971E+04  6.238034E+03  3.943677E+04
       183  23 -4.338264E+05 -1.759882E+02 -4.376565E+03  5.159944E+04  4.054274E+03  3.756072E+04
       183  24 -4.340927E+05  1.254652E+02 -2.492889E+03  5.817771E+04  1.873391E+03  3.411192E+04
       183  25 -1.018644E+06 -1.391627E+05 -1.110735E+05  5.835164E+04  4.409091E+03  3.943811E+04
       183  26 -9.600145E+05 -1.236142E+05 -9.495090E+04  5.133280E+04 -4.126182E+02  3.755841E+04
       183  27 -9.023942E+05 -1.095807E+05 -8.234995E+04  5.747315E+04 -5.231930E+03  3.410529E+04
       184   1 -3.509330E+03  1.008247E+05  7.117170E+04  5.872004E+04 -8.427165E+03 -3.162507E+04
       184   2 -6.172180E+04  8.722107E+04  6.200545E+04  5.201811E+04 -8.131505E+03 -2.742675E+04
       184   3 -1.199914E+05  7.363950E+04  5.264477E+04  5.859486E+04 -7.837216E+03 -2.308681E+04
       184   4 -4.339857E+05  9.514132E+01 -1.895232E+03  5.820481E+04 -1.492692E+03 -3.161799E+04
       184   5 -4.339275E+05  1.409314E+02 -1.085639E+03  5.156518E+04 -9.597348E+02 -2.741841E+04
       184   6 -4.339712E+05  1.676831E+02 -6.356168E+02  5.820471E+04 -4.281221E+02 -2.307716E+04
       184   7 -8.642795E+05 -1.006442E+05 -7.496801E+04  5.768987E+04  5.437127E+03 -3.161091E+04
       184   8 -8.059967E+05 -8.694650E+04 -6.418102E+04  5.111248E+04  6.207874E+03 -2.741008E+04
       184   9 -7.478537E+05 -7.330932E+04 -5.391900E+04  5.781471E+04  6.977345E+03 -2.306752E+04
       184  10 -3.509675E+03  1.008236E+05  7.116969E+04  5.871983E+04  6.842517E-11  2.754698E-09
       184  11 -6.172208E+04  8.722024E+04  6.200391E+04  5.201793E+04  1.696879E-09  2.855279E-09
       184  12 -1.199916E+05  7.363891E+04  5.264365E+04  5.859472E+04  1.957987E-09  1.060683E-09
       184  13 -4.339860E+05  9.406745E+01 -1.897115E+03  5.820477E+04 -8.657345E-11 -1.114580E-09
       184  14 -4.339277E+05  1.401241E+02 -1.087053E+03  5.156516E+04  9.282231E-10  2.837514E-09
       184  15 -4.339713E+05  1.671113E+02 -6.366177E+02  5.820470E+04  8.054607E-10  4.678024E-09
       184  16 -8.642798E+05 -1.006453E+05 -7.496994E+04  5.769001E+04  6.721628E-10  1.298079E-09
       184  17 -8.059969E+05 -8.694732E+04 -6.418250E+04  5.111262E+04 -1.743345E-09  3.821831E-09
       184  18 -7.478539E+05 -7.330991E+04 -5.392009E+04  5.781484E+04 -3.679499E-09  2.282286E-09
       184  19 -3.509330E+03  1.008247E+05  7.117170E+04  5.872004E+04  8.427165E+03  3.162507E+04
       184  20 -6.172180E+04  8.722107E+04  6.200545E+04  5.201811E+04  8.131505E+03  2.742675E+04
       184  21 -1.199914E+05  7.363950E+04  5.264477E+04  5.859486E+04  7.837216E+03  2.308681E+04
       184  22 -4.339857E+05  9.514132E+01 -1.895232E+03  5.820481E+04  1.492692E+03  3.161799E+04
       184  23 -4.339275E+05  1.409314E+02 -1.085639E+03  5.156518E+04  9.597348E+02  2.741841E+04
       184  24 -4.339712E+05  1.676831E+02 -6.356168E+02  5.820471E+04  4.281221E+02  2.307716E+04
       184  25 -8.642795E+05 -1.006442E+05 -7.496801E+04  5.768987E+04 -5.437127E+03  3.161091E+04
       184  26 -8.059967E+05 -8.694650E+04 -6.418102E+04  5.111248E+04 -6.207874E+03  2.741008E+04
       184  27 -7.478537E+05 -7.330932E+04 -5.391900E+04  5.781471E+04 -6.977345E+03  2.306752E+04
       185   1 -1.579922E+05  6.469748E+04  4.609191E+04  5.854851E+04 -7.724793E+03 -2.051666E+04
       185   2 -2.162671E+05  5.107108E+04  3.651382E+04  5.182386E+04 -7.595986E+03 -1.610728E+04
       185   3 -2.745867E+05  3.748467E+04  2.685019E+04  5.840033E+04 -7.467910E+03 -1.168491E+04
       185   4 -4.339559E+05  1.688431E+02 -4.942851E+02  5.820966E+04 -3.294451E+02 -2.050657E+04
       185   5 -4.339253E+05  1.572323E+02 -3.159410E+02  5.155897E+04 -1.792604E+02 -1.609659E+04
       185   6 -4.339474E+05  1.817854E+02 -2.383979E+02  5.820965E+04 -2.979386E+01 -1.167361E+04
       185   7 -7.098444E+05 -6.436377E+04 -4.708271E+04  5.787094E+04  7.062721E+03 -2.049649E+04
       185   8 -6.515367E+05 -5.075908E+04 -3.714701E+04  5.129415E+04  7.234948E+03 -1.608590E+04
       185   9 -5.932831E+05 -3.712242E+04 -2.732761E+04  5.801902E+04  7.406473E+03 -1.166230E+04
       185  10 -1.579924E+05  6.469701E+04  4.609101E+04  5.854838E+04  7.537619E-10  1.405204E-09
       185  11 -2.162672E+05  5.107078E+04  3.651322E+04  5.182376E+04 -2.543609E-09  6.717863E-09
       185  12 -2.745868E+05  3.748451E+04  2.684983E+04  5.840025E+04 -4.518202E-09  5.364622E-09
       185  13 -4.339560E+05  1.683916E+02 -4.950753E+02  5.820966E+04 -3.498006E-10  2.582998E-09
       185  14 -4.339254E+05  1.569541E+02 -3.164279E+02  5.155897E+04 -4.316188E-09  5.904966E-09
       185  15 -4.339475E+05  1.816391E+02 -2.386539E+02  5.820965E+04  3.388187E-10  2.513094E-09
       185  16 -7.098445E+05 -6.436424E+04 -4.708359E+04  5.787106E+04 -1.117919E-09  2.052538E-09
       185  17 -6.515369E+05 -5.075938E+04 -3.714760E+04  5.129425E+04 -2.286589E-09  1.919428E-09
       185  18 -5.932832E+05 -3.712258E+04 -2.732797E+04  5.801909E+04  1.956129E-09  1.200346E-09
       185  19 -1.579922E+05  6.469748E+04  4.609191E+04  5.854851E+04  7.724793E+03  2.051666E+04
       185  20 -2.162671E+05  5.107108E+04  3.651382E+04  5.182386E+04  7.595986E+03  1.610728E+04
       185  21 -2.745867E+05  3.748467E+04  2.685019E+04  5.840033E+04  7.467910E+03  1.168491E+04
       185  22 -4.339559E+05  1.688431E+02 -4.942851E+02  5.820966E+04  3.294451E+02  2.050657E+04
       185  23 -4.339253E+05  1.572323E+02 -3.159410E+02  5.155897E+04  1.792604E+02  1.609659E+04
       185  24 -4.339474E+05  1.817854E+02 -2.383979E+02  5.820965E+04  2.979386E+01  1.167361E+04
       185  25 -7.098444E+05 -6.436377E+04 -4.708271E+04  5.787094E+04 -7.062721E+03  2.049649E+04
       185  26 -6.515367E+05 -5.075908E+04 -3.714701E+04  5.129415E+04 -7.234948E+03  1.608590E+04
       185  27 -5.932831E+05 -3.712242E+04 -2.732761E+04  5.801902E+04 -7.406473E+03  1.166230E+04
       186   1 -3.126214E+05  2.853907E+04  2.016760E+04  5.835422E+04 -7.429693E+03 -9.106375E+03
       186   2 -3.709150E+05  1.490699E+04  1.038773E+04  5.161832E+04 -7.294946E+03 -4.679920E+03
       186   3 -4.292639E+05  1.310243E+03  5.147474E+02  5.819228E+04 -7.160403E+03 -2.598512E+02
       186   4 -4.339461E+05  1.843270E+02 -2.291779E+02  5.821155E+04  8.782023E+00 -9.094848E+03
       186   5 -4.339169E+05  1.704464E+02 -2.639813E+02  5.155658E+04  1.325121E+02 -4.668245E+03
       186   6 -4.339436E+05  1.941636E+02 -3.841068E+02  5.821155E+04  2.560509E+02 -2.480252E+02
       186   7 -5.552561E+05 -2.817116E+04 -2.062622E+04  5.806891E+04  7.445850E+03 -9.083324E+03
       186   8 -4.969148E+05 -1.456628E+04 -1.091561E+04  5.149485E+04  7.559240E+03 -4.656571E+03
       186   9 -4.386233E+05 -9.218879E+02 -1.282755E+03  5.823081E+04  7.672450E+03 -2.361986E+02
       186  10 -3.126215E+05  2.853897E+04  2.016735E+04  5.835416E+04 -4.319321E-09  2.291143E-09
       186  11 -3.709151E+05  1.490695E+04  1.038759E+04  5.161829E+04 -1.178629E-08  1.436247E-09
       186  12 -4.292639E+05  1.310229E+03  5.146509E+02  5.819228E+04 -1.384387E-08  2.240207E-09
       186  13 -4.339461E+05  1.842382E+02 -2.293333E+02  5.821155E+04 -6.037719E-10  3.710261E-09
       186  14 -4.339169E+05  1.704230E+02 -2.640222E+02  5.155658E+04 -2.576538E-09 -7.997513E-09
       186  15 -4.339436E+05  1.941635E+02 -3.841070E+02  5.821155E+04 -3.987165E-09 -1.634968E-08
       186  16 -5.552562E+05 -2.817127E+04 -2.062648E+04  5.806897E+04  3.799427E-09  2.622833E-09
       186  17 -4.969149E+05 -1.456632E+04 -1.091576E+04  5.149488E+04  9.273928E-09 -9.159582E-10
       186  18 -4.386233E+05 -9.219038E+02 -1.282866E+03  5.823081E+04  1.215649E-08 -5.786327E-10
       186  19 -3.126214E+05  2.853907E+04  2.016760E+04  5.835422E+04  7.429693E+03  9.106375E+03
       186  20 -3.709150E+05  1.490699E+04  1.038773E+04  5.161832E+04  7.294946E+03  4.679920E+03
       186  21 -4.292639E+05  1.310243E+03  5.147474E+02  5.819228E+04  7.160403E+03  2.598512E+02
       186  22 -4.339461E+05  1.843270E+02 -2.291779E+02  5.821155E+04 -8.782023E+00  9.094848E+03
       186  23 -4.339169E+05  1.704464E+02 -2.639813E+02  5.155658E+04 -1.325121E+02  4.668245E+03
       186  24 -4.339436E+05  1.941636E+02 -3.841068E+02  5.821155E+04 -2.560509E+02  2.480252E+02
       186  25 -5.552561E+05 -2.817116E+04 -2.062622E+04  5.806891E+04 -7.445850E+03  9.083324E+03
       186  26 -4.969148E+05 -1.456628E+04 -1.091561E+04  5.149485E+04 -7.559240E+03  4.656571E+03
       186  27 -4.386233E+05 -9.218879E+02 -1.282755E+03  5.823081E+04 -7.672450E+03  2.361986E+02
       187   1 -4.673155E+05 -7.638569E+03 -6.284774E+03  5.813274E+04 -7.095487E+03  2.316008E+03
       187   2 -5.255673E+05 -2.128174E+04 -1.640721E+04  5.139637E+04 -6.550769E+03  6.695567E+03
       187   3 -5.839421E+05 -3.495331E+04 -2.690551E+04  5.796355E+04 -6.005684E+03  1.098662E+04
       187   4 -4.339538E+05  1.972679E+02 -4.855917E+02  5.821008E+04  3.305508E+02  2.327826E+03
       187   5 -4.339053E+05  1.798596E+02 -8.136217E+02  5.155840E+04  7.263997E+02  6.706908E+03
       187   6 -4.339575E+05  1.600610E+02 -1.414144E+03  5.821014E+04  1.122665E+03  1.099749E+04
       187   7 -4.005909E+05  8.033074E+03  5.313759E+03  5.828742E+04  7.756976E+03  2.339647E+03
       187   8 -3.422350E+05  2.164104E+04  1.477989E+04  5.172046E+04  8.004609E+03  6.718252E+03
       187   9 -2.839506E+05  3.527226E+04  2.407668E+04  5.845679E+04  8.252682E+03  1.100837E+04
       187  10 -4.673155E+05 -7.638588E+03 -6.284878E+03  5.813275E+04  1.114887E-08  4.543330E-09
       187  11 -5.255673E+05 -2.128180E+04 -1.640737E+04  5.139641E+04  2.933682E-08  1.130842E-09
       187  12 -5.839422E+05 -3.495345E+04 -2.690581E+04  5.796360E+04  3.947097E-08  1.052237E-09
       187  13 -4.339538E+05  1.972620E+02 -4.856021E+02  5.821008E+04 -2.436715E-09 -1.381866E-08
       187  14 -4.339054E+05  1.798112E+02 -8.137072E+02  5.155840E+04  2.744147E-10 -3.098721E-09
       187  15 -4.339575E+05  1.599308E+02 -1.414374E+03  5.821013E+04  1.116163E-09  6.973175E-09
       187  16 -4.005910E+05  8.033052E+03  5.313635E+03  5.828741E+04 -1.234080E-08  3.325717E-09
       187  17 -3.422351E+05  2.164098E+04  1.477968E+04  5.172041E+04 -3.078810E-08 -2.051838E-09
       187  18 -2.839507E+05  3.527211E+04  2.407632E+04  5.845672E+04 -4.115558E-08 -7.090483E-10
       187  19 -4.673155E+05 -7.638569E+03 -6.284774E+03  5.813274E+04  7.095487E+03 -2.316008E+03
       187  20 -5.255673E+05 -2.128174E+04 -1.640721E+04  5.139637E+04  6.550769E+03 -6.695567E+03
       187  21 -5.839421E+05 -3.495331E+04 -2.690551E+04  5.796355E+04  6.005684E+03 -1.098662E+04
       187  22 -4.339538E+05  1.972679E+02 -4.855917E+02  5.821008E+04 -3.305508E+02 -2.327826E+03
       187  23 -4.339053E+05  1.798596E+02 -8.136217E+02  5.155840E+04 -7.263997E+02 -6.706908E+03
       187  24 -4.339575E+05  1.600610E+02 -1.414144E+03  5.821014E+04 -1.122665E+03 -1.099749E+04
       187  25 -4.005909E+05  8.033074E+03  5.313759E+03  5.828742E+04 -7.756976E+03 -2.339647E+03
       187  26 -3.422350E+05  2.164104E+04  1.477989E+04  5.172046E+04 -8.004609E+03 -6.718252E+03
       187  27 -2.839506E+05  3.527226E+04  2.407668E+04  5.845679E+04 -8.252682E+03 -1.100837E+04
       188   1 -6.220886E+05 -4.389841E+04 -3.410775E+04  5.777954E+04 -5.835255E+03  1.351567E+04
       188   2 -6.800038E+05 -5.783091E+04 -4.587648E+04  5.144231E+04 -2.550351E+03  1.733740E+04
       188   3 -7.386490E+05 -7.282712E+04 -6.006262E+04  5.833806E+04  7.362156E+02  2.016700E+04
       188   4 -4.340364E+05  1.859043E+02 -1.858452E+03  5.819414E+04  1.404637E+03  1.352646E+04
       188   5 -4.338192E+05 -3.852557E+01 -3.257534E+03  5.157872E+04  3.024525E+03  1.734509E+04
       188   6 -4.340465E+05 -1.037208E+03 -5.916762E+03  5.819598E+04  4.646397E+03  2.017180E+04
       188   7 -2.459493E+05  4.426836E+04  3.038986E+04  5.860886E+04  8.646655E+03  1.353725E+04
       188   8 -1.875749E+05  5.775061E+04  3.935943E+04  5.171516E+04  8.601545E+03  1.735279E+04
       188   9 -1.293532E+05  7.074759E+04  4.822568E+04  5.805379E+04  8.558443E+03  2.017660E+04
       188  10 -6.220887E+05 -4.389862E+04 -3.410816E+04  5.777960E+04 -2.622512E-08  3.674739E-09
       188  11 -6.800039E+05 -5.783123E+04 -4.587706E+04  5.144235E+04 -1.250320E-08  2.377487E-10
       188  12 -7.386491E+05 -7.282756E+04 -6.006338E+04  5.833805E+04  3.391199E-09  3.359375E-09
       188  13 -4.340364E+05  1.857073E+02 -1.858799E+03  5.819413E+04  1.893519E-09  1.046146E-08
       188  14 -4.338193E+05 -3.885102E+01 -3.258117E+03  5.157868E+04  1.936027E-09  8.294177E-09
       188  15 -4.340466E+05 -1.037651E+03 -5.917567E+03  5.819590E+04  1.843026E-09  6.880102E-10
       188  16 -2.459494E+05  4.426814E+04  3.038937E+04  5.860876E+04  2.737098E-08  1.092434E-09
       188  17 -1.875751E+05  5.775026E+04  3.935873E+04  5.171504E+04  1.454973E-08  2.310752E-09
       188  18 -1.293534E+05  7.074714E+04  4.822477E+04  5.805365E+04 -1.402913E-09 -2.397262E-09
       188  19 -6.220886E+05 -4.389841E+04 -3.410775E+04  5.777954E+04  5.835255E+03 -1.351567E+04
       188  20 -6.800038E+05 -5.783091E+04 -4.587648E+04  5.144231E+04  2.550351E+03 -1.733740E+04
       188  21 -7.386490E+05 -7.282712E+04 -6.006262E+04  5.833806E+04 -7.362156E+02 -2.016700E+04
       188  22 -4.340364E+05  1.859043E+02 -1.858452E+03  5.819414E+04 -1.404637E+03 -1.352646E+04
       188  23 -4.338192E+05 -3.852557E+01 -3.257534E+03  5.157872E+04 -3.024525E+03 -1.734509E+04
       188  24 -4.340465E+05 -1.037208E+03 -5.916762E+03  5.819598E+04 -4.646397E+03 -2.017180E+04
       188  25 -2.459493E+05  4.426836E+04  3.038986E+04  5.860886E+04 -8.646655E+03 -1.353725E+04
       188  26 -1.875749E+05  5.775061E+04  3.935943E+04  5.171516E+04 -8.601545E+03 -1.735279E+04
       188  27 -1.293532E+05  7.074759E+04  4.822568E+04  5.805379E+04 -8.558443E+03 -2.017660E+04
       189   1 -7.781561E+05 -8.164615E+04 -6.936388E+04  5.613282E+04  4.762372E+02  2.217150E+04
       189   2 -8.324398E+05 -1.013538E+05 -9.261608E+04  5.878948E+04  2.647239E+04  1.972033E+04
       189   3 -8.947994E+05 -1.397246E+05 -1.374753E+05  7.394949E+04  5.247861E+04  6.125774E+03
       189   4 -4.350242E+05 -6.467583E+02 -7.768418E+03  5.802940E+04  5.654714E+03  2.217777E+04
       189   5 -4.326220E+05 -5.655950E+03 -1.412333E+04  5.179451E+04  1.295352E+04  1.970089E+04
       189   6 -4.350446E+05 -2.607302E+04 -2.908657E+04  5.806349E+04  2.026503E+04  6.083178E+03
       189   7 -9.177726E+04  8.034610E+04  5.382261E+04  5.992702E+04  1.083597E+04  2.218406E+04
       189   8 -3.265038E+04  9.003251E+04  6.436241E+04  4.479488E+04 -5.738887E+02  1.968177E+04
       189   9  2.490768E+04  8.756494E+04  7.929164E+04  4.216557E+04 -1.197230E+04  6.042249E+03
       189  10 -7.781563E+05 -8.164668E+04 -6.936480E+04  5.613281E+04 -1.949841E-09  2.279503E-09
       189  11 -8.324407E+05 -1.013544E+05 -9.261813E+04  5.878906E+04 -2.471243E-09 -8.862979E-10
       189  12 -8.948023E+05 -1.397254E+05 -1.374806E+05  7.394923E+04 -2.435112E-10 -3.204658E-10
       189  13 -4.350243E+05 -6.472949E+02 -7.769402E+03  5.802930E+04  3.730384E-10  4.451625E-09
       189  14 -4.326223E+05 -5.656412E+03 -1.412437E+04  5.179431E+04 -4.670242E-09 -3.094260E-09
       189  15 -4.350450E+05 -2.607317E+04 -2.908741E+04  5.806339E+04 -2.523323E-10  2.246685E-09
       189  16 -9.177751E+04  8.034554E+04  5.382146E+04  5.992682E+04  3.467221E-09  1.442652E-09
       189  17 -3.265049E+04  9.003209E+04  6.436168E+04  4.479489E+04 -3.543675E-10  2.024067E-09
       189  18  2.490751E+04  8.756487E+04  7.929130E+04  4.216563E+04  6.254493E-10 -6.404408E-11
       189  19 -7.781561E+05 -8.164615E+04 -6.936388E+04  5.613282E+04 -4.762372E+02 -2.217150E+04
       189  20 -8.324398E+05 -1.013538E+05 -9.261608E+04  5.878948E+04 -2.647239E+04 -1.972033E+04
       189  21 -8.947994E+05 -1.397246E+05 -1.374753E+05  7.394949E+04 -5.247861E+04 -6.125774E+03
       189  22 -4.350242E+05 -6.467583E+02 -7.768418E+03  5.802940E+04 -5.654714E+03 -2.217777E+04
       189  23 -4.326220E+05 -5.655950E+03 -1.412333E+04  5.179451E+04 -1.295352E+04 -1.970089E+04
       189  24 -4.350446E+05 -2.607302E+04 -2.908657E+04  5.806349E+04 -2.026503E+04 -6.083178E+03
       189  25 -9.177726E+04  8.034610E+04  5.382261E+04  5.992702E+04 -1.083597E+04 -2.218406E+04
       189  26 -3.265038E+04  9.003251E+04  6.436241E+04  4.479488E+04  5.738887E+02 -1.968177E+04
       189  27  2.490768E+04  8.756494E+04  7.929164E+04  4.216557E+04  1.197230E+04 -6.042249E+03
       190   1 -1.134001E+05  7.123343E+04  5.672444E+04 -2.731243E+02 -3.136268E+04 -6.074700E+03
       190   2 -1.444708E+05  1.172363E+05  7.724909E+04  4.740161E+03 -2.472330E+04 -1.869376E+04
       190   3 -1.903714E+05  1.071590E+05  7.945469E+04  2.941636E+04 -1.810029E+04 -1.872362E+04
       190   4 -6.138536E+05 -5.329775E+04 -6.559517E+04  2.111294E+04 -4.495948E+04 -6.093088E+03
       190   5 -6.056324E+05  3.673609E+03 -2.933732E+04  1.124258E+04 -2.926748E+04 -1.870152E+04
       190   6 -6.138277E+05  2.968986E+03 -1.769979E+04  2.103657E+04 -1.359117E+04 -1.871690E+04
       190   7 -1.114077E+06 -1.778456E+05 -1.879321E+05  4.248164E+04 -5.854533E+04 -6.112421E+03
       190   8 -1.066597E+06 -1.099038E+05 -1.359378E+05  1.774005E+04 -3.380831E+04 -1.870937E+04
       190   9 -1.037118E+06 -1.012333E+05 -1.148660E+05  1.266248E+04 -9.085099E+03 -1.871029E+04
       190  10 -1.134011E+05  7.123312E+04  5.672252E+04 -2.732778E+02 -5.097589E-09  8.777217E-10
       190  11 -1.444715E+05  1.172357E+05  7.724728E+04  4.739789E+03 -2.044099E-09  4.705598E-09
       190  12 -1.903719E+05  1.071586E+05  7.945342E+04  2.941609E+04  1.057227E-09  2.154124E-09
       190  13 -6.138558E+05 -5.329834E+04 -6.559904E+04  2.111272E+04 -1.723629E-09 -1.718188E-09
       190  14 -6.056334E+05  3.673003E+03 -2.933959E+04  1.124214E+04  3.288430E-10 -2.231343E-09
       190  15 -6.138280E+05  2.968560E+03 -1.770079E+04  2.103637E+04 -2.829000E-09 -5.836785E-10
       190  16 -1.114081E+06 -1.778466E+05 -1.879386E+05  4.248135E+04  3.968412E-09  5.601521E-10
       190  17 -1.066598E+06 -1.099045E+05 -1.359406E+05  1.773954E+04  2.825371E-10  4.511473E-09
       190  18 -1.037118E+06 -1.012337E+05 -1.148668E+05  1.266234E+04 -3.132706E-09 -1.446061E-09
       190  19 -1.134001E+05  7.123343E+04  5.672444E+04 -2.731243E+02  3.136268E+04  6.074700E+03
       190  20 -1.444708E+05  1.172363E+05  7.724909E+04  4.740161E+03  2.472330E+04  1.869376E+04
       190  21 -1.903714E+05  1.071590E+05  7.945469E+04  2.941636E+04  1.810029E+04  1.872362E+04
       190  22 -6.138536E+05 -5.329775E+04 -6.559517E+04  2.111294E+04  4.495948E+04  6.093088E+03
       190  23 -6.056324E+05  3.673609E+03 -2.933732E+04  1.124258E+04  2.926748E+04  1.870152E+04
       190  24 -6.138277E+05  2.968986E+03 -1.769979E+04  2.103657E+04  1.359117E+04  1.871690E+04
       190  25 -1.114077E+06 -1.778456E+05 -1.879321E+05  4.248164E+04  5.854533E+04  6.112421E+03
       190  26 -1.066597E+06 -1.099038E+05 -1.359378E+05  1.774005E+04  3.380831E+04  1.870937E+04
       190  27 -1.037118E+06 -1.012333E+05 -1.148660E+05  1.266248E+04  9.085099E+03  1.871029E+04
       191   1 -2.242773E+05  9.114699E+04  7.480104E+04  2.036797E+04 -1.162169E+04 -1.612948E+04
       191   2 -2.624267E+05  8.581619E+04  7.233576E+04  1.118154E+04 -8.261984E+03 -1.492618E+04
       191   3 -3.021037E+05  7.622493E+04  6.661238E+04  2.236317E+04 -4.904605E+03 -1.309115E+04
       191   4 -6.105332E+05 -3.945334E+03 -1.425463E+04  2.122047E+04 -1.098250E+04 -1.612909E+04
       191   5 -6.097238E+05  3.493866E+02 -7.540260E+03  1.103218E+04 -7.170234E+03 -1.492472E+04
       191   6 -6.105238E+05  3.034825E+02 -4.400107E+03  2.121273E+04 -3.360094E+03 -1.308846E+04
       191   7 -9.966510E+05 -9.904811E+04 -1.033202E+05  2.207238E+04 -1.034371E+04 -1.612870E+04
       191   8 -9.569092E+05 -8.512585E+04 -8.742426E+04  1.088285E+04 -6.079089E+03 -1.492326E+04
       191   9 -9.188558E+05 -7.562462E+04 -7.541890E+04  2.006282E+04 -1.816344E+03 -1.308578E+04
       191  10 -2.242775E+05  9.114668E+04  7.480030E+04  2.036781E+04 -1.425446E-09 -8.067004E-10
       191  11 -2.624268E+05  8.581593E+04  7.233521E+04  1.118144E+04  7.258656E-10  9.402934E-10
       191  12 -3.021038E+05  7.622474E+04  6.661202E+04  2.236312E+04  1.060403E-09  3.107130E-09
       191  13 -6.105334E+05 -3.945645E+03 -1.425535E+04  2.122033E+04 -4.288468E-10  5.381722E-09
       191  14 -6.097239E+05  3.491337E+02 -7.540775E+03  1.103209E+04 -2.027085E-10 -9.229532E-09
       191  15 -6.105239E+05  3.032955E+02 -4.400450E+03  2.121269E+04 -3.716952E-09  4.124546E-09
       191  16 -9.966512E+05 -9.904842E+04 -1.033209E+05  2.207225E+04  2.093415E-09 -5.793373E-09
       191  17 -9.569093E+05 -8.512610E+04 -8.742475E+04  1.088278E+04 -3.934211E-10 -3.156152E-10
       191  18 -9.188559E+05 -7.562480E+04 -7.541923E+04  2.006280E+04 -3.889196E-09 -7.422484E-10
       191  19 -2.242773E+05  9.114699E+04  7.480104E+04  2.036797E+04  1.162169E+04  1.612948E+04
       191  20 -2.624267E+05  8.581619E+04  7.233576E+04  1.118154E+04  8.261984E+03  1.492618E+04
       191  21 -3.021037E+05  7.622493E+04  6.661238E+04  2.236317E+04  4.904605E+03  1.309115E+04
       191  22 -6.105332E+05 -3.945334E+03 -1.425463E+04  2.122047E+04  1.098250E+04  1.612909E+04
       191  23 -6.097238E+05  3.493866E+02 -7.540260E+03  1.103218E+04  7.170234E+03  1.492472E+04
       191  24 -6.105238E+05  3.034825E+02 -4.400107E+03  2.121273E+04  3.360094E+03  1.308846E+04
       191  25 -9.966510E+05 -9.904811E+04 -1.033202E+05  2.207238E+04  1.034371E+04  1.612870E+04
       191  26 -9.569092E+05 -8.512585E+04 -8.742426E+04  1.088285E+04  6.079089E+03  1.492326E+04
       191  27 -9.188558E+05 -7.562462E+04 -7.541890E+04  2.006282E+04  1.816344E+03  1.308578E+04
       192   1 -3.393176E+05  6.643994E+04  5.878131E+04  2.167019E+04 -4.033023E+03 -1.189187E+04
       192   2 -3.785052E+05  5.706906E+04  5.131095E+04  1.136416E+04 -3.099392E+03 -9.987077E+03
       192   3 -4.179563E+05  4.745462E+04  4.315314E+04  2.167010E+04 -2.166589E+03 -8.045650E+03
       192   4 -6.102208E+05 -2.078043E+02 -3.409508E+03  2.126955E+04 -2.675969E+03 -1.188938E+04
       192   5 -6.100836E+05  7.763252E+01 -1.937025E+03  1.096298E+04 -1.716383E+03 -9.984306E+03
       192   6 -6.102155E+05  1.151268E+02 -1.170067E+03  2.126885E+04 -7.575658E+02 -8.042585E+03
       192   7 -8.810559E+05 -6.686067E+04 -6.560516E+04  2.086905E+04 -1.319502E+03 -1.188689E+04
       192   8 -8.416124E+05 -5.691755E+04 -5.518855E+04  1.056193E+04 -3.338854E+02 -9.981536E+03
       192   9 -8.024406E+05 -4.722695E+04 -4.549572E+04  2.086772E+04  6.510238E+02 -8.039522E+03
       192  10 -3.393177E+05  6.643978E+04  5.878101E+04  2.167015E+04 -1.237900E-09 -5.907886E-09
       192  11 -3.785052E+05  5.706895E+04  5.131075E+04  1.136413E+04 -1.397451E-09 -5.719528E-09
       192  12 -4.179563E+05  4.745455E+04  4.315301E+04  2.167008E+04 -3.683755E-09 -3.120416E-09
       192  13 -6.102208E+05 -2.079580E+02 -3.409787E+03  2.126953E+04 -3.258171E-09 -2.186134E-09
       192  14 -6.100837E+05  7.752471E+01 -1.937218E+03  1.096297E+04 -1.473697E-09 -3.362640E-09
       192  15 -6.102156E+05  1.150572E+02 -1.170189E+03  2.126885E+04 -2.875787E-10 -2.892208E-09
       192  16 -8.810560E+05 -6.686082E+04 -6.560543E+04  2.086904E+04 -1.603375E-09 -5.852024E-09
       192  17 -8.416124E+05 -5.691765E+04 -5.518873E+04  1.056192E+04 -4.254107E-10  2.129651E-09
       192  18 -8.024406E+05 -4.722702E+04 -4.549584E+04  2.086772E+04  2.308116E-09  6.270149E-09
       192  19 -3.393176E+05  6.643994E+04  5.878131E+04  2.167019E+04  4.033023E+03  1.189187E+04
       192  20 -3.785052E+05  5.706906E+04  5.131095E+04  1.136416E+04  3.099392E+03  9.987077E+03
       192  21 -4.179563E+05  4.745462E+04  4.315314E+04  2.167010E+04  2.166589E+03  8.045650E+03
       192  22 -6.102208E+05 -2.078043E+02 -3.409508E+03  2.126955E+04  2.675969E+03  1.188938E+04
       192  23 -6.100836E+05  7.763252E+01 -1.937025E+03  1.096298E+04  1.716383E+03  9.984306E+03
       192  24 -6.102155E+05  1.151268E+02 -1.170067E+03  2.126885E+04  7.575658E+02  8.042585E+03
       192  25 -8.810559E+05 -6.686067E+04 -6.560516E+04  2.086905E+04  1.319502E+03  1.188689E+04
       192  26 -8.416124E+05 -5.691755E+04 -5.518855E+04  1.056193E+04  3.338854E+02  9.981536E+03
       192  27 -8.024406E+05 -4.722695E+04 -4.549572E+04  2.086772E+04 -6.510238E+02  8.039522E+03
       193   1 -4.557524E+05  3.806426E+04  3.445550E+04  2.158289E+04 -1.972846E+03 -6.907177E+03
       193   2 -4.952512E+05  2.832978E+04  2.574658E+04  1.113828E+04 -1.651166E+03 -4.955736E+03
       193   3 -5.348884E+05  1.866299E+04  1.681919E+04  2.143619E+04 -1.329871E+03 -2.999983E+03
       193   4 -6.101837E+05  7.998444E+01 -9.396572E+02  2.129805E+04 -5.706055E+02 -6.904016E+03
       193   5 -6.101123E+05  6.052455E+01 -6.652519E+02  1.092664E+04 -2.459324E+02 -4.952455E+03
       193   6 -6.101813E+05  1.083297E+02 -6.113694E+02  2.129799E+04  7.837608E+01 -2.996576E+03
       193   7 -7.645929E+05 -3.790596E+04 -3.633637E+04  2.101327E+04  8.312887E+02 -6.900855E+03
       193   8 -7.249611E+05 -2.820965E+04 -2.707795E+04  1.071503E+04  1.159043E+03 -4.949174E+03
       193   9 -6.854689E+05 -1.844673E+04 -1.804230E+04  2.115980E+04  1.486454E+03 -2.993170E+03
       193  10 -4.557525E+05  3.806421E+04  3.445540E+04  2.158288E+04  2.702497E-10 -3.773559E-09
       193  11 -4.952512E+05  2.832975E+04  2.574653E+04  1.113827E+04 -4.743920E-09  1.509575E-09
       193  12 -5.348884E+05  1.866298E+04  1.681917E+04  2.143619E+04 -7.939918E-09  1.104655E-09
       193  13 -6.101838E+05  7.993318E+01 -9.397474E+02  2.129805E+04  1.081170E-09  1.727676E-09
       193  14 -6.101123E+05  6.049820E+01 -6.652981E+02  1.092664E+04  2.579919E-10 -1.366448E-09
       193  15 -6.101813E+05  1.083201E+02 -6.113863E+02  2.129799E+04 -4.326970E-11 -2.388505E-09
       193  16 -7.645930E+05 -3.790601E+04 -3.633647E+04  2.101327E+04 -5.384713E-10  3.549366E-09
       193  17 -7.249612E+05 -2.820968E+04 -2.707800E+04  1.071504E+04  2.453163E-09  6.085906E-09
       193  18 -6.854689E+05 -1.844674E+04 -1.804232E+04  2.115980E+04  4.744177E-09  1.024625E-09
       193  19 -4.557524E+05  3.806426E+04  3.445550E+04  2.158289E+04  1.972846E+03  6.907177E+03
       193  20 -4.952512E+05  2.832978E+04  2.574658E+04  1.113828E+04  1.651166E+03  4.955736E+03
       193  21 -5.348884E+05  1.866299E+04  1.681919E+04  2.143619E+04  1.329871E+03  2.999983E+03
       193  22 -6.101837E+05  7.998444E+01 -9.396572E+02  2.129805E+04  5.706055E+02  6.904016E+03
       193  23 -6.101123E+05  6.052455E+01 -6.652519E+02  1.092664E+04  2.459324E+02  4.952455E+03
       193  24 -6.101813E+05  1.083297E+02 -6.113694E+02  2.129799E+04 -7.837608E+01  2.996576E+03
       193  25 -7.645929E+05 -3.790596E+04 -3.633637E+04  2.101327E+04 -8.312887E+02  6.900855E+03
       193  26 -7.249611E+05 -2.820965E+04 -2.707795E+04  1.071503E+04 -1.159043E+03  4.949174E+03
       193  27 -6.854689E+05 -1.844673E+04 -1.804230E+04  2.115980E+04 -1.486454E+03  2.993170E+03
       194   1 -5.728765E+05  9.268912E+03  7.807283E+03  2.136461E+04 -1.218894E+03 -1.860098E+03
       194   2 -6.124388E+05 -5.074303E+02 -1.440417E+03  1.089105E+04 -7.759429E+02  9.875368E+01
       194   3 -6.521694E+05 -1.023106E+04 -1.099178E+04  2.120289E+04 -3.330167E+02  2.056438E+03
       194   4 -6.101868E+05  1.091495E+02 -6.559597E+02  2.130745E+04  1.901209E+02 -1.856652E+03
       194   5 -6.101018E+05  6.791526E+01 -9.029196E+02  1.091480E+04  6.321812E+02  1.021918E+02
       194   6 -6.101870E+05  7.950461E+01 -1.453002E+03  2.130753E+04  1.074245E+03  2.059874E+03
       194   7 -6.474958E+05 -9.050708E+03 -9.119285E+03  2.125030E+04  1.599052E+03 -1.853207E+03
       194   8 -6.077648E+05  6.432615E+02 -3.654155E+02  1.093855E+04  2.040311E+03  1.056300E+02
       194   9 -5.682030E+05  1.038995E+04  8.085674E+03  2.141218E+04  2.481600E+03  2.063311E+03
       194  10 -5.728765E+05  9.268908E+03  7.807274E+03  2.136461E+04 -6.439855E-09  2.289732E-09
       194  11 -6.124388E+05 -5.074305E+02 -1.440418E+03  1.089105E+04  4.882120E-10  5.561102E-10
       194  12 -6.521694E+05 -1.023106E+04 -1.099179E+04  2.120289E+04 -2.011739E-09 -2.521506E-09
       194  13 -6.101868E+05  1.091458E+02 -6.559662E+02  2.130746E+04 -1.500905E-09  5.101044E-09
       194  14 -6.101018E+05  6.791514E+01 -9.029204E+02  1.091480E+04 -2.382450E-09 -3.316420E-09
       194  15 -6.101870E+05  7.949975E+01 -1.453012E+03  2.130753E+04  1.183864E-09 -5.680866E-09
       194  16 -6.474959E+05 -9.050712E+03 -9.119296E+03  2.125030E+04  3.266783E-09 -1.262302E-09
       194  17 -6.077648E+05  6.432604E+02 -3.654233E+02  1.093854E+04  7.145848E-10 -8.875768E-09
       194  18 -5.682030E+05  1.038994E+04  8.085655E+03  2.141218E+04  7.917031E-10 -2.393374E-09
       194  19 -5.728765E+05  9.268912E+03  7.807283E+03  2.136461E+04  1.218894E+03  1.860098E+03
       194  20 -6.124388E+05 -5.074303E+02 -1.440417E+03  1.089105E+04  7.759429E+02 -9.875368E+01
       194  21 -6.521694E+05 -1.023106E+04 -1.099178E+04  2.120289E+04  3.330167E+02 -2.056438E+03
       194  22 -6.101868E+05  1.091495E+02 -6.559597E+02  2.130745E+04 -1.901209E+02  1.856652E+03
       194  23 -6.101018E+05  6.791526E+01 -9.029196E+02  1.091480E+04 -6.321812E+02 -1.021918E+02
       194  24 -6.101870E+05  7.950461E+01 -1.453002E+03  2.130753E+04 -1.074245E+03 -2.059874E+03
       194  25 -6.474958E+05 -9.050708E+03 -9.119285E+03  2.125030E+04 -1.599052E+03  1.853207E+03
       194  26 -6.077648E+05  6.432615E+02 -3.654155E+02  1.093855E+04 -2.040311E+03 -1.056300E+02
       194  27 -5.682030E+05  1.038995E+04  8.085674E+03  2.141218E+04 -2.481600E+03 -2.063311E+03
       195   1 -6.902060E+05 -1.956796E+04 -2.037524E+04  2.103208E+04 -4.366563E+01  3.199272E+03
       195   2 -7.295419E+05 -2.930301E+04 -3.067510E+04  1.067747E+04  1.557233E+03  5.154536E+03
       195   3 -7.693187E+05 -3.951341E+04 -4.216301E+04  2.106062E+04  3.158482E+03  7.082446E+03
       195   4 -6.102477E+05  1.374069E+02 -1.870547E+03  2.129648E+04  1.370100E+03  3.202684E+03
       195   5 -6.100302E+05  1.153887E+02 -3.188897E+03  1.092833E+04  2.951570E+03  5.157779E+03
       195   6 -6.102509E+05 -3.782575E+02 -5.681337E+03  2.129770E+04  4.533490E+03  7.085527E+03
       195   7 -5.302835E+05  1.984232E+04  1.663372E+04  2.156090E+04  2.784047E+03  3.206098E+03
       195   8 -4.905053E+05  2.953279E+04  2.429637E+04  1.117923E+04  4.346173E+03  5.161023E+03
       195   9 -4.511597E+05  3.875513E+04  3.079867E+04  2.153483E+04  5.908849E+03  7.088608E+03
       195  10 -6.902060E+05 -1.956797E+04 -2.037526E+04  2.103208E+04 -1.318764E-08  9.902153E-10
       195  11 -7.295419E+05 -2.930304E+04 -3.067516E+04  1.067746E+04 -7.176083E-09 -2.376381E-09
       195  12 -7.693187E+05 -3.951347E+04 -4.216312E+04  2.106060E+04  2.010796E-09 -1.682918E-09
       195  13 -6.102477E+05  1.373954E+02 -1.870570E+03  2.129647E+04 -1.058379E-09 -2.804394E-09
       195  14 -6.100302E+05  1.153578E+02 -3.188963E+03  1.092832E+04 -1.924430E-10 -2.441332E-09
       195  15 -6.102510E+05 -3.783169E+02 -5.681470E+03  2.129768E+04 -3.558565E-11 -5.832403E-09
       195  16 -5.302835E+05  1.984231E+04  1.663369E+04  2.156090E+04  1.212067E-08  7.218581E-09
       195  17 -4.905053E+05  2.953275E+04  2.429629E+04  1.117921E+04  7.355632E-09 -1.891842E-09
       195  18 -4.511597E+05  3.875507E+04  3.079851E+04  2.153479E+04 -1.877656E-09  3.742314E-09
       195  19 -6.902060E+05 -1.956796E+04 -2.037524E+04  2.103208E+04  4.366563E+01 -3.199272E+03
       195  20 -7.295419E+05 -2.930301E+04 -3.067510E+04  1.067747E+04 -1.557233E+03 -5.154536E+03
       195  21 -7.693187E+05 -3.951341E+04 -4.216301E+04  2.106062E+04 -3.158482E+03 -7.082446E+03
       195  22 -6.102477E+05  1.374069E+02 -1.870547E+03  2.129648E+04 -1.370100E+03 -3.202684E+03
       195  23 -6.100302E+05  1.153887E+02 -3.188897E+03  1.092833E+04 -2.951570E+03 -5.157779E+03
       195  24 -6.102509E+05 -3.782575E+02 -5.681337E+03  2.129770E+04 -4.533490E+03 -7.085527E+03
       195  25 -5.302835E+05  1.984232E+04  1.663372E+04  2.156090E+04 -2.784047E+03 -3.206098E+03
       195  26 -4.905053E+05  2.953279E+04  2.429637E+04  1.117923E+04 -4.346173E+03 -5.161023E+03
       195  27 -4.511597E+05  3.875513E+04  3.079867E+04  2.153483E+04 -5.908849E+03 -7.088608E+03
       196   1 -8.076410E+05 -4.801304E+04 -5.273551E+04  1.978463E+04  4.152575E+03  8.276567E+03
       196   2 -8.455483E+05 -5.753971E+04 -6.694474E+04  1.114990E+04  1.088358E+04  1.015934E+04
       196   3 -8.862592E+05 -7.445154E+04 -8.740529E+04  2.311092E+04  1.761584E+04  1.154361E+04
       196   4 -6.107658E+05  4.775876E+02 -7.350799E+03  2.126092E+04  5.676422E+03  8.279881E+03
       196   5 -6.093993E+05  5.938786E+02 -1.260995E+04  1.097083E+04  1.205103E+04  1.016161E+04
       196   6 -6.107745E+05 -6.611218E+03 -2.387079E+04  2.127612E+04  1.842732E+04  1.154489E+04
       196   7 -4.138547E+05  4.896551E+04  3.803134E+04  2.273766E+04  7.200748E+03  8.283202E+03
       196   8 -3.731986E+05  5.872357E+04  4.172115E+04  1.079167E+04  1.321893E+04  1.016388E+04
       196   9 -3.352195E+05  6.122380E+04  3.965865E+04  1.944046E+04  1.923916E+04  1.154616E+04
       196  10 -8.076411E+05 -4.801312E+04 -5.273567E+04  1.978460E+04  8.398835E-09 -1.218433E-09
       196  11 -8.455484E+05 -5.753986E+04 -6.694516E+04  1.114981E+04  5.008990E-09  6.144160E-09
       196  12 -8.862595E+05 -7.445177E+04 -8.740612E+04  2.311075E+04  2.023839E-09 -4.227877E-09
       196  13 -6.107659E+05  4.775054E+02 -7.350988E+03  2.126088E+04 -2.771960E-09 -1.126397E-08
       196  14 -6.093995E+05  5.937287E+02 -1.261042E+04  1.097073E+04 -4.519562E-09  5.479505E-09
       196  15 -6.107749E+05 -6.611452E+03 -2.387168E+04  2.127595E+04  1.359508E-09 -1.788541E-09
       196  16 -4.138548E+05  4.896542E+04  3.803112E+04  2.273761E+04 -1.165401E-08 -4.636881E-09
       196  17 -3.731988E+05  5.872341E+04  4.172063E+04  1.079156E+04 -7.293217E-09 -4.434001E-09
       196  18 -3.352200E+05  6.122356E+04  3.965771E+04  1.944028E+04 -4.994001E-09  1.915179E-09
       196  19 -8.076410E+05 -4.801304E+04 -5.273551E+04  1.978463E+04 -4.152575E+03 -8.276567E+03
       196  20 -8.455483E+05 -5.753971E+04 -6.694474E+04  1.114990E+04 -1.088358E+04 -1.015934E+04
       196  21 -8.862592E+05 -7.445154E+04 -8.740529E+04  2.311092E+04 -1.761584E+04 -1.154361E+04
       196  22 -6.107658E+05  4.775876E+02 -7.350799E+03  2.126092E+04 -5.676422E+03 -8.279881E+03
       196  23 -6.093993E+05  5.938786E+02 -1.260995E+04  1.097083E+04 -1.205103E+04 -1.016161E+04
       196  24 -6.107745E+05 -6.611218E+03 -2.387079E+04  2.127612E+04 -1.842732E+04 -1.154489E+04
       196  25 -4.138547E+05  4.896551E+04  3.803134E+04  2.273766E+04 -7.200748E+03 -8.283202E+03
       196  26 -3.731986E+05  5.872357E+04  4.172115E+04  1.079167E+04 -1.321893E+04 -1.016388E+04
       196  27 -3.352195E+05  6.122380E+04  3.965865E+04  1.944046E+04 -1.923916E+04 -1.154616E+04
       197   1 -9.293612E+05 -7.213097E+04 -1.015271E+05  7.479541E+03  1.893096E+04  1.383412E+04
       197   2 -9.539977E+05 -8.037297E+04 -1.304104E+05  2.236172E+04  5.232593E+04  1.429228E+04
       197   3 -1.007513E+06 -1.865773E+05 -2.055540E+05  5.737099E+04  8.573521E+04  4.798482E+03
       197   4 -6.163035E+05  4.975647E+03 -2.964628E+04  2.111364E+04  2.279952E+04  1.384183E+04
       197   5 -6.025091E+05  6.192546E+03 -4.912294E+04  1.113389E+04  4.904914E+04  1.428464E+04
       197   6 -6.163380E+05 -8.928343E+04 -1.098770E+05  2.128314E+04  7.531568E+04  4.775307E+03
       197   7 -3.031544E+05  8.207611E+04  4.222819E+04  3.475464E+04  2.667003E+04  1.384972E+04
       197   8 -2.509059E+05  9.274987E+04  3.215638E+04 -1.004030E+02  4.577050E+04  1.427711E+04
       197   9 -2.250202E+05  8.004168E+03 -1.421001E+04 -1.482760E+04  6.488958E+04  4.753353E+03
       197  10 -9.293616E+05 -7.213127E+04 -1.015281E+05  7.479330E+03 -1.635497E-09 -3.767244E-09
       197  11 -9.540007E+05 -8.037392E+04 -1.304159E+05  2.236112E+04  4.207323E-09  1.159494E-09
       197  12 -1.007521E+06 -1.865793E+05 -2.055679E+05  5.737066E+04  4.870044E-09  4.680847E-09
       197  13 -6.163041E+05  4.975301E+03 -2.964762E+04  2.111339E+04  4.080806E-12  1.118503E-09
       197  14 -6.025118E+05  6.191681E+03 -4.912785E+04  1.113333E+04 -2.609826E-09  4.946338E-09
       197  15 -6.163441E+05 -8.928498E+04 -1.098877E+05  2.128285E+04 -1.085745E-09  5.059851E-09
       197  16 -3.031552E+05  8.207571E+04  4.222649E+04  3.475434E+04  1.736799E-09  5.078222E-09
       197  17 -2.509082E+05  9.274909E+04  3.215206E+04 -1.009293E+02 -4.014533E-09  9.977445E-09
       197  18 -2.250247E+05  8.003013E+03 -1.421796E+04 -1.482785E+04 -5.299408E-09  4.512827E-10
       197  19 -9.293612E+05 -7.213097E+04 -1.015271E+05  7.479541E+03 -1.893096E+04 -1.383412E+04
       197  20 -9.539977E+05 -8.037297E+04 -1.304104E+05  2.236172E+04 -5.232593E+04 -1.429228E+04
       197  21 -1.007513E+06 -1.865773E+05 -2.055540E+05  5.737099E+04 -8.573521E+04 -4.798482E+03
       197  22 -6.163035E+05  4.975647E+03 -2.964628E+04  2.111364E+04 -2.279952E+04 -1.384183E+04
       197  23 -6.025091E+05  6.192546E+03 -4.912294E+04  1.113389E+04 -4.904914E+04 -1.428464E+04
       197  24 -6.163380E+05 -8.928343E+04 -1.098770E+05  2.128314E+04 -7.531568E+04 -4.775307E+03
       197  25 -3.031544E+05  8.207611E+04  4.222819E+04  3.475464E+04 -2.667003E+04 -1.384972E+04
       197  26 -2.509059E+05  9.274987E+04  3.215638E+04 -1.004030E+02 -4.577050E+04 -1.427711E+04
       197  27 -2.250202E+05  8.004168E+03 -1.421001E+04 -1.482760E+04 -6.488958E+04 -4.753353E+03
