
 stresses (elem, integ.pnt.,sxx,syy,szz,sxy,sxz,syz) for set ELALL and time  0.1000000E+01

         1   1 -3.664591E+06 -3.581401E+05 -4.548282E+05 -1.034705E+05 -3.102166E+05  5.199318E+01
         1   2 -3.600403E+06  5.690076E+04 -1.980650E+05 -2.931332E+04 -2.031298E+05  9.644509E+00
         1   3 -3.663944E+06  1.770296E+04 -1.248429E+05  4.485254E+04 -9.604445E+04 -6.978221E+00
         1   4 -3.664603E+06 -3.581603E+05 -4.548311E+05 -2.458389E-08 -3.102166E+05 -1.490811E-10
         1   5 -3.600404E+06  5.689913E+04 -1.980652E+05 -4.765428E-09 -2.031298E+05  8.100070E-11
         1   6 -3.663946E+06  1.769916E+04 -1.248435E+05 -1.936091E-08 -9.604445E+04  9.446579E-10
         1   7 -3.664591E+06 -3.581401E+05 -4.548282E+05  1.034705E+05 -3.102166E+05 -5.199318E+01
         1   8 -3.600403E+06  5.690076E+04 -1.980650E+05  2.931332E+04 -2.031298E+05 -9.644509E+00
         1   9 -3.663944E+06  1.770296E+04 -1.248429E+05 -4.485254E+04 -9.604445E+04  6.978221E+00
         1  10 -3.664695E+06 -3.581661E+05 -4.550101E+05 -1.034705E+05  7.220411E-10 -1.493093E-12
         1  11 -3.600447E+06  5.688960E+04 -1.981430E+05 -2.931332E+04 -1.964831E-09 -4.069095E-10
         1  12 -3.663954E+06  1.770047E+04 -1.248604E+05  4.485254E+04 -2.162888E-09  1.743682E-09
         1  13 -3.664707E+06 -3.581863E+05 -4.550130E+05 -3.329304E-08  1.677734E-11 -5.003222E-10
         1  14 -3.600448E+06  5.688798E+04 -1.981432E+05 -1.762371E-08  8.581522E-09 -7.955725E-10
         1  15 -3.663956E+06  1.769666E+04 -1.248609E+05 -2.347178E-08  1.715332E-09  1.242306E-09
         1  16 -3.664695E+06 -3.581661E+05 -4.550101E+05  1.034705E+05  1.498183E-09 -8.637798E-10
         1  17 -3.600447E+06  5.688960E+04 -1.981430E+05  2.931332E+04  9.240358E-10 -1.254267E-09
         1  18 -3.663954E+06  1.770047E+04 -1.248604E+05 -4.485254E+04  3.204186E-09  9.444205E-10
         1  19 -3.664591E+06 -3.581401E+05 -4.548282E+05 -1.034705E+05  3.102166E+05 -5.199318E+01
         1  20 -3.600403E+06  5.690076E+04 -1.980650E+05 -2.931332E+04  2.031298E+05 -9.644509E+00
         1  21 -3.663944E+06  1.770296E+04 -1.248429E+05  4.485254E+04  9.604445E+04  6.978221E+00
         1  22 -3.664603E+06 -3.581603E+05 -4.548311E+05 -2.480648E-08  3.102166E+05 -9.482373E-10
         1  23 -3.600404E+06  5.689913E+04 -1.980652E+05 -1.327252E-08  2.031298E+05 -1.735834E-09
         1  24 -3.663946E+06  1.769916E+04 -1.248435E+05 -1.896222E-08  9.604445E+04  1.490481E-09
         1  25 -3.664591E+06 -3.581401E+05 -4.548282E+05  1.034705E+05  3.102166E+05  5.199318E+01
         1  26 -3.600403E+06  5.690076E+04 -1.980650E+05  2.931332E+04  2.031298E+05  9.644509E+00
         1  27 -3.663944E+06  1.770296E+04 -1.248429E+05 -4.485254E+04  9.604445E+04 -6.978221E+00
         2   1 -3.639343E+06 -4.028292E+04 -1.021184E+05 -1.061574E+04 -7.651438E+04  1.315713E+00
         2   2 -3.631125E+06  6.547251E+03 -5.138780E+04 -2.646719E+03 -5.010930E+04  2.148282E-01
         2   3 -3.639235E+06  1.965317E+03 -3.077331E+04  5.322269E+03 -2.370368E+04 -2.043542E-01
         2   4 -3.639343E+06 -4.028314E+04 -1.021185E+05  1.099812E-08 -7.651438E+04  1.266053E-09
         2   5 -3.631125E+06  6.547238E+03 -5.138780E+04  3.227930E-09 -5.010930E+04  6.799731E-10
         2   6 -3.639235E+06  1.965264E+03 -3.077332E+04  2.450598E-08 -2.370368E+04 -9.883864E-10
         2   7 -3.639343E+06 -4.028292E+04 -1.021184E+05  1.061574E+04 -7.651438E+04 -1.315713E+00
         2   8 -3.631125E+06  6.547251E+03 -5.138780E+04  2.646719E+03 -5.010930E+04 -2.148282E-01
         2   9 -3.639235E+06  1.965317E+03 -3.077331E+04 -5.322269E+03 -2.370368E+04  2.043542E-01
         2  10 -3.639350E+06 -4.028451E+04 -1.021295E+05 -1.061574E+04  1.880639E-09  1.239623E-09
         2  11 -3.631128E+06  6.546572E+03 -5.139255E+04 -2.646719E+03  1.714653E-09 -6.454278E-10
         2  12 -3.639236E+06  1.965165E+03 -3.077437E+04  5.322269E+03  1.018337E-09  2.032530E-10
         2  13 -3.639350E+06 -4.028472E+04 -1.021295E+05 -1.824690E-08 -2.001653E-09  1.315937E-09
         2  14 -3.631128E+06  6.546559E+03 -5.139255E+04  9.203323E-09  8.807495E-09 -6.217248E-10
         2  15 -3.639236E+06  1.965112E+03 -3.077438E+04  1.088945E-08  2.208191E-09 -8.295648E-11
         2  16 -3.639350E+06 -4.028451E+04 -1.021295E+05  1.061574E+04  2.420647E-09  1.212787E-09
         2  17 -3.631128E+06  6.546572E+03 -5.139255E+04  2.646719E+03 -2.496874E-09 -2.143654E-10
         2  18 -3.639236E+06  1.965165E+03 -3.077437E+04 -5.322269E+03  1.554836E-09 -2.875676E-10
         2  19 -3.639343E+06 -4.028292E+04 -1.021184E+05 -1.061574E+04  7.651438E+04 -1.315713E+00
         2  20 -3.631125E+06  6.547251E+03 -5.138780E+04 -2.646719E+03  5.010930E+04 -2.148282E-01
         2  21 -3.639235E+06  1.965317E+03 -3.077331E+04  5.322269E+03  2.370368E+04  2.043542E-01
         2  22 -3.639343E+06 -4.028314E+04 -1.021185E+05 -1.313358E-08  7.651438E+04  1.295033E-09
         2  23 -3.631125E+06  6.547238E+03 -5.138780E+04  1.087691E-08  5.010930E+04 -1.907610E-09
         2  24 -3.639235E+06  1.965264E+03 -3.077332E+04  5.532400E-08  2.370368E+04  7.747302E-10
         2  25 -3.639343E+06 -4.028292E+04 -1.021184E+05  1.061574E+04  7.651438E+04  1.315713E+00
         2  26 -3.631125E+06  6.547251E+03 -5.138780E+04  2.646719E+03  5.010930E+04  2.148282E-01
         2  27 -3.639235E+06  1.965317E+03 -3.077331E+04 -5.322269E+03  2.370368E+04 -2.043542E-01
         3   1 -3.636136E+06 -4.468842E+03 -2.419138E+04 -9.236963E+02 -1.884619E+04  2.819822E-02
         3   2 -3.634968E+06  7.646889E+02 -1.315816E+04 -1.341785E+02 -1.223713E+04  2.659692E-03
         3   3 -3.636116E+06  2.084112E+02 -7.893816E+03  6.553242E+02 -5.628123E+03 -5.974332E-03
         3   4 -3.636136E+06 -4.468844E+03 -2.419138E+04  2.874384E-08 -1.884619E+04 -5.919589E-10
         3   5 -3.634968E+06  7.646888E+02 -1.315816E+04 -1.430247E-09 -1.223713E+04  7.217187E-10
         3   6 -3.636116E+06  2.084104E+02 -7.893816E+03 -1.229113E-08 -5.628123E+03 -7.083638E-10
         3   7 -3.636136E+06 -4.468842E+03 -2.419138E+04  9.236963E+02 -1.884619E+04 -2.819822E-02
         3   8 -3.634968E+06  7.646889E+02 -1.315816E+04  1.341785E+02 -1.223713E+04 -2.659690E-03
         3   9 -3.636116E+06  2.084112E+02 -7.893816E+03 -6.553242E+02 -5.628123E+03  5.974330E-03
         3  10 -3.636136E+06 -4.468938E+03 -2.419205E+04 -9.236963E+02 -2.515787E-09  7.957446E-10
         3  11 -3.634968E+06  7.646484E+02 -1.315844E+04 -1.341785E+02 -4.198544E-09 -5.144197E-12
         3  12 -3.636116E+06  2.084026E+02 -7.893876E+03  6.553242E+02 -1.861437E-09 -1.167979E-09
         3  13 -3.636136E+06 -4.468940E+03 -2.419205E+04 -3.783467E-09  2.266425E-09  5.183076E-10
         3  14 -3.634968E+06  7.646483E+02 -1.315844E+04  5.428024E-09  8.139267E-27  2.135433E-10
         3  15 -3.636116E+06  2.084018E+02 -7.893876E+03  3.398399E-08 -4.366301E-10 -8.898568E-10
         3  16 -3.636136E+06 -4.468938E+03 -2.419205E+04  9.236963E+02  2.646466E-09  2.509274E-10
         3  17 -3.634968E+06  7.646484E+02 -1.315844E+04  1.341785E+02  3.591761E-09  4.132660E-10
         3  18 -3.636116E+06  2.084026E+02 -7.893876E+03 -6.553242E+02 -8.255416E-12 -2.417581E-10
         3  19 -3.636136E+06 -4.468842E+03 -2.419138E+04 -9.236963E+02  1.884619E+04 -2.819822E-02
         3  20 -3.634968E+06  7.646889E+02 -1.315816E+04 -1.341785E+02  1.223713E+04 -2.659691E-03
         3  21 -3.636116E+06  2.084112E+02 -7.893816E+03  6.553242E+02  5.628123E+03  5.974329E-03
         3  22 -3.636136E+06 -4.468844E+03 -2.419138E+04  1.533157E-08  1.884619E+04  1.720934E-09
         3  23 -3.634968E+06  7.646888E+02 -1.315816E+04  4.669912E-08  1.223713E+04 -1.700081E-10
         3  24 -3.636116E+06  2.084104E+02 -7.893816E+03  1.138751E-08  5.628123E+03 -1.175708E-09
         3  25 -3.636136E+06 -4.468842E+03 -2.419138E+04  9.236963E+02  1.884619E+04  2.819822E-02
         3  26 -3.634968E+06  7.646889E+02 -1.315816E+04  1.341785E+02  1.223713E+04  2.659690E-03
         3  27 -3.636116E+06  2.084112E+02 -7.893816E+03 -6.553242E+02  5.628123E+03 -5.974331E-03
         4   1 -3.635699E+06 -4.787627E+02 -6.245999E+03 -4.603758E+01 -4.362464E+03  3.253221E-04
         4   2 -3.635480E+06  1.017483E+02 -3.966697E+03  1.525611E+01 -2.391541E+03 -5.909895E-05
         4   3 -3.635695E+06 -2.145677E+01 -3.152142E+03  7.655065E+01 -4.205837E+02 -5.214959E-05
         4   4 -3.635699E+06 -4.787627E+02 -6.245999E+03 -1.556024E-09 -4.362464E+03 -6.723707E-10
         4   5 -3.635480E+06  1.017483E+02 -3.966697E+03 -9.557338E-09 -2.391541E+03  1.519014E-09
         4   6 -3.635695E+06 -2.145678E+01 -3.152142E+03  1.783799E-09 -4.205837E+02  2.811468E-09
         4   7 -3.635699E+06 -4.787627E+02 -6.245999E+03  4.603758E+01 -4.362464E+03 -3.253233E-04
         4   8 -3.635480E+06  1.017483E+02 -3.966697E+03 -1.525611E+01 -2.391541E+03  5.910091E-05
         4   9 -3.635695E+06 -2.145677E+01 -3.152142E+03 -7.655065E+01 -4.205837E+02  5.215549E-05
         4  10 -3.635699E+06 -4.787678E+02 -6.246035E+03 -4.603758E+01 -3.711021E-09 -1.530600E-09
         4  11 -3.635480E+06  1.017468E+02 -3.966708E+03  1.525611E+01  8.624327E-10  1.363843E-09
         4  12 -3.635695E+06 -2.145681E+01 -3.152143E+03  7.655065E+01  1.895675E-09  9.413912E-10
         4  13 -3.635699E+06 -4.787678E+02 -6.246035E+03  7.172985E-09 -4.331666E-09 -7.414803E-10
         4  14 -3.635480E+06  1.017468E+02 -3.966708E+03 -1.811227E-08 -1.986444E-09  1.093568E-09
         4  15 -3.635695E+06 -2.145683E+01 -3.152143E+03 -1.973460E-08  1.697299E-09  1.437412E-09
         4  16 -3.635699E+06 -4.787678E+02 -6.246035E+03  4.603758E+01 -1.763148E-09 -3.616054E-10
         4  17 -3.635480E+06  1.017468E+02 -3.966708E+03 -1.525611E+01 -2.903143E-09  2.802776E-10
         4  18 -3.635695E+06 -2.145681E+01 -3.152143E+03 -7.655065E+01 -2.548374E-10  2.125003E-09
         4  19 -3.635699E+06 -4.787627E+02 -6.245999E+03 -4.603758E+01  4.362464E+03 -3.253233E-04
         4  20 -3.635480E+06  1.017483E+02 -3.966697E+03  1.525611E+01  2.391541E+03  5.910237E-05
         4  21 -3.635695E+06 -2.145677E+01 -3.152142E+03  7.655065E+01  4.205837E+02  5.215216E-05
         4  22 -3.635699E+06 -4.787627E+02 -6.245999E+03 -9.918012E-09  4.362464E+03 -6.388786E-10
         4  23 -3.635480E+06  1.017483E+02 -3.966697E+03 -4.386934E-08  2.391541E+03  1.295425E-10
         4  24 -3.635695E+06 -2.145678E+01 -3.152142E+03 -6.823560E-09  4.205837E+02  5.100361E-11
         4  25 -3.635699E+06 -4.787627E+02 -6.245999E+03  4.603758E+01  4.362464E+03  3.253208E-04
         4  26 -3.635480E+06  1.017483E+02 -3.966697E+03 -1.525611E+01  2.391541E+03 -5.910206E-05
         4  27 -3.635695E+06 -2.145677E+01 -3.152142E+03 -7.655065E+01  4.205837E+02 -5.215269E-05
         5   1 -3.635688E+06 -2.877028E+01 -3.104792E+03 -6.566272E+01  1.423993E+02 -1.514430E-05
         5   2 -3.635489E+06  9.325978E+01 -3.707687E+03 -1.090252E+01  1.984346E+03 -3.504471E-05
         5   3 -3.635691E+06 -4.275532E+02 -5.675755E+03  4.385773E+01  3.826289E+03  2.718275E-04
         5   4 -3.635688E+06 -2.877029E+01 -3.104792E+03  1.254186E-08  1.423993E+02  1.424785E-09
         5   5 -3.635489E+06  9.325978E+01 -3.707687E+03  1.377712E-08  1.984346E+03 -1.807778E-09
         5   6 -3.635691E+06 -4.275532E+02 -5.675755E+03  2.524753E-08  3.826289E+03 -1.087294E-09
         5   7 -3.635688E+06 -2.877028E+01 -3.104792E+03  6.566272E+01  1.423993E+02  1.514753E-05
         5   8 -3.635489E+06  9.325978E+01 -3.707687E+03  1.090252E+01  1.984346E+03  3.504064E-05
         5   9 -3.635691E+06 -4.275532E+02 -5.675755E+03 -4.385773E+01  3.826289E+03 -2.718289E-04
         5  10 -3.635688E+06 -2.877029E+01 -3.104792E+03 -6.566272E+01  1.000308E-09  4.432473E-11
         5  11 -3.635489E+06  9.325871E+01 -3.707694E+03 -1.090252E+01 -3.259709E-10 -2.395277E-10
         5  12 -3.635691E+06 -4.275571E+02 -5.675783E+03  4.385773E+01  1.581476E-09  4.881496E-11
         5  13 -3.635688E+06 -2.877030E+01 -3.104792E+03 -4.756751E-09  1.608982E-10  5.965052E-10
         5  14 -3.635489E+06  9.325871E+01 -3.707694E+03  9.458761E-09 -3.061833E-09 -1.063154E-09
         5  15 -3.635691E+06 -4.275571E+02 -5.675783E+03  8.631320E-09  1.685932E-09 -2.755998E-10
         5  16 -3.635688E+06 -2.877029E+01 -3.104792E+03  6.566272E+01 -7.293446E-10  8.803566E-10
         5  17 -3.635489E+06  9.325871E+01 -3.707694E+03  1.090252E+01  4.006128E-10 -1.352055E-09
         5  18 -3.635691E+06 -4.275571E+02 -5.675783E+03 -4.385773E+01 -3.883555E-09 -2.634860E-10
         5  19 -3.635688E+06 -2.877028E+01 -3.104792E+03 -6.566272E+01 -1.423993E+02  1.514493E-05
         5  20 -3.635489E+06  9.325978E+01 -3.707687E+03 -1.090252E+01 -1.984346E+03  3.504471E-05
         5  21 -3.635691E+06 -4.275532E+02 -5.675755E+03  4.385773E+01 -3.826289E+03 -2.718270E-04
         5  22 -3.635688E+06 -2.877029E+01 -3.104792E+03  3.814372E-08 -1.423993E+02 -1.889301E-10
         5  23 -3.635489E+06  9.325978E+01 -3.707687E+03  2.663993E-08 -1.984346E+03  6.950853E-11
         5  24 -3.635691E+06 -4.275532E+02 -5.675755E+03 -9.030928E-09 -3.826289E+03  6.127793E-10
         5  25 -3.635688E+06 -2.877028E+01 -3.104792E+03  6.566272E+01 -1.423993E+02 -1.514608E-05
         5  26 -3.635489E+06  9.325978E+01 -3.707687E+03  1.090252E+01 -1.984346E+03 -3.504515E-05
         5  27 -3.635691E+06 -4.275532E+02 -5.675755E+03 -4.385773E+01 -3.826289E+03  2.718281E-04
         6   1 -3.636061E+06  1.855192E+02 -7.125959E+03 -5.845118E+02  4.972206E+03 -4.707733E-03
         6   2 -3.635034E+06  6.837733E+02 -1.180035E+04  1.207521E+02  1.089899E+04  2.131814E-03
         6   3 -3.636079E+06 -3.993996E+03 -2.164417E+04  8.260082E+02  1.682564E+04  2.251256E-02
         6   4 -3.636061E+06  1.855186E+02 -7.125959E+03  4.033958E-08  4.972206E+03 -6.693019E-10
         6   5 -3.635034E+06  6.837733E+02 -1.180035E+04  3.955447E-09  1.089899E+04 -9.093168E-10
         6   6 -3.636079E+06 -3.993997E+03 -2.164417E+04 -1.842760E-08  1.682564E+04 -2.323661E-10
         6   7 -3.636061E+06  1.855192E+02 -7.125959E+03  5.845118E+02  4.972206E+03  4.707732E-03
         6   8 -3.635034E+06  6.837733E+02 -1.180035E+04 -1.207521E+02  1.089899E+04 -2.131816E-03
         6   9 -3.636079E+06 -3.993996E+03 -2.164417E+04 -8.260082E+02  1.682564E+04 -2.251256E-02
         6  10 -3.636061E+06  1.855125E+02 -7.126006E+03 -5.845118E+02  2.465337E-09  1.376229E-10
         6  11 -3.635034E+06  6.837412E+02 -1.180058E+04  1.207521E+02  3.992398E-10 -2.339753E-10
         6  12 -3.636080E+06 -3.994072E+03 -2.164471E+04  8.260082E+02  4.070617E-10  1.252104E-09
         6  13 -3.636061E+06  1.855119E+02 -7.126006E+03 -2.697285E-09 -4.596501E-09  5.730788E-11
         6  14 -3.635034E+06  6.837412E+02 -1.180058E+04 -4.639359E-09 -4.630039E-09 -5.073923E-11
         6  15 -3.636080E+06 -3.994073E+03 -2.164471E+04 -3.454601E-08  1.433806E-09  3.525752E-10
         6  16 -3.636061E+06  1.855125E+02 -7.126006E+03  5.845118E+02 -6.578009E-09  5.141466E-10
         6  17 -3.635034E+06  6.837412E+02 -1.180058E+04 -1.207521E+02 -1.564933E-10 -1.371070E-10
         6  18 -3.636080E+06 -3.994072E+03 -2.164471E+04 -8.260082E+02  1.392477E-09 -4.365123E-11
         6  19 -3.636061E+06  1.855192E+02 -7.125959E+03 -5.845118E+02 -4.972206E+03  4.707734E-03
         6  20 -3.635034E+06  6.837733E+02 -1.180035E+04  1.207521E+02 -1.089899E+04 -2.131814E-03
         6  21 -3.636079E+06 -3.993996E+03 -2.164417E+04  8.260082E+02 -1.682564E+04 -2.251256E-02
         6  22 -3.636061E+06  1.855186E+02 -7.125959E+03 -2.422202E-08 -4.972206E+03  7.294030E-10
         6  23 -3.635034E+06  6.837733E+02 -1.180035E+04 -3.043009E-08 -1.089899E+04  4.241845E-10
         6  24 -3.636079E+06 -3.993997E+03 -2.164417E+04 -1.154092E-09 -1.682564E+04  9.382825E-10
         6  25 -3.636061E+06  1.855192E+02 -7.125959E+03  5.845118E+02 -4.972206E+03 -4.707732E-03
         6  26 -3.635034E+06  6.837733E+02 -1.180035E+04 -1.207521E+02 -1.089899E+04  2.131815E-03
         6  27 -3.636079E+06 -3.993996E+03 -2.164417E+04 -8.260082E+02 -1.682564E+04  2.251256E-02
         7   1 -3.638849E+06  1.756533E+03 -2.752129E+04 -4.756404E+03  2.117100E+04 -1.631139E-01
         7   2 -3.631600E+06  5.851552E+03 -4.593833E+04  2.365768E+03  4.477552E+04  1.715846E-01
         7   3 -3.638946E+06 -3.600310E+04 -9.127479E+04  9.488073E+03  6.837996E+04  1.050932E+00
         7   4 -3.638849E+06  1.756491E+03 -2.752129E+04  4.970473E-09  2.117100E+04  9.226774E-10
         7   5 -3.631600E+06  5.851542E+03 -4.593833E+04 -2.680545E-09  4.477552E+04  1.564046E-09
         7   6 -3.638946E+06 -3.600327E+04 -9.127482E+04  2.998384E-08  6.837996E+04 -9.102732E-10
         7   7 -3.638849E+06  1.756533E+03 -2.752129E+04  4.756404E+03  2.117100E+04  1.631139E-01
         7   8 -3.631600E+06  5.851552E+03 -4.593833E+04 -2.365768E+03  4.477552E+04 -1.715846E-01
         7   9 -3.638946E+06 -3.600310E+04 -9.127479E+04 -9.488073E+03  6.837996E+04 -1.050932E+00
         7  10 -3.638849E+06  1.756412E+03 -2.752213E+04 -4.756404E+03  7.294265E-10  9.909970E-10
         7  11 -3.631602E+06  5.851010E+03 -4.594212E+04  2.365768E+03 -1.625174E-09 -2.913857E-10
         7  12 -3.638951E+06 -3.600436E+04 -9.128363E+04  9.488073E+03  1.808146E-09 -1.091700E-09
         7  13 -3.638849E+06  1.756369E+03 -2.752214E+04  6.709292E-10  2.269890E-10  5.173190E-10
         7  14 -3.631602E+06  5.851000E+03 -4.594212E+04 -1.563389E-08 -1.239182E-09  1.223140E-10
         7  15 -3.638951E+06 -3.600453E+04 -9.128366E+04 -3.406330E-08 -3.693095E-09 -7.226950E-10
         7  16 -3.638849E+06  1.756412E+03 -2.752213E+04  4.756404E+03 -1.917439E-10  5.810178E-10
         7  17 -3.631602E+06  5.851010E+03 -4.594212E+04 -2.365768E+03  2.303581E-09  6.929735E-10
         7  18 -3.638951E+06 -3.600436E+04 -9.128363E+04 -9.488073E+03 -7.573509E-10 -3.291189E-10
         7  19 -3.638849E+06  1.756533E+03 -2.752129E+04 -4.756404E+03 -2.117100E+04  1.631139E-01
         7  20 -3.631600E+06  5.851552E+03 -4.593833E+04  2.365768E+03 -4.477552E+04 -1.715846E-01
         7  21 -3.638946E+06 -3.600310E+04 -9.127479E+04  9.488073E+03 -6.837996E+04 -1.050932E+00
         7  22 -3.638849E+06  1.756491E+03 -2.752129E+04  2.215808E-08 -2.117100E+04  2.325635E-10
         7  23 -3.631600E+06  5.851542E+03 -4.593833E+04  5.834738E-09 -4.477552E+04 -1.633692E-09
         7  24 -3.638946E+06 -3.600327E+04 -9.127482E+04  4.025383E-09 -6.837996E+04 -5.313091E-10
         7  25 -3.638849E+06  1.756533E+03 -2.752129E+04  4.756404E+03 -2.117100E+04 -1.631139E-01
         7  26 -3.631600E+06  5.851552E+03 -4.593833E+04 -2.365768E+03 -4.477552E+04  1.715846E-01
         7  27 -3.638946E+06 -3.600310E+04 -9.127479E+04 -9.488073E+03 -6.837996E+04  1.050932E+00
         8   1 -3.660932E+06  1.582115E+04 -1.115845E+05 -4.008628E+04  8.583681E+04 -5.573821E+00
         8   2 -3.604144E+06  5.085427E+04 -1.770319E+05  2.619816E+04  1.815438E+05  7.703654E+00
         8   3 -3.661515E+06 -3.200902E+05 -4.065231E+05  9.247652E+04  2.772533E+05  4.153113E+01
         8   4 -3.660934E+06  1.581811E+04 -1.115849E+05  1.119319E-08  8.583681E+04 -1.189630E-09
         8   5 -3.604145E+06  5.085297E+04 -1.770320E+05  1.468076E-08  1.815438E+05  9.862079E-10
         8   6 -3.661524E+06 -3.201064E+05 -4.065255E+05  2.353306E-08  2.772533E+05  3.677750E-10
         8   7 -3.660932E+06  1.582115E+04 -1.115845E+05  4.008628E+04  8.583681E+04  5.573821E+00
         8   8 -3.604144E+06  5.085427E+04 -1.770319E+05 -2.619816E+04  1.815438E+05 -7.703654E+00
         8   9 -3.661515E+06 -3.200902E+05 -4.065231E+05 -9.247652E+04  2.772533E+05 -4.153113E+01
         8  10 -3.660940E+06  1.581916E+04 -1.115984E+05 -4.008628E+04 -2.129817E-09 -3.071664E-10
         8  11 -3.604179E+06  5.084536E+04 -1.770942E+05  2.619816E+04 -4.654924E-10  6.425026E-10
         8  12 -3.661598E+06 -3.201110E+05 -4.066684E+05  9.247651E+04 -3.234294E-09  5.780909E-11
         8  13 -3.660942E+06  1.581612E+04 -1.115988E+05 -5.940446E-09 -2.217668E-09 -6.248433E-10
         8  14 -3.604180E+06  5.084406E+04 -1.770943E+05  3.191634E-08 -1.988680E-09  8.523786E-11
         8  15 -3.661607E+06 -3.201271E+05 -4.066708E+05  1.597874E-08 -5.109187E-10  1.481829E-10
         8  16 -3.660940E+06  1.581916E+04 -1.115984E+05  4.008628E+04 -1.933337E-10 -3.570762E-10
         8  17 -3.604179E+06  5.084536E+04 -1.770942E+05 -2.619816E+04 -5.574648E-10 -6.181081E-12
         8  18 -3.661598E+06 -3.201110E+05 -4.066684E+05 -9.247651E+04 -4.304307E-10  1.448893E-10
         8  19 -3.660932E+06  1.582115E+04 -1.115845E+05 -4.008628E+04 -8.583681E+04  5.573821E+00
         8  20 -3.604144E+06  5.085427E+04 -1.770319E+05  2.619816E+04 -1.815438E+05 -7.703654E+00
         8  21 -3.661515E+06 -3.200902E+05 -4.065231E+05  9.247652E+04 -2.772533E+05 -4.153113E+01
         8  22 -3.660934E+06  1.581811E+04 -1.115849E+05  2.744917E-09 -8.583681E+04 -4.314109E-11
         8  23 -3.604145E+06  5.085297E+04 -1.770320E+05  1.472894E-08 -1.815438E+05 -5.352568E-10
         8  24 -3.661524E+06 -3.201064E+05 -4.065255E+05  2.401821E-08 -2.772533E+05 -1.179667E-10
         8  25 -3.660932E+06  1.582115E+04 -1.115845E+05  4.008628E+04 -8.583681E+04 -5.573821E+00
         8  26 -3.604144E+06  5.085427E+04 -1.770319E+05 -2.619816E+04 -1.815438E+05  7.703654E+00
         8  27 -3.661515E+06 -3.200902E+05 -4.065231E+05 -9.247652E+04 -2.772533E+05  4.153113E+01
         9   1  2.187260E+06  7.644516E+06  2.099865E+06 -1.368534E+06  1.001998E+05  7.771163E+05
         9   2  1.713479E+06  6.514398E+06  1.426424E+06 -1.205738E+06  3.329215E+05  3.636511E+05
         9   3  1.404023E+06  5.482853E+06  1.061990E+06 -1.241851E+06  3.819948E+05 -4.888031E+04
         9   4  1.903063E+05 -4.799320E+05  2.061029E+05 -1.228001E+06  1.019389E+05  1.416174E+05
         9   5  5.154625E+04 -4.954306E+05  1.031506E+05 -1.128880E+06  3.341937E+05  8.982699E+04
         9   6  1.571081E+04 -4.750964E+05  6.026386E+04 -1.228612E+06  3.819303E+05  3.814745E+04
         9   7 -1.811025E+06 -8.543066E+06 -1.690623E+06 -1.089213E+06  1.034110E+05 -4.857059E+05
         9   8 -1.613187E+06 -7.457954E+06 -1.222014E+06 -1.052828E+06  3.354092E+05 -1.810087E+05
         9   9 -1.374456E+06 -6.398225E+06 -9.425582E+05 -1.215434E+06  3.818690E+05  1.243715E+05
         9  10  2.187089E+06  7.643871E+06  2.098724E+06 -1.368597E+06 -3.652695E-10  4.096813E-09
         9  11  1.713325E+06  6.514227E+06  1.425969E+06 -1.205835E+06 -1.043088E-09 -9.392301E-10
         9  12  1.403866E+06  5.482811E+06  1.061712E+06 -1.241836E+06 -8.484423E-10 -6.277301E-09
         9  13  1.902898E+05 -4.799564E+05  2.060455E+05 -1.228013E+06 -1.439532E-09 -8.240606E-11
         9  14  5.142411E+04 -4.954693E+05  1.029253E+05 -1.128904E+06  2.602262E-09  4.755578E-11
         9  15  1.555378E+04 -4.751372E+05  5.998693E+04 -1.228624E+06  3.027154E-10  4.859431E-12
         9  16 -1.811101E+06 -8.543325E+06 -1.691092E+06 -1.089173E+06  1.767113E-09 -4.033727E-09
         9  17 -1.613316E+06 -7.458019E+06 -1.222287E+06 -1.052779E+06  4.294425E-10  8.932313E-10
         9  18 -1.374617E+06 -6.398281E+06 -9.428619E+05 -1.215472E+06  3.968723E-09  6.406107E-09
         9  19  2.187260E+06  7.644516E+06  2.099865E+06 -1.368534E+06 -1.001998E+05 -7.771163E+05
         9  20  1.713479E+06  6.514398E+06  1.426424E+06 -1.205738E+06 -3.329215E+05 -3.636511E+05
         9  21  1.404023E+06  5.482853E+06  1.061990E+06 -1.241851E+06 -3.819948E+05  4.888031E+04
         9  22  1.903063E+05 -4.799320E+05  2.061029E+05 -1.228001E+06 -1.019389E+05 -1.416174E+05
         9  23  5.154625E+04 -4.954306E+05  1.031506E+05 -1.128880E+06 -3.341937E+05 -8.982699E+04
         9  24  1.571081E+04 -4.750964E+05  6.026386E+04 -1.228612E+06 -3.819303E+05 -3.814745E+04
         9  25 -1.811025E+06 -8.543066E+06 -1.690623E+06 -1.089213E+06 -1.034110E+05  4.857059E+05
         9  26 -1.613187E+06 -7.457954E+06 -1.222014E+06 -1.052828E+06 -3.354092E+05  1.810087E+05
         9  27 -1.374456E+06 -6.398225E+06 -9.425582E+05 -1.215434E+06 -3.818690E+05 -1.243715E+05
        10   1  1.239750E+06  4.779865E+06  9.167728E+05 -1.254863E+06  3.502642E+05 -4.945969E+04
        10   2  9.770672E+05  3.693876E+06  6.967063E+05 -1.142013E+06  3.001864E+05 -1.048707E+05
        10   3  7.330506E+05  2.620545E+06  5.171034E+05 -1.240779E+06  2.305454E+05 -1.604270E+05
        10   4  1.657227E+04 -4.805194E+05  4.811891E+04 -1.231440E+06  3.501332E+05  2.976527E+04
        10   5  1.103783E+04 -4.814858E+05  3.408004E+04 -1.125600E+06  2.997106E+05  1.267834E+04
        10   6  1.764589E+04 -4.775166E+05  3.406535E+04 -1.231461E+06  2.296570E+05 -4.645054E+03
        10   7 -1.208028E+06 -5.713657E+06 -8.213344E+05 -1.208163E+06  3.500073E+05  1.083448E+05
        10   8 -9.558513E+05 -4.639530E+06 -6.289400E+05 -1.109265E+06  2.992388E+05  1.294689E+05
        10   9 -6.982160E+05 -3.565972E+06 -4.491092E+05 -1.222167E+06  2.287703E+05  1.503912E+05
        10  10  1.239618E+06  4.779829E+06  9.165379E+05 -1.254850E+06  2.302544E-10 -1.722938E-10
        10  11  9.769676E+05  3.693840E+06  6.965167E+05 -1.141987E+06  7.966845E-10 -1.171936E-09
        10  12  7.329868E+05  2.620504E+06  5.169558E+05 -1.240750E+06  1.282009E-09 -2.564907E-09
        10  13  1.644039E+04 -4.805532E+05  4.788682E+04 -1.231448E+06 -2.654704E-09  1.042215E-10
        10  14  1.094135E+04 -4.815101E+05  3.391095E+04 -1.125603E+06 -2.716974E-09  2.070153E-10
        10  15  1.758927E+04 -4.775308E+05  3.396623E+04 -1.231460E+06  5.689667E-11  3.186012E-10
        10  16 -1.208163E+06 -5.713702E+06 -8.215871E+05 -1.208194E+06  2.446968E-09 -6.848302E-12
        10  17 -9.559520E+05 -4.639572E+06 -6.291402E+05 -1.109296E+06 -2.012094E-09  1.139526E-09
        10  18 -6.982784E+05 -3.566010E+06 -4.492506E+05 -1.222195E+06 -7.171591E-10  2.836861E-09
        10  19  1.239750E+06  4.779865E+06  9.167728E+05 -1.254863E+06 -3.502642E+05  4.945969E+04
        10  20  9.770672E+05  3.693876E+06  6.967063E+05 -1.142013E+06 -3.001864E+05  1.048707E+05
        10  21  7.330506E+05  2.620545E+06  5.171034E+05 -1.240779E+06 -2.305454E+05  1.604270E+05
        10  22  1.657227E+04 -4.805194E+05  4.811891E+04 -1.231440E+06 -3.501332E+05 -2.976527E+04
        10  23  1.103783E+04 -4.814858E+05  3.408004E+04 -1.125600E+06 -2.997106E+05 -1.267834E+04
        10  24  1.764589E+04 -4.775166E+05  3.406535E+04 -1.231461E+06 -2.296570E+05  4.645054E+03
        10  25 -1.208028E+06 -5.713657E+06 -8.213344E+05 -1.208163E+06 -3.500073E+05 -1.083448E+05
        10  26 -9.558513E+05 -4.639530E+06 -6.289400E+05 -1.109265E+06 -2.992388E+05 -1.294689E+05
        10  27 -6.982160E+05 -3.565972E+06 -4.491092E+05 -1.222167E+06 -2.287703E+05 -1.503912E+05
        11   1  5.756104E+05  1.936729E+06  4.092937E+05 -1.244089E+06  1.833898E+05 -1.654698E+05
        11   2  3.463597E+05  8.510778E+05  2.595121E+05 -1.099891E+06  1.040457E+05 -1.946846E+05
        11   3  1.692546E+05 -2.186996E+05  1.411344E+05 -1.168580E+06  2.472591E+04 -2.239246E+05
        11   4  1.937378E+04 -4.746380E+05  3.766176E+04 -1.231762E+06  1.824242E+05 -1.049276E+04
        11   5  3.977468E+04 -4.814776E+05  5.649945E+04 -1.125078E+06  1.030248E+05 -3.984291E+04
        11   6  1.124113E+05 -4.736470E+05  1.067749E+05 -1.231244E+06  2.365267E+04 -6.926155E+04
        11   7 -5.371318E+05 -2.880151E+06 -3.340108E+05 -1.219470E+06  1.814622E+05  1.439068E+05
        11   8 -2.668797E+05 -1.812202E+06 -1.464604E+05 -1.150205E+06  1.019899E+05  1.146798E+05
        11   9  5.559315E+04 -7.284681E+05  7.250695E+04 -1.293880E+06  2.254790E+04  8.534090E+04
        11  10  5.755671E+05  1.936691E+06  4.091795E+05 -1.244064E+06 -1.359166E-09 -5.927402E-08
        11  11  3.463380E+05  8.510343E+05  2.594208E+05 -1.099874E+06 -1.643402E-09 -2.225459E-09
        11  12  1.692404E+05 -2.187536E+05  1.410390E+05 -1.168576E+06  1.767018E-11  5.470527E-08
        11  13  1.933803E+04 -4.746471E+05  3.759905E+04 -1.231760E+06  1.809272E-09  3.030780E-10
        11  14  3.976287E+04 -4.814821E+05  5.647656E+04 -1.125075E+06 -1.099968E-09 -1.675508E-10
        11  15  1.124094E+05 -4.736523E+05  1.067648E+05 -1.231242E+06  7.308771E-10 -9.548794E-11
        11  16 -5.371729E+05 -2.880182E+06 -3.341120E+05 -1.219491E+06  1.775987E-09  5.929419E-08
        11  17 -2.668945E+05 -1.812219E+06 -1.465048E+05 -1.150215E+06  7.322137E-09  1.927043E-09
        11  18  5.559064E+04 -7.284761E+05  7.249228E+04 -1.293882E+06  1.090260E-09 -5.477949E-08
        11  19  5.756104E+05  1.936729E+06  4.092937E+05 -1.244089E+06 -1.833898E+05  1.654698E+05
        11  20  3.463597E+05  8.510778E+05  2.595121E+05 -1.099891E+06 -1.040457E+05  1.946846E+05
        11  21  1.692546E+05 -2.186996E+05  1.411344E+05 -1.168580E+06 -2.472591E+04  2.239246E+05
        11  22  1.937378E+04 -4.746380E+05  3.766176E+04 -1.231762E+06 -1.824242E+05  1.049276E+04
        11  23  3.977468E+04 -4.814776E+05  5.649945E+04 -1.125078E+06 -1.030248E+05  3.984291E+04
        11  24  1.124113E+05 -4.736470E+05  1.067749E+05 -1.231244E+06 -2.365267E+04  6.926155E+04
        11  25 -5.371318E+05 -2.880151E+06 -3.340108E+05 -1.219470E+06 -1.814622E+05 -1.439068E+05
        11  26 -2.668797E+05 -1.812202E+06 -1.464604E+05 -1.150205E+06 -1.019899E+05 -1.146798E+05
        11  27  5.559315E+04 -7.284681E+05  7.250695E+04 -1.293880E+06 -2.254790E+04 -8.534090E+04
        12   1 -4.487996E+06 -1.300678E+06 -7.724041E+05 -1.619165E+06 -4.406099E+05 -1.617053E+05
        12   2 -4.361974E+06 -6.298640E+05 -3.554459E+05 -1.687293E+06 -2.831157E+05 -9.656141E+04
        12   3 -4.469907E+06 -6.268840E+05 -2.330827E+05 -1.621886E+06 -1.228700E+05 -3.872587E+04
        12   4 -4.279201E+06 -1.087650E+06 -6.885334E+05 -1.424564E+06 -4.368539E+05 -1.604178E+05
        12   5 -4.126839E+06 -5.038689E+05 -2.854268E+05 -1.584849E+06 -2.824401E+05 -9.633003E+04
        12   6 -4.207719E+06 -5.871968E+05 -1.743801E+05 -1.611637E+06 -1.252676E+05 -3.960913E+04
        12   7 -4.070318E+06 -8.744863E+05 -6.046596E+05 -1.229878E+06 -4.330966E+05 -1.591277E+05
        12   8 -3.891647E+06 -3.778509E+05 -2.154130E+05 -1.482364E+06 -2.817642E+05 -9.609843E+04
        12   9 -3.945458E+06 -5.475083E+05 -1.156793E+05 -1.601391E+06 -1.276662E+05 -4.049223E+04
        12  10 -4.488213E+06 -1.300759E+06 -7.728215E+05 -1.619222E+06  1.411610E-09  3.181846E-10
        12  11 -4.362063E+06 -6.298958E+05 -3.556154E+05 -1.687315E+06  5.484459E-10  1.276286E-09
        12  12 -4.469923E+06 -6.268897E+05 -2.331141E+05 -1.621890E+06  4.090844E-09  2.041084E-10
        12  13 -4.279414E+06 -1.087730E+06 -6.889435E+05 -1.424621E+06 -1.070115E-10  3.725590E-10
        12  14 -4.126928E+06 -5.039005E+05 -2.855954E+05 -1.584871E+06  4.010991E-09  9.340929E-10
        12  15 -4.207737E+06 -5.872028E+05 -1.744128E+05 -1.611641E+06  5.697972E-10  1.173378E-10
        12  16 -4.070527E+06 -8.745644E+05 -6.050626E+05 -1.229934E+06 -6.028241E-10  6.717313E-10
        12  17 -3.891735E+06 -3.778824E+05 -2.155807E+05 -1.482386E+06 -5.819312E-09  1.029857E-09
        12  18 -3.945476E+06 -5.475145E+05 -1.157133E+05 -1.601395E+06 -1.011566E-09 -2.473622E-10
        12  19 -4.487996E+06 -1.300678E+06 -7.724041E+05 -1.619165E+06  4.406099E+05  1.617053E+05
        12  20 -4.361974E+06 -6.298640E+05 -3.554459E+05 -1.687293E+06  2.831157E+05  9.656141E+04
        12  21 -4.469907E+06 -6.268840E+05 -2.330827E+05 -1.621886E+06  1.228700E+05  3.872587E+04
        12  22 -4.279201E+06 -1.087650E+06 -6.885334E+05 -1.424564E+06  4.368539E+05  1.604178E+05
        12  23 -4.126839E+06 -5.038689E+05 -2.854268E+05 -1.584849E+06  2.824401E+05  9.633003E+04
        12  24 -4.207719E+06 -5.871968E+05 -1.743801E+05 -1.611637E+06  1.252676E+05  3.960913E+04
        12  25 -4.070318E+06 -8.744863E+05 -6.046596E+05 -1.229878E+06  4.330966E+05  1.591277E+05
        12  26 -3.891647E+06 -3.778509E+05 -2.154130E+05 -1.482364E+06  2.817642E+05  9.609843E+04
        12  27 -3.945458E+06 -5.475083E+05 -1.156793E+05 -1.601391E+06  1.276662E+05  4.049223E+04
        13   1 -4.316466E+06 -7.260101E+05 -1.803745E+05 -1.621238E+06 -9.899462E+04 -3.226290E+04
        13   2 -4.270972E+06 -6.176918E+05 -9.245158E+04 -1.601636E+06 -6.306407E+04 -2.034685E+04
        13   3 -4.227591E+06 -6.155755E+05 -5.157953E+04 -1.598814E+06 -2.686922E+04 -9.125618E+03
        13   4 -4.184568E+06 -6.618231E+05 -1.422622E+05 -1.570474E+06 -9.943005E+04 -3.242886E+04
        13   5 -4.179336E+06 -5.795158E+05 -6.724458E+04 -1.572979E+06 -6.378788E+04 -2.061823E+04
        13   6 -4.176154E+06 -6.033448E+05 -3.903856E+04 -1.592266E+06 -2.788400E+04 -9.504890E+03
        13   7 -4.052654E+06 -5.976313E+05 -1.041515E+05 -1.519700E+06 -9.986559E+04 -3.259489E+04
        13   8 -4.087692E+06 -5.413389E+05 -4.203842E+04 -1.544319E+06 -6.451181E+04 -2.088966E+04
        13   9 -4.124714E+06 -5.911142E+05 -2.649781E+04 -1.585718E+06 -2.889887E+04 -9.884166E+03
        13  10 -4.316477E+06 -7.260139E+05 -1.803950E+05 -1.621241E+06 -1.500615E-09 -2.458238E-10
        13  11 -4.270976E+06 -6.176934E+05 -9.245990E+04 -1.601637E+06  2.281405E-09 -6.828204E-10
        13  12 -4.227592E+06 -6.155757E+05 -5.158105E+04 -1.598814E+06 -1.136323E-09 -4.803036E-10
        13  13 -4.184579E+06 -6.618269E+05 -1.422829E+05 -1.570477E+06 -1.899777E-09 -8.541274E-10
        13  14 -4.179341E+06 -5.795174E+05 -6.725309E+04 -1.572980E+06 -2.686037E-09 -7.968721E-10
        13  15 -4.176155E+06 -6.033451E+05 -3.904021E+04 -1.592266E+06 -3.412752E-09  1.543226E-10
        13  16 -4.052665E+06 -5.976352E+05 -1.041724E+05 -1.519702E+06  2.830870E-09 -6.938265E-10
        13  17 -4.087697E+06 -5.413405E+05 -4.204712E+04 -1.544320E+06  2.837675E-09 -1.168028E-09
        13  18 -4.124715E+06 -5.911146E+05 -2.649958E+04 -1.585718E+06 -4.085062E-09  6.892195E-10
        13  19 -4.316466E+06 -7.260101E+05 -1.803745E+05 -1.621238E+06  9.899462E+04  3.226290E+04
        13  20 -4.270972E+06 -6.176918E+05 -9.245158E+04 -1.601636E+06  6.306407E+04  2.034685E+04
        13  21 -4.227591E+06 -6.155755E+05 -5.157953E+04 -1.598814E+06  2.686922E+04  9.125618E+03
        13  22 -4.184568E+06 -6.618231E+05 -1.422622E+05 -1.570474E+06  9.943005E+04  3.242886E+04
        13  23 -4.179336E+06 -5.795158E+05 -6.724458E+04 -1.572979E+06  6.378788E+04  2.061823E+04
        13  24 -4.176154E+06 -6.033448E+05 -3.903856E+04 -1.592266E+06  2.788400E+04  9.504890E+03
        13  25 -4.052654E+06 -5.976313E+05 -1.041515E+05 -1.519700E+06  9.986559E+04  3.259489E+04
        13  26 -4.087692E+06 -5.413389E+05 -4.203842E+04 -1.544319E+06  6.451181E+04  2.088966E+04
        13  27 -4.124714E+06 -5.911142E+05 -2.649781E+04 -1.585718E+06  2.889887E+04  9.884166E+03
        14   1 -4.137303E+06 -5.997535E+05 -2.114498E+04 -1.579059E+06 -2.092263E+04 -8.380927E+03
        14   2 -4.102692E+06 -5.575693E+05  6.520636E+03 -1.549513E+06 -1.216995E+04 -7.367195E+03
        14   3 -4.041578E+06 -5.551192E+05  2.579845E+04 -1.553417E+06 -3.412452E+03 -6.363020E+03
        14   4 -4.173090E+06 -6.118291E+05 -3.061042E+04 -1.587283E+06 -2.176092E+04 -8.694617E+03
        14   5 -4.185869E+06 -5.886190E+05 -1.567066E+04 -1.571807E+06 -1.301283E+04 -7.682657E+03
        14   6 -4.172145E+06 -6.051429E+05 -9.114420E+03 -1.589781E+06 -4.260597E+03 -6.680538E+03
        14   7 -4.208875E+06 -6.239046E+05 -4.007602E+04 -1.595508E+06 -2.259917E+04 -9.008293E+03
        14   8 -4.269040E+06 -6.196685E+05 -3.786266E+04 -1.594099E+06 -1.385558E+04 -7.998075E+03
        14   9 -4.302696E+06 -6.551656E+05 -4.402890E+04 -1.626139E+06 -5.108548E+03 -6.997980E+03
        14  10 -4.137304E+06 -5.997537E+05 -2.114594E+04 -1.579059E+06  1.644234E-09  9.102725E-10
        14  11 -4.102692E+06 -5.575694E+05  6.520253E+03 -1.549513E+06  1.448349E-09  3.957167E-10
        14  12 -4.041578E+06 -5.551193E+05  2.579835E+04 -1.553417E+06 -1.485978E-09  4.534130E-10
        14  13 -4.173090E+06 -6.118293E+05 -3.061146E+04 -1.587284E+06 -4.946317E-09  9.326905E-10
        14  14 -4.185869E+06 -5.886191E+05 -1.567109E+04 -1.571807E+06 -2.463031E-09  8.303978E-10
        14  15 -4.172145E+06 -6.051430E+05 -9.114538E+03 -1.589782E+06  1.023161E-10 -2.459105E-10
        14  16 -4.208876E+06 -6.239049E+05 -4.007714E+04 -1.595508E+06 -4.701888E-09  1.233751E-09
        14  17 -4.269040E+06 -6.196686E+05 -3.786315E+04 -1.594099E+06 -3.303852E-09  1.033494E-09
        14  18 -4.302696E+06 -6.551657E+05 -4.402904E+04 -1.626139E+06 -6.252867E-09  6.413739E-11
        14  19 -4.137303E+06 -5.997535E+05 -2.114498E+04 -1.579059E+06  2.092263E+04  8.380927E+03
        14  20 -4.102692E+06 -5.575693E+05  6.520636E+03 -1.549513E+06  1.216995E+04  7.367195E+03
        14  21 -4.041578E+06 -5.551192E+05  2.579845E+04 -1.553417E+06  3.412452E+03  6.363020E+03
        14  22 -4.173090E+06 -6.118291E+05 -3.061042E+04 -1.587283E+06  2.176092E+04  8.694617E+03
        14  23 -4.185869E+06 -5.886190E+05 -1.567066E+04 -1.571807E+06  1.301283E+04  7.682657E+03
        14  24 -4.172145E+06 -6.051429E+05 -9.114420E+03 -1.589781E+06  4.260597E+03  6.680538E+03
        14  25 -4.208875E+06 -6.239046E+05 -4.007602E+04 -1.595508E+06  2.259917E+04  9.008293E+03
        14  26 -4.269040E+06 -6.196685E+05 -3.786266E+04 -1.594099E+06  1.385558E+04  7.998075E+03
        14  27 -4.302696E+06 -6.551656E+05 -4.402890E+04 -1.626139E+06  5.108548E+03  6.997980E+03
        15   1 -3.963858E+06 -5.270279E+05  4.871642E+04 -1.532010E+06 -1.658726E+03 -7.025832E+03
        15   2 -3.933855E+06 -4.955684E+05  6.296546E+04 -1.504120E+06  1.249696E+03 -8.094283E+03
        15   3 -3.876429E+06 -4.932885E+05  7.528657E+04 -1.508154E+06  4.111255E+03 -9.033302E+03
        15   4 -4.172341E+06 -6.054473E+05 -7.193550E+03 -1.588464E+06 -2.488211E+03 -7.336528E+03
        15   5 -4.186028E+06 -5.905713E+05 -4.472198E+03 -1.572616E+06  4.742651E+02 -8.385028E+03
        15   6 -4.172306E+06 -6.048868E+05 -3.722198E+03 -1.588693E+06  3.389703E+03 -9.304129E+03
        15   7 -4.380781E+06 -6.838639E+05 -6.310709E+04 -1.644900E+06 -3.317383E+03 -7.647108E+03
        15   8 -4.438140E+06 -6.855703E+05 -7.191534E+04 -1.641086E+06 -3.008167E+02 -8.675642E+03
        15   9 -4.468098E+06 -7.164801E+05 -8.273879E+04 -1.669198E+06  2.668531E+03 -9.574813E+03
        15  10 -3.963858E+06 -5.270279E+05  4.871632E+04 -1.532010E+06 -3.108060E-09 -1.770032E-10
        15  11 -3.933855E+06 -4.955684E+05  6.296533E+04 -1.504120E+06 -3.058637E-09  2.595702E-10
        15  12 -3.876429E+06 -4.932886E+05  7.528639E+04 -1.508154E+06  9.064851E-10  2.879191E-10
        15  13 -4.172341E+06 -6.054474E+05 -7.193663E+03 -1.588464E+06  2.330925E-09 -1.422687E-10
        15  14 -4.186028E+06 -5.905714E+05 -4.472331E+03 -1.572616E+06 -5.200960E-09 -9.035537E-10
        15  15 -4.172306E+06 -6.048869E+05 -3.722382E+03 -1.588693E+06  3.291850E-09  1.891367E-11
        15  16 -4.380781E+06 -6.838639E+05 -6.310723E+04 -1.644900E+06 -6.810922E-10 -1.074533E-09
        15  17 -4.438140E+06 -6.855704E+05 -7.191549E+04 -1.641086E+06  4.017050E-10  6.743439E-10
        15  18 -4.468098E+06 -7.164802E+05 -8.273897E+04 -1.669198E+06  1.473607E-09 -3.926087E-10
        15  19 -3.963858E+06 -5.270279E+05  4.871642E+04 -1.532010E+06  1.658726E+03  7.025832E+03
        15  20 -3.933855E+06 -4.955684E+05  6.296546E+04 -1.504120E+06 -1.249696E+03  8.094283E+03
        15  21 -3.876429E+06 -4.932885E+05  7.528657E+04 -1.508154E+06 -4.111255E+03  9.033302E+03
        15  22 -4.172341E+06 -6.054473E+05 -7.193550E+03 -1.588464E+06  2.488211E+03  7.336528E+03
        15  23 -4.186028E+06 -5.905713E+05 -4.472198E+03 -1.572616E+06 -4.742651E+02  8.385028E+03
        15  24 -4.172306E+06 -6.048868E+05 -3.722198E+03 -1.588693E+06 -3.389703E+03  9.304129E+03
        15  25 -4.380781E+06 -6.838639E+05 -6.310709E+04 -1.644900E+06  3.317383E+03  7.647108E+03
        15  26 -4.438140E+06 -6.855703E+05 -7.191534E+04 -1.641086E+06  3.008167E+02  8.675642E+03
        15  27 -4.468098E+06 -7.164801E+05 -8.273879E+04 -1.669198E+06 -2.668531E+03  9.574813E+03
        16   1 -3.811138E+06 -4.671498E+05  9.325820E+04 -1.488940E+06  5.094360E+03 -9.792413E+03
        16   2 -3.787150E+06 -4.422191E+05  1.013229E+05 -1.466214E+06  8.100279E+03 -1.046270E+04
        16   3 -3.741104E+06 -4.411337E+05  1.073017E+05 -1.469022E+06  1.102573E+04 -1.091349E+04
        16   4 -4.173513E+06 -6.036407E+05 -3.799409E+03 -1.587307E+06  4.378442E+03 -1.006138E+04
        16   5 -4.184592E+06 -5.921404E+05 -4.991768E+03 -1.574377E+06  7.475892E+03 -1.069771E+04
        16   6 -4.173632E+06 -6.045053E+05 -8.343792E+03 -1.586982E+06  1.049271E+04 -1.111453E+04
        16   7 -4.535761E+06 -7.401235E+05 -1.008684E+05 -1.685622E+06  3.662987E+03 -1.033018E+04
        16   8 -4.581881E+06 -7.420523E+05 -1.113203E+05 -1.682477E+06  6.851946E+03 -1.093256E+04
        16   9 -4.605980E+06 -7.678659E+05 -1.240060E+05 -1.704867E+06  9.960088E+03 -1.131541E+04
        16  10 -3.811138E+06 -4.671499E+05  9.325797E+04 -1.488940E+06 -1.056592E-09  1.636714E-10
        16  11 -3.787150E+06 -4.422192E+05  1.013225E+05 -1.466214E+06 -8.665212E-10  1.156014E-10
        16  12 -3.741104E+06 -4.411339E+05  1.073012E+05 -1.469022E+06 -2.137272E-09  2.318317E-09
        16  13 -4.173513E+06 -6.036408E+05 -3.799634E+03 -1.587307E+06  1.909640E-09  4.956050E-10
        16  14 -4.184592E+06 -5.921405E+05 -4.992088E+03 -1.574377E+06 -4.853045E-10  1.339896E-10
        16  15 -4.173632E+06 -6.045054E+05 -8.344231E+03 -1.586982E+06  3.980702E-11  1.598021E-09
        16  16 -4.535761E+06 -7.401236E+05 -1.008686E+05 -1.685622E+06  1.224834E-09  9.066361E-10
        16  17 -4.581881E+06 -7.420524E+05 -1.113206E+05 -1.682477E+06  2.335386E-09  5.394707E-10
        16  18 -4.605980E+06 -7.678661E+05 -1.240064E+05 -1.704867E+06 -1.208653E-09  2.564206E-09
        16  19 -3.811138E+06 -4.671498E+05  9.325820E+04 -1.488940E+06 -5.094360E+03  9.792413E+03
        16  20 -3.787150E+06 -4.422191E+05  1.013229E+05 -1.466214E+06 -8.100279E+03  1.046270E+04
        16  21 -3.741104E+06 -4.411337E+05  1.073017E+05 -1.469022E+06 -1.102573E+04  1.091349E+04
        16  22 -4.173513E+06 -6.036407E+05 -3.799409E+03 -1.587307E+06 -4.378442E+03  1.006138E+04
        16  23 -4.184592E+06 -5.921404E+05 -4.991768E+03 -1.574377E+06 -7.475892E+03  1.069771E+04
        16  24 -4.173632E+06 -6.045053E+05 -8.343792E+03 -1.586982E+06 -1.049271E+04  1.111453E+04
        16  25 -4.535761E+06 -7.401235E+05 -1.008684E+05 -1.685622E+06 -3.662987E+03  1.033018E+04
        16  26 -4.581881E+06 -7.420523E+05 -1.113203E+05 -1.682477E+06 -6.851946E+03  1.093256E+04
        16  27 -4.605980E+06 -7.678659E+05 -1.240060E+05 -1.704867E+06 -9.960088E+03  1.131541E+04
        17   1 -3.693316E+06 -4.205374E+05  1.183793E+05 -1.455348E+06  1.287294E+04 -1.106746E+04
        17   2 -3.676820E+06 -4.019396E+05  1.166341E+05 -1.438928E+06  2.255802E+04 -8.682810E+03
        17   3 -3.650025E+06 -4.086360E+05  1.052507E+05 -1.437096E+06  3.210634E+04 -5.930423E+03
        17   4 -4.175793E+06 -6.016661E+05 -1.063205E+04 -1.585738E+06  1.232317E+04 -1.127504E+04
        17   5 -4.181471E+06 -5.929534E+05 -1.847610E+04 -1.576949E+06  2.215685E+04 -8.834857E+03
        17   6 -4.176884E+06 -6.095714E+05 -3.608277E+04 -1.582748E+06  3.185335E+04 -6.026983E+03
        17   7 -4.658044E+06 -7.827816E+05 -1.396638E+05 -1.716037E+06  1.177386E+04 -1.148245E+04
        17   8 -4.685875E+06 -7.839513E+05 -1.536085E+05 -1.714867E+06  2.175604E+04 -8.986769E+03
        17   9 -4.703472E+06 -8.104882E+05 -1.774404E+05 -1.728288E+06  3.160059E+04 -6.123457E+03
        17  10 -3.693316E+06 -4.205376E+05  1.183787E+05 -1.455348E+06 -6.032456E-10  1.589586E-09
        17  11 -3.676821E+06 -4.019398E+05  1.166330E+05 -1.438927E+06  3.689979E-09  1.089905E-10
        17  12 -3.650027E+06 -4.086363E+05  1.052487E+05 -1.437096E+06  4.898070E-09 -1.072385E-09
        17  13 -4.175793E+06 -6.016663E+05 -1.063257E+04 -1.585738E+06  2.175631E-09  1.366441E-09
        17  14 -4.181472E+06 -5.929536E+05 -1.847717E+04 -1.576948E+06  3.582962E-09 -2.325440E-10
        17  15 -4.176885E+06 -6.095717E+05 -3.608475E+04 -1.582748E+06  4.711031E-09 -2.069845E-09
        17  16 -4.658044E+06 -7.827817E+05 -1.396643E+05 -1.716037E+06 -1.059204E-09  1.166117E-09
        17  17 -4.685875E+06 -7.839515E+05 -1.536096E+05 -1.714867E+06  6.725981E-10 -1.044588E-09
        17  18 -4.703473E+06 -8.104885E+05 -1.774424E+05 -1.728288E+06 -1.709362E-09 -1.239546E-09
        17  19 -3.693316E+06 -4.205374E+05  1.183793E+05 -1.455348E+06 -1.287294E+04  1.106746E+04
        17  20 -3.676820E+06 -4.019396E+05  1.166341E+05 -1.438928E+06 -2.255802E+04  8.682810E+03
        17  21 -3.650025E+06 -4.086360E+05  1.052507E+05 -1.437096E+06 -3.210634E+04  5.930423E+03
        17  22 -4.175793E+06 -6.016661E+05 -1.063205E+04 -1.585738E+06 -1.232317E+04  1.127504E+04
        17  23 -4.181471E+06 -5.929534E+05 -1.847610E+04 -1.576949E+06 -2.215685E+04  8.834857E+03
        17  24 -4.176884E+06 -6.095714E+05 -3.608277E+04 -1.582748E+06 -3.185335E+04  6.026983E+03
        17  25 -4.658044E+06 -7.827816E+05 -1.396638E+05 -1.716037E+06 -1.177386E+04  1.148245E+04
        17  26 -4.685875E+06 -7.839513E+05 -1.536085E+05 -1.714867E+06 -2.175604E+04  8.986769E+03
        17  27 -4.703472E+06 -8.104882E+05 -1.774404E+05 -1.728288E+06 -3.160059E+04  6.123457E+03
        18   1 -3.620870E+06 -3.936093E+05  1.027114E+05 -1.441622E+06  3.923072E+04 -3.877765E+03
        18   2 -3.610045E+06 -3.677773E+05  7.171599E+04 -1.423138E+06  8.031030E+04  1.103733E+04
        18   3 -3.631520E+06 -4.363537E+05 -1.391112E+04 -1.389117E+06  1.208650E+05  2.734308E+04
        18   4 -4.182417E+06 -5.975483E+05 -4.601895E+04 -1.586383E+06  3.869776E+04 -4.079430E+03
        18   5 -4.171214E+06 -5.846552E+05 -7.937124E+04 -1.581201E+06  8.033085E+04  1.104315E+04
        18   6 -4.192454E+06 -6.663336E+05 -1.678345E+05 -1.560475E+06  1.214388E+05  2.755482E+04
        18   7 -4.743659E+06 -8.014749E+05 -1.947769E+05 -1.731027E+06  3.816531E+04 -4.280917E+03
        18   8 -4.732077E+06 -8.015106E+05 -2.304868E+05 -1.739132E+06  8.035136E+04  1.104895E+04
        18   9 -4.753080E+06 -8.962791E+05 -3.217868E+05 -1.731686E+06  1.220120E+05  2.776628E+04
        18  10 -3.620871E+06 -3.936097E+05  1.027085E+05 -1.441622E+06  4.631273E-10 -2.044268E-09
        18  11 -3.610052E+06 -3.677792E+05  7.170356E+04 -1.423139E+06 -6.309926E-09  6.420881E-10
        18  12 -3.631536E+06 -4.363584E+05 -1.394017E+04 -1.389119E+06 -2.123112E-09  1.225132E-09
        18  13 -4.182418E+06 -5.975487E+05 -4.602182E+04 -1.586382E+06  1.341765E-09 -8.849068E-10
        18  14 -4.171221E+06 -5.846571E+05 -7.938369E+04 -1.581202E+06  2.070562E-09  8.078487E-10
        18  15 -4.192470E+06 -6.663384E+05 -1.678638E+05 -1.560477E+06  1.099378E-09 -1.476179E-09
        18  16 -4.743661E+06 -8.014753E+05 -1.947796E+05 -1.731027E+06  4.275791E-09 -3.837795E-10
        18  17 -4.732084E+06 -8.015125E+05 -2.304992E+05 -1.739133E+06  2.501542E-10  1.188956E-09
        18  18 -4.753097E+06 -8.962840E+05 -3.218165E+05 -1.731689E+06  8.900739E-10 -1.481920E-09
        18  19 -3.620870E+06 -3.936093E+05  1.027114E+05 -1.441622E+06 -3.923072E+04  3.877765E+03
        18  20 -3.610045E+06 -3.677773E+05  7.171599E+04 -1.423138E+06 -8.031030E+04 -1.103733E+04
        18  21 -3.631520E+06 -4.363537E+05 -1.391112E+04 -1.389117E+06 -1.208650E+05 -2.734308E+04
        18  22 -4.182417E+06 -5.975483E+05 -4.601895E+04 -1.586383E+06 -3.869776E+04  4.079430E+03
        18  23 -4.171214E+06 -5.846552E+05 -7.937124E+04 -1.581201E+06 -8.033085E+04 -1.104315E+04
        18  24 -4.192454E+06 -6.663336E+05 -1.678345E+05 -1.560475E+06 -1.214388E+05 -2.755482E+04
        18  25 -4.743659E+06 -8.014749E+05 -1.947769E+05 -1.731027E+06 -3.816531E+04  4.280917E+03
        18  26 -4.732077E+06 -8.015106E+05 -2.304868E+05 -1.739132E+06 -8.035136E+04 -1.104895E+04
        18  27 -4.753080E+06 -8.962791E+05 -3.217868E+05 -1.731686E+06 -1.220120E+05 -2.776628E+04
        19   1 -3.593251E+06 -4.097553E+05 -5.151790E+04 -1.507631E+06  1.542039E+05  3.795076E+04
        19   2 -3.569771E+06 -2.484939E+05 -1.843727E+05 -1.404105E+06  3.335431E+05  1.060688E+05
        19   3 -3.858008E+06 -8.347645E+05 -6.575388E+05 -1.099292E+06  5.082317E+05  1.864635E+05
        19   4 -4.220823E+06 -5.772585E+05 -2.057494E+05 -1.607914E+06  1.515728E+05  3.697456E+04
        19   5 -4.107390E+06 -4.971751E+05 -3.368384E+05 -1.597231E+06  3.359494E+05  1.069499E+05
        19   6 -4.306978E+06 -1.166084E+06 -8.124834E+05 -1.385160E+06  5.157010E+05  1.891338E+05
        19   7 -4.848005E+06 -7.447722E+05 -3.600065E+05 -1.708126E+06  1.489445E+05  3.599872E+04
        19   8 -4.644722E+06 -7.457942E+05 -4.893315E+05 -1.790190E+06  3.383533E+05  1.078296E+05
        19   9 -4.755687E+06 -1.497158E+06 -9.674408E+05 -1.670784E+06  5.231643E+05  1.917969E+05
        19  10 -3.593277E+06 -4.097632E+05 -5.156561E+04 -1.507636E+06 -3.242880E-10 -1.287131E-09
        19  11 -3.569894E+06 -2.485362E+05 -1.846044E+05 -1.404133E+06 -3.582910E-09 -1.910922E-09
        19  12 -3.858296E+06 -8.348720E+05 -6.580933E+05 -1.099369E+06 -2.752800E-09 -1.761414E-09
        19  13 -4.220849E+06 -5.772662E+05 -2.057955E+05 -1.607919E+06 -8.265299E-10 -1.104484E-09
        19  14 -4.107515E+06 -4.972180E+05 -3.370738E+05 -1.597260E+06 -5.156295E-10  7.024213E-10
        19  15 -4.307275E+06 -1.166194E+06 -8.130548E+05 -1.385239E+06 -5.155876E-10 -1.627001E-09
        19  16 -4.848029E+06 -7.447796E+05 -3.600510E+05 -1.708131E+06 -5.740618E-10 -1.360740E-09
        19  17 -4.644849E+06 -7.458379E+05 -4.895706E+05 -1.790219E+06 -3.119495E-09  1.105026E-09
        19  18 -4.755993E+06 -1.497272E+06 -9.680294E+05 -1.670865E+06 -8.983258E-10 -2.169914E-10
        19  19 -3.593251E+06 -4.097553E+05 -5.151790E+04 -1.507631E+06 -1.542039E+05 -3.795076E+04
        19  20 -3.569771E+06 -2.484939E+05 -1.843727E+05 -1.404105E+06 -3.335431E+05 -1.060688E+05
        19  21 -3.858008E+06 -8.347645E+05 -6.575388E+05 -1.099292E+06 -5.082317E+05 -1.864635E+05
        19  22 -4.220823E+06 -5.772585E+05 -2.057494E+05 -1.607914E+06 -1.515728E+05 -3.697456E+04
        19  23 -4.107390E+06 -4.971751E+05 -3.368384E+05 -1.597231E+06 -3.359494E+05 -1.069499E+05
        19  24 -4.306978E+06 -1.166084E+06 -8.124834E+05 -1.385160E+06 -5.157010E+05 -1.891338E+05
        19  25 -4.848005E+06 -7.447722E+05 -3.600065E+05 -1.708126E+06 -1.489445E+05 -3.599872E+04
        19  26 -4.644722E+06 -7.457942E+05 -4.893315E+05 -1.790190E+06 -3.383533E+05 -1.078296E+05
        19  27 -4.755687E+06 -1.497158E+06 -9.674408E+05 -1.670784E+06 -5.231643E+05 -1.917969E+05
        20   1 -1.486166E+06  3.283271E+04  4.171603E+04  9.508115E+03  2.849062E+04  4.373417E-01
        20   2 -1.492028E+06 -5.211154E+03  1.817596E+04  2.693560E+03  1.866313E+04  8.115925E-02
        20   3 -1.486192E+06 -1.623132E+03  1.145371E+04 -4.120829E+03  8.835768E+03 -5.878299E-02
        20   4 -1.486166E+06  3.283254E+04  4.171600E+04  2.168063E-08  2.849062E+04 -3.943704E-10
        20   5 -1.492028E+06 -5.211167E+03  1.817596E+04 -2.381934E-09  1.866313E+04 -8.667559E-10
        20   6 -1.486192E+06 -1.623164E+03  1.145371E+04  1.337214E-08  8.835768E+03 -3.391160E-10
        20   7 -1.486166E+06  3.283271E+04  4.171603E+04 -9.508115E+03  2.849062E+04 -4.373417E-01
        20   8 -1.492028E+06 -5.211154E+03  1.817596E+04 -2.693560E+03  1.866313E+04 -8.115926E-02
        20   9 -1.486192E+06 -1.623132E+03  1.145371E+04  4.120829E+03  8.835768E+03  5.878298E-02
        20  10 -1.486167E+06  3.283249E+04  4.171450E+04  9.508115E+03  1.663592E-10 -1.762041E-10
        20  11 -1.492028E+06 -5.211247E+03  1.817530E+04  2.693560E+03 -1.800180E-09 -3.124686E-10
        20  12 -1.486192E+06 -1.623153E+03  1.145357E+04 -4.120829E+03 -3.712085E-10  4.388341E-10
        20  13 -1.486167E+06  3.283232E+04  4.171447E+04  2.165017E-08  2.304601E-09 -1.842745E-10
        20  14 -1.492028E+06 -5.211261E+03  1.817530E+04  2.130750E-08  1.093152E-09 -2.893968E-10
        20  15 -1.486192E+06 -1.623185E+03  1.145356E+04 -1.994344E-08 -3.716453E-09  2.359868E-10
        20  16 -1.486167E+06  3.283249E+04  4.171450E+04 -9.508115E+03 -4.113303E-10 -1.262123E-10
        20  17 -1.492028E+06 -5.211247E+03  1.817530E+04 -2.693560E+03 -5.867304E-10 -2.232900E-10
        20  18 -1.486192E+06 -1.623153E+03  1.145357E+04  4.120829E+03 -8.241727E-11 -6.351518E-11
        20  19 -1.486166E+06  3.283271E+04  4.171603E+04  9.508115E+03 -2.849062E+04 -4.373417E-01
        20  20 -1.492028E+06 -5.211154E+03  1.817596E+04  2.693560E+03 -1.866313E+04 -8.115925E-02
        20  21 -1.486192E+06 -1.623132E+03  1.145371E+04 -4.120829E+03 -8.835768E+03  5.878299E-02
        20  22 -1.486166E+06  3.283254E+04  4.171600E+04  1.302160E-08 -2.849062E+04  1.057072E-10
        20  23 -1.492028E+06 -5.211167E+03  1.817596E+04  1.942238E-09 -1.866313E+04  3.617750E-10
        20  24 -1.486192E+06 -1.623164E+03  1.145371E+04  1.346353E-08 -8.835768E+03  7.840405E-10
        20  25 -1.486166E+06  3.283271E+04  4.171603E+04 -9.508115E+03 -2.849062E+04  4.373417E-01
        20  26 -1.492028E+06 -5.211154E+03  1.817596E+04 -2.693560E+03 -1.866313E+04  8.115926E-02
        20  27 -1.486192E+06 -1.623132E+03  1.145371E+04  4.120829E+03 -8.835768E+03 -5.878299E-02
        21   1 -1.488454E+06  3.690944E+03  9.366685E+03  9.747177E+02  7.040313E+03  1.107887E-02
        21   2 -1.489203E+06 -5.993674E+02  4.709225E+03  2.427336E+02  4.618998E+03  1.810099E-03
        21   3 -1.488458E+06 -1.801769E+02  2.808423E+03 -4.892618E+02  2.197651E+03 -1.735898E-03
        21   4 -1.488454E+06  3.690942E+03  9.366685E+03  2.274531E-08  7.040313E+03  7.415541E-11
        21   5 -1.489203E+06 -5.993676E+02  4.709225E+03  2.231090E-08  4.618998E+03  1.538773E-10
        21   6 -1.488458E+06 -1.801774E+02  2.808423E+03  1.486884E-08  2.197651E+03 -5.037330E-10
        21   7 -1.488454E+06  3.690944E+03  9.366685E+03 -9.747177E+02  7.040313E+03 -1.107887E-02
        21   8 -1.489203E+06 -5.993674E+02  4.709225E+03 -2.427336E+02  4.618998E+03 -1.810099E-03
        21   9 -1.488458E+06 -1.801769E+02  2.808423E+03  4.892618E+02  2.197651E+03  1.735897E-03
        21  10 -1.488454E+06  3.690931E+03  9.366592E+03  9.747177E+02  1.166509E-10  7.433475E-10
        21  11 -1.489203E+06 -5.993732E+02  4.709184E+03  2.427336E+02  1.403082E-09  3.055974E-10
        21  12 -1.488458E+06 -1.801782E+02  2.808414E+03 -4.892618E+02  3.177578E-09 -5.722564E-10
        21  13 -1.488454E+06  3.690929E+03  9.366591E+03  2.704327E-08  3.197650E-10  4.051248E-10
        21  14 -1.489203E+06 -5.993733E+02  4.709184E+03 -2.075787E-08 -1.598212E-09  3.549495E-11
        21  15 -1.488458E+06 -1.801787E+02  2.808414E+03 -3.412714E-08 -4.204594E-10 -3.179276E-10
        21  16 -1.488454E+06  3.690931E+03  9.366592E+03 -9.747177E+02 -1.418617E-10  3.237832E-11
        21  17 -1.489203E+06 -5.993732E+02  4.709184E+03 -2.427336E+02 -2.101184E-09 -1.675330E-10
        21  18 -1.488458E+06 -1.801782E+02  2.808414E+03  4.892618E+02 -9.072371E-10 -4.163932E-10
        21  19 -1.488454E+06  3.690944E+03  9.366685E+03  9.747177E+02 -7.040313E+03 -1.107886E-02
        21  20 -1.489203E+06 -5.993674E+02  4.709225E+03  2.427336E+02 -4.618998E+03 -1.810098E-03
        21  21 -1.488458E+06 -1.801769E+02  2.808423E+03 -4.892618E+02 -2.197651E+03  1.735897E-03
        21  22 -1.488454E+06  3.690942E+03  9.366685E+03  9.809422E-09 -7.040313E+03  7.140458E-10
        21  23 -1.489203E+06 -5.993676E+02  4.709225E+03 -3.553474E-09 -4.618998E+03  1.619268E-11
        21  24 -1.488458E+06 -1.801774E+02  2.808423E+03 -1.045951E-08 -2.197651E+03 -1.316157E-10
        21  25 -1.488454E+06  3.690944E+03  9.366685E+03 -9.747177E+02 -7.040313E+03  1.107886E-02
        21  26 -1.489203E+06 -5.993674E+02  4.709225E+03 -2.427336E+02 -4.618998E+03  1.810099E-03
        21  27 -1.488458E+06 -1.801769E+02  2.808423E+03  4.892618E+02 -2.197651E+03 -1.735898E-03
        22   1 -1.488743E+06  4.092639E+02  2.197753E+03  8.416011E+01  1.754487E+03  2.383856E-04
        22   2 -1.488848E+06 -6.964725E+01  1.166202E+03  1.133407E+01  1.167972E+03  2.137157E-05
        22   3 -1.488744E+06 -1.989660E+01  6.493539E+02 -6.149200E+01  5.814564E+02 -5.772490E-05
        22   4 -1.488743E+06  4.092639E+02  2.197753E+03  5.344876E-09  1.754487E+03 -5.442764E-10
        22   5 -1.488848E+06 -6.964725E+01  1.166202E+03 -2.295801E-08  1.167972E+03 -9.438168E-11
        22   6 -1.488744E+06 -1.989661E+01  6.493539E+02 -1.213780E-09  5.814564E+02 -9.596363E-11
        22   7 -1.488743E+06  4.092639E+02  2.197753E+03 -8.416011E+01  1.754487E+03 -2.383866E-04
        22   8 -1.488848E+06 -6.964725E+01  1.166202E+03 -1.133407E+01  1.167972E+03 -2.137253E-05
        22   9 -1.488744E+06 -1.989660E+01  6.493539E+02  6.149200E+01  5.814564E+02  5.772418E-05
        22  10 -1.488743E+06  4.092631E+02  2.197747E+03  8.416011E+01  1.328906E-09 -5.608059E-10
        22  11 -1.488848E+06 -6.964762E+01  1.166200E+03  1.133407E+01 -2.026238E-09 -3.583452E-10
        22  12 -1.488744E+06 -1.989669E+01  6.493533E+02 -6.149200E+01 -1.521789E-09  5.840617E-11
        22  13 -1.488743E+06  4.092630E+02  2.197747E+03 -2.046282E-08  6.723019E-11 -3.158626E-10
        22  14 -1.488848E+06 -6.964762E+01  1.166200E+03 -2.078960E-08  4.037542E-10 -8.334953E-11
        22  15 -1.488744E+06 -1.989670E+01  6.493533E+02 -8.192052E-09 -2.488857E-09  2.307396E-10
        22  16 -1.488743E+06  4.092631E+02  2.197747E+03 -8.416011E+01 -2.144457E-09  2.750489E-11
        22  17 -1.488848E+06 -6.964762E+01  1.166200E+03 -1.133407E+01 -3.086325E-09  1.561034E-10
        22  18 -1.488744E+06 -1.989669E+01  6.493533E+02  6.149200E+01  1.227356E-09  4.883337E-10
        22  19 -1.488743E+06  4.092639E+02  2.197753E+03  8.416011E+01 -1.754487E+03 -2.383864E-04
        22  20 -1.488848E+06 -6.964725E+01  1.166202E+03  1.133407E+01 -1.167972E+03 -2.137173E-05
        22  21 -1.488744E+06 -1.989660E+01  6.493539E+02 -6.149200E+01 -5.814564E+02  5.772514E-05
        22  22 -1.488743E+06  4.092639E+02  2.197753E+03 -1.613860E-08 -1.754487E+03 -1.466143E-10
        22  23 -1.488848E+06 -6.964725E+01  1.166202E+03 -1.862119E-08 -1.167972E+03 -7.392939E-11
        22  24 -1.488744E+06 -1.989661E+01  6.493539E+02  1.173051E-08 -5.814564E+02  6.434575E-10
        22  25 -1.488743E+06  4.092639E+02  2.197753E+03 -8.416011E+01 -1.754487E+03  2.383861E-04
        22  26 -1.488848E+06 -6.964725E+01  1.166202E+03 -1.133407E+01 -1.167972E+03  2.137157E-05
        22  27 -1.488744E+06 -1.989660E+01  6.493539E+02  6.149200E+01 -5.814564E+02 -5.772385E-05
        23   1 -1.488785E+06  4.418611E+01  4.734761E+02  1.244515E+00  4.808972E+02  9.663320E-07
        23   2 -1.488797E+06 -6.811516E+00  1.892800E+02 -4.394529E+00  3.864517E+02 -2.741200E-06
        23   3 -1.488785E+06 -8.347489E+00 -2.095441E+01 -1.003349E+01  2.920076E+02 -4.729845E-06
        23   4 -1.488785E+06  4.418611E+01  4.734761E+02  3.193252E-08  4.808972E+02  3.131175E-10
        23   5 -1.488797E+06 -6.811516E+00  1.892800E+02  7.924514E-10  3.864517E+02  8.556841E-10
        23   6 -1.488785E+06 -8.347489E+00 -2.095441E+01 -2.905461E-09  2.920076E+02 -7.886931E-10
        23   7 -1.488785E+06  4.418611E+01  4.734761E+02 -1.244515E+00  4.808972E+02 -9.653615E-07
        23   8 -1.488797E+06 -6.811516E+00  1.892800E+02  4.394529E+00  3.864517E+02  2.742400E-06
        23   9 -1.488785E+06 -8.347489E+00 -2.095441E+01  1.003349E+01  2.920076E+02  4.728450E-06
        23  10 -1.488785E+06  4.418604E+01  4.734757E+02  1.244515E+00  1.464407E-09 -1.107448E-10
        23  11 -1.488797E+06 -6.811556E+00  1.892797E+02 -4.394529E+00 -1.991533E-09 -5.573144E-10
        23  12 -1.488785E+06 -8.347512E+00 -2.095457E+01 -1.003349E+01 -2.537960E-09  1.402979E-10
        23  13 -1.488785E+06  4.418604E+01  4.734757E+02  1.038705E-08 -5.751616E-09  1.423656E-10
        23  14 -1.488797E+06 -6.811556E+00  1.892797E+02  1.369893E-08 -1.866722E-09 -3.375965E-10
        23  15 -1.488785E+06 -8.347512E+00 -2.095457E+01  8.406488E-09 -3.800759E-09 -2.435161E-10
        23  16 -1.488785E+06  4.418604E+01  4.734757E+02 -1.244515E+00  8.565339E-10  4.290899E-10
        23  17 -1.488797E+06 -6.811556E+00  1.892797E+02  4.394529E+00  1.080038E-10 -1.169283E-10
        23  18 -1.488785E+06 -8.347512E+00 -2.095457E+01  1.003349E+01 -9.684743E-10 -6.366346E-10
        23  19 -1.488785E+06  4.418611E+01  4.734761E+02  1.244515E+00 -4.808972E+02 -9.661102E-07
        23  20 -1.488797E+06 -6.811516E+00  1.892800E+02 -4.394529E+00 -3.864517E+02  2.740744E-06
        23  21 -1.488785E+06 -8.347489E+00 -2.095441E+01 -1.003349E+01 -2.920076E+02  4.730806E-06
        23  22 -1.488785E+06  4.418611E+01  4.734761E+02  2.325677E-08 -4.808972E+02 -1.128986E-10
        23  23 -1.488797E+06 -6.811516E+00  1.892800E+02 -3.534920E-09 -3.864517E+02 -1.302263E-09
        23  24 -1.488785E+06 -8.347489E+00 -2.095441E+01  1.413508E-09 -2.920076E+02  2.743721E-10
        23  25 -1.488785E+06  4.418611E+01  4.734761E+02 -1.244515E+00 -4.808972E+02  9.660725E-07
        23  26 -1.488797E+06 -6.811516E+00  1.892800E+02  4.394529E+00 -3.864517E+02 -2.743097E-06
        23  27 -1.488785E+06 -8.347489E+00 -2.095441E+01  1.003349E+01 -2.920076E+02 -4.730620E-06
        24   1 -1.488800E+06  7.212306E+00 -1.223217E+02 -1.327820E+01  3.049246E+02 -6.536872E-06
        24   2 -1.488778E+06  1.125568E+01 -3.649672E+02 -5.001600E+00  4.867210E+02 -3.930344E-06
        24   3 -1.488800E+06 -6.480788E+01 -7.462076E+02  3.275129E+00  6.685200E+02  3.536965E-06
        24   4 -1.488800E+06  7.212305E+00 -1.223217E+02  3.266226E-08  3.049246E+02 -1.155178E-09
        24   5 -1.488778E+06  1.125568E+01 -3.649672E+02  2.525386E-08  4.867210E+02  3.753602E-10
        24   6 -1.488800E+06 -6.480788E+01 -7.462076E+02  1.892914E-08  6.685200E+02  1.843481E-09
        24   7 -1.488800E+06  7.212306E+00 -1.223217E+02  1.327820E+01  3.049246E+02  6.534712E-06
        24   8 -1.488778E+06  1.125568E+01 -3.649672E+02  5.001600E+00  4.867210E+02  3.930087E-06
        24   9 -1.488800E+06 -6.480788E+01 -7.462076E+02 -3.275129E+00  6.685200E+02 -3.533273E-06
        24  10 -1.488800E+06  7.212281E+00 -1.223218E+02 -1.327820E+01 -2.321327E-10 -3.370037E-11
        24  11 -1.488778E+06  1.125562E+01 -3.649676E+02 -5.001600E+00  2.189879E-09 -4.077242E-10
        24  12 -1.488800E+06 -6.480800E+01 -7.462084E+02  3.275129E+00 -1.139699E-10  1.015745E-09
        24  13 -1.488800E+06  7.212280E+00 -1.223218E+02 -6.105509E-09 -4.254889E-09 -2.970387E-10
        24  14 -1.488778E+06  1.125562E+01 -3.649676E+02  8.060971E-09 -4.708967E-09 -1.718447E-10
        24  15 -1.488800E+06 -6.480800E+01 -7.462084E+02 -7.913940E-09 -1.025870E-09  7.492285E-10
        24  16 -1.488800E+06  7.212281E+00 -1.223218E+02  1.327820E+01 -2.197989E-09 -7.639379E-10
        24  17 -1.488778E+06  1.125562E+01 -3.649676E+02  5.001600E+00 -1.382611E-09 -1.722863E-10
        24  18 -1.488800E+06 -6.480800E+01 -7.462084E+02 -3.275129E+00  6.353543E-10  6.750833E-10
        24  19 -1.488800E+06  7.212306E+00 -1.223217E+02 -1.327820E+01 -3.049246E+02  6.537559E-06
        24  20 -1.488778E+06  1.125568E+01 -3.649672E+02 -5.001600E+00 -4.867210E+02  3.929869E-06
        24  21 -1.488800E+06 -6.480788E+01 -7.462076E+02  3.275129E+00 -6.685200E+02 -3.535028E-06
        24  22 -1.488800E+06  7.212305E+00 -1.223217E+02  1.541895E-08 -3.049246E+02  6.113020E-10
        24  23 -1.488778E+06  1.125568E+01 -3.649672E+02 -5.233924E-10 -4.867210E+02 -8.135438E-10
        24  24 -1.488800E+06 -6.480788E+01 -7.462076E+02  1.475093E-08 -6.685200E+02 -3.671732E-10
        24  25 -1.488800E+06  7.212306E+00 -1.223217E+02  1.327820E+01 -3.049246E+02 -6.536487E-06
        24  26 -1.488778E+06  1.125568E+01 -3.649672E+02  5.001600E+00 -4.867210E+02 -3.931072E-06
        24  27 -1.488800E+06 -6.480788E+01 -7.462076E+02 -3.275129E+00 -6.685200E+02  3.533890E-06
        25   1 -1.488859E+06  2.888001E+01 -9.929059E+02 -8.981188E+01  8.243459E+02 -1.195261E-04
        25   2 -1.488705E+06  1.026211E+02 -1.736826E+03  1.711739E+01  1.697668E+03  4.691438E-05
        25   3 -1.488860E+06 -6.019761E+02 -3.244921E+03  1.240467E+02  2.570989E+03  5.148858E-04
        25   4 -1.488859E+06  2.887999E+01 -9.929059E+02  1.213220E-08  8.243459E+02  7.648892E-10
        25   5 -1.488705E+06  1.026211E+02 -1.736826E+03 -1.085711E-08  1.697668E+03 -1.242643E-09
        25   6 -1.488860E+06 -6.019762E+02 -3.244921E+03  2.102954E-08  2.570989E+03  1.071711E-09
        25   7 -1.488859E+06  2.888001E+01 -9.929059E+02  8.981188E+01  8.243459E+02  1.195278E-04
        25   8 -1.488705E+06  1.026211E+02 -1.736826E+03 -1.711739E+01  1.697668E+03 -4.691706E-05
        25   9 -1.488860E+06 -6.019761E+02 -3.244921E+03 -1.240467E+02  2.570989E+03 -5.148835E-04
        25  10 -1.488859E+06  2.887982E+01 -9.929072E+02 -8.981188E+01 -3.499259E-10  7.901923E-10
        25  11 -1.488705E+06  1.026203E+02 -1.736831E+03  1.711739E+01 -5.932190E-10 -4.097204E-10
        25  12 -1.488860E+06 -6.019779E+02 -3.244934E+03  1.240467E+02 -5.422629E-10  6.521076E-11
        25  13 -1.488859E+06  2.887981E+01 -9.929072E+02 -9.489957E-09 -8.745128E-10  5.362136E-10
        25  14 -1.488705E+06  1.026203E+02 -1.736831E+03 -2.377621E-08 -2.690442E-10 -4.627942E-10
        25  15 -1.488860E+06 -6.019780E+02 -3.244934E+03  9.298121E-09 -2.051685E-09  4.687410E-10
        25  16 -1.488859E+06  2.887982E+01 -9.929072E+02  8.981188E+01 -2.890829E-10  3.496205E-10
        25  17 -1.488705E+06  1.026203E+02 -1.736831E+03 -1.711739E+01  1.669471E-09 -4.860283E-10
        25  18 -1.488860E+06 -6.019779E+02 -3.244934E+03 -1.240467E+02  3.151648E-10  8.487918E-10
        25  19 -1.488859E+06  2.888001E+01 -9.929059E+02 -8.981188E+01 -8.243459E+02  1.195276E-04
        25  20 -1.488705E+06  1.026211E+02 -1.736826E+03  1.711739E+01 -1.697668E+03 -4.691477E-05
        25  21 -1.488860E+06 -6.019761E+02 -3.244921E+03  1.240467E+02 -2.570989E+03 -5.148845E-04
        25  22 -1.488859E+06  2.887999E+01 -9.929059E+02  1.193577E-08 -8.243459E+02  3.079510E-10
        25  23 -1.488705E+06  1.026211E+02 -1.736826E+03 -6.552843E-09 -1.697668E+03  2.496496E-10
        25  24 -1.488860E+06 -6.019762E+02 -3.244921E+03  1.748194E-08 -2.570989E+03 -1.224519E-10
        25  25 -1.488859E+06  2.888001E+01 -9.929059E+02  8.981188E+01 -8.243459E+02 -1.195275E-04
        25  26 -1.488705E+06  1.026211E+02 -1.736826E+03 -1.711739E+01 -1.697668E+03  4.691541E-05
        25  27 -1.488860E+06 -6.019761E+02 -3.244921E+03 -1.240467E+02 -2.570989E+03  5.148844E-04
        26   1 -1.489279E+06  2.650338E+02 -4.140121E+03 -7.194635E+02  3.224776E+03 -3.745696E-03
        26   2 -1.488183E+06  8.816483E+02 -6.931797E+03  3.571602E+02  6.788908E+03  3.914593E-03
        26   3 -1.489285E+06 -5.428974E+03 -1.377981E+04  1.433768E+03  1.035298E+04  2.396450E-02
        26   4 -1.489279E+06  2.650328E+02 -4.140121E+03  3.053642E-08  3.224776E+03  1.553699E-09
        26   5 -1.488183E+06  8.816481E+02 -6.931797E+03 -1.728602E-09  6.788908E+03 -5.490429E-10
        26   6 -1.489285E+06 -5.428978E+03 -1.377981E+04  6.915298E-09  1.035298E+04 -3.246861E-10
        26   7 -1.489279E+06  2.650338E+02 -4.140121E+03  7.194635E+02  3.224776E+03  3.745700E-03
        26   8 -1.488183E+06  8.816483E+02 -6.931797E+03 -3.571602E+02  6.788908E+03 -3.914595E-03
        26   9 -1.489285E+06 -5.428974E+03 -1.377981E+04 -1.433768E+03  1.035298E+04 -2.396450E-02
        26  10 -1.489279E+06  2.650310E+02 -4.140140E+03 -7.194635E+02  9.325515E-10  4.754436E-10
        26  11 -1.488183E+06  8.816359E+02 -6.931884E+03  3.571602E+02 -2.421568E-09  4.958817E-11
        26  12 -1.489285E+06 -5.429003E+03 -1.378001E+04  1.433768E+03 -1.034181E-09  9.701562E-11
        26  13 -1.489279E+06  2.650300E+02 -4.140140E+03  2.614285E-08 -9.922866E-10  5.584581E-10
        26  14 -1.488183E+06  8.816357E+02 -6.931884E+03 -6.050734E-09  3.766543E-09 -3.898296E-10
        26  15 -1.489285E+06 -5.429007E+03 -1.378001E+04 -2.101253E-08 -1.463033E-09 -3.273097E-11
        26  16 -1.489279E+06  2.650310E+02 -4.140140E+03  7.194635E+02 -3.581343E-09  7.773115E-10
        26  17 -1.488183E+06  8.816359E+02 -6.931884E+03 -3.571602E+02 -7.396168E-10 -8.971752E-10
        26  18 -1.489285E+06 -5.429003E+03 -1.378001E+04 -1.433768E+03  3.363393E-11 -2.438605E-10
        26  19 -1.489279E+06  2.650338E+02 -4.140121E+03 -7.194635E+02 -3.224776E+03  3.745697E-03
        26  20 -1.488183E+06  8.816483E+02 -6.931797E+03  3.571602E+02 -6.788908E+03 -3.914592E-03
        26  21 -1.489285E+06 -5.428974E+03 -1.377981E+04  1.433768E+03 -1.035298E+04 -2.396450E-02
        26  22 -1.489279E+06  2.650328E+02 -4.140121E+03  1.744293E-08 -3.224776E+03 -4.258431E-10
        26  23 -1.488183E+06  8.816481E+02 -6.931797E+03 -1.759061E-09 -6.788908E+03 -3.195427E-10
        26  24 -1.489285E+06 -5.428978E+03 -1.377981E+04  5.425812E-09 -1.035298E+04  2.447428E-10
        26  25 -1.489279E+06  2.650338E+02 -4.140121E+03  7.194635E+02 -3.224776E+03 -3.745699E-03
        26  26 -1.488183E+06  8.816483E+02 -6.931797E+03 -3.571602E+02 -6.788908E+03  3.914592E-03
        26  27 -1.489285E+06 -5.428974E+03 -1.377981E+04 -1.433768E+03 -1.035298E+04  2.396450E-02
        27   1 -1.492611E+06  2.387654E+03 -1.684842E+04 -6.061260E+03  1.299406E+04 -1.271553E-01
        27   2 -1.484028E+06  7.665167E+03 -2.673279E+04  3.962135E+03  2.744982E+04  1.755858E-01
        27   3 -1.492649E+06 -4.829243E+04 -6.135330E+04  1.398554E+04  4.190585E+04  9.461884E-01
        27   4 -1.492612E+06  2.387585E+03 -1.684843E+04  2.064964E-08  1.299406E+04  4.722588E-10
        27   5 -1.484028E+06  7.665137E+03 -2.673279E+04 -1.473819E-08  2.744982E+04  9.613614E-10
        27   6 -1.492649E+06 -4.829280E+04 -6.135335E+04  1.014985E-08  4.190585E+04  2.611449E-10
        27   7 -1.492611E+06  2.387654E+03 -1.684842E+04  6.061260E+03  1.299406E+04  1.271553E-01
        27   8 -1.484028E+06  7.665167E+03 -2.673279E+04 -3.962135E+03  2.744982E+04 -1.755858E-01
        27   9 -1.492649E+06 -4.829243E+04 -6.135330E+04 -1.398554E+04  4.190585E+04 -9.461884E-01
        27  10 -1.492612E+06  2.387609E+03 -1.684874E+04 -6.061260E+03 -1.384372E-09  7.173206E-10
        27  11 -1.484029E+06  7.664964E+03 -2.673421E+04  3.962135E+03 -3.349381E-10  9.701891E-10
        27  12 -1.492651E+06 -4.829291E+04 -6.135661E+04  1.398554E+04  1.312921E-09  2.621175E-10
        27  13 -1.492612E+06  2.387539E+03 -1.684875E+04  7.748309E-09 -2.721358E-09  4.485097E-10
        27  14 -1.484029E+06  7.664934E+03 -2.673421E+04  2.477054E-09 -2.955290E-09  5.742716E-10
        27  15 -1.492651E+06 -4.829328E+04 -6.135666E+04 -9.254226E-09 -1.732510E-09  2.272178E-10
        27  16 -1.492612E+06  2.387609E+03 -1.684874E+04  6.061260E+03 -1.268963E-10  4.485872E-10
        27  17 -1.484029E+06  7.664964E+03 -2.673421E+04 -3.962135E+03  8.146058E-10  1.967739E-10
        27  18 -1.492651E+06 -4.829291E+04 -6.135661E+04 -1.398554E+04  1.132271E-09  7.305661E-11
        27  19 -1.492611E+06  2.387654E+03 -1.684842E+04 -6.061260E+03 -1.299406E+04  1.271553E-01
        27  20 -1.484028E+06  7.665167E+03 -2.673279E+04  3.962135E+03 -2.744982E+04 -1.755858E-01
        27  21 -1.492649E+06 -4.829243E+04 -6.135330E+04  1.398554E+04 -4.190585E+04 -9.461884E-01
        27  22 -1.492612E+06  2.387585E+03 -1.684843E+04  2.067484E-08 -1.299406E+04  4.844477E-10
        27  23 -1.484028E+06  7.665137E+03 -2.673279E+04  1.969022E-08 -2.744982E+04  2.129160E-10
        27  24 -1.492649E+06 -4.829280E+04 -6.135335E+04  1.601492E-08 -4.190585E+04  1.269274E-10
        27  25 -1.492611E+06  2.387654E+03 -1.684842E+04  6.061260E+03 -1.299406E+04 -1.271553E-01
        27  26 -1.484028E+06  7.665167E+03 -2.673279E+04 -3.962135E+03 -2.744982E+04  1.755858E-01
        27  27 -1.492649E+06 -4.829243E+04 -6.135330E+04 -1.398554E+04 -4.190585E+04  9.461884E-01
        28   1  5.142189E+05  1.238875E+06  6.225977E+05 -7.890622E+04  4.747322E+03  3.450597E+05
        28   2  7.048117E+04  1.237467E+06  3.575092E+05 -2.500332E+04  1.583779E+04  2.185305E+05
        28   3  1.348860E+05  1.379975E+06  3.018687E+05  8.721465E+04  1.856576E+04  9.198470E+04
        28   4  3.970384E+05  7.685340E+05  5.065884E+05  3.700944E+04  4.812066E+03  3.379303E+05
        28   5 -6.359794E+04  6.969268E+05  2.272590E+05  7.811258E+03  1.585150E+04  2.152850E+05
        28   6 -1.656569E+04  7.686364E+05  1.547813E+05  3.693044E+04  1.855899E+04  9.263604E+04
        28   7  2.798920E+05  2.984229E+05  3.905701E+05  1.528373E+05  4.874195E+03  3.308062E+05
        28   8 -1.976943E+05  1.566556E+05  9.698860E+04  4.059723E+04  1.586488E+04  2.120423E+05
        28   9 -1.680350E+05  1.576446E+05  7.668754E+03 -1.330412E+04  1.855211E+04  9.328670E+04
        28  10  5.141870E+05  1.238747E+06  6.223744E+05 -7.890755E+04  2.192095E-09 -9.926648E-10
        28  11  7.046811E+04  1.237416E+06  3.574192E+05 -2.500610E+04  9.372932E-10  5.770991E-11
        28  12  1.348834E+05  1.379966E+06  3.018522E+05  8.721328E+04  7.687784E-10  1.541673E-09
        28  13  3.970078E+05  7.684116E+05  5.063740E+05  3.700813E+04 -6.561888E-10 -4.541180E-11
        28  14 -6.361063E+04  6.968770E+05  2.271716E+05  7.808511E+03  1.757646E-09  1.030763E-10
        28  15 -1.656836E+04  7.686271E+05  1.547646E+05  3.692905E+04  2.886135E-09 -2.770507E-10
        28  16  2.798626E+05  2.983055E+05  3.903645E+05  1.528360E+05  1.517060E-09  9.587312E-10
        28  17 -1.977067E+05  1.566073E+05  9.690367E+04  4.059452E+04  1.817304E-09 -3.018119E-10
        28  18 -1.680377E+05  1.576352E+05  7.651759E+03 -1.330551E+04  1.403410E-09 -1.458514E-09
        28  19  5.142189E+05  1.238875E+06  6.225977E+05 -7.890622E+04 -4.747322E+03 -3.450597E+05
        28  20  7.048117E+04  1.237467E+06  3.575092E+05 -2.500332E+04 -1.583779E+04 -2.185305E+05
        28  21  1.348860E+05  1.379975E+06  3.018687E+05  8.721465E+04 -1.856576E+04 -9.198470E+04
        28  22  3.970384E+05  7.685340E+05  5.065884E+05  3.700944E+04 -4.812066E+03 -3.379303E+05
        28  23 -6.359794E+04  6.969268E+05  2.272590E+05  7.811258E+03 -1.585150E+04 -2.152850E+05
        28  24 -1.656569E+04  7.686364E+05  1.547813E+05  3.693044E+04 -1.855899E+04 -9.263604E+04
        28  25  2.798920E+05  2.984229E+05  3.905701E+05  1.528373E+05 -4.874195E+03 -3.308062E+05
        28  26 -1.976943E+05  1.566556E+05  9.698860E+04  4.059723E+04 -1.586488E+04 -2.120423E+05
        28  27 -1.680350E+05  1.576446E+05  7.668754E+03 -1.330412E+04 -1.855211E+04 -9.328670E+04
        29   1  2.217047E+05  1.463406E+06  3.085575E+05  2.116240E+04  1.926900E+04  6.978789E+04
        29   2  1.844447E+05  1.520929E+06  2.844078E+05  5.358497E+03  2.281319E+04  2.054864E+04
        29   3  2.415128E+05  1.609521E+06  3.160772E+05  4.975785E+04  2.377825E+04 -2.869556E+04
        29   4  4.308405E+04  7.435758E+05  1.345692E+05  3.741054E+04  1.927446E+04  6.754723E+04
        29   5 -1.215111E+04  7.281279E+05  9.325119E+04  7.307625E+03  2.281670E+04  1.953602E+04
        29   6  2.679273E+04  7.435650E+05  1.069450E+05  3.741107E+04  2.378059E+04 -2.847446E+04
        29   7 -1.355735E+05  2.421834E+04 -3.945611E+04  5.363993E+04  1.927981E+04  6.530912E+04
        29   8 -2.087928E+05 -6.409983E+04 -9.795030E+04  9.254478E+03  2.282020E+04  1.852467E+04
        29   9 -1.879814E+05 -1.217066E+05 -1.022408E+05  2.508186E+04  2.378292E+04 -2.825364E+04
        29  10  2.217030E+05  1.463401E+06  3.085477E+05  2.116132E+04 -1.405507E-09  1.500454E-09
        29  11  1.844441E+05  1.520929E+06  2.844060E+05  5.358120E+03  6.677544E-10 -9.269672E-10
        29  12  2.415119E+05  1.609520E+06  3.160746E+05  4.975839E+04 -3.342152E-09 -2.855283E-09
        29  13  4.308243E+04  7.435708E+05  1.345599E+05  3.740950E+04 -7.567588E-10 -3.367398E-10
        29  14 -1.215177E+04  7.281274E+05  9.324949E+04  7.307266E+03 -2.778001E-09  3.400146E-10
        29  15  2.679190E+04  7.435639E+05  1.069424E+05  3.741161E+04 -5.752850E-10 -7.157148E-10
        29  16 -1.355751E+05  2.421367E+04 -3.946483E+04  5.363892E+04  7.463203E-10 -1.513962E-09
        29  17 -2.087934E+05 -6.410034E+04 -9.795193E+04  9.254138E+03  4.406846E-09  4.611800E-12
        29  18 -1.879822E+05 -1.217076E+05 -1.022433E+05  2.508240E+04 -1.064290E-10  2.907158E-09
        29  19  2.217047E+05  1.463406E+06  3.085575E+05  2.116240E+04 -1.926900E+04 -6.978789E+04
        29  20  1.844447E+05  1.520929E+06  2.844078E+05  5.358497E+03 -2.281319E+04 -2.054864E+04
        29  21  2.415128E+05  1.609521E+06  3.160772E+05  4.975785E+04 -2.377825E+04  2.869556E+04
        29  22  4.308405E+04  7.435758E+05  1.345692E+05  3.741054E+04 -1.927446E+04 -6.754723E+04
        29  23 -1.215111E+04  7.281279E+05  9.325119E+04  7.307625E+03 -2.281670E+04 -1.953602E+04
        29  24  2.679273E+04  7.435650E+05  1.069450E+05  3.741107E+04 -2.378059E+04  2.847446E+04
        29  25 -1.355735E+05  2.421834E+04 -3.945611E+04  5.363993E+04 -1.927981E+04 -6.530912E+04
        29  26 -2.087928E+05 -6.409983E+04 -9.795030E+04  9.254478E+03 -2.282020E+04 -1.852467E+04
        29  27 -1.879814E+05 -1.217066E+05 -1.022408E+05  2.508186E+04 -2.378292E+04  2.825364E+04
        30   1  2.345837E+05  1.736923E+06  3.516397E+05  2.229570E+03  2.883864E+04 -4.120789E+04
        30   2  2.188199E+05  1.764478E+06  4.092791E+05  2.551895E+04  3.192036E+04 -1.357695E+05
        30   3  5.414856E+05  1.890864E+06  6.133838E+05  1.121525E+05  1.140141E+04 -2.304261E+05
        30   4 -8.243676E+03  7.582373E+05  1.158202E+05  3.780472E+04  2.885534E+04 -4.784794E+04
        30   5 -4.249165E+04  7.096393E+05  1.553442E+05  6.618813E+03  3.191518E+04 -1.315044E+05
        30   6  2.600963E+05  7.581365E+05  3.339377E+05  3.877363E+04  1.137325E+04 -2.152428E+05
        30   7 -2.511362E+05 -2.195713E+05 -1.200668E+05  7.332422E+04  2.887129E+04 -5.447754E+04
        30   8 -3.038827E+05 -3.441825E+05 -9.866967E+04 -1.224839E+04  3.190974E+04 -1.272464E+05
        30   9 -2.136742E+04 -3.734145E+05  5.440071E+04 -3.447054E+04  1.134149E+04 -2.000868E+05
        30  10  2.345823E+05  1.736921E+06  3.516349E+05  2.230526E+03 -1.349308E-09 -1.765869E-09
        30  11  2.188139E+05  1.764458E+06  4.092426E+05  2.552244E+04  2.507348E-10  1.518455E-09
        30  12  5.414713E+05  1.890807E+06  6.132840E+05  1.121546E+05  9.139810E-10  2.097591E-09
        30  13 -8.245184E+03  7.582347E+05  1.158144E+05  3.780583E+04 -8.999226E-10 -7.387783E-10
        30  14 -4.249738E+04  7.096205E+05  1.553098E+05  6.622192E+03 -1.116011E-10  8.223866E-10
        30  15  2.600838E+05  7.580868E+05  3.338505E+05  3.877560E+04 -4.367982E-10 -1.329871E-09
        30  16 -2.511379E+05 -2.195748E+05 -1.200739E+05  7.332549E+04 -4.795215E-09  1.645709E-09
        30  17 -3.038882E+05 -3.442002E+05 -9.870202E+04 -1.224512E+04 -1.828567E-09 -3.331890E-09
        30  18 -2.137831E+04 -3.734575E+05  5.432519E+04 -3.446872E+04  3.818403E-10 -1.932795E-09
        30  19  2.345837E+05  1.736923E+06  3.516397E+05  2.229570E+03 -2.883864E+04  4.120789E+04
        30  20  2.188199E+05  1.764478E+06  4.092791E+05  2.551895E+04 -3.192036E+04  1.357695E+05
        30  21  5.414856E+05  1.890864E+06  6.133838E+05  1.121525E+05 -1.140141E+04  2.304261E+05
        30  22 -8.243676E+03  7.582373E+05  1.158202E+05  3.780472E+04 -2.885534E+04  4.784794E+04
        30  23 -4.249165E+04  7.096393E+05  1.553442E+05  6.618813E+03 -3.191518E+04  1.315044E+05
        30  24  2.600963E+05  7.581365E+05  3.339377E+05  3.877363E+04 -1.137325E+04  2.152428E+05
        30  25 -2.511362E+05 -2.195713E+05 -1.200668E+05  7.332422E+04 -2.887129E+04  5.447754E+04
        30  26 -3.038827E+05 -3.441825E+05 -9.866967E+04 -1.224839E+04 -3.190974E+04  1.272464E+05
        30  27 -2.136742E+04 -3.734145E+05  5.440071E+04 -3.447054E+04 -1.134149E+04  2.000868E+05
        31   1 -2.163929E+06 -4.524082E+05 -1.673117E+05 -7.958031E+05 -8.520118E+04 -3.048009E+04
        31   2 -2.135168E+06 -3.198081E+05 -8.560704E+04 -8.042664E+05 -5.500022E+04 -1.639993E+04
        31   3 -2.146509E+06 -3.187966E+05 -6.047164E+04 -7.924596E+05 -2.364024E+04 -5.410141E+03
        31   4 -2.049655E+06 -3.837044E+05 -1.310266E+05 -7.384451E+05 -8.352432E+04 -2.985577E+04
        31   5 -2.022996E+06 -2.704710E+05 -5.436111E+04 -7.663927E+05 -5.463453E+04 -1.626369E+04
        31   6 -2.036170E+06 -2.885529E+05 -3.321521E+04 -7.740730E+05 -2.458587E+04 -5.764025E+03
        31   7 -1.935369E+06 -3.149929E+05 -9.474291E+04 -6.810761E+05 -8.184713E+04 -2.923115E+04
        31   8 -1.910813E+06 -2.211321E+05 -2.311650E+04 -7.285125E+05 -5.426878E+04 -1.612742E+04
        31   9 -1.925820E+06 -2.583097E+05 -5.959610E+03 -7.556840E+05 -2.553168E+04 -6.117935E+03
        31  10 -2.163937E+06 -4.524112E+05 -1.673271E+05 -7.958052E+05 -9.879611E-10  1.783954E-10
        31  11 -2.135171E+06 -3.198092E+05 -8.561326E+04 -8.042671E+05 -3.121232E-09  1.827221E-10
        31  12 -2.146510E+06 -3.187968E+05 -6.047275E+04 -7.924597E+05  4.951452E-10  2.652001E-10
        31  13 -2.049663E+06 -3.837072E+05 -1.310414E+05 -7.384471E+05  2.046407E-09  4.351397E-10
        31  14 -2.023000E+06 -2.704721E+05 -5.436724E+04 -7.663934E+05  5.629649E-09  1.174828E-09
        31  15 -2.036171E+06 -2.885531E+05 -3.321641E+04 -7.740731E+05 -2.156324E-09 -1.313452E-10
        31  16 -1.935376E+06 -3.149957E+05 -9.475716E+04 -6.810780E+05  1.970940E-09  8.073518E-10
        31  17 -1.910817E+06 -2.211332E+05 -2.312254E+04 -7.285132E+05  3.293344E-09  1.124545E-09
        31  18 -1.925821E+06 -2.583099E+05 -5.960910E+03 -7.556841E+05 -1.733454E-09 -7.759924E-10
        31  19 -2.163929E+06 -4.524082E+05 -1.673117E+05 -7.958031E+05  8.520118E+04  3.048009E+04
        31  20 -2.135168E+06 -3.198081E+05 -8.560704E+04 -8.042664E+05  5.500022E+04  1.639993E+04
        31  21 -2.146509E+06 -3.187966E+05 -6.047164E+04 -7.924596E+05  2.364024E+04  5.410141E+03
        31  22 -2.049655E+06 -3.837044E+05 -1.310266E+05 -7.384451E+05  8.352432E+04  2.985577E+04
        31  23 -2.022996E+06 -2.704710E+05 -5.436111E+04 -7.663927E+05  5.463453E+04  1.626369E+04
        31  24 -2.036170E+06 -2.885529E+05 -3.321521E+04 -7.740730E+05  2.458587E+04  5.764025E+03
        31  25 -1.935369E+06 -3.149929E+05 -9.474291E+04 -6.810761E+05  8.184713E+04  2.923115E+04
        31  26 -1.910813E+06 -2.211321E+05 -2.311650E+04 -7.285125E+05  5.426878E+04  1.612742E+04
        31  27 -1.925820E+06 -2.583097E+05 -5.959610E+03 -7.556840E+05  2.553168E+04  6.117935E+03
        32   1 -2.105430E+06 -3.332779E+05 -4.732179E+04 -7.891710E+05 -1.938096E+04 -4.769769E+03
        32   2 -2.091830E+06 -3.076188E+05 -2.863378E+04 -7.807947E+05 -1.240306E+04 -2.618393E+03
        32   3 -2.073984E+06 -3.068060E+05 -1.894470E+04 -7.809337E+05 -5.315984E+03 -7.575311E+02
        32   4 -2.031718E+06 -3.027770E+05 -2.710000E+04 -7.662763E+05 -1.949352E+04 -4.812070E+03
        32   5 -2.033064E+06 -2.848140E+05 -1.282659E+04 -7.640949E+05 -1.263854E+04 -2.706646E+03
        32   6 -2.030140E+06 -2.916718E+05 -7.453592E+03 -7.704290E+05 -5.674615E+03 -8.918596E+02
        32   7 -1.958000E+06 -2.722754E+05 -6.878619E+03 -7.433789E+05 -1.960609E+04 -4.854377E+03
        32   8 -1.974295E+06 -2.620089E+05  2.980269E+03 -7.473937E+05 -1.287405E+04 -2.794909E+03
        32   9 -1.986294E+06 -2.765377E+05  4.037270E+03 -7.599238E+05 -6.033271E+03 -1.026196E+03
        32  10 -2.105430E+06 -3.332780E+05 -4.732255E+04 -7.891711E+05  9.428800E-10 -3.711164E-10
        32  11 -2.091830E+06 -3.076189E+05 -2.863409E+04 -7.807947E+05  1.324113E-09 -9.006516E-10
        32  12 -2.073984E+06 -3.068060E+05 -1.894475E+04 -7.809337E+05  2.001680E-09 -4.932931E-11
        32  13 -2.031718E+06 -3.027771E+05 -2.710076E+04 -7.662764E+05 -3.496075E-09 -3.299748E-10
        32  14 -2.033064E+06 -2.848140E+05 -1.282691E+04 -7.640949E+05 -3.112596E-09 -8.599994E-10
        32  15 -2.030140E+06 -2.916719E+05 -7.453654E+03 -7.704290E+05  2.689397E-10  3.319926E-10
        32  16 -1.958000E+06 -2.722755E+05 -6.879388E+03 -7.433790E+05 -1.125528E-09 -1.292415E-09
        32  17 -1.974295E+06 -2.620089E+05  2.979942E+03 -7.473937E+05 -8.952118E-10 -8.071374E-10
        32  18 -1.986294E+06 -2.765377E+05  4.037199E+03 -7.599238E+05 -1.935651E-09  3.140695E-10
        32  19 -2.105430E+06 -3.332779E+05 -4.732179E+04 -7.891710E+05  1.938096E+04  4.769769E+03
        32  20 -2.091830E+06 -3.076188E+05 -2.863378E+04 -7.807947E+05  1.240306E+04  2.618393E+03
        32  21 -2.073984E+06 -3.068060E+05 -1.894470E+04 -7.809337E+05  5.315984E+03  7.575311E+02
        32  22 -2.031718E+06 -3.027770E+05 -2.710000E+04 -7.662763E+05  1.949352E+04  4.812070E+03
        32  23 -2.033064E+06 -2.848140E+05 -1.282659E+04 -7.640949E+05  1.263854E+04  2.706646E+03
        32  24 -2.030140E+06 -2.916718E+05 -7.453592E+03 -7.704290E+05  5.674615E+03  8.918596E+02
        32  25 -1.958000E+06 -2.722754E+05 -6.878619E+03 -7.433789E+05  1.960609E+04  4.854377E+03
        32  26 -1.974295E+06 -2.620089E+05  2.980269E+03 -7.473937E+05  1.287405E+04  2.794909E+03
        32  27 -1.986294E+06 -2.765377E+05  4.037270E+03 -7.599238E+05  6.033271E+03  1.026196E+03
        33   1 -2.044464E+06 -2.992219E+05 -9.833100E+03 -7.738882E+05 -4.143612E+03 -8.320955E+02
        33   2 -2.032677E+06 -2.858940E+05 -2.558894E+03 -7.633932E+05 -2.348090E+03 -9.338883E+02
        33   3 -2.010976E+06 -2.849979E+05  3.109947E+03 -7.648487E+05 -5.439651E+02 -1.058494E+03
        33   4 -2.029507E+06 -2.933349E+05 -5.847837E+03 -7.695386E+05 -4.427906E+03 -9.385848E+02
        33   5 -2.034374E+06 -2.864814E+05 -3.002274E+03 -7.638018E+05 -2.642070E+03 -1.044007E+03
        33   6 -2.029325E+06 -2.920577E+05 -1.754265E+03 -7.700158E+05 -8.476732E+02 -1.172259E+03
        33   7 -2.014551E+06 -2.874479E+05 -1.862580E+03 -7.651889E+05 -4.712208E+03 -1.045078E+03
        33   8 -2.036071E+06 -2.870687E+05 -3.445657E+03 -7.642105E+05 -2.936051E+03 -1.154126E+03
        33   9 -2.047675E+06 -2.991176E+05 -6.618547E+03 -7.751827E+05 -1.151374E+03 -1.286021E+03
        33  10 -2.044464E+06 -2.992219E+05 -9.833134E+03 -7.738882E+05 -1.174977E-09  6.422824E-10
        33  11 -2.032677E+06 -2.858940E+05 -2.558906E+03 -7.633932E+05 -1.878675E-09 -3.681182E-10
        33  12 -2.010976E+06 -2.849979E+05  3.109944E+03 -7.648487E+05 -3.716602E-09 -1.447615E-09
        33  13 -2.029507E+06 -2.933350E+05 -5.847875E+03 -7.695386E+05 -3.974848E-10  1.947148E-10
        33  14 -2.034374E+06 -2.864814E+05 -3.002289E+03 -7.638018E+05 -3.274818E-09  2.008160E-10
        33  15 -2.029325E+06 -2.920577E+05 -1.754269E+03 -7.700158E+05 -3.147188E-09 -1.930987E-09
        33  16 -2.014551E+06 -2.874479E+05 -1.862623E+03 -7.651889E+05 -4.558390E-09  5.059807E-10
        33  17 -2.036071E+06 -2.870687E+05 -3.445675E+03 -7.642105E+05 -3.548244E-09  2.768835E-10
        33  18 -2.047675E+06 -2.991176E+05 -6.618553E+03 -7.751827E+05 -3.233343E-10 -1.300784E-09
        33  19 -2.044464E+06 -2.992219E+05 -9.833100E+03 -7.738882E+05  4.143612E+03  8.320955E+02
        33  20 -2.032677E+06 -2.858940E+05 -2.558894E+03 -7.633932E+05  2.348090E+03  9.338883E+02
        33  21 -2.010976E+06 -2.849979E+05  3.109947E+03 -7.648487E+05  5.439651E+02  1.058494E+03
        33  22 -2.029507E+06 -2.933349E+05 -5.847837E+03 -7.695386E+05  4.427906E+03  9.385848E+02
        33  23 -2.034374E+06 -2.864814E+05 -3.002274E+03 -7.638018E+05  2.642070E+03  1.044007E+03
        33  24 -2.029325E+06 -2.920577E+05 -1.754265E+03 -7.700158E+05  8.476732E+02  1.172259E+03
        33  25 -2.014551E+06 -2.874479E+05 -1.862580E+03 -7.651889E+05  4.712208E+03  1.045078E+03
        33  26 -2.036071E+06 -2.870687E+05 -3.445657E+03 -7.642105E+05  2.936051E+03  1.154126E+03
        33  27 -2.047675E+06 -2.991176E+05 -6.618547E+03 -7.751827E+05  1.151374E+03  1.286021E+03
        34   1 -1.983279E+06 -2.748768E+05  1.094647E+04 -7.573525E+05 -1.384258E+02 -1.376353E+03
        34   2 -1.972065E+06 -2.632922E+05  1.576958E+04 -7.469027E+05  5.555028E+02 -1.903797E+03
        34   3 -1.950510E+06 -2.624109E+05  2.020911E+04 -7.484319E+05  1.244581E+03 -2.417961E+03
        34   4 -2.029302E+06 -2.921744E+05 -1.390202E+03 -7.698353E+05 -4.351999E+02 -1.487531E+03
        34   5 -2.034465E+06 -2.867633E+05 -8.759434E+02 -7.638681E+05  2.643388E+02 -2.012898E+03
        34   6 -2.029287E+06 -2.920567E+05 -7.496661E+02 -7.698800E+05  9.590158E+02 -2.524989E+03
        34   7 -2.075324E+06 -3.094717E+05 -1.372696E+04 -7.823172E+05 -7.319476E+02 -1.598699E+03
        34   8 -2.096860E+06 -3.102342E+05 -1.752174E+04 -7.808319E+05 -2.679181E+01 -2.121986E+03
        34   9 -2.108058E+06 -3.217022E+05 -2.170896E+04 -7.913256E+05  6.734906E+02 -2.632002E+03
        34  10 -1.983279E+06 -2.748768E+05  1.094646E+04 -7.573525E+05  9.821822E-10 -9.083360E-10
        34  11 -1.972065E+06 -2.632922E+05  1.576958E+04 -7.469027E+05 -3.271469E-10  2.307411E-09
        34  12 -1.950510E+06 -2.624109E+05  2.020910E+04 -7.484319E+05  1.633874E-09  3.842982E-10
        34  13 -2.029302E+06 -2.921744E+05 -1.390206E+03 -7.698353E+05  2.383860E-09 -1.434281E-09
        34  14 -2.034465E+06 -2.867633E+05 -8.759511E+02 -7.638681E+05 -2.797522E-11  7.541569E-10
        34  15 -2.029287E+06 -2.920567E+05 -7.496798E+02 -7.698800E+05  1.281230E-09  4.368810E-10
        34  16 -2.075324E+06 -3.094717E+05 -1.372697E+04 -7.823172E+05 -2.642922E-10 -1.552609E-09
        34  17 -2.096860E+06 -3.102342E+05 -1.752175E+04 -7.808319E+05 -1.021990E-09  5.421206E-10
        34  18 -2.108058E+06 -3.217022E+05 -2.170898E+04 -7.913256E+05 -3.568772E-10  3.239332E-10
        34  19 -1.983279E+06 -2.748768E+05  1.094647E+04 -7.573525E+05  1.384258E+02  1.376353E+03
        34  20 -1.972065E+06 -2.632922E+05  1.576958E+04 -7.469027E+05 -5.555028E+02  1.903797E+03
        34  21 -1.950510E+06 -2.624109E+05  2.020911E+04 -7.484319E+05 -1.244581E+03  2.417961E+03
        34  22 -2.029302E+06 -2.921744E+05 -1.390202E+03 -7.698353E+05  4.351999E+02  1.487531E+03
        34  23 -2.034465E+06 -2.867633E+05 -8.759434E+02 -7.638681E+05 -2.643388E+02  2.012898E+03
        34  24 -2.029287E+06 -2.920567E+05 -7.496661E+02 -7.698800E+05 -9.590158E+02  2.524989E+03
        34  25 -2.075324E+06 -3.094717E+05 -1.372696E+04 -7.823172E+05  7.319476E+02  1.598699E+03
        34  26 -2.096860E+06 -3.102342E+05 -1.752174E+04 -7.808319E+05  2.679181E+01  2.121986E+03
        34  27 -2.108058E+06 -3.217022E+05 -2.170896E+04 -7.913256E+05 -6.734906E+02  2.632002E+03
        35   1 -1.924324E+06 -2.523508E+05  2.732528E+04 -7.411366E+05  1.516452E+03 -2.761858E+03
        35   2 -1.913930E+06 -2.416898E+05  3.106153E+04 -7.313727E+05  2.268843E+03 -3.223441E+03
        35   3 -1.893946E+06 -2.410364E+05  3.435122E+04 -7.327114E+05  3.008343E+03 -3.649961E+03
        35   4 -2.029454E+06 -2.918831E+05 -7.765890E+02 -7.696934E+05  1.231362E+03 -2.868735E+03
        35   5 -2.034260E+06 -2.869686E+05 -1.039618E+03 -7.641081E+05  1.998562E+03 -3.324817E+03
        35   6 -2.029480E+06 -2.920651E+05 -1.761100E+03 -7.696258E+05  2.752856E+03 -3.745836E+03
        35   7 -2.134572E+06 -3.314148E+05 -2.887950E+04 -7.982459E+05  9.463243E+02 -2.975594E+03
        35   8 -2.154577E+06 -3.322467E+05 -3.314208E+04 -7.968378E+05  1.728339E+03 -3.426172E+03
        35   9 -2.164998E+06 -3.430928E+05 -3.787503E+04 -8.065330E+05  2.497430E+03 -3.841688E+03
        35  10 -1.924324E+06 -2.523508E+05  2.732526E+04 -7.411366E+05 -1.783427E-09 -2.169910E-10
        35  11 -1.913930E+06 -2.416898E+05  3.106150E+04 -7.313726E+05  9.627297E-10  1.005045E-09
        35  12 -1.893946E+06 -2.410364E+05  3.435118E+04 -7.327114E+05  3.524158E-09  3.668012E-10
        35  13 -2.029454E+06 -2.918831E+05 -7.766073E+02 -7.696934E+05  2.205355E-10  4.924599E-10
        35  14 -2.034260E+06 -2.869686E+05 -1.039646E+03 -7.641080E+05  6.582502E-09  2.832660E-09
        35  15 -2.029480E+06 -2.920652E+05 -1.761141E+03 -7.696258E+05  4.694010E-09  2.173483E-10
        35  16 -2.134572E+06 -3.314148E+05 -2.887952E+04 -7.982459E+05  2.883197E-09  1.425273E-09
        35  17 -2.154577E+06 -3.322467E+05 -3.314211E+04 -7.968378E+05 -2.559080E-11  1.510007E-09
        35  18 -2.164998E+06 -3.430928E+05 -3.787507E+04 -8.065330E+05 -1.489946E-09  2.716299E-10
        35  19 -1.924324E+06 -2.523508E+05  2.732528E+04 -7.411366E+05 -1.516452E+03  2.761858E+03
        35  20 -1.913930E+06 -2.416898E+05  3.106153E+04 -7.313727E+05 -2.268843E+03  3.223441E+03
        35  21 -1.893946E+06 -2.410364E+05  3.435122E+04 -7.327114E+05 -3.008343E+03  3.649961E+03
        35  22 -2.029454E+06 -2.918831E+05 -7.765890E+02 -7.696934E+05 -1.231362E+03  2.868735E+03
        35  23 -2.034260E+06 -2.869686E+05 -1.039618E+03 -7.641081E+05 -1.998562E+03  3.324817E+03
        35  24 -2.029480E+06 -2.920651E+05 -1.761100E+03 -7.696258E+05 -2.752856E+03  3.745836E+03
        35  25 -2.134572E+06 -3.314148E+05 -2.887950E+04 -7.982459E+05 -9.463243E+02  2.975594E+03
        35  26 -2.154577E+06 -3.322467E+05 -3.314208E+04 -7.968378E+05 -1.728339E+03  3.426172E+03
        35  27 -2.164998E+06 -3.430928E+05 -3.787503E+04 -8.065330E+05 -2.497430E+03  3.841688E+03
        36   1 -1.870369E+06 -2.317524E+05  4.031088E+04 -7.263011E+05  3.482756E+03 -3.881272E+03
        36   2 -1.861106E+06 -2.219738E+05  4.215776E+04 -7.174445E+05  5.656694E+03 -3.728126E+03
        36   3 -1.844315E+06 -2.229355E+05  4.196431E+04 -7.178723E+05  7.797234E+03 -3.485086E+03
        36   4 -2.029848E+06 -2.915655E+05 -2.250339E+03 -7.694714E+05  3.216130E+03 -3.981364E+03
        36   5 -2.033727E+06 -2.870324E+05 -3.911283E+03 -7.645140E+05  5.427779E+03 -3.814135E+03
        36   6 -2.030087E+06 -2.932475E+05 -7.642939E+03 -7.688412E+05  7.605985E+03 -3.557016E+03
        36   7 -2.189302E+06 -3.513770E+05 -4.481368E+04 -8.126316E+05  2.949580E+03 -4.081428E+03
        36   8 -2.206320E+06 -3.520892E+05 -4.998294E+04 -8.115717E+05  5.198934E+03 -3.900117E+03
        36   9 -2.215827E+06 -3.635575E+05 -5.725334E+04 -8.197965E+05  7.414799E+03 -3.628922E+03
        36  10 -1.870370E+06 -2.317524E+05  4.031083E+04 -7.263011E+05  4.461651E-10 -9.419544E-10
        36  11 -1.861106E+06 -2.219738E+05  4.215767E+04 -7.174444E+05 -2.820667E-09  3.107455E-10
        36  12 -1.844315E+06 -2.229355E+05  4.196418E+04 -7.178723E+05  1.468008E-09  2.628841E-10
        36  13 -2.029848E+06 -2.915655E+05 -2.250388E+03 -7.694714E+05  2.729224E-09 -7.854853E-10
        36  14 -2.033727E+06 -2.870324E+05 -3.911366E+03 -7.645140E+05  1.066645E-09  1.953382E-10
        36  15 -2.030087E+06 -2.932475E+05 -7.643071E+03 -7.688412E+05 -1.142988E-09  4.182607E-10
        36  16 -2.189302E+06 -3.513770E+05 -4.481373E+04 -8.126316E+05  9.855842E-10 -3.127606E-10
        36  17 -2.206320E+06 -3.520892E+05 -4.998302E+04 -8.115717E+05 -7.779328E-11  1.624507E-10
        36  18 -2.215827E+06 -3.635575E+05 -5.725347E+04 -8.197965E+05 -6.337084E-10  4.453162E-10
        36  19 -1.870369E+06 -2.317524E+05  4.031088E+04 -7.263011E+05 -3.482756E+03  3.881272E+03
        36  20 -1.861106E+06 -2.219738E+05  4.215776E+04 -7.174445E+05 -5.656694E+03  3.728126E+03
        36  21 -1.844315E+06 -2.229355E+05  4.196431E+04 -7.178723E+05 -7.797234E+03  3.485086E+03
        36  22 -2.029848E+06 -2.915655E+05 -2.250339E+03 -7.694714E+05 -3.216130E+03  3.981364E+03
        36  23 -2.033727E+06 -2.870324E+05 -3.911283E+03 -7.645140E+05 -5.427779E+03  3.814135E+03
        36  24 -2.030087E+06 -2.932475E+05 -7.642939E+03 -7.688412E+05 -7.605985E+03  3.557016E+03
        36  25 -2.189302E+06 -3.513770E+05 -4.481368E+04 -8.126316E+05 -2.949580E+03  4.081428E+03
        36  26 -2.206320E+06 -3.520892E+05 -4.998294E+04 -8.115717E+05 -5.198934E+03  3.900117E+03
        36  27 -2.215827E+06 -3.635575E+05 -5.725334E+04 -8.197965E+05 -7.414799E+03  3.628922E+03
        37   1 -1.823721E+06 -2.144245E+05  4.530694E+04 -7.150076E+05  9.480457E+03 -3.277226E+03
        37   2 -1.815323E+06 -2.027766E+05  4.110457E+04 -7.053922E+05  1.819947E+04 -5.539819E+02
        37   3 -1.808020E+06 -2.167605E+05  2.545641E+04 -6.990771E+05  2.670821E+04  2.729674E+03
        37   4 -2.031194E+06 -2.907828E+05 -9.746928E+03 -7.696831E+05  9.153908E+03 -3.399970E+03
        37   5 -2.031659E+06 -2.852067E+05 -1.679406E+04 -7.653077E+05  1.810859E+04 -5.883390E+02
        37   6 -2.033268E+06 -3.053136E+05 -3.547731E+04 -7.642323E+05  2.685282E+04  2.783648E+03
        37   7 -2.238626E+06 -3.671391E+05 -6.480451E+04 -8.243424E+05  8.827480E+03 -3.522671E+03
        37   8 -2.247950E+06 -3.676336E+05 -7.469674E+04 -8.252042E+05  1.801774E+04 -6.226830E+02
        37   9 -2.258467E+06 -3.938622E+05 -9.641543E+04 -8.293656E+05  2.699736E+04  2.837598E+03
        37  10 -1.823721E+06 -2.144246E+05  4.530675E+04 -7.150075E+05 -4.415977E-10 -1.215886E-10
        37  11 -1.815324E+06 -2.027767E+05  4.110395E+04 -7.053922E+05 -2.122907E-09  7.388980E-10
        37  12 -1.808021E+06 -2.167607E+05  2.545506E+04 -6.990771E+05 -2.131821E-09 -4.242638E-10
        37  13 -2.031195E+06 -2.907829E+05 -9.747107E+03 -7.696831E+05 -2.196494E-09  1.718468E-10
        37  14 -2.031660E+06 -2.852068E+05 -1.679468E+04 -7.653077E+05 -2.939968E-09 -1.418450E-10
        37  15 -2.033269E+06 -3.053138E+05 -3.547869E+04 -7.642324E+05 -4.379473E-09 -6.458156E-10
        37  16 -2.238627E+06 -3.671391E+05 -6.480468E+04 -8.243423E+05 -2.353383E-09 -2.322399E-10
        37  17 -2.247951E+06 -3.676336E+05 -7.469735E+04 -8.252042E+05  8.526150E-10 -5.491029E-10
        37  18 -2.258468E+06 -3.938624E+05 -9.641682E+04 -8.293657E+05 -3.587682E-09 -2.558079E-10
        37  19 -1.823721E+06 -2.144245E+05  4.530694E+04 -7.150076E+05 -9.480457E+03  3.277226E+03
        37  20 -1.815323E+06 -2.027766E+05  4.110457E+04 -7.053922E+05 -1.819947E+04  5.539819E+02
        37  21 -1.808020E+06 -2.167605E+05  2.545641E+04 -6.990771E+05 -2.670821E+04 -2.729674E+03
        37  22 -2.031194E+06 -2.907828E+05 -9.746928E+03 -7.696831E+05 -9.153908E+03  3.399970E+03
        37  23 -2.031659E+06 -2.852067E+05 -1.679406E+04 -7.653077E+05 -1.810859E+04  5.883390E+02
        37  24 -2.033268E+06 -3.053136E+05 -3.547731E+04 -7.642323E+05 -2.685282E+04 -2.783648E+03
        37  25 -2.238626E+06 -3.671391E+05 -6.480451E+04 -8.243424E+05 -8.827480E+03  3.522671E+03
        37  26 -2.247950E+06 -3.676336E+05 -7.469674E+04 -8.252042E+05 -1.801774E+04  6.226830E+02
        37  27 -2.258467E+06 -3.938622E+05 -9.641543E+04 -8.293656E+05 -2.699736E+04 -2.837598E+03
        38   1 -1.785020E+06 -2.054464E+05  2.144208E+04 -7.200527E+05  3.487659E+04  4.603858E+03
        38   2 -1.773796E+06 -1.651831E+05 -4.249074E+03 -6.922926E+05  7.162474E+04  1.798898E+04
        38   3 -1.822050E+06 -2.884175E+05 -1.006872E+05 -6.289040E+05  1.062417E+05  3.704184E+04
        38   4 -2.039297E+06 -2.864897E+05 -4.348467E+04 -7.742120E+05  3.349889E+04  4.086610E+03
        38   5 -2.018194E+06 -2.667125E+05 -7.118032E+04 -7.686403E+05  7.264525E+04  1.837133E+04
        38   6 -2.057070E+06 -4.109512E+05 -1.715503E+05 -7.274335E+05  1.096604E+05  3.832146E+04
        38   7 -2.293513E+06 -3.675333E+05 -1.084166E+05 -8.283534E+05  3.212181E+04  3.569510E+03
        38   8 -2.262534E+06 -3.682347E+05 -1.381171E+05 -8.449597E+05  7.366531E+04  1.875347E+04
        38   9 -2.292034E+06 -5.334649E+05 -2.424186E+05 -8.259243E+05  1.130777E+05  3.960008E+04
        38  10 -1.785021E+06 -2.054468E+05  2.143975E+04 -7.200529E+05 -1.994864E-09 -5.323150E-10
        38  11 -1.773802E+06 -1.651848E+05 -4.259356E+03 -6.922936E+05 -3.776768E-09  1.310629E-09
        38  12 -1.822062E+06 -2.884220E+05 -1.007111E+05 -6.289071E+05 -9.454967E-10  3.707312E-10
        38  13 -2.039299E+06 -2.864900E+05 -4.348681E+04 -7.742122E+05 -3.763675E-09 -6.089452E-12
        38  14 -2.018200E+06 -2.667142E+05 -7.119091E+04 -7.686414E+05 -8.896684E-11 -9.244778E-10
        38  15 -2.057084E+06 -4.109560E+05 -1.715757E+05 -7.274369E+05 -2.070261E-10 -1.065538E-10
        38  16 -2.293514E+06 -3.675336E+05 -1.084186E+05 -8.283535E+05 -2.183103E-09 -1.969906E-10
        38  17 -2.262540E+06 -3.682365E+05 -1.381280E+05 -8.449608E+05  1.146600E-09  4.589902E-10
        38  18 -2.292049E+06 -5.334700E+05 -2.424457E+05 -8.259279E+05  4.563018E-10 -9.253071E-11
        38  19 -1.785020E+06 -2.054464E+05  2.144208E+04 -7.200527E+05 -3.487659E+04 -4.603858E+03
        38  20 -1.773796E+06 -1.651831E+05 -4.249074E+03 -6.922926E+05 -7.162474E+04 -1.798898E+04
        38  21 -1.822050E+06 -2.884175E+05 -1.006872E+05 -6.289040E+05 -1.062417E+05 -3.704184E+04
        38  22 -2.039297E+06 -2.864897E+05 -4.348467E+04 -7.742120E+05 -3.349889E+04 -4.086610E+03
        38  23 -2.018194E+06 -2.667125E+05 -7.118032E+04 -7.686403E+05 -7.264525E+04 -1.837133E+04
        38  24 -2.057070E+06 -4.109512E+05 -1.715503E+05 -7.274335E+05 -1.096604E+05 -3.832146E+04
        38  25 -2.293513E+06 -3.675333E+05 -1.084166E+05 -8.283534E+05 -3.212181E+04 -3.569510E+03
        38  26 -2.262534E+06 -3.682347E+05 -1.381171E+05 -8.449597E+05 -7.366531E+04 -1.875347E+04
        38  27 -2.292034E+06 -5.334649E+05 -2.424186E+05 -8.259243E+05 -1.130777E+05 -3.960008E+04
        39   1 -4.603577E+05  1.188548E+05  1.510306E+05  3.445872E+04  1.032192E+05  5.733253E+00
        39   2 -4.815353E+05 -1.885681E+04  6.582746E+04  9.762386E+03  6.762087E+04  1.064109E+00
        39   3 -4.603917E+05 -5.876809E+03  4.149146E+04 -1.493311E+04  3.202221E+04 -7.707905E-01
        39   4 -4.603590E+05  1.188526E+05  1.510303E+05  2.063898E-08  1.032192E+05  5.449973E-11
        39   5 -4.815354E+05 -1.885699E+04  6.582743E+04 -2.869837E-09  6.762087E+04  5.326472E-10
        39   6 -4.603919E+05 -5.877228E+03  4.149140E+04 -3.767235E-09  3.202221E+04 -7.107397E-10
        39   7 -4.603577E+05  1.188548E+05  1.510306E+05 -3.445872E+04  1.032192E+05 -5.733253E+00
        39   8 -4.815353E+05 -1.885681E+04  6.582746E+04 -9.762386E+03  6.762087E+04 -1.064109E+00
        39   9 -4.603917E+05 -5.876809E+03  4.149146E+04  1.493311E+04  3.202221E+04  7.707905E-01
        39  10 -4.603692E+05  1.188519E+05  1.510106E+05  3.445872E+04 -8.100745E-10  1.597882E-10
        39  11 -4.815402E+05 -1.885804E+04  6.581886E+04  9.762386E+03 -2.060570E-09 -1.098350E-10
        39  12 -4.603928E+05 -5.877084E+03  4.148953E+04 -1.493311E+04  9.195323E-10 -5.629850E-10
        39  13 -4.603704E+05  1.188497E+05  1.510103E+05  1.205444E-08  3.364340E-11  1.868001E-10
        39  14 -4.815403E+05 -1.885821E+04  6.581883E+04  7.881569E-09 -1.887478E-09  3.012039E-10
        39  15 -4.603930E+05 -5.877504E+03  4.148947E+04  6.937743E-09 -3.376131E-09 -4.462820E-10
        39  16 -4.603692E+05  1.188519E+05  1.510106E+05 -3.445872E+04 -2.667825E-10  2.720807E-10
        39  17 -4.815402E+05 -1.885804E+04  6.581886E+04 -9.762386E+03  9.141632E-10  6.579521E-10
        39  18 -4.603928E+05 -5.877084E+03  4.148953E+04  1.493311E+04  2.351041E-10 -3.803353E-10
        39  19 -4.603577E+05  1.188548E+05  1.510306E+05  3.445872E+04 -1.032192E+05 -5.733253E+00
        39  20 -4.815353E+05 -1.885681E+04  6.582746E+04  9.762386E+03 -6.762087E+04 -1.064109E+00
        39  21 -4.603917E+05 -5.876809E+03  4.149146E+04 -1.493311E+04 -3.202221E+04  7.707905E-01
        39  22 -4.603590E+05  1.188526E+05  1.510303E+05  1.208438E-08 -1.032192E+05  2.994910E-10
        39  23 -4.815354E+05 -1.885699E+04  6.582743E+04  1.403899E-09 -6.762087E+04  2.819495E-11
        39  24 -4.603919E+05 -5.877228E+03  4.149140E+04  1.440930E-08 -3.202221E+04 -1.711559E-10
        39  25 -4.603577E+05  1.188548E+05  1.510306E+05 -3.445872E+04 -1.032192E+05  5.733253E+00
        39  26 -4.815353E+05 -1.885681E+04  6.582746E+04 -9.762386E+03 -6.762087E+04  1.064109E+00
        39  27 -4.603917E+05 -5.876809E+03  4.149146E+04  1.493311E+04 -3.202221E+04 -7.707905E-01
        40   1 -4.685884E+05  1.335836E+04  3.393714E+04  3.531731E+03  2.551200E+04  1.452355E-01
        40   2 -4.712942E+05 -2.168519E+03  1.708370E+04  8.798267E+02  1.672594E+04  2.372079E-02
        40   3 -4.685934E+05 -6.523116E+02  1.021463E+04 -1.772042E+03  7.940065E+03 -2.267972E-02
        40   4 -4.685884E+05  1.335834E+04  3.393714E+04 -7.587277E-09  2.551200E+04  2.997079E-10
        40   5 -4.712942E+05 -2.168521E+03  1.708370E+04 -1.663419E-08  1.672594E+04  1.719637E-09
        40   6 -4.685934E+05 -6.523175E+02  1.021463E+04  2.854641E-09  7.940065E+03 -2.145516E-09
        40   7 -4.685884E+05  1.335836E+04  3.393714E+04 -3.531731E+03  2.551200E+04 -1.452355E-01
        40   8 -4.712942E+05 -2.168519E+03  1.708370E+04 -8.798267E+02  1.672594E+04 -2.372078E-02
        40   9 -4.685934E+05 -6.523116E+02  1.021463E+04  1.772042E+03  7.940065E+03  2.267971E-02
        40  10 -4.685891E+05  1.335819E+04  3.393592E+04  3.531731E+03 -3.078168E-09  1.426966E-10
        40  11 -4.712945E+05 -2.168594E+03  1.708318E+04  8.798267E+02 -3.224555E-09  1.084098E-09
        40  12 -4.685935E+05 -6.523285E+02  1.021451E+04 -1.772042E+03  2.564617E-09 -5.081308E-10
        40  13 -4.685891E+05  1.335816E+04  3.393591E+04  2.267076E-08 -2.170411E-09 -9.189149E-11
        40  14 -4.712945E+05 -2.168596E+03  1.708318E+04 -1.449567E-08 -1.076785E-09  7.915163E-10
        40  15 -4.685935E+05 -6.523344E+02  1.021451E+04 -9.672448E-09 -4.228393E-10 -6.906689E-10
        40  16 -4.685891E+05  1.335819E+04  3.393592E+04 -3.531731E+03  2.989053E-09 -2.280111E-10
        40  17 -4.712945E+05 -2.168594E+03  1.708318E+04 -8.798267E+02  2.998215E-09  4.911912E-10
        40  18 -4.685935E+05 -6.523285E+02  1.021451E+04  1.772042E+03 -2.337838E-09 -9.386989E-10
        40  19 -4.685884E+05  1.335836E+04  3.393714E+04  3.531731E+03 -2.551200E+04 -1.452355E-01
        40  20 -4.712942E+05 -2.168519E+03  1.708370E+04  8.798267E+02 -1.672594E+04 -2.372079E-02
        40  21 -4.685934E+05 -6.523116E+02  1.021463E+04 -1.772042E+03 -7.940065E+03  2.267972E-02
        40  22 -4.685884E+05  1.335834E+04  3.393714E+04  2.278116E-08 -2.551200E+04 -4.686619E-10
        40  23 -4.712942E+05 -2.168521E+03  1.708370E+04 -8.052454E-09 -1.672594E+04 -1.231600E-10
        40  24 -4.685934E+05 -6.523175E+02  1.021463E+04 -6.584085E-09 -7.940065E+03  7.516120E-10
        40  25 -4.685884E+05  1.335836E+04  3.393714E+04 -3.531731E+03 -2.551200E+04  1.452355E-01
        40  26 -4.712942E+05 -2.168519E+03  1.708370E+04 -8.798267E+02 -1.672594E+04  2.372079E-02
        40  27 -4.685934E+05 -6.523116E+02  1.021463E+04  1.772042E+03 -7.940065E+03 -2.267972E-02
        41   1 -4.696249E+05  1.480859E+03  8.014115E+03  3.057062E+02  6.324674E+03  3.116608E-03
        41   2 -4.700063E+05 -2.526483E+02  4.314496E+03  4.272580E+01  4.154853E+03  2.861462E-04
        41   3 -4.696259E+05 -7.044321E+01  2.507307E+03 -2.202588E+02  1.985006E+03 -7.047495E-04
        41   4 -4.696249E+05  1.480859E+03  8.014115E+03  1.493378E-08  6.324674E+03 -2.231814E-09
        41   5 -4.700063E+05 -2.526483E+02  4.314496E+03 -1.230829E-08  4.154853E+03  1.498398E-09
        41   6 -4.696259E+05 -7.044330E+01  2.507307E+03  8.364776E-09  1.985006E+03  3.503997E-10
        41   7 -4.696249E+05  1.480859E+03  8.014115E+03 -3.057062E+02  6.324674E+03 -3.116613E-03
        41   8 -4.700063E+05 -2.526483E+02  4.314496E+03 -4.272580E+01  4.154853E+03 -2.861435E-04
        41   9 -4.696259E+05 -7.044321E+01  2.507307E+03  2.202588E+02  1.985006E+03  7.047504E-04
        41  10 -4.696250E+05  1.480848E+03  8.014040E+03  3.057062E+02 -5.261423E-10 -8.172492E-10
        41  11 -4.700063E+05 -2.526530E+02  4.314463E+03  4.272580E+01 -9.480582E-10  2.443982E-10
        41  12 -4.696259E+05 -7.044427E+01  2.507299E+03 -2.202588E+02  1.153087E-09 -4.643867E-11
        41  13 -4.696250E+05  1.480848E+03  8.014040E+03  2.130056E-09  1.093598E-09 -8.820918E-10
        41  14 -4.700063E+05 -2.526530E+02  4.314463E+03  9.243368E-09  9.916872E-10  3.618867E-10
        41  15 -4.696259E+05 -7.044436E+01  2.507299E+03  1.635828E-08 -1.855510E-10 -2.476685E-10
        41  16 -4.696250E+05  1.480848E+03  8.014040E+03 -3.057062E+02  4.347479E-10 -9.303999E-10
        41  17 -4.700063E+05 -2.526530E+02  4.314463E+03 -4.272580E+01  2.522779E-09  5.103644E-10
        41  18 -4.696259E+05 -7.044427E+01  2.507299E+03  2.202588E+02 -9.208027E-11 -4.208203E-10
        41  19 -4.696249E+05  1.480859E+03  8.014115E+03  3.057062E+02 -6.324674E+03 -3.116610E-03
        41  20 -4.700063E+05 -2.526483E+02  4.314496E+03  4.272580E+01 -4.154853E+03 -2.861458E-04
        41  21 -4.696259E+05 -7.044321E+01  2.507307E+03 -2.202588E+02 -1.985006E+03  7.047496E-04
        41  22 -4.696249E+05  1.480859E+03  8.014115E+03  2.246489E-09 -6.324674E+03  4.880463E-10
        41  23 -4.700063E+05 -2.526483E+02  4.314496E+03  1.787486E-08 -4.154853E+03 -7.956281E-10
        41  24 -4.696259E+05 -7.044330E+01  2.507307E+03  2.165960E-08 -1.985006E+03 -8.695014E-10
        41  25 -4.696249E+05  1.480859E+03  8.014115E+03 -3.057062E+02 -6.324674E+03  3.116611E-03
        41  26 -4.700063E+05 -2.526483E+02  4.314496E+03 -4.272580E+01 -4.154853E+03  2.861443E-04
        41  27 -4.696259E+05 -7.044321E+01  2.507307E+03  2.202588E+02 -1.985006E+03 -7.047514E-04
        42   1 -4.697686E+05  1.591057E+02  1.918250E+03  1.026128E+01  1.588021E+03  2.626572E-05
        42   2 -4.698284E+05 -2.961701E+01  1.036924E+03 -1.006338E+01  1.071710E+03 -1.738449E-05
        42   3 -4.697687E+05 -9.725674E+00  5.440855E+02 -3.038804E+01  5.553995E+02 -2.720484E-05
        42   4 -4.697686E+05  1.591057E+02  1.918250E+03  2.563913E-09  1.588021E+03 -7.202780E-10
        42   5 -4.698284E+05 -2.961701E+01  1.036924E+03 -1.112979E-08  1.071710E+03 -1.649089E-10
        42   6 -4.697687E+05 -9.725676E+00  5.440855E+02  3.009598E-08  5.553995E+02  3.694148E-10
        42   7 -4.697686E+05  1.591057E+02  1.918250E+03 -1.026128E+01  1.588021E+03 -2.626728E-05
        42   8 -4.698284E+05 -2.961701E+01  1.036924E+03  1.006338E+01  1.071710E+03  1.738418E-05
        42   9 -4.697687E+05 -9.725674E+00  5.440855E+02  3.038804E+01  5.553995E+02  2.720566E-05
        42  10 -4.697686E+05  1.591050E+02  1.918245E+03  1.026128E+01 -1.615637E-09 -1.901221E-11
        42  11 -4.698284E+05 -2.961732E+01  1.036922E+03 -1.006338E+01  5.256067E-10  4.155102E-10
        42  12 -4.697687E+05 -9.725757E+00  5.440849E+02 -3.038804E+01  1.806181E-09 -2.637196E-10
        42  13 -4.697686E+05  1.591050E+02  1.918245E+03  6.935124E-09  1.238249E-09 -3.591416E-10
        42  14 -4.698284E+05 -2.961732E+01  1.036922E+03  6.109828E-09 -1.161715E-09  3.786042E-10
        42  15 -4.697687E+05 -9.725758E+00  5.440849E+02  3.133620E-09  5.796271E-10  8.548798E-11
        42  16 -4.697686E+05  1.591050E+02  1.918245E+03 -1.026128E+01  1.481913E-09 -6.489655E-10
        42  17 -4.698284E+05 -2.961732E+01  1.036922E+03  1.006338E+01  1.797824E-09  3.417678E-10
        42  18 -4.697687E+05 -9.725757E+00  5.440849E+02  3.038804E+01 -3.072072E-10  4.032741E-10
        42  19 -4.697686E+05  1.591057E+02  1.918250E+03  1.026128E+01 -1.588021E+03 -2.626585E-05
        42  20 -4.698284E+05 -2.961701E+01  1.036924E+03 -1.006338E+01 -1.071710E+03  1.738562E-05
        42  21 -4.697687E+05 -9.725674E+00  5.440855E+02 -3.038804E+01 -5.553995E+02  2.720447E-05
        42  22 -4.697686E+05  1.591057E+02  1.918250E+03  1.130923E-08 -1.588021E+03  9.555470E-13
        42  23 -4.698284E+05 -2.961701E+01  1.036924E+03  2.334945E-08 -1.071710E+03  9.149215E-10
        42  24 -4.697687E+05 -9.725676E+00  5.440855E+02  1.708458E-08 -5.553995E+02 -2.052719E-10
        42  25 -4.697686E+05  1.591057E+02  1.918250E+03 -1.026128E+01 -1.588021E+03  2.626575E-05
        42  26 -4.698284E+05 -2.961701E+01  1.036924E+03  1.006338E+01 -1.071710E+03 -1.738371E-05
        42  27 -4.697687E+05 -9.725674E+00  5.440855E+02  3.038804E+01 -5.553995E+02 -2.720500E-05
        43   1 -4.697949E+05  1.697171E+01  3.696543E+02 -9.732014E+00  4.729580E+02 -7.419800E-06
        43   2 -4.697959E+05  1.391696E+00  8.336940E+01 -6.167229E+00  4.320758E+02 -4.296306E-06
        43   3 -4.697949E+05 -2.794564E+01 -1.797262E+02 -2.602497E+00  3.911942E+02 -1.639724E-06
        43   4 -4.697949E+05  1.697171E+01  3.696543E+02  9.441825E-09  4.729580E+02 -1.950934E-10
        43   5 -4.697959E+05  1.391696E+00  8.336940E+01 -1.197218E-08  4.320758E+02 -8.696730E-10
        43   6 -4.697949E+05 -2.794564E+01 -1.797262E+02 -2.698490E-09  3.911942E+02  1.296740E-09
        43   7 -4.697949E+05  1.697171E+01  3.696543E+02  9.732014E+00  4.729580E+02  7.419358E-06
        43   8 -4.697959E+05  1.391696E+00  8.336940E+01  6.167229E+00  4.320758E+02  4.294363E-06
        43   9 -4.697949E+05 -2.794564E+01 -1.797262E+02  2.602497E+00  3.911942E+02  1.642248E-06
        43  10 -4.697949E+05  1.697165E+01  3.696539E+02 -9.732014E+00  1.318677E-09 -6.372404E-10
        43  11 -4.697959E+05  1.391646E+00  8.336905E+01 -6.167229E+00 -1.089287E-09 -5.362523E-10
        43  12 -4.697949E+05 -2.794568E+01 -1.797264E+02 -2.602497E+00 -2.855206E-09 -1.381773E-10
        43  13 -4.697949E+05  1.697165E+01  3.696539E+02  8.068992E-10 -8.901386E-10 -3.458859E-10
        43  14 -4.697959E+05  1.391646E+00  8.336905E+01 -2.057951E-08 -3.060502E-09 -4.967566E-10
        43  15 -4.697949E+05 -2.794568E+01 -1.797264E+02 -2.042998E-08 -3.745805E-09 -1.056195E-10
        43  16 -4.697949E+05  1.697165E+01  3.696539E+02  9.732014E+00 -2.361805E-09 -2.077508E-11
        43  17 -4.697959E+05  1.391646E+00  8.336905E+01  6.167229E+00 -1.717708E-10 -4.236651E-10
        43  18 -4.697949E+05 -2.794568E+01 -1.797264E+02  2.602497E+00 -2.697868E-09 -7.730954E-11
        43  19 -4.697949E+05  1.697171E+01  3.696543E+02 -9.732014E+00 -4.729580E+02  7.418607E-06
        43  20 -4.697959E+05  1.391696E+00  8.336940E+01 -6.167229E+00 -4.320758E+02  4.295315E-06
        43  21 -4.697949E+05 -2.794564E+01 -1.797262E+02 -2.602497E+00 -3.911942E+02  1.639496E-06
        43  22 -4.697949E+05  1.697171E+01  3.696543E+02 -1.213537E-08 -4.729580E+02 -5.020264E-10
        43  23 -4.697959E+05  1.391696E+00  8.336940E+01 -7.651955E-09 -4.320758E+02 -1.117531E-10
        43  24 -4.697949E+05 -2.794564E+01 -1.797262E+02 -2.629365E-09 -3.911942E+02 -1.506697E-09
        43  25 -4.697949E+05  1.697171E+01  3.696543E+02  9.732014E+00 -4.729580E+02 -7.419563E-06
        43  26 -4.697959E+05  1.391696E+00  8.336940E+01  6.167229E+00 -4.320758E+02 -4.295473E-06
        43  27 -4.697949E+05 -2.794564E+01 -1.797262E+02  2.602497E+00 -3.911942E+02 -1.642561E-06
        44   1 -4.698235E+05  1.331911E+01 -3.175074E+02 -3.987263E+01  4.356005E+02 -2.799491E-05
        44   2 -4.697603E+05  4.300991E+01 -6.781334E+02  6.008696E+00  7.771951E+02  7.527104E-06
        44   3 -4.698236E+05 -2.551019E+02 -1.343225E+03  5.189072E+01  1.118795E+03  9.357987E-05
        44   4 -4.698235E+05  1.331911E+01 -3.175074E+02  1.028263E-08  4.356005E+02  1.477524E-09
        44   5 -4.697603E+05  4.300991E+01 -6.781334E+02  2.532928E-09  7.771951E+02 -3.078785E-10
        44   6 -4.698236E+05 -2.551020E+02 -1.343225E+03 -9.078536E-10  1.118795E+03  3.313428E-10
        44   7 -4.698235E+05  1.331911E+01 -3.175074E+02  3.987263E+01  4.356005E+02  2.799800E-05
        44   8 -4.697603E+05  4.300991E+01 -6.781334E+02 -6.008696E+00  7.771951E+02 -7.527950E-06
        44   9 -4.698236E+05 -2.551019E+02 -1.343225E+03 -5.189072E+01  1.118795E+03 -9.357916E-05
        44  10 -4.698235E+05  1.331906E+01 -3.175078E+02 -3.987263E+01  9.305302E-10  2.337645E-10
        44  11 -4.697603E+05  4.300975E+01 -6.781345E+02  6.008696E+00 -1.424727E-09  6.632394E-10
        44  12 -4.698236E+05 -2.551023E+02 -1.343227E+03  5.189072E+01 -6.809976E-10  3.090303E-10
        44  13 -4.698235E+05  1.331906E+01 -3.175078E+02 -1.552464E-08 -3.391643E-09  3.144571E-10
        44  14 -4.697603E+05  4.300975E+01 -6.781345E+02  1.976047E-08 -2.408156E-09  6.479736E-10
        44  15 -4.698236E+05 -2.551023E+02 -1.343227E+03 -3.098981E-09 -3.696627E-09  2.920786E-10
        44  16 -4.698235E+05  1.331906E+01 -3.175078E+02  3.987263E+01 -6.994271E-10  3.787078E-10
        44  17 -4.697603E+05  4.300975E+01 -6.781345E+02 -6.008696E+00  1.396866E-09  5.698388E-10
        44  18 -4.698236E+05 -2.551023E+02 -1.343227E+03 -5.189072E+01  5.269986E-10  2.577638E-10
        44  19 -4.698235E+05  1.331911E+01 -3.175074E+02 -3.987263E+01 -4.356005E+02  2.799547E-05
        44  20 -4.697603E+05  4.300991E+01 -6.781334E+02  6.008696E+00 -7.771951E+02 -7.525788E-06
        44  21 -4.698236E+05 -2.551019E+02 -1.343225E+03  5.189072E+01 -1.118795E+03 -9.357887E-05
        44  22 -4.698235E+05  1.331911E+01 -3.175074E+02  6.043099E-09 -4.356005E+02 -8.560533E-10
        44  23 -4.697603E+05  4.300991E+01 -6.781334E+02  2.531351E-09 -7.771951E+02  1.578594E-09
        44  24 -4.698236E+05 -2.551020E+02 -1.343225E+03 -4.406967E-10 -1.118795E+03  2.539836E-10
        44  25 -4.698235E+05  1.331911E+01 -3.175074E+02  3.987263E+01 -4.356005E+02 -2.799727E-05
        44  26 -4.697603E+05  4.300991E+01 -6.781334E+02 -6.008696E+00 -7.771951E+02  7.528937E-06
        44  27 -4.698236E+05 -2.551019E+02 -1.343225E+03 -5.189072E+01 -1.118795E+03  9.357942E-05
        45   1 -4.700021E+05  1.123693E+02 -1.731370E+03 -3.058357E+02  1.391110E+03 -6.857866E-04
        45   2 -4.695374E+05  3.734932E+02 -2.926823E+03  1.511933E+02  2.896753E+03  7.059663E-04
        45   3 -4.700030E+05 -2.301137E+03 -5.836999E+03  6.082224E+02  4.402394E+03  4.316097E-03
        45   4 -4.700021E+05  1.123691E+02 -1.731370E+03 -5.681314E-09  1.391110E+03  1.008508E-09
        45   5 -4.695374E+05  3.734932E+02 -2.926823E+03 -5.031683E-09  2.896753E+03  5.636489E-10
        45   6 -4.700030E+05 -2.301138E+03 -5.836999E+03  3.695056E-09  4.402394E+03 -6.555486E-10
        45   7 -4.700021E+05  1.123693E+02 -1.731370E+03  3.058357E+02  1.391110E+03  6.857888E-04
        45   8 -4.695374E+05  3.734932E+02 -2.926823E+03 -1.511933E+02  2.896753E+03 -7.059653E-04
        45   9 -4.700030E+05 -2.301137E+03 -5.836999E+03 -6.082224E+02  4.402394E+03 -4.316098E-03
        45  10 -4.700021E+05  1.123688E+02 -1.731373E+03 -3.058357E+02 -1.112170E-09  1.042146E-10
        45  11 -4.695374E+05  3.734909E+02 -2.926839E+03  1.511933E+02 -2.778626E-09 -6.443227E-11
        45  12 -4.700030E+05 -2.301143E+03 -5.837035E+03  6.082224E+02  3.445668E-10 -1.662724E-11
        45  13 -4.700021E+05  1.123686E+02 -1.731374E+03  2.925232E-09 -1.102001E-09  4.934706E-11
        45  14 -4.695374E+05  3.734909E+02 -2.926839E+03  1.433917E-08 -2.238298E-09 -1.080337E-10
        45  15 -4.700030E+05 -2.301143E+03 -5.837035E+03  9.598374E-09  1.813317E-09 -3.850440E-10
        45  16 -4.700021E+05  1.123688E+02 -1.731373E+03  3.058357E+02 -1.202482E-09  4.505993E-11
        45  17 -4.695374E+05  3.734909E+02 -2.926839E+03 -1.511933E+02  6.250907E-10 -2.025635E-10
        45  18 -4.700030E+05 -2.301143E+03 -5.837035E+03 -6.082224E+02  9.823854E-10 -6.957039E-10
        45  19 -4.700021E+05  1.123693E+02 -1.731370E+03 -3.058357E+02 -1.391110E+03  6.857868E-04
        45  20 -4.695374E+05  3.734932E+02 -2.926823E+03  1.511933E+02 -2.896753E+03 -7.059663E-04
        45  21 -4.700030E+05 -2.301137E+03 -5.836999E+03  6.082224E+02 -4.402394E+03 -4.316097E-03
        45  22 -4.700021E+05  1.123691E+02 -1.731370E+03 -1.382114E-09 -1.391110E+03 -9.096535E-10
        45  23 -4.695374E+05  3.734932E+02 -2.926823E+03  7.866716E-09 -2.896753E+03 -7.747433E-10
        45  24 -4.700030E+05 -2.301138E+03 -5.836999E+03  7.963768E-09 -4.402394E+03 -1.178617E-10
        45  25 -4.700021E+05  1.123693E+02 -1.731370E+03  3.058357E+02 -1.391110E+03 -6.857888E-04
        45  26 -4.695374E+05  3.734932E+02 -2.926823E+03 -1.511933E+02 -2.896753E+03  7.059648E-04
        45  27 -4.700030E+05 -2.301137E+03 -5.836999E+03 -6.082224E+02 -4.402394E+03  4.316097E-03
        46   1 -4.714150E+05  1.012488E+03 -7.140458E+03 -2.572657E+03  5.522269E+03 -2.290026E-02
        46   2 -4.677726E+05  3.248463E+03 -1.133449E+04  1.681727E+03  1.165341E+04  3.158980E-02
        46   3 -4.714200E+05 -2.047382E+04 -2.601188E+04  5.936023E+03  1.778446E+04  1.701673E-01
        46   4 -4.714150E+05  1.012475E+03 -7.140459E+03  9.270019E-09  5.522269E+03 -7.983326E-10
        46   5 -4.677726E+05  3.248458E+03 -1.133450E+04  1.420801E-09  1.165341E+04 -1.513471E-11
        46   6 -4.714200E+05 -2.047389E+04 -2.601189E+04  1.133742E-08  1.778446E+04  5.824297E-11
        46   7 -4.714150E+05  1.012488E+03 -7.140458E+03  2.572657E+03  5.522269E+03  2.290026E-02
        46   8 -4.677726E+05  3.248463E+03 -1.133449E+04 -1.681727E+03  1.165341E+04 -3.158980E-02
        46   9 -4.714200E+05 -2.047382E+04 -2.601188E+04 -5.936023E+03  1.778446E+04 -1.701673E-01
        46  10 -4.714151E+05  1.012479E+03 -7.140515E+03 -2.572657E+03 -9.378131E-11 -1.663963E-10
        46  11 -4.677728E+05  3.248427E+03 -1.133475E+04  1.681727E+03 -4.338667E-11 -3.119226E-10
        46  12 -4.714203E+05 -2.047391E+04 -2.601248E+04  5.936023E+03  7.345622E-10 -4.500350E-11
        46  13 -4.714151E+05  1.012467E+03 -7.140517E+03  9.296043E-09  1.422148E-09 -3.463787E-10
        46  14 -4.677728E+05  3.248422E+03 -1.133475E+04 -5.029622E-09  1.218506E-28 -3.007661E-11
        46  15 -4.714204E+05 -2.047398E+04 -2.601248E+04  7.565068E-09  9.969322E-10  3.481130E-11
        46  16 -4.714151E+05  1.012479E+03 -7.140515E+03  2.572657E+03 -1.388759E-09 -5.678191E-10
        46  17 -4.677728E+05  3.248427E+03 -1.133475E+04 -1.681727E+03 -1.714580E-09  2.139808E-10
        46  18 -4.714203E+05 -2.047391E+04 -2.601248E+04 -5.936023E+03  3.277313E-11  1.327416E-10
        46  19 -4.714150E+05  1.012488E+03 -7.140458E+03 -2.572657E+03 -5.522269E+03  2.290026E-02
        46  20 -4.677726E+05  3.248463E+03 -1.133449E+04  1.681727E+03 -1.165341E+04 -3.158981E-02
        46  21 -4.714200E+05 -2.047382E+04 -2.601188E+04  5.936023E+03 -1.778446E+04 -1.701673E-01
        46  22 -4.714150E+05  1.012475E+03 -7.140459E+03  7.052458E-10 -5.522269E+03  9.683893E-11
        46  23 -4.677726E+05  3.248458E+03 -1.133450E+04 -2.865551E-09 -1.165341E+04 -1.292280E-11
        46  24 -4.714200E+05 -2.047389E+04 -2.601189E+04  7.025898E-09 -1.778446E+04  1.630198E-11
        46  25 -4.714150E+05  1.012488E+03 -7.140458E+03  2.572657E+03 -5.522269E+03 -2.290026E-02
        46  26 -4.677726E+05  3.248463E+03 -1.133449E+04 -1.681727E+03 -1.165341E+04  3.158981E-02
        46  27 -4.714200E+05 -2.047382E+04 -2.601188E+04 -5.936023E+03 -1.778446E+04  1.701673E-01
        47   1  1.045442E+04 -1.350089E+06 -1.526356E+04  1.032977E+04  3.779895E+03 -7.227581E+04
        47   2  1.072075E+05 -1.365775E+06  3.871194E+04  4.234813E+03  1.121240E+04 -4.843933E+04
        47   3  8.900046E+04 -1.413152E+06  4.844513E+04 -2.764355E+04  1.002678E+04 -2.460576E+04
        47   4 -9.073216E+04 -1.755049E+06 -1.155577E+05 -1.600790E+04  3.783687E+03 -7.758700E+04
        47   5  1.446069E+04 -1.738811E+06 -5.138319E+04 -3.107257E+03  1.121391E+04 -4.984363E+04
        47   6  3.975071E+03 -1.754964E+06 -3.418998E+04 -1.599113E+04  1.002517E+04 -2.210170E+04
        47   7 -1.919284E+05 -2.159858E+06 -2.158635E+05 -4.232834E+04  3.787933E+03 -8.289472E+04
        47   8 -7.829612E+04 -2.111718E+06 -1.414883E+05 -1.044488E+04  1.121545E+04 -5.124709E+04
        47   9 -8.105838E+04 -2.096670E+06 -1.168334E+05 -4.345139E+03  1.002366E+04 -1.959901E+04
        47  10  1.045300E+04 -1.350094E+06 -1.527343E+04  1.032999E+04  1.520596E-09  6.109586E-10
        47  11  1.072067E+05 -1.365778E+06  3.870728E+04  4.235250E+03 -1.063107E-10 -2.552089E-09
        47  12  8.900019E+04 -1.413152E+06  4.844380E+04 -2.764335E+04  1.751672E-10 -3.772856E-09
        47  13 -9.073380E+04 -1.755055E+06 -1.155690E+05 -1.600767E+04 -1.569652E-10 -2.512532E-11
        47  14  1.445988E+04 -1.738813E+06 -5.138810E+04 -3.106807E+03 -1.169060E-09 -3.372660E-10
        47  15  3.974832E+03 -1.754965E+06 -3.419109E+04 -1.599095E+04  3.340219E-10 -6.935028E-10
        47  16 -1.919303E+05 -2.159865E+06 -2.158765E+05 -4.232808E+04  1.514005E-09 -5.903426E-10
        47  17 -7.829696E+04 -2.111721E+06 -1.414934E+05 -1.044442E+04  4.527648E-10  1.941157E-09
        47  18 -8.105859E+04 -2.096670E+06 -1.168343E+05 -4.344981E+03 -3.923980E-09  3.481872E-09
        47  19  1.045442E+04 -1.350089E+06 -1.526356E+04  1.032977E+04 -3.779895E+03  7.227581E+04
        47  20  1.072075E+05 -1.365775E+06  3.871194E+04  4.234813E+03 -1.121240E+04  4.843933E+04
        47  21  8.900046E+04 -1.413152E+06  4.844513E+04 -2.764355E+04 -1.002678E+04  2.460576E+04
        47  22 -9.073216E+04 -1.755049E+06 -1.155577E+05 -1.600790E+04 -3.783687E+03  7.758700E+04
        47  23  1.446069E+04 -1.738811E+06 -5.138319E+04 -3.107257E+03 -1.121391E+04  4.984363E+04
        47  24  3.975071E+03 -1.754964E+06 -3.418998E+04 -1.599113E+04 -1.002517E+04  2.210170E+04
        47  25 -1.919284E+05 -2.159858E+06 -2.158635E+05 -4.232834E+04 -3.787933E+03  8.289472E+04
        47  26 -7.829612E+04 -2.111718E+06 -1.414883E+05 -1.044488E+04 -1.121545E+04  5.124709E+04
        47  27 -8.105838E+04 -2.096670E+06 -1.168334E+05 -4.345139E+03 -1.002366E+04  1.959901E+04
        48   1  6.259034E+04 -1.457441E+06  4.143397E+04 -1.338902E+04  8.052092E+03 -1.670307E+04
        48   2  6.642896E+04 -1.488721E+06  4.349857E+04 -2.230868E+03  7.449871E+03 -7.450500E+03
        48   3  5.139749E+04 -1.525896E+06  3.481812E+04 -1.932474E+04  5.973695E+03  1.800152E+03
        48   4 -9.970887E+03 -1.749102E+06 -2.922305E+04 -1.655113E+04  8.052373E+03 -1.662566E+04
        48   5  2.408593E+03 -1.746112E+06 -1.875511E+04 -2.422933E+03  7.449660E+03 -6.979224E+03
        48   6 -4.154923E+03 -1.749092E+06 -1.930968E+04 -1.654765E+04  5.972917E+03  2.665796E+03
        48   7 -8.253833E+04 -2.040684E+06 -9.988620E+04 -1.971174E+04  8.052654E+03 -1.654828E+04
        48   8 -6.161663E+04 -2.003443E+06 -8.101356E+04 -2.614905E+03  7.449449E+03 -6.508144E+03
        48   9 -5.971098E+04 -1.972242E+06 -7.344108E+04 -1.377156E+04  5.972147E+03  3.531130E+03
        48  10  6.259019E+04 -1.457442E+06  4.143332E+04 -1.338891E+04 -8.927592E-10  1.967058E-09
        48  11  6.642888E+04 -1.488721E+06  4.349836E+04 -2.230824E+03 -4.195199E-09 -7.922124E-10
        48  12  5.139745E+04 -1.525896E+06  3.481805E+04 -1.932475E+04 -2.337171E-09 -7.268714E-10
        48  13 -9.971031E+03 -1.749102E+06 -2.922370E+04 -1.655103E+04 -4.044248E-09  7.023298E-11
        48  14  2.408521E+03 -1.746112E+06 -1.875531E+04 -2.422891E+03 -5.461076E-10 -8.133006E-10
        48  15 -4.154963E+03 -1.749092E+06 -1.930976E+04 -1.654767E+04  1.326366E-09 -1.208230E-09
        48  16 -8.253847E+04 -2.040684E+06 -9.988684E+04 -1.971163E+04 -2.953195E-09 -1.651643E-09
        48  17 -6.161670E+04 -2.003443E+06 -8.101375E+04 -2.614866E+03 -2.385367E-10 -7.538448E-10
        48  18 -5.971102E+04 -1.972242E+06 -7.344117E+04 -1.377158E+04  1.938983E-09  8.074137E-11
        48  19  6.259034E+04 -1.457441E+06  4.143397E+04 -1.338902E+04 -8.052092E+03  1.670307E+04
        48  20  6.642896E+04 -1.488721E+06  4.349857E+04 -2.230868E+03 -7.449871E+03  7.450500E+03
        48  21  5.139749E+04 -1.525896E+06  3.481812E+04 -1.932474E+04 -5.973695E+03 -1.800152E+03
        48  22 -9.970887E+03 -1.749102E+06 -2.922305E+04 -1.655113E+04 -8.052373E+03  1.662566E+04
        48  23  2.408593E+03 -1.746112E+06 -1.875511E+04 -2.422933E+03 -7.449660E+03  6.979224E+03
        48  24 -4.154923E+03 -1.749092E+06 -1.930968E+04 -1.654765E+04 -5.972917E+03 -2.665796E+03
        48  25 -8.253833E+04 -2.040684E+06 -9.988620E+04 -1.971174E+04 -8.052654E+03  1.654828E+04
        48  26 -6.161663E+04 -2.003443E+06 -8.101356E+04 -2.614905E+03 -7.449449E+03  6.508144E+03
        48  27 -5.971098E+04 -1.972242E+06 -7.344108E+04 -1.377156E+04 -5.972147E+03 -3.531130E+03
        49   1  4.313682E+04 -1.581469E+06  2.074651E+04 -1.154805E+04  5.264374E+03  5.822753E+03
        49   2  4.008093E+04 -1.609761E+06  6.729263E+03 -5.540084E+03  3.901424E+03  1.890276E+04
        49   3 -1.709642E+04 -1.653363E+06 -2.936401E+04 -2.927834E+04  1.056703E+03  3.197960E+04
        49   4  9.586451E+02 -1.751182E+06 -2.019250E+04 -1.686294E+04  5.264102E+03  6.098185E+03
        49   5  6.810913E+03 -1.743482E+06 -2.560057E+04 -2.016339E+03  3.900425E+03  1.984979E+04
        49   6 -4.158137E+04 -1.751215E+06 -5.355485E+04 -1.691714E+04  1.055202E+03  3.359893E+04
        49   7 -4.122153E+04 -1.920867E+06 -6.113355E+04 -2.217636E+04  5.263825E+03  6.373541E+03
        49   8 -2.646037E+04 -1.877187E+06 -5.793167E+04  1.506648E+03  3.899436E+03  2.079662E+04
        49   9 -6.606645E+04 -1.849057E+06 -7.774631E+04 -4.557882E+03  1.053765E+03  3.521801E+04
        49  10  4.313678E+04 -1.581469E+06  2.074639E+04 -1.154807E+04 -9.145833E-10  4.774739E-09
        49  11  4.008082E+04 -1.609762E+06  6.728561E+03 -5.540144E+03 -1.017145E-09 -8.359958E-10
        49  12 -1.709670E+04 -1.653365E+06 -2.936594E+04 -2.927837E+04  3.646006E-11 -3.236220E-09
        49  13  9.586053E+02 -1.751182E+06 -2.019262E+04 -1.686296E+04  1.624178E-09  8.791272E-11
        49  14  6.810790E+03 -1.743483E+06 -2.560134E+04 -2.016401E+03 -6.348175E-10 -1.335701E-09
        49  15 -4.158167E+04 -1.751216E+06 -5.355698E+04 -1.691716E+04  3.486944E-10 -1.519406E-09
        49  16 -4.122157E+04 -1.920868E+06 -6.113368E+04 -2.217638E+04  5.840156E-10 -4.386199E-09
        49  17 -2.646050E+04 -1.877188E+06 -5.793251E+04  1.506583E+03  1.411150E-09 -1.561878E-09
        49  18 -6.606679E+04 -1.849058E+06 -7.774865E+04 -4.557912E+03  8.012056E-10  2.544658E-09
        49  19  4.313682E+04 -1.581469E+06  2.074651E+04 -1.154805E+04 -5.264374E+03 -5.822753E+03
        49  20  4.008093E+04 -1.609761E+06  6.729263E+03 -5.540084E+03 -3.901424E+03 -1.890276E+04
        49  21 -1.709642E+04 -1.653363E+06 -2.936401E+04 -2.927834E+04 -1.056703E+03 -3.197960E+04
        49  22  9.586451E+02 -1.751182E+06 -2.019250E+04 -1.686294E+04 -5.264102E+03 -6.098185E+03
        49  23  6.810913E+03 -1.743482E+06 -2.560057E+04 -2.016339E+03 -3.900425E+03 -1.984979E+04
        49  24 -4.158137E+04 -1.751215E+06 -5.355485E+04 -1.691714E+04 -1.055202E+03 -3.359893E+04
        49  25 -4.122153E+04 -1.920867E+06 -6.113355E+04 -2.217636E+04 -5.263825E+03 -6.373541E+03
        49  26 -2.646037E+04 -1.877187E+06 -5.793167E+04  1.506648E+03 -3.899436E+03 -2.079662E+04
        49  27 -6.606645E+04 -1.849057E+06 -7.774631E+04 -4.557882E+03 -1.053765E+03 -3.521801E+04
        50   1 -1.035441E+06 -1.527615E+05 -1.767777E+03 -3.871569E+05  1.363845E+04  6.144713E+03
        50   2 -1.030741E+06 -1.667934E+05 -1.199984E+04 -3.764905E+05  8.500918E+03  6.145937E+03
        50   3 -1.009814E+06 -1.661765E+05 -1.284183E+04 -3.799795E+05  4.184479E+03  3.956819E+03
        50   4 -9.379241E+05 -1.206572E+05  2.390744E+04 -3.654634E+05  1.482767E+04  6.590486E+03
        50   5 -9.473540E+05 -1.367501E+05  9.919276E+03 -3.551344E+05  8.755458E+03  6.241308E+03
        50   6 -9.403733E+05 -1.380108E+05  6.061393E+03 -3.589607E+05  3.504385E+03  3.701910E+03
        50   7 -8.403987E+05 -8.855308E+04  4.958169E+04 -3.437671E+05  1.601707E+04  7.036309E+03
        50   8 -8.639608E+05 -1.067066E+05  3.183775E+04 -3.337759E+05  9.010034E+03  6.336692E+03
        50   9 -8.709280E+05 -1.098445E+05  2.496425E+04 -3.379396E+05  2.824204E+03  3.446963E+03
        50  10 -1.035441E+06 -1.527616E+05 -1.768198E+03 -3.871570E+05  8.744315E-10  4.395854E-10
        50  11 -1.030741E+06 -1.667935E+05 -1.200004E+04 -3.764905E+05  1.778443E-09  1.548993E-09
        50  12 -1.009814E+06 -1.661765E+05 -1.284189E+04 -3.799795E+05  1.706416E-09  1.230729E-09
        50  13 -9.379244E+05 -1.206573E+05  2.390695E+04 -3.654634E+05  1.890314E-09  4.344272E-10
        50  14 -9.473541E+05 -1.367502E+05  9.919058E+03 -3.551345E+05  1.349034E-09  9.179806E-10
        50  15 -9.403733E+05 -1.380108E+05  6.061344E+03 -3.589607E+05  3.126793E-09  8.813880E-10
        50  16 -8.403989E+05 -8.855321E+04  4.958111E+04 -3.437672E+05  2.706570E-09  5.030981E-10
        50  17 -8.639609E+05 -1.067066E+05  3.183753E+04 -3.337759E+05  2.875374E-09  1.158489E-09
        50  18 -8.709280E+05 -1.098446E+05  2.496421E+04 -3.379396E+05 -8.715993E-10  8.940743E-10
        50  19 -1.035441E+06 -1.527615E+05 -1.767777E+03 -3.871569E+05 -1.363845E+04 -6.144713E+03
        50  20 -1.030741E+06 -1.667934E+05 -1.199984E+04 -3.764905E+05 -8.500918E+03 -6.145937E+03
        50  21 -1.009814E+06 -1.661765E+05 -1.284183E+04 -3.799795E+05 -4.184479E+03 -3.956819E+03
        50  22 -9.379241E+05 -1.206572E+05  2.390744E+04 -3.654634E+05 -1.482767E+04 -6.590486E+03
        50  23 -9.473540E+05 -1.367501E+05  9.919276E+03 -3.551344E+05 -8.755458E+03 -6.241308E+03
        50  24 -9.403733E+05 -1.380108E+05  6.061393E+03 -3.589607E+05 -3.504385E+03 -3.701910E+03
        50  25 -8.403987E+05 -8.855308E+04  4.958169E+04 -3.437671E+05 -1.601707E+04 -7.036309E+03
        50  26 -8.639608E+05 -1.067066E+05  3.183775E+04 -3.337759E+05 -9.010034E+03 -6.336692E+03
        50  27 -8.709280E+05 -1.098445E+05  2.496425E+04 -3.379396E+05 -2.824204E+03 -3.446963E+03
        51   1 -9.929725E+05 -1.545050E+05 -8.792145E+03 -3.740802E+05  2.944185E+03  2.799710E+03
        51   2 -9.852841E+05 -1.488011E+05 -8.204706E+03 -3.660843E+05  1.922546E+03  2.073451E+03
        51   3 -9.688612E+05 -1.481133E+05 -6.063860E+03 -3.674586E+05  9.762431E+02  1.145945E+03
        51   4 -9.411011E+05 -1.355071E+05  4.943011E+03 -3.604868E+05  2.858915E+03  2.767738E+03
        51   5 -9.456192E+05 -1.340186E+05  2.334372E+03 -3.554231E+05  1.751365E+03  2.009294E+03
        51   6 -9.413863E+05 -1.375292E+05  1.347166E+03 -3.597295E+05  7.191805E+02  1.049621E+03
        51   7 -8.892269E+05 -1.165091E+05  1.867796E+04 -3.468923E+05  2.773636E+03  2.735763E+03
        51   8 -9.059531E+05 -1.192361E+05  1.287327E+04 -3.447613E+05  1.580173E+03  1.945132E+03
        51   9 -9.139109E+05 -1.269451E+05  8.758052E+03 -3.520001E+05  4.621079E+02  9.532926E+02
        51  10 -9.929725E+05 -1.545050E+05 -8.792176E+03 -3.740802E+05  4.657524E-10  1.018895E-10
        51  11 -9.852841E+05 -1.488011E+05 -8.204721E+03 -3.660843E+05  3.192080E-09 -7.241991E-10
        51  12 -9.688612E+05 -1.481133E+05 -6.063864E+03 -3.674586E+05 -1.224156E-09 -6.707648E-10
        51  13 -9.411011E+05 -1.355071E+05  4.942981E+03 -3.604868E+05  2.412330E-10  5.169010E-10
        51  14 -9.456192E+05 -1.340187E+05  2.334358E+03 -3.554231E+05 -1.720780E-09 -5.636314E-10
        51  15 -9.413863E+05 -1.375292E+05  1.347163E+03 -3.597295E+05 -3.918791E-10  6.639298E-11
        51  16 -8.892270E+05 -1.165091E+05  1.867793E+04 -3.468923E+05 -1.815260E-09 -3.703447E-10
        51  17 -9.059531E+05 -1.192361E+05  1.287326E+04 -3.447613E+05  2.166120E-09 -5.350314E-10
        51  18 -9.139109E+05 -1.269451E+05  8.758050E+03 -3.520001E+05 -4.692010E-10  3.862297E-10
        51  19 -9.929725E+05 -1.545050E+05 -8.792145E+03 -3.740802E+05 -2.944185E+03 -2.799710E+03
        51  20 -9.852841E+05 -1.488011E+05 -8.204706E+03 -3.660843E+05 -1.922546E+03 -2.073451E+03
        51  21 -9.688612E+05 -1.481133E+05 -6.063860E+03 -3.674586E+05 -9.762431E+02 -1.145945E+03
        51  22 -9.411011E+05 -1.355071E+05  4.943011E+03 -3.604868E+05 -2.858915E+03 -2.767738E+03
        51  23 -9.456192E+05 -1.340186E+05  2.334372E+03 -3.554231E+05 -1.751365E+03 -2.009294E+03
        51  24 -9.413863E+05 -1.375292E+05  1.347166E+03 -3.597295E+05 -7.191805E+02 -1.049621E+03
        51  25 -8.892269E+05 -1.165091E+05  1.867796E+04 -3.468923E+05 -2.773636E+03 -2.735763E+03
        51  26 -9.059531E+05 -1.192361E+05  1.287327E+04 -3.447613E+05 -1.580173E+03 -1.945132E+03
        51  27 -9.139109E+05 -1.269451E+05  8.758052E+03 -3.520001E+05 -4.621079E+02 -9.532926E+02
        52   1 -9.493112E+05 -1.401404E+05 -9.879714E+02 -3.620055E+05  8.493573E+02  7.308224E+02
        52   2 -9.411845E+05 -1.320845E+05  1.639680E+03 -3.542810E+05  7.767897E+02  1.494420E+02
        52   3 -9.252316E+05 -1.314065E+05  4.538708E+03 -3.554336E+05  7.103551E+02 -4.482844E+02
        52   4 -9.414781E+05 -1.372517E+05  1.048357E+03 -3.599218E+05  6.456277E+02  6.544857E+02
        52   5 -9.454083E+05 -1.336810E+05  5.123037E+02 -3.554392E+05  5.660833E+02  7.048751E+01
        52   6 -9.415113E+05 -1.374868E+05  2.531311E+02 -3.598338E+05  4.926774E+02 -5.298539E+02
        52   7 -9.336448E+05 -1.343631E+05  3.084697E+03 -3.578380E+05  4.418936E+02  5.781473E+02
        52   8 -9.496321E+05 -1.352775E+05 -6.150820E+02 -3.565973E+05  3.553771E+02 -8.466972E+00
        52   9 -9.577907E+05 -1.435671E+05 -4.032493E+03 -3.642339E+05  2.750048E+02 -6.114216E+02
        52  10 -9.493112E+05 -1.401404E+05 -9.879738E+02 -3.620055E+05 -7.202617E-10 -1.162197E-10
        52  11 -9.411845E+05 -1.320845E+05  1.639679E+03 -3.542810E+05  1.787573E-09 -5.748617E-11
        52  12 -9.252316E+05 -1.314065E+05  4.538706E+03 -3.554336E+05 -1.304337E-09  3.914672E-10
        52  13 -9.414781E+05 -1.372517E+05  1.048355E+03 -3.599218E+05  4.117338E-11 -2.847755E-11
        52  14 -9.454083E+05 -1.336810E+05  5.123031E+02 -3.554392E+05 -4.185931E-10 -1.455136E-10
        52  15 -9.415113E+05 -1.374868E+05  2.531302E+02 -3.598338E+05 -1.009027E-09  4.938153E-10
        52  16 -9.336448E+05 -1.343631E+05  3.084696E+03 -3.578380E+05 -2.014169E-09  1.486835E-10
        52  17 -9.496321E+05 -1.352775E+05 -6.150823E+02 -3.565973E+05 -1.238275E-09 -7.818522E-10
        52  18 -9.577907E+05 -1.435671E+05 -4.032494E+03 -3.642339E+05  9.038373E-10  7.575370E-10
        52  19 -9.493112E+05 -1.401404E+05 -9.879714E+02 -3.620055E+05 -8.493573E+02 -7.308224E+02
        52  20 -9.411845E+05 -1.320845E+05  1.639680E+03 -3.542810E+05 -7.767897E+02 -1.494420E+02
        52  21 -9.252316E+05 -1.314065E+05  4.538708E+03 -3.554336E+05 -7.103551E+02  4.482844E+02
        52  22 -9.414781E+05 -1.372517E+05  1.048357E+03 -3.599218E+05 -6.456277E+02 -6.544857E+02
        52  23 -9.454083E+05 -1.336810E+05  5.123037E+02 -3.554392E+05 -5.660833E+02 -7.048751E+01
        52  24 -9.415113E+05 -1.374868E+05  2.531311E+02 -3.598338E+05 -4.926774E+02  5.298539E+02
        52  25 -9.336448E+05 -1.343631E+05  3.084697E+03 -3.578380E+05 -4.418936E+02 -5.781473E+02
        52  26 -9.496321E+05 -1.352775E+05 -6.150820E+02 -3.565973E+05 -3.553771E+02  8.466972E+00
        52  27 -9.577907E+05 -1.435671E+05 -4.032493E+03 -3.642339E+05 -2.750048E+02  6.114216E+02
        53   1 -9.055486E+05 -1.238903E+05  9.801805E+03 -3.500394E+05  7.819461E+02 -7.576142E+02
        53   2 -8.974703E+05 -1.156702E+05  1.275311E+04 -3.424460E+05  9.676321E+02 -1.255347E+03
        53   3 -8.817970E+05 -1.150191E+05  1.571007E+04 -3.435552E+05  1.151834E+03 -1.748947E+03
        53   4 -9.415497E+05 -1.374313E+05  1.644596E+02 -3.598320E+05  5.689259E+02 -8.374440E+02
        53   5 -9.453499E+05 -1.336675E+05 -2.819892E+00 -3.554730E+05  7.563659E+02 -1.334533E+03
        53   6 -9.415558E+05 -1.374731E+05 -1.658103E+02 -3.598165E+05  9.423219E+02 -1.827489E+03
        53   7 -9.775492E+05 -1.509720E+05 -9.472905E+03 -3.696240E+05  3.559213E+02 -9.172679E+02
        53   8 -9.932273E+05 -1.516646E+05 -1.275891E+04 -3.684990E+05  5.451182E+02 -1.413712E+03
        53   9 -1.001311E+06 -1.599269E+05 -1.604207E+04 -3.760764E+05  7.328314E+02 -1.906024E+03
        53  10 -9.055486E+05 -1.238903E+05  9.801803E+03 -3.500394E+05 -1.242727E-09  1.252038E-09
        53  11 -8.974703E+05 -1.156702E+05  1.275310E+04 -3.424460E+05 -1.872880E-09 -3.664004E-10
        53  12 -8.817970E+05 -1.150191E+05  1.571007E+04 -3.435552E+05  2.396036E-09 -1.204695E-09
        53  13 -9.415497E+05 -1.374313E+05  1.644576E+02 -3.598320E+05  7.630339E-11  1.042784E-09
        53  14 -9.453499E+05 -1.336675E+05 -2.824312E+00 -3.554730E+05 -3.716500E-09 -1.099446E-09
        53  15 -9.415558E+05 -1.374731E+05 -1.658183E+02 -3.598165E+05 -1.303694E-09 -7.147618E-10
        53  16 -9.775492E+05 -1.509720E+05 -9.472907E+03 -3.696240E+05  5.953681E-10  2.017028E-10
        53  17 -9.932273E+05 -1.516646E+05 -1.275892E+04 -3.684990E+05 -1.209665E-09 -7.588114E-10
        53  18 -1.001311E+06 -1.599269E+05 -1.604208E+04 -3.760764E+05  2.609894E-10 -7.066380E-10
        53  19 -9.055486E+05 -1.238903E+05  9.801805E+03 -3.500394E+05 -7.819461E+02  7.576142E+02
        53  20 -8.974703E+05 -1.156702E+05  1.275311E+04 -3.424460E+05 -9.676321E+02  1.255347E+03
        53  21 -8.817970E+05 -1.150191E+05  1.571007E+04 -3.435552E+05 -1.151834E+03  1.748947E+03
        53  22 -9.415497E+05 -1.374313E+05  1.644596E+02 -3.598320E+05 -5.689259E+02  8.374440E+02
        53  23 -9.453499E+05 -1.336675E+05 -2.819892E+00 -3.554730E+05 -7.563659E+02  1.334533E+03
        53  24 -9.415558E+05 -1.374731E+05 -1.658103E+02 -3.598165E+05 -9.423219E+02  1.827489E+03
        53  25 -9.775492E+05 -1.509720E+05 -9.472905E+03 -3.696240E+05 -3.559213E+02  9.172679E+02
        53  26 -9.932273E+05 -1.516646E+05 -1.275891E+04 -3.684990E+05 -5.451182E+02  1.413712E+03
        53  27 -1.001311E+06 -1.599269E+05 -1.604207E+04 -3.760764E+05 -7.328314E+02  1.906024E+03
        54   1 -8.625496E+05 -1.076756E+05  2.085286E+04 -3.382639E+05  1.294109E+03 -2.022191E+03
        54   2 -8.547327E+05 -9.967980E+04  2.358985E+04 -3.309171E+05  1.736200E+03 -2.408955E+03
        54   3 -8.396720E+05 -9.916339E+04  2.609384E+04 -3.319328E+05  2.173214E+03 -2.781841E+03
        54   4 -9.416266E+05 -1.373947E+05 -2.572456E+02 -3.597633E+05  1.084553E+03 -2.100766E+03
        54   5 -9.452571E+05 -1.337173E+05 -5.286955E+02 -3.555586E+05  1.532515E+03 -2.485355E+03
        54   6 -9.416448E+05 -1.375205E+05 -1.037783E+03 -3.597164E+05  1.975393E+03 -2.856068E+03
        54   7 -1.020698E+06 -1.671135E+05 -2.136790E+04 -3.812603E+05  8.750265E+02 -2.179330E+03
        54   8 -1.035773E+06 -1.677542E+05 -2.464792E+04 -3.801968E+05  1.328862E+03 -2.561744E+03
        54   9 -1.043607E+06 -1.758769E+05 -2.817025E+04 -3.874958E+05  1.777608E+03 -2.930281E+03
        54  10 -8.625496E+05 -1.076756E+05  2.085285E+04 -3.382639E+05 -2.256657E-10 -1.309716E-09
        54  11 -8.547327E+05 -9.967980E+04  2.358983E+04 -3.309171E+05 -3.845122E-09 -4.782773E-10
        54  12 -8.396720E+05 -9.916340E+04  2.609382E+04 -3.319328E+05  1.829368E-09 -1.436506E-09
        54  13 -9.416266E+05 -1.373948E+05 -2.572561E+02 -3.597633E+05 -8.011041E-10 -7.373967E-10
        54  14 -9.452571E+05 -1.337173E+05 -5.287115E+02 -3.555586E+05 -1.111861E-09 -5.142405E-10
        54  15 -9.416448E+05 -1.375205E+05 -1.037806E+03 -3.597164E+05 -6.087966E-10 -1.209107E-09
        54  16 -1.020698E+06 -1.671135E+05 -2.136791E+04 -3.812603E+05  9.838093E-10  3.453044E-10
        54  17 -1.035773E+06 -1.677542E+05 -2.464794E+04 -3.801968E+05  1.132747E-10 -3.675319E-10
        54  18 -1.043607E+06 -1.758769E+05 -2.817027E+04 -3.874958E+05  1.108395E-09 -1.330119E-09
        54  19 -8.625496E+05 -1.076756E+05  2.085286E+04 -3.382639E+05 -1.294109E+03  2.022191E+03
        54  20 -8.547327E+05 -9.967980E+04  2.358985E+04 -3.309171E+05 -1.736200E+03  2.408955E+03
        54  21 -8.396720E+05 -9.916339E+04  2.609384E+04 -3.319328E+05 -2.173214E+03  2.781841E+03
        54  22 -9.416266E+05 -1.373947E+05 -2.572456E+02 -3.597633E+05 -1.084553E+03  2.100766E+03
        54  23 -9.452571E+05 -1.337173E+05 -5.286955E+02 -3.555586E+05 -1.532515E+03  2.485355E+03
        54  24 -9.416448E+05 -1.375205E+05 -1.037783E+03 -3.597164E+05 -1.975393E+03  2.856068E+03
        54  25 -1.020698E+06 -1.671135E+05 -2.136790E+04 -3.812603E+05 -8.750265E+02  2.179330E+03
        54  26 -1.035773E+06 -1.677542E+05 -2.464792E+04 -3.801968E+05 -1.328862E+03  2.561744E+03
        54  27 -1.043607E+06 -1.758769E+05 -2.817025E+04 -3.874958E+05 -1.777608E+03  2.930281E+03
        55   1 -8.212819E+05 -9.208285E+04  3.076674E+04 -3.270311E+05  2.484110E+03 -2.982475E+03
        55   2 -8.138194E+05 -8.427272E+04  3.253559E+04 -3.199308E+05  3.872879E+03 -2.985978E+03
        55   3 -8.000921E+05 -8.473932E+04  3.303418E+04 -3.204213E+05  5.241855E+03 -2.936130E+03
        55   4 -9.418050E+05 -1.372781E+05 -1.362190E+03 -3.597031E+05  2.276550E+03 -3.060378E+03
        55   5 -9.450099E+05 -1.336653E+05 -2.428779E+03 -3.557097E+05  3.687795E+03 -3.055487E+03
        55   6 -9.419550E+05 -1.383342E+05 -4.783711E+03 -3.593074E+05  5.079221E+03 -2.997250E+03
        55   7 -1.062314E+06 -1.824727E+05 -3.349247E+04 -3.923695E+05  2.069035E+03 -3.138264E+03
        55   8 -1.076184E+06 -1.830570E+05 -3.739469E+04 -3.914819E+05  3.502754E+03 -3.124981E+03
        55   9 -1.083798E+06 -1.919278E+05 -4.260336E+04 -3.981854E+05  4.916626E+03 -3.058355E+03
        55  10 -8.212819E+05 -9.208286E+04  3.076671E+04 -3.270311E+05 -7.525865E-10 -1.680855E-09
        55  11 -8.138194E+05 -8.427274E+04  3.253554E+04 -3.199308E+05  1.980606E-11  5.959766E-11
        55  12 -8.000921E+05 -8.473934E+04  3.303411E+04 -3.204213E+05 -2.021096E-09 -3.396618E-10
        55  13 -9.418050E+05 -1.372781E+05 -1.362217E+03 -3.597031E+05 -9.404317E-10 -1.420384E-09
        55  14 -9.450100E+05 -1.336653E+05 -2.428823E+03 -3.557097E+05 -3.985249E-09 -4.202094E-10
        55  15 -9.419550E+05 -1.383342E+05 -4.783776E+03 -3.593074E+05 -6.179556E-09 -5.010480E-10
        55  16 -1.062314E+06 -1.824727E+05 -3.349249E+04 -3.923695E+05  3.381892E-10 -1.269766E-09
        55  17 -1.076184E+06 -1.830570E+05 -3.739474E+04 -3.914819E+05 -2.387183E-09 -8.136097E-10
        55  18 -1.083799E+06 -1.919278E+05 -4.260342E+04 -3.981854E+05 -1.806337E-09 -5.063861E-10
        55  19 -8.212819E+05 -9.208285E+04  3.076674E+04 -3.270311E+05 -2.484110E+03  2.982475E+03
        55  20 -8.138194E+05 -8.427272E+04  3.253559E+04 -3.199308E+05 -3.872879E+03  2.985978E+03
        55  21 -8.000921E+05 -8.473932E+04  3.303418E+04 -3.204213E+05 -5.241855E+03  2.936130E+03
        55  22 -9.418050E+05 -1.372781E+05 -1.362190E+03 -3.597031E+05 -2.276550E+03  3.060378E+03
        55  23 -9.450099E+05 -1.336653E+05 -2.428779E+03 -3.557097E+05 -3.687795E+03  3.055487E+03
        55  24 -9.419550E+05 -1.383342E+05 -4.783711E+03 -3.593074E+05 -5.079221E+03  2.997250E+03
        55  25 -1.062314E+06 -1.824727E+05 -3.349247E+04 -3.923695E+05 -2.069035E+03  3.138264E+03
        55  26 -1.076184E+06 -1.830570E+05 -3.739469E+04 -3.914819E+05 -3.502754E+03  3.124981E+03
        55  27 -1.083798E+06 -1.919278E+05 -4.260336E+04 -3.981854E+05 -4.916626E+03  3.058355E+03
        56   1 -7.825659E+05 -7.780386E+04  3.633991E+04 -3.175072E+05  6.355895E+03 -2.876507E+03
        56   2 -7.751836E+05 -6.834656E+04  3.451105E+04 -3.094941E+05  1.183713E+04 -1.304772E+03
        56   3 -7.664970E+05 -7.693071E+04  2.553754E+04 -3.058187E+05  1.715457E+04  7.037874E+02
        56   4 -9.425540E+05 -1.368861E+05 -6.108584E+03 -3.599461E+05  6.080290E+03 -2.980051E+03
        56   5 -9.438331E+05 -1.324013E+05 -1.053637E+04 -3.560677E+05  1.174635E+04 -1.338991E+03
        56   6 -9.438461E+05 -1.459967E+05 -2.225693E+04 -3.565267E+05  1.724851E+04  7.388882E+02
        56   7 -1.102517E+06 -1.959669E+05 -4.855919E+04 -4.023751E+05  5.804764E+03 -3.083566E+03
        56   8 -1.112455E+06 -1.964542E+05 -5.558628E+04 -4.026298E+05  1.165558E+04 -1.373200E+03
        56   9 -1.121165E+06 -2.150603E+05 -7.005432E+04 -4.072216E+05  1.734242E+04  7.739769E+02
        56  10 -7.825659E+05 -7.780388E+04  3.633982E+04 -3.175072E+05 -2.508376E-10 -9.760013E-10
        56  11 -7.751838E+05 -6.834660E+04  3.451079E+04 -3.094941E+05  2.630552E-09 -5.451427E-10
        56  12 -7.664973E+05 -7.693079E+04  2.553699E+04 -3.058187E+05  1.664025E-09 -1.994276E-10
        56  13 -9.425540E+05 -1.368861E+05 -6.108670E+03 -3.599461E+05 -3.059580E-09 -5.857564E-10
        56  14 -9.438333E+05 -1.324013E+05 -1.053663E+04 -3.560677E+05  7.788069E-10 -4.882105E-10
        56  15 -9.438464E+05 -1.459967E+05 -2.225749E+04 -3.565267E+05 -6.630403E-10 -4.867521E-10
        56  16 -1.102517E+06 -1.959669E+05 -4.855927E+04 -4.023751E+05 -2.107626E-09 -3.161808E-10
        56  17 -1.112455E+06 -1.964542E+05 -5.558654E+04 -4.026298E+05 -6.624193E-10 -4.302736E-10
        56  18 -1.121166E+06 -2.150604E+05 -7.005489E+04 -4.072216E+05 -3.419928E-09  2.205420E-10
        56  19 -7.825659E+05 -7.780386E+04  3.633991E+04 -3.175072E+05 -6.355895E+03  2.876507E+03
        56  20 -7.751836E+05 -6.834656E+04  3.451105E+04 -3.094941E+05 -1.183713E+04  1.304772E+03
        56  21 -7.664970E+05 -7.693071E+04  2.553754E+04 -3.058187E+05 -1.715457E+04 -7.037874E+02
        56  22 -9.425540E+05 -1.368861E+05 -6.108584E+03 -3.599461E+05 -6.080290E+03  2.980051E+03
        56  23 -9.438331E+05 -1.324013E+05 -1.053637E+04 -3.560677E+05 -1.174635E+04  1.338991E+03
        56  24 -9.438461E+05 -1.459967E+05 -2.225693E+04 -3.565267E+05 -1.724851E+04 -7.388882E+02
        56  25 -1.102517E+06 -1.959669E+05 -4.855919E+04 -4.023751E+05 -5.804764E+03  3.083566E+03
        56  26 -1.112455E+06 -1.964542E+05 -5.558628E+04 -4.026298E+05 -1.165558E+04  1.373200E+03
        56  27 -1.121165E+06 -2.150603E+05 -7.005432E+04 -4.072216E+05 -1.734242E+04 -7.739769E+02
        57   1 -7.462626E+05 -6.780876E+04  2.451057E+04 -3.175479E+05  2.268255E+04  1.747756E+03
        57   2 -7.366053E+05 -3.988250E+04  9.406910E+03 -2.976554E+05  4.533167E+04  9.804285E+03
        57   3 -7.616585E+05 -1.168424E+05 -4.967046E+04 -2.582499E+05  6.623179E+04  2.251251E+04
        57   4 -9.475304E+05 -1.343003E+05 -2.728060E+04 -3.629066E+05  2.151560E+04  1.309471E+03
        57   5 -9.355130E+05 -1.206735E+05 -4.464990E+04 -3.579979E+05  4.614106E+04  1.010790E+04
        57   6 -9.586109E+05 -2.123455E+05 -1.075717E+05 -3.335730E+05  6.901719E+04  2.355736E+04
        57   7 -1.148759E+06 -2.007915E+05 -7.907500E+04 -4.082530E+05  2.034907E+04  8.712990E+02
        57   8 -1.134382E+06 -2.014603E+05 -9.871021E+04 -4.183223E+05  4.695016E+04  1.041139E+04
        57   9 -1.155524E+06 -3.078382E+05 -1.654766E+05 -4.088718E+05  7.180161E+04  2.460160E+04
        57  10 -7.462632E+05 -6.780890E+04  2.450960E+04 -3.175480E+05 -4.628806E-11 -4.927650E-10
        57  11 -7.366076E+05 -3.988315E+04  9.402862E+03 -2.976557E+05 -8.200607E-10 -7.260725E-10
        57  12 -7.616634E+05 -1.168441E+05 -4.967967E+04 -2.582511E+05 -8.108092E-10 -7.203117E-11
        57  13 -9.475309E+05 -1.343004E+05 -2.728148E+04 -3.629066E+05  7.931262E-10  3.323977E-10
        57  14 -9.355153E+05 -1.206742E+05 -4.465410E+04 -3.579983E+05  9.499189E-10  9.765356E-10
        57  15 -9.586161E+05 -2.123474E+05 -1.075818E+05 -3.335743E+05  1.118122E-09 -1.096500E-10
        57  16 -1.148759E+06 -2.007916E+05 -7.907578E+04 -4.082530E+05  7.416478E-10 -6.916217E-11
        57  17 -1.134384E+06 -2.014610E+05 -9.871457E+04 -4.183227E+05  3.853804E-09 -1.184035E-09
        57  18 -1.155530E+06 -3.078402E+05 -1.654875E+05 -4.088733E+05 -1.564137E-09  6.338990E-10
        57  19 -7.462626E+05 -6.780876E+04  2.451057E+04 -3.175479E+05 -2.268255E+04 -1.747756E+03
        57  20 -7.366053E+05 -3.988250E+04  9.406910E+03 -2.976554E+05 -4.533167E+04 -9.804285E+03
        57  21 -7.616585E+05 -1.168424E+05 -4.967046E+04 -2.582499E+05 -6.623179E+04 -2.251251E+04
        57  22 -9.475304E+05 -1.343003E+05 -2.728060E+04 -3.629066E+05 -2.151560E+04 -1.309471E+03
        57  23 -9.355130E+05 -1.206735E+05 -4.464990E+04 -3.579979E+05 -4.614106E+04 -1.010790E+04
        57  24 -9.586109E+05 -2.123455E+05 -1.075717E+05 -3.335730E+05 -6.901719E+04 -2.355736E+04
        57  25 -1.148759E+06 -2.007915E+05 -7.907500E+04 -4.082530E+05 -2.034907E+04 -8.712990E+02
        57  26 -1.134382E+06 -2.014603E+05 -9.871021E+04 -4.183223E+05 -4.695016E+04 -1.041139E+04
        57  27 -1.155524E+06 -3.078382E+05 -1.654766E+05 -4.088718E+05 -7.180161E+04 -2.460160E+04
        58   1 -3.706731E+04  4.980012E+04  6.327666E+04  1.444551E+04  4.327081E+04  1.006888E+00
        58   2 -4.593210E+04 -7.899978E+03  2.757812E+04  4.092632E+03  2.835312E+04  1.869218E-01
        58   3 -3.706918E+04 -2.462870E+03  1.737751E+04 -6.260257E+03  1.343514E+04 -1.354829E-01
        58   4 -3.706754E+04  4.979973E+04  6.327660E+04  1.978774E-08  4.327081E+04 -7.069165E-10
        58   5 -4.593212E+04 -7.900010E+03  2.757811E+04  1.237166E-08  2.835312E+04 -9.571903E-10
        58   6 -3.706922E+04 -2.462943E+03  1.737750E+04  5.495494E-09  1.343514E+04  8.070708E-10
        58   7 -3.706731E+04  4.980012E+04  6.327666E+04 -1.444551E+04  4.327081E+04 -1.006888E+00
        58   8 -4.593210E+04 -7.899978E+03  2.757812E+04 -4.092632E+03  2.835312E+04 -1.869218E-01
        58   9 -3.706918E+04 -2.462870E+03  1.737751E+04  6.260257E+03  1.343514E+04  1.354829E-01
        58  10 -3.706932E+04  4.979962E+04  6.327314E+04  1.444551E+04  7.355600E-10 -2.832763E-10
        58  11 -4.593297E+04 -7.900194E+03  2.757661E+04  4.092632E+03  4.534104E-10 -5.471359E-10
        58  12 -3.706937E+04 -2.462918E+03  1.737717E+04 -6.260257E+03  2.269668E-09  1.997332E-10
        58  13 -3.706955E+04  4.979923E+04  6.327308E+04 -6.080903E-09  1.071589E-09 -1.415880E-10
        58  14 -4.593299E+04 -7.900226E+03  2.757660E+04 -4.851919E-09  1.054752E-09 -2.812300E-10
        58  15 -3.706941E+04 -2.462992E+03  1.737716E+04 -6.854979E-09 -7.790410E-10  1.166132E-10
        58  16 -3.706932E+04  4.979962E+04  6.327314E+04 -1.444551E+04 -1.274657E-09 -1.863949E-12
        58  17 -4.593297E+04 -7.900194E+03  2.757661E+04 -4.092632E+03  3.791740E-11 -5.091064E-12
        58  18 -3.706937E+04 -2.462918E+03  1.737717E+04  6.260257E+03 -1.811183E-09  4.056534E-11
        58  19 -3.706731E+04  4.980012E+04  6.327666E+04  1.444551E+04 -4.327081E+04 -1.006888E+00
        58  20 -4.593210E+04 -7.899978E+03  2.757812E+04  4.092632E+03 -2.835312E+04 -1.869218E-01
        58  21 -3.706918E+04 -2.462870E+03  1.737751E+04 -6.260257E+03 -1.343514E+04  1.354829E-01
        58  22 -3.706754E+04  4.979973E+04  6.327660E+04 -6.102215E-09 -4.327081E+04  4.246965E-10
        58  23 -4.593212E+04 -7.900010E+03  2.757811E+04 -2.207632E-08 -2.835312E+04  3.992306E-10
        58  24 -3.706922E+04 -2.462943E+03  1.737750E+04 -7.357952E-09 -1.343514E+04 -5.723905E-10
        58  25 -3.706731E+04  4.980012E+04  6.327666E+04 -1.444551E+04 -4.327081E+04  1.006888E+00
        58  26 -4.593210E+04 -7.899978E+03  2.757812E+04 -4.092632E+03 -2.835312E+04  1.869218E-01
        58  27 -3.706918E+04 -2.462870E+03  1.737751E+04  6.260257E+03 -1.343514E+04 -1.354829E-01
        59   1 -4.050555E+04  5.596668E+03  1.420838E+04  1.480062E+03  1.070830E+04  2.553013E-02
        59   2 -4.163717E+04 -9.082999E+02  7.135029E+03  3.681693E+02  7.037696E+03  4.173794E-03
        59   3 -4.050577E+04 -2.733258E+02  4.236572E+03 -7.437240E+02  3.367104E+03 -4.033858E-03
        59   4 -4.050555E+04  5.596664E+03  1.420838E+04 -2.433288E-09  1.070830E+04  1.097147E-09
        59   5 -4.163717E+04 -9.083002E+02  7.135029E+03 -9.854540E-09  7.037696E+03 -1.841666E-10
        59   6 -4.050577E+04 -2.733268E+02  4.236572E+03  1.557154E-08  3.367104E+03 -4.223370E-10
        59   7 -4.050555E+04  5.596668E+03  1.420838E+04 -1.480062E+03  1.070830E+04 -2.553013E-02
        59   8 -4.163717E+04 -9.082999E+02  7.135029E+03 -3.681693E+02  7.037696E+03 -4.173795E-03
        59   9 -4.050577E+04 -2.733258E+02  4.236572E+03  7.437240E+02  3.367104E+03  4.033857E-03
        59  10 -4.050567E+04  5.596637E+03  1.420817E+04  1.480062E+03  1.220071E-09  4.107239E-10
        59  11 -4.163722E+04 -9.083132E+02  7.134936E+03  3.681693E+02  1.303736E-10 -1.692164E-10
        59  12 -4.050578E+04 -2.733288E+02  4.236551E+03 -7.437240E+02  4.200938E-10 -3.754151E-10
        59  13 -4.050567E+04  5.596633E+03  1.420817E+04 -1.106488E-08 -2.168379E-09  2.495249E-10
        59  14 -4.163722E+04 -9.083135E+02  7.134936E+03 -7.717987E-09 -2.324707E-11 -5.995787E-11
        59  15 -4.050578E+04 -2.733299E+02  4.236551E+03 -6.342637E-11  2.305091E-09 -4.003664E-10
        59  16 -4.050567E+04  5.596637E+03  1.420817E+04 -1.480062E+03 -1.214951E-09  8.355729E-11
        59  17 -4.163722E+04 -9.083132E+02  7.134936E+03 -3.681693E+02  9.233419E-10  3.686304E-11
        59  18 -4.050578E+04 -2.733288E+02  4.236551E+03  7.437240E+02 -1.294405E-09 -4.236218E-10
        59  19 -4.050555E+04  5.596668E+03  1.420838E+04  1.480062E+03 -1.070830E+04 -2.553013E-02
        59  20 -4.163717E+04 -9.082999E+02  7.135029E+03  3.681693E+02 -7.037696E+03 -4.173795E-03
        59  21 -4.050577E+04 -2.733258E+02  4.236572E+03 -7.437240E+02 -3.367104E+03  4.033857E-03
        59  22 -4.050555E+04  5.596664E+03  1.420838E+04 -1.969619E-08 -1.070830E+04 -6.007341E-10
        59  23 -4.163717E+04 -9.083002E+02  7.135029E+03 -2.281261E-08 -7.037696E+03  5.817349E-11
        59  24 -4.050577E+04 -2.733268E+02  4.236572E+03  7.456556E-09 -3.367104E+03 -3.776255E-10
        59  25 -4.050555E+04  5.596668E+03  1.420838E+04 -1.480062E+03 -1.070830E+04  2.553013E-02
        59  26 -4.163717E+04 -9.082999E+02  7.135029E+03 -3.681693E+02 -7.037696E+03  4.173795E-03
        59  27 -4.050577E+04 -2.733258E+02  4.236572E+03  7.437240E+02 -3.367104E+03 -4.033858E-03
        60   1 -4.093942E+04  6.203827E+02  3.299643E+03  1.268594E+02  2.699268E+03  5.515961E-04
        60   2 -4.109518E+04 -1.050062E+02  1.704499E+03  1.571574E+01  1.841040E+03  4.660794E-05
        60   3 -4.093945E+04 -3.140603E+01  8.678614E+02 -9.542631E+01  9.828257E+02 -1.510756E-04
        60   4 -4.093942E+04  6.203826E+02  3.299643E+03  2.142293E-08  2.699268E+03  1.005889E-10
        60   5 -4.109518E+04 -1.050062E+02  1.704499E+03  1.107176E-08  1.841040E+03  9.144236E-10
        60   6 -4.093945E+04 -3.140604E+01  8.678614E+02  1.472081E-08  9.828257E+02  9.475639E-10
        60   7 -4.093942E+04  6.203827E+02  3.299643E+03 -1.268594E+02  2.699268E+03 -5.515959E-04
        60   8 -4.109518E+04 -1.050062E+02  1.704499E+03 -1.571574E+01  1.841040E+03 -4.660611E-05
        60   9 -4.093945E+04 -3.140603E+01  8.678614E+02  9.542631E+01  9.828257E+02  1.510775E-04
        60  10 -4.093942E+04  6.203807E+02  3.299629E+03  1.268594E+02 -1.254089E-09  1.573559E-10
        60  11 -4.109519E+04 -1.050071E+02  1.704492E+03  1.571574E+01  8.835541E-10  8.827683E-10
        60  12 -4.093945E+04 -3.140628E+01  8.678596E+02 -9.542631E+01  1.357407E-09 -1.707237E-10
        60  13 -4.093942E+04  6.203807E+02  3.299629E+03 -3.023628E-11 -2.140002E-09  3.678644E-11
        60  14 -4.109519E+04 -1.050071E+02  1.704492E+03 -1.857560E-09  2.153916E-09  7.881325E-10
        60  15 -4.093945E+04 -3.140630E+01  8.678596E+02  1.700026E-09  1.107944E-09 -1.842784E-10
        60  16 -4.093942E+04  6.203807E+02  3.299629E+03 -1.268594E+02 -3.386352E-10 -8.688713E-11
        60  17 -4.109519E+04 -1.050071E+02  1.704492E+03 -1.571574E+01 -3.527304E-09  6.755999E-10
        60  18 -4.093945E+04 -3.140628E+01  8.678596E+02  9.542631E+01 -1.623957E-09 -2.010231E-10
        60  19 -4.093942E+04  6.203827E+02  3.299643E+03  1.268594E+02 -2.699268E+03 -5.515957E-04
        60  20 -4.109518E+04 -1.050062E+02  1.704499E+03  1.571574E+01 -1.841040E+03 -4.660612E-05
        60  21 -4.093945E+04 -3.140603E+01  8.678614E+02 -9.542631E+01 -9.828257E+02  1.510753E-04
        60  22 -4.093942E+04  6.203826E+02  3.299643E+03  1.728680E-08 -2.699268E+03 -2.947404E-11
        60  23 -4.109518E+04 -1.050062E+02  1.704499E+03 -6.171299E-09 -1.841040E+03  6.532619E-10
        60  24 -4.093945E+04 -3.140604E+01  8.678614E+02  1.021816E-08 -9.828257E+02 -1.314525E-09
        60  25 -4.093942E+04  6.203827E+02  3.299643E+03 -1.268594E+02 -2.699268E+03  5.515958E-04
        60  26 -4.109518E+04 -1.050062E+02  1.704499E+03 -1.571574E+01 -1.841040E+03  4.660740E-05
        60  27 -4.093945E+04 -3.140603E+01  8.678614E+02  9.542631E+01 -9.828257E+02 -1.510779E-04
        61   1 -4.100555E+04  6.750995E+01  5.626890E+02 -2.719052E+00  8.547659E+02 -3.743947E-06
        61   2 -4.101259E+04 -6.461960E+00  1.485868E+01 -1.134046E+01  8.463602E+02 -1.546239E-05
        61   3 -4.100556E+04 -2.855303E+01 -5.145239E+02 -1.996199E+01  8.379543E+02 -2.694463E-05
        61   4 -4.100555E+04  6.750995E+01  5.626890E+02  1.373361E-08  8.547659E+02 -1.732638E-10
        61   5 -4.101259E+04 -6.461960E+00  1.485868E+01 -4.237530E-09  8.463602E+02 -1.433038E-09
        61   6 -4.100556E+04 -2.855303E+01 -5.145239E+02  2.140807E-08  8.379543E+02  5.547677E-10
        61   7 -4.100555E+04  6.750995E+01  5.626890E+02  2.719052E+00  8.547659E+02  3.743590E-06
        61   8 -4.101259E+04 -6.461960E+00  1.485868E+01  1.134046E+01  8.463602E+02  1.545950E-05
        61   9 -4.100556E+04 -2.855303E+01 -5.145239E+02  1.996199E+01  8.379543E+02  2.694575E-05
        61  10 -4.100555E+04  6.750976E+01  5.626877E+02 -2.719052E+00 -9.852745E-10 -4.146799E-10
        61  11 -4.101259E+04 -6.462152E+00  1.485734E+01 -1.134046E+01 -1.356463E-09  1.313253E-10
        61  12 -4.100556E+04 -2.855322E+01 -5.145253E+02 -1.996199E+01  1.157667E-09 -6.181100E-10
        61  13 -4.100555E+04  6.750976E+01  5.626877E+02  1.809382E-08 -1.577547E-12 -4.630633E-10
        61  14 -4.101259E+04 -6.462152E+00  1.485734E+01 -2.362018E-08  2.161324E-09  5.551871E-11
        61  15 -4.100556E+04 -2.855322E+01 -5.145253E+02 -7.178674E-09 -4.200083E-10 -3.676316E-10
        61  16 -4.100555E+04  6.750976E+01  5.626877E+02  2.719052E+00 -1.179206E-09 -5.177673E-10
        61  17 -4.101259E+04 -6.462152E+00  1.485734E+01  1.134046E+01 -1.051866E-09 -2.167015E-11
        61  18 -4.100556E+04 -2.855322E+01 -5.145253E+02  1.996199E+01 -1.423372E-10 -1.246362E-10
        61  19 -4.100555E+04  6.750995E+01  5.626890E+02 -2.719052E+00 -8.547659E+02  3.743134E-06
        61  20 -4.101259E+04 -6.461960E+00  1.485868E+01 -1.134046E+01 -8.463602E+02  1.546268E-05
        61  21 -4.100556E+04 -2.855303E+01 -5.145239E+02 -1.996199E+01 -8.379543E+02  2.694340E-05
        61  22 -4.100555E+04  6.750995E+01  5.626890E+02  1.383894E-08 -8.547659E+02 -7.524245E-10
        61  23 -4.101259E+04 -6.461960E+00  1.485868E+01 -4.232436E-09 -8.463602E+02  1.545783E-09
        61  24 -4.100556E+04 -2.855303E+01 -5.145239E+02  1.377442E-08 -8.379543E+02 -1.290365E-09
        61  25 -4.100555E+04  6.750995E+01  5.626890E+02  2.719052E+00 -8.547659E+02 -3.744651E-06
        61  26 -4.101259E+04 -6.461960E+00  1.485868E+01  1.134046E+01 -8.463602E+02 -1.545960E-05
        61  27 -4.100556E+04 -2.855303E+01 -5.145239E+02  1.996199E+01 -8.379543E+02 -2.694597E-05
        62   1 -4.105113E+04  1.800324E+01 -8.190648E+02 -5.008901E+01  9.583217E+02 -7.732164E-05
        62   2 -4.095565E+04  4.761839E+01 -1.649816E+03 -1.704102E+01  1.780023E+03 -4.886219E-05
        62   3 -4.105115E+04 -2.587037E+02 -3.099537E+03  1.600699E+01  2.601724E+03  6.708478E-05
        62   4 -4.105113E+04  1.800324E+01 -8.190648E+02  1.599751E-08  9.583217E+02  1.138140E-09
        62   5 -4.095565E+04  4.761839E+01 -1.649816E+03 -5.207148E-09  1.780023E+03 -3.735081E-13
        62   6 -4.105115E+04 -2.587037E+02 -3.099537E+03  1.128153E-08  2.601724E+03  2.859575E-10
        62   7 -4.105113E+04  1.800324E+01 -8.190648E+02  5.008901E+01  9.583217E+02  7.732393E-05
        62   8 -4.095565E+04  4.761839E+01 -1.649816E+03  1.704102E+01  1.780023E+03  4.886214E-05
        62   9 -4.105115E+04 -2.587037E+02 -3.099537E+03 -1.600699E+01  2.601724E+03 -6.708427E-05
        62  10 -4.105113E+04  1.800300E+01 -8.190665E+02 -5.008901E+01 -1.467297E-09 -5.682819E-10
        62  11 -4.095565E+04  4.761754E+01 -1.649822E+03 -1.704102E+01 -2.820546E-09  3.474484E-10
        62  12 -4.105116E+04 -2.587055E+02 -3.099550E+03  1.600699E+01  4.340782E-10  3.010324E-11
        62  13 -4.105113E+04  1.800299E+01 -8.190665E+02  1.173819E-08 -2.184860E-09 -3.772116E-10
        62  14 -4.095565E+04  4.761753E+01 -1.649822E+03 -1.165410E-08 -2.721233E-09  2.129190E-10
        62  15 -4.105116E+04 -2.587055E+02 -3.099550E+03  9.108849E-09 -9.488934E-10  1.763667E-10
        62  16 -4.105113E+04  1.800300E+01 -8.190665E+02  5.008901E+01 -6.913277E-10 -1.813307E-10
        62  17 -4.095565E+04  4.761754E+01 -1.649822E+03  1.704102E+01 -6.869007E-10  8.163338E-11
        62  18 -4.105116E+04 -2.587055E+02 -3.099550E+03 -1.600699E+01 -4.914205E-10  3.207161E-10
        62  19 -4.105113E+04  1.800324E+01 -8.190648E+02 -5.008901E+01 -9.583217E+02  7.732047E-05
        62  20 -4.095565E+04  4.761839E+01 -1.649816E+03 -1.704102E+01 -1.780023E+03  4.886293E-05
        62  21 -4.105115E+04 -2.587037E+02 -3.099537E+03  1.600699E+01 -2.601724E+03 -6.708473E-05
        62  22 -4.105113E+04  1.800324E+01 -8.190648E+02  7.478611E-09 -9.583217E+02 -1.893083E-09
        62  23 -4.095565E+04  4.761839E+01 -1.649816E+03 -8.697742E-10 -1.780023E+03  4.250796E-10
        62  24 -4.105115E+04 -2.587037E+02 -3.099537E+03  2.628469E-09 -2.601724E+03  5.623633E-11
        62  25 -4.105113E+04  1.800324E+01 -8.190648E+02  5.008901E+01 -9.583217E+02 -7.732433E-05
        62  26 -4.095565E+04  4.761839E+01 -1.649816E+03  1.704102E+01 -1.780023E+03 -4.886206E-05
        62  27 -4.105115E+04 -2.587037E+02 -3.099537E+03 -1.600699E+01 -2.601724E+03  6.708477E-05
        63   1 -4.128374E+04  1.147161E+02 -4.063096E+03 -3.585782E+02  3.244441E+03 -1.874029E-03
        63   2 -4.066495E+04  4.106352E+02 -7.009888E+03  6.921168E+01  6.770526E+03  7.548380E-04
        63   3 -4.128382E+04 -2.407449E+03 -1.303086E+04  4.969963E+02  1.029654E+04  8.243216E-03
        63   4 -4.128374E+04  1.147158E+02 -4.063096E+03  1.010502E-08  3.244441E+03  2.518835E-10
        63   5 -4.066495E+04  4.106352E+02 -7.009888E+03  1.236089E-08  6.770526E+03 -3.529758E-10
        63   6 -4.128382E+04 -2.407449E+03 -1.303086E+04  3.238626E-08  1.029654E+04  7.010644E-11
        63   7 -4.128374E+04  1.147161E+02 -4.063096E+03  3.585782E+02  3.244441E+03  1.874030E-03
        63   8 -4.066495E+04  4.106352E+02 -7.009888E+03 -6.921168E+01  6.770526E+03 -7.548388E-04
        63   9 -4.128382E+04 -2.407449E+03 -1.303086E+04 -4.969963E+02  1.029654E+04 -8.243216E-03
        63  10 -4.128375E+04  1.147133E+02 -4.063116E+03 -3.585782E+02  4.153421E-10  2.469494E-11
        63  11 -4.066500E+04  4.106229E+02 -7.009974E+03  6.921168E+01 -1.195818E-09  3.338633E-10
        63  12 -4.128394E+04 -2.407477E+03 -1.303106E+04  4.969963E+02  1.759522E-09 -5.471033E-10
        63  13 -4.128375E+04  1.147130E+02 -4.063116E+03 -1.572831E-08  1.076164E-09  1.454810E-10
        63  14 -4.066500E+04  4.106229E+02 -7.009974E+03 -2.426935E-08 -5.242557E-10  1.473898E-10
        63  15 -4.128394E+04 -2.407478E+03 -1.303106E+04  7.036625E-09 -1.205243E-09 -3.640420E-10
        63  16 -4.128375E+04  1.147133E+02 -4.063116E+03  3.585782E+02 -1.484791E-09  2.685192E-10
        63  17 -4.066500E+04  4.106229E+02 -7.009974E+03 -6.921168E+01 -1.992244E-09 -3.670979E-11
        63  18 -4.128394E+04 -2.407477E+03 -1.303106E+04 -4.969963E+02 -2.036657E-09 -1.774898E-10
        63  19 -4.128374E+04  1.147161E+02 -4.063096E+03 -3.585782E+02 -3.244441E+03  1.874029E-03
        63  20 -4.066495E+04  4.106352E+02 -7.009888E+03  6.921168E+01 -6.770526E+03 -7.548370E-04
        63  21 -4.128382E+04 -2.407449E+03 -1.303086E+04  4.969963E+02 -1.029654E+04 -8.243217E-03
        63  22 -4.128374E+04  1.147158E+02 -4.063096E+03 -7.098774E-09 -3.244441E+03  3.912834E-11
        63  23 -4.066495E+04  4.106352E+02 -7.009888E+03 -1.782117E-08 -6.770526E+03  6.486714E-10
        63  24 -4.128382E+04 -2.407449E+03 -1.303086E+04 -4.851271E-09 -1.029654E+04 -7.606926E-10
        63  25 -4.128374E+04  1.147161E+02 -4.063096E+03  3.585782E+02 -3.244441E+03 -1.874029E-03
        63  26 -4.066495E+04  4.106352E+02 -7.009888E+03 -6.921168E+01 -6.770526E+03  7.548383E-04
        63  27 -4.128382E+04 -2.407449E+03 -1.303086E+04 -4.969963E+02 -1.029654E+04  8.243216E-03
        64   1 -4.296154E+04  1.060800E+03 -1.661117E+04 -2.882638E+03  1.292423E+04 -6.001340E-02
        64   2 -3.856762E+04  3.525356E+03 -2.778269E+04  1.431047E+03  2.721604E+04  6.273775E-02
        64   3 -4.296149E+04 -2.171879E+04 -5.518515E+04  5.744807E+03  4.150790E+04  3.841119E-01
        64   4 -4.296155E+04  1.060784E+03 -1.661117E+04  2.286993E-08  1.292423E+04  4.470634E-10
        64   5 -3.856762E+04  3.525352E+03 -2.778269E+04  1.101096E-08  2.721604E+04  5.362608E-10
        64   6 -4.296153E+04 -2.171885E+04 -5.518516E+04  1.153687E-08  4.150790E+04  2.560239E-10
        64   7 -4.296154E+04  1.060800E+03 -1.661117E+04  2.882638E+03  1.292423E+04  6.001340E-02
        64   8 -3.856762E+04  3.525356E+03 -2.778269E+04 -1.431047E+03  2.721604E+04 -6.273775E-02
        64   9 -4.296149E+04 -2.171879E+04 -5.518515E+04 -5.744807E+03  4.150790E+04 -3.841119E-01
        64  10 -4.296172E+04  1.060755E+03 -1.661148E+04 -2.882638E+03  6.358400E-10 -5.854888E-10
        64  11 -3.856842E+04  3.525157E+03 -2.778408E+04  1.431047E+03 -2.263444E-09  3.705002E-10
        64  12 -4.296334E+04 -2.171925E+04 -5.518839E+04  5.744807E+03  4.107132E-11  4.439140E-10
        64  13 -4.296173E+04  1.060740E+03 -1.661148E+04  1.861454E-08 -2.160191E-09 -2.874564E-10
        64  14 -3.856842E+04  3.525153E+03 -2.778408E+04  6.714809E-09  2.692855E-09  3.154025E-10
        64  15 -4.296338E+04 -2.171931E+04 -5.518840E+04 -1.810846E-08  2.554215E-09  1.554384E-10
        64  16 -4.296172E+04  1.060755E+03 -1.661148E+04  2.882638E+03  4.359298E-10  8.647169E-14
        64  17 -3.856842E+04  3.525157E+03 -2.778408E+04 -1.431047E+03 -1.907725E-10  2.474695E-10
        64  18 -4.296334E+04 -2.171925E+04 -5.518839E+04 -5.744807E+03  3.474671E-10 -1.152414E-10
        64  19 -4.296154E+04  1.060800E+03 -1.661117E+04 -2.882638E+03 -1.292423E+04  6.001340E-02
        64  20 -3.856762E+04  3.525356E+03 -2.778269E+04  1.431047E+03 -2.721604E+04 -6.273775E-02
        64  21 -4.296149E+04 -2.171879E+04 -5.518515E+04  5.744807E+03 -4.150790E+04 -3.841119E-01
        64  22 -4.296155E+04  1.060784E+03 -1.661117E+04  5.743178E-09 -1.292423E+04 -1.023762E-09
        64  23 -3.856762E+04  3.525352E+03 -2.778269E+04  6.726901E-09 -2.721604E+04  9.169368E-11
        64  24 -4.296153E+04 -2.171885E+04 -5.518516E+04  2.924936E-08 -4.150790E+04  4.481624E-11
        64  25 -4.296154E+04  1.060800E+03 -1.661117E+04  2.882638E+03 -1.292423E+04 -6.001340E-02
        64  26 -3.856762E+04  3.525356E+03 -2.778269E+04 -1.431047E+03 -2.721604E+04  6.273775E-02
        64  27 -4.296149E+04 -2.171879E+04 -5.518515E+04 -5.744807E+03 -4.150790E+04  3.841119E-01
        65   1 -5.629307E+04  9.559731E+03 -6.746412E+04 -2.429271E+04  5.209479E+04 -2.038596E+00
        65   2 -2.189678E+04  3.065809E+04 -1.070020E+05  1.588453E+04  1.099981E+05  2.814471E+00
        65   3 -5.628545E+04 -1.932448E+05 -2.454769E+05  5.605955E+04  1.679023E+05  1.516199E+01
        65   4 -5.629370E+04  9.558621E+03 -6.746428E+04  8.900192E-09  5.209479E+04  4.390827E-10
        65   5 -2.189705E+04  3.065761E+04 -1.070020E+05  4.793146E-09  1.099981E+05  9.325461E-10
        65   6 -5.628882E+04 -1.932507E+05 -2.454777E+05  1.683838E-08  1.679023E+05 -1.023736E-09
        65   7 -5.629307E+04  9.559731E+03 -6.746412E+04  2.429271E+04  5.209479E+04  2.038596E+00
        65   8 -2.189678E+04  3.065809E+04 -1.070020E+05 -1.588453E+04  1.099981E+05 -2.814471E+00
        65   9 -5.628545E+04 -1.932448E+05 -2.454769E+05 -5.605955E+04  1.679023E+05 -1.516199E+01
        65  10 -5.629599E+04  9.559002E+03 -6.746922E+04 -2.429271E+04 -2.700682E-10 -1.868582E-10
        65  11 -2.190978E+04  3.065484E+04 -1.070247E+05  1.588453E+04  5.289965E-10 -7.765803E-10
        65  12 -5.631573E+04 -1.932523E+05 -2.455299E+05  5.605955E+04  1.158558E-09 -3.160284E-10
        65  13 -5.629662E+04  9.557893E+03 -6.746938E+04 -4.054897E-09  1.088286E-09 -2.274166E-10
        65  14 -2.191005E+04  3.065436E+04 -1.070248E+05 -1.668571E-09  2.684954E-09 -5.171413E-10
        65  15 -5.631910E+04 -1.932582E+05 -2.455307E+05  5.024096E-09  1.547369E-10 -1.849303E-10
        65  16 -5.629599E+04  9.559002E+03 -6.746922E+04  2.429271E+04  3.151408E-10 -2.574652E-10
        65  17 -2.190978E+04  3.065484E+04 -1.070247E+05 -1.588453E+04  1.077577E-09 -2.207172E-10
        65  18 -5.631573E+04 -1.932523E+05 -2.455299E+05 -5.605955E+04  9.382772E-10  2.041451E-11
        65  19 -5.629307E+04  9.559731E+03 -6.746412E+04 -2.429271E+04 -5.209479E+04  2.038596E+00
        65  20 -2.189678E+04  3.065809E+04 -1.070020E+05  1.588453E+04 -1.099981E+05 -2.814471E+00
        65  21 -5.628545E+04 -1.932448E+05 -2.454769E+05  5.605955E+04 -1.679023E+05 -1.516199E+01
        65  22 -5.629370E+04  9.558621E+03 -6.746428E+04  1.314519E-08 -5.209479E+04 -8.926839E-10
        65  23 -2.189705E+04  3.065761E+04 -1.070020E+05 -3.821818E-09 -1.099981E+05 -1.931545E-09
        65  24 -5.628882E+04 -1.932507E+05 -2.454777E+05  4.517565E-09 -1.679023E+05 -8.145536E-12
        65  25 -5.629307E+04  9.559731E+03 -6.746412E+04  2.429271E+04 -5.209479E+04 -2.038596E+00
        65  26 -2.189678E+04  3.065809E+04 -1.070020E+05 -1.588453E+04 -1.099981E+05  2.814471E+00
        65  27 -5.628545E+04 -1.932448E+05 -2.454769E+05 -5.605955E+04 -1.679023E+05  1.516199E+01
        66   1  6.341130E+04 -1.144505E+05  5.993872E+04 -7.374520E+03  2.789721E+03 -6.337366E+03
        66   2  7.070904E+04 -1.330676E+05  6.160273E+04 -1.412368E+03  8.324546E+03 -6.229297E+03
        66   3  6.492838E+04 -1.548721E+05  5.994732E+04 -1.192120E+04  7.582378E+03 -6.122059E+03
        66   4 -1.105915E+04 -4.129127E+05 -1.386971E+04 -1.050780E+04  2.790135E+03 -1.028848E+04
        66   5  1.683748E+03 -4.110676E+05 -5.446497E+03 -2.271237E+03  8.325076E+03 -7.319590E+03
        66   6  8.482938E+02 -4.129084E+05 -2.331495E+03 -1.050614E+04  7.581784E+03 -4.351462E+03
        66   7 -8.553621E+04 -7.112940E+05 -8.768470E+04 -1.363957E+04  2.790589E+03 -1.423770E+04
        66   8 -6.734719E+04 -6.889968E+05 -7.250124E+04 -3.129716E+03  8.325609E+03 -8.409396E+03
        66   9 -6.323665E+04 -6.708838E+05 -6.461506E+04 -9.091657E+03  7.581199E+03 -2.581599E+03
        66  10  6.341128E+04 -1.144505E+05  5.993863E+04 -7.374506E+03  8.133046E-10  3.674083E-10
        66  11  7.070896E+04 -1.330677E+05  6.160252E+04 -1.412326E+03  2.661019E-09  2.704173E-09
        66  12  6.492830E+04 -1.548721E+05  5.994714E+04 -1.192116E+04 -1.704082E-09  2.820499E-09
        66  13 -1.105919E+04 -4.129129E+05 -1.386992E+04 -1.050778E+04 -3.145121E-10 -4.840055E-11
        66  14  1.683660E+03 -4.110677E+05 -5.446728E+03 -2.271188E+03 -8.697996E-10  2.536541E-10
        66  15  8.482270E+02 -4.129085E+05 -2.331639E+03 -1.050611E+04 -8.706127E-10 -1.176782E-09
        66  16 -8.553627E+04 -7.112942E+05 -8.768509E+04 -1.363953E+04  2.734142E-10 -3.746730E-10
        66  17 -6.734728E+04 -6.889969E+05 -7.250151E+04 -3.129659E+03  2.629522E-09 -2.300022E-09
        66  18 -6.323671E+04 -6.708839E+05 -6.461518E+04 -9.091641E+03 -1.308012E-09 -3.180691E-09
        66  19  6.341130E+04 -1.144505E+05  5.993872E+04 -7.374520E+03 -2.789721E+03  6.337366E+03
        66  20  7.070904E+04 -1.330676E+05  6.160273E+04 -1.412368E+03 -8.324546E+03  6.229297E+03
        66  21  6.492838E+04 -1.548721E+05  5.994732E+04 -1.192120E+04 -7.582378E+03  6.122059E+03
        66  22 -1.105915E+04 -4.129127E+05 -1.386971E+04 -1.050780E+04 -2.790135E+03  1.028848E+04
        66  23  1.683748E+03 -4.110676E+05 -5.446497E+03 -2.271237E+03 -8.325076E+03  7.319590E+03
        66  24  8.482938E+02 -4.129084E+05 -2.331495E+03 -1.050614E+04 -7.581784E+03  4.351462E+03
        66  25 -8.553621E+04 -7.112940E+05 -8.768470E+04 -1.363957E+04 -2.790589E+03  1.423770E+04
        66  26 -6.734719E+04 -6.889968E+05 -7.250124E+04 -3.129716E+03 -8.325609E+03  8.409396E+03
        66  27 -6.323665E+04 -6.708838E+05 -6.461506E+04 -9.091657E+03 -7.581199E+03  2.581599E+03
        67   1  5.503501E+04 -1.849060E+05  5.377231E+04 -1.075261E+04  6.235997E+03 -4.028812E+03
        67   2  5.101029E+04 -2.058926E+05  5.168582E+04 -1.962472E+03  5.961737E+03 -5.294516E+03
        67   3  4.894011E+04 -2.261948E+05  5.091874E+04 -1.019136E+04  4.997090E+03 -6.560963E+03
        67   4 -1.373131E+03 -4.119458E+05 -1.155205E+03 -1.062980E+04  6.236163E+03 -4.059867E+03
        67   5 -2.444493E+02 -4.122592E+05  1.845915E+03 -2.118674E+03  5.961679E+03 -5.010571E+03
        67   6  2.784387E+03 -4.119433E+05  5.947811E+03 -1.062691E+04  4.996706E+03 -5.962058E+03
        67   7 -5.778504E+04 -6.389384E+05 -5.608642E+04 -1.050704E+04  6.236329E+03 -4.090910E+03
        67   8 -5.150231E+04 -6.185868E+05 -4.799705E+04 -2.274818E+03  5.961621E+03 -4.726719E+03
        67   9 -4.337386E+04 -5.976602E+05 -3.902560E+04 -1.106232E+04  4.996322E+03 -5.363332E+03
        67  10  5.503496E+04 -1.849061E+05  5.377221E+04 -1.075259E+04  1.864807E-10 -3.725353E-09
        67  11  5.101025E+04 -2.058926E+05  5.168570E+04 -1.962447E+03  1.863116E-09 -1.096701E-09
        67  12  4.894007E+04 -2.261949E+05  5.091861E+04 -1.019133E+04  4.019486E-09  2.077645E-09
        67  13 -1.373177E+03 -4.119458E+05 -1.155309E+03 -1.062978E+04  2.142087E-10 -5.571670E-10
        67  14 -2.444942E+02 -4.122592E+05  1.845801E+03 -2.118650E+03 -7.800206E-10  7.356527E-10
        67  15  2.784350E+03 -4.119433E+05  5.947697E+03 -1.062689E+04  1.625432E-09 -2.258109E-09
        67  16 -5.778509E+04 -6.389385E+05 -5.608653E+04 -1.050702E+04 -2.442390E-09  3.735137E-09
        67  17 -5.150235E+04 -6.185869E+05 -4.799715E+04 -2.274795E+03 -1.893290E-09  2.183129E-09
        67  18 -4.337390E+04 -5.976602E+05 -3.902570E+04 -1.106230E+04 -5.923851E-10 -2.706508E-09
        67  19  5.503501E+04 -1.849060E+05  5.377231E+04 -1.075261E+04 -6.235997E+03  4.028812E+03
        67  20  5.101029E+04 -2.058926E+05  5.168582E+04 -1.962472E+03 -5.961737E+03  5.294516E+03
        67  21  4.894011E+04 -2.261948E+05  5.091874E+04 -1.019136E+04 -4.997090E+03  6.560963E+03
        67  22 -1.373131E+03 -4.119458E+05 -1.155205E+03 -1.062980E+04 -6.236163E+03  4.059867E+03
        67  23 -2.444493E+02 -4.122592E+05  1.845915E+03 -2.118674E+03 -5.961679E+03  5.010571E+03
        67  24  2.784387E+03 -4.119433E+05  5.947811E+03 -1.062691E+04 -4.996706E+03  5.962058E+03
        67  25 -5.778504E+04 -6.389384E+05 -5.608642E+04 -1.050704E+04 -6.236329E+03  4.090910E+03
        67  26 -5.150231E+04 -6.185868E+05 -4.799705E+04 -2.274818E+03 -5.961621E+03  4.726719E+03
        67  27 -4.337386E+04 -5.976602E+05 -3.902560E+04 -1.106232E+04 -4.996322E+03  5.363332E+03
        68   1  3.695819E+04 -2.560486E+05  4.485113E+04 -1.380947E+04  4.725447E+03 -7.051294E+03
        68   2  2.925059E+04 -2.813364E+05  4.514857E+04 -1.388597E+02  3.941541E+03 -1.500545E+04
        68   3  5.211197E+04 -2.979610E+05  5.826518E+04 -3.805375E+03  1.194994E+03 -2.296151E+04
        68   4 -1.317784E+03 -4.101905E+05  7.701504E+03 -1.070722E+04  4.725565E+03 -7.137016E+03
        68   5 -3.800552E+03 -4.144414E+05  1.302664E+04 -2.025782E+03  3.940866E+03 -1.419524E+04
        68   6  2.413326E+04 -4.101841E+05  3.055000E+04 -1.068149E+04  1.193464E+03 -2.125562E+04
        68   7 -3.959546E+04 -5.643107E+05 -2.944982E+04 -7.605737E+03  4.725683E+03 -7.222717E+03
        68   8 -3.685297E+04 -5.475302E+05 -1.909656E+04 -3.912294E+03  3.940186E+03 -1.338520E+04
        68   9 -3.846211E+03 -5.223956E+05  2.833929E+03 -1.755636E+04  1.191897E+03 -1.955004E+04
        68  10  3.695815E+04 -2.560487E+05  4.485100E+04 -1.380944E+04 -2.057879E-10  4.015559E-09
        68  11  2.925051E+04 -2.813367E+05  4.514812E+04 -1.388120E+02 -3.297024E-09 -1.970192E-11
        68  12  5.211183E+04 -2.979616E+05  5.826418E+04 -3.805353E+03 -3.368248E-10 -3.617253E-09
        68  13 -1.317822E+03 -4.101906E+05  7.701367E+03 -1.070719E+04 -1.914656E-09 -8.969830E-10
        68  14 -3.800622E+03 -4.144416E+05  1.302623E+04 -2.025737E+03 -8.588990E-10  1.040383E-09
        68  15  2.413314E+04 -4.101846E+05  3.054915E+04 -1.068147E+04 -2.658917E-09 -2.972038E-09
        68  16 -3.959549E+04 -5.643108E+05 -2.944996E+04 -7.605710E+03 -2.452592E-09 -3.973605E-09
        68  17 -3.685303E+04 -5.475304E+05 -1.909693E+04 -3.912251E+03 -8.571667E-10  1.555473E-09
        68  18 -3.846316E+03 -5.223960E+05  2.833208E+03 -1.755635E+04  6.601225E-10  2.740837E-09
        68  19  3.695819E+04 -2.560486E+05  4.485113E+04 -1.380947E+04 -4.725447E+03  7.051294E+03
        68  20  2.925059E+04 -2.813364E+05  4.514857E+04 -1.388597E+02 -3.941541E+03  1.500545E+04
        68  21  5.211197E+04 -2.979610E+05  5.826518E+04 -3.805375E+03 -1.194994E+03  2.296151E+04
        68  22 -1.317784E+03 -4.101905E+05  7.701504E+03 -1.070722E+04 -4.725565E+03  7.137016E+03
        68  23 -3.800552E+03 -4.144414E+05  1.302664E+04 -2.025782E+03 -3.940866E+03  1.419524E+04
        68  24  2.413326E+04 -4.101841E+05  3.055000E+04 -1.068149E+04 -1.193464E+03  2.125562E+04
        68  25 -3.959546E+04 -5.643107E+05 -2.944982E+04 -7.605737E+03 -4.725683E+03  7.222717E+03
        68  26 -3.685297E+04 -5.475302E+05 -1.909656E+04 -3.912294E+03 -3.940186E+03  1.338520E+04
        68  27 -3.846211E+03 -5.223956E+05  2.833929E+03 -1.755636E+04 -1.191897E+03  1.955004E+04
        69   1 -4.464223E+05 -9.803128E+04 -3.670802E+04 -1.654543E+05 -1.488423E+04 -5.007712E+03
        69   2 -4.370446E+05 -7.101689E+04 -2.093931E+04 -1.626853E+05 -9.633540E+03 -2.016138E+03
        69   3 -4.302997E+05 -7.047320E+04 -1.497634E+04 -1.613024E+05 -3.899603E+03 -3.128555E+02
        69   4 -3.960740E+05 -7.472567E+04 -2.212382E+04 -1.473136E+05 -1.422753E+04 -4.761594E+03
        69   5 -3.936814E+05 -5.351433E+04 -9.186795E+03 -1.496310E+05 -9.526191E+03 -1.975919E+03
        69   6 -3.938121E+05 -5.866404E+04 -5.619544E+03 -1.533348E+05 -4.341688E+03 -4.785830E+02
        69   7 -3.457235E+05 -5.141962E+04 -7.539941E+03 -1.291716E+05 -1.357077E+04 -4.515444E+03
        69   8 -3.503164E+05 -3.601160E+04  2.565532E+03 -1.365758E+05 -9.418833E+03 -1.935696E+03
        69   9 -3.573232E+05 -4.685487E+04  3.737165E+03 -1.453667E+05 -4.783802E+03 -6.443181E+02
        69  10 -4.464225E+05 -9.803137E+04 -3.670848E+04 -1.654544E+05 -4.490423E-10  2.280041E-10
        69  11 -4.370447E+05 -7.101692E+04 -2.093949E+04 -1.626853E+05  2.098370E-09  4.527516E-11
        69  12 -4.302997E+05 -7.047321E+04 -1.497637E+04 -1.613024E+05  2.645125E-09 -5.371031E-10
        69  13 -3.960742E+05 -7.472575E+04 -2.212425E+04 -1.473137E+05  9.541204E-10 -7.567330E-11
        69  14 -3.936815E+05 -5.351435E+04 -9.186973E+03 -1.496310E+05  1.038759E-09 -1.225417E-10
        69  15 -3.938121E+05 -5.866405E+04 -5.619580E+03 -1.533348E+05  3.750706E-09 -1.250839E-10
        69  16 -3.457237E+05 -5.141969E+04 -7.540326E+03 -1.291717E+05  1.077368E-09 -1.225797E-10
        69  17 -3.503165E+05 -3.601162E+04  2.565358E+03 -1.365758E+05  3.004971E-09  3.174799E-11
        69  18 -3.573232E+05 -4.685487E+04  3.737121E+03 -1.453667E+05  3.900854E-10 -9.206123E-11
        69  19 -4.464223E+05 -9.803128E+04 -3.670802E+04 -1.654543E+05  1.488423E+04  5.007712E+03
        69  20 -4.370446E+05 -7.101689E+04 -2.093931E+04 -1.626853E+05  9.633540E+03  2.016138E+03
        69  21 -4.302997E+05 -7.047320E+04 -1.497634E+04 -1.613024E+05  3.899603E+03  3.128555E+02
        69  22 -3.960740E+05 -7.472567E+04 -2.212382E+04 -1.473136E+05  1.422753E+04  4.761594E+03
        69  23 -3.936814E+05 -5.351433E+04 -9.186795E+03 -1.496310E+05  9.526191E+03  1.975919E+03
        69  24 -3.938121E+05 -5.866404E+04 -5.619544E+03 -1.533348E+05  4.341688E+03  4.785830E+02
        69  25 -3.457235E+05 -5.141962E+04 -7.539941E+03 -1.291716E+05  1.357077E+04  4.515444E+03
        69  26 -3.503164E+05 -3.601160E+04  2.565532E+03 -1.365758E+05  9.418833E+03  1.935696E+03
        69  27 -3.573232E+05 -4.685487E+04  3.737165E+03 -1.453667E+05  4.783802E+03  6.443181E+02
        70   1 -4.126271E+05 -6.886707E+04 -9.884629E+03 -1.578069E+05 -3.285642E+03 -5.537283E+02
        70   2 -4.059216E+05 -6.003873E+04 -5.017479E+03 -1.522621E+05 -1.991706E+03 -3.781157E+02
        70   3 -3.943757E+05 -5.954048E+04 -1.698680E+03 -1.528884E+05 -6.541876E+02 -3.187148E+02
        70   4 -3.930731E+05 -6.104994E+04 -4.589067E+03 -1.520005E+05 -3.376689E+03 -5.878646E+02
        70   5 -3.953662E+05 -5.595335E+04 -2.186489E+03 -1.492659E+05 -2.132306E+03 -4.308243E+02
        70   6 -3.928094E+05 -5.917699E+04 -1.292952E+03 -1.527024E+05 -8.443636E+02 -3.900034E+02
        70   7 -3.735188E+05 -5.323279E+04  7.064560E+02 -1.461939E+05 -3.467738E+03 -6.220022E+02
        70   8 -3.848109E+05 -5.186798E+04  6.444822E+02 -1.462696E+05 -2.272909E+03 -4.835337E+02
        70   9 -3.912430E+05 -5.881350E+04 -8.872255E+02 -1.525163E+05 -1.034539E+03 -4.612916E+02
        70  10 -4.126271E+05 -6.886707E+04 -9.884650E+03 -1.578069E+05  4.368317E-11 -5.367166E-10
        70  11 -4.059216E+05 -6.003873E+04 -5.017487E+03 -1.522621E+05 -1.315433E-09  3.412738E-10
        70  12 -3.943757E+05 -5.954048E+04 -1.698681E+03 -1.528884E+05  9.507550E-10 -1.490120E-10
        70  13 -3.930732E+05 -6.104995E+04 -4.589089E+03 -1.520005E+05  1.044881E-09  3.687822E-11
        70  14 -3.953662E+05 -5.595335E+04 -2.186498E+03 -1.492659E+05  1.053700E-09  6.001918E-10
        70  15 -3.928094E+05 -5.917699E+04 -1.292953E+03 -1.527024E+05  3.681012E-10 -6.434375E-10
        70  16 -3.735188E+05 -5.323280E+04  7.064326E+02 -1.461939E+05  4.198611E-09  6.669411E-10
        70  17 -3.848109E+05 -5.186798E+04  6.444720E+02 -1.462696E+05  1.510032E-09  6.092336E-10
        70  18 -3.912430E+05 -5.881350E+04 -8.872279E+02 -1.525163E+05 -2.522372E-09 -9.106073E-10
        70  19 -4.126271E+05 -6.886707E+04 -9.884629E+03 -1.578069E+05  3.285642E+03  5.537283E+02
        70  20 -4.059216E+05 -6.003873E+04 -5.017479E+03 -1.522621E+05  1.991706E+03  3.781157E+02
        70  21 -3.943757E+05 -5.954048E+04 -1.698680E+03 -1.528884E+05  6.541876E+02  3.187148E+02
        70  22 -3.930731E+05 -6.104994E+04 -4.589067E+03 -1.520005E+05  3.376689E+03  5.878646E+02
        70  23 -3.953662E+05 -5.595335E+04 -2.186489E+03 -1.492659E+05  2.132306E+03  4.308243E+02
        70  24 -3.928094E+05 -5.917699E+04 -1.292952E+03 -1.527024E+05  8.443636E+02  3.900034E+02
        70  25 -3.735188E+05 -5.323279E+04  7.064560E+02 -1.461939E+05  3.467738E+03  6.220022E+02
        70  26 -3.848109E+05 -5.186798E+04  6.444822E+02 -1.462696E+05  2.272909E+03  4.835337E+02
        70  27 -3.912430E+05 -5.881350E+04 -8.872255E+02 -1.525163E+05  1.034539E+03  4.612916E+02
        71   1 -3.788179E+05 -5.426489E+04  2.691723E+03 -1.488071E+05 -4.060324E+02 -5.021458E+02
        71   2 -3.724751E+05 -4.757669E+04  5.562905E+03 -1.429542E+05  3.679662E+01 -7.652467E+02
        71   3 -3.603844E+05 -4.707350E+04  8.131389E+03 -1.437937E+05  4.830221E+02 -1.037326E+03
        71   4 -3.927143E+05 -5.944602E+04 -1.031904E+03 -1.525395E+05 -5.646559E+02 -5.616082E+02
        71   5 -3.955738E+05 -5.624833E+04 -5.857491E+02 -1.492328E+05 -1.256672E+02 -8.261552E+02
        71   6 -3.926845E+05 -5.923487E+04 -4.391983E+02 -1.526186E+05  3.167127E+02 -1.099682E+03
        71   7 -4.066106E+05 -6.462717E+04 -4.755570E+03 -1.562718E+05 -7.232763E+02 -6.210695E+02
        71   8 -4.186721E+05 -6.491996E+04 -6.734477E+03 -1.555113E+05 -2.881250E+02 -8.870615E+02
        71   9 -4.249838E+05 -7.139622E+04 -9.009904E+03 -1.614432E+05  1.504123E+02 -1.162035E+03
        71  10 -3.788179E+05 -5.426489E+04  2.691723E+03 -1.488071E+05 -2.148028E-10 -6.822406E-10
        71  11 -3.724751E+05 -4.757669E+04  5.562904E+03 -1.429542E+05  6.610679E-10  9.064825E-10
        71  12 -3.603844E+05 -4.707350E+04  8.131387E+03 -1.437937E+05  9.551120E-10 -5.842103E-10
        71  13 -3.927143E+05 -5.944603E+04 -1.031906E+03 -1.525395E+05  1.704937E-10 -4.998377E-10
        71  14 -3.955738E+05 -5.624833E+04 -5.857504E+02 -1.492328E+05 -1.199912E-09  6.073425E-10
        71  15 -3.926845E+05 -5.923487E+04 -4.392008E+02 -1.526186E+05 -1.243728E-09 -1.094143E-09
        71  16 -4.066106E+05 -6.462717E+04 -4.755571E+03 -1.562718E+05 -1.718651E-09 -4.693385E-10
        71  17 -4.186721E+05 -6.491997E+04 -6.734479E+03 -1.555113E+05 -8.663301E-10  6.482503E-10
        71  18 -4.249838E+05 -7.139622E+04 -9.009906E+03 -1.614432E+05 -1.212755E-09 -1.314241E-09
        71  19 -3.788179E+05 -5.426489E+04  2.691723E+03 -1.488071E+05  4.060324E+02  5.021458E+02
        71  20 -3.724751E+05 -4.757669E+04  5.562905E+03 -1.429542E+05 -3.679662E+01  7.652467E+02
        71  21 -3.603844E+05 -4.707350E+04  8.131389E+03 -1.437937E+05 -4.830221E+02  1.037326E+03
        71  22 -3.927143E+05 -5.944602E+04 -1.031904E+03 -1.525395E+05  5.646559E+02  5.616082E+02
        71  23 -3.955738E+05 -5.624833E+04 -5.857491E+02 -1.492328E+05  1.256672E+02  8.261552E+02
        71  24 -3.926845E+05 -5.923487E+04 -4.391983E+02 -1.526186E+05 -3.167127E+02  1.099682E+03
        71  25 -4.066106E+05 -6.462717E+04 -4.755570E+03 -1.562718E+05  7.232763E+02  6.210695E+02
        71  26 -4.186721E+05 -6.491996E+04 -6.734477E+03 -1.555113E+05  2.881250E+02  8.870615E+02
        71  27 -4.249838E+05 -7.139622E+04 -9.009904E+03 -1.614432E+05 -1.504123E+02  1.162035E+03
        72   1 -3.452152E+05 -4.140728E+04  1.224981E+04 -1.396744E+05  6.359277E+02 -1.237065E+03
        72   2 -3.389776E+05 -3.502292E+04  1.458025E+04 -1.338406E+05  1.023800E+03 -1.527496E+03
        72   3 -3.269679E+05 -3.455798E+04  1.670681E+04 -1.346762E+05  1.410942E+03 -1.815789E+03
        72   4 -3.926898E+05 -5.924635E+04 -4.241058E+02 -1.525873E+05  4.723975E+02 -1.298386E+03
        72   5 -3.955768E+05 -5.629438E+04 -4.896041E+02 -1.492498E+05  8.611537E+02 -1.588499E+03
        72   6 -3.926921E+05 -5.926204E+04 -7.597345E+02 -1.525815E+05  1.249175E+03 -1.876474E+03
        72   7 -4.401620E+05 -7.708521E+04 -1.309815E+04 -1.654994E+05  3.088818E+02 -1.359702E+03
        72   8 -4.521728E+05 -7.756562E+04 -1.555972E+04 -1.646576E+05  6.985235E+02 -1.649495E+03
        72   9 -4.584122E+05 -8.396588E+04 -1.822669E+04 -1.704851E+05  1.087428E+03 -1.937152E+03
        72  10 -3.452152E+05 -4.140728E+04  1.224980E+04 -1.396744E+05 -3.628700E-09 -1.371184E-09
        72  11 -3.389776E+05 -3.502293E+04  1.458025E+04 -1.338406E+05 -1.298110E-09  4.714637E-10
        72  12 -3.269679E+05 -3.455798E+04  1.670680E+04 -1.346762E+05 -8.594848E-10  1.613274E-10
        72  13 -3.926898E+05 -5.924635E+04 -4.241093E+02 -1.525873E+05 -6.041347E-10 -1.271769E-09
        72  14 -3.955768E+05 -5.629439E+04 -4.896102E+02 -1.492498E+05 -1.053601E-09  3.113481E-10
        72  15 -3.926921E+05 -5.926204E+04 -7.597440E+02 -1.525815E+05 -2.443017E-09  1.181328E-10
        72  16 -4.401620E+05 -7.708521E+04 -1.309816E+04 -1.654994E+05  1.000382E-09 -9.487468E-10
        72  17 -4.521728E+05 -7.756562E+04 -1.555972E+04 -1.646576E+05 -4.007981E-09  1.277141E-11
        72  18 -4.584122E+05 -8.396588E+04 -1.822670E+04 -1.704851E+05 -1.603129E-09  1.989012E-10
        72  19 -3.452152E+05 -4.140728E+04  1.224981E+04 -1.396744E+05 -6.359277E+02  1.237065E+03
        72  20 -3.389776E+05 -3.502292E+04  1.458025E+04 -1.338406E+05 -1.023800E+03  1.527496E+03
        72  21 -3.269679E+05 -3.455798E+04  1.670681E+04 -1.346762E+05 -1.410942E+03  1.815789E+03
        72  22 -3.926898E+05 -5.924635E+04 -4.241058E+02 -1.525873E+05 -4.723975E+02  1.298386E+03
        72  23 -3.955768E+05 -5.629438E+04 -4.896041E+02 -1.492498E+05 -8.611537E+02  1.588499E+03
        72  24 -3.926921E+05 -5.926204E+04 -7.597345E+02 -1.525815E+05 -1.249175E+03  1.876474E+03
        72  25 -4.401620E+05 -7.708521E+04 -1.309815E+04 -1.654994E+05 -3.088818E+02  1.359702E+03
        72  26 -4.521728E+05 -7.756562E+04 -1.555972E+04 -1.646576E+05 -6.985235E+02  1.649495E+03
        72  27 -4.584122E+05 -8.396588E+04 -1.822669E+04 -1.704851E+05 -1.087428E+03  1.937152E+03
        73   1 -3.120607E+05 -2.890775E+04  2.054231E+04 -1.306647E+05  1.637011E+03 -1.983173E+03
        73   2 -3.058969E+05 -2.258375E+04  2.218237E+04 -1.248814E+05  2.619180E+03 -2.043968E+03
        73   3 -2.942877E+05 -2.245829E+04  2.307201E+04 -1.255586E+05  3.598644E+03 -2.097255E+03
        73   4 -3.927472E+05 -5.919387E+04 -9.671447E+02 -1.525843E+05  1.474783E+03 -2.044043E+03
        73   5 -3.954944E+05 -5.626975E+04 -1.675477E+03 -1.492883E+05  2.460026E+03 -2.103706E+03
        73   6 -3.927970E+05 -5.954484E+04 -3.136753E+03 -1.524528E+05  3.442553E+03 -2.155864E+03
        73   7 -4.734273E+05 -8.947953E+04 -2.247712E+04 -1.745013E+05  1.312579E+03 -2.104905E+03
        73   8 -4.850841E+05 -8.995528E+04 -2.553403E+04 -1.736920E+05  2.300897E+03 -2.163435E+03
        73   9 -4.912972E+05 -9.663090E+04 -2.934642E+04 -1.793432E+05  3.286489E+03 -2.214464E+03
        73  10 -3.120607E+05 -2.890776E+04  2.054230E+04 -1.306647E+05 -1.257568E-09 -7.308265E-10
        73  11 -3.058969E+05 -2.258376E+04  2.218235E+04 -1.248814E+05  5.695239E-10 -1.103344E-09
        73  12 -2.942877E+05 -2.245830E+04  2.307198E+04 -1.255586E+05  8.206104E-10  3.524747E-10
        73  13 -3.927472E+05 -5.919387E+04 -9.671567E+02 -1.525843E+05 -2.067252E-09 -7.008158E-10
        73  14 -3.954944E+05 -5.626976E+04 -1.675496E+03 -1.492883E+05 -1.597619E-09 -1.412873E-09
        73  15 -3.927970E+05 -5.954485E+04 -3.136784E+03 -1.524528E+05  1.303526E-09  9.929786E-11
        73  16 -4.734273E+05 -8.947953E+04 -2.247713E+04 -1.745013E+05 -1.496613E-09 -7.440992E-10
        73  17 -4.850841E+05 -8.995528E+04 -2.553405E+04 -1.736920E+05  7.320988E-11 -1.310508E-09
        73  18 -4.912972E+05 -9.663091E+04 -2.934645E+04 -1.793432E+05 -1.057966E-09  8.942502E-11
        73  19 -3.120607E+05 -2.890775E+04  2.054231E+04 -1.306647E+05 -1.637011E+03  1.983173E+03
        73  20 -3.058969E+05 -2.258375E+04  2.218237E+04 -1.248814E+05 -2.619180E+03  2.043968E+03
        73  21 -2.942877E+05 -2.245829E+04  2.307201E+04 -1.255586E+05 -3.598644E+03  2.097255E+03
        73  22 -3.927472E+05 -5.919387E+04 -9.671447E+02 -1.525843E+05 -1.474783E+03  2.044043E+03
        73  23 -3.954944E+05 -5.626975E+04 -1.675477E+03 -1.492883E+05 -2.460026E+03  2.103706E+03
        73  24 -3.927970E+05 -5.954484E+04 -3.136753E+03 -1.524528E+05 -3.442553E+03  2.155864E+03
        73  25 -4.734273E+05 -8.947953E+04 -2.247712E+04 -1.745013E+05 -1.312579E+03  2.104905E+03
        73  26 -4.850841E+05 -8.995528E+04 -2.553403E+04 -1.736920E+05 -2.300897E+03  2.163435E+03
        73  27 -4.912972E+05 -9.663090E+04 -2.934642E+04 -1.793432E+05 -3.286489E+03  2.214464E+03
        74   1 -2.796385E+05 -1.683371E+04  2.606520E+04 -1.222130E+05  4.283416E+03 -2.091165E+03
        74   2 -2.733575E+05 -9.913086E+03  2.521164E+04 -1.160879E+05  8.087191E+03 -1.080969E+03
        74   3 -2.634959E+05 -1.262557E+04  2.053282E+04 -1.153977E+05  1.187602E+04 -3.058331E+01
        74   4 -3.930388E+05 -5.907348E+04 -4.086612E+03 -1.526890E+05  4.118315E+03 -2.153170E+03
        74   5 -3.950474E+05 -5.581044E+04 -7.218758E+03 -1.493878E+05  7.938531E+03 -1.136836E+03
        74   6 -3.934791E+05 -6.218442E+04 -1.418977E+04 -1.515217E+05  1.174374E+04 -8.033617E+01
        74   7 -5.064267E+05 -1.013126E+05 -3.423953E+04 -1.831601E+05  3.953247E+03 -2.215164E+03
        74   8 -5.167229E+05 -1.017068E+05 -3.965041E+04 -1.826819E+05  7.789903E+03 -1.192690E+03
        74   9 -5.234456E+05 -1.117420E+05 -4.891375E+04 -1.876388E+05  1.161149E+04 -1.300772E+02
        74  10 -2.796385E+05 -1.683372E+04  2.606515E+04 -1.222130E+05  1.288356E-09  1.417170E-09
        74  11 -2.733576E+05 -9.913104E+03  2.521152E+04 -1.160879E+05 -1.018442E-09  8.172569E-10
        74  12 -2.634960E+05 -1.262561E+04  2.053255E+04 -1.153977E+05  3.064391E-09 -1.255226E-09
        74  13 -3.930388E+05 -5.907349E+04 -4.086652E+03 -1.526890E+05  1.779061E-09  1.113030E-09
        74  14 -3.950475E+05 -5.581046E+04 -7.218879E+03 -1.493878E+05 -3.031050E-10  7.327333E-10
        74  15 -3.934792E+05 -6.218446E+04 -1.419003E+04 -1.515217E+05  5.862635E-10 -8.935420E-10
        74  16 -5.064267E+05 -1.013126E+05 -3.423957E+04 -1.831601E+05 -1.046972E-09  7.079056E-10
        74  17 -5.167230E+05 -1.017069E+05 -3.965052E+04 -1.826819E+05 -2.177168E-10  3.967135E-10
        74  18 -5.234457E+05 -1.117420E+05 -4.891400E+04 -1.876388E+05 -1.590063E-09 -3.376146E-10
        74  19 -2.796385E+05 -1.683371E+04  2.606520E+04 -1.222130E+05 -4.283416E+03  2.091165E+03
        74  20 -2.733575E+05 -9.913086E+03  2.521164E+04 -1.160879E+05 -8.087191E+03  1.080969E+03
        74  21 -2.634959E+05 -1.262557E+04  2.053282E+04 -1.153977E+05 -1.187602E+04  3.058331E+01
        74  22 -3.930388E+05 -5.907348E+04 -4.086612E+03 -1.526890E+05 -4.118315E+03  2.153170E+03
        74  23 -3.950474E+05 -5.581044E+04 -7.218758E+03 -1.493878E+05 -7.938531E+03  1.136836E+03
        74  24 -3.934791E+05 -6.218442E+04 -1.418977E+04 -1.515217E+05 -1.174374E+04  8.033617E+01
        74  25 -5.064267E+05 -1.013126E+05 -3.423953E+04 -1.831601E+05 -3.953247E+03  2.215164E+03
        74  26 -5.167229E+05 -1.017068E+05 -3.965041E+04 -1.826819E+05 -7.789903E+03  1.192690E+03
        74  27 -5.234456E+05 -1.117420E+05 -4.891375E+04 -1.876388E+05 -1.161149E+04  1.300772E+02
        75   1 -2.479837E+05 -6.267581E+03  2.040302E+04 -1.171444E+05  1.469798E+04  7.302970E+02
        75   2 -2.403368E+05  7.113022E+03  9.490285E+03 -1.068568E+05  3.098510E+04  6.446429E+03
        75   3 -2.424418E+05 -1.957258E+04 -2.290667E+04 -9.406152E+04  4.712810E+04  1.254750E+04
        75   4 -3.949346E+05 -5.822862E+04 -1.811479E+04 -1.537864E+05  1.446354E+04  6.422546E+02
        75   5 -3.919481E+05 -5.165399E+04 -3.121334E+04 -1.499773E+05  3.091091E+04  6.418360E+03
        75   6 -3.987492E+05 -8.518325E+04 -6.592730E+04 -1.436601E+05  4.721400E+04  1.257907E+04
        75   7 -5.418651E+05 -1.101891E+05 -5.663451E+04 -1.904209E+05  1.422915E+04  5.542315E+02
        75   8 -5.435375E+05 -1.104193E+05 -7.191905E+04 -1.930882E+05  3.083674E+04  6.390298E+03
        75   9 -5.550328E+05 -1.507908E+05 -1.089502E+05 -1.932469E+05  4.729986E+04  1.261062E+04
        75  10 -2.479840E+05 -6.267639E+03  2.040261E+04 -1.171444E+05 -6.520816E-10 -2.329523E-09
        75  11 -2.403378E+05  7.112720E+03  9.488402E+03 -1.068569E+05 -9.015714E-10 -1.299375E-09
        75  12 -2.424443E+05 -1.957334E+04 -2.291114E+04 -9.406200E+04 -1.649474E-09 -9.436018E-11
        75  13 -3.949348E+05 -5.822868E+04 -1.811518E+04 -1.537864E+05  3.694773E-09 -1.277311E-09
        75  14 -3.919492E+05 -5.165430E+04 -3.121521E+04 -1.499774E+05  3.431713E-09 -1.433109E-09
        75  15 -3.987516E+05 -8.518402E+04 -6.593179E+04 -1.436606E+05  1.671228E-09  3.485043E-10
        75  16 -5.418653E+05 -1.101892E+05 -5.663489E+04 -1.904209E+05 -9.202158E-10 -6.684319E-10
        75  17 -5.435385E+05 -1.104196E+05 -7.192092E+04 -1.930883E+05 -3.092406E-09  5.443976E-10
        75  18 -5.550352E+05 -1.507915E+05 -1.089547E+05 -1.932474E+05  3.015454E-09  1.251893E-11
        75  19 -2.479837E+05 -6.267581E+03  2.040302E+04 -1.171444E+05 -1.469798E+04 -7.302970E+02
        75  20 -2.403368E+05  7.113022E+03  9.490285E+03 -1.068568E+05 -3.098510E+04 -6.446429E+03
        75  21 -2.424418E+05 -1.957258E+04 -2.290667E+04 -9.406152E+04 -4.712810E+04 -1.254750E+04
        75  22 -3.949346E+05 -5.822862E+04 -1.811479E+04 -1.537864E+05 -1.446354E+04 -6.422546E+02
        75  23 -3.919481E+05 -5.165399E+04 -3.121334E+04 -1.499773E+05 -3.091091E+04 -6.418360E+03
        75  24 -3.987492E+05 -8.518325E+04 -6.592730E+04 -1.436601E+05 -4.721400E+04 -1.257907E+04
        75  25 -5.418651E+05 -1.101891E+05 -5.663451E+04 -1.904209E+05 -1.422915E+04 -5.542315E+02
        75  26 -5.435375E+05 -1.104193E+05 -7.191905E+04 -1.930882E+05 -3.083674E+04 -6.390298E+03
        75  27 -5.550328E+05 -1.507908E+05 -1.089502E+05 -1.932469E+05 -4.729986E+04 -1.261062E+04
        76   1 -2.145551E+05 -5.237034E+03 -3.432302E+04 -1.382196E+05  6.020601E+04  1.654185E+04
        76   2 -1.980256E+05  6.500237E+04 -8.367996E+04 -9.075549E+04  1.310632E+05  4.279826E+04
        76   3 -2.966883E+05 -1.646809E+05 -2.664884E+05  2.758222E+04  2.003456E+05  7.324953E+04
        76   4 -4.092336E+05 -5.099880E+04 -8.080420E+04 -1.630654E+05  5.915399E+04  1.614949E+04
        76   5 -3.678141E+05 -1.636785E+04 -1.321949E+05 -1.550520E+05  1.317788E+05  4.306270E+04
        76   6 -4.419762E+05 -2.820687E+05 -3.184676E+05 -7.615388E+04  2.028314E+05  7.415949E+04
        76   7 -6.038743E+05 -9.676166E+04 -1.272875E+05 -1.879067E+05  5.810233E+04  1.575714E+04
        76   8 -5.375731E+05 -9.773034E+04 -1.807124E+05 -2.193307E+05  1.324942E+05  4.332701E+04
        76   9 -5.872325E+05 -3.994214E+05 -3.704472E+05 -1.798599E+05  2.053165E+05  7.506856E+04
        76  10 -2.145590E+05 -5.238302E+03 -3.433035E+04 -1.382204E+05  7.680469E-10 -1.495205E-10
        76  11 -1.980446E+05  6.499579E+04 -8.371570E+04 -9.076001E+04 -1.895492E-09 -1.606377E-12
        76  12 -2.967329E+05 -1.646975E+05 -2.665739E+05  2.757039E+04 -1.848690E-09 -1.374665E-09
        76  13 -4.092375E+05 -5.100002E+04 -8.081127E+04 -1.630661E+05 -6.885048E-10 -1.272812E-09
        76  14 -3.678332E+05 -1.637451E+04 -1.322311E+05 -1.550566E+05 -3.497936E-09  1.195206E-09
        76  15 -4.420219E+05 -2.820857E+05 -3.185553E+05 -7.616600E+04 -2.429747E-09  1.170024E-09
        76  16 -6.038780E+05 -9.676283E+04 -1.272943E+05 -1.879074E+05 -3.016620E-09 -1.264084E-09
        76  17 -5.375925E+05 -9.773708E+04 -1.807490E+05 -2.193353E+05 -2.474802E-09 -1.513598E-09
        76  18 -5.872793E+05 -3.994388E+05 -3.705371E+05 -1.798724E+05  5.006172E-10  2.110328E-10
        76  19 -2.145551E+05 -5.237034E+03 -3.432302E+04 -1.382196E+05 -6.020601E+04 -1.654185E+04
        76  20 -1.980256E+05  6.500237E+04 -8.367996E+04 -9.075549E+04 -1.310632E+05 -4.279826E+04
        76  21 -2.966883E+05 -1.646809E+05 -2.664884E+05  2.758222E+04 -2.003456E+05 -7.324953E+04
        76  22 -4.092336E+05 -5.099880E+04 -8.080420E+04 -1.630654E+05 -5.915399E+04 -1.614949E+04
        76  23 -3.678141E+05 -1.636785E+04 -1.321949E+05 -1.550520E+05 -1.317788E+05 -4.306270E+04
        76  24 -4.419762E+05 -2.820687E+05 -3.184676E+05 -7.615388E+04 -2.028314E+05 -7.415949E+04
        76  25 -6.038743E+05 -9.676166E+04 -1.272875E+05 -1.879067E+05 -5.810233E+04 -1.575714E+04
        76  26 -5.375731E+05 -9.773034E+04 -1.807124E+05 -2.193307E+05 -1.324942E+05 -4.332701E+04
        76  27 -5.872325E+05 -3.994214E+05 -3.704472E+05 -1.798599E+05 -2.053165E+05 -7.506856E+04
        77   1  2.817197E+05  2.332430E+06  2.710636E+05 -3.740791E+04  1.443480E+04  1.216484E+05
        77   2  2.390562E+05  2.316660E+06  2.004040E+05 -2.322699E+04  5.018198E+04  6.750664E+04
        77   3  2.253052E+05  2.315213E+06  1.721568E+05 -9.094682E+03  6.441685E+04  1.337127E+04
        77   4  4.217170E+04  1.357571E+06  4.612636E+04 -9.616667E+03  1.444718E+04  3.097321E+04
        77   5  1.161205E+04  1.354051E+06  2.378561E+04 -9.600247E+03  5.020036E+04  1.879402E+04
        77   6  2.718359E+03  1.357600E+06  1.479733E+04 -9.630112E+03  6.442842E+04  6.618188E+03
        77   7 -1.974354E+05  3.836066E+05 -1.788428E+05  1.813077E+04  1.445148E+04 -5.956111E+04
        77   8 -2.158826E+05  3.923427E+05 -1.528617E+05  4.004928E+03  5.021663E+04 -2.984532E+04
        77   9 -2.199155E+05  4.008908E+05 -1.425887E+05 -1.016461E+04  6.444002E+04 -1.248689E+02
        77  10  2.817155E+05  2.332414E+06  2.710355E+05 -3.740933E+04  2.660018E-10  1.498618E-09
        77  11  2.390523E+05  2.316655E+06  2.003907E+05 -2.322972E+04  2.471819E-09 -1.493083E-09
        77  12  2.253007E+05  2.315212E+06  1.721486E+05 -9.095375E+03  1.266163E-09 -3.714062E-09
        77  13  4.217122E+04  1.357570E+06  4.612417E+04 -9.617027E+03 -7.970939E-10  1.923241E-11
        77  14  1.160925E+04  1.354050E+06  2.378021E+04 -9.601006E+03 -1.060709E-09 -3.655269E-10
        77  15  2.713887E+03  1.357599E+06  1.478945E+04 -9.630456E+03  1.493415E-09 -4.925810E-10
        77  16 -1.974366E+05  3.836027E+05 -1.788499E+05  1.813146E+04 -8.064295E-10 -1.561152E-09
        77  17 -2.158855E+05  3.923411E+05 -1.528682E+05  4.006135E+03 -6.335691E-10  8.387873E-10
        77  18 -2.199199E+05  4.008897E+05 -1.425965E+05 -1.016460E+04 -7.000595E-10  3.483860E-09
        77  19  2.817197E+05  2.332430E+06  2.710636E+05 -3.740791E+04 -1.443480E+04 -1.216484E+05
        77  20  2.390562E+05  2.316660E+06  2.004040E+05 -2.322699E+04 -5.018198E+04 -6.750664E+04
        77  21  2.253052E+05  2.315213E+06  1.721568E+05 -9.094682E+03 -6.441685E+04 -1.337127E+04
        77  22  4.217170E+04  1.357571E+06  4.612636E+04 -9.616667E+03 -1.444718E+04 -3.097321E+04
        77  23  1.161205E+04  1.354051E+06  2.378561E+04 -9.600247E+03 -5.020036E+04 -1.879402E+04
        77  24  2.718359E+03  1.357600E+06  1.479733E+04 -9.630112E+03 -6.442842E+04 -6.618188E+03
        77  25 -1.974354E+05  3.836066E+05 -1.788428E+05  1.813077E+04 -1.445148E+04  5.956111E+04
        77  26 -2.158826E+05  3.923427E+05 -1.528617E+05  4.004928E+03 -5.021663E+04  2.984532E+04
        77  27 -2.199155E+05  4.008908E+05 -1.425887E+05 -1.016461E+04 -6.444002E+04  1.248689E+02
        78   1  2.230785E+05  2.307651E+06  1.666123E+05 -1.185028E+04  6.585788E+04  1.228068E+04
        78   2  2.190966E+05  2.298091E+06  1.607037E+05 -9.510430E+03  6.763070E+04 -1.931356E+03
        78   3  2.198660E+05  2.291631E+06  1.652314E+05 -8.741469E+03  6.498052E+04 -1.614610E+04
        78   4  2.437010E+03  1.356387E+06  1.265974E+04 -9.968722E+03  6.587079E+04  4.520880E+03
        78   5  1.087612E+03  1.355585E+06  1.117057E+04 -9.183433E+03  6.763982E+04 -1.058215E+03
        78   6  2.998048E+03  1.356391E+06  1.414241E+04 -9.969169E+03  6.498253E+04 -6.640180E+03
        78   7 -2.182502E+05  4.060167E+05 -1.413176E+05 -8.090035E+03  6.588366E+04 -3.227492E+03
        78   8 -2.169655E+05  4.139588E+05 -1.383853E+05 -8.856818E+03  6.764896E+04 -1.863459E+02
        78   9 -2.139140E+05  4.220157E+05 -1.369702E+05 -1.119480E+04  6.498451E+04  2.851973E+03
        78  10  2.230738E+05  2.307650E+06  1.666039E+05 -1.185093E+04 -2.155727E-09  1.658928E-09
        78  11  2.190917E+05  2.298090E+06  1.606951E+05 -9.510324E+03  3.945441E-10 -1.233100E-09
        78  12  2.198614E+05  2.291630E+06  1.652230E+05 -8.740625E+03 -2.252527E-09 -8.903751E-10
        78  13  2.432342E+03  1.356385E+06  1.265155E+04 -9.968962E+03 -1.332393E-11  1.143156E-10
        78  14  1.082696E+03  1.355583E+06  1.116196E+04 -9.183376E+03 -6.655541E-10 -1.329775E-09
        78  15  2.993499E+03  1.356390E+06  1.413439E+04 -9.968821E+03 -1.058467E-09 -1.035662E-09
        78  16 -2.182548E+05  4.060156E+05 -1.413257E+05 -8.089864E+03  6.223619E-14 -1.557222E-09
        78  17 -2.169704E+05  4.139576E+05 -1.383939E+05 -8.856808E+03 -3.847900E-10 -7.019968E-10
        78  18 -2.139185E+05  4.220146E+05 -1.369782E+05 -1.119495E+04  9.967855E-10  3.424165E-10
        78  19  2.230785E+05  2.307651E+06  1.666123E+05 -1.185028E+04 -6.585788E+04 -1.228068E+04
        78  20  2.190966E+05  2.298091E+06  1.607037E+05 -9.510430E+03 -6.763070E+04  1.931356E+03
        78  21  2.198660E+05  2.291631E+06  1.652314E+05 -8.741469E+03 -6.498052E+04  1.614610E+04
        78  22  2.437010E+03  1.356387E+06  1.265974E+04 -9.968722E+03 -6.587079E+04 -4.520880E+03
        78  23  1.087612E+03  1.355585E+06  1.117057E+04 -9.183433E+03 -6.763982E+04  1.058215E+03
        78  24  2.998048E+03  1.356391E+06  1.414241E+04 -9.969169E+03 -6.498253E+04  6.640180E+03
        78  25 -2.182502E+05  4.060167E+05 -1.413176E+05 -8.090035E+03 -6.588366E+04  3.227492E+03
        78  26 -2.169655E+05  4.139588E+05 -1.383853E+05 -8.856818E+03 -6.764896E+04  1.863459E+02
        78  27 -2.139140E+05  4.220157E+05 -1.369702E+05 -1.119480E+04 -6.498451E+04 -2.851973E+03
        79   1  2.197579E+05  2.289273E+06  1.698219E+05 -1.191839E+04  6.295460E+04 -1.756113E+04
        79   2  2.316507E+05  2.274182E+06  1.970179E+05  7.002475E+03  4.854694E+04 -7.158335E+04
        79   3  2.768446E+05  2.274480E+06  2.676385E+05  2.293200E+04  1.399545E+04 -1.256339E+05
        79   4  3.347092E+03  1.357948E+06  1.714100E+04 -1.029049E+04  6.295612E+04 -9.009008E+03
        79   5  1.430572E+04  1.353636E+06  2.872067E+04 -8.773407E+03  4.850808E+04 -2.374178E+04
        79   6  5.178304E+04  1.357922E+06  5.651471E+04 -1.024965E+04  1.390556E+04 -3.850107E+04
        79   7 -2.131080E+05  4.274784E+05 -1.355647E+05 -8.664943E+03  6.295768E+04 -4.692286E+02
        79   8 -2.030849E+05  4.339156E+05 -1.396023E+05 -2.452515E+04  4.846677E+04  2.403098E+04
        79   9 -1.733289E+05  4.421575E+05 -1.546357E+05 -4.338188E+04  1.380631E+04  4.850449E+04
        79  10  2.197535E+05  2.289272E+06  1.698138E+05 -1.191750E+04 -5.662318E-10  2.435293E-09
        79  11  2.316468E+05  2.274176E+06  1.970039E+05  7.005271E+03 -4.818409E-10 -2.128341E-09
        79  12  2.768402E+05  2.274463E+06  2.676086E+05  2.293342E+04 -3.513874E-11 -9.510805E-10
        79  13  3.342812E+03  1.357947E+06  1.713340E+04 -1.029004E+04 -2.575652E-09  3.666371E-11
        79  14  1.430304E+04  1.353635E+06  2.871519E+04 -8.772480E+03 -1.589428E-10 -2.233605E-09
        79  15  5.178243E+04  1.357921E+06  5.651157E+04 -1.024922E+04  7.979803E-10 -1.764540E-09
        79  16 -2.131123E+05  4.274773E+05 -1.355721E+05 -8.664919E+03 -1.049937E-09 -1.946500E-09
        79  17 -2.030876E+05  4.339143E+05 -1.396078E+05 -2.452609E+04  2.126612E-09 -1.095218E-09
        79  18 -1.733297E+05  4.421550E+05 -1.546405E+05 -4.338242E+04  8.561734E-10  2.583317E-10
        79  19  2.197579E+05  2.289273E+06  1.698219E+05 -1.191839E+04 -6.295460E+04  1.756113E+04
        79  20  2.316507E+05  2.274182E+06  1.970179E+05  7.002475E+03 -4.854694E+04  7.158335E+04
        79  21  2.768446E+05  2.274480E+06  2.676385E+05  2.293200E+04 -1.399545E+04  1.256339E+05
        79  22  3.347092E+03  1.357948E+06  1.714100E+04 -1.029049E+04 -6.295612E+04  9.009008E+03
        79  23  1.430572E+04  1.353636E+06  2.872067E+04 -8.773407E+03 -4.850808E+04  2.374178E+04
        79  24  5.178304E+04  1.357922E+06  5.651471E+04 -1.024965E+04 -1.390556E+04  3.850107E+04
        79  25 -2.131080E+05  4.274784E+05 -1.355647E+05 -8.664943E+03 -6.295768E+04  4.692286E+02
        79  26 -2.030849E+05  4.339156E+05 -1.396023E+05 -2.452515E+04 -4.846677E+04 -2.403098E+04
        79  27 -1.733289E+05  4.421575E+05 -1.546357E+05 -4.338188E+04 -1.380631E+04 -4.850449E+04
        80   1 -2.517980E+06 -4.183498E+05 -3.989281E+05 -6.186009E+04  2.137939E+04  1.773352E+04
        80   2 -2.398471E+06 -4.457125E+05 -3.945314E+05 -1.776835E+04  2.339308E+04  5.268439E+04
        80   3 -2.257675E+06 -4.076772E+05 -3.741246E+05 -8.014564E+04  2.557715E+04  4.793134E+04
        80   4 -6.316362E+05  5.290540E+04  6.825327E+04 -7.087563E+04  4.638468E+04  1.784542E+04
        80   5 -6.437966E+05 -9.403137E+03  2.929281E+04 -1.753007E+04  3.031459E+04  5.269872E+04
        80   6 -6.315854E+05 -3.263470E+03  1.887755E+04 -7.063346E+04  1.441449E+04  4.789772E+04
        80   7  1.257952E+06  5.238948E+05  5.351720E+05 -7.992227E+04  7.146593E+04  1.795644E+04
        80   8  1.113702E+06  4.266808E+05  4.528965E+05 -1.729354E+04  3.725555E+04  5.271304E+04
        80   9  9.969293E+05  4.009568E+05  4.116904E+05 -6.109747E+04  3.222573E+03  4.786381E+04
        80  10 -2.517981E+06 -4.183503E+05 -3.989296E+05 -6.186040E+04  1.364946E-09  3.252853E-11
        80  11 -2.398472E+06 -4.457156E+05 -3.945377E+05 -1.776934E+04 -3.103924E-09 -2.490603E-10
        80  12 -2.257677E+06 -4.076798E+05 -3.741301E+05 -8.014662E+04 -6.891374E-09  6.387875E-10
        80  13 -6.316386E+05  5.290448E+04  6.824863E+04 -7.087630E+04  1.105087E-09 -8.123122E-11
        80  14 -6.437984E+05 -9.406366E+03  2.928586E+04 -1.753135E+04 -2.750247E-09  5.719280E-10
        80  15 -6.315863E+05 -3.265989E+03  1.887285E+04 -7.063402E+04 -1.241614E-09  8.074281E-10
        80  16  1.257947E+06  5.238931E+05  5.351618E+05 -7.992330E+04 -3.819288E-09 -1.582836E-10
        80  17  1.113700E+06  4.266774E+05  4.528886E+05 -1.729512E+04 -2.059254E-09  4.442881E-10
        80  18  9.969287E+05  4.009543E+05  4.116861E+05 -6.109760E+04  1.826200E-09  5.426786E-10
        80  19 -2.517980E+06 -4.183498E+05 -3.989281E+05 -6.186009E+04 -2.137939E+04 -1.773352E+04
        80  20 -2.398471E+06 -4.457125E+05 -3.945314E+05 -1.776835E+04 -2.339308E+04 -5.268439E+04
        80  21 -2.257675E+06 -4.076772E+05 -3.741246E+05 -8.014564E+04 -2.557715E+04 -4.793134E+04
        80  22 -6.316362E+05  5.290540E+04  6.825327E+04 -7.087563E+04 -4.638468E+04 -1.784542E+04
        80  23 -6.437966E+05 -9.403137E+03  2.929281E+04 -1.753007E+04 -3.031459E+04 -5.269872E+04
        80  24 -6.315854E+05 -3.263470E+03  1.887755E+04 -7.063346E+04 -1.441449E+04 -4.789772E+04
        80  25  1.257952E+06  5.238948E+05  5.351720E+05 -7.992227E+04 -7.146593E+04 -1.795644E+04
        80  26  1.113702E+06  4.266808E+05  4.528965E+05 -1.729354E+04 -3.725555E+04 -5.271304E+04
        80  27  9.969293E+05  4.009568E+05  4.116904E+05 -6.109747E+04 -3.222573E+03 -4.786381E+04
        81   1 -2.061014E+06 -3.492343E+05 -3.299211E+05 -7.206465E+04  1.151475E+04  3.914915E+04
        81   2 -1.928814E+06 -3.222991E+05 -3.045383E+05 -1.672269E+04  9.161153E+03  3.725933E+04
        81   3 -1.791880E+06 -2.879524E+05 -2.752338E+05 -7.246066E+04  6.797727E+03  3.198728E+04
        81   4 -6.357136E+05  5.323821E+03  1.534427E+04 -7.173562E+04  1.144393E+04  3.914311E+04
        81   5 -6.381799E+05 -1.370806E+03  7.541353E+03 -1.619831E+04  7.544097E+03  3.725279E+04
        81   6 -6.356640E+05 -3.907480E+02  4.730199E+03 -7.172653E+04  3.634939E+03  3.198342E+04
        81   7  7.914480E+05  3.597328E+05  3.604633E+05 -7.140651E+04  1.137294E+04  3.913708E+04
        81   8  6.539804E+05  3.194354E+05  3.195014E+05 -1.567315E+04  5.923669E+03  3.724627E+04
        81   9  5.217769E+05  2.870728E+05  2.845980E+05 -7.099095E+04  4.662605E+02  3.197956E+04
        81  10 -2.061015E+06 -3.492360E+05 -3.299242E+05 -7.206501E+04 -3.135754E-09  7.470565E-10
        81  11 -1.928814E+06 -3.223006E+05 -3.045411E+05 -1.672297E+04  7.654528E-10 -9.697789E-11
        81  12 -1.791881E+06 -2.879535E+05 -2.752358E+05 -7.246084E+04 -2.000353E-09 -5.796967E-10
        81  13 -6.357141E+05  5.322141E+03  1.534114E+04 -7.173598E+04 -5.336478E-09  3.670138E-10
        81  14 -6.381803E+05 -1.372311E+03  7.538639E+03 -1.619854E+04  1.698270E-10 -6.084216E-10
        81  15 -6.356643E+05 -3.918497E+02  4.728252E+03 -7.172662E+04 -1.456545E-09 -9.539224E-11
        81  16  7.914474E+05  3.597311E+05  3.604601E+05 -7.140687E+04 -1.143966E-10  3.374156E-10
        81  17  6.539800E+05  3.194339E+05  3.194987E+05 -1.567332E+04 -7.052975E-10 -4.224391E-10
        81  18  5.217766E+05  2.870717E+05  2.845960E+05 -7.099096E+04 -5.544048E-10  4.347191E-10
        81  19 -2.061014E+06 -3.492343E+05 -3.299211E+05 -7.206465E+04 -1.151475E+04 -3.914915E+04
        81  20 -1.928814E+06 -3.222991E+05 -3.045383E+05 -1.672269E+04 -9.161153E+03 -3.725933E+04
        81  21 -1.791880E+06 -2.879524E+05 -2.752338E+05 -7.246066E+04 -6.797727E+03 -3.198728E+04
        81  22 -6.357136E+05  5.323821E+03  1.534427E+04 -7.173562E+04 -1.144393E+04 -3.914311E+04
        81  23 -6.381799E+05 -1.370806E+03  7.541353E+03 -1.619831E+04 -7.544097E+03 -3.725279E+04
        81  24 -6.356640E+05 -3.907480E+02  4.730199E+03 -7.172653E+04 -3.634939E+03 -3.198342E+04
        81  25  7.914480E+05  3.597328E+05  3.604633E+05 -7.140651E+04 -1.137294E+04 -3.913708E+04
        81  26  6.539804E+05  3.194354E+05  3.195014E+05 -1.567315E+04 -5.923669E+03 -3.724627E+04
        81  27  5.217769E+05  2.870728E+05  2.845980E+05 -7.099095E+04 -4.662605E+02 -3.197956E+04
        82   1 -1.585654E+06 -2.354953E+05 -2.255453E+05 -7.197946E+04  5.118055E+03  2.839715E+04
        82   2 -1.448256E+06 -2.019111E+05 -1.942358E+05 -1.488153E+04  4.292051E+03  2.330732E+04
        82   3 -1.309818E+06 -1.673107E+05 -1.619965E+05 -7.166048E+04  3.455694E+03  1.789570E+04
        82   4 -6.364116E+05  4.335949E+02  3.638206E+03 -7.235148E+04  2.877423E+03  2.839523E+04
        82   5 -6.369199E+05 -2.172334E+02  1.920997E+03 -1.541765E+04  1.903402E+03  2.330750E+04
        82   6 -6.363772E+05  1.755566E+02  1.237274E+03 -7.235148E+04  9.192143E+02  1.789824E+04
        82   7  3.136563E+05  2.362965E+05  2.327572E+05 -7.272394E+04  6.333666E+02  2.839333E+04
        82   8  1.750195E+05  2.014284E+05  1.980305E+05 -1.595432E+04 -4.883654E+02  2.330769E+04
        82   9  3.747901E+04  1.676285E+05  1.644384E+05 -7.304305E+04 -1.620013E+03  1.790078E+04
        82  10 -1.585654E+06 -2.354962E+05 -2.255469E+05 -7.197957E+04  1.674480E-09 -6.551489E-10
        82  11 -1.448257E+06 -2.019117E+05 -1.942369E+05 -1.488161E+04  2.208664E-09 -8.836606E-10
        82  12 -1.309818E+06 -1.673111E+05 -1.619971E+05 -7.166053E+04 -5.192571E-10  1.137976E-09
        82  13 -6.364118E+05  4.327271E+02  3.636676E+03 -7.235154E+04  1.435397E-11  1.271156E-10
        82  14 -6.369201E+05 -2.178175E+02  1.919969E+03 -1.541768E+04 -3.348407E-09 -3.123598E-10
        82  15 -6.363773E+05  1.752125E+02  1.236671E+03 -7.235149E+04 -2.709011E-09  5.986595E-10
        82  16  3.136561E+05  2.362957E+05  2.327556E+05 -7.272396E+04 -5.775401E-10  3.591093E-10
        82  17  1.750194E+05  2.014279E+05  1.980295E+05 -1.595431E+04 -4.341789E-09 -9.135947E-10
        82  18  3.747892E+04  1.676282E+05  1.644378E+05 -7.304303E+04 -1.881566E-09  2.528619E-11
        82  19 -1.585654E+06 -2.354953E+05 -2.255453E+05 -7.197946E+04 -5.118055E+03 -2.839715E+04
        82  20 -1.448256E+06 -2.019111E+05 -1.942358E+05 -1.488153E+04 -4.292051E+03 -2.330732E+04
        82  21 -1.309818E+06 -1.673107E+05 -1.619965E+05 -7.166048E+04 -3.455694E+03 -1.789570E+04
        82  22 -6.364116E+05  4.335949E+02  3.638206E+03 -7.235148E+04 -2.877423E+03 -2.839523E+04
        82  23 -6.369199E+05 -2.172334E+02  1.920997E+03 -1.541765E+04 -1.903402E+03 -2.330750E+04
        82  24 -6.363772E+05  1.755566E+02  1.237274E+03 -7.235148E+04 -9.192143E+02 -1.789824E+04
        82  25  3.136563E+05  2.362965E+05  2.327572E+05 -7.272394E+04 -6.333666E+02 -2.839333E+04
        82  26  1.750195E+05  2.014284E+05  1.980305E+05 -1.595432E+04  4.883654E+02 -2.330769E+04
        82  27  3.747901E+04  1.676285E+05  1.644384E+05 -7.304305E+04  1.620013E+03 -1.790078E+04
        83   1 -1.099080E+06 -1.146670E+05 -1.104459E+05 -7.211521E+04  3.176280E+03  1.468816E+04
        83   2 -9.592157E+05 -8.017444E+04 -7.742814E+04 -1.456184E+04  2.898569E+03  9.260221E+03
        83   3 -8.195699E+05 -4.525116E+04 -4.420529E+04 -7.238217E+04  2.616667E+03  3.792892E+03
        83   4 -6.365935E+05  1.974837E+02  9.279262E+02 -7.268527E+04  7.134009E+02  1.469168E+04
        83   5 -6.364686E+05  3.604877E+01  5.809251E+02 -1.500015E+04  4.172920E+02  9.264592E+03
        83   6 -6.365788E+05  3.093180E+02  4.523547E+02 -7.268499E+04  1.170533E+02  3.798194E+03
        83   7 -1.739111E+05  1.150464E+05  1.122865E+05 -7.325567E+04 -1.751309E+03  1.469520E+04
        83   8 -3.136260E+05  8.023891E+04  7.858253E+04 -1.543864E+04 -2.065272E+03  9.268966E+03
        83   9 -4.535571E+05  4.586732E+04  4.510758E+04 -7.298787E+04 -2.383296E+03  3.803498E+03
        83  10 -1.099080E+06 -1.146673E+05 -1.104463E+05 -7.211525E+04 -6.194141E-10  1.435889E-09
        83  11 -9.592158E+05 -8.017453E+04 -7.742831E+04 -1.456186E+04  3.883449E-10  1.628648E-10
        83  12 -8.195699E+05 -4.525118E+04 -4.420533E+04 -7.238218E+04 -4.368493E-09  1.577022E-10
        83  13 -6.365936E+05  1.972518E+02  9.275198E+02 -7.268528E+04 -5.438684E-09  7.894643E-10
        83  14 -6.364686E+05  3.595658E+01  5.807635E+02 -1.500015E+04 -1.294769E-09  6.039474E-10
        83  15 -6.365788E+05  3.093025E+02  4.523276E+02 -7.268499E+04 -2.796646E-09  5.595368E-10
        83  16 -1.739112E+05  1.150462E+05  1.122861E+05 -7.325565E+04 -3.121621E-09  2.970380E-10
        83  17 -3.136260E+05  8.023882E+04  7.858236E+04 -1.543863E+04 -1.230945E-09  4.311336E-11
        83  18 -4.535571E+05  4.586731E+04  4.510755E+04 -7.298786E+04  1.214482E-09  1.525566E-11
        83  19 -1.099080E+06 -1.146670E+05 -1.104459E+05 -7.211521E+04 -3.176280E+03 -1.468816E+04
        83  20 -9.592157E+05 -8.017444E+04 -7.742814E+04 -1.456184E+04 -2.898569E+03 -9.260221E+03
        83  21 -8.195699E+05 -4.525116E+04 -4.420529E+04 -7.238217E+04 -2.616667E+03 -3.792892E+03
        83  22 -6.365935E+05  1.974837E+02  9.279262E+02 -7.268527E+04 -7.134009E+02 -1.469168E+04
        83  23 -6.364686E+05  3.604877E+01  5.809251E+02 -1.500015E+04 -4.172920E+02 -9.264592E+03
        83  24 -6.365788E+05  3.093180E+02  4.523547E+02 -7.268499E+04 -1.170533E+02 -3.798194E+03
        83  25 -1.739111E+05  1.150464E+05  1.122865E+05 -7.325567E+04  1.751309E+03 -1.469520E+04
        83  26 -3.136260E+05  8.023891E+04  7.858253E+04 -1.543864E+04  2.065272E+03 -9.268966E+03
        83  27 -4.535571E+05  4.586732E+04  4.510758E+04 -7.298787E+04  2.383296E+03 -3.803498E+03
        84   1 -6.069979E+05  7.743803E+03  8.007808E+03 -7.278972E+04  2.528356E+03  5.968854E+02
        84   2 -4.667638E+05  4.221036E+04  4.146231E+04 -1.519351E+04  2.272077E+03 -4.874167E+03
        84   3 -3.268956E+05  7.710711E+04  7.507537E+04 -7.316151E+04  2.017933E+03 -1.031629E+04
        84   4 -6.366029E+05  3.015229E+02  4.226108E+02 -7.272860E+04  2.835618E+01  6.023372E+02
        84   5 -6.364137E+05  6.077390E+01  4.697219E+02 -1.494561E+04 -2.149413E+02 -4.869229E+03
        84   6 -6.366107E+05  2.493292E+02  6.675837E+02 -7.272875E+04 -4.560483E+02 -1.031179E+04
        84   7 -6.662070E+05 -7.140821E+03 -7.162631E+03 -7.266747E+04 -2.471524E+03  6.077887E+02
        84   8 -8.060372E+05 -4.209092E+04 -4.052491E+04 -1.469776E+04 -2.701282E+03 -4.864292E+03
        84   9 -9.462378E+05 -7.661543E+04 -7.374700E+04 -7.229616E+04 -2.928800E+03 -1.030730E+04
        84  10 -6.069979E+05  7.743801E+03  8.007795E+03 -7.278972E+04 -1.655938E-10  1.329844E-10
        84  11 -4.667638E+05  4.221034E+04  4.146226E+04 -1.519350E+04 -4.827557E-10 -3.473279E-10
        84  12 -3.268956E+05  7.710699E+04  7.507516E+04 -7.316149E+04 -2.826297E-09  7.300368E-10
        84  13 -6.366029E+05  3.015225E+02  4.226101E+02 -7.272860E+04 -2.062607E-09  5.209946E-10
        84  14 -6.364137E+05  6.074843E+01  4.696773E+02 -1.494561E+04 -2.383219E-09 -1.261228E-10
        84  15 -6.366107E+05  2.492150E+02  6.673835E+02 -7.272875E+04 -2.003576E-10  5.273077E-10
        84  16 -6.662070E+05 -7.140823E+03 -7.162643E+03 -7.266747E+04 -1.328059E-09 -3.381736E-10
        84  17 -8.060372E+05 -4.209095E+04 -4.052497E+04 -1.469777E+04 -1.644982E-09 -3.610921E-10
        84  18 -9.462379E+05 -7.661555E+04 -7.374722E+04 -7.229619E+04  2.545003E-09 -3.802433E-10
        84  19 -6.069979E+05  7.743803E+03  8.007808E+03 -7.278972E+04 -2.528356E+03 -5.968854E+02
        84  20 -4.667638E+05  4.221036E+04  4.146231E+04 -1.519351E+04 -2.272077E+03  4.874167E+03
        84  21 -3.268956E+05  7.710711E+04  7.507537E+04 -7.316151E+04 -2.017933E+03  1.031629E+04
        84  22 -6.366029E+05  3.015229E+02  4.226108E+02 -7.272860E+04 -2.835618E+01 -6.023372E+02
        84  23 -6.364137E+05  6.077390E+01  4.697219E+02 -1.494561E+04  2.149413E+02  4.869229E+03
        84  24 -6.366107E+05  2.493292E+02  6.675837E+02 -7.272875E+04  4.560483E+02  1.031179E+04
        84  25 -6.662070E+05 -7.140821E+03 -7.162631E+03 -7.266747E+04  2.471524E+03 -6.077887E+02
        84  26 -8.060372E+05 -4.209092E+04 -4.052491E+04 -1.469776E+04  2.701282E+03  4.864292E+03
        84  27 -9.462378E+05 -7.661543E+04 -7.374700E+04 -7.229616E+04  2.928800E+03  1.030730E+04
        85   1 -1.148599E+05  1.298878E+05  1.273052E+05 -7.314995E+04  1.938963E+03 -1.353034E+04
        85   2  2.364035E+04  1.639023E+05  1.608380E+05 -1.587493E+04  1.124857E+03 -1.896153E+04
        85   3  1.627173E+05  1.987657E+05  1.951555E+05 -7.307807E+04  3.190606E+02 -2.409903E+04
        85   4 -6.364565E+05  2.392847E+02  8.705579E+02 -7.248874E+04 -6.048407E+02 -1.352652E+04
        85   5 -6.367397E+05 -1.188788E+02  1.320677E+03 -1.524587E+04 -1.284583E+03 -1.895970E+04
        85   6 -6.364852E+05  3.504644E+02  2.464480E+03 -7.248876E+04 -1.955840E+03 -2.409899E+04
        85   7 -1.157804E+06 -1.294292E+05 -1.255837E+05 -7.182797E+04 -3.146513E+03 -1.352271E+04
        85   8 -1.296721E+06 -1.641720E+05 -1.582279E+05 -1.461736E+04 -3.691468E+03 -1.895787E+04
        85   9 -1.435103E+06 -1.981115E+05 -1.902722E+05 -7.190004E+04 -4.227821E+03 -2.409895E+04
        85  10 -1.148599E+05  1.298876E+05  1.273049E+05 -7.314993E+04  2.587187E-09  5.822049E-11
        85  11  2.364025E+04  1.639019E+05  1.608373E+05 -1.587491E+04 -1.024662E-09 -8.705501E-10
        85  12  1.627171E+05  1.987651E+05  1.951545E+05 -7.307807E+04 -2.862271E-09  7.631480E-10
        85  13 -6.364565E+05  2.390882E+02  8.702135E+02 -7.248875E+04 -5.323747E-11 -5.130256E-10
        85  14 -6.367398E+05 -1.192651E+02  1.319999E+03 -1.524589E+04 -2.374222E-09 -1.204300E-09
        85  15 -6.364854E+05  3.498399E+02  2.463382E+03 -7.248880E+04 -2.530155E-10  1.797678E-10
        85  16 -1.157804E+06 -1.294294E+05 -1.255841E+05 -7.182801E+04 -4.604976E-09 -2.049293E-10
        85  17 -1.296721E+06 -1.641724E+05 -1.582286E+05 -1.461742E+04 -1.808032E-09 -7.011868E-10
        85  18 -1.435103E+06 -1.981121E+05 -1.902734E+05 -7.190012E+04  1.797901E-09  4.132400E-10
        85  19 -1.148599E+05  1.298878E+05  1.273052E+05 -7.314995E+04 -1.938963E+03  1.353034E+04
        85  20  2.364035E+04  1.639023E+05  1.608380E+05 -1.587493E+04 -1.124857E+03  1.896153E+04
        85  21  1.627173E+05  1.987657E+05  1.951555E+05 -7.307807E+04 -3.190606E+02  2.409903E+04
        85  22 -6.364565E+05  2.392847E+02  8.705579E+02 -7.248874E+04  6.048407E+02  1.352652E+04
        85  23 -6.367397E+05 -1.188788E+02  1.320677E+03 -1.524587E+04  1.284583E+03  1.895970E+04
        85  24 -6.364852E+05  3.504644E+02  2.464480E+03 -7.248876E+04  1.955840E+03  2.409899E+04
        85  25 -1.157804E+06 -1.294292E+05 -1.255837E+05 -7.182797E+04  3.146513E+03  1.352271E+04
        85  26 -1.296721E+06 -1.641720E+05 -1.582279E+05 -1.461736E+04  3.691468E+03  1.895787E+04
        85  27 -1.435103E+06 -1.981115E+05 -1.902722E+05 -7.190004E+04  4.227821E+03  2.409895E+04
        86   1  3.720906E+05  2.502045E+05  2.470320E+05 -7.187516E+04  6.610741E+02 -2.767346E+04
        86   2  5.062109E+05  2.830773E+05  2.812765E+05 -1.593661E+04 -3.414534E+03 -3.298083E+04
        86   3  6.441376E+05  3.214612E+05  3.199349E+05 -7.202499E+04 -7.480636E+03 -3.515121E+04
        86   4 -6.359269E+05 -1.810487E+02  3.218863E+03 -7.194464E+04 -2.474135E+03 -2.767463E+04
        86   5 -6.377195E+05 -9.521729E+02  5.080490E+03 -1.592635E+04 -5.113832E+03 -3.298523E+04
        86   6 -6.359720E+05  3.543522E+03  1.036387E+04 -7.194785E+04 -7.743114E+03 -3.515621E+04
        86   7 -1.643016E+06 -2.506410E+05 -2.406672E+05 -7.201383E+04 -5.604269E+03 -2.767580E+04
        86   8 -1.780453E+06 -2.850773E+05 -2.712093E+05 -1.591616E+04 -6.810006E+03 -3.298962E+04
        86   9 -1.914584E+06 -3.144941E+05 -2.993249E+05 -7.187113E+04 -8.005041E+03 -3.516122E+04
        86  10  3.720904E+05  2.502036E+05  2.470305E+05 -7.187514E+04 -4.829859E-09  5.890715E-10
        86  11  5.062106E+05  2.830761E+05  2.812744E+05 -1.593670E+04 -2.334406E-10 -1.262382E-09
        86  12  6.441372E+05  3.214598E+05  3.199325E+05 -7.202520E+04  4.139004E-09  6.007491E-10
        86  13 -6.359271E+05 -1.818725E+02  3.217413E+03 -7.194469E+04  1.144346E-09  2.719808E-10
        86  14 -6.377198E+05 -9.533480E+02  5.078397E+03 -1.592648E+04 -1.061472E-09 -1.104027E-09
        86  15 -6.359724E+05  3.542179E+03  1.036143E+04 -7.194807E+04  4.159970E-10  1.984114E-10
        86  16 -1.643016E+06 -2.506418E+05 -2.406687E+05 -7.201395E+04  4.845853E-09  7.745862E-11
        86  17 -1.780454E+06 -2.850785E+05 -2.712114E+05 -1.591634E+04 -2.930377E-09 -1.059649E-09
        86  18 -1.914585E+06 -3.144955E+05 -2.993273E+05 -7.187136E+04 -6.050631E-09 -2.030987E-10
        86  19  3.720906E+05  2.502045E+05  2.470320E+05 -7.187516E+04 -6.610741E+02  2.767346E+04
        86  20  5.062109E+05  2.830773E+05  2.812765E+05 -1.593661E+04  3.414534E+03  3.298083E+04
        86  21  6.441376E+05  3.214612E+05  3.199349E+05 -7.202499E+04  7.480636E+03  3.515121E+04
        86  22 -6.359269E+05 -1.810487E+02  3.218863E+03 -7.194464E+04  2.474135E+03  2.767463E+04
        86  23 -6.377195E+05 -9.521729E+02  5.080490E+03 -1.592635E+04  5.113832E+03  3.298523E+04
        86  24 -6.359720E+05  3.543522E+03  1.036387E+04 -7.194785E+04  7.743114E+03  3.515621E+04
        86  25 -1.643016E+06 -2.506410E+05 -2.406672E+05 -7.201383E+04  5.604269E+03  2.767580E+04
        86  26 -1.780453E+06 -2.850773E+05 -2.712093E+05 -1.591616E+04  6.810006E+03  3.298962E+04
        86  27 -1.914584E+06 -3.144941E+05 -2.993249E+05 -7.187113E+04  8.005041E+03  3.516122E+04
        87   1  8.505392E+05  3.660414E+05  3.706987E+05 -6.475515E+04  8.403972E+02 -4.351083E+04
        87   2  9.725425E+05  3.941006E+05  4.088289E+05 -1.694182E+04 -2.671647E+04 -4.839697E+04
        87   3  1.114735E+06  4.713937E+05  4.780730E+05 -7.686646E+04 -5.440109E+04 -1.645717E+04
        87   4 -6.330817E+05 -2.229493E+03  1.278042E+04 -7.095703E+04 -9.759374E+03 -4.353347E+04
        87   5 -6.417498E+05 -6.489405E+03  1.971349E+04 -1.714380E+04 -2.047212E+04 -4.838906E+04
        87   6 -6.331337E+05  3.562703E+04  4.610745E+04 -7.108422E+04 -3.130641E+04 -1.637699E+04
        87   7 -2.114690E+06 -3.706611E+05 -3.452950E+05 -7.714469E+04 -2.033390E+04 -4.355593E+04
        87   8 -2.253659E+06 -4.072697E+05 -3.695881E+05 -1.734677E+04 -1.424387E+04 -4.838115E+04
        87   9 -2.378226E+06 -4.003674E+05 -3.860829E+05 -6.532061E+04 -8.276484E+03 -1.629628E+04
        87  10  8.505387E+05  3.660394E+05  3.706951E+05 -6.475512E+04  2.227880E-09  1.864767E-09
        87  11  9.725411E+05  3.940979E+05  4.088232E+05 -1.694286E+04  3.935327E-09  7.171183E-10
        87  12  1.114732E+06  4.713926E+05  4.780669E+05 -7.686718E+04  1.805112E-09 -4.959769E-10
        87  13 -6.330823E+05 -2.231553E+03  1.277668E+04 -7.095738E+04 -3.556211E-11  1.223065E-09
        87  14 -6.417509E+05 -6.492031E+03  1.970830E+04 -1.714460E+04 -1.466595E-10  3.986001E-10
        87  15 -6.331348E+05  3.562648E+04  4.610510E+04 -7.108463E+04 -6.961964E-10  2.726753E-10
        87  16 -2.114691E+06 -3.706632E+05 -3.452993E+05 -7.714541E+04 -1.905586E-09  8.186549E-10
        87  17 -2.253660E+06 -4.072722E+05 -3.695928E+05 -1.734732E+04  7.704933E-11  1.912340E-09
        87  18 -2.378227E+06 -4.003677E+05 -3.860835E+05 -6.532072E+04 -1.146443E-09  2.662200E-10
        87  19  8.505392E+05  3.660414E+05  3.706987E+05 -6.475515E+04 -8.403972E+02  4.351083E+04
        87  20  9.725425E+05  3.941006E+05  4.088289E+05 -1.694182E+04  2.671647E+04  4.839697E+04
        87  21  1.114735E+06  4.713937E+05  4.780730E+05 -7.686646E+04  5.440109E+04  1.645717E+04
        87  22 -6.330817E+05 -2.229493E+03  1.278042E+04 -7.095703E+04  9.759374E+03  4.353347E+04
        87  23 -6.417498E+05 -6.489405E+03  1.971349E+04 -1.714380E+04  2.047212E+04  4.838906E+04
        87  24 -6.331337E+05  3.562703E+04  4.610745E+04 -7.108422E+04  3.130641E+04  1.637699E+04
        87  25 -2.114690E+06 -3.706611E+05 -3.452950E+05 -7.714469E+04  2.033390E+04  4.355593E+04
        87  26 -2.253659E+06 -4.072697E+05 -3.695881E+05 -1.734677E+04  1.424387E+04  4.838115E+04
        87  27 -2.378226E+06 -4.003674E+05 -3.860829E+05 -6.532061E+04  8.276484E+03  1.629628E+04
        88   1  4.892425E+05  1.213782E+06  5.118776E+05 -2.528682E+05  1.229001E+04  1.111264E+05
        88   2  2.596716E+05  7.808933E+05  3.250428E+05 -6.008603E+04  3.348779E+04  6.358005E+04
        88   3  1.708555E+05  3.859560E+05  2.036323E+05 -2.069996E+05  1.834151E+04  1.583337E+04
        88   4  1.079350E+05 -3.135286E+05  1.340333E+05 -2.156830E+05  1.240120E+04  9.314049E+04
        88   5 -1.637919E+04 -3.309727E+05  5.719411E+04 -4.614596E+04  3.350103E+04  6.226569E+04
        88   6 -2.676211E+03 -3.134099E+05  3.432550E+04 -2.163269E+05  1.823150E+04  3.115826E+04
        88   7 -2.735424E+05 -1.838718E+06 -2.439827E+05 -1.785859E+05  1.251040E+04  7.519847E+04
        88   8 -2.925196E+05 -1.441708E+06 -2.107428E+05 -3.222910E+04  3.351422E+04  6.095359E+04
        88   9 -1.762432E+05 -1.012328E+06 -1.350156E+05 -2.256428E+05  1.812097E+04  4.646592E+04
        88  10  4.892390E+05  1.213768E+06  5.118542E+05 -2.528693E+05 -1.677753E-10  3.580372E-10
        88  11  2.596693E+05  7.808887E+05  3.250331E+05 -6.008774E+04 -2.712208E-10 -4.568328E-10
        88  12  1.708550E+05  3.859557E+05  2.036312E+05 -2.069998E+05  1.318598E-09 -1.181691E-09
        88  13  1.079325E+05 -3.135379E+05  1.340167E+05 -2.156840E+05  5.369380E-10  1.726193E-11
        88  14 -1.638144E+04 -3.309772E+05  5.718471E+04 -4.614764E+04  1.608653E-09  7.316453E-11
        88  15 -2.676829E+03 -3.134111E+05  3.432305E+04 -2.163274E+05  2.297915E-09  5.529487E-11
        88  16 -2.735441E+05 -1.838724E+06 -2.439937E+05 -1.785867E+05  9.157329E-10 -3.036898E-10
        88  17 -2.925218E+05 -1.441712E+06 -2.107519E+05 -3.223075E+04 -1.458182E-09  3.950844E-10
        88  18 -1.762441E+05 -1.012331E+06 -1.350202E+05 -2.256435E+05  4.345573E-10  1.172383E-09
        88  19  4.892425E+05  1.213782E+06  5.118776E+05 -2.528682E+05 -1.229001E+04 -1.111264E+05
        88  20  2.596716E+05  7.808933E+05  3.250428E+05 -6.008603E+04 -3.348779E+04 -6.358005E+04
        88  21  1.708555E+05  3.859560E+05  2.036323E+05 -2.069996E+05 -1.834151E+04 -1.583337E+04
        88  22  1.079350E+05 -3.135286E+05  1.340333E+05 -2.156830E+05 -1.240120E+04 -9.314049E+04
        88  23 -1.637919E+04 -3.309727E+05  5.719411E+04 -4.614596E+04 -3.350103E+04 -6.226569E+04
        88  24 -2.676211E+03 -3.134099E+05  3.432550E+04 -2.163269E+05 -1.823150E+04 -3.115826E+04
        88  25 -2.735424E+05 -1.838718E+06 -2.439827E+05 -1.785859E+05 -1.251040E+04 -7.519847E+04
        88  26 -2.925196E+05 -1.441708E+06 -2.107428E+05 -3.222910E+04 -3.351422E+04 -6.095359E+04
        88  27 -1.762432E+05 -1.012328E+06 -1.350156E+05 -2.256428E+05 -1.812097E+04 -4.646592E+04
        89   1  3.271991E+04 -2.506254E+05  4.344033E+04 -2.191883E+05  2.975140E+03  1.956969E+04
        89   2 -8.569525E+04 -6.637761E+05 -7.382775E+04 -4.510841E+04 -1.001821E+04  1.533423E+04
        89   3 -1.909763E+05 -1.078608E+06 -1.862876E+05 -2.124230E+05 -2.187278E+04  1.112021E+04
        89   4  1.515108E+04 -3.214309E+05  2.665117E+04 -2.164125E+05  2.929402E+03  2.576878E+04
        89   5 -4.415752E+02 -3.205851E+05  9.075443E+03 -4.578545E+04 -1.005776E+04  2.101637E+04
        89   6 -2.797252E+03 -3.214807E+05 -3.314546E+03 -2.165393E+05 -2.190686E+04  1.628268E+04
        89   7 -2.418077E+03 -3.922317E+05  9.861802E+03 -2.136369E+05  2.883716E+03  3.196717E+04
        89   8  8.480350E+04  2.271363E+04  9.197032E+04 -4.646267E+04 -1.009732E+04  2.670164E+04
        89   9  1.853399E+05  4.361717E+05  1.796175E+05 -2.206596E+05 -2.194098E+04  2.145143E+04
        89  10  3.271980E+04 -2.506258E+05  4.343959E+04 -2.191884E+05  9.929010E-10 -5.262452E-10
        89  11 -8.569542E+04 -6.637764E+05 -7.382838E+04 -4.510829E+04 -8.740086E-10  3.965187E-11
        89  12 -1.909769E+05 -1.078608E+06 -1.862887E+05 -2.124228E+05  4.842289E-10  4.214133E-10
        89  13  1.515089E+04 -3.214316E+05  2.664990E+04 -2.164125E+05  2.900097E-09  7.256488E-11
        89  14 -4.418024E+02 -3.205856E+05  9.074423E+03 -4.578528E+04  4.046792E-09 -1.685904E-11
        89  15 -2.797838E+03 -3.214811E+05 -3.315945E+03 -2.165390E+05  1.374414E-09  9.368997E-11
        89  16 -2.418360E+03 -3.922328E+05  9.859864E+03 -2.136370E+05  5.896544E-10  4.948629E-10
        89  17  8.480320E+04  2.271284E+04  9.196879E+04 -4.646245E+04  9.253663E-10 -1.759465E-10
        89  18  1.853392E+05  4.361711E+05  1.796157E+05 -2.206592E+05 -1.768573E-09 -4.319654E-10
        89  19  3.271991E+04 -2.506254E+05  4.344033E+04 -2.191883E+05 -2.975140E+03 -1.956969E+04
        89  20 -8.569525E+04 -6.637761E+05 -7.382775E+04 -4.510841E+04  1.001821E+04 -1.533423E+04
        89  21 -1.909763E+05 -1.078608E+06 -1.862876E+05 -2.124230E+05  2.187278E+04 -1.112021E+04
        89  22  1.515108E+04 -3.214309E+05  2.665117E+04 -2.164125E+05 -2.929402E+03 -2.576878E+04
        89  23 -4.415752E+02 -3.205851E+05  9.075443E+03 -4.578545E+04  1.005776E+04 -2.101637E+04
        89  24 -2.797252E+03 -3.214807E+05 -3.314546E+03 -2.165393E+05  2.190686E+04 -1.628268E+04
        89  25 -2.418077E+03 -3.922317E+05  9.861802E+03 -2.136369E+05 -2.883716E+03 -3.196717E+04
        89  26  8.480350E+04  2.271363E+04  9.197032E+04 -4.646267E+04  1.009732E+04 -2.670164E+04
        89  27  1.853399E+05  4.361717E+05  1.796175E+05 -2.206596E+05  2.194098E+04 -2.145143E+04
        90   1 -3.380487E+05 -1.708303E+06 -3.426751E+05 -2.040667E+05 -3.892541E+04 -1.383485E+03
        90   2 -4.398339E+05 -2.112267E+06 -4.539357E+05 -4.306508E+04 -5.448154E+04  3.262949E+04
        90   3 -5.928146E+05 -2.533162E+06 -6.002291E+05 -2.212710E+05 -1.981623E+04  6.686658E+04
        90   4  6.170344E+03 -3.243808E+05 -7.810931E+03 -2.159193E+05 -3.903995E+04  1.704995E+04
        90   5  6.158891E+03 -3.179701E+05 -2.083587E+04 -4.644785E+04 -5.444831E+04  2.825706E+04
        90   6 -4.097989E+04 -3.246185E+05 -5.296597E+04 -2.161294E+05 -1.969817E+04  3.971158E+04
        90   7  3.502495E+05  1.061297E+06  3.269169E+05 -2.277954E+05 -3.915506E+04  3.552440E+04
        90   8  4.519162E+05  1.479278E+06  4.120335E+05 -4.983654E+04 -5.441508E+04  2.387190E+04
        90   9  5.104898E+05  1.888370E+06  4.939365E+05 -2.109640E+05 -1.958079E+04  1.245956E+04
        90  10 -3.380504E+05 -1.708304E+06 -3.426780E+05 -2.040667E+05 -1.569816E-09 -1.648495E-09
        90  11 -4.398374E+05 -2.112269E+06 -4.539433E+05 -4.306365E+04 -5.310164E-10  1.861095E-10
        90  12 -5.928162E+05 -2.533167E+06 -6.002383E+05 -2.212699E+05  7.980322E-10  2.338591E-09
        90  13  6.168630E+03 -3.243815E+05 -7.814340E+03 -2.159188E+05 -2.344161E-09  5.682484E-11
        90  14  6.155494E+03 -3.179718E+05 -2.084294E+04 -4.644662E+04 -3.447803E-09 -7.023699E-11
        90  15 -4.098073E+04 -3.246203E+05 -5.296966E+04 -2.161287E+05  8.148571E-10 -2.194684E-11
        90  16  3.502475E+05  1.061295E+06  3.269116E+05 -2.277942E+05 -1.832037E-09  1.721618E-09
        90  17  4.519129E+05  1.479277E+06  4.120269E+05 -4.983550E+04 -1.223654E-09 -4.226883E-11
        90  18  5.104893E+05  1.888369E+06  4.939355E+05 -2.109638E+05  5.506806E-11 -2.420171E-09
        90  19 -3.380487E+05 -1.708303E+06 -3.426751E+05 -2.040667E+05  3.892541E+04  1.383485E+03
        90  20 -4.398339E+05 -2.112267E+06 -4.539357E+05 -4.306508E+04  5.448154E+04 -3.262949E+04
        90  21 -5.928146E+05 -2.533162E+06 -6.002291E+05 -2.212710E+05  1.981623E+04 -6.686658E+04
        90  22  6.170344E+03 -3.243808E+05 -7.810931E+03 -2.159193E+05  3.903995E+04 -1.704995E+04
        90  23  6.158891E+03 -3.179701E+05 -2.083587E+04 -4.644785E+04  5.444831E+04 -2.825706E+04
        90  24 -4.097989E+04 -3.246185E+05 -5.296597E+04 -2.161294E+05  1.969817E+04 -3.971158E+04
        90  25  3.502495E+05  1.061297E+06  3.269169E+05 -2.277954E+05  3.915506E+04 -3.552440E+04
        90  26  4.519162E+05  1.479278E+06  4.120335E+05 -4.983654E+04  5.441508E+04 -2.387190E+04
        90  27  5.104898E+05  1.888370E+06  4.939365E+05 -2.109640E+05  1.958079E+04 -1.245956E+04
        91   1 -5.266988E+06 -1.712370E+06 -1.099057E+06 -1.829537E+06 -4.942483E+05 -1.732639E+05
        91   2 -5.127894E+06 -9.805478E+05 -6.387408E+05 -1.904904E+06 -3.224495E+05 -7.824199E+04
        91   3 -5.242791E+06 -9.757871E+05 -5.050956E+05 -1.833396E+06 -1.397768E+05 -1.176605E+04
        91   4 -4.097174E+06 -1.117988E+06 -7.483465E+05 -1.358322E+06 -4.778407E+05 -1.671699E+05
        91   5 -3.931840E+06 -4.850164E+05 -3.105272E+05 -1.534429E+06 -3.178580E+05 -7.653220E+04
        91   6 -4.017630E+06 -5.759688E+05 -1.894781E+05 -1.563816E+06 -1.470063E+05 -1.448961E+04
        91   7 -2.925974E+06 -5.231717E+05 -3.977718E+05 -8.861916E+05 -4.613981E+05 -1.610526E+05
        91   8 -2.734387E+06  1.068164E+04  1.755441E+04 -1.163276E+06 -3.132561E+05 -7.481767E+04
        91   9 -2.791007E+06 -1.761454E+05  1.260203E+05 -1.293793E+06 -1.542515E+05 -1.721719E+04
        91  10 -5.267260E+06 -1.712469E+06 -1.099578E+06 -1.829606E+06  6.640746E-10  1.681409E-10
        91  11 -5.128008E+06 -9.805827E+05 -6.389496E+05 -1.904925E+06  1.303343E-09  1.646207E-10
        91  12 -5.242812E+06 -9.757926E+05 -5.051329E+05 -1.833398E+06 -1.237581E-09 -8.135180E-10
        91  13 -4.097428E+06 -1.118080E+06 -7.488317E+05 -1.358387E+06 -2.764297E-09  2.810766E-11
        91  14 -3.931951E+06 -4.850501E+05 -3.107295E+05 -1.534449E+06  1.293622E-09  3.191331E-10
        91  15 -4.017654E+06 -5.759749E+05 -1.895194E+05 -1.563818E+06 -6.034367E-10 -6.572459E-10
        91  16 -2.926210E+06 -5.232572E+05 -3.982230E+05 -8.862516E+05 -4.310802E-10  1.282007E-10
        91  17 -2.734494E+06  1.064908E+04  1.735848E+04 -1.163295E+06  1.785052E-09 -3.021415E-12
        91  18 -2.791032E+06 -1.761522E+05  1.259748E+05 -1.293795E+06 -2.043838E-09 -5.382885E-10
        91  19 -5.266988E+06 -1.712370E+06 -1.099057E+06 -1.829537E+06  4.942483E+05  1.732639E+05
        91  20 -5.127894E+06 -9.805478E+05 -6.387408E+05 -1.904904E+06  3.224495E+05  7.824199E+04
        91  21 -5.242791E+06 -9.757871E+05 -5.050956E+05 -1.833396E+06  1.397768E+05  1.176605E+04
        91  22 -4.097174E+06 -1.117988E+06 -7.483465E+05 -1.358322E+06  4.778407E+05  1.671699E+05
        91  23 -3.931840E+06 -4.850164E+05 -3.105272E+05 -1.534429E+06  3.178580E+05  7.653220E+04
        91  24 -4.017630E+06 -5.759688E+05 -1.894781E+05 -1.563816E+06  1.470063E+05  1.448961E+04
        91  25 -2.925974E+06 -5.231717E+05 -3.977718E+05 -8.861916E+05  4.613981E+05  1.610526E+05
        91  26 -2.734387E+06  1.068164E+04  1.755441E+04 -1.163276E+06  3.132561E+05  7.481767E+04
        91  27 -2.791007E+06 -1.761454E+05  1.260203E+05 -1.293793E+06  1.542515E+05  1.721719E+04
        92   1 -5.049313E+06 -1.077778E+06 -4.422432E+05 -1.828775E+06 -1.180623E+05 -9.934299E+03
        92   2 -4.983846E+06 -9.416045E+05 -3.394359E+05 -1.791214E+06 -7.843771E+04  4.475047E+03
        92   3 -4.902726E+06 -9.371446E+05 -2.881453E+05 -1.789690E+06 -3.766627E+04  1.584050E+04
        92   4 -3.989568E+06 -6.602513E+05 -1.546266E+05 -1.522606E+06 -1.177551E+05 -9.826145E+03
        92   5 -3.992925E+06 -5.627374E+05 -7.327707E+04 -1.516552E+06 -7.935686E+04  4.124194E+03
        92   6 -3.980331E+06 -5.966036E+05 -4.239615E+04 -1.546545E+06 -3.981739E+04  1.502925E+04
        92   7 -2.928733E+06 -2.426317E+05  1.328876E+05 -1.215953E+06 -1.174472E+05 -9.717686E+03
        92   8 -3.001049E+06 -1.838052E+05  1.927947E+05 -1.241490E+06 -8.027757E+04  3.772752E+03
        92   9 -3.057109E+06 -2.560206E+05  2.032794E+05 -1.303076E+06 -4.197202E+04  1.421675E+04
        92  10 -5.049328E+06 -1.077782E+06 -4.422698E+05 -1.828776E+06 -3.422776E-10 -5.180614E-10
        92  11 -4.983853E+06 -9.416062E+05 -3.394476E+05 -1.791214E+06 -1.937825E-09 -4.268593E-10
        92  12 -4.902727E+06 -9.371452E+05 -2.881485E+05 -1.789689E+06  5.554675E-10 -2.075672E-10
        92  13 -3.989583E+06 -6.602552E+05 -1.546531E+05 -1.522607E+06 -7.258142E-10 -7.246175E-10
        92  14 -3.992931E+06 -5.627392E+05 -7.328900E+04 -1.516552E+06 -2.058189E-09 -7.632891E-10
        92  15 -3.980333E+06 -5.966043E+05 -4.239957E+04 -1.546545E+06 -1.882498E-09 -3.929951E-10
        92  16 -2.928747E+06 -2.426355E+05  1.328614E+05 -1.215954E+06 -1.770718E-09 -7.300677E-10
        92  17 -3.001056E+06 -1.838069E+05  1.927825E+05 -1.241490E+06 -1.570473E-09 -6.358970E-10
        92  18 -3.057111E+06 -2.560213E+05  2.032757E+05 -1.303075E+06 -3.955705E-10 -7.217280E-10
        92  19 -5.049313E+06 -1.077778E+06 -4.422432E+05 -1.828775E+06  1.180623E+05  9.934299E+03
        92  20 -4.983846E+06 -9.416045E+05 -3.394359E+05 -1.791214E+06  7.843771E+04 -4.475047E+03
        92  21 -4.902726E+06 -9.371446E+05 -2.881453E+05 -1.789690E+06  3.766627E+04 -1.584050E+04
        92  22 -3.989568E+06 -6.602513E+05 -1.546266E+05 -1.522606E+06  1.177551E+05  9.826145E+03
        92  23 -3.992925E+06 -5.627374E+05 -7.327707E+04 -1.516552E+06  7.935686E+04 -4.124194E+03
        92  24 -3.980331E+06 -5.966036E+05 -4.239615E+04 -1.546545E+06  3.981739E+04 -1.502925E+04
        92  25 -2.928733E+06 -2.426317E+05  1.328876E+05 -1.215953E+06  1.174472E+05  9.717686E+03
        92  26 -3.001049E+06 -1.838052E+05  1.927947E+05 -1.241490E+06  8.027757E+04 -3.772752E+03
        92  27 -3.057109E+06 -2.560206E+05  2.032794E+05 -1.303076E+06  4.197202E+04 -1.421675E+04
        93   1 -4.741905E+06 -9.001356E+05 -2.388245E+05 -1.755075E+06 -3.126566E+04  1.532373E+04
        93   2 -4.673328E+06 -8.215799E+05 -1.964347E+05 -1.693269E+06 -2.091443E+04  1.494651E+04
        93   3 -4.545431E+06 -8.158808E+05 -1.631674E+05 -1.701593E+06 -1.035528E+04  1.399707E+04
        93   4 -3.974248E+06 -6.089265E+05 -3.331352E+04 -1.544557E+06 -3.275010E+04  1.476397E+04
        93   5 -4.003368E+06 -5.687239E+05 -1.712888E+04 -1.510909E+06 -2.263049E+04  1.430149E+04
        93   6 -3.973129E+06 -6.013192E+05 -9.872004E+03 -1.547389E+06 -1.230463E+04  1.326650E+04
        93   7 -3.206019E+06 -3.176805E+05  1.721455E+05 -1.333802E+06 -3.423655E+04  1.420345E+04
        93   8 -3.332974E+06 -3.158415E+05  1.621371E+05 -1.328370E+06 -2.434858E+04  1.365571E+04
        93   9 -3.400511E+06 -3.867399E+05  1.433941E+05 -1.393056E+06 -1.425596E+04  1.253519E+04
        93  10 -4.741906E+06 -9.001362E+05 -2.388268E+05 -1.755074E+06  3.007229E-10  1.614681E-10
        93  11 -4.673328E+06 -8.215802E+05 -1.964359E+05 -1.693269E+06  1.193618E-09  1.085100E-11
        93  12 -4.545431E+06 -8.158810E+05 -1.631680E+05 -1.701593E+06  1.778150E-09  5.762758E-10
        93  13 -3.974249E+06 -6.089270E+05 -3.331595E+04 -1.544556E+06  4.290916E-09  2.754847E-10
        93  14 -4.003369E+06 -5.687243E+05 -1.713023E+04 -1.510909E+06  1.270230E-09  1.152145E-09
        93  15 -3.973129E+06 -6.013195E+05 -9.872619E+03 -1.547389E+06 -4.873506E-10  2.968151E-10
        93  16 -3.206020E+06 -3.176810E+05  1.721429E+05 -1.333801E+06 -1.676705E-09  1.692647E-10
        93  17 -3.332975E+06 -3.158419E+05  1.621357E+05 -1.328370E+06 -1.516542E-09  1.860734E-09
        93  18 -3.400512E+06 -3.867401E+05  1.433935E+05 -1.393056E+06 -1.601805E-09  1.128719E-11
        93  19 -4.741905E+06 -9.001356E+05 -2.388245E+05 -1.755075E+06  3.126566E+04 -1.532373E+04
        93  20 -4.673328E+06 -8.215799E+05 -1.964347E+05 -1.693269E+06  2.091443E+04 -1.494651E+04
        93  21 -4.545431E+06 -8.158808E+05 -1.631674E+05 -1.701593E+06  1.035528E+04 -1.399707E+04
        93  22 -3.974248E+06 -6.089265E+05 -3.331352E+04 -1.544557E+06  3.275010E+04 -1.476397E+04
        93  23 -4.003368E+06 -5.687239E+05 -1.712888E+04 -1.510909E+06  2.263049E+04 -1.430149E+04
        93  24 -3.973129E+06 -6.013192E+05 -9.872004E+03 -1.547389E+06  1.230463E+04 -1.326650E+04
        93  25 -3.206019E+06 -3.176805E+05  1.721455E+05 -1.333802E+06  3.423655E+04 -1.420345E+04
        93  26 -3.332974E+06 -3.158415E+05  1.621371E+05 -1.328370E+06  2.434858E+04 -1.365571E+04
        93  27 -3.400511E+06 -3.867399E+05  1.433941E+05 -1.393056E+06  1.425596E+04 -1.253519E+04
        94   1 -4.366596E+06 -7.530498E+05 -1.132236E+05 -1.656162E+06 -7.972299E+03  1.186666E+04
        94   2 -4.290805E+06 -6.746864E+05 -8.092652E+04 -1.585430E+06 -3.778852E+03  8.250784E+03
        94   3 -4.144801E+06 -6.685309E+05 -5.081897E+04 -1.595977E+06  4.726870E+02  4.470304E+03
        94   4 -3.971073E+06 -6.041201E+05 -7.827041E+03 -1.548741E+06 -9.869677E+03  1.115651E+04
        94   5 -4.006093E+06 -5.675717E+05 -4.807896E+03 -1.508260E+06 -5.744555E+03  7.515866E+03
        94   6 -3.970903E+06 -6.032159E+05 -3.922617E+03 -1.549060E+06 -1.561883E+03  3.710521E+03
        94   7 -3.575396E+06 -4.551806E+05  9.755626E+04 -1.441259E+06 -1.176840E+04  1.044587E+04
        94   8 -3.721302E+06 -4.604525E+05  7.130350E+04 -1.431058E+06 -7.711252E+03  6.780576E+03
        94   9 -3.796977E+06 -5.378997E+05  4.297072E+04 -1.502131E+06 -3.597069E+03  2.950510E+03
        94  10 -4.366596E+06 -7.530499E+05 -1.132240E+05 -1.656162E+06  6.948481E-10 -1.457905E-10
        94  11 -4.290805E+06 -6.746865E+05 -8.092668E+04 -1.585430E+06  1.102382E-09  3.272883E-10
        94  12 -4.144801E+06 -6.685310E+05 -5.081901E+04 -1.595977E+06  3.286870E-10  6.606800E-10
        94  13 -3.971073E+06 -6.041203E+05 -7.827457E+03 -1.548741E+06 -6.015525E-11  2.088324E-10
        94  14 -4.006093E+06 -5.675718E+05 -4.808064E+03 -1.508260E+06  2.628219E-10 -2.662873E-10
        94  15 -3.970903E+06 -6.032159E+05 -3.922647E+03 -1.549060E+06  5.186157E-10  5.583751E-10
        94  16 -3.575396E+06 -4.551808E+05  9.755580E+04 -1.441259E+06  3.703280E-10  3.468404E-10
        94  17 -3.721302E+06 -4.604526E+05  7.130330E+04 -1.431058E+06  1.071859E-09  3.205880E-10
        94  18 -3.796977E+06 -5.378997E+05  4.297068E+04 -1.502131E+06  7.502541E-10  2.162017E-10
        94  19 -4.366596E+06 -7.530498E+05 -1.132236E+05 -1.656162E+06  7.972299E+03 -1.186666E+04
        94  20 -4.290805E+06 -6.746864E+05 -8.092652E+04 -1.585430E+06  3.778852E+03 -8.250784E+03
        94  21 -4.144801E+06 -6.685309E+05 -5.081897E+04 -1.595977E+06 -4.726870E+02 -4.470304E+03
        94  22 -3.971073E+06 -6.041201E+05 -7.827041E+03 -1.548741E+06  9.869677E+03 -1.115651E+04
        94  23 -4.006093E+06 -5.675717E+05 -4.807896E+03 -1.508260E+06  5.744555E+03 -7.515866E+03
        94  24 -3.970903E+06 -6.032159E+05 -3.922617E+03 -1.549060E+06  1.561883E+03 -3.710521E+03
        94  25 -3.575396E+06 -4.551806E+05  9.755626E+04 -1.441259E+06  1.176840E+04 -1.044587E+04
        94  26 -3.721302E+06 -4.604525E+05  7.130350E+04 -1.431058E+06  7.711252E+03 -6.780576E+03
        94  27 -3.796977E+06 -5.378997E+05  4.297072E+04 -1.502131E+06  3.597069E+03 -2.950510E+03
        95   1 -3.956346E+06 -5.981986E+05  2.360436E+02 -1.545719E+06  2.173756E+03  1.913813E+03
        95   2 -3.879170E+06 -5.193235E+05  2.883726E+04 -1.473377E+06  6.518778E+03 -1.881054E+03
        95   3 -3.730697E+06 -5.140426E+05  5.513248E+04 -1.483820E+06  1.083444E+04 -5.590774E+03
        95   4 -3.970647E+06 -6.034948E+05 -3.993377E+03 -1.549402E+06  1.367933E+02  1.153318E+03
        95   5 -4.006358E+06 -5.671516E+05 -5.154836E+03 -1.507839E+06  4.517127E+03 -2.628776E+03
        95   6 -3.970793E+06 -6.044117E+05 -8.649653E+03 -1.549067E+06  8.867575E+03 -6.325859E+03
        95   7 -3.984947E+06 -6.087911E+05 -8.222812E+03 -1.553084E+06 -1.900123E+03  3.928383E+02
        95   8 -4.133532E+06 -6.149791E+05 -3.914854E+04 -1.542295E+06  2.515917E+03 -3.376332E+03
        95   9 -4.210834E+06 -6.947782E+05 -7.243732E+04 -1.614292E+06  6.901532E+03 -7.060635E+03
        95  10 -3.956346E+06 -5.981986E+05  2.360277E+02 -1.545719E+06  2.571798E-10  2.328894E-10
        95  11 -3.879170E+06 -5.193235E+05  2.883718E+04 -1.473377E+06 -2.949504E-09 -9.860116E-10
        95  12 -3.730698E+06 -5.140426E+05  5.513220E+04 -1.483820E+06 -2.384284E-09  4.767169E-10
        95  13 -3.970647E+06 -6.034948E+05 -3.993379E+03 -1.549402E+06 -1.092539E-09 -4.521304E-10
        95  14 -4.006358E+06 -5.671517E+05 -5.154888E+03 -1.507839E+06 -2.595706E-09 -1.415347E-09
        95  15 -3.970793E+06 -6.044118E+05 -8.649876E+03 -1.549067E+06 -2.949856E-09  7.440917E-10
        95  16 -3.984947E+06 -6.087911E+05 -8.222820E+03 -1.553084E+06 -7.882405E-10 -1.268927E-09
        95  17 -4.133532E+06 -6.149791E+05 -3.914857E+04 -1.542295E+06 -1.923062E-09 -1.031884E-09
        95  18 -4.210834E+06 -6.947783E+05 -7.243750E+04 -1.614292E+06 -1.653757E-10  1.419849E-09
        95  19 -3.956346E+06 -5.981986E+05  2.360436E+02 -1.545719E+06 -2.173756E+03 -1.913813E+03
        95  20 -3.879170E+06 -5.193235E+05  2.883726E+04 -1.473377E+06 -6.518778E+03  1.881054E+03
        95  21 -3.730697E+06 -5.140426E+05  5.513248E+04 -1.483820E+06 -1.083444E+04  5.590774E+03
        95  22 -3.970647E+06 -6.034948E+05 -3.993377E+03 -1.549402E+06 -1.367933E+02 -1.153318E+03
        95  23 -4.006358E+06 -5.671516E+05 -5.154836E+03 -1.507839E+06 -4.517127E+03  2.628776E+03
        95  24 -3.970793E+06 -6.044117E+05 -8.649653E+03 -1.549067E+06 -8.867575E+03  6.325859E+03
        95  25 -3.984947E+06 -6.087911E+05 -8.222812E+03 -1.553084E+06  1.900123E+03 -3.928383E+02
        95  26 -4.133532E+06 -6.149791E+05 -3.914854E+04 -1.542295E+06 -2.515917E+03  3.376332E+03
        95  27 -4.210834E+06 -6.947782E+05 -7.243732E+04 -1.614292E+06 -6.901532E+03  7.060635E+03
        96   1 -3.548918E+06 -4.437982E+05  1.023918E+05 -1.434791E+06  1.352044E+04 -7.714003E+03
        96   2 -3.477043E+06 -3.686976E+05  1.217936E+05 -1.366286E+06  2.475882E+04 -8.643325E+03
        96   3 -3.343038E+06 -3.712669E+05  1.312464E+05 -1.372071E+06  3.582361E+04 -9.085945E+03
        96   4 -3.972423E+06 -6.020511E+05 -1.100167E+04 -1.548426E+06  1.150075E+04 -8.469514E+03
        96   5 -4.004097E+06 -5.674374E+05 -1.913894E+04 -1.509704E+06  2.293691E+04 -9.326365E+03
        96   6 -3.973693E+06 -6.105435E+05 -3.738882E+04 -1.545280E+06  3.419767E+04 -9.696982E+03
        96   7 -4.395753E+06 -7.602931E+05 -1.244101E+05 -1.661990E+06  9.482598E+03 -9.224460E+03
        96   8 -4.530880E+06 -7.661599E+05 -1.600953E+05 -1.653012E+06  2.111671E+04 -1.000876E+04
        96   9 -4.603961E+06 -8.497948E+05 -2.060588E+05 -1.718329E+06  3.257355E+04 -1.030733E+04
        96  10 -3.548918E+06 -4.437983E+05  1.023914E+05 -1.434791E+06 -1.927243E-09  1.018800E-09
        96  11 -3.477043E+06 -3.686978E+05  1.217923E+05 -1.366286E+06 -3.524032E-09 -7.934571E-10
        96  12 -3.343039E+06 -3.712673E+05  1.312438E+05 -1.372071E+06 -4.110830E-09 -1.667609E-09
        96  13 -3.972424E+06 -6.020512E+05 -1.100206E+04 -1.548426E+06 -1.279976E-09  7.347028E-10
        96  14 -4.004098E+06 -5.674376E+05 -1.914010E+04 -1.509704E+06 -3.971849E-09 -1.801105E-09
        96  15 -3.973694E+06 -6.105439E+05 -3.739120E+04 -1.545280E+06 -2.227492E-09 -8.795483E-10
        96  16 -4.395753E+06 -7.602932E+05 -1.244104E+05 -1.661990E+06 -2.200061E-09  5.507297E-10
        96  17 -4.530881E+06 -7.661601E+05 -1.600964E+05 -1.653011E+06 -5.056652E-09 -8.145158E-10
        96  18 -4.603963E+06 -8.497952E+05 -2.060610E+05 -1.718328E+06  2.644316E-11  5.007972E-10
        96  19 -3.548918E+06 -4.437982E+05  1.023918E+05 -1.434791E+06 -1.352044E+04  7.714003E+03
        96  20 -3.477043E+06 -3.686976E+05  1.217936E+05 -1.366286E+06 -2.475882E+04  8.643325E+03
        96  21 -3.343038E+06 -3.712669E+05  1.312464E+05 -1.372071E+06 -3.582361E+04  9.085945E+03
        96  22 -3.972423E+06 -6.020511E+05 -1.100167E+04 -1.548426E+06 -1.150075E+04  8.469514E+03
        96  23 -4.004097E+06 -5.674374E+05 -1.913894E+04 -1.509704E+06 -2.293691E+04  9.326365E+03
        96  24 -3.973693E+06 -6.105435E+05 -3.738882E+04 -1.545280E+06 -3.419767E+04  9.696982E+03
        96  25 -4.395753E+06 -7.602931E+05 -1.244101E+05 -1.661990E+06 -9.482598E+03  9.224460E+03
        96  26 -4.530880E+06 -7.661599E+05 -1.600953E+05 -1.653012E+06 -2.111671E+04  1.000876E+04
        96  27 -4.603961E+06 -8.497948E+05 -2.060588E+05 -1.718329E+06 -3.257355E+04  1.030733E+04
        97   1 -3.180697E+06 -3.051459E+05  1.646458E+05 -1.340204E+06  4.435145E+04 -9.002134E+03
        97   2 -3.117517E+06 -2.245848E+05  1.528313E+05 -1.271455E+06  8.753772E+04  2.847388E+03
        97   3 -3.037160E+06 -2.909748E+05  8.519642E+04 -1.243131E+06  1.296549E+05  1.757909E+04
        97   4 -3.979756E+06 -5.975739E+05 -4.761647E+04 -1.548455E+06  4.208365E+04 -9.854512E+03
        97   5 -3.993375E+06 -5.596836E+05 -8.222501E+04 -1.514835E+06  8.643366E+04  2.428511E+03
        97   6 -3.990112E+06 -6.690708E+05 -1.736455E+05 -1.521639E+06  1.297081E+05  1.759124E+04
        97   7 -4.778200E+06 -8.899742E+05 -2.599347E+05 -1.756469E+06  3.981904E+04 -1.070578E+04
        97   8 -4.868491E+06 -8.947312E+05 -3.173497E+05 -1.757901E+06  8.533124E+04  2.010268E+03
        97   9 -4.942182E+06 -1.047087E+06 -4.325696E+05 -1.799750E+06  1.297611E+05  1.760329E+04
        97  10 -3.180699E+06 -3.051465E+05  1.646420E+05 -1.340203E+06  4.026562E-10  1.011655E-09
        97  11 -3.117525E+06 -2.245869E+05  1.528168E+05 -1.271455E+06  9.162555E-10  1.147596E-09
        97  12 -3.037178E+06 -2.909797E+05  8.516407E+04 -1.243132E+06  1.019520E-09  6.634769E-10
        97  13 -3.979758E+06 -5.975745E+05 -4.761999E+04 -1.548455E+06  2.140728E-10 -3.984633E-10
        97  14 -3.993384E+06 -5.596856E+05 -8.223915E+04 -1.514835E+06 -6.798451E-10  3.343987E-10
        97  15 -3.990130E+06 -6.690757E+05 -1.736779E+05 -1.521641E+06  6.559680E-10 -1.156089E-10
        97  16 -4.778202E+06 -8.899748E+05 -2.599379E+05 -1.756468E+06 -5.672288E-10 -1.818990E-09
        97  17 -4.868499E+06 -8.947332E+05 -3.173635E+05 -1.757901E+06 -1.230404E-10 -6.025414E-10
        97  18 -4.942200E+06 -1.047092E+06 -4.326021E+05 -1.799752E+06 -3.317589E-10  1.411992E-10
        97  19 -3.180697E+06 -3.051459E+05  1.646458E+05 -1.340204E+06 -4.435145E+04  9.002134E+03
        97  20 -3.117517E+06 -2.245848E+05  1.528313E+05 -1.271455E+06 -8.753772E+04 -2.847388E+03
        97  21 -3.037160E+06 -2.909748E+05  8.519642E+04 -1.243131E+06 -1.296549E+05 -1.757909E+04
        97  22 -3.979756E+06 -5.975739E+05 -4.761647E+04 -1.548455E+06 -4.208365E+04  9.854512E+03
        97  23 -3.993375E+06 -5.596836E+05 -8.222501E+04 -1.514835E+06 -8.643366E+04 -2.428511E+03
        97  24 -3.990112E+06 -6.690708E+05 -1.736455E+05 -1.521639E+06 -1.297081E+05 -1.759124E+04
        97  25 -4.778200E+06 -8.899742E+05 -2.599347E+05 -1.756469E+06 -3.981904E+04  1.070578E+04
        97  26 -4.868491E+06 -8.947312E+05 -3.173497E+05 -1.757901E+06 -8.533124E+04 -2.010268E+03
        97  27 -4.942182E+06 -1.047087E+06 -4.325696E+05 -1.799750E+06 -1.297611E+05 -1.760329E+04
        98   1 -2.877702E+06 -2.155379E+05  7.879916E+04 -1.330590E+06  1.695217E+05  2.610054E+04
        98   2 -2.809499E+06 -2.178333E+03 -4.135472E+04 -1.180435E+06  3.501330E+05  9.120352E+04
        98   3 -3.017234E+06 -6.026076E+05 -5.078331E+05 -8.704685E+05  5.203759E+05  1.837604E+05
        98   4 -4.020845E+06 -5.752192E+05 -2.127764E+05 -1.568793E+06  1.623346E+05  2.340766E+04
        98   5 -3.925857E+06 -4.712564E+05 -3.485668E+05 -1.533651E+06  3.542660E+05  9.272993E+04
        98   6 -4.109660E+06 -1.184280E+06 -8.401977E+05 -1.338540E+06  5.358242E+05  1.894454E+05
        98   7 -5.162715E+06 -9.349073E+05 -5.044522E+05 -1.806641E+06  1.551619E+05  2.071812E+04
        98   8 -5.040996E+06 -9.401745E+05 -6.558937E+05 -1.886260E+06  3.583902E+05  9.425220E+04
        98   9 -5.200857E+06 -1.765489E+06 -1.172679E+06 -1.805748E+06  5.512418E+05  1.951081E+05
        98  10 -2.877733E+06 -2.155464E+05  7.874358E+04 -1.330593E+06 -7.360453E-10  1.442785E-10
        98  11 -2.809633E+06 -2.220446E+03 -4.160204E+04 -1.180461E+06 -1.832075E-09  2.081841E-09
        98  12 -3.017535E+06 -6.027171E+05 -5.084085E+05 -8.705458E+05  5.853576E-10  1.687489E-10
        98  13 -4.020874E+06 -5.752269E+05 -2.128273E+05 -1.568796E+06 -2.237724E-10  9.713944E-10
        98  14 -3.925995E+06 -4.712997E+05 -3.488207E+05 -1.533677E+06 -1.489321E-09  3.272599E-09
        98  15 -4.109980E+06 -1.184397E+06 -8.408092E+05 -1.338622E+06  3.473338E-09 -4.109466E-10
        98  16 -5.162741E+06 -9.349143E+05 -5.044986E+05 -1.806643E+06  6.179310E-10  1.466399E-09
        98  17 -5.041138E+06 -9.402190E+05 -6.561542E+05 -1.886287E+06  1.843942E-10  3.592322E-10
        98  18 -5.201196E+06 -1.765613E+06 -1.173328E+06 -1.805835E+06  4.378045E-10 -2.560394E-10
        98  19 -2.877702E+06 -2.155379E+05  7.879916E+04 -1.330590E+06 -1.695217E+05 -2.610054E+04
        98  20 -2.809499E+06 -2.178333E+03 -4.135472E+04 -1.180435E+06 -3.501330E+05 -9.120352E+04
        98  21 -3.017234E+06 -6.026076E+05 -5.078331E+05 -8.704685E+05 -5.203759E+05 -1.837604E+05
        98  22 -4.020845E+06 -5.752192E+05 -2.127764E+05 -1.568793E+06 -1.623346E+05 -2.340766E+04
        98  23 -3.925857E+06 -4.712564E+05 -3.485668E+05 -1.533651E+06 -3.542660E+05 -9.272993E+04
        98  24 -4.109660E+06 -1.184280E+06 -8.401977E+05 -1.338540E+06 -5.358242E+05 -1.894454E+05
        98  25 -5.162715E+06 -9.349073E+05 -5.044522E+05 -1.806641E+06 -1.551619E+05 -2.071812E+04
        98  26 -5.040996E+06 -9.401745E+05 -6.558937E+05 -1.886260E+06 -3.583902E+05 -9.425220E+04
        98  27 -5.200857E+06 -1.765489E+06 -1.172679E+06 -1.805748E+06 -5.512418E+05 -1.951081E+05
        99   1 -1.904519E+06 -2.950244E+05 -2.749905E+05 -3.408383E+04  3.394855E+04  1.348009E+04
        99   2 -1.827711E+06 -3.421160E+05 -2.888414E+05 -9.634803E+03  2.923264E+04  4.007900E+04
        99   3 -1.728443E+06 -3.137870E+05 -2.802017E+05 -5.706884E+04  2.462006E+04  3.688229E+04
        99   4 -4.798878E+05  6.068092E+04  7.766189E+04 -4.780274E+04  5.291816E+04  1.354806E+04
        99   5 -4.922656E+05 -1.020106E+04  3.358959E+04 -1.175517E+04  3.461439E+04  4.008859E+04
        99   6 -4.798692E+05 -3.385485E+03  2.141434E+04 -4.758010E+04  1.641518E+04  3.686164E+04
        99   7  9.465934E+05  4.162354E+05  4.301648E+05 -6.155489E+04  7.193126E+04  1.361512E+04
        99   8  8.448140E+05  3.215834E+05  3.558929E+05 -1.388129E+04  4.000764E+04  4.009814E+04
        99   9  7.701330E+05  3.069023E+05  3.229188E+05 -3.807280E+04  8.193801E+03  3.684076E+04
        99  10 -1.904520E+06 -2.950249E+05 -2.749930E+05 -3.408420E+04 -8.865935E-10  2.923876E-11
        99  11 -1.827712E+06 -3.421180E+05 -2.888460E+05 -9.635747E+03  6.774698E-10 -1.792891E-09
        99  12 -1.728444E+06 -3.137887E+05 -2.802054E+05 -5.706957E+04 -2.914330E-09 -3.681076E-10
        99  13 -4.798909E+05  6.067997E+04  7.765628E+04 -4.780331E+04 -1.054331E-09 -1.504160E-09
        99  14 -4.922674E+05 -1.020311E+04  3.358432E+04 -1.175629E+04  3.987282E-10 -7.338285E-10
        99  15 -4.798699E+05 -3.387016E+03  2.141128E+04 -4.758058E+04 -8.563123E-10 -3.714419E-10
        99  16  9.465878E+05  4.162338E+05  4.301547E+05 -6.155568E+04  1.141787E-09  1.100345E-09
        99  17  8.448119E+05  3.215813E+05  3.558869E+05 -1.388258E+04 -5.530989E-10 -1.750129E-09
        99  18  7.701326E+05  3.069008E+05  3.229162E+05 -3.807305E+04 -4.614483E-10 -8.333028E-10
        99  19 -1.904519E+06 -2.950244E+05 -2.749905E+05 -3.408383E+04 -3.394855E+04 -1.348009E+04
        99  20 -1.827711E+06 -3.421160E+05 -2.888414E+05 -9.634803E+03 -2.923264E+04 -4.007900E+04
        99  21 -1.728443E+06 -3.137870E+05 -2.802017E+05 -5.706884E+04 -2.462006E+04 -3.688229E+04
        99  22 -4.798878E+05  6.068092E+04  7.766189E+04 -4.780274E+04 -5.291816E+04 -1.354806E+04
        99  23 -4.922656E+05 -1.020106E+04  3.358959E+04 -1.175517E+04 -3.461439E+04 -4.008859E+04
        99  24 -4.798692E+05 -3.385485E+03  2.141434E+04 -4.758010E+04 -1.641518E+04 -3.686164E+04
        99  25  9.465934E+05  4.162354E+05  4.301648E+05 -6.155489E+04 -7.193126E+04 -1.361512E+04
        99  26  8.448140E+05  3.215834E+05  3.558929E+05 -1.388129E+04 -4.000764E+04 -4.009814E+04
        99  27  7.701330E+05  3.069023E+05  3.229188E+05 -3.807280E+04 -8.193801E+03 -3.684076E+04
       100   1 -1.597568E+06 -2.703827E+05 -2.521230E+05 -4.777986E+04  1.291712E+04  3.052037E+04
       100   2 -1.509137E+06 -2.555702E+05 -2.385095E+05 -1.115671E+04  9.590569E+03  2.950685E+04
       100   3 -1.416518E+06 -2.321982E+05 -2.202511E+05 -4.924659E+04  6.259245E+03  2.596466E+04
       100   4 -4.843065E+05  6.454096E+03  1.747186E+04 -4.828080E+04  1.304935E+04  3.051695E+04
       100   5 -4.864826E+05 -1.361620E+03  8.692182E+03 -1.092350E+04  8.564918E+03  2.950278E+04
       100   6 -4.842817E+05 -4.234265E+02  5.356371E+03 -4.827146E+04  4.076181E+03  2.596180E+04
       100   7  6.300896E+05  2.831999E+05  2.869775E+05 -4.878303E+04  1.318180E+04  3.051354E+04
       100   8  5.371296E+05  2.527703E+05  2.558188E+05 -1.069009E+04  7.537570E+03  2.949871E+04
       100   9  4.487499E+05  2.312876E+05  2.309014E+05 -4.729485E+04  1.889840E+03  2.595894E+04
       100  10 -1.597568E+06 -2.703837E+05 -2.521251E+05 -4.778018E+04 -1.547037E-09  3.176145E-10
       100  11 -1.509137E+06 -2.555712E+05 -2.385113E+05 -1.115694E+04 -1.827263E-09  7.608856E-10
       100  12 -1.416518E+06 -2.321989E+05 -2.202524E+05 -4.924672E+04  9.223837E-10 -5.055681E-10
       100  13 -4.843069E+05  6.453050E+03  1.746979E+04 -4.828113E+04 -3.151346E-09 -1.014985E-10
       100  14 -4.864829E+05 -1.362574E+03  8.690409E+03 -1.092370E+04  4.846256E-10  1.812788E-09
       100  15 -4.842819E+05 -4.241546E+02  5.355073E+03 -4.827154E+04 -5.673222E-10  3.493515E-11
       100  16  6.300892E+05  2.831989E+05  2.869755E+05 -4.878336E+04  9.110404E-10  7.202669E-10
       100  17  5.371293E+05  2.527694E+05  2.558170E+05 -1.069027E+04 -1.234913E-09  1.198520E-09
       100  18  4.487497E+05  2.312869E+05  2.309001E+05 -4.729489E+04  4.202666E-10  2.936290E-10
       100  19 -1.597568E+06 -2.703827E+05 -2.521230E+05 -4.777986E+04 -1.291712E+04 -3.052037E+04
       100  20 -1.509137E+06 -2.555702E+05 -2.385095E+05 -1.115671E+04 -9.590569E+03 -2.950685E+04
       100  21 -1.416518E+06 -2.321982E+05 -2.202511E+05 -4.924659E+04 -6.259245E+03 -2.596466E+04
       100  22 -4.843065E+05  6.454096E+03  1.747186E+04 -4.828080E+04 -1.304935E+04 -3.051695E+04
       100  23 -4.864826E+05 -1.361620E+03  8.692182E+03 -1.092350E+04 -8.564918E+03 -2.950278E+04
       100  24 -4.842817E+05 -4.234265E+02  5.356371E+03 -4.827146E+04 -4.076181E+03 -2.596180E+04
       100  25  6.300896E+05  2.831999E+05  2.869775E+05 -4.878303E+04 -1.318180E+04 -3.051354E+04
       100  26  5.371296E+05  2.527703E+05  2.558188E+05 -1.069009E+04 -7.537570E+03 -2.949871E+04
       100  27  4.487499E+05  2.312876E+05  2.309014E+05 -4.729485E+04 -1.889840E+03 -2.595894E+04
       101   1 -1.278155E+06 -1.965069E+05 -1.873346E+05 -4.843058E+04  4.710347E+03  2.351534E+04
       101   2 -1.186034E+06 -1.743397E+05 -1.670682E+05 -1.010544E+04  3.671157E+03  2.011991E+04
       101   3 -1.092939E+06 -1.511002E+05 -1.457388E+05 -4.823975E+04  2.625940E+03  1.648739E+04
       101   4 -4.849660E+05  5.961258E+02  4.182943E+03 -4.866246E+04  3.221022E+03  2.351365E+04
       101   5 -4.854489E+05 -2.191057E+02  2.272958E+03 -1.043542E+04  2.072471E+03  2.011942E+04
       101   6 -4.849465E+05  5.720244E+01  1.501717E+03 -4.866250E+04  9.180475E+02  1.648826E+04
       101   7  3.087991E+05  1.976532E+05  1.956554E+05 -4.889458E+04  1.729795E+03  2.351196E+04
       101   8  2.155859E+05  1.738656E+05  1.715789E+05 -1.076571E+04  4.719827E+02  2.011894E+04
       101   9  1.233847E+05  1.511875E+05  1.487156E+05 -4.908556E+04 -7.915149E+02  1.648912E+04
       101  10 -1.278155E+06 -1.965075E+05 -1.873357E+05 -4.843067E+04  1.159795E-10 -5.738951E-10
       101  11 -1.186034E+06 -1.743402E+05 -1.670690E+05 -1.010550E+04 -9.541614E-10 -2.720406E-10
       101  12 -1.092939E+06 -1.511005E+05 -1.457393E+05 -4.823979E+04  1.753520E-09 -3.764911E-10
       101  13 -4.849662E+05  5.955295E+02  4.181884E+03 -4.866252E+04 -2.145172E-09 -6.441739E-10
       101  14 -4.854490E+05 -2.195414E+02  2.272189E+03 -1.043546E+04  5.630551E-11 -1.571336E-10
       101  15 -4.849465E+05  5.691035E+01  1.501204E+03 -4.866252E+04 -7.856825E-11  1.239599E-09
       101  16  3.087989E+05  1.976526E+05  1.956544E+05 -4.889461E+04  9.082238E-10 -6.273830E-10
       101  17  2.155858E+05  1.738652E+05  1.715782E+05 -1.076571E+04 -1.889099E-09 -1.122327E-09
       101  18  1.233846E+05  1.511872E+05  1.487151E+05 -4.908555E+04 -3.305861E-10 -1.286845E-10
       101  19 -1.278155E+06 -1.965069E+05 -1.873346E+05 -4.843058E+04 -4.710347E+03 -2.351534E+04
       101  20 -1.186034E+06 -1.743397E+05 -1.670682E+05 -1.010544E+04 -3.671157E+03 -2.011991E+04
       101  21 -1.092939E+06 -1.511002E+05 -1.457388E+05 -4.823975E+04 -2.625940E+03 -1.648739E+04
       101  22 -4.849660E+05  5.961258E+02  4.182943E+03 -4.866246E+04 -3.221022E+03 -2.351365E+04
       101  23 -4.854489E+05 -2.191057E+02  2.272958E+03 -1.043542E+04 -2.072471E+03 -2.011942E+04
       101  24 -4.849465E+05  5.720244E+01  1.501717E+03 -4.866250E+04 -9.180475E+02 -1.648826E+04
       101  25  3.087991E+05  1.976532E+05  1.956554E+05 -4.889458E+04 -1.729795E+03 -2.351196E+04
       101  26  2.155859E+05  1.738656E+05  1.715789E+05 -1.076571E+04 -4.719827E+02 -2.011894E+04
       101  27  1.233847E+05  1.511875E+05  1.487156E+05 -4.908556E+04  7.915149E+02 -1.648912E+04
       102   1 -9.514695E+05 -1.157143E+05 -1.112124E+05 -4.844276E+04  2.319188E+03  1.433119E+04
       102   2 -8.575692E+05 -9.255926E+04 -8.908048E+04 -9.717401E+03  1.868315E+03  1.068723E+04
       102   3 -7.636190E+05 -6.906394E+04 -6.659259E+04 -4.851542E+04  1.414189E+03  7.011292E+03
       102   4 -4.851111E+05  1.206800E+02  1.217511E+03 -4.889939E+04  6.667321E+02  1.433268E+04
       102   5 -4.851281E+05 -1.174490E+01  9.274498E+02 -1.013902E+04  2.009093E+02  1.068939E+04
       102   6 -4.850995E+05  1.996277E+02  1.004443E+03 -4.889914E+04 -2.680981E+02  7.014160E+03
       102   7 -1.855351E+04  1.159398E+05  1.136319E+05 -4.935629E+04 -9.869626E+02  1.433418E+04
       102   8 -1.125602E+05  9.252562E+04  9.092544E+04 -1.056085E+04 -1.467494E+03  1.069155E+04
       102   9 -2.065091E+05  6.945749E+04  6.859588E+04 -4.928301E+04 -1.951138E+03  7.017030E+03
       102  10 -9.514696E+05 -1.157146E+05 -1.112128E+05 -4.844278E+04  4.786715E-10  2.530508E-10
       102  11 -8.575692E+05 -9.255938E+04 -8.908071E+04 -9.717417E+03  2.186987E-09  4.308912E-11
       102  12 -7.636190E+05 -6.906399E+04 -6.659269E+04 -4.851543E+04  1.442838E-09 -1.092034E-09
       102  13 -4.851112E+05  1.204593E+02  1.217124E+03 -4.889939E+04  1.022215E-09 -5.966866E-10
       102  14 -4.851282E+05 -1.186758E+01  9.272351E+02 -1.013903E+04  4.268485E-10  2.739527E-10
       102  15 -4.850995E+05  1.995749E+02  1.004350E+03 -4.889914E+04  1.236296E-09 -1.316006E-09
       102  16 -1.855357E+04  1.159396E+05  1.136315E+05 -4.935628E+04 -8.650022E-10  8.241140E-10
       102  17 -1.125602E+05  9.252549E+04  9.092522E+04 -1.056084E+04 -2.798856E-09  6.298388E-11
       102  18 -2.065091E+05  6.945744E+04  6.859578E+04 -4.928299E+04 -3.625630E-09 -2.275025E-09
       102  19 -9.514695E+05 -1.157143E+05 -1.112124E+05 -4.844276E+04 -2.319188E+03 -1.433119E+04
       102  20 -8.575692E+05 -9.255926E+04 -8.908048E+04 -9.717401E+03 -1.868315E+03 -1.068723E+04
       102  21 -7.636190E+05 -6.906394E+04 -6.659259E+04 -4.851542E+04 -1.414189E+03 -7.011292E+03
       102  22 -4.851111E+05  1.206800E+02  1.217511E+03 -4.889939E+04 -6.667321E+02 -1.433268E+04
       102  23 -4.851281E+05 -1.174490E+01  9.274498E+02 -1.013902E+04 -2.009093E+02 -1.068939E+04
       102  24 -4.850995E+05  1.996277E+02  1.004443E+03 -4.889914E+04  2.680981E+02 -7.014160E+03
       102  25 -1.855351E+04  1.159398E+05  1.136319E+05 -4.935629E+04  9.869626E+02 -1.433418E+04
       102  26 -1.125602E+05  9.252562E+04  9.092544E+04 -1.056085E+04  1.467494E+03 -1.069155E+04
       102  27 -2.065091E+05  6.945749E+04  6.859588E+04 -4.928301E+04  1.951138E+03 -7.017030E+03
       103   1 -6.205977E+05 -3.344344E+04 -3.132680E+04 -4.876975E+04  1.216531E+03  4.861137E+03
       103   2 -5.261017E+05 -1.019340E+04 -8.261534E+03 -9.955490E+03  3.830833E+02  1.176320E+03
       103   3 -4.317096E+05  1.360833E+04  1.540690E+04 -4.907817E+04 -4.508330E+02 -2.498643E+03
       103   4 -4.851177E+05  1.594327E+02  1.120506E+03 -4.899177E+04 -4.655339E+02  4.864275E+03
       103   5 -4.850598E+05  3.166642E+00  1.655329E+03 -1.002323E+04 -1.294665E+03  1.179508E+03
       103   6 -4.851161E+05  3.981182E+02  2.790535E+03 -4.899128E+04 -2.124139E+03 -2.495375E+03
       103   7 -3.496209E+05  3.376097E+04  3.356653E+04 -4.921383E+04 -2.147965E+03  4.867414E+03
       103   8 -4.440163E+05  1.019961E+04  1.157208E+04 -1.009096E+04 -2.972524E+03  1.182696E+03
       103   9 -5.385199E+05 -1.281230E+04 -9.826021E+03 -4.890439E+04 -3.797303E+03 -2.492107E+03
       103  10 -6.205977E+05 -3.344346E+04 -3.132685E+04 -4.876976E+04 -2.046830E-09  8.527131E-10
       103  11 -5.261017E+05 -1.019340E+04 -8.261537E+03 -9.955491E+03  8.364267E-10  2.975269E-09
       103  12 -4.317096E+05  1.360833E+04  1.540689E+04 -4.907817E+04  1.052646E-09 -1.909485E-09
       103  13 -4.851177E+05  1.594072E+02  1.120461E+03 -4.899177E+04  1.067696E-09 -3.685617E-10
       103  14 -4.850598E+05  3.164698E+00  1.655323E+03 -1.002322E+04 -3.617032E-09 -7.043318E-10
       103  15 -4.851161E+05  3.981103E+02  2.790515E+03 -4.899128E+04 -4.876473E-10 -8.920247E-11
       103  16 -3.496209E+05  3.376095E+04  3.356647E+04 -4.921383E+04  1.724027E-09 -5.675729E-10
       103  17 -4.440163E+05  1.019960E+04  1.157206E+04 -1.009096E+04  1.206522E-09 -3.454485E-10
       103  18 -5.385199E+05 -1.281231E+04 -9.826060E+03 -4.890440E+04  6.929479E-10 -3.418387E-10
       103  19 -6.205977E+05 -3.344344E+04 -3.132680E+04 -4.876975E+04 -1.216531E+03 -4.861137E+03
       103  20 -5.261017E+05 -1.019340E+04 -8.261534E+03 -9.955490E+03 -3.830833E+02 -1.176320E+03
       103  21 -4.317096E+05  1.360833E+04  1.540690E+04 -4.907817E+04  4.508330E+02  2.498643E+03
       103  22 -4.851177E+05  1.594327E+02  1.120506E+03 -4.899177E+04  4.655339E+02 -4.864275E+03
       103  23 -4.850598E+05  3.166642E+00  1.655329E+03 -1.002323E+04  1.294665E+03 -1.179508E+03
       103  24 -4.851161E+05  3.981182E+02  2.790535E+03 -4.899128E+04  2.124139E+03  2.495375E+03
       103  25 -3.496209E+05  3.376097E+04  3.356653E+04 -4.921383E+04  2.147965E+03 -4.867414E+03
       103  26 -4.440163E+05  1.019961E+04  1.157208E+04 -1.009096E+04  2.972524E+03 -1.182696E+03
       103  27 -5.385199E+05 -1.281230E+04 -9.826021E+03 -4.890439E+04  3.797303E+03  2.492107E+03
       104   1 -2.882579E+05  4.899447E+04  5.138402E+04 -4.892302E+04 -9.866450E+02 -4.668204E+03
       104   2 -1.945585E+05  7.190393E+04  7.629860E+04 -1.051265E+04 -4.113720E+03 -8.344482E+03
       104   3 -9.992235E+04  9.771371E+04  1.039284E+05 -4.978332E+04 -7.238576E+03 -1.185494E+04
       104   4 -4.848976E+05  9.192829E+01  3.590123E+03 -4.893636E+04 -2.702249E+03 -4.665017E+03
       104   5 -4.853596E+05 -3.279315E+02  6.051222E+03 -1.009317E+04 -5.752538E+03 -8.341971E+03
       104   6 -4.849056E+05  2.140665E+03  1.117588E+04 -4.893322E+04 -8.800140E+03 -1.185305E+04
       104   7 -6.815020E+05 -4.881346E+04 -4.420657E+04 -4.894968E+04 -4.417311E+03 -4.661830E+03
       104   8 -7.760834E+05 -7.256598E+04 -6.420221E+04 -9.673849E+03 -7.390591E+03 -8.339462E+03
       104   9 -8.697531E+05 -9.344319E+04 -8.158722E+04 -4.808359E+04 -1.036074E+04 -1.185116E+04
       104  10 -2.882580E+05  4.899445E+04  5.138398E+04 -4.892302E+04 -8.294698E-10 -2.297617E-09
       104  11 -1.945585E+05  7.190385E+04  7.629843E+04 -1.051268E+04  5.418621E-10  7.336698E-11
       104  12 -9.992244E+04  9.771354E+04  1.039280E+05 -4.978339E+04 -6.562264E-10  4.796369E-10
       104  13 -4.848977E+05  9.190296E+01  3.590068E+03 -4.893637E+04 -1.023900E-09 -2.141280E-10
       104  14 -4.853597E+05 -3.280151E+02  6.051029E+03 -1.009321E+04  1.317555E-09 -4.772436E-10
       104  15 -4.849057E+05  2.140493E+03  1.117547E+04 -4.893330E+04 -1.808763E-09 -1.189667E-10
       104  16 -6.815020E+05 -4.881348E+04 -4.420664E+04 -4.894969E+04 -3.071587E-11 -1.234726E-10
       104  17 -7.760835E+05 -7.256606E+04 -6.420244E+04 -9.673898E+03  3.961165E-10  2.556288E-09
       104  18 -8.697533E+05 -9.344337E+04 -8.158769E+04 -4.808369E+04 -6.988480E-10  1.150556E-09
       104  19 -2.882579E+05  4.899447E+04  5.138402E+04 -4.892302E+04  9.866450E+02  4.668204E+03
       104  20 -1.945585E+05  7.190393E+04  7.629860E+04 -1.051265E+04  4.113720E+03  8.344482E+03
       104  21 -9.992235E+04  9.771371E+04  1.039284E+05 -4.978332E+04  7.238576E+03  1.185494E+04
       104  22 -4.848976E+05  9.192829E+01  3.590123E+03 -4.893636E+04  2.702249E+03  4.665017E+03
       104  23 -4.853596E+05 -3.279315E+02  6.051222E+03 -1.009317E+04  5.752538E+03  8.341971E+03
       104  24 -4.849056E+05  2.140665E+03  1.117588E+04 -4.893322E+04  8.800140E+03  1.185305E+04
       104  25 -6.815020E+05 -4.881346E+04 -4.420657E+04 -4.894968E+04  4.417311E+03  4.661830E+03
       104  26 -7.760834E+05 -7.256598E+04 -6.420221E+04 -9.673849E+03  7.390591E+03  8.339462E+03
       104  27 -8.697531E+05 -9.344319E+04 -8.158722E+04 -4.808359E+04  1.036074E+04  1.185116E+04
       105   1  4.382224E+04  1.301909E+05  1.418539E+05 -4.681410E+04 -8.985102E+03 -1.425228E+04
       105   2  1.328923E+05  1.509495E+05  1.735109E+05 -1.198215E+04 -2.206362E+04 -1.787234E+04
       105   3  2.300316E+05  1.957111E+05  2.197527E+05 -5.388745E+04 -3.513807E+04 -1.963127E+04
       105   4 -4.833872E+05 -7.861257E+02  1.425972E+04 -4.873077E+04 -1.106117E+04 -1.425024E+04
       105   5 -4.873538E+05 -3.078884E+03  2.373633E+04 -1.035389E+04 -2.327991E+04 -1.787246E+04
       105   6 -4.833981E+05  1.849632E+04  4.721234E+04 -4.871855E+04 -3.549263E+04 -1.963284E+04
       105   7 -1.010343E+06 -1.317835E+05 -1.133544E+05 -5.064571E+04 -1.313548E+04 -1.424818E+04
       105   8 -1.107248E+06 -1.571354E+05 -1.260658E+05 -8.727177E+03 -2.449498E+04 -1.787257E+04
       105   9 -1.196362E+06 -1.587557E+05 -1.253645E+05 -4.355554E+04 -3.584677E+04 -1.963441E+04
       105  10  4.382210E+04  1.301906E+05  1.418533E+05 -4.681421E+04  6.588172E-10  4.614423E-10
       105  11  1.328917E+05  1.509491E+05  1.735093E+05 -1.198247E+04 -1.922597E-09 -1.531723E-09
       105  12  2.300301E+05  1.957104E+05  2.197496E+05 -5.388801E+04  9.548327E-10  3.100482E-10
       105  13 -4.833874E+05 -7.863766E+02  1.425911E+04 -4.873090E+04 -2.102690E-09  3.953226E-10
       105  14 -4.873545E+05 -3.079373E+03  2.373471E+04 -1.035422E+04 -4.823052E-10  6.035002E-12
       105  15 -4.833996E+05  1.849556E+04  4.720925E+04 -4.871911E+04  4.006137E-10  4.910924E-10
       105  16 -1.010343E+06 -1.317837E+05 -1.133551E+05 -5.064586E+04 -1.786494E-09  3.152310E-10
       105  17 -1.107249E+06 -1.571359E+05 -1.260675E+05 -8.727530E+03  2.203048E-09 -9.356566E-10
       105  18 -1.196364E+06 -1.587564E+05 -1.253677E+05 -4.355610E+04 -8.870228E-10  8.497871E-10
       105  19  4.382224E+04  1.301909E+05  1.418539E+05 -4.681410E+04  8.985102E+03  1.425228E+04
       105  20  1.328923E+05  1.509495E+05  1.735109E+05 -1.198215E+04  2.206362E+04  1.787234E+04
       105  21  2.300316E+05  1.957111E+05  2.197527E+05 -5.388745E+04  3.513807E+04  1.963127E+04
       105  22 -4.833872E+05 -7.861257E+02  1.425972E+04 -4.873077E+04  1.106117E+04  1.425024E+04
       105  23 -4.873538E+05 -3.078884E+03  2.373633E+04 -1.035389E+04  2.327991E+04  1.787246E+04
       105  24 -4.833981E+05  1.849632E+04  4.721234E+04 -4.871855E+04  3.549263E+04  1.963284E+04
       105  25 -1.010343E+06 -1.317835E+05 -1.133544E+05 -5.064571E+04  1.313548E+04  1.424818E+04
       105  26 -1.107248E+06 -1.571354E+05 -1.260658E+05 -8.727177E+03  2.449498E+04  1.787257E+04
       105  27 -1.196362E+06 -1.587557E+05 -1.253645E+05 -4.355554E+04  3.584677E+04  1.963441E+04
       106   1  3.816044E+05  2.036536E+05  2.637191E+05 -2.763779E+04 -3.803339E+04 -2.492381E+04
       106   2  4.421878E+05  2.078784E+05  3.190687E+05 -2.418294E+04 -9.760553E+04 -2.833068E+04
       106   3  5.646812E+05  4.235619E+05  4.663127E+05 -9.559873E+04 -1.572054E+05 -9.738776E+03
       106   4 -4.718445E+05 -8.220913E+03  5.776412E+04 -4.827395E+04 -4.456596E+04 -2.492334E+04
       106   5 -5.019524E+05 -2.646207E+04  9.144679E+04 -1.091269E+04 -9.403508E+04 -2.833408E+04
       106   6 -4.718212E+05  1.651702E+05  2.101020E+05 -4.842194E+04 -1.435220E+05 -9.737799E+03
       106   7 -1.324626E+06 -2.201471E+05 -1.482426E+05 -6.888160E+04 -5.108954E+04 -2.492242E+04
       106   8 -1.445277E+06 -2.608669E+05 -1.362387E+05  2.337234E+03 -9.046995E+04 -2.833734E+04
       106   9 -1.507342E+06 -9.329309E+04 -4.618654E+04 -1.324166E+03 -1.298613E+05 -9.734751E+03
       106  10  3.816027E+05  2.036526E+05  2.637152E+05 -2.763855E+04  1.501021E-09  6.317902E-10
       106  11  4.421773E+05  2.078749E+05  3.190493E+05 -2.418517E+04  7.712750E-10 -2.477568E-10
       106  12  5.646546E+05  4.235551E+05  4.662661E+05 -9.559996E+04 -8.576381E-10 -6.016246E-10
       106  13 -4.718468E+05 -8.222114E+03  5.775922E+04 -4.827485E+04 -2.415494E-09  6.792796E-10
       106  14 -5.019622E+05 -2.646531E+04  9.142865E+04 -1.091484E+04  3.437457E-10  4.630607E-10
       106  15 -4.718434E+05  1.651646E+05  2.100631E+05 -4.842306E+04  2.298288E-09 -4.258426E-10
       106  16 -1.324629E+06 -2.201484E+05 -1.482487E+05 -6.888263E+04 -1.736722E-09  9.596300E-10
       106  17 -1.445286E+06 -2.608700E+05 -1.362556E+05  2.335168E+03 -1.119373E-09 -4.206961E-10
       106  18 -1.507360E+06 -9.329773E+04 -4.621849E+04 -1.325185E+03  5.006114E-10 -7.467754E-10
       106  19  3.816044E+05  2.036536E+05  2.637191E+05 -2.763779E+04  3.803339E+04  2.492381E+04
       106  20  4.421878E+05  2.078784E+05  3.190687E+05 -2.418294E+04  9.760553E+04  2.833068E+04
       106  21  5.646812E+05  4.235619E+05  4.663127E+05 -9.559873E+04  1.572054E+05  9.738776E+03
       106  22 -4.718445E+05 -8.220913E+03  5.776412E+04 -4.827395E+04  4.456596E+04  2.492334E+04
       106  23 -5.019524E+05 -2.646207E+04  9.144679E+04 -1.091269E+04  9.403508E+04  2.833408E+04
       106  24 -4.718212E+05  1.651702E+05  2.101020E+05 -4.842194E+04  1.435220E+05  9.737799E+03
       106  25 -1.324626E+06 -2.201471E+05 -1.482426E+05 -6.888160E+04  5.108954E+04  2.492242E+04
       106  26 -1.445277E+06 -2.608669E+05 -1.362387E+05  2.337234E+03  9.046995E+04  2.833734E+04
       106  27 -1.507342E+06 -9.329309E+04 -4.618654E+04 -1.324166E+03  1.298613E+05  9.734751E+03
       107   1  2.778427E+05  4.764611E+05  2.903411E+05 -2.254643E+05  2.580511E+03  1.666440E+05
       107   2  1.125273E+05  3.751541E+05  1.548238E+05 -1.516677E+05  9.440803E+03  9.648316E+04
       107   3  5.002594E+04  3.085269E+05  9.065921E+04 -9.372998E+04  8.725163E+03  2.630134E+04
       107   4  1.969610E+05  1.549634E+05  2.139370E+05 -9.646996E+04  2.700615E+03  1.465319E+05
       107   5  5.531152E+04  1.389104E+05  1.081370E+05 -8.893489E+04  9.473804E+03  9.110425E+04
       107   6  1.392920E+04  1.549866E+05  6.348138E+04 -9.724774E+04  8.684687E+03  3.564526E+04
       107   7  1.161340E+05 -1.664034E+05  1.375359E+05  3.245727E+04  2.812404E+03  1.264300E+05
       107   8 -1.892984E+03 -9.727158E+04  6.144963E+04 -2.622637E+04  9.505727E+03  8.572735E+04
       107   9 -2.216875E+04  1.469446E+03  3.630301E+04 -1.007646E+05  8.644100E+03  4.498694E+04
       107  10  2.778352E+05  4.764313E+05  2.902890E+05 -2.254646E+05 -7.190726E-12  1.788382E-09
       107  11  1.125247E+05  3.751441E+05  1.548061E+05 -1.516685E+05  1.419592E-09  1.308325E-09
       107  12  5.002567E+04  3.085262E+05  9.065777E+04 -9.373017E+04 -2.177808E-09 -9.194752E-10
       107  13  1.969552E+05  1.549403E+05  2.138966E+05 -9.647028E+04 -1.334072E-09  1.167881E-09
       107  14  5.530919E+04  1.389015E+05  1.081212E+05 -8.893558E+04  3.654551E-09  2.297645E-11
       107  15  1.392877E+04  1.549852E+05  6.347885E+04 -9.724799E+04 -7.283138E-10  4.875078E-10
       107  16  1.161297E+05 -1.664205E+05  1.375058E+05  3.245699E+04  1.118496E-09 -2.467866E-09
       107  17 -1.895054E+03 -9.727949E+04  6.143565E+04 -2.622702E+04  1.167566E-09 -2.068408E-10
       107  18 -2.216937E+04  1.467253E+03  3.629906E+04 -1.007649E+05  9.662216E-11  3.845042E-10
       107  19  2.778427E+05  4.764611E+05  2.903411E+05 -2.254643E+05 -2.580511E+03 -1.666440E+05
       107  20  1.125273E+05  3.751541E+05  1.548238E+05 -1.516677E+05 -9.440803E+03 -9.648316E+04
       107  21  5.002594E+04  3.085269E+05  9.065921E+04 -9.372998E+04 -8.725163E+03 -2.630134E+04
       107  22  1.969610E+05  1.549634E+05  2.139370E+05 -9.646996E+04 -2.700615E+03 -1.465319E+05
       107  23  5.531152E+04  1.389104E+05  1.081370E+05 -8.893489E+04 -9.473804E+03 -9.110425E+04
       107  24  1.392920E+04  1.549866E+05  6.348138E+04 -9.724774E+04 -8.684687E+03 -3.564526E+04
       107  25  1.161340E+05 -1.664034E+05  1.375359E+05  3.245727E+04 -2.812404E+03 -1.264300E+05
       107  26 -1.892984E+03 -9.727158E+04  6.144963E+04 -2.622637E+04 -9.505727E+03 -8.572735E+04
       107  27 -2.216875E+04  1.469446E+03  3.630301E+04 -1.007646E+05 -8.644100E+03 -4.498694E+04
       108   1  3.609209E+04  2.483733E+05  6.915681E+04 -1.040917E+05  5.689480E+03  1.790724E+04
       108   2  8.544558E+03  1.613489E+05  4.117472E+04 -8.980885E+04  1.081725E+03 -1.643998E+03
       108   3 -7.617592E+03  7.954838E+04  2.871799E+04 -9.210034E+04 -3.596960E+03 -2.119300E+04
       108   4  1.264369E+04  1.490019E+05  5.160663E+04 -9.733229E+04  5.650396E+03  2.696169E+04
       108   5  5.073508E+03  1.464056E+05  3.879820E+04 -8.905371E+04  1.041812E+03  7.549084E+03
       108   6  8.865396E+03  1.490028E+05  4.142042E+04 -9.734868E+04 -3.637342E+03 -1.186377E+04
       108   7 -1.080504E+04  4.964038E+04  3.405641E+04 -9.057397E+04  5.611506E+03  3.601474E+04
       108   8  1.602494E+03  1.314626E+05  3.642199E+04 -8.829858E+04  1.001921E+03  1.674195E+04
       108   9  2.534826E+04  2.184622E+05  5.412299E+04 -1.025976E+05 -3.677879E+03 -2.533530E+03
       108  10  3.609197E+04  2.483730E+05  6.915615E+04 -1.040918E+05 -1.035880E-09  7.757702E-08
       108  11  8.544556E+03  1.613489E+05  4.117471E+04 -8.980885E+04  1.662955E-10 -1.851564E-08
       108  12 -7.617727E+03  7.954789E+04  2.871713E+04 -9.210040E+04  1.637870E-09 -1.141067E-07
       108  13  1.264346E+04  1.490011E+05  5.160520E+04 -9.733241E+04  2.052913E-09  1.169980E-09
       108  14  5.073492E+03  1.464055E+05  3.879809E+04 -8.905372E+04  1.322418E-10 -9.528723E-12
       108  15  8.865344E+03  1.490026E+05  4.142013E+04 -9.734872E+04  3.596291E-09  2.087724E-10
       108  16 -1.080542E+04  4.963898E+04  3.405391E+04 -9.057413E+04 -1.270387E-10 -7.829771E-08
       108  17  1.602418E+03  1.314623E+05  3.642146E+04 -8.829860E+04  1.239081E-09  1.943497E-08
       108  18  2.534824E+04  2.184621E+05  5.412295E+04 -1.025976E+05  1.046182E-10  1.131401E-07
       108  19  3.609209E+04  2.483733E+05  6.915681E+04 -1.040917E+05 -5.689480E+03 -1.790724E+04
       108  20  8.544558E+03  1.613489E+05  4.117472E+04 -8.980885E+04 -1.081725E+03  1.643998E+03
       108  21 -7.617592E+03  7.954838E+04  2.871799E+04 -9.210034E+04  3.596960E+03  2.119300E+04
       108  22  1.264369E+04  1.490019E+05  5.160663E+04 -9.733229E+04 -5.650396E+03 -2.696169E+04
       108  23  5.073508E+03  1.464056E+05  3.879820E+04 -8.905371E+04 -1.041812E+03 -7.549084E+03
       108  24  8.865396E+03  1.490028E+05  4.142042E+04 -9.734868E+04  3.637342E+03  1.186377E+04
       108  25 -1.080504E+04  4.964038E+04  3.405641E+04 -9.057397E+04 -5.611506E+03 -3.601474E+04
       108  26  1.602494E+03  1.314626E+05  3.642199E+04 -8.829858E+04 -1.001921E+03 -1.674195E+04
       108  27  2.534826E+04  2.184622E+05  5.412299E+04 -1.025976E+05  3.677879E+03  2.533530E+03
       109   1 -1.940397E+04  2.907366E+04  2.512333E+04 -9.924898E+04 -6.693440E+03 -2.828687E+04
       109   2 -1.300283E+04 -6.464883E+04  3.301457E+04 -4.690561E+04 -8.073986E+03 -5.288997E+04
       109   3  5.795298E+04 -1.391740E+05  7.303111E+04 -1.055649E+04 -2.554645E+03 -7.746061E+04
       109   4  9.732178E+03  1.526265E+05  4.737548E+04 -9.726655E+04 -6.735063E+03 -1.869784E+04
       109   5  3.696629E+04  1.418646E+05  7.422485E+04 -8.901387E+04 -8.053715E+03 -5.672996E+04
       109   6  1.310657E+05  1.526083E+05  1.425156E+05 -9.675018E+04 -2.470051E+03 -9.473331E+04
       109   7  3.886754E+04  2.761944E+05  6.962738E+04 -9.528369E+04 -6.776621E+03 -9.106959E+03
       109   8  8.693936E+04  3.484225E+05  1.154340E+05 -1.311364E+05 -8.032927E+03 -6.057121E+04
       109   9  2.042001E+05  4.444851E+05  2.119991E+05 -1.829846E+05 -2.380682E+03 -1.120141E+05
       109  10 -1.940423E+04  2.907279E+04  2.512174E+04 -9.924914E+04  9.266173E-10  4.957297E-08
       109  11 -1.300365E+04 -6.465186E+04  3.300919E+04 -4.690596E+04  2.745005E-09  1.987675E-08
       109  12  5.795136E+04 -1.391804E+05  7.301982E+04 -1.055665E+04  1.451376E-09 -1.316983E-08
       109  13  9.732035E+03  1.526261E+05  4.737473E+04 -9.726665E+04  1.364002E-09  1.060532E-09
       109  14  3.696535E+04  1.418611E+05  7.421868E+04 -8.901424E+04 -9.887641E-10 -1.041500E-10
       109  15  1.310633E+05  1.525987E+05  1.424987E+05 -9.675037E+04  2.292584E-10  3.019488E-10
       109  16  3.886747E+04  2.761943E+05  6.962713E+04 -9.528374E+04  1.095205E-09 -5.040263E-08
       109  17  8.693831E+04  3.484186E+05  1.154270E+05 -1.311368E+05  4.509959E-10 -1.906957E-08
       109  18  2.041968E+05  4.444717E+05  2.119755E+05 -1.829848E+05 -1.973065E-10  1.258203E-08
       109  19 -1.940397E+04  2.907366E+04  2.512333E+04 -9.924898E+04  6.693440E+03  2.828687E+04
       109  20 -1.300283E+04 -6.464883E+04  3.301457E+04 -4.690561E+04  8.073986E+03  5.288997E+04
       109  21  5.795298E+04 -1.391740E+05  7.303111E+04 -1.055649E+04  2.554645E+03  7.746061E+04
       109  22  9.732178E+03  1.526265E+05  4.737548E+04 -9.726655E+04  6.735063E+03  1.869784E+04
       109  23  3.696629E+04  1.418646E+05  7.422485E+04 -8.901387E+04  8.053715E+03  5.672996E+04
       109  24  1.310657E+05  1.526083E+05  1.425156E+05 -9.675018E+04  2.470051E+03  9.473331E+04
       109  25  3.886754E+04  2.761944E+05  6.962738E+04 -9.528369E+04  6.776621E+03  9.106959E+03
       109  26  8.693936E+04  3.484225E+05  1.154340E+05 -1.311364E+05  8.032927E+03  6.057121E+04
       109  27  2.042001E+05  4.444851E+05  2.119991E+05 -1.829846E+05  2.380682E+03  1.120141E+05
       110   1 -4.991444E+06 -1.616288E+06 -1.045558E+06 -1.734193E+06 -4.939635E+05 -1.750159E+05
       110   2 -4.861745E+06 -8.908037E+05 -5.879247E+05 -1.819253E+06 -3.214424E+05 -8.467220E+04
       110   3 -4.997444E+06 -8.872440E+05 -4.574881E+05 -1.746118E+06 -1.399306E+05 -1.801367E+04
       110   4 -4.033381E+06 -1.102937E+06 -7.531120E+05 -1.320823E+06 -4.802220E+05 -1.699518E+05
       110   5 -3.862047E+06 -4.703604E+05 -3.124224E+05 -1.503044E+06 -3.175177E+05 -8.321743E+04
       110   6 -3.953733E+06 -5.571031E+05 -1.907123E+05 -1.527199E+06 -1.458196E+05 -2.022379E+04
       110   7 -3.074366E+06 -5.892184E+05 -4.607550E+05 -9.067805E+05 -4.664566E+05 -1.648701E+05
       110   8 -2.861370E+06 -4.978905E+04 -3.701274E+04 -1.186348E+06 -3.135857E+05 -8.175917E+04
       110   9 -2.908963E+06 -2.269685E+05  7.597821E+04 -1.307981E+06 -1.517194E+05 -2.243645E+04
       110  10 -4.991716E+06 -1.616387E+06 -1.046079E+06 -1.734263E+06  1.114664E-09 -3.318229E-10
       110  11 -4.861859E+06 -8.908395E+05 -5.881342E+05 -1.819275E+06 -3.849712E-09  1.094306E-09
       110  12 -4.997466E+06 -8.872497E+05 -4.575258E+05 -1.746121E+06 -1.153521E-09  8.484324E-10
       110  13 -4.033638E+06 -1.103030E+06 -7.536032E+05 -1.320889E+06 -1.657523E-09 -3.999488E-10
       110  14 -3.862157E+06 -4.703952E+05 -3.126263E+05 -1.503066E+06 -1.237756E-10 -4.243574E-10
       110  15 -3.953756E+06 -5.571093E+05 -1.907533E+05 -1.527201E+06 -2.380167E-09 -9.793852E-11
       110  16 -3.074608E+06 -5.893065E+05 -4.612175E+05 -9.068426E+05  3.148138E-10  8.077118E-10
       110  17 -2.861477E+06 -4.982285E+04 -3.721117E+04 -1.186369E+06  1.601536E-10  7.937301E-10
       110  18 -2.908988E+06 -2.269753E+05  7.593377E+04 -1.307984E+06 -7.871313E-10  4.154419E-10
       110  19 -4.991444E+06 -1.616288E+06 -1.045558E+06 -1.734193E+06  4.939635E+05  1.750159E+05
       110  20 -4.861745E+06 -8.908037E+05 -5.879247E+05 -1.819253E+06  3.214424E+05  8.467220E+04
       110  21 -4.997444E+06 -8.872440E+05 -4.574881E+05 -1.746118E+06  1.399306E+05  1.801367E+04
       110  22 -4.033381E+06 -1.102937E+06 -7.531120E+05 -1.320823E+06  4.802220E+05  1.699518E+05
       110  23 -3.862047E+06 -4.703604E+05 -3.124224E+05 -1.503044E+06  3.175177E+05  8.321743E+04
       110  24 -3.953733E+06 -5.571031E+05 -1.907123E+05 -1.527199E+06  1.458196E+05  2.022379E+04
       110  25 -3.074366E+06 -5.892184E+05 -4.607550E+05 -9.067805E+05  4.664566E+05  1.648701E+05
       110  26 -2.861370E+06 -4.978905E+04 -3.701274E+04 -1.186348E+06  3.135857E+05  8.175917E+04
       110  27 -2.908963E+06 -2.269685E+05  7.597821E+04 -1.307981E+06  1.517194E+05  2.243645E+04
       111   1 -4.832970E+06 -1.000478E+06 -4.020966E+05 -1.749059E+06 -1.171675E+05 -1.452503E+04
       111   2 -4.780398E+06 -8.776860E+05 -3.040652E+05 -1.724103E+06 -7.764341E+04  2.270132E+02
       111   3 -4.725421E+06 -8.745474E+05 -2.578020E+05 -1.720910E+06 -3.716278E+04  1.244208E+04
       111   4 -3.926067E+06 -6.412346E+05 -1.556124E+05 -1.484983E+06 -1.167989E+05 -1.439280E+04
       111   5 -3.922770E+06 -5.495667E+05 -7.369863E+04 -1.486108E+06 -7.829596E+04 -2.204448E+01
       111   6 -3.916820E+06 -5.772727E+05 -4.267949E+04 -1.509004E+06 -3.884064E+04  1.181014E+04
       111   7 -3.018362E+06 -2.819184E+05  9.079796E+04 -1.220548E+06 -1.164296E+05 -1.426026E+04
       111   8 -3.064427E+06 -2.213977E+05  1.566030E+05 -1.247813E+06 -7.894944E+04 -2.714614E+02
       111   9 -3.107585E+06 -2.799675E+05  1.723862E+05 -1.296852E+06 -4.052088E+04  1.117735E+04
       111  10 -4.832985E+06 -1.000482E+06 -4.021230E+05 -1.749060E+06 -1.067781E-09 -3.149801E-10
       111  11 -4.780404E+06 -8.776876E+05 -3.040767E+05 -1.724102E+06 -3.017666E-10 -7.955898E-10
       111  12 -4.725422E+06 -8.745480E+05 -2.578049E+05 -1.720909E+06 -4.594259E-10 -1.655258E-10
       111  13 -3.926082E+06 -6.412385E+05 -1.556386E+05 -1.484985E+06 -2.610212E-09 -1.554851E-09
       111  14 -3.922777E+06 -5.495683E+05 -7.371022E+04 -1.486108E+06 -2.711933E-09 -7.089568E-10
       111  15 -3.916822E+06 -5.772732E+05 -4.268260E+04 -1.509004E+06  1.980758E-09  9.025757E-11
       111  16 -3.018377E+06 -2.819223E+05  9.077197E+04 -1.220550E+06 -4.838721E-10 -1.271220E-09
       111  17 -3.064434E+06 -2.213994E+05  1.565912E+05 -1.247813E+06 -1.287260E-09 -1.429803E-12
       111  18 -3.107587E+06 -2.799681E+05  1.723829E+05 -1.296852E+06 -3.929181E-10  2.471698E-10
       111  19 -4.832970E+06 -1.000478E+06 -4.020966E+05 -1.749059E+06  1.171675E+05  1.452503E+04
       111  20 -4.780398E+06 -8.776860E+05 -3.040652E+05 -1.724103E+06  7.764341E+04 -2.270132E+02
       111  21 -4.725421E+06 -8.745474E+05 -2.578020E+05 -1.720910E+06  3.716278E+04 -1.244208E+04
       111  22 -3.926067E+06 -6.412346E+05 -1.556124E+05 -1.484983E+06  1.167989E+05  1.439280E+04
       111  23 -3.922770E+06 -5.495667E+05 -7.369863E+04 -1.486108E+06  7.829596E+04  2.204448E+01
       111  24 -3.916820E+06 -5.772727E+05 -4.267949E+04 -1.509004E+06  3.884064E+04 -1.181014E+04
       111  25 -3.018362E+06 -2.819184E+05  9.079796E+04 -1.220548E+06  1.164296E+05  1.426026E+04
       111  26 -3.064427E+06 -2.213977E+05  1.566030E+05 -1.247813E+06  7.894944E+04  2.714614E+02
       111  27 -3.107585E+06 -2.799675E+05  1.723862E+05 -1.296852E+06  4.052088E+04 -1.117735E+04
       112   1 -4.600021E+06 -8.505775E+05 -2.179761E+05 -1.695481E+06 -3.082376E+04  1.256867E+04
       112   2 -4.546503E+06 -7.876411E+05 -1.813859E+05 -1.647954E+06 -2.078763E+04  1.307345E+04
       112   3 -4.448155E+06 -7.832854E+05 -1.539702E+05 -1.654223E+06 -1.056930E+04  1.307996E+04
       112   4 -3.911039E+06 -5.892322E+05 -3.351194E+04 -1.506533E+06 -3.194926E+04  1.214454E+04
       112   5 -3.932931E+06 -5.561920E+05 -1.721240E+04 -1.481044E+06 -2.211465E+04  1.257496E+04
       112   6 -3.909954E+06 -5.816828E+05 -9.918132E+03 -1.509351E+06 -1.209910E+04  1.250687E+04
       112   7 -3.221598E+06 -3.278579E+05  1.509099E+05 -1.317394E+06 -3.307613E+04  1.171989E+04
       112   8 -3.318994E+06 -3.247205E+05  1.469280E+05 -1.313984E+06 -2.344311E+04  1.207593E+04
       112   9 -3.371472E+06 -3.800635E+05  1.341088E+05 -1.364365E+06 -1.363037E+04  1.193324E+04
       112  10 -4.600022E+06 -8.505779E+05 -2.179782E+05 -1.695481E+06  1.219577E-09  3.614521E-10
       112  11 -4.546504E+06 -7.876414E+05 -1.813870E+05 -1.647953E+06  5.947708E-10 -2.592334E-10
       112  12 -4.448155E+06 -7.832857E+05 -1.539707E+05 -1.654223E+06 -6.776649E-10 -8.335293E-10
       112  13 -3.911040E+06 -5.892327E+05 -3.351414E+04 -1.506532E+06  1.272737E-09 -3.212641E-10
       112  14 -3.932932E+06 -5.561923E+05 -1.721361E+04 -1.481043E+06 -1.444485E-09 -3.340965E-10
       112  15 -3.909955E+06 -5.816830E+05 -9.918700E+03 -1.509351E+06 -2.805872E-10 -1.740883E-09
       112  16 -3.221600E+06 -3.278583E+05  1.509076E+05 -1.317394E+06 -3.465386E-10  5.024161E-11
       112  17 -3.318994E+06 -3.247208E+05  1.469267E+05 -1.313983E+06 -6.776106E-10 -1.060643E-09
       112  18 -3.371472E+06 -3.800637E+05  1.341081E+05 -1.364365E+06 -1.195859E-09 -1.634295E-09
       112  19 -4.600021E+06 -8.505775E+05 -2.179761E+05 -1.695481E+06  3.082376E+04 -1.256867E+04
       112  20 -4.546503E+06 -7.876411E+05 -1.813859E+05 -1.647954E+06  2.078763E+04 -1.307345E+04
       112  21 -4.448155E+06 -7.832854E+05 -1.539702E+05 -1.654223E+06  1.056930E+04 -1.307996E+04
       112  22 -3.911039E+06 -5.892322E+05 -3.351194E+04 -1.506533E+06  3.194926E+04 -1.214454E+04
       112  23 -3.932931E+06 -5.561920E+05 -1.721240E+04 -1.481044E+06  2.211465E+04 -1.257496E+04
       112  24 -3.909954E+06 -5.816828E+05 -9.918132E+03 -1.509351E+06  1.209910E+04 -1.250687E+04
       112  25 -3.221598E+06 -3.278579E+05  1.509099E+05 -1.317394E+06  3.307613E+04 -1.171989E+04
       112  26 -3.318994E+06 -3.247205E+05  1.469280E+05 -1.313984E+06  2.344311E+04 -1.207593E+04
       112  27 -3.371472E+06 -3.800635E+05  1.341088E+05 -1.364365E+06  1.363037E+04 -1.193324E+04
       113   1 -4.307471E+06 -7.347565E+05 -1.143676E+05 -1.619018E+06 -8.386167E+03  1.152740E+04
       113   2 -4.247305E+06 -6.724056E+05 -8.807969E+04 -1.562950E+06 -4.570373E+03  8.866949E+03
       113   3 -4.131589E+06 -6.675116E+05 -6.394902E+04 -1.571302E+06 -6.929228E+02  6.033043E+03
       113   4 -3.907953E+06 -5.843872E+05 -7.837846E+03 -1.510590E+06 -9.873480E+03  1.097094E+04
       113   5 -3.935649E+06 -5.552208E+05 -4.775394E+03 -1.478538E+06 -6.129681E+03  8.284272E+03
       113   6 -3.907791E+06 -5.834941E+05 -3.811188E+03 -1.510906E+06 -2.324656E+03  5.424082E+03
       113   7 -3.508278E+06 -4.340082E+05  9.867811E+04 -1.402098E+06 -1.136185E+04  1.041409E+04
       113   8 -3.623900E+06 -4.380308E+05  7.852002E+04 -1.394089E+06 -7.689848E+03  7.701275E+03
       113   9 -3.683947E+06 -4.994746E+05  5.632162E+04 -1.450492E+06 -3.957023E+03  4.814885E+03
       113  10 -4.307472E+06 -7.347567E+05 -1.143680E+05 -1.619018E+06 -2.518474E-09 -8.851233E-10
       113  11 -4.247305E+06 -6.724057E+05 -8.807988E+04 -1.562950E+06  1.662275E-10  1.940604E-09
       113  12 -4.131589E+06 -6.675117E+05 -6.394909E+04 -1.571302E+06 -2.386338E-09 -3.512017E-10
       113  13 -3.907953E+06 -5.843874E+05 -7.838255E+03 -1.510590E+06 -1.593755E-09 -1.440002E-09
       113  14 -3.935649E+06 -5.552209E+05 -4.775594E+03 -1.478538E+06  9.207571E-10 -8.935625E-10
       113  15 -3.907791E+06 -5.834941E+05 -3.811253E+03 -1.510906E+06 -4.062595E-09 -1.469547E-10
       113  16 -3.508279E+06 -4.340084E+05  9.867766E+04 -1.402098E+06  1.973976E-09  2.523334E-10
       113  17 -3.623900E+06 -4.380309E+05  7.851980E+04 -1.394088E+06 -1.675987E-09  8.243986E-10
       113  18 -3.683947E+06 -4.994746E+05  5.632155E+04 -1.450492E+06 -2.933957E-09 -1.472271E-10
       113  19 -4.307471E+06 -7.347565E+05 -1.143676E+05 -1.619018E+06  8.386167E+03 -1.152740E+04
       113  20 -4.247305E+06 -6.724056E+05 -8.807969E+04 -1.562950E+06  4.570373E+03 -8.866949E+03
       113  21 -4.131589E+06 -6.675116E+05 -6.394902E+04 -1.571302E+06  6.929228E+02 -6.033043E+03
       113  22 -3.907953E+06 -5.843872E+05 -7.837846E+03 -1.510590E+06  9.873480E+03 -1.097094E+04
       113  23 -3.935649E+06 -5.552208E+05 -4.775394E+03 -1.478538E+06  6.129681E+03 -8.284272E+03
       113  24 -3.907791E+06 -5.834941E+05 -3.811188E+03 -1.510906E+06  2.324656E+03 -5.424082E+03
       113  25 -3.508278E+06 -4.340082E+05  9.867811E+04 -1.402098E+06  1.136185E+04 -1.041409E+04
       113  26 -3.623900E+06 -4.380308E+05  7.852002E+04 -1.394089E+06  7.689848E+03 -7.701275E+03
       113  27 -3.683947E+06 -4.994746E+05  5.632162E+04 -1.450492E+06  3.957023E+03 -4.814885E+03
       114   1 -3.980067E+06 -6.114291E+05 -2.295852E+04 -1.531361E+06  7.790381E+02  4.022178E+03
       114   2 -3.917365E+06 -5.474302E+05  1.783573E+02 -1.472685E+06  4.649036E+03  1.095347E+03
       114   3 -3.797025E+06 -5.432335E+05  2.113229E+04 -1.481179E+06  8.510071E+03 -1.805409E+03
       114   4 -3.907308E+06 -5.840174E+05 -3.839440E+03 -1.511509E+06 -8.556151E+02  3.412391E+03
       114   5 -3.936175E+06 -5.544996E+05 -4.847488E+03 -1.477778E+06  3.025224E+03  4.895241E+02
       114   6 -3.907412E+06 -5.847876E+05 -8.046878E+03 -1.511220E+06  6.896687E+03 -2.407382E+03
       114   7 -3.834544E+06 -5.566051E+05  1.527936E+04 -1.491655E+06 -2.490493E+03  2.802519E+03
       114   8 -3.954984E+06 -5.615690E+05 -9.873389E+03 -1.482871E+06  1.401454E+03 -1.162831E+02
       114   9 -4.017789E+06 -6.263413E+05 -3.722726E+04 -1.541257E+06  5.283611E+03 -3.009239E+03
       114  10 -3.980067E+06 -6.114291E+05 -2.295855E+04 -1.531361E+06 -1.606367E-09  1.239663E-09
       114  11 -3.917365E+06 -5.474302E+05  1.783141E+02 -1.472685E+06  2.301594E-09  3.966510E-09
       114  12 -3.797025E+06 -5.432335E+05  2.113215E+04 -1.481179E+06  7.821980E-10  1.327404E-09
       114  13 -3.907308E+06 -5.840174E+05 -3.839463E+03 -1.511509E+06 -2.153688E-09 -6.454832E-10
       114  14 -3.936175E+06 -5.544996E+05 -4.847506E+03 -1.477778E+06 -2.189820E-09  2.719089E-09
       114  15 -3.907412E+06 -5.847876E+05 -8.046979E+03 -1.511220E+06  2.962180E-10  1.038695E-09
       114  16 -3.834544E+06 -5.566051E+05  1.527933E+04 -1.491655E+06 -3.485217E-09 -1.123601E-10
       114  17 -3.954984E+06 -5.615690E+05 -9.873393E+03 -1.482871E+06 -1.277521E-09 -2.825663E-09
       114  18 -4.017789E+06 -6.263413E+05 -3.722733E+04 -1.541257E+06  8.889732E-10  2.071031E-09
       114  19 -3.980067E+06 -6.114291E+05 -2.295852E+04 -1.531361E+06 -7.790381E+02 -4.022178E+03
       114  20 -3.917365E+06 -5.474302E+05  1.783573E+02 -1.472685E+06 -4.649036E+03 -1.095347E+03
       114  21 -3.797025E+06 -5.432335E+05  2.113229E+04 -1.481179E+06 -8.510071E+03  1.805409E+03
       114  22 -3.907308E+06 -5.840174E+05 -3.839440E+03 -1.511509E+06  8.556151E+02 -3.412391E+03
       114  23 -3.936175E+06 -5.544996E+05 -4.847488E+03 -1.477778E+06 -3.025224E+03 -4.895241E+02
       114  24 -3.907412E+06 -5.847876E+05 -8.046878E+03 -1.511220E+06 -6.896687E+03  2.407382E+03
       114  25 -3.834544E+06 -5.566051E+05  1.527936E+04 -1.491655E+06  2.490493E+03 -2.802519E+03
       114  26 -3.954984E+06 -5.615690E+05 -9.873389E+03 -1.482871E+06 -1.401454E+03  1.162831E+02
       114  27 -4.017789E+06 -6.263413E+05 -3.722726E+04 -1.541257E+06 -5.283611E+03  3.009239E+03
       115   1 -3.647468E+06 -4.859452E+05  5.966593E+04 -1.441562E+06  1.089173E+04 -3.481732E+03
       115   2 -3.587344E+06 -4.233122E+05  7.509632E+04 -1.384462E+06  2.118187E+04 -3.882939E+03
       115   3 -3.476301E+06 -4.262838E+05  8.121695E+04 -1.389091E+06  3.134907E+04 -3.941217E+03
       115   4 -3.908511E+06 -5.830695E+05 -1.023059E+04 -1.511146E+06  9.235021E+03 -4.100173E+03
       115   5 -3.934526E+06 -5.541381E+05 -1.772343E+04 -1.478841E+06  1.966525E+04 -4.449906E+03
       115   6 -3.909660E+06 -5.908452E+05 -3.464156E+04 -1.508269E+06  2.997121E+04 -4.457131E+03
       115   7 -4.169485E+06 -6.801893E+05 -8.013242E+04 -1.580703E+06  7.579097E+03 -4.718329E+03
       115   8 -4.281591E+06 -6.849565E+05 -1.105535E+05 -1.573172E+06  1.814957E+04 -5.016521E+03
       115   9 -4.342839E+06 -7.553953E+05 -1.505171E+05 -1.627372E+06  2.859440E+04 -4.972644E+03
       115  10 -3.647468E+06 -4.859452E+05  5.966569E+04 -1.441561E+06  9.218416E-10  1.221844E-09
       115  11 -3.587344E+06 -4.233124E+05  7.509544E+04 -1.384462E+06 -2.679953E-09  1.249654E-09
       115  12 -3.476302E+06 -4.262841E+05  8.121507E+04 -1.389091E+06 -4.162085E-09 -4.139608E-10
       115  13 -3.908511E+06 -5.830695E+05 -1.023079E+04 -1.511146E+06 -2.327810E-09  1.700483E-09
       115  14 -3.934527E+06 -5.541383E+05 -1.772419E+04 -1.478841E+06 -1.789940E-09 -6.048373E-10
       115  15 -3.909661E+06 -5.908455E+05 -3.464330E+04 -1.508269E+06 -1.899633E-09  1.068853E-10
       115  16 -4.169485E+06 -6.801894E+05 -8.013257E+04 -1.580703E+06 -2.313150E-09 -3.977844E-10
       115  17 -4.281591E+06 -6.849566E+05 -1.105542E+05 -1.573172E+06  3.491950E-09  3.178165E-09
       115  18 -4.342840E+06 -7.553956E+05 -1.505187E+05 -1.627372E+06  3.422603E-09  6.492276E-10
       115  19 -3.647468E+06 -4.859452E+05  5.966593E+04 -1.441562E+06 -1.089173E+04  3.481732E+03
       115  20 -3.587344E+06 -4.233122E+05  7.509632E+04 -1.384462E+06 -2.118187E+04  3.882939E+03
       115  21 -3.476301E+06 -4.262838E+05  8.121695E+04 -1.389091E+06 -3.134907E+04  3.941217E+03
       115  22 -3.908511E+06 -5.830695E+05 -1.023059E+04 -1.511146E+06 -9.235021E+03  4.100173E+03
       115  23 -3.934526E+06 -5.541381E+05 -1.772343E+04 -1.478841E+06 -1.966525E+04  4.449906E+03
       115  24 -3.909660E+06 -5.908452E+05 -3.464156E+04 -1.508269E+06 -2.997121E+04  4.457131E+03
       115  25 -4.169485E+06 -6.801893E+05 -8.013242E+04 -1.580703E+06 -7.579097E+03  4.718329E+03
       115  26 -4.281591E+06 -6.849565E+05 -1.105535E+05 -1.573172E+06 -1.814957E+04  5.016521E+03
       115  27 -4.342839E+06 -7.553953E+05 -1.505171E+05 -1.627372E+06 -2.859440E+04  4.972644E+03
       116   1 -3.338542E+06 -3.707340E+05  1.085570E+05 -1.363974E+06  3.907264E+04 -3.658065E+03
       116   2 -3.283380E+06 -3.002512E+05  9.619117E+04 -1.304013E+06  7.915404E+04  7.619866E+03
       116   3 -3.216609E+06 -3.623640E+05  3.182983E+04 -1.277673E+06  1.184138E+05  2.111512E+04
       116   4 -3.914761E+06 -5.794615E+05 -4.414096E+04 -1.511891E+06  3.719292E+04 -4.361859E+03
       116   5 -3.925220E+06 -5.461509E+05 -7.613254E+04 -1.482709E+06  7.817488E+04  7.250716E+03
       116   6 -3.924292E+06 -6.456787E+05 -1.608807E+05 -1.487151E+06  1.183302E+05  2.107806E+04
       116   7 -4.490658E+06 -7.881757E+05 -1.968675E+05 -1.659685E+06  3.531511E+04 -5.065001E+03
       116   8 -4.566660E+06 -7.920222E+05 -2.484926E+05 -1.661237E+06  7.719680E+04  6.881986E+03
       116   9 -4.631487E+06 -9.289454E+05 -3.536362E+05 -1.696405E+06  1.182466E+05  2.104100E+04
       116  10 -3.338544E+06 -3.707344E+05  1.085541E+05 -1.363974E+06  1.882724E-09  6.748510E-10
       116  11 -3.283386E+06 -3.002529E+05  9.617923E+04 -1.304013E+06  1.537792E-09 -8.419517E-12
       116  12 -3.216624E+06 -3.623683E+05  3.180248E+04 -1.277675E+06 -1.249646E-09 -5.355257E-10
       116  13 -3.914762E+06 -5.794619E+05 -4.414361E+04 -1.511890E+06 -8.423124E-10 -3.905228E-10
       116  14 -3.925227E+06 -5.461526E+05 -7.614420E+04 -1.482710E+06  1.599038E-09  1.064714E-09
       116  15 -3.924308E+06 -6.456830E+05 -1.609080E+05 -1.487153E+06  8.881440E-10  4.330104E-10
       116  16 -4.490659E+06 -7.881761E+05 -1.968699E+05 -1.659685E+06 -4.622384E-09 -1.323441E-09
       116  17 -4.566667E+06 -7.920239E+05 -2.485039E+05 -1.661237E+06 -1.641587E-09 -8.187336E-10
       116  18 -4.631503E+06 -9.289497E+05 -3.536635E+05 -1.696407E+06  6.813499E-10  1.117579E-09
       116  19 -3.338542E+06 -3.707340E+05  1.085570E+05 -1.363974E+06 -3.907264E+04  3.658065E+03
       116  20 -3.283380E+06 -3.002512E+05  9.619117E+04 -1.304013E+06 -7.915404E+04 -7.619866E+03
       116  21 -3.216609E+06 -3.623640E+05  3.182983E+04 -1.277673E+06 -1.184138E+05 -2.111512E+04
       116  22 -3.914761E+06 -5.794615E+05 -4.414096E+04 -1.511891E+06 -3.719292E+04  4.361859E+03
       116  23 -3.925220E+06 -5.461509E+05 -7.613254E+04 -1.482709E+06 -7.817488E+04 -7.250716E+03
       116  24 -3.924292E+06 -6.456787E+05 -1.608807E+05 -1.487151E+06 -1.183302E+05 -2.107806E+04
       116  25 -4.490658E+06 -7.881757E+05 -1.968675E+05 -1.659685E+06 -3.531511E+04  5.065001E+03
       116  26 -4.566660E+06 -7.920222E+05 -2.484926E+05 -1.661237E+06 -7.719680E+04 -6.881986E+03
       116  27 -4.631487E+06 -9.289454E+05 -3.536362E+05 -1.696405E+06 -1.182466E+05 -2.104100E+04
       117   1 -3.074107E+06 -2.951620E+05  2.451519E+04 -1.361248E+06  1.540783E+05  2.920667E+04
       117   2 -3.010375E+06 -9.852583E+04 -8.685594E+04 -1.222571E+06  3.230695E+05  8.993155E+04
       117   3 -3.203456E+06 -6.565723E+05 -5.206553E+05 -9.363439E+05  4.840190E+05  1.720798E+05
       117   4 -3.952244E+06 -5.593397E+05 -1.971501E+05 -1.531482E+06  1.483396E+05  2.706799E+04
       117   5 -3.863489E+06 -4.632528E+05 -3.228470E+05 -1.499083E+06  3.261819E+05  9.107284E+04
       117   6 -4.033741E+06 -1.124294E+06 -7.783768E+05 -1.319025E+06  4.959809E+05  1.764420E+05
       117   7 -4.829631E+06 -8.235301E+05 -4.188737E+05 -1.701528E+06  1.426096E+05  2.493108E+04
       117   8 -4.715887E+06 -8.278755E+05 -5.589052E+05 -1.775228E+06  3.292892E+05  9.221167E+04
       117   9 -4.863289E+06 -1.591675E+06 -1.036162E+06 -1.701156E+06  5.079247E+05  1.807897E+05
       117  10 -3.074133E+06 -2.951693E+05  2.446871E+04 -1.361252E+06 -1.316031E-09  4.818391E-11
       117  11 -3.010490E+06 -9.856278E+04 -8.706849E+04 -1.222595E+06 -3.981438E-09  8.067565E-10
       117  12 -3.203716E+06 -6.566675E+05 -5.211540E+05 -9.364112E+05 -9.734505E-10 -1.627540E-10
       117  13 -3.952268E+06 -5.593465E+05 -1.971931E+05 -1.531485E+06 -1.675549E-09  3.206932E-10
       117  14 -3.863606E+06 -4.632906E+05 -3.230640E+05 -1.499107E+06 -4.584896E-10 -9.002672E-10
       117  15 -4.034015E+06 -1.124394E+06 -7.789014E+05 -1.319096E+06 -1.629189E-09 -7.204264E-11
       117  16 -4.829654E+06 -8.235363E+05 -4.189134E+05 -1.701531E+06 -5.308275E-10  2.149639E-10
       117  17 -4.716007E+06 -8.279141E+05 -5.591268E+05 -1.775252E+06 -2.771918E-09  8.518419E-10
       117  18 -4.863577E+06 -1.591780E+06 -1.036713E+06 -1.701230E+06 -3.180629E-10  3.798194E-10
       117  19 -3.074107E+06 -2.951620E+05  2.451519E+04 -1.361248E+06 -1.540783E+05 -2.920667E+04
       117  20 -3.010375E+06 -9.852583E+04 -8.685594E+04 -1.222571E+06 -3.230695E+05 -8.993155E+04
       117  21 -3.203456E+06 -6.565723E+05 -5.206553E+05 -9.363439E+05 -4.840190E+05 -1.720798E+05
       117  22 -3.952244E+06 -5.593397E+05 -1.971501E+05 -1.531482E+06 -1.483396E+05 -2.706799E+04
       117  23 -3.863489E+06 -4.632528E+05 -3.228470E+05 -1.499083E+06 -3.261819E+05 -9.107284E+04
       117  24 -4.033741E+06 -1.124294E+06 -7.783768E+05 -1.319025E+06 -4.959809E+05 -1.764420E+05
       117  25 -4.829631E+06 -8.235301E+05 -4.188737E+05 -1.701528E+06 -1.426096E+05 -2.493108E+04
       117  26 -4.715887E+06 -8.278755E+05 -5.589052E+05 -1.775228E+06 -3.292892E+05 -9.221167E+04
       117  27 -4.863289E+06 -1.591675E+06 -1.036162E+06 -1.701156E+06 -5.079247E+05 -1.807897E+05
       118   1 -6.743677E+05  9.438300E+04  1.502940E+05  4.181856E+04  1.706633E+05  4.291814E+03
       118   2 -6.793710E+05 -1.328983E+05  1.478617E+04  1.254676E+04  1.139990E+05  1.224170E+04
       118   3 -6.124161E+05 -1.031723E+05 -1.947380E+04 -4.217232E+04  5.734060E+04  1.105103E+04
       118   4 -2.377693E+05  2.031570E+05  2.582486E+05 -1.669715E+04  1.764896E+05  4.282418E+03
       118   5 -2.741041E+05 -3.228427E+04  1.125448E+05 -3.854505E+03  1.156191E+05  1.223964E+04
       118   6 -2.378034E+05 -1.008507E+04  7.096058E+04 -1.645848E+04  5.475779E+04  1.105124E+04
       118   7  1.990101E+05  3.119298E+05  3.661910E+05 -7.525414E+04  1.823199E+05  4.271931E+03
       118   8  1.313137E+05  6.831873E+04  2.102918E+05 -2.026656E+04  1.172402E+05  1.223749E+04
       118   9  1.369391E+05  8.299433E+04  1.613853E+05  9.270921E+03  5.217342E+04  1.105124E+04
       118  10 -6.743990E+05  9.437515E+04  1.502392E+05  4.181798E+04 -3.117758E-09  7.165471E-10
       118  11 -6.793850E+05 -1.329019E+05  1.476144E+04  1.254563E+04  2.901407E-10  2.339849E-11
       118  12 -6.124196E+05 -1.031733E+05 -1.948021E+04 -4.217283E+04 -1.804328E-09 -6.254601E-12
       118  13 -2.378027E+05  2.031486E+05  2.581900E+05 -1.669776E+04 -1.094150E-09  3.900563E-10
       118  14 -2.741185E+05 -3.228803E+04  1.125194E+05 -3.855645E+03 -7.896776E-10 -7.420609E-10
       118  15 -2.378067E+05 -1.008601E+04  7.095471E+04 -1.645897E+04  1.373730E-09  2.761412E-10
       118  16  1.989744E+05  3.119208E+05  3.661286E+05 -7.525477E+04  3.257357E-10 -1.640767E-10
       118  17  1.312989E+05  6.831488E+04  2.102657E+05 -2.026771E+04 -2.699503E-10  1.428879E-10
       118  18  1.369361E+05  8.299347E+04  1.613799E+05  9.270457E+03 -1.606091E-10  4.652402E-10
       118  19 -6.743677E+05  9.438300E+04  1.502940E+05  4.181856E+04 -1.706633E+05 -4.291814E+03
       118  20 -6.793710E+05 -1.328983E+05  1.478617E+04  1.254676E+04 -1.139990E+05 -1.224170E+04
       118  21 -6.124161E+05 -1.031723E+05 -1.947380E+04 -4.217232E+04 -5.734060E+04 -1.105103E+04
       118  22 -2.377693E+05  2.031570E+05  2.582486E+05 -1.669715E+04 -1.764896E+05 -4.282418E+03
       118  23 -2.741041E+05 -3.228427E+04  1.125448E+05 -3.854505E+03 -1.156191E+05 -1.223964E+04
       118  24 -2.378034E+05 -1.008507E+04  7.096058E+04 -1.645848E+04 -5.475779E+04 -1.105124E+04
       118  25  1.990101E+05  3.119298E+05  3.661910E+05 -7.525414E+04 -1.823199E+05 -4.271931E+03
       118  26  1.313137E+05  6.831873E+04  2.102918E+05 -2.026656E+04 -1.172402E+05 -1.223749E+04
       118  27  1.369391E+05  8.299433E+04  1.613853E+05  9.270921E+03 -5.217342E+04 -1.105124E+04
       119   1 -5.794114E+05 -5.859315E+04 -2.122225E+04 -1.070812E+04  4.363396E+04  9.007485E+03
       119   2 -5.528098E+05 -7.732267E+04 -4.234874E+04 -2.288487E+03  2.896421E+04  8.551927E+03
       119   3 -5.168808E+05 -6.697852E+04 -4.661813E+04 -1.965268E+04  1.429372E+04  7.327482E+03
       119   4 -2.518441E+05  2.279565E+04  5.803792E+04 -1.661114E+04  4.362055E+04  9.006744E+03
       119   5 -2.565373E+05 -3.728493E+03  2.921661E+04 -3.714101E+03  2.859318E+04  8.551464E+03
       119   6 -2.518467E+05 -1.124714E+03  1.749447E+04 -1.659995E+04  1.356581E+04  7.327250E+03
       119   7  7.582132E+04  1.041767E+05  1.372904E+05 -2.251730E+04  4.360713E+04  9.006003E+03
       119   8  3.981543E+04  6.985927E+04  1.007757E+05 -5.140405E+03  2.822197E+04  8.551002E+03
       119   9  1.325173E+04  6.472398E+04  8.160204E+04 -1.354591E+04  1.283758E+04  7.327012E+03
       119  10 -5.794134E+05 -5.859375E+04 -2.122598E+04 -1.070844E+04 -6.924820E-10 -4.721001E-10
       119  11 -5.528107E+05 -7.732297E+04 -4.235046E+04 -2.288687E+03 -1.815241E-10  4.716518E-10
       119  12 -5.168811E+05 -6.697863E+04 -4.661861E+04 -1.965277E+04  2.119227E-09 -8.226961E-10
       119  13 -2.518462E+05  2.279505E+04  5.803419E+04 -1.661146E+04  8.305893E-12  2.207650E-10
       119  14 -2.565382E+05 -3.728791E+03  2.921493E+04 -3.714298E+03 -4.896129E-10  1.023414E-10
       119  15 -2.518469E+05 -1.124821E+03  1.749403E+04 -1.660003E+04 -3.081648E-10 -9.002938E-10
       119  16  7.581926E+04  1.041761E+05  1.372867E+05 -2.251762E+04 -3.544650E-10  9.476101E-10
       119  17  3.981455E+04  6.985898E+04  1.007740E+05 -5.140599E+03 -2.826053E-09 -6.211449E-11
       119  18  1.325154E+04  6.472388E+04  8.160163E+04 -1.354599E+04  5.112180E-10 -8.550368E-10
       119  19 -5.794114E+05 -5.859315E+04 -2.122225E+04 -1.070812E+04 -4.363396E+04 -9.007485E+03
       119  20 -5.528098E+05 -7.732267E+04 -4.234874E+04 -2.288487E+03 -2.896421E+04 -8.551927E+03
       119  21 -5.168808E+05 -6.697852E+04 -4.661813E+04 -1.965268E+04 -1.429372E+04 -7.327482E+03
       119  22 -2.518441E+05  2.279565E+04  5.803792E+04 -1.661114E+04 -4.362055E+04 -9.006744E+03
       119  23 -2.565373E+05 -3.728493E+03  2.921661E+04 -3.714101E+03 -2.859318E+04 -8.551464E+03
       119  24 -2.518467E+05 -1.124714E+03  1.749447E+04 -1.659995E+04 -1.356581E+04 -7.327250E+03
       119  25  7.582132E+04  1.041767E+05  1.372904E+05 -2.251730E+04 -4.360713E+04 -9.006003E+03
       119  26  3.981543E+04  6.985927E+04  1.007757E+05 -5.140405E+03 -2.822197E+04 -8.551002E+03
       119  27  1.325173E+04  6.472398E+04  8.160204E+04 -1.354591E+04 -1.283758E+04 -7.327012E+03
       120   1 -4.709982E+05 -5.146506E+04 -3.870305E+04 -1.614824E+04  1.131095E+04  6.500329E+03
       120   2 -4.401104E+05 -4.659303E+04 -3.746337E+04 -3.556639E+03  7.609262E+03  5.333592E+03
       120   3 -4.078763E+05 -3.844721E+04 -3.298454E+04 -1.701095E+04  3.906824E+03  4.099172E+03
       120   4 -2.536248E+05  2.514700E+03  1.373275E+04 -1.666144E+04  1.079716E+04  6.500150E+03
       120   5 -2.542993E+05 -4.386078E+02  7.424010E+03 -3.638733E+03  7.063416E+03  5.333527E+03
       120   6 -2.536239E+05 -1.132634E+02  4.375729E+03 -1.666143E+04  3.329110E+03  4.099228E+03
       120   7 -3.620825E+04  5.649101E+04  6.616516E+04 -1.717481E+04  1.028319E+04  6.499972E+03
       120   8 -6.845663E+04  4.571329E+04  5.230891E+04 -3.720851E+03  6.517407E+03  5.333462E+03
       120   9 -9.934979E+04  3.821893E+04  4.173428E+04 -1.631182E+04  2.751252E+03  4.099283E+03
       120  10 -4.709983E+05 -5.146514E+04 -3.870337E+04 -1.614830E+04 -2.355121E-09 -4.569959E-10
       120  11 -4.401104E+05 -4.659307E+04 -3.746353E+04 -3.556672E+03  1.599949E-09  7.367847E-10
       120  12 -4.078763E+05 -3.844723E+04 -3.298460E+04 -1.701096E+04 -1.474625E-09 -2.317701E-10
       120  13 -2.536250E+05  2.514623E+03  1.373245E+04 -1.666150E+04  1.081111E-09 -3.443783E-10
       120  14 -2.542993E+05 -4.386518E+02  7.423863E+03 -3.638763E+03  1.019756E-09  9.407682E-10
       120  15 -2.536240E+05 -1.132844E+02  4.375677E+03 -1.666144E+04 -6.954423E-11 -3.682201E-10
       120  16 -3.620838E+04  5.649093E+04  6.616489E+04 -1.717487E+04  1.226869E-09 -2.685772E-10
       120  17 -6.845668E+04  4.571324E+04  5.230878E+04 -3.720879E+03 -1.621600E-09  1.159102E-09
       120  18 -9.934981E+04  3.821891E+04  4.173424E+04 -1.631182E+04 -7.018481E-10 -1.483475E-10
       120  19 -4.709982E+05 -5.146506E+04 -3.870305E+04 -1.614824E+04 -1.131095E+04 -6.500329E+03
       120  20 -4.401104E+05 -4.659303E+04 -3.746337E+04 -3.556639E+03 -7.609262E+03 -5.333592E+03
       120  21 -4.078763E+05 -3.844721E+04 -3.298454E+04 -1.701095E+04 -3.906824E+03 -4.099172E+03
       120  22 -2.536248E+05  2.514700E+03  1.373275E+04 -1.666144E+04 -1.079716E+04 -6.500150E+03
       120  23 -2.542993E+05 -4.386078E+02  7.424010E+03 -3.638733E+03 -7.063416E+03 -5.333527E+03
       120  24 -2.536239E+05 -1.132634E+02  4.375729E+03 -1.666143E+04 -3.329110E+03 -4.099228E+03
       120  25 -3.620825E+04  5.649101E+04  6.616516E+04 -1.717481E+04 -1.028319E+04 -6.499972E+03
       120  26 -6.845663E+04  4.571329E+04  5.230891E+04 -3.720851E+03 -6.517407E+03 -5.333462E+03
       120  27 -9.934979E+04  3.821893E+04  4.173428E+04 -1.631182E+04 -2.751252E+03 -4.099283E+03
       121   1 -3.601022E+05 -2.609284E+04 -2.217382E+04 -1.665166E+04  3.191796E+03  3.369616E+03
       121   2 -3.284798E+05 -1.855606E+04 -1.602947E+04 -3.599610E+03  2.215601E+03  2.136816E+03
       121   3 -2.966443E+05 -1.063674E+04 -9.156080E+03 -1.672745E+04  1.239143E+03  8.974423E+02
       121   4 -2.538730E+05  2.735682E+02  3.392055E+03 -1.669119E+04  2.631533E+03  3.369722E+03
       121   5 -2.539790E+05 -5.167714E+01  1.967246E+03 -3.601379E+03  1.652174E+03  2.136966E+03
       121   6 -2.538724E+05  6.192234E+00  1.273623E+03 -1.669126E+04  6.726022E+02  8.976406E+02
       121   7 -1.476334E+05  2.663915E+04  2.895712E+04 -1.673073E+04  2.071174E+03  3.369829E+03
       121   8 -1.794731E+05  1.845230E+04  1.996357E+04 -3.603148E+03  1.088680E+03  2.137117E+03
       121   9 -2.110988E+05  1.064899E+04  1.170319E+04 -1.665507E+04  1.060226E+02  8.978389E+02
       121  10 -3.601022E+05 -2.609285E+04 -2.217386E+04 -1.665167E+04 -2.604899E-09 -7.964359E-10
       121  11 -3.284798E+05 -1.855607E+04 -1.602949E+04 -3.599614E+03 -1.480346E-09  9.488190E-11
       121  12 -2.966443E+05 -1.063674E+04 -9.156084E+03 -1.672745E+04  3.250097E-09  1.232402E-10
       121  13 -2.538730E+05  2.735542E+02  3.392020E+03 -1.669120E+04 -9.766639E-10 -5.245371E-10
       121  14 -2.539790E+05 -5.168278E+01  1.967232E+03 -3.601382E+03  4.514135E-10 -2.450435E-10
       121  15 -2.538724E+05  6.191248E+00  1.273620E+03 -1.669126E+04 -2.821388E-09 -1.566215E-10
       121  16 -1.476334E+05  2.663914E+04  2.895709E+04 -1.673073E+04  1.497001E-09 -1.126210E-09
       121  17 -1.794731E+05  1.845229E+04  1.996356E+04 -3.603150E+03 -2.270375E-09  1.238698E-10
       121  18 -2.110988E+05  1.064898E+04  1.170319E+04 -1.665507E+04 -2.798415E-10 -2.223741E-10
       121  19 -3.601022E+05 -2.609284E+04 -2.217382E+04 -1.665166E+04 -3.191796E+03 -3.369616E+03
       121  20 -3.284798E+05 -1.855606E+04 -1.602947E+04 -3.599610E+03 -2.215601E+03 -2.136816E+03
       121  21 -2.966443E+05 -1.063674E+04 -9.156080E+03 -1.672745E+04 -1.239143E+03 -8.974423E+02
       121  22 -2.538730E+05  2.735682E+02  3.392055E+03 -1.669119E+04 -2.631533E+03 -3.369722E+03
       121  23 -2.539790E+05 -5.167714E+01  1.967246E+03 -3.601379E+03 -1.652174E+03 -2.136966E+03
       121  24 -2.538724E+05  6.192234E+00  1.273623E+03 -1.669126E+04 -6.726022E+02 -8.976406E+02
       121  25 -1.476334E+05  2.663915E+04  2.895712E+04 -1.673073E+04 -2.071174E+03 -3.369829E+03
       121  26 -1.794731E+05  1.845230E+04  1.996357E+04 -3.603148E+03 -1.088680E+03 -2.137117E+03
       121  27 -2.110988E+05  1.064899E+04  1.170319E+04 -1.665507E+04 -1.060226E+02 -8.978389E+02
       122   1 -2.485047E+05  1.395016E+03  2.482747E+03 -1.669360E+04  1.026195E+03  1.737031E+02
       122   2 -2.167880E+05  9.210798E+03  9.892826E+03 -3.608544E+03  5.670629E+02 -1.066153E+03
       122   3 -1.849947E+05  1.716668E+04  1.763265E+04 -1.672284E+04  1.080220E+02 -2.300705E+03
       122   4 -2.539022E+05  3.492132E+01  1.081306E+03 -1.669563E+04  4.596824E+02  1.739095E+02
       122   5 -2.539403E+05 -1.640278E+01  9.188011E+02 -3.595893E+03  2.971875E+00 -1.065972E+03
       122   6 -2.539026E+05  7.214355E+01  1.084545E+03 -1.669561E+04 -4.536242E+02 -2.300545E+03
       122   7 -2.592998E+05 -1.325176E+03 -3.201359E+02 -1.669765E+04 -1.068253E+02  1.741159E+02
       122   8 -2.910913E+05 -9.243704E+03 -8.055322E+03 -3.583241E+03 -5.610855E+02 -1.065790E+03
       122   9 -3.228061E+05 -1.702274E+04 -1.546390E+04 -1.666839E+04 -1.015208E+03 -2.300385E+03
       122  10 -2.485047E+05  1.395016E+03  2.482745E+03 -1.669360E+04  2.996376E-10 -1.751192E-10
       122  11 -2.167880E+05  9.210797E+03  9.892824E+03 -3.608544E+03  8.737539E-10 -3.197905E-11
       122  12 -1.849947E+05  1.716667E+04  1.763264E+04 -1.672284E+04 -1.608227E-10  5.200977E-10
       122  13 -2.539022E+05  3.492123E+01  1.081306E+03 -1.669563E+04  1.164461E-09  9.131449E-11
       122  14 -2.539403E+05 -1.640400E+01  9.187990E+02 -3.595893E+03 -2.098840E-09  1.027374E-10
       122  15 -2.539026E+05  7.213781E+01  1.084534E+03 -1.669562E+04  8.777984E-10  2.303030E-10
       122  16 -2.592998E+05 -1.325176E+03 -3.201359E+02 -1.669765E+04 -2.978979E-09 -4.020463E-10
       122  17 -2.910913E+05 -9.243706E+03 -8.055325E+03 -3.583242E+03 -1.717829E-09 -3.227841E-10
       122  18 -3.228061E+05 -1.702274E+04 -1.546391E+04 -1.666839E+04  1.106171E-09  7.268355E-10
       122  19 -2.485047E+05  1.395016E+03  2.482747E+03 -1.669360E+04 -1.026195E+03 -1.737031E+02
       122  20 -2.167880E+05  9.210798E+03  9.892826E+03 -3.608544E+03 -5.670629E+02  1.066153E+03
       122  21 -1.849947E+05  1.716668E+04  1.763265E+04 -1.672284E+04 -1.080220E+02  2.300705E+03
       122  22 -2.539022E+05  3.492132E+01  1.081306E+03 -1.669563E+04 -4.596824E+02 -1.739095E+02
       122  23 -2.539403E+05 -1.640278E+01  9.188011E+02 -3.595893E+03 -2.971875E+00  1.065972E+03
       122  24 -2.539026E+05  7.214355E+01  1.084545E+03 -1.669561E+04  4.536242E+02  2.300545E+03
       122  25 -2.592998E+05 -1.325176E+03 -3.201359E+02 -1.669765E+04  1.068253E+02 -1.741159E+02
       122  26 -2.910913E+05 -9.243704E+03 -8.055322E+03 -3.583241E+03  5.610855E+02  1.065790E+03
       122  27 -3.228061E+05 -1.702274E+04 -1.546390E+04 -1.666839E+04  1.015208E+03  2.300385E+03
       123   1 -1.368326E+05  2.906087E+04  2.962723E+04 -1.660996E+04 -8.758379E+01 -3.030496E+03
       123   2 -1.053690E+05  3.680649E+04  3.783708E+04 -3.661471E+03 -1.088490E+03 -4.266906E+03
       123   3 -7.354832E+04  4.537264E+04  4.690771E+04 -1.681153E+04 -2.089038E+03 -5.441032E+03
       123   4 -2.538441E+05 -1.819729E+01  1.267887E+03 -1.667331E+04 -6.655238E+02 -3.030372E+03
       123   5 -2.540201E+05 -1.101063E+02  1.933960E+03 -3.623819E+03 -1.637842E+03 -4.266880E+03
       123   6 -2.538454E+05  6.136279E+02  3.441061E+03 -1.667325E+04 -2.609750E+03 -5.441094E+03
       123   7 -3.708431E+05 -2.909826E+04 -2.709244E+04 -1.673666E+04 -1.243355E+03 -3.030248E+03
       123   8 -4.026511E+05 -3.702832E+04 -3.397074E+04 -3.586175E+03 -2.187062E+03 -4.266854E+03
       123   9 -4.341127E+05 -4.414776E+04 -4.002791E+04 -1.653501E+04 -3.130311E+03 -5.441156E+03
       123  10 -1.368326E+05  2.906086E+04  2.962721E+04 -1.660996E+04  1.324041E-09  8.227355E-10
       123  11 -1.053690E+05  3.680647E+04  3.783704E+04 -3.661474E+03  4.337695E-10  5.410165E-11
       123  12 -7.354833E+04  4.537261E+04  4.690765E+04 -1.681154E+04 -1.145160E-09 -3.192507E-10
       123  13 -2.538441E+05 -1.820727E+01  1.267868E+03 -1.667332E+04  2.053525E-09  4.867176E-10
       123  14 -2.540201E+05 -1.101266E+02  1.933921E+03 -3.623825E+03 -1.238726E-09 -7.251930E-10
       123  15 -2.538454E+05  6.135943E+02  3.440992E+03 -1.667326E+04  1.222956E-09 -1.360538E-10
       123  16 -3.708431E+05 -2.909827E+04 -2.709246E+04 -1.673666E+04 -6.542586E-10  8.781147E-10
       123  17 -4.026511E+05 -3.702834E+04 -3.397078E+04 -3.586183E+03 -2.016379E-09 -1.044246E-09
       123  18 -4.341127E+05 -4.414779E+04 -4.002798E+04 -1.653503E+04  9.278305E-10 -7.876739E-12
       123  19 -1.368326E+05  2.906087E+04  2.962723E+04 -1.660996E+04  8.758379E+01  3.030496E+03
       123  20 -1.053690E+05  3.680649E+04  3.783708E+04 -3.661471E+03  1.088490E+03  4.266906E+03
       123  21 -7.354832E+04  4.537264E+04  4.690771E+04 -1.681153E+04  2.089038E+03  5.441032E+03
       123  22 -2.538441E+05 -1.819729E+01  1.267887E+03 -1.667331E+04  6.655238E+02  3.030372E+03
       123  23 -2.540201E+05 -1.101063E+02  1.933960E+03 -3.623819E+03  1.637842E+03  4.266880E+03
       123  24 -2.538454E+05  6.136279E+02  3.441061E+03 -1.667325E+04  2.609750E+03  5.441094E+03
       123  25 -3.708431E+05 -2.909826E+04 -2.709244E+04 -1.673666E+04  1.243355E+03  3.030248E+03
       123  26 -4.026511E+05 -3.702832E+04 -3.397074E+04 -3.586175E+03  2.187062E+03  4.266854E+03
       123  27 -4.341127E+05 -4.414776E+04 -4.002791E+04 -1.653501E+04  3.130311E+03  5.441156E+03
       124   1 -2.527809E+04  5.638947E+04  5.953493E+04 -1.588094E+04 -2.582818E+03 -6.260391E+03
       124   2  4.897906E+03  6.350778E+04  6.986990E+04 -4.019522E+03 -6.618198E+03 -7.482821E+03
       124   3  3.751040E+04  7.784778E+04  8.465895E+04 -1.803243E+04 -1.065333E+04 -7.993608E+03
       124   4 -2.534002E+05 -2.775552E+02  4.354860E+03 -1.662307E+04 -3.301576E+03 -6.260537E+03
       124   5 -2.545910E+05 -9.282677E+02  7.210855E+03 -3.686458E+03 -7.011052E+03 -7.483101E+03
       124   6 -2.534016E+05  5.587903E+03  1.429598E+04 -1.662479E+04 -1.072008E+04 -7.993901E+03
       124   7 -4.814748E+05 -5.694839E+04 -5.082894E+04 -1.736492E+04 -4.020071E+03 -6.260681E+03
       124   8 -5.140183E+05 -6.536923E+04 -5.545301E+04 -3.353536E+03 -7.403742E+03 -7.483381E+03
       124   9 -5.442363E+05 -6.667817E+04 -5.607307E+04 -1.521782E+04 -1.078679E+04 -7.994194E+03
       124  10 -2.527811E+04  5.638943E+04  5.953484E+04 -1.588095E+04  3.186804E-10 -5.376794E-10
       124  11  4.897844E+03  6.350770E+04  6.986971E+04 -4.019562E+03 -1.097423E-09 -3.795189E-10
       124  12  3.751026E+04  7.784768E+04  8.465861E+04 -1.803250E+04  3.865106E-10  2.062919E-10
       124  13 -2.534002E+05 -2.776002E+02  4.354766E+03 -1.662308E+04 -1.089482E-09 -1.199368E-10
       124  14 -2.545910E+05 -9.283410E+02  7.210657E+03 -3.686500E+03 -1.634051E-09 -3.612821E-10
       124  15 -2.534018E+05  5.587804E+03  1.429564E+04 -1.662486E+04 -5.561169E-10 -1.698805E-10
       124  16 -4.814748E+05 -5.694844E+04 -5.082905E+04 -1.736494E+04  1.188304E-09  4.207208E-10
       124  17 -5.140183E+05 -6.536931E+04 -5.545322E+04 -3.353581E+03 -5.475468E-10 -4.729419E-10
       124  18 -5.442364E+05 -6.667827E+04 -5.607341E+04 -1.521789E+04 -5.831590E-10 -2.086958E-10
       124  19 -2.527809E+04  5.638947E+04  5.953493E+04 -1.588094E+04  2.582818E+03  6.260391E+03
       124  20  4.897906E+03  6.350778E+04  6.986990E+04 -4.019522E+03  6.618198E+03  7.482821E+03
       124  21  3.751040E+04  7.784778E+04  8.465895E+04 -1.803243E+04  1.065333E+04  7.993608E+03
       124  22 -2.534002E+05 -2.775552E+02  4.354860E+03 -1.662307E+04  3.301576E+03  6.260537E+03
       124  23 -2.545910E+05 -9.282677E+02  7.210855E+03 -3.686458E+03  7.011052E+03  7.483101E+03
       124  24 -2.534016E+05  5.587903E+03  1.429598E+04 -1.662479E+04  1.072008E+04  7.993901E+03
       124  25 -4.814748E+05 -5.694839E+04 -5.082894E+04 -1.736492E+04  4.020071E+03  6.260681E+03
       124  26 -5.140183E+05 -6.536923E+04 -5.545301E+04 -3.353536E+03  7.403742E+03  7.483381E+03
       124  27 -5.442363E+05 -6.667817E+04 -5.607307E+04 -1.521782E+04  1.078679E+04  7.994194E+03
       125   1  8.833573E+04  8.149165E+04  9.910415E+04 -1.010414E+04 -1.102311E+04 -9.926943E+03
       125   2  1.100865E+05  8.362933E+04  1.166623E+05 -7.734451E+03 -2.985994E+04 -1.107291E+04
       125   3  1.505364E+05  1.498286E+05  1.625455E+05 -3.077376E+04 -4.870489E+04 -3.767478E+03
       125   4 -2.499319E+05 -2.499964E+03  1.747572E+04 -1.650669E+04 -1.346347E+04 -9.928318E+03
       125   5 -2.589494E+05 -7.972543E+03  2.768071E+04 -3.825126E+03 -2.843795E+04 -1.107252E+04
       125   6 -2.499280E+05  4.996608E+04  6.353970E+04 -1.655297E+04 -4.341954E+04 -3.763724E+03
       125   7 -5.880949E+05 -8.649978E+04 -6.416085E+04 -2.290575E+04 -1.590251E+04 -9.929644E+03
       125   8 -6.278607E+05 -9.958430E+04 -6.131057E+04  8.184461E+01 -2.701680E+04 -1.107211E+04
       125   9 -6.502461E+05 -4.990762E+04 -3.547779E+04 -2.341403E+03 -3.813759E+04 -3.759727E+03
       125  10  8.833557E+04  8.149151E+04  9.910374E+04 -1.010423E+04  4.390995E-11  1.809721E-10
       125  11  1.100855E+05  8.362896E+04  1.166604E+05 -7.734717E+03  8.473714E-10 -6.613060E-10
       125  12  1.505338E+05  1.498279E+05  1.625410E+05 -3.077391E+04 -5.825338E-10  1.800050E-10
       125  13 -2.499322E+05 -2.500118E+03  1.747520E+04 -1.650680E+04 -1.938003E-09 -7.705185E-10
       125  14 -2.589503E+05 -7.972892E+03  2.767896E+04 -3.825380E+03  2.253727E-09 -1.142989E-10
       125  15 -2.499300E+05  4.996556E+04  6.353613E+04 -1.655311E+04  3.755906E-09 -4.644809E-10
       125  16 -5.880952E+05 -8.649996E+04 -6.416151E+04 -2.290588E+04  4.230678E-10 -5.422529E-12
       125  17 -6.278616E+05 -9.958463E+04 -6.131217E+04  8.160363E+01 -2.160755E-09  5.120740E-11
       125  18 -6.502477E+05 -4.990803E+04 -3.548056E+04 -2.341519E+03 -1.759178E-09  1.001119E-09
       125  19  8.833573E+04  8.149165E+04  9.910415E+04 -1.010414E+04  1.102311E+04  9.926943E+03
       125  20  1.100865E+05  8.362933E+04  1.166623E+05 -7.734451E+03  2.985994E+04  1.107291E+04
       125  21  1.505364E+05  1.498286E+05  1.625455E+05 -3.077376E+04  4.870489E+04  3.767478E+03
       125  22 -2.499319E+05 -2.499964E+03  1.747572E+04 -1.650669E+04  1.346347E+04  9.928318E+03
       125  23 -2.589494E+05 -7.972543E+03  2.768071E+04 -3.825126E+03  2.843795E+04  1.107252E+04
       125  24 -2.499280E+05  4.996608E+04  6.353970E+04 -1.655297E+04  4.341954E+04  3.763724E+03
       125  25 -5.880949E+05 -8.649978E+04 -6.416085E+04 -2.290575E+04  1.590251E+04  9.929644E+03
       125  26 -6.278607E+05 -9.958430E+04 -6.131057E+04  8.184461E+01  2.701680E+04  1.107211E+04
       125  27 -6.502461E+05 -4.990762E+04 -3.547779E+04 -2.341403E+03  3.813759E+04  3.759727E+03
       126   1  4.503212E+05  2.251686E+05  4.344974E+05 -1.920750E+05  1.717733E+04 -4.193719E+03
       126   2  3.937659E+05 -1.600802E+05  3.509038E+05 -4.059741E+04  4.733429E+04 -1.081712E+04
       126   3  2.932242E+05 -5.541541E+05  2.608971E+05 -2.090768E+05  3.277849E+04 -1.755995E+04
       126   4 -3.713887E+04 -1.727473E+06 -4.892551E+04 -2.003735E+05  1.722929E+04 -2.807983E+04
       126   5  5.953472E+03 -1.721095E+06 -2.568806E+04 -4.032571E+04  4.735253E+04 -1.433852E+04
       126   6  1.464876E+03 -1.727256E+06 -2.304061E+04 -2.002902E+05  3.271321E+04 -7.205234E+02
       126   7 -5.248841E+05 -3.676646E+06 -5.326304E+05 -2.086436E+05  1.728198E+04 -5.189077E+04
       126   8 -3.820372E+05 -3.279877E+06 -4.024544E+05 -4.005299E+04  4.737080E+04 -1.785107E+04
       126   9 -2.903951E+05 -2.899097E+06 -3.070764E+05 -1.915188E+05  3.264835E+04  1.608716E+04
       126  10  4.503209E+05  2.251685E+05  4.344969E+05 -1.920749E+05  3.373917E-10  4.446325E-10
       126  11  3.937634E+05 -1.600809E+05  3.508993E+05 -4.059700E+04  3.243006E-09 -6.045045E-09
       126  12  2.932230E+05 -5.541547E+05  2.608945E+05 -2.090763E+05 -3.599638E-10 -5.127634E-09
       126  13 -3.713940E+04 -1.727474E+06 -4.892755E+04 -2.003731E+05  8.448161E-10  9.194059E-11
       126  14  5.951011E+03 -1.721096E+06 -2.569266E+04 -4.032516E+04 -2.396100E-09 -2.870185E-09
       126  15  1.463728E+03 -1.727256E+06 -2.304262E+04 -2.002902E+05 -2.134753E-10 -4.156041E-09
       126  16 -5.248851E+05 -3.676649E+06 -5.326361E+05 -2.086428E+05  2.895289E-10 -9.856442E-11
       126  17 -3.820397E+05 -3.279878E+06 -4.024592E+05 -4.005231E+04  7.829089E-10  4.560648E-10
       126  18 -2.903963E+05 -2.899098E+06 -3.070789E+05 -1.915192E+05 -7.065386E-10  3.399770E-09
       126  19  4.503212E+05  2.251686E+05  4.344974E+05 -1.920750E+05 -1.717733E+04  4.193719E+03
       126  20  3.937659E+05 -1.600802E+05  3.509038E+05 -4.059741E+04 -4.733429E+04  1.081712E+04
       126  21  2.932242E+05 -5.541541E+05  2.608971E+05 -2.090768E+05 -3.277849E+04  1.755995E+04
       126  22 -3.713887E+04 -1.727473E+06 -4.892551E+04 -2.003735E+05 -1.722929E+04  2.807983E+04
       126  23  5.953472E+03 -1.721095E+06 -2.568806E+04 -4.032571E+04 -4.735253E+04  1.433852E+04
       126  24  1.464876E+03 -1.727256E+06 -2.304061E+04 -2.002902E+05 -3.271321E+04  7.205234E+02
       126  25 -5.248841E+05 -3.676646E+06 -5.326304E+05 -2.086436E+05 -1.728198E+04  5.189077E+04
       126  26 -3.820372E+05 -3.279877E+06 -4.024544E+05 -4.005299E+04 -4.737080E+04  1.785107E+04
       126  27 -2.903951E+05 -2.899097E+06 -3.070764E+05 -1.915188E+05 -3.264835E+04 -1.608716E+04
       127   1  1.407569E+05 -1.153029E+06  1.146521E+05 -2.001181E+05  1.678821E+04 -1.880151E+03
       127   2  4.821236E+04 -1.543507E+06  1.470393E+04 -3.984072E+04  5.074784E+03  1.231793E+04
       127   3 -7.065981E+04 -1.945708E+06 -1.018353E+05 -2.066648E+05 -7.248222E+03  2.649893E+04
       127   4 -1.890666E+03 -1.726820E+06 -2.403581E+04 -2.018809E+05  1.676626E+04  3.285583E+03
       127   5  4.084846E+03 -1.720862E+06 -2.819517E+04 -3.835884E+04  5.050775E+03  1.775497E+04
       127   6 -1.630593E+04 -1.726816E+06 -4.912414E+04 -2.019464E+05 -7.274617E+03  3.221626E+04
       127   7 -1.445623E+05 -2.300309E+06 -1.627472E+05 -2.036417E+05  1.674426E+04  8.446548E+03
       127   8 -4.004495E+04 -1.898189E+06 -7.109642E+04 -3.687735E+04  5.026789E+03  2.319046E+04
       127   9  3.804456E+04 -1.507880E+06  3.583753E+03 -1.972262E+05 -7.300919E+03  3.793560E+04
       127  10  1.407566E+05 -1.153029E+06  1.146515E+05 -2.001181E+05  1.113936E-09  2.629263E-09
       127  11  4.821229E+04 -1.543507E+06  1.470359E+04 -3.984077E+04  4.495696E-10 -6.299124E-09
       127  12 -7.066006E+04 -1.945709E+06 -1.018367E+05 -2.066647E+05 -2.277647E-10 -3.365153E-09
       127  13 -1.890971E+03 -1.726820E+06 -2.403636E+04 -2.018810E+05 -1.838740E-09  1.624425E-10
       127  14  4.084734E+03 -1.720863E+06 -2.819581E+04 -3.835891E+04  1.187864E-09 -4.446949E-09
       127  15 -1.630627E+04 -1.726817E+06 -4.912620E+04 -2.019462E+05  1.013995E-10 -5.228602E-09
       127  16 -1.445627E+05 -2.300309E+06 -1.627479E+05 -2.036418E+05 -9.635227E-10 -1.578486E-09
       127  17 -4.004512E+04 -1.898189E+06 -7.109749E+04 -3.687745E+04  1.254187E-09 -1.760226E-09
       127  18  3.804411E+04 -1.507882E+06  3.580942E+03 -1.972260E+05 -1.391229E-09  9.451279E-10
       127  19  1.407569E+05 -1.153029E+06  1.146521E+05 -2.001181E+05 -1.678821E+04  1.880151E+03
       127  20  4.821236E+04 -1.543507E+06  1.470393E+04 -3.984072E+04 -5.074784E+03 -1.231793E+04
       127  21 -7.065981E+04 -1.945708E+06 -1.018353E+05 -2.066648E+05  7.248222E+03 -2.649893E+04
       127  22 -1.890666E+03 -1.726820E+06 -2.403581E+04 -2.018809E+05 -1.676626E+04 -3.285583E+03
       127  23  4.084846E+03 -1.720862E+06 -2.819517E+04 -3.835884E+04 -5.050775E+03 -1.775497E+04
       127  24 -1.630593E+04 -1.726816E+06 -4.912414E+04 -2.019464E+05  7.274617E+03 -3.221626E+04
       127  25 -1.445623E+05 -2.300309E+06 -1.627472E+05 -2.036417E+05 -1.674426E+04 -8.446548E+03
       127  26 -4.004495E+04 -1.898189E+06 -7.109642E+04 -3.687735E+04 -5.026789E+03 -2.319046E+04
       127  27  3.804456E+04 -1.507880E+06  3.583753E+03 -1.972262E+05  7.300919E+03 -3.793560E+04
       128   1 -1.950082E+05 -2.556833E+06 -2.574773E+05 -1.775817E+05 -2.230180E+04  2.610358E+04
       128   2 -2.752708E+05 -2.918423E+06 -3.832147E+05 -4.971037E+04 -3.723131E+04  9.224297E+04
       128   3 -5.621152E+05 -3.340971E+06 -6.040251E+05 -2.448184E+05 -1.428233E+04  1.584719E+05
       128   4  9.321514E+03 -1.737197E+06 -5.860419E+04 -2.008038E+05 -2.236940E+04  4.141600E+04
       128   5  2.574505E+04 -1.708358E+06 -9.086470E+04 -3.957434E+04 -3.721812E+04  9.042887E+04
       128   6 -1.611949E+05 -1.737487E+06 -2.061248E+05 -2.013083E+05 -1.421377E+04  1.395745E+05
       128   7  2.136037E+05 -9.169444E+05  1.402214E+05 -2.240559E+05 -2.243810E+04  5.674861E+04
       128   8  3.266540E+05 -4.969483E+05  2.013803E+05 -2.941719E+04 -3.720502E+04  8.861110E+04
       128   9  2.395400E+05 -1.316514E+05  1.915859E+05 -1.576831E+05 -1.414797E+04  1.206277E+05
       128  10 -1.950089E+05 -2.556834E+06 -2.574795E+05 -1.775812E+05 -1.167209E-09 -2.365784E-10
       128  11 -2.752746E+05 -2.918432E+06 -3.832334E+05 -4.970760E+04 -2.574937E-09 -6.189015E-09
       128  12 -5.621222E+05 -3.340998E+06 -6.040730E+05 -2.448166E+05 -7.451403E-10 -1.972783E-09
       128  13  9.320515E+03 -1.737199E+06 -5.860836E+04 -2.008030E+05 -4.041426E-09 -4.103303E-10
       128  14  2.574136E+04 -1.708367E+06 -9.088271E+04 -3.957163E+04 -3.757800E-09 -4.000734E-09
       128  15 -1.612003E+05 -1.737508E+06 -2.061618E+05 -2.013067E+05 -1.118618E-09 -3.339950E-09
       128  16  2.136023E+05 -9.169480E+05  1.402144E+05 -2.240549E+05 -2.307613E-09  1.337745E-09
       128  17  3.266504E+05 -4.969571E+05  2.013630E+05 -2.941453E+04 -3.772404E-09 -6.956062E-10
       128  18  2.395359E+05 -1.316670E+05  1.915582E+05 -1.576817E+05  6.582048E-10  9.813361E-10
       128  19 -1.950082E+05 -2.556833E+06 -2.574773E+05 -1.775817E+05  2.230180E+04 -2.610358E+04
       128  20 -2.752708E+05 -2.918423E+06 -3.832147E+05 -4.971037E+04  3.723131E+04 -9.224297E+04
       128  21 -5.621152E+05 -3.340971E+06 -6.040251E+05 -2.448184E+05  1.428233E+04 -1.584719E+05
       128  22  9.321514E+03 -1.737197E+06 -5.860419E+04 -2.008038E+05  2.236940E+04 -4.141600E+04
       128  23  2.574505E+04 -1.708358E+06 -9.086470E+04 -3.957434E+04  3.721812E+04 -9.042887E+04
       128  24 -1.611949E+05 -1.737487E+06 -2.061248E+05 -2.013083E+05  1.421377E+04 -1.395745E+05
       128  25  2.136037E+05 -9.169444E+05  1.402214E+05 -2.240559E+05  2.243810E+04 -5.674861E+04
       128  26  3.266540E+05 -4.969483E+05  2.013803E+05 -2.941719E+04  3.720502E+04 -8.861110E+04
       128  27  2.395400E+05 -1.316514E+05  1.915859E+05 -1.576831E+05  1.414797E+04 -1.206277E+05
       129   1 -2.410804E+06 -5.780846E+05 -2.716674E+05 -8.710947E+05 -1.291207E+05 -4.548881E+04
       129   2 -2.372951E+06 -3.845932E+05 -1.506958E+05 -8.890759E+05 -8.388659E+04 -2.228097E+04
       129   3 -2.400517E+06 -3.834618E+05 -1.150877E+05 -8.706117E+05 -3.634942E+04 -5.188855E+03
       129   4 -2.164003E+06 -4.461882E+05 -1.965749E+05 -7.643658E+05 -1.255490E+05 -4.415450E+04
       129   5 -2.121380E+06 -2.789731E+05 -8.156397E+04 -8.093851E+05 -8.290237E+04 -2.191277E+04
       129   6 -2.143632E+06 -3.035616E+05 -4.983409E+04 -8.179677E+05 -3.795282E+04 -5.790727E+03
       129   7 -1.917140E+06 -3.142677E+05 -1.214885E+05 -6.575927E+05 -1.219757E+05 -4.281904E+04
       129   8 -1.869746E+06 -1.733447E+05 -1.243799E+04 -7.296635E+05 -8.191770E+04 -2.154436E+04
       129   9 -1.886682E+06 -2.236617E+05  1.541468E+04 -7.653062E+05 -3.955694E+04 -6.392765E+03
       129  10 -2.410823E+06 -5.780913E+05 -2.717027E+05 -8.710995E+05  1.291091E-09  4.693065E-11
       129  11 -2.372959E+06 -3.845957E+05 -1.507100E+05 -8.890774E+05 -3.126201E-09  6.010492E-11
       129  12 -2.400519E+06 -3.834622E+05 -1.150903E+05 -8.706119E+05 -8.365417E-10 -3.916276E-10
       129  13 -2.164021E+06 -4.461946E+05 -1.966083E+05 -7.643703E+05  1.365655E-09 -2.361138E-10
       129  14 -2.121387E+06 -2.789754E+05 -8.157784E+04 -8.093866E+05 -6.548402E-10  7.477479E-11
       129  15 -2.143634E+06 -3.035620E+05 -4.983687E+04 -8.179679E+05 -1.847552E-09 -4.271199E-10
       129  16 -1.917156E+06 -3.142737E+05 -1.215200E+05 -6.575969E+05  5.404450E-10 -1.159202E-09
       129  17 -1.869753E+06 -1.733471E+05 -1.245152E+04 -7.296649E+05 -1.009907E-09 -4.147245E-10
       129  18 -1.886684E+06 -2.236622E+05  1.541165E+04 -7.653064E+05 -1.231339E-09 -5.664160E-10
       129  19 -2.410804E+06 -5.780846E+05 -2.716674E+05 -8.710947E+05  1.291207E+05  4.548881E+04
       129  20 -2.372951E+06 -3.845932E+05 -1.506958E+05 -8.890759E+05  8.388659E+04  2.228097E+04
       129  21 -2.400517E+06 -3.834618E+05 -1.150877E+05 -8.706117E+05  3.634942E+04  5.188855E+03
       129  22 -2.164003E+06 -4.461882E+05 -1.965749E+05 -7.643658E+05  1.255490E+05  4.415450E+04
       129  23 -2.121380E+06 -2.789731E+05 -8.156397E+04 -8.093851E+05  8.290237E+04  2.191277E+04
       129  24 -2.143632E+06 -3.035616E+05 -4.983409E+04 -8.179677E+05  3.795282E+04  5.790727E+03
       129  25 -1.917140E+06 -3.142677E+05 -1.214885E+05 -6.575927E+05  1.219757E+05  4.281904E+04
       129  26 -1.869746E+06 -1.733447E+05 -1.243799E+04 -7.296635E+05  8.191770E+04  2.154436E+04
       129  27 -1.886682E+06 -2.236617E+05  1.541468E+04 -7.653062E+05  3.955694E+04  6.392765E+03
       130   1 -2.350776E+06 -4.099381E+05 -9.870427E+04 -8.690905E+05 -3.034449E+04 -4.402153E+03
       130   2 -2.334882E+06 -3.759604E+05 -7.235467E+04 -8.607265E+05 -1.996122E+04 -7.145818E+02
       130   3 -2.316751E+06 -3.750819E+05 -5.955242E+04 -8.602734E+05 -9.352919E+03  2.373995E+03
       130   4 -2.136780E+06 -3.250821E+05 -4.066371E+04 -8.064717E+05 -3.030409E+04 -4.387384E+03
       130   5 -2.136736E+06 -3.002317E+05 -1.926400E+04 -8.056397E+05 -2.017234E+04 -7.940844E+02
       130   6 -2.134401E+06 -3.084258E+05 -1.120798E+04 -8.127189E+05 -9.815888E+03  2.200074E+03
       130   7 -1.922741E+06 -2.402221E+05  1.737271E+04 -7.438330E+05 -3.026367E+04 -4.372609E+03
       130   8 -1.938552E+06 -2.245005E+05  3.382313E+04 -7.505369E+05 -2.038353E+04 -8.736154E+02
       130   9 -1.952020E+06 -2.417683E+05  3.713346E+04 -7.651520E+05 -1.027901E+04  2.026101E+03
       130  10 -2.350777E+06 -4.099384E+05 -9.870604E+04 -8.690906E+05 -1.786344E-09 -4.166671E-10
       130  11 -2.334882E+06 -3.759605E+05 -7.235543E+04 -8.607266E+05  1.189546E-09  7.948264E-10
       130  12 -2.316751E+06 -3.750820E+05 -5.955259E+04 -8.602734E+05  6.168182E-10 -3.982024E-10
       130  13 -2.136781E+06 -3.250824E+05 -4.066548E+04 -8.064718E+05 -3.618655E-10 -5.338557E-10
       130  14 -2.136736E+06 -3.002318E+05 -1.926477E+04 -8.056397E+05  8.634404E-10  3.615403E-10
       130  15 -2.134401E+06 -3.084258E+05 -1.120817E+04 -8.127188E+05 -9.881096E-10 -3.597315E-10
       130  16 -1.922742E+06 -2.402224E+05  1.737095E+04 -7.438331E+05 -3.373370E-10  3.977189E-10
       130  17 -1.938553E+06 -2.245006E+05  3.382235E+04 -7.505370E+05  2.998545E-09 -1.652428E-10
       130  18 -1.952020E+06 -2.417683E+05  3.713325E+04 -7.651520E+05 -1.828272E-09 -1.036621E-10
       130  19 -2.350776E+06 -4.099381E+05 -9.870427E+04 -8.690905E+05  3.034449E+04  4.402153E+03
       130  20 -2.334882E+06 -3.759604E+05 -7.235467E+04 -8.607265E+05  1.996122E+04  7.145818E+02
       130  21 -2.316751E+06 -3.750819E+05 -5.955242E+04 -8.602734E+05  9.352919E+03 -2.373995E+03
       130  22 -2.136780E+06 -3.250821E+05 -4.066371E+04 -8.064717E+05  3.030409E+04  4.387384E+03
       130  23 -2.136736E+06 -3.002317E+05 -1.926400E+04 -8.056397E+05  2.017234E+04  7.940844E+02
       130  24 -2.134401E+06 -3.084258E+05 -1.120798E+04 -8.127189E+05  9.815888E+03 -2.200074E+03
       130  25 -1.922741E+06 -2.402221E+05  1.737271E+04 -7.438330E+05  3.026367E+04  4.372609E+03
       130  26 -1.938552E+06 -2.245005E+05  3.382313E+04 -7.505369E+05  2.038353E+04  8.736154E+02
       130  27 -1.952020E+06 -2.417683E+05  3.713346E+04 -7.651520E+05  1.027901E+04 -2.026101E+03
       131   1 -2.281838E+06 -3.675368E+05 -4.849966E+04 -8.525492E+05 -7.670729E+03  2.374954E+03
       131   2 -2.267540E+06 -3.509315E+05 -3.890323E+04 -8.399479E+05 -5.010675E+03  2.480457E+03
       131   3 -2.241474E+06 -3.498545E+05 -3.175089E+04 -8.416427E+05 -2.319466E+03  2.502464E+03
       131   4 -2.133230E+06 -3.111577E+05 -8.811490E+03 -8.116493E+05 -7.987160E+03  2.256077E+03
       131   5 -2.138979E+06 -3.024346E+05 -4.575631E+03 -8.048614E+05 -5.362091E+03  2.348514E+03
       131   6 -2.132954E+06 -3.092324E+05 -2.755651E+03 -8.123697E+05 -2.705958E+03  2.357430E+03
       131   7 -1.984601E+06 -2.547771E+05  3.087484E+04 -7.707405E+05 -8.303675E+03  2.137167E+03
       131   8 -2.010403E+06 -2.539366E+05  2.975057E+04 -7.697684E+05 -5.713588E+03  2.216541E+03
       131   9 -2.024423E+06 -2.686096E+05  2.623856E+04 -7.830921E+05 -3.092525E+03  2.212369E+03
       131  10 -2.281838E+06 -3.675368E+05 -4.849978E+04 -8.525492E+05 -8.142474E-10  3.163857E-11
       131  11 -2.267540E+06 -3.509315E+05 -3.890329E+04 -8.399479E+05  1.314830E-09  6.417314E-10
       131  12 -2.241474E+06 -3.498545E+05 -3.175091E+04 -8.416427E+05  5.050020E-09  3.432582E-10
       131  13 -2.133230E+06 -3.111577E+05 -8.811619E+03 -8.116493E+05  7.578609E-11 -3.249099E-10
       131  14 -2.138979E+06 -3.024346E+05 -4.575696E+03 -8.048614E+05  1.243161E-09  3.023060E-10
       131  15 -2.132954E+06 -3.092324E+05 -2.755675E+03 -8.123697E+05  2.656050E-09 -8.275566E-11
       131  16 -1.984601E+06 -2.547771E+05  3.087471E+04 -7.707405E+05 -8.381327E-11 -1.836706E-10
       131  17 -2.010403E+06 -2.539366E+05  2.975050E+04 -7.697684E+05  5.078739E-09  3.770414E-11
       131  18 -2.024423E+06 -2.686096E+05  2.623853E+04 -7.830921E+05 -7.209146E-10  5.536983E-10
       131  19 -2.281838E+06 -3.675368E+05 -4.849966E+04 -8.525492E+05  7.670729E+03 -2.374954E+03
       131  20 -2.267540E+06 -3.509315E+05 -3.890323E+04 -8.399479E+05  5.010675E+03 -2.480457E+03
       131  21 -2.241474E+06 -3.498545E+05 -3.175089E+04 -8.416427E+05  2.319466E+03 -2.502464E+03
       131  22 -2.133230E+06 -3.111577E+05 -8.811490E+03 -8.116493E+05  7.987160E+03 -2.256077E+03
       131  23 -2.138979E+06 -3.024346E+05 -4.575631E+03 -8.048614E+05  5.362091E+03 -2.348514E+03
       131  24 -2.132954E+06 -3.092324E+05 -2.755651E+03 -8.123697E+05  2.705958E+03 -2.357430E+03
       131  25 -1.984601E+06 -2.547771E+05  3.087484E+04 -7.707405E+05  8.303675E+03 -2.137167E+03
       131  26 -2.010403E+06 -2.539366E+05  2.975057E+04 -7.697684E+05  5.713588E+03 -2.216541E+03
       131  27 -2.024423E+06 -2.686096E+05  2.623856E+04 -7.830921E+05  3.092525E+03 -2.212369E+03
       132   1 -2.206207E+06 -3.373863E+05 -2.180808E+04 -8.324680E+05 -1.724946E+03  2.129400E+03
       132   2 -2.191468E+06 -3.221133E+05 -1.550440E+04 -8.187511E+05 -5.731930E+02  1.548292E+03
       132   3 -2.163203E+06 -3.209950E+05 -9.911996E+03 -8.207412E+05  5.854791E+02  9.484311E+02
       132   4 -2.132668E+06 -3.096705E+05 -2.252922E+03 -8.124040E+05 -2.099113E+03  1.989026E+03
       132   5 -2.139419E+06 -3.025132E+05 -1.613524E+03 -8.045805E+05 -9.552548E+02  1.404984E+03
       132   6 -2.132644E+06 -3.095090E+05 -1.679077E+03 -8.124641E+05  1.954885E+02  8.021823E+02
       132   7 -2.059123E+06 -2.819544E+05  1.730175E+04 -7.923379E+05 -2.473328E+03  1.848634E+03
       132   8 -2.087368E+06 -2.829130E+05  1.227708E+04 -7.904089E+05 -1.337351E+03  1.261664E+03
       132   9 -2.102084E+06 -2.980230E+05  6.553721E+03 -8.041867E+05 -1.945214E+02  6.559262E+02
       132  10 -2.206207E+06 -3.373863E+05 -2.180809E+04 -8.324680E+05  1.683945E-09 -1.929543E-10
       132  11 -2.191468E+06 -3.221133E+05 -1.550441E+04 -8.187511E+05 -6.841105E-10 -1.120494E-09
       132  12 -2.163203E+06 -3.209950E+05 -9.911998E+03 -8.207412E+05 -1.380931E-09 -5.443300E-10
       132  13 -2.132668E+06 -3.096705E+05 -2.252938E+03 -8.124040E+05  2.211922E-09 -3.229995E-10
       132  14 -2.139419E+06 -3.025132E+05 -1.613530E+03 -8.045805E+05 -8.401314E-10 -1.009015E-09
       132  15 -2.132644E+06 -3.095090E+05 -1.679078E+03 -8.124641E+05 -2.372439E-09 -7.784141E-10
       132  16 -2.059123E+06 -2.819544E+05  1.730173E+04 -7.923379E+05 -2.292318E-09 -5.611251E-10
       132  17 -2.087368E+06 -2.829130E+05  1.227707E+04 -7.904089E+05 -3.053489E-09 -1.327502E-09
       132  18 -2.102084E+06 -2.980230E+05  6.553720E+03 -8.041867E+05 -1.095687E-09 -3.209955E-10
       132  19 -2.206207E+06 -3.373863E+05 -2.180808E+04 -8.324680E+05  1.724946E+03 -2.129400E+03
       132  20 -2.191468E+06 -3.221133E+05 -1.550440E+04 -8.187511E+05  5.731930E+02 -1.548292E+03
       132  21 -2.163203E+06 -3.209950E+05 -9.911996E+03 -8.207412E+05 -5.854791E+02 -9.484311E+02
       132  22 -2.132668E+06 -3.096705E+05 -2.252922E+03 -8.124040E+05  2.099113E+03 -1.989026E+03
       132  23 -2.139419E+06 -3.025132E+05 -1.613524E+03 -8.045805E+05  9.552548E+02 -1.404984E+03
       132  24 -2.132644E+06 -3.095090E+05 -1.679077E+03 -8.124641E+05 -1.954885E+02 -8.021823E+02
       132  25 -2.059123E+06 -2.819544E+05  1.730175E+04 -7.923379E+05  2.473328E+03 -1.848634E+03
       132  26 -2.087368E+06 -2.829130E+05  1.227708E+04 -7.904089E+05  1.337351E+03 -1.261664E+03
       132  27 -2.102084E+06 -2.980230E+05  6.553721E+03 -8.041867E+05  1.945214E+02 -6.559262E+02
       133   1 -2.127142E+06 -3.074832E+05 -3.618134E+02 -8.111176E+05  1.081272E+03  5.246420E+02
       133   2 -2.112259E+06 -2.922122E+05  4.366133E+03 -7.971698E+05  2.863590E+03  1.548883E+02
       133   3 -2.083989E+06 -2.916138E+05  7.806268E+03 -7.989661E+05  4.641446E+03 -2.026606E+02
       133   4 -2.132656E+06 -3.094872E+05 -1.900350E+03 -8.125238E+05  6.911962E+02  3.783666E+02
       133   5 -2.139387E+06 -3.024222E+05 -2.872536E+03 -8.045501E+05  2.478634E+03  1.051412E+01
       133   6 -2.132734E+06 -3.100309E+05 -5.136527E+03 -8.123208E+05  4.261552E+03 -3.451526E+02
       133   7 -2.138169E+06 -3.114912E+05 -3.438897E+03 -8.139300E+05  3.011220E+02  2.320916E+02
       133   8 -2.166515E+06 -3.126322E+05 -1.011130E+04 -8.119302E+05  2.093695E+03 -1.338538E+02
       133   9 -2.181477E+06 -3.284479E+05 -1.807957E+04 -8.256747E+05  3.881691E+03 -4.876326E+02
       133  10 -2.127142E+06 -3.074832E+05 -3.618161E+02 -8.111176E+05  2.674040E-10 -1.249458E-12
       133  11 -2.112259E+06 -2.922122E+05  4.366118E+03 -7.971698E+05  1.707411E-09  1.068836E-09
       133  12 -2.083989E+06 -2.916138E+05  7.806227E+03 -7.989661E+05 -5.271316E-10  9.208372E-10
       133  13 -2.132656E+06 -3.094872E+05 -1.900351E+03 -8.125238E+05  9.095728E-11  1.362398E-10
       133  14 -2.139387E+06 -3.024222E+05 -2.872547E+03 -8.045501E+05 -1.181272E-10  8.080715E-10
       133  15 -2.132734E+06 -3.100309E+05 -5.136562E+03 -8.123208E+05  8.993912E-10  7.153200E-10
       133  16 -2.138169E+06 -3.114912E+05 -3.438898E+03 -8.139300E+05  7.967986E-10  1.144543E-10
       133  17 -2.166515E+06 -3.126322E+05 -1.011131E+04 -8.119302E+05  1.621087E-09  6.528900E-10
       133  18 -2.181477E+06 -3.284479E+05 -1.807960E+04 -8.256747E+05  1.328931E-09  4.368005E-10
       133  19 -2.127142E+06 -3.074832E+05 -3.618134E+02 -8.111176E+05 -1.081272E+03 -5.246420E+02
       133  20 -2.112259E+06 -2.922122E+05  4.366133E+03 -7.971698E+05 -2.863590E+03 -1.548883E+02
       133  21 -2.083989E+06 -2.916138E+05  7.806268E+03 -7.989661E+05 -4.641446E+03  2.026606E+02
       133  22 -2.132656E+06 -3.094872E+05 -1.900350E+03 -8.125238E+05 -6.911962E+02 -3.783666E+02
       133  23 -2.139387E+06 -3.024222E+05 -2.872536E+03 -8.045501E+05 -2.478634E+03 -1.051412E+01
       133  24 -2.132734E+06 -3.100309E+05 -5.136527E+03 -8.123208E+05 -4.261552E+03  3.451526E+02
       133  25 -2.138169E+06 -3.114912E+05 -3.438897E+03 -8.139300E+05 -3.011220E+02 -2.320916E+02
       133  26 -2.166515E+06 -3.126322E+05 -1.011130E+04 -8.119302E+05 -2.093695E+03  1.338538E+02
       133  27 -2.181477E+06 -3.284479E+05 -1.807957E+04 -8.256747E+05 -3.881691E+03  4.876326E+02
       134   1 -2.048616E+06 -2.780194E+05  1.588623E+04 -7.902949E+05  5.817589E+03 -3.658540E+02
       134   2 -2.033866E+06 -2.621380E+05  1.635778E+04 -7.760910E+05  1.204618E+04  9.640005E+02
       134   3 -2.009013E+06 -2.661381E+05  1.065806E+04 -7.756409E+05  1.824725E+04  2.368687E+03
       134   4 -2.133187E+06 -3.092069E+05 -6.634950E+03 -8.126228E+05  5.425499E+03 -5.129400E+02
       134   5 -2.138594E+06 -3.017699E+05 -1.162685E+04 -8.048078E+05  1.168488E+04  8.283989E+02
       134   6 -2.133906E+06 -3.142215E+05 -2.281545E+04 -8.107468E+05  1.791655E+04  2.244484E+03
       134   7 -2.217750E+06 -3.403939E+05 -2.915664E+04 -8.349479E+05  5.033471E+03 -6.600043E+02
       134   8 -2.243311E+06 -3.414011E+05 -3.961240E+04 -8.335201E+05  1.132365E+04  6.928229E+02
       134   9 -2.258783E+06 -3.623040E+05 -5.629040E+04 -8.458463E+05  1.758593E+04  2.120310E+03
       134  10 -2.048616E+06 -2.780194E+05  1.588616E+04 -7.902949E+05 -1.304472E-09  4.982840E-10
       134  11 -2.033866E+06 -2.621381E+05  1.635751E+04 -7.760910E+05  1.631627E-09  1.358053E-09
       134  12 -2.009014E+06 -2.661382E+05  1.065742E+04 -7.756409E+05  6.159929E-10  1.733953E-10
       134  13 -2.133187E+06 -3.092069E+05 -6.635006E+03 -8.126228E+05  2.035806E-09  5.594966E-10
       134  14 -2.138594E+06 -3.017700E+05 -1.162711E+04 -8.048078E+05  8.152712E-09  1.368189E-09
       134  15 -2.133906E+06 -3.142216E+05 -2.281607E+04 -8.107468E+05 -5.376861E-10  4.666189E-11
       134  16 -2.217750E+06 -3.403939E+05 -2.915669E+04 -8.349479E+05  2.265646E-09  8.542990E-10
       134  17 -2.243311E+06 -3.414011E+05 -3.961264E+04 -8.335201E+05  1.377785E-09  1.521035E-09
       134  18 -2.258784E+06 -3.623041E+05 -5.629099E+04 -8.458463E+05  1.448469E-10  2.983497E-10
       134  19 -2.048616E+06 -2.780194E+05  1.588623E+04 -7.902949E+05 -5.817589E+03  3.658540E+02
       134  20 -2.033866E+06 -2.621380E+05  1.635778E+04 -7.760910E+05 -1.204618E+04 -9.640005E+02
       134  21 -2.009013E+06 -2.661381E+05  1.065806E+04 -7.756409E+05 -1.824725E+04 -2.368687E+03
       134  22 -2.133187E+06 -3.092069E+05 -6.634950E+03 -8.126228E+05 -5.425499E+03  5.129400E+02
       134  23 -2.138594E+06 -3.017699E+05 -1.162685E+04 -8.048078E+05 -1.168488E+04 -8.283989E+02
       134  24 -2.133906E+06 -3.142215E+05 -2.281545E+04 -8.107468E+05 -1.791655E+04 -2.244484E+03
       134  25 -2.217750E+06 -3.403939E+05 -2.915664E+04 -8.349479E+05 -5.033471E+03  6.600043E+02
       134  26 -2.243311E+06 -3.414011E+05 -3.961240E+04 -8.335201E+05 -1.132365E+04 -6.928229E+02
       134  27 -2.258783E+06 -3.623040E+05 -5.629040E+04 -8.458463E+05 -1.758593E+04 -2.120310E+03
       135   1 -1.973867E+06 -2.517792E+05  1.329981E+04 -7.754184E+05  2.280395E+04  3.435893E+03
       135   2 -1.957843E+06 -2.264371E+05 -2.787613E+03 -7.553803E+05  4.908130E+04  1.237491E+04
       135   3 -1.954041E+06 -2.691469E+05 -5.349011E+04 -7.353344E+05  7.514639E+04  2.188131E+04
       135   4 -2.136433E+06 -3.076579E+05 -2.911422E+04 -8.141736E+05  2.233388E+04  3.259588E+03
       135   5 -2.133393E+06 -2.953153E+05 -5.016019E+04 -8.060376E+05  4.884516E+04  1.228585E+04
       135   6 -2.142629E+06 -3.510821E+05 -1.060151E+05 -7.978930E+05  7.514363E+04  2.187852E+04
       135   7 -2.298972E+06 -3.635359E+05 -7.153033E+04 -8.529199E+05  2.186394E+04  3.083324E+03
       135   8 -2.308913E+06 -3.641909E+05 -9.753553E+04 -8.566816E+05  4.860909E+04  1.219682E+04
       135   9 -2.331182E+06 -4.330119E+05 -1.585436E+05 -8.604334E+05  7.514088E+04  2.187572E+04
       135  10 -1.973868E+06 -2.517794E+05  1.329880E+04 -7.754185E+05  3.698070E-10 -2.820038E-10
       135  11 -1.957846E+06 -2.264379E+05 -2.792445E+03 -7.553808E+05  1.264267E-09 -3.193354E-10
       135  12 -1.954048E+06 -2.691489E+05 -5.350166E+04 -7.353357E+05  2.442504E-10 -1.005631E-10
       135  13 -2.136433E+06 -3.076580E+05 -2.911518E+04 -8.141736E+05 -2.288422E-09 -1.118069E-10
       135  14 -2.133396E+06 -2.953161E+05 -5.016498E+04 -8.060380E+05 -3.370064E-09 -1.148834E-10
       135  15 -2.142635E+06 -3.510841E+05 -1.060267E+05 -7.978943E+05 -3.932995E-10 -5.435710E-10
       135  16 -2.298973E+06 -3.635361E+05 -7.153125E+04 -8.529199E+05  2.025045E-09 -7.245840E-11
       135  17 -2.308915E+06 -3.641917E+05 -9.754027E+04 -8.566821E+05 -6.196941E-10  2.160246E-10
       135  18 -2.331189E+06 -4.330139E+05 -1.585551E+05 -8.604347E+05 -1.126556E-09 -3.042726E-10
       135  19 -1.973867E+06 -2.517792E+05  1.329981E+04 -7.754184E+05 -2.280395E+04 -3.435893E+03
       135  20 -1.957843E+06 -2.264371E+05 -2.787613E+03 -7.553803E+05 -4.908130E+04 -1.237491E+04
       135  21 -1.954041E+06 -2.691469E+05 -5.349011E+04 -7.353344E+05 -7.514639E+04 -2.188131E+04
       135  22 -2.136433E+06 -3.076579E+05 -2.911422E+04 -8.141736E+05 -2.233388E+04 -3.259588E+03
       135  23 -2.133393E+06 -2.953153E+05 -5.016019E+04 -8.060376E+05 -4.884516E+04 -1.228585E+04
       135  24 -2.142629E+06 -3.510821E+05 -1.060151E+05 -7.978930E+05 -7.514363E+04 -2.187852E+04
       135  25 -2.298972E+06 -3.635359E+05 -7.153033E+04 -8.529199E+05 -2.186394E+04 -3.083324E+03
       135  26 -2.308913E+06 -3.641909E+05 -9.753553E+04 -8.566816E+05 -4.860909E+04 -1.219682E+04
       135  27 -2.331182E+06 -4.330119E+05 -1.585436E+05 -8.604334E+05 -7.514088E+04 -2.187572E+04
       136   1 -1.902017E+06 -2.428062E+05 -6.975714E+04 -8.039325E+05  9.585698E+04  2.821529E+04
       136   2 -1.873147E+06 -1.275159E+05 -1.482926E+05 -7.255782E+05  2.102505E+05  7.042570E+04
       136   3 -2.027749E+06 -4.973288E+05 -4.420583E+05 -5.356213E+05  3.224566E+05  1.184705E+05
       136   4 -2.159753E+06 -2.957231E+05 -1.299405E+05 -8.287510E+05  9.429418E+04  2.763620E+04
       136   5 -2.094259E+06 -2.388782E+05 -2.126222E+05 -8.146904E+05  2.111222E+05  7.074142E+04
       136   6 -2.212810E+06 -6.677493E+05 -5.125318E+05 -6.890019E+05  3.257690E+05  1.196510E+05
       136   7 -2.417423E+06 -3.486415E+05 -1.901271E+05 -8.535654E+05  9.273207E+04  2.705710E+04
       136   8 -2.315320E+06 -3.502244E+05 -2.769560E+05 -9.037696E+05  2.119936E+05  7.105690E+04
       136   9 -2.397809E+06 -8.380872E+05 -5.830039E+05 -8.423231E+05  3.290802E+05  1.208297E+05
       136  10 -1.902027E+06 -2.428095E+05 -6.977597E+04 -8.039347E+05  9.386052E-10 -7.056260E-10
       136  11 -1.873196E+06 -1.275332E+05 -1.483853E+05 -7.255902E+05 -8.256237E-10 -1.638745E-11
       136  12 -2.027865E+06 -4.973719E+05 -4.422809E+05 -5.356521E+05  3.218012E-10  3.725440E-10
       136  13 -2.159763E+06 -2.957263E+05 -1.299587E+05 -8.287531E+05  8.885147E-10 -6.436274E-10
       136  14 -2.094308E+06 -2.388956E+05 -2.127157E+05 -8.147025E+05  3.309362E-09 -6.437240E-10
       136  15 -2.212928E+06 -6.677933E+05 -5.127590E+05 -6.890334E+05  1.108927E-09  2.132864E-10
       136  16 -2.417432E+06 -3.486446E+05 -1.901447E+05 -8.535674E+05 -2.868043E-10  5.034907E-10
       136  17 -2.315370E+06 -3.502420E+05 -2.770504E+05 -9.037818E+05 -4.042625E-10  5.326154E-10
       136  18 -2.397930E+06 -8.381321E+05 -5.832359E+05 -8.423552E+05 -2.074290E-09  9.631160E-10
       136  19 -1.902017E+06 -2.428062E+05 -6.975714E+04 -8.039325E+05 -9.585698E+04 -2.821529E+04
       136  20 -1.873147E+06 -1.275159E+05 -1.482926E+05 -7.255782E+05 -2.102505E+05 -7.042570E+04
       136  21 -2.027749E+06 -4.973288E+05 -4.420583E+05 -5.356213E+05 -3.224566E+05 -1.184705E+05
       136  22 -2.159753E+06 -2.957231E+05 -1.299405E+05 -8.287510E+05 -9.429418E+04 -2.763620E+04
       136  23 -2.094259E+06 -2.388782E+05 -2.126222E+05 -8.146904E+05 -2.111222E+05 -7.074142E+04
       136  24 -2.212810E+06 -6.677493E+05 -5.125318E+05 -6.890019E+05 -3.257690E+05 -1.196510E+05
       136  25 -2.417423E+06 -3.486415E+05 -1.901271E+05 -8.535654E+05 -9.273207E+04 -2.705710E+04
       136  26 -2.315320E+06 -3.502244E+05 -2.769560E+05 -9.037696E+05 -2.119936E+05 -7.105690E+04
       136  27 -2.397809E+06 -8.380872E+05 -5.830039E+05 -8.423231E+05 -3.290802E+05 -1.208297E+05
       137   1 -3.509814E+05  2.282678E+03  2.784172E+04  1.177401E+04  7.481456E+04  3.403540E+03
       137   2 -3.395736E+05 -9.651970E+04 -2.892398E+04  4.115974E+03  5.083577E+04  9.926252E+03
       137   3 -2.959572E+05 -7.979420E+04 -4.114808E+04 -2.606201E+04  2.686192E+04  8.906061E+03
       137   4  7.003751E+03  9.153153E+04  1.163526E+05 -1.452160E+04  7.954936E+04  3.404789E+03
       137   5 -9.390090E+03 -1.455721E+04  5.069948E+04 -3.219036E+03  5.211791E+04  9.926259E+03
       137   6  7.004333E+03 -4.553212E+03  3.196759E+04 -1.443507E+04  2.469261E+04  8.905132E+03
       137   7  3.651070E+05  1.807734E+05  2.048544E+05 -4.083243E+04  8.428688E+04  3.405637E+03
       137   8  3.208933E+05  6.739752E+04  1.303152E+05 -1.055798E+04  5.340073E+04  9.926236E+03
       137   9  3.100501E+05  7.068157E+04  1.050768E+05 -2.802446E+03  2.252223E+04  8.904120E+03
       137  10 -3.509874E+05  2.281162E+03  2.783117E+04  1.177381E+04 -2.097457E-10 -1.443555E-09
       137  11 -3.395764E+05 -9.652050E+04 -2.892902E+04  4.115567E+03 -1.726707E-09 -9.078490E-10
       137  12 -2.959580E+05 -7.979448E+04 -4.114959E+04 -2.606220E+04 -1.454114E-09 -2.855795E-10
       137  13  6.996953E+03  9.152982E+04  1.163407E+05 -1.452182E+04  2.746415E-12  3.893532E-10
       137  14 -9.393033E+03 -1.455805E+04  5.069419E+04 -3.219453E+03 -9.778401E-10 -5.919870E-10
       137  15  7.003657E+03 -4.553461E+03  3.196630E+04 -1.443525E+04  1.323513E-09 -3.729595E-10
       137  16  3.650994E+05  1.807715E+05  2.048410E+05 -4.083266E+04 -2.342565E-10  6.660496E-10
       137  17  3.208902E+05  6.739665E+04  1.303096E+05 -1.055841E+04  3.484505E-09  1.141995E-10
       137  18  3.100496E+05  7.068135E+04  1.050757E+05 -2.802607E+03  2.606563E-09  1.361060E-09
       137  19 -3.509814E+05  2.282678E+03  2.784172E+04  1.177401E+04 -7.481456E+04 -3.403540E+03
       137  20 -3.395736E+05 -9.651970E+04 -2.892398E+04  4.115974E+03 -5.083577E+04 -9.926252E+03
       137  21 -2.959572E+05 -7.979420E+04 -4.114808E+04 -2.606201E+04 -2.686192E+04 -8.906061E+03
       137  22  7.003751E+03  9.153153E+04  1.163526E+05 -1.452160E+04 -7.954936E+04 -3.404789E+03
       137  23 -9.390090E+03 -1.455721E+04  5.069948E+04 -3.219036E+03 -5.211791E+04 -9.926259E+03
       137  24  7.004333E+03 -4.553212E+03  3.196759E+04 -1.443507E+04 -2.469261E+04 -8.905132E+03
       137  25  3.651070E+05  1.807734E+05  2.048544E+05 -4.083243E+04 -8.428688E+04 -3.405637E+03
       137  26  3.208933E+05  6.739752E+04  1.303152E+05 -1.055798E+04 -5.340073E+04 -9.926236E+03
       137  27  3.100501E+05  7.068157E+04  1.050768E+05 -2.802446E+03 -2.252223E+04 -8.904120E+03
       138   1 -2.607397E+05 -5.467171E+04 -3.709139E+04 -1.184586E+04  1.972396E+04  7.185466E+03
       138   2 -2.354288E+05 -5.978449E+04 -4.336061E+04 -2.551931E+03  1.325485E+04  6.748812E+03
       138   3 -2.059140E+05 -5.182423E+04 -4.212911E+04 -1.585858E+04  6.785205E+03  5.681872E+03
       138   4  6.695329E+02  1.026163E+04  2.613919E+04 -1.448136E+04  1.967532E+04  7.185161E+03
       138   5 -1.455337E+03 -1.683676E+03  1.313819E+04 -3.179373E+03  1.291630E+04  6.748539E+03
       138   6  6.713317E+02 -5.084083E+02  7.836946E+03 -1.447735E+04  6.157028E+03  5.681696E+03
       138   7  2.621413E+05  7.519000E+04  8.936486E+04 -1.711798E+04  1.962666E+04  7.184858E+03
       138   8  2.325682E+05  5.641314E+04  6.963307E+04 -3.807056E+03  1.257762E+04  6.748267E+03
       138   9  2.072957E+05  5.080430E+04  5.779994E+04 -1.309565E+04  5.528643E+03  5.681517E+03
       138  10 -2.607402E+05 -5.467187E+04 -3.709222E+04 -1.184598E+04 -7.034310E-11  3.302476E-11
       138  11 -2.354290E+05 -5.978459E+04 -4.336103E+04 -2.552003E+03  6.377572E-10 -7.062444E-10
       138  12 -2.059141E+05 -5.182428E+04 -4.212926E+04 -1.585862E+04  1.440343E-09 -3.587053E-10
       138  13  6.691034E+02  1.026147E+04  2.613837E+04 -1.448148E+04 -1.080716E-09  9.650995E-10
       138  14 -1.455528E+03 -1.683770E+03  1.313779E+04 -3.179443E+03 -3.193496E-09 -4.183375E-10
       138  15  6.712823E+02 -5.084531E+02  7.836814E+03 -1.447738E+04  7.065848E-10 -3.826759E-10
       138  16  2.621408E+05  7.518984E+04  8.936404E+04 -1.711810E+04 -9.954947E-10  7.101217E-10
       138  17  2.325680E+05  5.641305E+04  6.963268E+04 -3.807125E+03 -1.944918E-09 -4.725215E-10
       138  18  2.072957E+05  5.080426E+04  5.779982E+04 -1.309568E+04 -6.094173E-10 -2.664654E-10
       138  19 -2.607397E+05 -5.467171E+04 -3.709139E+04 -1.184586E+04 -1.972396E+04 -7.185466E+03
       138  20 -2.354288E+05 -5.978449E+04 -4.336061E+04 -2.551931E+03 -1.325485E+04 -6.748812E+03
       138  21 -2.059140E+05 -5.182423E+04 -4.212911E+04 -1.585858E+04 -6.785205E+03 -5.681872E+03
       138  22  6.695329E+02  1.026163E+04  2.613919E+04 -1.448136E+04 -1.967532E+04 -7.185161E+03
       138  23 -1.455337E+03 -1.683676E+03  1.313819E+04 -3.179373E+03 -1.291630E+04 -6.748539E+03
       138  24  6.713317E+02 -5.084083E+02  7.836946E+03 -1.447735E+04 -6.157028E+03 -5.681696E+03
       138  25  2.621413E+05  7.519000E+04  8.936486E+04 -1.711798E+04 -1.962666E+04 -7.184858E+03
       138  26  2.325682E+05  5.641314E+04  6.963307E+04 -3.807056E+03 -1.257762E+04 -6.748267E+03
       138  27  2.072957E+05  5.080430E+04  5.779994E+04 -1.309565E+04 -5.528643E+03 -5.681517E+03
       139   1 -1.651688E+05 -3.983789E+04 -3.366349E+04 -1.425253E+04  5.370067E+03  4.966973E+03
       139   2 -1.380603E+05 -3.437158E+04 -3.000349E+04 -3.141910E+03  3.767537E+03  3.949613E+03
       139   3 -1.103515E+05 -2.743708E+04 -2.492797E+04 -1.463952E+04  2.164629E+03  2.879585E+03
       139   4 -1.347638E+02  1.129810E+03  6.124512E+03 -1.448026E+04  4.919106E+03  4.966868E+03
       139   5 -4.362092E+02 -1.971869E+02  3.232775E+03 -3.176292E+03  3.292160E+03  3.949577E+03
       139   6 -1.336014E+02 -5.181956E+01  1.773342E+03 -1.448025E+04  1.664906E+03  2.879626E+03
       139   7  1.649242E+05  4.209552E+04  4.591057E+04 -1.470804E+04  4.468025E+03  4.966764E+03
       139   8  1.372052E+05  3.397582E+04  3.646768E+04 -3.210683E+03  2.816678E+03  3.949542E+03
       139   9  1.100954E+05  2.733255E+04  2.847378E+04 -1.432094E+04  1.165095E+03  2.879667E+03
       139  10 -1.651689E+05 -3.983792E+04 -3.366359E+04 -1.425255E+04  6.434290E-10  5.142581E-10
       139  11 -1.380603E+05 -3.437160E+04 -3.000354E+04 -3.141922E+03  1.607651E-09  1.228889E-09
       139  12 -1.103515E+05 -2.743709E+04 -2.492799E+04 -1.463953E+04  6.729174E-10  2.238631E-10
       139  13 -1.347964E+02  1.129777E+03  6.124421E+03 -1.448028E+04 -1.075587E-09  5.535416E-10
       139  14 -4.362251E+02 -1.972066E+02  3.232725E+03 -3.176303E+03 -5.420012E-10  8.361714E-10
       139  15 -1.336066E+02 -5.182921E+01  1.773321E+03 -1.448025E+04 -8.332824E-10  7.980424E-11
       139  16  1.649242E+05  4.209549E+04  4.591049E+04 -1.470806E+04 -2.285543E-09  4.665656E-10
       139  17  1.372052E+05  3.397581E+04  3.646764E+04 -3.210691E+03 -1.871729E-09  7.028026E-10
       139  18  1.100954E+05  2.733255E+04  2.847376E+04 -1.432094E+04 -1.235479E-09 -7.126482E-10
       139  19 -1.651688E+05 -3.983789E+04 -3.366349E+04 -1.425253E+04 -5.370067E+03 -4.966973E+03
       139  20 -1.380603E+05 -3.437158E+04 -3.000349E+04 -3.141910E+03 -3.767537E+03 -3.949613E+03
       139  21 -1.103515E+05 -2.743708E+04 -2.492797E+04 -1.463952E+04 -2.164629E+03 -2.879585E+03
       139  22 -1.347638E+02  1.129810E+03  6.124512E+03 -1.448026E+04 -4.919106E+03 -4.966868E+03
       139  23 -4.362092E+02 -1.971869E+02  3.232775E+03 -3.176292E+03 -3.292160E+03 -3.949577E+03
       139  24 -1.336014E+02 -5.181956E+01  1.773342E+03 -1.448025E+04 -1.664906E+03 -2.879626E+03
       139  25  1.649242E+05  4.209552E+04  4.591057E+04 -1.470804E+04 -4.468025E+03 -4.966764E+03
       139  26  1.372052E+05  3.397582E+04  3.646768E+04 -3.210683E+03 -2.816678E+03 -3.949542E+03
       139  27  1.100954E+05  2.733255E+04  2.847378E+04 -1.432094E+04 -1.165095E+03 -2.879667E+03
       140   1 -6.891651E+04 -1.690801E+04 -1.523252E+04 -1.447107E+04  1.877138E+03  2.248870E+03
       140   2 -4.153431E+04 -1.025962E+04 -9.532445E+03 -3.183561E+03  1.663918E+03  1.182937E+03
       140   3 -1.409796E+04 -3.477373E+03 -3.661834E+03 -1.450763E+04  1.450583E+03  1.129296E+02
       140   4 -2.538312E+02  1.248304E+02  1.266124E+03 -1.448102E+04  1.392107E+03  2.248941E+03
       140   5 -2.803227E+02 -1.612599E+01  4.300230E+02 -3.175287E+03  1.176982E+03  1.183029E+03
       140   6 -2.534687E+02 -2.296256E+01 -2.343143E+02 -1.448105E+04  9.617528E+02  1.130451E+02
       140   7  6.841317E+04  1.715733E+04  1.776443E+04 -1.449096E+04  9.070224E+02  2.249013E+03
       140   8  4.097522E+04  1.022724E+04  1.039237E+04 -3.167013E+03  6.900148E+02  1.183121E+03
       140   9  1.359119E+04  3.431434E+03  3.193192E+03 -1.445446E+04  4.729114E+02  1.131605E+02
       140  10 -6.891652E+04 -1.690802E+04 -1.523253E+04 -1.447107E+04 -2.270905E-09 -5.491223E-11
       140  11 -4.153431E+04 -1.025962E+04 -9.532453E+03 -3.183563E+03  7.642175E-10  3.595127E-10
       140  12 -1.409796E+04 -3.477374E+03 -3.661838E+03 -1.450763E+04 -1.118317E-09 -1.368453E-11
       140  13 -2.538347E+02  1.248245E+02  1.266111E+03 -1.448102E+04  1.077054E-09 -3.238499E-10
       140  14 -2.803246E+02 -1.612786E+01  4.300178E+02 -3.175289E+03 -1.101131E-09  5.545041E-10
       140  15 -2.534697E+02 -2.296282E+01 -2.343161E+02 -1.448105E+04 -8.530796E-10 -3.946679E-10
       140  16  6.841316E+04  1.715732E+04  1.776442E+04 -1.449096E+04  1.339234E-10 -7.672334E-10
       140  17  4.097522E+04  1.022724E+04  1.039237E+04 -3.167014E+03  5.406722E-10  7.327887E-10
       140  18  1.359119E+04  3.431434E+03  3.193192E+03 -1.445446E+04  6.641457E-10 -1.485731E-10
       140  19 -6.891651E+04 -1.690801E+04 -1.523252E+04 -1.447107E+04 -1.877138E+03 -2.248870E+03
       140  20 -4.153431E+04 -1.025962E+04 -9.532445E+03 -3.183561E+03 -1.663918E+03 -1.182937E+03
       140  21 -1.409796E+04 -3.477373E+03 -3.661834E+03 -1.450763E+04 -1.450583E+03 -1.129296E+02
       140  22 -2.538312E+02  1.248304E+02  1.266124E+03 -1.448102E+04 -1.392107E+03 -2.248941E+03
       140  23 -2.803227E+02 -1.612599E+01  4.300230E+02 -3.175287E+03 -1.176982E+03 -1.183029E+03
       140  24 -2.534687E+02 -2.296256E+01 -2.343143E+02 -1.448105E+04 -9.617528E+02 -1.130451E+02
       140  25  6.841317E+04  1.715733E+04  1.776443E+04 -1.449096E+04 -9.070224E+02 -2.249013E+03
       140  26  4.097522E+04  1.022724E+04  1.039237E+04 -3.167013E+03 -6.900148E+02 -1.183121E+03
       140  27  1.359119E+04  3.431434E+03  3.193192E+03 -1.445446E+04 -4.729114E+02 -1.131605E+02
       141   1  2.741058E+04  6.927130E+03  6.204158E+03 -1.453460E+04  1.523240E+03 -5.113583E+02
       141   2  5.490773E+04  1.373071E+04  1.189154E+04 -3.200128E+03  2.228726E+03 -1.581422E+03
       141   3  8.223383E+04  2.023736E+04  1.704403E+04 -1.447663E+04  2.934377E+03 -2.647289E+03
       141   4 -3.037333E+02  2.897749E+01 -5.726106E+02 -1.448093E+04  1.034331E+03 -5.112454E+02
       141   5 -2.179057E+02  4.361558E+01 -1.420066E+03 -3.175407E+03  1.741657E+03 -1.581340E+03
       141   6 -3.041912E+02 -2.389649E+02 -2.803704E+03 -1.448098E+04  2.449118E+03 -2.647234E+03
       141   7 -2.801734E+04 -6.869231E+03 -7.349435E+03 -1.442727E+04  5.454445E+02 -5.111325E+02
       141   8 -5.534077E+04 -1.364370E+04 -1.473189E+04 -3.150688E+03  1.254632E+03 -1.581257E+03
       141   9 -8.283598E+04 -2.071579E+04 -2.265193E+04 -1.448533E+04  1.963924E+03 -2.647180E+03
       141  10  2.741057E+04  6.927129E+03  6.204154E+03 -1.453460E+04 -2.804905E-09 -5.584175E-11
       141  11  5.490773E+04  1.373070E+04  1.189153E+04 -3.200125E+03 -7.127121E-10 -1.368126E-10
       141  12  8.223382E+04  2.023735E+04  1.704401E+04 -1.447662E+04 -1.945746E-09 -3.608454E-10
       141  13 -3.037346E+02  2.897692E+01 -5.726131E+02 -1.448093E+04  3.947479E-13 -5.376314E-10
       141  14 -2.179097E+02  4.361208E+01 -1.420076E+03 -3.175405E+03 -5.609464E-10  1.731985E-10
       141  15 -3.041995E+02 -2.389740E+02 -2.803729E+03 -1.448098E+04  6.442611E-10 -5.024235E-10
       141  16 -2.801734E+04 -6.869232E+03 -7.349436E+03 -1.442727E+04  3.312640E-09 -1.771089E-10
       141  17 -5.534077E+04 -1.364370E+04 -1.473190E+04 -3.150687E+03  2.552421E-09  1.165846E-09
       141  18 -8.283599E+04 -2.071580E+04 -2.265195E+04 -1.448533E+04  3.199095E-10 -4.510059E-10
       141  19  2.741058E+04  6.927130E+03  6.204158E+03 -1.453460E+04 -1.523240E+03  5.113583E+02
       141  20  5.490773E+04  1.373071E+04  1.189154E+04 -3.200128E+03 -2.228726E+03  1.581422E+03
       141  21  8.223383E+04  2.023736E+04  1.704403E+04 -1.447663E+04 -2.934377E+03  2.647289E+03
       141  22 -3.037333E+02  2.897749E+01 -5.726106E+02 -1.448093E+04 -1.034331E+03  5.112454E+02
       141  23 -2.179057E+02  4.361558E+01 -1.420066E+03 -3.175407E+03 -1.741657E+03  1.581340E+03
       141  24 -3.041912E+02 -2.389649E+02 -2.803704E+03 -1.448098E+04 -2.449118E+03  2.647234E+03
       141  25 -2.801734E+04 -6.869231E+03 -7.349435E+03 -1.442727E+04 -5.454445E+02  5.111325E+02
       141  26 -5.534077E+04 -1.364370E+04 -1.473189E+04 -3.150688E+03 -1.254632E+03  1.581257E+03
       141  27 -8.283598E+04 -2.071579E+04 -2.265193E+04 -1.448533E+04 -1.963924E+03  2.647180E+03
       142   1  1.235862E+05  3.093817E+04  2.634388E+04 -1.482547E+04  3.533566E+03 -3.278186E+03
       142   2  1.515521E+05  3.799129E+04  3.013229E+04 -3.111589E+03  6.754281E+03 -4.347680E+03
       142   3  1.784127E+05  4.217205E+04  3.111254E+04 -1.400873E+04  9.975442E+03 -5.361980E+03
       142   4 -5.151270E+02  1.096512E+02 -3.706139E+03 -1.448103E+04  3.032885E+03 -3.278166E+03
       142   5  3.933494E+01  3.747140E+02 -6.451844E+03 -3.175290E+03  6.278052E+03 -4.347745E+03
       142   6 -5.163764E+02 -2.237129E+03 -1.202310E+04 -1.448093E+04  9.523525E+03 -5.362126E+03
       142   7 -1.246024E+05 -3.071999E+04 -3.375727E+04 -1.413666E+04  2.532304E+03 -3.278147E+03
       142   8 -1.514524E+05 -3.724354E+04 -4.303763E+04 -3.238974E+03  5.801940E+03 -4.347810E+03
       142   9 -1.794162E+05 -4.664864E+04 -5.516103E+04 -1.495299E+04  9.071738E+03 -5.362270E+03
       142  10  1.235862E+05  3.093815E+04  2.634384E+04 -1.482546E+04 -1.522810E-09 -6.437005E-10
       142  11  1.515520E+05  3.799125E+04  3.013217E+04 -3.111565E+03 -7.530410E-10 -3.048128E-10
       142  12  1.784126E+05  4.217199E+04  3.111230E+04 -1.400869E+04  9.051617E-10 -1.575502E-10
       142  13 -5.151398E+02  1.096372E+02 -3.706176E+03 -1.448103E+04 -6.019945E-14 -7.123789E-10
       142  14  3.928754E+01  3.746831E+02 -6.451953E+03 -3.175268E+03 -5.379459E-10 -7.677071E-11
       142  15 -5.164815E+02 -2.237184E+03 -1.202333E+04 -1.448089E+04  9.656671E-10 -3.750606E-10
       142  16 -1.246024E+05 -3.072000E+04 -3.375730E+04 -1.413666E+04  1.607126E-09 -7.301653E-10
       142  17 -1.514525E+05 -3.724356E+04 -4.303772E+04 -3.238954E+03 -1.498215E-09  1.720869E-10
       142  18 -1.794163E+05 -4.664869E+04 -5.516124E+04 -1.495295E+04 -1.271986E-09 -4.325266E-10
       142  19  1.235862E+05  3.093817E+04  2.634388E+04 -1.482547E+04 -3.533566E+03  3.278186E+03
       142  20  1.515521E+05  3.799129E+04  3.013229E+04 -3.111589E+03 -6.754281E+03  4.347680E+03
       142  21  1.784127E+05  4.217205E+04  3.111254E+04 -1.400873E+04 -9.975442E+03  5.361980E+03
       142  22 -5.151270E+02  1.096512E+02 -3.706139E+03 -1.448103E+04 -3.032885E+03  3.278166E+03
       142  23  3.933494E+01  3.747140E+02 -6.451844E+03 -3.175290E+03 -6.278052E+03  4.347745E+03
       142  24 -5.163764E+02 -2.237129E+03 -1.202310E+04 -1.448093E+04 -9.523525E+03  5.362126E+03
       142  25 -1.246024E+05 -3.071999E+04 -3.375727E+04 -1.413666E+04 -2.532304E+03  3.278147E+03
       142  26 -1.514524E+05 -3.724354E+04 -4.303763E+04 -3.238974E+03 -5.801940E+03  4.347810E+03
       142  27 -1.794162E+05 -4.664864E+04 -5.516103E+04 -1.495299E+04 -9.071738E+03  5.362270E+03
       143   1  2.184456E+05  5.572804E+04  3.798280E+04 -1.711658E+04  1.258469E+04 -6.078655E+03
       143   2  2.498471E+05  6.478239E+04  3.417838E+04 -1.795565E+03  2.549116E+04 -7.136237E+03
       143   3  2.732886E+05  4.828888E+04  1.560984E+04 -9.055166E+03  3.839852E+04 -7.535002E+03
       143   4 -2.055834E+03  9.720227E+02 -1.533031E+04 -1.447699E+04  1.194789E+04 -6.078843E+03
       143   5  1.951492E+03  3.241088E+03 -2.566595E+04 -3.181671E+03  2.515008E+04 -7.136591E+03
       143   6 -2.057356E+03 -2.009496E+04 -5.097558E+04 -1.446779E+04  3.835260E+04 -7.535572E+03
       143   7 -2.225128E+05 -5.378752E+04 -6.864691E+04 -1.183833E+04  1.131133E+04 -6.079036E+03
       143   8 -2.458879E+05 -5.830470E+04 -8.551469E+04 -4.567226E+03  2.480914E+04 -7.136944E+03
       143   9 -2.773340E+05 -8.848424E+04 -1.175664E+05 -1.987800E+04  3.830669E+04 -7.536141E+03
       143  10  2.184454E+05  5.572796E+04  3.798244E+04 -1.711652E+04 -4.510083E-10 -3.676173E-10
       143  11  2.498464E+05  6.478217E+04  3.417707E+04 -1.795419E+03  1.301373E-09 -6.234867E-10
       143  12  2.732870E+05  4.828843E+04  1.560697E+04 -9.054933E+03  1.065693E-10  2.099809E-11
       143  13 -2.055997E+03  9.719447E+02 -1.533065E+04 -1.447693E+04 -1.085260E-09 -5.963932E-10
       143  14  1.950799E+03  3.240863E+03 -2.566724E+04 -3.181526E+03  2.201414E-09 -5.738472E-10
       143  15 -2.058951E+03 -2.009542E+04 -5.097845E+04 -1.446755E+04  1.161966E-10  1.503292E-10
       143  16 -2.225130E+05 -5.378760E+04 -6.864722E+04 -1.183827E+04 -1.682274E-09 -7.540911E-10
       143  17 -2.458886E+05 -5.830492E+04 -8.551594E+04 -4.567083E+03  1.140590E-09  4.218810E-10
       143  18 -2.773356E+05 -8.848470E+04 -1.175693E+05 -1.987777E+04 -2.837235E-10  4.037545E-10
       143  19  2.184456E+05  5.572804E+04  3.798280E+04 -1.711658E+04 -1.258469E+04  6.078655E+03
       143  20  2.498471E+05  6.478239E+04  3.417838E+04 -1.795565E+03 -2.549116E+04  7.136237E+03
       143  21  2.732886E+05  4.828888E+04  1.560984E+04 -9.055166E+03 -3.839852E+04  7.535002E+03
       143  22 -2.055834E+03  9.720227E+02 -1.533031E+04 -1.447699E+04 -1.194789E+04  6.078843E+03
       143  23  1.951492E+03  3.241088E+03 -2.566595E+04 -3.181671E+03 -2.515008E+04  7.136591E+03
       143  24 -2.057356E+03 -2.009496E+04 -5.097558E+04 -1.446779E+04 -3.835260E+04  7.535572E+03
       143  25 -2.225128E+05 -5.378752E+04 -6.864691E+04 -1.183833E+04 -1.131133E+04  6.079036E+03
       143  26 -2.458879E+05 -5.830470E+04 -8.551469E+04 -4.567226E+03 -2.480914E+04  7.136944E+03
       143  27 -2.773340E+05 -8.848424E+04 -1.175664E+05 -1.987800E+04 -3.830669E+04  7.536141E+03
       144   1  3.026573E+05  8.745532E+04  1.415583E+04 -3.675657E+04  5.038439E+04 -9.282929E+03
       144   2  3.614318E+05  1.137139E+05 -1.590286E+04  1.165349E+04  1.003223E+05 -1.021847E+04
       144   3  3.575312E+05 -8.565967E+04 -1.348089E+05  3.783186E+04  1.502559E+05 -3.290642E+03
       144   4 -1.435665E+04  8.801978E+03 -6.231495E+04 -1.445124E+04  4.813167E+04 -9.282774E+03
       144   5  1.731199E+04  2.828491E+04 -9.886357E+04 -3.242479E+03  1.016282E+05 -1.022012E+04
       144   6 -1.435202E+04 -1.785544E+05 -2.267666E+05 -1.426589E+04  1.551178E+05 -3.298159E+03
       144   7 -3.312776E+05 -6.985682E+04 -1.387926E+05  7.842664E+03  4.588009E+04 -9.282780E+03
       144   8 -3.266991E+05 -5.715188E+04 -1.818326E+05 -1.813019E+04  1.029334E+05 -1.022183E+04
       144   9 -3.861038E+05 -2.714494E+05 -3.187330E+05 -6.633243E+04  1.599768E+05 -3.306498E+03
       144  10  3.026545E+05  8.745454E+04  1.415090E+04 -3.675619E+04  9.285179E-10 -6.877950E-10
       144  11  3.614210E+05  1.137111E+05 -1.592196E+04  1.165432E+04  1.471030E-09 -3.364354E-09
       144  12  3.575069E+05 -8.566574E+04 -1.348513E+05  3.783225E+04  4.626671E-10 -1.199062E-09
       144  13 -1.435916E+04  8.801263E+03 -6.231946E+04 -1.445088E+04 -1.079963E-09 -2.627107E-09
       144  14  1.730087E+04  2.828203E+04 -9.888317E+04 -3.241642E+03  1.777854E-09  1.165209E-09
       144  15 -1.437787E+04 -1.785609E+05 -2.268118E+05 -1.426547E+04 -1.695655E-10 -3.096573E-10
       144  16 -3.312799E+05 -6.985748E+04 -1.387967E+05  7.843007E+03 -1.507119E-09 -2.162011E-10
       144  17 -3.267105E+05 -5.715484E+04 -1.818527E+05 -1.812935E+04  2.639823E-10  8.475732E-10
       144  18 -3.861313E+05 -2.714563E+05 -3.187812E+05 -6.633200E+04  2.172048E-09 -1.110042E-09
       144  19  3.026573E+05  8.745532E+04  1.415583E+04 -3.675657E+04 -5.038439E+04  9.282929E+03
       144  20  3.614318E+05  1.137139E+05 -1.590286E+04  1.165349E+04 -1.003223E+05  1.021847E+04
       144  21  3.575312E+05 -8.565967E+04 -1.348089E+05  3.783186E+04 -1.502559E+05  3.290642E+03
       144  22 -1.435665E+04  8.801978E+03 -6.231495E+04 -1.445124E+04 -4.813167E+04  9.282774E+03
       144  23  1.731199E+04  2.828491E+04 -9.886357E+04 -3.242479E+03 -1.016282E+05  1.022012E+04
       144  24 -1.435202E+04 -1.785544E+05 -2.267666E+05 -1.426589E+04 -1.551178E+05  3.298159E+03
       144  25 -3.312776E+05 -6.985682E+04 -1.387926E+05  7.842664E+03 -4.588009E+04  9.282780E+03
       144  26 -3.266991E+05 -5.715188E+04 -1.818326E+05 -1.813019E+04 -1.029334E+05  1.022183E+04
       144  27 -3.861038E+05 -2.714494E+05 -3.187330E+05 -6.633243E+04 -1.599768E+05  3.306498E+03
       145   1  3.470179E+05  9.062567E+05  3.531604E+05 -1.546457E+05  1.079090E+04  4.738518E+04
       145   2  2.364908E+05  6.256065E+05  2.525070E+05 -3.544883E+04  2.951096E+04  2.466660E+04
       145   3  1.728970E+05  3.599072E+05  1.784097E+05 -1.404979E+05  1.938380E+04  1.899717E+03
       145   4  3.534012E+04 -3.433586E+05  4.409538E+04 -1.431722E+05  1.081636E+04  3.223317E+04
       145   5 -5.534422E+03 -3.496338E+05  1.752032E+04 -3.107033E+04  2.951823E+04  2.270452E+04
       145   6 -1.717710E+03 -3.432837E+05  8.381274E+03 -1.432332E+05  1.935343E+04  1.311747E+04
       145   7 -2.764539E+05 -1.591555E+06 -2.650848E+05 -1.317212E+05  1.084130E+04  1.711154E+04
       145   8 -2.476290E+05 -1.324004E+06 -2.175343E+05 -2.669825E+04  2.952548E+04  2.074548E+04
       145   9 -1.763685E+05 -1.046022E+06 -1.616822E+05 -1.459650E+05  1.932294E+04  2.432256E+04
       145  10  3.470172E+05  9.062543E+05  3.531559E+05 -1.546461E+05 -8.600587E-10 -6.013426E-10
       145  11  2.364897E+05  6.256056E+05  2.525042E+05 -3.544941E+04 -2.376567E-09  6.000390E-10
       145  12  1.728966E+05  3.599071E+05  1.784090E+05 -1.404980E+05  6.362059E-10 -1.739192E-09
       145  13  3.533971E+04 -3.433597E+05  4.409321E+04 -1.431725E+05 -2.970277E-09 -1.393156E-09
       145  14 -5.535496E+03 -3.496346E+05  1.751772E+04 -3.107087E+04 -2.723574E-09  2.155583E-09
       145  15 -1.718158E+03 -3.432840E+05  8.380247E+03 -1.432334E+05 -5.132196E-10 -7.316781E-09
       145  16 -2.764541E+05 -1.591556E+06 -2.650855E+05 -1.317214E+05 -1.746964E-09  5.362888E-10
       145  17 -2.476301E+05 -1.324005E+06 -2.175367E+05 -2.669875E+04 -1.142844E-09  2.656054E-09
       145  18 -1.763691E+05 -1.046023E+06 -1.616840E+05 -1.459654E+05 -6.079859E-10 -3.777634E-10
       145  19  3.470179E+05  9.062567E+05  3.531604E+05 -1.546457E+05 -1.079090E+04 -4.738518E+04
       145  20  2.364908E+05  6.256065E+05  2.525070E+05 -3.544883E+04 -2.951096E+04 -2.466660E+04
       145  21  1.728970E+05  3.599072E+05  1.784097E+05 -1.404979E+05 -1.938380E+04 -1.899717E+03
       145  22  3.534012E+04 -3.433586E+05  4.409538E+04 -1.431722E+05 -1.081636E+04 -3.223317E+04
       145  23 -5.534422E+03 -3.496338E+05  1.752032E+04 -3.107033E+04 -2.951823E+04 -2.270452E+04
       145  24 -1.717710E+03 -3.432837E+05  8.381274E+03 -1.432332E+05 -1.935343E+04 -1.311747E+04
       145  25 -2.764539E+05 -1.591555E+06 -2.650848E+05 -1.317212E+05 -1.084130E+04 -1.711154E+04
       145  26 -2.476290E+05 -1.324004E+06 -2.175343E+05 -2.669825E+04 -2.952548E+04 -2.074548E+04
       145  27 -1.763685E+05 -1.046022E+06 -1.616822E+05 -1.459650E+05 -1.932294E+04 -2.432256E+04
       146   1  7.657564E+04 -5.828145E+04  7.435042E+04 -1.441905E+05  8.602496E+03  8.223764E+03
       146   2  4.355363E+03 -3.306335E+05 -3.070329E+02 -3.146025E+04  3.924874E+02  1.015862E+04
       146   3 -7.076186E+04 -6.054805E+05 -7.729851E+04 -1.443199E+05 -7.869801E+03  1.209216E+04
       146   4  5.005667E+03 -3.465390E+05  4.831831E+03 -1.434909E+05  8.591481E+03  1.195041E+04
       146   5  7.176378E+02 -3.452578E+05 -3.839985E+03 -3.071251E+04  3.814507E+02  1.390986E+04
       146   6 -6.464969E+03 -3.465408E+05 -1.485490E+04 -1.435245E+05 -7.881063E+03  1.586884E+04
       146   7 -6.657036E+04 -6.347206E+05 -6.469265E+04 -1.427915E+05  8.580471E+03  1.567534E+04
       146   8 -2.920093E+03 -3.598818E+05 -7.372899E+03 -2.996479E+04  3.704230E+02  1.766101E+04
       146   9  5.782703E+04 -8.753964E+04  4.758397E+04 -1.427287E+05 -7.892312E+03  1.964709E+04
       146  10  7.657554E+04 -5.828154E+04  7.435015E+04 -1.441906E+05  4.147341E-10 -3.462703E-09
       146  11  4.355335E+03 -3.306336E+05 -3.072272E+02 -3.146026E+04 -1.306993E-09 -2.342903E-10
       146  12 -7.076196E+04 -6.054807E+05 -7.729891E+04 -1.443199E+05  3.809823E-10 -2.362478E-09
       146  13  5.005549E+03 -3.465392E+05  4.831424E+03 -1.434909E+05  1.170582E-09 -3.007898E-09
       146  14  7.175857E+02 -3.452580E+05 -3.840349E+03 -3.071252E+04 -9.652688E-11  3.141253E-09
       146  15 -6.465103E+03 -3.465411E+05 -1.485549E+04 -1.435244E+05  3.039479E-10 -7.949183E-09
       146  16 -6.657051E+04 -6.347208E+05 -6.469325E+04 -1.427916E+05  2.370914E-09  3.486563E-09
       146  17 -2.920177E+03 -3.598821E+05 -7.373486E+03 -2.996480E+04  2.603810E-09  4.969839E-09
       146  18  5.782686E+04 -8.754007E+04  4.758313E+04 -1.427286E+05  1.421031E-09  1.111975E-10
       146  19  7.657564E+04 -5.828145E+04  7.435042E+04 -1.441905E+05 -8.602496E+03 -8.223764E+03
       146  20  4.355363E+03 -3.306335E+05 -3.070329E+02 -3.146025E+04 -3.924874E+02 -1.015862E+04
       146  21 -7.076186E+04 -6.054805E+05 -7.729851E+04 -1.443199E+05  7.869801E+03 -1.209216E+04
       146  22  5.005667E+03 -3.465390E+05  4.831831E+03 -1.434909E+05 -8.591481E+03 -1.195041E+04
       146  23  7.176378E+02 -3.452578E+05 -3.839985E+03 -3.071251E+04 -3.814507E+02 -1.390986E+04
       146  24 -6.464969E+03 -3.465408E+05 -1.485490E+04 -1.435245E+05  7.881063E+03 -1.586884E+04
       146  25 -6.657036E+04 -6.347206E+05 -6.469265E+04 -1.427915E+05 -8.580471E+03 -1.567534E+04
       146  26 -2.920093E+03 -3.598818E+05 -7.372899E+03 -2.996479E+04 -3.704230E+02 -1.766101E+04
       146  27  5.782703E+04 -8.753964E+04  4.758397E+04 -1.427287E+05  7.892312E+03 -1.964709E+04
       147   1 -1.631510E+05 -1.024399E+06 -1.824784E+05 -1.339871E+05 -1.854518E+04  7.677994E+03
       147   2 -2.250737E+05 -1.285399E+06 -2.616857E+05 -3.470400E+04 -2.878868E+04  3.875159E+04
       147   3 -3.666047E+05 -1.570212E+06 -3.810679E+05 -1.598602E+05 -1.070157E+04  6.986969E+04
       147   4  4.322832E+03 -3.508799E+05 -1.945030E+04 -1.432074E+05 -1.857575E+04  1.877145E+04
       147   5  9.740579E+03 -3.401243E+05 -3.366570E+04 -3.105205E+04 -2.878166E+04  3.697250E+04
       147   6 -6.213974E+04 -3.509705E+05 -7.906220E+04 -1.433209E+05 -1.067467E+04  5.523226E+04
       147   7  1.717637E+05  3.230551E+05  1.435457E+05 -1.524374E+05 -1.860663E+04  2.987692E+04
       147   8  2.444896E+05  6.059691E+05  1.942904E+05 -2.739405E+04 -2.877467E+04  3.519067E+04
       147   9  2.422151E+05  8.696253E+05  2.228337E+05 -1.267483E+05 -1.064858E+04  4.056596E+04
       147  10 -1.631514E+05 -1.024400E+06 -1.824792E+05 -1.339870E+05 -2.126969E-09 -1.942326E-09
       147  11 -2.250750E+05 -1.285401E+06 -2.616901E+05 -3.470310E+04  1.029732E-09 -6.522688E-10
       147  12 -3.666061E+05 -1.570218E+06 -3.810773E+05 -1.598596E+05 -4.886262E-12 -1.447762E-09
       147  13  4.322367E+03 -3.508804E+05 -1.945161E+04 -1.432071E+05  1.760051E-09 -2.835918E-09
       147  14  9.739323E+03 -3.401260E+05 -3.366982E+04 -3.105119E+04  6.118292E-10  2.139294E-09
       147  15 -6.214068E+04 -3.509738E+05 -7.906815E+04 -1.433204E+05  1.914511E-09 -3.953847E-09
       147  16  1.717631E+05  3.230540E+05  1.435433E+05 -1.524370E+05  3.802556E-09  1.950944E-09
       147  17  2.444884E+05  6.059675E+05  1.942866E+05 -2.739324E+04  2.266687E-10  4.038646E-09
       147  18  2.422145E+05  8.696235E+05  2.228304E+05 -1.267479E+05 -5.768293E-10  2.816186E-10
       147  19 -1.631510E+05 -1.024399E+06 -1.824784E+05 -1.339871E+05  1.854518E+04 -7.677994E+03
       147  20 -2.250737E+05 -1.285399E+06 -2.616857E+05 -3.470400E+04  2.878868E+04 -3.875159E+04
       147  21 -3.666047E+05 -1.570212E+06 -3.810679E+05 -1.598602E+05  1.070157E+04 -6.986969E+04
       147  22  4.322832E+03 -3.508799E+05 -1.945030E+04 -1.432074E+05  1.857575E+04 -1.877145E+04
       147  23  9.740579E+03 -3.401243E+05 -3.366570E+04 -3.105205E+04  2.878166E+04 -3.697250E+04
       147  24 -6.213974E+04 -3.509705E+05 -7.906220E+04 -1.433209E+05  1.067467E+04 -5.523226E+04
       147  25  1.717637E+05  3.230551E+05  1.435457E+05 -1.524374E+05  1.860663E+04 -2.987692E+04
       147  26  2.444896E+05  6.059691E+05  1.942904E+05 -2.739405E+04  2.877467E+04 -3.519067E+04
       147  27  2.422151E+05  8.696253E+05  2.228337E+05 -1.267483E+05  1.064858E+04 -4.056596E+04
       148   1 -1.365110E+06 -3.876589E+05 -2.181052E+05 -4.862070E+05 -9.629835E+04 -3.322108E+04
       148   2 -1.330071E+06 -2.376547E+05 -1.257091E+05 -4.927440E+05 -6.269022E+04 -1.474810E+04
       148   3 -1.336622E+06 -2.362107E+05 -9.672094E+04 -4.800799E+05 -2.679957E+04 -2.339014E+03
       148   4 -1.117424E+06 -2.656656E+05 -1.448706E+05 -3.895885E+05 -9.285369E+04 -3.193108E+04
       148   5 -1.089428E+06 -1.390952E+05 -6.013461E+04 -4.189374E+05 -6.181811E+04 -1.442149E+04
       148   6 -1.102493E+06 -1.605443E+05 -3.674548E+04 -4.290913E+05 -2.850109E+04 -2.977821E+03
       148   7 -8.696753E+05 -1.436546E+05 -7.164171E+04 -2.929306E+05 -8.940751E+04 -3.064011E+04
       148   8 -8.487295E+05 -4.052902E+04  5.434769E+03 -3.451038E+05 -6.094561E+04 -1.409470E+04
       148   9 -8.683113E+05 -8.487779E+04  2.322569E+04 -3.780869E+05 -3.020332E+04 -3.616808E+03
       148  10 -1.365121E+06 -3.876626E+05 -2.181248E+05 -4.862096E+05  4.775086E-10 -3.926503E-10
       148  11 -1.330075E+06 -2.376560E+05 -1.257170E+05 -4.927448E+05  1.125996E-09  1.204457E-09
       148  12 -1.336622E+06 -2.362109E+05 -9.672230E+04 -4.800800E+05 -1.172140E-09  9.433476E-10
       148  13 -1.117433E+06 -2.656691E+05 -1.448888E+05 -3.895909E+05 -5.632822E-10  1.090366E-09
       148  14 -1.089433E+06 -1.390964E+05 -6.014219E+04 -4.189382E+05 -2.969920E-09  9.739017E-10
       148  15 -1.102494E+06 -1.605445E+05 -3.674702E+04 -4.290914E+05  2.527642E-09  3.125675E-10
       148  16 -8.696841E+05 -1.436577E+05 -7.165852E+04 -2.929328E+05 -2.180477E-09  3.259994E-10
       148  17 -8.487336E+05 -4.053023E+04  5.427404E+03 -3.451045E+05 -8.556958E-10  3.798352E-11
       148  18 -8.683123E+05 -8.487805E+04  2.322395E+04 -3.780870E+05  1.967711E-09  7.788330E-10
       148  19 -1.365110E+06 -3.876589E+05 -2.181052E+05 -4.862070E+05  9.629835E+04  3.322108E+04
       148  20 -1.330071E+06 -2.376547E+05 -1.257091E+05 -4.927440E+05  6.269022E+04  1.474810E+04
       148  21 -1.336622E+06 -2.362107E+05 -9.672094E+04 -4.800799E+05  2.679957E+04  2.339014E+03
       148  22 -1.117424E+06 -2.656656E+05 -1.448706E+05 -3.895885E+05  9.285369E+04  3.193108E+04
       148  23 -1.089428E+06 -1.390952E+05 -6.013461E+04 -4.189374E+05  6.181811E+04  1.442149E+04
       148  24 -1.102493E+06 -1.605443E+05 -3.674548E+04 -4.290913E+05  2.850109E+04  2.977821E+03
       148  25 -8.696753E+05 -1.436546E+05 -7.164171E+04 -2.929306E+05  8.940751E+04  3.064011E+04
       148  26 -8.487295E+05 -4.052902E+04  5.434769E+03 -3.451038E+05  6.094561E+04  1.409470E+04
       148  27 -8.683113E+05 -8.487779E+04  2.322569E+04 -3.780869E+05  3.020332E+04  3.616808E+03
       149   1 -1.283466E+06 -2.493771E+05 -8.022376E+04 -4.743281E+05 -2.261767E+04 -2.395017E+03
       149   2 -1.265180E+06 -2.176204E+05 -5.822538E+04 -4.619972E+05 -1.479900E+04  7.320958E+01
       149   3 -1.239085E+06 -2.164314E+05 -4.625279E+04 -4.625632E+05 -6.767957E+03  1.975792E+03
       149   4 -1.097548E+06 -1.762930E+05 -2.998657E+04 -4.204923E+05 -2.267640E+04 -2.417334E+03
       149   5 -1.100605E+06 -1.548950E+05 -1.421206E+04 -4.163466E+05 -1.509664E+04 -3.865858E+01
       149   6 -1.095806E+06 -1.640146E+05 -8.271342E+03 -4.250983E+05 -7.304797E+03  1.774273E+03
       149   7 -9.115968E+05 -1.032062E+05  2.024739E+04 -3.666418E+05 -2.273514E+04 -2.439658E+03
       149   8 -9.360042E+05 -9.216791E+04  2.979887E+04 -3.706851E+05 -1.539436E+04 -1.505601E+02
       149   9 -9.525058E+05 -1.115968E+05  2.970844E+04 -3.876256E+05 -7.841775E+03  1.572706E+03
       149  10 -1.283467E+06 -2.493772E+05 -8.022473E+04 -4.743281E+05  5.921381E-11  4.442494E-10
       149  11 -1.265180E+06 -2.176204E+05 -5.822579E+04 -4.619972E+05  1.101617E-09  6.850843E-10
       149  12 -1.239085E+06 -2.164314E+05 -4.625289E+04 -4.625632E+05  1.508632E-10  1.702798E-09
       149  13 -1.097549E+06 -1.762931E+05 -2.998755E+04 -4.204923E+05  9.903818E-10  4.479023E-10
       149  14 -1.100605E+06 -1.548951E+05 -1.421249E+04 -4.163466E+05 -2.090763E-10  9.476421E-11
       149  15 -1.095806E+06 -1.640146E+05 -8.271448E+03 -4.250983E+05  3.907998E-09  1.557927E-09
       149  16 -9.115974E+05 -1.032063E+05  2.024641E+04 -3.666418E+05  1.119485E-09  2.722871E-11
       149  17 -9.360045E+05 -9.216798E+04  2.979843E+04 -3.706851E+05 -7.850551E-10  1.587173E-10
       149  18 -9.525059E+05 -1.115968E+05  2.970832E+04 -3.876256E+05  3.573005E-09  1.588103E-09
       149  19 -1.283466E+06 -2.493771E+05 -8.022376E+04 -4.743281E+05  2.261767E+04  2.395017E+03
       149  20 -1.265180E+06 -2.176204E+05 -5.822538E+04 -4.619972E+05  1.479900E+04 -7.320958E+01
       149  21 -1.239085E+06 -2.164314E+05 -4.625279E+04 -4.625632E+05  6.767957E+03 -1.975792E+03
       149  22 -1.097548E+06 -1.762930E+05 -2.998657E+04 -4.204923E+05  2.267640E+04  2.417334E+03
       149  23 -1.100605E+06 -1.548950E+05 -1.421206E+04 -4.163466E+05  1.509664E+04  3.865858E+01
       149  24 -1.095806E+06 -1.640146E+05 -8.271342E+03 -4.250983E+05  7.304797E+03 -1.774273E+03
       149  25 -9.115968E+05 -1.032062E+05  2.024739E+04 -3.666418E+05  2.273514E+04  2.439658E+03
       149  26 -9.360042E+05 -9.216791E+04  2.979887E+04 -3.706851E+05  1.539436E+04  1.505601E+02
       149  27 -9.525058E+05 -1.115968E+05  2.970844E+04 -3.876256E+05  7.841775E+03 -1.572706E+03
       150   1 -1.198250E+06 -2.050365E+05 -3.399480E+04 -4.526077E+05 -5.472430E+03  1.717324E+03
       150   2 -1.181660E+06 -1.866386E+05 -2.459145E+04 -4.376555E+05 -3.370513E+03  1.430745E+03
       150   3 -1.150742E+06 -1.853515E+05 -1.699317E+04 -4.397330E+05 -1.246271E+03  1.084169E+03
       150   4 -1.095053E+06 -1.659168E+05 -6.503969E+03 -4.241828E+05 -5.861938E+03  1.571130E+03
       150   5 -1.102118E+06 -1.566548E+05 -3.379977E+03 -4.159336E+05 -3.785298E+03  1.275115E+03
       150   6 -1.094851E+06 -1.644982E+05 -2.040644E+03 -4.247140E+05 -1.686412E+03  9.190800E+02
       150   7 -9.918458E+05 -1.267965E+05  2.098593E+04 -3.957537E+05 -6.251516E+03  1.424908E+03
       150   8 -1.022571E+06 -1.266707E+05  1.783091E+04 -3.942091E+05 -4.200142E+03  1.119462E+03
       150   9 -1.038957E+06 -1.436448E+05  1.291157E+04 -4.096938E+05 -2.126596E+03  7.539748E+02
       150  10 -1.198250E+06 -2.050366E+05 -3.399486E+04 -4.526077E+05  3.178137E-09  2.018295E-09
       150  11 -1.181660E+06 -1.866387E+05 -2.459147E+04 -4.376555E+05  1.277002E-09  7.496776E-10
       150  12 -1.150742E+06 -1.853515E+05 -1.699317E+04 -4.397330E+05  3.802179E-10 -4.227914E-10
       150  13 -1.095053E+06 -1.659169E+05 -6.504039E+03 -4.241828E+05  3.627432E-09  1.759940E-09
       150  14 -1.102118E+06 -1.566549E+05 -3.380007E+03 -4.159336E+05  5.941135E-10  6.139128E-10
       150  15 -1.094851E+06 -1.644982E+05 -2.040651E+03 -4.247140E+05  2.201771E-09 -2.593481E-10
       150  16 -9.918458E+05 -1.267965E+05  2.098585E+04 -3.957537E+05  1.797662E-09  1.413723E-09
       150  17 -1.022571E+06 -1.266707E+05  1.783088E+04 -3.942091E+05  1.692768E-10  6.386058E-10
       150  18 -1.038957E+06 -1.436448E+05  1.291156E+04 -4.096938E+05  1.742579E-09  1.198105E-10
       150  19 -1.198250E+06 -2.050365E+05 -3.399480E+04 -4.526077E+05  5.472430E+03 -1.717324E+03
       150  20 -1.181660E+06 -1.866386E+05 -2.459145E+04 -4.376555E+05  3.370513E+03 -1.430745E+03
       150  21 -1.150742E+06 -1.853515E+05 -1.699317E+04 -4.397330E+05  1.246271E+03 -1.084169E+03
       150  22 -1.095053E+06 -1.659168E+05 -6.503969E+03 -4.241828E+05  5.861938E+03 -1.571130E+03
       150  23 -1.102118E+06 -1.566548E+05 -3.379977E+03 -4.159336E+05  3.785298E+03 -1.275115E+03
       150  24 -1.094851E+06 -1.644982E+05 -2.040644E+03 -4.247140E+05  1.686412E+03 -9.190800E+02
       150  25 -9.918458E+05 -1.267965E+05  2.098593E+04 -3.957537E+05  6.251516E+03 -1.424908E+03
       150  26 -1.022571E+06 -1.266707E+05  1.783091E+04 -3.942091E+05  4.200142E+03 -1.119462E+03
       150  27 -1.038957E+06 -1.436448E+05  1.291157E+04 -4.096938E+05  2.126596E+03 -7.539748E+02
       151   1 -1.110776E+06 -1.707783E+05 -5.861922E+03 -4.290401E+05 -7.315313E+02  5.992962E+02
       151   2 -1.094311E+06 -1.538174E+05  9.312643E+02 -4.136809E+05  2.517722E+02 -1.762756E+02
       151   3 -1.062635E+06 -1.525400E+05  7.196291E+03 -4.159097E+05  1.236221E+03 -9.547379E+02
       151   4 -1.094732E+06 -1.647276E+05 -1.671053E+03 -4.246332E+05 -1.158611E+03  4.391210E+02
       151   5 -1.102329E+06 -1.568297E+05 -1.205009E+03 -4.158601E+05 -1.765473E+02 -3.369226E+02
       151   6 -1.094716E+06 -1.646152E+05 -1.266243E+03 -4.246754E+05  8.066309E+02 -1.115863E+03
       151   7 -1.078687E+06 -1.586768E+05  2.519813E+03 -4.202263E+05 -1.585705E+03  2.789406E+02
       151   8 -1.110347E+06 -1.598419E+05 -3.341283E+03 -4.180393E+05 -6.048600E+02 -4.975671E+02
       151   9 -1.126796E+06 -1.766902E+05 -9.728802E+03 -4.334407E+05  3.770683E+02 -1.276977E+03
       151  10 -1.110776E+06 -1.707783E+05 -5.861924E+03 -4.290401E+05 -1.157095E-09 -8.516354E-10
       151  11 -1.094311E+06 -1.538174E+05  9.312641E+02 -4.136809E+05  7.765517E-10 -6.925158E-10
       151  12 -1.062635E+06 -1.525400E+05  7.196286E+03 -4.159097E+05 -3.202126E-09 -4.653060E-10
       151  13 -1.094732E+06 -1.647276E+05 -1.671056E+03 -4.246332E+05  2.541965E-10 -6.216071E-10
       151  14 -1.102329E+06 -1.568297E+05 -1.205009E+03 -4.158601E+05 -1.693712E-09 -9.082037E-10
       151  15 -1.094716E+06 -1.646152E+05 -1.266246E+03 -4.246754E+05 -1.650241E-09 -3.532126E-10
       151  16 -1.078687E+06 -1.586768E+05  2.519808E+03 -4.202263E+05  2.186311E-10 -6.267215E-10
       151  17 -1.110347E+06 -1.598419E+05 -3.341284E+03 -4.180393E+05 -3.971268E-09 -9.069332E-10
       151  18 -1.126796E+06 -1.766902E+05 -9.728805E+03 -4.334407E+05 -6.578723E-10 -1.674093E-10
       151  19 -1.110776E+06 -1.707783E+05 -5.861922E+03 -4.290401E+05  7.315313E+02 -5.992962E+02
       151  20 -1.094311E+06 -1.538174E+05  9.312643E+02 -4.136809E+05 -2.517722E+02  1.762756E+02
       151  21 -1.062635E+06 -1.525400E+05  7.196291E+03 -4.159097E+05 -1.236221E+03  9.547379E+02
       151  22 -1.094732E+06 -1.647276E+05 -1.671053E+03 -4.246332E+05  1.158611E+03 -4.391210E+02
       151  23 -1.102329E+06 -1.568297E+05 -1.205009E+03 -4.158601E+05  1.765473E+02  3.369226E+02
       151  24 -1.094716E+06 -1.646152E+05 -1.266243E+03 -4.246754E+05 -8.066309E+02  1.115863E+03
       151  25 -1.078687E+06 -1.586768E+05  2.519813E+03 -4.202263E+05  1.585705E+03 -2.789406E+02
       151  26 -1.110347E+06 -1.598419E+05 -3.341283E+03 -4.180393E+05  6.048600E+02  4.975671E+02
       151  27 -1.126796E+06 -1.766902E+05 -9.728802E+03 -4.334407E+05 -3.770683E+02  1.276977E+03
       152   1 -1.023023E+06 -1.375833E+05  1.777010E+04 -4.051767E+05  1.679957E+03 -1.458481E+03
       152   2 -1.006786E+06 -1.209407E+05  2.325457E+04 -3.899396E+05  3.145354E+03 -2.047812E+03
       152   3 -9.757223E+05 -1.200789E+05  2.776935E+04 -3.919629E+05  4.603797E+03 -2.617695E+03
       152   4 -1.094788E+06 -1.645285E+05 -1.436018E+03 -4.246440E+05  1.250050E+03 -1.619747E+03
       152   5 -1.102230E+06 -1.568482E+05 -2.182715E+03 -4.159347E+05  2.723537E+03 -2.206106E+03
       152   6 -1.094848E+06 -1.649505E+05 -3.905543E+03 -4.244862E+05  4.190027E+03 -2.773029E+03
       152   7 -1.166548E+06 -1.914735E+05 -2.064265E+04 -4.441093E+05  8.201959E+02 -1.780994E+03
       152   8 -1.197667E+06 -1.927554E+05 -2.762094E+04 -4.419264E+05  2.301789E+03 -2.364373E+03
       152   9 -1.213962E+06 -2.098216E+05 -3.558193E+04 -4.570041E+05  3.776340E+03 -2.928332E+03
       152  10 -1.023023E+06 -1.375833E+05  1.777009E+04 -4.051767E+05 -6.031438E-10 -1.399618E-10
       152  11 -1.006786E+06 -1.209408E+05  2.325454E+04 -3.899396E+05 -1.158712E-09 -5.256417E-10
       152  12 -9.757223E+05 -1.200789E+05  2.776929E+04 -3.919629E+05 -5.893246E-10 -6.044472E-10
       152  13 -1.094788E+06 -1.645285E+05 -1.436026E+03 -4.246440E+05 -4.624303E-10 -7.707026E-11
       152  14 -1.102231E+06 -1.568482E+05 -2.182738E+03 -4.159347E+05 -1.911751E-09 -2.163993E-10
       152  15 -1.094849E+06 -1.649505E+05 -3.905591E+03 -4.244862E+05 -9.254069E-10 -2.437458E-10
       152  16 -1.166548E+06 -1.914735E+05 -2.064266E+04 -4.441093E+05 -6.329215E-10  8.208336E-11
       152  17 -1.197667E+06 -1.927554E+05 -2.762096E+04 -4.419263E+05 -1.413359E-09 -6.504365E-11
       152  18 -1.213962E+06 -2.098216E+05 -3.558197E+04 -4.570041E+05  1.513599E-09  2.295419E-10
       152  19 -1.023023E+06 -1.375833E+05  1.777010E+04 -4.051767E+05 -1.679957E+03  1.458481E+03
       152  20 -1.006786E+06 -1.209407E+05  2.325457E+04 -3.899396E+05 -3.145354E+03  2.047812E+03
       152  21 -9.757223E+05 -1.200789E+05  2.776935E+04 -3.919629E+05 -4.603797E+03  2.617695E+03
       152  22 -1.094788E+06 -1.645285E+05 -1.436018E+03 -4.246440E+05 -1.250050E+03  1.619747E+03
       152  23 -1.102230E+06 -1.568482E+05 -2.182715E+03 -4.159347E+05 -2.723537E+03  2.206106E+03
       152  24 -1.094848E+06 -1.649505E+05 -3.905543E+03 -4.244862E+05 -4.190027E+03  2.773029E+03
       152  25 -1.166548E+06 -1.914735E+05 -2.064265E+04 -4.441093E+05 -8.201959E+02  1.780994E+03
       152  26 -1.197667E+06 -1.927554E+05 -2.762094E+04 -4.419264E+05 -2.301789E+03  2.364373E+03
       152  27 -1.213962E+06 -2.098216E+05 -3.558193E+04 -4.570041E+05 -3.776340E+03  2.928332E+03
       153   1 -9.372259E+05 -1.053139E+05  3.705928E+04 -3.821452E+05  5.571759E+03 -2.914118E+03
       153   2 -9.213060E+05 -8.839476E+04  3.923452E+04 -3.668893E+05  1.040834E+04 -2.197853E+03
       153   3 -8.932062E+05 -9.103017E+04  3.674075E+04 -3.671640E+05  1.521226E+04 -1.392995E+03
       153   4 -1.095229E+06 -1.642818E+05 -5.044445E+03 -4.246698E+05  5.141391E+03 -3.075738E+03
       153   5 -1.101587E+06 -1.564083E+05 -8.846220E+03 -4.161891E+05  1.001441E+04 -2.345906E+03
       153   6 -1.095773E+06 -1.680976E+05 -1.734692E+04 -4.232391E+05  1.485460E+04 -1.527540E+03
       153   7 -1.253206E+06 -2.232479E+05 -4.715003E+04 -4.671844E+05  4.711146E+03 -3.237314E+03
       153   8 -1.281835E+06 -2.244195E+05 -5.692960E+04 -4.654758E+05  9.620603E+03 -2.493911E+03
       153   9 -1.298299E+06 -2.451622E+05 -7.143813E+04 -4.792975E+05  1.449707E+04 -1.662036E+03
       153  10 -9.372260E+05 -1.053140E+05  3.705920E+04 -3.821451E+05  3.089113E-11 -3.080735E-10
       153  11 -9.213061E+05 -8.839479E+04  3.923431E+04 -3.668893E+05 -1.254931E-09  5.798260E-10
       153  12 -8.932064E+05 -9.103023E+04  3.674031E+04 -3.671640E+05  8.173834E-10 -7.597434E-10
       153  13 -1.095229E+06 -1.642818E+05 -5.044513E+03 -4.246698E+05  1.233462E-09 -9.065704E-11
       153  14 -1.101587E+06 -1.564083E+05 -8.846419E+03 -4.161891E+05 -2.341685E-10 -8.507963E-11
       153  15 -1.095773E+06 -1.680976E+05 -1.734734E+04 -4.232390E+05 -7.258437E-10 -7.017806E-10
       153  16 -1.253206E+06 -2.232479E+05 -4.715009E+04 -4.671844E+05 -3.210588E-10 -6.113568E-11
       153  17 -1.281835E+06 -2.244196E+05 -5.692979E+04 -4.654758E+05 -2.455735E-10 -6.897008E-10
       153  18 -1.298300E+06 -2.451623E+05 -7.143853E+04 -4.792975E+05 -1.218933E-09 -3.016426E-11
       153  19 -9.372259E+05 -1.053139E+05  3.705928E+04 -3.821452E+05 -5.571759E+03  2.914118E+03
       153  20 -9.213060E+05 -8.839476E+04  3.923452E+04 -3.668893E+05 -1.040834E+04  2.197853E+03
       153  21 -8.932062E+05 -9.103017E+04  3.674075E+04 -3.671640E+05 -1.521226E+04  1.392995E+03
       153  22 -1.095229E+06 -1.642818E+05 -5.044445E+03 -4.246698E+05 -5.141391E+03  3.075738E+03
       153  23 -1.101587E+06 -1.564083E+05 -8.846220E+03 -4.161891E+05 -1.001441E+04  2.345906E+03
       153  24 -1.095773E+06 -1.680976E+05 -1.734692E+04 -4.232391E+05 -1.485460E+04  1.527540E+03
       153  25 -1.253206E+06 -2.232479E+05 -4.715003E+04 -4.671844E+05 -4.711146E+03  3.237314E+03
       153  26 -1.281835E+06 -2.244195E+05 -5.692960E+04 -4.654758E+05 -9.620603E+03  2.493911E+03
       153  27 -1.298299E+06 -2.451622E+05 -7.143813E+04 -4.792975E+05 -1.449707E+04  1.662036E+03
       154   1 -8.551235E+05 -7.581364E+04  4.181353E+04 -3.638568E+05  1.884435E+04 -7.595653E+02
       154   2 -8.383381E+05 -5.176380E+04  3.137673E+04 -3.442250E+05  3.880286E+04  5.709882E+03
       154   3 -8.263196E+05 -8.372579E+04 -5.217305E+03 -3.295669E+05  5.848305E+04  1.292340E+04
       154   4 -1.097698E+06 -1.630972E+05 -2.213275E+04 -4.258251E+05  1.829584E+04 -9.657605E+02
       154   5 -1.097626E+06 -1.515363E+05 -3.813795E+04 -4.171445E+05  3.856322E+04  5.619351E+03
       154   6 -1.102391E+06 -1.960612E+05 -8.055434E+04 -4.134374E+05  5.855162E+04  1.294796E+04
       154   7 -1.340217E+06 -2.503787E+05 -8.608421E+04 -4.877722E+05  1.774756E+04 -1.171877E+03
       154   8 -1.356850E+06 -2.513042E+05 -1.076587E+05 -4.900364E+05  3.832368E+04  5.528862E+03
       154   9 -1.378388E+06 -3.083886E+05 -1.558983E+05 -4.972729E+05  5.862015E+04  1.297252E+04
       154  10 -8.551239E+05 -7.581373E+04  4.181286E+04 -3.638568E+05  5.777095E-10 -2.257966E-09
       154  11 -8.383397E+05 -5.176424E+04  3.137384E+04 -3.442251E+05 -3.106623E-09 -1.004082E-09
       154  12 -8.263234E+05 -8.372689E+04 -5.224056E+03 -3.295675E+05  3.725660E-10  5.322719E-10
       154  13 -1.097698E+06 -1.630973E+05 -2.213338E+04 -4.258250E+05  3.469001E-10 -9.190464E-10
       154  14 -1.097628E+06 -1.515368E+05 -3.814081E+04 -4.171447E+05  1.117346E-09 -1.486204E-09
       154  15 -1.102394E+06 -1.960623E+05 -8.056111E+04 -4.134380E+05 -1.074296E-09  9.486696E-10
       154  16 -1.340217E+06 -2.503788E+05 -8.608480E+04 -4.877722E+05  1.104471E-09 -1.010722E-10
       154  17 -1.356851E+06 -2.513046E+05 -1.076615E+05 -4.900366E+05 -4.010379E-10  8.399643E-10
       154  18 -1.378392E+06 -3.083897E+05 -1.559051E+05 -4.972735E+05  1.606133E-09  4.738614E-10
       154  19 -8.551235E+05 -7.581364E+04  4.181353E+04 -3.638568E+05 -1.884435E+04  7.595653E+02
       154  20 -8.383381E+05 -5.176380E+04  3.137673E+04 -3.442250E+05 -3.880286E+04 -5.709882E+03
       154  21 -8.263196E+05 -8.372579E+04 -5.217305E+03 -3.295669E+05 -5.848305E+04 -1.292340E+04
       154  22 -1.097698E+06 -1.630972E+05 -2.213275E+04 -4.258251E+05 -1.829584E+04  9.657605E+02
       154  23 -1.097626E+06 -1.515363E+05 -3.813795E+04 -4.171445E+05 -3.856322E+04 -5.619351E+03
       154  24 -1.102391E+06 -1.960612E+05 -8.055434E+04 -4.134374E+05 -5.855162E+04 -1.294796E+04
       154  25 -1.340217E+06 -2.503787E+05 -8.608421E+04 -4.877722E+05 -1.774756E+04  1.171877E+03
       154  26 -1.356850E+06 -2.513042E+05 -1.076587E+05 -4.900364E+05 -3.832368E+04 -5.528862E+03
       154  27 -1.378388E+06 -3.083886E+05 -1.558983E+05 -4.972729E+05 -5.862015E+04 -1.297252E+04
       155   1 -7.753309E+05 -5.953508E+04 -1.464611E+04 -3.785567E+05  7.543229E+04  1.743584E+04
       155   2 -7.489006E+05  3.291356E+04 -7.252512E+04 -3.145936E+05  1.609919E+05  4.870656E+04
       155   3 -8.570039E+05 -2.468800E+05 -2.925808E+05 -1.707119E+05  2.435830E+05  8.787110E+04
       155   4 -1.115388E+06 -1.540542E+05 -9.872873E+04 -4.369062E+05  7.336962E+04  1.666396E+04
       155   5 -1.067884E+06 -1.087091E+05 -1.615508E+05 -4.237054E+05  1.622466E+05  4.917192E+04
       155   6 -1.155655E+06 -4.363935E+05 -3.892488E+05 -3.305641E+05  2.481566E+05  8.955762E+04
       155   7 -1.455331E+06 -2.485761E+05 -1.828192E+05 -4.952326E+05  7.130818E+04  1.589228E+04
       155   8 -1.386766E+06 -2.503133E+05 -2.505857E+05 -5.327622E+05  1.635005E+05  4.963690E+04
       155   9 -1.454202E+06 -6.258383E+05 -4.859236E+05 -4.903295E+05  2.527279E+05  9.124178E+04
       155  10 -7.753371E+05 -5.953694E+04 -1.465739E+04 -3.785577E+05  3.834122E-09  2.408955E-10
       155  11 -7.489291E+05  3.290404E+04 -7.257836E+04 -3.145999E+05 -2.398020E-09  3.672780E-11
       155  12 -8.570697E+05 -2.469043E+05 -2.927070E+05 -1.707292E+05 -1.025618E-09 -1.724275E-09
       155  13 -1.115394E+06 -1.540560E+05 -9.873939E+04 -4.369072E+05  2.618843E-09 -1.329623E-09
       155  14 -1.067913E+06 -1.087188E+05 -1.616050E+05 -4.237119E+05  3.559295E-10  2.490515E-09
       155  15 -1.155723E+06 -4.364187E+05 -3.893798E+05 -3.305820E+05  1.156861E-09  2.042313E-09
       155  16 -1.455337E+06 -2.485778E+05 -1.828293E+05 -4.952335E+05 -2.124327E-10 -8.555660E-10
       155  17 -1.386795E+06 -2.503231E+05 -2.506407E+05 -5.327688E+05 -1.482888E-09 -8.713612E-10
       155  18 -1.454273E+06 -6.258645E+05 -4.860596E+05 -4.903482E+05 -5.692884E-11  6.188418E-10
       155  19 -7.753309E+05 -5.953508E+04 -1.464611E+04 -3.785567E+05 -7.543229E+04 -1.743584E+04
       155  20 -7.489006E+05  3.291356E+04 -7.252512E+04 -3.145936E+05 -1.609919E+05 -4.870656E+04
       155  21 -8.570039E+05 -2.468800E+05 -2.925808E+05 -1.707119E+05 -2.435830E+05 -8.787110E+04
       155  22 -1.115388E+06 -1.540542E+05 -9.872873E+04 -4.369062E+05 -7.336962E+04 -1.666396E+04
       155  23 -1.067884E+06 -1.087091E+05 -1.615508E+05 -4.237054E+05 -1.622466E+05 -4.917192E+04
       155  24 -1.155655E+06 -4.363935E+05 -3.892488E+05 -3.305641E+05 -2.481566E+05 -8.955762E+04
       155  25 -1.455331E+06 -2.485761E+05 -1.828192E+05 -4.952326E+05 -7.130818E+04 -1.589228E+04
       155  26 -1.386766E+06 -2.503133E+05 -2.505857E+05 -5.327622E+05 -1.635005E+05 -4.963690E+04
       155  27 -1.454202E+06 -6.258383E+05 -4.859236E+05 -4.903295E+05 -2.527279E+05 -9.124178E+04
       156   1  2.700529E+05  2.234217E+06  2.620070E+05 -1.425657E+05  1.184581E+04  1.048768E+05
       156   2  2.060426E+05  2.129876E+06  1.798119E+05 -1.189086E+05  3.976478E+04  5.094607E+04
       156   3  1.717923E+05  2.039974E+06  1.401052E+05 -1.128250E+05  4.698081E+04 -2.997182E+03
       156   4  4.424142E+04  1.317364E+06  4.840716E+04 -1.125235E+05  1.195426E+04  3.040620E+04
       156   5  1.242720E+04  1.313674E+06  2.657871E+04 -1.037690E+05  3.982132E+04  1.685435E+04
       156   6  3.400152E+03  1.317439E+06  1.927702E+04 -1.125859E+05  4.697555E+04  3.280072E+03
       156   7 -1.816231E+05  4.012965E+05 -1.652283E+05 -8.252564E+04  1.205561E+04 -4.395546E+04
       156   8 -1.812252E+05  4.981163E+05 -1.266790E+05 -8.864956E+04  3.987625E+04 -1.719379E+04
       156   9 -1.650191E+05  5.954180E+05 -1.015672E+05 -1.123469E+05  4.697030E+04  9.550280E+03
       156  10  2.700498E+05  2.234205E+06  2.619861E+05 -1.425667E+05 -8.225173E-10  4.950374E-09
       156  11  2.060402E+05  2.129873E+06  1.798041E+05 -1.189102E+05  1.341211E-09 -3.884427E-09
       156  12  1.717899E+05  2.039973E+06  1.401010E+05 -1.128249E+05 -7.054973E-10 -4.972583E-09
       156  13  4.424101E+04  1.317363E+06  4.840515E+04 -1.125238E+05  6.992501E-10 -2.433551E-11
       156  14  1.242542E+04  1.313673E+06  2.657519E+04 -1.037696E+05  1.775139E-09 -3.052293E-09
       156  15  3.397778E+03  1.317439E+06  1.927285E+04 -1.125861E+05  7.573334E-10 -2.178887E-09
       156  16 -1.816238E+05  4.012943E+05 -1.652322E+05 -8.252521E+04  2.920080E-09 -4.152310E-09
       156  17 -1.812270E+05  4.981156E+05 -1.266826E+05 -8.864900E+04  5.351578E-09 -3.835209E-10
       156  18 -1.650215E+05  5.954173E+05 -1.015715E+05 -1.123473E+05  7.429640E-10  3.864047E-09
       156  19  2.700529E+05  2.234217E+06  2.620070E+05 -1.425657E+05 -1.184581E+04 -1.048768E+05
       156  20  2.060426E+05  2.129876E+06  1.798119E+05 -1.189086E+05 -3.976478E+04 -5.094607E+04
       156  21  1.717923E+05  2.039974E+06  1.401052E+05 -1.128250E+05 -4.698081E+04  2.997182E+03
       156  22  4.424142E+04  1.317364E+06  4.840716E+04 -1.125235E+05 -1.195426E+04 -3.040620E+04
       156  23  1.242720E+04  1.313674E+06  2.657871E+04 -1.037690E+05 -3.982132E+04 -1.685435E+04
       156  24  3.400152E+03  1.317439E+06  1.927702E+04 -1.125859E+05 -4.697555E+04 -3.280072E+03
       156  25 -1.816231E+05  4.012965E+05 -1.652283E+05 -8.252564E+04 -1.205561E+04  4.395546E+04
       156  26 -1.812252E+05  4.981163E+05 -1.266790E+05 -8.864956E+04 -3.987625E+04  1.719379E+04
       156  27 -1.650191E+05  5.954180E+05 -1.015672E+05 -1.123469E+05 -4.697030E+04 -9.550280E+03
       157   1  1.565340E+05  1.976336E+06  1.268498E+05 -1.158871E+05  4.447919E+04 -5.073705E+03
       157   2  1.328527E+05  1.877749E+06  1.105685E+05 -1.031618E+05  4.042683E+04 -2.086573E+04
       157   3  1.162803E+05  1.782948E+06  1.063123E+05 -1.094111E+05  3.373323E+04 -3.666178E+04
       157   4  3.119056E+03  1.316439E+06  1.847129E+04 -1.128939E+05  4.447441E+04  3.018683E+02
       157   5  2.653681E+03  1.315010E+06  2.126289E+04 -1.034021E+05  4.041159E+04 -1.033456E+04
       157   6  8.407682E+03  1.316468E+06  3.251130E+04 -1.128856E+05  3.370647E+04 -2.097727E+04
       157   7 -1.503181E+05  6.569708E+05 -8.991975E+04 -1.099037E+05  4.446968E+04  5.671938E+03
       157   8 -1.275610E+05  7.525857E+05 -6.805040E+04 -1.036421E+05  4.039634E+04  1.874484E+02
       157   9 -9.947552E+04  8.502050E+05 -4.129421E+04 -1.163573E+05  3.367952E+04 -5.304072E+03
       157  10  1.565319E+05  1.976335E+06  1.268460E+05 -1.158869E+05 -1.045322E-09  6.269238E-09
       157  11  1.328509E+05  1.877748E+06  1.105646E+05 -1.031611E+05 -1.129948E-09 -1.683685E-09
       157  12  1.162787E+05  1.782946E+06  1.063076E+05 -1.094101E+05 -2.490376E-09 -3.314623E-10
       157  13  3.116931E+03  1.316438E+06  1.846757E+04 -1.128939E+05  1.041401E-09 -3.208772E-10
       157  14  2.651897E+03  1.315009E+06  2.125962E+04 -1.034018E+05  2.323364E-09 -3.509731E-09
       157  15  8.406343E+03  1.316467E+06  3.250834E+04 -1.128850E+05 -9.030032E-10 -2.668081E-09
       157  16 -1.503203E+05  6.569702E+05 -8.992353E+04 -1.099039E+05  9.586942E-10 -5.635242E-09
       157  17 -1.275628E+05  7.525853E+05 -6.805347E+04 -1.036421E+05 -6.642922E-10 -3.525779E-09
       157  18 -9.947675E+04  8.502047E+05 -4.129640E+04 -1.163572E+05 -1.935556E-09 -1.086773E-09
       157  19  1.565340E+05  1.976336E+06  1.268498E+05 -1.158871E+05 -4.447919E+04  5.073705E+03
       157  20  1.328527E+05  1.877749E+06  1.105685E+05 -1.031618E+05 -4.042683E+04  2.086573E+04
       157  21  1.162803E+05  1.782948E+06  1.063123E+05 -1.094111E+05 -3.373323E+04  3.666178E+04
       157  22  3.119056E+03  1.316439E+06  1.847129E+04 -1.128939E+05 -4.447441E+04 -3.018683E+02
       157  23  2.653681E+03  1.315010E+06  2.126289E+04 -1.034021E+05 -4.041159E+04  1.033456E+04
       157  24  8.407682E+03  1.316468E+06  3.251130E+04 -1.128856E+05 -3.370647E+04  2.097727E+04
       157  25 -1.503181E+05  6.569708E+05 -8.991975E+04 -1.099037E+05 -4.446968E+04 -5.671938E+03
       157  26 -1.275610E+05  7.525857E+05 -6.805040E+04 -1.036421E+05 -4.039634E+04 -1.874484E+02
       157  27 -9.947552E+04  8.502050E+05 -4.129421E+04 -1.163573E+05 -3.367952E+04  5.304072E+03
       158   1  1.031089E+05  1.726018E+06  1.058067E+05 -1.164148E+05  2.916666E+04 -4.192740E+04
       158   2  1.098032E+05  1.618004E+06  1.260662E+05 -6.115426E+04  1.925357E+04 -8.771797E+04
       158   3  1.866317E+05  1.533404E+06  1.936013E+05 -2.517722E+04  5.160700E+03 -1.335116E+05
       158   4  9.311885E+03  1.320728E+06  4.147189E+04 -1.129771E+05  2.913874E+04 -2.651090E+04
       158   5  3.788963E+04  1.309702E+06  7.331278E+04 -1.032233E+05  1.921436E+04 -6.415992E+04
       158   6  1.351989E+05  1.320666E+06  1.467887E+05 -1.127472E+05  5.115926E+03 -1.018174E+05
       158   7 -8.449317E+04  9.156010E+05 -2.286619E+04 -1.095417E+05  2.911099E+04 -1.110407E+04
       158   8 -3.402199E+04  1.001499E+06  2.055926E+04 -1.452708E+05  1.917195E+04 -4.061318E+04
       158   9  8.379246E+04  1.107989E+06  9.998122E+04 -2.002869E+05  5.062225E+03 -7.013388E+04
       158  10  1.031076E+05  1.726016E+06  1.058018E+05 -1.164138E+05 -4.522837E-09  6.492868E-08
       158  11  1.098007E+05  1.617996E+06  1.260510E+05 -6.115290E+04 -3.231771E-09 -1.115749E-09
       158  12  1.866269E+05  1.533385E+06  1.935679E+05 -2.517666E+04 -2.869315E-10 -5.701929E-08
       158  13  9.310785E+03  1.320727E+06  4.146898E+04 -1.129765E+05 -3.191477E-09  1.233886E-11
       158  14  3.788813E+04  1.309698E+06  7.330437E+04 -1.032223E+05 -3.888019E-09 -4.097484E-09
       158  15  1.351961E+05  1.320655E+06  1.467692E+05 -1.127468E+05  5.743776E-10 -2.621499E-09
       158  16 -8.449411E+04  9.156007E+05 -2.286801E+04 -1.095414E+05 -1.146564E-09 -6.393764E-08
       158  17 -3.402283E+04  1.001497E+06  2.055548E+04 -1.452701E+05 -8.775767E-10 -4.216248E-09
       158  18  8.379111E+04  1.107984E+06  9.997194E+04 -2.002866E+05  6.579951E-11  5.572622E-08
       158  19  1.031089E+05  1.726018E+06  1.058067E+05 -1.164148E+05 -2.916666E+04  4.192740E+04
       158  20  1.098032E+05  1.618004E+06  1.260662E+05 -6.115426E+04 -1.925357E+04  8.771797E+04
       158  21  1.866317E+05  1.533404E+06  1.936013E+05 -2.517722E+04 -5.160700E+03  1.335116E+05
       158  22  9.311885E+03  1.320728E+06  4.147189E+04 -1.129771E+05 -2.913874E+04  2.651090E+04
       158  23  3.788963E+04  1.309702E+06  7.331278E+04 -1.032233E+05 -1.921436E+04  6.415992E+04
       158  24  1.351989E+05  1.320666E+06  1.467887E+05 -1.127472E+05 -5.115926E+03  1.018174E+05
       158  25 -8.449317E+04  9.156010E+05 -2.286619E+04 -1.095417E+05 -2.911099E+04  1.110407E+04
       158  26 -3.402199E+04  1.001499E+06  2.055926E+04 -1.452708E+05 -1.917195E+04  4.061318E+04
       158  27  8.379246E+04  1.107989E+06  9.998122E+04 -2.002869E+05 -5.062225E+03  7.013388E+04
       159   1  1.198159E+05 -9.481742E+04 -2.149826E+04  1.101930E+04  2.062724E+05  1.375571E+04
       159   2  1.946768E+05 -3.631944E+05 -1.692431E+05  8.336492E+03  1.424433E+05  3.912154E+04
       159   3  3.623449E+05 -3.052131E+05 -1.932539E+05 -9.389950E+04  7.867706E+04  3.458812E+04
       159   4  1.539517E+06  2.584327E+05  3.290846E+05 -6.098096E+04  2.250986E+05  1.378471E+04
       159   5  1.492146E+06 -4.151867E+04  1.432791E+05 -1.084448E+04  1.474740E+05  3.912216E+04
       159   6  1.539755E+06 -1.309737E+04  9.057310E+04 -6.024142E+04  6.992648E+04  3.457703E+04
       159   7  2.961060E+06  6.115532E+05  6.795227E+05 -1.331472E+05  2.439673E+05  1.380933E+04
       159   8  2.791155E+06  2.800360E+05  4.556817E+05 -3.006647E+04  1.525149E+05  3.912248E+04
       159   9  2.718433E+06  2.789215E+05  3.743021E+05 -2.651966E+04  6.115928E+04  3.456500E+04
       159  10  1.197702E+05 -9.482904E+04 -2.157855E+04  1.101702E+04  1.088386E-10  5.808151E-11
       159  11  1.946546E+05 -3.632015E+05 -1.692841E+05  8.332003E+03  1.065900E-09  1.586020E-10
       159  12  3.623379E+05 -3.052160E+05 -1.932678E+05 -9.390169E+04 -3.884910E-10 -1.675533E-11
       159  13  1.539462E+06  2.584190E+05  3.289893E+05 -6.098346E+04  5.637903E-10  1.581535E-10
       159  14  1.492123E+06 -4.152614E+04  1.432355E+05 -1.084912E+04 -2.575052E-10  2.865427E-10
       159  15  1.539749E+06 -1.309996E+04  9.056168E+04 -6.024336E+04  1.091352E-10  1.243712E-10
       159  16  2.960996E+06  6.115371E+05  6.794110E+05 -1.331500E+05  7.031194E-10  1.752468E-10
       159  17  2.791130E+06  2.800282E+05  4.556353E+05 -3.007127E+04 -6.126120E-10  3.496229E-10
       159  18  2.718428E+06  2.789192E+05  3.742928E+05 -2.652136E+04 -2.428849E-10  3.715832E-11
       159  19  1.198159E+05 -9.481742E+04 -2.149826E+04  1.101930E+04 -2.062724E+05 -1.375571E+04
       159  20  1.946768E+05 -3.631944E+05 -1.692431E+05  8.336492E+03 -1.424433E+05 -3.912154E+04
       159  21  3.623449E+05 -3.052131E+05 -1.932539E+05 -9.389950E+04 -7.867706E+04 -3.458812E+04
       159  22  1.539517E+06  2.584327E+05  3.290846E+05 -6.098096E+04 -2.250986E+05 -1.378471E+04
       159  23  1.492146E+06 -4.151867E+04  1.432791E+05 -1.084448E+04 -1.474740E+05 -3.912216E+04
       159  24  1.539755E+06 -1.309737E+04  9.057310E+04 -6.024142E+04 -6.992648E+04 -3.457703E+04
       159  25  2.961060E+06  6.115532E+05  6.795227E+05 -1.331472E+05 -2.439673E+05 -1.380933E+04
       159  26  2.791155E+06  2.800360E+05  4.556817E+05 -3.006647E+04 -1.525149E+05 -3.912248E+04
       159  27  2.718433E+06  2.789215E+05  3.743021E+05 -2.651966E+04 -6.115928E+04 -3.456500E+04
       160   1  5.197037E+05 -2.198142E+05 -1.679874E+05 -5.192279E+04  5.595353E+04  2.754932E+04
       160   2  6.257811E+05 -2.254621E+05 -1.772343E+05 -1.090374E+04  3.789547E+04  2.561484E+04
       160   3  7.446199E+05 -1.941685E+05 -1.652503E+05 -6.255559E+04  1.982791E+04  2.129115E+04
       160   4  1.521584E+06  2.873322E+04  7.403563E+04 -5.894128E+04  5.568220E+04  2.754552E+04
       160   5  1.515153E+06 -4.894455E+03  3.724914E+04 -1.260035E+04  3.650591E+04  2.561194E+04
       160   6  1.521647E+06 -1.416032E+03  2.244425E+04 -5.892111E+04  1.732336E+04  2.129039E+04
       160   7  2.524380E+06  2.772076E+05  3.159868E+05 -6.597127E+04  5.541038E+04  2.754172E+04
       160   8  2.405247E+06  2.156155E+05  2.516761E+05 -1.429944E+04  3.511433E+04  2.560905E+04
       160   9  2.299224E+06  1.912924E+05  2.100957E+05 -5.528199E+04  1.481569E+04  2.128961E+04
       160  10  5.197001E+05 -2.198158E+05 -1.679947E+05 -5.192403E+04 -8.830271E-10 -1.810182E-10
       160  11  6.257793E+05 -2.254632E+05 -1.772383E+05 -1.090452E+04 -9.129295E-11  8.146019E-11
       160  12  7.446193E+05 -1.941691E+05 -1.652519E+05 -6.255593E+04  6.051899E-10 -1.515137E-10
       160  13  1.521581E+06  2.873158E+04  7.402839E+04 -5.894251E+04 -1.616768E-09 -2.117569E-10
       160  14  1.515152E+06 -4.895517E+03  3.724541E+04 -1.260110E+04 -6.239682E-10 -1.866192E-10
       160  15  1.521646E+06 -1.416599E+03  2.244284E+04 -5.892140E+04  2.769717E-10 -2.917794E-11
       160  16  2.524377E+06  2.772059E+05  3.159797E+05 -6.597250E+04 -5.268016E-10 -9.682981E-11
       160  17  2.405246E+06  2.156145E+05  2.516726E+05 -1.430016E+04  9.758618E-10 -4.936292E-10
       160  18  2.299224E+06  1.912919E+05  2.100944E+05 -5.528225E+04 -7.636749E-10 -2.571954E-10
       160  19  5.197037E+05 -2.198142E+05 -1.679874E+05 -5.192279E+04 -5.595353E+04 -2.754932E+04
       160  20  6.257811E+05 -2.254621E+05 -1.772343E+05 -1.090374E+04 -3.789547E+04 -2.561484E+04
       160  21  7.446199E+05 -1.941685E+05 -1.652503E+05 -6.255559E+04 -1.982791E+04 -2.129115E+04
       160  22  1.521584E+06  2.873322E+04  7.403563E+04 -5.894128E+04 -5.568220E+04 -2.754552E+04
       160  23  1.515153E+06 -4.894455E+03  3.724914E+04 -1.260035E+04 -3.650591E+04 -2.561194E+04
       160  24  1.521647E+06 -1.416032E+03  2.244425E+04 -5.892111E+04 -1.732336E+04 -2.129039E+04
       160  25  2.524380E+06  2.772076E+05  3.159868E+05 -6.597127E+04 -5.541038E+04 -2.754172E+04
       160  26  2.405247E+06  2.156155E+05  2.516761E+05 -1.429944E+04 -3.511433E+04 -2.560905E+04
       160  27  2.299224E+06  1.912924E+05  2.100957E+05 -5.528199E+04 -1.481569E+04 -2.128961E+04
       161   1  9.077963E+05 -1.484167E+05 -1.295651E+05 -5.705460E+04  1.554742E+04  1.844443E+04
       161   2  1.014081E+06 -1.256056E+05 -1.119756E+05 -1.336845E+04  1.077198E+04  1.443775E+04
       161   3  1.122226E+06 -9.851027E+04 -9.017746E+04 -5.804989E+04  5.990914E+03  1.028883E+04
       161   4  1.519250E+06  3.150929E+03  1.761772E+04 -5.796925E+04  1.375808E+04  1.844431E+04
       161   5  1.518331E+06 -5.741377E+02  9.623493E+03 -1.378886E+04  8.913219E+03  1.443867E+04
       161   6  1.519274E+06 -3.882937E+00  5.883911E+03 -5.797155E+04  4.063561E+03  1.029086E+04
       161   7  2.131046E+06  1.546913E+05  1.647739E+05 -5.888473E+04  1.196698E+04  1.844421E+04
       161   8  2.022814E+06  1.244388E+05  1.312045E+05 -1.420956E+04  7.052958E+03  1.443959E+04
       161   9  1.916466E+06  9.849098E+04  1.019340E+05 -5.789310E+04  2.134981E+03  1.029290E+04
       161  10  9.077960E+05 -1.484171E+05 -1.295662E+05 -5.705483E+04 -6.956295E-11  2.138260E-11
       161  11  1.014081E+06 -1.256059E+05 -1.119763E+05 -1.336857E+04 -1.351949E-09  7.365794E-11
       161  12  1.122226E+06 -9.851039E+04 -9.017773E+04 -5.804994E+04 -5.213936E-10 -9.983195E-11
       161  13  1.519250E+06  3.150513E+03  1.761672E+04 -5.796945E+04  9.928961E-10  9.071008E-11
       161  14  1.518331E+06 -5.743830E+02  9.622952E+03 -1.378896E+04  2.696029E-10  8.358319E-11
       161  15  1.519274E+06 -4.001164E+00  5.883681E+03 -5.797158E+04  7.523687E-10  1.760522E-11
       161  16  2.131046E+06  1.546909E+05  1.647730E+05 -5.888491E+04 -7.257860E-11  1.627136E-10
       161  17  2.022814E+06  1.244386E+05  1.312040E+05 -1.420964E+04  3.383649E-10  9.636151E-11
       161  18  1.916466E+06  9.849087E+04  1.019338E+05 -5.789312E+04  1.008675E-09 -2.611197E-11
       161  19  9.077963E+05 -1.484167E+05 -1.295651E+05 -5.705460E+04 -1.554742E+04 -1.844443E+04
       161  20  1.014081E+06 -1.256056E+05 -1.119756E+05 -1.336845E+04 -1.077198E+04 -1.443775E+04
       161  21  1.122226E+06 -9.851027E+04 -9.017746E+04 -5.804989E+04 -5.990914E+03 -1.028883E+04
       161  22  1.519250E+06  3.150929E+03  1.761772E+04 -5.796925E+04 -1.375808E+04 -1.844431E+04
       161  23  1.518331E+06 -5.741377E+02  9.623493E+03 -1.378886E+04 -8.913219E+03 -1.443867E+04
       161  24  1.519274E+06 -3.882937E+00  5.883911E+03 -5.797155E+04 -4.063561E+03 -1.029086E+04
       161  25  2.131046E+06  1.546913E+05  1.647739E+05 -5.888473E+04 -1.196698E+04 -1.844421E+04
       161  26  2.022814E+06  1.244388E+05  1.312045E+05 -1.420956E+04 -7.052958E+03 -1.443959E+04
       161  27  1.916466E+06  9.849098E+04  1.019340E+05 -5.789310E+04 -2.134981E+03 -1.029290E+04
       162   1  1.281745E+06 -5.828080E+04 -5.217131E+04 -5.726593E+04  4.971565E+03  7.865635E+03
       162   2  1.386533E+06 -3.283721E+04 -2.876356E+04 -1.420180E+04  3.404634E+03  3.783656E+03
       162   3  1.491435E+06 -6.682297E+03 -4.219843E+03 -5.754352E+04  1.836179E+03 -2.968367E+02
       162   4  1.518913E+06  4.528420E+02  4.692052E+03 -5.753532E+04  3.106566E+03  7.868043E+03
       162   5  1.518864E+06 -3.208561E+01  3.141547E+03 -1.433320E+04  1.539657E+03  3.786307E+03
       162   6  1.518919E+06  1.945335E+02  2.726864E+03 -5.753575E+04 -2.851541E+01 -2.939045E+02
       162   7  1.756132E+06  5.918241E+04  6.155145E+04 -5.780479E+04  1.240858E+03  7.870452E+03
       162   8  1.651212E+06  3.277177E+04  3.504541E+04 -1.446461E+04 -3.257153E+02  3.788959E+03
       162   9  1.546403E+06  7.071309E+03  9.673525E+03 -5.752799E+04 -1.893292E+03 -2.909725E+02
       162  10  1.281745E+06 -5.828088E+04 -5.217148E+04 -5.726596E+04  4.283733E-11 -2.903723E-10
       162  11  1.386533E+06 -3.283723E+04 -2.876361E+04 -1.420181E+04  4.662293E-11 -3.598077E-10
       162  12  1.491435E+06 -6.682298E+03 -4.219849E+03 -5.754351E+04  1.125050E-09 -1.174474E-10
       162  13  1.518913E+06  4.527729E+02  4.691917E+03 -5.753534E+04 -9.586898E-10 -2.191143E-10
       162  14  1.518864E+06 -3.210165E+01  3.141516E+03 -1.433320E+04  7.397925E-10  1.891196E-10
       162  15  1.518919E+06  1.945334E+02  2.726863E+03 -5.753575E+04 -3.789285E-10  4.025752E-11
       162  16  1.756132E+06  5.918235E+04  6.155133E+04 -5.780480E+04  7.159036E-10 -8.876415E-11
       162  17  1.651212E+06  3.277175E+04  3.504539E+04 -1.446461E+04 -7.368550E-10 -2.632527E-10
       162  18  1.546403E+06  7.071308E+03  9.673518E+03 -5.752799E+04 -2.593611E-10 -6.646072E-10
       162  19  1.281745E+06 -5.828080E+04 -5.217131E+04 -5.726593E+04 -4.971565E+03 -7.865635E+03
       162  20  1.386533E+06 -3.283721E+04 -2.876356E+04 -1.420180E+04 -3.404634E+03 -3.783656E+03
       162  21  1.491435E+06 -6.682297E+03 -4.219843E+03 -5.754352E+04 -1.836179E+03  2.968367E+02
       162  22  1.518913E+06  4.528420E+02  4.692052E+03 -5.753532E+04 -3.106566E+03 -7.868043E+03
       162  23  1.518864E+06 -3.208561E+01  3.141547E+03 -1.433320E+04 -1.539657E+03 -3.786307E+03
       162  24  1.518919E+06  1.945335E+02  2.726864E+03 -5.753575E+04  2.851541E+01  2.939045E+02
       162  25  1.756132E+06  5.918241E+04  6.155145E+04 -5.780479E+04 -1.240858E+03 -7.870452E+03
       162  26  1.651212E+06  3.277177E+04  3.504541E+04 -1.446461E+04  3.257153E+02 -3.788959E+03
       162  27  1.546403E+06  7.071309E+03  9.673525E+03 -5.752799E+04  1.893292E+03  2.909725E+02
       163   1  1.649882E+06  3.270494E+04  3.470946E+04 -5.769775E+04  1.330474E+03 -2.671622E+03
       163   2  1.755024E+06  5.848206E+04  6.058729E+04 -1.445997E+04 -4.869267E+02 -6.759727E+03
       163   3  1.860409E+06  8.507666E+04  8.780298E+04 -5.794523E+04 -2.302423E+03 -1.086176E+04
       163   4  1.518943E+06  1.862882E+02  2.824903E+03 -5.760696E+04 -5.354788E+02 -2.668762E+03
       163   5  1.518821E+06 -5.991785E+01  3.651274E+03 -1.424416E+04 -2.358807E+03 -6.757347E+03
       163   6  1.518932E+06  5.133677E+02  5.820696E+03 -5.760642E+04 -4.179928E+03 -1.085983E+04
       163   7  1.388019E+06 -3.233363E+04 -2.906088E+04 -5.751619E+04 -2.401040E+03 -2.665903E+03
       163   8  1.282668E+06 -5.860595E+04 -5.328872E+04 -1.402842E+04 -4.229980E+03 -6.754967E+03
       163   9  1.177562E+06 -8.405838E+04 -7.616984E+04 -5.726777E+04 -6.056406E+03 -1.085789E+04
       163  10  1.649882E+06  3.270494E+04  3.470944E+04 -5.769774E+04  7.328956E-10  8.548259E-12
       163  11  1.755024E+06  5.848201E+04  6.058721E+04 -1.445997E+04 -1.126200E-10  1.739292E-10
       163  12  1.860409E+06  8.507653E+04  8.780275E+04 -5.794525E+04 -1.518791E-09  6.635772E-11
       163  13  1.518943E+06  1.862805E+02  2.824889E+03 -5.760696E+04  3.681021E-10  2.710017E-10
       163  14  1.518821E+06 -5.996840E+01  3.651177E+03 -1.424417E+04 -8.764026E-10  3.780816E-10
       163  15  1.518932E+06  5.132363E+02  5.820442E+03 -5.760646E+04 -1.277616E-09  2.252417E-10
       163  16  1.388019E+06 -3.233364E+04 -2.906091E+04 -5.751620E+04 -8.804688E-10 -2.680919E-10
       163  17  1.282668E+06 -5.860600E+04 -5.328883E+04 -1.402844E+04 -1.278385E-09  3.365956E-10
       163  18  1.177562E+06 -8.405852E+04 -7.617013E+04 -5.726782E+04 -3.867331E-10 -7.961450E-11
       163  19  1.649882E+06  3.270494E+04  3.470946E+04 -5.769775E+04 -1.330474E+03  2.671622E+03
       163  20  1.755024E+06  5.848206E+04  6.058729E+04 -1.445997E+04  4.869267E+02  6.759727E+03
       163  21  1.860409E+06  8.507666E+04  8.780298E+04 -5.794523E+04  2.302423E+03  1.086176E+04
       163  22  1.518943E+06  1.862882E+02  2.824903E+03 -5.760696E+04  5.354788E+02  2.668762E+03
       163  23  1.518821E+06 -5.991785E+01  3.651274E+03 -1.424416E+04  2.358807E+03  6.757347E+03
       163  24  1.518932E+06  5.133677E+02  5.820696E+03 -5.760642E+04  4.179928E+03  1.085983E+04
       163  25  1.388019E+06 -3.233363E+04 -2.906088E+04 -5.751619E+04  2.401040E+03  2.665903E+03
       163  26  1.282668E+06 -5.860595E+04 -5.328872E+04 -1.402842E+04  4.229980E+03  6.754967E+03
       163  27  1.177562E+06 -8.405838E+04 -7.616984E+04 -5.726777E+04  6.056406E+03  1.085789E+04
       164   1  2.022059E+06  1.245463E+05  1.288744E+05 -5.800292E+04 -3.429651E+03 -1.330451E+04
       164   2  2.129249E+06  1.506651E+05  1.595731E+05 -1.390597E+04 -9.698826E+03 -1.749095E+04
       164   3  2.239006E+06  1.822545E+05  1.957845E+05 -5.915584E+04 -1.596311E+04 -2.153315E+04
       164   4  1.519408E+06 -7.580009E+01  7.412523E+03 -5.819116E+04 -5.376083E+03 -1.330311E+04
       164   5  1.518119E+06 -7.657365E+02  1.229909E+04 -1.351426E+04 -1.157398E+04 -1.749088E+04
       164   6  1.519379E+06  4.007077E+03  2.265422E+04 -5.818955E+04 -1.776591E+04 -2.153431E+04
       164   7  1.016986E+06 -1.247164E+05 -1.140674E+05 -5.837916E+04 -7.320947E+03 -1.330170E+04
       164   8  9.073292E+05 -1.522237E+05 -1.350016E+05 -1.312288E+04 -1.344730E+04 -1.749081E+04
       164   9  8.002244E+05 -1.742780E+05 -1.505128E+05 -5.722432E+04 -1.956663E+04 -2.153548E+04
       164  10  2.022059E+06  1.245462E+05  1.288740E+05 -5.800296E+04 -1.894166E-09 -4.081074E-10
       164  11  2.129249E+06  1.506647E+05  1.595724E+05 -1.390611E+04 -4.209862E-10 -7.569043E-11
       164  12  2.239006E+06  1.822539E+05  1.957831E+05 -5.915612E+04 -4.767782E-10  7.265195E-11
       164  13  1.519408E+06 -7.599801E+01  7.412136E+03 -5.819121E+04 -2.001705E-09 -3.164759E-10
       164  14  1.518119E+06 -7.661011E+02  1.229826E+04 -1.351442E+04  1.368153E-10 -3.065892E-10
       164  15  1.519379E+06  4.006494E+03  2.265276E+04 -5.818986E+04 -2.392912E-10 -3.517919E-10
       164  16  1.016986E+06 -1.247166E+05 -1.140679E+05 -5.837924E+04 -9.678365E-10 -1.055818E-10
       164  17  9.073289E+05 -1.522241E+05 -1.350025E+05 -1.312307E+04 -1.815194E-09 -6.857410E-11
       164  18  8.002239E+05 -1.742786E+05 -1.505144E+05 -5.722466E+04  7.781674E-10 -4.220496E-11
       164  19  2.022059E+06  1.245463E+05  1.288744E+05 -5.800292E+04  3.429651E+03  1.330451E+04
       164  20  2.129249E+06  1.506651E+05  1.595731E+05 -1.390597E+04  9.698826E+03  1.749095E+04
       164  21  2.239006E+06  1.822545E+05  1.957845E+05 -5.915584E+04  1.596311E+04  2.153315E+04
       164  22  1.519408E+06 -7.580009E+01  7.412523E+03 -5.819116E+04  5.376083E+03  1.330311E+04
       164  23  1.518119E+06 -7.657365E+02  1.229909E+04 -1.351426E+04  1.157398E+04  1.749088E+04
       164  24  1.519379E+06  4.007077E+03  2.265422E+04 -5.818955E+04  1.776591E+04  2.153431E+04
       164  25  1.016986E+06 -1.247164E+05 -1.140674E+05 -5.837916E+04  7.320947E+03  1.330170E+04
       164  26  9.073292E+05 -1.522237E+05 -1.350016E+05 -1.312288E+04  1.344730E+04  1.749081E+04
       164  27  8.002244E+05 -1.742780E+05 -1.505128E+05 -5.722432E+04  1.956663E+04  2.153548E+04
       165   1  2.410277E+06  2.181239E+05  2.430859E+05 -5.430600E+04 -1.977212E+04 -2.444754E+04
       165   2  2.516430E+06  2.419911E+05  2.894478E+05 -1.402788E+04 -4.569536E+04 -2.885292E+04
       165   3  2.639484E+06  3.137901E+05  3.649381E+05 -6.806085E+04 -7.161796E+04 -3.068484E+04
       165   4  1.522453E+06 -1.888563E+03  2.888301E+04 -5.928213E+04 -2.235096E+04 -2.444975E+04
       165   5  1.514063E+06 -6.314601E+03  4.798953E+04 -1.214528E+04 -4.706156E+04 -2.885714E+04
       165   6  1.522378E+06  3.702441E+04  9.541899E+04 -5.932764E+04 -7.176675E+04 -3.068976E+04
       165   7  6.353469E+05 -2.219584E+05 -1.853762E+05 -6.425112E+04 -2.492612E+04 -2.445192E+04
       165   8  5.126117E+05 -2.546934E+05 -1.935403E+05 -1.026588E+04 -4.842552E+04 -2.886137E+04
       165   9  4.064087E+05 -2.398319E+05 -1.741892E+05 -5.061047E+04 -7.191518E+04 -3.069468E+04
       165  10  2.410277E+06  2.181232E+05  2.430841E+05 -5.430638E+04 -1.376274E-09 -2.446058E-10
       165  11  2.516428E+06  2.419897E+05  2.894423E+05 -1.402894E+04 -1.224405E-09  1.122272E-10
       165  12  2.639478E+06  3.137877E+05  3.649267E+05 -6.806262E+04 -1.314272E-09  1.751522E-10
       165  13  1.522452E+06 -1.889339E+03  2.888095E+04 -5.928257E+04 -1.735524E-09 -1.599796E-10
       165  14  1.514061E+06 -6.316088E+03  4.798381E+04 -1.214637E+04  6.821353E-11 -2.943069E-10
       165  15  1.522372E+06  3.702202E+04  9.540756E+04 -5.932941E+04 -1.113202E-09  3.177060E-11
       165  16  6.353461E+05 -2.219592E+05 -1.853785E+05 -6.425161E+04  3.544013E-12 -2.447574E-10
       165  17  5.126090E+05 -2.546949E+05 -1.935463E+05 -1.026700E+04  1.021302E-09 -5.360662E-10
       165  18  4.064029E+05 -2.398343E+05 -1.742007E+05 -5.061225E+04  5.090334E-10  1.520684E-10
       165  19  2.410277E+06  2.181239E+05  2.430859E+05 -5.430600E+04  1.977212E+04  2.444754E+04
       165  20  2.516430E+06  2.419911E+05  2.894478E+05 -1.402788E+04  4.569536E+04  2.885292E+04
       165  21  2.639484E+06  3.137901E+05  3.649381E+05 -6.806085E+04  7.161796E+04  3.068484E+04
       165  22  1.522453E+06 -1.888563E+03  2.888301E+04 -5.928213E+04  2.235096E+04  2.444975E+04
       165  23  1.514063E+06 -6.314601E+03  4.798953E+04 -1.214528E+04  4.706156E+04  2.885714E+04
       165  24  1.522378E+06  3.702441E+04  9.541899E+04 -5.932764E+04  7.176675E+04  3.068976E+04
       165  25  6.353469E+05 -2.219584E+05 -1.853762E+05 -6.425112E+04  2.492612E+04  2.445192E+04
       165  26  5.126117E+05 -2.546934E+05 -1.935403E+05 -1.026588E+04  4.842552E+04  2.886137E+04
       165  27  4.064087E+05 -2.398319E+05 -1.741892E+05 -5.061047E+04  7.191518E+04  3.069468E+04
       166   1  2.842288E+06  3.043656E+05  4.287949E+05 -1.689823E+04 -8.077708E+04 -3.814548E+04
       166   2  2.904405E+06  2.979241E+05  5.261559E+05 -3.466987E+04 -1.957157E+05 -4.292378E+04
       166   3  3.091063E+06  7.167384E+05  8.051188E+05 -1.547294E+05 -3.107873E+05 -1.538799E+04
       166   4  1.545758E+06 -1.690602E+04  1.167272E+05 -6.071578E+04 -9.012163E+04 -3.816223E+04
       166   5  1.484509E+06 -5.347294E+04  1.847136E+05 -1.017477E+04 -1.900772E+05 -4.292294E+04
       166   6  1.545466E+06  3.331255E+05  4.242062E+05 -6.191622E+04 -2.901399E+05 -1.536224E+04
       166   7  2.507633E+05 -3.382928E+05 -1.954590E+05 -1.044425E+05 -9.944665E+04 -3.817768E+04
       166   8  6.645078E+04 -4.050139E+05 -1.568714E+05  1.426305E+04 -1.844511E+05 -4.292166E+04
       166   9  2.053134E+03 -5.063104E+04  4.312395E+04  3.066477E+04 -2.695429E+05 -1.533034E+04
       166  10  2.842281E+06  3.043623E+05  4.287800E+05 -1.690070E+04 -2.911842E-10  1.185485E-09
       166  11  2.904364E+06  2.979119E+05  5.260808E+05 -3.467662E+04 -1.654633E-09  4.179121E-10
       166  12  3.090960E+06  7.167124E+05  8.049377E+05 -1.547333E+05 -7.931463E-10 -4.687531E-10
       166  13  1.545749E+06 -1.690976E+04  1.167092E+05 -6.071855E+04 -5.402084E-10  6.083853E-10
       166  14  1.484469E+06 -5.348459E+04  1.846425E+05 -1.018134E+04  9.946137E-10 -8.920809E-11
       166  15  1.545376E+06  3.331027E+05  4.240480E+05 -6.191981E+04 -7.812124E-10  1.844413E-10
       166  16  2.507523E+05 -3.382971E+05 -1.954803E+05 -1.044455E+05 -9.486795E-10  5.517995E-10
       166  17  6.641375E+04 -4.050250E+05 -1.569387E+05  1.425667E+04  5.425548E-10  1.567768E-09
       166  18  1.975061E+03 -5.065080E+04  4.298699E+04  3.066144E+04 -1.674885E-09 -1.433477E-11
       166  19  2.842288E+06  3.043656E+05  4.287949E+05 -1.689823E+04  8.077708E+04  3.814548E+04
       166  20  2.904405E+06  2.979241E+05  5.261559E+05 -3.466987E+04  1.957157E+05  4.292378E+04
       166  21  3.091063E+06  7.167384E+05  8.051188E+05 -1.547294E+05  3.107873E+05  1.538799E+04
       166  22  1.545758E+06 -1.690602E+04  1.167272E+05 -6.071578E+04  9.012163E+04  3.816223E+04
       166  23  1.484509E+06 -5.347294E+04  1.847136E+05 -1.017477E+04  1.900772E+05  4.292294E+04
       166  24  1.545466E+06  3.331255E+05  4.242062E+05 -6.191622E+04  2.901399E+05  1.536224E+04
       166  25  2.507633E+05 -3.382928E+05 -1.954590E+05 -1.044425E+05  9.944665E+04  3.817768E+04
       166  26  6.645078E+04 -4.050139E+05 -1.568714E+05  1.426305E+04  1.844511E+05  4.292166E+04
       166  27  2.053134E+03 -5.063104E+04  4.312395E+04  3.066477E+04  2.695429E+05  1.533034E+04
       167   1  9.037414E+03  1.203675E+05  2.799254E+04 -3.518653E+04 -2.600403E+03  5.519097E+04
       167   2 -7.697289E+04  8.007458E+04 -2.591305E+04 -9.367125E+03 -7.997938E+03  3.644203E+04
       167   3 -7.630894E+04  6.380372E+04 -4.597161E+04 -6.883884E+03 -9.019384E+03  1.770850E+04
       167   4  6.832417E+04  3.588069E+05  8.683662E+04 -1.594021E+04 -2.610243E+03  5.869608E+04
       167   5 -1.085818E+04  3.466306E+05  3.836148E+04 -4.388750E+03 -8.002106E+03  3.794428E+04
       167   6 -3.038323E+03  3.588150E+05  2.511527E+04 -1.617211E+04 -9.017860E+03  1.720713E+04
       167   7  1.276081E+05  5.972988E+05  1.456767E+05  3.313542E+03 -2.619864E+03  6.220253E+04
       167   8  5.525145E+04  6.132517E+05  1.026310E+05  5.918203E+02 -8.006249E+03  3.944716E+04
       167   9  7.022625E+04  6.539060E+05  9.619597E+04 -2.546470E+04 -9.016321E+03  1.670551E+04
       167  10  9.036589E+03  1.203642E+05  2.798681E+04 -3.518641E+04  9.138759E-10  8.505982E-10
       167  11 -7.697331E+04  8.007314E+04 -2.591566E+04 -9.366890E+03  6.506417E-10 -3.241049E-10
       167  12 -7.630911E+04  6.380337E+04 -4.597235E+04 -6.883756E+03  2.014483E-10 -1.480764E-09
       167  13  6.832324E+04  3.588032E+05  8.683013E+04 -1.594009E+04  1.494715E-09 -3.578529E-11
       167  14 -1.085863E+04  3.466290E+05  3.835866E+04 -4.388506E+03  3.574457E-10  1.240744E-10
       167  15 -3.038490E+03  3.588147E+05  2.511456E+04 -1.617198E+04  5.130022E-10  6.619539E-12
       167  16  1.276071E+05  5.972947E+05  1.456695E+05  3.313673E+03  1.119031E-10 -8.108533E-10
       167  17  5.525097E+04  6.132500E+05  1.026279E+05  5.920746E+02  2.779005E-09  2.720081E-10
       167  18  7.022609E+04  6.539057E+05  9.619530E+04 -2.546458E+04  1.178753E-10  1.420750E-09
       167  19  9.037414E+03  1.203675E+05  2.799254E+04 -3.518653E+04  2.600403E+03 -5.519097E+04
       167  20 -7.697289E+04  8.007458E+04 -2.591305E+04 -9.367125E+03  7.997938E+03 -3.644203E+04
       167  21 -7.630894E+04  6.380372E+04 -4.597161E+04 -6.883884E+03  9.019384E+03 -1.770850E+04
       167  22  6.832417E+04  3.588069E+05  8.683662E+04 -1.594021E+04  2.610243E+03 -5.869608E+04
       167  23 -1.085818E+04  3.466306E+05  3.836148E+04 -4.388750E+03  8.002106E+03 -3.794428E+04
       167  24 -3.038323E+03  3.588150E+05  2.511527E+04 -1.617211E+04  9.017860E+03 -1.720713E+04
       167  25  1.276081E+05  5.972988E+05  1.456767E+05  3.313542E+03  2.619864E+03 -6.220253E+04
       167  26  5.525145E+04  6.132517E+05  1.026310E+05  5.918203E+02  8.006249E+03 -3.944716E+04
       167  27  7.022625E+04  6.539060E+05  9.619597E+04 -2.546470E+04  9.016321E+03 -1.670551E+04
       168   1 -7.642931E+04  1.578515E+04 -6.071787E+04 -1.782412E+04 -9.155009E+03  1.224172E+04
       168   2 -9.286085E+04 -1.520412E+04 -7.599992E+04 -3.910155E+03 -1.061880E+04  6.258237E+03
       168   3 -9.639202E+04 -4.215803E+04 -8.415658E+04 -1.386466E+04 -1.086278E+04  2.790183E+02
       168   4  7.629733E+03  3.543087E+05  2.118601E+04 -1.620568E+04 -9.157372E+03  1.320029E+04
       168   5 -1.644031E+03  3.522429E+05  1.269818E+04 -4.279966E+03 -1.061943E+04  6.657435E+03
       168   6  2.075720E+03  3.543068E+05  1.172153E+04 -1.622176E+04 -1.086194E+04  1.185688E+02
       168   7  9.168040E+04  6.929370E+05  1.030817E+05 -1.458629E+04 -9.159729E+03  1.415938E+04
       168   8  8.956292E+04  7.198134E+05  1.013866E+05 -4.649916E+03 -1.062005E+04  7.056868E+03
       168   9  1.005320E+05  7.509152E+05  1.075884E+05 -1.858027E+04 -1.086111E+04 -4.198279E+01
       168  10 -7.642944E+04  1.578497E+04 -6.071831E+04 -1.782403E+04 -2.029414E-09  4.303552E-10
       168  11 -9.286098E+04 -1.520419E+04 -7.600021E+04 -3.910101E+03 -1.317722E-10 -2.936982E-11
       168  12 -9.639215E+04 -4.215806E+04 -8.415680E+04 -1.386466E+04  6.711906E-11 -4.556614E-10
       168  13  7.629596E+03  3.543085E+05  2.118553E+04 -1.620559E+04 -1.011353E-09 -4.071571E-11
       168  14 -1.644164E+03  3.522428E+05  1.269789E+04 -4.279909E+03  3.931807E-10  3.454570E-11
       168  15  2.075593E+03  3.543067E+05  1.172131E+04 -1.622176E+04 -6.785672E-11  8.740884E-11
       168  16  9.168025E+04  6.929367E+05  1.030811E+05 -1.458618E+04 -2.763807E-10 -3.636448E-10
       168  17  8.956279E+04  7.198133E+05  1.013863E+05 -4.649856E+03 -8.055601E-10  1.162113E-10
       168  18  1.005319E+05  7.509152E+05  1.075881E+05 -1.858027E+04 -3.693625E-11  4.357909E-10
       168  19 -7.642931E+04  1.578515E+04 -6.071787E+04 -1.782412E+04  9.155009E+03 -1.224172E+04
       168  20 -9.286085E+04 -1.520412E+04 -7.599992E+04 -3.910155E+03  1.061880E+04 -6.258237E+03
       168  21 -9.639202E+04 -4.215803E+04 -8.415658E+04 -1.386466E+04  1.086278E+04 -2.790183E+02
       168  22  7.629733E+03  3.543087E+05  2.118601E+04 -1.620568E+04  9.157372E+03 -1.320029E+04
       168  23 -1.644031E+03  3.522429E+05  1.269818E+04 -4.279966E+03  1.061943E+04 -6.657435E+03
       168  24  2.075720E+03  3.543068E+05  1.172153E+04 -1.622176E+04  1.086194E+04 -1.185688E+02
       168  25  9.168040E+04  6.929370E+05  1.030817E+05 -1.458629E+04  9.159729E+03 -1.415938E+04
       168  26  8.956292E+04  7.198134E+05  1.013866E+05 -4.649916E+03  1.062005E+04 -7.056868E+03
       168  27  1.005320E+05  7.509152E+05  1.075884E+05 -1.858027E+04  1.086111E+04  4.198279E+01
       169   1 -1.096043E+05 -8.574666E+04 -9.461351E+04 -1.844257E+04 -1.297504E+04 -4.812933E+03
       169   2 -1.203307E+05 -1.192680E+05 -9.965865E+04 -1.763567E+03 -1.405139E+04 -7.418091E+03
       169   3 -1.034489E+05 -1.453556E+05 -9.606567E+04 -9.319095E+03 -4.675766E+03 -1.000569E+04
       169   4 -1.631373E+02  3.552134E+05  1.175396E+04 -1.631163E+04 -1.298079E+04 -1.937814E+03
       169   5 -3.580754E+03  3.510822E+05  1.374210E+04 -4.177145E+03 -1.404711E+04 -9.312684E+03
       169   6  2.142649E+04  3.552058E+05  2.767454E+04 -1.627585E+04 -4.664903E+03 -1.667011E+04
       169   7  1.092638E+05  7.963513E+05  1.181076E+05 -1.417908E+04 -1.298652E+04  9.393392E+02
       169   8  1.131530E+05  8.216347E+05  1.271271E+05 -6.592462E+03 -1.404281E+04 -1.120871E+04
       169   9  1.462834E+05  8.559951E+05  1.513963E+05 -2.323813E+04 -4.653896E+03 -2.333989E+04
       169  10 -1.096045E+05 -8.574673E+04 -9.461387E+04 -1.844262E+04 -4.034209E-10  4.547416E-10
       169  11 -1.203309E+05 -1.192682E+05 -9.965913E+04 -1.763651E+03  7.603190E-10  3.127670E-10
       169  12 -1.034490E+05 -1.453557E+05 -9.606590E+04 -9.319133E+03 -8.358461E-12 -2.657828E-10
       169  13 -1.633193E+02  3.552134E+05  1.175363E+04 -1.631165E+04  1.024878E-09  3.199635E-11
       169  14 -3.580989E+03  3.510820E+05  1.374157E+04 -4.177250E+03  5.172535E-10  1.805129E-11
       169  15  2.142639E+04  3.552055E+05  2.767398E+04 -1.627591E+04  6.189490E-10 -2.349124E-11
       169  16  1.092637E+05  7.963513E+05  1.181072E+05 -1.417907E+04 -6.550958E-10 -2.850780E-10
       169  17  1.131528E+05  8.216346E+05  1.271265E+05 -6.592589E+03  9.716468E-10 -3.603811E-10
       169  18  1.462832E+05  8.559945E+05  1.513953E+05 -2.323822E+04  7.067431E-10  2.430229E-10
       169  19 -1.096043E+05 -8.574666E+04 -9.461351E+04 -1.844257E+04  1.297504E+04  4.812933E+03
       169  20 -1.203307E+05 -1.192680E+05 -9.965865E+04 -1.763567E+03  1.405139E+04  7.418091E+03
       169  21 -1.034489E+05 -1.453556E+05 -9.606567E+04 -9.319095E+03  4.675766E+03  1.000569E+04
       169  22 -1.631373E+02  3.552134E+05  1.175396E+04 -1.631163E+04  1.298079E+04  1.937814E+03
       169  23 -3.580754E+03  3.510822E+05  1.374210E+04 -4.177145E+03  1.404711E+04  9.312684E+03
       169  24  2.142649E+04  3.552058E+05  2.767454E+04 -1.627585E+04  4.664903E+03  1.667011E+04
       169  25  1.092638E+05  7.963513E+05  1.181076E+05 -1.417908E+04  1.298652E+04 -9.393392E+02
       169  26  1.131530E+05  8.216347E+05  1.271271E+05 -6.592462E+03  1.404281E+04  1.120871E+04
       169  27  1.462834E+05  8.559951E+05  1.513963E+05 -2.323813E+04  4.653896E+03  2.333989E+04
       170   1 -2.231528E+06 -7.926582E+05 -5.419301E+05 -7.597889E+05 -2.347964E+05 -8.099019E+04
       170   2 -2.161363E+06 -4.432112E+05 -3.228706E+05 -7.903181E+05 -1.535245E+05 -3.434496E+04
       170   3 -2.206369E+06 -4.406640E+05 -2.581284E+05 -7.573579E+05 -6.644528E+04 -3.025613E+03
       170   4 -1.588293E+06 -4.789659E+05 -3.522502E+05 -5.127862E+05 -2.257869E+05 -7.761225E+04
       170   5 -1.513026E+06 -1.786310E+05 -1.462421E+05 -5.927612E+05 -1.509637E+05 -3.338448E+04
       170   6 -1.551518E+06 -2.237151E+05 -8.930418E+04 -6.092863E+05 -7.033635E+04 -4.492158E+03
       170   7 -9.446480E+05 -1.651635E+05 -1.626115E+05 -2.655257E+05 -2.167669E+05 -7.422782E+04
       170   8 -8.642812E+05  8.599408E+04  3.034792E+04 -3.950107E+05 -1.484000E+05 -3.242265E+04
       170   9 -8.962505E+05 -6.762351E+03  7.948596E+04 -4.610839E+05 -7.423192E+04 -5.959925E+03
       170  10 -2.231589E+06 -7.926801E+05 -5.420465E+05 -7.598042E+05 -8.423189E-10 -3.033487E-12
       170  11 -2.161389E+06 -4.432188E+05 -3.229173E+05 -7.903223E+05  3.683353E-10 -4.969227E-12
       170  12 -2.206374E+06 -4.406652E+05 -2.581367E+05 -7.573581E+05 -4.280528E-10  1.805371E-10
       170  13 -1.588350E+06 -4.789861E+05 -3.523576E+05 -5.128004E+05  1.399797E-09  5.807711E-11
       170  14 -1.513051E+06 -1.786383E+05 -1.462872E+05 -5.927652E+05  2.383515E-09 -1.105991E-10
       170  15 -1.551523E+06 -2.237164E+05 -8.931353E+04 -6.092866E+05 -1.646475E-10  2.068674E-10
       170  16 -9.447000E+05 -1.651821E+05 -1.627103E+05 -2.655387E+05 -2.326121E-10  9.884687E-11
       170  17 -8.643052E+05  8.598702E+04  3.030449E+04 -3.950146E+05 -6.239519E-10  2.244703E-10
       170  18 -8.962564E+05 -6.763871E+03  7.947552E+04 -4.610843E+05 -4.954586E-10  5.482425E-10
       170  19 -2.231528E+06 -7.926582E+05 -5.419301E+05 -7.597889E+05  2.347964E+05  8.099019E+04
       170  20 -2.161363E+06 -4.432112E+05 -3.228706E+05 -7.903181E+05  1.535245E+05  3.434496E+04
       170  21 -2.206369E+06 -4.406640E+05 -2.581284E+05 -7.573579E+05  6.644528E+04  3.025613E+03
       170  22 -1.588293E+06 -4.789659E+05 -3.522502E+05 -5.127862E+05  2.257869E+05  7.761225E+04
       170  23 -1.513026E+06 -1.786310E+05 -1.462421E+05 -5.927612E+05  1.509637E+05  3.338448E+04
       170  24 -1.551518E+06 -2.237151E+05 -8.930418E+04 -6.092863E+05  7.033635E+04  4.492158E+03
       170  25 -9.446480E+05 -1.651635E+05 -1.626115E+05 -2.655257E+05  2.167669E+05  7.422782E+04
       170  26 -8.642812E+05  8.599408E+04  3.034792E+04 -3.950107E+05  1.484000E+05  3.242265E+04
       170  27 -8.962505E+05 -6.762351E+03  7.948596E+04 -4.610839E+05  7.423192E+04  5.959925E+03
       171   1 -2.111172E+06 -4.858859E+05 -2.273234E+05 -7.528218E+05 -5.660016E+04 -2.761597E+03
       171   2 -2.080373E+06 -4.221735E+05 -1.789762E+05 -7.353732E+05 -3.791682E+04  4.169027E+03
       171   3 -2.042731E+06 -4.202146E+05 -1.549429E+05 -7.347144E+05 -1.867651E+04  9.620515E+03
       171   4 -1.539244E+06 -2.623101E+05 -7.287322E+04 -5.887015E+05 -5.636193E+04 -2.673783E+03
       171   5 -1.540593E+06 -2.165664E+05 -3.453947E+04 -5.859285E+05 -3.829196E+04  4.026447E+03
       171   6 -1.534963E+06 -2.324319E+05 -2.001467E+04 -5.999479E+05 -1.966628E+04  9.247350E+03
       171   7 -9.670019E+05 -3.870874E+04  8.154726E+04 -4.244426E+05 -5.612344E+04 -2.585860E+03
       171   8 -1.000531E+06 -1.094018E+04  1.098716E+05 -4.363659E+05 -3.866745E+04  3.883733E+03
       171   9 -1.026944E+06 -4.463585E+04  1.148915E+05 -4.650825E+05 -2.065694E+04  8.873866E+03
       171  10 -2.111175E+06 -4.858868E+05 -2.273294E+05 -7.528219E+05 -9.739350E-10  6.625880E-11
       171  11 -2.080374E+06 -4.221740E+05 -1.789790E+05 -7.353731E+05 -2.070898E-09 -3.841246E-10
       171  12 -2.042731E+06 -4.202148E+05 -1.549437E+05 -7.347142E+05 -7.845138E-10 -4.931600E-11
       171  13 -1.539248E+06 -2.623109E+05 -7.287922E+04 -5.887016E+05 -2.784897E-09  6.632929E-11
       171  14 -1.540594E+06 -2.165668E+05 -3.454226E+04 -5.859284E+05 -1.429953E-09 -7.062965E-10
       171  15 -1.534963E+06 -2.324321E+05 -2.001555E+04 -5.999477E+05 -4.232599E-10 -5.934473E-11
       171  16 -9.670053E+05 -3.870959E+04  8.154132E+04 -4.244427E+05 -1.040309E-09 -1.355236E-10
       171  17 -1.000532E+06 -1.094060E+04  1.098688E+05 -4.363657E+05 -2.244391E-09 -1.828374E-10
       171  18 -1.026945E+06 -4.463604E+04  1.148906E+05 -4.650824E+05  9.166317E-10  6.111844E-11
       171  19 -2.111172E+06 -4.858859E+05 -2.273234E+05 -7.528218E+05  5.660016E+04  2.761597E+03
       171  20 -2.080373E+06 -4.221735E+05 -1.789762E+05 -7.353732E+05  3.791682E+04 -4.169027E+03
       171  21 -2.042731E+06 -4.202146E+05 -1.549429E+05 -7.347144E+05  1.867651E+04 -9.620515E+03
       171  22 -1.539244E+06 -2.623101E+05 -7.287322E+04 -5.887015E+05  5.636193E+04  2.673783E+03
       171  23 -1.540593E+06 -2.165664E+05 -3.453947E+04 -5.859285E+05  3.829196E+04 -4.026447E+03
       171  24 -1.534963E+06 -2.324319E+05 -2.001467E+04 -5.999479E+05  1.966628E+04 -9.247350E+03
       171  25 -9.670019E+05 -3.870874E+04  8.154726E+04 -4.244426E+05  5.612344E+04  2.585860E+03
       171  26 -1.000531E+06 -1.094018E+04  1.098716E+05 -4.363659E+05  3.866745E+04 -3.883733E+03
       171  27 -1.026944E+06 -4.463585E+04  1.148915E+05 -4.650825E+05  2.065694E+04 -8.873866E+03
       172   1 -1.973450E+06 -4.042359E+05 -1.333257E+05 -7.190880E+05 -1.572467E+04  9.424195E+03
       172   2 -1.944975E+06 -3.712978E+05 -1.148867E+05 -6.936369E+05 -1.095362E+04  9.453432E+03
       172   3 -1.892301E+06 -3.689979E+05 -1.007291E+05 -6.969714E+05 -6.108057E+03  9.279650E+03
       172   4 -1.532807E+06 -2.374343E+05 -1.570675E+04 -5.981300E+05 -1.634535E+04  9.190084E+03
       172   5 -1.544663E+06 -2.203720E+05 -8.061427E+03 -5.843949E+05 -1.165774E+04  9.188365E+03
       172   6 -1.532305E+06 -2.339279E+05 -4.628494E+03 -5.994446E+05 -6.895961E+03  8.983576E+03
       172   7 -1.091976E+06 -7.062065E+04  1.018952E+05 -4.770944E+05 -1.696651E+04  8.955790E+03
       172   8 -1.144198E+06 -6.943683E+04  9.874972E+04 -4.750894E+05 -1.236237E+04  8.923112E+03
       172   9 -1.172186E+06 -9.885084E+04  9.146050E+04 -5.018671E+05 -7.684365E+03  8.687315E+03
       172  10 -1.973451E+06 -4.042361E+05 -1.333263E+05 -7.190878E+05  7.982078E-10  3.146786E-10
       172  11 -1.944975E+06 -3.712979E+05 -1.148871E+05 -6.936368E+05  1.659925E-10 -4.495216E-10
       172  12 -1.892301E+06 -3.689980E+05 -1.007293E+05 -6.969713E+05  3.545337E-10  2.655920E-10
       172  13 -1.532808E+06 -2.374345E+05 -1.570741E+04 -5.981299E+05  1.382930E-09  9.769206E-12
       172  14 -1.544663E+06 -2.203721E+05 -8.061841E+03 -5.843948E+05 -6.500550E-10 -1.082291E-10
       172  15 -1.532305E+06 -2.339280E+05 -4.628735E+03 -5.994445E+05 -8.256582E-10  6.969174E-11
       172  16 -1.091977E+06 -7.062081E+04  1.018945E+05 -4.770942E+05  1.109679E-09 -2.679242E-10
       172  17 -1.144198E+06 -6.943695E+04  9.874929E+04 -4.750893E+05  2.490833E-10 -5.255249E-10
       172  18 -1.172186E+06 -9.885094E+04  9.146025E+04 -5.018670E+05 -8.518224E-10 -2.131938E-11
       172  19 -1.973450E+06 -4.042359E+05 -1.333257E+05 -7.190880E+05  1.572467E+04 -9.424195E+03
       172  20 -1.944975E+06 -3.712978E+05 -1.148867E+05 -6.936369E+05  1.095362E+04 -9.453432E+03
       172  21 -1.892301E+06 -3.689979E+05 -1.007291E+05 -6.969714E+05  6.108057E+03 -9.279650E+03
       172  22 -1.532807E+06 -2.374343E+05 -1.570675E+04 -5.981300E+05  1.634535E+04 -9.190084E+03
       172  23 -1.544663E+06 -2.203720E+05 -8.061427E+03 -5.843949E+05  1.165774E+04 -9.188365E+03
       172  24 -1.532305E+06 -2.339279E+05 -4.628494E+03 -5.994446E+05  6.895961E+03 -8.983576E+03
       172  25 -1.091976E+06 -7.062065E+04  1.018952E+05 -4.770944E+05  1.696651E+04 -8.955790E+03
       172  26 -1.144198E+06 -6.943683E+04  9.874972E+04 -4.750894E+05  1.236237E+04 -8.923112E+03
       172  27 -1.172186E+06 -9.885084E+04  9.146050E+04 -5.018671E+05  7.684365E+03 -8.687315E+03
       173   1 -1.820930E+06 -3.437565E+05 -8.063869E+04 -6.784601E+05 -5.065325E+03  8.461349E+03
       173   2 -1.790926E+06 -3.126239E+05 -6.760230E+04 -6.504320E+05 -3.271175E+03  7.076029E+03
       173   3 -1.733061E+06 -3.101798E+05 -5.552979E+04 -6.544981E+05 -1.456331E+03  5.632123E+03
       173   4 -1.531676E+06 -2.348746E+05 -3.638531E+03 -5.996575E+05 -5.822091E+03  8.177216E+03
       173   5 -1.545576E+06 -2.203311E+05 -2.174165E+03 -5.836850E+05 -4.052340E+03  6.783014E+03
       173   6 -1.531615E+06 -2.344706E+05 -1.654108E+03 -5.998068E+05 -2.261991E+03  5.330214E+03
       173   7 -1.242341E+06 -1.259875E+05  7.335454E+04 -5.208215E+05 -6.579248E+03  7.892938E+03
       173   8 -1.300169E+06 -1.280345E+05  6.324879E+04 -5.169142E+05 -4.833847E+03  6.489872E+03
       173   9 -1.330129E+06 -1.587591E+05  5.221802E+04 -5.450995E+05 -3.067940E+03  5.028197E+03
       173  10 -1.820930E+06 -3.437566E+05 -8.063887E+04 -6.784601E+05 -3.817785E-10  6.817776E-10
       173  11 -1.790926E+06 -3.126240E+05 -6.760241E+04 -6.504320E+05 -1.295124E-10  4.191396E-10
       173  12 -1.733061E+06 -3.101799E+05 -5.552986E+04 -6.544980E+05  6.952817E-10  1.503711E-10
       173  13 -1.531676E+06 -2.348747E+05 -3.638721E+03 -5.996574E+05 -6.358698E-10  2.716373E-10
       173  14 -1.545576E+06 -2.203311E+05 -2.174282E+03 -5.836850E+05  1.696122E-10  3.630258E-10
       173  15 -1.531615E+06 -2.344707E+05 -1.654171E+03 -5.998068E+05 -3.228372E-10  4.992653E-11
       173  16 -1.242341E+06 -1.259876E+05  7.335434E+04 -5.208215E+05  4.104025E-10  3.561592E-10
       173  17 -1.300169E+06 -1.280346E+05  6.324867E+04 -5.169141E+05  2.716524E-10  1.542718E-10
       173  18 -1.330129E+06 -1.587591E+05  5.221796E+04 -5.450995E+05 -1.862394E-10  2.514330E-10
       173  19 -1.820930E+06 -3.437565E+05 -8.063869E+04 -6.784601E+05  5.065325E+03 -8.461349E+03
       173  20 -1.790926E+06 -3.126239E+05 -6.760230E+04 -6.504320E+05  3.271175E+03 -7.076029E+03
       173  21 -1.733061E+06 -3.101798E+05 -5.552979E+04 -6.544981E+05  1.456331E+03 -5.632123E+03
       173  22 -1.531676E+06 -2.348746E+05 -3.638531E+03 -5.996575E+05  5.822091E+03 -8.177216E+03
       173  23 -1.545576E+06 -2.203311E+05 -2.174165E+03 -5.836850E+05  4.052340E+03 -6.783014E+03
       173  24 -1.531615E+06 -2.344706E+05 -1.654108E+03 -5.998068E+05  2.261991E+03 -5.330214E+03
       173  25 -1.242341E+06 -1.259875E+05  7.335454E+04 -5.208215E+05  6.579248E+03 -7.892938E+03
       173  26 -1.300169E+06 -1.280345E+05  6.324879E+04 -5.169142E+05  4.833847E+03 -6.489872E+03
       173  27 -1.330129E+06 -1.587591E+05  5.221802E+04 -5.450995E+05  3.067940E+03 -5.028197E+03
       174   1 -1.658473E+06 -2.825071E+05 -3.534034E+04 -6.346685E+05 -7.730776E+02  4.630203E+03
       174   2 -1.627350E+06 -2.506808E+05 -2.368264E+04 -6.055095E+05  9.219709E+02  3.102036E+03
       174   3 -1.567424E+06 -2.484801E+05 -1.289375E+04 -6.096719E+05  2.620288E+03  1.564047E+03
       174   4 -1.531403E+06 -2.347156E+05 -1.623468E+03 -6.000625E+05 -1.579060E+03  4.328315E+03
       174   5 -1.545821E+06 -2.200360E+05 -1.947276E+03 -5.833513E+05  1.119371E+02  2.798722E+03
       174   6 -1.531438E+06 -2.349810E+05 -3.136529E+03 -5.999622E+05  1.806124E+03  1.259285E+03
       174   7 -1.404317E+06 -1.869233E+05  3.209192E+04 -5.654503E+05 -2.385223E+03  4.026359E+03
       174   8 -1.464285E+06 -1.893907E+05  1.978751E+04 -5.611905E+05 -6.982137E+02  2.495364E+03
       174   9 -1.495450E+06 -2.214819E+05  6.620606E+03 -5.902519E+05  9.919067E+02  9.545025E+02
       174  10 -1.658473E+06 -2.825071E+05 -3.534039E+04 -6.346685E+05 -2.702835E-11  3.911370E-10
       174  11 -1.627350E+06 -2.506808E+05 -2.368266E+04 -6.055095E+05  1.489119E-10  6.094805E-10
       174  12 -1.567424E+06 -2.484801E+05 -1.289377E+04 -6.096719E+05  1.317010E-09  3.181481E-10
       174  13 -1.531403E+06 -2.347157E+05 -1.623508E+03 -6.000625E+05 -4.864825E-10  2.196411E-10
       174  14 -1.545821E+06 -2.200360E+05 -1.947291E+03 -5.833513E+05 -1.159925E-09  2.849178E-10
       174  15 -1.531438E+06 -2.349810E+05 -3.136538E+03 -5.999622E+05  1.712598E-09  2.766460E-10
       174  16 -1.404317E+06 -1.869233E+05  3.209188E+04 -5.654503E+05 -7.675595E-10 -3.414770E-12
       174  17 -1.464285E+06 -1.893907E+05  1.978750E+04 -5.611905E+05  7.175929E-10 -9.534302E-11
       174  18 -1.495450E+06 -2.214819E+05  6.620603E+03 -5.902519E+05  1.590543E-09  2.327482E-10
       174  19 -1.658473E+06 -2.825071E+05 -3.534034E+04 -6.346685E+05  7.730776E+02 -4.630203E+03
       174  20 -1.627350E+06 -2.506808E+05 -2.368264E+04 -6.055095E+05 -9.219709E+02 -3.102036E+03
       174  21 -1.567424E+06 -2.484801E+05 -1.289375E+04 -6.096719E+05 -2.620288E+03 -1.564047E+03
       174  22 -1.531403E+06 -2.347156E+05 -1.623468E+03 -6.000625E+05  1.579060E+03 -4.328315E+03
       174  23 -1.545821E+06 -2.200360E+05 -1.947276E+03 -5.833513E+05 -1.119371E+02 -2.798722E+03
       174  24 -1.531438E+06 -2.349810E+05 -3.136529E+03 -5.999622E+05 -1.806124E+03 -1.259285E+03
       174  25 -1.404317E+06 -1.869233E+05  3.209192E+04 -5.654503E+05  2.385223E+03 -4.026359E+03
       174  26 -1.464285E+06 -1.893907E+05  1.978751E+04 -5.611905E+05  6.982137E+02 -2.495364E+03
       174  27 -1.495450E+06 -2.214819E+05  6.620606E+03 -5.902519E+05 -9.919067E+02 -9.545025E+02
       175   1 -1.491679E+06 -2.199198E+05  6.779505E+03 -5.897691E+05  3.649233E+03  6.589920E+02
       175   2 -1.460303E+06 -1.874538E+05  1.590007E+04 -5.601370E+05  7.802303E+03  3.272037E+01
       175   3 -1.401699E+06 -1.879084E+05  2.142682E+04 -5.630405E+05  1.191941E+04 -4.955902E+02
       175   4 -1.531629E+06 -2.345765E+05 -3.970087E+03 -6.002138E+05  2.813107E+03  3.460092E+02
       175   5 -1.545446E+06 -2.195723E+05 -6.817179E+03 -5.834000E+05  7.007350E+03 -2.649566E+02
       175   6 -1.532045E+06 -2.374975E+05 -1.329106E+04 -5.991229E+05  1.116535E+04 -7.780564E+02
       175   7 -1.571578E+06 -2.492332E+05 -1.471981E+04 -6.106578E+05  1.977041E+03  3.304727E+01
       175   8 -1.630582E+06 -2.516903E+05 -2.953503E+04 -6.066600E+05  6.212518E+03 -5.625879E+02
       175   9 -1.662375E+06 -2.870854E+05 -4.801032E+04 -6.351984E+05  1.041146E+04 -1.060455E+03
       175  10 -1.491679E+06 -2.199198E+05  6.779479E+03 -5.897691E+05  1.333018E-09  9.408459E-11
       175  11 -1.460303E+06 -1.874538E+05  1.589996E+04 -5.601370E+05  9.404950E-10  4.116229E-10
       175  12 -1.401700E+06 -1.879084E+05  2.142655E+04 -5.630405E+05  2.731049E-10  1.547116E-10
       175  13 -1.531629E+06 -2.345765E+05 -3.970102E+03 -6.002138E+05  1.418959E-09  1.481078E-10
       175  14 -1.545446E+06 -2.195723E+05 -6.817271E+03 -5.834000E+05 -9.051110E-10 -4.877938E-10
       175  15 -1.532046E+06 -2.374976E+05 -1.329129E+04 -5.991229E+05 -1.537242E-09  1.342122E-11
       175  16 -1.571578E+06 -2.492332E+05 -1.471982E+04 -6.106578E+05  1.614468E-09  1.159708E-10
       175  17 -1.630582E+06 -2.516903E+05 -2.953510E+04 -6.066600E+05 -7.456628E-10 -2.092016E-11
       175  18 -1.662375E+06 -2.870855E+05 -4.801053E+04 -6.351984E+05 -5.510930E-10  2.171305E-11
       175  19 -1.491679E+06 -2.199198E+05  6.779505E+03 -5.897691E+05 -3.649233E+03 -6.589920E+02
       175  20 -1.460303E+06 -1.874538E+05  1.590007E+04 -5.601370E+05 -7.802303E+03 -3.272037E+01
       175  21 -1.401699E+06 -1.879084E+05  2.142682E+04 -5.630405E+05 -1.191941E+04  4.955902E+02
       175  22 -1.531629E+06 -2.345765E+05 -3.970087E+03 -6.002138E+05 -2.813107E+03 -3.460092E+02
       175  23 -1.545446E+06 -2.195723E+05 -6.817179E+03 -5.834000E+05 -7.007350E+03  2.649566E+02
       175  24 -1.532045E+06 -2.374975E+05 -1.329106E+04 -5.991229E+05 -1.116535E+04  7.780564E+02
       175  25 -1.571578E+06 -2.492332E+05 -1.471981E+04 -6.106578E+05 -1.977041E+03 -3.304727E+01
       175  26 -1.630582E+06 -2.516903E+05 -2.953503E+04 -6.066600E+05 -6.212518E+03  5.625879E+02
       175  27 -1.662375E+06 -2.870854E+05 -4.801032E+04 -6.351984E+05 -1.041146E+04  1.060455E+03
       176   1 -1.326239E+06 -1.587372E+05  3.788812E+04 -5.478602E+05  1.507764E+04 -7.169509E+02
       176   2 -1.294556E+06 -1.211529E+05  3.719024E+04 -5.151625E+05  3.061366E+04  2.980712E+03
       176   3 -1.248794E+06 -1.440517E+05  1.661866E+04 -5.065792E+05  4.579278E+04  7.637470E+03
       176   4 -1.533577E+06 -2.335991E+05 -1.693651E+04 -6.010168E+05  1.407697E+04 -1.091835E+03
       176   5 -1.542366E+06 -2.159419E+05 -2.916238E+04 -5.842308E+05  3.001537E+04  2.756134E+03
       176   6 -1.537163E+06 -2.588583E+05 -6.158828E+04 -5.915606E+05  4.559574E+04  7.562707E+03
       176   7 -1.740875E+06 -3.084595E+05 -7.176496E+04 -6.541579E+05  1.307666E+04 -1.466595E+03
       176   8 -1.790116E+06 -3.107270E+05 -9.552050E+04 -6.532741E+05  2.941735E+04  2.531657E+03
       176   9 -1.825451E+06 -3.736573E+05 -1.398027E+05 -6.765054E+05  4.539881E+04  7.487986E+03
       176  10 -1.326239E+06 -1.587373E+05  3.788769E+04 -5.478602E+05 -3.497972E-10 -6.434395E-11
       176  11 -1.294557E+06 -1.211531E+05  3.718846E+04 -5.151626E+05 -1.375440E-10 -6.902507E-10
       176  12 -1.248796E+06 -1.440524E+05  1.661460E+04 -5.065794E+05 -1.004803E-10  1.100000E-10
       176  13 -1.533578E+06 -2.335991E+05 -1.693688E+04 -6.010168E+05 -1.085262E-09 -9.593488E-11
       176  14 -1.542366E+06 -2.159422E+05 -2.916409E+04 -5.842308E+05 -6.794256E-10 -2.192115E-11
       176  15 -1.537165E+06 -2.588590E+05 -6.159231E+04 -5.915609E+05  3.348407E-10  4.213726E-10
       176  16 -1.740875E+06 -3.084595E+05 -7.176528E+04 -6.541579E+05 -3.593619E-10 -1.561697E-10
       176  17 -1.790117E+06 -3.107272E+05 -9.552215E+04 -6.532741E+05  3.130006E-10  4.299679E-10
       176  18 -1.825453E+06 -3.736579E+05 -1.398067E+05 -6.765057E+05  1.549412E-10  3.836322E-10
       176  19 -1.326239E+06 -1.587372E+05  3.788812E+04 -5.478602E+05 -1.507764E+04  7.169509E+02
       176  20 -1.294556E+06 -1.211529E+05  3.719024E+04 -5.151625E+05 -3.061366E+04 -2.980712E+03
       176  21 -1.248794E+06 -1.440517E+05  1.661866E+04 -5.065792E+05 -4.579278E+04 -7.637470E+03
       176  22 -1.533577E+06 -2.335991E+05 -1.693651E+04 -6.010168E+05 -1.407697E+04  1.091835E+03
       176  23 -1.542366E+06 -2.159419E+05 -2.916238E+04 -5.842308E+05 -3.001537E+04 -2.756134E+03
       176  24 -1.537163E+06 -2.588583E+05 -6.158828E+04 -5.915606E+05 -4.559574E+04 -7.562707E+03
       176  25 -1.740875E+06 -3.084595E+05 -7.176496E+04 -6.541579E+05 -1.307666E+04  1.466595E+03
       176  26 -1.790116E+06 -3.107270E+05 -9.552050E+04 -6.532741E+05 -2.941735E+04 -2.531657E+03
       176  27 -1.825451E+06 -3.736573E+05 -1.398027E+05 -6.765054E+05 -4.539881E+04 -7.487986E+03
       177   1 -1.165419E+06 -1.083843E+05  2.135665E+04 -5.315893E+05  6.034331E+04  1.022939E+04
       177   2 -1.127561E+06 -1.974151E+04 -1.611491E+04 -4.660378E+05  1.244336E+05  3.227279E+04
       177   3 -1.175351E+06 -2.320604E+05 -1.761681E+05 -3.585324E+05  1.847013E+05  6.450857E+04
       177   4 -1.547346E+06 -2.264473E+05 -7.547351E+04 -6.091777E+05  5.739561E+04  9.125872E+03
       177   5 -1.519407E+06 -1.835171E+05 -1.235348E+05 -5.896014E+05  1.257861E+05  3.277610E+04
       177   6 -1.578047E+06 -4.425217E+05 -2.976542E+05 -5.280547E+05  1.903513E+05  6.661055E+04
       177   7 -1.929130E+06 -3.445113E+05 -1.723145E+05 -6.867281E+05  5.444990E+04  8.022798E+03
       177   8 -1.911103E+06 -3.472734E+05 -2.309687E+05 -7.130908E+05  1.271377E+05  3.327896E+04
       177   9 -1.980577E+06 -6.529239E+05 -4.191562E+05 -6.974631E+05  1.959974E+05  6.870966E+04
       177  10 -1.165423E+06 -1.083854E+05  2.134960E+04 -5.315898E+05 -3.712962E-10  3.129202E-10
       177  11 -1.127578E+06 -1.974680E+04 -1.614603E+04 -4.660410E+05 -1.116028E-09 -1.336362E-10
       177  12 -1.175389E+06 -2.320740E+05 -1.762402E+05 -3.585420E+05 -9.597211E-11 -2.546696E-10
       177  13 -1.547349E+06 -2.264483E+05 -7.547987E+04 -6.091782E+05 -6.171615E-10  2.443553E-10
       177  14 -1.519424E+06 -1.835226E+05 -1.235666E+05 -5.896047E+05 -3.560330E-10  2.084731E-10
       177  15 -1.578087E+06 -4.425362E+05 -2.977309E+05 -5.280649E+05  2.796348E-10 -3.565641E-10
       177  16 -1.929133E+06 -3.445122E+05 -1.723202E+05 -6.867284E+05 -4.589220E-10  1.335331E-10
       177  17 -1.911121E+06 -3.472789E+05 -2.310013E+05 -7.130942E+05  5.934538E-10  1.195067E-10
       177  18 -1.980620E+06 -6.529393E+05 -4.192376E+05 -6.974740E+05  3.082367E-10 -1.245238E-10
       177  19 -1.165419E+06 -1.083843E+05  2.135665E+04 -5.315893E+05 -6.034331E+04 -1.022939E+04
       177  20 -1.127561E+06 -1.974151E+04 -1.611491E+04 -4.660378E+05 -1.244336E+05 -3.227279E+04
       177  21 -1.175351E+06 -2.320604E+05 -1.761681E+05 -3.585324E+05 -1.847013E+05 -6.450857E+04
       177  22 -1.547346E+06 -2.264473E+05 -7.547351E+04 -6.091777E+05 -5.739561E+04 -9.125872E+03
       177  23 -1.519407E+06 -1.835171E+05 -1.235348E+05 -5.896014E+05 -1.257861E+05 -3.277610E+04
       177  24 -1.578047E+06 -4.425217E+05 -2.976542E+05 -5.280547E+05 -1.903513E+05 -6.661055E+04
       177  25 -1.929130E+06 -3.445113E+05 -1.723145E+05 -6.867281E+05 -5.444990E+04 -8.022798E+03
       177  26 -1.911103E+06 -3.472734E+05 -2.309687E+05 -7.130908E+05 -1.271377E+05 -3.327896E+04
       177  27 -1.980577E+06 -6.529239E+05 -4.191562E+05 -6.974631E+05 -1.959974E+05 -6.870966E+04
       178   1 -1.428013E+06 -2.939095E+05 -2.565561E+05 -3.043932E+04  8.454820E+04  1.588287E+04
       178   2 -1.332984E+06 -4.052343E+05 -3.062397E+05 -6.212075E+03  6.372568E+04  4.659083E+04
       178   3 -1.192803E+06 -3.628143E+05 -3.031419E+05 -7.824136E+04  4.301653E+04  4.227745E+04
       178   4  2.412497E+05  1.224601E+05  1.563652E+05 -6.150180E+04  1.067278E+05  1.595701E+04
       178   5  2.173729E+05 -2.018593E+04  6.781682E+04 -1.316451E+04  6.988072E+04  4.659875E+04
       178   6  2.413149E+05 -6.508685E+03  4.307768E+04 -6.106587E+04  3.315217E+04  4.225611E+04
       178   7  1.913051E+06  5.386258E+05  5.690820E+05 -9.265024E+04  1.289668E+05  1.602883E+04
       178   8  1.769931E+06  3.646871E+05  4.417016E+05 -2.013585E+04  7.605093E+04  4.660652E+04
       178   9  1.677316E+06  3.496476E+05  3.891505E+05 -4.385118E+04  2.326500E+04  4.223426E+04
       178  10 -1.428020E+06 -2.939117E+05 -2.565701E+05 -3.044041E+04  7.608255E-10  3.990765E-10
       178  11 -1.332989E+06 -4.052377E+05 -3.062514E+05 -6.214468E+03  1.368175E-10 -1.564705E-09
       178  12 -1.192805E+06 -3.628167E+05 -3.031487E+05 -7.824283E+04  8.953393E-10 -7.579073E-10
       178  13  2.412374E+05  1.224568E+05  1.563433E+05 -6.150317E+04  1.060181E-09 -1.261425E-09
       178  14  2.173671E+05 -2.018957E+04  6.780356E+04 -1.316713E+04  1.678239E-12 -6.662690E-10
       178  15  2.413132E+05 -6.510898E+03  4.307226E+04 -6.106700E+04  5.955568E-11 -1.066013E-09
       178  16  1.913033E+06  5.386211E+05  5.690504E+05 -9.265191E+04  4.834908E-10  1.238504E-09
       178  17  1.769924E+06  3.646832E+05  4.416867E+05 -2.013870E+04  9.038079E-10 -1.272224E-09
       178  18  1.677315E+06  3.496456E+05  3.891461E+05 -4.385197E+04 -1.407997E-10 -1.121189E-09
       178  19 -1.428013E+06 -2.939095E+05 -2.565561E+05 -3.043932E+04 -8.454820E+04 -1.588287E+04
       178  20 -1.332984E+06 -4.052343E+05 -3.062397E+05 -6.212075E+03 -6.372568E+04 -4.659083E+04
       178  21 -1.192803E+06 -3.628143E+05 -3.031419E+05 -7.824136E+04 -4.301653E+04 -4.227745E+04
       178  22  2.412497E+05  1.224601E+05  1.563652E+05 -6.150180E+04 -1.067278E+05 -1.595701E+04
       178  23  2.173729E+05 -2.018593E+04  6.781682E+04 -1.316451E+04 -6.988072E+04 -4.659875E+04
       178  24  2.413149E+05 -6.508685E+03  4.307768E+04 -6.106587E+04 -3.315217E+04 -4.225611E+04
       178  25  1.913051E+06  5.386258E+05  5.690820E+05 -9.265024E+04 -1.289668E+05 -1.602883E+04
       178  26  1.769931E+06  3.646871E+05  4.417016E+05 -2.013585E+04 -7.605093E+04 -4.660652E+04
       178  27  1.677316E+06  3.496476E+05  3.891505E+05 -4.385118E+04 -2.326500E+04 -4.223426E+04
       179   1 -1.025470E+06 -2.992636E+05 -2.692361E+05 -5.846797E+04  2.639813E+04  3.452053E+04
       179   2 -9.135336E+05 -2.862804E+05 -2.583418E+05 -1.278369E+04  1.867721E+04  3.293655E+04
       179   3 -7.943072E+05 -2.558173E+05 -2.376473E+05 -6.246112E+04  1.094661E+04  2.844935E+04
       179   4  2.324887E+05  1.332590E+04  3.516545E+04 -6.100293E+04  2.637746E+04  3.451579E+04
       179   5  2.287609E+05 -2.537794E+03  1.757812E+04 -1.332139E+04  1.731795E+04  3.293203E+04
       179   6  2.325315E+05 -7.055658E+02  1.070664E+04 -6.099027E+04  8.250176E+03  2.844742E+04
       179   7  1.491895E+06  3.257995E+05  3.394533E+05 -6.354337E+04  2.635670E+04  3.451105E+04
       179   8  1.372249E+06  2.811094E+05  2.934045E+05 -1.386018E+04  1.595617E+04  3.292753E+04
       179   9  1.260335E+06  2.543290E+05  2.589848E+05 -5.951684E+04  5.549281E+03  2.844548E+04
       179  10 -1.025471E+06 -2.992650E+05 -2.692397E+05 -5.846871E+04 -3.178009E-10 -3.801452E-10
       179  11 -9.135342E+05 -2.862817E+05 -2.583444E+05 -1.278419E+04  3.633809E-10  4.718826E-10
       179  12 -7.943076E+05 -2.558182E+05 -2.376490E+05 -6.246137E+04  1.138763E-09  6.616906E-10
       179  13  2.324876E+05  1.332443E+04  3.516191E+04 -6.100366E+04 -1.114963E-09 -7.957467E-10
       179  14  2.287603E+05 -2.539039E+03  1.757552E+04 -1.332185E+04 -9.973933E-10  1.012203E-09
       179  15  2.325312E+05 -7.064531E+02  1.070499E+04 -6.099046E+04  6.604780E-10 -1.577853E-10
       179  16  1.491894E+06  3.257980E+05  3.394498E+05 -6.354410E+04  1.139276E-09 -1.726490E-10
       179  17  1.372249E+06  2.811082E+05  2.934020E+05 -1.386060E+04  5.099914E-10  4.486373E-10
       179  18  1.260334E+06  2.543281E+05  2.589833E+05 -5.951697E+04  9.774531E-10 -3.219456E-10
       179  19 -1.025470E+06 -2.992636E+05 -2.692361E+05 -5.846797E+04 -2.639813E+04 -3.452053E+04
       179  20 -9.135336E+05 -2.862804E+05 -2.583418E+05 -1.278369E+04 -1.867721E+04 -3.293655E+04
       179  21 -7.943072E+05 -2.558173E+05 -2.376473E+05 -6.246112E+04 -1.094661E+04 -2.844935E+04
       179  22  2.324887E+05  1.332590E+04  3.516545E+04 -6.100293E+04 -2.637746E+04 -3.451579E+04
       179  23  2.287609E+05 -2.537794E+03  1.757812E+04 -1.332139E+04 -1.731795E+04 -3.293203E+04
       179  24  2.325315E+05 -7.055658E+02  1.070664E+04 -6.099027E+04 -8.250176E+03 -2.844742E+04
       179  25  1.491895E+06  3.257995E+05  3.394533E+05 -6.354337E+04 -2.635670E+04 -3.451105E+04
       179  26  1.372249E+06  2.811094E+05  2.934045E+05 -1.386018E+04 -1.595617E+04 -3.292753E+04
       179  27  1.260335E+06  2.543290E+05  2.589848E+05 -5.951684E+04 -5.549281E+03 -2.844548E+04
       180   1 -6.213332E+05 -2.102979E+05 -1.972909E+05 -6.003971E+04  8.417585E+03  2.540880E+04
       180   2 -5.074755E+05 -1.836382E+05 -1.737406E+05 -1.286011E+04  6.240118E+03  2.117388E+04
       180   3 -3.923053E+05 -1.547949E+05 -1.481283E+05 -6.018142E+04  4.054518E+03  1.670997E+04
       180   4  2.312525E+05  1.395414E+03  8.364727E+03 -6.080215E+04  6.545144E+03  2.540796E+04
       180   5  2.306065E+05 -3.391547E+02  4.526461E+03 -1.355572E+04  4.260340E+03  2.117466E+04
       180   6  2.312789E+05  1.282015E+02  2.823467E+03 -6.080322E+04  1.967803E+03  1.671254E+04
       180   7  1.084503E+06  2.130356E+05  2.139684E+05 -6.156549E+04  4.670133E+03  2.540713E+04
       180   8  9.691868E+05  1.829200E+05  1.827545E+05 -1.425200E+04  2.278214E+03  2.117545E+04
       180   9  8.552185E+05  1.550228E+05  1.537473E+05 -6.142548E+04 -1.210028E+02  1.671511E+04
       180  10 -6.213334E+05 -2.102986E+05 -1.972923E+05 -6.003988E+04  1.270179E-10 -8.194649E-11
       180  11 -5.074757E+05 -1.836386E+05 -1.737415E+05 -1.286021E+04 -8.499939E-10 -4.424635E-10
       180  12 -3.923054E+05 -1.547952E+05 -1.481289E+05 -6.018147E+04 -9.770457E-10 -8.173956E-10
       180  13  2.312522E+05  1.394709E+03  8.363434E+03 -6.080229E+04  1.028102E-11 -5.238142E-10
       180  14  2.306064E+05 -3.396411E+02  4.525585E+03 -1.355579E+04 -6.008199E-10  7.679652E-10
       180  15  2.312788E+05  1.279005E+02  2.822935E+03 -6.080325E+04 -4.027806E-10  1.478201E-09
       180  16  1.084503E+06  2.130349E+05  2.139672E+05 -6.156558E+04  4.007323E-10 -7.423997E-10
       180  17  9.691867E+05  1.829195E+05  1.827537E+05 -1.425204E+04 -1.056395E-09 -4.863865E-10
       180  18  8.552184E+05  1.550225E+05  1.537468E+05 -6.142547E+04  2.060307E-09 -9.262566E-11
       180  19 -6.213332E+05 -2.102979E+05 -1.972909E+05 -6.003971E+04 -8.417585E+03 -2.540880E+04
       180  20 -5.074755E+05 -1.836382E+05 -1.737406E+05 -1.286011E+04 -6.240118E+03 -2.117388E+04
       180  21 -3.923053E+05 -1.547949E+05 -1.481283E+05 -6.018142E+04 -4.054518E+03 -1.670997E+04
       180  22  2.312525E+05  1.395414E+03  8.364727E+03 -6.080215E+04 -6.545144E+03 -2.540796E+04
       180  23  2.306065E+05 -3.391547E+02  4.526461E+03 -1.355572E+04 -4.260340E+03 -2.117466E+04
       180  24  2.312789E+05  1.282015E+02  2.823467E+03 -6.080322E+04 -1.967803E+03 -1.671254E+04
       180  25  1.084503E+06  2.130356E+05  2.139684E+05 -6.156549E+04 -4.670133E+03 -2.540713E+04
       180  26  9.691868E+05  1.829200E+05  1.827545E+05 -1.425200E+04 -2.278214E+03 -2.117545E+04
       180  27  8.552185E+05  1.550228E+05  1.537473E+05 -6.142548E+04  1.210028E+02 -1.671511E+04
       181   1 -2.195474E+05 -1.115112E+05 -1.062370E+05 -6.003399E+04  3.522117E+03  1.407990E+04
       181   2 -1.055744E+05 -8.357914E+04 -7.980586E+04 -1.317180E+04  2.781646E+03  9.647918E+03
       181   3  8.315287E+03 -5.506141E+04 -5.281972E+04 -6.029727E+04  2.037582E+03  5.203806E+03
       181   4  2.310190E+05  2.973414E+02  2.224505E+03 -6.068948E+04  1.504366E+03  1.408319E+04
       181   5  2.310712E+05  5.944976E+00  1.485271E+03 -1.369724E+04  7.577516E+02  9.651923E+03
       181   6  2.310309E+05  3.025670E+02  1.306230E+03 -6.068948E+04  7.678471E+00  5.208576E+03
       181   7  6.817712E+05  1.120911E+05  1.106716E+05 -6.134535E+04 -5.148445E+02  1.408648E+04
       181   8  5.678205E+05  8.358275E+04  8.276830E+04 -1.422291E+04 -1.267237E+03  9.655930E+03
       181   9  4.537918E+05  5.566290E+04  5.542861E+04 -6.108180E+04 -2.022952E+03  5.213347E+03
       181  10 -2.195475E+05 -1.115114E+05 -1.062374E+05 -6.003403E+04 -3.092009E-10  2.221319E-10
       181  11 -1.055744E+05 -8.357925E+04 -7.980605E+04 -1.317183E+04  6.555217E-10 -1.250949E-10
       181  12  8.315276E+03 -5.506144E+04 -5.281978E+04 -6.029727E+04 -2.061240E-10 -6.126613E-10
       181  13  2.310190E+05  2.971278E+02  2.224128E+03 -6.068950E+04 -1.032863E-09 -1.305624E-09
       181  14  2.310712E+05  5.844774E+00  1.485095E+03 -1.369725E+04 -2.196668E-09 -7.942729E-12
       181  15  2.310309E+05  3.025379E+02  1.306179E+03 -6.068948E+04 -4.758146E-10 -1.171069E-09
       181  16  6.817712E+05  1.120908E+05  1.106712E+05 -6.134535E+04  5.222553E-10  2.409145E-10
       181  17  5.678205E+05  8.358265E+04  8.276813E+04 -1.422290E+04 -1.140288E-09 -6.270980E-10
       181  18  4.537917E+05  5.566287E+04  5.542855E+04 -6.108179E+04  7.485068E-10 -1.993211E-09
       181  19 -2.195474E+05 -1.115112E+05 -1.062370E+05 -6.003399E+04 -3.522117E+03 -1.407990E+04
       181  20 -1.055744E+05 -8.357914E+04 -7.980586E+04 -1.317180E+04 -2.781646E+03 -9.647918E+03
       181  21  8.315287E+03 -5.506141E+04 -5.281972E+04 -6.029727E+04 -2.037582E+03 -5.203806E+03
       181  22  2.310190E+05  2.973414E+02  2.224505E+03 -6.068948E+04 -1.504366E+03 -1.408319E+04
       181  23  2.310712E+05  5.944976E+00  1.485271E+03 -1.369724E+04 -7.577516E+02 -9.651923E+03
       181  24  2.310309E+05  3.025670E+02  1.306230E+03 -6.068948E+04 -7.678471E+00 -5.208576E+03
       181  25  6.817712E+05  1.120911E+05  1.106716E+05 -6.134535E+04  5.148445E+02 -1.408648E+04
       181  26  5.678205E+05  8.358275E+04  8.276830E+04 -1.422291E+04  1.267237E+03 -9.655930E+03
       181  27  4.537918E+05  5.566290E+04  5.542861E+04 -6.108180E+04  2.022952E+03 -5.213347E+03
       182   1  1.807884E+05 -1.211811E+04 -1.043592E+04 -6.054779E+04  1.789402E+03  2.613335E+03
       182   2  2.947173E+05  1.581085E+04  1.708840E+04 -1.383568E+04  9.084976E+02 -1.825744E+03
       182   3  4.084028E+05  4.441731E+04  4.523828E+04 -6.098131E+04  2.810399E+01 -6.250553E+03
       182   4  2.310077E+05  2.788534E+02  1.338982E+03 -6.066158E+04 -2.395729E+02  2.618315E+03
       182   5  2.311356E+05  2.810465E+01  1.738984E+03 -1.373221E+04 -1.114084E+03 -1.820939E+03
       182   6  2.310054E+05  4.542737E+02  2.760549E+03 -6.066115E+04 -1.987926E+03 -6.245878E+03
       182   7  2.812293E+05  1.267564E+04  1.311373E+04 -6.077538E+04 -2.268711E+03  2.623297E+03
       182   8  1.675575E+05 -1.575494E+04 -1.361070E+04 -1.362875E+04 -3.136459E+03 -1.816134E+03
       182   9  5.363677E+04 -4.351105E+04 -3.971939E+04 -6.034106E+04 -4.003383E+03 -6.241204E+03
       182  10  1.807884E+05 -1.211811E+04 -1.043594E+04 -6.054780E+04 -1.019873E-09  1.383792E-09
       182  11  2.947173E+05  1.581085E+04  1.708839E+04 -1.383568E+04  4.880578E-10  3.846270E-09
       182  12  4.084028E+05  4.441727E+04  4.523821E+04 -6.098131E+04  1.919651E-09 -1.972867E-09
       182  13  2.310077E+05  2.788460E+02  1.338969E+03 -6.066158E+04 -2.152018E-09  6.426054E-11
       182  14  2.311356E+05  2.810076E+01  1.738975E+03 -1.373221E+04 -2.092311E-09 -1.285620E-09
       182  15  2.310053E+05  4.542307E+02  2.760468E+03 -6.066116E+04 -1.985239E-09  2.120065E-10
       182  16  2.812293E+05  1.267563E+04  1.311371E+04 -6.077537E+04 -6.306578E-10 -5.840535E-11
       182  17  1.675575E+05 -1.575494E+04 -1.361073E+04 -1.362876E+04 -2.077231E-09 -1.133219E-09
       182  18  5.363675E+04 -4.351109E+04 -3.971949E+04 -6.034108E+04 -2.367418E-09  2.236759E-10
       182  19  1.807884E+05 -1.211811E+04 -1.043592E+04 -6.054779E+04 -1.789402E+03 -2.613335E+03
       182  20  2.947173E+05  1.581085E+04  1.708840E+04 -1.383568E+04 -9.084976E+02  1.825744E+03
       182  21  4.084028E+05  4.441731E+04  4.523828E+04 -6.098131E+04 -2.810399E+01  6.250553E+03
       182  22  2.310077E+05  2.788534E+02  1.338982E+03 -6.066158E+04  2.395729E+02 -2.618315E+03
       182  23  2.311356E+05  2.810465E+01  1.738984E+03 -1.373221E+04  1.114084E+03  1.820939E+03
       182  24  2.310054E+05  4.542737E+02  2.760549E+03 -6.066115E+04  1.987926E+03  6.245878E+03
       182  25  2.812293E+05  1.267564E+04  1.311373E+04 -6.077538E+04  2.268711E+03 -2.623297E+03
       182  26  1.675575E+05 -1.575494E+04 -1.361070E+04 -1.362875E+04  3.136459E+03  1.816134E+03
       182  27  5.363677E+04 -4.351105E+04 -3.971939E+04 -6.034106E+04  4.003383E+03  6.241204E+03
       183   1  5.813159E+05  8.713213E+04  8.836438E+04 -6.103963E+04 -4.868449E+02 -8.866273E+03
       183   2  6.949714E+05  1.148774E+05  1.178672E+05 -1.437603E+04 -3.522871E+03 -1.330894E+04
       183   3  8.096071E+05  1.455046E+05  1.500293E+05 -6.181215E+04 -6.554404E+03 -1.755612E+04
       183   4  2.312484E+05  1.825863E+02  3.521081E+03 -6.071714E+04 -2.560802E+03 -8.861878E+03
       183   5  2.307632E+05 -3.235855E+02  5.830513E+03 -1.366351E+04 -5.505784E+03 -1.330577E+04
       183   6  2.312316E+05  2.038441E+03  1.073830E+04 -6.071390E+04 -8.445721E+03 -1.755406E+04
       183   7 -1.187073E+05 -8.677594E+04 -8.133103E+04 -6.039477E+04 -4.633594E+03 -8.857484E+03
       183   8 -2.332481E+05 -1.155403E+05 -1.062216E+05 -1.295142E+04 -7.487219E+03 -1.330259E+04
       183   9 -3.468383E+05 -1.414521E+05 -1.285765E+05 -5.961653E+04 -1.033528E+04 -1.755200E+04
       183  10  5.813159E+05  8.713205E+04  8.836423E+04 -6.103964E+04 -6.256755E-10 -2.350983E-09
       183  11  6.949713E+05  1.148772E+05  1.178669E+05 -1.437607E+04  1.666170E-09  2.675048E-10
       183  12  8.096070E+05  1.455043E+05  1.500286E+05 -6.181224E+04  1.407486E-09  5.789044E-10
       183  13  2.312484E+05  1.825002E+02  3.520921E+03 -6.071716E+04 -1.656329E-09  1.842722E-10
       183  14  2.307631E+05 -3.237837E+02  5.830124E+03 -1.366357E+04  2.194680E-09 -1.240337E-09
       183  15  2.312314E+05  2.038091E+03  1.073759E+04 -6.071402E+04 -5.184653E-10 -5.652073E-10
       183  16 -1.187073E+05 -8.677603E+04 -8.133122E+04 -6.039480E+04 -3.089587E-10  2.524293E-10
       183  17 -2.332483E+05 -1.155405E+05 -1.062221E+05 -1.295150E+04 -1.402182E-09  1.611194E-09
       183  18 -3.468385E+05 -1.414525E+05 -1.285773E+05 -5.961668E+04  1.542416E-09  6.783551E-10
       183  19  5.813159E+05  8.713213E+04  8.836438E+04 -6.103963E+04  4.868449E+02  8.866273E+03
       183  20  6.949714E+05  1.148774E+05  1.178672E+05 -1.437603E+04  3.522871E+03  1.330894E+04
       183  21  8.096071E+05  1.455046E+05  1.500293E+05 -6.181215E+04  6.554404E+03  1.755612E+04
       183  22  2.312484E+05  1.825863E+02  3.521081E+03 -6.071714E+04  2.560802E+03  8.861878E+03
       183  23  2.307632E+05 -3.235855E+02  5.830513E+03 -1.366351E+04  5.505784E+03  1.330577E+04
       183  24  2.312316E+05  2.038441E+03  1.073830E+04 -6.071390E+04  8.445721E+03  1.755406E+04
       183  25 -1.187073E+05 -8.677594E+04 -8.133103E+04 -6.039477E+04  4.633594E+03  8.857484E+03
       183  26 -2.332481E+05 -1.155403E+05 -1.062216E+05 -1.295142E+04  7.487219E+03  1.330259E+04
       183  27 -3.468383E+05 -1.414521E+05 -1.285765E+05 -5.961653E+04  1.033528E+04  1.755200E+04
       184   1  9.846876E+05  1.858948E+05  1.954698E+05 -5.930580E+04 -8.041561E+03 -2.051069E+04
       184   2  1.095495E+06  2.120256E+05  2.318465E+05 -1.515653E+04 -2.087896E+04 -2.495605E+04
       184   3  1.214604E+06  2.612491E+05  2.825139E+05 -6.569303E+04 -3.370947E+04 -2.696596E+04
       184   4  2.327552E+05 -7.292745E+02  1.371545E+04 -6.085045E+04 -1.062562E+04 -2.050865E+04
       184   5  2.286848E+05 -3.028843E+03  2.272777E+04 -1.349999E+04 -2.233626E+04 -2.495722E+04
       184   6  2.327219E+05  1.758787E+04  4.526464E+04 -6.084296E+04 -3.403765E+04 -2.696891E+04
       184   7 -5.186611E+05 -1.873947E+05 -1.680794E+05 -6.239303E+04 -1.320656E+04 -2.050661E+04
       184   8 -6.374389E+05 -2.181381E+05 -1.864447E+05 -1.184561E+04 -2.379151E+04 -2.495839E+04
       184   9 -7.482800E+05 -2.261437E+05 -1.920538E+05 -5.600046E+04 -3.436528E+04 -2.697187E+04
       184  10  9.846874E+05  1.858944E+05  1.954689E+05 -5.930593E+04  1.668183E-09  4.636792E-10
       184  11  1.095494E+06  2.120248E+05  2.318445E+05 -1.515695E+04  2.763314E-10 -8.169090E-10
       184  12  1.214602E+06  2.612480E+05  2.825104E+05 -6.569377E+04 -9.895330E-10 -1.444118E-10
       184  13  2.327549E+05 -7.297565E+02  1.371445E+04 -6.085063E+04  9.874401E-13  7.853541E-10
       184  14  2.286841E+05 -3.029646E+03  2.272566E+04 -1.350043E+04 -6.176859E-10 -6.840093E-12
       184  15  2.327204E+05  1.758677E+04  4.526110E+04 -6.084369E+04 -1.749641E-09  1.248809E-10
       184  16 -5.186614E+05 -1.873952E+05 -1.680805E+05 -6.239324E+04 -1.804648E-09  1.241269E-09
       184  17 -6.374397E+05 -2.181389E+05 -1.864469E+05 -1.184609E+04  4.149413E-10 -4.368236E-10
       184  18 -7.482814E+05 -2.261448E+05 -1.920573E+05 -5.600121E+04  2.523254E-10  6.187539E-10
       184  19  9.846876E+05  1.858948E+05  1.954698E+05 -5.930580E+04  8.041561E+03  2.051069E+04
       184  20  1.095495E+06  2.120256E+05  2.318465E+05 -1.515653E+04  2.087896E+04  2.495605E+04
       184  21  1.214604E+06  2.612491E+05  2.825139E+05 -6.569303E+04  3.370947E+04  2.696596E+04
       184  22  2.327552E+05 -7.292745E+02  1.371545E+04 -6.085045E+04  1.062562E+04  2.050865E+04
       184  23  2.286848E+05 -3.028843E+03  2.272777E+04 -1.349999E+04  2.233626E+04  2.495722E+04
       184  24  2.327219E+05  1.758787E+04  4.526464E+04 -6.084296E+04  3.403765E+04  2.696891E+04
       184  25 -5.186611E+05 -1.873947E+05 -1.680794E+05 -6.239303E+04  1.320656E+04  2.050661E+04
       184  26 -6.374389E+05 -2.181381E+05 -1.864447E+05 -1.184561E+04  2.379151E+04  2.495839E+04
       184  27 -7.482800E+05 -2.261437E+05 -1.920538E+05 -5.600046E+04  3.436528E+04  2.697187E+04
       185   1  1.400939E+06  2.789907E+05  3.343289E+05 -4.085600E+04 -3.414350E+04 -3.386027E+04
       185   2  1.486954E+06  2.899651E+05  3.940357E+05 -2.541086E+04 -9.501907E+04 -3.817331E+04
       185   3  1.634157E+06  5.043012E+05  5.446481E+05 -1.052933E+05 -1.559534E+05 -1.314378E+04
       185   4  2.439177E+05 -7.984802E+03  5.540961E+04 -6.091812E+04 -4.275143E+04 -3.386467E+04
       185   5  2.144117E+05 -2.556061E+04  8.754141E+04 -1.338555E+04 -9.013512E+04 -3.817533E+04
       185   6  2.438594E+05  1.581046E+05  2.013420E+05 -6.118454E+04 -1.375647E+05 -1.312319E+04
       185   7 -9.118799E+05 -2.950564E+05 -2.236048E+05 -8.094278E+04 -5.134334E+04 -3.386852E+04
       185   8 -1.056651E+06 -3.412038E+05 -2.190682E+05 -1.385305E+03 -8.526098E+04 -3.817717E+04
       185   9 -1.144680E+06 -1.882284E+05 -1.421050E+05 -1.717523E+04 -1.192167E+05 -1.309997E+04
       185  10  1.400937E+06  2.789892E+05  3.343246E+05 -4.085693E+04 -1.258608E-09  6.582601E-10
       185  11  1.486944E+06  2.899612E+05  3.940160E+05 -2.541378E+04 -1.000788E-09  4.705254E-10
       185  12  1.634131E+06  5.042945E+05  5.446022E+05 -1.052949E+05 -7.669519E-10 -4.389723E-10
       185  13  2.439155E+05 -7.986524E+03  5.540403E+04 -6.091929E+04  1.139822E-09  6.348947E-10
       185  14  2.144026E+05 -2.556436E+04  8.752340E+04 -1.338832E+04 -9.697459E-10  1.959455E-09
       185  15  2.438390E+05  1.580993E+05  2.013061E+05 -6.118600E+04  4.550341E-10 -5.247103E-10
       185  16 -9.118831E+05 -2.950584E+05 -2.236119E+05 -8.094419E+04  1.677600E-10  6.088366E-10
       185  17 -1.056660E+06 -3.412073E+05 -2.190846E+05 -1.387928E+03  9.022319E-11  2.197122E-10
       185  18 -1.144695E+06 -1.882324E+05 -1.421321E+05 -1.717649E+04 -4.001060E-10 -9.658469E-10
       185  19  1.400939E+06  2.789907E+05  3.343289E+05 -4.085600E+04  3.414350E+04  3.386027E+04
       185  20  1.486954E+06  2.899651E+05  3.940357E+05 -2.541086E+04  9.501907E+04  3.817331E+04
       185  21  1.634157E+06  5.043012E+05  5.446481E+05 -1.052933E+05  1.559534E+05  1.314378E+04
       185  22  2.439177E+05 -7.984802E+03  5.540961E+04 -6.091812E+04  4.275143E+04  3.386467E+04
       185  23  2.144117E+05 -2.556061E+04  8.754141E+04 -1.338555E+04  9.013512E+04  3.817533E+04
       185  24  2.438594E+05  1.581046E+05  2.013420E+05 -6.118454E+04  1.375647E+05  1.312319E+04
       185  25 -9.118799E+05 -2.950564E+05 -2.236048E+05 -8.094278E+04  5.134334E+04  3.386852E+04
       185  26 -1.056651E+06 -3.412038E+05 -2.190682E+05 -1.385305E+03  8.526098E+04  3.817717E+04
       185  27 -1.144680E+06 -1.882284E+05 -1.421050E+05 -1.717523E+04  1.192167E+05  1.309997E+04
       186   1  1.822842E+05  4.870357E+05  2.165228E+05 -1.353756E+05  7.393416E+02  1.110405E+05
       186   2 -1.412382E+04  2.817738E+05  8.031034E+04 -3.305831E+04  8.099306E+02  6.787863E+04
       186   3 -4.343044E+04  1.223508E+05  1.363397E+04 -8.059438E+04 -5.839023E+03  2.470033E+04
       186   4  1.299849E+05  2.790821E+05  1.648445E+05 -9.700486E+04  7.525320E+02  1.095483E+05
       186   5 -2.050348E+04  2.564405E+05  7.428368E+04 -2.236611E+04  8.043340E+02  6.946387E+04
       186   6 -4.413500E+03  2.790945E+05  5.114414E+04 -9.757243E+04 -5.859771E+03  2.935054E+04
       186   7  7.768782E+04  7.117070E+04  1.131637E+05 -5.864695E+04  7.655411E+02  1.080565E+05
       186   8 -2.688277E+04  2.311080E+05  6.825705E+04 -1.167434E+04  7.987918E+02  7.104905E+04
       186   9  3.460273E+04  4.358614E+05  8.865281E+04 -1.145548E+05 -5.880769E+03  3.400192E+04
       186  10  1.822809E+05  4.870225E+05  2.164997E+05 -1.353757E+05  9.650320E-10  1.141805E-09
       186  11 -1.412506E+04  2.817688E+05  8.030168E+04 -3.305835E+04 -6.952703E-10  1.570710E-09
       186  12 -4.343064E+04  1.223501E+05  1.363276E+04 -8.059427E+04 -1.468216E-09 -9.215524E-10
       186  13  1.299817E+05  2.790692E+05  1.648220E+05 -9.700493E+04  2.338295E-09 -1.090916E-09
       186  14 -2.050478E+04  2.564353E+05  7.427462E+04 -2.236615E+04 -1.400202E-09  1.245196E-09
       186  15 -4.413768E+03  2.790936E+05  5.114246E+04 -9.757229E+04  9.870582E-10 -1.372300E-09
       186  16  7.768469E+04  7.115816E+04  1.131418E+05 -5.864702E+04  1.311750E-10 -1.093826E-09
       186  17 -2.688412E+04  2.311026E+05  6.824756E+04 -1.167439E+04  3.668530E-09 -3.798168E-09
       186  18  3.460238E+04  4.358601E+05  8.865057E+04 -1.145546E+05  5.882207E-10  1.030325E-09
       186  19  1.822842E+05  4.870357E+05  2.165228E+05 -1.353756E+05 -7.393416E+02 -1.110405E+05
       186  20 -1.412382E+04  2.817738E+05  8.031034E+04 -3.305831E+04 -8.099306E+02 -6.787863E+04
       186  21 -4.343044E+04  1.223508E+05  1.363397E+04 -8.059438E+04  5.839023E+03 -2.470033E+04
       186  22  1.299849E+05  2.790821E+05  1.648445E+05 -9.700486E+04 -7.525320E+02 -1.095483E+05
       186  23 -2.050348E+04  2.564405E+05  7.428368E+04 -2.236611E+04 -8.043340E+02 -6.946387E+04
       186  24 -4.413500E+03  2.790945E+05  5.114414E+04 -9.757243E+04  5.859771E+03 -2.935054E+04
       186  25  7.768782E+04  7.117070E+04  1.131637E+05 -5.864695E+04 -7.655411E+02 -1.080565E+05
       186  26 -2.688277E+04  2.311080E+05  6.825705E+04 -1.167434E+04 -7.987918E+02 -7.104905E+04
       186  27  3.460273E+04  4.358614E+05  8.865281E+04 -1.145548E+05  5.880769E+03 -3.400192E+04
       187   1 -9.287340E+04 -1.624985E+05 -6.019557E+04 -1.014509E+05 -1.133966E+04  1.755128E+04
       187   2 -1.570926E+05 -3.500917E+05 -1.166880E+05 -2.075175E+04 -1.779544E+04  1.921239E+03
       187   3 -1.878911E+05 -5.281243E+05 -1.548389E+05 -9.074927E+04 -2.221167E+04 -1.368811E+04
       187   4  1.481201E+04  2.711307E+05  4.485195E+04 -9.755366E+04 -1.135358E+04  2.100086E+04
       187   5 -4.040487E+03  2.662709E+05  3.213260E+04 -2.222192E+04 -1.780371E+04  4.429072E+03
       187   6  1.067698E+04  2.710962E+05  3.840082E+04 -9.757602E+04 -2.221502E+04 -1.212656E+04
       187   7  1.224837E+05  7.049318E+05  1.498860E+05 -9.365349E+04 -1.136745E+04  2.445284E+04
       187   8  1.489839E+05  8.829809E+05  1.809260E+05 -2.369322E+04 -1.781198E+04  6.939386E+03
       187   9  2.091984E+05  1.070901E+06  2.315947E+05 -1.044111E+05 -2.221840E+04 -1.056299E+04
       187  10 -9.287362E+04 -1.624989E+05 -6.019639E+04 -1.014507E+05 -2.456903E-09  1.050216E-09
       187  11 -1.570930E+05 -3.500917E+05 -1.166886E+05 -2.075172E+04 -2.168027E-10  1.881824E-09
       187  12 -1.878916E+05 -5.281247E+05 -1.548402E+05 -9.074951E+04  3.568288E-11  3.732145E-10
       187  13  1.481176E+04  2.711302E+05  4.485088E+04 -9.755346E+04 -6.013389E-10 -1.160174E-09
       187  14 -4.040833E+03  2.662708E+05  3.213197E+04 -2.222186E+04  6.125017E-10  1.015535E-09
       187  15  1.067641E+04  2.710960E+05  3.839961E+04 -9.757624E+04 -1.963705E-10 -1.037708E-09
       187  16  1.224834E+05  7.049311E+05  1.498846E+05 -9.365327E+04 -8.406229E-10 -9.356256E-10
       187  17  1.489836E+05  8.829808E+05  1.809253E+05 -2.369312E+04 -1.053563E-09 -3.610270E-09
       187  18  2.091978E+05  1.070901E+06  2.315935E+05 -1.044112E+05  3.747814E-10 -1.914298E-10
       187  19 -9.287340E+04 -1.624985E+05 -6.019557E+04 -1.014509E+05  1.133966E+04 -1.755128E+04
       187  20 -1.570926E+05 -3.500917E+05 -1.166880E+05 -2.075175E+04  1.779544E+04 -1.921239E+03
       187  21 -1.878911E+05 -5.281243E+05 -1.548389E+05 -9.074927E+04  2.221167E+04  1.368811E+04
       187  22  1.481201E+04  2.711307E+05  4.485195E+04 -9.755366E+04  1.135358E+04 -2.100086E+04
       187  23 -4.040487E+03  2.662709E+05  3.213260E+04 -2.222192E+04  1.780371E+04 -4.429072E+03
       187  24  1.067698E+04  2.710962E+05  3.840082E+04 -9.757602E+04  2.221502E+04  1.212656E+04
       187  25  1.224837E+05  7.049318E+05  1.498860E+05 -9.365349E+04  1.136745E+04 -2.445284E+04
       187  26  1.489839E+05  8.829809E+05  1.809260E+05 -2.369322E+04  1.781198E+04 -6.939386E+03
       187  27  2.091984E+05  1.070901E+06  2.315947E+05 -1.044111E+05  2.221840E+04  1.056299E+04
       188   1 -2.701510E+05 -8.001158E+05 -2.179361E+05 -1.078257E+05 -3.099510E+04 -2.945448E+04
       188   2 -3.290497E+05 -1.001760E+06 -2.465273E+05 -1.213055E+04 -3.779832E+04 -4.602612E+04
       188   3 -2.632801E+05 -1.168611E+06 -2.328564E+05 -6.749937E+04 -1.305420E+04 -6.253516E+04
       188   4 -2.695601E+03  2.770606E+05  4.219977E+04 -9.771799E+04 -3.102349E+04 -1.917412E+04
       188   5 -1.605414E+04  2.584244E+05  5.741987E+04 -2.211989E+04 -3.778378E+04 -5.016588E+04
       188   6  9.762506E+04  2.769781E+05  1.248495E+05 -9.756158E+04 -1.302387E+04 -8.110046E+04
       188   7  2.646755E+05  1.355299E+06  3.022530E+05 -8.759174E+04 -3.105152E+04 -8.875954E+03
       188   8  2.968257E+05  1.520063E+06  3.612536E+05 -3.212880E+04 -3.776912E+04 -5.431395E+04
       188   9  4.583773E+05  1.724470E+06  4.824019E+05 -1.276932E+05 -1.299178E+04 -9.970883E+04
       188  10 -2.701522E+05 -8.001170E+05 -2.179395E+05 -1.078265E+05  4.592610E-10  6.715268E-10
       188  11 -3.290518E+05 -1.001763E+06 -2.465340E+05 -1.213195E+04  1.197672E-09  1.153964E-09
       188  12 -2.632813E+05 -1.168615E+06 -2.328641E+05 -6.750002E+04  9.069004E-10 -1.410613E-10
       188  13 -2.696734E+03  2.770600E+05  4.219727E+04 -9.771847E+04  2.126666E-09 -7.494975E-10
       188  14 -1.605634E+04  2.584213E+05  5.741246E+04 -2.212141E+04  6.153302E-10  6.167081E-10
       188  15  9.762311E+04  2.769710E+05  1.248369E+05 -9.756243E+04  1.020416E-09 -4.878134E-10
       188  16  2.646744E+05  1.355299E+06  3.022510E+05 -8.759196E+04 -1.247474E-10 -4.682406E-10
       188  17  2.968234E+05  1.520059E+06  3.612454E+05 -3.213045E+04  1.662663E-09 -2.270727E-09
       188  18  4.583745E+05  1.724459E+06  4.823829E+05 -1.276942E+05  4.814052E-10  1.570994E-10
       188  19 -2.701510E+05 -8.001158E+05 -2.179361E+05 -1.078257E+05  3.099510E+04  2.945448E+04
       188  20 -3.290497E+05 -1.001760E+06 -2.465273E+05 -1.213055E+04  3.779832E+04  4.602612E+04
       188  21 -2.632801E+05 -1.168611E+06 -2.328564E+05 -6.749937E+04  1.305420E+04  6.253516E+04
       188  22 -2.695601E+03  2.770606E+05  4.219977E+04 -9.771799E+04  3.102349E+04  1.917412E+04
       188  23 -1.605414E+04  2.584244E+05  5.741987E+04 -2.211989E+04  3.778378E+04  5.016588E+04
       188  24  9.762506E+04  2.769781E+05  1.248495E+05 -9.756158E+04  1.302387E+04  8.110046E+04
       188  25  2.646755E+05  1.355299E+06  3.022530E+05 -8.759174E+04  3.105152E+04  8.875954E+03
       188  26  2.968257E+05  1.520063E+06  3.612536E+05 -3.212880E+04  3.776912E+04  5.431395E+04
       188  27  4.583773E+05  1.724470E+06  4.824019E+05 -1.276932E+05  1.299178E+04  9.970883E+04
       189   1 -4.293910E+06 -1.449380E+06 -9.563298E+05 -1.476808E+06 -4.177600E+05 -1.447380E+05
       189   2 -4.170956E+06 -8.276810E+05 -5.663002E+05 -1.533653E+06 -2.729682E+05 -6.228356E+04
       189   3 -4.255174E+06 -8.231175E+05 -4.515135E+05 -1.474229E+06 -1.180606E+05 -6.475439E+03
       189   4 -3.189267E+06 -9.048409E+05 -6.288003E+05 -1.047900E+06 -4.023873E+05 -1.390123E+05
       189   5 -3.053852E+06 -3.698476E+05 -2.610163E+05 -1.192155E+06 -2.686760E+05 -6.068346E+04
       189   6 -3.123002E+06 -4.491630E+05 -1.592715E+05 -1.220255E+06 -1.248575E+05 -9.032884E+03
       189   7 -2.083398E+06 -3.599588E+05 -3.013904E+05 -6.182134E+05 -3.869837E+05 -1.332670E+05
       189   8 -1.935532E+06  8.812265E+04  4.415323E+04 -8.500755E+05 -2.643749E+05 -5.907934E+04
       189   9 -1.989589E+06 -7.520117E+04  1.328668E+05 -9.658948E+05 -1.316680E+05 -1.159395E+04
       189  10 -4.294104E+06 -1.449450E+06 -9.567000E+05 -1.476857E+06 -6.024832E-10 -4.673085E-10
       189  11 -4.171037E+06 -8.277054E+05 -5.664486E+05 -1.533667E+06  3.086422E-09  8.153086E-10
       189  12 -4.255189E+06 -8.231213E+05 -4.515399E+05 -1.474229E+06  4.417936E-10  5.500486E-10
       189  13 -3.189447E+06 -9.049055E+05 -6.291429E+05 -1.047945E+06  1.540264E-09 -4.629857E-10
       189  14 -3.053931E+06 -3.698710E+05 -2.611597E+05 -1.192168E+06  3.090975E-09 -5.699615E-10
       189  15 -3.123019E+06 -4.491673E+05 -1.593011E+05 -1.220256E+06  1.380587E-09  6.483785E-10
       189  16 -2.083564E+06 -3.600184E+05 -3.017064E+05 -6.182551E+05  7.383450E-10  9.603368E-10
       189  17 -1.935608E+06  8.810004E+04  4.401482E+04 -8.500881E+05  5.385933E-10  4.727956E-10
       189  18 -1.989607E+06 -7.520599E+04  1.328339E+05 -9.658960E+05 -2.017225E-10  8.233452E-10
       189  19 -4.293910E+06 -1.449380E+06 -9.563298E+05 -1.476808E+06  4.177600E+05  1.447380E+05
       189  20 -4.170956E+06 -8.276810E+05 -5.663002E+05 -1.533653E+06  2.729682E+05  6.228356E+04
       189  21 -4.255174E+06 -8.231175E+05 -4.515135E+05 -1.474229E+06  1.180606E+05  6.475439E+03
       189  22 -3.189267E+06 -9.048409E+05 -6.288003E+05 -1.047900E+06  4.023873E+05  1.390123E+05
       189  23 -3.053852E+06 -3.698476E+05 -2.610163E+05 -1.192155E+06  2.686760E+05  6.068346E+04
       189  24 -3.123002E+06 -4.491630E+05 -1.592715E+05 -1.220255E+06  1.248575E+05  9.032884E+03
       189  25 -2.083398E+06 -3.599588E+05 -3.013904E+05 -6.182134E+05  3.869837E+05  1.332670E+05
       189  26 -1.935532E+06  8.812265E+04  4.415323E+04 -8.500755E+05  2.643749E+05  5.907934E+04
       189  27 -1.989589E+06 -7.520117E+04  1.328668E+05 -9.658948E+05  1.316680E+05  1.159395E+04
       190   1 -4.080513E+06 -9.036876E+05 -3.954481E+05 -1.466640E+06 -1.003093E+05 -5.812384E+03
       190   2 -4.021428E+06 -7.851709E+05 -3.074315E+05 -1.431212E+06 -6.687672E+04  6.271404E+03
       190   3 -3.945399E+06 -7.810785E+05 -2.627467E+05 -1.430511E+06 -3.241454E+04  1.561639E+04
       190   4 -3.099820E+06 -5.195486E+05 -1.299810E+05 -1.185169E+06 -1.000207E+05 -5.709867E+03
       190   5 -3.104570E+06 -4.357327E+05 -6.161579E+04 -1.177846E+06 -6.770096E+04  5.957773E+03
       190   6 -3.092117E+06 -4.660495E+05 -3.564221E+04 -1.205255E+06 -3.435611E+04  1.488574E+04
       190   7 -2.118192E+06 -1.353314E+05  1.354004E+05 -9.032869E+05 -9.973163E+04 -5.607095E+03
       190   8 -2.186896E+06 -8.623927E+04  1.841260E+05 -9.241381E+05 -6.852649E+04  5.643652E+03
       190   9 -2.238131E+06 -1.509850E+05  1.913990E+05 -9.797228E+05 -3.630061E+04  1.415405E+04
       190  10 -4.080524E+06 -9.036904E+05 -3.954672E+05 -1.466640E+06 -1.030001E-09  1.915222E-10
       190  11 -4.021433E+06 -7.851722E+05 -3.074401E+05 -1.431212E+06  1.189807E-09 -6.175851E-10
       190  12 -3.945400E+06 -7.810791E+05 -2.627492E+05 -1.430510E+06  3.564472E-10 -2.409799E-10
       190  13 -3.099831E+06 -5.195513E+05 -1.299999E+05 -1.185170E+06 -1.549331E-10 -5.925199E-10
       190  14 -3.104575E+06 -4.357340E+05 -6.162451E+04 -1.177845E+06 -1.711803E-09 -3.495414E-11
       190  15 -3.092119E+06 -4.660501E+05 -3.564485E+04 -1.205255E+06  2.011749E-09 -1.909659E-10
       190  16 -2.118202E+06 -1.353341E+05  1.353815E+05 -9.032874E+05  1.797694E-10 -1.304235E-10
       190  17 -2.186901E+06 -8.624057E+04  1.841171E+05 -9.241378E+05 -7.788064E-10  5.933939E-10
       190  18 -2.238132E+06 -1.509856E+05  1.913961E+05 -9.797224E+05 -8.967843E-10 -9.882985E-10
       190  19 -4.080513E+06 -9.036876E+05 -3.954481E+05 -1.466640E+06  1.003093E+05  5.812384E+03
       190  20 -4.021428E+06 -7.851709E+05 -3.074315E+05 -1.431212E+06  6.687672E+04 -6.271404E+03
       190  21 -3.945399E+06 -7.810785E+05 -2.627467E+05 -1.430511E+06  3.241454E+04 -1.561639E+04
       190  22 -3.099820E+06 -5.195486E+05 -1.299810E+05 -1.185169E+06  1.000207E+05  5.709867E+03
       190  23 -3.104570E+06 -4.357327E+05 -6.161579E+04 -1.177846E+06  6.770096E+04 -5.957773E+03
       190  24 -3.092117E+06 -4.660495E+05 -3.564221E+04 -1.205255E+06  3.435611E+04 -1.488574E+04
       190  25 -2.118192E+06 -1.353314E+05  1.354004E+05 -9.032869E+05  9.973163E+04  5.607095E+03
       190  26 -2.186896E+06 -8.623927E+04  1.841260E+05 -9.241381E+05  6.852649E+04 -5.643652E+03
       190  27 -2.238131E+06 -1.509850E+05  1.913990E+05 -9.797228E+05  3.630061E+04 -1.415405E+04
       191   1 -3.803115E+06 -7.468850E+05 -2.193129E+05 -1.399053E+06 -2.704434E+04  1.501118E+04
       191   2 -3.743046E+06 -6.785347E+05 -1.827706E+05 -1.344868E+06 -1.830502E+04  1.454003E+04
       191   3 -3.630953E+06 -6.735343E+05 -1.538680E+05 -1.352221E+06 -9.397272E+03  1.360410E+04
       191   4 -3.087346E+06 -4.760495E+05 -2.799649E+04 -1.203192E+06 -2.835696E+04  1.451725E+04
       191   5 -3.112913E+06 -4.412055E+05 -1.437597E+04 -1.173613E+06 -1.980637E+04  1.397678E+04
       191   6 -3.086422E+06 -4.696648E+05 -8.237251E+03 -1.205571E+06 -1.108857E+04  1.297131E+04
       191   7 -2.371082E+06 -2.051830E+05  1.632744E+05 -1.007127E+06 -2.967124E+04  1.402270E+04
       191   8 -2.482395E+06 -2.038528E+05  1.539838E+05 -1.002200E+06 -2.130940E+04  1.341289E+04
       191   9 -2.541604E+06 -2.657782E+05  1.373678E+05 -1.058803E+06 -1.278151E+04  1.233792E+04
       191  10 -3.803116E+06 -7.468855E+05 -2.193147E+05 -1.399052E+06 -8.317356E-10 -5.931720E-10
       191  11 -3.743047E+06 -6.785350E+05 -1.827717E+05 -1.344868E+06  4.869140E-10  1.075750E-11
       191  12 -3.630953E+06 -6.735346E+05 -1.538685E+05 -1.352221E+06  2.281049E-10  3.519628E-10
       191  13 -3.087347E+06 -4.760500E+05 -2.799840E+04 -1.203192E+06 -3.582681E-10 -6.708753E-10
       191  14 -3.112913E+06 -4.412058E+05 -1.437708E+04 -1.173612E+06  1.802065E-10 -1.472931E-10
       191  15 -3.086423E+06 -4.696650E+05 -8.237797E+03 -1.205571E+06  2.366712E-10 -1.003868E-09
       191  16 -2.371083E+06 -2.051835E+05  1.632723E+05 -1.007127E+06 -1.210242E-10 -1.570364E-10
       191  17 -2.482395E+06 -2.038531E+05  1.539826E+05 -1.002200E+06 -1.247968E-09 -3.022297E-10
       191  18 -2.541604E+06 -2.657784E+05  1.373672E+05 -1.058803E+06  1.472145E-10 -7.656444E-10
       191  19 -3.803115E+06 -7.468850E+05 -2.193129E+05 -1.399053E+06  2.704434E+04 -1.501118E+04
       191  20 -3.743046E+06 -6.785347E+05 -1.827706E+05 -1.344868E+06  1.830502E+04 -1.454003E+04
       191  21 -3.630953E+06 -6.735343E+05 -1.538680E+05 -1.352221E+06  9.397272E+03 -1.360410E+04
       191  22 -3.087346E+06 -4.760495E+05 -2.799649E+04 -1.203192E+06  2.835696E+04 -1.451725E+04
       191  23 -3.112913E+06 -4.412055E+05 -1.437597E+04 -1.173613E+06  1.980637E+04 -1.397678E+04
       191  24 -3.086422E+06 -4.696648E+05 -8.237251E+03 -1.205571E+06  1.108857E+04 -1.297131E+04
       191  25 -2.371082E+06 -2.051830E+05  1.632744E+05 -1.007127E+06  2.967124E+04 -1.402270E+04
       191  26 -2.482395E+06 -2.038528E+05  1.539838E+05 -1.002200E+06  2.130940E+04 -1.341289E+04
       191  27 -2.541604E+06 -2.657782E+05  1.373678E+05 -1.058803E+06  1.278151E+04 -1.233792E+04
       192   1 -3.476460E+06 -6.190348E+05 -1.107436E+05 -1.312722E+06 -7.389917E+03  1.174150E+04
       192   2 -3.411054E+06 -5.516134E+05 -8.291552E+04 -1.251742E+06 -3.911684E+03  8.568457E+03
       192   3 -3.285158E+06 -5.462550E+05 -5.684544E+04 -1.260866E+06 -3.861742E+02  5.259841E+03
       192   4 -3.084850E+06 -4.718682E+05 -6.494097E+03 -1.206526E+06 -9.030598E+03  1.112843E+04
       192   5 -3.115026E+06 -4.404537E+05 -3.883855E+03 -1.171612E+06 -5.608659E+03  7.935083E+03
       192   6 -3.084713E+06 -4.710887E+05 -2.985205E+03 -1.206804E+06 -2.139811E+03  4.606099E+03
       192   7 -2.693090E+06 -3.246926E+05  9.774204E+04 -1.100269E+06 -1.067242E+04  1.051494E+04
       192   8 -2.818915E+06 -3.292891E+05  7.514003E+04 -1.091448E+06 -7.306525E+03  7.301377E+03
       192   9 -2.884229E+06 -3.959203E+05  5.087135E+04 -1.152726E+06 -3.894069E+03  3.952125E+03
       192  10 -3.476461E+06 -6.190350E+05 -1.107440E+05 -1.312722E+06 -1.025183E-10  9.704491E-10
       192  11 -3.411054E+06 -5.516135E+05 -8.291568E+04 -1.251742E+06  2.119101E-09  3.056459E-09
       192  12 -3.285158E+06 -5.462550E+05 -5.684550E+04 -1.260866E+06 -1.129233E-10 -8.704150E-10
       192  13 -3.084850E+06 -4.718683E+05 -6.494483E+03 -1.206526E+06 -1.334585E-10 -1.283777E-09
       192  14 -3.115026E+06 -4.404538E+05 -3.884032E+03 -1.171612E+06 -1.142428E-09  6.909598E-10
       192  15 -3.084713E+06 -4.710887E+05 -2.985254E+03 -1.206804E+06 -2.386150E-10  1.542616E-09
       192  16 -2.693091E+06 -3.246927E+05  9.774162E+04 -1.100269E+06  3.493551E-10 -1.346172E-09
       192  17 -2.818915E+06 -3.292892E+05  7.513983E+04 -1.091448E+06 -9.027034E-10 -8.631138E-10
       192  18 -2.884229E+06 -3.959203E+05  5.087129E+04 -1.152726E+06 -2.694400E-10 -1.560305E-09
       192  19 -3.476460E+06 -6.190348E+05 -1.107436E+05 -1.312722E+06  7.389917E+03 -1.174150E+04
       192  20 -3.411054E+06 -5.516134E+05 -8.291552E+04 -1.251742E+06  3.911684E+03 -8.568457E+03
       192  21 -3.285158E+06 -5.462550E+05 -5.684544E+04 -1.260866E+06  3.861742E+02 -5.259841E+03
       192  22 -3.084850E+06 -4.718682E+05 -6.494097E+03 -1.206526E+06  9.030598E+03 -1.112843E+04
       192  23 -3.115026E+06 -4.404537E+05 -3.883855E+03 -1.171612E+06  5.608659E+03 -7.935083E+03
       192  24 -3.084713E+06 -4.710887E+05 -2.985205E+03 -1.206804E+06  2.139811E+03 -4.606099E+03
       192  25 -2.693090E+06 -3.246926E+05  9.774204E+04 -1.100269E+06  1.067242E+04 -1.051494E+04
       192  26 -2.818915E+06 -3.292891E+05  7.514003E+04 -1.091448E+06  7.306525E+03 -7.301377E+03
       192  27 -2.884229E+06 -3.959203E+05  5.087135E+04 -1.152726E+06  3.894069E+03 -3.952125E+03
       193   1 -3.122756E+06 -4.858693E+05 -1.282546E+04 -1.217683E+06  1.002140E+03  3.033119E+03
       193   2 -3.055728E+06 -4.176248E+05  1.233521E+04 -1.154988E+06  4.326172E+03 -4.075207E+02
       193   3 -2.926861E+06 -4.128140E+05  3.589019E+04 -1.164194E+06  7.636557E+03 -3.808625E+03
       193   4 -3.084406E+06 -4.714417E+05 -2.946204E+03 -1.207180E+06 -7.530082E+02  2.379038E+03
       193   5 -3.115359E+06 -4.400051E+05 -3.579295E+03 -1.171122E+06  2.587468E+03 -1.055649E+03
       193   6 -3.084488E+06 -4.720076E+05 -5.831128E+03 -1.206971E+06  5.913970E+03 -4.450876E+03
       193   7 -3.046054E+06 -4.570139E+05  6.932971E+03 -1.196676E+06 -2.508280E+03  1.724910E+03
       193   8 -3.174987E+06 -4.623853E+05 -1.949412E+04 -1.187255E+06  8.489454E+02 -1.703710E+03
       193   9 -3.242091E+06 -5.311998E+05 -4.755459E+04 -1.249737E+06  4.191864E+03 -5.092946E+03
       193  10 -3.122756E+06 -4.858693E+05 -1.282548E+04 -1.217683E+06 -2.854755E-10  6.840604E-10
       193  11 -3.055728E+06 -4.176248E+05  1.233517E+04 -1.154988E+06 -4.639848E-10 -1.897005E-09
       193  12 -2.926861E+06 -4.128140E+05  3.589005E+04 -1.164194E+06 -2.026857E-10  6.061710E-10
       193  13 -3.084406E+06 -4.714417E+05 -2.946215E+03 -1.207180E+06 -1.146088E-09 -1.333389E-09
       193  14 -3.115359E+06 -4.400051E+05 -3.579310E+03 -1.171122E+06  1.172614E-09  3.671573E-09
       193  15 -3.084488E+06 -4.720077E+05 -5.831231E+03 -1.206971E+06  1.197918E-09  1.224352E-09
       193  16 -3.046054E+06 -4.570139E+05  6.932954E+03 -1.196676E+06 -6.848340E-10 -8.518352E-11
       193  17 -3.174987E+06 -4.623854E+05 -1.949413E+04 -1.187255E+06 -1.775944E-09 -8.299673E-10
       193  18 -3.242091E+06 -5.311998E+05 -4.755467E+04 -1.249737E+06 -5.453442E-10  6.103416E-10
       193  19 -3.122756E+06 -4.858693E+05 -1.282546E+04 -1.217683E+06 -1.002140E+03 -3.033119E+03
       193  20 -3.055728E+06 -4.176248E+05  1.233521E+04 -1.154988E+06 -4.326172E+03  4.075207E+02
       193  21 -2.926861E+06 -4.128140E+05  3.589019E+04 -1.164194E+06 -7.636557E+03  3.808625E+03
       193  22 -3.084406E+06 -4.714417E+05 -2.946204E+03 -1.207180E+06  7.530082E+02 -2.379038E+03
       193  23 -3.115359E+06 -4.400051E+05 -3.579295E+03 -1.171122E+06 -2.587468E+03  1.055649E+03
       193  24 -3.084488E+06 -4.720076E+05 -5.831128E+03 -1.206971E+06 -5.913970E+03  4.450876E+03
       193  25 -3.046054E+06 -4.570139E+05  6.932971E+03 -1.196676E+06  2.508280E+03 -1.724910E+03
       193  26 -3.174987E+06 -4.623853E+05 -1.949412E+04 -1.187255E+06 -8.489454E+02  1.703710E+03
       193  27 -3.242091E+06 -5.311998E+05 -4.755459E+04 -1.249737E+06 -4.191864E+03  5.092946E+03
       194   1 -2.767190E+06 -3.518052E+05  7.778547E+04 -1.121357E+06  9.663256E+03 -5.789307E+03
       194   2 -2.703061E+06 -2.854706E+05  9.697201E+04 -1.060621E+06  1.750112E+04 -7.403139E+03
       194   3 -2.582583E+06 -2.858328E+05  1.095459E+05 -1.066822E+06  2.521193E+04 -8.660839E+03
       194   4 -3.085437E+06 -4.705711E+05 -7.372055E+03 -1.206689E+06  7.891640E+03 -6.450268E+03
       194   5 -3.114008E+06 -4.400249E+05 -1.274245E+04 -1.172174E+06  1.587613E+04 -8.010430E+03
       194   6 -3.086270E+06 -4.762114E+05 -2.484525E+04 -1.204602E+06  2.373248E+04 -9.214723E+03
       194   7 -3.403586E+06 -5.893314E+05 -9.253826E+04 -1.291981E+06  6.121030E+03 -7.110859E+03
       194   8 -3.524793E+06 -5.945693E+05 -1.224717E+05 -1.283660E+06  1.425232E+04 -8.617278E+03
       194   9 -3.589712E+06 -6.665749E+05 -1.592590E+05 -1.342282E+06  2.225436E+04 -9.768110E+03
       194  10 -2.767190E+06 -3.518052E+05  7.778524E+04 -1.121357E+06  6.467577E-11  9.927910E-10
       194  11 -2.703061E+06 -2.854707E+05  9.697133E+04 -1.060621E+06  1.066623E-09  1.951631E-09
       194  12 -2.582584E+06 -2.858331E+05  1.095446E+05 -1.066821E+06  1.032804E-09  8.535352E-10
       194  13 -3.085437E+06 -4.705712E+05 -7.372250E+03 -1.206689E+06  2.576254E-09  1.770062E-09
       194  14 -3.114009E+06 -4.400250E+05 -1.274304E+04 -1.172174E+06  1.620146E-11 -3.034039E-10
       194  15 -3.086270E+06 -4.762117E+05 -2.484648E+04 -1.204602E+06  5.697228E-10  2.330811E-10
       194  16 -3.403586E+06 -5.893314E+05 -9.253843E+04 -1.291981E+06  2.506846E-10 -1.024118E-09
       194  17 -3.524793E+06 -5.945695E+05 -1.224722E+05 -1.283660E+06  2.859083E-10  1.870226E-09
       194  18 -3.589712E+06 -6.665751E+05 -1.592601E+05 -1.342282E+06 -8.493777E-10  8.257970E-10
       194  19 -2.767190E+06 -3.518052E+05  7.778547E+04 -1.121357E+06 -9.663256E+03  5.789307E+03
       194  20 -2.703061E+06 -2.854706E+05  9.697201E+04 -1.060621E+06 -1.750112E+04  7.403139E+03
       194  21 -2.582583E+06 -2.858328E+05  1.095459E+05 -1.066822E+06 -2.521193E+04  8.660839E+03
       194  22 -3.085437E+06 -4.705711E+05 -7.372055E+03 -1.206689E+06 -7.891640E+03  6.450268E+03
       194  23 -3.114008E+06 -4.400249E+05 -1.274245E+04 -1.172174E+06 -1.587613E+04  8.010430E+03
       194  24 -3.086270E+06 -4.762114E+05 -2.484525E+04 -1.204602E+06 -2.373248E+04  9.214723E+03
       194  25 -3.403586E+06 -5.893314E+05 -9.253826E+04 -1.291981E+06 -6.121030E+03  7.110859E+03
       194  26 -3.524793E+06 -5.945693E+05 -1.224717E+05 -1.283660E+06 -1.425232E+04  8.617278E+03
       194  27 -3.589712E+06 -6.665749E+05 -1.592590E+05 -1.342282E+06 -2.225436E+04  9.768110E+03
       195   1 -2.434707E+06 -2.270479E+05  1.425252E+05 -1.034985E+06  3.127841E+04 -9.223464E+03
       195   2 -2.376036E+06 -1.566937E+05  1.411075E+05 -9.736863E+05  6.012482E+04 -2.494971E+03
       195   3 -2.290295E+06 -1.993670E+05  1.028418E+05 -9.572889E+05  8.806830E+04  6.669731E+03
       195   4 -3.090209E+06 -4.676854E+05 -3.162833E+04 -1.206791E+06  2.922618E+04 -9.992178E+03
       195   5 -3.107034E+06 -4.347949E+05 -5.460091E+04 -1.175459E+06  5.907531E+04 -2.890624E+03
       195   6 -3.097021E+06 -5.151845E+05 -1.152540E+05 -1.189032E+06  8.801725E+04  6.646144E+03
       195   7 -3.745296E+06 -7.083030E+05 -2.058191E+05 -1.378435E+06  2.717633E+04 -1.076005E+04
       195   8 -3.837513E+06 -7.128613E+05 -2.503561E+05 -1.377016E+06  5.802713E+04 -3.285768E+03
       195   9 -3.903115E+06 -8.309486E+05 -3.334077E+05 -1.420496E+06  8.796622E+04  6.622557E+03
       195  10 -2.434708E+06 -2.270483E+05  1.425232E+05 -1.034984E+06 -3.490066E-10 -3.840207E-10
       195  11 -2.376040E+06 -1.566946E+05  1.411006E+05 -9.736862E+05 -1.036097E-09 -1.039170E-09
       195  12 -2.290303E+06 -1.993691E+05  1.028271E+05 -9.572894E+05 -9.407258E-10 -4.422659E-10
       195  13 -3.090210E+06 -4.676858E+05 -3.163013E+04 -1.206790E+06 -3.944549E-10 -1.760492E-11
       195  14 -3.107038E+06 -4.347959E+05 -5.460752E+04 -1.175459E+06  6.390438E-10  4.644305E-10
       195  15 -3.097029E+06 -5.151866E+05 -1.152688E+05 -1.189032E+06  8.539245E-11 -7.268925E-11
       195  16 -3.745297E+06 -7.083033E+05 -2.058207E+05 -1.378434E+06 -4.435673E-10  7.297840E-10
       195  17 -3.837516E+06 -7.128622E+05 -2.503625E+05 -1.377016E+06 -5.117399E-10 -3.337338E-10
       195  18 -3.903123E+06 -8.309508E+05 -3.334224E+05 -1.420497E+06  6.895221E-10  5.522516E-10
       195  19 -2.434707E+06 -2.270479E+05  1.425252E+05 -1.034985E+06 -3.127841E+04  9.223464E+03
       195  20 -2.376036E+06 -1.566937E+05  1.411075E+05 -9.736863E+05 -6.012482E+04  2.494971E+03
       195  21 -2.290295E+06 -1.993670E+05  1.028418E+05 -9.572889E+05 -8.806830E+04 -6.669731E+03
       195  22 -3.090209E+06 -4.676854E+05 -3.162833E+04 -1.206791E+06 -2.922618E+04  9.992178E+03
       195  23 -3.107034E+06 -4.347949E+05 -5.460091E+04 -1.175459E+06 -5.907531E+04  2.890624E+03
       195  24 -3.097021E+06 -5.151845E+05 -1.152540E+05 -1.189032E+06 -8.801725E+04 -6.646144E+03
       195  25 -3.745296E+06 -7.083030E+05 -2.058191E+05 -1.378435E+06 -2.717633E+04  1.076005E+04
       195  26 -3.837513E+06 -7.128613E+05 -2.503561E+05 -1.377016E+06 -5.802713E+04  3.285768E+03
       195  27 -3.903115E+06 -8.309486E+05 -3.334077E+05 -1.420496E+06 -8.796622E+04 -6.622557E+03
       196   1 -2.143990E+06 -1.338845E+05  1.093485E+05 -1.004272E+06  1.167402E+05  1.143518E+04
       196   2 -2.082064E+06  2.438470E+04  3.596726E+04 -8.888415E+05  2.345113E+05  5.242400E+04
       196   3 -2.186424E+06 -3.724832E+05 -2.650225E+05 -6.856699E+05  3.431954E+05  1.175687E+05
       196   4 -3.117501E+06 -4.528284E+05 -1.412102E+05 -1.220172E+06  1.102555E+05  9.005567E+03
       196   5 -3.062317E+06 -3.762037E+05 -2.313663E+05 -1.187944E+06  2.381084E+05  5.376083E+04
       196   6 -3.175763E+06 -8.572669E+05 -5.574389E+05 -1.067898E+06  3.568628E+05  1.226517E+05
       196   7 -4.090098E+06 -7.717693E+05 -3.918454E+05 -1.435790E+06  1.037820E+05  6.578863E+03
       196   8 -4.041634E+06 -7.766871E+05 -4.987870E+05 -1.486601E+06  2.416990E+05  5.509474E+04
       196   9 -4.164117E+06 -1.341778E+06 -8.499492E+05 -1.449505E+06  3.705056E+05  1.277193E+05
       196  10 -2.144005E+06 -1.338883E+05  1.093226E+05 -1.004273E+06 -9.703754E-10  6.722580E-10
       196  11 -2.082124E+06  2.436690E+04  3.585832E+04 -8.888514E+05 -1.201749E-09  1.274215E-09
       196  12 -2.186554E+06 -3.725298E+05 -2.652708E+05 -6.857025E+05 -1.962749E-10  1.235797E-10
       196  13 -3.117514E+06 -4.528318E+05 -1.412333E+05 -1.220173E+06 -1.362415E-09  1.896248E-13
       196  14 -3.062379E+06 -3.762221E+05 -2.314789E+05 -1.187954E+06  2.848636E-09 -7.121941E-10
       196  15 -3.175905E+06 -8.573175E+05 -5.577080E+05 -1.067933E+06 -4.124993E-10  1.888193E-10
       196  16 -4.090110E+06 -7.717723E+05 -3.918658E+05 -1.435791E+06  7.161645E-10  3.135432E-10
       196  17 -4.041698E+06 -7.767063E+05 -4.989034E+05 -1.486612E+06 -2.371928E-09  1.008543E-09
       196  18 -4.164270E+06 -1.341833E+06 -8.502400E+05 -1.449544E+06 -6.948935E-10  5.827379E-10
       196  19 -2.143990E+06 -1.338845E+05  1.093485E+05 -1.004272E+06 -1.167402E+05 -1.143518E+04
       196  20 -2.082064E+06  2.438470E+04  3.596726E+04 -8.888415E+05 -2.345113E+05 -5.242400E+04
       196  21 -2.186424E+06 -3.724832E+05 -2.650225E+05 -6.856699E+05 -3.431954E+05 -1.175687E+05
       196  22 -3.117501E+06 -4.528284E+05 -1.412102E+05 -1.220172E+06 -1.102555E+05 -9.005567E+03
       196  23 -3.062317E+06 -3.762037E+05 -2.313663E+05 -1.187944E+06 -2.381084E+05 -5.376083E+04
       196  24 -3.175763E+06 -8.572669E+05 -5.574389E+05 -1.067898E+06 -3.568628E+05 -1.226517E+05
       196  25 -4.090098E+06 -7.717693E+05 -3.918454E+05 -1.435790E+06 -1.037820E+05 -6.578863E+03
       196  26 -4.041634E+06 -7.766871E+05 -4.987870E+05 -1.486601E+06 -2.416990E+05 -5.509474E+04
       196  27 -4.164117E+06 -1.341778E+06 -8.499492E+05 -1.449505E+06 -3.705056E+05 -1.277193E+05
       197   1  5.087058E+05  1.450273E+05  2.290271E+05  6.448818E+04  2.570473E+05  6.563038E+03
       197   2  5.015684E+05 -1.968050E+05  2.524092E+04  2.082248E+04  1.716615E+05  1.816767E+04
       197   3  6.028315E+05 -1.521526E+05 -2.619938E+04 -6.156522E+04  8.629179E+04  1.632592E+04
       197   4  1.154337E+06  3.054493E+05  3.884003E+05 -2.322760E+04  2.656916E+05  6.543666E+03
       197   5  1.099740E+06 -4.855345E+04  1.693183E+05 -3.557541E+03  1.740781E+05  1.816363E+04
       197   6  1.154504E+06 -1.520745E+04  1.067896E+05 -2.260796E+04  8.248815E+04  1.632553E+04
       197   7  1.800363E+06  4.658695E+05  5.477472E+05 -1.110348E+05  2.743448E+05  6.521878E+03
       197   8  1.698240E+06  9.967434E+04  3.133705E+05 -2.796125E+04  1.764969E+05  1.815941E+04
       197   9  1.706458E+06  1.217212E+05  2.397577E+05  1.638393E+04  7.868112E+04  1.632466E+04
       197  10  5.086349E+05  1.450096E+05  2.289030E+05  6.448683E+04 -6.535334E-10  7.562035E-10
       197  11  5.015367E+05 -1.968133E+05  2.518498E+04  2.081997E+04 -2.523538E-10 -5.552603E-10
       197  12  6.028234E+05 -1.521549E+05 -2.621386E+04 -6.156635E+04 -5.521463E-10 -2.130333E-10
       197  13  1.154261E+06  3.054304E+05  3.882678E+05 -2.322900E+04  1.085512E-09  1.453889E-10
       197  14  1.099707E+06 -4.856192E+04  1.692608E+05 -3.560086E+03 -2.206619E-09 -2.362126E-09
       197  15  1.154497E+06 -1.520956E+04  1.067763E+05 -2.260904E+04 -1.135541E-09  9.687764E-11
       197  16  1.800283E+06  4.658493E+05  5.476061E+05 -1.110362E+05  3.790988E-10 -1.172732E-10
       197  17  1.698206E+06  9.966566E+04  3.133115E+05 -2.796383E+04  1.790447E-09 -3.698587E-10
       197  18  1.706452E+06  1.217193E+05  2.397456E+05  1.638289E+04 -1.353006E-09 -4.029098E-10
       197  19  5.087058E+05  1.450273E+05  2.290271E+05  6.448818E+04 -2.570473E+05 -6.563038E+03
       197  20  5.015684E+05 -1.968050E+05  2.524092E+04  2.082248E+04 -1.716615E+05 -1.816767E+04
       197  21  6.028315E+05 -1.521526E+05 -2.619938E+04 -6.156522E+04 -8.629179E+04 -1.632592E+04
       197  22  1.154337E+06  3.054493E+05  3.884003E+05 -2.322760E+04 -2.656916E+05 -6.543666E+03
       197  23  1.099740E+06 -4.855345E+04  1.693183E+05 -3.557541E+03 -1.740781E+05 -1.816363E+04
       197  24  1.154504E+06 -1.520745E+04  1.067896E+05 -2.260796E+04 -8.248815E+04 -1.632553E+04
       197  25  1.800363E+06  4.658695E+05  5.477472E+05 -1.110348E+05 -2.743448E+05 -6.521878E+03
       197  26  1.698240E+06  9.967434E+04  3.133705E+05 -2.796125E+04 -1.764969E+05 -1.815941E+04
       197  27  1.706458E+06  1.217212E+05  2.397577E+05  1.638393E+04 -7.868112E+04 -1.632466E+04
       198   1  6.497023E+05 -8.575139E+04 -2.950669E+04 -1.352946E+04  6.569574E+04  1.330959E+04
       198   2  6.863819E+05 -1.147221E+05 -6.210204E+04 -2.183339E+03  4.356759E+04  1.269413E+04
       198   3  7.372004E+05 -1.000067E+05 -6.930706E+04 -2.688204E+04  2.143812E+04  1.099661E+04
       198   4  1.133340E+06  3.422971E+04  8.734634E+04 -2.222124E+04  6.570692E+04  1.330797E+04
       198   5  1.126249E+06 -5.619142E+03  4.399509E+04 -4.182381E+03  4.306888E+04  1.269299E+04
       198   6  1.133373E+06 -1.711033E+03  2.637361E+04 -2.218635E+04  2.043107E+04  1.099583E+04
       198   7  1.617190E+06  1.541940E+05  2.041827E+05 -3.091987E+04  6.571810E+04  1.330635E+04
       198   8  1.566293E+06  1.034697E+05  1.500784E+05 -6.182877E+03  4.256980E+04  1.269186E+04
       198   9  1.529689E+06  9.657322E+04  1.220431E+05 -1.748768E+04  1.942338E+04  1.099504E+04
       198  10  6.496976E+05 -8.575273E+04 -2.951512E+04 -1.353016E+04  2.509155E-10 -9.894629E-10
       198  11  6.863798E+05 -1.147228E+05 -6.210590E+04 -2.183784E+03  2.255421E-11  7.382868E-10
       198  12  7.371998E+05 -1.000069E+05 -6.930815E+04 -2.688223E+04 -4.650460E-10 -3.090896E-10
       198  13  1.133335E+06  3.422836E+04  8.733791E+04 -2.222195E+04 -3.334672E-11 -2.385273E-10
       198  14  1.126247E+06 -5.619812E+03  4.399130E+04 -4.182821E+03 -1.094333E-09 -5.061397E-11
       198  15  1.133373E+06 -1.711275E+03  2.637260E+04 -2.218654E+04 -1.303812E-09 -2.472248E-10
       198  16  1.617186E+06  1.541927E+05  2.041742E+05 -3.092057E+04 -2.908755E-11  5.883810E-10
       198  17  1.566291E+06  1.034690E+05  1.500747E+05 -6.183312E+03 -1.876936E-09 -9.010104E-10
       198  18  1.529688E+06  9.657299E+04  1.220421E+05 -1.748785E+04 -1.612518E-10  1.681323E-10
       198  19  6.497023E+05 -8.575139E+04 -2.950669E+04 -1.352946E+04 -6.569574E+04 -1.330959E+04
       198  20  6.863819E+05 -1.147221E+05 -6.210204E+04 -2.183339E+03 -4.356759E+04 -1.269413E+04
       198  21  7.372004E+05 -1.000067E+05 -6.930706E+04 -2.688204E+04 -2.143812E+04 -1.099661E+04
       198  22  1.133340E+06  3.422971E+04  8.734634E+04 -2.222124E+04 -6.570692E+04 -1.330797E+04
       198  23  1.126249E+06 -5.619142E+03  4.399509E+04 -4.182381E+03 -4.306888E+04 -1.269299E+04
       198  24  1.133373E+06 -1.711033E+03  2.637361E+04 -2.218635E+04 -2.043107E+04 -1.099583E+04
       198  25  1.617190E+06  1.541940E+05  2.041827E+05 -3.091987E+04 -6.571810E+04 -1.330635E+04
       198  26  1.566293E+06  1.034697E+05  1.500784E+05 -6.182877E+03 -4.256980E+04 -1.269186E+04
       198  27  1.529689E+06  9.657322E+04  1.220431E+05 -1.748768E+04 -1.942338E+04 -1.099504E+04
       199   1  7.989720E+05 -7.850022E+04 -5.919941E+04 -2.112779E+04  1.693647E+04  9.862698E+03
       199   2  8.396004E+05 -7.260828E+04 -5.872409E+04 -4.570330E+03  1.131330E+04  8.313660E+03
       199   3  8.823203E+05 -6.180725E+04 -5.333627E+04 -2.237298E+04  5.688658E+03  6.699730E+03
       199   4  1.130689E+06  3.755555E+03  2.071520E+04 -2.182314E+04  1.625077E+04  9.862100E+03
       199   5  1.129647E+06 -6.684199E+02  1.124134E+04 -4.643071E+03  1.059522E+04  8.313290E+03
       199   6  1.130698E+06 -1.792250E+02  6.700353E+03 -2.182207E+04  4.938565E+03  6.699595E+03
       199   7  1.462506E+06  8.600332E+04  1.006220E+05 -2.251886E+04  1.556470E+04  9.861505E+03
       199   8  1.419770E+06  7.126531E+04  8.120075E+04 -4.715849E+03  9.876798E+03  8.312921E+03
       199   9  1.379132E+06  6.144429E+04  6.673256E+04 -2.127093E+04  4.188172E+03  6.699459E+03
       199  10  7.989717E+05 -7.850041E+04 -5.920013E+04 -2.112792E+04  1.648496E-10  1.287416E-11
       199  11  8.396002E+05 -7.260839E+04 -5.872446E+04 -4.570406E+03  3.950046E-10  3.094519E-11
       199  12  8.823202E+05 -6.180730E+04 -5.333642E+04 -2.237301E+04 -1.386614E-09  2.664610E-10
       199  13  1.130689E+06  3.755380E+03  2.071452E+04 -2.182326E+04 -1.094222E-09 -2.266854E-10
       199  14  1.129647E+06 -6.685242E+02  1.124100E+04 -4.643142E+03  7.424919E-10 -3.481672E-10
       199  15  1.130698E+06 -1.792798E+02  6.700223E+03 -2.182209E+04 -4.032702E-10  2.793178E-10
       199  16  1.462506E+06  8.600315E+04  1.006213E+05 -2.251899E+04 -7.828181E-10 -2.940422E-10
       199  17  1.419770E+06  7.126521E+04  8.120044E+04 -4.715915E+03 -2.353822E-10 -8.531251E-10
       199  18  1.379132E+06  6.144424E+04  6.673244E+04 -2.127095E+04  6.715315E-10  2.704401E-10
       199  19  7.989720E+05 -7.850022E+04 -5.919941E+04 -2.112779E+04 -1.693647E+04 -9.862698E+03
       199  20  8.396004E+05 -7.260828E+04 -5.872409E+04 -4.570330E+03 -1.131330E+04 -8.313660E+03
       199  21  8.823203E+05 -6.180725E+04 -5.333627E+04 -2.237298E+04 -5.688658E+03 -6.699730E+03
       199  22  1.130689E+06  3.755555E+03  2.071520E+04 -2.182314E+04 -1.625077E+04 -9.862100E+03
       199  23  1.129647E+06 -6.684199E+02  1.124134E+04 -4.643071E+03 -1.059522E+04 -8.313290E+03
       199  24  1.130698E+06 -1.792250E+02  6.700353E+03 -2.182207E+04 -4.938565E+03 -6.699595E+03
       199  25  1.462506E+06  8.600332E+04  1.006220E+05 -2.251886E+04 -1.556470E+04 -9.861505E+03
       199  26  1.419770E+06  7.126531E+04  8.120075E+04 -4.715849E+03 -9.876798E+03 -8.312921E+03
       199  27  1.379132E+06  6.144429E+04  6.673256E+04 -2.127093E+04 -4.188172E+03 -6.699459E+03
       200   1  9.439534E+05 -4.579972E+04 -3.958035E+04 -2.154901E+04  4.585646E+03  5.757106E+03
       200   2  9.842260E+05 -3.627245E+04 -3.199263E+04 -4.919248E+03  2.988435E+03  4.178351E+03
       200   3  1.024868E+06 -2.615809E+04 -2.321691E+04 -2.163992E+04  1.390595E+03  2.606721E+03
       200   4  1.130322E+06  3.973759E+02  5.249171E+03 -2.159807E+04  3.863912E+03  5.757086E+03
       200   5  1.130140E+06 -8.456977E+01  3.202679E+03 -4.923137E+03  2.269506E+03  4.178440E+03
       200   6  1.130325E+06  2.006417E+01  2.342047E+03 -2.159815E+04  6.745747E+02  2.606923E+03
       200   7  1.316722E+06  4.659194E+04  5.007622E+04 -2.164715E+04  3.141962E+03  5.757066E+03
       200   8  1.276074E+06  3.610175E+04  3.839647E+04 -4.927027E+03  1.550409E+03  4.178529E+03
       200   9  1.235793E+06  2.619741E+04  2.790021E+04 -2.155637E+04 -4.156706E+01  2.607126E+03
       200  10  9.439533E+05 -4.579976E+04 -3.958045E+04 -2.154903E+04 -6.895326E-10  1.687211E-10
       200  11  9.842260E+05 -3.627247E+04 -3.199268E+04 -4.919258E+03 -1.845299E-09  3.415539E-10
       200  12  1.024868E+06 -2.615810E+04 -2.321693E+04 -2.163993E+04 -7.171514E-10  2.416626E-10
       200  13  1.130322E+06  3.973362E+02  5.249080E+03 -2.159809E+04  6.188836E-10  3.711107E-10
       200  14  1.130140E+06 -8.458991E+01  3.202636E+03 -4.923145E+03 -8.734786E-10 -4.366492E-10
       200  15  1.130325E+06  2.005674E+01  2.342033E+03 -2.159815E+04 -1.657250E-09 -2.559836E-10
       200  16  1.316722E+06  4.659191E+04  5.007614E+04 -2.164717E+04  8.699914E-10  2.239951E-10
       200  17  1.276074E+06  3.610173E+04  3.839643E+04 -4.927032E+03 -1.819899E-09 -5.696676E-10
       200  18  1.235793E+06  2.619740E+04  2.790020E+04 -2.155637E+04  2.036477E-09 -3.934506E-10
       200  19  9.439534E+05 -4.579972E+04 -3.958035E+04 -2.154901E+04 -4.585646E+03 -5.757106E+03
       200  20  9.842260E+05 -3.627245E+04 -3.199263E+04 -4.919248E+03 -2.988435E+03 -4.178351E+03
       200  21  1.024868E+06 -2.615809E+04 -2.321691E+04 -2.163992E+04 -1.390595E+03 -2.606721E+03
       200  22  1.130322E+06  3.973759E+02  5.249171E+03 -2.159807E+04 -3.863912E+03 -5.757086E+03
       200  23  1.130140E+06 -8.456977E+01  3.202679E+03 -4.923137E+03 -2.269506E+03 -4.178440E+03
       200  24  1.130325E+06  2.006417E+01  2.342047E+03 -2.159815E+04 -6.745747E+02 -2.606923E+03
       200  25  1.316722E+06  4.659194E+04  5.007622E+04 -2.164715E+04 -3.141962E+03 -5.757066E+03
       200  26  1.276074E+06  3.610175E+04  3.839647E+04 -4.927027E+03 -1.550409E+03 -4.178529E+03
       200  27  1.235793E+06  2.619741E+04  2.790021E+04 -2.155637E+04  4.156706E+01 -2.607126E+03
       201   1  1.085614E+06 -1.101509E+04 -8.472093E+03 -2.147830E+04  9.801340E+02  1.694931E+03
       201   2  1.125541E+06 -1.201724E+03  1.218646E+03 -5.016323E+03 -1.858355E+02  1.327267E+02
       201   3  1.165693E+06  9.003621E+03  1.175940E+04 -2.155658E+04 -1.351878E+03 -1.423726E+03
       201   4  1.130296E+06  4.094009E+01  2.181274E+03 -2.152088E+04  2.653344E+02  1.695175E+03
       201   5  1.130184E+06 -5.032278E+01  2.338537E+03 -5.019737E+03 -8.980500E+02  1.329697E+02
       201   6  1.130296E+06  2.502058E+02  3.344273E+03 -2.152081E+04 -2.061433E+03 -1.423477E+03
       201   7  1.174979E+06  1.109683E+04  1.283450E+04 -2.156347E+04 -4.495163E+02  1.695418E+03
       201   8  1.134827E+06  1.101077E+03  3.458429E+03 -5.023151E+03 -1.610270E+03  1.332126E+02
       201   9  1.094900E+06 -8.503299E+03 -5.070939E+03 -2.148503E+04 -2.770948E+03 -1.423229E+03
       201  10  1.085614E+06 -1.101510E+04 -8.472100E+03 -2.147830E+04 -5.769513E-10  2.054530E-10
       201  11  1.125541E+06 -1.201724E+03  1.218646E+03 -5.016323E+03  3.319932E-10  7.030330E-11
       201  12  1.165693E+06  9.003618E+03  1.175939E+04 -2.155658E+04 -4.488774E-10 -9.199052E-11
       201  13  1.130296E+06  4.093698E+01  2.181269E+03 -2.152088E+04 -1.485541E-09  4.612626E-10
       201  14  1.130184E+06 -5.032301E+01  2.338535E+03 -5.019737E+03 -9.468620E-10  9.245585E-11
       201  15  1.130296E+06  2.502025E+02  3.344262E+03 -2.152081E+04 -1.620770E-09 -8.291797E-10
       201  16  1.174979E+06  1.109683E+04  1.283450E+04 -2.156347E+04 -8.279637E-10  1.583497E-10
       201  17  1.134827E+06  1.101076E+03  3.458424E+03 -5.023151E+03 -5.780241E-10  1.599389E-10
       201  18  1.094900E+06 -8.503303E+03 -5.070958E+03 -2.148504E+04 -4.278056E-10 -7.734234E-10
       201  19  1.085614E+06 -1.101509E+04 -8.472093E+03 -2.147830E+04 -9.801340E+02 -1.694931E+03
       201  20  1.125541E+06 -1.201724E+03  1.218646E+03 -5.016323E+03  1.858355E+02 -1.327267E+02
       201  21  1.165693E+06  9.003621E+03  1.175940E+04 -2.155658E+04  1.351878E+03  1.423726E+03
       201  22  1.130296E+06  4.094009E+01  2.181274E+03 -2.152088E+04 -2.653344E+02 -1.695175E+03
       201  23  1.130184E+06 -5.032278E+01  2.338537E+03 -5.019737E+03  8.980500E+02 -1.329697E+02
       201  24  1.130296E+06  2.502058E+02  3.344273E+03 -2.152081E+04  2.061433E+03  1.423477E+03
       201  25  1.174979E+06  1.109683E+04  1.283450E+04 -2.156347E+04  4.495163E+02 -1.695418E+03
       201  26  1.134827E+06  1.101077E+03  3.458429E+03 -5.023151E+03  1.610270E+03 -1.332126E+02
       201  27  1.094900E+06 -8.503299E+03 -5.070939E+03 -2.148503E+04  2.770948E+03  1.423229E+03
       202   1  1.226646E+06  2.377652E+04  2.743871E+04 -2.128640E+04 -2.004232E+03 -2.343134E+03
       202   2  1.266469E+06  3.347803E+04  3.964546E+04 -5.025666E+03 -5.408435E+03 -3.912543E+03
       202   3  1.307471E+06  4.608599E+04  5.479294E+04 -2.206767E+04 -8.812421E+03 -5.425048E+03
       202   4  1.130504E+06 -8.803686E+01  4.130649E+03 -2.158788E+04 -2.734074E+03 -2.342914E+03
       202   5  1.129916E+06 -3.824783E+02  6.714626E+03 -4.936086E+03 -6.111647E+03 -3.912439E+03
       202   6  1.130499E+06  2.225306E+03  1.222138E+04 -2.158745E+04 -9.488784E+03 -5.425054E+03
       202   7  1.034371E+06 -2.395327E+04 -1.917808E+04 -2.188931E+04 -3.463804E+03 -2.342693E+03
       202   8  9.933790E+05 -3.424435E+04 -2.621754E+04 -4.846524E+03 -6.814706E+03 -3.912335E+03
       202   9  9.535561E+05 -4.163766E+04 -3.035241E+04 -2.110737E+04 -1.016496E+04 -5.425060E+03
       202  10  1.226646E+06  2.377651E+04  2.743870E+04 -2.128640E+04  2.912346E-10  4.027083E-11
       202  11  1.266469E+06  3.347801E+04  3.964538E+04 -5.025683E+03  3.149199E-10  1.336159E-10
       202  12  1.307471E+06  4.608594E+04  5.479274E+04 -2.206771E+04 -1.621203E-09 -7.033942E-11
       202  13  1.130504E+06 -8.804476E+01  4.130625E+03 -2.158788E+04  3.907506E-10 -4.171027E-10
       202  14  1.129916E+06 -3.825048E+02  6.714527E+03 -4.936105E+03 -4.658014E-10 -3.962639E-10
       202  15  1.130499E+06  2.225250E+03  1.222115E+04 -2.158749E+04 -8.801879E-10 -1.327112E-10
       202  16  1.034371E+06 -2.395328E+04 -1.917811E+04 -2.188931E+04 -5.640364E-10 -1.548267E-10
       202  17  9.933789E+05 -3.424438E+04 -2.621766E+04 -4.846546E+03  3.385822E-10 -1.353280E-10
       202  18  9.535560E+05 -4.163772E+04 -3.035266E+04 -2.110742E+04  1.851497E-09 -3.454549E-10
       202  19  1.226646E+06  2.377652E+04  2.743871E+04 -2.128640E+04  2.004232E+03  2.343134E+03
       202  20  1.266469E+06  3.347803E+04  3.964546E+04 -5.025666E+03  5.408435E+03  3.912543E+03
       202  21  1.307471E+06  4.608599E+04  5.479294E+04 -2.206767E+04  8.812421E+03  5.425048E+03
       202  22  1.130504E+06 -8.803686E+01  4.130649E+03 -2.158788E+04  2.734074E+03  2.342914E+03
       202  23  1.129916E+06 -3.824783E+02  6.714626E+03 -4.936086E+03  6.111647E+03  3.912439E+03
       202  24  1.130499E+06  2.225306E+03  1.222138E+04 -2.158745E+04  9.488784E+03  5.425054E+03
       202  25  1.034371E+06 -2.395327E+04 -1.917808E+04 -2.188931E+04  3.463804E+03  2.342693E+03
       202  26  9.933790E+05 -3.424435E+04 -2.621754E+04 -4.846524E+03  6.814706E+03  3.912335E+03
       202  27  9.535561E+05 -4.163766E+04 -3.035241E+04 -2.110737E+04  1.016496E+04  5.425060E+03
       203   1  1.370956E+06  5.826934E+04  7.324034E+04 -1.913732E+04 -1.103651E+04 -6.474475E+03
       203   2  1.408376E+06  6.624627E+04  9.346450E+04 -5.972339E+03 -2.471511E+04 -8.078712E+03
       203   3  1.454128E+06  9.997902E+04  1.290426E+05 -2.706230E+04 -3.839401E+04 -8.868648E+03
       203   4  1.132071E+06 -9.834110E+02  1.552553E+04 -2.179804E+04 -1.195211E+04 -6.474524E+03
       203   5  1.127926E+06 -3.286830E+03  2.584995E+04 -4.672826E+03 -2.525343E+04 -8.079071E+03
       203   6  1.132051E+06  2.010688E+04  5.127210E+04 -2.180326E+04 -3.855414E+04 -8.869324E+03
       203   7  8.932388E+05 -6.024031E+04 -4.219335E+04 -2.445773E+04 -1.286735E+04 -6.474565E+03
       203   8  8.475478E+05 -7.282566E+04 -4.177022E+04 -3.373903E+03 -2.579151E+04 -8.079433E+03
       203   9  8.100682E+05 -5.977272E+04 -2.650582E+04 -1.654695E+04 -3.871419E+04 -8.870003E+03
       203  10  1.370956E+06  5.826927E+04  7.324003E+04 -1.913737E+04  3.299740E-09  1.757104E-10
       203  11  1.408375E+06  6.624604E+04  9.346323E+04 -5.972500E+03  9.065731E-11  3.956814E-10
       203  12  1.454127E+06  9.997854E+04  1.290397E+05 -2.706258E+04 -1.836120E-09  1.997006E-11
       203  13  1.132071E+06 -9.834943E+02  1.552519E+04 -2.179810E+04 -1.127908E-09 -8.770238E-11
       203  14  1.127925E+06 -3.287071E+03  2.584863E+04 -4.672990E+03 -1.413307E-09  3.444090E-10
       203  15  1.132049E+06  2.010640E+04  5.126916E+04 -2.180353E+04  3.813152E-10  1.247377E-10
       203  16  8.932387E+05 -6.024039E+04 -4.219374E+04 -2.445780E+04 -1.499661E-09 -3.275050E-10
       203  17  8.475470E+05 -7.282591E+04 -4.177159E+04 -3.374071E+03 -1.605959E-10  4.485719E-11
       203  18  8.100665E+05 -5.977320E+04 -2.650878E+04 -1.654723E+04  1.077531E-09  5.773932E-10
       203  19  1.370956E+06  5.826934E+04  7.324034E+04 -1.913732E+04  1.103651E+04  6.474475E+03
       203  20  1.408376E+06  6.624627E+04  9.346450E+04 -5.972339E+03  2.471511E+04  8.078712E+03
       203  21  1.454128E+06  9.997902E+04  1.290426E+05 -2.706230E+04  3.839401E+04  8.868648E+03
       203  22  1.132071E+06 -9.834110E+02  1.552553E+04 -2.179804E+04  1.195211E+04  6.474524E+03
       203  23  1.127926E+06 -3.286830E+03  2.584995E+04 -4.672826E+03  2.525343E+04  8.079071E+03
       203  24  1.132051E+06  2.010688E+04  5.127210E+04 -2.180326E+04  3.855414E+04  8.869324E+03
       203  25  8.932388E+05 -6.024031E+04 -4.219335E+04 -2.445773E+04  1.286735E+04  6.474565E+03
       203  26  8.475478E+05 -7.282566E+04 -4.177022E+04 -3.373903E+03  2.579151E+04  8.079433E+03
       203  27  8.100682E+05 -5.977272E+04 -2.650582E+04 -1.654695E+04  3.871419E+04  8.870003E+03
       204   1  1.530840E+06  8.689856E+04  1.557773E+05  5.967512E+02 -4.539891E+04 -1.130256E+04
       204   2  1.542099E+06  7.799854E+04  2.028053E+05 -1.878930E+04 -1.037763E+05 -1.293123E+04
       204   3  1.618234E+06  2.971545E+05  3.448529E+05 -7.402837E+04 -1.621655E+05 -4.513466E+03
       204   4  1.144473E+06 -8.904522E+03  6.267742E+04 -2.210388E+04 -4.840384E+04 -1.130268E+04
       204   5  1.112361E+06 -2.848684E+04  9.935790E+04 -4.265498E+03 -1.021612E+05 -1.293309E+04
       204   6  1.144368E+06  1.792662E+05  2.279005E+05 -2.227773E+04 -1.559259E+05 -4.520990E+03
       204   7  7.582433E+05 -1.047165E+05 -3.043277E+04 -4.479037E+04 -5.140690E+04 -1.130258E+04
       204   8  6.827918E+05 -1.349849E+05 -4.102570E+03  1.024820E+04 -1.005472E+05 -1.293488E+04
       204   9  6.707112E+05  6.137128E+04  1.109330E+05  2.943342E+04 -1.496910E+05 -4.527482E+03
       204  10  1.530838E+06  8.689787E+04  1.557732E+05  5.963382E+02 -9.749116E-10 -2.434671E-10
       204  11  1.542087E+06  7.799547E+04  2.027848E+05 -1.879038E+04 -4.640370E-10 -2.138930E-10
       204  12  1.618206E+06  2.971474E+05  3.448036E+05 -7.402896E+04  1.555770E-10  3.155124E-10
       204  13  1.144471E+06 -8.905287E+03  6.267279E+04 -2.210432E+04 -1.887472E-09 -8.868574E-10
       204  14  1.112350E+06 -2.848982E+04  9.933801E+04 -4.266562E+03  3.224239E-09  1.394703E-10
       204  15  1.144342E+06  1.792596E+05  2.278548E+05 -2.227829E+04 -8.801678E-11 -5.113814E-10
       204  16  7.582404E+05 -1.047174E+05 -3.043797E+04 -4.479084E+04  7.061742E-10  4.165853E-10
       204  17  6.827809E+05 -1.349877E+05 -4.121861E+03  1.024715E+04  8.474569E-10 -1.551823E-10
       204  18  6.706872E+05  6.136525E+04  1.108909E+05  2.943287E+04 -6.527645E-10  8.653697E-10
       204  19  1.530840E+06  8.689856E+04  1.557773E+05  5.967512E+02  4.539891E+04  1.130256E+04
       204  20  1.542099E+06  7.799854E+04  2.028053E+05 -1.878930E+04  1.037763E+05  1.293123E+04
       204  21  1.618234E+06  2.971545E+05  3.448529E+05 -7.402837E+04  1.621655E+05  4.513466E+03
       204  22  1.144473E+06 -8.904522E+03  6.267742E+04 -2.210388E+04  4.840384E+04  1.130268E+04
       204  23  1.112361E+06 -2.848684E+04  9.935790E+04 -4.265498E+03  1.021612E+05  1.293309E+04
       204  24  1.144368E+06  1.792662E+05  2.279005E+05 -2.227773E+04  1.559259E+05  4.520990E+03
       204  25  7.582433E+05 -1.047165E+05 -3.043277E+04 -4.479037E+04  5.140690E+04  1.130258E+04
       204  26  6.827918E+05 -1.349849E+05 -4.102570E+03  1.024820E+04  1.005472E+05  1.293488E+04
       204  27  6.707112E+05  6.137128E+04  1.109330E+05  2.943342E+04  1.496910E+05  4.527482E+03
       205   1  6.036335E+05  1.777561E+06  5.846547E+05 -6.410972E+05  2.187098E+04  1.937237E+05
       205   2  4.053985E+05  1.249734E+06  3.557775E+05 -5.651188E+05  6.776498E+04  7.514632E+04
       205   3  2.644833E+05  7.514996E+05  2.182524E+05 -5.866738E+05  6.433406E+04 -4.343251E+04
       205   4  8.092831E+04 -3.363743E+05  8.504777E+04 -5.850767E+05  2.233764E+04  5.696739E+04
       205   5  2.457533E+04 -3.424880E+05  4.401567E+04 -5.364311E+05  6.792294E+04  3.457816E+04
       205   6  8.966720E+03 -3.358518E+05  2.770701E+04 -5.853113E+05  6.413530E+04  1.208496E+04
       205   7 -4.420763E+05 -2.446162E+06 -4.147972E+05 -5.292424E+05  2.278066E+04 -7.932708E+04
       205   8 -3.563970E+05 -1.932277E+06 -2.678617E+05 -5.078155E+05  6.807742E+04 -5.888450E+03
       205   9 -2.466126E+05 -1.422040E+06 -1.628693E+05 -5.839498E+05  6.393656E+04  6.750817E+04
       205  10  6.036230E+05  1.777521E+06  5.845835E+05 -6.411007E+05  3.609666E-10  2.165996E-09
       205  11  4.053921E+05  1.249727E+06  3.557583E+05 -5.651229E+05  6.987504E-10 -3.525471E-09
       205  12  2.644784E+05  7.514964E+05  2.182411E+05 -5.866715E+05 -4.516059E-10 -3.870303E-09
       205  13  8.092690E+04 -3.363779E+05  8.504072E+04 -5.850777E+05  1.207264E-09  1.257644E-09
       205  14  2.457006E+04 -3.424905E+05  4.400475E+04 -5.364330E+05  5.588301E-10 -3.094514E-09
       205  15  8.962263E+03 -3.358530E+05  2.769901E+04 -5.853119E+05  8.120286E-10  6.783660E-10
       205  16 -4.420785E+05 -2.446169E+06 -4.148101E+05 -5.292410E+05 -1.747288E-10 -2.928179E-09
       205  17 -3.564020E+05 -1.932279E+06 -2.678705E+05 -5.078152E+05  1.420660E-09  9.166792E-10
       205  18 -2.466182E+05 -1.422046E+06 -1.628855E+05 -5.839532E+05 -4.550475E-11  3.128901E-09
       205  19  6.036335E+05  1.777561E+06  5.846547E+05 -6.410972E+05 -2.187098E+04 -1.937237E+05
       205  20  4.053985E+05  1.249734E+06  3.557775E+05 -5.651188E+05 -6.776498E+04 -7.514632E+04
       205  21  2.644833E+05  7.514996E+05  2.182524E+05 -5.866738E+05 -6.433406E+04  4.343251E+04
       205  22  8.092831E+04 -3.363743E+05  8.504777E+04 -5.850767E+05 -2.233764E+04 -5.696739E+04
       205  23  2.457533E+04 -3.424880E+05  4.401567E+04 -5.364311E+05 -6.792294E+04 -3.457816E+04
       205  24  8.966720E+03 -3.358518E+05  2.770701E+04 -5.853113E+05 -6.413530E+04 -1.208496E+04
       205  25 -4.420763E+05 -2.446162E+06 -4.147972E+05 -5.292424E+05 -2.278066E+04  7.932708E+04
       205  26 -3.563970E+05 -1.932277E+06 -2.678617E+05 -5.078155E+05 -6.807742E+04  5.888450E+03
       205  27 -2.466126E+05 -1.422040E+06 -1.628693E+05 -5.839498E+05 -6.393656E+04 -6.750817E+04
       206   1  1.867216E+05  4.206843E+05  1.555873E+05 -5.909157E+05  4.598294E+04 -4.552094E+04
       206   2  6.298842E+04 -9.343309E+04  6.065190E+04 -5.360105E+05  1.790355E+04 -5.862507E+04
       206   3 -5.350788E+04 -6.044526E+05 -2.414639E+04 -5.818527E+05 -1.133257E+04 -7.172710E+04
       206   4  8.619031E+03 -3.380269E+05  2.389243E+04 -5.860085E+05  4.578159E+04  8.049581E+03
       206   5  6.004356E+03 -3.392096E+05  2.156208E+04 -5.356326E+05  1.768956E+04 -2.819734E+03
       206   6  1.025104E+04 -3.379420E+05  2.781532E+04 -5.860032E+05 -1.155964E+04 -1.369704E+04
       206   7 -1.695130E+05 -1.096168E+06 -1.078118E+05 -5.811066E+05  4.558093E+04  6.155666E+04
       206   8 -5.098105E+04 -5.849193E+05 -1.751759E+04 -5.352548E+05  1.747559E+04  5.296431E+04
       206   9  7.400756E+04 -7.135590E+04  7.978632E+04 -5.901555E+05 -1.178743E+04  4.435740E+04
       206  10  1.867188E+05  4.206815E+05  1.555795E+05 -5.909140E+05  1.862171E-10 -9.755197E-10
       206  11  6.298716E+04 -9.343687E+04  6.064484E+04 -5.360096E+05  6.299134E-10 -5.375286E-09
       206  12 -5.350940E+04 -6.044581E+05 -2.415632E+04 -5.818534E+05  9.916096E-10 -3.171189E-09
       206  13  8.616763E+03 -3.380275E+05  2.388837E+04 -5.860088E+05  1.067525E-09  1.553379E-09
       206  14  6.004018E+03 -3.392097E+05  2.156147E+04 -5.356325E+05 -3.411871E-09 -2.979161E-09
       206  15  1.025085E+04 -3.379422E+05  2.781471E+04 -5.860034E+05 -4.172475E-10  1.258421E-09
       206  16 -1.695163E+05 -1.096172E+06 -1.078228E+05 -5.811089E+05 -2.217289E-10 -1.987660E-10
       206  17 -5.098214E+04 -5.849224E+05 -1.752344E+04 -5.352555E+05 -4.925020E-10  1.636554E-09
       206  18  7.400688E+04 -7.135805E+04  7.978237E+04 -5.901551E+05  3.165090E-12  2.493799E-09
       206  19  1.867216E+05  4.206843E+05  1.555873E+05 -5.909157E+05 -4.598294E+04  4.552094E+04
       206  20  6.298842E+04 -9.343309E+04  6.065190E+04 -5.360105E+05 -1.790355E+04  5.862507E+04
       206  21 -5.350788E+04 -6.044526E+05 -2.414639E+04 -5.818527E+05  1.133257E+04  7.172710E+04
       206  22  8.619031E+03 -3.380269E+05  2.389243E+04 -5.860085E+05 -4.578159E+04 -8.049581E+03
       206  23  6.004356E+03 -3.392096E+05  2.156208E+04 -5.356326E+05 -1.768956E+04  2.819734E+03
       206  24  1.025104E+04 -3.379420E+05  2.781532E+04 -5.860032E+05  1.155964E+04  1.369704E+04
       206  25 -1.695130E+05 -1.096168E+06 -1.078118E+05 -5.811066E+05 -4.558093E+04 -6.155666E+04
       206  26 -5.098105E+04 -5.849193E+05 -1.751759E+04 -5.352548E+05 -1.747559E+04 -5.296431E+04
       206  27  7.400756E+04 -7.135590E+04  7.978632E+04 -5.901555E+05  1.178743E+04 -4.435740E+04
       207   1 -1.299747E+05 -9.290239E+05 -7.564385E+04 -5.859764E+05 -3.059070E+04 -7.788550E+04
       207   2 -2.328066E+05 -1.443114E+06 -1.647095E+05 -5.007266E+05 -4.214311E+04 -3.236235E+04
       207   3 -2.951085E+05 -1.953249E+06 -2.734614E+05 -5.138490E+05 -1.517391E+04  1.321638E+04
       207   4  1.084879E+04 -3.348378E+05  3.389874E+04 -5.854947E+05 -3.081945E+04 -1.844580E+04
       207   5  3.202077E+04 -3.433440E+05  5.707949E+04 -5.361669E+05 -4.207911E+04 -4.770813E+04
       207   6  1.066792E+05 -3.351919E+05  1.125342E+05 -5.851705E+05 -1.485382E+04 -7.687777E+04
       207   7  1.516540E+05  2.596988E+05  1.434400E+05 -5.850121E+05 -3.104797E+04  4.104937E+04
       207   8  2.967777E+05  7.575839E+05  2.788078E+05 -5.716698E+05 -4.201342E+04 -6.308055E+04
       207   9  5.083000E+05  1.285300E+06  4.983786E+05 -6.566762E+05 -1.451351E+04 -1.672060E+05
       207  10 -1.299773E+05 -9.290307E+05 -7.565703E+04 -5.859783E+05  1.030841E-09  4.022134E-10
       207  11 -2.328088E+05 -1.443116E+06 -1.647148E+05 -5.007277E+05  3.037850E-09 -3.705633E-09
       207  12 -2.951088E+05 -1.953250E+06 -2.734621E+05 -5.138488E+05 -4.749874E-11 -2.422121E-09
       207  13  1.084768E+04 -3.348384E+05  3.389631E+04 -5.854952E+05  8.755141E-10  1.839724E-09
       207  14  3.201825E+04 -3.433469E+05  5.707187E+04 -5.361685E+05 -2.749383E-09 -2.948958E-09
       207  15  1.066774E+05 -3.351983E+05  1.125226E+05 -5.851714E+05  6.608333E-10  4.264548E-10
       207  16  1.516525E+05  2.596967E+05  1.434350E+05 -5.850111E+05 -2.456170E-10 -1.102263E-09
       207  17  2.967748E+05  7.575791E+05  2.787970E+05 -5.716720E+05  1.253957E-09  1.064567E-09
       207  18  5.082923E+05  1.285270E+06  4.983258E+05 -6.566781E+05  9.190730E-10  2.252532E-09
       207  19 -1.299747E+05 -9.290239E+05 -7.564385E+04 -5.859764E+05  3.059070E+04  7.788550E+04
       207  20 -2.328066E+05 -1.443114E+06 -1.647095E+05 -5.007266E+05  4.214311E+04  3.236235E+04
       207  21 -2.951085E+05 -1.953249E+06 -2.734614E+05 -5.138490E+05  1.517391E+04 -1.321638E+04
       207  22  1.084879E+04 -3.348378E+05  3.389874E+04 -5.854947E+05  3.081945E+04  1.844580E+04
       207  23  3.202077E+04 -3.433440E+05  5.707949E+04 -5.361669E+05  4.207911E+04  4.770813E+04
       207  24  1.066792E+05 -3.351919E+05  1.125342E+05 -5.851705E+05  1.485382E+04  7.687777E+04
       207  25  1.516540E+05  2.596988E+05  1.434400E+05 -5.850121E+05  3.104797E+04 -4.104937E+04
       207  26  2.967777E+05  7.575839E+05  2.788078E+05 -5.716698E+05  4.201342E+04  6.308055E+04
       207  27  5.083000E+05  1.285300E+06  4.983786E+05 -6.566762E+05  1.451351E+04  1.672060E+05
       208   1 -2.492177E+06 -9.658105E+05 -5.070381E+05 -9.366533E+05 -1.816122E+05 -3.594448E+04
       208   2 -2.330002E+06 -8.660991E+05 -3.646385E+05 -8.823440E+05 -1.163941E+05  6.471648E+04
       208   3 -2.164178E+06 -8.102664E+05 -2.949192E+05 -8.526649E+05 -3.280427E+04  1.168382E+05
       208   4 -5.552075E+05 -2.330470E+05 -9.199324E+03 -4.005740E+05 -1.677496E+04  2.619919E+04
       208   5 -5.652042E+05 -2.163788E+05 -4.373114E+03 -3.895264E+05 -3.955296E+04  9.363203E+04
       208   6 -5.540482E+05 -2.260782E+05 -2.255159E+03 -4.031231E+05 -4.401708E+04  1.125844E+05
       208   7  1.385426E+06  4.999727E+05  4.884302E+05  1.370275E+05  1.486225E+05  8.855728E+04
       208   8  1.202805E+06  4.336160E+05  3.557552E+05  1.045913E+05  3.752328E+04  1.226369E+05
       208   9  1.058840E+06  3.583664E+05  2.903242E+05  4.751536E+04 -5.526124E+04  1.083190E+05
       208  10 -2.492213E+06 -9.658208E+05 -5.071028E+05 -9.366586E+05 -5.478011E-09 -1.663029E-09
       208  11 -2.330018E+06 -8.661073E+05 -3.646718E+05 -8.823380E+05  8.545965E-09  3.131755E-09
       208  12 -2.164183E+06 -8.102814E+05 -2.949468E+05 -8.526618E+05  2.313260E-08  9.584475E-09
       208  13 -5.552080E+05 -2.330478E+05 -9.201142E+03 -4.005737E+05  1.317056E-09 -1.086880E-09
       208  14 -5.652082E+05 -2.163886E+05 -4.392521E+03 -3.895235E+05  1.165896E-09 -1.928432E-09
       208  15 -5.540537E+05 -2.260924E+05 -2.282609E+03 -4.031191E+05  2.853812E-09  2.262377E-09
       208  16  1.385400E+06  4.999584E+05  4.883741E+05  1.370169E+05  4.098484E-09  2.381122E-09
       208  17  1.202799E+06  4.335995E+05  3.557243E+05  1.045876E+05 -1.012283E-08 -4.588417E-09
       208  18  1.058833E+06  3.583529E+05  2.902964E+05  4.752018E+04 -1.691075E-08 -6.227129E-09
       208  19 -2.492177E+06 -9.658105E+05 -5.070381E+05 -9.366533E+05  1.816122E+05  3.594448E+04
       208  20 -2.330002E+06 -8.660991E+05 -3.646385E+05 -8.823440E+05  1.163941E+05 -6.471648E+04
       208  21 -2.164178E+06 -8.102664E+05 -2.949192E+05 -8.526649E+05  3.280427E+04 -1.168382E+05
       208  22 -5.552075E+05 -2.330470E+05 -9.199324E+03 -4.005740E+05  1.677496E+04 -2.619919E+04
       208  23 -5.652042E+05 -2.163788E+05 -4.373114E+03 -3.895264E+05  3.955296E+04 -9.363203E+04
       208  24 -5.540482E+05 -2.260782E+05 -2.255159E+03 -4.031231E+05  4.401708E+04 -1.125844E+05
       208  25  1.385426E+06  4.999727E+05  4.884302E+05  1.370275E+05 -1.486225E+05 -8.855728E+04
       208  26  1.202805E+06  4.336160E+05  3.557552E+05  1.045913E+05 -3.752328E+04 -1.226369E+05
       208  27  1.058840E+06  3.583664E+05  2.903242E+05  4.751536E+04  5.526124E+04 -1.083190E+05
       209   1 -2.055325E+06 -7.710967E+05 -2.708774E+05 -8.236089E+05 -3.549739E+04  1.104539E+05
       209   2 -1.903235E+06 -6.967918E+05 -2.324539E+05 -7.637673E+05 -2.449335E+04  1.078820E+05
       209   3 -1.727673E+06 -6.493328E+05 -2.009807E+05 -7.323803E+05 -1.177288E+04  1.007248E+05
       209   4 -5.531993E+05 -2.265198E+05 -1.701088E+03 -4.036738E+05 -4.199709E+04  1.079784E+05
       209   5 -5.656158E+05 -2.135561E+05 -9.216101E+02 -3.895477E+05 -3.930922E+04  1.022871E+05
       209   6 -5.529389E+05 -2.257839E+05 -4.866906E+02 -4.038818E+05 -3.490949E+04  9.201527E+04
       209   7  9.513100E+05  3.182747E+05  2.673993E+05  1.721206E+04 -4.851364E+04  1.054965E+05
       209   8  7.738976E+05  2.698535E+05  2.305571E+05 -1.457382E+04 -5.415909E+04  9.667940E+04
       209   9  6.232532E+05  1.978976E+05  1.999681E+05 -7.480325E+04 -5.809252E+04  8.328834E+04
       209  10 -2.055329E+06 -7.711101E+05 -2.709027E+05 -8.236058E+05 -1.440118E-08 -5.853562E-09
       209  11 -1.903238E+06 -6.968044E+05 -2.324769E+05 -7.637652E+05 -7.891907E-09 -3.607536E-09
       209  12 -1.727676E+06 -6.493438E+05 -2.010000E+05 -7.323794E+05  2.127174E-09  2.505182E-09
       209  13 -5.532043E+05 -2.265328E+05 -1.726303E+03 -4.036702E+05 -2.892062E-10  1.353483E-09
       209  14 -5.656202E+05 -2.135678E+05 -9.441669E+02 -3.895444E+05 -5.634167E-10 -1.816165E-09
       209  15 -5.529425E+05 -2.257933E+05 -5.048848E+02 -4.038792E+05 -2.415031E-09 -5.416000E-10
       209  16  9.513045E+05  3.182621E+05  2.673739E+05  1.721618E+04  2.083966E-08  8.826700E-09
       209  17  7.738919E+05  2.698427E+05  2.305341E+05 -1.456961E+04  6.432398E-09  1.905543E-09
       209  18  6.232477E+05  1.978892E+05  1.999487E+05 -7.479935E+04 -4.232916E-09 -1.593625E-09
       209  19 -2.055325E+06 -7.710967E+05 -2.708774E+05 -8.236089E+05  3.549739E+04 -1.104539E+05
       209  20 -1.903235E+06 -6.967918E+05 -2.324539E+05 -7.637673E+05  2.449335E+04 -1.078820E+05
       209  21 -1.727673E+06 -6.493328E+05 -2.009807E+05 -7.323803E+05  1.177288E+04 -1.007248E+05
       209  22 -5.531993E+05 -2.265198E+05 -1.701088E+03 -4.036738E+05  4.199709E+04 -1.079784E+05
       209  23 -5.656158E+05 -2.135561E+05 -9.216101E+02 -3.895477E+05  3.930922E+04 -1.022871E+05
       209  24 -5.529389E+05 -2.257839E+05 -4.866906E+02 -4.038818E+05  3.490949E+04 -9.201527E+04
       209  25  9.513100E+05  3.182747E+05  2.673993E+05  1.721206E+04  4.851364E+04 -1.054965E+05
       209  26  7.738976E+05  2.698535E+05  2.305571E+05 -1.457382E+04  5.415909E+04 -9.667940E+04
       209  27  6.232532E+05  1.978976E+05  1.999681E+05 -7.480325E+04  5.809252E+04 -8.328834E+04
       210   1 -1.621980E+06 -6.110104E+05 -1.817996E+05 -7.029603E+05 -9.303088E+03  9.306463E+04
       210   2 -1.470355E+06 -5.388730E+05 -1.533721E+05 -6.425472E+05 -3.600251E+03  8.068152E+04
       210   3 -1.293488E+06 -4.921634E+05 -1.256355E+05 -6.110168E+05  2.258590E+03  6.785681E+04
       210   4 -5.528338E+05 -2.257794E+05 -3.783112E+02 -4.039680E+05 -3.201343E+04  8.452181E+04
       210   5 -5.654429E+05 -2.130037E+05 -2.340444E+02 -3.895508E+05 -2.711275E+04  7.184666E+04
       210   6 -5.526858E+05 -2.254993E+05 -1.492393E+02 -4.040256E+05 -2.205648E+04  5.873020E+04
       210   7  5.175434E+05  1.595705E+05  1.810178E+05 -1.044890E+05 -5.476568E+04  7.596327E+04
       210   8  3.403491E+05  1.129497E+05  1.528861E+05 -1.362065E+05 -5.066187E+04  6.299806E+04
       210   9  1.887029E+05  4.122001E+04  1.253250E+05 -1.968024E+05 -4.640243E+04  4.959200E+04
       210  10 -1.621982E+06 -6.110198E+05 -1.818160E+05 -7.029596E+05  5.596370E-08  2.340598E-08
       210  11 -1.470357E+06 -5.388800E+05 -1.533844E+05 -6.425470E+05  2.430133E-09  3.182969E-09
       210  12 -1.293489E+06 -4.921684E+05 -1.256441E+05 -6.110169E+05 -5.525036E-08 -1.938887E-08
       210  13 -5.528368E+05 -2.257873E+05 -3.936563E+02 -4.039658E+05  1.801707E-09  1.575684E-09
       210  14 -5.654451E+05 -2.130094E+05 -2.451220E+02 -3.895492E+05  2.505307E-09  3.388594E-09
       210  15 -5.526873E+05 -2.255031E+05 -1.566326E+02 -4.040246E+05 -5.310488E-10  2.020468E-09
       210  16  5.175386E+05  1.595635E+05  1.810013E+05 -1.044856E+05 -5.477672E-08 -1.977733E-08
       210  17  3.403453E+05  1.129448E+05  1.528738E+05 -1.362040E+05  3.852914E-09  3.626860E-09
       210  18  1.887000E+05  4.121679E+04  1.253164E+05 -1.968005E+05  5.693159E-08  2.338929E-08
       210  19 -1.621980E+06 -6.110104E+05 -1.817996E+05 -7.029603E+05  9.303088E+03 -9.306463E+04
       210  20 -1.470355E+06 -5.388730E+05 -1.533721E+05 -6.425472E+05  3.600251E+03 -8.068152E+04
       210  21 -1.293488E+06 -4.921634E+05 -1.256355E+05 -6.110168E+05 -2.258590E+03 -6.785681E+04
       210  22 -5.528338E+05 -2.257794E+05 -3.783112E+02 -4.039680E+05  3.201343E+04 -8.452181E+04
       210  23 -5.654429E+05 -2.130037E+05 -2.340444E+02 -3.895508E+05  2.711275E+04 -7.184666E+04
       210  24 -5.526858E+05 -2.254993E+05 -1.492393E+02 -4.040256E+05  2.205648E+04 -5.873020E+04
       210  25  5.175434E+05  1.595705E+05  1.810178E+05 -1.044890E+05  5.476568E+04 -7.596327E+04
       210  26  3.403491E+05  1.129497E+05  1.528861E+05 -1.362065E+05  5.066187E+04 -6.299806E+04
       210  27  1.887029E+05  4.122001E+04  1.253250E+05 -1.968024E+05  4.640243E+04 -4.959200E+04
       211   1 -1.187840E+06 -4.539497E+05 -1.069495E+05 -5.815668E+05  5.180867E+03  6.005248E+04
       211   2 -1.035921E+06 -3.820425E+05 -7.953501E+04 -5.210698E+05  1.036592E+04  4.672531E+04
       211   3 -8.586422E+05 -3.354628E+05 -5.223276E+04 -4.895532E+05  1.556192E+04  3.335426E+04
       211   4 -5.526539E+05 -2.254668E+05 -1.422570E+02 -4.040499E+05 -1.910596E+04  5.094075E+04
       211   5 -5.652904E+05 -2.127371E+05 -1.625927E+02 -3.895706E+05 -1.400240E+04  3.758799E+04
       211   6 -5.525813E+05 -2.253211E+05 -2.335431E+02 -4.040818E+05 -8.887915E+03  2.419129E+04
       211   7  8.295709E+04  3.054335E+03  1.066553E+05 -2.263640E+05 -4.341896E+04  4.181919E+04
       211   8 -9.442266E+04 -4.340906E+04  7.920660E+04 -2.579774E+05 -3.839037E+04  2.844330E+04
       211   9 -2.464161E+05 -1.151684E+05  5.176661E+04 -3.185697E+05 -3.335082E+04  1.502340E+04
       211  10 -1.187841E+06 -4.539535E+05 -1.069564E+05 -5.815670E+05 -1.815598E-09 -2.378709E-10
       211  11 -1.035921E+06 -3.820449E+05 -7.953932E+04 -5.210702E+05 -8.544509E-10 -1.247364E-09
       211  12 -8.586428E+05 -3.354641E+05 -5.223531E+04 -4.895536E+05 -1.756951E-09 -1.723509E-09
       211  13 -5.526550E+05 -2.254697E+05 -1.478174E+02 -4.040491E+05 -9.821100E-10  4.783085E-10
       211  14 -5.652910E+05 -2.127386E+05 -1.656151E+02 -3.895701E+05 -2.029631E-10 -5.994833E-10
       211  15 -5.525815E+05 -2.253217E+05 -2.347908E+02 -4.040816E+05  1.890902E-09 -4.853977E-10
       211  16  8.295460E+04  3.051952E+03  1.066485E+05 -2.263625E+05  1.237343E-09  1.166866E-09
       211  17 -9.442446E+04 -4.341033E+04  7.920231E+04 -2.579766E+05  1.159357E-09  6.566630E-11
       211  18 -2.464174E+05 -1.151689E+05  5.176409E+04 -3.185693E+05  2.012340E-09  7.216694E-10
       211  19 -1.187840E+06 -4.539497E+05 -1.069495E+05 -5.815668E+05 -5.180867E+03 -6.005248E+04
       211  20 -1.035921E+06 -3.820425E+05 -7.953501E+04 -5.210698E+05 -1.036592E+04 -4.672531E+04
       211  21 -8.586422E+05 -3.354628E+05 -5.223276E+04 -4.895532E+05 -1.556192E+04 -3.335426E+04
       211  22 -5.526539E+05 -2.254668E+05 -1.422570E+02 -4.040499E+05  1.910596E+04 -5.094075E+04
       211  23 -5.652904E+05 -2.127371E+05 -1.625927E+02 -3.895706E+05  1.400240E+04 -3.758799E+04
       211  24 -5.525813E+05 -2.253211E+05 -2.335431E+02 -4.040818E+05  8.887915E+03 -2.419129E+04
       211  25  8.295709E+04  3.054335E+03  1.066553E+05 -2.263640E+05  4.341896E+04 -4.181919E+04
       211  26 -9.442266E+04 -4.340906E+04  7.920660E+04 -2.579774E+05  3.839037E+04 -2.844330E+04
       211  27 -2.464161E+05 -1.151684E+05  5.176661E+04 -3.185697E+05  3.335082E+04 -1.502340E+04
       212   1 -7.528538E+05 -2.972770E+05 -3.364244E+04 -4.600893E+05  1.854629E+04  2.554121E+04
       212   2 -6.007511E+05 -2.254431E+05 -6.491516E+03 -3.995665E+05  2.380528E+04  1.218753E+04
       212   3 -4.233120E+05 -1.789352E+05  2.049776E+04 -3.680585E+05  2.905401E+04 -1.140458E+03
       212   4 -5.525766E+05 -2.253058E+05 -3.020367E+02 -4.040920E+05 -5.908965E+03  1.637775E+04
       212   5 -5.652220E+05 -2.126213E+05 -5.334727E+02 -3.895842E+05 -6.063646E+02  3.040808E+03
       212   6 -5.525691E+05 -2.252744E+05 -9.631930E+02 -4.041024E+05  4.685909E+03 -1.027043E+04
       212   7 -3.522553E+05 -1.533301E+05  3.303993E+04 -3.480774E+05 -3.037259E+04  7.211140E+03
       212   8 -5.296904E+05 -1.997990E+05  5.427040E+03 -3.796011E+05 -2.501936E+04 -6.106423E+03
       212   9 -6.818056E+05 -2.716110E+05 -2.242161E+04 -4.401385E+05 -1.967654E+04 -1.939830E+04
       212  10 -7.528544E+05 -2.972778E+05 -3.364432E+04 -4.600897E+05  1.055372E-09 -3.125391E-10
       212  11 -6.007517E+05 -2.254435E+05 -6.492862E+03 -3.995667E+05 -1.668592E-09 -1.126833E-09
       212  12 -4.233129E+05 -1.789354E+05  2.049617E+04 -3.680585E+05 -2.493852E-09 -1.212589E-09
       212  13 -5.525767E+05 -2.253061E+05 -3.026061E+02 -4.040919E+05  1.185457E-09 -4.705922E-10
       212  14 -5.652220E+05 -2.126214E+05 -5.334908E+02 -3.895842E+05 -1.038118E-09 -8.214456E-10
       212  15 -5.525691E+05 -2.252746E+05 -9.634324E+02 -4.041024E+05  1.314163E-10 -9.561423E-11
       212  16 -3.522563E+05 -1.533304E+05  3.303810E+04 -3.480772E+05  3.303688E-10 -1.919407E-10
       212  17 -5.296911E+05 -1.997992E+05  5.425792E+03 -3.796013E+05  1.700845E-09 -4.345604E-11
       212  18 -6.818061E+05 -2.716115E+05 -2.242305E+04 -4.401388E+05  2.420817E-09  9.396064E-10
       212  19 -7.528538E+05 -2.972770E+05 -3.364244E+04 -4.600893E+05 -1.854629E+04 -2.554121E+04
       212  20 -6.007511E+05 -2.254431E+05 -6.491516E+03 -3.995665E+05 -2.380528E+04 -1.218753E+04
       212  21 -4.233120E+05 -1.789352E+05  2.049776E+04 -3.680585E+05 -2.905401E+04  1.140458E+03
       212  22 -5.525766E+05 -2.253058E+05 -3.020367E+02 -4.040920E+05  5.908965E+03 -1.637775E+04
       212  23 -5.652220E+05 -2.126213E+05 -5.334727E+02 -3.895842E+05  6.063646E+02 -3.040808E+03
       212  24 -5.525691E+05 -2.252744E+05 -9.631930E+02 -4.041024E+05 -4.685909E+03  1.027043E+04
       212  25 -3.522553E+05 -1.533301E+05  3.303993E+04 -3.480774E+05  3.037259E+04 -7.211140E+03
       212  26 -5.296904E+05 -1.997990E+05  5.427040E+03 -3.796011E+05  2.501936E+04  6.106423E+03
       212  27 -6.818056E+05 -2.716110E+05 -2.242161E+04 -4.401385E+05  1.967654E+04  1.939830E+04
       213   1 -3.174688E+05 -1.407712E+05  3.886219E+04 -3.385961E+05  3.219811E+04 -8.873310E+03
       213   2 -1.653671E+05 -6.897656E+04  6.540410E+04 -2.780394E+05  3.774843E+04 -2.190165E+04
       213   3  1.199750E+04 -2.254401E+04  9.150516E+04 -2.464570E+05  4.318104E+04 -3.460423E+04
       213   4 -5.526120E+05 -2.252734E+05 -1.284666E+03 -4.041097E+05  7.799865E+03 -1.801571E+04
       213   5 -5.652108E+05 -2.126601E+05 -2.344074E+03 -3.895774E+05  1.393732E+04 -3.082822E+04
       213   6 -5.526953E+05 -2.255315E+05 -4.312503E+03 -4.040336E+05  1.995685E+04 -4.331488E+04
       213   7 -7.876976E+05 -3.097707E+05 -4.143122E+04 -4.696004E+05 -1.658882E+04 -2.715453E+04
       213   8 -9.648853E+05 -3.563284E+05 -7.009472E+04 -5.010485E+05 -9.857632E+03 -3.974873E+04
       213   9 -1.117048E+06 -4.284872E+05 -1.001365E+05 -5.614759E+05 -3.244895E+03 -5.201712E+04
       213  10 -3.174700E+05 -1.407715E+05  3.886010E+04 -3.385959E+05  9.431673E-09  3.358688E-09
       213  11 -1.653688E+05 -6.897746E+04  6.540052E+04 -2.780387E+05 -1.864189E-08 -7.851740E-09
       213  12  1.199518E+04 -2.254579E+04  9.149941E+04 -2.464558E+05 -4.565419E-08 -1.835679E-08
       213  13 -5.526121E+05 -2.252737E+05 -1.285390E+03 -4.041096E+05 -1.341989E-09  1.174116E-10
       213  14 -5.652112E+05 -2.126612E+05 -2.346224E+03 -3.895771E+05 -2.394053E-11 -1.249713E-09
       213  15 -5.526962E+05 -2.255336E+05 -4.316775E+03 -4.040329E+05 -1.070341E-09 -2.557146E-09
       213  16 -7.876981E+05 -3.097716E+05 -4.143312E+04 -4.696008E+05 -9.095486E-09 -3.157819E-09
       213  17 -9.648858E+05 -3.563301E+05 -7.009787E+04 -5.010488E+05  1.904174E-08  6.145065E-09
       213  18 -1.117049E+06 -4.284901E+05 -1.001416E+05 -5.614761E+05  4.281609E-08  1.339904E-08
       213  19 -3.174688E+05 -1.407712E+05  3.886219E+04 -3.385961E+05 -3.219811E+04  8.873310E+03
       213  20 -1.653671E+05 -6.897656E+04  6.540410E+04 -2.780394E+05 -3.774843E+04  2.190165E+04
       213  21  1.199750E+04 -2.254401E+04  9.150516E+04 -2.464570E+05 -4.318104E+04  3.460423E+04
       213  22 -5.526120E+05 -2.252734E+05 -1.284666E+03 -4.041097E+05 -7.799865E+03  1.801571E+04
       213  23 -5.652108E+05 -2.126601E+05 -2.344074E+03 -3.895774E+05 -1.393732E+04  3.082822E+04
       213  24 -5.526953E+05 -2.255315E+05 -4.312503E+03 -4.040336E+05 -1.995685E+04  4.331488E+04
       213  25 -7.876976E+05 -3.097707E+05 -4.143122E+04 -4.696004E+05  1.658882E+04  2.715453E+04
       213  26 -9.648853E+05 -3.563284E+05 -7.009472E+04 -5.010485E+05  9.857632E+03  3.974873E+04
       213  27 -1.117048E+06 -4.284872E+05 -1.001365E+05 -5.614759E+05  3.244895E+03  5.201712E+04
       214   1  1.179391E+05  1.549115E+04  1.090464E+05 -2.172937E+05  4.715315E+04 -4.179290E+04
       214   2  2.689308E+05  8.770013E+04  1.343406E+05 -1.553995E+05  5.049507E+04 -5.334478E+04
       214   3  4.445691E+05  1.329992E+05  1.598005E+05 -1.216674E+05  5.256017E+04 -6.147796E+04
       214   4 -5.530215E+05 -2.255101E+05 -5.754707E+03 -4.040958E+05  2.360165E+04 -5.062990E+04
       214   5 -5.650951E+05 -2.138007E+05 -1.059631E+04 -3.891420E+05  3.315825E+04 -5.985856E+04
       214   6 -5.537816E+05 -2.302392E+05 -2.019955E+04 -4.023635E+05  4.143731E+04 -6.566583E+04
       214   7 -1.223496E+06 -4.664645E+05 -1.205640E+05 -5.907070E+05  7.744206E+01 -5.945672E+04
       214   8 -1.398383E+06 -5.152325E+05 -1.555527E+05 -6.225905E+05  1.584621E+04 -6.636299E+04
       214   9 -1.551093E+06 -5.933838E+05 -2.002364E+05 -6.826406E+05  3.033339E+04 -6.984651E+04
       214  10  1.179363E+05  1.548868E+04  1.090389E+05 -2.172921E+05  7.182299E-08  2.570711E-08
       214  11  2.689273E+05  8.769639E+04  1.343304E+05 -1.553974E+05  2.310321E-08  8.163883E-09
       214  12  4.445651E+05  1.329944E+05  1.597882E+05 -1.216648E+05 -3.370035E-08 -1.264256E-08
       214  13 -5.530228E+05 -2.255130E+05 -5.760569E+03 -4.040948E+05  8.880480E-10 -1.803170E-09
       214  14 -5.650973E+05 -2.138048E+05 -1.060511E+04 -3.891404E+05  5.625131E-09  1.783361E-09
       214  15 -5.537846E+05 -2.302443E+05 -2.021088E+04 -4.023614E+05  6.537050E-10  1.480937E-09
       214  16 -1.223497E+06 -4.664683E+05 -1.205707E+05 -5.907070E+05 -6.980618E-08 -2.890945E-08
       214  17 -1.398385E+06 -5.152373E+05 -1.555614E+05 -6.225896E+05 -1.189245E-08 -5.766015E-09
       214  18 -1.551095E+06 -5.933893E+05 -2.002473E+05 -6.826389E+05  3.744246E-08  1.557724E-08
       214  19  1.179391E+05  1.549115E+04  1.090464E+05 -2.172937E+05 -4.715315E+04  4.179290E+04
       214  20  2.689308E+05  8.770013E+04  1.343406E+05 -1.553995E+05 -5.049507E+04  5.334478E+04
       214  21  4.445691E+05  1.329992E+05  1.598005E+05 -1.216674E+05 -5.256017E+04  6.147796E+04
       214  22 -5.530215E+05 -2.255101E+05 -5.754707E+03 -4.040958E+05 -2.360165E+04  5.062990E+04
       214  23 -5.650951E+05 -2.138007E+05 -1.059631E+04 -3.891420E+05 -3.315825E+04  5.985856E+04
       214  24 -5.537816E+05 -2.302392E+05 -2.019955E+04 -4.023635E+05 -4.143731E+04  6.566583E+04
       214  25 -1.223496E+06 -4.664645E+05 -1.205640E+05 -5.907070E+05 -7.744206E+01  5.945672E+04
       214  26 -1.398383E+06 -5.152325E+05 -1.555527E+05 -6.225905E+05 -1.584621E+04  6.636299E+04
       214  27 -1.551093E+06 -5.933838E+05 -2.002364E+05 -6.826406E+05 -3.033339E+04  6.984651E+04
       215   1  5.528868E+05  1.685972E+05  1.753485E+05 -9.726539E+04  6.120311E+04 -6.451411E+04
       215   2  6.832666E+05  2.483148E+05  2.082325E+05 -6.289639E+03  1.824512E+04 -6.914663E+04
       215   3  8.278974E+05  2.676460E+05  2.598054E+05  7.040731E+04 -3.835618E+04 -3.757463E+04
       215   4 -5.573170E+05 -2.300278E+05 -2.694155E+04 -4.031675E+05  4.653656E+04 -7.003597E+04
       215   5 -5.638947E+05 -2.352535E+05 -5.148822E+04 -3.802905E+05  6.954162E+04 -4.988824E+04
       215   6 -5.693436E+05 -3.139971E+05 -1.096322E+05 -3.717004E+05  7.889757E+04  6.509488E+03
       215   7 -1.666227E+06 -6.285424E+05 -2.292751E+05 -7.085624E+05  3.189798E+04 -7.554755E+04
       215   8 -1.809439E+06 -7.186315E+05 -3.112778E+05 -7.535745E+05  1.207271E+05 -3.067727E+04
       215   9 -1.964623E+06 -8.953672E+05 -4.791745E+05 -8.128487E+05  1.958615E+05  5.045705E+04
       215  10  5.528817E+05  1.685917E+05  1.753337E+05 -9.726221E+04  7.740812E-10  1.337172E-09
       215  11  6.832650E+05  2.483095E+05  2.082229E+05 -6.288624E+03  3.882794E-10  2.146409E-09
       215  12  8.278954E+05  2.676441E+05  2.598000E+05  7.040615E+04  1.253680E-09  8.637590E-10
       215  13 -5.573207E+05 -2.300337E+05 -2.695483E+04 -4.031649E+05 -1.281110E-10  7.922341E-10
       215  14 -5.639005E+05 -2.352574E+05 -5.150198E+04 -3.802877E+05 -2.267000E-09  2.018396E-10
       215  15 -5.693503E+05 -3.139988E+05 -1.096440E+05 -3.717008E+05 -8.030854E-10  2.029914E-10
       215  16 -1.666229E+06 -6.285488E+05 -2.292877E+05 -7.085605E+05 -1.853280E-09  1.436206E-09
       215  17 -1.809455E+06 -7.186365E+05 -3.113070E+05 -7.535715E+05 -2.688025E-09  1.637276E-10
       215  18 -1.964665E+06 -8.953803E+05 -4.792517E+05 -8.128567E+05 -2.421645E-10 -2.663083E-10
       215  19  5.528868E+05  1.685972E+05  1.753485E+05 -9.726539E+04 -6.120311E+04  6.451411E+04
       215  20  6.832666E+05  2.483148E+05  2.082325E+05 -6.289639E+03 -1.824512E+04  6.914663E+04
       215  21  8.278974E+05  2.676460E+05  2.598054E+05  7.040731E+04  3.835618E+04  3.757463E+04
       215  22 -5.573170E+05 -2.300278E+05 -2.694155E+04 -4.031675E+05 -4.653656E+04  7.003597E+04
       215  23 -5.638947E+05 -2.352535E+05 -5.148822E+04 -3.802905E+05 -6.954162E+04  4.988824E+04
       215  24 -5.693436E+05 -3.139971E+05 -1.096322E+05 -3.717004E+05 -7.889757E+04 -6.509488E+03
       215  25 -1.666227E+06 -6.285424E+05 -2.292751E+05 -7.085624E+05 -3.189798E+04  7.554755E+04
       215  26 -1.809439E+06 -7.186315E+05 -3.112778E+05 -7.535745E+05 -1.207271E+05  3.067727E+04
       215  27 -1.964623E+06 -8.953672E+05 -4.791745E+05 -8.128487E+05 -1.958615E+05 -5.045705E+04
       216   1 -6.160158E+05 -2.018905E+05 -1.698884E+05 -8.658332E+04 -7.216505E+02  1.845936E+04
       216   2 -4.623115E+05 -2.573052E+05 -1.565051E+05 -1.217748E+05  2.078259E+04  6.113068E+04
       216   3 -2.948892E+05 -2.475689E+05 -1.408255E+05 -1.862875E+05  4.233013E+04  7.160688E+04
       216   4  8.054861E+05  1.485630E+05  1.620571E+05 -1.826650E+05  1.135679E+05  1.854496E+04
       216   5  7.933251E+05  4.100906E+04  7.998577E+04 -1.679714E+05  7.248802E+04  6.114908E+04
       216   6  8.056715E+05  9.384399E+03  4.363026E+04 -1.825881E+05  3.144813E+04  7.159143E+04
       216   7  2.228899E+06  4.989153E+05  4.939197E+05 -2.789683E+05  2.281173E+05  1.859512E+04
       216   8  2.050495E+06  3.392412E+05  3.164189E+05 -2.142638E+05  1.242954E+05  6.115978E+04
       216   9  1.907427E+06  2.662745E+05  2.280487E+05 -1.788820E+05  2.054744E+04  7.157587E+04
       216  10 -6.160159E+05 -2.018908E+05 -1.698891E+05 -8.658331E+04  7.048529E-08 -2.870772E-10
       216  11 -4.623130E+05 -2.573093E+05 -1.565130E+05 -1.217758E+05 -2.160845E-08  1.302578E-09
       216  12 -2.948925E+05 -2.475749E+05 -1.408385E+05 -1.862899E+05 -1.154153E-07 -1.136076E-09
       216  13  8.054721E+05  1.485591E+05  1.620323E+05 -1.826667E+05  2.825315E-10  1.067187E-09
       216  14  7.933185E+05  4.100363E+04  7.996887E+04 -1.679750E+05 -1.555787E-09  7.271559E-10
       216  15  8.056691E+05  9.378627E+03  4.361876E+04 -1.825900E+05  1.141601E-10 -9.856387E-10
       216  16  2.228843E+06  4.989010E+05  4.938216E+05 -2.789718E+05 -7.063848E-08  8.118977E-10
       216  17  2.050477E+06  3.392331E+05  3.163829E+05 -2.142699E+05  2.436201E-08  6.690610E-10
       216  18  1.907425E+06  2.662689E+05  2.280383E+05 -1.788832E+05  1.147069E-07  9.168192E-10
       216  19 -6.160158E+05 -2.018905E+05 -1.698884E+05 -8.658332E+04  7.216505E+02 -1.845936E+04
       216  20 -4.623115E+05 -2.573052E+05 -1.565051E+05 -1.217748E+05 -2.078259E+04 -6.113068E+04
       216  21 -2.948892E+05 -2.475689E+05 -1.408255E+05 -1.862875E+05 -4.233013E+04 -7.160688E+04
       216  22  8.054861E+05  1.485630E+05  1.620571E+05 -1.826650E+05 -1.135679E+05 -1.854496E+04
       216  23  7.933251E+05  4.100906E+04  7.998577E+04 -1.679714E+05 -7.248802E+04 -6.114908E+04
       216  24  8.056715E+05  9.384399E+03  4.363026E+04 -1.825881E+05 -3.144813E+04 -7.159143E+04
       216  25  2.228899E+06  4.989153E+05  4.939197E+05 -2.789683E+05 -2.281173E+05 -1.859512E+04
       216  26  2.050495E+06  3.392412E+05  3.164189E+05 -2.142638E+05 -1.242954E+05 -6.115978E+04
       216  27  1.907427E+06  2.662745E+05  2.280487E+05 -1.788820E+05 -2.054744E+04 -7.157587E+04
       217   1 -1.963472E+05 -2.237072E+05 -1.311126E+05 -1.791395E+05  3.531529E+04  6.732272E+04
       217   2 -3.704966E+04 -1.920025E+05 -1.143052E+05 -1.659146E+05  3.307419E+04  6.067698E+04
       217   3  1.236532E+05 -1.563460E+05 -9.502288E+04 -1.841028E+05  3.082933E+04  5.057133E+04
       217   4  8.008277E+05  8.467412E+03  3.290412E+04 -1.830681E+05  2.579214E+04  6.730984E+04
       217   5  7.996033E+05  1.717618E+03  1.798083E+04 -1.673629E+05  1.681265E+04  6.066658E+04
       217   6  8.009235E+05  8.551937E+01  1.020235E+04 -1.830673E+05  7.829993E+03  5.056580E+04
       217   7  1.798986E+06  2.405910E+05  1.968922E+05 -1.870032E+05  1.625418E+04  6.729710E+04
       217   8  1.636953E+06  1.954031E+05  1.502503E+05 -1.688131E+05  5.299814E+02  6.065626E+04
       217   9  1.478653E+06  1.564950E+05  1.154189E+05 -1.820306E+05 -1.519348E+04  5.056019E+04
       217  10 -1.963498E+05 -2.237124E+05 -1.311235E+05 -1.791414E+05  4.793789E-08 -1.980442E-09
       217  11 -3.705183E+04 -1.920067E+05 -1.143142E+05 -1.659162E+05  1.993937E-08 -1.501089E-09
       217  12  1.236515E+05 -1.563490E+05 -9.502947E+04 -1.841041E+05 -1.221317E-08 -5.580363E-10
       217  13  8.008257E+05  8.462366E+03  3.289435E+04 -1.830695E+05  2.690960E-10 -4.012454E-10
       217  14  7.996020E+05  1.713588E+03  1.797338E+04 -1.673637E+05  3.104392E-10 -8.937386E-10
       217  15  8.009228E+05  8.275608E+01  1.019743E+04 -1.830677E+05 -1.123882E-09 -1.103393E-09
       217  16  1.798985E+06  2.405861E+05  1.968832E+05 -1.870041E+05 -4.817626E-08  2.249041E-11
       217  17  1.636952E+06  1.953992E+05  1.502434E+05 -1.688131E+05 -2.058981E-08 -6.903692E-10
       217  18  1.478652E+06  1.564922E+05  1.154137E+05 -1.820300E+05  1.298343E-08 -1.352962E-09
       217  19 -1.963472E+05 -2.237072E+05 -1.311126E+05 -1.791395E+05 -3.531529E+04 -6.732272E+04
       217  20 -3.704966E+04 -1.920025E+05 -1.143052E+05 -1.659146E+05 -3.307419E+04 -6.067698E+04
       217  21  1.236532E+05 -1.563460E+05 -9.502288E+04 -1.841028E+05 -3.082933E+04 -5.057133E+04
       217  22  8.008277E+05  8.467412E+03  3.290412E+04 -1.830681E+05 -2.579214E+04 -6.730984E+04
       217  23  7.996033E+05  1.717618E+03  1.798083E+04 -1.673629E+05 -1.681265E+04 -6.066658E+04
       217  24  8.009235E+05  8.551937E+01  1.020235E+04 -1.830673E+05 -7.829993E+03 -5.056580E+04
       217  25  1.798986E+06  2.405910E+05  1.968922E+05 -1.870032E+05 -1.625418E+04 -6.729710E+04
       217  26  1.636953E+06  1.954031E+05  1.502503E+05 -1.688131E+05 -5.299814E+02 -6.065626E+04
       217  27  1.478653E+06  1.564950E+05  1.154189E+05 -1.820306E+05  1.519348E+04 -5.056019E+04
       218   1  2.248187E+05 -1.326672E+05 -8.094684E+04 -1.834704E+05  2.913230E+04  4.357672E+04
       218   2  3.845017E+05 -9.601440E+04 -5.944636E+04 -1.676044E+05  2.768592E+04  3.163995E+04
       218   3  5.444812E+05 -5.916681E+04 -3.694557E+04 -1.833486E+05  2.623613E+04  1.933373E+04
       218   4  8.004706E+05  1.335725E+02  7.728731E+03 -1.831121E+05  6.283542E+03  4.357388E+04
       218   5  8.002947E+05 -1.446928E+02  4.383446E+03 -1.673077E+05  4.114174E+03  3.164023E+04
       218   6  8.005165E+05 -1.017775E+02  2.538150E+03 -1.831123E+05  1.941751E+03  1.933726E+04
       218   7  1.376455E+06  1.329186E+05  9.639884E+04 -1.827534E+05 -1.658558E+04  4.357101E+04
       218   8  1.216262E+06  9.571696E+04  6.821152E+04 -1.670107E+05 -1.947274E+04  3.164049E+04
       218   9  1.056619E+06  5.896040E+04  4.202261E+04 -1.828759E+05 -2.236225E+04  1.934078E+04
       218  10  2.248173E+05 -1.326695E+05 -8.095201E+04 -1.834715E+05 -3.672253E-09  1.856569E-10
       218  11  3.845006E+05 -9.601568E+04 -5.944968E+04 -1.676051E+05 -9.256262E-10  5.293197E-10
       218  12  5.444804E+05 -5.916740E+04 -3.694757E+04 -1.833491E+05  1.755199E-10  1.898586E-10
       218  13  8.004701E+05  1.315222E+02  7.725087E+03 -1.831123E+05 -2.401297E-09 -3.968219E-10
       218  14  8.002944E+05 -1.457728E+02  4.381532E+03 -1.673078E+05 -5.907108E-10  3.894038E-10
       218  15  8.005164E+05 -1.021802E+02  2.537440E+03 -1.831124E+05 -1.667003E-09  2.903312E-10
       218  16  1.376454E+06  1.329165E+05  9.639476E+04 -1.827528E+05  1.410998E-09 -9.031821E-10
       218  17  1.216261E+06  9.571578E+04  6.820893E+04 -1.670102E+05 -1.260366E-09  2.103834E-10
       218  18  1.056618E+06  5.895986E+04  4.202097E+04 -1.828755E+05 -1.346947E-09  1.288003E-10
       218  19  2.248187E+05 -1.326672E+05 -8.094684E+04 -1.834704E+05 -2.913230E+04 -4.357672E+04
       218  20  3.845017E+05 -9.601440E+04 -5.944636E+04 -1.676044E+05 -2.768592E+04 -3.163995E+04
       218  21  5.444812E+05 -5.916681E+04 -3.694557E+04 -1.833486E+05 -2.623613E+04 -1.933373E+04
       218  22  8.004706E+05  1.335725E+02  7.728731E+03 -1.831121E+05 -6.283542E+03 -4.357388E+04
       218  23  8.002947E+05 -1.446928E+02  4.383446E+03 -1.673077E+05 -4.114174E+03 -3.164023E+04
       218  24  8.005165E+05 -1.017775E+02  2.538150E+03 -1.831123E+05 -1.941751E+03 -1.933726E+04
       218  25  1.376455E+06  1.329186E+05  9.639884E+04 -1.827534E+05  1.658558E+04 -4.357101E+04
       218  26  1.216262E+06  9.571696E+04  6.821152E+04 -1.670107E+05  1.947274E+04 -3.164049E+04
       218  27  1.056619E+06  5.896040E+04  4.202261E+04 -1.828759E+05  2.236225E+04 -1.934078E+04
       219   1  6.458285E+05 -3.564239E+04 -2.142132E+04 -1.832822E+05  2.581579E+04  1.205362E+04
       219   2  8.055865E+05  1.124424E+03  1.893120E+03 -1.674157E+05  2.531609E+04 -4.420219E+02
       219   3  9.654522E+05  3.788958E+04  2.553640E+04 -1.831734E+05  2.481632E+04 -1.297231E+04
       219   4  8.004564E+05 -6.964908E+01  1.940923E+03 -1.831157E+05  1.537407E+03  1.205808E+04
       219   5  8.004106E+05 -5.767509E+01  1.152909E+03 -1.673036E+05  9.669555E+02 -4.375851E+02
       219   6  8.004561E+05 -3.508684E+01  7.403394E+02 -1.831158E+05  3.965470E+02 -1.296791E+04
       219   7  9.551095E+05  3.550227E+04  2.530489E+04 -1.829492E+05 -2.274678E+04  1.206253E+04
       219   8  7.952360E+05 -1.239458E+03  4.149235E+02 -1.671916E+05 -2.338199E+04 -4.331571E+02
       219   9  6.354885E+05 -3.796072E+04 -2.405403E+04 -1.830582E+05 -2.401700E+04 -1.296351E+04
       219  10  6.458277E+05 -3.564272E+04 -2.142285E+04 -1.832824E+05 -8.572060E-10 -7.025330E-11
       219  11  8.055858E+05  1.124252E+03  1.891917E+03 -1.674157E+05 -1.115844E-09 -4.285698E-10
       219  12  9.654515E+05  3.788923E+04  2.553493E+04 -1.831731E+05 -2.657538E-09 -1.062229E-09
       219  13  8.004563E+05 -6.980591E+01  1.940645E+03 -1.831157E+05 -1.085726E-09 -7.325252E-11
       219  14  8.004106E+05 -5.767555E+01  1.152907E+03 -1.673036E+05 -1.737114E-10 -2.670354E-10
       219  15  8.004560E+05 -3.526752E+01  7.400229E+02 -1.831158E+05 -1.924484E-09 -7.051003E-10
       219  16  9.551089E+05  3.550197E+04  2.530365E+04 -1.829490E+05  7.564639E-10 -8.335499E-11
       219  17  7.952354E+05 -1.239605E+03  4.138971E+02 -1.671916E+05  5.931344E-10 -6.760167E-11
       219  18  6.354879E+05 -3.796106E+04 -2.405543E+04 -1.830584E+05  1.242125E-09 -2.424298E-10
       219  19  6.458285E+05 -3.564239E+04 -2.142132E+04 -1.832822E+05 -2.581579E+04 -1.205362E+04
       219  20  8.055865E+05  1.124424E+03  1.893120E+03 -1.674157E+05 -2.531609E+04  4.420219E+02
       219  21  9.654522E+05  3.788958E+04  2.553640E+04 -1.831734E+05 -2.481632E+04  1.297231E+04
       219  22  8.004564E+05 -6.964908E+01  1.940923E+03 -1.831157E+05 -1.537407E+03 -1.205808E+04
       219  23  8.004106E+05 -5.767509E+01  1.152909E+03 -1.673036E+05 -9.669555E+02  4.375851E+02
       219  24  8.004561E+05 -3.508684E+01  7.403394E+02 -1.831158E+05 -3.965470E+02  1.296791E+04
       219  25  9.551095E+05  3.550227E+04  2.530489E+04 -1.829492E+05  2.274678E+04 -1.206253E+04
       219  26  7.952360E+05 -1.239458E+03  4.149235E+02 -1.671916E+05  2.338199E+04  4.331571E+02
       219  27  6.354885E+05 -3.796072E+04 -2.405403E+04 -1.830582E+05  2.401700E+04  1.296351E+04
       220   1  1.066870E+06  6.136065E+04  4.150236E+04 -1.831671E+05  2.469616E+04 -2.027779E+04
       220   2  1.226737E+06  9.807136E+04  6.547520E+04 -1.672911E+05  2.435423E+04 -3.280193E+04
       220   3  1.386713E+06  1.347910E+05  8.968145E+04 -1.830504E+05  2.401558E+04 -4.528200E+04
       220   4  8.004427E+05 -4.262067E+01  6.249779E+02 -1.831185E+05  2.712337E+02 -2.027438E+04
       220   5  8.003855E+05 -8.882073E+01  5.235410E+02 -1.673002E+05  1.221718E+01 -3.280183E+04
       220   6  8.003968E+05 -1.397932E+02  5.964820E+02 -1.831185E+05 -2.434436E+02 -4.528520E+04
       220   7  5.340877E+05 -6.144900E+04 -4.025172E+04 -1.830699E+05 -2.414363E+04 -2.027097E+04
       220   8  3.742169E+05 -9.825740E+04 -6.442977E+04 -1.673094E+05 -2.431376E+04 -3.280173E+04
       220   9  2.144253E+05 -1.350867E+05 -8.849351E+04 -1.831865E+05 -2.448049E+04 -4.528839E+04
       220  10  1.066869E+06  6.136004E+04  4.150044E+04 -1.831667E+05 -1.938092E-09 -1.021782E-09
       220  11  1.226736E+06  9.807004E+04  6.547207E+04 -1.672905E+05  5.093140E-10 -3.168392E-10
       220  12  1.386712E+06  1.347886E+05  8.967651E+04 -1.830495E+05 -5.991830E-10 -4.427608E-10
       220  13  8.004426E+05 -4.306225E+01  6.242051E+02 -1.831185E+05  6.037477E-10 -7.870034E-10
       220  14  8.003852E+05 -8.997656E+01  5.215183E+02 -1.673002E+05 -5.519914E-10 -4.066317E-10
       220  15  8.003963E+05 -1.419962E+02  5.926266E+02 -1.831185E+05 -6.166407E-11 -2.114022E-10
       220  16  5.340869E+05 -6.144959E+04 -4.025359E+04 -1.830703E+05  6.973495E-10 -4.613887E-10
       220  17  3.742159E+05 -9.825871E+04 -6.443291E+04 -1.673100E+05 -2.721601E-09 -5.794389E-10
       220  18  2.144241E+05 -1.350891E+05 -8.849849E+04 -1.831874E+05 -8.356131E-10 -1.822330E-10
       220  19  1.066870E+06  6.136065E+04  4.150236E+04 -1.831671E+05 -2.469616E+04  2.027779E+04
       220  20  1.226737E+06  9.807136E+04  6.547520E+04 -1.672911E+05 -2.435423E+04  3.280193E+04
       220  21  1.386713E+06  1.347910E+05  8.968145E+04 -1.830504E+05 -2.401558E+04  4.528200E+04
       220  22  8.004427E+05 -4.262067E+01  6.249779E+02 -1.831185E+05 -2.712337E+02  2.027438E+04
       220  23  8.003855E+05 -8.882073E+01  5.235410E+02 -1.673002E+05 -1.221718E+01  3.280183E+04
       220  24  8.003968E+05 -1.397932E+02  5.964820E+02 -1.831185E+05  2.434436E+02  4.528520E+04
       220  25  5.340877E+05 -6.144900E+04 -4.025172E+04 -1.830699E+05  2.414363E+04  2.027097E+04
       220  26  3.742169E+05 -9.825740E+04 -6.442977E+04 -1.673094E+05  2.431376E+04  3.280173E+04
       220  27  2.144253E+05 -1.350867E+05 -8.849351E+04 -1.831865E+05  2.448049E+04  4.528839E+04
       221   1  1.488292E+06  1.582617E+05  1.059312E+05 -1.830009E+05  2.393033E+04 -5.255395E+04
       221   2  1.648267E+06  1.950246E+05  1.307650E+05 -1.670411E+05  2.248304E+04 -6.478574E+04
       221   3  1.808608E+06  2.320072E+05  1.566200E+05 -1.827231E+05  2.104167E+04 -7.654234E+04
       221   4  8.003978E+05 -1.796504E+02  6.998632E+02 -1.831202E+05 -3.590017E+02 -5.256005E+04
       221   5  8.002603E+05 -2.739414E+02  1.064441E+03 -1.672981E+05 -8.825352E+02 -6.479818E+04
       221   6  8.003063E+05 -3.070517E+02  1.809599E+03 -1.831202E+05 -1.399801E+03 -7.656078E+04
       221   7  1.129773E+05 -1.586434E+05 -1.045395E+05 -1.832393E+05 -2.462252E+04 -5.256615E+04
       221   8 -4.702697E+04 -1.956068E+05 -1.286497E+05 -1.675545E+05 -2.421750E+04 -6.481061E+04
       221   9 -2.069803E+05 -2.326701E+05 -1.530214E+05 -1.835165E+05 -2.380631E+04 -7.657921E+04
       221  10  1.488291E+06  1.582586E+05  1.059249E+05 -1.829999E+05  2.383894E-09 -4.479876E-10
       221  11  1.648265E+06  1.950199E+05  1.307561E+05 -1.670400E+05 -7.910117E-10 -9.905081E-10
       221  12  1.808606E+06  2.320008E+05  1.566081E+05 -1.827218E+05 -2.385889E-09  8.927986E-10
       221  13  8.003971E+05 -1.826181E+02  6.946696E+02 -1.831202E+05 -1.060263E-09 -5.451578E-10
       221  14  8.002592E+05 -2.784521E+02  1.056546E+03 -1.672981E+05 -9.508752E-10 -1.069736E-09
       221  15  8.003047E+05 -3.133489E+02  1.798576E+03 -1.831203E+05  1.217718E-09  3.556934E-10
       221  16  1.129760E+05 -1.586466E+05 -1.045459E+05 -1.832404E+05 -3.583886E-09 -7.056382E-10
       221  17 -4.702873E+04 -1.956114E+05 -1.286587E+05 -1.675558E+05 -2.097705E-09 -1.468466E-09
       221  18 -2.069825E+05 -2.326766E+05 -1.530335E+05 -1.835180E+05  1.069353E-09  4.905027E-10
       221  19  1.488292E+06  1.582617E+05  1.059312E+05 -1.830009E+05 -2.393033E+04  5.255395E+04
       221  20  1.648267E+06  1.950246E+05  1.307650E+05 -1.670411E+05 -2.248304E+04  6.478574E+04
       221  21  1.808608E+06  2.320072E+05  1.566200E+05 -1.827231E+05 -2.104167E+04  7.654234E+04
       221  22  8.003978E+05 -1.796504E+02  6.998632E+02 -1.831202E+05  3.590017E+02  5.256005E+04
       221  23  8.002603E+05 -2.739414E+02  1.064441E+03 -1.672981E+05  8.825352E+02  6.479818E+04
       221  24  8.003063E+05 -3.070517E+02  1.809599E+03 -1.831202E+05  1.399801E+03  7.656078E+04
       221  25  1.129773E+05 -1.586434E+05 -1.045395E+05 -1.832393E+05  2.462252E+04  5.256615E+04
       221  26 -4.702697E+04 -1.956068E+05 -1.286497E+05 -1.675545E+05  2.421750E+04  6.481061E+04
       221  27 -2.069803E+05 -2.326701E+05 -1.530214E+05 -1.835165E+05  2.380631E+04  7.657921E+04
       222   1  1.910712E+06  2.556445E+05  1.738916E+05 -1.824086E+05  2.089092E+04 -8.344500E+04
       222   2  2.070108E+06  2.933948E+05  2.036320E+05 -1.670356E+05  1.012042E+04 -9.283323E+04
       222   3  2.231803E+06  3.338202E+05  2.410899E+05 -1.830460E+05 -6.499579E+02 -9.774871E+04
       222   4  8.003943E+05 -3.703336E+02  2.371818E+03 -1.830628E+05 -1.755339E+03 -8.346807E+04
       222   5  7.999440E+05 -1.114110E+02  4.124642E+03 -1.673696E+05 -3.803742E+03 -9.285959E+04
       222   6  8.002572E+05  1.314268E+03  7.552948E+03 -1.830637E+05 -5.849225E+03 -9.777368E+04
       222   7 -3.086940E+05 -2.564447E+05 -1.691741E+05 -1.837158E+05 -2.436273E+04 -8.349111E+04
       222   8 -4.686162E+05 -2.936970E+05 -1.954215E+05 -1.677030E+05 -1.770055E+04 -9.288597E+04
       222   9 -6.292642E+05 -3.312960E+05 -2.260421E+05 -1.830814E+05 -1.103694E+04 -9.779868E+04
       222  10  1.910710E+06  2.556369E+05  1.738777E+05 -1.824072E+05  6.141431E-08  1.945623E-09
       222  11  2.070106E+06  2.933855E+05  2.036156E+05 -1.670349E+05  3.216187E-09  2.100755E-09
       222  12  2.231800E+06  3.338099E+05  2.410720E+05 -1.830460E+05 -5.972782E-08  1.066690E-10
       222  13  8.003924E+05 -3.778185E+02  2.358714E+03 -1.830629E+05  3.124786E-11  1.653365E-09
       222  14  7.999417E+05 -1.206780E+02  4.108405E+03 -1.673699E+05  2.482254E-09  1.853062E-09
       222  15  8.002546E+05  1.303990E+03  7.534912E+03 -1.830641E+05  8.874462E-10  5.854428E-10
       222  16 -3.086965E+05 -2.564523E+05 -1.691883E+05 -1.837174E+05 -6.067274E-08  1.689336E-09
       222  17 -4.686188E+05 -2.937063E+05 -1.954383E+05 -1.677043E+05 -1.493971E-09  3.719281E-09
       222  18 -6.292669E+05 -3.313063E+05 -2.260604E+05 -1.830823E+05  5.916061E-08  1.482655E-09
       222  19  1.910712E+06  2.556445E+05  1.738916E+05 -1.824086E+05 -2.089092E+04  8.344500E+04
       222  20  2.070108E+06  2.933948E+05  2.036320E+05 -1.670356E+05 -1.012042E+04  9.283323E+04
       222  21  2.231803E+06  3.338202E+05  2.410899E+05 -1.830460E+05  6.499579E+02  9.774871E+04
       222  22  8.003943E+05 -3.703336E+02  2.371818E+03 -1.830628E+05  1.755339E+03  8.346807E+04
       222  23  7.999440E+05 -1.114110E+02  4.124642E+03 -1.673696E+05  3.803742E+03  9.285959E+04
       222  24  8.002572E+05  1.314268E+03  7.552948E+03 -1.830637E+05  5.849225E+03  9.777368E+04
       222  25 -3.086940E+05 -2.564447E+05 -1.691741E+05 -1.837158E+05  2.436273E+04  8.349111E+04
       222  26 -4.686162E+05 -2.936970E+05 -1.954215E+05 -1.677030E+05  1.770055E+04  9.288597E+04
       222  27 -6.292642E+05 -3.312960E+05 -2.260421E+05 -1.830814E+05  1.103694E+04  9.779868E+04
       223   1  2.337348E+06  3.591512E+05  2.653004E+05 -1.804549E+05 -1.651400E+02 -1.011432E+05
       223   2  2.488635E+06  4.091622E+05  3.339132E+05 -1.773648E+05 -9.075858E+04 -8.400280E+04
       223   3  2.659931E+06  4.908028E+05  4.693357E+05 -2.028923E+05 -1.814666E+05 -2.523345E+04
       223   4  8.013536E+05  1.458521E+03  1.001783E+04 -1.824418E+05 -7.146281E+03 -1.011726E+05
       223   5  7.982858E+05  8.655970E+03  1.831457E+04 -1.681531E+05 -1.651413E+04 -8.393397E+04
       223   6  8.011677E+05  3.345423E+04  3.716091E+04 -1.824776E+05 -2.596675E+04 -2.501774E+04
       223   7 -7.323182E+05 -3.563563E+05 -2.453361E+05 -1.844238E+05 -1.411076E+04 -1.012020E+05
       223   8 -8.892960E+05 -3.920114E+05 -2.973859E+05 -1.589675E+05  5.753396E+04 -8.386288E+04
       223   9 -1.054365E+06 -4.241230E+05 -3.951559E+05 -1.621249E+05  1.290724E+05 -2.479156E+04
       223  10  2.337346E+06  3.591402E+05  2.652811E+05 -1.804549E+05  1.384751E-10 -2.202702E-09
       223  11  2.488624E+06  4.091524E+05  3.338845E+05 -1.773710E+05 -2.091095E-09 -5.480901E-09
       223  12  2.659896E+06  4.907933E+05  4.692729E+05 -2.028960E+05 -5.864936E-09 -1.894902E-09
       223  13  8.013508E+05  1.447511E+03  9.998493E+03 -1.824424E+05 -9.039270E-10 -5.186550E-09
       223  14  7.982836E+05  8.648329E+03  1.830081E+04 -1.681543E+05  9.946261E-10  1.062478E-09
       223  15  8.011668E+05  3.345337E+04  3.715847E+04 -1.824781E+05 -1.450066E-09 -6.280597E-10
       223  16 -7.323211E+05 -3.563674E+05 -2.453558E+05 -1.844250E+05  9.952265E-11 -7.458939E-10
       223  17 -8.893014E+05 -3.920199E+05 -2.974054E+05 -1.589636E+05  1.470727E-09  5.772513E-10
       223  18 -1.054384E+06 -4.241282E+05 -3.951884E+05 -1.621223E+05  4.704972E-09 -2.183686E-09
       223  19  2.337348E+06  3.591512E+05  2.653004E+05 -1.804549E+05  1.651400E+02  1.011432E+05
       223  20  2.488635E+06  4.091622E+05  3.339132E+05 -1.773648E+05  9.075858E+04  8.400280E+04
       223  21  2.659931E+06  4.908028E+05  4.693357E+05 -2.028923E+05  1.814666E+05  2.523345E+04
       223  22  8.013536E+05  1.458521E+03  1.001783E+04 -1.824418E+05  7.146281E+03  1.011726E+05
       223  23  7.982858E+05  8.655970E+03  1.831457E+04 -1.681531E+05  1.651413E+04  8.393397E+04
       223  24  8.011677E+05  3.345423E+04  3.716091E+04 -1.824776E+05  2.596675E+04  2.501774E+04
       223  25 -7.323182E+05 -3.563563E+05 -2.453361E+05 -1.844238E+05  1.411076E+04  1.012020E+05
       223  26 -8.892960E+05 -3.920114E+05 -2.973859E+05 -1.589675E+05 -5.753396E+04  8.386288E+04
       223  27 -1.054365E+06 -4.241230E+05 -3.951559E+05 -1.621249E+05 -1.290724E+05  2.479156E+04
       224   1  5.626440E+05  2.329656E+06  5.404149E+05 -6.744673E+05  2.189249E+04  1.515957E+05
       224   2  3.885367E+05  1.746205E+06  3.279268E+05 -6.107064E+05  6.575839E+04  4.491143E+04
       224   3  2.450935E+05  1.184425E+06  1.923554E+05 -6.561007E+05  5.884064E+04 -6.172390E+04
       224   4  2.697016E+04  1.615705E+05  2.730935E+04 -6.545196E+05  2.220954E+04  1.706071E+04
       224   5  8.994174E+03  1.597412E+05  1.512242E+04 -5.999627E+05  6.586103E+04  9.440184E+03
       224   6  4.582393E+03  1.621667E+05  1.124301E+04 -6.545700E+05  5.867214E+04  1.768311E+03
       224   7 -5.090297E+05 -2.002167E+06 -4.860545E+05 -6.346371E+05  2.251873E+04 -1.170083E+05
       224   8 -3.706998E+05 -1.424314E+06 -2.978003E+05 -5.892445E+05  6.596262E+04 -2.594254E+04
       224   9 -2.359840E+05 -8.590636E+05 -1.698930E+05 -6.530409E+05  5.850376E+04  6.515917E+04
       224  10  5.626373E+05  2.329631E+06  5.403710E+05 -6.744700E+05  7.363093E-10  4.333936E-10
       224  11  3.885315E+05  1.746201E+06  3.279148E+05 -6.107088E+05 -3.353494E-10  2.388826E-10
       224  12  2.450888E+05  1.184420E+06  1.923417E+05 -6.560978E+05  1.876867E-10 -3.311700E-09
       224  13  2.696955E+04  1.615701E+05  2.730788E+04 -6.545199E+05 -3.377324E-10 -1.378404E-09
       224  14  8.989490E+03  1.597400E+05  1.511409E+04 -5.999632E+05  5.966045E-10  1.675327E-09
       224  15  4.578695E+03  1.621658E+05  1.123653E+04 -6.545701E+05 -4.919132E-10 -7.519403E-10
       224  16 -5.090339E+05 -2.002182E+06 -4.860812E+05 -6.346350E+05  7.307544E-10 -6.580438E-10
       224  17 -3.707046E+05 -1.424316E+06 -2.978097E+05 -5.892431E+05  2.240922E-09  1.618644E-10
       224  18 -2.359888E+05 -8.590691E+05 -1.699075E+05 -6.530439E+05 -5.519736E-10  3.317799E-09
       224  19  5.626440E+05  2.329656E+06  5.404149E+05 -6.744673E+05 -2.189249E+04 -1.515957E+05
       224  20  3.885367E+05  1.746205E+06  3.279268E+05 -6.107064E+05 -6.575839E+04 -4.491143E+04
       224  21  2.450935E+05  1.184425E+06  1.923554E+05 -6.561007E+05 -5.884064E+04  6.172390E+04
       224  22  2.697016E+04  1.615705E+05  2.730935E+04 -6.545196E+05 -2.220954E+04 -1.706071E+04
       224  23  8.994174E+03  1.597412E+05  1.512242E+04 -5.999627E+05 -6.586103E+04 -9.440184E+03
       224  24  4.582393E+03  1.621667E+05  1.124301E+04 -6.545700E+05 -5.867214E+04 -1.768311E+03
       224  25 -5.090297E+05 -2.002167E+06 -4.860545E+05 -6.346371E+05 -2.251873E+04  1.170083E+05
       224  26 -3.706998E+05 -1.424314E+06 -2.978003E+05 -5.892445E+05 -6.596262E+04  2.594254E+04
       224  27 -2.359840E+05 -8.590636E+05 -1.698930E+05 -6.530409E+05 -5.850376E+04 -6.515917E+04
       225   1  1.588936E+05  8.175613E+05  1.268746E+05 -6.577497E+05  3.801912E+04 -6.156380E+04
       225   2  2.361973E+04  2.448473E+05  2.609063E+04 -5.986361E+05  6.226928E+03 -6.874976E+04
       225   3 -1.074049E+05 -3.259786E+05 -6.909740E+04 -6.518821E+05 -2.595837E+04 -7.593203E+04
       225   4  4.579725E+03  1.616542E+05  1.088067E+04 -6.552768E+05  3.784619E+04 -5.766511E+01
       225   5  4.181634E+03  1.609531E+05  1.274947E+04 -5.990934E+05  6.050585E+03 -6.504366E+03
       225   6  7.917428E+03  1.616859E+05  1.969322E+04 -6.552682E+05 -2.613859E+04 -1.295355E+04
       225   7 -1.497558E+05 -4.938247E+05 -1.051150E+05 -6.528062E+05  3.767363E+04  6.138545E+04
       225   8 -1.525473E+04  7.707427E+04 -5.773052E+02 -5.995508E+05  5.874135E+03  5.573292E+04
       225   9  1.232285E+05  6.495901E+05  1.084892E+05 -6.586569E+05 -2.631939E+04  5.007307E+04
       225  10  1.588911E+05  8.175569E+05  1.268648E+05 -6.577478E+05 -1.874147E-09 -1.249644E-09
       225  11  2.361842E+04  2.448423E+05  2.608168E+04 -5.986357E+05 -9.558544E-10 -5.722513E-10
       225  12 -1.074071E+05 -3.259849E+05 -6.910952E+04 -6.518836E+05 -9.811509E-10 -2.064870E-09
       225  13  4.578187E+03  1.616539E+05  1.087798E+04 -6.552768E+05 -1.641985E-09 -1.886239E-09
       225  14  4.181584E+03  1.609531E+05  1.274933E+04 -5.990934E+05 -1.264512E-09  2.074164E-09
       225  15  7.916649E+03  1.616855E+05  1.969162E+04 -6.552685E+05 -1.551967E-09 -7.974945E-10
       225  16 -1.497583E+05 -4.938291E+05 -1.051248E+05 -6.528080E+05 -8.106927E-10  1.191503E-09
       225  17 -1.525560E+04  7.707092E+04 -5.832079E+02 -5.995510E+05 -1.378561E-09  4.754502E-10
       225  18  1.232271E+05  6.495873E+05  1.084832E+05 -6.586559E+05  1.385623E-10  2.251158E-09
       225  19  1.588936E+05  8.175613E+05  1.268746E+05 -6.577497E+05 -3.801912E+04  6.156380E+04
       225  20  2.361973E+04  2.448473E+05  2.609063E+04 -5.986361E+05 -6.226928E+03  6.874976E+04
       225  21 -1.074049E+05 -3.259786E+05 -6.909740E+04 -6.518821E+05  2.595837E+04  7.593203E+04
       225  22  4.579725E+03  1.616542E+05  1.088067E+04 -6.552768E+05 -3.784619E+04  5.766511E+01
       225  23  4.181634E+03  1.609531E+05  1.274947E+04 -5.990934E+05 -6.050585E+03  6.504366E+03
       225  24  7.917428E+03  1.616859E+05  1.969322E+04 -6.552682E+05  2.613859E+04  1.295355E+04
       225  25 -1.497558E+05 -4.938247E+05 -1.051150E+05 -6.528062E+05 -3.767363E+04 -6.138545E+04
       225  26 -1.525473E+04  7.707427E+04 -5.773052E+02 -5.995508E+05 -5.874135E+03 -5.573292E+04
       225  27  1.232285E+05  6.495901E+05  1.084892E+05 -6.586569E+05  2.631939E+04 -5.007307E+04
       226   1 -1.930904E+05 -6.890403E+05 -1.283151E+05 -6.547865E+05 -4.709100E+04 -8.112343E+04
       226   2 -3.151081E+05 -1.259419E+06 -2.377188E+05 -5.716097E+05 -5.706064E+04 -1.231298E+04
       226   3 -4.105936E+05 -1.831987E+06 -3.854055E+05 -5.978969E+05 -1.985801E+04  5.648622E+04
       226   4  8.316588E+03  1.642481E+05  2.517245E+04 -6.546296E+05 -4.726892E+04 -1.637970E+04
       226   5  2.501472E+04  1.572925E+05  4.445943E+04 -5.998320E+05 -5.698086E+04 -3.915097E+04
       226   6  8.412565E+04  1.637102E+05  8.908197E+04 -6.544573E+05 -1.957632E+04 -6.186965E+04
       226   7  2.096852E+05  1.018255E+06  1.786476E+05 -6.544716E+05 -4.744663E+04  4.845060E+04
       226   8  3.650178E+05  1.575926E+06  3.265404E+05 -6.281182E+05 -5.689876E+04 -6.604899E+04
       226   9  5.785766E+05  2.163107E+06  5.633454E+05 -7.111969E+05 -1.927364E+04 -1.806047E+05
       226  10 -1.930946E+05 -6.890480E+05 -1.283317E+05 -6.547896E+05  1.244141E-09  1.149180E-09
       226  11 -3.151116E+05 -1.259420E+06 -2.377252E+05 -5.716102E+05  1.784281E-09  2.543181E-10
       226  12 -4.105949E+05 -1.831991E+06 -3.854123E+05 -5.978960E+05  3.227926E-10 -2.739089E-09
       226  13  8.314115E+03  1.642472E+05  2.516774E+04 -6.546302E+05  1.526516E-09 -1.983099E-09
       226  14  2.501082E+04  1.572899E+05  4.445044E+04 -5.998338E+05  1.230215E-09  1.631267E-09
       226  15  8.412421E+04  1.637060E+05  8.907406E+04 -6.544583E+05  8.709488E-10 -5.636077E-10
       226  16  2.096822E+05  1.018252E+06  1.786390E+05 -6.544697E+05 -1.507624E-09 -8.367711E-10
       226  17  3.650131E+05  1.575921E+06  3.265261E+05 -6.281212E+05 -3.028942E-09  3.967589E-10
       226  18  5.785675E+05  2.163072E+06  5.632835E+05 -7.111997E+05 -4.787681E-10  2.893144E-09
       226  19 -1.930904E+05 -6.890403E+05 -1.283151E+05 -6.547865E+05  4.709100E+04  8.112343E+04
       226  20 -3.151081E+05 -1.259419E+06 -2.377188E+05 -5.716097E+05  5.706064E+04  1.231298E+04
       226  21 -4.105936E+05 -1.831987E+06 -3.854055E+05 -5.978969E+05  1.985801E+04 -5.648622E+04
       226  22  8.316588E+03  1.642481E+05  2.517245E+04 -6.546296E+05  4.726892E+04  1.637970E+04
       226  23  2.501472E+04  1.572925E+05  4.445943E+04 -5.998320E+05  5.698086E+04  3.915097E+04
       226  24  8.412565E+04  1.637102E+05  8.908197E+04 -6.544573E+05  1.957632E+04  6.186965E+04
       226  25  2.096852E+05  1.018255E+06  1.786476E+05 -6.544716E+05  4.744663E+04 -4.845060E+04
       226  26  3.650178E+05  1.575926E+06  3.265404E+05 -6.281182E+05  5.689876E+04  6.604899E+04
       226  27  5.785766E+05  2.163107E+06  5.633454E+05 -7.111969E+05  1.927364E+04  1.806047E+05
       227   1 -1.168701E+06 -5.703585E+05 -3.232714E+05 -4.834936E+05 -1.474085E+05 -4.238697E+04
       227   2 -1.093901E+06 -4.291443E+05 -2.011900E+05 -4.521028E+05 -9.198372E+04  8.490398E+03
       227   3 -1.038994E+06 -3.612132E+05 -1.443907E+05 -4.205007E+05 -2.900825E+04  3.934717E+04
       227   4 -4.171164E+05 -2.257478E+05 -1.186657E+05 -2.132685E+05 -8.143295E+04 -1.759506E+04
       227   5 -4.043446E+05 -1.473153E+05 -5.572183E+04 -2.304267E+05 -6.237043E+04  1.961339E+04
       227   6 -4.042251E+05 -1.349173E+05 -2.917953E+04 -2.473865E+05 -3.577165E+04  3.680060E+04
       227   7  3.350289E+05  1.189826E+05  8.590478E+04  5.727939E+04 -1.537124E+04  7.246086E+03
       227   8  2.857043E+05  1.345873E+05  8.972352E+04 -8.511506E+03 -3.272194E+04  3.075317E+04
       227   9  2.309722E+05  9.141494E+04  8.601867E+04 -7.410742E+04 -4.254248E+04  3.425135E+04
       227  10 -1.168725E+06 -5.703662E+05 -3.233157E+05 -4.834987E+05 -1.933752E-09 -3.854799E-10
       227  11 -1.093910E+06 -4.291467E+05 -2.012060E+05 -4.521021E+05  2.790709E-09 -1.866647E-09
       227  12 -1.038996E+06 -3.612151E+05 -1.443951E+05 -4.204998E+05  1.245429E-09 -2.300422E-10
       227  13 -4.171236E+05 -2.257499E+05 -1.186787E+05 -2.132696E+05  2.479938E-10  2.676539E-10
       227  14 -4.043489E+05 -1.473168E+05 -5.572987E+04 -2.304257E+05  6.370398E-10  5.268811E-10
       227  15 -4.042268E+05 -1.349191E+05 -2.918448E+04 -2.473854E+05 -5.991563E-10 -1.190086E-09
       227  16  3.350287E+05  1.189825E+05  8.590423E+04  5.727948E+04  1.778188E-09  2.216927E-10
       227  17  2.857029E+05  1.345860E+05  8.971974E+04 -8.510696E+03 -8.386921E-10  3.830496E-10
       227  18  2.309699E+05  9.141320E+04  8.601307E+04 -7.410624E+04 -1.876041E-09  1.308618E-09
       227  19 -1.168701E+06 -5.703585E+05 -3.232714E+05 -4.834936E+05  1.474085E+05  4.238697E+04
       227  20 -1.093901E+06 -4.291443E+05 -2.011900E+05 -4.521028E+05  9.198372E+04 -8.490398E+03
       227  21 -1.038994E+06 -3.612132E+05 -1.443907E+05 -4.205007E+05  2.900825E+04 -3.934717E+04
       227  22 -4.171164E+05 -2.257478E+05 -1.186657E+05 -2.132685E+05  8.143295E+04  1.759506E+04
       227  23 -4.043446E+05 -1.473153E+05 -5.572183E+04 -2.304267E+05  6.237043E+04 -1.961339E+04
       227  24 -4.042251E+05 -1.349173E+05 -2.917953E+04 -2.473865E+05  3.577165E+04 -3.680060E+04
       227  25  3.350289E+05  1.189826E+05  8.590478E+04  5.727939E+04  1.537124E+04 -7.246086E+03
       227  26  2.857043E+05  1.345873E+05  8.972352E+04 -8.511506E+03  3.272194E+04 -3.075317E+04
       227  27  2.309722E+05  9.141494E+04  8.601867E+04 -7.410742E+04  4.254248E+04 -3.425135E+04
       228   1 -9.772589E+05 -3.460140E+05 -1.257856E+05 -4.095930E+05 -2.669365E+04  3.723037E+04
       228   2 -9.010134E+05 -3.042419E+05 -9.750306E+04 -3.796840E+05 -1.613414E+04  3.710677E+04
       228   3 -8.148694E+05 -2.789567E+05 -7.711517E+04 -3.634667E+05 -4.865702E+03  3.509460E+04
       228   4 -4.006372E+05 -1.349766E+05 -2.187589E+04 -2.462473E+05 -3.150189E+04  3.541938E+04
       228   5 -4.055617E+05 -1.246032E+05 -1.147945E+04 -2.403220E+05 -2.436992E+04  3.400988E+04
       228   6 -3.999122E+05 -1.300350E+05 -6.254853E+03 -2.480907E+05 -1.653053E+04  3.071214E+04
       228   7  1.763293E+05  7.609226E+04  8.202080E+04 -8.276079E+04 -3.631485E+04  3.360659E+04
       228   8  9.015059E+04  5.506028E+04  7.453717E+04 -1.008556E+05 -3.261270E+04  3.091034E+04
       228   9  1.523278E+04  1.890518E+04  6.460249E+04 -1.326414E+05 -2.820377E+04  2.632655E+04
       228  10 -9.772601E+05 -3.460157E+05 -1.257895E+05 -4.095922E+05  6.492908E-10 -7.818970E-10
       228  11 -9.010140E+05 -3.042434E+05 -9.750614E+04 -3.796835E+05 -2.496113E-09  2.021929E-10
       228  12 -8.148697E+05 -2.789580E+05 -7.711753E+04 -3.634665E+05 -2.258879E-10 -6.839365E-10
       228  13 -4.006386E+05 -1.349782E+05 -2.188011E+04 -2.462464E+05 -1.633384E-09  1.067700E-09
       228  14 -4.055627E+05 -1.246046E+05 -1.148274E+04 -2.403213E+05  8.764779E-10 -1.627494E-09
       228  15 -3.999127E+05 -1.300361E+05 -6.257138E+03 -2.480903E+05 -1.271813E-09 -7.746427E-10
       228  16  1.763276E+05  7.609069E+04  8.201620E+04 -8.275981E+04 -2.149043E-09 -8.009167E-10
       228  17  9.014920E+04  5.505897E+04  7.453338E+04 -1.008548E+05  9.553958E-10 -1.067144E-10
       228  18  1.523174E+04  1.890422E+04  6.459970E+04 -1.326408E+05  6.879411E-10 -5.964656E-10
       228  19 -9.772589E+05 -3.460140E+05 -1.257856E+05 -4.095930E+05  2.669365E+04 -3.723037E+04
       228  20 -9.010134E+05 -3.042419E+05 -9.750306E+04 -3.796840E+05  1.613414E+04 -3.710677E+04
       228  21 -8.148694E+05 -2.789567E+05 -7.711517E+04 -3.634667E+05  4.865702E+03 -3.509460E+04
       228  22 -4.006372E+05 -1.349766E+05 -2.187589E+04 -2.462473E+05  3.150189E+04 -3.541938E+04
       228  23 -4.055617E+05 -1.246032E+05 -1.147945E+04 -2.403220E+05  2.436992E+04 -3.400988E+04
       228  24 -3.999122E+05 -1.300350E+05 -6.254853E+03 -2.480907E+05  1.653053E+04 -3.071214E+04
       228  25  1.763293E+05  7.609226E+04  8.202080E+04 -8.276079E+04  3.631485E+04 -3.360659E+04
       228  26  9.015059E+04  5.506028E+04  7.453717E+04 -1.008556E+05  3.261270E+04 -3.091034E+04
       228  27  1.523278E+04  1.890518E+04  6.460249E+04 -1.326414E+05  2.820377E+04 -2.632655E+04
       229   1 -7.615336E+05 -2.602255E+05 -6.608874E+04 -3.490184E+05 -2.767835E+03  3.157238E+04
       229   2 -6.856998E+05 -2.241976E+05 -4.996109E+04 -3.189371E+05  1.251995E+03  2.577293E+04
       229   3 -5.975380E+05 -2.010385E+05 -3.509419E+04 -3.032823E+05  5.337810E+03  1.979397E+04
       229   4 -3.995983E+05 -1.300648E+05 -4.696388E+03 -2.479879E+05 -1.425247E+04  2.725872E+04
       229   5 -4.057687E+05 -1.235645E+05 -2.581299E+03 -2.408067E+05 -1.055863E+04  2.133832E+04
       229   6 -3.995538E+05 -1.298685E+05 -1.468571E+03 -2.480542E+05 -6.799047E+03  1.523838E+04
       229   7 -3.752344E+04  1.088770E+02  5.669298E+04 -1.469023E+05 -2.574422E+04  2.294240E+04
       229   8 -1.257555E+05 -2.292421E+04  4.479657E+04 -1.626437E+05 -2.237484E+04  1.690160E+04
       229   9 -2.015298E+05 -5.869528E+04  3.215602E+04 -1.928101E+05 -1.893989E+04  1.068129E+04
       229  10 -7.615338E+05 -2.602266E+05 -6.609063E+04 -3.490183E+05 -6.837027E-11 -9.135625E-10
       229  11 -6.857000E+05 -2.241983E+05 -4.996235E+04 -3.189371E+05 -2.189211E-09 -3.179293E-10
       229  12 -5.975381E+05 -2.010389E+05 -3.509498E+04 -3.032824E+05 -3.166340E-09  7.728595E-10
       229  13 -3.995987E+05 -1.300657E+05 -4.698165E+03 -2.479876E+05  1.455832E-09 -1.453433E-09
       229  14 -4.057689E+05 -1.235651E+05 -2.582364E+03 -2.408065E+05 -4.757566E-10  3.655651E-10
       229  15 -3.995539E+05 -1.298687E+05 -1.469094E+03 -2.480541E+05 -4.011844E-10  2.706678E-10
       229  16 -3.752429E+04  1.081341E+02  5.669074E+04 -1.469018E+05  1.487086E-09  2.024275E-11
       229  17 -1.257561E+05 -2.292465E+04  4.479509E+04 -1.626434E+05  2.603352E-09  2.816076E-13
       229  18 -2.015302E+05 -5.869550E+04  3.215513E+04 -1.928099E+05  1.402883E-09  5.353224E-10
       229  19 -7.615336E+05 -2.602255E+05 -6.608874E+04 -3.490184E+05  2.767835E+03 -3.157238E+04
       229  20 -6.856998E+05 -2.241976E+05 -4.996109E+04 -3.189371E+05 -1.251995E+03 -2.577293E+04
       229  21 -5.975380E+05 -2.010385E+05 -3.509419E+04 -3.032823E+05 -5.337810E+03 -1.979397E+04
       229  22 -3.995983E+05 -1.300648E+05 -4.696388E+03 -2.479879E+05  1.425247E+04 -2.725872E+04
       229  23 -4.057687E+05 -1.235645E+05 -2.581299E+03 -2.408067E+05  1.055863E+04 -2.133832E+04
       229  24 -3.995538E+05 -1.298685E+05 -1.468571E+03 -2.480542E+05  6.799047E+03 -1.523838E+04
       229  25 -3.752344E+04  1.088770E+02  5.669298E+04 -1.469023E+05  2.574422E+04 -2.294240E+04
       229  26 -1.257555E+05 -2.292421E+04  4.479657E+04 -1.626437E+05  2.237484E+04 -1.690160E+04
       229  27 -2.015298E+05 -5.869528E+04  3.215602E+04 -1.928101E+05  1.893989E+04 -1.068129E+04
       230   1 -5.447969E+05 -1.820485E+05 -2.546528E+04 -2.886054E+05  6.998029E+03  1.598072E+04
       230   2 -4.690418E+05 -1.462788E+05 -1.141890E+04 -2.584614E+05  9.904435E+03  9.459091E+03
       230   3 -3.807115E+05 -1.231466E+05  2.327219E+03 -2.427671E+05  1.281628E+04  2.922049E+03
       230   4 -3.995158E+05 -1.298737E+05 -1.142911E+03 -2.480422E+05 -5.123797E+03  1.143130E+04
       230   5 -4.057996E+05 -1.235581E+05 -7.493884E+02 -2.408143E+05 -2.246194E+03  4.899157E+03
       230   6 -3.995117E+05 -1.298758E+05 -6.344579E+02 -2.480395E+05  6.367840E+02 -1.648400E+03
       230   7 -2.542103E+05 -7.769615E+04  2.318000E+04 -2.074696E+05 -1.724877E+04  6.880698E+03
       230   8 -3.425524E+05 -1.008367E+05  9.920749E+03 -2.231654E+05 -1.439821E+04  3.387057E+02
       230   9 -4.183112E+05 -1.366047E+05 -3.595507E+03 -2.533117E+05 -1.154233E+04 -6.218704E+03
       230  10 -5.447971E+05 -1.820488E+05 -2.546585E+04 -2.886055E+05 -1.996747E-09  1.307417E-09
       230  11 -4.690420E+05 -1.462790E+05 -1.141925E+04 -2.584614E+05  1.233997E-09  6.346721E-10
       230  12 -3.807117E+05 -1.231467E+05  2.326894E+03 -2.427671E+05  1.043145E-09 -6.980424E-10
       230  13 -3.995159E+05 -1.298739E+05 -1.143206E+03 -2.480422E+05 -1.282089E-09  6.952537E-10
       230  14 -4.057996E+05 -1.235581E+05 -7.494430E+02 -2.408143E+05 -5.114974E-10 -4.392013E-11
       230  15 -3.995117E+05 -1.298758E+05 -6.344638E+02 -2.480395E+05  2.744788E-10  1.923443E-10
       230  16 -2.542106E+05 -7.769628E+04  2.317935E+04 -2.074695E+05  1.082091E-10  4.634835E-10
       230  17 -3.425526E+05 -1.008367E+05  9.920360E+03 -2.231654E+05 -8.915553E-10  1.389034E-09
       230  18 -4.183114E+05 -1.366048E+05 -3.595830E+03 -2.533118E+05  1.052433E-10  1.026501E-09
       230  19 -5.447969E+05 -1.820485E+05 -2.546528E+04 -2.886054E+05 -6.998029E+03 -1.598072E+04
       230  20 -4.690418E+05 -1.462788E+05 -1.141890E+04 -2.584614E+05 -9.904435E+03 -9.459091E+03
       230  21 -3.807115E+05 -1.231466E+05  2.327219E+03 -2.427671E+05 -1.281628E+04 -2.922049E+03
       230  22 -3.995158E+05 -1.298737E+05 -1.142911E+03 -2.480422E+05  5.123797E+03 -1.143130E+04
       230  23 -4.057996E+05 -1.235581E+05 -7.493884E+02 -2.408143E+05  2.246194E+03 -4.899157E+03
       230  24 -3.995117E+05 -1.298758E+05 -6.344579E+02 -2.480395E+05 -6.367840E+02  1.648400E+03
       230  25 -2.542103E+05 -7.769615E+04  2.318000E+04 -2.074696E+05  1.724877E+04 -6.880698E+03
       230  26 -3.425524E+05 -1.008367E+05  9.920749E+03 -2.231654E+05  1.439821E+04 -3.387057E+02
       230  27 -4.183112E+05 -1.366047E+05 -3.595507E+03 -2.533117E+05  1.154233E+04  6.218704E+03
       231   1 -3.280232E+05 -1.041360E+05  1.158849E+04 -2.280768E+05  1.438781E+04 -9.349987E+02
       231   2 -2.522613E+05 -6.837303E+04  2.497840E+04 -1.979335E+05  1.731438E+04 -7.463856E+03
       231   3 -1.639262E+05 -4.523904E+04  3.805830E+04 -1.822405E+05  2.023493E+04 -1.397447E+04
       231   4 -3.995158E+05 -1.298764E+05 -6.618310E+02 -2.480402E+05  2.207987E+03 -5.505695E+03
       231   5 -4.057999E+05 -1.235584E+05 -9.017341E+02 -2.408153E+05  5.166511E+03 -1.202334E+04
       231   6 -3.995239E+05 -1.298765E+05 -1.477213E+03 -2.480437E+05  8.118979E+03 -1.852280E+04
       231   7 -4.710019E+05 -1.556159E+05 -1.291145E+04 -2.680011E+05 -9.970217E+03 -1.007579E+04
       231   8 -5.593130E+05 -1.787414E+05 -2.678185E+04 -2.836872E+05 -6.978166E+03 -1.658163E+04
       231   9 -6.350646E+05 -2.145092E+05 -4.101421E+04 -3.138241E+05 -3.992219E+03 -2.306935E+04
       231  10 -3.280234E+05 -1.041360E+05  1.158810E+04 -2.280768E+05 -2.801253E-08 -1.122076E-08
       231  11 -2.522616E+05 -6.837317E+04  2.497773E+04 -1.979334E+05 -6.494830E-09 -1.561114E-09
       231  12 -1.639267E+05 -4.523936E+04  3.805717E+04 -1.822403E+05  2.251949E-08  9.061928E-09
       231  13 -3.995158E+05 -1.298764E+05 -6.618971E+02 -2.480402E+05 -1.994005E-09 -4.878901E-10
       231  14 -4.057999E+05 -1.235586E+05 -9.020558E+02 -2.408153E+05 -8.226377E-09 -2.163736E-09
       231  15 -3.995241E+05 -1.298769E+05 -1.477982E+03 -2.480436E+05 -1.993909E-09 -1.391179E-09
       231  16 -4.710020E+05 -1.556161E+05 -1.291183E+04 -2.680011E+05  2.412822E-08  9.306872E-09
       231  17 -5.593131E+05 -1.787417E+05 -2.678246E+04 -2.836873E+05 -6.358840E-09 -1.936831E-09
       231  18 -6.350648E+05 -2.145098E+05 -4.101524E+04 -3.138242E+05 -2.615951E-08 -1.141823E-08
       231  19 -3.280232E+05 -1.041360E+05  1.158849E+04 -2.280768E+05 -1.438781E+04  9.349987E+02
       231  20 -2.522613E+05 -6.837303E+04  2.497840E+04 -1.979335E+05 -1.731438E+04  7.463856E+03
       231  21 -1.639262E+05 -4.523904E+04  3.805830E+04 -1.822405E+05 -2.023493E+04  1.397447E+04
       231  22 -3.995158E+05 -1.298764E+05 -6.618310E+02 -2.480402E+05 -2.207987E+03  5.505695E+03
       231  23 -4.057999E+05 -1.235584E+05 -9.017341E+02 -2.408153E+05 -5.166511E+03  1.202334E+04
       231  24 -3.995239E+05 -1.298765E+05 -1.477213E+03 -2.480437E+05 -8.118979E+03  1.852280E+04
       231  25 -4.710019E+05 -1.556159E+05 -1.291145E+04 -2.680011E+05  9.970217E+03  1.007579E+04
       231  26 -5.593130E+05 -1.787414E+05 -2.678185E+04 -2.836872E+05  6.978166E+03  1.658163E+04
       231  27 -6.350646E+05 -2.145092E+05 -4.101421E+04 -3.138241E+05  3.992219E+03  2.306935E+04
       232   1 -1.112628E+05 -2.624868E+04  4.690718E+04 -1.675963E+05  2.199234E+04 -1.774736E+04
       232   2 -3.548031E+04  9.517016E+03  5.915905E+04 -1.374262E+05  2.581579E+04 -2.380451E+04
       232   3  5.268326E+04  3.248381E+04  7.035872E+04 -1.216786E+05  2.956640E+04 -2.966213E+04
       232   4 -3.995789E+05 -1.298714E+05 -1.929586E+03 -2.480618E+05  9.859330E+03 -2.230290E+04
       232   5 -4.057604E+05 -1.235661E+05 -3.441807E+03 -2.408050E+05  1.404352E+04 -2.822652E+04
       232   6 -3.996391E+05 -1.301325E+05 -6.292789E+03 -2.479742E+05  1.815465E+04 -3.395059E+04
       232   7 -6.878061E+05 -2.334858E+05 -5.076790E+04 -3.284923E+05 -2.267683E+03 -2.685621E+04
       232   8 -7.758922E+05 -2.566347E+05 -6.604511E+04 -3.441255E+05  2.278785E+03 -3.264571E+04
       232   9 -8.517386E+05 -2.927267E+05 -8.294784E+04 -3.741822E+05  6.751863E+03 -3.823570E+04
       232  10 -1.112634E+05 -2.624915E+04  4.690568E+04 -1.675960E+05 -4.464985E-11  2.837098E-10
       232  11 -3.548118E+04  9.516229E+03  5.915673E+04 -1.374257E+05  1.583876E-09  4.276350E-10
       232  12  5.268208E+04  3.248263E+04  7.035542E+04 -1.216779E+05  4.655488E-11  3.960215E-10
       232  13 -3.995792E+05 -1.298720E+05 -1.930703E+03 -2.480617E+05  9.432367E-11 -3.575724E-10
       232  14 -4.057609E+05 -1.235670E+05 -3.443675E+03 -2.408047E+05  9.527264E-10 -1.777285E-10
       232  15 -3.996398E+05 -1.301339E+05 -6.295574E+03 -2.479737E+05  3.133096E-09 -1.394724E-09
       232  16 -6.878063E+05 -2.334866E+05 -5.076927E+04 -3.284923E+05  1.101066E-09 -1.018939E-09
       232  17 -7.758925E+05 -2.566359E+05 -6.604713E+04 -3.441254E+05  2.112985E-09 -6.919542E-10
       232  18 -8.517391E+05 -2.927283E+05 -8.295067E+04 -3.741820E+05 -1.049378E-09 -2.261139E-10
       232  19 -1.112628E+05 -2.624868E+04  4.690718E+04 -1.675963E+05 -2.199234E+04  1.774736E+04
       232  20 -3.548031E+04  9.517016E+03  5.915905E+04 -1.374262E+05 -2.581579E+04  2.380451E+04
       232  21  5.268326E+04  3.248381E+04  7.035872E+04 -1.216786E+05 -2.956640E+04  2.966213E+04
       232  22 -3.995789E+05 -1.298714E+05 -1.929586E+03 -2.480618E+05 -9.859330E+03  2.230290E+04
       232  23 -4.057604E+05 -1.235661E+05 -3.441807E+03 -2.408050E+05 -1.404352E+04  2.822652E+04
       232  24 -3.996391E+05 -1.301325E+05 -6.292789E+03 -2.479742E+05 -1.815465E+04  3.395059E+04
       232  25 -6.878061E+05 -2.334858E+05 -5.076790E+04 -3.284923E+05  2.267683E+03  2.685621E+04
       232  26 -7.758922E+05 -2.566347E+05 -6.604511E+04 -3.441255E+05 -2.278785E+03  3.264571E+04
       232  27 -8.517386E+05 -2.927267E+05 -8.294784E+04 -3.741822E+05 -6.751863E+03  3.823570E+04
       233   1  1.054303E+05  5.118339E+04  7.774739E+04 -1.075774E+05  3.233342E+04 -3.291336E+04
       233   2  1.801171E+05  8.743900E+04  8.605302E+04 -7.518818E+04  3.829427E+04 -3.675653E+04
       233   3  2.654555E+05  1.075381E+05  9.043715E+04 -5.625709E+04  4.347089E+04 -3.850509E+04
       233   4 -4.000509E+05 -1.300943E+05 -8.386981E+03 -2.481156E+05  2.072073E+04 -3.727868E+04
       233   5 -4.054807E+05 -1.249468E+05 -1.540367E+04 -2.401488E+05  3.048659E+04 -3.969512E+04
       233   6 -4.010232E+05 -1.367154E+05 -2.936208E+04 -2.456450E+05  3.946724E+04 -4.001605E+04
       233   7 -9.052660E+05 -3.113492E+05 -9.452934E+04 -3.885484E+05  9.117972E+03 -4.164031E+04
       233   8 -9.907180E+05 -3.372991E+05 -1.168711E+05 -4.049645E+05  2.268669E+04 -4.263076E+04
       233   9 -1.067034E+06 -3.809233E+05 -1.491764E+05 -4.348422E+05  3.546817E+04 -4.152523E+04
       233  10  1.054289E+05  5.118195E+04  7.774339E+04 -1.075765E+05 -9.185503E-11  6.309462E-10
       233  11  1.801151E+05  8.743716E+04  8.604773E+04 -7.518704E+04 -1.913727E-09  2.789742E-09
       233  12  2.654531E+05  1.075360E+05  9.043081E+04 -5.625574E+04 -1.891674E-09  1.338795E-09
       233  13 -4.000518E+05 -1.300959E+05 -8.390399E+03 -2.481149E+05 -1.833788E-10  7.381355E-11
       233  14 -4.054821E+05 -1.249487E+05 -1.540838E+04 -2.401478E+05  1.106474E-09  4.399876E-10
       233  15 -4.010253E+05 -1.367175E+05 -2.936801E+04 -2.456437E+05  1.947519E-09  6.043378E-10
       233  16 -9.052666E+05 -3.113511E+05 -9.453275E+04 -3.885481E+05  5.550745E-10  2.036086E-10
       233  17 -9.907190E+05 -3.373012E+05 -1.168755E+05 -4.049637E+05  3.301544E-10  4.718498E-10
       233  18 -1.067035E+06 -3.809255E+05 -1.491820E+05 -4.348410E+05  1.158176E-09  3.957578E-10
       233  19  1.054303E+05  5.118339E+04  7.774739E+04 -1.075774E+05 -3.233342E+04  3.291336E+04
       233  20  1.801171E+05  8.743900E+04  8.605302E+04 -7.518818E+04 -3.829427E+04  3.675653E+04
       233  21  2.654555E+05  1.075381E+05  9.043715E+04 -5.625709E+04 -4.347089E+04  3.850509E+04
       233  22 -4.000509E+05 -1.300943E+05 -8.386981E+03 -2.481156E+05 -2.072073E+04  3.727868E+04
       233  23 -4.054807E+05 -1.249468E+05 -1.540367E+04 -2.401488E+05 -3.048659E+04  3.969512E+04
       233  24 -4.010232E+05 -1.367154E+05 -2.936208E+04 -2.456450E+05 -3.946724E+04  4.001605E+04
       233  25 -9.052660E+05 -3.113492E+05 -9.452934E+04 -3.885484E+05 -9.117972E+03  4.164031E+04
       233  26 -9.907180E+05 -3.372991E+05 -1.168711E+05 -4.049645E+05 -2.268669E+04  4.263076E+04
       233  27 -1.067034E+06 -3.809233E+05 -1.491764E+05 -4.348422E+05 -3.546817E+04  4.152523E+04
       234   1  3.205460E+05  1.213719E+05  9.214936E+04 -4.978405E+04  5.098746E+04 -3.850260E+04
       234   2  3.686103E+05  1.667911E+05  8.858680E+04  2.854041E+04  4.655425E+04 -3.134916E+04
       234   3  4.036512E+05  1.357053E+05  6.820781E+04  1.117849E+05  3.376254E+04 -1.992635E+03
       234   4 -4.057825E+05 -1.366827E+05 -3.916575E+04 -2.472344E+05  4.480882E+04 -4.083180E+04
       234   5 -4.039057E+05 -1.553442E+05 -7.479125E+04 -2.267942E+05  8.078132E+04 -1.848491E+04
       234   6 -4.231018E+05 -2.585835E+05 -1.592813E+05 -2.014317E+05  1.083876E+05  2.607862E+04
       234   7 -1.131556E+06 -3.946922E+05 -1.704989E+05 -4.444715E+05  3.863790E+04 -4.315823E+04
       234   8 -1.175785E+06 -4.773696E+05 -2.381924E+05 -4.818122E+05  1.149621E+05 -5.643553E+03
       234   9 -1.249128E+06 -6.526775E+05 -3.867995E+05 -5.142152E+05  1.829020E+05  5.408271E+04
       234  10  3.205428E+05  1.213696E+05  9.214169E+04 -4.978247E+04  1.034457E-10 -1.027132E-09
       234  11  3.686077E+05  1.667894E+05  8.858089E+04  2.854159E+04  7.438095E-09  1.597949E-09
       234  12  4.036500E+05  1.357050E+05  6.820566E+04  1.117850E+05  4.686393E-09  4.842344E-10
       234  13 -4.057851E+05 -1.366851E+05 -3.917266E+04 -2.472330E+05  3.157573E-09 -7.615860E-11
       234  14 -4.039128E+05 -1.553463E+05 -7.480416E+04 -2.267930E+05  7.952302E-09  7.618198E-10
       234  15 -4.231146E+05 -2.585873E+05 -1.593047E+05 -2.014339E+05  3.880480E-09  2.619808E-09
       234  16 -1.131558E+06 -3.946946E+05 -1.705052E+05 -4.444701E+05  4.462254E-09  1.404501E-09
       234  17 -1.175799E+06 -4.773732E+05 -2.382174E+05 -4.818116E+05  7.082965E-09  2.211017E-09
       234  18 -1.249165E+06 -6.526897E+05 -3.868680E+05 -5.142232E+05  2.138947E-09 -9.342867E-10
       234  19  3.205460E+05  1.213719E+05  9.214936E+04 -4.978405E+04 -5.098746E+04  3.850260E+04
       234  20  3.686103E+05  1.667911E+05  8.858680E+04  2.854041E+04 -4.655425E+04  3.134916E+04
       234  21  4.036512E+05  1.357053E+05  6.820781E+04  1.117849E+05 -3.376254E+04  1.992635E+03
       234  22 -4.057825E+05 -1.366827E+05 -3.916575E+04 -2.472344E+05 -4.480882E+04  4.083180E+04
       234  23 -4.039057E+05 -1.553442E+05 -7.479125E+04 -2.267942E+05 -8.078132E+04  1.848491E+04
       234  24 -4.231018E+05 -2.585835E+05 -1.592813E+05 -2.014317E+05 -1.083876E+05 -2.607862E+04
       234  25 -1.131556E+06 -3.946922E+05 -1.704989E+05 -4.444715E+05 -3.863790E+04  4.315823E+04
       234  26 -1.175785E+06 -4.773696E+05 -2.381924E+05 -4.818122E+05 -1.149621E+05  5.643553E+03
       234  27 -1.249128E+06 -6.526775E+05 -3.867995E+05 -5.142152E+05 -1.829020E+05 -5.408271E+04
       235   1  1.184632E+06  1.610470E+05  1.394344E+05  2.347694E+03  2.377509E+04 -1.404226E+04
       235   2  1.139077E+06  2.000807E+05  1.294997E+05  2.662443E+04  4.053051E+03 -4.822290E+04
       235   3  1.087331E+06  2.038958E+05  1.236371E+05  5.879671E+04 -1.570593E+04 -6.030621E+04
       235   4  1.884570E+05 -8.397730E+04 -9.153040E+04  5.556318E+04 -6.414122E+04 -1.421553E+04
       235   5  1.953019E+05 -2.333513E+04 -4.519090E+04  5.152851E+04 -4.085667E+04 -4.832430E+04
       235   6  1.884780E+05 -5.405683E+03 -2.463248E+04  5.538930E+04 -1.761021E+04 -6.031854E+04
       235   7 -8.067797E+05 -3.290564E+05 -3.225311E+05  1.086923E+05 -1.519176E+05 -1.440401E+04
       235   8 -7.476056E+05 -2.467983E+05 -2.199109E+05  7.639334E+04 -8.569996E+04 -4.842939E+04
       235   9 -7.095774E+05 -2.147488E+05 -1.729259E+05  5.198652E+04 -1.951181E+04 -6.033085E+04
       235  10  1.184631E+06  1.610466E+05  1.394329E+05  2.347963E+03  5.937442E-09 -1.068972E-09
       235  11  1.139077E+06  2.000782E+05  1.294953E+05  2.662459E+04  4.593526E-09 -4.753228E-09
       235  12  1.087330E+06  2.038919E+05  1.236298E+05  5.879594E+04  3.406581E-10 -2.392207E-09
       235  13  1.884525E+05 -8.397863E+04 -9.153851E+04  5.556245E+04 -1.010690E-09  1.094938E-09
       235  14  1.952995E+05 -2.333808E+04 -4.519843E+04  5.152692E+04 -4.789426E-12 -3.384897E-09
       235  15  1.884767E+05 -5.409673E+03 -2.463990E+04  5.538844E+04  6.681681E-10  5.670814E-10
       235  16 -8.068045E+05 -3.290628E+05 -3.225749E+05  1.086906E+05 -6.555353E-09  2.549538E-10
       235  17 -7.476141E+05 -2.468028E+05 -2.199291E+05  7.639000E+04 -1.881806E-09 -6.718115E-09
       235  18 -7.095788E+05 -2.147528E+05 -1.729334E+05  5.198557E+04 -7.691705E-11 -5.749434E-09
       235  19  1.184632E+06  1.610470E+05  1.394344E+05  2.347694E+03 -2.377509E+04  1.404226E+04
       235  20  1.139077E+06  2.000807E+05  1.294997E+05  2.662443E+04 -4.053051E+03  4.822290E+04
       235  21  1.087331E+06  2.038958E+05  1.236371E+05  5.879671E+04  1.570593E+04  6.030621E+04
       235  22  1.884570E+05 -8.397730E+04 -9.153040E+04  5.556318E+04  6.414122E+04  1.421553E+04
       235  23  1.953019E+05 -2.333513E+04 -4.519090E+04  5.152851E+04  4.085667E+04  4.832430E+04
       235  24  1.884780E+05 -5.405683E+03 -2.463248E+04  5.538930E+04  1.761021E+04  6.031854E+04
       235  25 -8.067797E+05 -3.290564E+05 -3.225311E+05  1.086923E+05  1.519176E+05  1.440401E+04
       235  26 -7.476056E+05 -2.467983E+05 -2.199109E+05  7.639334E+04  8.569996E+04  4.842939E+04
       235  27 -7.095774E+05 -2.147488E+05 -1.729259E+05  5.198652E+04  1.951181E+04  6.033085E+04
       236   1  1.058138E+06  1.964896E+05  1.218616E+05  5.489398E+04 -1.156587E+04 -6.017733E+04
       236   2  1.010114E+06  1.881209E+05  1.177577E+05  5.165861E+04 -1.110332E+04 -6.046149E+04
       236   3  9.615238E+05  1.777249E+05  1.128509E+05  5.779852E+04 -1.064754E+04 -5.836948E+04
       236   4  1.912211E+05 -4.843372E+03 -1.857993E+04  5.573472E+04 -1.441903E+04 -6.019192E+04
       236   5  1.919192E+05 -9.828610E+02 -1.015983E+04  5.104035E+04 -9.336533E+03 -6.046470E+04
       236   6  1.912463E+05  4.720573E+01 -5.750986E+03  5.572211E+04 -4.260673E+03 -5.835970E+04
       236   7 -6.749511E+05 -2.062144E+05 -1.590422E+05  5.657380E+04 -1.726834E+04 -6.020654E+04
       236   8 -6.256088E+05 -1.901195E+05 -1.380934E+05  5.042252E+04 -7.571975E+03 -6.046791E+04
       236   9 -5.784386E+05 -1.776592E+05 -1.243660E+05  5.364797E+04  2.118589E+03 -5.834995E+04
       236  10  1.058137E+06  1.964857E+05  1.218545E+05  5.489342E+04 -5.298117E-09 -3.203259E-09
       236  11  1.010113E+06  1.881169E+05  1.177506E+05  5.165807E+04 -2.059944E-11  2.927848E-09
       236  12  9.615228E+05  1.777213E+05  1.128443E+05  5.779802E+04  9.045314E-10  2.152368E-09
       236  13  1.912199E+05 -4.847319E+03 -1.858713E+04  5.573402E+04  3.111142E-12 -1.673830E-09
       236  14  1.919181E+05 -9.868106E+02 -1.016687E+04  5.103990E+04  4.345522E-10  6.841477E-10
       236  15  1.912454E+05  4.354325E+01 -5.757421E+03  5.572191E+04 -1.021368E-09 -2.900717E-09
       236  16 -6.749524E+05 -2.062184E+05 -1.590496E+05  5.657296E+04  4.401151E-09  6.358586E-10
       236  17 -6.256098E+05 -1.901234E+05 -1.381004E+05  5.042215E+04  2.050935E-09  2.338025E-09
       236  18 -5.784395E+05 -1.776629E+05 -1.243724E+05  5.364807E+04 -3.644063E-09 -8.866090E-11
       236  19  1.058138E+06  1.964896E+05  1.218616E+05  5.489398E+04  1.156587E+04  6.017733E+04
       236  20  1.010114E+06  1.881209E+05  1.177577E+05  5.165861E+04  1.110332E+04  6.046149E+04
       236  21  9.615238E+05  1.777249E+05  1.128509E+05  5.779852E+04  1.064754E+04  5.836948E+04
       236  22  1.912211E+05 -4.843372E+03 -1.857993E+04  5.573472E+04  1.441903E+04  6.019192E+04
       236  23  1.919192E+05 -9.828610E+02 -1.015983E+04  5.104035E+04  9.336533E+03  6.046470E+04
       236  24  1.912463E+05  4.720573E+01 -5.750986E+03  5.572211E+04  4.260673E+03  5.835970E+04
       236  25 -6.749511E+05 -2.062144E+05 -1.590422E+05  5.657380E+04  1.726834E+04  6.020654E+04
       236  26 -6.256088E+05 -1.901195E+05 -1.380934E+05  5.042252E+04  7.571975E+03  6.046791E+04
       236  27 -5.784386E+05 -1.776592E+05 -1.243660E+05  5.364797E+04 -2.118589E+03  5.834995E+04
       237   1  9.310273E+05  1.705491E+05  1.090747E+05  5.744375E+04 -9.674668E+03 -5.638413E+04
       237   2  8.828667E+05  1.595243E+05  1.031522E+05  5.262032E+04 -8.953081E+03 -5.302891E+04
       237   3  8.345784E+05  1.484604E+05  9.674372E+04  5.731983E+04 -8.233804E+03 -4.941928E+04
       237   4  1.915118E+05  5.341331E+01 -4.354939E+03  5.575630E+04 -3.392558E+03 -5.637370E+04
       237   5  1.916309E+05  2.364232E+02 -2.465522E+03  5.099419E+04 -2.177294E+03 -5.301566E+04
       237   6  1.915341E+05  2.945612E+02 -1.405424E+03  5.575563E+04 -9.642861E+02 -4.940308E+04
       237   7 -5.474571E+05 -1.704686E+05 -1.177965E+05  5.407056E+04  2.882367E+03 -5.636330E+04
       237   8 -4.991270E+05 -1.590744E+05 -1.080934E+05  4.936960E+04  4.591251E+03 -5.300245E+04
       237   9 -4.510966E+05 -1.478911E+05 -9.956325E+04  5.419280E+04  6.298004E+03 -4.938690E+04
       237  10  9.310263E+05  1.705457E+05  1.090686E+05  5.744331E+04 -2.240323E-09  3.663737E-09
       237  11  8.828658E+05  1.595213E+05  1.031468E+05  5.261994E+04  4.017750E-09  4.805715E-09
       237  12  8.345777E+05  1.484578E+05  9.673900E+04  5.731950E+04  3.699876E-09  1.194797E-09
       237  13  1.915109E+05  4.999732E+01 -4.360933E+03  5.575614E+04 -2.290177E-09 -3.738758E-09
       237  14  1.916302E+05  2.334036E+02 -2.470813E+03  5.099410E+04  3.386327E-10  3.593919E-09
       237  15  1.915334E+05  2.919399E+02 -1.410013E+03  5.575559E+04  3.192560E-09  6.029811E-09
       237  16 -5.474580E+05 -1.704721E+05 -1.178025E+05  5.407069E+04  2.549469E-09  9.917411E-10
       237  17 -4.991278E+05 -1.590774E+05 -1.080987E+05  4.936980E+04 -1.156962E-09  3.401246E-09
       237  18 -4.510973E+05 -1.478938E+05 -9.956791E+04  5.419305E+04 -4.950179E-09 -4.398720E-10
       237  19  9.310273E+05  1.705491E+05  1.090747E+05  5.744375E+04  9.674668E+03  5.638413E+04
       237  20  8.828667E+05  1.595243E+05  1.031522E+05  5.262032E+04  8.953081E+03  5.302891E+04
       237  21  8.345784E+05  1.484604E+05  9.674372E+04  5.731983E+04  8.233804E+03  4.941928E+04
       237  22  1.915118E+05  5.341331E+01 -4.354939E+03  5.575630E+04  3.392558E+03  5.637370E+04
       237  23  1.916309E+05  2.364232E+02 -2.465522E+03  5.099419E+04  2.177294E+03  5.301566E+04
       237  24  1.915341E+05  2.945612E+02 -1.405424E+03  5.575563E+04  9.642861E+02  4.940308E+04
       237  25 -5.474571E+05 -1.704686E+05 -1.177965E+05  5.407056E+04 -2.882367E+03  5.636330E+04
       237  26 -4.991270E+05 -1.590744E+05 -1.080934E+05  4.936960E+04 -4.591251E+03  5.300245E+04
       237  27 -4.510966E+05 -1.478911E+05 -9.956325E+04  5.419280E+04 -6.298004E+03  4.938690E+04
       238   1  8.040142E+05  1.413680E+05  9.220492E+04  5.723596E+04 -8.003653E+03 -4.723722E+04
       238   2  7.558700E+05  1.302619E+05  8.536934E+04  5.236907E+04 -7.768111E+03 -4.349490E+04
       238   3  7.076679E+05  1.192178E+05  7.838298E+04  5.703144E+04 -7.534010E+03 -3.972621E+04
       238   4  1.915738E+05  2.937326E+02 -1.061986E+03  5.575714E+04 -7.473289E+02 -4.722020E+04
       238   5  1.916179E+05  2.765413E+02 -5.978782E+02  5.099225E+04 -4.610368E+02 -4.347642E+04
       238   6  1.915921E+05  3.123312E+02 -3.202943E+02  5.575712E+04 -1.761688E+02 -3.970625E+04
       238   7 -4.204911E+05 -1.407985E+05 -9.433665E+04  5.427954E+04  6.502124E+03 -4.720320E+04
       238   8 -3.723155E+05 -1.297241E+05 -8.657167E+04  4.961649E+04  6.839662E+03 -4.345795E+04
       238   9 -3.242170E+05 -1.186059E+05 -7.902905E+04  5.448369E+04  7.175800E+03 -3.968631E+04
       238  10  8.040135E+05  1.413656E+05  9.220060E+04  5.723566E+04 -2.026559E-08  1.545495E-09
       238  11  7.558694E+05  1.302599E+05  8.536567E+04  5.236880E+04  4.066620E-08  1.005956E-08
       238  12  7.076674E+05  1.192161E+05  7.837990E+04  5.703120E+04  9.632102E-08  1.022643E-08
       238  13  1.915732E+05  2.913379E+02 -1.066177E+03  5.575711E+04  1.051375E-09  3.361028E-09
       238  14  1.916174E+05  2.745113E+02 -6.014310E+02  5.099224E+04  3.941682E-10  1.157885E-08
       238  15  1.915917E+05  3.106381E+02 -3.232574E+02  5.575712E+04  5.981392E-11  4.813989E-09
       238  16 -4.204918E+05 -1.408009E+05 -9.434092E+04  5.427979E+04  1.870450E-08  1.968619E-10
       238  17 -3.723160E+05 -1.297262E+05 -8.657531E+04  4.961673E+04 -3.945815E-08  4.850806E-09
       238  18 -3.242175E+05 -1.186076E+05 -7.903211E+04  5.448392E+04 -9.736444E-08  2.339315E-09
       238  19  8.040142E+05  1.413680E+05  9.220492E+04  5.723596E+04  8.003653E+03  4.723722E+04
       238  20  7.558700E+05  1.302619E+05  8.536934E+04  5.236907E+04  7.768111E+03  4.349490E+04
       238  21  7.076679E+05  1.192178E+05  7.838298E+04  5.703144E+04  7.534010E+03  3.972621E+04
       238  22  1.915738E+05  2.937326E+02 -1.061986E+03  5.575714E+04  7.473289E+02  4.722020E+04
       238  23  1.916179E+05  2.765413E+02 -5.978782E+02  5.099225E+04  4.610368E+02  4.347642E+04
       238  24  1.915921E+05  3.123312E+02 -3.202943E+02  5.575712E+04  1.761688E+02  3.970625E+04
       238  25 -4.204911E+05 -1.407985E+05 -9.433665E+04  5.427954E+04 -6.502124E+03  4.720320E+04
       238  26 -3.723155E+05 -1.297241E+05 -8.657167E+04  4.961649E+04 -6.839662E+03  4.345795E+04
       238  27 -3.242170E+05 -1.186059E+05 -7.902905E+04  5.448369E+04 -7.175800E+03  3.968631E+04
       239   1  6.771159E+05  1.121453E+05  7.362982E+04  5.696745E+04 -7.487439E+03 -3.752477E+04
       239   2  6.290065E+05  1.010536E+05  6.653378E+04  5.210190E+04 -7.461395E+03 -3.374369E+04
       239   3  5.808508E+05  9.002754E+04  5.941911E+04  5.676488E+04 -7.436404E+03 -2.996074E+04
       239   4  1.916027E+05  3.170211E+02 -2.255058E+02  5.575694E+04 -1.325507E+02 -3.750412E+04
       239   5  1.916341E+05  2.942415E+02 -8.154600E+01  5.099248E+04 -1.030996E+02 -3.372202E+04
       239   6  1.916169E+05  3.367788E+02  4.147346E+01  5.575692E+04 -7.469864E+01 -2.993803E+04
       239   7 -2.936745E+05 -1.115225E+05 -7.408561E+04  5.454723E+04  7.216816E+03 -3.748350E+04
       239   8 -2.455468E+05 -1.004743E+05 -6.670073E+04  4.988372E+04  7.250219E+03 -3.370036E+04
       239   9 -1.974653E+05 -8.936123E+04 -5.933921E+04  5.474950E+04  7.282575E+03 -2.991534E+04
       239  10  6.771154E+05  1.121438E+05  7.362707E+04  5.696723E+04 -7.777477E-08  3.932065E-09
       239  11  6.290062E+05  1.010524E+05  6.653154E+04  5.210170E+04 -5.788853E-08  3.814911E-10
       239  12  5.808505E+05  9.002656E+04  5.941732E+04  5.676470E+04 -3.663959E-08 -4.368142E-09
       239  13  1.916023E+05  3.155105E+02 -2.281493E+02  5.575694E+04 -1.923211E-09  1.067510E-08
       239  14  1.916338E+05  2.930202E+02 -8.368318E+01  5.099248E+04 -1.866001E-09 -2.303760E-11
       239  15  1.916167E+05  3.358163E+02  3.978900E+01  5.575692E+04  1.183207E-09 -4.329097E-09
       239  16 -2.936749E+05 -1.115240E+05 -7.408835E+04  5.454745E+04  7.538159E-08  5.293505E-09
       239  17 -2.455472E+05 -1.004755E+05 -6.670297E+04  4.988392E+04  5.673081E-08 -4.126220E-09
       239  18 -1.974656E+05 -8.936221E+04 -5.934099E+04  5.474968E+04  3.580237E-08 -5.676103E-09
       239  19  6.771159E+05  1.121453E+05  7.362982E+04  5.696745E+04  7.487439E+03  3.752477E+04
       239  20  6.290065E+05  1.010536E+05  6.653378E+04  5.210190E+04  7.461395E+03  3.374369E+04
       239  21  5.808508E+05  9.002754E+04  5.941911E+04  5.676488E+04  7.436404E+03  2.996074E+04
       239  22  1.916027E+05  3.170211E+02 -2.255058E+02  5.575694E+04  1.325507E+02  3.750412E+04
       239  23  1.916341E+05  2.942415E+02 -8.154600E+01  5.099248E+04  1.030996E+02  3.372202E+04
       239  24  1.916169E+05  3.367788E+02  4.147346E+01  5.575692E+04  7.469864E+01  2.993803E+04
       239  25 -2.936745E+05 -1.115225E+05 -7.408561E+04  5.454723E+04 -7.216816E+03  3.748350E+04
       239  26 -2.455468E+05 -1.004743E+05 -6.670073E+04  4.988372E+04 -7.250219E+03  3.370036E+04
       239  27 -1.974653E+05 -8.936123E+04 -5.933921E+04  5.474950E+04 -7.282575E+03  2.991534E+04
       240   1  5.503222E+05  8.295996E+04  5.463976E+04  5.669813E+04 -7.454711E+03 -2.775860E+04
       240   2  5.022355E+05  7.187549E+04  4.756304E+04  5.182423E+04 -7.591080E+03 -2.397647E+04
       240   3  4.541182E+05  6.087811E+04  4.057545E+04  5.647194E+04 -7.728175E+03 -2.019621E+04
       240   4  1.916249E+05  3.409239E+02  1.037170E+02  5.575538E+04 -9.440550E+01 -2.773538E+04
       240   5  1.916460E+05  3.187525E+02  2.587979E+02  5.099439E+04 -2.346386E+02 -2.395253E+04
       240   6  1.916350E+05  3.844056E+02  5.055600E+02  5.575526E+04 -3.756075E+02 -2.017156E+04
       240   7 -1.669435E+05 -8.228425E+04 -5.443483E+04  5.481308E+04  7.261817E+03 -2.771217E+04
       240   8 -1.188467E+05 -7.124259E+04 -4.704729E+04  5.016489E+04  7.118268E+03 -2.392861E+04
       240   9 -7.077923E+04 -6.011258E+04 -3.956560E+04  5.503884E+04  6.973974E+03 -2.014692E+04
       240  10  5.503219E+05  8.295912E+04  5.463821E+04  5.669796E+04  4.310587E-08  1.067826E-09
       240  11  5.022353E+05  7.187486E+04  4.756185E+04  5.182409E+04  1.649347E-08  3.866771E-10
       240  12  4.541180E+05  6.087766E+04  4.057457E+04  5.647181E+04 -1.379375E-08  1.274710E-09
       240  13  1.916247E+05  3.400978E+02  1.022713E+02  5.575537E+04 -2.204383E-09 -1.710311E-09
       240  14  1.916459E+05  3.181364E+02  2.577196E+02  5.099438E+04  7.187212E-10 -3.813599E-09
       240  15  1.916349E+05  3.839686E+02  5.047950E+02  5.575525E+04  2.292368E-09  5.202172E-10
       240  16 -1.669438E+05 -8.228509E+04 -5.443637E+04  5.481324E+04 -4.282065E-08 -3.919615E-10
       240  17 -1.188469E+05 -7.124322E+04 -4.704846E+04  5.016503E+04 -1.702441E-08 -1.095800E-08
       240  18 -7.077939E+04 -6.011303E+04 -3.956646E+04  5.503896E+04  1.322919E-08 -2.755347E-09
       240  19  5.503222E+05  8.295996E+04  5.463976E+04  5.669813E+04  7.454711E+03  2.775860E+04
       240  20  5.022355E+05  7.187549E+04  4.756304E+04  5.182423E+04  7.591080E+03  2.397647E+04
       240  21  4.541182E+05  6.087811E+04  4.057545E+04  5.647194E+04  7.728175E+03  2.019621E+04
       240  22  1.916249E+05  3.409239E+02  1.037170E+02  5.575538E+04  9.440550E+01  2.773538E+04
       240  23  1.916460E+05  3.187525E+02  2.587979E+02  5.099439E+04  2.346386E+02  2.395253E+04
       240  24  1.916350E+05  3.844056E+02  5.055600E+02  5.575526E+04  3.756075E+02  2.017156E+04
       240  25 -1.669435E+05 -8.228425E+04 -5.443483E+04  5.481308E+04 -7.261817E+03  2.771217E+04
       240  26 -1.188467E+05 -7.124259E+04 -4.704729E+04  5.016489E+04 -7.118268E+03  2.392861E+04
       240  27 -7.077923E+04 -6.011258E+04 -3.956560E+04  5.503884E+04 -6.973974E+03  2.014692E+04
       241   1  4.236324E+05  5.381258E+04  3.590884E+04  5.643764E+04 -7.837297E+03 -1.799620E+04
       241   2  3.755019E+05  4.284234E+04  2.920852E+04  5.137621E+04 -8.430655E+03 -1.422565E+04
       241   3  3.274746E+05  3.228333E+04  2.297368E+04  5.583046E+04 -9.024353E+03 -1.046982E+04
       241   4  1.916684E+05  3.876137E+02  6.797002E+02  5.575417E+04 -4.850381E+02 -1.797121E+04
       241   5  1.916187E+05  4.789931E+02  1.219376E+03  5.099523E+04 -1.107218E+03 -1.420032E+04
       241   6  1.916742E+05  9.865180E+02  2.244225E+03  5.575211E+04 -1.729777E+03 -1.044417E+04
       241   7 -4.024175E+04 -5.303990E+04 -3.455037E+04  5.507092E+04  6.864583E+03 -1.794622E+04
       241   8  7.769540E+03 -4.188595E+04 -2.677028E+04  5.061434E+04  6.214137E+03 -1.417501E+04
       241   9  5.589246E+04 -3.031115E+04 -1.848542E+04  5.567377E+04  5.563266E+03 -1.041853E+04
       241  10  4.236323E+05  5.381222E+04  3.590812E+04  5.643753E+04 -6.403384E-08  4.927772E-09
       241  11  3.755018E+05  4.284211E+04  2.920801E+04  5.137611E+04  2.917923E-09 -1.430914E-09
       241  12  3.274744E+05  3.228319E+04  2.297332E+04  5.583038E+04  7.072428E-08  4.246073E-09
       241  13  1.916683E+05  3.872668E+02  6.790928E+02  5.575416E+04  1.026468E-09  1.658599E-09
       241  14  1.916187E+05  4.787762E+02  1.218995E+03  5.099522E+04  5.994119E-10  2.564236E-09
       241  15  1.916742E+05  9.864001E+02  2.244015E+03  5.575210E+04  1.855079E-09 -8.950361E-10
       241  16 -4.024188E+04 -5.304026E+04 -3.455106E+04  5.507101E+04  6.436935E-08  7.932083E-10
       241  17  7.769444E+03 -4.188617E+04 -2.677074E+04  5.061441E+04 -2.346640E-09 -6.368016E-10
       241  18  5.589240E+04 -3.031127E+04 -1.848568E+04  5.567382E+04 -7.209186E-08 -9.690010E-09
       241  19  4.236324E+05  5.381258E+04  3.590884E+04  5.643764E+04  7.837297E+03  1.799620E+04
       241  20  3.755019E+05  4.284234E+04  2.920852E+04  5.137621E+04  8.430655E+03  1.422565E+04
       241  21  3.274746E+05  3.228333E+04  2.297368E+04  5.583046E+04  9.024353E+03  1.046982E+04
       241  22  1.916684E+05  3.876137E+02  6.797002E+02  5.575417E+04  4.850381E+02  1.797121E+04
       241  23  1.916187E+05  4.789931E+02  1.219376E+03  5.099523E+04  1.107218E+03  1.420032E+04
       241  24  1.916742E+05  9.865180E+02  2.244225E+03  5.575211E+04  1.729777E+03  1.044417E+04
       241  25 -4.024175E+04 -5.303990E+04 -3.455037E+04  5.507092E+04 -6.864583E+03  1.794622E+04
       241  26  7.769540E+03 -4.188595E+04 -2.677028E+04  5.061434E+04 -6.214137E+03  1.417501E+04
       241  27  5.589246E+04 -3.031115E+04 -1.848542E+04  5.567377E+04 -5.563266E+03  1.041853E+04
       242   1  2.972892E+05  2.528310E+04  1.885214E+04  5.626138E+04 -9.422690E+03 -8.282520E+03
       242   2  2.484682E+05  1.631967E+04  1.399958E+04  4.794236E+04 -1.198262E+04 -4.604777E+03
       242   3  2.012001E+05  1.256172E+04  1.208989E+04  4.911775E+04 -1.454210E+04 -1.060735E+03
       242   4  1.920070E+05  1.054825E+03  2.978416E+03  5.575085E+04 -2.122995E+03 -8.256684E+03
       242   5  1.912095E+05  3.191110E+03  5.467751E+03  5.098700E+04 -4.943030E+03 -4.579799E+03
       242   6  1.920082E+05  1.057840E+04  1.108059E+04  5.571740E+04 -7.762784E+03 -1.036651E+03
       242   7  8.673610E+04 -2.317395E+04 -1.289533E+04  5.524040E+04  5.175511E+03 -8.230857E+03
       242   8  1.339542E+05 -9.937545E+03 -3.063946E+03  5.403135E+04  2.095938E+03 -4.554750E+03
       242   9  1.828166E+05  8.595253E+03  1.007150E+04  6.231694E+04 -9.835637E+02 -1.012421E+03
       242  10  2.972891E+05  2.528300E+04  1.885184E+04  5.626132E+04 -2.906027E-09  1.724456E-09
       242  11  2.484680E+05  1.631961E+04  1.399927E+04  4.794231E+04 -1.561954E-09 -4.837505E-09
       242  12  2.011999E+05  1.256167E+04  1.208949E+04  4.911774E+04  2.280835E-09 -1.133942E-09
       242  13  1.920070E+05  1.054750E+03  2.978279E+03  5.575084E+04  2.287751E-09  7.161463E-09
       242  14  1.912094E+05  3.191081E+03  5.467666E+03  5.098699E+04  1.092280E-09 -4.333384E-09
       242  15  1.920081E+05  1.057838E+04  1.108048E+04  5.571739E+04  1.472393E-09  3.579184E-09
       242  16  8.673606E+04 -2.317403E+04 -1.289551E+04  5.524044E+04  2.341748E-09  1.621829E-10
       242  17  1.339542E+05 -9.937569E+03 -3.063994E+03  5.403136E+04  5.543181E-10  2.749047E-09
       242  18  1.828165E+05  8.595252E+03  1.007149E+04  6.231694E+04 -3.765997E-09 -4.515324E-10
       242  19  2.972892E+05  2.528310E+04  1.885214E+04  5.626138E+04  9.422690E+03  8.282520E+03
       242  20  2.484682E+05  1.631967E+04  1.399958E+04  4.794236E+04  1.198262E+04  4.604777E+03
       242  21  2.012001E+05  1.256172E+04  1.208989E+04  4.911775E+04  1.454210E+04  1.060735E+03
       242  22  1.920070E+05  1.054825E+03  2.978416E+03  5.575085E+04  2.122995E+03  8.256684E+03
       242  23  1.912095E+05  3.191110E+03  5.467751E+03  5.098700E+04  4.943030E+03  4.579799E+03
       242  24  1.920082E+05  1.057840E+04  1.108059E+04  5.571740E+04  7.762784E+03  1.036651E+03
       242  25  8.673610E+04 -2.317395E+04 -1.289533E+04  5.524040E+04 -5.175511E+03  8.230857E+03
       242  26  1.339542E+05 -9.937545E+03 -3.063946E+03  5.403135E+04 -2.095938E+03  4.554750E+03
       242  27  1.828166E+05  8.595253E+03  1.007150E+04  6.231694E+04  9.835637E+02  1.012421E+03
       243   1  2.150572E+04  7.359723E+05  2.615646E+04 -1.484123E+05 -2.416958E+03  1.851531E+03
       243   2 -2.402908E+04  6.208925E+05 -4.434956E+03 -1.280946E+05 -1.070316E+04 -6.718988E+03
       243   3 -5.561663E+04  5.103249E+05 -2.599518E+04 -1.300631E+05 -1.900728E+04 -1.528758E+04
       243   4  2.729867E+04  7.619679E+05  2.957982E+04 -1.307117E+05 -2.449990E+03  1.799137E+04
       243   5  7.894708E+03  7.597189E+05  1.667278E+04 -1.195931E+05 -1.073568E+04  9.453678E+03
       243   6  2.431797E+03  7.619658E+05  1.277441E+04 -1.307588E+05 -1.903904E+04  9.165720E+02
       243   7  3.309291E+04  7.879654E+05  3.300432E+04 -1.130103E+05 -2.482102E+03  3.413185E+04
       243   8  3.981800E+04  8.985652E+05  3.778114E+04 -1.110897E+05 -1.076775E+04  2.562982E+04
       243   9  6.047730E+04  1.013670E+06  5.154356E+04 -1.314548E+05 -1.907084E+04  1.712703E+04
       243  10  2.150571E+04  7.359723E+05  2.615644E+04 -1.484123E+05  2.293112E-09 -7.423508E-11
       243  11 -2.402922E+04  6.208925E+05 -4.435256E+03 -1.280947E+05 -8.620013E-11 -7.847823E-09
       243  12 -5.561709E+04  5.103246E+05 -2.599630E+04 -1.300633E+05  1.134737E-09 -5.032291E-09
       243  13  2.729858E+04  7.619675E+05  2.957920E+04 -1.307117E+05  1.748499E-09 -3.395862E-11
       243  14  7.894560E+03  7.597187E+05  1.667240E+04 -1.195930E+05  5.352529E-10 -4.009569E-09
       243  15  2.431408E+03  7.619657E+05  1.277372E+04 -1.307588E+05 -1.602487E-09 -2.916845E-09
       243  16  3.309259E+04  7.879642E+05  3.300213E+04 -1.130102E+05 -2.033058E-09  1.108700E-09
       243  17  3.981770E+04  8.985645E+05  3.777969E+04 -1.110894E+05  9.281100E-10  1.374468E-09
       243  18  6.047683E+04  1.013670E+06  5.154232E+04 -1.314545E+05 -5.394355E-10  4.027876E-09
       243  19  2.150572E+04  7.359723E+05  2.615646E+04 -1.484123E+05  2.416958E+03 -1.851531E+03
       243  20 -2.402908E+04  6.208925E+05 -4.434956E+03 -1.280946E+05  1.070316E+04  6.718988E+03
       243  21 -5.561663E+04  5.103249E+05 -2.599518E+04 -1.300631E+05  1.900728E+04  1.528758E+04
       243  22  2.729867E+04  7.619679E+05  2.957982E+04 -1.307117E+05  2.449990E+03 -1.799137E+04
       243  23  7.894708E+03  7.597189E+05  1.667278E+04 -1.195931E+05  1.073568E+04 -9.453678E+03
       243  24  2.431797E+03  7.619658E+05  1.277441E+04 -1.307588E+05  1.903904E+04 -9.165720E+02
       243  25  3.309291E+04  7.879654E+05  3.300432E+04 -1.130103E+05  2.482102E+03 -3.413185E+04
       243  26  3.981800E+04  8.985652E+05  3.778114E+04 -1.110897E+05  1.076775E+04 -2.562982E+04
       243  27  6.047730E+04  1.013670E+06  5.154356E+04 -1.314548E+05  1.907084E+04 -1.712703E+04
       244   1 -7.248376E+04  4.380280E+05 -3.776573E+04 -1.317296E+05 -2.395124E+04 -1.739765E+04
       244   2 -9.887827E+04  3.244019E+05 -5.373697E+04 -1.182025E+05 -3.129135E+04 -2.118005E+04
       244   3 -1.213899E+05  2.121744E+05 -6.629890E+04 -1.268638E+05 -3.657963E+04 -2.495656E+04
       244   4  2.232267E+03  7.614200E+05  1.266847E+04 -1.307335E+05 -2.398233E+04 -1.113848E+03
       244   5  2.120613E+03  7.603633E+05  1.553260E+04 -1.196357E+05 -3.131262E+04 -8.892174E+03
       244   6  6.583647E+03  7.613839E+05  2.457606E+04 -1.307248E+05 -3.659180E+04 -1.666527E+04
       244   7  7.694332E+04  1.084917E+06  6.310119E+04 -1.297367E+05 -2.401336E+04  1.517811E+04
       244   8  1.031101E+05  1.196514E+06  8.479787E+04 -1.210698E+05 -3.133393E+04  3.404011E+03
       244   9  1.345417E+05  1.310891E+06  1.154423E+05 -1.345891E+05 -3.660406E+04 -8.366894E+03
       244  10 -7.248446E+04  4.380275E+05 -3.776738E+04 -1.317299E+05 -3.605692E-11 -5.667676E-08
       244  11 -9.887944E+04  3.244011E+05 -5.373965E+04 -1.182031E+05  1.896298E-09 -4.122548E-09
       244  12 -1.213915E+05  2.121733E+05 -6.630259E+04 -1.268646E+05  2.108580E-10  5.817270E-08
       244  13  2.231649E+03  7.614198E+05  1.266739E+04 -1.307335E+05  4.204661E-10 -2.371984E-10
       244  14  2.119539E+03  7.603630E+05  1.553061E+04 -1.196359E+05  2.529998E-09 -3.528321E-09
       244  15  6.582134E+03  7.613832E+05  2.457302E+04 -1.307253E+05  5.370498E-10 -2.552421E-09
       244  16  7.694264E+04  1.084916E+06  6.309968E+04 -1.297364E+05  2.586373E-10  5.716386E-08
       244  17  1.031091E+05  1.196514E+06  8.479601E+04 -1.210697E+05  3.296640E-09 -9.367685E-10
       244  18  1.345402E+05  1.310891E+06  1.154396E+05 -1.345894E+05 -4.567326E-10 -5.889625E-08
       244  19 -7.248376E+04  4.380280E+05 -3.776573E+04 -1.317296E+05  2.395124E+04  1.739765E+04
       244  20 -9.887827E+04  3.244019E+05 -5.373697E+04 -1.182025E+05  3.129135E+04  2.118005E+04
       244  21 -1.213899E+05  2.121744E+05 -6.629890E+04 -1.268638E+05  3.657963E+04  2.495656E+04
       244  22  2.232267E+03  7.614200E+05  1.266847E+04 -1.307335E+05  2.398233E+04  1.113848E+03
       244  23  2.120613E+03  7.603633E+05  1.553260E+04 -1.196357E+05  3.131262E+04  8.892174E+03
       244  24  6.583647E+03  7.613839E+05  2.457606E+04 -1.307248E+05  3.659180E+04  1.666527E+04
       244  25  7.694332E+04  1.084917E+06  6.310119E+04 -1.297367E+05  2.401336E+04 -1.517811E+04
       244  26  1.031101E+05  1.196514E+06  8.479787E+04 -1.210698E+05  3.133393E+04 -3.404011E+03
       244  27  1.345417E+05  1.310891E+06  1.154423E+05 -1.345891E+05  3.660406E+04  8.366894E+03
       245   1 -1.380626E+05  1.426660E+05 -7.323724E+04 -1.318588E+05 -3.990955E+04 -2.996546E+04
       245   2 -1.449547E+05  2.431332E+04 -8.231087E+04 -8.634235E+04 -3.495863E+04 -2.125847E+04
       245   3 -1.053184E+05 -8.354998E+04 -8.541848E+04 -6.167670E+04 -1.068149E+04 -1.252779E+04
       245   4  7.240487E+03  7.646811E+05  3.160601E+04 -1.304411E+05 -3.992230E+04 -2.085695E+04
       245   5  2.920228E+04  7.561479E+05  5.630733E+04 -1.199379E+05 -3.490671E+04 -4.973836E+04
       245   6  1.041789E+05  7.645911E+05  1.130496E+05 -1.302795E+05 -1.057634E+04 -7.859537E+04
       245   7  1.525233E+05  1.387077E+06  1.364373E+05 -1.290218E+05 -3.993499E+04 -1.173962E+04
       245   8  2.033326E+05  1.488503E+06  1.949054E+05 -1.535737E+05 -3.485174E+04 -7.825098E+04
       245   9  3.136448E+05  1.613414E+06  3.114875E+05 -1.989763E+05 -1.045667E+04 -1.447526E+05
       245  10 -1.380645E+05  1.426646E+05 -7.324192E+04 -1.318597E+05  9.913313E-10  3.956210E-09
       245  11 -1.449562E+05  2.431251E+04 -8.231402E+04 -8.634295E+04 -7.018002E-10 -2.304211E-09
       245  12 -1.053185E+05 -8.355018E+04 -8.541899E+04 -6.167680E+04  1.905504E-10  1.692411E-10
       245  13  7.238658E+03  7.646802E+05  3.160220E+04 -1.304418E+05  1.069001E-09 -5.884391E-11
       245  14  2.920031E+04  7.561449E+05  5.630039E+04 -1.199393E+05  1.597318E-09 -3.342957E-09
       245  15  1.041771E+05  7.645844E+05  1.130378E+05 -1.302801E+05 -2.870931E-10 -2.122400E-09
       245  16  1.525215E+05  1.387077E+06  1.364340E+05 -1.290222E+05 -1.356367E-09 -3.141533E-09
       245  17  2.033296E+05  1.488496E+06  1.948916E+05 -1.535759E+05  1.737200E-09 -1.903573E-09
       245  18  3.136391E+05  1.613391E+06  3.114480E+05 -1.989775E+05  2.409980E-10 -6.184579E-10
       245  19 -1.380626E+05  1.426660E+05 -7.323724E+04 -1.318588E+05  3.990955E+04  2.996546E+04
       245  20 -1.449547E+05  2.431332E+04 -8.231087E+04 -8.634235E+04  3.495863E+04  2.125847E+04
       245  21 -1.053184E+05 -8.354998E+04 -8.541848E+04 -6.167670E+04  1.068149E+04  1.252779E+04
       245  22  7.240487E+03  7.646811E+05  3.160601E+04 -1.304411E+05  3.992230E+04  2.085695E+04
       245  23  2.920228E+04  7.561479E+05  5.630733E+04 -1.199379E+05  3.490671E+04  4.973836E+04
       245  24  1.041789E+05  7.645911E+05  1.130496E+05 -1.302795E+05  1.057634E+04  7.859537E+04
       245  25  1.525233E+05  1.387077E+06  1.364373E+05 -1.290218E+05  3.993499E+04  1.173962E+04
       245  26  2.033326E+05  1.488503E+06  1.949054E+05 -1.535737E+05  3.485174E+04  7.825098E+04
       245  27  3.136448E+05  1.613414E+06  3.114875E+05 -1.989763E+05  1.045667E+04  1.447526E+05
       246   1  1.275630E+06  4.143732E+05  2.010040E+05  4.563385E+05  5.879547E+04  5.815463E+03
       246   2  1.201277E+06  4.104644E+05  1.589131E+05  4.346830E+05  3.904779E+04 -4.018092E+04
       246   3  1.116587E+06  4.038390E+05  1.373458E+05  4.292275E+05  1.026163E+04 -6.218692E+04
       246   4  2.911473E+05  6.928317E+04 -4.608052E+04  2.108164E+05 -2.457102E+04 -2.564047E+04
       246   5  3.031828E+05  9.257259E+04 -2.165121E+04  1.960806E+05 -5.740969E+02 -5.514525E+04
       246   6  2.962100E+05  1.044750E+05 -1.133224E+04  1.975480E+05  1.437211E+04 -6.064332E+04
       246   7 -6.923398E+05 -2.757546E+05 -2.932006E+05 -3.435414E+04 -1.077895E+05 -5.704880E+04
       246   8 -5.940619E+05 -2.252551E+05 -2.022432E+05 -4.220359E+04 -4.013354E+04 -7.008785E+04
       246   9 -5.234576E+05 -1.948216E+05 -1.600334E+05 -3.384557E+04  1.847681E+04 -5.910194E+04
       246  10  1.275626E+06  4.143722E+05  2.009975E+05  4.563383E+05  2.524565E-09  3.451050E-10
       246  11  1.201275E+06  4.104623E+05  1.589072E+05  4.346842E+05  1.251202E-09 -2.003307E-09
       246  12  1.116586E+06  4.038348E+05  1.373384E+05  4.292280E+05  1.082689E-09  2.908443E-11
       246  13  2.911464E+05  6.928230E+04 -4.608289E+04  2.108159E+05  1.205107E-09 -5.146057E-10
       246  14  3.031820E+05  9.256932E+04 -2.165692E+04  1.960806E+05  1.846338E-09 -4.049634E-09
       246  15  2.962088E+05  1.044710E+05 -1.133954E+04  1.975487E+05  1.083442E-09 -1.649478E-09
       246  16 -6.923532E+05 -2.757612E+05 -2.932286E+05 -3.435909E+04 -1.112000E-09 -2.344843E-09
       246  17 -5.940649E+05 -2.252608E+05 -2.022554E+05 -4.220585E+04  8.529606E-10 -6.673331E-09
       246  18 -5.234589E+05 -1.948255E+05 -1.600406E+05 -3.384469E+04  6.855330E-10 -5.804472E-09
       246  19  1.275630E+06  4.143732E+05  2.010040E+05  4.563385E+05 -5.879547E+04 -5.815463E+03
       246  20  1.201277E+06  4.104644E+05  1.589131E+05  4.346830E+05 -3.904779E+04  4.018092E+04
       246  21  1.116587E+06  4.038390E+05  1.373458E+05  4.292275E+05 -1.026163E+04  6.218692E+04
       246  22  2.911473E+05  6.928317E+04 -4.608052E+04  2.108164E+05  2.457102E+04  2.564047E+04
       246  23  3.031828E+05  9.257259E+04 -2.165121E+04  1.960806E+05  5.740969E+02  5.514525E+04
       246  24  2.962100E+05  1.044750E+05 -1.133224E+04  1.975480E+05 -1.437211E+04  6.064332E+04
       246  25 -6.923398E+05 -2.757546E+05 -2.932006E+05 -3.435414E+04  1.077895E+05  5.704880E+04
       246  26 -5.940619E+05 -2.252551E+05 -2.022432E+05 -4.220359E+04  4.013354E+04  7.008785E+04
       246  27 -5.234576E+05 -1.948216E+05 -1.600334E+05 -3.384557E+04 -1.847681E+04  5.910194E+04
       247   1  1.072107E+06  3.850021E+05  1.296640E+05  4.150203E+05  1.318997E+04 -5.896244E+04
       247   2  1.005815E+06  3.549099E+05  1.167338E+05  3.890284E+05  1.053956E+04 -5.757792E+04
       247   3  9.287357E+05  3.352638E+05  1.050655E+05  3.756409E+05  7.034737E+03 -5.393762E+04
       247   4  2.972567E+05  1.048216E+05 -8.495803E+03  1.983876E+05  1.494867E+04 -5.830626E+04
       247   5  3.032161E+05  1.009907E+05 -4.459145E+03  1.917204E+05  1.640919E+04 -5.536688E+04
       247   6  2.975700E+05  1.067918E+05 -2.417377E+03  1.976568E+05  1.701462E+04 -5.017031E+04
       247   7 -4.769696E+05 -1.753047E+05 -1.466779E+05 -1.799610E+04  1.670505E+04 -5.765095E+04
       247   8 -3.988633E+05 -1.528811E+05 -1.256674E+05 -5.380437E+03  2.227180E+04 -5.315849E+04
       247   9 -3.331726E+05 -1.216397E+05 -1.099108E+05  1.984179E+04  2.698374E+04 -4.640709E+04
       247  10  1.072106E+06  3.849983E+05  1.296572E+05  4.150209E+05  1.068716E-08 -1.019502E-09
       247  11  1.005814E+06  3.549063E+05  1.167274E+05  3.890289E+05 -5.473684E-09 -1.004019E-08
       247  12  9.287349E+05  3.352607E+05  1.050600E+05  3.756412E+05 -3.025254E-08 -1.374412E-08
       247  13  2.972556E+05  1.048179E+05 -8.502612E+03  1.983883E+05 -1.175376E-09 -7.187413E-09
       247  14  3.032150E+05  1.009873E+05 -4.465412E+03  1.917211E+05  1.353049E-09  7.417383E-09
       247  15  2.975690E+05  1.067890E+05 -2.422652E+03  1.976574E+05 -4.906917E-09 -5.304035E-09
       247  16 -4.769708E+05 -1.753084E+05 -1.466847E+05 -1.799532E+04 -6.765026E-09 -8.143405E-09
       247  17 -3.988646E+05 -1.528843E+05 -1.256736E+05 -5.379483E+03  9.601865E-09 -5.400271E-09
       247  18 -3.331740E+05 -1.216423E+05 -1.099162E+05  1.984280E+04  2.508561E-08  3.166040E-09
       247  19  1.072107E+06  3.850021E+05  1.296640E+05  4.150203E+05 -1.318997E+04  5.896244E+04
       247  20  1.005815E+06  3.549099E+05  1.167338E+05  3.890284E+05 -1.053956E+04  5.757792E+04
       247  21  9.287357E+05  3.352638E+05  1.050655E+05  3.756409E+05 -7.034737E+03  5.393762E+04
       247  22  2.972567E+05  1.048216E+05 -8.495803E+03  1.983876E+05 -1.494867E+04  5.830626E+04
       247  23  3.032161E+05  1.009907E+05 -4.459145E+03  1.917204E+05 -1.640919E+04  5.536688E+04
       247  24  2.975700E+05  1.067918E+05 -2.417377E+03  1.976568E+05 -1.701462E+04  5.017031E+04
       247  25 -4.769696E+05 -1.753047E+05 -1.466779E+05 -1.799610E+04 -1.670505E+04  5.765095E+04
       247  26 -3.988633E+05 -1.528811E+05 -1.256674E+05 -5.380437E+03 -2.227180E+04  5.315849E+04
       247  27 -3.331726E+05 -1.216397E+05 -1.099108E+05  1.984179E+04 -2.698374E+04  4.640709E+04
       248   1  8.830888E+05  3.185356E+05  9.739126E+04  3.627166E+05  6.370064E+03 -5.049039E+04
       248   2  8.174292E+05  2.873794E+05  8.593940E+04  3.364455E+05  4.412652E+03 -4.499565E+04
       248   3  7.407920E+05  2.672259E+05  7.441959E+04  3.226400E+05  2.373660E+03 -3.929149E+04
       248   4  2.976642E+05  1.068224E+05 -1.808694E+03  1.977273E+05  1.612358E+04 -4.680715E+04
       248   5  3.032174E+05  1.014204E+05 -9.728928E+02  1.914781E+05  1.454755E+04 -4.116596E+04
       248   6  2.977103E+05  1.069456E+05 -5.084942E+02  1.976933E+05  1.288991E+04 -3.531522E+04
       248   7 -2.873896E+05 -1.048535E+05 -1.010157E+05  3.288528E+04  2.586722E+04 -4.312765E+04
       248   8 -2.107129E+05 -8.451161E+04 -8.789172E+04  4.662304E+04  2.467353E+04 -3.733965E+04
       248   9 -1.451670E+05 -5.331647E+04 -7.544259E+04  7.282883E+04  2.339829E+04 -3.134193E+04
       248  10  8.830881E+05  3.185328E+05  9.738639E+04  3.627169E+05  2.082509E-08  4.318522E-09
       248  11  8.174287E+05  2.873772E+05  8.593556E+04  3.364456E+05  6.885285E-09  2.176861E-09
       248  12  7.407916E+05  2.672243E+05  7.441668E+04  3.226400E+05 -1.082422E-08 -5.375599E-09
       248  13  2.976633E+05  1.068200E+05 -1.813301E+03  1.977279E+05 -2.526426E-09 -3.824390E-09
       248  14  3.032167E+05  1.014185E+05 -9.764757E+02  1.914786E+05  3.177916E-09 -1.269530E-08
       248  15  2.977098E+05  1.069442E+05 -5.111506E+02  1.976937E+05  6.190030E-10 -4.434644E-11
       248  16 -2.873909E+05 -1.048557E+05 -1.010204E+05  3.288618E+04 -2.810246E-08 -1.418676E-08
       248  17 -2.107139E+05 -8.451327E+04 -8.789548E+04  4.662378E+04 -6.166566E-09  1.952952E-09
       248  18 -1.451678E+05 -5.331767E+04 -7.544547E+04  7.282942E+04  1.252754E-08  1.967059E-09
       248  19  8.830888E+05  3.185356E+05  9.739126E+04  3.627166E+05 -6.370064E+03  5.049039E+04
       248  20  8.174292E+05  2.873794E+05  8.593940E+04  3.364455E+05 -4.412652E+03  4.499565E+04
       248  21  7.407920E+05  2.672259E+05  7.441959E+04  3.226400E+05 -2.373660E+03  3.929149E+04
       248  22  2.976642E+05  1.068224E+05 -1.808694E+03  1.977273E+05 -1.612358E+04  4.680715E+04
       248  23  3.032174E+05  1.014204E+05 -9.728928E+02  1.914781E+05 -1.454755E+04  4.116596E+04
       248  24  2.977103E+05  1.069456E+05 -5.084942E+02  1.976933E+05 -1.288991E+04  3.531522E+04
       248  25 -2.873896E+05 -1.048535E+05 -1.010157E+05  3.288528E+04 -2.586722E+04  4.312765E+04
       248  26 -2.107129E+05 -8.451161E+04 -8.789172E+04  4.662304E+04 -2.467353E+04  3.733965E+04
       248  27 -1.451670E+05 -5.331647E+04 -7.544259E+04  7.282883E+04 -2.339829E+04  3.134193E+04
       249   1  6.951596E+05  2.506672E+05  6.650179E+04  3.097971E+05  1.198118E+03 -3.589238E+04
       249   2  6.296130E+05  2.195227E+05  5.488527E+04  2.835294E+05 -9.434277E+02 -3.011097E+04
       249   3  5.530775E+05  1.993829E+05  4.324338E+04  2.697192E+05 -3.092891E+03 -2.431258E+04
       249   4  2.977286E+05  1.069534E+05 -3.619167E+02  1.976970E+05  1.168977E+04 -3.192428E+04
       249   5  3.032390E+05  1.014680E+05 -1.415116E+02  1.914676E+05  9.578841E+03 -2.612982E+04
       249   6  2.977483E+05  1.069805E+05  2.837438E+01  1.976938E+05  7.460002E+03 -2.031839E+04
       249   7 -9.953387E+04 -3.674401E+04 -6.722918E+04  8.566416E+04  2.217429E+04 -2.795889E+04
       249   8 -2.301962E+04 -1.657499E+04 -5.517008E+04  9.945167E+04  2.009517E+04 -2.215092E+04
       249   9  4.249145E+04  1.458592E+04 -4.318710E+04  1.256968E+05  1.800817E+04 -1.632599E+04
       249  10  6.951592E+05  2.506658E+05  6.649937E+04  3.097972E+05  2.205698E-08  9.193308E-09
       249  11  6.296128E+05  2.195217E+05  5.488357E+04  2.835294E+05  7.533146E-09 -1.954204E-10
       249  12  5.530774E+05  1.993822E+05  4.324225E+04  2.697192E+05 -1.409091E-08 -8.160608E-09
       249  13  2.977281E+05  1.069523E+05 -3.640891E+02  1.976973E+05  9.122024E-10  3.530224E-09
       249  14  3.032387E+05  1.014673E+05 -1.429674E+02  1.914678E+05  3.843575E-09  7.636602E-09
       249  15  2.977481E+05  1.069800E+05  2.749383E+01  1.976939E+05 -3.635816E-09  2.407562E-09
       249  16 -9.953461E+04 -3.674498E+04 -6.723158E+04  8.566465E+04 -1.909805E-08 -9.368386E-09
       249  17 -2.302019E+04 -1.657562E+04 -5.517176E+04  9.945203E+04 -1.343831E-09  1.046178E-09
       249  18  4.249103E+04  1.458555E+04 -4.318821E+04  1.256971E+05  8.732008E-09  6.222386E-09
       249  19  6.951596E+05  2.506672E+05  6.650179E+04  3.097971E+05 -1.198118E+03  3.589238E+04
       249  20  6.296130E+05  2.195227E+05  5.488527E+04  2.835294E+05  9.434277E+02  3.011097E+04
       249  21  5.530775E+05  1.993829E+05  4.324338E+04  2.697192E+05  3.092891E+03  2.431258E+04
       249  22  2.977286E+05  1.069534E+05 -3.619167E+02  1.976970E+05 -1.168977E+04  3.192428E+04
       249  23  3.032390E+05  1.014680E+05 -1.415116E+02  1.914676E+05 -9.578841E+03  2.612982E+04
       249  24  2.977483E+05  1.069805E+05  2.837438E+01  1.976938E+05 -7.460002E+03  2.031839E+04
       249  25 -9.953387E+04 -3.674401E+04 -6.722918E+04  8.566416E+04 -2.217429E+04  2.795889E+04
       249  26 -2.301962E+04 -1.657499E+04 -5.517008E+04  9.945167E+04 -2.009517E+04  2.215092E+04
       249  27  4.249145E+04  1.458592E+04 -4.318710E+04  1.256968E+05 -1.800817E+04  1.632599E+04
       250   1  5.074863E+05  1.828389E+05  3.528313E+04  2.568887E+05 -4.377600E+03 -2.094390E+04
       250   2  4.419770E+05  1.517021E+05  2.368996E+04  2.306436E+05 -6.706357E+03 -1.520965E+04
       250   3  3.654950E+05  1.315683E+05  1.220062E+04  2.168547E+05 -9.032088E+03 -9.485012E+03
       250   4  2.977604E+05  1.069845E+05  1.097674E+02  1.976953E+05  6.171887E+03 -1.695038E+04
       250   5  3.032500E+05  1.014809E+05  3.141502E+02  1.914693E+05  3.825235E+03 -1.122224E+04
       250   6  2.977664E+05  1.069839E+05  6.365523E+02  1.976982E+05  1.481600E+03 -5.503748E+03
       250   7  8.807924E+04  3.113382E+04 -3.506488E+04  1.385200E+05  1.671770E+04 -1.295824E+04
       250   8  1.645429E+05  5.126143E+04 -2.306190E+04  1.523031E+05  1.435439E+04 -7.235759E+03
       250   9  2.300429E+05  8.240011E+04 -1.092717E+04  1.785436E+05  1.199407E+04 -1.522947E+03
       250  10  5.074862E+05  1.828384E+05  3.528227E+04  2.568887E+05  1.482945E-08  4.763045E-09
       250  11  4.419769E+05  1.517019E+05  2.368944E+04  2.306435E+05 -7.151444E-09  2.106430E-09
       250  12  3.654948E+05  1.315682E+05  1.220030E+04  2.168547E+05 -2.502594E-08 -1.771944E-08
       250  13  2.977603E+05  1.069842E+05  1.091558E+02  1.976954E+05 -3.957927E-09 -2.556220E-09
       250  14  3.032500E+05  1.014808E+05  3.138860E+02  1.914694E+05 -3.417677E-09 -3.767805E-10
       250  15  2.977664E+05  1.069839E+05  6.364913E+02  1.976982E+05  8.203547E-10  2.172943E-09
       250  16  8.807890E+04  3.113356E+04 -3.506572E+04  1.385202E+05 -2.366642E-08 -1.071102E-08
       250  17  1.645427E+05  5.126132E+04 -2.306239E+04  1.523032E+05  1.506429E-09  5.054667E-09
       250  18  2.300427E+05  8.240007E+04 -1.092745E+04  1.785436E+05  2.498432E-08  1.023573E-08
       250  19  5.074863E+05  1.828389E+05  3.528313E+04  2.568887E+05  4.377600E+03  2.094390E+04
       250  20  4.419770E+05  1.517021E+05  2.368996E+04  2.306436E+05  6.706357E+03  1.520965E+04
       250  21  3.654950E+05  1.315683E+05  1.220062E+04  2.168547E+05  9.032088E+03  9.485012E+03
       250  22  2.977604E+05  1.069845E+05  1.097674E+02  1.976953E+05 -6.171887E+03  1.695038E+04
       250  23  3.032500E+05  1.014809E+05  3.141502E+02  1.914693E+05 -3.825235E+03  1.122224E+04
       250  24  2.977664E+05  1.069839E+05  6.365523E+02  1.976982E+05 -1.481600E+03  5.503748E+03
       250  25  8.807924E+04  3.113382E+04 -3.506488E+04  1.385200E+05 -1.671770E+04  1.295824E+04
       250  26  1.645429E+05  5.126143E+04 -2.306190E+04  1.523031E+05 -1.435439E+04  7.235759E+03
       250  27  2.300429E+05  8.240011E+04 -1.092717E+04  1.785436E+05 -1.199407E+04  1.522947E+03
       251   1  3.199285E+05  1.150342E+05  4.383281E+03  2.040569E+05 -1.044051E+04 -6.170108E+03
       251   2  2.543890E+05  8.388045E+04 -6.764386E+03  1.778141E+05 -1.319955E+04 -6.712500E+02
       251   3  1.779718E+05  6.380695E+04 -1.744999E+04  1.640215E+05 -1.591596E+04  4.716018E+03
       251   4  2.977920E+05  1.069789E+05  8.655027E+02  1.977085E+05  8.316891E+01 -2.184949E+03
       251   5  3.032185E+05  1.014636E+05  1.596640E+03  1.914670E+05 -2.879903E+03  3.236414E+03
       251   6  2.978019E+05  1.070680E+05  2.951008E+03  1.976735E+05 -5.800434E+03  8.546192E+03
       251   7  2.756565E+05  9.892381E+04 -2.651744E+03  1.913605E+05  1.060634E+04  1.800014E+03
       251   8  3.520508E+05  1.190470E+05  9.958056E+03  2.051211E+05  7.440610E+03  7.144400E+03
       251   9  4.176487E+05  1.503310E+05  2.335241E+04  2.313319E+05  4.317274E+03  1.237719E+04
       251  10  3.199284E+05  1.150341E+05  4.383005E+03  2.040569E+05 -9.853457E-10 -4.111249E-09
       251  11  2.543888E+05  8.388040E+04 -6.764714E+03  1.778141E+05 -2.613973E-09 -8.633698E-09
       251  12  1.779716E+05  6.380686E+04 -1.745051E+04  1.640216E+05 -9.262715E-09 -2.502718E-09
       251  13  2.977920E+05  1.069789E+05  8.654937E+02  1.977085E+05  1.670434E-09 -3.725406E-09
       251  14  3.032185E+05  1.014635E+05  1.596605E+03  1.914670E+05  1.204148E-09  5.056102E-10
       251  15  2.978018E+05  1.070679E+05  2.950808E+03  1.976735E+05 -2.806325E-09 -4.126883E-09
       251  16  2.756564E+05  9.892378E+04 -2.651961E+03  1.913605E+05  3.891495E-09  4.845113E-09
       251  17  3.520507E+05  1.190469E+05  9.957856E+03  2.051210E+05  7.297739E-09  7.412229E-09
       251  18  4.176486E+05  1.503308E+05  2.335209E+04  2.313318E+05  7.365221E-09  6.595320E-10
       251  19  3.199285E+05  1.150342E+05  4.383281E+03  2.040569E+05  1.044051E+04  6.170108E+03
       251  20  2.543890E+05  8.388045E+04 -6.764386E+03  1.778141E+05  1.319955E+04  6.712500E+02
       251  21  1.779718E+05  6.380695E+04 -1.744999E+04  1.640215E+05  1.591596E+04 -4.716018E+03
       251  22  2.977920E+05  1.069789E+05  8.655027E+02  1.977085E+05 -8.316891E+01  2.184949E+03
       251  23  3.032185E+05  1.014636E+05  1.596640E+03  1.914670E+05  2.879903E+03 -3.236414E+03
       251  24  2.978019E+05  1.070680E+05  2.951008E+03  1.976735E+05  5.800434E+03 -8.546192E+03
       251  25  2.756565E+05  9.892381E+04 -2.651744E+03  1.913605E+05 -1.060634E+04 -1.800014E+03
       251  26  3.520508E+05  1.190470E+05  9.958056E+03  2.051211E+05 -7.440610E+03 -7.144400E+03
       251  27  4.176487E+05  1.503310E+05  2.335241E+04  2.313319E+05 -4.317274E+03 -1.237719E+04
       252   1  1.323239E+05  4.739566E+04 -2.461646E+04  1.514871E+05 -1.782204E+04  7.764793E+03
       252   2  6.723403E+04  1.596581E+04 -3.409741E+04  1.242309E+05 -2.120772E+04  1.223015E+04
       252   3 -7.961129E+03 -2.861779E+03 -4.202140E+04  1.089827E+05 -2.414280E+04  1.550796E+04
       252   4  2.979926E+05  1.070403E+05  3.942067E+03  1.977451E+05 -7.590036E+03  1.163872E+04
       252   5  3.030461E+05  1.020482E+05  7.244547E+03  1.911633E+05 -1.313987E+04  1.528372E+04
       252   6  2.984172E+05  1.100856E+05  1.381857E+04  1.965869E+05 -1.823936E+04  1.774136E+04
       252   7  4.636905E+05  1.666876E+05  3.250023E+04  2.440147E+05  2.644874E+03  1.551373E+04
       252   8  5.389158E+05  1.881358E+05  4.858469E+04  2.581192E+05 -5.068797E+03  1.833853E+04
       252   9  6.048911E+05  2.230415E+05  6.965441E+04  2.842307E+05 -1.233287E+04  1.997596E+04
       252  10  1.323235E+05  4.739551E+04 -2.461717E+04  1.514872E+05  4.694127E-09  1.093866E-09
       252  11  6.723351E+04  1.596553E+04 -3.409853E+04  1.242311E+05 -9.889015E-09 -3.607004E-09
       252  12 -7.961820E+03 -2.862193E+03 -4.202294E+04  1.089830E+05 -2.108349E-08 -4.196902E-09
       252  13  2.979925E+05  1.070401E+05  3.941705E+03  1.977452E+05 -3.608993E-09 -6.343835E-09
       252  14  3.030458E+05  1.020479E+05  7.243784E+03  1.911635E+05  1.332816E-09 -3.455688E-09
       252  15  2.984168E+05  1.100852E+05  1.381736E+04  1.965872E+05 -1.231889E-10 -3.542299E-10
       252  16  4.636904E+05  1.666874E+05  3.249977E+04  2.440146E+05 -4.960699E-09  5.353827E-10
       252  17  5.389157E+05  1.881354E+05  4.858401E+04  2.581193E+05  6.379452E-09  3.553469E-09
       252  18  6.048908E+05  2.230410E+05  6.965337E+04  2.842309E+05  1.414107E-08  7.213421E-09
       252  19  1.323239E+05  4.739566E+04 -2.461646E+04  1.514871E+05  1.782204E+04 -7.764793E+03
       252  20  6.723403E+04  1.596581E+04 -3.409741E+04  1.242309E+05  2.120772E+04 -1.223015E+04
       252  21 -7.961129E+03 -2.861779E+03 -4.202140E+04  1.089827E+05  2.414280E+04 -1.550796E+04
       252  22  2.979926E+05  1.070403E+05  3.942067E+03  1.977451E+05  7.590036E+03 -1.163872E+04
       252  23  3.030461E+05  1.020482E+05  7.244547E+03  1.911633E+05  1.313987E+04 -1.528372E+04
       252  24  2.984172E+05  1.100856E+05  1.381857E+04  1.965869E+05  1.823936E+04 -1.774136E+04
       252  25  4.636905E+05  1.666876E+05  3.250023E+04  2.440147E+05 -2.644874E+03 -1.551373E+04
       252  26  5.389158E+05  1.881358E+05  4.858469E+04  2.581192E+05  5.068797E+03 -1.833853E+04
       252  27  6.048911E+05  2.230415E+05  6.965441E+04  2.842307E+05  1.233287E+04 -1.997596E+04
       253   1 -5.488968E+04 -1.706717E+04 -4.673335E+04  9.999770E+04 -2.842378E+04  1.682492E+04
       253   2 -1.073125E+05 -5.305904E+04 -5.232262E+04  5.139097E+04 -2.281553E+04  1.622067E+04
       253   3 -1.592394E+05 -4.881041E+04 -5.312405E+04  6.018279E+03 -1.243574E+04  2.996948E+03
       253   4  3.006641E+05  1.100378E+05  1.843533E+04  1.973211E+05 -2.129035E+04  1.952344E+04
       253   5  3.022294E+05  1.162657E+05  3.519050E+04  1.848695E+05 -3.865505E+04  1.022477E+04
       253   6  3.088316E+05  1.672713E+05  7.494107E+04  1.756522E+05 -5.125056E+04 -1.168872E+04
       253   7  6.563560E+05  2.371556E+05  8.360110E+04  2.946975E+05 -1.415244E+04  2.222358E+04
       253   8  7.119448E+05  2.856175E+05  1.226952E+05  3.184336E+05 -5.450576E+04  4.223430E+03
       253   9  7.771148E+05  3.833984E+05  2.029903E+05  3.454105E+05 -9.009655E+04 -2.639242E+04
       253  10 -5.489063E+04 -1.706769E+04 -4.673540E+04  9.999809E+04  1.332689E-08  6.083519E-09
       253  11 -1.073132E+05 -5.305947E+04 -5.232409E+04  5.139126E+04  6.670804E-09  2.497006E-09
       253  12 -1.592395E+05 -4.881046E+04 -5.312436E+04  6.018309E+03 -3.600149E-09 -2.423473E-09
       253  13  3.006635E+05  1.100372E+05  1.843376E+04  1.973215E+05 -4.426814E-09 -1.037134E-08
       253  14  3.022278E+05  1.162651E+05  3.518750E+04  1.848698E+05  1.831804E-09  7.488180E-10
       253  15  3.088287E+05  1.672705E+05  7.493588E+04  1.756517E+05  1.513656E-09  2.706149E-09
       253  16  6.563557E+05  2.371551E+05  8.359979E+04  2.946977E+05 -1.920814E-08 -2.764009E-09
       253  17  7.119416E+05  2.856167E+05  1.226895E+05  3.184338E+05 -8.360499E-09 -2.012208E-09
       253  18  7.771059E+05  3.833955E+05  2.029738E+05  3.454086E+05  3.340056E-09  1.907459E-09
       253  19 -5.488968E+04 -1.706717E+04 -4.673335E+04  9.999770E+04  2.842378E+04 -1.682492E+04
       253  20 -1.073125E+05 -5.305904E+04 -5.232262E+04  5.139097E+04  2.281553E+04 -1.622067E+04
       253  21 -1.592394E+05 -4.881041E+04 -5.312405E+04  6.018279E+03  1.243574E+04 -2.996948E+03
       253  22  3.006641E+05  1.100378E+05  1.843533E+04  1.973211E+05  2.129035E+04 -1.952344E+04
       253  23  3.022294E+05  1.162657E+05  3.519050E+04  1.848695E+05  3.865505E+04 -1.022477E+04
       253  24  3.088316E+05  1.672713E+05  7.494107E+04  1.756522E+05  5.125056E+04  1.168872E+04
       253  25  6.563560E+05  2.371556E+05  8.360110E+04  2.946975E+05  1.415244E+04 -2.222358E+04
       253  26  7.119448E+05  2.856175E+05  1.226952E+05  3.184336E+05  5.450576E+04 -4.223430E+03
       253  27  7.771148E+05  3.833984E+05  2.029903E+05  3.454105E+05  9.009655E+04  2.639242E+04
       254   1  2.841043E+05  4.732449E+04  4.106100E+04  4.992550E+03 -1.447441E+04 -2.596024E+03
       254   2  2.681546E+05  6.619267E+04  4.956409E+04  1.319509E+03 -1.083364E+04 -7.625623E+03
       254   3  2.452299E+05  5.927530E+04  4.925248E+04  1.352607E+04 -7.213725E+03 -6.915326E+03
       254   4  1.098353E+04 -2.074274E+04 -2.644213E+04  1.030172E+04 -1.807830E+04 -2.609054E+03
       254   5  1.470062E+04  3.302977E+03 -1.153455E+04  2.322259E+03 -1.182154E+04 -7.629530E+03
       254   6  1.098521E+04  1.103265E+03 -7.261040E+03  1.022290E+04 -5.585494E+03 -6.909126E+03
       254   7 -2.620693E+05 -8.881541E+04 -9.395074E+04  1.560849E+04 -2.168060E+04 -2.622149E+03
       254   8 -2.386946E+05 -5.959140E+04 -7.263778E+04  3.324544E+03 -1.280903E+04 -7.633440E+03
       254   9 -2.232093E+05 -5.707274E+04 -6.377847E+04  6.920940E+03 -3.957874E+03 -6.902943E+03
       254  10  2.841040E+05  4.732442E+04  4.106060E+04  4.992520E+03 -6.895931E-09  3.149556E-09
       254  11  2.681545E+05  6.619258E+04  4.956376E+04  1.319443E+03 -3.146220E-09  1.453171E-08
       254  12  2.452299E+05  5.927523E+04  4.925229E+04  1.352603E+04  2.903504E-09  6.221426E-09
       254  13  1.098318E+04 -2.074283E+04 -2.644276E+04  1.030168E+04 -1.290916E-11 -5.665758E-09
       254  14  1.470045E+04  3.302877E+03 -1.153493E+04  2.322186E+03 -1.653729E-09 -7.664410E-09
       254  15  1.098516E+04  1.103206E+03 -7.261189E+03  1.022287E+04 -9.778881E-10  3.651200E-09
       254  16 -2.620699E+05 -8.881554E+04 -9.395164E+04  1.560845E+04  5.707624E-09  1.873347E-10
       254  17 -2.386948E+05 -5.959150E+04 -7.263820E+04  3.324465E+03  3.033700E-09  1.416070E-08
       254  18 -2.232094E+05 -5.707280E+04 -6.377859E+04  6.920918E+03 -5.075643E-09  7.715305E-10
       254  19  2.841043E+05  4.732449E+04  4.106100E+04  4.992550E+03  1.447441E+04  2.596024E+03
       254  20  2.681546E+05  6.619267E+04  4.956409E+04  1.319509E+03  1.083364E+04  7.625623E+03
       254  21  2.452299E+05  5.927530E+04  4.925248E+04  1.352607E+04  7.213725E+03  6.915326E+03
       254  22  1.098353E+04 -2.074274E+04 -2.644213E+04  1.030172E+04  1.807830E+04  2.609054E+03
       254  23  1.470062E+04  3.302977E+03 -1.153455E+04  2.322259E+03  1.182154E+04  7.629530E+03
       254  24  1.098521E+04  1.103265E+03 -7.261040E+03  1.022290E+04  5.585494E+03  6.909126E+03
       254  25 -2.620693E+05 -8.881541E+04 -9.395074E+04  1.560849E+04  2.168060E+04  2.622149E+03
       254  26 -2.386946E+05 -5.959140E+04 -7.263778E+04  3.324544E+03  1.280903E+04  7.633440E+03
       254  27 -2.232093E+05 -5.707274E+04 -6.377847E+04  6.920940E+03  3.957874E+03  6.902943E+03
       255   1  2.173376E+05  4.862082E+04  4.361629E+04  1.025923E+04 -4.466091E+03 -5.635362E+03
       255   2  1.984930E+05  4.646069E+04  4.180910E+04  2.710373E+03 -3.148296E+03 -5.360396E+03
       255   3  1.786592E+05  4.148897E+04  3.841801E+04  1.109711E+04 -1.832779E+03 -4.605364E+03
       255   4  1.241202E+04 -2.266892E+03 -5.939841E+03  1.026724E+04 -4.451565E+03 -5.635430E+03
       255   5  1.292672E+04  3.911545E+02 -2.989411E+03  2.294327E+03 -2.915254E+03 -5.359548E+03
       255   6  1.241323E+04  1.991309E+02 -1.775073E+03  1.025733E+04 -1.381184E+03 -4.603536E+03
       255   7 -1.924751E+05 -5.315768E+04 -5.549898E+04  1.027520E+04 -4.437044E+03 -5.635498E+03
       255   8 -1.726081E+05 -4.568089E+04 -4.779039E+04  1.878373E+03 -2.682281E+03 -5.358699E+03
       255   9 -1.538075E+05 -4.109273E+04 -4.197014E+04  9.417747E+03 -9.297082E+02 -4.601709E+03
       255  10  2.173375E+05  4.862078E+04  4.361619E+04  1.025921E+04 -3.851828E-10 -3.099535E-09
       255  11  1.984930E+05  4.646065E+04  4.180903E+04  2.710359E+03  1.747195E-09  6.427522E-09
       255  12  1.786592E+05  4.148894E+04  3.841796E+04  1.109710E+04  2.989753E-09  1.219628E-08
       255  13  1.241199E+04 -2.266931E+03 -5.939937E+03  1.026722E+04 -1.103543E-09  1.237399E-08
       255  14  1.292671E+04  3.911214E+02 -2.989481E+03  2.294314E+03 -1.600860E-09 -2.406624E-08
       255  15  1.241323E+04  1.991076E+02 -1.775116E+03  1.025732E+04  2.668534E-10  8.893818E-09
       255  16 -1.924752E+05 -5.315772E+04 -5.549908E+04  1.027518E+04  1.474975E-09 -9.083475E-09
       255  17 -1.726081E+05 -4.568093E+04 -4.779046E+04  1.878362E+03 -7.572507E-11 -8.482972E-09
       255  18 -1.538075E+05 -4.109275E+04 -4.197018E+04  9.417743E+03 -3.786273E-09  6.919994E-10
       255  19  2.173376E+05  4.862082E+04  4.361629E+04  1.025923E+04  4.466091E+03  5.635362E+03
       255  20  1.984930E+05  4.646069E+04  4.180910E+04  2.710373E+03  3.148296E+03  5.360396E+03
       255  21  1.786592E+05  4.148897E+04  3.841801E+04  1.109711E+04  1.832779E+03  4.605364E+03
       255  22  1.241202E+04 -2.266892E+03 -5.939841E+03  1.026724E+04  4.451565E+03  5.635430E+03
       255  23  1.292672E+04  3.911545E+02 -2.989411E+03  2.294327E+03  2.915254E+03  5.359548E+03
       255  24  1.241323E+04  1.991309E+02 -1.775073E+03  1.025733E+04  1.381184E+03  4.603536E+03
       255  25 -1.924751E+05 -5.315768E+04 -5.549898E+04  1.027520E+04  4.437044E+03  5.635498E+03
       255  26 -1.726081E+05 -4.568089E+04 -4.779039E+04  1.878373E+03  2.682281E+03  5.358699E+03
       255  27 -1.538075E+05 -4.109273E+04 -4.197014E+04  9.417747E+03  9.297082E+02  4.601709E+03
       256   1  1.495380E+05  3.381585E+04  3.163278E+04  1.064758E+04 -1.419884E+03 -4.095160E+03
       256   2  1.303433E+05  2.926786E+04  2.767430E+04  2.670171E+03 -1.074387E+03 -3.379900E+03
       256   3  1.109010E+05  2.452674E+04  2.340991E+04  1.062806E+04 -7.292711E+02 -2.624603E+03
       256   4  1.258853E+04 -1.771937E+02 -1.387714E+03  1.026120E+04 -1.103319E+03 -4.093863E+03
       256   5  1.271439E+04  6.152828E+01 -7.288241E+02  2.292846E+03 -7.396381E+02 -3.378484E+03
       256   6  1.258931E+04  1.040079E+02 -3.884453E+02  1.025998E+04 -3.763265E+02 -2.623063E+03
       256   7 -1.243438E+05 -3.417160E+04 -3.440955E+04  9.874883E+03 -7.868236E+02 -4.092567E+03
       256   8 -1.049019E+05 -2.914582E+04 -2.913294E+04  1.915579E+03 -4.049520E+02 -3.377068E+03
       256   9 -8.571351E+04 -2.431943E+04 -2.418749E+04  9.891947E+03 -2.343752E+01 -2.621523E+03
       256  10  1.495380E+05  3.381583E+04  3.163274E+04  1.064758E+04  1.414825E-09 -2.605339E-09
       256  11  1.303433E+05  2.926785E+04  2.767428E+04  2.670168E+03 -2.448597E-09 -5.810446E-09
       256  12  1.109010E+05  2.452673E+04  2.340989E+04  1.062805E+04 -1.140451E-09 -7.217632E-10
       256  13  1.258853E+04 -1.772120E+02 -1.387748E+03  1.026120E+04 -2.145267E-09 -2.225818E-09
       256  14  1.271439E+04  6.151587E+01 -7.288466E+02  2.292844E+03  1.087501E-09 -6.910288E-09
       256  15  1.258931E+04  1.040005E+02 -3.884585E+02  1.025998E+04  5.550214E-12  2.398878E-09
       256  16 -1.243438E+05 -3.417162E+04 -3.440958E+04  9.874881E+03 -3.539076E-09 -8.527426E-09
       256  17 -1.049019E+05 -2.914583E+04 -2.913297E+04  1.915578E+03 -4.630498E-10  6.320125E-09
       256  18 -8.571351E+04 -2.431944E+04 -2.418751E+04  9.891947E+03 -3.706681E-12  1.236227E-08
       256  19  1.495380E+05  3.381585E+04  3.163278E+04  1.064758E+04  1.419884E+03  4.095160E+03
       256  20  1.303433E+05  2.926786E+04  2.767430E+04  2.670171E+03  1.074387E+03  3.379900E+03
       256  21  1.109010E+05  2.452674E+04  2.340991E+04  1.062806E+04  7.292711E+02  2.624603E+03
       256  22  1.258853E+04 -1.771937E+02 -1.387714E+03  1.026120E+04  1.103319E+03  4.093863E+03
       256  23  1.271439E+04  6.152828E+01 -7.288241E+02  2.292846E+03  7.396381E+02  3.378484E+03
       256  24  1.258931E+04  1.040080E+02 -3.884453E+02  1.025998E+04  3.763265E+02  2.623063E+03
       256  25 -1.243438E+05 -3.417160E+04 -3.440955E+04  9.874883E+03  7.868236E+02  4.092567E+03
       256  26 -1.049019E+05 -2.914582E+04 -2.913294E+04  1.915579E+03  4.049520E+02  3.377068E+03
       256  27 -8.571351E+04 -2.431943E+04 -2.418749E+04  9.891947E+03  2.343752E+01  2.621523E+03
       257   1  8.164028E+04  1.718931E+04  1.633932E+04  1.049062E+04 -6.610716E+02 -2.179541E+03
       257   2  6.240355E+04  1.236882E+04  1.193721E+04  2.465697E+03 -6.316507E+02 -1.428638E+03
       257   3  4.301622E+04  7.662973E+03  7.507330E+03  1.037025E+04 -6.023305E+02 -6.746969E+02
       257   4  1.261290E+04  6.137420E+01 -2.706606E+02  1.025915E+04 -3.193669E+02 -2.178029E+03
       257   5  1.268867E+04  2.432398E+01 -6.788356E+01  2.294271E+03 -2.885710E+02 -1.427102E+03
       257   6  1.261323E+04  1.016976E+02  1.061839E+02  1.025895E+04 -2.578749E+02 -6.731360E+02
       257   7 -5.641012E+04 -1.706691E+04 -1.688098E+04  1.002770E+04  2.229997E+01 -2.176517E+03
       257   8 -3.702396E+04 -1.232036E+04 -1.207315E+04  2.122857E+03  5.448133E+01 -1.425567E+03
       257   9 -1.778890E+04 -7.459646E+03 -7.295029E+03  1.014765E+04  8.656393E+01 -6.715753E+02
       257  10  8.164028E+04  1.718931E+04  1.633931E+04  1.049062E+04  1.032066E-09 -7.330531E-09
       257  11  6.240355E+04  1.236882E+04  1.193720E+04  2.465697E+03 -3.200626E-09  2.570048E-09
       257  12  4.301621E+04  7.662973E+03  7.507329E+03  1.037025E+04 -5.282440E-09 -2.806668E-09
       257  13  1.261290E+04  6.136908E+01 -2.706697E+02  1.025915E+04  1.051793E-09  1.204887E-08
       257  14  1.268867E+04  2.432177E+01 -6.788754E+01  2.294271E+03 -3.250419E-13 -7.923506E-09
       257  15  1.261323E+04  1.016971E+02  1.061829E+02  1.025895E+04  1.385679E-09 -3.217653E-09
       257  16 -5.641012E+04 -1.706692E+04 -1.688098E+04  1.002770E+04 -2.146839E-09  8.281974E-09
       257  17 -3.702396E+04 -1.232036E+04 -1.207316E+04  2.122857E+03  2.682960E-09  1.548227E-08
       257  18 -1.778890E+04 -7.459646E+03 -7.295030E+03  1.014765E+04  4.364624E-09  7.123578E-09
       257  19  8.164028E+04  1.718931E+04  1.633932E+04  1.049062E+04  6.610716E+02  2.179541E+03
       257  20  6.240355E+04  1.236882E+04  1.193721E+04  2.465697E+03  6.316507E+02  1.428638E+03
       257  21  4.301622E+04  7.662973E+03  7.507330E+03  1.037025E+04  6.023305E+02  6.746969E+02
       257  22  1.261290E+04  6.137420E+01 -2.706606E+02  1.025915E+04  3.193669E+02  2.178029E+03
       257  23  1.268867E+04  2.432398E+01 -6.788356E+01  2.294271E+03  2.885710E+02  1.427102E+03
       257  24  1.261323E+04  1.016976E+02  1.061839E+02  1.025895E+04  2.578749E+02  6.731360E+02
       257  25 -5.641012E+04 -1.706691E+04 -1.688098E+04  1.002770E+04 -2.229997E+01  2.176517E+03
       257  26 -3.702396E+04 -1.232036E+04 -1.207315E+04  2.122857E+03 -5.448133E+01  1.425567E+03
       257  27 -1.778890E+04 -7.459646E+03 -7.295029E+03  1.014765E+04 -8.656393E+01  6.715753E+02
       258   1  1.375247E+04  3.549863E+02  4.117168E+02  1.027656E+04 -6.318171E+02 -2.350483E+02
       258   2 -5.511231E+03 -4.506901E+03 -3.949459E+03  2.237740E+03 -8.539478E+02  5.177441E+02
       258   3 -2.486679E+04 -9.135250E+03 -8.145737E+03  1.012744E+04 -1.076025E+03  1.267835E+03
       258   4  1.262659E+04  8.712964E+01  1.991441E+02  1.025889E+04 -2.874738E+02 -2.334837E+02
       258   5  1.267268E+04  8.384162E+00  4.417104E+02  2.294467E+03 -5.108510E+02  5.192957E+02
       258   6  1.262647E+04  1.633428E+02  8.499797E+02  1.025853E+04 -7.341814E+02  1.269375E+03
       258   7  1.150072E+04 -1.807270E+02 -1.342823E+01  1.024123E+04  5.686893E+01 -2.319192E+02
       258   8  3.085689E+04  4.523645E+03  4.832856E+03  2.351195E+03 -1.677442E+02  5.208473E+02
       258   9  5.012103E+04  9.461833E+03  9.845597E+03  1.038962E+04 -3.923173E+02  1.270915E+03
       258  10  1.375246E+04  3.549862E+02  4.117160E+02  1.027656E+04 -5.900379E-09 -4.471756E-09
       258  11 -5.511231E+03 -4.506901E+03 -3.949461E+03  2.237741E+03 -4.026062E-09 -1.245496E-08
       258  12 -2.486680E+04 -9.135252E+03 -8.145742E+03  1.012744E+04 -6.415354E-09 -7.853057E-09
       258  13  1.262659E+04  8.712956E+01  1.991439E+02  1.025889E+04  1.093904E-09  9.571565E-09
       258  14  1.267268E+04  8.383803E+00  4.417094E+02  2.294467E+03 -2.656889E-09 -2.451751E-09
       258  15  1.262647E+04  1.633409E+02  8.499757E+02  1.025853E+04 -9.474608E-11 -5.749921E-09
       258  16  1.150072E+04 -1.807271E+02 -1.342833E+01  1.024123E+04  6.497395E-09  3.616220E-09
       258  17  3.085689E+04  4.523645E+03  4.832856E+03  2.351195E+03  4.723606E-09 -1.783176E-08
       258  18  5.012103E+04  9.461831E+03  9.845594E+03  1.038962E+04  3.577642E-09 -1.085598E-08
       258  19  1.375247E+04  3.549863E+02  4.117168E+02  1.027656E+04  6.318171E+02  2.350483E+02
       258  20 -5.511231E+03 -4.506901E+03 -3.949459E+03  2.237740E+03  8.539478E+02 -5.177441E+02
       258  21 -2.486679E+04 -9.135250E+03 -8.145737E+03  1.012744E+04  1.076025E+03 -1.267835E+03
       258  22  1.262659E+04  8.712964E+01  1.991441E+02  1.025889E+04  2.874738E+02  2.334837E+02
       258  23  1.267268E+04  8.384162E+00  4.417104E+02  2.294467E+03  5.108510E+02 -5.192957E+02
       258  24  1.262647E+04  1.633428E+02  8.499797E+02  1.025853E+04  7.341814E+02 -1.269375E+03
       258  25  1.150072E+04 -1.807270E+02 -1.342823E+01  1.024123E+04 -5.686893E+01  2.319192E+02
       258  26  3.085689E+04  4.523645E+03  4.832856E+03  2.351195E+03  1.677442E+02 -5.208473E+02
       258  27  5.012103E+04  9.461833E+03  9.845597E+03  1.038962E+04  3.923173E+02 -1.270915E+03
       259   1 -5.407801E+04 -1.653062E+04 -1.506360E+04  1.013261E+04 -1.264824E+03  1.711119E+03
       259   2 -7.349424E+04 -2.147064E+04 -1.884968E+04  1.988907E+03 -2.226950E+03  2.460750E+03
       259   3 -9.270162E+04 -2.541078E+04 -2.179480E+04  9.772201E+03 -3.188757E+03  3.174818E+03
       259   4  1.269310E+04  6.082064E+01  1.119962E+03  1.025937E+04 -9.130297E+02  1.712690E+03
       259   5  1.258705E+04 -9.439789E+01  1.938340E+03  2.294402E+03 -1.891496E+03  2.462216E+03
       259   6  1.269254E+04  7.531209E+02  3.609012E+03  1.025630E+04 -2.869673E+03  3.176181E+03
       259   7  7.946828E+04  1.665193E+04  1.730321E+04  1.038613E+04 -5.611981E+02  1.714261E+03
       259   8  9.867510E+04  2.128130E+04  2.272583E+04  2.599932E+03 -1.555996E+03  2.463681E+03
       259   9  1.180969E+05  2.691622E+04  2.901203E+04  1.074047E+04 -2.550535E+03  3.177544E+03
       259  10 -5.407801E+04 -1.653062E+04 -1.506361E+04  1.013262E+04 -3.348742E-09 -2.290514E-09
       259  11 -7.349424E+04 -2.147065E+04 -1.884970E+04  1.988912E+03 -2.833186E-09 -9.538259E-09
       259  12 -9.270164E+04 -2.541080E+04 -2.179484E+04  9.772209E+03 -2.477718E-09 -5.232976E-09
       259  13  1.269310E+04  6.081727E+01  1.119955E+03  1.025937E+04 -1.061759E-09 -3.372346E-09
       259  14  1.258704E+04 -9.440536E+01  1.938322E+03  2.294406E+03  1.094596E-11  5.100970E-09
       259  15  1.269253E+04  7.531079E+02  3.608978E+03  1.025630E+04 -1.084500E-09  3.697034E-09
       259  16  7.946828E+04  1.665193E+04  1.730320E+04  1.038613E+04  2.884964E-09  8.328745E-09
       259  17  9.867510E+04  2.128130E+04  2.272581E+04  2.599936E+03  1.338070E-09 -4.976955E-09
       259  18  1.180969E+05  2.691620E+04  2.901200E+04  1.074047E+04 -5.669935E-10  1.385067E-08
       259  19 -5.407801E+04 -1.653062E+04 -1.506360E+04  1.013261E+04  1.264824E+03 -1.711119E+03
       259  20 -7.349424E+04 -2.147064E+04 -1.884968E+04  1.988907E+03  2.226950E+03 -2.460750E+03
       259  21 -9.270162E+04 -2.541078E+04 -2.179480E+04  9.772201E+03  3.188757E+03 -3.174818E+03
       259  22  1.269310E+04  6.082064E+01  1.119962E+03  1.025937E+04  9.130297E+02 -1.712690E+03
       259  23  1.258705E+04 -9.439789E+01  1.938340E+03  2.294402E+03  1.891496E+03 -2.462216E+03
       259  24  1.269254E+04  7.531209E+02  3.609012E+03  1.025630E+04  2.869673E+03 -3.176181E+03
       259  25  7.946828E+04  1.665193E+04  1.730321E+04  1.038613E+04  5.611981E+02 -1.714261E+03
       259  26  9.867510E+04  2.128130E+04  2.272583E+04  2.599932E+03  1.555996E+03 -2.463681E+03
       259  27  1.180969E+05  2.691622E+04  2.901203E+04  1.074047E+04  2.550535E+03 -3.177544E+03
       260   1 -1.215240E+05 -3.365405E+04 -2.797366E+04  1.062079E+04 -4.039079E+03  3.672089E+03
       260   2 -1.419874E+05 -3.920399E+04 -2.948551E+04  1.410976E+03 -7.806234E+03  4.406753E+03
       260   3 -1.601499E+05 -3.697230E+04 -2.662778E+04  8.107170E+03 -1.157127E+04  4.714964E+03
       260   4  1.316205E+04 -2.056245E+02  4.603435E+03  1.026205E+04 -3.600064E+03  3.673947E+03
       260   5  1.199474E+04 -9.622077E+02  7.696262E+03  2.296056E+03 -7.562534E+03  4.407707E+03
       260   6  1.316115E+04  6.095680E+03  1.529350E+04  1.023579E+04 -1.152300E+04  4.715047E+03
       260   7  1.478647E+05  3.324148E+04  3.717923E+04  9.903207E+03 -3.160955E+03  3.675803E+03
       260   8  1.659986E+05  3.727784E+04  4.487634E+04  3.181333E+03 -7.318774E+03  4.408661E+03
       260   9  1.864997E+05  4.916147E+04  5.721263E+04  1.236498E+04 -1.147471E+04  4.715131E+03
       260  10 -1.215240E+05 -3.365407E+04 -2.797371E+04  1.062080E+04  6.500108E-09 -5.539200E-10
       260  11 -1.419875E+05 -3.920402E+04 -2.948566E+04  1.411004E+03 -8.852409E-10  1.008677E-08
       260  12 -1.601501E+05 -3.697236E+04 -2.662808E+04  8.107214E+03 -1.678757E-09 -2.564179E-09
       260  13  1.316203E+04 -2.056425E+02  4.603385E+03  1.026206E+04 -2.155792E-09 -7.529676E-09
       260  14  1.199468E+04 -9.622439E+02  7.696118E+03  2.296083E+03 -3.236587E-09  1.074577E-08
       260  15  1.316100E+04  6.095621E+03  1.529321E+04  1.023583E+04 -1.884768E-09  3.176478E-09
       260  16  1.478647E+05  3.324146E+04  3.717918E+04  9.903216E+03 -9.812096E-09  2.384397E-09
       260  17  1.659985E+05  3.727780E+04  4.487620E+04  3.181359E+03 -3.891318E-10 -1.591562E-08
       260  18  1.864995E+05  4.916142E+04  5.721234E+04  1.236502E+04  2.375532E-10  1.152445E-08
       260  19 -1.215240E+05 -3.365405E+04 -2.797366E+04  1.062079E+04  4.039079E+03 -3.672089E+03
       260  20 -1.419874E+05 -3.920399E+04 -2.948551E+04  1.410976E+03  7.806234E+03 -4.406753E+03
       260  21 -1.601499E+05 -3.697230E+04 -2.662778E+04  8.107170E+03  1.157127E+04 -4.714964E+03
       260  22  1.316205E+04 -2.056245E+02  4.603435E+03  1.026205E+04  3.600064E+03 -3.673947E+03
       260  23  1.199474E+04 -9.622077E+02  7.696262E+03  2.296056E+03  7.562534E+03 -4.407707E+03
       260  24  1.316115E+04  6.095680E+03  1.529350E+04  1.023579E+04  1.152300E+04 -4.715047E+03
       260  25  1.478647E+05  3.324148E+04  3.717923E+04  9.903207E+03  3.160955E+03 -3.675803E+03
       260  26  1.659986E+05  3.727784E+04  4.487634E+04  3.181333E+03  7.318774E+03 -4.408661E+03
       260  27  1.864997E+05  4.916147E+04  5.721263E+04  1.236498E+04  1.147471E+04 -4.715131E+03
       261   1 -1.858287E+05 -5.282963E+04 -3.020156E+04  1.637548E+04 -1.594613E+04  5.875758E+03
       261   2 -2.144324E+05 -6.359517E+04 -2.383664E+04 -2.717051E+03 -2.965909E+04  6.528894E+03
       261   3 -2.244216E+05 -6.719166E+03  8.352203E+03 -6.164181E+03 -4.335180E+04  2.078771E+03
       261   4  1.686390E+04 -2.569116E+03  1.869973E+04  1.026401E+04 -1.446327E+04  5.881826E+03
       261   5  7.358023E+03 -8.488792E+03  2.965392E+04  2.334601E+03 -3.050790E+04  6.525211E+03
       261   6  1.686360E+04  5.362442E+04  6.804446E+04  1.004993E+04 -4.653274E+04  2.065648E+03
       261   7  2.195942E+05  4.768855E+04  6.759812E+04  4.150509E+03 -1.297993E+04  5.887865E+03
       261   8  2.291935E+05  4.661408E+04  8.314098E+04  7.388021E+03 -3.135700E+04  6.521515E+03
       261   9  2.582023E+05  1.139646E+05  1.277326E+05  2.627030E+04 -4.971491E+04  2.052362E+03
       261  10 -1.858290E+05 -5.282973E+04 -3.020211E+04  1.637555E+04  2.778345E-09 -5.841127E-09
       261  11 -2.144333E+05 -6.359546E+04 -2.383837E+04 -2.716895E+03  5.574089E-09  6.822638E-09
       261  12 -2.244236E+05 -6.719676E+03  8.348662E+03 -6.164108E+03  4.238766E-09  1.065319E-08
       261  13  1.686367E+04 -2.569209E+03  1.869927E+04  1.026408E+04 -1.102179E-09  4.934801E-09
       261  14  7.357012E+03 -8.489088E+03  2.965209E+04  2.334761E+03 -2.554474E-11  3.043236E-09
       261  15  1.686128E+04  5.362384E+04  6.804038E+04  1.005001E+04  1.859961E-09  5.086710E-09
       261  16  2.195940E+05  4.768847E+04  6.759774E+04  4.150571E+03 -3.957409E-09  1.041836E-08
       261  17  2.291924E+05  4.661377E+04  8.313905E+04  7.388186E+03 -4.789857E-09  9.456962E-09
       261  18  2.581996E+05  1.139640E+05  1.277279E+05  2.627039E+04 -4.500108E-09  1.374736E-09
       261  19 -1.858287E+05 -5.282963E+04 -3.020156E+04  1.637548E+04  1.594613E+04 -5.875758E+03
       261  20 -2.144324E+05 -6.359517E+04 -2.383664E+04 -2.717051E+03  2.965909E+04 -6.528894E+03
       261  21 -2.244216E+05 -6.719166E+03  8.352203E+03 -6.164181E+03  4.335180E+04 -2.078771E+03
       261  22  1.686390E+04 -2.569116E+03  1.869973E+04  1.026401E+04  1.446327E+04 -5.881826E+03
       261  23  7.358023E+03 -8.488792E+03  2.965392E+04  2.334601E+03  3.050790E+04 -6.525211E+03
       261  24  1.686360E+04  5.362442E+04  6.804446E+04  1.004993E+04  4.653274E+04 -2.065648E+03
       261  25  2.195942E+05  4.768855E+04  6.759812E+04  4.150509E+03  1.297993E+04 -5.887865E+03
       261  26  2.291935E+05  4.661408E+04  8.314098E+04  7.388021E+03  3.135700E+04 -6.521515E+03
       261  27  2.582023E+05  1.139646E+05  1.277326E+05  2.627030E+04  4.971491E+04 -2.052362E+03
       262   1 -2.910971E+05 -1.335619E+06 -3.288208E+05  9.668676E+04 -4.855759E+03 -1.280885E+05
       262   2 -9.924803E+04 -1.211737E+06 -2.013723E+05  2.652090E+04 -1.460727E+04 -7.743016E+04
       262   3 -9.255286E+04 -1.139840E+06 -1.530791E+05  3.641831E+04 -1.110705E+04 -2.672233E+04
       262   4 -1.435188E+05 -7.461799E+05 -1.827709E+05  5.346817E+04 -4.870844E+03 -1.207771E+05
       262   5  2.285713E+04 -7.206950E+05 -8.285913E+04  1.367484E+04 -1.460897E+04 -7.611454E+04
       262   6  5.200299E+03 -7.461144E+05 -5.788263E+04  5.394746E+04 -1.109502E+04 -3.141106E+04
       262   7  4.040220E+03 -1.564210E+05 -3.674579E+04  1.020868E+04 -4.886945E+03 -1.134586E+05
       262   8  1.449452E+05 -2.294319E+05  3.563688E+04  8.187243E+02 -1.461072E+04 -7.479787E+04
       262   9  1.029433E+05 -3.522466E+05  3.730292E+04  7.148786E+04 -1.108326E+04 -3.610275E+04
       262  10 -2.911015E+05 -1.335636E+06 -3.288518E+05  9.668626E+04  1.052297E-09  2.114590E-09
       262  11 -9.924988E+04 -1.211743E+06 -2.013840E+05  2.651999E+04 -1.959623E-09 -2.032323E-09
       262  12 -9.255319E+04 -1.139840E+06 -1.530806E+05  3.641807E+04  2.423602E-09 -1.887326E-10
       262  13 -1.435228E+05 -7.461956E+05 -1.827984E+05  5.346770E+04  5.091342E-10 -1.005978E-09
       262  14  2.285535E+04 -7.207013E+05 -8.287043E+04  1.367394E+04  3.719788E-10 -7.713529E-09
       262  15  5.199902E+03 -7.461155E+05 -5.788472E+04  5.394718E+04  2.846721E-09  4.072759E-09
       262  16  4.036738E+03 -1.564349E+05 -3.677003E+04  1.020823E+04  2.406428E-10  3.284763E-10
       262  17  1.449435E+05 -2.294380E+05  3.562597E+04  8.178442E+02  2.926315E-09 -1.111143E-09
       262  18  1.029428E+05 -3.522480E+05  3.730024E+04  7.148754E+04 -8.138138E-10 -1.005409E-08
       262  19 -2.910971E+05 -1.335619E+06 -3.288208E+05  9.668676E+04  4.855759E+03  1.280885E+05
       262  20 -9.924803E+04 -1.211737E+06 -2.013723E+05  2.652090E+04  1.460727E+04  7.743016E+04
       262  21 -9.255286E+04 -1.139840E+06 -1.530791E+05  3.641831E+04  1.110705E+04  2.672233E+04
       262  22 -1.435188E+05 -7.461799E+05 -1.827709E+05  5.346817E+04  4.870844E+03  1.207771E+05
       262  23  2.285713E+04 -7.206950E+05 -8.285913E+04  1.367484E+04  1.460897E+04  7.611454E+04
       262  24  5.200299E+03 -7.461144E+05 -5.788263E+04  5.394746E+04  1.109502E+04  3.141106E+04
       262  25  4.040220E+03 -1.564210E+05 -3.674579E+04  1.020868E+04  4.886945E+03  1.134586E+05
       262  26  1.449452E+05 -2.294319E+05  3.563688E+04  8.187243E+02  1.461072E+04  7.479787E+04
       262  27  1.029433E+05 -3.522466E+05  3.730292E+04  7.148786E+04  1.108326E+04  3.610275E+04
       263   1 -7.633003E+04 -9.811877E+05 -1.102343E+05  6.078760E+04 -6.869668E+03 -2.080294E+04
       263   2 -3.106045E+04 -8.761406E+05 -7.340180E+04  1.368475E+04 -4.177553E+03 -7.952113E+02
       263   3 -2.518935E+04 -7.830064E+05 -5.934749E+04  4.827383E+04 -9.966247E+02  1.921581E+04
       263   4 -1.570110E+04 -7.374272E+05 -5.128040E+04  5.414586E+04 -6.866414E+03 -2.194574E+04
       263   5  4.889550E+03 -7.314841E+05 -3.844495E+04  1.330320E+04 -4.174161E+03 -2.155176E+03
       263   6 -1.387464E+04 -7.374219E+05 -4.823130E+04  5.415227E+04 -9.927727E+02  1.763553E+04
       263   7  4.492363E+04 -4.936123E+05  7.669286E+03  4.750153E+04 -6.863136E+03 -2.308899E+04
       263   8  4.083802E+04 -5.868084E+05 -3.489598E+03  1.292156E+04 -4.170768E+03 -3.515456E+03
       263   9 -2.559957E+03 -6.918354E+05 -3.711522E+04  6.003114E+04 -9.889507E+02  1.605513E+04
       263  10 -7.633019E+04 -9.811882E+05 -1.102352E+05  6.078748E+04  1.788419E-09 -1.166064E-09
       263  11 -3.106047E+04 -8.761406E+05 -7.340183E+04  1.368475E+04 -4.249582E-09 -1.036039E-09
       263  12 -2.518945E+04 -7.830068E+05 -5.934819E+04  4.827385E+04  1.730394E-09  5.392429E-09
       263  13 -1.570128E+04 -7.374277E+05 -5.128139E+04  5.414574E+04 -1.137663E-10 -2.170350E-09
       263  14  4.889530E+03 -7.314841E+05 -3.844499E+04  1.330319E+04 -6.094130E-09 -7.820559E-09
       263  15 -1.387473E+04 -7.374222E+05 -4.823188E+04  5.415228E+04  8.008209E-10 -2.214992E-10
       263  16  4.492344E+04 -4.936129E+05  7.668195E+03  4.750141E+04 -3.130351E-09  3.045052E-09
       263  17  4.083800E+04 -5.868084E+05 -3.489654E+03  1.292155E+04 -1.424364E-09 -2.026459E-09
       263  18 -2.560028E+03 -6.918357E+05 -3.711571E+04  6.003115E+04  1.212520E-09 -1.096634E-08
       263  19 -7.633003E+04 -9.811877E+05 -1.102343E+05  6.078760E+04  6.869668E+03  2.080294E+04
       263  20 -3.106045E+04 -8.761406E+05 -7.340180E+04  1.368475E+04  4.177553E+03  7.952113E+02
       263  21 -2.518935E+04 -7.830064E+05 -5.934749E+04  4.827383E+04  9.966247E+02 -1.921581E+04
       263  22 -1.570110E+04 -7.374272E+05 -5.128040E+04  5.414586E+04  6.866414E+03  2.194574E+04
       263  23  4.889550E+03 -7.314841E+05 -3.844495E+04  1.330320E+04  4.174161E+03  2.155176E+03
       263  24 -1.387464E+04 -7.374219E+05 -4.823130E+04  5.415227E+04  9.927727E+02 -1.763553E+04
       263  25  4.492363E+04 -4.936123E+05  7.669286E+03  4.750153E+04  6.863136E+03  2.308899E+04
       263  26  4.083802E+04 -5.868084E+05 -3.489598E+03  1.292156E+04  4.170768E+03  3.515456E+03
       263  27 -2.559957E+03 -6.918354E+05 -3.711522E+04  6.003114E+04  9.889507E+02 -1.605513E+04
       264   1  3.036062E+04 -6.398342E+05 -2.806375E+04  7.044135E+04  2.491956E+03  2.986524E+04
       264   2  7.124719E+04 -5.182041E+05 -2.577807E+04  2.499811E+03  6.098800E+03  6.686618E+04
       264   3 -5.243740E+04 -4.419510E+05 -8.861019E+04  1.576029E+04  2.223183E+03  1.038545E+05
       264   4  4.297823E+03 -7.449958E+05 -5.359518E+04  5.416177E+04  2.499096E+03  2.647168E+04
       264   5  2.056354E+04 -7.220220E+05 -7.492184E+04  1.338577E+04  6.100060E+03  6.686913E+04
       264   6 -1.283650E+05 -7.450470E+05 -1.637454E+05  5.381632E+04  2.220707E+03  1.072479E+05
       264   7 -2.176477E+04 -8.501467E+05 -7.912722E+04  3.788496E+04  2.506416E+03  2.307871E+04
       264   8 -3.012271E+04 -9.258015E+05 -1.240685E+05  2.426816E+04  6.101321E+03  6.687207E+04
       264   9 -2.042941E+05 -1.048056E+06 -2.388867E+05  9.185378E+04  2.218648E+03  1.106396E+05
       264  10  3.036037E+04 -6.398351E+05 -2.806544E+04  7.044129E+04  2.199043E-09 -2.454814E-09
       264  11  7.124595E+04 -5.182089E+05 -2.578655E+04  2.499482E+03 -5.672282E-10 -9.568739E-10
       264  12 -5.244031E+04 -4.419626E+05 -8.863048E+04  1.576010E+04 -5.673326E-10  3.969991E-09
       264  13  4.297628E+03 -7.449965E+05 -5.359651E+04  5.416172E+04  3.494741E-09  5.846099E-11
       264  14  2.056230E+04 -7.220268E+05 -7.493032E+04  1.338544E+04 -4.711386E-10 -6.624962E-09
       264  15 -1.283681E+05 -7.450594E+05 -1.637671E+05  5.381613E+04 -5.452715E-10  2.410610E-09
       264  16 -2.176492E+04 -8.501472E+05 -7.912823E+04  3.788491E+04  1.761191E-10  3.073056E-09
       264  17 -3.012395E+04 -9.258064E+05 -1.240770E+05  2.426783E+04  6.544159E-10 -1.154633E-09
       264  18 -2.042974E+05 -1.048070E+06 -2.389098E+05  9.185359E+04  4.736905E-10 -9.669015E-09
       264  19  3.036062E+04 -6.398342E+05 -2.806375E+04  7.044135E+04 -2.491956E+03 -2.986524E+04
       264  20  7.124719E+04 -5.182041E+05 -2.577807E+04  2.499811E+03 -6.098800E+03 -6.686618E+04
       264  21 -5.243740E+04 -4.419510E+05 -8.861019E+04  1.576029E+04 -2.223183E+03 -1.038545E+05
       264  22  4.297823E+03 -7.449958E+05 -5.359518E+04  5.416177E+04 -2.499096E+03 -2.647168E+04
       264  23  2.056354E+04 -7.220220E+05 -7.492184E+04  1.338577E+04 -6.100060E+03 -6.686913E+04
       264  24 -1.283650E+05 -7.450470E+05 -1.637454E+05  5.381632E+04 -2.220707E+03 -1.072479E+05
       264  25 -2.176477E+04 -8.501467E+05 -7.912722E+04  3.788496E+04 -2.506416E+03 -2.307871E+04
       264  26 -3.012271E+04 -9.258015E+05 -1.240685E+05  2.426816E+04 -6.101321E+03 -6.687207E+04
       264  27 -2.042941E+05 -1.048056E+06 -2.388867E+05  9.185378E+04 -2.218648E+03 -1.106396E+05
       265   1  9.407237E+05  3.153908E+05  2.028700E+05  3.322951E+05  9.357097E+04  3.297470E+04
       265   2  9.082456E+05  1.707442E+05  1.135598E+05  3.406061E+05  6.081376E+04  1.569653E+04
       265   3  9.181854E+05  1.694193E+05  8.590653E+04  3.280629E+05  2.614804E+04  3.455462E+03
       265   4  7.362869E+05  2.098520E+05  1.415970E+05  2.476125E+05  9.065719E+04  3.186489E+04
       265   5  7.079401E+05  8.715293E+04  5.879246E+04  2.774769E+05  6.006270E+04  1.541061E+04
       265   6  7.215991E+05  1.073718E+05  3.594701E+04  2.864827E+05  2.755887E+04  3.991230E+03
       265   7  5.318939E+05  1.043284E+05  8.032033E+04  1.629594E+05  8.774448E+04  3.075582E+04
       265   8  5.076739E+05  3.566831E+03  4.021555E+03  2.143670E+05  5.931191E+04  1.512481E+04
       265   9  5.250494E+05  4.532397E+04 -1.401565E+04  2.449129E+05  2.896922E+04  4.526882E+03
       265  10  9.407141E+05  3.153873E+05  2.028516E+05  3.322926E+05 -4.864114E-10  6.449036E-09
       265  11  9.082416E+05  1.707429E+05  1.135524E+05  3.406053E+05 -3.510284E-09  1.063877E-09
       265  12  9.181847E+05  1.694191E+05  8.590522E+04  3.280628E+05 -2.274203E-09  5.586014E-09
       265  13  7.362778E+05  2.098487E+05  1.415796E+05  2.476102E+05 -2.736228E-10 -8.751280E-09
       265  14  7.079361E+05  8.715170E+04  5.878524E+04  2.774761E+05 -4.151946E-09 -5.324119E-09
       265  15  7.215982E+05  1.073716E+05  3.594555E+04  2.864826E+05 -2.461993E-09 -3.443368E-09
       265  16  5.318854E+05  1.043253E+05  8.030410E+04  1.629572E+05 -9.409792E-10 -1.903355E-09
       265  17  5.076700E+05  3.565642E+03  4.014521E+03  2.143663E+05 -8.044251E-10 -1.195685E-09
       265  18  5.250485E+05  4.532372E+04 -1.401727E+04  2.449128E+05 -3.550367E-09  9.105598E-10
       265  19  9.407237E+05  3.153908E+05  2.028700E+05  3.322951E+05 -9.357097E+04 -3.297470E+04
       265  20  9.082456E+05  1.707442E+05  1.135598E+05  3.406061E+05 -6.081376E+04 -1.569653E+04
       265  21  9.181854E+05  1.694193E+05  8.590653E+04  3.280629E+05 -2.614804E+04 -3.455462E+03
       265  22  7.362869E+05  2.098520E+05  1.415970E+05  2.476125E+05 -9.065719E+04 -3.186489E+04
       265  23  7.079401E+05  8.715293E+04  5.879246E+04  2.774769E+05 -6.006270E+04 -1.541061E+04
       265  24  7.215991E+05  1.073718E+05  3.594701E+04  2.864827E+05 -2.755887E+04 -3.991230E+03
       265  25  5.318939E+05  1.043284E+05  8.032033E+04  1.629594E+05 -8.774448E+04 -3.075582E+04
       265  26  5.076739E+05  3.566831E+03  4.021555E+03  2.143670E+05 -5.931191E+04 -1.512481E+04
       265  27  5.250494E+05  4.532397E+04 -1.401565E+04  2.449129E+05 -2.896922E+04 -4.526882E+03
       266   1  8.728446E+05  1.843735E+05  7.147771E+04  3.236396E+05  2.190288E+04  3.196025E+03
       266   2  8.582306E+05  1.566443E+05  5.125822E+04  3.146811E+05  1.434376E+04  6.638923E+02
       266   3  8.390373E+05  1.557833E+05  4.080790E+04  3.147406E+05  6.617369E+03 -1.427259E+03
       266   4  7.170999E+05  1.223749E+05  2.932857E+04  2.776458E+05  2.193083E+04  3.206419E+03
       266   5  7.185519E+05  1.029923E+05  1.389756E+04  2.754031E+05  1.456199E+04  7.466408E+02
       266   6  7.153880E+05  1.104426E+05  8.086896E+03  2.821779E+05  7.025638E+03 -1.272252E+03
       266   7  5.613786E+05  6.037840E+04 -1.282274E+04  2.316626E+05  2.195878E+04  3.216809E+03
       266   8  5.788921E+05  4.934179E+04 -2.346476E+04  2.361331E+05  1.478016E+04  8.293679E+02
       266   9  5.917537E+05  6.510276E+04 -2.463534E+04  2.496211E+05  7.433816E+03 -1.117276E+03
       266  10  8.728441E+05  1.843734E+05  7.147679E+04  3.236396E+05  4.015808E-09 -5.353509E-09
       266  11  8.582304E+05  1.566442E+05  5.125783E+04  3.146811E+05 -3.914259E-10 -7.032638E-09
       266  12  8.390373E+05  1.557832E+05  4.080782E+04  3.147406E+05 -8.226021E-09  3.714509E-09
       266  13  7.170994E+05  1.223747E+05  2.932765E+04  2.776457E+05 -1.836521E-09  3.687570E-09
       266  14  7.185516E+05  1.029922E+05  1.389716E+04  2.754030E+05  2.121524E-09  1.829321E-08
       266  15  7.153880E+05  1.104426E+05  8.086801E+03  2.821779E+05 -2.861161E-09  1.916735E-09
       266  16  5.613781E+05  6.037826E+04 -1.282367E+04  2.316625E+05 -6.187832E-09 -6.554804E-09
       266  17  5.788918E+05  4.934173E+04 -2.346517E+04  2.361331E+05  1.771545E-09 -1.282182E-08
       266  18  5.917537E+05  6.510275E+04 -2.463544E+04  2.496211E+05  3.953141E-09  5.045132E-09
       266  19  8.728446E+05  1.843735E+05  7.147771E+04  3.236396E+05 -2.190288E+04 -3.196025E+03
       266  20  8.582306E+05  1.566443E+05  5.125822E+04  3.146811E+05 -1.434376E+04 -6.638923E+02
       266  21  8.390373E+05  1.557833E+05  4.080790E+04  3.147406E+05 -6.617369E+03  1.427259E+03
       266  22  7.170999E+05  1.223749E+05  2.932857E+04  2.776458E+05 -2.193083E+04 -3.206419E+03
       266  23  7.185519E+05  1.029923E+05  1.389756E+04  2.754031E+05 -1.456199E+04 -7.466408E+02
       266  24  7.153880E+05  1.104426E+05  8.086896E+03  2.821779E+05 -7.025638E+03  1.272252E+03
       266  25  5.613786E+05  6.037840E+04 -1.282274E+04  2.316626E+05 -2.195878E+04 -3.216809E+03
       266  26  5.788921E+05  4.934179E+04 -2.346476E+04  2.361331E+05 -1.478016E+04 -8.293679E+02
       266  27  5.917537E+05  6.510276E+04 -2.463534E+04  2.496211E+05 -7.433816E+03  1.117276E+03
       267   1  8.085376E+05  1.478769E+05  3.132113E+04  3.072031E+05  5.384455E+03 -1.335538E+03
       267   2  7.965244E+05  1.340633E+05  2.371842E+04  2.964780E+05  3.445807E+03 -1.291519E+03
       267   3  7.743171E+05  1.331682E+05  1.785859E+04  2.978494E+05  1.494267E+03 -1.213918E+03
       267   4  7.148332E+05  1.120981E+05  6.345573E+03  2.810600E+05  5.668307E+03 -1.227763E+03
       267   5  7.198336E+05  1.049567E+05  3.268215E+03  2.752717E+05  3.744272E+03 -1.178159E+03
       267   6  7.146373E+05  1.107312E+05  1.922493E+03  2.815800E+05  1.807298E+03 -1.094989E+03
       267   7  6.211369E+05  7.631984E+04 -1.863082E+04  2.549205E+05  5.952113E+03 -1.120006E+03
       267   8  6.431485E+05  7.585047E+04 -1.718253E+04  2.540678E+05  4.042698E+03 -1.064814E+03
       267   9  6.549610E+05  8.829448E+04 -1.401391E+04  2.653120E+05  2.120295E+03 -9.760728E+02
       267  10  8.085376E+05  1.478769E+05  3.132108E+04  3.072031E+05  6.451344E-09  2.564070E-09
       267  11  7.965244E+05  1.340633E+05  2.371839E+04  2.964780E+05  5.881226E-09 -2.978858E-09
       267  12  7.743171E+05  1.331682E+05  1.785858E+04  2.978494E+05 -2.997142E-09 -4.412379E-09
       267  13  7.148331E+05  1.120981E+05  6.345510E+03  2.810601E+05 -2.407714E-09  4.353768E-09
       267  14  7.198336E+05  1.049567E+05  3.268186E+03  2.752717E+05  4.351228E-09 -1.644589E-08
       267  15  7.146373E+05  1.107312E+05  1.922485E+03  2.815800E+05  2.635305E-09  3.250333E-10
       267  16  6.211369E+05  7.631983E+04 -1.863089E+04  2.549205E+05 -1.300737E-08 -4.625413E-09
       267  17  6.431485E+05  7.585047E+04 -1.718256E+04  2.540678E+05 -4.992899E-09  6.358467E-09
       267  18  6.549610E+05  8.829448E+04 -1.401392E+04  2.653120E+05  8.466555E-09  3.720422E-10
       267  19  8.085376E+05  1.478769E+05  3.132113E+04  3.072031E+05 -5.384455E+03  1.335538E+03
       267  20  7.965244E+05  1.340633E+05  2.371842E+04  2.964780E+05 -3.445807E+03  1.291519E+03
       267  21  7.743171E+05  1.331682E+05  1.785859E+04  2.978494E+05 -1.494267E+03  1.213918E+03
       267  22  7.148332E+05  1.120981E+05  6.345573E+03  2.810600E+05 -5.668307E+03  1.227763E+03
       267  23  7.198336E+05  1.049567E+05  3.268215E+03  2.752717E+05 -3.744272E+03  1.178159E+03
       267  24  7.146373E+05  1.107312E+05  1.922493E+03  2.815800E+05 -1.807298E+03  1.094989E+03
       267  25  6.211369E+05  7.631984E+04 -1.863082E+04  2.549205E+05 -5.952113E+03  1.120006E+03
       267  26  6.431485E+05  7.585047E+04 -1.718253E+04  2.540678E+05 -4.042698E+03  1.064814E+03
       267  27  6.549610E+05  8.829448E+04 -1.401391E+04  2.653120E+05 -2.120295E+03  9.760728E+02
       268   1  7.460466E+05  1.228275E+05  9.859979E+03  2.901360E+05  1.061814E+03 -8.974905E+02
       268   2  7.344822E+05  1.107132E+05  4.856113E+03  2.792960E+05  2.950562E+02 -3.792409E+02
       268   3  7.121014E+05  1.098181E+05  2.878607E+02  2.807679E+05 -4.724514E+02  1.409680E+02
       268   4  7.145775E+05  1.108897E+05  1.531718E+03  2.814247E+05  1.363738E+03 -7.827678E+02
       268   5  7.199768E+05  1.052159E+05  9.894304E+02  2.752932E+05  5.978368E+02 -2.641876E+02
       268   6  7.145592E+05  1.107611E+05  8.821318E+02  2.814737E+05 -1.688310E+02  2.563478E+02
       268   7  6.831095E+05  9.895192E+04 -6.796608E+03  2.727139E+05  1.665645E+03 -6.680518E+02
       268   8  7.054716E+05  9.971853E+04 -2.877270E+03  2.712906E+05  9.006097E+02 -1.491373E+02
       268   9  7.170170E+05  1.117041E+05  1.476404E+03  2.821795E+05  1.347913E+02  3.717284E+02
       268  10  7.460466E+05  1.228275E+05  9.859976E+03  2.901360E+05  1.146240E-09  6.184867E-10
       268  11  7.344822E+05  1.107132E+05  4.856113E+03  2.792960E+05  4.145244E-09 -8.532725E-11
       268  12  7.121014E+05  1.098181E+05  2.878602E+02  2.807679E+05 -8.538936E-10 -1.254660E-08
       268  13  7.145775E+05  1.108897E+05  1.531713E+03  2.814247E+05  3.771735E-09  1.008807E-09
       268  14  7.199768E+05  1.052159E+05  9.894296E+02  2.752932E+05  3.141556E-09  8.489158E-09
       268  15  7.145592E+05  1.107611E+05  8.821316E+02  2.814737E+05 -9.224873E-10 -1.540956E-08
       268  16  6.831094E+05  9.895191E+04 -6.796614E+03  2.727139E+05  5.116245E-09  1.879844E-09
       268  17  7.054716E+05  9.971853E+04 -2.877272E+03  2.712906E+05  5.312871E-09 -9.792478E-09
       268  18  7.170170E+05  1.117041E+05  1.476404E+03  2.821795E+05  4.099371E-09  2.162551E-09
       268  19  7.460466E+05  1.228275E+05  9.859979E+03  2.901360E+05 -1.061814E+03  8.974905E+02
       268  20  7.344822E+05  1.107132E+05  4.856113E+03  2.792960E+05 -2.950562E+02  3.792409E+02
       268  21  7.121014E+05  1.098181E+05  2.878607E+02  2.807679E+05  4.724514E+02 -1.409680E+02
       268  22  7.145775E+05  1.108897E+05  1.531718E+03  2.814247E+05 -1.363738E+03  7.827678E+02
       268  23  7.199768E+05  1.052159E+05  9.894304E+02  2.752932E+05 -5.978368E+02  2.641876E+02
       268  24  7.145592E+05  1.107611E+05  8.821318E+02  2.814737E+05  1.688310E+02 -2.563478E+02
       268  25  6.831095E+05  9.895192E+04 -6.796608E+03  2.727139E+05 -1.665645E+03  6.680518E+02
       268  26  7.054716E+05  9.971853E+04 -2.877270E+03  2.712906E+05 -9.006097E+02  1.491373E+02
       268  27  7.170170E+05  1.117041E+05  1.476404E+03  2.821795E+05 -1.347913E+02 -3.717284E+02
       269   1  6.841104E+05  9.924951E+04 -7.239870E+03  2.731349E+05 -7.799746E+02  4.974537E+02
       269   2  6.724997E+05  8.720184E+04 -1.136918E+04  2.621853E+05 -1.696683E+03  9.628140E+02
       269   3  6.500892E+05  8.651717E+04 -1.492476E+04  2.635831E+05 -2.613453E+03  1.428720E+03
       269   4  7.145581E+05  1.107618E+05  9.346135E+02  2.814933E+05 -4.762165E+02  6.128810E+02
       269   5  7.199735E+05  1.051877E+05  1.285210E+03  2.752787E+05 -1.392757E+03  1.078283E+03
       269   6  7.145886E+05  1.109765E+05  2.209368E+03  2.814114E+05 -2.309379E+03  1.544225E+03
       269   7  7.450067E+05  1.222741E+05  9.109015E+03  2.898520E+05 -1.724421E+02  7.283145E+02
       269   8  7.674494E+05  1.231737E+05  1.393939E+04  2.883730E+05 -1.088807E+03  1.193762E+03
       269   9  7.790920E+05  1.354360E+05  1.934309E+04  2.992412E+05 -2.005272E+03  1.659743E+03
       269  10  6.841104E+05  9.924951E+04 -7.239872E+03  2.731349E+05 -3.998793E-09 -1.385132E-08
       269  11  6.724997E+05  8.720184E+04 -1.136919E+04  2.621853E+05 -6.892048E-09 -1.676199E-08
       269  12  6.500892E+05  8.651716E+04 -1.492477E+04  2.635831E+05 -4.685593E-09 -1.026804E-08
       269  13  7.145581E+05  1.107618E+05  9.346123E+02  2.814933E+05  3.779115E-09  1.026731E-08
       269  14  7.199735E+05  1.051877E+05  1.285204E+03  2.752787E+05  6.024643E-09 -9.592565E-09
       269  15  7.145886E+05  1.109765E+05  2.209353E+03  2.814114E+05 -5.123376E-11 -1.189592E-08
       269  16  7.450067E+05  1.222741E+05  9.109014E+03  2.898520E+05  7.580048E-09  5.683704E-09
       269  17  7.674494E+05  1.231737E+05  1.393939E+04  2.883730E+05  3.501570E-09  1.095487E-08
       269  18  7.790920E+05  1.354360E+05  1.934307E+04  2.992412E+05  5.977139E-09  1.268075E-08
       269  19  6.841104E+05  9.924951E+04 -7.239870E+03  2.731349E+05  7.799746E+02 -4.974537E+02
       269  20  6.724997E+05  8.720184E+04 -1.136918E+04  2.621853E+05  1.696683E+03 -9.628140E+02
       269  21  6.500892E+05  8.651717E+04 -1.492476E+04  2.635831E+05  2.613453E+03 -1.428720E+03
       269  22  7.145581E+05  1.107618E+05  9.346135E+02  2.814933E+05  4.762165E+02 -6.128810E+02
       269  23  7.199735E+05  1.051877E+05  1.285210E+03  2.752787E+05  1.392757E+03 -1.078283E+03
       269  24  7.145886E+05  1.109765E+05  2.209368E+03  2.814114E+05  2.309379E+03 -1.544225E+03
       269  25  7.450067E+05  1.222741E+05  9.109015E+03  2.898520E+05  1.724421E+02 -7.283145E+02
       269  26  7.674494E+05  1.231737E+05  1.393939E+04  2.883730E+05  1.088807E+03 -1.193762E+03
       269  27  7.790920E+05  1.354360E+05  1.934309E+04  2.992412E+05  2.005272E+03 -1.659743E+03
       270   1  6.216397E+05  7.576501E+04 -2.197572E+04  2.562918E+05 -3.202412E+03  1.691078E+03
       270   2  6.095737E+05  6.296392E+04 -2.446052E+04  2.447749E+05 -5.970248E+03  1.468176E+03
       270   3  5.876454E+05  6.416178E+04 -2.433940E+04  2.453079E+05 -8.723777E+03  1.208312E+03
       270   4  7.146778E+05  1.107399E+05  2.834682E+03  2.816572E+05 -2.885331E+03  1.811500E+03
       270   5  7.197565E+05  1.047805E+05  4.923508E+03  2.752363E+05 -5.669423E+03  1.582372E+03
       270   6  7.149760E+05  1.128228E+05  9.630870E+03  2.808652E+05 -8.439282E+03  1.316256E+03
       270   7  8.077244E+05  1.457154E+05  2.764439E+04  3.070261E+05 -2.568196E+03  1.931941E+03
       270   8  8.299511E+05  1.465978E+05  3.430651E+04  3.057026E+05 -5.368539E+03  1.696591E+03
       270   9  8.423222E+05  1.614850E+05  4.359973E+04  3.164290E+05 -8.154723E+03  1.424226E+03
       270  10  6.216397E+05  7.576500E+04 -2.197574E+04  2.562918E+05 -5.697013E-10 -5.344041E-09
       270  11  6.095736E+05  6.296391E+04 -2.446059E+04  2.447750E+05 -4.107392E-10 -1.586659E-08
       270  12  5.876453E+05  6.416176E+04 -2.433955E+04  2.453079E+05 -3.279832E-10 -4.403993E-09
       270  13  7.146778E+05  1.107399E+05  2.834660E+03  2.816572E+05 -6.152377E-10 -7.788075E-09
       270  14  7.197564E+05  1.047804E+05  4.923443E+03  2.752363E+05  5.155742E-09 -1.302101E-08
       270  15  7.149759E+05  1.128228E+05  9.630733E+03  2.808652E+05  2.223103E-09 -8.355577E-09
       270  16  8.077244E+05  1.457154E+05  2.764437E+04  3.070261E+05  1.968260E-09 -4.829779E-09
       270  17  8.299511E+05  1.465978E+05  3.430645E+04  3.057026E+05  4.113147E-09 -2.243617E-09
       270  18  8.423221E+05  1.614850E+05  4.359960E+04  3.164290E+05  3.760367E-09  3.209585E-09
       270  19  6.216397E+05  7.576501E+04 -2.197572E+04  2.562918E+05  3.202412E+03 -1.691078E+03
       270  20  6.095737E+05  6.296392E+04 -2.446052E+04  2.447749E+05  5.970248E+03 -1.468176E+03
       270  21  5.876454E+05  6.416178E+04 -2.433940E+04  2.453079E+05  8.723777E+03 -1.208312E+03
       270  22  7.146778E+05  1.107399E+05  2.834682E+03  2.816572E+05  2.885331E+03 -1.811500E+03
       270  23  7.197565E+05  1.047805E+05  4.923508E+03  2.752363E+05  5.669423E+03 -1.582372E+03
       270  24  7.149760E+05  1.128228E+05  9.630870E+03  2.808652E+05  8.439282E+03 -1.316256E+03
       270  25  8.077244E+05  1.457154E+05  2.764439E+04  3.070261E+05  2.568196E+03 -1.931941E+03
       270  26  8.299511E+05  1.465978E+05  3.430651E+04  3.057026E+05  5.368539E+03 -1.696591E+03
       270  27  8.423222E+05  1.614850E+05  4.359973E+04  3.164290E+05  8.154723E+03 -1.424226E+03
       271   1  5.574066E+05  5.256841E+04 -2.955444E+04  2.412164E+05 -1.083933E+04  9.854559E+02
       271   2  5.438063E+05  3.478098E+04 -2.544233E+04  2.263405E+05 -2.194462E+04 -2.368779E+03
       271   3  5.288628E+05  5.208807E+04 -6.859347E+03  2.187678E+05 -3.285691E+04 -6.230115E+03
       271   4  7.158358E+05  1.102901E+05  1.228842E+04  2.825528E+05 -1.041106E+04  1.147979E+03
       271   5  7.177887E+05  1.018062E+05  2.114040E+04  2.754534E+05 -2.173614E+04 -2.289843E+03
       271   6  7.184390E+05  1.284557E+05  4.463418E+04  2.756571E+05 -3.286858E+04 -6.234967E+03
       271   7  8.742888E+05  1.680128E+05  5.412902E+04  3.238985E+05 -9.982672E+03  1.310544E+03
       271   8  8.918003E+05  1.688337E+05  6.772046E+04  3.245788E+05 -2.152760E+04 -2.210881E+03
       271   9  9.080505E+05  2.048270E+05  9.612459E+04  3.325627E+05 -3.288025E+04 -6.239819E+03
       271  10  5.574065E+05  5.256838E+04 -2.955466E+04  2.412164E+05  1.286592E-09  2.042148E-09
       271  11  5.438058E+05  3.478085E+04 -2.544325E+04  2.263404E+05  2.269978E-10  1.801872E-09
       271  12  5.288616E+05  5.208774E+04 -6.861447E+03  2.187676E+05  3.637548E-09 -2.167131E-09
       271  13  7.158357E+05  1.102901E+05  1.228821E+04  2.825528E+05 -2.994837E-09 -5.627767E-09
       271  14  7.177882E+05  1.018061E+05  2.113950E+04  2.754533E+05 -3.360245E-10  9.890716E-09
       271  15  7.184379E+05  1.284553E+05  4.463207E+04  2.756570E+05 -2.276421E-09  1.657718E-09
       271  16  8.742887E+05  1.680128E+05  5.412883E+04  3.238985E+05  2.288322E-10  3.925367E-09
       271  17  8.917998E+05  1.688335E+05  6.771959E+04  3.245787E+05 -7.402581E-09  8.765388E-09
       271  18  9.080493E+05  2.048266E+05  9.612248E+04  3.325625E+05 -6.301480E-09  9.777933E-09
       271  19  5.574066E+05  5.256841E+04 -2.955444E+04  2.412164E+05  1.083933E+04 -9.854559E+02
       271  20  5.438063E+05  3.478098E+04 -2.544233E+04  2.263405E+05  2.194462E+04  2.368779E+03
       271  21  5.288628E+05  5.208807E+04 -6.859347E+03  2.187678E+05  3.285691E+04  6.230115E+03
       271  22  7.158358E+05  1.102901E+05  1.228842E+04  2.825528E+05  1.041106E+04 -1.147979E+03
       271  23  7.177887E+05  1.018062E+05  2.114040E+04  2.754534E+05  2.173614E+04  2.289843E+03
       271  24  7.184390E+05  1.284557E+05  4.463418E+04  2.756571E+05  3.286858E+04  6.234967E+03
       271  25  8.742888E+05  1.680128E+05  5.412902E+04  3.238985E+05  9.982672E+03 -1.310544E+03
       271  26  8.918003E+05  1.688337E+05  6.772046E+04  3.245788E+05  2.152760E+04  2.210881E+03
       271  27  9.080505E+05  2.048270E+05  9.612459E+04  3.325627E+05  3.288025E+04  6.239819E+03
       272   1  4.883591E+05  3.471360E+04 -4.758684E+03  2.429651E+05 -4.283381E+04 -8.519055E+03
       272   2  4.680187E+05 -2.248755E+04  2.507351E+04  2.022528E+05 -8.966146E+04 -2.532181E+04
       272   3  5.169730E+05  1.315763E+05  1.442143E+05  1.232383E+05 -1.342876E+05 -4.792870E+04
       272   4  7.253214E+05  1.055866E+05  5.470982E+04  2.890660E+05 -4.124945E+04 -7.916956E+03
       272   5  7.016069E+05  7.773695E+04  8.948773E+04  2.786513E+05 -9.057666E+04 -2.567096E+04
       272   6  7.476485E+05  2.615953E+05  2.155280E+05  2.299433E+05 -1.377024E+05 -4.923358E+04
       272   7  9.623384E+05  1.764590E+05  1.141743E+05  3.351806E+05 -3.966441E+04 -7.314724E+03
       272   8  9.352472E+05  1.779690E+05  1.538967E+05  3.550771E+05 -9.149223E+04 -2.602029E+04
       272   9  9.783780E+05  3.916392E+05  2.868360E+05  3.366895E+05 -1.411186E+05 -5.053955E+04
       272  10  4.883572E+05  3.471303E+04 -4.762264E+03  2.429648E+05  9.713403E-10  2.035194E-09
       272  11  4.680099E+05 -2.249039E+04  2.505721E+04  2.022509E+05 -4.349106E-10  2.745717E-09
       272  12  5.169530E+05  1.315690E+05  1.441762E+05  1.232331E+05 -1.235479E-09  2.191941E-10
       272  13  7.253195E+05  1.055861E+05  5.470650E+04  2.890658E+05  8.045884E-10  7.103918E-10
       272  14  7.015979E+05  7.773405E+04  8.947110E+04  2.786495E+05 -1.923997E-09 -7.976816E-09
       272  15  7.476275E+05  2.615876E+05  2.154878E+05  2.299379E+05  1.413027E-09  1.329514E-09
       272  16  9.623367E+05  1.764585E+05  1.141712E+05  3.351803E+05 -3.868265E-09  9.266989E-09
       272  17  9.352381E+05  1.779661E+05  1.538797E+05  3.550752E+05  1.361853E-09 -1.263547E-09
       272  18  9.783560E+05  3.916311E+05  2.867938E+05  3.366837E+05  1.047555E-09 -6.001316E-09
       272  19  4.883591E+05  3.471360E+04 -4.758684E+03  2.429651E+05  4.283381E+04  8.519055E+03
       272  20  4.680187E+05 -2.248755E+04  2.507351E+04  2.022528E+05  8.966146E+04  2.532181E+04
       272  21  5.169730E+05  1.315763E+05  1.442143E+05  1.232383E+05  1.342876E+05  4.792870E+04
       272  22  7.253214E+05  1.055866E+05  5.470982E+04  2.890660E+05  4.124945E+04  7.916956E+03
       272  23  7.016069E+05  7.773695E+04  8.948773E+04  2.786513E+05  9.057666E+04  2.567096E+04
       272  24  7.476485E+05  2.615953E+05  2.155280E+05  2.299433E+05  1.377024E+05  4.923358E+04
       272  25  9.623384E+05  1.764590E+05  1.141743E+05  3.351806E+05  3.966441E+04  7.314724E+03
       272  26  9.352472E+05  1.779690E+05  1.538967E+05  3.550771E+05  9.149223E+04  2.602029E+04
       272  27  9.783780E+05  3.916392E+05  2.868360E+05  3.366895E+05  1.411186E+05  5.053955E+04
       273   1 -1.136489E+05 -8.888039E+05 -1.283261E+05  3.476147E+04 -1.945190E+03 -4.888140E+04
       273   2 -4.161633E+04 -8.486029E+05 -8.150898E+04  1.087304E+04 -6.010433E+03 -2.905177E+04
       273   3 -4.124004E+04 -8.286366E+05 -6.548437E+04  1.152131E+04 -4.958755E+03 -9.202683E+03
       273   4 -5.525076E+04 -6.555124E+05 -7.055104E+04  1.798607E+04 -1.954669E+03 -4.590763E+04
       273   5  8.858411E+03 -6.455901E+05 -3.251854E+04  5.820066E+03 -6.012365E+03 -2.840307E+04
       273   6  1.727717E+03 -6.554923E+05 -2.365475E+04  1.819121E+04 -4.953130E+03 -1.088011E+04
       273   7  3.144312E+03 -4.221708E+05 -1.277987E+04  1.204400E+03 -1.964306E+03 -4.293274E+04
       273   8  5.933023E+04 -4.425395E+05  1.646897E+04  7.654656E+02 -6.014307E+03 -2.775415E+04
       273   9  4.469346E+04 -4.823206E+05  1.817276E+04  2.486301E+04 -4.947541E+03 -1.255800E+04
       273  10 -1.136495E+05 -8.888065E+05 -1.283306E+05  3.476139E+04 -8.980034E-10 -5.150699E-09
       273  11 -4.161660E+04 -8.486039E+05 -8.151064E+04  1.087290E+04 -5.172414E-09 -6.841329E-09
       273  12 -4.124009E+04 -8.286366E+05 -6.548458E+04  1.152127E+04  3.797149E-10 -5.626059E-09
       273  13 -5.525133E+04 -6.555146E+05 -7.055502E+04  1.798600E+04  7.150093E-11  3.955754E-11
       273  14  8.858155E+03 -6.455910E+05 -3.252012E+04  5.819929E+03 -3.676617E-09  9.715891E-09
       273  15  1.727659E+03 -6.554925E+05 -2.365502E+04  1.819117E+04  1.400056E-09 -7.553833E-09
       273  16  3.143813E+03 -4.221727E+05 -1.278334E+04  1.204332E+03  2.077070E-10  1.230890E-08
       273  17  5.932998E+04 -4.425403E+05  1.646745E+04  7.653312E+02  3.003764E-09 -4.926795E-10
       273  18  4.469339E+04 -4.823207E+05  1.817242E+04  2.486296E+04  1.818722E-09  7.086875E-09
       273  19 -1.136489E+05 -8.888039E+05 -1.283261E+05  3.476147E+04  1.945190E+03  4.888140E+04
       273  20 -4.161633E+04 -8.486029E+05 -8.150898E+04  1.087304E+04  6.010433E+03  2.905177E+04
       273  21 -4.124004E+04 -8.286366E+05 -6.548437E+04  1.152131E+04  4.958755E+03  9.202683E+03
       273  22 -5.525076E+04 -6.555124E+05 -7.055104E+04  1.798607E+04  1.954669E+03  4.590763E+04
       273  23  8.858411E+03 -6.455901E+05 -3.251854E+04  5.820066E+03  6.012365E+03  2.840307E+04
       273  24  1.727717E+03 -6.554923E+05 -2.365475E+04  1.819121E+04  4.953130E+03  1.088011E+04
       273  25  3.144312E+03 -4.221708E+05 -1.277987E+04  1.204400E+03  1.964306E+03  4.293274E+04
       273  26  5.933023E+04 -4.425395E+05  1.646897E+04  7.654656E+02  6.014307E+03  2.775415E+04
       273  27  4.469346E+04 -4.823206E+05  1.817276E+04  2.486301E+04  4.947541E+03  1.255800E+04
       274   1 -3.750375E+04 -7.792500E+05 -5.224251E+04  2.128585E+04 -3.520437E+03 -6.681714E+03
       274   2 -2.166960E+04 -7.458870E+05 -4.114702E+04  5.788438E+03 -2.791620E+03  2.662297E+03
       274   3 -2.411428E+04 -7.180934E+05 -4.066455E+04  1.548606E+04 -1.738470E+03  1.200759E+04
       274   4 -5.932161E+03 -6.523189E+05 -2.153092E+04  1.826837E+04 -3.519459E+03 -6.954836E+03
       274   5  2.268971E+03 -6.495470E+05 -1.786920E+04  5.668186E+03 -2.790227E+03  2.242824E+03
       274   6 -7.781706E+03 -6.523189E+05 -2.471754E+04  1.826293E+04 -1.736603E+03  1.144131E+04
       274   7  2.563828E+04 -5.253732E+05  9.179522E+03  1.525029E+04 -3.518477E+03 -7.228013E+03
       274   8  2.620687E+04 -5.531984E+05  5.407949E+03  5.547923E+03 -2.788835E+03  1.823287E+03
       274   9  8.550585E+03 -5.865404E+05 -8.770836E+03  2.104011E+04 -1.734741E+03  1.087497E+04
       274  10 -3.750378E+04 -7.792500E+05 -5.224262E+04  2.128583E+04  3.001545E-09 -6.256872E-09
       274  11 -2.166961E+04 -7.458870E+05 -4.114704E+04  5.788444E+03 -4.746727E-10  8.490197E-10
       274  12 -2.411433E+04 -7.180936E+05 -4.066483E+04  1.548607E+04  4.747051E-10 -1.573622E-09
       274  13 -5.932187E+03 -6.523190E+05 -2.153103E+04  1.826835E+04  1.812223E-09  6.467347E-09
       274  14  2.268961E+03 -6.495470E+05 -1.786922E+04  5.668191E+03 -3.285730E-09  1.544847E-08
       274  15 -7.781744E+03 -6.523191E+05 -2.471779E+04  1.826295E+04 -2.514209E-09 -1.768646E-08
       274  16  2.563825E+04 -5.253732E+05  9.179401E+03  1.525027E+04  2.743884E-09  1.522908E-08
       274  17  2.620686E+04 -5.531984E+05  5.407928E+03  5.547927E+03 -2.912332E-09 -4.053229E-09
       274  18  8.550550E+03 -5.865406E+05 -8.771064E+03  2.104012E+04 -3.031010E-10 -2.923846E-09
       274  19 -3.750375E+04 -7.792500E+05 -5.224251E+04  2.128585E+04  3.520437E+03  6.681714E+03
       274  20 -2.166960E+04 -7.458870E+05 -4.114702E+04  5.788438E+03  2.791620E+03 -2.662297E+03
       274  21 -2.411428E+04 -7.180934E+05 -4.066455E+04  1.548606E+04  1.738470E+03 -1.200759E+04
       274  22 -5.932161E+03 -6.523189E+05 -2.153092E+04  1.826837E+04  3.519459E+03  6.954836E+03
       274  23  2.268971E+03 -6.495470E+05 -1.786920E+04  5.668186E+03  2.790227E+03 -2.242824E+03
       274  24 -7.781706E+03 -6.523189E+05 -2.471754E+04  1.826293E+04  1.736603E+03 -1.144131E+04
       274  25  2.563828E+04 -5.253732E+05  9.179522E+03  1.525029E+04  3.518477E+03  7.228013E+03
       274  26  2.620687E+04 -5.531984E+05  5.407949E+03  5.547923E+03  2.788835E+03 -1.823287E+03
       274  27  8.550585E+03 -5.865404E+05 -8.770836E+03  2.104011E+04  1.734741E+03 -1.087497E+04
       275   1 -2.094495E+03 -6.758252E+05 -3.273241E+04  2.742879E+04 -8.024398E+02  1.683930E+04
       275   2  1.424431E+04 -6.325254E+05 -3.803334E+04 -1.900054E+02  2.802009E+02  3.827859E+04
       275   3 -6.031544E+04 -6.145459E+05 -7.998282E+04 -2.688999E+03  8.491696E+01  5.971469E+04
       275   4  2.709961E+03 -6.567302E+05 -2.816314E+04  1.833120E+04 -8.001079E+02  1.602383E+04
       275   5  1.134365E+04 -6.440298E+05 -4.080147E+04  5.653690E+03  2.813041E+02  3.804450E+04
       275   6 -7.102424E+04 -6.567537E+05 -9.049364E+04  1.809622E+04  8.581046E+01  6.006092E+04
       275   7  7.514701E+03 -6.376347E+05 -2.359385E+04  9.233321E+03 -7.977520E+02  1.520833E+04
       275   8  8.443117E+03 -6.555341E+05 -4.356960E+04  1.149728E+04  2.824029E+02  3.781042E+04
       275   9 -8.173156E+04 -6.989590E+05 -1.010044E+05  3.888003E+04  8.672724E+01  6.040713E+04
       275  10 -2.094572E+03 -6.758255E+05 -3.273294E+04  2.742880E+04  7.537166E-10 -6.461656E-09
       275  11  1.424392E+04 -6.325269E+05 -3.803609E+04 -1.900140E+02 -2.184984E-10 -1.028385E-09
       275  12 -6.031640E+04 -6.145497E+05 -7.998953E+04 -2.689003E+03 -6.345510E-10 -2.123961E-09
       275  13  2.709892E+03 -6.567305E+05 -2.816362E+04  1.833121E+04  8.853606E-10 -2.094194E-09
       275  14  1.134327E+04 -6.440314E+05 -4.080420E+04  5.653682E+03 -1.126691E-09  4.733360E-09
       275  15 -7.102521E+04 -6.567576E+05 -9.050043E+04  1.809622E+04 -6.913578E-10 -1.119573E-08
       275  16  7.514639E+03 -6.376350E+05 -2.359428E+04  9.233331E+03  2.652625E-10  7.873382E-09
       275  17  8.442732E+03 -6.555357E+05 -4.357229E+04  1.149727E+04 -5.144465E-10 -7.784698E-09
       275  18 -8.173254E+04 -6.989629E+05 -1.010112E+05  3.888002E+04 -1.969438E-09 -4.678220E-10
       275  19 -2.094495E+03 -6.758252E+05 -3.273241E+04  2.742879E+04  8.024398E+02 -1.683930E+04
       275  20  1.424431E+04 -6.325254E+05 -3.803334E+04 -1.900054E+02 -2.802009E+02 -3.827859E+04
       275  21 -6.031544E+04 -6.145459E+05 -7.998282E+04 -2.688999E+03 -8.491696E+01 -5.971469E+04
       275  22  2.709961E+03 -6.567302E+05 -2.816314E+04  1.833120E+04  8.001079E+02 -1.602383E+04
       275  23  1.134365E+04 -6.440298E+05 -4.080147E+04  5.653690E+03 -2.813041E+02 -3.804450E+04
       275  24 -7.102424E+04 -6.567537E+05 -9.049364E+04  1.809622E+04 -8.581046E+01 -6.006092E+04
       275  25  7.514701E+03 -6.376347E+05 -2.359385E+04  9.233321E+03  7.977520E+02 -1.520833E+04
       275  26  8.443117E+03 -6.555341E+05 -4.356960E+04  1.149728E+04 -2.824029E+02 -3.781042E+04
       275  27 -8.173156E+04 -6.989590E+05 -1.010044E+05  3.888003E+04 -8.672724E+01 -6.040713E+04
       276   1  1.197494E+05 -5.634202E+04 -3.995113E+04 -6.082328E+02  4.335427E+04  4.282650E+03
       276   2  1.426023E+05 -1.134292E+05 -6.993890E+04  1.105078E+03  3.067885E+04  1.261794E+04
       276   3  1.852462E+05 -9.922406E+04 -7.379137E+04 -2.393157E+04  1.801431E+04  1.143114E+04
       276   4  5.735224E+05  5.675180E+04  7.218379E+04 -1.663722E+04  4.935945E+04  4.289348E+03
       276   5  5.632672E+05 -9.060996E+03  3.144842E+04 -3.225644E+03  3.233050E+04  1.261892E+04
       276   6  5.735428E+05 -2.852548E+03  1.985618E+04 -1.656234E+04  1.531318E+04  1.142877E+04
       276   7  1.027483E+06  1.698313E+05  1.843037E+05 -3.267799E+04  5.536900E+04  4.295734E+03
       276   8  9.840940E+05  9.529441E+04  1.328231E+05 -7.559353E+03  3.398326E+04  1.261988E+04
       276   9  9.619774E+05  9.350816E+04  1.134930E+05 -9.188517E+03  1.261036E+04  1.142634E+04
       276  10  1.197473E+05 -5.634254E+04 -3.995470E+04 -6.083823E+02 -2.804892E-10  2.429506E-11
       276  11  1.426012E+05 -1.134296E+05 -6.994097E+04  1.104766E+03  6.386167E-11 -3.164762E-11
       276  12  1.852458E+05 -9.922429E+04 -7.379222E+04 -2.393174E+04  2.139297E-10  2.364772E-10
       276  13  5.735198E+05  5.675113E+04  7.217919E+04 -1.663739E+04 -1.368551E-11 -4.943654E-12
       276  14  5.632661E+05 -9.061448E+03  3.144616E+04 -3.225973E+03  1.655206E-10  6.089770E-11
       276  15  5.735426E+05 -2.852751E+03  1.985550E+04 -1.656249E+04 -4.096152E-10  1.538702E-10
       276  16  1.027480E+06  1.698304E+05  1.842979E+05 -3.267818E+04 -1.536463E-11  5.522030E-11
       276  17  9.840927E+05  9.529393E+04  1.328207E+05 -7.559699E+03 -3.097702E-10  1.435262E-10
       276  18  9.619772E+05  9.350798E+04  1.134925E+05 -9.188633E+03  6.513420E-11  1.071065E-10
       276  19  1.197494E+05 -5.634202E+04 -3.995113E+04 -6.082328E+02 -4.335427E+04 -4.282650E+03
       276  20  1.426023E+05 -1.134292E+05 -6.993890E+04  1.105078E+03 -3.067885E+04 -1.261794E+04
       276  21  1.852462E+05 -9.922406E+04 -7.379137E+04 -2.393157E+04 -1.801431E+04 -1.143114E+04
       276  22  5.735224E+05  5.675180E+04  7.218379E+04 -1.663722E+04 -4.935945E+04 -4.289348E+03
       276  23  5.632672E+05 -9.060996E+03  3.144842E+04 -3.225644E+03 -3.233050E+04 -1.261892E+04
       276  24  5.735428E+05 -2.852548E+03  1.985618E+04 -1.656234E+04 -1.531318E+04 -1.142877E+04
       276  25  1.027483E+06  1.698313E+05  1.843037E+05 -3.267799E+04 -5.536900E+04 -4.295734E+03
       276  26  9.840940E+05  9.529441E+04  1.328231E+05 -7.559353E+03 -3.398326E+04 -1.261988E+04
       276  27  9.619774E+05  9.350816E+04  1.134930E+05 -9.188517E+03 -1.261036E+04 -1.142634E+04
       277   1  2.298864E+05 -7.800034E+04 -6.588527E+04 -1.490938E+04  1.221066E+04  9.316276E+03
       277   2  2.601445E+05 -7.751915E+04 -6.616820E+04 -3.094416E+03  8.358439E+03  8.877650E+03
       277   3  2.930828E+05 -6.896867E+04 -6.189297E+04 -1.731734E+04  4.505702E+03  7.656995E+03
       277   4  5.695957E+05  6.335233E+03  1.624125E+04 -1.642912E+04  1.219452E+04  9.315900E+03
       277   5  5.682286E+05 -1.059663E+03  8.183745E+03 -3.408669E+03  7.983531E+03  8.877188E+03
       277   6  5.696014E+05 -3.252370E+02  4.931605E+03 -1.642525E+04  3.772218E+03  7.656608E+03
       277   7  9.094105E+05  9.066237E+04  9.835949E+04 -1.794970E+04  1.217837E+04  9.315525E+03
       277   8  8.763993E+05  7.539289E+04  8.252890E+04 -3.723089E+03  7.608436E+03  8.876727E+03
       277   9  8.461898E+05  6.831261E+04  7.175070E+04 -1.553277E+04  3.038409E+03  7.656218E+03
       277  10  2.298862E+05 -7.800047E+04 -6.588572E+04 -1.490948E+04 -1.335164E-10  2.032391E-10
       277  11  2.601444E+05 -7.751925E+04 -6.616847E+04 -3.094475E+03  2.452492E-10 -1.850880E-11
       277  12  2.930828E+05 -6.896874E+04 -6.189312E+04 -1.731737E+04  1.028758E-10  1.860528E-10
       277  13  5.695955E+05  6.335100E+03  1.624080E+04 -1.642921E+04 -2.734759E-10  2.152685E-10
       277  14  5.682285E+05 -1.059765E+03  8.183478E+03 -3.408726E+03  8.643173E-11 -6.110734E-11
       277  15  5.696014E+05 -3.253038E+02  4.931468E+03 -1.642528E+04  2.223571E-10  7.475280E-11
       277  16  9.094103E+05  9.066224E+04  9.835905E+04 -1.794979E+04 -1.496148E-10  3.497925E-11
       277  17  8.763992E+05  7.539279E+04  8.252864E+04 -3.723143E+03 -1.314504E-10  1.073657E-10
       277  18  8.461898E+05  6.831255E+04  7.175058E+04 -1.553279E+04  3.456758E-10  9.391130E-11
       277  19  2.298864E+05 -7.800034E+04 -6.588527E+04 -1.490938E+04 -1.221066E+04 -9.316276E+03
       277  20  2.601445E+05 -7.751915E+04 -6.616820E+04 -3.094416E+03 -8.358439E+03 -8.877650E+03
       277  21  2.930828E+05 -6.896867E+04 -6.189297E+04 -1.731734E+04 -4.505702E+03 -7.656995E+03
       277  22  5.695957E+05  6.335233E+03  1.624125E+04 -1.642912E+04 -1.219452E+04 -9.315900E+03
       277  23  5.682286E+05 -1.059663E+03  8.183745E+03 -3.408669E+03 -7.983531E+03 -8.877188E+03
       277  24  5.696014E+05 -3.252370E+02  4.931605E+03 -1.642525E+04 -3.772218E+03 -7.656608E+03
       277  25  9.094105E+05  9.066237E+04  9.835949E+04 -1.794970E+04 -1.217837E+04 -9.315525E+03
       277  26  8.763993E+05  7.539289E+04  8.252890E+04 -3.723089E+03 -7.608436E+03 -8.876727E+03
       277  27  8.461898E+05  6.831261E+04  7.175070E+04 -1.553277E+04 -3.038409E+03 -7.656218E+03
       278   1  3.398294E+05 -5.619577E+04 -5.137360E+04 -1.617791E+04  3.497302E+03  6.832863E+03
       278   2  3.704957E+05 -4.936276E+04 -4.573167E+04 -3.550806E+03  2.442169E+03  5.689231E+03
       278   3  4.015836E+05 -4.161819E+04 -3.916364E+04 -1.638274E+04  1.386463E+03  4.488880E+03
       278   4  5.690936E+05  6.862700E+02  3.885699E+03 -1.629786E+04  2.989307E+03  6.832628E+03
       278   5  5.688820E+05 -1.293579E+02  2.150495E+03 -3.568557E+03  1.907932E+03  5.689104E+03
       278   6  5.690959E+05 -2.888104E+01  1.359514E+03 -1.629779E+04  8.260358E+02  4.488872E+03
       278   7  7.984058E+05  5.756448E+04  5.914124E+04 -1.641785E+04  2.481125E+03  6.832394E+03
       278   8  7.673043E+05  4.910117E+04  5.002984E+04 -3.586313E+03  1.373525E+03  5.688978E+03
       278   9  7.366339E+05  4.155837E+04  4.188065E+04 -1.621281E+04  2.654584E+02  4.488865E+03
       278  10  3.398294E+05 -5.619582E+04 -5.137371E+04 -1.617793E+04  1.182419E-11  8.612765E-11
       278  11  3.704957E+05 -4.936279E+04 -4.573174E+04 -3.550817E+03  4.835992E-10 -3.485814E-11
       278  12  4.015836E+05 -4.161821E+04 -3.916368E+04 -1.638274E+04  2.226547E-10  8.799173E-11
       278  13  5.690936E+05  6.862175E+02  3.885594E+03 -1.629788E+04 -2.126856E-11  4.559881E-12
       278  14  5.688820E+05 -1.293936E+02  2.150427E+03 -3.568565E+03  4.140199E-10 -5.150278E-11
       278  15  5.690959E+05 -2.890287E+01  1.359475E+03 -1.629779E+04 -4.628674E-10 -5.763775E-12
       278  16  7.984058E+05  5.756442E+04  5.914114E+04 -1.641786E+04 -1.168152E-11  3.164667E-12
       278  17  7.673043E+05  4.910113E+04  5.002978E+04 -3.586320E+03 -1.495957E-10 -1.031447E-10
       278  18  7.366339E+05  4.155835E+04  4.188062E+04 -1.621281E+04 -6.812021E-10 -9.907256E-11
       278  19  3.398294E+05 -5.619577E+04 -5.137360E+04 -1.617791E+04 -3.497302E+03 -6.832863E+03
       278  20  3.704957E+05 -4.936276E+04 -4.573167E+04 -3.550806E+03 -2.442169E+03 -5.689231E+03
       278  21  4.015836E+05 -4.161819E+04 -3.916364E+04 -1.638274E+04 -1.386463E+03 -4.488880E+03
       278  22  5.690936E+05  6.862700E+02  3.885699E+03 -1.629786E+04 -2.989307E+03 -6.832628E+03
       278  23  5.688820E+05 -1.293579E+02  2.150495E+03 -3.568557E+03 -1.907932E+03 -5.689104E+03
       278  24  5.690959E+05 -2.888104E+01  1.359514E+03 -1.629779E+04 -8.260358E+02 -4.488872E+03
       278  25  7.984058E+05  5.756448E+04  5.914124E+04 -1.641785E+04 -2.481125E+03 -6.832394E+03
       278  26  7.673043E+05  4.910117E+04  5.002984E+04 -3.586313E+03 -1.373525E+03 -5.688978E+03
       278  27  7.366339E+05  4.155837E+04  4.188065E+04 -1.621281E+04 -2.654584E+02 -4.488865E+03
       279   1  4.479214E+05 -2.996053E+04 -2.801177E+04 -1.619867E+04  1.143391E+03  3.783803E+03
       279   2  4.783464E+05 -2.251012E+04 -2.102114E+04 -3.644512E+03  7.194022E+02  2.597454E+03
       279   3  5.088596E+05 -1.492303E+04 -1.372102E+04 -1.621794E+04  2.951382E+02  1.410440E+03
       279   4  5.690245E+05  7.367693E+01  1.123713E+03 -1.622420E+04  6.023123E+02  3.783854E+03
       279   5  5.689815E+05 -1.863544E+01  8.533941E+02 -3.660523E+03  1.779368E+02  2.597555E+03
       279   6  5.690254E+05  2.571810E+01  8.927267E+02 -1.622421E+04 -2.466931E+02  1.410595E+03
       279   7  6.901411E+05  3.010682E+04  3.025816E+04 -1.624973E+04  6.112813E+01  3.783904E+03
       279   8  6.596241E+05  2.247224E+04  2.272734E+04 -3.676537E+03 -3.636075E+02  2.597656E+03
       279   9  6.291945E+05  1.497420E+04  1.550621E+04 -1.623048E+04 -7.885767E+02  1.410750E+03
       279  10  4.479214E+05 -2.996055E+04 -2.801180E+04 -1.619868E+04 -3.060407E-11  1.161547E-10
       279  11  4.783464E+05 -2.251012E+04 -2.102115E+04 -3.644513E+03  4.648303E-10 -1.107141E-10
       279  12  5.088596E+05 -1.492303E+04 -1.372102E+04 -1.621794E+04  9.815560E-13  2.399839E-11
       279  13  5.690245E+05  7.366145E+01  1.123685E+03 -1.622420E+04 -4.708232E-10  7.216568E-11
       279  14  5.689815E+05 -1.864270E+01  8.533814E+02 -3.660524E+03 -6.124626E-10  2.590156E-10
       279  15  5.690254E+05  2.571594E+01  8.927228E+02 -1.622421E+04  4.682499E-11  1.022369E-10
       279  16  6.901411E+05  3.010680E+04  3.025813E+04 -1.624973E+04 -2.167698E-10 -1.625804E-12
       279  17  6.596241E+05  2.247224E+04  2.272733E+04 -3.676536E+03 -3.619301E-11  1.312046E-10
       279  18  6.291945E+05  1.497420E+04  1.550621E+04 -1.623047E+04 -3.951896E-10 -6.473562E-12
       279  19  4.479214E+05 -2.996053E+04 -2.801177E+04 -1.619867E+04 -1.143391E+03 -3.783803E+03
       279  20  4.783464E+05 -2.251012E+04 -2.102114E+04 -3.644512E+03 -7.194022E+02 -2.597454E+03
       279  21  5.088596E+05 -1.492303E+04 -1.372102E+04 -1.621794E+04 -2.951382E+02 -1.410440E+03
       279  22  5.690245E+05  7.367693E+01  1.123713E+03 -1.622420E+04 -6.023123E+02 -3.783854E+03
       279  23  5.689815E+05 -1.863544E+01  8.533941E+02 -3.660523E+03 -1.779368E+02 -2.597555E+03
       279  24  5.690254E+05  2.571810E+01  8.927267E+02 -1.622421E+04  2.466931E+02 -1.410595E+03
       279  25  6.901411E+05  3.010682E+04  3.025816E+04 -1.624973E+04 -6.112813E+01 -3.783904E+03
       279  26  6.596241E+05  2.247224E+04  2.272734E+04 -3.676537E+03  3.636075E+02 -2.597656E+03
       279  27  6.291945E+05  1.497420E+04  1.550621E+04 -1.623048E+04  7.885767E+02 -1.410750E+03
       280   1  5.549000E+05 -3.482889E+03 -2.314399E+03 -1.616799E+04  1.229791E+02  7.195190E+02
       280   2  5.851921E+05  3.989918E+03  5.387356E+03 -3.678956E+03 -6.113106E+02 -4.650267E+02
       280   3  6.156340E+05  1.174556E+04  1.363367E+04 -1.622957E+04 -1.345591E+03 -1.646175E+03
       280   4  5.690401E+05  7.242394E+00  1.004814E+03 -1.620474E+04 -4.184165E+02  7.196897E+02
       280   5  5.689656E+05 -3.648167E+01  1.471443E+03 -3.684866E+03 -1.151151E+03 -4.648675E+02
       280   6  5.690397E+05  2.024373E+02  2.481635E+03 -1.620468E+04 -1.883841E+03 -1.646024E+03
       280   7  5.831805E+05  3.497360E+03  4.324014E+03 -1.624150E+04 -9.598244E+02  7.198604E+02
       280   8  5.527393E+05 -4.062900E+03 -2.444488E+03 -3.690777E+03 -1.690978E+03 -4.647083E+02
       280   9  5.224475E+05 -1.134084E+04 -8.670553E+03 -1.617979E+04 -2.422051E+03 -1.645874E+03
       280  10  5.549000E+05 -3.482889E+03 -2.314400E+03 -1.616799E+04  3.790776E-11  1.020374E-10
       280  11  5.851921E+05  3.989917E+03  5.387355E+03 -3.678956E+03 -1.669272E-10  7.588165E-11
       280  12  6.156340E+05  1.174556E+04  1.363366E+04 -1.622957E+04  2.576357E-10 -1.296582E-11
       280  13  5.690401E+05  7.241791E+00  1.004812E+03 -1.620474E+04 -3.452911E-11  1.441221E-10
       280  14  5.689656E+05 -3.648226E+01  1.471440E+03 -3.684867E+03 -9.941242E-11  2.479497E-10
       280  15  5.690397E+05  2.024334E+02  2.481623E+03 -1.620468E+04 -5.110319E-10  1.548011E-11
       280  16  5.831805E+05  3.497359E+03  4.324011E+03 -1.624150E+04  1.754158E-10 -8.604212E-11
       280  17  5.527393E+05 -4.062901E+03 -2.444493E+03 -3.690777E+03  1.509982E-10  1.944419E-10
       280  18  5.224475E+05 -1.134085E+04 -8.670570E+03 -1.617979E+04 -5.738457E-10 -1.191534E-10
       280  19  5.549000E+05 -3.482889E+03 -2.314399E+03 -1.616799E+04 -1.229791E+02 -7.195190E+02
       280  20  5.851921E+05  3.989918E+03  5.387356E+03 -3.678956E+03  6.113106E+02  4.650267E+02
       280  21  6.156340E+05  1.174556E+04  1.363367E+04 -1.622957E+04  1.345591E+03  1.646175E+03
       280  22  5.690401E+05  7.242394E+00  1.004814E+03 -1.620474E+04  4.184165E+02 -7.196897E+02
       280  23  5.689656E+05 -3.648167E+01  1.471443E+03 -3.684866E+03  1.151151E+03  4.648675E+02
       280  24  5.690397E+05  2.024373E+02  2.481635E+03 -1.620468E+04  1.883841E+03  1.646024E+03
       280  25  5.831805E+05  3.497360E+03  4.324014E+03 -1.624150E+04  9.598244E+02 -7.198604E+02
       280  26  5.527393E+05 -4.062900E+03 -2.444488E+03 -3.690777E+03  1.690978E+03  4.647083E+02
       280  27  5.224475E+05 -1.134084E+04 -8.670553E+03 -1.617979E+04  2.422051E+03  1.645874E+03
       281   1  6.619116E+05  2.294071E+04  2.564742E+04 -1.598971E+04 -1.839204E+03 -2.344696E+03
       281   2  6.919970E+05  3.026943E+04  3.512698E+04 -3.708308E+03 -4.570622E+03 -3.534033E+03
       281   3  7.230424E+05  3.997386E+04  4.697904E+04 -1.662886E+04 -7.301801E+03 -4.674177E+03
       281   4  5.692173E+05 -7.750459E+01  3.186077E+03 -1.624093E+04 -2.393241E+03 -2.344569E+03
       281   5  5.687382E+05 -3.136841E+02  5.383492E+03 -3.639682E+03 -5.101731E+03 -3.533985E+03
       281   6  5.692149E+05  1.822354E+03  9.938069E+03 -1.624068E+04 -7.809848E+03 -4.674204E+03
       281   7  4.765309E+05 -2.309635E+04 -1.927588E+04 -1.649212E+04 -2.947195E+03 -2.344441E+03
       281   8  4.454932E+05 -3.089791E+04 -2.436108E+04 -3.571069E+03 -5.632734E+03 -3.533937E+03
       281   9  4.154090E+05 -3.633087E+04 -2.710459E+04 -1.585261E+04 -8.317770E+03 -4.674231E+03
       281  10  6.619116E+05  2.294071E+04  2.564740E+04 -1.598971E+04 -2.931668E-10 -2.117547E-10
       281  11  6.919970E+05  3.026941E+04  3.512692E+04 -3.708321E+03 -1.530018E-10 -6.571635E-11
       281  12  7.230423E+05  3.997382E+04  4.697890E+04 -1.662889E+04 -4.588379E-11  7.719280E-13
       281  13  5.692173E+05 -7.751203E+01  3.186056E+03 -1.624094E+04 -7.566587E-10 -1.745007E-10
       281  14  5.687381E+05 -3.137045E+02  5.383420E+03 -3.639696E+03 -5.289287E-10 -4.833825E-11
       281  15  5.692148E+05  1.822314E+03  9.937913E+03 -1.624071E+04 -6.768894E-10 -2.771875E-11
       281  16  4.765309E+05 -2.309636E+04 -1.927591E+04 -1.649212E+04 -2.740650E-10 -1.276728E-10
       281  17  4.454931E+05 -3.089793E+04 -2.436116E+04 -3.571085E+03  3.393513E-10 -2.257727E-11
       281  18  4.154089E+05 -3.633091E+04 -2.710476E+04 -1.585264E+04 -4.225458E-10 -9.577155E-11
       281  19  6.619116E+05  2.294071E+04  2.564742E+04 -1.598971E+04  1.839204E+03  2.344696E+03
       281  20  6.919970E+05  3.026943E+04  3.512698E+04 -3.708308E+03  4.570622E+03  3.534033E+03
       281  21  7.230424E+05  3.997386E+04  4.697904E+04 -1.662886E+04  7.301801E+03  4.674177E+03
       281  22  5.692173E+05 -7.750459E+01  3.186077E+03 -1.624093E+04  2.393241E+03  2.344569E+03
       281  23  5.687382E+05 -3.136841E+02  5.383492E+03 -3.639682E+03  5.101731E+03  3.533985E+03
       281  24  5.692149E+05  1.822354E+03  9.938069E+03 -1.624068E+04  7.809848E+03  4.674204E+03
       281  25  4.765309E+05 -2.309635E+04 -1.927588E+04 -1.649212E+04  2.947195E+03  2.344441E+03
       281  26  4.454932E+05 -3.089791E+04 -2.436108E+04 -3.571069E+03  5.632734E+03  3.533937E+03
       281  27  4.154090E+05 -3.633087E+04 -2.710459E+04 -1.585261E+04  8.317770E+03  4.674231E+03
       282   1  7.709605E+05  4.894554E+04  6.110972E+04 -1.414456E+04 -9.119190E+03 -5.469124E+03
       282   2  7.986321E+05  5.474808E+04  7.698335E+04 -4.593811E+03 -2.029068E+04 -6.672266E+03
       282   3  8.331113E+05  8.164394E+04  1.054135E+05 -2.064322E+04 -3.146254E+04 -7.224831E+03
       282   4  5.705002E+05 -8.068482E+02  1.265648E+04 -1.632834E+04 -9.814568E+03 -5.469181E+03
       282   5  5.671172E+05 -2.689838E+03  2.112984E+04 -3.530010E+03 -2.068552E+04 -6.672514E+03
       282   6  5.704913E+05  1.647275E+04  4.195464E+04 -1.633224E+04 -3.155628E+04 -7.225276E+03
       282   7  3.700766E+05 -5.056215E+04 -3.579963E+04 -1.851140E+04 -1.050972E+04 -5.469233E+03
       282   8  3.356513E+05 -6.013166E+04 -3.472749E+04 -2.466609E+03 -2.108021E+04 -6.672764E+03
       282   9  3.079342E+05 -4.870341E+04 -2.150912E+04 -1.202308E+04 -3.164998E+04 -7.225723E+03
       282  10  7.709604E+05  4.894548E+04  6.110951E+04 -1.414460E+04 -1.562497E-10  3.780242E-11
       282  11  7.986317E+05  5.474792E+04  7.698249E+04 -4.593920E+03  2.432327E-10  5.740587E-11
       282  12  8.331102E+05  8.164362E+04  1.054115E+05 -2.064340E+04 -3.051157E-10 -1.916461E-11
       282  13  5.705001E+05 -8.069062E+02  1.265625E+04 -1.632838E+04 -2.949517E-10 -7.607687E-11
       282  14  5.671168E+05 -2.690001E+03  2.112896E+04 -3.530122E+03 -6.898574E-11  6.760337E-12
       282  15  5.704902E+05  1.647243E+04  4.195268E+04 -1.633242E+04 -4.358048E-10  2.506430E-12
       282  16  3.700765E+05 -5.056221E+04 -3.579990E+04 -1.851145E+04 -2.339446E-10 -9.258462E-11
       282  17  3.356508E+05 -6.013183E+04 -3.472841E+04 -2.466722E+03  1.163009E-10 -8.209596E-11
       282  18  3.079332E+05 -4.870374E+04 -2.151110E+04 -1.202327E+04 -1.432864E-10  7.848514E-11
       282  19  7.709605E+05  4.894554E+04  6.110972E+04 -1.414456E+04  9.119190E+03  5.469124E+03
       282  20  7.986321E+05  5.474808E+04  7.698335E+04 -4.593811E+03  2.029068E+04  6.672266E+03
       282  21  8.331113E+05  8.164394E+04  1.054135E+05 -2.064322E+04  3.146254E+04  7.224831E+03
       282  22  5.705002E+05 -8.068482E+02  1.265648E+04 -1.632834E+04  9.814568E+03  5.469181E+03
       282  23  5.671172E+05 -2.689838E+03  2.112984E+04 -3.530010E+03  2.068552E+04  6.672514E+03
       282  24  5.704913E+05  1.647275E+04  4.195464E+04 -1.633224E+04  3.155628E+04  7.225276E+03
       282  25  3.700766E+05 -5.056215E+04 -3.579963E+04 -1.851140E+04  1.050972E+04  5.469233E+03
       282  26  3.356513E+05 -6.013166E+04 -3.472749E+04 -2.466609E+03  2.108021E+04  6.672764E+03
       282  27  3.079342E+05 -4.870341E+04 -2.150912E+04 -1.202308E+04  3.164998E+04  7.225723E+03
       283   1  8.908883E+05  6.969034E+04  1.260957E+05  2.129454E+03 -3.728527E+04 -9.093606E+03
       283   2  8.963498E+05  6.147181E+04  1.637099E+05 -1.530333E+04 -8.491845E+04 -1.028471E+04
       283   3  9.548694E+05  2.399836E+05  2.790290E+05 -5.895068E+04 -1.325598E+05 -3.562354E+03
       283   4  5.806488E+05 -7.284628E+03  5.129366E+04 -1.643128E+04 -3.961236E+04 -9.093678E+03
       283   5  5.543999E+05 -2.332030E+04  8.133733E+04 -3.384109E+03 -8.361344E+04 -1.028592E+04
       283   6  5.806065E+05  1.467963E+05  1.865953E+05 -1.654956E+04 -1.276199E+05 -3.567461E+03
       283   7  2.704979E+05 -8.426532E+04 -2.351500E+04 -3.498273E+04 -4.193828E+04 -9.093612E+03
       283   8  2.125570E+05 -1.081204E+05 -1.043515E+03  8.528516E+03 -8.230914E+04 -1.028709E+04
       283   9  2.064747E+05  5.360537E+04  9.415222E+04  2.582599E+04 -1.226830E+05 -3.571898E+03
       283  10  8.908868E+05  6.968988E+04  1.260929E+05  2.129181E+03  2.977529E-10  1.622001E-10
       283  11  8.963421E+05  6.146976E+04  1.636962E+05 -1.530403E+04  2.122192E-10  2.344424E-11
       283  12  9.548506E+05  2.399789E+05  2.789960E+05 -5.895106E+04  4.954135E-11 -1.176602E-10
       283  13  5.806471E+05 -7.285137E+03  5.129056E+04 -1.643157E+04 -8.079868E-10  1.025726E-11
       283  14  5.543923E+05 -2.332229E+04  8.132400E+04 -3.384801E+03 -2.644136E-10 -8.900172E-11
       283  15  5.805890E+05  1.467919E+05  1.865647E+05 -1.654992E+04 -2.968713E-10  9.310275E-12
       283  16  2.704960E+05 -8.426588E+04 -2.351846E+04 -3.498304E+04 -6.231102E-10  1.143180E-10
       283  17  2.125497E+05 -1.081223E+05 -1.056440E+03  8.527834E+03 -2.632140E-10  1.927558E-10
       283  18  2.064585E+05  5.360131E+04  9.412392E+04  2.582563E+04  1.284540E-10  1.416889E-11
       283  19  8.908883E+05  6.969034E+04  1.260957E+05  2.129454E+03  3.728527E+04  9.093606E+03
       283  20  8.963498E+05  6.147181E+04  1.637099E+05 -1.530333E+04  8.491845E+04  1.028471E+04
       283  21  9.548694E+05  2.399836E+05  2.790290E+05 -5.895068E+04  1.325598E+05  3.562354E+03
       283  22  5.806488E+05 -7.284628E+03  5.129366E+04 -1.643128E+04  3.961236E+04  9.093678E+03
       283  23  5.543999E+05 -2.332030E+04  8.133733E+04 -3.384109E+03  8.361344E+04  1.028592E+04
       283  24  5.806065E+05  1.467963E+05  1.865953E+05 -1.654956E+04  1.276199E+05  3.567461E+03
       283  25  2.704979E+05 -8.426532E+04 -2.351500E+04 -3.498273E+04  4.193828E+04  9.093612E+03
       283  26  2.125570E+05 -1.081204E+05 -1.043515E+03  8.528516E+03  8.230914E+04  1.028709E+04
       283  27  2.064747E+05  5.360537E+04  9.415222E+04  2.582599E+04  1.226830E+05  3.571898E+03
       284   1  1.172305E+05  8.187580E+05  1.322858E+05 -5.047664E+04  1.906592E+03  5.449331E+04
       284   2  3.364802E+04  7.468792E+05  7.333342E+04 -1.314040E+04  5.201095E+03  3.476955E+04
       284   3  2.457344E+04  6.960245E+05  4.580581E+04 -2.617537E+04  2.949090E+03  1.503828E+04
       284   4  5.873383E+04  5.843738E+05  7.431599E+04 -3.323916E+04  1.912429E+03  5.172663E+04
       284   5 -9.225697E+03  5.740893E+05  3.172569E+04 -8.102166E+03  5.201838E+03  3.454046E+04
       284   6 -3.105484E+03  5.843943E+05  1.880828E+04 -3.333602E+04  2.944833E+03  1.734480E+04
       284   7  2.341919E+02  3.500401E+05  1.634230E+04 -1.600818E+04  1.918113E+03  4.896100E+04
       284   8 -5.210149E+04  4.013267E+05 -9.884149E+03 -3.065324E+03  5.202578E+03  3.431143E+04
       284   9 -3.078512E+04  4.727756E+05 -8.190102E+03 -4.049538E+04  2.940523E+03  1.965091E+04
       284  10  1.172297E+05  8.187548E+05  1.322802E+05 -5.047672E+04 -1.574260E-10 -1.972478E-10
       284  11  3.364766E+04  7.468779E+05  7.333110E+04 -1.314055E+04  4.664419E-11 -8.263447E-12
       284  12  2.457337E+04  6.960243E+05  4.580537E+04 -2.617541E+04  8.865780E-10  2.468042E-10
       284  13  5.873311E+04  5.843709E+05  7.431096E+04 -3.323924E+04  7.947356E-10 -9.814079E-11
       284  14 -9.226046E+03  5.740880E+05  3.172340E+04 -8.102310E+03 -1.987668E-09  2.358212E-10
       284  15 -3.105574E+03  5.843940E+05  1.880770E+04 -3.333607E+04  6.958833E-10 -3.304976E-11
       284  16  2.335449E+02  3.500375E+05  1.633779E+04 -1.600825E+04 -3.428545E-10  2.142981E-10
       284  17 -5.210184E+04  4.013254E+05 -9.886410E+03 -3.065468E+03 -5.475948E-10  1.107632E-10
       284  18 -3.078524E+04  4.727752E+05 -8.190843E+03 -4.049543E+04  1.552021E-10 -2.487675E-10
       284  19  1.172305E+05  8.187580E+05  1.322858E+05 -5.047664E+04 -1.906592E+03 -5.449331E+04
       284  20  3.364802E+04  7.468792E+05  7.333342E+04 -1.314040E+04 -5.201095E+03 -3.476955E+04
       284  21  2.457344E+04  6.960245E+05  4.580581E+04 -2.617537E+04 -2.949090E+03 -1.503828E+04
       284  22  5.873383E+04  5.843738E+05  7.431599E+04 -3.323916E+04 -1.912429E+03 -5.172663E+04
       284  23 -9.225697E+03  5.740893E+05  3.172569E+04 -8.102166E+03 -5.201838E+03 -3.454046E+04
       284  24 -3.105484E+03  5.843943E+05  1.880828E+04 -3.333602E+04 -2.944833E+03 -1.734480E+04
       284  25  2.341919E+02  3.500401E+05  1.634230E+04 -1.600818E+04 -1.918113E+03 -4.896100E+04
       284  26 -5.210149E+04  4.013267E+05 -9.884149E+03 -3.065324E+03 -5.202578E+03 -3.431143E+04
       284  27 -3.078512E+04  4.727756E+05 -8.190102E+03 -4.049538E+04 -2.940523E+03 -1.965091E+04
       285   1  1.152827E+04  5.990019E+05  1.906937E+04 -3.467838E+04  6.633077E+02  1.356518E+04
       285   2 -1.105522E+04  5.371859E+05 -5.546941E+03 -8.676897E+03 -1.238879E+03  1.123110E+04
       285   3 -2.878803E+04  4.766729E+05 -2.747866E+04 -3.307393E+04 -3.001479E+03  8.897694E+03
       285   4  6.842995E+03  5.801095E+05  1.455246E+04 -3.330072E+04  6.617068E+02  1.446713E+04
       285   5 -5.693192E+02  5.794556E+05  4.651532E+03 -8.110382E+03 -1.240339E+03  1.206967E+04
       285   6 -3.119567E+03  5.801128E+05 -2.519940E+03 -3.331827E+04 -3.002807E+03  9.672659E+03
       285   7  2.157705E+03  5.612175E+05  1.003554E+04 -3.192310E+04  6.601098E+02  1.536906E+04
       285   8  9.916457E+03  6.217269E+05  1.484988E+04 -7.543827E+03 -1.241798E+03  1.290830E+04
       285   9  2.254812E+04  6.835626E+05  2.243801E+04 -3.356265E+04 -3.004135E+03  1.044775E+04
       285  10  1.152822E+04  5.990017E+05  1.906902E+04 -3.467839E+04 -1.003934E-10 -5.057238E-10
       285  11 -1.105526E+04  5.371857E+05 -5.547181E+03 -8.676886E+03  1.432487E-10 -1.966007E-10
       285  12 -2.878806E+04  4.766728E+05 -2.747882E+04 -3.307391E+04 -8.264437E-10  2.397379E-10
       285  13  6.842938E+03  5.801093E+05  1.455207E+04 -3.330073E+04  2.862988E-10  5.033737E-13
       285  14 -5.693599E+02  5.794554E+05  4.651256E+03 -8.110370E+03  9.945378E-10 -1.396150E-10
       285  15 -3.119602E+03  5.801127E+05 -2.520132E+03 -3.331825E+04  1.157411E-09 -1.525888E-10
       285  16  2.157641E+03  5.612173E+05  1.003510E+04 -3.192311E+04  1.675653E-10  5.348566E-10
       285  17  9.916411E+03  6.217267E+05  1.484956E+04 -7.543814E+03 -1.354494E-09  2.262327E-10
       285  18  2.254808E+04  6.835624E+05  2.243779E+04 -3.356263E+04 -2.609444E-10 -1.708273E-10
       285  19  1.152827E+04  5.990019E+05  1.906937E+04 -3.467838E+04 -6.633077E+02 -1.356518E+04
       285  20 -1.105522E+04  5.371859E+05 -5.546941E+03 -8.676897E+03  1.238879E+03 -1.123110E+04
       285  21 -2.878803E+04  4.766729E+05 -2.747866E+04 -3.307393E+04  3.001479E+03 -8.897694E+03
       285  22  6.842995E+03  5.801095E+05  1.455246E+04 -3.330072E+04 -6.617068E+02 -1.446713E+04
       285  23 -5.693192E+02  5.794556E+05  4.651532E+03 -8.110382E+03  1.240339E+03 -1.206967E+04
       285  24 -3.119567E+03  5.801128E+05 -2.519940E+03 -3.331827E+04  3.002807E+03 -9.672659E+03
       285  25  2.157705E+03  5.612175E+05  1.003554E+04 -3.192310E+04 -6.601098E+02 -1.536906E+04
       285  26  9.916457E+03  6.217269E+05  1.484988E+04 -7.543827E+03  1.241798E+03 -1.290830E+04
       285  27  2.254812E+04  6.835626E+05  2.243801E+04 -3.356265E+04  3.004135E+03 -1.044775E+04
       286   1 -4.662305E+04  3.815128E+05 -5.274241E+04 -2.999564E+04 -5.515904E+03  7.624309E+03
       286   2 -5.994086E+04  3.245854E+05 -7.474812E+04 -9.897416E+03 -7.815754E+03  1.784385E+04
       286   3 -1.054854E+05  2.581792E+05 -1.114836E+05 -4.043847E+04 -2.850557E+03  2.807287E+04
       286   4  2.118052E+03  5.778326E+05 -5.318976E+03 -3.335113E+04 -5.520408E+03  1.032551E+04
       286   5  3.982760E+03  5.822866E+05 -1.266792E+04 -8.051187E+03 -7.814563E+03  1.723362E+04
       286   6 -2.579727E+04  5.778366E+05 -3.244386E+04 -3.338985E+04 -2.844824E+03  2.415233E+04
       286   7  5.085638E+04  7.741877E+05  4.210173E+04 -3.670766E+04 -5.524941E+03  1.302756E+04
       286   8  6.790156E+04  8.400485E+05  4.940755E+04 -6.204165E+03 -7.813376E+03  1.662315E+04
       286   9  5.388348E+04  8.975870E+05  4.658841E+04 -2.633756E+04 -2.839182E+03  2.022977E+04
       286  10 -4.662310E+04  3.815127E+05 -5.274258E+04 -2.999561E+04  1.072107E-10 -2.870992E-10
       286  11 -5.994101E+04  3.245850E+05 -7.474883E+04 -9.897304E+03  4.028137E-10 -1.517365E-10
       286  12 -1.054857E+05  2.581783E+05 -1.114851E+05 -4.043840E+04 -2.311085E-10  1.613786E-10
       286  13  2.117991E+03  5.778325E+05 -5.319234E+03 -3.335108E+04 -1.002909E-09  1.551261E-10
       286  14  3.982615E+03  5.822863E+05 -1.266859E+04 -8.051078E+03  4.189803E-10 -8.440991E-11
       286  15 -2.579743E+04  5.778360E+05 -3.244497E+04 -3.338979E+04 -4.131249E-10  5.180554E-11
       286  16  5.085631E+04  7.741875E+05  4.210135E+04 -3.670760E+04  5.768303E-10  2.086062E-10
       286  17  6.790142E+04  8.400482E+05  4.940692E+04 -6.204060E+03 -1.366583E-10  1.609613E-11
       286  18  5.388336E+04  8.975865E+05  4.658762E+04 -2.633752E+04 -6.714736E-10 -7.627409E-11
       286  19 -4.662305E+04  3.815128E+05 -5.274241E+04 -2.999564E+04  5.515904E+03 -7.624309E+03
       286  20 -5.994086E+04  3.245854E+05 -7.474812E+04 -9.897416E+03  7.815754E+03 -1.784385E+04
       286  21 -1.054854E+05  2.581792E+05 -1.114836E+05 -4.043847E+04  2.850557E+03 -2.807287E+04
       286  22  2.118052E+03  5.778326E+05 -5.318976E+03 -3.335113E+04  5.520408E+03 -1.032551E+04
       286  23  3.982760E+03  5.822866E+05 -1.266792E+04 -8.051187E+03  7.814563E+03 -1.723362E+04
       286  24 -2.579727E+04  5.778366E+05 -3.244386E+04 -3.338985E+04  2.844824E+03 -2.415233E+04
       286  25  5.085638E+04  7.741877E+05  4.210173E+04 -3.670766E+04  5.524941E+03 -1.302756E+04
       286  26  6.790156E+04  8.400485E+05  4.940755E+04 -6.204165E+03  7.813376E+03 -1.662315E+04
       286  27  5.388348E+04  8.975870E+05  4.658841E+04 -2.633756E+04  2.839182E+03 -2.022977E+04
       287   1 -8.034768E+05 -3.297902E+05 -2.468014E+05 -2.678297E+05 -1.122804E+05 -3.908124E+04
       287   2 -7.696821E+05 -1.616406E+05 -1.417346E+05 -2.822063E+05 -7.316154E+04 -1.796433E+04
       287   3 -7.911907E+05 -1.605079E+05 -1.105597E+05 -2.664129E+05 -3.168542E+04 -3.103363E+03
       287   4 -5.442806E+05 -1.985268E+05 -1.695036E+05 -1.630008E+05 -1.085919E+05 -3.769986E+04
       287   5 -5.081734E+05 -5.382579E+04 -7.037076E+04 -2.012200E+05 -7.212718E+04 -1.757668E+04
       287   6 -5.268179E+05 -7.557753E+04 -4.300140E+04 -2.092773E+05 -3.330557E+04 -3.712096E+03
       287   7 -2.850177E+05 -6.724238E+04 -9.221259E+04 -5.812747E+04 -1.049018E+05 -3.631734E+04
       287   8 -2.465987E+05  5.399677E+04  9.867869E+02 -1.202016E+05 -7.109234E+04 -1.718880E+04
       287   9 -2.623772E+05  9.352977E+03  2.455152E+04 -1.521217E+05 -3.492649E+04 -4.321020E+03
       287  10 -8.034908E+05 -3.297953E+05 -2.468280E+05 -2.678332E+05  3.344661E-10 -5.925717E-11
       287  11 -7.696879E+05 -1.616423E+05 -1.417453E+05 -2.822074E+05  2.843890E-10 -2.149707E-10
       287  12 -7.911918E+05 -1.605082E+05 -1.105616E+05 -2.664129E+05  7.742684E-10  1.148946E-10
       287  13 -5.442936E+05 -1.985315E+05 -1.695284E+05 -1.630041E+05  7.950926E-10  1.036925E-11
       287  14 -5.081791E+05 -5.382752E+04 -7.038112E+04 -2.012210E+05 -3.677849E-10 -7.196458E-11
       287  15 -5.268191E+05 -7.557784E+04 -4.300351E+04 -2.092774E+05 -2.640056E-10  2.743123E-11
       287  16 -2.850299E+05 -6.724675E+04 -9.223576E+04 -5.813054E+04 -7.649095E-10  1.161828E-11
       287  17 -2.466042E+05  5.399509E+04  9.767289E+02 -1.202026E+05 -7.392389E-10  2.597824E-11
       287  18 -2.623785E+05  9.352629E+03  2.454919E+04 -1.521218E+05 -6.451333E-10 -1.278653E-10
       287  19 -8.034768E+05 -3.297902E+05 -2.468014E+05 -2.678297E+05  1.122804E+05  3.908124E+04
       287  20 -7.696821E+05 -1.616406E+05 -1.417346E+05 -2.822063E+05  7.316154E+04  1.796433E+04
       287  21 -7.911907E+05 -1.605079E+05 -1.105597E+05 -2.664129E+05  3.168542E+04  3.103363E+03
       287  22 -5.442806E+05 -1.985268E+05 -1.695036E+05 -1.630008E+05  1.085919E+05  3.769986E+04
       287  23 -5.081734E+05 -5.382579E+04 -7.037076E+04 -2.012200E+05  7.212718E+04  1.757668E+04
       287  24 -5.268179E+05 -7.557753E+04 -4.300140E+04 -2.092773E+05  3.330557E+04  3.712096E+03
       287  25 -2.850177E+05 -6.724238E+04 -9.221259E+04 -5.812747E+04  1.049018E+05  3.631734E+04
       287  26 -2.465987E+05  5.399677E+04  9.867869E+02 -1.202016E+05  7.109234E+04  1.718880E+04
       287  27 -2.623772E+05  9.352977E+03  2.455152E+04 -1.521217E+05  3.492649E+04  4.321020E+03
       288   1 -7.472429E+05 -1.826307E+05 -9.613938E+04 -2.644578E+05 -2.671305E+04 -2.693103E+03
       288   2 -7.336014E+05 -1.533818E+05 -7.340663E+04 -2.572858E+05 -1.775241E+04  5.795464E+02
       288   3 -7.180564E+05 -1.526154E+05 -6.236225E+04 -2.568690E+05 -8.575260E+03  3.276158E+03
       288   4 -5.211552E+05 -9.386616E+04 -3.508752E+04 -1.990579E+05 -2.663257E+04 -2.663219E+03
       288   5 -5.211150E+05 -7.247318E+04 -1.662367E+04 -1.983768E+05 -1.791456E+04  5.184079E+02
       288   6 -5.191206E+05 -7.951060E+04 -9.652503E+03 -2.044516E+05 -8.980251E+03  3.123923E+03
       288   7 -2.950187E+05 -5.097591E+03  2.595963E+04 -1.336362E+05 -2.655206E+04 -2.633322E+03
       288   8 -3.085851E+05  8.438385E+03  4.015532E+04 -1.394496E+05 -1.807676E+04  4.572462E+02
       288   9 -3.201462E+05 -6.403710E+03  4.305396E+04 -1.520192E+05 -9.385386E+03  2.971637E+03
       288  10 -7.472437E+05 -1.826309E+05 -9.614074E+04 -2.644578E+05  3.889760E-10  2.037029E-10
       288  11 -7.336018E+05 -1.533819E+05 -7.340722E+04 -2.572858E+05 -1.565022E-10  7.910021E-11
       288  12 -7.180565E+05 -1.526155E+05 -6.236240E+04 -2.568690E+05  1.746207E-10 -2.236902E-10
       288  13 -5.211560E+05 -9.386636E+04 -3.508886E+04 -1.990579E+05  3.611465E-13  1.092539E-11
       288  14 -5.211154E+05 -7.247327E+04 -1.662428E+04 -1.983768E+05  4.267244E-10 -1.284298E-10
       288  15 -5.191207E+05 -7.951063E+04 -9.652673E+03 -2.044516E+05 -8.782123E-10 -4.824574E-11
       288  16 -2.950195E+05 -5.097788E+03  2.595829E+04 -1.336363E+05 -5.348023E-10 -1.561095E-10
       288  17 -3.085854E+05  8.438297E+03  4.015470E+04 -1.394496E+05 -2.445128E-12 -7.967001E-11
       288  18 -3.201463E+05 -6.403743E+03  4.305378E+04 -1.520192E+05  2.115105E-10 -1.030618E-10
       288  19 -7.472429E+05 -1.826307E+05 -9.613938E+04 -2.644578E+05  2.671305E+04  2.693103E+03
       288  20 -7.336014E+05 -1.533818E+05 -7.340663E+04 -2.572858E+05  1.775241E+04 -5.795464E+02
       288  21 -7.180564E+05 -1.526154E+05 -6.236225E+04 -2.568690E+05  8.575260E+03 -3.276158E+03
       288  22 -5.211552E+05 -9.386616E+04 -3.508752E+04 -1.990579E+05  2.663257E+04  2.663219E+03
       288  23 -5.211150E+05 -7.247318E+04 -1.662367E+04 -1.983768E+05  1.791456E+04 -5.184079E+02
       288  24 -5.191206E+05 -7.951060E+04 -9.652503E+03 -2.044516E+05  8.980251E+03 -3.123923E+03
       288  25 -2.950187E+05 -5.097591E+03  2.595963E+04 -1.336362E+05  2.655206E+04  2.633322E+03
       288  26 -3.085851E+05  8.438385E+03  4.015532E+04 -1.394496E+05  1.807676E+04 -4.572462E+02
       288  27 -3.201462E+05 -6.403710E+03  4.305396E+04 -1.520192E+05  9.385386E+03 -2.971637E+03
       289   1 -6.895227E+05 -1.464600E+05 -5.321300E+04 -2.503665E+05 -7.155077E+03  3.275108E+03
       289   2 -6.781278E+05 -1.330961E+05 -4.526791E+04 -2.403694E+05 -4.916424E+03  3.408648E+03
       289   3 -6.574360E+05 -1.322292E+05 -3.939403E+04 -2.416819E+05 -2.655137E+03  3.481165E+03
       289   4 -5.182921E+05 -8.168015E+04 -7.571965E+03 -2.033163E+05 -7.407470E+03  3.180214E+03
       289   5 -5.228250E+05 -7.460281E+04 -3.884218E+03 -1.979735E+05 -5.194288E+03  3.304254E+03
       289   6 -5.180560E+05 -8.001682E+04 -2.246987E+03 -2.039401E+05 -2.958533E+03  3.367256E+03
       289   7 -3.470333E+05 -1.689845E+04  3.806651E+04 -1.562544E+05 -7.659940E+03  3.085290E+03
       289   8 -3.674992E+05 -1.610816E+04  3.749732E+04 -1.555680E+05 -5.472229E+03  3.199831E+03
       289   9 -3.786577E+05 -2.780344E+04  3.489827E+04 -1.661907E+05 -3.262004E+03  3.253319E+03
       289  10 -6.895227E+05 -1.464600E+05 -5.321312E+04 -2.503665E+05 -1.696340E-10 -1.869385E-10
       289  11 -6.781278E+05 -1.330961E+05 -4.526798E+04 -2.403694E+05 -2.630832E-10 -2.771477E-10
       289  12 -6.574360E+05 -1.322292E+05 -3.939407E+04 -2.416819E+05 -1.476656E-10 -1.939210E-10
       289  13 -5.182922E+05 -8.168017E+04 -7.572087E+03 -2.033163E+05 -1.774229E-10 -1.069549E-10
       289  14 -5.228250E+05 -7.460283E+04 -3.884289E+03 -1.979734E+05  6.248958E-10  1.784675E-11
       289  15 -5.180560E+05 -8.001683E+04 -2.247025E+03 -2.039401E+05  1.913801E-10 -1.395894E-10
       289  16 -3.470334E+05 -1.689847E+04  3.806638E+04 -1.562544E+05  1.900851E-11 -2.789275E-11
       289  17 -3.674992E+05 -1.610818E+04  3.749724E+04 -1.555680E+05 -5.660236E-10 -1.722419E-10
       289  18 -3.786577E+05 -2.780345E+04  3.489823E+04 -1.661907E+05  2.924711E-10 -7.756018E-11
       289  19 -6.895227E+05 -1.464600E+05 -5.321300E+04 -2.503665E+05  7.155077E+03 -3.275108E+03
       289  20 -6.781278E+05 -1.330961E+05 -4.526791E+04 -2.403694E+05  4.916424E+03 -3.408648E+03
       289  21 -6.574360E+05 -1.322292E+05 -3.939403E+04 -2.416819E+05  2.655137E+03 -3.481165E+03
       289  22 -5.182921E+05 -8.168015E+04 -7.571965E+03 -2.033163E+05  7.407470E+03 -3.180214E+03
       289  23 -5.228250E+05 -7.460281E+04 -3.884218E+03 -1.979735E+05  5.194288E+03 -3.304254E+03
       289  24 -5.180560E+05 -8.001682E+04 -2.246987E+03 -2.039401E+05  2.958533E+03 -3.367256E+03
       289  25 -3.470333E+05 -1.689845E+04  3.806651E+04 -1.562544E+05  7.659940E+03 -3.085290E+03
       289  26 -3.674992E+05 -1.610816E+04  3.749732E+04 -1.555680E+05  5.472229E+03 -3.199831E+03
       289  27 -3.786577E+05 -2.780344E+04  3.489827E+04 -1.661907E+05  3.262004E+03 -3.253319E+03
       290   1 -6.300843E+05 -1.225173E+05 -3.159509E+04 -2.344577E+05 -2.186430E+03  3.193128E+03
       290   2 -6.187529E+05 -1.107587E+05 -2.654977E+04 -2.239151E+05 -1.385876E+03  2.712374E+03
       290   3 -5.969973E+05 -1.098634E+05 -2.198014E+04 -2.254389E+05 -5.815197E+02  2.221010E+03
       290   4 -5.178968E+05 -8.030806E+04 -1.768329E+03 -2.038623E+05 -2.476405E+03  3.084293E+03
       290   5 -5.230963E+05 -7.478962E+04 -1.071759E+03 -1.978616E+05 -1.680277E+03  2.601918E+03
       290   6 -5.178715E+05 -8.013363E+04 -8.473809E+02 -2.039274E+05 -8.803647E+02  2.108928E+03
       290   7 -4.056968E+05 -3.809793E+04  2.805742E+04 -1.732618E+05 -2.766438E+03  2.975436E+03
       290   8 -4.274308E+05 -3.881996E+04  2.440549E+04 -1.718045E+05 -1.974729E+03  2.491442E+03
       290   9 -4.387396E+05 -5.040347E+04  2.028483E+04 -1.824134E+05 -1.179252E+03  1.996830E+03
       290  10 -6.300843E+05 -1.225173E+05 -3.159512E+04 -2.344577E+05 -2.524688E-10 -1.593649E-10
       290  11 -6.187529E+05 -1.107587E+05 -2.654979E+04 -2.239151E+05 -1.277800E-10 -1.022220E-10
       290  12 -5.969973E+05 -1.098634E+05 -2.198015E+04 -2.254389E+05  2.144281E-10 -1.312558E-11
       290  13 -5.178968E+05 -8.030807E+04 -1.768359E+03 -2.038623E+05 -1.368946E-10 -6.422777E-12
       290  14 -5.230964E+05 -7.478963E+04 -1.071777E+03 -1.978616E+05  3.761032E-11 -2.072323E-10
       290  15 -5.178715E+05 -8.013364E+04 -8.473908E+02 -2.039274E+05  3.625916E-11 -7.560103E-11
       290  16 -4.056968E+05 -3.809795E+04  2.805738E+04 -1.732618E+05  5.001936E-10 -1.190950E-10
       290  17 -4.274308E+05 -3.881996E+04  2.440547E+04 -1.718045E+05 -1.399981E-10 -1.997113E-10
       290  18 -4.387396E+05 -5.040347E+04  2.028482E+04 -1.824134E+05 -6.799407E-11 -1.226536E-10
       290  19 -6.300843E+05 -1.225173E+05 -3.159509E+04 -2.344577E+05  2.186430E+03 -3.193128E+03
       290  20 -6.187529E+05 -1.107587E+05 -2.654977E+04 -2.239151E+05  1.385876E+03 -2.712374E+03
       290  21 -5.969973E+05 -1.098634E+05 -2.198014E+04 -2.254389E+05  5.815197E+02 -2.221010E+03
       290  22 -5.178968E+05 -8.030806E+04 -1.768329E+03 -2.038623E+05  2.476405E+03 -3.084293E+03
       290  23 -5.230963E+05 -7.478962E+04 -1.071759E+03 -1.978616E+05  1.680277E+03 -2.601918E+03
       290  24 -5.178715E+05 -8.013363E+04 -8.473809E+02 -2.039274E+05  8.803647E+02 -2.108928E+03
       290  25 -4.056968E+05 -3.809793E+04  2.805742E+04 -1.732618E+05  2.766438E+03 -2.975436E+03
       290  26 -4.274308E+05 -3.881996E+04  2.440549E+04 -1.718045E+05  1.974729E+03 -2.491442E+03
       290  27 -4.387396E+05 -5.040347E+04  2.028483E+04 -1.824134E+05  1.179252E+03 -1.996830E+03
       291   1 -5.694036E+05 -9.956589E+04 -1.451823E+04 -2.180333E+05 -2.890877E+02  1.865370E+03
       291   2 -5.579348E+05 -8.783275E+04 -1.032047E+04 -2.072922E+05  5.023010E+02  1.363894E+03
       291   3 -5.359180E+05 -8.709224E+04 -6.589119E+03 -2.087835E+05  1.293638E+03  8.623822E+02
       291   4 -5.178436E+05 -8.016674E+04 -8.451434E+02 -2.039622E+05 -5.876426E+02  1.753417E+03
       291   5 -5.231285E+05 -7.474931E+04 -1.050949E+03 -1.978164E+05  2.037608E+02  1.251962E+03
       291   6 -5.178657E+05 -8.032453E+04 -1.723155E+03 -2.039031E+05  9.950976E+02  7.504648E+02
       291   7 -4.662810E+05 -6.076747E+04  1.282768E+04 -1.898902E+05 -8.862240E+02  1.641455E+03
       291   8 -4.883209E+05 -6.166579E+04  8.218468E+03 -1.883401E+05 -9.479786E+01  1.140022E+03
       291   9 -4.998131E+05 -7.355678E+04  3.142792E+03 -1.990225E+05  6.965473E+02  6.385436E+02
       291  10 -5.694036E+05 -9.956589E+04 -1.451824E+04 -2.180333E+05 -3.218304E-10  4.272903E-11
       291  11 -5.579348E+05 -8.783275E+04 -1.032048E+04 -2.072922E+05 -7.292261E-11 -1.252037E-10
       291  12 -5.359180E+05 -8.709224E+04 -6.589124E+03 -2.087835E+05  1.005297E-09  2.735964E-10
       291  13 -5.178436E+05 -8.016674E+04 -8.451498E+02 -2.039622E+05  1.226481E-10 -1.995693E-11
       291  14 -5.231285E+05 -7.474931E+04 -1.050952E+03 -1.978164E+05 -3.907173E-10  6.669874E-11
       291  15 -5.178657E+05 -8.032453E+04 -1.723158E+03 -2.039031E+05  8.941396E-10  3.012116E-10
       291  16 -4.662810E+05 -6.076747E+04  1.282767E+04 -1.898902E+05 -1.379153E-10 -5.977458E-11
       291  17 -4.883209E+05 -6.166579E+04  8.218465E+03 -1.883401E+05 -2.549526E-10  8.821595E-11
       291  18 -4.998131E+05 -7.355678E+04  3.142790E+03 -1.990225E+05  1.490068E-09  4.109176E-10
       291  19 -5.694036E+05 -9.956589E+04 -1.451823E+04 -2.180333E+05  2.890877E+02 -1.865370E+03
       291  20 -5.579348E+05 -8.783275E+04 -1.032047E+04 -2.072922E+05 -5.023010E+02 -1.363894E+03
       291  21 -5.359180E+05 -8.709224E+04 -6.589119E+03 -2.087835E+05 -1.293638E+03 -8.623822E+02
       291  22 -5.178436E+05 -8.016674E+04 -8.451434E+02 -2.039622E+05  5.876426E+02 -1.753417E+03
       291  23 -5.231285E+05 -7.474931E+04 -1.050949E+03 -1.978164E+05 -2.037608E+02 -1.251962E+03
       291  24 -5.178657E+05 -8.032453E+04 -1.723155E+03 -2.039031E+05 -9.950976E+02 -7.504648E+02
       291  25 -4.662810E+05 -6.076747E+04  1.282768E+04 -1.898902E+05  8.862240E+02 -1.641455E+03
       291  26 -4.883209E+05 -6.166579E+04  8.218468E+03 -1.883401E+05  9.479786E+01 -1.140022E+03
       291  27 -4.998131E+05 -7.355678E+04  3.142792E+03 -1.990225E+05 -6.965473E+02 -6.385436E+02
       292   1 -5.081295E+05 -7.660852E+04  4.541071E+02 -2.015924E+05  1.778463E+03  5.718197E+02
       292   2 -4.965012E+05 -6.449203E+04  3.277856E+03 -1.905776E+05  3.952075E+03  5.851626E+02
       292   3 -4.751851E+05 -6.521141E+04  4.109352E+03 -1.913795E+05  6.113854E+03  6.302960E+02
       292   4 -5.179686E+05 -8.010465E+04 -2.189035E+03 -2.040468E+05  1.471804E+03  4.568606E+02
       292   5 -5.229246E+05 -7.448829E+04 -3.770609E+03 -1.978376E+05  3.658889E+03  4.752412E+02
       292   6 -5.181955E+05 -8.171055E+04 -7.355161E+03 -2.034452E+05  5.834081E+03  5.253906E+02
       292   7 -5.278077E+05 -8.360078E+04 -4.832185E+03 -2.065012E+05  1.165151E+03  3.419033E+02
       292   8 -5.493472E+05 -8.448449E+04 -1.081912E+04 -2.050974E+05  3.365716E+03  3.653253E+02
       292   9 -5.612040E+05 -9.820952E+04 -1.881981E+04 -2.155102E+05  5.554330E+03  4.204939E+02
       292  10 -5.081295E+05 -7.660852E+04  4.541005E+02 -2.015924E+05  1.480458E-09  3.744373E-10
       292  11 -4.965013E+05 -6.449203E+04  3.277826E+03 -1.905776E+05  3.572910E-10  1.639255E-10
       292  12 -4.751851E+05 -6.521142E+04  4.109281E+03 -1.913795E+05  9.385584E-11 -4.163918E-11
       292  13 -5.179686E+05 -8.010465E+04 -2.189040E+03 -2.040468E+05  1.527632E-09  3.829826E-10
       292  14 -5.229246E+05 -7.448829E+04 -3.770635E+03 -1.978376E+05 -4.417362E-10  5.855412E-12
       292  15 -5.181955E+05 -8.171056E+04 -7.355225E+03 -2.034452E+05 -2.032332E-10 -7.166893E-11
       292  16 -5.278077E+05 -8.360079E+04 -4.832188E+03 -2.065012E+05  1.012971E-09  2.320348E-10
       292  17 -5.493472E+05 -8.448450E+04 -1.081915E+04 -2.050974E+05 -5.119919E-10 -7.426698E-12
       292  18 -5.612040E+05 -9.820953E+04 -1.881986E+04 -2.155102E+05 -2.319300E-10  3.600272E-11
       292  19 -5.081295E+05 -7.660852E+04  4.541071E+02 -2.015924E+05 -1.778463E+03 -5.718197E+02
       292  20 -4.965012E+05 -6.449203E+04  3.277856E+03 -1.905776E+05 -3.952075E+03 -5.851626E+02
       292  21 -4.751851E+05 -6.521141E+04  4.109352E+03 -1.913795E+05 -6.113854E+03 -6.302960E+02
       292  22 -5.179686E+05 -8.010465E+04 -2.189035E+03 -2.040468E+05 -1.471804E+03 -4.568606E+02
       292  23 -5.229246E+05 -7.448829E+04 -3.770609E+03 -1.978376E+05 -3.658889E+03 -4.752412E+02
       292  24 -5.181955E+05 -8.171055E+04 -7.355161E+03 -2.034452E+05 -5.834081E+03 -5.253906E+02
       292  25 -5.278077E+05 -8.360078E+04 -4.832185E+03 -2.065012E+05 -1.165151E+03 -3.419033E+02
       292  26 -5.493472E+05 -8.448449E+04 -1.081912E+04 -2.050974E+05 -3.365716E+03 -3.653253E+02
       292  27 -5.612040E+05 -9.820952E+04 -1.881981E+04 -2.155102E+05 -5.554330E+03 -4.204939E+02
       293   1 -4.468589E+05 -5.427417E+04  9.545901E+03 -1.867602E+05  7.734619E+03  7.172294E+02
       293   2 -4.345368E+05 -3.883485E+04  7.138690E+03 -1.736003E+05  1.628745E+04  3.128415E+03
       293   3 -4.194030E+05 -5.194182E+04 -6.328841E+03 -1.681460E+05  2.471255E+04  5.881659E+03
       293   4 -5.189497E+05 -7.966274E+04 -9.377192E+03 -2.046114E+05  7.363297E+03  5.780081E+02
       293   5 -5.213239E+05 -7.234401E+04 -1.613717E+04 -1.981454E+05  1.606083E+04  3.043364E+03
       293   6 -5.209167E+05 -9.360236E+04 -3.407360E+04 -1.993853E+05  2.463039E+04  5.850634E+03
       293   7 -5.910356E+05 -1.050512E+05 -2.830077E+04 -2.224609E+05  6.992021E+03  4.388015E+02
       293   8 -6.081039E+05 -1.058527E+05 -3.941373E+04 -2.226875E+05  1.583424E+04  2.958328E+03
       293   9 -6.224205E+05 -1.352618E+05 -6.181929E+04 -2.306198E+05  2.454825E+04  5.819616E+03
       293  10 -4.468590E+05 -5.427419E+04  9.545787E+03 -1.867602E+05 -1.399677E-11  1.610767E-11
       293  11 -4.345371E+05 -3.883493E+04  7.138173E+03 -1.736004E+05 -1.769478E-10 -2.193679E-11
       293  12 -4.194036E+05 -5.194202E+04 -6.330055E+03 -1.681461E+05 -3.039236E-10 -5.783978E-12
       293  13 -5.189497E+05 -7.966276E+04 -9.377295E+03 -2.046114E+05  1.089734E-10 -7.348988E-11
       293  14 -5.213242E+05 -7.234409E+04 -1.613768E+04 -1.981455E+05  1.254823E-10  3.690253E-11
       293  15 -5.209174E+05 -9.360256E+04 -3.407480E+04 -1.993854E+05 -2.751789E-10  1.201740E-10
       293  16 -5.910357E+05 -1.050512E+05 -2.830086E+04 -2.224609E+05 -2.490536E-11 -1.755172E-10
       293  17 -6.081042E+05 -1.058527E+05 -3.941422E+04 -2.226875E+05  6.627090E-11  4.439210E-11
       293  18 -6.224212E+05 -1.352619E+05 -6.182049E+04 -2.306199E+05  3.322671E-10  1.879577E-10
       293  19 -4.468589E+05 -5.427417E+04  9.545901E+03 -1.867602E+05 -7.734619E+03 -7.172294E+02
       293  20 -4.345368E+05 -3.883485E+04  7.138690E+03 -1.736003E+05 -1.628745E+04 -3.128415E+03
       293  21 -4.194030E+05 -5.194182E+04 -6.328841E+03 -1.681460E+05 -2.471255E+04 -5.881659E+03
       293  22 -5.189497E+05 -7.966274E+04 -9.377192E+03 -2.046114E+05 -7.363297E+03 -5.780081E+02
       293  23 -5.213239E+05 -7.234401E+04 -1.613717E+04 -1.981454E+05 -1.606083E+04 -3.043364E+03
       293  24 -5.209167E+05 -9.360236E+04 -3.407360E+04 -1.993853E+05 -2.463039E+04 -5.850634E+03
       293  25 -5.910356E+05 -1.050512E+05 -2.830077E+04 -2.224609E+05 -6.992021E+03 -4.388015E+02
       293  26 -6.081039E+05 -1.058527E+05 -3.941373E+04 -2.226875E+05 -1.583424E+04 -2.958328E+03
       293  27 -6.224205E+05 -1.352618E+05 -6.181929E+04 -2.306198E+05 -2.454825E+04 -5.819616E+03
       294   1 -3.848928E+05 -3.688782E+04 -6.837735E+03 -1.854433E+05  3.210267E+04  7.574186E+03
       294   2 -3.681069E+05  7.764948E+03 -2.918540E+04 -1.531886E+05  6.824281E+04  2.034188E+04
       294   3 -4.029454E+05 -1.102170E+05 -1.199694E+05 -9.320915E+04  1.029776E+05  3.685865E+04
       294   4 -5.263730E+05 -7.589316E+04 -4.176001E+04 -2.093636E+05  3.100116E+04  7.161746E+03
       294   5 -5.088304E+05 -5.414600E+04 -6.832482E+04 -2.008089E+05  6.873196E+04  2.052415E+04
       294   6 -5.432434E+05 -1.953732E+05 -1.645997E+05 -1.645262E+05  1.050571E+05  3.763262E+04
       294   7 -6.678336E+05 -1.148990E+05 -7.668364E+04 -2.332800E+05  2.989993E+04  6.749347E+03
       294   8 -6.495340E+05 -1.160534E+05 -1.074659E+05 -2.484184E+05  6.922098E+04  2.070636E+04
       294   9 -6.835186E+05 -2.805160E+05 -2.092313E+05 -2.358250E+05  1.071361E+05  3.840612E+04
       294  10 -3.848939E+05 -3.688816E+04 -6.839781E+03 -1.854435E+05 -2.191724E-10 -2.927770E-11
       294  11 -3.681120E+05  7.763252E+03 -2.919494E+04 -1.531898E+05 -4.530521E-10 -1.153736E-10
       294  12 -4.029571E+05 -1.102213E+05 -1.199919E+05 -9.321221E+04 -8.868866E-11 -1.267514E-10
       294  13 -5.263741E+05 -7.589348E+04 -4.176192E+04 -2.093638E+05 -1.693866E-10  1.130587E-10
       294  14 -5.088356E+05 -5.414772E+04 -6.833450E+04 -2.008100E+05 -1.126964E-13 -9.788114E-12
       294  15 -5.432556E+05 -1.953777E+05 -1.646231E+05 -1.645293E+05 -6.055516E-10  1.884351E-11
       294  16 -6.678346E+05 -1.148993E+05 -7.668540E+04 -2.332802E+05  8.868334E-11  1.392743E-10
       294  17 -6.495393E+05 -1.160551E+05 -1.074757E+05 -2.484196E+05 -3.457931E-10  1.474045E-10
       294  18 -6.835314E+05 -2.805207E+05 -2.092557E+05 -2.358283E+05 -2.662170E-11 -6.440020E-11
       294  19 -3.848928E+05 -3.688782E+04 -6.837735E+03 -1.854433E+05 -3.210267E+04 -7.574186E+03
       294  20 -3.681069E+05  7.764948E+03 -2.918540E+04 -1.531886E+05 -6.824281E+04 -2.034188E+04
       294  21 -4.029454E+05 -1.102170E+05 -1.199694E+05 -9.320915E+04 -1.029776E+05 -3.685865E+04
       294  22 -5.263730E+05 -7.589316E+04 -4.176001E+04 -2.093636E+05 -3.100116E+04 -7.161746E+03
       294  23 -5.088304E+05 -5.414600E+04 -6.832482E+04 -2.008089E+05 -6.873196E+04 -2.052415E+04
       294  24 -5.432434E+05 -1.953732E+05 -1.645997E+05 -1.645262E+05 -1.050571E+05 -3.763262E+04
       294  25 -6.678336E+05 -1.148990E+05 -7.668364E+04 -2.332800E+05 -2.989993E+04 -6.749347E+03
       294  26 -6.495340E+05 -1.160534E+05 -1.074659E+05 -2.484184E+05 -6.922098E+04 -2.070636E+04
       294  27 -6.835186E+05 -2.805160E+05 -2.092313E+05 -2.358250E+05 -1.071361E+05 -3.840612E+04
       295   1 -4.505042E+05 -9.446648E+04 -6.075188E+04 -5.273501E+03  9.086015E+04  7.927106E+03
       295   2 -3.971373E+05 -2.110891E+05 -1.218007E+05  9.348863E+02  6.393404E+04  2.322575E+04
       295   3 -3.024367E+05 -1.799449E+05 -1.281843E+05 -5.341240E+04  3.701363E+04  2.050913E+04
       295   4  3.989130E+05  1.173638E+05  1.492624E+05 -3.889451E+04  1.020417E+05  7.929312E+03
       295   5  3.775786E+05 -1.878278E+04  6.499081E+04 -8.585464E+03  6.686246E+04  2.322348E+04
       295   6  3.989515E+05 -5.831051E+03  4.106121E+04 -3.882585E+04  3.169282E+04  2.051022E+04
       295   7  1.248989E+06  3.291446E+05  3.592241E+05 -7.256169E+04  1.132384E+05  7.930308E+03
       295   8  1.152844E+06  1.734801E+05  2.517395E+05 -1.811777E+04  6.979449E+04  2.322113E+04
       295   9  1.100790E+06  1.682477E+05  2.102718E+05 -2.422270E+04  2.636600E+04  2.051105E+04
       295  10 -4.505131E+05 -9.446877E+04 -6.076752E+04 -5.274081E+03 -2.510971E-10  1.378165E-10
       295  11 -3.971418E+05 -2.110908E+05 -1.218094E+05  9.336900E+02 -5.183780E-10 -1.839476E-10
       295  12 -3.024383E+05 -1.799457E+05 -1.281877E+05 -5.341301E+04 -2.616091E-10 -4.278310E-10
       295  13  3.989018E+05  1.173610E+05  1.492427E+05 -3.889516E+04  2.276169E-10 -1.538565E-10
       295  14  3.775736E+05 -1.878456E+04  6.498140E+04 -8.586715E+03 -7.395473E-10 -1.112585E-10
       295  15  3.989503E+05 -5.831772E+03  4.105853E+04 -3.882637E+04 -2.102616E-10 -3.605827E-10
       295  16  1.248975E+06  3.291411E+05  3.592000E+05 -7.256241E+04  3.943632E-11  2.101764E-10
       295  17  1.152838E+06  1.734782E+05  2.517294E+05 -1.811907E+04 -2.040164E-10 -1.895161E-10
       295  18  1.100789E+06  1.682470E+05  2.102697E+05 -2.422314E+04 -3.249560E-10 -2.190013E-10
       295  19 -4.505042E+05 -9.446648E+04 -6.075188E+04 -5.273501E+03 -9.086015E+04 -7.927106E+03
       295  20 -3.971373E+05 -2.110891E+05 -1.218007E+05  9.348863E+02 -6.393404E+04 -2.322575E+04
       295  21 -3.024367E+05 -1.799449E+05 -1.281843E+05 -5.341240E+04 -3.701363E+04 -2.050913E+04
       295  22  3.989130E+05  1.173638E+05  1.492624E+05 -3.889451E+04 -1.020417E+05 -7.929312E+03
       295  23  3.775786E+05 -1.878278E+04  6.499081E+04 -8.585464E+03 -6.686246E+04 -2.322348E+04
       295  24  3.989515E+05 -5.831051E+03  4.106121E+04 -3.882585E+04 -3.169282E+04 -2.051022E+04
       295  25  1.248989E+06  3.291446E+05  3.592241E+05 -7.256169E+04 -1.132384E+05 -7.930308E+03
       295  26  1.152844E+06  1.734801E+05  2.517395E+05 -1.811777E+04 -6.979449E+04 -2.322113E+04
       295  27  1.100790E+06  1.682477E+05  2.102718E+05 -2.422270E+04 -2.636600E+04 -2.051105E+04
       296   1 -1.997972E+05 -1.335118E+05 -1.092294E+05 -3.495117E+04  2.548507E+04  1.623396E+04
       296   2 -1.299682E+05 -1.307629E+05 -1.081310E+05 -7.558371E+03  1.747485E+04  1.491637E+04
       296   3 -5.463578E+04 -1.111633E+05 -9.755206E+04 -4.000619E+04  9.459561E+03  1.210923E+04
       296   4  3.907437E+05  1.315153E+04  3.356951E+04 -3.867745E+04  2.523764E+04  1.623295E+04
       296   5  3.879456E+05 -2.183944E+03  1.689865E+04 -8.763439E+03  1.654082E+04  1.491637E+04
       296   6  3.907589E+05 -5.574404E+02  1.017831E+04 -3.868661E+04  7.839850E+03  1.211073E+04
       296   7  9.816033E+05  1.597894E+05  1.763434E+05 -4.240724E+04  2.498996E+04  1.623194E+04
       296   8  9.061046E+05  1.263755E+05  1.419091E+05 -9.969460E+03  1.560601E+04  1.491636E+04
       296   9  8.363347E+05  1.100339E+05  1.178945E+05 -3.736601E+04  6.218979E+03  1.211222E+04
       296  10 -1.997980E+05 -1.335123E+05 -1.092311E+05 -3.495150E+04  1.772458E-11 -3.730448E-10
       296  11 -1.299686E+05 -1.307633E+05 -1.081320E+05 -7.558581E+03  1.268527E-10 -1.191879E-10
       296  12 -5.463592E+04 -1.111635E+05 -9.755250E+04 -4.000628E+04  2.863385E-11  7.703148E-10
       296  13  3.907429E+05  1.315108E+04  3.356782E+04 -3.867778E+04 -6.249237E-10 -1.951331E-11
       296  14  3.879452E+05 -2.184256E+03  1.689771E+04 -8.763638E+03 -8.696766E-11 -8.372194E-10
       296  15  3.907588E+05 -5.576144E+02  1.017792E+04 -3.868668E+04 -5.825991E-10  4.659662E-10
       296  16  9.816025E+05  1.597890E+05  1.763417E+05 -4.240757E+04 -2.887658E-11 -3.227164E-10
       296  17  9.061043E+05  1.263752E+05  1.419083E+05 -9.969647E+03  1.644277E-10 -1.897770E-10
       296  18  8.363347E+05  1.100337E+05  1.178941E+05 -3.736607E+04 -1.186768E-10 -7.184818E-11
       296  19 -1.997972E+05 -1.335118E+05 -1.092294E+05 -3.495117E+04 -2.548507E+04 -1.623396E+04
       296  20 -1.299682E+05 -1.307629E+05 -1.081310E+05 -7.558371E+03 -1.747485E+04 -1.491637E+04
       296  21 -5.463578E+04 -1.111633E+05 -9.755206E+04 -4.000619E+04 -9.459561E+03 -1.210923E+04
       296  22  3.907437E+05  1.315153E+04  3.356951E+04 -3.867745E+04 -2.523764E+04 -1.623295E+04
       296  23  3.879456E+05 -2.183944E+03  1.689865E+04 -8.763439E+03 -1.654082E+04 -1.491637E+04
       296  24  3.907589E+05 -5.574404E+02  1.017831E+04 -3.868661E+04 -7.839850E+03 -1.211073E+04
       296  25  9.816033E+05  1.597894E+05  1.763434E+05 -4.240724E+04 -2.498996E+04 -1.623194E+04
       296  26  9.061046E+05  1.263755E+05  1.419091E+05 -9.969460E+03 -1.560601E+04 -1.491636E+04
       296  27  8.363347E+05  1.100339E+05  1.178945E+05 -3.736601E+04 -6.218979E+03 -1.211222E+04
       297   1  5.360919E+04 -8.186984E+04 -7.295273E+04 -3.790184E+04  7.417332E+03  1.025362E+04
       297   2  1.251045E+05 -6.582991E+04 -5.939922E+04 -8.581341E+03  5.258677E+03  7.573791E+03
       297   3  1.972679E+05 -4.773938E+04 -4.395597E+04 -3.850579E+04  3.097921E+03  4.777048E+03
       297   4  3.896854E+05  1.522066E+03  7.999872E+03 -3.854989E+04  6.222609E+03  1.025494E+04
       297   5  3.893526E+05 -2.353343E+02  4.393881E+03 -8.929284E+03  4.009476E+03  7.575530E+03
       297   6  3.896920E+05  6.710752E+01  2.714895E+03 -3.855203E+04  1.794489E+03  4.779247E+03
       297   7  7.258649E+05  8.490574E+04  8.894442E+04 -3.919825E+04  5.027240E+03  1.025626E+04
       297   8  6.536645E+05  6.535414E+04  6.818199E+04 -9.277351E+03  2.759744E+03  7.577270E+03
       297   9  5.821499E+05  4.787088E+04  4.938310E+04 -3.859828E+04  4.906542E+02  4.781447E+03
       297  10  5.360910E+04 -8.186997E+04 -7.295303E+04 -3.790190E+04  5.211681E-10  2.580712E-10
       297  11  1.251044E+05 -6.582998E+04 -5.939938E+04 -8.581373E+03  7.914762E-10  1.969237E-10
       297  12  1.972678E+05 -4.773941E+04 -4.395603E+04 -3.850580E+04  3.148809E-10 -9.451499E-10
       297  13  3.896853E+05  1.521943E+03  7.999601E+03 -3.854994E+04 -1.237420E-11  1.728493E-10
       297  14  3.893525E+05 -2.354003E+02  4.393743E+03 -8.929309E+03 -1.029868E-10  8.682243E-10
       297  15  3.896920E+05  6.708212E+01  2.714846E+03 -3.855204E+04  2.892709E-11  1.141490E-09
       297  16  7.258649E+05  8.490562E+04  8.894417E+04 -3.919829E+04 -6.013314E-10 -7.001534E-11
       297  17  6.536644E+05  6.535408E+04  6.818187E+04 -9.277368E+03 -1.491586E-10 -8.738815E-10
       297  18  5.821499E+05  4.787086E+04  4.938305E+04 -3.859828E+04  3.328817E-10 -4.901757E-10
       297  19  5.360919E+04 -8.186984E+04 -7.295273E+04 -3.790184E+04 -7.417332E+03 -1.025362E+04
       297  20  1.251045E+05 -6.582991E+04 -5.939922E+04 -8.581341E+03 -5.258677E+03 -7.573791E+03
       297  21  1.972679E+05 -4.773938E+04 -4.395597E+04 -3.850579E+04 -3.097921E+03 -4.777048E+03
       297  22  3.896854E+05  1.522066E+03  7.999872E+03 -3.854989E+04 -6.222609E+03 -1.025494E+04
       297  23  3.893526E+05 -2.353343E+02  4.393881E+03 -8.929284E+03 -4.009476E+03 -7.575530E+03
       297  24  3.896920E+05  6.710752E+01  2.714895E+03 -3.855203E+04 -1.794489E+03 -4.779247E+03
       297  25  7.258649E+05  8.490574E+04  8.894442E+04 -3.919825E+04 -5.027240E+03 -1.025626E+04
       297  26  6.536645E+05  6.535414E+04  6.818199E+04 -9.277351E+03 -2.759744E+03 -7.577270E+03
       297  27  5.821499E+05  4.787088E+04  4.938310E+04 -3.859828E+04 -4.906542E+02 -4.781447E+03
       298   1  3.056738E+05 -2.049260E+04 -1.783104E+04 -3.837588E+04  2.617344E+03  3.132489E+03
       298   2  3.772732E+05 -3.052767E+03 -1.421323E+03 -8.974923E+03  1.848658E+03  3.495462E+02
       298   3  4.488235E+05  1.481676E+04  1.553975E+04 -3.860018E+04  1.079802E+03 -2.442479E+03
       298   4  3.895396E+05  2.798860E+02  2.196070E+03 -3.850289E+04  1.349321E+03  3.134761E+03
       298   5  3.895659E+05 -1.833614E+00  1.545772E+03 -8.989945E+03  5.763585E+02  3.518338E+02
       298   6  3.895400E+05  1.474872E+02  1.450303E+03 -3.850313E+04 -1.966874E+02 -2.440158E+03
       298   7  4.734119E+05  2.105186E+04  2.222269E+04 -3.862992E+04  8.112820E+01  3.137033E+03
       298   8  4.018586E+05  3.049089E+03  4.512862E+03 -9.004968E+03 -6.959663E+02  3.541216E+02
       298   9  3.302597E+05 -1.452204E+04 -1.263938E+04 -3.840610E+04 -1.473055E+03 -2.437837E+03
       298  10  3.056738E+05 -2.049261E+04 -1.783108E+04 -3.837589E+04  4.320483E-10 -1.999681E-10
       298  11  3.772732E+05 -3.052768E+03 -1.421330E+03 -8.974923E+03  1.166250E-09  2.779442E-11
       298  12  4.488235E+05  1.481676E+04  1.553973E+04 -3.860018E+04  4.344229E-10 -4.161235E-10
       298  13  3.895396E+05  2.798750E+02  2.196048E+03 -3.850290E+04  8.127060E-11 -1.395110E-09
       298  14  3.895659E+05 -1.833836E+00  1.545771E+03 -8.989945E+03 -1.324378E-10  4.316929E-10
       298  15  3.895400E+05  1.474808E+02  1.450291E+03 -3.850313E+04  2.524651E-10 -8.605221E-10
       298  16  4.734119E+05  2.105185E+04  2.222268E+04 -3.862992E+04  2.147803E-10  1.369279E-10
       298  17  4.018586E+05  3.049089E+03  4.512861E+03 -9.004968E+03 -8.203742E-10 -4.937217E-10
       298  18  3.302597E+05 -1.452205E+04 -1.263940E+04 -3.840610E+04 -5.588182E-10 -1.350120E-09
       298  19  3.056738E+05 -2.049260E+04 -1.783104E+04 -3.837588E+04 -2.617344E+03 -3.132489E+03
       298  20  3.772732E+05 -3.052767E+03 -1.421323E+03 -8.974923E+03 -1.848658E+03 -3.495462E+02
       298  21  4.488235E+05  1.481676E+04  1.553975E+04 -3.860018E+04 -1.079802E+03  2.442479E+03
       298  22  3.895396E+05  2.798860E+02  2.196070E+03 -3.850289E+04 -1.349321E+03 -3.134761E+03
       298  23  3.895659E+05 -1.833614E+00  1.545772E+03 -8.989945E+03 -5.763585E+02 -3.518338E+02
       298  24  3.895400E+05  1.474872E+02  1.450303E+03 -3.850313E+04  1.966874E+02  2.440158E+03
       298  25  4.734119E+05  2.105186E+04  2.222269E+04 -3.862992E+04 -8.112820E+01 -3.137033E+03
       298  26  4.018586E+05  3.049089E+03  4.512862E+03 -9.004968E+03  6.959663E+02 -3.541216E+02
       298  27  3.302597E+05 -1.452204E+04 -1.263938E+04 -3.840610E+04  1.473055E+03  2.437837E+03
       299   1  5.574025E+05  4.183345E+04  4.229385E+04 -3.872704E+04  8.047686E+02 -4.071577E+03
       299   2  6.291469E+05  5.943083E+04  5.998039E+04 -9.211212E+03 -2.698998E+02 -6.867940E+03
       299   3  7.010217E+05  7.758317E+04  7.847062E+04 -3.889834E+04 -1.343157E+03 -9.660170E+03
       299   4  3.895720E+05  1.395761E+02  1.566916E+03 -3.854277E+04 -4.729808E+02 -4.069365E+03
       299   5  3.895072E+05 -3.724698E+01  2.144019E+03 -8.940421E+03 -1.545481E+03 -6.866067E+03
       299   6  3.895665E+05  3.407252E+02  3.523586E+03 -3.854244E+04 -2.616448E+03 -9.658618E+03
       299   7  2.217673E+05 -4.155636E+04 -3.916204E+04 -3.835854E+04 -1.750386E+03 -4.067154E+03
       299   8  1.499198E+05 -5.950951E+04 -5.569646E+04 -8.669713E+03 -2.820572E+03 -6.864195E+03
       299   9  7.820002E+04 -7.690879E+04 -7.143035E+04 -3.818668E+04 -3.889102E+03 -9.657067E+03
       299  10  5.574025E+05  4.183343E+04  4.229382E+04 -3.872704E+04 -4.548930E-10  7.248694E-10
       299  11  6.291469E+05  5.943078E+04  5.998030E+04 -9.211213E+03  4.825680E-10  2.141315E-09
       299  12  7.010217E+05  7.758307E+04  7.847044E+04 -3.889835E+04  1.957047E-09 -1.257901E-09
       299  13  3.895720E+05  1.395583E+02  1.566885E+03 -3.854277E+04 -2.566285E-10  2.934722E-10
       299  14  3.895071E+05 -3.729825E+01  2.143926E+03 -8.940429E+03 -9.857539E-10 -8.381245E-10
       299  15  3.895665E+05  3.406231E+02  3.523398E+03 -3.854246E+04 -2.423202E-10 -2.475425E-10
       299  16  2.217673E+05 -4.155638E+04 -3.916208E+04 -3.835854E+04  3.323485E-10  2.182680E-10
       299  17  1.499198E+05 -5.950957E+04 -5.569656E+04 -8.669729E+03  1.322017E-10 -6.513761E-10
       299  18  7.819998E+04 -7.690889E+04 -7.143056E+04 -3.818671E+04 -1.800213E-09 -4.319222E-10
       299  19  5.574025E+05  4.183345E+04  4.229385E+04 -3.872704E+04 -8.047686E+02  4.071577E+03
       299  20  6.291469E+05  5.943083E+04  5.998039E+04 -9.211212E+03  2.698998E+02  6.867940E+03
       299  21  7.010217E+05  7.758317E+04  7.847062E+04 -3.889834E+04  1.343157E+03  9.660170E+03
       299  22  3.895720E+05  1.395761E+02  1.566916E+03 -3.854277E+04  4.729808E+02  4.069365E+03
       299  23  3.895072E+05 -3.724698E+01  2.144019E+03 -8.940421E+03  1.545481E+03  6.866067E+03
       299  24  3.895665E+05  3.407252E+02  3.523586E+03 -3.854244E+04  2.616448E+03  9.658618E+03
       299  25  2.217673E+05 -4.155636E+04 -3.916204E+04 -3.835854E+04  1.750386E+03  4.067154E+03
       299  26  1.499198E+05 -5.950951E+04 -5.569646E+04 -8.669713E+03  2.820572E+03  6.864195E+03
       299  27  7.820002E+04 -7.690879E+04 -7.143035E+04 -3.818668E+04  3.889102E+03  9.657067E+03
       300   1  8.105877E+05  1.044119E+05  1.062635E+05 -3.872474E+04 -2.024001E+03 -1.131923E+04
       300   2  8.823396E+05  1.219156E+05  1.265635E+05 -9.202370E+03 -5.889805E+03 -1.413679E+04
       300   3  9.556499E+05  1.428568E+05  1.502744E+05 -3.946553E+04 -9.752783E+03 -1.681324E+04
       300   4  3.898588E+05 -2.532287E+01  4.515035E+03 -3.867317E+04 -3.342930E+03 -1.131798E+04
       300   5  3.890811E+05 -4.700108E+02  7.537673E+03 -8.777975E+03 -7.141684E+03 -1.413630E+04
       300   6  3.898467E+05  2.513195E+03  1.392716E+04 -3.867122E+04 -1.093717E+04 -1.681346E+04
       300   7 -3.070844E+04 -1.044755E+05 -9.724616E+04 -3.862158E+04 -4.660969E+03 -1.131673E+04
       300   8 -1.039551E+05 -1.228733E+05 -1.115055E+05 -8.353863E+03 -8.392571E+03 -1.413582E+04
       300   9 -1.756641E+05 -1.378537E+05 -1.224430E+05 -3.787757E+04 -1.212047E+04 -1.681367E+04
       300  10  8.105877E+05  1.044118E+05  1.062633E+05 -3.872476E+04  3.720785E-10 -1.274216E-09
       300  11  8.823395E+05  1.219153E+05  1.265630E+05 -9.202437E+03  6.577677E-10 -2.682149E-10
       300  12  9.556497E+05  1.428564E+05  1.502737E+05 -3.946566E+04  1.555948E-10 -4.170749E-10
       300  13  3.898588E+05 -2.546345E+01  4.514774E+03 -3.867320E+04 -6.675488E-11 -6.852774E-10
       300  14  3.890810E+05 -4.702392E+02  7.537202E+03 -8.778057E+03  9.052773E-11  1.503304E-10
       300  15  3.898465E+05  2.512859E+03  1.392640E+04 -3.867137E+04 -3.956359E-10 -8.546330E-10
       300  16 -3.070850E+04 -1.044757E+05 -9.724644E+04 -3.862162E+04  3.941302E-10 -2.650165E-10
       300  17 -1.039553E+05 -1.228736E+05 -1.115060E+05 -8.353959E+03  4.422979E-10  1.429216E-09
       300  18 -1.756643E+05 -1.378541E+05 -1.224438E+05 -3.787774E+04 -3.457475E-11  1.925248E-10
       300  19  8.105877E+05  1.044119E+05  1.062635E+05 -3.872474E+04  2.024001E+03  1.131923E+04
       300  20  8.823396E+05  1.219156E+05  1.265635E+05 -9.202370E+03  5.889805E+03  1.413679E+04
       300  21  9.556499E+05  1.428568E+05  1.502744E+05 -3.946553E+04  9.752783E+03  1.681324E+04
       300  22  3.898588E+05 -2.532287E+01  4.515035E+03 -3.867317E+04  3.342930E+03  1.131798E+04
       300  23  3.890811E+05 -4.700108E+02  7.537673E+03 -8.777975E+03  7.141684E+03  1.413630E+04
       300  24  3.898467E+05  2.513195E+03  1.392716E+04 -3.867122E+04  1.093717E+04  1.681346E+04
       300  25 -3.070844E+04 -1.044755E+05 -9.724616E+04 -3.862158E+04  4.660969E+03  1.131673E+04
       300  26 -1.039551E+05 -1.228733E+05 -1.115055E+05 -8.353863E+03  8.392571E+03  1.413582E+04
       300  27 -1.756641E+05 -1.378537E+05 -1.224430E+05 -3.787757E+04  1.212047E+04  1.681367E+04
       301   1  1.068277E+06  1.667495E+05  1.811838E+05 -3.605829E+04 -1.203132E+04 -1.874888E+04
       301   2  1.136893E+06  1.822438E+05  2.105176E+05 -9.966807E+03 -2.810616E+04 -2.160131E+04
       301   3  1.215798E+06  2.273874E+05  2.578764E+05 -4.463468E+04 -4.417914E+04 -2.258168E+04
       301   4  3.917198E+05 -1.130721E+03  1.775663E+04 -3.888713E+04 -1.375325E+04 -1.874941E+04
       301   5  3.866350E+05 -3.872868E+03  2.953326E+04 -8.510337E+03 -2.895681E+04 -2.160316E+04
       301   6  3.916967E+05  2.290356E+04  5.874658E+04 -3.889703E+04 -4.415662E+04 -2.258406E+04
       301   7 -2.844194E+05 -1.690443E+05 -1.457033E+05 -4.171282E+04 -1.547330E+04 -1.874992E+04
       301   8 -3.631090E+05 -1.900306E+05 -1.514914E+05 -7.055639E+03 -2.980642E+04 -2.160501E+04
       301   9 -4.317848E+05 -1.816298E+05 -1.404319E+05 -3.316707E+04 -4.413410E+04 -2.258643E+04
       301  10  1.068277E+06  1.667491E+05  1.811829E+05 -3.605848E+04 -4.737909E-10  3.134590E-10
       301  11  1.136892E+06  1.822431E+05  2.105153E+05 -9.967296E+03  1.602231E-10  4.177430E-10
       301  12  1.215796E+06  2.273863E+05  2.578718E+05 -4.463548E+04 -2.638874E-10 -1.320982E-10
       301  13  3.917195E+05 -1.131149E+03  1.775562E+04 -3.888734E+04 -8.078930E-10  2.262856E-10
       301  14  3.866340E+05 -3.873594E+03  2.953081E+04 -8.510841E+03 -5.035800E-10  4.028702E-11
       301  15  3.916945E+05  2.290249E+04  5.874196E+04 -3.889783E+04 -3.953411E-10  3.465188E-10
       301  16 -2.844198E+05 -1.690448E+05 -1.457045E+05 -4.171306E+04  1.946311E-10 -1.405618E-10
       301  17 -3.631101E+05 -1.900313E+05 -1.514939E+05 -7.056157E+03 -6.939475E-10 -2.457060E-10
       301  18 -4.317870E+05 -1.816309E+05 -1.404366E+05 -3.316787E+04  2.643059E-10 -2.115033E-10
       301  19  1.068277E+06  1.667495E+05  1.811838E+05 -3.605829E+04  1.203132E+04  1.874888E+04
       301  20  1.136893E+06  1.822438E+05  2.105176E+05 -9.966807E+03  2.810616E+04  2.160131E+04
       301  21  1.215798E+06  2.273874E+05  2.578764E+05 -4.463468E+04  4.417914E+04  2.258168E+04
       301  22  3.917198E+05 -1.130721E+03  1.775663E+04 -3.888713E+04  1.375325E+04  1.874941E+04
       301  23  3.866350E+05 -3.872868E+03  2.953326E+04 -8.510337E+03  2.895681E+04  2.160316E+04
       301  24  3.916967E+05  2.290356E+04  5.874658E+04 -3.889703E+04  4.415662E+04  2.258406E+04
       301  25 -2.844194E+05 -1.690443E+05 -1.457033E+05 -4.171282E+04  1.547330E+04  1.874992E+04
       301  26 -3.631090E+05 -1.900306E+05 -1.514914E+05 -7.055639E+03  2.980642E+04  2.160501E+04
       301  27 -4.317848E+05 -1.816298E+05 -1.404319E+05 -3.316707E+04  4.413410E+04  2.258643E+04
       302   1  1.343047E+06  2.221067E+05  2.976966E+05 -1.256190E+04 -4.905179E+04 -2.759463E+04
       302   2  1.380624E+06  2.180096E+05  3.575188E+05 -2.393301E+04 -1.210681E+05 -3.043371E+04
       302   3  1.494762E+06  4.763061E+05  5.300882E+05 -9.739164E+04 -1.931412E+05 -1.055173E+04
       302   4  4.060296E+05 -1.033570E+04  7.185449E+04 -3.905790E+04 -5.544650E+04 -2.760107E+04
       302   5  3.685729E+05 -3.288825E+04  1.137669E+05 -8.235052E+03 -1.169977E+05 -3.043374E+04
       302   6  4.059750E+05  2.053601E+05  2.612896E+05 -3.949772E+04 -1.785953E+05 -1.053880E+04
       302   7 -5.301843E+05 -2.428395E+05 -1.540498E+05 -6.551400E+04 -6.183155E+04 -2.760696E+04
       302   8 -6.425423E+05 -2.838597E+05 -1.300579E+05  7.436908E+03 -1.129337E+05 -3.043356E+04
       302   9 -6.817284E+05 -6.566115E+04 -7.594116E+03  1.829419E+04 -1.640747E+05 -1.052315E+04
       302  10  1.343044E+06  2.221053E+05  2.976906E+05 -1.256299E+04 -5.061353E-10  5.991463E-10
       302  11  1.380608E+06  2.180046E+05  3.574896E+05 -2.393598E+04 -1.306121E-10  2.573173E-10
       302  12  1.494722E+06  4.762960E+05  5.300181E+05 -9.739328E+04 -6.024509E-10 -2.504200E-10
       302  13  4.060261E+05 -1.033734E+04  7.184728E+04 -3.905913E+04  1.258668E-10  1.503252E-09
       302  14  3.685580E+05 -3.289292E+04  1.137395E+05 -8.237919E+03  9.898025E-11  3.370496E-09
       302  15  4.059407E+05  2.053515E+05  2.612295E+05 -3.949924E+04  1.177540E-10  9.928229E-11
       302  16 -5.301887E+05 -2.428414E+05 -1.540584E+05 -6.551538E+04 -4.480325E-10  9.916720E-11
       302  17 -6.425562E+05 -2.838641E+05 -1.300836E+05  7.434139E+03  3.735467E-11  7.285354E-10
       302  18 -6.817574E+05 -6.566850E+04 -7.644966E+03  1.829279E+04  7.065928E-10 -9.371756E-10
       302  19  1.343047E+06  2.221067E+05  2.976966E+05 -1.256190E+04  4.905179E+04  2.759463E+04
       302  20  1.380624E+06  2.180096E+05  3.575188E+05 -2.393301E+04  1.210681E+05  3.043371E+04
       302  21  1.494762E+06  4.763061E+05  5.300882E+05 -9.739164E+04  1.931412E+05  1.055173E+04
       302  22  4.060296E+05 -1.033570E+04  7.185449E+04 -3.905790E+04  5.544650E+04  2.760107E+04
       302  23  3.685729E+05 -3.288825E+04  1.137669E+05 -8.235052E+03  1.169977E+05  3.043374E+04
       302  24  4.059750E+05  2.053601E+05  2.612896E+05 -3.949772E+04  1.785953E+05  1.053880E+04
       302  25 -5.301843E+05 -2.428395E+05 -1.540498E+05 -6.551400E+04  6.183155E+04  2.760696E+04
       302  26 -6.425423E+05 -2.838597E+05 -1.300579E+05  7.436908E+03  1.129337E+05  3.043356E+04
       302  27 -6.817284E+05 -6.566115E+04 -7.594116E+03  1.829419E+04  1.640747E+05  1.052315E+04
       303   1  2.214139E+05  7.521475E+05  2.441510E+05 -9.987366E+04  4.421214E+03  8.328818E+04
       303   2  8.316017E+04  5.965541E+05  1.434821E+05 -2.419125E+04  1.185615E+04  5.096056E+04
       303   3  5.864162E+04  4.734380E+05  9.224121E+04 -6.295695E+04  6.707659E+03  1.862247E+04
       303   4  8.877663E+04  2.205041E+05  1.126484E+05 -7.367833E+04  4.432185E+03  7.700227E+04
       303   5 -1.405806E+04  2.047716E+05  4.911964E+04 -1.650906E+04  1.185796E+04  5.043882E+04
       303   6 -4.115281E+03  2.205289E+05  3.104936E+04 -7.378804E+04  6.698719E+03  2.385754E+04
       303   7 -4.387922E+04 -3.108812E+05 -1.887476E+04 -4.750534E+04  4.442633E+03  7.072170E+04
       303   8 -1.112873E+05 -1.868704E+05 -4.525371E+04 -8.831674E+03  1.185975E+04  4.991739E+04
       303   9 -6.687640E+04 -3.232148E+04 -3.014693E+04 -8.461468E+04  6.689595E+03  2.909048E+04
       303  10  2.214120E+05  7.521401E+05  2.441379E+05 -9.987395E+04  3.170221E-10 -5.349740E-11
       303  11  8.315932E+04  5.965513E+05  1.434769E+05 -2.419174E+04 -8.178788E-11  5.171591E-10
       303  12  5.864148E+04  4.734377E+05  9.224048E+04 -6.295705E+04  1.141033E-09  4.883195E-10
       303  13  8.877501E+04  2.204977E+05  1.126372E+05 -7.367860E+04 -1.223410E-10 -3.111948E-10
       303  14 -1.405889E+04  2.047688E+05  4.911460E+04 -1.650954E+04 -1.134899E-09  4.459593E-10
       303  15 -4.115482E+03  2.205283E+05  3.104820E+04 -7.378817E+04  6.785198E-10 -5.477402E-10
       303  16 -4.388059E+04 -3.108866E+05 -1.888420E+04 -4.750559E+04 -1.542526E-10  5.542985E-11
       303  17 -1.112881E+05 -1.868731E+05 -4.525866E+04 -8.832151E+03 -3.124953E-10 -1.176338E-09
       303  18 -6.687667E+04 -3.232240E+04 -3.014860E+04 -8.461483E+04  6.381989E-11 -5.101273E-10
       303  19  2.214139E+05  7.521475E+05  2.441510E+05 -9.987366E+04 -4.421214E+03 -8.328818E+04
       303  20  8.316017E+04  5.965541E+05  1.434821E+05 -2.419125E+04 -1.185615E+04 -5.096056E+04
       303  21  5.864162E+04  4.734380E+05  9.224121E+04 -6.295695E+04 -6.707659E+03 -1.862247E+04
       303  22  8.877663E+04  2.205041E+05  1.126484E+05 -7.367833E+04 -4.432185E+03 -7.700227E+04
       303  23 -1.405806E+04  2.047716E+05  4.911964E+04 -1.650906E+04 -1.185796E+04 -5.043882E+04
       303  24 -4.115281E+03  2.205289E+05  3.104936E+04 -7.378804E+04 -6.698719E+03 -2.385754E+04
       303  25 -4.387922E+04 -3.108812E+05 -1.887476E+04 -4.750534E+04 -4.442633E+03 -7.072170E+04
       303  26 -1.112873E+05 -1.868704E+05 -4.525371E+04 -8.831674E+03 -1.185975E+04 -4.991739E+04
       303  27 -6.687640E+04 -3.232148E+04 -3.014693E+04 -8.461468E+04 -6.689595E+03 -2.909048E+04
       304   1  2.059090E+04  2.563560E+05  3.545725E+04 -7.649092E+04  1.509908E+03  1.691557E+04
       304   2 -2.570330E+04  1.153922E+05 -1.052447E+04 -1.699362E+04 -2.818831E+03  1.040801E+04
       304   3 -5.867763E+04 -2.181128E+04 -4.903686E+04 -7.213057E+04 -6.826472E+03  3.903462E+03
       304   4  1.018073E+04  2.143844E+05  2.542219E+04 -7.378083E+04  1.506424E+03  1.896876E+04
       304   5 -1.599718E+03  2.124985E+05  1.291546E+04 -1.647298E+04 -2.821890E+03  1.231524E+04
       304   6 -3.394644E+01  2.143817E+05  7.981947E+03 -7.379779E+04 -6.829137E+03  5.663288E+03
       304   7 -2.295337E+02  1.724145E+05  1.538702E+04 -7.107092E+04  1.502959E+03  2.102182E+04
       304   8  2.250317E+04  3.096134E+05  3.635472E+04 -1.595225E+04 -2.824945E+03  1.422277E+04
       304   9  5.860567E+04  4.506256E+05  6.499677E+04 -7.546561E+04 -6.831811E+03  7.423781E+03
       304  10  2.059082E+04  2.563556E+05  3.545671E+04 -7.649094E+04  2.952199E-10 -1.791472E-10
       304  11 -2.570333E+04  1.153920E+05 -1.052469E+04 -1.699360E+04  4.643232E-10  4.292597E-10
       304  12 -5.867768E+04 -2.181131E+04 -4.903697E+04 -7.213055E+04 -7.252761E-10  3.559346E-10
       304  13  1.018063E+04  2.143840E+05  2.542151E+04 -7.378085E+04  3.802752E-10 -5.032344E-10
       304  14 -1.599767E+03  2.124983E+05  1.291516E+04 -1.647295E+04  7.550888E-10  3.532812E-10
       304  15 -3.400513E+01  2.143816E+05  7.981799E+03 -7.379775E+04  7.238034E-10 -5.821562E-10
       304  16 -2.296547E+02  1.724141E+05  1.538618E+04 -7.107094E+04  1.740235E-10  2.025148E-10
       304  17  2.250311E+04  3.096132E+05  3.635432E+04 -1.595222E+04 -1.203696E-09 -1.342120E-09
       304  18  5.860560E+04  4.506255E+05  6.499658E+04 -7.546557E+04 -2.472883E-10 -3.481774E-10
       304  19  2.059090E+04  2.563560E+05  3.545725E+04 -7.649092E+04 -1.509908E+03 -1.691557E+04
       304  20 -2.570330E+04  1.153922E+05 -1.052447E+04 -1.699362E+04  2.818831E+03 -1.040801E+04
       304  21 -5.867763E+04 -2.181128E+04 -4.903686E+04 -7.213057E+04  6.826472E+03 -3.903462E+03
       304  22  1.018073E+04  2.143844E+05  2.542219E+04 -7.378083E+04 -1.506424E+03 -1.896876E+04
       304  23 -1.599718E+03  2.124985E+05  1.291546E+04 -1.647298E+04  2.821890E+03 -1.231524E+04
       304  24 -3.394644E+01  2.143817E+05  7.981947E+03 -7.379779E+04  6.829137E+03 -5.663288E+03
       304  25 -2.295337E+02  1.724145E+05  1.538702E+04 -7.107092E+04 -1.502959E+03 -2.102182E+04
       304  26  2.250317E+04  3.096134E+05  3.635472E+04 -1.595225E+04  2.824945E+03 -1.422277E+04
       304  27  5.860567E+04  4.506256E+05  6.499677E+04 -7.546561E+04  6.831811E+03 -7.423781E+03
       305   1 -1.098595E+05 -2.333207E+05 -1.016590E+05 -7.380674E+04 -1.253636E+04 -1.751310E+03
       305   2 -1.461013E+05 -3.730518E+05 -1.375186E+05 -1.586090E+04 -1.772757E+04  3.816544E+03
       305   3 -1.788489E+05 -5.124222E+05 -1.760975E+05 -7.252645E+04 -6.403862E+03  9.398914E+03
       305   4  1.195920E+03  2.138685E+05  6.419019E+03 -7.378609E+04 -1.254481E+04  4.377928E+03
       305   5 -6.144565E+02  2.130321E+05  3.757826E+03 -1.648371E+04 -1.772501E+04  2.417733E+03
       305   6  2.375945E+03  2.138434E+05  3.606221E+03 -7.378589E+04 -6.397187E+03  4.734324E+02
       305   7  1.122367E+05  6.612407E+05  1.144828E+05 -7.376534E+04 -1.255325E+04  1.051157E+04
       305   8  1.448474E+05  7.994302E+05  1.450097E+05 -1.710703E+04 -1.772246E+04  1.017605E+03
       305   9  1.835614E+05  9.405885E+05  1.832710E+05 -7.504671E+04 -6.390480E+03 -8.462486E+03
       305  10 -1.098597E+05 -2.333208E+05 -1.016593E+05 -7.380676E+04  6.401707E-11  2.529329E-11
       305  11 -1.461017E+05 -3.730519E+05 -1.375192E+05 -1.586084E+04  1.947846E-10  4.971675E-10
       305  12 -1.788489E+05 -5.124223E+05 -1.760977E+05 -7.252640E+04  6.599450E-11  1.432500E-10
       305  13  1.195746E+03  2.138685E+05  6.418687E+03 -7.378604E+04 -4.977413E-10 -3.858982E-10
       305  14 -6.147955E+02  2.130320E+05  3.757225E+03 -1.648368E+04  2.641847E-10  2.138173E-10
       305  15  2.375901E+03  2.138434E+05  3.606144E+03 -7.378589E+04 -2.976580E-10 -1.403089E-10
       305  16  1.122365E+05  6.612405E+05  1.144823E+05 -7.376524E+04  9.219671E-10 -6.120684E-11
       305  17  1.448470E+05  7.994301E+05  1.450091E+05 -1.710701E+04 -4.349128E-11 -9.951416E-10
       305  18  1.835613E+05  9.405885E+05  1.832708E+05 -7.504675E+04 -6.291026E-10 -1.055050E-10
       305  19 -1.098595E+05 -2.333207E+05 -1.016590E+05 -7.380674E+04  1.253636E+04  1.751310E+03
       305  20 -1.461013E+05 -3.730518E+05 -1.375186E+05 -1.586090E+04  1.772757E+04 -3.816544E+03
       305  21 -1.788489E+05 -5.124222E+05 -1.760975E+05 -7.252645E+04  6.403862E+03 -9.398914E+03
       305  22  1.195920E+03  2.138685E+05  6.419019E+03 -7.378609E+04  1.254481E+04 -4.377928E+03
       305  23 -6.144565E+02  2.130321E+05  3.757826E+03 -1.648371E+04  1.772501E+04 -2.417733E+03
       305  24  2.375945E+03  2.138434E+05  3.606221E+03 -7.378589E+04  6.397187E+03 -4.734324E+02
       305  25  1.122367E+05  6.612407E+05  1.144828E+05 -7.376534E+04  1.255325E+04 -1.051157E+04
       305  26  1.448474E+05  7.994302E+05  1.450097E+05 -1.710703E+04  1.772246E+04 -1.017605E+03
       305  27  1.835614E+05  9.405885E+05  1.832710E+05 -7.504671E+04  6.390480E+03  8.462486E+03
       306   1 -1.730922E+06 -5.524867E+05 -3.543995E+05 -6.039111E+05 -1.711158E+05 -6.044600E+04
       306   2 -1.682401E+06 -2.973469E+05 -1.946847E+05 -6.291362E+05 -1.111203E+05 -3.015355E+04
       306   3 -1.722017E+06 -2.959514E+05 -1.480278E+05 -6.043690E+05 -4.826834E+04 -7.456052E+03
       306   4 -1.425284E+06 -3.859080E+05 -2.608292E+05 -4.682491E+05 -1.666660E+05 -5.879081E+04
       306   5 -1.368113E+06 -1.647387E+05 -1.082525E+05 -5.287836E+05 -1.098809E+05 -2.969149E+04
       306   6 -1.398395E+06 -1.966063E+05 -6.614212E+04 -5.393397E+05 -5.023952E+04 -8.194314E+03
       306   7 -1.119549E+06 -2.192886E+05 -1.672678E+05 -3.325165E+05 -1.622137E+05 -5.713378E+04
       306   8 -1.053729E+06 -3.211754E+04 -2.182942E+04 -4.283827E+05 -1.086408E+05 -2.922910E+04
       306   9 -1.074673E+06 -9.726263E+04  1.573549E+04 -4.742838E+05 -5.221181E+04 -8.932817E+03
       306  10 -1.730954E+06 -5.524986E+05 -3.544616E+05 -6.039195E+05  3.694189E-10 -3.097079E-10
       306  11 -1.682415E+06 -2.973512E+05 -1.947097E+05 -6.291389E+05  3.851747E-10 -2.326937E-10
       306  12 -1.722020E+06 -2.959521E+05 -1.480323E+05 -6.043693E+05  5.894816E-10  1.529539E-10
       306  13 -1.425315E+06 -3.859192E+05 -2.608881E+05 -4.682570E+05  9.284249E-10 -1.690497E-10
       306  14 -1.368126E+06 -1.647429E+05 -1.082769E+05 -5.287863E+05 -2.886247E-10 -5.132577E-10
       306  15 -1.398398E+06 -1.966071E+05 -6.614700E+04 -5.393401E+05 -4.527327E-10  8.818185E-11
       306  16 -1.119578E+06 -2.192992E+05 -1.673235E+05 -3.325240E+05 -3.092862E-10 -7.021491E-11
       306  17 -1.053742E+06 -3.212163E+04 -2.185326E+04 -4.283853E+05 -1.666636E-10 -1.273243E-10
       306  18 -1.074676E+06 -9.726345E+04  1.573020E+04 -4.742842E+05 -8.304013E-11  2.096617E-10
       306  19 -1.730922E+06 -5.524867E+05 -3.543995E+05 -6.039111E+05  1.711158E+05  6.044600E+04
       306  20 -1.682401E+06 -2.973469E+05 -1.946847E+05 -6.291362E+05  1.111203E+05  3.015355E+04
       306  21 -1.722017E+06 -2.959514E+05 -1.480278E+05 -6.043690E+05  4.826834E+04  7.456052E+03
       306  22 -1.425284E+06 -3.859080E+05 -2.608292E+05 -4.682491E+05  1.666660E+05  5.879081E+04
       306  23 -1.368113E+06 -1.647387E+05 -1.082525E+05 -5.287836E+05  1.098809E+05  2.969149E+04
       306  24 -1.398395E+06 -1.966063E+05 -6.614212E+04 -5.393397E+05  5.023952E+04  8.194314E+03
       306  25 -1.119549E+06 -2.192886E+05 -1.672678E+05 -3.325165E+05  1.622137E+05  5.713378E+04
       306  26 -1.053729E+06 -3.211754E+04 -2.182942E+04 -4.283827E+05  1.086408E+05  2.922910E+04
       306  27 -1.074673E+06 -9.726263E+04  1.573549E+04 -4.742838E+05  5.221181E+04  8.932817E+03
       307   1 -1.661367E+06 -3.328277E+05 -1.276678E+05 -6.035657E+05 -4.021650E+04 -6.213068E+03
       307   2 -1.642903E+06 -2.904320E+05 -9.372197E+04 -5.949005E+05 -2.650486E+04 -1.234766E+03
       307   3 -1.623910E+06 -2.894726E+05 -7.771331E+04 -5.939392E+05 -1.252104E+04  3.019064E+03
       307   4 -1.389498E+06 -2.249562E+05 -5.396776E+04 -5.238509E+05 -4.013621E+04 -6.183646E+03
       307   5 -1.388227E+06 -1.932178E+05 -2.555670E+04 -5.241402E+05 -2.672756E+04 -1.318606E+03
       307   6 -1.386362E+06 -2.028479E+05 -1.483622E+04 -5.321343E+05 -1.304721E+04  2.821715E+03
       307   7 -1.117556E+06 -1.170778E+05  1.972584E+04 -4.441036E+05 -4.005587E+04 -6.154206E+03
       307   8 -1.133487E+06 -9.599916E+04  4.260296E+04 -4.533534E+05 -2.695036E+04 -1.402483E+03
       307   9 -1.148759E+06 -1.162208E+05  4.803602E+04 -4.703084E+05 -1.357361E+04  2.624289E+03
       307  10 -1.661369E+06 -3.328281E+05 -1.276710E+05 -6.035659E+05  2.682079E-10  3.868315E-10
       307  11 -1.642904E+06 -2.904322E+05 -9.372330E+04 -5.949005E+05  4.548064E-10 -1.837338E-10
       307  12 -1.623910E+06 -2.894727E+05 -7.771363E+04 -5.939392E+05 -4.604684E-10 -2.693026E-10
       307  13 -1.389499E+06 -2.249567E+05 -5.397087E+04 -5.238511E+05 -4.494445E-10  1.878260E-10
       307  14 -1.388228E+06 -1.932180E+05 -2.555805E+04 -5.241402E+05  5.752293E-12  2.357851E-10
       307  15 -1.386362E+06 -2.028480E+05 -1.483656E+04 -5.321343E+05 -5.246718E-11 -1.281434E-10
       307  16 -1.117558E+06 -1.170783E+05  1.972275E+04 -4.441038E+05 -6.399922E-10 -4.411000E-11
       307  17 -1.133488E+06 -9.599935E+04  4.260159E+04 -4.533534E+05 -1.058333E-09  1.929337E-10
       307  18 -1.148759E+06 -1.162208E+05  4.803566E+04 -4.703084E+05 -5.652578E-11  1.129560E-10
       307  19 -1.661367E+06 -3.328277E+05 -1.276678E+05 -6.035657E+05  4.021650E+04  6.213068E+03
       307  20 -1.642903E+06 -2.904320E+05 -9.372197E+04 -5.949005E+05  2.650486E+04  1.234766E+03
       307  21 -1.623910E+06 -2.894726E+05 -7.771331E+04 -5.939392E+05  1.252104E+04 -3.019064E+03
       307  22 -1.389498E+06 -2.249562E+05 -5.396776E+04 -5.238509E+05  4.013621E+04  6.183646E+03
       307  23 -1.388227E+06 -1.932178E+05 -2.555670E+04 -5.241402E+05  2.672756E+04  1.318606E+03
       307  24 -1.386362E+06 -2.028479E+05 -1.483622E+04 -5.321343E+05  1.304721E+04 -2.821715E+03
       307  25 -1.117556E+06 -1.170778E+05  1.972584E+04 -4.441036E+05  4.005587E+04  6.154206E+03
       307  26 -1.133487E+06 -9.599916E+04  4.260296E+04 -4.533534E+05  2.695036E+04  1.402483E+03
       307  27 -1.148759E+06 -1.162208E+05  4.803602E+04 -4.703084E+05  1.357361E+04 -2.624289E+03
       308   1 -1.585101E+06 -2.821175E+05 -6.503960E+04 -5.855445E+05 -1.032762E+04  3.137579E+03
       308   2 -1.569427E+06 -2.634888E+05 -5.353613E+04 -5.719251E+05 -6.932409E+03  3.444132E+03
       308   3 -1.541242E+06 -2.623117E+05 -4.521927E+04 -5.737217E+05 -3.502846E+03  3.658031E+03
       308   4 -1.384948E+06 -2.063278E+05 -1.163673E+04 -5.305488E+05 -1.067049E+04  3.008948E+03
       308   5 -1.391025E+06 -1.963247E+05 -5.960757E+03 -5.233198E+05 -7.313775E+03  3.301184E+03
       308   6 -1.384584E+06 -2.037650E+05 -3.440008E+03 -5.315068E+05 -3.922822E+03  3.500731E+03
       308   7 -1.184757E+06 -1.305358E+05  4.176250E+04 -4.755373E+05 -1.101348E+04  2.880272E+03
       308   8 -1.212592E+06 -1.291588E+05  4.161184E+04 -4.747019E+05 -7.695262E+03  3.158190E+03
       308   9 -1.227902E+06 -1.452168E+05  3.833722E+04 -4.892823E+05 -4.342915E+03  3.343389E+03
       308  10 -1.585101E+06 -2.821176E+05 -6.503981E+04 -5.855444E+05 -5.468936E-10 -3.908827E-10
       308  11 -1.569427E+06 -2.634888E+05 -5.353624E+04 -5.719251E+05  3.759877E-11 -7.232817E-11
       308  12 -1.541242E+06 -2.623118E+05 -4.521932E+04 -5.737217E+05 -2.739088E-10  1.972088E-10
       308  13 -1.384948E+06 -2.063279E+05 -1.163696E+04 -5.305488E+05  3.029922E-10  4.334101E-11
       308  14 -1.391025E+06 -1.963248E+05 -5.960878E+03 -5.233198E+05 -2.112469E-10 -2.175178E-10
       308  15 -1.384584E+06 -2.037650E+05 -3.440060E+03 -5.315068E+05  1.342089E-10 -1.226580E-10
       308  16 -1.184757E+06 -1.305358E+05  4.176226E+04 -4.755372E+05  2.862538E-10 -1.498318E-10
       308  17 -1.212592E+06 -1.291589E+05  4.161170E+04 -4.747019E+05  9.789446E-11  7.912624E-11
       308  18 -1.227902E+06 -1.452168E+05  3.833716E+04 -4.892823E+05  5.281833E-10  1.347831E-10
       308  19 -1.585101E+06 -2.821175E+05 -6.503960E+04 -5.855445E+05  1.032762E+04 -3.137579E+03
       308  20 -1.569427E+06 -2.634888E+05 -5.353613E+04 -5.719251E+05  6.932409E+03 -3.444132E+03
       308  21 -1.541242E+06 -2.623117E+05 -4.521927E+04 -5.737217E+05  3.502846E+03 -3.658031E+03
       308  22 -1.384948E+06 -2.063278E+05 -1.163673E+04 -5.305488E+05  1.067049E+04 -3.008948E+03
       308  23 -1.391025E+06 -1.963247E+05 -5.960757E+03 -5.233198E+05  7.313775E+03 -3.301184E+03
       308  24 -1.384584E+06 -2.037650E+05 -3.440008E+03 -5.315068E+05  3.922822E+03 -3.500731E+03
       308  25 -1.184757E+06 -1.305358E+05  4.176250E+04 -4.755373E+05  1.101348E+04 -2.880272E+03
       308  26 -1.212592E+06 -1.291588E+05  4.161184E+04 -4.747019E+05  7.695262E+03 -3.158190E+03
       308  27 -1.227902E+06 -1.452168E+05  3.833722E+04 -4.892823E+05  4.342915E+03 -3.343389E+03
       309   1 -1.503051E+06 -2.489564E+05 -3.428540E+04 -5.638037E+05 -2.803376E+03  3.275215E+03
       309   2 -1.487096E+06 -2.324163E+05 -2.708195E+04 -5.489946E+05 -1.622463E+03  2.623709E+03
       309   3 -1.456540E+06 -2.311566E+05 -2.060134E+04 -5.511660E+05 -4.335254E+02  1.950040E+03
       309   4 -1.384259E+06 -2.042913E+05 -2.699903E+03 -5.314759E+05 -3.207562E+03  3.123884E+03
       309   5 -1.391541E+06 -1.965166E+05 -1.614741E+03 -5.230360E+05 -2.035926E+03  2.468961E+03
       309   6 -1.384220E+06 -2.040201E+05 -1.244872E+03 -5.315767E+05 -8.563027E+02  1.791868E+03
       309   7 -1.265454E+06 -1.596254E+05  2.888436E+04 -4.991425E+05 -3.611833E+03  2.972521E+03
       309   8 -1.295977E+06 -1.606164E+05  2.385163E+04 -4.970739E+05 -2.449459E+03  2.314188E+03
       309   9 -1.311894E+06 -1.768835E+05  1.811109E+04 -5.119854E+05 -1.279133E+03  1.633675E+03
       309  10 -1.503051E+06 -2.489564E+05 -3.428543E+04 -5.638037E+05 -6.063921E-10  2.861704E-10
       309  11 -1.487096E+06 -2.324163E+05 -2.708196E+04 -5.489946E+05  4.107025E-10  8.472576E-10
       309  12 -1.456540E+06 -2.311566E+05 -2.060135E+04 -5.511660E+05  3.749248E-10 -4.144698E-10
       309  13 -1.384259E+06 -2.042913E+05 -2.699941E+03 -5.314759E+05  3.013502E-11 -3.288063E-10
       309  14 -1.391541E+06 -1.965166E+05 -1.614760E+03 -5.230360E+05 -4.085234E-10  3.498453E-10
       309  15 -1.384220E+06 -2.040201E+05 -1.244879E+03 -5.315767E+05  1.514293E-10  5.921459E-10
       309  16 -1.265454E+06 -1.596254E+05  2.888432E+04 -4.991425E+05 -6.186523E-11 -2.030089E-10
       309  17 -1.295977E+06 -1.606164E+05  2.385161E+04 -4.970739E+05 -1.515469E-11 -5.360781E-10
       309  18 -1.311894E+06 -1.768835E+05  1.811108E+04 -5.119854E+05 -3.606095E-10 -1.035506E-09
       309  19 -1.503051E+06 -2.489564E+05 -3.428540E+04 -5.638037E+05  2.803376E+03 -3.275215E+03
       309  20 -1.487096E+06 -2.324163E+05 -2.708195E+04 -5.489946E+05  1.622463E+03 -2.623709E+03
       309  21 -1.456540E+06 -2.311566E+05 -2.060134E+04 -5.511660E+05  4.335254E+02 -1.950040E+03
       309  22 -1.384259E+06 -2.042913E+05 -2.699903E+03 -5.314759E+05  3.207562E+03 -3.123884E+03
       309  23 -1.391541E+06 -1.965166E+05 -1.614741E+03 -5.230360E+05  2.035926E+03 -2.468961E+03
       309  24 -1.384220E+06 -2.040201E+05 -1.244872E+03 -5.315767E+05  8.563027E+02 -1.791868E+03
       309  25 -1.265454E+06 -1.596254E+05  2.888436E+04 -4.991425E+05  3.611833E+03 -2.972521E+03
       309  26 -1.295977E+06 -1.606164E+05  2.385163E+04 -4.970739E+05  2.449459E+03 -2.314188E+03
       309  27 -1.311894E+06 -1.768835E+05  1.811109E+04 -5.119854E+05  1.279133E+03 -1.633675E+03
       310   1 -1.417429E+06 -2.166121E+05 -1.000710E+04 -5.407300E+05 -1.343789E+01  1.447779E+03
       310   2 -1.401190E+06 -2.000310E+05 -4.029904E+03 -5.255383E+05  1.101143E+03  7.350454E+02
       310   3 -1.370052E+06 -1.989769E+05  1.290273E+03 -5.276811E+05  2.214893E+03  2.456711E+01
       310   4 -1.384155E+06 -2.040922E+05 -1.222979E+03 -5.316486E+05 -4.362124E+02  1.289631E+03
       310   5 -1.391619E+06 -1.964375E+05 -1.479627E+03 -5.229404E+05  6.793313E+02  5.772609E+02
       310   6 -1.384186E+06 -2.043102E+05 -2.394150E+03 -5.315671E+05  1.794011E+03 -1.328631E+02
       310   7 -1.350880E+06 -1.915723E+05  7.561073E+03 -5.225667E+05 -8.590130E+02  1.131474E+03
       310   8 -1.382049E+06 -1.928441E+05  1.070646E+03 -5.203425E+05  2.575118E+02  4.194736E+02
       310   9 -1.398320E+06 -2.096436E+05 -6.078588E+03 -5.354531E+05  1.373140E+03 -2.902893E+02
       310  10 -1.417429E+06 -2.166121E+05 -1.000710E+04 -5.407300E+05  2.064119E-10  4.106079E-10
       310  11 -1.401190E+06 -2.000310E+05 -4.029907E+03 -5.255383E+05 -7.130624E-10 -6.335342E-10
       310  12 -1.370052E+06 -1.989769E+05  1.290263E+03 -5.276811E+05  1.398743E-10  3.195338E-10
       310  13 -1.384155E+06 -2.040922E+05 -1.222982E+03 -5.316486E+05  3.616272E-10 -5.555377E-10
       310  14 -1.391619E+06 -1.964375E+05 -1.479629E+03 -5.229404E+05  7.139399E-10  1.769180E-09
       310  15 -1.384186E+06 -2.043102E+05 -2.394156E+03 -5.315671E+05  3.733261E-10  4.082787E-10
       310  16 -1.350880E+06 -1.915723E+05  7.561069E+03 -5.225667E+05 -1.227276E-10 -9.889136E-11
       310  17 -1.382049E+06 -1.928441E+05  1.070645E+03 -5.203425E+05 -9.130473E-10 -5.292411E-10
       310  18 -1.398320E+06 -2.096436E+05 -6.078592E+03 -5.354531E+05 -7.954948E-10 -1.803861E-10
       310  19 -1.417429E+06 -2.166121E+05 -1.000710E+04 -5.407300E+05  1.343789E+01 -1.447779E+03
       310  20 -1.401190E+06 -2.000310E+05 -4.029904E+03 -5.255383E+05 -1.101143E+03 -7.350454E+02
       310  21 -1.370052E+06 -1.989769E+05  1.290273E+03 -5.276811E+05 -2.214893E+03 -2.456711E+01
       310  22 -1.384155E+06 -2.040922E+05 -1.222979E+03 -5.316486E+05  4.362124E+02 -1.289631E+03
       310  23 -1.391619E+06 -1.964375E+05 -1.479627E+03 -5.229404E+05 -6.793313E+02 -5.772609E+02
       310  24 -1.384186E+06 -2.043102E+05 -2.394150E+03 -5.315671E+05 -1.794011E+03  1.328631E+02
       310  25 -1.350880E+06 -1.915723E+05  7.561073E+03 -5.225667E+05  8.590130E+02 -1.131474E+03
       310  26 -1.382049E+06 -1.928441E+05  1.070646E+03 -5.203425E+05 -2.575118E+02 -4.194736E+02
       310  27 -1.398320E+06 -2.096436E+05 -6.078588E+03 -5.354531E+05 -1.373140E+03  2.902893E+02
       311   1 -1.330882E+06 -1.841521E+05  1.125494E+04 -5.175003E+05  2.892268E+03 -3.898333E+02
       311   2 -1.314640E+06 -1.672525E+05  1.523275E+04 -5.021202E+05  5.893334E+03 -3.919442E+02
       311   3 -1.284862E+06 -1.682306E+05  1.646323E+04 -5.032742E+05  8.871984E+03 -3.332540E+02
       311   4 -1.384368E+06 -2.039619E+05 -3.031617E+03 -5.317157E+05  2.458672E+03 -5.520323E+02
       311   5 -1.391291E+06 -1.961337E+05 -5.209577E+03 -5.230328E+05  5.485282E+03 -5.446364E+02
       311   6 -1.384684E+06 -2.061886E+05 -1.015542E+04 -5.308844E+05  8.489374E+03 -4.764765E+02
       311   7 -1.437851E+06 -2.237715E+05 -1.731839E+04 -5.459300E+05  2.025118E+03 -7.142161E+02
       311   8 -1.467937E+06 -2.250145E+05 -2.565242E+04 -5.439431E+05  5.077285E+03 -6.973079E+02
       311   9 -1.484497E+06 -2.441460E+05 -3.677501E+04 -5.584906E+05  8.106830E+03 -6.196734E+02
       311  10 -1.330882E+06 -1.841521E+05  1.125493E+04 -5.175003E+05  6.172227E-10  4.467970E-10
       311  11 -1.314640E+06 -1.672525E+05  1.523269E+04 -5.021202E+05  6.821203E-10  8.263979E-10
       311  12 -1.284862E+06 -1.682306E+05  1.646308E+04 -5.032742E+05  6.667768E-10 -2.375571E-11
       311  13 -1.384368E+06 -2.039619E+05 -3.031629E+03 -5.317157E+05  8.112931E-10  6.666115E-10
       311  14 -1.391291E+06 -1.961337E+05 -5.209634E+03 -5.230328E+05 -4.109838E-10 -3.228892E-10
       311  15 -1.384684E+06 -2.061886E+05 -1.015556E+04 -5.308844E+05  2.075954E-10 -3.159045E-10
       311  16 -1.437851E+06 -2.237715E+05 -1.731840E+04 -5.459300E+05 -3.583970E-10 -5.970900E-10
       311  17 -1.467937E+06 -2.250145E+05 -2.565247E+04 -5.439431E+05  3.737132E-10  1.037100E-09
       311  18 -1.484497E+06 -2.441460E+05 -3.677514E+04 -5.584906E+05 -5.025415E-10 -3.354063E-10
       311  19 -1.330882E+06 -1.841521E+05  1.125494E+04 -5.175003E+05 -2.892268E+03  3.898333E+02
       311  20 -1.314640E+06 -1.672525E+05  1.523275E+04 -5.021202E+05 -5.893334E+03  3.919442E+02
       311  21 -1.284862E+06 -1.682306E+05  1.646323E+04 -5.032742E+05 -8.871984E+03  3.332540E+02
       311  22 -1.384368E+06 -2.039619E+05 -3.031617E+03 -5.317157E+05 -2.458672E+03  5.520323E+02
       311  23 -1.391291E+06 -1.961337E+05 -5.209577E+03 -5.230328E+05 -5.485282E+03  5.446364E+02
       311  24 -1.384684E+06 -2.061886E+05 -1.015542E+04 -5.308844E+05 -8.489374E+03  4.764765E+02
       311  25 -1.437851E+06 -2.237715E+05 -1.731839E+04 -5.459300E+05 -2.025118E+03  7.142161E+02
       311  26 -1.467937E+06 -2.250145E+05 -2.565242E+04 -5.439431E+05 -5.077285E+03  6.973079E+02
       311  27 -1.484497E+06 -2.441460E+05 -3.677501E+04 -5.584906E+05 -8.106830E+03  6.196734E+02
       312   1 -1.245935E+06 -1.530429E+05  2.395735E+04 -4.968085E+05  1.112682E+04 -2.178872E+02
       312   2 -1.229285E+06 -1.320956E+05  2.049675E+04 -4.789633E+05  2.289560E+04  3.102793E+03
       312   3 -1.209071E+06 -1.502395E+05  1.784630E+03 -4.713975E+05  3.445736E+04  6.978144E+03
       312   4 -1.385834E+06 -2.032437E+05 -1.294427E+04 -5.323657E+05  1.060165E+04 -4.144639E+02
       312   5 -1.388954E+06 -1.933124E+05 -2.227977E+04 -5.236204E+05  2.260380E+04  2.993386E+03
       312   6 -1.388560E+06 -2.225231E+05 -4.705516E+04 -5.251547E+05  3.439851E+04  6.955655E+03
       312   7 -1.525715E+06 -2.534439E+05 -4.984755E+04 -5.679157E+05  1.007660E+04 -6.109969E+02
       312   8 -1.548599E+06 -2.545273E+05 -6.505847E+04 -5.682670E+05  2.231209E+04  2.884011E+03
       312   9 -1.568018E+06 -2.948032E+05 -9.589774E+04 -5.788973E+05  3.433967E+04  6.933174E+03
       312  10 -1.245935E+06 -1.530429E+05  2.395711E+04 -4.968085E+05  3.948388E-10 -6.789872E-10
       312  11 -1.229285E+06 -1.320958E+05  2.049574E+04 -4.789634E+05 -4.525714E-11 -9.819918E-10
       312  12 -1.209072E+06 -1.502399E+05  1.782303E+03 -4.713977E+05 -2.253450E-10 -5.560409E-10
       312  13 -1.385835E+06 -2.032438E+05 -1.294448E+04 -5.323657E+05  4.836909E-10 -3.261548E-10
       312  14 -1.388955E+06 -1.933125E+05 -2.228074E+04 -5.236205E+05 -9.634269E-11  1.697485E-10
       312  15 -1.388561E+06 -2.225234E+05 -4.705748E+04 -5.251549E+05 -7.591911E-11 -6.405509E-10
       312  16 -1.525715E+06 -2.534439E+05 -4.984775E+04 -5.679157E+05 -6.011827E-10  2.175744E-10
       312  17 -1.548600E+06 -2.545274E+05 -6.505942E+04 -5.682671E+05 -1.234477E-10  1.054110E-10
       312  18 -1.568019E+06 -2.948036E+05 -9.590005E+04 -5.788975E+05 -8.124742E-11 -2.286977E-10
       312  19 -1.245935E+06 -1.530429E+05  2.395735E+04 -4.968085E+05 -1.112682E+04  2.178872E+02
       312  20 -1.229285E+06 -1.320956E+05  2.049675E+04 -4.789633E+05 -2.289560E+04 -3.102793E+03
       312  21 -1.209071E+06 -1.502395E+05  1.784630E+03 -4.713975E+05 -3.445736E+04 -6.978144E+03
       312  22 -1.385834E+06 -2.032437E+05 -1.294427E+04 -5.323657E+05 -1.060165E+04  4.144639E+02
       312  23 -1.388954E+06 -1.933124E+05 -2.227977E+04 -5.236204E+05 -2.260380E+04 -2.993386E+03
       312  24 -1.388560E+06 -2.225231E+05 -4.705516E+04 -5.251547E+05 -3.439851E+04 -6.955655E+03
       312  25 -1.525715E+06 -2.534439E+05 -4.984755E+04 -5.679157E+05 -1.007660E+04  6.109969E+02
       312  26 -1.548599E+06 -2.545273E+05 -6.505847E+04 -5.682670E+05 -2.231209E+04 -2.884011E+03
       312  27 -1.568018E+06 -2.948032E+05 -9.589774E+04 -5.788973E+05 -3.433967E+04 -6.933174E+03
       313   1 -1.163307E+06 -1.298587E+05  5.999390E+02 -4.955452E+05  4.486793E+04  9.302227E+03
       313   2 -1.141331E+06 -6.944328E+04 -3.074656E+04 -4.521298E+05  9.446318E+04  2.686149E+04
       313   3 -1.191700E+06 -2.325578E+05 -1.564156E+05 -3.691563E+05  1.418518E+05  5.031636E+04
       313   4 -1.396268E+06 -1.978600E+05 -5.766967E+04 -5.387183E+05  4.321690E+04  8.685164E+03
       313   5 -1.371506E+06 -1.683886E+05 -9.437452E+04 -5.275636E+05  9.530479E+04  2.717444E+04
       313   6 -1.419619E+06 -3.629969E+05 -2.274083E+05 -4.768437E+05  1.451855E+05  5.155394E+04
       313   7 -1.629176E+06 -2.658626E+05 -1.159434E+05 -5.818792E+05  4.156655E+04  8.068223E+03
       313   8 -1.601629E+06 -2.673260E+05 -1.580073E+05 -6.029704E+05  9.614606E+04  2.748721E+04
       313   9 -1.647481E+06 -4.934079E+05 -2.984055E+05 -5.844881E+05  1.485179E+05  5.279041E+04
       313  10 -1.163310E+06 -1.298594E+05  5.959849E+02 -4.955456E+05 -4.539547E-10 -2.253357E-10
       313  11 -1.141341E+06 -6.944646E+04 -3.076472E+04 -4.521319E+05 -5.683143E-10 -1.155026E-10
       313  12 -1.191722E+06 -2.325659E+05 -1.564583E+05 -3.691620E+05 -2.767526E-10  2.360593E-10
       313  13 -1.396270E+06 -1.978606E+05 -5.767333E+04 -5.387186E+05 -2.672355E-10 -5.999261E-10
       313  14 -1.371516E+06 -1.683919E+05 -9.439303E+04 -5.275657E+05  1.235537E-10  4.502631E-10
       313  15 -1.419642E+06 -3.630054E+05 -2.274531E+05 -4.768498E+05 -6.256364E-10  1.345598E-10
       313  16 -1.629178E+06 -2.658631E+05 -1.159468E+05 -5.818794E+05  2.827880E-10 -1.425269E-10
       313  17 -1.601639E+06 -2.673293E+05 -1.580262E+05 -6.029726E+05 -3.584625E-10 -5.321895E-10
       313  18 -1.647505E+06 -4.934169E+05 -2.984523E+05 -5.844945E+05 -2.361986E-10 -5.306688E-11
       313  19 -1.163307E+06 -1.298587E+05  5.999390E+02 -4.955452E+05 -4.486793E+04 -9.302227E+03
       313  20 -1.141331E+06 -6.944328E+04 -3.074656E+04 -4.521298E+05 -9.446318E+04 -2.686149E+04
       313  21 -1.191700E+06 -2.325578E+05 -1.564156E+05 -3.691563E+05 -1.418518E+05 -5.031636E+04
       313  22 -1.396268E+06 -1.978600E+05 -5.766967E+04 -5.387183E+05 -4.321690E+04 -8.685164E+03
       313  23 -1.371506E+06 -1.683886E+05 -9.437452E+04 -5.275636E+05 -9.530479E+04 -2.717444E+04
       313  24 -1.419619E+06 -3.629969E+05 -2.274083E+05 -4.768437E+05 -1.451855E+05 -5.155394E+04
       313  25 -1.629176E+06 -2.658626E+05 -1.159434E+05 -5.818792E+05 -4.156655E+04 -8.068223E+03
       313  26 -1.601629E+06 -2.673260E+05 -1.580073E+05 -6.029704E+05 -9.614606E+04 -2.748721E+04
       313  27 -1.647481E+06 -4.934079E+05 -2.984055E+05 -5.844881E+05 -1.485179E+05 -5.279041E+04
       314   1  1.658029E+06  3.439143E+05  4.879800E+05  1.247586E+05  4.486623E+05  7.977597E+03
       314   2  1.623209E+06 -2.517216E+05  1.287649E+05  4.017019E+04  2.977637E+05  2.085550E+04
       314   3  1.775582E+06 -1.803488E+05  3.463939E+04 -9.292560E+04  1.468750E+05  1.843939E+04
       314   4  2.396436E+06  5.267380E+05  6.699325E+05 -2.711449E+04  4.586157E+05  7.889800E+03
       314   5  2.302640E+06 -8.363193E+04  2.921808E+05 -2.252847E+03  3.005373E+05  2.083854E+04
       314   6  2.397036E+06 -2.618884E+04  1.842666E+05 -2.590147E+04  1.424851E+05  1.844759E+04
       314   7  3.135387E+06  7.096085E+05  8.518579E+05 -1.791682E+05  4.685806E+05  7.797248E+03
       314   8  2.982496E+06  8.443112E+04  4.555650E+05 -4.472257E+04  3.033137E+05  2.082123E+04
       314   9  3.018852E+06  1.279597E+05  3.338688E+05  4.118970E+04  1.380908E+05  1.845485E+04
       314  10  1.657814E+06  3.438603E+05  4.876026E+05  1.247558E+05 -6.599271E-10  1.061196E-09
       314  11  1.623114E+06 -2.517458E+05  1.285980E+05  4.016520E+04 -1.395977E-09 -4.086169E-10
       314  12  1.775558E+06 -1.803549E+05  3.459833E+04 -9.292779E+04 -2.072154E-10 -9.422695E-11
       314  13  2.396211E+06  5.266817E+05  6.695387E+05 -2.711741E+04 -4.317328E-11  1.585020E-10
       314  14  2.302544E+06 -8.365653E+04  2.920109E+05 -2.257885E+03 -2.041469E-09 -2.025388E-09
       314  15  2.397014E+06 -2.619463E+04  1.842280E+05 -2.590359E+04 -2.351980E-10 -4.021683E-11
       314  16  3.135152E+06  7.095498E+05  8.514472E+05 -1.791712E+05  1.835675E-10 -2.145407E-10
       314  17  2.982398E+06  8.440611E+04  4.553921E+05 -4.472765E+04 -5.292793E-10 -5.388636E-10
       314  18  3.018832E+06  1.279543E+05  3.338325E+05  4.118765E+04 -5.163550E-10 -6.088882E-10
       314  19  1.658029E+06  3.439143E+05  4.879800E+05  1.247586E+05 -4.486623E+05 -7.977597E+03
       314  20  1.623209E+06 -2.517216E+05  1.287649E+05  4.017019E+04 -2.977637E+05 -2.085550E+04
       314  21  1.775582E+06 -1.803488E+05  3.463939E+04 -9.292560E+04 -1.468750E+05 -1.843939E+04
       314  22  2.396436E+06  5.267380E+05  6.699325E+05 -2.711449E+04 -4.586157E+05 -7.889800E+03
       314  23  2.302640E+06 -8.363193E+04  2.921808E+05 -2.252847E+03 -3.005373E+05 -2.083854E+04
       314  24  2.397036E+06 -2.618884E+04  1.842666E+05 -2.590147E+04 -1.424851E+05 -1.844759E+04
       314  25  3.135387E+06  7.096085E+05  8.518579E+05 -1.791682E+05 -4.685806E+05 -7.797248E+03
       314  26  2.982496E+06  8.443112E+04  4.555650E+05 -4.472257E+04 -3.033137E+05 -2.082123E+04
       314  27  3.018852E+06  1.279597E+05  3.338688E+05  4.118970E+04 -1.380908E+05 -1.845485E+04
       315   1  1.820604E+06 -7.468584E+04  2.046411E+04 -9.707708E+03  1.134986E+05  1.490769E+04
       315   2  1.859648E+06 -1.307175E+05 -4.175347E+04 -2.258124E+02  7.496756E+04  1.411370E+04
       315   3  1.922955E+06 -1.113831E+05 -6.000105E+04 -3.286855E+04  3.643446E+04  1.213580E+04
       315   4  2.360503E+06  5.905284E+04  1.507277E+05 -2.488991E+04  1.134941E+05  1.490399E+04
       315   5  2.348387E+06 -9.656394E+03  7.597388E+04 -3.794704E+03  7.439080E+04  1.411199E+04
       315   6  2.360610E+06 -2.934502E+03  4.555877E+04 -2.482121E+04  3.528855E+04  1.213507E+04
       315   7  2.900668E+06  1.927712E+05  2.809705E+05 -4.008539E+04  1.134897E+05  1.490030E+04
       315   8  2.837344E+06  1.113874E+05  1.936842E+05 -7.366454E+03  7.381357E+04  1.411029E+04
       315   9  2.798440E+06  1.055004E+05  1.511050E+05 -1.676821E+04  3.414182E+04  1.213430E+04
       315  10  1.820590E+06 -7.468952E+04  2.043956E+04 -9.709070E+03 -9.784617E-10 -1.041888E-09
       315  11  1.859642E+06 -1.307192E+05 -4.176437E+04 -2.266641E+02 -9.882924E-10  4.578269E-10
       315  12  1.922954E+06 -1.113836E+05 -6.000381E+04 -3.286890E+04 -4.898459E-10  5.118854E-12
       315  13  2.360489E+06  5.904916E+04  1.507031E+05 -2.489127E+04 -4.707050E-10 -7.107703E-10
       315  14  2.348381E+06 -9.658086E+03  7.596314E+04 -3.795548E+03 -1.363983E-09 -3.195008E-10
       315  15  2.360609E+06 -2.934993E+03  4.555616E+04 -2.482155E+04 -2.406741E-10 -3.694679E-10
       315  16  2.900654E+06  1.927675E+05  2.809460E+05 -4.008675E+04  3.219236E-10  1.592653E-10
       315  17  2.837338E+06  1.113857E+05  1.936737E+05 -7.367292E+03  7.283940E-12 -1.552329E-09
       315  18  2.798438E+06  1.054999E+05  1.511025E+05 -1.676854E+04  7.546487E-10  1.892744E-10
       315  19  1.820604E+06 -7.468584E+04  2.046411E+04 -9.707708E+03 -1.134986E+05 -1.490769E+04
       315  20  1.859648E+06 -1.307175E+05 -4.175347E+04 -2.258124E+02 -7.496756E+04 -1.411370E+04
       315  21  1.922955E+06 -1.113831E+05 -6.000105E+04 -3.286855E+04 -3.643446E+04 -1.213580E+04
       315  22  2.360503E+06  5.905284E+04  1.507277E+05 -2.488991E+04 -1.134941E+05 -1.490399E+04
       315  23  2.348387E+06 -9.656394E+03  7.597388E+04 -3.794704E+03 -7.439080E+04 -1.411199E+04
       315  24  2.360610E+06 -2.934502E+03  4.555877E+04 -2.482121E+04 -3.528855E+04 -1.213507E+04
       315  25  2.900668E+06  1.927712E+05  2.809705E+05 -4.008539E+04 -1.134897E+05 -1.490030E+04
       315  26  2.837344E+06  1.113874E+05  1.936842E+05 -7.366454E+03 -7.381357E+04 -1.411029E+04
       315  27  2.798440E+06  1.055004E+05  1.511050E+05 -1.676821E+04 -3.414182E+04 -1.213430E+04
       316   1  1.991605E+06 -8.373933E+04 -5.185679E+04 -2.274097E+04  2.883212E+04  1.084326E+04
       316   2  2.036242E+06 -7.990707E+04 -5.711452E+04 -4.724745E+03  1.904853E+04  9.102611E+03
       316   3  2.084429E+06 -6.760523E+04 -5.386594E+04 -2.493903E+04  9.262905E+03  7.320946E+03
       316   4  2.355992E+06  6.495178E+03  3.580509E+04 -2.397795E+04  2.805840E+04  1.084247E+04
       316   5  2.354229E+06 -1.142501E+03  1.948846E+04 -4.862200E+03  1.825082E+04  9.102132E+03
       316   6  2.356016E+06 -3.093172E+02  1.169087E+04 -2.397564E+04  8.441921E+03  7.320762E+03
       316   7  2.720501E+06  9.672005E+04  1.234575E+05 -2.521567E+04  2.728423E+04  1.084168E+04
       316   8  2.672309E+06  7.761472E+04  9.608425E+04 -4.999729E+03  1.745270E+04  9.101653E+03
       316   9  2.627669E+06  6.698123E+04  7.724241E+04 -2.301183E+04  7.620580E+03  7.320576E+03
       316  10  1.991604E+06 -8.373968E+04 -5.185857E+04 -2.274122E+04  6.049367E-10  6.599736E-10
       316  11  2.036242E+06 -7.990726E+04 -5.711536E+04 -4.724884E+03  8.421758E-11 -4.089136E-10
       316  12  2.084429E+06 -6.760531E+04 -5.386620E+04 -2.493908E+04 -4.238955E-10  1.696487E-10
       316  13  2.355991E+06  6.494841E+03  3.580339E+04 -2.397819E+04 -3.377758E-11  5.917327E-11
       316  14  2.354229E+06 -1.142679E+03  1.948768E+04 -4.862333E+03  1.030368E-09 -4.630333E-11
       316  15  2.356015E+06 -3.093939E+02  1.169064E+04 -2.397569E+04  1.290196E-09 -4.721719E-11
       316  16  2.720500E+06  9.671973E+04  1.234559E+05 -2.521590E+04 -7.688128E-10  8.836600E-11
       316  17  2.672309E+06  7.761455E+04  9.608352E+04 -4.999857E+03  4.548177E-11 -1.922964E-10
       316  18  2.627669E+06  6.698115E+04  7.724220E+04 -2.301188E+04 -1.971339E-10  1.271709E-10
       316  19  1.991605E+06 -8.373933E+04 -5.185679E+04 -2.274097E+04 -2.883212E+04 -1.084326E+04
       316  20  2.036242E+06 -7.990707E+04 -5.711452E+04 -4.724745E+03 -1.904853E+04 -9.102611E+03
       316  21  2.084429E+06 -6.760523E+04 -5.386594E+04 -2.493903E+04 -9.262905E+03 -7.320946E+03
       316  22  2.355992E+06  6.495178E+03  3.580509E+04 -2.397795E+04 -2.805840E+04 -1.084247E+04
       316  23  2.354229E+06 -1.142501E+03  1.948846E+04 -4.862200E+03 -1.825082E+04 -9.102132E+03
       316  24  2.356016E+06 -3.093172E+02  1.169087E+04 -2.397564E+04 -8.441921E+03 -7.320762E+03
       316  25  2.720501E+06  9.672005E+04  1.234575E+05 -2.521567E+04 -2.728423E+04 -1.084168E+04
       316  26  2.672309E+06  7.761472E+04  9.608425E+04 -4.999729E+03 -1.745270E+04 -9.101653E+03
       316  27  2.627669E+06  6.698123E+04  7.724241E+04 -2.301183E+04 -7.620580E+03 -7.320576E+03
       317   1  2.151474E+06 -4.978879E+04 -3.975611E+04 -2.339098E+04  7.345451E+03  6.292548E+03
       317   2  2.194776E+06 -3.984664E+04 -3.280260E+04 -5.504200E+03  4.443928E+03  4.582488E+03
       317   3  2.238733E+06 -2.887571E+04 -2.370382E+04 -2.355125E+04  1.541588E+03  2.897110E+03
       317   4  2.355380E+06  6.874356E+02  9.225236E+03 -2.346601E+04  6.559201E+03  6.292492E+03
       317   5  2.355058E+06 -1.488879E+02  5.806505E+03 -5.499437E+03  3.668104E+03  4.582561E+03
       317   6  2.355387E+06  4.165653E+01  4.525375E+03 -2.346611E+04  7.763918E+02  2.897315E+03
       317   7  2.559324E+06  5.116065E+04  5.820364E+04 -2.354107E+04  5.772695E+03  6.292437E+03
       317   8  2.515363E+06  3.954700E+04  4.441378E+04 -5.494671E+03  2.892081E+03  4.582634E+03
       317   9  2.472053E+06  2.895803E+04  3.275359E+04 -2.338096E+04  1.105235E+01  2.897520E+03
       317  10  2.151474E+06 -4.978885E+04 -3.975629E+04 -2.339102E+04  3.165472E-10 -3.078161E-10
       317  11  2.194776E+06 -3.984667E+04 -3.280268E+04 -5.504216E+03 -1.259701E-09 -4.108358E-10
       317  12  2.238733E+06 -2.887572E+04 -2.370384E+04 -2.355126E+04 -2.849980E-10  4.888414E-10
       317  13  2.355380E+06  6.873815E+02  9.225081E+03 -2.346605E+04 -3.786681E-10  3.431637E-11
       317  14  2.355058E+06 -1.489141E+02  5.806440E+03 -5.499450E+03  6.512247E-10 -2.665036E-10
       317  15  2.355387E+06  4.164735E+01  4.525358E+03 -2.346612E+04  3.916265E-10  2.115014E-10
       317  16  2.559324E+06  5.116060E+04  5.820350E+04 -2.354110E+04  7.464676E-10 -1.083297E-10
       317  17  2.515363E+06  3.954698E+04  4.441373E+04 -5.494682E+03  1.016036E-09  9.175957E-11
       317  18  2.472053E+06  2.895802E+04  3.275358E+04 -2.338096E+04  1.647666E-09 -8.247927E-11
       317  19  2.151474E+06 -4.978879E+04 -3.975611E+04 -2.339098E+04 -7.345451E+03 -6.292548E+03
       317  20  2.194776E+06 -3.984664E+04 -3.280260E+04 -5.504200E+03 -4.443928E+03 -4.582488E+03
       317  21  2.238733E+06 -2.887571E+04 -2.370382E+04 -2.355125E+04 -1.541588E+03 -2.897110E+03
       317  22  2.355380E+06  6.874356E+02  9.225236E+03 -2.346601E+04 -6.559201E+03 -6.292492E+03
       317  23  2.355058E+06 -1.488879E+02  5.806505E+03 -5.499437E+03 -3.668104E+03 -4.582561E+03
       317  24  2.355387E+06  4.165653E+01  4.525375E+03 -2.346611E+04 -7.763918E+02 -2.897315E+03
       317  25  2.559324E+06  5.116065E+04  5.820364E+04 -2.354107E+04 -5.772695E+03 -6.292437E+03
       317  26  2.515363E+06  3.954700E+04  4.441378E+04 -5.494671E+03 -2.892081E+03 -4.582634E+03
       317  27  2.472053E+06  2.895803E+04  3.275359E+04 -2.338096E+04 -1.105235E+01 -2.897520E+03
       318   1  2.303564E+06 -1.274492E+04 -7.946881E+03 -2.318863E+04  7.317180E+02  1.925544E+03
       318   2  2.345948E+06 -2.384721E+03  2.920512E+03 -5.709468E+03 -1.822562E+03  2.619640E+02
       318   3  2.388856E+06  8.851933E+03  1.565893E+04 -2.335140E+04 -4.377015E+03 -1.393861E+03
       318   4  2.355362E+06  5.692846E+01  4.397507E+03 -2.328565E+04 -3.115218E+01  1.925797E+03
       318   5  2.355100E+06 -1.181294E+02  5.125024E+03 -5.725031E+03 -2.581967E+03  2.622199E+02
       318   6  2.355360E+06  5.829604E+02  7.721457E+03 -2.328546E+04 -5.132782E+03 -1.393596E+03
       318   7  2.407163E+06  1.285859E+04  1.674171E+04 -2.338269E+04 -7.940856E+02  1.926050E+03
       318   8  2.364253E+06  2.148457E+03  7.329532E+03 -5.740593E+03 -3.341384E+03  2.624758E+02
       318   9  2.321866E+06 -7.686092E+03 -2.160950E+02 -2.321953E+04 -5.888509E+03 -1.393331E+03
       318  10  2.303564E+06 -1.274493E+04 -7.946889E+03 -2.318863E+04  6.865009E-10  4.089694E-10
       318  11  2.345948E+06 -2.384722E+03  2.920505E+03 -5.709467E+03  8.833019E-10 -3.183239E-10
       318  12  2.388856E+06  8.851925E+03  1.565889E+04 -2.335140E+04  7.318828E-10  8.781606E-11
       318  13  2.355362E+06  5.692447E+01  4.397500E+03 -2.328565E+04  3.290178E-10  7.835905E-10
       318  14  2.355100E+06 -1.181312E+02  5.125011E+03 -5.725030E+03 -1.505419E-09  4.165025E-10
       318  15  2.355360E+06  5.829513E+02  7.721405E+03 -2.328547E+04  1.443899E-09 -3.277926E-10
       318  16  2.407163E+06  1.285858E+04  1.674170E+04 -2.338269E+04 -6.714272E-10  1.962009E-10
       318  17  2.364253E+06  2.148454E+03  7.329511E+03 -5.740593E+03 -1.568588E-09  2.264088E-10
       318  18  2.321866E+06 -7.686103E+03 -2.161636E+02 -2.321954E+04 -5.312939E-10  1.574730E-10
       318  19  2.303564E+06 -1.274492E+04 -7.946881E+03 -2.318863E+04 -7.317180E+02 -1.925544E+03
       318  20  2.345948E+06 -2.384721E+03  2.920512E+03 -5.709468E+03  1.822562E+03 -2.619640E+02
       318  21  2.388856E+06  8.851933E+03  1.565893E+04 -2.335140E+04  4.377015E+03  1.393861E+03
       318  22  2.355362E+06  5.692846E+01  4.397507E+03 -2.328565E+04  3.115218E+01 -1.925797E+03
       318  23  2.355100E+06 -1.181294E+02  5.125024E+03 -5.725031E+03  2.581967E+03 -2.622199E+02
       318  24  2.355360E+06  5.829604E+02  7.721457E+03 -2.328546E+04  5.132782E+03  1.393596E+03
       318  25  2.407163E+06  1.285859E+04  1.674171E+04 -2.338269E+04  7.940856E+02 -1.926050E+03
       318  26  2.364253E+06  2.148457E+03  7.329532E+03 -5.740593E+03  3.341384E+03 -2.624758E+02
       318  27  2.321866E+06 -7.686092E+03 -2.160950E+02 -2.321953E+04  5.888509E+03  1.393331E+03
       319   1  2.454057E+06  2.411344E+04  3.343908E+04 -2.266848E+04 -5.918858E+03 -2.371882E+03
       319   2  2.496084E+06  3.416136E+04  5.002296E+04 -5.730896E+03 -1.395155E+04 -4.049637E+03
       319   3  2.540886E+06  5.110892E+04  7.354717E+04 -2.454479E+04 -2.198444E+04 -5.679560E+03
       319   4  2.355858E+06 -2.292554E+02  9.659776E+03 -2.342611E+04 -6.697361E+03 -2.371640E+03
       319   5  2.354464E+06 -9.078427E+02  1.591666E+04 -5.549669E+03 -1.470656E+04 -4.049531E+03
       319   6  2.355840E+06  5.310190E+03  2.909896E+04 -2.342514E+04 -2.271541E+04 -5.679602E+03
       319   7  2.257668E+06 -2.457265E+04 -1.412022E+04 -2.418362E+04 -7.475741E+03 -2.371396E+03
       319   8  2.212862E+06 -3.597850E+04 -1.819107E+04 -5.368482E+03 -1.546141E+04 -4.049425E+03
       319   9  2.170824E+06 -4.049102E+04 -1.535168E+04 -2.230581E+04 -2.344617E+04 -5.679648E+03
       319  10  2.454057E+06  2.411343E+04  3.343900E+04 -2.266849E+04  2.759454E-11  8.020270E-10
       319  11  2.496084E+06  3.416129E+04  5.002256E+04 -5.730942E+03  8.273819E-10  1.327216E-10
       319  12  2.540886E+06  5.110876E+04  7.354621E+04 -2.454489E+04 -1.066608E-09  6.226812E-10
       319  13  2.355858E+06 -2.292734E+02  9.659681E+03 -2.342612E+04  6.133171E-10 -9.656138E-11
       319  14  2.354463E+06 -9.079182E+02  1.591622E+04 -5.549717E+03  4.135755E-10 -3.604431E-10
       319  15  2.355839E+06  5.310017E+03  2.909793E+04 -2.342524E+04  6.921859E-10  7.166774E-10
       319  16  2.257668E+06 -2.457268E+04 -1.412033E+04 -2.418364E+04 -1.124603E-09  7.030687E-11
       319  17  2.212862E+06 -3.597858E+04 -1.819155E+04 -5.368532E+03  5.972734E-10 -4.000035E-10
       319  18  2.170824E+06 -4.049120E+04 -1.535277E+04 -2.230592E+04  1.649359E-09  7.003183E-10
       319  19  2.454057E+06  2.411344E+04  3.343908E+04 -2.266848E+04  5.918858E+03  2.371882E+03
       319  20  2.496084E+06  3.416136E+04  5.002296E+04 -5.730896E+03  1.395155E+04  4.049637E+03
       319  21  2.540886E+06  5.110892E+04  7.354717E+04 -2.454479E+04  2.198444E+04  5.679560E+03
       319  22  2.355858E+06 -2.292554E+02  9.659776E+03 -2.342611E+04  6.697361E+03  2.371640E+03
       319  23  2.354464E+06 -9.078427E+02  1.591666E+04 -5.549669E+03  1.470656E+04  4.049531E+03
       319  24  2.355840E+06  5.310190E+03  2.909896E+04 -2.342514E+04  2.271541E+04  5.679602E+03
       319  25  2.257668E+06 -2.457265E+04 -1.412022E+04 -2.418362E+04  7.475741E+03  2.371396E+03
       319  26  2.212862E+06 -3.597850E+04 -1.819107E+04 -5.368482E+03  1.546141E+04  4.049425E+03
       319  27  2.170824E+06 -4.049102E+04 -1.535168E+04 -2.230581E+04  2.344617E+04  5.679648E+03
       320   1  2.611828E+06  6.014005E+04  9.785461E+04 -1.751855E+04 -2.759272E+04 -6.819850E+03
       320   2  2.647981E+06  6.603489E+04  1.334574E+05 -8.102070E+03 -5.973204E+04 -8.583293E+03
       320   3  2.703741E+06  1.332023E+05  2.052674E+05 -3.654392E+04 -9.187362E+04 -9.488164E+03
       320   4  2.359570E+06 -2.344425E+03  3.699061E+04 -2.389032E+04 -2.858763E+04 -6.819685E+03
       320   5  2.349753E+06 -7.804694E+03  6.165571E+04 -4.967900E+03 -6.032095E+04 -8.583952E+03
       320   6  2.359483E+06  4.795396E+04  1.222605E+05 -2.390428E+04 -9.205417E+04 -9.490439E+03
       320   7  2.107370E+06 -6.483338E+04 -2.387791E+04 -3.025951E+04 -2.958214E+04 -6.819499E+03
       320   8  2.051607E+06 -8.165070E+04 -1.015230E+04 -1.835238E+03 -6.090957E+04 -8.584618E+03
       320   9  2.015333E+06 -3.730234E+04  3.924513E+04 -1.127165E+04 -9.223461E+04 -9.492723E+03
       320  10  2.611827E+06  6.013980E+04  9.785310E+04 -1.751870E+04  3.448449E-10  6.788653E-10
       320  11  2.647977E+06  6.603385E+04  1.334506E+05 -8.102483E+03 -1.006856E-09 -2.721989E-11
       320  12  2.703732E+06  1.331999E+05  2.052515E+05 -3.654462E+04 -1.510955E-09 -1.773706E-10
       320  13  2.359569E+06 -2.344693E+03  3.698899E+04 -2.389048E+04 -5.727349E-10  5.848249E-10
       320  14  2.349749E+06 -7.805746E+03  6.164876E+04 -4.968317E+03 -6.060946E-10 -2.259328E-10
       320  15  2.359474E+06  4.795160E+04  1.222444E+05 -2.390498E+04 -5.190280E-10  9.996354E-11
       320  16  2.107369E+06 -6.483366E+04 -2.387964E+04 -3.025968E+04 -3.888145E-10  2.445769E-10
       320  17  2.051603E+06 -8.165177E+04 -1.015939E+04 -1.835659E+03  9.578595E-10 -6.719548E-10
       320  18  2.015323E+06 -3.730472E+04  3.922903E+04 -1.127235E+04  5.853811E-10  7.197845E-10
       320  19  2.611828E+06  6.014005E+04  9.785461E+04 -1.751855E+04  2.759272E+04  6.819850E+03
       320  20  2.647981E+06  6.603489E+04  1.334574E+05 -8.102070E+03  5.973204E+04  8.583293E+03
       320  21  2.703741E+06  1.332023E+05  2.052674E+05 -3.654392E+04  9.187362E+04  9.488164E+03
       320  22  2.359570E+06 -2.344425E+03  3.699061E+04 -2.389032E+04  2.858763E+04  6.819685E+03
       320  23  2.349753E+06 -7.804694E+03  6.165571E+04 -4.967900E+03  6.032095E+04  8.583952E+03
       320  24  2.359483E+06  4.795396E+04  1.222605E+05 -2.390428E+04  9.205417E+04  9.490439E+03
       320  25  2.107370E+06 -6.483338E+04 -2.387791E+04 -3.025951E+04  2.958214E+04  6.819499E+03
       320  26  2.051607E+06 -8.165070E+04 -1.015230E+04 -1.835238E+03  6.090957E+04  8.584618E+03
       320  27  2.015333E+06 -3.730234E+04  3.924513E+04 -1.127165E+04  9.223461E+04  9.492723E+03
       321   1  2.805740E+06  8.202303E+04  2.497117E+05  2.939162E+04 -1.122640E+05 -1.220824E+04
       321   2  2.779671E+06  4.773168E+04  3.492272E+05 -3.892981E+04 -2.455615E+05 -1.413115E+04
       321   3  2.906707E+06  5.558106E+05  6.709475E+05 -1.490068E+05 -3.788749E+05 -5.085822E+03
       321   4  2.389095E+06 -2.118636E+04  1.494516E+05 -2.462679E+04 -1.155675E+05 -1.220064E+04
       321   5  2.312683E+06 -6.779022E+04  2.369779E+05 -3.982267E+03 -2.437781E+05 -1.414428E+04
       321   6  2.388600E+06  4.272864E+05  5.433026E+05 -2.507859E+04 -3.719926E+05 -5.154112E+03
       321   7  1.972615E+06 -1.243975E+05  4.918079E+04 -7.860899E+04 -1.188688E+05 -1.219246E+04
       321   8  1.845897E+06 -1.833233E+05  1.247138E+05  3.093896E+04 -2.419959E+05 -1.415722E+04
       321   9  1.870769E+06  2.987999E+05  4.156464E+05  9.874645E+04 -3.651159E+05 -5.219718E+03
       321  10  2.805727E+06  8.201950E+04  2.496878E+05  2.939052E+04  6.092252E-10 -2.468581E-10
       321  11  2.779607E+06  4.771537E+04  3.491140E+05 -3.893260E+04 -2.342348E-11 -2.732679E-10
       321  12  2.906553E+06  5.557722E+05  6.706789E+05 -1.490083E+05  1.488952E-10  3.589701E-10
       321  13  2.389081E+06 -2.119009E+04  1.494263E+05 -2.462793E+04 -2.168212E-09 -5.790547E-10
       321  14  2.312620E+06 -6.780631E+04  2.368662E+05 -3.985041E+03 -6.045647E-11 -2.043424E-10
       321  15  2.388452E+06  4.272494E+05  5.430435E+05 -2.508013E+04  6.350487E-10 -6.883348E-10
       321  16  1.972599E+06 -1.244014E+05  4.915404E+04 -7.861015E+04 -1.567518E-09  7.092119E-10
       321  17  1.845834E+06 -1.833392E+05  1.246037E+05  3.093620E+04 -1.211274E-09 -8.533616E-10
       321  18  1.870627E+06  2.987642E+05  4.153966E+05  9.874492E+04  1.597517E-09  7.237655E-10
       321  19  2.805740E+06  8.202303E+04  2.497117E+05  2.939162E+04  1.122640E+05  1.220824E+04
       321  20  2.779671E+06  4.773168E+04  3.492272E+05 -3.892981E+04  2.455615E+05  1.413115E+04
       321  21  2.906707E+06  5.558106E+05  6.709475E+05 -1.490068E+05  3.788749E+05  5.085822E+03
       321  22  2.389095E+06 -2.118636E+04  1.494516E+05 -2.462679E+04  1.155675E+05  1.220064E+04
       321  23  2.312683E+06 -6.779022E+04  2.369779E+05 -3.982267E+03  2.437781E+05  1.414428E+04
       321  24  2.388600E+06  4.272864E+05  5.433026E+05 -2.507859E+04  3.719926E+05  5.154112E+03
       321  25  1.972615E+06 -1.243975E+05  4.918079E+04 -7.860899E+04  1.188688E+05  1.219246E+04
       321  26  1.845897E+06 -1.833233E+05  1.247138E+05  3.093896E+04  2.419959E+05  1.415722E+04
       321  27  1.870769E+06  2.987999E+05  4.156464E+05  9.874645E+04  3.651159E+05  5.219718E+03
       322   1  1.388754E+05  2.043599E+05  2.045634E+05 -7.669837E+04 -4.319627E+03  1.946288E+05
       322   2 -1.382247E+05  1.476052E+05  3.788224E+04 -2.166176E+04 -1.230211E+04  1.249747E+05
       322   3 -1.138129E+05  1.754628E+05 -8.037592E+03  2.155041E+04 -1.271595E+04  5.533804E+04
       322   4  2.358883E+05  5.952309E+05  3.010137E+05 -8.578537E+03 -4.311509E+03  2.001726E+05
       322   5 -3.781143E+04  5.526752E+05  1.355163E+05 -2.957377E+03 -1.230216E+04  1.270213E+05
       322   6 -9.504517E+03  5.952845E+05  9.315519E+04 -9.156282E+03 -1.271529E+04  5.388649E+04
       322   7  3.329074E+05  9.862509E+05  3.974554E+05  5.958428E+04 -4.302182E+03  2.057199E+05
       322   8  6.259121E+04  9.578961E+05  2.331389E+05  1.575933E+04 -1.230209E+04  1.290693E+05
       322   9  9.479447E+04  1.015269E+06  1.943359E+05 -3.988373E+04 -1.271449E+04  5.243395E+04
       322  10  1.388652E+05  2.043193E+05  2.044922E+05 -7.669769E+04 -4.343937E-12 -9.937297E-10
       322  11 -1.382290E+05  1.475884E+05  3.785262E+04 -2.166052E+04  7.422322E-11 -3.759331E-09
       322  12 -1.138139E+05  1.754594E+05 -8.043649E+03  2.155097E+04  1.373601E-09 -8.859277E-10
       322  13  2.358775E+05  5.951879E+05  3.009385E+05 -8.577843E+03  1.158983E-09 -2.297818E-10
       322  14 -3.781592E+04  5.526579E+05  1.354857E+05 -2.956119E+03 -2.128654E-09 -2.813191E-09
       322  15 -9.505469E+03  5.952814E+05  9.314943E+04 -9.155731E+03  5.674211E-10 -2.423582E-09
       322  16  3.328960E+05  9.862055E+05  3.973760E+05  5.958500E+04 -3.717724E-10  1.794471E-09
       322  17  6.258658E+04  9.578782E+05  2.331073E+05  1.576061E+04 -7.368687E-10 -5.839717E-10
       322  18  9.479356E+04  1.015266E+06  1.943304E+05 -3.988319E+04 -3.481383E-10 -3.798720E-10
       322  19  1.388754E+05  2.043599E+05  2.045634E+05 -7.669837E+04  4.319627E+03 -1.946288E+05
       322  20 -1.382247E+05  1.476052E+05  3.788224E+04 -2.166176E+04  1.230211E+04 -1.249747E+05
       322  21 -1.138129E+05  1.754628E+05 -8.037592E+03  2.155041E+04  1.271595E+04 -5.533804E+04
       322  22  2.358883E+05  5.952309E+05  3.010137E+05 -8.578537E+03  4.311509E+03 -2.001726E+05
       322  23 -3.781143E+04  5.526752E+05  1.355163E+05 -2.957377E+03  1.230216E+04 -1.270213E+05
       322  24 -9.504517E+03  5.952845E+05  9.315519E+04 -9.156282E+03  1.271529E+04 -5.388649E+04
       322  25  3.329074E+05  9.862509E+05  3.974554E+05  5.958428E+04  4.302182E+03 -2.057199E+05
       322  26  6.259121E+04  9.578961E+05  2.331389E+05  1.575933E+04  1.230209E+04 -1.290693E+05
       322  27  9.479447E+04  1.015269E+06  1.943359E+05 -3.988373E+04  1.271449E+04 -5.243395E+04
       323   1 -8.445758E+04  1.372484E+05 -2.568637E+04 -1.828560E+04 -1.206831E+04  3.781208E+04
       323   2 -1.214925E+05  1.118870E+05 -5.267499E+04 -2.650296E+03 -1.325812E+04  8.578463E+03
       323   3 -9.976131E+04  1.052669E+05 -4.588940E+04 -1.591968E+02 -1.294067E+04 -2.065158E+04
       323   4  2.556572E+04  5.805271E+05  8.151684E+04 -9.253399E+03 -1.206880E+04  3.874167E+04
       323   5 -7.516628E+03  5.711019E+05  5.815239E+04 -2.691637E+03 -1.325779E+04  8.801237E+03
       323   6  1.826603E+04  5.805273E+05  6.903617E+04 -9.273266E+03 -1.293918E+04 -2.113636E+04
       323   7  1.355750E+05  1.023985E+06  1.887060E+05 -2.146455E+02 -1.206925E+04  3.967192E+04
       323   8  1.064439E+05  1.030509E+06  1.689647E+05 -2.732939E+03 -1.325747E+04  9.024173E+03
       323   9  1.362771E+05  1.055994E+06  1.839456E+05 -1.839427E+04 -1.293767E+04 -2.162151E+04
       323  10 -8.445812E+04  1.372469E+05 -2.568933E+04 -1.828524E+04  5.093103E-10 -3.097277E-10
       323  11 -1.214927E+05  1.118869E+05 -5.267545E+04 -2.650205E+03  2.466824E-10 -2.434153E-09
       323  12 -9.976160E+04  1.052664E+05 -4.589052E+04 -1.594121E+02 -2.090453E-10 -4.476205E-10
       323  13  2.556517E+04  5.805254E+05  8.151375E+04 -9.253022E+03  2.857137E-10 -1.320614E-10
       323  14 -7.516837E+03  5.711017E+05  5.815191E+04 -2.691543E+03  7.726012E-10 -1.894597E-09
       323  15  1.826573E+04  5.805268E+05  6.903502E+04 -9.273486E+03  1.043851E-09 -1.138842E-09
       323  16  1.355744E+05  1.023984E+06  1.887028E+05 -2.142601E+02 -1.320263E-10  3.229257E-10
       323  17  1.064437E+05  1.030509E+06  1.689642E+05 -2.732843E+03 -1.210136E-09 -2.944474E-10
       323  18  1.362768E+05  1.055994E+06  1.839444E+05 -1.839450E+04 -7.082199E-10 -1.358532E-10
       323  19 -8.445758E+04  1.372484E+05 -2.568637E+04 -1.828560E+04  1.206831E+04 -3.781208E+04
       323  20 -1.214925E+05  1.118870E+05 -5.267499E+04 -2.650296E+03  1.325812E+04 -8.578463E+03
       323  21 -9.976131E+04  1.052669E+05 -4.588940E+04 -1.591968E+02  1.294067E+04  2.065158E+04
       323  22  2.556572E+04  5.805271E+05  8.151684E+04 -9.253399E+03  1.206880E+04 -3.874167E+04
       323  23 -7.516628E+03  5.711019E+05  5.815239E+04 -2.691637E+03  1.325779E+04 -8.801237E+03
       323  24  1.826603E+04  5.805273E+05  6.903617E+04 -9.273266E+03  1.293918E+04  2.113636E+04
       323  25  1.355750E+05  1.023985E+06  1.887060E+05 -2.146455E+02  1.206925E+04 -3.967192E+04
       323  26  1.064439E+05  1.030509E+06  1.689647E+05 -2.732939E+03  1.325747E+04 -9.024173E+03
       323  27  1.362771E+05  1.055994E+06  1.839456E+05 -1.839427E+04  1.293767E+04  2.162151E+04
       324   1 -1.298746E+05  8.988985E+04 -4.516738E+04 -3.164375E+04 -1.479783E+04 -3.647088E+04
       324   2 -1.566762E+05  4.091260E+04 -2.175211E+04  1.207903E+04 -1.539321E+04 -8.696018E+04
       324   3  4.051027E+04  5.486594E+04  9.061676E+04  4.172347E+04 -5.053440E+03 -1.374424E+05
       324   4 -5.698573E+03  5.905083E+05  7.552426E+04 -9.510858E+03 -1.480101E+04 -3.370338E+04
       324   5 -2.818562E+04  5.586106E+05  1.030467E+05 -2.437965E+03 -1.538899E+04 -8.922195E+04
       324   6  1.740839E+05  5.904619E+05  2.229614E+05 -9.443209E+03 -5.039901E+03 -1.447353E+05
       324   7  1.184610E+05  1.091357E+06  1.961983E+05  1.263999E+04 -1.480399E+04 -3.093366E+04
       324   8  1.002862E+05  1.076554E+06  2.278265E+05 -1.696707E+04 -1.538467E+04 -9.148558E+04
       324   9  3.076459E+05  1.126324E+06  3.552864E+05 -6.065405E+04 -5.025170E+03 -1.520345E+05
       324  10 -1.298752E+05  8.988837E+04 -4.517029E+04 -3.164418E+04  1.653339E-10 -3.942876E-11
       324  11 -1.566785E+05  4.090442E+04 -2.176676E+04  1.207795E+04 -1.049923E-10 -1.048554E-09
       324  12  4.050517E+04  5.484566E+04  9.058122E+04  4.172291E+04 -3.637303E-10  5.882944E-11
       324  13 -5.699113E+03  5.905070E+05  7.552172E+04 -9.511260E+03 -5.378322E-10  2.347051E-10
       324  14 -2.818801E+04  5.586020E+05  1.030313E+05 -2.439071E+03 -4.944224E-10 -6.009152E-10
       324  15  1.740782E+05  5.904394E+05  2.229220E+05 -9.443796E+03 -3.590614E-10 -3.333411E-10
       324  16  1.184605E+05  1.091356E+06  1.961961E+05  1.263962E+04 -5.145993E-11  3.133515E-10
       324  17  1.002837E+05  1.076545E+06  2.278104E+05 -1.696820E+04 -1.715186E-10 -3.087266E-10
       324  18  3.076397E+05  1.126299E+06  3.552430E+05 -6.065467E+04 -4.844055E-10 -9.181920E-11
       324  19 -1.298746E+05  8.988985E+04 -4.516738E+04 -3.164375E+04  1.479783E+04  3.647088E+04
       324  20 -1.566762E+05  4.091260E+04 -2.175211E+04  1.207903E+04  1.539321E+04  8.696018E+04
       324  21  4.051027E+04  5.486594E+04  9.061676E+04  4.172347E+04  5.053440E+03  1.374424E+05
       324  22 -5.698573E+03  5.905083E+05  7.552426E+04 -9.510858E+03  1.480101E+04  3.370338E+04
       324  23 -2.818562E+04  5.586106E+05  1.030467E+05 -2.437965E+03  1.538899E+04  8.922195E+04
       324  24  1.740839E+05  5.904619E+05  2.229614E+05 -9.443209E+03  5.039901E+03  1.447353E+05
       324  25  1.184610E+05  1.091357E+06  1.961983E+05  1.263999E+04  1.480399E+04  3.093366E+04
       324  26  1.002862E+05  1.076554E+06  2.278265E+05 -1.696707E+04  1.538467E+04  9.148558E+04
       324  27  3.076459E+05  1.126324E+06  3.552864E+05 -6.065405E+04  5.025170E+03  1.520345E+05
       325   1 -3.012731E+06 -1.110814E+06 -5.921342E+05 -1.136950E+06 -2.826015E+05 -8.202090E+04
       325   2 -2.944229E+06 -8.741161E+05 -3.774359E+05 -1.105955E+06 -1.823823E+05  1.462034E+04
       325   3 -2.925449E+06 -7.658496E+05 -2.840264E+05 -1.060218E+06 -6.887144E+04  7.619114E+04
       325   4 -1.688596E+06 -4.905780E+05 -2.303288E+05 -6.484640E+05 -1.576565E+05 -3.491083E+04
       325   5 -1.657466E+06 -3.447034E+05 -1.081261E+05 -6.889790E+05 -1.209321E+05  3.777298E+04
       325   6 -1.663325E+06 -3.145015E+05 -5.660193E+04 -7.147867E+05 -7.094739E+04  7.538757E+04
       325   7 -3.626979E+05  1.300718E+05  1.313776E+05 -1.589350E+05 -3.242278E+04  1.237030E+04
       325   8 -3.689731E+05  1.849780E+05  1.611109E+05 -2.711563E+05 -5.934486E+04  6.099164E+04
       325   9 -3.994979E+05  1.369938E+05  1.707728E+05 -3.686972E+05 -7.302786E+04  7.458240E+04
       325  10 -3.012819E+06 -1.110843E+06 -5.922978E+05 -1.136969E+06  8.909012E-10  1.671822E-10
       325  11 -2.944265E+06 -8.741253E+05 -3.774991E+05 -1.105952E+06 -3.107703E-10 -1.643732E-10
       325  12 -2.925456E+06 -7.658571E+05 -2.840462E+05 -1.060214E+06  1.284546E-09  4.709703E-10
       325  13 -1.688623E+06 -4.905860E+05 -2.303780E+05 -6.484685E+05  1.347393E-09 -1.186145E-09
       325  14 -1.657483E+06 -3.447088E+05 -1.081563E+05 -6.889753E+05 -3.034212E-11 -2.614821E-09
       325  15 -1.663332E+06 -3.145090E+05 -5.662206E+04 -7.147823E+05 -1.252668E-09  7.167807E-10
       325  16 -3.626991E+05  1.300714E+05  1.313753E+05 -1.589347E+05 -2.246018E-11  1.142353E-09
       325  17 -3.689779E+05  1.849730E+05  1.610973E+05 -2.711534E+05 -1.395378E-10 -2.041160E-09
       325  18 -3.995051E+05  1.369864E+05  1.707524E+05 -3.686928E+05 -1.163049E-09 -5.734191E-10
       325  19 -3.012731E+06 -1.110814E+06 -5.921342E+05 -1.136950E+06  2.826015E+05  8.202090E+04
       325  20 -2.944229E+06 -8.741161E+05 -3.774359E+05 -1.105955E+06  1.823823E+05 -1.462034E+04
       325  21 -2.925449E+06 -7.658496E+05 -2.840264E+05 -1.060218E+06  6.887144E+04 -7.619114E+04
       325  22 -1.688596E+06 -4.905780E+05 -2.303288E+05 -6.484640E+05  1.576565E+05  3.491083E+04
       325  23 -1.657466E+06 -3.447034E+05 -1.081261E+05 -6.889790E+05  1.209321E+05 -3.777298E+04
       325  24 -1.663325E+06 -3.145015E+05 -5.660193E+04 -7.147867E+05  7.094739E+04 -7.538757E+04
       325  25 -3.626979E+05  1.300718E+05  1.313776E+05 -1.589350E+05  3.242278E+04 -1.237030E+04
       325  26 -3.689731E+05  1.849780E+05  1.611109E+05 -2.711563E+05  5.934486E+04 -6.099164E+04
       325  27 -3.994979E+05  1.369938E+05  1.707728E+05 -3.686972E+05  7.302786E+04 -7.458240E+04
       326   1 -2.858395E+06 -7.553665E+05 -2.575550E+05 -1.053607E+06 -6.537122E+04  7.585554E+04
       326   2 -2.785759E+06 -7.098172E+05 -2.169730E+05 -1.025355E+06 -4.780459E+04  8.144018E+04
       326   3 -2.706187E+06 -6.836339E+05 -1.911981E+05 -1.009351E+06 -2.898548E+04  8.369838E+04
       326   4 -1.656385E+06 -3.146130E+05 -4.243352E+04 -7.125450E+05 -6.403864E+04  7.633717E+04
       326   5 -1.659731E+06 -3.007386E+05 -2.226969E+04 -7.082081E+05 -5.247843E+04  7.966052E+04
       326   6 -1.654944E+06 -3.050247E+05 -1.211912E+04 -7.161189E+05 -3.966942E+04  7.965977E+04
       326   7 -4.528422E+05  1.262892E+05  1.726397E+05 -3.708599E+05 -6.270326E+04  7.681991E+04
       326   8 -5.323571E+05  1.084665E+05  1.723952E+05 -3.905206E+05 -5.716129E+04  7.787744E+04
       326   9 -6.025320E+05  7.368907E+04  1.669270E+05 -4.224237E+05 -5.037256E+04  7.561400E+04
       326  10 -2.858401E+06 -7.553738E+05 -2.575738E+05 -1.053603E+06  2.604517E-09  1.880932E-10
       326  11 -2.785763E+06 -7.098249E+05 -2.169897E+05 -1.025352E+06  2.359278E-09  7.419096E-10
       326  12 -2.706190E+06 -6.836416E+05 -1.912128E+05 -1.009349E+06  7.043412E-10  2.242161E-09
       326  13 -1.656391E+06 -3.146204E+05 -4.245216E+04 -7.125410E+05  1.324707E-09  1.639612E-10
       326  14 -1.659735E+06 -3.007462E+05 -2.228678E+04 -7.082047E+05 -4.869819E-10 -1.361045E-09
       326  15 -1.654947E+06 -3.050319E+05 -1.213399E+04 -7.161163E+05  1.464174E-09 -7.970406E-10
       326  16 -4.528480E+05  1.262818E+05  1.726213E+05 -3.708561E+05 -1.318738E-09  2.047833E-10
       326  17 -5.323622E+05  1.084591E+05  1.723777E+05 -3.905170E+05 -2.214951E-09 -3.250985E-10
       326  18 -6.025362E+05  7.368226E+04  1.669115E+05 -4.224207E+05 -1.665937E-09  2.136801E-10
       326  19 -2.858395E+06 -7.553665E+05 -2.575550E+05 -1.053607E+06  6.537122E+04 -7.585554E+04
       326  20 -2.785759E+06 -7.098172E+05 -2.169730E+05 -1.025355E+06  4.780459E+04 -8.144018E+04
       326  21 -2.706187E+06 -6.836339E+05 -1.911981E+05 -1.009351E+06  2.898548E+04 -8.369838E+04
       326  22 -1.656385E+06 -3.146130E+05 -4.243352E+04 -7.125450E+05  6.403864E+04 -7.633717E+04
       326  23 -1.659731E+06 -3.007386E+05 -2.226969E+04 -7.082081E+05  5.247843E+04 -7.966052E+04
       326  24 -1.654944E+06 -3.050247E+05 -1.211912E+04 -7.161189E+05  3.966942E+04 -7.965977E+04
       326  25 -4.528422E+05  1.262892E+05  1.726397E+05 -3.708599E+05  6.270326E+04 -7.681991E+04
       326  26 -5.323571E+05  1.084665E+05  1.723952E+05 -3.905206E+05  5.716129E+04 -7.787744E+04
       326  27 -6.025320E+05  7.368907E+04  1.669270E+05 -4.224237E+05  5.037256E+04 -7.561400E+04
       327   1 -2.654738E+06 -6.660006E+05 -1.789829E+05 -9.957896E+05 -2.628698E+04  8.070846E+04
       327   2 -2.582193E+06 -6.311373E+05 -1.611158E+05 -9.670027E+05 -2.097324E+04  7.597483E+04
       327   3 -2.498030E+06 -6.088409E+05 -1.456442E+05 -9.520039E+05 -1.553828E+04  7.090749E+04
       327   4 -1.654321E+06 -3.050993E+05 -9.097503E+03 -7.159485E+05 -3.668295E+04  7.678106E+04
       327   5 -1.660126E+06 -2.986614E+05 -4.992704E+03 -7.091218E+05 -3.196981E+04  7.182578E+04
       327   6 -1.654203E+06 -3.046704E+05 -2.805290E+03 -7.160845E+05 -2.713601E+04  6.653692E+04
       327   7 -6.528232E+05  5.590634E+04  1.607646E+05 -4.356802E+05 -4.709690E+04  7.284693E+04
       327   8 -7.371454E+05  3.390166E+04  1.511098E+05 -4.508791E+05 -4.298388E+04  6.767018E+04
       327   9 -8.096152E+05 -4.285594E+02  1.400155E+05 -4.798634E+05 -3.875056E+04  6.216005E+04
       327  10 -2.654741E+06 -6.660078E+05 -1.789964E+05 -9.957879E+05  5.472683E-08  2.293403E-08
       327  11 -2.582195E+06 -6.311436E+05 -1.611274E+05 -9.670014E+05  1.905706E-09  4.550587E-09
       327  12 -2.498031E+06 -6.088464E+05 -1.456541E+05 -9.520031E+05 -5.357826E-08 -1.882475E-08
       327  13 -1.654324E+06 -3.051059E+05 -9.111098E+03 -7.159462E+05  1.614844E-09  1.197171E-09
       327  14 -1.660129E+06 -2.986672E+05 -5.004309E+03 -7.091199E+05  4.809336E-09  4.258755E-09
       327  15 -1.654205E+06 -3.046753E+05 -2.814984E+03 -7.160831E+05  5.458148E-10  2.493338E-09
       327  16 -6.528270E+05  5.590005E+04  1.607504E+05 -4.356774E+05 -5.285233E-08 -1.962872E-08
       327  17 -7.371486E+05  3.389625E+04  1.510978E+05 -4.508768E+05  2.377475E-09  3.747090E-09
       327  18 -8.096178E+05 -4.331070E+02  1.400054E+05 -4.798614E+05  5.527689E-08  2.295134E-08
       327  19 -2.654738E+06 -6.660006E+05 -1.789829E+05 -9.957896E+05  2.628698E+04 -8.070846E+04
       327  20 -2.582193E+06 -6.311373E+05 -1.611158E+05 -9.670027E+05  2.097324E+04 -7.597483E+04
       327  21 -2.498030E+06 -6.088409E+05 -1.456442E+05 -9.520039E+05  1.553828E+04 -7.090749E+04
       327  22 -1.654321E+06 -3.050993E+05 -9.097503E+03 -7.159485E+05  3.668295E+04 -7.678106E+04
       327  23 -1.660126E+06 -2.986614E+05 -4.992704E+03 -7.091218E+05  3.196981E+04 -7.182578E+04
       327  24 -1.654203E+06 -3.046704E+05 -2.805290E+03 -7.160845E+05  2.713601E+04 -6.653692E+04
       327  25 -6.528232E+05  5.590634E+04  1.607646E+05 -4.356802E+05  4.709690E+04 -7.284693E+04
       327  26 -7.371454E+05  3.390166E+04  1.511098E+05 -4.508791E+05  4.298388E+04 -6.767018E+04
       327  27 -8.096152E+05 -4.285594E+02  1.400155E+05 -4.798634E+05  3.875056E+04 -6.216005E+04
       328   1 -2.447319E+06 -5.905593E+05 -1.360257E+05 -9.379075E+05 -1.372327E+04  6.732777E+04
       328   2 -2.374325E+06 -5.559321E+05 -1.219816E+05 -9.088166E+05 -1.055190E+04  6.119496E+04
       328   3 -2.289178E+06 -5.335213E+05 -1.084880E+05 -8.936692E+05 -7.366665E+03  5.501488E+04
       328   4 -1.654097E+06 -3.046847E+05 -2.158661E+03 -7.160849E+05 -2.532091E+04  6.295969E+04
       328   5 -1.660156E+06 -2.985488E+05 -1.351680E+03 -7.091176E+05 -2.223411E+04  5.679872E+04
       328   6 -1.654051E+06 -3.046128E+05 -1.028762E+03 -7.160960E+05 -1.913354E+04  5.059044E+04
       328   7 -8.602118E+05 -1.875010E+04  1.316903E+05 -4.939980E+05 -3.693424E+04  5.858572E+04
       328   8 -9.454414E+05 -4.111427E+04  1.192655E+05 -5.092025E+05 -3.393066E+04  5.239710E+04
       328   9 -1.018486E+06 -7.566134E+04  1.064223E+05 -5.383500E+05 -3.091337E+04  4.616113E+04
       328  10 -2.447320E+06 -5.905643E+05 -1.360346E+05 -9.379068E+05 -2.633162E-09  4.469660E-11
       328  11 -2.374326E+06 -5.559362E+05 -1.219888E+05 -9.088161E+05 -2.223225E-09 -3.408428E-10
       328  12 -2.289179E+06 -5.335245E+05 -1.084938E+05 -8.936689E+05 -2.038543E-09 -4.529268E-10
       328  13 -1.654099E+06 -3.046891E+05 -2.167307E+03 -7.160837E+05  1.391492E-10  8.665871E-10
       328  14 -1.660157E+06 -2.985524E+05 -1.358665E+03 -7.091166E+05  7.104097E-10  3.274576E-10
       328  15 -1.654052E+06 -3.046156E+05 -1.034254E+03 -7.160952E+05  2.188794E-11  2.458086E-12
       328  16 -8.602142E+05 -1.875415E+04  1.316813E+05 -4.939963E+05  2.145161E-09  2.114631E-09
       328  17 -9.454434E+05 -4.111752E+04  1.192581E+05 -5.092011E+05  1.058811E-09  1.424231E-09
       328  18 -1.018487E+06 -7.566388E+04  1.064165E+05 -5.383488E+05  9.819609E-10  1.950972E-10
       328  19 -2.447319E+06 -5.905593E+05 -1.360257E+05 -9.379075E+05  1.372327E+04 -6.732777E+04
       328  20 -2.374325E+06 -5.559321E+05 -1.219816E+05 -9.088166E+05  1.055190E+04 -6.119496E+04
       328  21 -2.289178E+06 -5.335213E+05 -1.084880E+05 -8.936692E+05  7.366665E+03 -5.501488E+04
       328  22 -1.654097E+06 -3.046847E+05 -2.158661E+03 -7.160849E+05  2.532091E+04 -6.295969E+04
       328  23 -1.660156E+06 -2.985488E+05 -1.351680E+03 -7.091176E+05  2.223411E+04 -5.679872E+04
       328  24 -1.654051E+06 -3.046128E+05 -1.028762E+03 -7.160960E+05  1.913354E+04 -5.059044E+04
       328  25 -8.602118E+05 -1.875010E+04  1.316903E+05 -4.939980E+05  3.693424E+04 -5.858572E+04
       328  26 -9.454414E+05 -4.111427E+04  1.192655E+05 -5.092025E+05  3.393066E+04 -5.239710E+04
       328  27 -1.018486E+06 -7.566134E+04  1.064223E+05 -5.383500E+05  3.091337E+04 -4.616113E+04
       329   1 -2.238184E+06 -5.150770E+05 -9.946195E+04 -8.794676E+05 -5.755609E+03  5.130675E+04
       329   2 -2.164668E+06 -4.802681E+05 -8.644712E+04 -8.502253E+05 -2.666943E+03  4.504711E+04
       329   3 -2.078937E+06 -4.577384E+05 -7.390542E+04 -8.350291E+05  4.231472E+02  3.877613E+04
       329   4 -1.654023E+06 -3.046109E+05 -1.014071E+03 -7.161192E+05 -1.754286E+04  4.687648E+04
       329   5 -1.660108E+06 -2.984253E+05 -1.258647E+03 -7.091071E+05 -1.447416E+04  4.061193E+04
       329   6 -1.653980E+06 -3.045148E+05 -1.961326E+03 -7.161426E+05 -1.140413E+04  3.433603E+04
       329   7 -1.069497E+06 -9.411056E+04  9.742551E+04 -5.526262E+05 -2.934193E+04  4.244178E+04
       329   8 -1.155277E+06 -1.165579E+05  8.392298E+04 -5.678817E+05 -2.629153E+04  3.617293E+04
       329   9 -1.228835E+06 -1.512747E+05  6.997730E+04 -5.971807E+05 -2.323990E+04  2.989273E+04
       329  10 -2.238184E+06 -5.150798E+05 -9.946696E+04 -8.794673E+05 -4.774426E-10 -5.801705E-10
       329  11 -2.164669E+06 -4.802703E+05 -8.645094E+04 -8.502253E+05 -3.447955E-10 -8.387200E-10
       329  12 -2.078938E+06 -4.577400E+05 -7.390825E+04 -8.350291E+05  3.467137E-11 -9.726450E-10
       329  13 -1.654024E+06 -3.046133E+05 -1.018775E+03 -7.161185E+05  2.630409E-10 -4.457817E-10
       329  14 -1.660108E+06 -2.984271E+05 -1.262137E+03 -7.091066E+05 -4.475341E-10 -7.776451E-10
       329  15 -1.653981E+06 -3.045161E+05 -1.963784E+03 -7.161423E+05 -5.986223E-11 -7.142324E-10
       329  16 -1.069498E+06 -9.411272E+04  9.742051E+04 -5.526252E+05  6.182942E-10 -3.676339E-10
       329  17 -1.155278E+06 -1.165595E+05  8.391922E+04 -5.678809E+05  1.723991E-09 -9.216835E-10
       329  18 -1.228835E+06 -1.512758E+05  6.997461E+04 -5.971802E+05  2.806972E-10 -4.221391E-10
       329  19 -2.238184E+06 -5.150770E+05 -9.946195E+04 -8.794676E+05  5.755609E+03 -5.130675E+04
       329  20 -2.164668E+06 -4.802681E+05 -8.644712E+04 -8.502253E+05  2.666943E+03 -4.504711E+04
       329  21 -2.078937E+06 -4.577384E+05 -7.390542E+04 -8.350291E+05 -4.231472E+02 -3.877613E+04
       329  22 -1.654023E+06 -3.046109E+05 -1.014071E+03 -7.161192E+05  1.754286E+04 -4.687648E+04
       329  23 -1.660108E+06 -2.984253E+05 -1.258647E+03 -7.091071E+05  1.447416E+04 -4.061193E+04
       329  24 -1.653980E+06 -3.045148E+05 -1.961326E+03 -7.161426E+05  1.140413E+04 -3.433603E+04
       329  25 -1.069497E+06 -9.411056E+04  9.742551E+04 -5.526262E+05  2.934193E+04 -4.244178E+04
       329  26 -1.155277E+06 -1.165579E+05  8.392298E+04 -5.678817E+05  2.629153E+04 -3.617293E+04
       329  27 -1.228835E+06 -1.512747E+05  6.997730E+04 -5.971807E+05  2.323990E+04 -2.989273E+04
       330   1 -2.027662E+06 -4.392353E+05 -6.541776E+04 -8.208347E+05  2.239696E+03  3.512410E+04
       330   2 -1.953661E+06 -4.042963E+05 -5.401830E+04 -7.914323E+05  6.839206E+03  2.942732E+04
       330   3 -1.867723E+06 -3.819985E+05 -4.430203E+04 -7.761415E+05  1.142137E+04  2.377324E+04
       330   4 -1.654027E+06 -3.045020E+05 -2.538754E+03 -7.161916E+05 -9.607226E+03  3.067784E+04
       330   5 -1.659992E+06 -2.982867E+05 -4.482293E+03 -7.090885E+05 -4.929796E+03  2.501176E+04
       330   6 -1.654044E+06 -3.047291E+05 -8.172041E+03 -7.160998E+05 -2.700076E+02  1.938828E+04
       330   7 -1.280239E+06 -1.697530E+05  6.033841E+04 -6.114880E+05 -2.146187E+04  2.622867E+04
       330   8 -1.366228E+06 -1.922675E+05  4.505254E+04 -6.267075E+05 -1.670479E+04  2.059394E+04
       330   9 -1.440315E+06 -2.274549E+05  2.795737E+04 -6.560386E+05 -1.196568E+04  1.500169E+04
       330  10 -2.027662E+06 -4.392366E+05 -6.542009E+04 -8.208348E+05  1.451917E-10 -6.669237E-10
       330  11 -1.953662E+06 -4.042972E+05 -5.402002E+04 -7.914325E+05  2.147373E-10 -5.258880E-11
       330  12 -1.867724E+06 -3.819992E+05 -4.430334E+04 -7.761417E+05 -1.630257E-10  9.925478E-11
       330  13 -1.654027E+06 -3.045031E+05 -2.540694E+03 -7.161913E+05  2.798518E-11 -4.635685E-10
       330  14 -1.659992E+06 -2.982873E+05 -4.483514E+03 -7.090884E+05 -1.364829E-09 -2.864079E-10
       330  15 -1.654044E+06 -3.047295E+05 -8.172748E+03 -7.160998E+05 -4.472788E-10 -1.474152E-10
       330  16 -1.280239E+06 -1.697539E+05  6.033625E+04 -6.114875E+05 -7.938855E-13 -1.028262E-10
       330  17 -1.366228E+06 -1.922681E+05  4.505121E+04 -6.267073E+05 -5.803342E-10  5.322380E-11
       330  18 -1.440315E+06 -2.274552E+05  2.795667E+04 -6.560384E+05 -7.427910E-11  3.468708E-12
       330  19 -2.027662E+06 -4.392353E+05 -6.541776E+04 -8.208347E+05 -2.239696E+03 -3.512410E+04
       330  20 -1.953661E+06 -4.042963E+05 -5.401830E+04 -7.914323E+05 -6.839206E+03 -2.942732E+04
       330  21 -1.867723E+06 -3.819985E+05 -4.430203E+04 -7.761415E+05 -1.142137E+04 -2.377324E+04
       330  22 -1.654027E+06 -3.045020E+05 -2.538754E+03 -7.161916E+05  9.607226E+03 -3.067784E+04
       330  23 -1.659992E+06 -2.982867E+05 -4.482293E+03 -7.090885E+05  4.929796E+03 -2.501176E+04
       330  24 -1.654044E+06 -3.047291E+05 -8.172041E+03 -7.160998E+05  2.700076E+02 -1.938828E+04
       330  25 -1.280239E+06 -1.697530E+05  6.033841E+04 -6.114880E+05  2.146187E+04 -2.622867E+04
       330  26 -1.366228E+06 -1.922675E+05  4.505254E+04 -6.267075E+05  1.670479E+04 -2.059394E+04
       330  27 -1.440315E+06 -2.274549E+05  2.795737E+04 -6.560386E+05  1.196568E+04 -1.500169E+04
       331   1 -1.816195E+06 -3.639117E+05 -3.788206E+04 -7.626704E+05  1.439384E+04  2.057711E+04
       331   2 -1.743056E+06 -3.283894E+05 -3.320744E+04 -7.300732E+05  2.581384E+04  1.778217E+04
       331   3 -1.660834E+06 -3.107524E+05 -3.679112E+04 -7.105373E+05  3.703273E+04  1.552488E+04
       331   4 -1.654538E+06 -3.046886E+05 -1.089058E+04 -7.163319E+05  2.641897E+03  1.617005E+04
       331   5 -1.659581E+06 -2.998920E+05 -1.998989E+04 -7.082109E+05  1.503782E+04  1.374135E+04
       331   6 -1.655744E+06 -3.131755E+05 -3.812298E+04 -7.131544E+05  2.723157E+04  1.184973E+04
       331   7 -1.492854E+06 -2.454631E+05  1.610038E+04 -6.699822E+05 -9.113176E+03  1.176176E+04
       331   8 -1.576099E+06 -2.713940E+05 -6.771968E+03 -6.863458E+05  4.260256E+03  9.700010E+03
       331   9 -1.650653E+06 -3.155985E+05 -3.945440E+04 -7.157716E+05  1.743024E+04  8.174682E+03
       331  10 -1.816196E+06 -3.639122E+05 -3.788325E+04 -7.626707E+05 -5.758396E-10  6.014127E-12
       331  11 -1.743056E+06 -3.283899E+05 -3.320929E+04 -7.300735E+05 -3.289726E-10  4.266985E-10
       331  12 -1.660835E+06 -3.107530E+05 -3.679416E+04 -7.105377E+05 -6.144874E-10  5.554621E-10
       331  13 -1.654538E+06 -3.046889E+05 -1.089108E+04 -7.163319E+05 -2.030851E-10  4.790644E-11
       331  14 -1.659581E+06 -2.998923E+05 -1.999067E+04 -7.082110E+05 -1.253204E-09 -1.255704E-10
       331  15 -1.655745E+06 -3.131758E+05 -3.812464E+04 -7.131547E+05 -1.295408E-09  1.492465E-11
       331  16 -1.492854E+06 -2.454633E+05  1.609997E+04 -6.699821E+05  8.528521E-10  2.503056E-10
       331  17 -1.576099E+06 -2.713941E+05 -6.772179E+03 -6.863458E+05  4.046062E-11  1.821768E-11
       331  18 -1.650653E+06 -3.155986E+05 -3.945510E+04 -7.157717E+05  7.480784E-10  6.625083E-10
       331  19 -1.816195E+06 -3.639117E+05 -3.788206E+04 -7.626704E+05 -1.439384E+04 -2.057711E+04
       331  20 -1.743056E+06 -3.283894E+05 -3.320744E+04 -7.300732E+05 -2.581384E+04 -1.778217E+04
       331  21 -1.660834E+06 -3.107524E+05 -3.679112E+04 -7.105373E+05 -3.703273E+04 -1.552488E+04
       331  22 -1.654538E+06 -3.046886E+05 -1.089058E+04 -7.163319E+05 -2.641897E+03 -1.617005E+04
       331  23 -1.659581E+06 -2.998920E+05 -1.998989E+04 -7.082109E+05 -1.503782E+04 -1.374135E+04
       331  24 -1.655744E+06 -3.131755E+05 -3.812298E+04 -7.131544E+05 -2.723157E+04 -1.184973E+04
       331  25 -1.492854E+06 -2.454631E+05  1.610038E+04 -6.699822E+05  9.113176E+03 -1.176176E+04
       331  26 -1.576099E+06 -2.713940E+05 -6.771968E+03 -6.863458E+05 -4.260256E+03 -9.700010E+03
       331  27 -1.650653E+06 -3.155985E+05 -3.945440E+04 -7.157716E+05 -1.743024E+04 -8.174682E+03
       332   1 -1.607099E+06 -2.999347E+05 -3.985206E+04 -7.074603E+05  4.461464E+04  1.442900E+04
       332   2 -1.565984E+06 -2.540575E+05 -6.801990E+04 -6.123970E+05  8.570605E+04  2.661732E+04
       332   3 -1.553002E+06 -3.134460E+05 -1.514571E+05 -5.078965E+05  1.246432E+05  4.456685E+04
       332   4 -1.661658E+06 -3.133505E+05 -5.085757E+04 -7.155279E+05  3.424600E+04  1.054193E+04
       332   5 -1.657772E+06 -3.389450E+05 -9.712838E+04 -6.905463E+05  8.577663E+04  2.663494E+04
       332   6 -1.684121E+06 -4.719113E+05 -2.069674E+05 -6.561350E+05  1.351486E+05  4.847865E+04
       332   7 -1.716214E+06 -3.267663E+05 -6.186282E+04 -7.235951E+05  2.387830E+04  6.654921E+03
       332   8 -1.749544E+06 -4.238097E+05 -1.262356E+05 -7.686792E+05  8.584719E+04  2.665253E+04
       332   9 -1.815186E+06 -6.302854E+05 -2.624707E+05 -8.043234E+05  1.456512E+05  5.238472E+04
       332  10 -1.607101E+06 -2.999354E+05 -3.985621E+04 -7.074608E+05  9.914246E-11  6.862233E-10
       332  11 -1.565992E+06 -2.540602E+05 -6.803508E+04 -6.123988E+05 -2.033673E-10  3.337960E-10
       332  12 -1.553019E+06 -3.134523E+05 -1.514901E+05 -5.079010E+05  3.386203E-10  1.435767E-10
       332  13 -1.661659E+06 -3.133509E+05 -5.085999E+04 -7.155282E+05  2.244299E-10  7.596473E-10
       332  14 -1.657781E+06 -3.389478E+05 -9.714359E+04 -6.905481E+05  9.711410E-10  4.781900E-10
       332  15 -1.684141E+06 -4.719187E+05 -2.070062E+05 -6.561403E+05  5.474171E-11  8.818398E-11
       332  16 -1.716215E+06 -3.267665E+05 -6.186398E+04 -7.235952E+05 -6.481264E-10  1.595996E-10
       332  17 -1.749552E+06 -4.238124E+05 -1.262508E+05 -7.686810E+05 -7.053778E-10  4.306540E-11
       332  18 -1.815210E+06 -6.302941E+05 -2.625159E+05 -8.043296E+05 -4.465992E-10 -2.330554E-11
       332  19 -1.607099E+06 -2.999347E+05 -3.985206E+04 -7.074603E+05 -4.461464E+04 -1.442900E+04
       332  20 -1.565984E+06 -2.540575E+05 -6.801990E+04 -6.123970E+05 -8.570605E+04 -2.661732E+04
       332  21 -1.553002E+06 -3.134460E+05 -1.514571E+05 -5.078965E+05 -1.246432E+05 -4.456685E+04
       332  22 -1.661658E+06 -3.133505E+05 -5.085757E+04 -7.155279E+05 -3.424600E+04 -1.054193E+04
       332  23 -1.657772E+06 -3.389450E+05 -9.712838E+04 -6.905463E+05 -8.577663E+04 -2.663494E+04
       332  24 -1.684121E+06 -4.719113E+05 -2.069674E+05 -6.561350E+05 -1.351486E+05 -4.847865E+04
       332  25 -1.716214E+06 -3.267663E+05 -6.186282E+04 -7.235951E+05 -2.387830E+04 -6.654921E+03
       332  26 -1.749544E+06 -4.238097E+05 -1.262356E+05 -7.686792E+05 -8.584719E+04 -2.665253E+04
       332  27 -1.815186E+06 -6.302854E+05 -2.624707E+05 -8.043234E+05 -1.456512E+05 -5.238472E+04
       333   1  9.361974E+05  1.653663E+05  2.320934E+05  5.785951E+04  2.081381E+05  3.195933E+03
       333   2  9.192183E+05 -1.107364E+05  6.535460E+04  1.803506E+04  1.380020E+05  8.826062E+03
       333   3  9.887844E+05 -7.777315E+04  2.155221E+04 -4.337671E+04  6.786721E+04  7.804054E+03
       333   4  1.253238E+06  2.441371E+05  3.103397E+05 -1.277868E+04  2.123470E+05  3.176948E+03
       333   5  1.209797E+06 -3.874020E+04  1.353218E+05 -1.844476E+03  1.391355E+05  8.822434E+03
       333   6  1.253385E+06 -1.210659E+04  8.532790E+04 -1.249763E+04  6.592862E+04  7.805703E+03
       333   7  1.570381E+06  3.229193E+05  3.885813E+05 -8.345296E+04  2.165580E+05  3.157017E+03
       333   8  1.500454E+06  3.325132E+04  2.052831E+05 -2.173335E+04  1.402695E+05  8.818735E+03
       333   9  1.518052E+06  5.355844E+04  1.490991E+05  1.839464E+04  6.398919E+04  7.807160E+03
       333  10  9.361509E+05  1.653547E+05  2.320121E+05  5.785898E+04  9.722820E-10 -1.564986E-09
       333  11  9.191979E+05 -1.107415E+05  6.531872E+04  1.803408E+04  1.746339E-10 -5.815973E-10
       333  12  9.887794E+05 -7.777445E+04  2.154345E+04 -4.337714E+04 -2.682211E-09 -5.181286E-10
       333  13  1.253190E+06  2.441250E+05  3.102551E+05 -1.277922E+04  4.179797E-10  4.524558E-10
       333  14  1.209776E+06 -3.874546E+04  1.352853E+05 -1.845464E+03  4.364347E-10 -5.743959E-10
       333  15  1.253380E+06 -1.210782E+04  8.531964E+04 -1.249804E+04 -1.695940E-09 -5.446046E-10
       333  16  1.570330E+06  3.229067E+05  3.884933E+05 -8.345351E+04 -6.890886E-10  5.147783E-10
       333  17  1.500433E+06  3.324597E+04  2.052461E+05 -2.173435E+04  1.596936E-09 -1.574540E-10
       333  18  1.518047E+06  5.355728E+04  1.490913E+05  1.839424E+04  3.667435E-09  2.175365E-09
       333  19  9.361974E+05  1.653663E+05  2.320934E+05  5.785951E+04 -2.081381E+05 -3.195933E+03
       333  20  9.192183E+05 -1.107364E+05  6.535460E+04  1.803506E+04 -1.380020E+05 -8.826062E+03
       333  21  9.887844E+05 -7.777315E+04  2.155221E+04 -4.337671E+04 -6.786721E+04 -7.804054E+03
       333  22  1.253238E+06  2.441371E+05  3.103397E+05 -1.277868E+04 -2.123470E+05 -3.176948E+03
       333  23  1.209797E+06 -3.874020E+04  1.353218E+05 -1.844476E+03 -1.391355E+05 -8.822434E+03
       333  24  1.253385E+06 -1.210659E+04  8.532790E+04 -1.249763E+04 -6.592862E+04 -7.805703E+03
       333  25  1.570381E+06  3.229193E+05  3.885813E+05 -8.345296E+04 -2.165580E+05 -3.157017E+03
       333  26  1.500454E+06  3.325132E+04  2.052831E+05 -2.173335E+04 -1.402695E+05 -8.818735E+03
       333  27  1.518052E+06  5.355844E+04  1.490991E+05  1.839464E+04 -6.398919E+04 -7.807160E+03
       334   1  1.010018E+06 -2.876491E+04  1.509833E+04 -5.147140E+03  5.256952E+04  6.248793E+03
       334   2  1.029017E+06 -5.452862E+04 -1.351351E+04 -4.417711E+02  3.472223E+04  5.831038E+03
       334   3  1.059155E+06 -4.535331E+04 -2.176557E+04 -1.597372E+04  1.687444E+04  4.877120E+03
       334   4  1.236498E+06  2.740352E+04  6.979998E+04 -1.229436E+04  5.251958E+04  6.247998E+03
       334   5  1.230923E+06 -4.462384E+03  3.517344E+04 -2.166892E+03  3.442139E+04  5.830648E+03
       334   6  1.236524E+06 -1.352421E+03  2.107519E+04 -1.227610E+04  1.632339E+04  4.876904E+03
       334   7  1.463025E+06  8.356841E+04  1.244980E+05 -1.944419E+04  5.246963E+04  6.247204E+03
       334   8  1.432866E+06  4.560089E+04  8.385748E+04 -3.892579E+03  3.412045E+04  5.830261E+03
       334   9  1.413922E+06  4.264622E+04  6.391370E+04 -8.577427E+03  1.577219E+04  4.876682E+03
       334  10  1.010015E+06 -2.876569E+04  1.509308E+04 -5.147404E+03  5.406673E-10  2.756956E-11
       334  11  1.029016E+06 -5.452898E+04 -1.351584E+04 -4.419341E+02  1.098105E-09  1.066250E-10
       334  12  1.059154E+06 -4.535341E+04 -2.176615E+04 -1.597378E+04 -1.630650E-09 -3.253528E-10
       334  13  1.236495E+06  2.740274E+04  6.979474E+04 -1.229462E+04  4.923622E-10  1.515800E-09
       334  14  1.230922E+06 -4.462738E+03  3.517115E+04 -2.167053E+03  5.470838E-10  2.008777E-10
       334  15  1.236524E+06 -1.352518E+03  2.107464E+04 -1.227616E+04  1.049772E-10 -7.818889E-10
       334  16  1.463022E+06  8.356763E+04  1.244928E+05 -1.944446E+04 -6.117018E-10  1.214774E-09
       334  17  1.432865E+06  4.560054E+04  8.385524E+04 -3.892739E+03 -1.272765E-09 -5.254968E-10
       334  18  1.413922E+06  4.264613E+04  6.391319E+04 -8.577488E+03  9.235325E-10 -3.553366E-10
       334  19  1.010018E+06 -2.876491E+04  1.509833E+04 -5.147140E+03 -5.256952E+04 -6.248793E+03
       334  20  1.029017E+06 -5.452862E+04 -1.351351E+04 -4.417711E+02 -3.472223E+04 -5.831038E+03
       334  21  1.059155E+06 -4.535331E+04 -2.176557E+04 -1.597372E+04 -1.687444E+04 -4.877120E+03
       334  22  1.236498E+06  2.740352E+04  6.979998E+04 -1.229436E+04 -5.251958E+04 -6.247998E+03
       334  23  1.230923E+06 -4.462384E+03  3.517344E+04 -2.166892E+03 -3.442139E+04 -5.830648E+03
       334  24  1.236524E+06 -1.352421E+03  2.107519E+04 -1.227610E+04 -1.632339E+04 -4.876904E+03
       334  25  1.463025E+06  8.356841E+04  1.244980E+05 -1.944419E+04 -5.246963E+04 -6.247204E+03
       334  26  1.432866E+06  4.560089E+04  8.385748E+04 -3.892579E+03 -3.412045E+04 -5.830261E+03
       334  27  1.413922E+06  4.264622E+04  6.391370E+04 -8.577427E+03 -1.577219E+04 -4.876682E+03
       335   1  1.093336E+06 -3.194291E+04 -1.739784E+04 -1.151107E+04  1.337506E+04  4.250144E+03
       335   2  1.116110E+06 -2.965743E+04 -1.933338E+04 -2.324116E+03  8.863426E+03  3.369028E+03
       335   3  1.140483E+06 -2.345071E+04 -1.734829E+04 -1.256354E+04  4.351482E+03  2.454026E+03
       335   4  1.234396E+06  3.024233E+03  1.656119E+04 -1.210215E+04  1.298307E+04  4.249932E+03
       335   5  1.233598E+06 -5.233938E+02  9.001002E+03 -2.388569E+03  8.455020E+03  3.368873E+03
       335   6  1.234402E+06 -1.473360E+02  5.372216E+03 -1.210113E+04  3.926827E+03  2.453925E+03
       335   7  1.375475E+06  3.798993E+04  5.051881E+04 -1.269336E+04  1.259099E+04  4.249721E+03
       335   8  1.351099E+06  2.860963E+04  3.733440E+04 -2.453036E+03  8.046537E+03  3.368718E+03
       335   9  1.328328E+06  2.315540E+04  2.809209E+04 -1.163865E+04  3.502107E+03  2.453822E+03
       335  10  1.093336E+06 -3.194298E+04 -1.739821E+04 -1.151112E+04 -2.204554E-10 -2.734450E-10
       335  11  1.116110E+06 -2.965746E+04 -1.933355E+04 -2.324140E+03  4.261465E-10 -7.008991E-10
       335  12  1.140483E+06 -2.345073E+04 -1.734834E+04 -1.256355E+04  5.134897E-10 -4.427130E-12
       335  13  1.234396E+06  3.024168E+03  1.656084E+04 -1.210219E+04 -1.000698E-09 -2.100178E-10
       335  14  1.233598E+06 -5.234252E+02  9.000846E+03 -2.388592E+03  1.156432E-09  7.765473E-11
       335  15  1.234402E+06 -1.473466E+02  5.372176E+03 -1.210113E+04 -6.543516E-10 -3.708434E-10
       335  16  1.375475E+06  3.798987E+04  5.051848E+04 -1.269340E+04  6.965744E-10 -2.379400E-10
       335  17  1.351099E+06  2.860960E+04  3.733425E+04 -2.453058E+03 -9.236566E-10 -2.812169E-10
       335  18  1.328328E+06  2.315539E+04  2.809206E+04 -1.163865E+04 -6.715556E-10  8.628346E-11
       335  19  1.093336E+06 -3.194291E+04 -1.739784E+04 -1.151107E+04 -1.337506E+04 -4.250144E+03
       335  20  1.116110E+06 -2.965743E+04 -1.933338E+04 -2.324116E+03 -8.863426E+03 -3.369028E+03
       335  21  1.140483E+06 -2.345071E+04 -1.734829E+04 -1.256354E+04 -4.351482E+03 -2.454026E+03
       335  22  1.234396E+06  3.024233E+03  1.656119E+04 -1.210215E+04 -1.298307E+04 -4.249932E+03
       335  23  1.233598E+06 -5.233938E+02  9.001002E+03 -2.388569E+03 -8.455020E+03 -3.368873E+03
       335  24  1.234402E+06 -1.473360E+02  5.372216E+03 -1.210113E+04 -3.926827E+03 -2.453925E+03
       335  25  1.375475E+06  3.798993E+04  5.051881E+04 -1.269336E+04 -1.259099E+04 -4.249721E+03
       335  26  1.351099E+06  2.860963E+04  3.733440E+04 -2.453036E+03 -8.046537E+03 -3.368718E+03
       335  27  1.328328E+06  2.315540E+04  2.809209E+04 -1.163865E+04 -3.502107E+03 -2.453822E+03
       336   1  1.175420E+06 -1.422058E+04 -9.860540E+03 -1.199552E+04  3.475179E+03  1.919597E+03
       336   2  1.198377E+06 -8.892842E+03 -5.973568E+03 -2.511966E+03  2.176647E+03  1.019488E+03
       336   3  1.221628E+06 -3.105889E+03 -1.125622E+03 -1.207118E+04  8.779751E+02  1.196218E+02
       336   4  1.234112E+06  3.188771E+02  4.223121E+03 -1.201626E+04  3.064350E+03  1.919519E+03
       336   5  1.233967E+06 -6.806832E+01  2.609135E+03 -2.494887E+03  1.765810E+03  1.019424E+03
       336   6  1.234113E+06  4.121107E+00  1.955986E+03 -1.201621E+04  4.671778E+02  1.195750E+02
       336   7  1.292807E+06  1.485808E+04  1.830654E+04 -1.203700E+04  2.653483E+03  1.919441E+03
       336   8  1.269557E+06  8.756613E+03  1.119175E+04 -2.477807E+03  1.354950E+03  1.019361E+03
       336   9  1.246599E+06  3.114120E+03  5.037583E+03 -1.196124E+04  5.637224E+01  1.195281E+02
       336  10  1.175420E+06 -1.422058E+04 -9.860570E+03 -1.199553E+04 -1.774203E-10  1.750597E-10
       336  11  1.198377E+06 -8.892844E+03 -5.973579E+03 -2.511968E+03 -8.943581E-10  3.897099E-10
       336  12  1.221628E+06 -3.105889E+03 -1.125624E+03 -1.207118E+04 -3.907574E-10 -6.846439E-11
       336  13  1.234112E+06  3.188706E+02  4.223097E+03 -1.201627E+04 -5.556074E-10  3.487210E-11
       336  14  1.233967E+06 -6.807027E+01  2.609127E+03 -2.494889E+03 -9.873372E-10  2.541066E-11
       336  15  1.234113E+06  4.121033E+00  1.955985E+03 -1.201621E+04 -1.350608E-09  1.753822E-11
       336  16  1.292807E+06  1.485808E+04  1.830652E+04 -1.203701E+04  2.381091E-10  1.365240E-10
       336  17  1.269557E+06  8.756612E+03  1.119174E+04 -2.477808E+03  9.169246E-10 -1.871863E-10
       336  18  1.246599E+06  3.114120E+03  5.037582E+03 -1.196124E+04 -7.831778E-10 -1.157429E-10
       336  19  1.175420E+06 -1.422058E+04 -9.860540E+03 -1.199552E+04 -3.475179E+03 -1.919597E+03
       336  20  1.198377E+06 -8.892842E+03 -5.973568E+03 -2.511966E+03 -2.176647E+03 -1.019488E+03
       336  21  1.221628E+06 -3.105889E+03 -1.125622E+03 -1.207118E+04 -8.779751E+02 -1.196218E+02
       336  22  1.234112E+06  3.188771E+02  4.223121E+03 -1.201626E+04 -3.064350E+03 -1.919519E+03
       336  23  1.233967E+06 -6.806832E+01  2.609135E+03 -2.494887E+03 -1.765810E+03 -1.019424E+03
       336  24  1.234113E+06  4.121107E+00  1.955986E+03 -1.201621E+04 -4.671778E+02 -1.195750E+02
       336  25  1.292807E+06  1.485808E+04  1.830654E+04 -1.203700E+04 -2.653483E+03 -1.919441E+03
       336  26  1.269557E+06  8.756613E+03  1.119175E+04 -2.477807E+03 -1.354950E+03 -1.019361E+03
       336  27  1.246599E+06  3.114120E+03  5.037583E+03 -1.196124E+04 -5.637224E+01 -1.195281E+02
       337   1  1.256513E+06  5.591210E+03  7.331987E+03 -1.198884E+04  5.336047E+02 -4.039372E+02
       337   2  1.279534E+06  1.124340E+04  1.304747E+04 -2.478823E+03 -4.922115E+02 -1.304382E+03
       337   3  1.302783E+06  1.722757E+04  1.951491E+04 -1.203616E+04 -1.517971E+03 -2.206034E+03
       337   4  1.234099E+06  1.945598E+01  1.856194E+03 -1.202172E+04  1.227056E+02 -4.039857E+02
       337   5  1.233985E+06 -5.061429E+01  2.063242E+03 -2.488016E+03 -9.036107E+02 -1.304452E+03
       337   6  1.234098E+06  2.114294E+02  3.022656E+03 -1.202175E+04 -1.929833E+03 -2.206122E+03
       337   7  1.211685E+06 -5.552335E+03 -3.619635E+03 -1.205459E+04 -2.881787E+02 -4.040341E+02
       337   8  1.188437E+06 -1.134478E+04 -8.921137E+03 -2.497208E+03 -1.314980E+03 -1.304521E+03
       337   9  1.165417E+06 -1.680505E+04 -1.346993E+04 -1.200735E+04 -2.341649E+03 -2.206211E+03
       337  10  1.256513E+06  5.591210E+03  7.331986E+03 -1.198884E+04 -9.264488E-10 -3.325716E-10
       337  11  1.279534E+06  1.124340E+04  1.304747E+04 -2.478823E+03  1.429102E-09  1.260798E-10
       337  12  1.302783E+06  1.722756E+04  1.951489E+04 -1.203616E+04 -7.833915E-10 -1.224864E-10
       337  13  1.234099E+06  1.945580E+01  1.856193E+03 -1.202172E+04  4.031294E-10  3.156394E-10
       337  14  1.233985E+06 -5.061634E+01  2.063238E+03 -2.488017E+03  4.153386E-10  4.988303E-10
       337  15  1.234098E+06  2.114232E+02  3.022640E+03 -1.202176E+04  9.984317E-11 -7.313326E-11
       337  16  1.211685E+06 -5.552335E+03 -3.619636E+03 -1.205459E+04 -2.640503E-10  1.871154E-10
       337  17  1.188437E+06 -1.134479E+04 -8.921143E+03 -2.497210E+03  1.949712E-10 -9.266683E-11
       337  18  1.165417E+06 -1.680506E+04 -1.346995E+04 -1.200736E+04 -3.308275E-10 -4.524590E-10
       337  19  1.256513E+06  5.591210E+03  7.331987E+03 -1.198884E+04 -5.336047E+02  4.039372E+02
       337  20  1.279534E+06  1.124340E+04  1.304747E+04 -2.478823E+03  4.922115E+02  1.304382E+03
       337  21  1.302783E+06  1.722757E+04  1.951491E+04 -1.203616E+04  1.517971E+03  2.206034E+03
       337  22  1.234099E+06  1.945598E+01  1.856194E+03 -1.202172E+04 -1.227056E+02  4.039857E+02
       337  23  1.233985E+06 -5.061429E+01  2.063242E+03 -2.488016E+03  9.036107E+02  1.304452E+03
       337  24  1.234098E+06  2.114294E+02  3.022656E+03 -1.202175E+04  1.929833E+03  2.206122E+03
       337  25  1.211685E+06 -5.552335E+03 -3.619635E+03 -1.205459E+04  2.881787E+02  4.040341E+02
       337  26  1.188437E+06 -1.134478E+04 -8.921137E+03 -2.497208E+03  1.314980E+03  1.304521E+03
       337  27  1.165417E+06 -1.680505E+04 -1.346993E+04 -1.200735E+04  2.341649E+03  2.206211E+03
       338   1  1.338300E+06  2.570262E+04  2.890749E+04 -1.180214E+04 -2.113033E+03 -2.741965E+03
       338   2  1.361414E+06  3.130005E+04  3.693148E+04 -2.398733E+03 -5.220121E+03 -3.659457E+03
       338   3  1.385630E+06  3.954346E+04  4.764414E+04 -1.250007E+04 -8.327035E+03 -4.542425E+03
       338   4  1.234290E+06 -1.001093E+02  3.756052E+03 -1.211874E+04 -2.539337E+03 -2.742083E+03
       338   5  1.233738E+06 -3.555111E+02  6.144734E+03 -2.366623E+03 -5.630094E+03 -3.659630E+03
       338   6  1.234286E+06  2.032711E+03  1.121132E+04 -1.211949E+04 -8.720560E+03 -4.542652E+03
       338   7  1.130290E+06 -2.590363E+04 -2.139617E+04 -1.243528E+04 -2.965570E+03 -2.742200E+03
       338   8  1.106078E+06 -3.201226E+04 -2.464318E+04 -2.334521E+03 -6.039983E+03 -3.659803E+03
       338   9  1.082963E+06 -3.547971E+04 -2.522312E+04 -1.173901E+04 -9.113989E+03 -4.542879E+03
       338  10  1.338300E+06  2.570261E+04  2.890747E+04 -1.180214E+04 -6.942678E-10  2.069700E-10
       338  11  1.361414E+06  3.130003E+04  3.693141E+04 -2.398748E+03 -6.143409E-10 -5.083363E-10
       338  12  1.385630E+06  3.954342E+04  4.764397E+04 -1.250010E+04 -4.689297E-10  6.074496E-10
       338  13  1.234290E+06 -1.001191E+02  3.756026E+03 -1.211874E+04 -1.111192E-09  8.847238E-11
       338  14  1.233738E+06 -3.555340E+02  6.144649E+03 -2.366640E+03 -2.514582E-09  1.475612E-10
       338  15  1.234286E+06  2.032669E+03  1.121114E+04 -1.211953E+04 -1.536023E-09  1.823417E-10
       338  16  1.130290E+06 -2.590364E+04 -2.139620E+04 -1.243529E+04  9.759291E-10 -3.840021E-10
       338  17  1.106078E+06 -3.201229E+04 -2.464327E+04 -2.334539E+03 -6.857999E-10  4.646225E-10
       338  18  1.082963E+06 -3.547975E+04 -2.522332E+04 -1.173904E+04 -5.703678E-10  5.241003E-10
       338  19  1.338300E+06  2.570262E+04  2.890749E+04 -1.180214E+04  2.113033E+03  2.741965E+03
       338  20  1.361414E+06  3.130005E+04  3.693148E+04 -2.398733E+03  5.220121E+03  3.659457E+03
       338  21  1.385630E+06  3.954346E+04  4.764414E+04 -1.250007E+04  8.327035E+03  4.542425E+03
       338  22  1.234290E+06 -1.001093E+02  3.756052E+03 -1.211874E+04  2.539337E+03  2.742083E+03
       338  23  1.233738E+06 -3.555111E+02  6.144734E+03 -2.366623E+03  5.630094E+03  3.659630E+03
       338  24  1.234286E+06  2.032711E+03  1.121132E+04 -1.211949E+04  8.720560E+03  4.542652E+03
       338  25  1.130290E+06 -2.590363E+04 -2.139617E+04 -1.243528E+04  2.965570E+03  2.742200E+03
       338  26  1.106078E+06 -3.201226E+04 -2.464318E+04 -2.334521E+03  6.039983E+03  3.659803E+03
       338  27  1.082963E+06 -3.547971E+04 -2.522312E+04 -1.173901E+04  9.113989E+03  4.542879E+03
       339   1  1.423577E+06  4.567227E+04  5.960503E+04 -9.785269E+03 -1.042177E+04 -5.174384E+03
       339   2  1.444481E+06  4.967971E+04  7.497724E+04 -3.257757E+03 -2.289203E+04 -6.130129E+03
       339   3  1.472999E+06  7.730622E+04  1.043783E+05 -1.708645E+04 -3.536305E+04 -6.529914E+03
       339   4  1.235723E+06 -9.172645E+02  1.424584E+04 -1.230422E+04 -1.098029E+04 -5.174692E+03
       339   5  1.231928E+06 -3.014137E+03  2.373535E+04 -2.132619E+03 -2.319291E+04 -6.130488E+03
       339   6  1.235705E+06  1.846790E+04  4.707859E+04 -1.231746E+04 -3.540579E+04 -6.530385E+03
       339   7  1.047902E+06 -4.750935E+04 -3.111586E+04 -1.482242E+04 -1.153864E+04 -5.174996E+03
       339   8  1.019417E+06 -5.571127E+04 -2.750977E+04 -1.007873E+03 -2.349369E+04 -6.130849E+03
       339   9  9.984624E+05 -4.037444E+04 -1.022514E+04 -7.550306E+03 -3.544852E+04 -6.530857E+03
       339  10  1.423576E+06  4.567221E+04  5.960478E+04 -9.785312E+03 -5.741757E-10  1.607312E-10
       339  11  1.444480E+06  4.967953E+04  7.497619E+04 -3.257869E+03  2.052216E-09 -1.461504E-09
       339  12  1.472997E+06  7.730584E+04  1.043759E+05 -1.708663E+04  1.338425E-09 -7.613524E-10
       339  13  1.235723E+06 -9.173255E+02  1.424557E+04 -1.230427E+04  4.880736E-10 -1.362960E-10
       339  14  1.231928E+06 -3.014321E+03  2.373427E+04 -2.132733E+03 -2.512294E-09 -7.824644E-10
       339  15  1.235704E+06  1.846752E+04  4.707616E+04 -1.231765E+04 -6.341791E-10 -5.995433E-10
       339  16  1.047902E+06 -4.750942E+04 -3.111616E+04 -1.482247E+04 -1.459646E-09  1.441598E-10
       339  17  1.019417E+06 -5.571145E+04 -2.751088E+04 -1.007989E+03 -3.564365E-10  1.449558E-09
       339  18  9.984611E+05 -4.037483E+04 -1.022758E+04 -7.550492E+03 -1.026498E-09 -1.600489E-10
       339  19  1.423577E+06  4.567227E+04  5.960503E+04 -9.785269E+03  1.042177E+04  5.174384E+03
       339  20  1.444481E+06  4.967971E+04  7.497724E+04 -3.257757E+03  2.289203E+04  6.130129E+03
       339  21  1.472999E+06  7.730622E+04  1.043783E+05 -1.708645E+04  3.536305E+04  6.529914E+03
       339  22  1.235723E+06 -9.172645E+02  1.424584E+04 -1.230422E+04  1.098029E+04  5.174692E+03
       339  23  1.231928E+06 -3.014137E+03  2.373535E+04 -2.132619E+03  2.319291E+04  6.130488E+03
       339  24  1.235705E+06  1.846790E+04  4.707859E+04 -1.231746E+04  3.540579E+04  6.530385E+03
       339  25  1.047902E+06 -4.750935E+04 -3.111586E+04 -1.482242E+04  1.153864E+04  5.174996E+03
       339  26  1.019417E+06 -5.571127E+04 -2.750977E+04 -1.007873E+03  2.349369E+04  6.130849E+03
       339  27  9.984624E+05 -4.037444E+04 -1.022514E+04 -7.550306E+03  3.544852E+04  6.530857E+03
       340   1  1.522841E+06  6.021778E+04  1.239828E+05  8.356672E+03 -4.244934E+04 -8.121802E+03
       340   2  1.519585E+06  4.865898E+04  1.639181E+05 -1.512325E+04 -9.499150E+04 -9.119965E+03
       340   3  1.575605E+06  2.463152E+05  2.903440E+05 -6.028821E+04 -1.475435E+05 -3.210645E+03
       340   4  1.247097E+06 -8.175193E+03  5.754731E+04 -1.254267E+04 -4.444901E+04 -8.122267E+03
       340   5  1.217669E+06 -2.613496E+04  9.124345E+04 -1.801891E+03 -9.381675E+04 -9.121111E+03
       340   6  1.246994E+06  1.646204E+05  2.092583E+05 -1.274377E+04 -1.431918E+05 -3.216773E+03
       340   7  9.714238E+05 -7.657207E+04 -8.893376E+03 -3.343272E+04 -4.644779E+04 -8.122597E+03
       340   8  9.158369E+05 -1.009349E+05  1.856242E+04  1.151296E+04 -9.264255E+04 -9.122206E+03
       340   9  9.184852E+05  8.292617E+04  1.281658E+05  3.477551E+04 -1.388423E+05 -3.222240E+03
       340  10  1.522839E+06  6.021723E+04  1.239793E+05  8.356394E+03 -2.983782E-09 -7.286703E-10
       340  11  1.519575E+06  4.865648E+04  1.639010E+05 -1.512395E+04 -3.377424E-09 -2.974439E-09
       340  12  1.575582E+06  2.463094E+05  2.903032E+05 -6.028859E+04 -1.186377E-09 -1.197278E-09
       340  13  1.247095E+06 -8.175793E+03  5.754348E+04 -1.254296E+04 -1.839513E-09 -3.879515E-09
       340  14  1.217660E+06 -2.613740E+04  9.122679E+04 -1.802580E+03  2.143896E-09  1.873355E-09
       340  15  1.246972E+06  1.646149E+05  2.092198E+05 -1.274414E+04  3.146011E-10  1.626298E-10
       340  16  9.714215E+05 -7.657272E+04 -8.897548E+03 -3.343303E+04  1.880602E-09 -1.274116E-09
       340  17  9.158277E+05 -1.009372E+05  1.854616E+04  1.151228E+04  1.362329E-09  1.615950E-09
       340  18  9.184646E+05  8.292099E+04  1.281296E+05  3.477515E+04 -2.845340E-11 -1.234095E-09
       340  19  1.522841E+06  6.021778E+04  1.239828E+05  8.356672E+03  4.244934E+04  8.121802E+03
       340  20  1.519585E+06  4.865898E+04  1.639181E+05 -1.512325E+04  9.499150E+04  9.119965E+03
       340  21  1.575605E+06  2.463152E+05  2.903440E+05 -6.028821E+04  1.475435E+05  3.210645E+03
       340  22  1.247097E+06 -8.175193E+03  5.754731E+04 -1.254267E+04  4.444901E+04  8.122267E+03
       340  23  1.217669E+06 -2.613496E+04  9.124345E+04 -1.801891E+03  9.381675E+04  9.121111E+03
       340  24  1.246994E+06  1.646204E+05  2.092583E+05 -1.274377E+04  1.431918E+05  3.216773E+03
       340  25  9.714238E+05 -7.657207E+04 -8.893376E+03 -3.343272E+04  4.644779E+04  8.122597E+03
       340  26  9.158369E+05 -1.009349E+05  1.856242E+04  1.151296E+04  9.264255E+04  9.122206E+03
       340  27  9.184852E+05  8.292617E+04  1.281658E+05  3.477551E+04  1.388423E+05  3.222240E+03
       341   1  1.034168E+06  4.230796E+06  1.069409E+06 -4.923851E+05  2.992908E+04  1.687763E+05
       341   2  6.425363E+05  3.364685E+06  7.408842E+05 -1.200977E+05  8.141616E+04  8.146877E+04
       341   3  4.644509E+05  2.567327E+06  5.229769E+05 -4.293081E+05  5.099142E+04 -6.051112E+03
       341   4  1.546247E+05  6.961901E+05  1.973407E+05 -4.400346E+05  3.006507E+04  1.260914E+05
       341   5 -2.596338E+04  6.655999E+05  9.197191E+04 -9.942737E+04  8.146121E+04  7.660079E+04
       341   6  9.992655E+02  6.969247E+05  7.145016E+04 -4.404592E+05  5.079742E+04  2.677906E+04
       341   7 -7.258382E+05 -2.827106E+06 -6.756444E+05 -3.879696E+05  3.019439E+04  8.364629E+04
       341   8 -6.949914E+05 -2.026844E+06 -5.574583E+05 -7.883945E+04  8.150608E+04  7.175323E+04
       341   9 -4.627061E+05 -1.170286E+06 -3.803227E+05 -4.515708E+05  5.060193E+04  5.951088E+04
       341  10  1.034159E+06  4.230766E+06  1.069354E+06 -4.923892E+05 -5.777346E-10 -1.432067E-09
       341  11  6.425275E+05  3.364676E+06  7.408593E+05 -1.201031E+05 -2.738801E-09  4.747621E-10
       341  12  4.644481E+05  2.567326E+06  5.229719E+05 -4.293078E+05  1.051869E-09 -3.275162E-09
       341  13  1.546195E+05  6.961728E+05  1.973091E+05 -4.400376E+05 -8.316916E-10 -2.172143E-09
       341  14 -2.597208E+04  6.655918E+05  9.194842E+04 -9.943240E+04 -8.321402E-10  4.376214E-09
       341  15  9.963001E+02  6.969233E+05  7.144396E+04 -4.404603E+05  1.472831E-09 -1.552361E-08
       341  16 -7.258410E+05 -2.827113E+06 -6.756593E+05 -3.879716E+05 -6.013125E-10  1.433178E-09
       341  17 -6.949999E+05 -2.026852E+06 -5.574805E+05 -7.884416E+04  4.018286E-10  6.449871E-09
       341  18 -4.627098E+05 -1.170291E+06 -3.803342E+05 -4.515732E+05  5.903622E-10 -1.472434E-09
       341  19  1.034168E+06  4.230796E+06  1.069409E+06 -4.923851E+05 -2.992908E+04 -1.687763E+05
       341  20  6.425363E+05  3.364685E+06  7.408842E+05 -1.200977E+05 -8.141616E+04 -8.146877E+04
       341  21  4.644509E+05  2.567327E+06  5.229769E+05 -4.293081E+05 -5.099142E+04  6.051112E+03
       341  22  1.546247E+05  6.961901E+05  1.973407E+05 -4.400346E+05 -3.006507E+04 -1.260914E+05
       341  23 -2.596338E+04  6.655999E+05  9.197191E+04 -9.942737E+04 -8.146121E+04 -7.660079E+04
       341  24  9.992655E+02  6.969247E+05  7.145016E+04 -4.404592E+05 -5.079742E+04 -2.677906E+04
       341  25 -7.258382E+05 -2.827106E+06 -6.756444E+05 -3.879696E+05 -3.019439E+04 -8.364629E+04
       341  26 -6.949914E+05 -2.026844E+06 -5.574583E+05 -7.883945E+04 -8.150608E+04 -7.175323E+04
       341  27 -4.627061E+05 -1.170286E+06 -3.803227E+05 -4.515708E+05 -5.060193E+04 -5.951088E+04
       342   1  1.737247E+05  1.303690E+06  2.148153E+05 -4.510979E+05  1.909637E+04  2.835809E+03
       342   2 -5.787818E+04  4.729083E+05  1.051836E+04 -9.817066E+04 -5.824319E+03 -2.820532E+04
       342   3 -2.227331E+05 -3.464352E+05 -1.591133E+05 -4.250030E+05 -3.004919E+04 -5.918895E+04
       342   4  2.057112E+04  6.864652E+05  6.633491E+04 -4.398666E+05  1.901981E+04  1.445597E+04
       342   5 -6.221728E+03  6.810088E+05  6.073076E+04 -9.996239E+04 -5.895189E+03 -1.690591E+04
       342   6  3.382430E+04  6.864067E+05  9.005108E+04 -4.397875E+05 -3.011521E+04 -4.825077E+04
       342   7 -1.326098E+05  6.958907E+04 -8.217202E+04 -4.286457E+05  1.894364E+04  2.606464E+04
       342   8  4.543164E+04  8.891491E+05  1.109405E+05 -1.017547E+05 -5.966111E+03 -5.602733E+03
       342   9  2.903045E+05  1.720224E+06  3.391397E+05 -4.545949E+05 -3.018169E+04 -3.729440E+04
       342  10  1.737243E+05  1.303690E+06  2.148146E+05 -4.510980E+05  1.816747E-10 -7.071567E-09
       342  11 -5.787843E+04  4.729074E+05  1.051680E+04 -9.817080E+04  2.806704E-09 -1.668220E-09
       342  12 -2.227350E+05 -3.464392E+05 -1.591216E+05 -4.250045E+05 -3.865417E-09 -4.215583E-09
       342  13  2.057067E+04  6.864649E+05  6.633384E+04 -4.398668E+05  9.360603E-10 -6.438825E-09
       342  14 -6.221842E+03  6.810085E+05  6.073016E+04 -9.996247E+04  3.476335E-09  6.503177E-09
       342  15  3.382270E+04  6.864039E+05  9.004500E+04 -4.397887E+05  4.754656E-09 -1.638200E-08
       342  16 -1.326103E+05  6.958824E+04 -8.217397E+04 -4.286461E+05  3.228906E-10  7.171863E-09
       342  17  4.543159E+04  8.891491E+05  1.109404E+05 -1.017547E+05 -6.279545E-09  1.149964E-08
       342  18  2.903032E+05  1.720223E+06  3.391354E+05 -4.545958E+05 -5.097593E-10 -3.958596E-10
       342  19  1.737247E+05  1.303690E+06  2.148153E+05 -4.510979E+05 -1.909637E+04 -2.835809E+03
       342  20 -5.787818E+04  4.729083E+05  1.051836E+04 -9.817066E+04  5.824319E+03  2.820532E+04
       342  21 -2.227331E+05 -3.464352E+05 -1.591133E+05 -4.250030E+05  3.004919E+04  5.918895E+04
       342  22  2.057112E+04  6.864652E+05  6.633491E+04 -4.398666E+05 -1.901981E+04 -1.445597E+04
       342  23 -6.221728E+03  6.810088E+05  6.073076E+04 -9.996239E+04  5.895189E+03  1.690591E+04
       342  24  3.382430E+04  6.864067E+05  9.005108E+04 -4.397875E+05  3.011521E+04  4.825077E+04
       342  25 -1.326098E+05  6.958907E+04 -8.217202E+04 -4.286457E+05 -1.894364E+04 -2.606464E+04
       342  26  4.543164E+04  8.891491E+05  1.109405E+05 -1.017547E+05  5.966111E+03  5.602733E+03
       342  27  2.903045E+05  1.720224E+06  3.391397E+05 -4.545949E+05  3.018169E+04  3.729440E+04
       343   1 -5.737510E+05 -1.577009E+06 -4.471011E+05 -4.651922E+05 -6.282270E+04 -1.000823E+05
       343   2 -8.181670E+05 -2.457418E+06 -5.968536E+05 -6.930358E+04 -9.376487E+04 -1.418281E+05
       343   3 -7.138745E+05 -3.236170E+06 -6.305497E+05 -3.564252E+05 -3.416637E+04 -1.832273E+05
       343   4 -6.653056E+03  7.067430E+05  1.052419E+05 -4.407653E+05 -6.301292E+04 -6.551996E+04
       343   5 -4.515837E+04  6.524696E+05  1.535296E+05 -9.913273E+04 -9.370489E+04 -1.487911E+05
       343   6  2.713615E+05  7.058682E+05  3.462474E+05 -4.402327E+05 -3.404885E+04 -2.317758E+05
       343   7  5.600670E+05  2.995272E+06  6.572159E+05 -4.162396E+05 -6.320004E+04 -3.083034E+04
       343   8  7.271462E+05  3.771221E+06  9.032218E+05 -1.291040E+05 -9.364445E+04 -1.557874E+05
       343   9  1.255460E+06  4.662081E+06  1.321899E+06 -5.245644E+05 -3.391873E+04 -2.806298E+05
       343  10 -5.737579E+05 -1.577021E+06 -4.471274E+05 -4.651972E+05 -2.046913E-09 -5.380900E-09
       343  11 -8.181818E+05 -2.457442E+06 -5.969081E+05 -6.931431E+04  9.239388E-10 -2.825712E-10
       343  12 -7.138849E+05 -3.236207E+06 -6.306153E+05 -3.564303E+05  4.676426E-10  6.103696E-11
       343  13 -6.658476E+03  7.067373E+05  1.052264E+05 -4.407686E+05 -3.624011E-09 -5.388788E-09
       343  14 -4.517374E+04  6.524435E+05  1.534716E+05 -9.914395E+04  6.190948E-10  3.336933E-09
       343  15  2.713458E+05  7.058103E+05  3.461443E+05 -4.402391E+05 -6.766648E-10 -2.644405E-09
       343  16  5.600625E+05  2.995270E+06  6.572066E+05 -4.162412E+05  3.206608E-09  5.172441E-09
       343  17  7.271303E+05  3.771193E+06  9.031599E+05 -1.291157E+05 -1.384728E-09  5.223751E-09
       343  18  1.255438E+06  4.661996E+06  1.321750E+06 -5.245721E+05 -1.764625E-09 -7.731224E-10
       343  19 -5.737510E+05 -1.577009E+06 -4.471011E+05 -4.651922E+05  6.282270E+04  1.000823E+05
       343  20 -8.181670E+05 -2.457418E+06 -5.968536E+05 -6.930358E+04  9.376487E+04  1.418281E+05
       343  21 -7.138745E+05 -3.236170E+06 -6.305497E+05 -3.564252E+05  3.416637E+04  1.832273E+05
       343  22 -6.653056E+03  7.067430E+05  1.052419E+05 -4.407653E+05  6.301292E+04  6.551996E+04
       343  23 -4.515837E+04  6.524696E+05  1.535296E+05 -9.913273E+04  9.370489E+04  1.487911E+05
       343  24  2.713615E+05  7.058682E+05  3.462474E+05 -4.402327E+05  3.404885E+04  2.317758E+05
       343  25  5.600670E+05  2.995272E+06  6.572159E+05 -4.162396E+05  6.320004E+04  3.083034E+04
       343  26  7.271462E+05  3.771221E+06  9.032218E+05 -1.291040E+05  9.364445E+04  1.557874E+05
       343  27  1.255460E+06  4.662081E+06  1.321899E+06 -5.245644E+05  3.391873E+04  2.806298E+05
       344   1 -1.455654E+06 -6.231495E+05 -3.291599E+05 -6.091745E+05 -1.636087E+05 -5.146467E+04
       344   2 -1.393484E+06 -4.473752E+05 -1.919603E+05 -5.792960E+05 -1.014560E+05 -5.139417E+03
       344   3 -1.361200E+06 -3.650369E+05 -1.292316E+05 -5.421119E+05 -3.335441E+04  2.542729E+04
       344   4 -8.956166E+05 -3.238725E+05 -1.685212E+05 -3.642638E+05 -1.128081E+05 -3.238260E+04
       344   5 -8.743575E+05 -2.155121E+05 -7.911234E+04 -3.921457E+05 -7.927129E+04  3.193918E+03
       344   6 -8.772762E+05 -1.948774E+05 -4.142846E+04 -4.127349E+05 -3.979708E+04  2.300220E+04
       344   7 -3.352369E+05 -2.445802E+04 -7.896498E+03 -1.191153E+05 -6.195676E+04 -1.326305E+04
       344   8 -3.549418E+05  1.641656E+04  3.372418E+04 -2.048355E+05 -5.706653E+04  1.153858E+04
       344   9 -3.931062E+05 -2.469943E+04  4.636656E+04 -2.832654E+05 -4.624513E+04  2.057522E+04
       344  10 -1.455683E+06 -6.231595E+05 -3.292153E+05 -6.091813E+05 -4.955801E-09 -1.041499E-09
       344  11 -1.393495E+06 -4.473780E+05 -1.919798E+05 -5.792965E+05  5.704422E-09  3.967258E-09
       344  12 -1.361201E+06 -3.650379E+05 -1.292349E+05 -5.421112E+05  2.174400E-08  9.266463E-09
       344  13 -8.956306E+05 -3.238770E+05 -1.685471E+05 -3.642668E+05 -3.528973E-10 -4.549643E-10
       344  14 -8.743642E+05 -2.155138E+05 -7.912418E+04 -3.921455E+05  1.677484E-10  1.252924E-10
       344  15 -8.772780E+05 -1.948784E+05 -4.143244E+04 -4.127342E+05  4.252596E-09  5.761730E-10
       344  16 -3.352411E+05 -2.445925E+04 -7.904047E+03 -1.191160E+05  3.392758E-09  6.541260E-10
       344  17 -3.549453E+05  1.641555E+04  3.371780E+04 -2.048350E+05 -7.277804E-09 -3.519331E-09
       344  18 -3.931086E+05 -2.470046E+04  4.636175E+04 -2.832646E+05 -1.439876E-08 -4.407368E-09
       344  19 -1.455654E+06 -6.231495E+05 -3.291599E+05 -6.091745E+05  1.636087E+05  5.146467E+04
       344  20 -1.393484E+06 -4.473752E+05 -1.919603E+05 -5.792960E+05  1.014560E+05  5.139417E+03
       344  21 -1.361200E+06 -3.650369E+05 -1.292316E+05 -5.421119E+05  3.335441E+04 -2.542729E+04
       344  22 -8.956166E+05 -3.238725E+05 -1.685212E+05 -3.642638E+05  1.128081E+05  3.238260E+04
       344  23 -8.743575E+05 -2.155121E+05 -7.911234E+04 -3.921457E+05  7.927129E+04 -3.193918E+03
       344  24 -8.772762E+05 -1.948774E+05 -4.142846E+04 -4.127349E+05  3.979708E+04 -2.300220E+04
       344  25 -3.352369E+05 -2.445802E+04 -7.896498E+03 -1.191153E+05  6.195676E+04  1.326305E+04
       344  26 -3.549418E+05  1.641656E+04  3.372418E+04 -2.048355E+05  5.706653E+04 -1.153858E+04
       344  27 -3.931062E+05 -2.469943E+04  4.636656E+04 -2.832654E+05  4.624513E+04 -2.057522E+04
       345   1 -1.302836E+06 -3.540938E+05 -1.091150E+05 -5.345436E+05 -2.932217E+04  2.418394E+04
       345   2 -1.235732E+06 -3.146568E+05 -7.901672E+04 -5.082283E+05 -1.712584E+04  2.484600E+04
       345   3 -1.160924E+06 -2.914617E+05 -5.841570E+04 -4.936386E+05 -4.369955E+03  2.402029E+04
       345   4 -8.723289E+05 -1.948413E+05 -3.105712E+04 -4.109516E+05 -3.422523E+04  2.233811E+04
       345   5 -8.759438E+05 -1.835078E+05 -1.629051E+04 -4.063911E+05 -2.472693E+04  2.198719E+04
       345   6 -8.713222E+05 -1.878786E+05 -8.875384E+03 -4.135581E+05 -1.467048E+04  2.014840E+04
       345   7 -4.416304E+05 -3.557080E+04  4.699310E+04 -2.872800E+05 -3.913187E+04  2.049088E+04
       345   8 -5.160181E+05 -5.234535E+04  4.643206E+04 -3.044983E+05 -3.233272E+04  1.912657E+04
       345   9 -5.816276E+05 -8.428638E+04  4.066389E+04 -3.334419E+05 -2.497622E+04  1.627459E+04
       345  10 -1.302837E+06 -3.540946E+05 -1.091177E+05 -5.345430E+05 -1.641294E-08 -5.686289E-09
       345  11 -1.235732E+06 -3.146575E+05 -7.901843E+04 -5.082279E+05 -7.569819E-09 -2.546452E-09
       345  12 -1.160924E+06 -2.914623E+05 -5.841682E+04 -4.936385E+05  3.688965E-09  3.832205E-10
       345  13 -8.723303E+05 -1.948422E+05 -3.106026E+04 -4.109510E+05  1.536962E-09  4.088685E-09
       345  14 -8.759445E+05 -1.835084E+05 -1.629257E+04 -4.063906E+05 -1.457685E-09 -1.107967E-09
       345  15 -8.713225E+05 -1.878791E+05 -8.876551E+03 -4.135578E+05 -1.287418E-09 -9.223011E-10
       345  16 -4.416322E+05 -3.557166E+04  4.698943E+04 -2.872793E+05  2.296026E-08  9.315012E-09
       345  17 -5.160193E+05 -5.234602E+04  4.642941E+04 -3.044978E+05  7.576542E-09  4.644905E-09
       345  18 -5.816284E+05 -8.428683E+04  4.066222E+04 -3.334415E+05 -5.275941E-09 -2.206770E-09
       345  19 -1.302836E+06 -3.540938E+05 -1.091150E+05 -5.345436E+05  2.932217E+04 -2.418394E+04
       345  20 -1.235732E+06 -3.146568E+05 -7.901672E+04 -5.082283E+05  1.712584E+04 -2.484600E+04
       345  21 -1.160924E+06 -2.914617E+05 -5.841570E+04 -4.936386E+05  4.369955E+03 -2.402029E+04
       345  22 -8.723289E+05 -1.948413E+05 -3.105712E+04 -4.109516E+05  3.422523E+04 -2.233811E+04
       345  23 -8.759438E+05 -1.835078E+05 -1.629051E+04 -4.063911E+05  2.472693E+04 -2.198719E+04
       345  24 -8.713222E+05 -1.878786E+05 -8.875384E+03 -4.135581E+05  1.467048E+04 -2.014840E+04
       345  25 -4.416304E+05 -3.557080E+04  4.699310E+04 -2.872800E+05  3.913187E+04 -2.049088E+04
       345  26 -5.160181E+05 -5.234535E+04  4.643206E+04 -3.044983E+05  3.233272E+04 -1.912657E+04
       345  27 -5.816276E+05 -8.428638E+04  4.066389E+04 -3.334419E+05  2.497622E+04 -1.627459E+04
       346   1 -1.113714E+06 -2.751770E+05 -4.788964E+04 -4.810589E+05 -2.038716E+03  2.109262E+04
       346   2 -1.046962E+06 -2.434072E+05 -3.259047E+04 -4.546259E+05  2.168651E+03  1.621316E+04
       346   3 -9.694862E+05 -2.230695E+05 -1.891890E+04 -4.408868E+05  6.428632E+03  1.119196E+04
       346   4 -8.708945E+05 -1.879183E+05 -6.661050E+03 -4.133944E+05 -1.219913E+04  1.727407E+04
       346   5 -8.762576E+05 -1.821069E+05 -3.653047E+03 -4.070899E+05 -8.249057E+03  1.229871E+04
       346   6 -8.708506E+05 -1.876766E+05 -2.068319E+03 -4.134808E+05 -4.246644E+03  7.181548E+03
       346   7 -6.280120E+05 -1.006538E+05  3.456637E+04 -3.457052E+05 -2.236377E+04  1.345395E+04
       346   8 -7.055225E+05 -1.208040E+05  2.528379E+04 -3.595418E+05 -1.866976E+04  8.383142E+03
       346   9 -7.722054E+05 -1.522831E+05  1.478218E+04 -3.860710E+05 -1.492361E+04  3.170504E+03
       346  10 -1.113714E+06 -2.751775E+05 -4.789048E+04 -4.810588E+05 -1.440186E-09 -1.556563E-09
       346  11 -1.046963E+06 -2.434075E+05 -3.259097E+04 -4.546259E+05 -3.698514E-10 -8.776906E-10
       346  12 -9.694863E+05 -2.230697E+05 -1.891921E+04 -4.408868E+05  5.689982E-10 -7.496361E-10
       346  13 -8.708948E+05 -1.879187E+05 -6.661890E+03 -4.133942E+05  1.964278E-09 -2.270316E-09
       346  14 -8.762578E+05 -1.821070E+05 -3.653459E+03 -4.070898E+05  2.690245E-10 -9.861966E-11
       346  15 -8.708506E+05 -1.876767E+05 -2.068450E+03 -4.134808E+05  1.289795E-09 -8.454226E-10
       346  16 -6.280126E+05 -1.006542E+05  3.456509E+04 -3.457049E+05  2.518140E-09 -2.728622E-10
       346  17 -7.055229E+05 -1.208042E+05  2.528301E+04 -3.595417E+05  1.926948E-09 -1.039313E-09
       346  18 -7.722056E+05 -1.522832E+05  1.478174E+04 -3.860710E+05 -5.040938E-10  3.062646E-10
       346  19 -1.113714E+06 -2.751770E+05 -4.788964E+04 -4.810589E+05  2.038716E+03 -2.109262E+04
       346  20 -1.046962E+06 -2.434072E+05 -3.259047E+04 -4.546259E+05 -2.168651E+03 -1.621316E+04
       346  21 -9.694862E+05 -2.230695E+05 -1.891890E+04 -4.408868E+05 -6.428632E+03 -1.119196E+04
       346  22 -8.708945E+05 -1.879183E+05 -6.661050E+03 -4.133944E+05  1.219913E+04 -1.727407E+04
       346  23 -8.762576E+05 -1.821069E+05 -3.653047E+03 -4.070899E+05  8.249057E+03 -1.229871E+04
       346  24 -8.708506E+05 -1.876766E+05 -2.068319E+03 -4.134808E+05  4.246644E+03 -7.181548E+03
       346  25 -6.280120E+05 -1.006538E+05  3.456637E+04 -3.457052E+05  2.236377E+04 -1.345395E+04
       346  26 -7.055225E+05 -1.208040E+05  2.528379E+04 -3.595418E+05  1.866976E+04 -8.383142E+03
       346  27 -7.722054E+05 -1.522831E+05  1.478218E+04 -3.860710E+05  1.492361E+04 -3.170504E+03
       347   1 -9.230708E+05 -2.063786E+05 -1.026431E+04 -4.279800E+05  8.005209E+03  7.879706E+03
       347   2 -8.564516E+05 -1.749203E+05  2.321252E+03 -4.014729E+05  1.074071E+04  2.207107E+03
       347   3 -7.787894E+05 -1.545919E+05  1.451044E+04 -3.876764E+05  1.348050E+04 -3.476543E+03
       347   4 -8.707991E+05 -1.876875E+05 -1.599485E+03 -4.134591E+05 -2.658312E+03  3.873911E+03
       347   5 -8.763208E+05 -1.821347E+05 -1.022041E+03 -4.070984E+05  5.633717E+01 -1.806639E+03
       347   6 -8.708026E+05 -1.877091E+05 -8.252974E+02 -4.134511E+05  2.775201E+03 -7.498252E+03
       347   7 -8.185237E+05 -1.689958E+05  7.065922E+03 -3.989368E+05 -1.332290E+04 -1.322810E+02
       347   8 -8.961895E+05 -1.893490E+05 -4.364884E+03 -4.127237E+05 -1.062773E+04 -5.820268E+03
       347   9 -9.628067E+05 -2.208253E+05 -1.616076E+04 -4.392222E+05 -7.928417E+03 -1.151933E+04
       347  10 -9.230709E+05 -2.063787E+05 -1.026455E+04 -4.279800E+05 -6.356655E-10 -6.036431E-10
       347  11 -8.564517E+05 -1.749203E+05  2.321025E+03 -4.014729E+05 -3.184164E-11  9.611350E-10
       347  12 -7.787896E+05 -1.545920E+05  1.451008E+04 -3.876764E+05  1.259441E-09 -7.865619E-11
       347  13 -8.707992E+05 -1.876875E+05 -1.599526E+03 -4.134591E+05  1.870954E-10 -1.979911E-10
       347  14 -8.763208E+05 -1.821347E+05 -1.022047E+03 -4.070984E+05  1.061046E-09 -9.183930E-10
       347  15 -8.708027E+05 -1.877091E+05 -8.254175E+02 -4.134511E+05  9.389058E-10 -6.283671E-11
       347  16 -8.185239E+05 -1.689958E+05  7.065588E+03 -3.989368E+05  8.561090E-10  9.307942E-10
       347  17 -8.961896E+05 -1.893491E+05 -4.365160E+03 -4.127237E+05  3.301404E-10  2.716144E-10
       347  18 -9.628068E+05 -2.208255E+05 -1.616113E+04 -4.392223E+05 -5.280317E-10 -4.535761E-10
       347  19 -9.230708E+05 -2.063786E+05 -1.026431E+04 -4.279800E+05 -8.005209E+03 -7.879706E+03
       347  20 -8.564516E+05 -1.749203E+05  2.321252E+03 -4.014729E+05 -1.074071E+04 -2.207107E+03
       347  21 -7.787894E+05 -1.545919E+05  1.451044E+04 -3.876764E+05 -1.348050E+04  3.476543E+03
       347  22 -8.707991E+05 -1.876875E+05 -1.599485E+03 -4.134591E+05  2.658312E+03 -3.873911E+03
       347  23 -8.763208E+05 -1.821347E+05 -1.022041E+03 -4.070984E+05 -5.633717E+01  1.806639E+03
       347  24 -8.708026E+05 -1.877091E+05 -8.252974E+02 -4.134511E+05 -2.775201E+03  7.498252E+03
       347  25 -8.185237E+05 -1.689958E+05  7.065922E+03 -3.989368E+05  1.332290E+04  1.322810E+02
       347  26 -8.961895E+05 -1.893490E+05 -4.364884E+03 -4.127237E+05  1.062773E+04  5.820268E+03
       347  27 -9.628067E+05 -2.208253E+05 -1.616076E+04 -4.392222E+05  7.928417E+03  1.151933E+04
       348   1 -7.324703E+05 -1.378667E+05  2.266941E+04 -3.747531E+05  1.490610E+04 -6.852445E+03
       348   2 -6.658950E+05 -1.064182E+05  3.439638E+04 -3.482601E+05  1.762539E+04 -1.253729E+04
       348   3 -5.882767E+05 -8.608401E+04  4.574355E+04 -3.344685E+05  2.033833E+04 -1.820251E+04
       348   4 -8.708078E+05 -1.877105E+05 -8.383394E+02 -4.134491E+05  4.202130E+03 -1.087396E+04
       348   5 -8.763284E+05 -1.821511E+05 -1.095609E+03 -4.070990E+05  6.955952E+03 -1.654678E+04
       348   6 -8.708179E+05 -1.877133E+05 -1.760208E+03 -4.134524E+05  9.703378E+03 -2.220002E+04
       348   7 -1.009123E+06 -2.375518E+05 -2.434571E+04 -4.521366E+05 -6.499193E+03 -1.489447E+04
       348   8 -1.086714E+06 -2.578795E+05 -3.658826E+04 -4.659191E+05 -3.709644E+03 -2.055482E+04
       348   9 -1.153277E+06 -2.893358E+05 -4.926636E+04 -4.924033E+05 -9.265438E+02 -2.619564E+04
       348  10 -7.324706E+05 -1.378668E+05  2.266891E+04 -3.747531E+05 -2.409710E-10 -6.248960E-10
       348  11 -6.658954E+05 -1.064185E+05  3.439550E+04 -3.482599E+05  1.211839E-09 -2.130283E-10
       348  12 -5.882772E+05 -8.608448E+04  4.574215E+04 -3.344682E+05  1.940509E-09 -6.491543E-11
       348  13 -8.708079E+05 -1.877107E+05 -8.385947E+02 -4.134491E+05 -2.296170E-10  1.448607E-10
       348  14 -8.763285E+05 -1.821514E+05 -1.096214E+03 -4.070989E+05 -8.842615E-11 -1.241141E-09
       348  15 -8.708182E+05 -1.877139E+05 -1.761310E+03 -4.134522E+05 -4.703235E-10 -1.292504E-09
       348  16 -1.009123E+06 -2.375521E+05 -2.434621E+04 -4.521367E+05  7.277185E-10 -1.000475E-09
       348  17 -1.086714E+06 -2.578800E+05 -3.658908E+04 -4.659192E+05 -3.711142E-10 -7.020161E-10
       348  18 -1.153277E+06 -2.893365E+05 -4.926765E+04 -4.924034E+05 -2.437776E-09 -1.856411E-09
       348  19 -7.324703E+05 -1.378667E+05  2.266941E+04 -3.747531E+05 -1.490610E+04  6.852445E+03
       348  20 -6.658950E+05 -1.064182E+05  3.439638E+04 -3.482601E+05 -1.762539E+04  1.253729E+04
       348  21 -5.882767E+05 -8.608401E+04  4.574355E+04 -3.344685E+05 -2.033833E+04  1.820251E+04
       348  22 -8.708078E+05 -1.877105E+05 -8.383394E+02 -4.134491E+05 -4.202130E+03  1.087396E+04
       348  23 -8.763284E+05 -1.821511E+05 -1.095609E+03 -4.070990E+05 -6.955952E+03  1.654678E+04
       348  24 -8.708179E+05 -1.877133E+05 -1.760208E+03 -4.134524E+05 -9.703378E+03  2.220002E+04
       348  25 -1.009123E+06 -2.375518E+05 -2.434571E+04 -4.521366E+05  6.499193E+03  1.489447E+04
       348  26 -1.086714E+06 -2.578795E+05 -3.658826E+04 -4.659191E+05  3.709644E+03  2.055482E+04
       348  27 -1.153277E+06 -2.893358E+05 -4.926636E+04 -4.924033E+05  9.265438E+02  2.619564E+04
       349   1 -5.420306E+05 -6.939231E+04  5.339174E+04 -3.216112E+05  2.196867E+04 -2.148426E+04
       349   2 -4.754926E+05 -3.796830E+04  6.371363E+04 -2.951132E+05  2.581148E+04 -2.661011E+04
       349   3 -3.981611E+05 -1.786438E+04  7.273236E+04 -2.812744E+05  2.958323E+04 -3.154157E+04
       349   4 -8.708839E+05 -1.877043E+05 -2.289436E+03 -4.134718E+05  1.132090E+04 -2.548743E+04
       349   5 -8.762757E+05 -1.821568E+05 -4.066840E+03 -4.070903E+05  1.551480E+04 -3.048311E+04
       349   6 -8.709489E+05 -1.880004E+05 -7.426628E+03 -4.133708E+05  1.963739E+04 -3.528440E+04
       349   7 -1.199622E+06 -3.060055E+05 -5.797296E+04 -5.052868E+05  6.791292E+02 -2.948834E+04
       349   8 -1.276885E+06 -3.263285E+05 -7.185048E+04 -5.189990E+05  5.225241E+03 -3.435344E+04
       349   9 -1.343493E+06 -3.581122E+05 -8.758974E+04 -5.453715E+05  9.699720E+03 -3.902418E+04
       349  10 -5.420312E+05 -6.939294E+04  5.338996E+04 -3.216108E+05 -4.655112E-09 -3.283225E-09
       349  11 -4.754935E+05 -3.796923E+04  6.371105E+04 -2.951126E+05  1.244486E-08  5.182882E-09
       349  12 -3.981623E+05 -1.786568E+04  7.272885E+04 -2.812737E+05  2.334225E-08  1.221970E-08
       349  13 -8.708842E+05 -1.877051E+05 -2.290896E+03 -4.134716E+05  7.298185E-10 -4.554415E-10
       349  14 -8.762762E+05 -1.821579E+05 -4.069037E+03 -4.070899E+05 -1.052036E-09  6.519584E-10
       349  15 -8.709496E+05 -1.880018E+05 -7.429691E+03 -4.133702E+05 -5.187876E-09 -2.834806E-09
       349  16 -1.199622E+06 -3.060065E+05 -5.797460E+04 -5.052868E+05  7.749404E-09  2.190214E-09
       349  17 -1.276886E+06 -3.263298E+05 -7.185274E+04 -5.189988E+05 -1.331557E-08 -4.109451E-09
       349  18 -1.343494E+06 -3.581138E+05 -8.759278E+04 -5.453712E+05 -3.655313E-08 -1.274138E-08
       349  19 -5.420306E+05 -6.939231E+04  5.339174E+04 -3.216112E+05 -2.196867E+04  2.148426E+04
       349  20 -4.754926E+05 -3.796830E+04  6.371363E+04 -2.951132E+05 -2.581148E+04  2.661011E+04
       349  21 -3.981611E+05 -1.786438E+04  7.273236E+04 -2.812744E+05 -2.958323E+04  3.154157E+04
       349  22 -8.708839E+05 -1.877043E+05 -2.289436E+03 -4.134718E+05 -1.132090E+04  2.548743E+04
       349  23 -8.762757E+05 -1.821568E+05 -4.066840E+03 -4.070903E+05 -1.551480E+04  3.048311E+04
       349  24 -8.709489E+05 -1.880004E+05 -7.426628E+03 -4.133708E+05 -1.963739E+04  3.528440E+04
       349  25 -1.199622E+06 -3.060055E+05 -5.797296E+04 -5.052868E+05 -6.791292E+02  2.948834E+04
       349  26 -1.276885E+06 -3.263285E+05 -7.185048E+04 -5.189990E+05 -5.225241E+03  3.435344E+04
       349  27 -1.343493E+06 -3.581122E+05 -8.758974E+04 -5.453715E+05 -9.699720E+03  3.902418E+04
       350   1 -3.518888E+05 -1.554455E+03  7.860303E+04 -2.690872E+05  3.236838E+04 -3.424717E+04
       350   2 -2.866829E+05  3.037699E+04  8.390149E+04 -2.399658E+05  3.958285E+04 -3.673998E+04
       350   3 -2.128749E+05  4.686689E+04  8.391077E+04 -2.223779E+05  4.604202E+04 -3.721797E+04
       350   4 -8.714316E+05 -1.879530E+05 -9.896409E+03 -4.135414E+05  2.223437E+04 -3.806201E+04
       350   5 -8.759354E+05 -1.837597E+05 -1.817198E+04 -4.063169E+05  3.310498E+04 -3.918202E+04
       350   6 -8.725716E+05 -1.957389E+05 -3.464213E+04 -4.106301E+05  4.321922E+04 -3.828640E+04
       350   7 -1.390693E+06 -3.743275E+05 -9.840439E+04 -5.578841E+05  1.210926E+04 -4.187356E+04
       350   8 -1.464823E+06 -3.978622E+05 -1.202564E+05 -5.725207E+05  2.663362E+04 -4.162159E+04
       350   9 -1.531809E+06 -4.382993E+05 -1.532098E+05 -5.986941E+05  4.039961E+04 -3.935359E+04
       350  10 -3.518903E+05 -1.555995E+03  7.859886E+04 -2.690863E+05  2.215068E-08  1.294830E-08
       350  11 -2.866849E+05  3.037512E+04  8.389601E+04 -2.399646E+05 -9.776220E-09  2.218190E-09
       350  12 -2.128776E+05  4.686483E+04  8.390419E+04 -2.223765E+05 -4.817424E-08 -1.682637E-08
       350  13 -8.714325E+05 -1.879547E+05 -9.900059E+03 -4.135407E+05 -4.917956E-09 -1.172332E-10
       350  14 -8.759370E+05 -1.837616E+05 -1.817692E+04 -4.063159E+05  3.989404E-09  2.857007E-09
       350  15 -8.725740E+05 -1.957410E+05 -3.464839E+04 -4.106287E+05  2.060140E-09  1.939111E-09
       350  16 -1.390693E+06 -3.743294E+05 -9.840796E+04 -5.578837E+05 -3.443375E-08 -1.152424E-08
       350  17 -1.464824E+06 -3.978643E+05 -1.202610E+05 -5.725198E+05  1.489909E-08  7.132037E-09
       350  18 -1.531811E+06 -4.383014E+05 -1.532158E+05 -5.986928E+05  5.123373E-08  2.119033E-08
       350  19 -3.518888E+05 -1.554455E+03  7.860303E+04 -2.690872E+05 -3.236838E+04  3.424717E+04
       350  20 -2.866829E+05  3.037699E+04  8.390149E+04 -2.399658E+05 -3.958285E+04  3.673998E+04
       350  21 -2.128749E+05  4.686689E+04  8.391077E+04 -2.223779E+05 -4.604202E+04  3.721797E+04
       350  22 -8.714316E+05 -1.879530E+05 -9.896409E+03 -4.135414E+05 -2.223437E+04  3.806201E+04
       350  23 -8.759354E+05 -1.837597E+05 -1.817198E+04 -4.063169E+05 -3.310498E+04  3.918202E+04
       350  24 -8.725716E+05 -1.957389E+05 -3.464213E+04 -4.106301E+05 -4.321922E+04  3.828640E+04
       350  25 -1.390693E+06 -3.743275E+05 -9.840439E+04 -5.578841E+05 -1.210926E+04  4.187356E+04
       350  26 -1.464823E+06 -3.978622E+05 -1.202564E+05 -5.725207E+05 -2.663362E+04  4.162159E+04
       350  27 -1.531809E+06 -4.382993E+05 -1.532098E+05 -5.986941E+05 -4.039961E+04  3.935359E+04
       351   1 -1.641089E+05  5.718839E+04  8.261787E+04 -2.193230E+05  5.410019E+04 -3.652340E+04
       351   2 -1.299925E+05  9.960758E+04  7.020050E+04 -1.354981E+05  5.816676E+04 -2.587066E+04
       351   3 -1.166272E+05  5.352797E+04  3.088756E+04 -4.175562E+04  5.419591E+04  6.113816E+03
       351   4 -8.781339E+05 -1.957402E+05 -4.620980E+04 -4.125686E+05  4.919110E+04 -3.837732E+04
       351   5 -8.741392E+05 -2.195180E+05 -8.824643E+04 -3.904823E+05  9.203955E+04 -1.312554E+04
       351   6 -8.986375E+05 -3.395636E+05 -1.879699E+05 -3.584736E+05  1.268419E+05  3.346828E+04
       351   7 -1.591622E+06 -4.486260E+05 -1.750548E+05 -6.056091E+05  4.428803E+04 -4.022909E+04
       351   8 -1.617691E+06 -5.385277E+05 -2.467143E+05 -6.451579E+05  1.258682E+05 -4.034550E+02
       351   9 -1.679985E+06 -7.324387E+05 -4.068512E+05 -6.747681E+05  1.993859E+05  6.075495E+04
       351  10 -1.641124E+05  5.718618E+04  8.260986E+04 -2.193214E+05  2.649790E-09  1.071594E-09
       351  11 -1.299963E+05  9.960596E+04  7.019288E+04 -1.354969E+05 -2.811736E-10 -1.222586E-09
       351  12 -1.166304E+05  5.352714E+04  3.088196E+04 -4.175589E+04 -3.554914E-09 -2.600711E-09
       351  13 -8.781369E+05 -1.957425E+05 -4.621711E+04 -4.125671E+05  2.030635E-09 -1.399859E-09
       351  14 -8.741483E+05 -2.195205E+05 -8.826270E+04 -3.904814E+05  1.250485E-09 -2.420704E-09
       351  15 -8.986551E+05 -3.395691E+05 -1.880023E+05 -3.584770E+05  1.071763E-10  1.560911E-09
       351  16 -1.591624E+06 -4.486283E+05 -1.750615E+05 -6.056077E+05 -1.936465E-09 -6.427586E-10
       351  17 -1.617708E+06 -5.385320E+05 -2.467441E+05 -6.451578E+05  1.417855E-09 -8.279952E-10
       351  18 -1.680029E+06 -7.324534E+05 -4.069331E+05 -6.747778E+05  4.928425E-09 -6.630506E-10
       351  19 -1.641089E+05  5.718839E+04  8.261787E+04 -2.193230E+05 -5.410019E+04  3.652340E+04
       351  20 -1.299925E+05  9.960758E+04  7.020050E+04 -1.354981E+05 -5.816676E+04  2.587066E+04
       351  21 -1.166272E+05  5.352797E+04  3.088756E+04 -4.175562E+04 -5.419591E+04 -6.113816E+03
       351  22 -8.781339E+05 -1.957402E+05 -4.620980E+04 -4.125686E+05 -4.919110E+04  3.837732E+04
       351  23 -8.741392E+05 -2.195180E+05 -8.824643E+04 -3.904823E+05 -9.203955E+04  1.312554E+04
       351  24 -8.986375E+05 -3.395636E+05 -1.879699E+05 -3.584736E+05 -1.268419E+05 -3.346828E+04
       351  25 -1.591622E+06 -4.486260E+05 -1.750548E+05 -6.056091E+05 -4.428803E+04  4.022909E+04
       351  26 -1.617691E+06 -5.385277E+05 -2.467143E+05 -6.451579E+05 -1.258682E+05  4.034550E+02
       351  27 -1.679985E+06 -7.324387E+05 -4.068512E+05 -6.747681E+05 -1.993859E+05 -6.075495E+04
       352   1 -4.087691E+05 -6.690838E+04 -1.136365E+05 -3.894981E+04 -1.420288E+05 -4.076527E+03
       352   2 -4.000149E+05  1.241507E+05  4.180712E+02 -1.234102E+04 -9.501762E+04 -1.187323E+04
       352   3 -4.508737E+05  1.006741E+05  3.027089E+04  3.148520E+04 -4.802242E+04 -1.106577E+04
       352   4 -8.218741E+05 -1.698611E+05 -2.157991E+05  9.867396E+03 -1.475016E+05 -4.095662E+03
       352   5 -7.916743E+05  2.692618E+04 -9.407335E+04  1.125620E+03 -9.660115E+04 -1.187848E+04
       352   6 -8.218052E+05  8.424390E+03 -5.929213E+04  9.601961E+03 -4.571473E+04 -1.106010E+04
       352   7 -1.234818E+06 -2.728174E+05 -3.179730E+05  5.865201E+04 -1.529708E+05 -4.115669E+03
       352   8 -1.183193E+06 -7.030883E+04 -1.885756E+05  1.458367E+04 -9.818367E+04 -1.188381E+04
       352   9 -1.192610E+06 -8.383365E+04 -1.488648E+05 -1.226821E+04 -4.340840E+04 -1.105459E+04
       352  10 -4.087908E+05 -6.691381E+04 -1.136745E+05 -3.895027E+04 -6.631446E-10  6.316904E-10
       352  11 -4.000247E+05  1.241481E+05  4.008284E+02 -1.234193E+04 -1.119698E-09 -1.730362E-09
       352  12 -4.508762E+05  1.006734E+05  3.026633E+04  3.148477E+04  9.742461E-10 -3.043663E-09
       352  13 -8.218974E+05 -1.698669E+05 -2.158401E+05  9.866909E+03 -2.602113E-10  1.674051E-09
       352  14 -7.916844E+05  2.692352E+04 -9.409117E+04  1.124695E+03  4.382373E-10  3.480622E-10
       352  15 -8.218074E+05  8.423696E+03 -5.929629E+04  9.601553E+03 -1.267339E-09 -1.486141E-10
       352  16 -1.234844E+06 -2.728238E+05 -3.180171E+05  5.865150E+04 -4.458152E-10  9.930467E-10
       352  17 -1.183203E+06 -7.031157E+04 -1.885941E+05  1.458273E+04  2.374591E-10 -3.130651E-09
       352  18 -1.192612E+06 -8.383429E+04 -1.488685E+05 -1.226859E+04 -1.488400E-09 -5.130111E-09
       352  19 -4.087691E+05 -6.690838E+04 -1.136365E+05 -3.894981E+04  1.420288E+05  4.076527E+03
       352  20 -4.000149E+05  1.241507E+05  4.180712E+02 -1.234102E+04  9.501762E+04  1.187323E+04
       352  21 -4.508737E+05  1.006741E+05  3.027089E+04  3.148520E+04  4.802242E+04  1.106577E+04
       352  22 -8.218741E+05 -1.698611E+05 -2.157991E+05  9.867396E+03  1.475016E+05  4.095662E+03
       352  23 -7.916743E+05  2.692618E+04 -9.407335E+04  1.125620E+03  9.660115E+04  1.187848E+04
       352  24 -8.218052E+05  8.424390E+03 -5.929213E+04  9.601961E+03  4.571473E+04  1.106010E+04
       352  25 -1.234818E+06 -2.728174E+05 -3.179730E+05  5.865201E+04  1.529708E+05  4.115669E+03
       352  26 -1.183193E+06 -7.030883E+04 -1.885756E+05  1.458367E+04  9.818367E+04  1.188381E+04
       352  27 -1.192610E+06 -8.383365E+04 -1.488648E+05 -1.226821E+04  4.340840E+04  1.105459E+04
       353   1 -4.719863E+05  6.494419E+04  3.333681E+04  5.458332E+03 -3.632506E+04 -9.316281E+03
       353   2 -4.905010E+05  8.153830E+04  5.185101E+04  3.137359E+01 -2.408811E+04 -9.157795E+03
       353   3 -5.166281E+05  7.392866E+04  5.635161E+04  1.302754E+04 -1.185345E+04 -8.257418E+03
       353   4 -8.101139E+05 -1.907381E+04 -4.850713E+04  9.986997E+03 -3.641990E+04 -9.317103E+03
       353   5 -8.062699E+05  3.086607E+03 -2.444413E+04  7.537401E+02 -2.385104E+04 -9.157611E+03
       353   6 -8.101005E+05  9.786322E+02 -1.463084E+04  9.944286E+03 -1.128402E+04 -8.256209E+03
       353   7 -1.148137E+06 -1.031001E+05 -1.303593E+05  1.451313E+04 -3.651468E+04 -9.317926E+03
       353   8 -1.121947E+06 -7.537239E+04 -1.007464E+05  1.475686E+03 -2.361408E+04 -9.157425E+03
       353   9 -1.103494E+06 -7.197768E+04 -8.561947E+04  6.862445E+03 -1.071486E+04 -8.255006E+03
       353  10 -4.719877E+05  6.494375E+04  3.333417E+04  5.458059E+03 -2.546867E-10 -5.576873E-09
       353  11 -4.905016E+05  8.153806E+04  5.184976E+04  3.119591E+01 -1.919940E-09  6.537540E-10
       353  12 -5.166283E+05  7.392855E+04  5.635121E+04  1.302746E+04 -2.905933E-09  4.005049E-09
       353  13 -8.101153E+05 -1.907426E+04 -4.850979E+04  9.986723E+03 -2.111358E-09 -4.830393E-09
       353  14 -8.062705E+05  3.086364E+03 -2.444536E+04  7.535642E+02  1.146970E-09 -1.234852E-09
       353  15 -8.101007E+05  9.785247E+02 -1.463121E+04  9.944211E+03 -1.192724E-09 -1.070064E-09
       353  16 -1.148138E+06 -1.031006E+05 -1.303620E+05  1.451286E+04 -2.784977E-10 -1.980493E-09
       353  17 -1.121948E+06 -7.537263E+04 -1.007476E+05  1.475512E+03 -5.520792E-10 -8.326139E-10
       353  18 -1.103494E+06 -7.197778E+04 -8.561982E+04  6.862373E+03  2.246895E-09  2.168272E-09
       353  19 -4.719863E+05  6.494419E+04  3.333681E+04  5.458332E+03  3.632506E+04  9.316281E+03
       353  20 -4.905010E+05  8.153830E+04  5.185101E+04  3.137359E+01  2.408811E+04  9.157795E+03
       353  21 -5.166281E+05  7.392866E+04  5.635161E+04  1.302754E+04  1.185345E+04  8.257418E+03
       353  22 -8.101139E+05 -1.907381E+04 -4.850713E+04  9.986997E+03  3.641990E+04  9.317103E+03
       353  23 -8.062699E+05  3.086607E+03 -2.444413E+04  7.537401E+02  2.385104E+04  9.157611E+03
       353  24 -8.101005E+05  9.786322E+02 -1.463084E+04  9.944286E+03  1.128402E+04  8.256209E+03
       353  25 -1.148137E+06 -1.031001E+05 -1.303593E+05  1.451313E+04  3.651468E+04  9.317926E+03
       353  26 -1.121947E+06 -7.537239E+04 -1.007464E+05  1.475686E+03  2.361408E+04  9.157425E+03
       353  27 -1.103494E+06 -7.197768E+04 -8.561947E+04  6.862445E+03  1.071486E+04  8.255006E+03
       354   1 -5.499185E+05  6.220018E+04  5.096709E+04  1.022379E+04 -9.341042E+03 -7.627231E+03
       354   2 -5.727721E+05  5.882996E+04  5.060000E+04  9.174176E+02 -6.228199E+03 -6.774388E+03
       354   3 -5.967435E+05  5.283345E+04  4.753653E+04  1.093237E+04 -3.116157E+03 -5.844393E+03
       354   4 -8.086411E+05 -2.075908E+03 -1.150455E+04  1.016175E+04 -8.971172E+03 -7.626487E+03
       354   5 -8.080769E+05  3.592770E+02 -6.265025E+03  4.978638E+02 -5.824357E+03 -6.773450E+03
       354   6 -8.086375E+05  1.616400E+02 -3.746315E+03  1.015577E+04 -2.678226E+03 -5.843250E+03
       354   7 -1.067302E+06 -6.635689E+04 -7.398098E+04  1.009970E+04 -8.601455E+03 -7.625743E+03
       354   8 -1.043331E+06 -5.811546E+04 -6.313403E+04  7.843509E+01 -5.420667E+03 -6.772512E+03
       354   9 -1.020490E+06 -5.251346E+04 -5.503239E+04  9.379412E+03 -2.240444E+03 -5.842107E+03
       354  10 -5.499186E+05  6.220009E+04  5.096682E+04  1.022373E+04 -3.228058E-10  6.402760E-09
       354  11 -5.727721E+05  5.882990E+04  5.059985E+04  9.173836E+02 -2.365295E-10  4.747979E-09
       354  12 -5.967435E+05  5.283341E+04  4.753645E+04  1.093236E+04  2.327772E-09  2.335471E-10
       354  13 -8.086412E+05 -2.075993E+03 -1.150481E+04  1.016169E+04 -1.574053E-09 -6.091335E-10
       354  14 -8.080769E+05  3.592186E+02 -6.265175E+03  4.978320E+02  1.260382E-09  3.219692E-09
       354  15 -8.086375E+05  1.616014E+02 -3.746392E+03  1.015576E+04  6.100978E-10  6.655937E-09
       354  16 -1.067303E+06 -6.635698E+04 -7.398123E+04  1.009964E+04 -5.229923E-10  4.050579E-09
       354  17 -1.043331E+06 -5.811552E+04 -6.313417E+04  7.840551E+01 -1.253882E-09  5.312404E-09
       354  18 -1.020490E+06 -5.251350E+04 -5.503247E+04  9.379402E+03 -3.842264E-10  4.462802E-09
       354  19 -5.499185E+05  6.220018E+04  5.096709E+04  1.022379E+04  9.341042E+03  7.627231E+03
       354  20 -5.727721E+05  5.882996E+04  5.060000E+04  9.174176E+02  6.228199E+03  6.774388E+03
       354  21 -5.967435E+05  5.283345E+04  4.753653E+04  1.093237E+04  3.116157E+03  5.844393E+03
       354  22 -8.086411E+05 -2.075908E+03 -1.150455E+04  1.016175E+04  8.971172E+03  7.626487E+03
       354  23 -8.080769E+05  3.592770E+02 -6.265025E+03  4.978638E+02  5.824357E+03  6.773450E+03
       354  24 -8.086375E+05  1.616400E+02 -3.746315E+03  1.015577E+04  2.678226E+03  5.843250E+03
       354  25 -1.067302E+06 -6.635689E+04 -7.398098E+04  1.009970E+04  8.601455E+03  7.625743E+03
       354  26 -1.043331E+06 -5.811546E+04 -6.313403E+04  7.843509E+01  5.420667E+03  6.772512E+03
       354  27 -1.020490E+06 -5.251346E+04 -5.503239E+04  9.379412E+03  2.240444E+03  5.842107E+03
       355   1 -6.327403E+05  4.348158E+04  3.943221E+04  1.066989E+04 -2.500955E+03 -5.291230E+03
       355   2 -6.567815E+05  3.770654E+04  3.475145E+04  6.763085E+02 -1.581693E+03 -4.354388E+03
       355   3 -6.811152E+05  3.172370E+04  2.939405E+04  1.064116E+04 -6.628577E+02 -3.401929E+03
       355   4 -8.084491E+05 -1.680144E+02 -2.961510E+03  1.029968E+04 -2.078502E+03 -5.290070E+03
       355   5 -8.083010E+05  5.294564E+01 -1.868051E+03  3.199001E+02 -1.152366E+03 -4.353138E+03
       355   6 -8.084476E+05  6.479034E+01 -1.456215E+03  1.029886E+04 -2.266210E+02 -3.400587E+03
       355   7 -9.841296E+05 -4.381986E+04 -4.535744E+04  9.929550E+03 -1.656168E+03 -5.288909E+03
       355   8 -9.597995E+05 -3.760233E+04 -3.848920E+04 -3.643702E+01 -7.231438E+02 -4.351889E+03
       355   9 -9.357651E+05 -3.159531E+04 -3.230765E+04  9.956611E+03  2.095263E+02 -3.399244E+03
       355  10 -6.327403E+05  4.348155E+04  3.943215E+04  1.066988E+04  4.434646E-09 -1.511923E-09
       355  11 -6.567815E+05  3.770652E+04  3.475141E+04  6.763030E+02 -1.040330E-09  6.025524E-09
       355  12 -6.811152E+05  3.172369E+04  2.939403E+04  1.064116E+04 -1.721929E-09  8.849941E-09
       355  13 -8.084491E+05 -1.680456E+02 -2.961571E+03  1.029967E+04  4.910489E-10  1.229223E-09
       355  14 -8.083010E+05  5.292494E+01 -1.868089E+03  3.198960E+02 -1.391708E-09  4.941799E-09
       355  15 -8.084476E+05  6.477792E+01 -1.456237E+03  1.029886E+04 -7.841620E-10  1.255959E-09
       355  16 -9.841296E+05 -4.381990E+04 -4.535750E+04  9.929543E+03 -5.186952E-09  2.346864E-09
       355  17 -9.597995E+05 -3.760235E+04 -3.848924E+04 -3.643956E+01 -7.793828E-10 -1.913806E-09
       355  18 -9.357651E+05 -3.159532E+04 -3.230767E+04  9.956612E+03  1.991779E-09 -2.223179E-09
       355  19 -6.327403E+05  4.348158E+04  3.943221E+04  1.066989E+04  2.500955E+03  5.291230E+03
       355  20 -6.567815E+05  3.770654E+04  3.475145E+04  6.763085E+02  1.581693E+03  4.354388E+03
       355  21 -6.811152E+05  3.172370E+04  2.939405E+04  1.064116E+04  6.628577E+02  3.401929E+03
       355  22 -8.084491E+05 -1.680144E+02 -2.961510E+03  1.029968E+04  2.078502E+03  5.290070E+03
       355  23 -8.083010E+05  5.294564E+01 -1.868051E+03  3.199001E+02  1.152366E+03  4.353138E+03
       355  24 -8.084476E+05  6.479034E+01 -1.456215E+03  1.029886E+04  2.266210E+02  3.400587E+03
       355  25 -9.841296E+05 -4.381986E+04 -4.535744E+04  9.929550E+03  1.656168E+03  5.288909E+03
       355  26 -9.597995E+05 -3.760233E+04 -3.848920E+04 -3.643702E+01  7.231438E+02  4.351889E+03
       355  27 -9.357651E+05 -3.159531E+04 -3.230765E+04  9.956611E+03 -2.095263E+02  3.399244E+03
       356   1 -7.182221E+05  2.246422E+04  2.031061E+04  1.056865E+04 -4.053845E+02 -2.843279E+03
       356   2 -7.426901E+05  1.635503E+04  1.419204E+04  3.746753E+02  4.181233E+02 -1.881728E+03
       356   3 -7.674634E+05  1.009147E+04  7.464302E+03  1.050197E+04  1.241457E+03 -9.177787E+02
       356   4 -8.084476E+05  5.687278E+01 -1.421267E+03  1.037947E+04  3.093987E+01 -2.841899E+03
       356   5 -8.082947E+05  5.099659E+01 -1.664290E+03  2.189931E+02  8.554540E+02 -1.880316E+03
       356   6 -8.084473E+05 -1.093162E+02 -2.517076E+03  1.037993E+04  1.679827E+03 -9.163309E+02
       356   7 -8.986657E+05 -2.235107E+04 -2.315373E+04  1.019031E+04  4.672010E+02 -2.840520E+03
       356   8 -8.738953E+05 -1.625336E+04 -1.752092E+04  6.332428E+01  1.292739E+03 -1.878903E+03
       356   9 -8.494297E+05 -1.031023E+04 -1.249857E+04  1.025789E+04  2.118168E+03 -9.148833E+02
       356  10 -7.182221E+05  2.246421E+04  2.031060E+04  1.056865E+04  6.294660E-09  5.217503E-09
       356  11 -7.426901E+05  1.635503E+04  1.419203E+04  3.746759E+02  1.959401E-09 -1.167754E-09
       356  12 -7.674634E+05  1.009147E+04  7.464297E+03  1.050198E+04 -1.844632E-09 -5.585528E-09
       356  13 -8.084476E+05  5.686411E+01 -1.421282E+03  1.037947E+04  1.009499E-09  1.121991E-08
       356  14 -8.082947E+05  5.099260E+01 -1.664298E+03  2.189944E+02 -1.033385E-09  2.763230E-09
       356  15 -8.084473E+05 -1.093179E+02 -2.517083E+03  1.037993E+04  4.472314E-11 -4.973981E-09
       356  16 -8.986657E+05 -2.235108E+04 -2.315374E+04  1.019031E+04 -6.632425E-09  2.851355E-09
       356  17 -8.738953E+05 -1.625336E+04 -1.752093E+04  6.332623E+01 -2.824932E-09 -1.823979E-09
       356  18 -8.494297E+05 -1.031023E+04 -1.249858E+04  1.025789E+04  1.315654E-09 -5.902978E-09
       356  19 -7.182221E+05  2.246422E+04  2.031061E+04  1.056865E+04  4.053845E+02  2.843279E+03
       356  20 -7.426901E+05  1.635503E+04  1.419204E+04  3.746753E+02 -4.181233E+02  1.881728E+03
       356  21 -7.674634E+05  1.009147E+04  7.464302E+03  1.050197E+04 -1.241457E+03  9.177787E+02
       356  22 -8.084476E+05  5.687278E+01 -1.421267E+03  1.037947E+04 -3.093987E+01  2.841899E+03
       356  23 -8.082947E+05  5.099659E+01 -1.664290E+03  2.189931E+02 -8.554540E+02  1.880316E+03
       356  24 -8.084473E+05 -1.093162E+02 -2.517076E+03  1.037993E+04 -1.679827E+03  9.163309E+02
       356  25 -8.986657E+05 -2.235107E+04 -2.315373E+04  1.019031E+04 -4.672010E+02  2.840520E+03
       356  26 -8.738953E+05 -1.625336E+04 -1.752092E+04  6.332428E+01 -1.292739E+03  1.878903E+03
       356  27 -8.494297E+05 -1.031023E+04 -1.249857E+04  1.025789E+04 -2.118168E+03  9.148833E+02
       357   1 -8.051281E+05  1.006717E+03 -2.386155E+03  1.014575E+04  1.738947E+03 -3.485926E+02
       357   2 -8.293173E+05 -4.964958E+03 -1.033275E+04  1.991377E+02  4.366668E+03  6.255803E+02
       357   3 -8.545508E+05 -1.307531E+04 -2.056209E+04  1.064996E+04  6.994436E+03  1.565582E+03
       357   4 -8.086103E+05  1.585026E+02 -3.151887E+03  1.039447E+04  2.186577E+03 -3.471057E+02
       357   5 -8.080903E+05  3.101286E+02 -5.202620E+03  1.987827E+02  4.798811E+03  6.270038E+02
       357   6 -8.086123E+05 -1.674108E+03 -9.525179E+03  1.040050E+04  7.411195E+03  1.566942E+03
       357   7 -8.120926E+05 -6.897126E+02 -3.917620E+03  1.064319E+04  2.634204E+03 -3.456185E+02
       357   8 -7.868628E+05  5.585182E+03 -7.252404E+01  1.984274E+02  5.230968E+03  6.284272E+02
       357   9 -7.626718E+05  9.726937E+03  1.511582E+03  1.015101E+04  7.827984E+03  1.568302E+03
       357  10 -8.051281E+05  1.006716E+03 -2.386161E+03  1.014575E+04 -4.932975E-09  1.339629E-10
       357  11 -8.293173E+05 -4.964964E+03 -1.033278E+04  1.991355E+02 -2.055819E-09  1.382826E-09
       357  12 -8.545509E+05 -1.307532E+04 -2.056219E+04  1.064995E+04 -1.319611E-09  2.377628E-09
       357  13 -8.086103E+05  1.585012E+02 -3.151896E+03  1.039447E+04  6.028057E-10 -1.713885E-09
       357  14 -8.080903E+05  3.101220E+02 -5.202664E+03  1.987803E+02  3.276216E-10  2.554741E-09
       357  15 -8.086123E+05 -1.674125E+03 -9.525287E+03  1.040049E+04  2.831793E-10  4.582540E-09
       357  16 -8.120926E+05 -6.897145E+02 -3.917633E+03  1.064319E+04  3.648335E-09  4.456383E-10
       357  17 -7.868629E+05  5.585175E+03 -7.257627E+01  1.984248E+02  1.657978E-10 -9.060813E-09
       357  18 -7.626718E+05  9.726918E+03  1.511462E+03  1.015100E+04  1.031131E-09 -1.510573E-10
       357  19 -8.051281E+05  1.006717E+03 -2.386155E+03  1.014575E+04 -1.738947E+03  3.485926E+02
       357  20 -8.293173E+05 -4.964958E+03 -1.033275E+04  1.991377E+02 -4.366668E+03 -6.255803E+02
       357  21 -8.545508E+05 -1.307531E+04 -2.056209E+04  1.064996E+04 -6.994436E+03 -1.565582E+03
       357  22 -8.086103E+05  1.585026E+02 -3.151887E+03  1.039447E+04 -2.186577E+03  3.471057E+02
       357  23 -8.080903E+05  3.101286E+02 -5.202620E+03  1.987827E+02 -4.798811E+03 -6.270038E+02
       357  24 -8.086123E+05 -1.674108E+03 -9.525179E+03  1.040050E+04 -7.411195E+03 -1.566942E+03
       357  25 -8.120926E+05 -6.897126E+02 -3.917620E+03  1.064319E+04 -2.634204E+03  3.456185E+02
       357  26 -7.868628E+05  5.585182E+03 -7.252404E+01  1.984274E+02 -5.230968E+03 -6.284272E+02
       357  27 -7.626718E+05  9.726937E+03  1.511582E+03  1.015101E+04 -7.827984E+03 -1.568302E+03
       358   1 -8.931220E+05 -1.988658E+04 -3.231337E+04  8.042653E+03  8.798939E+03  2.188760E+03
       358   2 -9.143309E+05 -2.420137E+04 -4.623703E+04  1.040465E+03  1.936408E+04  3.176855E+03
       358   3 -9.420735E+05 -4.855548E+04 -7.208709E+04  1.425233E+04  2.993004E+04  3.764731E+03
       358   4 -8.098256E+05  8.469666E+02 -1.210702E+04  1.033909E+04  9.325507E+03  2.190491E+03
       358   5 -8.065799E+05  2.570052E+03 -2.019934E+04  2.581142E+02  1.970993E+04  3.177889E+03
       358   6 -8.098359E+05 -1.571280E+04 -4.009079E+04  1.039114E+04  3.009560E+04  3.764995E+03
       358   7 -7.265227E+05  2.158003E+04  8.098824E+03  1.263583E+04  9.852145E+03  2.192226E+03
       358   8 -6.988183E+05  2.934063E+04  5.837512E+03 -5.243814E+02  2.005585E+04  3.178922E+03
       358   9 -6.775824E+05  1.712866E+04 -8.095747E+03  6.529102E+03  3.026119E+04  3.765258E+03
       358  10 -8.931221E+05 -1.988661E+04 -3.231352E+04  8.042638E+03 -2.939921E-09  6.528973E-09
       358  11 -9.143313E+05 -2.420148E+04 -4.623776E+04  1.040415E+03  7.196894E-10  2.827250E-09
       358  12 -9.420744E+05 -4.855573E+04 -7.208880E+04  1.425224E+04  2.728654E-09  2.984834E-09
       358  13 -8.098257E+05  8.469381E+02 -1.210720E+04  1.033908E+04  4.927701E-10  4.758629E-09
       358  14 -8.065804E+05  2.569936E+03 -2.020009E+04  2.580637E+02 -2.346815E-10  4.009117E-09
       358  15 -8.098369E+05 -1.571306E+04 -4.009252E+04  1.039105E+04 -7.508822E-10 -2.922632E-09
       358  16 -7.265228E+05  2.157999E+04  8.098633E+03  1.263582E+04  1.382220E-09  1.518922E-09
       358  17 -6.988187E+05  2.934051E+04  5.836736E+03 -5.244328E+02 -2.851852E-11 -3.717688E-09
       358  18 -6.775833E+05  1.712839E+04 -8.097496E+03  6.529010E+03 -2.305495E-09 -8.111580E-09
       358  19 -8.931220E+05 -1.988658E+04 -3.231337E+04  8.042653E+03 -8.798939E+03 -2.188760E+03
       358  20 -9.143309E+05 -2.420137E+04 -4.623703E+04  1.040465E+03 -1.936408E+04 -3.176855E+03
       358  21 -9.420735E+05 -4.855548E+04 -7.208709E+04  1.425233E+04 -2.993004E+04 -3.764731E+03
       358  22 -8.098256E+05  8.469666E+02 -1.210702E+04  1.033909E+04 -9.325507E+03 -2.190491E+03
       358  23 -8.065799E+05  2.570052E+03 -2.019934E+04  2.581142E+02 -1.970993E+04 -3.177889E+03
       358  24 -8.098359E+05 -1.571280E+04 -4.009079E+04  1.039114E+04 -3.009560E+04 -3.764995E+03
       358  25 -7.265227E+05  2.158003E+04  8.098824E+03  1.263583E+04 -9.852145E+03 -2.192226E+03
       358  26 -6.988183E+05  2.934063E+04  5.837512E+03 -5.243814E+02 -2.005585E+04 -3.178922E+03
       358  27 -6.775824E+05  1.712866E+04 -8.095747E+03  6.529102E+03 -3.026119E+04 -3.765258E+03
       359   1 -9.883540E+05 -3.508985E+04 -8.983280E+04 -7.863379E+03  3.629664E+04  5.010069E+03
       359   2 -9.872234E+05 -2.552297E+04 -1.242238E+05  1.150987E+04  8.047305E+04  6.029692E+03
       359   3 -1.036533E+06 -1.942234E+05 -2.319928E+05  5.079858E+04  1.246622E+05  2.346940E+03
       359   4 -8.195033E+05  7.010487E+03 -4.900374E+04  1.015587E+04  3.777793E+04  5.015554E+03
       359   5 -7.945052E+05  2.227735E+04 -7.773078E+04  4.068080E+02  7.982245E+04  6.026171E+03
       359   6 -8.195612E+05 -1.403255E+05 -1.783376E+05  1.057466E+04  1.218816E+05  2.330904E+03
       359   7 -6.506259E+05  4.910993E+04 -8.176556E+03  2.818002E+04  3.925961E+04  5.021125E+03
       359   8 -6.017527E+05  7.007544E+04 -3.124032E+04 -1.069974E+04  7.917165E+04  6.022674E+03
       359   9 -6.025436E+05 -8.642501E+04 -1.246849E+05 -2.966337E+04  1.191000E+05  2.315232E+03
       359  10 -9.883554E+05 -3.509023E+04 -8.983533E+04 -7.863526E+03  1.368786E-09  1.205093E-09
       359  11 -9.872304E+05 -2.552475E+04 -1.242361E+05  1.150947E+04 -3.806733E-10 -2.380351E-09
       359  12 -1.036549E+06 -1.942275E+05 -2.320221E+05  5.079834E+04 -2.402533E-09 -1.500088E-09
       359  13 -8.195048E+05  7.010076E+03 -4.900648E+04  1.015571E+04 -1.104545E-09  8.666038E-09
       359  14 -7.945121E+05  2.227560E+04 -7.774283E+04  4.064205E+02  1.908340E-09 -6.827568E-09
       359  15 -8.195772E+05 -1.403295E+05 -1.783655E+05  1.057443E+04 -1.037076E-10  4.519982E-09
       359  16 -6.506275E+05  4.910949E+04 -8.179503E+03  2.817986E+04 -3.581120E-09  1.683829E-09
       359  17 -6.017595E+05  7.007371E+04 -3.125218E+04 -1.070012E+04 -1.448259E-09  2.316282E-10
       359  18 -6.025588E+05 -8.642883E+04 -1.247116E+05 -2.966359E+04  2.962384E-09  9.504845E-10
       359  19 -9.883540E+05 -3.508985E+04 -8.983280E+04 -7.863379E+03 -3.629664E+04 -5.010069E+03
       359  20 -9.872234E+05 -2.552297E+04 -1.242238E+05  1.150987E+04 -8.047305E+04 -6.029692E+03
       359  21 -1.036533E+06 -1.942234E+05 -2.319928E+05  5.079858E+04 -1.246622E+05 -2.346940E+03
       359  22 -8.195033E+05  7.010487E+03 -4.900374E+04  1.015587E+04 -3.777793E+04 -5.015554E+03
       359  23 -7.945052E+05  2.227735E+04 -7.773078E+04  4.068080E+02 -7.982245E+04 -6.026171E+03
       359  24 -8.195612E+05 -1.403255E+05 -1.783376E+05  1.057466E+04 -1.218816E+05 -2.330904E+03
       359  25 -6.506259E+05  4.910993E+04 -8.176556E+03  2.818002E+04 -3.925961E+04 -5.021125E+03
       359  26 -6.017527E+05  7.007544E+04 -3.124032E+04 -1.069974E+04 -7.917165E+04 -6.022674E+03
       359  27 -6.025436E+05 -8.642501E+04 -1.246849E+05 -2.966337E+04 -1.191000E+05 -2.315232E+03
       360   1  6.875917E+05  3.689202E+06  7.733304E+05 -2.664865E+05  1.222982E+04  2.859603E+05
       360   2  2.354916E+05  3.315518E+06  4.667256E+05 -7.055266E+04  3.457188E+04  1.689876E+05
       360   3  1.994230E+05  3.061178E+06  3.400126E+05 -1.318802E+05  2.327344E+04  5.198945E+04
       360   4  3.203427E+05  2.213844E+06  4.094905E+05 -1.703749E+05  1.230882E+04  2.677512E+05
       360   5 -5.168217E+04  2.155650E+06  1.880344E+05 -4.207465E+04  3.458980E+04  1.663984E+05
       360   6 -9.948213E+03  2.214286E+06  1.359548E+05 -1.710257E+05  2.322797E+04  6.495967E+04
       360   7 -4.703394E+04  7.404734E+05  4.549577E+04 -7.448974E+04  1.238235E+04  2.495845E+05
       360   8 -3.389506E+05  9.970089E+05 -9.075197E+04 -1.364900E+04  3.460751E+04  1.638139E+05
       360   9 -2.193655E+05  1.368051E+06 -6.815248E+04 -2.101172E+05  2.318084E+04  7.791229E+04
       360  10  6.875697E+05  3.689115E+06  7.731774E+05 -2.664893E+05 -2.087432E-10  3.007711E-09
       360  11  2.354827E+05  3.315487E+06  4.666700E+05 -7.055735E+04 -1.473193E-09  1.936282E-09
       360  12  1.994217E+05  3.061175E+06  3.400065E+05 -1.318812E+05  5.970209E-10 -2.367277E-09
       360  13  3.203234E+05  2.213767E+06  4.093560E+05 -1.703776E+05 -1.313592E-09  1.061549E-09
       360  14 -5.169086E+04  2.155621E+06  1.879803E+05 -4.207929E+04 -2.622077E-09 -5.557861E-09
       360  15 -9.949921E+03  2.214281E+06  1.359459E+05 -1.710269E+05  6.414859E-10  4.547191E-09
       360  16 -4.705080E+04  7.404066E+05  4.537856E+04 -7.449223E+04 -1.299227E-09 -2.173160E-09
       360  17 -3.389591E+05  9.969798E+05 -9.080457E+04 -1.365357E+04 -4.728629E-10 -2.996592E-09
       360  18 -2.193677E+05  1.368044E+06 -6.816488E+04 -2.101187E+05  2.282340E-10 -7.118397E-10
       360  19  6.875917E+05  3.689202E+06  7.733304E+05 -2.664865E+05 -1.222982E+04 -2.859603E+05
       360  20  2.354916E+05  3.315518E+06  4.667256E+05 -7.055266E+04 -3.457188E+04 -1.689876E+05
       360  21  1.994230E+05  3.061178E+06  3.400126E+05 -1.318802E+05 -2.327344E+04 -5.198945E+04
       360  22  3.203427E+05  2.213844E+06  4.094905E+05 -1.703749E+05 -1.230882E+04 -2.677512E+05
       360  23 -5.168217E+04  2.155650E+06  1.880344E+05 -4.207465E+04 -3.458980E+04 -1.663984E+05
       360  24 -9.948213E+03  2.214286E+06  1.359548E+05 -1.710257E+05 -2.322797E+04 -6.495967E+04
       360  25 -4.703394E+04  7.404734E+05  4.549577E+04 -7.448974E+04 -1.238235E+04 -2.495845E+05
       360  26 -3.389506E+05  9.970089E+05 -9.075197E+04 -1.364900E+04 -3.460751E+04 -1.638139E+05
       360  27 -2.193655E+05  1.368051E+06 -6.815248E+04 -2.101172E+05 -2.318084E+04 -7.791229E+04
       361   1  1.288662E+05  2.574230E+06  2.141956E+05 -1.860081E+05  1.100481E+04  3.829339E+04
       361   2  5.299043E+03  2.251963E+06  1.174715E+05 -4.311731E+04  2.117591E+03 -1.342757E+04
       361   3 -1.584884E+04  1.959922E+06  7.946848E+04 -1.528702E+05 -7.000470E+03 -6.512607E+04
       361   4  3.485938E+04  2.195109E+06  1.229547E+05 -1.697396E+05  1.099135E+04  4.237742E+04
       361   5 -1.250989E+04  2.180046E+06  1.001520E+05 -4.340607E+04  2.102568E+03 -9.223763E+03
       361   6  4.253252E+04  2.195104E+06  1.360040E+05 -1.697098E+05 -7.014628E+03 -6.082761E+04
       361   7 -5.915691E+04  1.816118E+06  3.170375E+04 -1.534810E+05  1.097809E+04  4.645895E+04
       361   8 -3.031918E+04  2.108134E+06  8.283228E+04 -4.369479E+04  2.087540E+03 -5.020440E+03
       361   9  1.009109E+05  2.430338E+06  1.925358E+05 -1.865558E+05 -7.029017E+03 -5.652752E+04
       361  10  1.288656E+05  2.574229E+06  2.141926E+05 -1.860084E+05  1.509604E-09  1.251620E-09
       361  11  5.298990E+03  2.251963E+06  1.174712E+05 -4.311729E+04  2.903982E-09 -2.217335E-10
       361  12 -1.585002E+04  1.959917E+06  7.946044E+04 -1.528706E+05 -1.247659E-09 -1.746808E-09
       361  13  3.485877E+04  2.195107E+06  1.229511E+05 -1.697400E+05 -2.287926E-10  3.584760E-09
       361  14 -1.250991E+04  2.180046E+06  1.001519E+05 -4.340605E+04  2.387521E-09 -8.080297E-09
       361  15  4.253148E+04  2.195100E+06  1.359970E+05 -1.697102E+05  2.843680E-09  4.208507E-09
       361  16 -5.915762E+04  1.816116E+06  3.169948E+04 -1.534814E+05  1.246530E-09  4.117214E-10
       361  17 -3.031919E+04  2.108133E+06  8.283222E+04 -4.369478E+04 -2.361179E-09 -2.439422E-09
       361  18  1.009100E+05  2.430334E+06  1.925297E+05 -1.865561E+05 -9.610898E-11 -1.998207E-09
       361  19  1.288662E+05  2.574230E+06  2.141956E+05 -1.860081E+05 -1.100481E+04 -3.829339E+04
       361  20  5.299043E+03  2.251963E+06  1.174715E+05 -4.311731E+04 -2.117591E+03  1.342757E+04
       361  21 -1.584884E+04  1.959922E+06  7.946848E+04 -1.528702E+05  7.000470E+03  6.512607E+04
       361  22  3.485938E+04  2.195109E+06  1.229547E+05 -1.697396E+05 -1.099135E+04 -4.237742E+04
       361  23 -1.250989E+04  2.180046E+06  1.001520E+05 -4.340607E+04 -2.102568E+03  9.223763E+03
       361  24  4.253252E+04  2.195104E+06  1.360040E+05 -1.697098E+05  7.014628E+03  6.082761E+04
       361  25 -5.915691E+04  1.816118E+06  3.170375E+04 -1.534810E+05 -1.097809E+04 -4.645895E+04
       361  26 -3.031918E+04  2.108134E+06  8.283228E+04 -4.369479E+04 -2.087540E+03  5.020440E+03
       361  27  1.009109E+05  2.430338E+06  1.925358E+05 -1.865558E+05  7.029017E+03  5.652752E+04
       362   1 -1.873148E+05  1.517862E+06 -1.483958E+04 -2.181315E+05 -1.877514E+04 -9.836028E+04
       362   2 -3.126793E+05  1.137357E+06 -2.152491E+04 -8.763571E+03 -3.010071E+04 -2.040386E+05
       362   3  5.437791E+04  8.935762E+05  1.636172E+05 -5.526669E+04 -1.076645E+04 -3.095726E+05
       362   4 -1.389363E+04  2.219218E+06  1.543680E+05 -1.707893E+05 -1.882501E+04 -8.610916E+04
       362   5 -6.166238E+04  2.149579E+06  2.220014E+05 -4.242660E+04 -3.008172E+04 -2.059730E+05
       362   6  3.849820E+05  2.218725E+06  4.910344E+05 -1.698770E+05 -1.067318E+04 -3.257473E+05
       362   7  1.595005E+05  2.921028E+06  3.235424E+05 -1.233932E+05 -1.887299E+04 -7.384424E+04
       362   8  1.892841E+05  3.162739E+06  4.654554E+05 -7.614394E+04 -3.006256E+04 -2.079103E+05
       362   9  7.155039E+05  3.545494E+06  8.183293E+05 -2.847308E+05 -1.057410E+04 -3.419558E+05
       362  10 -1.873177E+05  1.517852E+06 -1.485838E+04 -2.181330E+05  7.765793E-12  2.036871E-09
       362  11 -3.126914E+05  1.137312E+06 -2.160470E+04 -8.768517E+03  6.187658E-10  1.343683E-09
       362  12  5.435211E+04  8.934734E+05  1.634372E+05 -5.526938E+04 -2.488606E-10  4.867721E-10
       362  13 -1.389599E+04  2.219210E+06  1.543535E+05 -1.707906E+05 -1.499678E-09  3.579893E-09
       362  14 -6.167469E+04  2.149534E+06  2.219202E+05 -4.243158E+04  8.109564E-10 -6.432918E-09
       362  15  3.849535E+05  2.218612E+06  4.908355E+05 -1.698798E+05 -5.444941E-10  2.857941E-09
       362  16  1.594986E+05  2.921022E+06  3.235315E+05 -1.233943E+05  1.968386E-09 -8.122777E-10
       362  17  1.892716E+05  3.162692E+06  4.653729E+05 -7.614897E+04 -8.484285E-10 -2.782728E-09
       362  18  7.154726E+05  3.545369E+06  8.181106E+05 -2.847337E+05 -1.651072E-09 -1.354694E-09
       362  19 -1.873148E+05  1.517862E+06 -1.483958E+04 -2.181315E+05  1.877514E+04  9.836028E+04
       362  20 -3.126793E+05  1.137357E+06 -2.152491E+04 -8.763571E+03  3.010071E+04  2.040386E+05
       362  21  5.437791E+04  8.935762E+05  1.636172E+05 -5.526669E+04  1.076645E+04  3.095726E+05
       362  22 -1.389363E+04  2.219218E+06  1.543680E+05 -1.707893E+05  1.882501E+04  8.610916E+04
       362  23 -6.166238E+04  2.149579E+06  2.220014E+05 -4.242660E+04  3.008172E+04  2.059730E+05
       362  24  3.849820E+05  2.218725E+06  4.910344E+05 -1.698770E+05  1.067318E+04  3.257473E+05
       362  25  1.595005E+05  2.921028E+06  3.235424E+05 -1.233932E+05  1.887299E+04  7.384424E+04
       362  26  1.892841E+05  3.162739E+06  4.654554E+05 -7.614394E+04  3.006256E+04  2.079103E+05
       362  27  7.155039E+05  3.545494E+06  8.183293E+05 -2.847308E+05  1.057410E+04  3.419558E+05
       363   1  4.881451E+04  2.673349E+03 -1.919141E+04  7.868610E+02 -7.253319E+04 -3.165845E+04
       363   2  5.086751E+04  1.029578E+05  4.521384E+04 -2.998977E+04 -4.496462E+04 -2.994622E+04
       363   3 -6.721214E+03  1.021326E+05  5.985371E+04 -1.545499E+04 -2.061189E+04 -1.970237E+04
       363   4 -3.551160E+05 -1.255457E+05 -1.244799E+05 -8.442758E+04 -7.755796E+04 -3.355476E+04
       363   5 -3.185067E+05 -2.947391E+04 -5.169614E+04 -1.240874E+05 -4.636441E+04 -3.047509E+04
       363   6 -3.422864E+05 -3.527159E+04 -3.157635E+04 -1.184277E+05 -1.838579E+04 -1.886248E+04
       363   7 -7.588861E+05 -2.537645E+05 -2.297804E+05 -1.695966E+05 -8.257906E+04 -3.545019E+04
       363   8 -6.877477E+05 -1.619000E+05 -1.486172E+05 -2.181355E+05 -4.776328E+04 -3.100364E+04
       363   9 -6.777422E+05 -1.726632E+05 -1.230165E+05 -2.213482E+05 -1.616101E+04 -1.802319E+04
       363  10  4.880859E+04  2.670860E+03 -1.920318E+04  7.850116E+02 -9.566335E-10  2.415814E-10
       363  11  5.086510E+04  1.029563E+05  4.520836E+04 -2.999086E+04  4.416865E-10 -2.976287E-09
       363  12 -6.721774E+03  1.021321E+05  5.985218E+04 -1.545532E+04  8.820823E-10 -4.826971E-09
       363  13 -3.551227E+05 -1.255485E+05 -1.244933E+05 -8.442968E+04  4.016836E-10  1.885357E-09
       363  14 -3.185092E+05 -2.947549E+04 -5.170193E+04 -1.240885E+05 -1.533851E-09 -1.607094E-09
       363  15 -3.422868E+05 -3.527206E+04 -3.157766E+04 -1.184280E+05 -2.980641E-10  1.665726E-09
       363  16 -7.588937E+05 -2.537677E+05 -2.297956E+05 -1.695990E+05 -3.904313E-10  4.024287E-10
       363  17 -6.877504E+05 -1.619016E+05 -1.486233E+05 -2.181367E+05  1.026455E-09 -8.206452E-10
       363  18 -6.777425E+05 -1.726636E+05 -1.230177E+05 -2.213484E+05  1.085134E-09  5.531114E-10
       363  19  4.881451E+04  2.673349E+03 -1.919141E+04  7.868610E+02  7.253319E+04  3.165845E+04
       363  20  5.086751E+04  1.029578E+05  4.521384E+04 -2.998977E+04  4.496462E+04  2.994622E+04
       363  21 -6.721214E+03  1.021326E+05  5.985371E+04 -1.545499E+04  2.061189E+04  1.970237E+04
       363  22 -3.551160E+05 -1.255457E+05 -1.244799E+05 -8.442758E+04  7.755796E+04  3.355476E+04
       363  23 -3.185067E+05 -2.947391E+04 -5.169614E+04 -1.240874E+05  4.636441E+04  3.047509E+04
       363  24 -3.422864E+05 -3.527159E+04 -3.157635E+04 -1.184277E+05  1.838579E+04  1.886248E+04
       363  25 -7.588861E+05 -2.537645E+05 -2.297804E+05 -1.695966E+05  8.257906E+04  3.545019E+04
       363  26 -6.877477E+05 -1.619000E+05 -1.486172E+05 -2.181355E+05  4.776328E+04  3.100364E+04
       363  27 -6.777422E+05 -1.726632E+05 -1.230165E+05 -2.213482E+05  1.616101E+04  1.802319E+04
       364   1 -2.865193E+04  6.581528E+04  5.640922E+04 -2.851136E+04 -1.441081E+04 -1.534224E+04
       364   2 -4.136050E+04  6.401919E+04  6.396759E+04 -4.449602E+04 -8.417984E+03 -1.291331E+04
       364   3 -7.384150E+04  6.278363E+04  6.336988E+04 -4.112805E+04 -2.719634E+03 -9.706506E+03
       364   4 -3.383786E+05 -4.846114E+04 -2.576604E+04 -1.106502E+05 -1.450779E+04 -1.537930E+04
       364   5 -3.277047E+05 -4.343436E+04 -1.221128E+04 -1.223165E+05 -8.185909E+03 -1.282600E+04
       364   6 -3.368718E+05 -3.791589E+04 -7.076676E+03 -1.146293E+05 -2.158323E+03 -9.494609E+03
       364   7 -6.480137E+05 -1.627331E+05 -1.079498E+05 -1.927528E+05 -1.460471E+04 -1.541633E+04
       364   8 -6.139702E+05 -1.508833E+05 -8.839738E+04 -2.001049E+05 -7.953950E+03 -1.273873E+04
       364   9 -5.998353E+05 -1.386107E+05 -7.752933E+04 -1.881024E+05 -1.597273E+03 -9.282815E+03
       364  10 -2.865222E+04  6.581498E+04  5.640839E+04 -2.851154E+04 -5.986726E-10 -4.169664E-09
       364  11 -4.136062E+04  6.401899E+04  6.396715E+04 -4.449610E+04 -2.472254E-10 -1.913419E-09
       364  12 -7.384153E+04  6.278353E+04  6.336969E+04 -4.112808E+04 -1.988071E-09 -6.801241E-09
       364  13 -3.383789E+05 -4.846145E+04 -2.576688E+04 -1.106503E+05 -3.299214E-11  7.848071E-10
       364  14 -3.277048E+05 -4.343456E+04 -1.221171E+04 -1.223166E+05 -8.713317E-10  7.501923E-09
       364  15 -3.368718E+05 -3.791598E+04 -7.076854E+03 -1.146294E+05 -2.642112E-09 -1.714210E-09
       364  16 -6.480140E+05 -1.627334E+05 -1.079506E+05 -1.927529E+05  1.654694E-09 -1.885272E-09
       364  17 -6.139704E+05 -1.508835E+05 -8.839781E+04 -2.001050E+05  9.479623E-10 -1.750585E-09
       364  18 -5.998354E+05 -1.386108E+05 -7.752950E+04 -1.881024E+05  5.098704E-12 -1.631419E-09
       364  19 -2.865193E+04  6.581528E+04  5.640922E+04 -2.851136E+04  1.441081E+04  1.534224E+04
       364  20 -4.136050E+04  6.401919E+04  6.396759E+04 -4.449602E+04  8.417984E+03  1.291331E+04
       364  21 -7.384150E+04  6.278363E+04  6.336988E+04 -4.112805E+04  2.719634E+03  9.706506E+03
       364  22 -3.383786E+05 -4.846114E+04 -2.576604E+04 -1.106502E+05  1.450779E+04  1.537930E+04
       364  23 -3.277047E+05 -4.343436E+04 -1.221128E+04 -1.223165E+05  8.185909E+03  1.282600E+04
       364  24 -3.368718E+05 -3.791589E+04 -7.076676E+03 -1.146293E+05  2.158323E+03  9.494609E+03
       364  25 -6.480137E+05 -1.627331E+05 -1.079498E+05 -1.927528E+05  1.460471E+04  1.541633E+04
       364  26 -6.139702E+05 -1.508833E+05 -8.839738E+04 -2.001049E+05  7.953950E+03  1.273873E+04
       364  27 -5.998353E+05 -1.386107E+05 -7.752933E+04 -1.881024E+05  1.597273E+03  9.282815E+03
       365   1 -1.087499E+05  4.638551E+04  5.503396E+04 -5.142139E+04 -1.734277E+03 -8.590456E+03
       365   2 -1.236399E+05  3.233038E+04  5.185257E+04 -6.594430E+04 -6.500387E+02 -7.195084E+03
       365   3 -1.536317E+05  3.108846E+04  4.720750E+04 -6.378239E+04  4.043992E+02 -5.722553E+03
       365   4 -3.364136E+05 -3.937265E+04 -5.548553E+03 -1.136363E+05 -1.381571E+03 -8.457319E+03
       365   5 -3.287697E+05 -4.515980E+04 -2.831700E+03 -1.222115E+05 -2.648724E+02 -7.049561E+03
       365   6 -3.362354E+05 -3.814010E+04 -1.604706E+03 -1.141015E+05  8.220796E+02 -5.564608E+03
       365   7 -5.640267E+05 -1.251275E+05 -6.613542E+04 -1.758305E+05 -1.029008E+03 -8.324235E+03
       365   8 -5.338589E+05 -1.226474E+05 -5.751964E+04 -1.784620E+05  1.201541E+02 -6.904091E+03
       365   9 -5.188074E+05 -1.073667E+05 -5.041996E+04 -1.644074E+05  1.239626E+03 -5.406714E+03
       365  10 -1.087500E+05  4.638543E+04  5.503381E+04 -5.142140E+04 -1.288390E-09  1.748509E-09
       365  11 -1.236399E+05  3.233032E+04  5.185247E+04 -6.594431E+04 -7.974337E-10  1.060530E-08
       365  12 -1.536317E+05  3.108842E+04  4.720744E+04 -6.378239E+04  3.668857E-10 -2.492222E-10
       365  13 -3.364136E+05 -3.937272E+04 -5.548691E+03 -1.136363E+05 -2.838985E-09 -1.585979E-09
       365  14 -3.287697E+05 -4.515985E+04 -2.831793E+03 -1.222115E+05 -1.229117E-09  1.763647E-09
       365  15 -3.362354E+05 -3.814013E+04 -1.604766E+03 -1.141015E+05 -1.310603E-09  3.865473E-09
       365  16 -5.640267E+05 -1.251276E+05 -6.613555E+04 -1.758305E+05 -2.082265E-09  2.794118E-10
       365  17 -5.338590E+05 -1.226475E+05 -5.751973E+04 -1.784620E+05  1.501604E-09 -1.292654E-08
       365  18 -5.188074E+05 -1.073668E+05 -5.042002E+04 -1.644074E+05 -8.047270E-10  1.915810E-09
       365  19 -1.087499E+05  4.638551E+04  5.503396E+04 -5.142139E+04  1.734277E+03  8.590456E+03
       365  20 -1.236399E+05  3.233038E+04  5.185257E+04 -6.594430E+04  6.500387E+02  7.195084E+03
       365  21 -1.536317E+05  3.108846E+04  4.720750E+04 -6.378239E+04 -4.043992E+02  5.722553E+03
       365  22 -3.364136E+05 -3.937265E+04 -5.548553E+03 -1.136363E+05  1.381571E+03  8.457319E+03
       365  23 -3.287697E+05 -4.515980E+04 -2.831700E+03 -1.222115E+05  2.648724E+02  7.049561E+03
       365  24 -3.362354E+05 -3.814010E+04 -1.604706E+03 -1.141015E+05 -8.220796E+02  5.564608E+03
       365  25 -5.640267E+05 -1.251275E+05 -6.613542E+04 -1.758305E+05  1.029008E+03  8.324235E+03
       365  26 -5.338589E+05 -1.226474E+05 -5.751964E+04 -1.784620E+05 -1.201541E+02  6.904091E+03
       365  27 -5.188074E+05 -1.073667E+05 -5.041996E+04 -1.644074E+05 -1.239626E+03  5.406714E+03
       366   1 -1.906526E+05  1.675034E+04  3.748957E+04 -7.396345E+04  4.441927E+02 -5.068039E+03
       366   2 -2.059944E+05  1.063447E+03  3.208251E+04 -8.849765E+04  4.267272E+02 -3.999666E+03
       366   3 -2.360490E+05 -1.945697E+02  2.637708E+04 -8.645109E+04  4.048348E+02 -2.920535E+03
       366   4 -3.362136E+05 -3.826627E+04 -1.240563E+03 -1.139392E+05  8.434055E+02 -4.917013E+03
       366   5 -3.288454E+05 -4.540734E+04 -6.818190E+02 -1.222570E+05  8.304709E+02 -3.846855E+03
       366   6 -3.361918E+05 -3.812044E+04 -4.251182E+02 -1.139941E+05  8.131214E+02 -2.765933E+03
       366   7 -4.817542E+05 -9.328157E+04 -3.997253E+04 -1.539065E+05  1.242515E+03 -4.766026E+03
       366   8 -4.516818E+05 -9.187714E+04 -3.344742E+04 -1.560103E+05  1.234126E+03 -3.694078E+03
       366   9 -4.363247E+05 -7.604560E+04 -2.722813E+04 -1.415331E+05  1.221334E+03 -2.611358E+03
       366  10 -1.906526E+05  1.675031E+04  3.748952E+04 -7.396345E+04  1.689961E-09 -4.184657E-09
       366  11 -2.059944E+05  1.063430E+03  3.208248E+04 -8.849765E+04 -2.251656E-09  1.165425E-08
       366  12 -2.360490E+05 -1.945789E+02  2.637707E+04 -8.645109E+04 -3.928121E-09 -1.825775E-09
       366  13 -3.362136E+05 -3.826629E+04 -1.240610E+03 -1.139392E+05 -6.815960E-10  1.806296E-09
       366  14 -3.288454E+05 -4.540736E+04 -6.818481E+02 -1.222570E+05  4.717476E-10  4.811240E-09
       366  15 -3.361918E+05 -3.812045E+04 -4.251338E+02 -1.139941E+05 -8.416202E-10  2.733810E-09
       366  16 -4.817542E+05 -9.328159E+04 -3.997258E+04 -1.539065E+05  2.117366E-10  4.176366E-09
       366  17 -4.516818E+05 -9.187715E+04 -3.344745E+04 -1.560103E+05 -7.838948E-10 -1.439743E-09
       366  18 -4.363247E+05 -7.604561E+04 -2.722815E+04 -1.415331E+05  1.255085E-09 -7.586293E-10
       366  19 -1.906526E+05  1.675034E+04  3.748957E+04 -7.396345E+04 -4.441927E+02  5.068039E+03
       366  20 -2.059944E+05  1.063447E+03  3.208251E+04 -8.849765E+04 -4.267272E+02  3.999666E+03
       366  21 -2.360490E+05 -1.945697E+02  2.637708E+04 -8.645109E+04 -4.048348E+02  2.920535E+03
       366  22 -3.362136E+05 -3.826627E+04 -1.240563E+03 -1.139392E+05 -8.434055E+02  4.917013E+03
       366  23 -3.288454E+05 -4.540734E+04 -6.818190E+02 -1.222570E+05 -8.304709E+02  3.846855E+03
       366  24 -3.361918E+05 -3.812044E+04 -4.251182E+02 -1.139941E+05 -8.131214E+02  2.765933E+03
       366  25 -4.817542E+05 -9.328157E+04 -3.997253E+04 -1.539065E+05 -1.242515E+03  4.766026E+03
       366  26 -4.516818E+05 -9.187714E+04 -3.344742E+04 -1.560103E+05 -1.234126E+03  3.694078E+03
       366  27 -4.363247E+05 -7.604560E+04 -2.722813E+04 -1.415331E+05 -1.221334E+03  2.611358E+03
       367   1 -2.736207E+05 -1.444955E+04  1.624492E+04 -9.675034E+04  2.592576E+02 -2.338987E+03
       367   2 -2.890874E+05 -3.041356E+04  1.029336E+04 -1.113632E+05  5.198742E+01 -1.326114E+03
       367   3 -3.193309E+05 -3.171622E+04  4.208353E+03 -1.093082E+05 -1.547831E+02 -3.148528E+02
       367   4 -3.362099E+05 -3.811242E+04 -3.611089E+02 -1.139573E+05  6.669657E+02 -2.184569E+03
       367   5 -3.288225E+05 -4.545071E+04 -3.058217E+02 -1.222883E+05  4.589994E+02 -1.171936E+03
       367   6 -3.362118E+05 -3.812733E+04 -3.832833E+02 -1.139516E+05  2.515383E+02 -1.609118E+02
       367   7 -3.987955E+05 -6.177510E+04 -1.696752E+04 -1.311627E+05  1.074630E+03 -2.030167E+03
       367   8 -3.685561E+05 -6.048778E+04 -1.090516E+04 -1.332128E+05  8.659833E+02 -1.017769E+03
       367   9 -3.530925E+05 -4.453842E+04 -4.974945E+03 -1.185948E+05  6.578475E+02 -6.975410E+00
       367  10 -2.736207E+05 -1.444956E+04  1.624491E+04 -9.675034E+04  4.709542E-09  1.259310E-09
       367  11 -2.890874E+05 -3.041356E+04  1.029336E+04 -1.113632E+05  4.223162E-09  3.643402E-09
       367  12 -3.193309E+05 -3.171622E+04  4.208352E+03 -1.093082E+05  4.952030E-09 -7.111372E-09
       367  13 -3.362099E+05 -3.811243E+04 -3.611187E+02 -1.139573E+05 -1.636821E-09 -5.523092E-09
       367  14 -3.288225E+05 -4.545071E+04 -3.058247E+02 -1.222883E+05 -1.450356E-09 -2.639664E-09
       367  15 -3.362118E+05 -3.812733E+04 -3.832835E+02 -1.139516E+05  3.520800E-09  6.500480E-10
       367  16 -3.987955E+05 -6.177511E+04 -1.696753E+04 -1.311627E+05 -3.588084E-09  2.336670E-09
       367  17 -3.685561E+05 -6.048779E+04 -1.090516E+04 -1.332128E+05  1.383337E-09  5.623311E-10
       367  18 -3.530925E+05 -4.453842E+04 -4.974946E+03 -1.185948E+05  5.204906E-09 -1.192364E-08
       367  19 -2.736207E+05 -1.444955E+04  1.624492E+04 -9.675034E+04 -2.592576E+02  2.338987E+03
       367  20 -2.890874E+05 -3.041356E+04  1.029336E+04 -1.113632E+05 -5.198742E+01  1.326114E+03
       367  21 -3.193309E+05 -3.171622E+04  4.208353E+03 -1.093082E+05  1.547831E+02  3.148528E+02
       367  22 -3.362099E+05 -3.811242E+04 -3.611089E+02 -1.139573E+05 -6.669657E+02  2.184569E+03
       367  23 -3.288225E+05 -4.545071E+04 -3.058217E+02 -1.222883E+05 -4.589994E+02  1.171936E+03
       367  24 -3.362118E+05 -3.812733E+04 -3.832833E+02 -1.139516E+05 -2.515383E+02  1.609118E+02
       367  25 -3.987955E+05 -6.177510E+04 -1.696752E+04 -1.311627E+05 -1.074630E+03  2.030167E+03
       367  26 -3.685561E+05 -6.048778E+04 -1.090516E+04 -1.332128E+05 -8.659833E+02  1.017769E+03
       367  27 -3.530925E+05 -4.453842E+04 -4.974945E+03 -1.185948E+05 -6.578475E+02  6.975410E+00
       368   1 -3.570162E+05 -4.601022E+04 -6.096135E+03 -1.197287E+05 -3.109204E+02  2.705863E+02
       368   2 -3.724570E+05 -6.191508E+04 -1.237717E+04 -1.342835E+05 -2.817996E+02  1.375637E+03
       368   3 -4.028228E+05 -6.349645E+04 -1.905837E+04 -1.320961E+05 -2.358028E+02  2.436461E+03
       368   4 -3.362277E+05 -3.808791E+04 -4.555066E+02 -1.139782E+05  1.068102E+02  4.288485E+02
       368   5 -3.287889E+05 -4.540339E+04 -7.320000E+02 -1.222917E+05  1.170682E+02  1.526726E+03
       368   6 -3.362717E+05 -3.839173E+04 -1.393593E+03 -1.138633E+05  1.442169E+02  2.580387E+03
       368   7 -3.154388E+05 -3.016560E+04  5.185070E+03 -1.082275E+05  5.245552E+02  5.871163E+02
       368   8 -2.851190E+05 -2.889158E+04  1.091301E+04 -1.102991E+05  5.159669E+02  1.677827E+03
       368   9 -2.697161E+05 -1.328667E+04  1.627084E+04 -9.562873E+04  5.242823E+02  2.724331E+03
       368  10 -3.570162E+05 -4.601022E+04 -6.096135E+03 -1.197287E+05 -5.271545E-10 -2.883409E-09
       368  11 -3.724570E+05 -6.191508E+04 -1.237718E+04 -1.342835E+05 -2.577455E-09 -6.486850E-09
       368  12 -4.028228E+05 -6.349646E+04 -1.905838E+04 -1.320961E+05 -2.189427E-09 -7.568479E-10
       368  13 -3.362277E+05 -3.808791E+04 -4.555070E+02 -1.139782E+05  7.977670E-10  2.613466E-09
       368  14 -3.287889E+05 -4.540339E+04 -7.320044E+02 -1.222917E+05  2.101227E-09 -5.753922E-09
       368  15 -3.362717E+05 -3.839174E+04 -1.393605E+03 -1.138633E+05 -1.715893E-09 -1.141144E-08
       368  16 -3.154388E+05 -3.016560E+04  5.185069E+03 -1.082275E+05  4.620857E-09 -7.575882E-09
       368  17 -2.851190E+05 -2.889158E+04  1.091300E+04 -1.102991E+05  1.918184E-10  6.090217E-09
       368  18 -2.697161E+05 -1.328668E+04  1.627083E+04 -9.562873E+04  1.695342E-09  3.127416E-09
       368  19 -3.570162E+05 -4.601022E+04 -6.096135E+03 -1.197287E+05  3.109204E+02 -2.705863E+02
       368  20 -3.724570E+05 -6.191508E+04 -1.237717E+04 -1.342835E+05  2.817996E+02 -1.375637E+03
       368  21 -4.028228E+05 -6.349645E+04 -1.905837E+04 -1.320961E+05  2.358028E+02 -2.436461E+03
       368  22 -3.362277E+05 -3.808791E+04 -4.555066E+02 -1.139782E+05 -1.068102E+02 -4.288485E+02
       368  23 -3.287889E+05 -4.540339E+04 -7.320000E+02 -1.222917E+05 -1.170682E+02 -1.526726E+03
       368  24 -3.362717E+05 -3.839173E+04 -1.393593E+03 -1.138633E+05 -1.442169E+02 -2.580387E+03
       368  25 -3.154388E+05 -3.016560E+04  5.185070E+03 -1.082275E+05 -5.245552E+02 -5.871163E+02
       368  26 -2.851190E+05 -2.889158E+04  1.091301E+04 -1.102991E+05 -5.159669E+02 -1.677827E+03
       368  27 -2.697161E+05 -1.328667E+04  1.627084E+04 -9.562873E+04 -5.242823E+02 -2.724331E+03
       369   1 -4.402002E+05 -7.766264E+04 -2.960535E+04 -1.429833E+05 -3.453720E+02  3.109082E+03
       369   2 -4.553865E+05 -9.278455E+04 -3.682778E+04 -1.569917E+05  1.081659E+03  4.739611E+03
       369   3 -4.866589E+05 -9.670543E+04 -4.630425E+04 -1.536291E+05  2.690107E+03  5.891563E+03
       369   4 -3.363743E+05 -3.803724E+04 -1.767423E+03 -1.141182E+05  1.637256E+02  3.301860E+03
       369   5 -3.285398E+05 -4.496805E+04 -3.035207E+03 -1.223079E+05  1.386864E+03  4.855102E+03
       369   6 -3.367511E+05 -4.065717E+04 -6.394854E+03 -1.131270E+05  2.791474E+03  5.929841E+03
       369   7 -2.325380E+05  1.588877E+03  2.606955E+04 -8.524881E+04  6.729168E+02  3.494674E+03
       369   8 -2.016778E+05  2.849347E+03  3.075591E+04 -8.761781E+04  1.692138E+03  4.970619E+03
       369   9 -1.868220E+05  1.539220E+04  3.351248E+04 -7.261635E+04  2.892867E+03  5.968129E+03
       369  10 -4.402002E+05 -7.766265E+04 -2.960537E+04 -1.429833E+05 -3.104944E-09 -4.474677E-09
       369  11 -4.553865E+05 -9.278457E+04 -3.682782E+04 -1.569917E+05 -3.562757E-09  4.118803E-09
       369  12 -4.866589E+05 -9.670547E+04 -4.630432E+04 -1.536291E+05 -3.629922E-09  1.882230E-09
       369  13 -3.363743E+05 -3.803725E+04 -1.767443E+03 -1.141182E+05 -1.900660E-09  2.475584E-09
       369  14 -3.285398E+05 -4.496808E+04 -3.035255E+03 -1.223079E+05 -1.665869E-10  4.642660E-10
       369  15 -3.367511E+05 -4.065721E+04 -6.394935E+03 -1.131271E+05 -1.168566E-09  2.483874E-09
       369  16 -2.325380E+05  1.588864E+03  2.606953E+04 -8.524882E+04  5.013145E-09  5.801971E-09
       369  17 -2.016778E+05  2.849320E+03  3.075586E+04 -8.761781E+04  2.159892E-09 -2.574797E-09
       369  18 -1.868220E+05  1.539216E+04  3.351239E+04 -7.261637E+04  2.081531E-09  3.776576E-09
       369  19 -4.402002E+05 -7.766264E+04 -2.960535E+04 -1.429833E+05  3.453720E+02 -3.109082E+03
       369  20 -4.553865E+05 -9.278455E+04 -3.682778E+04 -1.569917E+05 -1.081659E+03 -4.739611E+03
       369  21 -4.866589E+05 -9.670543E+04 -4.630425E+04 -1.536291E+05 -2.690107E+03 -5.891563E+03
       369  22 -3.363743E+05 -3.803724E+04 -1.767423E+03 -1.141182E+05 -1.637256E+02 -3.301860E+03
       369  23 -3.285398E+05 -4.496805E+04 -3.035207E+03 -1.223079E+05 -1.386864E+03 -4.855102E+03
       369  24 -3.367511E+05 -4.065717E+04 -6.394854E+03 -1.131270E+05 -2.791474E+03 -5.929841E+03
       369  25 -2.325380E+05  1.588877E+03  2.606955E+04 -8.524881E+04 -6.729168E+02 -3.494674E+03
       369  26 -2.016778E+05  2.849347E+03  3.075591E+04 -8.761781E+04 -1.692138E+03 -4.970619E+03
       369  27 -1.868220E+05  1.539220E+04  3.351248E+04 -7.261635E+04 -2.892867E+03 -5.968129E+03
       370   1 -5.223021E+05 -1.099280E+05 -5.758083E+04 -1.685494E+05  1.880745E+03  7.094197E+03
       370   2 -5.363277E+05 -1.191443E+05 -6.839420E+04 -1.786211E+05  1.078872E+04  1.156785E+04
       370   3 -5.767214E+05 -1.431010E+05 -9.405133E+04 -1.650366E+05  2.169163E+04  1.076519E+04
       370   4 -3.376738E+05 -3.742276E+04 -7.832841E+03 -1.151010E+05  3.419154E+03  7.676252E+03
       370   5 -3.263168E+05 -4.146777E+04 -1.282678E+04 -1.226991E+05  1.007861E+04  1.129904E+04
       370   6 -3.408778E+05 -5.980107E+04 -3.087656E+04 -1.066420E+05  1.873305E+04  9.646363E+03
       370   7 -1.530119E+05  3.508560E+04  4.191231E+04 -6.163781E+04  4.958072E+03  8.258516E+03
       370   8 -1.162635E+05  3.621092E+04  4.273680E+04 -6.676032E+04  9.368240E+03  1.103013E+04
       370   9 -1.049823E+05  2.349999E+04  3.229311E+04 -4.822842E+04  1.577324E+04  8.527139E+03
       370  10 -5.223021E+05 -1.099281E+05 -5.758093E+04 -1.685494E+05 -4.359102E-09  5.908935E-09
       370  11 -5.363279E+05 -1.191444E+05 -6.839467E+04 -1.786212E+05 -4.127531E-10  1.212346E-08
       370  12 -5.767219E+05 -1.431013E+05 -9.405244E+04 -1.650368E+05  1.464448E-09  3.738058E-09
       370  13 -3.376738E+05 -3.742283E+04 -7.832973E+03 -1.151010E+05 -3.992447E-09 -1.924829E-09
       370  14 -3.263169E+05 -4.146793E+04 -1.282721E+04 -1.226992E+05 -4.648425E-10  5.574188E-09
       370  15 -3.408782E+05 -5.980126E+04 -3.087739E+04 -1.066421E+05 -4.458472E-09  1.378258E-09
       370  16 -1.530119E+05  3.508552E+04  4.191213E+04 -6.163784E+04 -8.573963E-10  6.376201E-09
       370  17 -1.162636E+05  3.621077E+04  4.273641E+04 -6.676040E+04 -5.578419E-09  6.323128E-09
       370  18 -1.049825E+05  2.349984E+04  3.229251E+04 -4.822853E+04 -5.085362E-09 -2.974033E-09
       370  19 -5.223021E+05 -1.099280E+05 -5.758083E+04 -1.685494E+05 -1.880745E+03 -7.094197E+03
       370  20 -5.363277E+05 -1.191443E+05 -6.839420E+04 -1.786211E+05 -1.078872E+04 -1.156785E+04
       370  21 -5.767214E+05 -1.431010E+05 -9.405133E+04 -1.650366E+05 -2.169163E+04 -1.076519E+04
       370  22 -3.376738E+05 -3.742276E+04 -7.832841E+03 -1.151010E+05 -3.419154E+03 -7.676252E+03
       370  23 -3.263168E+05 -4.146777E+04 -1.282678E+04 -1.226991E+05 -1.007861E+04 -1.129904E+04
       370  24 -3.408778E+05 -5.980107E+04 -3.087656E+04 -1.066420E+05 -1.873305E+04 -9.646363E+03
       370  25 -1.530119E+05  3.508560E+04  4.191231E+04 -6.163781E+04 -4.958072E+03 -8.258516E+03
       370  26 -1.162635E+05  3.621092E+04  4.273680E+04 -6.676032E+04 -9.368240E+03 -1.103013E+04
       370  27 -1.049823E+05  2.349999E+04  3.229311E+04 -4.822842E+04 -1.577324E+04 -8.527139E+03
       371   1 -1.973073E+05  7.756111E+03 -2.778820E+04 -1.880911E+04 -1.035325E+05 -5.361034E+03
       371   2 -2.114661E+05  1.456807E+05  5.136409E+04 -7.361675E+03 -7.048417E+04 -1.536711E+04
       371   3 -2.698913E+05  1.232496E+05  6.896240E+04  3.385174E+04 -3.747252E+04 -1.396456E+04
       371   4 -7.397577E+05 -1.273699E+05 -1.619173E+05  1.697640E+04 -1.106703E+05 -5.388052E+03
       371   5 -7.171288E+05  2.018185E+04 -7.060612E+04  1.892836E+03 -7.245138E+04 -1.537541E+04
       371   6 -7.397054E+05  6.406260E+03 -4.448046E+04  1.657737E+04 -3.426686E+04 -1.395289E+04
       371   7 -1.281937E+06 -2.625129E+05 -2.960673E+05  5.273041E+04 -1.178018E+05 -5.415908E+03
       371   8 -1.222557E+06 -1.053353E+05 -1.925945E+05  1.113959E+04 -7.441698E+04 -1.538379E+04
       371   9 -1.209317E+06 -1.104522E+05 -1.579390E+05 -6.840667E+02 -3.106361E+04 -1.394138E+04
       371  10 -1.973188E+05  7.753201E+03 -2.780841E+04 -1.880955E+04 -4.627646E-09  2.557506E-09
       371  11 -2.114715E+05  1.456791E+05  5.135431E+04 -7.362547E+03 -1.828615E-09  1.325103E-08
       371  12 -2.698929E+05  1.232490E+05  6.895939E+04  3.385132E+04 -9.941821E-11  6.877901E-09
       371  13 -7.397709E+05 -1.273732E+05 -1.619404E+05  1.697592E+04  7.941998E-12 -4.656386E-09
       371  14 -7.171345E+05  2.018019E+04 -7.061644E+04  1.891938E+03  5.132859E-10 -8.097324E-09
       371  15 -7.397067E+05  6.405735E+03 -4.448303E+04  1.657698E+04 -1.988120E-09  3.457057E-10
       371  16 -1.281952E+06 -2.625167E+05 -2.960935E+05  5.272989E+04  4.506033E-09 -9.849630E-10
       371  17 -1.222563E+06 -1.053371E+05 -1.926054E+05  1.113867E+04 -1.158085E-09  6.879354E-09
       371  18 -1.209318E+06 -1.104527E+05 -1.579411E+05 -6.844157E+02 -2.782040E-09 -2.726901E-09
       371  19 -1.973073E+05  7.756111E+03 -2.778820E+04 -1.880911E+04  1.035325E+05  5.361034E+03
       371  20 -2.114661E+05  1.456807E+05  5.136409E+04 -7.361675E+03  7.048417E+04  1.536711E+04
       371  21 -2.698913E+05  1.232496E+05  6.896240E+04  3.385174E+04  3.747252E+04  1.396456E+04
       371  22 -7.397577E+05 -1.273699E+05 -1.619173E+05  1.697640E+04  1.106703E+05  5.388052E+03
       371  23 -7.171288E+05  2.018185E+04 -7.060612E+04  1.892836E+03  7.245138E+04  1.537541E+04
       371  24 -7.397054E+05  6.406260E+03 -4.448046E+04  1.657737E+04  3.426686E+04  1.395289E+04
       371  25 -1.281937E+06 -2.625129E+05 -2.960673E+05  5.273041E+04  1.178018E+05  5.415908E+03
       371  26 -1.222557E+06 -1.053353E+05 -1.925945E+05  1.113959E+04  7.441698E+04  1.538379E+04
       371  27 -1.209317E+06 -1.104522E+05 -1.579390E+05 -6.840667E+02  3.106361E+04  1.394138E+04
       372   1 -3.170711E+05  8.859788E+04  6.376212E+04  1.439669E+04 -2.731616E+04 -1.144912E+04
       372   2 -3.518475E+05  9.577030E+04  7.253320E+04  1.645889E+03 -1.832527E+04 -1.092127E+04
       372   3 -3.923889E+05  8.500722E+04  7.094396E+04  1.995655E+04 -9.339851E+03 -9.416014E+03
       372   4 -7.309566E+05 -1.422861E+04 -3.639429E+04  1.703412E+04 -2.730138E+04 -1.144973E+04
       372   5 -7.280268E+05  2.318832E+03 -1.834568E+04  1.474002E+03 -1.787064E+04 -1.091993E+04
       372   6 -7.309443E+05  8.479070E+02 -1.096826E+04  1.697676E+04 -8.444849E+03 -9.412537E+03
       372   7 -1.144685E+06 -1.170676E+05 -1.365630E+05  1.966962E+04 -2.728660E+04 -1.145034E+04
       372   8 -1.104077E+06 -9.114300E+04 -1.092347E+05  1.302092E+03 -1.741629E+04 -1.091859E+04
       372   9 -1.069395E+06 -8.331979E+04 -9.288871E+04  1.399848E+04 -7.550334E+03 -9.409069E+03
       372  10 -3.170719E+05  8.859754E+04  6.376047E+04  1.439644E+04 -3.209579E-09 -1.418148E-09
       372  11 -3.518479E+05  9.577009E+04  7.253235E+04  1.645727E+03 -1.004655E-09  6.187011E-09
       372  12 -3.923890E+05  8.500711E+04  7.094363E+04  1.995648E+04  3.547582E-09  1.299687E-08
       372  13 -7.309575E+05 -1.422895E+04 -3.639594E+04  1.703386E+04 -2.169841E-09  9.138137E-09
       372  14 -7.280272E+05  2.318618E+03 -1.834650E+04  1.473845E+03  1.327619E-09 -2.183902E-08
       372  15 -7.309444E+05  8.477927E+02 -1.096856E+04  1.697669E+04 -1.341166E-09  9.459935E-09
       372  16 -1.144686E+06 -1.170680E+05 -1.365647E+05  1.966937E+04  7.326265E-10 -1.112906E-08
       372  17 -1.104077E+06 -9.114321E+04 -1.092355E+05  1.301939E+03 -3.029201E-09 -5.687765E-09
       372  18 -1.069395E+06 -8.331990E+04 -9.288899E+04  1.399842E+04 -4.931691E-09  1.522099E-09
       372  19 -3.170711E+05  8.859788E+04  6.376212E+04  1.439669E+04  2.731616E+04  1.144912E+04
       372  20 -3.518475E+05  9.577030E+04  7.253320E+04  1.645889E+03  1.832527E+04  1.092127E+04
       372  21 -3.923889E+05  8.500722E+04  7.094396E+04  1.995655E+04  9.339851E+03  9.416014E+03
       372  22 -7.309566E+05 -1.422861E+04 -3.639429E+04  1.703412E+04  2.730138E+04  1.144973E+04
       372  23 -7.280268E+05  2.318832E+03 -1.834568E+04  1.474002E+03  1.787064E+04  1.091993E+04
       372  24 -7.309443E+05  8.479070E+02 -1.096826E+04  1.697676E+04  8.444849E+03  9.412537E+03
       372  25 -1.144685E+06 -1.170676E+05 -1.365630E+05  1.966962E+04  2.728660E+04  1.145034E+04
       372  26 -1.104077E+06 -9.114300E+04 -1.092347E+05  1.302092E+03  1.741629E+04  1.091859E+04
       372  27 -1.069395E+06 -8.331979E+04 -9.288871E+04  1.399848E+04  7.550334E+03  9.409069E+03
       373   1 -4.493464E+05  6.822938E+04  5.906486E+04  1.778544E+04 -7.343834E+03 -8.400314E+03
       373   2 -4.875822E+05  6.035929E+04  5.373154E+04  1.977079E+03 -5.035159E+03 -6.965827E+03
       373   3 -5.268370E+05  5.072580E+04  4.639447E+04  1.814473E+04 -2.727842E+03 -5.436020E+03
       373   4 -7.298640E+05 -1.449554E+03 -8.625753E+03  1.720329E+04 -6.714392E+03 -8.397831E+03
       373   5 -7.293479E+05  2.859208E+02 -4.689764E+03  1.211050E+03 -4.363254E+03 -6.962985E+03
       373   6 -7.298595E+05  2.503329E+02 -2.787516E+03  1.719560E+04 -2.013331E+03 -5.432799E+03
       373   7 -1.010310E+06 -7.113425E+04 -7.632200E+04  1.662133E+04 -6.085233E+03 -8.395348E+03
       373   8 -9.710601E+05 -5.979173E+04 -6.311526E+04  4.452598E+02 -3.691610E+03 -6.960144E+03
       373   9 -9.328442E+05 -5.022816E+04 -5.197247E+04  1.624674E+04 -1.299052E+03 -5.429581E+03
       373  10 -4.493465E+05  6.822929E+04  5.906463E+04  1.778539E+04  2.816093E-09 -3.035033E-09
       373  11 -4.875822E+05  6.035923E+04  5.373140E+04  1.977051E+03 -6.408785E-10 -3.841447E-09
       373  12 -5.268370E+05  5.072577E+04  4.639440E+04  1.814472E+04  1.431940E-09 -4.260815E-09
       373  13 -7.298641E+05 -1.449642E+03 -8.625970E+03  1.720325E+04 -1.578086E-09  1.813761E-09
       373  14 -7.293479E+05  2.858636E+02 -4.689890E+03  1.211025E+03  1.505444E-09 -3.825717E-09
       373  15 -7.298595E+05  2.503002E+02 -2.787579E+03  1.719559E+04  1.538875E-09 -3.337457E-09
       373  16 -1.010310E+06 -7.113433E+04 -7.632220E+04  1.662129E+04 -5.307245E-09 -6.215371E-09
       373  17 -9.710601E+05 -5.979178E+04 -6.311537E+04  4.452391E+02 -2.759432E-09  4.096677E-09
       373  18 -9.328442E+05 -5.022819E+04 -5.197253E+04  1.624674E+04 -7.178463E-10  1.147612E-08
       373  19 -4.493464E+05  6.822938E+04  5.906486E+04  1.778544E+04  7.343834E+03  8.400314E+03
       373  20 -4.875822E+05  6.035929E+04  5.373154E+04  1.977079E+03  5.035159E+03  6.965827E+03
       373  21 -5.268370E+05  5.072580E+04  4.639447E+04  1.814473E+04  2.727842E+03  5.436020E+03
       373  22 -7.298640E+05 -1.449554E+03 -8.625753E+03  1.720329E+04  6.714392E+03  8.397831E+03
       373  23 -7.293479E+05  2.859208E+02 -4.689764E+03  1.211050E+03  4.363254E+03  6.962985E+03
       373  24 -7.298595E+05  2.503329E+02 -2.787516E+03  1.719560E+04  2.013331E+03  5.432799E+03
       373  25 -1.010310E+06 -7.113425E+04 -7.632200E+04  1.662133E+04  6.085233E+03  8.395348E+03
       373  26 -9.710601E+05 -5.979173E+04 -6.311526E+04  4.452598E+02  3.691610E+03  6.960144E+03
       373  27 -9.328442E+05 -5.022816E+04 -5.197247E+04  1.624674E+04  1.299052E+03  5.429581E+03
       374   1 -5.860705E+05  3.567360E+04  3.240358E+04  1.780531E+04 -2.264448E+03 -4.531846E+03
       374   2 -6.252153E+05  2.597713E+04  2.385141E+04  1.448446E+03 -1.605020E+03 -3.001285E+03
       374   3 -6.648032E+05  1.634083E+04  1.480534E+04  1.757859E+04 -9.460635E+02 -1.457920E+03
       374   4 -7.297242E+05 -2.198035E-01 -2.194270E+03  1.731196E+04 -1.571148E+03 -4.528632E+03
       374   5 -7.295006E+05  6.175541E+01 -1.351166E+03  1.067766E+03 -9.060429E+02 -2.997969E+03
       374   6 -7.297224E+05  1.829763E+02 -1.005914E+03  1.731091E+04 -2.413670E+02 -1.454495E+03
       374   7 -8.733589E+05 -3.567554E+04 -3.679359E+04  1.681870E+04 -8.780086E+02 -4.525418E+03
       374   8 -8.337758E+05 -2.585442E+04 -2.655452E+04  6.871394E+02 -2.071829E+02 -2.994654E+03
       374   9 -7.946378E+05 -1.597519E+04 -1.681747E+04  1.704326E+04  4.632560E+02 -1.451070E+03
       374  10 -5.860705E+05  3.567357E+04  3.240353E+04  1.780530E+04  7.213877E-11 -1.207013E-08
       374  11 -6.252153E+05  2.597712E+04  2.385139E+04  1.448442E+03 -5.926594E-09  4.075136E-09
       374  12 -6.648032E+05  1.634083E+04  1.480534E+04  1.757859E+04 -4.461844E-09  2.538907E-09
       374  13 -7.297242E+05 -2.424816E-01 -2.194313E+03  1.731195E+04  5.342542E-10 -9.253163E-10
       374  14 -7.295006E+05  6.174554E+01 -1.351185E+03  1.067764E+03  1.831720E-09 -6.662419E-09
       374  15 -7.297224E+05  1.829740E+02 -1.005918E+03  1.731091E+04  1.633266E-10 -1.040281E-08
       374  16 -8.733589E+05 -3.567557E+04 -3.679363E+04  1.681870E+04 -7.328098E-10  6.868756E-09
       374  17 -8.337758E+05 -2.585443E+04 -2.655454E+04  6.871389E+02  2.178212E-09  1.304866E-08
       374  18 -7.946378E+05 -1.597519E+04 -1.681748E+04  1.704326E+04  5.138123E-09  2.913309E-09
       374  19 -5.860705E+05  3.567360E+04  3.240358E+04  1.780531E+04  2.264448E+03  4.531846E+03
       374  20 -6.252153E+05  2.597713E+04  2.385141E+04  1.448446E+03  1.605020E+03  3.001285E+03
       374  21 -6.648032E+05  1.634083E+04  1.480534E+04  1.757859E+04  9.460635E+02  1.457920E+03
       374  22 -7.297242E+05 -2.198032E-01 -2.194270E+03  1.731196E+04  1.571148E+03  4.528632E+03
       374  23 -7.295006E+05  6.175541E+01 -1.351166E+03  1.067766E+03  9.060429E+02  2.997969E+03
       374  24 -7.297224E+05  1.829763E+02 -1.005914E+03  1.731091E+04  2.413670E+02  1.454495E+03
       374  25 -8.733589E+05 -3.567554E+04 -3.679359E+04  1.681870E+04  8.780086E+02  4.525418E+03
       374  26 -8.337758E+05 -2.585442E+04 -2.655452E+04  6.871394E+02  2.071829E+02  2.994654E+03
       374  27 -7.946378E+05 -1.597519E+04 -1.681747E+04  1.704326E+04 -4.632560E+02  1.451070E+03
       375   1 -7.247308E+05  1.388117E+03  1.312299E+02  1.733503E+04 -7.740168E+02 -5.560748E+02
       375   2 -7.640060E+05 -8.520121E+03 -9.390723E+03  9.117892E+02 -2.548653E+02  9.894343E+02
       375   3 -8.037069E+05 -1.829634E+04 -1.930146E+04  1.708002E+04  2.644040E+02  2.527376E+03
       375   4 -7.297171E+05  1.734142E+02 -9.523877E+02  1.733413E+04 -6.933505E+01 -5.526309E+02
       375   5 -7.295039E+05  5.454905E+01 -1.051951E+03  1.038710E+03  4.463619E+02  9.928328E+02
       375   6 -7.297177E+05  6.826992E+01 -1.537940E+03  1.733465E+04  9.622098E+02  2.530735E+03
       375   7 -7.347034E+05 -1.041290E+03 -2.036005E+03  1.733322E+04  6.353411E+02 -5.491869E+02
       375   8 -6.950006E+05  8.629133E+03  7.286737E+03  1.165636E+03  1.147628E+03  9.962314E+02
       375   9 -6.557235E+05  1.843249E+04  1.622520E+04  1.758930E+04  1.660098E+03  2.534094E+03
       375  10 -7.247308E+05  1.388116E+03  1.312282E+02  1.733503E+04 -7.437131E-09  9.361610E-10
       375  11 -7.640060E+05 -8.520122E+03 -9.390725E+03  9.117894E+02 -4.134632E-09 -8.806751E-09
       375  12 -8.037069E+05 -1.829635E+04 -1.930148E+04  1.708002E+04 -4.241878E-09 -4.944039E-09
       375  13 -7.297171E+05  1.734139E+02 -9.523883E+02  1.733413E+04 -1.103371E-09  8.693151E-09
       375  14 -7.295039E+05  5.454793E+01 -1.051954E+03  1.038709E+03  1.321160E-09  1.680141E-09
       375  15 -7.297177E+05  6.826280E+01 -1.537954E+03  1.733465E+04 -1.581380E-10 -4.525339E-09
       375  16 -7.347034E+05 -1.041290E+03 -2.036006E+03  1.733322E+04  5.396823E-09 -8.359531E-10
       375  17 -6.950006E+05  8.629131E+03  7.286733E+03  1.165635E+03  2.199789E-09 -1.854097E-08
       375  18 -6.557235E+05  1.843248E+04  1.622518E+04  1.758930E+04  4.251589E-09 -1.227784E-08
       375  19 -7.247308E+05  1.388117E+03  1.312299E+02  1.733503E+04  7.740168E+02  5.560748E+02
       375  20 -7.640060E+05 -8.520121E+03 -9.390723E+03  9.117892E+02  2.548653E+02 -9.894343E+02
       375  21 -8.037069E+05 -1.829634E+04 -1.930146E+04  1.708002E+04 -2.644040E+02 -2.527376E+03
       375  22 -7.297171E+05  1.734142E+02 -9.523877E+02  1.733413E+04  6.933505E+01  5.526309E+02
       375  23 -7.295039E+05  5.454905E+01 -1.051951E+03  1.038710E+03 -4.463619E+02 -9.928328E+02
       375  24 -7.297177E+05  6.826992E+01 -1.537940E+03  1.733465E+04 -9.622098E+02 -2.530735E+03
       375  25 -7.347034E+05 -1.041290E+03 -2.036005E+03  1.733322E+04 -6.353411E+02  5.491869E+02
       375  26 -6.950006E+05  8.629133E+03  7.286737E+03  1.165636E+03 -1.147628E+03 -9.962314E+02
       375  27 -6.557235E+05  1.843249E+04  1.622520E+04  1.758930E+04 -1.660098E+03 -2.534094E+03
       376   1 -8.635293E+05 -3.303015E+04 -3.434866E+04  1.662639E+04  5.497672E+02  3.435438E+03
       376   2 -9.022371E+05 -4.275528E+04 -4.489967E+04  5.533350E+02  2.149983E+03  4.975492E+03
       376   3 -9.417546E+05 -5.354562E+04 -5.683176E+04  1.676143E+04  3.751100E+03  6.433698E+03
       376   4 -7.298050E+05  2.316846E+02 -1.905886E+03  1.726362E+04  1.266637E+03  3.438831E+03
       376   5 -7.294047E+05  2.006957E+02 -3.125420E+03  1.125976E+03  2.829949E+03  4.978579E+03
       376   6 -7.298083E+05 -8.885753E+02 -5.699823E+03  1.726894E+04  4.394263E+03  6.436493E+03
       376   7 -5.960644E+05  3.349220E+04  3.053560E+04  1.790096E+04  1.983660E+03  3.442226E+03
       376   8 -5.565450E+05  4.315449E+04  3.864669E+04  1.698746E+03  3.510105E+03  4.981667E+03
       376   9 -5.178209E+05  5.176519E+04  4.542890E+04  1.777657E+04  5.037645E+03  6.439288E+03
       376  10 -8.635294E+05 -3.303016E+04 -3.434869E+04  1.662639E+04 -7.658146E-09 -2.923320E-09
       376  11 -9.022371E+05 -4.275531E+04 -4.489973E+04  5.533263E+02 -4.128184E-09 -1.331456E-08
       376  12 -9.417546E+05 -5.354567E+04 -5.683186E+04  1.676141E+04 -6.397659E-10 -2.869785E-10
       376  13 -7.298050E+05  2.316715E+02 -1.905911E+03  1.726361E+04 -5.026825E-10 -3.962596E-09
       376  14 -7.294047E+05  2.006669E+02 -3.125481E+03  1.125965E+03  7.078564E-10 -2.311306E-10
       376  15 -7.298084E+05 -8.886249E+02 -5.699937E+03  1.726891E+04 -2.083081E-09  6.793956E-09
       376  16 -5.960644E+05  3.349219E+04  3.053557E+04  1.790095E+04  5.208649E-09  5.067485E-09
       376  17 -5.565450E+05  4.315446E+04  3.864662E+04  1.698732E+03  2.257065E-09 -6.947490E-09
       376  18 -5.178209E+05  5.176514E+04  4.542878E+04  1.777654E+04  9.501809E-10  1.553731E-08
       376  19 -8.635293E+05 -3.303015E+04 -3.434866E+04  1.662639E+04 -5.497672E+02 -3.435438E+03
       376  20 -9.022371E+05 -4.275528E+04 -4.489967E+04  5.533350E+02 -2.149983E+03 -4.975492E+03
       376  21 -9.417546E+05 -5.354562E+04 -5.683176E+04  1.676143E+04 -3.751100E+03 -6.433698E+03
       376  22 -7.298050E+05  2.316846E+02 -1.905886E+03  1.726362E+04 -1.266637E+03 -3.438831E+03
       376  23 -7.294047E+05  2.006957E+02 -3.125420E+03  1.125976E+03 -2.829949E+03 -4.978579E+03
       376  24 -7.298083E+05 -8.885753E+02 -5.699823E+03  1.726894E+04 -4.394263E+03 -6.436493E+03
       376  25 -5.960644E+05  3.349220E+04  3.053560E+04  1.790096E+04 -1.983660E+03 -3.442226E+03
       376  26 -5.565450E+05  4.315449E+04  3.864669E+04  1.698746E+03 -3.510105E+03 -4.981667E+03
       376  27 -5.178209E+05  5.176519E+04  4.542890E+04  1.777657E+04 -5.037645E+03 -6.439288E+03
       377   1 -1.001233E+06 -6.669947E+04 -7.278089E+04  1.493183E+04  4.655790E+03  7.441799E+03
       377   2 -1.037482E+06 -7.524545E+04 -8.674709E+04  9.653754E+02  1.125259E+04  8.964313E+03
       377   3 -1.077752E+06 -9.561478E+04 -1.080138E+05  1.857269E+04  1.785350E+04  9.620459E+03
       377   4 -7.305154E+05  6.244077E+02 -7.234524E+03  1.709513E+04  5.534867E+03  7.445533E+03
       377   5 -7.285439E+05  1.535203E+03 -1.208247E+04  1.329218E+03  1.173987E+04  8.966086E+03
       377   6 -7.305245E+05 -9.305731E+03 -2.395572E+04  1.713622E+04  1.794938E+04  9.620427E+03
       377   7 -4.597309E+05  6.794292E+04  5.830657E+04  1.925929E+04  6.414326E+03  7.449272E+03
       377   8 -4.195186E+05  7.830886E+04  6.257530E+04  1.693149E+03  1.222739E+04  8.967859E+03
       377   9 -3.831867E+05  7.699449E+04  6.009364E+04  1.569882E+04  1.804532E+04  9.620395E+03
       377  10 -1.001233E+06 -6.669954E+04 -7.278104E+04  1.493181E+04  8.695755E-09  4.969092E-09
       377  11 -1.037482E+06 -7.524557E+04 -8.674747E+04  9.652941E+02 -1.440606E-09  1.052682E-08
       377  12 -1.077752E+06 -9.561497E+04 -1.080145E+05  1.857255E+04 -1.028754E-09 -1.046621E-08
       377  13 -7.305154E+05  6.243400E+02 -7.234686E+03  1.709509E+04 -6.181766E-11 -1.169050E-08
       377  14 -7.285441E+05  1.535079E+03 -1.208288E+04  1.329133E+03  3.397953E-10  1.171010E-08
       377  15 -7.305249E+05 -9.305917E+03 -2.395650E+04  1.713608E+04  1.360116E-09 -6.403502E-09
       377  16 -4.597309E+05  6.794285E+04  5.830639E+04  1.925925E+04 -8.940473E-09  1.470561E-09
       377  17 -4.195188E+05  7.830874E+04  6.257487E+04  1.693061E+03  5.582043E-11 -1.940822E-08
       377  18 -3.831871E+05  7.699431E+04  6.009285E+04  1.569868E+04  2.390797E-09  2.762682E-09
       377  19 -1.001233E+06 -6.669947E+04 -7.278089E+04  1.493183E+04 -4.655790E+03 -7.441799E+03
       377  20 -1.037482E+06 -7.524545E+04 -8.674709E+04  9.653754E+02 -1.125259E+04 -8.964313E+03
       377  21 -1.077752E+06 -9.561478E+04 -1.080138E+05  1.857269E+04 -1.785350E+04 -9.620459E+03
       377  22 -7.305154E+05  6.244077E+02 -7.234524E+03  1.709513E+04 -5.534867E+03 -7.445533E+03
       377  23 -7.285439E+05  1.535203E+03 -1.208247E+04  1.329218E+03 -1.173987E+04 -8.966086E+03
       377  24 -7.305245E+05 -9.305731E+03 -2.395572E+04  1.713622E+04 -1.794938E+04 -9.620427E+03
       377  25 -4.597309E+05  6.794292E+04  5.830657E+04  1.925929E+04 -6.414326E+03 -7.449272E+03
       377  26 -4.195186E+05  7.830886E+04  6.257530E+04  1.693149E+03 -1.222739E+04 -8.967859E+03
       377  27 -3.831867E+05  7.699449E+04  6.009364E+04  1.569882E+04 -1.804532E+04 -9.620395E+03
       378   1 -1.140541E+06 -9.630407E+04 -1.269484E+05  5.034990E+03  1.960018E+04  1.194211E+04
       378   2 -1.162341E+06 -9.623006E+04 -1.528916E+05  7.378133E+03  4.932851E+04  1.340021E+04
       378   3 -1.214764E+06 -2.030520E+05 -2.249436E+05  4.016433E+04  7.908933E+04  4.719507E+03
       378   4 -7.362738E+05  4.274374E+03 -2.927344E+04  1.676004E+04  2.253040E+04  1.195343E+04
       378   5 -7.213906E+05  1.328287E+04 -4.647054E+04  1.688861E+03  4.765750E+04  1.339300E+04
       378   6 -7.363107E+05 -8.376494E+04 -1.065555E+05  1.706109E+04  7.281917E+04  4.695282E+03
       378   7 -3.318563E+05  1.048413E+05  6.838989E+04  2.849261E+04  2.546252E+04  1.196485E+04
       378   8 -2.802622E+05  1.227817E+05  5.993660E+04 -4.004632E+03  4.598530E+04  1.338583E+04
       378   9 -2.576481E+05  3.550706E+04  1.181603E+04 -6.060184E+03  6.654416E+04  4.671533E+03
       378  10 -1.140542E+06 -9.630433E+04 -1.269494E+05  5.034802E+03  5.543031E-09 -9.729609E-09
       378  11 -1.162344E+06 -9.623090E+04 -1.528965E+05  7.377600E+03  4.534605E-09 -3.683050E-09
       378  12 -1.214770E+06 -2.030537E+05 -2.249554E+05  4.016403E+04  1.906401E-09  1.019265E-08
       378  13 -7.362744E+05  4.274084E+03 -2.927466E+04  1.675982E+04  1.631657E-09 -2.117745E-09
       378  14 -7.213931E+05  1.328207E+04 -4.647515E+04  1.688347E+03  1.761233E-09  7.626882E-09
       378  15 -7.363165E+05 -8.376639E+04 -1.065655E+05  1.706081E+04  8.007027E-10  2.306296E-09
       378  16 -3.318571E+05  1.048410E+05  6.838840E+04  2.849236E+04 -5.664928E-09  1.126279E-08
       378  17 -2.802645E+05  1.227810E+05  5.993228E+04 -4.005127E+03 -5.908209E-09  7.438846E-09
       378  18 -2.576529E+05  3.550585E+04  1.180767E+04 -6.060434E+03 -2.267019E-09  1.872683E-09
       378  19 -1.140541E+06 -9.630407E+04 -1.269484E+05  5.034990E+03 -1.960018E+04 -1.194211E+04
       378  20 -1.162341E+06 -9.623006E+04 -1.528916E+05  7.378133E+03 -4.932851E+04 -1.340021E+04
       378  21 -1.214764E+06 -2.030520E+05 -2.249436E+05  4.016433E+04 -7.908933E+04 -4.719507E+03
       378  22 -7.362738E+05  4.274374E+03 -2.927344E+04  1.676004E+04 -2.253040E+04 -1.195343E+04
       378  23 -7.213906E+05  1.328287E+04 -4.647054E+04  1.688861E+03 -4.765750E+04 -1.339300E+04
       378  24 -7.363107E+05 -8.376494E+04 -1.065555E+05  1.706109E+04 -7.281917E+04 -4.695282E+03
       378  25 -3.318563E+05  1.048413E+05  6.838989E+04  2.849261E+04 -2.546252E+04 -1.196485E+04
       378  26 -2.802622E+05  1.227817E+05  5.993660E+04 -4.004632E+03 -4.598530E+04 -1.338583E+04
       378  27 -2.576481E+05  3.550706E+04  1.181603E+04 -6.060184E+03 -6.654416E+04 -4.671533E+03
       379   1 -1.606467E+05 -6.151189E+05 -1.544940E+05  1.565550E+05 -6.341805E+03 -5.226575E+04
       379   2 -1.134282E+05 -4.846281E+05 -9.572099E+04  1.390159E+05 -1.991026E+04 -2.205653E+04
       379   3 -7.881425E+04 -3.610360E+05 -5.976945E+04  1.455438E+05 -1.992837E+04  8.197464E+03
       379   4 -1.650682E+04 -3.250724E+04 -1.696271E+04  1.453417E+05 -6.438364E+03 -1.289697E+04
       379   5 -5.086277E+03 -3.131836E+04 -7.618064E+03  1.333263E+05 -1.994052E+04 -9.003412E+03
       379   6 -1.693341E+03 -3.246923E+04 -2.805966E+03  1.453782E+05 -1.989635E+04 -5.072153E+03
       379   7  1.276100E+05  5.504204E+05  1.205510E+05  1.341179E+05 -6.536303E+03  2.650858E+04
       379   8  1.032436E+05  4.221892E+05  8.047580E+04  1.276325E+05 -1.997101E+04  4.059034E+03
       379   9  7.542184E+04  2.962039E+05  5.415443E+04  1.452125E+05 -1.986433E+04 -1.834858E+04
       379  10 -1.606475E+05 -6.151219E+05 -1.544992E+05  1.565547E+05  8.887829E-10 -1.929057E-09
       379  11 -1.134288E+05 -4.846287E+05 -9.572265E+04  1.390155E+05  1.868456E-10  3.973127E-09
       379  12 -7.881470E+04 -3.610362E+05 -5.977033E+04  1.455439E+05  6.485201E-10  8.796054E-10
       379  13 -1.650691E+04 -3.250743E+04 -1.696310E+04  1.453416E+05  1.708920E-09  1.082540E-09
       379  14 -5.086725E+03 -3.131855E+04 -7.618963E+03  1.333261E+05 -2.018062E-09 -6.267064E-09
       379  15 -1.693773E+03 -3.246936E+04 -2.806758E+03  1.453781E+05 -8.844692E-10  3.095056E-10
       379  16  1.276098E+05  5.504196E+05  1.205496E+05  1.341181E+05  1.157513E-09 -4.097029E-09
       379  17  1.032432E+05  4.221890E+05  8.047502E+04  1.276326E+05 -1.396507E-09 -4.523185E-09
       379  18  7.542133E+04  2.962034E+05  5.415305E+04  1.452122E+05 -2.990071E-09 -1.523819E-09
       379  19 -1.606467E+05 -6.151189E+05 -1.544940E+05  1.565550E+05  6.341805E+03  5.226575E+04
       379  20 -1.134282E+05 -4.846281E+05 -9.572099E+04  1.390159E+05  1.991026E+04  2.205653E+04
       379  21 -7.881425E+04 -3.610360E+05 -5.976945E+04  1.455438E+05  1.992837E+04 -8.197464E+03
       379  22 -1.650682E+04 -3.250724E+04 -1.696271E+04  1.453417E+05  6.438364E+03  1.289697E+04
       379  23 -5.086277E+03 -3.131836E+04 -7.618064E+03  1.333263E+05  1.994052E+04  9.003412E+03
       379  24 -1.693341E+03 -3.246923E+04 -2.805966E+03  1.453782E+05  1.989635E+04  5.072153E+03
       379  25  1.276100E+05  5.504204E+05  1.205510E+05  1.341179E+05  6.536303E+03 -2.650858E+04
       379  26  1.032436E+05  4.221892E+05  8.047580E+04  1.276325E+05  1.997101E+04 -4.059034E+03
       379  27  7.542184E+04  2.962039E+05  5.415443E+04  1.452125E+05  1.986433E+04  1.834858E+04
       380   1 -5.947171E+04 -2.789850E+05 -4.323580E+04  1.462181E+05 -1.548534E+04  7.894417E+03
       380   2 -2.819729E+04 -1.521353E+05 -1.650400E+04  1.338857E+05 -8.653640E+03  7.718762E+03
       380   3  3.509321E+03 -2.497373E+04  1.049266E+04  1.465193E+05 -1.256429E+03  7.543951E+03
       380   4 -1.584541E+03 -3.183223E+04 -1.011078E+03  1.455730E+05 -1.545532E+04 -4.832876E+03
       380   5 -3.597933E+02 -3.207083E+04  2.586461E+03  1.330939E+05 -8.621606E+03 -6.108769E+03
       380   6  1.489030E+03 -3.182190E+04  7.213312E+03  1.455803E+05 -1.222454E+03 -7.383789E+03
       380   7  5.629946E+04  2.153809E+05  4.121222E+04  1.449277E+05 -1.542529E+04 -1.756508E+04
       380   8  2.747709E+04  8.800837E+04  2.167727E+04  1.323019E+05 -8.589539E+03 -1.993888E+04
       380   9 -5.311441E+02 -3.866956E+04  3.934794E+03  1.446413E+05 -1.188435E+03 -2.231135E+04
       380  10 -5.947198E+04 -2.789851E+05 -4.323637E+04  1.462182E+05  7.709333E-10  9.747817E-10
       380  11 -2.819739E+04 -1.521354E+05 -1.650425E+04  1.338858E+05  1.464828E-10  3.659814E-09
       380  12  3.509304E+03 -2.497380E+04  1.049255E+04  1.465193E+05 -3.515502E-10 -1.163487E-09
       380  13 -1.584804E+03 -3.183232E+04 -1.011570E+03  1.455730E+05  2.902264E-10 -2.157674E-09
       380  14 -3.598832E+02 -3.207089E+04  2.586251E+03  1.330938E+05  1.825959E-09 -5.990038E-09
       380  15  1.489014E+03 -3.182196E+04  7.213206E+03  1.455802E+05  2.105502E-09  6.914209E-10
       380  16  5.629912E+04  2.153805E+05  4.121120E+04  1.449275E+05 -1.320727E-09 -6.184186E-09
       380  17  2.747690E+04  8.800793E+04  2.167638E+04  1.323017E+05  8.185769E-10 -5.811615E-09
       380  18 -5.312792E+02 -3.867010E+04  3.933856E+03  1.446412E+05  5.492097E-10 -3.778890E-10
       380  19 -5.947171E+04 -2.789850E+05 -4.323580E+04  1.462181E+05  1.548534E+04 -7.894417E+03
       380  20 -2.819729E+04 -1.521353E+05 -1.650400E+04  1.338857E+05  8.653640E+03 -7.718762E+03
       380  21  3.509321E+03 -2.497373E+04  1.049266E+04  1.465193E+05  1.256429E+03 -7.543951E+03
       380  22 -1.584541E+03 -3.183223E+04 -1.011078E+03  1.455730E+05  1.545532E+04  4.832876E+03
       380  23 -3.597933E+02 -3.207083E+04  2.586461E+03  1.330939E+05  8.621606E+03  6.108769E+03
       380  24  1.489030E+03 -3.182190E+04  7.213312E+03  1.455803E+05  1.222454E+03  7.383789E+03
       380  25  5.629946E+04  2.153809E+05  4.121222E+04  1.449277E+05  1.542529E+04  1.756508E+04
       380  26  2.747709E+04  8.800837E+04  2.167727E+04  1.323019E+05  8.589539E+03  1.993888E+04
       380  27 -5.311441E+02 -3.866956E+04  3.934794E+03  1.446413E+05  1.188435E+03  2.231135E+04
       381   1  2.281148E+04  5.745395E+04  2.758316E+04  1.444411E+05  3.631077E+03  6.586116E+03
       381   2  6.127919E+04  1.800912E+05  6.385925E+04  1.445917E+05  7.408933E+03 -1.954569E+04
       381   3  1.214453E+05  3.117307E+05  1.226071E+05  1.692642E+05  2.962161E+03 -4.570430E+04
       381   4  1.728264E+03 -3.055006E+04  1.019612E+04  1.454717E+05  3.665853E+03 -8.636113E+03
       381   5  9.776616E+03 -3.366721E+04  1.975942E+04  1.332538E+05  7.407707E+03 -1.877504E+04
       381   6  3.675275E+04 -3.056711E+04  4.069311E+04  1.455560E+05  2.924675E+03 -2.893550E+04
       381   7 -1.935530E+04 -1.185462E+05 -7.190422E+03  1.465021E+05  3.700581E+03 -2.385623E+04
       381   8 -4.172835E+04 -2.473819E+05 -2.434280E+04  1.219199E+05  7.406453E+03 -1.800466E+04
       381   9 -4.794601E+04 -3.727557E+05 -4.122777E+04  1.218610E+05  2.885898E+03 -1.217590E+04
       381  10  2.281146E+04  5.745390E+04  2.758305E+04  1.444411E+05  9.011668E-10 -1.514560E-11
       381  11  6.127903E+04  1.800907E+05  6.385843E+04  1.445918E+05  7.790385E-10  5.793343E-09
       381  12  1.214448E+05  3.117285E+05  1.226031E+05  1.692643E+05  1.320224E-10  2.918869E-09
       381  13  1.728229E+03 -3.055015E+04  1.019596E+04  1.454717E+05 -1.192083E-09 -1.088411E-09
       381  14  9.776463E+03 -3.366760E+04  1.975865E+04  1.332539E+05  1.347840E-09 -3.881629E-09
       381  15  3.675252E+04 -3.056801E+04  4.069152E+04  1.455561E+05  2.109078E-10  1.931574E-09
       381  16 -1.935546E+04 -1.185468E+05 -7.191518E+03  1.465022E+05 -1.105364E-09 -4.593361E-09
       381  17 -4.172849E+04 -2.473823E+05 -2.434351E+04  1.219200E+05 -4.461475E-10 -4.960838E-09
       381  18 -4.794606E+04 -3.727559E+05 -4.122806E+04  1.218610E+05 -1.614076E-10 -3.780723E-09
       381  19  2.281148E+04  5.745395E+04  2.758316E+04  1.444411E+05 -3.631077E+03 -6.586116E+03
       381  20  6.127919E+04  1.800912E+05  6.385925E+04  1.445917E+05 -7.408933E+03  1.954569E+04
       381  21  1.214453E+05  3.117307E+05  1.226071E+05  1.692642E+05 -2.962161E+03  4.570430E+04
       381  22  1.728264E+03 -3.055006E+04  1.019612E+04  1.454717E+05 -3.665853E+03  8.636113E+03
       381  23  9.776616E+03 -3.366721E+04  1.975942E+04  1.332538E+05 -7.407707E+03  1.877504E+04
       381  24  3.675275E+04 -3.056711E+04  4.069311E+04  1.455560E+05 -2.924675E+03  2.893550E+04
       381  25 -1.935530E+04 -1.185462E+05 -7.190422E+03  1.465021E+05 -3.700581E+03  2.385623E+04
       381  26 -4.172835E+04 -2.473819E+05 -2.434280E+04  1.219199E+05 -7.406453E+03  1.800466E+04
       381  27 -4.794601E+04 -3.727557E+05 -4.122777E+04  1.218610E+05 -2.885898E+03  1.217590E+04
       382   1  1.188426E+06  4.267267E+05  2.872603E+05  4.101025E+05  1.202090E+05  4.104174E+04
       382   2  1.143917E+06  2.404490E+05  1.723260E+05  4.175172E+05  7.859388E+04  1.658689E+04
       382   3  1.150281E+06  2.385862E+05  1.361655E+05  4.021337E+05  3.364415E+04  9.516006E+02
       382   4  8.164929E+05  2.505533E+05  1.789407E+05  2.720477E+05  1.150162E+05  3.906876E+04
       382   5  7.821691E+05  9.391194E+04  7.428365E+04  3.079755E+05  7.719519E+04  1.605533E+04
       382   6  7.980043E+05  1.209917E+05  4.543162E+04  3.210953E+05  3.603740E+04  1.858940E+03
       382   7  4.446990E+05  7.441407E+04  7.060861E+04  1.340762E+05  1.098267E+05  3.709781E+04
       382   8  4.205487E+05 -5.261130E+04 -2.377020E+04  1.984934E+05  7.579739E+04  1.552415E+04
       382   9  4.458460E+05  3.398054E+03 -4.531255E+04  2.400951E+05  3.842917E+04  2.765865E+03
       382  10  1.188410E+06  4.267210E+05  2.872301E+05  4.100986E+05  2.979142E-09  4.960657E-09
       382  11  1.143910E+06  2.404471E+05  1.723139E+05  4.175162E+05  6.121505E-10  4.486228E-09
       382  12  1.150280E+06  2.385859E+05  1.361634E+05  4.021336E+05 -1.942882E-09  7.515802E-09
       382  13  8.164783E+05  2.505482E+05  1.789130E+05  2.720441E+05  1.657381E-09 -8.206136E-09
       382  14  7.821626E+05  9.391007E+04  7.427198E+04  3.079745E+05 -2.318215E-10 -5.162572E-09
       382  15  7.980029E+05  1.209913E+05  4.542918E+04  3.210953E+05 -3.795090E-09 -2.734047E-09
       382  16  4.446857E+05  7.440935E+04  7.058338E+04  1.340729E+05 -1.930754E-09 -2.861091E-09
       382  17  4.205425E+05 -5.261310E+04 -2.378144E+04  1.984925E+05  5.474272E-10 -4.113678E-09
       382  18  4.458444E+05  3.397650E+03 -4.531534E+04  2.400950E+05  1.496745E-09 -3.022326E-09
       382  19  1.188426E+06  4.267267E+05  2.872603E+05  4.101025E+05 -1.202090E+05 -4.104174E+04
       382  20  1.143917E+06  2.404490E+05  1.723260E+05  4.175172E+05 -7.859388E+04 -1.658689E+04
       382  21  1.150281E+06  2.385862E+05  1.361655E+05  4.021337E+05 -3.364415E+04 -9.516006E+02
       382  22  8.164929E+05  2.505533E+05  1.789407E+05  2.720477E+05 -1.150162E+05 -3.906876E+04
       382  23  7.821691E+05  9.391194E+04  7.428365E+04  3.079755E+05 -7.719519E+04 -1.605533E+04
       382  24  7.980043E+05  1.209917E+05  4.543162E+04  3.210953E+05 -3.603740E+04 -1.858940E+03
       382  25  4.446990E+05  7.441407E+04  7.060861E+04  1.340762E+05 -1.098267E+05 -3.709781E+04
       382  26  4.205487E+05 -5.261130E+04 -2.377020E+04  1.984934E+05 -7.579739E+04 -1.552415E+04
       382  27  4.458460E+05  3.398054E+03 -4.531255E+04  2.400951E+05 -3.842917E+04 -2.765865E+03
       383   1  1.085723E+06  2.546730E+05  1.160652E+05  3.944828E+05  2.877455E+04  1.353280E+03
       383   2  1.064360E+06  2.167397E+05  8.934430E+04  3.805105E+05  1.914803E+04 -1.917263E+03
       383   3  1.034636E+06  2.154592E+05  7.505556E+04  3.809911E+05  9.230537E+03 -4.420803E+03
       383   4  7.923738E+05  1.398758E+05  3.706280E+04  3.098452E+05  2.874350E+04  1.340986E+03
       383   5  7.955083E+05  1.140468E+05  1.755326E+04  3.054776E+05  1.944921E+04 -1.803337E+03
       383   6  7.902188E+05  1.248104E+05  1.021725E+04  3.155622E+05  9.863483E+03 -4.180752E+03
       383   7  4.991075E+05  2.508567E+04 -4.194721E+04  2.252442E+05  2.871247E+04  1.328697E+03
       383   8  5.267262E+05  1.135886E+04 -5.424402E+04  2.304741E+05  1.975025E+04 -1.689466E+03
       383   9  5.458591E+05  3.416484E+04 -5.462605E+04  2.501563E+05  1.049615E+04 -3.940801E+03
       383  10  1.085722E+06  2.546727E+05  1.160636E+05  3.944827E+05  1.941782E-09 -6.204272E-09
       383  11  1.064360E+06  2.167396E+05  8.934360E+04  3.805105E+05 -3.374119E-09 -1.468093E-08
       383  12  1.034636E+06  2.154592E+05  7.505536E+04  3.809912E+05 -4.606514E-09  1.322287E-09
       383  13  7.923729E+05  1.398756E+05  3.706125E+04  3.098451E+05  3.134895E-10 -1.581013E-09
       383  14  7.955079E+05  1.140467E+05  1.755254E+04  3.054776E+05  5.487858E-09  1.449169E-08
       383  15  7.902187E+05  1.248103E+05  1.021703E+04  3.155622E+05 -2.126377E-09  4.812093E-10
       383  16  4.991066E+05  2.508544E+04 -4.194876E+04  2.252441E+05 -2.884799E-09 -7.842305E-09
       383  17  5.267258E+05  1.135875E+04 -5.424476E+04  2.304742E+05  6.619133E-09 -6.953441E-09
       383  18  5.458590E+05  3.416479E+04 -5.462628E+04  2.501564E+05  5.449999E-09  5.045035E-09
       383  19  1.085723E+06  2.546730E+05  1.160652E+05  3.944828E+05 -2.877455E+04 -1.353280E+03
       383  20  1.064360E+06  2.167397E+05  8.934430E+04  3.805105E+05 -1.914803E+04  1.917263E+03
       383  21  1.034636E+06  2.154592E+05  7.505556E+04  3.809911E+05 -9.230537E+03  4.420803E+03
       383  22  7.923738E+05  1.398758E+05  3.706280E+04  3.098452E+05 -2.874350E+04 -1.340986E+03
       383  23  7.955083E+05  1.140468E+05  1.755326E+04  3.054776E+05 -1.944921E+04  1.803337E+03
       383  24  7.902188E+05  1.248104E+05  1.021725E+04  3.155622E+05 -9.863483E+03  4.180752E+03
       383  25  4.991075E+05  2.508567E+04 -4.194721E+04  2.252442E+05 -2.871247E+04 -1.328697E+03
       383  26  5.267262E+05  1.135886E+04 -5.424402E+04  2.304741E+05 -1.975025E+04  1.689466E+03
       383  27  5.458591E+05  3.416484E+04 -5.462605E+04  2.501563E+05 -1.049615E+04  3.940801E+03
       384   1  9.897400E+05  2.029752E+05  6.133747E+04  3.696321E+05  7.685307E+03 -4.154285E+03
       384   2  9.720483E+05  1.829686E+05  5.075359E+04  3.537389E+05  5.187025E+03 -3.959062E+03
       384   3  9.391489E+05  1.816551E+05  4.237784E+04  3.558104E+05  2.668019E+03 -3.710538E+03
       384   4  7.895776E+05  1.268279E+05  8.010906E+03  3.140705E+05  8.100012E+03 -3.996995E+03
       384   5  7.970614E+05  1.166258E+05  4.111185E+03  3.054143E+05  5.625219E+03 -3.792741E+03
       384   6  7.893328E+05  1.251131E+05  2.401721E+03  3.147230E+05  3.129608E+03 -3.535213E+03
       384   7  5.894533E+05  5.068298E+04 -4.531929E+04  2.585248E+05  8.514572E+03 -3.839761E+03
       384   8  6.221037E+05  5.028485E+04 -4.253395E+04  2.571018E+05  6.063278E+03 -3.626471E+03
       384   9  6.395383E+05  6.857235E+04 -3.757636E+04  2.736444E+05  3.591075E+03 -3.359935E+03
       384  10  9.897399E+05  2.029752E+05  6.133732E+04  3.696322E+05  7.658098E-09  1.002499E-09
       384  11  9.720483E+05  1.829686E+05  5.075351E+04  3.537389E+05  2.202434E-09 -3.250952E-09
       384  12  9.391489E+05  1.816551E+05  4.237780E+04  3.558104E+05 -5.522423E-09 -5.927595E-10
       384  13  7.895775E+05  1.268278E+05  8.010753E+03  3.140705E+05 -7.553017E-10  4.205290E-09
       384  14  7.970614E+05  1.166258E+05  4.111098E+03  3.054143E+05  5.512723E-09 -1.183514E-08
       384  15  7.893328E+05  1.251130E+05  2.401679E+03  3.147230E+05 -4.489408E-10  9.132274E-09
       384  16  5.894532E+05  5.068295E+04 -4.531945E+04  2.585248E+05 -8.471797E-09 -7.465266E-09
       384  17  6.221037E+05  5.028482E+04 -4.253405E+04  2.571018E+05  7.818658E-10  9.121944E-09
       384  18  6.395382E+05  6.857233E+04 -3.757640E+04  2.736444E+05  8.383677E-09  4.156955E-09
       384  19  9.897400E+05  2.029752E+05  6.133747E+04  3.696321E+05 -7.685307E+03  4.154285E+03
       384  20  9.720483E+05  1.829686E+05  5.075359E+04  3.537389E+05 -5.187025E+03  3.959062E+03
       384  21  9.391489E+05  1.816551E+05  4.237784E+04  3.558104E+05 -2.668019E+03  3.710538E+03
       384  22  7.895776E+05  1.268279E+05  8.010906E+03  3.140705E+05 -8.100012E+03  3.996995E+03
       384  23  7.970614E+05  1.166258E+05  4.111185E+03  3.054143E+05 -5.625219E+03  3.792741E+03
       384  24  7.893328E+05  1.251131E+05  2.401721E+03  3.147230E+05 -3.129608E+03  3.535213E+03
       384  25  5.894533E+05  5.068298E+04 -4.531929E+04  2.585248E+05 -8.514572E+03  3.839761E+03
       384  26  6.221037E+05  5.028485E+04 -4.253395E+04  2.571018E+05 -6.063278E+03  3.626471E+03
       384  27  6.395383E+05  6.857235E+04 -3.757636E+04  2.736444E+05 -3.591075E+03  3.359935E+03
       385   1  8.977839E+05  1.663717E+05  3.071809E+04  3.444310E+05  2.099568E+03 -3.219792E+03
       385   2  8.809508E+05  1.487727E+05  2.350276E+04  3.286378E+05  1.116443E+03 -2.411649E+03
       385   3  8.483293E+05  1.474603E+05  1.680819E+04  3.307863E+05  1.340720E+02 -1.606071E+03
       385   4  7.893052E+05  1.252547E+05  1.895376E+03  3.144628E+05  2.541416E+03 -3.051909E+03
       385   5  7.971885E+05  1.170307E+05  1.177233E+03  3.055228E+05  1.557301E+03 -2.244092E+03
       385   6  7.892828E+05  1.250938E+05  9.807590E+02  3.145245E+05  5.739117E+02 -1.438847E+03
       385   7  6.808380E+05  8.413842E+04 -2.692829E+04  2.844993E+05  2.983178E+03 -2.884059E+03
       385   8  7.134329E+05  8.528911E+04 -2.114891E+04  2.824106E+05  1.998094E+03 -2.076560E+03
       385   9  7.302395E+05  1.027275E+05 -1.484701E+04  2.982642E+05  1.013706E+03 -1.271639E+03
       385  10  8.977839E+05  1.663717E+05  3.071807E+04  3.444310E+05  9.642410E-11  4.376212E-09
       385  11  8.809508E+05  1.487727E+05  2.350275E+04  3.286378E+05  5.871053E-10  3.852854E-09
       385  12  8.483293E+05  1.474603E+05  1.680818E+04  3.307863E+05 -1.782809E-09 -3.773666E-09
       385  13  7.893051E+05  1.252546E+05  1.895347E+03  3.144628E+05 -6.356776E-10  1.521452E-09
       385  14  7.971885E+05  1.170307E+05  1.177219E+03  3.055228E+05  4.667162E-09  4.128976E-09
       385  15  7.892828E+05  1.250938E+05  9.807545E+02  3.145245E+05  2.442395E-10 -1.559200E-08
       385  16  6.808380E+05  8.413841E+04 -2.692832E+04  2.844993E+05 -2.043567E-09  9.798391E-10
       385  17  7.134328E+05  8.528910E+04 -2.114892E+04  2.824106E+05  2.207683E-09 -1.524959E-08
       385  18  7.302395E+05  1.027275E+05 -1.484702E+04  2.982642E+05  7.763996E-09 -3.594817E-10
       385  19  8.977839E+05  1.663717E+05  3.071809E+04  3.444310E+05 -2.099568E+03  3.219792E+03
       385  20  8.809508E+05  1.487727E+05  2.350276E+04  3.286378E+05 -1.116443E+03  2.411649E+03
       385  21  8.483293E+05  1.474603E+05  1.680819E+04  3.307863E+05 -1.340720E+02  1.606071E+03
       385  22  7.893052E+05  1.252547E+05  1.895376E+03  3.144628E+05 -2.541416E+03  3.051909E+03
       385  23  7.971885E+05  1.170307E+05  1.177233E+03  3.055228E+05 -1.557301E+03  2.244092E+03
       385  24  7.892828E+05  1.250938E+05  9.807590E+02  3.145245E+05 -5.739117E+02  1.438847E+03
       385  25  6.808380E+05  8.413842E+04 -2.692829E+04  2.844993E+05 -2.983178E+03  2.884059E+03
       385  26  7.134329E+05  8.528911E+04 -2.114891E+04  2.824106E+05 -1.998094E+03  2.076560E+03
       385  27  7.302395E+05  1.027275E+05 -1.484701E+04  2.982642E+05 -1.013706E+03  1.271639E+03
       386   1  8.078646E+05  1.321100E+05  5.859567E+03  3.196582E+05 -2.569395E+02 -1.069712E+03
       386   2  7.911948E+05  1.148046E+05 -2.828115E+02  3.039195E+05 -1.301353E+03 -2.927569E+02
       386   3  7.588756E+05  1.137015E+05 -5.848047E+03  3.059655E+05 -2.344250E+03  4.804135E+02
       386   4  7.893124E+05  1.250598E+05  1.002247E+03  3.144958E+05  1.823333E+02 -9.026841E+02
       386   5  7.971522E+05  1.170627E+05  1.305134E+03  3.055640E+05 -8.637206E+02 -1.263585E+02
       386   6  7.893422E+05  1.252681E+05  2.186448E+03  3.144165E+05 -1.908287E+03  6.461737E+02
       386   7  7.707605E+05  1.180096E+05 -3.855101E+03  3.093335E+05  6.215917E+02 -7.356618E+02
       386   8  8.031096E+05  1.193208E+05  2.893074E+03  3.072085E+05 -4.260845E+02  4.004140E+01
       386   9  8.198096E+05  1.368347E+05  1.022084E+04  3.228679E+05 -1.472301E+03  8.119426E+02
       386  10  8.078646E+05  1.321100E+05  5.859565E+03  3.196582E+05 -1.198333E-09 -8.000599E-09
       386  11  7.911948E+05  1.148046E+05 -2.828149E+02  3.039195E+05  8.492839E-11 -9.820093E-09
       386  12  7.588756E+05  1.137015E+05 -5.848057E+03  3.059655E+05  1.823068E-09 -1.102273E-08
       386  13  7.893124E+05  1.250598E+05  1.002245E+03  3.144958E+05 -1.974219E-09  1.989020E-08
       386  14  7.971522E+05  1.170627E+05  1.305132E+03  3.055640E+05 -4.154210E-09 -2.899333E-09
       386  15  7.893422E+05  1.252681E+05  2.186440E+03  3.144165E+05  2.449345E-09 -7.000938E-09
       386  16  7.707605E+05  1.180096E+05 -3.855103E+03  3.093335E+05  3.242487E-09  7.915121E-09
       386  17  8.031096E+05  1.193208E+05  2.893074E+03  3.072085E+05 -1.010141E-09  1.270366E-08
       386  18  8.198096E+05  1.368347E+05  1.022084E+04  3.228679E+05  5.776722E-09  1.831867E-08
       386  19  8.078646E+05  1.321100E+05  5.859567E+03  3.196582E+05  2.569395E+02  1.069712E+03
       386  20  7.911948E+05  1.148046E+05 -2.828115E+02  3.039195E+05  1.301353E+03  2.927569E+02
       386  21  7.588756E+05  1.137015E+05 -5.848047E+03  3.059655E+05  2.344250E+03 -4.804135E+02
       386  22  7.893124E+05  1.250598E+05  1.002247E+03  3.144958E+05 -1.823333E+02  9.026841E+02
       386  23  7.971522E+05  1.170627E+05  1.305134E+03  3.055640E+05  8.637206E+02  1.263585E+02
       386  24  7.893422E+05  1.252681E+05  2.186448E+03  3.144165E+05  1.908287E+03 -6.461737E+02
       386  25  7.707605E+05  1.180096E+05 -3.855101E+03  3.093335E+05 -6.215917E+02  7.356618E+02
       386  26  8.031096E+05  1.193208E+05  2.893074E+03  3.072085E+05  4.260845E+02 -4.004140E+01
       386  27  8.198096E+05  1.368347E+05  1.022084E+04  3.228679E+05  1.472301E+03 -8.119426E+02
       387   1  7.182450E+05  9.829857E+04 -1.622795E+04  2.952778E+05 -2.999200E+03  9.251004E+02
       387   2  7.011966E+05  8.032376E+04 -2.070745E+04  2.790444E+05 -5.829830E+03  1.031413E+03
       387   3  6.694703E+05  8.106133E+04 -2.264092E+04  2.802376E+05 -8.642372E+03  1.091106E+03
       387   4  7.894419E+05  1.250242E+05  2.791148E+03  3.146414E+05 -2.547854E+03  1.096687E+03
       387   5  7.969245E+05  1.166823E+05  4.824556E+03  3.055414E+05 -5.398820E+03  1.195206E+03
       387   6  7.897329E+05  1.270566E+05  9.419944E+03  3.138677E+05 -8.231803E+03  1.247068E+03
       387   7  8.606439E+05  1.517501E+05  2.180985E+04  3.340071E+05 -2.096449E+03  1.268296E+03
       387   8  8.926614E+05  1.530415E+05  3.035580E+04  3.320421E+05 -4.967736E+03  1.359027E+03
       387   9  9.100096E+05  1.730528E+05  4.147955E+04  3.475037E+05 -7.821146E+03  1.403064E+03
       387  10  7.182450E+05  9.829857E+04 -1.622797E+04  2.952778E+05 -4.722107E-09 -5.142134E-09
       387  11  7.011966E+05  8.032375E+04 -2.070752E+04  2.790444E+05 -2.611904E-09 -1.588846E-08
       387  12  6.694702E+05  8.106131E+04 -2.264106E+04  2.802376E+05 -4.922117E-09 -1.005769E-08
       387  13  7.894419E+05  1.250242E+05  2.791134E+03  3.146414E+05  8.993065E-10 -3.840293E-11
       387  14  7.969245E+05  1.166823E+05  4.824499E+03  3.055414E+05 -8.033244E-10 -2.725622E-09
       387  15  7.897329E+05  1.270565E+05  9.419814E+03  3.138677E+05 -1.604393E-09 -8.428440E-09
       387  16  8.606439E+05  1.517501E+05  2.180984E+04  3.340071E+05  1.099237E-08 -4.565452E-09
       387  17  8.926614E+05  1.530415E+05  3.035575E+04  3.320421E+05  5.513632E-09  4.402042E-09
       387  18  9.100095E+05  1.730528E+05  4.147943E+04  3.475037E+05 -2.914554E-09  5.725831E-09
       387  19  7.182450E+05  9.829857E+04 -1.622795E+04  2.952778E+05  2.999200E+03 -9.251004E+02
       387  20  7.011966E+05  8.032376E+04 -2.070745E+04  2.790444E+05  5.829830E+03 -1.031413E+03
       387  21  6.694703E+05  8.106133E+04 -2.264092E+04  2.802376E+05  8.642372E+03 -1.091106E+03
       387  22  7.894419E+05  1.250242E+05  2.791148E+03  3.146414E+05  2.547854E+03 -1.096687E+03
       387  23  7.969245E+05  1.166823E+05  4.824556E+03  3.055414E+05  5.398820E+03 -1.195206E+03
       387  24  7.897329E+05  1.270566E+05  9.419944E+03  3.138677E+05  8.231803E+03 -1.247068E+03
       387  25  8.606439E+05  1.517501E+05  2.180985E+04  3.340071E+05  2.096449E+03 -1.268296E+03
       387  26  8.926614E+05  1.530415E+05  3.035580E+04  3.320421E+05  4.967736E+03 -1.359027E+03
       387  27  9.100096E+05  1.730528E+05  4.147955E+04  3.475037E+05  7.821146E+03 -1.403064E+03
       388   1  6.270825E+05  6.487106E+04 -3.121163E+04  2.727109E+05 -1.082099E+04  1.066289E+03
       388   2  6.084719E+05  4.196961E+04 -2.925857E+04  2.531491E+05 -2.175342E+04 -1.870190E+03
       388   3  5.834718E+05  5.843731E+04 -1.319658E+04  2.464341E+05 -3.245449E+04 -5.413435E+03
       388   4  7.905646E+05  1.245949E+05  1.201734E+04  3.155310E+05 -1.023859E+04  1.287522E+03
       388   5  7.950077E+05  1.137585E+05  2.066630E+04  3.057367E+05 -2.143360E+04 -1.748916E+03
       388   6  7.931101E+05  1.423382E+05  4.362882E+04  3.087889E+05 -3.239776E+04 -5.392342E+03
       388   7  9.540719E+05  1.843197E+05  5.524392E+04  3.583610E+05 -9.656017E+03  1.508813E+03
       388   8  9.815770E+05  1.855499E+05  7.058811E+04  3.583387E+05 -2.111368E+04 -1.627600E+03
       388   9  1.002791E+06  2.262434E+05  1.004504E+05  3.711633E+05 -3.234100E+04 -5.371239E+03
       388  10  6.270824E+05  6.487103E+04 -3.121186E+04  2.727109E+05  6.104903E-10 -2.361051E-10
       388  11  6.084714E+05  4.196948E+04 -2.925947E+04  2.531490E+05  2.751738E-09 -3.817395E-09
       388  12  5.834706E+05  5.843700E+04 -1.319861E+04  2.464340E+05  1.133261E-09 -4.372064E-09
       388  13  7.905644E+05  1.245948E+05  1.201714E+04  3.155310E+05 -5.026353E-09 -6.537667E-09
       388  14  7.950072E+05  1.137584E+05  2.066543E+04  3.057367E+05 -7.157706E-09 -2.638483E-09
       388  15  7.931090E+05  1.423379E+05  4.362680E+04  3.087888E+05 -2.110174E-09  9.099756E-09
       388  16  9.540718E+05  1.843197E+05  5.524374E+04  3.583610E+05 -6.434168E-09  4.869874E-09
       388  17  9.815766E+05  1.855497E+05  7.058727E+04  3.583387E+05 -4.564572E-09  4.300320E-09
       388  18  1.002790E+06  2.262431E+05  1.004484E+05  3.711632E+05 -2.170212E-09  1.298053E-08
       388  19  6.270825E+05  6.487106E+04 -3.121163E+04  2.727109E+05  1.082099E+04 -1.066289E+03
       388  20  6.084719E+05  4.196961E+04 -2.925857E+04  2.531491E+05  2.175342E+04  1.870190E+03
       388  21  5.834718E+05  5.843731E+04 -1.319658E+04  2.464341E+05  3.245449E+04  5.413435E+03
       388  22  7.905646E+05  1.245949E+05  1.201734E+04  3.155310E+05  1.023859E+04 -1.287522E+03
       388  23  7.950077E+05  1.137585E+05  2.066630E+04  3.057367E+05  2.143360E+04  1.748916E+03
       388  24  7.931101E+05  1.423382E+05  4.362882E+04  3.087889E+05  3.239776E+04  5.392342E+03
       388  25  9.540719E+05  1.843197E+05  5.524392E+04  3.583610E+05  9.656017E+03 -1.508813E+03
       388  26  9.815770E+05  1.855499E+05  7.058811E+04  3.583387E+05  2.111368E+04  1.627600E+03
       388  27  1.002791E+06  2.262434E+05  1.004504E+05  3.711633E+05  3.234100E+04  5.371239E+03
       389   1  5.307451E+05  3.654744E+04 -1.463412E+04  2.665111E+05 -4.269986E+04 -7.405744E+03
       389   2  5.053783E+05 -2.504233E+04  1.239656E+04  2.215630E+05 -8.805315E+04 -2.329013E+04
       389   3  5.424823E+05  1.249708E+05  1.263003E+05  1.450416E+05 -1.307723E+05 -4.611414E+04
       389   4  7.998058E+05  1.200283E+05  5.347905E+04  3.219408E+05 -4.073489E+04 -6.658819E+03
       389   5  7.792134E+05  9.018643E+04  8.746435E+04  3.088149E+05 -8.907551E+04 -2.368016E+04
       389   6  8.216453E+05  2.724800E+05  2.106589E+05  2.641246E+05 -1.347829E+05 -4.764511E+04
       389   7  1.068937E+06  2.035088E+05  1.215869E+05  3.773896E+05 -3.876897E+04 -5.911680E+03
       389   8  1.053120E+06  2.054245E+05  1.625250E+05  3.961028E+05 -9.009835E+04 -2.407043E+04
       389   9  1.100885E+06  4.200174E+05  2.950092E+05  3.832620E+05 -1.387955E+05 -4.917749E+04
       389  10  5.307432E+05  3.654689E+04 -1.463765E+04  2.665109E+05  7.290802E-09  2.416154E-09
       389  11  5.053699E+05 -2.504499E+04  1.238099E+04  2.215614E+05  2.789077E-09  8.400084E-09
       389  12  5.424634E+05  1.249640E+05  1.262642E+05  1.450368E+05 -4.489514E-09  7.011090E-10
       389  13  7.998040E+05  1.200278E+05  5.347586E+04  3.219406E+05 -3.309900E-09  6.946298E-09
       389  14  7.792047E+05  9.018370E+04  8.744841E+04  3.088132E+05  5.144020E-09 -3.856284E-09
       389  15  8.216252E+05  2.724727E+05  2.106206E+05  2.641194E+05 -2.773415E-09  2.566492E-09
       389  16  1.068935E+06  2.035084E+05  1.215840E+05  3.773894E+05 -6.017701E-09  1.230752E-08
       389  17  1.053111E+06  2.054217E+05  1.625087E+05  3.961011E+05  6.062606E-10 -1.277905E-09
       389  18  1.100864E+06  4.200096E+05  2.949686E+05  3.832565E+05  4.133209E-09 -5.715418E-09
       389  19  5.307451E+05  3.654744E+04 -1.463412E+04  2.665111E+05  4.269986E+04  7.405744E+03
       389  20  5.053783E+05 -2.504233E+04  1.239656E+04  2.215630E+05  8.805315E+04  2.329013E+04
       389  21  5.424823E+05  1.249708E+05  1.263003E+05  1.450416E+05  1.307723E+05  4.611414E+04
       389  22  7.998058E+05  1.200283E+05  5.347905E+04  3.219408E+05  4.073489E+04  6.658819E+03
       389  23  7.792134E+05  9.018643E+04  8.746435E+04  3.088149E+05  8.907551E+04  2.368016E+04
       389  24  8.216453E+05  2.724800E+05  2.106589E+05  2.641246E+05  1.347829E+05  4.764511E+04
       389  25  1.068937E+06  2.035088E+05  1.215869E+05  3.773896E+05  3.876897E+04  5.911680E+03
       389  26  1.053120E+06  2.054245E+05  1.625250E+05  3.961028E+05  9.009835E+04  2.407043E+04
       389  27  1.100885E+06  4.200174E+05  2.950092E+05  3.832620E+05  1.387955E+05  4.917749E+04
       390   1 -1.791893E+05 -9.775342E+05 -1.831154E+05  8.664945E+04 -5.404877E+03 -2.415909E+04
       390   2 -1.172981E+05 -8.251321E+05 -1.293065E+05  2.088795E+04 -1.470853E+04 -1.079927E+04
       390   3 -8.356726E+04 -6.803330E+05 -9.103373E+04  7.725494E+04 -9.198562E+03  2.604116E+03
       390   4 -2.082075E+04 -3.434484E+05 -2.608692E+04  7.926500E+04 -5.426712E+03 -1.657605E+04
       390   5  3.152531E+03 -3.402128E+05 -1.236688E+04  1.823373E+04 -1.471000E+04 -9.956469E+03
       390   6  1.499814E+02 -3.434227E+05 -9.488395E+03  7.932624E+04 -9.184579E+03 -3.296684E+03
       390   7  1.375179E+05  2.910033E+05  1.309118E+05  7.187325E+04 -5.448717E+03 -8.985262E+03
       390   8  1.235860E+05  1.449219E+05  1.045560E+05  1.557756E+04 -1.471149E+04 -9.113006E+03
       390   9  8.385894E+04 -6.408481E+03  7.204891E+04  8.139873E+04 -9.170639E+03 -9.200680E+03
       390  10 -1.791895E+05 -9.775349E+05 -1.831165E+05  8.664934E+04 -5.539404E-10 -5.146871E-09
       390  11 -1.172983E+05 -8.251323E+05 -1.293072E+05  2.088782E+04 -2.939618E-09 -9.575282E-09
       390  12 -8.356735E+04 -6.803330E+05 -9.103390E+04  7.725496E+04 -4.578439E-10 -3.495440E-09
       390  13 -2.082085E+04 -3.434487E+05 -2.608749E+04  7.926493E+04 -1.868684E-10  2.229724E-09
       390  14  3.152272E+03 -3.402129E+05 -1.236747E+04  1.823361E+04 -3.669080E-09  5.887857E-09
       390  15  1.498879E+02 -3.434227E+05 -9.488574E+03  7.932622E+04  5.836381E-10 -7.822702E-09
       390  16  1.375179E+05  2.910033E+05  1.309116E+05  7.187321E+04 -5.399297E-10  9.597388E-09
       390  17  1.235857E+05  1.449218E+05  1.045554E+05  1.557746E+04  8.375007E-10 -5.775811E-09
       390  18  8.385882E+04 -6.408595E+03  7.204859E+04  8.139866E+04  9.662250E-10  2.876096E-09
       390  19 -1.791893E+05 -9.775342E+05 -1.831154E+05  8.664945E+04  5.404877E+03  2.415909E+04
       390  20 -1.172981E+05 -8.251321E+05 -1.293065E+05  2.088795E+04  1.470853E+04  1.079927E+04
       390  21 -8.356726E+04 -6.803330E+05 -9.103373E+04  7.725494E+04  9.198562E+03 -2.604116E+03
       390  22 -2.082075E+04 -3.434484E+05 -2.608692E+04  7.926500E+04  5.426712E+03  1.657605E+04
       390  23  3.152531E+03 -3.402128E+05 -1.236688E+04  1.823373E+04  1.471000E+04  9.956469E+03
       390  24  1.499814E+02 -3.434227E+05 -9.488395E+03  7.932624E+04  9.184579E+03  3.296684E+03
       390  25  1.375179E+05  2.910033E+05  1.309118E+05  7.187325E+04  5.448717E+03  8.985262E+03
       390  26  1.235860E+05  1.449219E+05  1.045560E+05  1.557756E+04  1.471149E+04  9.113006E+03
       390  27  8.385894E+04 -6.408481E+03  7.204891E+04  8.139873E+04  9.170639E+03  9.200680E+03
       391   1 -3.005377E+04 -4.535458E+05 -3.574171E+04  8.084210E+04 -3.452928E+03  4.174636E+02
       391   2  1.039601E+04 -3.035777E+05  7.617034E+02  1.785735E+04  1.080624E+03  4.678557E+03
       391   3  4.172384E+04 -1.556918E+05  3.235813E+04  7.765325E+04  5.487891E+03  8.940784E+03
       391   4 -2.460407E+03 -3.424315E+05 -8.973868E+03  7.945373E+04 -3.448215E+03 -1.682187E+03
       391   5  1.006852E+03 -3.413762E+05 -8.367532E+03  1.806039E+04  1.085327E+03  2.636314E+03
       391   6 -4.656597E+03 -3.424337E+05 -1.270687E+04  7.944855E+04  5.492540E+03  6.954944E+03
       391   7  2.513207E+04 -2.313059E+05  1.779311E+04  7.806510E+04 -3.443494E+03 -3.782213E+03
       391   8 -8.382410E+03 -3.791733E+05 -1.749685E+04  1.826342E+04  1.090028E+03  5.941957E+02
       391   9 -5.103957E+04 -5.291438E+05 -5.777436E+04  8.124332E+04  5.497179E+03  4.969699E+03
       391  10 -3.005379E+04 -4.535458E+05 -3.574173E+04  8.084210E+04 -1.991602E-11 -8.584452E-09
       391  11  1.039601E+04 -3.035777E+05  7.616600E+02  1.785735E+04  2.947358E-10 -2.807524E-09
       391  12  4.172379E+04 -1.556919E+05  3.235792E+04  7.765321E+04  9.724609E-10  8.278946E-09
       391  13 -2.460421E+03 -3.424315E+05 -8.973896E+03  7.945372E+04  3.143294E-10  2.159009E-09
       391  14  1.006849E+03 -3.413762E+05 -8.367547E+03  1.806039E+04  1.255375E-09  2.039993E-09
       391  15 -4.656643E+03 -3.424338E+05 -1.270702E+04  7.944852E+04  2.562258E-09 -1.083141E-08
       391  16  2.513205E+04 -2.313059E+05  1.779306E+04  7.806509E+04  1.027688E-09  1.330262E-08
       391  17 -8.382411E+03 -3.791733E+05 -1.749686E+04  1.826342E+04 -2.327910E-09 -5.415032E-09
       391  18 -5.103961E+04 -5.291438E+05 -5.777446E+04  8.124330E+04  2.465939E-10 -6.327581E-09
       391  19 -3.005377E+04 -4.535458E+05 -3.574171E+04  8.084210E+04  3.452928E+03 -4.174636E+02
       391  20  1.039601E+04 -3.035777E+05  7.617034E+02  1.785735E+04 -1.080624E+03 -4.678557E+03
       391  21  4.172384E+04 -1.556918E+05  3.235813E+04  7.765325E+04 -5.487891E+03 -8.940784E+03
       391  22 -2.460407E+03 -3.424315E+05 -8.973868E+03  7.945373E+04  3.448215E+03  1.682187E+03
       391  23  1.006852E+03 -3.413762E+05 -8.367532E+03  1.806039E+04 -1.085327E+03 -2.636314E+03
       391  24 -4.656597E+03 -3.424337E+05 -1.270687E+04  7.944855E+04 -5.492540E+03 -6.954944E+03
       391  25  2.513207E+04 -2.313059E+05  1.779311E+04  7.806510E+04  3.443494E+03  3.782213E+03
       391  26 -8.382410E+03 -3.791733E+05 -1.749685E+04  1.826342E+04 -1.090028E+03 -5.941957E+02
       391  27 -5.103957E+04 -5.291438E+05 -5.777436E+04  8.124332E+04 -5.497179E+03 -4.969699E+03
       392   1  1.037311E+05  6.773652E+04  8.499870E+04  8.349205E+04  1.140843E+04  1.558806E+04
       392   2  1.451677E+05  2.220324E+05  1.130194E+05  1.389188E+04  1.692509E+04  2.008421E+04
       392   3  1.378339E+05  3.648887E+05  1.261940E+05  6.620555E+04  6.123950E+03  2.453471E+04
       392   4  1.280893E+03 -3.448379E+05 -1.475599E+04  7.930112E+04  1.142375E+04  9.340415E+03
       392   5  6.018140E+03 -3.384724E+05 -2.207732E+04  1.827743E+04  1.692286E+04  2.127037E+04
       392   6 -3.932836E+04 -3.448704E+05 -4.941913E+04  7.917620E+04  6.097813E+03  3.315336E+04
       392   7 -1.011817E+05 -7.572565E+05 -1.145227E+05  7.511306E+04  1.143916E+04  3.096908E+03
       392   8 -1.331543E+05 -8.986897E+05 -1.571965E+05  2.265919E+04  1.692065E+04  2.245546E+04
       392   9 -2.165277E+05 -1.054171E+06 -2.250693E+05  9.213233E+04  6.072021E+03  4.176216E+04
       392  10  1.037309E+05  6.773623E+04  8.499800E+04  8.349191E+04  7.401717E-10 -3.935122E-09
       392  11  1.451673E+05  2.220319E+05  1.130181E+05  1.389161E+04 -1.988218E-09 -2.700595E-09
       392  12  1.378337E+05  3.648881E+05  1.261928E+05  6.620543E+04 -1.816861E-09 -2.423822E-09
       392  13  1.280730E+03 -3.448380E+05 -1.475639E+04  7.930103E+04 -1.253608E-09  2.099595E-09
       392  14  6.017711E+03 -3.384729E+05 -2.207871E+04  1.827714E+04  5.144356E-10  6.354742E-09
       392  15 -3.932870E+04 -3.448716E+05 -4.942126E+04  7.917603E+04 -1.374764E-09 -1.290576E-08
       392  16 -1.011819E+05 -7.572565E+05 -1.145230E+05  7.511303E+04  2.257744E-09  7.859419E-09
       392  17 -1.331547E+05 -8.986903E+05 -1.571980E+05  2.265889E+04  2.113341E-10 -3.049027E-10
       392  18 -2.165282E+05 -1.054173E+06 -2.250727E+05  9.213213E+04 -1.471611E-09 -4.513761E-10
       392  19  1.037311E+05  6.773652E+04  8.499870E+04  8.349205E+04 -1.140843E+04 -1.558806E+04
       392  20  1.451677E+05  2.220324E+05  1.130194E+05  1.389188E+04 -1.692509E+04 -2.008421E+04
       392  21  1.378339E+05  3.648887E+05  1.261940E+05  6.620555E+04 -6.123950E+03 -2.453471E+04
       392  22  1.280893E+03 -3.448379E+05 -1.475599E+04  7.930112E+04 -1.142375E+04 -9.340415E+03
       392  23  6.018140E+03 -3.384724E+05 -2.207732E+04  1.827743E+04 -1.692286E+04 -2.127037E+04
       392  24 -3.932836E+04 -3.448704E+05 -4.941913E+04  7.917620E+04 -6.097813E+03 -3.315336E+04
       392  25 -1.011817E+05 -7.572565E+05 -1.145227E+05  7.511306E+04 -1.143916E+04 -3.096908E+03
       392  26 -1.331543E+05 -8.986897E+05 -1.571965E+05  2.265919E+04 -1.692065E+04 -2.245546E+04
       392  27 -2.165277E+05 -1.054171E+06 -2.250693E+05  9.213233E+04 -6.072021E+03 -4.176216E+04
       393   1  5.572139E+05 -5.963166E+04 -5.148991E+04 -4.011576E+03  1.900610E+04  3.267199E+03
       393   2  5.762657E+05 -8.476219E+04 -6.307847E+04  7.802302E+01  1.418272E+04  9.707605E+03
       393   3  6.046055E+05 -7.600703E+04 -6.302201E+04 -1.515127E+04  9.366955E+03  8.865380E+03
       393   4  9.054594E+05  2.714467E+04  3.453365E+04 -1.160174E+04  2.361797E+04  3.272145E+03
       393   5  9.005376E+05 -4.339823E+03  1.504491E+04 -1.927260E+03  1.546768E+04  9.708434E+03
       393   6  9.054749E+05 -1.371240E+03  9.504410E+03 -1.157082E+04  7.325194E+03  8.863680E+03
       393   7  1.253815E+06  1.139122E+05  1.205483E+05 -1.919619E+04  2.823241E+04  3.276978E+03
       393   8  1.224906E+06  7.607490E+04  9.316080E+04 -3.933616E+03  1.675331E+04  9.709254E+03
       393   9  1.206427E+06  7.325800E+04  8.202439E+04 -7.988639E+03  5.282446E+03  8.861957E+03
       393  10  5.572136E+05 -5.963177E+04 -5.149061E+04 -4.011626E+03 -6.431952E-10 -1.160130E-10
       393  11  5.762654E+05 -8.476234E+04 -6.307903E+04  7.791215E+01  3.473876E-10 -1.642485E-10
       393  12  6.046054E+05 -7.600713E+04 -6.302232E+04 -1.515134E+04 -3.914700E-10 -8.615412E-11
       393  13  9.054588E+05  2.714451E+04  3.453259E+04 -1.160180E+04 -5.519367E-11 -4.340072E-11
       393  14  9.005373E+05 -4.339989E+03  1.504428E+04 -1.927381E+03  2.238493E-10 -2.336973E-10
       393  15  9.054748E+05 -1.371339E+03  9.504162E+03 -1.157087E+04  6.129046E-10  4.786595E-11
       393  16  1.253814E+06  1.139120E+05  1.205468E+05 -1.919627E+04  3.105555E-10 -5.403522E-11
       393  17  1.224905E+06  7.607472E+04  9.316010E+04 -3.933747E+03  1.289753E-10 -1.859798E-10
       393  18  1.206427E+06  7.325790E+04  8.202419E+04 -7.988677E+03 -3.131482E-10 -1.201973E-10
       393  19  5.572139E+05 -5.963166E+04 -5.148991E+04 -4.011576E+03 -1.900610E+04 -3.267199E+03
       393  20  5.762657E+05 -8.476219E+04 -6.307847E+04  7.802302E+01 -1.418272E+04 -9.707605E+03
       393  21  6.046055E+05 -7.600703E+04 -6.302201E+04 -1.515127E+04 -9.366955E+03 -8.865380E+03
       393  22  9.054594E+05  2.714467E+04  3.453365E+04 -1.160174E+04 -2.361797E+04 -3.272145E+03
       393  23  9.005376E+05 -4.339823E+03  1.504491E+04 -1.927260E+03 -1.546768E+04 -9.708434E+03
       393  24  9.054749E+05 -1.371240E+03  9.504410E+03 -1.157082E+04 -7.325194E+03 -8.863680E+03
       393  25  1.253815E+06  1.139122E+05  1.205483E+05 -1.919619E+04 -2.823241E+04 -3.276978E+03
       393  26  1.224906E+06  7.607490E+04  9.316080E+04 -3.933616E+03 -1.675331E+04 -9.709254E+03
       393  27  1.206427E+06  7.325800E+04  8.202439E+04 -7.988639E+03 -5.282446E+03 -8.861957E+03
       394   1  6.374462E+05 -6.302060E+04 -5.654087E+04 -1.069445E+04  5.816266E+03  7.285146E+03
       394   2  6.591403E+05 -6.098547E+04 -5.488748E+04 -2.060305E+03  4.069057E+03  7.019190E+03
       394   3  6.821246E+05 -5.511159E+04 -5.111634E+04 -1.182653E+04  2.321681E+03  6.161725E+03
       394   4  9.035836E+05  3.024192E+03  7.775322E+03 -1.137724E+04  5.832027E+03  7.284944E+03
       394   5  9.029173E+05 -5.101122E+02  3.921281E+03 -2.176408E+03  3.814115E+03  7.018892E+03
       394   6  9.035872E+05 -1.595367E+02  2.372153E+03 -1.137547E+04  1.796101E+03  6.161431E+03
       394   7  1.169786E+06  6.906381E+04  7.208644E+04 -1.206034E+04  5.847794E+03  7.284743E+03
       394   8  1.146749E+06  5.996091E+04  6.272580E+04 -2.292563E+03  3.559074E+03  7.018594E+03
       394   9  1.125095E+06  5.478894E+04  5.585713E+04 -1.092425E+04  1.270333E+03  6.161137E+03
       394  10  6.374461E+05 -6.302066E+04 -5.654103E+04 -1.069448E+04 -2.842561E-10  6.985725E-11
       394  11  6.591402E+05 -6.098552E+04 -5.488761E+04 -2.060328E+03  1.918618E-10 -1.901826E-11
       394  12  6.821246E+05 -5.511163E+04 -5.111642E+04 -1.182654E+04 -1.463240E-10 -1.491679E-10
       394  13  9.035836E+05  3.024126E+03  7.775159E+03 -1.137728E+04 -2.880100E-11 -2.422002E-11
       394  14  9.029173E+05 -5.101690E+02  3.921161E+03 -2.176430E+03  8.507399E-11 -1.359202E-11
       394  15  9.035872E+05 -1.595784E+02  2.372075E+03 -1.137547E+04  2.523514E-10  6.726720E-11
       394  16  1.169786E+06  6.906374E+04  7.208627E+04 -1.206038E+04  1.004658E-10 -3.306033E-11
       394  17  1.146749E+06  5.996085E+04  6.272568E+04 -2.292583E+03 -3.616944E-12  1.620055E-10
       394  18  1.125095E+06  5.478889E+04  5.585706E+04 -1.092425E+04 -1.100859E-10 -1.955150E-10
       394  19  6.374462E+05 -6.302060E+04 -5.654087E+04 -1.069445E+04 -5.816266E+03 -7.285146E+03
       394  20  6.591403E+05 -6.098547E+04 -5.488748E+04 -2.060305E+03 -4.069057E+03 -7.019190E+03
       394  21  6.821246E+05 -5.511159E+04 -5.111634E+04 -1.182653E+04 -2.321681E+03 -6.161725E+03
       394  22  9.035836E+05  3.024192E+03  7.775322E+03 -1.137724E+04 -5.832027E+03 -7.284944E+03
       394  23  9.029173E+05 -5.101122E+02  3.921281E+03 -2.176408E+03 -3.814115E+03 -7.018892E+03
       394  24  9.035872E+05 -1.595367E+02  2.372153E+03 -1.137547E+04 -1.796101E+03 -6.161431E+03
       394  25  1.169786E+06  6.906381E+04  7.208644E+04 -1.206034E+04 -5.847794E+03 -7.284743E+03
       394  26  1.146749E+06  5.996091E+04  6.272580E+04 -2.292563E+03 -3.559074E+03 -7.018594E+03
       394  27  1.125095E+06  5.478894E+04  5.585713E+04 -1.092425E+04 -1.270333E+03 -6.161137E+03
       395   1  7.149353E+05 -4.640525E+04 -4.352950E+04 -1.117099E+04  1.771016E+03  5.577968E+03
       395   2  7.362405E+05 -4.149056E+04 -3.923538E+04 -2.387542E+03  1.258540E+03  4.786639E+03
       395   3  7.577641E+05 -3.614240E+04 -3.449053E+04 -1.125558E+04  7.457439E+02  3.957462E+03
       395   4  9.033430E+05  3.236149E+02  1.874675E+03 -1.120965E+04  1.418825E+03  5.577783E+03
       395   5  9.032329E+05 -6.426815E+01  1.054096E+03 -2.384021E+03  8.889289E+02  4.786515E+03
       395   6  9.033442E+05 -1.562186E+01  6.963327E+02 -1.120959E+04  3.587304E+02  3.957406E+03
       395   7  1.091783E+06  4.704989E+04  4.727632E+04 -1.124833E+04  1.066527E+03  5.577599E+03
       395   8  1.070251E+06  4.135999E+04  4.134158E+04 -2.380500E+03  5.192185E+02  4.786392E+03
       395   9  1.048944E+06  3.610960E+04  3.588168E+04 -1.116358E+04 -2.837349E+01  3.957350E+03
       395  10  7.149353E+05 -4.640529E+04 -4.352957E+04 -1.117100E+04 -2.308743E-10 -1.369022E-11
       395  11  7.362405E+05 -4.149058E+04 -3.923542E+04 -2.387547E+03  7.851522E-11 -1.002411E-10
       395  12  7.577641E+05 -3.614241E+04 -3.449056E+04 -1.125559E+04 -3.862463E-11  1.350603E-11
       395  13  9.033430E+05  3.235809E+02  1.874613E+03 -1.120966E+04 -5.404495E-11 -7.876270E-12
       395  14  9.032329E+05 -6.429297E+01  1.054052E+03 -2.384024E+03 -7.863263E-13  1.361075E-11
       395  15  9.033442E+05 -1.563872E+01  6.963030E+02 -1.120959E+04 -9.110243E-11 -5.716180E-11
       395  16  1.091783E+06  4.704986E+04  4.727626E+04 -1.124833E+04  5.927710E-11 -9.200168E-11
       395  17  1.070251E+06  4.135996E+04  4.134153E+04 -2.380502E+03  5.398234E-11  3.352298E-11
       395  18  1.048944E+06  3.610959E+04  3.588165E+04 -1.116358E+04 -6.753323E-11 -9.291645E-11
       395  19  7.149353E+05 -4.640525E+04 -4.352950E+04 -1.117099E+04 -1.771016E+03 -5.577968E+03
       395  20  7.362405E+05 -4.149056E+04 -3.923538E+04 -2.387542E+03 -1.258540E+03 -4.786639E+03
       395  21  7.577641E+05 -3.614240E+04 -3.449053E+04 -1.125558E+04 -7.457439E+02 -3.957462E+03
       395  22  9.033430E+05  3.236149E+02  1.874675E+03 -1.120965E+04 -1.418825E+03 -5.577783E+03
       395  23  9.032329E+05 -6.426815E+01  1.054096E+03 -2.384021E+03 -8.889289E+02 -4.786515E+03
       395  24  9.033442E+05 -1.562186E+01  6.963327E+02 -1.120959E+04 -3.587304E+02 -3.957406E+03
       395  25  1.091783E+06  4.704989E+04  4.727632E+04 -1.124833E+04 -1.066527E+03 -5.577599E+03
       395  26  1.070251E+06  4.135999E+04  4.134158E+04 -2.380500E+03 -5.192185E+02 -4.786392E+03
       395  27  1.048944E+06  3.610960E+04  3.588168E+04 -1.116358E+04  2.837349E+01 -3.957350E+03
       396   1  7.896522E+05 -2.814984E+04 -2.676001E+04 -1.109315E+04  6.137603E+02  3.471940E+03
       396   2  8.104542E+05 -2.303854E+04 -2.188433E+04 -2.506291E+03  3.582971E+02  2.659205E+03
       396   3  8.313157E+05 -1.785400E+04 -1.682265E+04 -1.109574E+04  1.026484E+02  1.849768E+03
       396   4  9.033104E+05  3.203539E+01  5.972592E+02 -1.110404E+04  2.420705E+02  3.471921E+03
       396   5  9.032814E+05 -1.158295E+01  5.110514E+02 -2.515958E+03 -1.193340E+01  2.659222E+03
       396   6  9.033109E+05  1.772994E+01  6.097533E+02 -1.110403E+04 -2.661143E+02  1.849822E+03
       396   7  1.016980E+06  2.821297E+04  2.795361E+04 -1.111492E+04 -1.296870E+02  3.471902E+03
       396   8  9.961164E+05  2.301474E+04  2.290581E+04 -2.525625E+03 -3.822190E+02  2.659239E+03
       396   9  9.753109E+05  1.788908E+04  1.804178E+04 -1.111232E+04 -6.349194E+02  1.849876E+03
       396  10  7.896522E+05 -2.814985E+04 -2.676003E+04 -1.109315E+04 -9.949460E-11 -7.770023E-11
       396  11  8.104542E+05 -2.303855E+04 -2.188434E+04 -2.506292E+03 -4.904366E-11 -2.774780E-11
       396  12  8.313157E+05 -1.785400E+04 -1.682265E+04 -1.109574E+04  4.936009E-11 -1.511375E-10
       396  13  9.033104E+05  3.202242E+01  5.972364E+02 -1.110404E+04  7.122192E-12  1.774216E-11
       396  14  9.032814E+05 -1.159055E+01  5.110381E+02 -2.515958E+03 -3.414779E-11  6.072877E-11
       396  15  9.033109E+05  1.772625E+01  6.097468E+02 -1.110403E+04 -6.978265E-11  3.969589E-11
       396  16  1.016980E+06  2.821295E+04  2.795359E+04 -1.111492E+04  1.718071E-10 -2.306132E-10
       396  17  9.961164E+05  2.301474E+04  2.290580E+04 -2.525625E+03  6.981496E-11 -2.041223E-10
       396  18  9.753109E+05  1.788908E+04  1.804177E+04 -1.111232E+04  1.210593E-10 -8.913919E-11
       396  19  7.896522E+05 -2.814984E+04 -2.676001E+04 -1.109315E+04 -6.137603E+02 -3.471940E+03
       396  20  8.104542E+05 -2.303854E+04 -2.188433E+04 -2.506291E+03 -3.582971E+02 -2.659205E+03
       396  21  8.313157E+05 -1.785400E+04 -1.682265E+04 -1.109574E+04 -1.026484E+02 -1.849768E+03
       396  22  9.033104E+05  3.203539E+01  5.972592E+02 -1.110404E+04 -2.420705E+02 -3.471921E+03
       396  23  9.032814E+05 -1.158295E+01  5.110514E+02 -2.515958E+03  1.193340E+01 -2.659222E+03
       396  24  9.033109E+05  1.772994E+01  6.097533E+02 -1.110403E+04  2.661143E+02 -1.849822E+03
       396  25  1.016980E+06  2.821297E+04  2.795361E+04 -1.111492E+04  1.296870E+02 -3.471902E+03
       396  26  9.961164E+05  2.301474E+04  2.290581E+04 -2.525625E+03  3.822190E+02 -2.659239E+03
       396  27  9.753109E+05  1.788908E+04  1.804178E+04 -1.111232E+04  6.349194E+02 -1.849876E+03
       397   1  8.626234E+05 -1.008401E+04 -9.036120E+03 -1.102403E+04 -1.847862E+01  1.380157E+03
       397   2  8.831444E+05 -5.020190E+03 -3.737179E+03 -2.563092E+03 -5.766810E+02  5.763431E+02
       397   3  9.037843E+05  2.600240E+02  1.977105E+03 -1.106871E+04 -1.134938E+03 -2.234135E+02
       397   4  9.033252E+05 -4.541745E-01  7.196333E+02 -1.105746E+04 -3.863890E+02  1.380226E+03
       397   5  9.032659E+05 -2.898188E+01  1.117170E+03 -2.574177E+03 -9.427600E+02  5.764196E+02
       397   6  9.033250E+05  1.585966E+02  1.928807E+03 -1.105741E+04 -1.499168E+03 -2.233289E+02
       397   7  9.440285E+05  1.008298E+04  1.047527E+04 -1.109089E+04 -7.543233E+02  1.380296E+03
       397   8  9.233879E+05  4.962197E+03  5.971492E+03 -2.585261E+03 -1.308851E+03  5.764962E+02
       397   9  9.028657E+05  5.716920E+01  1.880511E+03 -1.104612E+04 -1.863397E+03 -2.232443E+02
       397  10  8.626234E+05 -1.008401E+04 -9.036123E+03 -1.102403E+04 -1.363339E-10 -6.224475E-11
       397  11  8.831444E+05 -5.020190E+03 -3.737181E+03 -2.563092E+03 -8.888838E-11  9.712875E-11
       397  12  9.037843E+05  2.600236E+02  1.977102E+03 -1.106871E+04 -4.637895E-11  5.964640E-11
       397  13  9.033252E+05 -4.562610E-01  7.196294E+02 -1.105745E+04 -5.823065E-12  6.908030E-11
       397  14  9.032659E+05 -2.898247E+01  1.117168E+03 -2.574176E+03 -2.285244E-10  8.184698E-12
       397  15  9.033250E+05  1.585959E+02  1.928803E+03 -1.105742E+04 -3.448183E-10  8.029119E-11
       397  16  9.440285E+05  1.008298E+04  1.047527E+04 -1.109088E+04  2.613362E-10 -1.284037E-10
       397  17  9.233879E+05  4.962196E+03  5.971488E+03 -2.585261E+03 -6.548798E-11  2.565793E-10
       397  18  9.028657E+05  5.716821E+01  1.880504E+03 -1.104612E+04  2.243900E-10 -2.414497E-10
       397  19  8.626234E+05 -1.008401E+04 -9.036120E+03 -1.102403E+04  1.847862E+01 -1.380157E+03
       397  20  8.831444E+05 -5.020190E+03 -3.737179E+03 -2.563092E+03  5.766810E+02 -5.763431E+02
       397  21  9.037843E+05  2.600240E+02  1.977105E+03 -1.106871E+04  1.134938E+03  2.234135E+02
       397  22  9.033252E+05 -4.541745E-01  7.196333E+02 -1.105746E+04  3.863890E+02 -1.380226E+03
       397  23  9.032659E+05 -2.898188E+01  1.117170E+03 -2.574177E+03  9.427600E+02 -5.764196E+02
       397  24  9.033250E+05  1.585966E+02  1.928807E+03 -1.105741E+04  1.499168E+03  2.233289E+02
       397  25  9.440285E+05  1.008298E+04  1.047527E+04 -1.109089E+04  7.543233E+02 -1.380296E+03
       397  26  9.233879E+05  4.962197E+03  5.971492E+03 -2.585261E+03  1.308851E+03 -5.764962E+02
       397  27  9.028657E+05  5.716920E+01  1.880511E+03 -1.104612E+04  1.863397E+03  2.232443E+02
       398   1  9.350806E+05  7.791948E+03  1.017733E+04 -1.086305E+04 -1.522410E+03 -6.947656E+02
       398   2  9.553629E+05  1.272045E+04  1.683331E+04 -2.606503E+03 -3.661243E+03 -1.498315E+03
       398   3  9.763860E+05  1.951505E+04  2.534570E+04 -1.137544E+04 -5.800019E+03 -2.272686E+03
       398   4  9.034626E+05 -6.309889E+01  2.487291E+03 -1.107064E+04 -1.896030E+03 -6.946828E+02
       398   5  9.030924E+05 -2.447019E+02  4.224212E+03 -2.557733E+03 -4.021381E+03 -1.498257E+03
       398   6  9.034606E+05  1.437663E+03  7.808451E+03 -1.107039E+04 -6.146604E+03 -2.272652E+03
       398   7  8.718455E+05 -7.918219E+03 -5.202823E+03 -1.127823E+04 -2.269631E+03 -6.945998E+02
       398   8  8.508243E+05 -1.321006E+04 -8.385082E+03 -2.508968E+03 -4.381488E+03 -1.498199E+03
       398   9  8.305401E+05 -1.664011E+04 -9.729178E+03 -1.076538E+04 -6.493149E+03 -2.272618E+03
       398  10  9.350806E+05  7.791946E+03  1.017733E+04 -1.086305E+04 -4.302676E-11 -7.659015E-11
       398  11  9.553629E+05  1.272045E+04  1.683328E+04 -2.606507E+03 -7.178484E-11  1.889356E-11
       398  12  9.763860E+05  1.951503E+04  2.534563E+04 -1.137545E+04 -1.266812E-10 -1.504476E-10
       398  13  9.034626E+05 -6.310038E+01  2.487284E+03 -1.107064E+04 -1.289260E-10 -1.986165E-10
       398  14  9.030924E+05 -2.447086E+02  4.224177E+03 -2.557738E+03  6.951448E-11  1.612138E-11
       398  15  9.034606E+05  1.437647E+03  7.808370E+03 -1.107040E+04 -2.168547E-10  1.957450E-11
       398  16  8.718455E+05 -7.918221E+03 -5.202834E+03 -1.127823E+04  2.145537E-10 -7.809721E-11
       398  17  8.508243E+05 -1.321006E+04 -8.385122E+03 -2.508973E+03  5.143092E-11  4.577218E-11
       398  18  8.305401E+05 -1.664012E+04 -9.729267E+03 -1.076539E+04  2.828400E-10  8.886545E-11
       398  19  9.350806E+05  7.791948E+03  1.017733E+04 -1.086305E+04  1.522410E+03  6.947656E+02
       398  20  9.553629E+05  1.272045E+04  1.683331E+04 -2.606503E+03  3.661243E+03  1.498315E+03
       398  21  9.763860E+05  1.951505E+04  2.534570E+04 -1.137544E+04  5.800019E+03  2.272686E+03
       398  22  9.034626E+05 -6.309889E+01  2.487291E+03 -1.107064E+04  1.896030E+03  6.946828E+02
       398  23  9.030924E+05 -2.447019E+02  4.224212E+03 -2.557733E+03  4.021381E+03  1.498257E+03
       398  24  9.034606E+05  1.437663E+03  7.808451E+03 -1.107039E+04  6.146604E+03  2.272652E+03
       398  25  8.718455E+05 -7.918219E+03 -5.202823E+03 -1.127823E+04  2.269631E+03  6.945998E+02
       398  26  8.508243E+05 -1.321006E+04 -8.385082E+03 -2.508968E+03  4.381488E+03  1.498199E+03
       398  27  8.305401E+05 -1.664011E+04 -9.729178E+03 -1.076538E+04  6.493149E+03  2.272618E+03
       399   1  1.008909E+06  2.528469E+04  3.519575E+04 -9.428607E+03 -7.262726E+03 -2.802290E+03
       399   2  1.027314E+06  2.901565E+04  4.687693E+04 -3.327250E+03 -1.598927E+04 -3.615440E+03
       399   3  1.051015E+06  4.931978E+04  6.838002E+04 -1.456927E+04 -2.471608E+04 -4.040428E+03
       399   4  9.044665E+05 -6.311384E+02  9.945388E+03 -1.114120E+04 -7.722045E+03 -2.802244E+03
       399   5  9.018285E+05 -2.107271E+03  1.661314E+04 -2.469609E+03 -1.626984E+04 -3.615501E+03
       399   6  9.044570E+05  1.296063E+04  3.298030E+04 -1.114149E+04 -2.481762E+04 -4.040631E+03
       399   7  8.000340E+05 -2.654775E+04 -1.530576E+04 -1.285351E+04 -8.181287E+03 -2.802195E+03
       399   8  7.763577E+05 -3.323133E+04 -1.365178E+04 -1.612142E+03 -1.655036E+04 -3.615562E+03
       399   9  7.579184E+05 -2.340004E+04 -2.420954E+03 -7.714519E+03 -2.491913E+04 -4.040835E+03
       399  10  1.008909E+06  2.528467E+04  3.519564E+04 -9.428623E+03 -2.564733E-10 -1.354225E-10
       399  11  1.027313E+06  2.901557E+04  4.687643E+04 -3.327297E+03  1.640639E-10 -9.180096E-11
       399  12  1.051015E+06  4.931960E+04  6.837884E+04 -1.456935E+04 -1.835032E-10  6.430480E-11
       399  13  9.044664E+05 -6.311628E+02  9.945261E+03 -1.114122E+04 -1.569614E-10  3.981113E-11
       399  14  9.018282E+05 -2.107356E+03  1.661261E+04 -2.469657E+03  3.592496E-11  5.069328E-11
       399  15  9.044563E+05  1.296045E+04  3.297911E+04 -1.114157E+04  2.372530E-11  5.381453E-11
       399  16  8.000339E+05 -2.654778E+04 -1.530590E+04 -1.285353E+04  2.119987E-10  9.809395E-11
       399  17  7.763574E+05 -3.323142E+04 -1.365232E+04 -1.612190E+03 -2.014452E-11  1.936146E-10
       399  18  7.579177E+05 -2.340023E+04 -2.422151E+03 -7.714600E+03  1.103168E-10  6.845638E-12
       399  19  1.008909E+06  2.528469E+04  3.519575E+04 -9.428607E+03  7.262726E+03  2.802290E+03
       399  20  1.027314E+06  2.901565E+04  4.687693E+04 -3.327250E+03  1.598927E+04  3.615440E+03
       399  21  1.051015E+06  4.931978E+04  6.838002E+04 -1.456927E+04  2.471608E+04  4.040428E+03
       399  22  9.044665E+05 -6.311384E+02  9.945388E+03 -1.114120E+04  7.722045E+03  2.802244E+03
       399  23  9.018285E+05 -2.107271E+03  1.661314E+04 -2.469609E+03  1.626984E+04  3.615501E+03
       399  24  9.044570E+05  1.296063E+04  3.298030E+04 -1.114149E+04  2.481762E+04  4.040631E+03
       399  25  8.000340E+05 -2.654775E+04 -1.530576E+04 -1.285351E+04  8.181287E+03  2.802195E+03
       399  26  7.763577E+05 -3.323133E+04 -1.365178E+04 -1.612142E+03  1.655036E+04  3.615562E+03
       399  27  7.579184E+05 -2.340004E+04 -2.420954E+03 -7.714519E+03  2.491913E+04  4.040835E+03
       400   1  1.091370E+06  3.866385E+04  8.345467E+04  3.287442E+03 -2.970783E+04 -5.217769E+03
       400   2  1.092446E+06  3.142016E+04  1.122509E+05 -1.178763E+04 -6.648084E+04 -6.023421E+03
       400   3  1.135017E+06  1.708401E+05  2.016383E+05 -4.474857E+04 -1.032565E+05 -2.079284E+03
       400   4  9.124362E+05 -5.714347E+03  4.031922E+04 -1.125014E+04 -3.115162E+04 -5.217326E+03
       400   5  8.918445E+05 -1.831252E+04  6.394225E+04 -2.328105E+03 -6.574715E+04 -6.024383E+03
       400   6  9.123830E+05  1.153989E+05  1.466598E+05 -1.129067E+04 -1.003439E+05 -2.083814E+03
       400   7  7.335320E+05 -5.009409E+04 -2.818390E+03 -2.578353E+04 -3.259500E+04 -5.216815E+03
       400   8  6.912797E+05 -6.804780E+04  1.563080E+04  7.128354E+03 -6.501369E+04 -6.025323E+03
       400   9  6.897959E+05  5.995813E+04  9.167820E+04  2.215524E+04 -9.743228E+04 -2.088033E+03
       400  10  1.091369E+06  3.866359E+04  8.345296E+04  3.287318E+03 -1.141092E-11  9.655052E-11
       400  11  1.092441E+06  3.141893E+04  1.122425E+05 -1.178795E+04  1.252451E-10 -1.039373E-10
       400  12  1.135006E+06  1.708373E+05  2.016183E+05 -4.474875E+04 -3.313989E-10 -7.801717E-11
       400  13  9.124352E+05 -5.714636E+03  4.031735E+04 -1.125027E+04  1.515109E-10 -5.389359E-11
       400  14  8.918398E+05 -1.831372E+04  6.393407E+04 -2.328424E+03 -2.302687E-10 -1.093563E-10
       400  15  9.123722E+05  1.153962E+05  1.466409E+05 -1.129084E+04  2.462057E-10 -5.992124E-11
       400  16  7.335309E+05 -5.009440E+04 -2.820435E+03 -2.578366E+04  2.962911E-10  1.739975E-10
       400  17  6.912751E+05 -6.804897E+04  1.562280E+04  7.128039E+03  1.958264E-10  4.734278E-12
       400  18  6.897857E+05  5.995558E+04  9.166037E+04  2.215507E+04 -1.227966E-10 -3.891256E-13
       400  19  1.091370E+06  3.866385E+04  8.345467E+04  3.287442E+03  2.970783E+04  5.217769E+03
       400  20  1.092446E+06  3.142016E+04  1.122509E+05 -1.178763E+04  6.648084E+04  6.023421E+03
       400  21  1.135017E+06  1.708401E+05  2.016383E+05 -4.474857E+04  1.032565E+05  2.079284E+03
       400  22  9.124362E+05 -5.714347E+03  4.031922E+04 -1.125014E+04  3.115162E+04  5.217326E+03
       400  23  8.918445E+05 -1.831252E+04  6.394225E+04 -2.328105E+03  6.574715E+04  6.024383E+03
       400  24  9.123830E+05  1.153989E+05  1.466598E+05 -1.129067E+04  1.003439E+05  2.083814E+03
       400  25  7.335320E+05 -5.009409E+04 -2.818390E+03 -2.578353E+04  3.259500E+04  5.216815E+03
       400  26  6.912797E+05 -6.804780E+04  1.563080E+04  7.128354E+03  6.501369E+04  6.025323E+03
       400  27  6.897959E+05  5.995813E+04  9.167820E+04  2.215524E+04  9.743228E+04  2.088033E+03
       401   1 -7.871539E+04 -7.789641E+04 -7.267127E+04 -9.781976E+03  9.066651E+03  3.513941E+03
       401   2 -5.392643E+04 -8.930510E+04 -7.527908E+04 -1.891027E+03  7.840098E+03  1.045724E+04
       401   3 -2.382168E+04 -8.079033E+04 -7.207229E+04 -1.637726E+04  6.615585E+03  9.470584E+03
       401   4  2.983999E+05  1.615964E+04  2.055414E+04 -1.438048E+04  1.404636E+04  3.515414E+03
       401   5  2.954324E+05 -2.596749E+03  8.945788E+03 -3.190033E+03  9.201774E+03  1.045700E+04
       401   6  2.984053E+05 -8.075593E+02  5.661260E+03 -1.437594E+04  4.359364E+03  9.470570E+03
       401   7  6.756445E+05  1.102052E+05  1.137691E+05 -1.898178E+04  1.902910E+04  3.516813E+03
       401   8  6.449029E+05  8.410270E+04  9.316195E+04 -4.489775E+03  1.056421E+04  1.045674E+04
       401   9  6.207273E+05  7.916765E+04  8.338741E+04 -1.237356E+04  2.101975E+03  9.470541E+03
       401  10 -7.871548E+04 -7.789645E+04 -7.267145E+04 -9.782001E+03 -2.610369E-10  5.800922E-11
       401  11 -5.392653E+04 -8.930523E+04 -7.527940E+04 -1.891093E+03  1.694332E-10  4.284425E-11
       401  12 -2.382175E+04 -8.079044E+04 -7.207255E+04 -1.637731E+04  5.263539E-11 -1.588567E-10
       401  13  2.983997E+05  1.615958E+04  2.055375E+04 -1.438052E+04 -1.570114E-10 -1.456788E-10
       401  14  2.954323E+05 -2.596889E+03  8.945424E+03 -3.190110E+03 -9.850640E-11  4.904490E-11
       401  15  2.984053E+05 -8.076607E+02  5.661056E+03 -1.437597E+04 -9.880332E-11 -4.675812E-11
       401  16  6.756441E+05  1.102051E+05  1.137684E+05 -1.898184E+04  1.389499E-10  1.843352E-10
       401  17  6.449028E+05  8.410255E+04  9.316153E+04 -4.489864E+03 -4.890578E-11  4.291147E-13
       401  18  6.207273E+05  7.916755E+04  8.338723E+04 -1.237358E+04  7.157465E-11 -3.265499E-11
       401  19 -7.871539E+04 -7.789641E+04 -7.267127E+04 -9.781976E+03 -9.066651E+03 -3.513941E+03
       401  20 -5.392643E+04 -8.930510E+04 -7.527908E+04 -1.891027E+03 -7.840098E+03 -1.045724E+04
       401  21 -2.382168E+04 -8.079033E+04 -7.207229E+04 -1.637726E+04 -6.615585E+03 -9.470584E+03
       401  22  2.983999E+05  1.615964E+04  2.055414E+04 -1.438048E+04 -1.404636E+04 -3.515414E+03
       401  23  2.954324E+05 -2.596749E+03  8.945788E+03 -3.190033E+03 -9.201774E+03 -1.045700E+04
       401  24  2.984053E+05 -8.075593E+02  5.661260E+03 -1.437594E+04 -4.359364E+03 -9.470570E+03
       401  25  6.756445E+05  1.102052E+05  1.137691E+05 -1.898178E+04 -1.902910E+04 -3.516813E+03
       401  26  6.449029E+05  8.410270E+04  9.316195E+04 -4.489775E+03 -1.056421E+04 -1.045674E+04
       401  27  6.207273E+05  7.916765E+04  8.338741E+04 -1.237356E+04 -2.101975E+03 -9.470541E+03
       402   1  1.617486E+04 -6.799935E+04 -6.334395E+04 -1.380630E+04  3.493021E+03  7.706207E+03
       402   2  4.271508E+04 -6.339895E+04 -5.901522E+04 -3.046095E+03  2.589907E+03  7.322219E+03
       402   3  7.001386E+04 -5.650684E+04 -5.351144E+04 -1.447473E+04  1.685991E+03  6.281042E+03
       402   4  2.972717E+05  1.806228E+03  4.630869E+03 -1.433485E+04  3.468710E+03  7.705982E+03
       402   5  2.968683E+05 -3.064977E+02  2.337751E+03 -3.240994E+03  2.265432E+03  7.322153E+03
       402   6  2.972742E+05 -7.598471E+01  1.427615E+03 -1.433539E+04  1.061386E+03  6.281255E+03
       402   7  5.784407E+05  7.160603E+04  7.260002E+04 -1.486363E+04  3.444387E+03  7.705758E+03
       402   8  5.510805E+05  6.278123E+04  6.368610E+04 -3.435967E+03  1.940824E+03  7.322087E+03
       402   9  5.245816E+05  5.635109E+04  5.636296E+04 -1.419600E+04  4.365533E+02  6.281467E+03
       402  10  1.617483E+04 -6.799942E+04 -6.334409E+04 -1.380632E+04 -2.264911E-10 -1.201104E-11
       402  11  4.271506E+04 -6.339901E+04 -5.901534E+04 -3.046111E+03 -1.322270E-10  1.214475E-10
       402  12  7.001385E+04 -5.650688E+04 -5.351152E+04 -1.447474E+04  8.572880E-11  1.098877E-10
       402  13  2.972716E+05  1.806161E+03  4.630735E+03 -1.433487E+04 -1.881690E-10  1.256809E-10
       402  14  2.968683E+05 -3.065567E+02  2.337641E+03 -3.241007E+03 -1.306233E-10 -2.510576E-10
       402  15  2.972741E+05 -7.602739E+01  1.427539E+03 -1.433540E+04 -6.156085E-10  1.562752E-10
       402  16  5.784406E+05  7.160596E+04  7.259989E+04 -1.486365E+04  6.230729E-11 -1.319301E-11
       402  17  5.510805E+05  6.278118E+04  6.368599E+04 -3.435978E+03 -1.139361E-10  1.797492E-10
       402  18  5.245816E+05  5.635105E+04  5.636289E+04 -1.419600E+04  2.998404E-10  1.024210E-10
       402  19  1.617486E+04 -6.799935E+04 -6.334395E+04 -1.380630E+04 -3.493021E+03 -7.706207E+03
       402  20  4.271508E+04 -6.339895E+04 -5.901522E+04 -3.046095E+03 -2.589907E+03 -7.322219E+03
       402  21  7.001386E+04 -5.650684E+04 -5.351144E+04 -1.447473E+04 -1.685991E+03 -6.281042E+03
       402  22  2.972717E+05  1.806228E+03  4.630869E+03 -1.433485E+04 -3.468710E+03 -7.705982E+03
       402  23  2.968683E+05 -3.064977E+02  2.337751E+03 -3.240994E+03 -2.265432E+03 -7.322153E+03
       402  24  2.972742E+05 -7.598471E+01  1.427615E+03 -1.433539E+04 -1.061386E+03 -6.281255E+03
       402  25  5.784407E+05  7.160603E+04  7.260002E+04 -1.486363E+04 -3.444387E+03 -7.705758E+03
       402  26  5.510805E+05  6.278123E+04  6.368610E+04 -3.435967E+03 -1.940824E+03 -7.322087E+03
       402  27  5.245816E+05  5.635109E+04  5.636296E+04 -1.419600E+04 -4.365533E+02 -6.281467E+03
       403   1  1.103994E+05 -4.613113E+04 -4.388045E+04 -1.414913E+04  1.270556E+03  5.577619E+03
       403   2  1.369565E+05 -3.978134E+04 -3.799496E+04 -3.210846E+03  9.616746E+02  4.592479E+03
       403   3  1.636214E+05 -3.314052E+04 -3.183698E+04 -1.422085E+04  6.523655E+02  3.556055E+03
       403   4  2.971238E+05  2.087452E+02  1.134407E+03 -1.428169E+04  8.330365E+02  5.577798E+03
       403   5  2.970689E+05 -3.521005E+01  6.601938E+02 -3.307793E+03  5.006700E+02  4.592751E+03
       403   6  2.971252E+05  1.596027E+01  4.747644E+02 -1.428183E+04  1.678887E+02  3.556428E+03
       403   7  4.838801E+05  4.654608E+04  4.614677E+04 -1.441430E+04  3.953860E+02  5.577977E+03
       403   8  4.572047E+05  3.970905E+04  3.931352E+04 -3.404760E+03  3.954690E+01  4.593022E+03
       403   9  4.306452E+05  3.317113E+04  3.278523E+04 -1.434281E+04 -3.166919E+02  3.556801E+03
       403  10  1.103994E+05 -4.613116E+04 -4.388051E+04 -1.414913E+04  1.298437E-10 -1.076431E-10
       403  11  1.369565E+05 -3.978137E+04 -3.799500E+04 -3.210849E+03 -4.862644E-10  2.012980E-10
       403  12  1.636214E+05 -3.314053E+04 -3.183700E+04 -1.422086E+04  4.752381E-11 -4.269241E-10
       403  13  2.971238E+05  2.087116E+02  1.134347E+03 -1.428170E+04 -1.304402E-10 -1.615110E-11
       403  14  2.970689E+05 -3.523277E+01  6.601537E+02 -3.307795E+03 -4.136772E-10  4.941070E-10
       403  15  2.971252E+05  1.594668E+01  4.747406E+02 -1.428183E+04 -8.956799E-10  6.132032E-10
       403  16  4.838801E+05  4.654604E+04  4.614671E+04 -1.441430E+04  1.122823E-10  4.398732E-11
       403  17  4.572047E+05  3.970903E+04  3.931348E+04 -3.404760E+03 -2.815731E-10 -4.236582E-10
       403  18  4.306452E+05  3.317112E+04  3.278520E+04 -1.434281E+04  5.977113E-10 -2.622201E-10
       403  19  1.103994E+05 -4.613113E+04 -4.388045E+04 -1.414913E+04 -1.270556E+03 -5.577619E+03
       403  20  1.369565E+05 -3.978134E+04 -3.799496E+04 -3.210846E+03 -9.616746E+02 -4.592479E+03
       403  21  1.636214E+05 -3.314052E+04 -3.183698E+04 -1.422085E+04 -6.523655E+02 -3.556055E+03
       403  22  2.971238E+05  2.087452E+02  1.134407E+03 -1.428169E+04 -8.330365E+02 -5.577798E+03
       403  23  2.970689E+05 -3.521005E+01  6.601938E+02 -3.307793E+03 -5.006700E+02 -4.592751E+03
       403  24  2.971252E+05  1.596027E+01  4.747644E+02 -1.428183E+04 -1.678887E+02 -3.556428E+03
       403  25  4.838801E+05  4.654608E+04  4.614677E+04 -1.441430E+04 -3.953860E+02 -5.577977E+03
       403  26  4.572047E+05  3.970905E+04  3.931352E+04 -3.404760E+03 -3.954690E+01 -4.593022E+03
       403  27  4.306452E+05  3.317113E+04  3.278523E+04 -1.434281E+04  3.166919E+02 -3.556801E+03
       404   1  2.037772E+05 -2.310860E+04 -2.201692E+04 -1.418177E+04  5.540194E+02  2.945909E+03
       404   2  2.302193E+05 -1.660457E+04 -1.570535E+04 -3.295212E+03  3.353485E+02  1.917217E+03
       404   3  2.566678E+05 -1.000943E+04 -9.238426E+03 -1.421888E+04  1.165104E+02  8.859815E+02
       404   4  2.971045E+05  4.196977E+01  4.338000E+02 -1.425114E+04  8.531065E+01  2.946309E+03
       404   5  2.971016E+05 -2.640397E+00  4.411123E+02 -3.346102E+03 -1.345493E+02  1.917651E+03
       404   6  2.971050E+05  4.421287E+01  6.047352E+02 -1.425114E+04 -3.545673E+02  8.864512E+02
       404   7  3.904397E+05  2.319190E+04  2.288390E+04 -1.432053E+04 -3.834683E+02  2.946710E+03
       404   8  3.639879E+05  1.659896E+04  1.658726E+04 -3.396997E+03 -6.044976E+02  1.918085E+03
       404   9  3.375437E+05  1.009774E+04  1.044778E+04 -1.428340E+04 -8.256755E+02  8.869210E+02
       404  10  2.037772E+05 -2.310861E+04 -2.201694E+04 -1.418177E+04  1.554847E-10 -7.716328E-11
       404  11  2.302193E+05 -1.660458E+04 -1.570536E+04 -3.295213E+03 -2.651803E-10  1.034064E-10
       404  12  2.566678E+05 -1.000943E+04 -9.238428E+03 -1.421888E+04  6.753031E-10 -1.876813E-10
       404  13  2.971045E+05  4.196044E+01  4.337837E+02 -1.425114E+04  4.482789E-11 -6.985289E-10
       404  14  2.971016E+05 -2.644352E+00  4.411053E+02 -3.346102E+03 -2.373625E-10  3.215709E-10
       404  15  2.971050E+05  4.421199E+01  6.047334E+02 -1.425114E+04 -8.688226E-10 -6.164259E-10
       404  16  3.904397E+05  2.319189E+04  2.288389E+04 -1.432053E+04  4.771570E-11  1.495364E-10
       404  17  3.639879E+05  1.659896E+04  1.658725E+04 -3.396996E+03 -3.982901E-10 -5.986590E-11
       404  18  3.375437E+05  1.009774E+04  1.044778E+04 -1.428340E+04  5.696335E-10 -1.063095E-09
       404  19  2.037772E+05 -2.310860E+04 -2.201692E+04 -1.418177E+04 -5.540194E+02 -2.945909E+03
       404  20  2.302193E+05 -1.660457E+04 -1.570535E+04 -3.295212E+03 -3.353485E+02 -1.917217E+03
       404  21  2.566678E+05 -1.000943E+04 -9.238426E+03 -1.421888E+04 -1.165104E+02 -8.859815E+02
       404  22  2.971045E+05  4.196977E+01  4.338000E+02 -1.425114E+04 -8.531065E+01 -2.946309E+03
       404  23  2.971016E+05 -2.640397E+00  4.411123E+02 -3.346102E+03  1.345493E+02 -1.917651E+03
       404  24  2.971050E+05  4.421287E+01  6.047352E+02 -1.425114E+04  3.545673E+02 -8.864512E+02
       404  25  3.904397E+05  2.319190E+04  2.288390E+04 -1.432053E+04  3.834683E+02 -2.946710E+03
       404  26  3.639879E+05  1.659896E+04  1.658726E+04 -3.396997E+03  6.044976E+02 -1.918085E+03
       404  27  3.375437E+05  1.009774E+04  1.044778E+04 -1.428340E+04  8.256755E+02 -8.869210E+02
       405   1  2.967186E+05 -6.269369E+01  7.285581E+02 -1.421471E+04 -6.310317E+00  2.849584E+02
       405   2  3.230874E+05  6.429257E+03  7.492214E+03 -3.362410E+03 -6.128419E+02 -7.451797E+02
       405   3  3.495519E+05  1.319374E+04  1.470757E+04 -1.429575E+04 -1.219344E+03 -1.772222E+03
       405   4  2.971251E+05  2.204995E+01  7.455633E+02 -1.424579E+04 -4.771998E+02  2.854354E+02
       405   5  2.970777E+05 -2.664398E+01  1.213441E+03 -3.352850E+03 -1.082308E+03 -7.447184E+02
       405   6  2.971248E+05  1.969093E+02  2.131996E+03 -1.424561E+04 -1.687360E+03 -1.771774E+03
       405   7  2.975316E+05  1.067937E+02  7.625694E+02 -1.427686E+04 -9.480895E+02  2.859124E+02
       405   8  2.710686E+05 -6.482594E+03 -5.065380E+03 -3.343290E+03 -1.551754E+03 -7.442571E+02
       405   9  2.447001E+05 -1.280012E+04 -1.044377E+04 -1.419548E+04 -2.155338E+03 -1.771326E+03
       405  10  2.967186E+05 -6.269377E+01  7.285580E+02 -1.421471E+04 -2.559242E-10  4.711809E-10
       405  11  3.230874E+05  6.429257E+03  7.492212E+03 -3.362410E+03 -4.063976E-10  1.540795E-09
       405  12  3.495519E+05  1.319374E+04  1.470756E+04 -1.429575E+04  1.139458E-09 -8.045451E-10
       405  13  2.971251E+05  2.204980E+01  7.455628E+02 -1.424579E+04 -1.473425E-10 -4.840855E-11
       405  14  2.970777E+05 -2.664489E+01  1.213438E+03 -3.352851E+03 -2.472758E-10 -3.781237E-10
       405  15  2.971248E+05  1.969052E+02  2.131984E+03 -1.424561E+04 -7.936625E-10  4.357529E-11
       405  16  2.975316E+05  1.067934E+02  7.625676E+02 -1.427686E+04  4.811729E-10 -1.528026E-10
       405  17  2.710686E+05 -6.482596E+03 -5.065385E+03 -3.343291E+03 -1.798108E-10 -1.193531E-10
       405  18  2.447001E+05 -1.280012E+04 -1.044378E+04 -1.419548E+04 -2.177074E-10 -1.027573E-10
       405  19  2.967186E+05 -6.269369E+01  7.285581E+02 -1.421471E+04  6.310317E+00 -2.849584E+02
       405  20  3.230874E+05  6.429257E+03  7.492214E+03 -3.362410E+03  6.128419E+02  7.451797E+02
       405  21  3.495519E+05  1.319374E+04  1.470757E+04 -1.429575E+04  1.219344E+03  1.772222E+03
       405  22  2.971251E+05  2.204995E+01  7.455633E+02 -1.424579E+04  4.771998E+02 -2.854354E+02
       405  23  2.970777E+05 -2.664398E+01  1.213441E+03 -3.352850E+03  1.082308E+03  7.447184E+02
       405  24  2.971248E+05  1.969093E+02  2.131996E+03 -1.424561E+04  1.687360E+03  1.771774E+03
       405  25  2.975316E+05  1.067937E+02  7.625694E+02 -1.427686E+04  9.480895E+02 -2.859124E+02
       405  26  2.710686E+05 -6.482594E+03 -5.065380E+03 -3.343290E+03  1.551754E+03  7.442571E+02
       405  27  2.447001E+05 -1.280012E+04 -1.044377E+04 -1.419548E+04  2.155338E+03  1.771326E+03
       406   1  3.898014E+05  2.292995E+04  2.517431E+04 -1.409416E+04 -1.645361E+03 -2.379804E+03
       406   2  4.159202E+05  2.927539E+04  3.343701E+04 -3.451233E+03 -4.033122E+03 -3.411455E+03
       406   3  4.428517E+05  3.773572E+04  4.377614E+04 -1.468058E+04 -6.420672E+03 -4.396870E+03
       406   4  2.972818E+05 -4.914069E+01  2.760434E+03 -1.426547E+04 -2.127337E+03 -2.379368E+03
       406   5  2.968767E+05 -2.709468E+02  4.701938E+03 -3.328522E+03 -4.493603E+03 -3.411101E+03
       406   6  2.972802E+05  1.618720E+03  8.705323E+03 -1.426410E+04 -6.859558E+03 -4.396593E+03
       406   7  2.047700E+05 -2.302886E+04 -1.965406E+04 -1.443675E+04 -2.609241E+03 -2.378933E+03
       406   8  1.778462E+05 -2.981832E+04 -2.403415E+04 -3.205833E+03 -4.953997E+03 -3.410747E+03
       406   9  1.517282E+05 -3.449982E+04 -2.636701E+04 -1.384772E+04 -7.298341E+03 -4.396317E+03
       406  10  3.898014E+05  2.292995E+04  2.517430E+04 -1.409417E+04  2.853860E-10 -1.030840E-09
       406  11  4.159201E+05  2.927537E+04  3.343696E+04 -3.451244E+03 -1.742698E-10  7.615333E-11
       406  12  4.428517E+05  3.773569E+04  4.377603E+04 -1.468060E+04  4.391907E-11  3.165752E-10
       406  13  2.972818E+05 -4.914799E+01  2.760415E+03 -1.426547E+04 -1.926475E-10  4.089512E-11
       406  14  2.968767E+05 -2.709647E+02  4.701878E+03 -3.328535E+03 -1.062805E-10 -2.184831E-10
       406  15  2.972802E+05  1.618687E+03  8.705198E+03 -1.426413E+04 -6.785179E-10 -1.255525E-10
       406  16  2.047700E+05 -2.302887E+04 -1.965408E+04 -1.443675E+04 -1.960386E-10  4.595585E-11
       406  17  1.778462E+05 -2.981834E+04 -2.403422E+04 -3.205846E+03 -3.712230E-10  1.222878E-09
       406  18  1.517281E+05 -3.449986E+04 -2.636715E+04 -1.384774E+04  6.062339E-10  3.242937E-10
       406  19  3.898014E+05  2.292995E+04  2.517431E+04 -1.409416E+04  1.645361E+03  2.379804E+03
       406  20  4.159202E+05  2.927539E+04  3.343701E+04 -3.451233E+03  4.033122E+03  3.411455E+03
       406  21  4.428517E+05  3.773572E+04  4.377614E+04 -1.468058E+04  6.420672E+03  4.396870E+03
       406  22  2.972818E+05 -4.914069E+01  2.760434E+03 -1.426547E+04  2.127337E+03  2.379368E+03
       406  23  2.968767E+05 -2.709468E+02  4.701938E+03 -3.328522E+03  4.493603E+03  3.411101E+03
       406  24  2.972802E+05  1.618720E+03  8.705323E+03 -1.426410E+04  6.859558E+03  4.396593E+03
       406  25  2.047700E+05 -2.302886E+04 -1.965406E+04 -1.443675E+04  2.609241E+03  2.378933E+03
       406  26  1.778462E+05 -2.981832E+04 -2.403415E+04 -3.205833E+03  4.953997E+03  3.410747E+03
       406  27  1.517282E+05 -3.449982E+04 -2.636701E+04 -1.384772E+04  7.298341E+03  4.396317E+03
       407   1  4.843459E+05  4.546999E+04  5.604334E+04 -1.249053E+04 -8.010344E+03 -5.086575E+03
       407   2  5.081481E+05  5.043068E+04  6.985706E+04 -4.320517E+03 -1.781300E+04 -6.118398E+03
       407   3  5.378901E+05  7.393073E+04  9.468979E+04 -1.821009E+04 -2.761526E+04 -6.564930E+03
       407   4  2.984071E+05 -6.883514E+02  1.109198E+04 -1.430920E+04 -8.615963E+03 -5.086208E+03
       407   5  2.954573E+05 -2.355359E+03  1.852826E+04 -3.275514E+03 -1.814866E+04 -6.118369E+03
       407   6  2.984024E+05  1.447387E+04  3.679914E+04 -1.430180E+04 -2.768054E+04 -6.565236E+03
       407   7  1.125000E+05 -4.684920E+04 -3.386186E+04 -1.612732E+04 -9.221401E+03 -5.085838E+03
       407   8  8.280778E+04 -5.514469E+04 -3.280379E+04 -2.230865E+03 -1.848421E+04 -6.118340E+03
       407   9  5.896721E+04 -4.498712E+04 -2.109562E+04 -1.039502E+04 -2.774580E+04 -6.565544E+03
       407  10  4.843458E+05  4.546994E+04  5.604317E+04 -1.249056E+04  2.526933E-10  5.266719E-10
       407  11  5.081477E+05  5.043055E+04  6.985639E+04 -4.320604E+03 -1.741790E-10 -6.377860E-10
       407  12  5.378893E+05  7.393048E+04  9.468828E+04 -1.821023E+04 -3.313958E-10  2.900665E-10
       407  13  2.984071E+05 -6.883991E+02  1.109179E+04 -1.430923E+04 -1.344264E-10  3.063692E-10
       407  14  2.954569E+05 -2.355488E+03  1.852757E+04 -3.275604E+03 -2.517783E-10  6.796987E-10
       407  15  2.984016E+05  1.447362E+04  3.679762E+04 -1.430195E+04 -3.674098E-10  8.025934E-11
       407  16  1.124999E+05 -4.684926E+04 -3.386207E+04 -1.612736E+04 -2.577111E-11  1.148663E-10
       407  17  8.280740E+04 -5.514483E+04 -3.280450E+04 -2.230956E+03 -1.617727E-10  9.463222E-11
       407  18  5.896637E+04 -4.498737E+04 -2.109715E+04 -1.039517E+04  3.732410E-10 -7.377985E-11
       407  19  4.843459E+05  4.546999E+04  5.604334E+04 -1.249053E+04  8.010344E+03  5.086575E+03
       407  20  5.081481E+05  5.043068E+04  6.985706E+04 -4.320517E+03  1.781300E+04  6.118398E+03
       407  21  5.378901E+05  7.393073E+04  9.468979E+04 -1.821009E+04  2.761526E+04  6.564930E+03
       407  22  2.984071E+05 -6.883514E+02  1.109198E+04 -1.430920E+04  8.615963E+03  5.086208E+03
       407  23  2.954573E+05 -2.355359E+03  1.852826E+04 -3.275514E+03  1.814866E+04  6.118369E+03
       407  24  2.984024E+05  1.447387E+04  3.679914E+04 -1.430180E+04  2.768054E+04  6.565236E+03
       407  25  1.125000E+05 -4.684920E+04 -3.386186E+04 -1.612732E+04  9.221401E+03  5.085838E+03
       407  26  8.280778E+04 -5.514469E+04 -3.280379E+04 -2.230865E+03  1.848421E+04  6.118340E+03
       407  27  5.896721E+04 -4.498712E+04 -2.109562E+04 -1.039502E+04  2.774580E+04  6.565544E+03
       408   1  5.876635E+05  6.318282E+04  1.126021E+05  1.780008E+03 -3.268997E+04 -8.203388E+03
       408   2  5.916277E+05  5.579519E+04  1.454092E+05 -1.385466E+04 -7.452676E+04 -9.187475E+03
       408   3  6.421120E+05  2.122755E+05  2.464285E+05 -5.172369E+04 -1.163658E+05 -3.104126E+03
       408   4  3.073086E+05 -6.369231E+03  4.499185E+04 -1.434752E+04 -3.474663E+04 -8.202066E+03
       408   5  2.843097E+05 -2.045396E+04  7.135052E+04 -3.231374E+03 -7.334284E+04 -9.189202E+03
       408   6  3.072898E+05  1.288078E+05  1.636953E+05 -1.434772E+04 -1.119392E+05 -3.110962E+03
       408   7  2.702606E+04 -7.592604E+04 -2.262386E+04 -3.046773E+04 -3.680236E+04 -8.200637E+03
       408   8 -2.292180E+04 -9.670957E+04 -2.714828E+03  7.386641E+03 -7.215950E+04 -9.190889E+03
       408   9 -2.742754E+04  4.533709E+04  8.095463E+04  2.300809E+04 -1.075149E+05 -3.117269E+03
       408  10  5.876623E+05  6.318247E+04  1.126000E+05  1.779792E+03  3.160975E-10 -2.366266E-11
       408  11  5.916217E+05  5.579361E+04  1.453986E+05 -1.385521E+04  1.205046E-10 -2.355814E-10
       408  12  6.420975E+05  2.122718E+05  2.464031E+05 -5.172398E+04 -9.267235E-11 -4.573898E-10
       408  13  3.073073E+05 -6.369627E+03  4.498946E+04 -1.434774E+04 -5.341370E-11 -3.897820E-10
       408  14  2.843039E+05 -2.045549E+04  7.134025E+04 -3.231917E+03 -1.502324E-10 -5.197644E-10
       408  15  3.072763E+05  1.288045E+05  1.636718E+05 -1.434800E+04 -6.574102E-11 -4.951826E-11
       408  16  2.702459E+04 -7.592647E+04 -2.262653E+04 -3.046797E+04 -3.752041E-10  9.093292E-11
       408  17 -2.292742E+04 -9.671106E+04 -2.724771E+03  7.386107E+03 -1.629401E-10  6.068059E-11
       408  18 -2.743996E+04  4.533398E+04  8.093289E+04  2.300782E+04  1.775911E-10 -1.062691E-10
       408  19  5.876635E+05  6.318282E+04  1.126021E+05  1.780008E+03  3.268997E+04  8.203388E+03
       408  20  5.916277E+05  5.579519E+04  1.454092E+05 -1.385466E+04  7.452676E+04  9.187475E+03
       408  21  6.421120E+05  2.122755E+05  2.464285E+05 -5.172369E+04  1.163658E+05  3.104126E+03
       408  22  3.073086E+05 -6.369231E+03  4.499185E+04 -1.434752E+04  3.474663E+04  8.202066E+03
       408  23  2.843097E+05 -2.045396E+04  7.135052E+04 -3.231374E+03  7.334284E+04  9.189202E+03
       408  24  3.072898E+05  1.288078E+05  1.636953E+05 -1.434772E+04  1.119392E+05  3.110962E+03
       408  25  2.702606E+04 -7.592604E+04 -2.262386E+04 -3.046773E+04  3.680236E+04  8.200637E+03
       408  26 -2.292180E+04 -9.670957E+04 -2.714828E+03  7.386641E+03  7.215950E+04  9.190889E+03
       408  27 -2.742754E+04  4.533709E+04  8.095463E+04  2.300809E+04  1.075149E+05  3.117269E+03
       409   1 -1.097425E+06 -8.922779E+04 -1.207042E+05 -2.994370E+04 -9.894031E+04 -9.994888E+02
       409   2 -1.084144E+06  4.276278E+04 -4.026727E+04 -8.906561E+03 -6.533788E+04 -2.960473E+03
       409   3 -1.111842E+06  2.837925E+04 -1.832134E+04  1.804394E+04 -3.173670E+04 -2.691148E+03
       409   4 -1.203035E+06 -1.155936E+05 -1.468454E+05  3.532606E+03 -1.003298E+05 -1.005091E+03
       409   5 -1.182419E+06  1.834382E+04 -6.399180E+04  5.642457E+02 -6.571822E+04 -2.961595E+03
       409   6 -1.202965E+06  5.716928E+03 -4.033826E+04  3.508789E+03 -3.110736E+04 -2.690237E+03
       409   7 -1.308633E+06 -1.419560E+05 -1.729867E+05  3.700321E+04 -1.017192E+05 -1.010844E+03
       409   8 -1.280685E+06 -6.075506E+03 -8.771696E+04  1.003355E+04 -6.609849E+04 -2.962729E+03
       409   9 -1.294081E+06 -1.694520E+04 -6.235566E+04 -1.102422E+04 -3.047811E+04 -2.689356E+03
       409  10 -1.097436E+06 -8.923043E+04 -1.207226E+05 -2.994378E+04 -1.170637E-10  1.447416E-10
       409  11 -1.084149E+06  4.276163E+04 -4.027533E+04 -8.906717E+03  1.422975E-10 -4.050266E-10
       409  12 -1.111843E+06  2.837897E+04 -1.832325E+04  1.804388E+04 -3.705395E-10  5.023650E-11
       409  13 -1.203046E+06 -1.155963E+05 -1.468643E+05  3.532525E+03  2.953168E-14 -3.133712E-10
       409  14 -1.182424E+06  1.834265E+04 -6.399994E+04  5.640889E+02  4.975058E-10 -6.247612E-10
       409  15 -1.202966E+06  5.716660E+03 -4.034009E+04  3.508722E+03  1.765398E-10 -2.040112E-10
       409  16 -1.308644E+06 -1.419587E+05 -1.730062E+05  3.700312E+04 -2.083356E-11 -3.907930E-10
       409  17 -1.280690E+06 -6.076692E+03 -8.772520E+04  1.003339E+04  3.496637E-10 -8.057593E-10
       409  18 -1.294082E+06 -1.694546E+04 -6.235742E+04 -1.102429E+04 -3.034967E-11 -9.420354E-11
       409  19 -1.097425E+06 -8.922779E+04 -1.207042E+05 -2.994370E+04  9.894031E+04  9.994888E+02
       409  20 -1.084144E+06  4.276278E+04 -4.026727E+04 -8.906561E+03  6.533788E+04  2.960473E+03
       409  21 -1.111842E+06  2.837925E+04 -1.832134E+04  1.804394E+04  3.173670E+04  2.691148E+03
       409  22 -1.203035E+06 -1.155936E+05 -1.468454E+05  3.532606E+03  1.003298E+05  1.005091E+03
       409  23 -1.182419E+06  1.834382E+04 -6.399180E+04  5.642457E+02  6.571822E+04  2.961595E+03
       409  24 -1.202965E+06  5.716928E+03 -4.033826E+04  3.508789E+03  3.110736E+04  2.690237E+03
       409  25 -1.308633E+06 -1.419560E+05 -1.729867E+05  3.700321E+04  1.017192E+05  1.010844E+03
       409  26 -1.280685E+06 -6.075506E+03 -8.771696E+04  1.003355E+04  6.609849E+04  2.962729E+03
       409  27 -1.294081E+06 -1.694520E+04 -6.235566E+04 -1.102422E+04  3.047811E+04  2.689356E+03
       410   1 -1.115245E+06  6.838864E+03 -1.368179E+04  2.081117E+02 -2.479127E+04 -2.198046E+03
       410   2 -1.120338E+06  2.001577E+04  8.010969E+02 -3.996121E+02 -1.633634E+04 -2.085305E+03
       410   3 -1.130673E+06  1.663438E+04  5.633357E+03  5.359814E+03 -7.881693E+03 -1.779120E+03
       410   4 -1.195003E+06 -1.299320E+04 -3.299627E+04  3.621273E+03 -2.478311E+04 -2.198199E+03
       410   5 -1.192367E+06  2.109502E+03 -1.661221E+04  4.352169E+02 -1.624111E+04 -2.085306E+03
       410   6 -1.194991E+06  6.376074E+02 -9.940257E+03  3.616432E+03 -7.699292E+03 -1.779030E+03
       410   7 -1.274754E+06 -3.282569E+04 -5.231121E+04  7.033993E+03 -2.477495E+04 -2.198352E+03
       410   8 -1.264392E+06 -1.579715E+04 -3.402588E+04  1.269948E+03 -1.614589E+04 -2.085308E+03
       410   9 -1.259305E+06 -1.535946E+04 -2.551417E+04  1.873230E+03 -7.516911E+03 -1.778942E+03
       410  10 -1.115246E+06  6.838693E+03 -1.368295E+04  2.080678E+02  4.438751E-11  5.954903E-11
       410  11 -1.120338E+06  2.001570E+04  8.005863E+02 -3.996396E+02 -1.971632E-10  3.649743E-10
       410  12 -1.130673E+06  1.663436E+04  5.633234E+03  5.359803E+03  5.240475E-11 -1.685839E-10
       410  13 -1.195003E+06 -1.299337E+04 -3.299744E+04  3.621229E+03 -2.187147E-10 -1.281112E-11
       410  14 -1.192368E+06  2.109426E+03 -1.661271E+04  4.351896E+02 -8.264009E-11 -6.428305E-11
       410  15 -1.194991E+06  6.375881E+02 -9.940375E+03  3.616421E+03  3.407316E-10 -5.733467E-10
       410  16 -1.274755E+06 -3.282586E+04 -5.231238E+04  7.033949E+03 -5.996114E-10  4.437138E-10
       410  17 -1.264393E+06 -1.579722E+04 -3.402638E+04  1.269921E+03  1.847714E-10 -5.214448E-10
       410  18 -1.259305E+06 -1.535948E+04 -2.551428E+04  1.873219E+03 -6.759415E-10  3.687313E-11
       410  19 -1.115245E+06  6.838864E+03 -1.368179E+04  2.081117E+02  2.479127E+04  2.198046E+03
       410  20 -1.120338E+06  2.001577E+04  8.010969E+02 -3.996121E+02  1.633634E+04  2.085305E+03
       410  21 -1.130673E+06  1.663438E+04  5.633357E+03  5.359814E+03  7.881693E+03  1.779120E+03
       410  22 -1.195003E+06 -1.299320E+04 -3.299627E+04  3.621273E+03  2.478311E+04  2.198199E+03
       410  23 -1.192367E+06  2.109502E+03 -1.661221E+04  4.352169E+02  1.624111E+04  2.085306E+03
       410  24 -1.194991E+06  6.376074E+02 -9.940257E+03  3.616432E+03  7.699292E+03  1.779030E+03
       410  25 -1.274754E+06 -3.282569E+04 -5.231121E+04  7.033993E+03  2.477495E+04  2.198352E+03
       410  26 -1.264392E+06 -1.579715E+04 -3.402588E+04  1.269948E+03  1.614589E+04  2.085308E+03
       410  27 -1.259305E+06 -1.535946E+04 -2.551417E+04  1.873230E+03  7.516911E+03  1.778942E+03
       411   1 -1.141681E+06  1.156267E+04  4.822085E+03  3.402645E+03 -6.258615E+03 -1.571434E+03
       411   2 -1.149368E+06  1.124702E+04  6.475108E+03  3.282167E+02 -4.144463E+03 -1.273641E+03
       411   3 -1.157801E+06  9.074341E+03  6.284421E+03  3.909126E+03 -2.030343E+03 -9.556535E+02
       411   4 -1.193990E+06 -1.437920E+03 -7.806272E+03  3.682519E+03 -6.127715E+03 -1.571386E+03
       411   5 -1.193615E+06  2.464901E+02 -4.223463E+03  3.544800E+02 -4.004532E+03 -1.273579E+03
       411   6 -1.193987E+06  7.225025E+01 -2.490734E+03  3.681807E+03 -1.881352E+03 -9.555793E+02
       411   7 -1.246295E+06 -1.443871E+04 -2.043483E+04  3.962369E+03 -5.996827E+03 -1.571337E+03
       411   8 -1.237860E+06 -1.075418E+04 -1.492217E+04  3.807411E+02 -3.864610E+03 -1.273518E+03
       411   9 -1.230173E+06 -8.929936E+03 -1.126598E+04  3.454502E+03 -1.732370E+03 -9.555051E+02
       411  10 -1.141681E+06  1.156265E+04  4.822007E+03  3.402637E+03 -4.693623E-10 -5.986549E-13
       411  11 -1.149368E+06  1.124701E+04  6.475072E+03  3.282125E+02  1.138853E-10 -8.623643E-11
       411  12 -1.157801E+06  9.074338E+03  6.284411E+03  3.909124E+03  2.466885E-10 -2.400229E-10
       411  13 -1.193990E+06 -1.437933E+03 -7.806348E+03  3.682511E+03  1.684073E-10 -3.722947E-10
       411  14 -1.193615E+06  2.464841E+02 -4.223496E+03  3.544759E+02 -3.049373E-10 -7.248313E-11
       411  15 -1.193987E+06  7.224831E+01 -2.490743E+03  3.681806E+03  5.733283E-10 -3.265682E-10
       411  16 -1.246295E+06 -1.443872E+04 -2.043490E+04  3.962361E+03  2.233910E-11 -4.611792E-10
       411  17 -1.237860E+06 -1.075418E+04 -1.492221E+04  3.807372E+02  2.017117E-10 -4.848014E-10
       411  18 -1.230173E+06 -8.929938E+03 -1.126599E+04  3.454501E+03 -1.999540E-10 -8.088381E-10
       411  19 -1.141681E+06  1.156267E+04  4.822085E+03  3.402645E+03  6.258615E+03  1.571434E+03
       411  20 -1.149368E+06  1.124702E+04  6.475108E+03  3.282167E+02  4.144463E+03  1.273641E+03
       411  21 -1.157801E+06  9.074341E+03  6.284421E+03  3.909126E+03  2.030343E+03  9.556535E+02
       411  22 -1.193990E+06 -1.437920E+03 -7.806272E+03  3.682519E+03  6.127715E+03  1.571386E+03
       411  23 -1.193615E+06  2.464901E+02 -4.223463E+03  3.544800E+02  4.004532E+03  1.273579E+03
       411  24 -1.193987E+06  7.225025E+01 -2.490734E+03  3.681807E+03  1.881352E+03  9.555793E+02
       411  25 -1.246295E+06 -1.443871E+04 -2.043483E+04  3.962369E+03  5.996827E+03  1.571337E+03
       411  26 -1.237860E+06 -1.075418E+04 -1.492217E+04  3.807411E+02  3.864610E+03  1.273518E+03
       411  27 -1.230173E+06 -8.929936E+03 -1.126598E+04  3.454502E+03  1.732370E+03  9.555051E+02
       412   1 -1.170073E+06  5.756348E+03  3.788766E+03  3.711776E+03 -1.629474E+03 -7.669334E+02
       412   2 -1.178244E+06  3.895045E+03  2.624093E+03  3.276071E+02 -1.066936E+03 -4.469391E+02
       412   3 -1.186549E+06  1.827163E+03  1.039161E+03  3.744921E+03 -5.044193E+02 -1.241320E+02
       412   4 -1.193851E+06 -1.504595E+02 -1.936114E+03  3.714565E+03 -1.484506E+03 -7.668586E+02
       412   5 -1.193784E+06  3.152859E+01 -1.133403E+03  3.137754E+02 -9.207091E+02 -4.468613E+02
       412   6 -1.193850E+06  6.716835E+00 -7.518390E+02  3.714480E+03 -3.569245E+02 -1.240509E+02
       412   7 -1.217628E+06 -6.057309E+03 -7.661034E+03  3.717355E+03 -1.339544E+03 -7.667837E+02
       412   8 -1.209323E+06 -3.832006E+03 -4.890916E+03  2.999441E+02 -7.744854E+02 -4.467834E+02
       412   9 -1.201152E+06 -1.813733E+03 -2.542842E+03  3.684038E+03 -2.094315E+02 -1.239698E+02
       412  10 -1.170073E+06  5.756347E+03  3.788760E+03  3.711775E+03 -2.148662E-11 -8.963053E-11
       412  11 -1.178244E+06  3.895044E+03  2.624090E+03  3.276067E+02  7.775102E-10 -5.192409E-10
       412  12 -1.186549E+06  1.827163E+03  1.039160E+03  3.744921E+03  4.129370E-10 -2.379040E-10
       412  13 -1.193851E+06 -1.504607E+02 -1.936119E+03  3.714565E+03  6.166454E-10 -5.661811E-10
       412  14 -1.193784E+06  3.152815E+01 -1.133405E+03  3.137751E+02 -2.075173E-10  4.675823E-10
       412  15 -1.193850E+06  6.716784E+00 -7.518393E+02  3.714480E+03  2.747038E-10  4.175837E-10
       412  16 -1.217628E+06 -6.057310E+03 -7.661038E+03  3.717354E+03 -3.562704E-10  6.020649E-10
       412  17 -1.209323E+06 -3.832006E+03 -4.890917E+03  2.999438E+02 -1.812077E-11  4.162377E-10
       412  18 -1.201152E+06 -1.813733E+03 -2.542843E+03  3.684038E+03 -1.149691E-09  8.151413E-10
       412  19 -1.170073E+06  5.756348E+03  3.788766E+03  3.711776E+03  1.629474E+03  7.669334E+02
       412  20 -1.178244E+06  3.895045E+03  2.624093E+03  3.276071E+02  1.066936E+03  4.469391E+02
       412  21 -1.186549E+06  1.827163E+03  1.039161E+03  3.744921E+03  5.044193E+02  1.241320E+02
       412  22 -1.193851E+06 -1.504595E+02 -1.936114E+03  3.714565E+03  1.484506E+03  7.668586E+02
       412  23 -1.193784E+06  3.152859E+01 -1.133403E+03  3.137754E+02  9.207091E+02  4.468613E+02
       412  24 -1.193850E+06  6.716835E+00 -7.518390E+02  3.714480E+03  3.569245E+02  1.240509E+02
       412  25 -1.217628E+06 -6.057309E+03 -7.661034E+03  3.717355E+03  1.339544E+03  7.667837E+02
       412  26 -1.209323E+06 -3.832006E+03 -4.890916E+03  2.999441E+02  7.744854E+02  4.467834E+02
       412  27 -1.201152E+06 -1.813733E+03 -2.542842E+03  3.684038E+03  2.094315E+02  1.239698E+02
       413   1 -1.199082E+06 -1.318211E+03 -1.946340E+03  3.708984E+03 -3.779255E+02  6.468456E+01
       413   2 -1.207293E+06 -3.340457E+03 -3.850419E+03  3.085650E+02 -8.471939E+01  3.874876E+02
       413   3 -1.215570E+06 -5.442298E+03 -5.967435E+03  3.714784E+03  2.084898E+02  7.077072E+02
       413   4 -1.193835E+06 -8.585936E+00 -6.521328E+02  3.715644E+03 -2.304271E+02  6.476578E+01
       413   5 -1.193802E+06  1.377688E+01 -5.882239E+02  3.123399E+02  6.160452E+01  3.875660E+02
       413   6 -1.193835E+06 -4.327598E+01 -7.364614E+02  3.715664E+03  3.536432E+02  7.077829E+02
       413   7 -1.188588E+06  1.301037E+03  6.420724E+02  3.722305E+03 -8.292755E+01  6.484701E+01
       413   8 -1.180311E+06  3.367998E+03  2.673958E+03  3.161148E+02  2.079316E+02  3.876443E+02
       413   9 -1.172100E+06  5.355712E+03  4.494479E+03  3.716544E+03  4.988016E+02  7.078586E+02
       413  10 -1.199082E+06 -1.318211E+03 -1.946340E+03  3.708984E+03  3.583048E-11  1.338977E-10
       413  11 -1.207293E+06 -3.340458E+03 -3.850419E+03  3.085651E+02 -2.430745E-10  1.392298E-11
       413  12 -1.215570E+06 -5.442299E+03 -5.967436E+03  3.714784E+03 -2.240828E-11  1.453873E-10
       413  13 -1.193835E+06 -8.585955E+00 -6.521329E+02  3.715644E+03  5.326061E-10 -6.304016E-10
       413  14 -1.193802E+06  1.377671E+01 -5.882242E+02  3.123399E+02  5.079584E-10 -6.688178E-10
       413  15 -1.193835E+06 -4.327655E+01 -7.364626E+02  3.715664E+03 -1.890600E-10  6.314305E-10
       413  16 -1.188588E+06  1.301037E+03  6.420724E+02  3.722305E+03 -1.459115E-10 -7.866164E-11
       413  17 -1.180311E+06  3.367998E+03  2.673958E+03  3.161147E+02  5.441683E-10 -5.658720E-10
       413  18 -1.172100E+06  5.355711E+03  4.494477E+03  3.716544E+03 -6.948575E-10  1.103364E-10
       413  19 -1.199082E+06 -1.318211E+03 -1.946340E+03  3.708984E+03  3.779255E+02 -6.468456E+01
       413  20 -1.207293E+06 -3.340457E+03 -3.850419E+03  3.085650E+02  8.471939E+01 -3.874876E+02
       413  21 -1.215570E+06 -5.442298E+03 -5.967435E+03  3.714784E+03 -2.084898E+02 -7.077072E+02
       413  22 -1.193835E+06 -8.585936E+00 -6.521328E+02  3.715644E+03  2.304271E+02 -6.476578E+01
       413  23 -1.193802E+06  1.377688E+01 -5.882239E+02  3.123399E+02 -6.160452E+01 -3.875660E+02
       413  24 -1.193835E+06 -4.327598E+01 -7.364614E+02  3.715664E+03 -3.536432E+02 -7.077829E+02
       413  25 -1.188588E+06  1.301037E+03  6.420724E+02  3.722305E+03  8.292755E+01 -6.484701E+01
       413  26 -1.180311E+06  3.367998E+03  2.673958E+03  3.161148E+02 -2.079316E+02 -3.876443E+02
       413  27 -1.172100E+06  5.355712E+03  4.494479E+03  3.716544E+03 -4.988016E+02 -7.078586E+02
       414   1 -1.228035E+06 -8.474425E+03 -9.161262E+03  3.607148E+03  3.491486E+02  8.965543E+02
       414   2 -1.235994E+06 -1.042485E+04 -1.158200E+04  3.495185E+02  1.045297E+03  1.214526E+03
       414   3 -1.244193E+06 -1.295067E+04 -1.460174E+04  3.760770E+03  1.741486E+03  1.512812E+03
       414   4 -1.193874E+06  2.432580E+01 -8.754708E+02  3.684962E+03  4.982660E+02  8.966290E+02
       414   5 -1.193755E+06  7.717840E+01 -1.368284E+03  3.506488E+02  1.185493E+03  1.214590E+03
       414   6 -1.193875E+06 -4.437526E+02 -2.453830E+03  3.685188E+03  1.872769E+03  1.512864E+03
       414   7 -1.159711E+06  8.522990E+03  7.410236E+03  3.762780E+03  6.473916E+02  8.967037E+02
       414   8 -1.151514E+06  1.057908E+04  8.845302E+03  3.517790E+02  1.325698E+03  1.214653E+03
       414   9 -1.143554E+06  1.206298E+04  9.693898E+03  3.609600E+03  2.004062E+03  1.512917E+03
       414  10 -1.228035E+06 -8.474426E+03 -9.161264E+03  3.607148E+03  4.063077E-10 -3.777995E-10
       414  11 -1.235994E+06 -1.042485E+04 -1.158200E+04  3.495175E+02  1.180540E-10  9.382128E-11
       414  12 -1.244193E+06 -1.295067E+04 -1.460175E+04  3.760768E+03  1.901335E-10 -2.409768E-10
       414  13 -1.193874E+06  2.432487E+01 -8.754728E+02  3.684961E+03 -4.820555E-10  6.215055E-10
       414  14 -1.193755E+06  7.717644E+01 -1.368289E+03  3.506476E+02 -5.504357E-10  8.260129E-10
       414  15 -1.193875E+06 -4.437560E+02 -2.453841E+03  3.685186E+03  6.122003E-10 -2.931083E-10
       414  16 -1.159711E+06  8.522989E+03  7.410234E+03  3.762779E+03 -1.781982E-10 -7.463404E-11
       414  17 -1.151514E+06  1.057907E+04  8.845296E+03  3.517777E+02 -6.690430E-10  7.351640E-10
       414  18 -1.143554E+06  1.206298E+04  9.693886E+03  3.609598E+03 -8.094480E-10  3.532716E-10
       414  19 -1.228035E+06 -8.474425E+03 -9.161262E+03  3.607148E+03 -3.491486E+02 -8.965543E+02
       414  20 -1.235994E+06 -1.042485E+04 -1.158200E+04  3.495185E+02 -1.045297E+03 -1.214526E+03
       414  21 -1.244193E+06 -1.295067E+04 -1.460174E+04  3.760770E+03 -1.741486E+03 -1.512812E+03
       414  22 -1.193874E+06  2.432580E+01 -8.754708E+02  3.684962E+03 -4.982660E+02 -8.966290E+02
       414  23 -1.193755E+06  7.717840E+01 -1.368284E+03  3.506488E+02 -1.185493E+03 -1.214590E+03
       414  24 -1.193875E+06 -4.437526E+02 -2.453830E+03  3.685188E+03 -1.872769E+03 -1.512864E+03
       414  25 -1.159711E+06  8.522990E+03  7.410236E+03  3.762780E+03 -6.473916E+02 -8.967037E+02
       414  26 -1.151514E+06  1.057908E+04  8.845302E+03  3.517790E+02 -1.325698E+03 -1.214653E+03
       414  27 -1.143554E+06  1.206298E+04  9.693898E+03  3.609600E+03 -2.004062E+03 -1.512917E+03
       415   1 -1.256548E+06 -1.531101E+04 -1.820916E+04  3.068416E+03  2.183329E+03  1.720185E+03
       415   2 -1.263474E+06 -1.677573E+04 -2.211413E+04  6.731129E+02  4.924812E+03  2.025582E+03
       415   3 -1.272045E+06 -2.339051E+04 -2.909411E+04  4.668396E+03  7.666369E+03  2.141164E+03
       415   4 -1.194184E+06  1.999366E+02 -3.106990E+03  3.622690E+03  2.365213E+03  1.720256E+03
       415   5 -1.193371E+06  6.537278E+02 -5.165043E+03  4.281868E+02  5.020540E+03  2.025602E+03
       415   6 -1.194188E+06 -4.027229E+03 -1.023792E+04  3.624234E+03  7.675976E+03  2.141137E+03
       415   7 -1.131816E+06  1.571060E+04  1.199490E+04  4.177019E+03  2.547116E+03  1.720328E+03
       415   8 -1.123263E+06  1.808282E+04  1.178370E+04  1.832325E+02  5.116280E+03  2.025623E+03
       415   9 -1.116325E+06  1.533561E+04  8.617839E+03  2.579941E+03  7.685584E+03  2.141109E+03
       415  10 -1.256548E+06 -1.531101E+04 -1.820918E+04  3.068413E+03 -2.059286E-10  3.748022E-10
       415  11 -1.263474E+06 -1.677574E+04 -2.211419E+04  6.731049E+02  1.284936E-10 -8.947489E-11
       415  12 -1.272045E+06 -2.339053E+04 -2.909422E+04  4.668382E+03 -3.386919E-10  3.287388E-10
       415  13 -1.194184E+06  1.999319E+02 -3.107006E+03  3.622687E+03 -1.672081E-11 -1.751765E-10
       415  14 -1.193371E+06  6.537166E+02 -5.165098E+03  4.281786E+02 -1.612665E-10 -1.066828E-10
       415  15 -1.194188E+06 -4.027250E+03 -1.023803E+04  3.624221E+03  4.231210E-10 -1.744321E-12
       415  16 -1.131816E+06  1.571059E+04  1.199488E+04  4.177016E+03 -3.759560E-10 -6.894383E-11
       415  17 -1.123263E+06  1.808281E+04  1.178364E+04  1.832241E+02  8.702932E-11 -3.715598E-10
       415  18 -1.116325E+06  1.533559E+04  8.617719E+03  2.579927E+03  2.212403E-12  5.793897E-10
       415  19 -1.256548E+06 -1.531101E+04 -1.820916E+04  3.068416E+03 -2.183329E+03 -1.720185E+03
       415  20 -1.263474E+06 -1.677573E+04 -2.211413E+04  6.731129E+02 -4.924812E+03 -2.025582E+03
       415  21 -1.272045E+06 -2.339051E+04 -2.909411E+04  4.668396E+03 -7.666369E+03 -2.141164E+03
       415  22 -1.194184E+06  1.999366E+02 -3.106990E+03  3.622690E+03 -2.365213E+03 -1.720256E+03
       415  23 -1.193371E+06  6.537278E+02 -5.165043E+03  4.281868E+02 -5.020540E+03 -2.025602E+03
       415  24 -1.194188E+06 -4.027229E+03 -1.023792E+04  3.624234E+03 -7.675976E+03 -2.141137E+03
       415  25 -1.131816E+06  1.571060E+04  1.199490E+04  4.177019E+03 -2.547116E+03 -1.720328E+03
       415  26 -1.123263E+06  1.808282E+04  1.178370E+04  1.832325E+02 -5.116280E+03 -2.025623E+03
       415  27 -1.116325E+06  1.533561E+04  8.617839E+03  2.579941E+03 -7.685584E+03 -2.141109E+03
       416   1 -1.285935E+06 -2.042505E+04 -3.408433E+04 -1.000319E+03  9.017421E+03  2.627835E+03
       416   2 -1.286756E+06 -1.829076E+04 -4.313596E+04  3.477781E+03  2.074457E+04  2.897229E+03
       416   3 -1.300506E+06 -6.176696E+04 -7.123497E+04  1.389392E+04  3.247188E+04  9.769291E+02
       416   4 -1.196655E+06  1.773465E+03 -1.251194E+04  3.519983E+03  9.637867E+03  2.628073E+03
       416   5 -1.190289E+06  5.685641E+03 -1.984466E+04  5.547849E+02  2.036944E+04  2.897007E+03
       416   6 -1.196678E+06 -3.583599E+04 -4.553037E+04  3.527841E+03  3.110134E+04  9.761150E+02
       416   7 -1.107368E+06  2.397147E+04  9.059896E+03  8.040937E+03  1.025840E+04  2.628320E+03
       416   8 -1.093814E+06  2.966139E+04  3.445980E+03 -2.368668E+03  1.999425E+04  2.896788E+03
       416   9 -1.092839E+06 -9.905425E+03 -1.982650E+04 -6.839976E+03  2.973057E+04  9.753470E+02
       416  10 -1.285935E+06 -2.042508E+04 -3.408450E+04 -1.000338E+03  1.487576E-10  4.448907E-10
       416  11 -1.286756E+06 -1.829088E+04 -4.313678E+04  3.477733E+03  1.227100E-10  1.226949E-10
       416  12 -1.300507E+06 -6.176725E+04 -7.123696E+04  1.389389E+04 -2.787265E-10  1.129091E-10
       416  13 -1.196655E+06  1.773433E+03 -1.251213E+04  3.519962E+03  8.248196E-10 -2.613533E-10
       416  14 -1.190290E+06  5.685520E+03 -1.984545E+04  5.547374E+02  6.614228E-11  1.352783E-10
       416  15 -1.196679E+06 -3.583625E+04 -4.553219E+04  3.527816E+03  2.842616E-10 -1.005921E-10
       416  16 -1.107368E+06  2.397144E+04  9.059685E+03  8.040915E+03 -3.575655E-11  3.670039E-10
       416  17 -1.093814E+06  2.966127E+04  3.445212E+03 -2.368715E+03  2.942235E-10  5.808515E-11
       416  18 -1.092840E+06 -9.905663E+03 -1.982816E+04 -6.839999E+03 -3.588199E-10  3.081680E-10
       416  19 -1.285935E+06 -2.042505E+04 -3.408433E+04 -1.000319E+03 -9.017421E+03 -2.627835E+03
       416  20 -1.286756E+06 -1.829076E+04 -4.313596E+04  3.477781E+03 -2.074457E+04 -2.897229E+03
       416  21 -1.300506E+06 -6.176696E+04 -7.123497E+04  1.389392E+04 -3.247188E+04 -9.769291E+02
       416  22 -1.196655E+06  1.773465E+03 -1.251194E+04  3.519983E+03 -9.637867E+03 -2.628073E+03
       416  23 -1.190289E+06  5.685641E+03 -1.984466E+04  5.547849E+02 -2.036944E+04 -2.897007E+03
       416  24 -1.196678E+06 -3.583599E+04 -4.553037E+04  3.527841E+03 -3.110134E+04 -9.761150E+02
       416  25 -1.107368E+06  2.397147E+04  9.059896E+03  8.040937E+03 -1.025840E+04 -2.628320E+03
       416  26 -1.093814E+06  2.966139E+04  3.445980E+03 -2.368668E+03 -1.999425E+04 -2.896788E+03
       416  27 -1.092839E+06 -9.905425E+03 -1.982650E+04 -6.839976E+03 -2.973057E+04 -9.753470E+02
       417   1  3.157241E+06  6.707409E+05  8.502142E+05  1.913671E+05  5.765918E+05 -9.316553E+01
       417   2  3.043301E+06 -9.478407E+04  3.766581E+05  5.479951E+04  3.777843E+05 -1.081105E+03
       417   3  3.164508E+06 -2.201433E+04  2.417831E+05 -8.442773E+04  1.789612E+05 -1.307002E+03
       417   4  3.120073E+06  6.613649E+05  8.410492E+05 -1.154639E+03  5.760423E+05 -2.712080E+02
       417   5  3.003025E+06 -1.047806E+05  3.669715E+05  2.489580E+02  3.775536E+05 -1.114192E+03
       417   6  3.121042E+06 -3.272972E+04  2.313574E+05 -1.030292E+03  1.790501E+05 -1.283062E+03
       417   7  3.082985E+06  6.521274E+05  8.319039E+05 -1.936648E+05  5.754929E+05 -4.489205E+02
       417   8  2.962757E+06 -1.147661E+05  3.572864E+05 -5.429805E+04  3.773229E+05 -1.147240E+03
       417   9  3.077593E+06 -4.341923E+04  2.209354E+05  8.236131E+04  1.791391E+05 -1.259098E+03
       417  10  3.156886E+06  6.706522E+05  8.495926E+05  1.913671E+05  6.229594E-11 -6.097278E-10
       417  11  3.043148E+06 -9.482214E+04  3.763912E+05  5.479984E+04  1.468508E-09 -4.735504E-10
       417  12  3.164474E+06 -2.202288E+04  2.417232E+05 -8.442754E+04 -1.838310E-09 -7.607037E-10
       417  13  3.119718E+06  6.612764E+05  8.404288E+05 -1.154514E+03  1.024014E-09 -2.190102E-10
       417  14  3.002872E+06 -1.048186E+05  3.667049E+05  2.492964E+02  1.161583E-09 -6.304599E-10
       417  15  3.121008E+06 -3.273827E+04  2.312975E+05 -1.030107E+03 -1.015272E-09 -1.318598E-10
       417  16  3.082630E+06  6.520391E+05  8.312846E+05 -1.936647E+05  4.810642E-10 -4.180544E-10
       417  17  2.962605E+06 -1.148041E+05  3.570202E+05 -5.429771E+04  1.349890E-09 -7.701292E-10
       417  18  3.077559E+06 -4.342780E+04  2.208754E+05  8.236150E+04  2.607033E-09  6.315040E-10
       417  19  3.157241E+06  6.707409E+05  8.502142E+05  1.913671E+05 -5.765918E+05  9.316553E+01
       417  20  3.043301E+06 -9.478407E+04  3.766581E+05  5.479951E+04 -3.777843E+05  1.081105E+03
       417  21  3.164508E+06 -2.201433E+04  2.417831E+05 -8.442773E+04 -1.789612E+05  1.307002E+03
       417  22  3.120073E+06  6.613649E+05  8.410492E+05 -1.154639E+03 -5.760423E+05  2.712080E+02
       417  23  3.003025E+06 -1.047806E+05  3.669715E+05  2.489580E+02 -3.775536E+05  1.114192E+03
       417  24  3.121042E+06 -3.272972E+04  2.313574E+05 -1.030292E+03 -1.790501E+05  1.283062E+03
       417  25  3.082985E+06  6.521274E+05  8.319039E+05 -1.936648E+05 -5.754929E+05  4.489205E+02
       417  26  2.962757E+06 -1.147661E+05  3.572864E+05 -5.429805E+04 -3.773229E+05  1.147240E+03
       417  27  3.077593E+06 -4.341923E+04  2.209354E+05  8.236131E+04 -1.791391E+05  1.259098E+03
       418   1  3.123864E+06  8.632658E+04  2.010001E+05  1.852746E+04  1.427323E+05 -1.261545E+03
       418   2  3.112761E+06  9.435384E+02  1.080791E+05  5.320821E+03  9.357474E+04 -1.474903E+03
       418   3  3.131691E+06  1.028862E+04  7.073785E+04 -1.104903E+04  4.441878E+04 -1.645278E+03
       418   4  3.075233E+06  7.427588E+04  1.892687E+05 -1.191321E+03  1.426244E+05 -1.266087E+03
       418   5  3.060302E+06 -1.204095E+04  9.545453E+04  4.000343E+02  9.348882E+04 -1.475671E+03
       418   6  3.075399E+06 -3.630060E+03  5.720744E+04 -1.171619E+03  4.435508E+04 -1.644603E+03
       418   7  3.026606E+06  6.222646E+04  1.775373E+05 -2.090856E+04  1.425166E+05 -1.270623E+03
       418   8  3.007844E+06 -2.502554E+04  8.282972E+04 -4.520337E+03  9.340291E+04 -1.476438E+03
       418   9  3.019110E+06 -1.754861E+04  4.367685E+04  8.704895E+03  4.429139E+04 -1.643930E+03
       418  10  3.123842E+06  8.632115E+04  2.009620E+05  1.852760E+04 -1.172679E-09 -3.580782E-10
       418  11  3.112752E+06  9.411999E+02  1.080628E+05  5.320932E+03  1.185985E-09  3.554573E-10
       418  12  3.131688E+06  1.028809E+04  7.073416E+04 -1.104897E+04 -3.461600E-10 -9.263167E-10
       418  13  3.075212E+06  7.427045E+04  1.892306E+05 -1.191176E+03  1.065522E-09  3.969095E-10
       418  14  3.060292E+06 -1.204328E+04  9.543818E+04  4.001453E+02  1.757305E-09  9.724266E-12
       418  15  3.075397E+06 -3.630588E+03  5.720376E+04 -1.171561E+03 -1.015879E-09 -5.438518E-10
       418  16  3.026584E+06  6.222104E+04  1.774994E+05 -2.090841E+04  2.876908E-10  4.369466E-10
       418  17  3.007835E+06 -2.502787E+04  8.281340E+04 -4.520226E+03  6.209165E-10 -7.707048E-10
       418  18  3.019108E+06 -1.754913E+04  4.367318E+04  8.704954E+03 -3.739823E-10 -4.738127E-10
       418  19  3.123864E+06  8.632658E+04  2.010001E+05  1.852746E+04 -1.427323E+05  1.261545E+03
       418  20  3.112761E+06  9.435384E+02  1.080791E+05  5.320821E+03 -9.357474E+04  1.474903E+03
       418  21  3.131691E+06  1.028862E+04  7.073785E+04 -1.104903E+04 -4.441878E+04  1.645278E+03
       418  22  3.075233E+06  7.427588E+04  1.892687E+05 -1.191321E+03 -1.426244E+05  1.266087E+03
       418  23  3.060302E+06 -1.204095E+04  9.545453E+04  4.000343E+02 -9.348882E+04  1.475671E+03
       418  24  3.075399E+06 -3.630060E+03  5.720744E+04 -1.171619E+03 -4.435508E+04  1.644603E+03
       418  25  3.026606E+06  6.222646E+04  1.775373E+05 -2.090856E+04 -1.425166E+05  1.270623E+03
       418  26  3.007844E+06 -2.502554E+04  8.282972E+04 -4.520337E+03 -9.340291E+04  1.476438E+03
       418  27  3.019110E+06 -1.754861E+04  4.367685E+04  8.704895E+03 -4.429139E+04  1.643930E+03
       419   1  3.132351E+06  2.374726E+04  6.007726E+04  3.780142E+02  3.535358E+04 -1.733918E+03
       419   2  3.134965E+06  1.528183E+04  4.072139E+04  8.692476E+02  2.303072E+04 -1.917586E+03
       419   3  3.141845E+06  1.746483E+04  3.202289E+04 -2.536257E+03  1.070817E+04 -2.115441E+03
       419   4  3.069650E+06  8.228161E+03  4.497412E+04 -1.343203E+03  3.527214E+04 -1.734053E+03
       419   5  3.067532E+06 -1.404424E+03  2.449299E+04  6.066620E+02  2.294383E+04 -1.917642E+03
       419   6  3.069681E+06 -3.869985E+02  1.467365E+04 -1.340236E+03  1.061593E+04 -2.115475E+03
       419   7  3.006953E+06 -7.291215E+03  2.987071E+04 -3.064246E+03  3.519071E+04 -1.734187E+03
       419   8  3.000103E+06 -1.809101E+04  8.264270E+03  3.441045E+02  2.285695E+04 -1.917697E+03
       419   9  2.997521E+06 -1.823920E+04 -2.675961E+03 -1.443548E+02  1.052369E+04 -2.115509E+03
       419  10  3.132350E+06  2.374693E+04  6.007491E+04  3.780635E+02 -9.940674E-10 -9.725796E-10
       419  11  3.134965E+06  1.528169E+04  4.072040E+04  8.692831E+02 -2.491178E-09 -6.574799E-10
       419  12  3.141844E+06  1.746479E+04  3.202267E+04 -2.536239E+03 -4.296586E-10 -3.030000E-10
       419  13  3.069649E+06  8.227826E+03  4.497179E+04 -1.343153E+03 -1.072318E-09 -5.855627E-10
       419  14  3.067532E+06 -1.404569E+03  2.449200E+04  6.066974E+02  3.717716E-10  7.419527E-11
       419  15  3.069680E+06 -3.870334E+02  1.467343E+04 -1.340218E+03 -1.841090E-09 -4.400389E-10
       419  16  3.006952E+06 -7.291549E+03  2.986839E+04 -3.064197E+03 -5.923697E-10 -3.199972E-10
       419  17  3.000103E+06 -1.809115E+04  8.263286E+03  3.441398E+02 -1.022791E-09 -3.340975E-10
       419  18  2.997521E+06 -1.823923E+04 -2.676177E+03 -1.443369E+02 -8.927889E-11  3.081935E-10
       419  19  3.132351E+06  2.374726E+04  6.007726E+04  3.780142E+02 -3.535358E+04  1.733918E+03
       419  20  3.134965E+06  1.528183E+04  4.072139E+04  8.692476E+02 -2.303072E+04  1.917586E+03
       419  21  3.141845E+06  1.746483E+04  3.202289E+04 -2.536257E+03 -1.070817E+04  2.115441E+03
       419  22  3.069650E+06  8.228161E+03  4.497412E+04 -1.343203E+03 -3.527214E+04  1.734053E+03
       419  23  3.067532E+06 -1.404424E+03  2.449299E+04  6.066620E+02 -2.294383E+04  1.917642E+03
       419  24  3.069681E+06 -3.869985E+02  1.467365E+04 -1.340236E+03 -1.061593E+04  2.115475E+03
       419  25  3.006953E+06 -7.291215E+03  2.987071E+04 -3.064246E+03 -3.519071E+04  1.734187E+03
       419  26  3.000103E+06 -1.809101E+04  8.264270E+03  3.441045E+02 -2.285695E+04  1.917697E+03
       419  27  2.997521E+06 -1.823920E+04 -2.675961E+03 -1.443548E+02 -1.052369E+04  2.115509E+03
       420   1  3.149038E+06  2.070881E+04  3.088207E+04 -1.446227E+03  8.347760E+03 -2.234474E+03
       420   2  3.154531E+06  2.109952E+04  2.798264E+04  8.723627E+02  4.731877E+03 -2.454670E+03
       420   3  3.160828E+06  2.276520E+04  2.775067E+04 -1.657816E+03  1.115976E+03 -2.697589E+03
       420   4  3.068909E+06  8.783220E+02  1.158333E+04 -1.553085E+03  8.252156E+03 -2.234536E+03
       420   5  3.068509E+06 -1.861892E+02  7.280535E+03  8.714934E+02  4.626278E+03 -2.454745E+03
       420   6  3.068913E+06  2.609042E+01  5.652307E+03 -1.552736E+03  1.000417E+03 -2.697679E+03
       420   7  2.988786E+06 -1.895263E+04 -7.715866E+03 -1.659929E+03  8.156564E+03 -2.234599E+03
       420   8  2.982493E+06 -2.147243E+04 -1.342209E+04  8.706234E+02  4.520695E+03 -2.454821E+03
       420   9  2.977006E+06 -2.271363E+04 -1.644666E+04 -1.447673E+03  8.848748E+02 -2.697770E+03
       420  10  3.149038E+06  2.070879E+04  3.088193E+04 -1.446212E+03  2.154586E-10 -2.987462E-10
       420  11  3.154531E+06  2.109951E+04  2.798258E+04  8.723720E+02  4.226823E-10 -1.005840E-09
       420  12  3.160828E+06  2.276519E+04  2.775066E+04 -1.657814E+03 -1.345340E-09 -1.025728E-09
       420  13  3.068909E+06  8.782984E+02  1.158319E+04 -1.553070E+03  2.362181E-10 -1.374897E-10
       420  14  3.068509E+06 -1.862014E+02  7.280484E+03  8.715026E+02 -2.136971E-10 -9.908726E-10
       420  15  3.068913E+06  2.608233E+01  5.652291E+03 -1.552734E+03  2.265513E-09  1.366411E-10
       420  16  2.988786E+06 -1.895265E+04 -7.716000E+03 -1.659914E+03  1.684568E-10  3.080185E-10
       420  17  2.982493E+06 -2.147244E+04 -1.342214E+04  8.706324E+02 -5.944389E-10 -8.441967E-10
       420  18  2.977006E+06 -2.271364E+04 -1.644667E+04 -1.447671E+03  6.901445E-10 -5.593056E-10
       420  19  3.149038E+06  2.070881E+04  3.088207E+04 -1.446227E+03 -8.347760E+03  2.234474E+03
       420  20  3.154531E+06  2.109952E+04  2.798264E+04  8.723627E+02 -4.731877E+03  2.454670E+03
       420  21  3.160828E+06  2.276520E+04  2.775067E+04 -1.657816E+03 -1.115976E+03  2.697589E+03
       420  22  3.068909E+06  8.783220E+02  1.158333E+04 -1.553085E+03 -8.252156E+03  2.234536E+03
       420  23  3.068509E+06 -1.861892E+02  7.280535E+03  8.714934E+02 -4.626278E+03  2.454745E+03
       420  24  3.068913E+06  2.609042E+01  5.652307E+03 -1.552736E+03 -1.000417E+03  2.697679E+03
       420  25  2.988786E+06 -1.895263E+04 -7.715866E+03 -1.659929E+03 -8.156564E+03  2.234599E+03
       420  26  2.982493E+06 -2.147243E+04 -1.342209E+04  8.706234E+02 -4.520695E+03  2.454821E+03
       420  27  2.977006E+06 -2.271363E+04 -1.644666E+04 -1.447673E+03 -8.848748E+02  2.697770E+03
       421   1  3.170749E+06  2.525980E+04  3.001707E+04 -1.672142E+03  1.113791E+02 -2.847012E+03
       421   2  3.177768E+06  2.687046E+04  3.265308E+04  1.281457E+03 -3.046417E+03 -3.122080E+03
       421   3  3.185487E+06  2.954152E+04  3.760780E+04 -1.831234E+03 -6.204168E+03 -3.423801E+03
       421   4  3.068890E+06  5.182467E+01  5.485489E+03 -1.823306E+03 -7.561876E+00 -2.847113E+03
       421   5  3.068537E+06 -1.575753E+02  6.366194E+03  1.209620E+03 -3.177079E+03 -3.122203E+03
       421   6  3.068887E+06  6.955946E+02  9.573993E+03 -1.823809E+03 -6.346514E+03 -3.423949E+03
       421   7  2.967040E+06 -2.515691E+04 -1.904683E+04 -1.974447E+03 -1.264835E+02 -2.847214E+03
       421   8  2.959317E+06 -2.718647E+04 -1.992154E+04  1.137794E+03 -3.307719E+03 -3.122327E+03
       421   9  2.952299E+06 -2.815131E+04 -1.846078E+04 -1.816388E+03 -6.488834E+03 -3.424097E+03
       421  10  3.170749E+06  2.525979E+04  3.001706E+04 -1.672142E+03 -1.663169E-09 -1.923011E-10
       421  11  3.177768E+06  2.687044E+04  3.265305E+04  1.281450E+03  1.704147E-09  1.643863E-09
       421  12  3.185487E+06  2.954149E+04  3.760770E+04 -1.831251E+03 -3.547277E-10 -1.418310E-10
       421  13  3.068890E+06  5.181595E+01  5.485474E+03 -1.823306E+03  2.922673E-09  1.149686E-09
       421  14  3.068537E+06 -1.575885E+02  6.366157E+03  1.209612E+03  2.531912E-09  2.053170E-09
       421  15  3.068887E+06  6.955712E+02  9.573896E+03 -1.823827E+03  1.071690E-09  3.706587E-10
       421  16  2.967040E+06 -2.515692E+04 -1.904685E+04 -1.974447E+03  2.722604E-09  9.442972E-10
       421  17  2.959317E+06 -2.718649E+04 -1.992158E+04  1.137785E+03 -6.513970E-10  2.724388E-10
       421  18  2.952299E+06 -2.815133E+04 -1.846088E+04 -1.816406E+03 -1.230691E-09 -6.969235E-10
       421  19  3.170749E+06  2.525980E+04  3.001707E+04 -1.672142E+03 -1.113791E+02  2.847012E+03
       421  20  3.177768E+06  2.687046E+04  3.265308E+04  1.281457E+03  3.046417E+03  3.122080E+03
       421  21  3.185487E+06  2.954152E+04  3.760780E+04 -1.831234E+03  6.204168E+03  3.423801E+03
       421  22  3.068890E+06  5.182467E+01  5.485489E+03 -1.823306E+03  7.561876E+00  2.847113E+03
       421  23  3.068537E+06 -1.575753E+02  6.366194E+03  1.209620E+03  3.177079E+03  3.122203E+03
       421  24  3.068887E+06  6.955946E+02  9.573993E+03 -1.823809E+03  6.346514E+03  3.423949E+03
       421  25  2.967040E+06 -2.515691E+04 -1.904683E+04 -1.974447E+03  1.264835E+02  2.847214E+03
       421  26  2.959317E+06 -2.718647E+04 -1.992154E+04  1.137794E+03  3.307719E+03  3.122327E+03
       421  27  2.952299E+06 -2.815131E+04 -1.846078E+04 -1.816388E+03  6.488834E+03  3.424097E+03
       422   1  3.198556E+06  3.162861E+04  4.305003E+04 -1.119316E+03 -8.131158E+03 -3.616604E+03
       422   2  3.206063E+06  3.309487E+04  5.299454E+04  1.533168E+03 -1.805223E+04 -3.967803E+03
       422   3  3.217022E+06  4.306743E+04  7.150931E+04 -3.428273E+03 -2.797331E+04 -4.322949E+03
       422   4  3.069499E+06 -3.112235E+02  1.196938E+04 -2.165397E+03 -8.286197E+03 -3.616762E+03
       422   5  3.067761E+06 -1.125551E+03  1.971275E+04  1.638389E+03 -1.820715E+04 -3.968002E+03
       422   6  3.069475E+06  6.567573E+03  3.602767E+04 -2.171862E+03 -2.812795E+04 -4.323227E+03
       422   7  2.940457E+06 -3.225226E+04 -1.911245E+04 -3.211264E+03 -8.441203E+03 -3.616920E+03
       422   8  2.929476E+06 -3.534736E+04 -1.357041E+04  1.743583E+03 -1.836203E+04 -3.968202E+03
       422   9  2.921949E+06 -2.993385E+04  5.444831E+02 -9.157538E+02 -2.828256E+04 -4.323505E+03
       422  10  3.198556E+06  3.162857E+04  4.304988E+04 -1.119339E+03 -1.495308E-10  1.211951E-09
       422  11  3.206063E+06  3.309477E+04  5.299391E+04  1.533110E+03 -1.817845E-09 -9.593964E-10
       422  12  3.217021E+06  4.306720E+04  7.150781E+04 -3.428371E+03  6.145624E-10  3.535587E-10
       422  13  3.069499E+06 -3.112559E+02  1.196923E+04 -2.165421E+03  3.341069E-11  7.531123E-11
       422  14  3.067760E+06 -1.125656E+03  1.971210E+04  1.638331E+03 -5.983905E-10  3.047625E-10
       422  15  3.069475E+06  6.567342E+03  3.602615E+04 -2.171960E+03  2.377500E-10  1.573301E-10
       422  16  2.940457E+06 -3.225229E+04 -1.911261E+04 -3.211288E+03 -2.819315E-10 -9.871342E-10
       422  17  2.929476E+06 -3.534747E+04 -1.357107E+04  1.743524E+03 -1.315740E-09  4.267368E-10
       422  18  2.921948E+06 -2.993408E+04  5.429518E+02 -9.158522E+02 -8.055183E-10  6.470223E-10
       422  19  3.198556E+06  3.162861E+04  4.305003E+04 -1.119316E+03  8.131158E+03  3.616604E+03
       422  20  3.206063E+06  3.309487E+04  5.299454E+04  1.533168E+03  1.805223E+04  3.967803E+03
       422  21  3.217022E+06  4.306743E+04  7.150931E+04 -3.428273E+03  2.797331E+04  4.322949E+03
       422  22  3.069499E+06 -3.112235E+02  1.196938E+04 -2.165397E+03  8.286197E+03  3.616762E+03
       422  23  3.067761E+06 -1.125551E+03  1.971275E+04  1.638389E+03  1.820715E+04  3.968002E+03
       422  24  3.069475E+06  6.567573E+03  3.602767E+04 -2.171862E+03  2.812795E+04  4.323227E+03
       422  25  2.940457E+06 -3.225226E+04 -1.911245E+04 -3.211264E+03  8.441203E+03  3.616920E+03
       422  26  2.929476E+06 -3.534736E+04 -1.357041E+04  1.743583E+03  1.836203E+04  3.968202E+03
       422  27  2.921949E+06 -2.993385E+04  5.444831E+02 -9.157538E+02  2.828256E+04  4.323505E+03
       423   1  3.237237E+06  3.748645E+04  8.507754E+04  5.442379E+03 -3.512747E+04 -4.625344E+03
       423   2  3.236772E+06  3.361011E+04  1.183824E+05 -1.594144E+03 -7.458962E+04 -5.098895E+03
       423   3  3.260394E+06  1.054549E+05  1.962310E+05 -1.824372E+04 -1.140545E+05 -5.213818E+03
       423   4  3.074074E+06 -2.910006E+03  4.578829E+04 -2.588146E+03 -3.540112E+04 -4.625258E+03
       423   5  3.061974E+06 -9.628091E+03  7.632775E+04  2.180237E+03 -7.468996E+04 -5.099571E+03
       423   6  3.073940E+06  5.935626E+04  1.513000E+05 -2.664297E+03 -1.139808E+05 -5.216704E+03
       423   7  2.910934E+06 -4.330815E+04  6.497182E+03 -1.061657E+04 -3.567470E+04 -4.625166E+03
       423   8  2.887205E+06 -5.286846E+04  3.427098E+04  5.953547E+03 -7.479027E+04 -5.100249E+03
       423   9  2.887518E+06  1.325604E+04  1.063667E+05  1.291045E+04 -1.139072E+05 -5.219587E+03
       423  10  3.237236E+06  3.748609E+04  8.507519E+04  5.442248E+03 -7.414572E-10 -6.400237E-10
       423  11  3.236766E+06  3.360860E+04  1.183719E+05 -1.594449E+03  1.260267E-10 -1.786941E-09
       423  12  3.260380E+06  1.054514E+05  1.962067E+05 -1.824420E+04 -6.336696E-10 -1.984052E-09
       423  13  3.074072E+06 -2.910363E+03  4.578591E+04 -2.588277E+03 -5.049637E-10 -7.192288E-10
       423  14  3.061968E+06 -9.629607E+03  7.631727E+04  2.179930E+03  1.779793E-10 -1.387079E-09
       423  15  3.073926E+06  5.935276E+04  1.512757E+05 -2.664775E+03  8.239214E-10 -1.326660E-09
       423  16  2.910933E+06 -4.330851E+04  6.494761E+03 -1.061670E+04 -4.157361E-12 -1.745473E-11
       423  17  2.887199E+06 -5.286998E+04  3.426047E+04  5.953240E+03  2.452349E-09  2.175213E-09
       423  18  2.887504E+06  1.325254E+04  1.063424E+05  1.290997E+04  1.514614E-09 -2.726342E-10
       423  19  3.237237E+06  3.748645E+04  8.507754E+04  5.442379E+03  3.512747E+04  4.625344E+03
       423  20  3.236772E+06  3.361011E+04  1.183824E+05 -1.594144E+03  7.458962E+04  5.098895E+03
       423  21  3.260394E+06  1.054549E+05  1.962310E+05 -1.824372E+04  1.140545E+05  5.213818E+03
       423  22  3.074074E+06 -2.910006E+03  4.578829E+04 -2.588146E+03  3.540112E+04  4.625258E+03
       423  23  3.061974E+06 -9.628091E+03  7.632775E+04  2.180237E+03  7.468996E+04  5.099571E+03
       423  24  3.073940E+06  5.935626E+04  1.513000E+05 -2.664297E+03  1.139808E+05  5.216704E+03
       423  25  2.910934E+06 -4.330815E+04  6.497182E+03 -1.061657E+04  3.567470E+04  4.625166E+03
       423  26  2.887205E+06 -5.286846E+04  3.427098E+04  5.953547E+03  7.479027E+04  5.100249E+03
       423  27  2.887518E+06  1.325604E+04  1.063667E+05  1.291045E+04  1.139072E+05  5.219587E+03
       424   1  3.316422E+06  2.497259E+04  2.344508E+05  6.385155E+04 -1.417817E+05 -6.280992E+03
       424   2  3.236862E+06 -2.932850E+04  3.462744E+05 -4.047674E+04 -3.027133E+05 -6.992486E+03
       424   3  3.345642E+06  5.866570E+05  7.301388E+05 -1.575336E+05 -4.636498E+05 -2.827205E+03
       424   4  3.110560E+06 -2.617900E+04  1.849329E+05 -3.030924E+03 -1.430946E+05 -6.267722E+03
       424   5  3.016168E+06 -8.376462E+04  2.932796E+05  2.885416E+03 -3.017700E+05 -7.012398E+03
       424   6  3.109767E+06  5.286279E+05  6.721670E+05 -3.908004E+03 -4.604457E+05 -2.936422E+03
       424   7  2.904747E+06 -7.731698E+04  1.354144E+05 -6.989125E+04 -1.444072E+05 -6.254167E+03
       424   8  2.795522E+06 -1.381972E+05  2.402823E+05  4.623216E+04 -3.008271E+05 -7.032184E+03
       424   9  2.873993E+06  4.706831E+05  6.142039E+05  1.496595E+05 -4.572428E+05 -3.044097E+03
       424  10  3.316400E+06  2.496719E+04  2.344132E+05  6.385083E+04 -9.400356E-10 -2.007451E-09
       424  11  3.236764E+06 -2.935299E+04  3.461030E+05 -4.047844E+04 -1.850775E-09 -4.047728E-09
       424  12  3.345412E+06  5.865996E+05  7.297369E+05 -1.575346E+05 -2.313906E-09 -1.205215E-09
       424  13  3.110538E+06 -2.618450E+04  1.848946E+05 -3.031646E+03 -2.947021E-09 -6.562579E-09
       424  14  3.016071E+06 -8.378897E+04  2.931092E+05  2.883715E+03  2.951635E-09  3.089130E-09
       424  15  3.109540E+06  5.285713E+05  6.717706E+05 -3.909092E+03  2.144076E-09 -1.425644E-10
       424  16  2.904724E+06 -7.732259E+04  1.353753E+05 -6.989198E+04  6.616861E-10 -1.930644E-09
       424  17  2.795425E+06 -1.382214E+05  2.401129E+05  4.623046E+04  2.599265E-09  1.134384E-09
       424  18  2.873769E+06  4.706272E+05  6.138128E+05  1.496583E+05 -3.959250E-10 -1.975701E-09
       424  19  3.316422E+06  2.497259E+04  2.344508E+05  6.385155E+04  1.417817E+05  6.280992E+03
       424  20  3.236862E+06 -2.932850E+04  3.462744E+05 -4.047674E+04  3.027133E+05  6.992486E+03
       424  21  3.345642E+06  5.866570E+05  7.301388E+05 -1.575336E+05  4.636498E+05  2.827205E+03
       424  22  3.110560E+06 -2.617900E+04  1.849329E+05 -3.030924E+03  1.430946E+05  6.267722E+03
       424  23  3.016168E+06 -8.376462E+04  2.932796E+05  2.885416E+03  3.017700E+05  7.012398E+03
       424  24  3.109767E+06  5.286279E+05  6.721670E+05 -3.908004E+03  4.604457E+05  2.936422E+03
       424  25  2.904747E+06 -7.731698E+04  1.354144E+05 -6.989125E+04  1.444072E+05  6.254167E+03
       424  26  2.795522E+06 -1.381972E+05  2.402823E+05  4.623216E+04  3.008271E+05  7.032184E+03
       424  27  2.873993E+06  4.706831E+05  6.142039E+05  1.496595E+05  4.572428E+05  3.044097E+03
       425   1  6.065436E+05  1.959158E+05  1.817025E+05  5.388782E+04  6.003753E+04 -1.201688E+04
       425   2  5.465221E+05  1.877666E+05  1.407272E+05  5.565896E+04  2.761425E+04 -4.110100E+04
       425   3  4.898336E+05  1.760033E+05  1.199826E+05  6.743377E+04 -4.835811E+03 -5.061290E+04
       425   4 -2.701707E+05 -2.008869E+04 -2.207629E+04  6.583047E+04 -1.545545E+04 -1.215486E+04
       425   5 -2.685138E+05 -5.509049E+03 -1.090389E+04  6.080968E+04 -9.795522E+03 -4.117839E+04
       425   6 -2.701383E+05 -1.157100E+03 -5.939338E+03  6.579234E+04 -4.166591E+03 -5.061719E+04
       425   7 -1.146163E+06 -2.361438E+05 -2.258854E+05  7.775581E+04 -9.084263E+04 -1.229585E+04
       425   8 -1.082904E+06 -1.988220E+05 -1.625579E+05  6.595315E+04 -4.715747E+04 -4.125646E+04
       425   9 -1.029540E+06 -1.783474E+05 -1.318786E+05  6.415267E+04 -3.498159E+03 -5.062150E+04
       425  10  6.065397E+05  1.959147E+05  1.816954E+05  5.388840E+04  4.995931E-09 -7.370170E-10
       425  11  5.465208E+05  1.877645E+05  1.407226E+05  5.565987E+04  2.549379E-09 -4.812196E-09
       425  12  4.898329E+05  1.760005E+05  1.199778E+05  6.743357E+04  2.076981E-09 -3.968175E-09
       425  13 -2.701710E+05 -2.008891E+04 -2.207701E+04  6.583032E+04  1.361377E-09  1.174822E-09
       425  14 -2.685143E+05 -5.510896E+03 -1.090726E+04  6.080936E+04 -9.911565E-10 -3.070107E-09
       425  15 -2.701390E+05 -1.159855E+03 -5.944185E+03  6.579217E+04  5.414137E-10 -3.533689E-10
       425  16 -1.146172E+06 -2.361462E+05 -2.259012E+05  7.775491E+04 -3.962808E-09  1.442826E-10
       425  17 -1.082906E+06 -1.988244E+05 -1.625653E+05  6.595158E+04 -1.526108E-09 -7.093360E-09
       425  18 -1.029540E+06 -1.783501E+05 -1.318835E+05  6.415253E+04 -9.606022E-10 -6.111245E-09
       425  19  6.065436E+05  1.959158E+05  1.817025E+05  5.388782E+04 -6.003753E+04  1.201688E+04
       425  20  5.465221E+05  1.877666E+05  1.407272E+05  5.565896E+04 -2.761425E+04  4.110100E+04
       425  21  4.898336E+05  1.760033E+05  1.199826E+05  6.743377E+04  4.835811E+03  5.061290E+04
       425  22 -2.701707E+05 -2.008869E+04 -2.207629E+04  6.583047E+04  1.545545E+04  1.215486E+04
       425  23 -2.685138E+05 -5.509049E+03 -1.090389E+04  6.080968E+04  9.795522E+03  4.117839E+04
       425  24 -2.701383E+05 -1.157100E+03 -5.939338E+03  6.579234E+04  4.166591E+03  5.061719E+04
       425  25 -1.146163E+06 -2.361438E+05 -2.258854E+05  7.775581E+04  9.084263E+04  1.229585E+04
       425  26 -1.082904E+06 -1.988220E+05 -1.625579E+05  6.595315E+04  4.715747E+04  4.125646E+04
       425  27 -1.029540E+06 -1.783474E+05 -1.318786E+05  6.415267E+04  3.498159E+03  5.062150E+04
       426   1  4.524092E+05  1.668349E+05  1.129540E+05  6.669722E+04 -3.234711E+03 -4.979532E+04
       426   2  3.939624E+05  1.533593E+05  1.015563E+05  6.131851E+04 -6.104967E+03 -4.883434E+04
       426   3  3.358851E+05  1.399584E+05  9.204154E+04  6.731011E+04 -8.980755E+03 -4.576657E+04
       426   4 -2.694754E+05 -1.010036E+03 -4.481258E+03  6.609985E+04 -3.399087E+03 -4.980107E+04
       426   5 -2.692903E+05 -8.220071E+01 -2.453844E+03  6.041291E+04 -2.172024E+03 -4.883043E+04
       426   6 -2.694494E+05  2.092121E+02 -1.388227E+03  6.609706E+04 -9.506895E+02 -4.575184E+04
       426   7 -9.908437E+05 -1.688815E+05 -1.219311E+05  6.550291E+04 -3.563277E+03 -4.980682E+04
       426   8 -9.321044E+05 -1.535454E+05 -1.064746E+05  5.950806E+04  1.756876E+03 -4.882652E+04
       426   9 -8.744175E+05 -1.395577E+05 -9.482603E+04  6.488501E+04  7.071849E+03 -4.573713E+04
       426  10  4.524085E+05  1.668322E+05  1.129493E+05  6.669709E+04 -6.969090E-09 -4.212428E-09
       426  11  3.939618E+05  1.533568E+05  1.015518E+05  6.131827E+04 -1.505434E-09  2.201406E-09
       426  12  3.358844E+05  1.399561E+05  9.203746E+04  6.730978E+04  4.841735E-09  1.704430E-09
       426  13 -2.694761E+05 -1.012702E+03 -4.485940E+03  6.609971E+04  8.364272E-10 -2.752630E-09
       426  14 -2.692909E+05 -8.476209E+01 -2.458333E+03  6.041283E+04 -1.424168E-09  4.976819E-10
       426  15 -2.694500E+05  2.069644E+02 -1.392162E+03  6.609702E+04  7.132235E-10 -2.194692E-09
       426  16 -9.908443E+05 -1.688842E+05 -1.219358E+05  6.550276E+04  7.254035E-09 -9.112401E-11
       426  17 -9.321051E+05 -1.535480E+05 -1.064791E+05  5.950813E+04  1.474898E-09  1.886031E-09
       426  18 -8.744182E+05 -1.395600E+05 -9.483005E+04  6.488527E+04 -3.102449E-09  1.504578E-10
       426  19  4.524092E+05  1.668349E+05  1.129540E+05  6.669722E+04  3.234711E+03  4.979532E+04
       426  20  3.939624E+05  1.533593E+05  1.015563E+05  6.131851E+04  6.104967E+03  4.883434E+04
       426  21  3.358851E+05  1.399584E+05  9.204154E+04  6.731011E+04  8.980755E+03  4.576657E+04
       426  22 -2.694754E+05 -1.010036E+03 -4.481258E+03  6.609985E+04  3.399087E+03  4.980107E+04
       426  23 -2.692903E+05 -8.220071E+01 -2.453844E+03  6.041291E+04  2.172024E+03  4.883043E+04
       426  24 -2.694494E+05  2.092121E+02 -1.388227E+03  6.609706E+04  9.506895E+02  4.575184E+04
       426  25 -9.908437E+05 -1.688815E+05 -1.219311E+05  6.550291E+04  3.563277E+03  4.980682E+04
       426  26 -9.321044E+05 -1.535454E+05 -1.064746E+05  5.950806E+04 -1.756876E+03  4.882652E+04
       426  27 -8.744175E+05 -1.395577E+05 -9.482603E+04  6.488501E+04 -7.071849E+03  4.573713E+04
       427   1  2.988405E+05  1.313197E+05  8.622804E+04  6.721246E+04 -8.687314E+03 -4.329679E+04
       427   2  2.405421E+05  1.178381E+05  7.741100E+04  6.136766E+04 -8.840437E+03 -3.909978E+04
       427   3  1.822418E+05  1.044489E+05  6.870309E+04  6.704747E+04 -8.995508E+03 -3.467503E+04
       427   4 -2.693829E+05  2.199878E+02 -1.053040E+03  6.613160E+04 -7.450460E+02 -4.328137E+04
       427   5 -2.693317E+05  2.582587E+02 -6.007830E+02  6.036892E+04 -4.558337E+02 -3.908193E+04
       427   6 -2.693628E+05  3.121361E+02 -3.468335E+02  6.613140E+04 -1.685809E+02 -3.465465E+04
       427   7 -8.372833E+05 -1.308953E+05 -8.834101E+04  6.505156E+04  7.190235E+03 -4.326597E+04
       427   8 -7.789453E+05 -1.173341E+05 -7.861794E+04  5.937086E+04  7.922153E+03 -3.906410E+04
       427   9 -7.207631E+05 -1.038344E+05 -6.940087E+04  6.521589E+04  8.652176E+03 -3.463429E+04
       427  10  2.988399E+05  1.313177E+05  8.622438E+04  6.721216E+04 -3.597615E-09  2.376333E-09
       427  11  2.405416E+05  1.178365E+05  7.740798E+04  6.136738E+04 -2.088388E-10  2.681274E-09
       427  12  1.822414E+05  1.044476E+05  6.870068E+04  6.704722E+04  6.452473E-09 -6.039654E-10
       427  13 -2.693834E+05  2.179763E+02 -1.056560E+03  6.613157E+04 -1.638586E-10 -3.931493E-09
       427  14 -2.693321E+05  2.566187E+02 -6.036533E+02  6.036890E+04 -1.023841E-09  2.974120E-09
       427  15 -2.693631E+05  3.108466E+02 -3.490901E+02  6.613140E+04 -4.561929E-11  4.179775E-09
       427  16 -8.372838E+05 -1.308973E+05 -8.834463E+04  6.505181E+04  4.587486E-09  1.084955E-09
       427  17 -7.789457E+05 -1.173358E+05 -7.862093E+04  5.937111E+04  3.214886E-10  2.689543E-09
       427  18 -7.207635E+05 -1.038357E+05 -6.940326E+04  6.521613E+04 -5.116424E-09  7.503031E-10
       427  19  2.988405E+05  1.313197E+05  8.622804E+04  6.721246E+04  8.687314E+03  4.329679E+04
       427  20  2.405421E+05  1.178381E+05  7.741100E+04  6.136766E+04  8.840437E+03  3.909978E+04
       427  21  1.822418E+05  1.044489E+05  6.870309E+04  6.704747E+04  8.995508E+03  3.467503E+04
       427  22 -2.693829E+05  2.199878E+02 -1.053040E+03  6.613160E+04  7.450460E+02  4.328137E+04
       427  23 -2.693317E+05  2.582587E+02 -6.007830E+02  6.036892E+04  4.558337E+02  3.908193E+04
       427  24 -2.693628E+05  3.121361E+02 -3.468335E+02  6.613140E+04  1.685809E+02  3.465465E+04
       427  25 -8.372833E+05 -1.308953E+05 -8.834101E+04  6.505156E+04 -7.190235E+03  4.326597E+04
       427  26 -7.789453E+05 -1.173341E+05 -7.861794E+04  5.937086E+04 -7.922153E+03  3.906410E+04
       427  27 -7.207631E+05 -1.038344E+05 -6.940087E+04  6.521589E+04 -8.652176E+03  3.463429E+04
       428   1  1.452245E+05  9.587067E+04  6.288084E+04  6.698097E+04 -8.938466E+03 -3.202566E+04
       428   2  8.691260E+04  8.242112E+04  5.415523E+04  6.109663E+04 -8.915169E+03 -2.747796E+04
       428   3  2.855431E+04  6.903945E+04  4.541266E+04  6.675962E+04 -8.892966E+03 -2.290586E+04
       428   4 -2.693515E+05  3.185930E+02 -2.672413E+02  6.613643E+04 -1.195539E+02 -3.200458E+04
       428   5 -2.693150E+05  3.028994E+02 -1.641464E+02  6.036255E+04 -4.931799E+01 -2.745575E+04
       428   6 -2.693375E+05  3.467797E+02 -1.111154E+02  6.613638E+04  1.982668E+01 -2.288252E+04
       428   7 -6.837552E+05 -9.524170E+04 -6.341868E+04  6.529236E+04  8.693700E+03 -3.198352E+04
       428   8 -6.254154E+05 -8.182138E+04 -5.448594E+04  5.962883E+04  8.811645E+03 -2.743356E+04
       428   9 -5.671403E+05 -6.835012E+04 -4.563650E+04  6.551340E+04  8.928509E+03 -2.285918E+04
       428  10  1.452241E+05  9.586955E+04  6.287877E+04  6.698074E+04  2.625276E-09 -7.913015E-10
       428  11  8.691231E+04  8.242029E+04  5.415366E+04  6.109643E+04  5.884620E-10  5.562516E-09
       428  12  2.855409E+04  6.903886E+04  4.541152E+04  6.675945E+04 -3.387386E-10  4.068346E-09
       428  13 -2.693518E+05  3.174932E+02 -2.691659E+02  6.613643E+04  1.351920E-09  1.696397E-09
       428  14 -2.693152E+05  3.020900E+02 -1.655628E+02  6.036255E+04 -1.592467E-09  6.459356E-09
       428  15 -2.693376E+05  3.462175E+02 -1.120992E+02  6.613638E+04  6.218354E-10 -3.598661E-10
       428  16 -6.837556E+05 -9.524281E+04 -6.342075E+04  6.529258E+04 -1.151985E-09  3.516175E-10
       428  17 -6.254157E+05 -8.182221E+04 -5.448750E+04  5.962902E+04 -1.654847E-10  1.463123E-09
       428  18 -5.671405E+05 -6.835070E+04 -4.563763E+04  6.551356E+04  1.561956E-09  5.650664E-10
       428  19  1.452245E+05  9.587067E+04  6.288084E+04  6.698097E+04  8.938466E+03  3.202566E+04
       428  20  8.691260E+04  8.242112E+04  5.415523E+04  6.109663E+04  8.915169E+03  2.747796E+04
       428  21  2.855431E+04  6.903945E+04  4.541266E+04  6.675962E+04  8.892966E+03  2.290586E+04
       428  22 -2.693515E+05  3.185930E+02 -2.672413E+02  6.613643E+04  1.195539E+02  3.200458E+04
       428  23 -2.693150E+05  3.028994E+02 -1.641464E+02  6.036255E+04  4.931799E+01  2.745575E+04
       428  24 -2.693375E+05  3.467797E+02 -1.111154E+02  6.613638E+04 -1.982668E+01  2.288252E+04
       428  25 -6.837552E+05 -9.524170E+04 -6.341868E+04  6.529236E+04 -8.693700E+03  3.198352E+04
       428  26 -6.254154E+05 -8.182138E+04 -5.448594E+04  5.962883E+04 -8.811645E+03  2.743356E+04
       428  27 -5.671403E+05 -6.835012E+04 -4.563650E+04  6.551340E+04 -8.928509E+03  2.285918E+04
       429   1 -8.478611E+03  6.046177E+04  3.954428E+04  6.668651E+04 -8.881118E+03 -2.023636E+04
       429   2 -6.680344E+04  4.700874E+04  3.075359E+04  6.078470E+04 -8.832351E+03 -1.565425E+04
       429   3 -1.251921E+05  3.361532E+04  2.192360E+04  6.643940E+04 -8.784160E+03 -1.107813E+04
       429   4 -2.693347E+05  3.521979E+02 -9.963287E+01  6.613838E+04  3.196299E+01 -2.021254E+04
       429   5 -2.692986E+05  3.303598E+02 -9.891127E+01  6.036001E+04  6.874312E+01 -1.562990E+04
       429   6 -2.693268E+05  3.705435E+02 -1.291119E+02  6.613835E+04  1.049531E+02 -1.105323E+04
       429   7 -5.301225E+05 -5.976059E+04 -3.974467E+04  6.559045E+04  8.941445E+03 -2.018874E+04
       429   8 -4.717524E+05 -4.634994E+04 -3.095198E+04  5.993543E+04  8.967048E+03 -1.560555E+04
       429   9 -4.134404E+05 -3.287519E+04 -2.218198E+04  6.583735E+04  8.992083E+03 -1.102834E+04
       429  10 -8.478806E+03  6.046130E+04  3.954336E+04  6.668636E+04  1.201749E-08  4.619532E-11
       429  11 -6.680359E+04  4.700845E+04  3.075298E+04  6.078459E+04  1.648276E-09 -1.008262E-09
       429  12 -1.251922E+05  3.361517E+04  2.192322E+04  6.643932E+04 -7.027079E-09 -2.469018E-09
       429  13 -2.693349E+05  3.517592E+02 -1.004005E+02  6.613838E+04  1.762996E-09  7.124281E-09
       429  14 -2.692986E+05  3.300975E+02 -9.937030E+01  6.036001E+04 -2.079534E-09  1.275899E-09
       429  15 -2.693268E+05  3.704123E+02 -1.293415E+02  6.613835E+04  5.961055E-10 -2.720205E-09
       429  16 -5.301227E+05 -5.976105E+04 -3.974559E+04  6.559059E+04 -1.102717E-08  2.534863E-09
       429  17 -4.717526E+05 -4.635023E+04 -3.095259E+04  5.993554E+04 -8.629883E-10 -2.906988E-09
       429  18 -4.134405E+05 -3.287534E+04 -2.218236E+04  6.583743E+04  8.556122E-09 -1.284513E-09
       429  19 -8.478611E+03  6.046177E+04  3.954428E+04  6.668651E+04  8.881118E+03  2.023636E+04
       429  20 -6.680344E+04  4.700874E+04  3.075359E+04  6.078470E+04  8.832351E+03  1.565425E+04
       429  21 -1.251921E+05  3.361532E+04  2.192360E+04  6.643940E+04  8.784160E+03  1.107813E+04
       429  22 -2.693347E+05  3.521979E+02 -9.963287E+01  6.613838E+04 -3.196299E+01  2.021254E+04
       429  23 -2.692986E+05  3.303598E+02 -9.891127E+01  6.036001E+04 -6.874312E+01  1.562990E+04
       429  24 -2.693268E+05  3.705435E+02 -1.291119E+02  6.613835E+04 -1.049531E+02  1.105323E+04
       429  25 -5.301225E+05 -5.976059E+04 -3.974467E+04  6.559045E+04 -8.941445E+03  2.018874E+04
       429  26 -4.717524E+05 -4.634994E+04 -3.095198E+04  5.993543E+04 -8.967048E+03  1.560555E+04
       429  27 -4.134404E+05 -3.287519E+04 -2.218198E+04  6.583735E+04 -8.992083E+03  1.102834E+04
       430   1 -1.622395E+05  2.503070E+04  1.600468E+04  6.635456E+04 -8.769475E+03 -8.412578E+03
       430   2 -2.205495E+05  1.155638E+04  7.050203E+03  6.045056E+04 -8.488573E+03 -3.878557E+03
       430   3 -2.789682E+05 -1.902119E+03 -2.106925E+03  6.609925E+04 -8.207611E+03  5.707827E+02
       430   4 -2.693293E+05  3.741585E+02 -1.589593E+02  6.613744E+04  1.234337E+02 -8.387461E+03
       430   5 -2.692865E+05  3.441117E+02 -2.593966E+02  6.036111E+04  2.393473E+02 -3.853771E+03
       430   6 -2.693274E+05  3.586360E+02 -4.480819E+02  6.613749E+04  3.553468E+02  5.952351E+02
       430   7 -3.764074E+05 -2.428289E+04 -1.632253E+04  6.592036E+04  9.014869E+03 -8.362348E+03
       430   8 -3.180210E+05 -1.086823E+04 -7.568756E+03  6.027166E+04  8.966610E+03 -3.828986E+03
       430   9 -2.596863E+05  2.619425E+03  1.211033E+03  6.617573E+04  8.918433E+03  6.196884E+02
       430  10 -1.622396E+05  2.503061E+04  1.600440E+04  6.635450E+04  2.026618E-09  3.019622E-09
       430  11 -2.205495E+05  1.155635E+04  7.050039E+03  6.045054E+04 -1.771106E-09  7.516738E-10
       430  12 -2.789683E+05 -1.902138E+03 -2.107052E+03  6.609926E+04 -4.808171E-09  1.353648E-09
       430  13 -2.693293E+05  3.740830E+02 -1.590915E+02  6.613745E+04  9.291690E-10 -3.732708E-10
       430  14 -2.692865E+05  3.440958E+02 -2.594246E+02  6.036111E+04 -1.740690E-09  7.253531E-10
       430  15 -2.693274E+05  3.586356E+02 -4.480828E+02  6.613749E+04  3.129620E-10  2.113147E-09
       430  16 -3.764075E+05 -2.428299E+04 -1.632282E+04  6.592042E+04 -5.870362E-10  3.717305E-09
       430  17 -3.180211E+05 -1.086827E+04 -7.568935E+03  6.027168E+04  2.630207E-09 -8.208804E-09
       430  18 -2.596863E+05  2.619404E+03  1.210883E+03  6.617573E+04  5.866425E-09  7.168133E-10
       430  19 -1.622395E+05  2.503070E+04  1.600468E+04  6.635456E+04  8.769475E+03  8.412578E+03
       430  20 -2.205495E+05  1.155638E+04  7.050203E+03  6.045056E+04  8.488573E+03  3.878557E+03
       430  21 -2.789682E+05 -1.902119E+03 -2.106925E+03  6.609925E+04  8.207611E+03 -5.707827E+02
       430  22 -2.693293E+05  3.741585E+02 -1.589593E+02  6.613744E+04 -1.234337E+02  8.387461E+03
       430  23 -2.692865E+05  3.441117E+02 -2.593966E+02  6.036111E+04 -2.393473E+02  3.853771E+03
       430  24 -2.693274E+05  3.586360E+02 -4.480819E+02  6.613749E+04 -3.553468E+02 -5.952351E+02
       430  25 -3.764074E+05 -2.428289E+04 -1.632253E+04  6.592036E+04 -9.014869E+03  8.362348E+03
       430  26 -3.180210E+05 -1.086823E+04 -7.568756E+03  6.027166E+04 -8.966610E+03  3.828986E+03
       430  27 -2.596863E+05  2.619425E+03  1.211033E+03  6.617573E+04 -8.918433E+03 -6.196884E+02
       431   1 -3.160779E+05 -1.051859E+04 -8.232164E+03  6.596891E+04 -8.158997E+03  3.170352E+03
       431   2 -3.742074E+05 -2.419665E+04 -1.814485E+04  6.024658E+04 -6.113524E+03  7.204198E+03
       431   3 -4.328020E+05 -3.837336E+04 -2.953693E+04  6.602249E+04 -4.065891E+03  1.044637E+04
       431   4 -2.693541E+05  3.586533E+02 -5.891653E+02  6.612519E+04  4.373813E+02  3.194855E+03
       431   5 -2.692552E+05  2.233317E+02 -1.036768E+03  6.037683E+04  9.442338E+02  7.224071E+03
       431   6 -2.693583E+05 -1.434725E+02 -1.895157E+03  6.612659E+04  1.453451E+03  1.046168E+04
       431   7 -2.226279E+05  1.123582E+04  7.054049E+03  6.628148E+04  9.034385E+03  3.219362E+03
       431   8 -1.642919E+05  2.464277E+04  1.607119E+04  6.050711E+04  8.003144E+03  7.243945E+03
       431   9 -1.058883E+05  3.808502E+04  2.574588E+04  6.623071E+04  6.974199E+03  1.047700E+04
       431  10 -3.160780E+05 -1.051862E+04 -8.232309E+03  6.596893E+04 -3.983437E-09  5.372923E-09
       431  11 -3.742075E+05 -2.419671E+04 -1.814502E+04  6.024661E+04  1.970352E-09  2.739014E-09
       431  12 -4.328020E+05 -3.837348E+04 -2.953717E+04  6.602252E+04  8.186275E-09  4.000934E-09
       431  13 -2.693541E+05  3.586423E+02 -5.891849E+02  6.612519E+04  6.724940E-10  3.343118E-09
       431  14 -2.692552E+05  2.232755E+02 -1.036868E+03  6.037683E+04 -2.553202E-09  4.380869E-09
       431  15 -2.693584E+05 -1.435905E+02 -1.895366E+03  6.612658E+04  4.920048E-10 -8.182997E-10
       431  16 -2.226280E+05  1.123579E+04  7.053876E+03  6.628146E+04  4.570741E-09  2.818275E-09
       431  17 -1.642920E+05  2.464270E+04  1.607097E+04  6.050706E+04 -1.456046E-09  1.361393E-09
       431  18 -1.058883E+05  3.808489E+04  2.574558E+04  6.623065E+04 -8.218470E-09 -6.336741E-09
       431  19 -3.160779E+05 -1.051859E+04 -8.232164E+03  6.596891E+04  8.158997E+03 -3.170352E+03
       431  20 -3.742074E+05 -2.419665E+04 -1.814485E+04  6.024658E+04  6.113524E+03 -7.204198E+03
       431  21 -4.328020E+05 -3.837336E+04 -2.953693E+04  6.602249E+04  4.065891E+03 -1.044637E+04
       431  22 -2.693541E+05  3.586533E+02 -5.891653E+02  6.612519E+04 -4.373813E+02 -3.194855E+03
       431  23 -2.692552E+05  2.233317E+02 -1.036768E+03  6.037683E+04 -9.442338E+02 -7.224071E+03
       431  24 -2.693583E+05 -1.434725E+02 -1.895157E+03  6.612659E+04 -1.453451E+03 -1.046168E+04
       431  25 -2.226279E+05  1.123582E+04  7.054049E+03  6.628148E+04 -9.034385E+03 -3.219362E+03
       431  26 -1.642919E+05  2.464277E+04  1.607119E+04  6.050711E+04 -8.003144E+03 -7.243945E+03
       431  27 -1.058883E+05  3.808502E+04  2.574588E+04  6.623071E+04 -6.974199E+03 -1.047700E+04
       432   1 -4.705332E+05 -4.730357E+04 -3.701875E+04  6.539695E+04 -4.059394E+03  1.242458E+04
       432   2 -5.269746E+05 -6.361826E+04 -5.426885E+04  6.268453E+04  1.260803E+04  1.179287E+04
       432   3 -5.873500E+05 -8.672162E+04 -8.408583E+04  7.096233E+04  2.929297E+04  3.800981E+03
       432   4 -2.696384E+05 -2.033841E+02 -2.512133E+03  6.601148E+04  1.772935E+03  1.244056E+04
       432   5 -2.689182E+05 -2.067301E+03 -4.609641E+03  6.052735E+04  4.142703E+03  1.176907E+04
       432   6 -2.696494E+05 -8.234508E+03 -9.338867E+03  6.603348E+04  6.531497E+03  3.738650E+03
       432   7 -6.870388E+04  4.689466E+04  3.199324E+04  6.662619E+04  7.607093E+03  1.245655E+04
       432   8 -1.079762E+04  5.947977E+04  4.504677E+04  5.836921E+04 -4.326066E+03  1.174533E+04
       432   9  4.814538E+04  7.024578E+04  6.540313E+04  6.110202E+04 -1.624157E+04  3.676697E+03
       432  10 -4.705333E+05 -4.730374E+04 -3.701907E+04  6.539699E+04 -2.678945E-09  4.750030E-09
       432  11 -5.269748E+05 -6.361845E+04 -5.426941E+04  6.268441E+04  4.198133E-11 -1.785086E-09
       432  12 -5.873509E+05 -8.672187E+04 -8.408747E+04  7.096224E+04  2.771836E-09  1.747000E-09
       432  13 -2.696385E+05 -2.035511E+02 -2.512430E+03  6.601146E+04  1.238465E-09  4.977697E-09
       432  14 -2.689183E+05 -2.067454E+03 -4.609933E+03  6.052732E+04 -2.308438E-09 -4.541383E-09
       432  15 -2.696494E+05 -8.234535E+03 -9.338973E+03  6.603346E+04 -3.603122E-10  1.691486E-09
       432  16 -6.870399E+04  4.689448E+04  3.199284E+04  6.662611E+04  3.529450E-09 -8.395541E-11
       432  17 -1.079767E+04  5.947962E+04  4.504648E+04  5.836926E+04  4.879698E-10  5.860003E-10
       432  18  4.814509E+04  7.024570E+04  6.540261E+04  6.110207E+04 -1.358485E-09 -4.258183E-10
       432  19 -4.705332E+05 -4.730357E+04 -3.701875E+04  6.539695E+04  4.059394E+03 -1.242458E+04
       432  20 -5.269746E+05 -6.361826E+04 -5.426885E+04  6.268453E+04 -1.260803E+04 -1.179287E+04
       432  21 -5.873500E+05 -8.672162E+04 -8.408583E+04  7.096233E+04 -2.929297E+04 -3.800981E+03
       432  22 -2.696384E+05 -2.033841E+02 -2.512133E+03  6.601148E+04 -1.772935E+03 -1.244056E+04
       432  23 -2.689182E+05 -2.067301E+03 -4.609641E+03  6.052735E+04 -4.142703E+03 -1.176907E+04
       432  24 -2.696494E+05 -8.234508E+03 -9.338867E+03  6.603348E+04 -6.531497E+03 -3.738650E+03
       432  25 -6.870388E+04  4.689466E+04  3.199324E+04  6.662619E+04 -7.607093E+03 -1.245655E+04
       432  26 -1.079762E+04  5.947977E+04  4.504677E+04  5.836921E+04  4.326066E+03 -1.174533E+04
       432  27  4.814538E+04  7.024578E+04  6.540313E+04  6.110202E+04  1.624157E+04 -3.676697E+03
       433   1 -3.736368E+05  2.308099E+04 -8.095851E+03 -1.613168E+04 -8.945434E+04 -5.285127E+03
       433   2 -3.878394E+05  1.428998E+05  6.013973E+04 -6.830398E+03 -6.122015E+04 -1.529709E+04
       433   3 -4.405277E+05  1.228893E+05  7.508630E+04  2.986523E+04 -3.302000E+04 -1.401690E+04
       433   4 -9.122605E+05 -1.111594E+05 -1.413090E+05  1.501160E+04 -9.656770E+04 -5.309486E+03
       433   5 -8.925269E+05  1.760457E+04 -6.162284E+04  1.148131E+03 -6.321280E+04 -1.530489E+04
       433   6 -9.122039E+05  5.585912E+03 -3.881799E+04  1.468091E+04 -2.989008E+04 -1.400620E+04
       433   7 -1.450618E+06 -2.454177E+05 -2.745429E+05  4.612764E+04 -1.036749E+05 -5.334570E+03
       433   8 -1.396981E+06 -1.077090E+05 -1.834036E+05  9.119970E+03 -6.520382E+04 -1.531274E+04
       433   9 -1.383676E+06 -1.117330E+05 -1.527381E+05 -4.919967E+02 -2.676253E+04 -1.399564E+04
       433  10 -3.736454E+05  2.307881E+04 -8.110951E+03 -1.613206E+04 -5.722125E-09  3.531282E-09
       433  11 -3.878435E+05  1.428986E+05  6.013224E+04 -6.831153E+03  2.609824E-09  9.881638E-09
       433  12 -4.405289E+05  1.228888E+05  7.508388E+04  2.986485E+04  3.925563E-09  3.970373E-09
       433  13 -9.122705E+05 -1.111620E+05 -1.413266E+05  1.501119E+04  3.616903E-10 -3.024779E-09
       433  14 -8.925313E+05  1.760325E+04 -6.163080E+04  1.147351E+03  2.008199E-09 -9.461509E-09
       433  15 -9.122049E+05  5.585461E+03 -3.882004E+04  1.468057E+04  3.099332E-09  3.483234E-09
       433  16 -1.450629E+06 -2.454207E+05 -2.745632E+05  4.612719E+04  4.999014E-09  1.944198E-09
       433  17 -1.396986E+06 -1.077104E+05 -1.834120E+05  9.119165E+03 -1.847238E-09  6.791458E-09
       433  18 -1.383677E+06 -1.117334E+05 -1.527398E+05 -4.922986E+02 -6.691972E-09 -1.356066E-09
       433  19 -3.736368E+05  2.308099E+04 -8.095851E+03 -1.613168E+04  8.945434E+04  5.285127E+03
       433  20 -3.878394E+05  1.428998E+05  6.013973E+04 -6.830398E+03  6.122015E+04  1.529709E+04
       433  21 -4.405277E+05  1.228893E+05  7.508630E+04  2.986523E+04  3.302000E+04  1.401690E+04
       433  22 -9.122605E+05 -1.111594E+05 -1.413090E+05  1.501160E+04  9.656770E+04  5.309486E+03
       433  23 -8.925269E+05  1.760457E+04 -6.162284E+04  1.148131E+03  6.321280E+04  1.530489E+04
       433  24 -9.122039E+05  5.585912E+03 -3.881799E+04  1.468091E+04  2.989008E+04  1.400620E+04
       433  25 -1.450618E+06 -2.454177E+05 -2.745429E+05  4.612764E+04  1.036749E+05  5.334570E+03
       433  26 -1.396981E+06 -1.077090E+05 -1.834036E+05  9.119970E+03  6.520382E+04  1.531274E+04
       433  27 -1.383676E+06 -1.117330E+05 -1.527381E+05 -4.919967E+02  2.676253E+04  1.399564E+04
       434   1 -4.849005E+05  9.186849E+04  6.981738E+04  1.300679E+04 -2.378749E+04 -1.158234E+04
       434   2 -5.176421E+05  9.752610E+04  7.686079E+04  9.107431E+02 -1.599236E+04 -1.114708E+04
       434   3 -5.553794E+05  8.755076E+04  7.490513E+04  1.787947E+04 -8.202401E+03 -9.738399E+03
       434   4 -9.045734E+05 -1.242193E+04 -3.176295E+04  1.519270E+04 -2.381281E+04 -1.158307E+04
       434   5 -9.020284E+05  2.016434E+03 -1.601886E+04  6.355952E+02 -1.557907E+04 -1.114598E+04
       434   6 -9.045606E+05  7.398944E+02 -9.583285E+03  1.514458E+04 -7.350076E+03 -9.735251E+03
       434   7 -1.324085E+06 -1.167252E+05 -1.333559E+05  1.737697E+04 -2.383811E+04 -1.158379E+04
       434   8 -1.286279E+06 -9.350405E+04 -1.089091E+05  3.604898E+02 -1.516604E+04 -1.114487E+04
       434   9 -1.253630E+06 -8.607989E+04 -9.408046E+04  1.241112E+04 -6.498229E+03 -9.732109E+03
       434  10 -4.849012E+05  9.186820E+04  6.981606E+04  1.300657E+04 -4.157892E-09 -9.717723E-10
       434  11 -5.176424E+05  9.752590E+04  7.686007E+04  9.105995E+02 -9.005379E-10  4.852348E-09
       434  12 -5.553795E+05  8.755064E+04  7.490482E+04  1.787941E+04  1.073739E-09  9.923622E-09
       434  13 -9.045740E+05 -1.242222E+04 -3.176427E+04  1.519247E+04 -6.894324E-10  1.321819E-08
       434  14 -9.020287E+05  2.016235E+03 -1.601955E+04  6.354553E+02  3.425473E-09 -2.117875E-08
       434  15 -9.045607E+05  7.397781E+02 -9.583565E+03  1.514452E+04  2.630856E-09  9.641268E-09
       434  16 -1.324086E+06 -1.167255E+05 -1.333573E+05  1.737675E+04  4.631809E-09 -1.235252E-08
       434  17 -1.286280E+06 -9.350425E+04 -1.089098E+05  3.603536E+02  2.923400E-09 -4.952713E-09
       434  18 -1.253630E+06 -8.608000E+04 -9.408072E+04  1.241107E+04 -5.632399E-09  2.949544E-09
       434  19 -4.849005E+05  9.186849E+04  6.981738E+04  1.300679E+04  2.378749E+04  1.158234E+04
       434  20 -5.176421E+05  9.752610E+04  7.686079E+04  9.107431E+02  1.599236E+04  1.114708E+04
       434  21 -5.553794E+05  8.755076E+04  7.490513E+04  1.787947E+04  8.202401E+03  9.738399E+03
       434  22 -9.045734E+05 -1.242193E+04 -3.176295E+04  1.519270E+04  2.381281E+04  1.158307E+04
       434  23 -9.020284E+05  2.016434E+03 -1.601886E+04  6.355952E+02  1.557907E+04  1.114598E+04
       434  24 -9.045606E+05  7.398944E+02 -9.583285E+03  1.514458E+04  7.350076E+03  9.735251E+03
       434  25 -1.324085E+06 -1.167252E+05 -1.333559E+05  1.737697E+04  2.383811E+04  1.158379E+04
       434  26 -1.286279E+06 -9.350405E+04 -1.089091E+05  3.604898E+02  1.516604E+04  1.114487E+04
       434  27 -1.253630E+06 -8.607989E+04 -9.408046E+04  1.241112E+04  6.498229E+03  9.732109E+03
       435   1 -6.090884E+05  7.191081E+04  6.355279E+04  1.606762E+04 -6.428250E+03 -8.775982E+03
       435   2 -6.452994E+05  6.433154E+04  5.819933E+04  1.100257E+03 -4.405011E+03 -7.426294E+03
       435   3 -6.823929E+05  5.522879E+04  5.109615E+04  1.638505E+04 -2.383124E+03 -5.977175E+03
       435   4 -9.036215E+05 -1.265760E+03 -7.544686E+03  1.542805E+04 -5.837974E+03 -8.773771E+03
       435   5 -9.031735E+05  2.439659E+02 -4.125917E+03  2.982743E+02 -3.770325E+03 -7.423722E+03
       435   6 -9.036169E+05  2.222205E+02 -2.488172E+03  1.542144E+04 -1.703910E+03 -5.974219E+03
       435   7 -1.198075E+06 -7.444868E+04 -7.864838E+04  1.478871E+04 -5.247976E+03 -8.771561E+03
       435   8 -1.160987E+06 -6.384848E+04 -6.645594E+04 -5.034405E+02 -3.135903E+03 -7.421150E+03
       435   9 -1.124796E+06 -5.478794E+04 -5.607602E+04  1.445813E+04 -1.024938E+03 -5.971264E+03
       435  10 -6.090884E+05  7.191072E+04  6.355257E+04  1.606757E+04  4.696347E-09 -5.597083E-09
       435  11 -6.452994E+05  6.433148E+04  5.819919E+04  1.100231E+03  1.450222E-09 -8.769501E-09
       435  12 -6.823929E+05  5.522875E+04  5.109607E+04  1.638504E+04 -2.459218E-09 -7.368560E-09
       435  13 -9.036216E+05 -1.265852E+03 -7.544895E+03  1.542801E+04  2.605792E-10 -3.060889E-09
       435  14 -9.031736E+05  2.439029E+02 -4.126047E+03  2.982517E+02  1.793525E-09 -1.217393E-08
       435  15 -9.036169E+05  2.221814E+02 -2.488244E+03  1.542144E+04  4.518770E-09 -6.414562E-09
       435  16 -1.198075E+06 -7.444877E+04 -7.864857E+04  1.478867E+04 -4.451009E-09 -6.806832E-09
       435  17 -1.160987E+06 -6.384854E+04 -6.645606E+04 -5.034592E+02 -1.499398E-11  4.696644E-09
       435  18 -1.124796E+06 -5.478798E+04 -5.607609E+04  1.445812E+04 -1.613174E-09  1.431449E-08
       435  19 -6.090884E+05  7.191081E+04  6.355279E+04  1.606762E+04  6.428250E+03  8.775982E+03
       435  20 -6.452994E+05  6.433154E+04  5.819933E+04  1.100257E+03  4.405011E+03  7.426294E+03
       435  21 -6.823929E+05  5.522879E+04  5.109615E+04  1.638505E+04  2.383124E+03  5.977175E+03
       435  22 -9.036215E+05 -1.265760E+03 -7.544686E+03  1.542805E+04  5.837974E+03  8.773771E+03
       435  23 -9.031735E+05  2.439659E+02 -4.125917E+03  2.982743E+02  3.770325E+03  7.423722E+03
       435  24 -9.036169E+05  2.222205E+02 -2.488172E+03  1.542144E+04  1.703910E+03  5.974219E+03
       435  25 -1.198075E+06 -7.444868E+04 -7.864838E+04  1.478871E+04  5.247976E+03  8.771561E+03
       435  26 -1.160987E+06 -6.384848E+04 -6.645594E+04 -5.034405E+02  3.135903E+03  7.421150E+03
       435  27 -1.124796E+06 -5.478794E+04 -5.607602E+04  1.445813E+04  1.024938E+03  5.971264E+03
       436   1 -7.386840E+05  4.094564E+04  3.773668E+04  1.613625E+04 -1.965335E+03 -5.117700E+03
       436   2 -7.759919E+05  3.169336E+04  2.946124E+04  5.522515E+02 -1.327730E+03 -3.661346E+03
       436   3 -8.137074E+05  2.250285E+04  2.071332E+04  1.592789E+04 -6.906691E+02 -2.188786E+03
       436   4 -9.035037E+05  3.635886E+00 -1.989596E+03  1.558100E+04 -1.306668E+03 -5.114739E+03
       436   5 -9.032976E+05  5.176178E+01 -1.310168E+03  1.004909E+02 -6.618467E+02 -3.658264E+03
       436   6 -9.035017E+05  1.604667E+02 -1.108246E+03  1.558001E+04 -1.753022E+01 -2.185575E+03
       436   7 -1.068298E+06 -4.094035E+04 -4.171781E+04  1.502587E+04 -6.481753E+02 -5.111779E+03
       436   8 -1.030589E+06 -3.159102E+04 -3.208274E+04 -3.511940E+02  3.900708E+00 -3.655182E+03
       436   9 -9.932887E+05 -2.218251E+04 -2.293040E+04  1.523217E+04  6.555115E+02 -2.182365E+03
       436  10 -7.386841E+05  4.094561E+04  3.773662E+04  1.613625E+04  4.139568E-10 -7.435591E-09
       436  11 -7.759919E+05  3.169334E+04  2.946121E+04  5.522476E+02 -2.273532E-09  8.024758E-09
       436  12 -8.137074E+05  2.250285E+04  2.071331E+04  1.592789E+04 -6.961118E-09  1.624029E-09
       436  13 -9.035037E+05  3.607348E+00 -1.989648E+03  1.558100E+04 -2.793838E-10 -2.528710E-10
       436  14 -9.032976E+05  5.174730E+01 -1.310194E+03  1.004889E+02  1.505377E-09 -3.166522E-09
       436  15 -9.035017E+05  1.604616E+02 -1.108255E+03  1.558001E+04  3.849168E-09 -5.689968E-09
       436  16 -1.068298E+06 -4.094038E+04 -4.171786E+04  1.502587E+04 -7.198472E-10  7.543372E-09
       436  17 -1.030589E+06 -3.159104E+04 -3.208276E+04 -3.511940E+02  3.340883E-09  2.046863E-08
       436  18 -9.932887E+05 -2.218252E+04 -2.293041E+04  1.523218E+04  2.153691E-09  1.640239E-09
       436  19 -7.386840E+05  4.094564E+04  3.773668E+04  1.613625E+04  1.965335E+03  5.117700E+03
       436  20 -7.759919E+05  3.169336E+04  2.946124E+04  5.522515E+02  1.327730E+03  3.661346E+03
       436  21 -8.137074E+05  2.250285E+04  2.071332E+04  1.592789E+04  6.906691E+02  2.188786E+03
       436  22 -9.035037E+05  3.635887E+00 -1.989596E+03  1.558100E+04  1.306668E+03  5.114739E+03
       436  23 -9.032976E+05  5.176178E+01 -1.310168E+03  1.004909E+02  6.618467E+02  3.658264E+03
       436  24 -9.035017E+05  1.604667E+02 -1.108246E+03  1.558001E+04  1.753022E+01  2.185575E+03
       436  25 -1.068298E+06 -4.094035E+04 -4.171781E+04  1.502587E+04  6.481753E+02  5.111779E+03
       436  26 -1.030589E+06 -3.159102E+04 -3.208274E+04 -3.511940E+02 -3.900708E+00  3.655182E+03
       436  27 -9.932887E+05 -2.218251E+04 -2.293040E+04  1.523217E+04 -6.555115E+02  2.182365E+03
       437   1 -8.709772E+05  8.225334E+03  6.613738E+03  1.571820E+04 -4.928757E+02 -1.326855E+03
       437   2 -9.085302E+05 -1.244504E+03 -2.711050E+03  1.288941E+01  2.200248E+02  1.520141E+02
       437   3 -9.465396E+05 -1.067872E+04 -1.257103E+04  1.549295E+04  9.329131E+02  1.625715E+03
       437   4 -9.035103E+05  1.623267E+02 -1.134432E+03  1.562999E+04  1.803732E+02 -1.323612E+03
       437   5 -9.032815E+05  6.021280E+01 -1.442330E+03  3.770018E+01  8.908970E+02  1.552397E+02
       437   6 -9.035106E+05 -5.897003E+00 -2.283813E+03  1.563076E+04  1.601452E+03  1.628928E+03
       437   7 -9.360424E+05 -7.900757E+03 -8.882675E+03  1.554179E+04  8.535870E+02 -1.320369E+03
       437   8 -8.980327E+05  1.364928E+03 -1.736101E+02  6.251113E+01  1.561775E+03  1.584652E+02
       437   9 -8.604799E+05  1.066679E+04  8.003279E+03  1.576857E+04  2.270037E+03  1.632141E+03
       437  10 -8.709772E+05  8.225332E+03  6.613734E+03  1.571820E+04 -4.413145E-09 -4.303846E-10
       437  11 -9.085302E+05 -1.244504E+03 -2.711050E+03  1.288938E+01  2.249907E-10 -5.798835E-09
       437  12 -9.465396E+05 -1.067872E+04 -1.257104E+04  1.549295E+04 -8.306832E-09 -4.503317E-09
       437  13 -9.035103E+05  1.623248E+02 -1.134436E+03  1.563000E+04 -6.422993E-10  8.253774E-09
       437  14 -9.032815E+05  6.021256E+01 -1.442332E+03  3.770007E+01  6.408725E-10 -9.976599E-09
       437  15 -9.035106E+05 -5.900540E+00 -2.283823E+03  1.563075E+04  3.916526E-09 -7.827646E-09
       437  16 -9.360424E+05 -7.900759E+03 -8.882680E+03  1.554179E+04  2.093801E-09 -2.933335E-09
       437  17 -8.980328E+05  1.364928E+03 -1.736147E+02  6.251093E+01  3.207575E-09 -1.920776E-08
       437  18 -8.604799E+05  1.066679E+04  8.003264E+03  1.576857E+04  4.131265E-09 -1.237659E-08
       437  19 -8.709772E+05  8.225334E+03  6.613738E+03  1.571820E+04  4.928757E+02  1.326855E+03
       437  20 -9.085302E+05 -1.244504E+03 -2.711050E+03  1.288941E+01 -2.200248E+02 -1.520141E+02
       437  21 -9.465396E+05 -1.067872E+04 -1.257103E+04  1.549295E+04 -9.329131E+02 -1.625715E+03
       437  22 -9.035103E+05  1.623267E+02 -1.134432E+03  1.562999E+04 -1.803732E+02  1.323612E+03
       437  23 -9.032815E+05  6.021280E+01 -1.442330E+03  3.770018E+01 -8.908970E+02 -1.552397E+02
       437  24 -9.035106E+05 -5.897003E+00 -2.283813E+03  1.563076E+04 -1.601452E+03 -1.628928E+03
       437  25 -9.360424E+05 -7.900757E+03 -8.882675E+03  1.554179E+04 -8.535870E+02  1.320369E+03
       437  26 -8.980327E+05  1.364928E+03 -1.736101E+02  6.251113E+01 -1.561775E+03 -1.584652E+02
       437  27 -8.604799E+05  1.066679E+04  8.003279E+03  1.576857E+04 -2.270037E+03 -1.632141E+03
       438   1 -1.003903E+06 -2.469839E+04 -2.723797E+04  1.496702E+04  1.375303E+03  2.495861E+03
       438   2 -1.040808E+06 -3.393309E+04 -3.811098E+04 -3.221902E+02  3.825838E+03  3.975326E+03
       438   3 -1.078826E+06 -4.500181E+04 -5.111165E+04  1.531158E+04  6.277061E+03  5.380107E+03
       438   4 -9.036573E+05  2.469917E+02 -2.887785E+03  1.556926E+04  2.061048E+03  2.499119E+03
       438   5 -9.031053E+05  2.973407E+02 -4.822137E+03  1.120541E+02  4.478043E+03  3.978324E+03
       438   6 -9.036610E+05 -1.479946E+03 -8.860186E+03  1.557742E+04  6.895873E+03  5.382854E+03
       438   7 -8.034024E+05  2.519164E+04  2.146167E+04  1.617158E+04  2.746903E+03  2.502379E+03
       438   8 -7.653851E+05  3.452638E+04  2.846535E+04  5.463749E+02  5.130393E+03  3.981322E+03
       438   9 -7.284676E+05  4.203967E+04  3.338908E+04  1.584330E+04  7.514859E+03  5.385602E+03
       438  10 -1.003903E+06 -2.469840E+04 -2.723798E+04  1.496702E+04 -6.136600E-09 -1.237707E-09
       438  11 -1.040808E+06 -3.393311E+04 -3.811104E+04 -3.222025E+02  1.225906E-09 -8.363549E-09
       438  12 -1.078826E+06 -4.500185E+04 -5.111178E+04  1.531155E+04 -1.248409E-09  5.584468E-10
       438  13 -9.036573E+05  2.469838E+02 -2.887805E+03  1.556925E+04 -2.633792E-10 -3.376475E-09
       438  14 -9.031053E+05  2.973183E+02 -4.822204E+03  1.120397E+02  7.043852E-10  1.602678E-09
       438  15 -9.036611E+05 -1.479990E+03 -8.860330E+03  1.557739E+04  3.801527E-09  9.090988E-09
       438  16 -8.034024E+05  2.519163E+04  2.146165E+04  1.617157E+04  4.289566E-09  8.740906E-09
       438  17 -7.653851E+05  3.452636E+04  2.846527E+04  5.463584E+02  2.819701E-09 -1.061647E-08
       438  18 -7.284677E+05  4.203963E+04  3.338892E+04  1.584327E+04 -3.165104E-09  1.129034E-08
       438  19 -1.003903E+06 -2.469839E+04 -2.723797E+04  1.496702E+04 -1.375303E+03 -2.495861E+03
       438  20 -1.040808E+06 -3.393309E+04 -3.811098E+04 -3.221902E+02 -3.825838E+03 -3.975326E+03
       438  21 -1.078826E+06 -4.500181E+04 -5.111165E+04  1.531158E+04 -6.277061E+03 -5.380107E+03
       438  22 -9.036573E+05  2.469917E+02 -2.887785E+03  1.556926E+04 -2.061048E+03 -2.499119E+03
       438  23 -9.031053E+05  2.973407E+02 -4.822137E+03  1.120541E+02 -4.478043E+03 -3.978324E+03
       438  24 -9.036610E+05 -1.479946E+03 -8.860186E+03  1.557742E+04 -6.895873E+03 -5.382854E+03
       438  25 -8.034024E+05  2.519164E+04  2.146167E+04  1.617158E+04 -2.746903E+03 -2.502379E+03
       438  26 -7.653851E+05  3.452638E+04  2.846535E+04  5.463749E+02 -5.130393E+03 -3.981322E+03
       438  27 -7.284676E+05  4.203967E+04  3.338908E+04  1.584330E+04 -7.514859E+03 -5.385602E+03
       439   1 -1.136204E+06 -5.670068E+04 -6.732141E+04  1.265297E+04  7.842460E+03  6.341498E+03
       439   2 -1.169696E+06 -6.421208E+04 -8.359422E+04  4.210050E+02  1.786712E+04  7.814586E+03
       439   3 -1.209366E+06 -9.028510E+04 -1.110923E+05  1.839251E+04  2.789525E+04  8.503292E+03
       439   4 -9.047788E+05  8.739305E+02 -1.126536E+04  1.539126E+04  8.673663E+03  6.345132E+03
       439   5 -9.017282E+05  2.392675E+03 -1.882171E+04  3.225515E+02  1.834488E+04  7.816411E+03
       439   6 -9.047922E+05 -1.458403E+04 -3.735381E+04  1.545666E+04  2.802014E+04  8.503368E+03
       439   7 -6.733049E+05  5.844463E+04  4.478683E+04  1.813051E+04  9.505175E+03  6.348772E+03
       439   8 -6.336947E+05  6.899217E+04  4.594564E+04  2.239844E+02  1.882284E+04  7.818235E+03
       439   9 -6.001332E+05  6.111027E+04  3.637800E+04  1.251928E+04  2.814510E+04  8.503443E+03
       439  10 -1.136204E+06 -5.670074E+04 -6.732160E+04  1.265293E+04  9.979016E-09  1.061037E-09
       439  11 -1.169696E+06 -6.421223E+04 -8.359493E+04  4.208925E+02  3.255197E-09  1.048424E-08
       439  12 -1.209367E+06 -9.028539E+04 -1.110939E+05  1.839232E+04 -4.027762E-09 -5.841255E-09
       439  13 -9.047789E+05  8.738671E+02 -1.126558E+04  1.539121E+04  9.090525E-10 -6.176271E-09
       439  14 -9.017286E+05  2.392519E+03 -1.882246E+04  3.224360E+02 -6.095596E-10  9.547638E-09
       439  15 -9.047930E+05 -1.458432E+04 -3.735542E+04  1.545647E+04  3.620859E-09  2.715273E-09
       439  16 -6.733050E+05  5.844457E+04  4.478658E+04  1.813046E+04 -1.138523E-08 -1.570553E-09
       439  17 -6.336951E+05  6.899201E+04  4.594486E+04  2.238659E+02 -1.355492E-09 -1.993643E-08
       439  18 -6.001341E+05  6.110998E+04  3.637637E+04  1.251909E+04 -2.911472E-10  7.766037E-10
       439  19 -1.136204E+06 -5.670068E+04 -6.732141E+04  1.265297E+04 -7.842460E+03 -6.341498E+03
       439  20 -1.169696E+06 -6.421208E+04 -8.359422E+04  4.210050E+02 -1.786712E+04 -7.814586E+03
       439  21 -1.209366E+06 -9.028510E+04 -1.110923E+05  1.839251E+04 -2.789525E+04 -8.503292E+03
       439  22 -9.047788E+05  8.739305E+02 -1.126536E+04  1.539126E+04 -8.673663E+03 -6.345132E+03
       439  23 -9.017282E+05  2.392675E+03 -1.882171E+04  3.225515E+02 -1.834488E+04 -7.816411E+03
       439  24 -9.047922E+05 -1.458403E+04 -3.735381E+04  1.545666E+04 -2.802014E+04 -8.503368E+03
       439  25 -6.733049E+05  5.844463E+04  4.478683E+04  1.813051E+04 -9.505175E+03 -6.348772E+03
       439  26 -6.336947E+05  6.899217E+04  4.594564E+04  2.239844E+02 -1.882284E+04 -7.818235E+03
       439  27 -6.001332E+05  6.111027E+04  3.637800E+04  1.251928E+04 -2.814510E+04 -8.503443E+03
       440   1 -1.272705E+06 -8.279452E+04 -1.324100E+05 -2.500891E+03  3.249234E+04  1.065069E+04
       440   2 -1.284417E+06 -7.705622E+04 -1.675192E+05  1.032050E+04  7.581421E+04  1.210382E+04
       440   3 -1.343458E+06 -2.376906E+05 -2.724821E+05  5.227182E+04  1.191661E+05  4.416695E+03
       440   4 -9.137802E+05  6.593435E+03 -4.565501E+04  1.501536E+04  3.517006E+04  1.066198E+04
       440   5 -8.905220E+05  2.074011E+04 -7.244883E+04  6.961507E+02  7.435117E+04  1.209650E+04
       440   6 -9.138448E+05 -1.307118E+05 -1.661866E+05  1.550862E+04  1.135651E+05  4.389530E+03
       440   7 -5.547364E+05  9.597305E+04  4.109092E+04  3.254167E+04  3.784931E+04  1.067341E+04
       440   8 -4.964843E+05  1.185255E+05  2.261050E+04 -8.934467E+03  7.288719E+04  1.208923E+04
       440   9 -4.840603E+05 -2.374164E+04 -5.990401E+04 -2.128024E+04  1.079603E+05  4.363041E+03
       440  10 -1.272707E+06 -8.279493E+04 -1.324122E+05 -2.501170E+03  3.536843E-09 -5.742612E-09
       440  11 -1.284423E+06 -7.705792E+04 -1.675303E+05  1.031976E+04  5.180462E-09  1.056593E-10
       440  12 -1.343473E+06 -2.376945E+05 -2.725088E+05  5.227140E+04 -9.181407E-10  9.706407E-09
       440  13 -9.137815E+05  6.592981E+03 -4.565755E+04  1.501506E+04 -2.844780E-10  1.038063E-08
       440  14 -8.905279E+05  2.073846E+04 -7.245951E+04  6.954261E+02  5.949425E-10  4.378917E-09
       440  15 -9.138587E+05 -1.307153E+05 -1.662109E+05  1.550822E+04  2.095602E-09  2.615930E-09
       440  16 -5.547379E+05  9.597254E+04  4.108802E+04  3.254135E+04 -4.566965E-09  9.575032E-09
       440  17 -4.964901E+05  1.185239E+05  2.260023E+04 -8.935176E+03 -3.355136E-09  7.458690E-09
       440  18 -4.840729E+05 -2.374479E+04 -5.992597E+04 -2.128062E+04 -2.868261E-09 -4.837787E-09
       440  19 -1.272705E+06 -8.279452E+04 -1.324100E+05 -2.500891E+03 -3.249234E+04 -1.065069E+04
       440  20 -1.284417E+06 -7.705622E+04 -1.675192E+05  1.032050E+04 -7.581421E+04 -1.210382E+04
       440  21 -1.343458E+06 -2.376906E+05 -2.724821E+05  5.227182E+04 -1.191661E+05 -4.416695E+03
       440  22 -9.137802E+05  6.593435E+03 -4.565501E+04  1.501536E+04 -3.517006E+04 -1.066198E+04
       440  23 -8.905220E+05  2.074011E+04 -7.244883E+04  6.961507E+02 -7.435117E+04 -1.209650E+04
       440  24 -9.138448E+05 -1.307118E+05 -1.661866E+05  1.550862E+04 -1.135651E+05 -4.389530E+03
       440  25 -5.547364E+05  9.597305E+04  4.109092E+04  3.254167E+04 -3.784931E+04 -1.067341E+04
       440  26 -4.964843E+05  1.185255E+05  2.261050E+04 -8.934467E+03 -7.288719E+04 -1.208923E+04
       440  27 -4.840603E+05 -2.374164E+04 -5.990401E+04 -2.128024E+04 -1.079603E+05 -4.363041E+03
