
 stresses (elem, integ.pnt.,sxx,syy,szz,sxy,sxz,syz) for set ELALL and time  0.1000000E+01

         1   1 -3.151297E+06 -2.665570E+05 -3.347215E+05 -8.981340E+04 -2.285721E+05  3.322688E+01
         1   2 -3.105815E+06  3.399003E+04 -1.470745E+05 -2.658517E+04 -1.493994E+05  6.428320E+00
         1   3 -3.150880E+06  1.414317E+04 -9.124324E+04  3.664892E+04 -7.022721E+04 -4.165883E+00
         1   4 -3.151306E+06 -2.665723E+05 -3.347237E+05  5.988588E-09 -2.285721E+05 -2.927474E-10
         1   5 -3.105816E+06  3.398870E+04 -1.470747E+05 -3.431577E-09 -1.493994E+05 -4.675371E-10
         1   6 -3.150882E+06  1.414063E+04 -9.124360E+04  1.192693E-08 -7.022721E+04  4.130343E-10
         1   7 -3.151297E+06 -2.665570E+05 -3.347215E+05  8.981340E+04 -2.285721E+05 -3.322688E+01
         1   8 -3.105815E+06  3.399003E+04 -1.470745E+05  2.658517E+04 -1.493994E+05 -6.428320E+00
         1   9 -3.150880E+06  1.414317E+04 -9.124324E+04 -3.664892E+04 -7.022721E+04  4.165883E+00
         1  10 -3.151354E+06 -2.665712E+05 -3.348202E+05 -8.981340E+04 -1.344649E-09 -1.691119E-10
         1  11 -3.105839E+06  3.398400E+04 -1.471167E+05 -2.658517E+04 -6.025752E-10 -5.178769E-10
         1  12 -3.150885E+06  1.414184E+04 -9.125255E+04  3.664892E+04  1.239466E-09  5.629989E-10
         1  13 -3.151362E+06 -2.665864E+05 -3.348224E+05 -6.965954E-09  1.983016E-09 -1.705371E-10
         1  14 -3.105840E+06  3.398267E+04 -1.471169E+05  1.164416E-08  3.209028E-09 -1.817596E-10
         1  15 -3.150887E+06  1.413930E+04 -9.125291E+04 -1.923563E-08 -1.061817E-09  1.924772E-10
         1  16 -3.151354E+06 -2.665712E+05 -3.348202E+05  8.981340E+04  1.481458E-10 -1.356364E-10
         1  17 -3.105839E+06  3.398400E+04 -1.471167E+05  2.658517E+04 -4.576647E-10 -5.225932E-10
         1  18 -3.150885E+06  1.414184E+04 -9.125255E+04 -3.664892E+04 -3.059079E-10  2.998114E-12
         1  19 -3.151297E+06 -2.665570E+05 -3.347215E+05 -8.981340E+04  2.285721E+05 -3.322688E+01
         1  20 -3.105815E+06  3.399003E+04 -1.470745E+05 -2.658517E+04  1.493994E+05 -6.428320E+00
         1  21 -3.150880E+06  1.414317E+04 -9.124324E+04  3.664892E+04  7.022721E+04  4.165883E+00
         1  22 -3.151306E+06 -2.665723E+05 -3.347237E+05  1.023186E-08  2.285721E+05 -2.734248E-11
         1  23 -3.105816E+06  3.398870E+04 -1.470747E+05 -1.246654E-09  1.493994E+05 -2.483384E-10
         1  24 -3.150882E+06  1.414063E+04 -9.124360E+04 -4.632430E-09  7.022721E+04 -4.874770E-11
         1  25 -3.151297E+06 -2.665570E+05 -3.347215E+05  8.981340E+04  2.285721E+05  3.322688E+01
         1  26 -3.105815E+06  3.399003E+04 -1.470745E+05  2.658517E+04  1.493994E+05  6.428320E+00
         1  27 -3.150880E+06  1.414317E+04 -9.124324E+04 -3.664892E+04  7.022721E+04 -4.165883E+00
         2   1 -3.133183E+06 -2.612482E+04 -7.423824E+04 -7.811986E+03 -5.625348E+04  7.112768E-01
         2   2 -3.127908E+06  3.493752E+03 -3.807876E+04 -1.967499E+03 -3.681505E+04  1.172373E-01
         2   3 -3.133118E+06  1.383560E+03 -2.255282E+04  3.876958E+03 -1.737629E+04 -1.090380E-01
         2   4 -3.133183E+06 -2.612494E+04 -7.423826E+04 -1.002217E-08 -5.625348E+04  2.548150E-10
         2   5 -3.127908E+06  3.493745E+03 -3.807876E+04  8.152612E-09 -3.681505E+04 -6.488865E-10
         2   6 -3.133118E+06  1.383532E+03 -2.255282E+04  4.355385E-08 -1.737629E+04  3.546191E-10
         2   7 -3.133183E+06 -2.612482E+04 -7.423824E+04  7.811986E+03 -5.625348E+04 -7.112768E-01
         2   8 -3.127908E+06  3.493752E+03 -3.807876E+04  1.967499E+03 -3.681505E+04 -1.172373E-01
         2   9 -3.133118E+06  1.383560E+03 -2.255282E+04 -3.876958E+03 -1.737629E+04  1.090380E-01
         2  10 -3.133186E+06 -2.612568E+04 -7.424422E+04 -7.811986E+03  7.511490E-09  5.269374E-10
         2  11 -3.127909E+06  3.493386E+03 -3.808132E+04 -1.967498E+03 -3.021337E-09 -2.056736E-10
         2  12 -3.133118E+06  1.383479E+03 -2.255339E+04  3.876958E+03 -9.353173E-09 -6.297632E-11
         2  13 -3.133186E+06 -2.612579E+04 -7.424423E+04  5.431340E-09 -6.373580E-11  4.279361E-10
         2  14 -3.127909E+06  3.493379E+03 -3.808132E+04  1.028288E-08 -3.016811E-09  3.603657E-10
         2  15 -3.133118E+06  1.383450E+03 -2.255339E+04 -2.088070E-09 -8.728311E-10  1.484321E-10
         2  16 -3.133186E+06 -2.612568E+04 -7.424422E+04  7.811986E+03 -7.007282E-09  1.753848E-10
         2  17 -3.127909E+06  3.493386E+03 -3.808132E+04  1.967498E+03  5.704750E-10  8.712994E-10
         2  18 -3.133118E+06  1.383479E+03 -2.255339E+04 -3.876958E+03  6.307539E-09  1.852196E-10
         2  19 -3.133183E+06 -2.612482E+04 -7.423824E+04 -7.811986E+03  5.625348E+04 -7.112768E-01
         2  20 -3.127908E+06  3.493752E+03 -3.807876E+04 -1.967499E+03  3.681505E+04 -1.172373E-01
         2  21 -3.133118E+06  1.383560E+03 -2.255282E+04  3.876958E+03  1.737629E+04  1.090380E-01
         2  22 -3.133183E+06 -2.612494E+04 -7.423826E+04  4.241201E-08  5.625348E+04  6.691812E-10
         2  23 -3.127908E+06  3.493745E+03 -3.807876E+04  1.241530E-08  3.681505E+04  1.172519E-09
         2  24 -3.133118E+06  1.383532E+03 -2.255282E+04  7.045585E-10  1.737629E+04 -3.436322E-11
         2  25 -3.133183E+06 -2.612482E+04 -7.423824E+04  7.811986E+03  5.625348E+04  7.112768E-01
         2  26 -3.127908E+06  3.493752E+03 -3.807876E+04  1.967499E+03  3.681505E+04  1.172373E-01
         2  27 -3.133118E+06  1.383560E+03 -2.255282E+04 -3.876958E+03  1.737629E+04 -1.090380E-01
         3   1 -3.131111E+06 -2.505376E+03 -1.761603E+04 -5.021740E+02 -1.384073E+04  1.124973E-02
         3   2 -3.130395E+06  3.769909E+02 -9.742886E+03 -3.222876E+01 -8.970060E+03  4.679158E-04
         3   3 -3.131099E+06  1.317098E+02 -5.834498E+03  4.377078E+02 -4.099432E+03 -2.904270E-03
         3   4 -3.131111E+06 -2.505377E+03 -1.761603E+04  2.084603E-08 -1.384073E+04  6.452899E-10
         3   5 -3.130395E+06  3.769909E+02 -9.742886E+03 -3.343237E-09 -8.970060E+03 -2.156503E-10
         3   6 -3.131099E+06  1.317095E+02 -5.834498E+03 -6.420215E-10 -4.099432E+03 -1.081060E-10
         3   7 -3.131111E+06 -2.505376E+03 -1.761603E+04  5.021740E+02 -1.384073E+04 -1.124973E-02
         3   8 -3.130395E+06  3.769909E+02 -9.742886E+03  3.222876E+01 -8.970060E+03 -4.679165E-04
         3   9 -3.131099E+06  1.317098E+02 -5.834498E+03 -4.377078E+02 -4.099432E+03  2.904270E-03
         3  10 -3.131111E+06 -2.505428E+03 -1.761640E+04 -5.021740E+02 -3.439394E-09 -1.679269E-10
         3  11 -3.130395E+06  3.769692E+02 -9.743038E+03 -3.222876E+01 -4.958805E-09 -1.948498E-10
         3  12 -3.131099E+06  1.317053E+02 -5.834530E+03  4.377078E+02 -9.575384E-10 -1.400071E-10
         3  13 -3.131111E+06 -2.505428E+03 -1.761640E+04  1.218863E-08  2.049983E-10 -2.130461E-10
         3  14 -3.130395E+06  3.769692E+02 -9.743038E+03 -7.620535E-09 -2.151211E-09 -6.160768E-10
         3  15 -3.131099E+06  1.317049E+02 -5.834530E+03 -8.081117E-09 -1.008468E-09 -6.196923E-12
         3  16 -3.131111E+06 -2.505428E+03 -1.761640E+04  5.021740E+02  1.351461E-10 -5.021484E-10
         3  17 -3.130395E+06  3.769692E+02 -9.743038E+03  3.222876E+01  1.895708E-09 -1.122491E-09
         3  18 -3.131099E+06  1.317053E+02 -5.834530E+03 -4.377078E+02  1.096999E-09 -9.989930E-11
         3  19 -3.131111E+06 -2.505376E+03 -1.761603E+04 -5.021740E+02  1.384073E+04 -1.124973E-02
         3  20 -3.130395E+06  3.769909E+02 -9.742886E+03 -3.222876E+01  8.970060E+03 -4.679159E-04
         3  21 -3.131099E+06  1.317098E+02 -5.834498E+03  4.377078E+02  4.099432E+03  2.904271E-03
         3  22 -3.131111E+06 -2.505377E+03 -1.761603E+04  5.086476E-08  1.384073E+04 -8.168432E-10
         3  23 -3.130395E+06  3.769909E+02 -9.742886E+03  1.819851E-08  8.970060E+03 -9.438146E-10
         3  24 -3.131099E+06  1.317095E+02 -5.834498E+03  8.693750E-09  4.099432E+03  1.036705E-10
         3  25 -3.131111E+06 -2.505376E+03 -1.761603E+04  5.021740E+02  1.384073E+04  1.124972E-02
         3  26 -3.130395E+06  3.769909E+02 -9.742886E+03  3.222876E+01  8.970060E+03  4.679133E-04
         3  27 -3.131099E+06  1.317098E+02 -5.834498E+03 -4.377078E+02  4.099432E+03 -2.904271E-03
         4   1 -3.130846E+06 -2.255789E+02 -4.618994E+03  8.736871E+00 -3.163429E+03 -4.473412E-05
         4   2 -3.130705E+06  5.101834E+01 -3.020776E+03  2.375856E+01 -1.666388E+03 -6.408051E-05
         4   3 -3.130844E+06 -6.122499E+00 -2.484334E+03  3.878047E+01 -1.693217E+02 -1.062896E-05
         4   4 -3.130846E+06 -2.255789E+02 -4.618994E+03  2.039299E-09 -3.163429E+03  3.706648E-10
         4   5 -3.130705E+06  5.101834E+01 -3.020776E+03 -1.925913E-08 -1.666388E+03  3.039170E-10
         4   6 -3.130844E+06 -6.122502E+00 -2.484334E+03  4.171862E-08 -1.693217E+02 -1.255669E-09
         4   7 -3.130846E+06 -2.255789E+02 -4.618994E+03 -8.736871E+00 -3.163429E+03  4.473431E-05
         4   8 -3.130705E+06  5.101834E+01 -3.020776E+03 -2.375856E+01 -1.666388E+03  6.407981E-05
         4   9 -3.130844E+06 -6.122499E+00 -2.484334E+03 -3.878047E+01 -1.693217E+02  1.062701E-05
         4  10 -3.130846E+06 -2.255816E+02 -4.619013E+03  8.736871E+00 -1.975914E-09  7.045293E-11
         4  11 -3.130705E+06  5.101759E+01 -3.020781E+03  2.375856E+01 -5.126388E-09  2.811802E-10
         4  12 -3.130844E+06 -6.122507E+00 -2.484334E+03  3.878047E+01 -2.296275E-10 -2.641799E-10
         4  13 -3.130846E+06 -2.255816E+02 -4.619013E+03 -1.947931E-08 -2.225585E-09  4.174550E-10
         4  14 -3.130705E+06  5.101759E+01 -3.020781E+03 -4.242477E-09 -2.009716E-09  3.598010E-10
         4  15 -3.130844E+06 -6.122510E+00 -2.484334E+03  2.820419E-08  1.470141E-09 -3.182905E-10
         4  16 -3.130846E+06 -2.255816E+02 -4.619013E+03 -8.736871E+00  6.992606E-11  4.265085E-10
         4  17 -3.130705E+06  5.101759E+01 -3.020781E+03 -2.375856E+01  2.100377E-09  1.746490E-10
         4  18 -3.130844E+06 -6.122507E+00 -2.484334E+03 -3.878047E+01  3.888478E-09 -6.541195E-10
         4  19 -3.130846E+06 -2.255789E+02 -4.618994E+03  8.736871E+00  3.163429E+03  4.473503E-05
         4  20 -3.130705E+06  5.101834E+01 -3.020776E+03  2.375856E+01  1.666388E+03  6.408185E-05
         4  21 -3.130844E+06 -6.122499E+00 -2.484334E+03  3.878047E+01  1.693217E+02  1.062883E-05
         4  22 -3.130846E+06 -2.255789E+02 -4.618994E+03  1.494459E-08  3.163429E+03  3.842475E-10
         4  23 -3.130705E+06  5.101834E+01 -3.020776E+03  1.294219E-08  1.666388E+03  3.134640E-10
         4  24 -3.130844E+06 -6.122502E+00 -2.484334E+03  5.826686E-08  1.693217E+02  6.367657E-10
         4  25 -3.130846E+06 -2.255789E+02 -4.618994E+03 -8.736871E+00  3.163429E+03 -4.473456E-05
         4  26 -3.130705E+06  5.101834E+01 -3.020776E+03 -2.375856E+01  1.666388E+03 -6.408056E-05
         4  27 -3.130844E+06 -6.122499E+00 -2.484334E+03 -3.878047E+01  1.693217E+02 -1.062805E-05
         5   1 -3.130846E+06 -4.472890E+00 -2.503316E+03 -4.323456E+01  2.799742E+02 -1.959335E-05
         5   2 -3.130702E+06  5.321855E+01 -3.124088E+03 -2.679495E+01  1.828326E+03 -7.929367E-05
         5   3 -3.130848E+06 -2.386424E+02 -4.844110E+03 -1.035532E+01  3.376676E+03 -5.659329E-05
         5   4 -3.130846E+06 -4.472893E+00 -2.503316E+03  1.838815E-08  2.799742E+02 -1.457551E-09
         5   5 -3.130702E+06  5.321854E+01 -3.124088E+03 -3.046769E-09  1.828326E+03  5.665494E-11
         5   6 -3.130848E+06 -2.386424E+02 -4.844110E+03 -2.609932E-08  3.376676E+03  1.581785E-09
         5   7 -3.130846E+06 -4.472890E+00 -2.503316E+03  4.323456E+01  2.799742E+02  1.958992E-05
         5   8 -3.130702E+06  5.321855E+01 -3.124088E+03  2.679495E+01  1.828326E+03  7.929327E-05
         5   9 -3.130848E+06 -2.386424E+02 -4.844110E+03  1.035532E+01  3.376676E+03  5.659705E-05
         5  10 -3.130846E+06 -4.472911E+00 -2.503316E+03 -4.323456E+01  1.577455E-09 -7.967122E-10
         5  11 -3.130702E+06  5.321764E+01 -3.124095E+03 -2.679495E+01  9.057056E-10 -3.197326E-10
         5  12 -3.130848E+06 -2.386455E+02 -4.844131E+03 -1.035532E+01 -3.655536E-09  1.188079E-09
         5  13 -3.130846E+06 -4.472915E+00 -2.503316E+03  1.407100E-08  2.299954E-09 -5.919902E-10
         5  14 -3.130702E+06  5.321764E+01 -3.124095E+03 -2.665156E-08 -9.341056E-10 -9.385263E-11
         5  15 -3.130848E+06 -2.386455E+02 -4.844131E+03 -4.263499E-08  4.335142E-10  1.002613E-09
         5  16 -3.130846E+06 -4.472911E+00 -2.503316E+03  4.323456E+01 -1.355010E-10 -1.773864E-10
         5  17 -3.130702E+06  5.321764E+01 -3.124095E+03  2.679495E+01  1.280894E-09 -4.009855E-10
         5  18 -3.130848E+06 -2.386455E+02 -4.844131E+03  1.035532E+01  2.798473E-09  1.119457E-09
         5  19 -3.130846E+06 -4.472890E+00 -2.503316E+03 -4.323456E+01 -2.799742E+02  1.959275E-05
         5  20 -3.130702E+06  5.321855E+01 -3.124088E+03 -2.679495E+01 -1.828326E+03  7.929255E-05
         5  21 -3.130848E+06 -2.386424E+02 -4.844110E+03 -1.035532E+01 -3.376676E+03  5.659602E-05
         5  22 -3.130846E+06 -4.472893E+00 -2.503316E+03  2.266333E-08 -2.799742E+02  2.990957E-10
         5  23 -3.130702E+06  5.321854E+01 -3.124088E+03 -1.583876E-08 -1.828326E+03 -3.154242E-10
         5  24 -3.130848E+06 -2.386424E+02 -4.844110E+03  9.133055E-09 -3.376676E+03  4.224283E-10
         5  25 -3.130846E+06 -4.472890E+00 -2.503316E+03  4.323456E+01 -2.799742E+02 -1.959194E-05
         5  26 -3.130702E+06  5.321855E+01 -3.124088E+03  2.679495E+01 -1.828326E+03 -7.929356E-05
         5  27 -3.130848E+06 -2.386424E+02 -4.844110E+03  1.035532E+01 -3.376676E+03 -5.659512E-05
         6   1 -3.131117E+06  1.393127E+02 -6.139217E+03 -4.635870E+02  4.359990E+03 -3.271490E-03
         6   2 -3.130373E+06  3.985448E+02 -1.028532E+04  3.361226E+01  9.502007E+03  5.169412E-04
         6   3 -3.131130E+06 -2.649360E+03 -1.861844E+04  5.308060E+02  1.464391E+04  1.258119E-02
         6   4 -3.131117E+06  1.393123E+02 -6.139217E+03  2.793922E-08  4.359990E+03  1.364532E-09
         6   5 -3.130373E+06  3.985448E+02 -1.028532E+04 -1.830133E-08  9.502007E+03 -8.693986E-11
         6   6 -3.131130E+06 -2.649361E+03 -1.861844E+04 -2.851294E-08  1.464391E+04 -6.733228E-11
         6   7 -3.131117E+06  1.393127E+02 -6.139217E+03  4.635870E+02  4.359990E+03  3.271493E-03
         6   8 -3.130373E+06  3.985448E+02 -1.028532E+04 -3.361226E+01  9.502007E+03 -5.169417E-04
         6   9 -3.131130E+06 -2.649360E+03 -1.861844E+04 -5.308060E+02  1.464391E+04 -1.258119E-02
         6  10 -3.131117E+06  1.393076E+02 -6.139253E+03 -4.635870E+02 -6.582765E-09  5.770593E-10
         6  11 -3.130373E+06  3.985204E+02 -1.028549E+04  3.361226E+01 -1.294069E-09 -1.830871E-09
         6  12 -3.131130E+06 -2.649418E+03 -1.861885E+04  5.308060E+02  4.945072E-09 -1.114398E-09
         6  13 -3.131117E+06  1.393072E+02 -6.139253E+03 -1.355735E-08 -2.366936E-09  6.943390E-10
         6  14 -3.130373E+06  3.985204E+02 -1.028549E+04 -9.744632E-09  2.943959E-09 -9.092957E-10
         6  15 -3.131130E+06 -2.649419E+03 -1.861885E+04 -5.902516E-09  1.574710E-10 -7.838439E-10
         6  16 -3.131117E+06  1.393076E+02 -6.139253E+03  4.635870E+02  5.953887E-09  9.498305E-10
         6  17 -3.130373E+06  3.985204E+02 -1.028549E+04 -3.361226E+01 -1.677800E-09 -2.498844E-10
         6  18 -3.131130E+06 -2.649418E+03 -1.861885E+04 -5.308060E+02 -5.554715E-09 -5.195939E-10
         6  19 -3.131117E+06  1.393127E+02 -6.139217E+03 -4.635870E+02 -4.359990E+03  3.271492E-03
         6  20 -3.130373E+06  3.985448E+02 -1.028532E+04  3.361226E+01 -9.502007E+03 -5.169442E-04
         6  21 -3.131130E+06 -2.649360E+03 -1.861844E+04  5.308060E+02 -1.464391E+04 -1.258119E-02
         6  22 -3.131117E+06  1.393123E+02 -6.139217E+03  5.180631E-09 -4.359990E+03 -6.265915E-11
         6  23 -3.130373E+06  3.985448E+02 -1.028532E+04  1.171951E-08 -9.502007E+03 -2.161412E-09
         6  24 -3.131130E+06 -2.649361E+03 -1.861844E+04  5.434203E-08 -1.464391E+04 -1.395116E-09
         6  25 -3.131117E+06  1.393127E+02 -6.139217E+03  4.635870E+02 -4.359990E+03 -3.271493E-03
         6  26 -3.130373E+06  3.985448E+02 -1.028532E+04 -3.361226E+01 -9.502007E+03  5.169401E-04
         6  27 -3.131130E+06 -2.649360E+03 -1.861844E+04 -5.308060E+02 -1.464391E+04  1.258119E-02
         7   1 -3.133252E+06  1.463080E+03 -2.384144E+04 -4.099973E+03  1.838132E+04 -1.219798E-01
         7   2 -3.127743E+06  3.694480E+03 -4.026283E+04  2.080509E+03  3.893490E+04  1.311096E-01
         7   3 -3.133321E+06 -2.762655E+04 -7.850177E+04  8.261118E+03  5.948840E+04  7.954243E-01
         7   4 -3.133252E+06  1.463048E+03 -2.384144E+04  9.650283E-09  1.838132E+04  4.333106E-10
         7   5 -3.127743E+06  3.694472E+03 -4.026283E+04  5.375427E-10  3.893490E+04  8.311772E-10
         7   6 -3.133321E+06 -2.762668E+04 -7.850179E+04  3.777548E-09  5.948840E+04 -2.128926E-10
         7   7 -3.133252E+06  1.463080E+03 -2.384144E+04  4.099973E+03  1.838132E+04  1.219798E-01
         7   8 -3.127743E+06  3.694480E+03 -4.026283E+04 -2.080509E+03  3.893490E+04 -1.311096E-01
         7   9 -3.133321E+06 -2.762655E+04 -7.850177E+04 -8.261118E+03  5.948840E+04 -7.954243E-01
         7  10 -3.133252E+06  1.462989E+03 -2.384207E+04 -4.099973E+03 -2.121065E-09  7.569066E-10
         7  11 -3.127744E+06  3.694071E+03 -4.026569E+04  2.080509E+03  1.903380E-10  1.850489E-09
         7  12 -3.133324E+06 -2.762750E+04 -7.850846E+04  8.261118E+03  5.659942E-10  2.914631E-10
         7  13 -3.133252E+06  1.462957E+03 -2.384208E+04 -7.423336E-09  1.478482E-10  2.563921E-10
         7  14 -3.127744E+06  3.694062E+03 -4.026569E+04  9.136311E-09 -3.367800E-09  9.305466E-10
         7  15 -3.133325E+06 -2.762763E+04 -7.850847E+04 -1.088813E-08  4.450508E-10 -3.294746E-10
         7  16 -3.133252E+06  1.462989E+03 -2.384207E+04  4.099973E+03 -4.665332E-10 -2.404746E-10
         7  17 -3.127744E+06  3.694071E+03 -4.026569E+04 -2.080509E+03  1.254688E-09  3.200296E-10
         7  18 -3.133324E+06 -2.762750E+04 -7.850846E+04 -8.261118E+03 -1.417160E-09 -3.222786E-10
         7  19 -3.133252E+06  1.463080E+03 -2.384144E+04 -4.099973E+03 -1.838132E+04  1.219798E-01
         7  20 -3.127743E+06  3.694480E+03 -4.026283E+04  2.080509E+03 -3.893490E+04 -1.311096E-01
         7  21 -3.133321E+06 -2.762655E+04 -7.850177E+04  8.261118E+03 -5.948840E+04 -7.954243E-01
         7  22 -3.133252E+06  1.463048E+03 -2.384144E+04 -7.310034E-09 -1.838132E+04 -5.805917E-11
         7  23 -3.127743E+06  3.694472E+03 -4.026283E+04 -3.794436E-09 -3.893490E+04  1.064833E-09
         7  24 -3.133321E+06 -2.762668E+04 -7.850179E+04  1.203846E-08 -5.948840E+04 -4.561140E-10
         7  25 -3.133252E+06  1.463080E+03 -2.384144E+04  4.099973E+03 -1.838132E+04 -1.219798E-01
         7  26 -3.127743E+06  3.694480E+03 -4.026283E+04 -2.080509E+03 -3.893490E+04  1.311096E-01
         7  27 -3.133321E+06 -2.762655E+04 -7.850177E+04 -8.261118E+03 -5.948840E+04  7.954243E-01
         8   1 -3.152035E+06  1.495601E+04 -9.648430E+04 -3.875493E+04  7.426469E+04 -4.658546E+00
         8   2 -3.104380E+06  3.594342E+04 -1.555235E+05  2.811313E+04  1.579868E+05  7.188493E+00
         8   3 -3.152474E+06 -2.818759E+05 -3.539520E+05  9.497568E+04  2.417107E+05  3.715638E+01
         8   4 -3.152036E+06  1.495317E+04 -9.648471E+04  1.121255E-08  7.426469E+04 -9.007250E-11
         8   5 -3.104381E+06  3.594192E+04 -1.555237E+05 -6.483593E-09  1.579868E+05  1.006679E-09
         8   6 -3.152484E+06 -2.818929E+05 -3.539544E+05  1.293165E-08  2.417107E+05  3.999694E-10
         8   7 -3.152035E+06  1.495601E+04 -9.648430E+04  3.875493E+04  7.426469E+04  4.658546E+00
         8   8 -3.104380E+06  3.594342E+04 -1.555235E+05 -2.811313E+04  1.579868E+05 -7.188493E+00
         8   9 -3.152474E+06 -2.818759E+05 -3.539520E+05 -9.497568E+04  2.417107E+05 -3.715638E+01
         8  10 -3.152041E+06  1.495452E+04 -9.649472E+04 -3.875493E+04 -8.956989E-10 -1.001709E-09
         8  11 -3.104407E+06  3.593667E+04 -1.555707E+05  2.811313E+04  2.583447E-10  3.904949E-10
         8  12 -3.152537E+06 -2.818916E+05 -3.540623E+05  9.497567E+04 -1.254165E-09  1.542947E-10
         8  13 -3.152042E+06  1.495168E+04 -9.649512E+04 -1.022090E-08  1.142652E-09 -6.456043E-10
         8  14 -3.104407E+06  3.593518E+04 -1.555709E+05 -4.196725E-12  3.365665E-09  2.619741E-10
         8  15 -3.152547E+06 -2.819087E+05 -3.540648E+05  1.127844E-08  1.330365E-10  1.943725E-10
         8  16 -3.152041E+06  1.495452E+04 -9.649472E+04  3.875493E+04  3.843767E-09 -5.787032E-10
         8  17 -3.104407E+06  3.593667E+04 -1.555707E+05 -2.811313E+04  9.371570E-10  5.288931E-11
         8  18 -3.152537E+06 -2.818916E+05 -3.540623E+05 -9.497567E+04  9.569356E-10  1.899737E-10
         8  19 -3.152035E+06  1.495601E+04 -9.648430E+04 -3.875493E+04 -7.426469E+04  4.658546E+00
         8  20 -3.104380E+06  3.594342E+04 -1.555235E+05  2.811313E+04 -1.579868E+05 -7.188493E+00
         8  21 -3.152474E+06 -2.818759E+05 -3.539520E+05  9.497568E+04 -2.417107E+05 -3.715638E+01
         8  22 -3.152036E+06  1.495317E+04 -9.648471E+04  2.858264E-08 -7.426469E+04 -1.118571E-09
         8  23 -3.104381E+06  3.594192E+04 -1.555237E+05 -6.429094E-09 -1.579868E+05 -5.487647E-10
         8  24 -3.152484E+06 -2.818929E+05 -3.539544E+05  8.543493E-09 -2.417107E+05 -4.212552E-12
         8  25 -3.152035E+06  1.495601E+04 -9.648430E+04  3.875493E+04 -7.426469E+04 -4.658546E+00
         8  26 -3.104380E+06  3.594342E+04 -1.555235E+05 -2.811313E+04 -1.579868E+05  7.188493E+00
         8  27 -3.152474E+06 -2.818759E+05 -3.539520E+05 -9.497568E+04 -2.417107E+05  3.715638E+01
         9   1  2.112788E+06  7.281725E+06  2.035992E+06 -1.292225E+06  9.706044E+04  7.328610E+05
         9   2  1.640374E+06  6.175154E+06  1.387977E+06 -1.123020E+06  3.204637E+05  3.415108E+05
         9   3  1.337482E+06  5.165569E+06  1.036047E+06 -1.159443E+06  3.636301E+05 -4.899624E+04
         9   4  1.983170E+05 -5.012924E+05  2.164834E+05 -1.149674E+06  9.859427E+04  1.492941E+05
         9   5  4.970300E+04 -5.182754E+05  1.071664E+05 -1.047195E+06  3.215829E+05  9.521766E+04
         9   6  1.339548E+04 -4.967903E+05  6.176350E+04 -1.150291E+06  3.635254E+05  4.122619E+04
         9   7 -1.720191E+06 -8.228116E+06 -1.605875E+06 -1.008828E+06  9.987750E+04 -4.270766E+05
         9   8 -1.543557E+06 -7.168684E+06 -1.175464E+06 -9.721336E+05  3.226512E+05 -1.485056E+05
         9   9 -1.312401E+06 -6.127807E+06 -9.135834E+05 -1.141165E+06  3.634228E+05  1.306552E+05
         9  10  2.112635E+06  7.281151E+06  2.034976E+06 -1.292282E+06  4.631494E-10 -4.323361E-08
         9  11  1.640232E+06  6.175002E+06  1.387566E+06 -1.123108E+06  3.749721E-09 -1.959279E-08
         9  12  1.337339E+06  5.165531E+06  1.035794E+06 -1.159428E+06  3.500069E-09  6.917285E-09
         9  13  1.983005E+05 -5.013190E+05  2.164231E+05 -1.149686E+06  3.549641E-09  4.445568E-11
         9  14  4.958948E+04 -5.183129E+05  1.069549E+05 -1.047219E+06  1.973543E-09 -2.534196E-11
         9  15  1.325311E+04 -4.968276E+05  6.151190E+04 -1.150303E+06  3.225709E-09  1.449137E-11
         9  16 -1.720252E+06 -8.228317E+06 -1.606240E+06 -1.008793E+06  2.926983E-09  4.246643E-08
         9  17 -1.543674E+06 -7.168736E+06 -1.175701E+06 -9.720949E+05  3.536821E-09  1.932362E-08
         9  18 -1.312547E+06 -6.127861E+06 -9.138643E+05 -1.141203E+06  3.802181E-09 -6.786634E-09
         9  19  2.112788E+06  7.281725E+06  2.035992E+06 -1.292225E+06 -9.706044E+04 -7.328610E+05
         9  20  1.640374E+06  6.175154E+06  1.387977E+06 -1.123020E+06 -3.204637E+05 -3.415108E+05
         9  21  1.337482E+06  5.165569E+06  1.036047E+06 -1.159443E+06 -3.636301E+05  4.899624E+04
         9  22  1.983170E+05 -5.012924E+05  2.164834E+05 -1.149674E+06 -9.859427E+04 -1.492941E+05
         9  23  4.970300E+04 -5.182754E+05  1.071664E+05 -1.047195E+06 -3.215829E+05 -9.521766E+04
         9  24  1.339548E+04 -4.967903E+05  6.176350E+04 -1.150291E+06 -3.635254E+05 -4.122619E+04
         9  25 -1.720191E+06 -8.228116E+06 -1.605875E+06 -1.008828E+06 -9.987750E+04  4.270766E+05
         9  26 -1.543557E+06 -7.168684E+06 -1.175464E+06 -9.721336E+05 -3.226512E+05  1.485056E+05
         9  27 -1.312401E+06 -6.127807E+06 -9.135834E+05 -1.141165E+06 -3.634228E+05 -1.306552E+05
        10   1  1.176720E+06  4.471184E+06  8.920267E+05 -1.174419E+06  3.303520E+05 -4.514903E+04
        10   2  9.188317E+05  3.408576E+06  6.728395E+05 -1.059276E+06  2.798059E+05 -9.423236E+04
        10   3  6.777115E+05  2.357166E+06  4.895128E+05 -1.161969E+06  2.116435E+05 -1.434623E+05
        10   4  1.551680E+04 -5.029810E+05  4.869719E+04 -1.152996E+06  3.302035E+05  3.272296E+04
        10   5  9.599919E+03 -5.038489E+05  3.248381E+04 -1.044051E+06  2.793563E+05  1.643202E+04
        10   6  1.487503E+04 -5.002392E+05  2.951020E+04 -1.153022E+06  2.108354E+05 -8.492000E+01
        10   7 -1.146989E+06 -5.452881E+06 -7.954142E+05 -1.131699E+06  3.300596E+05  1.099937E+05
        10   8 -9.004082E+05 -4.401139E+06 -6.082662E+05 -1.028894E+06  2.789101E+05  1.264256E+05
        10   9 -6.483621E+05 -3.349511E+06 -4.306357E+05 -1.144098E+06  2.100289E+05  1.426579E+05
        10  10  1.176603E+06  4.471153E+06  8.918179E+05 -1.174407E+06  2.420715E-10  5.236928E-08
        10  11  9.187453E+05  3.408545E+06  6.726760E+05 -1.059255E+06 -6.517075E-10  2.332499E-08
        10  12  6.776580E+05  2.357132E+06  4.893903E+05 -1.161945E+06  1.402099E-09 -7.720160E-09
        10  13  1.539944E+04 -5.030114E+05  4.849024E+04 -1.153004E+06  3.442507E-09  2.100351E-12
        10  14  9.516057E+03 -5.038701E+05  3.233666E+04 -1.044055E+06  4.688231E-09 -1.267244E-10
        10  15  1.482731E+04 -5.002511E+05  2.942669E+04 -1.153022E+06  4.234719E-10  2.674790E-10
        10  16 -1.147109E+06 -5.452924E+06 -7.956421E+05 -1.131729E+06  1.755485E-10 -5.216108E-08
        10  17 -9.004961E+05 -4.401177E+06 -6.084429E+05 -1.028923E+06  1.666208E-10 -2.351489E-08
        10  18 -6.484150E+05 -3.349545E+06 -4.307573E+05 -1.144123E+06 -1.258527E-09  7.715028E-09
        10  19  1.176720E+06  4.471184E+06  8.920267E+05 -1.174419E+06 -3.303520E+05  4.514903E+04
        10  20  9.188317E+05  3.408576E+06  6.728395E+05 -1.059276E+06 -2.798059E+05  9.423236E+04
        10  21  6.777115E+05  2.357166E+06  4.895128E+05 -1.161969E+06 -2.116435E+05  1.434623E+05
        10  22  1.551680E+04 -5.029810E+05  4.869719E+04 -1.152996E+06 -3.302035E+05 -3.272296E+04
        10  23  9.599919E+03 -5.038489E+05  3.248381E+04 -1.044051E+06 -2.793563E+05 -1.643202E+04
        10  24  1.487503E+04 -5.002392E+05  2.951020E+04 -1.153022E+06 -2.108354E+05  8.492000E+01
        10  25 -1.146989E+06 -5.452881E+06 -7.954142E+05 -1.131699E+06 -3.300596E+05 -1.099937E+05
        10  26 -9.004082E+05 -4.401139E+06 -6.082662E+05 -1.028894E+06 -2.789101E+05 -1.264256E+05
        10  27 -6.483621E+05 -3.349511E+06 -4.306357E+05 -1.144098E+06 -2.100289E+05 -1.426579E+05
        11   1  5.206663E+05  1.681092E+06  3.771893E+05 -1.164701E+06  1.658533E+05 -1.476395E+05
        11   2  2.892912E+05  6.203720E+05  2.161730E+05 -1.025891E+06  9.116808E+04 -1.622066E+05
        11   3  9.821653E+04 -4.295045E+05  7.403789E+04 -1.105810E+06  2.088069E+04 -1.767947E+05
        11   4  1.586326E+04 -4.981150E+05  3.113781E+04 -1.153233E+06  1.649783E+05 -5.132558E+03
        11   5  3.041886E+04 -5.032640E+05  4.370925E+04 -1.043688E+06  9.030055E+04 -2.792116E+04
        11   6  8.675860E+04 -4.973015E+05  8.082175E+04 -1.152844E+06  2.002487E+04 -5.075124E+04
        11   7 -4.891654E+05 -2.672560E+06 -3.149589E+05 -1.141796E+06  1.641065E+05  1.368934E+05
        11   8 -2.285032E+05 -1.625598E+06 -1.287143E+05 -1.061449E+06  8.942429E+04  1.061309E+05
        11   9  7.531769E+04 -5.650538E+05  8.766758E+04 -1.199873E+06  1.914986E+04  7.528041E+04
        11  10  5.206310E+05  1.681061E+06  3.770970E+05 -1.164682E+06 -5.969481E-10  3.816084E-09
        11  11  2.892752E+05  6.203416E+05  2.161081E+05 -1.025879E+06  1.469801E-09  1.094074E-09
        11  12  9.820767E+04 -4.295381E+05  7.397833E+04 -1.105807E+06  8.687955E-11 -1.432117E-09
        11  13  1.583403E+04 -4.981224E+05  3.108663E+04 -1.153232E+06 -2.919966E-09  2.330641E-11
        11  14  3.040990E+04 -5.032670E+05  4.369248E+04 -1.043686E+06 -3.850724E-10 -2.149758E-11
        11  15  8.675748E+04 -4.973044E+05  8.081616E+04 -1.152843E+06  4.485704E-10  5.164061E-11
        11  16 -4.891994E+05 -2.672587E+06 -3.150450E+05 -1.141814E+06 -1.487985E-09 -3.578799E-09
        11  17 -2.285149E+05 -1.625612E+06 -1.287506E+05 -1.061457E+06 -4.068166E-09 -9.026757E-10
        11  18  7.531577E+04 -5.650600E+05  8.765622E+04 -1.199874E+06  8.932494E-10  1.576737E-09
        11  19  5.206663E+05  1.681092E+06  3.771893E+05 -1.164701E+06 -1.658533E+05  1.476395E+05
        11  20  2.892912E+05  6.203720E+05  2.161730E+05 -1.025891E+06 -9.116808E+04  1.622066E+05
        11  21  9.821653E+04 -4.295045E+05  7.403789E+04 -1.105810E+06 -2.088069E+04  1.767947E+05
        11  22  1.586326E+04 -4.981150E+05  3.113781E+04 -1.153233E+06 -1.649783E+05  5.132558E+03
        11  23  3.041886E+04 -5.032640E+05  4.370925E+04 -1.043688E+06 -9.030055E+04  2.792116E+04
        11  24  8.675860E+04 -4.973015E+05  8.082175E+04 -1.152844E+06 -2.002487E+04  5.075124E+04
        11  25 -4.891654E+05 -2.672560E+06 -3.149589E+05 -1.141796E+06 -1.641065E+05 -1.368934E+05
        11  26 -2.285032E+05 -1.625598E+06 -1.287143E+05 -1.061449E+06 -8.942429E+04 -1.061309E+05
        11  27  7.531769E+04 -5.650538E+05  8.766758E+04 -1.199873E+06 -1.914986E+04 -7.528041E+04
        12   1 -4.019393E+06 -1.152289E+06 -6.490875E+05 -1.478715E+06 -3.720374E+05 -1.362596E+05
        12   2 -3.919412E+06 -5.834270E+05 -2.982609E+05 -1.521836E+06 -2.383960E+05 -8.045970E+04
        12   3 -4.009316E+06 -5.555822E+05 -1.906370E+05 -1.457553E+06 -1.022164E+05 -3.140054E+04
        12   4 -3.858507E+06 -9.582344E+05 -5.788033E+05 -1.297888E+06 -3.677622E+05 -1.347580E+05
        12   5 -3.733526E+06 -4.748136E+05 -2.419846E+05 -1.431336E+06 -2.375820E+05 -8.017350E+04
        12   6 -3.797679E+06 -5.316627E+05 -1.455621E+05 -1.457407E+06 -1.048576E+05 -3.237862E+04
        12   7 -3.697551E+06 -7.640547E+05 -5.085136E+05 -1.116997E+06 -3.634859E+05 -1.332535E+05
        12   8 -3.547603E+06 -3.661802E+05 -1.857113E+05 -1.340806E+06 -2.367676E+05 -7.988707E+04
        12   9 -3.585992E+06 -5.077401E+05 -1.004875E+05 -1.457266E+06 -1.074997E+05 -3.335647E+04
        12  10 -4.019547E+06 -1.152347E+06 -6.493847E+05 -1.478756E+06  5.057181E-12  4.133318E-10
        12  11 -3.919475E+06 -5.834494E+05 -2.983808E+05 -1.521851E+06 -3.672769E-09  1.365696E-09
        12  12 -4.009327E+06 -5.555861E+05 -1.906587E+05 -1.457555E+06 -1.911132E-09 -1.136500E-09
        12  13 -3.858658E+06 -9.582906E+05 -5.790936E+05 -1.297928E+06 -2.039212E-10  3.306688E-10
        12  14 -3.733589E+06 -4.748358E+05 -2.421036E+05 -1.431351E+06 -4.417750E-09  2.784369E-10
        12  15 -3.797691E+06 -5.316668E+05 -1.455849E+05 -1.457410E+06  1.399903E-09 -8.853656E-10
        12  16 -3.697698E+06 -7.641097E+05 -5.087971E+05 -1.117036E+06 -1.698340E-10  1.393663E-10
        12  17 -3.547665E+06 -3.662022E+05 -1.858295E+05 -1.340821E+06 -2.088001E-09 -8.829041E-11
        12  18 -3.586005E+06 -5.077445E+05 -1.005115E+05 -1.457269E+06 -1.775350E-09 -1.155782E-09
        12  19 -4.019393E+06 -1.152289E+06 -6.490875E+05 -1.478715E+06  3.720374E+05  1.362596E+05
        12  20 -3.919412E+06 -5.834270E+05 -2.982609E+05 -1.521836E+06  2.383960E+05  8.045970E+04
        12  21 -4.009316E+06 -5.555822E+05 -1.906370E+05 -1.457553E+06  1.022164E+05  3.140054E+04
        12  22 -3.858507E+06 -9.582344E+05 -5.788033E+05 -1.297888E+06  3.677622E+05  1.347580E+05
        12  23 -3.733526E+06 -4.748136E+05 -2.419846E+05 -1.431336E+06  2.375820E+05  8.017350E+04
        12  24 -3.797679E+06 -5.316627E+05 -1.455621E+05 -1.457407E+06  1.048576E+05  3.237862E+04
        12  25 -3.697551E+06 -7.640547E+05 -5.085136E+05 -1.116997E+06  3.634859E+05  1.332535E+05
        12  26 -3.547603E+06 -3.661802E+05 -1.857113E+05 -1.340806E+06  2.367676E+05  7.988707E+04
        12  27 -3.585992E+06 -5.077401E+05 -1.004875E+05 -1.457266E+06  1.074997E+05  3.335647E+04
        13   1 -3.881708E+06 -6.421997E+05 -1.476960E+05 -1.464810E+06 -8.299967E+04 -2.660927E+04
        13   2 -3.839602E+06 -5.571093E+05 -7.449829E+04 -1.445556E+06 -5.260375E+04 -1.699686E+04
        13   3 -3.797503E+06 -5.503782E+05 -3.833022E+04 -1.440930E+06 -2.201424E+04 -7.891984E+03
        13   4 -3.778579E+06 -5.909591E+05 -1.181440E+05 -1.423908E+06 -8.367520E+04 -2.686441E+04
        13   5 -3.775443E+06 -5.297907E+05 -5.700370E+04 -1.424808E+06 -5.353616E+04 -1.734639E+04
        13   6 -3.772261E+06 -5.469261E+05 -3.268222E+04 -1.440337E+06 -2.320564E+04 -8.337784E+03
        13   7 -3.675439E+06 -5.397153E+05 -8.859297E+04 -1.382999E+06 -8.435086E+04 -2.711963E+04
        13   8 -3.711281E+06 -5.024716E+05 -3.950953E+04 -1.404058E+06 -5.446867E+04 -1.769597E+04
        13   9 -3.747017E+06 -5.434739E+05 -2.703425E+04 -1.439745E+06 -2.439708E+04 -8.783573E+03
        13  10 -3.881716E+06 -6.422023E+05 -1.477104E+05 -1.464812E+06 -1.608140E-09 -2.178500E-09
        13  11 -3.839606E+06 -5.571103E+05 -7.450407E+04 -1.445557E+06  1.719695E-09  4.560373E-10
        13  12 -3.797504E+06 -5.503784E+05 -3.833125E+04 -1.440930E+06  1.582105E-09 -1.092149E-09
        13  13 -3.778587E+06 -5.909617E+05 -1.181586E+05 -1.423910E+06  4.252139E-10 -9.196959E-10
        13  14 -3.775447E+06 -5.297918E+05 -5.700969E+04 -1.424809E+06 -2.024011E-09  2.798193E-10
        13  15 -3.772261E+06 -5.469263E+05 -3.268337E+04 -1.440337E+06 -1.471972E-09 -1.073602E-09
        13  16 -3.675447E+06 -5.397180E+05 -8.860782E+04 -1.383001E+06  4.062354E-09  2.389096E-10
        13  17 -3.711284E+06 -5.024727E+05 -3.951574E+04 -1.404059E+06  2.537391E-09 -1.785731E-10
        13  18 -3.747018E+06 -5.434741E+05 -2.703553E+04 -1.439745E+06 -1.041379E-09 -1.451031E-09
        13  19 -3.881708E+06 -6.421997E+05 -1.476960E+05 -1.464810E+06  8.299967E+04  2.660927E+04
        13  20 -3.839602E+06 -5.571093E+05 -7.449829E+04 -1.445556E+06  5.260375E+04  1.699686E+04
        13  21 -3.797503E+06 -5.503782E+05 -3.833022E+04 -1.440930E+06  2.201424E+04  7.891984E+03
        13  22 -3.778579E+06 -5.909591E+05 -1.181440E+05 -1.423908E+06  8.367520E+04  2.686441E+04
        13  23 -3.775443E+06 -5.297907E+05 -5.700370E+04 -1.424808E+06  5.353616E+04  1.734639E+04
        13  24 -3.772261E+06 -5.469261E+05 -3.268222E+04 -1.440337E+06  2.320564E+04  8.337784E+03
        13  25 -3.675439E+06 -5.397153E+05 -8.859297E+04 -1.382999E+06  8.435086E+04  2.711963E+04
        13  26 -3.711281E+06 -5.024716E+05 -3.950953E+04 -1.404058E+06  5.446867E+04  1.769597E+04
        13  27 -3.747017E+06 -5.434739E+05 -2.703425E+04 -1.439745E+06  2.439708E+04  8.783573E+03
        14   1 -3.729468E+06 -5.385903E+05 -1.480961E+04 -1.426732E+06 -1.700740E+04 -7.485836E+03
        14   2 -3.694814E+06 -5.038208E+05  9.154362E+03 -1.401262E+06 -9.508486E+03 -7.004953E+03
        14   3 -3.639064E+06 -4.987915E+05  2.656421E+04 -1.402231E+06 -2.007036E+03 -6.528075E+03
        14   4 -3.769946E+06 -5.528492E+05 -2.543780E+04 -1.436710E+06 -1.805425E+04 -7.877834E+03
        14   5 -3.780174E+06 -5.357585E+05 -1.328238E+04 -1.424318E+06 -1.055793E+04 -7.398010E+03
        14   6 -3.769307E+06 -5.484083E+05 -7.678489E+03 -1.438366E+06 -3.059610E+03 -6.922407E+03
        14   7 -3.810422E+06 -5.671080E+05 -3.606619E+04 -1.446688E+06 -1.910104E+04 -8.269811E+03
        14   8 -3.865528E+06 -5.676961E+05 -3.571987E+04 -1.447371E+06 -1.160721E+04 -7.791010E+03
        14   9 -3.899534E+06 -5.980240E+05 -4.192277E+04 -1.474494E+06 -4.111945E+03 -7.316646E+03
        14  10 -3.729468E+06 -5.385905E+05 -1.481026E+04 -1.426732E+06 -2.368429E-09 -2.060633E-09
        14  11 -3.694814E+06 -5.038208E+05  9.154099E+03 -1.401262E+06 -1.813045E-09 -7.154265E-10
        14  12 -3.639064E+06 -4.987916E+05  2.656412E+04 -1.402231E+06 -2.642072E-09  1.545388E-09
        14  13 -3.769946E+06 -5.528493E+05 -2.543853E+04 -1.436710E+06 -3.677734E-09 -1.365817E-09
        14  14 -3.780174E+06 -5.357586E+05 -1.328270E+04 -1.424318E+06 -1.011247E-09 -2.935528E-10
        14  15 -3.769307E+06 -5.484083E+05 -7.678597E+03 -1.438366E+06  1.481605E-09  1.059837E-09
        14  16 -3.810423E+06 -5.671082E+05 -3.606701E+04 -1.446688E+06 -2.086248E-09 -6.675266E-10
        14  17 -3.865528E+06 -5.676962E+05 -3.572024E+04 -1.447371E+06 -2.065068E-09 -1.055050E-10
        14  18 -3.899534E+06 -5.980241E+05 -4.192290E+04 -1.474494E+06  4.213804E-10  4.781572E-10
        14  19 -3.729468E+06 -5.385903E+05 -1.480961E+04 -1.426732E+06  1.700740E+04  7.485836E+03
        14  20 -3.694814E+06 -5.038208E+05  9.154362E+03 -1.401262E+06  9.508486E+03  7.004953E+03
        14  21 -3.639064E+06 -4.987915E+05  2.656421E+04 -1.402231E+06  2.007036E+03  6.528075E+03
        14  22 -3.769946E+06 -5.528492E+05 -2.543780E+04 -1.436710E+06  1.805425E+04  7.877834E+03
        14  23 -3.780174E+06 -5.357585E+05 -1.328238E+04 -1.424318E+06  1.055793E+04  7.398010E+03
        14  24 -3.769307E+06 -5.484083E+05 -7.678489E+03 -1.438366E+06  3.059610E+03  6.922407E+03
        14  25 -3.810422E+06 -5.671080E+05 -3.606619E+04 -1.446688E+06  1.910104E+04  8.269811E+03
        14  26 -3.865528E+06 -5.676961E+05 -3.571987E+04 -1.447371E+06  1.160721E+04  7.791010E+03
        14  27 -3.899534E+06 -5.980240E+05 -4.192277E+04 -1.474494E+06  4.111945E+03  7.316646E+03
        15   1 -3.580102E+06 -4.775212E+05  4.392187E+04 -1.386194E+06 -4.640648E+02 -7.298578E+03
        15   2 -3.548569E+06 -4.496679E+05  5.717698E+04 -1.361684E+06  2.156160E+03 -8.560412E+03
        15   3 -3.494887E+06 -4.450392E+05  6.886799E+04 -1.362952E+06  4.749962E+03 -9.748141E+03
        15   4 -3.769321E+06 -5.486391E+05 -6.039997E+03 -1.437596E+06 -1.493785E+03 -7.684497E+03
        15   5 -3.780373E+06 -5.368534E+05 -3.833374E+03 -1.424772E+06  1.163797E+03 -8.932618E+03
        15   6 -3.769285E+06 -5.483004E+05 -3.220848E+03 -1.437728E+06  3.794815E+03 -1.010667E+04
        15   7 -3.958505E+06 -6.197545E+05 -5.600466E+04 -1.488983E+06 -2.523152E+03 -8.070284E+03
        15   8 -4.012124E+06 -6.240354E+05 -6.484821E+04 -1.487839E+06  1.718436E+02 -9.304671E+03
        15   9 -4.043610E+06 -6.515571E+05 -7.531628E+04 -1.512474E+06  2.840131E+03 -1.046502E+04
        15  10 -3.580102E+06 -4.775213E+05  4.392177E+04 -1.386194E+06 -4.860608E-10  2.058104E-09
        15  11 -3.548569E+06 -4.496680E+05  5.717683E+04 -1.361684E+06 -1.588185E-09  7.062291E-11
        15  12 -3.494887E+06 -4.450393E+05  6.886777E+04 -1.362952E+06 -2.029434E-10 -2.282706E-10
        15  13 -3.769321E+06 -5.486392E+05 -6.040112E+03 -1.437596E+06 -7.918030E-10  1.171857E-09
        15  14 -3.780373E+06 -5.368534E+05 -3.833526E+03 -1.424772E+06  1.505127E-09  1.640338E-10
        15  15 -3.769285E+06 -5.483005E+05 -3.221067E+03 -1.437728E+06  3.184324E-09 -1.576210E-10
        15  16 -3.958505E+06 -6.197546E+05 -5.600479E+04 -1.488983E+06  1.821235E-09 -5.327725E-10
        15  17 -4.012124E+06 -6.240355E+05 -6.484838E+04 -1.487839E+06 -3.819131E-10 -3.748207E-11
        15  18 -4.043610E+06 -6.515573E+05 -7.531650E+04 -1.512474E+06  1.494312E-09 -7.537149E-11
        15  19 -3.580102E+06 -4.775212E+05  4.392187E+04 -1.386194E+06  4.640648E+02  7.298578E+03
        15  20 -3.548569E+06 -4.496679E+05  5.717698E+04 -1.361684E+06 -2.156160E+03  8.560412E+03
        15  21 -3.494887E+06 -4.450392E+05  6.886799E+04 -1.362952E+06 -4.749962E+03  9.748141E+03
        15  22 -3.769321E+06 -5.486391E+05 -6.039997E+03 -1.437596E+06  1.493785E+03  7.684497E+03
        15  23 -3.780373E+06 -5.368534E+05 -3.833374E+03 -1.424772E+06 -1.163797E+03  8.932618E+03
        15  24 -3.769285E+06 -5.483004E+05 -3.220848E+03 -1.437728E+06 -3.794815E+03  1.010667E+04
        15  25 -3.958505E+06 -6.197545E+05 -5.600466E+04 -1.488983E+06  2.523152E+03  8.070284E+03
        15  26 -4.012124E+06 -6.240354E+05 -6.484821E+04 -1.487839E+06 -1.718436E+02  9.304671E+03
        15  27 -4.043610E+06 -6.515571E+05 -7.531628E+04 -1.512474E+06 -2.840131E+03  1.046502E+04
        16   1 -3.442346E+06 -4.244852E+05  8.304016E+04 -1.347937E+06  5.666170E+03 -1.062469E+04
        16   2 -3.414854E+06 -4.003747E+05  9.156849E+04 -1.326301E+06  8.484804E+03 -1.156214E+04
        16   3 -3.368005E+06 -3.967980E+05  9.831387E+04 -1.327141E+06  1.125791E+04 -1.237364E+04
        16   4 -3.769911E+06 -5.476525E+05 -3.320790E+03 -1.437019E+06  4.734295E+03 -1.097473E+04
        16   5 -3.779625E+06 -5.376571E+05 -4.448005E+03 -1.425677E+06  7.616277E+03 -1.188882E+04
        16   6 -3.769996E+06 -5.482093E+05 -7.409264E+03 -1.436813E+06  1.045258E+04 -1.267696E+04
        16   7 -4.097371E+06 -6.708130E+05 -8.969070E+04 -1.526057E+06  3.802966E+03 -1.132457E+04
        16   8 -4.144266E+06 -6.749314E+05 -1.004759E+05 -1.525000E+06  6.748312E+03 -1.221528E+04
        16   9 -4.171831E+06 -6.996111E+05 -1.131466E+05 -1.546421E+06  9.647820E+03 -1.298006E+04
        16  10 -3.442346E+06 -4.244854E+05  8.303989E+04 -1.347937E+06 -3.415227E-10 -2.369290E-10
        16  11 -3.414854E+06 -4.003748E+05  9.156810E+04 -1.326301E+06  2.899792E-10  2.210732E-10
        16  12 -3.368006E+06 -3.967982E+05  9.831335E+04 -1.327141E+06 -1.291554E-09  5.288509E-10
        16  13 -3.769911E+06 -5.476527E+05 -3.321057E+03 -1.437019E+06  4.666830E-09 -1.521400E-10
        16  14 -3.779625E+06 -5.376573E+05 -4.448379E+03 -1.425677E+06 -1.136595E-09  2.392490E-11
        16  15 -3.769996E+06 -5.482095E+05 -7.409771E+03 -1.436813E+06  2.262101E-09  5.226166E-10
        16  16 -4.097371E+06 -6.708131E+05 -8.969097E+04 -1.526057E+06  2.997687E-09 -1.998001E-10
        16  17 -4.144267E+06 -6.749316E+05 -1.004763E+05 -1.525000E+06 -3.149599E-10  3.339297E-10
        16  18 -4.171831E+06 -6.996113E+05 -1.131471E+05 -1.546421E+06  2.969247E-09  1.162755E-09
        16  19 -3.442346E+06 -4.244852E+05  8.304016E+04 -1.347937E+06 -5.666170E+03  1.062469E+04
        16  20 -3.414854E+06 -4.003747E+05  9.156849E+04 -1.326301E+06 -8.484804E+03  1.156214E+04
        16  21 -3.368005E+06 -3.967980E+05  9.831387E+04 -1.327141E+06 -1.125791E+04  1.237364E+04
        16  22 -3.769911E+06 -5.476525E+05 -3.320790E+03 -1.437019E+06 -4.734295E+03  1.097473E+04
        16  23 -3.779625E+06 -5.376571E+05 -4.448005E+03 -1.425677E+06 -7.616277E+03  1.188882E+04
        16  24 -3.769996E+06 -5.482093E+05 -7.409264E+03 -1.436813E+06 -1.045258E+04  1.267696E+04
        16  25 -4.097371E+06 -6.708130E+05 -8.969070E+04 -1.526057E+06 -3.802966E+03  1.132457E+04
        16  26 -4.144266E+06 -6.749314E+05 -1.004759E+05 -1.525000E+06 -6.748312E+03  1.221528E+04
        16  27 -4.171831E+06 -6.996111E+05 -1.131466E+05 -1.546421E+06 -9.647820E+03  1.298006E+04
        17   1 -3.324132E+06 -3.790110E+05  1.081744E+05 -1.315217E+06  1.296961E+04 -1.276450E+04
        17   2 -3.301803E+06 -3.583630E+05  1.086867E+05 -1.296828E+06  2.183926E+04 -1.104943E+04
        17   3 -3.267148E+06 -3.605673E+05  1.011260E+05 -1.294890E+06  3.062142E+04 -9.096592E+03
        17   4 -3.771264E+06 -5.465867E+05 -9.517362E+03 -1.436282E+06  1.217561E+04 -1.306384E+04
        17   5 -3.777822E+06 -5.379731E+05 -1.669309E+04 -1.426996E+06  2.116104E+04 -1.130568E+04
        17   6 -3.772082E+06 -5.522398E+05 -3.203873E+04 -1.434163E+06  3.005850E+04 -9.309865E+03
        17   7 -4.218200E+06 -7.141506E+05 -1.272262E+05 -1.557268E+06  1.138224E+04 -1.336295E+04
        17   8 -4.253620E+06 -7.175687E+05 -1.420921E+05 -1.557073E+06  2.048338E+04 -1.156172E+04
        17   9 -4.276765E+06 -7.438949E+05 -1.652250E+05 -1.573331E+06  2.949608E+04 -9.522948E+03
        17  10 -3.324132E+06 -3.790113E+05  1.081738E+05 -1.315217E+06 -1.933529E-09  7.658223E-10
        17  11 -3.301803E+06 -3.583633E+05  1.086856E+05 -1.296828E+06  1.172287E-09  1.070704E-09
        17  12 -3.267149E+06 -3.605677E+05  1.011241E+05 -1.294890E+06  3.833638E-10  4.556152E-10
        17  13 -3.771264E+06 -5.465869E+05 -9.517961E+03 -1.436282E+06  2.172190E-09  7.043563E-10
        17  14 -3.777823E+06 -5.379733E+05 -1.669417E+04 -1.426996E+06  1.249235E-09  1.209653E-09
        17  15 -3.772083E+06 -5.522401E+05 -3.204060E+04 -1.434162E+06  3.070648E-09  1.000771E-09
        17  16 -4.218201E+06 -7.141509E+05 -1.272268E+05 -1.557268E+06  1.033871E-10  9.285478E-10
        17  17 -4.253621E+06 -7.175690E+05 -1.420932E+05 -1.557073E+06 -1.387295E-09  2.481447E-10
        17  18 -4.276766E+06 -7.438952E+05 -1.652268E+05 -1.573331E+06 -5.048893E-10  1.852682E-09
        17  19 -3.324132E+06 -3.790110E+05  1.081744E+05 -1.315217E+06 -1.296961E+04  1.276450E+04
        17  20 -3.301803E+06 -3.583630E+05  1.086867E+05 -1.296828E+06 -2.183926E+04  1.104943E+04
        17  21 -3.267148E+06 -3.605673E+05  1.011260E+05 -1.294890E+06 -3.062142E+04  9.096592E+03
        17  22 -3.771264E+06 -5.465867E+05 -9.517362E+03 -1.436282E+06 -1.217561E+04  1.306384E+04
        17  23 -3.777822E+06 -5.379731E+05 -1.669309E+04 -1.426996E+06 -2.116104E+04  1.130568E+04
        17  24 -3.772082E+06 -5.522398E+05 -3.203873E+04 -1.434163E+06 -3.005850E+04  9.309865E+03
        17  25 -4.218200E+06 -7.141506E+05 -1.272262E+05 -1.557268E+06 -1.138224E+04  1.336295E+04
        17  26 -4.253620E+06 -7.175687E+05 -1.420921E+05 -1.557073E+06 -2.048338E+04  1.156172E+04
        17  27 -4.276765E+06 -7.438949E+05 -1.652250E+05 -1.573331E+06 -2.949608E+04  9.522948E+03
        18   1 -3.231318E+06 -3.457970E+05  1.009160E+05 -1.296416E+06  3.707989E+04 -7.596969E+03
        18   2 -3.213968E+06 -3.176870E+05  7.545465E+04 -1.272735E+06  7.407731E+04  5.255232E+03
        18   3 -3.215741E+06 -3.683902E+05  4.175122E+03 -1.244670E+06  1.105948E+05  1.938460E+04
        18   4 -3.776082E+06 -5.436402E+05 -4.117756E+04 -1.437468E+06  3.624194E+04 -7.913607E+03
        18   5 -3.770477E+06 -5.318735E+05 -7.191542E+04 -1.429236E+06  7.386287E+04  5.172271E+03
        18   6 -3.784147E+06 -5.990860E+05 -1.490001E+05 -1.416616E+06  1.110029E+05  1.953380E+04
        18   7 -4.320558E+06 -7.414710E+05 -1.832966E+05 -1.578410E+06  3.540479E+04 -8.229970E+03
        18   8 -4.326685E+06 -7.460377E+05 -2.193126E+05 -1.585608E+06  7.364862E+04  5.089382E+03
        18   9 -4.352237E+06 -8.297477E+05 -3.022042E+05 -1.588413E+06  1.114105E+05  1.968279E+04
        18  10 -3.231320E+06 -3.457974E+05  1.009133E+05 -1.296416E+06 -1.800628E-09  4.762397E-12
        18  11 -3.213974E+06 -3.176885E+05  7.544424E+04 -1.272735E+06 -2.965296E-09 -1.265533E-09
        18  12 -3.215755E+06 -3.683940E+05  4.151296E+03 -1.244672E+06  1.273830E-09 -3.991688E-10
        18  13 -3.776083E+06 -5.436406E+05 -4.118016E+04 -1.437468E+06 -1.351072E-09  2.378904E-10
        18  14 -3.770483E+06 -5.318750E+05 -7.192579E+04 -1.429236E+06 -2.017052E-09 -1.505581E-09
        18  15 -3.784160E+06 -5.990898E+05 -1.490241E+05 -1.416618E+06  3.373296E-09  1.830737E-11
        18  16 -4.320559E+06 -7.414714E+05 -1.832991E+05 -1.578410E+06 -1.635274E-09  2.774078E-11
        18  17 -4.326691E+06 -7.460392E+05 -2.193229E+05 -1.585608E+06  1.506178E-09 -1.377382E-09
        18  18 -4.352250E+06 -8.297515E+05 -3.022285E+05 -1.588415E+06  3.273659E-10  1.873805E-09
        18  19 -3.231318E+06 -3.457970E+05  1.009160E+05 -1.296416E+06 -3.707989E+04  7.596969E+03
        18  20 -3.213968E+06 -3.176870E+05  7.545465E+04 -1.272735E+06 -7.407731E+04 -5.255232E+03
        18  21 -3.215741E+06 -3.683902E+05  4.175122E+03 -1.244670E+06 -1.105948E+05 -1.938460E+04
        18  22 -3.776082E+06 -5.436402E+05 -4.117756E+04 -1.437468E+06 -3.624194E+04  7.913607E+03
        18  23 -3.770477E+06 -5.318735E+05 -7.191542E+04 -1.429236E+06 -7.386287E+04 -5.172271E+03
        18  24 -3.784147E+06 -5.990860E+05 -1.490001E+05 -1.416616E+06 -1.110029E+05 -1.953380E+04
        18  25 -4.320558E+06 -7.414710E+05 -1.832966E+05 -1.578410E+06 -3.540479E+04  8.229970E+03
        18  26 -4.326685E+06 -7.460377E+05 -2.193126E+05 -1.585608E+06 -7.364862E+04 -5.089382E+03
        18  27 -4.352237E+06 -8.297477E+05 -3.022042E+05 -1.588413E+06 -1.114105E+05 -1.968279E+04
        19   1 -3.157227E+06 -3.481497E+05 -2.568175E+04 -1.351816E+06  1.414879E+05  2.823998E+04
        19   2 -3.142760E+06 -1.974019E+05 -1.447568E+05 -1.230970E+06  3.003263E+05  8.848274E+04
        19   3 -3.389459E+06 -7.013044E+05 -5.607056E+05 -9.461952E+05  4.534749E+05  1.637818E+05
        19   4 -3.808894E+06 -5.236351E+05 -1.835854E+05 -1.458131E+06  1.376074E+05  2.679098E+04
        19   5 -3.716431E+06 -4.636983E+05 -3.052359E+05 -1.438787E+06  3.040168E+05  8.984785E+04
        19   6 -3.886932E+06 -1.060356E+06 -7.300063E+05 -1.255424E+06  4.647536E+05  1.678982E+05
        19   7 -4.460138E+06 -6.991310E+05 -3.415161E+05 -1.564367E+06  1.337313E+05  2.534257E+04
        19   8 -4.289774E+06 -7.299216E+05 -4.657452E+05 -1.646412E+06  3.077033E+05  9.121072E+04
        19   9 -4.384090E+06 -1.419125E+06 -8.993232E+05 -1.564363E+06  4.760223E+05  1.720029E+05
        19  10 -3.157249E+06 -3.481560E+05 -2.572109E+04 -1.351819E+06  4.836780E-09  9.543781E-10
        19  11 -3.142859E+06 -1.974347E+05 -1.449421E+05 -1.230991E+06 -3.412911E-09  7.424078E-10
        19  12 -3.389688E+06 -7.013889E+05 -5.611450E+05 -9.462553E+05 -1.145353E-09  1.304063E-10
        19  13 -3.808914E+06 -5.236410E+05 -1.836226E+05 -1.458134E+06  4.616419E-09  1.893172E-09
        19  14 -3.716533E+06 -4.637321E+05 -3.054260E+05 -1.438809E+06 -4.830498E-10  4.179780E-09
        19  15 -3.887173E+06 -1.060445E+06 -7.304684E+05 -1.255487E+06  1.660686E-10 -4.985246E-10
        19  16 -4.460157E+06 -6.991366E+05 -3.415512E+05 -1.564370E+06  2.133405E-09  1.613497E-09
        19  17 -4.289878E+06 -7.299562E+05 -4.659403E+05 -1.646435E+06  2.016814E-09  5.120325E-10
        19  18 -4.384342E+06 -1.419218E+06 -8.998085E+05 -1.564430E+06 -6.348060E-10  2.343524E-10
        19  19 -3.157227E+06 -3.481497E+05 -2.568175E+04 -1.351816E+06 -1.414879E+05 -2.823998E+04
        19  20 -3.142760E+06 -1.974019E+05 -1.447568E+05 -1.230970E+06 -3.003263E+05 -8.848274E+04
        19  21 -3.389459E+06 -7.013044E+05 -5.607056E+05 -9.461952E+05 -4.534749E+05 -1.637818E+05
        19  22 -3.808894E+06 -5.236351E+05 -1.835854E+05 -1.458131E+06 -1.376074E+05 -2.679098E+04
        19  23 -3.716431E+06 -4.636983E+05 -3.052359E+05 -1.438787E+06 -3.040168E+05 -8.984785E+04
        19  24 -3.886932E+06 -1.060356E+06 -7.300063E+05 -1.255424E+06 -4.647536E+05 -1.678982E+05
        19  25 -4.460138E+06 -6.991310E+05 -3.415161E+05 -1.564367E+06 -1.337313E+05 -2.534257E+04
        19  26 -4.289774E+06 -7.299216E+05 -4.657452E+05 -1.646412E+06 -3.077033E+05 -9.121072E+04
        19  27 -4.384090E+06 -1.419125E+06 -8.993232E+05 -1.564363E+06 -4.760223E+05 -1.720029E+05
        20   1 -1.222746E+06  3.518585E+04  4.419806E+04  1.187971E+04  3.021992E+04  5.793580E-01
        20   2 -1.228728E+06 -4.480588E+03  1.942923E+04  3.516554E+03  1.975956E+04  1.121359E-01
        20   3 -1.222769E+06 -1.866932E+03  1.205090E+04 -4.846390E+03  9.299321E+03 -7.273031E-02
        20   4 -1.222746E+06  3.518558E+04  4.419802E+04  2.239995E-08  3.021992E+04 -5.731653E-10
        20   5 -1.228728E+06 -4.480611E+03  1.942923E+04  2.647517E-08  1.975956E+04 -7.926731E-10
        20   6 -1.222769E+06 -1.866976E+03  1.205090E+04  1.977934E-08  9.299321E+03  1.645574E-09
        20   7 -1.222746E+06  3.518585E+04  4.419806E+04 -1.187971E+04  3.021992E+04 -5.793580E-01
        20   8 -1.228728E+06 -4.480588E+03  1.942923E+04 -3.516554E+03  1.975956E+04 -1.121359E-01
        20   9 -1.222769E+06 -1.866932E+03  1.205090E+04  4.846390E+03  9.299321E+03  7.273031E-02
        20  10 -1.222747E+06  3.518560E+04  4.419634E+04  1.187971E+04  1.566162E-09 -7.699086E-10
        20  11 -1.228728E+06 -4.480693E+03  1.942850E+04  3.516554E+03  3.552721E-09 -1.518116E-09
        20  12 -1.222769E+06 -1.866955E+03  1.205074E+04 -4.846390E+03 -1.983644E-09  6.857057E-10
        20  13 -1.222747E+06  3.518534E+04  4.419630E+04  9.403699E-09 -9.987671E-10 -3.765890E-10
        20  14 -1.228728E+06 -4.480716E+03  1.942849E+04  1.791418E-08 -1.290560E-26 -5.250308E-10
        20  15 -1.222769E+06 -1.866999E+03  1.205074E+04  3.821899E-09 -2.013194E-09  9.198904E-10
        20  16 -1.222747E+06  3.518560E+04  4.419634E+04 -1.187971E+04 -2.318641E-09  4.847538E-11
        20  17 -1.228728E+06 -4.480693E+03  1.942850E+04 -3.516554E+03 -1.956681E-09  3.891052E-10
        20  18 -1.222769E+06 -1.866955E+03  1.205074E+04  4.846390E+03  2.846296E-09  1.187804E-09
        20  19 -1.222746E+06  3.518585E+04  4.419806E+04  1.187971E+04 -3.021992E+04 -5.793580E-01
        20  20 -1.228728E+06 -4.480588E+03  1.942923E+04  3.516554E+03 -1.975956E+04 -1.121359E-01
        20  21 -1.222769E+06 -1.866932E+03  1.205090E+04 -4.846390E+03 -9.299321E+03  7.273031E-02
        20  22 -1.222746E+06  3.518558E+04  4.419802E+04  1.792288E-08 -3.021992E+04 -1.653284E-10
        20  23 -1.228728E+06 -4.480611E+03  1.942923E+04 -7.869665E-09 -1.975956E+04 -3.553897E-10
        20  24 -1.222769E+06 -1.866976E+03  1.205090E+04  2.875436E-08 -9.299321E+03  1.827968E-10
        20  25 -1.222746E+06  3.518585E+04  4.419806E+04 -1.187971E+04 -3.021992E+04  5.793580E-01
        20  26 -1.228728E+06 -4.480588E+03  1.942923E+04 -3.516554E+03 -1.975956E+04  1.121359E-01
        20  27 -1.222769E+06 -1.866932E+03  1.205090E+04  4.846390E+03 -9.299321E+03 -7.273031E-02
        21   1 -1.225111E+06  3.446196E+03  9.802546E+03  1.032263E+03  7.450469E+03  1.241142E-02
        21   2 -1.225803E+06 -4.603185E+02  5.022622E+03  2.595934E+02  4.885019E+03  2.046481E-03
        21   3 -1.225114E+06 -1.824928E+02  2.961546E+03 -5.130883E+02  2.319537E+03 -1.920616E-03
        21   4 -1.225111E+06  3.446194E+03  9.802545E+03  1.770110E-08  7.450469E+03  1.468270E-09
        21   5 -1.225803E+06 -4.603187E+02  5.022622E+03  9.822949E-09  4.885019E+03 -7.756074E-10
        21   6 -1.225114E+06 -1.824933E+02  2.961546E+03  3.375280E-10  2.319537E+03  9.769590E-10
        21   7 -1.225111E+06  3.446196E+03  9.802546E+03 -1.032263E+03  7.450469E+03 -1.241142E-02
        21   8 -1.225803E+06 -4.603185E+02  5.022622E+03 -2.595934E+02  4.885019E+03 -2.046482E-03
        21   9 -1.225114E+06 -1.824928E+02  2.961546E+03  5.130883E+02  2.319537E+03  1.920618E-03
        21  10 -1.225111E+06  3.446181E+03  9.802441E+03  1.032263E+03 -1.810609E-09  1.310241E-09
        21  11 -1.225803E+06 -4.603250E+02  5.022577E+03  2.595934E+02 -2.052923E-09 -8.687171E-11
        21  12 -1.225114E+06 -1.824942E+02  2.961536E+03 -5.130883E+02 -3.389334E-09 -5.663777E-10
        21  13 -1.225111E+06  3.446179E+03  9.802441E+03  1.319044E-08 -3.024428E-09  8.378432E-10
        21  14 -1.225803E+06 -4.603251E+02  5.022577E+03  2.486789E-08 -2.596359E-09 -6.348507E-10
        21  15 -1.225114E+06 -1.824947E+02  2.961536E+03 -1.136343E-09  2.214229E-09  1.458432E-10
        21  16 -1.225111E+06  3.446181E+03  9.802441E+03 -1.032263E+03  1.959352E-10  4.318676E-10
        21  17 -1.225803E+06 -4.603250E+02  5.022577E+03 -2.595934E+02  1.645229E-09 -1.215008E-09
        21  18 -1.225114E+06 -1.824942E+02  2.961536E+03  5.130883E+02  3.638648E-09  9.211435E-10
        21  19 -1.225111E+06  3.446196E+03  9.802546E+03  1.032263E+03 -7.450469E+03 -1.241142E-02
        21  20 -1.225803E+06 -4.603185E+02  5.022622E+03  2.595934E+02 -4.885019E+03 -2.046480E-03
        21  21 -1.225114E+06 -1.824928E+02  2.961546E+03 -5.130883E+02 -2.319537E+03  1.920615E-03
        21  22 -1.225111E+06  3.446194E+03  9.802545E+03  3.883066E-08 -7.450469E+03  2.012711E-10
        21  23 -1.225803E+06 -4.603187E+02  5.022622E+03  3.130131E-08 -4.885019E+03 -4.649859E-10
        21  24 -1.225114E+06 -1.824933E+02  2.961546E+03  2.160971E-08 -2.319537E+03 -6.297119E-10
        21  25 -1.225111E+06  3.446196E+03  9.802546E+03 -1.032263E+03 -7.450469E+03  1.241142E-02
        21  26 -1.225803E+06 -4.603185E+02  5.022622E+03 -2.595934E+02 -4.885019E+03  2.046479E-03
        21  27 -1.225114E+06 -1.824928E+02  2.961546E+03  5.130883E+02 -2.319537E+03 -1.920616E-03
        22   1 -1.225380E+06  3.302826E+02  2.301958E+03  6.557596E+01  1.855598E+03  1.963709E-04
        22   2 -1.225472E+06 -4.932759E+01  1.240492E+03  2.840065E+00  1.234763E+03  5.658870E-06
        22   3 -1.225380E+06 -1.747130E+01  6.866852E+02 -5.989586E+01  6.139287E+02 -5.934161E-05
        22   4 -1.225380E+06  3.302826E+02  2.301958E+03  7.601768E-09  1.855598E+03  1.214807E-09
        22   5 -1.225472E+06 -4.932759E+01  1.240492E+03 -1.849653E-08  1.234763E+03 -6.695913E-10
        22   6 -1.225380E+06 -1.747131E+01  6.866852E+02 -5.850288E-09  6.139287E+02  3.310775E-11
        22   7 -1.225380E+06  3.302826E+02  2.301958E+03 -6.557596E+01  1.855598E+03 -1.963683E-04
        22   8 -1.225472E+06 -4.932759E+01  1.240492E+03 -2.840065E+00  1.234763E+03 -5.660501E-06
        22   9 -1.225380E+06 -1.747130E+01  6.866852E+02  5.989586E+01  6.139287E+02  5.934157E-05
        22  10 -1.225380E+06  3.302816E+02  2.301952E+03  6.557596E+01 -1.669122E-09 -2.840613E-10
        22  11 -1.225472E+06 -4.932800E+01  1.240489E+03  2.840065E+00 -3.184790E-10  4.972314E-11
        22  12 -1.225380E+06 -1.747141E+01  6.866845E+02 -5.989586E+01 -1.383827E-09 -5.739325E-11
        22  13 -1.225380E+06  3.302816E+02  2.301952E+03  7.508255E-09 -1.143689E-09  4.920008E-10
        22  14 -1.225472E+06 -4.932800E+01  1.240489E+03 -1.307088E-09  3.323256E-10 -1.772945E-10
        22  15 -1.225380E+06 -1.747141E+01  6.866845E+02 -1.510898E-09 -4.338536E-09 -3.221174E-10
        22  16 -1.225380E+06  3.302816E+02  2.301952E+03 -6.557596E+01 -5.055319E-10  1.335098E-09
        22  17 -1.225472E+06 -4.932800E+01  1.240489E+03 -2.840065E+00  1.394922E-09 -6.033799E-10
        22  18 -1.225380E+06 -1.747141E+01  6.866845E+02  5.989586E+01 -9.188642E-10 -5.786987E-10
        22  19 -1.225380E+06  3.302826E+02  2.301958E+03  6.557596E+01 -1.855598E+03 -1.963712E-04
        22  20 -1.225472E+06 -4.932759E+01  1.240492E+03  2.840065E+00 -1.234763E+03 -5.658568E-06
        22  21 -1.225380E+06 -1.747130E+01  6.866852E+02 -5.989586E+01 -6.139287E+02  5.934137E-05
        22  22 -1.225380E+06  3.302826E+02  2.301958E+03  2.464832E-08 -1.855598E+03 -2.272980E-10
        22  23 -1.225472E+06 -4.932759E+01  1.240492E+03  2.968209E-09 -1.234763E+03  1.784102E-10
        22  24 -1.225380E+06 -1.747131E+01  6.866852E+02  2.829544E-09 -6.139287E+02 -7.097002E-10
        22  25 -1.225380E+06  3.302826E+02  2.301958E+03 -6.557596E+01 -1.855598E+03  1.963708E-04
        22  26 -1.225472E+06 -4.932759E+01  1.240492E+03 -2.840065E+00 -1.234763E+03  5.658924E-06
        22  27 -1.225380E+06 -1.747130E+01  6.866852E+02  5.989586E+01 -6.139287E+02 -5.934289E-05
        23   1 -1.225416E+06  2.998949E+01  4.984406E+02 -4.342343E+00  5.078003E+02 -3.558467E-06
        23   2 -1.225427E+06 -4.683334E+00  2.030826E+02 -7.864313E+00  4.068374E+02 -5.164340E-06
        23   3 -1.225417E+06 -4.763115E+00 -1.780133E+01 -1.138623E+01  3.058761E+02 -5.620464E-06
        23   4 -1.225416E+06  2.998949E+01  4.984406E+02  5.356067E-11  5.078003E+02  1.226161E-10
        23   5 -1.225427E+06 -4.683334E+00  2.030826E+02 -1.837573E-08  4.068374E+02 -9.025410E-10
        23   6 -1.225417E+06 -4.763115E+00 -1.780133E+01  1.110403E-08  3.058761E+02 -2.940781E-10
        23   7 -1.225416E+06  2.998949E+01  4.984406E+02  4.342343E+00  5.078003E+02  3.558509E-06
        23   8 -1.225427E+06 -4.683334E+00  2.030826E+02  7.864313E+00  4.068374E+02  5.162335E-06
        23   9 -1.225417E+06 -4.763115E+00 -1.780133E+01  1.138623E+01  3.058761E+02  5.619912E-06
        23  10 -1.225416E+06  2.998943E+01  4.984401E+02 -4.342343E+00 -3.299694E-09 -3.280822E-10
        23  11 -1.225427E+06 -4.683378E+00  2.030823E+02 -7.864313E+00 -3.430854E-09 -2.827408E-11
        23  12 -1.225417E+06 -4.763140E+00 -1.780151E+01 -1.138623E+01 -2.960894E-09  7.777972E-11
        23  13 -1.225416E+06  2.998943E+01  4.984401E+02  4.389799E-09 -4.510468E-09 -9.398965E-11
        23  14 -1.225427E+06 -4.683379E+00  2.030823E+02  5.303904E-09  7.597275E-10  4.708132E-11
        23  15 -1.225417E+06 -4.763140E+00 -1.780151E+01  8.366690E-09 -5.035412E-10 -1.546059E-10
        23  16 -1.225416E+06  2.998943E+01  4.984401E+02  4.342343E+00  8.553117E-10 -1.003887E-11
        23  17 -1.225427E+06 -4.683378E+00  2.030823E+02  7.864313E+00  6.921429E-10  1.241193E-10
        23  18 -1.225417E+06 -4.763140E+00 -1.780151E+01  1.138623E+01 -4.567773E-10 -3.976174E-10
        23  19 -1.225416E+06  2.998949E+01  4.984406E+02 -4.342343E+00 -5.078003E+02  3.558226E-06
        23  20 -1.225427E+06 -4.683334E+00  2.030826E+02 -7.864313E+00 -4.068374E+02  5.164359E-06
        23  21 -1.225417E+06 -4.763115E+00 -1.780133E+01 -1.138623E+01 -3.058761E+02  5.620645E-06
        23  22 -1.225416E+06  2.998949E+01  4.984406E+02  1.302025E-08 -5.078003E+02 -3.970238E-10
        23  23 -1.225427E+06 -4.683334E+00  2.030826E+02  7.455737E-09 -4.068374E+02  1.045986E-09
        23  24 -1.225417E+06 -4.763115E+00 -1.780133E+01  2.449021E-08 -3.058761E+02  1.080826E-11
        23  25 -1.225416E+06  2.998949E+01  4.984406E+02  4.342343E+00 -5.078003E+02 -3.558825E-06
        23  26 -1.225427E+06 -4.683334E+00  2.030826E+02  7.864313E+00 -4.068374E+02 -5.162406E-06
        23  27 -1.225417E+06 -4.763115E+00 -1.780133E+01  1.138623E+01 -3.058761E+02 -5.620872E-06
        24   1 -1.225430E+06  4.468366E+00 -1.247240E+02 -1.372131E+01  3.187374E+02 -7.057116E-06
        24   2 -1.225411E+06  7.650410E+00 -3.786300E+02 -9.316158E+00  5.067583E+02 -7.617598E-06
        24   3 -1.225430E+06 -4.317066E+01 -7.686256E+02 -4.910936E+00  6.947818E+02 -5.504774E-06
        24   4 -1.225430E+06  4.468366E+00 -1.247240E+02 -4.087199E-10  3.187374E+02  4.775428E-10
        24   5 -1.225411E+06  7.650410E+00 -3.786300E+02  8.996144E-09  5.067583E+02  9.442620E-10
        24   6 -1.225430E+06 -4.317066E+01 -7.686256E+02 -4.753014E-09  6.947818E+02  7.827023E-10
        24   7 -1.225430E+06  4.468366E+00 -1.247240E+02  1.372131E+01  3.187374E+02  7.057843E-06
        24   8 -1.225411E+06  7.650410E+00 -3.786300E+02  9.316158E+00  5.067583E+02  7.619212E-06
        24   9 -1.225430E+06 -4.317066E+01 -7.686256E+02  4.910936E+00  6.947818E+02  5.506645E-06
        24  10 -1.225430E+06  4.468339E+00 -1.247241E+02 -1.372131E+01 -7.024613E-10 -5.653028E-11
        24  11 -1.225411E+06  7.650341E+00 -3.786305E+02 -9.316158E+00  3.697171E-10  3.263814E-10
        24  12 -1.225430E+06 -4.317079E+01 -7.686265E+02 -4.910936E+00  1.641876E-09  7.149902E-10
        24  13 -1.225430E+06  4.468339E+00 -1.247241E+02 -3.551346E-10 -1.009198E-09 -1.398608E-10
        24  14 -1.225411E+06  7.650341E+00 -3.786305E+02 -3.908558E-09 -3.322238E-10  2.140859E-10
        24  15 -1.225430E+06 -4.317079E+01 -7.686265E+02 -7.459881E-09 -1.474940E-10  1.201630E-10
        24  16 -1.225430E+06  4.468339E+00 -1.247241E+02  1.372131E+01  1.462163E-09 -3.731931E-10
        24  17 -1.225411E+06  7.650341E+00 -3.786305E+02  9.316158E+00 -2.023603E-09  6.274012E-11
        24  18 -1.225430E+06 -4.317079E+01 -7.686265E+02  4.910936E+00 -3.232692E-09 -3.450646E-10
        24  19 -1.225430E+06  4.468366E+00 -1.247240E+02 -1.372131E+01 -3.187374E+02  7.057189E-06
        24  20 -1.225411E+06  7.650410E+00 -3.786300E+02 -9.316158E+00 -5.067583E+02  7.618457E-06
        24  21 -1.225430E+06 -4.317066E+01 -7.686256E+02 -4.910936E+00 -6.947818E+02  5.506255E-06
        24  22 -1.225430E+06  4.468366E+00 -1.247240E+02  4.008423E-09 -3.187374E+02 -7.708194E-10
        24  23 -1.225411E+06  7.650410E+00 -3.786300E+02 -1.251064E-08 -5.067583E+02 -5.826111E-10
        24  24 -1.225430E+06 -4.317066E+01 -7.686256E+02 -2.201287E-08 -6.947818E+02 -5.351082E-10
        24  25 -1.225430E+06  4.468366E+00 -1.247240E+02  1.372131E+01 -3.187374E+02 -7.058744E-06
        24  26 -1.225411E+06  7.650410E+00 -3.786300E+02  9.316158E+00 -5.067583E+02 -7.619686E-06
        24  27 -1.225430E+06 -4.317066E+01 -7.686256E+02  4.910936E+00 -6.947818E+02 -5.507347E-06
        25   1 -1.225481E+06  2.518523E+01 -1.028501E+03 -8.559140E+01  8.557951E+02 -1.182077E-04
        25   2 -1.225348E+06  7.136627E+01 -1.811994E+03  4.671268E+00  1.762522E+03  1.328494E-05
        25   3 -1.225482E+06 -4.768038E+02 -3.335264E+03  9.493400E+01  2.669248E+03  4.089369E-04
        25   4 -1.225481E+06  2.518522E+01 -1.028501E+03  4.486516E-09  8.557951E+02 -7.083670E-11
        25   5 -1.225348E+06  7.136627E+01 -1.811994E+03 -8.293175E-09  1.762522E+03 -1.511368E-09
        25   6 -1.225482E+06 -4.768038E+02 -3.335264E+03  1.658899E-08  2.669248E+03 -1.081440E-09
        25   7 -1.225481E+06  2.518523E+01 -1.028501E+03  8.559140E+01  8.557951E+02  1.182074E-04
        25   8 -1.225348E+06  7.136627E+01 -1.811994E+03 -4.671268E+00  1.762522E+03 -1.328828E-05
        25   9 -1.225482E+06 -4.768038E+02 -3.335264E+03 -9.493400E+01  2.669248E+03 -4.089392E-04
        25  10 -1.225481E+06  2.518504E+01 -1.028502E+03 -8.559140E+01  2.577151E-09  4.519151E-10
        25  11 -1.225348E+06  7.136543E+01 -1.812000E+03  4.671268E+00 -1.764414E-09 -3.352118E-10
        25  12 -1.225482E+06 -4.768057E+02 -3.335277E+03  9.493400E+01 -4.321565E-10 -1.076174E-09
        25  13 -1.225481E+06  2.518502E+01 -1.028502E+03 -4.141838E-09 -1.914650E-09 -3.086271E-11
        25  14 -1.225348E+06  7.136543E+01 -1.812000E+03 -1.866034E-09 -1.297862E-09 -3.567105E-10
        25  15 -1.225482E+06 -4.768057E+02 -3.335277E+03 -3.896002E-09 -5.952969E-10 -6.979386E-10
        25  16 -1.225481E+06  2.518504E+01 -1.028502E+03  8.559140E+01 -9.877055E-10 -4.636717E-10
        25  17 -1.225348E+06  7.136543E+01 -1.812000E+03 -4.671268E+00 -7.613616E-10 -3.530125E-10
        25  18 -1.225482E+06 -4.768057E+02 -3.335277E+03 -9.493400E+01 -1.129315E-09 -3.695042E-10
        25  19 -1.225481E+06  2.518523E+01 -1.028501E+03 -8.559140E+01 -8.557951E+02  1.182087E-04
        25  20 -1.225348E+06  7.136627E+01 -1.811994E+03  4.671268E+00 -1.762522E+03 -1.328544E-05
        25  21 -1.225482E+06 -4.768038E+02 -3.335264E+03  9.493400E+01 -2.669248E+03 -4.089390E-04
        25  22 -1.225481E+06  2.518522E+01 -1.028501E+03 -8.467572E-09 -8.557951E+02  6.907518E-11
        25  23 -1.225348E+06  7.136627E+01 -1.811994E+03 -8.350962E-09 -1.762522E+03  7.225910E-10
        25  24 -1.225482E+06 -4.768038E+02 -3.335264E+03  1.275630E-08 -2.669248E+03 -3.033785E-10
        25  25 -1.225481E+06  2.518523E+01 -1.028501E+03  8.559140E+01 -8.557951E+02 -1.182087E-04
        25  26 -1.225348E+06  7.136627E+01 -1.811994E+03 -4.671268E+00 -1.762522E+03  1.328722E-05
        25  27 -1.225482E+06 -4.768038E+02 -3.335264E+03 -9.493400E+01 -2.669248E+03  4.089382E-04
        26   1 -1.225865E+06  2.635074E+02 -4.284466E+03 -7.404742E+02  3.340919E+03 -3.992302E-03
        26   2 -1.224870E+06  6.645756E+02 -7.255748E+03  3.749123E+02  7.047077E+03  4.263689E-03
        26   3 -1.225870E+06 -4.975036E+03 -1.415358E+04  1.490283E+03  1.075317E+04  2.586142E-02
        26   4 -1.225865E+06  2.635064E+02 -4.284466E+03  1.762340E-08  3.340919E+03 -1.916258E-10
        26   5 -1.224870E+06  6.645753E+02 -7.255748E+03 -3.403976E-10  7.047077E+03  6.462814E-10
        26   6 -1.225870E+06 -4.975040E+03 -1.415358E+04  5.430097E-10  1.075317E+04  5.415445E-10
        26   7 -1.225865E+06  2.635074E+02 -4.284466E+03  7.404742E+02  3.340919E+03  3.992301E-03
        26   8 -1.224870E+06  6.645756E+02 -7.255748E+03 -3.749123E+02  7.047077E+03 -4.263688E-03
        26   9 -1.225870E+06 -4.975036E+03 -1.415358E+04 -1.490283E+03  1.075317E+04 -2.586142E-02
        26  10 -1.225865E+06  2.635044E+02 -4.284487E+03 -7.404742E+02 -5.698028E-10 -5.179758E-10
        26  11 -1.224871E+06  6.645622E+02 -7.255841E+03  3.749123E+02 -7.351336E-10  1.203202E-09
        26  12 -1.225870E+06 -4.975067E+03 -1.415379E+04  1.490283E+03 -1.177588E-09  5.302615E-10
        26  13 -1.225865E+06  2.635034E+02 -4.284487E+03  4.894141E-09  1.026005E-09 -7.518257E-11
        26  14 -1.224871E+06  6.645620E+02 -7.255841E+03  8.300589E-09  9.805347E-10  1.188122E-09
        26  15 -1.225870E+06 -4.975071E+03 -1.415380E+04 -8.728650E-09  8.133016E-10  4.162123E-10
        26  16 -1.225865E+06  2.635044E+02 -4.284487E+03  7.404742E+02  6.370476E-10  4.011676E-10
        26  17 -1.224871E+06  6.645622E+02 -7.255841E+03 -3.749123E+02  3.481065E-10  1.270736E-09
        26  18 -1.225870E+06 -4.975067E+03 -1.415379E+04 -1.490283E+03 -7.590286E-10  3.306011E-10
        26  19 -1.225865E+06  2.635074E+02 -4.284466E+03 -7.404742E+02 -3.340919E+03  3.992301E-03
        26  20 -1.224870E+06  6.645756E+02 -7.255748E+03  3.749123E+02 -7.047077E+03 -4.263687E-03
        26  21 -1.225870E+06 -4.975036E+03 -1.415358E+04  1.490283E+03 -1.075317E+04 -2.586142E-02
        26  22 -1.225865E+06  2.635064E+02 -4.284466E+03  9.363826E-09 -3.340919E+03  6.747717E-12
        26  23 -1.224870E+06  6.645753E+02 -7.255748E+03 -2.931300E-10 -7.047077E+03  1.783819E-09
        26  24 -1.225870E+06 -4.975040E+03 -1.415358E+04  2.449506E-08 -1.075317E+04  2.970163E-10
        26  25 -1.225865E+06  2.635074E+02 -4.284466E+03  7.404742E+02 -3.340919E+03 -3.992301E-03
        26  26 -1.224870E+06  6.645756E+02 -7.255748E+03 -3.749123E+02 -7.047077E+03  4.263690E-03
        26  27 -1.225870E+06 -4.975036E+03 -1.415358E+04 -1.490283E+03 -1.075317E+04  2.586142E-02
        27   1 -1.229250E+06  2.695409E+03 -1.739817E+04 -6.996358E+03  1.342237E+04 -1.515481E-01
        27   2 -1.220648E+06  6.468447E+03 -2.804623E+04  5.076850E+03  2.852386E+04  2.336932E-01
        27   3 -1.229282E+06 -5.079396E+04 -6.379847E+04  1.715006E+04  4.362563E+04  1.207408E+00
        27   4 -1.229250E+06  2.695317E+03 -1.739818E+04  3.607059E-08  1.342237E+04  3.895335E-10
        27   5 -1.220648E+06  6.468398E+03 -2.804624E+04 -4.094636E-09  2.852386E+04  2.466097E-10
        27   6 -1.229282E+06 -5.079452E+04 -6.379855E+04 -1.519486E-08  4.362563E+04 -4.387426E-11
        27   7 -1.229250E+06  2.695409E+03 -1.739817E+04  6.996358E+03  1.342237E+04  1.515481E-01
        27   8 -1.220648E+06  6.468447E+03 -2.804623E+04 -5.076850E+03  2.852386E+04 -2.336932E-01
        27   9 -1.229282E+06 -5.079396E+04 -6.379847E+04 -1.715006E+04  4.362563E+04 -1.207408E+00
        27  10 -1.229250E+06  2.695360E+03 -1.739851E+04 -6.996358E+03 -7.628458E-09  1.462783E-12
        27  11 -1.220649E+06  6.468228E+03 -2.804776E+04  5.076850E+03 -1.958032E-10  1.256349E-10
        27  12 -1.229284E+06 -5.079448E+04 -6.380206E+04  1.715006E+04  5.260520E-09 -4.002506E-11
        27  13 -1.229250E+06  2.695268E+03 -1.739852E+04  1.622302E-08 -4.901291E-10 -1.425174E-10
        27  14 -1.220649E+06  6.468179E+03 -2.804777E+04  6.667879E-09 -2.812380E-09 -3.281184E-11
        27  15 -1.229285E+06 -5.079503E+04 -6.380214E+04  7.874941E-09 -3.022898E-09  8.081114E-12
        27  16 -1.229250E+06  2.695360E+03 -1.739851E+04  6.996358E+03  7.256656E-09 -2.872526E-10
        27  17 -1.220649E+06  6.468228E+03 -2.804776E+04 -5.076850E+03  6.790512E-10 -2.147517E-10
        27  18 -1.229284E+06 -5.079448E+04 -6.380206E+04 -1.715006E+04 -4.399306E-09 -9.700307E-11
        27  19 -1.229250E+06  2.695409E+03 -1.739817E+04 -6.996358E+03 -1.342237E+04  1.515481E-01
        27  20 -1.220648E+06  6.468447E+03 -2.804623E+04  5.076850E+03 -2.852386E+04 -2.336932E-01
        27  21 -1.229282E+06 -5.079396E+04 -6.379847E+04  1.715006E+04 -4.362563E+04 -1.207408E+00
        27  22 -1.229250E+06  2.695317E+03 -1.739818E+04 -1.651358E-08 -1.342237E+04 -6.066854E-10
        27  23 -1.220648E+06  6.468398E+03 -2.804624E+04  1.313296E-08 -2.852386E+04 -3.469743E-10
        27  24 -1.229282E+06 -5.079452E+04 -6.379855E+04  6.377043E-08 -4.362563E+04  5.446015E-12
        27  25 -1.229250E+06  2.695409E+03 -1.739817E+04  6.996358E+03 -1.342237E+04 -1.515481E-01
        27  26 -1.220648E+06  6.468447E+03 -2.804623E+04 -5.076850E+03 -2.852386E+04  2.336932E-01
        27  27 -1.229282E+06 -5.079396E+04 -6.379847E+04 -1.715006E+04 -4.362563E+04  1.207408E+00
        28   1  5.444501E+05  1.487244E+06  6.341324E+05 -1.160664E+05  8.358912E+03  3.114615E+05
        28   2  1.468223E+05  1.433589E+06  3.861296E+05 -3.471526E+04  2.649279E+04  1.937235E+05
        28   3  1.774901E+05  1.502821E+06  3.218787E+05  5.245169E+04  2.783264E+04  7.598078E+04
        28   4  3.527466E+05  7.171559E+05  4.449037E+05  3.978982E+03  8.421366E+03  2.965786E+05
        28   5 -4.535553E+04  6.565122E+05  2.016606E+05  1.008877E+03  2.650902E+04  1.882309E+05
        28   6 -1.653423E+04  7.172521E+05  1.357994E+05  3.861923E+03  2.782523E+04  7.987761E+04
        28   7  1.610532E+05 -5.236247E+04  2.556399E+05  1.238755E+05  8.478140E+03  2.817139E+05
        28   8 -2.375720E+05 -1.200083E+05  1.715038E+04  3.668823E+04  2.652464E+04  1.827449E+05
        28   9 -2.105938E+05 -6.774589E+04 -5.032149E+04 -4.466604E+04  2.781720E+04  8.376950E+04
        28  10  5.444240E+05  1.487140E+06  6.339504E+05 -1.160685E+05  1.648082E-11  1.013982E-09
        28  11  1.468115E+05  1.433548E+06  3.860579E+05 -3.471939E+04  1.588369E-09 -1.579463E-10
        28  12  1.774877E+05  1.502815E+06  3.218664E+05  5.244999E+04  1.244729E-09 -1.389005E-09
        28  13  3.527229E+05  7.170616E+05  4.447384E+05  3.976973E+03  6.035915E-10  8.476450E-11
        28  14 -4.536578E+04  6.564740E+05  2.015928E+05  1.004860E+03  2.380772E-09 -7.329373E-12
        28  15 -1.653677E+04  7.172450E+05  1.357859E+05  3.860134E+03 -2.248630E-09  3.327893E-10
        28  16  1.610318E+05 -5.244770E+04  2.554906E+05  1.238736E+05 -1.714500E-09 -1.022676E-09
        28  17 -2.375817E+05 -1.200443E+05  1.708629E+04  3.668433E+04 -1.851072E-09  6.853290E-11
        28  18 -2.105965E+05 -6.775364E+04 -5.033613E+04 -4.466791E+04 -1.441504E-09  1.480011E-09
        28  19  5.444501E+05  1.487244E+06  6.341324E+05 -1.160664E+05 -8.358912E+03 -3.114615E+05
        28  20  1.468223E+05  1.433589E+06  3.861296E+05 -3.471526E+04 -2.649279E+04 -1.937235E+05
        28  21  1.774901E+05  1.502821E+06  3.218787E+05  5.245169E+04 -2.783264E+04 -7.598078E+04
        28  22  3.527466E+05  7.171559E+05  4.449037E+05  3.978982E+03 -8.421366E+03 -2.965786E+05
        28  23 -4.535553E+04  6.565122E+05  2.016606E+05  1.008877E+03 -2.650902E+04 -1.882309E+05
        28  24 -1.653423E+04  7.172521E+05  1.357994E+05  3.861923E+03 -2.782523E+04 -7.987761E+04
        28  25  1.610532E+05 -5.236247E+04  2.556399E+05  1.238755E+05 -8.478140E+03 -2.817139E+05
        28  26 -2.375720E+05 -1.200083E+05  1.715038E+04  3.668823E+04 -2.652464E+04 -1.827449E+05
        28  27 -2.105938E+05 -6.774589E+04 -5.032149E+04 -4.466604E+04 -2.781720E+04 -8.376950E+04
        29   1  2.301242E+05  1.491762E+06  3.074876E+05 -1.056311E+04  2.592083E+04  5.977118E+04
        29   2  1.912968E+05  1.489521E+06  2.758956E+05 -1.038436E+03  2.748984E+04  1.520432E+04
        29   3  2.239627E+05  1.511569E+06  2.912838E+05  1.527097E+04  2.673875E+04 -2.936619E+04
        29   4  3.315948E+04  6.955986E+05  1.180389E+05  4.145454E+03  2.592625E+04  5.824113E+04
        29   5 -7.971853E+03  6.835561E+05  8.455003E+04  7.509548E+02  2.749257E+04  1.500589E+04
        29   6  2.220920E+04  6.956000E+05  9.715749E+04  4.141526E+03  2.673928E+04 -2.823234E+04
        29   7 -1.638501E+05 -9.998360E+04 -7.145392E+04  1.883528E+04  2.593160E+04  5.671300E+04
        29   8 -2.072872E+05 -1.218135E+05 -1.068408E+05  2.538261E+03  2.749530E+04  1.480770E+04
        29   9 -1.795917E+05 -1.197588E+05 -9.701526E+04 -6.972933E+03  2.673977E+04 -2.709994E+04
        29  10  2.301225E+05  1.491758E+06  3.074796E+05 -1.056436E+04 -3.020051E-09  4.641379E-10
        29  11  1.912959E+05  1.489520E+06  2.758937E+05 -1.038773E+03 -2.538339E-10 -7.995905E-10
        29  12  2.239617E+05  1.511568E+06  2.912808E+05  1.527160E+04  1.092664E-09 -1.469833E-09
        29  13  3.315785E+04  6.955948E+05  1.180313E+05  4.144239E+03  2.989015E-10  6.682335E-10
        29  14 -7.972725E+03  6.835557E+05  8.454818E+04  7.506226E+02  1.974767E-09 -5.224833E-11
        29  15  2.220822E+04  6.955990E+05  9.715465E+04  4.142134E+03  2.021638E-09  7.416940E-10
        29  16 -1.638517E+05 -9.998723E+04 -7.146123E+04  1.883410E+04 -1.404953E-09 -4.817637E-10
        29  17 -2.072881E+05 -1.218140E+05 -1.068426E+05  2.537933E+03  7.652589E-10  5.401370E-10
        29  18 -1.795927E+05 -1.197598E+05 -9.701798E+04 -6.972349E+03 -2.864597E-09  1.576912E-09
        29  19  2.301242E+05  1.491762E+06  3.074876E+05 -1.056311E+04 -2.592083E+04 -5.977118E+04
        29  20  1.912968E+05  1.489521E+06  2.758956E+05 -1.038436E+03 -2.748984E+04 -1.520432E+04
        29  21  2.239627E+05  1.511569E+06  2.912838E+05  1.527097E+04 -2.673875E+04  2.936619E+04
        29  22  3.315948E+04  6.955986E+05  1.180389E+05  4.145454E+03 -2.592625E+04 -5.824113E+04
        29  23 -7.971853E+03  6.835561E+05  8.455003E+04  7.509548E+02 -2.749257E+04 -1.500589E+04
        29  24  2.220920E+04  6.956000E+05  9.715749E+04  4.141526E+03 -2.673928E+04  2.823234E+04
        29  25 -1.638501E+05 -9.998360E+04 -7.145392E+04  1.883528E+04 -2.593160E+04 -5.671300E+04
        29  26 -2.072872E+05 -1.218135E+05 -1.068408E+05  2.538261E+03 -2.749530E+04 -1.480770E+04
        29  27 -1.795917E+05 -1.197588E+05 -9.701526E+04 -6.972933E+03 -2.673977E+04  2.709994E+04
        30   1  1.951843E+05  1.538516E+06  3.024914E+05 -3.194027E+04  2.947832E+04 -4.073251E+04
        30   2  1.756527E+05  1.507079E+06  3.455159E+05  2.347347E+04  2.915420E+04 -1.295470E+05
        30   3  4.584974E+05  1.563442E+06  5.220161E+05  8.722870E+04  9.938792E+03 -2.184245E+05
        30   4 -9.931794E+03  7.093866E+05  1.060028E+05  4.242895E+03  2.949021E+04 -4.561748E+04
        30   5 -3.204243E+04  6.663114E+05  1.459790E+05  4.696341E+02  2.914599E+04 -1.238988E+05
        30   6  2.466009E+05  7.093124E+05  3.122387E+05  5.033750E+03  9.916034E+03 -2.022398E+05
        30   7 -2.150925E+05 -1.191102E+05 -9.053281E+04  4.037795E+04  2.950154E+04 -5.049593E+04
        30   8 -2.397862E+05 -1.738072E+05 -5.360669E+04 -2.250251E+04  2.913737E+04 -1.182582E+05
        30   9  3.467638E+04 -1.441386E+05  1.024125E+05 -7.704767E+04  9.888998E+03 -1.860772E+05
        30  10  1.951830E+05  1.538514E+06  3.024866E+05 -3.193930E+04 -8.921374E-10  1.937058E-09
        30  11  1.756473E+05  1.507061E+06  3.454828E+05  2.347651E+04  1.752486E-09  3.121999E-10
        30  12  4.584845E+05  1.563391E+06  5.219265E+05  8.723045E+04 -1.184669E-10 -7.783018E-10
        30  13 -9.933286E+03  7.093841E+05  1.059973E+05  4.243978E+03 -9.935941E-10  1.256251E-09
        30  14 -3.204745E+04  6.662947E+05  1.459486E+05  4.725413E+02 -1.326859E-09  8.230421E-11
        30  15  2.465898E+05  7.092685E+05  3.121618E+05  5.035364E+03  8.018909E-10  1.147766E-09
        30  16 -2.150941E+05 -1.191132E+05 -9.053924E+04  4.037915E+04 -2.157461E-09 -1.966942E-09
        30  17 -2.397908E+05 -1.738225E+05 -5.363457E+04 -2.249973E+04  1.711615E-10 -6.026551E-10
        30  18  3.466698E+04 -1.441758E+05  1.023472E+05 -7.704619E+04  8.697838E-10  9.698967E-10
        30  19  1.951843E+05  1.538516E+06  3.024914E+05 -3.194027E+04 -2.947832E+04  4.073251E+04
        30  20  1.756527E+05  1.507079E+06  3.455159E+05  2.347347E+04 -2.915420E+04  1.295470E+05
        30  21  4.584974E+05  1.563442E+06  5.220161E+05  8.722870E+04 -9.938792E+03  2.184245E+05
        30  22 -9.931794E+03  7.093866E+05  1.060028E+05  4.242895E+03 -2.949021E+04  4.561748E+04
        30  23 -3.204243E+04  6.663114E+05  1.459790E+05  4.696341E+02 -2.914599E+04  1.238988E+05
        30  24  2.466009E+05  7.093124E+05  3.122387E+05  5.033750E+03 -9.916034E+03  2.022398E+05
        30  25 -2.150925E+05 -1.191102E+05 -9.053281E+04  4.037795E+04 -2.950154E+04  5.049593E+04
        30  26 -2.397862E+05 -1.738072E+05 -5.360669E+04 -2.250251E+04 -2.913737E+04  1.182582E+05
        30  27  3.467638E+04 -1.441386E+05  1.024125E+05 -7.704767E+04 -9.888998E+03  1.860772E+05
        31   1 -1.902891E+06 -4.132943E+05 -1.582555E+05 -7.049179E+05 -8.197962E+04 -2.924364E+04
        31   2 -1.875917E+06 -2.855589E+05 -7.987556E+04 -7.100726E+05 -5.272380E+04 -1.544197E+04
        31   3 -1.886299E+06 -2.786831E+05 -5.470590E+04 -6.963690E+05 -2.229880E+04 -4.757392E+03
        31   4 -1.802177E+06 -3.464288E+05 -1.251567E+05 -6.478232E+05 -7.990352E+04 -2.846998E+04
        31   5 -1.777137E+06 -2.400751E+05 -5.236448E+04 -6.745116E+05 -5.225130E+04 -1.526577E+04
        31   6 -1.789127E+06 -2.542525E+05 -3.150247E+04 -6.823439E+05 -2.342999E+04 -5.180877E+03
        31   7 -1.701452E+06 -2.795550E+05 -9.205901E+04 -5.907188E+05 -7.782706E+04 -2.769594E+04
        31   8 -1.678348E+06 -1.945895E+05 -2.485447E+04 -6.389451E+05 -5.177871E+04 -1.508952E+04
        31   9 -1.691945E+06 -2.298222E+05 -8.299620E+03 -6.683174E+05 -2.456137E+04 -5.604380E+03
        31  10 -1.902898E+06 -4.132970E+05 -1.582697E+05 -7.049198E+05 -2.452689E-09 -9.178405E-11
        31  11 -1.875920E+06 -2.855599E+05 -7.988125E+04 -7.100733E+05  3.813992E-10  2.415672E-10
        31  12 -1.886299E+06 -2.786833E+05 -5.470688E+04 -6.963691E+05  1.113990E-09 -2.077682E-10
        31  13 -1.802184E+06 -3.464314E+05 -1.251702E+05 -6.478251E+05  8.492975E-11  1.617413E-10
        31  14 -1.777140E+06 -2.400761E+05 -5.237007E+04 -6.745122E+05 -5.295554E-09  2.830702E-10
        31  15 -1.789127E+06 -2.542527E+05 -3.150355E+04 -6.823440E+05  3.011568E-09 -1.491388E-10
        31  16 -1.701459E+06 -2.795575E+05 -9.207187E+04 -5.907205E+05  1.348701E-09  2.365866E-10
        31  17 -1.678351E+06 -1.945904E+05 -2.485995E+04 -6.389458E+05  2.757543E-09  2.229120E-10
        31  18 -1.691946E+06 -2.298224E+05 -8.300816E+03 -6.683175E+05  3.084790E-09 -1.380340E-10
        31  19 -1.902891E+06 -4.132943E+05 -1.582555E+05 -7.049179E+05  8.197962E+04  2.924364E+04
        31  20 -1.875917E+06 -2.855589E+05 -7.987556E+04 -7.100726E+05  5.272380E+04  1.544197E+04
        31  21 -1.886299E+06 -2.786831E+05 -5.470590E+04 -6.963690E+05  2.229880E+04  4.757392E+03
        31  22 -1.802177E+06 -3.464288E+05 -1.251567E+05 -6.478232E+05  7.990352E+04  2.846998E+04
        31  23 -1.777137E+06 -2.400751E+05 -5.236448E+04 -6.745116E+05  5.225130E+04  1.526577E+04
        31  24 -1.789127E+06 -2.542525E+05 -3.150247E+04 -6.823439E+05  2.342999E+04  5.180877E+03
        31  25 -1.701452E+06 -2.795550E+05 -9.205901E+04 -5.907188E+05  7.782706E+04  2.769594E+04
        31  26 -1.678348E+06 -1.945895E+05 -2.485447E+04 -6.389451E+05  5.177871E+04  1.508952E+04
        31  27 -1.691945E+06 -2.298222E+05 -8.299620E+03 -6.683174E+05  2.456137E+04  5.604380E+03
        32   1 -1.849069E+06 -2.938528E+05 -4.294149E+04 -6.953560E+05 -1.845499E+04 -4.323083E+03
        32   2 -1.834551E+06 -2.707571E+05 -2.516467E+04 -6.869559E+05 -1.172590E+04 -2.419577E+03
        32   3 -1.816150E+06 -2.684844E+05 -1.543909E+04 -6.861716E+05 -4.909056E+03 -7.492622E+02
        32   4 -1.784967E+06 -2.670796E+05 -2.557015E+04 -6.751178E+05 -1.867559E+04 -4.405871E+03
        32   5 -1.786245E+06 -2.519271E+05 -1.235050E+04 -6.730879E+05 -1.206610E+04 -2.547090E+03
        32   6 -1.783617E+06 -2.575733E+05 -7.086419E+03 -6.786740E+05 -5.369097E+03 -9.216267E+02
        32   7 -1.720860E+06 -2.403057E+05 -8.199088E+03 -6.548774E+05 -1.889621E+04 -4.488671E+03
        32   8 -1.737937E+06 -2.330969E+05  4.634446E+02 -6.592189E+05 -1.240633E+04 -2.674616E+03
        32   9 -1.751083E+06 -2.466623E+05  1.266093E+03 -6.711762E+05 -5.829161E+03 -1.093997E+03
        32  10 -1.849069E+06 -2.938529E+05 -4.294216E+04 -6.953561E+05 -8.904681E-10 -3.813340E-10
        32  11 -1.834551E+06 -2.707571E+05 -2.516494E+04 -6.869559E+05 -1.518065E-09 -4.527003E-10
        32  12 -1.816150E+06 -2.684844E+05 -1.543914E+04 -6.861716E+05 -7.758857E-10 -2.977001E-10
        32  13 -1.784967E+06 -2.670797E+05 -2.557084E+04 -6.751178E+05  1.680853E-09 -1.930674E-10
        32  14 -1.786245E+06 -2.519271E+05 -1.235078E+04 -6.730879E+05  3.542957E-10 -4.080249E-10
        32  15 -1.783617E+06 -2.575733E+05 -7.086475E+03 -6.786740E+05  1.228073E-09 -1.013400E-09
        32  16 -1.720861E+06 -2.403058E+05 -8.199799E+03 -6.548775E+05  1.574756E-09 -7.905215E-10
        32  17 -1.737938E+06 -2.330970E+05  4.631410E+02 -6.592189E+05  1.426577E-09 -1.338110E-09
        32  18 -1.751083E+06 -2.466623E+05  1.266027E+03 -6.711762E+05  2.099866E-09 -7.455804E-10
        32  19 -1.849069E+06 -2.938528E+05 -4.294149E+04 -6.953560E+05  1.845499E+04  4.323083E+03
        32  20 -1.834551E+06 -2.707571E+05 -2.516467E+04 -6.869559E+05  1.172590E+04  2.419577E+03
        32  21 -1.816150E+06 -2.684844E+05 -1.543909E+04 -6.861716E+05  4.909056E+03  7.492622E+02
        32  22 -1.784967E+06 -2.670796E+05 -2.557015E+04 -6.751178E+05  1.867559E+04  4.405871E+03
        32  23 -1.786245E+06 -2.519271E+05 -1.235050E+04 -6.730879E+05  1.206610E+04  2.547090E+03
        32  24 -1.783617E+06 -2.575733E+05 -7.086419E+03 -6.786740E+05  5.369097E+03  9.216267E+02
        32  25 -1.720860E+06 -2.403057E+05 -8.199088E+03 -6.548774E+05  1.889621E+04  4.488671E+03
        32  26 -1.737937E+06 -2.330969E+05  4.634446E+02 -6.592189E+05  1.240633E+04  2.674616E+03
        32  27 -1.751083E+06 -2.466623E+05  1.266093E+03 -6.711762E+05  5.829161E+03  1.093997E+03
        33   1 -1.791628E+06 -2.622848E+05 -7.740332E+03 -6.804667E+05 -3.775617E+03 -8.851618E+02
        33   2 -1.778551E+06 -2.499285E+05 -5.974877E+02 -6.705973E+05 -2.014465E+03 -1.106241E+03
        33   3 -1.756914E+06 -2.480032E+05  5.119482E+03 -6.710320E+05 -2.480511E+02 -1.341174E+03
        33   4 -1.783091E+06 -2.588781E+05 -5.518378E+03 -6.779197E+05 -4.170324E+03 -1.033052E+03
        33   5 -1.787303E+06 -2.531825E+05 -2.889625E+03 -6.729472E+05 -2.416310E+03 -1.256812E+03
        33   6 -1.782954E+06 -2.579165E+05 -1.680970E+03 -6.782789E+05 -6.570738E+02 -1.494441E+03
        33   7 -1.774555E+06 -2.554714E+05 -3.296420E+03 -6.753726E+05 -4.565039E+03 -1.180946E+03
        33   8 -1.796056E+06 -2.564366E+05 -5.181785E+03 -6.752971E+05 -2.818151E+03 -1.407381E+03
        33   9 -1.808994E+06 -2.678299E+05 -8.481548E+03 -6.855257E+05 -1.066082E+03 -1.647702E+03
        33  10 -1.791628E+06 -2.622848E+05 -7.740361E+03 -6.804667E+05 -8.477755E-11 -6.734667E-10
        33  11 -1.778551E+06 -2.499285E+05 -5.974976E+02 -6.705973E+05 -5.088522E-10  1.206268E-10
        33  12 -1.756914E+06 -2.480032E+05  5.119479E+03 -6.710320E+05  4.735725E-11  5.369900E-10
        33  13 -1.783091E+06 -2.588781E+05 -5.518413E+03 -6.779197E+05  2.905213E-09 -5.622469E-10
        33  14 -1.787303E+06 -2.531825E+05 -2.889639E+03 -6.729472E+05 -3.043003E-09  6.515294E-10
        33  15 -1.782954E+06 -2.579165E+05 -1.680975E+03 -6.782789E+05  8.650331E-10 -2.023105E-10
        33  16 -1.774555E+06 -2.554714E+05 -3.296462E+03 -6.753726E+05  7.491227E-10 -3.182116E-10
        33  17 -1.796056E+06 -2.564366E+05 -5.181804E+03 -6.752971E+05  7.757228E-10  9.130894E-11
        33  18 -1.808994E+06 -2.678299E+05 -8.481556E+03 -6.855257E+05 -3.630575E-10 -4.914755E-10
        33  19 -1.791628E+06 -2.622848E+05 -7.740332E+03 -6.804667E+05  3.775617E+03  8.851618E+02
        33  20 -1.778551E+06 -2.499285E+05 -5.974877E+02 -6.705973E+05  2.014465E+03  1.106241E+03
        33  21 -1.756914E+06 -2.480032E+05  5.119482E+03 -6.710320E+05  2.480511E+02  1.341174E+03
        33  22 -1.783091E+06 -2.588781E+05 -5.518378E+03 -6.779197E+05  4.170324E+03  1.033052E+03
        33  23 -1.787303E+06 -2.531825E+05 -2.889625E+03 -6.729472E+05  2.416310E+03  1.256812E+03
        33  24 -1.782954E+06 -2.579165E+05 -1.680970E+03 -6.782789E+05  6.570738E+02  1.494441E+03
        33  25 -1.774555E+06 -2.554714E+05 -3.296420E+03 -6.753726E+05  4.565039E+03  1.180946E+03
        33  26 -1.796056E+06 -2.564366E+05 -5.181785E+03 -6.752971E+05  2.818151E+03  1.407381E+03
        33  27 -1.808994E+06 -2.678299E+05 -8.481548E+03 -6.855257E+05  1.066082E+03  1.647702E+03
        34   1 -1.734071E+06 -2.396586E+05  1.156023E+04 -6.648669E+05  1.646762E+02 -1.710152E+03
        34   2 -1.721445E+06 -2.286100E+05  1.644859E+04 -6.550377E+05  8.849039E+02 -2.326477E+03
        34   3 -1.699889E+06 -2.267446E+05  2.097972E+04 -6.555523E+05  1.602087E+03 -2.934339E+03
        34   4 -1.782924E+06 -2.580007E+05 -1.330447E+03 -6.781529E+05 -2.381224E+02 -1.861101E+03
        34   5 -1.787383E+06 -2.533701E+05 -8.648161E+02 -6.729955E+05  4.864194E+02 -2.475839E+03
        34   6 -1.782913E+06 -2.579236E+05 -7.597752E+02 -6.781820E+05  1.207905E+03 -3.082118E+03
        34   7 -1.831774E+06 -2.763425E+05 -1.422121E+04 -6.914377E+05 -6.408825E+02 -2.012034E+03
        34   8 -1.853317E+06 -2.781299E+05 -1.817850E+04 -6.909516E+05  8.798340E+01 -2.625182E+03
        34   9 -1.865931E+06 -2.891021E+05 -2.249983E+04 -7.008090E+05  8.137818E+02 -3.229874E+03
        34  10 -1.734071E+06 -2.396587E+05  1.156022E+04 -6.648669E+05 -1.059283E-10 -2.514265E-10
        34  11 -1.721445E+06 -2.286100E+05  1.644858E+04 -6.550377E+05  3.376401E-09 -3.501998E-10
        34  12 -1.699889E+06 -2.267446E+05  2.097970E+04 -6.555523E+05  1.765834E-09 -5.363904E-10
        34  13 -1.782924E+06 -2.580007E+05 -1.330454E+03 -6.781529E+05 -1.098367E-09 -4.343722E-10
        34  14 -1.787383E+06 -2.533701E+05 -8.648280E+02 -6.729955E+05 -2.267560E-09  2.511569E-11
        34  15 -1.782913E+06 -2.579236E+05 -7.597958E+02 -6.781820E+05 -1.239440E-09  6.645405E-13
        34  16 -1.831774E+06 -2.763425E+05 -1.422122E+04 -6.914377E+05  1.717283E-09 -3.351489E-10
        34  17 -1.853317E+06 -2.781299E+05 -1.817852E+04 -6.909516E+05 -1.448515E-09  7.734659E-10
        34  18 -1.865931E+06 -2.891021E+05 -2.249985E+04 -7.008090E+05 -9.211123E-10 -1.609175E-10
        34  19 -1.734071E+06 -2.396586E+05  1.156023E+04 -6.648669E+05 -1.646762E+02  1.710152E+03
        34  20 -1.721445E+06 -2.286100E+05  1.644859E+04 -6.550377E+05 -8.849039E+02  2.326477E+03
        34  21 -1.699889E+06 -2.267446E+05  2.097972E+04 -6.555523E+05 -1.602087E+03  2.934339E+03
        34  22 -1.782924E+06 -2.580007E+05 -1.330447E+03 -6.781529E+05  2.381224E+02  1.861101E+03
        34  23 -1.787383E+06 -2.533701E+05 -8.648161E+02 -6.729955E+05 -4.864194E+02  2.475839E+03
        34  24 -1.782913E+06 -2.579236E+05 -7.597752E+02 -6.781820E+05 -1.207905E+03  3.082118E+03
        34  25 -1.831774E+06 -2.763425E+05 -1.422121E+04 -6.914377E+05  6.408825E+02  2.012034E+03
        34  26 -1.853317E+06 -2.781299E+05 -1.817850E+04 -6.909516E+05 -8.798340E+01  2.625182E+03
        34  27 -1.865931E+06 -2.891021E+05 -2.249983E+04 -7.008090E+05 -8.137818E+02  3.229874E+03
        35   1 -1.677921E+06 -2.183756E+05  2.685174E+04 -6.494874E+05  1.893924E+03 -3.330848E+03
        35   2 -1.665889E+06 -2.079031E+05  3.076186E+04 -6.400693E+05  2.718028E+03 -3.874240E+03
        35   3 -1.645364E+06 -2.062478E+05  3.421864E+04 -6.404990E+05  3.534338E+03 -4.396156E+03
        35   4 -1.783009E+06 -2.578241E+05 -8.013679E+02 -6.780793E+05  1.503045E+03 -3.477420E+03
        35   5 -1.787265E+06 -2.534833E+05 -1.107345E+03 -6.731297E+05  2.338087E+03 -4.016770E+03
        35   6 -1.783030E+06 -2.579621E+05 -1.875485E+03 -6.780283E+05  3.165316E+03 -4.534647E+03
        35   7 -1.888088E+06 -2.972721E+05 -2.845551E+04 -7.066670E+05  1.112238E+03 -3.623966E+03
        35   8 -1.908627E+06 -2.990626E+05 -3.297786E+04 -7.061843E+05  1.958227E+03 -4.159269E+03
        35   9 -1.920678E+06 -3.096753E+05 -3.797122E+04 -7.155500E+05  2.796385E+03 -4.673103E+03
        35  10 -1.677921E+06 -2.183756E+05  2.685171E+04 -6.494874E+05  1.236076E-09 -3.712198E-10
        35  11 -1.665889E+06 -2.079031E+05  3.076182E+04 -6.400693E+05 -1.722242E-10 -1.003899E-09
        35  12 -1.645364E+06 -2.062478E+05  3.421858E+04 -6.404990E+05 -3.875730E-09 -1.101566E-09
        35  13 -1.783010E+06 -2.578241E+05 -8.013948E+02 -6.780793E+05  1.149814E-09 -2.903628E-10
        35  14 -1.787265E+06 -2.534833E+05 -1.107385E+03 -6.731297E+05 -2.245937E-09 -6.929719E-10
        35  15 -1.783030E+06 -2.579621E+05 -1.875542E+03 -6.780282E+05  1.105667E-09 -5.460829E-10
        35  16 -1.888088E+06 -2.972721E+05 -2.845554E+04 -7.066670E+05 -5.354753E-10 -6.061801E-10
        35  17 -1.908627E+06 -2.990626E+05 -3.297790E+04 -7.061843E+05 -5.117106E-09  7.523505E-11
        35  18 -1.920678E+06 -3.096753E+05 -3.797128E+04 -7.155500E+05  1.282030E-09 -2.550866E-10
        35  19 -1.677921E+06 -2.183756E+05  2.685174E+04 -6.494874E+05 -1.893924E+03  3.330848E+03
        35  20 -1.665889E+06 -2.079031E+05  3.076186E+04 -6.400693E+05 -2.718028E+03  3.874240E+03
        35  21 -1.645364E+06 -2.062478E+05  3.421864E+04 -6.404990E+05 -3.534338E+03  4.396156E+03
        35  22 -1.783009E+06 -2.578241E+05 -8.013679E+02 -6.780793E+05 -1.503045E+03  3.477420E+03
        35  23 -1.787265E+06 -2.534833E+05 -1.107345E+03 -6.731297E+05 -2.338087E+03  4.016770E+03
        35  24 -1.783030E+06 -2.579621E+05 -1.875485E+03 -6.780283E+05 -3.165316E+03  4.534647E+03
        35  25 -1.888088E+06 -2.972721E+05 -2.845551E+04 -7.066670E+05 -1.112238E+03  3.623966E+03
        35  26 -1.908627E+06 -2.990626E+05 -3.297786E+04 -7.061843E+05 -1.958227E+03  4.159269E+03
        35  27 -1.920678E+06 -3.096753E+05 -3.797122E+04 -7.155500E+05 -2.796385E+03  4.673103E+03
        36   1 -1.624769E+06 -1.982985E+05  3.922334E+04 -6.350205E+05  4.048483E+03 -4.683091E+03
        36   2 -1.613535E+06 -1.882709E+05  4.128996E+04 -6.260341E+05  6.428790E+03 -4.581226E+03
        36   3 -1.595242E+06 -1.880136E+05  4.130005E+04 -6.257875E+05  8.786226E+03 -4.417456E+03
        36   4 -1.783275E+06 -2.576332E+05 -2.417451E+03 -6.779859E+05  3.674653E+03 -4.823430E+03
        36   5 -1.786905E+06 -2.534623E+05 -4.245882E+03 -6.733475E+05  6.086253E+03 -4.709901E+03
        36   6 -1.783481E+06 -2.590684E+05 -8.156135E+03 -6.774489E+05  8.474929E+03 -4.534480E+03
        36   7 -1.941757E+06 -3.169662E+05 -4.406025E+04 -7.209413E+05  3.300929E+03 -4.963729E+03
        36   8 -1.960245E+06 -3.186519E+05 -4.978429E+04 -7.206489E+05  5.743821E+03 -4.838537E+03
        36   9 -1.971686E+06 -3.301212E+05 -5.761550E+04 -7.290963E+05  8.163735E+03 -4.651466E+03
        36  10 -1.624769E+06 -1.982985E+05  3.922326E+04 -6.350205E+05 -1.187617E-09 -3.086085E-10
        36  11 -1.613535E+06 -1.882710E+05  4.128985E+04 -6.260341E+05 -5.546010E-10 -5.479518E-10
        36  12 -1.595243E+06 -1.880137E+05  4.129987E+04 -6.257875E+05  4.151017E-10  3.097055E-10
        36  13 -1.783275E+06 -2.576332E+05 -2.417520E+03 -6.779859E+05 -2.002069E-09 -5.205220E-10
        36  14 -1.786905E+06 -2.534624E+05 -4.245993E+03 -6.733474E+05 -6.878338E-10 -6.145805E-10
        36  15 -1.783481E+06 -2.590684E+05 -8.156309E+03 -6.774489E+05  2.895354E-09  3.325452E-10
        36  16 -1.941757E+06 -3.169662E+05 -4.406032E+04 -7.209413E+05 -5.527749E-10 -4.891842E-10
        36  17 -1.960245E+06 -3.186519E+05 -4.978440E+04 -7.206489E+05 -1.485305E-09 -4.444747E-10
        36  18 -1.971686E+06 -3.301212E+05 -5.761567E+04 -7.290963E+05  2.426747E-09  8.114717E-10
        36  19 -1.624769E+06 -1.982985E+05  3.922334E+04 -6.350205E+05 -4.048483E+03  4.683091E+03
        36  20 -1.613535E+06 -1.882709E+05  4.128996E+04 -6.260341E+05 -6.428790E+03  4.581226E+03
        36  21 -1.595242E+06 -1.880136E+05  4.130005E+04 -6.257875E+05 -8.786226E+03  4.417456E+03
        36  22 -1.783275E+06 -2.576332E+05 -2.417451E+03 -6.779859E+05 -3.674653E+03  4.823430E+03
        36  23 -1.786905E+06 -2.534623E+05 -4.245882E+03 -6.733475E+05 -6.086253E+03  4.709901E+03
        36  24 -1.783481E+06 -2.590684E+05 -8.156135E+03 -6.774489E+05 -8.474929E+03  4.534480E+03
        36  25 -1.941757E+06 -3.169662E+05 -4.406025E+04 -7.209413E+05 -3.300929E+03  4.963729E+03
        36  26 -1.960245E+06 -3.186519E+05 -4.978429E+04 -7.206489E+05 -5.743821E+03  4.838537E+03
        36  27 -1.971686E+06 -3.301212E+05 -5.761550E+04 -7.290963E+05 -8.163735E+03  4.651466E+03
        37   1 -1.575781E+06 -1.804861E+05  4.398298E+04 -6.234802E+05  1.058591E+04 -4.248212E+03
        37   2 -1.565297E+06 -1.681265E+05  3.963263E+04 -6.127439E+05  2.003949E+04 -1.385300E+03
        37   3 -1.555342E+06 -1.801026E+05  2.371806E+04 -6.058938E+05  2.930047E+04  1.991282E+03
        37   4 -1.784423E+06 -2.569683E+05 -1.048407E+04 -6.783786E+05  1.014129E+04 -4.415313E+03
        37   5 -1.785136E+06 -2.518140E+05 -1.829814E+04 -6.737948E+05  1.985644E+04 -1.454325E+03
        37   6 -1.786432E+06 -2.710515E+05 -3.788736E+04 -6.730969E+05  2.937876E+04  2.020236E+03
        37   7 -1.993022E+06 -3.334484E+05 -6.495477E+04 -7.332606E+05  9.696836E+03 -4.582356E+03
        37   8 -2.004927E+06 -3.354980E+05 -7.623297E+04 -7.348258E+05  1.967346E+04 -1.523323E+03
        37   9 -2.017469E+06 -3.619953E+05 -9.949726E+04 -7.402767E+05  2.945702E+04  2.049176E+03
        37  10 -1.575781E+06 -1.804861E+05  4.398273E+04 -6.234802E+05  1.630203E-09  6.304165E-10
        37  11 -1.565298E+06 -1.681266E+05  3.963187E+04 -6.127439E+05 -1.155089E-09  3.725918E-10
        37  12 -1.555343E+06 -1.801029E+05  2.371644E+04 -6.058938E+05 -4.722366E-09  5.261446E-10
        37  13 -1.784423E+06 -2.569683E+05 -1.048430E+04 -6.783786E+05 -1.810798E-10  5.214133E-10
        37  14 -1.785136E+06 -2.518141E+05 -1.829889E+04 -6.737947E+05 -1.657369E-10 -4.897747E-10
        37  15 -1.786433E+06 -2.710517E+05 -3.788899E+04 -6.730969E+05 -1.630144E-09  6.385132E-10
        37  16 -1.993022E+06 -3.334484E+05 -6.495499E+04 -7.332606E+05  1.194026E-09 -6.305410E-11
        37  17 -2.004928E+06 -3.354981E+05 -7.623371E+04 -7.348258E+05  5.176413E-10 -1.200316E-10
        37  18 -2.017470E+06 -3.619956E+05 -9.949890E+04 -7.402767E+05  2.619123E-09  9.464573E-10
        37  19 -1.575781E+06 -1.804861E+05  4.398298E+04 -6.234802E+05 -1.058591E+04  4.248212E+03
        37  20 -1.565297E+06 -1.681265E+05  3.963263E+04 -6.127439E+05 -2.003949E+04  1.385300E+03
        37  21 -1.555342E+06 -1.801026E+05  2.371806E+04 -6.058938E+05 -2.930047E+04 -1.991282E+03
        37  22 -1.784423E+06 -2.569683E+05 -1.048407E+04 -6.783786E+05 -1.014129E+04  4.415313E+03
        37  23 -1.785136E+06 -2.518140E+05 -1.829814E+04 -6.737948E+05 -1.985644E+04  1.454325E+03
        37  24 -1.786432E+06 -2.710515E+05 -3.788736E+04 -6.730969E+05 -2.937876E+04 -2.020236E+03
        37  25 -1.993022E+06 -3.334484E+05 -6.495477E+04 -7.332606E+05 -9.696836E+03  4.582356E+03
        37  26 -2.004927E+06 -3.354980E+05 -7.623297E+04 -7.348258E+05 -1.967346E+04  1.523323E+03
        37  27 -2.017469E+06 -3.619953E+05 -9.949726E+04 -7.402767E+05 -2.945702E+04 -2.049176E+03
        38   1 -1.529298E+06 -1.707781E+05  1.897860E+04 -6.301659E+05  3.824712E+04  3.929451E+03
        38   2 -1.519047E+06 -1.269816E+05 -8.977085E+03 -5.943148E+05  7.729608E+04  1.831980E+04
        38   3 -1.570028E+06 -2.539428E+05 -1.111511E+05 -5.223265E+05  1.138568E+05  3.933044E+04
        38   4 -1.792710E+06 -2.519269E+05 -4.667915E+04 -6.836723E+05  3.639897E+04  3.235740E+03
        38   5 -1.771467E+06 -2.344276E+05 -7.760124E+04 -6.761033E+05  7.884414E+04  1.889977E+04
        38   6 -1.812161E+06 -3.884071E+05 -1.854627E+05 -6.323899E+05  1.188010E+05  4.118083E+04
        38   7 -2.056056E+06 -3.330765E+05 -1.123422E+05 -7.371607E+05  3.455167E+04  2.542216E+03
        38   8 -2.023826E+06 -3.418646E+05 -1.462312E+05 -7.578600E+05  8.039151E+04  1.947941E+04
        38   9 -2.054231E+06 -5.228440E+05 -2.597797E+05 -7.424077E+05  1.237431E+05  4.302955E+04
        38  10 -1.529300E+06 -1.707785E+05  1.897581E+04 -6.301661E+05 -1.004845E-09  4.808126E-10
        38  11 -1.519053E+06 -1.269836E+05 -8.988976E+03 -5.943160E+05 -1.075538E-09 -8.611974E-10
        38  12 -1.570043E+06 -2.539480E+05 -1.111785E+05 -5.223301E+05 -1.551111E-09 -1.038391E-09
        38  13 -1.792712E+06 -2.519273E+05 -4.668166E+04 -6.836724E+05 -6.995945E-10  7.988109E-10
        38  14 -1.771474E+06 -2.344296E+05 -7.761363E+04 -6.761045E+05 -1.282889E-09 -1.393033E-09
        38  15 -1.812176E+06 -3.884128E+05 -1.854925E+05 -6.323939E+05 -2.415979E-10 -8.129805E-10
        38  16 -2.056057E+06 -3.330768E+05 -1.123445E+05 -7.371608E+05  3.034293E-10 -4.191305E-10
        38  17 -2.023833E+06 -3.418667E+05 -1.462441E+05 -7.578613E+05 -9.151580E-10 -1.550095E-09
        38  18 -2.054248E+06 -5.228501E+05 -2.598121E+05 -7.424120E+05  2.462817E-09 -8.612226E-10
        38  19 -1.529298E+06 -1.707781E+05  1.897860E+04 -6.301659E+05 -3.824712E+04 -3.929451E+03
        38  20 -1.519047E+06 -1.269816E+05 -8.977085E+03 -5.943148E+05 -7.729608E+04 -1.831980E+04
        38  21 -1.570028E+06 -2.539428E+05 -1.111511E+05 -5.223265E+05 -1.138568E+05 -3.933044E+04
        38  22 -1.792710E+06 -2.519269E+05 -4.667915E+04 -6.836723E+05 -3.639897E+04 -3.235740E+03
        38  23 -1.771467E+06 -2.344276E+05 -7.760124E+04 -6.761033E+05 -7.884414E+04 -1.889977E+04
        38  24 -1.812161E+06 -3.884071E+05 -1.854627E+05 -6.323899E+05 -1.188010E+05 -4.118083E+04
        38  25 -2.056056E+06 -3.330765E+05 -1.123422E+05 -7.371607E+05 -3.455167E+04 -2.542216E+03
        38  26 -2.023826E+06 -3.418646E+05 -1.462312E+05 -7.578600E+05 -8.039151E+04 -1.947941E+04
        38  27 -2.054231E+06 -5.228440E+05 -2.597797E+05 -7.424077E+05 -1.237431E+05 -4.302955E+04
        39   1 -3.243075E+05  9.764632E+04  1.226666E+05  3.300032E+04  8.392317E+04  4.463227E+00
        39   2 -3.408774E+05 -1.242742E+04  5.393992E+04  9.769301E+03  5.487762E+04  8.639996E-01
        39   3 -3.243277E+05 -5.181661E+03  3.346394E+04 -1.346106E+04  2.583184E+04 -5.603739E-01
        39   4 -3.243087E+05  9.764427E+04  1.226663E+05  1.093158E-08  8.392317E+04  5.451856E-11
        39   5 -3.408775E+05 -1.242760E+04  5.393990E+04 -1.544227E-09  5.487762E+04  4.090374E-10
        39   6 -3.243279E+05 -5.182002E+03  3.346389E+04  7.519525E-09  2.583184E+04  8.380141E-11
        39   7 -3.243075E+05  9.764632E+04  1.226666E+05 -3.300032E+04  8.392317E+04 -4.463227E+00
        39   8 -3.408774E+05 -1.242742E+04  5.393992E+04 -9.769301E+03  5.487762E+04 -8.639996E-01
        39   9 -3.243277E+05 -5.181661E+03  3.346394E+04  1.346106E+04  2.583184E+04  5.603739E-01
        39  10 -3.243151E+05  9.764443E+04  1.226533E+05  3.300032E+04  4.937851E-10 -6.804809E-11
        39  11 -3.408806E+05 -1.242823E+04  5.393426E+04  9.769301E+03  1.185774E-09 -1.432087E-10
        39  12 -3.243285E+05 -5.181840E+03  3.346269E+04 -1.346106E+04  2.437456E-10  4.763786E-10
        39  13 -3.243163E+05  9.764238E+04  1.226530E+05  6.624118E-09 -2.094913E-09  8.075172E-12
        39  14 -3.408808E+05 -1.242841E+04  5.393423E+04 -3.688366E-09  2.873102E-09  7.868270E-11
        39  15 -3.243286E+05 -5.182181E+03  3.346264E+04 -1.083427E-09  2.415058E-09  1.931923E-10
        39  16 -3.243151E+05  9.764443E+04  1.226533E+05 -3.300032E+04  5.662821E-10  1.862568E-10
        39  17 -3.408806E+05 -1.242823E+04  5.393426E+04 -9.769301E+03  3.023081E-10  3.620527E-10
        39  18 -3.243285E+05 -5.181840E+03  3.346269E+04  1.346106E+04 -9.869866E-10 -1.296246E-10
        39  19 -3.243075E+05  9.764632E+04  1.226666E+05  3.300032E+04 -8.392317E+04 -4.463227E+00
        39  20 -3.408774E+05 -1.242742E+04  5.393992E+04  9.769301E+03 -5.487762E+04 -8.639996E-01
        39  21 -3.243277E+05 -5.181661E+03  3.346394E+04 -1.346106E+04 -2.583184E+04  5.603739E-01
        39  22 -3.243087E+05  9.764427E+04  1.226663E+05  6.625696E-09 -8.392317E+04 -1.978002E-11
        39  23 -3.408775E+05 -1.242760E+04  5.393990E+04 -1.528988E-09 -5.487762E+04 -2.540067E-10
        39  24 -3.243279E+05 -5.182002E+03  3.346389E+04  3.778004E-09 -2.583184E+04  3.074950E-10
        39  25 -3.243075E+05  9.764632E+04  1.226666E+05 -3.300032E+04 -8.392317E+04  4.463227E+00
        39  26 -3.408774E+05 -1.242742E+04  5.393992E+04 -9.769301E+03 -5.487762E+04  8.639996E-01
        39  27 -3.243277E+05 -5.181661E+03  3.346394E+04  1.346106E+04 -2.583184E+04 -5.603739E-01
        40   1 -3.308325E+05  9.561164E+03  2.722532E+04  2.866678E+03  2.069354E+04  9.560082E-02
        40   2 -3.327498E+05 -1.276563E+03  1.396623E+04  7.212490E+02  1.355821E+04  1.575927E-02
        40   3 -3.308352E+05 -5.065855E+02  8.256473E+03 -1.424153E+03  6.423028E+03 -1.474156E-02
        40   4 -3.308325E+05  9.561149E+03  2.722531E+04  1.010544E-08  2.069354E+04  4.834923E-10
        40   5 -3.327498E+05 -1.276564E+03  1.396623E+04  1.312723E-10  1.355821E+04  5.457879E-10
        40   6 -3.308352E+05 -5.065893E+02  8.256472E+03  1.115997E-08  6.423028E+03 -1.670453E-09
        40   7 -3.308325E+05  9.561164E+03  2.722532E+04 -2.866678E+03  2.069354E+04 -9.560082E-02
        40   8 -3.327498E+05 -1.276563E+03  1.396623E+04 -7.212490E+02  1.355821E+04 -1.575927E-02
        40   9 -3.308352E+05 -5.065855E+02  8.256473E+03  1.424153E+03  6.423028E+03  1.474156E-02
        40  10 -3.308329E+05  9.561049E+03  2.722451E+04  2.866678E+03 -2.932202E-09  8.200886E-10
        40  11 -3.327500E+05 -1.276612E+03  1.396588E+04  7.212490E+02  1.943754E-09  9.063907E-11
        40  12 -3.308353E+05 -5.065966E+02  8.256395E+03 -1.424153E+03 -8.485101E-10 -1.799808E-09
        40  13 -3.308329E+05  9.561034E+03  2.722451E+04 -7.084110E-09  2.523504E-11  4.450250E-10
        40  14 -3.327500E+05 -1.276613E+03  1.396588E+04  8.685652E-09  1.076842E-09  3.157877E-10
        40  15 -3.308353E+05 -5.066004E+02  8.256394E+03  3.996316E-09 -2.506986E-09 -1.116400E-09
        40  16 -3.308329E+05  9.561049E+03  2.722451E+04 -2.866678E+03  2.455313E-10  1.189667E-10
        40  17 -3.327500E+05 -1.276612E+03  1.396588E+04 -7.212490E+02 -1.648453E-09  5.797584E-10
        40  18 -3.308353E+05 -5.065966E+02  8.256395E+03  1.424153E+03 -6.308668E-10 -4.962063E-10
        40  19 -3.308325E+05  9.561164E+03  2.722532E+04  2.866678E+03 -2.069354E+04 -9.560082E-02
        40  20 -3.327498E+05 -1.276563E+03  1.396623E+04  7.212490E+02 -1.355821E+04 -1.575927E-02
        40  21 -3.308352E+05 -5.065855E+02  8.256473E+03 -1.424153E+03 -6.423028E+03  1.474156E-02
        40  22 -3.308325E+05  9.561149E+03  2.722531E+04  1.880074E-08 -2.069354E+04  4.113752E-10
        40  23 -3.327498E+05 -1.276564E+03  1.396623E+04  2.164257E-09 -1.355821E+04  9.074919E-11
        40  24 -3.308352E+05 -5.065893E+02  8.256472E+03  1.944891E-08 -6.423028E+03 -5.409816E-10
        40  25 -3.308325E+05  9.561164E+03  2.722532E+04 -2.866678E+03 -2.069354E+04  9.560082E-02
        40  26 -3.327498E+05 -1.276563E+03  1.396623E+04 -7.212490E+02 -1.355821E+04  1.575927E-02
        40  27 -3.308352E+05 -5.065855E+02  8.256473E+03  1.424153E+03 -6.423028E+03 -1.474156E-02
        41   1 -3.315720E+05  9.160638E+02  6.434389E+03  1.827409E+02  5.126852E+03  1.509849E-03
        41   2 -3.318298E+05 -1.372894E+02  3.516904E+03  9.639232E+00  3.366687E+03  5.229978E-05
        41   3 -3.315725E+05 -4.834575E+01  2.031436E+03 -1.634653E+02  1.606499E+03 -4.232058E-04
        41   4 -3.315720E+05  9.160637E+02  6.434389E+03  1.827360E-08  5.126852E+03 -1.995699E-09
        41   5 -3.318298E+05 -1.372894E+02  3.516904E+03 -8.013526E-09  3.366687E+03  1.284105E-10
        41   6 -3.315725E+05 -4.834580E+01  2.031436E+03 -1.168412E-08  1.606499E+03  1.568282E-09
        41   7 -3.315720E+05  9.160638E+02  6.434389E+03 -1.827409E+02  5.126852E+03 -1.509853E-03
        41   8 -3.318298E+05 -1.372894E+02  3.516904E+03 -9.639232E+00  3.366687E+03 -5.229959E-05
        41   9 -3.315725E+05 -4.834575E+01  2.031436E+03  1.634653E+02  1.606499E+03  4.232090E-04
        41  10 -3.315721E+05  9.160567E+02  6.434339E+03  1.827409E+02 -3.333138E-10 -1.356628E-09
        41  11 -3.318298E+05 -1.372924E+02  3.516883E+03  9.639232E+00  4.954898E-09  9.468422E-10
        41  12 -3.315725E+05 -4.834645E+01  2.031431E+03 -1.634653E+02  7.202940E-09  9.808623E-10
        41  13 -3.315721E+05  9.160567E+02  6.434339E+03 -1.400909E-08 -2.153671E-09 -1.241999E-09
        41  14 -3.318298E+05 -1.372924E+02  3.516883E+03 -8.889007E-09  1.016745E-09  1.457726E-10
        41  15 -3.315725E+05 -4.834650E+01  2.031431E+03 -1.561668E-08  3.611500E-10  7.372037E-10
        41  16 -3.315721E+05  9.160567E+02  6.434339E+03 -1.827409E+02  1.352164E-09 -1.052364E-09
        41  17 -3.318298E+05 -1.372924E+02  3.516883E+03 -9.639232E+00 -4.448628E-09 -6.633902E-10
        41  18 -3.315725E+05 -4.834645E+01  2.031431E+03  1.634653E+02 -5.788551E-09  5.442520E-10
        41  19 -3.315720E+05  9.160638E+02  6.434389E+03  1.827409E+02 -5.126852E+03 -1.509852E-03
        41  20 -3.318298E+05 -1.372894E+02  3.516904E+03  9.639232E+00 -3.366687E+03 -5.229786E-05
        41  21 -3.315725E+05 -4.834575E+01  2.031436E+03 -1.634653E+02 -1.606499E+03  4.232077E-04
        41  22 -3.315720E+05  9.160637E+02  6.434389E+03 -3.213651E-09 -5.126852E+03 -4.732621E-10
        41  23 -3.318298E+05 -1.372894E+02  3.516904E+03 -2.053356E-08 -3.366687E+03  1.124717E-10
        41  24 -3.315725E+05 -4.834580E+01  2.031436E+03  1.975872E-08 -1.606499E+03 -8.927270E-11
        41  25 -3.315720E+05  9.160638E+02  6.434389E+03 -1.827409E+02 -5.126852E+03  1.509851E-03
        41  26 -3.318298E+05 -1.372894E+02  3.516904E+03 -9.639232E+00 -3.366687E+03  5.229811E-05
        41  27 -3.315725E+05 -4.834575E+01  2.031436E+03  1.634653E+02 -1.606499E+03 -4.232080E-04
        42   1 -3.316687E+05  8.274494E+01  1.547700E+03 -7.646208E+00  1.285477E+03 -1.583906E-05
        42   2 -3.317098E+05 -1.592132E+01  8.475514E+02 -1.514910E+01  8.646968E+02 -2.111106E-05
        42   3 -3.316688E+05 -5.245471E+00  4.487956E+02 -2.265199E+01  4.439171E+02 -1.620681E-05
        42   4 -3.316687E+05  8.274494E+01  1.547700E+03  3.225878E-08  1.285477E+03  1.417590E-09
        42   5 -3.317098E+05 -1.592132E+01  8.475514E+02 -1.926504E-08  8.646968E+02  6.297613E-11
        42   6 -3.316688E+05 -5.245472E+00  4.487956E+02 -9.945345E-09  4.439171E+02 -1.027922E-09
        42   7 -3.316687E+05  8.274494E+01  1.547700E+03  7.646209E+00  1.285477E+03  1.584189E-05
        42   8 -3.317098E+05 -1.592132E+01  8.475514E+02  1.514910E+01  8.646968E+02  2.111111E-05
        42   9 -3.316688E+05 -5.245471E+00  4.487956E+02  2.265199E+01  4.439171E+02  1.620479E-05
        42  10 -3.316687E+05  8.274449E+01  1.547697E+03 -7.646209E+00 -4.645926E-09  2.602898E-10
        42  11 -3.317098E+05 -1.592152E+01  8.475500E+02 -1.514910E+01 -3.263950E-09 -4.425152E-10
        42  12 -3.316688E+05 -5.245524E+00  4.487952E+02 -2.265199E+01  1.378334E-09 -9.956670E-10
        42  13 -3.316687E+05  8.274449E+01  1.547697E+03 -1.552330E-08  2.277819E-09  6.281963E-10
        42  14 -3.317098E+05 -1.592152E+01  8.475500E+02 -3.558414E-08  1.016856E-09  1.371233E-10
        42  15 -3.316688E+05 -5.245525E+00  4.487952E+02 -1.795856E-08 -3.333883E-10 -4.038631E-10
        42  16 -3.316687E+05  8.274449E+01  1.547697E+03  7.646208E+00  3.479132E-09  1.029544E-09
        42  17 -3.317098E+05 -1.592152E+01  8.475500E+02  1.514910E+01  4.193626E-09  7.671214E-10
        42  18 -3.316688E+05 -5.245524E+00  4.487952E+02  2.265199E+01 -2.506570E-10  1.927639E-10
        42  19 -3.316687E+05  8.274494E+01  1.547700E+03 -7.646209E+00 -1.285477E+03  1.583962E-05
        42  20 -3.317098E+05 -1.592132E+01  8.475514E+02 -1.514910E+01 -8.646968E+02  2.111017E-05
        42  21 -3.316688E+05 -5.245471E+00  4.487956E+02 -2.265199E+01 -4.439171E+02  1.620488E-05
        42  22 -3.316687E+05  8.274494E+01  1.547700E+03 -3.745646E-08 -1.285477E+03 -1.485292E-10
        42  23 -3.317098E+05 -1.592132E+01  8.475514E+02 -2.605721E-08 -8.646968E+02  2.254788E-10
        42  24 -3.316688E+05 -5.245472E+00  4.487956E+02  7.415220E-09 -4.439171E+02  2.252490E-10
        42  25 -3.316687E+05  8.274494E+01  1.547700E+03  7.646208E+00 -1.285477E+03 -1.583989E-05
        42  26 -3.317098E+05 -1.592132E+01  8.475514E+02  1.514910E+01 -8.646968E+02 -2.110966E-05
        42  27 -3.316688E+05 -5.245471E+00  4.487956E+02  2.265199E+01 -4.439171E+02 -1.620444E-05
        43   1 -3.316862E+05  6.817097E+00  3.086646E+02 -1.026427E+01  3.755182E+02 -6.212756E-06
        43   2 -3.316882E+05  2.070301E-01  8.529228E+01 -7.414929E+00  3.335340E+02 -3.985267E-06
        43   3 -3.316863E+05 -1.288192E+01 -1.123573E+02 -4.565634E+00  2.915505E+02 -2.144549E-06
        43   4 -3.316862E+05  6.817097E+00  3.086646E+02  1.416772E-08  3.755182E+02 -1.000272E-09
        43   5 -3.316882E+05  2.070300E-01  8.529228E+01  3.312435E-09  3.335340E+02 -9.374301E-11
        43   6 -3.316863E+05 -1.288192E+01 -1.123573E+02  1.507059E-08  2.915505E+02  8.351585E-10
        43   7 -3.316862E+05  6.817097E+00  3.086646E+02  1.026427E+01  3.755182E+02  6.210797E-06
        43   8 -3.316882E+05  2.070301E-01  8.529228E+01  7.414929E+00  3.335340E+02  3.985016E-06
        43   9 -3.316863E+05 -1.288192E+01 -1.123573E+02  4.565634E+00  2.915505E+02  2.146290E-06
        43  10 -3.316862E+05  6.817060E+00  3.086644E+02 -1.026427E+01 -1.496702E-09 -8.181608E-10
        43  11 -3.316882E+05  2.070002E-01  8.529207E+01 -7.414929E+00 -1.071805E-09 -6.155374E-11
        43  12 -3.316863E+05 -1.288195E+01 -1.123575E+02 -4.565634E+00  4.707663E-11  1.319795E-10
        43  13 -3.316862E+05  6.817059E+00  3.086644E+02 -3.075496E-09  1.283004E-10 -6.544323E-10
        43  14 -3.316882E+05  2.070001E-01  8.529207E+01  7.664179E-09 -4.185273E-10 -4.713415E-10
        43  15 -3.316863E+05 -1.288195E+01 -1.123575E+02 -2.056446E-09 -1.101028E-09  4.420122E-10
        43  16 -3.316862E+05  6.817060E+00  3.086644E+02  1.026427E+01 -1.756922E-09 -4.819439E-10
        43  17 -3.316882E+05  2.070002E-01  8.529207E+01  7.414929E+00  5.954366E-10 -8.391263E-10
        43  18 -3.316863E+05 -1.288195E+01 -1.123575E+02  4.565634E+00  7.424040E-10  7.153855E-10
        43  19 -3.316862E+05  6.817097E+00  3.086646E+02 -1.026427E+01 -3.755182E+02  6.211197E-06
        43  20 -3.316882E+05  2.070301E-01  8.529228E+01 -7.414929E+00 -3.335340E+02  3.985236E-06
        43  21 -3.316863E+05 -1.288192E+01 -1.123573E+02 -4.565634E+00 -2.915505E+02  2.144866E-06
        43  22 -3.316862E+05  6.817097E+00  3.086646E+02  9.835163E-09 -3.755182E+02 -3.155226E-10
        43  23 -3.316882E+05  2.070300E-01  8.529228E+01  3.399442E-09 -3.335340E+02 -8.476721E-10
        43  24 -3.316863E+05 -1.288192E+01 -1.123573E+02  1.904347E-08 -2.915505E+02  5.679212E-11
        43  25 -3.316862E+05  6.817097E+00  3.086646E+02  1.026427E+01 -3.755182E+02 -6.211781E-06
        43  26 -3.316882E+05  2.070301E-01  8.529228E+01  7.414929E+00 -3.335340E+02 -3.986899E-06
        43  27 -3.316863E+05 -1.288192E+01 -1.123573E+02  4.565634E+00 -2.915505E+02 -2.144828E-06
        44   1 -3.317037E+05  7.454126E+00 -2.156907E+02 -2.705882E+01  3.207931E+02 -1.398855E-05
        44   2 -3.316664E+05  2.050176E+01 -4.816577E+02  3.411983E-02  5.621955E+02  3.071660E-08
        44   3 -3.317038E+05 -1.393137E+02 -9.480640E+02  2.712747E+01  8.036013E+02  3.513143E-05
        44   4 -3.317037E+05  7.454125E+00 -2.156907E+02  6.180057E-09  3.207931E+02  8.451283E-10
        44   5 -3.316664E+05  2.050176E+01 -4.816577E+02  4.263900E-09  5.621955E+02  1.464246E-10
        44   6 -3.317038E+05 -1.393137E+02 -9.480640E+02  9.886609E-09  8.036013E+02 -4.171339E-10
        44   7 -3.317037E+05  7.454126E+00 -2.156907E+02  2.705882E+01  3.207931E+02  1.399026E-05
        44   8 -3.316664E+05  2.050176E+01 -4.816577E+02 -3.411979E-02  5.621955E+02 -3.049131E-08
        44   9 -3.317038E+05 -1.393137E+02 -9.480640E+02 -2.712747E+01  8.036013E+02 -3.513222E-05
        44  10 -3.317037E+05  7.454099E+00 -2.156909E+02 -2.705882E+01  6.365005E-10  1.989949E-10
        44  11 -3.316664E+05  2.050168E+01 -4.816583E+02  3.411979E-02  1.946262E-09  1.760363E-10
        44  12 -3.317038E+05 -1.393138E+02 -9.480652E+02  2.712747E+01 -2.759825E-09 -3.153913E-10
        44  13 -3.317037E+05  7.454097E+00 -2.156909E+02  1.871158E-09 -2.269294E-09  8.678765E-10
        44  14 -3.316664E+05  2.050168E+01 -4.816583E+02 -4.409363E-09 -3.414456E-09  4.842049E-10
        44  15 -3.317038E+05 -1.393138E+02 -9.480652E+02 -2.075764E-09 -1.553481E-09 -5.797723E-10
        44  16 -3.317037E+05  7.454099E+00 -2.156909E+02  2.705882E+01  5.796146E-10  1.519699E-09
        44  17 -3.316664E+05  2.050168E+01 -4.816583E+02 -3.411979E-02  8.052998E-10  8.088313E-10
        44  18 -3.317038E+05 -1.393138E+02 -9.480652E+02 -2.712747E+01 -5.438630E-10 -8.166014E-10
        44  19 -3.317037E+05  7.454126E+00 -2.156907E+02 -2.705882E+01 -3.207931E+02  1.398907E-05
        44  20 -3.316664E+05  2.050176E+01 -4.816577E+02  3.411974E-02 -5.621955E+02 -3.035659E-08
        44  21 -3.317038E+05 -1.393137E+02 -9.480640E+02  2.712747E+01 -8.036013E+02 -3.513208E-05
        44  22 -3.317037E+05  7.454125E+00 -2.156907E+02  1.870632E-09 -3.207931E+02  9.038133E-10
        44  23 -3.316664E+05  2.050176E+01 -4.816577E+02 -6.618225E-09 -5.621955E+02  8.381060E-10
        44  24 -3.317038E+05 -1.393137E+02 -9.480640E+02  1.881334E-08 -8.036013E+02 -7.433411E-10
        44  25 -3.317037E+05  7.454126E+00 -2.156907E+02  2.705882E+01 -3.207931E+02 -1.398732E-05
        44  26 -3.316664E+05  2.050176E+01 -4.816577E+02 -3.411979E-02 -5.621955E+02  3.205838E-08
        44  27 -3.317038E+05 -1.393137E+02 -9.480640E+02 -2.712747E+01 -8.036013E+02  3.513053E-05
        45   1 -3.318165E+05  7.692942E+01 -1.232593E+03 -2.171836E+02  9.958580E+02 -3.485551E-04
        45   2 -3.315257E+05  1.940717E+02 -2.110856E+03  1.093094E+02  2.074551E+03  3.654512E-04
        45   3 -3.318168E+05 -1.454032E+03 -4.132982E+03  4.358024E+02  3.153244E+03  2.214596E-03
        45   4 -3.318165E+05  7.692933E+01 -1.232593E+03  2.305936E-10  9.958580E+02  6.710455E-11
        45   5 -3.315257E+05  1.940717E+02 -2.110856E+03 -1.831015E-09  2.074551E+03  8.220916E-10
        45   6 -3.318168E+05 -1.454032E+03 -4.132982E+03  2.625785E-08  3.153244E+03 -3.888646E-10
        45   7 -3.318165E+05  7.692942E+01 -1.232593E+03  2.171836E+02  9.958580E+02  3.485553E-04
        45   8 -3.315257E+05  1.940717E+02 -2.110856E+03 -1.093094E+02  2.074551E+03 -3.654497E-04
        45   9 -3.318168E+05 -1.454032E+03 -4.132982E+03 -4.358024E+02  3.153244E+03 -2.214597E-03
        45  10 -3.318165E+05  7.692915E+01 -1.232595E+03 -2.171836E+02 -1.850104E-09 -4.243694E-10
        45  11 -3.315257E+05  1.940706E+02 -2.110864E+03  1.093094E+02 -2.506568E-09  3.022067E-11
        45  12 -3.318169E+05 -1.454035E+03 -4.133001E+03  4.358024E+02 -4.873541E-10  5.557713E-10
        45  13 -3.318165E+05  7.692906E+01 -1.232595E+03 -8.278382E-09 -1.064212E-09 -5.830560E-10
        45  14 -3.315257E+05  1.940705E+02 -2.110864E+03  4.651002E-09 -5.563627E-11  2.154592E-10
        45  15 -3.318169E+05 -1.454035E+03 -4.133001E+03  1.111782E-08  2.328934E-09 -5.171722E-11
        45  16 -3.318165E+05  7.692915E+01 -1.232595E+03  2.171836E+02  1.187799E-09 -7.416082E-10
        45  17 -3.315257E+05  1.940706E+02 -2.110864E+03 -1.093094E+02 -7.239170E-10  4.511609E-10
        45  18 -3.318169E+05 -1.454035E+03 -4.133001E+03 -4.358024E+02 -2.538188E-09 -6.579359E-10
        45  19 -3.318165E+05  7.692942E+01 -1.232593E+03 -2.171836E+02 -9.958580E+02  3.485544E-04
        45  20 -3.315257E+05  1.940717E+02 -2.110856E+03  1.093094E+02 -2.074551E+03 -3.654512E-04
        45  21 -3.318168E+05 -1.454032E+03 -4.132982E+03  4.358024E+02 -3.153244E+03 -2.214595E-03
        45  22 -3.318165E+05  7.692933E+01 -1.232593E+03  1.336469E-08 -9.958580E+02 -1.235425E-09
        45  23 -3.315257E+05  1.940717E+02 -2.110856E+03  2.517843E-09 -2.074551E+03 -3.784032E-10
        45  24 -3.318168E+05 -1.454032E+03 -4.132982E+03  1.266761E-08 -3.153244E+03  2.864592E-10
        45  25 -3.318165E+05  7.692942E+01 -1.232593E+03  2.171836E+02 -9.958580E+02 -3.485569E-04
        45  26 -3.315257E+05  1.940717E+02 -2.110856E+03 -1.093094E+02 -2.074551E+03  3.654505E-04
        45  27 -3.318168E+05 -1.454032E+03 -4.132982E+03 -4.358024E+02 -3.153244E+03  2.214596E-03
        46   1 -3.328061E+05  7.880819E+02 -5.083543E+03 -2.047342E+03  3.933415E+03 -1.297801E-02
        46   2 -3.302893E+05  1.890003E+03 -8.199375E+03  1.485676E+03  8.349585E+03  1.999103E-02
        46   3 -3.328087E+05 -1.484943E+04 -1.865176E+04  5.018625E+03  1.276569E+04  1.032467E-01
        46   4 -3.328062E+05  7.880740E+02 -5.083544E+03  2.353977E-08  3.933415E+03 -8.349171E-10
        46   5 -3.302893E+05  1.889999E+03 -8.199375E+03  5.717296E-09  8.349585E+03 -2.152936E-10
        46   6 -3.328087E+05 -1.484947E+04 -1.865176E+04  8.354516E-09  1.276569E+04 -1.665472E-11
        46   7 -3.328061E+05  7.880819E+02 -5.083543E+03  2.047342E+03  3.933415E+03  1.297801E-02
        46   8 -3.302893E+05  1.890003E+03 -8.199375E+03 -1.485676E+03  8.349585E+03 -1.999103E-02
        46   9 -3.328087E+05 -1.484943E+04 -1.865176E+04 -5.018625E+03  1.276569E+04 -1.032467E-01
        46  10 -3.328062E+05  7.880777E+02 -5.083572E+03 -2.047342E+03  1.005054E-09  3.854224E-10
        46  11 -3.302894E+05  1.889984E+03 -8.199506E+03  1.485676E+03  2.286887E-10 -3.684058E-10
        46  12 -3.328089E+05 -1.484947E+04 -1.865206E+04  5.018625E+03  8.799492E-10 -2.100983E-10
        46  13 -3.328062E+05  7.880698E+02 -5.083573E+03  1.494062E-08 -1.915810E-09 -2.592248E-10
        46  14 -3.302894E+05  1.889980E+03 -8.199506E+03  5.727287E-09 -1.615234E-09 -8.297433E-11
        46  15 -3.328089E+05 -1.484952E+04 -1.865207E+04 -3.483987E-09  2.080455E-09  1.530576E-12
        46  16 -3.328062E+05  7.880777E+02 -5.083572E+03  2.047342E+03  1.396409E-10 -8.774908E-10
        46  17 -3.302894E+05  1.889984E+03 -8.199506E+03 -1.485676E+03 -6.779117E-10  2.296088E-10
        46  18 -3.328089E+05 -1.484947E+04 -1.865206E+04 -5.018625E+03 -1.617342E-09  2.140119E-10
        46  19 -3.328061E+05  7.880819E+02 -5.083543E+03 -2.047342E+03 -3.933415E+03  1.297801E-02
        46  20 -3.302893E+05  1.890003E+03 -8.199375E+03  1.485676E+03 -8.349585E+03 -1.999103E-02
        46  21 -3.328087E+05 -1.484943E+04 -1.865176E+04  5.018625E+03 -1.276569E+04 -1.032467E-01
        46  22 -3.328062E+05  7.880740E+02 -5.083544E+03  1.926372E-08 -3.933415E+03  3.175941E-10
        46  23 -3.302893E+05  1.889999E+03 -8.199375E+03 -2.877151E-09 -8.349585E+03  7.545247E-11
        46  24 -3.328087E+05 -1.484947E+04 -1.865176E+04  3.517478E-09 -1.276569E+04  1.750047E-11
        46  25 -3.328061E+05  7.880819E+02 -5.083543E+03  2.047342E+03 -3.933415E+03 -1.297801E-02
        46  26 -3.302893E+05  1.890003E+03 -8.199375E+03 -1.485676E+03 -8.349585E+03  1.999103E-02
        46  27 -3.328087E+05 -1.484943E+04 -1.865176E+04 -5.018625E+03 -1.276569E+04  1.032467E-01
        47   1  9.441056E+04 -6.360197E+05  8.110950E+04 -1.978132E+04  5.750132E+03 -2.896047E+04
        47   2  1.278490E+05 -6.958280E+05  9.196950E+04 -8.107599E+03  1.695352E+04 -2.265853E+04
        47   3  1.080857E+05 -7.695673E+05  8.546594E+04 -4.153026E+04  1.490612E+04 -1.636057E+04
        47   4 -4.537722E+04 -1.196278E+06 -5.702988E+04 -3.505604E+04  5.752629E+03 -3.877130E+04
        47   5  5.740067E+03 -1.188649E+06 -2.527298E+04 -1.250058E+04  1.695559E+04 -2.517086E+04
        47   6  2.363700E+03 -1.196236E+06 -1.596608E+04 -3.504452E+04  1.490333E+04 -1.157345E+04
        47   7 -1.851875E+05 -1.756249E+06 -1.951920E+05 -5.031693E+04  5.755610E+03 -4.857327E+04
        47   8 -1.163864E+05 -1.681246E+06 -1.425324E+05 -1.689003E+04  1.695770E+04 -2.768120E+04
        47   9 -1.033713E+05 -1.622737E+06 -1.174107E+05 -2.856322E+04  1.490065E+04 -6.789600E+03
        47  10  9.441030E+04 -6.360206E+05  8.110786E+04 -1.978118E+04  1.391343E-09  5.919672E-10
        47  11  1.278486E+05 -6.958287E+05  9.196799E+04 -8.107290E+03  2.345307E-09 -2.951629E-10
        47  12  1.080854E+05 -7.695676E+05  8.546502E+04 -4.153007E+04 -1.669117E-09 -1.245062E-09
        47  13 -4.537766E+04 -1.196280E+06 -5.703277E+04 -3.505586E+04 -1.768911E-09  2.530601E-11
        47  14  5.739588E+03 -1.188649E+06 -2.527471E+04 -1.250024E+04 -6.548161E-10 -2.112975E-10
        47  15  2.363425E+03 -1.196236E+06 -1.596675E+04 -3.504438E+04 -1.902689E-10 -1.711962E-11
        47  16 -1.851882E+05 -1.756252E+06 -1.951965E+05 -5.031670E+04 -1.758379E-09 -6.424403E-10
        47  17 -1.163869E+05 -1.681247E+06 -1.425344E+05 -1.688965E+04 -4.258354E-09 -2.951626E-10
        47  18 -1.033715E+05 -1.622737E+06 -1.174112E+05 -2.856314E+04  1.041509E-09  6.881553E-10
        47  19  9.441056E+04 -6.360197E+05  8.110950E+04 -1.978132E+04 -5.750132E+03  2.896047E+04
        47  20  1.278490E+05 -6.958280E+05  9.196950E+04 -8.107599E+03 -1.695352E+04  2.265853E+04
        47  21  1.080857E+05 -7.695673E+05  8.546594E+04 -4.153026E+04 -1.490612E+04  1.636057E+04
        47  22 -4.537722E+04 -1.196278E+06 -5.702988E+04 -3.505604E+04 -5.752629E+03  3.877130E+04
        47  23  5.740067E+03 -1.188649E+06 -2.527298E+04 -1.250058E+04 -1.695559E+04  2.517086E+04
        47  24  2.363700E+03 -1.196236E+06 -1.596608E+04 -3.504452E+04 -1.490333E+04  1.157345E+04
        47  25 -1.851875E+05 -1.756249E+06 -1.951920E+05 -5.031693E+04 -5.755610E+03  4.857327E+04
        47  26 -1.163864E+05 -1.681246E+06 -1.425324E+05 -1.689003E+04 -1.695770E+04  2.768120E+04
        47  27 -1.033713E+05 -1.622737E+06 -1.174107E+05 -2.856322E+04 -1.490065E+04  6.789600E+03
        48   1  8.087950E+04 -8.493748E+05  6.876785E+04 -3.414796E+04  1.140115E+04 -9.963741E+03
        48   2  6.898905E+04 -9.167159E+05  5.809289E+04 -1.199298E+04  9.438583E+03 -6.592051E+03
        48   3  5.095166E+04 -9.860633E+05  4.367659E+04 -3.645365E+04  6.655407E+03 -3.222865E+03
        48   4 -4.378711E+03 -1.193308E+06 -1.321742E+04 -3.538872E+04  1.140089E+04 -9.106060E+03
        48   5  7.021883E+02 -1.192257E+06 -7.482795E+03 -1.207855E+04  9.437627E+03 -5.283804E+03
        48   6 -4.435551E+02 -1.193296E+06 -5.804174E+03 -3.538544E+04  6.653585E+03 -1.463684E+03
        48   7 -8.964548E+04 -1.537132E+06 -9.521099E+04 -3.662876E+04  1.140064E+04 -8.248852E+03
        48   8 -6.759016E+04 -1.467728E+06 -7.306380E+04 -1.216406E+04  9.436671E+03 -3.976134E+03
        48   9 -5.184188E+04 -1.400490E+06 -5.528796E+04 -3.431758E+04  6.651768E+03  2.949116E+02
        48  10  8.087934E+04 -8.493750E+05  6.876742E+04 -3.414786E+04 -2.650771E-10  7.937494E-11
        48  11  6.898894E+04 -9.167160E+05  5.809264E+04 -1.199293E+04  3.613784E-09  1.409830E-10
        48  12  5.095161E+04 -9.860634E+05  4.367649E+04 -3.645364E+04  1.181652E-09 -8.216272E-10
        48  13 -4.378873E+03 -1.193308E+06 -1.321782E+04 -3.538863E+04  1.525024E-09 -4.007147E-11
        48  14  7.020852E+02 -1.192257E+06 -7.483015E+03 -1.207851E+04 -1.913034E-10 -3.882904E-10
        48  15 -4.436032E+02 -1.193296E+06 -5.804261E+03 -3.538543E+04 -1.568137E-09 -9.099171E-11
        48  16 -8.964563E+04 -1.537132E+06 -9.521136E+04 -3.662869E+04  1.911887E-09 -6.830242E-10
        48  17 -6.759026E+04 -1.467728E+06 -7.306400E+04 -1.216403E+04 -1.001739E-09 -1.602404E-09
        48  18 -5.184193E+04 -1.400490E+06 -5.528804E+04 -3.431758E+04  5.643486E-11 -3.642172E-11
        48  19  8.087950E+04 -8.493748E+05  6.876785E+04 -3.414796E+04 -1.140115E+04  9.963741E+03
        48  20  6.898905E+04 -9.167159E+05  5.809289E+04 -1.199298E+04 -9.438583E+03  6.592051E+03
        48  21  5.095166E+04 -9.860633E+05  4.367659E+04 -3.645365E+04 -6.655407E+03  3.222865E+03
        48  22 -4.378711E+03 -1.193308E+06 -1.321742E+04 -3.538872E+04 -1.140089E+04  9.106060E+03
        48  23  7.021883E+02 -1.192257E+06 -7.482795E+03 -1.207855E+04 -9.437627E+03  5.283804E+03
        48  24 -4.435551E+02 -1.193296E+06 -5.804174E+03 -3.538544E+04 -6.653585E+03  1.463684E+03
        48  25 -8.964548E+04 -1.537132E+06 -9.521099E+04 -3.662876E+04 -1.140064E+04  8.248852E+03
        48  26 -6.759016E+04 -1.467728E+06 -7.306380E+04 -1.216406E+04 -9.436671E+03  3.976134E+03
        48  27 -5.184188E+04 -1.400490E+06 -5.528796E+04 -3.431758E+04 -6.651768E+03 -2.949116E+02
        49   1  3.053860E+04 -1.070353E+06  2.374378E+04 -3.445355E+04  4.650131E+03 -2.373025E+03
        49   2  1.448819E+04 -1.137902E+06  7.374776E+03 -1.276638E+04  1.842331E+03  1.206559E+03
        49   3 -1.137655E+04 -1.208499E+06 -1.381038E+04 -3.818775E+04  2.349712E+02  4.786765E+03
        49   4  5.614099E+01 -1.193477E+06 -5.405201E+03 -3.549297E+04  4.648000E+03 -4.964629E+02
        49   5  1.074197E+03 -1.192009E+06 -5.507283E+03 -1.194296E+04  1.840908E+03  2.420959E+03
        49   6 -7.607304E+03 -1.193479E+06 -9.965230E+03 -3.550199E+04  2.343117E+02  5.339404E+03
        49   7 -3.042740E+04 -1.316587E+06 -3.455523E+04 -3.653217E+04  4.645863E+03  1.379728E+03
        49   8 -1.234001E+04 -1.246112E+06 -1.838954E+04 -1.111962E+04  1.839489E+03  3.635253E+03
        49   9 -3.838045E+03 -1.178458E+06 -6.120090E+03 -3.281617E+04  2.336570E+02  5.892056E+03
        49  10  3.053857E+04 -1.070353E+06  2.374373E+04 -3.445354E+04 -4.968692E-10 -4.277910E-11
        49  11  1.448819E+04 -1.137902E+06  7.374767E+03 -1.276638E+04  3.160762E-10 -3.983559E-10
        49  12 -1.137656E+04 -1.208499E+06 -1.381043E+04 -3.818775E+04  6.167463E-10 -9.835969E-10
        49  13  5.611774E+01 -1.193477E+06 -5.405242E+03 -3.549297E+04  5.706226E-10  2.750326E-11
        49  14  1.074192E+03 -1.192009E+06 -5.507300E+03 -1.194296E+04  4.514909E-10 -6.062679E-10
        49  15 -7.607312E+03 -1.193479E+06 -9.965284E+03 -3.550199E+04  5.354287E-10 -1.194985E-10
        49  16 -3.042742E+04 -1.316587E+06 -3.455527E+04 -3.653218E+04  9.958337E-10 -8.030661E-10
        49  17 -1.234001E+04 -1.246112E+06 -1.838957E+04 -1.111962E+04  4.158537E-10 -1.438247E-09
        49  18 -3.838055E+03 -1.178458E+06 -6.120155E+03 -3.281618E+04 -5.871684E-10  2.715747E-12
        49  19  3.053860E+04 -1.070353E+06  2.374378E+04 -3.445355E+04 -4.650131E+03  2.373025E+03
        49  20  1.448819E+04 -1.137902E+06  7.374776E+03 -1.276638E+04 -1.842331E+03 -1.206559E+03
        49  21 -1.137655E+04 -1.208499E+06 -1.381038E+04 -3.818775E+04 -2.349712E+02 -4.786765E+03
        49  22  5.614099E+01 -1.193477E+06 -5.405201E+03 -3.549297E+04 -4.648000E+03  4.964629E+02
        49  23  1.074197E+03 -1.192009E+06 -5.507283E+03 -1.194296E+04 -1.840908E+03 -2.420959E+03
        49  24 -7.607304E+03 -1.193479E+06 -9.965230E+03 -3.550199E+04 -2.343117E+02 -5.339404E+03
        49  25 -3.042740E+04 -1.316587E+06 -3.455523E+04 -3.653217E+04 -4.645863E+03 -1.379728E+03
        49  26 -1.234001E+04 -1.246112E+06 -1.838954E+04 -1.111962E+04 -1.839489E+03 -3.635253E+03
        49  27 -3.838045E+03 -1.178458E+06 -6.120090E+03 -3.281617E+04 -2.336570E+02 -5.892056E+03
        50   1 -9.069934E+05 -1.580043E+05 -2.840616E+04 -3.376896E+05 -3.375953E+03 -8.149600E+01
        50   2 -8.968243E+05 -1.473855E+05 -2.274045E+04 -3.303680E+05 -2.359061E+03  2.549383E+03
        50   3 -8.807184E+05 -1.458331E+05 -1.895426E+04 -3.305208E+05 -4.148880E+02  2.707241E+03
        50   4 -8.105008E+05 -1.211517E+05 -2.096295E+03 -3.109583E+05 -1.719697E+03  5.395341E+02
        50   5 -8.134868E+05 -1.159722E+05 -8.794724E+02 -3.075106E+05 -1.979264E+03  2.691737E+03
        50   6 -8.102827E+05 -1.196060E+05 -5.297178E+02 -3.115374E+05 -1.311651E+03  2.371073E+03
        50   7 -7.140002E+05 -8.429879E+04  2.421250E+04 -2.842233E+05 -6.317285E+01  1.160668E+03
        50   8 -7.301427E+05 -8.455860E+04  2.098086E+04 -2.846504E+05 -1.599412E+03  2.834111E+03
        50   9 -7.398418E+05 -9.337850E+04  1.789449E+04 -2.925520E+05 -2.208529E+03  2.034863E+03
        50  10 -9.069934E+05 -1.580043E+05 -2.840618E+04 -3.376896E+05  1.716663E-09  1.089188E-10
        50  11 -8.968243E+05 -1.473855E+05 -2.274047E+04 -3.303680E+05  6.312757E-09  4.065427E-10
        50  12 -8.807184E+05 -1.458331E+05 -1.895427E+04 -3.305208E+05  1.459217E-09  6.766081E-10
        50  13 -8.105008E+05 -1.211517E+05 -2.096301E+03 -3.109582E+05 -1.097209E-09 -7.065001E-11
        50  14 -8.134868E+05 -1.159722E+05 -8.794934E+02 -3.075106E+05 -3.041863E-10 -2.467877E-10
        50  15 -8.102827E+05 -1.196060E+05 -5.297316E+02 -3.115374E+05 -7.474266E-10  8.234078E-10
        50  16 -7.140002E+05 -8.429879E+04  2.421250E+04 -2.842233E+05 -1.084564E-09 -2.909274E-10
        50  17 -7.301427E+05 -8.455861E+04  2.098084E+04 -2.846504E+05 -1.793629E-09 -2.101650E-10
        50  18 -7.398418E+05 -9.337851E+04  1.789447E+04 -2.925520E+05 -1.324886E-09  4.515452E-10
        50  19 -9.069934E+05 -1.580043E+05 -2.840616E+04 -3.376896E+05  3.375953E+03  8.149600E+01
        50  20 -8.968243E+05 -1.473855E+05 -2.274045E+04 -3.303680E+05  2.359061E+03 -2.549383E+03
        50  21 -8.807184E+05 -1.458331E+05 -1.895426E+04 -3.305208E+05  4.148880E+02 -2.707241E+03
        50  22 -8.105008E+05 -1.211517E+05 -2.096295E+03 -3.109583E+05  1.719697E+03 -5.395341E+02
        50  23 -8.134868E+05 -1.159722E+05 -8.794724E+02 -3.075106E+05  1.979264E+03 -2.691737E+03
        50  24 -8.102827E+05 -1.196060E+05 -5.297178E+02 -3.115374E+05  1.311651E+03 -2.371073E+03
        50  25 -7.140002E+05 -8.429879E+04  2.421250E+04 -2.842233E+05  6.317285E+01 -1.160668E+03
        50  26 -7.301427E+05 -8.455860E+04  2.098086E+04 -2.846504E+05  1.599412E+03 -2.834111E+03
        50  27 -7.398418E+05 -9.337850E+04  1.789449E+04 -2.925520E+05  2.208529E+03 -2.034863E+03
        51   1 -8.628739E+05 -1.396795E+05 -1.428026E+04 -3.258607E+05 -8.048942E+02  1.764390E+03
        51   2 -8.529165E+05 -1.308566E+05 -1.050418E+04 -3.181361E+05 -4.421884E+02  1.419792E+03
        51   3 -8.359496E+05 -1.293602E+05 -6.937698E+03 -3.185187E+05 -1.113047E+01  8.926600E+02
        51   4 -8.101783E+05 -1.198575E+05 -4.317393E+02 -3.114580E+05 -9.753168E+02  1.700500E+03
        51   5 -8.136807E+05 -1.161231E+05 -2.133603E+02 -3.074346E+05 -7.068251E+02  1.320601E+03
        51   6 -8.101553E+05 -1.196965E+05 -1.298444E+02 -3.115182E+05 -3.699901E+02  7.581753E+02
        51   7 -7.574799E+05 -1.000352E+05  1.341657E+04 -2.970543E+05 -1.145756E+03  1.636604E+03
        51   8 -7.744437E+05 -1.013897E+05  1.007727E+04 -2.967325E+05 -9.714789E+02  1.221403E+03
        51   9 -7.843606E+05 -1.100329E+05  6.677869E+03 -3.045175E+05 -7.288619E+02  6.236859E+02
        51  10 -8.628739E+05 -1.396795E+05 -1.428027E+04 -3.258607E+05  1.384832E-10  1.365837E-09
        51  11 -8.529165E+05 -1.308566E+05 -1.050418E+04 -3.181361E+05 -3.321113E-10  3.232745E-10
        51  12 -8.359496E+05 -1.293602E+05 -6.937699E+03 -3.185187E+05 -1.950576E-09 -2.015394E-09
        51  13 -8.101783E+05 -1.198575E+05 -4.317465E+02 -3.114580E+05  1.035233E-09  8.362864E-10
        51  14 -8.136807E+05 -1.161231E+05 -2.133646E+02 -3.074346E+05  3.764080E-09  1.054965E-09
        51  15 -8.101553E+05 -1.196965E+05 -1.298457E+02 -3.115182E+05  2.023459E-09  1.431964E-10
        51  16 -7.574799E+05 -1.000352E+05  1.341656E+04 -2.970543E+05  9.052839E-10  2.732395E-10
        51  17 -7.744437E+05 -1.013897E+05  1.007727E+04 -2.967325E+05  1.897003E-09  9.691880E-10
        51  18 -7.843606E+05 -1.100329E+05  6.677868E+03 -3.045175E+05  2.940256E-09  2.170005E-09
        51  19 -8.628739E+05 -1.396795E+05 -1.428026E+04 -3.258607E+05  8.048942E+02 -1.764390E+03
        51  20 -8.529165E+05 -1.308566E+05 -1.050418E+04 -3.181361E+05  4.421884E+02 -1.419792E+03
        51  21 -8.359496E+05 -1.293602E+05 -6.937698E+03 -3.185187E+05  1.113047E+01 -8.926600E+02
        51  22 -8.101783E+05 -1.198575E+05 -4.317393E+02 -3.114580E+05  9.753168E+02 -1.700500E+03
        51  23 -8.136807E+05 -1.161231E+05 -2.133603E+02 -3.074346E+05  7.068251E+02 -1.320601E+03
        51  24 -8.101553E+05 -1.196965E+05 -1.298444E+02 -3.115182E+05  3.699901E+02 -7.581753E+02
        51  25 -7.574799E+05 -1.000352E+05  1.341657E+04 -2.970543E+05  1.145756E+03 -1.636604E+03
        51  26 -7.744437E+05 -1.013897E+05  1.007727E+04 -2.967325E+05  9.714789E+02 -1.221403E+03
        51  27 -7.843606E+05 -1.100329E+05  6.677869E+03 -3.045175E+05  7.288619E+02 -6.236859E+02
        52   1 -8.181385E+05 -1.227240E+05 -2.159776E+03 -3.137016E+05  9.872472E+01  4.979975E+02
        52   2 -8.081690E+05 -1.140565E+05  1.376304E+03 -3.059130E+05  3.678433E+02 -8.470975E+01
        52   3 -7.910636E+05 -1.125620E+05  4.873107E+03 -3.063192E+05  6.414934E+02 -6.794471E+02
        52   4 -8.101395E+05 -1.197266E+05 -1.076050E+02 -3.115151E+05 -2.076127E+02  3.832001E+02
        52   5 -8.137068E+05 -1.161331E+05 -7.594118E+01 -3.074204E+05  5.528851E+01 -2.018427E+02
        52   6 -8.101373E+05 -1.197115E+05 -7.864669E+01 -3.115207E+05  3.227196E+02 -7.989150E+02
        52   7 -8.021404E+05 -1.167293E+05  1.944583E+03 -3.093286E+05 -5.139574E+02  2.684000E+02
        52   8 -8.192446E+05 -1.182098E+05 -1.528201E+03 -3.089278E+05 -2.572658E+02 -3.189755E+02
        52   9 -8.292107E+05 -1.268610E+05 -5.030467E+03 -3.167221E+05  3.954485E+00 -9.183797E+02
        52  10 -8.181385E+05 -1.227240E+05 -2.159777E+03 -3.137016E+05  4.972999E-09  1.221703E-10
        52  11 -8.081690E+05 -1.140565E+05  1.376303E+03 -3.059130E+05  8.498505E-10 -2.112980E-10
        52  12 -7.910636E+05 -1.125620E+05  4.873106E+03 -3.063192E+05 -2.848487E-09  5.051235E-10
        52  13 -8.101395E+05 -1.197266E+05 -1.076053E+02 -3.115151E+05 -6.913567E-10 -8.418473E-10
        52  14 -8.137068E+05 -1.161331E+05 -7.594126E+01 -3.074204E+05  2.932957E-09 -4.182074E-10
        52  15 -8.101373E+05 -1.197115E+05 -7.864809E+01 -3.115207E+05 -1.371420E-10  8.989975E-10
        52  16 -8.021404E+05 -1.167293E+05  1.944583E+03 -3.093286E+05 -9.216978E-09 -1.991109E-09
        52  17 -8.192446E+05 -1.182098E+05 -1.528201E+03 -3.089278E+05 -2.742560E-09 -2.309852E-09
        52  18 -8.292107E+05 -1.268610E+05 -5.030468E+03 -3.167221E+05  2.357815E-09  1.823270E-09
        52  19 -8.181385E+05 -1.227240E+05 -2.159776E+03 -3.137016E+05 -9.872472E+01 -4.979975E+02
        52  20 -8.081690E+05 -1.140565E+05  1.376304E+03 -3.059130E+05 -3.678433E+02  8.470975E+01
        52  21 -7.910636E+05 -1.125620E+05  4.873107E+03 -3.063192E+05 -6.414934E+02  6.794471E+02
        52  22 -8.101395E+05 -1.197266E+05 -1.076050E+02 -3.115151E+05  2.076127E+02 -3.832001E+02
        52  23 -8.137068E+05 -1.161331E+05 -7.594118E+01 -3.074204E+05 -5.528851E+01  2.018427E+02
        52  24 -8.101373E+05 -1.197115E+05 -7.864669E+01 -3.115207E+05 -3.227196E+02  7.989150E+02
        52  25 -8.021404E+05 -1.167293E+05  1.944583E+03 -3.093286E+05  5.139574E+02 -2.684000E+02
        52  26 -8.192446E+05 -1.182098E+05 -1.528201E+03 -3.089278E+05  2.572658E+02  3.189755E+02
        52  27 -8.292107E+05 -1.268610E+05 -5.030467E+03 -3.167221E+05 -3.954485E+00  9.183797E+02
        53   1 -7.733772E+05 -1.058978E+05  9.604918E+03 -3.014950E+05  7.852804E+02 -1.033416E+03
        53   2 -7.634858E+05 -9.731331E+04  1.303013E+04 -2.937606E+05  1.080167E+03 -1.616515E+03
        53   3 -7.465099E+05 -9.583872E+04  1.640244E+04 -2.941614E+05  1.374185E+03 -2.197103E+03
        53   4 -8.101499E+05 -1.197007E+05 -8.946023E+01 -3.115066E+05  4.706286E+02 -1.151346E+03
        53   5 -8.136925E+05 -1.161497E+05 -1.365666E+02 -3.074375E+05  7.667950E+02 -1.733982E+03
        53   6 -8.101512E+05 -1.197087E+05 -2.375672E+02 -3.115037E+05  1.062093E+03 -2.314109E+03
        53   7 -8.469208E+05 -1.335033E+05 -9.783837E+03 -3.215175E+05  1.560008E+02 -1.269267E+03
        53   8 -8.638967E+05 -1.349858E+05 -1.330343E+04 -3.211134E+05  4.534521E+02 -1.851439E+03
        53   9 -8.737889E+05 -1.435785E+05 -1.687800E+04 -3.288444E+05  7.500340E+02 -2.431103E+03
        53  10 -7.733772E+05 -1.058978E+05  9.604915E+03 -3.014950E+05  2.440037E-09  1.445431E-09
        53  11 -7.634858E+05 -9.731332E+04  1.303013E+04 -2.937606E+05  2.151418E-09  8.914836E-11
        53  12 -7.465099E+05 -9.583873E+04  1.640243E+04 -2.941614E+05  1.182669E-10 -7.156957E-10
        53  13 -8.101499E+05 -1.197007E+05 -8.946314E+01 -3.115066E+05  6.385672E-10  1.066290E-09
        53  14 -8.136925E+05 -1.161497E+05 -1.365734E+02 -3.074375E+05  7.620014E-10 -4.613740E-10
        53  15 -8.101512E+05 -1.197087E+05 -2.375794E+02 -3.115036E+05  1.736243E-09 -1.745864E-10
        53  16 -8.469208E+05 -1.335033E+05 -9.783840E+03 -3.215175E+05 -1.012976E-10  5.194217E-10
        53  17 -8.638967E+05 -1.349858E+05 -1.330344E+04 -3.211134E+05  2.386216E-09 -1.303647E-09
        53  18 -8.737889E+05 -1.435785E+05 -1.687802E+04 -3.288444E+05 -3.664465E-10  1.335974E-10
        53  19 -7.733772E+05 -1.058978E+05  9.604918E+03 -3.014950E+05 -7.852804E+02  1.033416E+03
        53  20 -7.634858E+05 -9.731331E+04  1.303013E+04 -2.937606E+05 -1.080167E+03  1.616515E+03
        53  21 -7.465099E+05 -9.583872E+04  1.640244E+04 -2.941614E+05 -1.374185E+03  2.197103E+03
        53  22 -8.101499E+05 -1.197007E+05 -8.946023E+01 -3.115066E+05 -4.706286E+02  1.151346E+03
        53  23 -8.136925E+05 -1.161497E+05 -1.365666E+02 -3.074375E+05 -7.667950E+02  1.733982E+03
        53  24 -8.101512E+05 -1.197087E+05 -2.375672E+02 -3.115037E+05 -1.062093E+03  2.314109E+03
        53  25 -8.469208E+05 -1.335033E+05 -9.783837E+03 -3.215175E+05 -1.560008E+02  1.269267E+03
        53  26 -8.638967E+05 -1.349858E+05 -1.330343E+04 -3.211134E+05 -4.534521E+02  1.851439E+03
        53  27 -8.737889E+05 -1.435785E+05 -1.687800E+04 -3.288444E+05 -7.500340E+02  2.431103E+03
        54   1 -7.290768E+05 -8.923484E+04  2.101006E+04 -2.893900E+05  1.550225E+03 -2.531927E+03
        54   2 -7.193809E+05 -8.080884E+04  2.416307E+04 -2.817991E+05  2.049465E+03 -3.026921E+03
        54   3 -7.028021E+05 -7.944046E+04  2.708492E+04 -2.821560E+05  2.545625E+03 -3.513325E+03
        54   4 -8.101925E+05 -1.196664E+05 -3.112753E+02 -3.114739E+05  1.239183E+03 -2.648559E+03
        54   5 -8.136398E+05 -1.161793E+05 -5.569608E+02 -3.074843E+05  1.742804E+03 -3.141946E+03
        54   6 -8.102051E+05 -1.197507E+05 -1.037268E+03 -3.114427E+05  2.243336E+03 -3.626745E+03
        54   7 -8.913018E+05 -1.500976E+05 -2.163317E+04 -3.335552E+05  9.281863E+02 -2.765174E+03
        54   8 -9.078900E+05 -1.515491E+05 -2.527771E+04 -3.331660E+05  1.436194E+03 -3.256952E+03
        54   9 -9.175966E+05 -1.600601E+05 -2.916035E+04 -3.407247E+05  1.941106E+03 -3.740142E+03
        54  10 -7.290768E+05 -8.923485E+04  2.101004E+04 -2.893900E+05 -5.743940E-11 -3.205145E-11
        54  11 -7.193809E+05 -8.080885E+04  2.416305E+04 -2.817991E+05 -1.647543E-09 -2.706704E-10
        54  12 -7.028021E+05 -7.944047E+04  2.708489E+04 -2.821560E+05 -8.111248E-10 -2.408873E-10
        54  13 -8.101925E+05 -1.196664E+05 -3.112914E+02 -3.114739E+05  1.682359E-10  6.079056E-10
        54  14 -8.136398E+05 -1.161793E+05 -5.569850E+02 -3.074843E+05 -9.015328E-11  2.618257E-10
        54  15 -8.102051E+05 -1.197507E+05 -1.037302E+03 -3.114427E+05 -1.701409E-09 -3.753073E-10
        54  16 -8.913018E+05 -1.500976E+05 -2.163319E+04 -3.335552E+05 -1.228194E-10  8.895308E-10
        54  17 -9.078900E+05 -1.515491E+05 -2.527773E+04 -3.331660E+05  1.235098E-09  7.375846E-10
        54  18 -9.175966E+05 -1.600601E+05 -2.916038E+04 -3.407247E+05 -1.751186E-09 -3.897462E-10
        54  19 -7.290768E+05 -8.923484E+04  2.101006E+04 -2.893900E+05 -1.550225E+03  2.531927E+03
        54  20 -7.193809E+05 -8.080884E+04  2.416307E+04 -2.817991E+05 -2.049465E+03  3.026921E+03
        54  21 -7.028021E+05 -7.944046E+04  2.708492E+04 -2.821560E+05 -2.545625E+03  3.513325E+03
        54  22 -8.101925E+05 -1.196664E+05 -3.112753E+02 -3.114739E+05 -1.239183E+03  2.648559E+03
        54  23 -8.136398E+05 -1.161793E+05 -5.569608E+02 -3.074843E+05 -1.742804E+03  3.141946E+03
        54  24 -8.102051E+05 -1.197507E+05 -1.037268E+03 -3.114427E+05 -2.243336E+03  3.626745E+03
        54  25 -8.913018E+05 -1.500976E+05 -2.163317E+04 -3.335552E+05 -9.281863E+02  2.765174E+03
        54  26 -9.078900E+05 -1.515491E+05 -2.527771E+04 -3.331660E+05 -1.436194E+03  3.256952E+03
        54  27 -9.175966E+05 -1.600601E+05 -2.916035E+04 -3.407247E+05 -1.941106E+03  3.740142E+03
        55   1 -6.858171E+05 -7.297895E+04  3.131656E+04 -2.776480E+05  2.878451E+03 -3.782724E+03
        55   2 -6.763811E+05 -6.463304E+04  3.352978E+04 -2.701531E+05  4.308241E+03 -3.906278E+03
        55   3 -6.607497E+05 -6.403737E+04  3.456682E+04 -2.701255E+05  5.723596E+03 -3.990684E+03
        55   4 -8.103154E+05 -1.195918E+05 -1.361138E+03 -3.114540E+05  2.569539E+03 -3.898657E+03
        55   5 -8.134700E+05 -1.161282E+05 -2.431722E+03 -3.075653E+05  4.019245E+03 -4.014791E+03
        55   6 -8.104335E+05 -1.204193E+05 -4.694536E+03 -3.111442E+05  5.454487E+03 -4.091783E+03
        55   7 -9.347991E+05 -1.662038E+05 -3.404027E+04 -3.452539E+05  2.260694E+03 -4.014564E+03
        55   8 -9.505409E+05 -1.676223E+05 -3.839489E+04 -3.449700E+05  3.730319E+03 -4.123278E+03
        55   9 -9.600957E+05 -1.767998E+05 -4.395781E+04 -3.521539E+05  5.185449E+03 -4.192855E+03
        55  10 -6.858171E+05 -7.297897E+04  3.131652E+04 -2.776480E+05 -2.102880E-09 -1.774001E-10
        55  11 -6.763811E+05 -6.463306E+04  3.352972E+04 -2.701531E+05 -8.819290E-10  5.212577E-11
        55  12 -6.607498E+05 -6.403740E+04  3.456673E+04 -2.701255E+05  6.663834E-10  6.251448E-11
        55  13 -8.103154E+05 -1.195918E+05 -1.361179E+03 -3.114540E+05 -1.310791E-09 -3.190132E-10
        55  14 -8.134700E+05 -1.161282E+05 -2.431783E+03 -3.075652E+05  2.984804E-10  1.135634E-10
        55  15 -8.104336E+05 -1.204193E+05 -4.694624E+03 -3.111441E+05  7.461350E-10  6.062053E-11
        55  16 -9.347991E+05 -1.662038E+05 -3.404031E+04 -3.452539E+05 -1.740014E-09 -2.606854E-10
        55  17 -9.505409E+05 -1.676223E+05 -3.839494E+04 -3.449700E+05  2.623042E-09 -1.081438E-10
        55  18 -9.600957E+05 -1.767999E+05 -4.395789E+04 -3.521539E+05  1.373745E-09  2.874896E-10
        55  19 -6.858171E+05 -7.297895E+04  3.131656E+04 -2.776480E+05 -2.878451E+03  3.782724E+03
        55  20 -6.763811E+05 -6.463304E+04  3.352978E+04 -2.701531E+05 -4.308241E+03  3.906278E+03
        55  21 -6.607497E+05 -6.403737E+04  3.456682E+04 -2.701255E+05 -5.723596E+03  3.990684E+03
        55  22 -8.103154E+05 -1.195918E+05 -1.361138E+03 -3.114540E+05 -2.569539E+03  3.898657E+03
        55  23 -8.134700E+05 -1.161282E+05 -2.431722E+03 -3.075653E+05 -4.019245E+03  4.014791E+03
        55  24 -8.104335E+05 -1.204193E+05 -4.694536E+03 -3.111442E+05 -5.454487E+03  4.091783E+03
        55  25 -9.347991E+05 -1.662038E+05 -3.404027E+04 -3.452539E+05 -2.260694E+03  4.014564E+03
        55  26 -9.505409E+05 -1.676223E+05 -3.839489E+04 -3.449700E+05 -3.730319E+03  4.123278E+03
        55  27 -9.600957E+05 -1.767998E+05 -4.395781E+04 -3.521539E+05 -5.185449E+03  4.192855E+03
        56   1 -6.440019E+05 -5.768000E+04  3.757099E+04 -2.673478E+05  6.847997E+03 -4.006400E+03
        56   2 -6.347366E+05 -4.776041E+04  3.619145E+04 -2.586362E+05  1.230906E+04 -2.568564E+03
        56   3 -6.234416E+05 -5.415809E+04  2.820187E+04 -2.548122E+05  1.761458E+04 -7.156900E+02
        56   4 -8.109346E+05 -1.192516E+05 -6.039641E+03 -3.117277E+05  6.463018E+03 -4.151016E+03
        56   5 -8.125027E+05 -1.151275E+05 -1.054907E+04 -3.077618E+05  1.213682E+04 -2.633398E+03
        56   6 -8.120847E+05 -1.273647E+05 -2.183874E+04 -3.086834E+05  1.765498E+04 -7.007536E+02
        56   7 -9.778399E+05 -1.808215E+05 -4.965249E+04 -3.560969E+05  6.078153E+03 -4.295590E+03
        56   8 -9.902382E+05 -1.824925E+05 -5.729229E+04 -3.568747E+05  1.196463E+04 -2.698212E+03
        56   9 -1.000694E+06 -2.005687E+05 -7.188259E+04 -3.625398E+05  1.769536E+04 -6.858229E+02
        56  10 -6.440019E+05 -5.768003E+04  3.757087E+04 -2.673478E+05 -1.254616E-11 -1.393167E-10
        56  11 -6.347368E+05 -4.776046E+04  3.619115E+04 -2.586361E+05  1.520356E-09 -6.730159E-10
        56  12 -6.234419E+05 -5.415818E+04  2.820128E+04 -2.548122E+05  1.066517E-09 -9.765287E-10
        56  13 -8.109346E+05 -1.192516E+05 -6.039752E+03 -3.117277E+05  1.174994E-09 -2.412215E-10
        56  14 -8.125029E+05 -1.151275E+05 -1.054936E+04 -3.077618E+05 -9.216855E-10 -8.009955E-10
        56  15 -8.120850E+05 -1.273648E+05 -2.183932E+04 -3.086834E+05  5.340008E-11 -4.434795E-10
        56  16 -9.778399E+05 -1.808216E+05 -4.965259E+04 -3.560969E+05 -1.522845E-10 -4.869243E-10
        56  17 -9.902383E+05 -1.824925E+05 -5.729257E+04 -3.568747E+05  4.167713E-10 -6.674994E-10
        56  18 -1.000694E+06 -2.005688E+05 -7.188318E+04 -3.625398E+05  1.288549E-09  5.852729E-10
        56  19 -6.440019E+05 -5.768000E+04  3.757099E+04 -2.673478E+05 -6.847997E+03  4.006400E+03
        56  20 -6.347366E+05 -4.776041E+04  3.619145E+04 -2.586362E+05 -1.230906E+04  2.568564E+03
        56  21 -6.234416E+05 -5.415809E+04  2.820187E+04 -2.548122E+05 -1.761458E+04  7.156900E+02
        56  22 -8.109346E+05 -1.192516E+05 -6.039641E+03 -3.117277E+05 -6.463018E+03  4.151016E+03
        56  23 -8.125027E+05 -1.151275E+05 -1.054907E+04 -3.077618E+05 -1.213682E+04  2.633398E+03
        56  24 -8.120847E+05 -1.273647E+05 -2.183874E+04 -3.086834E+05 -1.765498E+04  7.007536E+02
        56  25 -9.778399E+05 -1.808215E+05 -4.965249E+04 -3.560969E+05 -6.078153E+03  4.295590E+03
        56  26 -9.902382E+05 -1.824925E+05 -5.729229E+04 -3.568747E+05 -1.196463E+04  2.698212E+03
        56  27 -1.000694E+06 -2.005687E+05 -7.188259E+04 -3.625398E+05 -1.769536E+04  6.858229E+02
        57   1 -6.023995E+05 -4.659240E+04  2.698117E+04 -2.672138E+05  2.342696E+04  2.320436E+02
        57   2 -5.930077E+05 -1.832310E+04  1.212113E+04 -2.438036E+05  4.509897E+04  8.045474E+03
        57   3 -6.161821E+05 -9.075641E+04 -4.477646E+04 -2.024470E+05  6.468830E+04  2.140007E+04
        57   4 -8.156694E+05 -1.163888E+05 -2.690656E+04 -3.148240E+05  2.184220E+04 -3.631067E+02
        57   5 -8.046717E+05 -1.050623E+05 -4.472678E+04 -3.090255E+05  4.636753E+04  8.521414E+03
        57   6 -8.268195E+05 -1.950256E+05 -1.068587E+05 -2.852771E+05  6.880967E+04  2.294644E+04
        57   7 -1.028895E+06 -1.861849E+05 -8.079780E+04 -3.624208E+05  2.025803E+04 -9.580988E+02
        57   8 -1.016292E+06 -1.917962E+05 -1.015786E+05 -3.742263E+05  4.763561E+04  8.997136E+03
        57   9 -1.037412E+06 -2.992815E+05 -1.689450E+05 -3.680784E+05  7.292949E+04  2.449182E+04
        57  10 -6.024001E+05 -4.659255E+04  2.698014E+04 -2.672138E+05  7.577153E-10 -1.235827E-09
        57  11 -5.930099E+05 -1.832372E+04  1.211718E+04 -2.438039E+05 -2.913563E-09 -1.004806E-09
        57  12 -6.161867E+05 -9.075802E+04 -4.478519E+04 -2.024481E+05 -1.695856E-09 -8.174830E-10
        57  13 -8.156699E+05 -1.163889E+05 -2.690746E+04 -3.148240E+05 -7.849799E-10 -4.554222E-10
        57  14 -8.046740E+05 -1.050630E+05 -4.473096E+04 -3.090258E+05 -2.342405E-10 -6.938990E-10
        57  15 -8.268247E+05 -1.950274E+05 -1.068686E+05 -2.852784E+05 -1.520567E-11 -1.460163E-10
        57  16 -1.028896E+06 -1.861850E+05 -8.079858E+04 -3.624207E+05 -1.254138E-09  1.219767E-09
        57  17 -1.016294E+06 -1.917969E+05 -1.015830E+05 -3.742266E+05  2.713533E-10  4.950174E-10
        57  18 -1.037418E+06 -2.992836E+05 -1.689562E+05 -3.680798E+05 -7.842716E-10  8.489813E-10
        57  19 -6.023995E+05 -4.659240E+04  2.698117E+04 -2.672138E+05 -2.342696E+04 -2.320436E+02
        57  20 -5.930077E+05 -1.832310E+04  1.212113E+04 -2.438036E+05 -4.509897E+04 -8.045474E+03
        57  21 -6.161821E+05 -9.075641E+04 -4.477646E+04 -2.024470E+05 -6.468830E+04 -2.140007E+04
        57  22 -8.156694E+05 -1.163888E+05 -2.690656E+04 -3.148240E+05 -2.184220E+04  3.631067E+02
        57  23 -8.046717E+05 -1.050623E+05 -4.472678E+04 -3.090255E+05 -4.636753E+04 -8.521414E+03
        57  24 -8.268195E+05 -1.950256E+05 -1.068587E+05 -2.852771E+05 -6.880967E+04 -2.294644E+04
        57  25 -1.028895E+06 -1.861849E+05 -8.079780E+04 -3.624208E+05 -2.025803E+04  9.580988E+02
        57  26 -1.016292E+06 -1.917962E+05 -1.015786E+05 -3.742263E+05 -4.763561E+04 -8.997136E+03
        57  27 -1.037412E+06 -2.992815E+05 -1.689450E+05 -3.680784E+05 -7.292949E+04 -2.449182E+04
        58   1 -7.027339E+02  3.958820E+04  4.972845E+04  1.338424E+04  3.403980E+04  7.338525E-01
        58   2 -7.415218E+03 -5.037543E+03  2.186459E+04  3.962283E+03  2.226366E+04  1.420929E-01
        58   3 -7.033201E+02 -2.101040E+03  1.355880E+04 -5.459706E+03  1.048730E+04 -9.222713E-02
        58   4 -7.029262E+02  3.958786E+04  4.972840E+04  2.378042E-08  3.403980E+04 -3.935767E-10
        58   5 -7.415234E+03 -5.037573E+03  2.186458E+04  7.409713E-09  2.226366E+04 -6.944834E-10
        58   6 -7.033521E+02 -2.101096E+03  1.355879E+04  7.193140E-09  1.048730E+04 -2.312109E-10
        58   7 -7.027339E+02  3.958820E+04  4.972845E+04 -1.338424E+04  3.403980E+04 -7.338525E-01
        58   8 -7.415218E+03 -5.037543E+03  2.186459E+04 -3.962283E+03  2.226366E+04 -1.420929E-01
        58   9 -7.033201E+02 -2.101040E+03  1.355880E+04  5.459706E+03  1.048730E+04  9.222713E-02
        58  10 -7.039781E+02  3.958789E+04  4.972627E+04  1.338424E+04  9.104067E-10 -3.152698E-10
        58  11 -7.415750E+03 -5.037676E+03  2.186366E+04  3.962283E+03 -1.171434E-09 -6.014425E-10
        58  12 -7.034382E+02 -2.101070E+03  1.355859E+04 -5.459706E+03 -1.281595E-09  3.169342E-10
        58  13 -7.041704E+02  3.958755E+04  4.972623E+04  1.080545E-08 -1.076689E-09 -2.314254E-10
        58  14 -7.415767E+03 -5.037706E+03  2.186365E+04 -1.193179E-09 -5.381854E-10 -4.904614E-10
        58  15 -7.034702E+02 -2.101126E+03  1.355858E+04 -9.961409E-09  2.827266E-09  9.628897E-11
        58  16 -7.039781E+02  3.958789E+04  4.972627E+04 -1.338424E+04 -3.696499E-10 -1.397003E-10
        58  17 -7.415750E+03 -5.037676E+03  2.186366E+04 -3.962283E+03 -9.922914E-10 -3.819165E-10
        58  18 -7.034382E+02 -2.101070E+03  1.355859E+04  5.459706E+03 -9.380858E-10 -1.119588E-10
        58  19 -7.027339E+02  3.958820E+04  4.972845E+04  1.338424E+04 -3.403980E+04 -7.338525E-01
        58  20 -7.415218E+03 -5.037543E+03  2.186459E+04  3.962283E+03 -2.226366E+04 -1.420929E-01
        58  21 -7.033201E+02 -2.101040E+03  1.355880E+04 -5.459706E+03 -1.048730E+04  9.222713E-02
        58  22 -7.029262E+02  3.958786E+04  4.972840E+04  1.506108E-08 -3.403980E+04 -7.190099E-11
        58  23 -7.415234E+03 -5.037573E+03  2.186458E+04 -3.334467E-09 -2.226366E+04 -2.803054E-10
        58  24 -7.033521E+02 -2.101096E+03  1.355879E+04  7.347479E-09 -1.048730E+04  4.200819E-10
        58  25 -7.027339E+02  3.958820E+04  4.972845E+04 -1.338424E+04 -3.403980E+04  7.338525E-01
        58  26 -7.415218E+03 -5.037543E+03  2.186459E+04 -3.962283E+03 -2.226366E+04  1.420929E-01
        58  27 -7.033201E+02 -2.101040E+03  1.355880E+04  5.459706E+03 -1.048730E+04 -9.222713E-02
        59   1 -3.341707E+03  3.875978E+03  1.102574E+04  1.162191E+03  8.405520E+03  1.573510E-02
        59   2 -4.117521E+03 -5.172909E+02  5.638871E+03  2.917433E+02  5.523852E+03  2.595798E-03
        59   3 -3.341748E+03 -2.051672E+02  3.304494E+03 -5.787047E+02  2.642193E+03 -2.462912E-03
        59   4 -3.341708E+03  3.875976E+03  1.102574E+04  1.050509E-08  8.405520E+03  7.879120E-10
        59   5 -4.117521E+03 -5.172910E+02  5.638871E+03  2.672655E-09  5.523852E+03  1.601929E-09
        59   6 -3.341749E+03 -2.051678E+02  3.304494E+03  6.148329E-09  2.642193E+03 -3.721840E-10
        59   7 -3.341707E+03  3.875978E+03  1.102574E+04 -1.162191E+03  8.405520E+03 -1.573510E-02
        59   8 -4.117521E+03 -5.172909E+02  5.638871E+03 -2.917433E+02  5.523852E+03 -2.595795E-03
        59   9 -3.341748E+03 -2.051672E+02  3.304494E+03  5.787047E+02  2.642193E+03  2.462911E-03
        59  10 -3.341783E+03  3.875959E+03  1.102561E+04  1.162191E+03  8.640271E-13  4.106089E-10
        59  11 -4.117554E+03 -5.172990E+02  5.638813E+03  2.917433E+02 -5.603955E-10 -1.074620E-10
        59  12 -3.341756E+03 -2.051690E+02  3.304481E+03 -5.787047E+02 -3.676225E-09  6.937316E-10
        59  13 -3.341784E+03  3.875957E+03  1.102561E+04  1.912072E-08 -1.077787E-09  4.213574E-10
        59  14 -4.117554E+03 -5.172992E+02  5.638813E+03  1.129133E-08 -5.412762E-10  4.396270E-10
        59  15 -3.341756E+03 -2.051697E+02  3.304481E+03 -8.458688E-10 -2.689529E-09  4.955268E-10
        59  16 -3.341783E+03  3.875959E+03  1.102561E+04 -1.162191E+03 -1.077967E-09  4.305829E-10
        59  17 -4.117554E+03 -5.172990E+02  5.638813E+03 -2.917433E+02 -2.134573E-09  9.847429E-10
        59  18 -3.341756E+03 -2.051690E+02  3.304481E+03  5.787047E+02  2.263684E-09  2.980758E-10
        59  19 -3.341707E+03  3.875978E+03  1.102574E+04  1.162191E+03 -8.405520E+03 -1.573510E-02
        59  20 -4.117521E+03 -5.172909E+02  5.638871E+03  2.917433E+02 -5.523852E+03 -2.595799E-03
        59  21 -3.341748E+03 -2.051672E+02  3.304494E+03 -5.787047E+02 -2.642193E+03  2.462913E-03
        59  22 -3.341708E+03  3.875976E+03  1.102574E+04  1.050460E-08 -8.405520E+03  5.527396E-11
        59  23 -4.117521E+03 -5.172910E+02  5.638871E+03  2.678535E-09 -5.523852E+03 -7.238359E-10
        59  24 -3.341749E+03 -2.051678E+02  3.304494E+03  2.770001E-08 -2.642193E+03  1.362471E-09
        59  25 -3.341707E+03  3.875978E+03  1.102574E+04 -1.162191E+03 -8.405520E+03  1.573510E-02
        59  26 -4.117521E+03 -5.172909E+02  5.638871E+03 -2.917433E+02 -5.523852E+03  2.595798E-03
        59  27 -3.341748E+03 -2.051672E+02  3.304494E+03  5.787047E+02 -2.642193E+03 -2.462910E-03
        60   1 -3.641706E+03  3.713276E+02  2.551346E+03  7.280262E+01  2.125666E+03  2.492685E-04
        60   2 -3.742593E+03 -5.492246E+01  1.324803E+03  1.149872E+00  1.461893E+03  2.706225E-06
        60   3 -3.641710E+03 -1.979041E+01  6.457422E+02 -7.050185E+01  7.981303E+02 -9.063634E-05
        60   4 -3.641706E+03  3.713276E+02  2.551346E+03  1.935931E-08  2.125666E+03 -1.377422E-09
        60   5 -3.742593E+03 -5.492246E+01  1.324803E+03 -5.691615E-09  1.461893E+03 -1.061262E-09
        60   6 -3.641710E+03 -1.979042E+01  6.457421E+02 -2.374167E-08  7.981303E+02 -6.941228E-10
        60   7 -3.641706E+03  3.713276E+02  2.551346E+03 -7.280262E+01  2.125666E+03 -2.492712E-04
        60   8 -3.742593E+03 -5.492246E+01  1.324803E+03 -1.149872E+00  1.461893E+03 -2.708337E-06
        60   9 -3.641710E+03 -1.979041E+01  6.457422E+02  7.050185E+01  7.981303E+02  9.063496E-05
        60  10 -3.641711E+03  3.713264E+02  2.551338E+03  7.280262E+01 -6.046896E-09  1.817617E-10
        60  11 -3.742596E+03 -5.492303E+01  1.324799E+03  1.149872E+00 -2.258336E-09 -1.364277E-09
        60  12 -3.641711E+03 -1.979059E+01  6.457410E+02 -7.050185E+01  5.429538E-09 -4.255104E-11
        60  13 -3.641711E+03  3.713263E+02  2.551338E+03 -9.250435E-09 -1.075267E-09 -2.355794E-11
        60  14 -3.742596E+03 -5.492303E+01  1.324799E+03 -5.714978E-09 -1.615723E-09 -1.006248E-09
        60  15 -3.641711E+03 -1.979060E+01  6.457410E+02  9.667192E-09  1.349105E-09 -6.242912E-10
        60  16 -3.641711E+03  3.713264E+02  2.551338E+03 -7.280262E+01  4.971694E-09 -2.298928E-10
        60  17 -3.742596E+03 -5.492303E+01  1.324799E+03 -1.149872E+00 -4.294695E-10 -6.464069E-10
        60  18 -3.641711E+03 -1.979059E+01  6.457410E+02  7.050185E+01 -4.891084E-09 -1.206204E-09
        60  19 -3.641706E+03  3.713276E+02  2.551346E+03  7.280262E+01 -2.125666E+03 -2.492681E-04
        60  20 -3.742593E+03 -5.492246E+01  1.324803E+03  1.149872E+00 -1.461893E+03 -2.708938E-06
        60  21 -3.641710E+03 -1.979041E+01  6.457422E+02 -7.050185E+01 -7.981303E+02  9.063628E-05
        60  22 -3.641706E+03  3.713276E+02  2.551346E+03 -3.786017E-08 -2.125666E+03  1.330717E-09
        60  23 -3.742593E+03 -5.492246E+01  1.324803E+03 -5.738328E-09 -1.461893E+03 -9.508105E-10
        60  24 -3.641710E+03 -1.979042E+01  6.457421E+02  4.630700E-08 -7.981303E+02 -5.543506E-10
        60  25 -3.641706E+03  3.713276E+02  2.551346E+03 -7.280262E+01 -2.125666E+03  2.492708E-04
        60  26 -3.742593E+03 -5.492246E+01  1.324803E+03 -1.149872E+00 -1.461893E+03  2.707005E-06
        60  27 -3.641710E+03 -1.979041E+01  6.457422E+02  7.050185E+01 -7.981303E+02 -9.063737E-05
        61   1 -3.686086E+03  3.410757E+01  3.926183E+02 -9.618664E+00  7.053139E+02 -1.092725E-05
        61   2 -3.687127E+03 -2.220875E+00 -6.565123E+01 -1.592661E+01  7.372233E+02 -1.891246E-05
        61   3 -3.686087E+03 -1.361495E+01 -5.384577E+02 -2.223466E+01  7.691332E+02 -2.754542E-05
        61   4 -3.686086E+03  3.410757E+01  3.926183E+02  1.013306E-08  7.053139E+02 -3.160677E-10
        61   5 -3.687127E+03 -2.220875E+00 -6.565123E+01  1.512169E-09  7.372233E+02  3.393168E-10
        61   6 -3.686087E+03 -1.361495E+01 -5.384577E+02  1.496923E-08  7.691332E+02  6.084247E-10
        61   7 -3.686086E+03  3.410757E+01  3.926183E+02  9.618664E+00  7.053139E+02  1.092661E-05
        61   8 -3.687127E+03 -2.220875E+00 -6.565123E+01  1.592661E+01  7.372233E+02  1.891312E-05
        61   9 -3.686087E+03 -1.361495E+01 -5.384577E+02  2.223466E+01  7.691332E+02  2.754665E-05
        61  10 -3.686086E+03  3.410744E+01  3.926174E+02 -9.618664E+00  3.432667E-10  5.023042E-10
        61  11 -3.687127E+03 -2.221021E+00 -6.565225E+01 -1.592661E+01 -2.384357E-09  4.439842E-12
        61  12 -3.686087E+03 -1.361511E+01 -5.384588E+02 -2.223466E+01 -1.882089E-09  7.500348E-10
        61  13 -3.686086E+03  3.410744E+01  3.926174E+02  1.545368E-09  1.076907E-09 -1.545250E-10
        61  14 -3.687127E+03 -2.221021E+00 -6.565225E+01  5.853349E-09  5.392158E-10  2.397734E-10
        61  15 -3.686087E+03 -1.361511E+01 -5.384588E+02  1.231530E-08 -1.886458E-09  7.013738E-10
        61  16 -3.686086E+03  3.410744E+01  3.926174E+02  9.618664E+00 -8.824499E-10 -8.115394E-10
        61  17 -3.687127E+03 -2.221021E+00 -6.565225E+01  1.592661E+01 -1.383687E-09  4.753739E-10
        61  18 -3.686087E+03 -1.361511E+01 -5.384588E+02  2.223466E+01  1.999321E-10  6.527770E-10
        61  19 -3.686086E+03  3.410757E+01  3.926183E+02 -9.618664E+00 -7.053139E+02  1.092826E-05
        61  20 -3.687127E+03 -2.220875E+00 -6.565123E+01 -1.592661E+01 -7.372233E+02  1.891247E-05
        61  21 -3.686087E+03 -1.361495E+01 -5.384577E+02 -2.223466E+01 -7.691332E+02  2.754692E-05
        61  22 -3.686086E+03  3.410757E+01  3.926183E+02  1.018915E-08 -7.053139E+02  7.034755E-12
        61  23 -3.687127E+03 -2.220875E+00 -6.565123E+01  5.886610E-09 -7.372233E+02  1.401199E-10
        61  24 -3.686087E+03 -1.361495E+01 -5.384577E+02  2.366205E-08 -7.691332E+02  7.942259E-10
        61  25 -3.686086E+03  3.410757E+01  3.926183E+02  9.618664E+00 -7.053139E+02 -1.092825E-05
        61  26 -3.687127E+03 -2.220875E+00 -6.565123E+01  1.592661E+01 -7.372233E+02 -1.891219E-05
        61  27 -3.686087E+03 -1.361495E+01 -5.384577E+02  2.223466E+01 -7.691332E+02 -2.754533E-05
        62   1 -3.721327E+03  1.080458E+01 -8.224312E+02 -4.447854E+01  8.920574E+02 -6.390943E-05
        62   2 -3.643076E+03  3.043731E+01 -1.610259E+03 -2.983330E+01  1.691633E+03 -8.128930E-05
        62   3 -3.721327E+03 -1.594965E+02 -2.971036E+03 -1.518806E+01  2.491208E+03 -6.094581E-05
        62   4 -3.721327E+03  1.080457E+01 -8.224312E+02  7.338394E-09  8.920574E+02  6.681616E-10
        62   5 -3.643076E+03  3.043731E+01 -1.610259E+03  3.981981E-09  1.691633E+03  4.135531E-10
        62   6 -3.721327E+03 -1.594965E+02 -2.971036E+03  1.247221E-08  2.491208E+03 -5.461848E-10
        62   7 -3.721327E+03  1.080458E+01 -8.224312E+02  4.447854E+01  8.920574E+02  6.391077E-05
        62   8 -3.643076E+03  3.043731E+01 -1.610259E+03  2.983330E+01  1.691633E+03  8.129009E-05
        62   9 -3.721327E+03 -1.594965E+02 -2.971036E+03  1.518806E+01  2.491208E+03  6.094467E-05
        62  10 -3.721328E+03  1.080436E+01 -8.224327E+02 -4.447854E+01 -1.804346E-09  8.633179E-10
        62  11 -3.643079E+03  3.043654E+01 -1.610265E+03 -2.983330E+01 -7.451783E-10 -4.887400E-11
        62  12 -3.721334E+03 -1.594982E+02 -2.971048E+03 -1.518806E+01 -1.366281E-09 -5.729873E-10
        62  13 -3.721328E+03  1.080436E+01 -8.224327E+02  2.980454E-09  1.074144E-09  6.596670E-10
        62  14 -3.643079E+03  3.043654E+01 -1.610265E+03  8.242085E-09 -2.156281E-09  3.051254E-11
        62  15 -3.721334E+03 -1.594982E+02 -2.971048E+03  2.733967E-09 -1.481244E-09 -5.683673E-10
        62  16 -3.721328E+03  1.080436E+01 -8.224327E+02  4.447854E+01  1.885457E-10  4.562705E-10
        62  17 -3.643079E+03  3.043654E+01 -1.610265E+03  2.983330E+01  4.754575E-10  1.087734E-10
        62  18 -3.721334E+03 -1.594982E+02 -2.971048E+03  1.518806E+01 -5.852362E-10 -5.657236E-10
        62  19 -3.721327E+03  1.080458E+01 -8.224312E+02 -4.447854E+01 -8.920574E+02  6.391113E-05
        62  20 -3.643076E+03  3.043731E+01 -1.610259E+03 -2.983330E+01 -1.691633E+03  8.128922E-05
        62  21 -3.721327E+03 -1.594965E+02 -2.971036E+03 -1.518806E+01 -2.491208E+03  6.094465E-05
        62  22 -3.721327E+03  1.080457E+01 -8.224312E+02  2.446994E-08 -8.920574E+02  6.511065E-10
        62  23 -3.643076E+03  3.043731E+01 -1.610259E+03  6.040396E-09 -1.691633E+03 -3.525823E-10
        62  24 -3.721327E+03 -1.594965E+02 -2.971036E+03  1.022738E-08 -2.491208E+03 -5.979596E-10
        62  25 -3.721327E+03  1.080458E+01 -8.224312E+02  4.447854E+01 -8.920574E+02 -6.390989E-05
        62  26 -3.643076E+03  3.043731E+01 -1.610259E+03  2.983330E+01 -1.691633E+03 -8.128991E-05
        62  27 -3.721327E+03 -1.594965E+02 -2.971036E+03  1.518806E+01 -2.491208E+03 -6.094590E-05
        63   1 -3.907011E+03  9.321615E+01 -3.907411E+03 -3.154911E+02  3.108309E+03 -1.579569E-03
        63   2 -3.410955E+03  2.645676E+02 -6.776599E+03  1.833385E+01  6.500445E+03  1.919669E-04
        63   3 -3.906980E+03 -1.765675E+03 -1.240456E+04  3.521547E+02  9.892514E+03  5.611348E-03
        63   4 -3.907012E+03  9.321597E+01 -3.907411E+03  3.243695E-08  3.108309E+03  4.067581E-11
        63   5 -3.410955E+03  2.645676E+02 -6.776599E+03 -1.182401E-09  6.500445E+03  9.886059E-10
        63   6 -3.906980E+03 -1.765675E+03 -1.240456E+04  2.120110E-08  9.892514E+03 -1.983309E-09
        63   7 -3.907011E+03  9.321615E+01 -3.907411E+03  3.154911E+02  3.108309E+03  1.579569E-03
        63   8 -3.410955E+03  2.645676E+02 -6.776599E+03 -1.833385E+01  6.500445E+03 -1.919650E-04
        63   9 -3.906980E+03 -1.765675E+03 -1.240456E+04 -3.521547E+02  9.892514E+03 -5.611352E-03
        63  10 -3.907022E+03  9.321356E+01 -3.907429E+03 -3.154911E+02 -7.132910E-10 -1.642823E-10
        63  11 -3.411001E+03  2.645562E+02 -6.776678E+03  1.833385E+01  4.117783E-10  3.665085E-10
        63  12 -3.907085E+03 -1.765701E+03 -1.240474E+04  3.521547E+02  1.534408E-09 -8.835955E-10
        63  13 -3.907022E+03  9.321337E+01 -3.907429E+03  1.530800E-08 -1.075523E-09 -2.860580E-10
        63  14 -3.411001E+03  2.645562E+02 -6.776678E+03  3.105506E-09 -2.691655E-09  2.453277E-10
        63  15 -3.907085E+03 -1.765702E+03 -1.240474E+04 -1.878977E-08  5.374161E-10 -8.051883E-10
        63  16 -3.907022E+03  9.321356E+01 -3.907429E+03  3.154911E+02 -3.589587E-10 -4.103429E-10
        63  17 -3.411001E+03  2.645562E+02 -6.776678E+03 -1.833385E+01 -2.294381E-09  1.215770E-10
        63  18 -3.907085E+03 -1.765701E+03 -1.240474E+04 -3.521547E+02 -1.467611E-09 -7.196206E-10
        63  19 -3.907011E+03  9.321615E+01 -3.907411E+03 -3.154911E+02 -3.108309E+03  1.579569E-03
        63  20 -3.410955E+03  2.645676E+02 -6.776599E+03  1.833385E+01 -6.500445E+03 -1.919659E-04
        63  21 -3.906980E+03 -1.765675E+03 -1.240456E+04  3.521547E+02 -9.892514E+03 -5.611349E-03
        63  22 -3.907012E+03  9.321597E+01 -3.907411E+03  1.110264E-08 -3.108309E+03 -6.128179E-10
        63  23 -3.410955E+03  2.645676E+02 -6.776599E+03 -9.838447E-09 -6.500445E+03 -4.986393E-10
        63  24 -3.906980E+03 -1.765675E+03 -1.240456E+04 -2.324058E-08 -9.892514E+03  4.040894E-10
        63  25 -3.907011E+03  9.321615E+01 -3.907411E+03  3.154911E+02 -3.108309E+03 -1.579570E-03
        63  26 -3.410955E+03  2.645676E+02 -6.776599E+03 -1.833385E+01 -6.500445E+03  1.919649E-04
        63  27 -3.906980E+03 -1.765675E+03 -1.240456E+04 -3.521547E+02 -9.892514E+03  5.611350E-03
        64   1 -5.327597E+03  9.766793E+02 -1.591872E+04 -2.746397E+03  1.239213E+04 -5.481979E-02
        64   2 -1.634851E+03  2.460485E+03 -2.692738E+04  1.390714E+03  2.615188E+04  5.858226E-02
        64   3 -5.326979E+03 -1.843059E+04 -5.248679E+04  5.527902E+03  3.991168E+04  3.553750E-01
        64   4 -5.327605E+03  9.766651E+02 -1.591872E+04  9.334315E-09  1.239213E+04 -1.613074E-09
        64   5 -1.634853E+03  2.460482E+03 -2.692738E+04  3.118571E-08  2.615188E+04  1.808547E-09
        64   6 -5.327012E+03 -1.843065E+04 -5.248680E+04  2.718902E-08  3.991168E+04 -1.518823E-10
        64   7 -5.327597E+03  9.766793E+02 -1.591872E+04  2.746397E+03  1.239213E+04  5.481979E-02
        64   8 -1.634851E+03  2.460485E+03 -2.692738E+04 -1.390714E+03  2.615188E+04 -5.858226E-02
        64   9 -5.326979E+03 -1.843059E+04 -5.248679E+04 -5.527902E+03  3.991168E+04 -3.553750E-01
        64  10 -5.327762E+03  9.766381E+02 -1.591901E+04 -2.746397E+03  2.381009E-09 -9.301786E-10
        64  11 -1.635586E+03  2.460302E+03 -2.692867E+04  1.390714E+03  2.275064E-09  4.523285E-10
        64  12 -5.328690E+03 -1.843102E+04 -5.248978E+04  5.527902E+03  1.960231E-09  4.864072E-10
        64  13 -5.327770E+03  9.766239E+02 -1.591901E+04 -7.699526E-09 -1.080113E-09 -5.686237E-10
        64  14 -1.635588E+03  2.460298E+03 -2.692867E+04  1.182136E-08 -1.080104E-09  8.397730E-10
        64  15 -5.328723E+03 -1.843108E+04 -5.248979E+04  2.057212E-08  3.970771E-10 -2.069899E-11
        64  16 -5.327762E+03  9.766381E+02 -1.591901E+04  2.746397E+03 -2.309736E-10 -1.940183E-10
        64  17 -1.635586E+03  2.460302E+03 -2.692867E+04 -1.390714E+03 -2.273699E-09  1.261685E-09
        64  18 -5.328690E+03 -1.843102E+04 -5.248978E+04 -5.527902E+03 -3.106531E-09 -5.379787E-10
        64  19 -5.327597E+03  9.766793E+02 -1.591872E+04 -2.746397E+03 -1.239213E+04  5.481979E-02
        64  20 -1.634851E+03  2.460485E+03 -2.692738E+04  1.390714E+03 -2.615188E+04 -5.858226E-02
        64  21 -5.326979E+03 -1.843059E+04 -5.248679E+04  5.527902E+03 -3.991168E+04 -3.553750E-01
        64  22 -5.327605E+03  9.766651E+02 -1.591872E+04 -2.042574E-08 -1.239213E+04  4.776128E-10
        64  23 -1.634853E+03  2.460482E+03 -2.692738E+04 -1.615924E-08 -2.615188E+04 -1.222104E-10
        64  24 -5.327012E+03 -1.843065E+04 -5.248680E+04  9.646790E-09 -3.991168E+04  1.120701E-10
        64  25 -5.327597E+03  9.766793E+02 -1.591872E+04  2.746397E+03 -1.239213E+04 -5.481979E-02
        64  26 -1.634851E+03  2.460485E+03 -2.692738E+04 -1.390714E+03 -2.615188E+04  5.858226E-02
        64  27 -5.326979E+03 -1.843059E+04 -5.248679E+04 -5.527902E+03 -3.991168E+04  3.553750E-01
        65   1 -1.786862E+04  9.992952E+03 -6.450973E+04 -2.595949E+04  4.981776E+04 -2.083127E+00
        65   2  1.404849E+04  2.395475E+04 -1.039555E+05  1.884361E+04  1.058280E+05  3.212019E+00
        65   3 -1.785747E+04 -1.882289E+05 -2.363913E+05  6.364426E+04  1.618391E+05  1.659080E+01
        65   4 -1.786935E+04  9.991686E+03 -6.450991E+04  2.728997E-08  4.981776E+04 -8.292191E-10
        65   5  1.404811E+04  2.395408E+04 -1.039556E+05  9.654065E-09  1.058280E+05  9.338679E-10
        65   6 -1.786182E+04 -1.882365E+05 -2.363924E+05  1.355367E-08  1.618391E+05 -5.773447E-10
        65   7 -1.786862E+04  9.992952E+03 -6.450973E+04  2.595949E+04  4.981776E+04  2.083127E+00
        65   8  1.404849E+04  2.395475E+04 -1.039555E+05 -1.884361E+04  1.058280E+05 -3.212019E+00
        65   9 -1.785747E+04 -1.882289E+05 -2.363913E+05 -6.364426E+04  1.618391E+05 -1.659080E+01
        65  10 -1.787129E+04  9.992286E+03 -6.451439E+04 -2.595949E+04  9.639296E-10 -1.363998E-10
        65  11  1.403646E+04  2.395174E+04 -1.039766E+05  1.884361E+04 -2.315027E-09 -7.673076E-10
        65  12 -1.788560E+04 -1.882359E+05 -2.364405E+05  6.364426E+04  1.672010E-09 -3.964474E-10
        65  13 -1.787201E+04  9.991019E+03 -6.451457E+04  1.438746E-08 -1.122096E-09 -6.127531E-10
        65  14  1.403608E+04  2.395108E+04 -1.039766E+05  1.398268E-08  3.275828E-09 -3.006296E-10
        65  15 -1.788995E+04 -1.882435E+05 -2.364416E+05 -9.039449E-09 -1.221208E-10 -7.047188E-11
        65  16 -1.787129E+04  9.992286E+03 -6.451439E+04  2.595949E+04 -9.395913E-10 -1.111680E-09
        65  17  1.403646E+04  2.395174E+04 -1.039766E+05 -1.884361E+04 -2.254023E-09  4.342525E-11
        65  18 -1.788560E+04 -1.882359E+05 -2.364405E+05 -6.364426E+04  7.371510E-10  1.865369E-10
        65  19 -1.786862E+04  9.992952E+03 -6.450973E+04 -2.595949E+04 -4.981776E+04  2.083127E+00
        65  20  1.404849E+04  2.395475E+04 -1.039555E+05  1.884361E+04 -1.058280E+05 -3.212019E+00
        65  21 -1.785747E+04 -1.882289E+05 -2.363913E+05  6.364426E+04 -1.618391E+05 -1.659080E+01
        65  22 -1.786935E+04  9.991686E+03 -6.450991E+04  1.440996E-08 -4.981776E+04 -3.985268E-10
        65  23  1.404811E+04  2.395408E+04 -1.039556E+05  9.695404E-09 -1.058280E+05 -1.591840E-09
        65  24 -1.786182E+04 -1.882365E+05 -2.363924E+05  1.090573E-08 -1.618391E+05 -3.840522E-11
        65  25 -1.786862E+04  9.992952E+03 -6.450973E+04  2.595949E+04 -4.981776E+04 -2.083127E+00
        65  26  1.404849E+04  2.395475E+04 -1.039555E+05 -1.884361E+04 -1.058280E+05  3.212019E+00
        65  27 -1.785747E+04 -1.882289E+05 -2.363913E+05 -6.364426E+04 -1.618391E+05  1.659080E+01
        66   1  8.768240E+04  9.179194E+04  8.447280E+04 -1.794862E+04  3.995890E+03 -1.094678E+03
        66   2  8.682032E+04  5.345363E+04  7.816383E+04 -6.764336E+03  1.190032E+04 -3.798447E+03
        66   3  7.680787E+04  1.327718E+04  7.134828E+04 -2.203195E+04  1.077682E+04 -6.503455E+03
        66   4 -8.588900E+03 -2.944072E+05 -1.065023E+04 -2.077672E+04  3.996711E+03 -7.946844E+03
        66   5  1.039962E+03 -2.930508E+05 -4.196110E+03 -7.549493E+03  1.190128E+04 -5.667485E+03
        66   6  6.506249E+02 -2.944001E+05 -1.710506E+03 -2.077514E+04  1.077568E+04 -3.389441E+03
        66   7 -1.048713E+05 -6.804706E+05 -1.057841E+05 -2.360305E+04  3.997595E+03 -1.479475E+04
        66   8 -8.474904E+04 -6.394450E+05 -8.656443E+04 -8.334201E+03  1.190225E+04 -7.535483E+03
        66   9 -7.551342E+04 -6.019904E+05 -7.477586E+04 -1.951894E+04  1.077456E+04 -2.769609E+02
        66  10  8.768239E+04  9.179194E+04  8.447277E+04 -1.794862E+04 -5.295825E-11 -1.147367E-09
        66  11  8.682016E+04  5.345357E+04  7.816354E+04 -6.764300E+03 -5.283686E-09  2.751913E-09
        66  12  7.680773E+04  1.327711E+04  7.134798E+04 -2.203189E+04 -1.813226E-09  4.470685E-09
        66  13 -8.588934E+03 -2.944073E+05 -1.065038E+04 -2.077669E+04 -1.110710E-09 -5.076930E-14
        66  14  1.039801E+03 -2.930509E+05 -4.196437E+03 -7.549439E+03 -6.724166E-10 -1.444189E-10
        66  15  6.504971E+02 -2.944001E+05 -1.710746E+03 -2.077511E+04 -1.192934E-09 -7.756283E-10
        66  16 -1.048713E+05 -6.804708E+05 -1.057845E+05 -2.360300E+04 -1.996699E-11  1.131833E-09
        66  17 -8.474921E+04 -6.394451E+05 -8.656480E+04 -8.334129E+03  2.012897E-09 -2.827322E-09
        66  18 -7.551355E+04 -6.019904E+05 -7.477608E+04 -1.951893E+04 -5.442146E-10 -4.683561E-09
        66  19  8.768240E+04  9.179194E+04  8.447280E+04 -1.794862E+04 -3.995890E+03  1.094678E+03
        66  20  8.682032E+04  5.345363E+04  7.816383E+04 -6.764336E+03 -1.190032E+04  3.798447E+03
        66  21  7.680787E+04  1.327718E+04  7.134828E+04 -2.203195E+04 -1.077682E+04  6.503455E+03
        66  22 -8.588900E+03 -2.944072E+05 -1.065023E+04 -2.077672E+04 -3.996711E+03  7.946844E+03
        66  23  1.039962E+03 -2.930508E+05 -4.196110E+03 -7.549493E+03 -1.190128E+04  5.667485E+03
        66  24  6.506249E+02 -2.944001E+05 -1.710506E+03 -2.077514E+04 -1.077568E+04  3.389441E+03
        66  25 -1.048713E+05 -6.804706E+05 -1.057841E+05 -2.360305E+04 -3.997595E+03  1.479475E+04
        66  26 -8.474904E+04 -6.394450E+05 -8.656443E+04 -8.334201E+03 -1.190225E+04  7.535483E+03
        66  27 -7.551342E+04 -6.019904E+05 -7.477586E+04 -1.951894E+04 -1.077456E+04  2.769609E+02
        67   1  6.335672E+04 -3.410307E+04  6.105973E+04 -2.102573E+04  8.570835E+03 -3.588305E+03
        67   2  5.434108E+04 -7.383596E+04  5.392320E+04 -7.323691E+03  7.529398E+03 -4.764090E+03
        67   3  4.677612E+04 -1.130500E+05  4.791533E+04 -2.052723E+04  5.838800E+03 -5.940875E+03
        67   4 -9.354594E+02 -2.936906E+05 -7.688223E+02 -2.087731E+04  8.570849E+03 -3.191404E+03
        67   5 -1.484060E+02 -2.939160E+05  1.597301E+03 -7.423199E+03  7.529066E+03 -4.008671E+03
        67   6  2.027394E+03 -2.936863E+05  4.843257E+03 -2.087524E+04  5.838016E+03 -4.827011E+03
        67   7 -6.523251E+04 -5.532163E+05 -6.260210E+04 -2.072895E+04  8.570863E+03 -2.794669E+03
        67   8 -5.464139E+04 -5.139516E+05 -5.073198E+04 -7.522665E+03  7.528734E+03 -3.253519E+03
        67   9 -4.272369E+04 -4.742926E+05 -3.823110E+04 -2.122315E+04  5.837231E+03 -3.713469E+03
        67  10  6.335664E+04 -3.410311E+04  6.105956E+04 -2.102570E+04 -1.964105E-09 -5.235657E-09
        67  11  5.434102E+04 -7.383600E+04  5.392305E+04 -7.323662E+03 -2.212992E-09 -3.796673E-09
        67  12  4.677608E+04 -1.130500E+05  4.791520E+04 -2.052721E+04  2.251403E-09 -6.906927E-10
        67  13 -9.355410E+02 -2.936907E+05 -7.689795E+02 -2.087729E+04 -1.379062E-09  5.165646E-12
        67  14 -1.484712E+02 -2.939161E+05  1.597164E+03 -7.423175E+03  1.339031E-09 -3.359163E-10
        67  15  2.027351E+03 -2.936863E+05  4.843149E+03 -2.087522E+04  3.744231E-09 -1.360196E-09
        67  16 -6.523259E+04 -5.532164E+05 -6.260225E+04 -2.072893E+04  2.233863E-10  5.243328E-09
        67  17 -5.464145E+04 -5.139516E+05 -5.073211E+04 -7.522645E+03  2.350932E-09  3.646597E-09
        67  18 -4.272373E+04 -4.742926E+05 -3.823119E+04 -2.122313E+04  1.036650E-09  2.440107E-10
        67  19  6.335672E+04 -3.410307E+04  6.105973E+04 -2.102573E+04 -8.570835E+03  3.588305E+03
        67  20  5.434108E+04 -7.383596E+04  5.392320E+04 -7.323691E+03 -7.529398E+03  4.764090E+03
        67  21  4.677612E+04 -1.130500E+05  4.791533E+04 -2.052723E+04 -5.838800E+03  5.940875E+03
        67  22 -9.354594E+02 -2.936906E+05 -7.688223E+02 -2.087731E+04 -8.570849E+03  3.191404E+03
        67  23 -1.484060E+02 -2.939160E+05  1.597301E+03 -7.423199E+03 -7.529066E+03  4.008671E+03
        67  24  2.027394E+03 -2.936863E+05  4.843257E+03 -2.087524E+04 -5.838016E+03  4.827011E+03
        67  25 -6.523251E+04 -5.532163E+05 -6.260210E+04 -2.072895E+04 -8.570863E+03  2.794669E+03
        67  26 -5.464139E+04 -5.139516E+05 -5.073198E+04 -7.522665E+03 -7.528734E+03  3.253519E+03
        67  27 -4.272369E+04 -4.742926E+05 -3.823110E+04 -2.122315E+04 -5.837231E+03  3.713469E+03
        68   1  3.163862E+04 -1.599669E+05  3.763728E+04 -2.372892E+04  4.861783E+03 -6.510329E+03
        68   2  2.043044E+04 -2.029584E+05  3.279989E+04 -5.450727E+03  3.183282E+03 -1.269048E+04
        68   3  3.317877E+04 -2.392041E+05  3.796538E+04 -1.421220E+04  8.310563E+02 -1.887108E+04
        68   4 -1.109606E+03 -2.922997E+05  6.290081E+03 -2.091190E+04  4.861184E+03 -5.766324E+03
        68   5 -2.513183E+03 -2.956370E+05  1.076476E+04 -7.382460E+03  3.182350E+03 -1.157403E+04
        68   6  1.997665E+04 -2.922949E+05  2.498417E+04 -2.089258E+04  8.298344E+02 -1.738257E+04
        68   7 -3.385906E+04 -4.246164E+05 -2.505833E+04 -1.809549E+04  4.860593E+03 -5.022476E+03
        68   8 -2.545741E+04 -3.883077E+05 -1.127096E+04 -9.313901E+03  3.181412E+03 -1.045775E+04
        68   9  6.774489E+03 -3.453830E+05  1.200278E+04 -2.757239E+04  8.285804E+02 -1.589418E+04
        68  10  3.163858E+04 -1.599669E+05  3.763716E+04 -2.372889E+04  9.580939E-10 -2.876573E-10
        68  11  2.043038E+04 -2.029586E+05  3.279957E+04 -5.450694E+03 -1.542884E-09 -5.648836E-11
        68  12  3.317867E+04 -2.392044E+05  3.796471E+04 -1.421218E+04  8.783599E-10 -8.245693E-10
        68  13 -1.109640E+03 -2.922997E+05  6.289974E+03 -2.091188E+04  9.328212E-10  1.496960E-11
        68  14 -2.513230E+03 -2.956372E+05  1.076449E+04 -7.382430E+03 -9.728440E-10 -5.060543E-10
        68  15  1.997657E+04 -2.922952E+05  2.498360E+04 -2.089257E+04 -7.755770E-11 -1.636990E-09
        68  16 -3.385909E+04 -4.246164E+05 -2.505842E+04 -1.809547E+04 -2.311207E-09  3.030849E-10
        68  17 -2.545745E+04 -3.883078E+05 -1.127118E+04 -9.313874E+03  2.542828E-09 -2.344708E-10
        68  18  6.774420E+03 -3.453833E+05  1.200231E+04 -2.757238E+04 -6.310511E-10  2.980876E-10
        68  19  3.163862E+04 -1.599669E+05  3.763728E+04 -2.372892E+04 -4.861783E+03  6.510329E+03
        68  20  2.043044E+04 -2.029584E+05  3.279989E+04 -5.450727E+03 -3.183282E+03  1.269048E+04
        68  21  3.317877E+04 -2.392041E+05  3.796538E+04 -1.421220E+04 -8.310563E+02  1.887108E+04
        68  22 -1.109606E+03 -2.922997E+05  6.290081E+03 -2.091190E+04 -4.861184E+03  5.766324E+03
        68  23 -2.513183E+03 -2.956370E+05  1.076476E+04 -7.382460E+03 -3.182350E+03  1.157403E+04
        68  24  1.997665E+04 -2.922949E+05  2.498417E+04 -2.089258E+04 -8.298344E+02  1.738257E+04
        68  25 -3.385906E+04 -4.246164E+05 -2.505833E+04 -1.809549E+04 -4.860593E+03  5.022476E+03
        68  26 -2.545741E+04 -3.883077E+05 -1.127096E+04 -9.313901E+03 -3.181412E+03  1.045775E+04
        68  27  6.774489E+03 -3.453830E+05  1.200278E+04 -2.757239E+04 -8.285804E+02  1.589418E+04
        69   1 -3.398031E+05 -8.088197E+04 -3.282313E+04 -1.273449E+05 -1.331724E+04 -4.410885E+03
        69   2 -3.300441E+05 -5.622807E+04 -1.840164E+04 -1.238362E+05 -8.546592E+03 -1.584972E+03
        69   3 -3.222013E+05 -5.432755E+04 -1.255967E+04 -1.219325E+05 -3.283877E+03 -7.087563E+01
        69   4 -2.936137E+05 -5.899722E+04 -1.939201E+04 -1.101695E+05 -1.250926E+04 -4.108032E+03
        69   5 -2.917178E+05 -4.054874E+04 -8.120210E+03 -1.120434E+05 -8.416036E+03 -1.536048E+03
        69   6 -2.916036E+05 -4.471887E+04 -4.890662E+03 -1.155225E+05 -3.830821E+03 -2.759294E+02
        69   7 -2.474223E+05 -3.711207E+04 -5.961173E+03 -9.299294E+04 -1.170123E+04 -3.805141E+03
        69   8 -2.533901E+05 -2.486926E+04  2.161076E+03 -1.002499E+05 -8.285471E+03 -1.487120E+03
        69   9 -2.610049E+05 -3.511017E+04  2.778292E+03 -1.091123E+05 -4.377796E+03 -4.809906E+02
        69  10 -3.398033E+05 -8.088204E+04 -3.282350E+04 -1.273450E+05 -2.189958E-10 -3.703239E-10
        69  11 -3.300442E+05 -5.622810E+04 -1.840179E+04 -1.238362E+05 -1.356338E-09 -1.774085E-09
        69  12 -3.222013E+05 -5.432755E+04 -1.255969E+04 -1.219325E+05 -2.355173E-09 -4.069786E-10
        69  13 -2.936138E+05 -5.899728E+04 -1.939234E+04 -1.101696E+05 -3.073144E-09 -7.617076E-10
        69  14 -2.917178E+05 -4.054876E+04 -8.120347E+03 -1.120434E+05 -4.735674E-10 -1.640261E-09
        69  15 -2.916036E+05 -4.471887E+04 -4.890690E+03 -1.155225E+05 -1.777798E-09 -2.288602E-10
        69  16 -2.474225E+05 -3.711212E+04 -5.961458E+03 -9.299297E+04 -1.421346E-09 -1.037983E-09
        69  17 -2.533901E+05 -2.486928E+04  2.160942E+03 -1.002499E+05  9.561599E-10 -1.485185E-09
        69  18 -2.610049E+05 -3.511018E+04  2.778256E+03 -1.091123E+05 -7.243744E-10 -4.092248E-10
        69  19 -3.398031E+05 -8.088197E+04 -3.282313E+04 -1.273449E+05  1.331724E+04  4.410885E+03
        69  20 -3.300441E+05 -5.622807E+04 -1.840164E+04 -1.238362E+05  8.546592E+03  1.584972E+03
        69  21 -3.222013E+05 -5.432755E+04 -1.255967E+04 -1.219325E+05  3.283877E+03  7.087563E+01
        69  22 -2.936137E+05 -5.899722E+04 -1.939201E+04 -1.101695E+05  1.250926E+04  4.108032E+03
        69  23 -2.917178E+05 -4.054874E+04 -8.120210E+03 -1.120434E+05  8.416036E+03  1.536048E+03
        69  24 -2.916036E+05 -4.471887E+04 -4.890662E+03 -1.155225E+05  3.830821E+03  2.759294E+02
        69  25 -2.474223E+05 -3.711207E+04 -5.961173E+03 -9.299294E+04  1.170123E+04  3.805141E+03
        69  26 -2.533901E+05 -2.486926E+04  2.161076E+03 -1.002499E+05  8.285471E+03  1.487120E+03
        69  27 -2.610049E+05 -3.511017E+04  2.778292E+03 -1.091123E+05  4.377796E+03  4.809906E+02
        70   1 -3.066414E+05 -5.300139E+04 -8.161665E+03 -1.191032E+05 -2.813548E+03 -4.075804E+02
        70   2 -2.989085E+05 -4.466660E+04 -3.467520E+03 -1.135188E+05 -1.627600E+03 -3.715005E+02
        70   3 -2.866512E+05 -4.349260E+04 -5.069874E+01 -1.136176E+05 -4.058287E+02 -4.309223E+02
        70   4 -2.909623E+05 -4.670072E+04 -3.973434E+03 -1.143970E+05 -2.973971E+03 -4.677286E+02
        70   5 -2.931257E+05 -4.238948E+04 -1.932160E+03 -1.118310E+05 -1.837339E+03 -4.501339E+02
        70   6 -2.907552E+05 -4.522925E+04 -1.129107E+03 -1.149485E+05 -6.649040E+02 -5.280485E+02
        70   7 -2.752830E+05 -4.040003E+04  2.147714E+02 -1.096906E+05 -3.134399E+03 -5.278787E+02
        70   8 -2.873430E+05 -4.011236E+04 -3.968079E+02 -1.101433E+05 -2.047079E+03 -5.287680E+02
        70   9 -2.948590E+05 -4.696589E+04 -2.207510E+03 -1.162794E+05 -9.239760E+02 -6.251732E+02
        70  10 -3.066414E+05 -5.300139E+04 -8.161680E+03 -1.191032E+05 -8.426517E-10  7.574164E-10
        70  11 -2.989085E+05 -4.466660E+04 -3.467525E+03 -1.135188E+05  1.303839E-09 -8.247585E-11
        70  12 -2.866512E+05 -4.349260E+04 -5.069940E+01 -1.136176E+05 -2.073805E-10 -8.210385E-10
        70  13 -2.909623E+05 -4.670072E+04 -3.973451E+03 -1.143970E+05 -2.460422E-09  3.723117E-10
        70  14 -2.931257E+05 -4.238948E+04 -1.932166E+03 -1.118310E+05  1.865585E-10  7.285868E-10
        70  15 -2.907552E+05 -4.522925E+04 -1.129109E+03 -1.149485E+05 -2.604080E-09 -5.302744E-10
        70  16 -2.752830E+05 -4.040003E+04  2.147524E+02 -1.096906E+05 -1.195554E-09  1.620329E-10
        70  17 -2.873430E+05 -4.011237E+04 -3.968163E+02 -1.101433E+05  2.884592E-11  3.626176E-10
        70  18 -2.948590E+05 -4.696589E+04 -2.207513E+03 -1.162794E+05 -1.754531E-09 -8.143534E-11
        70  19 -3.066414E+05 -5.300139E+04 -8.161665E+03 -1.191032E+05  2.813548E+03  4.075804E+02
        70  20 -2.989085E+05 -4.466660E+04 -3.467520E+03 -1.135188E+05  1.627600E+03  3.715005E+02
        70  21 -2.866512E+05 -4.349260E+04 -5.069874E+01 -1.136176E+05  4.058287E+02  4.309223E+02
        70  22 -2.909623E+05 -4.670072E+04 -3.973434E+03 -1.143970E+05  2.973971E+03  4.677286E+02
        70  23 -2.931257E+05 -4.238948E+04 -1.932160E+03 -1.118310E+05  1.837339E+03  4.501339E+02
        70  24 -2.907552E+05 -4.522925E+04 -1.129107E+03 -1.149485E+05  6.649040E+02  5.280485E+02
        70  25 -2.752830E+05 -4.040003E+04  2.147714E+02 -1.096906E+05  3.134399E+03  5.278787E+02
        70  26 -2.873430E+05 -4.011236E+04 -3.968079E+02 -1.101433E+05  2.047079E+03  5.287680E+02
        70  27 -2.948590E+05 -4.696589E+04 -2.207510E+03 -1.162794E+05  9.239760E+02  6.251732E+02
        71   1 -2.731381E+05 -3.887411E+04  3.731366E+03 -1.100825E+05 -1.657269E+02 -6.599941E+02
        71   2 -2.656628E+05 -3.223425E+04  6.718628E+03 -1.042936E+05  2.690862E+02 -1.010197E+03
        71   3 -2.529577E+05 -3.112164E+04  9.456585E+03 -1.045796E+05  7.062063E+02 -1.366453E+03
        71   4 -2.906789E+05 -4.542640E+04 -8.955122E+02 -1.148263E+05 -3.966288E+02 -7.465606E+02
        71   5 -2.932839E+05 -4.258973E+04 -5.199199E+02 -1.118163E+05  3.504646E+01 -1.097950E+03
        71   6 -2.906583E+05 -4.527968E+04 -3.910893E+02 -1.148813E+05  4.690234E+02 -1.455393E+03
        71   7 -3.082195E+05 -5.197872E+04 -5.522449E+03 -1.195700E+05 -6.275249E+02 -8.331250E+02
        71   8 -3.209043E+05 -5.294521E+04 -7.758571E+03 -1.193388E+05 -1.989830E+02 -1.185699E+03
        71   9 -3.283577E+05 -5.943769E+04 -1.023892E+04 -1.251825E+05  2.318555E+02 -1.544327E+03
        71  10 -2.731381E+05 -3.887411E+04  3.731366E+03 -1.100825E+05  2.143156E-10 -6.244672E-10
        71  11 -2.656628E+05 -3.223425E+04  6.718626E+03 -1.042936E+05  1.620191E-09  6.575288E-10
        71  12 -2.529577E+05 -3.112164E+04  9.456581E+03 -1.045796E+05 -5.109902E-10  3.121187E-10
        71  13 -2.906789E+05 -4.542640E+04 -8.955135E+02 -1.148263E+05  2.588712E-10 -3.041979E-10
        71  14 -2.932839E+05 -4.258973E+04 -5.199221E+02 -1.118163E+05 -2.153685E-09  4.005651E-10
        71  15 -2.906583E+05 -4.527968E+04 -3.910937E+02 -1.148813E+05  1.207995E-09  3.855860E-10
        71  16 -3.082195E+05 -5.197872E+04 -5.522451E+03 -1.195700E+05 -1.382080E-09 -2.896710E-12
        71  17 -3.209043E+05 -5.294522E+04 -7.758574E+03 -1.193388E+05 -1.457894E-09 -5.333569E-12
        71  18 -3.283577E+05 -5.943769E+04 -1.023893E+04 -1.251825E+05 -1.023021E-09  6.295051E-10
        71  19 -2.731381E+05 -3.887411E+04  3.731366E+03 -1.100825E+05  1.657269E+02  6.599941E+02
        71  20 -2.656628E+05 -3.223425E+04  6.718628E+03 -1.042936E+05 -2.690862E+02  1.010197E+03
        71  21 -2.529577E+05 -3.112164E+04  9.456585E+03 -1.045796E+05 -7.062063E+02  1.366453E+03
        71  22 -2.906789E+05 -4.542640E+04 -8.955122E+02 -1.148263E+05  3.966288E+02  7.465606E+02
        71  23 -2.932839E+05 -4.258973E+04 -5.199199E+02 -1.118163E+05 -3.504646E+01  1.097950E+03
        71  24 -2.906583E+05 -4.527968E+04 -3.910893E+02 -1.148813E+05 -4.690234E+02  1.455393E+03
        71  25 -3.082195E+05 -5.197872E+04 -5.522449E+03 -1.195700E+05  6.275249E+02  8.331250E+02
        71  26 -3.209043E+05 -5.294521E+04 -7.758571E+03 -1.193388E+05  1.989830E+02  1.185699E+03
        71  27 -3.283577E+05 -5.943769E+04 -1.023892E+04 -1.251825E+05 -2.318555E+02  1.544327E+03
        72   1 -2.397366E+05 -2.618580E+04  1.300436E+04 -1.009897E+05  8.673424E+02 -1.609677E+03
        72   2 -2.323299E+05 -1.975048E+04  1.552886E+04 -9.520992E+04  1.261213E+03 -1.979992E+03
        72   3 -2.196644E+05 -1.866789E+04  1.787513E+04 -9.550169E+04  1.654720E+03 -2.349134E+03
        72   4 -2.906594E+05 -4.528976E+04 -3.797709E+02 -1.148625E+05  6.323992E+02 -1.697786E+03
        72   5 -2.932892E+05 -4.261692E+04 -4.483903E+02 -1.118254E+05  1.026843E+03 -2.067902E+03
        72   6 -2.906606E+05 -4.529694E+04 -6.957273E+02 -1.148599E+05  1.420921E+03 -2.436847E+03
        72   7 -3.415795E+05 -6.439346E+04 -1.376405E+04 -1.287342E+05  3.974785E+02 -1.785886E+03
        72   8 -3.542449E+05 -6.548309E+04 -1.642593E+04 -1.284394E+05  7.924992E+02 -2.155802E+03
        72   9 -3.616521E+05 -7.192575E+04 -1.926705E+04 -1.342162E+05  1.187151E+03 -2.524549E+03
        72  10 -2.397366E+05 -2.618580E+04  1.300436E+04 -1.009897E+05  3.036979E-10  7.371968E-11
        72  11 -2.323299E+05 -1.975049E+04  1.552885E+04 -9.520992E+04  5.483661E-10  5.451451E-10
        72  12 -2.196644E+05 -1.866789E+04  1.787512E+04 -9.550169E+04 -3.532225E-10 -5.443571E-10
        72  13 -2.906594E+05 -4.528976E+04 -3.797770E+02 -1.148625E+05  9.415868E-10  3.930696E-10
        72  14 -2.932892E+05 -4.261692E+04 -4.484003E+02 -1.118254E+05  3.293764E-09  3.081493E-10
        72  15 -2.906606E+05 -4.529695E+04 -6.957423E+02 -1.148599E+05  2.418871E-10 -5.185060E-10
        72  16 -3.415795E+05 -6.439346E+04 -1.376406E+04 -1.287342E+05 -1.049690E-09  7.044771E-10
        72  17 -3.542449E+05 -6.548309E+04 -1.642594E+04 -1.284394E+05 -4.498980E-11 -5.124692E-11
        72  18 -3.616521E+05 -7.192575E+04 -1.926707E+04 -1.342162E+05 -1.863087E-09 -4.893577E-10
        72  19 -2.397366E+05 -2.618580E+04  1.300436E+04 -1.009897E+05 -8.673424E+02  1.609677E+03
        72  20 -2.323299E+05 -1.975048E+04  1.552886E+04 -9.520992E+04 -1.261213E+03  1.979992E+03
        72  21 -2.196644E+05 -1.866789E+04  1.787513E+04 -9.550169E+04 -1.654720E+03  2.349134E+03
        72  22 -2.906594E+05 -4.528976E+04 -3.797709E+02 -1.148625E+05 -6.323992E+02  1.697786E+03
        72  23 -2.932892E+05 -4.261692E+04 -4.483903E+02 -1.118254E+05 -1.026843E+03  2.067902E+03
        72  24 -2.906606E+05 -4.529694E+04 -6.957273E+02 -1.148599E+05 -1.420921E+03  2.436847E+03
        72  25 -3.415795E+05 -6.439346E+04 -1.376405E+04 -1.287342E+05 -3.974785E+02  1.785886E+03
        72  26 -3.542449E+05 -6.548309E+04 -1.642593E+04 -1.284394E+05 -7.924992E+02  2.155802E+03
        72  27 -3.616521E+05 -7.192575E+04 -1.926705E+04 -1.342162E+05 -1.187151E+03  2.524549E+03
        73   1 -2.065786E+05 -1.373287E+04  2.118814E+04 -9.197405E+04  1.884630E+03 -2.563334E+03
        73   2 -1.992091E+05 -7.324652E+03  2.308990E+04 -8.620929E+04  2.831275E+03 -2.721696E+03
        73   3 -1.867933E+05 -6.464939E+03  2.433664E+04 -8.641130E+04  3.776429E+03 -2.875766E+03
        73   4 -2.906974E+05 -4.526104E+04 -8.907815E+02 -1.148667E+05  1.650903E+03 -2.651036E+03
        73   5 -2.932361E+05 -4.259800E+04 -1.554385E+03 -1.118416E+05  2.599634E+03 -2.808640E+03
        73   6 -2.907291E+05 -4.548390E+04 -2.874728E+03 -1.147833E+05  3.546864E+03 -2.961958E+03
        73   7 -3.748090E+05 -7.678869E+04 -2.297024E+04 -1.377566E+05  1.417211E+03 -2.738724E+03
        73   8 -3.872546E+05 -7.787080E+04 -2.619942E+04 -1.374705E+05  2.368032E+03 -2.895571E+03
        73   9 -3.946548E+05 -8.450232E+04 -3.008710E+04 -1.431511E+05  3.317341E+03 -3.048136E+03
        73  10 -2.065786E+05 -1.373288E+04  2.118812E+04 -9.197404E+04 -8.447102E-10 -8.407755E-10
        73  11 -1.992091E+05 -7.324663E+03  2.308987E+04 -8.620929E+04  1.181291E-09  9.703780E-10
        73  12 -1.867933E+05 -6.464952E+03  2.433660E+04 -8.641129E+04  2.123288E-09  8.423968E-10
        73  13 -2.906974E+05 -4.526105E+04 -8.907999E+02 -1.148667E+05  9.421690E-10 -2.264319E-10
        73  14 -2.932362E+05 -4.259801E+04 -1.554412E+03 -1.118416E+05  2.483628E-09  7.323315E-10
        73  15 -2.907292E+05 -4.548392E+04 -2.874768E+03 -1.147833E+05  6.809799E-10  3.932848E-10
        73  16 -3.748090E+05 -7.678870E+04 -2.297026E+04 -1.377566E+05 -5.206400E-11  3.260640E-10
        73  17 -3.872546E+05 -7.787081E+04 -2.619945E+04 -1.374705E+05  3.225572E-09  4.372299E-10
        73  18 -3.946548E+05 -8.450233E+04 -3.008714E+04 -1.431511E+05 -4.640082E-10 -3.995239E-10
        73  19 -2.065786E+05 -1.373287E+04  2.118814E+04 -9.197405E+04 -1.884630E+03  2.563334E+03
        73  20 -1.992091E+05 -7.324652E+03  2.308990E+04 -8.620929E+04 -2.831275E+03  2.721696E+03
        73  21 -1.867933E+05 -6.464939E+03  2.433664E+04 -8.641130E+04 -3.776429E+03  2.875766E+03
        73  22 -2.906974E+05 -4.526104E+04 -8.907815E+02 -1.148667E+05 -1.650903E+03  2.651036E+03
        73  23 -2.932361E+05 -4.259800E+04 -1.554385E+03 -1.118416E+05 -2.599634E+03  2.808640E+03
        73  24 -2.907291E+05 -4.548390E+04 -2.874728E+03 -1.147833E+05 -3.546864E+03  2.961958E+03
        73  25 -3.748090E+05 -7.678869E+04 -2.297024E+04 -1.377566E+05 -1.417211E+03  2.738724E+03
        73  26 -3.872546E+05 -7.787080E+04 -2.619942E+04 -1.374705E+05 -2.368032E+03  2.895571E+03
        73  27 -3.946548E+05 -8.450232E+04 -3.008710E+04 -1.431511E+05 -3.317341E+03  3.048136E+03
        74   1 -1.737865E+05 -1.557900E+03  2.690318E+04 -8.337186E+04  4.427073E+03 -2.931758E+03
        74   2 -1.663245E+05  5.307060E+03  2.648011E+04 -7.725860E+04  7.985318E+03 -2.100947E+03
        74   3 -1.551816E+05  4.133278E+03  2.276660E+04 -7.645676E+04  1.153280E+04 -1.241044E+03
        74   4 -2.909125E+05 -4.517559E+04 -3.769650E+03 -1.149618E+05  4.190659E+03 -3.020541E+03
        74   5 -2.929121E+05 -4.228975E+04 -6.718200E+03 -1.118801E+05  7.763244E+03 -2.184385E+03
        74   6 -2.912340E+05 -4.744600E+04 -1.296905E+04 -1.141101E+05  1.132500E+04 -1.319163E+03
        74   7 -4.080252E+05 -8.879250E+04 -3.444363E+04 -1.465463E+05  3.954293E+03 -3.109305E+03
        74   8 -4.194840E+05 -8.988548E+04 -3.991781E+04 -1.464952E+05  7.541220E+03 -2.267805E+03
        74   9 -4.272679E+05 -9.902389E+04 -4.870617E+04 -1.517558E+05  1.111726E+04 -1.397263E+03
        74  10 -1.737865E+05 -1.557914E+03  2.690312E+04 -8.337185E+04 -6.110527E-10  9.201741E-11
        74  11 -1.663246E+05  5.307038E+03  2.647998E+04 -7.725858E+04 -1.551495E-09  9.287556E-10
        74  12 -1.551818E+05  4.133241E+03  2.276634E+04 -7.645675E+04  2.719692E-09  1.738012E-09
        74  13 -2.909125E+05 -4.517560E+04 -3.769700E+03 -1.149618E+05  9.754062E-10  3.224309E-10
        74  14 -2.929122E+05 -4.228977E+04 -6.718322E+03 -1.118801E+05 -8.199336E-10  9.108043E-10
        74  15 -2.912341E+05 -4.744604E+04 -1.296930E+04 -1.141100E+05  2.286068E-09  3.157760E-10
        74  16 -4.080252E+05 -8.879251E+04 -3.444368E+04 -1.465463E+05 -4.862412E-10  2.374848E-10
        74  17 -4.194841E+05 -8.988550E+04 -3.991793E+04 -1.464952E+05 -9.382267E-11  4.915753E-10
        74  18 -4.272681E+05 -9.902393E+04 -4.870641E+04 -1.517557E+05 -1.434602E-10 -3.877509E-11
        74  19 -1.737865E+05 -1.557900E+03  2.690318E+04 -8.337186E+04 -4.427073E+03  2.931758E+03
        74  20 -1.663245E+05  5.307060E+03  2.648011E+04 -7.725860E+04 -7.985318E+03  2.100947E+03
        74  21 -1.551816E+05  4.133278E+03  2.276660E+04 -7.645676E+04 -1.153280E+04  1.241044E+03
        74  22 -2.909125E+05 -4.517559E+04 -3.769650E+03 -1.149618E+05 -4.190659E+03  3.020541E+03
        74  23 -2.929121E+05 -4.228975E+04 -6.718200E+03 -1.118801E+05 -7.763244E+03  2.184385E+03
        74  24 -2.912340E+05 -4.744600E+04 -1.296905E+04 -1.141101E+05 -1.132500E+04  1.319163E+03
        74  25 -4.080252E+05 -8.879250E+04 -3.444363E+04 -1.465463E+05 -3.954293E+03  3.109305E+03
        74  26 -4.194840E+05 -8.988548E+04 -3.991781E+04 -1.464952E+05 -7.541220E+03  2.267805E+03
        74  27 -4.272679E+05 -9.902389E+04 -4.870617E+04 -1.517558E+05 -1.111726E+04  1.397263E+03
        75   1 -1.410777E+05  9.339828E+03  2.243453E+04 -7.779673E+04  1.413970E+04 -6.086154E+02
        75   2 -1.329621E+05  2.148483E+04  1.246906E+04 -6.747689E+04  2.922935E+04  4.580818E+03
        75   3 -1.319842E+05  1.098762E+03 -1.607736E+04 -5.625471E+04  4.418545E+04  1.012714E+04
        75   4 -2.924473E+05 -4.440099E+04 -1.668549E+04 -1.159206E+05  1.382919E+04 -7.252463E+02
        75   5 -2.904408E+05 -3.930142E+04 -2.912710E+04 -1.121702E+05  2.909932E+04  4.531764E+03
        75   6 -2.956108E+05 -6.677370E+04 -6.029645E+04 -1.075172E+05  4.423572E+04  1.014535E+04
        75   7 -4.437953E+05 -9.814117E+04 -5.580752E+04 -1.540365E+05  1.351876E+04 -8.418503E+02
        75   8 -4.478957E+05 -1.000859E+05 -7.072546E+04 -1.568532E+05  2.896933E+04  4.482724E+03
        75   9 -4.592114E+05 -1.346429E+05 -1.045179E+05 -1.587670E+05  4.428596E+04  1.016356E+04
        75  10 -1.410779E+05  9.339774E+03  2.243415E+04 -7.779672E+04  2.642530E-09  9.604701E-10
        75  11 -1.329631E+05  2.148458E+04  1.246741E+04 -6.747700E+04 -9.250492E-10 -1.849648E-10
        75  12 -1.319863E+05  1.098127E+03 -1.608122E+04 -5.625507E+04  7.955504E-10 -1.694432E-09
        75  13 -2.924475E+05 -4.440104E+04 -1.668585E+04 -1.159206E+05  1.109649E-09 -1.063548E-10
        75  14 -2.904417E+05 -3.930167E+04 -2.912873E+04 -1.121703E+05 -4.322648E-10 -1.968093E-10
        75  15 -2.956129E+05 -6.677433E+04 -6.030032E+04 -1.075176E+05  2.560147E-10 -6.237564E-10
        75  16 -4.437955E+05 -9.814122E+04 -5.580786E+04 -1.540365E+05  1.188684E-09 -9.234446E-10
        75  17 -4.478966E+05 -1.000861E+05 -7.072708E+04 -1.568533E+05  2.243906E-10 -3.860225E-10
        75  18 -4.592135E+05 -1.346435E+05 -1.045218E+05 -1.587674E+05 -2.657333E-10 -4.437087E-10
        75  19 -1.410777E+05  9.339828E+03  2.243453E+04 -7.779673E+04 -1.413970E+04  6.086154E+02
        75  20 -1.329621E+05  2.148483E+04  1.246906E+04 -6.747689E+04 -2.922935E+04 -4.580818E+03
        75  21 -1.319842E+05  1.098762E+03 -1.607736E+04 -5.625471E+04 -4.418545E+04 -1.012714E+04
        75  22 -2.924473E+05 -4.440099E+04 -1.668549E+04 -1.159206E+05 -1.382919E+04  7.252463E+02
        75  23 -2.904408E+05 -3.930142E+04 -2.912710E+04 -1.121702E+05 -2.909932E+04 -4.531764E+03
        75  24 -2.956108E+05 -6.677370E+04 -6.029645E+04 -1.075172E+05 -4.423572E+04 -1.014535E+04
        75  25 -4.437953E+05 -9.814117E+04 -5.580752E+04 -1.540365E+05 -1.351876E+04  8.418503E+02
        75  26 -4.478957E+05 -1.000859E+05 -7.072546E+04 -1.568532E+05 -2.896933E+04 -4.482724E+03
        75  27 -4.592114E+05 -1.346429E+05 -1.045179E+05 -1.587670E+05 -4.428596E+04 -1.016356E+04
        76   1 -1.037996E+05  1.039737E+04 -2.698665E+04 -9.909067E+04  5.639649E+04  1.366082E+04
        76   2 -9.370085E+04  7.459868E+04 -7.371015E+04 -4.688748E+04  1.214132E+05  3.786081E+04
        76   3 -1.860710E+05 -1.288181E+05 -2.407442E+05  6.789612E+04  1.846118E+05  6.690347E+04
        76   4 -3.052534E+05 -3.674843E+04 -7.428668E+04 -1.247771E+05  5.502475E+04  1.314823E+04
        76   5 -2.691135E+05 -1.118126E+04 -1.234440E+05 -1.152709E+05  1.225209E+05  3.827233E+04
        76   6 -3.359715E+05 -2.537799E+05 -2.949043E+05 -4.317375E+04  1.882013E+05  6.822797E+04
        76   7 -5.066665E+05 -8.389535E+04 -1.215889E+05 -1.504587E+05  5.365351E+04  1.263567E+04
        76   8 -4.444943E+05 -9.695201E+04 -1.731805E+05 -1.836344E+05  1.236283E+05  3.868363E+04
        76   9 -4.858370E+05 -3.787006E+05 -3.490644E+05 -1.542099E+05  1.917898E+05  6.955110E+04
        76  10 -1.038031E+05  1.039632E+04 -2.699298E+04 -9.909129E+04  1.148961E-10 -5.967891E-10
        76  11 -9.371706E+04  7.459318E+04 -7.374055E+04 -4.689118E+04  8.701778E-10  3.871662E-10
        76  12 -1.861088E+05 -1.288321E+05 -2.408167E+05  6.788617E+04  7.322677E-10  1.262140E-09
        76  13 -3.052567E+05 -3.674942E+04 -7.429270E+04 -1.247776E+05  4.361454E-10 -2.324284E-09
        76  14 -2.691300E+05 -1.118687E+04 -1.234750E+05 -1.152747E+05 -2.068745E-09  1.067886E-09
        76  15 -3.360108E+05 -2.537944E+05 -2.949797E+05 -4.318409E+04 -1.087627E-09  5.854234E-10
        76  16 -5.066696E+05 -8.389629E+04 -1.215946E+05 -1.504592E+05 -3.238900E-10 -4.695241E-11
        76  17 -4.445111E+05 -9.695772E+04 -1.732121E+05 -1.836382E+05 -1.677393E-09  1.314933E-09
        76  18 -4.858778E+05 -3.787157E+05 -3.491427E+05 -1.542207E+05 -5.378024E-10 -6.808226E-10
        76  19 -1.037996E+05  1.039737E+04 -2.698665E+04 -9.909067E+04 -5.639649E+04 -1.366082E+04
        76  20 -9.370085E+04  7.459868E+04 -7.371015E+04 -4.688748E+04 -1.214132E+05 -3.786081E+04
        76  21 -1.860710E+05 -1.288181E+05 -2.407442E+05  6.789612E+04 -1.846118E+05 -6.690347E+04
        76  22 -3.052534E+05 -3.674843E+04 -7.428668E+04 -1.247771E+05 -5.502475E+04 -1.314823E+04
        76  23 -2.691135E+05 -1.118126E+04 -1.234440E+05 -1.152709E+05 -1.225209E+05 -3.827233E+04
        76  24 -3.359715E+05 -2.537799E+05 -2.949043E+05 -4.317375E+04 -1.882013E+05 -6.822797E+04
        76  25 -5.066665E+05 -8.389535E+04 -1.215889E+05 -1.504587E+05 -5.365351E+04 -1.263567E+04
        76  26 -4.444943E+05 -9.695201E+04 -1.731805E+05 -1.836344E+05 -1.236283E+05 -3.868363E+04
        76  27 -4.858370E+05 -3.787006E+05 -3.490644E+05 -1.542099E+05 -1.917898E+05 -6.955110E+04
        77   1  2.492574E+05  2.206089E+06  2.429878E+05 -3.507435E+04  1.204772E+04  1.110289E+05
        77   2  2.018278E+05  2.197708E+06  1.777432E+05 -1.778071E+04  4.186642E+04  6.240585E+04
        77   3  1.886698E+05  2.204255E+06  1.526647E+05  6.664479E+02  5.370228E+04  1.378704E+04
        77   4  5.284523E+04  1.407206E+06  5.816941E+04 -8.298542E+02  1.205771E+04  3.909612E+04
        77   5  1.354148E+04  1.402639E+06  2.976745E+04 -1.414330E+03  4.187919E+04  2.381398E+04
        77   6  2.755111E+03  1.407238E+06  1.844286E+04 -8.438136E+02  5.371008E+04  8.534136E+03
        77   7 -1.436044E+05  6.089230E+05 -1.266716E+05  3.337039E+04  1.205980E+04 -3.274503E+04
        77   8 -1.747793E+05  6.081830E+05 -1.182294E+05  1.493065E+04  4.188994E+04 -1.472989E+04
        77   9 -1.831928E+05  6.108460E+05 -1.157990E+05 -2.352034E+03  5.371791E+04  3.287727E+03
        77  10  2.492539E+05  2.206076E+06  2.429645E+05 -3.507543E+04  1.280494E-10  3.194707E-10
        77  11  2.018249E+05  2.197703E+06  1.777326E+05 -1.778282E+04 -1.115724E-09 -1.585889E-09
        77  12  1.886666E+05  2.204254E+06  1.526589E+05  6.658522E+02 -3.355145E-09 -2.797575E-09
        77  13  5.284467E+04  1.407204E+06  5.816627E+04 -8.302337E+02 -8.792247E-10 -9.188949E-11
        77  14  1.353945E+04  1.402638E+06  2.976309E+04 -1.415133E+03 -1.837814E-09  1.913140E-10
        77  15  2.751991E+03  1.407238E+06  1.843730E+04 -8.441826E+02 -2.856294E-09 -1.629175E-10
        77  16 -1.436049E+05  6.089218E+05 -1.266739E+05  3.337071E+04  6.319832E-10 -4.223422E-10
        77  17 -1.747813E+05  6.081823E+05 -1.182331E+05  1.493115E+04 -1.108074E-09  1.296031E-09
        77  18 -1.831959E+05  6.108452E+05 -1.158045E+05 -2.352176E+03 -2.078794E-09  2.984661E-09
        77  19  2.492574E+05  2.206089E+06  2.429878E+05 -3.507435E+04 -1.204772E+04 -1.110289E+05
        77  20  2.018278E+05  2.197708E+06  1.777432E+05 -1.778071E+04 -4.186642E+04 -6.240585E+04
        77  21  1.886698E+05  2.204255E+06  1.526647E+05  6.664479E+02 -5.370228E+04 -1.378704E+04
        77  22  5.284523E+04  1.407206E+06  5.816941E+04 -8.298542E+02 -1.205771E+04 -3.909612E+04
        77  23  1.354148E+04  1.402639E+06  2.976745E+04 -1.414330E+03 -4.187919E+04 -2.381398E+04
        77  24  2.755111E+03  1.407238E+06  1.844286E+04 -8.438136E+02 -5.371008E+04 -8.534136E+03
        77  25 -1.436044E+05  6.089230E+05 -1.266716E+05  3.337039E+04 -1.205980E+04  3.274503E+04
        77  26 -1.747793E+05  6.081830E+05 -1.182294E+05  1.493065E+04 -4.188994E+04  1.472989E+04
        77  27 -1.831928E+05  6.108460E+05 -1.157990E+05 -2.352034E+03 -5.371791E+04 -3.287727E+03
        78   1  1.880657E+05  2.201370E+06  1.481280E+05 -3.071914E+03  5.495327E+04  1.253171E+04
        78   2  1.857265E+05  2.199491E+06  1.436840E+05 -1.325818E+03  5.673049E+04 -9.307783E+02
        78   3  1.883093E+05  2.200644E+06  1.492291E+05  3.461883E+02  5.492600E+04 -1.439511E+04
        78   4  2.764468E+03  1.405618E+06  1.572635E+04 -1.116451E+03  5.496224E+04  5.924203E+03
        78   5  1.086811E+03  1.404676E+06  1.364820E+04 -1.079650E+03  5.673717E+04 -8.918960E+02
        78   6  3.183340E+03  1.405618E+06  1.695944E+04 -1.116942E+03  5.492815E+04 -7.709845E+03
        78   7 -1.825696E+05  6.104893E+05 -1.166945E+05  8.364875E+02  5.497119E+04 -6.751474E+02
        78   8 -1.835851E+05  6.104836E+05 -1.164058E+05 -8.337291E+02  5.674386E+04 -8.530611E+02
        78   9 -1.819753E+05  6.112129E+05 -1.153293E+05 -2.578045E+03  5.493027E+04 -1.032821E+03
        78  10  1.880625E+05  2.201369E+06  1.481221E+05 -3.072468E+03 -2.079038E-09  7.685040E-09
        78  11  1.857231E+05  2.199490E+06  1.436780E+05 -1.325776E+03  3.031421E-09  2.840780E-10
        78  12  1.883060E+05  2.200643E+06  1.492230E+05  3.468245E+02 -1.221252E-09 -4.954761E-09
        78  13  2.761213E+03  1.405617E+06  1.572060E+04 -1.116713E+03 -1.410271E-09 -4.235029E-10
        78  14  1.083352E+03  1.404675E+06  1.364214E+04 -1.079609E+03  4.632008E-10  4.565491E-10
        78  15  3.180082E+03  1.405617E+06  1.695366E+04 -1.116601E+03 -6.342927E-11 -4.665661E-10
        78  16 -1.825728E+05  6.104885E+05 -1.167002E+05  8.365174E+02 -2.073652E-09 -7.642140E-09
        78  17 -1.835886E+05  6.104827E+05 -1.164118E+05 -8.336901E+02  1.034507E-09 -1.278721E-09
        78  18 -1.819786E+05  6.112121E+05 -1.153349E+05 -2.578000E+03  1.324570E-09  5.186457E-09
        78  19  1.880657E+05  2.201370E+06  1.481280E+05 -3.071914E+03 -5.495327E+04 -1.253171E+04
        78  20  1.857265E+05  2.199491E+06  1.436840E+05 -1.325818E+03 -5.673049E+04  9.307783E+02
        78  21  1.883093E+05  2.200644E+06  1.492291E+05  3.461883E+02 -5.492600E+04  1.439511E+04
        78  22  2.764468E+03  1.405618E+06  1.572635E+04 -1.116451E+03 -5.496224E+04 -5.924203E+03
        78  23  1.086811E+03  1.404676E+06  1.364820E+04 -1.079650E+03 -5.673717E+04  8.918960E+02
        78  24  3.183340E+03  1.405618E+06  1.695944E+04 -1.116942E+03 -5.492815E+04  7.709845E+03
        78  25 -1.825696E+05  6.104893E+05 -1.166945E+05  8.364875E+02 -5.497119E+04  6.751474E+02
        78  26 -1.835851E+05  6.104836E+05 -1.164058E+05 -8.337291E+02 -5.674386E+04  8.530611E+02
        78  27 -1.819753E+05  6.112129E+05 -1.153293E+05 -2.578045E+03 -5.493027E+04  1.032821E+03
        79   1  1.888004E+05  2.203347E+06  1.543921E+05 -3.829699E+03  5.364919E+04 -1.587928E+04
        79   2  2.033837E+05  2.195455E+06  1.814468E+05  1.740195E+04  4.185335E+04 -6.649792E+04
        79   3  2.564547E+05  2.203798E+06  2.510127E+05  3.735668E+04  1.213882E+04 -1.171392E+05
        79   4  3.164128E+03  1.407534E+06  2.038686E+04 -1.390533E+03  5.365151E+04 -1.054427E+04
        79   5  1.559335E+04  1.402267E+06  3.385290E+04 -7.298648E+02  4.182696E+04 -2.794193E+04
        79   6  6.077905E+04  1.407496E+06  6.682428E+04 -1.347542E+03  1.207658E+04 -4.536019E+04
        79   7 -1.825053E+05  6.123428E+05 -1.136384E+05  1.045524E+03  5.365388E+04 -5.215844E+03
        79   8 -1.722310E+05  6.096902E+05 -1.137620E+05 -1.883787E+04  4.179831E+04  1.056622E+04
        79   9 -1.349325E+05  6.117919E+05 -1.173864E+05 -4.000178E+04  1.200538E+04  2.632772E+04
        79  10  1.887973E+05  2.203346E+06  1.543862E+05 -3.829014E+03 -2.139677E-09 -1.982840E-09
        79  11  2.033806E+05  2.195449E+06  1.814352E+05  1.740419E+04  1.366747E-09 -3.171202E-09
        79  12  2.564508E+05  2.203784E+06  2.509867E+05  3.735783E+04  1.970825E-10 -3.653151E-10
        79  13  3.161005E+03  1.407533E+06  2.038124E+04 -1.390077E+03 -1.513037E-09 -7.408740E-10
        79  14  1.559127E+04  1.402266E+06  3.384814E+04 -7.289240E+02 -2.017077E-09  1.003322E-09
        79  15  6.077835E+04  1.407494E+06  6.682014E+04 -1.347101E+03  1.040098E-09 -6.965774E-10
        79  16 -1.825084E+05  6.123420E+05 -1.136439E+05  1.045749E+03  1.571415E-09  1.970093E-09
        79  17 -1.722329E+05  6.096896E+05 -1.137655E+05 -1.883823E+04  1.329058E-09  1.615737E-09
        79  18 -1.349329E+05  6.117911E+05 -1.173880E+05 -4.000203E+04  2.060657E-09  9.949993E-10
        79  19  1.888004E+05  2.203347E+06  1.543921E+05 -3.829699E+03 -5.364919E+04  1.587928E+04
        79  20  2.033837E+05  2.195455E+06  1.814468E+05  1.740195E+04 -4.185335E+04  6.649792E+04
        79  21  2.564547E+05  2.203798E+06  2.510127E+05  3.735668E+04 -1.213882E+04  1.171392E+05
        79  22  3.164128E+03  1.407534E+06  2.038686E+04 -1.390533E+03 -5.365151E+04  1.054427E+04
        79  23  1.559335E+04  1.402267E+06  3.385290E+04 -7.298648E+02 -4.182696E+04  2.794193E+04
        79  24  6.077905E+04  1.407496E+06  6.682428E+04 -1.347542E+03 -1.207658E+04  4.536019E+04
        79  25 -1.825053E+05  6.123428E+05 -1.136384E+05  1.045524E+03 -5.365388E+04  5.215844E+03
        79  26 -1.722310E+05  6.096902E+05 -1.137620E+05 -1.883787E+04 -4.179831E+04 -1.056622E+04
        79  27 -1.349325E+05  6.117919E+05 -1.173864E+05 -4.000178E+04 -1.200538E+04 -2.632772E+04
        80   1 -2.354355E+06 -4.311496E+05 -3.950508E+05 -5.786979E+04  5.694857E+04  2.311166E+04
        80   2 -2.208911E+06 -5.131769E+05 -4.162498E+05 -2.676887E+04  5.116517E+04  6.918816E+04
        80   3 -2.025152E+06 -4.643116E+05 -4.000662E+05 -1.066956E+05  4.559542E+04  6.516086E+04
        80   4 -1.794656E+05  1.113365E+05  1.411831E+05 -8.845825E+04  9.634295E+04  2.328197E+04
        80   5 -2.008969E+05 -1.548260E+04  6.164919E+04 -3.271425E+04  6.289258E+04  6.921313E+04
        80   6 -1.793428E+05 -6.825322E+03  3.862591E+04 -8.797080E+04  2.965841E+04  6.511183E+04
        80   7  1.999744E+06  6.534748E+05  6.770737E+05 -1.191589E+05  1.358751E+05  2.344811E+04
        80   8  1.810828E+06  4.819209E+05  5.392665E+05 -3.868213E+04  7.465758E+04  6.923784E+04
        80   9  1.669603E+06  4.504166E+05  4.770810E+05 -6.919151E+04  1.367402E+04  6.506191E+04
        80  10 -2.354359E+06 -4.311510E+05 -3.950579E+05 -5.787086E+04 -2.928720E-10 -3.486800E-10
        80  11 -2.208915E+06 -5.131827E+05 -4.162637E+05 -2.677173E+04  3.879974E-10 -4.106036E-10
        80  12 -2.025156E+06 -4.643168E+05 -4.000781E+05 -1.066980E+05 -2.845820E-09  4.366724E-10
        80  13 -1.794757E+05  1.113334E+05  1.411646E+05 -8.846005E+04 -4.585474E-10 -3.185057E-10
        80  14 -2.009024E+05 -1.548881E+04  6.163276E+04 -3.271775E+04  5.210593E-11 -2.967644E-10
        80  15 -1.793449E+05 -6.830111E+03  3.861629E+04 -8.797235E+04  1.330097E-09  5.902578E-10
        80  16  1.999724E+06  6.534693E+05  6.770381E+05 -1.191615E+05 -1.098185E-09 -2.033138E-10
        80  17  1.810820E+06  4.819142E+05  5.392470E+05 -3.868629E+04 -7.781106E-10 -9.119939E-11
        80  18  1.669601E+06  4.504120E+05  4.770727E+05 -6.919223E+04  2.328455E-09  9.192386E-10
        80  19 -2.354355E+06 -4.311496E+05 -3.950508E+05 -5.786979E+04 -5.694857E+04 -2.311166E+04
        80  20 -2.208911E+06 -5.131769E+05 -4.162498E+05 -2.676887E+04 -5.116517E+04 -6.918816E+04
        80  21 -2.025152E+06 -4.643116E+05 -4.000662E+05 -1.066956E+05 -4.559542E+04 -6.516086E+04
        80  22 -1.794656E+05  1.113365E+05  1.411831E+05 -8.845825E+04 -9.634295E+04 -2.328197E+04
        80  23 -2.008969E+05 -1.548260E+04  6.164919E+04 -3.271425E+04 -6.289258E+04 -6.921313E+04
        80  24 -1.793428E+05 -6.825322E+03  3.862591E+04 -8.797080E+04 -2.965841E+04 -6.511183E+04
        80  25  1.999744E+06  6.534748E+05  6.770737E+05 -1.191589E+05 -1.358751E+05 -2.344811E+04
        80  26  1.810828E+06  4.819209E+05  5.392665E+05 -3.868213E+04 -7.465758E+04 -6.923784E+04
        80  27  1.669603E+06  4.504166E+05  4.770810E+05 -6.919151E+04 -1.367402E+04 -6.506191E+04
        81   1 -1.831956E+06 -3.976709E+05 -3.608875E+05 -8.751557E+04  2.468485E+04  5.415574E+04
        81   2 -1.669975E+06 -3.686364E+05 -3.361578E+05 -3.250239E+04  1.841500E+04  5.064605E+04
        81   3 -1.501521E+06 -3.265837E+05 -3.035785E+05 -9.023363E+04  1.212993E+04  4.377629E+04
        81   4 -1.871996E+05  1.011307E+04  3.134287E+04 -8.850442E+04  2.372551E+04  5.414433E+04
        81   5 -1.905302E+05 -2.004562E+03  1.591586E+04 -3.213242E+04  1.558571E+04  5.063510E+04
        81   6 -1.870978E+05 -7.935539E+02  9.624230E+03 -8.848783E+04  7.432349E+03  4.376943E+04
        81   7  1.460044E+06  4.177014E+05  4.233832E+05 -8.949685E+04  2.276356E+04  5.413296E+04
        81   8  1.290927E+06  3.644693E+05  3.678363E+05 -3.176202E+04  1.274966E+04  5.062417E+04
        81   9  1.128913E+06  3.248717E+05  3.227058E+05 -8.673826E+04  2.724838E+03  4.376255E+04
        81  10 -1.831958E+06 -3.976742E+05 -3.608941E+05 -8.751665E+04  1.564285E-10  1.098187E-09
        81  11 -1.669976E+06 -3.686392E+05 -3.361632E+05 -3.250314E+04 -7.273791E-10  5.598834E-10
        81  12 -1.501522E+06 -3.265858E+05 -3.035824E+05 -9.023406E+04 -1.026214E-09  3.351186E-10
        81  13 -1.872009E+05  1.010977E+04  3.133630E+04 -8.850546E+04  2.419022E-09  7.636677E-10
        81  14 -1.905312E+05 -2.007380E+03  1.591059E+04 -3.213306E+04  9.351721E-10 -1.194415E-10
        81  15 -1.870983E+05 -7.956258E+02  9.620526E+03 -8.848809E+04  1.484315E-09  4.458516E-10
        81  16  1.460043E+06  4.176982E+05  4.233767E+05 -8.949784E+04 -8.492941E-10  7.932616E-10
        81  17  1.290926E+06  3.644665E+05  3.678312E+05 -3.176254E+04 -2.170825E-09 -5.041855E-10
        81  18  1.128913E+06  3.248697E+05  3.227022E+05 -8.673835E+04  3.134751E-10  4.912933E-10
        81  19 -1.831956E+06 -3.976709E+05 -3.608875E+05 -8.751557E+04 -2.468485E+04 -5.415574E+04
        81  20 -1.669975E+06 -3.686364E+05 -3.361578E+05 -3.250239E+04 -1.841500E+04 -5.064605E+04
        81  21 -1.501521E+06 -3.265837E+05 -3.035785E+05 -9.023363E+04 -1.212993E+04 -4.377629E+04
        81  22 -1.871996E+05  1.011307E+04  3.134287E+04 -8.850442E+04 -2.372551E+04 -5.414433E+04
        81  23 -1.905302E+05 -2.004562E+03  1.591586E+04 -3.213242E+04 -1.558571E+04 -5.063510E+04
        81  24 -1.870978E+05 -7.935539E+02  9.624230E+03 -8.848783E+04 -7.432349E+03 -4.376943E+04
        81  25  1.460044E+06  4.177014E+05  4.233832E+05 -8.949685E+04 -2.276356E+04 -5.413296E+04
        81  26  1.290927E+06  3.644693E+05  3.678363E+05 -3.176202E+04 -1.274966E+04 -5.062417E+04
        81  27  1.128913E+06  3.248717E+05  3.227058E+05 -8.673826E+04 -2.724838E+03 -4.376255E+04
        82   1 -1.300434E+06 -2.747417E+05 -2.567727E+05 -8.830309E+04  9.615529E+03  3.919812E+04
        82   2 -1.134988E+06 -2.347052E+05 -2.210412E+05 -3.148579E+04  7.711329E+03  3.235319E+04
        82   3 -9.682402E+05 -1.932244E+05 -1.835664E+05 -8.804687E+04  5.793391E+03  2.527445E+04
        82   4 -1.881785E+05  7.500861E+02  7.447906E+03 -8.863432E+04  5.914071E+03  3.919429E+04
        82   5 -1.887956E+05 -2.974253E+02  4.062655E+03 -3.195055E+04  3.877250E+03  3.235263E+04
        82   6 -1.881120E+05  1.240190E+02  2.512619E+03 -8.863451E+04  1.827201E+03  2.527740E+04
        82   7  9.252149E+05  2.761528E+05  2.715822E+05 -8.896600E+04  2.205996E+03  3.919048E+04
        82   8  7.582196E+05  2.340458E+05  2.291039E+05 -3.241586E+04  3.734507E+01  3.235207E+04
        82   9  5.925752E+05  1.934284E+05  1.885490E+05 -8.922267E+04 -2.143957E+03  2.528036E+04
        82  10 -1.300435E+06 -2.747434E+05 -2.567758E+05 -8.830339E+04 -1.727871E-09 -3.730989E-10
        82  11 -1.134988E+06 -2.347064E+05 -2.210433E+05 -3.148599E+04  1.493647E-09 -1.086215E-09
        82  12 -9.682404E+05 -1.932251E+05 -1.835677E+05 -8.804699E+04  2.438418E-09  4.296566E-10
        82  13 -1.881790E+05  7.484272E+02  7.444953E+03 -8.863450E+04 -1.077180E-09  2.811576E-10
        82  14 -1.887959E+05 -2.985532E+02  4.060660E+03 -3.195065E+04 -1.534687E-09 -5.444383E-10
        82  15 -1.881121E+05  1.233320E+02  2.511412E+03 -8.863454E+04 -8.837981E-10  2.707554E-10
        82  16  9.252145E+05  2.761511E+05  2.715793E+05 -8.896607E+04  6.901607E-10  4.732002E-10
        82  17  7.582194E+05  2.340447E+05  2.291019E+05 -3.241586E+04 -2.873157E-09 -3.701202E-10
        82  18  5.925750E+05  1.934277E+05  1.885478E+05 -8.922262E+04 -5.390573E-09  5.750522E-10
        82  19 -1.300434E+06 -2.747417E+05 -2.567727E+05 -8.830309E+04 -9.615529E+03 -3.919812E+04
        82  20 -1.134988E+06 -2.347052E+05 -2.210412E+05 -3.148579E+04 -7.711329E+03 -3.235319E+04
        82  21 -9.682402E+05 -1.932244E+05 -1.835664E+05 -8.804687E+04 -5.793391E+03 -2.527445E+04
        82  22 -1.881785E+05  7.500861E+02  7.447906E+03 -8.863432E+04 -5.914071E+03 -3.919429E+04
        82  23 -1.887956E+05 -2.974253E+02  4.062655E+03 -3.195055E+04 -3.877250E+03 -3.235263E+04
        82  24 -1.881120E+05  1.240190E+02  2.512619E+03 -8.863451E+04 -1.827201E+03 -2.527740E+04
        82  25  9.252149E+05  2.761528E+05  2.715822E+05 -8.896600E+04 -2.205996E+03 -3.919048E+04
        82  26  7.582196E+05  2.340458E+05  2.291039E+05 -3.241586E+04 -3.734507E+01 -3.235207E+04
        82  27  5.925752E+05  1.934284E+05  1.885490E+05 -8.922267E+04  2.143957E+03 -2.528036E+04
        83   1 -7.654186E+05 -1.426150E+05 -1.348172E+05 -8.810842E+04  5.318913E+03  2.111154E+04
        83   2 -5.987570E+05 -1.015991E+05 -9.637121E+04 -3.137301E+04  4.701571E+03  1.402515E+04
        83   3 -4.321679E+05 -6.015063E+04 -5.748045E+04 -8.835462E+04  4.078263E+03  6.919964E+03
        83   4 -1.883483E+05  2.162245E+02  1.941186E+03 -8.871096E+04  1.416150E+03  2.111606E+04
        83   5 -1.882843E+05  5.833373E+01  1.250904E+03 -3.185471E+04  7.874392E+02  1.403109E+04
        83   6 -1.883191E+05  3.362163E+02  1.013885E+03 -8.871079E+04  1.529236E+02  6.927426E+03
        83   7  3.890283E+05  1.430235E+05  1.386764E+05 -8.931394E+04 -2.490226E+03  2.112059E+04
        83   8  2.223432E+05  1.017036E+05  9.886129E+04 -3.233666E+04 -3.129270E+03  1.403703E+04
        83   9  5.558416E+04  6.081875E+04  5.950406E+04 -8.906708E+04 -3.773952E+03  6.934891E+03
        83  10 -7.654187E+05 -1.426155E+05 -1.348181E+05 -8.810851E+04 -5.753218E-09  1.041336E-09
        83  11 -5.987571E+05 -1.015993E+05 -9.637162E+04 -3.137306E+04 -3.152576E-09  1.068085E-10
        83  12 -4.321680E+05 -6.015069E+04 -5.748057E+04 -8.835464E+04  2.080148E-09 -6.097120E-10
        83  13 -1.883484E+05  2.157452E+02  1.940344E+03 -8.871099E+04  8.820809E-10  5.794168E-10
        83  14 -1.882843E+05  5.812218E+01  1.250533E+03 -3.185472E+04  1.294548E-09  8.441318E-10
        83  15 -1.883192E+05  3.361648E+02  1.013794E+03 -8.871079E+04 -4.855340E-10 -3.937546E-10
        83  16  3.890282E+05  1.430230E+05  1.386756E+05 -8.931390E+04  5.295936E-09  8.274586E-10
        83  17  2.223431E+05  1.017034E+05  9.886090E+04 -3.233662E+04  1.726895E-09 -2.205628E-10
        83  18  5.558413E+04  6.081869E+04  5.950394E+04 -8.906706E+04 -1.532094E-09 -7.693042E-10
        83  19 -7.654186E+05 -1.426150E+05 -1.348172E+05 -8.810842E+04 -5.318913E+03 -2.111154E+04
        83  20 -5.987570E+05 -1.015991E+05 -9.637121E+04 -3.137301E+04 -4.701571E+03 -1.402515E+04
        83  21 -4.321679E+05 -6.015063E+04 -5.748045E+04 -8.835462E+04 -4.078263E+03 -6.919964E+03
        83  22 -1.883483E+05  2.162245E+02  1.941186E+03 -8.871096E+04 -1.416150E+03 -2.111606E+04
        83  23 -1.882843E+05  5.833373E+01  1.250904E+03 -3.185471E+04 -7.874392E+02 -1.403109E+04
        83  24 -1.883191E+05  3.362163E+02  1.013885E+03 -8.871079E+04 -1.529236E+02 -6.927426E+03
        83  25  3.890283E+05  1.430235E+05  1.386764E+05 -8.931394E+04  2.490226E+03 -2.112059E+04
        83  26  2.223432E+05  1.017036E+05  9.886129E+04 -3.233666E+04  3.129270E+03 -1.403703E+04
        83  27  5.558416E+04  6.081875E+04  5.950406E+04 -8.906708E+04  3.773952E+03 -6.934891E+03
        84   1 -2.286924E+05 -9.563401E+03 -8.098131E+03 -8.867067E+04  3.886793E+03  2.778263E+03
        84   2 -6.176698E+04  3.140852E+04  3.124840E+04 -3.199926E+04  3.278261E+03 -4.327428E+03
        84   3  1.048868E+05  7.283603E+04  7.099353E+04 -8.910189E+04  2.671372E+03 -1.141961E+04
        84   4 -1.883479E+05  3.249816E+02  9.891522E+02 -8.872486E+04 -3.917102E+01  2.786072E+03
        84   5 -1.882031E+05  1.055485E+02  1.188069E+03 -3.183713E+04 -6.406354E+02 -4.320131E+03
        84   6 -1.883568E+05  3.424051E+02  1.782293E+03 -8.872481E+04 -1.240299E+03 -1.141273E+04
        84   7 -1.480018E+05  1.021326E+04  1.007639E+04 -8.877906E+04 -3.965388E+03  2.793881E+03
        84   8 -3.146244E+05 -3.119857E+04 -2.887332E+04 -3.167502E+04 -4.558738E+03 -4.312836E+03
        84   9 -4.815213E+05 -7.215737E+04 -6.743483E+04 -8.834787E+04 -5.150133E+03 -1.140584E+04
        84  10 -2.286925E+05 -9.563413E+03 -8.098173E+03 -8.867068E+04 -5.561690E-10 -5.417838E-10
        84  11 -6.176700E+04  3.140850E+04  3.124835E+04 -3.199925E+04 -2.469431E-09  2.419631E-10
        84  12  1.048867E+05  7.283589E+04  7.099327E+04 -8.910186E+04 -1.786382E-09  2.183091E-10
        84  13 -1.883479E+05  3.249733E+02  9.891376E+02 -8.872486E+04  2.985862E-09  2.536449E-10
        84  14 -1.882031E+05  1.055283E+02  1.188033E+03 -3.183713E+04  2.452914E-10  8.898634E-10
        84  15 -1.883569E+05  3.422648E+02  1.782045E+03 -8.872482E+04 -1.276217E-09  1.477493E-10
        84  16 -1.480018E+05  1.021325E+04  1.007634E+04 -8.877905E+04  6.882051E-10 -4.007032E-10
        84  17 -3.146245E+05 -3.119859E+04 -2.887340E+04 -3.167503E+04  2.416090E-09  1.089949E-09
        84  18 -4.815214E+05 -7.215752E+04 -6.743512E+04 -8.834792E+04  1.448235E-09 -8.436129E-10
        84  19 -2.286924E+05 -9.563401E+03 -8.098131E+03 -8.867067E+04 -3.886793E+03 -2.778263E+03
        84  20 -6.176698E+04  3.140852E+04  3.124840E+04 -3.199926E+04 -3.278261E+03  4.327428E+03
        84  21  1.048868E+05  7.283603E+04  7.099353E+04 -8.910189E+04 -2.671372E+03  1.141961E+04
        84  22 -1.883479E+05  3.249816E+02  9.891522E+02 -8.872486E+04  3.917102E+01 -2.786072E+03
        84  23 -1.882031E+05  1.055485E+02  1.188069E+03 -3.183713E+04  6.406354E+02  4.320131E+03
        84  24 -1.883568E+05  3.424051E+02  1.782293E+03 -8.872481E+04  1.240299E+03  1.141273E+04
        84  25 -1.480018E+05  1.021326E+04  1.007639E+04 -8.877906E+04  3.965388E+03 -2.793881E+03
        84  26 -3.146244E+05 -3.119857E+04 -2.887332E+04 -3.167502E+04  4.558738E+03  4.312836E+03
        84  27 -4.815213E+05 -7.215737E+04 -6.743483E+04 -8.834787E+04  5.150133E+03  1.140584E+04
        85   1  3.085579E+05  1.232962E+05  1.208511E+05 -8.917948E+04  2.353535E+03 -1.558099E+04
        85   2  4.747787E+05  1.640254E+05  1.613606E+05 -3.251886E+04  3.694756E+02 -2.266490E+04
        85   3  6.417100E+05  2.062048E+05  2.035281E+05 -8.944070E+04 -1.605616E+03 -2.954556E+04
        85   4 -1.881855E+05  2.404762E+02  2.274419E+03 -8.868395E+04 -1.615714E+03 -1.557496E+04
        85   5 -1.885430E+05 -1.453411E+02  3.706926E+03 -3.188860E+04 -3.486134E+03 -2.266144E+04
        85   6 -1.882322E+05  9.024644E+02  6.722011E+03 -8.868319E+04 -5.347066E+03 -2.954447E+04
        85   7 -6.847026E+05 -1.228331E+05 -1.163195E+05 -8.818871E+04 -5.581803E+03 -1.556894E+04
        85   8 -8.514610E+05 -1.643478E+05 -1.539774E+05 -3.125886E+04 -7.337646E+03 -2.265798E+04
        85   9 -1.017542E+06 -2.044494E+05 -1.901319E+05 -8.792650E+04 -9.083539E+03 -2.954338E+04
        85  10  3.085578E+05  1.232959E+05  1.208506E+05 -8.917946E+04 -3.039643E-10 -1.421854E-10
        85  11  4.747786E+05  1.640249E+05  1.613596E+05 -3.251886E+04  2.405898E-10  1.414383E-10
        85  12  6.417098E+05  2.062039E+05  2.035264E+05 -8.944074E+04  1.743188E-09 -8.522785E-10
        85  13 -1.881856E+05  2.402151E+02  2.273958E+03 -8.868397E+04 -1.299696E-09 -8.370356E-10
        85  14 -1.885432E+05 -1.458957E+02  3.705938E+03 -3.188866E+04 -9.359898E-10 -1.575805E-10
        85  15 -1.882325E+05  9.015195E+02  6.720317E+03 -8.868332E+04  7.920040E-11 -1.220300E-09
        85  16 -6.847027E+05 -1.228333E+05 -1.163200E+05 -8.818878E+04  2.002588E-09 -9.353817E-10
        85  17 -8.514612E+05 -1.643484E+05 -1.539785E+05 -3.125900E+04  1.289529E-09  6.838128E-11
        85  18 -1.017542E+06 -2.044503E+05 -1.901337E+05 -8.792671E+04 -1.044105E-09 -9.809968E-10
        85  19  3.085579E+05  1.232962E+05  1.208511E+05 -8.917948E+04 -2.353535E+03  1.558099E+04
        85  20  4.747787E+05  1.640254E+05  1.613606E+05 -3.251886E+04 -3.694756E+02  2.266490E+04
        85  21  6.417100E+05  2.062048E+05  2.035281E+05 -8.944070E+04  1.605616E+03  2.954556E+04
        85  22 -1.881855E+05  2.404762E+02  2.274419E+03 -8.868395E+04  1.615714E+03  1.557496E+04
        85  23 -1.885430E+05 -1.453411E+02  3.706926E+03 -3.188860E+04  3.486134E+03  2.266144E+04
        85  24 -1.882322E+05  9.024644E+02  6.722011E+03 -8.868319E+04  5.347066E+03  2.954447E+04
        85  25 -6.847026E+05 -1.228331E+05 -1.163195E+05 -8.818871E+04  5.581803E+03  1.556894E+04
        85  26 -8.514610E+05 -1.643478E+05 -1.539774E+05 -3.125886E+04  7.337646E+03  2.265798E+04
        85  27 -1.017542E+06 -2.044494E+05 -1.901319E+05 -8.792650E+04  9.083539E+03  2.954338E+04
        86   1  8.457096E+05  2.551888E+05  2.545674E+05 -8.765457E+04 -2.098285E+03 -3.407089E+04
        86   2  1.008895E+06  2.949982E+05  2.992545E+05 -3.272312E+04 -1.111658E+04 -4.096689E+04
        86   3  1.177760E+06  3.472322E+05  3.531933E+05 -9.083028E+04 -2.012337E+04 -4.491985E+04
        86   4 -1.872885E+05 -5.025879E+02  8.671326E+03 -8.856349E+04 -6.717460E+03 -3.407143E+04
        86   5 -1.900177E+05 -1.632055E+03  1.440440E+04 -3.203958E+04 -1.409635E+04 -4.097219E+04
        86   6 -1.873711E+05  9.392501E+03  2.826429E+04 -8.856740E+04 -2.146132E+04 -4.492734E+04
        86   7 -1.219308E+06 -2.562709E+05 -2.372994E+05 -8.947065E+04 -1.132899E+04 -3.407195E+04
        86   8 -1.387612E+06 -2.983658E+05 -2.705460E+05 -3.135732E+04 -1.707038E+04 -4.097751E+04
        86   9 -1.550794E+06 -3.285816E+05 -2.967953E+05 -8.630966E+04 -2.279630E+04 -4.493485E+04
        86  10  8.457092E+05  2.551875E+05  2.545652E+05 -8.765463E+04 -4.731445E-11 -1.337217E-09
        86  11  1.008895E+06  2.949964E+05  2.992511E+05 -3.272349E+04  3.261553E-09 -2.386723E-10
        86  12  1.177759E+06  3.472299E+05  3.531888E+05 -9.083101E+04  2.349461E-09  1.089875E-09
        86  13 -1.872889E+05 -5.038465E+02  8.669060E+03 -8.856367E+04 -4.968291E-11 -1.301491E-09
        86  14 -1.900183E+05 -1.633911E+03  1.440087E+04 -3.204004E+04 -1.637373E-09 -1.039775E-10
        86  15 -1.873721E+05  9.390210E+03  2.825963E+04 -8.856818E+04 -4.764213E-10  1.284900E-09
        86  16 -1.219308E+06 -2.562722E+05 -2.373019E+05 -8.947096E+04 -4.496258E-10 -1.389237E-09
        86  17 -1.387613E+06 -2.983677E+05 -2.705497E+05 -3.135789E+04 -3.302781E-09  2.422174E-10
        86  18 -1.550795E+06 -3.285839E+05 -2.968000E+05 -8.631049E+04 -2.981895E-09  1.803597E-09
        86  19  8.457096E+05  2.551888E+05  2.545674E+05 -8.765457E+04  2.098285E+03  3.407089E+04
        86  20  1.008895E+06  2.949982E+05  2.992545E+05 -3.272312E+04  1.111658E+04  4.096689E+04
        86  21  1.177760E+06  3.472322E+05  3.531933E+05 -9.083028E+04  2.012337E+04  4.491985E+04
        86  22 -1.872885E+05 -5.025879E+02  8.671326E+03 -8.856349E+04  6.717460E+03  3.407143E+04
        86  23 -1.900177E+05 -1.632055E+03  1.440440E+04 -3.203958E+04  1.409635E+04  4.097219E+04
        86  24 -1.873711E+05  9.392501E+03  2.826429E+04 -8.856740E+04  2.146132E+04  4.492734E+04
        86  25 -1.219308E+06 -2.562709E+05 -2.372994E+05 -8.947065E+04  1.132899E+04  3.407195E+04
        86  26 -1.387612E+06 -2.983658E+05 -2.705460E+05 -3.135732E+04  1.707038E+04  4.097751E+04
        86  27 -1.550794E+06 -3.285816E+05 -2.967953E+05 -8.630966E+04  2.279630E+04  4.493485E+04
        87   1  1.387200E+06  3.817937E+05  4.066421E+05 -7.284471E+04 -1.230208E+04 -5.503340E+04
        87   2  1.531780E+06  4.143621E+05  4.667299E+05 -3.996705E+04 -6.664427E+04 -5.951005E+04
        87   3  1.718387E+06  5.731956E+05  5.944040E+05 -1.185257E+05 -1.211238E+05 -2.013407E+04
        87   4 -1.803091E+05 -5.879048E+03  3.482755E+04 -8.813055E+04 -2.681806E+04 -5.505814E+04
        87   5 -1.993045E+05 -1.374227E+04  5.567009E+04 -3.254673E+04 -5.682583E+04 -5.950177E+04
        87   6 -1.804162E+05  1.006249E+05  1.273230E+05 -8.841107E+04 -8.695490E+04 -2.004264E+04
        87   7 -1.745564E+06 -3.937274E+05 -3.371572E+05 -1.033781E+05 -4.129758E+04 -5.508221E+04
        87   8 -1.927641E+06 -4.420619E+05 -3.555984E+05 -2.514852E+04 -4.703441E+04 -5.949325E+04
        87   9 -2.075939E+06 -3.722093E+05 -3.400188E+05 -5.839070E+04 -5.288979E+04 -1.994777E+04
        87  10  1.387199E+06  3.817904E+05  4.066361E+05 -7.284525E+04 -3.497595E-09  1.511249E-09
        87  11  1.531775E+06  4.143571E+05  4.667149E+05 -3.997024E+04 -1.296479E-09  8.085518E-10
        87  12  1.718372E+06  5.731913E+05  5.943757E+05 -1.185277E+05  1.476701E-09 -2.542238E-10
        87  13 -1.803107E+05 -5.882497E+03  3.482050E+04 -8.813174E+04 -3.019036E-09  1.551639E-09
        87  14 -1.993089E+05 -1.374694E+04  5.565736E+04 -3.254946E+04 -2.441965E-09  8.974207E-11
        87  15 -1.804244E+05  1.006225E+05  1.273080E+05 -8.841248E+04 -5.015938E-10  7.556119E-11
        87  16 -1.745567E+06 -3.937312E+05 -3.371661E+05 -1.033800E+05  3.382017E-09  1.792015E-09
        87  17 -1.927645E+06 -4.420663E+05 -3.556092E+05 -2.515078E+04  2.796113E-09  9.449334E-10
        87  18 -2.075942E+06 -3.722105E+05 -3.400248E+05 -5.839155E+04 -2.166362E-09 -1.680029E-10
        87  19  1.387200E+06  3.817937E+05  4.066421E+05 -7.284471E+04  1.230208E+04  5.503340E+04
        87  20  1.531780E+06  4.143621E+05  4.667299E+05 -3.996705E+04  6.664427E+04  5.951005E+04
        87  21  1.718387E+06  5.731956E+05  5.944040E+05 -1.185257E+05  1.211238E+05  2.013407E+04
        87  22 -1.803091E+05 -5.879048E+03  3.482755E+04 -8.813055E+04  2.681806E+04  5.505814E+04
        87  23 -1.993045E+05 -1.374227E+04  5.567009E+04 -3.254673E+04  5.682583E+04  5.950177E+04
        87  24 -1.804162E+05  1.006249E+05  1.273230E+05 -8.841107E+04  8.695490E+04  2.004264E+04
        87  25 -1.745564E+06 -3.937274E+05 -3.371572E+05 -1.033781E+05  4.129758E+04  5.508221E+04
        87  26 -1.927641E+06 -4.420619E+05 -3.555984E+05 -2.514852E+04  4.703441E+04  5.949325E+04
        87  27 -2.075939E+06 -3.722093E+05 -3.400188E+05 -5.839070E+04  5.288979E+04  1.994777E+04
        88   1  3.070218E+05  5.613638E+05  3.279407E+05 -2.109632E+05  6.549165E+03  9.805953E+04
        88   2  1.103684E+05  2.144453E+05  1.709354E+05 -7.438139E+04  1.668043E+04  5.677636E+04
        88   3  3.695648E+04 -9.903068E+04  7.103884E+04 -1.619055E+05  4.438535E+03  1.538920E+04
        88   4  1.009364E+05 -2.633166E+05  1.242771E+05 -1.741685E+05  6.618925E+03  8.634880E+04
        88   5 -1.190551E+04 -2.789152E+05  5.367646E+04 -6.239979E+04  1.667838E+04  5.746003E+04
        88   6 -3.589150E+03 -2.632668E+05  3.163924E+04 -1.747349E+05  4.359966E+03  2.844515E+04
        88   7 -1.051950E+05 -1.087376E+06 -7.943584E+04 -1.374217E+05  6.687348E+03  7.465353E+04
        88   8 -1.341965E+05 -7.720520E+05 -6.359942E+04 -5.042743E+04  1.667636E+04  5.814315E+04
        88   9 -4.413600E+04 -4.274775E+05 -7.761536E+03 -1.875608E+05  4.280846E+03  4.149765E+04
        88  10  3.070192E+05  5.613535E+05  3.279226E+05 -2.109637E+05 -6.418294E-10  9.423136E-10
        88  11  1.103673E+05  2.144417E+05  1.709288E+05 -7.438215E+04  1.519166E-09 -8.107233E-10
        88  12  3.695640E+04 -9.903094E+04  7.103835E+04 -1.619055E+05  1.281987E-10 -1.988531E-09
        88  13  1.009344E+05 -2.633246E+05  1.242630E+05 -1.741689E+05 -2.167932E-09 -3.615928E-11
        88  14 -1.190670E+04 -2.789188E+05  5.366973E+04 -6.240056E+04  2.339060E-09 -4.360266E-11
        88  15 -3.589388E+03 -2.632677E+05  3.163768E+04 -1.747350E+05  1.939646E-09 -5.553553E-11
        88  16 -1.051965E+05 -1.087382E+06 -7.944641E+04 -1.374221E+05  9.209042E-10 -1.010233E-09
        88  17 -1.341978E+05 -7.720557E+05 -6.360630E+04 -5.042821E+04  2.796662E-10  7.805769E-10
        88  18 -4.413648E+04 -4.274793E+05 -7.764809E+03 -1.875610E+05  1.397556E-10  2.045203E-09
        88  19  3.070218E+05  5.613638E+05  3.279407E+05 -2.109632E+05 -6.549165E+03 -9.805953E+04
        88  20  1.103684E+05  2.144453E+05  1.709354E+05 -7.438139E+04 -1.668043E+04 -5.677636E+04
        88  21  3.695648E+04 -9.903068E+04  7.103884E+04 -1.619055E+05 -4.438535E+03 -1.538920E+04
        88  22  1.009364E+05 -2.633166E+05  1.242771E+05 -1.741685E+05 -6.618925E+03 -8.634880E+04
        88  23 -1.190551E+04 -2.789152E+05  5.367646E+04 -6.239979E+04 -1.667838E+04 -5.746003E+04
        88  24 -3.589150E+03 -2.632668E+05  3.163924E+04 -1.747349E+05 -4.359966E+03 -2.844515E+04
        88  25 -1.051950E+05 -1.087376E+06 -7.943584E+04 -1.374217E+05 -6.687348E+03 -7.465353E+04
        88  26 -1.341965E+05 -7.720520E+05 -6.359942E+04 -5.042743E+04 -1.667636E+04 -5.814315E+04
        88  27 -4.413600E+04 -4.274775E+05 -7.761536E+03 -1.875608E+05 -4.280846E+03 -4.149765E+04
        89   1 -4.731688E+04 -5.093340E+05 -3.268890E+04 -1.759453E+05 -7.289389E+03  1.638500E+04
        89   2 -1.411124E+05 -8.394041E+05 -1.266746E+05 -6.092169E+04 -1.954050E+04  1.279507E+04
        89   3 -2.254784E+05 -1.169282E+06 -2.165779E+05 -1.709271E+05 -3.011847E+04  9.229992E+03
        89   4  1.196044E+04 -2.701577E+05  2.454224E+04 -1.747161E+05 -7.332489E+03  2.362564E+04
        89   5 -1.491004E+02 -2.703281E+05  8.689634E+03 -6.224961E+04 -1.957455E+04  1.911230E+04
        89   6 -2.662248E+03 -2.702416E+05 -2.428481E+03 -1.747982E+05 -3.014447E+04  1.462198E+04
        89   7  7.123366E+04 -3.092877E+04  8.176954E+04 -1.734862E+05 -7.375551E+03  3.086906E+04
        89   8  1.407909E+05  2.990456E+05  1.440314E+05 -6.357834E+04 -1.960862E+04  2.543529E+04
        89   9  2.200956E+05  6.295413E+05  2.116644E+05 -1.786739E+05 -3.017052E+04  2.002174E+04
        89  10 -4.731701E+04 -5.093343E+05 -3.268951E+04 -1.759452E+05 -3.445313E-10  1.257302E-09
        89  11 -1.411129E+05 -8.394044E+05 -1.266757E+05 -6.092149E+04  4.263652E-10  6.170733E-10
        89  12 -2.254794E+05 -1.169282E+06 -2.165798E+05 -1.709268E+05  2.850884E-10 -3.464367E-10
        89  13  1.196024E+04 -2.701583E+05  2.454109E+04 -1.747159E+05  1.129164E-09  1.652267E-10
        89  14 -1.496098E+02 -2.703286E+05  8.688227E+03 -6.224931E+04  5.913494E-10  1.371257E-10
        89  15 -2.663281E+03 -2.702421E+05 -2.430590E+03 -1.747979E+05  3.088392E-10  8.278795E-11
        89  16  7.123335E+04 -3.092980E+04  8.176764E+04 -1.734860E+05 -7.018260E-10 -1.230649E-09
        89  17  1.407903E+05  2.990448E+05  1.440295E+05 -6.357794E+04 -8.255212E-12 -5.724526E-10
        89  18  2.200945E+05  6.295407E+05  2.116619E+05 -1.786734E+05 -5.817977E-10  4.044773E-10
        89  19 -4.731688E+04 -5.093340E+05 -3.268890E+04 -1.759453E+05  7.289389E+03 -1.638500E+04
        89  20 -1.411124E+05 -8.394041E+05 -1.266746E+05 -6.092169E+04  1.954050E+04 -1.279507E+04
        89  21 -2.254784E+05 -1.169282E+06 -2.165779E+05 -1.709271E+05  3.011847E+04 -9.229992E+03
        89  22  1.196044E+04 -2.701577E+05  2.454224E+04 -1.747161E+05  7.332489E+03 -2.362564E+04
        89  23 -1.491004E+02 -2.703281E+05  8.689634E+03 -6.224961E+04  1.957455E+04 -1.911230E+04
        89  24 -2.662248E+03 -2.702416E+05 -2.428481E+03 -1.747982E+05  3.014447E+04 -1.462198E+04
        89  25  7.123366E+04 -3.092877E+04  8.176954E+04 -1.734862E+05  7.375551E+03 -3.086906E+04
        89  26  1.407909E+05  2.990456E+05  1.440314E+05 -6.357834E+04  1.960862E+04 -2.543529E+04
        89  27  2.200956E+05  6.295413E+05  2.116644E+05 -1.786739E+05  3.017052E+04 -2.002174E+04
        90   1 -3.180445E+05 -1.574437E+06 -3.162293E+05 -1.644281E+05 -4.495431E+04 -3.948562E+03
        90   2 -3.990139E+05 -1.895737E+06 -4.057472E+05 -6.170939E+04 -5.613932E+04  3.208792E+04
        90   3 -5.259909E+05 -2.232812E+06 -5.302431E+05 -1.821780E+05 -1.975781E+04  6.827691E+04
        90   4  4.517870E+03 -2.730431E+05 -6.669369E+03 -1.743052E+05 -4.504408E+04  1.524125E+04
        90   5  4.522499E+03 -2.675205E+05 -1.829917E+04 -6.279959E+04 -5.610122E+04  2.511275E+04
        90   6 -3.685445E+04 -2.732767E+05 -4.666201E+04 -1.744505E+05 -1.964590E+04  3.515681E+04
        90   7  3.269585E+05  1.029909E+06  3.027734E+05 -1.842010E+05 -4.513435E+04  3.447114E+04
        90   8  4.078676E+05  1.363135E+06  3.689635E+05 -6.389012E+04 -5.606314E+04  1.811926E+04
        90   9  4.519962E+05  1.689761E+06  4.366389E+05 -1.666952E+05 -1.953500E+04  1.931883E+03
        90  10 -3.180467E+05 -1.574438E+06 -3.162331E+05 -1.644282E+05  1.735807E-10  1.498543E-10
        90  11 -3.990175E+05 -1.895739E+06 -4.057551E+05 -6.170794E+04 -1.739147E-09  2.193075E-11
        90  12 -5.259925E+05 -2.232817E+06 -5.302527E+05 -1.821769E+05  4.061978E-10  2.478815E-10
        90  13  4.515630E+03 -2.730439E+05 -6.673617E+03 -1.743046E+05 -1.971024E-09 -2.743074E-11
        90  14  4.518951E+03 -2.675220E+05 -1.830627E+04 -6.279846E+04 -1.461397E-09 -2.324840E-11
        90  15 -3.685520E+04 -2.732781E+05 -4.666506E+04 -1.744499E+05 -3.235707E-10 -3.244010E-11
        90  16  3.269560E+05  1.029907E+06  3.027674E+05 -1.841998E+05 -2.267058E-09 -2.767029E-10
        90  17  4.078641E+05  1.363133E+06  3.689569E+05 -6.388931E+04 -2.615844E-10 -1.286896E-12
        90  18  4.519958E+05  1.689761E+06  4.366381E+05 -1.666952E+05  4.365935E-10 -3.163377E-10
        90  19 -3.180445E+05 -1.574437E+06 -3.162293E+05 -1.644281E+05  4.495431E+04  3.948562E+03
        90  20 -3.990139E+05 -1.895737E+06 -4.057472E+05 -6.170939E+04  5.613932E+04 -3.208792E+04
        90  21 -5.259909E+05 -2.232812E+06 -5.302431E+05 -1.821780E+05  1.975781E+04 -6.827691E+04
        90  22  4.517870E+03 -2.730431E+05 -6.669369E+03 -1.743052E+05  4.504408E+04 -1.524125E+04
        90  23  4.522499E+03 -2.675205E+05 -1.829917E+04 -6.279959E+04  5.610122E+04 -2.511275E+04
        90  24 -3.685445E+04 -2.732767E+05 -4.666201E+04 -1.744505E+05  1.964590E+04 -3.515681E+04
        90  25  3.269585E+05  1.029909E+06  3.027734E+05 -1.842010E+05  4.513435E+04 -3.447114E+04
        90  26  4.078676E+05  1.363135E+06  3.689635E+05 -6.389012E+04  5.606314E+04 -1.811926E+04
        90  27  4.519962E+05  1.689761E+06  4.366389E+05 -1.666952E+05  1.953500E+04 -1.931883E+03
        91   1 -4.691082E+06 -1.586289E+06 -9.992142E+05 -1.639281E+06 -3.975788E+05 -1.310671E+05
        91   2 -4.558490E+06 -9.910293E+05 -6.269991E+05 -1.658878E+06 -2.608303E+05 -3.818727E+04
        91   3 -4.593010E+06 -9.568956E+05 -5.083400E+05 -1.595556E+06 -1.094517E+05  1.629165E+04
        91   4 -3.231750E+06 -8.959033E+05 -5.739092E+05 -1.102236E+06 -3.699746E+05 -1.206780E+05
        91   5 -3.119551E+06 -4.068511E+05 -2.402990E+05 -1.223530E+06 -2.526619E+05 -3.511904E+04
        91   6 -3.170122E+06 -4.743459E+05 -1.443034E+05 -1.262043E+06 -1.207464E+05  1.202141E+04
        91   7 -1.770307E+06 -2.050252E+05 -1.488122E+05 -5.639255E+05 -3.422977E+05 -1.102460E+05
        91   8 -1.678584E+06  1.775455E+05  1.462164E+05 -7.872320E+05 -2.444721E+05 -3.204131E+04
        91   9 -1.745259E+06  8.239108E+03  2.195724E+05 -9.278758E+05 -1.320695E+05  7.742971E+03
        91  10 -4.691257E+06 -1.586351E+06 -9.995464E+05 -1.639323E+06 -1.492494E-10  1.160836E-10
        91  11 -4.558564E+06 -9.910493E+05 -6.271307E+05 -1.658886E+06  6.276802E-12  9.198716E-11
        91  12 -4.593023E+06 -9.568991E+05 -5.083631E+05 -1.595555E+06  1.193871E-09 -6.914576E-10
        91  13 -3.231902E+06 -8.959560E+05 -5.741955E+05 -1.102272E+06 -3.974765E-09 -8.289436E-12
        91  14 -3.119620E+06 -4.068697E+05 -2.404220E+05 -1.223537E+06 -1.891875E-09 -2.561751E-10
        91  15 -3.170138E+06 -4.743500E+05 -1.443312E+05 -1.262042E+06 -4.937915E-09 -8.374963E-10
        91  16 -1.770437E+06 -2.050699E+05 -1.490560E+05 -5.639560E+05  9.335117E-10 -6.145462E-11
        91  17 -1.678649E+06  1.775283E+05  1.461018E+05 -7.872384E+05  2.277162E-09 -3.041723E-11
        91  18 -1.745278E+06  8.234348E+03  2.195395E+05 -9.278750E+05 -1.953706E-09 -6.915148E-10
        91  19 -4.691082E+06 -1.586289E+06 -9.992142E+05 -1.639281E+06  3.975788E+05  1.310671E+05
        91  20 -4.558490E+06 -9.910293E+05 -6.269991E+05 -1.658878E+06  2.608303E+05  3.818727E+04
        91  21 -4.593010E+06 -9.568956E+05 -5.083400E+05 -1.595556E+06  1.094517E+05 -1.629165E+04
        91  22 -3.231750E+06 -8.959033E+05 -5.739092E+05 -1.102236E+06  3.699746E+05  1.206780E+05
        91  23 -3.119551E+06 -4.068511E+05 -2.402990E+05 -1.223530E+06  2.526619E+05  3.511904E+04
        91  24 -3.170122E+06 -4.743459E+05 -1.443034E+05 -1.262043E+06  1.207464E+05 -1.202141E+04
        91  25 -1.770307E+06 -2.050252E+05 -1.488122E+05 -5.639255E+05  3.422977E+05  1.102460E+05
        91  26 -1.678584E+06  1.775455E+05  1.462164E+05 -7.872320E+05  2.444721E+05  3.204131E+04
        91  27 -1.745259E+06  8.239108E+03  2.195724E+05 -9.278758E+05  1.320695E+05 -7.742971E+03
        92   1 -4.394316E+06 -1.018276E+06 -4.484572E+05 -1.584886E+06 -9.734952E+04  1.189338E+04
        92   2 -4.308508E+06 -8.935261E+05 -3.589984E+05 -1.530202E+06 -6.577407E+04  2.176052E+04
        92   3 -4.188605E+06 -8.791631E+05 -3.069471E+05 -1.526600E+06 -3.303259E+04  2.852133E+04
        92   4 -3.149382E+06 -5.351729E+05 -1.171751E+05 -1.231132E+06 -9.759336E+04  1.179194E+04
        92   5 -3.163399E+06 -4.581976E+05 -5.670491E+04 -1.213842E+06 -6.755480E+04  2.108292E+04
        92   6 -3.142983E+06 -4.912314E+05 -3.235781E+04 -1.247641E+06 -3.635665E+04  2.726716E+04
        92   7 -1.902939E+06 -5.195150E+04  2.139704E+05 -8.767237E+05 -9.783760E+04  1.169035E+04
        92   8 -2.017013E+06 -2.278221E+04  2.454755E+05 -8.969493E+05 -6.933907E+04  2.040397E+04
        92   9 -2.096293E+06 -1.032400E+05  2.421391E+05 -9.682580E+05 -3.968688E+04  2.601076E+04
        92  10 -4.394326E+06 -1.018279E+06 -4.484754E+05 -1.584885E+06  6.619219E-10 -7.149960E-10
        92  11 -4.308513E+06 -8.935278E+05 -3.590075E+05 -1.530201E+06 -9.750059E-10  1.702093E-10
        92  12 -4.188606E+06 -8.791643E+05 -3.069507E+05 -1.526599E+06  1.015234E-09 -4.569875E-10
        92  13 -3.149392E+06 -5.351756E+05 -1.171933E+05 -1.231131E+06  1.963136E-10 -5.576806E-10
        92  14 -3.163404E+06 -4.581993E+05 -5.671435E+04 -1.213841E+06 -2.817575E-09  5.601614E-10
        92  15 -3.142984E+06 -4.912326E+05 -3.236169E+04 -1.247640E+06 -3.673404E-10 -9.485109E-10
        92  16 -1.902949E+06 -5.195422E+04  2.139521E+05 -8.767228E+05  8.219481E-10 -1.185504E-10
        92  17 -2.017018E+06 -2.278394E+04  2.454657E+05 -8.969482E+05 -1.976131E-09  3.091235E-10
        92  18 -2.096295E+06 -1.032411E+05  2.421349E+05 -9.682572E+05 -2.877347E-09 -1.189560E-09
        92  19 -4.394316E+06 -1.018276E+06 -4.484572E+05 -1.584886E+06  9.734952E+04 -1.189338E+04
        92  20 -4.308508E+06 -8.935261E+05 -3.589984E+05 -1.530202E+06  6.577407E+04 -2.176052E+04
        92  21 -4.188605E+06 -8.791631E+05 -3.069471E+05 -1.526600E+06  3.303259E+04 -2.852133E+04
        92  22 -3.149382E+06 -5.351729E+05 -1.171751E+05 -1.231132E+06  9.759336E+04 -1.179194E+04
        92  23 -3.163399E+06 -4.581976E+05 -5.670491E+04 -1.213842E+06  6.755480E+04 -2.108292E+04
        92  24 -3.142983E+06 -4.912314E+05 -3.235781E+04 -1.247641E+06  3.635665E+04 -2.726716E+04
        92  25 -1.902939E+06 -5.195150E+04  2.139704E+05 -8.767237E+05  9.783760E+04 -1.169035E+04
        92  26 -2.017013E+06 -2.278221E+04  2.454755E+05 -8.969493E+05  6.933907E+04 -2.040397E+04
        92  27 -2.096293E+06 -1.032400E+05  2.421391E+05 -9.682580E+05  3.968688E+04 -2.601076E+04
        93   1 -4.028636E+06 -8.347320E+05 -2.592628E+05 -1.489513E+06 -2.787729E+04  2.654682E+04
        93   2 -3.938748E+06 -7.510264E+05 -2.156271E+05 -1.420260E+06 -1.902989E+04  2.395098E+04
        93   3 -3.786844E+06 -7.371401E+05 -1.784926E+05 -1.423252E+06 -1.003443E+04  2.093518E+04
        93   4 -3.139142E+06 -4.989234E+05 -2.523906E+04 -1.246048E+06 -3.045331E+04  2.557575E+04
        93   5 -3.169803E+06 -4.616651E+05 -1.323012E+04 -1.210804E+06 -2.181161E+04  2.290528E+04
        93   6 -3.138420E+06 -4.941742E+05 -7.549947E+03 -1.247805E+06 -1.302343E+04  1.981458E+04
        93   7 -2.248877E+06 -1.630650E+05  2.087169E+05 -1.002265E+06 -3.303339E+04  2.460315E+04
        93   8 -2.400283E+06 -1.722680E+05  1.891158E+05 -1.001113E+06 -2.459712E+04  2.185816E+04
        93   9 -2.489590E+06 -2.511843E+05  1.633560E+05 -1.072193E+06 -1.601587E+04  1.869272E+04
        93  10 -4.028637E+06 -8.347329E+05 -2.592656E+05 -1.489512E+06 -1.395321E-09 -1.176900E-09
        93  11 -3.938749E+06 -7.510271E+05 -2.156288E+05 -1.420260E+06 -4.051899E-10  1.123149E-10
        93  12 -3.786844E+06 -7.371406E+05 -1.784936E+05 -1.423252E+06  1.910487E-09  8.960966E-10
        93  13 -3.139143E+06 -4.989244E+05 -2.524203E+04 -1.246047E+06  1.018775E-09 -1.424776E-09
        93  14 -3.169804E+06 -4.616658E+05 -1.323200E+04 -1.210804E+06 -3.179509E-10 -1.930698E-10
        93  15 -3.138420E+06 -4.941747E+05 -7.551002E+03 -1.247805E+06  9.143065E-10  3.558612E-10
        93  16 -2.248879E+06 -1.630660E+05  2.087137E+05 -1.002264E+06  4.707250E-10 -8.345901E-10
        93  17 -2.400284E+06 -1.722687E+05  1.891138E+05 -1.001113E+06 -2.565975E-10  2.141338E-10
        93  18 -2.489590E+06 -2.511848E+05  1.633549E+05 -1.072193E+06  8.033275E-10  5.864229E-10
        93  19 -4.028636E+06 -8.347320E+05 -2.592628E+05 -1.489513E+06  2.787729E+04 -2.654682E+04
        93  20 -3.938748E+06 -7.510264E+05 -2.156271E+05 -1.420260E+06  1.902989E+04 -2.395098E+04
        93  21 -3.786844E+06 -7.371401E+05 -1.784926E+05 -1.423252E+06  1.003443E+04 -2.093518E+04
        93  22 -3.139142E+06 -4.989234E+05 -2.523906E+04 -1.246048E+06  3.045331E+04 -2.557575E+04
        93  23 -3.169803E+06 -4.616651E+05 -1.323012E+04 -1.210804E+06  2.181161E+04 -2.290528E+04
        93  24 -3.138420E+06 -4.941742E+05 -7.549947E+03 -1.247805E+06  1.302343E+04 -1.981458E+04
        93  25 -2.248877E+06 -1.630650E+05  2.087169E+05 -1.002265E+06  3.303339E+04 -2.460315E+04
        93  26 -2.400283E+06 -1.722680E+05  1.891158E+05 -1.001113E+06  2.459712E+04 -2.185816E+04
        93  27 -2.489590E+06 -2.511843E+05  1.633560E+05 -1.072193E+06  1.601587E+04 -1.869272E+04
        94   1 -3.618655E+06 -6.765443E+05 -1.321315E+05 -1.379444E+06 -7.689540E+03  1.795746E+04
        94   2 -3.522924E+06 -5.928340E+05 -9.618841E+04 -1.304747E+06 -3.586520E+03  1.285275E+04
        94   3 -3.358918E+06 -5.784276E+05 -6.183363E+04 -1.308827E+06  5.537560E+02  7.635221E+03
        94   4 -3.137226E+06 -4.957920E+05 -5.961600E+03 -1.248588E+06 -1.065793E+04  1.684602E+04
        94   5 -3.171303E+06 -4.608654E+05 -3.724168E+03 -1.209296E+06 -6.611449E+03  1.172141E+04
        94   6 -3.137117E+06 -4.952300E+05 -3.029030E+03 -1.248784E+06 -2.528207E+03  6.483934E+03
        94   7 -2.655569E+06 -3.150246E+05  1.201892E+05 -1.117639E+06 -1.362888E+04  1.573362E+04
        94   8 -2.819563E+06 -3.288896E+05  8.872935E+04 -1.113796E+06 -9.638262E+03  1.058936E+04
        94   9 -2.915269E+06 -4.120302E+05  5.577082E+04 -1.188723E+06 -5.611358E+03  5.332204E+03
        94  10 -3.618655E+06 -6.765447E+05 -1.321322E+05 -1.379444E+06  9.334632E-10 -9.100841E-11
        94  11 -3.522924E+06 -5.928342E+05 -9.618875E+04 -1.304747E+06  2.209560E-09  2.070556E-11
        94  12 -3.358918E+06 -5.784277E+05 -6.183374E+04 -1.308827E+06  1.949867E-10  1.432342E-10
        94  13 -3.137226E+06 -4.957923E+05 -5.962346E+03 -1.248588E+06 -7.949276E-11  7.122079E-11
        94  14 -3.171303E+06 -4.608655E+05 -3.724508E+03 -1.209296E+06 -1.530647E-09 -1.130192E-09
        94  15 -3.137117E+06 -4.952300E+05 -3.029121E+03 -1.248784E+06 -2.840130E-09  7.638929E-11
        94  16 -2.655569E+06 -3.150249E+05  1.201884E+05 -1.117639E+06  9.452780E-10  5.754566E-10
        94  17 -2.819563E+06 -3.288897E+05  8.872897E+04 -1.113796E+06 -3.248183E-10 -9.543512E-11
        94  18 -2.915269E+06 -4.120302E+05  5.577071E+04 -1.188723E+06 -2.316996E-10 -3.408711E-10
        94  19 -3.618655E+06 -6.765443E+05 -1.321315E+05 -1.379444E+06  7.689540E+03 -1.795746E+04
        94  20 -3.522924E+06 -5.928340E+05 -9.618841E+04 -1.304747E+06  3.586520E+03 -1.285275E+04
        94  21 -3.358918E+06 -5.784276E+05 -6.183363E+04 -1.308827E+06 -5.537560E+02 -7.635221E+03
        94  22 -3.137226E+06 -4.957920E+05 -5.961600E+03 -1.248588E+06  1.065793E+04 -1.684602E+04
        94  23 -3.171303E+06 -4.608654E+05 -3.724168E+03 -1.209296E+06  6.611449E+03 -1.172141E+04
        94  24 -3.137117E+06 -4.952300E+05 -3.029030E+03 -1.248784E+06  2.528207E+03 -6.483934E+03
        94  25 -2.655569E+06 -3.150246E+05  1.201892E+05 -1.117639E+06  1.362888E+04 -1.573362E+04
        94  26 -2.819563E+06 -3.288896E+05  8.872935E+04 -1.113796E+06  9.638262E+03 -1.058936E+04
        94  27 -2.915269E+06 -4.120302E+05  5.577082E+04 -1.188723E+06  5.611358E+03 -5.332204E+03
        95   1 -3.184996E+06 -5.135190E+05 -1.525518E+04 -1.262249E+06  2.373586E+03  4.328721E+03
        95   2 -3.087640E+06 -4.290630E+05  1.800142E+04 -1.186204E+06  6.621363E+03 -9.100445E+02
        95   3 -2.921162E+06 -4.150400E+05  4.954961E+04 -1.190227E+06  1.085710E+04 -6.111458E+03
        95   4 -3.136914E+06 -4.954728E+05 -3.098358E+03 -1.249070E+06 -7.182285E+02  3.174118E+03
        95   5 -3.171503E+06 -4.605024E+05 -4.039601E+03 -1.208941E+06  3.548034E+03 -2.058118E+03
        95   6 -3.136990E+06 -4.959706E+05 -6.702717E+03 -1.248887E+06  7.801765E+03 -7.253109E+03
        95   7 -3.088828E+06 -4.774264E+05  9.058372E+03 -1.235890E+06 -3.810318E+03  2.019412E+03
        95   8 -3.255360E+06 -4.919415E+05 -2.608134E+04 -1.231675E+06  4.751405E+02 -3.206028E+03
        95   9 -3.352774E+06 -5.768990E+05 -6.295951E+04 -1.307529E+06  4.747574E+03 -8.394333E+03
        95  10 -3.184996E+06 -5.135190E+05 -1.525523E+04 -1.262249E+06  6.540476E-11 -2.721503E-10
        95  11 -3.087640E+06 -4.290630E+05  1.800134E+04 -1.186204E+06  7.558632E-10  1.958700E-10
        95  12 -2.921162E+06 -4.150401E+05  4.954932E+04 -1.190227E+06  1.109826E-09  6.618619E-10
        95  13 -3.136914E+06 -4.954728E+05 -3.098377E+03 -1.249070E+06  9.571229E-11  1.222982E-10
        95  14 -3.171503E+06 -4.605024E+05 -4.039633E+03 -1.208941E+06 -9.557187E-10 -7.272537E-11
        95  15 -3.136990E+06 -4.959706E+05 -6.702930E+03 -1.248887E+06 -1.808975E-10 -5.329954E-11
        95  16 -3.088828E+06 -4.774264E+05  9.058337E+03 -1.235890E+06  2.632317E-10 -7.443409E-10
        95  17 -3.255360E+06 -4.919415E+05 -2.608136E+04 -1.231675E+06  5.879259E-10 -2.549316E-10
        95  18 -3.352774E+06 -5.768991E+05 -6.295969E+04 -1.307529E+06  6.492981E-10 -7.999561E-11
        95  19 -3.184996E+06 -5.135190E+05 -1.525518E+04 -1.262249E+06 -2.373586E+03 -4.328721E+03
        95  20 -3.087640E+06 -4.290630E+05  1.800142E+04 -1.186204E+06 -6.621363E+03  9.100445E+02
        95  21 -2.921162E+06 -4.150400E+05  4.954961E+04 -1.190227E+06 -1.085710E+04  6.111458E+03
        95  22 -3.136914E+06 -4.954728E+05 -3.098358E+03 -1.249070E+06  7.182285E+02 -3.174118E+03
        95  23 -3.171503E+06 -4.605024E+05 -4.039601E+03 -1.208941E+06 -3.548034E+03  2.058118E+03
        95  24 -3.136990E+06 -4.959706E+05 -6.702717E+03 -1.248887E+06 -7.801765E+03  7.253109E+03
        95  25 -3.088828E+06 -4.774264E+05  9.058372E+03 -1.235890E+06  3.810318E+03 -2.019412E+03
        95  26 -3.255360E+06 -4.919415E+05 -2.608134E+04 -1.231675E+06 -4.751405E+02  3.206028E+03
        95  27 -3.352774E+06 -5.768990E+05 -6.295951E+04 -1.307529E+06 -4.747574E+03  8.394333E+03
        96   1 -2.749563E+06 -3.498212E+05  9.381775E+04 -1.144173E+06  1.344031E+04 -9.114953E+03
        96   2 -2.655389E+06 -2.670437E+05  1.203447E+05 -1.069640E+06  2.308599E+04 -1.215506E+04
        96   3 -2.496928E+06 -2.579762E+05  1.396445E+05 -1.071018E+06  3.261937E+04 -1.487015E+04
        96   4 -3.137831E+06 -4.947632E+05 -8.580259E+03 -1.248705E+06  1.035192E+04 -1.026973E+04
        96   5 -3.170350E+06 -4.605414E+05 -1.505137E+04 -1.209764E+06  2.015747E+04 -1.325198E+04
        96   6 -3.138631E+06 -5.000694E+05 -2.888045E+04 -1.246744E+06  2.984901E+04 -1.590968E+04
        96   7 -3.525949E+06 -6.396954E+05 -1.109903E+05 -1.353178E+06  7.265688E+03 -1.142372E+04
        96   8 -3.685052E+06 -6.540220E+05 -1.504694E+05 -1.349782E+06  1.723163E+04 -1.434790E+04
        96   9 -3.779932E+06 -7.421363E+05 -1.974404E+05 -1.422305E+06  2.708180E+04 -1.694802E+04
        96  10 -2.749564E+06 -3.498214E+05  9.381726E+04 -1.144173E+06  1.211406E-09  6.984469E-10
        96  11 -2.655390E+06 -2.670440E+05  1.203434E+05 -1.069639E+06  7.879826E-10 -7.496733E-10
        96  12 -2.496929E+06 -2.579767E+05  1.396421E+05 -1.071017E+06  1.299912E-09 -1.725070E-10
        96  13 -3.137831E+06 -4.947633E+05 -8.580658E+03 -1.248705E+06 -1.199805E-10 -2.386290E-10
        96  14 -3.170351E+06 -4.605417E+05 -1.505246E+04 -1.209764E+06  6.968338E-10 -2.275333E-10
        96  15 -3.138632E+06 -5.000699E+05 -2.888260E+04 -1.246744E+06 -1.458477E-09 -6.054852E-10
        96  16 -3.525949E+06 -6.396955E+05 -1.109906E+05 -1.353178E+06  1.741237E-10 -4.760974E-10
        96  17 -3.685052E+06 -6.540223E+05 -1.504704E+05 -1.349782E+06 -1.175529E-09 -1.273621E-09
        96  18 -3.779933E+06 -7.421368E+05 -1.974423E+05 -1.422304E+06 -1.856388E-09 -1.386345E-09
        96  19 -2.749563E+06 -3.498212E+05  9.381775E+04 -1.144173E+06 -1.344031E+04  9.114953E+03
        96  20 -2.655389E+06 -2.670437E+05  1.203447E+05 -1.069640E+06 -2.308599E+04  1.215506E+04
        96  21 -2.496928E+06 -2.579762E+05  1.396445E+05 -1.071018E+06 -3.261937E+04  1.487015E+04
        96  22 -3.137831E+06 -4.947632E+05 -8.580259E+03 -1.248705E+06 -1.035192E+04  1.026973E+04
        96  23 -3.170350E+06 -4.605414E+05 -1.505137E+04 -1.209764E+06 -2.015747E+04  1.325198E+04
        96  24 -3.138631E+06 -5.000694E+05 -2.888045E+04 -1.246744E+06 -2.984901E+04  1.590968E+04
        96  25 -3.525949E+06 -6.396954E+05 -1.109903E+05 -1.353178E+06 -7.265688E+03  1.142372E+04
        96  26 -3.685052E+06 -6.540220E+05 -1.504694E+05 -1.349782E+06 -1.723163E+04  1.434790E+04
        96  27 -3.779932E+06 -7.421363E+05 -1.974404E+05 -1.422305E+06 -2.708180E+04  1.694802E+04
        97   1 -2.333146E+06 -1.947154E+05  1.747937E+05 -1.036229E+06  3.994057E+04 -1.622521E+04
        97   2 -2.245881E+06 -1.066560E+05  1.771951E+05 -9.581794E+05  7.415967E+04 -9.412373E+03
        97   3 -2.122974E+06 -1.411568E+05  1.391768E+05 -9.354667E+05  1.073629E+05  1.532395E+02
        97   4 -3.142426E+06 -4.919695E+05 -3.706460E+04 -1.249337E+06  3.648881E+04 -1.752143E+04
        97   5 -3.163721E+06 -4.556486E+05 -6.484276E+04 -1.212254E+06  7.207461E+04 -1.019990E+04
        97   6 -3.149698E+06 -5.422316E+05 -1.341774E+05 -1.230518E+06  1.066375E+05 -1.273115E+02
        97   7 -3.951073E+06 -7.891923E+05 -2.489791E+05 -1.462197E+06  3.304198E+04 -1.881589E+04
        97   8 -4.080743E+06 -8.045855E+05 -3.069536E+05 -1.465987E+06  6.999289E+04 -1.098615E+04
        97   9 -4.175396E+06 -9.432201E+05 -4.076240E+05 -1.525118E+06  1.059134E+05 -4.073789E+02
        97  10 -2.333147E+06 -1.947161E+05  1.747902E+05 -1.036228E+06  1.745011E-09  3.725567E-10
        97  11 -2.245887E+06 -1.066576E+05  1.771846E+05 -9.581788E+05  1.483588E-09  3.073729E-10
        97  12 -2.122987E+06 -1.411599E+05  1.391550E+05 -9.354668E+05  1.083361E-09 -6.451851E-10
        97  13 -3.142428E+06 -4.919702E+05 -3.706768E+04 -1.249336E+06  6.692963E-11 -3.072106E-10
        97  14 -3.163727E+06 -4.556502E+05 -6.485276E+04 -1.212254E+06 -9.275040E-10 -9.777981E-11
        97  15 -3.149710E+06 -5.422347E+05 -1.341989E+05 -1.230518E+06 -4.531354E-10 -6.307299E-10
        97  16 -3.951075E+06 -7.891930E+05 -2.489818E+05 -1.462196E+06 -8.077612E-10 -1.416026E-09
        97  17 -4.080748E+06 -8.045869E+05 -3.069630E+05 -1.465987E+06  3.151840E-10 -3.736929E-10
        97  18 -4.175408E+06 -9.432232E+05 -4.076452E+05 -1.525118E+06 -1.114116E-09 -4.914669E-10
        97  19 -2.333146E+06 -1.947154E+05  1.747937E+05 -1.036229E+06 -3.994057E+04  1.622521E+04
        97  20 -2.245881E+06 -1.066560E+05  1.771951E+05 -9.581794E+05 -7.415967E+04  9.412373E+03
        97  21 -2.122974E+06 -1.411568E+05  1.391768E+05 -9.354667E+05 -1.073629E+05 -1.532395E+02
        97  22 -3.142426E+06 -4.919695E+05 -3.706460E+04 -1.249337E+06 -3.648881E+04  1.752143E+04
        97  23 -3.163721E+06 -4.556486E+05 -6.484276E+04 -1.212254E+06 -7.207461E+04  1.019990E+04
        97  24 -3.149698E+06 -5.422316E+05 -1.341774E+05 -1.230518E+06 -1.066375E+05  1.273115E+02
        97  25 -3.951073E+06 -7.891923E+05 -2.489791E+05 -1.462197E+06 -3.304198E+04  1.881589E+04
        97  26 -4.080743E+06 -8.045855E+05 -3.069536E+05 -1.465987E+06 -6.999289E+04  1.098615E+04
        97  27 -4.175396E+06 -9.432201E+05 -4.076240E+05 -1.525118E+06 -1.059134E+05  4.073789E+02
        98   1 -1.945770E+06 -7.439989E+04  1.450109E+05 -9.963439E+05  1.432861E+05  4.982075E+03
        98   2 -1.867750E+06  1.191811E+05  6.120375E+04 -8.350638E+05  2.770420E+05  5.183970E+04
        98   3 -1.972690E+06 -3.211912E+05 -2.806481E+05 -5.803688E+05  3.978098E+05  1.331330E+05
        98   4 -3.172828E+06 -4.732548E+05 -1.652507E+05 -1.266671E+06  1.326311E+05  9.785154E+02
        98   5 -3.114356E+06 -3.957847E+05 -2.749968E+05 -1.222239E+06  2.838311E+05  5.437194E+04
        98   6 -3.242821E+06 -9.565405E+05 -6.570834E+05 -1.084278E+06  4.220199E+05  1.421735E+05
        98   7 -4.398416E+06 -8.721019E+05 -4.756274E+05 -1.536555E+06  1.219992E+05 -3.019101E+03
        98   8 -4.359441E+06 -9.105652E+05 -6.113359E+05 -1.608676E+06  2.906046E+05  5.689704E+04
        98   9 -4.511328E+06 -1.591404E+06 -1.033675E+06 -1.587134E+06  4.461746E+05  1.511779E+05
        98  10 -1.945792E+06 -7.440545E+04  1.449721E+05 -9.963445E+05 -5.013754E-10 -4.270001E-10
        98  11 -1.867833E+06  1.191575E+05  6.105394E+04 -8.350754E+05  3.060751E-09  1.237308E-09
        98  12 -1.972865E+06 -3.212529E+05 -2.809800E+05 -5.804116E+05  1.715792E-09 -1.913415E-10
        98  13 -3.172846E+06 -4.732596E+05 -1.652839E+05 -1.266671E+06  2.073959E-10  2.909180E-10
        98  14 -3.114444E+06 -3.958096E+05 -2.751546E+05 -1.222251E+06  2.441211E-09  3.463427E-09
        98  15 -3.243019E+06 -9.566104E+05 -6.574583E+05 -1.084327E+06  8.893916E-10 -3.223265E-10
        98  16 -4.398432E+06 -8.721059E+05 -4.756556E+05 -1.536554E+06  3.025248E-09  3.602298E-10
        98  17 -4.359533E+06 -9.105915E+05 -6.115020E+05 -1.608690E+06  4.565437E-09  5.381915E-10
        98  18 -4.511549E+06 -1.591483E+06 -1.034096E+06 -1.587189E+06  9.682784E-10  7.302204E-10
        98  19 -1.945770E+06 -7.439989E+04  1.450109E+05 -9.963439E+05 -1.432861E+05 -4.982075E+03
        98  20 -1.867750E+06  1.191811E+05  6.120375E+04 -8.350638E+05 -2.770420E+05 -5.183970E+04
        98  21 -1.972690E+06 -3.211912E+05 -2.806481E+05 -5.803688E+05 -3.978098E+05 -1.331330E+05
        98  22 -3.172828E+06 -4.732548E+05 -1.652507E+05 -1.266671E+06 -1.326311E+05 -9.785154E+02
        98  23 -3.114356E+06 -3.957847E+05 -2.749968E+05 -1.222239E+06 -2.838311E+05 -5.437194E+04
        98  24 -3.242821E+06 -9.565405E+05 -6.570834E+05 -1.084278E+06 -4.220199E+05 -1.421735E+05
        98  25 -4.398416E+06 -8.721019E+05 -4.756274E+05 -1.536555E+06 -1.219992E+05  3.019101E+03
        98  26 -4.359441E+06 -9.105652E+05 -6.113359E+05 -1.608676E+06 -2.906046E+05 -5.689704E+04
        98  27 -4.511328E+06 -1.591404E+06 -1.033675E+06 -1.587134E+06 -4.461746E+05 -1.511779E+05
        99   1 -1.719353E+06 -2.758192E+05 -2.485997E+05 -2.815078E+04  4.899577E+04  1.551073E+04
        99   2 -1.632686E+06 -3.473018E+05 -2.738333E+05 -1.400845E+04  4.128334E+04  4.663069E+04
        99   3 -1.517142E+06 -3.159643E+05 -2.679356E+05 -6.786924E+04  3.366859E+04  4.431703E+04
        99   4 -2.623619E+05  8.751873E+04  1.105011E+05 -5.448175E+04  7.548085E+04  1.558846E+04
        99   5 -2.783496E+05 -1.172351E+04  4.839561E+04 -2.035523E+04  4.930333E+04  4.664250E+04
        99   6 -2.623195E+05 -5.057022E+03  3.019859E+04 -5.422075E+04  2.322585E+04  4.429475E+04
        99   7  1.196567E+06  4.507017E+05  4.694481E+05 -8.087616E+04  1.020280E+05  1.566385E+04
        99   8  1.077674E+06  3.237226E+05  3.704964E+05 -2.671693E+04  5.734067E+04  4.665414E+04
        99   9  9.939519E+05  3.057375E+05  3.282233E+05 -4.054502E+04  1.276203E+04  4.427204E+04
        99  10 -1.719356E+06 -2.758201E+05 -2.486047E+05 -2.815139E+04 -1.417189E-10 -6.363454E-11
        99  11 -1.632689E+06 -3.473045E+05 -2.738406E+05 -1.401000E+04  1.935860E-09 -2.230192E-09
        99  12 -1.517144E+06 -3.159667E+05 -2.679414E+05 -6.787044E+04 -1.345170E-09 -6.609094E-10
        99  13 -2.623681E+05  8.751694E+04  1.104899E+05 -5.448270E+04  1.528878E-09 -1.142056E-09
        99  14 -2.783528E+05 -1.172650E+04  4.838695E+04 -2.035708E+04 -8.692828E-10 -7.631833E-10
        99  15 -2.623206E+05 -5.059274E+03  3.019389E+04 -5.422158E+04 -1.681699E-10 -6.770865E-10
        99  16  1.196556E+06  4.506986E+05  4.694281E+05 -8.087745E+04 -2.718866E-09  1.314117E-09
        99  17  1.077670E+06  3.237194E+05  3.704862E+05 -2.671908E+04 -6.906342E-10 -1.077493E-09
        99  18  9.939512E+05  3.057354E+05  3.282193E+05 -4.054547E+04  2.050714E-10 -4.493066E-10
        99  19 -1.719353E+06 -2.758192E+05 -2.485997E+05 -2.815078E+04 -4.899577E+04 -1.551073E+04
        99  20 -1.632686E+06 -3.473018E+05 -2.738333E+05 -1.400845E+04 -4.128334E+04 -4.663069E+04
        99  21 -1.517142E+06 -3.159643E+05 -2.679356E+05 -6.786924E+04 -3.366859E+04 -4.431703E+04
        99  22 -2.623619E+05  8.751873E+04  1.105011E+05 -5.448175E+04 -7.548085E+04 -1.558846E+04
        99  23 -2.783496E+05 -1.172351E+04  4.839561E+04 -2.035523E+04 -4.930333E+04 -4.664250E+04
        99  24 -2.623195E+05 -5.057022E+03  3.019859E+04 -5.422075E+04 -2.322585E+04 -4.429475E+04
        99  25  1.196567E+06  4.507017E+05  4.694481E+05 -8.087616E+04 -1.020280E+05 -1.566385E+04
        99  26  1.077674E+06  3.237226E+05  3.704964E+05 -2.671693E+04 -5.734067E+04 -4.665414E+04
        99  27  9.939519E+05  3.057375E+05  3.282233E+05 -4.054502E+04 -1.276203E+04 -4.427204E+04
       100   1 -1.399358E+06 -2.721408E+05 -2.451318E+05 -5.316107E+04  1.903142E+04  3.719694E+04
       100   2 -1.299663E+06 -2.563777E+05 -2.323311E+05 -1.980762E+04  1.388110E+04  3.521880E+04
       100   3 -1.195593E+06 -2.303623E+05 -2.133681E+05 -5.596578E+04  8.724285E+03  3.099248E+04
       100   4 -2.683349E+05  8.213761E+03  2.453839E+04 -5.463723E+04  1.858712E+04  3.719179E+04
       100   5 -2.706024E+05 -1.405913E+03  1.251693E+04 -1.988056E+04  1.218752E+04  3.521369E+04
       100   6 -2.682927E+05 -5.651637E+02  7.517807E+03 -5.462811E+04  5.782234E+03  3.098908E+04
       100   7  8.638631E+05  2.884759E+05  2.941187E+05 -5.611641E+04  1.814199E+04  3.718665E+04
       100   8  7.594321E+05  2.534895E+05  2.572908E+05 -1.995377E+04  1.049112E+04  3.520859E+04
       100   9  6.597973E+05  2.291699E+05  2.283435E+05 -5.328842E+04  2.835797E+03  3.098568E+04
       100  10 -1.399358E+06 -2.721424E+05 -2.451351E+05 -5.316164E+04 -2.781789E-10  2.977112E-10
       100  11 -1.299664E+06 -2.563791E+05 -2.323338E+05 -1.980801E+04 -1.685482E-09  1.015977E-09
       100  12 -1.195593E+06 -2.303634E+05 -2.133701E+05 -5.596600E+04  5.740375E-10 -2.317708E-10
       100  13 -2.683357E+05  8.212183E+03  2.453514E+04 -5.463779E+04 -1.935959E-09 -6.254658E-10
       100  14 -2.706029E+05 -1.407285E+03  1.251433E+04 -1.988090E+04 -1.281080E-09  1.363499E-09
       100  15 -2.682930E+05 -5.662038E+02  7.515939E+03 -5.462825E+04 -1.215382E-09 -1.715465E-10
       100  16  8.638623E+05  2.884743E+05  2.941155E+05 -5.611695E+04  1.298755E-09  2.322988E-10
       100  17  7.594316E+05  2.534881E+05  2.572883E+05 -1.995407E+04  1.391644E-09 -4.071751E-10
       100  18  6.597970E+05  2.291689E+05  2.283416E+05 -5.328849E+04  7.505243E-10 -3.420177E-10
       100  19 -1.399358E+06 -2.721408E+05 -2.451318E+05 -5.316107E+04 -1.903142E+04 -3.719694E+04
       100  20 -1.299663E+06 -2.563777E+05 -2.323311E+05 -1.980762E+04 -1.388110E+04 -3.521880E+04
       100  21 -1.195593E+06 -2.303623E+05 -2.133681E+05 -5.596578E+04 -8.724285E+03 -3.099248E+04
       100  22 -2.683349E+05  8.213761E+03  2.453839E+04 -5.463723E+04 -1.858712E+04 -3.719179E+04
       100  23 -2.706024E+05 -1.405913E+03  1.251693E+04 -1.988056E+04 -1.218752E+04 -3.521369E+04
       100  24 -2.682927E+05 -5.651637E+02  7.517807E+03 -5.462811E+04 -5.782234E+03 -3.098908E+04
       100  25  8.638631E+05  2.884759E+05  2.941187E+05 -5.611641E+04 -1.814199E+04 -3.718665E+04
       100  26  7.594321E+05  2.534895E+05  2.572908E+05 -1.995377E+04 -1.049112E+04 -3.520859E+04
       100  27  6.597973E+05  2.291699E+05  2.283435E+05 -5.328842E+04 -2.835797E+03 -3.098568E+04
       101   1 -1.071442E+06 -1.980552E+05 -1.847886E+05 -5.454003E+04  6.875311E+03  2.814255E+04
       101   2 -9.691217E+05 -1.735239E+05 -1.632135E+05 -1.944227E+04  5.349266E+03  2.392300E+04
       101   3 -8.659390E+05 -1.478935E+05 -1.402884E+05 -5.448179E+04  3.816902E+03  1.954329E+04
       101   4 -2.690582E+05  6.753350E+02  5.849971E+03 -5.476998E+04  4.597050E+03  2.814050E+04
       101   5 -2.694772E+05 -2.057525E+02  3.225516E+03 -1.970385E+04  2.980652E+03  2.392244E+04
       101   6 -2.690279E+05  2.804963E+01  2.013160E+03 -5.477014E+04  1.358187E+03  1.954434E+04
       101   7  5.339171E+05  1.993594E+05  1.964436E+05 -5.500017E+04  2.315852E+03  2.813844E+04
       101   8  4.306172E+05  1.730771E+05  1.696303E+05 -1.996567E+04  6.093777E+02  2.392188E+04
       101   9  3.282104E+05  1.479239E+05  1.442897E+05 -5.505868E+04 -1.102884E+03  1.954539E+04
       101  10 -1.071442E+06 -1.980560E+05 -1.847902E+05 -5.454019E+04 -4.135725E-10  5.932713E-11
       101  11 -9.691219E+05 -1.735245E+05 -1.632146E+05 -1.944237E+04 -3.273516E-09  5.069376E-10
       101  12 -8.659391E+05 -1.478939E+05 -1.402891E+05 -5.448185E+04 -5.052236E-11 -7.596420E-10
       101  13 -2.690584E+05  6.744791E+02  5.848443E+03 -5.477008E+04  2.145482E-09 -2.213374E-11
       101  14 -2.694774E+05 -2.063694E+02  3.224424E+03 -1.970391E+04  6.720035E-10  1.207642E-09
       101  15 -2.690280E+05  2.763900E+01  2.012439E+03 -5.477016E+04 -2.114525E-09  5.205644E-10
       101  16  5.339169E+05  1.993586E+05  1.964421E+05 -5.500022E+04  3.839696E-10 -1.068997E-10
       101  17  4.306170E+05  1.730764E+05  1.696292E+05 -1.996568E+04 -5.088844E-10  5.542924E-10
       101  18  3.282103E+05  1.479234E+05  1.442890E+05 -5.505866E+04  1.258697E-09  7.505902E-11
       101  19 -1.071442E+06 -1.980552E+05 -1.847886E+05 -5.454003E+04 -6.875311E+03 -2.814255E+04
       101  20 -9.691217E+05 -1.735239E+05 -1.632135E+05 -1.944227E+04 -5.349266E+03 -2.392300E+04
       101  21 -8.659390E+05 -1.478935E+05 -1.402884E+05 -5.448179E+04 -3.816902E+03 -1.954329E+04
       101  22 -2.690582E+05  6.753350E+02  5.849971E+03 -5.476998E+04 -4.597050E+03 -2.814050E+04
       101  23 -2.694772E+05 -2.057525E+02  3.225516E+03 -1.970385E+04 -2.980652E+03 -2.392244E+04
       101  24 -2.690279E+05  2.804963E+01  2.013160E+03 -5.477014E+04 -1.358187E+03 -1.954434E+04
       101  25  5.339171E+05  1.993594E+05  1.964436E+05 -5.500017E+04 -2.315852E+03 -2.813844E+04
       101  26  4.306172E+05  1.730771E+05  1.696303E+05 -1.996567E+04 -6.093777E+02 -2.392188E+04
       101  27  3.282104E+05  1.479239E+05  1.442897E+05 -5.505868E+04  1.102884E+03 -1.954539E+04
       102   1 -7.402983E+05 -1.165140E+05 -1.101507E+05 -5.447967E+04  3.445721E+03  1.696349E+04
       102   2 -6.370197E+05 -9.109487E+04 -8.636703E+04 -1.926736E+04  2.895686E+03  1.257228E+04
       102   3 -5.336819E+05 -6.540793E+04 -6.217856E+04 -5.455206E+04  2.342347E+03  8.165644E+03
       102   4 -2.691728E+05  1.172033E+02  1.601848E+03 -5.485048E+04  1.028281E+03  1.696530E+04
       102   5 -2.691909E+05  6.956071E+00  1.118732E+03 -1.960322E+04  4.692180E+02  1.257489E+04
       102   6 -2.691565E+05  1.671912E+02  1.047441E+03 -5.485040E+04 -9.305932E+01  8.169096E+03
       102   7  2.021568E+05  1.167324E+05  1.133390E+05 -5.522150E+04 -1.390986E+03  1.696712E+04
       102   8  9.876233E+04  9.109903E+04  8.859505E+04 -1.993925E+04 -1.958682E+03  1.257750E+04
       102   9 -4.566843E+03  6.573725E+04  6.426853E+04 -5.514883E+04 -2.529500E+03  8.172549E+03
       102  10 -7.402984E+05 -1.165143E+05 -1.101513E+05 -5.447972E+04 -5.307969E-10 -8.015821E-10
       102  11 -6.370198E+05 -9.109504E+04 -8.636734E+04 -1.926739E+04 -1.413272E-09 -5.130307E-10
       102  12 -5.336820E+05 -6.540801E+04 -6.217869E+04 -5.455208E+04 -6.092927E-10 -3.249590E-10
       102  13 -2.691729E+05  1.168940E+02  1.601305E+03 -5.485049E+04 -1.803517E-10 -1.392930E-09
       102  14 -2.691909E+05  6.786232E+00  1.118435E+03 -1.960323E+04 -8.667194E-10  1.714833E-10
       102  15 -2.691565E+05  1.671195E+02  1.047316E+03 -5.485040E+04  1.837728E-10 -6.712394E-10
       102  16  2.021567E+05  1.167321E+05  1.133384E+05 -5.522149E+04 -4.354990E-10 -2.281814E-10
       102  17  9.876228E+04  9.109886E+04  8.859475E+04 -1.993923E+04 -1.838272E-09 -1.757534E-10
       102  18 -4.566868E+03  6.573718E+04  6.426839E+04 -5.514882E+04 -1.313434E-10 -9.723725E-10
       102  19 -7.402983E+05 -1.165140E+05 -1.101507E+05 -5.447967E+04 -3.445721E+03 -1.696349E+04
       102  20 -6.370197E+05 -9.109487E+04 -8.636703E+04 -1.926736E+04 -2.895686E+03 -1.257228E+04
       102  21 -5.336819E+05 -6.540793E+04 -6.217856E+04 -5.455206E+04 -2.342347E+03 -8.165644E+03
       102  22 -2.691728E+05  1.172033E+02  1.601848E+03 -5.485048E+04 -1.028281E+03 -1.696530E+04
       102  23 -2.691909E+05  6.956071E+00  1.118732E+03 -1.960322E+04 -4.692180E+02 -1.257489E+04
       102  24 -2.691565E+05  1.671912E+02  1.047441E+03 -5.485040E+04  9.305932E+01 -8.169096E+03
       102  25  2.021568E+05  1.167324E+05  1.133390E+05 -5.522150E+04  1.390986E+03 -1.696712E+04
       102  26  9.876233E+04  9.109903E+04  8.859505E+04 -1.993925E+04  1.958682E+03 -1.257750E+04
       102  27 -4.566843E+03  6.573725E+04  6.426853E+04 -5.514883E+04  2.529500E+03 -8.172549E+03
       103   1 -4.074239E+05 -3.402415E+04 -3.145472E+04 -5.470202E+04  2.142778E+03  5.595495E+03
       103   2 -3.038604E+05 -8.560752E+03 -6.738303E+03 -1.950749E+04  1.379528E+03  1.184898E+03
       103   3 -2.003616E+05  1.726081E+04  1.850600E+04 -5.494923E+04  6.158476E+02 -3.219423E+03
       103   4 -2.691713E+05  1.501892E+02  1.109617E+03 -5.488192E+04 -2.931689E+02  5.599252E+03
       103   5 -2.691322E+05  3.889623E+01  1.519946E+03 -1.956381E+04 -1.053199E+03  1.188707E+03
       103   6 -2.691697E+05  2.855561E+02  2.456152E+03 -5.488169E+04 -1.813535E+03 -3.215525E+03
       103   7 -1.309012E+05  3.432317E+04  3.367266E+04 -5.506186E+04 -2.729656E+03  5.603009E+03
       103   8 -2.344029E+05  8.638461E+03  9.778133E+03 -1.962013E+04 -3.486062E+03  1.192515E+03
       103   9 -3.379734E+05 -1.669003E+04 -1.359400E+04 -5.481416E+04 -4.242650E+03 -3.211626E+03
       103  10 -4.074239E+05 -3.402419E+04 -3.145479E+04 -5.470203E+04  1.639996E-09  1.363598E-09
       103  11 -3.038604E+05 -8.560754E+03 -6.738309E+03 -1.950749E+04  6.284474E-11  3.046183E-09
       103  12 -2.003616E+05  1.726080E+04  1.850598E+04 -5.494923E+04 -3.350659E-10 -5.963485E-10
       103  13 -2.691713E+05  1.501555E+02  1.109558E+03 -5.488192E+04 -3.423749E-09  1.457374E-10
       103  14 -2.691322E+05  3.889441E+01  1.519941E+03 -1.956381E+04 -2.026277E-09 -5.618754E-10
       103  15 -2.691697E+05  2.855442E+02  2.456126E+03 -5.488170E+04 -4.877827E-09  9.781883E-10
       103  16 -1.309012E+05  3.432313E+04  3.367259E+04 -5.506185E+04 -1.510325E-09  8.419084E-11
       103  17 -2.344029E+05  8.638456E+03  9.778108E+03 -1.962012E+04 -4.420948E-11 -6.245425E-10
       103  18 -3.379734E+05 -1.669004E+04 -1.359405E+04 -5.481417E+04  3.531174E-10  1.142000E-09
       103  19 -4.074239E+05 -3.402415E+04 -3.145472E+04 -5.470202E+04 -2.142778E+03 -5.595495E+03
       103  20 -3.038604E+05 -8.560752E+03 -6.738303E+03 -1.950749E+04 -1.379528E+03 -1.184898E+03
       103  21 -2.003616E+05  1.726081E+04  1.850600E+04 -5.494923E+04 -6.158476E+02  3.219423E+03
       103  22 -2.691713E+05  1.501892E+02  1.109617E+03 -5.488192E+04  2.931689E+02 -5.599252E+03
       103  23 -2.691322E+05  3.889623E+01  1.519946E+03 -1.956381E+04  1.053199E+03 -1.188707E+03
       103  24 -2.691697E+05  2.855561E+02  2.456152E+03 -5.488169E+04  1.813535E+03  3.215525E+03
       103  25 -1.309012E+05  3.432317E+04  3.367266E+04 -5.506186E+04  2.729656E+03 -5.603009E+03
       103  26 -2.344029E+05  8.638461E+03  9.778133E+03 -1.962013E+04  3.486062E+03 -1.192515E+03
       103  27 -3.379734E+05 -1.669003E+04 -1.359400E+04 -5.481416E+04  4.242650E+03  3.211626E+03
       104   1 -7.385202E+04  4.847914E+04  4.986326E+04 -5.485738E+04  1.398670E+02 -5.802433E+03
       104   2  2.922995E+04  7.375518E+04  7.629394E+04 -1.990466E+04 -2.587702E+03 -1.020156E+04
       104   3  1.329977E+05  1.009122E+05  1.049352E+05 -5.549248E+04 -5.312996E+03 -1.448540E+04
       104   4 -2.690139E+05  9.734315E+01  3.149289E+03 -5.486164E+04 -2.321878E+03 -5.798682E+03
       104   5 -2.693529E+05 -1.665034E+02  5.306885E+03 -1.958947E+04 -4.984807E+03 -1.019858E+04
       104   6 -2.690266E+05  1.440728E+03  9.631755E+03 -5.485988E+04 -7.645015E+03 -1.448313E+04
       104   7 -4.641408E+05 -4.828722E+04 -4.356735E+04 -5.486589E+04 -4.782853E+03 -5.794931E+03
       104   8 -5.678539E+05 -7.409460E+04 -6.568638E+04 -1.927440E+04 -7.380766E+03 -1.019560E+04
       104   9 -6.709023E+05 -9.804233E+04 -8.568294E+04 -5.422764E+04 -9.975531E+03 -1.448086E+04
       104  10 -7.385203E+04  4.847911E+04  4.986319E+04 -5.485738E+04 -6.181305E-10 -1.750887E-09
       104  11  2.922991E+04  7.375506E+04  7.629373E+04 -1.990469E+04 -1.535769E-09 -1.139444E-09
       104  12  1.329976E+05  1.009119E+05  1.049348E+05 -5.549254E+04 -1.312179E-09  8.119925E-10
       104  13 -2.690139E+05  9.730560E+01  3.149216E+03 -5.486165E+04 -2.302140E-09  3.781971E-10
       104  14 -2.693530E+05 -1.666218E+02  5.306643E+03 -1.958951E+04  1.243003E-10 -1.896437E-09
       104  15 -2.690267E+05  1.440487E+03  9.631250E+03 -5.485997E+04 -2.963788E-09 -6.514084E-10
       104  16 -4.641408E+05 -4.828726E+04 -4.356745E+04 -5.486591E+04  2.808587E-10  9.004621E-10
       104  17 -5.678540E+05 -7.409473E+04 -6.568668E+04 -1.927446E+04 -1.751403E-10  4.446995E-10
       104  18 -6.709025E+05 -9.804258E+04 -8.568352E+04 -5.422776E+04  8.741420E-10 -4.122187E-10
       104  19 -7.385202E+04  4.847914E+04  4.986326E+04 -5.485738E+04 -1.398670E+02  5.802433E+03
       104  20  2.922995E+04  7.375518E+04  7.629394E+04 -1.990466E+04  2.587702E+03  1.020156E+04
       104  21  1.329977E+05  1.009122E+05  1.049352E+05 -5.549248E+04  5.312996E+03  1.448540E+04
       104  22 -2.690139E+05  9.734315E+01  3.149289E+03 -5.486164E+04  2.321878E+03  5.798682E+03
       104  23 -2.693529E+05 -1.665034E+02  5.306885E+03 -1.958947E+04  4.984807E+03  1.019858E+04
       104  24 -2.690266E+05  1.440728E+03  9.631755E+03 -5.485988E+04  7.645015E+03  1.448313E+04
       104  25 -4.641408E+05 -4.828722E+04 -4.356735E+04 -5.486589E+04  4.782853E+03  5.794931E+03
       104  26 -5.678539E+05 -7.409460E+04 -6.568638E+04 -1.927440E+04  7.380766E+03  1.019560E+04
       104  27 -6.709023E+05 -9.804233E+04 -8.568294E+04 -5.422764E+04  9.975531E+03  1.448086E+04
       105   1  2.601976E+05  1.301089E+05  1.381645E+05 -5.310349E+04 -6.765670E+03 -1.727220E+04
       105   2  3.601105E+05  1.542289E+05  1.707969E+05 -2.108537E+04 -1.833509E+04 -2.155710E+04
       105   3  4.661878E+05  1.959310E+05  2.154037E+05 -5.925026E+04 -2.990049E+04 -2.418036E+04
       105   4 -2.678726E+05 -6.588716E+02  1.236134E+04 -5.478483E+04 -9.591253E+03 -1.727006E+04
       105   5 -2.708860E+05 -1.959626E+03  2.081339E+04 -1.968742E+04 -2.023334E+04 -2.155722E+04
       105   6 -2.678968E+05  1.417209E+04  4.060601E+04 -5.477699E+04 -3.086951E+04 -2.418208E+04
       105   7 -7.956871E+05 -1.314467E+05 -1.134614E+05 -5.646466E+04 -1.241444E+04 -1.726790E+04
       105   8 -9.015170E+05 -1.581768E+05 -1.291979E+05 -1.829083E+04 -2.212965E+04 -2.155736E+04
       105   9 -1.001487E+06 -1.676256E+05 -1.342294E+05 -5.030897E+04 -3.183737E+04 -2.418382E+04
       105  10  2.601975E+05  1.301085E+05  1.381639E+05 -5.310358E+04 -6.772196E-10  1.464264E-09
       105  11  3.601100E+05  1.542283E+05  1.707954E+05 -2.108569E+04  3.982870E-11 -9.655834E-10
       105  12  4.661867E+05  1.959301E+05  2.154009E+05 -5.925085E+04 -8.726671E-10  1.815105E-10
       105  13 -2.678728E+05 -6.592166E+02  1.236061E+04 -5.478497E+04 -1.491390E-10  7.805780E-10
       105  14 -2.708866E+05 -1.960235E+03  2.081175E+04 -1.968777E+04 -1.967954E-09  4.878397E-10
       105  15 -2.678980E+05  1.417121E+04  4.060312E+04 -5.477760E+04  3.870339E-10  4.253128E-10
       105  16 -7.956873E+05 -1.314471E+05 -1.134622E+05 -5.646483E+04 -9.895390E-10  2.767504E-11
       105  17 -9.015177E+05 -1.581774E+05 -1.291997E+05 -1.829121E+04 -1.098690E-09 -5.490035E-11
       105  18 -1.001488E+06 -1.676265E+05 -1.342325E+05 -5.030959E+04  1.815340E-10  8.415047E-10
       105  19  2.601976E+05  1.301089E+05  1.381645E+05 -5.310349E+04  6.765670E+03  1.727220E+04
       105  20  3.601105E+05  1.542289E+05  1.707969E+05 -2.108537E+04  1.833509E+04  2.155710E+04
       105  21  4.661878E+05  1.959310E+05  2.154037E+05 -5.925026E+04  2.990049E+04  2.418036E+04
       105  22 -2.678726E+05 -6.588716E+02  1.236134E+04 -5.478483E+04  9.591253E+03  1.727006E+04
       105  23 -2.708860E+05 -1.959626E+03  2.081339E+04 -1.968742E+04  2.023334E+04  2.155722E+04
       105  24 -2.678968E+05  1.417209E+04  4.060601E+04 -5.477699E+04  3.086951E+04  2.418208E+04
       105  25 -7.956871E+05 -1.314467E+05 -1.134614E+05 -5.646466E+04  1.241444E+04  1.726790E+04
       105  26 -9.015170E+05 -1.581768E+05 -1.291979E+05 -1.829083E+04  2.212965E+04  2.155736E+04
       105  27 -1.001487E+06 -1.676256E+05 -1.342294E+05 -5.030897E+04  3.183737E+04  2.418382E+04
       106   1  6.014581E+05  2.048663E+05  2.539433E+05 -3.451313E+04 -3.015540E+04 -3.012242E+04
       106   2  6.776310E+05  2.190178E+05  3.086519E+05 -3.429526E+04 -8.715169E+04 -3.300840E+04
       106   3  8.065006E+05  4.105809E+05  4.449844E+05 -1.031687E+05 -1.441781E+05 -1.115998E+04
       106   4 -2.580925E+05 -7.800972E+03  4.993842E+04 -5.451131E+04 -3.854560E+04 -3.012300E+04
       106   5 -2.832922E+05 -1.876642E+04  8.034564E+04 -2.002079E+04 -8.181807E+04 -3.301168E+04
       106   6 -2.581084E+05  1.454416E+05  1.829303E+05 -5.462044E+04 -1.251098E+05 -1.115531E+04
       106   7 -1.116964E+06 -2.205199E+05 -1.541175E+05 -7.448163E+04 -4.692421E+04 -3.012303E+04
       106   8 -1.243368E+06 -2.566164E+05 -1.480249E+05 -5.768587E+03 -7.649258E+04 -3.301472E+04
       106   9 -1.321681E+06 -1.197729E+05 -7.920473E+04 -6.155659E+03 -1.060740E+05 -1.114766E+04
       106  10  6.014569E+05  2.048651E+05  2.539399E+05 -3.451386E+04  1.385177E-09  4.599245E-10
       106  11  6.776226E+05  2.190146E+05  3.086356E+05 -3.429757E+04 -2.965473E-10 -1.742997E-10
       106  12  8.064783E+05  4.105751E+05  4.449451E+05 -1.031700E+05 -6.213446E-10 -4.107485E-10
       106  13 -2.580943E+05 -7.802345E+03  4.993392E+04 -5.451225E+04 -1.180998E-09  5.324756E-10
       106  14 -2.832997E+05 -1.876939E+04  8.033101E+04 -2.002297E+04  1.389651E-09  3.503492E-10
       106  15 -2.581252E+05  1.454373E+05  1.829007E+05 -5.462157E+04  5.948380E-10 -2.845218E-10
       106  16 -1.116967E+06 -2.205215E+05 -1.541234E+05 -7.448277E+04 -9.317359E-10  6.193016E-10
       106  17 -1.243374E+06 -2.566191E+05 -1.480379E+05 -5.770622E+03  2.790609E-09 -3.272814E-10
       106  18 -1.321693E+06 -1.197760E+05 -7.922615E+04 -6.156612E+03 -4.754032E-10 -5.736487E-10
       106  19  6.014581E+05  2.048663E+05  2.539433E+05 -3.451313E+04  3.015540E+04  3.012242E+04
       106  20  6.776310E+05  2.190178E+05  3.086519E+05 -3.429526E+04  8.715169E+04  3.300840E+04
       106  21  8.065006E+05  4.105809E+05  4.449844E+05 -1.031687E+05  1.441781E+05  1.115998E+04
       106  22 -2.580925E+05 -7.800972E+03  4.993842E+04 -5.451131E+04  3.854560E+04  3.012300E+04
       106  23 -2.832922E+05 -1.876642E+04  8.034564E+04 -2.002079E+04  8.181807E+04  3.301168E+04
       106  24 -2.581084E+05  1.454416E+05  1.829303E+05 -5.462044E+04  1.251098E+05  1.115531E+04
       106  25 -1.116964E+06 -2.205199E+05 -1.541175E+05 -7.448163E+04  4.692421E+04  3.012303E+04
       106  26 -1.243368E+06 -2.566164E+05 -1.480249E+05 -5.768587E+03  7.649258E+04  3.301472E+04
       106  27 -1.321681E+06 -1.197729E+05 -7.920473E+04 -6.155659E+03  1.060740E+05  1.114766E+04
       107   1  3.133640E+05  6.698950E+05  3.239784E+05 -2.700609E+05  4.829815E+03  1.680650E+05
       107   2  1.401703E+05  5.140498E+05  1.765795E+05 -1.946240E+05  1.583126E+04  9.324064E+04
       107   3  6.894240E+04  3.932133E+05  1.033342E+05 -1.468479E+05  1.422288E+04  1.839079E+04
       107   4  1.828499E+05  1.466606E+05  1.996213E+05 -1.516184E+05  4.978379E+03  1.365600E+05
       107   5  4.786685E+04  1.311983E+05  1.002841E+05 -1.381126E+05  1.587104E+04  8.507091E+04
       107   6  1.082857E+04  1.467048E+05  5.893648E+04 -1.522531E+05  1.416520E+04  3.353819E+04
       107   7  5.236862E+04 -3.762910E+05  7.525617E+04 -3.327601E+04  5.115005E+03  1.050814E+05
       107   8 -4.443378E+04 -2.515066E+05  2.398328E+04 -8.163669E+04  1.590935E+04  7.690611E+04
       107   9 -4.728840E+04 -9.974391E+04  1.453730E+04 -1.576559E+05  1.410724E+04  4.867974E+04
       107  10  3.133564E+05  6.698647E+05  3.239254E+05 -2.700615E+05  3.203038E-10  4.783425E-08
       107  11  1.401677E+05  5.140404E+05  1.765627E+05 -1.946252E+05 -1.566370E-10  1.672655E-08
       107  12  6.894209E+04  3.932128E+05  1.033332E+05 -1.468482E+05 -2.776005E-09 -1.835672E-08
       107  13  1.828448E+05  1.466406E+05  1.995863E+05 -1.516190E+05 -8.222107E-10 -1.960180E-09
       107  14  4.786463E+04  1.311904E+05  1.002700E+05 -1.381137E+05  1.137729E-09 -8.330144E-10
       107  15  1.082805E+04  1.467035E+05  5.893399E+04 -1.522535E+05  1.336926E-09 -2.306924E-09
       107  16  5.236563E+04 -3.763028E+05  7.523536E+04 -3.327644E+04  1.447343E-10 -4.989768E-08
       107  17 -4.443564E+04 -2.515130E+05  2.397168E+04 -8.163768E+04 -1.112675E-09 -1.756069E-08
       107  18 -4.728925E+04 -9.974651E+04  1.453247E+04 -1.576565E+05 -2.841336E-09  1.751411E-08
       107  19  3.133640E+05  6.698950E+05  3.239784E+05 -2.700609E+05 -4.829815E+03 -1.680650E+05
       107  20  1.401703E+05  5.140498E+05  1.765795E+05 -1.946240E+05 -1.583126E+04 -9.324064E+04
       107  21  6.894240E+04  3.932133E+05  1.033342E+05 -1.468479E+05 -1.422288E+04 -1.839079E+04
       107  22  1.828499E+05  1.466606E+05  1.996213E+05 -1.516184E+05 -4.978379E+03 -1.365600E+05
       107  23  4.786685E+04  1.311983E+05  1.002841E+05 -1.381126E+05 -1.587104E+04 -8.507091E+04
       107  24  1.082857E+04  1.467048E+05  5.893648E+04 -1.522531E+05 -1.416520E+04 -3.353819E+04
       107  25  5.236862E+04 -3.762910E+05  7.525617E+04 -3.327601E+04 -5.115005E+03 -1.050814E+05
       107  26 -4.443378E+04 -2.515066E+05  2.398328E+04 -8.163669E+04 -1.590935E+04 -7.690611E+04
       107  27 -4.728840E+04 -9.974391E+04  1.453730E+04 -1.576559E+05 -1.410724E+04 -4.867974E+04
       108   1  4.800465E+04  2.977435E+05  7.621349E+04 -1.580734E+05  9.073661E+03  1.110092E+04
       108   2  8.437478E+03  1.567834E+05  3.884611E+04 -1.386862E+05  1.330601E+03 -6.994565E+03
       108   3 -2.103075E+04  2.046513E+04  1.571125E+04 -1.479295E+05 -6.495513E+03 -2.508657E+04
       108   4  1.093323E+04  1.408498E+05  4.796034E+04 -1.524018E+05  9.018678E+03  2.546341E+04
       108   5  4.188742E+03  1.385520E+05  3.585667E+04 -1.380936E+05  1.274852E+03  7.522334E+03
       108   6  7.517964E+03  1.408516E+05  3.788053E+04 -1.524149E+05 -6.551776E+03 -1.041905E+04
       108   7 -2.613934E+04 -1.601947E+04  1.970702E+04 -1.467317E+05  8.963950E+03  3.982237E+04
       108   8 -5.989713E+01  1.203214E+05  3.286801E+04 -1.375011E+05  1.219129E+03  2.203882E+04
       108   9  3.606604E+04  2.612526E+05  6.005003E+04 -1.569012E+05 -6.608245E+03  4.251246E+03
       108  10  4.800453E+04  2.977434E+05  7.621310E+04 -1.580735E+05 -2.857423E-09 -4.999648E-08
       108  11  8.437463E+03  1.567834E+05  3.884601E+04 -1.386861E+05  6.477873E-10 -2.099682E-08
       108  12 -2.103096E+04  2.046444E+04  1.570999E+04 -1.479296E+05  1.264081E-09  8.819148E-09
       108  13  1.093297E+04  1.408491E+05  4.795897E+04 -1.524020E+05 -9.408181E-10 -1.986514E-09
       108  14  4.188725E+03  1.385520E+05  3.585656E+04 -1.380936E+05  1.897477E-09 -7.555128E-10
       108  15  7.517889E+03  1.408515E+05  3.788024E+04 -1.524149E+05  1.769068E-09 -2.069771E-09
       108  16 -2.613985E+04 -1.602119E+04  1.970389E+04 -1.467320E+05 -2.367459E-09  4.773411E-08
       108  17 -6.002909E+01  1.203209E+05  3.286710E+04 -1.375011E+05 -4.275201E-10  2.044560E-08
       108  18  3.606599E+04  2.612526E+05  6.004991E+04 -1.569012E+05  2.125223E-09 -9.083718E-09
       108  19  4.800465E+04  2.977435E+05  7.621349E+04 -1.580734E+05 -9.073661E+03 -1.110092E+04
       108  20  8.437478E+03  1.567834E+05  3.884611E+04 -1.386862E+05 -1.330601E+03  6.994565E+03
       108  21 -2.103075E+04  2.046513E+04  1.571125E+04 -1.479295E+05  6.495513E+03  2.508657E+04
       108  22  1.093323E+04  1.408498E+05  4.796034E+04 -1.524018E+05 -9.018678E+03 -2.546341E+04
       108  23  4.188742E+03  1.385520E+05  3.585667E+04 -1.380936E+05 -1.274852E+03 -7.522334E+03
       108  24  7.517964E+03  1.408516E+05  3.788053E+04 -1.524149E+05  6.551776E+03  1.041905E+04
       108  25 -2.613934E+04 -1.601947E+04  1.970702E+04 -1.467317E+05 -8.963950E+03 -3.982237E+04
       108  26 -5.989713E+01  1.203214E+05  3.286801E+04 -1.375011E+05 -1.219129E+03 -2.203882E+04
       108  27  3.606604E+04  2.612526E+05  6.005003E+04 -1.569012E+05  6.608245E+03 -4.251246E+03
       109   1 -4.208991E+04 -6.562199E+04  4.810424E+03 -1.552892E+05 -1.170496E+04 -3.206339E+04
       109   2 -5.240886E+04 -2.122141E+05 -2.631987E+03 -1.012560E+05 -1.410404E+04 -4.461604E+04
       109   3 -3.208317E+03 -3.424916E+05  1.293054E+04 -7.501719E+04 -4.725123E+03 -5.712447E+04
       109   4  7.506399E+03  1.442820E+05  4.304524E+04 -1.522696E+05 -1.176389E+04 -1.667184E+04
       109   5  3.111123E+04  1.342352E+05  6.688024E+04 -1.381725E+05 -1.407675E+04 -5.100238E+04
       109   6  1.179905E+05  1.442444E+05  1.288312E+05 -1.518609E+05 -4.613035E+03 -8.529192E+04
       109   7  5.710039E+04  3.542293E+05  8.127919E+04 -1.492488E+05 -1.182265E+04 -1.275228E+03
       109   8  1.146289E+05  4.808020E+05  1.363872E+05 -1.751099E+05 -1.404871E+04 -5.739220E+04
       109   9  2.391945E+05  6.312120E+05  2.447213E+05 -2.287650E+05 -4.494022E+03 -1.134813E+05
       109  10 -4.209033E+04 -6.562313E+04  4.808234E+03 -1.552895E+05  3.121754E-10 -2.706690E-09
       109  11 -5.240961E+04 -2.122163E+05 -2.636103E+03 -1.012565E+05  6.692504E-10 -1.992546E-09
       109  12 -3.209218E+03 -3.424951E+05  1.292436E+04 -7.501741E+04  1.331864E-09 -2.457278E-09
       109  13  7.506176E+03  1.442816E+05  4.304446E+04 -1.522697E+05  6.495633E-10 -1.887557E-09
       109  14  3.111032E+04  1.342324E+05  6.687498E+04 -1.381731E+05  2.348110E-09 -7.888600E-10
       109  15  1.179885E+05  1.442366E+05  1.288175E+05 -1.518612E+05 -1.370110E-09 -2.047780E-09
       109  16  5.710024E+04  3.542293E+05  8.127893E+04 -1.492488E+05  2.724348E-09  7.989281E-10
       109  17  1.146278E+05  4.807984E+05  1.363807E+05 -1.751106E+05  1.773448E-09  1.741749E-09
       109  18  2.391910E+05  6.311981E+05  2.446971E+05 -2.287655E+05  9.554354E-10  2.065804E-09
       109  19 -4.208991E+04 -6.562199E+04  4.810424E+03 -1.552892E+05  1.170496E+04  3.206339E+04
       109  20 -5.240886E+04 -2.122141E+05 -2.631987E+03 -1.012560E+05  1.410404E+04  4.461604E+04
       109  21 -3.208317E+03 -3.424916E+05  1.293054E+04 -7.501719E+04  4.725123E+03  5.712447E+04
       109  22  7.506399E+03  1.442820E+05  4.304524E+04 -1.522696E+05  1.176389E+04  1.667184E+04
       109  23  3.111123E+04  1.342352E+05  6.688024E+04 -1.381725E+05  1.407675E+04  5.100238E+04
       109  24  1.179905E+05  1.442444E+05  1.288312E+05 -1.518609E+05  4.613035E+03  8.529192E+04
       109  25  5.710039E+04  3.542293E+05  8.127919E+04 -1.492488E+05  1.182265E+04  1.275228E+03
       109  26  1.146289E+05  4.808020E+05  1.363872E+05 -1.751099E+05  1.404871E+04  5.739220E+04
       109  27  2.391945E+05  6.312120E+05  2.447213E+05 -2.287650E+05  4.494022E+03  1.134813E+05
       110   1 -4.356641E+06 -1.449117E+06 -9.152398E+05 -1.534049E+06 -4.078568E+05 -1.396491E+05
       110   2 -4.239778E+06 -8.433042E+05 -5.362931E+05 -1.571829E+06 -2.657087E+05 -5.590015E+04
       110   3 -4.314958E+06 -8.115601E+05 -4.196093E+05 -1.504785E+06 -1.129339E+05 -1.771263E+02
       110   4 -3.319963E+06 -9.145581E+05 -6.044316E+05 -1.107062E+06 -3.876385E+05 -1.321110E+05
       110   5 -3.193322E+06 -4.069856E+05 -2.529127E+05 -1.243308E+06 -2.596899E+05 -5.365263E+04
       110   6 -3.255547E+06 -4.701279E+05 -1.520137E+05 -1.274834E+06 -1.211247E+05 -3.258462E+03
       110   7 -2.282185E+06 -3.796288E+05 -2.937267E+05 -6.793342E+05 -3.673824E+05 -1.245469E+05
       110   8 -2.145792E+06  2.947005E+04  3.036913E+04 -9.142591E+05 -2.536595E+05 -5.139973E+04
       110   9 -2.195043E+06 -1.286947E+05  1.154948E+05 -1.044560E+06 -1.293307E+05 -6.343626E+03
       110  10 -4.356826E+06 -1.449184E+06 -9.155918E+05 -1.534095E+06 -1.204282E-09  1.714450E-10
       110  11 -4.239855E+06 -8.433268E+05 -5.364327E+05 -1.571841E+06  1.843650E-09  5.323479E-10
       110  12 -4.314972E+06 -8.115635E+05 -4.196334E+05 -1.504785E+06  1.413877E-09  1.793449E-11
       110  13 -3.320130E+06 -9.146176E+05 -6.047487E+05 -1.107104E+06 -3.737357E-10 -5.053236E-10
       110  14 -3.193396E+06 -4.070069E+05 -2.530456E+05 -1.243320E+06  1.806077E-09  6.349764E-11
       110  15 -3.255563E+06 -4.701319E+05 -1.520415E+05 -1.274834E+06  2.379784E-09  3.772039E-10
       110  16 -2.282335E+06 -3.796819E+05 -2.940106E+05 -6.793711E+05  1.173903E-09 -9.783743E-11
       110  17 -2.145862E+06  2.944984E+04  3.024275E+04 -9.142696E+05  3.443073E-09  1.904426E-10
       110  18 -2.195061E+06 -1.286993E+05  1.154632E+05 -1.044561E+06  2.436511E-09  1.429469E-09
       110  19 -4.356641E+06 -1.449117E+06 -9.152398E+05 -1.534049E+06  4.078568E+05  1.396491E+05
       110  20 -4.239778E+06 -8.433042E+05 -5.362931E+05 -1.571829E+06  2.657087E+05  5.590015E+04
       110  21 -4.314958E+06 -8.115601E+05 -4.196093E+05 -1.504785E+06  1.129339E+05  1.771263E+02
       110  22 -3.319963E+06 -9.145581E+05 -6.044316E+05 -1.107062E+06  3.876385E+05  1.321110E+05
       110  23 -3.193322E+06 -4.069856E+05 -2.529127E+05 -1.243308E+06  2.596899E+05  5.365263E+04
       110  24 -3.255547E+06 -4.701279E+05 -1.520137E+05 -1.274834E+06  1.211247E+05  3.258462E+03
       110  25 -2.282185E+06 -3.796288E+05 -2.937267E+05 -6.793342E+05  3.673824E+05  1.245469E+05
       110  26 -2.145792E+06  2.947005E+04  3.036913E+04 -9.142591E+05  2.536595E+05  5.139973E+04
       110  27 -2.195043E+06 -1.286947E+05  1.154948E+05 -1.044560E+06  1.293307E+05  6.343626E+03
       111   1 -4.151264E+06 -8.925939E+05 -3.680269E+05 -1.505471E+06 -9.758916E+04 -8.507191E+02
       111   2 -4.087414E+06 -7.853711E+05 -2.837360E+05 -1.469251E+06 -6.511691E+04  1.001005E+04
       111   3 -4.008052E+06 -7.747941E+05 -2.386214E+05 -1.464801E+06 -3.178885E+04  1.859566E+04
       111   4 -3.234290E+06 -5.334739E+05 -1.234080E+05 -1.241474E+06 -9.771183E+04 -9.031885E+02
       111   5 -3.238838E+06 -4.622407E+05 -5.964071E+04 -1.234230E+06 -6.636392E+04  9.537315E+03
       111   6 -3.227623E+06 -4.873757E+05 -3.410851E+04 -1.258761E+06 -3.416474E+04  1.770142E+04
       111   7 -2.316492E+06 -1.742830E+05  1.211378E+05 -9.771151E+05 -9.783460E+04 -9.556991E+02
       111   8 -2.389560E+06 -1.390613E+05  1.643928E+05 -9.989148E+05 -6.761277E+04  9.063878E+03
       111   9 -2.446602E+06 -1.999267E+05  1.703527E+05 -1.052489E+06 -3.654391E+04  1.680600E+04
       111  10 -4.151274E+06 -8.925965E+05 -3.680449E+05 -1.505471E+06  7.129915E-10  4.509338E-10
       111  11 -4.087418E+06 -7.853724E+05 -2.837442E+05 -1.469250E+06  9.034955E-10  7.692299E-10
       111  12 -4.008053E+06 -7.747948E+05 -2.386240E+05 -1.464801E+06  1.948431E-09  5.369202E-10
       111  13 -3.234300E+06 -5.334765E+05 -1.234261E+05 -1.241474E+06  2.298088E-09 -7.682750E-11
       111  14 -3.238843E+06 -4.622420E+05 -5.964919E+04 -1.234229E+06  2.155871E-09 -6.026727E-11
       111  15 -3.227625E+06 -4.873763E+05 -3.411130E+04 -1.258761E+06  2.267767E-09 -1.350198E-10
       111  16 -2.316503E+06 -1.742856E+05  1.211197E+05 -9.771151E+05  4.542407E-10  1.402376E-09
       111  17 -2.389565E+06 -1.390627E+05  1.643840E+05 -9.989143E+05 -9.403624E-11  3.708729E-11
       111  18 -2.446604E+06 -1.999274E+05  1.703497E+05 -1.052488E+06  4.598683E-10  4.375797E-11
       111  19 -4.151264E+06 -8.925939E+05 -3.680269E+05 -1.505471E+06  9.758916E+04  8.507191E+02
       111  20 -4.087414E+06 -7.853711E+05 -2.837360E+05 -1.469251E+06  6.511691E+04 -1.001005E+04
       111  21 -4.008052E+06 -7.747941E+05 -2.386214E+05 -1.464801E+06  3.178885E+04 -1.859566E+04
       111  22 -3.234290E+06 -5.334739E+05 -1.234080E+05 -1.241474E+06  9.771183E+04  9.031885E+02
       111  23 -3.238838E+06 -4.622407E+05 -5.964071E+04 -1.234230E+06  6.636392E+04 -9.537315E+03
       111  24 -3.227623E+06 -4.873757E+05 -3.410851E+04 -1.258761E+06  3.416474E+04 -1.770142E+04
       111  25 -2.316492E+06 -1.742830E+05  1.211378E+05 -9.771151E+05  9.783460E+04  9.556991E+02
       111  26 -2.389560E+06 -1.390613E+05  1.643928E+05 -9.989148E+05  6.761277E+04 -9.063878E+03
       111  27 -2.446602E+06 -1.999267E+05  1.703527E+05 -1.052489E+06  3.654391E+04 -1.680600E+04
       112   1 -3.891605E+06 -7.470733E+05 -2.022480E+05 -1.439347E+06 -2.654668E+04  1.777519E+04
       112   2 -3.826902E+06 -6.854767E+05 -1.669795E+05 -1.390146E+06 -1.797567E+04  1.677661E+04
       112   3 -3.719047E+06 -6.756305E+05 -1.385764E+05 -1.392205E+06 -9.291361E+03  1.546317E+04
       112   4 -3.223977E+06 -4.949361E+05 -2.657218E+04 -1.256507E+06 -2.837893E+04  1.708585E+04
       112   5 -3.245208E+06 -4.666625E+05 -1.388969E+04 -1.231775E+06 -1.996201E+04  1.603091E+04
       112   6 -3.223261E+06 -4.901024E+05 -7.943529E+03 -1.258302E+06 -1.143292E+04  1.466085E+04
       112   7 -2.555916E+06 -2.427715E+05  1.490649E+05 -1.073489E+06 -3.021334E+04  1.639569E+04
       112   8 -2.663184E+06 -2.478277E+05  1.391711E+05 -1.073269E+06 -2.195040E+04  1.528443E+04
       112   9 -2.727235E+06 -3.045594E+05  1.226687E+05 -1.124303E+06 -1.357638E+04  1.385782E+04
       112  10 -3.891606E+06 -7.470738E+05 -2.022499E+05 -1.439346E+06  2.887791E-09  9.384029E-10
       112  11 -3.826903E+06 -6.854771E+05 -1.669806E+05 -1.390146E+06  4.820360E-09  9.234937E-10
       112  12 -3.719047E+06 -6.756308E+05 -1.385770E+05 -1.392205E+06  3.289398E-09  1.638464E-10
       112  13 -3.223978E+06 -4.949366E+05 -2.657424E+04 -1.256507E+06  3.463415E-09  3.875292E-10
       112  14 -3.245208E+06 -4.666629E+05 -1.389092E+04 -1.231775E+06  5.719925E-11  4.077489E-10
       112  15 -3.223261E+06 -4.901026E+05 -7.944178E+03 -1.258302E+06  1.616171E-09 -1.235301E-10
       112  16 -2.555917E+06 -2.427720E+05  1.490626E+05 -1.073488E+06  1.997100E-09  7.056937E-10
       112  17 -2.663184E+06 -2.478281E+05  1.391698E+05 -1.073268E+06  1.382451E-09  1.063181E-09
       112  18 -2.727235E+06 -3.045596E+05  1.226680E+05 -1.124303E+06 -5.086542E-10 -3.159945E-10
       112  19 -3.891605E+06 -7.470733E+05 -2.022480E+05 -1.439347E+06  2.654668E+04 -1.777519E+04
       112  20 -3.826902E+06 -6.854767E+05 -1.669795E+05 -1.390146E+06  1.797567E+04 -1.677661E+04
       112  21 -3.719047E+06 -6.756305E+05 -1.385764E+05 -1.392205E+06  9.291361E+03 -1.546317E+04
       112  22 -3.223977E+06 -4.949361E+05 -2.657218E+04 -1.256507E+06  2.837893E+04 -1.708585E+04
       112  23 -3.245208E+06 -4.666625E+05 -1.388969E+04 -1.231775E+06  1.996201E+04 -1.603091E+04
       112  24 -3.223261E+06 -4.901024E+05 -7.943529E+03 -1.258302E+06  1.143292E+04 -1.466085E+04
       112  25 -2.555916E+06 -2.427715E+05  1.490649E+05 -1.073489E+06  3.021334E+04 -1.639569E+04
       112  26 -2.663184E+06 -2.478277E+05  1.391711E+05 -1.073269E+06  2.195040E+04 -1.528443E+04
       112  27 -2.727235E+06 -3.045594E+05  1.226687E+05 -1.124303E+06  1.357638E+04 -1.385782E+04
       113   1 -3.598166E+06 -6.326507E+05 -1.047945E+05 -1.360973E+06 -7.241080E+03  1.346791E+04
       113   2 -3.529267E+06 -5.723235E+05 -7.817697E+04 -1.307305E+06 -3.702068E+03  1.002567E+04
       113   3 -3.411467E+06 -5.620009E+05 -5.319658E+04 -1.310242E+06 -1.314917E+02  6.491367E+03
       113   4 -3.222210E+06 -4.915091E+05 -6.236753E+03 -1.258807E+06 -9.369335E+03  1.267134E+04
       113   5 -3.246614E+06 -4.662549E+05 -3.849278E+03 -1.230596E+06 -5.876439E+03  9.212592E+03
       113   6 -3.222118E+06 -4.909941E+05 -3.060893E+03 -1.258991E+06 -2.352344E+03  5.661722E+03
       113   7 -2.846116E+06 -3.503586E+05  9.230911E+04 -1.156585E+06 -1.149901E+04  1.187425E+04
       113   8 -2.963885E+06 -3.601820E+05  7.047120E+04 -1.153855E+06 -8.051892E+03  8.399112E+03
       113   9 -3.032737E+06 -4.199859E+05  4.707111E+04 -1.207726E+06 -4.573918E+03  4.831808E+03
       113  10 -3.598166E+06 -6.326509E+05 -1.047949E+05 -1.360973E+06  1.511993E-09 -9.372798E-10
       113  11 -3.529267E+06 -5.723236E+05 -7.817718E+04 -1.307305E+06  3.520448E-09  7.357734E-10
       113  12 -3.411467E+06 -5.620010E+05 -5.319666E+04 -1.310242E+06  5.417626E-10 -1.905007E-09
       113  13 -3.222210E+06 -4.915092E+05 -6.237219E+03 -1.258807E+06 -4.963208E-10 -7.855773E-10
       113  14 -3.246615E+06 -4.662550E+05 -3.849502E+03 -1.230596E+06  1.447361E-09  1.107492E-10
       113  15 -3.222118E+06 -4.909941E+05 -3.060963E+03 -1.258991E+06  1.186635E-09 -3.737831E-10
       113  16 -2.846116E+06 -3.503588E+05  9.230860E+04 -1.156584E+06 -1.441939E-10  2.379599E-10
       113  17 -2.963885E+06 -3.601821E+05  7.047095E+04 -1.153855E+06  1.642430E-09  1.616748E-09
       113  18 -3.032737E+06 -4.199859E+05  4.707102E+04 -1.207726E+06 -1.147740E-09  9.690085E-10
       113  19 -3.598166E+06 -6.326507E+05 -1.047945E+05 -1.360973E+06  7.241080E+03 -1.346791E+04
       113  20 -3.529267E+06 -5.723235E+05 -7.817697E+04 -1.307305E+06  3.702068E+03 -1.002567E+04
       113  21 -3.411467E+06 -5.620009E+05 -5.319658E+04 -1.310242E+06  1.314917E+02 -6.491367E+03
       113  22 -3.222210E+06 -4.915091E+05 -6.236753E+03 -1.258807E+06  9.369335E+03 -1.267134E+04
       113  23 -3.246614E+06 -4.662549E+05 -3.849278E+03 -1.230596E+06  5.876439E+03 -9.212592E+03
       113  24 -3.222118E+06 -4.909941E+05 -3.060893E+03 -1.258991E+06  2.352344E+03 -5.661722E+03
       113  25 -2.846116E+06 -3.503586E+05  9.230911E+04 -1.156585E+06  1.149901E+04 -1.187425E+04
       113  26 -2.963885E+06 -3.601820E+05  7.047120E+04 -1.153855E+06  8.051892E+03 -8.399112E+03
       113  27 -3.032737E+06 -4.199859E+05  4.707111E+04 -1.207726E+06  4.573918E+03 -4.831808E+03
       114   1 -3.285962E+06 -5.152752E+05 -1.957781E+04 -1.276745E+06  1.325277E+03  4.161393E+03
       114   2 -3.215586E+06 -4.542237E+05  4.286689E+03 -1.221799E+06  4.900420E+03  5.696104E+02
       114   3 -3.095415E+06 -4.442089E+05  2.649588E+04 -1.224682E+06  8.469027E+03 -3.002446E+03
       114   4 -3.221913E+06 -4.912280E+05 -3.083999E+03 -1.259258E+06 -9.044901E+02  3.328663E+03
       114   5 -3.246836E+06 -4.659288E+05 -3.925327E+03 -1.230260E+06  2.680468E+03 -2.595832E+02
       114   6 -3.221976E+06 -4.916699E+05 -6.429546E+03 -1.259094E+06  6.258542E+03 -3.828186E+03
       114   7 -3.157858E+06 -4.671802E+05  1.340967E+04 -1.241770E+06 -3.134532E+03  2.495829E+03
       114   8 -3.278085E+06 -4.776339E+05 -1.213748E+04 -1.238720E+06  4.606203E+02 -1.088738E+03
       114   9 -3.348523E+06 -5.391302E+05 -3.935654E+04 -1.293500E+06  4.048538E+03 -4.653746E+03
       114  10 -3.285962E+06 -5.152752E+05 -1.957785E+04 -1.276745E+06 -7.822421E-10 -2.374752E-09
       114  11 -3.215586E+06 -4.542237E+05  4.286643E+03 -1.221799E+06  3.295820E-11 -2.304995E-10
       114  12 -3.095415E+06 -4.442089E+05  2.649573E+04 -1.224682E+06 -1.022919E-09 -1.101243E-09
       114  13 -3.221913E+06 -4.912280E+05 -3.084021E+03 -1.259258E+06  9.697619E-10 -4.594090E-10
       114  14 -3.246836E+06 -4.659288E+05 -3.925340E+03 -1.230260E+06 -3.464073E-10 -1.216744E-09
       114  15 -3.221976E+06 -4.916699E+05 -6.429647E+03 -1.259094E+06 -1.847254E-09  1.614527E-09
       114  16 -3.157858E+06 -4.671802E+05  1.340964E+04 -1.241770E+06  4.249547E-11  5.298080E-10
       114  17 -3.278085E+06 -4.776339E+05 -1.213748E+04 -1.238720E+06  6.019915E-10  4.246282E-10
       114  18 -3.348523E+06 -5.391302E+05 -3.935661E+04 -1.293500E+06 -2.065826E-09  5.842347E-10
       114  19 -3.285962E+06 -5.152752E+05 -1.957781E+04 -1.276745E+06 -1.325277E+03 -4.161393E+03
       114  20 -3.215586E+06 -4.542237E+05  4.286689E+03 -1.221799E+06 -4.900420E+03 -5.696104E+02
       114  21 -3.095415E+06 -4.442089E+05  2.649588E+04 -1.224682E+06 -8.469027E+03  3.002446E+03
       114  22 -3.221913E+06 -4.912280E+05 -3.083999E+03 -1.259258E+06  9.044901E+02 -3.328663E+03
       114  23 -3.246836E+06 -4.659288E+05 -3.925327E+03 -1.230260E+06 -2.680468E+03  2.595832E+02
       114  24 -3.221976E+06 -4.916699E+05 -6.429546E+03 -1.259094E+06 -6.258542E+03  3.828186E+03
       114  25 -3.157858E+06 -4.671802E+05  1.340967E+04 -1.241770E+06  3.134532E+03 -2.495829E+03
       114  26 -3.278085E+06 -4.776339E+05 -1.213748E+04 -1.238720E+06 -4.606203E+02  1.088738E+03
       114  27 -3.348523E+06 -5.391302E+05 -3.935654E+04 -1.293500E+06 -4.048538E+03  4.653746E+03
       115   1 -2.971121E+06 -3.970480E+05  5.811116E+04 -1.191675E+06  1.063456E+04 -5.066443E+03
       115   2 -2.902567E+06 -3.367031E+05  7.592117E+04 -1.137395E+06  1.937780E+04 -6.617510E+03
       115   3 -2.788255E+06 -3.312847E+05  8.677139E+04 -1.137940E+06  2.804166E+04 -7.943255E+03
       115   4 -3.222636E+06 -4.907027E+05 -8.221652E+03 -1.259120E+06  8.398810E+03 -5.901964E+03
       115   5 -3.245864E+06 -4.657006E+05 -1.435535E+04 -1.230788E+06  1.725333E+04 -7.412371E+03
       115   6 -3.223366E+06 -4.956513E+05 -2.754011E+04 -1.257286E+06  2.602735E+04 -8.697815E+03
       115   7 -3.474085E+06 -5.843529E+05 -7.455907E+04 -1.326540E+06  6.164081E+03 -6.737110E+03
       115   8 -3.589045E+06 -5.946905E+05 -1.046416E+05 -1.324134E+06  1.513016E+04 -8.206744E+03
       115   9 -3.658295E+06 -6.600066E+05 -1.418684E+05 -1.376556E+06  2.401458E+04 -9.451790E+03
       115  10 -2.971121E+06 -3.970481E+05  5.811090E+04 -1.191675E+06  2.227101E-09  1.223084E-09
       115  11 -2.902568E+06 -3.367033E+05  7.592038E+04 -1.137395E+06  2.468263E-09  5.143398E-10
       115  12 -2.788256E+06 -3.312850E+05  8.676979E+04 -1.137940E+06  5.800459E-10  4.103226E-12
       115  13 -3.222636E+06 -4.907028E+05 -8.221851E+03 -1.259120E+06  1.919692E-09  1.291429E-09
       115  14 -3.245864E+06 -4.657007E+05 -1.435601E+04 -1.230788E+06  3.420587E-10  1.625067E-09
       115  15 -3.223367E+06 -4.956516E+05 -2.754152E+04 -1.257286E+06 -1.981060E-11 -2.487373E-10
       115  16 -3.474085E+06 -5.843529E+05 -7.455923E+04 -1.326540E+06 -7.988084E-10 -5.481737E-10
       115  17 -3.589045E+06 -5.946906E+05 -1.046422E+05 -1.324134E+06  2.255083E-09  1.563515E-09
       115  18 -3.658295E+06 -6.600069E+05 -1.418696E+05 -1.376556E+06 -3.248896E-10  7.278471E-10
       115  19 -2.971121E+06 -3.970480E+05  5.811116E+04 -1.191675E+06 -1.063456E+04  5.066443E+03
       115  20 -2.902567E+06 -3.367031E+05  7.592117E+04 -1.137395E+06 -1.937780E+04  6.617510E+03
       115  21 -2.788255E+06 -3.312847E+05  8.677139E+04 -1.137940E+06 -2.804166E+04  7.943255E+03
       115  22 -3.222636E+06 -4.907027E+05 -8.221652E+03 -1.259120E+06 -8.398810E+03  5.901964E+03
       115  23 -3.245864E+06 -4.657006E+05 -1.435535E+04 -1.230788E+06 -1.725333E+04  7.412371E+03
       115  24 -3.223366E+06 -4.956513E+05 -2.754011E+04 -1.257286E+06 -2.602735E+04  8.697815E+03
       115  25 -3.474085E+06 -5.843529E+05 -7.455907E+04 -1.326540E+06 -6.164081E+03  6.737110E+03
       115  26 -3.589045E+06 -5.946905E+05 -1.046416E+05 -1.324134E+06 -1.513016E+04  8.206744E+03
       115  27 -3.658295E+06 -6.600066E+05 -1.418684E+05 -1.376556E+06 -2.401458E+04  9.451790E+03
       116   1 -2.668536E+06 -2.851997E+05  1.104353E+05 -1.115216E+06  3.455040E+04 -8.477820E+03
       116   2 -2.604212E+06 -2.181570E+05  1.059925E+05 -1.056067E+06  6.705370E+04 -6.885470E+02
       116   3 -2.520431E+06 -2.542221E+05  6.261319E+04 -1.034017E+06  9.883841E+04  9.042936E+03
       116   4 -3.226726E+06 -4.882886E+05 -3.536673E+04 -1.260145E+06  3.205507E+04 -9.412907E+03
       116   5 -3.239779E+06 -4.605117E+05 -6.177798E+04 -1.232663E+06  6.552463E+04 -1.264067E+03
       116   6 -3.233598E+06 -5.360799E+05 -1.279271E+05 -1.242283E+06  9.827093E+04  8.825081E+03
       116   7 -3.784614E+06 -6.913636E+05 -1.811950E+05 -1.404957E+06  2.956220E+04 -1.034714E+04
       116   8 -3.874951E+06 -7.028383E+05 -2.295831E+05 -1.409093E+06  6.399725E+04 -1.838930E+03
       116   9 -3.946267E+06 -8.178915E+05 -3.185117E+05 -1.450326E+06  9.770411E+04  8.607501E+03
       116  10 -2.668538E+06 -2.852001E+05  1.104329E+05 -1.115216E+06  8.820192E-10 -5.333069E-10
       116  11 -2.604217E+06 -2.181582E+05  1.059841E+05 -1.056067E+06 -1.231509E-09  2.789077E-12
       116  12 -2.520441E+06 -2.542248E+05  6.259460E+04 -1.034018E+06 -2.807989E-09  4.518200E-10
       116  13 -3.226728E+06 -4.882889E+05 -3.536883E+04 -1.260145E+06 -4.477570E-11  2.483550E-10
       116  14 -3.239783E+06 -4.605129E+05 -6.178609E+04 -1.232663E+06 -7.954080E-10  2.482877E-10
       116  15 -3.233608E+06 -5.360826E+05 -1.279455E+05 -1.242284E+06  2.601171E-11  5.313028E-10
       116  16 -3.784615E+06 -6.913639E+05 -1.811968E+05 -1.404957E+06 -5.814083E-10  9.158833E-10
       116  17 -3.874955E+06 -7.028394E+05 -2.295908E+05 -1.409093E+06 -1.087461E-10 -1.584918E-10
       116  18 -3.946277E+06 -8.178942E+05 -3.185299E+05 -1.450327E+06  1.736122E-09  3.778367E-10
       116  19 -2.668536E+06 -2.851997E+05  1.104353E+05 -1.115216E+06 -3.455040E+04  8.477820E+03
       116  20 -2.604212E+06 -2.181570E+05  1.059925E+05 -1.056067E+06 -6.705370E+04  6.885470E+02
       116  21 -2.520431E+06 -2.542221E+05  6.261319E+04 -1.034017E+06 -9.883841E+04 -9.042936E+03
       116  22 -3.226726E+06 -4.882886E+05 -3.536673E+04 -1.260145E+06 -3.205507E+04  9.412907E+03
       116  23 -3.239779E+06 -4.605117E+05 -6.177798E+04 -1.232663E+06 -6.552463E+04  1.264067E+03
       116  24 -3.233598E+06 -5.360799E+05 -1.279271E+05 -1.242283E+06 -9.827093E+04 -8.825081E+03
       116  25 -3.784614E+06 -6.913636E+05 -1.811950E+05 -1.404957E+06 -2.956220E+04  1.034714E+04
       116  26 -3.874951E+06 -7.028383E+05 -2.295831E+05 -1.409093E+06 -6.399725E+04  1.838930E+03
       116  27 -3.946267E+06 -8.178915E+05 -3.185117E+05 -1.450326E+06 -9.770411E+04 -8.607501E+03
       117   1 -2.383444E+06 -2.031829E+05  5.991387E+04 -1.101683E+06  1.299626E+05  1.450994E+04
       117   2 -2.324132E+06 -3.312654E+04 -2.565134E+04 -9.606998E+05  2.615398E+05  6.132096E+04
       117   3 -2.452601E+06 -4.575611E+05 -3.610357E+05 -7.181285E+05  3.839767E+05  1.324760E+05
       117   4 -3.255288E+06 -4.707800E+05 -1.575811E+05 -1.277270E+06  1.223845E+05  1.167481E+04
       117   5 -3.193135E+06 -4.026291E+05 -2.620872E+05 -1.241420E+06  2.662902E+05  6.308315E+04
       117   6 -3.321563E+06 -9.319713E+05 -6.265024E+05 -1.103906E+06  4.010455E+05  1.387966E+05
       117   7 -4.126394E+06 -7.383854E+05 -3.751330E+05 -1.452662E+06  1.148181E+05  8.842191E+03
       117   8 -4.061395E+06 -7.720240E+05 -4.985908E+05 -1.521763E+06  2.710330E+05  6.484165E+04
       117   9 -4.189730E+06 -1.406049E+06 -8.920384E+05 -1.489108E+06  4.180877E+05  1.450969E+05
       117  10 -2.383462E+06 -2.031877E+05  5.988160E+04 -1.101684E+06 -1.483781E-09  9.305485E-10
       117  11 -2.324207E+06 -3.314906E+04 -2.578754E+04 -9.607128E+05  9.279156E-10  9.403570E-10
       117  12 -2.452764E+06 -4.576198E+05 -3.613471E+05 -7.181696E+05  1.976566E-10  1.302152E-10
       117  13 -3.255305E+06 -4.707842E+05 -1.576097E+05 -1.277271E+06 -5.229582E-10  6.236865E-10
       117  14 -3.193213E+06 -4.026525E+05 -2.622287E+05 -1.241434E+06  1.518033E-09  6.726564E-10
       117  15 -3.321742E+06 -9.320356E+05 -6.268429E+05 -1.103951E+06  9.479995E-10 -2.025768E-10
       117  16 -4.126409E+06 -7.383890E+05 -3.751581E+05 -1.452663E+06  3.960640E-11  7.291382E-10
       117  17 -4.061475E+06 -7.720485E+05 -4.987378E+05 -1.521777E+06 -9.710723E-10  6.841315E-10
       117  18 -4.189924E+06 -1.406119E+06 -8.924093E+05 -1.489157E+06  4.306175E-10 -2.981787E-10
       117  19 -2.383444E+06 -2.031829E+05  5.991387E+04 -1.101683E+06 -1.299626E+05 -1.450994E+04
       117  20 -2.324132E+06 -3.312654E+04 -2.565134E+04 -9.606998E+05 -2.615398E+05 -6.132096E+04
       117  21 -2.452601E+06 -4.575611E+05 -3.610357E+05 -7.181285E+05 -3.839767E+05 -1.324760E+05
       117  22 -3.255288E+06 -4.707800E+05 -1.575811E+05 -1.277270E+06 -1.223845E+05 -1.167481E+04
       117  23 -3.193135E+06 -4.026291E+05 -2.620872E+05 -1.241420E+06 -2.662902E+05 -6.308315E+04
       117  24 -3.321563E+06 -9.319713E+05 -6.265024E+05 -1.103906E+06 -4.010455E+05 -1.387966E+05
       117  25 -4.126394E+06 -7.383854E+05 -3.751330E+05 -1.452662E+06 -1.148181E+05 -8.842191E+03
       117  26 -4.061395E+06 -7.720240E+05 -4.985908E+05 -1.521763E+06 -2.710330E+05 -6.484165E+04
       117  27 -4.189730E+06 -1.406049E+06 -8.920384E+05 -1.489108E+06 -4.180877E+05 -1.450969E+05
       118   1 -5.557940E+05  5.517265E+04  1.019378E+05  3.896345E+04  1.432428E+05  5.288652E+03
       118   2 -5.472426E+05 -1.340335E+05 -9.281888E+03  9.944015E+03  9.683298E+04  1.553710E+04
       118   3 -4.794633E+05 -1.116055E+05 -3.729709E+04 -4.484196E+04  5.043020E+04  1.454884E+04
       118   4 -6.687554E+04  1.769065E+05  2.223322E+05 -2.045259E+04  1.521102E+05  5.283945E+03
       118   5 -9.700998E+04 -2.257892E+04  9.775339E+04 -7.480743E+03  9.946181E+04  1.553574E+04
       118   6 -6.688307E+04 -9.436611E+03  6.066621E+04 -2.027396E+04  4.682401E+04  1.454815E+04
       118   7  4.222683E+05  2.986360E+05  3.427111E+05 -7.991558E+04  1.609845E+05  5.277545E+03
       118   8  3.534096E+05  8.886222E+04  2.047747E+05 -2.491825E+04  1.020925E+05  1.553423E+04
       118   9  3.458549E+05  9.272224E+04  1.586180E+05  4.310448E+03  4.321544E+04  1.454718E+04
       118  10 -5.558160E+05  5.516711E+04  1.018992E+05  3.896284E+04  3.841629E-11  3.121507E-10
       118  11 -5.472528E+05 -1.340363E+05 -9.299976E+03  9.942803E+03 -1.615827E-09 -2.832454E-10
       118  12 -4.794661E+05 -1.116064E+05 -3.730227E+04 -4.484255E+04 -1.121929E-09  5.368380E-10
       118  13 -6.690039E+04  1.769003E+05  2.222886E+05 -2.045324E+04  1.306152E-10  4.940673E-11
       118  14 -9.702066E+04 -2.258183E+04  9.773435E+04 -7.481987E+03 -2.206971E-09 -1.187371E-09
       118  15 -6.688548E+04 -9.437427E+03  6.066169E+04 -2.027450E+04 -2.631324E-09  4.887936E-10
       118  16  4.222405E+05  2.986291E+05  3.426624E+05 -7.991626E+04  4.686117E-10 -3.060852E-10
       118  17  3.533983E+05  8.885916E+04  2.047547E+05 -2.491952E+04 -7.958484E-10 -5.630017E-10
       118  18  3.458528E+05  9.272151E+04  1.586141E+05  4.309942E+03  1.804255E-10  1.851321E-11
       118  19 -5.557940E+05  5.517265E+04  1.019378E+05  3.896345E+04 -1.432428E+05 -5.288652E+03
       118  20 -5.472426E+05 -1.340335E+05 -9.281888E+03  9.944015E+03 -9.683298E+04 -1.553710E+04
       118  21 -4.794633E+05 -1.116055E+05 -3.729709E+04 -4.484196E+04 -5.043020E+04 -1.454884E+04
       118  22 -6.687554E+04  1.769065E+05  2.223322E+05 -2.045259E+04 -1.521102E+05 -5.283945E+03
       118  23 -9.700998E+04 -2.257892E+04  9.775339E+04 -7.480743E+03 -9.946181E+04 -1.553574E+04
       118  24 -6.688307E+04 -9.436611E+03  6.066621E+04 -2.027396E+04 -4.682401E+04 -1.454815E+04
       118  25  4.222683E+05  2.986360E+05  3.427111E+05 -7.991558E+04 -1.609845E+05 -5.277545E+03
       118  26  3.534096E+05  8.886222E+04  2.047747E+05 -2.491825E+04 -1.020925E+05 -1.553423E+04
       118  27  3.458549E+05  9.272224E+04  1.586180E+05  4.310448E+03 -4.321544E+04 -1.454718E+04
       119   1 -4.448175E+05 -7.340784E+04 -3.787552E+04 -1.530850E+04  3.774081E+04  1.205481E+04
       119   2 -4.102008E+05 -8.355133E+04 -5.266700E+04 -6.146409E+03  2.522567E+04  1.122136E+04
       119   3 -3.685897E+05 -7.273187E+04 -5.403894E+04 -2.296593E+04  1.270944E+04  9.636539E+03
       119   4 -7.869399E+04  1.727975E+04  4.935432E+04 -2.037741E+04  3.750611E+04  1.205392E+04
       119   5 -8.222341E+04 -2.340049E+03  2.531970E+04 -7.383804E+03  2.456944E+04  1.122074E+04
       119   6 -7.869045E+04 -9.300271E+02  1.499172E+04 -2.037077E+04  1.163243E+04  9.636209E+03
       119   7  2.875526E+05  1.079578E+05  1.365748E+05 -2.544933E+04  3.727127E+04  1.205303E+04
       119   8  2.458528E+05  7.886348E+04  1.032989E+05 -8.621862E+03  2.391285E+04  1.122012E+04
       119   9  2.112859E+05  7.086578E+04  8.401650E+04 -1.777439E+04  1.055493E+04  9.635871E+03
       119  10 -4.448191E+05 -7.340838E+04 -3.787847E+04 -1.530887E+04  9.078936E-10  6.249701E-11
       119  11 -4.102015E+05 -8.355163E+04 -5.266843E+04 -6.146637E+03 -1.245725E-09 -3.315680E-10
       119  12 -3.685899E+05 -7.273201E+04 -5.403942E+04 -2.296603E+04  1.749245E-09 -6.619703E-10
       119  13 -7.869554E+04  1.727921E+04  4.935140E+04 -2.037777E+04  5.553585E-11  3.577833E-10
       119  14 -8.222409E+04 -2.340346E+03  2.531833E+04 -7.384026E+03 -2.732248E-09 -1.140277E-10
       119  15 -7.869062E+04 -9.301631E+02  1.499129E+04 -2.037086E+04  4.235428E-11 -2.984599E-10
       119  16  2.875511E+05  1.079572E+05  1.365719E+05 -2.544970E+04  2.369578E-09  7.372565E-10
       119  17  2.458521E+05  7.886319E+04  1.032976E+05 -8.622078E+03 -1.077659E-09  4.447547E-11
       119  18  2.112858E+05  7.086565E+04  8.401612E+04 -1.777447E+04 -1.360715E-10  1.824906E-10
       119  19 -4.448175E+05 -7.340784E+04 -3.787552E+04 -1.530850E+04 -3.774081E+04 -1.205481E+04
       119  20 -4.102008E+05 -8.355133E+04 -5.266700E+04 -6.146409E+03 -2.522567E+04 -1.122136E+04
       119  21 -3.685897E+05 -7.273187E+04 -5.403894E+04 -2.296593E+04 -1.270944E+04 -9.636539E+03
       119  22 -7.869399E+04  1.727975E+04  4.935432E+04 -2.037741E+04 -3.750611E+04 -1.205392E+04
       119  23 -8.222341E+04 -2.340049E+03  2.531970E+04 -7.383804E+03 -2.456944E+04 -1.122074E+04
       119  24 -7.869045E+04 -9.300271E+02  1.499172E+04 -2.037077E+04 -1.163243E+04 -9.636209E+03
       119  25  2.875526E+05  1.079578E+05  1.365748E+05 -2.544933E+04 -3.727127E+04 -1.205303E+04
       119  26  2.458528E+05  7.886348E+04  1.032989E+05 -8.621862E+03 -2.391285E+04 -1.122012E+04
       119  27  2.112859E+05  7.086578E+04  8.401650E+04 -1.777439E+04 -1.055493E+04 -9.635871E+03
       120   1 -3.233827E+05 -5.859027E+04 -4.607409E+04 -2.005967E+04  1.012935E+04  8.585894E+03
       120   2 -2.856808E+05 -5.105290E+04 -4.236109E+04 -7.328761E+03  6.945708E+03  7.011593E+03
       120   3 -2.470104E+05 -4.144469E+04 -3.604947E+04 -2.065291E+04  3.761181E+03  5.386338E+03
       120   4 -8.003722E+04  1.643305E+03  1.169071E+04 -2.038896E+04  9.277061E+03  8.585671E+03
       120   5 -8.052125E+04 -2.560672E+02  6.419516E+03 -7.361760E+03  6.064122E+03  7.011536E+03
       120   6 -8.003415E+04 -8.005845E+01  3.766394E+03 -2.038906E+04  2.850491E+03  5.386457E+03
       120   7  1.633626E+05  6.187262E+04  6.945138E+04 -2.071837E+04  8.424441E+03  8.585448E+03
       120   8  1.246769E+05  5.053774E+04  5.519718E+04 -7.394770E+03  5.182246E+03  7.011479E+03
       120   9  8.696772E+04  4.128256E+04  4.358030E+04 -2.012514E+04  1.939557E+03  5.386574E+03
       120  10 -3.233828E+05 -5.859038E+04 -4.607442E+04 -2.005974E+04 -6.001719E-11 -3.136431E-10
       120  11 -2.856808E+05 -5.105297E+04 -4.236127E+04 -7.328800E+03 -9.351569E-10  6.606324E-11
       120  12 -2.470105E+05 -4.144473E+04 -3.604955E+04 -2.065292E+04  4.981024E-10  2.585242E-10
       120  13 -8.003733E+04  1.643203E+03  1.169041E+04 -2.038902E+04  1.087431E-09 -2.041255E-10
       120  14 -8.052130E+04 -2.561299E+02  6.419354E+03 -7.361795E+03 -1.619202E-09 -1.398290E-10
       120  15 -8.003416E+04 -8.009179E+01  3.766324E+03 -2.038907E+04  1.237703E-10  1.529338E-10
       120  16  1.633625E+05  6.187252E+04  6.945111E+04 -2.071843E+04 -1.603282E-09 -7.995350E-11
       120  17  1.246769E+05  5.053768E+04  5.519704E+04 -7.394799E+03 -6.736335E-10 -2.635876E-10
       120  18  8.696771E+04  4.128253E+04  4.358024E+04 -2.012515E+04 -2.563132E-09  4.591085E-10
       120  19 -3.233827E+05 -5.859027E+04 -4.607409E+04 -2.005967E+04 -1.012935E+04 -8.585894E+03
       120  20 -2.856808E+05 -5.105290E+04 -4.236109E+04 -7.328761E+03 -6.945708E+03 -7.011593E+03
       120  21 -2.470104E+05 -4.144469E+04 -3.604947E+04 -2.065291E+04 -3.761181E+03 -5.386338E+03
       120  22 -8.003722E+04  1.643305E+03  1.169071E+04 -2.038896E+04 -9.277061E+03 -8.585671E+03
       120  23 -8.052125E+04 -2.560672E+02  6.419516E+03 -7.361760E+03 -6.064122E+03 -7.011536E+03
       120  24 -8.003415E+04 -8.005845E+01  3.766394E+03 -2.038906E+04 -2.850491E+03 -5.386457E+03
       120  25  1.633626E+05  6.187262E+04  6.945138E+04 -2.071837E+04 -8.424441E+03 -8.585448E+03
       120  26  1.246769E+05  5.053774E+04  5.519718E+04 -7.394770E+03 -5.182246E+03 -7.011479E+03
       120  27  8.696772E+04  4.128256E+04  4.358030E+04 -2.012514E+04 -1.939557E+03 -5.386574E+03
       121   1 -2.005579E+05 -2.961844E+04 -2.558584E+04 -2.038290E+04  3.146667E+03  4.431311E+03
       121   2 -1.624021E+05 -2.035673E+04 -1.780050E+04 -7.358720E+03  2.293690E+03  2.805673E+03
       121   3 -1.240918E+05 -1.087676E+04 -9.408044E+03 -2.041734E+04  1.440397E+03  1.176492E+03
       121   4 -8.021224E+04  1.542889E+02  2.912584E+03 -2.039523E+04  2.250630E+03  4.431505E+03
       121   5 -8.028827E+04 -2.714060E+01  1.722234E+03 -7.353961E+03  1.395520E+03  2.805931E+03
       121   6 -8.021095E+04  1.010511E+01  1.140443E+03 -2.039528E+04  5.401463E+02  1.176820E+03
       121   7  4.014675E+04  2.992598E+04  3.141001E+04 -2.040756E+04  1.354419E+03  4.431698E+03
       121   8  1.831736E+03  2.030196E+04  2.124450E+04 -7.349201E+03  4.972320E+02  2.806189E+03
       121   9 -3.632828E+04  1.089683E+04  1.168880E+04 -2.037322E+04 -3.601675E+02  1.177148E+03
       121  10 -2.005579E+05 -2.961846E+04 -2.558590E+04 -2.038292E+04  4.291360E-10  2.721335E-11
       121  11 -1.624021E+05 -2.035674E+04 -1.780052E+04 -7.358725E+03 -1.121433E-09  7.814989E-11
       121  12 -1.240919E+05 -1.087677E+04 -9.408051E+03 -2.041734E+04 -2.756387E-10  2.988300E-10
       121  13 -8.021225E+04  1.542664E+02  2.912538E+03 -2.039524E+04 -3.136115E-12  3.759417E-10
       121  14 -8.028827E+04 -2.714958E+01  1.722215E+03 -7.353964E+03 -1.591676E-09 -4.463336E-10
       121  15 -8.021095E+04  1.010354E+01  1.140440E+03 -2.039528E+04  3.715861E-10  3.438330E-11
       121  16  4.014674E+04  2.992596E+04  3.140997E+04 -2.040757E+04 -4.029732E-10 -7.653357E-11
       121  17  1.831734E+03  2.030195E+04  2.124448E+04 -7.349202E+03 -1.820759E-09 -2.841986E-10
       121  18 -3.632828E+04  1.089683E+04  1.168879E+04 -2.037322E+04  8.505528E-10 -3.618111E-11
       121  19 -2.005579E+05 -2.961844E+04 -2.558584E+04 -2.038290E+04 -3.146667E+03 -4.431311E+03
       121  20 -1.624021E+05 -2.035673E+04 -1.780050E+04 -7.358720E+03 -2.293690E+03 -2.805673E+03
       121  21 -1.240918E+05 -1.087676E+04 -9.408044E+03 -2.041734E+04 -1.440397E+03 -1.176492E+03
       121  22 -8.021224E+04  1.542889E+02  2.912584E+03 -2.039523E+04 -2.250630E+03 -4.431505E+03
       121  23 -8.028827E+04 -2.714060E+01  1.722234E+03 -7.353961E+03 -1.395520E+03 -2.805931E+03
       121  24 -8.021095E+04  1.010511E+01  1.140443E+03 -2.039528E+04 -5.401463E+02 -1.176820E+03
       121  25  4.014675E+04  2.992598E+04  3.141001E+04 -2.040756E+04 -1.354419E+03 -4.431698E+03
       121  26  1.831736E+03  2.030196E+04  2.124450E+04 -7.349201E+03 -4.972320E+02 -2.806189E+03
       121  27 -3.632828E+04  1.089683E+04  1.168880E+04 -2.037322E+04  3.601675E+02 -1.177148E+03
       122   1 -7.744697E+04  7.350597E+02  1.766249E+03 -2.039850E+04  1.247608E+03  2.269884E+02
       122   2 -3.923644E+04  1.014813E+04  1.065149E+04 -7.364120E+03  8.001079E+02 -1.402315E+03
       122   3 -9.625153E+02  1.965581E+04  1.984714E+04 -2.041670E+04  3.527206E+02 -3.028559E+03
       122   4 -8.023065E+04  2.272761E+01  9.885222E+02 -2.039626E+04  3.473472E+02  2.273277E+02
       122   5 -8.026215E+04 -8.190269E+00  8.982577E+02 -7.352723E+03 -9.846817E+01 -1.402012E+03
       122   6 -8.023131E+04  5.545004E+01  1.117474E+03 -2.039625E+04 -5.441438E+02 -3.028287E+03
       122   7 -8.301433E+04 -6.896047E+02  2.107974E+02 -2.039402E+04 -5.529094E+02  2.276670E+02
       122   8 -1.212863E+05 -1.016463E+04 -8.855086E+03 -7.341328E+03 -9.969852E+02 -1.401709E+03
       122   9 -1.594943E+05 -1.954536E+04 -1.761262E+04 -2.037580E+04 -1.440894E+03 -3.028016E+03
       122  10 -7.744697E+04  7.350593E+02  1.766246E+03 -2.039850E+04  1.445856E-09  3.574391E-10
       122  11 -3.923644E+04  1.014813E+04  1.065148E+04 -7.364119E+03 -3.843239E-09  3.341315E-10
       122  12 -9.625179E+02  1.965580E+04  1.984712E+04 -2.041670E+04 -6.899060E-09 -4.324524E-10
       122  13 -8.023065E+04  2.272752E+01  9.885219E+02 -2.039626E+04 -1.092208E-09  9.381907E-10
       122  14 -8.026215E+04 -8.192382E+00  8.982540E+02 -7.352724E+03 -3.159215E-09  9.194178E-10
       122  15 -8.023132E+04  5.544012E+01  1.117456E+03 -2.039625E+04  6.205799E-10 -3.333660E-10
       122  16 -8.301433E+04 -6.896049E+02  2.107967E+02 -2.039402E+04 -3.580751E-09  6.351458E-10
       122  17 -1.212863E+05 -1.016464E+04 -8.855092E+03 -7.341329E+03  3.847326E-09  8.394251E-10
       122  18 -1.594943E+05 -1.954537E+04 -1.761264E+04 -2.037581E+04  6.970611E-09  5.924039E-10
       122  19 -7.744697E+04  7.350597E+02  1.766249E+03 -2.039850E+04 -1.247608E+03 -2.269884E+02
       122  20 -3.923644E+04  1.014813E+04  1.065149E+04 -7.364120E+03 -8.001079E+02  1.402315E+03
       122  21 -9.625153E+02  1.965581E+04  1.984714E+04 -2.041670E+04 -3.527206E+02  3.028559E+03
       122  22 -8.023065E+04  2.272761E+01  9.885222E+02 -2.039626E+04 -3.473472E+02 -2.273277E+02
       122  23 -8.026215E+04 -8.190269E+00  8.982577E+02 -7.352723E+03  9.846817E+01  1.402012E+03
       122  24 -8.023131E+04  5.545004E+01  1.117474E+03 -2.039625E+04  5.441438E+02  3.028287E+03
       122  25 -8.301433E+04 -6.896047E+02  2.107974E+02 -2.039402E+04  5.529094E+02 -2.276670E+02
       122  26 -1.212863E+05 -1.016463E+04 -8.855086E+03 -7.341328E+03  9.969852E+02  1.401709E+03
       122  27 -1.594943E+05 -1.954536E+04 -1.761262E+04 -2.037580E+04  1.440894E+03  3.028016E+03
       123   1  4.574658E+04  3.117911E+04  3.138573E+04 -2.033166E+04  1.454498E+02 -3.983214E+03
       123   2  8.380239E+04  4.055017E+04  4.111520E+04 -7.390055E+03 -9.302592E+02 -5.609040E+03
       123   3  1.221793E+05  5.058277E+04  5.171287E+04 -2.051052E+04 -2.005519E+03 -7.187809E+03
       123   4 -8.017781E+04 -1.606057E+01  1.335698E+03 -2.039082E+04 -7.651112E+02 -3.982996E+03
       123   5 -8.033649E+04 -8.099185E+01  2.096735E+03 -7.359540E+03 -1.814625E+03 -5.608964E+03
       123   6 -8.018042E+04  5.111291E+02  3.707906E+03 -2.039074E+04 -2.863624E+03 -7.187865E+03
       123   7 -2.060877E+05 -3.121237E+04 -2.871544E+04 -2.044998E+04 -1.675488E+03 -3.982777E+03
       123   8 -2.444506E+05 -4.071410E+04 -3.692361E+04 -7.329032E+03 -2.698758E+03 -5.608888E+03
       123   9 -2.825025E+05 -4.956345E+04 -4.429991E+04 -2.027100E+04 -3.721450E+03 -7.187920E+03
       123  10  4.574658E+04  3.117909E+04  3.138570E+04 -2.033166E+04  5.687550E-09 -8.823138E-10
       123  11  8.380238E+04  4.055014E+04  4.111514E+04 -7.390059E+03  2.570640E-09 -1.205083E-09
       123  12  1.221793E+05  5.058271E+04  5.171277E+04 -2.051053E+04 -3.576282E-09  7.178655E-10
       123  13 -8.017782E+04 -1.607776E+01  1.335668E+03 -2.039083E+04 -6.165658E-11 -7.026008E-10
       123  14 -8.033651E+04 -8.102652E+01  2.096670E+03 -7.359548E+03 -2.015443E-11 -1.248301E-09
       123  15 -8.018044E+04  5.110714E+02  3.707793E+03 -2.039076E+04  1.008482E-11  2.857293E-10
       123  16 -2.060877E+05 -3.121239E+04 -2.871548E+04 -2.044998E+04 -2.952027E-09  3.481985E-10
       123  17 -2.444507E+05 -4.071413E+04 -3.692368E+04 -7.329044E+03 -1.859713E-09 -1.097511E-09
       123  18 -2.825025E+05 -4.956351E+04 -4.430003E+04 -2.027102E+04  3.833372E-09 -8.127522E-11
       123  19  4.574658E+04  3.117911E+04  3.138573E+04 -2.033166E+04 -1.454498E+02  3.983214E+03
       123  20  8.380239E+04  4.055017E+04  4.111520E+04 -7.390055E+03  9.302592E+02  5.609040E+03
       123  21  1.221793E+05  5.058277E+04  5.171287E+04 -2.051052E+04  2.005519E+03  7.187809E+03
       123  22 -8.017781E+04 -1.606057E+01  1.335698E+03 -2.039082E+04  7.651112E+02  3.982996E+03
       123  23 -8.033649E+04 -8.099185E+01  2.096735E+03 -7.359540E+03  1.814625E+03  5.608964E+03
       123  24 -8.018042E+04  5.111291E+02  3.707906E+03 -2.039074E+04  2.863624E+03  7.187865E+03
       123  25 -2.060877E+05 -3.121237E+04 -2.871544E+04 -2.044998E+04  1.675488E+03  3.982777E+03
       123  26 -2.444506E+05 -4.071410E+04 -3.692361E+04 -7.329032E+03  2.698758E+03  5.608888E+03
       123  27 -2.825025E+05 -4.956345E+04 -4.429991E+04 -2.027100E+04  3.721450E+03  7.187920E+03
       124   1  1.692109E+05  6.135425E+04  6.400988E+04 -1.958060E+04 -2.543467E+03 -8.229922E+03
       124   2  2.062065E+05  7.031854E+04  7.617780E+04 -7.756788E+03 -6.984483E+03 -9.814791E+03
       124   3  2.455290E+05  8.592763E+04  9.291532E+04 -2.193380E+04 -1.142509E+04 -1.070594E+04
       124   4 -7.975388E+04 -2.915026E+02  4.730340E+03 -2.037694E+04 -3.609036E+03 -8.230089E+03
       124   5 -8.088599E+04 -7.431187E+02  7.937841E+03 -7.376781E+03 -7.665337E+03 -9.815182E+03
       124   6 -7.975812E+04  5.385128E+03  1.544942E+04 -2.037812E+04 -1.172096E+04 -1.070642E+04
       124   7 -3.286618E+05 -6.194172E+04 -5.455354E+04 -2.117296E+04 -4.674179E+03 -8.230254E+03
       124   8 -3.679029E+05 -7.181072E+04 -6.030787E+04 -6.996953E+03 -8.345878E+03 -9.815573E+03
       124   9 -4.049482E+05 -7.516500E+04 -6.202389E+04 -1.882326E+04 -1.201668E+04 -1.070691E+04
       124  10  1.692109E+05  6.135417E+04  6.400974E+04 -1.958061E+04 -3.618272E-10  6.716131E-10
       124  11  2.062064E+05  7.031843E+04  7.617752E+04 -7.756843E+03 -1.435369E-09 -8.270369E-10
       124  12  2.455289E+05  8.592747E+04  9.291486E+04 -2.193390E+04 -1.523730E-09  4.558859E-10
       124  13 -7.975391E+04 -2.915788E+02  4.730189E+03 -2.037696E+04  2.228787E-12  3.553570E-10
       124  14 -8.088608E+04 -7.432379E+02  7.937550E+03 -7.376842E+03  5.012983E-10 -6.756357E-10
       124  15 -7.975829E+04  5.384968E+03  1.544895E+04 -2.037822E+04  5.671066E-10  5.699426E-10
       124  16 -3.286618E+05 -6.194180E+04 -5.455370E+04 -2.117299E+04  3.242138E-10  5.817381E-11
       124  17 -3.679030E+05 -7.181084E+04 -6.030818E+04 -6.997019E+03 -2.153026E-09 -5.913158E-10
       124  18 -4.049484E+05 -7.516516E+04 -6.202437E+04 -1.882337E+04  2.727336E-09  8.988920E-10
       124  19  1.692109E+05  6.135425E+04  6.400988E+04 -1.958060E+04  2.543467E+03  8.229922E+03
       124  20  2.062065E+05  7.031854E+04  7.617780E+04 -7.756788E+03  6.984483E+03  9.814791E+03
       124  21  2.455290E+05  8.592763E+04  9.291532E+04 -2.193380E+04  1.142509E+04  1.070594E+04
       124  22 -7.975388E+04 -2.915026E+02  4.730340E+03 -2.037694E+04  3.609036E+03  8.230089E+03
       124  23 -8.088599E+04 -7.431187E+02  7.937841E+03 -7.376781E+03  7.665337E+03  9.815182E+03
       124  24 -7.975812E+04  5.385128E+03  1.544942E+04 -2.037812E+04  1.172096E+04  1.070642E+04
       124  25 -3.286618E+05 -6.194172E+04 -5.455354E+04 -2.117296E+04  4.674179E+03  8.230254E+03
       124  26 -3.679029E+05 -7.181072E+04 -6.030787E+04 -6.996953E+03  8.345878E+03  9.815573E+03
       124  27 -4.049482E+05 -7.516500E+04 -6.202389E+04 -1.882326E+04  1.201668E+04  1.070691E+04
       125   1  2.958107E+05  8.905038E+04  1.072449E+05 -1.255460E+04 -1.123302E+04 -1.307103E+04
       125   2  3.240090E+05  9.426068E+04  1.278833E+05 -1.282249E+04 -3.342696E+04 -1.407671E+04
       125   3  3.721644E+05  1.669668E+05  1.798801E+05 -3.878428E+04 -5.563015E+04 -4.721816E+03
       125   4 -7.605304E+04 -2.971005E+03  1.898718E+04 -2.029676E+04 -1.463771E+04 -1.307271E+04
       125   5 -8.554199E+04 -7.093112E+03  3.056555E+04 -7.471380E+03 -3.110064E+04 -1.407619E+04
       125   6 -7.605654E+04  5.530940E+04  6.953650E+04 -2.034009E+04 -4.757134E+04 -4.717022E+03
       125   7 -4.477896E+05 -9.500211E+04 -6.928012E+04 -2.803427E+04 -1.804038E+04 -1.307430E+04
       125   8 -4.949390E+05 -1.084589E+05 -6.676387E+04 -2.123841E+03 -2.877585E+04 -1.407564E+04
       125   9 -5.240939E+05 -5.636165E+04 -4.082154E+04 -1.909277E+03 -3.951832E+04 -4.711748E+03
       125  10  2.958105E+05  8.905016E+04  1.072444E+05 -1.255472E+04  1.481758E-09  6.943887E-10
       125  11  3.240077E+05  9.426016E+04  1.278808E+05 -1.282287E+04 -1.449593E-10 -3.942955E-10
       125  12  3.721611E+05  1.669660E+05  1.798743E+05 -3.878449E+04  4.790419E-10  1.236229E-10
       125  13 -7.605331E+04 -2.971246E+03  1.898646E+04 -2.029692E+04 -9.720129E-10  1.013710E-10
       125  14 -8.554308E+04 -7.093585E+03  3.056336E+04 -7.471733E+03  9.862233E-10 -2.933602E-10
       125  15 -7.605898E+04  5.530877E+04  6.953220E+04 -2.034028E+04  2.067335E-09 -5.936131E-10
       125  16 -4.477900E+05 -9.500238E+04 -6.928106E+04 -2.803446E+04 -1.013565E-09  8.329228E-10
       125  17 -4.949399E+05 -1.084593E+05 -6.676580E+04 -2.124167E+03 -1.661305E-09 -7.875344E-10
       125  18 -5.240956E+05 -5.636210E+04 -4.082452E+04 -1.909427E+03 -1.710209E-10  3.312793E-10
       125  19  2.958107E+05  8.905038E+04  1.072449E+05 -1.255460E+04  1.123302E+04  1.307103E+04
       125  20  3.240090E+05  9.426068E+04  1.278833E+05 -1.282249E+04  3.342696E+04  1.407671E+04
       125  21  3.721644E+05  1.669668E+05  1.798801E+05 -3.878428E+04  5.563015E+04  4.721816E+03
       125  22 -7.605304E+04 -2.971005E+03  1.898718E+04 -2.029676E+04  1.463771E+04  1.307271E+04
       125  23 -8.554199E+04 -7.093112E+03  3.056555E+04 -7.471380E+03  3.110064E+04  1.407619E+04
       125  24 -7.605654E+04  5.530940E+04  6.953650E+04 -2.034009E+04  4.757134E+04  4.717022E+03
       125  25 -4.477896E+05 -9.500211E+04 -6.928012E+04 -2.803427E+04  1.804038E+04  1.307430E+04
       125  26 -4.949390E+05 -1.084589E+05 -6.676387E+04 -2.123841E+03  2.877585E+04  1.407564E+04
       125  27 -5.240939E+05 -5.636165E+04 -4.082154E+04 -1.909277E+03  3.951832E+04  4.711748E+03
       126   1  4.949311E+05  8.198459E+05  4.863289E+05 -2.267474E+05  1.946712E+04  2.875275E+04
       126   2  3.921782E+05  3.867470E+05  3.688241E+05 -8.266544E+04  5.432577E+04  4.773906E+03
       126   3  2.862442E+05 -4.322528E+04  2.662745E+05 -2.310111E+05  3.923559E+04 -1.930599E+04
       126   4 -7.265514E+03 -1.194354E+06 -1.026242E+04 -2.267102E+05  1.953267E+04 -4.267797E+03
       126   5  9.228470E+02 -1.193291E+06 -6.807078E+03 -8.046412E+04  5.434921E+04 -6.463918E+02
       126   6  1.143814E+03 -1.194061E+06 -7.547425E+03 -2.266933E+05  3.916050E+04  2.857436E+03
       126   7 -5.097642E+05 -3.204861E+06 -5.071500E+05 -2.266707E+05  1.959833E+04 -3.718144E+04
       126   8 -3.905126E+05 -2.771035E+06 -3.826128E+05 -7.826681E+04  5.437265E+04 -6.052965E+03
       126   9 -2.840519E+05 -2.343679E+06 -2.814603E+05 -2.223822E+05  3.908564E+04  2.497996E+04
       126  10  4.949304E+05  8.198449E+05  4.863267E+05 -2.267479E+05  1.420974E-09  4.267439E-10
       126  11  3.921750E+05  3.867462E+05  3.688185E+05 -8.266565E+04 -1.096785E-10 -6.770699E-10
       126  12  2.862425E+05 -4.322610E+04  2.662709E+05 -2.310105E+05  1.585223E-09 -1.570164E-09
       126  13 -7.265929E+03 -1.194354E+06 -1.026317E+04 -2.267101E+05  1.678690E-10 -1.544823E-10
       126  14  9.196767E+02 -1.193292E+06 -6.812626E+03 -8.046409E+04  3.218177E-09 -1.409318E-09
       126  15  1.142166E+03 -1.194062E+06 -7.550321E+03 -2.266934E+05  2.783520E-09 -9.915616E-11
       126  16 -5.097650E+05 -3.204863E+06 -5.071534E+05 -2.266701E+05 -1.248798E-09 -1.643322E-09
       126  17 -3.905158E+05 -2.771036E+06 -3.826184E+05 -7.826654E+04  1.423052E-09 -3.208263E-09
       126  18 -2.840537E+05 -2.343680E+06 -2.814644E+05 -2.223830E+05  4.810538E-10 -1.005605E-09
       126  19  4.949311E+05  8.198459E+05  4.863289E+05 -2.267474E+05 -1.946712E+04 -2.875275E+04
       126  20  3.921782E+05  3.867470E+05  3.688241E+05 -8.266544E+04 -5.432577E+04 -4.773906E+03
       126  21  2.862442E+05 -4.322528E+04  2.662745E+05 -2.310111E+05 -3.923559E+04  1.930599E+04
       126  22 -7.265514E+03 -1.194354E+06 -1.026242E+04 -2.267102E+05 -1.953267E+04  4.267797E+03
       126  23  9.228470E+02 -1.193291E+06 -6.807078E+03 -8.046412E+04 -5.434921E+04  6.463918E+02
       126  24  1.143814E+03 -1.194061E+06 -7.547425E+03 -2.266933E+05 -3.916050E+04 -2.857436E+03
       126  25 -5.097642E+05 -3.204861E+06 -5.071500E+05 -2.266707E+05 -1.959833E+04  3.718144E+04
       126  26 -3.905126E+05 -2.771035E+06 -3.826128E+05 -7.826681E+04 -5.437265E+04  6.052965E+03
       126  27 -2.840519E+05 -2.343679E+06 -2.814603E+05 -2.223822E+05 -3.908564E+04 -2.497996E+04
       127   1  1.548907E+05 -5.741324E+05  1.388359E+05 -2.278044E+05  2.117412E+04 -3.819522E+03
       127   2  4.791508E+04 -1.005951E+06  3.151162E+04 -8.043634E+04  6.353470E+03  2.334906E+03
       127   3 -6.798961E+04 -1.443274E+06 -8.265438E+04 -2.294905E+05 -9.024478E+03  8.477014E+03
       127   4  1.134582E+03 -1.194673E+06 -8.842761E+03 -2.275685E+05  2.114440E+04  4.186256E+03
       127   5  1.847172E+03 -1.191795E+06 -1.272102E+04 -7.936901E+04  6.321413E+03  1.064389E+04
       127   6 -6.409386E+03 -1.194646E+06 -2.363924E+04 -2.275981E+05 -9.059488E+03  1.709347E+04
       127   7 -1.526493E+05 -1.814860E+06 -1.565482E+05 -2.273324E+05  2.111466E+04  1.218406E+04
       127   8 -4.422319E+04 -1.377608E+06 -5.695583E+04 -7.830197E+04  6.289380E+03  1.895040E+04
       127   9  5.516644E+04 -9.459611E+05  3.537188E+04 -2.257049E+05 -9.094438E+03  2.571336E+04
       127  10  1.548902E+05 -5.741326E+05  1.388351E+05 -2.278044E+05  1.821462E-09 -1.910808E-09
       127  11  4.791504E+04 -1.005951E+06  3.151154E+04 -8.043635E+04  1.167192E-09  2.801968E-10
       127  12 -6.798972E+04 -1.443274E+06 -8.265467E+04 -2.294905E+05 -1.321332E-09  2.939680E-09
       127  13  1.134097E+03 -1.194674E+06 -8.843634E+03 -2.275686E+05  5.000569E-09  5.683588E-11
       127  14  1.847099E+03 -1.191795E+06 -1.272131E+04 -7.936906E+04  3.916710E-09 -1.917171E-09
       127  15 -6.409553E+03 -1.194646E+06 -2.363994E+04 -2.275980E+05 -2.755492E-09 -2.773193E-10
       127  16 -1.526498E+05 -1.814861E+06 -1.565493E+05 -2.273326E+05  3.122872E-11 -8.899183E-10
       127  17 -4.422333E+04 -1.377608E+06 -5.695658E+04 -7.830206E+04 -1.441420E-09 -6.617402E-09
       127  18  5.516618E+04 -9.459619E+05  3.537048E+04 -2.257047E+05 -1.297736E-09 -5.995890E-09
       127  19  1.548907E+05 -5.741324E+05  1.388359E+05 -2.278044E+05 -2.117412E+04  3.819522E+03
       127  20  4.791508E+04 -1.005951E+06  3.151162E+04 -8.043634E+04 -6.353470E+03 -2.334906E+03
       127  21 -6.798961E+04 -1.443274E+06 -8.265438E+04 -2.294905E+05  9.024478E+03 -8.477014E+03
       127  22  1.134582E+03 -1.194673E+06 -8.842761E+03 -2.275685E+05 -2.114440E+04 -4.186256E+03
       127  23  1.847172E+03 -1.191795E+06 -1.272102E+04 -7.936901E+04 -6.321413E+03 -1.064389E+04
       127  24 -6.409386E+03 -1.194646E+06 -2.363924E+04 -2.275981E+05  9.059488E+03 -1.709347E+04
       127  25 -1.526493E+05 -1.814860E+06 -1.565482E+05 -2.273324E+05 -2.111466E+04 -1.218406E+04
       127  26 -4.422319E+04 -1.377608E+06 -5.695583E+04 -7.830197E+04 -6.289380E+03 -1.895040E+04
       127  27  5.516644E+04 -9.459611E+05  3.537188E+04 -2.257049E+05  9.094438E+03 -2.571336E+04
       128   1 -1.873511E+05 -1.978950E+06 -2.145575E+05 -2.131865E+05 -2.599986E+04  1.243666E+03
       128   2 -2.891720E+05 -2.395180E+06 -3.341919E+05 -8.562533E+04 -4.184082E+04  4.908067E+04
       128   3 -4.928422E+05 -2.843745E+06 -5.107403E+05 -2.520506E+05 -1.574581E+04  9.700914E+04
       128   4  6.035262E+03 -1.199825E+06 -2.873991E+04 -2.269539E+05 -2.607704E+04  2.143396E+04
       128   5  1.075460E+04 -1.185752E+06 -4.619875E+04 -8.009008E+04 -4.182575E+04  4.623327E+04
       128   6 -8.224131E+04 -1.200099E+06 -1.044572E+05 -2.271915E+05 -1.567163E+04  7.115855E+04
       128   7  1.993785E+05 -4.201392E+05  1.570366E+05 -2.407381E+05 -2.615507E+04  4.164952E+04
       128   8  3.105757E+05  2.502433E+04  2.416919E+05 -7.454283E+04 -4.181074E+04  4.338028E+04
       128   9  3.281603E+05  4.460154E+05  3.016280E+05 -2.022642E+05 -1.559964E+04  4.523915E+04
       128  10 -1.873519E+05 -1.978951E+06 -2.145588E+05 -2.131865E+05 -2.901495E-09 -4.638979E-09
       128  11 -2.891746E+05 -2.395184E+06 -3.341997E+05 -8.562368E+04 -1.329379E-09 -4.434149E-09
       128  12 -4.928450E+05 -2.843755E+06 -5.107585E+05 -2.520493E+05 -1.773443E-10 -1.473269E-09
       128  13  6.034409E+03 -1.199825E+06 -2.874205E+04 -2.269535E+05 -1.634173E-09 -1.248141E-10
       128  14  1.075215E+04 -1.185754E+06 -4.620605E+04 -8.008852E+04 -3.051461E-11 -1.736870E-09
       128  15 -8.224293E+04 -1.200104E+06 -1.044672E+05 -2.271906E+05 -3.026528E-11 -2.677962E-10
       128  16  1.993773E+05 -4.201413E+05  1.570320E+05 -2.407372E+05 -4.800763E-10  1.881718E-09
       128  17  3.105733E+05  2.502185E+04  2.416851E+05 -7.454137E+04 -1.193389E-09 -3.086985E-10
       128  18  3.281595E+05  4.460131E+05  3.016237E+05 -2.022636E+05  7.359016E-10 -5.499316E-10
       128  19 -1.873511E+05 -1.978950E+06 -2.145575E+05 -2.131865E+05  2.599986E+04 -1.243666E+03
       128  20 -2.891720E+05 -2.395180E+06 -3.341919E+05 -8.562533E+04  4.184082E+04 -4.908067E+04
       128  21 -4.928422E+05 -2.843745E+06 -5.107403E+05 -2.520506E+05  1.574581E+04 -9.700914E+04
       128  22  6.035262E+03 -1.199825E+06 -2.873991E+04 -2.269539E+05  2.607704E+04 -2.143396E+04
       128  23  1.075460E+04 -1.185752E+06 -4.619875E+04 -8.009008E+04  4.182575E+04 -4.623327E+04
       128  24 -8.224131E+04 -1.200099E+06 -1.044572E+05 -2.271915E+05  1.567163E+04 -7.115855E+04
       128  25  1.993785E+05 -4.201392E+05  1.570366E+05 -2.407381E+05  2.615507E+04 -4.164952E+04
       128  26  3.105757E+05  2.502433E+04  2.416919E+05 -7.454283E+04  4.181074E+04 -4.338028E+04
       128  27  3.281603E+05  4.460154E+05  3.016280E+05 -2.022642E+05  1.559964E+04 -4.523915E+04
       129   1 -2.160140E+06 -5.676374E+05 -2.881009E+05 -7.822408E+05 -1.325144E+05 -4.560916E+04
       129   2 -2.119576E+06 -3.678287E+05 -1.639046E+05 -7.923307E+05 -8.604433E+04 -1.960140E+04
       129   3 -2.139910E+06 -3.572423E+05 -1.249643E+05 -7.706128E+05 -3.648206E+04 -1.806630E+03
       129   4 -1.859864E+06 -4.084404E+05 -1.973802E+05 -6.535424E+05 -1.265900E+05 -4.339250E+04
       129   5 -1.819498E+06 -2.416404E+05 -8.259285E+04 -6.967289E+05 -8.433396E+04 -1.896096E+04
       129   6 -1.839161E+06 -2.631776E+05 -4.968256E+04 -7.081178E+05 -3.898675E+04 -2.746974E+03
       129   7 -1.559495E+06 -2.492086E+05 -1.066682E+05 -5.247792E+05 -1.206624E+05 -4.117355E+04
       129   8 -1.519332E+06 -1.154401E+05 -1.289124E+03 -6.010829E+05 -8.262267E+04 -1.832009E+04
       129   9 -1.538323E+06 -1.691131E+05  2.559265E+04 -6.455983E+05 -4.149277E+04 -3.687629E+03
       129  10 -2.160160E+06 -5.676444E+05 -2.881380E+05 -7.822457E+05 -1.511200E-09  2.388901E-10
       129  11 -2.119584E+06 -3.678311E+05 -1.639193E+05 -7.923320E+05 -1.459725E-09  6.512958E-10
       129  12 -2.139912E+06 -3.572427E+05 -1.249668E+05 -7.706128E+05 -1.420528E-09  7.302641E-10
       129  13 -1.859881E+06 -4.084467E+05 -1.974139E+05 -6.535468E+05 -9.035197E-10  6.574202E-11
       129  14 -1.819506E+06 -2.416427E+05 -8.260694E+04 -6.967301E+05 -4.652784E-09  1.327075E-09
       129  15 -1.839163E+06 -2.631781E+05 -4.968544E+04 -7.081179E+05 -2.258180E-09  3.580808E-10
       129  16 -1.559511E+06 -2.492143E+05 -1.066989E+05 -5.247832E+05 -1.375011E-09  1.357384E-10
       129  17 -1.519340E+06 -1.154423E+05 -1.302621E+03 -6.010841E+05 -2.185736E-09  2.538212E-10
       129  18 -1.538325E+06 -1.691136E+05  2.558938E+04 -6.455984E+05 -1.516930E-09  8.842550E-10
       129  19 -2.160140E+06 -5.676374E+05 -2.881009E+05 -7.822408E+05  1.325144E+05  4.560916E+04
       129  20 -2.119576E+06 -3.678287E+05 -1.639046E+05 -7.923307E+05  8.604433E+04  1.960140E+04
       129  21 -2.139910E+06 -3.572423E+05 -1.249643E+05 -7.706128E+05  3.648206E+04  1.806630E+03
       129  22 -1.859864E+06 -4.084404E+05 -1.973802E+05 -6.535424E+05  1.265900E+05  4.339250E+04
       129  23 -1.819498E+06 -2.416404E+05 -8.259285E+04 -6.967289E+05  8.433396E+04  1.896096E+04
       129  24 -1.839161E+06 -2.631776E+05 -4.968256E+04 -7.081178E+05  3.898675E+04  2.746974E+03
       129  25 -1.559495E+06 -2.492086E+05 -1.066682E+05 -5.247792E+05  1.206624E+05  4.117355E+04
       129  26 -1.519332E+06 -1.154401E+05 -1.289124E+03 -6.010829E+05  8.262267E+04  1.832009E+04
       129  27 -1.538323E+06 -1.691131E+05  2.559265E+04 -6.455983E+05  4.149277E+04  3.687629E+03
       130   1 -2.084134E+06 -3.825115E+05 -1.074138E+05 -7.699522E+05 -3.123139E+04 -1.870853E+03
       130   2 -2.062520E+06 -3.471052E+05 -7.971742E+04 -7.576829E+05 -2.060859E+04  1.529430E+03
       130   3 -2.035630E+06 -3.436728E+05 -6.481559E+04 -7.563502E+05 -9.748505E+03  4.297747E+03
       130   4 -1.832459E+06 -2.835593E+05 -4.033069E+04 -6.968924E+05 -3.134330E+04 -1.913434E+03
       130   5 -1.834060E+06 -2.601071E+05 -1.949242E+04 -6.942356E+05 -2.104215E+04  1.366334E+03
       130   6 -1.830318E+06 -2.685599E+05 -1.118895E+04 -7.025155E+05 -1.050421E+04  4.013955E+03
       130   7 -1.580721E+06 -1.846016E+05  2.674686E+04 -6.238053E+05 -3.145525E+04 -1.956034E+03
       130   8 -1.605549E+06 -1.731055E+05  4.072799E+04 -6.307670E+05 -2.147589E+04  1.203171E+03
       130   9 -1.624966E+06 -1.934452E+05  4.243397E+04 -6.486651E+05 -1.126019E+04  3.730067E+03
       130  10 -2.084136E+06 -3.825118E+05 -1.074157E+05 -7.699522E+05 -2.128555E-09  5.567108E-10
       130  11 -2.062521E+06 -3.471053E+05 -7.971823E+04 -7.576829E+05 -2.573426E-10 -3.885173E-11
       130  12 -2.035630E+06 -3.436729E+05 -6.481581E+04 -7.563502E+05  2.189397E-10 -6.751187E-10
       130  13 -1.832460E+06 -2.835596E+05 -4.033255E+04 -6.968925E+05 -2.334375E-09  4.571615E-10
       130  14 -1.834060E+06 -2.601072E+05 -1.949326E+04 -6.942355E+05  9.124190E-10 -4.119527E-10
       130  15 -1.830319E+06 -2.685599E+05 -1.118919E+04 -7.025155E+05  2.551245E-10 -2.808881E-10
       130  16 -1.580722E+06 -1.846019E+05  2.674499E+04 -6.238053E+05 -4.851367E-10  4.588118E-10
       130  17 -1.605549E+06 -1.731057E+05  4.072712E+04 -6.307670E+05 -1.790838E-09 -4.259320E-10
       130  18 -1.624966E+06 -1.934453E+05  4.243371E+04 -6.486651E+05  5.837612E-10  1.064658E-10
       130  19 -2.084134E+06 -3.825115E+05 -1.074138E+05 -7.699522E+05  3.123139E+04  1.870853E+03
       130  20 -2.062520E+06 -3.471052E+05 -7.971742E+04 -7.576829E+05  2.060859E+04 -1.529430E+03
       130  21 -2.035630E+06 -3.436728E+05 -6.481559E+04 -7.563502E+05  9.748505E+03 -4.297747E+03
       130  22 -1.832459E+06 -2.835593E+05 -4.033069E+04 -6.968924E+05  3.134330E+04  1.913434E+03
       130  23 -1.834060E+06 -2.601071E+05 -1.949242E+04 -6.942356E+05  2.104215E+04 -1.366334E+03
       130  24 -1.830318E+06 -2.685599E+05 -1.118895E+04 -7.025155E+05  1.050421E+04 -4.013955E+03
       130  25 -1.580721E+06 -1.846016E+05  2.674686E+04 -6.238053E+05  3.145525E+04  1.956034E+03
       130  26 -1.605549E+06 -1.731055E+05  4.072799E+04 -6.307670E+05  2.147589E+04 -1.203171E+03
       130  27 -1.624966E+06 -1.934452E+05  4.243397E+04 -6.486651E+05  1.126019E+04 -3.730067E+03
       131   1 -1.998198E+06 -3.345628E+05 -5.306218E+04 -7.478901E+05 -8.021031E+03  4.055326E+03
       131   2 -1.977864E+06 -3.152712E+05 -4.189415E+04 -7.325261E+05 -5.219191E+03  3.770349E+03
       131   3 -1.944183E+06 -3.122606E+05 -3.300136E+04 -7.331819E+05 -2.392970E+03  3.419655E+03
       131   4 -1.829341E+06 -2.707793E+05 -8.724487E+03 -7.015073E+05 -8.609047E+03  3.834535E+03
       131   5 -1.835907E+06 -2.618770E+05 -4.597820E+03 -6.937832E+05 -5.840451E+03  3.537191E+03
       131   6 -1.829120E+06 -2.692487E+05 -2.719557E+03 -7.020792E+05 -3.047594E+03  3.174094E+03
       131   7 -1.660456E+06 -2.069939E+05  3.561091E+04 -6.551129E+05 -9.197240E+03  3.613677E+03
       131   8 -1.693930E+06 -2.084815E+05  3.269686E+04 -6.550323E+05 -6.461868E+03  3.303974E+03
       131   9 -1.714043E+06 -2.262360E+05  2.756112E+04 -6.709713E+05 -3.702352E+03  2.928484E+03
       131  10 -1.998198E+06 -3.345628E+05 -5.306233E+04 -7.478901E+05  1.166282E-10 -3.999473E-10
       131  11 -1.977864E+06 -3.152712E+05 -4.189423E+04 -7.325261E+05 -1.081938E-09 -4.365767E-11
       131  12 -1.944183E+06 -3.122606E+05 -3.300139E+04 -7.331819E+05 -1.702370E-09  6.220120E-10
       131  13 -1.829341E+06 -2.707794E+05 -8.724655E+03 -7.015073E+05 -1.155954E-09 -2.445122E-11
       131  14 -1.835907E+06 -2.618771E+05 -4.597908E+03 -6.937832E+05 -1.600362E-09  1.291407E-10
       131  15 -1.829120E+06 -2.692487E+05 -2.719593E+03 -7.020792E+05 -2.942650E-09  2.321463E-10
       131  16 -1.660456E+06 -2.069939E+05  3.561073E+04 -6.551129E+05 -8.327984E-10  2.187211E-10
       131  17 -1.693930E+06 -2.084815E+05  3.269676E+04 -6.550323E+05  1.081303E-10 -1.958321E-10
       131  18 -1.714043E+06 -2.262360E+05  2.756107E+04 -6.709713E+05 -2.721089E-09  3.996194E-10
       131  19 -1.998198E+06 -3.345628E+05 -5.306218E+04 -7.478901E+05  8.021031E+03 -4.055326E+03
       131  20 -1.977864E+06 -3.152712E+05 -4.189415E+04 -7.325261E+05  5.219191E+03 -3.770349E+03
       131  21 -1.944183E+06 -3.122606E+05 -3.300136E+04 -7.331819E+05  2.392970E+03 -3.419655E+03
       131  22 -1.829341E+06 -2.707793E+05 -8.724487E+03 -7.015073E+05  8.609047E+03 -3.834535E+03
       131  23 -1.835907E+06 -2.618770E+05 -4.597820E+03 -6.937832E+05  5.840451E+03 -3.537191E+03
       131  24 -1.829120E+06 -2.692487E+05 -2.719557E+03 -7.020792E+05  3.047594E+03 -3.174094E+03
       131  25 -1.660456E+06 -2.069939E+05  3.561091E+04 -6.551129E+05  9.197240E+03 -3.613677E+03
       131  26 -1.693930E+06 -2.084815E+05  3.269686E+04 -6.550323E+05  6.461868E+03 -3.303974E+03
       131  27 -1.714043E+06 -2.262360E+05  2.756112E+04 -6.709713E+05  3.702352E+03 -2.928484E+03
       132   1 -1.907502E+06 -2.990631E+05 -2.273080E+04 -7.234997E+05 -1.723197E+03  2.831073E+03
       132   2 -1.886849E+06 -2.809832E+05 -1.483115E+04 -7.074241E+05 -4.779679E+02  1.862765E+03
       132   3 -1.851596E+06 -2.779399E+05 -7.571703E+03 -7.082641E+05  7.714416E+02  8.829426E+02
       132   4 -1.828921E+06 -2.695423E+05 -2.192188E+03 -7.020640E+05 -2.368984E+03  2.588880E+03
       132   5 -1.836212E+06 -2.619623E+05 -1.532643E+03 -6.936293E+05 -1.129607E+03  1.618417E+03
       132   6 -1.828902E+06 -2.694177E+05 -1.508610E+03 -7.021103E+05  1.139085E+02  6.364300E+02
       132   7 -1.750334E+06 -2.400211E+05  1.834588E+04 -6.806259E+05 -3.014860E+03  2.346653E+03
       132   8 -1.785572E+06 -2.429414E+05  1.176560E+04 -6.798335E+05 -1.781302E+03  1.374048E+03
       132   9 -1.806208E+06 -2.608957E+05  4.554404E+03 -6.959563E+05 -5.436474E+02  3.899089E+02
       132  10 -1.907502E+06 -2.990631E+05 -2.273082E+04 -7.234997E+05 -2.547804E-09  3.410567E-10
       132  11 -1.886849E+06 -2.809832E+05 -1.483115E+04 -7.074241E+05 -2.269018E-09 -8.908046E-10
       132  12 -1.851596E+06 -2.779399E+05 -7.571706E+03 -7.082641E+05 -1.258818E-09 -6.553076E-10
       132  13 -1.828921E+06 -2.695423E+05 -2.192211E+03 -7.020640E+05 -2.056923E-09 -2.274904E-10
       132  14 -1.836212E+06 -2.619623E+05 -1.532650E+03 -6.936293E+05 -7.349976E-10 -8.899390E-10
       132  15 -1.828902E+06 -2.694177E+05 -1.508611E+03 -7.021103E+05 -1.267876E-09 -5.390588E-11
       132  16 -1.750334E+06 -2.400212E+05  1.834585E+04 -6.806259E+05 -1.717617E-09 -3.094605E-10
       132  17 -1.785572E+06 -2.429414E+05  1.176559E+04 -6.798335E+05 -1.268779E-09 -1.136541E-09
       132  18 -1.806208E+06 -2.608957E+05  4.554404E+03 -6.959563E+05 -1.422913E-09  3.182186E-10
       132  19 -1.907502E+06 -2.990631E+05 -2.273080E+04 -7.234997E+05  1.723197E+03 -2.831073E+03
       132  20 -1.886849E+06 -2.809832E+05 -1.483115E+04 -7.074241E+05  4.779679E+02 -1.862765E+03
       132  21 -1.851596E+06 -2.779399E+05 -7.571703E+03 -7.082641E+05 -7.714416E+02 -8.829426E+02
       132  22 -1.828921E+06 -2.695423E+05 -2.192188E+03 -7.020640E+05  2.368984E+03 -2.588880E+03
       132  23 -1.836212E+06 -2.619623E+05 -1.532643E+03 -6.936293E+05  1.129607E+03 -1.618417E+03
       132  24 -1.828902E+06 -2.694177E+05 -1.508610E+03 -7.021103E+05 -1.139085E+02 -6.364300E+02
       132  25 -1.750334E+06 -2.400211E+05  1.834588E+04 -6.806259E+05  3.014860E+03 -2.346653E+03
       132  26 -1.785572E+06 -2.429414E+05  1.176560E+04 -6.798335E+05  1.781302E+03 -1.374048E+03
       132  27 -1.806208E+06 -2.608957E+05  4.554404E+03 -6.959563E+05  5.436474E+02 -3.899089E+02
       133   1 -1.814629E+06 -2.640757E+05  2.170912E+03 -6.983091E+05  1.313262E+03  2.383084E+02
       133   2 -1.793932E+06 -2.460743E+05  8.602318E+03 -6.821309E+05  3.032237E+03 -5.661936E+02
       133   3 -1.758761E+06 -2.433409E+05  1.398646E+04 -6.828525E+05  4.747481E+03 -1.360221E+03
       133   4 -1.828921E+06 -2.694014E+05 -1.677817E+03 -7.021324E+05  6.555709E+02 -8.260865E+00
       133   5 -1.836181E+06 -2.619262E+05 -2.489154E+03 -6.936229E+05  2.379835E+03 -8.108198E+02
       133   6 -1.828968E+06 -2.697203E+05 -4.351841E+03 -7.020136E+05  4.100303E+03 -1.602924E+03
       133   7 -1.843213E+06 -2.747271E+05 -5.526589E+03 -7.059557E+05 -2.107376E+00 -2.548257E+02
       133   8 -1.878428E+06 -2.777782E+05 -1.358084E+04 -7.051143E+05  1.727478E+03 -1.055429E+03
       133   9 -1.899170E+06 -2.960995E+05 -2.269063E+04 -7.211729E+05  3.453203E+03 -1.845597E+03
       133  10 -1.814629E+06 -2.640757E+05  2.170909E+03 -6.983091E+05  1.429377E-09  7.493885E-10
       133  11 -1.793932E+06 -2.460743E+05  8.602300E+03 -6.821309E+05  2.533306E-10  2.164714E-11
       133  12 -1.758761E+06 -2.433409E+05  1.398641E+04 -6.828525E+05 -6.728821E-10 -6.106536E-10
       133  13 -1.828921E+06 -2.694014E+05 -1.677818E+03 -7.021324E+05 -5.266255E-10  8.705660E-10
       133  14 -1.836181E+06 -2.619262E+05 -2.489165E+03 -6.936229E+05  2.108671E-09  2.047038E-11
       133  15 -1.828968E+06 -2.697203E+05 -4.351878E+03 -7.020136E+05 -1.264733E-09 -7.608258E-10
       133  16 -1.843213E+06 -2.747271E+05 -5.526589E+03 -7.059557E+05 -3.414128E-10  5.823210E-10
       133  17 -1.878428E+06 -2.777782E+05 -1.358084E+04 -7.051143E+05 -7.117052E-11  5.227359E-10
       133  18 -1.899170E+06 -2.960995E+05 -2.269066E+04 -7.211729E+05 -2.487662E-10 -2.138113E-10
       133  19 -1.814629E+06 -2.640757E+05  2.170912E+03 -6.983091E+05 -1.313262E+03 -2.383084E+02
       133  20 -1.793932E+06 -2.460743E+05  8.602318E+03 -6.821309E+05 -3.032237E+03  5.661936E+02
       133  21 -1.758761E+06 -2.433409E+05  1.398646E+04 -6.828525E+05 -4.747481E+03  1.360221E+03
       133  22 -1.828921E+06 -2.694014E+05 -1.677817E+03 -7.021324E+05 -6.555709E+02  8.260865E+00
       133  23 -1.836181E+06 -2.619262E+05 -2.489154E+03 -6.936229E+05 -2.379835E+03  8.108198E+02
       133  24 -1.828968E+06 -2.697203E+05 -4.351841E+03 -7.020136E+05 -4.100303E+03  1.602924E+03
       133  25 -1.843213E+06 -2.747271E+05 -5.526589E+03 -7.059557E+05  2.107376E+00  2.548257E+02
       133  26 -1.878428E+06 -2.777782E+05 -1.358084E+04 -7.051143E+05 -1.727478E+03  1.055429E+03
       133  27 -1.899170E+06 -2.960995E+05 -2.269063E+04 -7.211729E+05 -3.453203E+03  1.845597E+03
       134   1 -1.722320E+06 -2.295171E+05  2.245417E+04 -6.735995E+05  5.852265E+03 -1.787208E+03
       134   2 -1.701893E+06 -2.111984E+05  2.517840E+04 -6.572110E+05  1.133505E+04 -1.145598E+03
       134   3 -1.669276E+06 -2.115341E+05  2.302477E+04 -6.564200E+05  1.679455E+04 -4.399433E+02
       134   4 -1.829299E+06 -2.691994E+05 -5.645221E+03 -7.022032E+05  5.195788E+03 -2.033440E+03
       134   5 -1.835632E+06 -2.615545E+05 -9.963674E+03 -6.937738E+05  1.071041E+04 -1.380003E+03
       134   6 -1.829783E+06 -2.725713E+05 -1.918622E+04 -7.009424E+05  1.620151E+04 -6.626072E+02
       134   7 -1.936266E+06 -3.088808E+05 -3.374542E+04 -7.308023E+05  4.539439E+03 -2.279627E+03
       134   8 -1.969354E+06 -3.119094E+05 -4.510721E+04 -7.303294E+05  1.008591E+04 -1.614352E+03
       134   9 -1.990265E+06 -3.336069E+05 -6.139951E+04 -7.454544E+05  1.560864E+04 -8.852065E+02
       134  10 -1.722320E+06 -2.295172E+05  2.245410E+04 -6.735995E+05  1.443805E-09  1.779245E-10
       134  11 -1.701893E+06 -2.111985E+05  2.517815E+04 -6.572110E+05  2.374821E-10  1.221291E-09
       134  12 -1.669276E+06 -2.115342E+05  2.302424E+04 -6.564200E+05  1.671656E-09  2.272525E-10
       134  13 -1.829299E+06 -2.691994E+05 -5.645279E+03 -7.022032E+05 -5.517961E-10 -1.416126E-10
       134  14 -1.835632E+06 -2.615545E+05 -9.963894E+03 -6.937738E+05  6.922262E-10  1.136374E-09
       134  15 -1.829783E+06 -2.725714E+05 -1.918672E+04 -7.009424E+05  1.462829E-09  5.786580E-10
       134  16 -1.936266E+06 -3.088808E+05 -3.374547E+04 -7.308023E+05 -1.429791E-09  4.567856E-11
       134  17 -1.969354E+06 -3.119094E+05 -4.510740E+04 -7.303294E+05 -3.910062E-10  2.674265E-10
       134  18 -1.990266E+06 -3.336070E+05 -6.139997E+04 -7.454544E+05 -1.764578E-09  7.339426E-10
       134  19 -1.722320E+06 -2.295171E+05  2.245417E+04 -6.735995E+05 -5.852265E+03  1.787208E+03
       134  20 -1.701893E+06 -2.111984E+05  2.517840E+04 -6.572110E+05 -1.133505E+04  1.145598E+03
       134  21 -1.669276E+06 -2.115341E+05  2.302477E+04 -6.564200E+05 -1.679455E+04  4.399433E+02
       134  22 -1.829299E+06 -2.691994E+05 -5.645221E+03 -7.022032E+05 -5.195788E+03  2.033440E+03
       134  23 -1.835632E+06 -2.615545E+05 -9.963674E+03 -6.937738E+05 -1.071041E+04  1.380003E+03
       134  24 -1.829783E+06 -2.725713E+05 -1.918622E+04 -7.009424E+05 -1.620151E+04  6.626072E+02
       134  25 -1.936266E+06 -3.088808E+05 -3.374542E+04 -7.308023E+05 -4.539439E+03  2.279627E+03
       134  26 -1.969354E+06 -3.119094E+05 -4.510721E+04 -7.303294E+05 -1.008591E+04  1.614352E+03
       134  27 -1.990265E+06 -3.336069E+05 -6.139951E+04 -7.454544E+05 -1.560864E+04  8.852065E+02
       135   1 -1.632457E+06 -1.976034E+05  2.687364E+04 -6.538602E+05  2.078231E+04  1.638764E+02
       135   2 -1.612002E+06 -1.722627E+05  1.512937E+04 -6.319635E+05  4.323416E+04  7.277078E+03
       135   3 -1.596008E+06 -2.011956E+05 -2.409048E+04 -6.157074E+05  6.545327E+04  1.501345E+04
       135   4 -1.831720E+06 -2.679114E+05 -2.467049E+04 -7.034551E+05  2.002374E+04 -1.208091E+02
       135   5 -1.831817E+06 -2.573163E+05 -4.306001E+04 -6.944201E+05  4.278873E+04  7.109401E+03
       135   6 -1.836446E+06 -3.010672E+05 -8.918176E+04 -6.910252E+05  6.532020E+04  1.496198E+04
       135   7 -2.030943E+06 -3.382179E+05 -7.621773E+04 -7.530360E+05  1.926545E+04 -4.054076E+02
       135   8 -2.051586E+06 -3.423660E+05 -1.012536E+05 -7.568564E+05  4.234346E+04  6.941793E+03
       135   9 -2.076827E+06 -4.009318E+05 -1.542784E+05 -7.663155E+05  6.518718E+04  1.491055E+04
       135  10 -1.632457E+06 -1.976036E+05  2.687283E+04 -6.538602E+05  1.906186E-09 -6.362330E-10
       135  11 -1.612004E+06 -1.722633E+05  1.512575E+04 -6.319638E+05  7.333431E-10 -7.304021E-10
       135  12 -1.596013E+06 -2.011970E+05 -2.409898E+04 -6.157081E+05 -3.920488E-10 -1.199273E-09
       135  13 -1.831720E+06 -2.679115E+05 -2.467124E+04 -7.034551E+05 -1.141287E-11  3.330962E-11
       135  14 -1.831819E+06 -2.573168E+05 -4.306356E+04 -6.944203E+05  3.287571E-10 -7.335940E-10
       135  15 -1.836450E+06 -3.010686E+05 -8.919023E+04 -6.910260E+05 -2.965269E-09 -1.134395E-09
       135  16 -2.030944E+06 -3.382180E+05 -7.621843E+04 -7.530360E+05 -7.703547E-10  5.260740E-10
       135  17 -2.051587E+06 -3.423666E+05 -1.012571E+05 -7.568566E+05 -3.287761E-09 -3.859420E-11
       135  18 -2.076832E+06 -4.009332E+05 -1.542869E+05 -7.663163E+05 -2.604926E-09 -1.043603E-09
       135  19 -1.632457E+06 -1.976034E+05  2.687364E+04 -6.538602E+05 -2.078231E+04 -1.638764E+02
       135  20 -1.612002E+06 -1.722627E+05  1.512937E+04 -6.319635E+05 -4.323416E+04 -7.277078E+03
       135  21 -1.596008E+06 -2.011956E+05 -2.409048E+04 -6.157074E+05 -6.545327E+04 -1.501345E+04
       135  22 -1.831720E+06 -2.679114E+05 -2.467049E+04 -7.034551E+05 -2.002374E+04  1.208091E+02
       135  23 -1.831817E+06 -2.573163E+05 -4.306001E+04 -6.944201E+05 -4.278873E+04 -7.109401E+03
       135  24 -1.836446E+06 -3.010672E+05 -8.918176E+04 -6.910252E+05 -6.532020E+04 -1.496198E+04
       135  25 -2.030943E+06 -3.382179E+05 -7.621773E+04 -7.530360E+05 -1.926545E+04  4.054076E+02
       135  26 -2.051586E+06 -3.423660E+05 -1.012536E+05 -7.568564E+05 -4.234346E+04 -6.941793E+03
       135  27 -2.076827E+06 -4.009318E+05 -1.542784E+05 -7.663155E+05 -6.518718E+04 -1.491055E+04
       136   1 -1.540521E+06 -1.818176E+05 -3.649509E+04 -6.749484E+05  8.389033E+04  1.991468E+04
       136   2 -1.518588E+06 -8.073134E+04 -1.031618E+05 -5.923173E+05  1.797336E+05  5.511796E+04
       136   3 -1.643240E+06 -3.808090E+05 -3.476139E+05 -4.228188E+05  2.725346E+05  9.842960E+04
       136   4 -1.850906E+06 -2.563657E+05 -1.098742E+05 -7.162913E+05  8.140199E+04  1.898622E+04
       136   5 -1.800040E+06 -2.159663E+05 -1.826201E+05 -6.993841E+05  1.813731E+05  5.572345E+04
       136   6 -1.896669E+06 -5.776846E+05 -4.364954E+05 -5.955861E+05  2.783049E+05  1.005444E+05
       136   7 -2.161195E+06 -3.309167E+05 -1.832590E+05 -7.576217E+05  7.891502E+04  1.805785E+04
       136   8 -2.081411E+06 -3.511797E+05 -2.620852E+05 -8.064013E+05  1.830119E+05  5.632842E+04
       136   9 -2.150006E+06 -7.744647E+05 -5.253786E+05 -7.682670E+05  2.840727E+05  1.026559E+05
       136  10 -1.540528E+06 -1.818199E+05 -3.650910E+04 -6.749498E+05 -1.644770E-09 -1.326924E-09
       136  11 -1.518623E+06 -8.074331E+04 -1.032284E+05 -5.923253E+05  1.119085E-10 -4.270349E-10
       136  12 -1.643322E+06 -3.808394E+05 -3.477721E+05 -4.228405E+05 -5.707802E-10  4.871630E-10
       136  13 -1.850913E+06 -2.563678E+05 -1.098874E+05 -7.162925E+05 -9.284613E-11 -1.017262E-09
       136  14 -1.800076E+06 -2.159785E+05 -1.826880E+05 -6.993923E+05 -2.146417E-10 -4.237793E-10
       136  15 -1.896755E+06 -5.777163E+05 -4.366605E+05 -5.956087E+05 -3.063774E-10  4.324406E-11
       136  16 -2.161202E+06 -3.309187E+05 -1.832714E+05 -7.576229E+05 -8.656768E-10 -1.206544E-10
       136  17 -2.081448E+06 -3.511921E+05 -2.621544E+05 -8.064096E+05 -4.052585E-11  2.869082E-10
       136  18 -2.150096E+06 -7.744979E+05 -5.255508E+05 -7.682906E+05  1.841537E-10  8.516828E-10
       136  19 -1.540521E+06 -1.818176E+05 -3.649509E+04 -6.749484E+05 -8.389033E+04 -1.991468E+04
       136  20 -1.518588E+06 -8.073134E+04 -1.031618E+05 -5.923173E+05 -1.797336E+05 -5.511796E+04
       136  21 -1.643240E+06 -3.808090E+05 -3.476139E+05 -4.228188E+05 -2.725346E+05 -9.842960E+04
       136  22 -1.850906E+06 -2.563657E+05 -1.098742E+05 -7.162913E+05 -8.140199E+04 -1.898622E+04
       136  23 -1.800040E+06 -2.159663E+05 -1.826201E+05 -6.993841E+05 -1.813731E+05 -5.572345E+04
       136  24 -1.896669E+06 -5.776846E+05 -4.364954E+05 -5.955861E+05 -2.783049E+05 -1.005444E+05
       136  25 -2.161195E+06 -3.309167E+05 -1.832590E+05 -7.576217E+05 -7.891502E+04 -1.805785E+04
       136  26 -2.081411E+06 -3.511797E+05 -2.620852E+05 -8.064013E+05 -1.830119E+05 -5.632842E+04
       136  27 -2.150006E+06 -7.744647E+05 -5.253786E+05 -7.682670E+05 -2.840727E+05 -1.026559E+05
       137   1 -2.596058E+05 -6.762944E+03  1.659426E+04  1.242406E+04  6.787656E+04  3.982717E+03
       137   2 -2.425162E+05 -9.613956E+04 -3.372947E+04  2.469965E+03  4.684558E+04  1.182759E+04
       137   3 -1.966549E+05 -8.200965E+04 -4.444861E+04 -2.869604E+04  2.581978E+04  1.100182E+04
       137   4  1.159165E+05  8.677807E+04  1.090593E+05 -1.668517E+04  7.463958E+04  3.985085E+03
       137   5  1.011276E+05 -1.108238E+04  4.794608E+04 -6.044567E+03  4.880955E+04  1.182781E+04
       137   6  1.159244E+05 -4.635879E+03  2.975299E+04 -1.661437E+04  2.298596E+04  1.100062E+04
       137   7  4.915692E+05  1.803118E+05  2.015145E+05 -4.581205E+04  8.140668E+04  3.986818E+03
       137   8  4.448799E+05  7.396657E+04  1.296134E+05 -1.456385E+04  5.077461E+04  1.182797E+04
       137   9  4.285936E+05  7.273141E+04  1.039479E+05 -4.526603E+03  2.015071E+04  1.099930E+04
       137  10 -2.596108E+05 -6.764198E+03  1.658557E+04  1.242384E+04 -4.819874E-09 -1.410287E-09
       137  11 -2.425186E+05 -9.614030E+04 -3.373386E+04  2.469519E+03 -3.470962E-09 -8.767887E-10
       137  12 -1.966556E+05 -8.200996E+04 -4.445009E+04 -2.869627E+04  3.390047E-09  4.458431E-10
       137  13  1.159106E+05  8.677656E+04  1.090488E+05 -1.668540E+04  1.540099E-10  2.845119E-10
       137  14  1.011250E+05 -1.108317E+04  4.794134E+04 -6.045032E+03 -1.136801E-09 -6.488300E-10
       137  15  1.159238E+05 -4.636151E+03  2.975177E+04 -1.661458E+04 -2.708280E-10 -3.215860E-10
       137  16  4.915620E+05  1.803100E+05  2.015021E+05 -4.581232E+04  4.413702E-09  6.060718E-10
       137  17  4.448771E+05  7.396573E+04  1.296083E+05 -1.456434E+04 -1.061826E-09 -3.770480E-11
       137  18  4.285932E+05  7.273118E+04  1.039469E+05 -4.526782E+03 -4.667862E-09  5.298495E-10
       137  19 -2.596058E+05 -6.762944E+03  1.659426E+04  1.242406E+04 -6.787656E+04 -3.982717E+03
       137  20 -2.425162E+05 -9.613956E+04 -3.372947E+04  2.469965E+03 -4.684558E+04 -1.182759E+04
       137  21 -1.966549E+05 -8.200965E+04 -4.444861E+04 -2.869604E+04 -2.581978E+04 -1.100182E+04
       137  22  1.159165E+05  8.677807E+04  1.090593E+05 -1.668517E+04 -7.463958E+04 -3.985085E+03
       137  23  1.011276E+05 -1.108238E+04  4.794608E+04 -6.044567E+03 -4.880955E+04 -1.182781E+04
       137  24  1.159244E+05 -4.635879E+03  2.975299E+04 -1.661437E+04 -2.298596E+04 -1.100062E+04
       137  25  4.915692E+05  1.803118E+05  2.015145E+05 -4.581205E+04 -8.140668E+04 -3.986818E+03
       137  26  4.448799E+05  7.396657E+04  1.296134E+05 -1.456385E+04 -5.077461E+04 -1.182797E+04
       137  27  4.285936E+05  7.273141E+04  1.039479E+05 -4.526603E+03 -2.015071E+04 -1.099930E+04
       138   1 -1.642296E+05 -5.947035E+04 -4.114761E+04 -1.418822E+04  1.864767E+04  9.033190E+03
       138   2 -1.346929E+05 -6.132531E+04 -4.538931E+04 -5.413627E+03  1.263434E+04  8.313326E+03
       138   3 -1.017368E+05 -5.292151E+04 -4.313538E+04 -1.793682E+04  6.620345E+03  7.015697E+03
       138   4  1.101264E+05  8.470239E+03  2.419938E+04 -1.665594E+04  1.841648E+04  9.032761E+03
       138   5  1.083920E+05 -1.150141E+03  1.239661E+04 -6.005909E+03  1.208172E+04  8.312957E+03
       138   6  1.101302E+05 -4.582882E+02  7.310556E+03 -1.665305E+04  5.746603E+03  7.015456E+03
       138   7  3.845514E+05  7.640542E+04  8.954109E+04 -1.912476E+04  1.818518E+04  9.032334E+03
       138   8  3.515311E+05  5.902077E+04  7.017841E+04 -6.598427E+03  1.152888E+04  8.312589E+03
       138   9  3.220384E+05  5.200170E+04  5.775335E+04 -1.536884E+04  4.872564E+03  7.015211E+03
       138  10 -1.642300E+05 -5.947053E+04 -4.114841E+04 -1.418836E+04  8.501357E-10  8.605247E-10
       138  11 -1.346931E+05 -6.132542E+04 -4.538974E+04 -5.413712E+03 -1.753424E-10 -3.334037E-10
       138  12 -1.017369E+05 -5.292158E+04 -4.313556E+04 -1.793685E+04  5.653532E-10 -3.844576E-11
       138  13  1.101260E+05  8.470060E+03  2.419859E+04 -1.665607E+04 -2.062840E-09  1.057704E-09
       138  14  1.083918E+05 -1.150255E+03  1.239621E+04 -6.005990E+03  5.574257E-10  1.606817E-10
       138  15  1.101302E+05 -4.583499E+02  7.310402E+03 -1.665308E+04 -7.046117E-10  1.407433E-10
       138  16  3.845510E+05  7.640524E+04  8.954032E+04 -1.912489E+04 -3.154803E-10  1.815404E-10
       138  17  3.515309E+05  5.902066E+04  7.017803E+04 -6.598504E+03 -3.360085E-10  2.374471E-10
       138  18  3.220384E+05  5.200164E+04  5.775322E+04 -1.536887E+04  1.010576E-09  6.290111E-10
       138  19 -1.642296E+05 -5.947035E+04 -4.114761E+04 -1.418822E+04 -1.864767E+04 -9.033190E+03
       138  20 -1.346929E+05 -6.132531E+04 -4.538931E+04 -5.413627E+03 -1.263434E+04 -8.313326E+03
       138  21 -1.017368E+05 -5.292151E+04 -4.313538E+04 -1.793682E+04 -6.620345E+03 -7.015697E+03
       138  22  1.101264E+05  8.470239E+03  2.419938E+04 -1.665594E+04 -1.841648E+04 -9.032761E+03
       138  23  1.083920E+05 -1.150141E+03  1.239661E+04 -6.005909E+03 -1.208172E+04 -8.312957E+03
       138  24  1.101302E+05 -4.582882E+02  7.310556E+03 -1.665305E+04 -5.746603E+03 -7.015456E+03
       138  25  3.845514E+05  7.640542E+04  8.954109E+04 -1.912476E+04 -1.818518E+04 -9.032334E+03
       138  26  3.515311E+05  5.902077E+04  7.017841E+04 -6.598427E+03 -1.152888E+04 -8.312589E+03
       138  27  3.220384E+05  5.200170E+04  5.775335E+04 -1.536884E+04 -4.872564E+03 -7.015211E+03
       139   1 -6.434101E+04 -4.220501E+04 -3.556110E+04 -1.649161E+04  5.299905E+03  6.162056E+03
       139   2 -3.341050E+04 -3.543443E+04 -3.086338E+04 -6.009978E+03  3.796785E+03  4.874337E+03
       139   3 -2.012299E+03 -2.765404E+04 -2.493062E+04 -1.678351E+04  2.293246E+03  3.548863E+03
       139   4  1.094670E+05  8.033548E+02  5.675654E+03 -1.664447E+04  4.600410E+03  6.161905E+03
       139   5  1.092326E+05 -1.252470E+02  3.044349E+03 -6.017034E+03  3.076045E+03  4.874279E+03
       139   6  1.094690E+05 -4.035376E+01  1.662703E+03 -1.664446E+04  1.551334E+03  3.548902E+03
       139   7  2.833028E+05  4.380955E+04  4.691031E+04 -1.679737E+04  3.900720E+03  6.161756E+03
       139   8  2.518945E+05  3.518247E+04  3.695065E+04 -6.024092E+03  2.355139E+03  4.874220E+03
       139   9  2.209618E+05  2.757244E+04  2.825516E+04 -1.650538E+04  8.092898E+02  3.548940E+03
       139  10 -6.434105E+04 -4.220506E+04 -3.556123E+04 -1.649163E+04 -2.182130E-10 -1.137842E-11
       139  11 -3.341053E+04 -3.543446E+04 -3.086345E+04 -6.009993E+03  1.992858E-10 -5.948069E-10
       139  12 -2.012308E+03 -2.765406E+04 -2.493066E+04 -1.678352E+04 -2.246542E-10  3.587065E-10
       139  13  1.094670E+05  8.033083E+02  5.675543E+03 -1.664449E+04  1.044333E-09  1.555268E-10
       139  14  1.092326E+05 -1.252750E+02  3.044286E+03 -6.017046E+03 -5.398218E-10 -5.198888E-10
       139  15  1.094690E+05 -4.036793E+01  1.662674E+03 -1.664446E+04  7.201498E-10  7.710999E-10
       139  16  2.833028E+05  4.380950E+04  4.691021E+04 -1.679739E+04  1.316055E-10  3.001799E-10
       139  17  2.518945E+05  3.518244E+04  3.695060E+04 -6.024101E+03 -2.469960E-09 -3.955122E-10
       139  18  2.209618E+05  2.757242E+04  2.825513E+04 -1.650538E+04 -8.290923E-10  6.334867E-10
       139  19 -6.434101E+04 -4.220501E+04 -3.556110E+04 -1.649161E+04 -5.299905E+03 -6.162056E+03
       139  20 -3.341050E+04 -3.543443E+04 -3.086338E+04 -6.009978E+03 -3.796785E+03 -4.874337E+03
       139  21 -2.012299E+03 -2.765404E+04 -2.493062E+04 -1.678351E+04 -2.293246E+03 -3.548863E+03
       139  22  1.094670E+05  8.033548E+02  5.675654E+03 -1.664447E+04 -4.600410E+03 -6.161905E+03
       139  23  1.092326E+05 -1.252470E+02  3.044349E+03 -6.017034E+03 -3.076045E+03 -4.874279E+03
       139  24  1.094690E+05 -4.035376E+01  1.662703E+03 -1.664446E+04 -1.551334E+03 -3.548902E+03
       139  25  2.833028E+05  4.380955E+04  4.691031E+04 -1.679737E+04 -3.900720E+03 -6.161756E+03
       139  26  2.518945E+05  3.518247E+04  3.695065E+04 -6.024092E+03 -2.355139E+03 -4.874220E+03
       139  27  2.209618E+05  2.757244E+04  2.825516E+04 -1.650538E+04 -8.092898E+02 -3.548940E+03
       140   1  3.588403E+04 -1.809704E+04 -1.619118E+04 -1.664516E+04  2.026069E+03  2.771195E+03
       140   2  6.698993E+04 -1.049506E+04 -9.651125E+03 -6.040340E+03  1.818709E+03  1.447283E+03
       140   3  9.813986E+04 -2.808761E+03 -2.956190E+03 -1.666815E+04  1.611225E+03  1.212061E+02
       140   4  1.093758E+05  7.529312E+01  1.184341E+03 -1.663949E+04  1.295899E+03  2.771274E+03
       140   5  1.093547E+05 -8.932391E+00  4.188314E+02 -6.023231E+03  1.087288E+03  1.447389E+03
       140   6  1.093765E+05 -8.681047E+00 -1.910349E+02 -1.663951E+04  8.785623E+02  1.213415E+02
       140   7  1.828726E+05  1.824724E+04  1.855949E+04 -1.663382E+04  5.656423E+02  2.771353E+03
       140   8  1.517212E+05  1.047707E+04  1.048866E+04 -6.006120E+03  3.558161E+02  1.447494E+03
       140   9  1.206132E+05  2.791390E+03  2.574113E+03 -1.661086E+04  1.458859E+02  1.214769E+02
       140  10  3.588402E+04 -1.809705E+04 -1.619120E+04 -1.664516E+04 -5.234563E-10  4.678451E-10
       140  11  6.698993E+04 -1.049507E+04 -9.651135E+03 -6.040342E+03 -4.419839E-10 -5.975595E-11
       140  12  9.813986E+04 -2.808762E+03 -2.956195E+03 -1.666815E+04 -4.530493E-10  8.181734E-10
       140  13  1.093758E+05  7.528442E+01  1.184323E+03 -1.663949E+04 -3.244208E-09  7.865524E-10
       140  14  1.093547E+05 -8.934958E+00  4.188253E+02 -6.023232E+03  2.151717E-09  1.856942E-10
       140  15  1.093765E+05 -8.681270E+00 -1.910364E+02 -1.663951E+04 -1.171737E-09  5.176063E-11
       140  16  1.828726E+05  1.824723E+04  1.855947E+04 -1.663383E+04 -1.060821E-09  1.010232E-09
       140  17  1.517212E+05  1.047707E+04  1.048866E+04 -6.006121E+03  9.436385E-10  4.639417E-10
       140  18  1.206132E+05  2.791390E+03  2.574113E+03 -1.661086E+04 -6.441892E-10 -2.847863E-10
       140  19  3.588403E+04 -1.809704E+04 -1.619118E+04 -1.664516E+04 -2.026069E+03 -2.771195E+03
       140  20  6.698993E+04 -1.049506E+04 -9.651125E+03 -6.040340E+03 -1.818709E+03 -1.447283E+03
       140  21  9.813986E+04 -2.808761E+03 -2.956190E+03 -1.666815E+04 -1.611225E+03 -1.212061E+02
       140  22  1.093758E+05  7.529312E+01  1.184341E+03 -1.663949E+04 -1.295899E+03 -2.771274E+03
       140  23  1.093547E+05 -8.932391E+00  4.188314E+02 -6.023231E+03 -1.087288E+03 -1.447389E+03
       140  24  1.093765E+05 -8.681047E+00 -1.910349E+02 -1.663951E+04 -8.785623E+02 -1.213415E+02
       140  25  1.828726E+05  1.824724E+04  1.855949E+04 -1.663382E+04 -5.656423E+02 -2.771353E+03
       140  26  1.517212E+05  1.047707E+04  1.048866E+04 -6.006120E+03 -3.558161E+02 -1.447494E+03
       140  27  1.206132E+05  2.791390E+03  2.574113E+03 -1.661086E+04 -1.458859E+02 -1.214769E+02
       141   1  1.360732E+05  6.654242E+03  5.946906E+03 -1.668639E+04  1.673665E+03 -6.513747E+02
       141   2  1.672706E+05  1.434910E+04  1.248123E+04 -6.056901E+03  2.304724E+03 -1.977531E+03
       141   3  1.983403E+05  2.187149E+04  1.856074E+04 -1.666162E+04  2.935965E+03 -3.301567E+03
       141   4  1.093381E+05  1.818404E+01 -5.019578E+02 -1.663989E+04  9.409205E+02 -6.512427E+02
       141   5  1.094022E+05  2.636726E+01 -1.273056E+03 -6.022741E+03  1.573073E+03 -1.977440E+03
       141   6  1.093374E+05 -1.380616E+02 -2.499739E+03 -1.663992E+04  2.205376E+03 -3.301512E+03
       141   7  8.260378E+04 -6.617926E+03 -6.950870E+03 -1.659340E+04  2.082071E+02 -6.511109E+02
       141   8  5.153690E+04 -1.429660E+04 -1.502758E+04 -5.988585E+03  8.414894E+02 -1.977348E+03
       141   9  2.034182E+04 -2.214818E+04 -2.356076E+04 -1.661822E+04  1.474891E+03 -3.301457E+03
       141  10  1.360732E+05  6.654240E+03  5.946900E+03 -1.668639E+04 -7.533432E-10  8.581339E-10
       141  11  1.672706E+05  1.434909E+04  1.248122E+04 -6.056897E+03 -2.009692E-09 -4.842832E-10
       141  12  1.983403E+05  2.187148E+04  1.856070E+04 -1.666161E+04 -6.724135E-10 -5.126934E-10
       141  13  1.093381E+05  1.818334E+01 -5.019602E+02 -1.663989E+04  6.433752E-11 -1.818713E-10
       141  14  1.094022E+05  2.636240E+01 -1.273068E+03 -6.022739E+03 -4.454946E-10 -5.911921E-10
       141  15  1.093374E+05 -1.380746E+02 -2.499769E+03 -1.663992E+04 -9.308735E-10 -4.107674E-10
       141  16  8.260378E+04 -6.617926E+03 -6.950871E+03 -1.659340E+04  7.261004E-10 -5.636369E-10
       141  17  5.153690E+04 -1.429661E+04 -1.502759E+04 -5.988583E+03 -6.671316E-10 -1.541098E-10
       141  18  2.034182E+04 -2.214819E+04 -2.356079E+04 -1.661822E+04  4.851216E-10 -1.138011E-10
       141  19  1.360732E+05  6.654242E+03  5.946906E+03 -1.668639E+04 -1.673665E+03  6.513747E+02
       141  20  1.672706E+05  1.434910E+04  1.248123E+04 -6.056901E+03 -2.304724E+03  1.977531E+03
       141  21  1.983403E+05  2.187149E+04  1.856074E+04 -1.666162E+04 -2.935965E+03  3.301567E+03
       141  22  1.093381E+05  1.818404E+01 -5.019578E+02 -1.663989E+04 -9.409205E+02  6.512427E+02
       141  23  1.094022E+05  2.636726E+01 -1.273056E+03 -6.022741E+03 -1.573073E+03  1.977440E+03
       141  24  1.093374E+05 -1.380616E+02 -2.499739E+03 -1.663992E+04 -2.205376E+03  3.301512E+03
       141  25  8.260378E+04 -6.617926E+03 -6.950870E+03 -1.659340E+04 -2.082071E+02  6.511109E+02
       141  26  5.153690E+04 -1.429660E+04 -1.502758E+04 -5.988585E+03 -8.414894E+02  1.977348E+03
       141  27  2.034182E+04 -2.214818E+04 -2.356076E+04 -1.661822E+04 -1.474891E+03  3.301457E+03
       142   1  2.361868E+05  3.153472E+04  2.695574E+04 -1.692936E+04  3.470557E+03 -4.079482E+03
       142   2  2.677793E+05  3.937253E+04  3.176666E+04 -5.996219E+03  6.367097E+03 -5.404670E+03
       142   3  2.985457E+05  4.531084E+04  3.422257E+04 -1.632742E+04  9.264137E+03 -6.690239E+03
       142   4  1.091793E+05  8.227091E+01 -3.323949E+03 -1.664667E+04  2.727552E+03 -4.079474E+03
       142   5  1.095937E+05  2.231870E+02 -5.828935E+03 -6.014292E+03  5.645285E+03 -5.404770E+03
       142   6  1.091775E+05 -1.539224E+03 -1.070397E+04 -1.664660E+04  8.563374E+03 -6.690442E+03
       142   7 -1.781344E+04 -3.137134E+04 -3.360477E+04 -1.636404E+04  1.984699E+03 -4.079465E+03
       142   8 -4.856898E+04 -3.892795E+04 -4.342628E+04 -6.032361E+03  4.923656E+03 -5.404870E+03
       142   9 -8.015780E+04 -4.839187E+04 -5.563301E+04 -1.696568E+04  7.862823E+03 -6.690645E+03
       142  10  2.361868E+05  3.153470E+04  2.695569E+04 -1.692935E+04 -5.593354E-10 -3.613469E-10
       142  11  2.677792E+05  3.937248E+04  3.176653E+04 -5.996191E+03  1.129653E-09  4.386615E-11
       142  12  2.985456E+05  4.531077E+04  3.422233E+04 -1.632737E+04  4.284216E-10  7.088927E-10
       142  13  1.091793E+05  8.225104E+01 -3.323994E+03 -1.664666E+04  1.408596E-12 -2.742219E-10
       142  14  1.095936E+05  2.231471E+02 -5.829050E+03 -6.014268E+03 -1.121721E-09  2.675344E-11
       142  15  1.091774E+05 -1.539291E+03 -1.070419E+04 -1.664655E+04  1.599461E-09  6.815876E-10
       142  16 -1.781345E+04 -3.137136E+04 -3.360481E+04 -1.636404E+04  8.272170E-11 -8.859126E-11
       142  17 -4.856902E+04 -3.892799E+04 -4.342638E+04 -6.032339E+03 -2.159270E-09  1.253326E-11
       142  18 -8.015788E+04 -4.839193E+04 -5.563321E+04 -1.696564E+04 -9.634898E-10  8.065407E-10
       142  19  2.361868E+05  3.153472E+04  2.695574E+04 -1.692936E+04 -3.470557E+03  4.079482E+03
       142  20  2.677793E+05  3.937253E+04  3.176666E+04 -5.996219E+03 -6.367097E+03  5.404670E+03
       142  21  2.985457E+05  4.531084E+04  3.422257E+04 -1.632742E+04 -9.264137E+03  6.690239E+03
       142  22  1.091793E+05  8.227091E+01 -3.323949E+03 -1.664667E+04 -2.727552E+03  4.079474E+03
       142  23  1.095937E+05  2.231870E+02 -5.828935E+03 -6.014292E+03 -5.645285E+03  5.404770E+03
       142  24  1.091775E+05 -1.539224E+03 -1.070397E+04 -1.664660E+04 -8.563374E+03  6.690442E+03
       142  25 -1.781344E+04 -3.137134E+04 -3.360477E+04 -1.636404E+04 -1.984699E+03  4.079465E+03
       142  26 -4.856898E+04 -3.892795E+04 -4.342628E+04 -6.032361E+03 -4.923656E+03  5.404870E+03
       142  27 -8.015780E+04 -4.839187E+04 -5.563301E+04 -1.696568E+04 -7.862823E+03  6.690645E+03
       143   1  3.354184E+05  5.714074E+04  4.039605E+04 -1.900391E+04  1.160378E+04 -7.546045E+03
       143   2  3.698122E+05  6.613137E+04  3.821096E+04 -4.740592E+03  2.316519E+04 -8.835428E+03
       143   3  3.979648E+05  5.584190E+04  2.370028E+04 -1.177073E+04  3.472760E+04 -9.519983E+03
       143   4  1.079570E+05  8.334686E+02 -1.374236E+04 -1.665505E+04  1.072073E+04 -7.546322E+03
       143   5  1.111076E+05  2.107992E+03 -2.327019E+04 -6.004712E+03  2.261162E+04 -8.835889E+03
       143   6  1.079554E+05 -1.595952E+04 -4.535637E+04 -1.664863E+04  3.450294E+04 -9.520646E+03
       143   7 -1.194571E+05 -5.547751E+04 -6.788438E+04 -1.430706E+04  9.837995E+03 -7.546606E+03
       143   8 -1.475355E+05 -6.192020E+04 -8.475602E+04 -7.268306E+03  2.205827E+04 -8.836347E+03
       143   9 -1.819768E+05 -8.776693E+04 -1.144189E+05 -2.152424E+04  3.427838E+04 -9.521306E+03
       143  10  3.354183E+05  5.714064E+04  4.039569E+04 -1.900384E+04 -5.528723E-10  3.229020E-10
       143  11  3.698116E+05  6.613114E+04  3.820981E+04 -4.740427E+03  2.819603E-09 -9.109793E-10
       143  12  3.979635E+05  5.584148E+04  2.369785E+04 -1.177046E+04  1.498832E-09 -1.233930E-09
       143  13  1.079568E+05  8.333766E+02 -1.374268E+04 -1.665498E+04  1.684613E-11  4.309918E-10
       143  14  1.111071E+05  2.107771E+03 -2.327130E+04 -6.004551E+03 -4.835981E-11 -9.347438E-10
       143  15  1.079541E+05 -1.595994E+04 -4.535878E+04 -1.664836E+04 -4.931482E-10 -1.214376E-09
       143  16 -1.194572E+05 -5.547760E+04 -6.788467E+04 -1.430700E+04 -2.068119E-09  6.167876E-10
       143  17 -1.475360E+05 -6.192041E+04 -8.475708E+04 -7.268149E+03 -1.172142E-09 -1.486199E-10
       143  18 -1.819780E+05 -8.776734E+04 -1.144213E+05 -2.152398E+04 -2.015137E-09 -1.119030E-09
       143  19  3.354184E+05  5.714074E+04  4.039605E+04 -1.900391E+04 -1.160378E+04  7.546045E+03
       143  20  3.698122E+05  6.613137E+04  3.821096E+04 -4.740592E+03 -2.316519E+04  8.835428E+03
       143  21  3.979648E+05  5.584190E+04  2.370028E+04 -1.177073E+04 -3.472760E+04  9.519983E+03
       143  22  1.079570E+05  8.334686E+02 -1.374236E+04 -1.665505E+04 -1.072073E+04  7.546322E+03
       143  23  1.111076E+05  2.107992E+03 -2.327019E+04 -6.004712E+03 -2.261162E+04  8.835889E+03
       143  24  1.079554E+05 -1.595952E+04 -4.535637E+04 -1.664863E+04 -3.450294E+04  9.520646E+03
       143  25 -1.194571E+05 -5.547751E+04 -6.788438E+04 -1.430706E+04 -9.837995E+03  7.546606E+03
       143  26 -1.475355E+05 -6.192020E+04 -8.475602E+04 -7.268306E+03 -2.205827E+04  8.836347E+03
       143  27 -1.819768E+05 -8.776693E+04 -1.144189E+05 -2.152424E+04 -3.427838E+04  9.521306E+03
       144   1  4.254812E+05  8.980591E+04  2.216437E+04 -3.893842E+04  4.600334E+04 -1.152634E+04
       144   2  4.839677E+05  1.096055E+05 -4.474690E+03  1.043671E+04  8.944268E+04 -1.226745E+04
       144   3  4.883623E+05 -6.508795E+04 -1.079559E+05  3.881102E+04  1.328773E+05 -3.957908E+03
       144   4  9.712763E+04  8.602656E+03 -5.574449E+04 -1.663018E+04  4.306406E+04 -1.152667E+04
       144   5  1.246286E+05  2.065913E+04 -8.985342E+04 -6.056069E+03  9.147498E+04 -1.226876E+04
       144   6  9.713802E+04 -1.627067E+05 -2.042886E+05 -1.648357E+04  1.398784E+05 -3.963309E+03
       144   7 -2.311259E+05 -7.260647E+04 -1.336606E+05  5.666211E+03  4.012633E+04 -1.152721E+04
       144   8 -2.345915E+05 -6.829556E+04 -1.752410E+05 -2.253928E+04  9.350609E+04 -1.227018E+04
       144   9 -2.939405E+05 -2.603254E+05 -3.006307E+05 -7.174333E+04  1.468752E+05 -3.969962E+03
       144  10  4.254789E+05  8.980520E+04  2.216015E+04 -3.893800E+04  7.821452E-10 -1.625331E-09
       144  11  4.839591E+05  1.096032E+05 -4.489996E+03  1.043759E+04  1.536438E-10 -3.036092E-09
       144  12  4.883434E+05 -6.509271E+04 -1.079891E+05  3.881145E+04 -1.502240E-09 -1.036899E-09
       144  13  9.712560E+04  8.602015E+03 -5.574822E+04 -1.662978E+04 -1.139943E-09 -3.466412E-09
       144  14  1.246196E+05  2.065672E+04 -8.986942E+04 -6.055165E+03  5.853716E-10  9.030146E-10
       144  15  9.711700E+04 -1.627120E+05 -2.043254E+05 -1.648313E+04 -2.203779E-09 -1.219494E-10
       144  16 -2.311277E+05 -7.260704E+04 -1.336638E+05  5.666584E+03 -2.450528E-09 -1.314890E-09
       144  17 -2.346009E+05 -6.829807E+04 -1.752577E+05 -2.253836E+04 -1.560741E-09  6.771274E-10
       144  18 -2.939637E+05 -2.603312E+05 -3.006713E+05 -7.174286E+04  2.511145E-09 -8.094691E-10
       144  19  4.254812E+05  8.980591E+04  2.216437E+04 -3.893842E+04 -4.600334E+04  1.152634E+04
       144  20  4.839677E+05  1.096055E+05 -4.474690E+03  1.043671E+04 -8.944268E+04  1.226745E+04
       144  21  4.883623E+05 -6.508795E+04 -1.079559E+05  3.881102E+04 -1.328773E+05  3.957908E+03
       144  22  9.712763E+04  8.602656E+03 -5.574449E+04 -1.663018E+04 -4.306406E+04  1.152667E+04
       144  23  1.246286E+05  2.065913E+04 -8.985342E+04 -6.056069E+03 -9.147498E+04  1.226876E+04
       144  24  9.713802E+04 -1.627067E+05 -2.042886E+05 -1.648357E+04 -1.398784E+05  3.963309E+03
       144  25 -2.311259E+05 -7.260647E+04 -1.336606E+05  5.666211E+03 -4.012633E+04  1.152721E+04
       144  26 -2.345915E+05 -6.829556E+04 -1.752410E+05 -2.253928E+04 -9.350609E+04  1.227018E+04
       144  27 -2.939405E+05 -2.603254E+05 -3.006307E+05 -7.174333E+04 -1.468752E+05  3.969962E+03
       145   1  3.565942E+05  1.070214E+06  3.590705E+05 -1.713714E+05  1.264046E+04  4.534352E+04
       145   2  2.488672E+05  7.604189E+05  2.552838E+05 -6.230796E+04  3.498215E+04  1.993649E+04
       145   3  1.764051E+05  4.629169E+05  1.768599E+05 -1.590311E+05  2.427984E+04 -5.515616E+03
       145   4  2.655287E+04 -2.541735E+05  3.270737E+04 -1.611736E+05  1.267319E+04  2.385488E+04
       145   5 -3.313275E+03 -2.586421E+05  1.318568E+04 -5.829244E+04  3.499213E+04  1.673042E+04
       145   6 -1.046991E+03 -2.540464E+05  6.370502E+03 -1.612159E+05  2.424360E+04  9.548400E+03
       145   7 -3.036185E+05 -1.576966E+06 -2.937837E+05 -1.509968E+05  1.270524E+04  2.411920E+03
       145   8 -2.555685E+05 -1.276750E+06 -2.289849E+05 -5.428305E+04  3.500208E+04  1.352956E+04
       145   9 -1.785359E+05 -9.705374E+05 -1.641540E+05 -1.633977E+05  2.420724E+04  2.459511E+04
       145  10  3.565935E+05  1.070212E+06  3.590664E+05 -1.713719E+05  3.001690E-10  5.880768E-09
       145  11  2.488658E+05  7.604182E+05  2.552808E+05 -6.230852E+04  2.267304E-09 -6.102753E-10
       145  12  1.764044E+05  4.629167E+05  1.768587E+05 -1.590310E+05 -5.516724E-10 -9.432899E-09
       145  13  2.655255E+04 -2.541741E+05  3.270600E+04 -1.611739E+05 -1.698948E-09 -3.668123E-11
       145  14 -3.314665E+03 -2.586428E+05  1.318285E+04 -5.829291E+04  1.526718E-09 -9.137323E-10
       145  15 -1.047646E+03 -2.540466E+05  6.369226E+03 -1.612160E+05 -6.827860E-10 -4.006075E-09
       145  16 -3.036187E+05 -1.576966E+06 -2.937840E+05 -1.509968E+05  6.032496E-10 -5.879312E-09
       145  17 -2.555698E+05 -1.276751E+06 -2.289876E+05 -5.428344E+04 -2.450847E-09  9.975097E-11
       145  18 -1.785367E+05 -9.705382E+05 -1.641562E+05 -1.633982E+05 -9.015447E-10  8.156195E-09
       145  19  3.565942E+05  1.070214E+06  3.590705E+05 -1.713714E+05 -1.264046E+04 -4.534352E+04
       145  20  2.488672E+05  7.604189E+05  2.552838E+05 -6.230796E+04 -3.498215E+04 -1.993649E+04
       145  21  1.764051E+05  4.629169E+05  1.768599E+05 -1.590311E+05 -2.427984E+04  5.515616E+03
       145  22  2.655287E+04 -2.541735E+05  3.270737E+04 -1.611736E+05 -1.267319E+04 -2.385488E+04
       145  23 -3.313275E+03 -2.586421E+05  1.318568E+04 -5.829244E+04 -3.499213E+04 -1.673042E+04
       145  24 -1.046991E+03 -2.540464E+05  6.370502E+03 -1.612159E+05 -2.424360E+04 -9.548400E+03
       145  25 -3.036185E+05 -1.576966E+06 -2.937837E+05 -1.509968E+05 -1.270524E+04 -2.411920E+03
       145  26 -2.555685E+05 -1.276750E+06 -2.289849E+05 -5.428305E+04 -3.500208E+04 -1.352956E+04
       145  27 -1.785359E+05 -9.705374E+05 -1.641540E+05 -1.633977E+05 -2.420724E+04 -2.459511E+04
       146   1  8.921142E+04  8.973856E+04  8.599949E+04 -1.622293E+05  1.189787E+04  2.931790E+03
       146   2  1.104896E+04 -2.131037E+05  7.615783E+03 -5.855975E+04  1.438110E+03  4.096625E+03
       146   3 -6.834789E+04 -5.175929E+05 -7.212466E+04 -1.619013E+05 -9.148768E+03  5.259616E+03
       146   4  3.538201E+03 -2.563404E+05  3.751561E+03 -1.614616E+05  1.188282E+04  8.666833E+03
       146   5  5.557493E+02 -2.554677E+05 -2.457826E+03 -5.796509E+04  1.422783E+03  9.901754E+03
       146   6 -3.665907E+03 -2.563364E+05 -1.006465E+04 -1.614805E+05 -9.164653E+03  1.113540E+04
       146   7 -8.214363E+04 -6.023092E+05 -7.850461E+04 -1.606943E+05  1.186777E+04  1.439869E+04
       146   8 -9.937577E+03 -2.978299E+05 -1.253143E+04 -5.737047E+04  1.407466E+03  1.570649E+04
       146   9  6.101118E+04  4.982971E+03  5.199072E+04 -1.610595E+05 -9.180527E+03  1.701365E+04
       146  10  8.921126E+04  8.973852E+04  8.599921E+04 -1.622293E+05 -1.435373E-09  1.307544E-09
       146  11  1.104896E+04 -2.131037E+05  7.615748E+03 -5.855975E+04 -1.611136E-09  2.424791E-11
       146  12 -6.834799E+04 -5.175930E+05 -7.212486E+04 -1.619013E+05 -2.349603E-10 -2.740012E-09
       146  13  3.538029E+03 -2.563405E+05  3.751155E+03 -1.614617E+05  1.984269E-09  2.575087E-11
       146  14  5.557207E+02 -2.554678E+05 -2.458014E+03 -5.796510E+04  2.223225E-09 -1.323696E-09
       146  15 -3.666030E+03 -2.563365E+05 -1.006504E+04 -1.614804E+05 -1.232492E-09 -4.329803E-09
       146  16 -8.214383E+04 -6.023095E+05 -7.850526E+04 -1.606944E+05  4.953960E-11 -1.349121E-09
       146  17 -9.937645E+03 -2.978302E+05 -1.253190E+04 -5.737048E+04  3.597809E-09 -6.761134E-10
       146  18  6.101102E+04  4.982637E+03  5.199001E+04 -1.610594E+05 -1.789008E-09  1.416812E-09
       146  19  8.921142E+04  8.973856E+04  8.599949E+04 -1.622293E+05 -1.189787E+04 -2.931790E+03
       146  20  1.104896E+04 -2.131037E+05  7.615783E+03 -5.855975E+04 -1.438110E+03 -4.096625E+03
       146  21 -6.834789E+04 -5.175929E+05 -7.212466E+04 -1.619013E+05  9.148768E+03 -5.259616E+03
       146  22  3.538201E+03 -2.563404E+05  3.751561E+03 -1.614616E+05 -1.188282E+04 -8.666833E+03
       146  23  5.557493E+02 -2.554677E+05 -2.457826E+03 -5.796509E+04 -1.422783E+03 -9.901754E+03
       146  24 -3.665907E+03 -2.563364E+05 -1.006465E+04 -1.614805E+05  9.164653E+03 -1.113540E+04
       146  25 -8.214363E+04 -6.023092E+05 -7.850461E+04 -1.606943E+05 -1.186777E+04 -1.439869E+04
       146  26 -9.937577E+03 -2.978299E+05 -1.253143E+04 -5.737047E+04 -1.407466E+03 -1.570649E+04
       146  27  6.101118E+04  4.982971E+03  5.199072E+04 -1.610595E+05  9.180527E+03 -1.701365E+04
       147   1 -1.532054E+05 -8.911076E+05 -1.637866E+05 -1.539635E+05 -2.125858E+04 -1.546184E+03
       147   2 -2.256968E+05 -1.185685E+06 -2.456906E+05 -6.129834E+04 -3.218638E+04  2.837191E+04
       147   3 -3.526820E+05 -1.497841E+06 -3.607782E+05 -1.746293E+05 -1.187652E+04  5.833356E+04
       147   4  3.368370E+03 -2.592916E+05 -1.335894E+04 -1.612161E+05 -2.129517E+04  1.305972E+04
       147   5  5.585215E+03 -2.520328E+05 -2.362787E+04 -5.826426E+04 -3.217773E+04  2.577774E+04
       147   6 -4.365079E+04 -2.594176E+05 -5.509147E+04 -1.612948E+05 -1.184238E+04  3.855453E+04
       147   7  1.599136E+05  3.728917E+05  1.370416E+05 -1.684758E+05 -2.133209E+04  2.768044E+04
       147   8  2.368044E+05  6.824210E+05  1.983739E+05 -5.522516E+04 -3.216911E+04  2.317965E+04
       147   9  2.652668E+05  9.804035E+05  2.504832E+05 -1.479328E+05 -1.180913E+04  1.873597E+04
       147  10 -1.532059E+05 -8.911077E+05 -1.637875E+05 -1.539636E+05  2.578271E-10  1.760568E-09
       147  11 -2.256981E+05 -1.185686E+06 -2.456940E+05 -6.129761E+04 -1.751903E-09  1.434632E-11
       147  12 -3.526831E+05 -1.497844E+06 -3.607849E+05 -1.746287E+05  1.033792E-09 -2.653924E-09
       147  13  3.367837E+03 -2.592919E+05 -1.336011E+04 -1.612159E+05 -2.554047E-09 -7.584641E-12
       147  14  5.583925E+03 -2.520337E+05 -2.363106E+04 -5.826360E+04 -2.636751E-10 -1.092587E-09
       147  15 -4.365134E+04 -2.594192E+05 -5.509453E+04 -1.612944E+05  7.307922E-10 -2.366670E-09
       147  16  1.599129E+05  3.728907E+05  1.370393E+05 -1.684753E+05 -2.180114E-09 -1.684452E-09
       147  17  2.368031E+05  6.824202E+05  1.983709E+05 -5.522456E+04 -1.364844E-10 -5.083026E-10
       147  18  2.652666E+05  9.804030E+05  2.504823E+05 -1.479327E+05 -4.284633E-10  1.781589E-09
       147  19 -1.532054E+05 -8.911076E+05 -1.637866E+05 -1.539635E+05  2.125858E+04  1.546184E+03
       147  20 -2.256968E+05 -1.185685E+06 -2.456906E+05 -6.129834E+04  3.218638E+04 -2.837191E+04
       147  21 -3.526820E+05 -1.497841E+06 -3.607782E+05 -1.746293E+05  1.187652E+04 -5.833356E+04
       147  22  3.368370E+03 -2.592916E+05 -1.335894E+04 -1.612161E+05  2.129517E+04 -1.305972E+04
       147  23  5.585215E+03 -2.520328E+05 -2.362787E+04 -5.826426E+04  3.217773E+04 -2.577774E+04
       147  24 -4.365079E+04 -2.594176E+05 -5.509147E+04 -1.612948E+05  1.184238E+04 -3.855453E+04
       147  25  1.599136E+05  3.728917E+05  1.370416E+05 -1.684758E+05  2.133209E+04 -2.768044E+04
       147  26  2.368044E+05  6.824210E+05  1.983739E+05 -5.522516E+04  3.216911E+04 -2.317965E+04
       147  27  2.652668E+05  9.804035E+05  2.504832E+05 -1.479328E+05  1.180913E+04 -1.873597E+04
       148   1 -1.189914E+06 -3.634516E+05 -2.092453E+05 -4.267490E+05 -8.722589E+04 -2.900458E+04
       148   2 -1.153783E+06 -2.259928E+05 -1.248809E+05 -4.254980E+05 -5.677272E+04 -1.008680E+04
       148   3 -1.149952E+06 -2.176610E+05 -9.630529E+04 -4.118825E+05 -2.348480E+04  1.297266E+03
       148   4 -9.089885E+05 -2.279525E+05 -1.270898E+05 -3.199863E+05 -8.193004E+04 -2.701877E+04
       148   5 -8.865996E+05 -1.170180E+05 -5.320006E+04 -3.437354E+05 -5.535264E+04 -9.554450E+03
       148   6 -8.957222E+05 -1.344135E+05 -3.200525E+04 -3.551260E+05 -2.594220E+04  3.745526E+02
       148   7 -6.279834E+05 -9.243247E+04 -4.494156E+04 -2.131745E+05 -7.663152E+04 -2.503132E+04
       148   8 -6.193458E+05 -8.035076E+03  1.847456E+04 -2.619396E+05 -5.393187E+04 -9.021795E+03
       148   9 -6.414296E+05 -5.116554E+04  3.228981E+04 -2.983502E+05 -2.840071E+04 -5.484533E+02
       148  10 -1.189922E+06 -3.634546E+05 -2.092612E+05 -4.267511E+05 -1.223631E-09  9.050504E-10
       148  11 -1.153787E+06 -2.259938E+05 -1.248871E+05 -4.254985E+05 -7.412493E-10  6.052378E-10
       148  12 -1.149953E+06 -2.176611E+05 -9.630634E+04 -4.118825E+05 -2.047678E-09  9.272284E-11
       148  13 -9.089959E+05 -2.279551E+05 -1.271038E+05 -3.199881E+05 -1.894482E-10  9.488826E-10
       148  14 -8.866029E+05 -1.170189E+05 -5.320600E+04 -3.437359E+05 -6.123547E-10  3.827697E-10
       148  15 -8.957229E+05 -1.344137E+05 -3.200652E+04 -3.551260E+05  1.402372E-09 -3.228807E-10
       148  16 -6.279899E+05 -9.243473E+04 -4.495378E+04 -2.131761E+05  6.703405E-10  9.761511E-10
       148  17 -6.193489E+05 -8.035946E+03  1.846893E+04 -2.619400E+05  6.372270E-11  1.216820E-10
       148  18 -6.414305E+05 -5.116576E+04  3.228829E+04 -2.983502E+05 -7.224281E-10  5.138587E-10
       148  19 -1.189914E+06 -3.634516E+05 -2.092453E+05 -4.267490E+05  8.722589E+04  2.900458E+04
       148  20 -1.153783E+06 -2.259928E+05 -1.248809E+05 -4.254980E+05  5.677272E+04  1.008680E+04
       148  21 -1.149952E+06 -2.176610E+05 -9.630529E+04 -4.118825E+05  2.348480E+04 -1.297266E+03
       148  22 -9.089885E+05 -2.279525E+05 -1.270898E+05 -3.199863E+05  8.193004E+04  2.701877E+04
       148  23 -8.865996E+05 -1.170180E+05 -5.320006E+04 -3.437354E+05  5.535264E+04  9.554450E+03
       148  24 -8.957222E+05 -1.344135E+05 -3.200525E+04 -3.551260E+05  2.594220E+04 -3.745526E+02
       148  25 -6.279834E+05 -9.243247E+04 -4.494156E+04 -2.131745E+05  7.663152E+04  2.503132E+04
       148  26 -6.193458E+05 -8.035076E+03  1.847456E+04 -2.619396E+05  5.393187E+04  9.021795E+03
       148  27 -6.414296E+05 -5.116554E+04  3.228981E+04 -2.983502E+05  2.840071E+04  5.484533E+02
       149   1 -1.096770E+06 -2.273886E+05 -8.048857E+04 -4.066870E+05 -2.051628E+04  3.425163E+02
       149   2 -1.073322E+06 -1.963127E+05 -5.924684E+04 -3.913396E+05 -1.342884E+04  2.144922E+03
       149   3 -1.039656E+06 -1.926716E+05 -4.630693E+04 -3.908640E+05 -6.131029E+03  3.386627E+03
       149   4 -8.914547E+05 -1.474826E+05 -2.598365E+04 -3.478386E+05 -2.076419E+04  2.491370E+02
       149   5 -8.959077E+05 -1.289650E+05 -1.256546E+04 -3.422137E+05 -1.396399E+04  1.943888E+03
       149   6 -8.900844E+05 -1.378229E+05 -7.218968E+03 -3.514612E+05 -6.953764E+03  3.077843E+03
       149   7 -6.860994E+05 -6.757348E+04  2.851743E+04 -2.889724E+05 -2.101218E+04  1.557217E+02
       149   8 -7.184629E+05 -6.161526E+04  3.411323E+04 -2.930751E+05 -1.449931E+04  1.742789E+03
       149   9 -7.404909E+05 -8.297304E+04  3.186723E+04 -3.120498E+05 -7.776720E+03  2.768982E+03
       149  10 -1.096770E+06 -2.273887E+05 -8.048936E+04 -4.066870E+05 -1.122324E-09  1.778316E-10
       149  11 -1.073322E+06 -1.963127E+05 -5.924719E+04 -3.913396E+05  9.296715E-10  3.584732E-10
       149  12 -1.039656E+06 -1.926716E+05 -4.630702E+04 -3.908640E+05 -4.543305E-11 -8.482668E-11
       149  13 -8.914552E+05 -1.474827E+05 -2.598446E+04 -3.478386E+05  8.292060E-10  2.176438E-10
       149  14 -8.959080E+05 -1.289651E+05 -1.256583E+04 -3.422137E+05  2.629278E-09 -6.139240E-10
       149  15 -8.900845E+05 -1.378230E+05 -7.219077E+03 -3.514612E+05 -2.512808E-10  3.097067E-10
       149  16 -6.860999E+05 -6.757360E+04  2.851660E+04 -2.889724E+05  4.462319E-10 -1.201302E-10
       149  17 -7.184631E+05 -6.161532E+04  3.411283E+04 -2.930751E+05 -1.654122E-09  1.074518E-11
       149  18 -7.404909E+05 -8.297306E+04  3.186710E+04 -3.120497E+05  2.504601E-09  5.150575E-10
       149  19 -1.096770E+06 -2.273886E+05 -8.048857E+04 -4.066870E+05  2.051628E+04 -3.425163E+02
       149  20 -1.073322E+06 -1.963127E+05 -5.924684E+04 -3.913396E+05  1.342884E+04 -2.144922E+03
       149  21 -1.039656E+06 -1.926716E+05 -4.630693E+04 -3.908640E+05  6.131029E+03 -3.386627E+03
       149  22 -8.914547E+05 -1.474826E+05 -2.598365E+04 -3.478386E+05  2.076419E+04 -2.491370E+02
       149  23 -8.959077E+05 -1.289650E+05 -1.256546E+04 -3.422137E+05  1.396399E+04 -1.943888E+03
       149  24 -8.900844E+05 -1.378229E+05 -7.218968E+03 -3.514612E+05  6.953764E+03 -3.077843E+03
       149  25 -6.860994E+05 -6.757348E+04  2.851743E+04 -2.889724E+05  2.101218E+04 -1.557217E+02
       149  26 -7.184629E+05 -6.161526E+04  3.411323E+04 -2.930751E+05  1.449931E+04 -1.742789E+03
       149  27 -7.404909E+05 -8.297304E+04  3.186723E+04 -3.120498E+05  7.776720E+03 -2.768982E+03
       150   1 -9.990105E+05 -1.805099E+05 -3.430522E+04 -3.808323E+05 -4.932185E+03  2.856231E+03
       150   2 -9.767474E+05 -1.601414E+05 -2.390227E+04 -3.637771E+05 -2.907016E+03  2.123051E+03
       150   3 -9.393259E+05 -1.568315E+05 -1.497481E+04 -3.645682E+05 -8.647779E+02  1.343772E+03
       150   4 -8.895128E+05 -1.391939E+05 -5.633254E+03 -3.507456E+05 -5.596262E+03  2.607039E+03
       150   5 -8.970237E+05 -1.301749E+05 -2.981155E+03 -3.420066E+05 -3.594609E+03  1.865102E+03
       150   6 -8.893721E+05 -1.382094E+05 -1.785533E+03 -3.511140E+05 -1.575973E+03  1.077043E+03
       150   7 -7.800036E+05 -9.787721E+04  2.303769E+04 -3.206541E+05 -6.260467E+03  2.357798E+03
       150   8 -8.172939E+05 -1.002080E+05  1.793938E+04 -3.202336E+05 -4.282299E+03  1.607118E+03
       150   9 -8.394160E+05 -1.195873E+05  1.140349E+04 -3.376588E+05 -2.287229E+03  8.102922E+02
       150  10 -9.990105E+05 -1.805099E+05 -3.430528E+04 -3.808323E+05  9.607422E-10  3.072378E-11
       150  11 -9.767474E+05 -1.601414E+05 -2.390229E+04 -3.637771E+05  9.937516E-10  1.420673E-10
       150  12 -9.393259E+05 -1.568315E+05 -1.497481E+04 -3.645682E+05 -1.255035E-09  2.713422E-10
       150  13 -8.895129E+05 -1.391940E+05 -5.633325E+03 -3.507456E+05  2.338995E-09  1.673710E-10
       150  14 -8.970237E+05 -1.301749E+05 -2.981186E+03 -3.420066E+05 -1.876224E-09 -7.759676E-11
       150  15 -8.893721E+05 -1.382094E+05 -1.785540E+03 -3.511140E+05 -7.218838E-10  2.877938E-10
       150  16 -7.800036E+05 -9.787723E+04  2.303761E+04 -3.206541E+05  1.495113E-09  2.766588E-10
       150  17 -8.172940E+05 -1.002080E+05  1.793935E+04 -3.202336E+05 -1.203248E-09 -2.915050E-10
       150  18 -8.394161E+05 -1.195873E+05  1.140347E+04 -3.376588E+05  5.664257E-10  2.938585E-10
       150  19 -9.990105E+05 -1.805099E+05 -3.430522E+04 -3.808323E+05  4.932185E+03 -2.856231E+03
       150  20 -9.767474E+05 -1.601414E+05 -2.390227E+04 -3.637771E+05  2.907016E+03 -2.123051E+03
       150  21 -9.393259E+05 -1.568315E+05 -1.497481E+04 -3.645682E+05  8.647779E+02 -1.343772E+03
       150  22 -8.895128E+05 -1.391939E+05 -5.633254E+03 -3.507456E+05  5.596262E+03 -2.607039E+03
       150  23 -8.970237E+05 -1.301749E+05 -2.981155E+03 -3.420066E+05  3.594609E+03 -1.865102E+03
       150  24 -8.893721E+05 -1.382094E+05 -1.785533E+03 -3.511140E+05  1.575973E+03 -1.077043E+03
       150  25 -7.800036E+05 -9.787721E+04  2.303769E+04 -3.206541E+05  6.260467E+03 -2.357798E+03
       150  26 -8.172939E+05 -1.002080E+05  1.793938E+04 -3.202336E+05  4.282299E+03 -1.607118E+03
       150  27 -8.394160E+05 -1.195873E+05  1.140349E+04 -3.376588E+05  2.287229E+03 -8.102922E+02
       151   1 -8.997241E+05 -1.422598E+05 -4.081601E+03 -3.539149E+05 -3.108365E+02  6.419050E+02
       151   2 -8.775644E+05 -1.229358E+05  4.076134E+03 -3.366367E+05  7.317324E+02 -5.147347E+02
       151   3 -8.396571E+05 -1.196571E+05  1.179302E+04 -3.375275E+05  1.774841E+03 -1.672535E+03
       151   4 -8.892929E+05 -1.383491E+05 -1.455585E+03 -3.510491E+05 -1.010925E+03  3.793587E+02
       151   5 -8.971613E+05 -1.302912E+05 -1.064286E+03 -3.419776E+05  3.101452E+01 -7.775370E+02
       151   6 -8.892834E+05 -1.382788E+05 -1.113475E+03 -3.510756E+05  1.073459E+03 -1.935597E+03
       151   7 -8.788616E+05 -1.344384E+05  1.170439E+03 -3.481832E+05 -1.711030E+03  1.168063E+02
       151   8 -9.167577E+05 -1.376466E+05 -6.204727E+03 -3.473182E+05 -6.696778E+02 -1.040330E+03
       151   9 -9.389069E+05 -1.569003E+05 -1.402006E+04 -3.646226E+05  3.721445E+02 -2.198633E+03
       151  10 -8.997241E+05 -1.422598E+05 -4.081602E+03 -3.539149E+05  8.254068E-10  5.733843E-10
       151  11 -8.775644E+05 -1.229358E+05  4.076132E+03 -3.366367E+05  2.098595E-09 -1.330881E-10
       151  12 -8.396571E+05 -1.196571E+05  1.179301E+04 -3.375275E+05  2.869475E-09 -2.098058E-10
       151  13 -8.892929E+05 -1.383491E+05 -1.455587E+03 -3.510491E+05 -6.264397E-11  1.968616E-10
       151  14 -8.971613E+05 -1.302912E+05 -1.064287E+03 -3.419776E+05 -2.360890E-09 -1.765648E-10
       151  15 -8.892834E+05 -1.382788E+05 -1.113484E+03 -3.510756E+05  1.272216E-09 -9.403137E-12
       151  16 -8.788616E+05 -1.344384E+05  1.170433E+03 -3.481832E+05 -8.535048E-10  6.532040E-12
       151  17 -9.167577E+05 -1.376466E+05 -6.204730E+03 -3.473182E+05 -2.859794E-09 -3.765112E-10
       151  18 -9.389069E+05 -1.569003E+05 -1.402007E+04 -3.646226E+05  5.623877E-10  3.453267E-10
       151  19 -8.997241E+05 -1.422598E+05 -4.081601E+03 -3.539149E+05  3.108365E+02 -6.419050E+02
       151  20 -8.775644E+05 -1.229358E+05  4.076134E+03 -3.366367E+05 -7.317324E+02  5.147347E+02
       151  21 -8.396571E+05 -1.196571E+05  1.179302E+04 -3.375275E+05 -1.774841E+03  1.672535E+03
       151  22 -8.892929E+05 -1.383491E+05 -1.455585E+03 -3.510491E+05  1.010925E+03 -3.793587E+02
       151  23 -8.971613E+05 -1.302912E+05 -1.064286E+03 -3.419776E+05 -3.101452E+01  7.775370E+02
       151  24 -8.892834E+05 -1.382788E+05 -1.113475E+03 -3.510756E+05 -1.073459E+03  1.935597E+03
       151  25 -8.788616E+05 -1.344384E+05  1.170439E+03 -3.481832E+05  1.711030E+03 -1.168063E+02
       151  26 -9.167577E+05 -1.376466E+05 -6.204727E+03 -3.473182E+05  6.696778E+02  1.040330E+03
       151  27 -9.389069E+05 -1.569003E+05 -1.402006E+04 -3.646226E+05 -3.721445E+02  2.198633E+03
       152   1 -8.003539E+05 -1.048510E+05  2.217855E+04 -3.268536E+05  2.267180E+03 -2.389919E+03
       152   2 -7.783993E+05 -8.575649E+04  2.919273E+04 -3.096714E+05  3.740119E+03 -3.377410E+03
       152   3 -7.409546E+05 -8.275221E+04  3.539690E+04 -3.104437E+05  5.208384E+03 -4.351148E+03
       152   4 -8.893331E+05 -1.382247E+05 -1.266620E+03 -3.510527E+05  1.566607E+03 -2.652717E+03
       152   5 -8.970966E+05 -1.303106E+05 -1.941256E+03 -3.420261E+05  3.046401E+03 -3.637743E+03
       152   6 -8.893718E+05 -1.384885E+05 -3.431328E+03 -3.509545E+05  4.521472E+03 -4.609030E+03
       152   7 -9.783050E+05 -1.715980E+05 -2.471256E+04 -3.752488E+05  8.661417E+02 -2.915475E+03
       152   8 -1.015781E+06 -1.748642E+05 -3.307666E+04 -3.743754E+05  2.352823E+03 -3.898024E+03
       152   9 -1.037769E+06 -1.942239E+05 -4.226182E+04 -3.914568E+05  3.834733E+03 -4.866848E+03
       152  10 -8.003539E+05 -1.048510E+05  2.217853E+04 -3.268536E+05  3.143639E-09  2.098405E-10
       152  11 -7.783993E+05 -8.575650E+04  2.919269E+04 -3.096714E+05  1.824255E-09  1.433367E-09
       152  12 -7.409546E+05 -8.275224E+04  3.539681E+04 -3.104437E+05  7.794996E-10  5.187253E-10
       152  13 -8.893331E+05 -1.382247E+05 -1.266638E+03 -3.510527E+05  1.235960E-10  5.678809E-10
       152  14 -8.970966E+05 -1.303107E+05 -1.941298E+03 -3.420261E+05  2.300744E-09  1.365296E-09
       152  15 -8.893718E+05 -1.384885E+05 -3.431407E+03 -3.509545E+05  1.005615E-10  4.583059E-10
       152  16 -9.783050E+05 -1.715980E+05 -2.471258E+04 -3.752488E+05  2.033948E-09  1.216691E-09
       152  17 -1.015781E+06 -1.748643E+05 -3.307670E+04 -3.743754E+05  1.596550E-09  1.230441E-09
       152  18 -1.037769E+06 -1.942239E+05 -4.226189E+04 -3.914568E+05 -8.707855E-10  4.863294E-10
       152  19 -8.003539E+05 -1.048510E+05  2.217855E+04 -3.268536E+05 -2.267180E+03  2.389919E+03
       152  20 -7.783993E+05 -8.575649E+04  2.919273E+04 -3.096714E+05 -3.740119E+03  3.377410E+03
       152  21 -7.409546E+05 -8.275221E+04  3.539690E+04 -3.104437E+05 -5.208384E+03  4.351148E+03
       152  22 -8.893331E+05 -1.382247E+05 -1.266620E+03 -3.510527E+05 -1.566607E+03  2.652717E+03
       152  23 -8.970966E+05 -1.303106E+05 -1.941256E+03 -3.420261E+05 -3.046401E+03  3.637743E+03
       152  24 -8.893718E+05 -1.384885E+05 -3.431328E+03 -3.509545E+05 -4.521472E+03  4.609030E+03
       152  25 -9.783050E+05 -1.715980E+05 -2.471256E+04 -3.752488E+05 -8.661417E+02  2.915475E+03
       152  26 -1.015781E+06 -1.748642E+05 -3.307666E+04 -3.743754E+05 -2.352823E+03  3.898024E+03
       152  27 -1.037769E+06 -1.942239E+05 -4.226182E+04 -3.914568E+05 -3.834733E+03  4.866848E+03
       153   1 -7.023092E+05 -6.810096E+04  4.471592E+04 -3.004193E+05  6.162312E+03 -4.886975E+03
       153   2 -6.806690E+05 -4.881157E+04  4.878625E+04 -2.831265E+05  1.062181E+04 -4.717096E+03
       153   3 -6.453810E+05 -4.823875E+04  4.901388E+04 -2.826833E+05  1.505499E+04 -4.474833E+03
       153   4 -8.896444E+05 -1.380617E+05 -4.459879E+03 -3.510907E+05  5.462274E+03 -5.149879E+03
       153   5 -8.966558E+05 -1.300384E+05 -7.892613E+03 -3.421641E+05  9.957684E+03 -4.966699E+03
       153   6 -8.900276E+05 -1.407397E+05 -1.519745E+04 -3.500874E+05  1.442658E+04 -4.711198E+03
       153   7 -1.076944E+06 -2.080199E+05 -5.363821E+04 -4.017480E+05  4.762475E+03 -5.412694E+03
       153   8 -1.112596E+06 -2.112620E+05 -6.457515E+04 -4.011829E+05  9.293813E+03 -5.216205E+03
       153   9 -1.134616E+06 -2.332366E+05 -7.941381E+04 -4.174673E+05  1.379845E+04 -4.947461E+03
       153  10 -7.023093E+05 -6.810099E+04  4.471580E+04 -3.004193E+05 -1.729955E-09 -1.584754E-10
       153  11 -6.806692E+05 -4.881163E+04  4.878599E+04 -2.831265E+05 -4.967987E-09  3.745867E-10
       153  12 -6.453812E+05 -4.823883E+04  4.901342E+04 -2.826833E+05 -5.506690E-11  1.381259E-10
       153  13 -8.896444E+05 -1.380618E+05 -4.459985E+03 -3.510907E+05  1.315450E-10 -1.938919E-11
       153  14 -8.966559E+05 -1.300385E+05 -7.892846E+03 -3.421641E+05 -1.037058E-09 -1.093342E-10
       153  15 -8.900279E+05 -1.407397E+05 -1.519788E+04 -3.500873E+05  1.164482E-10 -7.599675E-10
       153  16 -1.076944E+06 -2.080199E+05 -5.363831E+04 -4.017479E+05 -4.026479E-10  3.175924E-11
       153  17 -1.112596E+06 -2.112620E+05 -6.457536E+04 -4.011828E+05  2.815726E-09 -1.084505E-09
       153  18 -1.134616E+06 -2.332367E+05 -7.941421E+04 -4.174673E+05 -5.326150E-10 -1.897317E-09
       153  19 -7.023092E+05 -6.810096E+04  4.471592E+04 -3.004193E+05 -6.162312E+03  4.886975E+03
       153  20 -6.806690E+05 -4.881157E+04  4.878625E+04 -2.831265E+05 -1.062181E+04  4.717096E+03
       153  21 -6.453810E+05 -4.823875E+04  4.901388E+04 -2.826833E+05 -1.505499E+04  4.474833E+03
       153  22 -8.896444E+05 -1.380617E+05 -4.459879E+03 -3.510907E+05 -5.462274E+03  5.149879E+03
       153  23 -8.966558E+05 -1.300384E+05 -7.892613E+03 -3.421641E+05 -9.957684E+03  4.966699E+03
       153  24 -8.900276E+05 -1.407397E+05 -1.519745E+04 -3.500874E+05 -1.442658E+04  4.711198E+03
       153  25 -1.076944E+06 -2.080199E+05 -5.363821E+04 -4.017480E+05 -4.762475E+03  5.412694E+03
       153  26 -1.112596E+06 -2.112620E+05 -6.457515E+04 -4.011829E+05 -9.293813E+03  5.216205E+03
       153  27 -1.134616E+06 -2.332366E+05 -7.941381E+04 -4.174673E+05 -1.379845E+04  4.947461E+03
       154   1 -6.063937E+05 -3.351953E+04  5.466991E+04 -2.779661E+05  1.839322E+04 -4.198791E+03
       154   2 -5.846987E+05 -8.601016E+03  4.731220E+04 -2.562558E+05  3.615632E+04  1.063556E+03
       154   3 -5.624202E+05 -3.057408E+04  1.835196E+04 -2.435372E+05  5.362543E+04  7.112713E+03
       154   4 -8.915432E+05 -1.370608E+05 -1.954064E+04 -3.520866E+05  1.754600E+04 -4.517404E+03
       154   5 -8.936581E+05 -1.266857E+05 -3.411524E+04 -3.426620E+05  3.570639E+04  8.937959E+02
       154   6 -8.952763E+05 -1.632928E+05 -7.061630E+04 -3.422295E+05  5.357198E+04  7.091331E+03
       154   7 -1.176615E+06 -2.405988E+05 -9.375821E+04 -4.261771E+05  1.669920E+04 -4.835871E+03
       154   8 -1.202525E+06 -2.447638E+05 -1.155510E+05 -4.290293E+05  3.525671E+04  7.241304E+02
       154   9 -1.228025E+06 -2.960010E+05 -1.595943E+05 -4.408726E+05  5.351856E+04  7.069960E+03
       154  10 -6.063941E+05 -3.351964E+04  5.466924E+04 -2.779661E+05  9.514455E-11  6.238951E-10
       154  11 -5.847001E+05 -8.601368E+03  4.730974E+04 -2.562558E+05  2.381189E-09  8.553264E-10
       154  12 -5.624233E+05 -3.057491E+04  1.834646E+04 -2.435375E+05 -2.303834E-10 -1.351093E-09
       154  13 -8.915436E+05 -1.370609E+05 -1.954125E+04 -3.520865E+05  1.194512E-09 -3.754347E-10
       154  14 -8.936594E+05 -1.266860E+05 -3.411764E+04 -3.426620E+05  3.608326E-09  7.851120E-10
       154  15 -8.952794E+05 -1.632937E+05 -7.062180E+04 -3.422298E+05 -2.187338E-11 -1.598938E-10
       154  16 -1.176615E+06 -2.405989E+05 -9.375878E+04 -4.261771E+05 -3.560475E-11 -1.008103E-09
       154  17 -1.202527E+06 -2.447642E+05 -1.155534E+05 -4.290293E+05 -7.440855E-10  5.351116E-10
       154  18 -1.228028E+06 -2.960019E+05 -1.595998E+05 -4.408729E+05 -8.655218E-10 -8.901886E-10
       154  19 -6.063937E+05 -3.351953E+04  5.466991E+04 -2.779661E+05 -1.839322E+04  4.198791E+03
       154  20 -5.846987E+05 -8.601016E+03  4.731220E+04 -2.562558E+05 -3.615632E+04 -1.063556E+03
       154  21 -5.624202E+05 -3.057408E+04  1.835196E+04 -2.435372E+05 -5.362543E+04 -7.112713E+03
       154  22 -8.915432E+05 -1.370608E+05 -1.954064E+04 -3.520866E+05 -1.754600E+04  4.517404E+03
       154  23 -8.936581E+05 -1.266857E+05 -3.411524E+04 -3.426620E+05 -3.570639E+04 -8.937959E+02
       154  24 -8.952763E+05 -1.632928E+05 -7.061630E+04 -3.422295E+05 -5.357198E+04 -7.091331E+03
       154  25 -1.176615E+06 -2.405988E+05 -9.375821E+04 -4.261771E+05 -1.669920E+04  4.835871E+03
       154  26 -1.202525E+06 -2.447638E+05 -1.155510E+05 -4.290293E+05 -3.525671E+04 -7.241304E+02
       154  27 -1.228025E+06 -2.960010E+05 -1.595943E+05 -4.408726E+05 -5.351856E+04 -7.069960E+03
       155   1 -5.083049E+05 -1.156191E+04  1.102008E+04 -2.876671E+05  6.972691E+04  1.068987E+04
       155   2 -4.854290E+05  7.351227E+04 -3.971310E+04 -2.177631E+05  1.435897E+05  3.764527E+04
       155   3 -5.739711E+05 -1.623462E+05 -2.293993E+05 -8.360287E+04  2.135101E+05  7.507973E+04
       155   4 -9.066935E+05 -1.279631E+05 -8.699720E+04 -3.622749E+05  6.660639E+04  9.519084E+03
       155   5 -8.685160E+05 -9.396980E+04 -1.445978E+05 -3.465537E+05  1.458286E+05  3.848129E+04
       155   6 -9.429053E+05 -3.821059E+05 -3.454713E+05 -2.665553E+05  2.211081E+05  7.790919E+04
       155   7 -1.304927E+06 -2.443670E+05 -1.850255E+05 -4.368462E+05  6.348807E+04  8.348698E+03
       155   8 -1.251457E+06 -2.614267E+05 -2.494952E+05 -4.752667E+05  1.480660E+05  3.931652E+04
       155   9 -1.311687E+06 -6.017810E+05 -4.615542E+05 -4.493877E+05  2.287010E+05  8.073426E+04
       155  10 -5.083102E+05 -1.156334E+04  1.101072E+04 -2.876677E+05 -1.611490E-09 -7.664966E-10
       155  11 -4.854515E+05  7.350521E+04 -3.975455E+04 -2.177674E+05 -7.853876E-10 -2.597015E-11
       155  12 -5.740216E+05 -1.623645E+05 -2.294957E+05 -8.361579E+04  6.592589E-10  1.402279E-09
       155  13 -9.066983E+05 -1.279644E+05 -8.700572E+04 -3.622754E+05  1.694626E-10 -3.544369E-09
       155  14 -8.685393E+05 -9.397712E+04 -1.446406E+05 -3.465582E+05  4.090259E-13  1.855886E-09
       155  15 -9.429595E+05 -3.821255E+05 -3.455747E+05 -2.665691E+05 -5.968599E-10  1.008003E-09
       155  16 -1.304931E+06 -2.443682E+05 -1.850333E+05 -4.368466E+05  1.876670E-09 -3.546281E-10
       155  17 -1.251481E+06 -2.614343E+05 -2.495394E+05 -4.752714E+05 -3.217709E-09  2.689366E-09
       155  18 -1.311745E+06 -6.018021E+05 -4.616650E+05 -4.494026E+05 -1.921302E-09 -1.114753E-09
       155  19 -5.083049E+05 -1.156191E+04  1.102008E+04 -2.876671E+05 -6.972691E+04 -1.068987E+04
       155  20 -4.854290E+05  7.351227E+04 -3.971310E+04 -2.177631E+05 -1.435897E+05 -3.764527E+04
       155  21 -5.739711E+05 -1.623462E+05 -2.293993E+05 -8.360287E+04 -2.135101E+05 -7.507973E+04
       155  22 -9.066935E+05 -1.279631E+05 -8.699720E+04 -3.622749E+05 -6.660639E+04 -9.519084E+03
       155  23 -8.685160E+05 -9.396980E+04 -1.445978E+05 -3.465537E+05 -1.458286E+05 -3.848129E+04
       155  24 -9.429053E+05 -3.821059E+05 -3.454713E+05 -2.665553E+05 -2.211081E+05 -7.790919E+04
       155  25 -1.304927E+06 -2.443670E+05 -1.850255E+05 -4.368462E+05 -6.348807E+04 -8.348698E+03
       155  26 -1.251457E+06 -2.614267E+05 -2.494952E+05 -4.752667E+05 -1.480660E+05 -3.931652E+04
       155  27 -1.311687E+06 -6.017810E+05 -4.615542E+05 -4.493877E+05 -2.287010E+05 -8.073426E+04
       156   1  2.587695E+05  2.201944E+06  2.530763E+05 -9.954206E+04  1.147241E+04  1.061168E+05
       156   2  1.974979E+05  2.136667E+06  1.777250E+05 -7.631914E+04  3.905540E+04  5.449481E+04
       156   3  1.711588E+05  2.086843E+06  1.446613E+05 -6.359199E+04  4.752872E+04  2.861051E+03
       156   4  5.320306E+04  1.367213E+06  5.874449E+04 -6.423974E+04  1.155934E+04  3.739414E+04
       156   5  1.372563E+04  1.362579E+06  3.165425E+04 -5.902659E+04  3.910379E+04  2.120332E+04
       156   6  3.065810E+03  1.367273E+06  2.231742E+04 -6.430720E+04  4.753065E+04  4.994379E+03
       156   7 -1.524054E+05  5.331364E+05 -1.356160E+05 -2.898486E+04  1.163854E+04 -3.123702E+04
       156   8 -1.700798E+05  5.890695E+05 -1.144386E+05 -4.175586E+04  3.915036E+04 -1.204780E+04
       156   9 -1.650545E+05  6.482111E+05 -1.000434E+05 -6.502135E+04  4.753257E+04  7.125319E+03
       156  10  2.587664E+05  2.201931E+06  2.530549E+05 -9.954304E+04  1.467395E-09  5.407457E-09
       156  11  1.974955E+05  2.136664E+06  1.777166E+05 -7.632085E+04  4.513863E-09 -2.751686E-10
       156  12  1.711564E+05  2.086842E+06  1.446570E+05 -6.359210E+04  1.960549E-09 -1.810300E-09
       156  13  5.320254E+04  1.367212E+06  5.874162E+04 -6.424009E+04  2.008131E-09 -1.029655E-09
       156  14  1.372386E+04  1.362578E+06  3.165053E+04 -5.902726E+04  2.347667E-09  1.071139E-09
       156  15  3.063375E+03  1.367272E+06  2.231313E+04 -6.430739E+04  2.938555E-09 -8.939360E-10
       156  16 -1.524058E+05  5.331353E+05 -1.356181E+05 -2.898457E+04  3.894343E-10 -5.387519E-09
       156  17 -1.700815E+05  5.890689E+05 -1.144418E+05 -4.175548E+04  2.401798E-09 -1.722233E-09
       156  18 -1.650570E+05  6.482104E+05 -1.000478E+05 -6.502163E+04  2.432365E-09  2.524458E-09
       156  19  2.587695E+05  2.201944E+06  2.530763E+05 -9.954206E+04 -1.147241E+04 -1.061168E+05
       156  20  1.974979E+05  2.136667E+06  1.777250E+05 -7.631914E+04 -3.905540E+04 -5.449481E+04
       156  21  1.711588E+05  2.086843E+06  1.446613E+05 -6.359199E+04 -4.752872E+04 -2.861051E+03
       156  22  5.320306E+04  1.367213E+06  5.874449E+04 -6.423974E+04 -1.155934E+04 -3.739414E+04
       156  23  1.372563E+04  1.362579E+06  3.165425E+04 -5.902659E+04 -3.910379E+04 -2.120332E+04
       156  24  3.065810E+03  1.367273E+06  2.231742E+04 -6.430720E+04 -4.753065E+04 -4.994379E+03
       156  25 -1.524054E+05  5.331364E+05 -1.356160E+05 -2.898486E+04 -1.163854E+04  3.123702E+04
       156  26 -1.700798E+05  5.890695E+05 -1.144386E+05 -4.175586E+04 -3.915036E+04  1.204780E+04
       156  27 -1.650545E+05  6.482111E+05 -1.000434E+05 -6.502135E+04 -4.753257E+04 -7.125319E+03
       157   1  1.620357E+05  2.047800E+06  1.353180E+05 -6.765165E+04  4.638647E+04  8.328467E+02
       157   2  1.472100E+05  1.988710E+06  1.253198E+05 -5.871223E+04  4.459416E+04 -1.596301E+04
       157   3  1.397012E+05  1.933622E+06  1.280606E+05 -6.154659E+04  3.998844E+04 -3.276310E+04
       157   4  3.047333E+03  1.365896E+06  2.098742E+04 -6.458632E+04  4.638997E+04  1.592705E+03
       157   5  2.148953E+03  1.364356E+06  2.315672E+04 -5.869606E+04  4.458881E+04 -9.979863E+03
       157   6  7.666763E+03  1.365913E+06  3.445161E+04 -6.458004E+04  3.997299E+04 -2.155808E+04
       157   7 -1.559653E+05  6.844491E+05 -9.335768E+04 -6.152427E+04  4.639348E+04  2.351758E+03
       157   8 -1.429320E+05  7.403861E+05 -7.901742E+04 -5.867975E+04  4.458347E+04 -4.002509E+03
       157   9 -1.243841E+05  7.985218E+05 -5.916645E+04 -6.761049E+04  3.995742E+04 -1.036293E+04
       157  10  1.620334E+05  2.047799E+06  1.353139E+05 -6.765168E+04  1.445617E-10 -8.848484E-09
       157  11  1.472078E+05  1.988709E+06  1.253156E+05 -5.871165E+04  6.766144E-11  1.684284E-08
       157  12  1.396992E+05  1.933621E+06  1.280556E+05 -6.154553E+04 -1.353252E-09  4.568357E-08
       157  13  3.045020E+03  1.365895E+06  2.098337E+04 -6.458638E+04  6.441339E-10 -1.531267E-09
       157  14  2.146791E+03  1.364355E+06  2.315280E+04 -5.869570E+04 -2.285704E-09  1.409333E-09
       157  15  7.664922E+03  1.365912E+06  3.444773E+04 -6.457935E+04 -1.933818E-09 -1.129885E-09
       157  16 -1.559676E+05  6.844485E+05 -9.336174E+04 -6.152436E+04  5.653867E-10  8.609324E-09
       157  17 -1.429341E+05  7.403856E+05 -7.902118E+04 -5.867960E+04 -2.030304E-09 -1.928855E-08
       157  18 -1.243859E+05  7.985212E+05 -5.916965E+04 -6.761016E+04 -9.431701E-10 -4.491704E-08
       157  19  1.620357E+05  2.047800E+06  1.353180E+05 -6.765165E+04 -4.638647E+04 -8.328467E+02
       157  20  1.472100E+05  1.988710E+06  1.253198E+05 -5.871223E+04 -4.459416E+04  1.596301E+04
       157  21  1.397012E+05  1.933622E+06  1.280606E+05 -6.154659E+04 -3.998844E+04  3.276310E+04
       157  22  3.047333E+03  1.365896E+06  2.098742E+04 -6.458632E+04 -4.638997E+04 -1.592705E+03
       157  23  2.148953E+03  1.364356E+06  2.315672E+04 -5.869606E+04 -4.458881E+04  9.979863E+03
       157  24  7.666763E+03  1.365913E+06  3.445161E+04 -6.458004E+04 -3.997299E+04  2.155808E+04
       157  25 -1.559653E+05  6.844491E+05 -9.335768E+04 -6.152427E+04 -4.639348E+04 -2.351758E+03
       157  26 -1.429320E+05  7.403861E+05 -7.901742E+04 -5.867975E+04 -4.458347E+04  4.002509E+03
       157  27 -1.243841E+05  7.985218E+05 -5.916645E+04 -6.761049E+04 -3.995742E+04  1.036293E+04
       158   1  1.314218E+05  1.902167E+06  1.319284E+05 -7.022126E+04  3.686549E+04 -3.785623E+04
       158   2  1.478305E+05  1.832205E+06  1.624049E+05 -1.652316E+04  2.677591E+04 -9.395315E+04
       158   3  2.421870E+05  1.788978E+06  2.488106E+05  2.481985E+04  7.587492E+03 -1.500650E+05
       158   4  7.595644E+03  1.370530E+06  4.354120E+04 -6.473598E+04  3.684978E+04 -2.739953E+04
       158   5  3.623431E+04  1.358587E+06  7.626648E+04 -5.844646E+04  2.673428E+04 -6.663555E+04
       158   6  1.399207E+05  1.370460E+06  1.532464E+05 -6.450941E+04  7.525287E+03 -1.058892E+05
       158   7 -1.162450E+05  8.391730E+05 -4.485421E+04 -5.925540E+04  3.683425E+04 -1.695145E+04
       158   8 -7.536739E+04  8.851929E+05 -9.877110E+03 -1.003369E+05  2.668895E+04 -3.933817E+04
       158   9  3.767338E+04  9.521257E+05  5.768239E+04 -1.537780E+05  7.450384E+03 -6.174285E+04
       158  10  1.314200E+05  1.902165E+06  1.319232E+05 -7.022014E+04 -2.658458E-09 -4.832411E-08
       158  11  1.478273E+05  1.832195E+06  1.623870E+05 -1.652113E+04 -1.046273E-09 -2.305688E-08
       158  12  2.421809E+05  1.788954E+06  2.487683E+05  2.482077E+04 -5.761940E-10  1.108929E-08
       158  13  7.593984E+03  1.370529E+06  4.353724E+04 -6.473516E+04 -5.162911E-09 -1.726345E-09
       158  14  3.623235E+04  1.358582E+06  7.625681E+04 -5.844503E+04 -7.691543E-10  2.112050E-09
       158  15  1.399176E+05  1.370448E+06  1.532253E+05 -6.450877E+04 -6.424868E-10 -8.087763E-10
       158  16 -1.162465E+05  8.391723E+05 -4.485730E+04 -5.925490E+04 -1.752240E-09  4.822777E-08
       158  17 -7.536857E+04  8.851910E+05 -9.881353E+03 -1.003361E+05 -2.835799E-10  2.071038E-08
       158  18  3.767229E+04  9.521216E+05  5.767513E+04 -1.537777E+05  4.897365E-11 -9.889778E-09
       158  19  1.314218E+05  1.902167E+06  1.319284E+05 -7.022126E+04 -3.686549E+04  3.785623E+04
       158  20  1.478305E+05  1.832205E+06  1.624049E+05 -1.652316E+04 -2.677591E+04  9.395315E+04
       158  21  2.421870E+05  1.788978E+06  2.488106E+05  2.481985E+04 -7.587492E+03  1.500650E+05
       158  22  7.595644E+03  1.370530E+06  4.354120E+04 -6.473598E+04 -3.684978E+04  2.739953E+04
       158  23  3.623431E+04  1.358587E+06  7.626648E+04 -5.844646E+04 -2.673428E+04  6.663555E+04
       158  24  1.399207E+05  1.370460E+06  1.532464E+05 -6.450941E+04 -7.525287E+03  1.058892E+05
       158  25 -1.162450E+05  8.391730E+05 -4.485421E+04 -5.925540E+04 -3.683425E+04  1.695145E+04
       158  26 -7.536739E+04  8.851929E+05 -9.877110E+03 -1.003369E+05 -2.668895E+04  3.933817E+04
       158  27  3.767338E+04  9.521257E+05  5.768239E+04 -1.537780E+05 -7.450384E+03  6.174285E+04
       159   1 -1.011576E+04 -1.102825E+05 -4.782100E+04  1.120485E+04  1.713483E+05  1.450863E+04
       159   2  7.489197E+04 -3.341129E+05 -1.670063E+05 -4.065290E+02  1.210128E+05  4.245328E+04
       159   3  2.359956E+05 -2.871034E+05 -1.853407E+05 -9.516478E+04  7.073000E+04  3.907274E+04
       159   4  1.346603E+06  2.271774E+05  2.859497E+05 -6.346220E+04  1.957784E+05  1.454138E+04
       159   5  1.307240E+06 -2.936942E+04  1.256455E+05 -2.165335E+04  1.280196E+05  4.245481E+04
       159   6  1.346813E+06 -1.235587E+04  7.811981E+04 -6.297390E+04  6.032548E+04  3.906186E+04
       159   7  2.705008E+06  5.645226E+05  6.195903E+05 -1.382935E+05  2.202614E+05  1.456824E+04
       159   8  2.540981E+06  2.752668E+05  4.181919E+05 -4.294309E+04  1.350401E+05  4.245586E+04
       159   9  2.458765E+06  2.623070E+05  3.414954E+05 -3.072538E+04  4.990237E+04  3.904992E+04
       159  10 -1.014734E+04 -1.102906E+05 -4.787656E+04  1.120285E+04 -9.709895E-09 -5.196150E-10
       159  11  7.487577E+04 -3.341188E+05 -1.670372E+05 -4.106676E+02  5.713820E-10 -1.132032E-09
       159  12  2.359898E+05 -2.871064E+05 -1.853530E+05 -9.516701E+04  1.253782E-08 -2.282521E-11
       159  13  1.346561E+06  2.271670E+05  2.858774E+05 -6.346449E+04  6.346793E-10 -4.346659E-10
       159  14  1.307222E+06 -2.937575E+04  1.256114E+05 -2.165772E+04  9.680452E-10 -9.338996E-10
       159  15  1.346809E+06 -1.235848E+04  7.811012E+04 -6.297580E+04  1.063781E-09 -5.293325E-11
       159  16  2.704956E+06  5.645094E+05  6.194991E+05 -1.382961E+05  9.604695E-09 -3.217761E-10
       159  17  2.540961E+06  2.752600E+05  4.181544E+05 -4.294770E+04 -4.103286E-10 -8.366955E-10
       159  18  2.458762E+06  2.623047E+05  3.414879E+05 -3.072695E+04 -1.319905E-08 -3.483708E-10
       159  19 -1.011576E+04 -1.102825E+05 -4.782100E+04  1.120485E+04 -1.713483E+05 -1.450863E+04
       159  20  7.489197E+04 -3.341129E+05 -1.670063E+05 -4.065290E+02 -1.210128E+05 -4.245328E+04
       159  21  2.359956E+05 -2.871034E+05 -1.853407E+05 -9.516478E+04 -7.073000E+04 -3.907274E+04
       159  22  1.346603E+06  2.271774E+05  2.859497E+05 -6.346220E+04 -1.957784E+05 -1.454138E+04
       159  23  1.307240E+06 -2.936942E+04  1.256455E+05 -2.165335E+04 -1.280196E+05 -4.245481E+04
       159  24  1.346813E+06 -1.235587E+04  7.811981E+04 -6.297390E+04 -6.032548E+04 -3.906186E+04
       159  25  2.705008E+06  5.645226E+05  6.195903E+05 -1.382935E+05 -2.202614E+05 -1.456824E+04
       159  26  2.540981E+06  2.752668E+05  4.181919E+05 -4.294309E+04 -1.350401E+05 -4.245586E+04
       159  27  2.458765E+06  2.623070E+05  3.414954E+05 -3.072538E+04 -4.990237E+04 -3.904992E+04
       160   1  3.665140E+05 -2.167446E+05 -1.660743E+05 -5.622820E+04  4.925344E+04  3.177022E+04
       160   2  4.792105E+05 -2.127131E+05 -1.686696E+05 -2.087911E+04  3.373725E+04  2.894622E+04
       160   3  6.013859E+05 -1.818038E+05 -1.542914E+05 -6.554788E+04  1.821174E+04  2.409600E+04
       160   4  1.331464E+06  2.198308E+04  6.353151E+04 -6.242464E+04  4.830823E+04  3.176584E+04
       160   5  1.326672E+06 -3.132296E+03  3.258796E+04 -2.241447E+04  3.164942E+04  2.894312E+04
       160   6  1.331529E+06 -1.192186E+03  1.939113E+04 -6.241450E+04  1.498419E+04  2.409523E+04
       160   7  2.297267E+06  2.606438E+05  2.930723E+05 -6.863084E+04  4.736151E+04  3.176148E+04
       160   8  2.174791E+06  2.063970E+05  2.337955E+05 -2.395195E+04  2.955873E+04  2.894004E+04
       160   9  2.062160E+06  1.793811E+05  1.930364E+05 -5.927736E+04  1.175287E+04  2.409443E+04
       160  10  3.665111E+05 -2.167463E+05 -1.660808E+05 -5.622947E+04  3.879346E-09  6.812786E-10
       160  11  4.792091E+05 -2.127144E+05 -1.686733E+05 -2.087990E+04  1.497876E-09  5.817452E-10
       160  12  6.013854E+05 -1.818045E+05 -1.542931E+05 -6.554824E+04  2.892171E-10  3.296559E-10
       160  13  1.331461E+06  2.198137E+04  6.352524E+04 -6.242588E+04  1.341809E-10  5.105040E-10
       160  14  1.326670E+06 -3.133464E+03  3.258450E+04 -2.241521E+04 -1.062556E-09  6.892887E-10
       160  15  1.331529E+06 -1.192870E+03  1.938961E+04 -6.241479E+04  8.841525E-10  3.938056E-10
       160  16  2.297264E+06  2.606422E+05  2.930662E+05 -6.863205E+04 -2.883537E-09  2.947171E-10
       160  17  2.174790E+06  2.063958E+05  2.337923E+05 -2.395264E+04 -5.798860E-11  8.411949E-10
       160  18  2.062160E+06  1.793804E+05  1.930351E+05 -5.927759E+04 -1.082196E-09  4.657074E-10
       160  19  3.665140E+05 -2.167446E+05 -1.660743E+05 -5.622820E+04 -4.925344E+04 -3.177022E+04
       160  20  4.792105E+05 -2.127131E+05 -1.686696E+05 -2.087911E+04 -3.373725E+04 -2.894622E+04
       160  21  6.013859E+05 -1.818038E+05 -1.542914E+05 -6.554788E+04 -1.821174E+04 -2.409600E+04
       160  22  1.331464E+06  2.198308E+04  6.353151E+04 -6.242464E+04 -4.830823E+04 -3.176584E+04
       160  23  1.326672E+06 -3.132296E+03  3.258796E+04 -2.241447E+04 -3.164942E+04 -2.894312E+04
       160  24  1.331529E+06 -1.192186E+03  1.939113E+04 -6.241450E+04 -1.498419E+04 -2.409523E+04
       160  25  2.297267E+06  2.606438E+05  2.930723E+05 -6.863084E+04 -4.736151E+04 -3.176148E+04
       160  26  2.174791E+06  2.063970E+05  2.337955E+05 -2.395195E+04 -2.955873E+04 -2.894004E+04
       160  27  2.062160E+06  1.793811E+05  1.930364E+05 -5.927736E+04 -1.175287E+04 -2.409443E+04
       161   1  7.403330E+05 -1.435921E+05 -1.245211E+05 -6.129979E+04  1.450953E+04  2.094523E+04
       161   2  8.538660E+05 -1.178282E+05 -1.044399E+05 -2.273989E+04  1.036538E+04  1.621195E+04
       161   3  9.687139E+05 -8.931954E+04 -8.096150E+04 -6.201477E+04  6.215977E+03  1.137741E+04
       161   4  1.329724E+06  2.084965E+03  1.513052E+04 -6.193176E+04  1.192827E+04  2.094525E+04
       161   5  1.329081E+06 -3.312447E+02  8.393157E+03 -2.301693E+04  7.724325E+03  1.621311E+04
       161   6  1.329752E+06  7.542394E+00  5.092933E+03 -6.193314E+04  3.515875E+03  1.137979E+04
       161   7  1.919434E+06  1.477371E+05  1.547580E+05 -6.256428E+04  9.344567E+03  2.094527E+04
       161   8  1.804503E+06  1.171495E+05  1.212105E+05 -2.329414E+04  5.081256E+03  1.621428E+04
       161   9  1.690909E+06  8.932523E+04  9.113825E+04 -6.185142E+04  8.142112E+02  1.138218E+04
       161  10  7.403327E+05 -1.435926E+05 -1.245223E+05 -6.130003E+04  9.092656E-10 -3.556413E-11
       161  11  8.538659E+05 -1.178285E+05 -1.044406E+05 -2.274002E+04  1.252390E-10 -5.689854E-10
       161  12  9.687138E+05 -8.931969E+04 -8.096181E+04 -6.201483E+04 -5.308765E-10  2.338217E-10
       161  13  1.329724E+06  2.084455E+03  1.512943E+04 -6.193196E+04 -1.054623E-10 -5.964026E-11
       161  14  1.329081E+06 -3.315432E+02  8.392551E+03 -2.301703E+04 -1.257134E-09 -3.350668E-10
       161  15  1.329752E+06  7.399932E+00  5.092666E+03 -6.193317E+04 -1.142843E-09  4.855495E-10
       161  16  1.919433E+06  1.477366E+05  1.547570E+05 -6.256444E+04 -1.074048E-09 -8.703985E-11
       161  17  1.804503E+06  1.171492E+05  1.212100E+05 -2.329421E+04 -1.808468E-10 -2.865954E-10
       161  18  1.690909E+06  8.932509E+04  9.113800E+04 -6.185143E+04  6.269149E-10  6.457887E-10
       161  19  7.403330E+05 -1.435921E+05 -1.245211E+05 -6.129979E+04 -1.450953E+04 -2.094523E+04
       161  20  8.538660E+05 -1.178282E+05 -1.044399E+05 -2.273989E+04 -1.036538E+04 -1.621195E+04
       161  21  9.687139E+05 -8.931954E+04 -8.096150E+04 -6.201477E+04 -6.215977E+03 -1.137741E+04
       161  22  1.329724E+06  2.084965E+03  1.513052E+04 -6.193176E+04 -1.192827E+04 -2.094525E+04
       161  23  1.329081E+06 -3.312447E+02  8.393157E+03 -2.301693E+04 -7.724325E+03 -1.621311E+04
       161  24  1.329752E+06  7.542394E+00  5.092933E+03 -6.193314E+04 -3.515875E+03 -1.137979E+04
       161  25  1.919434E+06  1.477371E+05  1.547580E+05 -6.256428E+04 -9.344567E+03 -2.094527E+04
       161  26  1.804503E+06  1.171495E+05  1.212105E+05 -2.329414E+04 -5.081256E+03 -1.621428E+04
       161  27  1.690909E+06  8.932523E+04  9.113825E+04 -6.185142E+04 -8.142112E+02 -1.138218E+04
       162   1  1.106405E+06 -5.479032E+04 -4.857036E+04 -6.154641E+04  5.339864E+03  8.555391E+03
       162   2  1.219133E+06 -2.726322E+04 -2.345065E+04 -2.321162E+04  3.976805E+03  3.760143E+03
       162   3  1.331958E+06  6.876239E+02  2.616518E+03 -6.173962E+04  2.612436E+03 -1.034957E+03
       162   4  1.329500E+06  2.934743E+02  4.051715E+03 -6.171722E+04  2.688876E+03  8.558200E+03
       162   5  1.329462E+06  9.471009E+00  2.739548E+03 -2.328636E+04  1.325256E+03  3.763192E+03
       162   6  1.329506E+06  1.496370E+02  2.375180E+03 -6.171743E+04 -3.943009E+01 -1.031622E+03
       162   7  1.552641E+06  5.537372E+04  5.667038E+04 -6.188808E+04  3.694287E+01  8.561009E+03
       162   8  1.439801E+06  2.728129E+04  2.892892E+04 -2.336110E+04 -1.326761E+03  3.766242E+03
       162   9  1.327054E+06 -3.883462E+02  2.133868E+03 -6.169523E+04 -2.691287E+03 -1.028286E+03
       162  10  1.106405E+06 -5.479041E+04 -4.857055E+04 -6.154645E+04  8.191698E-10  5.323495E-10
       162  11  1.219133E+06 -2.726324E+04 -2.345070E+04 -2.321163E+04  9.214951E-12 -1.245968E-10
       162  12  1.331958E+06  6.876209E+02  2.616504E+03 -6.173962E+04 -6.810982E-12 -2.167728E-10
       162  13  1.329500E+06  2.933936E+02  4.051564E+03 -6.171724E+04  3.750539E-10  3.480751E-10
       162  14  1.329462E+06  9.455322E+00  2.739519E+03 -2.328636E+04 -1.428744E-09 -7.975548E-11
       162  15  1.329506E+06  1.496359E+02  2.375178E+03 -6.171743E+04 -1.581384E-09 -5.521917E-12
       162  16  1.552641E+06  5.537364E+04  5.667024E+04 -6.188808E+04 -3.771079E-10  2.284518E-10
       162  17  1.439801E+06  2.728127E+04  2.892889E+04 -2.336110E+04  8.328714E-10 -8.110415E-10
       162  18  1.327054E+06 -3.883493E+02  2.133852E+03 -6.169523E+04  1.029368E-09 -1.671244E-10
       162  19  1.106405E+06 -5.479032E+04 -4.857036E+04 -6.154641E+04 -5.339864E+03 -8.555391E+03
       162  20  1.219133E+06 -2.726322E+04 -2.345065E+04 -2.321162E+04 -3.976805E+03 -3.760143E+03
       162  21  1.331958E+06  6.876239E+02  2.616518E+03 -6.173962E+04 -2.612436E+03  1.034957E+03
       162  22  1.329500E+06  2.934743E+02  4.051715E+03 -6.171722E+04 -2.688876E+03 -8.558200E+03
       162  23  1.329462E+06  9.471009E+00  2.739548E+03 -2.328636E+04 -1.325256E+03 -3.763192E+03
       162  24  1.329506E+06  1.496370E+02  2.375180E+03 -6.171743E+04  3.943009E+01  1.031622E+03
       162  25  1.552641E+06  5.537372E+04  5.667038E+04 -6.188808E+04 -3.694287E+01 -8.561009E+03
       162  26  1.439801E+06  2.728129E+04  2.892892E+04 -2.336110E+04  1.326761E+03 -3.766242E+03
       162  27  1.327054E+06 -3.883462E+02  2.133868E+03 -6.169523E+04  2.691287E+03  1.028286E+03
       163   1  1.469303E+06  3.476156E+04  3.598160E+04 -6.185861E+04  2.172253E+03 -3.826444E+03
       163   2  1.582355E+06  6.249419E+04  6.323873E+04 -2.338110E+04  5.789462E+02 -8.629783E+03
       163   3  1.695614E+06  9.070992E+04  9.162005E+04 -6.200151E+04 -1.012252E+03 -1.344394E+04
       163   4  1.329526E+06  1.465975E+02  2.466051E+03 -6.177030E+04 -4.820328E+02 -3.823221E+03
       163   5  1.329421E+06 -1.624380E+01  3.209396E+03 -2.322026E+04 -2.080990E+03 -8.627182E+03
       163   6  1.329512E+06  3.059992E+02  5.081950E+03 -6.177007E+04 -3.677553E+03 -1.344191E+04
       163   7  1.189767E+06 -3.446978E+04 -3.105085E+04 -6.168200E+04 -3.135724E+03 -3.819999E+03
       163   8  1.076546E+06 -6.253127E+04 -5.682436E+04 -2.305947E+04 -4.739850E+03 -8.624580E+03
       163   9  9.635339E+05 -9.010750E+04 -8.146540E+04 -6.153873E+04 -6.341295E+03 -1.343989E+04
       163  10  1.469303E+06  3.476154E+04  3.598156E+04 -6.185860E+04  3.879743E-10 -1.491803E-10
       163  11  1.582355E+06  6.249411E+04  6.323859E+04 -2.338109E+04  4.042869E-10  1.330722E-10
       163  12  1.695614E+06  9.070972E+04  9.161971E+04 -6.200152E+04  6.887612E-10  1.124753E-10
       163  13  1.329526E+06  1.465817E+02  2.466023E+03 -6.177030E+04  5.892914E-10  3.636161E-10
       163  14  1.329421E+06 -1.632494E+01  3.209248E+03 -2.322027E+04 -3.234187E-10  4.331209E-10
       163  15  1.329512E+06  3.058015E+02  5.081585E+03 -6.177011E+04 -3.354865E-11 -6.424355E-11
       163  16  1.189767E+06 -3.446980E+04 -3.105090E+04 -6.168201E+04  3.176271E-11  3.319939E-10
       163  17  1.076546E+06 -6.253136E+04 -5.682454E+04 -2.305950E+04 -1.746307E-11  4.892573E-10
       163  18  9.635338E+05 -9.010771E+04 -8.146581E+04 -6.153880E+04 -7.033745E-10 -7.819285E-10
       163  19  1.469303E+06  3.476156E+04  3.598160E+04 -6.185861E+04 -2.172253E+03  3.826444E+03
       163  20  1.582355E+06  6.249419E+04  6.323873E+04 -2.338110E+04 -5.789462E+02  8.629783E+03
       163  21  1.695614E+06  9.070992E+04  9.162005E+04 -6.200151E+04  1.012252E+03  1.344394E+04
       163  22  1.329526E+06  1.465975E+02  2.466051E+03 -6.177030E+04  4.820328E+02  3.823221E+03
       163  23  1.329421E+06 -1.624380E+01  3.209396E+03 -2.322026E+04  2.080990E+03  8.627182E+03
       163  24  1.329512E+06  3.059992E+02  5.081950E+03 -6.177007E+04  3.677553E+03  1.344191E+04
       163  25  1.189767E+06 -3.446978E+04 -3.105085E+04 -6.168200E+04  3.135724E+03  3.819999E+03
       163  26  1.076546E+06 -6.253127E+04 -5.682436E+04 -2.305947E+04  4.739850E+03  8.624580E+03
       163  27  9.635339E+05 -9.010750E+04 -8.146540E+04 -6.153873E+04  6.341295E+03  1.343989E+04
       164   1  1.834845E+06  1.247874E+05  1.266655E+05 -6.192604E+04 -1.999697E+03 -1.628460E+04
       164   2  1.949222E+06  1.527976E+05  1.580546E+05 -2.303068E+04 -7.508988E+03 -2.115572E+04
       164   3  2.065495E+06  1.843509E+05  1.939634E+05 -6.269495E+04 -1.301325E+04 -2.592276E+04
       164   4  1.329853E+06 -6.466779E+01  6.495619E+03 -6.209595E+04 -4.722993E+03 -1.628324E+04
       164   5  1.328897E+06 -4.765014E+02  1.086477E+04 -2.281334E+04 -1.017001E+04 -2.115593E+04
       164   6  1.329817E+06  2.647670E+03  1.971515E+04 -6.209514E+04 -1.561100E+04 -2.592445E+04
       164   7  8.250946E+05 -1.249351E+05 -1.136921E+05 -6.226566E+04 -7.444089E+03 -1.628188E+04
       164   8  7.089237E+05 -1.537782E+05 -1.363519E+05 -2.259618E+04 -1.282840E+04 -2.115614E+04
       164   9  5.946347E+05 -1.790944E+05 -1.545707E+05 -6.149602E+04 -1.820569E+04 -2.592614E+04
       164  10  1.834845E+06  1.247871E+05  1.266650E+05 -6.192607E+04 -3.215845E-10 -6.615638E-10
       164  11  1.949222E+06  1.527971E+05  1.580537E+05 -2.303081E+04  1.120648E-09 -5.570090E-10
       164  12  2.065495E+06  1.843502E+05  1.939618E+05 -6.269522E+04 -6.653752E-10  2.469375E-10
       164  13  1.329853E+06 -6.495867E+01  6.495078E+03 -6.209601E+04 -1.147037E-09 -5.771453E-10
       164  14  1.328897E+06 -4.770100E+02  1.086373E+04 -2.281352E+04 -5.163656E-10 -4.857078E-10
       164  15  1.329817E+06  2.646883E+03  1.971343E+04 -6.209547E+04 -1.610860E-10  4.644532E-10
       164  16  8.250945E+05 -1.249354E+05 -1.136927E+05 -6.226576E+04  1.550244E-10 -7.318899E-10
       164  17  7.089234E+05 -1.537787E+05 -1.363530E+05 -2.259640E+04 -5.243760E-10  1.341862E-10
       164  18  5.946341E+05 -1.790952E+05 -1.545725E+05 -6.149640E+04 -4.422530E-10  7.592870E-10
       164  19  1.834845E+06  1.247874E+05  1.266655E+05 -6.192604E+04  1.999697E+03  1.628460E+04
       164  20  1.949222E+06  1.527976E+05  1.580546E+05 -2.303068E+04  7.508988E+03  2.115572E+04
       164  21  2.065495E+06  1.843509E+05  1.939634E+05 -6.269495E+04  1.301325E+04  2.592276E+04
       164  22  1.329853E+06 -6.466779E+01  6.495619E+03 -6.209595E+04  4.722993E+03  1.628324E+04
       164  23  1.328897E+06 -4.765014E+02  1.086477E+04 -2.281334E+04  1.017001E+04  2.115593E+04
       164  24  1.329817E+06  2.647670E+03  1.971515E+04 -6.209514E+04  1.561100E+04  2.592445E+04
       164  25  8.250946E+05 -1.249351E+05 -1.136921E+05 -6.226566E+04  7.444089E+03  1.628188E+04
       164  26  7.089237E+05 -1.537782E+05 -1.363519E+05 -2.259618E+04  1.282840E+04  2.115614E+04
       164  27  5.946347E+05 -1.790944E+05 -1.545707E+05 -6.149602E+04  1.820569E+04  2.592614E+04
       165   1  2.210512E+06  2.154158E+05  2.339622E+05 -5.827752E+04 -1.627447E+04 -2.914141E+04
       165   2  2.323394E+06  2.423169E+05  2.791999E+05 -2.372521E+04 -3.930083E+04 -3.405771E+04
       165   3  2.449219E+06  3.046907E+05  3.484802E+05 -7.038759E+04 -6.232562E+04 -3.673306E+04
       165   4  1.332171E+06 -1.636124E+03  2.529167E+04 -6.267799E+04 -1.959357E+04 -2.914441E+04
       165   5  1.325766E+06 -4.124606E+03  4.254492E+04 -2.208224E+04 -4.134821E+04 -3.406290E+04
       165   6  1.332091E+06  2.867187E+04  8.298805E+04 -6.270807E+04 -6.309689E+04 -3.673923E+04
       165   7  4.545350E+05 -2.187434E+05 -1.834326E+05 -6.707222E+04 -2.290799E+04 -2.914737E+04
       165   8  3.290479E+05 -2.506375E+05 -1.941793E+05 -2.044206E+04 -4.339229E+04 -3.406810E+04
       165   9  2.161034E+05 -2.474364E+05 -1.825912E+05 -5.504267E+04 -6.386669E+04 -3.674543E+04
       165  10  2.210512E+06  2.154148E+05  2.339601E+05 -5.827790E+04  7.903332E-10  9.682833E-12
       165  11  2.323392E+06  2.423153E+05  2.791948E+05 -2.372628E+04  1.489837E-10 -4.628533E-10
       165  12  2.449215E+06  3.046882E+05  3.484704E+05 -7.038943E+04 -8.750822E-10  2.899721E-11
       165  13  1.332170E+06 -1.637140E+03  2.528935E+04 -6.267845E+04 -3.845858E-11 -6.032692E-11
       165  14  1.325764E+06 -4.126310E+03  4.253953E+04 -2.208338E+04  5.402938E-10 -5.665654E-10
       165  15  1.332086E+06  2.866935E+04  8.297805E+04 -6.270994E+04  1.083763E-10 -4.059450E-10
       165  16  4.545342E+05 -2.187444E+05 -1.834352E+05 -6.707276E+04 -5.181764E-10  4.103270E-11
       165  17  3.290456E+05 -2.506393E+05 -1.941850E+05 -2.044325E+04 -1.333158E-09 -9.910894E-10
       165  18  2.160986E+05 -2.474389E+05 -1.826014E+05 -5.504456E+04  4.968853E-10 -4.458038E-10
       165  19  2.210512E+06  2.154158E+05  2.339622E+05 -5.827752E+04  1.627447E+04  2.914141E+04
       165  20  2.323394E+06  2.423169E+05  2.791999E+05 -2.372521E+04  3.930083E+04  3.405771E+04
       165  21  2.449219E+06  3.046907E+05  3.484802E+05 -7.038759E+04  6.232562E+04  3.673306E+04
       165  22  1.332171E+06 -1.636124E+03  2.529167E+04 -6.267799E+04  1.959357E+04  2.914441E+04
       165  23  1.325766E+06 -4.124606E+03  4.254492E+04 -2.208224E+04  4.134821E+04  3.406290E+04
       165  24  1.332091E+06  2.867187E+04  8.298805E+04 -6.270807E+04  6.309689E+04  3.673923E+04
       165  25  4.545350E+05 -2.187434E+05 -1.834326E+05 -6.707222E+04  2.290799E+04  2.914737E+04
       165  26  3.290479E+05 -2.506375E+05 -1.941793E+05 -2.044206E+04  4.339229E+04  3.406810E+04
       165  27  2.161034E+05 -2.474364E+05 -1.825912E+05 -5.504267E+04  6.386669E+04  3.674543E+04
       166   1  2.617929E+06  2.965196E+05  4.018200E+05 -2.068984E+04 -6.748697E+04 -4.457020E+04
       166   2  2.690649E+06  3.048136E+05  4.937626E+05 -4.852274E+04 -1.753396E+05 -4.798798E+04
       166   3  2.869623E+06  6.733613E+05  7.462462E+05 -1.614649E+05 -2.833181E+05 -1.664045E+04
       166   4  1.352123E+06 -1.619292E+04  1.020439E+05 -6.329885E+04 -7.879128E+04 -4.458966E+04
       166   5  1.300441E+06 -3.836287E+04  1.641577E+05 -2.118854E+04 -1.672226E+05 -4.798416E+04
       166   6  1.351864E+06  2.967727E+05  3.735923E+05 -6.417904E+04 -2.557544E+05 -1.660321E+04
       166   7  8.778788E+04 -3.290135E+05 -1.978421E+05 -1.058214E+05 -9.007261E+04 -4.460760E+04
       166   8 -8.799744E+04 -3.816749E+05 -1.655808E+05  6.083356E+03 -1.591232E+05 -4.797964E+04
       166   9 -1.637848E+05 -7.994948E+04  7.775710E+02  3.286806E+04 -2.282570E+05 -1.655735E+04
       166  10  2.617924E+06  2.965162E+05  4.018077E+05 -2.069225E+04 -4.313813E-10  1.229181E-09
       166  11  2.690615E+06  3.048029E+05  4.937008E+05 -4.852950E+04  2.914648E-10  6.922857E-10
       166  12  2.869537E+06  6.733396E+05  7.460955E+05 -1.614687E+05  6.395928E-10 -2.966228E-10
       166  13  1.352116E+06 -1.619672E+04  1.020285E+05 -6.330168E+04 -7.877233E-11  3.621031E-10
       166  14  1.300410E+06 -3.837283E+04  1.641009E+05 -2.119500E+04  1.407232E-09  1.891975E-10
       166  15  1.351793E+06  2.967549E+05  3.734691E+05 -6.418246E+04  1.770104E-09  3.154428E-10
       166  16  8.777864E+04 -3.290178E+05 -1.978611E+05 -1.058246E+05 -2.128321E-10  3.334328E-10
       166  17 -8.802525E+04 -3.816841E+05 -1.656327E+05  6.077205E+03 -2.061268E-09  1.417943E-09
       166  18 -1.638408E+05 -7.996377E+04  6.791264E+02  3.286502E+04 -2.356133E-10  1.701937E-10
       166  19  2.617929E+06  2.965196E+05  4.018200E+05 -2.068984E+04  6.748697E+04  4.457020E+04
       166  20  2.690649E+06  3.048136E+05  4.937626E+05 -4.852274E+04  1.753396E+05  4.798798E+04
       166  21  2.869623E+06  6.733613E+05  7.462462E+05 -1.614649E+05  2.833181E+05  1.664045E+04
       166  22  1.352123E+06 -1.619292E+04  1.020439E+05 -6.329885E+04  7.879128E+04  4.458966E+04
       166  23  1.300441E+06 -3.836287E+04  1.641577E+05 -2.118854E+04  1.672226E+05  4.798416E+04
       166  24  1.351864E+06  2.967727E+05  3.735923E+05 -6.417904E+04  2.557544E+05  1.660321E+04
       166  25  8.778788E+04 -3.290135E+05 -1.978421E+05 -1.058214E+05  9.007261E+04  4.460760E+04
       166  26 -8.799744E+04 -3.816749E+05 -1.655808E+05  6.083356E+03  1.591232E+05  4.797964E+04
       166  27 -1.637848E+05 -7.994948E+04  7.775710E+02  3.286806E+04  2.282570E+05  1.655735E+04
       167   1  6.146978E+04  3.311351E+05  7.729048E+04 -5.805279E+04 -5.755529E+02  5.184601E+04
       167   2 -2.549550E+04  2.526453E+05  1.778863E+04 -2.008061E+04 -2.522290E+03  3.269454E+04
       167   3 -3.746292E+04  1.951032E+05 -1.056332E+04 -2.837754E+04 -5.256889E+03  1.354310E+04
       167   4  6.215872E+04  3.345793E+05  7.796751E+04 -3.706075E+04 -5.761775E+02  5.273477E+04
       167   5 -7.840673E+03  3.241482E+05  3.477499E+04 -1.401253E+04 -2.525408E+03  3.401808E+04
       167   6 -2.921179E+03  3.345866E+05  2.243166E+04 -3.723142E+04 -5.261558E+03  1.529938E+04
       167   7  6.284931E+04  3.380245E+05  7.864478E+04 -1.606859E+04 -5.767421E+02  5.362353E+04
       167   8  9.813930E+03  3.956558E+05  5.176103E+04 -7.943747E+03 -2.528501E+03  3.534177E+04
       167   9  3.161946E+04  4.740880E+05  5.542533E+04 -4.608728E+04 -5.266277E+03  1.705606E+04
       167  10  6.146906E+04  3.311322E+05  7.728543E+04 -5.805276E+04  3.914715E-10  5.742644E-10
       167  11 -2.549579E+04  2.526441E+05  1.778661E+04 -2.008054E+04 -2.948636E-10 -3.767836E-10
       167  12 -3.746300E+04  1.951030E+05 -1.056371E+04 -2.837748E+04 -1.025543E-09 -1.421606E-09
       167  13  6.215797E+04  3.345763E+05  7.796229E+04 -3.706072E+04  5.554921E-10  1.046124E-11
       167  14 -7.840990E+03  3.241469E+05  3.477281E+04 -1.401246E+04  4.505584E-11  1.882880E-11
       167  15 -2.921271E+03  3.345863E+05  2.243116E+04 -3.723135E+04 -1.629072E-10 -8.251766E-12
       167  16  6.284854E+04  3.380214E+05  7.863938E+04 -1.606856E+04  6.618955E-10 -5.704680E-10
       167  17  9.813589E+03  3.956545E+05  5.175867E+04 -7.943675E+03  2.097639E-09  3.050968E-10
       167  18  3.161935E+04  4.740877E+05  5.542473E+04 -4.608721E+04 -4.524782E-10  1.472078E-09
       167  19  6.146978E+04  3.311351E+05  7.729048E+04 -5.805279E+04  5.755529E+02 -5.184601E+04
       167  20 -2.549550E+04  2.526453E+05  1.778863E+04 -2.008061E+04  2.522290E+03 -3.269454E+04
       167  21 -3.746292E+04  1.951032E+05 -1.056332E+04 -2.837754E+04  5.256889E+03 -1.354310E+04
       167  22  6.215872E+04  3.345793E+05  7.796751E+04 -3.706075E+04  5.761775E+02 -5.273477E+04
       167  23 -7.840673E+03  3.241482E+05  3.477499E+04 -1.401253E+04  2.525408E+03 -3.401808E+04
       167  24 -2.921179E+03  3.345866E+05  2.243166E+04 -3.723142E+04  5.261558E+03 -1.529938E+04
       167  25  6.284931E+04  3.380245E+05  7.864478E+04 -1.606859E+04  5.767421E+02 -5.362353E+04
       167  26  9.813930E+03  3.956558E+05  5.176103E+04 -7.943747E+03  2.528501E+03 -3.534177E+04
       167  27  3.161946E+04  4.740880E+05  5.542533E+04 -4.608728E+04  5.266277E+03 -1.705606E+04
       168   1 -4.898436E+04  1.079443E+05 -3.422249E+04 -3.892089E+04 -7.178248E+03  1.000737E+04
       168   2 -7.303281E+04  3.814145E+04 -5.755090E+04 -1.376112E+04 -9.955652E+03  4.543535E+03
       168   3 -8.716722E+04 -2.865865E+04 -7.488688E+04 -3.514596E+04 -1.188099E+04 -9.162419E+02
       168   4  6.146066E+03  3.306229E+05  1.886092E+04 -3.723211E+04 -7.182561E+03  1.178678E+04
       168   5 -1.027199E+03  3.290795E+05  1.159541E+04 -1.396606E+04 -9.958424E+03  5.850581E+03
       168   6  1.793565E+03  3.306155E+05  1.064921E+04 -3.724307E+04 -1.188238E+04 -8.214442E+01
       168   7  6.127293E+04  5.533470E+05  7.194087E+04 -3.554269E+04 -7.186864E+03  1.356682E+04
       168   8  7.097231E+04  6.200953E+05  8.073581E+04 -1.417105E+04 -9.961196E+03  7.158237E+03
       168   9  9.074506E+04  6.900081E+05  9.617626E+04 -3.934132E+04 -1.188378E+04  7.524334E+02
       168  10 -4.898444E+04  1.079442E+05 -3.422277E+04 -3.892084E+04 -1.404866E-09  2.326858E-10
       168  11 -7.303292E+04  3.814141E+04 -5.755113E+04 -1.376109E+04 -4.198648E-10  6.655975E-11
       168  12 -8.716737E+04 -2.865869E+04 -7.488715E+04 -3.514597E+04 -2.766321E-10 -3.743501E-10
       168  13  6.145973E+03  3.306228E+05  1.886056E+04 -3.723204E+04 -1.216225E-09  1.595096E-11
       168  14 -1.027315E+03  3.290795E+05  1.159516E+04 -1.396602E+04 -5.803328E-10  1.229858E-10
       168  15  1.793413E+03  3.306155E+05  1.064894E+04 -3.724307E+04 -1.226640E-09  1.537886E-11
       168  16  6.127282E+04  5.533468E+05  7.194042E+04 -3.554261E+04 -1.133478E-09 -1.946241E-10
       168  17  7.097219E+04  6.200952E+05  8.073553E+04 -1.417100E+04 -1.685918E-09  1.030672E-10
       168  18  9.074490E+04  6.900081E+05  9.617599E+04 -3.934132E+04 -3.725622E-10  3.926544E-10
       168  19 -4.898436E+04  1.079443E+05 -3.422249E+04 -3.892089E+04  7.178248E+03 -1.000737E+04
       168  20 -7.303281E+04  3.814145E+04 -5.755090E+04 -1.376112E+04  9.955652E+03 -4.543535E+03
       168  21 -8.716722E+04 -2.865865E+04 -7.488688E+04 -3.514596E+04  1.188099E+04  9.162419E+02
       168  22  6.146066E+03  3.306229E+05  1.886092E+04 -3.723211E+04  7.182561E+03 -1.178678E+04
       168  23 -1.027199E+03  3.290795E+05  1.159541E+04 -1.396606E+04  9.958424E+03 -5.850581E+03
       168  24  1.793565E+03  3.306155E+05  1.064921E+04 -3.724307E+04  1.188238E+04  8.214442E+01
       168  25  6.127293E+04  5.533470E+05  7.194087E+04 -3.554269E+04  7.186864E+03 -1.356682E+04
       168  26  7.097231E+04  6.200953E+05  8.073581E+04 -1.417105E+04  9.961196E+03 -7.158237E+03
       168  27  9.074506E+04  6.900081E+05  9.617626E+04 -3.934132E+04  1.188378E+04 -7.524334E+02
       169   1 -1.099645E+05 -1.114223E+05 -9.443402E+04 -3.945482E+04 -1.545092E+04 -6.862510E+03
       169   2 -1.292194E+05 -1.833143E+05 -1.086070E+05 -1.125241E+04 -1.754088E+04 -6.186598E+03
       169   3 -1.244393E+05 -2.492374E+05 -1.172029E+05 -2.955391E+04 -5.939987E+03 -5.488466E+03
       169   4 -3.627329E+02  3.315293E+05  1.073163E+04 -3.724249E+04 -1.546052E+04 -1.932945E+03
       169   5 -2.677434E+03  3.278852E+05  1.287944E+04 -1.397523E+04 -1.753518E+04 -8.816750E+03
       169   6  2.034448E+04  3.315114E+05  2.584838E+04 -3.720900E+04 -5.923971E+03 -1.567821E+04
       169   7  1.092250E+05  7.746611E+05  1.158837E+05 -3.502848E+04 -1.547009E+04  3.000120E+03
       169   8  1.238457E+05  8.393247E+05  1.343477E+05 -1.670019E+04 -1.752946E+04 -1.144905E+04
       169   9  1.651034E+05  9.125674E+05  1.688752E+05 -4.487113E+04 -5.907711E+03 -2.587748E+04
       169  10 -1.099648E+05 -1.114224E+05 -9.443456E+04 -3.945490E+04 -8.268349E-10  1.386219E-10
       169  11 -1.292197E+05 -1.833145E+05 -1.086077E+05 -1.125250E+04  9.469334E-10  2.720942E-10
       169  12 -1.244394E+05 -2.492375E+05 -1.172031E+05 -2.955394E+04 -1.478626E-10 -1.482154E-10
       169  13 -3.629906E+02  3.315292E+05  1.073117E+04 -3.724252E+04  5.853186E-10  8.501805E-12
       169  14 -2.677785E+03  3.278851E+05  1.287871E+04 -1.397535E+04  7.097440E-10  1.736413E-11
       169  15  2.034438E+04  3.315111E+05  2.584785E+04 -3.720907E+04  7.357958E-10 -3.112654E-11
       169  16  1.092247E+05  7.746610E+05  1.158832E+05 -3.502844E+04 -9.020923E-10 -2.926915E-11
       169  17  1.238454E+05  8.393245E+05  1.343468E+05 -1.670035E+04  9.041678E-10 -2.935697E-10
       169  18  1.651032E+05  9.125666E+05  1.688739E+05 -4.487125E+04  7.732702E-10  3.874776E-11
       169  19 -1.099645E+05 -1.114223E+05 -9.443402E+04 -3.945482E+04  1.545092E+04  6.862510E+03
       169  20 -1.292194E+05 -1.833143E+05 -1.086070E+05 -1.125241E+04  1.754088E+04  6.186598E+03
       169  21 -1.244393E+05 -2.492374E+05 -1.172029E+05 -2.955391E+04  5.939987E+03  5.488466E+03
       169  22 -3.627329E+02  3.315293E+05  1.073163E+04 -3.724249E+04  1.546052E+04  1.932945E+03
       169  23 -2.677434E+03  3.278852E+05  1.287944E+04 -1.397523E+04  1.753518E+04  8.816750E+03
       169  24  2.034448E+04  3.315114E+05  2.584838E+04 -3.720900E+04  5.923971E+03  1.567821E+04
       169  25  1.092250E+05  7.746611E+05  1.158837E+05 -3.502848E+04  1.547009E+04 -3.000120E+03
       169  26  1.238457E+05  8.393247E+05  1.343477E+05 -1.670019E+04  1.752946E+04  1.144905E+04
       169  27  1.651034E+05  9.125674E+05  1.688752E+05 -4.487113E+04  5.907711E+03  2.587748E+04
       170   1 -1.991995E+06 -7.290596E+05 -4.905283E+05 -6.895797E+05 -2.101986E+05 -7.080073E+04
       170   2 -1.927602E+06 -4.160560E+05 -2.949298E+05 -7.048675E+05 -1.372672E+05 -2.575986E+04
       170   3 -1.957783E+06 -3.991545E+05 -2.337516E+05 -6.709127E+05 -5.813637E+04  2.889552E+03
       170   4 -1.373183E+06 -4.229583E+05 -3.079810E+05 -4.471355E+05 -1.982184E+05 -6.630527E+04
       170   5 -1.310550E+06 -1.625932E+05 -1.289267E+05 -5.144604E+05 -1.336740E+05 -2.441138E+04
       170   6 -1.340720E+06 -1.965066E+05 -7.753022E+04 -5.325753E+05 -6.293448E+04  1.082580E+03
       170   7 -7.539886E+05 -1.167478E+05 -1.254713E+05 -2.044464E+05 -1.862251E+05 -6.180133E+04
       170   8 -6.931266E+05  9.091315E+04  3.704238E+04 -3.238748E+05 -1.300768E+05 -2.306108E+04
       170   9 -7.232854E+05  6.144606E+03  7.866196E+04 -3.941231E+05 -6.773782E+04 -7.257886E+02
       170  10 -1.992044E+06 -7.290769E+05 -4.906211E+05 -6.895917E+05  2.360238E-10 -1.422775E-10
       170  11 -1.927622E+06 -4.160618E+05 -2.949666E+05 -7.048704E+05 -2.238796E-09 -8.554708E-10
       170  12 -1.957787E+06 -3.991554E+05 -2.337580E+05 -6.709126E+05 -1.317225E-10  3.251566E-10
       170  13 -1.373226E+06 -4.229736E+05 -3.080633E+05 -4.471461E+05  9.146243E-10 -4.513981E-10
       170  14 -1.310569E+06 -1.625987E+05 -1.289615E+05 -5.144630E+05 -2.574781E-09 -1.074350E-09
       170  15 -1.340724E+06 -1.965077E+05 -7.753768E+04 -5.325753E+05  9.551890E-10  6.629308E-10
       170  16 -7.540269E+05 -1.167612E+05 -1.255437E+05 -2.044557E+05 -2.566478E-09 -8.772809E-10
       170  17 -6.931450E+05  9.090803E+04  3.700954E+04 -3.238772E+05 -1.390164E-09 -8.691812E-10
       170  18 -7.232903E+05  6.143372E+03  7.865333E+04 -3.941231E+05  1.227197E-09  8.756395E-10
       170  19 -1.991995E+06 -7.290596E+05 -4.905283E+05 -6.895797E+05  2.101986E+05  7.080073E+04
       170  20 -1.927602E+06 -4.160560E+05 -2.949298E+05 -7.048675E+05  1.372672E+05  2.575986E+04
       170  21 -1.957783E+06 -3.991545E+05 -2.337516E+05 -6.709127E+05  5.813637E+04 -2.889552E+03
       170  22 -1.373183E+06 -4.229583E+05 -3.079810E+05 -4.471355E+05  1.982184E+05  6.630527E+04
       170  23 -1.310550E+06 -1.625932E+05 -1.289267E+05 -5.144604E+05  1.336740E+05  2.441138E+04
       170  24 -1.340720E+06 -1.965066E+05 -7.753022E+04 -5.325753E+05  6.293448E+04 -1.082580E+03
       170  25 -7.539886E+05 -1.167478E+05 -1.254713E+05 -2.044464E+05  1.862251E+05  6.180133E+04
       170  26 -6.931266E+05  9.091315E+04  3.704238E+04 -3.238748E+05  1.300768E+05  2.306108E+04
       170  27 -7.232854E+05  6.144606E+03  7.866196E+04 -3.941231E+05  6.773782E+04  7.257886E+02
       171   1 -1.868961E+06 -4.379205E+05 -2.060692E+05 -6.692378E+05 -5.079396E+04  1.871581E+03
       171   2 -1.834396E+06 -3.816880E+05 -1.623930E+05 -6.492899E+05 -3.416591E+04  7.454013E+03
       171   3 -1.790676E+06 -3.760721E+05 -1.387334E+05 -6.471226E+05 -1.706765E+04  1.178591E+04
       171   4 -1.330292E+06 -2.282934E+05 -6.293792E+04 -5.150356E+05 -5.080615E+04  1.865034E+03
       171   5 -1.333260E+06 -1.913426E+05 -3.042647E+04 -5.105470E+05 -3.480930E+04  7.210621E+03
       171   6 -1.326940E+06 -2.048671E+05 -1.741665E+04 -5.238409E+05 -1.834346E+04  1.130544E+04
       171   7 -7.913416E+05 -1.864379E+04  8.016764E+04 -3.607108E+05 -5.081834E+04  1.858490E+03
       171   8 -8.318801E+05 -9.803419E+02  1.015186E+05 -3.717023E+05 -3.545325E+04  6.967013E+03
       171   9 -8.629929E+05 -3.365036E+04  1.038823E+05 -4.004764E+05 -1.962032E+04  1.082460E+04
       171  10 -1.868964E+06 -4.379212E+05 -2.060741E+05 -6.692377E+05  3.488180E-09  1.235860E-09
       171  11 -1.834397E+06 -3.816884E+05 -1.623953E+05 -6.492897E+05  1.482448E-09 -5.066528E-10
       171  12 -1.790677E+06 -3.760723E+05 -1.387342E+05 -6.471225E+05 -4.071703E-10 -1.693582E-10
       171  13 -1.330294E+06 -2.282941E+05 -6.294278E+04 -5.150355E+05  1.891458E-09  9.745742E-10
       171  14 -1.333261E+06 -1.913429E+05 -3.042885E+04 -5.105468E+05  2.090874E-10 -5.272259E-10
       171  15 -1.326940E+06 -2.048673E+05 -1.741752E+04 -5.238408E+05  3.975249E-10  2.181699E-10
       171  16 -7.913444E+05 -1.864449E+04  8.016277E+04 -3.607107E+05  5.290820E-10  4.114821E-10
       171  17 -8.318815E+05 -9.807317E+02  1.015161E+05 -3.717021E+05 -3.298048E-10 -4.627178E-11
       171  18 -8.629933E+05 -3.365058E+04  1.038814E+05 -4.004763E+05  7.087082E-10  3.433323E-10
       171  19 -1.868961E+06 -4.379205E+05 -2.060692E+05 -6.692378E+05  5.079396E+04 -1.871581E+03
       171  20 -1.834396E+06 -3.816880E+05 -1.623930E+05 -6.492899E+05  3.416591E+04 -7.454013E+03
       171  21 -1.790676E+06 -3.760721E+05 -1.387334E+05 -6.471226E+05  1.706765E+04 -1.178591E+04
       171  22 -1.330292E+06 -2.282934E+05 -6.293792E+04 -5.150356E+05  5.080615E+04 -1.865034E+03
       171  23 -1.333260E+06 -1.913426E+05 -3.042647E+04 -5.105470E+05  3.480930E+04 -7.210621E+03
       171  24 -1.326940E+06 -2.048671E+05 -1.741665E+04 -5.238409E+05  1.834346E+04 -1.130544E+04
       171  25 -7.913416E+05 -1.864379E+04  8.016764E+04 -3.607108E+05  5.081834E+04 -1.858490E+03
       171  26 -8.318801E+05 -9.803419E+02  1.015186E+05 -3.717023E+05  3.545325E+04 -6.967013E+03
       171  27 -8.629929E+05 -3.365036E+04  1.038823E+05 -4.004764E+05  1.962032E+04 -1.082460E+04
       172   1 -1.730460E+06 -3.611781E+05 -1.199102E+05 -6.334103E+05 -1.442899E+04  1.130485E+04
       172   2 -1.697671E+06 -3.300082E+05 -1.020249E+05 -6.085066E+05 -1.007370E+04  1.080061E+04
       172   3 -1.643076E+06 -3.250605E+05 -8.763021E+04 -6.094973E+05 -5.671290E+03  1.016665E+04
       172   4 -1.325403E+06 -2.083619E+05 -1.355962E+04 -5.222949E+05 -1.536724E+04  1.095155E+04
       172   5 -1.336135E+06 -1.940464E+05 -7.079705E+03 -5.098009E+05 -1.107640E+04  1.042353E+04
       172   6 -1.325051E+06 -2.059378E+05 -4.037271E+03 -5.232008E+05 -6.738749E+03  9.765732E+03
       172   7 -9.201866E+05 -5.553526E+04  9.277691E+04 -4.111137E+05 -1.630616E+04  1.059799E+04
       172   8 -9.744735E+05 -5.807669E+04  8.785413E+04 -4.110433E+05 -1.207975E+04  1.004622E+04
       172   9 -1.006929E+06 -8.680947E+04  7.954677E+04 -4.368646E+05 -7.806805E+03  9.364594E+03
       172  10 -1.730461E+06 -3.611783E+05 -1.199108E+05 -6.334102E+05  2.944816E-10  2.750571E-10
       172  11 -1.697671E+06 -3.300084E+05 -1.020253E+05 -6.085066E+05  2.421860E-10 -1.573709E-10
       172  12 -1.643076E+06 -3.250607E+05 -8.763047E+04 -6.094972E+05  9.812462E-11 -1.725614E-10
       172  13 -1.325403E+06 -2.083621E+05 -1.356029E+04 -5.222947E+05  1.052757E-09  1.657747E-10
       172  14 -1.336135E+06 -1.940465E+05 -7.080140E+03 -5.098008E+05 -7.348443E-10  1.204272E-11
       172  15 -1.325051E+06 -2.059379E+05 -4.037536E+03 -5.232007E+05 -2.437714E-10  2.149923E-11
       172  16 -9.201869E+05 -5.553545E+04  9.277620E+04 -4.111136E+05 -2.466392E-10 -5.224203E-11
       172  17 -9.744737E+05 -5.807683E+04  8.785367E+04 -4.110432E+05 -2.386709E-10 -5.588351E-10
       172  18 -1.006929E+06 -8.680958E+04  7.954649E+04 -4.368646E+05  7.609049E-10 -1.986731E-11
       172  19 -1.730460E+06 -3.611781E+05 -1.199102E+05 -6.334103E+05  1.442899E+04 -1.130485E+04
       172  20 -1.697671E+06 -3.300082E+05 -1.020249E+05 -6.085066E+05  1.007370E+04 -1.080061E+04
       172  21 -1.643076E+06 -3.250605E+05 -8.763021E+04 -6.094973E+05  5.671290E+03 -1.016665E+04
       172  22 -1.325403E+06 -2.083619E+05 -1.355962E+04 -5.222949E+05  1.536724E+04 -1.095155E+04
       172  23 -1.336135E+06 -1.940464E+05 -7.079705E+03 -5.098009E+05  1.107640E+04 -1.042353E+04
       172  24 -1.325051E+06 -2.059378E+05 -4.037271E+03 -5.232008E+05  6.738749E+03 -9.765732E+03
       172  25 -9.201866E+05 -5.553526E+04  9.277691E+04 -4.111137E+05  1.630616E+04 -1.059799E+04
       172  26 -9.744735E+05 -5.807669E+04  8.785413E+04 -4.110433E+05  1.207975E+04 -1.004622E+04
       172  27 -1.006929E+06 -8.680947E+04  7.954677E+04 -4.368646E+05  7.806805E+03 -9.364594E+03
       173   1 -1.583448E+06 -3.036419E+05 -7.091649E+04 -5.937979E+05 -4.650776E+03  9.182465E+03
       173   2 -1.549739E+06 -2.740836E+05 -5.783293E+04 -5.675104E+05 -2.911684E+03  7.495413E+03
       173   3 -1.492050E+06 -2.690369E+05 -4.554875E+04 -5.688650E+05 -1.162085E+03  5.777494E+03
       173   4 -1.324689E+06 -2.064665E+05 -3.151911E+03 -5.232452E+05 -5.701060E+03  8.788249E+03
       173   5 -1.336658E+06 -1.940877E+05 -1.904802E+03 -5.094696E+05 -3.977455E+03  7.095656E+03
       173   6 -1.324649E+06 -2.062172E+05 -1.444681E+03 -5.233364E+05 -2.243428E+03  5.372182E+03
       173   7 -1.065864E+06 -1.092867E+05  6.460720E+04 -4.526657E+05 -6.751829E+03  8.393850E+03
       173   8 -1.123534E+06 -1.140889E+05  5.401955E+04 -4.514107E+05 -5.043630E+03  6.695747E+03
       173   9 -1.157221E+06 -1.433957E+05  4.265700E+04 -4.777967E+05 -3.325092E+03  4.966749E+03
       173  10 -1.583448E+06 -3.036420E+05 -7.091669E+04 -5.937979E+05  2.728390E-10  8.070918E-11
       173  11 -1.549739E+06 -2.740837E+05 -5.783305E+04 -5.675104E+05  3.057436E-10 -2.753695E-10
       173  12 -1.492050E+06 -2.690370E+05 -4.554882E+04 -5.688650E+05 -8.428329E-10 -2.638925E-11
       173  13 -1.324689E+06 -2.064666E+05 -3.152117E+03 -5.232452E+05  1.495412E-11  1.836009E-11
       173  14 -1.336659E+06 -1.940878E+05 -1.904926E+03 -5.094696E+05 -1.952864E-10  8.512244E-11
       173  15 -1.324649E+06 -2.062172E+05 -1.444745E+03 -5.233364E+05 -3.605936E-10  1.283622E-10
       173  16 -1.065865E+06 -1.092868E+05  6.460698E+04 -4.526657E+05  5.137496E-10  2.147882E-10
       173  17 -1.123534E+06 -1.140890E+05  5.401942E+04 -4.514106E+05 -2.592781E-11  2.674359E-10
       173  18 -1.157221E+06 -1.433958E+05  4.265693E+04 -4.777967E+05  2.495308E-10  1.282623E-10
       173  19 -1.583448E+06 -3.036419E+05 -7.091649E+04 -5.937979E+05  4.650776E+03 -9.182465E+03
       173  20 -1.549739E+06 -2.740836E+05 -5.783293E+04 -5.675104E+05  2.911684E+03 -7.495413E+03
       173  21 -1.492050E+06 -2.690369E+05 -4.554875E+04 -5.688650E+05  1.162085E+03 -5.777494E+03
       173  22 -1.324689E+06 -2.064665E+05 -3.151911E+03 -5.232452E+05  5.701060E+03 -8.788249E+03
       173  23 -1.336658E+06 -1.940877E+05 -1.904802E+03 -5.094696E+05  3.977455E+03 -7.095656E+03
       173  24 -1.324649E+06 -2.062172E+05 -1.444681E+03 -5.233364E+05  2.243428E+03 -5.372182E+03
       173  25 -1.065864E+06 -1.092867E+05  6.460720E+04 -4.526657E+05  6.751829E+03 -8.393850E+03
       173  26 -1.123534E+06 -1.140889E+05  5.401955E+04 -4.514107E+05  5.043630E+03 -6.695747E+03
       173  27 -1.157221E+06 -1.433957E+05  4.265700E+04 -4.777967E+05  3.325092E+03 -4.966749E+03
       174   1 -1.431143E+06 -2.463345E+05 -2.922030E+04 -5.525195E+05 -4.644140E+02  4.643901E+03
       174   2 -1.396775E+06 -2.164764E+05 -1.746213E+04 -5.256649E+05  1.184550E+03  2.861489E+03
       174   3 -1.338004E+06 -2.115404E+05 -6.423286E+03 -5.270106E+05  2.834494E+03  1.075711E+03
       174   4 -1.324553E+06 -2.063284E+05 -1.415789E+03 -5.234512E+05 -1.549263E+03  4.237402E+03
       174   5 -1.336764E+06 -1.939498E+05 -1.712694E+03 -5.093195E+05  9.803654E+01  2.454442E+03
       174   6 -1.324575E+06 -2.064929E+05 -2.727475E+03 -5.233892E+05  1.746245E+03  6.680959E+02
       174   7 -1.217952E+06 -1.663218E+05  2.638768E+04 -4.943783E+05 -2.634313E+03  3.830827E+03
       174   8 -1.276750E+06 -1.714229E+05  1.403644E+04 -4.929728E+05 -9.885926E+02  2.047351E+03
       174   9 -1.311146E+06 -2.014453E+05  9.683354E+02 -5.197676E+05  6.579668E+02  2.604703E+02
       174  10 -1.431143E+06 -2.463345E+05 -2.922034E+04 -5.525195E+05  7.733272E-11 -2.558464E-10
       174  11 -1.396775E+06 -2.164765E+05 -1.746215E+04 -5.256649E+05 -3.643800E-10  9.906172E-11
       174  12 -1.338004E+06 -2.115404E+05 -6.423303E+03 -5.270106E+05  3.719107E-10  3.084982E-10
       174  13 -1.324553E+06 -2.063284E+05 -1.415827E+03 -5.234511E+05  8.331454E-10 -8.300474E-11
       174  14 -1.336764E+06 -1.939498E+05 -1.712705E+03 -5.093195E+05 -3.897678E-10 -3.512192E-10
       174  15 -1.324575E+06 -2.064929E+05 -2.727482E+03 -5.233892E+05 -1.238763E-10 -5.283494E-11
       174  16 -1.217952E+06 -1.663218E+05  2.638764E+04 -4.943783E+05 -1.938334E-10 -2.353663E-10
       174  17 -1.276750E+06 -1.714229E+05  1.403643E+04 -4.929728E+05 -3.972195E-12 -1.497771E-10
       174  18 -1.311146E+06 -2.014453E+05  9.683344E+02 -5.197676E+05  3.402708E-10 -8.003091E-11
       174  19 -1.431143E+06 -2.463345E+05 -2.922030E+04 -5.525195E+05  4.644140E+02 -4.643901E+03
       174  20 -1.396775E+06 -2.164764E+05 -1.746213E+04 -5.256649E+05 -1.184550E+03 -2.861489E+03
       174  21 -1.338004E+06 -2.115404E+05 -6.423286E+03 -5.270106E+05 -2.834494E+03 -1.075711E+03
       174  22 -1.324553E+06 -2.063284E+05 -1.415789E+03 -5.234512E+05  1.549263E+03 -4.237402E+03
       174  23 -1.336764E+06 -1.939498E+05 -1.712694E+03 -5.093195E+05 -9.803654E+01 -2.454442E+03
       174  24 -1.324575E+06 -2.064929E+05 -2.727475E+03 -5.233892E+05 -1.746245E+03 -6.680959E+02
       174  25 -1.217952E+06 -1.663218E+05  2.638768E+04 -4.943783E+05  2.634313E+03 -3.830827E+03
       174  26 -1.276750E+06 -1.714229E+05  1.403644E+04 -4.929728E+05  9.885926E+02 -2.047351E+03
       174  27 -1.311146E+06 -2.014453E+05  9.683354E+02 -5.197676E+05 -6.579668E+02 -2.604703E+02
       175   1 -1.276651E+06 -1.884643E+05  9.261543E+03 -5.107918E+05  3.823481E+03  3.236068E+01
       175   2 -1.242194E+06 -1.582263E+05  1.873992E+04 -4.836071E+05  7.626915E+03 -9.448151E+02
       175   3 -1.184508E+06 -1.550956E+05  2.528973E+04 -4.840565E+05  1.140535E+04 -1.853366E+03
       175   4 -1.324731E+06 -2.062235E+05 -3.471853E+03 -5.235470E+05  2.718840E+03 -3.814089E+02
       175   5 -1.336487E+06 -1.936780E+05 -6.014847E+03 -5.093515E+05  6.557106E+03 -1.345668E+03
       175   6 -1.325021E+06 -2.082475E+05 -1.151428E+04 -5.227912E+05  1.037012E+04 -2.241384E+03
       175   7 -1.372810E+06 -2.239826E+05 -1.620544E+04 -5.363013E+05  1.614294E+03 -7.951446E+02
       175   8 -1.430771E+06 -2.291292E+05 -3.077033E+04 -5.350924E+05  5.487476E+03 -1.746453E+03
       175   9 -1.465516E+06 -2.613978E+05 -4.831985E+04 -5.615178E+05  9.335148E+03 -2.629303E+03
       175  10 -1.276651E+06 -1.884643E+05  9.261516E+03 -5.107918E+05  1.509953E-10  3.233891E-10
       175  11 -1.242194E+06 -1.582263E+05  1.873981E+04 -4.836071E+05  4.981339E-10  2.093081E-10
       175  12 -1.184508E+06 -1.550957E+05  2.528948E+04 -4.840564E+05  1.265692E-10  2.431725E-10
       175  13 -1.324731E+06 -2.062235E+05 -3.471868E+03 -5.235470E+05 -3.632084E-11  2.062779E-10
       175  14 -1.336487E+06 -1.936780E+05 -6.014931E+03 -5.093515E+05 -9.549029E-11 -2.942720E-10
       175  15 -1.325021E+06 -2.082475E+05 -1.151449E+04 -5.227911E+05  3.677249E-10 -2.164119E-10
       175  16 -1.372810E+06 -2.239826E+05 -1.620545E+04 -5.363013E+05  3.366931E-11  8.974643E-12
       175  17 -1.430771E+06 -2.291292E+05 -3.077039E+04 -5.350923E+05 -8.211183E-10 -2.714942E-10
       175  18 -1.465516E+06 -2.613979E+05 -4.832003E+04 -5.615178E+05 -6.132943E-10 -3.477973E-10
       175  19 -1.276651E+06 -1.884643E+05  9.261543E+03 -5.107918E+05 -3.823481E+03 -3.236068E+01
       175  20 -1.242194E+06 -1.582263E+05  1.873992E+04 -4.836071E+05 -7.626915E+03  9.448151E+02
       175  21 -1.184508E+06 -1.550956E+05  2.528973E+04 -4.840565E+05 -1.140535E+04  1.853366E+03
       175  22 -1.324731E+06 -2.062235E+05 -3.471853E+03 -5.235470E+05 -2.718840E+03  3.814089E+02
       175  23 -1.336487E+06 -1.936780E+05 -6.014847E+03 -5.093515E+05 -6.557106E+03  1.345668E+03
       175  24 -1.325021E+06 -2.082475E+05 -1.151428E+04 -5.227912E+05 -1.037012E+04  2.241384E+03
       175  25 -1.372810E+06 -2.239826E+05 -1.620544E+04 -5.363013E+05 -1.614294E+03  7.951446E+02
       175  26 -1.430771E+06 -2.291292E+05 -3.077033E+04 -5.350924E+05 -5.487476E+03  1.746453E+03
       175  27 -1.465516E+06 -2.613978E+05 -4.831985E+04 -5.615178E+05 -9.335148E+03  2.629303E+03
       176   1 -1.122854E+06 -1.318330E+05  3.820253E+04 -4.717241E+05  1.424986E+04 -2.300436E+03
       176   2 -1.088544E+06 -9.750319E+04  3.894114E+04 -4.413289E+05  2.797134E+04  5.239672E+02
       176   3 -1.040957E+06 -1.114459E+05  2.343092E+04 -4.324811E+05  4.138572E+04  4.173750E+03
       176   4 -1.326194E+06 -2.054335E+05 -1.478743E+04 -5.242659E+05  1.298510E+04 -2.774561E+03
       176   5 -1.334198E+06 -1.911842E+05 -2.579151E+04 -5.097713E+05  2.712687E+04  2.069401E+02
       176   6 -1.329015E+06 -2.252990E+05 -5.338362E+04 -5.168259E+05  4.096050E+04  4.013403E+03
       176   7 -1.529495E+06 -2.790324E+05 -6.778102E+04 -5.767927E+05  1.172078E+04 -3.248530E+03
       176   8 -1.579794E+06 -2.848611E+05 -9.052946E+04 -5.781893E+05  2.628276E+04 -1.099457E+02
       176   9 -1.616993E+06 -3.391447E+05 -1.302055E+05 -6.011345E+05  4.053549E+04  3.853146E+03
       176  10 -1.122854E+06 -1.318331E+05  3.820214E+04 -4.717241E+05  3.206527E-11  1.993770E-10
       176  11 -1.088545E+06 -9.750341E+04  3.893967E+04 -4.413289E+05  7.034705E-10 -1.435548E-10
       176  12 -1.040959E+06 -1.114464E+05  2.342767E+04 -4.324813E+05  3.842423E-10  1.207290E-10
       176  13 -1.326194E+06 -2.054335E+05 -1.478776E+04 -5.242659E+05 -1.327741E-11 -1.397634E-10
       176  14 -1.334199E+06 -1.911844E+05 -2.579290E+04 -5.097713E+05  4.644414E-11 -1.538602E-10
       176  15 -1.329017E+06 -2.252995E+05 -5.338681E+04 -5.168261E+05 -9.278704E-10 -1.462397E-10
       176  16 -1.529496E+06 -2.790324E+05 -6.778130E+04 -5.767926E+05 -1.096297E-10 -4.436297E-10
       176  17 -1.579795E+06 -2.848613E+05 -9.053076E+04 -5.781893E+05 -2.085239E-10  4.200688E-12
       176  18 -1.616995E+06 -3.391452E+05 -1.302086E+05 -6.011346E+05 -2.535652E-10 -1.653434E-10
       176  19 -1.122854E+06 -1.318330E+05  3.820253E+04 -4.717241E+05 -1.424986E+04  2.300436E+03
       176  20 -1.088544E+06 -9.750319E+04  3.894114E+04 -4.413289E+05 -2.797134E+04 -5.239672E+02
       176  21 -1.040957E+06 -1.114459E+05  2.343092E+04 -4.324811E+05 -4.138572E+04 -4.173750E+03
       176  22 -1.326194E+06 -2.054335E+05 -1.478743E+04 -5.242659E+05 -1.298510E+04  2.774561E+03
       176  23 -1.334198E+06 -1.911842E+05 -2.579151E+04 -5.097713E+05 -2.712687E+04 -2.069401E+02
       176  24 -1.329015E+06 -2.252990E+05 -5.338362E+04 -5.168259E+05 -4.096050E+04 -4.013403E+03
       176  25 -1.529495E+06 -2.790324E+05 -6.778102E+04 -5.767927E+05 -1.172078E+04  3.248530E+03
       176  26 -1.579794E+06 -2.848611E+05 -9.052946E+04 -5.781893E+05 -2.628276E+04  1.099457E+02
       176  27 -1.616993E+06 -3.391447E+05 -1.302055E+05 -6.011345E+05 -4.053549E+04 -3.853146E+03
       177   1 -9.687551E+05 -8.505119E+04  2.617401E+04 -4.571418E+05  5.484385E+04  6.141093E+03
       177   2 -9.342540E+05 -5.934525E+03 -6.120912E+03 -3.908506E+05  1.094688E+05  2.492099E+04
       177   3 -9.712310E+05 -1.815641E+05 -1.422280E+05 -2.902193E+05  1.599741E+05  5.468122E+04
       177   4 -1.337774E+06 -1.984367E+05 -6.576136E+04 -5.318099E+05  5.120853E+04  4.778775E+03
       177   5 -1.315093E+06 -1.666072E+05 -1.093200E+05 -5.128868E+05  1.114623E+05  2.566527E+04
       177   6 -1.365073E+06 -3.907415E+05 -2.612095E+05 -4.596106E+05  1.675936E+05  5.752548E+04
       177   7 -1.706659E+06 -3.118230E+05 -1.577064E+05 -6.064426E+05  4.757559E+04  3.416979E+03
       177   8 -1.695791E+06 -3.272601E+05 -2.125321E+05 -6.348514E+05  1.134545E+05  2.640889E+04
       177   9 -1.758755E+06 -5.998583E+05 -3.802061E+05 -6.288899E+05  1.752078E+05  6.036586E+04
       177  10 -9.687584E+05 -8.505204E+04  2.616827E+04 -4.571421E+05 -3.150585E-10  8.119177E-11
       177  11 -9.342670E+05 -5.938417E+03 -6.144640E+03 -3.908528E+05  1.570196E-10  3.433268E-10
       177  12 -9.712593E+05 -1.815742E+05 -1.422818E+05 -2.902264E+05 -7.839905E-11  1.744991E-10
       177  13 -1.337777E+06 -1.984374E+05 -6.576634E+04 -5.318101E+05 -4.016849E-10  5.317061E-11
       177  14 -1.315107E+06 -1.666113E+05 -1.093447E+05 -5.128891E+05 -1.514265E-09  7.294945E-10
       177  15 -1.365104E+06 -3.907526E+05 -2.612687E+05 -4.596183E+05  6.321790E-11  4.752764E-11
       177  16 -1.706662E+06 -3.118236E+05 -1.577107E+05 -6.064427E+05 -9.139156E-11 -2.878072E-11
       177  17 -1.695805E+06 -3.272644E+05 -2.125577E+05 -6.348538E+05 -6.438793E-11  7.972575E-11
       177  18 -1.758789E+06 -5.998705E+05 -3.802708E+05 -6.288984E+05 -4.567567E-10  4.268027E-11
       177  19 -9.687551E+05 -8.505119E+04  2.617401E+04 -4.571418E+05 -5.484385E+04 -6.141093E+03
       177  20 -9.342540E+05 -5.934525E+03 -6.120912E+03 -3.908506E+05 -1.094688E+05 -2.492099E+04
       177  21 -9.712310E+05 -1.815641E+05 -1.422280E+05 -2.902193E+05 -1.599741E+05 -5.468122E+04
       177  22 -1.337774E+06 -1.984367E+05 -6.576136E+04 -5.318099E+05 -5.120853E+04 -4.778775E+03
       177  23 -1.315093E+06 -1.666072E+05 -1.093200E+05 -5.128868E+05 -1.114623E+05 -2.566527E+04
       177  24 -1.365073E+06 -3.907415E+05 -2.612095E+05 -4.596106E+05 -1.675936E+05 -5.752548E+04
       177  25 -1.706659E+06 -3.118230E+05 -1.577064E+05 -6.064426E+05 -4.757559E+04 -3.416979E+03
       177  26 -1.695791E+06 -3.272601E+05 -2.125321E+05 -6.348514E+05 -1.134545E+05 -2.640889E+04
       177  27 -1.758755E+06 -5.998583E+05 -3.802061E+05 -6.288899E+05 -1.752078E+05 -6.036586E+04
       178   1 -1.348077E+06 -2.895685E+05 -2.504253E+05 -2.760572E+04  8.250147E+04  1.796510E+04
       178   2 -1.240586E+06 -4.029844E+05 -2.977240E+05 -1.392904E+04  6.480787E+04  5.360356E+04
       178   3 -1.089209E+06 -3.613961E+05 -2.942036E+05 -8.746880E+04  4.722189E+04  5.041285E+04
       178   4  3.400123E+05  1.310983E+05  1.654195E+05 -6.823400E+04  1.130808E+05  1.805004E+04
       178   5  3.163161E+05 -1.743601E+04  7.249572E+04 -2.444450E+04  7.390145E+04  5.361371E+04
       178   6  3.401150E+05 -7.444528E+03  4.521136E+04 -6.785401E+04  3.483521E+04  5.038960E+04
       178   7  2.030703E+06  5.515601E+05  5.810585E+05 -1.089750E+05  1.437430E+05  1.813086E+04
       178   8  1.875446E+06  3.679382E+05  4.425464E+05 -3.498771E+04  8.301758E+04  5.362353E+04
       178   9  1.771317E+06  3.463614E+05  3.844846E+05 -4.819430E+04  2.242005E+04  5.036558E+04
       178  10 -1.348085E+06 -2.895706E+05 -2.504387E+05 -2.760692E+04 -4.688386E-10  5.118720E-10
       178  11 -1.240592E+06 -4.029886E+05 -2.977373E+05 -1.393184E+04 -1.401756E-09 -5.726216E-10
       178  12 -1.089212E+06 -3.613994E+05 -2.942126E+05 -8.747072E+04 -9.991440E-10 -2.437554E-10
       178  13  3.399985E+05  1.310945E+05  1.653949E+05 -6.823565E+04  1.379330E-09 -7.193872E-10
       178  14  3.163095E+05 -1.744057E+04  7.248006E+04 -2.444769E+04  3.723332E-10  2.765547E-11
       178  15  3.401130E+05 -7.447581E+03  4.520431E+04 -6.785542E+04  8.385828E-10 -4.482415E-10
       178  16  2.030681E+06  5.515543E+05  5.810192E+05 -1.089771E+05  4.897349E-10  1.345546E-09
       178  17  1.875438E+06  3.679333E+05  4.425281E+05 -3.499129E+04  3.393296E-10 -6.320452E-10
       178  18  1.771316E+06  3.463585E+05  3.844789E+05 -4.819521E+04  1.755685E-09 -4.411618E-10
       178  19 -1.348077E+06 -2.895685E+05 -2.504253E+05 -2.760572E+04 -8.250147E+04 -1.796510E+04
       178  20 -1.240586E+06 -4.029844E+05 -2.977240E+05 -1.392904E+04 -6.480787E+04 -5.360356E+04
       178  21 -1.089209E+06 -3.613961E+05 -2.942036E+05 -8.746880E+04 -4.722189E+04 -5.041285E+04
       178  22  3.400123E+05  1.310983E+05  1.654195E+05 -6.823400E+04 -1.130808E+05 -1.805004E+04
       178  23  3.163161E+05 -1.743601E+04  7.249572E+04 -2.444450E+04 -7.390145E+04 -5.361371E+04
       178  24  3.401150E+05 -7.444528E+03  4.521136E+04 -6.785401E+04 -3.483521E+04 -5.038960E+04
       178  25  2.030703E+06  5.515601E+05  5.810585E+05 -1.089750E+05 -1.437430E+05 -1.813086E+04
       178  26  1.875446E+06  3.679382E+05  4.425464E+05 -3.498771E+04 -8.301758E+04 -5.362353E+04
       178  27  1.771317E+06  3.463614E+05  3.844846E+05 -4.819430E+04 -2.242005E+04 -5.036558E+04
       179   1 -9.419554E+05 -3.029597E+05 -2.666095E+05 -6.497403E+04  2.861963E+04  4.188025E+04
       179   2 -8.178176E+05 -2.857254E+05 -2.536769E+05 -2.383850E+04  2.046026E+04  3.918318E+04
       179   3 -6.874044E+05 -2.530195E+05 -2.312754E+05 -6.951518E+04  1.228994E+04  3.391607E+04
       179   4  3.311139E+05  1.241755E+04  3.673765E+04 -6.787894E+04  2.788349E+04  4.187367E+04
       179   5  3.278976E+05 -2.018995E+03  1.876405E+04 -2.447343E+04  1.828938E+04  3.917759E+04
       179   6  3.311789E+05 -7.499678E+02  1.124173E+04 -6.786973E+04  8.685950E+03  3.391357E+04
       179   7  1.605671E+06  3.276779E+05  3.399712E+05 -7.079011E+04  2.714581E+04  4.186711E+04
       179   8  1.474818E+06  2.815928E+05  2.911133E+05 -2.510962E+04  1.611448E+04  3.917200E+04
       179   9  1.350715E+06  2.514447E+05  2.536862E+05 -6.622143E+04  5.076063E+03  3.391106E+04
       179  10 -9.419567E+05 -3.029618E+05 -2.666144E+05 -6.497499E+04  2.076543E-10 -1.996141E-11
       179  11 -8.178184E+05 -2.857272E+05 -2.536806E+05 -2.383914E+04 -2.346040E-11  3.795323E-10
       179  12 -6.874048E+05 -2.530207E+05 -2.312778E+05 -6.951552E+04 -1.424775E-10  1.471539E-10
       179  13  3.311126E+05  1.241546E+04  3.673290E+04 -6.787988E+04 -8.466277E-10 -1.010886E-09
       179  14  3.278968E+05 -2.020733E+03  1.876054E+04 -2.447401E+04  5.037624E-10  6.515602E-10
       179  15  3.311785E+05 -7.512233E+02  1.123943E+04 -6.786996E+04  9.919585E-10  1.187190E-10
       179  16  1.605670E+06  3.276758E+05  3.399665E+05 -7.079102E+04  7.288422E-10 -1.621510E-10
       179  17  1.474818E+06  2.815911E+05  2.911099E+05 -2.511013E+04 -2.152363E-10 -2.139666E-10
       179  18  1.350714E+06  2.514435E+05  2.536840E+05 -6.622157E+04 -1.576357E-10  3.134260E-10
       179  19 -9.419554E+05 -3.029597E+05 -2.666095E+05 -6.497403E+04 -2.861963E+04 -4.188025E+04
       179  20 -8.178176E+05 -2.857254E+05 -2.536769E+05 -2.383850E+04 -2.046026E+04 -3.918318E+04
       179  21 -6.874044E+05 -2.530195E+05 -2.312754E+05 -6.951518E+04 -1.228994E+04 -3.391607E+04
       179  22  3.311139E+05  1.241755E+04  3.673765E+04 -6.787894E+04 -2.788349E+04 -4.187367E+04
       179  23  3.278976E+05 -2.018995E+03  1.876405E+04 -2.447343E+04 -1.828938E+04 -3.917759E+04
       179  24  3.311789E+05 -7.499678E+02  1.124173E+04 -6.786973E+04 -8.685950E+03 -3.391357E+04
       179  25  1.605671E+06  3.276779E+05  3.399712E+05 -7.079011E+04 -2.714581E+04 -4.186711E+04
       179  26  1.474818E+06  2.815928E+05  2.911133E+05 -2.510962E+04 -1.611448E+04 -3.917200E+04
       179  27  1.350715E+06  2.514447E+05  2.536862E+05 -6.622143E+04 -5.076063E+03 -3.391106E+04
       180   1 -5.341027E+05 -2.127731E+05 -1.963915E+05 -6.709995E+04  9.733264E+03  3.041643E+04
       180   2 -4.084903E+05 -1.829593E+05 -1.706370E+05 -2.414039E+04  7.406340E+03  2.521466E+04
       180   3 -2.818228E+05 -1.514518E+05 -1.428773E+05 -6.724905E+04  5.071046E+03  1.985506E+04
       180   4  3.300479E+05  1.111913E+03  8.745694E+03 -6.770693E+04  6.912695E+03  3.041536E+04
       180   5  3.295403E+05 -2.491892E+02  4.820803E+03 -2.467637E+04  4.495389E+03  2.521556E+04
       180   6  3.300880E+05  9.910145E+01  2.962573E+03 -6.770771E+04  2.070181E+03  1.985806E+04
       180   7  1.194884E+06  2.149432E+05  2.138309E+05 -6.831461E+04  4.088213E+03  3.041430E+04
       180   8  1.068071E+06  1.824217E+05  1.802406E+05 -2.521286E+04  1.580991E+03  2.521646E+04
       180   9  9.423422E+05  1.516230E+05  1.487762E+05 -6.816669E+04 -9.336304E+02  1.986108E+04
       180  10 -5.341030E+05 -2.127741E+05 -1.963934E+05 -6.710019E+04 -3.621155E-10 -2.756322E-10
       180  11 -4.084905E+05 -1.829600E+05 -1.706383E+05 -2.414054E+04 -8.603982E-11  3.533214E-10
       180  12 -2.818229E+05 -1.514523E+05 -1.428781E+05 -6.724913E+04  5.563496E-10 -7.169535E-10
       180  13  3.300476E+05  1.110907E+03  8.743865E+03 -6.770710E+04 -6.843398E-10 -3.576749E-11
       180  14  3.295401E+05 -2.498775E+02  4.819570E+03 -2.467646E+04 -8.697914E-10  6.856265E-10
       180  15  3.300879E+05  9.867677E+01  2.961824E+03 -6.770774E+04 -8.240455E-10  9.031525E-10
       180  16  1.194884E+06  2.149422E+05  2.138291E+05 -6.831471E+04  9.575877E-10  2.339933E-10
       180  17  1.068071E+06  1.824210E+05  1.802394E+05 -2.521290E+04  5.971686E-10 -5.528963E-10
       180  18  9.423421E+05  1.516226E+05  1.487755E+05 -6.816667E+04 -6.137139E-10  6.383991E-11
       180  19 -5.341027E+05 -2.127731E+05 -1.963915E+05 -6.709995E+04 -9.733264E+03 -3.041643E+04
       180  20 -4.084903E+05 -1.829593E+05 -1.706370E+05 -2.414039E+04 -7.406340E+03 -2.521466E+04
       180  21 -2.818228E+05 -1.514518E+05 -1.428773E+05 -6.724905E+04 -5.071046E+03 -1.985506E+04
       180  22  3.300479E+05  1.111913E+03  8.745694E+03 -6.770693E+04 -6.912695E+03 -3.041536E+04
       180  23  3.295403E+05 -2.491892E+02  4.820803E+03 -2.467637E+04 -4.495389E+03 -2.521556E+04
       180  24  3.300880E+05  9.910145E+01  2.962573E+03 -6.770771E+04 -2.070181E+03 -1.985806E+04
       180  25  1.194884E+06  2.149432E+05  2.138309E+05 -6.831461E+04 -4.088213E+03 -3.041430E+04
       180  26  1.068071E+06  1.824217E+05  1.802406E+05 -2.521286E+04 -1.580991E+03 -2.521646E+04
       180  27  9.423422E+05  1.516230E+05  1.487762E+05 -6.816669E+04  9.336304E+02 -1.986108E+04
       181   1 -1.286566E+05 -1.131854E+05 -1.062791E+05 -6.708243E+04  4.532197E+03  1.671204E+04
       181   2 -3.117785E+03 -8.238759E+04 -7.758153E+04 -2.438613E+04  3.746602E+03  1.137205E+04
       181   3  1.223856E+05 -5.117026E+04 -4.832514E+04 -6.730770E+04  2.957334E+03  6.027881E+03
       181   4  3.298873E+05  2.395289E+02  2.338098E+03 -6.760805E+04  1.586035E+03  1.671594E+04
       181   5  3.299201E+05  4.108812E+01  1.575029E+03 -2.480054E+04  7.973886E+02  1.137682E+04
       181   6  3.299051E+05  2.641482E+02  1.373947E+03 -6.760805E+04  5.225657E+00  6.033570E+03
       181   7  7.886244E+05  1.136494E+05  1.109407E+05 -6.813398E+04 -1.362293E+03  1.671985E+04
       181   8  6.630597E+05  8.246178E+04  8.072387E+04 -2.521514E+04 -2.153399E+03  1.138159E+04
       181   9  5.374641E+05  5.169543E+04  5.107003E+04 -6.790848E+04 -2.947865E+03  6.039260E+03
       181  10 -1.286567E+05 -1.131857E+05 -1.062797E+05 -6.708249E+04  6.514275E-10 -2.022117E-10
       181  11 -3.117835E+03 -8.238773E+04 -7.758180E+04 -2.438616E+04  9.768495E-10  3.111259E-10
       181  12  1.223855E+05 -5.117030E+04 -4.832523E+04 -6.730771E+04  2.904372E-10 -4.755221E-10
       181  13  3.298872E+05  2.392281E+02  2.337568E+03 -6.760807E+04  2.206004E-10 -1.091331E-09
       181  14  3.299200E+05  4.094894E+01  1.574784E+03 -2.480055E+04  2.795816E-11  2.697430E-10
       181  15  3.299051E+05  2.641091E+02  1.373879E+03 -6.760805E+04 -2.294218E-09 -8.640395E-10
       181  16  7.886243E+05  1.136491E+05  1.109402E+05 -6.813396E+04  3.223340E-11  2.605343E-10
       181  17  6.630597E+05  8.246164E+04  8.072362E+04 -2.521512E+04 -8.192296E-11 -6.242668E-10
       181  18  5.374641E+05  5.169539E+04  5.106994E+04 -6.790846E+04 -1.815991E-09 -1.335218E-09
       181  19 -1.286566E+05 -1.131854E+05 -1.062791E+05 -6.708243E+04 -4.532197E+03 -1.671204E+04
       181  20 -3.117785E+03 -8.238759E+04 -7.758153E+04 -2.438613E+04 -3.746602E+03 -1.137205E+04
       181  21  1.223856E+05 -5.117026E+04 -4.832514E+04 -6.730770E+04 -2.957334E+03 -6.027881E+03
       181  22  3.298873E+05  2.395289E+02  2.338098E+03 -6.760805E+04 -1.586035E+03 -1.671594E+04
       181  23  3.299201E+05  4.108812E+01  1.575029E+03 -2.480054E+04 -7.973886E+02 -1.137682E+04
       181  24  3.299051E+05  2.641482E+02  1.373947E+03 -6.760805E+04 -5.225657E+00 -6.033570E+03
       181  25  7.886244E+05  1.136494E+05  1.109407E+05 -6.813398E+04  1.362293E+03 -1.671985E+04
       181  26  6.630597E+05  8.246178E+04  8.072387E+04 -2.521514E+04  2.153399E+03 -1.138159E+04
       181  27  5.374641E+05  5.169543E+04  5.107003E+04 -6.790848E+04  2.947865E+03 -6.039260E+03
       182   1  2.753009E+05 -1.318230E+04 -1.117955E+04 -6.748576E+04  2.696450E+03  2.916605E+03
       182   2  4.007646E+05  1.758575E+04  1.866380E+04 -2.491233E+04  1.769407E+03 -2.421804E+03
       182   3  5.260912E+05  4.883644E+04  4.914318E+04 -6.784696E+04  8.429278E+02 -7.752535E+03
       182   4  3.298923E+05  2.512431E+02  1.413663E+03 -6.758448E+04 -2.546175E+02  2.922530E+03
       182   5  3.299674E+05  6.737728E+01  1.840837E+03 -2.483004E+04 -1.177632E+03 -2.416103E+03
       182   6  3.298884E+05  3.660920E+02  2.901746E+03 -6.758423E+04 -2.099900E+03 -7.747002E+03
       182   7  3.844865E+05  1.368458E+04  1.400671E+04 -6.768321E+04 -3.205943E+03  2.928456E+03
       182   8  2.591748E+05 -1.745135E+04 -1.498244E+04 -2.474776E+04 -4.124337E+03 -2.410403E+03
       182   9  1.337211E+05 -4.810700E+04 -4.334231E+04 -6.732158E+04 -5.041803E+03 -7.741471E+03
       182  10  2.753009E+05 -1.318231E+04 -1.117958E+04 -6.748577E+04  2.228174E-10  1.092029E-09
       182  11  4.007646E+05  1.758574E+04  1.866378E+04 -2.491233E+04  1.849931E-10  3.044430E-09
       182  12  5.260912E+05  4.883637E+04  4.914307E+04 -6.784695E+04  1.291229E-09 -2.067009E-09
       182  13  3.298923E+05  2.512339E+02  1.413647E+03 -6.758448E+04  3.193381E-11  2.545856E-10
       182  14  3.299674E+05  6.737064E+01  1.840824E+03 -2.483005E+04 -9.501227E-10 -7.658078E-10
       182  15  3.298884E+05  3.660264E+02  2.901625E+03 -6.758425E+04 -2.315869E-09 -2.180253E-10
       182  16  3.844865E+05  1.368457E+04  1.400667E+04 -6.768321E+04 -5.676700E-10  4.397077E-10
       182  17  2.591748E+05 -1.745136E+04 -1.498248E+04 -2.474777E+04  8.922447E-10 -6.111395E-10
       182  18  1.337210E+05 -4.810707E+04 -4.334247E+04 -6.732161E+04 -1.797055E-09 -2.594541E-10
       182  19  2.753009E+05 -1.318230E+04 -1.117955E+04 -6.748576E+04 -2.696450E+03 -2.916605E+03
       182  20  4.007646E+05  1.758575E+04  1.866380E+04 -2.491233E+04 -1.769407E+03  2.421804E+03
       182  21  5.260912E+05  4.883644E+04  4.914318E+04 -6.784696E+04 -8.429278E+02  7.752535E+03
       182  22  3.298923E+05  2.512431E+02  1.413663E+03 -6.758448E+04  2.546175E+02 -2.922530E+03
       182  23  3.299674E+05  6.737728E+01  1.840837E+03 -2.483004E+04  1.177632E+03  2.416103E+03
       182  24  3.298884E+05  3.660920E+02  2.901746E+03 -6.758423E+04  2.099900E+03  7.747002E+03
       182  25  3.844865E+05  1.368458E+04  1.400671E+04 -6.768321E+04  3.205943E+03 -2.928456E+03
       182  26  2.591748E+05 -1.745135E+04 -1.498244E+04 -2.474776E+04  4.124337E+03  2.410403E+03
       182  27  1.337211E+05 -4.810700E+04 -4.334231E+04 -6.732158E+04  5.041803E+03  7.741471E+03
       183   1  6.793825E+05  8.664749E+04  8.707128E+04 -6.784987E+04  2.870551E+02 -1.088218E+04
       183   2  8.047070E+05  1.173149E+05  1.190533E+05 -2.532088E+04 -2.903600E+03 -1.621949E+04
       183   3  9.309120E+05  1.502125E+05  1.536398E+05 -6.852082E+04 -6.089719E+03 -2.142005E+04
       183   4  3.300898E+05  1.569917E+02  3.709305E+03 -6.763495E+04 -2.701534E+03 -1.087706E+04
       183   5  3.296499E+05 -2.067385E+02  6.197206E+03 -2.476739E+04 -5.814733E+03 -1.621579E+04
       183   6  3.300637E+05  1.648290E+03  1.123849E+04 -6.763276E+04 -8.922761E+03 -2.141768E+04
       183   7 -1.909119E+04 -8.634232E+04 -7.966122E+04 -6.742010E+04 -5.688450E+03 -1.087194E+04
       183   8 -1.452002E+05 -1.177447E+05 -1.066746E+05 -2.421424E+04 -8.723651E+03 -1.621210E+04
       183   9 -2.704534E+05 -1.469418E+05 -1.311879E+05 -6.674544E+04 -1.175308E+04 -2.141531E+04
       183  10  6.793825E+05  8.664736E+04  8.707106E+04 -6.784987E+04 -8.919643E-10 -2.272322E-09
       183  11  8.047069E+05  1.173147E+05  1.190527E+05 -2.532091E+04 -1.507344E-09  5.131189E-10
       183  12  9.309119E+05  1.502120E+05  1.536389E+05 -6.852092E+04 -1.481653E-09  7.714626E-10
       183  13  3.300897E+05  1.568626E+02  3.709069E+03 -6.763498E+04 -2.151815E-09 -9.643910E-11
       183  14  3.296498E+05 -2.070300E+02  6.196648E+03 -2.476746E+04 -1.949010E-09 -3.494482E-10
       183  15  3.300635E+05  1.647776E+03  1.123748E+04 -6.763291E+04 -1.086126E-09 -1.552062E-10
       183  16 -1.909126E+04 -8.634245E+04 -7.966150E+04 -6.742015E+04  2.356922E-09 -7.791693E-11
       183  17 -1.452003E+05 -1.177450E+05 -1.066752E+05 -2.421435E+04  2.110630E-09  1.578165E-09
       183  18 -2.704537E+05 -1.469423E+05 -1.311890E+05 -6.674564E+04  8.722507E-11  6.018585E-10
       183  19  6.793825E+05  8.664749E+04  8.707128E+04 -6.784987E+04 -2.870551E+02  1.088218E+04
       183  20  8.047070E+05  1.173149E+05  1.190533E+05 -2.532088E+04  2.903600E+03  1.621949E+04
       183  21  9.309120E+05  1.502125E+05  1.536398E+05 -6.852082E+04  6.089719E+03  2.142005E+04
       183  22  3.300898E+05  1.569917E+02  3.709305E+03 -6.763495E+04  2.701534E+03  1.087706E+04
       183  23  3.296499E+05 -2.067385E+02  6.197206E+03 -2.476739E+04  5.814733E+03  1.621579E+04
       183  24  3.300637E+05  1.648290E+03  1.123849E+04 -6.763276E+04  8.922761E+03  2.141768E+04
       183  25 -1.909119E+04 -8.634232E+04 -7.966122E+04 -6.742010E+04  5.688450E+03  1.087194E+04
       183  26 -1.452002E+05 -1.177447E+05 -1.066746E+05 -2.421424E+04  8.723651E+03  1.621210E+04
       183  27 -2.704534E+05 -1.469418E+05 -1.311879E+05 -6.674544E+04  1.175308E+04  2.141531E+04
       184   1  1.086168E+06  1.859512E+05  1.940230E+05 -6.592097E+04 -7.700633E+03 -2.484529E+04
       184   2  1.209047E+06  2.156096E+05  2.335456E+05 -2.623681E+04 -2.131920E+04 -3.008791E+04
       184   3  1.339448E+06  2.657790E+05  2.871726E+05 -7.279646E+04 -3.493125E+04 -3.315596E+04
       184   4  3.314422E+05 -7.826507E+02  1.443126E+04 -6.775163E+04 -1.119758E+04 -2.484338E+04
       184   5  3.277624E+05 -2.353059E+03  2.424126E+04 -2.462346E+04 -2.359820E+04 -3.008945E+04
       184   6  3.313910E+05  1.639421E+04  4.732672E+04 -6.774604E+04 -3.598957E+04 -3.315967E+04
       184   7 -4.227615E+05 -1.875575E+05 -1.652003E+05 -6.957988E+04 -1.469029E+04 -2.484145E+04
       184   8 -5.528106E+05 -2.203716E+05 -1.851172E+05 -2.301229E+04 -2.587396E+04 -3.009100E+04
       184   9 -6.757350E+05 -2.330637E+05 -1.925902E+05 -6.270377E+04 -3.704614E+04 -3.316339E+04
       184  10  1.086168E+06  1.859505E+05  1.940218E+05 -6.592112E+04 -1.119030E-09  7.891779E-10
       184  11  1.209047E+06  2.156085E+05  2.335430E+05 -2.623733E+04 -2.543062E-09 -1.298754E-09
       184  12  1.339446E+06  2.657775E+05  2.871682E+05 -7.279739E+04 -1.435079E-09 -7.855993E-10
       184  13  3.314419E+05 -7.833472E+02  1.442987E+04 -6.775185E+04 -1.349044E-09  4.402899E-10
       184  14  3.277616E+05 -2.354180E+03  2.423851E+04 -2.462403E+04 -1.870678E-09  9.366472E-11
       184  15  3.313893E+05  1.639268E+04  4.732222E+04 -6.774700E+04 -1.348871E-09 -4.878509E-10
       184  16 -4.227619E+05 -1.875583E+05 -1.652019E+05 -6.958018E+04  5.464559E-10  5.059265E-10
       184  17 -5.528115E+05 -2.203727E+05 -1.851202E+05 -2.301291E+04  1.474627E-09 -7.900821E-10
       184  18 -6.757368E+05 -2.330653E+05 -1.925949E+05 -6.270476E+04  5.686655E-10 -1.863101E-11
       184  19  1.086168E+06  1.859512E+05  1.940230E+05 -6.592097E+04  7.700633E+03  2.484529E+04
       184  20  1.209047E+06  2.156096E+05  2.335456E+05 -2.623681E+04  2.131920E+04  3.008791E+04
       184  21  1.339448E+06  2.657790E+05  2.871726E+05 -7.279646E+04  3.493125E+04  3.315596E+04
       184  22  3.314422E+05 -7.826507E+02  1.443126E+04 -6.775163E+04  1.119758E+04  2.484338E+04
       184  23  3.277624E+05 -2.353059E+03  2.424126E+04 -2.462346E+04  2.359820E+04  3.008945E+04
       184  24  3.313910E+05  1.639421E+04  4.732672E+04 -6.774604E+04  3.598957E+04  3.315967E+04
       184  25 -4.227615E+05 -1.875575E+05 -1.652003E+05 -6.957988E+04  1.469029E+04  2.484145E+04
       184  26 -5.528106E+05 -2.203716E+05 -1.851172E+05 -2.301229E+04  2.587396E+04  3.009100E+04
       184  27 -6.757350E+05 -2.330637E+05 -1.925902E+05 -6.270377E+04  3.704614E+04  3.316339E+04
       185   1  1.506353E+06  2.784353E+05  3.340978E+05 -4.413299E+04 -3.400210E+04 -4.082322E+04
       185   2  1.603547E+06  2.969989E+05  3.998894E+05 -4.068375E+04 -1.026528E+05 -4.433027E+04
       185   3  1.763172E+06  5.226608E+05  5.624299E+05 -1.237353E+05 -1.713676E+05 -1.502149E+04
       185   4  3.428771E+05 -9.200227E+03  5.821711E+04 -6.774139E+04 -4.494434E+04 -4.082924E+04
       185   5  3.131430E+05 -2.202343E+04  9.356860E+04 -2.461141E+04 -9.535165E+04 -4.433232E+04
       185   6  3.427845E+05  1.693138E+05  2.131426E+05 -6.798234E+04 -1.458066E+05 -1.499817E+04
       185   7 -8.193563E+05 -2.969308E+05 -2.177571E+05 -9.130540E+04 -5.586616E+04 -4.083444E+04
       185   8 -9.757344E+05 -3.411644E+05 -2.128679E+05 -8.572904E+03 -8.806539E+04 -4.433400E+04
       185   9 -1.075762E+06 -1.841706E+05 -1.362892E+05 -1.235745E+04 -1.203036E+05 -1.497027E+04
       185  10  1.506351E+06  2.784332E+05  3.340925E+05 -4.413411E+04 -9.701024E-11 -1.401975E-10
       185  11  1.603535E+06  2.969939E+05  3.998659E+05 -4.068741E+04  3.644971E-10  6.883460E-10
       185  12  1.763140E+06  5.226527E+05  5.623745E+05 -1.237374E+05  9.136366E-10 -1.422068E-10
       185  13  3.428745E+05 -9.202560E+03  5.821018E+04 -6.774287E+04 -3.053435E-09  5.016166E-10
       185  14  3.131327E+05 -2.202798E+04  9.354783E+04 -2.461481E+04  1.507426E-09  2.137372E-09
       185  15  3.427617E+05  1.693079E+05  2.131022E+05 -6.798410E+04  2.720183E-10  1.525784E-11
       185  16 -8.193601E+05 -2.969334E+05 -2.177661E+05 -9.130724E+04 -8.061228E-10  2.561556E-10
       185  17 -9.757433E+05 -3.411686E+05 -2.128862E+05 -8.576050E+03 -7.654856E-10  5.363485E-10
       185  18 -1.075778E+06 -1.841747E+05 -1.363168E+05 -1.235890E+04 -1.151507E-09 -3.740543E-10
       185  19  1.506353E+06  2.784353E+05  3.340978E+05 -4.413299E+04  3.400210E+04  4.082322E+04
       185  20  1.603547E+06  2.969989E+05  3.998894E+05 -4.068375E+04  1.026528E+05  4.433027E+04
       185  21  1.763172E+06  5.226608E+05  5.624299E+05 -1.237353E+05  1.713676E+05  1.502149E+04
       185  22  3.428771E+05 -9.200227E+03  5.821711E+04 -6.774139E+04  4.494434E+04  4.082924E+04
       185  23  3.131430E+05 -2.202343E+04  9.356860E+04 -2.461141E+04  9.535165E+04  4.433232E+04
       185  24  3.427845E+05  1.693138E+05  2.131426E+05 -6.798234E+04  1.458066E+05  1.499817E+04
       185  25 -8.193563E+05 -2.969308E+05 -2.177571E+05 -9.130540E+04  5.586616E+04  4.083444E+04
       185  26 -9.757344E+05 -3.411644E+05 -2.128679E+05 -8.572904E+03  8.806539E+04  4.433400E+04
       185  27 -1.075762E+06 -1.841706E+05 -1.362892E+05 -1.235745E+04  1.203036E+05  1.497027E+04
       186   1  1.925118E+05  5.470536E+05  2.212321E+05 -1.552214E+05  1.646370E+03  1.010257E+05
       186   2  6.546857E+03  3.130596E+05  8.696062E+04 -5.421569E+04  2.748402E+03  6.001495E+04
       186   3 -3.646571E+04  1.188774E+05  1.484096E+04 -9.865458E+04 -5.476160E+03  1.898397E+04
       186   4  1.173909E+05  2.473097E+05  1.469916E+05 -1.147905E+05  1.664384E+03  9.790673E+04
       186   5 -1.463940E+04  2.278688E+05  6.671663E+04 -4.229269E+04  2.742025E+03  6.206223E+04
       186   6 -4.594847E+03  2.473271E+05  4.503406E+04 -1.152305E+05 -5.503834E+03  2.618351E+04
       186   7  4.226928E+04 -5.234927E+04  7.274517E+04 -7.437902E+04  1.681997E+03  9.478924E+04
       186   8 -3.582565E+04  1.426850E+05  4.647222E+04 -3.037134E+04  2.735725E+03  6.410924E+04
       186   9  2.727588E+04  3.757927E+05  7.522636E+04 -1.318098E+05 -5.531888E+03  3.338454E+04
       186  10  1.925090E+05  5.470427E+05  2.212130E+05 -1.552215E+05  1.807026E-10  1.112659E-09
       186  11  6.545882E+03  3.130557E+05  8.695384E+04 -5.421582E+04 -8.995691E-10 -5.789969E-10
       186  12 -3.646584E+04  1.188770E+05  1.484022E+04 -9.865450E+04 -2.510721E-10 -1.634768E-09
       186  13  1.173883E+05  2.472994E+05  1.469735E+05 -1.147906E+05  2.264871E-09  1.882084E-09
       186  14 -1.464044E+04  2.278647E+05  6.670938E+04 -4.229283E+04 -7.871743E-11  1.026883E-10
       186  15 -4.595064E+03  2.473264E+05  4.503271E+04 -1.152304E+05 -2.469525E-10  1.265937E-09
       186  16  4.226687E+04 -5.235892E+04  7.272828E+04 -7.437915E+04 -3.773940E-10 -1.176550E-09
       186  17 -3.582676E+04  1.426806E+05  4.646448E+04 -3.037148E+04  2.935919E-09  1.795771E-10
       186  18  2.727555E+04  3.757915E+05  7.522421E+04 -1.318097E+05 -1.781894E-11  1.919241E-09
       186  19  1.925118E+05  5.470536E+05  2.212321E+05 -1.552214E+05 -1.646370E+03 -1.010257E+05
       186  20  6.546857E+03  3.130596E+05  8.696062E+04 -5.421569E+04 -2.748402E+03 -6.001495E+04
       186  21 -3.646571E+04  1.188774E+05  1.484096E+04 -9.865458E+04  5.476160E+03 -1.898397E+04
       186  22  1.173909E+05  2.473097E+05  1.469916E+05 -1.147905E+05 -1.664384E+03 -9.790673E+04
       186  23 -1.463940E+04  2.278688E+05  6.671663E+04 -4.229269E+04 -2.742025E+03 -6.206223E+04
       186  24 -4.594847E+03  2.473271E+05  4.503406E+04 -1.152305E+05  5.503834E+03 -2.618351E+04
       186  25  4.226928E+04 -5.234927E+04  7.274517E+04 -7.437902E+04 -1.681997E+03 -9.478924E+04
       186  26 -3.582565E+04  1.426850E+05  4.647222E+04 -3.037134E+04 -2.735725E+03 -6.410924E+04
       186  27  2.727588E+04  3.757927E+05  7.522636E+04 -1.318098E+05  5.531888E+03 -3.338454E+04
       187   1 -8.473640E+04 -1.496776E+05 -5.378912E+04 -1.187770E+05 -1.239672E+04  1.389026E+04
       187   2 -1.519955E+05 -3.675765E+05 -1.153202E+05 -4.095873E+04 -2.065820E+04  3.660023E+02
       187   3 -1.946452E+05 -5.783399E+05 -1.620804E+05 -1.092434E+05 -2.715381E+04 -1.313840E+04
       187   4  1.181874E+04  2.402565E+05  3.924623E+04 -1.152239E+05 -1.241492E+04  1.897384E+04
       187   5 -2.416620E+03  2.366000E+05  2.831458E+04 -4.218549E+04 -2.067043E+04  4.464998E+03
       187   6  8.119593E+03  2.402019E+05  3.283307E+04 -1.152396E+05 -2.716079E+04 -1.002856E+04
       187   7  1.083630E+05  6.303302E+05  1.322710E+05 -1.116685E+05 -1.243306E+04  2.406059E+04
       187   8  1.471360E+05  8.411117E+05  1.719239E+05 -4.341317E+04 -2.068268E+04  8.567963E+03
       187   9  2.108361E+05  1.059359E+06  2.276996E+05 -1.212431E+05 -2.716782E+04 -6.914629E+03
       187  10 -8.473661E+04 -1.496779E+05 -5.378977E+04 -1.187768E+05 -1.368185E-09  6.347014E-10
       187  11 -1.519959E+05 -3.675766E+05 -1.153210E+05 -4.095872E+04  6.869201E-10 -2.073440E-10
       187  12 -1.946460E+05 -5.783403E+05 -1.620821E+05 -1.092437E+05 -6.271633E-11 -4.389249E-10
       187  13  1.181848E+04  2.402561E+05  3.924526E+04 -1.152238E+05 -1.208563E-09  1.864394E-09
       187  14 -2.417084E+03  2.365999E+05  2.831374E+04 -4.218542E+04 -3.372096E-10 -7.783223E-11
       187  15  8.118774E+03  2.402016E+05  3.283149E+04 -1.152398E+05 -1.371347E-09  8.750601E-10
       187  16  1.083626E+05  6.303296E+05  1.322696E+05 -1.116683E+05 -2.952291E-10 -5.747202E-10
       187  17  1.471355E+05  8.411115E+05  1.719230E+05 -4.341303E+04 -1.289571E-09 -4.884941E-11
       187  18  2.108353E+05  1.059359E+06  2.276982E+05 -1.212433E+05 -6.734691E-10  5.275830E-10
       187  19 -8.473640E+04 -1.496776E+05 -5.378912E+04 -1.187770E+05  1.239672E+04 -1.389026E+04
       187  20 -1.519955E+05 -3.675765E+05 -1.153202E+05 -4.095873E+04  2.065820E+04 -3.660023E+02
       187  21 -1.946452E+05 -5.783399E+05 -1.620804E+05 -1.092434E+05  2.715381E+04  1.313840E+04
       187  22  1.181874E+04  2.402565E+05  3.924623E+04 -1.152239E+05  1.241492E+04 -1.897384E+04
       187  23 -2.416620E+03  2.366000E+05  2.831458E+04 -4.218549E+04  2.067043E+04 -4.464998E+03
       187  24  8.119593E+03  2.402019E+05  3.283307E+04 -1.152396E+05  2.716079E+04  1.002856E+04
       187  25  1.083630E+05  6.303302E+05  1.322710E+05 -1.116685E+05  1.243306E+04 -2.406059E+04
       187  26  1.471360E+05  8.411117E+05  1.719239E+05 -4.341317E+04  2.068268E+04 -8.567963E+03
       187  27  2.108361E+05  1.059359E+06  2.276996E+05 -1.212431E+05  2.716782E+04  6.914629E+03
       188   1 -2.703582E+05 -8.354494E+05 -2.207394E+05 -1.248143E+05 -3.747287E+04 -2.971489E+04
       188   2 -3.317025E+05 -1.064288E+06 -2.582022E+05 -3.197617E+04 -4.439580E+04 -3.638711E+04
       188   3 -2.927076E+05 -1.266195E+06 -2.660407E+05 -8.485471E+04 -1.522286E+04 -4.299827E+04
       188   4 -2.867924E+03  2.451869E+05  3.600711E+04 -1.152005E+05 -3.750670E+04 -1.595953E+04
       188   5 -1.111414E+04  2.299798E+05  4.955724E+04 -4.228802E+04 -4.437694E+04 -4.257469E+04
       188   6  8.433090E+04  2.450603E+05  1.065306E+05 -1.150674E+05 -1.518412E+04 -6.913161E+04
       188   7  2.645388E+05  1.326897E+06  2.926728E+05 -1.055690E+05 -3.754008E+04 -2.180306E+03
       188   8  3.093538E+05  1.525787E+06  3.571997E+05 -5.262070E+04 -4.435790E+04 -4.877504E+04
       188   9  4.612028E+05  1.758398E+06  4.789360E+05 -1.453529E+05 -1.514289E+04 -9.532840E+04
       188  10 -2.703600E+05 -8.354507E+05 -2.207437E+05 -1.248152E+05 -1.000290E-10  3.518557E-10
       188  11 -3.317050E+05 -1.064290E+06 -2.582084E+05 -3.197748E+04  1.328529E-09  1.331158E-10
       188  12 -2.927084E+05 -1.266197E+06 -2.660446E+05 -8.485523E+04  9.528623E-10 -3.467013E-10
       188  13 -2.869504E+03  2.451862E+05  3.600399E+04 -1.152010E+05  1.342886E-09  1.371021E-09
       188  14 -1.111674E+04  2.299774E+05  4.955013E+04 -4.228954E+04  1.757587E-09 -8.240507E-11
       188  15  8.432937E+04  2.450551E+05  1.065212E+05 -1.150682E+05 -1.760099E-11  3.495358E-10
       188  16  2.645373E+05  1.326896E+06  2.926702E+05 -1.055691E+05 -9.062801E-10 -2.188532E-10
       188  17  3.093511E+05  1.525784E+06  3.571916E+05 -5.262244E+04  1.957773E-09 -4.555060E-10
       188  18  4.612001E+05  1.758389E+06  4.789185E+05 -1.453541E+05  8.967440E-10  3.537263E-10
       188  19 -2.703582E+05 -8.354494E+05 -2.207394E+05 -1.248143E+05  3.747287E+04  2.971489E+04
       188  20 -3.317025E+05 -1.064288E+06 -2.582022E+05 -3.197617E+04  4.439580E+04  3.638711E+04
       188  21 -2.927076E+05 -1.266195E+06 -2.660407E+05 -8.485471E+04  1.522286E+04  4.299827E+04
       188  22 -2.867924E+03  2.451869E+05  3.600711E+04 -1.152005E+05  3.750670E+04  1.595953E+04
       188  23 -1.111414E+04  2.299798E+05  4.955724E+04 -4.228802E+04  4.437694E+04  4.257469E+04
       188  24  8.433090E+04  2.450603E+05  1.065306E+05 -1.150674E+05  1.518412E+04  6.913161E+04
       188  25  2.645388E+05  1.326897E+06  2.926728E+05 -1.055690E+05  3.754008E+04  2.180306E+03
       188  26  3.093538E+05  1.525787E+06  3.571997E+05 -5.262070E+04  4.435790E+04  4.877504E+04
       188  27  4.612028E+05  1.758398E+06  4.789360E+05 -1.453529E+05  1.514289E+04  9.532840E+04
       189   1 -3.837433E+06 -1.337576E+06 -8.662320E+05 -1.337713E+06 -3.600116E+05 -1.201653E+05
       189   2 -3.720293E+06 -7.973289E+05 -5.290941E+05 -1.358227E+06 -2.354040E+05 -4.035152E+04
       189   3 -3.758778E+06 -7.671297E+05 -4.221419E+05 -1.300364E+06 -9.909761E+04  8.606532E+03
       189   4 -2.674172E+06 -7.735569E+05 -5.247470E+05 -8.947507E+05 -3.378295E+05 -1.118573E+05
       189   5 -2.570194E+06 -3.274381E+05 -2.196749E+05 -1.006734E+06 -2.288830E+05 -3.791087E+04
       189   6 -2.618384E+06 -3.877380E+05 -1.319967E+05 -1.040437E+06 -1.082555E+05  5.158041E+03
       189   7 -1.509557E+06 -2.091815E+05 -1.833922E+05 -4.509479E+05 -3.156008E+05 -1.035204E+05
       189   8 -1.418800E+06  1.425990E+05  8.962625E+04 -6.546260E+05 -2.223484E+05 -3.546409E+04
       189   9 -1.476728E+06 -8.333079E+03  1.580454E+05 -7.801077E+05 -1.174317E+05  1.704495E+03
       189  10 -3.837577E+06 -1.337627E+06 -8.665046E+05 -1.337748E+06 -3.179669E-10  2.670732E-11
       189  11 -3.720354E+06 -7.973456E+05 -5.292020E+05 -1.358235E+06  3.581917E-10  6.480957E-10
       189  12 -3.758789E+06 -7.671324E+05 -4.221606E+05 -1.300364E+06  2.711879E-10  1.337479E-09
       189  13 -2.674299E+06 -7.736013E+05 -5.249861E+05 -8.947813E+05  9.260658E-10 -3.964766E-10
       189  14 -2.570250E+06 -3.274537E+05 -2.197765E+05 -1.006741E+06  1.738230E-09  4.453274E-10
       189  15 -2.618397E+06 -3.877412E+05 -1.320189E+05 -1.040437E+06  5.407056E-10  3.324069E-10
       189  16 -1.509667E+06 -2.092198E+05 -1.836001E+05 -4.509743E+05 -1.558805E-09  1.025258E-09
       189  17 -1.418854E+06  1.425843E+05  8.953073E+04 -6.546324E+05 -1.013031E-09  7.134870E-10
       189  18 -1.476743E+06 -8.336794E+03  1.580194E+05 -7.801076E+05 -8.921906E-10  7.782791E-10
       189  19 -3.837433E+06 -1.337576E+06 -8.662320E+05 -1.337713E+06  3.600116E+05  1.201653E+05
       189  20 -3.720293E+06 -7.973289E+05 -5.290941E+05 -1.358227E+06  2.354040E+05  4.035152E+04
       189  21 -3.758778E+06 -7.671297E+05 -4.221419E+05 -1.300364E+06  9.909761E+04 -8.606532E+03
       189  22 -2.674172E+06 -7.735569E+05 -5.247470E+05 -8.947507E+05  3.378295E+05  1.118573E+05
       189  23 -2.570194E+06 -3.274381E+05 -2.196749E+05 -1.006734E+06  2.288830E+05  3.791087E+04
       189  24 -2.618384E+06 -3.877380E+05 -1.319967E+05 -1.040437E+06  1.082555E+05 -5.158041E+03
       189  25 -1.509557E+06 -2.091815E+05 -1.833922E+05 -4.509479E+05  3.156008E+05  1.035204E+05
       189  26 -1.418800E+06  1.425990E+05  8.962625E+04 -6.546260E+05  2.223484E+05  3.546409E+04
       189  27 -1.476728E+06 -8.333079E+03  1.580454E+05 -7.801077E+05  1.174317E+05 -1.704495E+03
       190   1 -3.588512E+06 -8.269065E+05 -3.701445E+05 -1.293295E+06 -8.712276E+04  5.825034E+03
       190   2 -3.517484E+06 -7.199921E+05 -2.912363E+05 -1.249473E+06 -5.848187E+04  1.487181E+04
       190   3 -3.421449E+06 -7.082981E+05 -2.464705E+05 -1.246141E+06 -2.892222E+04  2.146982E+04
       190   4 -2.599913E+06 -4.427765E+05 -1.071709E+05 -1.011536E+06 -8.735954E+04  5.729585E+03
       190   5 -2.609658E+06 -3.752677E+05 -5.182618E+04 -9.988034E+05 -5.993564E+04  1.432127E+04
       190   6 -2.594130E+06 -4.026860E+05 -2.961233E+04 -1.026566E+06 -3.159774E+04  2.046343E+04
       190   7 -1.610358E+06 -5.856869E+04  1.557181E+05 -7.293624E+05 -8.759665E+04  5.634010E+03
       190   8 -1.701028E+06 -3.048836E+04  1.875134E+05 -7.477993E+05 -6.139172E+04  1.376985E+04
       190   9 -1.766146E+06 -9.703847E+04  1.871878E+05 -8.067280E+05 -3.427718E+04  1.945565E+04
       190  10 -3.588520E+06 -8.269085E+05 -3.701589E+05 -1.293295E+06  1.297442E-09  8.421879E-10
       190  11 -3.517488E+06 -7.199933E+05 -2.912432E+05 -1.249472E+06 -2.866771E-10 -5.643487E-10
       190  12 -3.421450E+06 -7.082988E+05 -2.464730E+05 -1.246141E+06 -3.204030E-10 -2.702624E-10
       190  13 -2.599921E+06 -4.427786E+05 -1.071854E+05 -1.011536E+06 -2.337928E-10  3.592450E-11
       190  14 -2.609661E+06 -3.752689E+05 -5.183333E+04 -9.988027E+05 -3.704973E-11 -9.172121E-10
       190  15 -2.594131E+06 -4.026867E+05 -2.961500E+04 -1.026566E+06 -2.919694E-10 -3.309716E-11
       190  16 -1.610367E+06 -5.857079E+04  1.557035E+05 -7.293620E+05 -4.664328E-10  1.822549E-10
       190  17 -1.701032E+06 -3.048958E+04  1.875060E+05 -7.477987E+05  1.933008E-10 -3.221895E-10
       190  18 -1.766148E+06 -9.703919E+04  1.871849E+05 -8.067274E+05  6.013771E-10  3.648871E-10
       190  19 -3.588512E+06 -8.269065E+05 -3.701445E+05 -1.293295E+06  8.712276E+04 -5.825034E+03
       190  20 -3.517484E+06 -7.199921E+05 -2.912363E+05 -1.249473E+06  5.848187E+04 -1.487181E+04
       190  21 -3.421449E+06 -7.082981E+05 -2.464705E+05 -1.246141E+06  2.892222E+04 -2.146982E+04
       190  22 -2.599913E+06 -4.427765E+05 -1.071709E+05 -1.011536E+06  8.735954E+04 -5.729585E+03
       190  23 -2.609658E+06 -3.752677E+05 -5.182618E+04 -9.988034E+05  5.993564E+04 -1.432127E+04
       190  24 -2.594130E+06 -4.026860E+05 -2.961233E+04 -1.026566E+06  3.159774E+04 -2.046343E+04
       190  25 -1.610358E+06 -5.856869E+04  1.557181E+05 -7.293624E+05  8.759665E+04 -5.634010E+03
       190  26 -1.701028E+06 -3.048836E+04  1.875134E+05 -7.477993E+05  6.139172E+04 -1.376985E+04
       190  27 -1.766146E+06 -9.703847E+04  1.871878E+05 -8.067280E+05  3.427718E+04 -1.945565E+04
       191   1 -3.292370E+06 -6.736724E+05 -2.074007E+05 -1.216401E+06 -2.427392E+04  2.007428E+04
       191   2 -3.220582E+06 -6.065907E+05 -1.712596E+05 -1.161440E+06 -1.647116E+04  1.828107E+04
       191   3 -3.100040E+06 -5.956296E+05 -1.410653E+05 -1.163862E+06 -8.560480E+03  1.618446E+04
       191   4 -2.591010E+06 -4.092439E+05 -2.307391E+04 -1.024595E+06 -2.633715E+04  1.929871E+04
       191   5 -2.615082E+06 -3.790763E+05 -1.205375E+04 -9.966906E+05 -1.868331E+04  1.745132E+04
       191   6 -2.590378E+06 -4.049935E+05 -6.855897E+03 -1.026171E+06 -1.092266E+04  1.530031E+04
       191   7 -1.889174E+06 -1.447854E+05  1.612102E+05 -8.325923E+05 -2.840294E+04  1.852217E+04
       191   8 -2.009226E+06 -1.515397E+05  1.471208E+05 -8.317957E+05 -2.089784E+04  1.662069E+04
       191   9 -2.080463E+06 -2.143417E+05  1.273317E+05 -8.883764E+05 -1.328698E+04  1.441536E+04
       191  10 -3.292371E+06 -6.736730E+05 -2.074025E+05 -1.216400E+06 -1.200823E-09  4.131480E-10
       191  11 -3.220583E+06 -6.065911E+05 -1.712608E+05 -1.161440E+06  1.300999E-10  3.000982E-10
       191  12 -3.100040E+06 -5.956299E+05 -1.410659E+05 -1.163862E+06  3.193950E-09  2.543944E-10
       191  13 -2.591011E+06 -4.092445E+05 -2.307591E+04 -1.024594E+06 -2.645744E-10 -3.700773E-10
       191  14 -2.615083E+06 -3.790767E+05 -1.205498E+04 -9.966904E+05 -8.655426E-10 -1.032471E-09
       191  15 -2.590378E+06 -4.049937E+05 -6.856561E+03 -1.026171E+06  8.935996E-10 -1.522098E-10
       191  16 -1.889175E+06 -1.447859E+05  1.612081E+05 -8.325919E+05 -9.133777E-10 -6.491778E-10
       191  17 -2.009226E+06 -1.515401E+05  1.471194E+05 -8.317954E+05  8.748804E-10 -2.819955E-10
       191  18 -2.080463E+06 -2.143420E+05  1.273309E+05 -8.883763E+05  1.396161E-09  1.503042E-10
       191  19 -3.292370E+06 -6.736724E+05 -2.074007E+05 -1.216401E+06  2.427392E+04 -2.007428E+04
       191  20 -3.220582E+06 -6.065907E+05 -1.712596E+05 -1.161440E+06  1.647116E+04 -1.828107E+04
       191  21 -3.100040E+06 -5.956296E+05 -1.410653E+05 -1.163862E+06  8.560480E+03 -1.618446E+04
       191  22 -2.591010E+06 -4.092439E+05 -2.307391E+04 -1.024595E+06  2.633715E+04 -1.929871E+04
       191  23 -2.615082E+06 -3.790763E+05 -1.205375E+04 -9.966906E+05  1.868331E+04 -1.745132E+04
       191  24 -2.590378E+06 -4.049935E+05 -6.855897E+03 -1.026171E+06  1.092266E+04 -1.530031E+04
       191  25 -1.889174E+06 -1.447854E+05  1.612102E+05 -8.325923E+05  2.840294E+04 -1.852217E+04
       191  26 -2.009226E+06 -1.515397E+05  1.471208E+05 -8.317957E+05  2.089784E+04 -1.662069E+04
       191  27 -2.080463E+06 -2.143417E+05  1.273317E+05 -8.883764E+05  1.328698E+04 -1.441536E+04
       192   1 -2.967423E+06 -5.478993E+05 -1.043070E+05 -1.129208E+06 -6.589643E+03  1.388289E+04
       192   2 -2.892134E+06 -4.821768E+05 -7.573450E+04 -1.070558E+06 -3.213232E+03  9.925563E+03
       192   3 -2.763359E+06 -4.708809E+05 -4.854419E+04 -1.073786E+06  1.881156E+02  5.893158E+03
       192   4 -2.589517E+06 -4.061875E+05 -5.365621E+03 -1.026569E+06 -8.929092E+03  1.300812E+04
       192   5 -2.616217E+06 -3.787430E+05 -3.245238E+03 -9.957133E+05 -5.590271E+03  9.037518E+03
       192   6 -2.589433E+06 -4.057162E+05 -2.475695E+03 -1.026737E+06 -2.226838E+03  4.991792E+03
       192   7 -2.211471E+06 -2.644670E+05  9.356364E+04 -9.238740E+05 -1.127011E+04  1.213276E+04
       192   8 -2.340225E+06 -2.753049E+05  6.923743E+04 -9.208387E+05 -7.968469E+03  8.149040E+03
       192   9 -2.415479E+06 -3.405498E+05  4.359006E+04 -9.796767E+05 -4.642529E+03  4.090152E+03
       192  10 -2.967423E+06 -5.478996E+05 -1.043075E+05 -1.129208E+06  1.971441E-09 -3.764389E-10
       192  11 -2.892134E+06 -4.821769E+05 -7.573471E+04 -1.070558E+06  6.595087E-10 -5.572156E-10
       192  12 -2.763359E+06 -4.708810E+05 -4.854426E+04 -1.073786E+06 -7.491930E-10 -2.182182E-09
       192  13 -2.589517E+06 -4.061877E+05 -5.366088E+03 -1.026569E+06  1.840926E-09 -5.681169E-10
       192  14 -2.616217E+06 -3.787431E+05 -3.245450E+03 -9.957132E+05 -1.158050E-10 -6.933340E-10
       192  15 -2.589433E+06 -4.057162E+05 -2.475751E+03 -1.026737E+06  2.497180E-10 -7.030284E-10
       192  16 -2.211472E+06 -2.644672E+05  9.356313E+04 -9.238739E+05  4.302166E-10  6.562097E-10
       192  17 -2.340225E+06 -2.753050E+05  6.923718E+04 -9.208387E+05  1.525743E-09  2.147543E-09
       192  18 -2.415479E+06 -3.405498E+05  4.358999E+04 -9.796767E+05  1.972250E-10 -4.789256E-10
       192  19 -2.967423E+06 -5.478993E+05 -1.043070E+05 -1.129208E+06  6.589643E+03 -1.388289E+04
       192  20 -2.892134E+06 -4.821768E+05 -7.573450E+04 -1.070558E+06  3.213232E+03 -9.925563E+03
       192  21 -2.763359E+06 -4.708809E+05 -4.854419E+04 -1.073786E+06 -1.881156E+02 -5.893158E+03
       192  22 -2.589517E+06 -4.061875E+05 -5.365621E+03 -1.026569E+06  8.929092E+03 -1.300812E+04
       192  23 -2.616217E+06 -3.787430E+05 -3.245238E+03 -9.957133E+05  5.590271E+03 -9.037518E+03
       192  24 -2.589433E+06 -4.057162E+05 -2.475695E+03 -1.026737E+06  2.226838E+03 -4.991792E+03
       192  25 -2.211471E+06 -2.644670E+05  9.356364E+04 -9.238740E+05  1.127011E+04 -1.213276E+04
       192  26 -2.340225E+06 -2.753049E+05  6.923743E+04 -9.208387E+05  7.968469E+03 -8.149040E+03
       192  27 -2.415479E+06 -3.405498E+05  4.359006E+04 -9.796767E+05  4.642529E+03 -4.090152E+03
       193   1 -2.627239E+06 -4.201001E+05 -1.202324E+04 -1.037294E+06  1.619572E+03  3.309097E+03
       193   2 -2.550948E+06 -3.540236E+05  1.420692E+04 -9.777550E+05  4.849171E+03 -8.268859E+02
       193   3 -2.420549E+06 -3.429912E+05  3.918701E+04 -9.809424E+05  8.070544E+03 -4.937900E+03
       193   4 -2.589293E+06 -4.058842E+05 -2.436622E+03 -1.026912E+06 -8.012198E+02  2.405772E+03
       193   5 -2.616364E+06 -3.785271E+05 -2.972464E+03 -9.954846E+05  2.440798E+03 -1.725800E+03
       193   6 -2.589344E+06 -4.062186E+05 -4.768219E+03 -1.026789E+06  5.674301E+03 -5.832456E+03
       193   7 -2.551344E+06 -3.916681E+05  7.149940E+03 -1.016529E+06 -3.222182E+03  1.502382E+03
       193   8 -2.681777E+06 -4.030304E+05 -2.015222E+04 -1.013213E+06  3.270028E+01 -2.624612E+03
       193   9 -2.758111E+06 -4.694443E+05 -4.872583E+04 -1.072625E+06  3.278774E+03 -6.726744E+03
       193  10 -2.627239E+06 -4.201001E+05 -1.202327E+04 -1.037294E+06 -9.661978E-10 -1.573874E-09
       193  11 -2.550948E+06 -3.540236E+05  1.420688E+04 -9.777550E+05  2.894308E-10 -1.175246E-09
       193  12 -2.420549E+06 -3.429912E+05  3.918684E+04 -9.809424E+05 -4.362435E-10 -2.438127E-09
       193  13 -2.589293E+06 -4.058842E+05 -2.436634E+03 -1.026912E+06  1.336582E-10 -4.421467E-10
       193  14 -2.616364E+06 -3.785271E+05 -2.972481E+03 -9.954846E+05 -5.821090E-10 -1.757689E-09
       193  15 -2.589344E+06 -4.062187E+05 -4.768344E+03 -1.026789E+06  4.378536E-11  2.102392E-10
       193  16 -2.551344E+06 -3.916681E+05  7.149916E+03 -1.016529E+06  7.810923E-10  2.719558E-10
       193  17 -2.681777E+06 -4.030304E+05 -2.015224E+04 -1.013213E+06  2.280374E-09  7.813476E-10
       193  18 -2.758111E+06 -4.694444E+05 -4.872593E+04 -1.072625E+06 -1.049975E-09 -4.402214E-10
       193  19 -2.627239E+06 -4.201001E+05 -1.202324E+04 -1.037294E+06 -1.619572E+03 -3.309097E+03
       193  20 -2.550948E+06 -3.540236E+05  1.420692E+04 -9.777550E+05 -4.849171E+03  8.268859E+02
       193  21 -2.420549E+06 -3.429912E+05  3.918701E+04 -9.809424E+05 -8.070544E+03  4.937900E+03
       193  22 -2.589293E+06 -4.058842E+05 -2.436622E+03 -1.026912E+06  8.012198E+02 -2.405772E+03
       193  23 -2.616364E+06 -3.785271E+05 -2.972464E+03 -9.954846E+05 -2.440798E+03  1.725800E+03
       193  24 -2.589344E+06 -4.062186E+05 -4.768219E+03 -1.026789E+06 -5.674301E+03  5.832456E+03
       193  25 -2.551344E+06 -3.916681E+05  7.149940E+03 -1.016529E+06  3.222182E+03 -1.502382E+03
       193  26 -2.681777E+06 -4.030304E+05 -2.015222E+04 -1.013213E+06 -3.270028E+01  2.624612E+03
       193  27 -2.758111E+06 -4.694443E+05 -4.872583E+04 -1.072625E+06 -3.278774E+03  6.726744E+03
       194   1 -2.285862E+06 -2.919558E+05  7.407089E+04 -9.448220E+05  1.000570E+04 -7.327636E+03
       194   2 -2.211581E+06 -2.268971E+05  9.557719E+04 -8.861955E+05  1.694898E+04 -9.961379E+03
       194   3 -2.086448E+06 -2.192946E+05  1.120228E+05 -8.875638E+05  2.380911E+04 -1.235735E+04
       194   4 -2.589901E+06 -4.054086E+05 -6.062245E+03 -1.026696E+06  7.579927E+03 -8.233689E+03
       194   5 -2.615584E+06 -3.785085E+05 -1.055404E+04 -9.960136E+05  1.464150E+04 -1.082444E+04
       194   6 -2.590449E+06 -4.090934E+05 -2.020270E+04 -1.025333E+06  2.161899E+04 -1.317766E+04
       194   7 -2.893851E+06 -5.188557E+05 -8.620304E+04 -1.108533E+06  5.155471E+03 -9.139257E+03
       194   8 -3.019429E+06 -5.301100E+05 -1.166992E+05 -1.105767E+06  1.233568E+04 -1.168688E+04
       194   9 -3.094204E+06 -5.988769E+05 -1.524502E+05 -1.163000E+06  1.943082E+04 -1.399723E+04
       194  10 -2.285862E+06 -2.919559E+05  7.407060E+04 -9.448220E+05  5.741022E-10 -1.413326E-11
       194  11 -2.211581E+06 -2.268973E+05  9.557646E+04 -8.861954E+05 -1.650881E-09 -1.032857E-10
       194  12 -2.086448E+06 -2.192949E+05  1.120214E+05 -8.875636E+05 -2.247259E-09  2.743205E-10
       194  13 -2.589902E+06 -4.054087E+05 -6.062480E+03 -1.026696E+06 -1.387836E-09 -7.109286E-10
       194  14 -2.615585E+06 -3.785087E+05 -1.055466E+04 -9.960135E+05 -2.417745E-09  4.370062E-11
       194  15 -2.590449E+06 -4.090937E+05 -2.020390E+04 -1.025332E+06 -1.792856E-09 -2.436664E-10
       194  16 -2.893851E+06 -5.188558E+05 -8.620325E+04 -1.108533E+06 -8.259351E-10 -6.977367E-10
       194  17 -3.019430E+06 -5.301102E+05 -1.166997E+05 -1.105767E+06 -2.631037E-09 -2.621519E-10
       194  18 -3.094205E+06 -5.988772E+05 -1.524513E+05 -1.163000E+06 -7.948608E-10  7.404255E-10
       194  19 -2.285862E+06 -2.919558E+05  7.407089E+04 -9.448220E+05 -1.000570E+04  7.327636E+03
       194  20 -2.211581E+06 -2.268971E+05  9.557719E+04 -8.861955E+05 -1.694898E+04  9.961379E+03
       194  21 -2.086448E+06 -2.192946E+05  1.120228E+05 -8.875638E+05 -2.380911E+04  1.235735E+04
       194  22 -2.589901E+06 -4.054086E+05 -6.062245E+03 -1.026696E+06 -7.579927E+03  8.233689E+03
       194  23 -2.615584E+06 -3.785085E+05 -1.055404E+04 -9.960136E+05 -1.464150E+04  1.082444E+04
       194  24 -2.590449E+06 -4.090934E+05 -2.020270E+04 -1.025333E+06 -2.161899E+04  1.317766E+04
       194  25 -2.893851E+06 -5.188557E+05 -8.620304E+04 -1.108533E+06 -5.155471E+03  9.139257E+03
       194  26 -3.019429E+06 -5.301100E+05 -1.166992E+05 -1.105767E+06 -1.233568E+04  1.168688E+04
       194  27 -3.094204E+06 -5.988769E+05 -1.524502E+05 -1.163000E+06 -1.943082E+04  1.399723E+04
       195   1 -1.956746E+06 -1.695013E+05  1.406270E+05 -8.592453E+05  2.913225E+04 -1.361657E+04
       195   2 -1.886849E+06 -1.004288E+05  1.454075E+05 -7.978578E+05  5.312517E+04 -9.440788E+03
       195   3 -1.785852E+06 -1.232304E+05  1.220258E+05 -7.824793E+05  7.632226E+04 -3.114394E+03
       195   4 -2.593052E+06 -4.035073E+05 -2.592304E+04 -1.027217E+06  2.639182E+04 -1.464368E+04
       195   5 -2.611000E+06 -3.749881E+05 -4.531366E+04 -9.976517E+05  5.146506E+04 -1.006572E+04
       195   6 -2.598090E+06 -4.385964E+05 -9.375164E+04 -1.014101E+06  7.573847E+04 -3.337912E+03
       195   7 -3.228965E+06 -6.374932E+05 -1.925074E+05 -1.195035E+06  2.365448E+04 -1.566968E+04
       195   8 -3.334639E+06 -6.495124E+05 -2.360796E+05 -1.197233E+06  4.980706E+04 -1.068986E+04
       195   9 -3.409684E+06 -7.539097E+05 -3.095860E+05 -1.245442E+06  7.515548E+04 -3.561115E+03
       195  10 -1.956747E+06 -1.695017E+05  1.406251E+05 -8.592450E+05  2.082468E-11  5.077832E-10
       195  11 -1.886852E+06 -1.004297E+05  1.454021E+05 -7.978574E+05  4.601232E-10  2.351275E-10
       195  12 -1.785859E+06 -1.232320E+05  1.220148E+05 -7.824791E+05 -7.346404E-10 -4.457002E-10
       195  13 -2.593053E+06 -4.035078E+05 -2.592476E+04 -1.027217E+06 -1.991395E-10  8.059065E-10
       195  14 -2.611003E+06 -3.749889E+05 -4.531884E+04 -9.976513E+05  7.706453E-10  6.232095E-10
       195  15 -2.598096E+06 -4.385980E+05 -9.376248E+04 -1.014100E+06  2.487842E-10  5.717533E-11
       195  16 -3.228965E+06 -6.374936E+05 -1.925089E+05 -1.195035E+06 -1.256549E-09  1.334694E-09
       195  17 -3.334642E+06 -6.495132E+05 -2.360845E+05 -1.197233E+06 -7.465923E-10 -5.022293E-10
       195  18 -3.409690E+06 -7.539112E+05 -3.095967E+05 -1.245442E+06  1.250656E-09  1.987162E-10
       195  19 -1.956746E+06 -1.695013E+05  1.406270E+05 -8.592453E+05 -2.913225E+04  1.361657E+04
       195  20 -1.886849E+06 -1.004288E+05  1.454075E+05 -7.978578E+05 -5.312517E+04  9.440788E+03
       195  21 -1.785852E+06 -1.232304E+05  1.220258E+05 -7.824793E+05 -7.632226E+04  3.114394E+03
       195  22 -2.593052E+06 -4.035073E+05 -2.592304E+04 -1.027217E+06 -2.639182E+04  1.464368E+04
       195  23 -2.611000E+06 -3.749881E+05 -4.531366E+04 -9.976517E+05 -5.146506E+04  1.006572E+04
       195  24 -2.598090E+06 -4.385964E+05 -9.375164E+04 -1.014101E+06 -7.573847E+04  3.337912E+03
       195  25 -3.228965E+06 -6.374932E+05 -1.925074E+05 -1.195035E+06 -2.365448E+04  1.566968E+04
       195  26 -3.334639E+06 -6.495124E+05 -2.360796E+05 -1.197233E+06 -4.980706E+04  1.068986E+04
       195  27 -3.409684E+06 -7.539097E+05 -3.095860E+05 -1.245442E+06 -7.515548E+04  3.561115E+03
       196   1 -1.645942E+06 -7.060298E+04  1.302292E+05 -8.207654E+05  1.027340E+05 -1.800277E+02
       196   2 -1.581809E+06  7.248140E+04  7.501288E+04 -7.007692E+05  1.946146E+05  3.134692E+04
       196   3 -1.638428E+06 -2.338142E+05 -1.590988E+05 -5.235166E+05  2.761959E+05  9.025776E+04
       196   4 -2.614236E+06 -3.904641E+05 -1.154641E+05 -1.039384E+06  9.421694E+04 -3.375747E+03
       196   5 -2.576584E+06 -3.330657E+05 -1.921255E+05 -1.004494E+06  2.000511E+05  3.337700E+04
       196   6 -2.662734E+06 -7.282673E+05 -4.590047E+05 -9.122935E+05  2.955699E+05  9.750465E+04
       196   7 -3.581623E+06 -7.103181E+05 -3.612318E+05 -1.257717E+06  8.571441E+04 -6.567547E+03
       196   8 -3.570391E+06 -7.385031E+05 -4.593513E+05 -1.307760E+06  2.054777E+05  3.540268E+04
       196   9 -3.685986E+06 -1.222445E+06 -7.590094E+05 -1.300421E+06  3.149083E+05  1.047296E+05
       196  10 -1.645953E+06 -7.060582E+04  1.302094E+05 -8.207654E+05 -5.137071E-10  1.188605E-10
       196  11 -1.581850E+06  7.247014E+04  7.493964E+04 -7.007741E+05 -2.248827E-09  3.605150E-10
       196  12 -1.638512E+06 -2.338435E+05 -1.592579E+05 -5.235367E+05 -4.893426E-10  4.094260E-11
       196  13 -2.614245E+06 -3.904665E+05 -1.154809E+05 -1.039384E+06  5.384863E-11  2.901451E-10
       196  14 -2.576627E+06 -3.330777E+05 -1.922032E+05 -1.004500E+06  4.902519E-10 -2.283581E-09
       196  15 -2.662831E+06 -7.283011E+05 -4.591876E+05 -9.123168E+05  4.413297E-10 -3.741144E-10
       196  16 -3.581631E+06 -7.103201E+05 -3.612458E+05 -1.257717E+06 -2.121844E-10  4.824189E-11
       196  17 -3.570437E+06 -7.385159E+05 -4.594335E+05 -1.307766E+06 -6.876468E-10 -3.208826E-10
       196  18 -3.686096E+06 -1.222484E+06 -7.592178E+05 -1.300447E+06 -6.338226E-10 -1.717156E-10
       196  19 -1.645942E+06 -7.060298E+04  1.302292E+05 -8.207654E+05 -1.027340E+05  1.800277E+02
       196  20 -1.581809E+06  7.248140E+04  7.501288E+04 -7.007692E+05 -1.946146E+05 -3.134692E+04
       196  21 -1.638428E+06 -2.338142E+05 -1.590988E+05 -5.235166E+05 -2.761959E+05 -9.025776E+04
       196  22 -2.614236E+06 -3.904641E+05 -1.154641E+05 -1.039384E+06 -9.421694E+04  3.375747E+03
       196  23 -2.576584E+06 -3.330657E+05 -1.921255E+05 -1.004494E+06 -2.000511E+05 -3.337700E+04
       196  24 -2.662734E+06 -7.282673E+05 -4.590047E+05 -9.122935E+05 -2.955699E+05 -9.750465E+04
       196  25 -3.581623E+06 -7.103181E+05 -3.612318E+05 -1.257717E+06 -8.571441E+04  6.567547E+03
       196  26 -3.570391E+06 -7.385031E+05 -4.593513E+05 -1.307760E+06 -2.054777E+05 -3.540268E+04
       196  27 -3.685986E+06 -1.222445E+06 -7.590094E+05 -1.300421E+06 -3.149083E+05 -1.047296E+05
       197   1  3.414478E+05  1.068801E+05  1.833086E+05  6.782862E+04  2.362036E+05  8.170439E+03
       197   2  3.503222E+05 -2.048680E+05 -8.739852E+02  1.870637E+04  1.592314E+05  2.350525E+04
       197   3  4.566012E+05 -1.694635E+05 -4.803106E+04 -6.936237E+04  8.227736E+04  2.197924E+04
       197   4  1.078631E+06  2.900084E+05  3.645890E+05 -2.934214E+04  2.496220E+05  8.156492E+03
       197   5  1.029255E+06 -3.703360E+04  1.603408E+05 -9.619703E+03  1.632388E+05  2.350183E+04
       197   6  1.078790E+06 -1.551401E+04  9.953177E+04 -2.884076E+04  7.688260E+04  2.197745E+04
       197   7  1.816330E+06  4.731323E+05  5.458352E+05 -1.266286E+05  2.630561E+05  8.138374E+03
       197   8  1.708612E+06  1.307708E+05  3.215239E+05 -3.797703E+04  1.672505E+05  2.349806E+04
       197   9  1.701337E+06  1.384138E+05  2.470686E+05  1.172154E+04  7.148243E+04  2.197496E+04
       197  10  3.413879E+05  1.068651E+05  1.832037E+05  6.782707E+04 -2.117147E-10  5.504842E-10
       197  11  3.502948E+05 -2.048754E+05 -9.226385E+02  1.870335E+04 -2.908063E-10 -6.568003E-10
       197  12  4.565938E+05 -1.694658E+05 -4.804468E+04 -6.936382E+04  3.123270E-10 -4.314742E-10
       197  13  1.078565E+06  2.899916E+05  3.644719E+05 -2.934378E+04  1.027126E-09  2.787079E-10
       197  14  1.029226E+06 -3.704133E+04  1.602897E+05 -9.622792E+03 -6.855202E-10 -1.762406E-09
       197  15  1.078784E+06 -1.551611E+04  9.951978E+04 -2.884212E+04  2.476692E-09 -2.089686E-10
       197  16  1.816256E+06  4.731137E+05  5.457054E+05 -1.266303E+05  1.322455E-09 -1.079903E-10
       197  17  1.708582E+06  1.307627E+05  3.214704E+05 -3.798019E+04  2.198187E-09  1.810869E-11
       197  18  1.701332E+06  1.384119E+05  2.470582E+05  1.172028E+04 -5.019530E-11 -5.704051E-10
       197  19  3.414478E+05  1.068801E+05  1.833086E+05  6.782862E+04 -2.362036E+05 -8.170439E+03
       197  20  3.503222E+05 -2.048680E+05 -8.739852E+02  1.870637E+04 -1.592314E+05 -2.350525E+04
       197  21  4.566012E+05 -1.694635E+05 -4.803106E+04 -6.936237E+04 -8.227736E+04 -2.197924E+04
       197  22  1.078631E+06  2.900084E+05  3.645890E+05 -2.934214E+04 -2.496220E+05 -8.156492E+03
       197  23  1.029255E+06 -3.703360E+04  1.603408E+05 -9.619703E+03 -1.632388E+05 -2.350183E+04
       197  24  1.078790E+06 -1.551401E+04  9.953177E+04 -2.884076E+04 -7.688260E+04 -2.197745E+04
       197  25  1.816330E+06  4.731323E+05  5.458352E+05 -1.266286E+05 -2.630561E+05 -8.138374E+03
       197  26  1.708612E+06  1.307708E+05  3.215239E+05 -3.797703E+04 -1.672505E+05 -2.349806E+04
       197  27  1.701337E+06  1.384138E+05  2.470686E+05  1.172154E+04 -7.148243E+04 -2.197496E+04
       198   1  5.052658E+05 -1.088035E+05 -5.089088E+04 -2.049862E+04  6.187956E+04  1.824824E+04
       198   2  5.543504E+05 -1.273236E+05 -7.700722E+04 -8.041775E+03  4.125973E+04  1.707350E+04
       198   3  6.150028E+05 -1.114882E+05 -8.105336E+04 -3.296191E+04  2.063756E+04  1.480497E+04
       198   4  1.059388E+06  2.828290E+04  8.097572E+04 -2.865169E+04  6.157945E+04  1.824606E+04
       198   5  1.053574E+06 -3.854467E+03  4.156016E+04 -9.953269E+03  4.033811E+04  1.707190E+04
       198   6  1.059422E+06 -1.544482E+03  2.463168E+04 -2.862947E+04  1.909625E+04  1.480393E+04
       198   7  1.613791E+06  1.653475E+05  2.128209E+05 -3.681212E+04  6.127905E+04  1.824388E+04
       198   8  1.553025E+06  1.195967E+05  1.601102E+05 -1.186634E+04  3.941574E+04  1.707030E+04
       198   9  1.504023E+06  1.083851E+05  1.303029E+05 -2.429391E+04  1.755384E+04  1.480287E+04
       198  10  5.052616E+05 -1.088049E+05 -5.089869E+04 -2.049953E+04  4.286716E-10 -1.029278E-09
       198  11  5.543485E+05 -1.273243E+05 -7.701096E+04 -8.042343E+03 -2.667068E-10  2.313030E-10
       198  12  6.150023E+05 -1.114885E+05 -8.105457E+04 -3.296216E+04  4.112104E-10  2.723234E-10
       198  13  1.059384E+06  2.828153E+04  8.096798E+04 -2.865260E+04  1.349295E-09 -6.886914E-10
       198  14  1.053572E+06 -3.855216E+03  4.155656E+04 -9.953824E+03 -9.051117E-10 -3.239993E-10
       198  15  1.059422E+06 -1.544815E+03  2.463059E+04 -2.862969E+04 -8.028192E-10  1.713765E-10
       198  16  1.613787E+06  1.653461E+05  2.128132E+05 -3.681302E+04 -1.066494E-10 -1.288039E-10
       198  17  1.553024E+06  1.195960E+05  1.601067E+05 -1.186688E+04 -1.362062E-09 -1.196402E-09
       198  18  1.504022E+06  1.083847E+05  1.303020E+05 -2.429412E+04 -8.380812E-10  3.785285E-10
       198  19  5.052658E+05 -1.088035E+05 -5.089088E+04 -2.049862E+04 -6.187956E+04 -1.824824E+04
       198  20  5.543504E+05 -1.273236E+05 -7.700722E+04 -8.041775E+03 -4.125973E+04 -1.707350E+04
       198  21  6.150028E+05 -1.114882E+05 -8.105336E+04 -3.296191E+04 -2.063756E+04 -1.480497E+04
       198  22  1.059388E+06  2.828290E+04  8.097572E+04 -2.865169E+04 -6.157945E+04 -1.824606E+04
       198  23  1.053574E+06 -3.854467E+03  4.156016E+04 -9.953269E+03 -4.033811E+04 -1.707190E+04
       198  24  1.059422E+06 -1.544482E+03  2.463168E+04 -2.862947E+04 -1.909625E+04 -1.480393E+04
       198  25  1.613791E+06  1.653475E+05  2.128209E+05 -3.681212E+04 -6.127905E+04 -1.824388E+04
       198  26  1.553025E+06  1.195967E+05  1.601102E+05 -1.186634E+04 -3.941574E+04 -1.707030E+04
       198  27  1.504023E+06  1.083851E+05  1.303029E+05 -2.429391E+04 -1.755384E+04 -1.480287E+04
       199   1  6.785194E+05 -9.095533E+04 -7.058102E+04 -2.791208E+04  1.641529E+04  1.331054E+04
       199   2  7.309345E+05 -8.091691E+04 -6.670598E+04 -1.022675E+04  1.114843E+04  1.111073E+04
       199   3  7.849887E+05 -6.749118E+04 -5.853545E+04 -2.883793E+04  5.879631E+03  8.857154E+03
       199   4  1.057207E+06  2.670150E+03  1.921795E+04 -2.839611E+04  1.522140E+04  1.330977E+04
       199   5  1.056393E+06 -4.304194E+02  1.058578E+04 -1.024834E+04  9.921832E+03  1.111033E+04
       199   6  1.057219E+06 -1.392871E+02  6.269658E+03 -2.839586E+04  4.620780E+03  8.857125E+03
       199   7  1.436026E+06  9.628534E+04  1.090069E+05 -2.888045E+04  1.402678E+04  1.330900E+04
       199   8  1.381948E+06  8.004846E+04  8.787016E+04 -1.026994E+04  8.694597E+03  1.110992E+04
       199   9  1.329517E+06  6.720727E+04  7.106959E+04 -2.795359E+04  3.361379E+03  8.857094E+03
       199  10  6.785191E+05 -9.095559E+04 -7.058185E+04 -2.791226E+04  8.382557E-10  5.194054E-10
       199  11  7.309343E+05 -8.091708E+04 -6.670644E+04 -1.022685E+04 -4.038051E-10 -1.169698E-10
       199  12  7.849886E+05 -6.749128E+04 -5.853566E+04 -2.883797E+04 -2.633942E-09  8.508481E-10
       199  13  1.057207E+06  2.669898E+03  1.921718E+04 -2.839628E+04 -9.976844E-10  1.886325E-10
       199  14  1.056393E+06 -4.305784E+02  1.058537E+04 -1.024843E+04 -3.164924E-10 -3.697517E-10
       199  15  1.057219E+06 -1.393771E+02  6.269471E+03 -2.839589E+04 -1.237549E-09  6.867226E-10
       199  16  1.436026E+06  9.628510E+04  1.090062E+05 -2.888060E+04 -1.014945E-09  2.406540E-11
       199  17  1.381948E+06  8.004831E+04  8.786979E+04 -1.027002E+04  9.149897E-10 -5.883568E-10
       199  18  1.329517E+06  6.720718E+04  7.106942E+04 -2.795361E+04  7.015563E-10  7.076358E-10
       199  19  6.785194E+05 -9.095533E+04 -7.058102E+04 -2.791208E+04 -1.641529E+04 -1.331054E+04
       199  20  7.309345E+05 -8.091691E+04 -6.670598E+04 -1.022675E+04 -1.114843E+04 -1.111073E+04
       199  21  7.849887E+05 -6.749118E+04 -5.853545E+04 -2.883793E+04 -5.879631E+03 -8.857154E+03
       199  22  1.057207E+06  2.670150E+03  1.921795E+04 -2.839611E+04 -1.522140E+04 -1.330977E+04
       199  23  1.056393E+06 -4.304194E+02  1.058578E+04 -1.024834E+04 -9.921832E+03 -1.111033E+04
       199  24  1.057219E+06 -1.392871E+02  6.269658E+03 -2.839586E+04 -4.620780E+03 -8.857125E+03
       199  25  1.436026E+06  9.628534E+04  1.090069E+05 -2.888045E+04 -1.402678E+04 -1.330900E+04
       199  26  1.381948E+06  8.004846E+04  8.787016E+04 -1.026994E+04 -8.694597E+03 -1.110992E+04
       199  27  1.329517E+06  6.720727E+04  7.106959E+04 -2.795359E+04 -3.361379E+03 -8.857094E+03
       200   1  8.488857E+05 -5.117091E+04 -4.435243E+04 -2.823317E+04  4.848633E+03  7.542076E+03
       200   2  9.010437E+05 -3.856135E+04 -3.396677E+04 -1.042526E+04  3.348503E+03  5.315114E+03
       200   3  9.534867E+05 -2.558835E+04 -2.251566E+04 -2.827011E+04  1.847566E+03  3.093473E+03
       200   4  1.056925E+06  2.422006E+02  4.891858E+03 -2.825297E+04  3.617141E+03  7.542221E+03
       200   5  1.056786E+06 -4.984625E+01  3.016263E+03 -1.042691E+04  2.119458E+03  5.315425E+03
       200   6  1.056930E+06  2.118429E+01  2.204271E+03 -2.825305E+04  6.210933E+02  3.093961E+03
       200   7  1.265004E+06  5.165222E+04  5.413315E+04 -2.827277E+04  2.385238E+03  7.542366E+03
       200   8  1.212551E+06  3.845991E+04  3.999762E+04 -1.042855E+04  8.901062E+02  5.315737E+03
       200   9  1.160382E+06  2.562995E+04  2.692346E+04 -2.823599E+04 -6.055832E+02  3.094448E+03
       200  10  8.488857E+05 -5.117098E+04 -4.435258E+04 -2.823320E+04  1.421755E-09  4.437755E-10
       200  11  9.010437E+05 -3.856138E+04 -3.396685E+04 -1.042528E+04 -6.632239E-12 -4.069347E-10
       200  12  9.534867E+05 -2.558836E+04 -2.251569E+04 -2.827011E+04 -9.412102E-10  2.459469E-10
       200  13  1.056925E+06  2.421360E+02  4.891726E+03 -2.825299E+04  1.539181E-10  8.109383E-10
       200  14  1.056786E+06 -4.987780E+01  3.016202E+03 -1.042692E+04 -9.468803E-10 -8.136606E-10
       200  15  1.056930E+06  2.117390E+01  2.204253E+03 -2.825305E+04 -1.892029E-10 -1.408635E-10
       200  16  1.265004E+06  5.165215E+04  5.413303E+04 -2.827278E+04 -1.487809E-10  4.341073E-10
       200  17  1.212551E+06  3.845988E+04  3.999756E+04 -1.042856E+04  6.442879E-10 -6.951129E-10
       200  18  1.160382E+06  2.562994E+04  2.692344E+04 -2.823599E+04  2.076477E-09 -4.318306E-10
       200  19  8.488857E+05 -5.117091E+04 -4.435243E+04 -2.823317E+04 -4.848633E+03 -7.542076E+03
       200  20  9.010437E+05 -3.856135E+04 -3.396677E+04 -1.042526E+04 -3.348503E+03 -5.315114E+03
       200  21  9.534867E+05 -2.558835E+04 -2.251566E+04 -2.827011E+04 -1.847566E+03 -3.093473E+03
       200  22  1.056925E+06  2.422006E+02  4.891858E+03 -2.825297E+04 -3.617141E+03 -7.542221E+03
       200  23  1.056786E+06 -4.984625E+01  3.016263E+03 -1.042691E+04 -2.119458E+03 -5.315425E+03
       200  24  1.056930E+06  2.118429E+01  2.204271E+03 -2.825305E+04 -6.210933E+02 -3.093961E+03
       200  25  1.265004E+06  5.165222E+04  5.413315E+04 -2.827277E+04 -2.385238E+03 -7.542366E+03
       200  26  1.212551E+06  3.845991E+04  3.999762E+04 -1.042855E+04 -8.901062E+02 -5.315737E+03
       200  27  1.160382E+06  2.562995E+04  2.692346E+04 -2.823599E+04  6.055832E+02 -3.094448E+03
       201   1  1.016921E+06 -9.823894E+03 -7.279806E+03 -2.818165E+04  1.459734E+03  1.803013E+03
       201   2  1.068859E+06  2.950529E+03  5.085607E+03 -1.047369E+04  3.523077E+02 -4.110319E+02
       201   3  1.120971E+06  1.597328E+04  1.822496E+04 -2.822641E+04 -7.551402E+02 -2.622132E+03
       201   4  1.056907E+06  3.162183E+01  2.057123E+03 -2.821049E+04  2.349680E+02  1.803554E+03
       201   5  1.056822E+06 -2.584538E+01  2.227358E+03 -1.048011E+04 -8.708705E+02 -4.105101E+02
       201   6  1.056907E+06  1.651257E+02  3.170796E+03 -2.821043E+04 -1.976640E+03 -2.621619E+03
       201   7  1.096895E+06  9.887026E+03  1.139395E+04 -2.823934E+04 -9.898758E+02  1.804094E+03
       201   8  1.044784E+06 -3.002229E+03 -6.308952E+02 -1.048652E+04 -2.094025E+03 -4.099882E+02
       201   9  9.928462E+05 -1.564332E+04 -1.188364E+04 -2.819445E+04 -3.198014E+03 -2.621106E+03
       201  10  1.016921E+06 -9.823899E+03 -7.279817E+03 -2.818165E+04  8.898536E-11  1.451518E-10
       201  11  1.068859E+06  2.950529E+03  5.085607E+03 -1.047369E+04  1.038072E-09 -3.117169E-10
       201  12  1.120971E+06  1.597327E+04  1.822494E+04 -2.822641E+04 -8.867321E-10  7.147411E-10
       201  13  1.056907E+06  3.161832E+01  2.057117E+03 -2.821049E+04  5.898628E-10  7.708624E-10
       201  14  1.056822E+06 -2.584577E+01  2.227357E+03 -1.048011E+04 -4.859269E-10  2.812883E-10
       201  15  1.056907E+06  1.651173E+02  3.170776E+03 -2.821043E+04 -2.183261E-10 -1.445483E-10
       201  16  1.096895E+06  9.887022E+03  1.139394E+04 -2.823934E+04 -3.113797E-10  2.697511E-10
       201  17  1.044784E+06 -3.002231E+03 -6.309038E+02 -1.048652E+04 -1.663449E-09  2.578236E-10
       201  18  9.928462E+05 -1.564333E+04 -1.188367E+04 -2.819446E+04 -8.254960E-10  1.801566E-11
       201  19  1.016921E+06 -9.823894E+03 -7.279806E+03 -2.818165E+04 -1.459734E+03 -1.803013E+03
       201  20  1.068859E+06  2.950529E+03  5.085607E+03 -1.047369E+04 -3.523077E+02  4.110319E+02
       201  21  1.120971E+06  1.597328E+04  1.822496E+04 -2.822641E+04  7.551402E+02  2.622132E+03
       201  22  1.056907E+06  3.162183E+01  2.057123E+03 -2.821049E+04 -2.349680E+02 -1.803554E+03
       201  23  1.056822E+06 -2.584538E+01  2.227358E+03 -1.048011E+04  8.708705E+02  4.105101E+02
       201  24  1.056907E+06  1.651257E+02  3.170796E+03 -2.821043E+04  1.976640E+03  2.621619E+03
       201  25  1.096895E+06  9.887026E+03  1.139395E+04 -2.823934E+04  9.898758E+02 -1.804094E+03
       201  26  1.044784E+06 -3.002229E+03 -6.308952E+02 -1.048652E+04  2.094025E+03  4.099882E+02
       201  27  9.928462E+05 -1.564332E+04 -1.188364E+04 -2.819445E+04  3.198014E+03  2.621106E+03
       202   1  1.184663E+06  3.151129E+04  3.438424E+04 -2.802305E+04 -1.374893E+03 -3.920666E+03
       202   2  1.236596E+06  4.425426E+04  4.917870E+04 -1.046784E+04 -4.629787E+03 -6.141797E+03
       202   3  1.289475E+06  5.904906E+04  6.660281E+04 -2.862432E+04 -7.884214E+03 -8.314445E+03
       202   4  1.057074E+06 -6.391498E+01  3.936243E+03 -2.826652E+04 -2.616384E+03 -3.920216E+03
       202   5  1.056602E+06 -2.451975E+02  6.445571E+03 -1.041014E+04 -5.843687E+03 -6.141562E+03
       202   6  1.057067E+06  1.620981E+03  1.156603E+04 -2.826608E+04 -9.070252E+03 -8.314411E+03
       202   7  9.295002E+05 -3.164029E+04 -2.651289E+04 -2.850993E+04 -3.857621E+03 -3.919766E+03
       202   8  8.766366E+05 -4.474698E+04 -3.628981E+04 -1.035246E+04 -7.057237E+03 -6.141327E+03
       202   9  8.247087E+05 -5.581097E+04 -4.347449E+04 -2.790797E+04 -1.025585E+04 -8.314378E+03
       202  10  1.184663E+06  3.151127E+04  3.438421E+04 -2.802305E+04  6.605902E-10  9.387182E-10
       202  11  1.236596E+06  4.425422E+04  4.917859E+04 -1.046786E+04  8.278315E-10 -8.378157E-10
       202  12  1.289475E+06  5.904897E+04  6.660256E+04 -2.862437E+04 -6.239420E-11  2.644074E-10
       202  13  1.057074E+06 -6.393333E+01  3.936202E+03 -2.826652E+04 -2.928292E-09  1.624804E-10
       202  14  1.056601E+06 -2.452471E+02  6.445436E+03 -1.041017E+04 -5.732726E-10 -9.151644E-10
       202  15  1.057067E+06  1.620885E+03  1.156575E+04 -2.826614E+04 -1.193540E-09  1.081267E-10
       202  16  9.295002E+05 -3.164031E+04 -2.651295E+04 -2.850994E+04 -2.501551E-09  3.465974E-10
       202  17  8.766365E+05 -4.474704E+04 -3.628998E+04 -1.035250E+04  3.931697E-10 -7.324356E-10
       202  18  8.247086E+05 -5.581107E+04 -4.347482E+04 -2.790804E+04 -2.800690E-12 -3.155236E-10
       202  19  1.184663E+06  3.151129E+04  3.438424E+04 -2.802305E+04  1.374893E+03  3.920666E+03
       202  20  1.236596E+06  4.425426E+04  4.917870E+04 -1.046784E+04  4.629787E+03  6.141797E+03
       202  21  1.289475E+06  5.904906E+04  6.660281E+04 -2.862432E+04  7.884214E+03  8.314445E+03
       202  22  1.057074E+06 -6.391498E+01  3.936243E+03 -2.826652E+04  2.616384E+03  3.920216E+03
       202  23  1.056602E+06 -2.451975E+02  6.445571E+03 -1.041014E+04  5.843687E+03  6.141562E+03
       202  24  1.057067E+06  1.620981E+03  1.156603E+04 -2.826608E+04  9.070252E+03  8.314411E+03
       202  25  9.295002E+05 -3.164029E+04 -2.651289E+04 -2.850993E+04  3.857621E+03  3.919766E+03
       202  26  8.766366E+05 -4.474698E+04 -3.628981E+04 -1.035246E+04  7.057237E+03  6.141327E+03
       202  27  8.247087E+05 -5.581097E+04 -4.347449E+04 -2.790797E+04  1.025585E+04  8.314378E+03
       203   1  1.355198E+06  7.249705E+04  8.539010E+04 -2.591310E+04 -9.938071E+03 -9.746150E+03
       203   2  1.405138E+06  8.427925E+04  1.080485E+05 -1.147745E+04 -2.316217E+04 -1.195783E+04
       203   3  1.462100E+06  1.167801E+05  1.445073E+05 -3.344199E+04 -3.638627E+04 -1.329288E+04
       203   4  1.058393E+06 -9.023773E+02  1.479298E+04 -2.841861E+04 -1.139996E+04 -9.746239E+03
       203   5  1.054913E+06 -2.296483E+03  2.491101E+04 -1.021970E+04 -2.413295E+04 -1.195841E+04
       203   6  1.058371E+06  1.694990E+04  4.849498E+04 -2.842195E+04 -3.686482E+04 -1.329388E+04
       203   7  7.616691E+05 -7.430812E+04 -5.581028E+04 -3.092291E+04 -1.286116E+04 -9.746316E+03
       203   8  7.047999E+05 -8.888102E+04 -5.823500E+04 -8.962674E+03 -2.510318E+04 -1.195899E+04
       203   9  6.547916E+05 -8.289197E+04 -4.752869E+04 -2.340520E+04 -3.734305E+04 -1.329488E+04
       203  10  1.355198E+06  7.249692E+04  8.538974E+04 -2.591317E+04  5.910248E-10  5.640746E-10
       203  11  1.405137E+06  8.427896E+04  1.080472E+05 -1.147767E+04 -1.379719E-09 -2.751790E-10
       203  12  1.462098E+06  1.167796E+05  1.445045E+05 -3.344238E+04 -1.108858E-09 -4.982367E-10
       203  13  1.058393E+06 -9.025142E+02  1.479256E+04 -2.841870E+04 -3.511910E-11  4.408678E-10
       203  14  1.054912E+06 -2.296793E+03  2.490965E+04 -1.021994E+04 -2.986847E-10 -5.795721E-11
       203  15  1.058370E+06  1.694935E+04  4.849210E+04 -2.842235E+04 -9.794455E-10 -1.947124E-10
       203  16  7.616689E+05 -7.430827E+04 -5.581077E+04 -3.092301E+04  3.350424E-11  6.585232E-11
       203  17  7.047991E+05 -8.888134E+04 -5.823645E+04 -8.962916E+03  1.231689E-09 -4.389950E-11
       203  18  6.547901E+05 -8.289253E+04 -4.753164E+04 -2.340560E+04  8.666379E-10  4.527894E-10
       203  19  1.355198E+06  7.249705E+04  8.539010E+04 -2.591310E+04  9.938071E+03  9.746150E+03
       203  20  1.405138E+06  8.427925E+04  1.080485E+05 -1.147745E+04  2.316217E+04  1.195783E+04
       203  21  1.462100E+06  1.167801E+05  1.445073E+05 -3.344199E+04  3.638627E+04  1.329288E+04
       203  22  1.058393E+06 -9.023773E+02  1.479298E+04 -2.841861E+04  1.139996E+04  9.746239E+03
       203  23  1.054913E+06 -2.296483E+03  2.491101E+04 -1.021970E+04  2.413295E+04  1.195841E+04
       203  24  1.058371E+06  1.694990E+04  4.849498E+04 -2.842195E+04  3.686482E+04  1.329388E+04
       203  25  7.616691E+05 -7.430812E+04 -5.581028E+04 -3.092291E+04  1.286116E+04  9.746316E+03
       203  26  7.047999E+05 -8.888102E+04 -5.823500E+04 -8.962674E+03  2.510318E+04  1.195899E+04
       203  27  6.547916E+05 -8.289197E+04 -4.752869E+04 -2.340520E+04  3.734305E+04  1.329488E+04
       204   1  1.539854E+06  1.068625E+05  1.709761E+05 -4.455340E+03 -4.149132E+04 -1.648993E+04
       204   2  1.564946E+06  1.074676E+05  2.204806E+05 -2.712477E+04 -1.006719E+05 -1.804397E+04
       204   3  1.650492E+06  3.179910E+05  3.609923E+05 -8.715756E+04 -1.598691E+05 -6.153203E+03
       204   4  1.069992E+06 -9.272204E+03  5.960131E+04 -2.858829E+04 -4.602933E+04 -1.649097E+04
       204   5  1.040337E+06 -2.217086E+04  9.599250E+04 -9.987451E+03 -9.773900E+04 -1.804574E+04
       204   6  1.069889E+06  1.736435E+05  2.182626E+05 -2.874679E+04 -1.494593E+05 -6.158542E+03
       204   7  6.003330E+05 -1.254206E+05 -5.178840E+04 -5.270293E+04 -5.056392E+04 -1.649166E+04
       204   8  5.159804E+05 -1.518280E+05 -2.851458E+04  7.135301E+03 -9.480852E+04 -1.804735E+04
       204   9  4.896005E+05  2.928404E+04  7.551025E+04  2.960934E+04 -1.390592E+05 -6.161935E+03
       204  10  1.539852E+06  1.068618E+05  1.709723E+05 -4.455890E+03 -4.818281E-11 -3.912587E-10
       204  11  1.564935E+06  1.074646E+05  2.204610E+05 -2.712623E+04  1.507821E-09 -2.336428E-10
       204  12  1.650465E+06  3.179841E+05  3.609443E+05 -8.715835E+04  1.014632E-09  3.752979E-10
       204  13  1.069989E+06 -9.273064E+03  5.959683E+04 -2.858890E+04 -1.695363E-09 -8.054746E-10
       204  14  1.040326E+06 -2.217377E+04  9.597397E+04 -9.988871E+03  2.087478E-10 -1.875039E-10
       204  15  1.069866E+06  1.736375E+05  2.182206E+05 -2.874753E+04 -1.927594E-10 -4.482745E-10
       204  16  6.003302E+05 -1.254216E+05 -5.179371E+04 -5.270360E+04  5.073402E-10  9.398234E-11
       204  17  5.159707E+05 -1.518308E+05 -2.853206E+04  7.133923E+03 -1.276980E-09 -7.646904E-10
       204  18  4.895797E+05  2.927881E+04  7.547387E+04  2.960865E+04 -6.984118E-10  7.414145E-10
       204  19  1.539854E+06  1.068625E+05  1.709761E+05 -4.455340E+03  4.149132E+04  1.648993E+04
       204  20  1.564946E+06  1.074676E+05  2.204806E+05 -2.712477E+04  1.006719E+05  1.804397E+04
       204  21  1.650492E+06  3.179910E+05  3.609923E+05 -8.715756E+04  1.598691E+05  6.153203E+03
       204  22  1.069992E+06 -9.272204E+03  5.960131E+04 -2.858829E+04  4.602933E+04  1.649097E+04
       204  23  1.040337E+06 -2.217086E+04  9.599250E+04 -9.987451E+03  9.773900E+04  1.804574E+04
       204  24  1.069889E+06  1.736435E+05  2.182626E+05 -2.874679E+04  1.494593E+05  6.158542E+03
       204  25  6.003330E+05 -1.254206E+05 -5.178840E+04 -5.270293E+04  5.056392E+04  1.649166E+04
       204  26  5.159804E+05 -1.518280E+05 -2.851458E+04  7.135301E+03  9.480852E+04  1.804735E+04
       204  27  4.896005E+05  2.928404E+04  7.551025E+04  2.960934E+04  1.390592E+05  6.161935E+03
       205   1  5.667574E+05  1.677019E+06  5.514565E+05 -5.886947E+05  2.058177E+04  1.791711E+05
       205   2  3.743193E+05  1.173071E+06  3.347907E+05 -5.124232E+05  6.305495E+04  6.948436E+04
       205   3  2.396993E+05  6.977088E+05  2.038286E+05 -5.342331E+05  5.845459E+04 -4.020123E+04
       205   4  8.040444E+04 -2.890299E+05  8.569366E+04 -5.341994E+05  2.095513E+04  5.747496E+04
       205   5  2.243053E+04 -2.954551E+05  4.396088E+04 -4.852692E+05  6.317700E+04  3.504014E+04
       205   6  7.240949E+03 -2.885714E+05  2.749185E+04 -5.344127E+05  5.828364E+04  1.251624E+04
       205   7 -4.062078E+05 -2.251496E+06 -3.802810E+05 -4.798733E+05  2.130790E+04 -6.383877E+04
       205   8 -3.295864E+05 -1.761917E+06 -2.469707E+05 -4.581784E+05  6.329623E+04  6.755300E+02
       205   9 -2.252698E+05 -1.273897E+06 -1.488715E+05 -5.345909E+05  5.811247E+04  6.515241E+04
       205  10  5.667484E+05  1.676985E+06  5.513955E+05 -5.886976E+05  5.702730E-10  5.410813E-11
       205  11  3.743137E+05  1.173065E+06  3.347741E+05 -5.124268E+05 -1.338308E-09 -3.027307E-09
       205  12  2.396952E+05  6.977062E+05  2.038191E+05 -5.342312E+05 -3.702047E-10 -2.131440E-09
       205  13  8.040308E+04 -2.890336E+05  8.568662E+04 -5.342003E+05  1.845954E-09  9.751592E-10
       205  14  2.242591E+04 -2.954575E+05  4.395107E+04 -4.852710E+05 -5.004925E-10  1.282493E-09
       205  15  7.237259E+03 -2.885725E+05  2.748517E+04 -5.344133E+05  6.823333E-10  5.061954E-10
       205  16 -4.062094E+05 -2.251501E+06 -3.802896E+05 -4.798722E+05 -2.488489E-10  3.896731E-10
       205  17 -3.295907E+05 -1.761918E+06 -2.469782E+05 -4.581784E+05  1.225606E-09  2.445333E-09
       205  18 -2.252746E+05 -1.273903E+06 -1.488859E+05 -5.345939E+05 -2.565531E-09  9.158648E-10
       205  19  5.667574E+05  1.677019E+06  5.514565E+05 -5.886947E+05 -2.058177E+04 -1.791711E+05
       205  20  3.743193E+05  1.173071E+06  3.347907E+05 -5.124232E+05 -6.305495E+04 -6.948436E+04
       205  21  2.396993E+05  6.977088E+05  2.038286E+05 -5.342331E+05 -5.845459E+04  4.020123E+04
       205  22  8.040444E+04 -2.890299E+05  8.569366E+04 -5.341994E+05 -2.095513E+04 -5.747496E+04
       205  23  2.243053E+04 -2.954551E+05  4.396088E+04 -4.852692E+05 -6.317700E+04 -3.504014E+04
       205  24  7.240949E+03 -2.885714E+05  2.749185E+04 -5.344127E+05 -5.828364E+04 -1.251624E+04
       205  25 -4.062078E+05 -2.251496E+06 -3.802810E+05 -4.798733E+05 -2.130790E+04  6.383877E+04
       205  26 -3.295864E+05 -1.761917E+06 -2.469707E+05 -4.581784E+05 -6.329623E+04 -6.755300E+02
       205  27 -2.252698E+05 -1.273897E+06 -1.488715E+05 -5.345909E+05 -5.811247E+04 -6.515241E+04
       206   1  1.652601E+05  3.791755E+05  1.426909E+05 -5.392226E+05  4.037655E+04 -4.119314E+04
       206   2  4.683324E+04 -1.114376E+05  5.044329E+04 -4.848046E+05  1.310546E+04 -5.317165E+04
       206   3 -6.505742E+04 -5.992342E+05 -3.255598E+04 -5.314673E+05 -1.498195E+04 -6.514693E+04
       206   4  7.404765E+03 -2.909142E+05  2.358155E+04 -5.350611E+05  4.020708E+04  8.533904E+03
       206   5  4.780036E+03 -2.920451E+05  2.082271E+04 -4.845197E+05  1.292804E+04 -1.948618E+03
       206   6  8.443232E+03 -2.908549E+05  2.627274E+04 -5.350581E+05 -1.516773E+04 -1.243674E+04
       206   7 -1.504740E+05 -9.605601E+05 -9.553538E+04 -5.309037E+05  4.003817E+04  5.820884E+04
       206   8 -3.727343E+04 -4.726147E+05 -8.788941E+03 -4.842349E+05  1.275062E+04  4.926002E+04
       206   9  8.193981E+04  1.762204E+04  8.510763E+04 -5.386506E+05 -1.535406E+04  4.029903E+04
       206  10  1.652579E+05  3.791732E+05  1.426847E+05 -5.392212E+05  6.970633E-10  1.296198E-08
       206  11  4.683230E+04 -1.114407E+05  5.043765E+04 -4.848040E+05  2.624949E-09 -2.294558E-08
       206  12 -6.505880E+04 -5.992388E+05 -3.256439E+04 -5.314681E+05  1.837629E-09 -5.073864E-08
       206  13  7.403010E+03 -2.909147E+05  2.357837E+04 -5.350614E+05 -2.027042E-10  1.396008E-09
       206  14  4.779856E+03 -2.920452E+05  2.082239E+04 -4.845197E+05 -2.441080E-09  1.590181E-09
       206  15  8.442943E+03 -2.908552E+05  2.627202E+04 -5.350582E+05  6.934408E-10  6.113904E-10
       206  16 -1.504766E+05 -9.605642E+05 -9.554478E+04 -5.309056E+05 -8.440545E-10 -1.236506E-08
       206  17 -3.727426E+04 -4.726174E+05 -8.793812E+03 -4.842355E+05 -6.667301E-10  2.147435E-08
       206  18  8.193913E+04  1.762023E+04  8.510413E+04 -5.386501E+05  1.982682E-10  4.960386E-08
       206  19  1.652601E+05  3.791755E+05  1.426909E+05 -5.392226E+05 -4.037655E+04  4.119314E+04
       206  20  4.683324E+04 -1.114376E+05  5.044329E+04 -4.848046E+05 -1.310546E+04  5.317165E+04
       206  21 -6.505742E+04 -5.992342E+05 -3.255598E+04 -5.314673E+05  1.498195E+04  6.514693E+04
       206  22  7.404765E+03 -2.909142E+05  2.358155E+04 -5.350611E+05 -4.020708E+04 -8.533904E+03
       206  23  4.780036E+03 -2.920451E+05  2.082271E+04 -4.845197E+05 -1.292804E+04  1.948618E+03
       206  24  8.443232E+03 -2.908549E+05  2.627274E+04 -5.350581E+05  1.516773E+04  1.243674E+04
       206  25 -1.504740E+05 -9.605601E+05 -9.553538E+04 -5.309037E+05 -4.003817E+04 -5.820884E+04
       206  26 -3.727343E+04 -4.726147E+05 -8.788941E+03 -4.842349E+05 -1.275062E+04 -4.926002E+04
       206  27  8.193981E+04  1.762204E+04  8.510763E+04 -5.386506E+05  1.535406E+04 -4.029903E+04
       207   1 -1.395659E+05 -9.116430E+05 -8.355185E+04 -5.361840E+05 -3.363073E+04 -7.196786E+04
       207   2 -2.392728E+05 -1.402401E+06 -1.707878E+05 -4.534806E+05 -4.415121E+04 -2.718818E+04
       207   3 -2.994934E+05 -1.889312E+06 -2.774642E+05 -4.694779E+05 -1.569428E+04  1.763921E+04
       207   4  8.317640E+03 -2.878532E+05  3.172635E+04 -5.345477E+05 -3.382070E+04 -1.690604E+04
       207   5  2.717607E+04 -2.960641E+05  5.288199E+04 -4.850805E+05 -4.408846E+04 -4.406144E+04
       207   6  9.798288E+04 -2.881944E+05  1.045762E+05 -5.342772E+05 -1.541554E+04 -7.113416E+04
       207   7  1.561805E+05  3.363210E+05  1.469997E+05 -5.329094E+05 -3.401026E+04  3.820973E+04
       207   8  2.935526E+05  8.114435E+05  2.764901E+05 -5.167367E+05 -4.402407E+04 -6.096421E+04
       207   9  4.952928E+05  1.315305E+06  4.864681E+05 -5.992420E+05 -1.511868E+04 -1.601358E+05
       207  10 -1.395685E+05 -9.116489E+05 -8.356373E+04 -5.361859E+05  1.647261E-09  5.110672E-08
       207  11 -2.392751E+05 -1.402403E+06 -1.707929E+05 -4.534815E+05  2.487670E-09  1.799133E-08
       207  12 -2.994938E+05 -1.889313E+06 -2.774653E+05 -4.694777E+05  6.899140E-10 -1.288373E-08
       207  13  8.316334E+03 -2.878538E+05  3.172366E+04 -5.345482E+05  3.463034E-09  1.314214E-09
       207  14  2.717346E+04 -2.960667E+05  5.287468E+04 -4.850821E+05 -1.469124E-09  1.267699E-09
       207  15  9.798127E+04 -2.881999E+05  1.045663E+05 -5.342781E+05  9.872778E-10  5.650583E-10
       207  16  1.561789E+05  3.363191E+05  1.469948E+05 -5.329084E+05  6.023798E-10 -5.038162E-08
       207  17  2.935495E+05  8.114390E+05  2.764794E+05 -5.167388E+05  2.732720E-09 -1.912778E-08
       207  18  4.952857E+05  1.315278E+06  4.864195E+05 -5.992439E+05  1.370668E-09  1.136593E-08
       207  19 -1.395659E+05 -9.116430E+05 -8.355185E+04 -5.361840E+05  3.363073E+04  7.196786E+04
       207  20 -2.392728E+05 -1.402401E+06 -1.707878E+05 -4.534806E+05  4.415121E+04  2.718818E+04
       207  21 -2.994934E+05 -1.889312E+06 -2.774642E+05 -4.694779E+05  1.569428E+04 -1.763921E+04
       207  22  8.317640E+03 -2.878532E+05  3.172635E+04 -5.345477E+05  3.382070E+04  1.690604E+04
       207  23  2.717607E+04 -2.960641E+05  5.288199E+04 -4.850805E+05  4.408846E+04  4.406144E+04
       207  24  9.798288E+04 -2.881944E+05  1.045762E+05 -5.342772E+05  1.541554E+04  7.113416E+04
       207  25  1.561805E+05  3.363210E+05  1.469997E+05 -5.329094E+05  3.401026E+04 -3.820973E+04
       207  26  2.935526E+05  8.114435E+05  2.764901E+05 -5.167367E+05  4.402407E+04  6.096421E+04
       207  27  4.952928E+05  1.315305E+06  4.864681E+05 -5.992420E+05  1.511868E+04  1.601358E+05
       208   1 -2.420028E+06 -9.379374E+05 -4.955893E+05 -9.148327E+05 -1.811553E+05 -3.867007E+04
       208   2 -2.271913E+06 -8.157703E+05 -3.503944E+05 -8.623528E+05 -1.156364E+05  5.469304E+04
       208   3 -2.126011E+06 -7.523595E+05 -2.804768E+05 -8.298963E+05 -3.317040E+04  1.032407E+05
       208   4 -6.851702E+05 -2.628382E+05 -4.476902E+04 -4.157622E+05 -3.883596E+04  1.494195E+04
       208   5 -6.892384E+05 -2.239562E+05 -2.094323E+04 -4.121811E+05 -5.054670E+04  7.917100E+04
       208   6 -6.801419E+05 -2.284383E+05 -1.097437E+04 -4.286410E+05 -4.536030E+04  9.862909E+04
       208   7  1.052623E+06  4.125103E+05  4.058708E+05  8.459326E+04  1.039164E+05  6.873047E+04
       208   8  8.960101E+05  3.680943E+05  3.083891E+05  3.906161E+04  1.472168E+04  1.037191E+05
       208   9  7.679416E+05  2.956821E+05  2.584533E+05 -2.650954E+04 -5.758084E+04  9.400609E+04
       208  10 -2.420064E+06 -9.379479E+05 -4.956540E+05 -9.148384E+05  2.589787E-09 -1.833893E-10
       208  11 -2.271928E+06 -8.157771E+05 -3.504252E+05 -8.623477E+05  7.519001E-10 -7.589767E-10
       208  12 -2.126015E+06 -7.523712E+05 -2.804989E+05 -8.298935E+05 -6.300935E-11 -9.347001E-10
       208  13 -6.851719E+05 -2.628388E+05 -4.477228E+04 -4.157618E+05  5.634815E-10  6.292357E-10
       208  14 -6.892429E+05 -2.239636E+05 -2.095980E+04 -4.121778E+05  4.630395E-10 -2.898774E-09
       208  15 -6.801467E+05 -2.284493E+05 -1.099650E+04 -4.286374E+05  1.225836E-09 -9.389042E-10
       208  16  1.052610E+06  4.125023E+05  4.058417E+05  8.458752E+04 -3.634046E-10 -9.047189E-10
       208  17  8.960070E+05  3.680827E+05  3.083685E+05  3.906038E+04  5.678943E-10 -1.620236E-09
       208  18  7.679357E+05  2.956718E+05  2.584305E+05 -2.650518E+04  1.821250E-09 -3.870434E-11
       208  19 -2.420028E+06 -9.379374E+05 -4.955893E+05 -9.148327E+05  1.811553E+05  3.867007E+04
       208  20 -2.271913E+06 -8.157703E+05 -3.503944E+05 -8.623528E+05  1.156364E+05 -5.469304E+04
       208  21 -2.126011E+06 -7.523595E+05 -2.804768E+05 -8.298963E+05  3.317040E+04 -1.032407E+05
       208  22 -6.851702E+05 -2.628382E+05 -4.476902E+04 -4.157622E+05  3.883596E+04 -1.494195E+04
       208  23 -6.892384E+05 -2.239562E+05 -2.094323E+04 -4.121811E+05  5.054670E+04 -7.917100E+04
       208  24 -6.801419E+05 -2.284383E+05 -1.097437E+04 -4.286410E+05  4.536030E+04 -9.862909E+04
       208  25  1.052623E+06  4.125103E+05  4.058708E+05  8.459326E+04 -1.039164E+05 -6.873047E+04
       208  26  8.960101E+05  3.680943E+05  3.083891E+05  3.906161E+04 -1.472168E+04 -1.037191E+05
       208  27  7.679416E+05  2.956821E+05  2.584533E+05 -2.650954E+04  5.758084E+04 -9.400609E+04
       209   1 -2.021315E+06 -7.175331E+05 -2.561298E+05 -8.039118E+05 -3.542142E+04  9.675571E+04
       209   2 -1.880359E+06 -6.464868E+05 -2.174909E+05 -7.475887E+05 -2.412539E+04  9.420683E+04
       209   3 -1.716792E+06 -6.024075E+05 -1.861899E+05 -7.189609E+05 -1.134290E+04  8.768471E+04
       209   4 -6.783338E+05 -2.290646E+05 -8.265783E+03 -4.285932E+05 -4.226718E+04  9.415818E+04
       209   5 -6.901014E+05 -2.152663E+05 -4.370651E+03 -4.150888E+05 -3.781858E+04  8.904252E+04
       209   6 -6.779224E+05 -2.270713E+05 -2.372021E+03 -4.292847E+05 -3.188750E+04  7.995706E+04
       209   7  6.665434E+05  2.595748E+05  2.395307E+05 -5.251616E+04 -4.912882E+04  9.155469E+04
       209   8  5.016474E+05  2.160884E+05  2.087010E+05 -8.199412E+04 -5.153978E+04  8.386770E+04
       209   9  3.620796E+05  1.483651E+05  1.814100E+05 -1.391577E+05 -5.246862E+04  7.221574E+04
       209  10 -2.021319E+06 -7.175435E+05 -2.561497E+05 -8.039091E+05 -1.509576E-10 -9.464762E-11
       209  11 -1.880362E+06 -6.464965E+05 -2.175087E+05 -7.475869E+05  1.305632E-09  9.217330E-10
       209  12 -1.716794E+06 -6.024158E+05 -1.862046E+05 -7.189601E+05  1.193412E-09  9.093773E-10
       209  13 -6.783381E+05 -2.290746E+05 -8.285792E+03 -4.285900E+05  1.766300E-09 -9.412451E-10
       209  14 -6.901051E+05 -2.152752E+05 -4.388230E+03 -4.150861E+05  6.658798E-11 -2.997585E-10
       209  15 -6.779252E+05 -2.270784E+05 -2.385939E+03 -4.292826E+05 -7.307306E-10 -1.164199E-10
       209  16  6.665386E+05  2.595652E+05  2.395104E+05 -5.251254E+04  6.739310E-10  1.253499E-10
       209  17  5.016427E+05  2.160802E+05  2.086828E+05 -8.199064E+04  6.304777E-10 -5.353144E-10
       209  18  3.620752E+05  1.483587E+05  1.813951E+05 -1.391546E+05 -1.159563E-09 -8.006827E-10
       209  19 -2.021315E+06 -7.175331E+05 -2.561298E+05 -8.039118E+05  3.542142E+04 -9.675571E+04
       209  20 -1.880359E+06 -6.464868E+05 -2.174909E+05 -7.475887E+05  2.412539E+04 -9.420683E+04
       209  21 -1.716792E+06 -6.024075E+05 -1.861899E+05 -7.189609E+05  1.134290E+04 -8.768471E+04
       209  22 -6.783338E+05 -2.290646E+05 -8.265783E+03 -4.285932E+05  4.226718E+04 -9.415818E+04
       209  23 -6.901014E+05 -2.152663E+05 -4.370651E+03 -4.150888E+05  3.781858E+04 -8.904252E+04
       209  24 -6.779224E+05 -2.270713E+05 -2.372021E+03 -4.292847E+05  3.188750E+04 -7.995706E+04
       209  25  6.665434E+05  2.595748E+05  2.395307E+05 -5.251616E+04  4.912882E+04 -9.155469E+04
       209  26  5.016474E+05  2.160884E+05  2.087010E+05 -8.199412E+04  5.153978E+04 -8.386770E+04
       209  27  3.620796E+05  1.483651E+05  1.814100E+05 -1.391577E+05  5.246862E+04 -7.221574E+04
       210   1 -1.617279E+06 -5.664491E+05 -1.671349E+05 -6.914428E+05 -8.837379E+03  8.063276E+04
       210   2 -1.476652E+06 -4.985738E+05 -1.391952E+05 -6.346196E+05 -3.273005E+03  6.923640E+04
       210   3 -1.311404E+06 -4.555815E+05 -1.121105E+05 -6.060578E+05  2.418701E+03  5.747894E+04
       210   4 -6.777471E+05 -2.270929E+05 -1.792552E+03 -4.293177E+05 -2.892783E+04  7.308096E+04
       210   5 -6.900413E+05 -2.145803E+05 -1.005815E+03 -4.152131E+05 -2.398653E+04  6.145802E+04
       210   6 -6.776224E+05 -2.268294E+05 -5.832301E+02 -4.293782E+05 -1.891830E+04  4.947416E+04
       210   7  2.627308E+05  1.123528E+05  1.635265E+05 -1.668183E+05 -4.905094E+04  6.551692E+04
       210   8  9.723002E+04  6.947495E+04  1.371673E+05 -1.955451E+05 -4.472816E+04  5.366910E+04
       210   9 -4.341438E+04  1.962014E+03  1.109334E+05 -2.525295E+05 -4.027855E+04  4.146065E+04
       210  10 -1.617281E+06 -5.664561E+05 -1.671472E+05 -6.914422E+05  1.956236E-09  5.515235E-10
       210  11 -1.476653E+06 -4.985790E+05 -1.392043E+05 -6.346194E+05  1.322720E-09 -3.401132E-10
       210  12 -1.311405E+06 -4.555851E+05 -1.121167E+05 -6.060579E+05 -2.512488E-11 -8.052268E-10
       210  13 -6.777495E+05 -2.270988E+05 -1.804156E+03 -4.293160E+05  4.113133E-10 -4.956171E-10
       210  14 -6.900429E+05 -2.145846E+05 -1.013991E+03 -4.152119E+05 -1.952868E-09 -4.314845E-10
       210  15 -6.776234E+05 -2.268321E+05 -5.885001E+02 -4.293774E+05  7.580295E-10 -2.073402E-10
       210  16  2.627271E+05  1.123476E+05  1.635139E+05 -1.668157E+05 -5.435996E-10 -8.816496E-10
       210  17  9.722710E+04  6.947133E+04  1.371581E+05 -1.955431E+05 -6.205404E-10 -2.569976E-10
       210  18 -4.341658E+04  1.959734E+03  1.109271E+05 -2.525282E+05 -3.520874E-10  4.741470E-10
       210  19 -1.617279E+06 -5.664491E+05 -1.671349E+05 -6.914428E+05  8.837379E+03 -8.063276E+04
       210  20 -1.476652E+06 -4.985738E+05 -1.391952E+05 -6.346196E+05  3.273005E+03 -6.923640E+04
       210  21 -1.311404E+06 -4.555815E+05 -1.121105E+05 -6.060578E+05 -2.418701E+03 -5.747894E+04
       210  22 -6.777471E+05 -2.270929E+05 -1.792552E+03 -4.293177E+05  2.892783E+04 -7.308096E+04
       210  23 -6.900413E+05 -2.145803E+05 -1.005815E+03 -4.152131E+05  2.398653E+04 -6.145802E+04
       210  24 -6.776224E+05 -2.268294E+05 -5.832301E+02 -4.293782E+05  1.891830E+04 -4.947416E+04
       210  25  2.627308E+05  1.123528E+05  1.635265E+05 -1.668183E+05  4.905094E+04 -6.551692E+04
       210  26  9.723002E+04  6.947495E+04  1.371673E+05 -1.955451E+05  4.472816E+04 -5.366910E+04
       210  27 -4.341438E+04  1.962014E+03  1.109334E+05 -2.525295E+05  4.027855E+04 -4.146065E+04
       211   1 -1.212039E+06 -4.195706E+05 -9.377646E+04 -5.784320E+05  5.176911E+03  5.030078E+04
       211   2 -1.071138E+06 -3.518947E+05 -6.714584E+04 -5.215076E+05  1.005069E+04  3.803765E+04
       211   3 -9.054656E+05 -3.089835E+05 -4.068912E+04 -4.929370E+05  1.493313E+04  2.573993E+04
       211   4 -6.775853E+05 -2.268096E+05 -4.732578E+02 -4.293950E+05 -1.613154E+04  4.231002E+04
       211   5 -6.899373E+05 -2.143793E+05 -3.612266E+02 -4.152250E+05 -1.131900E+04  3.002761E+04
       211   6 -6.775314E+05 -2.267036E+05 -3.766573E+02 -4.294177E+05 -6.497831E+03  1.771054E+04
       211   7 -1.428337E+05 -3.402259E+04  9.282172E+04 -2.802391E+05 -3.745934E+04  3.431201E+04
       211   8 -3.085819E+05 -7.684952E+04  6.642086E+04 -3.088810E+05 -3.270267E+04  2.201233E+04
       211   9 -4.495390E+05 -1.444175E+05  3.993674E+04 -3.658757E+05 -2.793740E+04  9.677928E+03
       211  10 -1.212039E+06 -4.195734E+05 -9.378127E+04 -5.784322E+05  2.981166E-09  1.683423E-10
       211  11 -1.071138E+06 -3.518963E+05 -6.714875E+04 -5.215079E+05 -5.533929E-09 -2.619918E-09
       211  12 -9.054660E+05 -3.089842E+05 -4.069078E+04 -4.929373E+05 -6.034066E-09 -1.851947E-09
       211  13 -6.775861E+05 -2.268116E+05 -4.771092E+02 -4.293944E+05 -2.592615E-09 -1.155329E-09
       211  14 -6.899377E+05 -2.143803E+05 -3.631609E+02 -4.152247E+05 -6.858901E-09 -2.427482E-09
       211  15 -6.775315E+05 -2.267040E+05 -3.773258E+02 -4.294176E+05 -2.066966E-09 -1.213124E-09
       211  16 -1.428355E+05 -3.402423E+04  9.281687E+04 -2.802381E+05 -7.775204E-09 -2.053135E-09
       211  17 -3.085832E+05 -7.685033E+04  6.641794E+04 -3.088805E+05 -6.337058E-09 -2.634233E-09
       211  18 -4.495399E+05 -1.444178E+05  3.993510E+04 -3.658755E+05  2.098216E-09 -6.442681E-10
       211  19 -1.212039E+06 -4.195706E+05 -9.377646E+04 -5.784320E+05 -5.176911E+03 -5.030078E+04
       211  20 -1.071138E+06 -3.518947E+05 -6.714584E+04 -5.215076E+05 -1.005069E+04 -3.803765E+04
       211  21 -9.054656E+05 -3.089835E+05 -4.068912E+04 -4.929370E+05 -1.493313E+04 -2.573993E+04
       211  22 -6.775853E+05 -2.268096E+05 -4.732578E+02 -4.293950E+05  1.613154E+04 -4.231002E+04
       211  23 -6.899373E+05 -2.143793E+05 -3.612266E+02 -4.152250E+05  1.131900E+04 -3.002761E+04
       211  24 -6.775314E+05 -2.267036E+05 -3.766573E+02 -4.294177E+05  6.497831E+03 -1.771054E+04
       211  25 -1.428337E+05 -3.402259E+04  9.282172E+04 -2.802391E+05  3.745934E+04 -3.431201E+04
       211  26 -3.085819E+05 -7.684952E+04  6.642086E+04 -3.088810E+05  3.270267E+04 -2.201233E+04
       211  27 -4.495390E+05 -1.444175E+05  3.993674E+04 -3.658757E+05  2.793740E+04 -9.677928E+03
       212   1 -8.059791E+05 -2.729744E+05 -2.252995E+04 -4.652866E+05  1.771052E+04  1.854576E+04
       212   2 -6.649234E+05 -2.053483E+05  3.703827E+03 -4.083342E+05  2.265997E+04  6.269258E+03
       212   3 -4.991138E+05 -1.624879E+05  2.971207E+04 -3.797651E+05  2.760121E+04 -5.985064E+03
       212   4 -6.775292E+05 -2.266947E+05 -4.362969E+02 -4.294258E+05 -3.725017E+03  1.051565E+04
       212   5 -6.898908E+05 -2.142991E+05 -6.854126E+02 -4.152331E+05  1.260055E+03 -1.747733E+03
       212   6 -6.775307E+05 -2.266788E+05 -1.189700E+03 -4.294335E+05  6.236822E+03 -1.398893E+04
       212   7 -5.490607E+05 -1.804131E+05  2.165885E+04 -3.935579E+05 -2.516527E+04  2.483761E+03
       212   8 -7.148564E+05 -2.232494E+05 -5.072669E+03 -4.221315E+05 -2.013883E+04 -9.764344E+03
       212   9 -8.559110E+05 -2.908656E+05 -3.208993E+04 -4.790878E+05 -1.512082E+04 -2.199026E+04
       212  10 -8.059795E+05 -2.729749E+05 -2.253119E+04 -4.652868E+05 -5.472635E-10  8.349917E-10
       212  11 -6.649240E+05 -2.053485E+05  3.702787E+03 -4.083343E+05  4.234086E-11  1.525702E-10
       212  12 -4.991146E+05 -1.624881E+05  2.971057E+04 -3.797650E+05  4.479398E-10  1.006764E-09
       212  13 -6.775292E+05 -2.266949E+05 -4.365307E+02 -4.294258E+05  1.123847E-09  5.036097E-11
       212  14 -6.898908E+05 -2.142991E+05 -6.854213E+02 -4.152331E+05 -6.296412E-10  1.214785E-10
       212  15 -6.775308E+05 -2.266790E+05 -1.190141E+03 -4.294334E+05  2.103124E-10  3.662838E-10
       212  16 -5.490614E+05 -1.804132E+05  2.165764E+04 -3.935578E+05  1.298750E-09 -5.947451E-10
       212  17 -7.148568E+05 -2.232496E+05 -5.073612E+03 -4.221317E+05  1.267520E-10  9.875709E-10
       212  18 -8.559114E+05 -2.908662E+05 -3.209127E+04 -4.790880E+05  2.902854E-10  6.815535E-11
       212  19 -8.059791E+05 -2.729744E+05 -2.252995E+04 -4.652866E+05 -1.771052E+04 -1.854576E+04
       212  20 -6.649234E+05 -2.053483E+05  3.703827E+03 -4.083342E+05 -2.265997E+04 -6.269258E+03
       212  21 -4.991138E+05 -1.624879E+05  2.971207E+04 -3.797651E+05 -2.760121E+04  5.985064E+03
       212  22 -6.775292E+05 -2.266947E+05 -4.362969E+02 -4.294258E+05  3.725017E+03 -1.051565E+04
       212  23 -6.898908E+05 -2.142991E+05 -6.854126E+02 -4.152331E+05 -1.260055E+03  1.747733E+03
       212  24 -6.775307E+05 -2.266788E+05 -1.189700E+03 -4.294335E+05 -6.236822E+03  1.398893E+04
       212  25 -5.490607E+05 -1.804131E+05  2.165885E+04 -3.935579E+05  2.516527E+04 -2.483761E+03
       212  26 -7.148564E+05 -2.232494E+05 -5.072669E+03 -4.221315E+05  2.013883E+04  9.764344E+03
       212  27 -8.559110E+05 -2.908656E+05 -3.208993E+04 -4.790878E+05  1.512082E+04  2.199026E+04
       213   1 -3.996026E+05 -1.264993E+05  4.756368E+04 -3.521230E+05  3.056140E+04 -1.309508E+04
       213   2 -2.585673E+05 -5.891897E+04  7.293838E+04 -2.951537E+05  3.607575E+04 -2.497471E+04
       213   3 -9.289377E+04 -1.616795E+04  9.760729E+04 -2.665251E+05  4.148739E+04 -3.656768E+04
       213   4 -6.775799E+05 -2.266772E+05 -1.573342E+03 -4.294418E+05  9.166293E+03 -2.111174E+04
       213   5 -6.898776E+05 -2.143358E+05 -2.846031E+03 -4.152289E+05  1.517118E+04 -3.281169E+04
       213   6 -6.776622E+05 -2.269265E+05 -5.215740E+03 -4.293692E+05  2.107307E+04 -4.422491E+04
       213   7 -9.554775E+05 -3.268485E+05 -5.071168E+04 -5.067288E+05 -1.221882E+04 -2.912466E+04
       213   8 -1.120993E+06 -3.697353E+05 -7.863504E+04 -5.352265E+05 -5.718030E+03 -4.064292E+04
       213   9 -1.262068E+06 -4.376520E+05 -1.080478E+05 -5.920698E+05  6.792251E+02 -5.187449E+04
       213  10 -3.996037E+05 -1.264997E+05  4.756160E+04 -3.521227E+05  6.335245E-10  7.585557E-10
       213  11 -2.585689E+05 -5.891999E+04  7.293476E+04 -2.951530E+05  1.357065E-09 -7.685329E-11
       213  12 -9.289598E+04 -1.616985E+04  9.760154E+04 -2.665239E+05  9.063363E-10 -5.446956E-10
       213  13 -6.775802E+05 -2.266777E+05 -1.574337E+03 -4.294417E+05 -6.157792E-10  9.162773E-11
       213  14 -6.898782E+05 -2.143370E+05 -2.848486E+03 -4.152285E+05  4.285584E-10 -1.050578E-09
       213  15 -6.776632E+05 -2.269287E+05 -5.220248E+03 -4.293684E+05  1.432801E-09 -4.125320E-10
       213  16 -9.554779E+05 -3.268495E+05 -5.071356E+04 -5.067291E+05  1.385056E-09 -4.200534E-10
       213  17 -1.120993E+06 -3.697371E+05 -7.863820E+04 -5.352267E+05  1.689674E-09 -3.001575E-10
       213  18 -1.262069E+06 -4.376549E+05 -1.080528E+05 -5.920698E+05  1.065840E-09 -1.290135E-10
       213  19 -3.996026E+05 -1.264993E+05  4.756368E+04 -3.521230E+05 -3.056140E+04  1.309508E+04
       213  20 -2.585673E+05 -5.891897E+04  7.293838E+04 -2.951537E+05 -3.607575E+04  2.497471E+04
       213  21 -9.289377E+04 -1.616795E+04  9.760729E+04 -2.665251E+05 -4.148739E+04  3.656768E+04
       213  22 -6.775799E+05 -2.266772E+05 -1.573342E+03 -4.294418E+05 -9.166293E+03  2.111174E+04
       213  23 -6.898776E+05 -2.143358E+05 -2.846031E+03 -4.152289E+05 -1.517118E+04  3.281169E+04
       213  24 -6.776622E+05 -2.269265E+05 -5.215740E+03 -4.293692E+05 -2.107307E+04  4.422491E+04
       213  25 -9.554775E+05 -3.268485E+05 -5.071168E+04 -5.067288E+05  1.221882E+04  2.912466E+04
       213  26 -1.120993E+06 -3.697353E+05 -7.863504E+04 -5.352265E+05  5.718030E+03  4.064292E+04
       213  27 -1.262068E+06 -4.376520E+05 -1.080478E+05 -5.920698E+05 -6.792251E+02  5.187449E+04
       214   1  6.684018E+03  1.963504E+04  1.143124E+05 -2.393002E+05  4.546636E+04 -4.311900E+04
       214   2  1.465962E+05  8.763753E+04  1.372723E+05 -1.808239E+05  5.030576E+04 -5.318789E+04
       214   3  3.101414E+05  1.286821E+05  1.589032E+05 -1.497993E+05  5.395618E+04 -6.007050E+04
       214   4 -6.780273E+05 -2.268649E+05 -6.951311E+03 -4.294674E+05  2.467953E+04 -5.091931E+04
       214   5 -6.896954E+05 -2.154301E+05 -1.276491E+04 -4.147827E+05  3.502160E+04 -5.893146E+04
       214   6 -6.788461E+05 -2.320507E+05 -2.427255E+04 -4.275615E+05  4.417356E+04 -6.375501E+04
       214   7 -1.362236E+06 -4.733176E+05 -1.282265E+05 -6.194369E+05  3.917324E+03 -5.871045E+04
       214   8 -1.525249E+06 -5.184302E+05 -1.628249E+05 -6.484471E+05  1.975938E+04 -6.466675E+04
       214   9 -1.666818E+06 -5.926931E+05 -2.074878E+05 -7.049135E+05  3.440747E+04 -6.743324E+04
       214  10  6.681300E+03  1.963249E+04  1.143050E+05 -2.392986E+05  6.505420E-10 -7.233127E-10
       214  11  1.465927E+05  8.763382E+04  1.372623E+05 -1.808217E+05  1.708869E-09 -1.701770E-10
       214  12  3.101373E+05  1.286774E+05  1.588909E+05 -1.497967E+05  9.229513E-11 -1.446384E-09
       214  13 -6.780286E+05 -2.268678E+05 -6.957325E+03 -4.294663E+05  2.483627E-09 -6.796152E-11
       214  14 -6.896976E+05 -2.154342E+05 -1.277374E+04 -4.147810E+05  1.377755E-09 -1.244680E-10
       214  15 -6.788492E+05 -2.320556E+05 -2.428385E+04 -4.275593E+05 -5.232849E-09 -1.266397E-09
       214  16 -1.362237E+06 -4.733213E+05 -1.282330E+05 -6.194367E+05  1.088553E-09  7.762824E-10
       214  17 -1.525251E+06 -5.184348E+05 -1.628335E+05 -6.484461E+05 -9.010438E-10  1.444821E-10
       214  18 -1.666821E+06 -5.926983E+05 -2.074985E+05 -7.049117E+05 -8.944045E-09 -1.841999E-09
       214  19  6.684018E+03  1.963504E+04  1.143124E+05 -2.393002E+05 -4.546636E+04  4.311900E+04
       214  20  1.465962E+05  8.763753E+04  1.372723E+05 -1.808239E+05 -5.030576E+04  5.318789E+04
       214  21  3.101414E+05  1.286821E+05  1.589032E+05 -1.497993E+05 -5.395618E+04  6.007050E+04
       214  22 -6.780273E+05 -2.268649E+05 -6.951311E+03 -4.294674E+05 -2.467953E+04  5.091931E+04
       214  23 -6.896954E+05 -2.154301E+05 -1.276491E+04 -4.147827E+05 -3.502160E+04  5.893146E+04
       214  24 -6.788461E+05 -2.320507E+05 -2.427255E+04 -4.275615E+05 -4.417356E+04  6.375501E+04
       214  25 -1.362236E+06 -4.733176E+05 -1.282265E+05 -6.194369E+05 -3.917324E+03  5.871045E+04
       214  26 -1.525249E+06 -5.184302E+05 -1.628249E+05 -6.484471E+05 -1.975938E+04  6.466675E+04
       214  27 -1.666818E+06 -5.926931E+05 -2.074878E+05 -7.049135E+05 -3.440747E+04  6.743324E+04
       215   1  4.127611E+05  1.611220E+05  1.719101E+05 -1.295669E+05  6.393900E+04 -6.247979E+04
       215   2  5.291952E+05  2.382768E+05  1.961195E+05 -3.519715E+04  3.001265E+04 -6.396648E+04
       215   3  6.531658E+05  2.421079E+05  2.287134E+05  4.868429E+04 -1.745618E+04 -2.950161E+04
       215   4 -6.830233E+05 -2.310986E+05 -3.225613E+04 -4.289854E+05  4.984095E+04 -6.778763E+04
       215   5 -6.878306E+05 -2.388805E+05 -6.142354E+04 -4.047487E+05  7.815492E+04 -4.589221E+04
       215   6 -6.974963E+05 -3.324000E+05 -1.315611E+05 -3.910049E+05  9.291695E+04  1.199724E+04
       215   7 -1.777553E+06 -6.232169E+05 -2.364682E+05 -7.279161E+05  3.576947E+04 -7.308582E+04
       215   8 -1.903320E+06 -7.158490E+05 -3.190361E+05 -7.736066E+05  1.261954E+05 -2.786232E+04
       215   9 -2.046322E+06 -9.066234E+05 -4.919380E+05 -8.297636E+05  2.030263E+05  5.336640E+04
       215  10  4.127556E+05  1.611167E+05  1.718950E+05 -1.295637E+05 -7.904937E-09 -2.600780E-09
       215  11  5.291931E+05  2.382722E+05  1.961101E+05 -3.519560E+04 -2.220883E-09  2.482224E-10
       215  12  6.531653E+05  2.421069E+05  2.287112E+05  4.868387E+04  4.455332E-10  1.255885E-09
       215  13 -6.830272E+05 -2.311042E+05 -3.226942E+04 -4.289827E+05 -5.285270E-09 -1.688031E-09
       215  14 -6.878377E+05 -2.388844E+05 -6.143898E+04 -4.047458E+05 -2.214700E-09  9.991821E-10
       215  15 -6.975056E+05 -3.324025E+05 -1.315776E+05 -3.910058E+05  3.547017E-10  3.055753E-10
       215  16 -1.777555E+06 -6.232230E+05 -2.364806E+05 -7.279140E+05 -3.105310E-09 -6.252430E-10
       215  17 -1.903337E+06 -7.158541E+05 -3.190675E+05 -7.736037E+05  2.505330E-09 -9.972916E-10
       215  18 -2.046367E+06 -9.066376E+05 -4.920212E+05 -8.297724E+05  1.125258E-09 -1.108688E-09
       215  19  4.127611E+05  1.611220E+05  1.719101E+05 -1.295669E+05 -6.393900E+04  6.247979E+04
       215  20  5.291952E+05  2.382768E+05  1.961195E+05 -3.519715E+04 -3.001265E+04  6.396648E+04
       215  21  6.531658E+05  2.421079E+05  2.287134E+05  4.868429E+04  1.745618E+04  2.950161E+04
       215  22 -6.830233E+05 -2.310986E+05 -3.225613E+04 -4.289854E+05 -4.984095E+04  6.778763E+04
       215  23 -6.878306E+05 -2.388805E+05 -6.142354E+04 -4.047487E+05 -7.815492E+04  4.589221E+04
       215  24 -6.974963E+05 -3.324000E+05 -1.315611E+05 -3.910049E+05 -9.291695E+04 -1.199724E+04
       215  25 -1.777553E+06 -6.232169E+05 -2.364682E+05 -7.279161E+05 -3.576947E+04  7.308582E+04
       215  26 -1.903320E+06 -7.158490E+05 -3.190361E+05 -7.736066E+05 -1.261954E+05  2.786232E+04
       215  27 -2.046322E+06 -9.066234E+05 -4.919380E+05 -8.297636E+05 -2.030263E+05 -5.336640E+04
       216   1 -5.589409E+05 -1.842672E+05 -1.521768E+05 -7.001024E+04  1.156513E+04  1.798179E+04
       216   2 -4.130782E+05 -2.482952E+05 -1.480996E+05 -1.067405E+05  2.773270E+04  5.931391E+04
       216   3 -2.510623E+05 -2.402149E+05 -1.365070E+05 -1.731279E+05  4.393983E+04  6.899389E+04
       216   4  8.070586E+05  1.526448E+05  1.676254E+05 -1.674125E+05  1.172620E+05  1.805949E+04
       216   5  7.940309E+05  3.908337E+04  8.226411E+04 -1.525490E+05  7.492774E+04  5.933008E+04
       216   6  8.072355E+05  7.694301E+03  4.499803E+04 -1.673317E+05  3.263155E+04  6.897945E+04
       216   7  2.174822E+06  4.894662E+05  4.873476E+05 -2.650306E+05  2.231898E+05  1.810395E+04
       216   8  2.002553E+06  3.263854E+05  3.125714E+05 -1.984486E+05  1.222123E+05  5.933928E+04
       216   9  1.866634E+06  2.555440E+05  2.264659E+05 -1.615253E+05  2.130455E+04  6.896481E+04
       216  10 -5.589411E+05 -1.842676E+05 -1.521776E+05 -7.001040E+04  1.853070E-09 -9.056265E-10
       216  11 -4.130800E+05 -2.482992E+05 -1.481076E+05 -1.067418E+05 -2.407071E-09  6.253332E-10
       216  12 -2.510657E+05 -2.402206E+05 -1.365196E+05 -1.731303E+05 -4.172337E-09  8.604025E-10
       216  13  8.070438E+05  1.526407E+05  1.675990E+05 -1.674142E+05  5.785644E-10  7.354181E-10
       216  14  7.940239E+05  3.907808E+04  8.224695E+04 -1.525525E+05  2.810299E-10  5.425461E-10
       216  15  8.072331E+05  7.688904E+03  4.498708E+04 -1.673335E+05 -7.873483E-10  5.149832E-10
       216  16  2.174768E+06  4.894526E+05  4.872536E+05 -2.650338E+05 -2.935704E-10  7.688735E-10
       216  17  2.002536E+06  3.263776E+05  3.125368E+05 -1.984545E+05  1.392970E-10  8.173453E-10
       216  18  1.866632E+06  2.555387E+05  2.264561E+05 -1.615265E+05  3.909340E-09  1.913850E-09
       216  19 -5.589409E+05 -1.842672E+05 -1.521768E+05 -7.001024E+04 -1.156513E+04 -1.798179E+04
       216  20 -4.130782E+05 -2.482952E+05 -1.480996E+05 -1.067405E+05 -2.773270E+04 -5.931391E+04
       216  21 -2.510623E+05 -2.402149E+05 -1.365070E+05 -1.731279E+05 -4.393983E+04 -6.899389E+04
       216  22  8.070586E+05  1.526448E+05  1.676254E+05 -1.674125E+05 -1.172620E+05 -1.805949E+04
       216  23  7.940309E+05  3.908337E+04  8.226411E+04 -1.525490E+05 -7.492774E+04 -5.933008E+04
       216  24  8.072355E+05  7.694301E+03  4.499803E+04 -1.673317E+05 -3.263155E+04 -6.897945E+04
       216  25  2.174822E+06  4.894662E+05  4.873476E+05 -2.650306E+05 -2.231898E+05 -1.810395E+04
       216  26  2.002553E+06  3.263854E+05  3.125714E+05 -1.984486E+05 -1.222123E+05 -5.933928E+04
       216  27  1.866634E+06  2.555440E+05  2.264659E+05 -1.615253E+05 -2.130455E+04 -6.896481E+04
       217   1 -1.563925E+05 -2.161137E+05 -1.278152E+05 -1.643821E+05  3.593990E+04  6.455412E+04
       217   2 -3.828250E+03 -1.857184E+05 -1.126433E+05 -1.508271E+05  3.254184E+04  5.798999E+04
       217   3  1.503073E+05 -1.512961E+05 -9.422510E+04 -1.689240E+05  2.913964E+04  4.823332E+04
       217   4  8.020107E+05  7.873391E+03  3.404445E+04 -1.677914E+05  2.679197E+04  6.454232E+04
       217   5  8.007702E+05  1.392448E+03  1.865325E+04 -1.519667E+05  1.748132E+04  5.798058E+04
       217   6  8.020992E+05 -3.879643E+01  1.060497E+04 -1.677907E+05  8.167375E+03  4.822842E+04
       217   7  1.761318E+06  2.318122E+05  1.958750E+05 -1.712061E+05  1.763036E+04  6.453062E+04
       217   8  1.606010E+06  1.884704E+05  1.499324E+05 -1.531078E+05  2.401945E+03  5.797124E+04
       217   9  1.454314E+06  1.511974E+05  1.154253E+05 -1.666562E+05 -1.282612E+04  4.822344E+04
       217  10 -1.563950E+05 -2.161185E+05 -1.278254E+05 -1.643840E+05  2.970320E-09  3.653417E-10
       217  11 -3.830291E+03 -1.857223E+05 -1.126517E+05 -1.508286E+05 -2.084678E-09 -9.842818E-10
       217  12  1.503057E+05 -1.512989E+05 -9.423107E+04 -1.689251E+05 -4.442345E-09  2.303774E-10
       217  13  8.020088E+05  7.868723E+03  3.403527E+04 -1.677928E+05 -6.314136E-10  1.407341E-09
       217  14  8.007690E+05  1.388754E+03  1.864636E+04 -1.519675E+05  9.620906E-10  5.767591E-11
       217  15  8.020985E+05 -4.131308E+01  1.060048E+04 -1.677911E+05 -2.556523E-09  3.696897E-10
       217  16  1.761317E+06  2.318077E+05  1.958666E+05 -1.712070E+05 -2.498065E-09  1.319285E-09
       217  17  1.606009E+06  1.884668E+05  1.499260E+05 -1.531079E+05 -9.545964E-10  5.109997E-10
       217  18  1.454313E+06  1.511949E+05  1.154206E+05 -1.666557E+05  3.898688E-09  7.909240E-10
       217  19 -1.563925E+05 -2.161137E+05 -1.278152E+05 -1.643821E+05 -3.593990E+04 -6.455412E+04
       217  20 -3.828250E+03 -1.857184E+05 -1.126433E+05 -1.508271E+05 -3.254184E+04 -5.798999E+04
       217  21  1.503073E+05 -1.512961E+05 -9.422510E+04 -1.689240E+05 -2.913964E+04 -4.823332E+04
       217  22  8.020107E+05  7.873391E+03  3.404445E+04 -1.677914E+05 -2.679197E+04 -6.454232E+04
       217  23  8.007702E+05  1.392448E+03  1.865325E+04 -1.519667E+05 -1.748132E+04 -5.798058E+04
       217  24  8.020992E+05 -3.879643E+01  1.060497E+04 -1.677907E+05 -8.167375E+03 -4.822842E+04
       217  25  1.761318E+06  2.318122E+05  1.958750E+05 -1.712061E+05 -1.763036E+04 -6.453062E+04
       217  26  1.606010E+06  1.884704E+05  1.499324E+05 -1.531078E+05 -2.401945E+03 -5.797124E+04
       217  27  1.454314E+06  1.511974E+05  1.154253E+05 -1.666562E+05  1.282612E+04 -4.822344E+04
       218   1  2.480627E+05 -1.282466E+05 -8.029081E+04 -1.682404E+05  2.730020E+04  4.154133E+04
       218   2  4.010706E+05 -9.293274E+04 -5.917906E+04 -1.522409E+05  2.563595E+04  3.015508E+04
       218   3  5.543969E+05 -5.743121E+04 -3.692807E+04 -1.680630E+05  2.396835E+04  1.844922E+04
       218   4  8.016396E+05  7.119668E+01  8.040007E+03 -1.678294E+05  6.550887E+03  4.153887E+04
       218   5  8.014610E+05 -1.592023E+02  4.566202E+03 -1.519192E+05  4.291585E+03  3.015545E+04
       218   6  8.016819E+05 -9.776071E+01  2.642787E+03 -1.678296E+05  2.029325E+03  1.845253E+04
       218   7  1.355522E+06  1.283739E+05  9.636447E+04 -1.674179E+05 -1.421625E+04  4.153638E+04
       218   8  1.202012E+06  9.260658E+04  6.830904E+04 -1.515973E+05 -1.706604E+04  3.015580E+04
       218   9  1.049029E+06  5.723288E+04  4.221384E+04 -1.675961E+05 -1.991812E+04  1.845583E+04
       218  10  2.480614E+05 -1.282487E+05 -8.029546E+04 -1.682413E+05  6.936019E-09  1.069877E-09
       218  11  4.010696E+05 -9.293390E+04 -5.918201E+04 -1.522415E+05 -2.053454E-08  3.624626E-11
       218  12  5.543962E+05 -5.743173E+04 -3.692979E+04 -1.680633E+05 -4.679174E-08 -2.035914E-09
       218  13  8.016391E+05  6.933151E+01  8.036683E+03 -1.678296E+05 -2.364840E-09  1.120063E-09
       218  14  8.014607E+05 -1.601842E+02  4.564458E+03 -1.519193E+05 -1.616017E-09  1.169224E-10
       218  15  8.016818E+05 -9.812760E+01  2.642139E+03 -1.678296E+05 -1.133811E-09 -2.308121E-09
       218  16  1.355521E+06  1.283720E+05  9.636084E+04 -1.674174E+05 -9.855843E-09  1.151306E-09
       218  17  1.202011E+06  9.260553E+04  6.830679E+04 -1.515969E+05  1.976538E-08  5.035877E-11
       218  18  1.049028E+06  5.723241E+04  4.221246E+04 -1.675958E+05  4.712366E-08 -2.816734E-09
       218  19  2.480627E+05 -1.282466E+05 -8.029081E+04 -1.682404E+05 -2.730020E+04 -4.154133E+04
       218  20  4.010706E+05 -9.293274E+04 -5.917906E+04 -1.522409E+05 -2.563595E+04 -3.015508E+04
       218  21  5.543969E+05 -5.743121E+04 -3.692807E+04 -1.680630E+05 -2.396835E+04 -1.844922E+04
       218  22  8.016396E+05  7.119668E+01  8.040007E+03 -1.678294E+05 -6.550887E+03 -4.153887E+04
       218  23  8.014610E+05 -1.592023E+02  4.566202E+03 -1.519192E+05 -4.291585E+03 -3.015545E+04
       218  24  8.016819E+05 -9.776071E+01  2.642787E+03 -1.678296E+05 -2.029325E+03 -1.845253E+04
       218  25  1.355522E+06  1.283739E+05  9.636447E+04 -1.674179E+05  1.421625E+04 -4.153638E+04
       218  26  1.202012E+06  9.260658E+04  6.830904E+04 -1.515973E+05  1.706604E+04 -3.015580E+04
       218  27  1.049029E+06  5.723288E+04  4.221384E+04 -1.675961E+05  1.991812E+04 -1.845583E+04
       219   1  6.523516E+05 -3.457450E+04 -2.138171E+04 -1.679986E+05  2.352407E+04  1.153589E+04
       219   2  8.054380E+05  8.367691E+02  1.770669E+03 -1.520296E+05  2.298868E+04 -3.278222E+02
       219   3  9.586318E+05  3.624809E+04  2.527441E+04 -1.678909E+05  2.245319E+04 -1.222003E+04
       219   4  8.016207E+05 -6.506693E+01  2.018971E+03 -1.678318E+05  1.607588E+03  1.154005E+04
       219   5  8.015753E+05 -5.020694E+01  1.194256E+03 -1.519166E+05  1.016593E+03 -3.236906E+02
       219   6  8.016206E+05 -2.562135E+01  7.573502E+02 -1.678318E+05  4.256275E+02 -1.221591E+04
       219   7  9.509131E+05  3.444353E+04  2.542092E+04 -1.676649E+05 -2.031396E+04  1.154419E+04
       219   8  7.977137E+05 -9.369248E+02  6.196546E+02 -1.518036E+05 -2.095536E+04 -3.195669E+02
       219   9  6.446350E+05 -3.630028E+04 -2.375847E+04 -1.677728E+05 -2.159658E+04 -1.221180E+04
       219  10  6.523509E+05 -3.457479E+04 -2.138300E+04 -1.679989E+05 -1.060743E-08 -3.266345E-09
       219  11  8.054374E+05  8.366274E+02  1.769677E+03 -1.520296E+05  2.252008E-08 -3.457244E-09
       219  12  9.586312E+05  3.624779E+04  2.527318E+04 -1.678907E+05  5.085337E-08 -1.872063E-09
       219  13  8.016207E+05 -6.521069E+01  2.018716E+03 -1.678318E+05  3.632343E-11 -3.440890E-09
       219  14  8.015753E+05 -5.020733E+01  1.194254E+03 -1.519166E+05  3.844739E-10 -3.061938E-09
       219  15  8.016206E+05 -2.578170E+01  7.570693E+02 -1.678318E+05 -1.400344E-09 -1.943353E-09
       219  16  9.509126E+05  3.444328E+04  2.541989E+04 -1.676647E+05  1.029683E-08 -3.692341E-09
       219  17  7.977132E+05 -9.370427E+02  6.188302E+02 -1.518036E+05 -2.234172E-08 -2.709730E-09
       219  18  6.446345E+05 -3.630057E+04 -2.375963E+04 -1.677730E+05 -5.116272E-08 -1.901330E-09
       219  19  6.523516E+05 -3.457450E+04 -2.138171E+04 -1.679986E+05 -2.352407E+04 -1.153589E+04
       219  20  8.054380E+05  8.367691E+02  1.770669E+03 -1.520296E+05 -2.298868E+04  3.278222E+02
       219  21  9.586318E+05  3.624809E+04  2.527441E+04 -1.678909E+05 -2.245319E+04  1.222003E+04
       219  22  8.016207E+05 -6.506693E+01  2.018971E+03 -1.678318E+05 -1.607588E+03 -1.154005E+04
       219  23  8.015753E+05 -5.020694E+01  1.194256E+03 -1.519166E+05 -1.016593E+03  3.236906E+02
       219  24  8.016206E+05 -2.562135E+01  7.573502E+02 -1.678318E+05 -4.256275E+02  1.221591E+04
       219  25  9.509131E+05  3.444353E+04  2.542092E+04 -1.676649E+05  2.031396E+04 -1.154419E+04
       219  26  7.977137E+05 -9.369248E+02  6.196546E+02 -1.518036E+05  2.095536E+04  3.195669E+02
       219  27  6.446350E+05 -3.630028E+04 -2.375847E+04 -1.677728E+05  2.159658E+04  1.221180E+04
       220   1  1.056657E+06  5.905462E+04  4.129019E+04 -1.678876E+05  2.233061E+04 -1.915187E+04
       220   2  1.209857E+06  9.441377E+04  6.512871E+04 -1.519123E+05  2.201410E+04 -3.103977E+04
       220   3  1.363156E+06  1.297789E+05  8.918227E+04 -1.677800E+05  2.170071E+04 -4.289250E+04
       220   4  8.016072E+05 -3.220135E+01  6.323411E+02 -1.678349E+05  2.979666E+02 -1.914864E+04
       220   5  8.015537E+05 -7.483432E+01  5.128690E+02 -1.519128E+05  4.406310E+01 -3.103952E+04
       220   6  8.015654E+05 -1.216262E+02  5.638189E+02 -1.678349E+05 -2.066359E+02 -4.289522E+04
       220   7  5.466227E+05 -5.912201E+04 -4.002538E+04 -1.677823E+05 -2.172596E+04 -1.914542E+04
       220   8  3.934171E+05 -9.457145E+04 -6.410536E+04 -1.519133E+05 -2.191207E+04 -3.103927E+04
       220   9  2.402887E+05 -1.300375E+05 -8.806069E+04 -1.678898E+05 -2.209493E+04 -4.289793E+04
       220  10  1.056657E+06  5.905410E+04  4.128857E+04 -1.678872E+05 -1.038789E-08 -3.261394E-10
       220  11  1.209856E+06  9.441260E+04  6.512599E+04 -1.519117E+05  2.402297E-08  1.752048E-09
       220  12  1.363155E+06  1.297768E+05  8.917793E+04 -1.677792E+05  5.295541E-08  2.910425E-09
       220  13  8.016071E+05 -3.259526E+01  6.316517E+02 -1.678349E+05  5.719286E-10 -4.131940E-10
       220  14  8.015534E+05 -7.586929E+01  5.110578E+02 -1.519128E+05 -1.037297E-09  1.984061E-09
       220  15  8.015649E+05 -1.236028E+02  5.603598E+02 -1.678349E+05 -2.574419E-09  2.495791E-09
       220  16  5.466221E+05 -5.912253E+04 -4.002695E+04 -1.677826E+05  8.803249E-09 -4.526035E-10
       220  17  3.934163E+05 -9.457261E+04 -6.410808E+04 -1.519139E+05 -2.401199E-08  2.128754E-09
       220  18  2.402877E+05 -1.300396E+05 -8.806507E+04 -1.678905E+05 -5.193198E-08  1.866399E-09
       220  19  1.056657E+06  5.905462E+04  4.129019E+04 -1.678876E+05 -2.233061E+04  1.915187E+04
       220  20  1.209857E+06  9.441377E+04  6.512871E+04 -1.519123E+05 -2.201410E+04  3.103977E+04
       220  21  1.363156E+06  1.297789E+05  8.918227E+04 -1.677800E+05 -2.170071E+04  4.289250E+04
       220  22  8.016072E+05 -3.220135E+01  6.323411E+02 -1.678349E+05 -2.979666E+02  1.914864E+04
       220  23  8.015537E+05 -7.483432E+01  5.128690E+02 -1.519128E+05 -4.406310E+01  3.103952E+04
       220  24  8.015654E+05 -1.216262E+02  5.638189E+02 -1.678349E+05  2.066359E+02  4.289522E+04
       220  25  5.466227E+05 -5.912201E+04 -4.002538E+04 -1.677823E+05  2.172596E+04  1.914542E+04
       220  26  3.934171E+05 -9.457145E+04 -6.410536E+04 -1.519133E+05  2.191207E+04  3.103927E+04
       220  27  2.402887E+05 -1.300375E+05 -8.806069E+04 -1.678898E+05  2.209493E+04  4.289793E+04
       221   1  1.461341E+06  1.525855E+05  1.054635E+05 -1.677380E+05  2.163016E+04 -4.980115E+04
       221   2  1.614672E+06  1.879858E+05  1.300660E+05 -1.516709E+05  2.039244E+04 -6.144810E+04
       221   3  1.768328E+06  2.235626E+05  1.555417E+05 -1.674627E+05  1.916049E+04 -7.268503E+04
       221   4  8.015663E+05 -1.577700E+02  6.531117E+02 -1.678387E+05 -3.154257E+02 -4.980648E+04
       221   5  8.014383E+05 -2.495223E+02  9.765418E+02 -1.519080E+05 -7.955656E+02 -6.145916E+04
       221   6  8.014826E+05 -2.947446E+02  1.647884E+03 -1.678387E+05 -1.269659E+03 -7.270154E+04
       221   7  1.422244E+05 -1.529224E+05 -1.041666E+05 -1.679392E+05 -2.223858E+04 -4.981181E+04
       221   8 -1.113796E+04 -1.885175E+05 -1.281281E+05 -1.521448E+05 -2.195688E+04 -6.147022E+04
       221   9 -1.644340E+05 -2.241984E+05 -1.522685E+05 -1.682140E+05 -2.166921E+04 -7.271804E+04
       221  10  1.461340E+06  1.525827E+05  1.054580E+05 -1.677372E+05 -4.643674E-08  2.952577E-09
       221  11  1.614671E+06  1.879817E+05  1.300581E+05 -1.516699E+05 -1.939498E-08  1.146257E-09
       221  12  1.768326E+06  2.235568E+05  1.555310E+05 -1.674616E+05  1.116975E-08  7.625519E-10
       221  13  8.015656E+05 -1.604348E+02  6.484481E+02 -1.678387E+05 -1.027199E-09  2.229841E-09
       221  14  8.014373E+05 -2.535801E+02  9.694397E+02 -1.519081E+05 -8.287842E-10  1.314727E-09
       221  15  8.014812E+05 -3.004230E+02  1.637945E+03 -1.678387E+05 -6.370406E-11  1.009030E-10
       221  16  1.422232E+05 -1.529252E+05 -1.041722E+05 -1.679401E+05  4.721390E-08  1.272889E-09
       221  17 -1.113949E+04 -1.885217E+05 -1.281361E+05 -1.521459E+05  1.677649E-08  1.103117E-09
       221  18 -1.644359E+05 -2.242042E+05 -1.522793E+05 -1.682153E+05 -1.230383E-08  3.530585E-11
       221  19  1.461341E+06  1.525855E+05  1.054635E+05 -1.677380E+05 -2.163016E+04  4.980115E+04
       221  20  1.614672E+06  1.879858E+05  1.300660E+05 -1.516709E+05 -2.039244E+04  6.144810E+04
       221  21  1.768328E+06  2.235626E+05  1.555417E+05 -1.674627E+05 -1.916049E+04  7.268503E+04
       221  22  8.015663E+05 -1.577700E+02  6.531117E+02 -1.678387E+05  3.154257E+02  4.980648E+04
       221  23  8.014383E+05 -2.495223E+02  9.765418E+02 -1.519080E+05  7.955656E+02  6.145916E+04
       221  24  8.014826E+05 -2.947446E+02  1.647884E+03 -1.678387E+05  1.269659E+03  7.270154E+04
       221  25  1.422244E+05 -1.529224E+05 -1.041666E+05 -1.679392E+05  2.223858E+04  4.981181E+04
       221  26 -1.113796E+04 -1.885175E+05 -1.281281E+05 -1.521448E+05  2.195688E+04  6.147022E+04
       221  27 -1.644340E+05 -2.241984E+05 -1.522685E+05 -1.682140E+05  2.166921E+04  7.271804E+04
       222   1  1.867008E+06  2.464961E+05  1.726762E+05 -1.671713E+05  1.913339E+04 -7.930839E+04
       222   2  2.019881E+06  2.827088E+05  2.015019E+05 -1.515611E+05  9.639950E+03 -8.844033E+04
       222   3  2.174797E+06  3.212447E+05  2.371274E+05 -1.675888E+05  1.473709E+02 -9.345012E+04
       222   4  8.015610E+05 -3.650359E+02  2.155559E+03 -1.677897E+05 -1.594560E+03 -7.932915E+04
       222   5  8.011499E+05 -1.884284E+02  3.733440E+03 -1.519692E+05 -3.447277E+03 -8.846433E+04
       222   6  8.014355E+05  9.900476E+02  6.817958E+03 -1.677904E+05 -5.296748E+03 -9.347323E+04
       222   7 -2.627601E+05 -2.472828E+05 -1.683934E+05 -1.684069E+05 -2.228830E+04 -7.934989E+04
       222   8 -4.161123E+05 -2.831608E+05 -1.940757E+05 -1.523765E+05 -1.650977E+04 -8.848834E+04
       222   9 -5.700717E+05 -3.193631E+05 -2.235505E+05 -1.679916E+05 -1.072924E+04 -9.349637E+04
       222  10  1.867006E+06  2.464892E+05  1.726637E+05 -1.671700E+05 -1.078078E-09  4.128700E-10
       222  11  2.019879E+06  2.827003E+05  2.014870E+05 -1.515604E+05  2.338563E-09 -3.243572E-10
       222  12  2.174795E+06  3.212353E+05  2.371110E+05 -1.675888E+05  1.600509E-09 -1.759336E-09
       222  13  8.015593E+05 -3.717969E+02  2.143724E+03 -1.677898E+05 -9.402000E-10 -1.633067E-11
       222  14  8.011478E+05 -1.968385E+02  3.718705E+03 -1.519694E+05 -5.299646E-10 -3.015377E-10
       222  15  8.014331E+05  9.806541E+02  6.801480E+03 -1.677908E+05 -1.411954E-10 -1.264083E-09
       222  16 -2.627623E+05 -2.472897E+05 -1.684062E+05 -1.684084E+05  1.196538E-09 -2.970204E-10
       222  17 -4.161147E+05 -2.831693E+05 -1.940909E+05 -1.523776E+05 -1.692936E-09  1.507631E-09
       222  18 -5.700742E+05 -3.193726E+05 -2.235671E+05 -1.679924E+05 -2.713583E-09 -5.227913E-10
       222  19  1.867008E+06  2.464961E+05  1.726762E+05 -1.671713E+05 -1.913339E+04  7.930839E+04
       222  20  2.019881E+06  2.827088E+05  2.015019E+05 -1.515611E+05 -9.639950E+03  8.844033E+04
       222  21  2.174797E+06  3.212447E+05  2.371274E+05 -1.675888E+05 -1.473709E+02  9.345012E+04
       222  22  8.015610E+05 -3.650359E+02  2.155559E+03 -1.677897E+05  1.594560E+03  7.932915E+04
       222  23  8.011499E+05 -1.884284E+02  3.733440E+03 -1.519692E+05  3.447277E+03  8.846433E+04
       222  24  8.014355E+05  9.900476E+02  6.817958E+03 -1.677904E+05  5.296748E+03  9.347323E+04
       222  25 -2.627601E+05 -2.472828E+05 -1.683934E+05 -1.684069E+05  2.228830E+04  7.934989E+04
       222  26 -4.161123E+05 -2.831608E+05 -1.940757E+05 -1.523765E+05  1.650977E+04  8.848834E+04
       222  27 -5.700717E+05 -3.193631E+05 -2.235505E+05 -1.679916E+05  1.072924E+04  9.349637E+04
       223   1  2.276749E+06  3.454189E+05  2.600205E+05 -1.649350E+05  1.798373E+03 -9.716084E+04
       223   2  2.422064E+06  3.924091E+05  3.236300E+05 -1.605292E+05 -8.243962E+04 -8.126585E+04
       223   3  2.586090E+06  4.691199E+05  4.494479E+05 -1.851177E+05 -1.667855E+05 -2.449022E+04
       223   4  8.024696E+05  8.898905E+02  9.013899E+03 -1.671960E+05 -6.464532E+03 -9.718931E+04
       223   5  7.995913E+05  7.113187E+03  1.642725E+04 -1.527171E+05 -1.488419E+04 -8.120288E+04
       223   6  8.022990E+05  2.996047E+04  3.353142E+04 -1.672289E+05 -2.338545E+04 -2.428960E+04
       223   7 -6.696779E+05 -3.437541E+05 -2.420640E+05 -1.694517E+05 -1.470848E+04 -9.721776E+04
       223   8 -8.203394E+05 -3.783335E+05 -2.908753E+05 -1.449263E+05  5.249954E+04 -8.113814E+04
       223   9 -9.785227E+05 -4.094114E+05 -3.825232E+05 -1.493924E+05  1.196068E+05 -2.408050E+04
       223  10  2.276746E+06  3.454088E+05  2.600028E+05 -1.649348E+05 -1.861391E-10 -2.804651E-09
       223  11  2.422055E+06  3.924001E+05  3.236048E+05 -1.605346E+05 -3.004834E-09 -4.388754E-09
       223  12  2.586060E+06  4.691118E+05  4.493947E+05 -1.851209E+05 -2.174608E-09 -1.244441E-09
       223  13  8.024670E+05  8.797322E+02  8.996063E+03 -1.671965E+05 -1.648464E-09 -5.924599E-09
       223  14  7.995893E+05  7.106044E+03  1.641443E+04 -1.527181E+05  1.938177E-09  2.005678E-09
       223  15  8.022983E+05  2.995969E+04  3.352928E+04 -1.672294E+05  7.815315E-10 -4.149662E-10
       223  16 -6.696807E+05 -3.437644E+05 -2.420822E+05 -1.694529E+05 -1.059307E-09 -1.731314E-09
       223  17 -8.203441E+05 -3.783413E+05 -2.908929E+05 -1.449228E+05 -1.402863E-10  1.151675E-09
       223  18 -9.785382E+05 -4.094158E+05 -3.825512E+05 -1.493900E+05  1.977695E-09 -1.625899E-09
       223  19  2.276749E+06  3.454189E+05  2.600205E+05 -1.649350E+05 -1.798373E+03  9.716084E+04
       223  20  2.422064E+06  3.924091E+05  3.236300E+05 -1.605292E+05  8.243962E+04  8.126585E+04
       223  21  2.586090E+06  4.691199E+05  4.494479E+05 -1.851177E+05  1.667855E+05  2.449022E+04
       223  22  8.024696E+05  8.898905E+02  9.013899E+03 -1.671960E+05  6.464532E+03  9.718931E+04
       223  23  7.995913E+05  7.113187E+03  1.642725E+04 -1.527171E+05  1.488419E+04  8.120288E+04
       223  24  8.022990E+05  2.996047E+04  3.353142E+04 -1.672289E+05  2.338545E+04  2.428960E+04
       223  25 -6.696779E+05 -3.437541E+05 -2.420640E+05 -1.694517E+05  1.470848E+04  9.721776E+04
       223  26 -8.203394E+05 -3.783335E+05 -2.908753E+05 -1.449263E+05 -5.249954E+04  8.113814E+04
       223  27 -9.785227E+05 -4.094114E+05 -3.825232E+05 -1.493924E+05 -1.196068E+05  2.408050E+04
       224   1  5.478585E+05  2.248307E+06  5.276210E+05 -6.234868E+05  2.170436E+04  1.455196E+05
       224   2  3.775965E+05  1.686493E+06  3.224474E+05 -5.582572E+05  6.507231E+04  4.380287E+04
       224   3  2.389341E+05  1.145918E+06  1.912058E+05 -6.035950E+05  5.807034E+04 -5.787424E+04
       224   4  2.906896E+04  1.493059E+05  3.008390E+04 -6.024934E+05  2.199042E+04  1.890148E+04
       224   5  8.818996E+03  1.471710E+05  1.644804E+04 -5.472329E+05  6.516551E+04  1.058105E+04
       224   6  4.048321E+03  1.498609E+05  1.205807E+04 -6.025478E+05  5.791643E+04  2.208199E+03
       224   7 -4.900268E+05 -1.945623E+06 -4.676995E+05 -5.815671E+05  2.226859E+04 -1.072920E+05
       224   8 -3.601022E+05 -1.389888E+06 -2.896652E+05 -5.362342E+05  6.525769E+04 -2.256028E+04
       224   9 -2.308908E+05 -8.452231E+05 -1.671146E+05 -6.015013E+05  5.776256E+04  6.219708E+04
       224  10  5.478523E+05  2.248284E+06  5.275805E+05 -6.234893E+05  8.445892E-10  9.263359E-09
       224  11  3.775915E+05  1.686490E+06  3.224359E+05 -5.582595E+05  1.924150E-09 -1.859695E-08
       224  12  2.389296E+05  1.145914E+06  1.911932E+05 -6.035923E+05  1.633434E-09 -4.574060E-08
       224  13  2.906835E+04  1.493054E+05  3.008232E+04 -6.024937E+05  5.888743E-10 -1.286756E-09
       224  14  8.814405E+03  1.471697E+05  1.643985E+04 -5.472335E+05  9.186824E-10  8.485211E-10
       224  15  4.044717E+03  1.498600E+05  1.205176E+04 -6.025479E+05  8.027124E-10 -7.194283E-10
       224  16 -4.900304E+05 -1.945636E+06 -4.677221E+05 -5.815652E+05 -7.269115E-10 -9.830947E-09
       224  17 -3.601069E+05 -1.389890E+06 -2.896742E+05 -5.362330E+05  8.380428E-10  1.823125E-08
       224  18 -2.308954E+05 -8.452282E+05 -1.671282E+05 -6.015042E+05  3.722902E-10  4.543434E-08
       224  19  5.478585E+05  2.248307E+06  5.276210E+05 -6.234868E+05 -2.170436E+04 -1.455196E+05
       224  20  3.775965E+05  1.686493E+06  3.224474E+05 -5.582572E+05 -6.507231E+04 -4.380287E+04
       224  21  2.389341E+05  1.145918E+06  1.912058E+05 -6.035950E+05 -5.807034E+04  5.787424E+04
       224  22  2.906896E+04  1.493059E+05  3.008390E+04 -6.024934E+05 -2.199042E+04 -1.890148E+04
       224  23  8.818996E+03  1.471710E+05  1.644804E+04 -5.472329E+05 -6.516551E+04 -1.058105E+04
       224  24  4.048321E+03  1.498609E+05  1.205807E+04 -6.025478E+05 -5.791643E+04 -2.208199E+03
       224  25 -4.900268E+05 -1.945623E+06 -4.676995E+05 -5.815671E+05 -2.226859E+04  1.072920E+05
       224  26 -3.601022E+05 -1.389888E+06 -2.896652E+05 -5.362342E+05 -6.525769E+04  2.256028E+04
       224  27 -2.308908E+05 -8.452231E+05 -1.671146E+05 -6.015013E+05 -5.776256E+04 -6.219708E+04
       225   1  1.552295E+05  7.896927E+05  1.266147E+05 -6.056508E+05  3.755293E+04 -5.663154E+04
       225   2  2.455637E+04  2.383762E+05  2.802134E+04 -5.460820E+05  6.602748E+03 -6.406481E+04
       225   3 -1.019061E+05 -3.110660E+05 -6.482579E+04 -6.002074E+05 -2.475190E+04 -7.149460E+04
       225   4  4.187814E+03  1.492195E+05  1.157124E+04 -6.032366E+05  3.739812E+04  2.681226E+02
       225   5  3.644400E+03  1.485121E+05  1.328658E+04 -5.463863E+05  6.444565E+03 -6.439446E+03
       225   6  7.198120E+03  1.492520E+05  2.023844E+04 -6.032290E+05 -2.491394E+04 -1.314970E+04
       225   7 -1.468750E+05 -4.908474E+05 -1.034759E+05 -6.008246E+05  3.724365E+04  5.711080E+04
       225   8 -1.726620E+04  5.866302E+04 -1.435946E+03 -5.466905E+05  6.286310E+03  5.117787E+04
       225   9  1.162921E+05  6.097829E+05  1.053066E+05 -6.062527E+05 -2.507647E+04  4.523736E+04
       225  10  1.552271E+05  7.896889E+05  1.266061E+05 -6.056491E+05  2.352206E-09  4.860659E-08
       225  11  2.455522E+04  2.383718E+05  2.801355E+04 -5.460817E+05  4.095551E-09  2.035605E-08
       225  12 -1.019081E+05 -3.110716E+05 -6.483656E+04 -6.002088E+05 -2.746686E-10 -1.162217E-08
       225  13  4.186312E+03  1.492191E+05  1.156862E+04 -6.032366E+05  1.106865E-09 -1.961026E-09
       225  14  3.644345E+03  1.485120E+05  1.328642E+04 -5.463862E+05 -4.671046E-10  9.792527E-10
       225  15  7.197407E+03  1.492517E+05  2.023694E+04 -6.032293E+05  2.997901E-11 -7.497357E-10
       225  16 -1.468773E+05 -4.908513E+05 -1.034847E+05 -6.008263E+05  1.813086E-09 -4.951087E-08
       225  17 -1.726694E+04  5.866019E+04 -1.440943E+03 -5.466908E+05 -1.585931E-09 -2.146269E-08
       225  18  1.162908E+05  6.097805E+05  1.053016E+05 -6.062518E+05 -6.948160E-10  1.117895E-08
       225  19  1.552295E+05  7.896927E+05  1.266147E+05 -6.056508E+05 -3.755293E+04  5.663154E+04
       225  20  2.455637E+04  2.383762E+05  2.802134E+04 -5.460820E+05 -6.602748E+03  6.406481E+04
       225  21 -1.019061E+05 -3.110660E+05 -6.482579E+04 -6.002074E+05  2.475190E+04  7.149460E+04
       225  22  4.187814E+03  1.492195E+05  1.157124E+04 -6.032366E+05 -3.739812E+04 -2.681226E+02
       225  23  3.644400E+03  1.485121E+05  1.328658E+04 -5.463863E+05 -6.444565E+03  6.439446E+03
       225  24  7.198120E+03  1.492520E+05  2.023844E+04 -6.032290E+05  2.491394E+04  1.314970E+04
       225  25 -1.468750E+05 -4.908474E+05 -1.034759E+05 -6.008246E+05 -3.724365E+04 -5.711080E+04
       225  26 -1.726620E+04  5.866302E+04 -1.435946E+03 -5.466905E+05 -6.286310E+03 -5.117787E+04
       225  27  1.162921E+05  6.097829E+05  1.053066E+05 -6.062527E+05  2.507647E+04 -4.523736E+04
       226   1 -1.858243E+05 -6.632177E+05 -1.230731E+05 -6.039884E+05 -4.555109E+04 -7.783506E+04
       226   2 -3.030280E+05 -1.213126E+06 -2.274827E+05 -5.196067E+05 -5.568206E+04 -1.537630E+04
       226   3 -3.898412E+05 -1.763462E+06 -3.650700E+05 -5.461156E+05 -1.941122E+04  4.708052E+04
       226   4  7.014979E+03  1.519846E+05  2.571725E+04 -6.026132E+05 -4.571428E+04 -1.665647E+04
       226   5  2.338559E+04  1.446748E+05  4.516928E+04 -5.471019E+05 -5.561114E+04 -3.984347E+04
       226   6  8.499188E+04  1.514900E+05  9.093475E+04 -6.024410E+05 -1.915861E+04 -6.297679E+04
       226   7  1.998187E+05  9.678412E+05  1.744949E+05 -6.012353E+05 -4.587705E+04  4.460036E+04
       226   8  3.496884E+05  1.504239E+06  3.177300E+05 -5.746566E+05 -5.553816E+04 -6.436311E+04
       226   9  5.595780E+05  2.069845E+06  5.467297E+05 -6.589380E+05 -1.888652E+04 -1.733725E+05
       226  10 -1.858282E+05 -6.632248E+05 -1.230884E+05 -6.039913E+05  9.640689E-10  9.901437E-10
       226  11 -3.030314E+05 -1.213127E+06 -2.274890E+05 -5.196074E+05  1.010499E-09  1.633301E-09
       226  12 -3.898422E+05 -1.763464E+06 -3.650749E+05 -5.461149E+05  2.271649E-10  6.581912E-10
       226  13  7.012660E+03  1.519838E+05  2.571279E+04 -6.026138E+05  1.518493E-09 -1.904524E-09
       226  14  2.338184E+04  1.446723E+05  4.516048E+04 -5.471036E+05 -1.419051E-09  8.431982E-10
       226  15  8.499042E+04  1.514857E+05  9.092660E+04 -6.024420E+05 -4.066703E-10 -4.895436E-10
       226  16  1.998159E+05  9.678385E+05  1.744872E+05 -6.012337E+05 -1.484814E-09 -1.693290E-09
       226  17  3.496840E+05  1.504233E+06  3.177164E+05 -5.746595E+05 -1.592257E-09 -1.833957E-09
       226  18  5.595696E+05  2.069812E+06  5.466727E+05 -6.589407E+05  1.830442E-10 -7.075891E-10
       226  19 -1.858243E+05 -6.632177E+05 -1.230731E+05 -6.039884E+05  4.555109E+04  7.783506E+04
       226  20 -3.030280E+05 -1.213126E+06 -2.274827E+05 -5.196067E+05  5.568206E+04  1.537630E+04
       226  21 -3.898412E+05 -1.763462E+06 -3.650700E+05 -5.461156E+05  1.941122E+04 -4.708052E+04
       226  22  7.014979E+03  1.519846E+05  2.571725E+04 -6.026132E+05  4.571428E+04  1.665647E+04
       226  23  2.338559E+04  1.446748E+05  4.516928E+04 -5.471019E+05  5.561114E+04  3.984347E+04
       226  24  8.499188E+04  1.514900E+05  9.093475E+04 -6.024410E+05  1.915861E+04  6.297679E+04
       226  25  1.998187E+05  9.678412E+05  1.744949E+05 -6.012353E+05  4.587705E+04 -4.460036E+04
       226  26  3.496884E+05  1.504239E+06  3.177300E+05 -5.746566E+05  5.553816E+04  6.436311E+04
       226  27  5.595780E+05  2.069845E+06  5.467297E+05 -6.589380E+05  1.888652E+04  1.733725E+05
       227   1 -1.217950E+06 -5.814479E+05 -3.298134E+05 -5.009947E+05 -1.492363E+05 -4.316617E+04
       227   2 -1.142553E+06 -4.310701E+05 -2.046375E+05 -4.689695E+05 -9.313101E+04  7.522799E+03
       227   3 -1.088703E+06 -3.611890E+05 -1.469014E+05 -4.359651E+05 -2.941715E+04  3.803602E+04
       227   4 -4.806416E+05 -2.388147E+05 -1.276128E+05 -2.313710E+05 -8.706410E+04 -1.980690E+04
       227   5 -4.663679E+05 -1.529285E+05 -5.957246E+04 -2.503003E+05 -6.578891E+04  1.779136E+04
       227   6 -4.667018E+05 -1.405910E+05 -3.130315E+04 -2.682641E+05 -3.691943E+04  3.521238E+04
       227   7  2.572071E+05  1.039410E+05  7.455230E+04  3.857029E+04 -2.481219E+04  3.599038E+03
       227   8  2.102890E+05  1.252851E+05  8.546927E+04 -3.139949E+04 -3.841490E+04  2.807529E+04
       227   9  1.557080E+05  8.003953E+04  8.428154E+04 -1.004074E+05 -4.442982E+04  3.238587E+04
       227  10 -1.217974E+06 -5.814559E+05 -3.298589E+05 -5.009999E+05 -8.707886E-10 -7.353340E-11
       227  11 -1.142562E+06 -4.310725E+05 -2.046539E+05 -4.689690E+05 -3.064657E-09 -4.223323E-10
       227  12 -1.088704E+06 -3.611908E+05 -1.469058E+05 -4.359642E+05 -9.983819E-10 -2.765299E-11
       227  13 -4.806498E+05 -2.388171E+05 -1.276278E+05 -2.313723E+05 -8.057565E-10  4.433848E-11
       227  14 -4.663726E+05 -1.529300E+05 -5.958119E+04 -2.502993E+05 -2.731633E-09  7.152148E-10
       227  15 -4.667036E+05 -1.405927E+05 -3.130804E+04 -2.682630E+05  1.407752E-09 -6.626629E-10
       227  16  2.572065E+05  1.039408E+05  7.455112E+04  3.857036E+04  1.733283E-09  2.857561E-11
       227  17  2.102872E+05  1.252839E+05  8.546502E+04 -3.139862E+04  4.224073E-10  1.744956E-09
       227  18  1.557056E+05  8.003787E+04  8.427586E+04 -1.004063E+05 -9.161979E-10  2.301794E-09
       227  19 -1.217950E+06 -5.814479E+05 -3.298134E+05 -5.009947E+05  1.492363E+05  4.316617E+04
       227  20 -1.142553E+06 -4.310701E+05 -2.046375E+05 -4.689695E+05  9.313101E+04 -7.522799E+03
       227  21 -1.088703E+06 -3.611890E+05 -1.469014E+05 -4.359651E+05  2.941715E+04 -3.803602E+04
       227  22 -4.806416E+05 -2.388147E+05 -1.276128E+05 -2.313710E+05  8.706410E+04  1.980690E+04
       227  23 -4.663679E+05 -1.529285E+05 -5.957246E+04 -2.503003E+05  6.578891E+04 -1.779136E+04
       227  24 -4.667018E+05 -1.405910E+05 -3.130315E+04 -2.682641E+05  3.691943E+04 -3.521238E+04
       227  25  2.572071E+05  1.039410E+05  7.455230E+04  3.857029E+04  2.481219E+04 -3.599038E+03
       227  26  2.102890E+05  1.252851E+05  8.546927E+04 -3.139949E+04  3.841490E+04 -2.807529E+04
       227  27  1.557080E+05  8.003953E+04  8.428154E+04 -1.004074E+05  4.442982E+04 -3.238587E+04
       228   1 -1.024537E+06 -3.473179E+05 -1.277142E+05 -4.254251E+05 -2.721086E+04  3.556133E+04
       228   2 -9.475725E+05 -3.047708E+05 -9.845257E+04 -3.948052E+05 -1.645162E+04  3.523181E+04
       228   3 -8.599230E+05 -2.795706E+05 -7.717743E+04 -3.788046E+05 -5.022200E+03  3.311653E+04
       228   4 -4.628310E+05 -1.413844E+05 -2.355396E+04 -2.666760E+05 -3.229637E+04  3.364667E+04
       228   5 -4.681180E+05 -1.305726E+05 -1.238962E+04 -2.602770E+05 -2.461709E+04  3.216191E+04
       228   6 -4.621134E+05 -1.364948E+05 -6.764343E+03 -2.684997E+05 -1.626914E+04  2.889164E+04
       228   7  9.920059E+04  6.457820E+04  8.059283E+04 -1.077939E+05 -3.738674E+04  3.173013E+04
       228   8  1.157915E+04  4.364818E+04  7.366583E+04 -1.256516E+05 -3.278928E+04  2.908946E+04
       228   9 -6.413239E+04  6.597454E+03  6.364528E+04 -1.581278E+05 -2.752389E+04  2.466386E+04
       228  10 -1.024538E+06 -3.473195E+05 -1.277180E+05 -4.254243E+05 -1.280035E-09  1.497618E-10
       228  11 -9.475731E+05 -3.047722E+05 -9.845541E+04 -3.948048E+05  8.587030E-10  1.002419E-09
       228  12 -8.599233E+05 -2.795718E+05 -7.717953E+04 -3.788045E+05  1.744541E-09  5.494609E-10
       228  13 -4.628324E+05 -1.413859E+05 -2.355805E+04 -2.666751E+05 -1.980228E-09  8.749578E-10
       228  14 -4.681190E+05 -1.305738E+05 -1.239270E+04 -2.602764E+05  1.643201E-09 -1.298780E-10
       228  15 -4.621139E+05 -1.364958E+05 -6.766408E+03 -2.684993E+05 -8.634221E-10 -6.863962E-10
       228  16  9.919882E+04  6.457674E+04  8.058832E+04 -1.077930E+05  7.003123E-10  1.572791E-09
       228  17  1.157776E+04  4.364698E+04  7.366222E+04 -1.256508E+05  2.306240E-10  8.566828E-10
       228  18 -6.413336E+04  6.596598E+03  6.364272E+04 -1.581273E+05 -1.578310E-09 -1.122609E-09
       228  19 -1.024537E+06 -3.473179E+05 -1.277142E+05 -4.254251E+05  2.721086E+04 -3.556133E+04
       228  20 -9.475725E+05 -3.047708E+05 -9.845257E+04 -3.948052E+05  1.645162E+04 -3.523181E+04
       228  21 -8.599230E+05 -2.795706E+05 -7.717743E+04 -3.788046E+05  5.022200E+03 -3.311653E+04
       228  22 -4.628310E+05 -1.413844E+05 -2.355396E+04 -2.666760E+05  3.229637E+04 -3.364667E+04
       228  23 -4.681180E+05 -1.305726E+05 -1.238962E+04 -2.602770E+05  2.461709E+04 -3.216191E+04
       228  24 -4.621134E+05 -1.364948E+05 -6.764343E+03 -2.684997E+05  1.626914E+04 -2.889164E+04
       228  25  9.920059E+04  6.457820E+04  8.059283E+04 -1.077939E+05  3.738674E+04 -3.173013E+04
       228  26  1.157915E+04  4.364818E+04  7.366583E+04 -1.256516E+05  3.278928E+04 -2.908946E+04
       228  27 -6.413239E+04  6.597454E+03  6.364528E+04 -1.581278E+05  2.752389E+04 -2.466386E+04
       229   1 -8.053305E+05 -2.604160E+05 -6.549743E+04 -3.640581E+05 -2.861404E+03  2.956833E+04
       229   2 -7.287933E+05 -2.235407E+05 -4.854888E+04 -3.332471E+05  1.237593E+03  2.373026E+04
       229   3 -6.391183E+05 -2.003305E+05 -3.289927E+04 -3.178000E+05  5.395145E+03  1.773255E+04
       229   4 -4.617903E+05 -1.365597E+05 -5.082857E+03 -2.683758E+05 -1.389920E+04  2.542305E+04
       229   5 -4.683631E+05 -1.296706E+05 -2.797560E+03 -2.607208E+05 -1.007570E+04  1.948288E+04
       229   6 -4.617509E+05 -1.363920E+05 -1.592751E+03 -2.684318E+05 -6.193905E+03  1.338304E+04
       229   7 -1.181252E+05 -1.269204E+04  5.532849E+04 -1.726441E+05 -2.494351E+04  2.127534E+04
       229   8 -2.078623E+05 -3.579440E+04  4.295179E+04 -1.881664E+05 -2.139400E+04  1.523364E+04
       229   9 -2.843518E+05 -7.245110E+04  2.971283E+04 -2.190509E+05 -1.778637E+04  9.032258E+03
       229  10 -8.053307E+05 -2.604170E+05 -6.549909E+04 -3.640580E+05  1.605993E-09 -5.047382E-10
       229  11 -7.287935E+05 -2.235413E+05 -4.854994E+04 -3.332471E+05  1.523771E-09 -1.048265E-09
       229  12 -6.391184E+05 -2.003309E+05 -3.289992E+04 -3.178001E+05 -6.545686E-10 -4.228042E-10
       229  13 -4.617907E+05 -1.365605E+05 -5.084434E+03 -2.683756E+05  6.150060E-10 -1.394147E-09
       229  14 -4.683633E+05 -1.296710E+05 -2.798463E+03 -2.607206E+05  1.726552E-09 -9.210994E-10
       229  15 -4.617510E+05 -1.363922E+05 -1.593160E+03 -2.684317E+05 -1.780767E-10  5.955144E-10
       229  16 -1.181260E+05 -1.269269E+04  5.532647E+04 -1.726437E+05 -2.215211E-10 -1.636150E-09
       229  17 -2.078628E+05 -3.579477E+04  4.295050E+04 -1.881661E+05 -1.101938E-09 -1.177705E-09
       229  18 -2.843522E+05 -7.245128E+04  2.971209E+04 -2.190507E+05 -2.910470E-11  1.773516E-09
       229  19 -8.053305E+05 -2.604160E+05 -6.549743E+04 -3.640581E+05  2.861404E+03 -2.956833E+04
       229  20 -7.287933E+05 -2.235407E+05 -4.854888E+04 -3.332471E+05 -1.237593E+03 -2.373026E+04
       229  21 -6.391183E+05 -2.003305E+05 -3.289927E+04 -3.178000E+05 -5.395145E+03 -1.773255E+04
       229  22 -4.617903E+05 -1.365597E+05 -5.082857E+03 -2.683758E+05  1.389920E+04 -2.542305E+04
       229  23 -4.683631E+05 -1.296706E+05 -2.797560E+03 -2.607208E+05  1.007570E+04 -1.948288E+04
       229  24 -4.617509E+05 -1.363920E+05 -1.592751E+03 -2.684318E+05  6.193905E+03 -1.338304E+04
       229  25 -1.181252E+05 -1.269204E+04  5.532849E+04 -1.726441E+05  2.494351E+04 -2.127534E+04
       229  26 -2.078623E+05 -3.579440E+04  4.295179E+04 -1.881664E+05  2.139400E+04 -1.523364E+04
       229  27 -2.843518E+05 -7.245110E+04  2.971283E+04 -2.190509E+05  1.778637E+04 -9.032258E+03
       230   1 -5.851429E+05 -1.808375E+05 -2.266570E+04 -3.028061E+05  7.078594E+03  1.390931E+04
       230   2 -5.086875E+05 -1.441823E+05 -7.874381E+03 -2.719294E+05  1.002099E+04  7.369822E+03
       230   3 -4.188488E+05 -1.209748E+05  6.597584E+03 -2.564337E+05  1.296795E+04  8.175683E+02
       230   4 -4.617115E+05 -1.363984E+05 -1.239605E+03 -2.684185E+05 -4.493950E+03  9.566456E+03
       230   5 -4.683997E+05 -1.296797E+05 -8.133104E+02 -2.607243E+05 -1.574420E+03  3.018569E+03
       230   6 -4.617096E+05 -1.364057E+05 -6.893114E+02 -2.684145E+05  1.349613E+03 -3.542089E+03
       230   7 -3.382625E+05 -9.195728E+04  2.018697E+04 -2.340242E+05 -1.606906E+04  5.222644E+03
       230   8 -4.281098E+05 -1.151768E+05  6.248347E+03 -2.495184E+05 -1.317069E+04 -1.333005E+03
       230   9 -5.045681E+05 -1.518364E+05 -7.975682E+03 -2.803944E+05 -1.026787E+04 -7.901428E+03
       230  10 -5.851430E+05 -1.808377E+05 -2.266616E+04 -3.028061E+05  3.091673E-08  1.211443E-08
       230  11 -5.086876E+05 -1.441824E+05 -7.874672E+03 -2.719294E+05 -6.528228E-09 -2.107732E-09
       230  12 -4.188490E+05 -1.209748E+05  6.597266E+03 -2.564337E+05 -3.695875E-08 -1.217289E-08
       230  13 -4.617116E+05 -1.363985E+05 -1.239815E+03 -2.684185E+05 -4.332706E-09 -1.332469E-10
       230  14 -4.683997E+05 -1.296797E+05 -8.133321E+02 -2.607243E+05 -1.097021E-08 -2.514413E-09
       230  15 -4.617096E+05 -1.364057E+05 -6.893384E+02 -2.684145E+05 -4.578959E-09 -8.347800E-10
       230  16 -3.382628E+05 -9.195738E+04  2.018643E+04 -2.340241E+05 -4.002894E-08 -1.225083E-08
       230  17 -4.281100E+05 -1.151768E+05  6.248018E+03 -2.495184E+05 -9.931364E-09 -2.433999E-09
       230  18 -5.045682E+05 -1.518365E+05 -7.975997E+03 -2.803945E+05  2.958868E-08  1.041357E-08
       230  19 -5.851429E+05 -1.808375E+05 -2.266570E+04 -3.028061E+05 -7.078594E+03 -1.390931E+04
       230  20 -5.086875E+05 -1.441823E+05 -7.874381E+03 -2.719294E+05 -1.002099E+04 -7.369822E+03
       230  21 -4.188488E+05 -1.209748E+05  6.597584E+03 -2.564337E+05 -1.296795E+04 -8.175683E+02
       230  22 -4.617115E+05 -1.363984E+05 -1.239605E+03 -2.684185E+05  4.493950E+03 -9.566456E+03
       230  23 -4.683997E+05 -1.296797E+05 -8.133104E+02 -2.607243E+05  1.574420E+03 -3.018569E+03
       230  24 -4.617096E+05 -1.364057E+05 -6.893114E+02 -2.684145E+05 -1.349613E+03  3.542089E+03
       230  25 -3.382625E+05 -9.195728E+04  2.018697E+04 -2.340242E+05  1.606906E+04 -5.222644E+03
       230  26 -4.281098E+05 -1.151768E+05  6.248347E+03 -2.495184E+05  1.317069E+04  1.333005E+03
       230  27 -5.045681E+05 -1.518364E+05 -7.975682E+03 -2.803944E+05  1.026787E+04  7.901428E+03
       231   1 -3.649295E+05 -1.014587E+05  1.643756E+04 -2.414260E+05  1.455360E+04 -3.049581E+03
       231   2 -2.884763E+05 -6.480999E+04  3.052057E+04 -2.105525E+05  1.753273E+04 -9.586274E+03
       231   3 -1.986446E+05 -4.160086E+04  4.426136E+04 -1.950584E+05  2.050658E+04 -1.610614E+04
       231   4 -4.617145E+05 -1.364069E+05 -7.193222E+02 -2.684146E+05  2.935228E+03 -7.409454E+03
       231   5 -4.684025E+05 -1.296849E+05 -9.810060E+02 -2.607252E+05  5.942177E+03 -1.393662E+04
       231   6 -4.617244E+05 -1.364087E+05 -1.607153E+03 -2.684181E+05  8.943802E+03 -2.044701E+04
       231   7 -5.584884E+05 -1.713538E+05 -1.787566E+04 -2.953989E+05 -8.681099E+03 -1.176856E+04
       231   8 -6.482942E+05 -1.945566E+05 -3.248301E+04 -3.108842E+05 -5.644795E+03 -1.828562E+04
       231   9 -7.247333E+05 -2.312107E+05 -4.747793E+04 -3.417495E+05 -2.613870E+03 -2.478596E+04
       231  10 -3.649297E+05 -1.014588E+05  1.643715E+04 -2.414259E+05 -1.097741E-08 -2.013976E-09
       231  11 -2.884767E+05 -6.481018E+04  3.051982E+04 -2.105523E+05  1.593927E-08  8.257558E-09
       231  12 -1.986451E+05 -4.160125E+04  4.426008E+04 -1.950582E+05  4.504000E-08  1.883326E-08
       231  13 -4.617145E+05 -1.364070E+05 -7.194415E+02 -2.684146E+05 -2.248654E-09  7.675815E-12
       231  14 -4.684026E+05 -1.296851E+05 -9.814373E+02 -2.607251E+05  1.805375E-09  6.410169E-10
       231  15 -4.617246E+05 -1.364092E+05 -1.608089E+03 -2.684180E+05  8.592454E-09  4.393218E-09
       231  16 -5.584885E+05 -1.713539E+05 -1.787606E+04 -2.953990E+05  9.199602E-09  1.866982E-09
       231  17 -6.482943E+05 -1.945569E+05 -3.248370E+04 -3.108843E+05 -1.507876E-08 -5.970354E-09
       231  18 -7.247335E+05 -2.312114E+05 -4.747909E+04 -3.417495E+05 -2.964624E-08 -9.016941E-09
       231  19 -3.649295E+05 -1.014587E+05  1.643756E+04 -2.414260E+05 -1.455360E+04  3.049581E+03
       231  20 -2.884763E+05 -6.480999E+04  3.052057E+04 -2.105525E+05 -1.753273E+04  9.586274E+03
       231  21 -1.986446E+05 -4.160086E+04  4.426136E+04 -1.950584E+05 -2.050658E+04  1.610614E+04
       231  22 -4.617145E+05 -1.364069E+05 -7.193222E+02 -2.684146E+05 -2.935228E+03  7.409454E+03
       231  23 -4.684025E+05 -1.296849E+05 -9.810060E+02 -2.607252E+05 -5.942177E+03  1.393662E+04
       231  24 -4.617244E+05 -1.364087E+05 -1.607153E+03 -2.684181E+05 -8.943802E+03  2.044701E+04
       231  25 -5.584884E+05 -1.713538E+05 -1.787566E+04 -2.953989E+05  8.681099E+03  1.176856E+04
       231  26 -6.482942E+05 -1.945566E+05 -3.248301E+04 -3.108842E+05  5.644795E+03  1.828562E+04
       231  27 -7.247333E+05 -2.312107E+05 -4.747793E+04 -3.417495E+05  2.613870E+03  2.478596E+04
       232   1 -1.447649E+05 -2.210792E+04  5.364538E+04 -1.800994E+05  2.229724E+04 -1.988410E+04
       232   2 -6.829298E+04  1.453324E+04  6.645461E+04 -1.492192E+05  2.632159E+04 -2.590451E+04
       232   3  2.134774E+04  3.756776E+04  7.807354E+04 -1.336931E+05  3.027782E+04 -3.173705E+04
       232   4 -4.617829E+05 -1.364031E+05 -2.099261E+03 -2.684366E+05  1.071537E+04 -2.423303E+04
       232   5 -4.683610E+05 -1.296829E+05 -3.743162E+03 -2.607199E+05  1.506211E+04 -3.013444E+04
       232   6 -4.618409E+05 -1.366347E+05 -6.833565E+03 -2.683609E+05  1.934046E+04 -3.584798E+04
       232   7 -7.786942E+05 -2.506885E+05 -5.784645E+04 -3.567317E+05 -8.601992E+02 -2.857960E+04
       232   8 -8.682572E+05 -2.738827E+05 -7.394478E+04 -3.721529E+05  3.810417E+03 -3.436146E+04
       232   9 -9.447775E+05 -3.108127E+05 -9.174608E+04 -4.029295E+05  8.412291E+03 -3.995548E+04
       232  10 -1.447655E+05 -2.210848E+04  5.364370E+04 -1.800990E+05 -2.966746E-08 -1.081077E-08
       232  11 -6.829390E+04  1.453233E+04  6.645205E+04 -1.492186E+05 -2.396965E-08 -9.533426E-09
       232  12  2.134649E+04  3.756643E+04  7.806993E+04 -1.336923E+05  1.561702E-11 -8.436327E-10
       232  13 -4.617832E+05 -1.364038E+05 -2.100580E+03 -2.684364E+05  6.293515E-09  3.737042E-09
       232  14 -4.683614E+05 -1.296839E+05 -3.745294E+03 -2.607195E+05 -8.661658E-09 -4.608242E-10
       232  15 -4.618417E+05 -1.366362E+05 -6.836682E+03 -2.683604E+05 -4.368666E-09 -2.406313E-09
       232  16 -7.786944E+05 -2.506894E+05 -5.784798E+04 -3.567317E+05  3.907057E-08  1.808358E-08
       232  17 -8.682575E+05 -2.738840E+05 -7.394702E+04 -3.721528E+05  9.298098E-09  6.276200E-09
       232  18 -9.447780E+05 -3.108145E+05 -9.174921E+04 -4.029293E+05 -5.405147E-09 -9.653918E-10
       232  19 -1.447649E+05 -2.210792E+04  5.364538E+04 -1.800994E+05 -2.229724E+04  1.988410E+04
       232  20 -6.829298E+04  1.453324E+04  6.645461E+04 -1.492192E+05 -2.632159E+04  2.590451E+04
       232  21  2.134774E+04  3.756776E+04  7.807354E+04 -1.336931E+05 -3.027782E+04  3.173705E+04
       232  22 -4.617829E+05 -1.364031E+05 -2.099261E+03 -2.684366E+05 -1.071537E+04  2.423303E+04
       232  23 -4.683610E+05 -1.296829E+05 -3.743162E+03 -2.607199E+05 -1.506211E+04  3.013444E+04
       232  24 -4.618409E+05 -1.366347E+05 -6.833565E+03 -2.683609E+05 -1.934046E+04  3.584798E+04
       232  25 -7.786942E+05 -2.506885E+05 -5.784645E+04 -3.567317E+05  8.601992E+02  2.857960E+04
       232  26 -8.682572E+05 -2.738827E+05 -7.394478E+04 -3.721529E+05 -3.810417E+03  3.436146E+04
       232  27 -9.447775E+05 -3.108127E+05 -9.174608E+04 -4.029295E+05 -8.412291E+03  3.995548E+04
       233   1  7.531543E+04  5.675856E+04  8.581808E+04 -1.193549E+05  3.321041E+04 -3.497119E+04
       233   2  1.507627E+05  9.391379E+04  9.409465E+04 -8.630487E+04  4.003728E+04 -3.858547E+04
       233   3  2.374941E+05  1.139056E+05  9.778043E+04 -6.761640E+04  4.608141E+04 -4.010811E+04
       233   4 -4.622693E+05 -1.365489E+05 -9.100647E+03 -2.685285E+05  2.202734E+04 -3.917588E+04
       233   5 -4.680330E+05 -1.308962E+05 -1.668180E+04 -2.601182E+05  3.246447E+04 -4.143660E+04
       233   6 -4.632387E+05 -1.431285E+05 -3.172047E+04 -2.660745E+05  4.211775E+04 -4.160476E+04
       233   7 -9.995543E+05 -3.298312E+05 -1.040296E+05 -4.175833E+05  1.085448E+04 -4.337679E+04
       233   8 -1.086428E+06 -3.556699E+05 -1.274718E+05 -4.337705E+05  2.489967E+04 -4.428471E+04
       233   9 -1.163457E+06 -4.001137E+05 -1.612398E+05 -4.643230E+05  3.815887E+04 -4.309958E+04
       233  10  7.531392E+04  5.675695E+04  8.581371E+04 -1.193539E+05  8.965420E-09  3.332948E-09
       233  11  1.507605E+05  9.391176E+04  9.408884E+04 -8.630363E+04 -1.622443E-08 -8.584013E-09
       233  12  2.374914E+05  1.139033E+05  9.777342E+04 -6.761491E+04 -4.393602E-08 -2.090616E-08
       233  13 -4.622703E+05 -1.365507E+05 -9.104442E+03 -2.685278E+05  3.131794E-10 -5.946178E-10
       233  14 -4.680346E+05 -1.308983E+05 -1.668701E+04 -2.601171E+05  1.210923E-09 -1.634021E-09
       233  15 -4.632411E+05 -1.431309E+05 -3.172705E+04 -2.660731E+05 -1.268224E-09 -4.196728E-09
       233  16 -9.995549E+05 -3.298333E+05 -1.040334E+05 -4.175829E+05 -8.896393E-09 -3.062804E-09
       233  17 -1.086429E+06 -3.556722E+05 -1.274766E+05 -4.337696E+05  1.802890E-08  6.212747E-09
       233  18 -1.163459E+06 -4.001161E+05 -1.612461E+05 -4.643217E+05  3.964650E-08  1.180712E-08
       233  19  7.531543E+04  5.675856E+04  8.581808E+04 -1.193549E+05 -3.321041E+04  3.497119E+04
       233  20  1.507627E+05  9.391379E+04  9.409465E+04 -8.630487E+04 -4.003728E+04  3.858547E+04
       233  21  2.374941E+05  1.139056E+05  9.778043E+04 -6.761640E+04 -4.608141E+04  4.010811E+04
       233  22 -4.622693E+05 -1.365489E+05 -9.100647E+03 -2.685285E+05 -2.202734E+04  3.917588E+04
       233  23 -4.680330E+05 -1.308962E+05 -1.668180E+04 -2.601182E+05 -3.246447E+04  4.143660E+04
       233  24 -4.632387E+05 -1.431285E+05 -3.172047E+04 -2.660745E+05 -4.211775E+04  4.160476E+04
       233  25 -9.995543E+05 -3.298312E+05 -1.040296E+05 -4.175833E+05 -1.085448E+04  4.337679E+04
       233  26 -1.086428E+06 -3.556699E+05 -1.274718E+05 -4.337705E+05 -2.489967E+04  4.428471E+04
       233  27 -1.163457E+06 -4.001137E+05 -1.612398E+05 -4.643230E+05 -3.815887E+04  4.309958E+04
       234   1  2.947116E+05  1.277992E+05  9.903984E+04 -6.295928E+04  5.470201E+04 -3.996634E+04
       234   2  3.420304E+05  1.758479E+05  9.300490E+04  1.967604E+04  5.265695E+04 -3.171129E+04
       234   3  3.733292E+05  1.375044E+05  6.582686E+04  1.087455E+05  4.171620E+04  1.695770E+02
       234   4 -4.684091E+05 -1.420957E+05 -4.215693E+04 -2.682582E+05  4.790042E+04 -4.253059E+04
       234   5 -4.657250E+05 -1.609361E+05 -8.022866E+04 -2.466264E+05  8.672003E+04 -1.890680E+04
       234   6 -4.872093E+05 -2.743447E+05 -1.718634E+05 -2.185568E+05  1.166351E+05  2.835726E+04
       234   7 -1.230920E+06 -4.119439E+05 -1.833754E+05 -4.733253E+05  4.110777E+04 -4.509167E+04
       234   8 -1.272788E+06 -4.976022E+05 -2.534897E+05 -5.125846E+05  1.207350E+05 -6.126087E+03
       234   9 -1.346964E+06 -6.859817E+05 -4.095879E+05 -5.453886E+05  1.914384E+05  5.647441E+04
       234  10  2.947080E+05  1.277967E+05  9.903122E+04 -6.295752E+04  3.802275E-08  1.087159E-08
       234  11  3.420272E+05  1.758460E+05  9.299780E+04  1.967738E+04  1.828713E-08  7.441234E-09
       234  12  3.733274E+05  1.375039E+05  6.582359E+04  1.087455E+05 -6.155320E-09 -1.173860E-09
       234  13 -4.684121E+05 -1.420983E+05 -4.216464E+04 -2.682565E+05 -2.190065E-09 -5.393837E-09
       234  14 -4.657332E+05 -1.609385E+05 -8.024347E+04 -2.466251E+05  1.956483E-09 -1.783037E-09
       234  15 -4.872242E+05 -2.743492E+05 -1.718905E+05 -2.185594E+05  1.853124E-10  1.389627E-09
       234  16 -1.230922E+06 -4.119466E+05 -1.833824E+05 -4.733238E+05 -4.170702E-08 -1.729448E-08
       234  17 -1.272804E+06 -4.976061E+05 -2.535172E+05 -5.125840E+05 -1.912339E-08 -4.431607E-09
       234  18 -1.347004E+06 -6.859950E+05 -4.096629E+05 -5.453973E+05  7.131925E-09  1.949966E-09
       234  19  2.947116E+05  1.277992E+05  9.903984E+04 -6.295928E+04 -5.470201E+04  3.996634E+04
       234  20  3.420304E+05  1.758479E+05  9.300490E+04  1.967604E+04 -5.265695E+04  3.171129E+04
       234  21  3.733292E+05  1.375044E+05  6.582686E+04  1.087455E+05 -4.171620E+04 -1.695770E+02
       234  22 -4.684091E+05 -1.420957E+05 -4.215693E+04 -2.682582E+05 -4.790042E+04  4.253059E+04
       234  23 -4.657250E+05 -1.609361E+05 -8.022866E+04 -2.466264E+05 -8.672003E+04  1.890680E+04
       234  24 -4.872093E+05 -2.743447E+05 -1.718634E+05 -2.185568E+05 -1.166351E+05 -2.835726E+04
       234  25 -1.230920E+06 -4.119439E+05 -1.833754E+05 -4.733253E+05 -4.110777E+04  4.509167E+04
       234  26 -1.272788E+06 -4.976022E+05 -2.534897E+05 -5.125846E+05 -1.207350E+05  6.126087E+03
       234  27 -1.346964E+06 -6.859817E+05 -4.095879E+05 -5.453886E+05 -1.914384E+05 -5.647441E+04
       235   1  1.186488E+06  1.582636E+05  1.366307E+05  1.076273E+03  1.834236E+04 -1.405666E+04
       235   2  1.140517E+06  1.999428E+05  1.299620E+05  2.550074E+04  4.516081E+02 -4.803193E+04
       235   3  1.087361E+06  2.033643E+05  1.254150E+05  5.851825E+04 -1.747671E+04 -5.957532E+04
       235   4  1.985236E+05 -8.488631E+04 -9.315744E+04  5.416236E+04 -6.516437E+04 -1.422025E+04
       235   5  2.057357E+05 -2.187944E+04 -4.573442E+04  4.977735E+04 -4.155529E+04 -4.812670E+04
       235   6  1.985443E+05 -4.365298E+03 -2.499843E+04  5.398556E+04 -1.798469E+04 -5.958412E+04
       235   7 -7.885198E+05 -3.280905E+05 -3.229836E+05  1.071631E+05 -1.485393E+05 -1.439825E+04
       235   8 -7.281974E+05 -2.437491E+05 -2.214620E+05  7.401610E+04 -8.350057E+04 -4.822482E+04
       235   9 -6.894950E+05 -2.121365E+05 -1.754373E+05  4.945911E+04 -1.849196E+04 -5.959291E+04
       235  10  1.186487E+06  1.582633E+05  1.366297E+05  1.076481E+03  6.464009E-09 -1.386798E-09
       235  11  1.140517E+06  1.999404E+05  1.299577E+05  2.550076E+04  2.789108E-09 -5.664992E-09
       235  12  1.087359E+06  2.033604E+05  1.254078E+05  5.851742E+04  1.945904E-09 -2.912799E-09
       235  13  1.985190E+05 -8.488767E+04 -9.316580E+04  5.416162E+04 -4.774778E-10  5.869171E-10
       235  14  2.057332E+05 -2.188239E+04 -4.574202E+04  4.977574E+04  5.443684E-10 -3.554813E-09
       235  15  1.985430E+05 -4.369198E+03 -2.500571E+04  5.398470E+04  8.899298E-10  6.804432E-10
       235  16 -7.885436E+05 -3.280966E+05 -3.230255E+05  1.071614E+05 -6.570690E-09  3.254556E-12
       235  17 -7.282055E+05 -2.437535E+05 -2.214795E+05  7.401286E+04 -3.093270E-09 -7.561901E-09
       235  18 -6.894963E+05 -2.121404E+05 -1.754447E+05  4.945822E+04 -1.501256E-09 -6.025252E-09
       235  19  1.186488E+06  1.582636E+05  1.366307E+05  1.076273E+03 -1.834236E+04  1.405666E+04
       235  20  1.140517E+06  1.999428E+05  1.299620E+05  2.550074E+04 -4.516081E+02  4.803193E+04
       235  21  1.087361E+06  2.033643E+05  1.254150E+05  5.851825E+04  1.747671E+04  5.957532E+04
       235  22  1.985236E+05 -8.488631E+04 -9.315744E+04  5.416236E+04  6.516437E+04  1.422025E+04
       235  23  2.057357E+05 -2.187944E+04 -4.573442E+04  4.977735E+04  4.155529E+04  4.812670E+04
       235  24  1.985443E+05 -4.365298E+03 -2.499843E+04  5.398556E+04  1.798469E+04  5.958412E+04
       235  25 -7.885198E+05 -3.280905E+05 -3.229836E+05  1.071631E+05  1.485393E+05  1.439825E+04
       235  26 -7.281974E+05 -2.437491E+05 -2.214620E+05  7.401610E+04  8.350057E+04  4.822482E+04
       235  27 -6.894950E+05 -2.121365E+05 -1.754373E+05  4.945911E+04  1.849196E+04  5.959291E+04
       236   1  1.057541E+06  1.952141E+05  1.238561E+05  5.380389E+04 -1.268737E+04 -5.911829E+04
       236   2  1.008657E+06  1.864908E+05  1.200402E+05  5.008573E+04 -1.168708E+04 -5.910286E+04
       236   3  9.591394E+05  1.757524E+05  1.150743E+05  5.642359E+04 -1.069345E+04 -5.682320E+04
       236   4  2.014529E+05 -4.422015E+03 -1.891631E+04  5.432991E+04 -1.474323E+04 -5.913063E+04
       236   5  2.021468E+05 -7.769360E+02 -1.037114E+04  4.929559E+04 -9.558763E+03 -5.910474E+04
       236   6  2.014780E+05  1.254227E+02 -5.882020E+03  5.431818E+04 -4.380802E+03 -5.681313E+04
       236   7 -6.539125E+05 -2.040963E+05 -1.617112E+05  5.485475E+04 -1.679633E+04 -5.914298E+04
       236   8 -6.037188E+05 -1.880776E+05 -1.408003E+05  4.850612E+04 -7.433106E+03 -5.910662E+04
       236   9 -5.556132E+05 -1.755302E+05 -1.268532E+05  5.221506E+04  1.924432E+03 -5.680310E+04
       236  10  1.057540E+06  1.952103E+05  1.238492E+05  5.380328E+04  5.142128E-08 -1.745968E-09
       236  11  1.008656E+06  1.864870E+05  1.200334E+05  5.008517E+04 -4.687535E-09  6.272948E-09
       236  12  9.591384E+05  1.757489E+05  1.150680E+05  5.642310E+04 -6.035230E-08  6.105342E-09
       236  13  2.014517E+05 -4.425828E+03 -1.892329E+04  5.432921E+04  1.720773E-09 -5.997445E-10
       236  14  2.021458E+05 -7.807121E+02 -1.037787E+04  4.929514E+04  5.593315E-11  4.713645E-09
       236  15  2.014771E+05  1.219512E+02 -5.888122E+03  5.431798E+04 -1.860955E-09  6.998372E-10
       236  16 -6.539138E+05 -2.041001E+05 -1.617183E+05  5.485395E+04 -5.033158E-08  2.201209E-09
       236  17 -6.037198E+05 -1.880814E+05 -1.408070E+05  4.850576E+04  9.670521E-10  5.642699E-09
       236  18 -5.556141E+05 -1.755337E+05 -1.268593E+05  5.221514E+04  6.039573E-08  4.116945E-09
       236  19  1.057541E+06  1.952141E+05  1.238561E+05  5.380389E+04  1.268737E+04  5.911829E+04
       236  20  1.008657E+06  1.864908E+05  1.200402E+05  5.008573E+04  1.168708E+04  5.910286E+04
       236  21  9.591394E+05  1.757524E+05  1.150743E+05  5.642359E+04  1.069345E+04  5.682320E+04
       236  22  2.014529E+05 -4.422015E+03 -1.891631E+04  5.432991E+04  1.474323E+04  5.913063E+04
       236  23  2.021468E+05 -7.769360E+02 -1.037114E+04  4.929559E+04  9.558763E+03  5.910474E+04
       236  24  2.014780E+05  1.254227E+02 -5.882020E+03  5.431818E+04  4.380802E+03  5.681313E+04
       236  25 -6.539125E+05 -2.040963E+05 -1.617112E+05  5.485475E+04  1.679633E+04  5.914298E+04
       236  26 -6.037188E+05 -1.880776E+05 -1.408003E+05  4.850612E+04  7.433106E+03  5.910662E+04
       236  27 -5.556132E+05 -1.755302E+05 -1.268532E+05  5.221506E+04 -1.924432E+03  5.680310E+04
       237   1  9.278182E+05  1.683249E+05  1.110727E+05  5.604398E+04 -9.641550E+03 -5.477478E+04
       237   2  8.787776E+05  1.570247E+05  1.048639E+05  5.086860E+04 -8.815796E+03 -5.133475E+04
       237   3  8.295959E+05  1.456967E+05  9.810344E+04  5.588355E+04 -7.992358E+03 -4.766742E+04
       237   4  2.017417E+05  9.533114E+01 -4.457520E+03  5.434947E+04 -3.488102E+03 -5.476421E+04
       237   5  2.018610E+05  2.445090E+02 -2.526569E+03  4.925372E+04 -2.243320E+03 -5.132158E+04
       237   6  2.017638E+05  2.930377E+02 -1.438808E+03  5.434892E+04 -1.000792E+03 -4.765153E+04
       237   7 -5.238110E+05 -1.681605E+05 -1.200012E+05  5.265666E+04  2.658420E+03 -5.475367E+04
       237   8 -4.746000E+05 -1.565585E+05 -1.099285E+05  4.764034E+04  4.322261E+03 -5.130844E+04
       237   9 -4.256763E+05 -1.451302E+05 -1.009909E+05  5.281562E+04  5.983971E+03 -4.763566E+04
       237  10  9.278173E+05  1.683217E+05  1.110669E+05  5.604355E+04  1.273074E-08  5.706848E-09
       237  11  8.787768E+05  1.570219E+05  1.048588E+05  5.086824E+04 -4.281540E-08  2.655493E-09
       237  12  8.295952E+05  1.456942E+05  9.809905E+04  5.588324E+04 -9.481813E-08 -3.344357E-09
       237  13  2.017409E+05  9.210705E+01 -4.463180E+03  5.434932E+04 -5.264567E-10 -2.200496E-09
       237  14  2.018603E+05  2.416790E+02 -2.531529E+03  4.925363E+04  1.612472E-09  2.898194E-09
       237  15  2.017632E+05  2.905990E+02 -1.443077E+03  5.434889E+04  5.205500E-10  2.626262E-09
       237  16 -5.238118E+05 -1.681637E+05 -1.200068E+05  5.265678E+04 -1.580602E-08  3.820645E-09
       237  17 -4.746007E+05 -1.565613E+05 -1.099335E+05  4.764051E+04  4.207417E-08  3.661039E-09
       237  18 -4.256769E+05 -1.451326E+05 -1.009952E+05  5.281585E+04  9.241272E-08 -2.160167E-09
       237  19  9.278182E+05  1.683249E+05  1.110727E+05  5.604398E+04  9.641550E+03  5.477478E+04
       237  20  8.787776E+05  1.570247E+05  1.048639E+05  5.086860E+04  8.815796E+03  5.133475E+04
       237  21  8.295959E+05  1.456967E+05  9.810344E+04  5.588355E+04  7.992358E+03  4.766742E+04
       237  22  2.017417E+05  9.533114E+01 -4.457520E+03  5.434947E+04  3.488102E+03  5.476421E+04
       237  23  2.018610E+05  2.445090E+02 -2.526569E+03  4.925372E+04  2.243320E+03  5.132158E+04
       237  24  2.017638E+05  2.930377E+02 -1.438808E+03  5.434892E+04  1.000792E+03  4.765153E+04
       237  25 -5.238110E+05 -1.681605E+05 -1.200012E+05  5.265666E+04 -2.658420E+03  5.475367E+04
       237  26 -4.746000E+05 -1.565585E+05 -1.099285E+05  4.764034E+04 -4.322261E+03  5.130844E+04
       237  27 -4.256763E+05 -1.451302E+05 -1.009909E+05  5.281562E+04 -5.983971E+03  4.763566E+04
       238   1  7.982019E+05  1.383746E+05  9.325945E+04  5.579828E+04 -7.751794E+03 -4.546166E+04
       238   2  7.491795E+05  1.270069E+05  8.603148E+04  5.059649E+04 -7.501220E+03 -4.168077E+04
       238   3  7.000939E+05  1.157053E+05  7.864285E+04  5.558744E+04 -7.252112E+03 -3.787810E+04
       238   4  2.018029E+05  2.912172E+02 -1.085535E+03  5.434956E+04 -7.783664E+02 -4.544498E+04
       238   5  2.018486E+05  2.698503E+02 -6.064115E+02  4.925293E+04 -4.880686E+02 -4.166270E+04
       238   6  2.018209E+05  3.074607E+02 -3.160051E+02  5.434955E+04 -1.992182E+02 -3.785864E+04
       238   7 -3.942422E+05 -1.378098E+05 -9.543928E+04  5.290201E+04  6.188615E+03 -4.542832E+04
       238   8 -3.451842E+05 -1.264821E+05 -8.725167E+04  4.791036E+04  6.519132E+03 -4.164466E+04
       238   9 -2.962050E+05 -1.151027E+05 -7.928096E+04  5.311250E+04  6.848227E+03 -3.783919E+04
       238  10  7.982013E+05  1.383723E+05  9.325546E+04  5.579800E+04  1.064888E-07 -2.435500E-09
       238  11  7.491790E+05  1.270050E+05  8.602811E+04  5.059624E+04  1.984290E-08  7.896414E-09
       238  12  7.000934E+05  1.157038E+05  7.864006E+04  5.558722E+04 -6.806979E-08  6.900116E-09
       238  13  2.018024E+05  2.889991E+02 -1.089418E+03  5.434953E+04  6.879684E-10 -9.783454E-10
       238  14  2.018482E+05  2.679861E+02 -6.096741E+02  4.925291E+04  1.361751E-10  7.749014E-09
       238  15  2.018205E+05  3.059214E+02 -3.186988E+02  5.434955E+04 -1.635984E-10  1.231533E-09
       238  16 -3.942428E+05 -1.378120E+05 -9.544323E+04  5.290224E+04 -1.069656E-07 -2.776418E-09
       238  17 -3.451847E+05 -1.264840E+05 -8.725500E+04  4.791058E+04 -2.170186E-08  2.605946E-10
       238  18 -2.962055E+05 -1.151043E+05 -7.928374E+04  5.311270E+04  6.791785E-08  8.041396E-10
       238  19  7.982019E+05  1.383746E+05  9.325945E+04  5.579828E+04  7.751794E+03  4.546166E+04
       238  20  7.491795E+05  1.270069E+05  8.603148E+04  5.059649E+04  7.501220E+03  4.168077E+04
       238  21  7.000939E+05  1.157053E+05  7.864285E+04  5.558744E+04  7.252112E+03  3.787810E+04
       238  22  2.018029E+05  2.912172E+02 -1.085535E+03  5.434956E+04  7.783664E+02  4.544498E+04
       238  23  2.018486E+05  2.698503E+02 -6.064115E+02  4.925293E+04  4.880686E+02  4.166270E+04
       238  24  2.018209E+05  3.074607E+02 -3.160051E+02  5.434955E+04  1.992182E+02  3.785864E+04
       238  25 -3.942422E+05 -1.378098E+05 -9.543928E+04  5.290201E+04 -6.188615E+03  4.542832E+04
       238  26 -3.451842E+05 -1.264821E+05 -8.725167E+04  4.791036E+04 -6.519132E+03  4.164466E+04
       238  27 -2.962050E+05 -1.151027E+05 -7.928096E+04  5.311250E+04 -6.848227E+03  3.783919E+04
       239   1  6.687146E+05  1.084029E+05  7.357369E+04  5.552096E+04 -7.206588E+03 -3.565849E+04
       239   2  6.197304E+05  9.704916E+04  6.607525E+04  5.032245E+04 -7.191380E+03 -3.184682E+04
       239   3  5.706966E+05  8.576540E+04  5.856493E+04  5.531437E+04 -7.177231E+03 -2.803461E+04
       239   4  2.018316E+05  3.121356E+02 -2.147088E+02  5.434902E+04 -1.571066E+02 -3.563837E+04
       239   5  2.018642E+05  2.862771E+02 -5.465209E+01  4.925360E+04 -1.411457E+02 -3.182572E+04
       239   6  2.018453E+05  3.304723E+02  9.306767E+01  5.434901E+04 -1.262419E+02 -2.801254E+04
       239   7 -2.648345E+05 -1.077894E+05 -7.400838E+04  5.317783E+04  6.887273E+03 -3.561827E+04
       239   8 -2.158282E+05 -9.648525E+04 -6.618876E+04  4.818536E+04  6.904521E+03 -3.180465E+04
       239   9 -1.668705E+05 -8.511119E+04 -5.838205E+04  5.338413E+04  6.920715E+03 -2.799048E+04
       239  10  6.687142E+05  1.084015E+05  7.357120E+04  5.552075E+04  6.743940E-08  1.936768E-09
       239  11  6.197301E+05  9.704806E+04  6.607325E+04  5.032226E+04  2.658023E-08 -2.518922E-09
       239  12  5.706963E+05  8.576454E+04  5.856335E+04  5.531421E+04 -1.791007E-08 -1.793159E-09
       239  13  2.018313E+05  3.107716E+02 -2.170958E+02  5.434902E+04  2.000022E-09  7.777102E-09
       239  14  2.018639E+05  2.851893E+02 -5.655569E+01  4.925360E+04 -1.000922E-09 -1.637560E-10
       239  15  2.018451E+05  3.296296E+02  9.159289E+01  5.434900E+04 -3.702244E-09 -2.067289E-09
       239  16 -2.648349E+05 -1.077907E+05 -7.401085E+04  5.317803E+04 -6.684751E-08  2.466278E-09
       239  17 -2.158286E+05 -9.648635E+04 -6.619076E+04  4.818554E+04 -2.829667E-08 -3.598006E-09
       239  18 -1.668708E+05 -8.511204E+04 -5.838362E+04  5.338428E+04  1.612652E-08 -4.167292E-09
       239  19  6.687146E+05  1.084029E+05  7.357369E+04  5.552096E+04  7.206588E+03  3.565849E+04
       239  20  6.197304E+05  9.704916E+04  6.607525E+04  5.032245E+04  7.191380E+03  3.184682E+04
       239  21  5.706966E+05  8.576540E+04  5.856493E+04  5.531437E+04  7.177231E+03  2.803461E+04
       239  22  2.018316E+05  3.121356E+02 -2.147088E+02  5.434902E+04  1.571066E+02  3.563837E+04
       239  23  2.018642E+05  2.862771E+02 -5.465209E+01  4.925360E+04  1.411457E+02  3.182572E+04
       239  24  2.018453E+05  3.304723E+02  9.306767E+01  5.434901E+04  1.262419E+02  2.801254E+04
       239  25 -2.648345E+05 -1.077894E+05 -7.400838E+04  5.317783E+04 -6.887273E+03  3.561827E+04
       239  26 -2.158282E+05 -9.648525E+04 -6.618876E+04  4.818536E+04 -6.904521E+03  3.180465E+04
       239  27 -1.668705E+05 -8.511119E+04 -5.838205E+04  5.338413E+04 -6.920715E+03  2.799048E+04
       240   1  5.393439E+05  7.846713E+04  5.347955E+04  5.524593E+04 -7.207042E+03 -2.581558E+04
       240   2  4.903824E+05  6.711870E+04  4.603210E+04  5.004147E+04 -7.392359E+03 -2.200806E+04
       240   3  4.413922E+05  5.586510E+04  3.870607E+04  5.501927E+04 -7.578364E+03 -1.820890E+04
       240   4  2.018547E+05  3.337391E+02  1.729238E+02  5.434719E+04 -1.570520E+02 -2.579303E+04
       240   5  2.018736E+05  3.069259E+02  3.811642E+02  4.925587E+04 -3.580366E+02 -2.198488E+04
       240   6  2.018642E+05  3.777405E+02  7.215837E+02  5.434706E+04 -5.597217E+02 -1.818511E+04
       240   7 -1.355210E+05 -7.780528E+04 -5.313636E+04  5.344885E+04  6.889249E+03 -2.577048E+04
       240   8 -8.655221E+04 -6.650896E+04 -4.527168E+04  4.847057E+04  6.673139E+03 -2.196172E+04
       240   9 -3.760667E+04 -5.511245E+04 -3.726417E+04  5.367508E+04  6.456313E+03 -1.816133E+04
       240  10  5.393437E+05  7.846641E+04  5.347820E+04  5.524578E+04 -2.992458E-09  3.393833E-09
       240  11  4.903822E+05  6.711817E+04  4.603109E+04  5.004134E+04 -4.922241E-09  2.223336E-09
       240  12  4.413921E+05  5.586473E+04  3.870534E+04  5.501916E+04 -6.700564E-09  2.655113E-09
       240  13  2.018545E+05  3.330247E+02  1.716735E+02  5.434718E+04 -2.342952E-09 -1.116522E-09
       240  14  2.018735E+05  3.064068E+02  3.802556E+02  4.925586E+04 -1.616654E-09 -1.348791E-10
       240  15  2.018641E+05  3.773853E+02  7.209616E+02  5.434706E+04 -2.089588E-10  3.087065E-09
       240  16 -1.355213E+05 -7.780600E+04 -5.313769E+04  5.344900E+04  1.931280E-09  1.719640E-09
       240  17 -8.655239E+04 -6.650949E+04 -4.527267E+04  4.847069E+04  1.927165E-09 -1.023429E-08
       240  18 -3.760681E+04 -5.511281E+04 -3.726487E+04  5.367518E+04  5.779800E-09 -2.100235E-09
       240  19  5.393439E+05  7.846713E+04  5.347955E+04  5.524593E+04  7.207042E+03  2.581558E+04
       240  20  4.903824E+05  6.711870E+04  4.603210E+04  5.004147E+04  7.392359E+03  2.200806E+04
       240  21  4.413922E+05  5.586510E+04  3.870607E+04  5.501927E+04  7.578364E+03  1.820890E+04
       240  22  2.018547E+05  3.337391E+02  1.729238E+02  5.434719E+04  1.570520E+02  2.579303E+04
       240  23  2.018736E+05  3.069259E+02  3.811642E+02  4.925587E+04  3.580366E+02  2.198488E+04
       240  24  2.018642E+05  3.777405E+02  7.215837E+02  5.434706E+04  5.597217E+02  1.818511E+04
       240  25 -1.355210E+05 -7.780528E+04 -5.313636E+04  5.344885E+04 -6.889249E+03  2.577048E+04
       240  26 -8.655221E+04 -6.650896E+04 -4.527168E+04  4.847057E+04 -6.673139E+03  2.196172E+04
       240  27 -3.760667E+04 -5.511245E+04 -3.726417E+04  5.367508E+04 -6.456313E+03  1.816133E+04
       241   1  4.100906E+05  4.856161E+04  3.377866E+04  5.500098E+04 -7.736330E+03 -1.599667E+04
       241   2  3.610689E+05  3.734443E+04  2.682497E+04  4.956457E+04 -8.461966E+03 -1.224017E+04
       241   3  3.121868E+05  2.664112E+04  2.044711E+04  5.429970E+04 -9.187672E+03 -8.562375E+03
       241   4  2.019091E+05  3.742216E+02  9.643927E+02  5.434501E+04 -7.132335E+02 -1.597255E+04
       241   5  2.018308E+05  4.852454E+02  1.718687E+03  4.925787E+04 -1.584524E+03 -1.221620E+04
       241   6  2.019142E+05  1.135339E+03  3.149626E+03  5.434237E+04 -2.455932E+03 -8.538564E+03
       241   7 -6.229154E+03 -4.781528E+04 -3.185076E+04  5.368924E+04  6.307596E+03 -1.594845E+04
       241   8  4.261802E+04 -3.637517E+04 -2.338805E+04  4.895123E+04  5.291221E+03 -1.219223E+04
       241   9  9.165377E+04 -2.437101E+04 -1.414798E+04  5.438503E+04  4.274657E+03 -8.514750E+03
       241  10  4.100905E+05  4.856131E+04  3.377807E+04  5.500088E+04 -7.491303E-08  4.686165E-09
       241  11  3.610688E+05  3.734425E+04  2.682456E+04  4.956449E+04  1.790971E-08 -2.651519E-09
       241  12  3.121867E+05  2.664101E+04  2.044681E+04  5.429963E+04  1.160913E-07  6.203318E-09
       241  13  2.019090E+05  3.739475E+02  9.639123E+02  5.434500E+04  8.602494E-10  6.018419E-09
       241  14  2.018307E+05  4.850845E+02  1.718402E+03  4.925786E+04 -2.252017E-09  5.891570E-09
       241  15  2.019142E+05  1.135260E+03  3.149478E+03  5.434236E+04 -6.029252E-10  8.667809E-10
       241  16 -6.229265E+03 -4.781556E+04 -3.185131E+04  5.368932E+04  7.537523E-08  2.496843E-09
       241  17  4.261795E+04 -3.637533E+04 -2.338838E+04  4.895128E+04 -2.232822E-08  1.508305E-09
       241  18  9.165373E+04 -2.437109E+04 -1.414815E+04  5.438506E+04 -1.166301E-07 -8.689234E-09
       241  19  4.100906E+05  4.856161E+04  3.377866E+04  5.500098E+04  7.736330E+03  1.599667E+04
       241  20  3.610689E+05  3.734443E+04  2.682497E+04  4.956457E+04  8.461966E+03  1.224017E+04
       241  21  3.121868E+05  2.664112E+04  2.044711E+04  5.429970E+04  9.187672E+03  8.562375E+03
       241  22  2.019091E+05  3.742216E+02  9.643927E+02  5.434501E+04  7.132335E+02  1.597255E+04
       241  23  2.018308E+05  4.852454E+02  1.718687E+03  4.925787E+04  1.584524E+03  1.221620E+04
       241  24  2.019142E+05  1.135339E+03  3.149626E+03  5.434237E+04  2.455932E+03  8.538564E+03
       241  25 -6.229154E+03 -4.781528E+04 -3.185076E+04  5.368924E+04 -6.307596E+03  1.594845E+04
       241  26  4.261802E+04 -3.637517E+04 -2.338805E+04  4.895123E+04 -5.291221E+03  1.219223E+04
       241  27  9.165377E+04 -2.437101E+04 -1.414798E+04  5.438503E+04 -4.274657E+03  8.514750E+03
       242   1  2.812937E+05  1.931464E+04  1.621759E+04  5.504837E+04 -9.787854E+03 -6.407568E+03
       242   2  2.313324E+05  1.074893E+04  1.142233E+04  4.504079E+04 -1.228735E+04 -3.134227E+03
       242   3  1.834667E+05  9.612211E+03  1.008621E+04  4.513452E+04 -1.478411E+04 -6.364569E+02
       242   4  2.024000E+05  1.124755E+03  4.165566E+03  5.433229E+04 -3.003500E+03 -6.383429E+03
       242   5  2.012287E+05  4.006359E+03  7.623778E+03  4.925810E+04 -6.936838E+03 -3.115229E+03
       242   6  2.023999E+05  1.456607E+04  1.553660E+04  5.428491E+04 -1.086764E+04 -6.226573E+02
       242   7  1.235126E+05 -1.706540E+04 -7.886418E+03  5.361630E+04  3.780026E+03 -6.359303E+03
       242   8  1.711261E+05 -2.736171E+03  3.825341E+03  5.347518E+04 -1.586577E+03 -3.096159E+03
       242   9  2.213336E+05  1.952021E+04  2.098705E+04  6.343557E+04 -6.951055E+03 -6.087425E+02
       242  10  2.812936E+05  1.931457E+04  1.621733E+04  5.504832E+04 -5.153854E-08  6.873521E-09
       242  11  2.313322E+05  1.074888E+04  1.142203E+04  4.504076E+04 -2.089193E-08 -1.458063E-09
       242  12  1.834664E+05  9.612152E+03  1.008580E+04  4.513451E+04  1.318832E-08  9.465087E-10
       242  13  2.024000E+05  1.124709E+03  4.165473E+03  5.433227E+04  4.364186E-11  7.099431E-09
       242  14  2.012287E+05  4.006335E+03  7.623669E+03  4.925808E+04 -1.209790E-09 -6.541429E-09
       242  15  2.023997E+05  1.456603E+04  1.553637E+04  5.428490E+04  4.229195E-10  4.552951E-09
       242  16  1.235126E+05 -1.706545E+04 -7.886520E+03  5.361632E+04  5.045429E-08  7.885426E-10
       242  17  1.711261E+05 -2.736182E+03  3.825319E+03  5.347518E+04  1.890510E-08  1.685637E-09
       242  18  2.213335E+05  1.952020E+04  2.098696E+04  6.343557E+04 -1.341094E-08 -2.212575E-09
       242  19  2.812937E+05  1.931464E+04  1.621759E+04  5.504837E+04  9.787854E+03  6.407568E+03
       242  20  2.313324E+05  1.074893E+04  1.142233E+04  4.504079E+04  1.228735E+04  3.134227E+03
       242  21  1.834667E+05  9.612211E+03  1.008621E+04  4.513452E+04  1.478411E+04  6.364569E+02
       242  22  2.024000E+05  1.124755E+03  4.165566E+03  5.433229E+04  3.003500E+03  6.383429E+03
       242  23  2.012287E+05  4.006359E+03  7.623778E+03  4.925810E+04  6.936838E+03  3.115229E+03
       242  24  2.023999E+05  1.456607E+04  1.553660E+04  5.428491E+04  1.086764E+04  6.226573E+02
       242  25  1.235126E+05 -1.706540E+04 -7.886418E+03  5.361630E+04 -3.780026E+03  6.359303E+03
       242  26  1.711261E+05 -2.736171E+03  3.825341E+03  5.347518E+04  1.586577E+03  3.096159E+03
       242  27  2.213336E+05  1.952021E+04  2.098705E+04  6.343557E+04  6.951055E+03  6.087425E+02
       243   1  6.707408E+04  9.468373E+05  7.024637E+04 -1.635435E+05 -2.634022E+02  1.986888E+04
       243   2  1.129320E+04  8.150578E+05  2.574347E+04 -1.391578E+05 -3.420803E+03  2.603062E+03
       243   3 -2.546762E+04  6.901717E+05 -2.805732E+03 -1.411190E+05 -1.034568E+04 -1.466597E+04
       243   4  3.317332E+04  8.117471E+05  3.622110E+04 -1.420671E+05 -2.677133E+02  2.229037E+04
       243   5  8.885524E+03  8.089162E+05  2.009074E+04 -1.289245E+05 -3.440006E+03  1.199435E+04
       243   6  2.410961E+03  8.117587E+05  1.508165E+04 -1.421268E+05 -1.037918E+04  1.691821E+03
       243   7 -7.271157E+02  6.766743E+05  2.194709E+03 -1.205954E+05 -2.718575E+02  2.471134E+04
       243   8  6.478274E+03  8.027751E+05  1.443840E+04 -1.186913E+05 -3.458899E+03  2.138553E+04
       243   9  3.028900E+04  9.333612E+05  3.296978E+04 -1.431347E+05 -1.041273E+04  1.805269E+04
       243  10  6.707398E+04  9.468369E+05  7.024563E+04 -1.635435E+05  1.707477E-09 -6.070471E-10
       243  11  1.129319E+04  8.150578E+05  2.574343E+04 -1.391577E+05 -5.930500E-10 -4.850388E-09
       243  12 -2.546780E+04  6.901714E+05 -2.806337E+03 -1.411191E+05  6.618489E-12 -2.579863E-09
       243  13  3.317318E+04  8.117465E+05  3.622017E+04 -1.420671E+05  6.689007E-10 -2.039545E-09
       243  14  8.885473E+03  8.089161E+05  2.009045E+04 -1.289245E+05 -5.772072E-10  2.207048E-09
       243  15  2.410845E+03  8.117587E+05  1.508144E+04 -1.421268E+05  2.015365E-10 -9.556296E-10
       243  16 -7.272795E+02  6.766736E+05  2.193562E+03 -1.205954E+05  6.277230E-10  6.313779E-10
       243  17  6.478138E+03  8.027747E+05  1.443752E+04 -1.186913E+05  2.407606E-09  1.705176E-09
       243  18  3.028880E+04  9.333608E+05  3.296896E+04 -1.431346E+05  1.211987E-09  3.836301E-09
       243  19  6.707408E+04  9.468373E+05  7.024637E+04 -1.635435E+05  2.634022E+02 -1.986888E+04
       243  20  1.129320E+04  8.150578E+05  2.574347E+04 -1.391578E+05  3.420803E+03 -2.603062E+03
       243  21 -2.546762E+04  6.901717E+05 -2.805732E+03 -1.411190E+05  1.034568E+04  1.466597E+04
       243  22  3.317332E+04  8.117471E+05  3.622110E+04 -1.420671E+05  2.677133E+02 -2.229037E+04
       243  23  8.885524E+03  8.089162E+05  2.009074E+04 -1.289245E+05  3.440006E+03 -1.199435E+04
       243  24  2.410961E+03  8.117587E+05  1.508165E+04 -1.421268E+05  1.037918E+04 -1.691821E+03
       243  25 -7.271157E+02  6.766743E+05  2.194709E+03 -1.205954E+05  2.718575E+02 -2.471134E+04
       243  26  6.478274E+03  8.027751E+05  1.443840E+04 -1.186913E+05  3.458899E+03 -2.138553E+04
       243  27  3.028900E+04  9.333612E+05  3.296978E+04 -1.431347E+05  1.041273E+04 -1.805269E+04
       244   1 -4.481233E+04  6.069459E+05 -1.728141E+04 -1.434748E+05 -1.568978E+04 -1.690584E+04
       244   2 -7.526463E+04  4.776519E+05 -3.678629E+04 -1.277381E+05 -2.369778E+04 -2.295121E+04
       244   3 -1.012491E+05  3.501736E+05 -5.127077E+04 -1.385158E+05 -3.020465E+04 -2.899115E+04
       244   4  2.368810E+03  8.109987E+05  1.477008E+04 -1.421587E+05 -1.572251E+04 -6.878280E+02
       244   5  2.014321E+03  8.098429E+05  1.763454E+04 -1.288978E+05 -2.372318E+04 -9.514272E+03
       244   6  6.608980E+03  8.109668E+05  2.744620E+04 -1.421500E+05 -3.022310E+04 -1.833647E+04
       244   7  4.954805E+04  1.015094E+06  4.682155E+04 -1.408421E+05 -1.575517E+04  1.553531E+04
       244   8  7.928772E+04  1.142143E+06  7.205288E+04 -1.300582E+05 -2.374862E+04  3.929601E+03
       244   9  1.144559E+05  1.271969E+06  1.061565E+05 -1.457869E+05 -3.024167E+04 -7.674139E+03
       244  10 -4.481267E+04  6.069455E+05 -1.728241E+04 -1.434750E+05  1.611595E-09 -5.852842E-08
       244  11 -7.526537E+04  4.776512E+05 -3.678834E+04 -1.277385E+05  2.134016E-09 -3.971276E-09
       244  12 -1.012503E+05  3.501724E+05 -5.127406E+04 -1.385165E+05  9.470556E-10  5.827241E-08
       244  13  2.368545E+03  8.109986E+05  1.476962E+04 -1.421587E+05  1.040426E-09 -2.020624E-09
       244  14  2.013692E+03  8.098426E+05  1.763331E+04 -1.288980E+05  1.258880E-09  1.610084E-09
       244  15  6.607908E+03  8.109662E+05  2.744385E+04 -1.421505E+05  2.867072E-10 -1.296404E-09
       244  16  4.954772E+04  1.015093E+06  4.682063E+04 -1.408419E+05  8.461137E-10  5.846343E-08
       244  17  7.928711E+04  1.142143E+06  7.205179E+04 -1.300581E+05  1.440340E-09  1.076548E-09
       244  18  1.144549E+05  1.271969E+06  1.061547E+05 -1.457871E+05  7.546202E-10 -5.721803E-08
       244  19 -4.481233E+04  6.069459E+05 -1.728141E+04 -1.434748E+05  1.568978E+04  1.690584E+04
       244  20 -7.526463E+04  4.776519E+05 -3.678629E+04 -1.277381E+05  2.369778E+04  2.295121E+04
       244  21 -1.012491E+05  3.501736E+05 -5.127077E+04 -1.385158E+05  3.020465E+04  2.899115E+04
       244  22  2.368810E+03  8.109987E+05  1.477008E+04 -1.421587E+05  1.572251E+04  6.878280E+02
       244  23  2.014321E+03  8.098429E+05  1.763454E+04 -1.288978E+05  2.372318E+04  9.514272E+03
       244  24  6.608980E+03  8.109668E+05  2.744620E+04 -1.421500E+05  3.022310E+04  1.833647E+04
       244  25  4.954805E+04  1.015094E+06  4.682155E+04 -1.408421E+05  1.575517E+04 -1.553531E+04
       244  26  7.928772E+04  1.142143E+06  7.205288E+04 -1.300582E+05  2.374862E+04 -3.929601E+03
       244  27  1.144559E+05  1.271969E+06  1.061565E+05 -1.457869E+05  3.024167E+04  7.674139E+03
       245   1 -1.210935E+05  2.707187E+05 -5.928949E+04 -1.450900E+05 -3.448173E+04 -3.492229E+04
       245   2 -1.300044E+05  1.354451E+05 -6.721770E+04 -9.358356E+04 -3.154655E+04 -3.207323E+04
       245   3 -8.347463E+04  1.363289E+04 -6.314479E+04 -6.733488E+04 -9.813499E+03 -2.919783E+04
       245   4  6.508322E+03  8.147696E+05  3.506973E+04 -1.418890E+05 -3.450172E+04 -2.300765E+04
       245   5  2.984266E+04  8.049952E+05  6.209077E+04 -1.291697E+05 -3.150164E+04 -5.492355E+04
       245   6  1.146095E+05  8.146709E+05  1.252230E+05 -1.417001E+05 -9.713335E+03 -8.681354E+04
       245   7  1.340943E+05  1.359111E+06  1.294192E+05 -1.386851E+05 -3.452158E+04 -1.108287E+04
       245   8  1.896680E+05  1.474980E+06  1.913810E+05 -1.647948E+05 -3.145414E+04 -7.779791E+04
       245   9  3.126702E+05  1.616318E+06  3.135622E+05 -2.161615E+05 -9.599449E+03 -1.445031E+05
       245  10 -1.210951E+05  2.707170E+05 -5.929401E+04 -1.450909E+05  1.434163E-13  3.027899E-09
       245  11 -1.300058E+05  1.354438E+05 -6.722150E+04 -9.358438E+04  9.487910E-10 -1.343622E-09
       245  12 -8.347496E+04  1.363194E+04 -6.314657E+04 -6.733511E+04 -9.117239E-11 -1.680937E-10
       245  13  6.506901E+03  8.147688E+05  3.506650E+04 -1.418897E+05 -4.193432E-10 -1.699351E-09
       245  14  2.984079E+04  8.049917E+05  6.208324E+04 -1.291711E+05 -7.518631E-10  1.526822E-09
       245  15  1.146074E+05  8.146628E+05  1.252087E+05 -1.417008E+05 -9.669445E-10 -9.057716E-10
       245  16  1.340930E+05  1.359110E+06  1.294167E+05 -1.386854E+05  7.298124E-12 -2.817054E-09
       245  17  1.896653E+05  1.474973E+06  1.913678E+05 -1.647967E+05 -7.051623E-10 -6.529793E-10
       245  18  3.126645E+05  1.616295E+06  3.135228E+05 -2.161627E+05 -1.348036E-09  1.120041E-09
       245  19 -1.210935E+05  2.707187E+05 -5.928949E+04 -1.450900E+05  3.448173E+04  3.492229E+04
       245  20 -1.300044E+05  1.354451E+05 -6.721770E+04 -9.358356E+04  3.154655E+04  3.207323E+04
       245  21 -8.347463E+04  1.363289E+04 -6.314479E+04 -6.733488E+04  9.813499E+03  2.919783E+04
       245  22  6.508322E+03  8.147696E+05  3.506973E+04 -1.418890E+05  3.450172E+04  2.300765E+04
       245  23  2.984266E+04  8.049952E+05  6.209077E+04 -1.291697E+05  3.150164E+04  5.492355E+04
       245  24  1.146095E+05  8.146709E+05  1.252230E+05 -1.417001E+05  9.713335E+03  8.681354E+04
       245  25  1.340943E+05  1.359111E+06  1.294192E+05 -1.386851E+05  3.452158E+04  1.108287E+04
       245  26  1.896680E+05  1.474980E+06  1.913810E+05 -1.647948E+05  3.145414E+04  7.779791E+04
       245  27  3.126702E+05  1.616318E+06  3.135622E+05 -2.161615E+05  9.599449E+03  1.445031E+05
       246   1  1.313922E+06  4.248275E+05  2.071269E+05  4.691744E+05  5.866458E+04  5.551406E+03
       246   2  1.239590E+06  4.174559E+05  1.645069E+05  4.464693E+05  3.897188E+04 -4.070397E+04
       246   3  1.154615E+06  4.090735E+05  1.427160E+05  4.404900E+05  1.000869E+04 -6.235276E+04
       246   4  3.280211E+05  7.625081E+04 -4.161543E+04  2.204070E+05 -2.154984E+04 -2.471384E+04
       246   5  3.398708E+05  9.696042E+04 -1.944220E+04  2.060198E+05  1.413101E+03 -5.488912E+04
       246   6  3.326221E+05  1.082061E+05 -1.020928E+04  2.083613E+05  1.509312E+04 -6.044117E+04
       246   7 -6.568856E+05 -2.722716E+05 -2.903970E+05 -2.800302E+04 -1.016218E+05 -5.493234E+04
       246   8 -5.590000E+05 -2.234703E+05 -2.034219E+05 -3.410849E+04 -3.608636E+04 -6.905340E+04
       246   9 -4.886618E+05 -1.925949E+05 -1.631600E+05 -2.348081E+04  2.017036E+04 -5.853235E+04
       246  10  1.313918E+06  4.248265E+05  2.071203E+05  4.691741E+05  1.435247E-09 -5.954027E-10
       246  11  1.239588E+06  4.174537E+05  1.645009E+05  4.464706E+05 -4.973950E-10 -5.615383E-09
       246  12  1.154613E+06  4.090693E+05  1.427085E+05  4.404905E+05 -1.374419E-09 -1.376762E-09
       246  13  3.280204E+05  7.625003E+04 -4.161745E+04  2.204065E+05  1.714464E-09 -6.033860E-10
       246  14  3.398700E+05  9.695719E+04 -1.944787E+04  2.060199E+05 -8.744760E-10 -3.214340E-09
       246  15  3.326209E+05  1.082021E+05 -1.021657E+04  2.083620E+05  1.529646E-09  1.554702E-09
       246  16 -6.568975E+05 -2.722776E+05 -2.904221E+05 -2.800751E+04 -1.095667E-09  9.236871E-10
       246  17 -5.590026E+05 -2.234758E+05 -2.034333E+05 -3.411050E+04  1.232877E-09 -9.137119E-10
       246  18 -4.886632E+05 -1.925987E+05 -1.631672E+05 -2.347985E+04  1.667987E-09 -7.845546E-10
       246  19  1.313922E+06  4.248275E+05  2.071269E+05  4.691744E+05 -5.866458E+04 -5.551406E+03
       246  20  1.239590E+06  4.174559E+05  1.645069E+05  4.464693E+05 -3.897188E+04  4.070397E+04
       246  21  1.154615E+06  4.090735E+05  1.427160E+05  4.404900E+05 -1.000869E+04  6.235276E+04
       246  22  3.280211E+05  7.625081E+04 -4.161543E+04  2.204070E+05  2.154984E+04  2.471384E+04
       246  23  3.398708E+05  9.696042E+04 -1.944220E+04  2.060198E+05 -1.413101E+03  5.488912E+04
       246  24  3.326221E+05  1.082061E+05 -1.020928E+04  2.083613E+05 -1.509312E+04  6.044117E+04
       246  25 -6.568856E+05 -2.722716E+05 -2.903970E+05 -2.800302E+04  1.016218E+05  5.493234E+04
       246  26 -5.590000E+05 -2.234703E+05 -2.034219E+05 -3.410849E+04  3.608636E+04  6.905340E+04
       246  27 -4.886618E+05 -1.925949E+05 -1.631600E+05 -2.348081E+04 -2.017036E+04  5.853235E+04
       247   1  1.109110E+06  3.896274E+05  1.347277E+05  4.260092E+05  1.330698E+04 -5.864181E+04
       247   2  1.042378E+06  3.585855E+05  1.213218E+05  3.993802E+05  1.071559E+04 -5.698558E+04
       247   3  9.641861E+05  3.387884E+05  1.091025E+05  3.861134E+05  7.302177E+03 -5.315995E+04
       247   4  3.335532E+05  1.083041E+05 -7.682071E+03  2.092582E+05  1.543176E+04 -5.784713E+04
       247   5  3.397915E+05  1.038802E+05 -4.042369E+03  2.022721E+05  1.659892E+04 -5.476908E+04
       247   6  3.338215E+05  1.099569E+05 -2.193696E+03  2.086475E+05  1.694340E+04 -4.952029E+04
       247   7 -4.413819E+05 -1.729659E+05 -1.501163E+05 -7.243820E+03  1.755374E+04 -5.705351E+04
       247   8 -3.622786E+05 -1.507788E+05 -1.294239E+05  5.370515E+03  2.247520E+04 -5.255525E+04
       247   9 -2.961238E+05 -1.188353E+05 -1.135022E+05  3.134949E+04  2.657422E+04 -4.588458E+04
       247  10  1.109109E+06  3.896236E+05  1.347209E+05  4.260099E+05  1.363228E-09  1.266209E-09
       247  11  1.042377E+06  3.585820E+05  1.213155E+05  3.993807E+05  3.410354E-10 -1.317357E-09
       247  12  9.641853E+05  3.387853E+05  1.090971E+05  3.861138E+05  3.133582E-09 -6.572402E-09
       247  13  3.335520E+05  1.083004E+05 -7.688808E+03  2.092589E+05  1.249665E-09 -4.353262E-10
       247  14  3.397904E+05  1.038769E+05 -4.048525E+03  2.022728E+05  1.557012E-09 -1.649948E-09
       247  15  3.338205E+05  1.099542E+05 -2.198845E+03  2.086481E+05  1.927748E-09 -1.511373E-09
       247  16 -4.413831E+05 -1.729695E+05 -1.501230E+05 -7.243013E+03  1.171433E-09 -1.769767E-09
       247  17 -3.622799E+05 -1.507819E+05 -1.294301E+05  5.371466E+03  1.389663E-09  1.383233E-09
       247  18 -2.961252E+05 -1.188377E+05 -1.135075E+05  3.135047E+04 -1.120950E-09  3.916702E-10
       247  19  1.109110E+06  3.896274E+05  1.347277E+05  4.260092E+05 -1.330698E+04  5.864181E+04
       247  20  1.042378E+06  3.585855E+05  1.213218E+05  3.993802E+05 -1.071559E+04  5.698558E+04
       247  21  9.641861E+05  3.387884E+05  1.091025E+05  3.861134E+05 -7.302177E+03  5.315995E+04
       247  22  3.335532E+05  1.083041E+05 -7.682071E+03  2.092582E+05 -1.543176E+04  5.784713E+04
       247  23  3.397915E+05  1.038802E+05 -4.042369E+03  2.022721E+05 -1.659892E+04  5.476908E+04
       247  24  3.338215E+05  1.099569E+05 -2.193696E+03  2.086475E+05 -1.694340E+04  4.952029E+04
       247  25 -4.413819E+05 -1.729659E+05 -1.501163E+05 -7.243820E+03 -1.755374E+04  5.705351E+04
       247  26 -3.622786E+05 -1.507788E+05 -1.294239E+05  5.370515E+03 -2.247520E+04  5.255525E+04
       247  27 -2.961238E+05 -1.188353E+05 -1.135022E+05  3.134949E+04 -2.657422E+04  4.588458E+04
       248   1  9.175440E+05  3.216611E+05  1.009403E+05  3.729407E+05  6.633922E+03 -4.966808E+04
       248   2  8.514089E+05  2.897850E+05  8.888879E+04  3.460809E+05  4.668347E+03 -4.412116E+04
       248   3  7.736109E+05  2.696034E+05  7.676337E+04  3.324638E+05  2.629103E+03 -3.838609E+04
       248   4  3.339036E+05  1.099746E+05 -1.641888E+03  2.087134E+05  1.600822E+04 -4.612783E+04
       248   5  3.397927E+05  1.042125E+05 -8.820546E+02  2.020789E+05  1.436841E+04 -4.045551E+04
       248   6  3.339471E+05  1.100805E+05 -4.554906E+02  2.086858E+05  1.265491E+04 -3.459492E+04
       248   7 -2.493709E+05 -1.016759E+05 -1.042327E+05  4.463174E+04  2.537304E+04 -4.259116E+04
       248   8 -1.715467E+05 -8.133393E+04 -9.066064E+04  5.818759E+04  2.405996E+04 -3.679308E+04
       248   9 -1.055166E+05 -4.942490E+04 -7.768117E+04  8.498853E+04  2.267325E+04 -3.080657E+04
       248  10  9.175433E+05  3.216584E+05  1.009355E+05  3.729410E+05 -5.034116E-10 -3.963125E-09
       248  11  8.514083E+05  2.897829E+05  8.888510E+04  3.460811E+05  1.464575E-09  3.888902E-09
       248  12  7.736105E+05  2.696018E+05  7.676058E+04  3.324638E+05  2.884904E-10  2.892732E-09
       248  13  3.339028E+05  1.099722E+05 -1.646369E+03  2.087140E+05 -6.734746E-10 -2.149482E-09
       248  14  3.397920E+05  1.042107E+05 -8.855188E+02  2.020794E+05 -2.611752E-09 -2.107326E-09
       248  15  3.339466E+05  1.100791E+05 -4.580411E+02  2.086862E+05 -3.652447E-09 -4.372323E-10
       248  16 -2.493720E+05 -1.016780E+05 -1.042373E+05  4.463261E+04  1.699424E-10  1.985351E-09
       248  17 -1.715477E+05 -8.133554E+04 -9.066427E+04  5.818830E+04 -1.703185E-09 -6.786138E-09
       248  18 -1.055174E+05 -4.942606E+04 -7.768392E+04  8.498910E+04 -2.038602E-09  1.834893E-09
       248  19  9.175440E+05  3.216611E+05  1.009403E+05  3.729407E+05 -6.633922E+03  4.966808E+04
       248  20  8.514089E+05  2.897850E+05  8.888879E+04  3.460809E+05 -4.668347E+03  4.412116E+04
       248  21  7.736109E+05  2.696034E+05  7.676337E+04  3.324638E+05 -2.629103E+03  3.838609E+04
       248  22  3.339036E+05  1.099746E+05 -1.641888E+03  2.087134E+05 -1.600822E+04  4.612783E+04
       248  23  3.397927E+05  1.042125E+05 -8.820546E+02  2.020789E+05 -1.436841E+04  4.045551E+04
       248  24  3.339471E+05  1.100805E+05 -4.554906E+02  2.086858E+05 -1.265491E+04  3.459492E+04
       248  25 -2.493709E+05 -1.016759E+05 -1.042327E+05  4.463174E+04 -2.537304E+04  4.259116E+04
       248  26 -1.715467E+05 -8.133393E+04 -9.066064E+04  5.818759E+04 -2.405996E+04  3.679308E+04
       248  27 -1.055166E+05 -4.942490E+04 -7.768117E+04  8.498853E+04 -2.267325E+04  3.080657E+04
       249   1  7.270048E+05  2.526414E+05  6.835465E+04  3.193696E+05  1.445288E+03 -3.498074E+04
       249   2  6.609938E+05  2.207889E+05  5.613858E+04  2.925210E+05 -7.092458E+02 -2.918972E+04
       249   3  5.833115E+05  2.006247E+05  4.390300E+04  2.789033E+05 -2.870540E+03 -2.338492E+04
       249   4  3.339645E+05  1.100875E+05 -3.197758E+02  2.086876E+05  1.144384E+04 -3.119876E+04
       249   5  3.398155E+05  1.042600E+05 -1.112428E+02  2.020714E+05  9.312896E+03 -2.539739E+04
       249   6  3.339842E+05  1.101154E+05  5.825913E+01  2.086840E+05  7.175194E+03 -1.958225E+04
       249   7 -5.891202E+04 -3.245086E+04 -6.899845E+04  9.807121E+04  2.143566E+04 -2.741934E+04
       249   8  1.874811E+04 -1.225798E+04 -5.636334E+04  1.116660E+05  1.932946E+04 -2.160717E+04
       249   9  8.472537E+04  1.961329E+04 -4.378728E+04  1.384918E+05  1.721653E+04 -1.578124E+04
       249  10  7.270044E+05  2.526401E+05  6.835234E+04  3.193696E+05 -1.053798E-09 -3.750402E-09
       249  11  6.609936E+05  2.207880E+05  5.613698E+04  2.925210E+05 -1.812327E-09  5.539802E-09
       249  12  5.833113E+05  2.006241E+05  4.390196E+04  2.789033E+05  2.248307E-10  2.808462E-09
       249  13  3.339641E+05  1.100864E+05 -3.218514E+02  2.086879E+05 -8.546534E-10  1.376233E-09
       249  14  3.398152E+05  1.042593E+05 -1.126182E+02  2.020716E+05 -5.810214E-09  2.674443E-09
       249  15  3.339840E+05  1.101149E+05  5.744161E+01  2.086841E+05 -2.615266E-09  1.075448E-09
       249  16 -5.891272E+04 -3.245180E+04 -6.900072E+04  9.807169E+04 -2.099680E-09  5.309778E-09
       249  17  1.874758E+04 -1.225859E+04 -5.636492E+04  1.116664E+05 -1.795253E-09  5.533566E-09
       249  18  8.472499E+04  1.961294E+04 -4.378830E+04  1.384921E+05 -1.236436E-09  2.188779E-09
       249  19  7.270048E+05  2.526414E+05  6.835465E+04  3.193696E+05 -1.445288E+03  3.498074E+04
       249  20  6.609938E+05  2.207889E+05  5.613858E+04  2.925210E+05  7.092458E+02  2.918972E+04
       249  21  5.833115E+05  2.006247E+05  4.390300E+04  2.789033E+05  2.870540E+03  2.338492E+04
       249  22  3.339645E+05  1.100875E+05 -3.197758E+02  2.086876E+05 -1.144384E+04  3.119876E+04
       249  23  3.398155E+05  1.042600E+05 -1.112428E+02  2.020714E+05 -9.312896E+03  2.539739E+04
       249  24  3.339842E+05  1.101154E+05  5.825913E+01  2.086840E+05 -7.175194E+03  1.958225E+04
       249  25 -5.891202E+04 -3.245086E+04 -6.899845E+04  9.807121E+04 -2.143566E+04  2.741934E+04
       249  26  1.874811E+04 -1.225798E+04 -5.636334E+04  1.116660E+05 -1.932946E+04  2.160717E+04
       249  27  8.472537E+04  1.961329E+04 -4.378728E+04  1.384918E+05 -1.721653E+04  1.578124E+04
       250   1  5.367559E+05  1.836773E+05  3.546223E+04  2.658226E+05 -4.162161E+03 -2.001384E+04
       250   2  4.707874E+05  1.518335E+05  2.329243E+04  2.390002E+05 -6.521442E+03 -1.428178E+04
       250   3  3.931671E+05  1.316758E+05  1.124659E+04  2.254059E+05 -8.878023E+03 -8.558456E+03
       250   4  3.339965E+05  1.101191E+05  1.430902E+02  2.086851E+05  5.879991E+03 -1.621192E+04
       250   5  3.398257E+05  1.042732E+05  3.640371E+02  2.020735E+05  3.505233E+03 -1.048511E+04
       250   6  3.340020E+05  1.101167E+05  7.212603E+02  2.086886E+05  1.133162E+03 -4.767055E+03
       250   7  1.312788E+05  3.656437E+04 -3.517744E+04  1.515645E+05  1.591875E+04 -1.241129E+04
       250   8  2.088817E+05  5.671454E+04 -2.256465E+04  1.651540E+05  1.352971E+04 -6.689273E+03
       250   9  2.748407E+05  8.855808E+04 -9.803757E+03  1.919728E+05  1.114333E+04 -9.760393E+02
       250  10  5.367558E+05  1.836769E+05  3.546144E+04  2.658226E+05  2.595892E-09  5.211727E-09
       250  11  4.707873E+05  1.518332E+05  2.329196E+04  2.390001E+05  3.185730E-09 -8.034290E-11
       250  12  3.931670E+05  1.316757E+05  1.124630E+04  2.254058E+05  5.543243E-09 -3.498979E-09
       250  13  3.339964E+05  1.101189E+05  1.425312E+02  2.086852E+05 -2.242346E-09  1.543030E-09
       250  14  3.398257E+05  1.042731E+05  3.638074E+02  2.020735E+05  4.438264E-09  1.657684E-09
       250  15  3.340020E+05  1.101167E+05  7.212151E+02  2.086886E+05  1.385083E-09  1.854428E-09
       250  16  1.312785E+05  3.656413E+04 -3.517821E+04  1.515646E+05 -3.412302E-09 -1.238178E-09
       250  17  2.088814E+05  5.671444E+04 -2.256507E+04  1.651540E+05 -3.335484E-09 -3.338205E-09
       250  18  2.748406E+05  8.855805E+04 -9.803992E+03  1.919728E+05 -2.605496E-09 -2.305754E-09
       250  19  5.367559E+05  1.836773E+05  3.546223E+04  2.658226E+05  4.162161E+03  2.001384E+04
       250  20  4.707874E+05  1.518335E+05  2.329243E+04  2.390002E+05  6.521442E+03  1.428178E+04
       250  21  3.931671E+05  1.316758E+05  1.124659E+04  2.254059E+05  8.878023E+03  8.558456E+03
       250  22  3.339965E+05  1.101191E+05  1.430902E+02  2.086851E+05 -5.879991E+03  1.621192E+04
       250  23  3.398257E+05  1.042732E+05  3.640371E+02  2.020735E+05 -3.505233E+03  1.048511E+04
       250  24  3.340020E+05  1.101167E+05  7.212603E+02  2.086886E+05 -1.133162E+03  4.767055E+03
       250  25  1.312788E+05  3.656437E+04 -3.517744E+04  1.515645E+05 -1.591875E+04  1.241129E+04
       250  26  2.088817E+05  5.671454E+04 -2.256465E+04  1.651540E+05 -1.352971E+04  6.689273E+03
       250  27  2.748407E+05  8.855808E+04 -9.803757E+03  1.919728E+05 -1.114333E+04  9.760393E+02
       251   1  3.466403E+05  1.147398E+05  2.974779E+03  2.123609E+05 -1.030678E+04 -5.244873E+03
       251   2  2.806276E+05  8.287990E+04 -8.666491E+03  1.855473E+05 -1.319467E+04  2.220836E+02
       251   3  2.030715E+05  6.278912E+04 -1.975335E+04  1.719604E+05 -1.604293E+04  5.585619E+03
       251   4  3.340294E+05  1.101111E+05  9.770278E+02  2.087001E+05 -2.840390E+02 -1.449009E+03
       251   5  3.397897E+05  1.042462E+05  1.795639E+03  2.020732E+05 -3.351813E+03  3.949547E+03
       251   6  3.340365E+05  1.101851E+05  3.310737E+03  2.086705E+05 -6.380066E+03  9.244681E+03
       251   7  3.214189E+05  1.054826E+05 -1.020259E+03  2.050396E+05  9.738391E+03  2.346733E+03
       251   8  3.989557E+05  1.256129E+05  1.225807E+04  2.186007E+05  6.492047E+03  7.677383E+03
       251   9  4.650211E+05  1.575833E+05  2.637504E+04  2.453883E+05  3.285070E+03  1.290459E+04
       251  10  3.466402E+05  1.147398E+05  2.974528E+03  2.123608E+05 -1.712034E-09 -4.355082E-10
       251  11  2.806274E+05  8.287986E+04 -8.666818E+03  1.855473E+05 -1.551397E-09  1.792390E-09
       251  12  2.030712E+05  6.278901E+04 -1.975389E+04  1.719605E+05  3.157051E-09  7.657936E-09
       251  13  3.340294E+05  1.101111E+05  9.770237E+02  2.087001E+05  3.412022E-09 -2.417133E-09
       251  14  3.397897E+05  1.042462E+05  1.795588E+03  2.020732E+05  4.215725E-09 -3.426641E-09
       251  15  3.340364E+05  1.101850E+05  3.310499E+03  2.086706E+05 -1.202693E-10  9.306871E-10
       251  16  3.214188E+05  1.054826E+05 -1.020448E+03  2.050396E+05  5.239322E-09 -1.841068E-09
       251  17  3.989557E+05  1.256128E+05  1.225788E+04  2.186006E+05  2.017668E-09 -3.140639E-09
       251  18  4.650210E+05  1.575831E+05  2.637471E+04  2.453883E+05 -3.543640E-09 -1.944809E-09
       251  19  3.466403E+05  1.147398E+05  2.974779E+03  2.123609E+05  1.030678E+04  5.244873E+03
       251  20  2.806276E+05  8.287990E+04 -8.666491E+03  1.855473E+05  1.319467E+04 -2.220836E+02
       251  21  2.030715E+05  6.278912E+04 -1.975335E+04  1.719604E+05  1.604293E+04 -5.585619E+03
       251  22  3.340294E+05  1.101111E+05  9.770278E+02  2.087001E+05  2.840390E+02  1.449009E+03
       251  23  3.397897E+05  1.042462E+05  1.795639E+03  2.020732E+05  3.351813E+03 -3.949547E+03
       251  24  3.340365E+05  1.101851E+05  3.310737E+03  2.086705E+05  6.380066E+03 -9.244681E+03
       251  25  3.214189E+05  1.054826E+05 -1.020259E+03  2.050396E+05 -9.738391E+03 -2.346733E+03
       251  26  3.989557E+05  1.256129E+05  1.225807E+04  2.186007E+05 -6.492047E+03 -7.677383E+03
       251  27  4.650211E+05  1.575833E+05  2.637504E+04  2.453883E+05 -3.285070E+03 -1.290459E+04
       252   1  1.564478E+05  4.598644E+04 -2.726020E+04  1.592255E+05 -1.805124E+04  8.619332E+03
       252   2  9.083248E+04  1.382568E+04 -3.685183E+04  1.313757E+05 -2.201556E+04  1.292438E+04
       252   3  1.456248E+04 -4.871075E+03 -4.442510E+04  1.162924E+05 -2.553408E+04  1.605516E+04
       252   4  3.342399E+05  1.101346E+05  4.418480E+03  2.087595E+05 -8.246812E+03  1.233162E+04
       252   5  3.395859E+05  1.047618E+05  8.102409E+03  2.017842E+05 -1.424592E+04  1.586519E+04
       252   6  3.346744E+05  1.132545E+05  1.541652E+04  2.075725E+05 -1.979955E+04  1.822465E+04
       252   7  5.120655E+05  1.742857E+05  3.609651E+04  2.583067E+05  1.560607E+03  1.604502E+04
       252   8  5.884033E+05  1.957036E+05  5.305438E+04  2.722186E+05 -6.472997E+03  1.880725E+04
       252   9  6.548904E+05  2.313892E+05  7.525335E+04  2.988958E+05 -1.406191E+04  2.039536E+04
       252  10  1.564475E+05  4.598627E+04 -2.726095E+04  1.592256E+05  1.289209E-09  3.240655E-10
       252  11  9.083192E+04  1.382537E+04 -3.685305E+04  1.313759E+05  2.183517E-09  5.797859E-11
       252  12  1.456171E+04 -4.871527E+03 -4.442681E+04  1.162927E+05  3.417510E-09  5.073600E-10
       252  13  3.342398E+05  1.101344E+05  4.418067E+03  2.087596E+05 -4.426510E-10  6.416191E-09
       252  14  3.395857E+05  1.047614E+05  8.101554E+03  2.017843E+05  2.765563E-09  5.888636E-10
       252  15  3.346739E+05  1.132540E+05  1.541516E+04  2.075728E+05  3.793072E-10  1.725419E-09
       252  16  5.120654E+05  1.742855E+05  3.609602E+04  2.583067E+05 -1.591316E-09 -9.937028E-10
       252  17  5.884032E+05  1.957032E+05  5.305364E+04  2.722187E+05  8.062922E-10 -6.146749E-09
       252  18  6.548900E+05  2.313887E+05  7.525220E+04  2.988960E+05 -1.284800E-09  1.041827E-09
       252  19  1.564478E+05  4.598644E+04 -2.726020E+04  1.592255E+05  1.805124E+04 -8.619332E+03
       252  20  9.083248E+04  1.382568E+04 -3.685183E+04  1.313757E+05  2.201556E+04 -1.292438E+04
       252  21  1.456248E+04 -4.871075E+03 -4.442510E+04  1.162924E+05  2.553408E+04 -1.605516E+04
       252  22  3.342399E+05  1.101346E+05  4.418480E+03  2.087595E+05  8.246812E+03 -1.233162E+04
       252  23  3.395859E+05  1.047618E+05  8.102409E+03  2.017842E+05  1.424592E+04 -1.586519E+04
       252  24  3.346744E+05  1.132545E+05  1.541652E+04  2.075725E+05  1.979955E+04 -1.822465E+04
       252  25  5.120655E+05  1.742857E+05  3.609651E+04  2.583067E+05 -1.560607E+03 -1.604502E+04
       252  26  5.884033E+05  1.957036E+05  5.305438E+04  2.722186E+05  6.472997E+03 -1.880725E+04
       252  27  6.548904E+05  2.313892E+05  7.525335E+04  2.988958E+05  1.406191E+04 -2.039536E+04
       253   1 -3.382660E+04 -1.916018E+04 -4.893312E+04  1.082245E+05 -3.047007E+04  1.728683E+04
       253   2 -8.571198E+04 -5.684915E+04 -5.288871E+04  5.647891E+04 -2.680515E+04  1.591570E+04
       253   3 -1.353982E+05 -4.801953E+04 -4.906555E+04  7.296715E+03 -1.810825E+04  1.237522E+03
       253   4  3.371874E+05  1.127269E+05  2.049206E+04  2.086290E+05 -2.314297E+04  2.005872E+04
       253   5  3.383884E+05  1.192572E+05  3.898183E+04  1.952077E+05 -4.250900E+04  9.970707E+03
       253   6  3.463385E+05  1.768511E+05  8.350164E+04  1.843505E+05 -5.684582E+04 -1.341954E+04
       253   7  7.083505E+05  2.446271E+05  8.991353E+04  3.090900E+05 -1.581107E+04  2.283231E+04
       253   8  7.626744E+05  2.953930E+05  1.308429E+05  3.340288E+05 -5.822434E+04  4.020096E+03
       253   9  8.283010E+05  4.017727E+05  2.160518E+05  3.615387E+05 -9.561548E+04 -2.809553E+04
       253  10 -3.382768E+04 -1.916075E+04 -4.893543E+04  1.082250E+05 -1.925389E-08 -6.438611E-09
       253  11 -8.571282E+04 -5.684962E+04 -5.289054E+04  5.647926E+04 -3.020709E-09  2.439328E-09
       253  12 -1.353985E+05 -4.801962E+04 -4.906617E+04  7.296733E+03  1.836050E-08  1.038585E-08
       253  13  3.371867E+05  1.127263E+05  2.049029E+04  2.086294E+05  7.181658E-10 -9.942660E-09
       253  14  3.383865E+05  1.192566E+05  3.897825E+04  1.952081E+05 -5.966710E-09 -4.414113E-09
       253  15  3.463350E+05  1.768501E+05  8.349524E+04  1.843499E+05 -1.091314E-09 -1.725287E-09
       253  16  7.083501E+05  2.446265E+05  8.991208E+04  3.090903E+05  1.759827E-08  9.680264E-09
       253  17  7.626708E+05  2.953920E+05  1.308365E+05  3.340290E+05 -6.022970E-09 -8.211633E-09
       253  18  8.282910E+05  4.017694E+05  2.160331E+05  3.615366E+05 -2.220112E-08 -1.066131E-08
       253  19 -3.382660E+04 -1.916018E+04 -4.893312E+04  1.082245E+05  3.047007E+04 -1.728683E+04
       253  20 -8.571198E+04 -5.684915E+04 -5.288871E+04  5.647891E+04  2.680515E+04 -1.591570E+04
       253  21 -1.353982E+05 -4.801953E+04 -4.906555E+04  7.296715E+03  1.810825E+04 -1.237522E+03
       253  22  3.371874E+05  1.127269E+05  2.049206E+04  2.086290E+05  2.314297E+04 -2.005872E+04
       253  23  3.383884E+05  1.192572E+05  3.898183E+04  1.952077E+05  4.250900E+04 -9.970707E+03
       253  24  3.463385E+05  1.768511E+05  8.350164E+04  1.843505E+05  5.684582E+04  1.341954E+04
       253  25  7.083505E+05  2.446271E+05  8.991353E+04  3.090900E+05  1.581107E+04 -2.283231E+04
       253  26  7.626744E+05  2.953930E+05  1.308429E+05  3.340288E+05  5.822434E+04 -4.020096E+03
       253  27  8.283010E+05  4.017727E+05  2.160518E+05  3.615387E+05  9.561548E+04  2.809553E+04
       254   1  2.153366E+05  3.164068E+04  2.605807E+04  3.124875E+03 -1.294524E+04 -2.181957E+03
       254   2  2.013953E+05  4.880914E+04  3.381539E+04  1.924914E+03 -9.784228E+03 -6.463405E+03
       254   3  1.813057E+05  4.330076E+04  3.384253E+04  1.219241E+04 -6.640162E+03 -6.019274E+03
       254   4  1.082819E+04 -1.927103E+04 -2.428366E+04  9.118490E+03 -1.661622E+04 -2.195128E+03
       254   5  1.413053E+04  2.476297E+03 -1.068191E+04  3.348182E+03 -1.084760E+04 -6.467433E+03
       254   6  1.082967E+04  1.090320E+03 -6.622931E+03  9.045640E+03 -5.095821E+03 -6.013573E+03
       254   7 -1.936420E+05 -7.018570E+04 -7.462841E+04  1.511009E+04 -2.028598E+04 -2.208372E+03
       254   8 -1.731020E+05 -4.385906E+04 -5.518165E+04  4.770990E+03 -1.191065E+04 -6.471465E+03
       254   9 -1.596196E+05 -4.112217E+04 -4.709041E+04  5.899711E+03 -3.551901E+03 -6.007888E+03
       254  10  2.153364E+05  3.164063E+04  2.605775E+04  3.124852E+03 -5.381108E-09  1.954857E-09
       254  11  2.013951E+05  4.880907E+04  3.381513E+04  1.924863E+03 -1.666708E-10  1.465531E-08
       254  12  1.813056E+05  4.330070E+04  3.384238E+04  1.219238E+04  2.284349E-09  7.251553E-09
       254  13  1.082790E+04 -1.927111E+04 -2.428419E+04  9.118460E+03 -1.393703E-10 -3.017630E-09
       254  14  1.413040E+04  2.476220E+03 -1.068221E+04  3.348126E+03  2.021487E-09 -8.534908E-09
       254  15  1.082963E+04  1.090274E+03 -6.623048E+03  9.045615E+03  9.860707E-10  3.028048E-09
       254  16 -1.936425E+05 -7.018581E+04 -7.462919E+04  1.511006E+04  4.818248E-09  1.059852E-09
       254  17 -1.731022E+05 -4.385915E+04 -5.518200E+04  4.770928E+03 -2.147276E-09  1.213377E-08
       254  18 -1.596197E+05 -4.112221E+04 -4.709050E+04  5.899694E+03 -3.215992E-09 -1.113921E-10
       254  19  2.153366E+05  3.164068E+04  2.605807E+04  3.124875E+03  1.294524E+04  2.181957E+03
       254  20  2.013953E+05  4.880914E+04  3.381539E+04  1.924914E+03  9.784228E+03  6.463405E+03
       254  21  1.813057E+05  4.330076E+04  3.384253E+04  1.219241E+04  6.640162E+03  6.019274E+03
       254  22  1.082819E+04 -1.927103E+04 -2.428366E+04  9.118490E+03  1.661622E+04  2.195128E+03
       254  23  1.413053E+04  2.476297E+03 -1.068191E+04  3.348182E+03  1.084760E+04  6.467433E+03
       254  24  1.082967E+04  1.090320E+03 -6.622931E+03  9.045640E+03  5.095821E+03  6.013573E+03
       254  25 -1.936420E+05 -7.018570E+04 -7.462841E+04  1.511009E+04  2.028598E+04  2.208372E+03
       254  26 -1.731020E+05 -4.385906E+04 -5.518165E+04  4.770990E+03  1.191065E+04  6.471465E+03
       254  27 -1.596196E+05 -4.112217E+04 -4.709041E+04  5.899711E+03  3.551901E+03  6.007888E+03
       255   1  1.619196E+05  3.526119E+04  3.028800E+04  8.947795E+03 -4.209441E+03 -4.943685E+03
       255   2  1.453881E+05  3.316015E+04  2.881789E+04  3.558945E+03 -2.974015E+03 -4.553203E+03
       255   3  1.280575E+05  2.888231E+04  2.597984E+04  9.707539E+03 -1.740019E+03 -3.846678E+03
       255   4  1.211430E+04 -1.828733E+03 -5.387969E+03  9.088739E+03 -4.083031E+03 -4.943288E+03
       255   5  1.252985E+04  2.746656E+02 -2.761533E+03  3.316107E+03 -2.673425E+03 -4.552107E+03
       255   6  1.211530E+04  1.706855E+02 -1.624289E+03  9.081089E+03 -1.265217E+03 -3.844854E+03
       255   7 -1.376704E+05 -3.892028E+04 -4.106551E+04  9.229629E+03 -3.956652E+03 -4.942891E+03
       255   8 -1.203122E+05 -3.261209E+04 -3.434219E+04  3.073305E+03 -2.372898E+03 -4.551011E+03
       255   9 -1.038146E+05 -2.854191E+04 -2.922936E+04  8.454744E+03 -7.905034E+02 -3.843031E+03
       255  10  1.619196E+05  3.526116E+04  3.028792E+04  8.947778E+03  2.464685E-09  8.635604E-10
       255  11  1.453881E+05  3.316013E+04  2.881783E+04  3.558935E+03 -1.436117E-09 -9.375017E-10
       255  12  1.280575E+05  2.888229E+04  2.597980E+04  9.707533E+03 -5.597690E-10  6.275917E-09
       255  13  1.211427E+04 -1.828764E+03 -5.388046E+03  9.088722E+03  2.076860E-09  1.263582E-08
       255  14  1.252984E+04  2.746414E+02 -2.761586E+03  3.316097E+03 -5.542918E-10 -2.184797E-08
       255  15  1.211530E+04  1.706692E+02 -1.624319E+03  9.081085E+03  1.963424E-09  9.278629E-09
       255  16 -1.376705E+05 -3.892031E+04 -4.106559E+04  9.229613E+03 -2.421278E-09 -1.039871E-08
       255  17 -1.203123E+05 -3.261212E+04 -3.434224E+04  3.073297E+03  7.245949E-10 -4.837220E-09
       255  18 -1.038146E+05 -2.854192E+04 -2.922938E+04  8.454741E+03 -7.028171E-10  1.841777E-09
       255  19  1.619196E+05  3.526119E+04  3.028800E+04  8.947795E+03  4.209441E+03  4.943685E+03
       255  20  1.453881E+05  3.316015E+04  2.881789E+04  3.558945E+03  2.974015E+03  4.553203E+03
       255  21  1.280575E+05  2.888231E+04  2.597984E+04  9.707539E+03  1.740019E+03  3.846678E+03
       255  22  1.211430E+04 -1.828733E+03 -5.387969E+03  9.088739E+03  4.083031E+03  4.943288E+03
       255  23  1.252985E+04  2.746656E+02 -2.761533E+03  3.316107E+03  2.673425E+03  4.552107E+03
       255  24  1.211530E+04  1.706855E+02 -1.624289E+03  9.081089E+03  1.265217E+03  3.844854E+03
       255  25 -1.376704E+05 -3.892028E+04 -4.106551E+04  9.229629E+03  3.956652E+03  4.942891E+03
       255  26 -1.203122E+05 -3.261209E+04 -3.434219E+04  3.073305E+03  2.372898E+03  4.551011E+03
       255  27 -1.038146E+05 -2.854191E+04 -2.922936E+04  8.454744E+03  7.905034E+02  3.843031E+03
       256   1  1.075559E+05  2.346907E+04  2.134816E+04  9.333024E+03 -1.392471E+03 -3.382451E+03
       256   2  9.073006E+04  1.945426E+04  1.795727E+04  3.549004E+03 -1.069566E+03 -2.682631E+03
       256   3  7.371922E+04  1.530789E+04  1.429955E+04  9.305031E+03 -7.468605E+02 -1.961728E+03
       256   4  1.225940E+04 -1.117081E+02 -1.260937E+03  9.084525E+03 -1.012558E+03 -3.380975E+03
       256   5  1.235320E+04  5.257667E+01 -6.734638E+02  3.314063E+03 -6.780627E+02 -2.681083E+03
       256   6  1.225999E+04  8.335099E+01 -3.608389E+02  9.083738E+03 -3.437573E+02 -1.960104E+03
       256   7 -8.302880E+04 -2.369314E+04 -2.387066E+04  8.836056E+03 -6.327026E+02 -3.379500E+03
       256   8 -6.601803E+04 -1.934955E+04 -1.930463E+04  3.079147E+03 -2.866080E+02 -2.679534E+03
       256   9 -4.919578E+04 -1.514146E+04 -1.502149E+04  8.862464E+03  5.930622E+01 -1.958480E+03
       256  10  1.075559E+05  2.346906E+04  2.134813E+04  9.333020E+03  4.735227E-09 -9.148032E-09
       256  11  9.073005E+04  1.945425E+04  1.795726E+04  3.549002E+03 -2.290290E-10 -8.925679E-09
       256  12  7.371922E+04  1.530789E+04  1.429954E+04  9.305030E+03 -2.226555E-09 -5.182105E-09
       256  13  1.225939E+04 -1.117207E+02 -1.260960E+03  9.084522E+03 -4.128447E-12 -6.455051E-09
       256  14  1.235319E+04  5.256883E+01 -6.734781E+02  3.314062E+03 -3.212855E-09 -1.324418E-08
       256  15  1.225999E+04  8.334683E+01 -3.608463E+02  9.083738E+03  3.260504E-09 -6.118981E-09
       256  16 -8.302881E+04 -2.369315E+04 -2.387068E+04  8.836055E+03 -6.319864E-09 -8.097355E-09
       256  17 -6.601803E+04 -1.934956E+04 -1.930464E+04  3.079146E+03 -1.607673E-11  5.620457E-09
       256  18 -4.919578E+04 -1.514147E+04 -1.502150E+04  8.862464E+03  2.209068E-09  1.020283E-08
       256  19  1.075559E+05  2.346907E+04  2.134816E+04  9.333024E+03  1.392471E+03  3.382451E+03
       256  20  9.073006E+04  1.945426E+04  1.795727E+04  3.549004E+03  1.069566E+03  2.682631E+03
       256  21  7.371922E+04  1.530789E+04  1.429955E+04  9.305031E+03  7.468605E+02  1.961728E+03
       256  22  1.225940E+04 -1.117081E+02 -1.260937E+03  9.084525E+03  1.012558E+03  3.380975E+03
       256  23  1.235320E+04  5.257667E+01 -6.734638E+02  3.314063E+03  6.780627E+02  2.681083E+03
       256  24  1.225999E+04  8.335099E+01 -3.608389E+02  9.083738E+03  3.437573E+02  1.960104E+03
       256  25 -8.302880E+04 -2.369314E+04 -2.387066E+04  8.836056E+03  6.327026E+02  3.379500E+03
       256  26 -6.601803E+04 -1.934955E+04 -1.930463E+04  3.079147E+03  2.866080E+02  2.679534E+03
       256  27 -4.919578E+04 -1.514146E+04 -1.502149E+04  8.862464E+03 -5.930622E+01  1.958480E+03
       257   1  5.309857E+04  1.015146E+04  9.400176E+03  9.211436E+03 -6.873489E+02 -1.539036E+03
       257   2  3.623455E+04  5.946950E+03  5.608916E+03  3.393184E+03 -6.543252E+02 -8.195221E+02
       257   3  1.926818E+04  1.818668E+03  1.789873E+03  9.112612E+03 -6.213417E+02 -9.871870E+01
       257   4  1.227929E+04  5.678350E+01 -2.523075E+02  9.083491E+03 -2.905819E+02 -1.537425E+03
       257   5  1.233076E+04  2.945145E+01 -7.339955E+01  3.314589E+03 -2.568549E+02 -8.179003E+02
       257   6  1.227947E+04  7.824512E+01  7.724865E+01  9.083392E+03 -2.231672E+02 -9.708488E+01
       257   7 -2.853846E+04 -1.003801E+04 -9.904906E+03  8.955552E+03  1.061592E+02 -1.535814E+03
       257   8 -1.157252E+04 -5.888088E+03 -5.755754E+03  3.235995E+03  1.406002E+02 -8.162785E+02
       257   9  5.290807E+03 -1.662182E+03 -1.635378E+03  9.054172E+03  1.750028E+02 -9.545109E+01
       257  10  5.309857E+04  1.015146E+04  9.400171E+03  9.211435E+03  4.822441E-11 -1.114029E-08
       257  11  3.623455E+04  5.946949E+03  5.608914E+03  3.393184E+03 -3.106147E-09  3.605237E-09
       257  12  1.926818E+04  1.818668E+03  1.789872E+03  9.112612E+03 -6.312870E-09 -3.602668E-09
       257  13  1.227929E+04  5.678093E+01 -2.523121E+02  9.083490E+03 -3.424128E-12  2.412962E-09
       257  14  1.233075E+04  2.945072E+01 -7.340093E+01  3.314588E+03  1.672883E-11 -1.125084E-08
       257  15  1.227947E+04  7.824509E+01  7.724854E+01  9.083392E+03  7.379374E-11 -8.333276E-09
       257  16 -2.853846E+04 -1.003802E+04 -9.904910E+03  8.955553E+03 -8.919111E-10  8.780566E-09
       257  17 -1.157252E+04 -5.888089E+03 -5.755755E+03  3.235995E+03  8.952710E-10  1.543460E-08
       257  18  5.290807E+03 -1.662182E+03 -1.635378E+03  9.054172E+03  2.626040E-09 -3.339866E-10
       257  19  5.309857E+04  1.015146E+04  9.400176E+03  9.211436E+03  6.873489E+02  1.539036E+03
       257  20  3.623455E+04  5.946950E+03  5.608916E+03  3.393184E+03  6.543252E+02  8.195221E+02
       257  21  1.926818E+04  1.818668E+03  1.789873E+03  9.112612E+03  6.213417E+02  9.871870E+01
       257  22  1.227929E+04  5.678350E+01 -2.523075E+02  9.083491E+03  2.905819E+02  1.537425E+03
       257  23  1.233076E+04  2.945145E+01 -7.339955E+01  3.314589E+03  2.568549E+02  8.179003E+02
       257  24  1.227947E+04  7.824512E+01  7.724865E+01  9.083392E+03  2.231672E+02  9.708488E+01
       257  25 -2.853846E+04 -1.003801E+04 -9.904906E+03  8.955552E+03 -1.061592E+02  1.535814E+03
       257  26 -1.157252E+04 -5.888088E+03 -5.755754E+03  3.235995E+03 -1.406002E+02  8.162785E+02
       257  27  5.290807E+03 -1.662182E+03 -1.635378E+03  9.054172E+03 -1.750028E+02  9.545109E+01
       258   1 -1.359207E+03 -3.317590E+03 -3.138494E+03  9.052574E+03 -6.442810E+02  3.211119E+02
       258   2 -1.824500E+04 -7.546019E+03 -6.903559E+03  3.228449E+03 -8.262301E+02  1.041065E+03
       258   3 -3.518799E+04 -1.163238E+04 -1.053986E+04  8.942314E+03 -1.008123E+03  1.759673E+03
       258   4  1.228947E+04  7.139216E+01  1.573277E+02  9.083531E+03 -2.460987E+02  3.227449E+02
       258   5  1.231815E+04  2.013483E+01  3.620006E+02  3.314467E+03 -4.288071E+02  1.042684E+03
       258   6  1.228924E+04  1.110316E+02  6.959021E+02  9.083356E+03 -6.114638E+02  1.761278E+03
       258   7  2.593831E+04  3.460361E+03  3.453136E+03  9.114488E+03  1.520922E+02  3.243780E+02
       258   8  4.288215E+04  7.586221E+03  7.627495E+03  3.400488E+03 -3.136461E+01  1.044302E+03
       258   9  5.976853E+04  1.185428E+04  1.193151E+04  9.224406E+03 -2.147746E+02  1.762883E+03
       258  10 -1.359207E+03 -3.317590E+03 -3.138494E+03  9.052575E+03 -2.749843E-09 -1.875832E-09
       258  11 -1.824500E+04 -7.546020E+03 -6.903562E+03  3.228450E+03  2.753312E-10 -9.471791E-09
       258  12 -3.518799E+04 -1.163238E+04 -1.053987E+04  8.942315E+03 -4.949074E-09 -4.344578E-09
       258  13  1.228947E+04  7.139203E+01  1.573274E+02  9.083531E+03 -1.042781E-09  5.822844E-09
       258  14  1.231815E+04  2.013361E+01  3.619982E+02  3.314467E+03 -2.106256E-09 -8.265712E-09
       258  15  1.228923E+04  1.110282E+02  6.958955E+02  9.083357E+03  4.366504E-09 -4.990777E-09
       258  16  2.593831E+04  3.460361E+03  3.453136E+03  9.114488E+03  1.977651E-09 -2.891710E-09
       258  17  4.288215E+04  7.586220E+03  7.627493E+03  3.400488E+03 -1.298577E-09 -1.647315E-08
       258  18  5.976853E+04  1.185428E+04  1.193151E+04  9.224407E+03  5.401856E-09 -8.487760E-09
       258  19 -1.359207E+03 -3.317590E+03 -3.138494E+03  9.052574E+03  6.442810E+02 -3.211119E+02
       258  20 -1.824500E+04 -7.546019E+03 -6.903559E+03  3.228449E+03  8.262301E+02 -1.041065E+03
       258  21 -3.518799E+04 -1.163238E+04 -1.053986E+04  8.942314E+03  1.008123E+03 -1.759673E+03
       258  22  1.228947E+04  7.139216E+01  1.573277E+02  9.083531E+03  2.460987E+02 -3.227449E+02
       258  23  1.231815E+04  2.013483E+01  3.620006E+02  3.314467E+03  4.288071E+02 -1.042684E+03
       258  24  1.228924E+04  1.110316E+02  6.959021E+02  9.083356E+03  6.114638E+02 -1.761278E+03
       258  25  2.593831E+04  3.460361E+03  3.453136E+03  9.114488E+03 -1.520922E+02 -3.243780E+02
       258  26  4.288215E+04  7.586221E+03  7.627495E+03  3.400488E+03  3.136461E+01 -1.044302E+03
       258  27  5.976853E+04  1.185428E+04  1.193151E+04  9.224406E+03  2.147746E+02 -1.762883E+03
       259   1 -5.578105E+04 -1.682138E+04 -1.532105E+04  8.951424E+03 -1.161598E+03  2.181637E+03
       259   2 -7.277194E+04 -2.108883E+04 -1.860422E+04  3.054944E+03 -1.958526E+03  2.898147E+03
       259   3 -8.961394E+04 -2.474151E+04 -2.123839E+04  8.695222E+03 -2.755239E+03  3.592975E+03
       259   4  1.233492E+04  5.122814E+01  9.227486E+02  9.083723E+03 -7.584292E+02  2.183254E+03
       259   5  1.225914E+04 -3.780530E+01  1.610269E+03  3.314513E+03 -1.567426E+03  2.899684E+03
       259   6  1.233427E+04  4.900530E+02  2.955181E+03  9.081963E+03 -2.376230E+03  3.594434E+03
       259   7  8.045514E+04  1.692350E+04  1.716622E+04  9.216032E+03 -3.552164E+02  2.184872E+03
       259   8  9.729685E+04  2.101269E+04  2.182425E+04  3.574112E+03 -1.176273E+03  2.901222E+03
       259   9  1.142920E+05  2.572087E+04  2.714802E+04  9.468759E+03 -1.997159E+03  3.595894E+03
       259  10 -5.578106E+04 -1.682138E+04 -1.532106E+04  8.951427E+03 -1.971725E-09  1.257013E-09
       259  11 -7.277194E+04 -2.108884E+04 -1.860424E+04  3.054948E+03 -1.278120E-09 -1.067770E-08
       259  12 -8.961395E+04 -2.474153E+04 -2.123842E+04  8.695230E+03  2.907305E-09  9.398266E-10
       259  13  1.233491E+04  5.122287E+01  9.227385E+02  9.083724E+03  2.174746E-09 -7.354618E-09
       259  14  1.225913E+04 -3.781499E+01  1.610248E+03  3.314517E+03  3.231240E-09 -5.294938E-09
       259  15  1.233426E+04  4.900377E+02  2.955146E+03  9.081970E+03  5.334617E-09  4.584686E-09
       259  16  8.045514E+04  1.692349E+04  1.716621E+04  9.216033E+03  1.500604E-09  1.252610E-09
       259  17  9.729684E+04  2.101269E+04  2.182423E+04  3.574115E+03 -2.322539E-11 -9.056788E-09
       259  18  1.142920E+05  2.572086E+04  2.714799E+04  9.468765E+03  1.336811E-10  8.084666E-09
       259  19 -5.578105E+04 -1.682138E+04 -1.532105E+04  8.951424E+03  1.161598E+03 -2.181637E+03
       259  20 -7.277194E+04 -2.108883E+04 -1.860422E+04  3.054944E+03  1.958526E+03 -2.898147E+03
       259  21 -8.961394E+04 -2.474151E+04 -2.123839E+04  8.695222E+03  2.755239E+03 -3.592975E+03
       259  22  1.233492E+04  5.122814E+01  9.227486E+02  9.083723E+03  7.584292E+02 -2.183254E+03
       259  23  1.225914E+04 -3.780530E+01  1.610269E+03  3.314513E+03  1.567426E+03 -2.899684E+03
       259  24  1.233427E+04  4.900530E+02  2.955181E+03  9.081963E+03  2.376230E+03 -3.594434E+03
       259  25  8.045514E+04  1.692350E+04  1.716622E+04  9.216032E+03  3.552164E+02 -2.184872E+03
       259  26  9.729685E+04  2.101269E+04  2.182425E+04  3.574112E+03  1.176273E+03 -2.901222E+03
       259  27  1.142920E+05  2.572087E+04  2.714802E+04  9.468759E+03  1.997159E+03 -3.595894E+03
       260   1 -1.099223E+05 -3.051719E+04 -2.539341E+04  9.377821E+03 -3.450481E+03  4.054597E+03
       260   2 -1.276695E+05 -3.510471E+04 -2.674492E+04  2.582197E+03 -6.553140E+03  4.744231E+03
       260   3 -1.437558E+05 -3.429708E+04 -2.474730E+04  7.306960E+03 -9.654310E+03  5.108561E+03
       260   4  1.267532E+04 -1.629914E+02  3.794872E+03  9.084913E+03 -2.973829E+03  4.056416E+03
       260   5  1.182911E+04 -5.652570E+02  6.419133E+03  3.316031E+03 -6.256695E+03  4.745295E+03
       260   6  1.267433E+04  4.458227E+03  1.251712E+04  9.067347E+03 -9.538156E+03  5.108892E+03
       260   7  1.352867E+05  3.019013E+04  3.298210E+04  8.791934E+03 -2.497083E+03  4.058234E+03
       260   8  1.513456E+05  3.397279E+04  3.958183E+04  4.050013E+03 -5.960184E+03  4.746358E+03
       260   9  1.691269E+05  4.321178E+04  4.977982E+04  1.082816E+04 -9.421973E+03  5.109223E+03
       260  10 -1.099223E+05 -3.051722E+04 -2.539346E+04  9.377832E+03  9.896901E-09  3.074778E-09
       260  11 -1.276695E+05 -3.510474E+04 -2.674505E+04  2.582222E+03  2.108206E-09  9.819932E-09
       260  12 -1.437559E+05 -3.429714E+04 -2.474752E+04  7.307000E+03 -2.819805E-09 -3.019947E-09
       260  13  1.267531E+04 -1.630115E+02  3.794825E+03  9.084923E+03  1.060738E-09 -8.440644E-09
       260  14  1.182906E+04 -5.652917E+02  6.419018E+03  3.316055E+03  2.651950E-09  3.270833E-09
       260  15  1.267423E+04  4.458174E+03  1.251690E+04  9.067386E+03  2.921162E-09  3.110809E-09
       260  16  1.352867E+05  3.019011E+04  3.298206E+04  8.791942E+03 -7.773064E-09 -2.178951E-09
       260  17  1.513455E+05  3.397276E+04  3.958172E+04  4.050036E+03 -2.521820E-09 -1.838455E-08
       260  18  1.691268E+05  4.321173E+04  4.977960E+04  1.082820E+04  3.113398E-09  8.127704E-10
       260  19 -1.099223E+05 -3.051719E+04 -2.539341E+04  9.377821E+03  3.450481E+03 -4.054597E+03
       260  20 -1.276695E+05 -3.510471E+04 -2.674492E+04  2.582197E+03  6.553140E+03 -4.744231E+03
       260  21 -1.437558E+05 -3.429708E+04 -2.474730E+04  7.306960E+03  9.654310E+03 -5.108561E+03
       260  22  1.267532E+04 -1.629914E+02  3.794872E+03  9.084913E+03  2.973829E+03 -4.056416E+03
       260  23  1.182911E+04 -5.652570E+02  6.419133E+03  3.316031E+03  6.256695E+03 -4.745295E+03
       260  24  1.267433E+04  4.458227E+03  1.251712E+04  9.067347E+03  9.538156E+03 -5.108892E+03
       260  25  1.352867E+05  3.019013E+04  3.298210E+04  8.791934E+03  2.497083E+03 -4.058234E+03
       260  26  1.513456E+05  3.397279E+04  3.958183E+04  4.050013E+03  5.960184E+03 -4.746358E+03
       260  27  1.691269E+05  4.321178E+04  4.977982E+04  1.082816E+04  9.421973E+03 -5.109223E+03
       261   1 -1.615038E+05 -4.611336E+04 -2.666004E+04  1.477062E+04 -1.348222E+04  6.181200E+03
       261   2 -1.857638E+05 -5.372744E+04 -2.128844E+04 -1.662400E+03 -2.414733E+04  6.568927E+03
       261   3 -1.953068E+05 -7.774982E+03  4.407147E+03 -6.821094E+03 -3.479473E+04  2.088087E+03
       261   4  1.566945E+04 -2.319119E+03  1.538647E+04  9.076044E+03 -1.190552E+04  6.187072E+03
       261   5  8.079832E+03 -5.696766E+03  2.479390E+04  3.355396E+03 -2.526124E+04  6.564599E+03
       261   6  1.566873E+04  4.494980E+04  5.638916E+04  8.908571E+03 -3.859957E+04  2.073865E+03
       261   7  1.928716E+05  4.147300E+04  5.743083E+04  3.379811E+03 -1.032837E+04  6.192915E+03
       261   8  2.019580E+05  4.233128E+04  7.087363E+04  8.374736E+03 -2.637550E+04  6.560254E+03
       261   9  2.266853E+05  9.767217E+04  1.083681E+05  2.464356E+04 -4.240571E+04  2.059453E+03
       261  10 -1.615040E+05 -4.611345E+04 -2.666046E+04  1.477068E+04 -1.534917E-09 -3.100221E-09
       261  11 -1.857644E+05 -5.372764E+04 -2.128961E+04 -1.662273E+03  5.358762E-09  3.475456E-09
       261  12 -1.953081E+05 -7.775312E+03  4.404863E+03 -6.821036E+03  8.310641E-09  9.096993E-09
       261  13  1.566929E+04 -2.319198E+03  1.538613E+04  9.076103E+03  2.046880E-09  1.579742E-10
       261  14  8.079135E+03 -5.696984E+03  2.479262E+04  3.355529E+03 -1.769711E-09  7.775476E-09
       261  15  1.566713E+04  4.494939E+04  5.638636E+04  8.908636E+03  2.840025E-09  9.716886E-09
       261  16  1.928715E+05  4.147293E+04  5.743056E+04  3.379862E+03  2.016791E-09  3.842758E-09
       261  17  2.019572E+05  4.233105E+04  7.087224E+04  8.374875E+03 -4.768252E-09  1.455885E-08
       261  18  2.266834E+05  9.767168E+04  1.083647E+05  2.464363E+04 -1.096811E-08 -2.695529E-09
       261  19 -1.615038E+05 -4.611336E+04 -2.666004E+04  1.477062E+04  1.348222E+04 -6.181200E+03
       261  20 -1.857638E+05 -5.372744E+04 -2.128844E+04 -1.662400E+03  2.414733E+04 -6.568927E+03
       261  21 -1.953068E+05 -7.774982E+03  4.407147E+03 -6.821094E+03  3.479473E+04 -2.088087E+03
       261  22  1.566945E+04 -2.319119E+03  1.538647E+04  9.076044E+03  1.190552E+04 -6.187072E+03
       261  23  8.079832E+03 -5.696766E+03  2.479390E+04  3.355396E+03  2.526124E+04 -6.564599E+03
       261  24  1.566873E+04  4.494980E+04  5.638916E+04  8.908571E+03  3.859957E+04 -2.073865E+03
       261  25  1.928716E+05  4.147300E+04  5.743083E+04  3.379811E+03  1.032837E+04 -6.192915E+03
       261  26  2.019580E+05  4.233128E+04  7.087363E+04  8.374736E+03  2.637550E+04 -6.560254E+03
       261  27  2.266853E+05  9.767217E+04  1.083681E+05  2.464356E+04  4.240571E+04 -2.059453E+03
       262   1 -3.025369E+05 -1.338670E+06 -3.320201E+05  1.130806E+05 -6.714308E+03 -1.149603E+05
       262   2 -1.297431E+05 -1.189667E+06 -2.106600E+05  4.027509E+04 -1.997415E+04 -6.720564E+04
       262   3 -1.086635E+05 -1.083861E+06 -1.582031E+05  5.355379E+04 -1.578370E+04 -1.938611E+04
       262   4 -1.238623E+05 -6.241701E+05 -1.556598E+05  6.943544E+04 -6.745060E+03 -1.030002E+05
       262   5  1.562380E+04 -6.033857E+05 -7.116484E+04  2.659699E+04 -1.997862E+04 -6.482336E+04
       262   6  5.138729E+03 -6.241014E+05 -4.886198E+04  6.984549E+04 -1.576457E+04 -2.659216E+04
       262   7  5.478119E+04  9.079956E+04  2.066418E+04  2.574027E+04 -6.777482E+03 -9.102632E+04
       262   8  1.609666E+05 -1.678796E+04  6.830634E+04  1.290612E+04 -1.998320E+04 -6.243881E+04
       262   9  1.189267E+05 -1.641471E+05  6.046475E+04  8.614945E+04 -1.574583E+04 -3.380352E+04
       262  10 -3.025405E+05 -1.338685E+06 -3.320451E+05  1.130799E+05  1.288636E-09  6.843277E-09
       262  11 -1.297448E+05 -1.189672E+06 -2.106692E+05  4.027401E+04  9.337931E-10  6.894845E-10
       262  12 -1.086638E+05 -1.083861E+06 -1.582043E+05  5.355354E+04  8.547196E-10 -3.858366E-09
       262  13 -1.238652E+05 -6.241815E+05 -1.556798E+05  6.943488E+04  7.606198E-10  7.350770E-09
       262  14  1.562224E+04 -6.033903E+05 -7.117349E+04  2.659595E+04 -1.046127E-09 -4.406686E-09
       262  15  5.138273E+03 -6.241023E+05 -4.886377E+04  6.984515E+04 -3.803945E-10  1.246786E-09
       262  16  5.477891E+04  9.079065E+04  2.064853E+04  2.573978E+04  5.153774E-10  2.947307E-09
       262  17  1.609651E+05 -1.679225E+04  6.829826E+04  1.290511E+04 -5.924766E-10  8.008932E-09
       262  18  1.189262E+05 -1.641484E+05  6.046214E+04  8.614902E+04 -2.818020E-09 -2.192163E-09
       262  19 -3.025369E+05 -1.338670E+06 -3.320201E+05  1.130806E+05  6.714308E+03  1.149603E+05
       262  20 -1.297431E+05 -1.189667E+06 -2.106600E+05  4.027509E+04  1.997415E+04  6.720564E+04
       262  21 -1.086635E+05 -1.083861E+06 -1.582031E+05  5.355379E+04  1.578370E+04  1.938611E+04
       262  22 -1.238623E+05 -6.241701E+05 -1.556598E+05  6.943544E+04  6.745060E+03  1.030002E+05
       262  23  1.562380E+04 -6.033857E+05 -7.116484E+04  2.659699E+04  1.997862E+04  6.482336E+04
       262  24  5.138729E+03 -6.241014E+05 -4.886198E+04  6.984549E+04  1.576457E+04  2.659216E+04
       262  25  5.478119E+04  9.079956E+04  2.066418E+04  2.574027E+04  6.777482E+03  9.102632E+04
       262  26  1.609666E+05 -1.678796E+04  6.830634E+04  1.290612E+04  1.998320E+04  6.243881E+04
       262  27  1.189267E+05 -1.641471E+05  6.046475E+04  8.614945E+04  1.574583E+04  3.380352E+04
       263   1 -8.708875E+04 -9.200125E+05 -1.153616E+05  7.582803E+04 -1.013554E+04 -1.657118E+04
       263   2 -4.042295E+04 -7.873860E+05 -7.446613E+04  2.671842E+04 -5.987975E+03  5.110862E+02
       263   3 -2.199034E+04 -6.634513E+05 -5.164054E+04  6.506431E+04 -1.319656E+03  1.759648E+04
       263   4 -1.191070E+04 -6.167788E+05 -4.313577E+04  7.001510E+04 -1.012964E+04 -1.874351E+04
       263   5  2.917742E+03 -6.124462E+05 -3.284722E+04  2.628995E+04 -5.981884E+03 -1.942737E+03
       263   6 -1.043233E+04 -6.167687E+05 -4.042714E+04  7.001990E+04 -1.313194E+03  1.485769E+04
       263   7  6.326082E+04 -3.134606E+05  2.908366E+04  6.419936E+04 -1.012371E+04 -2.091690E+04
       263   8  4.625623E+04 -4.374783E+05  8.769571E+03  2.586139E+04 -5.975790E+03 -4.397249E+03
       263   9  1.125627E+03 -5.700839E+05 -2.921386E+04  7.497586E+04 -1.306776E+03  1.211871E+04
       263  10 -8.708893E+04 -9.200128E+05 -1.153623E+05  7.582790E+04  1.018599E-09  1.349473E-09
       263  11 -4.042299E+04 -7.873860E+05 -7.446620E+04  2.671842E+04  1.121145E-09  2.564081E-10
       263  12 -2.199042E+04 -6.634517E+05 -5.164113E+04  6.506432E+04 -1.962313E-09 -5.603389E-09
       263  13 -1.191090E+04 -6.167792E+05 -4.313663E+04  7.001495E+04 -1.068776E-09  5.695272E-09
       263  14  2.917703E+03 -6.124462E+05 -3.284729E+04  2.628995E+04 -4.099297E-09 -5.078036E-09
       263  15 -1.043239E+04 -6.167689E+05 -4.042756E+04  7.001991E+04 -1.437956E-09 -1.672703E-09
       263  16  6.326060E+04 -3.134611E+05  2.908265E+04  6.419919E+04 -3.076364E-09  2.968753E-09
       263  17  4.625618E+04 -4.374783E+05  8.769468E+03  2.586137E+04 -3.064401E-09  7.620427E-09
       263  18  1.125586E+03 -5.700841E+05 -2.921413E+04  7.497587E+04 -3.062021E-10 -9.759535E-10
       263  19 -8.708875E+04 -9.200125E+05 -1.153616E+05  7.582803E+04  1.013554E+04  1.657118E+04
       263  20 -4.042295E+04 -7.873860E+05 -7.446613E+04  2.671842E+04  5.987975E+03 -5.110862E+02
       263  21 -2.199034E+04 -6.634513E+05 -5.164054E+04  6.506431E+04  1.319656E+03 -1.759648E+04
       263  22 -1.191070E+04 -6.167788E+05 -4.313577E+04  7.001510E+04  1.012964E+04  1.874351E+04
       263  23  2.917742E+03 -6.124462E+05 -3.284722E+04  2.628995E+04  5.981884E+03  1.942737E+03
       263  24 -1.043233E+04 -6.167687E+05 -4.042714E+04  7.001990E+04  1.313194E+03 -1.485769E+04
       263  25  6.326082E+04 -3.134606E+05  2.908366E+04  6.419936E+04  1.012371E+04  2.091690E+04
       263  26  4.625623E+04 -4.374783E+05  8.769571E+03  2.586139E+04  5.975790E+03  4.397249E+03
       263  27  1.125627E+03 -5.700839E+05 -2.921386E+04  7.497586E+04  1.306776E+03 -1.211871E+04
       264   1  3.158733E+04 -5.128356E+05 -1.867188E+04  8.516007E+04  3.348079E+03  2.748711E+04
       264   2  7.301119E+04 -3.664686E+05 -7.327921E+03  1.494070E+04  8.063015E+03  5.645392E+04
       264   3 -1.826218E+04 -2.564168E+05 -4.788992E+04  3.167609E+04  3.039551E+03  8.540247E+04
       264   4  4.331425E+03 -6.231259E+05 -4.501837E+04  7.000712E+04  3.359781E+03  2.215665E+04
       264   5  1.399015E+04 -6.045069E+05 -6.393651E+04  2.637904E+04  8.064152E+03  5.648342E+04
       264   6 -1.100104E+05 -6.231714E+05 -1.385026E+05  6.971199E+04  3.030939E+03  9.078572E+04
       264   7 -2.292447E+04 -7.334045E+05 -7.136549E+04  5.485687E+04  3.371744E+03  1.682713E+04
       264   8 -4.503451E+04 -8.424928E+05 -1.205490E+05  3.781300E+04  8.065291E+03  5.651291E+04
       264   9 -2.017632E+05 -9.898006E+05 -2.291244E+05  1.077254E+05  3.022985E+03  9.616577E+04
       264  10  3.158711E+04 -5.128364E+05 -1.867332E+04  8.516000E+04 -2.259025E-10  3.572675E-09
       264  11  7.301027E+04 -3.664720E+05 -7.334036E+03  1.494034E+04  3.981026E-09 -2.868985E-10
       264  12 -1.826415E+04 -2.564246E+05 -4.790365E+04  3.167588E+04  7.821910E-10 -2.749573E-09
       264  13  4.331281E+03 -6.231265E+05 -4.501932E+04  7.000706E+04  1.054083E-09  5.325032E-09
       264  14  1.398922E+04 -6.045103E+05 -6.394264E+04  2.637867E+04 -9.513652E-10 -4.610707E-09
       264  15 -1.100126E+05 -6.231803E+05 -1.385181E+05  6.971177E+04  1.358600E-09  1.618929E-09
       264  16 -2.292456E+04 -7.334048E+05 -7.136605E+04  5.485683E+04  4.041721E-10  4.029101E-09
       264  17 -4.503543E+04 -8.424963E+05 -1.205551E+05  3.781263E+04  6.928932E-10  7.128743E-09
       264  18 -2.017657E+05 -9.898106E+05 -2.291418E+05  1.077252E+05  1.383496E-09 -2.192278E-09
       264  19  3.158733E+04 -5.128356E+05 -1.867188E+04  8.516007E+04 -3.348079E+03 -2.748711E+04
       264  20  7.301119E+04 -3.664686E+05 -7.327921E+03  1.494070E+04 -8.063015E+03 -5.645392E+04
       264  21 -1.826218E+04 -2.564168E+05 -4.788992E+04  3.167609E+04 -3.039551E+03 -8.540247E+04
       264  22  4.331425E+03 -6.231259E+05 -4.501837E+04  7.000712E+04 -3.359781E+03 -2.215665E+04
       264  23  1.399015E+04 -6.045069E+05 -6.393651E+04  2.637904E+04 -8.064152E+03 -5.648342E+04
       264  24 -1.100104E+05 -6.231714E+05 -1.385026E+05  6.971199E+04 -3.030939E+03 -9.078572E+04
       264  25 -2.292447E+04 -7.334045E+05 -7.136549E+04  5.485687E+04 -3.371744E+03 -1.682713E+04
       264  26 -4.503451E+04 -8.424928E+05 -1.205490E+05  3.781300E+04 -8.065291E+03 -5.651291E+04
       264  27 -2.017632E+05 -9.898006E+05 -2.291244E+05  1.077254E+05 -3.022985E+03 -9.616577E+04
       265   1  7.296225E+05  2.458944E+05  1.534112E+05  2.637200E+05  7.306891E+04  2.568204E+04
       265   2  7.051792E+05  1.333563E+05  8.403600E+04  2.679312E+05  4.728785E+04  1.193721E+04
       265   3  7.131109E+05  1.270954E+05  6.171926E+04  2.560016E+05  1.998861E+04  2.199726E+03
       265   4  5.866903E+05  1.661081E+05  1.095500E+05  1.983747E+05  7.022497E+04  2.460030E+04
       265   5  5.649393E+05  7.295816E+04  4.586857E+04  2.216953E+05  4.652187E+04  1.164601E+04
       265   6  5.751599E+05  8.568610E+04  2.760718E+04  2.288728E+05  2.130005E+04  2.697404E+03
       265   7  4.437810E+05  8.633214E+04  6.568730E+04  1.330459E+05  6.738177E+04  2.351912E+04
       265   8  4.247189E+05  1.256317E+04  7.699471E+03  1.754695E+05  4.575609E+04  1.135491E+04
       265   9  4.372269E+05  4.427635E+04 -6.506401E+03  2.017486E+05  2.261117E+04  3.195019E+03
       265  10  7.296166E+05  2.458923E+05  1.534000E+05  2.637185E+05 -4.227351E-09  1.594543E-09
       265  11  7.051768E+05  1.333555E+05  8.403154E+04  2.679307E+05  6.134003E-10  3.928283E-09
       265  12  7.131104E+05  1.270953E+05  6.171850E+04  2.560015E+05  3.399626E-09 -2.772439E-09
       265  13  5.866849E+05  1.661061E+05  1.095396E+05  1.983733E+05  7.553074E-10 -3.341946E-09
       265  14  5.649369E+05  7.295744E+04  4.586425E+04  2.216948E+05  2.402252E-09 -1.429912E-08
       265  15  5.751594E+05  8.568597E+04  2.760632E+04  2.288728E+05  1.896392E-09 -6.184296E-09
       265  16  4.437760E+05  8.633033E+04  6.567774E+04  1.330446E+05  1.366878E-09  5.089051E-10
       265  17  4.247166E+05  1.256247E+04  7.695297E+03  1.754691E+05 -1.230617E-09  9.403234E-09
       265  18  4.372264E+05  4.427620E+04 -6.507380E+03  2.017485E+05 -7.675206E-09 -2.384124E-09
       265  19  7.296225E+05  2.458944E+05  1.534112E+05  2.637200E+05 -7.306891E+04 -2.568204E+04
       265  20  7.051792E+05  1.333563E+05  8.403600E+04  2.679312E+05 -4.728785E+04 -1.193721E+04
       265  21  7.131109E+05  1.270954E+05  6.171926E+04  2.560016E+05 -1.998861E+04 -2.199726E+03
       265  22  5.866903E+05  1.661081E+05  1.095500E+05  1.983747E+05 -7.022497E+04 -2.460030E+04
       265  23  5.649393E+05  7.295816E+04  4.586857E+04  2.216953E+05 -4.652187E+04 -1.164601E+04
       265  24  5.751599E+05  8.568610E+04  2.760718E+04  2.288728E+05 -2.130005E+04 -2.697404E+03
       265  25  4.437810E+05  8.633214E+04  6.568730E+04  1.330459E+05 -6.738177E+04 -2.351912E+04
       265  26  4.247189E+05  1.256317E+04  7.699471E+03  1.754695E+05 -4.575609E+04 -1.135491E+04
       265  27  4.372269E+05  4.427635E+04 -6.506401E+03  2.017486E+05 -2.261117E+04 -3.195019E+03
       266   1  6.799273E+05  1.400591E+05  5.132740E+04  2.546547E+05  1.692626E+04  2.146354E+03
       266   2  6.671310E+05  1.196895E+05  3.569029E+04  2.472272E+05  1.101382E+04  3.479868E+02
       266   3  6.508084E+05  1.176791E+05  2.713194E+04  2.464798E+05  4.992686E+03 -1.163563E+03
       266   4  5.716479E+05  9.675268E+04  2.240878E+04  2.223704E+05  1.705110E+04  2.193577E+03
       266   5  5.728322E+05  8.344821E+04  1.083458E+04  2.206015E+05  1.128797E+04  4.519365E+02
       266   6  5.704611E+05  8.847438E+04  6.221785E+03  2.255125E+05  5.416003E+03 -1.002957E+03
       266   7  4.633800E+05  5.344734E+04 -6.510859E+03  1.900912E+05  1.717592E+04  2.240790E+03
       266   8  4.785422E+05  4.720760E+04 -1.402186E+04  1.939795E+05  1.156207E+04  5.558680E+02
       266   9  4.901204E+05  5.927000E+04 -1.468884E+04  2.045477E+05  5.839258E+03 -8.423728E+02
       266  10  6.799270E+05  1.400591E+05  5.132685E+04  2.546547E+05 -1.220290E-09 -4.325726E-09
       266  11  6.671309E+05  1.196895E+05  3.569006E+04  2.472272E+05 -5.298748E-09 -1.066704E-09
       266  12  6.508083E+05  1.176791E+05  2.713189E+04  2.464798E+05 -3.481927E-09  5.699081E-10
       266  13  5.716476E+05  9.675259E+04  2.240823E+04  2.223703E+05 -8.408663E-12 -2.983883E-09
       266  14  5.728321E+05  8.344817E+04  1.083434E+04  2.206015E+05 -5.453839E-09 -2.198289E-08
       266  15  5.704611E+05  8.847437E+04  6.221728E+03  2.255125E+05 -3.394186E-09  8.055565E-09
       266  16  4.633797E+05  5.344726E+04 -6.511422E+03  1.900912E+05  2.269900E-10 -8.365916E-09
       266  17  4.785421E+05  4.720756E+04 -1.402211E+04  1.939795E+05 -2.551325E-09  1.600761E-09
       266  18  4.901203E+05  5.926999E+04 -1.468891E+04  2.045477E+05 -5.630899E-09  2.500927E-09
       266  19  6.799273E+05  1.400591E+05  5.132740E+04  2.546547E+05 -1.692626E+04 -2.146354E+03
       266  20  6.671310E+05  1.196895E+05  3.569029E+04  2.472272E+05 -1.101382E+04 -3.479868E+02
       266  21  6.508084E+05  1.176791E+05  2.713194E+04  2.464798E+05 -4.992686E+03  1.163563E+03
       266  22  5.716479E+05  9.675268E+04  2.240878E+04  2.223704E+05 -1.705110E+04 -2.193577E+03
       266  23  5.728322E+05  8.344821E+04  1.083458E+04  2.206015E+05 -1.128797E+04 -4.519365E+02
       266  24  5.704611E+05  8.847438E+04  6.221785E+03  2.255125E+05 -5.416003E+03  1.002957E+03
       266  25  4.633800E+05  5.344734E+04 -6.510859E+03  1.900912E+05 -1.717592E+04 -2.240790E+03
       266  26  4.785422E+05  4.720760E+04 -1.402186E+04  1.939795E+05 -1.156207E+04 -5.558680E+02
       266  27  4.901204E+05  5.927000E+04 -1.468884E+04  2.045477E+05 -5.839258E+03  8.423728E+02
       267   1  6.295861E+05  1.122479E+05  2.045537E+04  2.414155E+05  4.020980E+03 -1.029961E+03
       267   2  6.183173E+05  1.014803E+05  1.424974E+04  2.328665E+05  2.473280E+03 -8.620274E+02
       267   3  5.995779E+05  9.981916E+04  9.296601E+03  2.331601E+05  9.183653E+02 -6.752415E+02
       267   4  5.700436E+05  8.956851E+04  4.845614E+03  2.248004E+05  4.357389E+03 -9.023217E+02
       267   5  5.737201E+05  8.459839E+04  2.542260E+03  2.205379E+05  2.819570E+03 -7.306186E+02
       267   6  5.699242E+05  8.873303E+04  1.483762E+03  2.251179E+05  1.274504E+03 -5.400749E+02
       267   7  5.105044E+05  6.688934E+04 -1.076449E+04  2.081868E+05  4.693763E+03 -7.746958E+02
       267   8  5.291247E+05  6.771663E+04 -9.165413E+03  2.082100E+05  3.165833E+03 -5.992200E+02
       267   9  5.402713E+05  7.764695E+04 -6.329153E+03  2.170761E+05  1.630623E+03 -4.049152E+02
       267  10  6.295861E+05  1.122479E+05  2.045534E+04  2.414155E+05  3.047508E-09 -4.839928E-09
       267  11  6.183173E+05  1.014802E+05  1.424973E+04  2.328665E+05 -1.223764E-09 -1.307844E-08
       267  12  5.995779E+05  9.981916E+04  9.296599E+03  2.331601E+05 -8.278793E-09  1.099415E-09
       267  13  5.700436E+05  8.956851E+04  4.845576E+03  2.248004E+05 -2.150751E-09  5.095320E-09
       267  14  5.737201E+05  8.459839E+04  2.542244E+03  2.205379E+05  8.144210E-10  2.786225E-09
       267  15  5.699242E+05  8.873303E+04  1.483759E+03  2.251179E+05 -4.419463E-09  3.467304E-09
       267  16  5.105043E+05  6.688933E+04 -1.076454E+04  2.081868E+05 -7.305071E-09  3.663602E-09
       267  17  5.291247E+05  6.771663E+04 -9.165433E+03  2.082100E+05  1.075044E-09  2.140304E-08
       267  18  5.402712E+05  7.764695E+04 -6.329158E+03  2.170761E+05  4.337225E-09  2.158773E-08
       267  19  6.295861E+05  1.122479E+05  2.045537E+04  2.414155E+05 -4.020980E+03  1.029961E+03
       267  20  6.183173E+05  1.014803E+05  1.424974E+04  2.328665E+05 -2.473280E+03  8.620274E+02
       267  21  5.995779E+05  9.981916E+04  9.296601E+03  2.331601E+05 -9.183653E+02  6.752415E+02
       267  22  5.700436E+05  8.956851E+04  4.845614E+03  2.248004E+05 -4.357389E+03  9.023217E+02
       267  23  5.737201E+05  8.459839E+04  2.542260E+03  2.205379E+05 -2.819570E+03  7.306186E+02
       267  24  5.699242E+05  8.873303E+04  1.483762E+03  2.251179E+05 -1.274504E+03  5.400749E+02
       267  25  5.105044E+05  6.688934E+04 -1.076449E+04  2.081868E+05 -4.693763E+03  7.746958E+02
       267  26  5.291247E+05  6.771663E+04 -9.165413E+03  2.082100E+05 -3.165833E+03  5.992200E+02
       267  27  5.402713E+05  7.764695E+04 -6.329153E+03  2.170761E+05 -1.630623E+03  4.049152E+02
       268   1  5.797692E+05  9.257297E+04  3.720124E+03  2.277810E+05  5.552883E+02 -3.578857E+02
       268   2  5.687215E+05  8.279776E+04 -5.650609E+02  2.191328E+05 -8.998305E+01  1.717022E+02
       268   3  5.497598E+05  8.116266E+04 -4.528090E+03  2.195041E+05 -7.358501E+02  7.029394E+02
       268   4  5.698714E+05  8.883296E+04  1.177593E+03  2.250380E+05  9.050367E+02 -2.251391E+02
       268   5  5.738235E+05  8.472766E+04  7.741032E+02  2.205417E+05  2.606163E+02  3.047686E+02
       268   6  5.698613E+05  8.876229E+04  6.921272E+02  2.250648E+05 -3.844118E+02  8.363232E+02
       268   7  5.599737E+05  8.509296E+04 -1.364937E+03  2.222951E+05  1.254778E+03 -9.239517E+01
       268   8  5.789256E+05  8.665756E+04  2.113266E+03  2.219506E+05  6.112189E+02  4.378362E+02
       268   9  5.899633E+05  9.636197E+04  5.912327E+03  2.306257E+05 -3.295994E+01  9.697120E+02
       268  10  5.797692E+05  9.257297E+04  3.720123E+03  2.277810E+05  4.912944E-09  1.408565E-09
       268  11  5.687215E+05  8.279776E+04 -5.650610E+02  2.191328E+05  1.736462E-09 -1.226172E-08
       268  12  5.497598E+05  8.116266E+04 -4.528092E+03  2.195041E+05 -9.268085E-09 -2.817088E-09
       268  13  5.698714E+05  8.883296E+04  1.177592E+03  2.250380E+05 -2.873102E-09  5.429360E-09
       268  14  5.738235E+05  8.472766E+04  7.741029E+02  2.205417E+05  2.201809E-09 -5.438745E-09
       268  15  5.698613E+05  8.876229E+04  6.921256E+02  2.250648E+05 -6.129075E-10 -1.023821E-08
       268  16  5.599737E+05  8.509296E+04 -1.364940E+03  2.222951E+05 -9.443594E-09  1.155265E-08
       268  17  5.789256E+05  8.665756E+04  2.113265E+03  2.219506E+05  3.512869E-09  7.507114E-09
       268  18  5.899633E+05  9.636197E+04  5.912325E+03  2.306257E+05  6.015540E-09 -1.290401E-09
       268  19  5.797692E+05  9.257297E+04  3.720124E+03  2.277810E+05 -5.552883E+02  3.578857E+02
       268  20  5.687215E+05  8.279776E+04 -5.650609E+02  2.191328E+05  8.998305E+01 -1.717022E+02
       268  21  5.497598E+05  8.116266E+04 -4.528090E+03  2.195041E+05  7.358501E+02 -7.029394E+02
       268  22  5.698714E+05  8.883296E+04  1.177593E+03  2.250380E+05 -9.050367E+02  2.251391E+02
       268  23  5.738235E+05  8.472766E+04  7.741032E+02  2.205417E+05 -2.606163E+02 -3.047686E+02
       268  24  5.698613E+05  8.876229E+04  6.921272E+02  2.250648E+05  3.844118E+02 -8.363232E+02
       268  25  5.599737E+05  8.509296E+04 -1.364937E+03  2.222951E+05 -1.254778E+03  9.239517E+01
       268  26  5.789256E+05  8.665756E+04  2.113266E+03  2.219506E+05 -6.112189E+02 -4.378362E+02
       268  27  5.899633E+05  9.636197E+04  5.912327E+03  2.306257E+05  3.295994E+01 -9.697120E+02
       269   1  5.300604E+05  7.373866E+04 -9.758716E+03  2.141306E+05 -1.004776E+03  1.053614E+03
       269   2  5.189507E+05  6.397555E+04 -1.336983E+04  2.054012E+05 -1.778717E+03  1.538730E+03
       269   3  4.999287E+05  6.245258E+04 -1.654761E+04  2.057325E+05 -2.552841E+03  2.024680E+03
       269   4  5.698588E+05  8.876706E+04  7.375994E+02  2.250804E+05 -6.528649E+02  1.187169E+03
       269   5  5.738235E+05  8.470627E+04  1.028375E+03  2.205276E+05 -1.426438E+03  1.672400E+03
       269   6  5.698754E+05  8.888542E+04  1.752162E+03  2.250352E+05 -2.200209E+03  2.158460E+03
       269   7  6.096588E+05  1.037956E+05  1.123378E+04  2.360309E+05 -3.009287E+02  1.320733E+03
       269   8  6.286991E+05  1.054371E+05  1.542630E+04  2.356551E+05 -1.074126E+03  1.806083E+03
       269   9  6.398267E+05  1.153185E+05  2.005146E+04  2.443399E+05 -1.847535E+03  2.292257E+03
       269  10  5.300604E+05  7.373866E+04 -9.758720E+03  2.141306E+05  3.573200E-09  4.627112E-09
       269  11  5.189507E+05  6.397555E+04 -1.336984E+04  2.054012E+05  7.264325E-09 -8.577764E-09
       269  12  4.999287E+05  6.245257E+04 -1.654763E+04  2.057325E+05  2.780933E-09 -1.034508E-08
       269  13  5.698588E+05  8.876706E+04  7.375960E+02  2.250804E+05  6.841609E-10  1.769833E-08
       269  14  5.738235E+05  8.470626E+04  1.028366E+03  2.205276E+05  1.625621E-09  9.858673E-10
       269  15  5.698754E+05  8.888541E+04  1.752145E+03  2.250352E+05  1.743380E-09 -3.004600E-09
       269  16  6.096588E+05  1.037956E+05  1.123377E+04  2.360309E+05 -5.252317E-09 -2.716771E-09
       269  17  6.286991E+05  1.054371E+05  1.542630E+04  2.356551E+05 -1.367033E-09 -5.607957E-09
       269  18  6.398267E+05  1.153185E+05  2.005144E+04  2.443399E+05  3.441366E-09 -3.544768E-09
       269  19  5.300604E+05  7.373866E+04 -9.758716E+03  2.141306E+05  1.004776E+03 -1.053614E+03
       269  20  5.189507E+05  6.397555E+04 -1.336983E+04  2.054012E+05  1.778717E+03 -1.538730E+03
       269  21  4.999287E+05  6.245258E+04 -1.654761E+04  2.057325E+05  2.552841E+03 -2.024680E+03
       269  22  5.698588E+05  8.876706E+04  7.375994E+02  2.250804E+05  6.528649E+02 -1.187169E+03
       269  23  5.738235E+05  8.470627E+04  1.028375E+03  2.205276E+05  1.426438E+03 -1.672400E+03
       269  24  5.698754E+05  8.888542E+04  1.752162E+03  2.250352E+05  2.200209E+03 -2.158460E+03
       269  25  6.096588E+05  1.037956E+05  1.123378E+04  2.360309E+05  3.009287E+02 -1.320733E+03
       269  26  6.286991E+05  1.054371E+05  1.542630E+04  2.356551E+05  1.074126E+03 -1.806083E+03
       269  27  6.398267E+05  1.153185E+05  2.005146E+04  2.443399E+05  1.847535E+03 -2.292257E+03
       270   1  4.799692E+05  5.494121E+04 -2.136566E+04  2.005861E+05 -3.044921E+03  2.299401E+03
       270   2  4.685712E+05  4.472555E+04 -2.361867E+04  1.914804E+05 -5.303520E+03  2.230249E+03
       270   3  4.499085E+05  4.435615E+04 -2.393024E+04  1.912390E+05 -7.552882E+03  2.137290E+03
       270   4  5.699472E+05  8.874351E+04  2.262677E+03  2.251806E+05 -2.682763E+03  2.436772E+03
       270   5  5.736722E+05  8.447795E+04  3.968231E+03  2.204982E+05 -4.954030E+03  2.362768E+03
       270   6  5.701351E+05  9.006102E+04  7.625107E+03  2.246801E+05 -7.216112E+03  2.264938E+03
       270   7  6.599332E+05  1.225464E+05  2.589040E+04  2.497784E+05 -2.320546E+03  2.574166E+03
       270   8  6.787841E+05  1.242311E+05  3.155424E+04  2.495205E+05 -4.604476E+03  2.495312E+03
       270   9  6.903756E+05  1.357669E+05  3.917923E+04  2.581271E+05 -6.879271E+03  2.392614E+03
       270  10  4.799692E+05  5.494121E+04 -2.136569E+04  2.005861E+05 -4.088773E-09 -6.366755E-09
       270  11  4.685711E+05  4.472553E+04 -2.361874E+04  1.914804E+05 -1.849360E-09  3.426509E-09
       270  12  4.499085E+05  4.435613E+04 -2.393035E+04  1.912390E+05  5.856515E-09 -1.223333E-09
       270  13  5.699471E+05  8.874350E+04  2.262652E+03  2.251806E+05  3.675894E-10 -8.993936E-10
       270  14  5.736722E+05  8.447794E+04  3.968175E+03  2.204982E+05  2.291905E-09  4.436119E-09
       270  15  5.701350E+05  9.006100E+04  7.625000E+03  2.246801E+05 -2.716822E-10 -1.158133E-08
       270  16  6.599332E+05  1.225464E+05  2.589038E+04  2.497784E+05  4.609008E-09  1.307498E-09
       270  17  6.787841E+05  1.242311E+05  3.155419E+04  2.495205E+05 -1.893452E-09  1.585240E-09
       270  18  6.903756E+05  1.357669E+05  3.917913E+04  2.581271E+05 -8.232452E-09 -1.635049E-08
       270  19  4.799692E+05  5.494121E+04 -2.136566E+04  2.005861E+05  3.044921E+03 -2.299401E+03
       270  20  4.685712E+05  4.472555E+04 -2.361867E+04  1.914804E+05  5.303520E+03 -2.230249E+03
       270  21  4.499085E+05  4.435615E+04 -2.393024E+04  1.912390E+05  7.552882E+03 -2.137290E+03
       270  22  5.699472E+05  8.874351E+04  2.262677E+03  2.251806E+05  2.682763E+03 -2.436772E+03
       270  23  5.736722E+05  8.447795E+04  3.968231E+03  2.204982E+05  4.954030E+03 -2.362768E+03
       270  24  5.701351E+05  9.006102E+04  7.625107E+03  2.246801E+05  7.216112E+03 -2.264938E+03
       270  25  6.599332E+05  1.225464E+05  2.589040E+04  2.497784E+05  2.320546E+03 -2.574166E+03
       270  26  6.787841E+05  1.242311E+05  3.155424E+04  2.495205E+05  4.604476E+03 -2.495312E+03
       270  27  6.903756E+05  1.357669E+05  3.917923E+04  2.581271E+05  6.879271E+03 -2.392614E+03
       271   1  4.287737E+05  3.652514E+04 -2.715807E+04  1.885510E+05 -9.253219E+03  2.022225E+03
       271   2  4.166424E+05  2.290596E+04 -2.392442E+04  1.767213E+05 -1.816930E+04 -5.701775E+02
       271   3  4.033686E+05  3.370105E+04 -9.860583E+03  1.703882E+05 -2.693639E+04 -3.554496E+03
       271   4  5.707897E+05  8.834207E+04  9.804197E+03  2.258133E+05 -8.796586E+03  2.195317E+03
       271   5  5.722767E+05  8.265077E+04  1.709143E+04  2.205867E+05 -1.791760E+04 -4.749119E+02
       271   6  5.726599E+05  1.014114E+05  3.536909E+04  2.208566E+05 -2.688988E+04 -3.537192E+03
       271   7  7.128246E+05  1.401598E+05  4.676467E+04  2.630830E+05 -8.339840E+03  2.368449E+03
       271   8  7.279344E+05  1.423973E+05  5.810520E+04  2.644621E+05 -1.766583E+04 -3.796188E+02
       271   9  7.419796E+05  1.691246E+05  8.059638E+04  2.713380E+05 -2.684335E+04 -3.519882E+03
       271  10  4.287736E+05  3.652512E+04 -2.715824E+04  1.885510E+05 -3.976963E-09  5.926633E-09
       271  11  4.166421E+05  2.290587E+04 -2.392504E+04  1.767213E+05 -8.310718E-09  1.366511E-08
       271  12  4.033678E+05  3.370084E+04 -9.861969E+03  1.703881E+05  6.537501E-12  4.092254E-09
       271  13  5.707896E+05  8.834204E+04  9.804043E+03  2.258133E+05 -3.123855E-09 -1.269503E-08
       271  14  5.722763E+05  8.265069E+04  1.709083E+04  2.205867E+05 -1.885295E-09  4.921893E-09
       271  15  5.726592E+05  1.014111E+05  3.536771E+04  2.208566E+05 -2.105328E-09  5.849563E-09
       271  16  7.128246E+05  1.401598E+05  4.676453E+04  2.630830E+05  3.381086E-09 -5.092139E-09
       271  17  7.279340E+05  1.423973E+05  5.810461E+04  2.644621E+05  2.112363E-09  2.521636E-09
       271  18  7.419788E+05  1.691244E+05  8.059501E+04  2.713379E+05 -6.160391E-09 -8.594363E-09
       271  19  4.287737E+05  3.652514E+04 -2.715807E+04  1.885510E+05  9.253219E+03 -2.022225E+03
       271  20  4.166424E+05  2.290596E+04 -2.392442E+04  1.767213E+05  1.816930E+04  5.701775E+02
       271  21  4.033686E+05  3.370105E+04 -9.860583E+03  1.703882E+05  2.693639E+04  3.554496E+03
       271  22  5.707897E+05  8.834207E+04  9.804197E+03  2.258133E+05  8.796586E+03 -2.195317E+03
       271  23  5.722767E+05  8.265077E+04  1.709143E+04  2.205867E+05  1.791760E+04  4.749119E+02
       271  24  5.726599E+05  1.014114E+05  3.536909E+04  2.208566E+05  2.688988E+04  3.537192E+03
       271  25  7.128246E+05  1.401598E+05  4.676467E+04  2.630830E+05  8.339840E+03 -2.368449E+03
       271  26  7.279344E+05  1.423973E+05  5.810520E+04  2.644621E+05  1.766583E+04  3.796188E+02
       271  27  7.419796E+05  1.691246E+05  8.059638E+04  2.713380E+05  2.684335E+04  3.519882E+03
       272   1  3.731222E+05  2.338007E+04 -6.938744E+03  1.918327E+05 -3.514637E+04 -5.302532E+03
       272   2  3.594967E+05 -2.124352E+04  1.767265E+04  1.551904E+05 -7.197558E+04 -1.867437E+04
       272   3  4.002772E+05  9.628814E+04  1.117435E+05  8.805073E+04 -1.067221E+05 -3.754207E+04
       272   4  5.782104E+05  8.393821E+04  4.357734E+04  2.311145E+05 -3.347014E+04 -4.666495E+03
       272   5  5.598192E+05  6.608916E+04  7.240600E+04  2.223109E+05 -7.315540E+04 -1.912306E+04
       272   6  5.963770E+05  2.109256E+05  1.729397E+05  1.830162E+05 -1.107580E+05 -3.907863E+04
       272   7  7.833400E+05  1.444958E+05  9.409056E+04  2.704064E+05 -3.179330E+04 -4.030341E+03
       272   8  7.601802E+05  1.534279E+05  1.271355E+05  2.894521E+05 -7.433564E+04 -1.957196E+04
       272   9  7.925160E+05  3.255834E+05  2.341317E+05  2.780129E+05 -1.147952E+05 -4.061635E+04
       272  10  3.731208E+05  2.337971E+04 -6.941117E+03  1.918325E+05  1.194494E-08  1.262655E-08
       272  11  3.594910E+05 -2.124528E+04  1.766227E+04  1.551893E+05  5.320937E-09  4.619777E-09
       272  12  4.002646E+05  9.628357E+04  1.117195E+05  8.804750E+04 -1.580667E-09  8.590233E-10
       272  13  5.782092E+05  8.393788E+04  4.357520E+04  2.311144E+05 -1.974887E-09 -5.434159E-10
       272  14  5.598134E+05  6.608733E+04  7.239527E+04  2.223098E+05 -2.869175E-10  2.377225E-09
       272  15  5.963634E+05  2.109207E+05  1.729138E+05  1.830127E+05  2.316023E-09  1.084215E-09
       272  16  7.833389E+05  1.444955E+05  9.408863E+04  2.704063E+05 -1.618789E-08 -2.036570E-08
       272  17  7.601742E+05  1.534260E+05  1.271244E+05  2.894509E+05 -1.659689E-09  3.557944E-09
       272  18  7.925014E+05  3.255781E+05  2.341039E+05  2.780092E+05  3.401376E-09 -3.199064E-10
       272  19  3.731222E+05  2.338007E+04 -6.938744E+03  1.918327E+05  3.514637E+04  5.302532E+03
       272  20  3.594967E+05 -2.124352E+04  1.767265E+04  1.551904E+05  7.197558E+04  1.867437E+04
       272  21  4.002772E+05  9.628814E+04  1.117435E+05  8.805073E+04  1.067221E+05  3.754207E+04
       272  22  5.782104E+05  8.393821E+04  4.357734E+04  2.311145E+05  3.347014E+04  4.666495E+03
       272  23  5.598192E+05  6.608916E+04  7.240600E+04  2.223109E+05  7.315540E+04  1.912306E+04
       272  24  5.963770E+05  2.109256E+05  1.729397E+05  1.830162E+05  1.107580E+05  3.907863E+04
       272  25  7.833400E+05  1.444958E+05  9.409056E+04  2.704064E+05  3.179330E+04  4.030341E+03
       272  26  7.601802E+05  1.534279E+05  1.271355E+05  2.894521E+05  7.433564E+04  1.957196E+04
       272  27  7.925160E+05  3.255834E+05  2.341317E+05  2.780129E+05  1.147952E+05  4.061635E+04
       273   1 -9.748387E+04 -7.449790E+05 -1.088912E+05  3.259661E+04 -1.938932E+03 -4.160095E+04
       273   2 -3.791057E+04 -7.092815E+05 -6.921529E+04  1.221739E+04 -5.997213E+03 -2.435698E+04
       273   3 -3.517496E+04 -6.898634E+05 -5.495749E+04  1.037632E+04 -5.177633E+03 -7.095594E+03
       273   4 -4.631900E+04 -5.404162E+05 -5.843253E+04  1.633343E+04 -1.949867E+03 -3.805752E+04
       273   5  5.917778E+03 -5.325046E+05 -2.716571E+04  7.145048E+03 -5.999751E+03 -2.349955E+04
       273   6  1.791993E+03 -5.404015E+05 -1.944484E+04  1.649532E+04 -5.171765E+03 -8.925045E+03
       273   7  4.843721E+03 -3.358148E+05 -7.976837E+03  6.490306E+01 -1.960986E+03 -3.451292E+04
       273   8  4.974396E+04 -3.556988E+05  1.488170E+04  2.071273E+03 -6.002302E+03 -2.264188E+04
       273   9  3.875749E+04 -3.909190E+05  1.606629E+04  2.261582E+04 -5.165934E+03 -1.075493E+04
       273  10 -9.748434E+04 -7.449808E+05 -1.088944E+05  3.259654E+04 -8.124013E-11 -2.582727E-10
       273  11 -3.791076E+04 -7.092822E+05 -6.921647E+04  1.221727E+04 -3.291626E-09  9.593254E-10
       273  12 -3.517500E+04 -6.898635E+05 -5.495763E+04  1.037629E+04 -9.751492E-10  5.960447E-09
       273  13 -4.631939E+04 -5.404178E+05 -5.843527E+04  1.633337E+04  2.495323E-10  2.221464E-09
       273  14  5.917591E+03 -5.325052E+05 -2.716681E+04  7.144934E+03  8.165553E-10  1.774666E-09
       273  15  1.791943E+03 -5.404016E+05 -1.944504E+04  1.649528E+04 -8.401123E-10  2.138715E-09
       273  16  4.843397E+03 -3.358161E+05 -7.979084E+03  6.484854E+01  9.851933E-10  4.557230E-09
       273  17  4.974378E+04 -3.556994E+05  1.488067E+04  2.071164E+03  2.423059E-09  1.104167E-08
       273  18  3.875743E+04 -3.909191E+05  1.606602E+04  2.261577E+04 -3.235688E-09  4.459467E-09
       273  19 -9.748387E+04 -7.449790E+05 -1.088912E+05  3.259661E+04  1.938932E+03  4.160095E+04
       273  20 -3.791057E+04 -7.092815E+05 -6.921529E+04  1.221739E+04  5.997213E+03  2.435698E+04
       273  21 -3.517496E+04 -6.898634E+05 -5.495749E+04  1.037632E+04  5.177633E+03  7.095594E+03
       273  22 -4.631900E+04 -5.404162E+05 -5.843253E+04  1.633343E+04  1.949867E+03  3.805752E+04
       273  23  5.917778E+03 -5.325046E+05 -2.716571E+04  7.145048E+03  5.999751E+03  2.349955E+04
       273  24  1.791993E+03 -5.404015E+05 -1.944484E+04  1.649532E+04  5.171765E+03  8.925045E+03
       273  25  4.843721E+03 -3.358148E+05 -7.976837E+03  6.490306E+01  1.960986E+03  3.451292E+04
       273  26  4.974396E+04 -3.556988E+05  1.488170E+04  2.071273E+03  6.002302E+03  2.264188E+04
       273  27  3.875749E+04 -3.909190E+05  1.606629E+04  2.261582E+04  5.165934E+03  1.075493E+04
       274   1 -3.296190E+04 -6.532868E+05 -4.518305E+04  1.904324E+04 -3.818023E+03 -5.362011E+03
       274   2 -2.037183E+04 -6.234383E+05 -3.577484E+04  7.162571E+03 -3.006961E+03  2.410236E+03
       274   3 -2.051427E+04 -5.976297E+05 -3.458058E+04  1.424195E+04 -1.935821E+03  1.018345E+04
       274   4 -4.323009E+03 -5.377811E+05 -1.766149E+04  1.653625E+04 -3.816724E+03 -5.751864E+03
       274   5  1.343122E+03 -5.357732E+05 -1.492210E+04  7.054240E+03 -3.005272E+03  1.877989E+03
       274   6 -5.697480E+03 -5.377806E+05 -2.029682E+04  1.653222E+04 -1.933701E+03  9.508470E+03
       274   7  2.431494E+04 -4.222631E+05  9.859135E+03  1.402880E+04 -3.815423E+03 -6.141789E+03
       274   8  2.305752E+04 -4.481011E+05  5.930105E+03  6.945898E+03 -3.003583E+03  1.345668E+03
       274   9  9.119072E+03 -4.779283E+05 -6.013306E+03  1.882272E+04 -1.931587E+03  8.833421E+03
       274  10 -3.296192E+04 -6.532869E+05 -4.518313E+04  1.904323E+04 -9.741040E-10 -1.033080E-08
       274  11 -2.037184E+04 -6.234383E+05 -3.577487E+04  7.162577E+03  1.450246E-09 -5.875931E-09
       274  12 -2.051430E+04 -5.976298E+05 -3.458078E+04  1.424196E+04  6.340389E-10 -3.472748E-09
       274  13 -4.323033E+03 -5.377811E+05 -1.766158E+04  1.653623E+04 -2.201752E-09  2.188011E-09
       274  14  1.343112E+03 -5.357732E+05 -1.492212E+04  7.054244E+03 -1.801405E-09 -7.857802E-09
       274  15 -5.697508E+03 -5.377807E+05 -2.029700E+04  1.653224E+04  1.217532E-09 -8.093511E-09
       274  16  2.431491E+04 -4.222631E+05  9.859037E+03  1.402878E+04 -3.686333E-09  9.312767E-09
       274  17  2.305751E+04 -4.481011E+05  5.930085E+03  6.945902E+03 -7.762088E-11  1.528165E-08
       274  18  9.119047E+03 -4.779284E+05 -6.013460E+03  1.882273E+04  1.876262E-09  5.212659E-09
       274  19 -3.296190E+04 -6.532868E+05 -4.518305E+04  1.904324E+04  3.818023E+03  5.362011E+03
       274  20 -2.037183E+04 -6.234383E+05 -3.577484E+04  7.162571E+03  3.006961E+03 -2.410236E+03
       274  21 -2.051427E+04 -5.976297E+05 -3.458058E+04  1.424195E+04  1.935821E+03 -1.018345E+04
       274  22 -4.323009E+03 -5.377811E+05 -1.766149E+04  1.653625E+04  3.816724E+03  5.751864E+03
       274  23  1.343122E+03 -5.357732E+05 -1.492210E+04  7.054240E+03  3.005272E+03 -1.877989E+03
       274  24 -5.697480E+03 -5.377806E+05 -2.029682E+04  1.653222E+04  1.933701E+03 -9.508470E+03
       274  25  2.431494E+04 -4.222631E+05  9.859135E+03  1.402880E+04  3.815423E+03  6.141789E+03
       274  26  2.305752E+04 -4.481011E+05  5.930105E+03  6.945898E+03  3.003583E+03 -1.345668E+03
       274  27  9.119072E+03 -4.779283E+05 -6.013306E+03  1.882272E+04  1.931587E+03 -8.833421E+03
       275   1 -3.785319E+03 -5.671024E+05 -2.928169E+04  2.494048E+04 -1.067604E+03  1.410461E+04
       275   2  8.181457E+03 -5.291451E+05 -3.368119E+04  1.073430E+03 -1.841514E+01  3.191453E+04
       275   3 -5.206372E+04 -5.114178E+05 -6.770346E+04 -3.927872E+03  1.262891E+01  4.972192E+04
       275   4  2.633720E+03 -5.414016E+05 -2.320795E+04  1.657753E+04 -1.065077E+03  1.321503E+04
       275   5  7.616121E+03 -5.312451E+05 -3.418712E+04  7.049038E+03 -1.710335E+01  3.158604E+04
       275   6 -5.971200E+04 -5.414179E+05 -7.517959E+04  1.638647E+04  1.354479E+01  4.995372E+04
       275   7  9.052974E+03 -5.157000E+05 -1.713421E+04  8.214240E+03 -1.062527E+03  1.232542E+04
       275   8  7.050920E+03 -5.333449E+05 -3.469304E+04  1.302462E+04 -1.579788E+01  3.125755E+04
       275   9 -6.735881E+04 -5.714163E+05 -8.265557E+04  3.669983E+04  1.447589E+01  5.018551E+04
       275  10 -3.785374E+03 -5.671026E+05 -2.928206E+04  2.494049E+04  2.664537E-09 -5.089028E-09
       275  11  8.181183E+03 -5.291462E+05 -3.368310E+04  1.073431E+03  1.936091E-09 -4.858111E-09
       275  12 -5.206438E+04 -5.114205E+05 -6.770810E+04 -3.927873E+03  9.094152E-10  3.194837E-09
       275  13  2.633672E+03 -5.414018E+05 -2.320828E+04  1.657755E+04  3.123494E-09 -2.089270E-09
       275  14  7.615853E+03 -5.312462E+05 -3.418900E+04  7.049038E+03  2.783656E-09 -5.442611E-09
       275  15 -5.971267E+04 -5.414206E+05 -7.518428E+04  1.638647E+04  1.500257E-10 -1.627479E-09
       275  16  9.052932E+03 -5.157002E+05 -1.713450E+04  8.214251E+03  1.621124E-09 -1.687707E-10
       275  17  7.050657E+03 -5.333460E+05 -3.469487E+04  1.302462E+04  1.691847E-09  8.961599E-09
       275  18 -6.735948E+04 -5.714190E+05 -8.266031E+04  3.669983E+04 -4.381845E-10  7.861723E-09
       275  19 -3.785319E+03 -5.671024E+05 -2.928169E+04  2.494048E+04  1.067604E+03 -1.410461E+04
       275  20  8.181457E+03 -5.291451E+05 -3.368119E+04  1.073430E+03  1.841514E+01 -3.191453E+04
       275  21 -5.206372E+04 -5.114178E+05 -6.770346E+04 -3.927872E+03 -1.262891E+01 -4.972192E+04
       275  22  2.633720E+03 -5.414016E+05 -2.320795E+04  1.657753E+04  1.065077E+03 -1.321503E+04
       275  23  7.616121E+03 -5.312451E+05 -3.418712E+04  7.049038E+03  1.710335E+01 -3.158604E+04
       275  24 -5.971200E+04 -5.414179E+05 -7.517959E+04  1.638647E+04 -1.354479E+01 -4.995372E+04
       275  25  9.052974E+03 -5.157000E+05 -1.713421E+04  8.214240E+03  1.062527E+03 -1.232542E+04
       275  26  7.050920E+03 -5.333449E+05 -3.469304E+04  1.302462E+04  1.579788E+01 -3.125755E+04
       275  27 -6.735881E+04 -5.714163E+05 -8.265557E+04  3.669983E+04 -1.447589E+01 -5.018551E+04
       276   1  1.192167E+04 -7.634490E+04 -6.118536E+04 -3.280480E+03  3.617479E+04  5.484290E+03
       276   2  4.332944E+04 -1.251963E+05 -8.442416E+04 -2.301775E+03  2.699995E+04  1.644408E+04
       276   3  9.185568E+04 -1.115025E+05 -8.600034E+04 -2.819648E+04  1.783855E+04  1.547046E+04
       276   4  5.309012E+05  5.291425E+04  6.655602E+04 -2.071004E+04  4.555073E+04  5.494767E+03
       276   5  5.217886E+05 -6.808954E+03  2.925212E+04 -7.242053E+03  2.977748E+04  1.644580E+04
       276   6  5.309233E+05 -2.868510E+03  1.817756E+04 -2.064548E+04  1.401837E+04  1.546713E+04
       276   7  1.050127E+06  1.821546E+05  1.942780E+05 -3.815427E+04  5.493448E+04  5.504715E+03
       276   8  1.000458E+06  1.115620E+05  1.429125E+05 -1.218621E+04  3.255713E+04  1.644748E+04
       276   9  9.701680E+05  1.057519E+05  1.223421E+05 -1.308914E+04  1.019549E+04  1.546371E+04
       276  10  1.192026E+04 -7.634528E+04 -6.118787E+04 -3.280640E+03 -4.729015E-10 -3.048976E-11
       276  11  4.332858E+04 -1.251968E+05 -8.442604E+04 -2.302133E+03 -9.431680E-10 -3.184998E-11
       276  12  9.185528E+04 -1.115029E+05 -8.600138E+04 -2.819670E+04 -4.025948E-10  5.898333E-11
       276  13  5.308990E+05  5.291367E+04  6.655206E+04 -2.071024E+04  6.987471E-10  2.984999E-11
       276  14  5.217876E+05 -6.809482E+03  2.924995E+04 -7.242448E+03 -4.052746E-10  1.691932E-11
       276  15  5.309230E+05 -2.868820E+03  1.817675E+04 -2.064566E+04 -1.779267E-10 -5.810375E-11
       276  16  1.050123E+06  1.821538E+05  1.942723E+05 -3.815451E+04  2.999941E-10  3.251454E-11
       276  17  1.000457E+06  1.115615E+05  1.429100E+05 -1.218664E+04 -1.844904E-10  2.550400E-11
       276  18  9.701678E+05  1.057516E+05  1.223415E+05 -1.308927E+04  1.833315E-10 -1.036413E-10
       276  19  1.192167E+04 -7.634490E+04 -6.118536E+04 -3.280480E+03 -3.617479E+04 -5.484290E+03
       276  20  4.332944E+04 -1.251963E+05 -8.442416E+04 -2.301775E+03 -2.699995E+04 -1.644408E+04
       276  21  9.185568E+04 -1.115025E+05 -8.600034E+04 -2.819648E+04 -1.783855E+04 -1.547046E+04
       276  22  5.309012E+05  5.291425E+04  6.655602E+04 -2.071004E+04 -4.555073E+04 -5.494767E+03
       276  23  5.217886E+05 -6.808954E+03  2.925212E+04 -7.242053E+03 -2.977748E+04 -1.644580E+04
       276  24  5.309233E+05 -2.868510E+03  1.817756E+04 -2.064548E+04 -1.401837E+04 -1.546713E+04
       276  25  1.050127E+06  1.821546E+05  1.942780E+05 -3.815427E+04 -5.493448E+04 -5.504715E+03
       276  26  1.000458E+06  1.115620E+05  1.429125E+05 -1.218621E+04 -3.255713E+04 -1.644748E+04
       276  27  9.701680E+05  1.057519E+05  1.223421E+05 -1.308914E+04 -1.019549E+04 -1.546371E+04
       277   1  1.363898E+05 -9.165609E+04 -7.830424E+04 -1.922915E+04  1.145654E+04  1.285268E+04
       277   2  1.743296E+05 -8.781092E+04 -7.603562E+04 -7.033210E+03  8.013036E+03  1.202962E+04
       277   3  2.144177E+05 -7.775496E+04 -6.994175E+04 -2.141984E+04  4.568710E+03  1.041963E+04
       277   4  5.273696E+05  5.128929E+03  1.478896E+04 -2.060161E+04  1.122523E+04  1.285197E+04
       277   5  5.262629E+05 -7.250739E+02  7.592614E+03 -7.309406E+03  7.345072E+03  1.202888E+04
       277   6  5.273776E+05 -2.944491E+02  4.522866E+03 -2.059876E+04  3.464303E+03  1.041905E+04
       277   7  9.184896E+05  1.019029E+05  1.078715E+05 -2.197496E+04  1.099378E+04  1.285126E+04
       277   8  8.783099E+05  8.635186E+04  9.121221E+04 -7.585771E+03  6.676731E+03  1.202814E+04
       277   9  8.404274E+05  7.715900E+04  7.898064E+04 -1.977728E+04  2.359341E+03  1.041846E+04
       277  10  1.363897E+05 -9.165630E+04 -7.830479E+04 -1.922927E+04 -4.216402E-10 -7.112827E-11
       277  11  1.743295E+05 -8.781109E+04 -7.603602E+04 -7.033287E+03 -2.304841E-11 -1.164592E-10
       277  12  2.144177E+05 -7.775508E+04 -6.994200E+04 -2.141987E+04 -3.430315E-10  3.800402E-11
       277  13  5.273694E+05  5.128718E+03  1.478842E+04 -2.060173E+04 -2.095402E-10 -1.674105E-11
       277  14  5.262628E+05 -7.252438E+02  7.592241E+03 -7.309477E+03 -2.988988E-10 -1.011526E-10
       277  15  5.273776E+05 -2.945689E+02  4.522639E+03 -2.059879E+04 -5.732786E-10 -5.070626E-11
       277  16  9.184894E+05  1.019027E+05  1.078709E+05 -2.197508E+04 -1.600849E-10 -3.199834E-11
       277  17  8.783098E+05  8.635169E+04  9.121185E+04 -7.585835E+03 -3.122428E-10 -9.540828E-11
       277  18  8.404273E+05  7.715889E+04  7.898042E+04 -1.977730E+04 -1.503225E-10 -1.109767E-10
       277  19  1.363898E+05 -9.165609E+04 -7.830424E+04 -1.922915E+04 -1.145654E+04 -1.285268E+04
       277  20  1.743296E+05 -8.781092E+04 -7.603562E+04 -7.033210E+03 -8.013036E+03 -1.202962E+04
       277  21  2.144177E+05 -7.775496E+04 -6.994175E+04 -2.141984E+04 -4.568710E+03 -1.041963E+04
       277  22  5.273696E+05  5.128929E+03  1.478896E+04 -2.060161E+04 -1.122523E+04 -1.285197E+04
       277  23  5.262629E+05 -7.250739E+02  7.592614E+03 -7.309406E+03 -7.345072E+03 -1.202888E+04
       277  24  5.273776E+05 -2.944491E+02  4.522866E+03 -2.059876E+04 -3.464303E+03 -1.041905E+04
       277  25  9.184896E+05  1.019029E+05  1.078715E+05 -2.197496E+04 -1.099378E+04 -1.285126E+04
       277  26  8.783099E+05  8.635186E+04  9.121221E+04 -7.585771E+03 -6.676731E+03 -1.202814E+04
       277  27  8.404274E+05  7.715900E+04  7.898064E+04 -1.977728E+04 -2.359341E+03 -1.041846E+04
       278   1  2.611844E+05 -6.527279E+04 -5.951711E+04 -2.044694E+04  3.613685E+03  9.350701E+03
       278   2  2.994626E+05 -5.633654E+04 -5.203234E+04 -7.408989E+03  2.645870E+03  7.765335E+03
       278   3  3.380723E+05 -4.678498E+04 -4.375322E+04 -2.058405E+04  1.677286E+03  6.133965E+03
       278   4  5.269655E+05  4.721311E+02  3.539536E+03 -2.051756E+04  2.751810E+03  9.350325E+03
       278   5  5.268001E+05 -8.578452E+01  1.985827E+03 -7.411338E+03  1.758192E+03  7.765136E+03
       278   6  5.269696E+05 -2.382219E+01  1.244352E+03 -2.051753E+04  7.638624E+02  6.133955E+03
       278   7  7.928115E+05  6.621198E+04  6.659126E+04 -2.058821E+04  1.889569E+03  9.349950E+03
       278   8  7.541850E+05  5.616125E+04  5.600039E+04 -7.413688E+03  8.701898E+02  7.764937E+03
       278   9  7.158997E+05  4.673476E+04  4.623943E+04 -2.045099E+04 -1.498375E+02  6.133944E+03
       278  10  2.611844E+05 -6.527289E+04 -5.951730E+04 -2.044697E+04 -3.364305E-10 -2.587965E-11
       278  11  2.994626E+05 -5.633661E+04 -5.203247E+04 -7.409005E+03 -7.367879E-12  8.937637E-11
       278  12  3.380722E+05 -4.678502E+04 -4.375329E+04 -2.058405E+04 -9.840508E-11  7.002690E-11
       278  13  5.269655E+05  4.720351E+02  3.539357E+03 -2.051758E+04 -1.923908E-10  2.181577E-11
       278  14  5.268001E+05 -8.585011E+01  1.985708E+03 -7.411349E+03 -1.346527E-10  1.151647E-10
       278  15  5.269696E+05 -2.386276E+01  1.244281E+03 -2.051753E+04 -1.655915E-10 -5.221312E-11
       278  16  7.928115E+05  6.621188E+04  6.659109E+04 -2.058823E+04 -1.090278E-10 -1.618499E-10
       278  17  7.541850E+05  5.616119E+04  5.600028E+04 -7.413694E+03 -2.725918E-10  1.767170E-10
       278  18  7.158997E+05  4.673472E+04  4.623935E+04 -2.045099E+04 -4.660699E-10 -1.290310E-10
       278  19  2.611844E+05 -6.527279E+04 -5.951711E+04 -2.044694E+04 -3.613685E+03 -9.350701E+03
       278  20  2.994626E+05 -5.633654E+04 -5.203234E+04 -7.408989E+03 -2.645870E+03 -7.765335E+03
       278  21  3.380723E+05 -4.678498E+04 -4.375322E+04 -2.058405E+04 -1.677286E+03 -6.133965E+03
       278  22  5.269655E+05  4.721311E+02  3.539536E+03 -2.051756E+04 -2.751810E+03 -9.350325E+03
       278  23  5.268001E+05 -8.578452E+01  1.985827E+03 -7.411338E+03 -1.758192E+03 -7.765136E+03
       278  24  5.269696E+05 -2.382219E+01  1.244352E+03 -2.051753E+04 -7.638624E+02 -6.133955E+03
       278  25  7.928115E+05  6.621198E+04  6.659126E+04 -2.058821E+04 -1.889569E+03 -9.349950E+03
       278  26  7.541850E+05  5.616125E+04  5.600039E+04 -7.413688E+03 -8.701898E+02 -7.764937E+03
       278  27  7.158997E+05  4.673476E+04  4.623943E+04 -2.045099E+04  1.498375E+02 -6.133944E+03
       279   1  3.846563E+05 -3.513117E+04 -3.266308E+04 -2.045232E+04  1.455408E+03  5.178563E+03
       279   2  4.227435E+05 -2.577571E+04 -2.396627E+04 -7.455650E+03  1.070316E+03  3.556492E+03
       279   3  4.609001E+05 -1.633863E+04 -1.499916E+04 -2.045665E+04  6.848603E+02  1.934407E+03
       279   4  5.269144E+05  4.334220E+01  1.022492E+03 -2.046975E+04  5.596522E+02  5.178642E+03
       279   5  5.268814E+05 -1.045986E+01  7.764007E+02 -7.471051E+03  1.744492E+02  3.556653E+03
       279   6  5.269161E+05  1.731650E+01  8.005767E+02 -2.046976E+04 -2.110938E+02  1.934655E+03
       279   7  6.691910E+05  3.521640E+04  3.470667E+04 -2.048718E+04 -3.363081E+02  5.178721E+03
       279   8  6.310294E+05  2.575401E+04  2.551832E+04 -7.486454E+03 -7.215670E+02  3.556814E+03
       279   9  5.929361E+05  1.637295E+04  1.660001E+04 -2.048286E+04 -1.107143E+03  1.934902E+03
       279  10  3.846563E+05 -3.513120E+04 -3.266314E+04 -2.045233E+04 -4.212780E-10  1.026624E-11
       279  11  4.227434E+05 -2.577572E+04 -2.396630E+04 -7.455653E+03 -1.972168E-10  2.941771E-11
       279  12  4.609001E+05 -1.633863E+04 -1.499917E+04 -2.045665E+04 -3.125914E-10 -2.300757E-10
       279  13  5.269144E+05  4.331331E+01  1.022441E+03 -2.046975E+04 -5.027024E-11 -3.016231E-11
       279  14  5.268814E+05 -1.047345E+01  7.763769E+02 -7.471052E+03 -4.277078E-10  1.878847E-10
       279  15  5.269161E+05  1.731247E+01  8.005696E+02 -2.046975E+04  6.567984E-11 -6.956529E-12
       279  16  6.691910E+05  3.521637E+04  3.470662E+04 -2.048718E+04  4.985982E-10 -4.279095E-11
       279  17  6.310293E+05  2.575399E+04  2.551829E+04 -7.486452E+03 -9.872480E-11  1.569625E-10
       279  18  5.929361E+05  1.637294E+04  1.660000E+04 -2.048286E+04 -1.880168E-10  1.073073E-10
       279  19  3.846563E+05 -3.513117E+04 -3.266308E+04 -2.045232E+04 -1.455408E+03 -5.178563E+03
       279  20  4.227435E+05 -2.577571E+04 -2.396627E+04 -7.455650E+03 -1.070316E+03 -3.556492E+03
       279  21  4.609001E+05 -1.633863E+04 -1.499916E+04 -2.045665E+04 -6.848603E+02 -1.934407E+03
       279  22  5.269144E+05  4.334220E+01  1.022492E+03 -2.046975E+04 -5.596522E+02 -5.178642E+03
       279  23  5.268814E+05 -1.045986E+01  7.764007E+02 -7.471051E+03 -1.744492E+02 -3.556653E+03
       279  24  5.269161E+05  1.731650E+01  8.005767E+02 -2.046976E+04  2.110938E+02 -1.934655E+03
       279  25  6.691910E+05  3.521640E+04  3.470667E+04 -2.048718E+04  3.363081E+02 -5.178721E+03
       279  26  6.310294E+05  2.575401E+04  2.551832E+04 -7.486454E+03  7.215670E+02 -3.556814E+03
       279  27  5.929361E+05  1.637295E+04  1.660001E+04 -2.048286E+04  1.107143E+03 -1.934902E+03
       280   1  5.073068E+05 -4.822939E+03 -3.647464E+03 -2.042804E+04  5.302665E+02  9.906073E+02
       280   2  5.452933E+05  4.538827E+03  5.690927E+03 -7.474222E+03 -1.237301E+02 -6.291156E+02
       280   3  5.833909E+05  1.406590E+04  1.549226E+04 -2.045969E+04 -7.777072E+02 -2.246667E+03
       280   4  5.269265E+05  7.961473E+00  8.985725E+02 -2.045686E+04 -3.650860E+02  9.908783E+02
       280   5  5.268715E+05 -1.866370E+01  1.314313E+03 -7.487175E+03 -1.017890E+03 -6.288624E+02
       280   6  5.269260E+05  1.199206E+02  2.192276E+03 -2.045682E+04 -1.670636E+03 -2.246426E+03
       280   7  5.465465E+05  4.838836E+03  5.444586E+03 -2.048568E+04 -1.260467E+03  9.911494E+02
       280   8  5.084499E+05 -4.576179E+03 -3.062322E+03 -7.500127E+03 -1.912024E+03 -6.286091E+02
       280   9  4.704640E+05 -1.382629E+04 -1.110793E+04 -2.045396E+04 -2.563484E+03 -2.246185E+03
       280  10  5.073068E+05 -4.822940E+03 -3.647466E+03 -2.042804E+04  3.479338E-10 -3.393395E-10
       280  11  5.452933E+05  4.538827E+03  5.690927E+03 -7.474222E+03  6.345781E-10 -1.168329E-10
       280  12  5.833909E+05  1.406589E+04  1.549225E+04 -2.045969E+04 -3.604194E-10  4.356067E-10
       280  13  5.269265E+05  7.960382E+00  8.985704E+02 -2.045686E+04  7.871869E-11 -3.323039E-11
       280  14  5.268715E+05 -1.866441E+01  1.314310E+03 -7.487176E+03  2.539185E-10 -1.216176E-11
       280  15  5.269260E+05  1.199145E+02  2.192261E+03 -2.045683E+04  2.082369E-10  2.697619E-10
       280  16  5.465465E+05  4.838834E+03  5.444581E+03 -2.048568E+04  1.809796E-10 -1.082599E-10
       280  17  5.084499E+05 -4.576180E+03 -3.062330E+03 -7.500128E+03  2.549418E-10 -7.033111E-11
       280  18  4.704640E+05 -1.382629E+04 -1.110795E+04 -2.045396E+04  2.175887E-10 -9.792093E-11
       280  19  5.073068E+05 -4.822939E+03 -3.647464E+03 -2.042804E+04 -5.302665E+02 -9.906073E+02
       280  20  5.452933E+05  4.538827E+03  5.690927E+03 -7.474222E+03  1.237301E+02  6.291156E+02
       280  21  5.833909E+05  1.406590E+04  1.549226E+04 -2.045969E+04  7.777072E+02  2.246667E+03
       280  22  5.269265E+05  7.961473E+00  8.985725E+02 -2.045686E+04  3.650860E+02 -9.908783E+02
       280  23  5.268715E+05 -1.866370E+01  1.314313E+03 -7.487175E+03  1.017890E+03  6.288624E+02
       280  24  5.269260E+05  1.199206E+02  2.192276E+03 -2.045682E+04  1.670636E+03  2.246426E+03
       280  25  5.465465E+05  4.838836E+03  5.444586E+03 -2.048568E+04  1.260467E+03 -9.911494E+02
       280  26  5.084499E+05 -4.576179E+03 -3.062322E+03 -7.500127E+03  1.912024E+03  6.286091E+02
       280  27  4.704640E+05 -1.382629E+04 -1.110793E+04 -2.045396E+04  2.563484E+03  2.246185E+03
       281   1  6.299682E+05  2.542567E+04  2.738829E+04 -2.028180E+04 -1.214643E+03 -3.196504E+03
       281   2  6.678111E+05  3.472031E+04  3.832688E+04 -7.487902E+03 -3.642941E+03 -4.818379E+03
       281   3  7.063682E+05  4.556963E+04  5.123514E+04 -2.073934E+04 -6.070903E+03 -6.400381E+03
       281   4  5.270574E+05 -5.546326E+01  2.826175E+03 -2.048054E+04 -2.121680E+03 -3.196303E+03
       281   5  5.267009E+05 -1.872433E+02  4.804891E+03 -7.457601E+03 -4.527473E+03 -4.818300E+03
       281   6  5.270541E+05  1.232248E+03  8.738270E+03 -2.048035E+04 -6.932781E+03 -6.400416E+03
       281   7  4.241563E+05 -2.553736E+04 -2.173668E+04 -2.067924E+04 -3.028569E+03 -3.196101E+03
       281   8  3.856089E+05 -3.509623E+04 -2.871849E+04 -7.427306E+03 -5.411804E+03 -4.818221E+03
       281   9  3.477695E+05 -4.310744E+04 -3.376083E+04 -2.022144E+04 -7.794412E+03 -6.400453E+03
       281  10  6.299682E+05  2.542566E+04  2.738827E+04 -2.028180E+04  2.575230E-10  3.540291E-10
       281  11  6.678111E+05  3.472028E+04  3.832681E+04 -7.487916E+03  1.347461E-10 -1.853010E-10
       281  12  7.063682E+05  4.556958E+04  5.123499E+04 -2.073937E+04 -3.141446E-10 -1.622610E-10
       281  13  5.270574E+05 -5.547544E+01  2.826147E+03 -2.048054E+04 -3.401548E-10  5.123990E-11
       281  14  5.267009E+05 -1.872737E+02  4.804809E+03 -7.457619E+03 -3.564817E-10 -1.768266E-10
       281  15  5.270540E+05  1.232192E+03  8.738103E+03 -2.048039E+04  5.109390E-10 -9.675477E-11
       281  16  4.241563E+05 -2.553737E+04 -2.173672E+04 -2.067925E+04 -2.521987E-10 -1.951046E-10
       281  17  3.856089E+05 -3.509626E+04 -2.871859E+04 -7.427327E+03  3.277253E-10 -2.545570E-10
       281  18  3.477694E+05 -4.310750E+04 -3.376102E+04 -2.022148E+04  3.744391E-10  8.887956E-12
       281  19  6.299682E+05  2.542567E+04  2.738829E+04 -2.028180E+04  1.214643E+03  3.196504E+03
       281  20  6.678111E+05  3.472031E+04  3.832688E+04 -7.487902E+03  3.642941E+03  4.818379E+03
       281  21  7.063682E+05  4.556963E+04  5.123514E+04 -2.073934E+04  6.070903E+03  6.400381E+03
       281  22  5.270574E+05 -5.546326E+01  2.826175E+03 -2.048054E+04  2.121680E+03  3.196303E+03
       281  23  5.267009E+05 -1.872433E+02  4.804891E+03 -7.457601E+03  4.527473E+03  4.818300E+03
       281  24  5.270541E+05  1.232248E+03  8.738270E+03 -2.048035E+04  6.932781E+03  6.400416E+03
       281  25  4.241563E+05 -2.553736E+04 -2.173668E+04 -2.067924E+04  3.028569E+03  3.196101E+03
       281  26  3.856089E+05 -3.509623E+04 -2.871849E+04 -7.427306E+03  5.411804E+03  4.818221E+03
       281  27  3.477695E+05 -4.310744E+04 -3.376083E+04 -2.022144E+04  7.794412E+03  6.400453E+03
       282   1  7.541650E+05  5.526165E+04  6.501373E+04 -1.861503E+04 -7.630414E+03 -7.442525E+03
       282   2  7.901108E+05  6.372880E+04  8.178902E+04 -8.339444E+03 -1.766439E+04 -9.043698E+03
       282   3  8.313761E+05  8.795586E+04  1.090462E+05 -2.435910E+04 -2.769858E+04 -9.988649E+03
       282   4  5.280601E+05 -6.886158E+02  1.120344E+04 -2.053534E+04 -8.694138E+03 -7.442639E+03
       282   5  5.254269E+05 -1.742874E+03  1.891726E+04 -7.388799E+03 -1.836188E+04 -9.044063E+03
       282   6  5.280505E+05  1.290309E+04  3.686213E+04 -2.053798E+04 -2.802920E+04 -9.989229E+03
       282   7  3.020020E+05 -5.664256E+04 -4.261042E+04 -2.245495E+04 -9.757476E+03 -7.442746E+03
       282   8  2.608072E+05 -6.721958E+04 -4.395938E+04 -6.438562E+03 -1.905907E+04 -9.044430E+03
       282   9  2.248092E+05 -6.215626E+04 -3.532834E+04 -1.671874E+04 -2.835965E+04 -9.989813E+03
       282  10  7.541650E+05  5.526158E+04  6.501352E+04 -1.861508E+04  1.355454E-10 -3.070003E-11
       282  11  7.901104E+05  6.372863E+04  8.178828E+04 -8.339573E+03  2.750557E-11  6.657878E-11
       282  12  8.313753E+05  8.795554E+04  1.090445E+05 -2.435933E+04  1.239298E-10 -3.246634E-11
       282  13  5.280600E+05 -6.886955E+02  1.120320E+04 -2.053540E+04 -3.042161E-11  3.270655E-11
       282  14  5.254265E+05 -1.743053E+03  1.891648E+04 -7.388933E+03 -2.373092E-10  1.942420E-11
       282  15  5.280496E+05  1.290277E+04  3.686047E+04 -2.053821E+04 -5.203890E-11  3.568694E-11
       282  16  3.020019E+05 -5.664264E+04 -4.261070E+04 -2.245501E+04 -1.270231E-10  5.073906E-11
       282  17  2.608068E+05 -6.721977E+04 -4.396022E+04 -6.438701E+03 -2.737342E-10 -1.427632E-10
       282  18  2.248084E+05 -6.215658E+04 -3.533004E+04 -1.671897E+04 -4.407504E-10  1.730331E-10
       282  19  7.541650E+05  5.526165E+04  6.501373E+04 -1.861503E+04  7.630414E+03  7.442525E+03
       282  20  7.901108E+05  6.372880E+04  8.178902E+04 -8.339444E+03  1.766439E+04  9.043698E+03
       282  21  8.313761E+05  8.795586E+04  1.090462E+05 -2.435910E+04  2.769858E+04  9.988649E+03
       282  22  5.280601E+05 -6.886158E+02  1.120344E+04 -2.053534E+04  8.694138E+03  7.442639E+03
       282  23  5.254269E+05 -1.742874E+03  1.891726E+04 -7.388799E+03  1.836188E+04  9.044063E+03
       282  24  5.280505E+05  1.290309E+04  3.686213E+04 -2.053798E+04  2.802920E+04  9.989229E+03
       282  25  3.020020E+05 -5.664256E+04 -4.261042E+04 -2.245495E+04  9.757476E+03  7.442746E+03
       282  26  2.608072E+05 -6.721958E+04 -4.395938E+04 -6.438562E+03  1.905907E+04  9.044430E+03
       282  27  2.248092E+05 -6.215626E+04 -3.532834E+04 -1.671874E+04  2.835965E+04  9.989813E+03
       283   1  8.876738E+05  7.971744E+04  1.285155E+05 -2.236477E+03 -3.166782E+04 -1.232125E+04
       283   2  9.040873E+05  7.951988E+04  1.655396E+05 -2.040344E+04 -7.650147E+04 -1.340708E+04
       283   3  9.664093E+05  2.389778E+05  2.716745E+05 -6.512897E+04 -1.213453E+05 -4.548049E+03
       283   4  5.368772E+05 -7.043384E+03  4.530945E+04 -2.056655E+04 -3.499205E+04 -1.232196E+04
       283   5  5.143683E+05 -1.685254E+04  7.299794E+04 -7.337108E+03 -7.431026E+04 -1.340801E+04
       283   6  5.368379E+05  1.320876E+05  1.659993E+05 -2.066406E+04 -1.136353E+05 -4.550949E+03
       283   7  1.861941E+05 -9.381179E+04 -3.790497E+04 -3.888623E+04 -3.831441E+04 -1.232247E+04
       283   8  1.247890E+05 -1.132352E+05 -1.955424E+04  5.720973E+03 -7.212040E+04 -1.340884E+04
       283   9  1.074386E+05  2.519117E+04  6.031171E+04  2.377004E+04 -1.059307E+05 -4.552750E+03
       283  10  8.876727E+05  7.971701E+04  1.285134E+05 -2.236791E+03 -3.952609E-10  4.189958E-11
       283  11  9.040810E+05  7.951812E+04  1.655283E+05 -2.040427E+04 -6.549219E-10  1.398537E-10
       283  12  9.663935E+05  2.389738E+05  2.716468E+05 -6.512941E+04 -4.958913E-11 -1.069066E-10
       283  13  5.368758E+05 -7.043876E+03  4.530686E+04 -2.056690E+04 -3.218990E-10  1.321889E-10
       283  14  5.143624E+05 -1.685421E+04  7.298723E+04 -7.337910E+03 -2.836652E-10  9.948318E-11
       283  15  5.368240E+05  1.320841E+05  1.659750E+05 -2.066448E+04 -1.536102E-10  6.260445E-11
       283  16  1.861925E+05 -9.381234E+04 -3.790801E+04 -3.888661E+04  2.873460E-10  2.572396E-10
       283  17  1.247834E+05 -1.132368E+05 -1.956435E+04  5.720194E+03  3.302529E-10  2.442441E-10
       283  18  1.074265E+05  2.518813E+04  6.029058E+04  2.376965E+04  1.568051E-10  2.544728E-12
       283  19  8.876738E+05  7.971744E+04  1.285155E+05 -2.236477E+03  3.166782E+04  1.232125E+04
       283  20  9.040873E+05  7.951988E+04  1.655396E+05 -2.040344E+04  7.650147E+04  1.340708E+04
       283  21  9.664093E+05  2.389778E+05  2.716745E+05 -6.512897E+04  1.213453E+05  4.548049E+03
       283  22  5.368772E+05 -7.043384E+03  4.530945E+04 -2.056655E+04  3.499205E+04  1.232196E+04
       283  23  5.143683E+05 -1.685254E+04  7.299794E+04 -7.337108E+03  7.431026E+04  1.340801E+04
       283  24  5.368379E+05  1.320876E+05  1.659993E+05 -2.066406E+04  1.136353E+05  4.550949E+03
       283  25  1.861941E+05 -9.381179E+04 -3.790497E+04 -3.888623E+04  3.831441E+04  1.232247E+04
       283  26  1.247890E+05 -1.132352E+05 -1.955424E+04  5.720973E+03  7.212040E+04  1.340884E+04
       283  27  1.074386E+05  2.519117E+04  6.031171E+04  2.377004E+04  1.059307E+05  4.552750E+03
       284   1  1.199266E+05  8.068597E+05  1.335313E+05 -5.901675E+04  2.247596E+03  5.359784E+04
       284   2  3.711663E+04  7.243502E+05  7.331618E+04 -2.083241E+04  6.099322E+03  3.340102E+04
       284   3  2.324087E+04  6.615409E+05  4.344142E+04 -3.191439E+04  3.479122E+03  1.319627E+04
       284   4  5.708217E+04  5.549004E+05  7.141409E+04 -3.951038E+04  2.255109E+03  4.968720E+04
       284   5 -7.177203E+03  5.453694E+05  3.080985E+04 -1.492250E+04  6.100259E+03  3.307242E+04
       284   6 -3.111943E+03  5.549218E+05  1.806966E+04 -3.960021E+04  3.473541E+03  1.644731E+04
       284   7 -5.765590E+03  3.029996E+05  9.292417E+03 -2.001190E+04  2.262378E+03  4.577815E+04
       284   8 -5.147322E+04  3.664181E+05 -1.169869E+04 -9.014290E+03  6.101190E+03  3.274391E+04
       284   9 -2.946535E+04  4.483134E+05 -7.302837E+03 -4.728471E+04  3.467878E+03  1.969780E+04
       284  10  1.199258E+05  8.068566E+05  1.335259E+05 -5.901685E+04 -1.748838E-10 -1.566239E-10
       284  11  3.711629E+04  7.243490E+05  7.331401E+04 -2.083258E+04 -3.076363E-10  8.263588E-11
       284  12  2.324082E+04  6.615407E+05  4.344107E+04 -3.191442E+04  1.100731E-09  2.942694E-10
       284  13  5.708150E+04  5.548978E+05  7.140944E+04 -3.951047E+04  7.725664E-10 -1.034739E-10
       284  14 -7.177537E+03  5.453682E+05  3.080773E+04 -1.492266E+04 -1.930856E-09  1.962343E-10
       284  15 -3.112029E+03  5.549215E+05  1.806912E+04 -3.960026E+04  7.402220E-10 -2.981735E-12
       284  16 -5.766158E+03  3.029974E+05  9.288471E+03 -2.001199E+04 -7.424854E-11  1.351476E-10
       284  17 -5.147354E+04  3.664169E+05 -1.170077E+04 -9.014451E+03  6.793984E-11 -3.485623E-12
       284  18 -2.946547E+04  4.483130E+05 -7.303588E+03 -4.728477E+04  1.439467E-10 -2.787874E-10
       284  19  1.199266E+05  8.068597E+05  1.335313E+05 -5.901675E+04 -2.247596E+03 -5.359784E+04
       284  20  3.711663E+04  7.243502E+05  7.331618E+04 -2.083241E+04 -6.099322E+03 -3.340102E+04
       284  21  2.324087E+04  6.615409E+05  4.344142E+04 -3.191439E+04 -3.479122E+03 -1.319627E+04
       284  22  5.708217E+04  5.549004E+05  7.141409E+04 -3.951038E+04 -2.255109E+03 -4.968720E+04
       284  23 -7.177203E+03  5.453694E+05  3.080985E+04 -1.492250E+04 -6.100259E+03 -3.307242E+04
       284  24 -3.111943E+03  5.549218E+05  1.806966E+04 -3.960021E+04 -3.473541E+03 -1.644731E+04
       284  25 -5.765590E+03  3.029996E+05  9.292417E+03 -2.001190E+04 -2.262378E+03 -4.577815E+04
       284  26 -5.147322E+04  3.664181E+05 -1.169869E+04 -9.014290E+03 -6.101190E+03 -3.274391E+04
       284  27 -2.946535E+04  4.483134E+05 -7.302837E+03 -4.728471E+04 -3.467878E+03 -1.969780E+04
       285   1  1.030483E+04  5.690591E+05  1.821607E+04 -4.094718E+04  7.097042E+02  1.226731E+04
       285   2 -1.384567E+04  4.959734E+05 -8.149629E+03 -1.542138E+04 -1.874605E+03  9.911455E+03
       285   3 -3.384479E+04  4.240404E+05 -3.198815E+04 -3.929922E+04 -4.300368E+03  7.556426E+03
       285   4  5.824504E+03  5.509390E+05  1.395042E+04 -3.959516E+04  7.072294E+02  1.374104E+04
       285   5 -3.932193E+02  5.503581E+05  4.770418E+03 -1.490033E+04 -1.876870E+03  1.129791E+04
       285   6 -2.443932E+03  5.509408E+05 -1.820818E+03 -3.960879E+04 -4.302439E+03  8.855334E+03
       285   7  1.344165E+03  5.328192E+05  9.684754E+03 -3.824317E+04  7.047609E+02  1.521473E+04
       285   8  1.305902E+04  6.047455E+05  1.769027E+04 -1.437923E+04 -1.879133E+03  1.268448E+04
       285   9  2.895577E+04  6.778559E+05  2.834539E+04 -3.991841E+04 -4.304512E+03  1.015450E+04
       285  10  1.030479E+04  5.690589E+05  1.821579E+04 -4.094719E+04  3.121390E-10 -5.469427E-10
       285  11 -1.384570E+04  4.959733E+05 -8.149820E+03 -1.542136E+04  3.001391E-10 -2.850683E-10
       285  12 -3.384483E+04  4.240404E+05 -3.198829E+04 -3.929920E+04 -6.435849E-10  1.549776E-10
       285  13  5.824453E+03  5.509388E+05  1.395007E+04 -3.959517E+04  4.853119E-10  1.738276E-11
       285  14 -3.932573E+02  5.503580E+05  4.770172E+03 -1.490031E+04  7.373571E-10 -1.315405E-10
       285  15 -2.443973E+03  5.509407E+05 -1.821000E+03 -3.960876E+04  1.114881E-09 -1.518698E-10
       285  16  1.344102E+03  5.328190E+05  9.684318E+03 -3.824318E+04  2.277347E-10  6.201605E-10
       285  17  1.305897E+04  6.047453E+05  1.768996E+04 -1.437921E+04 -1.147117E-09  3.140053E-10
       285  18  2.895572E+04  6.778558E+05  2.834517E+04 -3.991837E+04 -2.707979E-10 -1.455283E-10
       285  19  1.030483E+04  5.690591E+05  1.821607E+04 -4.094718E+04 -7.097042E+02 -1.226731E+04
       285  20 -1.384567E+04  4.959734E+05 -8.149629E+03 -1.542138E+04  1.874605E+03 -9.911455E+03
       285  21 -3.384479E+04  4.240404E+05 -3.198815E+04 -3.929922E+04  4.300368E+03 -7.556426E+03
       285  22  5.824504E+03  5.509390E+05  1.395042E+04 -3.959516E+04 -7.072294E+02 -1.374104E+04
       285  23 -3.932193E+02  5.503581E+05  4.770418E+03 -1.490033E+04  1.876870E+03 -1.129791E+04
       285  24 -2.443932E+03  5.509408E+05 -1.820818E+03 -3.960879E+04  4.302439E+03 -8.855334E+03
       285  25  1.344165E+03  5.328192E+05  9.684754E+03 -3.824317E+04 -7.047609E+02 -1.521473E+04
       285  26  1.305902E+04  6.047455E+05  1.769027E+04 -1.437923E+04  1.879133E+03 -1.268448E+04
       285  27  2.895577E+04  6.778559E+05  2.834539E+04 -3.991841E+04  4.304512E+03 -1.015450E+04
       286   1 -5.144978E+04  3.334735E+05 -5.563832E+04 -3.624963E+04 -7.378455E+03  5.500778E+03
       286   2 -6.836483E+04  2.647699E+05 -7.963992E+04 -1.690750E+04 -9.916300E+03  1.650835E+04
       286   3 -1.131369E+05  1.875834E+05 -1.177913E+05 -4.700577E+04 -3.558930E+03  2.752643E+04
       286   4  1.882930E+03  5.489763E+05 -4.434364E+03 -3.960076E+04 -7.384410E+03  9.351362E+03
       286   5  2.890163E+03  5.527917E+05 -1.122268E+04 -1.489724E+04 -9.914444E+03  1.544996E+04
       286   6 -2.310047E+04  5.489748E+05 -2.874900E+04 -3.963344E+04 -3.550892E+03  2.156050E+04
       286   7  5.521235E+04  7.645216E+05  4.676641E+04 -4.295304E+04 -7.390406E+03  1.320328E+04
       286   8  7.413921E+04  8.408896E+05  5.718878E+04 -1.288601E+04 -9.912596E+03  1.439108E+04
       286   9  6.692643E+04  9.104852E+05  6.028381E+04 -3.225679E+04 -3.542998E+03  1.559110E+04
       286  10 -5.144985E+04  3.334735E+05 -5.563848E+04 -3.624959E+04  9.829328E-11 -2.212643E-10
       286  11 -6.836501E+04  2.647696E+05 -7.964062E+04 -1.690736E+04  2.963403E-10 -1.115525E-10
       286  12 -1.131371E+05  1.875826E+05 -1.177927E+05 -4.700569E+04 -6.148105E-11  1.439236E-10
       286  13  1.882848E+03  5.489762E+05 -4.434631E+03 -3.960070E+04 -9.784758E-10  9.103425E-11
       286  14  2.889994E+03  5.527914E+05 -1.122331E+04 -1.489711E+04  5.062417E-10 -1.168840E-10
       286  15 -2.310061E+04  5.489743E+05 -2.874990E+04 -3.963338E+04 -3.242920E-10  6.988888E-11
       286  16  5.521224E+04  7.645214E+05  4.676598E+04 -4.295296E+04  6.015757E-10  1.353800E-10
       286  17  7.413905E+04  8.408894E+05  5.718821E+04 -1.288590E+04 -6.913033E-11 -4.030234E-11
       286  18  6.692635E+04  9.104849E+05  6.028333E+04 -3.225674E+04 -5.095734E-10 -8.522894E-11
       286  19 -5.144978E+04  3.334735E+05 -5.563832E+04 -3.624963E+04  7.378455E+03 -5.500778E+03
       286  20 -6.836483E+04  2.647699E+05 -7.963992E+04 -1.690750E+04  9.916300E+03 -1.650835E+04
       286  21 -1.131369E+05  1.875834E+05 -1.177913E+05 -4.700577E+04  3.558930E+03 -2.752643E+04
       286  22  1.882930E+03  5.489763E+05 -4.434364E+03 -3.960076E+04  7.384410E+03 -9.351362E+03
       286  23  2.890163E+03  5.527917E+05 -1.122268E+04 -1.489724E+04  9.914444E+03 -1.544996E+04
       286  24 -2.310047E+04  5.489748E+05 -2.874900E+04 -3.963344E+04  3.550892E+03 -2.156050E+04
       286  25  5.521235E+04  7.645216E+05  4.676641E+04 -4.295304E+04  7.390406E+03 -1.320328E+04
       286  26  7.413921E+04  8.408896E+05  5.718878E+04 -1.288601E+04  9.912596E+03 -1.439108E+04
       286  27  6.692643E+04  9.104852E+05  6.028381E+04 -3.225679E+04  3.542998E+03 -1.559110E+04
       287   1 -8.125675E+05 -3.411548E+05 -2.488095E+05 -2.758225E+05 -1.086269E+05 -3.670554E+04
       287   2 -7.793076E+05 -1.790611E+05 -1.476748E+05 -2.836621E+05 -7.083636E+04 -1.398081E+04
       287   3 -7.950941E+05 -1.703744E+05 -1.160072E+05 -2.660824E+05 -3.003136E+04  7.425290E+02
       287   4 -5.111507E+05 -1.902571E+05 -1.596317E+05 -1.556056E+05 -1.027521E+05 -3.450197E+04
       287   5 -4.787136E+05 -5.526003E+04 -6.682896E+04 -1.904067E+05 -6.907716E+04 -1.332081E+04
       287   6 -4.944802E+05 -7.281461E+04 -4.020437E+04 -1.997971E+05 -3.238873E+04 -1.434996E+02
       287   7 -2.096439E+05 -3.933239E+04 -7.046306E+04 -3.532976E+04 -9.687424E+04 -3.229635E+04
       287   8 -1.780320E+05  6.855146E+04  1.400872E+04 -9.710873E+04 -6.731702E+04 -1.266039E+04
       287   9 -1.937780E+05  2.474577E+04  3.559173E+04 -1.334852E+05 -3.474735E+04 -1.029853E+03
       287  10 -8.125805E+05 -3.411594E+05 -2.488342E+05 -2.758257E+05  3.278518E-10  5.023744E-11
       287  11 -7.793131E+05 -1.790626E+05 -1.476846E+05 -2.836629E+05 -3.101234E-10  1.258797E-10
       287  12 -7.950951E+05 -1.703746E+05 -1.160089E+05 -2.660824E+05  9.199555E-10 -1.225651E-10
       287  13 -5.111623E+05 -1.902613E+05 -1.596538E+05 -1.556085E+05  4.283994E-10  7.431945E-11
       287  14 -4.787188E+05 -5.526150E+04 -6.683827E+04 -1.904074E+05 -6.701084E-10  1.011358E-10
       287  15 -4.944813E+05 -7.281489E+04 -4.020634E+04 -1.997971E+05 -1.783821E-10 -1.728814E-10
       287  16 -2.096543E+05 -3.933603E+04 -7.048266E+04 -3.533228E+04  2.743701E-10  1.032670E-10
       287  17 -1.780369E+05  6.855008E+04  1.399990E+04 -9.710942E+04  2.622254E-10  7.451314E-11
       287  18 -1.937793E+05  2.474544E+04  3.558946E+04 -1.334852E+05 -6.717907E-10 -8.726425E-11
       287  19 -8.125675E+05 -3.411548E+05 -2.488095E+05 -2.758225E+05  1.086269E+05  3.670554E+04
       287  20 -7.793076E+05 -1.790611E+05 -1.476748E+05 -2.836621E+05  7.083636E+04  1.398081E+04
       287  21 -7.950941E+05 -1.703744E+05 -1.160072E+05 -2.660824E+05  3.003136E+04 -7.425290E+02
       287  22 -5.111507E+05 -1.902571E+05 -1.596317E+05 -1.556056E+05  1.027521E+05  3.450197E+04
       287  23 -4.787136E+05 -5.526003E+04 -6.682896E+04 -1.904067E+05  6.907716E+04  1.332081E+04
       287  24 -4.944802E+05 -7.281461E+04 -4.020437E+04 -1.997971E+05  3.238873E+04  1.434996E+02
       287  25 -2.096439E+05 -3.933239E+04 -7.046306E+04 -3.532976E+04  9.687424E+04  3.229635E+04
       287  26 -1.780320E+05  6.855146E+04  1.400872E+04 -9.710873E+04  6.731702E+04  1.266039E+04
       287  27 -1.937780E+05  2.474577E+04  3.559173E+04 -1.334852E+05  3.474735E+04  1.029853E+03
       288   1 -7.501995E+05 -1.907430E+05 -1.019213E+05 -2.654072E+05 -2.611810E+04  3.478568E+02
       288   2 -7.331959E+05 -1.625078E+05 -7.964606E+04 -2.558424E+05 -1.752225E+04  3.243302E+03
       288   3 -7.122427E+05 -1.597895E+05 -6.773991E+04 -2.547230E+05 -8.703808E+03  5.546250E+03
       288   4 -4.891901E+05 -8.914866E+04 -3.263572E+04 -1.905497E+05 -2.612396E+04  3.451777E+02
       288   5 -4.903368E+05 -7.036090E+04 -1.577566E+04 -1.886033E+05 -1.783066E+04  3.127114E+03
       288   6 -4.874716E+05 -7.702616E+04 -9.041419E+03 -1.951031E+05 -9.315056E+03  5.316485E+03
       288   7 -2.281155E+05  1.245084E+04  3.664374E+04 -1.156636E+05 -2.612982E+04  3.424984E+02
       288   8 -2.474206E+05  2.178995E+04  4.808968E+04 -1.213405E+05 -1.813920E+04  3.010875E+03
       288   9 -2.626509E+05  5.740001E+03  4.965300E+04 -1.354637E+05 -9.926549E+03  5.086631E+03
       288  10 -7.502002E+05 -1.907432E+05 -1.019226E+05 -2.654072E+05 -2.693571E-10 -3.406160E-10
       288  11 -7.331962E+05 -1.625079E+05 -7.964666E+04 -2.558423E+05 -4.348375E-10  1.658012E-10
       288  12 -7.122428E+05 -1.597896E+05 -6.774011E+04 -2.547230E+05  1.182808E-11 -9.702705E-12
       288  13 -4.891909E+05 -8.914884E+04 -3.263701E+04 -1.905497E+05  2.243415E-10 -2.110267E-10
       288  14 -4.903371E+05 -7.036099E+04 -1.577628E+04 -1.886033E+05 -4.129633E-10 -3.634140E-11
       288  15 -4.874717E+05 -7.702622E+04 -9.041635E+03 -1.951030E+05 -5.273257E-10  3.375915E-11
       288  16 -2.281162E+05  1.245066E+04  3.664246E+04 -1.156636E+05 -1.149305E-10 -9.357150E-11
       288  17 -2.474209E+05  2.178985E+04  4.808905E+04 -1.213404E+05 -6.518564E-11 -5.375380E-11
       288  18 -2.626511E+05  5.739946E+03  4.965276E+04 -1.354636E+05 -4.964792E-11 -4.849131E-11
       288  19 -7.501995E+05 -1.907430E+05 -1.019213E+05 -2.654072E+05  2.611810E+04 -3.478568E+02
       288  20 -7.331959E+05 -1.625078E+05 -7.964606E+04 -2.558424E+05  1.752225E+04 -3.243302E+03
       288  21 -7.122427E+05 -1.597895E+05 -6.773991E+04 -2.547230E+05  8.703808E+03 -5.546250E+03
       288  22 -4.891901E+05 -8.914866E+04 -3.263572E+04 -1.905497E+05  2.612396E+04 -3.451777E+02
       288  23 -4.903368E+05 -7.036090E+04 -1.577566E+04 -1.886033E+05  1.783066E+04 -3.127114E+03
       288  24 -4.874716E+05 -7.702616E+04 -9.041419E+03 -1.951031E+05  9.315056E+03 -5.316485E+03
       288  25 -2.281155E+05  1.245084E+04  3.664374E+04 -1.156636E+05  2.612982E+04 -3.424984E+02
       288  26 -2.474206E+05  2.178995E+04  4.808968E+04 -1.213405E+05  1.813920E+04 -3.010875E+03
       288  27 -2.626509E+05  5.740001E+03  4.965300E+04 -1.354637E+05  9.926549E+03 -5.086631E+03
       289   1 -6.835630E+05 -1.528962E+05 -5.864298E+04 -2.481673E+05 -7.346845E+03  5.354166E+03
       289   2 -6.681906E+05 -1.382198E+05 -4.996519E+04 -2.365690E+05 -5.128672E+03  5.183996E+03
       289   3 -6.427655E+05 -1.359324E+05 -4.310165E+04 -2.370310E+05 -2.892052E+03  4.963685E+03
       289   4 -4.867749E+05 -7.872325E+04 -7.037863E+03 -1.941761E+05 -7.788974E+03  5.187973E+03
       289   5 -4.917151E+05 -7.191196E+04 -3.675616E+03 -1.883781E+05 -5.596077E+03  5.008414E+03
       289   6 -4.865979E+05 -7.748396E+04 -2.107060E+03 -1.946403E+05 -3.384808E+03  4.778696E+03
       289   7 -2.899494E+05 -4.547900E+03  4.456395E+04 -1.401694E+05 -8.231256E+03  5.021722E+03
       289   8 -3.152098E+05 -5.602335E+03  4.261123E+04 -1.401750E+05 -6.063628E+03  4.832778E+03
       289   9 -3.304072E+05 -1.903429E+04  3.888532E+04 -1.522402E+05 -3.877697E+03  4.593656E+03
       289  10 -6.835631E+05 -1.528962E+05 -5.864313E+04 -2.481673E+05 -1.308480E-10 -2.274051E-10
       289  11 -6.681906E+05 -1.382198E+05 -4.996529E+04 -2.365690E+05 -9.525262E-11 -6.586253E-11
       289  12 -6.427655E+05 -1.359324E+05 -4.310171E+04 -2.370309E+05  4.766364E-10 -1.260076E-10
       289  13 -4.867750E+05 -7.872329E+04 -7.038028E+03 -1.941761E+05 -3.848573E-10 -1.539396E-10
       289  14 -4.917152E+05 -7.191200E+04 -3.675722E+03 -1.883781E+05  7.619496E-11  6.024647E-11
       289  15 -4.865980E+05 -7.748399E+04 -2.107125E+03 -1.946403E+05 -8.604196E-11 -1.376839E-10
       289  16 -2.899494E+05 -4.547946E+03  4.456378E+04 -1.401694E+05 -1.253919E-11 -3.990326E-11
       289  17 -3.152098E+05 -5.602370E+03  4.261112E+04 -1.401750E+05  2.426363E-10 -5.120062E-11
       289  18 -3.304073E+05 -1.903432E+04  3.888525E+04 -1.522402E+05 -6.053915E-12  2.137245E-11
       289  19 -6.835630E+05 -1.528962E+05 -5.864298E+04 -2.481673E+05  7.346845E+03 -5.354166E+03
       289  20 -6.681906E+05 -1.382198E+05 -4.996519E+04 -2.365690E+05  5.128672E+03 -5.183996E+03
       289  21 -6.427655E+05 -1.359324E+05 -4.310165E+04 -2.370310E+05  2.892052E+03 -4.963685E+03
       289  22 -4.867749E+05 -7.872325E+04 -7.037863E+03 -1.941761E+05  7.788974E+03 -5.187973E+03
       289  23 -4.917151E+05 -7.191196E+04 -3.675616E+03 -1.883781E+05  5.596077E+03 -5.008414E+03
       289  24 -4.865979E+05 -7.748396E+04 -2.107060E+03 -1.946403E+05  3.384808E+03 -4.778696E+03
       289  25 -2.899494E+05 -4.547900E+03  4.456395E+04 -1.401694E+05  8.231256E+03 -5.021722E+03
       289  26 -3.152098E+05 -5.602335E+03  4.261123E+04 -1.401750E+05  6.063628E+03 -4.832778E+03
       289  27 -3.304072E+05 -1.903429E+04  3.888532E+04 -1.522402E+05  3.877697E+03 -4.593656E+03
       290   1 -6.153838E+05 -1.260683E+05 -3.537606E+04 -2.297510E+05 -2.388501E+03  4.524311E+03
       290   2 -6.000135E+05 -1.126002E+05 -2.935425E+04 -2.177822E+05 -1.527313E+03  3.779081E+03
       290   3 -5.737530E+05 -1.103151E+05 -2.375476E+04 -2.183931E+05 -6.635274E+02  3.026275E+03
       290   4 -4.864765E+05 -7.768253E+04 -1.647991E+03 -1.945802E+05 -2.870316E+03  4.343484E+03
       290   5 -4.919127E+05 -7.203254E+04 -1.009646E+03 -1.883121E+05 -2.012931E+03  3.596889E+03
       290   6 -4.864588E+05 -7.756489E+04 -7.906356E+02 -1.946238E+05 -1.152967E+03  2.842713E+03
       290   7 -3.575528E+05 -2.929558E+04  3.207877E+04 -1.594027E+05 -3.352243E+03  4.162615E+03
       290   8 -3.838004E+05 -3.146412E+04  2.733401E+04 -1.588374E+05 -2.498642E+03  3.414661E+03
       290   9 -3.991572E+05 -4.481418E+04  2.217284E+04 -1.708516E+05 -1.642483E+03  2.659124E+03
       290  10 -6.153838E+05 -1.260683E+05 -3.537610E+04 -2.297510E+05  1.005012E-10 -7.861866E-11
       290  11 -6.000135E+05 -1.126002E+05 -2.935428E+04 -2.177822E+05  4.953612E-11  1.091147E-10
       290  12 -5.737530E+05 -1.103152E+05 -2.375477E+04 -2.183931E+05 -2.429998E-10 -1.902122E-10
       290  13 -4.864765E+05 -7.768256E+04 -1.648042E+03 -1.945802E+05  1.832245E-11 -1.217355E-10
       290  14 -4.919127E+05 -7.203255E+04 -1.009678E+03 -1.883121E+05  1.533953E-10  2.125816E-11
       290  15 -4.864588E+05 -7.756490E+04 -7.906533E+02 -1.946238E+05 -6.688535E-11 -8.076129E-11
       290  16 -3.575528E+05 -2.929560E+04  3.207872E+04 -1.594027E+05  9.093044E-12 -1.797009E-10
       290  17 -3.838004E+05 -3.146414E+04  2.733397E+04 -1.588374E+05  8.579431E-11 -2.180190E-10
       290  18 -3.991572E+05 -4.481419E+04  2.217282E+04 -1.708516E+05  3.155695E-10  8.754612E-11
       290  19 -6.153838E+05 -1.260683E+05 -3.537606E+04 -2.297510E+05  2.388501E+03 -4.524311E+03
       290  20 -6.000135E+05 -1.126002E+05 -2.935425E+04 -2.177822E+05  1.527313E+03 -3.779081E+03
       290  21 -5.737530E+05 -1.103151E+05 -2.375476E+04 -2.183931E+05  6.635274E+02 -3.026275E+03
       290  22 -4.864765E+05 -7.768253E+04 -1.647991E+03 -1.945802E+05  2.870316E+03 -4.343484E+03
       290  23 -4.919127E+05 -7.203254E+04 -1.009646E+03 -1.883121E+05  2.012931E+03 -3.596889E+03
       290  24 -4.864588E+05 -7.756489E+04 -7.906356E+02 -1.946238E+05  1.152967E+03 -2.842713E+03
       290  25 -3.575528E+05 -2.929558E+04  3.207877E+04 -1.594027E+05  3.352243E+03 -4.162615E+03
       290  26 -3.838004E+05 -3.146412E+04  2.733401E+04 -1.588374E+05  2.498642E+03 -3.414661E+03
       290  27 -3.991572E+05 -4.481418E+04  2.217284E+04 -1.708516E+05  1.642483E+03 -2.659124E+03
       291   1 -5.462635E+05 -1.000401E+05 -1.639669E+04 -2.109786E+05 -3.256665E+02  2.523186E+03
       291   2 -5.307677E+05 -8.658014E+04 -1.116620E+04 -1.988719E+05  5.230293E+02  1.759393E+03
       291   3 -5.043032E+05 -8.438680E+04 -6.347104E+03 -1.994562E+05  1.371673E+03  9.954999E+02
       291   4 -4.864407E+05 -7.758698E+04 -7.872277E+02 -1.946468E+05 -8.155794E+02  2.339478E+03
       291   5 -4.919318E+05 -7.200421E+04 -9.832408E+02 -1.882822E+05  3.309516E+01  1.575700E+03
       291   6 -4.864547E+05 -7.768804E+04 -1.590608E+03 -1.946088E+05  8.817008E+02  8.118157E+02
       291   7 -4.266145E+05 -5.513376E+04  1.482189E+04 -1.783136E+05 -1.305543E+03  2.155751E+03
       291   8 -4.530944E+05 -5.742819E+04  9.199592E+03 -1.776919E+05 -4.568726E+02  1.391994E+03
       291   9 -4.686058E+05 -7.098924E+04  3.165877E+03 -1.897613E+05  3.917116E+02  6.281252E+02
       291  10 -5.462635E+05 -1.000401E+05 -1.639671E+04 -2.109786E+05 -1.438270E-10 -1.759685E-10
       291  11 -5.307677E+05 -8.658014E+04 -1.116621E+04 -1.988719E+05  2.011626E-10 -1.426959E-12
       291  12 -5.043032E+05 -8.438680E+04 -6.347110E+03 -1.994562E+05 -1.292043E-10 -2.746135E-11
       291  13 -4.864407E+05 -7.758699E+04 -7.872392E+02 -1.946468E+05  1.027785E-10  4.463583E-11
       291  14 -4.919318E+05 -7.200422E+04 -9.832454E+02 -1.882822E+05 -6.575901E-11 -9.377300E-11
       291  15 -4.864547E+05 -7.768804E+04 -1.590610E+03 -1.946088E+05 -6.832818E-11  8.963154E-11
       291  16 -4.266145E+05 -5.513376E+04  1.482188E+04 -1.783136E+05  2.053256E-10  2.754539E-10
       291  17 -4.530944E+05 -5.742820E+04  9.199588E+03 -1.776919E+05  1.292044E-10  4.527764E-11
       291  18 -4.686058E+05 -7.098924E+04  3.165876E+03 -1.897613E+05  9.733138E-11  8.948702E-11
       291  19 -5.462635E+05 -1.000401E+05 -1.639669E+04 -2.109786E+05  3.256665E+02 -2.523186E+03
       291  20 -5.307677E+05 -8.658014E+04 -1.116620E+04 -1.988719E+05 -5.230293E+02 -1.759393E+03
       291  21 -5.043032E+05 -8.438680E+04 -6.347104E+03 -1.994562E+05 -1.371673E+03 -9.954999E+02
       291  22 -4.864407E+05 -7.758698E+04 -7.872277E+02 -1.946468E+05  8.155794E+02 -2.339478E+03
       291  23 -4.919318E+05 -7.200421E+04 -9.832408E+02 -1.882822E+05 -3.309516E+01 -1.575700E+03
       291  24 -4.864547E+05 -7.768804E+04 -1.590608E+03 -1.946088E+05 -8.817008E+02 -8.118157E+02
       291  25 -4.266145E+05 -5.513376E+04  1.482189E+04 -1.783136E+05  1.305543E+03 -2.155751E+03
       291  26 -4.530944E+05 -5.742819E+04  9.199592E+03 -1.776919E+05  4.568726E+02 -1.391994E+03
       291  27 -4.686058E+05 -7.098924E+04  3.165877E+03 -1.897613E+05 -3.917116E+02 -6.281252E+02
       292   1 -4.766824E+05 -7.401024E+04  5.965798E+02 -1.922193E+05  1.885265E+03  5.523386E+02
       292   2 -4.610753E+05 -6.027437E+04  4.525944E+03 -1.798797E+05  4.017742E+03  2.686791E+02
       292   3 -4.351559E+05 -5.912995E+04  6.732164E+03 -1.799460E+05  6.140462E+03  1.134495E+01
       292   4 -4.865386E+05 -7.753919E+04 -2.031884E+03 -1.947118E+05  1.387925E+03  3.658944E+02
       292   5 -4.917767E+05 -7.183213E+04 -3.530214E+03 -1.882878E+05  3.533893E+03  8.727276E+01
       292   6 -4.867056E+05 -7.871927E+04 -6.762417E+03 -1.942699E+05  5.670035E+03 -1.650474E+02
       292   7 -4.963946E+05 -8.106813E+04 -4.660356E+03 -1.972043E+05  8.905944E+02  1.794531E+02
       292   8 -5.224771E+05 -8.338980E+04 -1.158644E+04 -1.966955E+05  3.050071E+03 -9.412341E+01
       292   9 -5.382525E+05 -9.830835E+04 -2.025718E+04 -2.085926E+05  5.199653E+03 -3.414226E+02
       292  10 -4.766825E+05 -7.401025E+04  5.965725E+02 -1.922193E+05 -1.845335E-10 -7.160715E-11
       292  11 -4.610753E+05 -6.027438E+04  4.525914E+03 -1.798797E+05 -3.049740E-10  1.350579E-10
       292  12 -4.351559E+05 -5.912996E+04  6.732093E+03 -1.799460E+05  2.899087E-11  7.129727E-11
       292  13 -4.865386E+05 -7.753919E+04 -2.031888E+03 -1.947118E+05  9.398191E-11 -3.276794E-11
       292  14 -4.917767E+05 -7.183213E+04 -3.530237E+03 -1.882878E+05 -6.393610E-11 -1.086755E-10
       292  15 -4.867056E+05 -7.871928E+04 -6.762478E+03 -1.942699E+05  1.389707E-10 -9.876267E-11
       292  16 -4.963946E+05 -8.106813E+04 -4.660357E+03 -1.972043E+05 -1.678967E-10  6.402748E-11
       292  17 -5.224772E+05 -8.338980E+04 -1.158646E+04 -1.966955E+05 -7.215859E-11  7.773662E-11
       292  18 -5.382526E+05 -9.830836E+04 -2.025723E+04 -2.085926E+05  1.418382E-10 -1.234648E-10
       292  19 -4.766824E+05 -7.401024E+04  5.965798E+02 -1.922193E+05 -1.885265E+03 -5.523386E+02
       292  20 -4.610753E+05 -6.027437E+04  4.525944E+03 -1.798797E+05 -4.017742E+03 -2.686791E+02
       292  21 -4.351559E+05 -5.912995E+04  6.732164E+03 -1.799460E+05 -6.140462E+03 -1.134495E+01
       292  22 -4.865386E+05 -7.753919E+04 -2.031884E+03 -1.947118E+05 -1.387925E+03 -3.658944E+02
       292  23 -4.917767E+05 -7.183213E+04 -3.530214E+03 -1.882878E+05 -3.533893E+03 -8.727276E+01
       292  24 -4.867056E+05 -7.871927E+04 -6.762417E+03 -1.942699E+05 -5.670035E+03  1.650474E+02
       292  25 -4.963946E+05 -8.106813E+04 -4.660356E+03 -1.972043E+05 -8.905944E+02 -1.794531E+02
       292  26 -5.224771E+05 -8.338980E+04 -1.158644E+04 -1.966955E+05 -3.050071E+03  9.412341E+01
       292  27 -5.382525E+05 -9.830835E+04 -2.025718E+04 -2.085926E+05 -5.199653E+03  3.414226E+02
       293   1 -4.069529E+05 -4.856492E+04  1.215126E+04 -1.749564E+05  7.712119E+03 -8.398128E+01
       293   2 -3.910493E+05 -3.212241E+04  1.108129E+04 -1.604586E+05  1.574167E+04  1.865707E+03
       293   3 -3.704605E+05 -4.096252E+04  4.140756E+02 -1.551041E+05  2.364055E+04  4.165510E+03
       293   4 -4.873424E+05 -7.712833E+04 -8.688219E+03 -1.952023E+05  7.140480E+03 -2.983255E+02
       293   5 -4.904879E+05 -7.028852E+04 -1.514779E+04 -1.884485E+05  1.534952E+04  1.718561E+03
       293   6 -4.889855E+05 -8.876899E+04 -3.134833E+04 -1.908385E+05  2.342760E+04  4.085416E+03
       293   7 -5.677259E+05 -1.056916E+05 -2.952830E+04 -2.154460E+05  6.568921E+03 -5.126437E+02
       293   8 -5.899170E+05 -1.084540E+05 -4.137777E+04 -2.164344E+05  1.495743E+04  1.571441E+03
       293   9 -6.074968E+05 -1.365740E+05 -6.311197E+04 -2.265665E+05  2.321470E+04  4.005340E+03
       293  10 -4.069529E+05 -4.856494E+04  1.215115E+04 -1.749564E+05 -1.770103E-10 -3.494059E-11
       293  11 -3.910496E+05 -3.212248E+04  1.108082E+04 -1.604587E+05  2.406167E-10  3.942446E-11
       293  12 -3.704611E+05 -4.096269E+04  4.129920E+02 -1.551041E+05  3.226388E-11  1.967709E-11
       293  13 -4.873425E+05 -7.712835E+04 -8.688315E+03 -1.952023E+05  2.100422E-10 -9.267845E-11
       293  14 -4.904882E+05 -7.028859E+04 -1.514824E+04 -1.884486E+05 -2.789353E-10  1.083044E-10
       293  15 -4.889861E+05 -8.876915E+04 -3.134939E+04 -1.908385E+05  1.384025E-10  3.385918E-11
       293  16 -5.677260E+05 -1.056916E+05 -2.952838E+04 -2.154460E+05  1.856428E-10 -8.134322E-11
       293  17 -5.899173E+05 -1.084540E+05 -4.137820E+04 -2.164344E+05 -8.744272E-11 -5.607894E-11
       293  18 -6.074974E+05 -1.365742E+05 -6.311301E+04 -2.265666E+05 -1.890581E-10 -6.298167E-11
       293  19 -4.069529E+05 -4.856492E+04  1.215126E+04 -1.749564E+05 -7.712119E+03  8.398128E+01
       293  20 -3.910493E+05 -3.212241E+04  1.108129E+04 -1.604586E+05 -1.574167E+04 -1.865707E+03
       293  21 -3.704605E+05 -4.096252E+04  4.140756E+02 -1.551041E+05 -2.364055E+04 -4.165510E+03
       293  22 -4.873424E+05 -7.712833E+04 -8.688219E+03 -1.952023E+05 -7.140480E+03  2.983255E+02
       293  23 -4.904879E+05 -7.028852E+04 -1.514779E+04 -1.884485E+05 -1.534952E+04 -1.718561E+03
       293  24 -4.889855E+05 -8.876899E+04 -3.134833E+04 -1.908385E+05 -2.342760E+04 -4.085416E+03
       293  25 -5.677259E+05 -1.056916E+05 -2.952830E+04 -2.154460E+05 -6.568921E+03  5.126437E+02
       293  26 -5.899170E+05 -1.084540E+05 -4.137777E+04 -2.164344E+05 -1.495743E+04 -1.571441E+03
       293  27 -6.074968E+05 -1.365740E+05 -6.311197E+04 -2.265665E+05 -2.321470E+04 -4.005340E+03
       294   1 -3.351374E+05 -2.828708E+04  1.791691E+02 -1.716843E+05  3.092338E+04  5.516421E+03
       294   2 -3.183766E+05  1.503024E+04 -2.005045E+04 -1.355546E+05  6.379869E+04  1.701789E+04
       294   3 -3.463676E+05 -8.883706E+04 -1.019131E+05 -7.637983E+04  9.488954E+04  3.327906E+04
       294   4 -4.940354E+05 -7.311731E+04 -3.861954E+04 -1.997622E+05  2.931109E+04  4.912311E+03
       294   5 -4.793763E+05 -5.571184E+04 -6.418140E+04 -1.901066E+05  6.463529E+04  1.733043E+04
       294   6 -5.099711E+05 -1.860020E+05 -1.533306E+05 -1.574030E+05  9.817442E+04  3.450538E+04
       294   7 -6.529085E+05 -1.179481E+05 -7.741994E+04 -2.278348E+05  2.769925E+04  4.308275E+03
       294   8 -6.403498E+05 -1.264492E+05 -1.083145E+05 -2.446446E+05  6.547165E+04  1.764285E+04
       294   9 -6.735439E+05 -2.831499E+05 -2.047500E+05 -2.384023E+05  1.014583E+05  3.573087E+04
       294  10 -3.351385E+05 -2.828737E+04  1.773138E+02 -1.716844E+05 -1.466332E-10  7.909355E-12
       294  11 -3.183811E+05  1.502884E+04 -2.005865E+04 -1.355555E+05  1.516138E-10  1.144786E-10
       294  12 -3.463776E+05 -8.884067E+04 -1.019322E+05 -7.638238E+04  1.641945E-10  1.148605E-10
       294  13 -4.940363E+05 -7.311757E+04 -3.862120E+04 -1.997623E+05  3.478581E-10  4.200491E-11
       294  14 -4.793809E+05 -5.571329E+04 -6.418982E+04 -1.901075E+05 -1.014356E-10  4.168139E-10
       294  15 -5.099817E+05 -1.860058E+05 -1.533510E+05 -1.574057E+05 -1.173661E-10  5.251250E-11
       294  16 -6.529093E+05 -1.179483E+05 -7.742142E+04 -2.278349E+05 -3.626978E-11  7.925556E-11
       294  17 -6.403545E+05 -1.264507E+05 -1.083231E+05 -2.446456E+05  1.646362E-10  1.998978E-10
       294  18 -6.735553E+05 -2.831540E+05 -2.047717E+05 -2.384052E+05 -2.297458E-10  1.803131E-11
       294  19 -3.351374E+05 -2.828708E+04  1.791691E+02 -1.716843E+05 -3.092338E+04 -5.516421E+03
       294  20 -3.183766E+05  1.503024E+04 -2.005045E+04 -1.355546E+05 -6.379869E+04 -1.701789E+04
       294  21 -3.463676E+05 -8.883706E+04 -1.019131E+05 -7.637983E+04 -9.488954E+04 -3.327906E+04
       294  22 -4.940354E+05 -7.311731E+04 -3.861954E+04 -1.997622E+05 -2.931109E+04 -4.912311E+03
       294  23 -4.793763E+05 -5.571184E+04 -6.418140E+04 -1.901066E+05 -6.463529E+04 -1.733043E+04
       294  24 -5.099711E+05 -1.860020E+05 -1.533306E+05 -1.574030E+05 -9.817442E+04 -3.450538E+04
       294  25 -6.529085E+05 -1.179481E+05 -7.741994E+04 -2.278348E+05 -2.769925E+04 -4.308275E+03
       294  26 -6.403498E+05 -1.264492E+05 -1.083145E+05 -2.446446E+05 -6.547165E+04 -1.764285E+04
       294  27 -6.735439E+05 -2.831499E+05 -2.047500E+05 -2.384023E+05 -1.014583E+05 -3.573087E+04
       295   1 -4.824307E+05 -1.104143E+05 -7.954220E+04 -7.096963E+03  7.870543E+04  9.239305E+03
       295   2 -4.178289E+05 -2.122744E+05 -1.295337E+05 -5.119203E+03  5.735786E+04  2.748803E+04
       295   3 -3.171821E+05 -1.837438E+05 -1.328841E+05 -5.882390E+04  3.601831E+04  2.521731E+04
       295   4  4.015071E+05  1.098547E+05  1.381406E+05 -4.383081E+04  9.453302E+04  9.244371E+03
       295   5  3.825506E+05 -1.414863E+04  6.069362E+04 -1.596347E+04  6.182473E+04  2.748578E+04
       295   6  4.015551E+05 -5.882076E+03  3.772766E+04 -4.377216E+04  2.912819E+04  2.521766E+04
       295   7  1.286159E+06  3.300708E+05  3.557675E+05 -8.061716E+04  1.103830E+05  9.247563E+03
       295   8  1.183518E+06  1.839315E+05  2.508764E+05 -2.682182E+04  6.629730E+04  2.748338E+04
       295   9  1.120767E+06  1.719434E+05  2.083037E+05 -2.870285E+04  2.223011E+04  2.521768E+04
       295  10 -4.824373E+05 -1.104161E+05 -7.955401E+04 -7.097549E+03 -3.056026E-10  9.113367E-11
       295  11 -4.178326E+05 -2.122761E+05 -1.295413E+05 -5.120473E+03 -4.465333E-10 -2.344995E-10
       295  12 -3.171837E+05 -1.837448E+05 -1.328877E+05 -5.882464E+04  4.982061E-11 -4.379436E-10
       295  13  4.014975E+05  1.098522E+05  1.381237E+05 -4.383151E+04  3.653664E-10 -1.154230E-10
       295  14  3.825463E+05 -1.415047E+04  6.068502E+04 -1.596483E+04 -5.343700E-10 -7.204430E-11
       295  15  4.015541E+05 -5.882986E+03  3.772487E+04 -4.377275E+04  4.461653E-10 -2.016296E-10
       295  16  1.286146E+06  3.300674E+05  3.557445E+05 -8.061798E+04  4.086334E-10  2.370657E-10
       295  17  1.183514E+06  1.839295E+05  2.508667E+05 -2.682328E+04 -6.826060E-10 -1.429244E-10
       295  18  1.120767E+06  1.719426E+05  2.083016E+05 -2.870330E+04 -5.864480E-10 -4.956759E-11
       295  19 -4.824307E+05 -1.104143E+05 -7.954220E+04 -7.096963E+03 -7.870543E+04 -9.239305E+03
       295  20 -4.178289E+05 -2.122744E+05 -1.295337E+05 -5.119203E+03 -5.735786E+04 -2.748803E+04
       295  21 -3.171821E+05 -1.837438E+05 -1.328841E+05 -5.882390E+04 -3.601831E+04 -2.521731E+04
       295  22  4.015071E+05  1.098547E+05  1.381406E+05 -4.383081E+04 -9.453302E+04 -9.244371E+03
       295  23  3.825506E+05 -1.414863E+04  6.069362E+04 -1.596347E+04 -6.182473E+04 -2.748578E+04
       295  24  4.015551E+05 -5.882076E+03  3.772766E+04 -4.377216E+04 -2.912819E+04 -2.521766E+04
       295  25  1.286159E+06  3.300708E+05  3.557675E+05 -8.061716E+04 -1.103830E+05 -9.247563E+03
       295  26  1.183518E+06  1.839315E+05  2.508764E+05 -2.682182E+04 -6.629730E+04 -2.748338E+04
       295  27  1.120767E+06  1.719434E+05  2.083037E+05 -2.870285E+04 -2.223011E+04 -2.521768E+04
       296   1 -2.246279E+05 -1.425118E+05 -1.166743E+05 -4.033891E+04  2.405106E+04  2.037337E+04
       296   2 -1.453976E+05 -1.344689E+05 -1.119656E+05 -1.491458E+04  1.676091E+04  1.835434E+04
       296   3 -6.176766E+04 -1.133881E+05 -9.920993E+04 -4.500193E+04  9.465700E+03  1.497649E+04
       296   4  3.941547E+05  1.071153E+04  3.068458E+04 -4.374495E+04  2.332538E+04  2.037220E+04
       296   5  3.919060E+05 -1.476336E+03  1.574438E+04 -1.599374E+04  1.527801E+04  1.835429E+04
       296   6  3.941765E+05 -5.013273E+02  9.370709E+03 -4.375091E+04  7.226520E+03  1.497805E+04
       296   7  1.013289E+06  1.639073E+05  1.780167E+05 -4.715435E+04  2.259898E+04  2.037104E+04
       296   8  9.294746E+05  1.314955E+05  1.434342E+05 -1.707380E+04  1.379384E+04  1.835424E+04
       296   9  8.503113E+05  1.123705E+05  1.179368E+05 -4.249891E+04  4.985701E+03  1.497959E+04
       296  10 -2.246286E+05 -1.425124E+05 -1.166762E+05 -4.033931E+04 -3.579854E-11 -3.219746E-10
       296  11 -1.453980E+05 -1.344694E+05 -1.119668E+05 -1.491482E+04  9.190835E-11 -5.525630E-11
       296  12 -6.176782E+04 -1.133884E+05 -9.921052E+04 -4.500204E+04 -3.667529E-10  5.535049E-10
       296  13  3.941540E+05  1.071093E+04  3.068278E+04 -4.374533E+04 -2.342569E-10 -5.506831E-11
       296  14  3.919057E+05 -1.476760E+03  1.574330E+04 -1.599397E+04 -3.981944E-10 -6.643676E-10
       296  15  3.941764E+05 -5.015823E+02  9.370189E+03 -4.375099E+04 -2.370624E-10  2.823106E-10
       296  16  1.013288E+06  1.639067E+05  1.780149E+05 -4.715472E+04  1.535043E-10 -1.946679E-10
       296  17  9.294744E+05  1.314951E+05  1.434332E+05 -1.707400E+04 -4.848572E-10 -2.285148E-10
       296  18  8.503113E+05  1.123703E+05  1.179363E+05 -4.249897E+04 -4.168811E-10 -1.697886E-11
       296  19 -2.246279E+05 -1.425118E+05 -1.166743E+05 -4.033891E+04 -2.405106E+04 -2.037337E+04
       296  20 -1.453976E+05 -1.344689E+05 -1.119656E+05 -1.491458E+04 -1.676091E+04 -1.835434E+04
       296  21 -6.176766E+04 -1.133881E+05 -9.920993E+04 -4.500193E+04 -9.465700E+03 -1.497649E+04
       296  22  3.941547E+05  1.071153E+04  3.068458E+04 -4.374495E+04 -2.332538E+04 -2.037220E+04
       296  23  3.919060E+05 -1.476336E+03  1.574438E+04 -1.599374E+04 -1.527801E+04 -1.835429E+04
       296  24  3.941765E+05 -5.013273E+02  9.370709E+03 -4.375091E+04 -7.226520E+03 -1.497805E+04
       296  25  1.013289E+06  1.639073E+05  1.780167E+05 -4.715435E+04 -2.259898E+04 -2.037104E+04
       296  26  9.294746E+05  1.314955E+05  1.434342E+05 -1.707380E+04 -1.379384E+04 -1.835424E+04
       296  27  8.503113E+05  1.123705E+05  1.179368E+05 -4.249891E+04 -4.985701E+03 -1.497959E+04
       297   1  3.625396E+04 -8.724107E+04 -7.732885E+04 -4.316411E+04  7.573429E+03  1.277889E+04
       297   2  1.168378E+05 -6.848709E+04 -6.156264E+04 -1.582771E+04  5.575720E+03  9.429591E+03
       297   3  1.979423E+05 -4.832911E+04 -4.416638E+04 -4.363017E+04  3.575792E+03  5.995282E+03
       297   4  3.933097E+05  1.084910E+03  7.319625E+03 -4.366556E+04  5.748770E+03  1.278048E+04
       297   5  3.930535E+05 -1.296406E+02  4.081254E+03 -1.609752E+04  3.702944E+03  9.431688E+03
       297   6  3.933198E+05  6.814318E+01  2.505877E+03 -4.366680E+04  1.655157E+03  5.997929E+03
       297   7  7.504825E+05  8.940173E+04  9.195925E+04 -4.416726E+04  3.923066E+03  1.278207E+04
       297   8  6.693393E+05  6.822232E+04  6.971984E+04 -1.636743E+04  1.829340E+03  9.433786E+03
       297   9  5.887323E+05  4.846264E+04  4.917546E+04 -4.370344E+04 -2.660807E+02  6.000576E+03
       297  10  3.625385E+04 -8.724126E+04 -7.732927E+04 -4.316419E+04  6.774952E-10 -6.051669E-11
       297  11  1.168378E+05 -6.848719E+04 -6.156287E+04 -1.582775E+04  4.387268E-10  8.916197E-11
       297  12  1.979423E+05 -4.832916E+04 -4.416648E+04 -4.363019E+04 -8.619586E-10 -4.642389E-10
       297  13  3.933096E+05  1.084725E+03  7.319255E+03 -4.366562E+04 -1.085894E-09  8.408360E-11
       297  14  3.930535E+05 -1.297398E+02  4.081061E+03 -1.609755E+04 -1.061463E-10  6.371078E-10
       297  15  3.933198E+05  6.810380E+01  2.505804E+03 -4.366681E+04 -6.821148E-10  1.139781E-09
       297  16  7.504824E+05  8.940155E+04  9.195891E+04 -4.416730E+04 -5.206013E-10 -2.257657E-11
       297  17  6.693392E+05  6.822222E+04  6.971966E+04 -1.636745E+04 -3.815924E-10 -8.184299E-10
       297  18  5.887323E+05  4.846260E+04  4.917540E+04 -4.370343E+04 -5.948981E-11 -2.724547E-10
       297  19  3.625396E+04 -8.724107E+04 -7.732885E+04 -4.316411E+04 -7.573429E+03 -1.277889E+04
       297  20  1.168378E+05 -6.848709E+04 -6.156264E+04 -1.582771E+04 -5.575720E+03 -9.429591E+03
       297  21  1.979423E+05 -4.832911E+04 -4.416638E+04 -4.363017E+04 -3.575792E+03 -5.995282E+03
       297  22  3.933097E+05  1.084910E+03  7.319625E+03 -4.366556E+04 -5.748770E+03 -1.278048E+04
       297  23  3.930535E+05 -1.296406E+02  4.081254E+03 -1.609752E+04 -3.702944E+03 -9.431688E+03
       297  24  3.933198E+05  6.814318E+01  2.505877E+03 -4.366680E+04 -1.655157E+03 -5.997929E+03
       297  25  7.504825E+05  8.940173E+04  9.195925E+04 -4.416726E+04 -3.923066E+03 -1.278207E+04
       297  26  6.693393E+05  6.822232E+04  6.971984E+04 -1.636743E+04 -1.829340E+03 -9.433786E+03
       297  27  5.887323E+05  4.846264E+04  4.917546E+04 -4.370344E+04  2.660807E+02 -6.000576E+03
       298   1  2.962337E+05 -2.373843E+04 -2.077910E+04 -4.353288E+04  3.137024E+03  3.982750E+03
       298   2  3.768927E+05 -4.014343E+03 -2.442713E+03 -1.612547E+04  2.422813E+03  5.541883E+02
       298   3  4.575242E+05  1.599310E+04  1.638562E+04 -4.371264E+04  1.708404E+03 -2.879670E+03
       298   4  3.932044E+05  2.086284E+02  2.021401E+03 -4.363459E+04  1.244661E+03  3.985527E+03
       298   5  3.932207E+05  2.581130E+01  1.437064E+03 -1.613741E+04  5.273456E+02  5.569855E+02
       298   6  3.932050E+05  1.276127E+02  1.347424E+03 -4.363471E+04 -1.900768E+02 -2.876829E+03
       298   7  4.901837E+05  2.415502E+04  2.482127E+04 -4.373631E+04 -6.479969E+02  3.988303E+03
       298   8  4.095488E+05  4.065949E+03  5.316836E+03 -1.614935E+04 -1.368172E+03  5.597828E+02
       298   9  3.288897E+05 -1.573817E+04 -1.369104E+04 -4.355679E+04 -2.088362E+03 -2.873988E+03
       298  10  2.962337E+05 -2.373845E+04 -2.077915E+04 -4.353289E+04  8.423032E-10 -4.249714E-12
       298  11  3.768927E+05 -4.014345E+03 -2.442725E+03 -1.612547E+04  5.935872E-10 -1.025905E-11
       298  12  4.575242E+05  1.599309E+04  1.638560E+04 -4.371263E+04 -2.634817E-10  5.070555E-11
       298  13  3.932044E+05  2.086109E+02  2.021369E+03 -4.363459E+04 -4.217500E-10 -1.117870E-09
       298  14  3.932207E+05  2.581089E+01  1.437063E+03 -1.613741E+04  2.021115E-10  4.693096E-11
       298  15  3.932050E+05  1.276038E+02  1.347408E+03 -4.363471E+04 -3.598696E-10 -4.693306E-10
       298  16  4.901837E+05  2.415500E+04  2.482124E+04 -4.373631E+04 -8.936535E-11  1.596167E-10
       298  17  4.095488E+05  4.065948E+03  5.316832E+03 -1.614935E+04 -8.177878E-11 -4.987942E-10
       298  18  3.288897E+05 -1.573818E+04 -1.369106E+04 -4.355679E+04 -2.347052E-10 -9.309156E-10
       298  19  2.962337E+05 -2.373843E+04 -2.077910E+04 -4.353288E+04 -3.137024E+03 -3.982750E+03
       298  20  3.768927E+05 -4.014343E+03 -2.442713E+03 -1.612547E+04 -2.422813E+03 -5.541883E+02
       298  21  4.575242E+05  1.599310E+04  1.638562E+04 -4.371264E+04 -1.708404E+03  2.879670E+03
       298  22  3.932044E+05  2.086284E+02  2.021401E+03 -4.363459E+04 -1.244661E+03 -3.985527E+03
       298  23  3.932207E+05  2.581130E+01  1.437064E+03 -1.613741E+04 -5.273456E+02 -5.569855E+02
       298  24  3.932050E+05  1.276127E+02  1.347424E+03 -4.363471E+04  1.900768E+02  2.876829E+03
       298  25  4.901837E+05  2.415502E+04  2.482127E+04 -4.373631E+04  6.479969E+02 -3.988303E+03
       298  26  4.095488E+05  4.065949E+03  5.316836E+03 -1.614935E+04  1.368172E+03 -5.597828E+02
       298  27  3.288897E+05 -1.573817E+04 -1.369104E+04 -4.355679E+04  2.088362E+03  2.873988E+03
       299   1  5.559490E+05  4.043138E+04  4.036279E+04 -4.380794E+04  1.452671E+03 -4.880778E+03
       299   2  6.367212E+05  6.024970E+04  5.987109E+04 -1.631798E+04  4.493384E+02 -8.318337E+03
       299   3  7.176017E+05  8.042780E+04  8.009465E+04 -4.393126E+04 -5.524795E+02 -1.175458E+04
       299   4  3.932285E+05  1.234603E+02  1.457676E+03 -4.365918E+04 -4.472946E+02 -4.878067E+03
       299   5  3.931737E+05 -4.070342E+00  2.008957E+03 -1.610683E+04 -1.449684E+03 -8.316057E+03
       299   6  3.932199E+05  2.282314E+02  3.275132E+03 -4.365903E+04 -2.450430E+03 -1.175270E+04
       299   7  2.305323E+05 -4.018637E+04 -3.744929E+04 -4.351046E+04 -2.346765E+03 -4.875358E+03
       299   8  1.496806E+05 -6.026211E+04 -5.585730E+04 -1.589573E+04 -3.347965E+03 -8.313777E+03
       299   9  6.893475E+04 -7.997889E+04 -7.355168E+04 -4.338691E+04 -4.347395E+03 -1.175083E+04
       299  10  5.559490E+05  4.043135E+04  4.036274E+04 -4.380793E+04  9.619062E-10  9.326211E-10
       299  11  6.367212E+05  6.024963E+04  5.987096E+04 -1.631798E+04 -1.708135E-09  1.657702E-09
       299  12  7.176017E+05  8.042765E+04  8.009439E+04 -4.393126E+04 -3.822428E-09 -1.362859E-09
       299  13  3.932285E+05  1.234347E+02  1.457631E+03 -4.365919E+04 -2.214796E-10  5.078586E-10
       299  14  3.931737E+05 -4.145183E+00  2.008823E+03 -1.610684E+04  2.406391E-10 -6.895716E-10
       299  15  3.932199E+05  2.280814E+02  3.274861E+03 -4.365905E+04 -6.994475E-10 -6.579291E-10
       299  16  2.305322E+05 -4.018640E+04 -3.744935E+04 -4.351047E+04 -8.176253E-11  4.747354E-10
       299  17  1.496806E+05 -6.026219E+04 -5.585745E+04 -1.589576E+04  1.873710E-09 -2.729358E-10
       299  18  6.893470E+04 -7.997904E+04 -7.355198E+04 -4.338695E+04  2.394817E-09 -9.930787E-10
       299  19  5.559490E+05  4.043138E+04  4.036279E+04 -4.380794E+04 -1.452671E+03  4.880778E+03
       299  20  6.367212E+05  6.024970E+04  5.987109E+04 -1.631798E+04 -4.493384E+02  8.318337E+03
       299  21  7.176017E+05  8.042780E+04  8.009465E+04 -4.393126E+04  5.524795E+02  1.175458E+04
       299  22  3.932285E+05  1.234603E+02  1.457676E+03 -4.365918E+04  4.472946E+02  4.878067E+03
       299  23  3.931737E+05 -4.070342E+00  2.008957E+03 -1.610683E+04  1.449684E+03  8.316057E+03
       299  24  3.932199E+05  2.282314E+02  3.275132E+03 -4.365903E+04  2.450430E+03  1.175270E+04
       299  25  2.305323E+05 -4.018637E+04 -3.744929E+04 -4.351046E+04  2.346765E+03  4.875358E+03
       299  26  1.496806E+05 -6.026211E+04 -5.585730E+04 -1.589573E+04  3.347965E+03  8.313777E+03
       299  27  6.893475E+04 -7.997889E+04 -7.355168E+04 -4.338691E+04  4.347395E+03  1.175083E+04
       300   1  8.166805E+05  1.047288E+05  1.049961E+05 -4.377037E+04 -1.191401E+03 -1.377800E+04
       300   2  8.974626E+05  1.245224E+05  1.269599E+05 -1.630852E+04 -4.805004E+03 -1.722817E+04
       300   3  9.794506E+05  1.466931E+05  1.518942E+05 -4.431998E+04 -8.415596E+03 -2.057674E+04
       300   4  3.934421E+05 -1.669948E+01  4.212028E+03 -4.374210E+04 -3.126473E+03 -1.377653E+04
       300   5  3.928375E+05 -3.021634E+02  7.090205E+03 -1.600348E+04 -6.681447E+03 -1.722763E+04
       300   6  3.934237E+05  1.781040E+03  1.290052E+04 -4.374092E+04 -1.023294E+04 -2.057708E+04
       300   7 -2.963207E+04 -1.047752E+05 -9.658460E+04 -4.371380E+04 -5.060232E+03 -1.377505E+04
       300   8 -1.115541E+05 -1.251450E+05 -1.127972E+05 -1.569863E+04 -8.556372E+03 -1.722709E+04
       300   9 -1.922883E+05 -1.431557E+05 -1.261171E+05 -4.316235E+04 -1.204858E+04 -2.057742E+04
       300  10  8.166805E+05  1.047286E+05  1.049958E+05 -4.377039E+04  4.611241E-09 -1.622344E-09
       300  11  8.974625E+05  1.245221E+05  1.269593E+05 -1.630859E+04  2.467462E-09  4.240633E-10
       300  12  9.794504E+05  1.466927E+05  1.518933E+05 -4.432012E+04 -1.987158E-09  9.223479E-10
       300  13  3.934421E+05 -1.690595E+01  4.211653E+03 -4.374214E+04 -1.404538E-09 -2.784616E-10
       300  14  3.928374E+05 -3.024941E+02  7.089563E+03 -1.600357E+04 -7.373242E-10  2.318079E-12
       300  15  3.934235E+05  1.780558E+03  1.289953E+04 -4.374109E+04  2.108444E-10  1.141924E-10
       300  16 -2.963215E+04 -1.047754E+05 -9.658501E+04 -4.371386E+04 -4.809674E-09 -1.124339E-09
       300  17 -1.115542E+05 -1.251454E+05 -1.127979E+05 -1.569875E+04 -2.836020E-09  1.156302E-09
       300  18 -1.922885E+05 -1.431562E+05 -1.261182E+05 -4.316255E+04  1.383699E-09  2.627338E-10
       300  19  8.166805E+05  1.047288E+05  1.049961E+05 -4.377037E+04  1.191401E+03  1.377800E+04
       300  20  8.974626E+05  1.245224E+05  1.269599E+05 -1.630852E+04  4.805004E+03  1.722817E+04
       300  21  9.794506E+05  1.466931E+05  1.518942E+05 -4.431998E+04  8.415596E+03  2.057674E+04
       300  22  3.934421E+05 -1.669948E+01  4.212028E+03 -4.374210E+04  3.126473E+03  1.377653E+04
       300  23  3.928375E+05 -3.021634E+02  7.090205E+03 -1.600348E+04  6.681447E+03  1.722763E+04
       300  24  3.934237E+05  1.781040E+03  1.290052E+04 -4.374092E+04  1.023294E+04  2.057708E+04
       300  25 -2.963207E+04 -1.047752E+05 -9.658460E+04 -4.371380E+04  5.060232E+03  1.377505E+04
       300  26 -1.115541E+05 -1.251450E+05 -1.127972E+05 -1.569863E+04  8.556372E+03  1.722709E+04
       300  27 -1.922883E+05 -1.431557E+05 -1.261171E+05 -4.316235E+04  1.204858E+04  2.057742E+04
       301   1  1.080773E+06  1.686309E+05  1.796497E+05 -4.120966E+04 -1.050008E+04 -2.283941E+04
       301   2  1.158916E+06  1.872880E+05  2.102901E+05 -1.719285E+04 -2.569957E+04 -2.623558E+04
       301   3  1.245448E+06  2.292977E+05  2.567695E+05 -4.925308E+04 -4.089686E+04 -2.793932E+04
       301   4  3.949544E+05 -1.033640E+03  1.655214E+04 -4.387459E+04 -1.283728E+04 -2.284027E+04
       301   5  3.908231E+05 -2.677024E+03  2.786938E+04 -1.583759E+04 -2.708542E+04 -2.623796E+04
       301   6  3.949222E+05  1.888419E+04  5.438032E+04 -4.388147E+04 -4.132937E+04 -2.794246E+04
       301   7 -2.904330E+05 -1.707320E+05 -1.465783E+05 -4.653653E+04 -1.517191E+04 -2.284111E+04
       301   8 -3.767284E+05 -1.926845E+05 -1.545925E+05 -1.448403E+04 -2.846955E+04 -2.624035E+04
       301   9 -4.549403E+05 -1.915814E+05 -1.480594E+05 -3.851731E+04 -4.176126E+04 -2.794561E+04
       301  10  1.080773E+06  1.686303E+05  1.796486E+05 -4.120985E+04 -6.409147E-10  7.652313E-10
       301  11  1.158915E+06  1.872871E+05  2.102876E+05 -1.719339E+04  2.422585E-10  2.261496E-10
       301  12  1.245446E+06  2.292965E+05  2.567649E+05 -4.925399E+04 -1.868574E-10 -5.656943E-10
       301  13  3.949541E+05 -1.034245E+03  1.655085E+04 -4.387483E+04 -1.352770E-10  6.830502E-10
       301  14  3.908222E+05 -2.677960E+03  2.786671E+04 -1.583816E+04 -1.393391E-10 -7.925025E-10
       301  15  3.949202E+05  1.888289E+04  5.437564E+04 -4.388240E+04  8.191886E-10 -1.298365E-10
       301  16 -2.904334E+05 -1.707326E+05 -1.465797E+05 -4.653681E+04  4.773692E-10  1.549217E-10
       301  17 -3.767295E+05 -1.926855E+05 -1.545953E+05 -1.448463E+04 -3.403243E-10 -1.870051E-10
       301  18 -4.549424E+05 -1.915827E+05 -1.480642E+05 -3.851825E+04  3.884298E-10  1.628321E-10
       301  19  1.080773E+06  1.686309E+05  1.796497E+05 -4.120966E+04  1.050008E+04  2.283941E+04
       301  20  1.158916E+06  1.872880E+05  2.102901E+05 -1.719285E+04  2.569957E+04  2.623558E+04
       301  21  1.245448E+06  2.292977E+05  2.567695E+05 -4.925308E+04  4.089686E+04  2.793932E+04
       301  22  3.949544E+05 -1.033640E+03  1.655214E+04 -4.387459E+04  1.283728E+04  2.284027E+04
       301  23  3.908231E+05 -2.677024E+03  2.786938E+04 -1.583759E+04  2.708542E+04  2.623796E+04
       301  24  3.949222E+05  1.888419E+04  5.438032E+04 -4.388147E+04  4.132937E+04  2.794246E+04
       301  25 -2.904330E+05 -1.707320E+05 -1.465783E+05 -4.653653E+04  1.517191E+04  2.284111E+04
       301  26 -3.767284E+05 -1.926845E+05 -1.545925E+05 -1.448403E+04  2.846955E+04  2.624035E+04
       301  27 -4.549403E+05 -1.915814E+05 -1.480594E+05 -3.851731E+04  4.176126E+04  2.794561E+04
       302   1  1.359802E+06  2.248160E+05  2.925326E+05 -1.640598E+04 -4.345131E+04 -3.352760E+04
       302   2  1.408999E+06  2.306957E+05  3.532351E+05 -3.421682E+04 -1.156668E+05 -3.562268E+04
       302   3  1.527892E+06  4.731808E+05  5.202769E+05 -1.086283E+05 -1.879411E+05 -1.208034E+04
       302   4  4.080143E+05 -1.053695E+04  6.686245E+04 -4.389307E+04 -5.160685E+04 -3.353567E+04
       302   5  3.743173E+05 -2.509372E+04  1.076029E+05 -1.577029E+04 -1.095631E+05 -3.562177E+04
       302   6  4.079464E+05  1.946857E+05  2.449051E+05 -4.424436E+04 -1.675663E+05 -1.206221E+04
       302   7 -5.429414E+05 -2.459521E+05 -1.588701E+05 -7.133801E+04 -5.974991E+04 -3.354303E+04
       302   8 -6.593827E+05 -2.809587E+05 -1.381036E+05  2.645072E+03 -1.034693E+05 -3.562049E+04
       302   9 -7.108499E+05 -8.388642E+04 -3.055520E+04  2.002297E+04 -1.472279E+05 -1.203985E+04
       302  10  1.359800E+06  2.248143E+05  2.925269E+05 -1.640716E+04 -1.125368E-09  3.177862E-10
       302  11  1.408985E+06  2.306908E+05  3.532076E+05 -3.422014E+04 -1.471228E-09  3.119515E-10
       302  12  1.527854E+06  4.731712E+05  5.202105E+05 -1.086301E+05  6.779253E-11 -9.333965E-11
       302  13  4.080111E+05 -1.053887E+04  6.685533E+04 -4.389446E+04  8.844719E-10  1.259907E-09
       302  14  3.743040E+05 -2.509830E+04  1.075780E+05 -1.577344E+04 -2.110326E-10  2.844555E-09
       302  15  4.079163E+05  1.946780E+05  2.448521E+05 -4.424599E+04 -8.423516E-11 -2.874493E-10
       302  16 -5.429456E+05 -2.459543E+05 -1.588789E+05 -7.133962E+04  5.005609E-10  6.548456E-10
       302  17 -6.593945E+05 -2.809630E+05 -1.381261E+05  2.642102E+03 -2.129137E-10  6.144536E-10
       302  18 -7.108732E+05 -8.389240E+04 -3.059625E+04  2.002154E+04  6.255168E-10 -6.894628E-10
       302  19  1.359802E+06  2.248160E+05  2.925326E+05 -1.640598E+04  4.345131E+04  3.352760E+04
       302  20  1.408999E+06  2.306957E+05  3.532351E+05 -3.421682E+04  1.156668E+05  3.562268E+04
       302  21  1.527892E+06  4.731808E+05  5.202769E+05 -1.086283E+05  1.879411E+05  1.208034E+04
       302  22  4.080143E+05 -1.053695E+04  6.686245E+04 -4.389307E+04  5.160685E+04  3.353567E+04
       302  23  3.743173E+05 -2.509372E+04  1.076029E+05 -1.577029E+04  1.095631E+05  3.562177E+04
       302  24  4.079464E+05  1.946857E+05  2.449051E+05 -4.424436E+04  1.675663E+05  1.206221E+04
       302  25 -5.429414E+05 -2.459521E+05 -1.588701E+05 -7.133801E+04  5.974991E+04  3.354303E+04
       302  26 -6.593827E+05 -2.809587E+05 -1.381036E+05  2.645072E+03  1.034693E+05  3.562049E+04
       302  27 -7.108499E+05 -8.388642E+04 -3.055520E+04  2.002297E+04  1.472279E+05  1.203985E+04
       303   1  2.236747E+05  7.911851E+05  2.420713E+05 -1.146481E+05  5.305800E+03  7.658259E+04
       303   2  9.312268E+04  6.132145E+05  1.424574E+05 -4.026282E+04  1.426027E+04  4.491682E+04
       303   3  5.878822E+04  4.632533E+05  8.745800E+04 -7.710131E+04  8.330597E+03  1.324021E+04
       303   4  7.876245E+04  2.099256E+05  9.877052E+04 -8.755838E+04  5.319575E+03  6.750730E+04
       303   5 -9.966466E+03  1.966518E+05  4.350859E+04 -3.199409E+04  1.426256E+04  4.408567E+04
       303   6 -3.868823E+03  2.099616E+05  2.716963E+04 -8.765314E+04  8.318904E+03  2.064471E+04
       303   7 -6.617225E+04 -3.710252E+05 -4.455454E+04 -6.049389E+04  5.332567E+03  5.844048E+04
       303   8 -1.130679E+05 -2.197517E+05 -5.545226E+04 -2.373087E+04  1.426483E+04  4.325507E+04
       303   9 -6.653003E+04 -4.327100E+04 -3.312297E+04 -9.820061E+04  8.306956E+03  2.804620E+04
       303  10  2.236731E+05  7.911788E+05  2.420602E+05 -1.146485E+05 -1.099291E-10 -4.971045E-11
       303  11  9.312192E+04  6.132123E+05  1.424532E+05 -4.026333E+04  1.423776E-10 -1.946458E-10
       303  12  5.878810E+04  4.632531E+05  8.745754E+04 -7.710140E+04  1.008503E-09  7.676774E-14
       303  13  7.876120E+04  2.099207E+05  9.876190E+04 -8.755867E+04  1.776159E-10  5.118881E-10
       303  14 -9.967206E+03  1.966496E+05  4.350456E+04 -3.199459E+04 -1.107511E-09 -3.529180E-12
       303  15 -3.869011E+03  2.099611E+05  2.716870E+04 -8.765327E+04  3.326104E-11  4.659497E-10
       303  16 -6.617320E+04 -3.710288E+05 -4.456102E+04 -6.049414E+04 -1.228349E-10 -1.755105E-11
       303  17 -1.130686E+05 -2.197537E+05 -5.545616E+04 -2.373137E+04 -5.666880E-10  2.377901E-11
       303  18 -6.653032E+04 -4.327187E+04 -3.312458E+04 -9.820080E+04 -4.113242E-10 -1.307391E-11
       303  19  2.236747E+05  7.911851E+05  2.420713E+05 -1.146481E+05 -5.305800E+03 -7.658259E+04
       303  20  9.312268E+04  6.132145E+05  1.424574E+05 -4.026282E+04 -1.426027E+04 -4.491682E+04
       303  21  5.878822E+04  4.632533E+05  8.745800E+04 -7.710131E+04 -8.330597E+03 -1.324021E+04
       303  22  7.876245E+04  2.099256E+05  9.877052E+04 -8.755838E+04 -5.319575E+03 -6.750730E+04
       303  23 -9.966466E+03  1.966518E+05  4.350859E+04 -3.199409E+04 -1.426256E+04 -4.408567E+04
       303  24 -3.868823E+03  2.099616E+05  2.716963E+04 -8.765314E+04 -8.318904E+03 -2.064471E+04
       303  25 -6.617225E+04 -3.710252E+05 -4.455454E+04 -6.049389E+04 -5.332567E+03 -5.844048E+04
       303  26 -1.130679E+05 -2.197517E+05 -5.545226E+04 -2.373087E+04 -1.426483E+04 -4.325507E+04
       303  27 -6.653003E+04 -4.327100E+04 -3.312297E+04 -9.820061E+04 -8.306956E+03 -2.804620E+04
       304   1  2.114507E+04  2.581291E+05  3.481153E+04 -9.011435E+04  2.038427E+03  1.314057E+04
       304   2 -2.828033E+04  9.296286E+04 -1.449082E+04 -3.233660E+04 -3.781153E+03  7.317516E+03
       304   3 -6.759351E+04 -6.927937E+04 -5.756392E+04 -8.612846E+04 -9.278601E+03  1.497792E+03
       304   4  7.934858E+03  2.047202E+05  2.220157E+04 -8.769154E+04  2.033105E+03  1.644822E+04
       304   5 -9.854180E+02  2.032513E+05  1.172163E+04 -3.191356E+04 -3.785867E+03  1.044764E+04
       304   6  2.389879E+02  2.047136E+05  7.597152E+03 -8.770343E+04 -9.282777E+03  4.448885E+03
       304   7 -5.275530E+03  1.513140E+05  9.591448E+03 -8.526894E+04  2.027809E+03  1.975558E+04
       304   8  2.630863E+04  3.135509E+05  3.793326E+04 -3.149043E+04 -3.790575E+03  1.357831E+04
       304   9  6.806609E+04  4.787756E+05  7.275301E+04 -8.927907E+04 -9.286967E+03  7.401274E+03
       304  10  2.114502E+04  2.581289E+05  3.481120E+04 -9.011438E+04  5.285913E-10 -3.698988E-10
       304  11 -2.828036E+04  9.296280E+04 -1.449095E+04 -3.233658E+04  8.221004E-10 -2.352895E-10
       304  12 -6.759360E+04 -6.927940E+04 -5.756408E+04 -8.612845E+04 -1.531805E-10  9.116740E-11
       304  13  7.934781E+03  2.047199E+05  2.220105E+04 -8.769157E+04  1.687197E-10  7.522656E-10
       304  14 -9.854627E+02  2.032512E+05  1.172140E+04 -3.191352E+04  1.341667E-09 -5.406645E-11
       304  15  2.388900E+02  2.047136E+05  7.596953E+03 -8.770340E+04  1.229542E-09  4.286754E-10
       304  16 -5.275639E+03  1.513136E+05  9.590707E+03 -8.526897E+04 -2.967158E-10  3.222437E-10
       304  17  2.630856E+04  3.135507E+05  3.793289E+04 -3.149039E+04 -1.345405E-09  8.020823E-11
       304  18  6.806598E+04  4.787755E+05  7.275274E+04 -8.927901E+04 -5.137776E-10  4.956413E-11
       304  19  2.114507E+04  2.581291E+05  3.481153E+04 -9.011435E+04 -2.038427E+03 -1.314057E+04
       304  20 -2.828033E+04  9.296286E+04 -1.449082E+04 -3.233660E+04  3.781153E+03 -7.317516E+03
       304  21 -6.759351E+04 -6.927937E+04 -5.756392E+04 -8.612846E+04  9.278601E+03 -1.497792E+03
       304  22  7.934858E+03  2.047202E+05  2.220157E+04 -8.769154E+04 -2.033105E+03 -1.644822E+04
       304  23 -9.854180E+02  2.032513E+05  1.172163E+04 -3.191356E+04  3.785867E+03 -1.044764E+04
       304  24  2.389879E+02  2.047136E+05  7.597152E+03 -8.770343E+04  9.282777E+03 -4.448885E+03
       304  25 -5.275530E+03  1.513140E+05  9.591448E+03 -8.526894E+04 -2.027809E+03 -1.975558E+04
       304  26  2.630863E+04  3.135509E+05  3.793326E+04 -3.149043E+04  3.790575E+03 -1.357831E+04
       304  27  6.806609E+04  4.787756E+05  7.275301E+04 -8.927907E+04  9.286967E+03 -7.401274E+03
       305   1 -1.165936E+05 -2.694124E+05 -1.063170E+05 -8.789203E+04 -1.618577E+04 -5.391992E+03
       305   2 -1.584229E+05 -4.336391E+05 -1.468448E+05 -3.109001E+04 -2.189847E+04  3.128077E+03
       305   3 -1.955592E+05 -5.976431E+05 -1.917282E+05 -8.555552E+04 -7.821865E+03  1.166309E+04
       305   4  7.223991E+02  2.044865E+05  6.344571E+03 -8.763237E+04 -1.619689E+04  3.215241E+03
       305   5 -7.051937E+02  2.034187E+05  4.576186E+03 -3.200102E+04 -2.189468E+04  8.164628E+02
       305   6  4.454871E+03  2.044420E+05  6.036486E+03 -8.762989E+04 -7.812153E+03 -1.564939E+03
       305   7  1.180223E+05  6.785917E+05  1.189907E+05 -8.737242E+04 -1.620799E+04  1.182901E+04
       305   8  1.569833E+05  8.408492E+05  1.559689E+05 -3.291287E+04 -2.189088E+04 -1.497513E+03
       305   9  2.044211E+05  1.007113E+06  2.037543E+05 -8.970680E+04 -7.802360E+03 -1.481005E+04
       305  10 -1.165939E+05 -2.694125E+05 -1.063175E+05 -8.789210E+04 -7.870612E-12 -1.116328E-10
       305  11 -1.584234E+05 -4.336392E+05 -1.468458E+05 -3.108995E+04  5.402234E-10  1.228889E-11
       305  12 -1.955593E+05 -5.976433E+05 -1.917286E+05 -8.555545E+04 -1.060637E-10  7.135304E-11
       305  13  7.221146E+02  2.044864E+05  6.344059E+03 -8.763232E+04 -7.459131E-10  7.586064E-10
       305  14 -7.057087E+02  2.034186E+05  4.575284E+03 -3.200100E+04  3.870779E-10 -3.657685E-11
       305  15  4.454805E+03  2.044420E+05  6.036366E+03 -8.762990E+04 -1.476575E-10  1.624062E-10
       305  16  1.180220E+05  6.785915E+05  1.189900E+05 -8.737226E+04  3.250400E-10  5.373657E-11
       305  17  1.569828E+05  8.408491E+05  1.559680E+05 -3.291289E+04 -9.133922E-11 -2.767530E-10
       305  18  2.044210E+05  1.007113E+06  2.037537E+05 -8.970689E+04 -2.028791E-10 -7.704586E-11
       305  19 -1.165936E+05 -2.694124E+05 -1.063170E+05 -8.789203E+04  1.618577E+04  5.391992E+03
       305  20 -1.584229E+05 -4.336391E+05 -1.468448E+05 -3.109001E+04  2.189847E+04 -3.128077E+03
       305  21 -1.955592E+05 -5.976431E+05 -1.917282E+05 -8.555552E+04  7.821865E+03 -1.166309E+04
       305  22  7.223991E+02  2.044865E+05  6.344571E+03 -8.763237E+04  1.619689E+04 -3.215241E+03
       305  23 -7.051937E+02  2.034187E+05  4.576186E+03 -3.200102E+04  2.189468E+04 -8.164628E+02
       305  24  4.454871E+03  2.044420E+05  6.036486E+03 -8.762989E+04  7.812153E+03  1.564939E+03
       305  25  1.180223E+05  6.785917E+05  1.189907E+05 -8.737242E+04  1.620799E+04 -1.182901E+04
       305  26  1.569833E+05  8.408492E+05  1.559689E+05 -3.291287E+04  2.189088E+04  1.497513E+03
       305  27  2.044211E+05  1.007113E+06  2.037543E+05 -8.970680E+04  7.802360E+03  1.481005E+04
       306   1 -1.590013E+06 -5.284170E+05 -3.359159E+05 -5.618088E+05 -1.575628E+05 -5.450247E+04
       306   2 -1.545252E+06 -2.932163E+05 -1.893573E+05 -5.764935E+05 -1.022860E+05 -2.418302E+04
       306   3 -1.575496E+06 -2.811013E+05 -1.441462E+05 -5.504161E+05 -4.360402E+04 -2.916849E+03
       306   4 -1.259752E+06 -3.492242E+05 -2.353911E+05 -4.159092E+05 -1.509690E+05 -5.204126E+04
       306   5 -1.210437E+06 -1.515396E+05 -9.851766E+04 -4.688164E+05 -1.003375E+05 -2.345479E+04
       306   6 -1.235162E+06 -1.759546E+05 -5.926399E+04 -4.809743E+05 -4.630183E+04 -3.928291E+03
       306   7 -9.293773E+05 -1.699846E+05 -1.348764E+05 -2.699278E+05 -1.443713E+05 -4.957713E+04
       306   8 -8.755130E+05 -9.847627E+03 -7.688201E+03 -3.610838E+05 -9.838788E+04 -2.272599E+04
       306   9 -8.947168E+05 -7.080909E+04  2.560935E+04 -4.115022E+05 -4.900126E+04 -4.940092E+03
       306  10 -1.590040E+06 -5.284269E+05 -3.359683E+05 -5.618157E+05 -9.936535E-11  2.948512E-11
       306  11 -1.545263E+06 -2.932197E+05 -1.893781E+05 -5.764955E+05 -6.391661E-10  2.121588E-10
       306  12 -1.575498E+06 -2.811018E+05 -1.441498E+05 -5.504162E+05  4.916953E-10 -8.339669E-11
       306  13 -1.259777E+06 -3.492333E+05 -2.354391E+05 -4.159156E+05  2.829454E-10  1.987879E-12
       306  14 -1.210448E+06 -1.515429E+05 -9.853766E+04 -4.688183E+05 -7.918075E-10  1.751704E-10
       306  15 -1.235165E+06 -1.759552E+05 -5.926806E+04 -4.809744E+05  3.039180E-10 -1.008473E-10
       306  16 -9.294004E+05 -1.699929E+05 -1.349202E+05 -2.699336E+05  5.197003E-10  1.468461E-10
       306  17 -8.755236E+05 -9.850787E+03 -7.707394E+03 -3.610856E+05 -3.534725E-11  1.520564E-10
       306  18 -8.947194E+05 -7.080977E+04  2.560479E+04 -4.115024E+05 -3.522058E-10  5.726992E-11
       306  19 -1.590013E+06 -5.284170E+05 -3.359159E+05 -5.618088E+05  1.575628E+05  5.450247E+04
       306  20 -1.545252E+06 -2.932163E+05 -1.893573E+05 -5.764935E+05  1.022860E+05  2.418302E+04
       306  21 -1.575496E+06 -2.811013E+05 -1.441462E+05 -5.504161E+05  4.360402E+04  2.916849E+03
       306  22 -1.259752E+06 -3.492242E+05 -2.353911E+05 -4.159092E+05  1.509690E+05  5.204126E+04
       306  23 -1.210437E+06 -1.515396E+05 -9.851766E+04 -4.688164E+05  1.003375E+05  2.345479E+04
       306  24 -1.235162E+06 -1.759546E+05 -5.926399E+04 -4.809743E+05  4.630183E+04  3.928291E+03
       306  25 -9.293773E+05 -1.699846E+05 -1.348764E+05 -2.699278E+05  1.443713E+05  4.957713E+04
       306  26 -8.755130E+05 -9.847627E+03 -7.688201E+03 -3.610838E+05  9.838788E+04  2.272599E+04
       306  27 -8.947168E+05 -7.080909E+04  2.560935E+04 -4.115022E+05  4.900126E+04  4.940092E+03
       307   1 -1.516033E+06 -3.137479E+05 -1.250455E+05 -5.514306E+05 -3.721931E+04 -2.672732E+03
       307   2 -1.494489E+06 -2.752193E+05 -9.352050E+04 -5.400937E+05 -2.465793E+04  1.563335E+03
       307   3 -1.469684E+06 -2.717601E+05 -7.721683E+04 -5.383338E+05 -1.183885E+04  5.113439E+03
       307   4 -1.227271E+06 -2.001491E+05 -4.810590E+04 -4.674604E+05 -3.726959E+04 -2.692341E+03
       307   5 -1.227669E+06 -1.737084E+05 -2.324296E+04 -4.660226E+05 -2.505660E+04  1.413403E+03
       307   6 -1.224733E+06 -1.822617E+05 -1.331931E+04 -4.741626E+05 -1.258648E+04  4.832948E+03
       307   7 -9.384271E+05 -8.654282E+04  2.882661E+04 -3.834539E+05 -3.731990E+04 -2.711958E+03
       307   8 -9.607791E+05 -7.219259E+04  4.702859E+04 -3.919225E+05 -2.545546E+04  1.263398E+03
       307   9 -9.797238E+05 -9.276052E+04  5.057317E+04 -4.099689E+05 -1.333443E+04  4.552344E+03
       307  10 -1.516035E+06 -3.137482E+05 -1.250481E+05 -5.514306E+05  9.040190E-11 -1.018122E-10
       307  11 -1.494490E+06 -2.752194E+05 -9.352165E+04 -5.400936E+05 -4.254818E-10  2.922376E-11
       307  12 -1.469684E+06 -2.717602E+05 -7.721714E+04 -5.383337E+05  5.119800E-10 -1.551330E-10
       307  13 -1.227272E+06 -2.001495E+05 -4.810853E+04 -4.674605E+05  2.381154E-10 -2.527966E-10
       307  14 -1.227670E+06 -1.737086E+05 -2.324415E+04 -4.660226E+05  5.151539E-10 -9.332642E-11
       307  15 -1.224733E+06 -1.822618E+05 -1.331965E+04 -4.741625E+05  9.351805E-10  1.127797E-10
       307  16 -9.384286E+05 -8.654321E+04  2.882397E+04 -3.834540E+05 -1.948467E-10 -1.243257E-10
       307  17 -9.607798E+05 -7.219277E+04  4.702736E+04 -3.919225E+05  2.816167E-10 -6.126631E-12
       307  18 -9.797240E+05 -9.276059E+04  5.057280E+04 -4.099688E+05  1.136694E-10 -4.323690E-10
       307  19 -1.516033E+06 -3.137479E+05 -1.250455E+05 -5.514306E+05  3.721931E+04  2.672732E+03
       307  20 -1.494489E+06 -2.752193E+05 -9.352050E+04 -5.400937E+05  2.465793E+04 -1.563335E+03
       307  21 -1.469684E+06 -2.717601E+05 -7.721683E+04 -5.383338E+05  1.183885E+04 -5.113439E+03
       307  22 -1.227271E+06 -2.001491E+05 -4.810590E+04 -4.674604E+05  3.726959E+04  2.692341E+03
       307  23 -1.227669E+06 -1.737084E+05 -2.324296E+04 -4.660226E+05  2.505660E+04 -1.413403E+03
       307  24 -1.224733E+06 -1.822617E+05 -1.331931E+04 -4.741626E+05  1.258648E+04 -4.832948E+03
       307  25 -9.384271E+05 -8.654282E+04  2.882661E+04 -3.834539E+05  3.731990E+04  2.711958E+03
       307  26 -9.607791E+05 -7.219259E+04  4.702859E+04 -3.919225E+05  2.545546E+04 -1.263398E+03
       307  27 -9.797238E+05 -9.276052E+04  5.057317E+04 -4.099689E+05  1.333443E+04 -4.552344E+03
       308   1 -1.433173E+06 -2.638724E+05 -6.535531E+04 -5.303641E+05 -9.833921E+03  4.996617E+03
       308   2 -1.413589E+06 -2.449452E+05 -5.364770E+04 -5.156956E+05 -6.641892E+03  4.919411E+03
       308   3 -1.381445E+06 -2.420464E+05 -4.461413E+04 -5.162858E+05 -3.424944E+03  4.774582E+03
       308   4 -1.223634E+06 -1.848358E+05 -1.036578E+04 -4.728774E+05 -1.039426E+04  4.786397E+03
       308   5 -1.229787E+06 -1.759115E+05 -5.405160E+03 -4.655894E+05 -7.236185E+03  4.696604E+03
       308   6 -1.223373E+06 -1.830082E+05 -3.090879E+03 -4.735602E+05 -4.053309E+03  4.539151E+03
       308   7 -1.014054E+06 -1.057966E+05  4.461983E+04 -4.153734E+05 -1.095481E+04  4.576100E+03
       308   8 -1.045952E+06 -1.068756E+05  4.283450E+04 -4.154698E+05 -7.830672E+03  4.473725E+03
       308   9 -1.065277E+06 -1.239683E+05  3.843037E+04 -4.308247E+05 -4.681851E+03  4.303654E+03
       308  10 -1.433173E+06 -2.638724E+05 -6.535554E+04 -5.303641E+05 -1.284367E-10  9.091210E-11
       308  11 -1.413589E+06 -2.449453E+05 -5.364783E+04 -5.156956E+05  3.110387E-12  5.038520E-10
       308  12 -1.381445E+06 -2.420465E+05 -4.461419E+04 -5.162858E+05  2.383557E-10  2.161714E-11
       308  13 -1.223634E+06 -1.848358E+05 -1.036603E+04 -4.728774E+05  3.417208E-11  2.371009E-11
       308  14 -1.229787E+06 -1.759115E+05 -5.405300E+03 -4.655894E+05  5.333586E-10  1.467552E-10
       308  15 -1.223373E+06 -1.830082E+05 -3.090948E+03 -4.735602E+05 -2.273816E-10 -7.141419E-11
       308  16 -1.014054E+06 -1.057967E+05  4.461957E+04 -4.153733E+05  3.157473E-10  3.381079E-11
       308  17 -1.045952E+06 -1.068757E+05  4.283435E+04 -4.154698E+05 -4.759583E-11  2.420362E-10
       308  18 -1.065277E+06 -1.239683E+05  3.843030E+04 -4.308247E+05 -6.093325E-11  2.011756E-10
       308  19 -1.433173E+06 -2.638724E+05 -6.535531E+04 -5.303641E+05  9.833921E+03 -4.996617E+03
       308  20 -1.413589E+06 -2.449452E+05 -5.364770E+04 -5.156956E+05  6.641892E+03 -4.919411E+03
       308  21 -1.381445E+06 -2.420464E+05 -4.461413E+04 -5.162858E+05  3.424944E+03 -4.774582E+03
       308  22 -1.223634E+06 -1.848358E+05 -1.036578E+04 -4.728774E+05  1.039426E+04 -4.786397E+03
       308  23 -1.229787E+06 -1.759115E+05 -5.405160E+03 -4.655894E+05  7.236185E+03 -4.696604E+03
       308  24 -1.223373E+06 -1.830082E+05 -3.090879E+03 -4.735602E+05  4.053309E+03 -4.539151E+03
       308  25 -1.014054E+06 -1.057966E+05  4.461983E+04 -4.153734E+05  1.095481E+04 -4.576100E+03
       308  26 -1.045952E+06 -1.068756E+05  4.283450E+04 -4.154698E+05  7.830672E+03 -4.473725E+03
       308  27 -1.065277E+06 -1.239683E+05  3.843037E+04 -4.308247E+05  4.681851E+03 -4.303654E+03
       309   1 -1.346283E+06 -2.295248E+05 -3.462046E+04 -5.070446E+05 -2.720665E+03  4.234510E+03
       309   2 -1.326471E+06 -2.121756E+05 -2.673026E+04 -4.916480E+05 -1.533541E+03  3.305948E+03
       309   3 -1.292688E+06 -2.092367E+05 -1.945350E+04 -4.924608E+05 -3.415520E+02  2.363600E+03
       309   4 -1.223154E+06 -1.833372E+05 -2.409720E+03 -4.735128E+05 -3.338587E+03  4.003062E+03
       309   5 -1.230128E+06 -1.760464E+05 -1.454660E+03 -4.654400E+05 -2.158417E+03  3.071968E+03
       309   6 -1.223128E+06 -1.831642E+05 -1.107334E+03 -4.735768E+05 -9.734202E+02  2.127080E+03
       309   7 -1.100011E+06 -1.371487E+05  2.979974E+04 -4.399749E+05 -3.956644E+03  3.771564E+03
       309   8 -1.133775E+06 -1.399166E+05  2.382011E+04 -4.392285E+05 -2.783399E+03  2.837948E+03
       309   9 -1.153564E+06 -1.570915E+05  1.723836E+04 -4.546910E+05 -1.605364E+03  1.890530E+03
       309  10 -1.346283E+06 -2.295248E+05 -3.462051E+04 -5.070446E+05 -3.356910E-10 -3.416877E-10
       309  11 -1.326471E+06 -2.121756E+05 -2.673028E+04 -4.916480E+05 -1.899216E-10 -4.642723E-10
       309  12 -1.292688E+06 -2.092367E+05 -1.945351E+04 -4.924608E+05 -4.518361E-10 -9.070169E-10
       309  13 -1.223154E+06 -1.833372E+05 -2.409771E+03 -4.735128E+05  1.056660E-10 -4.082937E-10
       309  14 -1.230128E+06 -1.760464E+05 -1.454686E+03 -4.654400E+05 -3.703272E-10 -2.846487E-10
       309  15 -1.223128E+06 -1.831642E+05 -1.107344E+03 -4.735768E+05  1.624267E-10 -2.187599E-10
       309  16 -1.100011E+06 -1.371487E+05  2.979968E+04 -4.399749E+05  3.321434E-10  2.795428E-10
       309  17 -1.133775E+06 -1.399167E+05  2.382008E+04 -4.392285E+05  4.873747E-10  8.065706E-10
       309  18 -1.153564E+06 -1.570915E+05  1.723835E+04 -4.546910E+05  5.347596E-10 -7.636508E-11
       309  19 -1.346283E+06 -2.295248E+05 -3.462046E+04 -5.070446E+05  2.720665E+03 -4.234510E+03
       309  20 -1.326471E+06 -2.121756E+05 -2.673026E+04 -4.916480E+05  1.533541E+03 -3.305948E+03
       309  21 -1.292688E+06 -2.092367E+05 -1.945350E+04 -4.924608E+05  3.415520E+02 -2.363600E+03
       309  22 -1.223154E+06 -1.833372E+05 -2.409720E+03 -4.735128E+05  3.338587E+03 -4.003062E+03
       309  23 -1.230128E+06 -1.760464E+05 -1.454660E+03 -4.654400E+05  2.158417E+03 -3.071968E+03
       309  24 -1.223128E+06 -1.831642E+05 -1.107334E+03 -4.735768E+05  9.734202E+02 -2.127080E+03
       309  25 -1.100011E+06 -1.371487E+05  2.979974E+04 -4.399749E+05  3.956644E+03 -3.771564E+03
       309  26 -1.133775E+06 -1.399166E+05  2.382011E+04 -4.392285E+05  2.783399E+03 -2.837948E+03
       309  27 -1.153564E+06 -1.570915E+05  1.723836E+04 -4.546910E+05  1.605364E+03 -1.890530E+03
       310   1 -1.257129E+06 -1.959746E+05 -9.914766E+03 -4.829066E+05  1.077577E+02  1.717675E+03
       310   2 -1.237114E+06 -1.786116E+05 -3.133858E+03 -4.672822E+05  1.223085E+03  7.374443E+02
       310   3 -1.202962E+06 -1.757837E+05  3.098473E+03 -4.680611E+05  2.337741E+03 -2.409515E+02
       310   4 -1.223093E+06 -1.832040E+05 -1.083330E+03 -4.736152E+05 -5.252462E+02  1.480757E+03
       310   5 -1.230170E+06 -1.760029E+05 -1.311300E+03 -4.653884E+05  5.910174E+02  5.008786E+02
       310   6 -1.223112E+06 -1.833375E+05 -2.088695E+03 -4.735653E+05  1.706576E+03 -4.771728E+02
       310   7 -1.189055E+06 -1.704332E+05  7.748038E+03 -4.643233E+05 -1.158290E+03  1.243824E+03
       310   8 -1.223226E+06 -1.733943E+05  5.112578E+02 -4.634945E+05 -4.105880E+01  2.643097E+02
       310   9 -1.243261E+06 -1.908913E+05 -7.275895E+03 -4.790693E+05  1.075434E+03 -7.133857E+02
       310  10 -1.257129E+06 -1.959746E+05 -9.914771E+03 -4.829066E+05 -1.443187E-10 -5.620855E-10
       310  11 -1.237114E+06 -1.786116E+05 -3.133862E+03 -4.672822E+05  7.938464E-11 -1.608230E-10
       310  12 -1.202962E+06 -1.757837E+05  3.098463E+03 -4.680611E+05 -6.875156E-11 -7.923630E-10
       310  13 -1.223093E+06 -1.832040E+05 -1.083335E+03 -4.736152E+05  9.414781E-11 -5.375786E-11
       310  14 -1.230170E+06 -1.760029E+05 -1.311302E+03 -4.653884E+05  4.210487E-10 -5.020831E-10
       310  15 -1.223112E+06 -1.833375E+05 -2.088701E+03 -4.735653E+05  2.728149E-10  2.394386E-10
       310  16 -1.189055E+06 -1.704332E+05  7.748033E+03 -4.643233E+05  1.338046E-10  3.324875E-10
       310  17 -1.223226E+06 -1.733943E+05  5.112576E+02 -4.634945E+05  2.300913E-10  2.204916E-10
       310  18 -1.243261E+06 -1.908913E+05 -7.275898E+03 -4.790693E+05 -1.236968E-10 -2.625862E-10
       310  19 -1.257129E+06 -1.959746E+05 -9.914766E+03 -4.829066E+05 -1.077577E+02 -1.717675E+03
       310  20 -1.237114E+06 -1.786116E+05 -3.133858E+03 -4.672822E+05 -1.223085E+03 -7.374443E+02
       310  21 -1.202962E+06 -1.757837E+05  3.098473E+03 -4.680611E+05 -2.337741E+03  2.409515E+02
       310  22 -1.223093E+06 -1.832040E+05 -1.083330E+03 -4.736152E+05  5.252462E+02 -1.480757E+03
       310  23 -1.230170E+06 -1.760029E+05 -1.311300E+03 -4.653884E+05 -5.910174E+02 -5.008786E+02
       310  24 -1.223112E+06 -1.833375E+05 -2.088695E+03 -4.735653E+05 -1.706576E+03  4.771728E+02
       310  25 -1.189055E+06 -1.704332E+05  7.748038E+03 -4.643233E+05  1.158290E+03 -1.243824E+03
       310  26 -1.223226E+06 -1.733943E+05  5.112578E+02 -4.634945E+05  4.105880E+01 -2.643097E+02
       310  27 -1.243261E+06 -1.908913E+05 -7.275895E+03 -4.790693E+05 -1.075434E+03  7.133857E+02
       311   1 -1.167387E+06 -1.623898E+05  1.205195E+04 -4.587257E+05  3.006180E+03 -8.107631E+02
       311   2 -1.147402E+06 -1.448092E+05  1.705710E+04 -4.429235E+05  5.773863E+03 -1.165002E+03
       311   3 -1.114239E+06 -1.433708E+05  1.981932E+04 -4.430127E+05  8.524815E+03 -1.473577E+03
       311   4 -1.223245E+06 -1.831158E+05 -2.658125E+03 -4.736689E+05  2.365076E+03 -1.050723E+03
       311   5 -1.229941E+06 -1.758149E+05 -4.604743E+03 -4.654345E+05  5.155956E+03 -1.396344E+03
       311   6 -1.223465E+06 -1.846610E+05 -8.812926E+03 -4.730919E+05  7.930002E+03 -1.696338E+03
       311   7 -1.279100E+06 -2.038415E+05 -1.736842E+04 -4.886109E+05  1.724039E+03 -1.290658E+03
       311   8 -1.312474E+06 -2.068201E+05 -2.626716E+04 -4.879428E+05  4.538139E+03 -1.627653E+03
       311   9 -1.332681E+06 -2.259505E+05 -3.744627E+04 -5.031663E+05  7.335301E+03 -1.919056E+03
       311  10 -1.167387E+06 -1.623898E+05  1.205193E+04 -4.587257E+05  3.287503E-10  2.100087E-10
       311  11 -1.147402E+06 -1.448093E+05  1.705703E+04 -4.429235E+05 -4.760164E-10  6.413190E-10
       311  12 -1.114239E+06 -1.433708E+05  1.981918E+04 -4.430127E+05 -1.531960E-10  2.272183E-10
       311  13 -1.223245E+06 -1.831158E+05 -2.658137E+03 -4.736689E+05  6.782607E-10 -1.979092E-11
       311  14 -1.229941E+06 -1.758149E+05 -4.604796E+03 -4.654345E+05  3.055073E-10  5.575357E-10
       311  15 -1.223465E+06 -1.846610E+05 -8.813050E+03 -4.730919E+05 -5.222911E-10  1.519360E-10
       311  16 -1.279100E+06 -2.038415E+05 -1.736843E+04 -4.886109E+05 -3.698599E-11 -3.632832E-11
       311  17 -1.312474E+06 -2.068201E+05 -2.626720E+04 -4.879428E+05 -4.365486E-10  2.406824E-10
       311  18 -1.332681E+06 -2.259506E+05 -3.744638E+04 -5.031663E+05 -3.014010E-10  4.774687E-10
       311  19 -1.167387E+06 -1.623898E+05  1.205195E+04 -4.587257E+05 -3.006180E+03  8.107631E+02
       311  20 -1.147402E+06 -1.448092E+05  1.705710E+04 -4.429235E+05 -5.773863E+03  1.165002E+03
       311  21 -1.114239E+06 -1.433708E+05  1.981932E+04 -4.430127E+05 -8.524815E+03  1.473577E+03
       311  22 -1.223245E+06 -1.831158E+05 -2.658125E+03 -4.736689E+05 -2.365076E+03  1.050723E+03
       311  23 -1.229941E+06 -1.758149E+05 -4.604743E+03 -4.654345E+05 -5.155956E+03  1.396344E+03
       311  24 -1.223465E+06 -1.846610E+05 -8.812926E+03 -4.730919E+05 -7.930002E+03  1.696338E+03
       311  25 -1.279100E+06 -2.038415E+05 -1.736842E+04 -4.886109E+05 -1.724039E+03  1.290658E+03
       311  26 -1.312474E+06 -2.068201E+05 -2.626716E+04 -4.879428E+05 -4.538139E+03  1.627653E+03
       311  27 -1.332681E+06 -2.259505E+05 -3.744627E+04 -5.031663E+05 -7.335301E+03  1.919056E+03
       312   1 -1.078460E+06 -1.298792E+05  2.664312E+04 -4.366988E+05  1.058101E+04 -1.583780E+03
       312   2 -1.058500E+06 -1.091139E+05  2.498577E+04 -4.183929E+05  2.099255E+04  9.813241E+02
       312   3 -1.032966E+06 -1.207553E+05  1.084422E+04 -4.113949E+05  3.120842E+04  4.070828E+03
       312   4 -1.224358E+06 -1.825205E+05 -1.131993E+04 -4.742336E+05  9.840545E+03 -1.861106E+03
       312   5 -1.228191E+06 -1.738845E+05 -1.973814E+04 -4.657373E+05  2.051983E+04  8.040696E+02
       312   6 -1.226507E+06 -1.977122E+05 -4.085577E+04 -4.685493E+05  3.100300E+04  3.993425E+03
       312   7 -1.370235E+06 -2.351609E+05 -4.928475E+04 -5.117606E+05  9.100271E+03 -2.138367E+03
       312   8 -1.397855E+06 -2.386530E+05 -6.446445E+04 -5.130699E+05  2.004726E+04  6.268703E+02
       312   9 -1.420011E+06 -2.746653E+05 -9.255887E+04 -5.256870E+05  3.079764E+04  3.916052E+03
       312  10 -1.078460E+06 -1.298793E+05  2.664290E+04 -4.366988E+05 -8.461319E-10 -2.360369E-10
       312  11 -1.058501E+06 -1.091140E+05  2.498494E+04 -4.183929E+05 -5.203424E-10  4.307448E-11
       312  12 -1.032967E+06 -1.207556E+05  1.084235E+04 -4.113950E+05  5.281732E-12 -4.398040E-10
       312  13 -1.224358E+06 -1.825205E+05 -1.132012E+04 -4.742336E+05 -7.233455E-10  4.399528E-10
       312  14 -1.228192E+06 -1.738846E+05 -1.973893E+04 -4.657374E+05 -3.204261E-11  3.845601E-10
       312  15 -1.226508E+06 -1.977125E+05 -4.085761E+04 -4.685494E+05 -3.529824E-10 -2.111941E-11
       312  16 -1.370235E+06 -2.351609E+05 -4.928491E+04 -5.117606E+05  1.083281E-10  1.102915E-09
       312  17 -1.397855E+06 -2.386531E+05 -6.446521E+04 -5.130699E+05 -1.322230E-10  4.804146E-10
       312  18 -1.420012E+06 -2.746656E+05 -9.256069E+04 -5.256871E+05  1.445423E-10  6.599442E-11
       312  19 -1.078460E+06 -1.298792E+05  2.664312E+04 -4.366988E+05 -1.058101E+04  1.583780E+03
       312  20 -1.058500E+06 -1.091139E+05  2.498577E+04 -4.183929E+05 -2.099255E+04 -9.813241E+02
       312  21 -1.032966E+06 -1.207553E+05  1.084422E+04 -4.113949E+05 -3.120842E+04 -4.070828E+03
       312  22 -1.224358E+06 -1.825205E+05 -1.131993E+04 -4.742336E+05 -9.840545E+03  1.861106E+03
       312  23 -1.228191E+06 -1.738845E+05 -1.973814E+04 -4.657373E+05 -2.051983E+04 -8.040696E+02
       312  24 -1.226507E+06 -1.977122E+05 -4.085577E+04 -4.685493E+05 -3.100300E+04 -3.993425E+03
       312  25 -1.370235E+06 -2.351609E+05 -4.928475E+04 -5.117606E+05 -9.100271E+03  2.138367E+03
       312  26 -1.397855E+06 -2.386530E+05 -6.446445E+04 -5.130699E+05 -2.004726E+04 -6.268703E+02
       312  27 -1.420011E+06 -2.746653E+05 -9.255887E+04 -5.256870E+05 -3.079764E+04 -3.916052E+03
       313   1 -9.888312E+05 -1.047691E+05  1.002721E+04 -4.333718E+05  4.093872E+04  5.838194E+03
       313   2 -9.683824E+05 -4.953956E+04 -1.682936E+04 -3.873790E+05  8.335309E+04  2.077630E+04
       313   3 -1.007174E+06 -1.851324E+05 -1.237334E+05 -3.102136E+05  1.231525E+05  4.269639E+04
       313   4 -1.233186E+06 -1.771912E+05 -5.033186E+04 -4.800540E+05  3.869133E+04  4.997113E+03
       313   5 -1.213602E+06 -1.550071E+05 -8.366048E+04 -4.680546E+05  8.468989E+04  2.127509E+04
       313   6 -1.254001E+06 -3.244073E+05 -1.999059E+05 -4.248770E+05  1.280724E+05  4.453063E+04
       313   7 -1.477484E+06 -2.496145E+05 -1.106954E+05 -5.267222E+05  3.644491E+04  4.156216E+03
       313   8 -1.458762E+06 -2.604654E+05 -1.504969E+05 -5.486995E+05  8.602611E+04  2.177359E+04
       313   9 -1.500762E+06 -4.636508E+05 -2.760834E+05 -5.394909E+05  1.329902E+05  4.636312E+04
       313  10 -9.888330E+05 -1.047696E+05  1.002399E+04 -4.333719E+05 -4.074954E-10 -2.936106E-10
       313  11 -9.683900E+05 -4.954189E+04 -1.684325E+04 -3.873804E+05 -7.198619E-10 -4.514344E-12
       313  12 -1.007191E+06 -1.851384E+05 -1.237654E+05 -3.102179E+05 -1.120326E-10  3.356352E-11
       313  13 -1.233188E+06 -1.771916E+05 -5.033472E+04 -4.800541E+05 -5.658505E-10 -7.236246E-10
       313  14 -1.213610E+06 -1.550095E+05 -8.367484E+04 -4.680561E+05 -4.346107E-10  2.875901E-11
       313  15 -1.254019E+06 -3.244138E+05 -1.999405E+05 -4.248816E+05 -9.885533E-11 -5.003869E-11
       313  16 -1.477486E+06 -2.496148E+05 -1.106980E+05 -5.267223E+05  2.547546E-10  1.051756E-11
       313  17 -1.458770E+06 -2.604679E+05 -1.505118E+05 -5.487010E+05 -7.334708E-10  1.527781E-10
       313  18 -1.500782E+06 -4.636579E+05 -2.761208E+05 -5.394959E+05 -2.987854E-10  1.678413E-10
       313  19 -9.888312E+05 -1.047691E+05  1.002721E+04 -4.333718E+05 -4.093872E+04 -5.838194E+03
       313  20 -9.683824E+05 -4.953956E+04 -1.682936E+04 -3.873790E+05 -8.335309E+04 -2.077630E+04
       313  21 -1.007174E+06 -1.851324E+05 -1.237334E+05 -3.102136E+05 -1.231525E+05 -4.269639E+04
       313  22 -1.233186E+06 -1.771912E+05 -5.033186E+04 -4.800540E+05 -3.869133E+04 -4.997113E+03
       313  23 -1.213602E+06 -1.550071E+05 -8.366048E+04 -4.680546E+05 -8.468989E+04 -2.127509E+04
       313  24 -1.254001E+06 -3.244073E+05 -1.999059E+05 -4.248770E+05 -1.280724E+05 -4.453063E+04
       313  25 -1.477484E+06 -2.496145E+05 -1.106954E+05 -5.267222E+05 -3.644491E+04 -4.156216E+03
       313  26 -1.458762E+06 -2.604654E+05 -1.504969E+05 -5.486995E+05 -8.602611E+04 -2.177359E+04
       313  27 -1.500762E+06 -4.636508E+05 -2.760834E+05 -5.394909E+05 -1.329902E+05 -4.636312E+04
       314   1  1.172471E+06  2.509414E+05  3.694951E+05  1.196376E+05  3.758707E+05  9.374644E+03
       314   2  1.162922E+06 -2.432552E+05  7.284911E+04  3.488082E+04  2.511517E+05  2.612424E+04
       314   3  1.306259E+06 -1.936517E+05 -6.539155E+03 -9.524598E+04  1.264474E+05  2.422894E+04
       314   4  1.990902E+06  4.537429E+05  5.705018E+05 -3.283745E+04  3.908158E+05  9.310887E+03
       314   5  1.913884E+06 -5.785601E+04  2.509844E+05 -9.712964E+03  2.556081E+05  2.611095E+04
       314   6  1.991345E+06 -2.423736E+04  1.557904E+05 -3.195803E+04  1.204312E+05  2.423283E+04
       314   7  2.809993E+06  6.565828E+05  7.714727E+05 -1.855137E+05  4.057803E+05  9.239894E+03
       314   8  2.665367E+06  1.275103E+05  4.290818E+05 -5.436106E+04  2.600697E+05  2.609703E+04
       314   9  2.676869E+06  1.451583E+05  3.180896E+05  3.139986E+04  1.144085E+05  2.423549E+04
       314  10  1.172319E+06  2.509035E+05  3.692300E+05  1.196348E+05 -1.264256E-09  6.391260E-10
       314  11  1.162854E+06 -2.432728E+05  7.272953E+04  3.487554E+04 -1.373953E-09 -6.907468E-10
       314  12  1.306242E+06 -1.936566E+05 -6.570243E+03 -9.524845E+04  4.117983E-10  1.037319E-11
       314  13  1.990739E+06  4.537020E+05  5.702155E+05 -3.284038E+04  1.113613E-09  3.287468E-10
       314  14  1.913814E+06 -5.787421E+04  2.508608E+05 -9.718334E+03 -9.144375E-10 -1.972393E-09
       314  15  1.991329E+06 -2.424187E+04  1.557621E+05 -3.196038E+04  8.126088E-12  9.207190E-11
       314  16  2.809816E+06  6.565388E+05  7.711645E+05 -1.855167E+05  5.839648E-10  2.321818E-11
       314  17  2.665295E+06  1.274916E+05  4.289539E+05 -5.436652E+04 -2.580860E-10  7.504366E-11
       314  18  2.676855E+06  1.451542E+05  3.180641E+05  3.139763E+04 -4.857450E-10 -3.074481E-10
       314  19  1.172471E+06  2.509414E+05  3.694951E+05  1.196376E+05 -3.758707E+05 -9.374644E+03
       314  20  1.162922E+06 -2.432552E+05  7.284911E+04  3.488082E+04 -2.511517E+05 -2.612424E+04
       314  21  1.306259E+06 -1.936517E+05 -6.539155E+03 -9.524598E+04 -1.264474E+05 -2.422894E+04
       314  22  1.990902E+06  4.537429E+05  5.705018E+05 -3.283745E+04 -3.908158E+05 -9.310887E+03
       314  23  1.913884E+06 -5.785601E+04  2.509844E+05 -9.712964E+03 -2.556081E+05 -2.611095E+04
       314  24  1.991345E+06 -2.423736E+04  1.557904E+05 -3.195803E+04 -1.204312E+05 -2.423283E+04
       314  25  2.809993E+06  6.565828E+05  7.714727E+05 -1.855137E+05 -4.057803E+05 -9.239894E+03
       314  26  2.665367E+06  1.275103E+05  4.290818E+05 -5.436106E+04 -2.600697E+05 -2.609703E+04
       314  27  2.676869E+06  1.451583E+05  3.180896E+05  3.139986E+04 -1.144085E+05 -2.423549E+04
       315   1  1.353160E+06 -1.059370E+05 -1.774243E+04 -1.858507E+04  9.680018E+04  2.003904E+04
       315   2  1.405673E+06 -1.409742E+05 -6.452270E+04 -7.439421E+03  6.420741E+04  1.868037E+04
       315   3  1.476224E+06 -1.222300E+05 -7.659022E+04 -3.818406E+04  3.161140E+04  1.614106E+04
       315   4  1.960971E+06  4.427243E+04  1.267536E+05 -3.146482E+04  9.645654E+04  2.003533E+04
       315   5  1.951945E+06 -6.001779E+03  6.509185E+04 -1.050138E+04  6.318097E+04  1.867822E+04
       315   6  1.961052E+06 -2.403999E+03  3.859126E+04 -3.142502E+04  2.990538E+04  1.613992E+04
       315   7  2.569121E+06  1.944560E+05  2.712239E+05 -4.435729E+04  9.611253E+04  2.003165E+04
       315   8  2.498490E+06  1.289493E+05  1.946857E+05 -1.356609E+04  6.215362E+04  1.867609E+04
       315   9  2.446096E+06  1.174053E+05  1.537564E+05 -2.466071E+04  2.819802E+04  1.613875E+04
       315  10  1.353150E+06 -1.059400E+05 -1.776076E+04 -1.858663E+04 -1.241821E-09 -8.748007E-10
       315  11  1.405669E+06 -1.409757E+05 -6.453109E+04 -7.440387E+03 -8.167224E-10 -6.245303E-13
       315  12  1.476223E+06 -1.222306E+05 -7.659258E+04 -3.818447E+04 -4.662395E-10 -3.508138E-10
       315  13  1.960961E+06  4.426951E+04  1.267354E+05 -3.146638E+04 -8.047622E-10 -4.539619E-10
       315  14  1.951940E+06 -6.003221E+03  6.508372E+04 -1.050233E+04 -1.886002E-09 -4.305993E-10
       315  15  1.961051E+06 -2.404518E+03  3.858910E+04 -3.142541E+04 -1.688154E-09 -4.953534E-10
       315  16  2.569111E+06  1.944531E+05  2.712058E+05 -4.435884E+04  8.380544E-10  1.257768E-10
       315  17  2.498485E+06  1.289478E+05  1.946778E+05 -1.356702E+04 -1.253816E-09 -1.092490E-09
       315  18  2.446095E+06  1.174049E+05  1.537544E+05 -2.466108E+04 -2.639311E-10 -2.576570E-10
       315  19  1.353160E+06 -1.059370E+05 -1.774243E+04 -1.858507E+04 -9.680018E+04 -2.003904E+04
       315  20  1.405673E+06 -1.409742E+05 -6.452270E+04 -7.439421E+03 -6.420741E+04 -1.868037E+04
       315  21  1.476224E+06 -1.222300E+05 -7.659022E+04 -3.818406E+04 -3.161140E+04 -1.614106E+04
       315  22  1.960971E+06  4.427243E+04  1.267536E+05 -3.146482E+04 -9.645654E+04 -2.003533E+04
       315  23  1.951945E+06 -6.001779E+03  6.509185E+04 -1.050138E+04 -6.318097E+04 -1.867822E+04
       315  24  1.961052E+06 -2.403999E+03  3.859126E+04 -3.142502E+04 -2.990538E+04 -1.613992E+04
       315  25  2.569121E+06  1.944560E+05  2.712239E+05 -4.435729E+04 -9.611253E+04 -2.003165E+04
       315  26  2.498490E+06  1.289493E+05  1.946857E+05 -1.356609E+04 -6.215362E+04 -1.867609E+04
       315  27  2.446096E+06  1.174053E+05  1.537564E+05 -2.466071E+04 -2.819802E+04 -1.613875E+04
       316   1  1.545386E+06 -9.762167E+04 -6.752192E+04 -3.017874E+04  2.514142E+04  1.448774E+04
       316   2  1.602356E+06 -8.812072E+04 -6.734404E+04 -1.107891E+04  1.683651E+04  1.207313E+04
       316   3  1.661859E+06 -7.332213E+04 -6.041721E+04 -3.165947E+04  8.529087E+03  9.618296E+03
       316   4  1.957595E+06  4.190746E+03  3.012605E+04 -3.094610E+04  2.382852E+04  1.448676E+04
       316   5  1.956339E+06 -6.656241E+02  1.663955E+04 -1.110634E+04  1.549626E+04  1.207260E+04
       316   6  1.957616E+06 -2.217878E+02  9.917355E+03 -3.094548E+04  7.162269E+03  9.618211E+03
       316   7  2.369959E+06  1.059910E+05  1.277622E+05 -3.171399E+04  2.251474E+04  1.448578E+04
       316   8  2.310438E+06  8.678048E+04  1.006144E+05 -1.113378E+04  1.415526E+04  1.207207E+04
       316   9  2.253454E+06  7.287227E+04  8.024582E+04 -3.023114E+04  5.794805E+03  9.618124E+03
       316  10  1.545385E+06 -9.762206E+04 -6.752350E+04 -3.017903E+04 -2.681627E-10  3.942199E-10
       316  11  1.602355E+06 -8.812095E+04 -6.734484E+04 -1.107908E+04 -5.926144E-10  3.524816E-10
       316  12  1.661859E+06 -7.332225E+04 -6.041752E+04 -3.165954E+04 -9.813693E-10  3.186547E-10
       316  13  1.957594E+06  4.190368E+03  3.012459E+04 -3.094638E+04 -9.525113E-10  2.881919E-11
       316  14  1.956339E+06 -6.658449E+02  1.663883E+04 -1.110649E+04  6.559255E-10  2.626560E-10
       316  15  1.957616E+06 -2.219010E+02  9.917085E+03 -3.094553E+04  6.416856E-10  2.389267E-10
       316  16  2.369959E+06  1.059906E+05  1.277609E+05 -3.171425E+04 -4.654633E-10 -1.764257E-10
       316  17  2.310438E+06  8.678027E+04  1.006138E+05 -1.113392E+04 -4.171145E-10  3.183484E-11
       316  18  2.253454E+06  7.287217E+04  8.024558E+04 -3.023118E+04  5.680098E-10  2.853977E-10
       316  19  1.545386E+06 -9.762167E+04 -6.752192E+04 -3.017874E+04 -2.514142E+04 -1.448774E+04
       316  20  1.602356E+06 -8.812072E+04 -6.734404E+04 -1.107891E+04 -1.683651E+04 -1.207313E+04
       316  21  1.661859E+06 -7.332213E+04 -6.041721E+04 -3.165947E+04 -8.529087E+03 -9.618296E+03
       316  22  1.957595E+06  4.190746E+03  3.012605E+04 -3.094610E+04 -2.382852E+04 -1.448676E+04
       316  23  1.956339E+06 -6.656241E+02  1.663955E+04 -1.110634E+04 -1.549626E+04 -1.207260E+04
       316  24  1.957616E+06 -2.217878E+02  9.917355E+03 -3.094548E+04 -7.162269E+03 -9.618211E+03
       316  25  2.369959E+06  1.059910E+05  1.277622E+05 -3.171399E+04 -2.251474E+04 -1.448578E+04
       316  26  2.310438E+06  8.678048E+04  1.006144E+05 -1.113378E+04 -1.415526E+04 -1.207207E+04
       316  27  2.253454E+06  7.287227E+04  8.024582E+04 -3.023114E+04 -5.794805E+03 -9.618124E+03
       317   1  1.730926E+06 -5.547897E+04 -4.570664E+04 -3.064493E+04  6.900857E+03  8.194329E+03
       317   2  1.787042E+06 -4.205168E+04 -3.535397E+04 -1.147585E+04  4.435329E+03  5.792110E+03
       317   3  1.843624E+06 -2.805439E+04 -2.325725E+04 -3.069479E+04  1.968786E+03  3.404952E+03
       317   4  1.957166E+06  3.766859E+02  7.792462E+03 -3.065857E+04  5.568808E+03  8.194444E+03
       317   5  1.956938E+06 -8.193457E+01  4.950053E+03 -1.146495E+04  3.110771E+03  5.792419E+03
       317   6  1.957173E+06  2.818006E+01  3.846149E+03 -3.065869E+04  6.519385E+02  3.405465E+03
       317   7  2.183452E+06  5.622868E+04  6.128803E+04 -3.067221E+04  4.236277E+03  8.194558E+03
       317   8  2.126861E+06  4.188574E+04  4.525208E+04 -1.145404E+04  1.785852E+03  5.792728E+03
       317   9  2.070733E+06  2.810982E+04  3.094865E+04 -3.062259E+04 -6.651483E+02  3.405978E+03
       317  10  1.730926E+06 -5.547905E+04 -4.570686E+04 -3.064498E+04 -4.830164E-11 -2.434018E-11
       317  11  1.787042E+06 -4.205172E+04 -3.535407E+04 -1.147587E+04 -1.907098E-09 -3.311879E-11
       317  12  1.843624E+06 -2.805440E+04 -2.325728E+04 -3.069479E+04 -1.006880E-09  4.299504E-10
       317  13  1.957166E+06  3.766054E+02  7.792277E+03 -3.065861E+04 -1.614714E-10  3.030474E-10
       317  14  1.956938E+06 -8.197322E+01  4.949972E+03 -1.146496E+04 -4.551997E-10 -5.253753E-10
       317  15  1.957173E+06  2.816749E+01  3.846126E+03 -3.065869E+04 -1.090093E-10 -7.994242E-11
       317  16  2.183452E+06  5.622860E+04  6.128787E+04 -3.067224E+04  1.064027E-09 -1.194012E-10
       317  17  2.126861E+06  4.188571E+04  4.525201E+04 -1.145404E+04 -2.529104E-10 -2.369287E-10
       317  18  2.070733E+06  2.810981E+04  3.094863E+04 -3.062259E+04  1.223716E-09 -4.705423E-10
       317  19  1.730926E+06 -5.547897E+04 -4.570664E+04 -3.064493E+04 -6.900857E+03 -8.194329E+03
       317  20  1.787042E+06 -4.205168E+04 -3.535397E+04 -1.147585E+04 -4.435329E+03 -5.792110E+03
       317  21  1.843624E+06 -2.805439E+04 -2.325725E+04 -3.069479E+04 -1.968786E+03 -3.404952E+03
       317  22  1.957166E+06  3.766859E+02  7.792462E+03 -3.065857E+04 -5.568808E+03 -8.194444E+03
       317  23  1.956938E+06 -8.193457E+01  4.950053E+03 -1.146495E+04 -3.110771E+03 -5.792419E+03
       317  24  1.957173E+06  2.818006E+01  3.846149E+03 -3.065869E+04 -6.519385E+02 -3.405465E+03
       317  25  2.183452E+06  5.622868E+04  6.128803E+04 -3.067221E+04 -4.236277E+03 -8.194558E+03
       317  26  2.126861E+06  4.188574E+04  4.525208E+04 -1.145404E+04 -1.785852E+03 -5.792728E+03
       317  27  2.070733E+06  2.810982E+04  3.094865E+04 -3.062259E+04  6.651483E+02 -3.405978E+03
       318   1  1.911637E+06 -1.117501E+04 -6.888288E+03 -3.050933E+04  1.278182E+03  2.022201E+03
       318   2  1.967229E+06  2.473109E+03  6.818757E+03 -1.154668E+04 -9.008846E+02 -3.494425E+02
       318   3  2.023192E+06  1.661021E+04  2.205461E+04 -3.057850E+04 -3.080067E+03 -2.718198E+03
       318   4  1.957155E+06  3.469096E+01  3.739798E+03 -3.057140E+04 -3.533784E+01  2.022777E+03
       318   5  1.956970E+06 -6.098188E+01  4.385228E+03 -1.157407E+04 -2.212852E+03 -3.488852E+02
       318   6  1.957153E+06  3.325017E+02  6.558825E+03 -3.057126E+04 -4.390288E+03 -2.717648E+03
       318   7  2.002675E+06  1.124425E+04  1.436775E+04 -3.063347E+04 -1.348953E+03  2.023353E+03
       318   8  1.946711E+06 -2.595079E+03  1.951698E+03 -1.160146E+04 -3.524797E+03 -3.483277E+02
       318   9  1.891118E+06 -1.594551E+04 -8.937247E+03 -3.056401E+04 -5.700371E+03 -2.717098E+03
       318  10  1.911637E+06 -1.117502E+04 -6.888299E+03 -3.050933E+04  4.610984E-10 -9.898930E-12
       318  11  1.967229E+06  2.473108E+03  6.818755E+03 -1.154668E+04  8.968204E-10 -5.606612E-10
       318  12  2.023192E+06  1.661020E+04  2.205457E+04 -3.057851E+04 -1.231418E-09  1.825326E-10
       318  13  1.957155E+06  3.468657E+01  3.739790E+03 -3.057140E+04 -3.091607E-10  7.026310E-10
       318  14  1.956970E+06 -6.098332E+01  4.385218E+03 -1.157407E+04 -1.514919E-09  3.504383E-10
       318  15  1.957153E+06  3.324886E+02  6.558775E+03 -3.057127E+04 -4.475130E-10 -4.041333E-10
       318  16  2.002675E+06  1.124424E+04  1.436774E+04 -3.063347E+04 -3.565295E-10 -5.461770E-11
       318  17  1.946711E+06 -2.595082E+03  1.951675E+03 -1.160146E+04 -1.018529E-09  3.327185E-10
       318  18  1.891118E+06 -1.594553E+04 -8.937322E+03 -3.056403E+04  7.272690E-10 -2.353057E-11
       318  19  1.911637E+06 -1.117501E+04 -6.888288E+03 -3.050933E+04 -1.278182E+03 -2.022201E+03
       318  20  1.967229E+06  2.473109E+03  6.818757E+03 -1.154668E+04  9.008846E+02  3.494425E+02
       318  21  2.023192E+06  1.661021E+04  2.205461E+04 -3.057850E+04  3.080067E+03  2.718198E+03
       318  22  1.957155E+06  3.469096E+01  3.739798E+03 -3.057140E+04  3.533784E+01 -2.022777E+03
       318  23  1.956970E+06 -6.098188E+01  4.385228E+03 -1.157407E+04  2.212852E+03  3.488852E+02
       318  24  1.957153E+06  3.325017E+02  6.558825E+03 -3.057126E+04  4.390288E+03  2.717648E+03
       318  25  2.002675E+06  1.124425E+04  1.436775E+04 -3.063347E+04  1.348953E+03 -2.023353E+03
       318  26  1.946711E+06 -2.595079E+03  1.951698E+03 -1.160146E+04  3.524797E+03  3.483277E+02
       318  27  1.891118E+06 -1.594551E+04 -8.937247E+03 -3.056401E+04  5.700371E+03  2.717098E+03
       319   1  2.091681E+06  3.301239E+04  4.023241E+04 -3.011315E+04 -4.388977E+03 -4.110217E+03
       319   2  2.147191E+06  4.657256E+04  5.889917E+04 -1.151775E+04 -1.126230E+04 -6.497988E+03
       319   3  2.204693E+06  6.448249E+04  8.311796E+04 -3.140592E+04 -1.813550E+04 -8.843300E+03
       319   4  1.957509E+06 -1.590036E+02  8.242885E+03 -3.068045E+04 -5.722536E+03 -4.109734E+03
       319   5  1.956509E+06 -5.219019E+02  1.367419E+04 -1.143788E+04 -1.257053E+04 -6.497751E+03
       319   6  1.957494E+06  3.461563E+03  2.464145E+04 -3.067955E+04 -1.941778E+04 -8.843305E+03
       319   7  1.823353E+06 -3.333169E+04 -2.374789E+04 -3.124763E+04 -7.055808E+03 -4.109248E+03
       319   8  1.765860E+06 -4.761896E+04 -3.155332E+04 -1.135803E+04 -1.387836E+04 -6.497513E+03
       319   9  1.710350E+06 -5.756373E+04 -3.383930E+04 -2.995346E+04 -2.069956E+04 -8.843313E+03
       319  10  2.091681E+06  3.301236E+04  4.023234E+04 -3.011317E+04 -3.793023E-11  4.924687E-10
       319  11  2.147191E+06  4.657248E+04  5.889886E+04 -1.151781E+04 -3.847481E-10 -5.098620E-10
       319  12  2.204693E+06  6.448232E+04  8.311720E+04 -3.140605E+04 -1.750493E-09  4.739432E-10
       319  13  1.957509E+06 -1.590305E+02  8.242791E+03 -3.068047E+04  1.126493E-09 -8.611730E-11
       319  14  1.956509E+06 -5.219895E+02  1.367381E+04 -1.143794E+04 -2.887053E-10 -7.518678E-10
       319  15  1.957493E+06  3.461378E+03  2.464059E+04 -3.067969E+04 -7.166597E-11  4.337363E-10
       319  16  1.823353E+06 -3.333172E+04 -2.374802E+04 -3.124765E+04 -5.603728E-10  1.694173E-10
       319  17  1.765860E+06 -4.761906E+04 -3.155376E+04 -1.135810E+04 -3.280695E-11 -6.286420E-10
       319  18  1.710349E+06 -5.756393E+04 -3.384025E+04 -2.995361E+04  1.420261E-09  2.728484E-10
       319  19  2.091681E+06  3.301239E+04  4.023241E+04 -3.011315E+04  4.388977E+03  4.110217E+03
       319  20  2.147191E+06  4.657256E+04  5.889917E+04 -1.151775E+04  1.126230E+04  6.497988E+03
       319  21  2.204693E+06  6.448249E+04  8.311796E+04 -3.140592E+04  1.813550E+04  8.843300E+03
       319  22  1.957509E+06 -1.590036E+02  8.242885E+03 -3.068045E+04  5.722536E+03  4.109734E+03
       319  23  1.956509E+06 -5.219019E+02  1.367419E+04 -1.143788E+04  1.257053E+04  6.497751E+03
       319  24  1.957494E+06  3.461563E+03  2.464145E+04 -3.067955E+04  1.941778E+04  8.843305E+03
       319  25  1.823353E+06 -3.333169E+04 -2.374789E+04 -3.124763E+04  7.055808E+03  4.109248E+03
       319  26  1.765860E+06 -4.761896E+04 -3.155332E+04 -1.135803E+04  1.387836E+04  6.497513E+03
       319  27  1.710350E+06 -5.756373E+04 -3.383930E+04 -2.995346E+04  2.069956E+04  8.843313E+03
       320   1  2.277335E+06  7.639594E+04  1.068682E+05 -2.559969E+04 -2.279892E+04 -1.039638E+04
       320   2  2.328504E+06  8.787729E+04  1.422263E+05 -1.375986E+04 -5.050826E+04 -1.281224E+04
       320   3  2.394425E+06  1.434390E+05  2.066265E+05 -4.178410E+04 -7.821937E+04 -1.429686E+04
       320   4  1.960308E+06 -1.924853E+03  3.153717E+04 -3.098472E+04 -2.438581E+04 -1.039637E+04
       320   5  1.952941E+06 -4.867687E+03  5.316523E+04 -1.105663E+04 -5.156525E+04 -1.281310E+04
       320   6  1.960243E+06  3.619358E+04  1.034820E+05 -3.099339E+04 -7.874388E+04 -1.429905E+04
       320   7  1.643373E+06 -8.025275E+04 -4.380082E+04 -3.636700E+04 -2.597190E+04 -1.039633E+04
       320   8  1.577508E+06 -9.762274E+04 -3.590566E+04 -8.355040E+03 -5.262159E+04 -1.281397E+04
       320   9  1.526234E+06 -7.106489E+04  3.243971E+02 -2.021025E+04 -7.926800E+04 -1.430125E+04
       320  10  2.277334E+06  7.639569E+04  1.068670E+05 -2.559988E+04  5.127875E-10  5.485405E-10
       320  11  2.328501E+06  8.787643E+04  1.422212E+05 -1.376038E+04 -1.762003E-09 -4.367130E-10
       320  12  2.394418E+06  1.434371E+05  2.066147E+05 -4.178500E+04 -1.075295E-09 -3.960816E-10
       320  13  1.960307E+06 -1.925128E+03  3.153585E+04 -3.098493E+04  5.313016E-10  5.045744E-10
       320  14  1.952938E+06 -4.868574E+03  5.315994E+04 -1.105716E+04 -1.535231E-09 -1.772211E-10
       320  15  1.960236E+06  3.619170E+04  1.034700E+05 -3.099429E+04 -6.932472E-10 -3.352463E-10
       320  16  1.643372E+06 -8.025305E+04 -4.380228E+04 -3.636722E+04 -4.405859E-10  3.345911E-10
       320  17  1.577505E+06 -9.762366E+04 -3.591116E+04 -8.355583E+03  1.137865E-09 -9.219952E-11
       320  18  1.526227E+06 -7.106679E+04  3.122336E+02 -2.021116E+04  4.654738E-10  4.311364E-10
       320  19  2.277335E+06  7.639594E+04  1.068682E+05 -2.559969E+04  2.279892E+04  1.039638E+04
       320  20  2.328504E+06  8.787729E+04  1.422263E+05 -1.375986E+04  5.050826E+04  1.281224E+04
       320  21  2.394425E+06  1.434390E+05  2.066265E+05 -4.178410E+04  7.821937E+04  1.429686E+04
       320  22  1.960308E+06 -1.924853E+03  3.153717E+04 -3.098472E+04  2.438581E+04  1.039637E+04
       320  23  1.952941E+06 -4.867687E+03  5.316523E+04 -1.105663E+04  5.156525E+04  1.281310E+04
       320  24  1.960243E+06  3.619358E+04  1.034820E+05 -3.099339E+04  7.874388E+04  1.429905E+04
       320  25  1.643373E+06 -8.025275E+04 -4.380082E+04 -3.636700E+04  2.597190E+04  1.039633E+04
       320  26  1.577508E+06 -9.762274E+04 -3.590566E+04 -8.355040E+03  5.262159E+04  1.281397E+04
       320  27  1.526234E+06 -7.106489E+04  3.243971E+02 -2.021025E+04  7.926800E+04  1.430125E+04
       321   1  2.492355E+06  1.055676E+05  2.473106E+05  2.000015E+04 -9.336357E+04 -1.781844E+04
       321   2  2.490845E+06  9.323334E+04  3.397506E+05 -4.734982E+04 -2.118872E+05 -1.961888E+04
       321   3  2.616559E+06  5.272159E+05  6.208110E+05 -1.568762E+05 -3.304340E+05 -6.809639E+03
       321   4  1.985029E+06 -1.973348E+04  1.271784E+05 -3.139249E+04 -9.831604E+04 -1.781397E+04
       321   5  1.921888E+06 -4.718732E+04  2.048846E+05 -1.049894E+04 -2.086788E+05 -1.963020E+04
       321   6  1.984662E+06  3.704549E+05  4.656753E+05 -3.176731E+04 -3.190512E+05 -6.864424E+03
       321   7  1.477944E+06 -1.450431E+05  7.029931E+03 -8.274308E+04 -1.032645E+05 -1.780869E+04
       321   8  1.353230E+06 -1.876260E+05  6.999699E+04  2.631806E+04 -2.054733E+05 -1.964115E+04
       321   9  1.353162E+06  2.137232E+05  3.105191E+05  9.321448E+04 -3.076798E+05 -6.914691E+03
       321  10  2.492346E+06  1.055650E+05  2.472937E+05  1.999881E+04 -2.422139E-10 -6.708435E-10
       321  11  2.490797E+06  9.322093E+04  3.396658E+05 -4.735317E+04  1.889217E-10 -3.417108E-10
       321  12  2.616442E+06  5.271867E+05  6.206066E+05 -1.568780E+05  9.892972E-10  4.537870E-10
       321  13  1.985019E+06 -1.973641E+04  1.271597E+05 -3.139390E+04 -2.720625E-09 -1.023356E-09
       321  14  1.921841E+06 -4.719938E+04  2.048023E+05 -1.050224E+04 -1.061003E-09 -1.144419E-10
       321  15  1.984553E+06  3.704276E+05  4.654845E+05 -3.176907E+04  4.946575E-10 -5.095711E-10
       321  16  1.477933E+06 -1.450463E+05  7.009343E+03 -8.274456E+04 -8.211615E-10 -1.683380E-10
       321  17  1.353184E+06 -1.876378E+05  6.991710E+04  2.631482E+04 -1.964353E-09 -6.621414E-10
       321  18  1.353060E+06  2.136978E+05  3.103415E+05  9.321277E+04  4.575201E-10  8.721306E-10
       321  19  2.492355E+06  1.055676E+05  2.473106E+05  2.000015E+04  9.336357E+04  1.781844E+04
       321  20  2.490845E+06  9.323334E+04  3.397506E+05 -4.734982E+04  2.118872E+05  1.961888E+04
       321  21  2.616559E+06  5.272159E+05  6.208110E+05 -1.568762E+05  3.304340E+05  6.809639E+03
       321  22  1.985029E+06 -1.973348E+04  1.271784E+05 -3.139249E+04  9.831604E+04  1.781397E+04
       321  23  1.921888E+06 -4.718732E+04  2.048846E+05 -1.049894E+04  2.086788E+05  1.963020E+04
       321  24  1.984662E+06  3.704549E+05  4.656753E+05 -3.176731E+04  3.190512E+05  6.864424E+03
       321  25  1.477944E+06 -1.450431E+05  7.029931E+03 -8.274308E+04  1.032645E+05  1.780869E+04
       321  26  1.353230E+06 -1.876260E+05  6.999699E+04  2.631806E+04  2.054733E+05  1.964115E+04
       321  27  1.353162E+06  2.137232E+05  3.105191E+05  9.321448E+04  3.076798E+05  6.914691E+03
       322   1  1.473156E+05  2.578105E+05  2.039776E+05 -9.676450E+04 -3.648751E+03  1.747409E+05
       322   2 -1.059731E+05  1.774834E+05  4.775263E+04 -3.057880E+04 -1.109258E+04  1.116054E+05
       322   3 -9.937956E+04  1.702936E+05 -2.414323E+03  5.817552E+03 -1.309494E+04  4.848455E+04
       322   4  2.150915E+05  5.316050E+05  2.711481E+05 -2.415684E+04 -3.640670E+03  1.805003E+05
       322   5 -2.755691E+04  4.948103E+05  1.231264E+05 -9.499719E+03 -1.109377E+04  1.143297E+05
       322   6 -9.873556E+03  5.316451E+05  8.323865E+04 -2.462473E+04 -1.309620E+04  4.816968E+04
       322   7  2.828818E+05  8.054792E+05  3.383162E+05  4.848290E+04 -3.631248E+03  1.862622E+05
       322   8  5.085376E+04  8.122306E+05  1.984934E+05  1.159023E+04 -1.109478E+04  1.170552E+05
       322   9  7.962650E+04  8.931185E+05  1.688830E+05 -5.508476E+04 -1.309742E+04  4.785463E+04
       322  10  1.473073E+05  2.577777E+05  2.039202E+05 -9.676399E+04 -2.813461E-10 -1.756789E-09
       322  11 -1.059766E+05  1.774700E+05  4.772900E+04 -3.057780E+04 -1.254132E-09 -5.944134E-10
       322  12 -9.938038E+04  1.702910E+05 -2.419061E+03  5.818063E+03  4.452955E-10  6.821918E-10
       322  13  2.150827E+05  5.315700E+05  2.710869E+05 -2.415631E+04  3.891228E-10  1.919580E-10
       322  14 -2.756055E+04  4.947962E+05  1.231016E+05 -9.498698E+03 -6.204815E-10 -1.125970E-09
       322  15 -9.874363E+03  5.316426E+05  8.323397E+04 -2.462422E+04 -1.350459E-10  4.592943E-11
       322  16  2.828724E+05  8.054420E+05  3.382510E+05  4.848344E+04 -3.406460E-10  2.950404E-11
       322  17  5.084996E+04  8.122158E+05  1.984674E+05  1.159127E+04  2.482233E-10 -2.228269E-09
       322  18  7.962571E+04  8.931160E+05  1.688784E+05 -5.508425E+04  4.556861E-10 -2.098108E-09
       322  19  1.473156E+05  2.578105E+05  2.039776E+05 -9.676450E+04  3.648751E+03 -1.747409E+05
       322  20 -1.059731E+05  1.774834E+05  4.775263E+04 -3.057880E+04  1.109258E+04 -1.116054E+05
       322  21 -9.937956E+04  1.702936E+05 -2.414323E+03  5.817552E+03  1.309494E+04 -4.848455E+04
       322  22  2.150915E+05  5.316050E+05  2.711481E+05 -2.415684E+04  3.640670E+03 -1.805003E+05
       322  23 -2.755691E+04  4.948103E+05  1.231264E+05 -9.499719E+03  1.109377E+04 -1.143297E+05
       322  24 -9.873556E+03  5.316451E+05  8.323865E+04 -2.462473E+04  1.309620E+04 -4.816968E+04
       322  25  2.828818E+05  8.054792E+05  3.383162E+05  4.848290E+04  3.631248E+03 -1.862622E+05
       322  26  5.085376E+04  8.122306E+05  1.984934E+05  1.159023E+04  1.109478E+04 -1.170552E+05
       322  27  7.962650E+04  8.931185E+05  1.688830E+05 -5.508476E+04  1.309742E+04 -4.785463E+04
       323   1 -8.255607E+04  1.029527E+05 -2.641558E+04 -3.272452E+04 -1.356188E+04  3.327731E+04
       323   2 -1.188005E+05  5.089038E+04 -5.670639E+04 -9.311622E+03 -1.573972E+04  7.093774E+03
       323   3 -1.106607E+05  1.342689E+04 -5.883601E+04 -1.638267E+04 -1.658235E+04 -1.908438E+04
       323   4  2.029735E+04  5.185303E+05  7.258181E+04 -2.462539E+04 -1.356358E+04  3.489012E+04
       323   5 -4.895478E+03  5.111680E+05  5.267400E+04 -9.391187E+03 -1.574017E+04  7.952633E+03
       323   6  1.440895E+04  5.185235E+05  6.143777E+04 -2.463896E+04 -1.658134E+04 -1.898133E+04
       323   7  1.231386E+05  9.342664E+05  1.715671E+05 -1.652075E+04 -1.356523E+04  3.650400E+04
       323   8  1.089943E+05  9.716399E+05  1.620396E+05 -9.470741E+03 -1.574063E+04  8.812125E+03
       323   9  1.394604E+05  1.023854E+06  1.816937E+05 -3.290192E+04 -1.658033E+04 -1.887818E+04
       323  10 -8.255657E+04  1.029515E+05 -2.641801E+04 -3.272416E+04 -7.855557E-11 -1.179439E-09
       323  11 -1.188008E+05  5.089026E+04 -5.670695E+04 -9.311532E+03  1.159058E-10 -8.791352E-10
       323  12 -1.106611E+05  1.342643E+04 -5.883721E+04 -1.638293E+04 -7.297041E-10  3.157037E-10
       323  13  2.029683E+04  5.185290E+05  7.257917E+04 -2.462501E+04  2.237048E-10  1.371308E-10
       323  14 -4.895761E+03  5.111678E+05  5.267342E+04 -9.391087E+03  1.004612E-09 -7.614161E-10
       323  15  1.440855E+04  5.185230E+05  6.143657E+04 -2.463921E+04  5.336327E-10 -1.644242E-10
       323  16  1.231380E+05  9.342649E+05  1.715643E+05 -1.652035E+04  7.184661E-10 -1.440778E-10
       323  17  1.089940E+05  9.716398E+05  1.620390E+05 -9.470629E+03 -1.630169E-09 -1.199848E-09
       323  18  1.394601E+05  1.023854E+06  1.816925E+05 -3.290217E+04 -3.958761E-10 -1.060601E-09
       323  19 -8.255607E+04  1.029527E+05 -2.641558E+04 -3.272452E+04  1.356188E+04 -3.327731E+04
       323  20 -1.188005E+05  5.089038E+04 -5.670639E+04 -9.311622E+03  1.573972E+04 -7.093774E+03
       323  21 -1.106607E+05  1.342689E+04 -5.883601E+04 -1.638267E+04  1.658235E+04  1.908438E+04
       323  22  2.029735E+04  5.185303E+05  7.258181E+04 -2.462539E+04  1.356358E+04 -3.489012E+04
       323  23 -4.895478E+03  5.111680E+05  5.267400E+04 -9.391187E+03  1.574017E+04 -7.952633E+03
       323  24  1.440895E+04  5.185235E+05  6.143777E+04 -2.463896E+04  1.658134E+04  1.898133E+04
       323  25  1.231386E+05  9.342664E+05  1.715671E+05 -1.652075E+04  1.356523E+04 -3.650400E+04
       323  26  1.089943E+05  9.716399E+05  1.620396E+05 -9.470741E+03  1.574063E+04 -8.812125E+03
       323  27  1.394604E+05  1.023854E+06  1.816937E+05 -3.290192E+04  1.658033E+04  1.887818E+04
       324   1 -1.449839E+05 -3.294282E+04 -6.561386E+04 -4.654135E+04 -1.968700E+04 -3.470201E+04
       324   2 -1.704371E+05 -1.056999E+05 -5.050294E+04  6.894704E+03 -2.072652E+04 -7.651689E+04
       324   3 -4.182283E+03 -1.247715E+05  3.983683E+04  2.955637E+04 -6.828843E+03 -1.183202E+05
       324   4 -6.387082E+03  5.274821E+05  6.735352E+04 -2.473629E+04 -1.969192E+04 -3.000248E+04
       324   5 -2.052442E+04  4.999257E+05  9.340767E+04 -9.309479E+03 -2.072073E+04 -8.010599E+04
       324   6  1.583791E+05  5.274345E+05  2.003916E+05 -2.465395E+04 -6.813672E+03 -1.302017E+05
       324   7  1.321890E+05  1.088196E+06  2.002994E+05 -2.911362E+03 -1.969651E+04 -2.529872E+04
       324   8  1.293629E+05  1.105889E+06  2.372929E+05 -2.552949E+04 -2.071476E+04 -8.369856E+04
       324   9  3.209199E+05  1.180034E+06  3.609171E+05 -7.892127E+04 -6.796438E+03 -1.420955E+05
       324  10 -1.449846E+05 -3.294422E+04 -6.561685E+04 -4.654190E+04 -3.611296E-10 -4.169283E-10
       324  11 -1.704392E+05 -1.057063E+05 -5.051475E+04  6.893426E+03  8.572442E-11 -4.144134E-10
       324  12 -4.186092E+03 -1.247865E+05  3.981043E+04  2.955572E+04  7.348575E-12  6.871986E-11
       324  13 -6.387740E+03  5.274810E+05  6.735110E+04 -2.473676E+04 -4.490597E-10  9.592270E-11
       324  14 -2.052661E+04  4.999187E+05  9.339481E+04 -9.310816E+03  2.027140E-10 -4.348593E-10
       324  15  1.583745E+05  5.274163E+05  2.003597E+05 -2.465466E+04 -1.425348E-11  3.204510E-11
       324  16  1.321884E+05  1.088196E+06  2.002974E+05 -2.911764E+03  3.791692E-10 -1.262881E-10
       324  17  1.293605E+05  1.105881E+06  2.372789E+05 -2.553088E+04 -1.520291E-10 -5.780499E-10
       324  18  3.209145E+05  1.180012E+06  3.608792E+05 -7.892205E+04 -3.789648E-10 -3.160648E-10
       324  19 -1.449839E+05 -3.294282E+04 -6.561386E+04 -4.654135E+04  1.968700E+04  3.470201E+04
       324  20 -1.704371E+05 -1.056999E+05 -5.050294E+04  6.894704E+03  2.072652E+04  7.651689E+04
       324  21 -4.182283E+03 -1.247715E+05  3.983683E+04  2.955637E+04  6.828843E+03  1.183202E+05
       324  22 -6.387082E+03  5.274821E+05  6.735352E+04 -2.473629E+04  1.969192E+04  3.000248E+04
       324  23 -2.052442E+04  4.999257E+05  9.340767E+04 -9.309479E+03  2.072073E+04  8.010599E+04
       324  24  1.583791E+05  5.274345E+05  2.003916E+05 -2.465395E+04  6.813672E+03  1.302017E+05
       324  25  1.321890E+05  1.088196E+06  2.002994E+05 -2.911362E+03  1.969651E+04  2.529872E+04
       324  26  1.293629E+05  1.105889E+06  2.372929E+05 -2.552949E+04  2.071476E+04  8.369856E+04
       324  27  3.209199E+05  1.180034E+06  3.609171E+05 -7.892127E+04  6.796438E+03  1.420955E+05
       325   1 -2.886420E+06 -1.077690E+06 -5.781222E+05 -1.100196E+06 -2.764486E+05 -8.182945E+04
       325   2 -2.818697E+06 -8.245227E+05 -3.630605E+05 -1.068593E+06 -1.774678E+05  8.471363E+03
       325   3 -2.804041E+06 -7.126666E+05 -2.702361E+05 -1.019760E+06 -6.615968E+04  6.621135E+04
       325   4 -1.698481E+06 -5.019706E+05 -2.487657E+05 -6.423294E+05 -1.686004E+05 -4.121684E+04
       325   5 -1.663870E+06 -3.412961E+05 -1.160937E+05 -6.869285E+05 -1.256685E+05  2.796708E+04
       325   6 -1.671078E+06 -3.106612E+05 -6.098517E+04 -7.143316E+05 -7.043623E+04  6.458433E+04
       325   7 -5.091147E+05  7.413549E+04  8.050567E+04 -1.835762E+05 -6.052883E+04 -4.634022E+02
       325   8 -5.076513E+05  1.421613E+05  1.308094E+05 -3.045651E+05 -7.376558E+04  4.751438E+04
       325   9 -5.367498E+05  9.145397E+04  1.482219E+05 -4.083843E+05 -7.472118E+04  6.295435E+04
       325  10 -2.886504E+06 -1.077718E+06 -5.782792E+05 -1.100214E+06  2.134730E-09  5.085553E-10
       325  11 -2.818731E+06 -8.245313E+05 -3.631200E+05 -1.068591E+06  6.919458E-10 -1.852467E-09
       325  12 -2.804047E+06 -7.126725E+05 -2.702526E+05 -1.019757E+06 -4.597682E-10 -1.324759E-09
       325  13 -1.698512E+06 -5.019801E+05 -2.488225E+05 -6.423350E+05  1.194720E-09  1.612512E-09
       325  14 -1.663887E+06 -3.413012E+05 -1.161249E+05 -6.869257E+05  1.161597E-09 -2.656511E-09
       325  15 -1.671084E+06 -3.106670E+05 -6.100232E+04 -7.143279E+05 -4.296219E-10  2.821751E-10
       325  16 -5.091186E+05  7.413450E+04  8.049878E+04 -1.835763E+05 -1.671315E-09 -6.809716E-10
       325  17 -5.076577E+05  1.421574E+05  1.307949E+05 -3.045623E+05  4.690622E-10 -1.060034E-09
       325  18 -5.367568E+05  9.144822E+04  1.482039E+05 -4.083805E+05  1.655923E-09  2.172364E-10
       325  19 -2.886420E+06 -1.077690E+06 -5.781222E+05 -1.100196E+06  2.764486E+05  8.182945E+04
       325  20 -2.818697E+06 -8.245227E+05 -3.630605E+05 -1.068593E+06  1.774678E+05 -8.471363E+03
       325  21 -2.804041E+06 -7.126666E+05 -2.702361E+05 -1.019760E+06  6.615968E+04 -6.621135E+04
       325  22 -1.698481E+06 -5.019706E+05 -2.487657E+05 -6.423294E+05  1.686004E+05  4.121684E+04
       325  23 -1.663870E+06 -3.412961E+05 -1.160937E+05 -6.869285E+05  1.256685E+05 -2.796708E+04
       325  24 -1.671078E+06 -3.106612E+05 -6.098517E+04 -7.143316E+05  7.043623E+04 -6.458433E+04
       325  25 -5.091147E+05  7.413549E+04  8.050567E+04 -1.835762E+05  6.052883E+04  4.634022E+02
       325  26 -5.076513E+05  1.421613E+05  1.308094E+05 -3.045651E+05  7.376558E+04 -4.751438E+04
       325  27 -5.367498E+05  9.145397E+04  1.482219E+05 -4.083843E+05  7.472118E+04 -6.295435E+04
       326   1 -2.734023E+06 -7.055447E+05 -2.433664E+05 -1.014362E+06 -6.240429E+04  6.530876E+04
       326   2 -2.661359E+06 -6.597754E+05 -2.020553E+05 -9.857319E+05 -4.465565E+04  7.010198E+04
       326   3 -2.581118E+06 -6.340896E+05 -1.754944E+05 -9.701101E+05 -2.581640E+04  7.199590E+04
       326   4 -1.663591E+06 -3.121753E+05 -4.588626E+04 -7.111677E+05 -6.279702E+04  6.514490E+04
       326   5 -1.667164E+06 -2.978738E+05 -2.413503E+04 -7.064373E+05 -5.002341E+04  6.806729E+04
       326   6 -1.662168E+06 -3.026566E+05 -1.316238E+04 -7.147157E+05 -3.616253E+04  6.809194E+04
       326   7 -5.919507E+05  8.130919E+04  1.515511E+05 -4.074818E+05 -6.319045E+04  6.498080E+04
       326   8 -6.719264E+05  6.412338E+04  1.537509E+05 -4.267240E+05 -5.540033E+04  6.602914E+04
       326   9 -7.423321E+05  2.885321E+04  1.491405E+05 -4.589698E+05 -4.652495E+04  6.418192E+04
       326  10 -2.734028E+06 -7.055504E+05 -2.433818E+05 -1.014359E+06 -3.501301E-11  1.979487E-10
       326  11 -2.661363E+06 -6.597812E+05 -2.020683E+05 -9.857294E+05  2.764755E-10  1.171807E-09
       326  12 -2.581120E+06 -6.340953E+05 -1.755054E+05 -9.701086E+05  9.914627E-10  9.636115E-10
       326  13 -1.663596E+06 -3.121809E+05 -4.590164E+04 -7.111644E+05  1.225993E-09 -1.356080E-09
       326  14 -1.667168E+06 -2.978795E+05 -2.414843E+04 -7.064345E+05 -1.307674E-09 -3.805788E-10
       326  15 -1.662171E+06 -3.026619E+05 -1.317354E+04 -7.147137E+05 -5.261161E-10 -2.292459E-10
       326  16 -5.919561E+05  8.130359E+04  1.515357E+05 -4.074785E+05 -3.993849E-10 -7.668819E-12
       326  17 -6.719308E+05  6.411788E+04  1.537369E+05 -4.267210E+05  2.528479E-10 -4.479074E-10
       326  18 -7.423355E+05  2.884821E+04  1.491287E+05 -4.589674E+05 -1.240075E-09 -7.119944E-10
       326  19 -2.734023E+06 -7.055447E+05 -2.433664E+05 -1.014362E+06  6.240429E+04 -6.530876E+04
       326  20 -2.661359E+06 -6.597754E+05 -2.020553E+05 -9.857319E+05  4.465565E+04 -7.010198E+04
       326  21 -2.581118E+06 -6.340896E+05 -1.754944E+05 -9.701101E+05  2.581640E+04 -7.199590E+04
       326  22 -1.663591E+06 -3.121753E+05 -4.588626E+04 -7.111677E+05  6.279702E+04 -6.514490E+04
       326  23 -1.667164E+06 -2.978738E+05 -2.413503E+04 -7.064373E+05  5.002341E+04 -6.806729E+04
       326  24 -1.662168E+06 -3.026566E+05 -1.316238E+04 -7.147157E+05  3.616253E+04 -6.809194E+04
       326  25 -5.919507E+05  8.130919E+04  1.515511E+05 -4.074818E+05  6.319045E+04 -6.498080E+04
       326  26 -6.719264E+05  6.412338E+04  1.537509E+05 -4.267240E+05  5.540033E+04 -6.602914E+04
       326  27 -7.423321E+05  2.885321E+04  1.491405E+05 -4.589698E+05  4.652495E+04 -6.418192E+04
       327   1 -2.528940E+06 -6.163432E+05 -1.626734E+05 -9.564407E+05 -2.297481E+04  6.901320E+04
       327   2 -2.456421E+06 -5.811109E+05 -1.440751E+05 -9.272812E+05 -1.755537E+04  6.425459E+04
       327   3 -2.371658E+06 -5.590585E+05 -1.279333E+05 -9.126742E+05 -1.203628E+04  5.922080E+04
       327   4 -1.661528E+06 -3.027989E+05 -9.886963E+03 -7.144978E+05 -3.300819E+04  6.522932E+04
       327   5 -1.667642E+06 -2.960753E+05 -5.429821E+03 -7.072777E+05 -2.805913E+04  6.029753E+04
       327   6 -1.661428E+06 -3.024377E+05 -3.054580E+03 -7.146117E+05 -2.301096E+04  5.509060E+04
       327   7 -7.933095E+05  1.082175E+04  1.428787E+05 -4.722353E+05 -4.305665E+04  6.143980E+04
       327   8 -8.781990E+05 -1.097776E+04  1.331977E+05 -4.870109E+05 -3.857722E+04  5.633511E+04
       327   9 -9.506622E+05 -4.576789E+04  1.218090E+05 -5.163366E+05 -3.399906E+04  5.095538E+04
       327  10 -2.528941E+06 -6.163484E+05 -1.626833E+05 -9.564394E+05  1.619206E-09  3.511234E-10
       327  11 -2.456422E+06 -5.811154E+05 -1.440834E+05 -9.272803E+05  1.320223E-09 -4.817898E-10
       327  12 -2.371660E+06 -5.590623E+05 -1.279402E+05 -9.126736E+05  3.661687E-10 -2.811476E-10
       327  13 -1.661531E+06 -3.028037E+05 -9.896997E+03 -7.144960E+05  8.197904E-10 -1.055297E-09
       327  14 -1.667644E+06 -2.960794E+05 -5.438125E+03 -7.072764E+05 -2.407351E-10 -3.880419E-10
       327  15 -1.661430E+06 -3.024411E+05 -3.061272E+03 -7.146107E+05 -7.476085E-10  3.384064E-10
       327  16 -7.933125E+05  1.081720E+04  1.428682E+05 -4.722332E+05 -7.825688E-10 -6.522851E-10
       327  17 -8.782014E+05 -1.098157E+04  1.331889E+05 -4.870092E+05 -1.447013E-09  3.488781E-10
       327  18 -9.506641E+05 -4.577099E+04  1.218019E+05 -5.163352E+05  1.470536E-10  9.446774E-11
       327  19 -2.528940E+06 -6.163432E+05 -1.626734E+05 -9.564407E+05  2.297481E+04 -6.901320E+04
       327  20 -2.456421E+06 -5.811109E+05 -1.440751E+05 -9.272812E+05  1.755537E+04 -6.425459E+04
       327  21 -2.371658E+06 -5.590585E+05 -1.279333E+05 -9.126742E+05  1.203628E+04 -5.922080E+04
       327  22 -1.661528E+06 -3.027989E+05 -9.886963E+03 -7.144978E+05  3.300819E+04 -6.522932E+04
       327  23 -1.667642E+06 -2.960753E+05 -5.429821E+03 -7.072777E+05  2.805913E+04 -6.029753E+04
       327  24 -1.661428E+06 -3.024377E+05 -3.054580E+03 -7.146117E+05  2.301096E+04 -5.509060E+04
       327  25 -7.933095E+05  1.082175E+04  1.428787E+05 -4.722353E+05  4.305665E+04 -6.143980E+04
       327  26 -8.781990E+05 -1.097776E+04  1.331977E+05 -4.870109E+05  3.857722E+04 -5.633511E+04
       327  27 -9.506622E+05 -4.576789E+04  1.218090E+05 -5.163366E+05  3.399906E+04 -5.095538E+04
       328   1 -2.320292E+06 -5.405126E+05 -1.178091E+05 -8.984381E+05 -1.019702E+04  5.567412E+04
       328   2 -2.247391E+06 -5.054556E+05 -1.031697E+05 -8.689852E+05 -7.002295E+03  4.959336E+04
       328   3 -2.161721E+06 -4.832531E+05 -8.911492E+04 -8.542213E+05 -3.796534E+03  4.347447E+04
       328   4 -1.661323E+06 -3.024565E+05 -2.350648E+03 -7.146078E+05 -2.116792E+04  5.154736E+04
       328   5 -1.667693E+06 -2.960106E+05 -1.470940E+03 -7.072650E+05 -1.803806E+04  4.544513E+04
       328   6 -1.661286E+06 -3.024067E+05 -1.124766E+03 -7.146134E+05 -1.489725E+04  3.930471E+04
       328   7 -1.001899E+06 -6.436055E+04  1.130931E+05 -5.305962E+05 -3.215115E+04  4.741597E+04
       328   8 -1.087637E+06 -8.653282E+04  1.002180E+05 -5.454032E+05 -2.908482E+04  4.129276E+04
       328   9 -1.160581E+06 -1.215339E+05  8.685948E+04 -5.748985E+05 -2.600763E+04  3.513133E+04
       328  10 -2.320293E+06 -5.405160E+05 -1.178151E+05 -8.984376E+05  1.481864E-09  4.131614E-10
       328  11 -2.247392E+06 -5.054583E+05 -1.031744E+05 -8.689849E+05  6.860845E-11 -8.425768E-12
       328  12 -2.161721E+06 -4.832552E+05 -8.911849E+04 -8.542212E+05 -3.308239E-11 -3.172749E-10
       328  13 -1.661324E+06 -3.024594E+05 -2.356478E+03 -7.146069E+05  9.256490E-10 -1.554822E-10
       328  14 -1.667694E+06 -2.960129E+05 -1.475428E+03 -7.072644E+05  2.050121E-10 -2.120446E-10
       328  15 -1.661287E+06 -3.024084E+05 -1.128083E+03 -7.146129E+05 -4.050431E-10 -2.850164E-10
       328  16 -1.001901E+06 -6.436324E+04  1.130869E+05 -5.305950E+05 -1.224785E-09 -1.136151E-10
       328  17 -1.087638E+06 -8.653487E+04  1.002132E+05 -5.454022E+05 -6.316228E-10  1.039653E-11
       328  18 -1.160582E+06 -1.215354E+05  8.685589E+04 -5.748978E+05 -9.574854E-10 -1.578314E-10
       328  19 -2.320292E+06 -5.405126E+05 -1.178091E+05 -8.984381E+05  1.019702E+04 -5.567412E+04
       328  20 -2.247391E+06 -5.054556E+05 -1.031697E+05 -8.689852E+05  7.002295E+03 -4.959336E+04
       328  21 -2.161721E+06 -4.832531E+05 -8.911492E+04 -8.542213E+05  3.796534E+03 -4.347447E+04
       328  22 -1.661323E+06 -3.024565E+05 -2.350648E+03 -7.146078E+05  2.116792E+04 -5.154736E+04
       328  23 -1.667693E+06 -2.960106E+05 -1.470940E+03 -7.072650E+05  1.803806E+04 -4.544513E+04
       328  24 -1.661286E+06 -3.024067E+05 -1.124766E+03 -7.146134E+05  1.489725E+04 -3.930471E+04
       328  25 -1.001899E+06 -6.436055E+04  1.130931E+05 -5.305962E+05  3.215115E+04 -4.741597E+04
       328  26 -1.087637E+06 -8.653282E+04  1.002180E+05 -5.454032E+05  2.908482E+04 -4.129276E+04
       328  27 -1.160581E+06 -1.215339E+05  8.685948E+04 -5.748985E+05  2.600763E+04 -3.513133E+04
       329   1 -2.110112E+06 -4.645479E+05 -7.963476E+04 -8.398859E+05 -2.185542E+03  3.980115E+04
       329   2 -2.036764E+06 -4.293236E+05 -6.611541E+04 -8.103014E+05  9.326919E+02  3.361565E+04
       329   3 -1.950589E+06 -4.070112E+05 -5.311166E+04 -7.954973E+05  4.051126E+03  2.742389E+04
       329   4 -1.661263E+06 -3.024077E+05 -1.110578E+03 -7.146338E+05 -1.330297E+04  3.562651E+04
       329   5 -1.667657E+06 -2.959122E+05 -1.381762E+03 -7.072534E+05 -1.019523E+04  2.943893E+04
       329   6 -1.661230E+06 -3.023265E+05 -2.160815E+03 -7.146553E+05 -7.087404E+03  2.324506E+04
       329   7 -1.212199E+06 -1.402478E+05  7.740792E+04 -5.892969E+05 -2.442897E+04  3.144866E+04
       329   8 -1.298408E+06 -1.624882E+05  6.334765E+04 -6.041485E+05 -2.133016E+04  2.525958E+04
       329   9 -1.371785E+06 -1.976348E+05  4.878709E+04 -6.337787E+05 -1.823136E+04  1.906420E+04
       329  10 -2.110112E+06 -4.645496E+05 -7.963774E+04 -8.398858E+05  5.924672E-10 -3.967112E-10
       329  11 -2.036764E+06 -4.293248E+05 -6.611754E+04 -8.103014E+05 -9.425014E-11  2.243658E-12
       329  12 -1.950589E+06 -4.070120E+05 -5.311310E+04 -7.954974E+05  9.068401E-10  1.845080E-10
       329  13 -1.661263E+06 -3.024091E+05 -1.113294E+03 -7.146335E+05 -1.017443E-10 -3.335371E-10
       329  14 -1.667658E+06 -2.959132E+05 -1.383585E+03 -7.072532E+05 -8.628002E-10 -1.918856E-10
       329  15 -1.661231E+06 -3.023271E+05 -2.161924E+03 -7.146551E+05 -7.882783E-10 -2.154454E-10
       329  16 -1.212200E+06 -1.402491E+05  7.740494E+04 -5.892962E+05  4.157174E-10 -2.066774E-10
       329  17 -1.298408E+06 -1.624890E+05  6.334560E+04 -6.041481E+05 -5.454728E-11 -3.693727E-10
       329  18 -1.371786E+06 -1.976353E+05  4.878578E+04 -6.337784E+05 -1.188828E-09 -3.941554E-10
       329  19 -2.110112E+06 -4.645479E+05 -7.963476E+04 -8.398859E+05  2.185542E+03 -3.980115E+04
       329  20 -2.036764E+06 -4.293236E+05 -6.611541E+04 -8.103014E+05 -9.326919E+02 -3.361565E+04
       329  21 -1.950589E+06 -4.070112E+05 -5.311166E+04 -7.954973E+05 -4.051126E+03 -2.742389E+04
       329  22 -1.661263E+06 -3.024077E+05 -1.110578E+03 -7.146338E+05  1.330297E+04 -3.562651E+04
       329  23 -1.667657E+06 -2.959122E+05 -1.381762E+03 -7.072534E+05  1.019523E+04 -2.943893E+04
       329  24 -1.661230E+06 -3.023265E+05 -2.160815E+03 -7.146553E+05  7.087404E+03 -2.324506E+04
       329  25 -1.212199E+06 -1.402478E+05  7.740792E+04 -5.892969E+05  2.442897E+04 -3.144866E+04
       329  26 -1.298408E+06 -1.624882E+05  6.334765E+04 -6.041485E+05  2.133016E+04 -2.525958E+04
       329  27 -1.371785E+06 -1.976348E+05  4.878709E+04 -6.337787E+05  1.823136E+04 -1.906420E+04
       330   1 -1.898756E+06 -3.882591E+05 -4.423498E+04 -7.811799E+05  5.891583E+03  2.382135E+04
       330   2 -1.824990E+06 -3.529352E+05 -3.250280E+04 -7.514842E+05  1.065099E+04  1.826949E+04
       330   3 -1.738696E+06 -3.308608E+05 -2.259254E+04 -7.366259E+05  1.538454E+04  1.278504E+04
       330   4 -1.661285E+06 -3.023139E+05 -2.797485E+03 -7.147016E+05 -5.265846E+03  1.963623E+04
       330   5 -1.667545E+06 -2.957791E+05 -4.938754E+03 -7.072415E+05 -3.903217E+02  1.412867E+04
       330   6 -1.661307E+06 -3.025181E+05 -8.995290E+03 -7.146221E+05  4.459025E+03  8.688410E+03
       330   7 -1.423752E+06 -2.163621E+05  3.863952E+04 -6.481986E+05 -1.642794E+04  1.544934E+04
       330   8 -1.510071E+06 -2.386201E+05  2.262529E+04 -6.629881E+05 -1.143468E+04  9.986695E+03
       330   9 -1.583912E+06 -2.741748E+05  4.602297E+03 -6.926156E+05 -6.467947E+03  4.591220E+03
       330  10 -1.898756E+06 -3.882597E+05 -4.423611E+04 -7.811801E+05 -5.724710E-11 -1.175717E-10
       330  11 -1.824991E+06 -3.529356E+05 -3.250364E+04 -7.514843E+05 -4.488431E-10 -1.052888E-10
       330  12 -1.738696E+06 -3.308610E+05 -2.259329E+04 -7.366261E+05  1.467234E-10 -7.648071E-11
       330  13 -1.661286E+06 -3.023143E+05 -2.798261E+03 -7.147015E+05  1.377770E-11 -6.471709E-11
       330  14 -1.667545E+06 -2.957793E+05 -4.939129E+03 -7.072415E+05  5.334169E-10  4.340017E-10
       330  15 -1.661307E+06 -3.025182E+05 -8.995469E+03 -7.146221E+05 -8.786042E-10 -1.237037E-10
       330  16 -1.423752E+06 -2.163624E+05  3.863857E+04 -6.481984E+05  5.014336E-10  2.740765E-10
       330  17 -1.510071E+06 -2.386202E+05  2.262486E+04 -6.629880E+05 -8.887222E-10  1.183727E-10
       330  18 -1.583912E+06 -2.741748E+05  4.602178E+03 -6.926155E+05 -5.315506E-10  1.013144E-10
       330  19 -1.898756E+06 -3.882591E+05 -4.423498E+04 -7.811799E+05 -5.891583E+03 -2.382135E+04
       330  20 -1.824990E+06 -3.529352E+05 -3.250280E+04 -7.514842E+05 -1.065099E+04 -1.826949E+04
       330  21 -1.738696E+06 -3.308608E+05 -2.259254E+04 -7.366259E+05 -1.538454E+04 -1.278504E+04
       330  22 -1.661285E+06 -3.023139E+05 -2.797485E+03 -7.147016E+05  5.265846E+03 -1.963623E+04
       330  23 -1.667545E+06 -2.957791E+05 -4.938754E+03 -7.072415E+05  3.903217E+02 -1.412867E+04
       330  24 -1.661307E+06 -3.025181E+05 -8.995290E+03 -7.146221E+05 -4.459025E+03 -8.688410E+03
       330  25 -1.423752E+06 -2.163621E+05  3.863952E+04 -6.481986E+05  1.642794E+04 -1.544934E+04
       330  26 -1.510071E+06 -2.386201E+05  2.262529E+04 -6.629881E+05  1.143468E+04 -9.986695E+03
       330  27 -1.583912E+06 -2.741748E+05  4.602297E+03 -6.926156E+05  6.467947E+03 -4.591220E+03
       331   1 -1.686627E+06 -3.125366E+05 -1.598979E+04 -7.231491E+05  1.853965E+04  9.710384E+03
       331   2 -1.613740E+06 -2.765774E+05 -1.151489E+04 -6.903450E+05  3.041569E+04  7.345120E+03
       331   3 -1.531330E+06 -2.593056E+05 -1.575618E+04 -6.712504E+05  4.198552E+04  5.799751E+03
       331   4 -1.661838E+06 -3.024127E+05 -1.197854E+04 -7.148853E+05  7.512770E+03  5.575955E+03
       331   5 -1.667068E+06 -2.972079E+05 -2.194346E+04 -7.064284E+05  2.080156E+04  3.740055E+03
       331   6 -1.663062E+06 -3.109727E+05 -4.174807E+04 -7.116843E+05  3.378296E+04  2.723536E+03
       331   7 -1.637048E+06 -2.922887E+05 -7.966855E+03 -7.066212E+05 -3.514463E+03  1.441335E+03
       331   8 -1.720392E+06 -3.178379E+05 -3.237177E+04 -7.225105E+05  1.118831E+04  1.353706E+02
       331   9 -1.794777E+06 -3.626379E+05 -6.774082E+04 -7.521103E+05  2.558218E+04 -3.518849E+02
       331  10 -1.686627E+06 -3.125368E+05 -1.599061E+04 -7.231492E+05  5.643203E-10  7.570981E-11
       331  11 -1.613741E+06 -2.765778E+05 -1.151673E+04 -6.903452E+05 -5.538098E-10 -4.385701E-10
       331  12 -1.531332E+06 -2.593061E+05 -1.575957E+04 -6.712506E+05 -5.316251E-11 -9.708202E-11
       331  13 -1.661838E+06 -3.024127E+05 -1.197871E+04 -7.148854E+05 -1.581921E-10 -4.783449E-11
       331  14 -1.667068E+06 -2.972080E+05 -2.194430E+04 -7.064285E+05  3.302262E-10 -2.901664E-11
       331  15 -1.663063E+06 -3.109730E+05 -4.175023E+04 -7.116844E+05  8.094828E-12  1.204200E-11
       331  16 -1.637048E+06 -2.922887E+05 -7.966882E+03 -7.066212E+05  4.390469E-10  1.342372E-10
       331  17 -1.720392E+06 -3.178380E+05 -3.237200E+04 -7.225105E+05 -1.504455E-10 -2.194415E-10
       331  18 -1.794777E+06 -3.626381E+05 -6.774205E+04 -7.521103E+05  1.039056E-09  4.873487E-10
       331  19 -1.686627E+06 -3.125366E+05 -1.598979E+04 -7.231491E+05 -1.853965E+04 -9.710384E+03
       331  20 -1.613740E+06 -2.765774E+05 -1.151489E+04 -6.903450E+05 -3.041569E+04 -7.345120E+03
       331  21 -1.531330E+06 -2.593056E+05 -1.575618E+04 -6.712504E+05 -4.198552E+04 -5.799751E+03
       331  22 -1.661838E+06 -3.024127E+05 -1.197854E+04 -7.148853E+05 -7.512770E+03 -5.575955E+03
       331  23 -1.667068E+06 -2.972079E+05 -2.194346E+04 -7.064284E+05 -2.080156E+04 -3.740055E+03
       331  24 -1.663062E+06 -3.109727E+05 -4.174807E+04 -7.116843E+05 -3.378296E+04 -2.723536E+03
       331  25 -1.637048E+06 -2.922887E+05 -7.966855E+03 -7.066212E+05  3.514463E+03 -1.441335E+03
       331  26 -1.720392E+06 -3.178379E+05 -3.237177E+04 -7.225105E+05 -1.118831E+04 -1.353706E+02
       331  27 -1.794777E+06 -3.626379E+05 -6.774082E+04 -7.521103E+05 -2.558218E+04  3.518849E+02
       332   1 -1.475749E+06 -2.487566E+05 -1.925110E+04 -6.710020E+05  5.060192E+04  5.254755E+03
       332   2 -1.437602E+06 -1.997523E+05 -4.859620E+04 -5.704335E+05  8.984413E+04  1.913399E+04
       332   3 -1.431717E+06 -2.687769E+05 -1.358242E+05 -4.574618E+05  1.256028E+05  4.231724E+04
       332   4 -1.669626E+06 -3.098076E+05 -5.548948E+04 -7.148427E+05  4.128248E+04  1.760535E+03
       332   5 -1.664243E+06 -3.363646E+05 -1.056104E+05 -6.883797E+05  9.655696E+04  2.164185E+04
       332   6 -1.694344E+06 -4.841853E+05 -2.263610E+05 -6.495185E+05  1.483424E+05  5.081720E+04
       332   7 -1.863465E+06 -3.708577E+05 -9.172926E+04 -7.586718E+05  3.196612E+04 -1.732897E+03
       332   8 -1.890819E+06 -4.729374E+05 -1.626254E+05 -8.062753E+05  1.032671E+05  2.414720E+04
       332   9 -1.956856E+06 -6.994650E+05 -3.168931E+05 -8.414678E+05  1.710708E+05  5.930208E+04
       332  10 -1.475751E+06 -2.487574E+05 -1.925598E+04 -6.710022E+05  4.291842E-10  2.336105E-10
       332  11 -1.437611E+06 -1.997549E+05 -4.861210E+04 -5.704349E+05  4.864605E-10  1.200923E-10
       332  12 -1.431735E+06 -2.687831E+05 -1.358573E+05 -4.574661E+05 -2.115658E-10 -3.468406E-11
       332  13 -1.669627E+06 -3.098080E+05 -5.549269E+04 -7.148427E+05  3.356281E-10  3.411459E-10
       332  14 -1.664253E+06 -3.363676E+05 -1.056289E+05 -6.883814E+05  1.608963E-09  3.285908E-10
       332  15 -1.694368E+06 -4.841940E+05 -2.264074E+05 -6.495246E+05 -8.180588E-11 -6.784231E-11
       332  16 -1.863466E+06 -3.708579E+05 -9.173119E+04 -7.586717E+05 -1.019424E-10  2.644455E-10
       332  17 -1.890830E+06 -4.729409E+05 -1.626466E+05 -8.062773E+05 -1.128789E-10  7.615983E-11
       332  18 -1.956888E+06 -6.994767E+05 -3.169549E+05 -8.414760E+05 -9.108926E-11 -3.148231E-11
       332  19 -1.475749E+06 -2.487566E+05 -1.925110E+04 -6.710020E+05 -5.060192E+04 -5.254755E+03
       332  20 -1.437602E+06 -1.997523E+05 -4.859620E+04 -5.704335E+05 -8.984413E+04 -1.913399E+04
       332  21 -1.431717E+06 -2.687769E+05 -1.358242E+05 -4.574618E+05 -1.256028E+05 -4.231724E+04
       332  22 -1.669626E+06 -3.098076E+05 -5.548948E+04 -7.148427E+05 -4.128248E+04 -1.760535E+03
       332  23 -1.664243E+06 -3.363646E+05 -1.056104E+05 -6.883797E+05 -9.655696E+04 -2.164185E+04
       332  24 -1.694344E+06 -4.841853E+05 -2.263610E+05 -6.495185E+05 -1.483424E+05 -5.081720E+04
       332  25 -1.863465E+06 -3.708577E+05 -9.172926E+04 -7.586718E+05 -3.196612E+04  1.732897E+03
       332  26 -1.890819E+06 -4.729374E+05 -1.626254E+05 -8.062753E+05 -1.032671E+05 -2.414720E+04
       332  27 -1.956856E+06 -6.994650E+05 -3.168931E+05 -8.414678E+05 -1.710708E+05 -5.930208E+04
       333   1  7.298284E+05  1.315573E+05  1.916836E+05  5.976431E+04  1.910171E+05  4.372951E+03
       333   2  7.264515E+05 -1.187353E+05  4.142433E+04  1.704649E+04  1.275412E+05  1.252400E+04
       333   3  8.004833E+05 -9.314055E+04  1.483712E+03 -4.955589E+04  6.406880E+04  1.152535E+04
       333   4  1.127261E+06  2.302775E+05  2.894043E+05 -1.784158E+04  1.981856E+05  4.356969E+03
       333   5  1.088207E+06 -2.933134E+04  1.273026E+05 -5.771154E+03  1.296093E+05  1.252074E+04
       333   6  1.127390E+06 -1.226721E+04  7.900672E+04 -1.758424E+04  6.104079E+04  1.152598E+04
       333   7  1.524851E+06  3.290087E+05  3.871169E+05 -9.549721E+04  2.053586E+05  4.339209E+03
       333   8  1.450084E+06  6.006517E+04  2.131720E+05 -2.860217E+04  1.316786E+05  1.251733E+04
       333   9  1.454396E+06  6.860229E+04  1.565229E+05  1.440429E+04  5.801120E+04  1.152630E+04
       333  10  7.297893E+05  1.315475E+05  1.916151E+05  5.976364E+04  1.819555E-10 -1.351294E-09
       333  11  7.264340E+05 -1.187398E+05  4.139350E+04  1.704520E+04 -6.672199E-10 -1.735132E-10
       333  12  8.004788E+05 -9.314180E+04  1.475758E+03 -4.955648E+04 -2.120401E-09 -8.623167E-10
       333  13  1.127219E+06  2.302670E+05  2.893306E+05 -1.784228E+04 -1.309913E-10  5.677342E-10
       333  14  1.088189E+06 -2.933601E+04  1.272708E+05 -5.772460E+03 -6.947589E-10 -4.730334E-10
       333  15  1.127386E+06 -1.226835E+04  7.899948E+04 -1.758481E+04 -9.877813E-10 -7.911235E-10
       333  16  1.524806E+06  3.289974E+05  3.870378E+05 -9.549792E+04 -5.933129E-12  4.838959E-10
       333  17  1.450065E+06  6.006036E+04  2.131392E+05 -2.860350E+04  7.176388E-10 -2.858518E-10
       333  18  1.454392E+06  6.860125E+04  1.565163E+05  1.440375E+04  3.505602E-09  1.873861E-09
       333  19  7.298284E+05  1.315573E+05  1.916836E+05  5.976431E+04 -1.910171E+05 -4.372951E+03
       333  20  7.264515E+05 -1.187353E+05  4.142433E+04  1.704649E+04 -1.275412E+05 -1.252400E+04
       333  21  8.004833E+05 -9.314055E+04  1.483712E+03 -4.955589E+04 -6.406880E+04 -1.152535E+04
       333  22  1.127261E+06  2.302775E+05  2.894043E+05 -1.784158E+04 -1.981856E+05 -4.356969E+03
       333  23  1.088207E+06 -2.933134E+04  1.273026E+05 -5.771154E+03 -1.296093E+05 -1.252074E+04
       333  24  1.127390E+06 -1.226721E+04  7.900672E+04 -1.758424E+04 -6.104079E+04 -1.152598E+04
       333  25  1.524851E+06  3.290087E+05  3.871169E+05 -9.549721E+04 -2.053586E+05 -4.339209E+03
       333  26  1.450084E+06  6.006517E+04  2.131720E+05 -2.860217E+04 -1.316786E+05 -1.251733E+04
       333  27  1.454396E+06  6.860229E+04  1.565229E+05  1.440429E+04 -5.801120E+04 -1.152630E+04
       334   1  8.269826E+05 -4.799343E+04 -3.525449E+03 -1.085707E+04  4.915565E+04  9.403146E+03
       334   2  8.562854E+05 -6.513517E+04 -2.663725E+04 -4.349550E+03  3.262283E+04  8.593396E+03
       334   3  8.946518E+05 -5.498415E+04 -3.215184E+04 -2.088939E+04  1.608908E+04  7.188598E+03
       334   4  1.112007E+06  2.250188E+04  6.428300E+04 -1.748270E+04  4.889354E+04  9.402157E+03
       334   5  1.107461E+06 -3.027595E+03  3.300520E+04 -5.952472E+03  3.202474E+04  8.592768E+03
       334   6  1.112030E+06 -1.212640E+03  1.955161E+04 -1.746873E+04  1.515589E+04  7.188174E+03
       334   7  1.397106E+06  9.299151E+04  1.320858E+05 -2.411140E+04  4.863131E+04  9.401174E+03
       334   8  1.358694E+06  5.907545E+04  9.264326E+04 -7.556052E+03  3.142640E+04  8.592143E+03
       334   9  1.329452E+06  5.255552E+04  7.125176E+04 -1.404686E+04  1.422238E+04  7.187741E+03
       334  10  8.269800E+05 -4.799417E+04 -3.530149E+03 -1.085744E+04 -1.951101E-10 -4.533565E-10
       334  11  8.562843E+05 -6.513553E+04 -2.663939E+04 -4.349776E+03 -3.875678E-10  2.572595E-11
       334  12  8.946515E+05 -5.498428E+04 -3.215242E+04 -2.088949E+04 -1.366796E-09 -4.380790E-10
       334  13  1.112005E+06  2.250114E+04  6.427835E+04 -1.748307E+04 -3.147711E-10  1.225114E-09
       334  14  1.107459E+06 -3.027950E+03  3.300314E+04 -5.952694E+03  5.822320E-11  3.881047E-10
       334  15  1.112030E+06 -1.212757E+03  1.955108E+04 -1.746882E+04 -1.860544E-09 -7.564938E-10
       334  16  1.397104E+06  9.299078E+04  1.320812E+05 -2.411177E+04 -2.756093E-10  1.191277E-09
       334  17  1.358692E+06  5.907511E+04  9.264127E+04 -7.556269E+03 -9.915418E-10 -2.630412E-11
       334  18  1.329452E+06  5.255541E+04  7.125128E+04 -1.404695E+04 -3.615178E-10 -1.120289E-10
       334  19  8.269826E+05 -4.799343E+04 -3.525449E+03 -1.085707E+04 -4.915565E+04 -9.403146E+03
       334  20  8.562854E+05 -6.513517E+04 -2.663725E+04 -4.349550E+03 -3.262283E+04 -8.593396E+03
       334  21  8.946518E+05 -5.498415E+04 -3.215184E+04 -2.088939E+04 -1.608908E+04 -7.188598E+03
       334  22  1.112007E+06  2.250188E+04  6.428300E+04 -1.748270E+04 -4.889354E+04 -9.402157E+03
       334  23  1.107461E+06 -3.027595E+03  3.300520E+04 -5.952472E+03 -3.202474E+04 -8.592768E+03
       334  24  1.112030E+06 -1.212640E+03  1.955161E+04 -1.746873E+04 -1.515589E+04 -7.188174E+03
       334  25  1.397106E+06  9.299151E+04  1.320858E+05 -2.411140E+04 -4.863131E+04 -9.401174E+03
       334  26  1.358694E+06  5.907545E+04  9.264326E+04 -7.556052E+03 -3.142640E+04 -8.592143E+03
       334  27  1.329452E+06  5.255552E+04  7.125176E+04 -1.404686E+04 -1.422238E+04 -7.187741E+03
       335   1  9.335424E+05 -4.154619E+04 -2.662149E+04 -1.696227E+04  1.282537E+04  6.276763E+03
       335   2  9.659273E+05 -3.587100E+04 -2.571551E+04 -6.104601E+03  8.631823E+03  4.908162E+03
       335   3  9.995612E+05 -2.751776E+04 -2.140572E+04 -1.774389E+04  4.437752E+03  3.508456E+03
       335   4  1.110284E+06  2.138311E+03  1.525953E+04 -1.735105E+04  1.208053E+04  6.276407E+03
       335   5  1.109662E+06 -3.312032E+02  8.413621E+03 -6.102435E+03  7.868672E+03  4.907906E+03
       335   6  1.110290E+06 -1.197839E+02  4.983578E+03 -1.735044E+04  3.656516E+03  3.508302E+03
       335   7  1.287055E+06  4.582057E+04  5.713838E+04 -1.773994E+04  1.133547E+04  6.276053E+03
       335   8  1.253415E+06  3.520711E+04  4.254131E+04 -6.100271E+03  7.105345E+03  4.907651E+03
       335   9  1.221030E+06  2.727731E+04  3.137202E+04 -1.695692E+04  2.875141E+03  3.508147E+03
       335  10  9.335422E+05 -4.154628E+04 -2.662187E+04 -1.696233E+04 -2.105719E-10 -4.136920E-10
       335  11  9.659272E+05 -3.587104E+04 -2.571569E+04 -6.104635E+03 -1.761745E-09 -2.480500E-10
       335  12  9.995612E+05 -2.751778E+04 -2.140578E+04 -1.774390E+04 -1.772811E-10  6.449695E-11
       335  13  1.110284E+06  2.138230E+03  1.525918E+04 -1.735111E+04 -2.174180E-10 -2.036977E-10
       335  14  1.109662E+06 -3.312457E+02  8.413459E+03 -6.102466E+03  2.524466E-10  2.709059E-10
       335  15  1.110290E+06 -1.198008E+02  4.983530E+03 -1.735045E+04 -1.040980E-09  3.943565E-11
       335  16  1.287055E+06  4.582050E+04  5.713807E+04 -1.774000E+04 -3.149140E-10  2.530333E-11
       335  17  1.253415E+06  3.520707E+04  4.254117E+04 -6.100299E+03 -1.306080E-09 -1.581100E-10
       335  18  1.221030E+06  2.727730E+04  3.137198E+04 -1.695693E+04 -2.057965E-10  7.321787E-10
       335  19  9.335424E+05 -4.154619E+04 -2.662149E+04 -1.696227E+04 -1.282537E+04 -6.276763E+03
       335  20  9.659273E+05 -3.587100E+04 -2.571551E+04 -6.104601E+03 -8.631823E+03 -4.908162E+03
       335  21  9.995612E+05 -2.751776E+04 -2.140572E+04 -1.774389E+04 -4.437752E+03 -3.508456E+03
       335  22  1.110284E+06  2.138311E+03  1.525953E+04 -1.735105E+04 -1.208053E+04 -6.276407E+03
       335  23  1.109662E+06 -3.312032E+02  8.413621E+03 -6.102435E+03 -7.868672E+03 -4.907906E+03
       335  24  1.110290E+06 -1.197839E+02  4.983578E+03 -1.735044E+04 -3.656516E+03 -3.508302E+03
       335  25  1.287055E+06  4.582057E+04  5.713838E+04 -1.773994E+04 -1.133547E+04 -6.276053E+03
       335  26  1.253415E+06  3.520711E+04  4.254131E+04 -6.100271E+03 -7.105345E+03 -4.907651E+03
       335  27  1.221030E+06  2.727731E+04  3.137202E+04 -1.695692E+04 -2.875141E+03 -3.508147E+03
       336   1  1.039258E+06 -1.730057E+04 -1.281764E+04 -1.731411E+04  3.625683E+03  2.691438E+03
       336   2  1.071777E+06 -9.481132E+03 -6.646547E+03 -6.201856E+03  2.426307E+03  1.303113E+03
       336   3  1.104530E+06 -1.393133E+03  3.733545E+02 -1.733471E+04  1.226747E+03 -8.520544E+01
       336   4  1.110065E+06  1.867921E+02  3.896014E+03 -1.729473E+04  2.858618E+03  2.691326E+03
       336   5  1.109950E+06 -4.310333E+01  2.416890E+03 -6.172213E+03  1.659098E+03  1.303026E+03
       336   6  1.110067E+06 -4.496242E+00  1.786506E+03 -1.729472E+04  4.594569E+02 -8.526446E+01
       336   7  1.180877E+06  1.767379E+04  2.060932E+04 -1.727535E+04  2.091466E+03  2.691214E+03
       336   8  1.148124E+06  9.394821E+03  1.148023E+04 -6.142568E+03  8.918422E+02  1.302939E+03
       336   9  1.115603E+06  1.384138E+03  3.199657E+03 -1.725472E+04 -3.078401E+02 -8.532357E+01
       336  10  1.039258E+06 -1.730058E+04 -1.281768E+04 -1.731411E+04 -1.406782E-10 -2.669272E-10
       336  11  1.071777E+06 -9.481136E+03 -6.646561E+03 -6.201858E+03 -1.202623E-09 -1.020630E-10
       336  12  1.104530E+06 -1.393133E+03  3.733517E+02 -1.733471E+04 -3.659568E-10 -5.555092E-11
       336  13  1.110065E+06  1.867821E+02  3.895985E+03 -1.729474E+04 -5.574500E-10  1.734193E-10
       336  14  1.109950E+06 -4.310589E+01  2.416881E+03 -6.172215E+03 -4.529459E-10 -1.781364E-10
       336  15  1.110067E+06 -4.496306E+00  1.786505E+03 -1.729472E+04 -1.645954E-09 -1.927645E-10
       336  16  1.180877E+06  1.767379E+04  2.060930E+04 -1.727536E+04  1.612024E-11  6.308399E-10
       336  17  1.148124E+06  9.394819E+03  1.148022E+04 -6.142569E+03 -8.965759E-10 -2.353717E-10
       336  18  1.115603E+06  1.384138E+03  3.199657E+03 -1.725472E+04  4.583064E-10 -4.537712E-10
       336  19  1.039258E+06 -1.730057E+04 -1.281764E+04 -1.731411E+04 -3.625683E+03 -2.691438E+03
       336  20  1.071777E+06 -9.481132E+03 -6.646547E+03 -6.201856E+03 -2.426307E+03 -1.303113E+03
       336  21  1.104530E+06 -1.393133E+03  3.733545E+02 -1.733471E+04 -1.226747E+03  8.520544E+01
       336  22  1.110065E+06  1.867921E+02  3.896014E+03 -1.729473E+04 -2.858618E+03 -2.691326E+03
       336  23  1.109950E+06 -4.310333E+01  2.416890E+03 -6.172213E+03 -1.659098E+03 -1.303026E+03
       336  24  1.110067E+06 -4.496242E+00  1.786506E+03 -1.729472E+04 -4.594569E+02  8.526446E+01
       336  25  1.180877E+06  1.767379E+04  2.060932E+04 -1.727535E+04 -2.091466E+03 -2.691214E+03
       336  26  1.148124E+06  9.394821E+03  1.148023E+04 -6.142568E+03 -8.918422E+02 -1.302939E+03
       336  27  1.115603E+06  1.384138E+03  3.199657E+03 -1.725472E+04  3.078401E+02  8.532357E+01
       337   1  1.144251E+06  8.478982E+03  9.900909E+03 -1.728601E+04  9.133775E+02 -8.932392E+02
       337   2  1.176859E+06  1.650608E+04  1.773646E+04 -6.144520E+03 -5.813237E+00 -2.283000E+03
       337   3  1.209646E+06  2.471570E+04  2.621763E+04 -1.728777E+04 -9.248680E+02 -3.674540E+03
       337   4  1.110054E+06  4.607534E+00  1.683370E+03 -1.730358E+04  1.456884E+02 -8.933052E+02
       337   5  1.109965E+06 -3.214661E+01  1.854607E+03 -6.161141E+03 -7.744281E+02 -2.283114E+03
       337   6  1.110053E+06  1.138653E+02  2.672228E+03 -1.730359E+04 -1.694361E+03 -3.674699E+03
       337   7  1.075858E+06 -8.469852E+03 -6.534250E+03 -1.732114E+04 -6.219587E+02 -8.933710E+02
       337   8  1.043075E+06 -1.657070E+04 -1.402755E+04 -6.177760E+03 -1.542961E+03 -2.283228E+03
       337   9  1.010470E+06 -2.448867E+04 -2.087386E+04 -1.731942E+04 -2.463731E+03 -3.674857E+03
       337  10  1.144251E+06  8.478981E+03  9.900906E+03 -1.728601E+04 -8.972626E-10 -2.201531E-10
       337  11  1.176859E+06  1.650608E+04  1.773645E+04 -6.144520E+03 -1.415439E-10  6.079130E-11
       337  12  1.209646E+06  2.471568E+04  2.621761E+04 -1.728777E+04 -2.122060E-09  5.144537E-10
       337  13  1.110054E+06  4.606671E+00  1.683368E+03 -1.730358E+04  7.967337E-10 -3.377398E-11
       337  14  1.109965E+06 -3.215238E+01  1.854596E+03 -6.161142E+03 -6.281589E-12  1.805713E-10
       337  15  1.110053E+06  1.138500E+02  2.672197E+03 -1.730360E+04 -4.599296E-10  3.502107E-10
       337  16  1.075858E+06 -8.469853E+03 -6.534253E+03 -1.732114E+04  2.094579E-10 -2.713026E-10
       337  17  1.043075E+06 -1.657070E+04 -1.402757E+04 -6.177763E+03 -6.972460E-10 -2.504767E-10
       337  18  1.010470E+06 -2.448869E+04 -2.087390E+04 -1.731943E+04  3.879197E-10  5.418306E-11
       337  19  1.144251E+06  8.478982E+03  9.900909E+03 -1.728601E+04 -9.133775E+02  8.932392E+02
       337  20  1.176859E+06  1.650608E+04  1.773646E+04 -6.144520E+03  5.813237E+00  2.283000E+03
       337  21  1.209646E+06  2.471570E+04  2.621763E+04 -1.728777E+04  9.248680E+02  3.674540E+03
       337  22  1.110054E+06  4.607534E+00  1.683370E+03 -1.730358E+04 -1.456884E+02  8.933052E+02
       337  23  1.109965E+06 -3.214661E+01  1.854607E+03 -6.161141E+03  7.744281E+02  2.283114E+03
       337  24  1.110053E+06  1.138653E+02  2.672228E+03 -1.730359E+04  1.694361E+03  3.674699E+03
       337  25  1.075858E+06 -8.469852E+03 -6.534250E+03 -1.732114E+04  6.219587E+02  8.933710E+02
       337  26  1.043075E+06 -1.657070E+04 -1.402755E+04 -6.177760E+03  1.542961E+03  2.283228E+03
       337  27  1.010470E+06 -2.448867E+04 -2.087386E+04 -1.731942E+04  2.463731E+03  3.674857E+03
       338   1  1.249861E+06  3.446665E+04  3.658279E+04 -1.711718E+04 -1.448396E+03 -4.494771E+03
       338   2  1.282635E+06  4.251442E+04  4.650237E+04 -6.045229E+03 -4.203038E+03 -5.900371E+03
       338   3  1.316241E+06  5.227745E+04  5.865075E+04 -1.759420E+04 -6.957327E+03 -7.273667E+03
       338   4  1.110195E+06 -8.095037E+01  3.327504E+03 -1.737819E+04 -2.233709E+03 -4.494989E+03
       338   5  1.109778E+06 -2.180009E+02  5.466068E+03 -6.067786E+03 -4.969824E+03 -5.900708E+03
       338   6  1.110191E+06  1.357530E+03  9.821272E+03 -1.737868E+04 -7.705440E+03 -7.274117E+03
       338   7  9.705473E+05 -3.462996E+04 -2.992914E+04 -1.763915E+04 -3.018847E+03 -4.495207E+03
       338   8  9.369490E+05 -4.295257E+04 -3.557231E+04 -6.090338E+03 -5.736398E+03 -5.901044E+03
       338   9  9.041788E+05 -4.956543E+04 -3.901115E+04 -1.716324E+04 -8.453307E+03 -7.274567E+03
       338  10  1.249861E+06  3.446663E+04  3.658275E+04 -1.711719E+04  1.476894E-10  7.687103E-10
       338  11  1.282635E+06  4.251438E+04  4.650227E+04 -6.045249E+03 -5.717768E-10 -9.554202E-10
       338  12  1.316241E+06  5.227738E+04  5.865056E+04 -1.759425E+04  9.728240E-10  6.802474E-10
       338  13  1.110195E+06 -8.097342E+01  3.327457E+03 -1.737820E+04  1.182911E-09  4.410210E-10
       338  14  1.109778E+06 -2.180449E+02  5.465956E+03 -6.067810E+03 -1.480958E-10 -2.765727E-10
       338  15  1.110191E+06  1.357457E+03  9.821061E+03 -1.737873E+04  1.342869E-09  1.665355E-10
       338  16  9.705473E+05 -3.462998E+04 -2.992920E+04 -1.763916E+04 -3.090877E-10 -2.495346E-11
       338  17  9.369489E+05 -4.295261E+04 -3.557244E+04 -6.090366E+03 -2.643883E-10  5.315462E-12
       338  18  9.041787E+05 -4.956551E+04 -3.901139E+04 -1.716329E+04  5.163586E-10  2.257130E-10
       338  19  1.249861E+06  3.446665E+04  3.658279E+04 -1.711718E+04  1.448396E+03  4.494771E+03
       338  20  1.282635E+06  4.251442E+04  4.650237E+04 -6.045229E+03  4.203038E+03  5.900371E+03
       338  21  1.316241E+06  5.227745E+04  5.865075E+04 -1.759420E+04  6.957327E+03  7.273667E+03
       338  22  1.110195E+06 -8.095037E+01  3.327504E+03 -1.737819E+04  2.233709E+03  4.494989E+03
       338  23  1.109778E+06 -2.180009E+02  5.466068E+03 -6.067786E+03  4.969824E+03  5.900708E+03
       338  24  1.110191E+06  1.357530E+03  9.821272E+03 -1.737868E+04  7.705440E+03  7.274117E+03
       338  25  9.705473E+05 -3.462996E+04 -2.992914E+04 -1.763915E+04  3.018847E+03  4.495207E+03
       338  26  9.369490E+05 -4.295257E+04 -3.557231E+04 -6.090338E+03  5.736398E+03  5.901044E+03
       338  27  9.041788E+05 -4.956543E+04 -3.901115E+04 -1.716324E+04  8.453307E+03  7.274567E+03
       339   1  1.358308E+06  6.028883E+04  7.128148E+04 -1.527615E+04 -8.731655E+03 -8.197153E+03
       339   2  1.389461E+06  6.753450E+04  8.789159E+04 -6.856083E+03 -1.990687E+04 -9.608053E+03
       339   3  1.426569E+06  9.234936E+04  1.161809E+05 -2.167735E+04 -3.108268E+04 -1.037808E+04
       339   4  1.111312E+06 -7.882694E+02  1.256231E+04 -1.751311E+04 -9.683214E+03 -8.197771E+03
       339   5  1.108358E+06 -1.951861E+03  2.116352E+04 -5.897540E+03 -2.049973E+04 -9.608743E+03
       339   6  1.111296E+06  1.439605E+04  4.119904E+04 -1.752375E+04 -3.131624E+04 -1.037882E+04
       339   7  8.643730E+05 -6.186974E+04 -4.616112E+04 -1.974918E+04 -1.063440E+04 -8.198382E+03
       339   8  8.273260E+05 -7.144389E+04 -4.557006E+04 -4.939443E+03 -2.109233E+04 -9.609434E+03
       339   9  7.961135E+05 -6.356434E+04 -3.378972E+04 -1.337227E+04 -3.154968E+04 -1.037957E+04
       339  10  1.358308E+06  6.028874E+04  7.128121E+04 -1.527621E+04  3.745973E-10  3.757510E-10
       339  11  1.389461E+06  6.753430E+04  8.789067E+04 -6.856237E+03 -5.718988E-10 -1.309598E-09
       339  12  1.426568E+06  9.234898E+04  1.161789E+05 -2.167761E+04  2.119373E-10 -1.010739E-09
       339  13  1.111312E+06 -7.883667E+02  1.256201E+04 -1.751317E+04  1.307279E-09  8.121105E-11
       339  14  1.108357E+06 -1.952073E+03  2.116255E+04 -5.897699E+03  4.973615E-13 -8.524898E-10
       339  15  1.111295E+06  1.439567E+04  4.119700E+04 -1.752401E+04  1.697910E-10 -6.410876E-10
       339  16  8.643729E+05 -6.186984E+04 -4.616146E+04 -1.974925E+04 -9.034342E-10 -1.313710E-10
       339  17  8.273255E+05 -7.144411E+04 -4.557107E+04 -4.939607E+03 -8.011368E-10  1.069002E-09
       339  18  7.961124E+05 -6.356472E+04 -3.379179E+04 -1.337254E+04  5.630713E-10 -5.024741E-11
       339  19  1.358308E+06  6.028883E+04  7.128148E+04 -1.527615E+04  8.731655E+03  8.197153E+03
       339  20  1.389461E+06  6.753450E+04  8.789159E+04 -6.856083E+03  1.990687E+04  9.608053E+03
       339  21  1.426569E+06  9.234936E+04  1.161809E+05 -2.167735E+04  3.108268E+04  1.037808E+04
       339  22  1.111312E+06 -7.882694E+02  1.256231E+04 -1.751311E+04  9.683214E+03  8.197771E+03
       339  23  1.108358E+06 -1.951861E+03  2.116352E+04 -5.897540E+03  2.049973E+04  9.608743E+03
       339  24  1.111296E+06  1.439605E+04  4.119904E+04 -1.752375E+04  3.131624E+04  1.037882E+04
       339  25  8.643730E+05 -6.186974E+04 -4.616112E+04 -1.974918E+04  1.063440E+04  8.198382E+03
       339  26  8.273260E+05 -7.144389E+04 -4.557006E+04 -4.939443E+03  2.109233E+04  9.609434E+03
       339  27  7.961135E+05 -6.356434E+04 -3.378972E+04 -1.337227E+04  3.154968E+04  1.037957E+04
       340   1  1.478805E+06  8.054079E+04  1.354021E+05  2.966525E+03 -3.588692E+04 -1.260208E+04
       340   2  1.488886E+06  7.825448E+04  1.747872E+05 -2.017349E+04 -8.530033E+04 -1.355284E+04
       340   3  1.550111E+06  2.541406E+05  2.908753E+05 -6.739835E+04 -1.347289E+05 -4.636860E+03
       340   4  1.121158E+06 -7.882772E+03  5.063136E+04 -1.764811E+04 -3.910042E+04 -1.260418E+04
       340   5  1.096002E+06 -1.881723E+04  8.155786E+04 -5.701467E+03 -8.303558E+04 -1.355296E+04
       340   6  1.121071E+06  1.475273E+05  1.854211E+05 -1.783709E+04 -1.269826E+05 -4.637819E+03
       340   7  7.636288E+05 -9.631392E+04 -3.414804E+04 -3.825086E+04 -4.231208E+04 -1.260607E+04
       340   8  7.032599E+05 -1.158992E+05 -1.168212E+04  8.761338E+03 -8.077224E+04 -1.355297E+04
       340   9  6.922027E+05  4.090971E+04  7.995497E+04  3.168988E+04 -1.192416E+05 -4.637547E+03
       340  10  1.478804E+06  8.054027E+04  1.353994E+05  2.966161E+03  1.865921E-09 -1.543504E-09
       340  11  1.488878E+06  7.825234E+04  1.747732E+05 -2.017442E+04  2.213850E-10 -3.881740E-09
       340  12  1.550092E+06  2.541358E+05  2.908412E+05 -6.739885E+04 -1.906310E-10 -1.071447E-09
       340  13  1.121156E+06 -7.883352E+03  5.062819E+04 -1.764851E+04  9.241704E-10 -4.250596E-09
       340  14  1.095995E+06 -1.881928E+04  8.154458E+04 -5.702373E+03  3.598911E-09  1.630925E-09
       340  15  1.121053E+06  1.475230E+05  1.853908E+05 -1.783757E+04 -8.317919E-10 -5.907192E-10
       340  16  7.636268E+05 -9.631457E+04 -3.415170E+04 -3.825129E+04 -4.765180E-10 -1.021614E-09
       340  17  7.032529E+05 -1.159012E+05 -1.169471E+04  8.760457E+03  2.540218E-10  1.229005E-09
       340  18  6.921875E+05  4.090588E+04  7.992824E+04  3.168944E+04  8.431992E-10 -1.531772E-09
       340  19  1.478805E+06  8.054079E+04  1.354021E+05  2.966525E+03  3.588692E+04  1.260208E+04
       340  20  1.488886E+06  7.825448E+04  1.747872E+05 -2.017349E+04  8.530033E+04  1.355284E+04
       340  21  1.550111E+06  2.541406E+05  2.908753E+05 -6.739835E+04  1.347289E+05  4.636860E+03
       340  22  1.121158E+06 -7.882772E+03  5.063136E+04 -1.764811E+04  3.910042E+04  1.260418E+04
       340  23  1.096002E+06 -1.881723E+04  8.155786E+04 -5.701467E+03  8.303558E+04  1.355296E+04
       340  24  1.121071E+06  1.475273E+05  1.854211E+05 -1.783709E+04  1.269826E+05  4.637819E+03
       340  25  7.636288E+05 -9.631392E+04 -3.414804E+04 -3.825086E+04  4.231208E+04  1.260607E+04
       340  26  7.032599E+05 -1.158992E+05 -1.168212E+04  8.761338E+03  8.077224E+04  1.355297E+04
       340  27  6.922027E+05  4.090971E+04  7.995497E+04  3.168988E+04  1.192416E+05  4.637547E+03
       341   1  1.024715E+06  4.097005E+06  1.046909E+06 -5.363130E+05  3.368429E+04  1.588070E+05
       341   2  6.499189E+05  3.156941E+06  7.141661E+05 -1.978815E+05  9.227709E+04  6.840085E+04
       341   3  4.426397E+05  2.272859E+06  4.821786E+05 -4.767629E+05  6.004723E+04 -2.219049E+04
       341   4  1.256477E+05  4.821049E+05  1.578805E+05 -4.865414E+05  3.385860E+04  1.009136E+05
       341   5 -1.656580E+04  4.592624E+05  7.443570E+04 -1.779980E+05  9.233308E+04  6.112523E+04
       341   6  4.339966E+02  4.831691E+05  5.705897E+04 -4.868904E+05  5.981901E+04  2.101701E+04
       341   7 -7.743794E+05 -3.120949E+06 -7.320968E+05 -4.370464E+05  3.402432E+04  4.335364E+04
       341   8 -6.835717E+05 -2.231757E+06 -5.658010E+05 -1.581939E+05  9.238876E+04  5.388049E+04
       341   9 -4.420002E+05 -1.303584E+06 -3.682770E+05 -4.969836E+05  5.958901E+04  6.410084E+04
       341  10  1.024707E+06  4.096978E+06  1.046860E+06 -5.363173E+05  4.997244E-10  8.506120E-11
       341  11  6.499085E+05  3.156934E+06  7.141414E+05 -1.978865E+05 -2.540171E-10 -1.395453E-10
       341  12  4.426357E+05  2.272858E+06  4.821709E+05 -4.767618E+05  1.649307E-09 -2.932622E-09
       341  13  1.256437E+05  4.820936E+05  1.578592E+05 -4.865441E+05  1.168573E-09 -4.283602E-11
       341  14 -1.657596E+04  4.592561E+05  7.441265E+04 -1.780026E+05 -2.006177E-09 -1.760717E-09
       341  15  4.300335E+02  4.831676E+05  5.705141E+04 -4.868914E+05  3.131879E-11 -8.280023E-09
       341  16 -7.743812E+05 -3.120952E+06 -7.321026E+05 -4.370476E+05  1.342816E-09 -7.241662E-11
       341  17 -6.835816E+05 -2.231762E+06 -5.658225E+05 -1.581979E+05  4.274546E-09 -2.553351E-10
       341  18 -4.420051E+05 -1.303590E+06 -3.682914E+05 -4.969866E+05 -1.503112E-09  2.671618E-11
       341  19  1.024715E+06  4.097005E+06  1.046909E+06 -5.363130E+05 -3.368429E+04 -1.588070E+05
       341  20  6.499189E+05  3.156941E+06  7.141661E+05 -1.978815E+05 -9.227709E+04 -6.840085E+04
       341  21  4.426397E+05  2.272859E+06  4.821786E+05 -4.767629E+05 -6.004723E+04  2.219049E+04
       341  22  1.256477E+05  4.821049E+05  1.578805E+05 -4.865414E+05 -3.385860E+04 -1.009136E+05
       341  23 -1.656580E+04  4.592624E+05  7.443570E+04 -1.779980E+05 -9.233308E+04 -6.112523E+04
       341  24  4.339966E+02  4.831691E+05  5.705897E+04 -4.868904E+05 -5.981901E+04 -2.101701E+04
       341  25 -7.743794E+05 -3.120949E+06 -7.320968E+05 -4.370464E+05 -3.402432E+04 -4.335364E+04
       341  26 -6.835717E+05 -2.231757E+06 -5.658010E+05 -1.581939E+05 -9.238876E+04 -5.388049E+04
       341  27 -4.420002E+05 -1.303584E+06 -3.682770E+05 -4.969836E+05 -5.958901E+04 -6.410084E+04
       342   1  1.842157E+05  1.155535E+06  2.144703E+05 -4.964785E+05  2.400800E+04 -6.463356E+03
       342   2 -5.871156E+04  2.442176E+05 -4.226336E+03 -1.761668E+05 -7.588913E+03 -3.166561E+04
       342   3 -2.552385E+05 -6.591665E+05 -1.967231E+05 -4.741303E+05 -3.851401E+04 -5.681340E+04
       342   4  1.587922E+04  4.751198E+05  5.312371E+04 -4.869438E+05  2.390415E+04  1.125338E+04
       342   5 -2.465012E+03  4.714606E+05  4.977211E+04 -1.777944E+05 -7.685492E+03 -1.432842E+04
       342   6  2.570380E+04  4.750293E+05  7.292672E+04 -4.868912E+05 -3.860515E+04 -3.989170E+04
       342   7 -1.524901E+05 -2.048702E+05 -1.082539E+05 -4.774187E+05  2.380078E+04  2.895082E+04
       342   8  5.377798E+04  6.987515E+05  1.037681E+05 -1.794226E+05 -7.782143E+03  3.015088E+03
       342   9  3.065541E+05  1.610407E+06  3.424877E+05 -4.996734E+05 -3.869689E+04 -2.293917E+04
       342  10  1.842151E+05  1.155535E+06  2.144692E+05 -4.964784E+05 -1.168382E-09  2.617910E-09
       342  11 -5.871189E+04  2.442165E+05 -4.228328E+03 -1.761670E+05  2.321583E-09  2.534374E-10
       342  12 -2.552410E+05 -6.591704E+05 -1.967319E+05 -4.741321E+05  7.417231E-11 -2.931639E-09
       342  13  1.587857E+04  4.751195E+05  5.312240E+04 -4.869440E+05 -1.538321E-09  6.064664E-11
       342  14 -2.465130E+03  4.714603E+05  4.977162E+04 -1.777945E+05  3.886410E-09 -2.970579E-09
       342  15  2.570178E+04  4.750272E+05  7.292092E+04 -4.868924E+05  5.000656E-09 -8.675972E-09
       342  16 -1.524909E+05 -2.048713E+05 -1.082566E+05 -4.774193E+05 -1.969919E-09 -2.430277E-09
       342  17  5.377791E+04  6.987515E+05  1.037680E+05 -1.794225E+05 -2.893140E-09 -1.755265E-09
       342  18  3.065523E+05  1.610406E+06  3.424839E+05 -4.996741E+05 -1.133481E-09  2.681564E-10
       342  19  1.842157E+05  1.155535E+06  2.144703E+05 -4.964785E+05 -2.400800E+04  6.463356E+03
       342  20 -5.871156E+04  2.442176E+05 -4.226336E+03 -1.761668E+05  7.588913E+03  3.166561E+04
       342  21 -2.552385E+05 -6.591665E+05 -1.967231E+05 -4.741303E+05  3.851401E+04  5.681340E+04
       342  22  1.587922E+04  4.751198E+05  5.312371E+04 -4.869438E+05 -2.390415E+04 -1.125338E+04
       342  23 -2.465012E+03  4.714606E+05  4.977211E+04 -1.777944E+05  7.685492E+03  1.432842E+04
       342  24  2.570380E+04  4.750293E+05  7.292672E+04 -4.868912E+05  3.860515E+04  3.989170E+04
       342  25 -1.524901E+05 -2.048702E+05 -1.082539E+05 -4.774187E+05 -2.380078E+04 -2.895082E+04
       342  26  5.377798E+04  6.987515E+05  1.037681E+05 -1.794226E+05  7.782143E+03 -3.015088E+03
       342  27  3.065541E+05  1.610407E+06  3.424877E+05 -4.996734E+05  3.869689E+04  2.293917E+04
       343   1 -5.612460E+05 -1.749967E+06 -4.477539E+05 -5.096625E+05 -7.558265E+04 -9.918116E+04
       343   2 -8.100256E+05 -2.696909E+06 -6.214331E+05 -1.483209E+05 -1.078506E+05 -1.118081E+05
       343   3 -7.883182E+05 -3.568339E+06 -7.182383E+05 -4.049956E+05 -3.892706E+04 -1.241375E+05
       343   4 -6.336182E+03  4.910942E+05  8.552302E+04 -4.870134E+05 -7.580440E+04 -5.370575E+04
       343   5 -3.014591E+04  4.484546E+05  1.271222E+05 -1.779019E+05 -1.077764E+05 -1.223014E+05
       343   6  2.255627E+05  4.898354E+05  2.841416E+05 -4.865425E+05 -3.878151E+04 -1.906226E+05
       343   7  5.482153E+05  2.736777E+06  6.184569E+05 -4.642744E+05 -7.602239E+04 -8.066367E+03
       343   8  7.490225E+05  3.602921E+06  8.749858E+05 -2.076255E+05 -1.077015E+05 -1.328465E+05
       343   9  1.238239E+06  4.563054E+06  1.285320E+06 -5.686136E+05 -3.861912E+04 -2.575403E+05
       343  10 -5.612548E+05 -1.749979E+06 -4.477832E+05 -5.096685E+05  1.353847E-09  1.134944E-09
       343  11 -8.100414E+05 -2.696926E+06 -6.214786E+05 -1.483306E+05  7.760138E-10  2.136837E-10
       343  12 -7.883239E+05 -3.568356E+06 -7.182703E+05 -4.049995E+05 -2.012022E-10 -1.401057E-09
       343  13 -6.343132E+03  4.910895E+05  8.550679E+04 -4.870167E+05 -2.341019E-09  1.233992E-10
       343  14 -3.016240E+04  4.484355E+05  1.270722E+05 -1.779125E+05  1.597343E-09 -1.668338E-09
       343  15  2.255514E+05  4.897960E+05  2.840705E+05 -4.865485E+05 -3.267791E-10 -1.584816E-09
       343  16  5.482091E+05  2.736776E+06  6.184459E+05 -4.642749E+05  1.126156E-09 -1.226013E-09
       343  17  7.490053E+05  3.602899E+06  8.749310E+05 -2.076370E+05  6.228431E-10 -1.359941E-09
       343  18  1.238220E+06  4.562983E+06  1.285194E+06 -5.686216E+05 -4.466692E-10  9.011791E-10
       343  19 -5.612460E+05 -1.749967E+06 -4.477539E+05 -5.096625E+05  7.558265E+04  9.918116E+04
       343  20 -8.100256E+05 -2.696909E+06 -6.214331E+05 -1.483209E+05  1.078506E+05  1.118081E+05
       343  21 -7.883182E+05 -3.568339E+06 -7.182383E+05 -4.049956E+05  3.892706E+04  1.241375E+05
       343  22 -6.336182E+03  4.910942E+05  8.552302E+04 -4.870134E+05  7.580440E+04  5.370575E+04
       343  23 -3.014591E+04  4.484546E+05  1.271222E+05 -1.779019E+05  1.077764E+05  1.223014E+05
       343  24  2.255627E+05  4.898354E+05  2.841416E+05 -4.865425E+05  3.878151E+04  1.906226E+05
       343  25  5.482153E+05  2.736777E+06  6.184569E+05 -4.642744E+05  7.602239E+04  8.066367E+03
       343  26  7.490225E+05  3.602921E+06  8.749858E+05 -2.076255E+05  1.077015E+05  1.328465E+05
       343  27  1.238239E+06  4.563054E+06  1.285320E+06 -5.686136E+05  3.861912E+04  2.575403E+05
       344   1 -1.547202E+06 -6.536475E+05 -3.480625E+05 -6.401423E+05 -1.694493E+05 -5.273640E+04
       344   2 -1.480077E+06 -4.682393E+05 -2.049172E+05 -6.087299E+05 -1.053256E+05 -3.676494E+03
       344   3 -1.444330E+06 -3.840833E+05 -1.399874E+05 -5.698510E+05 -3.465179E+04  2.803091E+04
       344   4 -9.395589E+05 -3.352689E+05 -1.744838E+05 -3.810648E+05 -1.167798E+05 -3.295361E+04
       344   5 -9.173096E+05 -2.204829E+05 -8.143376E+04 -4.100198E+05 -8.260265E+04  4.857963E+03
       344   6 -9.204613E+05 -2.009675E+05 -4.278991E+04 -4.315231E+05 -4.188825E+04  2.530735E+04
       344   7 -3.315179E+05 -1.674130E+04 -9.233808E+02 -1.217170E+05 -6.405331E+04 -1.313005E+04
       344   8 -3.542054E+05  2.734498E+04  4.203509E+04 -2.111272E+05 -5.985740E+04  1.340464E+04
       344   9 -3.963055E+05 -1.783162E+04  5.439727E+04 -2.930886E+05 -4.913125E+04  2.258154E+04
       344  10 -1.547233E+06 -6.536582E+05 -3.481218E+05 -6.401495E+05 -3.272654E-10  4.389839E-10
       344  11 -1.480089E+06 -4.682423E+05 -2.049381E+05 -6.087302E+05 -3.298657E-12  3.238579E-10
       344  12 -1.444331E+06 -3.840845E+05 -1.399911E+05 -5.698503E+05  2.119754E-10  4.833300E-11
       344  13 -9.395738E+05 -3.352738E+05 -1.745115E+05 -3.810679E+05  1.147082E-10  8.826176E-11
       344  14 -9.173169E+05 -2.204847E+05 -8.144664E+04 -4.100195E+05  1.183051E-10 -6.872547E-10
       344  15 -9.204634E+05 -2.009687E+05 -4.279442E+04 -4.315223E+05 -5.899376E-10 -8.995419E-10
       344  16 -3.315223E+05 -1.674259E+04 -9.314196E+02 -1.217176E+05 -7.032556E-10 -1.107360E-09
       344  17 -3.542093E+05  2.734382E+04  4.202802E+04 -2.111266E+05 -4.092840E-10 -7.418999E-10
       344  18 -3.963082E+05 -1.783281E+04  5.439177E+04 -2.930877E+05  1.617569E-10  2.346752E-11
       344  19 -1.547202E+06 -6.536475E+05 -3.480625E+05 -6.401423E+05  1.694493E+05  5.273640E+04
       344  20 -1.480077E+06 -4.682393E+05 -2.049172E+05 -6.087299E+05  1.053256E+05  3.676494E+03
       344  21 -1.444330E+06 -3.840833E+05 -1.399874E+05 -5.698510E+05  3.465179E+04 -2.803091E+04
       344  22 -9.395589E+05 -3.352689E+05 -1.744838E+05 -3.810648E+05  1.167798E+05  3.295361E+04
       344  23 -9.173096E+05 -2.204829E+05 -8.143376E+04 -4.100198E+05  8.260265E+04 -4.857963E+03
       344  24 -9.204613E+05 -2.009675E+05 -4.278991E+04 -4.315231E+05  4.188825E+04 -2.530735E+04
       344  25 -3.315179E+05 -1.674130E+04 -9.233808E+02 -1.217170E+05  6.405331E+04  1.313005E+04
       344  26 -3.542054E+05  2.734498E+04  4.203509E+04 -2.111272E+05  5.985740E+04 -1.340464E+04
       344  27 -3.963055E+05 -1.783162E+04  5.439727E+04 -2.930886E+05  4.913125E+04 -2.258154E+04
       345   1 -1.380910E+06 -3.739359E+05 -1.188927E+05 -5.620241E+05 -3.086567E+04  2.631151E+04
       345   2 -1.309408E+06 -3.322481E+05 -8.708996E+04 -5.336227E+05 -1.828382E+04  2.676203E+04
       345   3 -1.228858E+06 -3.081329E+05 -6.497384E+04 -5.185261E+05 -5.123996E+03  2.567508E+04
       345   4 -9.152851E+05 -2.019589E+05 -3.219558E+04 -4.292213E+05 -3.602361E+04  2.436981E+04
       345   5 -9.195887E+05 -1.901154E+05 -1.692913E+04 -4.238099E+05 -2.609107E+04  2.382596E+04
       345   6 -9.143208E+05 -1.953165E+05 -9.241578E+03 -4.317056E+05 -1.558212E+04  2.174460E+04
       345   7 -4.494371E+05 -2.996130E+04  5.449206E+04 -2.963261E+05 -4.118563E+04  2.242650E+04
       345   8 -5.296088E+05 -4.796761E+04  5.322678E+04 -3.139325E+05 -3.390356E+04  2.088790E+04
       345   9 -5.996759E+05 -8.248968E+04  4.648882E+04 -3.448432E+05 -2.604600E+04  1.781198E+04
       345  10 -1.380911E+06 -3.739369E+05 -1.188958E+05 -5.620235E+05 -1.509326E-09 -3.928593E-11
       345  11 -1.309409E+06 -3.322490E+05 -8.709194E+04 -5.336223E+05 -1.063266E-09  6.691457E-10
       345  12 -1.228858E+06 -3.081336E+05 -6.497513E+04 -5.185260E+05  9.744504E-10  8.407452E-10
       345  13 -9.152866E+05 -2.019598E+05 -3.219914E+04 -4.292206E+05 -8.238880E-10  6.101665E-10
       345  14 -9.195896E+05 -1.901162E+05 -1.693147E+04 -4.238094E+05  7.262661E-12 -1.620579E-10
       345  15 -9.143212E+05 -1.953170E+05 -9.242922E+03 -4.317053E+05 -1.686890E-10 -3.606965E-10
       345  16 -4.494391E+05 -2.996230E+04  5.448793E+04 -2.963254E+05  1.133348E-09  1.386025E-09
       345  17 -5.296101E+05 -4.796839E+04  5.322380E+04 -3.139319E+05 -7.147834E-10  1.331830E-09
       345  18 -5.996767E+05 -8.249020E+04  4.648695E+04 -3.448428E+05 -7.852167E-10 -4.888201E-10
       345  19 -1.380910E+06 -3.739359E+05 -1.188927E+05 -5.620241E+05  3.086567E+04 -2.631151E+04
       345  20 -1.309408E+06 -3.322481E+05 -8.708996E+04 -5.336227E+05  1.828382E+04 -2.676203E+04
       345  21 -1.228858E+06 -3.081329E+05 -6.497384E+04 -5.185261E+05  5.123996E+03 -2.567508E+04
       345  22 -9.152851E+05 -2.019589E+05 -3.219558E+04 -4.292213E+05  3.602361E+04 -2.436981E+04
       345  23 -9.195887E+05 -1.901154E+05 -1.692913E+04 -4.238099E+05  2.609107E+04 -2.382596E+04
       345  24 -9.143208E+05 -1.953165E+05 -9.241578E+03 -4.317056E+05  1.558212E+04 -2.174460E+04
       345  25 -4.494371E+05 -2.996130E+04  5.449206E+04 -2.963261E+05  4.118563E+04 -2.242650E+04
       345  26 -5.296088E+05 -4.796761E+04  5.322678E+04 -3.139325E+05  3.390356E+04 -2.088790E+04
       345  27 -5.996759E+05 -8.248968E+04  4.648882E+04 -3.448432E+05  2.604600E+04 -1.781198E+04
       346   1 -1.177923E+06 -2.905348E+05 -5.340004E+04 -5.049507E+05 -2.690139E+03  2.253555E+04
       346   2 -1.106831E+06 -2.562448E+05 -3.667827E+04 -4.763729E+05  1.711361E+03  1.732007E+04
       346   3 -1.023644E+06 -2.347321E+05 -2.162207E+04 -4.620636E+05  6.163891E+03  1.196660E+04
       346   4 -9.138918E+05 -1.954037E+05 -6.941559E+03 -4.315235E+05 -1.297048E+04  1.867264E+04
       346   5 -9.199399E+05 -1.889379E+05 -3.813153E+03 -4.244235E+05 -8.806970E+03  1.336864E+04
       346   6 -9.138520E+05 -1.952023E+05 -2.161234E+03 -4.315940E+05 -4.592725E+03  7.926592E+03
       346   7 -6.497866E+05 -1.002659E+05  3.951516E+04 -3.580670E+05 -2.325549E+04  1.480799E+04
       346   8 -7.330126E+05 -1.216281E+05  2.905107E+04 -3.724597E+05 -1.932862E+04  9.415974E+03
       346   9 -8.040483E+05 -1.556718E+05  1.729939E+04 -4.011196E+05 -1.535126E+04  3.885868E+03
       346  10 -1.177923E+06 -2.905353E+05 -5.340101E+04 -5.049507E+05 -1.599145E-09 -1.722518E-10
       346  11 -1.106831E+06 -2.562451E+05 -3.667884E+04 -4.763729E+05  7.739465E-10 -2.044374E-10
       346  12 -1.023644E+06 -2.347322E+05 -2.162241E+04 -4.620636E+05  1.867234E-09  4.414452E-10
       346  13 -9.138920E+05 -1.954041E+05 -6.942529E+03 -4.315233E+05 -7.763239E-11 -8.609649E-10
       346  14 -9.199400E+05 -1.889381E+05 -3.813634E+03 -4.244234E+05 -6.612192E-10 -5.349380E-10
       346  15 -9.138521E+05 -1.952024E+05 -2.161391E+03 -4.315940E+05  5.686527E-10 -1.375088E-09
       346  16 -6.497873E+05 -1.002662E+05  3.951373E+04 -3.580667E+05  1.979230E-09 -5.394408E-10
       346  17 -7.330131E+05 -1.216283E+05  2.905020E+04 -3.724596E+05 -6.170565E-10 -1.659523E-09
       346  18 -8.040486E+05 -1.556719E+05  1.729892E+04 -4.011196E+05 -1.114319E-09 -2.442298E-09
       346  19 -1.177923E+06 -2.905348E+05 -5.340004E+04 -5.049507E+05  2.690139E+03 -2.253555E+04
       346  20 -1.106831E+06 -2.562448E+05 -3.667827E+04 -4.763729E+05 -1.711361E+03 -1.732007E+04
       346  21 -1.023644E+06 -2.347321E+05 -2.162207E+04 -4.620636E+05 -6.163891E+03 -1.196660E+04
       346  22 -9.138918E+05 -1.954037E+05 -6.941559E+03 -4.315235E+05  1.297048E+04 -1.867264E+04
       346  23 -9.199399E+05 -1.889379E+05 -3.813153E+03 -4.244235E+05  8.806970E+03 -1.336864E+04
       346  24 -9.138520E+05 -1.952023E+05 -2.161234E+03 -4.315940E+05  4.592725E+03 -7.926592E+03
       346  25 -6.497866E+05 -1.002659E+05  3.951516E+04 -3.580670E+05  2.325549E+04 -1.480799E+04
       346  26 -7.330126E+05 -1.216281E+05  2.905107E+04 -3.724597E+05  1.932862E+04 -9.415974E+03
       346  27 -8.040483E+05 -1.556718E+05  1.729939E+04 -4.011196E+05  1.535126E+04 -3.885868E+03
       347   1 -9.735141E+05 -2.166432E+05 -1.195648E+04 -4.481456E+05  7.829122E+03  8.454228E+03
       347   2 -9.025505E+05 -1.826148E+05  1.981354E+03 -4.194875E+05  1.071810E+04  2.439494E+03
       347   3 -8.191766E+05 -1.610838E+05  1.550655E+04 -4.051095E+05  1.361101E+04 -3.585343E+03
       347   4 -9.137997E+05 -1.952135E+05 -1.672557E+03 -4.315725E+05 -2.913568E+03  4.419691E+03
       347   5 -9.200044E+05 -1.889774E+05 -1.072239E+03 -4.244266E+05 -4.284876E+01 -1.602013E+03
       347   6 -9.138033E+05 -1.952367E+05 -8.709596E+02 -4.315639E+05  2.831722E+03 -7.633831E+03
       347   7 -8.540807E+05 -1.737831E+05  8.611934E+03 -4.149975E+05 -1.365747E+04  3.847034E+02
       347   8 -9.374578E+05 -1.953399E+05 -4.125370E+03 -4.293654E+05 -1.080353E+04 -5.643418E+03
       347   9 -1.008420E+06 -2.293886E+05 -1.724824E+04 -4.580144E+05 -7.945823E+03 -1.168166E+04
       347  10 -9.735142E+05 -2.166433E+05 -1.195673E+04 -4.481457E+05 -1.073287E-08 -4.593921E-09
       347  11 -9.025506E+05 -1.826148E+05  1.981126E+03 -4.194876E+05  2.022016E-08  7.008980E-09
       347  12 -8.191768E+05 -1.610839E+05  1.550618E+04 -4.051095E+05  4.375325E-08  1.808300E-08
       347  13 -9.137997E+05 -1.952135E+05 -1.672610E+03 -4.315724E+05  4.998653E-10 -1.083191E-09
       347  14 -9.200044E+05 -1.889774E+05 -1.072244E+03 -4.244266E+05  6.376654E-10 -3.382358E-10
       347  15 -9.138034E+05 -1.952367E+05 -8.710841E+02 -4.315639E+05 -1.685054E-09  9.665790E-10
       347  16 -8.540809E+05 -1.737831E+05  8.611583E+03 -4.149975E+05  1.132887E-08  2.445307E-09
       347  17 -9.374580E+05 -1.953400E+05 -4.125650E+03 -4.293655E+05 -2.053740E-08 -6.762188E-09
       347  18 -1.008420E+06 -2.293887E+05 -1.724862E+04 -4.580145E+05 -4.892065E-08 -1.656464E-08
       347  19 -9.735141E+05 -2.166432E+05 -1.195648E+04 -4.481456E+05 -7.829122E+03 -8.454228E+03
       347  20 -9.025505E+05 -1.826148E+05  1.981354E+03 -4.194875E+05 -1.071810E+04 -2.439494E+03
       347  21 -8.191766E+05 -1.610838E+05  1.550655E+04 -4.051095E+05 -1.361101E+04  3.585343E+03
       347  22 -9.137997E+05 -1.952135E+05 -1.672557E+03 -4.315725E+05  2.913568E+03 -4.419691E+03
       347  23 -9.200044E+05 -1.889774E+05 -1.072239E+03 -4.244266E+05  4.284876E+01  1.602013E+03
       347  24 -9.138033E+05 -1.952367E+05 -8.709596E+02 -4.315639E+05 -2.831722E+03  7.633831E+03
       347  25 -8.540807E+05 -1.737831E+05  8.611934E+03 -4.149975E+05  1.365747E+04 -3.847034E+02
       347  26 -9.374578E+05 -1.953399E+05 -4.125370E+03 -4.293654E+05  1.080353E+04  5.643418E+03
       347  27 -1.008420E+06 -2.293886E+05 -1.724824E+04 -4.580144E+05  7.945823E+03  1.168166E+04
       348   1 -7.691428E+05 -1.429605E+05  2.465531E+04 -3.911749E+05  1.512022E+04 -7.161349E+03
       348   2 -6.982306E+05 -1.089450E+05  3.768876E+04 -3.625340E+05  1.800929E+04 -1.318084E+04
       348   3 -6.149117E+05 -8.741085E+04  5.031364E+04 -3.481614E+05  2.089257E+04 -1.918169E+04
       348   4 -9.138093E+05 -1.952379E+05 -8.877062E+02 -4.315614E+05  4.342508E+03 -1.120958E+04
       348   5 -9.200124E+05 -1.889957E+05 -1.166947E+03 -4.244278E+05  7.262513E+03 -1.721849E+04
       348   6 -9.138209E+05 -1.952414E+05 -1.879435E+03 -4.315650E+05  1.017667E+04 -2.320883E+04
       348   7 -1.058452E+06 -2.475127E+05 -2.643049E+04 -4.719386E+05 -6.432424E+03 -1.525676E+04
       348   8 -1.141742E+06 -2.690414E+05 -4.002368E+04 -4.863008E+05 -3.480175E+03 -2.125461E+04
       348   9 -1.212638E+06 -3.030644E+05 -5.407557E+04 -5.149317E+05 -5.338344E+02 -2.723394E+04
       348  10 -7.691431E+05 -1.429606E+05  2.465479E+04 -3.911748E+05 -5.120051E-08 -1.655607E-08
       348  11 -6.982310E+05 -1.089453E+05  3.768783E+04 -3.625338E+05 -2.248109E-08 -4.489207E-09
       348  12 -6.149123E+05 -8.741136E+04  5.031213E+04 -3.481611E+05  1.142755E-08  3.873387E-09
       348  13 -9.138094E+05 -1.952381E+05 -8.879776E+02 -4.315614E+05 -2.468386E-09  1.678014E-09
       348  14 -9.200126E+05 -1.889960E+05 -1.167603E+03 -4.244277E+05  1.517886E-09  9.690204E-10
       348  15 -9.138211E+05 -1.952420E+05 -1.880641E+03 -4.315648E+05  1.889216E-10 -6.559297E-10
       348  16 -1.058452E+06 -2.475130E+05 -2.643101E+04 -4.719387E+05  4.504806E-08  1.947466E-08
       348  17 -1.141742E+06 -2.690419E+05 -4.002455E+04 -4.863008E+05  1.989697E-08  8.480473E-09
       348  18 -1.212638E+06 -3.030652E+05 -5.407697E+04 -5.149317E+05 -1.057849E-08 -3.870719E-09
       348  19 -7.691428E+05 -1.429605E+05  2.465531E+04 -3.911749E+05 -1.512022E+04  7.161349E+03
       348  20 -6.982306E+05 -1.089450E+05  3.768876E+04 -3.625340E+05 -1.800929E+04  1.318084E+04
       348  21 -6.149117E+05 -8.741085E+04  5.031364E+04 -3.481614E+05 -2.089257E+04  1.918169E+04
       348  22 -9.138093E+05 -1.952379E+05 -8.877062E+02 -4.315614E+05 -4.342508E+03  1.120958E+04
       348  23 -9.200124E+05 -1.889957E+05 -1.166947E+03 -4.244278E+05 -7.262513E+03  1.721849E+04
       348  24 -9.138209E+05 -1.952414E+05 -1.879435E+03 -4.315650E+05 -1.017667E+04  2.320883E+04
       348  25 -1.058452E+06 -2.475127E+05 -2.643049E+04 -4.719386E+05  6.432424E+03  1.525676E+04
       348  26 -1.141742E+06 -2.690414E+05 -4.002368E+04 -4.863008E+05  3.480175E+03  2.125461E+04
       348  27 -1.212638E+06 -3.030644E+05 -5.407557E+04 -5.149317E+05  5.338344E+02  2.723394E+04
       349   1 -5.649680E+05 -6.932509E+04  5.891114E+04 -3.342946E+05  2.262525E+04 -2.265818E+04
       349   2 -4.941013E+05 -3.534977E+04  7.041472E+04 -3.056755E+05  2.676873E+04 -2.807693E+04
       349   3 -4.110920E+05 -1.404856E+04  8.049465E+04 -2.912836E+05  3.084399E+04 -3.330779E+04
       349   4 -9.138903E+05 -1.952315E+05 -2.445798E+03 -4.315839E+05  1.189423E+04 -2.669192E+04
       349   5 -9.199579E+05 -1.889911E+05 -4.345544E+03 -4.244257E+05  1.635979E+04 -3.199165E+04
       349   6 -9.139527E+05 -1.954901E+05 -7.925204E+03 -4.314982E+05  2.075685E+04 -3.710348E+04
       349   7 -1.262683E+06 -3.211261E+05 -6.380603E+04 -5.288219E+05  1.169648E+03 -3.072326E+04
       349   8 -1.345620E+06 -3.426140E+05 -7.911036E+04 -5.430992E+05  5.958514E+03 -3.590349E+04
       349   9 -1.416540E+06 -3.769053E+05 -9.635110E+04 -5.716052E+05  1.067852E+04 -4.089587E+04
       349  10 -5.649687E+05 -6.932578E+04  5.890922E+04 -3.342942E+05  1.254377E-09 -1.745845E-09
       349  11 -4.941023E+05 -3.535081E+04  7.041189E+04 -3.056749E+05 -8.635720E-09 -2.706313E-09
       349  12 -4.110934E+05 -1.405001E+04  8.049078E+04 -2.912828E+05 -7.925043E-09 -3.009362E-09
       349  13 -9.138906E+05 -1.952323E+05 -2.447401E+03 -4.315836E+05 -2.249676E-09 -1.362273E-09
       349  14 -9.199585E+05 -1.889923E+05 -4.347969E+03 -4.244253E+05 -8.908938E-09 -9.142788E-10
       349  15 -9.139535E+05 -1.954917E+05 -7.928599E+03 -4.314976E+05 -2.427229E-09 -2.709189E-09
       349  16 -1.262684E+06 -3.211271E+05 -6.380780E+04 -5.288219E+05 -5.813239E-09 -1.735569E-09
       349  17 -1.345620E+06 -3.426154E+05 -7.911285E+04 -5.430990E+05 -5.265275E-09 -2.721905E-09
       349  18 -1.416541E+06 -3.769071E+05 -9.635445E+04 -5.716048E+05  2.537634E-09  1.823485E-09
       349  19 -5.649680E+05 -6.932509E+04  5.891114E+04 -3.342946E+05 -2.262525E+04  2.265818E+04
       349  20 -4.941013E+05 -3.534977E+04  7.041472E+04 -3.056755E+05 -2.676873E+04  2.807693E+04
       349  21 -4.110920E+05 -1.404856E+04  8.049465E+04 -2.912836E+05 -3.084399E+04  3.330779E+04
       349  22 -9.138903E+05 -1.952315E+05 -2.445798E+03 -4.315839E+05 -1.189423E+04  2.669192E+04
       349  23 -9.199579E+05 -1.889911E+05 -4.345544E+03 -4.244257E+05 -1.635979E+04  3.199165E+04
       349  24 -9.139527E+05 -1.954901E+05 -7.925204E+03 -4.314982E+05 -2.075685E+04  3.710348E+04
       349  25 -1.262683E+06 -3.211261E+05 -6.380603E+04 -5.288219E+05 -1.169648E+03  3.072326E+04
       349  26 -1.345620E+06 -3.426140E+05 -7.911036E+04 -5.430992E+05 -5.958514E+03  3.590349E+04
       349  27 -1.416540E+06 -3.769053E+05 -9.635110E+04 -5.716052E+05 -1.067852E+04  4.089587E+04
       350   1 -3.611203E+05  3.651512E+03  8.715104E+04 -2.781648E+05  3.386108E+04 -3.618263E+04
       350   2 -2.915028E+05  3.815483E+04  9.312379E+04 -2.470405E+05  4.190108E+04 -3.879356E+04
       350   3 -2.120504E+05  5.574329E+04  9.327122E+04 -2.289957E+05  4.916874E+04 -3.934260E+04
       350   4 -9.144484E+05 -1.953876E+05 -1.055289E+04 -4.316940E+05  2.353732E+04 -4.006870E+04
       350   5 -9.195679E+05 -1.903787E+05 -1.934060E+04 -4.237308E+05  3.513245E+04 -4.134526E+04
       350   6 -9.155678E+05 -2.029962E+05 -3.677971E+04 -4.288517E+05  4.595400E+04 -4.055910E+04
       350   7 -1.467459E+06 -3.944000E+05 -1.082677E+05 -5.850972E+05  1.322327E+04 -4.395116E+04
       350   8 -1.547220E+06 -4.188745E+05 -1.318190E+05 -6.002547E+05  2.837109E+04 -4.389421E+04
       350   9 -1.618566E+06 -4.616858E+05 -1.668493E+05 -6.284954E+05  4.274314E+04 -4.177410E+04
       350  10 -3.611219E+05  3.649799E+03  8.714642E+04 -2.781638E+05 -2.065297E-09  2.290802E-10
       350  11 -2.915051E+05  3.815274E+04  9.311766E+04 -2.470392E+05 -3.820484E-10  4.476836E-10
       350  12 -2.120534E+05  5.574098E+04  9.326377E+04 -2.289942E+05 -1.381433E-09 -1.671363E-09
       350  13 -9.144495E+05 -1.953895E+05 -1.055695E+04 -4.316932E+05 -8.270298E-10  6.338575E-11
       350  14 -9.195697E+05 -1.903809E+05 -1.934613E+04 -4.237296E+05 -8.031259E-10  1.104611E-09
       350  15 -9.155705E+05 -2.029986E+05 -3.678677E+04 -4.288502E+05 -1.060659E-09  6.427048E-10
       350  16 -1.467459E+06 -3.944021E+05 -1.082717E+05 -5.850967E+05  1.244780E-09  1.763456E-09
       350  17 -1.547221E+06 -4.188768E+05 -1.318241E+05 -6.002537E+05 -3.974467E-10  3.050117E-09
       350  18 -1.618568E+06 -4.616882E+05 -1.668560E+05 -6.284940E+05  2.383893E-09  1.308013E-09
       350  19 -3.611203E+05  3.651512E+03  8.715104E+04 -2.781648E+05 -3.386108E+04  3.618263E+04
       350  20 -2.915028E+05  3.815483E+04  9.312379E+04 -2.470405E+05 -4.190108E+04  3.879356E+04
       350  21 -2.120504E+05  5.574329E+04  9.327122E+04 -2.289957E+05 -4.916874E+04  3.934260E+04
       350  22 -9.144484E+05 -1.953876E+05 -1.055289E+04 -4.316940E+05 -2.353732E+04  4.006870E+04
       350  23 -9.195679E+05 -1.903787E+05 -1.934060E+04 -4.237308E+05 -3.513245E+04  4.134526E+04
       350  24 -9.155678E+05 -2.029962E+05 -3.677971E+04 -4.288517E+05 -4.595400E+04  4.055910E+04
       350  25 -1.467459E+06 -3.944000E+05 -1.082677E+05 -5.850972E+05 -1.322327E+04  4.395116E+04
       350  26 -1.547220E+06 -4.188745E+05 -1.318190E+05 -6.002547E+05 -2.837109E+04  4.389421E+04
       350  27 -1.618566E+06 -4.616858E+05 -1.668493E+05 -6.284954E+05 -4.274314E+04  4.177410E+04
       351   1 -1.585498E+05  6.710103E+04  9.208968E+04 -2.272225E+05  5.839361E+04 -3.865742E+04
       351   2 -1.213269E+05  1.139820E+05  7.858409E+04 -1.382176E+05  6.357066E+04 -2.736603E+04
       351   3 -1.070960E+05  6.216218E+04  3.485110E+04 -3.836036E+04  5.998449E+04  7.182090E+03
       351   4 -9.215203E+05 -2.018296E+05 -4.888172E+04 -4.314355E+05  5.238967E+04 -4.092391E+04
       351   5 -9.169438E+05 -2.251244E+05 -9.303116E+04 -4.080256E+05  9.775638E+04 -1.450395E+04
       351   6 -9.433891E+05 -3.551820E+05 -1.993227E+05 -3.737573E+05  1.343499E+05  3.518468E+04
       351   7 -1.683881E+06 -4.707145E+05 -1.898747E+05 -6.354183E+05  4.639361E+04 -4.318764E+04
       351   8 -1.711885E+06 -5.641043E+05 -2.646728E+05 -6.774865E+05  1.318945E+05 -1.666392E+03
       351   9 -1.778931E+06 -7.722881E+05 -4.335273E+05 -7.086774E+05  2.086038E+05  6.311409E+04
       351  10 -1.585539E+05  6.709851E+04  9.208046E+04 -2.272207E+05 -5.660070E-08 -2.349695E-08
       351  11 -1.213315E+05  1.139802E+05  7.857508E+04 -1.382162E+05 -1.361759E-08 -3.670147E-09
       351  12 -1.070998E+05  6.216116E+04  3.484424E+04 -3.836070E+04  4.315977E-08  1.715168E-08
       351  13 -9.215237E+05 -2.018321E+05 -4.889002E+04 -4.314338E+05 -4.890072E-09 -4.226684E-09
       351  14 -9.169541E+05 -2.251272E+05 -9.304953E+04 -4.080245E+05 -1.063949E-08 -6.460700E-09
       351  15 -9.434089E+05 -3.551882E+05 -1.993590E+05 -3.737611E+05 -4.095641E-09  2.610594E-10
       351  16 -1.683883E+06 -4.707171E+05 -1.898823E+05 -6.354167E+05  4.774711E-08  1.917488E-08
       351  17 -1.711904E+06 -5.641090E+05 -2.647056E+05 -6.774863E+05 -7.591539E-09 -5.899729E-10
       351  18 -1.778979E+06 -7.723042E+05 -4.336169E+05 -7.086881E+05 -5.369488E-08 -1.936192E-08
       351  19 -1.585498E+05  6.710103E+04  9.208968E+04 -2.272225E+05 -5.839361E+04  3.865742E+04
       351  20 -1.213269E+05  1.139820E+05  7.858409E+04 -1.382176E+05 -6.357066E+04  2.736603E+04
       351  21 -1.070960E+05  6.216218E+04  3.485110E+04 -3.836036E+04 -5.998449E+04 -7.182090E+03
       351  22 -9.215203E+05 -2.018296E+05 -4.888172E+04 -4.314355E+05 -5.238967E+04  4.092391E+04
       351  23 -9.169438E+05 -2.251244E+05 -9.303116E+04 -4.080256E+05 -9.775638E+04  1.450395E+04
       351  24 -9.433891E+05 -3.551820E+05 -1.993227E+05 -3.737573E+05 -1.343499E+05 -3.518468E+04
       351  25 -1.683881E+06 -4.707145E+05 -1.898747E+05 -6.354183E+05 -4.639361E+04  4.318764E+04
       351  26 -1.711885E+06 -5.641043E+05 -2.646728E+05 -6.774865E+05 -1.318945E+05  1.666392E+03
       351  27 -1.778931E+06 -7.722881E+05 -4.335273E+05 -7.086774E+05 -2.086038E+05 -6.311409E+04
       352   1 -2.500471E+05 -3.571488E+04 -7.713676E+04 -3.847874E+04 -1.257197E+05 -5.321390E+03
       352   2 -2.524151E+05  1.328665E+05  2.203126E+04 -1.082107E+04 -8.520985E+04 -1.582422E+04
       352   3 -3.066523E+05  1.145781E+05  4.814972E+04  3.585471E+04 -4.472063E+04 -1.523293E+04
       352   4 -7.353332E+05 -1.565454E+05 -1.966402E+05  1.388856E+04 -1.345332E+05 -5.345588E+03
       352   5 -7.088178E+05  1.990153E+04 -8.648417E+04  4.246668E+03 -8.793577E+04 -1.583190E+04
       352   6 -7.352729E+05  8.341526E+03 -5.364853E+04  1.362425E+04 -4.135660E+04 -1.522534E+04
       352   7 -1.220399E+06 -2.773829E+05 -3.161592E+05  6.621477E+04 -1.433398E+05 -5.371286E+03
       352   8 -1.165029E+06 -9.307756E+04 -1.950140E+05  1.930319E+04 -9.065968E+04 -1.583971E+04
       352   9 -1.163724E+06 -9.790643E+04 -1.554593E+05 -8.590868E+03 -3.799486E+04 -1.521799E+04
       352  10 -2.500641E+05 -3.571916E+04 -7.716652E+04 -3.847928E+04 -1.444427E-10  4.979837E-10
       352  11 -2.524229E+05  1.328643E+05  2.201714E+04 -1.082216E+04  1.621377E-10 -1.515487E-09
       352  12 -3.066546E+05  1.145773E+05  4.814552E+04  3.585416E+04  2.601378E-09 -3.863573E-09
       352  13 -7.353527E+05 -1.565503E+05 -1.966743E+05  1.388798E+04 -5.191224E-10  2.043143E-09
       352  14 -7.088262E+05  1.989918E+04 -8.649919E+04  4.245546E+03 -1.076058E-09  1.015488E-10
       352  15 -7.352748E+05  8.340818E+03 -5.365218E+04  1.362374E+04 -8.730175E-10 -2.124888E-10
       352  16 -1.220421E+06 -2.773885E+05 -3.161980E+05  6.621415E+04  1.527536E-10  9.072264E-10
       352  17 -1.165038E+06 -9.308004E+04 -1.950300E+05  1.930203E+04 -5.565395E-10 -3.640294E-09
       352  18 -1.163725E+06 -9.790707E+04 -1.554625E+05 -8.591334E+03 -6.403097E-10 -5.078978E-09
       352  19 -2.500471E+05 -3.571488E+04 -7.713676E+04 -3.847874E+04  1.257197E+05  5.321390E+03
       352  20 -2.524151E+05  1.328665E+05  2.203126E+04 -1.082107E+04  8.520985E+04  1.582422E+04
       352  21 -3.066523E+05  1.145781E+05  4.814972E+04  3.585471E+04  4.472063E+04  1.523293E+04
       352  22 -7.353332E+05 -1.565454E+05 -1.966402E+05  1.388856E+04  1.345332E+05  5.345588E+03
       352  23 -7.088178E+05  1.990153E+04 -8.648417E+04  4.246668E+03  8.793577E+04  1.583190E+04
       352  24 -7.352729E+05  8.341526E+03 -5.364853E+04  1.362425E+04  4.135660E+04  1.522534E+04
       352  25 -1.220399E+06 -2.773829E+05 -3.161592E+05  6.621477E+04  1.433398E+05  5.371286E+03
       352  26 -1.165029E+06 -9.307756E+04 -1.950140E+05  1.930319E+04  9.065968E+04  1.583971E+04
       352  27 -1.163724E+06 -9.790643E+04 -1.554593E+05 -8.590868E+03  3.799486E+04  1.521799E+04
       353   1 -3.312663E+05  8.220385E+04  5.015529E+04  9.960994E+03 -3.318016E+04 -1.298684E+04
       353   2 -3.574476E+05  9.228293E+04  6.424455E+04  3.432310E+03 -2.214195E+04 -1.251530E+04
       353   3 -3.896648E+05  8.392901E+04  6.654007E+04  1.682063E+04 -1.110646E+04 -1.128477E+04
       353   4 -7.248653E+05 -1.530131E+04 -4.365596E+04  1.393218E+04 -3.312809E+04 -1.298752E+04
       353   5 -7.218027E+05  2.041835E+03 -2.241815E+04  3.955328E+03 -2.167768E+04 -1.251475E+04
       353   6 -7.248521E+05  8.741672E+02 -1.326587E+04  1.389633E+04 -1.022946E+04 -1.128292E+04
       353   7 -1.118322E+06 -1.128176E+05 -1.374781E+05  1.790076E+04 -3.307606E+04 -1.298820E+04
       353   8 -1.086036E+06 -8.820884E+04 -1.090901E+05  4.477966E+03 -2.121368E+04 -1.251420E+04
       353   9 -1.059936E+06 -8.218877E+04 -9.307967E+04  1.097355E+04 -9.352924E+03 -1.128107E+04
       353  10 -3.312675E+05  8.220337E+04  5.015290E+04  9.960646E+03 -2.443655E-09 -5.969200E-09
       353  11 -3.574482E+05  9.228263E+04  6.424333E+04  3.432087E+03 -2.564922E-09  1.219854E-09
       353  12 -3.896650E+05  8.392884E+04  6.653960E+04  1.682053E+04 -2.266279E-09  3.187615E-09
       353  13 -7.248665E+05 -1.530179E+04 -4.365834E+04  1.393184E+04  5.771627E-10 -4.485732E-09
       353  14 -7.218033E+05  2.041541E+03 -2.241933E+04  3.955110E+03  5.479690E-10 -5.360784E-10
       353  15 -7.248523E+05  8.740024E+02 -1.326630E+04  1.389624E+04  1.578891E-10 -1.177408E-09
       353  16 -1.118323E+06 -1.128181E+05 -1.374805E+05  1.790042E+04  1.886630E-09 -1.016584E-09
       353  17 -1.086036E+06 -8.820913E+04 -1.090913E+05  4.477753E+03  7.382782E-10 -2.511404E-10
       353  18 -1.059936E+06 -8.218893E+04 -9.308008E+04  1.097347E+04  1.871519E-09  3.747078E-09
       353  19 -3.312663E+05  8.220385E+04  5.015529E+04  9.960994E+03  3.318016E+04  1.298684E+04
       353  20 -3.574476E+05  9.228293E+04  6.424455E+04  3.432310E+03  2.214195E+04  1.251530E+04
       353  21 -3.896648E+05  8.392901E+04  6.654007E+04  1.682063E+04  1.110646E+04  1.128477E+04
       353  22 -7.248653E+05 -1.530131E+04 -4.365596E+04  1.393218E+04  3.312809E+04  1.298752E+04
       353  23 -7.218027E+05  2.041835E+03 -2.241815E+04  3.955328E+03  2.167768E+04  1.251475E+04
       353  24 -7.248521E+05  8.741672E+02 -1.326587E+04  1.389633E+04  1.022946E+04  1.128292E+04
       353  25 -1.118322E+06 -1.128176E+05 -1.374781E+05  1.790076E+04  3.307606E+04  1.298820E+04
       353  26 -1.086036E+06 -8.820884E+04 -1.090901E+05  4.477966E+03  2.121368E+04  1.251420E+04
       353  27 -1.059936E+06 -8.218877E+04 -9.307967E+04  1.097355E+04  9.352924E+03  1.128107E+04
       354   1 -4.246891E+05  7.263503E+04  6.068996E+04  1.433206E+04 -8.807593E+03 -1.044265E+04
       354   2 -4.542849E+05  6.685578E+04  5.825194E+04  4.331208E+03 -5.979122E+03 -9.214111E+03
       354   3 -4.847494E+05  5.936682E+04  5.352821E+04  1.482058E+04 -3.151618E+03 -7.923690E+03
       354   4 -7.236834E+05 -1.411375E+03 -1.036120E+04  1.403775E+04 -8.148369E+03 -1.044125E+04
       354   5 -7.232430E+05  2.323176E+02 -5.725997E+03  3.790219E+03 -5.287012E+03 -9.212457E+03
       354   6 -7.236784E+05  1.600950E+02 -3.400151E+03  1.403348E+04 -2.426488E+03 -7.921766E+03
       354   7 -1.022596E+06 -7.546423E+04 -8.141861E+04  1.374353E+04 -7.489460E+03 -1.043985E+04
       354   8 -9.921346E+05 -6.639636E+04 -6.970899E+04  3.249419E+03 -4.595201E+03 -9.210803E+03
       354   9 -9.625550E+05 -5.905075E+04 -6.033251E+04  1.324664E+04 -1.701636E+03 -7.919844E+03
       354  10 -4.246893E+05  7.263490E+04  6.068961E+04  1.433199E+04 -2.522817E-09  5.650400E-09
       354  11 -4.542849E+05  6.685568E+04  5.825171E+04  4.331163E+03 -4.525087E-09  4.583911E-09
       354  12 -4.847494E+05  5.936675E+04  5.352807E+04  1.482056E+04 -1.710438E-09 -1.799466E-10
       354  13 -7.236835E+05 -1.411510E+03 -1.036153E+04  1.403768E+04  2.468630E-09 -4.840492E-10
       354  14 -7.232430E+05  2.322189E+02 -5.726209E+03  3.790179E+03 -1.097713E-09  4.309982E-09
       354  15 -7.236784E+05  1.600260E+02 -3.400280E+03  1.403346E+04 -3.057973E-10  6.555488E-09
       354  16 -1.022596E+06 -7.546436E+04 -8.141892E+04  1.374347E+04 -3.986073E-11  5.751730E-09
       354  17 -9.921347E+05 -6.639646E+04 -6.970919E+04  3.249385E+03  1.979784E-09  6.035104E-09
       354  18 -9.625550E+05 -5.905082E+04 -6.033264E+04  1.324663E+04  3.139628E-09  4.217723E-09
       354  19 -4.246891E+05  7.263503E+04  6.068996E+04  1.433206E+04  8.807593E+03  1.044265E+04
       354  20 -4.542849E+05  6.685578E+04  5.825194E+04  4.331208E+03  5.979122E+03  9.214111E+03
       354  21 -4.847494E+05  5.936682E+04  5.352821E+04  1.482058E+04  3.151618E+03  7.923690E+03
       354  22 -7.236834E+05 -1.411375E+03 -1.036120E+04  1.403775E+04  8.148369E+03  1.044125E+04
       354  23 -7.232430E+05  2.323176E+02 -5.725997E+03  3.790219E+03  5.287012E+03  9.212457E+03
       354  24 -7.236784E+05  1.600950E+02 -3.400151E+03  1.403348E+04  2.426488E+03  7.921766E+03
       354  25 -1.022596E+06 -7.546423E+04 -8.141861E+04  1.374353E+04  7.489460E+03  1.043985E+04
       354  26 -9.921346E+05 -6.639636E+04 -6.970899E+04  3.249419E+03  4.595201E+03  9.210803E+03
       354  27 -9.625550E+05 -5.905075E+04 -6.033251E+04  1.324664E+04  1.701636E+03  7.919844E+03
       355   1 -5.216796E+05  4.993391E+04  4.525309E+04  1.458398E+04 -2.597473E+03 -7.161704E+03
       355   2 -5.521692E+05  4.247290E+04  3.903556E+04  4.090570E+03 -1.763982E+03 -5.861310E+03
       355   3 -5.829148E+05  3.494991E+04  3.223083E+04  1.448711E+04 -9.310195E+02 -4.550071E+03
       355   4 -7.235368E+05 -5.245643E+01 -2.675205E+03  1.412386E+04 -1.884080E+03 -7.159718E+03
       355   5 -7.234063E+05  5.280703E+01 -1.699698E+03  3.678454E+03 -1.044867E+03 -5.859198E+03
       355   6 -7.235343E+05  9.499446E+01 -1.315583E+03  1.412335E+04 -2.061421E+02 -4.547826E+03
       355   7 -9.253566E+05 -5.004175E+04 -5.060634E+04  1.366387E+04 -1.170917E+03 -7.157732E+03
       355   8 -8.946165E+05 -4.236940E+04 -4.243700E+04  3.266431E+03 -3.259499E+02 -5.857085E+03
       355   9 -8.641356E+05 -3.476135E+04 -3.486338E+04  1.375966E+04  5.185716E+02 -4.545582E+03
       355  10 -5.216796E+05  4.993385E+04  4.525298E+04  1.458397E+04  6.251939E-09  1.641594E-10
       355  11 -5.521692E+05  4.247286E+04  3.903549E+04  4.090562E+03  2.884443E-10  7.723108E-09
       355  12 -5.829148E+05  3.494989E+04  3.223079E+04  1.448711E+04 -5.000288E-10  6.914444E-09
       355  13 -7.235368E+05 -5.251241E+01 -2.675308E+03  1.412385E+04  1.013847E-09  9.157827E-10
       355  14 -7.234063E+05  5.276988E+01 -1.699764E+03  3.678449E+03 -2.150167E-09  7.377309E-09
       355  15 -7.235343E+05  9.497225E+01 -1.315622E+03  1.412335E+04 -1.298823E-09  5.800497E-10
       355  16 -9.253566E+05 -5.004181E+04 -5.060644E+04  1.366386E+04 -8.497987E-09  2.782356E-09
       355  17 -8.946165E+05 -4.236943E+04 -4.243707E+04  3.266429E+03 -4.349057E-09 -1.245476E-09
       355  18 -8.641356E+05 -3.476137E+04 -3.486342E+04  1.375966E+04 -9.818565E-11 -1.812131E-09
       355  19 -5.216796E+05  4.993391E+04  4.525309E+04  1.458398E+04  2.597473E+03  7.161704E+03
       355  20 -5.521692E+05  4.247290E+04  3.903556E+04  4.090570E+03  1.763982E+03  5.861310E+03
       355  21 -5.829148E+05  3.494991E+04  3.223083E+04  1.448711E+04  9.310195E+02  4.550071E+03
       355  22 -7.235368E+05 -5.245643E+01 -2.675205E+03  1.412386E+04  1.884080E+03  7.159718E+03
       355  23 -7.234063E+05  5.280703E+01 -1.699698E+03  3.678454E+03  1.044867E+03  5.859198E+03
       355  24 -7.235343E+05  9.499446E+01 -1.315583E+03  1.412335E+04  2.061421E+02  4.547826E+03
       355  25 -9.253566E+05 -5.004175E+04 -5.060634E+04  1.366387E+04  1.170917E+03  7.157732E+03
       355  26 -8.946165E+05 -4.236940E+04 -4.243700E+04  3.266431E+03  3.259499E+02  5.857085E+03
       355  27 -8.641356E+05 -3.476135E+04 -3.486338E+04  1.375966E+04 -5.185716E+02  4.545582E+03
       356   1 -6.205454E+05  2.558576E+04  2.312622E+04  1.440531E+04 -7.004512E+02 -3.783494E+03
       356   2 -6.513512E+05  1.790473E+04  1.563745E+04  3.781293E+03  3.990800E+01 -2.463822E+03
       356   3 -6.824267E+05  1.019659E+04  7.623327E+03  1.427292E+04  7.800476E+02 -1.142491E+03
       356   4 -7.235344E+05  9.028351E+01 -1.281479E+03  1.417348E+04  2.567238E+01 -3.781191E+03
       356   5 -7.233989E+05  5.556543E+01 -1.502843E+03  3.615717E+03  7.668538E+02 -2.461470E+03
       356   6 -7.235336E+05 -6.247067E+00 -2.249993E+03  1.417375E+04  1.507852E+03 -1.140087E+03
       356   7 -8.265136E+05 -2.540595E+04 -2.568992E+04  1.394168E+04  7.516760E+02 -3.778888E+03
       356   8 -7.954418E+05 -1.779398E+04 -1.864350E+04  3.450156E+03  1.493716E+03 -2.459119E+03
       356   9 -7.646390E+05 -1.020921E+04 -1.212343E+04  1.407459E+04  2.235609E+03 -1.137684E+03
       356  10 -6.205454E+05  2.558574E+04  2.312619E+04  1.440531E+04  2.216713E-09  3.275361E-09
       356  11 -6.513512E+05  1.790473E+04  1.563744E+04  3.781293E+03  6.167095E-11  1.760590E-09
       356  12 -6.824267E+05  1.019659E+04  7.623323E+03  1.427292E+04 -4.045162E-11 -3.930309E-09
       356  13 -7.235344E+05  9.026816E+01 -1.281506E+03  1.417348E+04  1.726272E-09  8.429307E-09
       356  14 -7.233989E+05  5.555877E+01 -1.502855E+03  3.615718E+03 -8.044870E-10  3.498906E-09
       356  15 -7.235336E+05 -6.249073E+00 -2.249999E+03  1.417375E+04  2.864059E-11 -4.637135E-09
       356  16 -8.265136E+05 -2.540597E+04 -2.568994E+04  1.394168E+04 -4.226685E-09  4.671173E-09
       356  17 -7.954418E+05 -1.779398E+04 -1.864351E+04  3.450159E+03 -1.219516E-09 -9.545214E-10
       356  18 -7.646390E+05 -1.020921E+04 -1.212344E+04  1.407459E+04  2.052185E-09 -3.443480E-09
       356  19 -6.205454E+05  2.558576E+04  2.312622E+04  1.440531E+04  7.004512E+02  3.783494E+03
       356  20 -6.513512E+05  1.790473E+04  1.563745E+04  3.781293E+03 -3.990800E+01  2.463822E+03
       356  21 -6.824267E+05  1.019659E+04  7.623327E+03  1.427292E+04 -7.800476E+02  1.142491E+03
       356  22 -7.235344E+05  9.028351E+01 -1.281479E+03  1.417348E+04 -2.567238E+01  3.781191E+03
       356  23 -7.233989E+05  5.556543E+01 -1.502843E+03  3.615717E+03 -7.668538E+02  2.461470E+03
       356  24 -7.235336E+05 -6.247067E+00 -2.249993E+03  1.417375E+04 -1.507852E+03  1.140087E+03
       356  25 -8.265136E+05 -2.540595E+04 -2.568992E+04  1.394168E+04 -7.516760E+02  3.778888E+03
       356  26 -7.954418E+05 -1.779398E+04 -1.864350E+04  3.450156E+03 -1.493716E+03  2.459119E+03
       356  27 -7.646390E+05 -1.020921E+04 -1.212343E+04  1.407459E+04 -2.235609E+03  1.137684E+03
       357   1 -7.204098E+05  9.478968E+02 -2.149995E+03  1.397912E+04  1.224678E+03 -3.673022E+02
       357   2 -7.509998E+05 -6.663620E+03 -1.130043E+04  3.551722E+03  3.586022E+03  9.611818E+02
       357   3 -7.824107E+05 -1.563885E+04 -2.236806E+04  1.428174E+04  5.947407E+03  2.261457E+03
       357   4 -7.236551E+05  1.643162E+02 -2.828176E+03  1.418145E+04  1.960850E+03 -3.648604E+02
       357   5 -7.232464E+05  2.123442E+02 -4.697514E+03  3.604845E+03  4.306723E+03  9.635520E+02
       357   6 -7.236568E+05 -1.100511E+03 -8.473100E+03  1.418561E+04  6.652754E+03  2.263758E+03
       357   7 -7.269004E+05 -6.192646E+02 -3.506355E+03  1.438378E+04  2.697018E+03 -3.624180E+02
       357   8 -6.954923E+05  7.088253E+03  1.905355E+03  3.657969E+03  5.027456E+03  9.659223E+02
       357   9 -6.648997E+05  1.343758E+04  5.421624E+03  1.408946E+04  7.358166E+03  2.266059E+03
       357  10 -7.204098E+05  9.478963E+02 -2.149998E+03  1.397912E+04 -8.744132E-09  1.050812E-09
       357  11 -7.509998E+05 -6.663624E+03 -1.130046E+04  3.551720E+03 -1.773930E-09  2.289016E-09
       357  12 -7.824108E+05 -1.563886E+04 -2.236814E+04  1.428173E+04  5.406818E-09  2.327557E-09
       357  13 -7.236551E+05  1.643150E+02 -2.828183E+03  1.418145E+04  1.753787E-09 -2.629453E-10
       357  14 -7.232464E+05  2.123382E+02 -4.697551E+03  3.604841E+03  1.064324E-09  3.761794E-09
       357  15 -7.236568E+05 -1.100528E+03 -8.473193E+03  1.418559E+04 -2.954932E-10  3.361955E-09
       357  16 -7.269004E+05 -6.192667E+02 -3.506369E+03  1.438378E+04  6.480471E-09  1.156522E-09
       357  17 -6.954923E+05  7.088245E+03  1.905306E+03  3.657965E+03  1.095226E-09 -7.349004E-09
       357  18 -6.648997E+05  1.343756E+04  5.421512E+03  1.408944E+04 -3.544796E-09  3.214647E-10
       357  19 -7.204098E+05  9.478968E+02 -2.149995E+03  1.397912E+04 -1.224678E+03  3.673022E+02
       357  20 -7.509998E+05 -6.663620E+03 -1.130043E+04  3.551722E+03 -3.586022E+03 -9.611818E+02
       357  21 -7.824107E+05 -1.563885E+04 -2.236806E+04  1.428174E+04 -5.947407E+03 -2.261457E+03
       357  22 -7.236551E+05  1.643162E+02 -2.828176E+03  1.418145E+04 -1.960850E+03  3.648604E+02
       357  23 -7.232464E+05  2.123442E+02 -4.697514E+03  3.604845E+03 -4.306723E+03 -9.635520E+02
       357  24 -7.236568E+05 -1.100511E+03 -8.473100E+03  1.418561E+04 -6.652754E+03 -2.263758E+03
       357  25 -7.269004E+05 -6.192646E+02 -3.506355E+03  1.438378E+04 -2.697018E+03  3.624180E+02
       357  26 -6.954923E+05  7.088253E+03  1.905355E+03  3.657969E+03 -5.027456E+03 -9.659223E+02
       357  27 -6.648997E+05  1.343758E+04  5.421624E+03  1.408946E+04 -7.358166E+03 -2.266059E+03
       358   1 -8.211297E+05 -2.318219E+04 -3.389280E+04  1.204354E+04  7.527850E+03  3.090002E+03
       358   2 -8.493557E+05 -2.983529E+04 -4.858259E+04  4.287037E+03  1.709473E+04  4.411149E+03
       358   3 -8.827565E+05 -5.159019E+04 -7.331541E+04  1.756511E+04  2.666253E+04  5.321412E+03
       358   4 -7.246167E+05  7.627144E+02 -1.084198E+04  1.414271E+04  8.353588E+03  3.092686E+03
       358   5 -7.220534E+05  1.698861E+03 -1.829562E+04  3.646209E+03  1.769559E+04  4.412976E+03
       358   6 -7.246256E+05 -1.242590E+04 -3.563432E+04  1.418418E+04  2.703897E+04  5.322336E+03
       358   7 -6.280952E+05  2.470696E+04  1.220818E+04  1.624220E+04  9.179455E+03  3.095375E+03
       358   8 -5.947361E+05  3.323185E+04  1.199021E+04  3.005237E+03  1.829656E+04  4.414801E+03
       358   9 -5.664718E+05  2.673663E+04  2.045016E+03  1.080237E+04  2.741550E+04  5.323256E+03
       358  10 -8.211298E+05 -2.318222E+04 -3.389292E+04  1.204352E+04 -1.136899E-08  4.899916E-09
       358  11 -8.493560E+05 -2.983539E+04 -4.858318E+04  4.286976E+03 -6.930224E-09  2.773797E-09
       358  12 -8.827573E+05 -5.159041E+04 -7.331680E+04  1.756500E+04  3.987499E-09  3.946009E-09
       358  13 -7.246168E+05  7.626853E+02 -1.084213E+04  1.414269E+04  2.300648E-09  3.138377E-09
       358  14 -7.220537E+05  1.698756E+03 -1.829625E+04  3.646146E+03 -1.888499E-09  1.877378E-09
       358  15 -7.246264E+05 -1.242613E+04 -3.563575E+04  1.418407E+04  2.758701E-11 -1.450541E-09
       358  16 -6.280952E+05  2.470693E+04  1.220801E+04  1.624218E+04  9.385097E-09  2.100062E-09
       358  17 -5.947365E+05  3.323174E+04  1.198955E+04  3.005172E+03  4.445950E-09 -3.394703E-09
       358  18 -5.664726E+05  2.673640E+04  2.043549E+03  1.080225E+04 -2.758603E-09 -8.524854E-09
       358  19 -8.211297E+05 -2.318219E+04 -3.389280E+04  1.204354E+04 -7.527850E+03 -3.090002E+03
       358  20 -8.493557E+05 -2.983529E+04 -4.858259E+04  4.287037E+03 -1.709473E+04 -4.411149E+03
       358  21 -8.827565E+05 -5.159019E+04 -7.331541E+04  1.756511E+04 -2.666253E+04 -5.321412E+03
       358  22 -7.246167E+05  7.627144E+02 -1.084198E+04  1.414271E+04 -8.353588E+03 -3.092686E+03
       358  23 -7.220534E+05  1.698861E+03 -1.829562E+04  3.646209E+03 -1.769559E+04 -4.412976E+03
       358  24 -7.246256E+05 -1.242590E+04 -3.563432E+04  1.418418E+04 -2.703897E+04 -5.322336E+03
       358  25 -6.280952E+05  2.470696E+04  1.220818E+04  1.624220E+04 -9.179455E+03 -3.095375E+03
       358  26 -5.947361E+05  3.323185E+04  1.199021E+04  3.005237E+03 -1.829656E+04 -4.414801E+03
       358  27 -5.664718E+05  2.673663E+04  2.045016E+03  1.080237E+04 -2.741550E+04 -5.323256E+03
       359   1 -9.285362E+05 -4.167287E+04 -9.026368E+04 -4.068562E+03  3.156688E+04  6.922018E+03
       359   2 -9.371083E+05 -3.953449E+04 -1.242392E+05  1.605545E+04  7.290712E+04  7.971830E+03
       359   3 -9.896933E+05 -1.914096E+05 -2.236820E+05  5.699278E+04  1.142634E+05  2.959047E+03
       359   4 -7.331255E+05  6.870595E+03 -4.379018E+04  1.398863E+04  3.375534E+04  6.929477E+03
       359   5 -7.114409E+05  1.628483E+04 -7.057426E+04  3.773486E+03  7.176308E+04  7.966783E+03
       359   6 -7.331747E+05 -1.277080E+05 -1.604926E+05  1.437333E+04  1.097891E+05  2.938421E+03
       359   7 -5.376790E+05  5.541251E+04  2.680834E+03  3.205152E+04  3.594449E+04  6.937063E+03
       359   8 -4.857263E+05  7.210106E+04 -1.691275E+04 -8.513005E+03  7.061863E+04  7.961783E+03
       359   9 -4.765922E+05 -6.400445E+04 -9.730686E+04 -2.826383E+04  1.053129E+05  2.918415E+03
       359  10 -9.285373E+05 -4.167319E+04 -9.026564E+04 -4.068738E+03 -2.462303E-09  3.508024E-09
       359  11 -9.371141E+05 -3.953598E+04 -1.242494E+05  1.605498E+04 -1.431627E-09 -3.036061E-09
       359  12 -9.897073E+05 -1.914131E+05 -2.237066E+05  5.699251E+04  1.473225E-09 -4.393144E-10
       359  13 -7.331267E+05  6.870237E+03 -4.379241E+04  1.398844E+04  1.120942E-09  3.895557E-09
       359  14 -7.114465E+05  1.628338E+04 -7.058407E+04  3.773025E+03  7.911390E-10 -7.227095E-09
       359  15 -7.331877E+05 -1.277113E+05 -1.605152E+05  1.437307E+04  4.525564E-10  1.723741E-09
       359  16 -5.376804E+05  5.541211E+04  2.678314E+03  3.205132E+04  9.849071E-10  2.843836E-10
       359  17 -4.857317E+05  7.209965E+04 -1.692225E+04 -8.513458E+03 -6.637887E-10  3.662871E-10
       359  18 -4.766041E+05 -6.400744E+04 -9.732773E+04 -2.826407E+04  6.921089E-10 -8.386966E-10
       359  19 -9.285362E+05 -4.167287E+04 -9.026368E+04 -4.068562E+03 -3.156688E+04 -6.922018E+03
       359  20 -9.371083E+05 -3.953449E+04 -1.242392E+05  1.605545E+04 -7.290712E+04 -7.971830E+03
       359  21 -9.896933E+05 -1.914096E+05 -2.236820E+05  5.699278E+04 -1.142634E+05 -2.959047E+03
       359  22 -7.331255E+05  6.870595E+03 -4.379018E+04  1.398863E+04 -3.375534E+04 -6.929477E+03
       359  23 -7.114409E+05  1.628483E+04 -7.057426E+04  3.773486E+03 -7.176308E+04 -7.966783E+03
       359  24 -7.331747E+05 -1.277080E+05 -1.604926E+05  1.437333E+04 -1.097891E+05 -2.938421E+03
       359  25 -5.376790E+05  5.541251E+04  2.680834E+03  3.205152E+04 -3.594449E+04 -6.937063E+03
       359  26 -4.857263E+05  7.210106E+04 -1.691275E+04 -8.513005E+03 -7.061863E+04 -7.961783E+03
       359  27 -4.765922E+05 -6.400445E+04 -9.730686E+04 -2.826383E+04 -1.053129E+05 -2.918415E+03
       360   1  6.435043E+05  3.348793E+06  7.070748E+05 -2.810012E+05  1.425803E+04  2.396696E+05
       360   2  2.604611E+05  2.952557E+06  4.342398E+05 -1.003429E+05  4.041387E+04  1.366734E+05
       360   3  1.979800E+05  2.649728E+06  3.083284E+05 -1.561637E+05  2.839060E+04  3.364520E+04
       360   4  2.599755E+05  1.807518E+06  3.281457E+05 -1.900206E+05  1.434373E+04  2.144001E+05
       360   5 -3.342797E+04  1.762799E+06  1.522300E+05 -7.206633E+04  4.043461E+04  1.327433E+05
       360   6 -9.616976E+03  1.807913E+06  1.087096E+05 -1.905797E+05  2.833478E+04  5.099473E+04
       360   7 -1.236988E+05  2.684118E+05 -5.095158E+04 -9.926392E+04  1.442221E+04  1.891924E+05
       360   8 -3.274156E+05  5.743370E+05 -1.298778E+05 -4.384309E+04  4.045502E+04  1.288205E+05
       360   9 -2.172599E+05  9.667500E+05 -9.095665E+04 -2.249483E+05  2.827699E+04  6.832091E+04
       360  10  6.434888E+05  3.348731E+06  7.069671E+05 -2.810039E+05  4.587090E-13  1.982049E-10
       360  11  2.604543E+05  2.952536E+06  4.342018E+05 -1.003474E+05  1.015839E-10 -4.113114E-09
       360  12  1.979789E+05  2.649726E+06  3.083247E+05 -1.561645E+05  1.907641E-09  2.136060E-09
       360  13  2.599630E+05  1.807468E+06  3.280592E+05 -1.900231E+05  2.100431E-09 -5.702810E-10
       360  14 -3.343444E+04  1.762780E+06  1.521939E+05 -7.207065E+04 -2.601857E-09 -2.204440E-09
       360  15 -9.618535E+03  1.807910E+06  1.087032E+05 -1.905808E+05  1.003386E-09 -4.672160E-09
       360  16 -1.237086E+05  2.683734E+05 -5.101921E+04 -9.926612E+04 -1.334563E-09 -2.271251E-09
       360  17 -3.274218E+05  5.743188E+05 -1.299120E+05 -4.384729E+04 -1.556512E-10 -9.710135E-09
       360  18 -2.172620E+05  9.667448E+05 -9.096691E+04 -2.249498E+05 -1.634250E-09 -5.413467E-09
       360  19  6.435043E+05  3.348793E+06  7.070748E+05 -2.810012E+05 -1.425803E+04 -2.396696E+05
       360  20  2.604611E+05  2.952557E+06  4.342398E+05 -1.003429E+05 -4.041387E+04 -1.366734E+05
       360  21  1.979800E+05  2.649728E+06  3.083284E+05 -1.561637E+05 -2.839060E+04 -3.364520E+04
       360  22  2.599755E+05  1.807518E+06  3.281457E+05 -1.900206E+05 -1.434373E+04 -2.144001E+05
       360  23 -3.342797E+04  1.762799E+06  1.522300E+05 -7.206633E+04 -4.043461E+04 -1.327433E+05
       360  24 -9.616976E+03  1.807913E+06  1.087096E+05 -1.905797E+05 -2.833478E+04 -5.099473E+04
       360  25 -1.236988E+05  2.684118E+05 -5.095158E+04 -9.926392E+04 -1.442221E+04 -1.891924E+05
       360  26 -3.274156E+05  5.743370E+05 -1.298778E+05 -4.384309E+04 -4.045502E+04 -1.288205E+05
       360  27 -2.172599E+05  9.667500E+05 -9.095665E+04 -2.249483E+05 -2.827699E+04 -6.832091E+04
       361   1  1.285705E+05  2.212289E+06  1.978714E+05 -2.033934E+05  1.425286E+04  2.674563E+04
       361   2  1.127136E+04  1.856542E+06  9.994790E+04 -7.231117E+04  2.590047E+03 -1.551070E+04
       361   3 -3.553835E+04  1.522137E+06  4.667973E+04 -1.760337E+05 -9.283920E+03 -5.774679E+04
       361   4  2.484636E+04  1.792760E+06  9.836454E+04 -1.900039E+05  1.423172E+04  3.320975E+04
       361   5 -7.102109E+03  1.782155E+06  8.230184E+04 -7.259272E+04  2.567676E+03 -8.918004E+03
       361   6  3.142960E+04  1.792763E+06  1.108209E+05 -1.899804E+05 -9.306085E+03 -5.104851E+04
       361   7 -7.888980E+04  1.373393E+06 -1.154267E+03 -1.766233E+05  1.421085E+04  3.966954E+04
       361   8 -2.547595E+04  1.707774E+06  6.465555E+04 -7.287423E+04  2.545299E+03 -2.326094E+03
       361   9  9.839303E+04  2.063456E+06  1.749573E+05 -2.039333E+05 -9.328545E+03 -4.434732E+04
       361  10  1.285701E+05  2.212288E+06  1.978696E+05 -2.033937E+05  9.087534E-10  1.210395E-09
       361  11  1.127129E+04  1.856541E+06  9.994744E+04 -7.231113E+04  2.617288E-09 -6.330257E-09
       361  12 -3.553933E+04  1.522133E+06  4.667332E+04 -1.760341E+05 -2.612709E-10  1.635069E-09
       361  13  2.484584E+04  1.792759E+06  9.836210E+04 -1.900043E+05 -1.724413E-10  3.488724E-11
       361  14 -7.102138E+03  1.782155E+06  8.230168E+04 -7.259270E+04  2.821284E-09 -3.852274E-09
       361  15  3.142881E+04  1.792760E+06  1.108159E+05 -1.899808E+05  3.252844E-09 -5.729070E-09
       361  16 -7.889044E+04  1.373391E+06 -1.157598E+03 -1.766238E+05 -1.073931E-09 -4.617802E-09
       361  17 -2.547596E+04  1.707774E+06  6.465553E+04 -7.287423E+04 -2.026662E-09 -1.181174E-08
       361  18  9.839241E+04  2.063454E+06  1.749535E+05 -2.039336E+05  6.503894E-11 -5.482419E-09
       361  19  1.285705E+05  2.212289E+06  1.978714E+05 -2.033934E+05 -1.425286E+04 -2.674563E+04
       361  20  1.127136E+04  1.856542E+06  9.994790E+04 -7.231117E+04 -2.590047E+03  1.551070E+04
       361  21 -3.553835E+04  1.522137E+06  4.667973E+04 -1.760337E+05  9.283920E+03  5.774679E+04
       361  22  2.484636E+04  1.792760E+06  9.836454E+04 -1.900039E+05 -1.423172E+04 -3.320975E+04
       361  23 -7.102109E+03  1.782155E+06  8.230184E+04 -7.259272E+04 -2.567676E+03  8.918004E+03
       361  24  3.142960E+04  1.792763E+06  1.108209E+05 -1.899804E+05  9.306085E+03  5.104851E+04
       361  25 -7.888980E+04  1.373393E+06 -1.154267E+03 -1.766233E+05 -1.421085E+04 -3.966954E+04
       361  26 -2.547595E+04  1.707774E+06  6.465555E+04 -7.287423E+04 -2.545299E+03  2.326094E+03
       361  27  9.839303E+04  2.063456E+06  1.749573E+05 -2.039333E+05  9.328545E+03  4.434732E+04
       362   1 -1.841722E+05  1.120647E+06 -3.781762E+04 -2.337616E+05 -2.289861E+04 -8.784671E+04
       362   2 -2.981636E+05  7.187929E+05 -6.099663E+04 -3.778936E+04 -3.517662E+04 -1.681330E+05
       362   3 -2.276418E+04  4.244557E+05  6.534448E+04 -7.759705E+04 -1.260423E+04 -2.482778E+05
       362   4 -1.350674E+04  1.812558E+06  1.264641E+05 -1.904825E+05 -2.295898E+04 -7.136358E+04
       362   5 -4.126591E+04  1.757091E+06  1.854544E+05 -7.222995E+04 -3.515596E+04 -1.710624E+05
       362   6  3.233488E+05  1.812133E+06  4.072137E+05 -1.896964E+05 -1.250827E+04 -2.706668E+05
       362   7  1.571318E+05  2.504913E+06  2.907146E+05 -1.471545E+05 -2.301702E+04 -5.486216E+04
       362   8  2.155586E+05  2.796379E+06  4.318310E+05 -1.067277E+05 -3.513500E+04 -1.739965E+05
       362   9  6.693652E+05  3.201585E+06  7.489491E+05 -3.020454E+05 -1.240439E+04 -2.931051E+05
       362  10 -1.841748E+05  1.120639E+06 -3.783309E+04 -2.337632E+05  6.456484E-10  3.766282E-10
       362  11 -2.981725E+05  7.187623E+05 -6.105201E+04 -3.779412E+04  4.453648E-10 -4.532467E-09
       362  12 -2.278089E+04  4.243895E+05  6.522842E+04 -7.759957E+04 -7.317659E-10  1.502358E-09
       362  13 -1.350867E+04  1.812553E+06  1.264536E+05 -1.904838E+05 -1.558649E-09  4.076935E-11
       362  14 -4.127507E+04  1.757059E+06  1.853973E+05 -7.223479E+04  7.609590E-10 -3.627843E-09
       362  15  3.233290E+05  1.812054E+06  4.070761E+05 -1.896992E+05 -1.036940E-09 -2.976342E-09
       362  16  1.571304E+05  2.504910E+06  2.907080E+05 -1.471555E+05  1.304564E-09 -4.095679E-09
       362  17  2.155492E+05  2.796346E+06  4.317721E+05 -1.067326E+05  4.517907E-10 -1.034497E-08
       362  18  6.693421E+05  3.201493E+06  7.487882E+05 -3.020483E+05 -1.225005E-09 -3.732016E-09
       362  19 -1.841722E+05  1.120647E+06 -3.781762E+04 -2.337616E+05  2.289861E+04  8.784671E+04
       362  20 -2.981636E+05  7.187929E+05 -6.099663E+04 -3.778936E+04  3.517662E+04  1.681330E+05
       362  21 -2.276418E+04  4.244557E+05  6.534448E+04 -7.759705E+04  1.260423E+04  2.482778E+05
       362  22 -1.350674E+04  1.812558E+06  1.264641E+05 -1.904825E+05  2.295898E+04  7.136358E+04
       362  23 -4.126591E+04  1.757091E+06  1.854544E+05 -7.222995E+04  3.515596E+04  1.710624E+05
       362  24  3.233488E+05  1.812133E+06  4.072137E+05 -1.896964E+05  1.250827E+04  2.706668E+05
       362  25  1.571318E+05  2.504913E+06  2.907146E+05 -1.471545E+05  2.301702E+04  5.486216E+04
       362  26  2.155586E+05  2.796379E+06  4.318310E+05 -1.067277E+05  3.513500E+04  1.739965E+05
       362  27  6.693652E+05  3.201585E+06  7.489491E+05 -3.020454E+05  1.240439E+04  2.931051E+05
       363   1  2.025704E+05  5.737692E+04  2.018242E+04  5.069371E+04 -5.407993E+04 -2.602881E+04
       363   2  1.930477E+05  1.328447E+05  6.706037E+04  2.330611E+04 -3.288609E+04 -2.951702E+04
       363   3  1.337237E+05  1.340554E+05  7.671827E+04  3.551442E+04 -1.577956E+04 -2.216194E+04
       363   4 -2.593708E+05 -9.378214E+04 -1.006140E+05 -5.155394E+04 -6.204087E+04 -2.903087E+04
       363   5 -2.286415E+05 -1.908378E+04 -4.213981E+04 -8.529492E+04 -3.525708E+04 -3.041231E+04
       363   6 -2.488478E+05 -1.978628E+04 -2.533797E+04 -7.943259E+04 -1.256033E+04 -2.094756E+04
       363   7 -7.211020E+05 -2.449390E+05 -2.214263E+05 -1.537378E+05 -6.999518E+04 -3.203119E+04
       363   8 -6.501563E+05 -1.710040E+05 -1.513540E+05 -1.938304E+05 -3.762628E+04 -3.130699E+04
       363   9 -6.312766E+05 -1.736130E+05 -1.274069E+05 -1.943135E+05 -9.343288E+03 -1.973412E+04
       363  10  2.025671E+05  5.737540E+04  2.017565E+04  5.069258E+04 -1.952290E-10 -9.020204E-10
       363  11  1.930463E+05  1.328434E+05  6.705670E+04  2.330533E+04 -1.305955E-09 -4.872148E-09
       363  12  1.337233E+05  1.340548E+05  7.671688E+04  3.551414E+04  2.570321E-09 -2.040632E-09
       363  13 -2.593751E+05 -9.378408E+04 -1.006229E+05 -5.155539E+04  1.603160E-09  1.706746E-09
       363  14 -2.286431E+05 -1.908510E+04 -4.214388E+04 -8.529579E+04 -4.846469E-11 -1.332920E-09
       363  15 -2.488480E+05 -1.978679E+04 -2.533909E+04 -7.943280E+04  1.363669E-09 -3.698785E-10
       363  16 -7.211075E+05 -2.449414E+05 -2.214374E+05 -1.537396E+05  8.918149E-10  2.451531E-09
       363  17 -6.501581E+05 -1.710054E+05 -1.513585E+05 -1.938314E+05  2.348565E-10  2.130759E-09
       363  18 -6.312768E+05 -1.736134E+05 -1.274078E+05 -1.943136E+05  2.642522E-09 -8.174617E-10
       363  19  2.025704E+05  5.737692E+04  2.018242E+04  5.069371E+04  5.407993E+04  2.602881E+04
       363  20  1.930477E+05  1.328447E+05  6.706037E+04  2.330611E+04  3.288609E+04  2.951702E+04
       363  21  1.337237E+05  1.340554E+05  7.671827E+04  3.551442E+04  1.577956E+04  2.216194E+04
       363  22 -2.593708E+05 -9.378214E+04 -1.006140E+05 -5.155394E+04  6.204087E+04  2.903087E+04
       363  23 -2.286415E+05 -1.908378E+04 -4.213981E+04 -8.529492E+04  3.525708E+04  3.041231E+04
       363  24 -2.488478E+05 -1.978628E+04 -2.533797E+04 -7.943259E+04  1.256033E+04  2.094756E+04
       363  25 -7.211020E+05 -2.449390E+05 -2.214263E+05 -1.537378E+05  6.999518E+04  3.203119E+04
       363  26 -6.501563E+05 -1.710040E+05 -1.513540E+05 -1.938304E+05  3.762628E+04  3.130699E+04
       363  27 -6.312766E+05 -1.736130E+05 -1.274069E+05 -1.943135E+05  9.343288E+03  1.973412E+04
       364   1  1.092412E+05  1.016722E+05  7.233622E+04  2.172024E+04 -9.872503E+03 -1.736979E+04
       364   2  9.012142E+04  9.347004E+04  7.543865E+04  4.484896E+03 -5.287841E+03 -1.514348E+04
       364   3  5.224440E+04  9.077337E+04  7.250497E+04  6.338988E+03 -1.004318E+03 -1.212250E+04
       364   4 -2.457011E+05 -2.990089E+04 -2.056893E+04 -7.340278E+04 -9.847448E+03 -1.736097E+04
       364   5 -2.357329E+05 -2.878724E+04 -9.946915E+03 -8.439096E+04 -4.854778E+03 -1.498042E+04
       364   6 -2.446058E+05 -2.225166E+04 -5.687169E+03 -7.628893E+04 -1.630809E+02 -1.180494E+04
       364   7 -6.005227E+05 -1.614676E+05 -1.134851E+05 -1.684775E+05 -9.822406E+03 -1.735215E+04
       364   8 -5.614849E+05 -1.510383E+05 -9.534164E+04 -1.732250E+05 -4.421962E+03 -1.481745E+04
       364   9 -5.413707E+05 -1.352707E+05 -8.388687E+04 -1.588811E+05  6.777153E+02 -1.148754E+04
       364  10  1.092410E+05  1.016718E+05  7.233547E+04  2.172010E+04  2.783762E-09 -3.192293E-09
       364  11  9.012132E+04  9.346979E+04  7.543817E+04  4.484832E+03 -8.895727E-10 -6.922699E-09
       364  12  5.224436E+04  9.077321E+04  7.250469E+04  6.338978E+03  1.587396E-09 -1.975582E-09
       364  13 -2.457013E+05 -2.990124E+04 -2.056968E+04 -7.340292E+04  2.258004E-09 -2.814258E-12
       364  14 -2.357329E+05 -2.878749E+04 -9.947381E+03 -8.439102E+04  4.078483E-09 -1.201083E-08
       364  15 -2.446058E+05 -2.225181E+04 -5.687430E+03 -7.628893E+04  3.437097E-09 -4.602598E-09
       364  16 -6.005229E+05 -1.614679E+05 -1.134858E+05 -1.684777E+05  1.801417E-09  1.768318E-09
       364  17 -5.614850E+05 -1.510385E+05 -9.534209E+04 -1.732250E+05 -9.985337E-10  1.474103E-10
       364  18 -5.413708E+05 -1.352709E+05 -8.388712E+04 -1.588810E+05  8.906085E-10  1.731668E-09
       364  19  1.092412E+05  1.016722E+05  7.233622E+04  2.172024E+04  9.872503E+03  1.736979E+04
       364  20  9.012142E+04  9.347004E+04  7.543865E+04  4.484896E+03  5.287841E+03  1.514348E+04
       364  21  5.224440E+04  9.077337E+04  7.250497E+04  6.338988E+03  1.004318E+03  1.212250E+04
       364  22 -2.457011E+05 -2.990089E+04 -2.056893E+04 -7.340278E+04  9.847448E+03  1.736097E+04
       364  23 -2.357329E+05 -2.878724E+04 -9.946915E+03 -8.439096E+04  4.854778E+03  1.498042E+04
       364  24 -2.446058E+05 -2.225166E+04 -5.687169E+03 -7.628893E+04  1.630809E+02  1.180494E+04
       364  25 -6.005227E+05 -1.614676E+05 -1.134851E+05 -1.684775E+05  9.822406E+03  1.735215E+04
       364  26 -5.614849E+05 -1.510383E+05 -9.534164E+04 -1.732250E+05  4.421962E+03  1.481745E+04
       364  27 -5.413707E+05 -1.352707E+05 -8.388687E+04 -1.588811E+05 -6.777153E+02  1.148754E+04
       365   1  1.681024E+04  7.503372E+04  6.397473E+04 -4.057884E+03 -2.797350E+02 -1.088113E+04
       365   2 -3.661780E+03  5.796964E+04  5.880777E+04 -2.038494E+04  3.944100E+02 -9.244001E+03
       365   3 -3.954622E+04  5.490542E+04  5.255155E+04 -1.953676E+04  1.044381E+03 -7.545101E+03
       365   4 -2.442537E+05 -2.324629E+04 -4.424027E+03 -7.561669E+04  3.304054E+02 -1.065077E+04
       365   5 -2.364851E+05 -2.984580E+04 -2.296265E+03 -8.435406E+04  1.036061E+03 -9.001549E+03
       365   6 -2.441368E+05 -2.245147E+04 -1.283126E+03 -7.591583E+04  1.717596E+03 -7.290518E+03
       365   7 -5.052510E+05 -1.215218E+05 -7.282836E+04 -1.471482E+05  9.402626E+02 -1.042052E+04
       365   8 -4.692560E+05 -1.176578E+05 -6.340492E+04 -1.483015E+05  1.677449E+03 -8.759198E+03
       365   9 -4.486874E+05 -9.980592E+04 -5.512155E+04 -1.322783E+05  2.390570E+03 -7.036028E+03
       365  10  1.681020E+04  7.503359E+04  6.397451E+04 -4.057886E+03 -1.959706E-09 -3.032526E-09
       365  11 -3.661803E+03  5.796955E+04  5.880761E+04 -2.038493E+04 -3.278860E-09 -1.841467E-09
       365  12 -3.954623E+04  5.490536E+04  5.255144E+04 -1.953675E+04 -1.947446E-09  1.032846E-09
       365  13 -2.442538E+05 -2.324641E+04 -4.424241E+03 -7.561669E+04  1.112837E-09 -6.772858E-09
       365  14 -2.364852E+05 -2.984588E+04 -2.296420E+03 -8.435405E+04 -1.270510E-09 -9.541354E-09
       365  15 -2.441368E+05 -2.245153E+04 -1.283232E+03 -7.591582E+04 -1.596466E-09  4.436636E-09
       365  16 -5.052510E+05 -1.215219E+05 -7.282857E+04 -1.471482E+05  8.538401E-10  3.188492E-09
       365  17 -4.692561E+05 -1.176579E+05 -6.340507E+04 -1.483015E+05  2.091419E-09  4.678015E-10
       365  18 -4.486874E+05 -9.980597E+04 -5.512165E+04 -1.322783E+05 -2.320144E-09  1.388006E-09
       365  19  1.681024E+04  7.503372E+04  6.397473E+04 -4.057884E+03  2.797350E+02  1.088113E+04
       365  20 -3.661780E+03  5.796964E+04  5.880777E+04 -2.038494E+04 -3.944100E+02  9.244001E+03
       365  21 -3.954622E+04  5.490542E+04  5.255155E+04 -1.953676E+04 -1.044381E+03  7.545101E+03
       365  22 -2.442537E+05 -2.324629E+04 -4.424027E+03 -7.561669E+04 -3.304054E+02  1.065077E+04
       365  23 -2.364851E+05 -2.984580E+04 -2.296265E+03 -8.435406E+04 -1.036061E+03  9.001549E+03
       365  24 -2.441368E+05 -2.245147E+04 -1.283126E+03 -7.591583E+04 -1.717596E+03  7.290518E+03
       365  25 -5.052510E+05 -1.215218E+05 -7.282836E+04 -1.471482E+05 -9.402626E+02  1.042052E+04
       365  26 -4.692560E+05 -1.176578E+05 -6.340492E+04 -1.483015E+05 -1.677449E+03  8.759198E+03
       365  27 -4.486874E+05 -9.980592E+04 -5.512155E+04 -1.322783E+05 -2.390570E+03  7.036028E+03
       366   1 -7.642412E+04  4.074425E+04  4.293339E+04 -2.969862E+04  9.612441E+02 -6.717811E+03
       366   2 -9.717058E+04  2.264457E+04  3.605728E+04 -4.603608E+04  7.418260E+02 -5.343417E+03
       366   3 -1.330522E+05  1.952577E+04  2.896250E+04 -4.528882E+04  5.194468E+02 -3.962417E+03
       366   4 -2.441127E+05 -2.253019E+04 -9.811192E+02 -7.582172E+04  1.618503E+03 -6.469163E+03
       366   5 -2.365370E+05 -2.997583E+04 -5.316904E+02 -8.438047E+04  1.402452E+03 -5.093385E+03
       366   6 -2.440983E+05 -2.244126E+04 -3.036831E+02 -7.585469E+04  1.183452E+03 -3.710994E+03
       366   7 -4.117740E+05 -8.580284E+04 -4.489801E+04 -1.219336E+05  2.275567E+03 -6.220589E+03
       366   8 -3.758843E+05 -8.259491E+04 -3.712225E+04 -1.227170E+05  2.062915E+03 -4.843415E+03
       366   9 -3.551320E+05 -6.440738E+04 -2.957083E+04 -1.064155E+05  1.847325E+03 -3.459621E+03
       366  10 -7.642413E+04  4.074420E+04  4.293330E+04 -2.969861E+04  3.591256E-09  9.045979E-09
       366  11 -9.717059E+04  2.264454E+04  3.605722E+04 -4.603608E+04 -8.226894E-10  2.383116E-08
       366  12 -1.330522E+05  1.952575E+04  2.896247E+04 -4.528882E+04 -3.728832E-09  5.752168E-09
       366  13 -2.441127E+05 -2.253024E+04 -9.812028E+02 -7.582171E+04 -2.825653E-09  6.428229E-09
       366  14 -2.365370E+05 -2.997586E+04 -5.317428E+02 -8.438046E+04 -1.387327E-09  6.118391E-09
       366  15 -2.440983E+05 -2.244128E+04 -3.037116E+02 -7.585469E+04 -3.873026E-10  1.425087E-09
       366  16 -4.117740E+05 -8.580288E+04 -4.489809E+04 -1.219336E+05 -7.027216E-09  2.224557E-09
       366  17 -3.758843E+05 -8.259493E+04 -3.712230E+04 -1.227170E+05 -3.519451E-09 -2.695401E-09
       366  18 -3.551321E+05 -6.440740E+04 -2.957086E+04 -1.064155E+05 -2.410672E-10  1.117389E-09
       366  19 -7.642412E+04  4.074425E+04  4.293339E+04 -2.969862E+04 -9.612441E+02  6.717811E+03
       366  20 -9.717058E+04  2.264457E+04  3.605728E+04 -4.603608E+04 -7.418260E+02  5.343417E+03
       366  21 -1.330522E+05  1.952577E+04  2.896250E+04 -4.528882E+04 -5.194468E+02  3.962417E+03
       366  22 -2.441127E+05 -2.253019E+04 -9.811192E+02 -7.582172E+04 -1.618503E+03  6.469163E+03
       366  23 -2.365370E+05 -2.997583E+04 -5.316904E+02 -8.438047E+04 -1.402452E+03  5.093385E+03
       366  24 -2.440983E+05 -2.244126E+04 -3.036831E+02 -7.585469E+04 -1.183452E+03  3.710994E+03
       366  25 -4.117740E+05 -8.580284E+04 -4.489801E+04 -1.219336E+05 -2.275567E+03  6.220589E+03
       366  26 -3.758843E+05 -8.259491E+04 -3.712225E+04 -1.227170E+05 -2.062915E+03  4.843415E+03
       366  27 -3.551320E+05 -6.440738E+04 -2.957083E+04 -1.064155E+05 -1.847325E+03  3.459621E+03
       367   1 -1.702285E+05  5.443426E+03  1.905100E+04 -5.549451E+04  2.808627E+02 -3.197392E+03
       367   2 -1.910523E+05 -1.282150E+04  1.178475E+04 -7.188029E+04 -1.271000E+02 -1.883518E+03
       367   3 -2.270343E+05 -1.596467E+04  4.454887E+03 -7.114250E+04 -5.346980E+02 -5.709895E+02
       367   4 -2.441051E+05 -2.243882E+04 -2.388917E+02 -7.583408E+04  9.447830E+02 -2.945949E+03
       367   5 -2.365252E+05 -2.999691E+04 -1.554356E+02 -8.439686E+04  5.361206E+02 -1.632304E+03
       367   6 -2.441038E+05 -2.243287E+04 -1.348477E+02 -7.583615E+04  1.278257E+02 -3.200000E+02
       367   7 -3.179765E+05 -5.032080E+04 -1.952931E+04 -9.617152E+04  1.608619E+03 -2.694538E+03
       367   8 -2.819961E+05 -4.717221E+04 -1.209582E+04 -9.691262E+04  1.199289E+03 -1.381109E+03
       367   9 -2.611729E+05 -2.890106E+04 -4.724607E+03 -8.052969E+04  7.903293E+02 -6.901815E+01
       367  10 -1.702285E+05  5.443415E+03  1.905098E+04 -5.549451E+04 -3.268812E-09  1.660261E-09
       367  11 -1.910523E+05 -1.282150E+04  1.178475E+04 -7.188029E+04 -2.725823E-09  2.772531E-09
       367  12 -2.270343E+05 -1.596467E+04  4.454886E+03 -7.114250E+04 -1.763138E-09  8.818238E-10
       367  13 -2.441051E+05 -2.243883E+04 -2.389097E+02 -7.583407E+04  2.709679E-10 -7.235995E-09
       367  14 -2.365252E+05 -2.999691E+04 -1.554412E+02 -8.439686E+04 -4.589852E-09  7.310650E-09
       367  15 -2.441038E+05 -2.243287E+04 -1.348479E+02 -7.583615E+04 -1.144826E-09 -4.943267E-09
       367  16 -3.179765E+05 -5.032081E+04 -1.952933E+04 -9.617151E+04  2.241107E-09  6.543105E-09
       367  17 -2.819961E+05 -4.717222E+04 -1.209583E+04 -9.691262E+04  2.745752E-09  4.727587E-09
       367  18 -2.611729E+05 -2.890106E+04 -4.724608E+03 -8.052969E+04  2.033337E-09 -5.754826E-10
       367  19 -1.702285E+05  5.443426E+03  1.905100E+04 -5.549451E+04 -2.808627E+02  3.197392E+03
       367  20 -1.910523E+05 -1.282150E+04  1.178475E+04 -7.188029E+04  1.271000E+02  1.883518E+03
       367  21 -2.270343E+05 -1.596467E+04  4.454887E+03 -7.114250E+04  5.346980E+02  5.709895E+02
       367  22 -2.441051E+05 -2.243882E+04 -2.388917E+02 -7.583408E+04 -9.447830E+02  2.945949E+03
       367  23 -2.365252E+05 -2.999691E+04 -1.554356E+02 -8.439686E+04 -5.361206E+02  1.632304E+03
       367  24 -2.441038E+05 -2.243287E+04 -1.348477E+02 -7.583615E+04 -1.278257E+02  3.200000E+02
       367  25 -3.179765E+05 -5.032080E+04 -1.952931E+04 -9.617152E+04 -1.608619E+03  2.694538E+03
       367  26 -2.819961E+05 -4.717221E+04 -1.209582E+04 -9.691262E+04 -1.199289E+03  1.381109E+03
       367  27 -2.611729E+05 -2.890106E+04 -4.724607E+03 -8.052969E+04 -7.903293E+02  6.901815E+01
       368   1 -2.642684E+05 -3.006899E+04 -5.543797E+03 -8.139132E+04 -8.077408E+02  1.871457E+02
       368   2 -2.850898E+05 -4.833055E+04 -1.294336E+04 -9.776052E+04 -1.179169E+03  1.514746E+03
       368   3 -3.210903E+05 -5.152913E+04 -2.044859E+04 -9.699440E+04 -1.536849E+03  2.806512E+03
       368   4 -2.441050E+05 -2.242666E+04 -1.403624E+02 -7.584065E+04 -1.350593E+02  4.419817E+02
       368   5 -2.365216E+05 -2.998993E+04 -1.908704E+02 -8.439687E+04 -5.250233E+02  1.762518E+03
       368   6 -2.441142E+05 -2.248668E+04 -3.322562E+02 -7.581821E+04 -9.012358E+02  3.047229E+03
       368   7 -2.239412E+05 -1.478433E+04  5.263022E+03 -7.028983E+04  5.376443E+02  6.968261E+02
       368   8 -1.879511E+05 -1.164916E+04  1.256142E+04 -7.103227E+04  1.291785E+02  2.010311E+03
       368   9 -1.671322E+05  6.556223E+03  1.978364E+04 -5.463959E+04 -2.655342E+02  3.287980E+03
       368  10 -2.642684E+05 -3.006899E+04 -5.543798E+03 -8.139132E+04  1.881670E-10  7.047049E-09
       368  11 -2.850898E+05 -4.833055E+04 -1.294337E+04 -9.776051E+04  3.103034E-09  1.091977E-09
       368  12 -3.210903E+05 -5.152913E+04 -2.044861E+04 -9.699439E+04 -3.238084E-09  6.368429E-09
       368  13 -2.441050E+05 -2.242666E+04 -1.403628E+02 -7.584065E+04 -2.533812E-09  9.603839E-09
       368  14 -2.365216E+05 -2.998993E+04 -1.908767E+02 -8.439686E+04 -2.256076E-09  1.998630E-09
       368  15 -2.441142E+05 -2.248669E+04 -3.322752E+02 -7.581821E+04 -3.287362E-10 -6.399685E-09
       368  16 -2.239412E+05 -1.478434E+04  5.263020E+03 -7.028983E+04 -1.276767E-09 -3.033384E-09
       368  17 -1.879511E+05 -1.164916E+04  1.256141E+04 -7.103227E+04 -3.024628E-09 -1.148990E-09
       368  18 -1.671322E+05  6.556211E+03  1.978362E+04 -5.463959E+04  4.398146E-10  8.959091E-09
       368  19 -2.642684E+05 -3.006899E+04 -5.543797E+03 -8.139132E+04  8.077408E+02 -1.871457E+02
       368  20 -2.850898E+05 -4.833055E+04 -1.294336E+04 -9.776052E+04  1.179169E+03 -1.514746E+03
       368  21 -3.210903E+05 -5.152913E+04 -2.044859E+04 -9.699440E+04  1.536849E+03 -2.806512E+03
       368  22 -2.441050E+05 -2.242666E+04 -1.403624E+02 -7.584065E+04  1.350593E+02 -4.419817E+02
       368  23 -2.365216E+05 -2.998993E+04 -1.908704E+02 -8.439687E+04  5.250233E+02 -1.762518E+03
       368  24 -2.441142E+05 -2.248668E+04 -3.322562E+02 -7.581821E+04  9.012358E+02 -3.047229E+03
       368  25 -2.239412E+05 -1.478433E+04  5.263022E+03 -7.028983E+04 -5.376443E+02 -6.968261E+02
       368  26 -1.879511E+05 -1.164916E+04  1.256142E+04 -7.103227E+04 -1.291785E+02 -2.010311E+03
       368  27 -1.671322E+05  6.556223E+03  1.978364E+04 -5.463959E+04  2.655342E+02 -3.287980E+03
       369   1 -3.582079E+05 -6.560214E+04 -3.048570E+04 -1.073423E+05 -1.926445E+03  3.590335E+03
       369   2 -3.789462E+05 -8.365111E+04 -3.811431E+04 -1.235296E+05 -1.781206E+03  5.088340E+03
       369   3 -4.150775E+05 -8.734661E+04 -4.639591E+04 -1.224909E+05 -1.452538E+03  6.102893E+03
       369   4 -2.441236E+05 -2.242437E+04 -4.176360E+02 -7.587842E+04 -1.149534E+03  3.884513E+03
       369   5 -2.364924E+05 -2.990603E+04 -7.215440E+02 -8.438536E+04 -1.253989E+03  5.287852E+03
       369   6 -2.442055E+05 -2.298492E+04 -1.480210E+03 -7.566692E+04 -1.175003E+03  6.207808E+03
       369   7 -1.300266E+05  2.075424E+04  2.964931E+04 -4.440930E+04 -3.724658E+02  4.178750E+03
       369   8 -9.401924E+04  2.384023E+04  3.666943E+04 -4.523308E+04 -7.266390E+02  5.487414E+03
       369   9 -7.330571E+04  4.137838E+04  4.343286E+04 -2.883149E+04 -8.973859E+02  6.312754E+03
       369  10 -3.582079E+05 -6.560216E+04 -3.048573E+04 -1.073423E+05 -3.749450E-09  3.342628E-09
       369  11 -3.789462E+05 -8.365113E+04 -3.811436E+04 -1.235296E+05 -2.307754E-09  7.357031E-11
       369  12 -4.150776E+05 -8.734665E+04 -4.639599E+04 -1.224909E+05  3.919976E-10  8.050230E-10
       369  13 -2.441236E+05 -2.242439E+04 -4.176668E+02 -7.587842E+04  6.865496E-10  2.849446E-09
       369  14 -2.364924E+05 -2.990606E+04 -7.215995E+02 -8.438535E+04 -4.097064E-09  1.160213E-08
       369  15 -2.442055E+05 -2.298496E+04 -1.480285E+03 -7.566692E+04  2.084389E-09 -1.418990E-09
       369  16 -1.300266E+05  2.075422E+04  2.964927E+04 -4.440930E+04  3.607451E-09  6.455982E-09
       369  17 -9.401924E+04  2.384020E+04  3.666937E+04 -4.523308E+04  2.502688E-09 -2.496407E-09
       369  18 -7.330572E+04  4.137834E+04  4.343278E+04 -2.883149E+04  5.602665E-10  1.960004E-10
       369  19 -3.582079E+05 -6.560214E+04 -3.048570E+04 -1.073423E+05  1.926445E+03 -3.590335E+03
       369  20 -3.789462E+05 -8.365111E+04 -3.811431E+04 -1.235296E+05  1.781206E+03 -5.088340E+03
       369  21 -4.150775E+05 -8.734661E+04 -4.639591E+04 -1.224909E+05  1.452538E+03 -6.102893E+03
       369  22 -2.441236E+05 -2.242437E+04 -4.176360E+02 -7.587842E+04  1.149534E+03 -3.884513E+03
       369  23 -2.364924E+05 -2.990603E+04 -7.215440E+02 -8.438536E+04  1.253989E+03 -5.287852E+03
       369  24 -2.442055E+05 -2.298492E+04 -1.480210E+03 -7.566692E+04  1.175003E+03 -6.207808E+03
       369  25 -1.300266E+05  2.075424E+04  2.964931E+04 -4.440930E+04  3.724658E+02 -4.178750E+03
       369  26 -9.401924E+04  2.384023E+04  3.666943E+04 -4.523308E+04  7.266390E+02 -5.487414E+03
       369  27 -7.330571E+04  4.137838E+04  4.343286E+04 -2.883149E+04  8.973859E+02 -6.312754E+03
       370   1 -4.516323E+05 -1.012300E+05 -5.631314E+04 -1.338615E+05 -3.778275E+03  7.131808E+03
       370   2 -4.720608E+05 -1.177189E+05 -6.483565E+04 -1.487514E+05  9.136505E+02  1.005170E+04
       370   3 -5.105605E+05 -1.264821E+05 -7.904794E+04 -1.451600E+05  8.107982E+03  6.353465E+03
       370   4 -2.443767E+05 -2.230301E+04 -1.819146E+03 -7.615184E+04 -1.551758E+03  7.974176E+03
       370   5 -2.360622E+05 -2.916483E+04 -3.033487E+03 -8.438741E+04 -2.771026E+02  9.601021E+03
       370   6 -2.451399E+05 -2.762136E+04 -7.225071E+03 -7.414199E+04  3.499680E+03  4.611032E+03
       370   7 -3.707854E+04  5.662727E+04  5.267144E+04 -1.842447E+04  6.755861E+02  8.816863E+03
       370   8 -9.781592E+00  5.939253E+04  5.876390E+04 -2.000145E+04 -1.468353E+03  9.150160E+03
       370   9  2.034670E+04  7.124240E+04  6.459117E+04 -3.097376E+03 -1.110768E+03  2.867818E+03
       370  10 -4.516323E+05 -1.012301E+05 -5.631326E+04 -1.338615E+05 -1.188700E-09  3.366692E-09
       370  11 -4.720608E+05 -1.177190E+05 -6.483584E+04 -1.487514E+05 -3.968987E-09  2.681285E-09
       370  12 -5.105606E+05 -1.264822E+05 -7.904814E+04 -1.451600E+05 -3.163458E-09 -5.132359E-10
       370  13 -2.443767E+05 -2.230308E+04 -1.819270E+03 -7.615183E+04  1.429358E-09 -4.946569E-09
       370  14 -2.360622E+05 -2.916493E+04 -3.033660E+03 -8.438741E+04  2.947047E-09 -2.260305E-09
       370  15 -2.451399E+05 -2.762139E+04 -7.225134E+03 -7.414200E+04  3.914636E-10 -2.148921E-09
       370  16 -3.707856E+04  5.662719E+04  5.267130E+04 -1.842448E+04  1.530555E-09  1.601073E-09
       370  17 -9.806379E+00  5.939244E+04  5.876374E+04 -2.000143E+04 -1.577694E-09  9.861176E-10
       370  18  2.034669E+04  7.124240E+04  6.459115E+04 -3.097374E+03 -9.532852E-10 -2.830694E-09
       370  19 -4.516323E+05 -1.012300E+05 -5.631314E+04 -1.338615E+05  3.778275E+03 -7.131808E+03
       370  20 -4.720608E+05 -1.177189E+05 -6.483565E+04 -1.487514E+05 -9.136505E+02 -1.005170E+04
       370  21 -5.105605E+05 -1.264821E+05 -7.904794E+04 -1.451600E+05 -8.107982E+03 -6.353465E+03
       370  22 -2.443767E+05 -2.230301E+04 -1.819146E+03 -7.615184E+04  1.551758E+03 -7.974176E+03
       370  23 -2.360622E+05 -2.916483E+04 -3.033487E+03 -8.438741E+04  2.771026E+02 -9.601021E+03
       370  24 -2.451399E+05 -2.762136E+04 -7.225071E+03 -7.414199E+04 -3.499680E+03 -4.611032E+03
       370  25 -3.707854E+04  5.662727E+04  5.267144E+04 -1.842447E+04 -6.755861E+02 -8.816863E+03
       370  26 -9.781592E+00  5.939253E+04  5.876390E+04 -2.000145E+04  1.468353E+03 -9.150160E+03
       370  27  2.034670E+04  7.124240E+04  6.459117E+04 -3.097376E+03  1.110768E+03 -2.867818E+03
       371   1 -5.820042E+04  2.685102E+04 -6.701370E+02 -1.430121E+04 -7.816930E+04 -5.642798E+03
       371   2 -8.031733E+04  1.310181E+05  5.718420E+04 -3.315169E+03 -5.439638E+04 -1.655594E+04
       371   3 -1.357267E+05  1.143003E+05  6.937136E+04  3.382770E+04 -3.066027E+04 -1.556479E+04
       371   4 -5.747101E+05 -1.016939E+05 -1.278468E+05  1.899226E+04 -8.746464E+04 -5.674047E+03
       371   5 -5.574618E+05  1.294562E+04 -5.623997E+04  5.753811E+03 -5.714385E+04 -1.656624E+04
       371   6 -5.746731E+05  5.510287E+03 -3.487693E+04  1.867419E+04 -2.685801E+04 -1.555195E+04
       371   7 -1.090974E+06 -2.302543E+05 -2.550422E+05  5.225781E+04 -9.675223E+04 -5.706309E+03
       371   8 -1.034397E+06 -1.051429E+05 -1.696800E+05  1.481562E+04 -5.988921E+04 -1.657662E+04
       371   9 -1.013442E+06 -1.032927E+05 -1.391385E+05  3.531297E+03 -2.305841E+04 -1.553928E+04
       371  10 -5.820699E+04  2.684935E+04 -6.816808E+02 -1.430157E+04 -6.488996E-09  1.087553E-09
       371  11 -8.032058E+04  1.310170E+05  5.717812E+04 -3.315894E+03 -2.350958E-09  9.543741E-09
       371  12 -1.357278E+05  1.142997E+05  6.936914E+04  3.382732E+04  4.773742E-09  1.404727E-09
       371  13 -5.747183E+05 -1.016960E+05 -1.278613E+05  1.899186E+04  8.404865E-10 -4.403682E-09
       371  14 -5.574653E+05  1.294445E+04 -5.624663E+04  5.753048E+03  1.261784E-09 -6.038396E-09
       371  15 -5.746740E+05  5.509834E+03 -3.487874E+04  1.867385E+04 -2.016482E-09  1.557471E-09
       371  16 -1.090984E+06 -2.302569E+05 -2.550599E+05  5.225737E+04  4.565572E-09  7.029662E-10
       371  17 -1.034401E+06 -1.051442E+05 -1.696872E+05  1.481482E+04 -9.183825E-10  1.097053E-08
       371  18 -1.013443E+06 -1.032931E+05 -1.391400E+05  3.531008E+03 -4.622246E-09  8.459265E-10
       371  19 -5.820042E+04  2.685102E+04 -6.701370E+02 -1.430121E+04  7.816930E+04  5.642798E+03
       371  20 -8.031733E+04  1.310181E+05  5.718420E+04 -3.315169E+03  5.439638E+04  1.655594E+04
       371  21 -1.357267E+05  1.143003E+05  6.937136E+04  3.382770E+04  3.066027E+04  1.556479E+04
       371  22 -5.747101E+05 -1.016939E+05 -1.278468E+05  1.899226E+04  8.746464E+04  5.674047E+03
       371  23 -5.574618E+05  1.294562E+04 -5.623997E+04  5.753811E+03  5.714385E+04  1.656624E+04
       371  24 -5.746731E+05  5.510287E+03 -3.487693E+04  1.867419E+04  2.685801E+04  1.555195E+04
       371  25 -1.090974E+06 -2.302543E+05 -2.550422E+05  5.225781E+04  9.675223E+04  5.706309E+03
       371  26 -1.034397E+06 -1.051429E+05 -1.696800E+05  1.481562E+04  5.988921E+04  1.657662E+04
       371  27 -1.013442E+06 -1.032927E+05 -1.391385E+05  3.531297E+03  2.305841E+04  1.553928E+04
       372   1 -1.765567E+05  8.707247E+04  6.486887E+04  1.699614E+04 -2.175697E+04 -1.294308E+04
       372   2 -2.139536E+05  8.850273E+04  6.911460E+04  5.730641E+03 -1.475577E+04 -1.209142E+04
       372   3 -2.553438E+05  7.812157E+04  6.582260E+04  2.132223E+04 -7.759023E+03 -1.043115E+04
       372   4 -5.679172E+05 -9.860187E+03 -2.838293E+04  1.895458E+04 -2.151460E+04 -1.294288E+04
       372   5 -5.658746E+05  1.353447E+03 -1.457676E+04  5.506507E+03 -1.407141E+04 -1.208936E+04
       372   6 -5.679067E+05  6.748053E+02 -8.619088E+03  1.891665E+04 -6.632245E+03 -1.042707E+04
       372   7 -9.591371E+05 -1.068039E+05 -1.216455E+05  2.091165E+04 -2.127237E+04 -1.294267E+04
       372   8 -9.176817E+05 -8.580476E+04 -9.827679E+04  5.282396E+03 -1.338743E+04 -1.208730E+04
       372   9 -8.803799E+05 -7.677900E+04 -8.306762E+04  1.651220E+04 -5.506032E+03 -1.042301E+04
       372  10 -1.765572E+05  8.707216E+04  6.486766E+04  1.699592E+04  3.572307E-09 -3.382638E-09
       372  11 -2.139539E+05  8.850251E+04  6.911391E+04  5.730497E+03 -2.850046E-09  3.783094E-09
       372  12 -2.553438E+05  7.812144E+04  6.582228E+04  2.132216E+04 -4.065221E-09  9.520557E-09
       372  13 -5.679178E+05 -9.860492E+03 -2.838412E+04  1.895436E+04  1.440983E-09  9.810352E-09
       372  14 -5.658748E+05  1.353237E+03 -1.457741E+04  5.506370E+03  1.019028E-09 -1.984077E-08
       372  15 -5.679067E+05  6.746768E+02 -8.619375E+03  1.891659E+04  1.862793E-10  8.175469E-09
       372  16 -9.591377E+05 -1.068042E+05 -1.216466E+05  2.091143E+04 -4.788830E-09 -7.581611E-09
       372  17 -9.176820E+05 -8.580497E+04 -9.827740E+04  5.282265E+03 -2.177559E-10 -3.970618E-09
       372  18 -8.803799E+05 -7.677912E+04 -8.306788E+04  1.651216E+04  5.155953E-09  1.751937E-09
       372  19 -1.765567E+05  8.707247E+04  6.486887E+04  1.699614E+04  2.175697E+04  1.294308E+04
       372  20 -2.139536E+05  8.850273E+04  6.911460E+04  5.730641E+03  1.475577E+04  1.209142E+04
       372  21 -2.553438E+05  7.812157E+04  6.582260E+04  2.132223E+04  7.759023E+03  1.043115E+04
       372  22 -5.679172E+05 -9.860187E+03 -2.838293E+04  1.895458E+04  2.151460E+04  1.294288E+04
       372  23 -5.658746E+05  1.353447E+03 -1.457676E+04  5.506507E+03  1.407141E+04  1.208936E+04
       372  24 -5.679067E+05  6.748053E+02 -8.619088E+03  1.891665E+04  6.632245E+03  1.042707E+04
       372  25 -9.591371E+05 -1.068039E+05 -1.216455E+05  2.091165E+04  2.127237E+04  1.294267E+04
       372  26 -9.176817E+05 -8.580476E+04 -9.827679E+04  5.282396E+03  1.338743E+04  1.208730E+04
       372  27 -8.803799E+05 -7.677900E+04 -8.306762E+04  1.651220E+04  5.506032E+03  1.042301E+04
       373   1 -3.030663E+05  6.457298E+04  5.597767E+04  1.962312E+04 -6.174311E+03 -9.331168E+03
       373   2 -3.426827E+05  5.569541E+04  4.958970E+04  6.063493E+03 -4.356290E+03 -7.680731E+03
       373   3 -3.830081E+05  4.585570E+04  4.172692E+04  1.977761E+04 -2.539351E+03 -5.969159E+03
       373   4 -5.671532E+05 -8.130359E+02 -6.731328E+03  1.902368E+04 -5.283042E+03 -9.327869E+03
       373   5 -5.667929E+05  1.874578E+02 -3.712586E+03  5.384367E+03 -3.432025E+03 -7.677114E+03
       373   6 -5.671484E+05  2.200153E+02 -2.191864E+03  1.901942E+04 -1.581973E+03 -5.965209E+03
       373   7 -8.311760E+05 -6.620407E+04 -6.944519E+04  1.842442E+04 -4.392151E+03 -9.324571E+03
       373   8 -7.908570E+05 -5.532412E+04 -5.701839E+04  4.705441E+03 -2.508092E+03 -7.673499E+03
       373   9 -7.512577E+05 -4.541812E+04 -4.611302E+04  1.826142E+04 -6.248785E+02 -5.961261E+03
       373  10 -3.030663E+05  6.457287E+04  5.597743E+04  1.962307E+04 -8.797752E-10 -6.844931E-09
       373  11 -3.426828E+05  5.569534E+04  4.958956E+04  6.063466E+03 -3.593976E-09 -1.001931E-08
       373  12 -3.830081E+05  4.585566E+04  4.172684E+04  1.977760E+04 -7.030105E-10 -4.899749E-09
       373  13 -5.671533E+05 -8.131368E+02 -6.731544E+03  1.902364E+04  2.130828E-09 -1.864894E-09
       373  14 -5.667930E+05  1.873914E+02 -3.712719E+03  5.384346E+03  4.900889E-10 -8.352848E-09
       373  15 -5.671485E+05  2.199764E+02 -2.191935E+03  1.901941E+04  1.397522E-09 -5.988345E-09
       373  16 -8.311761E+05 -6.620417E+04 -6.944539E+04  1.842439E+04 -1.626970E-09 -7.909433E-09
       373  17 -7.908570E+05 -5.532418E+04 -5.701851E+04  4.705425E+03  5.170936E-10  7.501832E-09
       373  18 -7.512577E+05 -4.541816E+04 -4.611309E+04  1.826142E+04  2.019892E-09  1.153892E-08
       373  19 -3.030663E+05  6.457298E+04  5.597767E+04  1.962312E+04  6.174311E+03  9.331168E+03
       373  20 -3.426827E+05  5.569541E+04  4.958970E+04  6.063493E+03  4.356290E+03  7.680731E+03
       373  21 -3.830081E+05  4.585570E+04  4.172692E+04  1.977761E+04  2.539351E+03  5.969159E+03
       373  22 -5.671532E+05 -8.130359E+02 -6.731328E+03  1.902368E+04  5.283042E+03  9.327869E+03
       373  23 -5.667929E+05  1.874578E+02 -3.712586E+03  5.384367E+03  3.432025E+03  7.677114E+03
       373  24 -5.671484E+05  2.200153E+02 -2.191864E+03  1.901942E+04  1.581973E+03  5.965209E+03
       373  25 -8.311760E+05 -6.620407E+04 -6.944519E+04  1.842442E+04  4.392151E+03  9.324571E+03
       373  26 -7.908570E+05 -5.532412E+04 -5.701839E+04  4.705441E+03  2.508092E+03  7.673499E+03
       373  27 -7.512577E+05 -4.541812E+04 -4.611302E+04  1.826142E+04  6.248785E+02  5.961261E+03
       374   1 -4.319669E+05  3.351856E+04  3.029599E+04  1.951060E+04 -2.179210E+03 -4.963202E+03
       374   2 -4.721047E+05  2.355389E+04  2.148391E+04  5.640735E+03 -1.662847E+03 -3.248332E+03
       374   3 -5.125694E+05  1.370095E+04  1.230088E+04  1.926967E+04 -1.146869E+03 -1.526849E+03
       374   4 -5.670583E+05  8.083655E+01 -1.715648E+03  1.907090E+04 -1.236011E+03 -4.959220E+03
       374   5 -5.668928E+05  7.443306E+01 -1.062321E+03  5.321132E+03 -7.161294E+02 -3.244256E+03
       374   6 -5.670564E+05  1.792331E+02 -7.823716E+02  1.907042E+04 -1.965979E+02 -1.522674E+03
       374   7 -7.021329E+05 -3.335820E+04 -3.372856E+04  1.863128E+04 -2.930168E+02 -4.955238E+03
       374   8 -6.616727E+05 -2.340567E+04 -2.360918E+04  5.001570E+03  2.304446E+02 -3.240181E+03
       374   9 -6.215407E+05 -1.334270E+04 -1.386583E+04  1.887118E+04  7.535897E+02 -1.518498E+03
       374  10 -4.319669E+05  3.351854E+04  3.029594E+04  1.951059E+04  1.400071E-09 -6.324312E-09
       374  11 -4.721047E+05  2.355388E+04  2.148389E+04  5.640730E+03 -5.303867E-09  2.428656E-09
       374  12 -5.125694E+05  1.370095E+04  1.230087E+04  1.926967E+04 -4.539204E-09 -4.487276E-09
       374  13 -5.670583E+05  8.080974E+01 -1.715698E+03  1.907090E+04  2.789320E-09  1.523755E-09
       374  14 -5.668928E+05  7.442162E+01 -1.062342E+03  5.321130E+03  1.571577E-10 -1.500588E-08
       374  15 -5.670564E+05  1.792306E+02 -7.823760E+02  1.907042E+04  5.709320E-10 -7.877331E-09
       374  16 -7.021329E+05 -3.335823E+04 -3.372860E+04  1.863128E+04 -2.983151E-09  3.850313E-09
       374  17 -6.616727E+05 -2.340569E+04 -2.360920E+04  5.001570E+03  1.234399E-09  9.188070E-09
       374  18 -6.215407E+05 -1.334270E+04 -1.386584E+04  1.887118E+04  6.006244E-09  6.732987E-10
       374  19 -4.319669E+05  3.351856E+04  3.029599E+04  1.951060E+04  2.179210E+03  4.963202E+03
       374  20 -4.721047E+05  2.355389E+04  2.148391E+04  5.640735E+03  1.662847E+03  3.248332E+03
       374  21 -5.125694E+05  1.370095E+04  1.230088E+04  1.926967E+04  1.146869E+03  1.526849E+03
       374  22 -5.670583E+05  8.083655E+01 -1.715648E+03  1.907090E+04  1.236011E+03  4.959220E+03
       374  23 -5.668928E+05  7.443306E+01 -1.062321E+03  5.321132E+03  7.161294E+02  3.244256E+03
       374  24 -5.670564E+05  1.792331E+02 -7.823716E+02  1.907042E+04  1.965979E+02  1.522674E+03
       374  25 -7.021329E+05 -3.335820E+04 -3.372856E+04  1.863128E+04  2.930168E+02  4.955238E+03
       374  26 -6.616727E+05 -2.340567E+04 -2.360918E+04  5.001570E+03 -2.304446E+02  3.240181E+03
       374  27 -6.215407E+05 -1.334270E+04 -1.386583E+04  1.887118E+04 -7.535897E+02  1.518498E+03
       375   1 -5.618507E+05  1.438615E+03  3.781023E+02  1.908914E+04 -1.014504E+03 -5.231575E+02
       375   2 -6.020547E+05 -8.638364E+03 -9.173660E+03  5.189733E+03 -6.178769E+02  1.199583E+03
       375   3 -6.425704E+05 -1.856430E+04 -1.901093E+04  1.883227E+04 -2.211439E+02  2.918158E+03
       375   4 -5.670521E+05  1.747110E+02 -7.366802E+02  1.907998E+04 -6.404128E+01 -5.189635E+02
       375   5 -5.668958E+05  7.135832E+01 -8.101290E+02  5.309183E+03  3.302674E+02  1.203734E+03
       375   6 -5.670528E+05  1.194148E+02 -1.167529E+03  1.908022E+04  7.247078E+02  2.922272E+03
       375   7 -5.722535E+05 -1.089194E+03 -1.851461E+03  1.907082E+04  8.864138E+02 -5.147696E+02
       375   8 -5.317357E+05  8.780992E+03  7.553319E+03  5.428637E+03  1.278465E+03  1.207885E+03
       375   9 -4.915300E+05  1.880272E+04  1.667548E+04  1.932820E+04  1.670674E+03  2.926385E+03
       375  10 -5.618507E+05  1.438614E+03  3.780999E+02  1.908914E+04 -7.152123E-09  1.543751E-09
       375  11 -6.020547E+05 -8.638366E+03 -9.173664E+03  5.189734E+03 -4.575826E-09 -1.700273E-09
       375  12 -6.425704E+05 -1.856431E+04 -1.901095E+04  1.883227E+04 -3.759565E-09 -6.709479E-09
       375  13 -5.670521E+05  1.747107E+02 -7.366807E+02  1.907998E+04  8.753852E-10  1.090980E-08
       375  14 -5.668958E+05  7.135673E+01 -8.101320E+02  5.309182E+03 -7.934405E-10 -1.075890E-09
       375  15 -5.670528E+05  1.194055E+02 -1.167546E+03  1.908022E+04  1.167415E-09 -6.913630E-09
       375  16 -5.722535E+05 -1.089195E+03 -1.851463E+03  1.907082E+04  4.644659E-09  1.330849E-09
       375  17 -5.317357E+05  8.780990E+03  7.553313E+03  5.428636E+03  1.539654E-09 -1.950515E-08
       375  18 -4.915300E+05  1.880271E+04  1.667546E+04  1.932820E+04  5.765366E-09 -1.578302E-08
       375  19 -5.618507E+05  1.438615E+03  3.781023E+02  1.908914E+04  1.014504E+03  5.231575E+02
       375  20 -6.020547E+05 -8.638364E+03 -9.173660E+03  5.189733E+03  6.178769E+02 -1.199583E+03
       375  21 -6.425704E+05 -1.856430E+04 -1.901093E+04  1.883227E+04  2.211439E+02 -2.918158E+03
       375  22 -5.670521E+05  1.747110E+02 -7.366802E+02  1.907998E+04  6.404128E+01  5.189635E+02
       375  23 -5.668958E+05  7.135832E+01 -8.101290E+02  5.309183E+03 -3.302674E+02 -1.203734E+03
       375  24 -5.670528E+05  1.194148E+02 -1.167529E+03  1.908022E+04 -7.247078E+02 -2.922272E+03
       375  25 -5.722535E+05 -1.089194E+03 -1.851461E+03  1.907082E+04 -8.864138E+02  5.147696E+02
       375  26 -5.317357E+05  8.780992E+03  7.553319E+03  5.428637E+03 -1.278465E+03 -1.207885E+03
       375  27 -4.915300E+05  1.880272E+04  1.667548E+04  1.932820E+04 -1.670674E+03 -2.926385E+03
       376   1 -6.918155E+05 -3.071250E+04 -3.123968E+04  1.853306E+04 -3.768976E+00  3.926062E+03
       376   2 -7.316866E+05 -4.069856E+04 -4.160858E+04  4.834619E+03  1.213950E+03  5.643091E+03
       376   3 -7.721132E+05 -5.121806E+04 -5.296196E+04  1.853315E+04  2.432386E+03  7.306749E+03
       376   4 -5.671083E+05  2.075109E+02 -1.451075E+03  1.904692E+04  9.551570E+02  3.930173E+03
       376   5 -5.668345E+05  1.420395E+02 -2.390963E+03  5.350065E+03  2.143708E+03  5.646933E+03
       376   6 -5.671118E+05 -4.513912E+02 -4.294591E+03  1.904973E+04  3.333052E+03  7.310334E+03
       376   7 -4.423868E+05  3.112640E+04  2.833643E+04  1.956087E+04  1.914275E+03  3.934286E+03
       376   8 -4.019574E+05  4.098068E+04  3.682476E+04  5.865622E+03  3.073711E+03  5.650777E+03
       376   9 -3.620717E+05  5.031225E+04  4.436985E+04  1.956645E+04  4.234015E+03  7.313920E+03
       376  10 -6.918155E+05 -3.071252E+04 -3.123970E+04  1.853306E+04 -1.221763E-08 -3.575854E-10
       376  11 -7.316866E+05 -4.069860E+04 -4.160864E+04  4.834614E+03  2.147261E-09 -1.299129E-08
       376  12 -7.721132E+05 -5.121812E+04 -5.296207E+04  1.853314E+04  1.546744E-08  1.238937E-09
       376  13 -5.671083E+05  2.074940E+02 -1.451106E+03  1.904692E+04  1.774232E-09 -1.394172E-09
       376  14 -5.668345E+05  1.420040E+02 -2.391031E+03  5.350055E+03  5.293183E-10 -1.419345E-11
       376  15 -5.671118E+05 -4.514516E+02 -4.294712E+03  1.904971E+04 -6.965995E-10  7.545206E-09
       376  16 -4.423868E+05  3.112638E+04  2.833640E+04  1.956086E+04  9.633865E-09  2.339766E-09
       376  17 -4.019574E+05  4.098065E+04  3.682468E+04  5.865608E+03 -4.397625E-09 -2.070349E-09
       376  18 -3.620718E+05  5.031219E+04  4.436972E+04  1.956642E+04 -1.392046E-08  1.217363E-08
       376  19 -6.918155E+05 -3.071250E+04 -3.123968E+04  1.853306E+04  3.768976E+00 -3.926062E+03
       376  20 -7.316866E+05 -4.069856E+04 -4.160858E+04  4.834619E+03 -1.213950E+03 -5.643091E+03
       376  21 -7.721132E+05 -5.121806E+04 -5.296196E+04  1.853315E+04 -2.432386E+03 -7.306749E+03
       376  22 -5.671083E+05  2.075109E+02 -1.451075E+03  1.904692E+04 -9.551570E+02 -3.930173E+03
       376  23 -5.668345E+05  1.420395E+02 -2.390963E+03  5.350065E+03 -2.143708E+03 -5.646933E+03
       376  24 -5.671118E+05 -4.513912E+02 -4.294591E+03  1.904973E+04 -3.333052E+03 -7.310334E+03
       376  25 -4.423868E+05  3.112640E+04  2.833643E+04  1.956087E+04 -1.914275E+03 -3.934286E+03
       376  26 -4.019574E+05  4.098068E+04  3.682476E+04  5.865622E+03 -3.073711E+03 -5.650777E+03
       376  27 -3.620717E+05  5.031225E+04  4.436985E+04  1.956645E+04 -4.234015E+03 -7.313920E+03
       377   1 -8.213479E+05 -6.240642E+04 -6.596711E+04  1.724354E+04  3.079702E+03  8.398434E+03
       377   2 -8.596622E+05 -7.180940E+04 -7.906939E+04  5.063170E+03  8.202375E+03  1.007128E+04
       377   3 -9.007121E+05 -8.875139E+04 -9.743532E+04  1.995180E+04  1.332836E+04  1.102172E+04
       377   4 -5.675876E+05  4.943376E+02 -5.487984E+03  1.896704E+04  4.191113E+03  8.402752E+03
       377   5 -5.662583E+05  8.787677E+02 -9.266726E+03  5.445725E+03  8.917439E+03  1.007376E+04
       377   6 -5.675956E+05 -6.204705E+03 -1.803170E+04  1.899270E+04  1.364740E+04  1.102249E+04
       377   7 -3.137681E+05  6.339045E+04  5.498662E+04  2.069118E+04  5.302976E+03  8.407076E+03
       377   8 -2.727753E+05  7.356072E+04  6.052992E+04  5.828385E+03  9.632840E+03  1.007623E+04
       377   9 -2.343772E+05  7.633397E+04  6.136414E+04  1.803299E+04  1.396661E+04  1.102326E+04
       377  10 -8.213479E+05 -6.240650E+04 -6.596726E+04  1.724352E+04 -5.762589E-09  3.144206E-09
       377  11 -8.596623E+05 -7.180953E+04 -7.906971E+04  5.063103E+03 -1.011563E-08  7.516055E-09
       377  12 -9.007123E+05 -8.875157E+04 -9.743588E+04  1.995168E+04  2.691189E-09 -2.786412E-09
       377  13 -5.675876E+05  4.942570E+02 -5.488149E+03  1.896701E+04  2.629802E-09 -4.217500E-09
       377  14 -5.662584E+05  8.786374E+02 -9.267067E+03  5.445653E+03 -1.167530E-09  1.284230E-08
       377  15 -5.675959E+05 -6.204885E+03 -1.803227E+04  1.899258E+04 -1.008996E-10  2.313080E-09
       377  16 -3.137682E+05  6.339036E+04  5.498644E+04  2.069115E+04  3.833139E-09  3.249167E-09
       377  17 -2.727754E+05  7.356059E+04  6.052955E+04  5.828307E+03  5.150345E-09 -1.296044E-08
       377  18 -2.343775E+05  7.633379E+04  6.136354E+04  1.803286E+04 -1.943811E-09  1.679259E-09
       377  19 -8.213479E+05 -6.240642E+04 -6.596711E+04  1.724354E+04 -3.079702E+03 -8.398434E+03
       377  20 -8.596622E+05 -7.180940E+04 -7.906939E+04  5.063170E+03 -8.202375E+03 -1.007128E+04
       377  21 -9.007121E+05 -8.875139E+04 -9.743532E+04  1.995180E+04 -1.332836E+04 -1.102172E+04
       377  22 -5.675876E+05  4.943376E+02 -5.487984E+03  1.896704E+04 -4.191113E+03 -8.402752E+03
       377  23 -5.662583E+05  8.787677E+02 -9.266726E+03  5.445725E+03 -8.917439E+03 -1.007376E+04
       377  24 -5.675956E+05 -6.204705E+03 -1.803170E+04  1.899270E+04 -1.364740E+04 -1.102249E+04
       377  25 -3.137681E+05  6.339045E+04  5.498662E+04  2.069118E+04 -5.302976E+03 -8.407076E+03
       377  26 -2.727753E+05  7.356072E+04  6.052992E+04  5.828385E+03 -9.632840E+03 -1.007623E+04
       377  27 -2.343772E+05  7.633397E+04  6.136414E+04  1.803299E+04 -1.396661E+04 -1.102326E+04
       378   1 -9.530249E+05 -9.093319E+04 -1.127235E+05  8.809520E+03  1.353568E+04  1.345302E+04
       378   2 -9.806777E+05 -9.570824E+04 -1.355628E+05  1.105225E+04  3.863371E+04  1.455606E+04
       378   3 -1.031293E+06 -1.789751E+05 -1.943970E+05  3.971969E+04  6.376418E+04  5.005133E+03
       378   4 -5.718813E+05  3.557622E+03 -2.215366E+04  1.876313E+04  1.703830E+04  1.346545E+04
       378   5 -5.609292E+05  8.233442E+03 -3.572574E+04  5.662115E+03  3.627377E+04  1.454695E+04
       378   6 -5.719075E+05 -6.453599E+04 -8.120207E+04  1.898619E+04  5.554357E+04  4.976447E+03
       378   7 -1.906039E+05  9.803831E+04  6.840607E+04  2.872276E+04  2.054306E+04  1.347798E+04
       378   8 -1.410187E+05  1.121625E+05  6.409904E+04  2.681741E+02  3.391223E+04  1.453790E+04
       378   9 -1.123283E+05  4.988915E+04  3.197781E+04 -1.762845E+03  4.731687E+04  4.948323E+03
       378  10 -9.530252E+05 -9.093343E+04 -1.127241E+05  8.809373E+03  1.586032E-09 -5.291880E-09
       378  11 -9.806794E+05 -9.570887E+04 -1.355660E+05  1.105180E+04  6.781656E-10 -2.446601E-09
       378  12 -1.031298E+06 -1.789762E+05 -1.944047E+05  3.971944E+04  3.596037E-09  1.033777E-08
       378  13 -5.718816E+05  3.557349E+03 -2.215455E+04  1.876294E+04  1.943858E-09  5.467666E-09
       378  14 -5.609307E+05  8.232862E+03 -3.572862E+04  5.661690E+03  1.059503E-09  8.307031E-09
       378  15 -5.719108E+05 -6.453684E+04 -8.120791E+04  1.898597E+04 -1.154607E-09  2.677935E-09
       378  16 -1.906044E+05  9.803800E+04  6.840494E+04  2.872254E+04 -2.991570E-09  6.169133E-09
       378  17 -1.410200E+05  1.121620E+05  6.409648E+04  2.677771E+02 -3.198678E-09  2.588909E-09
       378  18 -1.123307E+05  4.988852E+04  3.197356E+04 -1.763033E+03 -2.435567E-09 -1.094540E-09
       378  19 -9.530249E+05 -9.093319E+04 -1.127235E+05  8.809520E+03 -1.353568E+04 -1.345302E+04
       378  20 -9.806777E+05 -9.570824E+04 -1.355628E+05  1.105225E+04 -3.863371E+04 -1.455606E+04
       378  21 -1.031293E+06 -1.789751E+05 -1.943970E+05  3.971969E+04 -6.376418E+04 -5.005133E+03
       378  22 -5.718813E+05  3.557622E+03 -2.215366E+04  1.876313E+04 -1.703830E+04 -1.346545E+04
       378  23 -5.609292E+05  8.233442E+03 -3.572574E+04  5.662115E+03 -3.627377E+04 -1.454695E+04
       378  24 -5.719075E+05 -6.453599E+04 -8.120207E+04  1.898619E+04 -5.554357E+04 -4.976447E+03
       378  25 -1.906039E+05  9.803831E+04  6.840607E+04  2.872276E+04 -2.054306E+04 -1.347798E+04
       378  26 -1.410187E+05  1.121625E+05  6.409904E+04  2.681741E+02 -3.391223E+04 -1.453790E+04
       378  27 -1.123283E+05  4.988915E+04  3.197781E+04 -1.762845E+03 -4.731687E+04 -4.948323E+03
       379   1 -1.697532E+05 -6.539286E+05 -1.636519E+05  1.674536E+05 -6.712400E+03 -5.261691E+04
       379   2 -1.181360E+05 -5.076202E+05 -1.009291E+05  1.475286E+05 -2.077310E+04 -2.139631E+04
       379   3 -7.987546E+04 -3.684939E+05 -6.187053E+04  1.561333E+05 -2.006994E+04  9.873338E+03
       379   4 -1.680760E+04 -3.609019E+04 -1.734781E+04  1.561598E+05 -6.808388E+03 -1.316880E+04
       379   5 -4.880507E+03 -3.483641E+04 -7.742214E+03  1.419135E+05 -2.080091E+04 -9.203164E+03
       379   6 -1.569145E+03 -3.604579E+04 -2.857956E+03  1.561971E+05 -2.003418E+04 -5.196572E+03
       379   7  1.361119E+05  5.821028E+05  1.289356E+05  1.448548E+05 -6.905768E+03  2.631840E+04
       379   8  1.083616E+05  4.381619E+05  8.543434E+04  1.362940E+05 -2.082893E+04  2.999078E+03
       379   9  7.673120E+04  2.965108E+05  5.615135E+04  1.562609E+05 -1.999843E+04 -2.027432E+04
       379  10 -1.697540E+05 -6.539316E+05 -1.636571E+05  1.674533E+05 -6.922334E-10 -6.195401E-09
       379  11 -1.181366E+05 -5.076208E+05 -1.009308E+05  1.475282E+05 -2.351076E-09  2.764368E-08
       379  12 -7.987591E+04 -3.684941E+05 -6.187148E+04  1.561335E+05 -3.730013E-09  4.486708E-08
       379  13 -1.680769E+04 -3.609039E+04 -1.734823E+04  1.561597E+05  1.456181E-09 -6.944198E-09
       379  14 -4.880995E+03 -3.483662E+04 -7.743186E+03  1.419133E+05 -4.517442E-09  2.830725E-09
       379  15 -1.569584E+03 -3.604593E+04 -2.858761E+03  1.561970E+05 -2.968537E-09  4.047336E-09
       379  16  1.361116E+05  5.821020E+05  1.289342E+05  1.448550E+05 -7.594561E-10  1.191409E-08
       379  17  1.083611E+05  4.381618E+05  8.543351E+04  1.362941E+05 -2.645630E-09 -2.652690E-08
       379  18  7.673066E+04  2.965102E+05  5.614983E+04  1.562605E+05 -5.190322E-09 -4.526933E-08
       379  19 -1.697532E+05 -6.539286E+05 -1.636519E+05  1.674536E+05  6.712400E+03  5.261691E+04
       379  20 -1.181360E+05 -5.076202E+05 -1.009291E+05  1.475286E+05  2.077310E+04  2.139631E+04
       379  21 -7.987546E+04 -3.684939E+05 -6.187053E+04  1.561333E+05  2.006994E+04 -9.873338E+03
       379  22 -1.680760E+04 -3.609019E+04 -1.734781E+04  1.561598E+05  6.808388E+03  1.316880E+04
       379  23 -4.880507E+03 -3.483641E+04 -7.742214E+03  1.419135E+05  2.080091E+04  9.203164E+03
       379  24 -1.569145E+03 -3.604579E+04 -2.857956E+03  1.561971E+05  2.003418E+04  5.196572E+03
       379  25  1.361119E+05  5.821028E+05  1.289356E+05  1.448548E+05  6.905768E+03 -2.631840E+04
       379  26  1.083616E+05  4.381619E+05  8.543434E+04  1.362940E+05  2.082893E+04 -2.999078E+03
       379  27  7.673120E+04  2.965108E+05  5.615135E+04  1.562609E+05  1.999843E+04  2.027432E+04
       380   1 -5.810003E+04 -2.756477E+05 -4.326198E+04  1.569483E+05 -1.486364E+04  9.170046E+03
       380   2 -2.316175E+04 -1.331604E+05 -1.337164E+04  1.422918E+05 -6.997720E+03  8.696796E+03
       380   3  1.220833E+04  9.710042E+03  1.698407E+04  1.571177E+05  1.309328E+03  8.224012E+03
       380   4 -1.590508E+03 -3.537618E+04 -1.040187E+03  1.564033E+05 -1.483091E+04 -4.953245E+03
       380   5 -4.511849E+02 -3.562427E+04  2.620128E+03  1.416656E+05 -6.963601E+03 -6.242893E+03
       380   6  1.262781E+03 -3.536677E+04  7.313200E+03  1.564099E+05  1.344763E+03 -7.531975E+03
       380   7  5.491597E+04  2.049522E+05  4.118026E+04  1.558581E+05 -1.479815E+04 -1.908184E+04
       380   8  2.225902E+04  6.192179E+04  1.861246E+04  1.410393E+05 -6.929455E+03 -2.118485E+04
       380   9 -9.682764E+03 -8.044114E+04 -2.356855E+03  1.557022E+05  1.380236E+03 -2.328683E+04
       380  10 -5.810029E+04 -2.756478E+05 -4.326255E+04  1.569484E+05 -3.009348E-09 -4.652056E-08
       380  11 -2.316183E+04 -1.331605E+05 -1.337187E+04  1.422919E+05 -2.380874E-10 -1.874167E-08
       380  12  1.220831E+04  9.709969E+03  1.698394E+04  1.571176E+05  2.784402E-10  2.090780E-09
       380  13 -1.590751E+03 -3.537626E+04 -1.040646E+03  1.564032E+05 -3.858893E-09 -8.667616E-09
       380  14 -4.512474E+02 -3.562433E+04  2.619964E+03  1.416655E+05  1.788253E-09  5.771438E-10
       380  15  1.262764E+03 -3.536683E+04  7.313090E+03  1.564099E+05  2.033301E-09  2.312016E-09
       380  16  5.491564E+04  2.049518E+05  4.117916E+04  1.558579E+05 -5.573885E-09  5.184234E-08
       380  17  2.225885E+04  6.192129E+04  1.861153E+04  1.410391E+05 -2.331985E-09  2.010083E-08
       380  18 -9.682912E+03 -8.044173E+04 -2.357878E+03  1.557022E+05 -1.913786E-10 -3.098990E-09
       380  19 -5.810003E+04 -2.756477E+05 -4.326198E+04  1.569483E+05  1.486364E+04 -9.170046E+03
       380  20 -2.316175E+04 -1.331604E+05 -1.337164E+04  1.422918E+05  6.997720E+03 -8.696796E+03
       380  21  1.220833E+04  9.710042E+03  1.698407E+04  1.571177E+05 -1.309328E+03 -8.224012E+03
       380  22 -1.590508E+03 -3.537618E+04 -1.040187E+03  1.564033E+05  1.483091E+04  4.953245E+03
       380  23 -4.511849E+02 -3.562427E+04  2.620128E+03  1.416656E+05  6.963601E+03  6.242893E+03
       380  24  1.262781E+03 -3.536677E+04  7.313200E+03  1.564099E+05 -1.344763E+03  7.531975E+03
       380  25  5.491597E+04  2.049522E+05  4.118026E+04  1.558581E+05  1.479815E+04  1.908184E+04
       380  26  2.225902E+04  6.192179E+04  1.861246E+04  1.410393E+05  6.929455E+03  2.118485E+04
       380  27 -9.682764E+03 -8.044114E+04 -2.356855E+03  1.557022E+05 -1.380236E+03  2.328683E+04
       381   1  3.384141E+04  1.030309E+05  3.634017E+04  1.546407E+05  6.826353E+03  7.575659E+03
       381   2  7.600645E+04  2.409216E+05  7.680221E+04  1.527596E+05  1.058207E+04 -2.179179E+04
       381   3  1.415850E+05  3.887000E+05  1.422758E+05  1.797896E+05  3.997068E+03 -5.119323E+04
       381   4  1.216939E+03 -3.402495E+04  1.030956E+04  1.562716E+05  6.863470E+03 -8.797232E+03
       381   5  9.055730E+03 -3.731651E+04  1.993729E+04  1.418599E+05  1.057648E+04 -1.904771E+04
       381   6  3.699719E+04 -3.405006E+04  4.130765E+04  1.563575E+05  3.947840E+03 -2.932542E+04
       381   7 -3.140848E+04 -1.710621E+05 -1.572087E+04  1.579022E+05  6.900506E+03 -2.516660E+04
       381   8 -5.789938E+04 -3.154808E+05 -3.693162E+04  1.309653E+05  1.057080E+04 -1.630483E+04
       381   9 -6.760117E+04 -4.566341E+05 -5.967099E+04  1.329414E+05  3.896946E+03 -7.472429E+03
       381  10  3.384134E+04  1.030309E+05  3.633997E+04  1.546406E+05  1.601393E-09  3.748567E-09
       381  11  7.600621E+04  2.409211E+05  7.680111E+04  1.527598E+05  3.802732E-09  7.605076E-09
       381  12  1.415843E+05  3.886972E+05  1.422709E+05  1.797898E+05  1.010342E-09 -9.193943E-10
       381  13  1.216867E+03 -3.402505E+04  1.030933E+04  1.562717E+05 -4.792222E-10 -6.502966E-09
       381  14  9.055512E+03 -3.731693E+04  1.993640E+04  1.418601E+05  4.924504E-09  3.316635E-09
       381  15  3.699694E+04 -3.405099E+04  4.130601E+04  1.563576E+05  1.797217E-10  2.331560E-09
       381  16 -3.140870E+04 -1.710628E+05 -1.572215E+04  1.579024E+05  1.373829E-09  2.508211E-09
       381  17 -5.789957E+04 -3.154811E+05 -3.693233E+04  1.309654E+05  4.663864E-09 -7.249307E-09
       381  18 -6.760121E+04 -4.566342E+05 -5.967113E+04  1.329415E+05  9.369289E-10  1.236165E-09
       381  19  3.384141E+04  1.030309E+05  3.634017E+04  1.546407E+05 -6.826353E+03 -7.575659E+03
       381  20  7.600645E+04  2.409216E+05  7.680221E+04  1.527596E+05 -1.058207E+04  2.179179E+04
       381  21  1.415850E+05  3.887000E+05  1.422758E+05  1.797896E+05 -3.997068E+03  5.119323E+04
       381  22  1.216939E+03 -3.402495E+04  1.030956E+04  1.562716E+05 -6.863470E+03  8.797232E+03
       381  23  9.055730E+03 -3.731651E+04  1.993729E+04  1.418599E+05 -1.057648E+04  1.904771E+04
       381  24  3.699719E+04 -3.405006E+04  4.130765E+04  1.563575E+05 -3.947840E+03  2.932542E+04
       381  25 -3.140848E+04 -1.710621E+05 -1.572087E+04  1.579022E+05 -6.900506E+03  2.516660E+04
       381  26 -5.789938E+04 -3.154808E+05 -3.693162E+04  1.309653E+05 -1.057080E+04  1.630483E+04
       381  27 -6.760117E+04 -4.566341E+05 -5.967099E+04  1.329414E+05 -3.896946E+03  7.472429E+03
       382   1  1.005249E+06  3.692351E+05  2.440342E+05  3.514462E+05  9.952242E+04  3.299301E+04
       382   2  9.675718E+05  2.165479E+05  1.494976E+05  3.528961E+05  6.505600E+04  1.062512E+04
       382   3  9.691551E+05  2.076013E+05  1.183326E+05  3.374412E+05  2.717858E+04 -2.720129E+03
       382   4  6.606130E+05  2.052111E+05  1.438966E+05  2.226503E+05  9.292820E+04  3.049191E+04
       382   5  6.338907E+05  8.094404E+04  6.023817E+04  2.511072E+05  6.314821E+04  9.901280E+03
       382   6  6.455271E+05  9.953031E+04  3.626519E+04  2.626523E+05  2.995507E+04 -1.668370E+03
       382   7  3.160978E+05  4.121754E+04  4.374863E+04  9.392685E+04  8.633805E+04  2.799323E+04
       382   8  3.003186E+05 -5.464740E+04 -2.903087E+04  1.493696E+05  6.124153E+04  9.177943E+03
       382   9  3.219990E+05 -8.539764E+03 -4.581075E+04  1.878957E+05  3.272997E+04 -6.170529E+02
       382  10  1.005238E+06  3.692313E+05  2.440135E+05  3.514436E+05 -6.473216E-09  2.744810E-09
       382  11  9.675672E+05  2.165466E+05  1.494895E+05  3.528955E+05 -4.160101E-09  5.841089E-09
       382  12  9.691543E+05  2.076011E+05  1.183312E+05  3.374413E+05  6.540893E-09 -3.297409E-09
       382  13  6.606034E+05  2.052078E+05  1.438786E+05  2.226480E+05  2.260647E-10 -3.048787E-09
       382  14  6.338864E+05  8.094286E+04  6.023050E+04  2.511067E+05 -2.792471E-09 -7.048061E-09
       382  15  6.455261E+05  9.953007E+04  3.626350E+04  2.626523E+05 -7.174229E-10 -2.769492E-09
       382  16  3.160896E+05  4.121470E+04  4.373316E+04  9.392490E+04  3.165074E-09  7.956899E-10
       382  17  3.003145E+05 -5.464849E+04 -2.903807E+04  1.493692E+05 -3.720379E-09  7.042561E-09
       382  18  3.219978E+05 -8.540052E+03 -4.581277E+04  1.878957E+05 -6.230293E-09 -6.015422E-09
       382  19  1.005249E+06  3.692351E+05  2.440342E+05  3.514462E+05 -9.952242E+04 -3.299301E+04
       382  20  9.675718E+05  2.165479E+05  1.494976E+05  3.528961E+05 -6.505600E+04 -1.062512E+04
       382  21  9.691551E+05  2.076013E+05  1.183326E+05  3.374412E+05 -2.717858E+04  2.720129E+03
       382  22  6.606130E+05  2.052111E+05  1.438966E+05  2.226503E+05 -9.292820E+04 -3.049191E+04
       382  23  6.338907E+05  8.094404E+04  6.023817E+04  2.511072E+05 -6.314821E+04 -9.901280E+03
       382  24  6.455271E+05  9.953031E+04  3.626519E+04  2.626523E+05 -2.995507E+04  1.668370E+03
       382  25  3.160978E+05  4.121754E+04  4.374863E+04  9.392685E+04 -8.633805E+04 -2.799323E+04
       382  26  3.003186E+05 -5.464740E+04 -2.903087E+04  1.493696E+05 -6.124153E+04 -9.177943E+03
       382  27  3.219990E+05 -8.539764E+03 -4.581075E+04  1.878957E+05 -3.272997E+04  6.170529E+02
       383   1  9.165857E+05  2.212339E+05  1.024728E+05  3.331760E+05  2.400164E+04 -1.655885E+03
       383   2  8.948373E+05  1.902152E+05  8.010049E+04  3.196034E+05  1.609141E+04 -4.047533E+03
       383   3  8.650138E+05  1.868748E+05  6.714627E+04  3.188208E+05  7.937800E+03 -5.797344E+03
       383   4  6.409373E+05  1.140301E+05  2.943334E+04  2.540700E+05  2.410300E+04 -1.617962E+03
       383   5  6.442316E+05  9.479216E+04  1.422363E+04  2.497348E+05  1.652816E+04 -3.882305E+03
       383   6  6.393860E+05  1.031699E+05  8.169511E+03  2.581891E+05  8.709544E+03 -5.504881E+03
       383   7  3.653624E+05  6.832282E+03 -4.361266E+04  1.749962E+05  2.420432E+04 -1.580059E+03
       383   8  3.936870E+05 -6.263919E+02 -5.165849E+04  1.798919E+05  1.696471E+04 -3.717153E+03
       383   9  4.138080E+05  1.946800E+04 -5.081135E+04  1.975772E+05  9.480978E+03 -5.212530E+03
       383  10  9.165851E+05  2.212338E+05  1.024717E+05  3.331760E+05 -4.089174E-09 -4.243513E-09
       383  11  8.948370E+05  1.902151E+05  8.009997E+04  3.196034E+05 -3.570131E-09  4.696640E-10
       383  12  8.650137E+05  1.868747E+05  6.714609E+04  3.188208E+05  1.010736E-09  3.989346E-09
       383  13  6.409367E+05  1.140299E+05  2.943224E+04  2.540700E+05  1.662136E-09  3.096965E-10
       383  14  6.442313E+05  9.479207E+04  1.422309E+04  2.497349E+05 -3.568361E-09 -1.359892E-08
       383  15  6.393859E+05  1.031698E+05  8.169312E+03  2.581891E+05 -7.635258E-10  7.935035E-09
       383  16  3.653617E+05  6.832122E+03 -4.361377E+04  1.749962E+05  4.278036E-09 -6.234102E-09
       383  17  3.936866E+05 -6.264840E+02 -5.165906E+04  1.798919E+05 -2.219031E-10  2.542424E-09
       383  18  4.138079E+05  1.946795E+04 -5.081157E+04  1.975773E+05 -5.986554E-09  5.077075E-09
       383  19  9.165857E+05  2.212339E+05  1.024728E+05  3.331760E+05 -2.400164E+04  1.655885E+03
       383  20  8.948373E+05  1.902152E+05  8.010049E+04  3.196034E+05 -1.609141E+04  4.047533E+03
       383  21  8.650138E+05  1.868748E+05  6.714627E+04  3.188208E+05 -7.937800E+03  5.797344E+03
       383  22  6.409373E+05  1.140301E+05  2.943334E+04  2.540700E+05 -2.410300E+04  1.617962E+03
       383  23  6.442316E+05  9.479216E+04  1.422363E+04  2.497348E+05 -1.652816E+04  3.882305E+03
       383  24  6.393860E+05  1.031699E+05  8.169511E+03  2.581891E+05 -8.709544E+03  5.504881E+03
       383  25  3.653624E+05  6.832282E+03 -4.361266E+04  1.749962E+05 -2.420432E+04  1.580059E+03
       383  26  3.936870E+05 -6.263919E+02 -5.165849E+04  1.798919E+05 -1.696471E+04  3.717153E+03
       383  27  4.138080E+05  1.946800E+04 -5.081135E+04  1.975772E+05 -9.480978E+03  5.212530E+03
       384   1  8.287506E+05  1.765168E+05  5.613176E+04  3.098082E+05  6.665754E+03 -5.382635E+03
       384   2  8.093431E+05  1.583633E+05  4.635031E+04  2.949766E+05  4.532942E+03 -4.896657E+03
       384   3  7.768170E+05  1.555097E+05  3.822002E+04  2.955315E+05  2.385211E+03 -4.372511E+03
       384   4  6.388754E+05  1.045597E+05  6.357330E+03  2.572033E+05  7.240704E+03 -5.164716E+03
       384   5  6.453600E+05  9.636884E+04  3.322955E+03  2.497165E+05  5.128185E+03 -4.670920E+03
       384   6  6.387217E+05  1.034745E+05  1.924244E+03  2.576162E+05  3.000670E+03 -4.138979E+03
       384   7  4.490346E+05  3.260471E+04 -4.342033E+04  2.046128E+05  7.815461E+03 -4.946870E+03
       384   8  4.814025E+05  3.437600E+04 -3.970676E+04  2.044671E+05  5.723256E+03 -4.445249E+03
       384   9  5.006448E+05  5.144051E+04 -3.437316E+04  2.197086E+05  3.615979E+03 -3.905504E+03
       384  10  8.287505E+05  1.765168E+05  5.613163E+04  3.098082E+05  6.578335E-09 -2.207057E-09
       384  11  8.093431E+05  1.583633E+05  4.635023E+04  2.949766E+05  2.776826E-09 -9.022343E-09
       384  12  7.768170E+05  1.555097E+05  3.821997E+04  2.955315E+05 -2.300250E-09  5.929147E-10
       384  13  6.388753E+05  1.045597E+05  6.357181E+03  2.572034E+05 -1.211561E-09  2.784691E-09
       384  14  6.453599E+05  9.636881E+04  3.322865E+03  2.497165E+05 -3.238224E-10  5.187409E-09
       384  15  6.387217E+05  1.034745E+05  1.924195E+03  2.576163E+05 -1.089544E-09  6.200126E-09
       384  16  4.490345E+05  3.260467E+04 -4.342049E+04  2.046128E+05 -8.471267E-09  4.091836E-09
       384  17  4.814025E+05  3.437597E+04 -3.970686E+04  2.044672E+05 -1.594654E-09  2.850972E-08
       384  18  5.006448E+05  5.144049E+04 -3.437321E+04  2.197086E+05  5.201193E-09  2.573652E-08
       384  19  8.287506E+05  1.765168E+05  5.613176E+04  3.098082E+05 -6.665754E+03  5.382635E+03
       384  20  8.093431E+05  1.583633E+05  4.635031E+04  2.949766E+05 -4.532942E+03  4.896657E+03
       384  21  7.768170E+05  1.555097E+05  3.822002E+04  2.955315E+05 -2.385211E+03  4.372511E+03
       384  22  6.388754E+05  1.045597E+05  6.357330E+03  2.572033E+05 -7.240704E+03  5.164716E+03
       384  23  6.453600E+05  9.636884E+04  3.322955E+03  2.497165E+05 -5.128185E+03  4.670920E+03
       384  24  6.387217E+05  1.034745E+05  1.924244E+03  2.576162E+05 -3.000670E+03  4.138979E+03
       384  25  4.490346E+05  3.260471E+04 -4.342033E+04  2.046128E+05 -7.815461E+03  4.946870E+03
       384  26  4.814025E+05  3.437600E+04 -3.970676E+04  2.044671E+05 -5.723256E+03  4.445249E+03
       384  27  5.006448E+05  5.144051E+04 -3.437316E+04  2.197086E+05 -3.615979E+03  3.905504E+03
       385   1  7.428587E+05  1.429362E+05  2.875015E+04  2.862290E+05  1.858512E+03 -3.788368E+03
       385   2  7.239871E+05  1.262694E+05  2.155569E+04  2.714371E+05  9.421843E+02 -2.810227E+03
       385   3  6.915409E+05  1.234665E+05  1.475868E+04  2.720711E+05  2.611445E+01 -1.833290E+03
       385   4  6.386827E+05  1.035678E+05  1.511329E+03  2.574699E+05  2.458348E+03 -3.560706E+03
       385   5  6.454645E+05  9.659146E+04  9.525718E+02  2.497740E+05  1.541479E+03 -2.582715E+03
       385   6  6.386710E+05  1.034793E+05  7.917898E+02  2.575040E+05  6.248443E+02 -1.605934E+03
       385   7  5.345174E+05  6.420023E+04 -2.572832E+04  2.287151E+05  3.058072E+03 -3.333086E+03
       385   8  5.669478E+05  6.691392E+04 -1.965107E+04  2.281133E+05  2.140691E+03 -2.355236E+03
       385   9  5.858037E+05  8.349221E+04 -1.317538E+04  2.429381E+05  1.223520E+03 -1.378599E+03
       385  10  7.428587E+05  1.429362E+05  2.875011E+04  2.862291E+05  5.698165E-09 -2.048690E-09
       385  11  7.239871E+05  1.262694E+05  2.155567E+04  2.714371E+05  4.599212E-09 -4.615419E-09
       385  12  6.915409E+05  1.234665E+05  1.475867E+04  2.720711E+05 -3.709935E-09 -2.827743E-10
       385  13  6.386827E+05  1.035678E+05  1.511294E+03  2.574699E+05 -4.979186E-10 -9.596294E-10
       385  14  6.454645E+05  9.659145E+04  9.525548E+02  2.497740E+05  4.017542E-09 -9.687662E-09
       385  15  6.386710E+05  1.034793E+05  7.917843E+02  2.575040E+05  2.382688E-09 -1.125177E-08
       385  16  5.345174E+05  6.420022E+04 -2.572836E+04  2.287151E+05 -5.016105E-09  6.158558E-09
       385  17  5.669478E+05  6.691391E+04 -1.965109E+04  2.281134E+05 -1.464482E-10 -2.455198E-08
       385  18  5.858037E+05  8.349221E+04 -1.317539E+04  2.429381E+05  1.061711E-08 -3.800018E-09
       385  19  7.428587E+05  1.429362E+05  2.875015E+04  2.862290E+05 -1.858512E+03  3.788368E+03
       385  20  7.239871E+05  1.262694E+05  2.155569E+04  2.714371E+05 -9.421843E+02  2.810227E+03
       385  21  6.915409E+05  1.234665E+05  1.475868E+04  2.720711E+05 -2.611445E+01  1.833290E+03
       385  22  6.386827E+05  1.035678E+05  1.511329E+03  2.574699E+05 -2.458348E+03  3.560706E+03
       385  23  6.454645E+05  9.659146E+04  9.525718E+02  2.497740E+05 -1.541479E+03  2.582715E+03
       385  24  6.386710E+05  1.034793E+05  7.917898E+02  2.575040E+05 -6.248443E+02  1.605934E+03
       385  25  5.345174E+05  6.420023E+04 -2.572832E+04  2.287151E+05 -3.058072E+03  3.333086E+03
       385  26  5.669478E+05  6.691392E+04 -1.965107E+04  2.281133E+05 -2.140691E+03  2.355236E+03
       385  27  5.858037E+05  8.349221E+04 -1.317538E+04  2.429381E+05 -1.223520E+03  1.378599E+03
       386   1  6.580617E+05  1.107937E+05  5.803483E+03  2.628674E+05 -3.614189E+02 -1.210237E+03
       386   2  6.392894E+05  9.428454E+04 -5.455976E+02  2.480996E+05 -1.334221E+03 -2.583181E+02
       386   3  6.070129E+05  9.160594E+04 -6.448529E+03  2.486824E+05 -2.306157E+03  6.915135E+02
       386   4  6.386860E+05  1.034629E+05  8.118490E+02  2.574909E+05  2.365368E+02 -9.831565E+02
       386   5  6.454468E+05  9.660684E+04  1.069128E+03  2.497932E+05 -7.373737E+02 -3.166457E+01
       386   6  6.387029E+05  1.035814E+05  1.773419E+03  2.574458E+05 -1.710442E+03  9.177326E+02
       386   7  6.193107E+05  9.613221E+04 -4.179814E+03  2.521145E+05  8.344720E+02 -7.560833E+02
       386   8  6.516042E+05  9.892915E+04  2.683849E+03  2.514869E+05 -1.405208E+02  1.949910E+02
       386   9  6.703938E+05  1.155569E+05  9.995258E+03  2.662096E+05 -1.114695E+03  1.143964E+03
       386  10  6.580617E+05  1.107937E+05  5.803480E+03  2.628674E+05  2.289248E-09  3.822462E-09
       386  11  6.392894E+05  9.428454E+04 -5.456011E+02  2.480996E+05  3.574825E-09 -9.906373E-09
       386  12  6.070129E+05  9.160594E+04 -6.448540E+03  2.486824E+05 -1.821438E-10 -6.299348E-09
       386  13  6.386860E+05  1.034629E+05  8.118471E+02  2.574909E+05  2.349642E-09  1.667071E-08
       386  14  6.454468E+05  9.660684E+04  1.069127E+03  2.497932E+05  5.165459E-10 -5.649419E-09
       386  15  6.387029E+05  1.035814E+05  1.773412E+03  2.574458E+05  5.786044E-09 -1.017656E-08
       386  16  6.193107E+05  9.613221E+04 -4.179816E+03  2.521145E+05  3.707225E-09 -7.544199E-09
       386  17  6.516042E+05  9.892915E+04  2.683849E+03  2.514869E+05  4.861788E-09 -8.254497E-09
       386  18  6.703938E+05  1.155569E+05  9.995253E+03  2.662096E+05  8.393245E-09 -1.045622E-08
       386  19  6.580617E+05  1.107937E+05  5.803483E+03  2.628674E+05  3.614189E+02  1.210237E+03
       386  20  6.392894E+05  9.428454E+04 -5.455976E+02  2.480996E+05  1.334221E+03  2.583181E+02
       386  21  6.070129E+05  9.160594E+04 -6.448529E+03  2.486824E+05  2.306157E+03 -6.915135E+02
       386  22  6.386860E+05  1.034629E+05  8.118490E+02  2.574909E+05 -2.365368E+02  9.831565E+02
       386  23  6.454468E+05  9.660684E+04  1.069128E+03  2.497932E+05  7.373737E+02  3.166457E+01
       386  24  6.387029E+05  1.035814E+05  1.773419E+03  2.574458E+05  1.710442E+03 -9.177326E+02
       386  25  6.193107E+05  9.613221E+04 -4.179814E+03  2.521145E+05 -8.344720E+02  7.560833E+02
       386  26  6.516042E+05  9.892915E+04  2.683849E+03  2.514869E+05  1.405208E+02 -1.949910E+02
       386  27  6.703938E+05  1.155569E+05  9.995258E+03  2.662096E+05  1.114695E+03 -1.143964E+03
       387   1  5.734381E+05  7.891879E+04 -1.492640E+04  2.397671E+05 -2.908094E+03  1.239038E+03
       387   2  5.544298E+05  6.200132E+04 -1.987532E+04  2.246636E+05 -5.343590E+03  1.639507E+03
       387   3  5.225984E+05  6.047919E+04 -2.288611E+04  2.246740E+05 -7.766235E+03  2.007018E+03
       387   4  6.387823E+05  1.034319E+05  2.278015E+03  2.575819E+05 -2.300567E+03  1.469719E+03
       387   5  6.452859E+05  9.638917E+04  3.974928E+03  2.497752E+05 -4.753446E+03  1.863521E+03
       387   6  6.389695E+05  1.047451E+05  7.623680E+03  2.570824E+05 -7.193562E+03  2.224334E+03
       387   7  7.041309E+05  1.279454E+05  1.948212E+04  2.753983E+05 -1.692968E+03  1.700427E+03
       387   8  7.361501E+05  1.307776E+05  2.782452E+04  2.748903E+05 -4.163206E+03  2.087571E+03
       387   9  7.553537E+05  1.490118E+05  3.813233E+04  2.894963E+05 -6.620771E+03  2.441695E+03
       387  10  5.734381E+05  7.891879E+04 -1.492642E+04  2.397671E+05 -5.275286E-09 -1.920738E-09
       387  11  5.544298E+05  6.200130E+04 -1.987538E+04  2.246636E+05  3.133654E-09 -5.379139E-09
       387  12  5.225983E+05  6.047917E+04 -2.288624E+04  2.246740E+05  4.680042E-09 -1.171721E-09
       387  13  6.387823E+05  1.034319E+05  2.278001E+03  2.575819E+05 -2.903643E-10 -6.915586E-10
       387  14  6.452859E+05  9.638916E+04  3.974879E+03  2.497753E+05 -4.182050E-09  3.650134E-09
       387  15  6.389694E+05  1.047450E+05  7.623574E+03  2.570824E+05  4.320271E-11 -6.873357E-09
       387  16  7.041309E+05  1.279454E+05  1.948211E+04  2.753983E+05  9.223578E-09 -5.840128E-09
       387  17  7.361501E+05  1.307776E+05  2.782447E+04  2.748903E+05 -1.816511E-09  1.202291E-08
       387  18  7.553537E+05  1.490118E+05  3.813224E+04  2.894963E+05 -6.699690E-09 -7.941411E-09
       387  19  5.734381E+05  7.891879E+04 -1.492640E+04  2.397671E+05  2.908094E+03 -1.239038E+03
       387  20  5.544298E+05  6.200132E+04 -1.987532E+04  2.246636E+05  5.343590E+03 -1.639507E+03
       387  21  5.225984E+05  6.047919E+04 -2.288611E+04  2.246740E+05  7.766235E+03 -2.007018E+03
       387  22  6.387823E+05  1.034319E+05  2.278015E+03  2.575819E+05  2.300567E+03 -1.469719E+03
       387  23  6.452859E+05  9.638917E+04  3.974928E+03  2.497752E+05  4.753446E+03 -1.863521E+03
       387  24  6.389695E+05  1.047451E+05  7.623680E+03  2.570824E+05  7.193562E+03 -2.224334E+03
       387  25  7.041309E+05  1.279454E+05  1.948212E+04  2.753983E+05  1.692968E+03 -1.700427E+03
       387  26  7.361501E+05  1.307776E+05  2.782452E+04  2.748903E+05  4.163206E+03 -2.087571E+03
       387  27  7.553537E+05  1.490118E+05  3.813233E+04  2.894963E+05  6.620771E+03 -2.441695E+03
       388   1  4.878468E+05  4.749543E+04 -2.976128E+04  2.182355E+05 -9.613445E+03  2.168478E+03
       388   2  4.680586E+05  2.714573E+04 -2.923974E+04  2.003857E+05 -1.863619E+04  6.647500E+01
       388   3  4.415419E+05  3.675931E+04 -1.794558E+04  1.943196E+05 -2.746337E+04 -2.548788E+03
       388   4  6.396193E+05  1.030356E+05  9.800606E+03  2.582223E+05 -8.884228E+03  2.445172E+03
       388   5  6.438924E+05  9.455253E+04  1.707832E+04  2.498542E+05 -1.817502E+04  2.412607E+02
       388   6  6.414878E+05  1.160823E+05  3.533859E+04  2.532693E+05 -2.727067E+04 -2.476079E+03
       388   7  7.914136E+05  1.585767E+05  4.936044E+04  2.982176E+05 -8.154817E+03  2.721935E+03
       388   8  8.197562E+05  1.619616E+05  6.339372E+04  2.993354E+05 -1.771371E+04  4.161030E+02
       388   9  8.414730E+05  1.954092E+05  8.861943E+04  3.122367E+05 -2.707791E+04 -2.403341E+03
       388  10  4.878467E+05  4.749540E+04 -2.976146E+04  2.182355E+05 -2.830471E-09  9.856134E-09
       388  11  4.680582E+05  2.714563E+04 -2.924039E+04  2.003857E+05  6.167288E-11  1.746809E-08
       388  12  4.415411E+05  3.675910E+04 -1.794701E+04  1.943196E+05  1.212540E-09 -7.728013E-10
       388  13  6.396192E+05  1.030356E+05  9.800446E+03  2.582223E+05 -2.757939E-09 -1.030537E-08
       388  14  6.438921E+05  9.455244E+04  1.707770E+04  2.498542E+05 -5.080778E-09  7.728722E-09
       388  15  6.414870E+05  1.160821E+05  3.533718E+04  2.532693E+05 -1.898613E-09  3.844127E-09
       388  16  7.914135E+05  1.585766E+05  4.936030E+04  2.982176E+05  3.444821E-09 -4.812391E-09
       388  17  8.197559E+05  1.619615E+05  6.339313E+04  2.993354E+05  1.217819E-09  1.625908E-09
       388  18  8.414722E+05  1.954090E+05  8.861805E+04  3.122366E+05 -4.090542E-09  5.518681E-10
       388  19  4.878468E+05  4.749543E+04 -2.976128E+04  2.182355E+05  9.613445E+03 -2.168478E+03
       388  20  4.680586E+05  2.714573E+04 -2.923974E+04  2.003857E+05  1.863619E+04 -6.647500E+01
       388  21  4.415419E+05  3.675931E+04 -1.794558E+04  1.943196E+05  2.746337E+04  2.548788E+03
       388  22  6.396193E+05  1.030356E+05  9.800606E+03  2.582223E+05  8.884228E+03 -2.445172E+03
       388  23  6.438924E+05  9.455253E+04  1.707832E+04  2.498542E+05  1.817502E+04 -2.412607E+02
       388  24  6.414878E+05  1.160823E+05  3.533859E+04  2.532693E+05  2.727067E+04  2.476079E+03
       388  25  7.914136E+05  1.585767E+05  4.936044E+04  2.982176E+05  8.154817E+03 -2.721935E+03
       388  26  8.197562E+05  1.619616E+05  6.339372E+04  2.993354E+05  1.771371E+04 -4.161030E+02
       388  27  8.414730E+05  1.954092E+05  8.861943E+04  3.122367E+05  2.707791E+04  2.403341E+03
       389   1  3.975091E+05  2.126941E+04 -1.863252E+04  2.119574E+05 -3.636659E+04 -3.972543E+03
       389   2  3.761215E+05 -3.014526E+04  3.186806E+03  1.692601E+05 -7.243183E+04 -1.659583E+04
       389   3  4.033257E+05  8.591936E+04  9.371384E+04  1.024526E+05 -1.057701E+05 -3.641013E+04
       389   4  6.470198E+05  9.864666E+04  4.354091E+04  2.635408E+05 -3.404170E+04 -3.090120E+03
       389   5  6.314488E+05  7.798109E+04  7.233714E+04  2.515550E+05 -7.384295E+04 -1.713259E+04
       389   6  6.651809E+05  2.254903E+05  1.727792E+05  2.154656E+05 -1.109182E+05 -3.836880E+04
       389   7  8.965915E+05  1.760237E+05  1.057099E+05  3.151408E+05 -3.171578E+04 -2.207463E+03
       389   8  8.868385E+05  1.861159E+05  1.414813E+05  3.338818E+05 -7.525470E+04 -1.766965E+04
       389   9  9.271036E+05  3.650868E+05  2.518371E+05  3.285271E+05 -1.160686E+05 -4.032917E+04
       389  10  3.975077E+05  2.126904E+04 -1.863503E+04  2.119573E+05  1.126608E-08  1.303004E-08
       389  11  3.761158E+05 -3.014696E+04  3.176437E+03  1.692591E+05  2.573029E-09  6.763398E-09
       389  12  4.033134E+05  8.591494E+04  9.369034E+04  1.024495E+05 -5.784223E-09 -3.739443E-09
       389  13  6.470186E+05  9.864634E+04  4.353871E+04  2.635408E+05 -8.826323E-10  1.801815E-10
       389  14  6.314428E+05  7.797931E+04  7.232636E+04  2.515540E+05  5.635154E-09 -5.183771E-09
       389  15  6.651673E+05  2.254854E+05  1.727533E+05  2.154622E+05  1.404972E-09  1.478869E-09
       389  16  8.965904E+05  1.760234E+05  1.057080E+05  3.151408E+05 -1.549369E-08 -1.255891E-08
       389  17  8.868323E+05  1.861141E+05  1.414701E+05  3.338807E+05 -8.572239E-10  6.802610E-09
       389  18  9.270887E+05  3.650814E+05  2.518088E+05  3.285233E+05  2.647420E-09 -6.320085E-09
       389  19  3.975091E+05  2.126941E+04 -1.863252E+04  2.119574E+05  3.636659E+04  3.972543E+03
       389  20  3.761215E+05 -3.014526E+04  3.186806E+03  1.692601E+05  7.243183E+04  1.659583E+04
       389  21  4.033257E+05  8.591936E+04  9.371384E+04  1.024526E+05  1.057701E+05  3.641013E+04
       389  22  6.470198E+05  9.864666E+04  4.354091E+04  2.635408E+05  3.404170E+04  3.090120E+03
       389  23  6.314488E+05  7.798109E+04  7.233714E+04  2.515550E+05  7.384295E+04  1.713259E+04
       389  24  6.651809E+05  2.254903E+05  1.727792E+05  2.154656E+05  1.109182E+05  3.836880E+04
       389  25  8.965915E+05  1.760237E+05  1.057099E+05  3.151408E+05  3.171578E+04  2.207463E+03
       389  26  8.868385E+05  1.861159E+05  1.414813E+05  3.338818E+05  7.525470E+04  1.766965E+04
       389  27  9.271036E+05  3.650868E+05  2.518371E+05  3.285271E+05  1.160686E+05  4.032917E+04
       390   1 -1.689149E+05 -8.892847E+05 -1.714917E+05  8.914064E+04 -5.648472E+03 -2.401108E+04
       390   2 -1.095694E+05 -7.338166E+05 -1.179140E+05  3.290421E+04 -1.548496E+04 -9.888756E+03
       390   3 -7.393103E+04 -5.852031E+05 -7.930930E+04  7.984529E+04 -1.005411E+04  4.278520E+03
       390   4 -1.828294E+04 -2.857224E+05 -2.254184E+04  8.177193E+04 -5.675259E+03 -1.440801E+04
       390   5  2.100379E+03 -2.830020E+05 -1.071489E+04  3.021091E+04 -1.548732E+04 -8.698392E+03
       390   6  2.491288E+02 -2.856907E+05 -8.005925E+03  8.182400E+04 -1.003674E+04 -2.947482E+03
       390   7  1.323221E+05  3.181718E+05  1.263814E+05  7.439626E+04 -5.702262E+03 -4.795612E+03
       390   8  1.137556E+05  1.679994E+05  9.647005E+04  2.751577E+04 -1.548970E+04 -7.507166E+03
       390   9  7.442286E+04  1.390412E+04  6.329136E+04  8.380371E+04 -1.001943E+04 -1.017696E+04
       390  10 -1.689151E+05 -8.892853E+05 -1.714929E+05  8.914053E+04 -1.393097E-09 -3.326835E-09
       390  11 -1.095697E+05 -7.338167E+05 -1.179147E+05  3.290408E+04 -4.571248E-09 -7.964048E-09
       390  12 -7.393115E+04 -5.852031E+05 -7.930952E+04  7.984532E+04  2.309326E-09  2.125291E-09
       390  13 -1.828303E+04 -2.857226E+05 -2.254229E+04  8.177187E+04  5.601435E-10 -4.244033E-09
       390  14  2.100101E+03 -2.830021E+05 -1.071548E+04  3.021080E+04 -5.671924E-09 -9.332738E-10
       390  15  2.490183E+02 -2.856908E+05 -8.006131E+03  8.182397E+04  6.702336E-10 -3.630495E-09
       390  16  1.323221E+05  3.181718E+05  1.263813E+05  7.439624E+04 -1.682586E-09  3.337932E-09
       390  17  1.137553E+05  1.679993E+05  9.646949E+04  2.751568E+04 -6.881789E-10  1.006731E-08
       390  18  7.442273E+04  1.390399E+04  6.329098E+04  8.380363E+04  3.180395E-10  2.792412E-09
       390  19 -1.689149E+05 -8.892847E+05 -1.714917E+05  8.914064E+04  5.648472E+03  2.401108E+04
       390  20 -1.095694E+05 -7.338166E+05 -1.179140E+05  3.290421E+04  1.548496E+04  9.888756E+03
       390  21 -7.393103E+04 -5.852031E+05 -7.930930E+04  7.984529E+04  1.005411E+04 -4.278520E+03
       390  22 -1.828294E+04 -2.857224E+05 -2.254184E+04  8.177193E+04  5.675259E+03  1.440801E+04
       390  23  2.100379E+03 -2.830020E+05 -1.071489E+04  3.021091E+04  1.548732E+04  8.698392E+03
       390  24  2.491288E+02 -2.856907E+05 -8.005925E+03  8.182400E+04  1.003674E+04  2.947482E+03
       390  25  1.323221E+05  3.181718E+05  1.263814E+05  7.439626E+04  5.702262E+03  4.795612E+03
       390  26  1.137556E+05  1.679994E+05  9.647005E+04  2.751577E+04  1.548970E+04  7.507166E+03
       390  27  7.442286E+04  1.390412E+04  6.329136E+04  8.380371E+04  1.001943E+04  1.017696E+04
       391   1 -3.013478E+04 -3.984992E+05 -3.450347E+04  8.313307E+04 -4.017373E+03  1.363951E+03
       391   2  1.003643E+04 -2.456074E+05  2.167345E+03  2.988861E+04  1.304033E+03  4.882666E+03
       391   3  4.377879E+04 -9.412153E+04  3.507067E+04  8.038734E+04  6.512054E+03  8.402379E+03
       391   4 -1.978181E+03 -2.847881E+05 -7.505925E+03  8.193480E+04 -4.010522E+03 -1.608194E+03
       391   5  5.116154E+02 -2.840703E+05 -6.978670E+03  3.006109E+04  1.310884E+03  1.972838E+03
       391   6 -3.436893E+03 -2.847909E+05 -1.026097E+04  8.193130E+04  6.518845E+03  5.554024E+03
       391   7  2.617749E+04 -1.710652E+05  1.949075E+04  8.073631E+04 -4.003660E+03 -4.580881E+03
       391   8 -9.013299E+03 -3.225319E+05 -1.612476E+04  3.023355E+04  1.317733E+03 -9.368105E+02
       391   9 -5.065519E+04 -4.754269E+05 -5.559511E+04  8.347479E+04  6.525624E+03  2.706540E+03
       391  10 -3.013480E+04 -3.984992E+05 -3.450350E+04  8.313307E+04  2.117612E-09 -9.297072E-09
       391  11  1.003642E+04 -2.456074E+05  2.167297E+03  2.988860E+04 -6.095063E-10 -4.258897E-09
       391  12  4.377873E+04 -9.412162E+04  3.507046E+04  8.038730E+04 -1.371846E-09  1.410459E-09
       391  13 -1.978199E+03 -2.847881E+05 -7.505960E+03  8.193479E+04  2.036366E-09 -2.152834E-09
       391  14  5.116125E+02 -2.840703E+05 -6.978681E+03  3.006108E+04  1.581882E-09 -2.581324E-09
       391  15 -3.436947E+03 -2.847910E+05 -1.026110E+04  8.193127E+04  2.054335E-09  2.921652E-09
       391  16  2.617747E+04 -1.710652E+05  1.949068E+04  8.073629E+04  1.367061E-09  7.157687E-09
       391  17 -9.013301E+03 -3.225319E+05 -1.612476E+04  3.023355E+04 -9.416107E-10  9.035187E-09
       391  18 -5.065523E+04 -4.754270E+05 -5.559520E+04  8.347478E+04 -8.464576E-11  2.640061E-09
       391  19 -3.013478E+04 -3.984992E+05 -3.450347E+04  8.313307E+04  4.017373E+03 -1.363951E+03
       391  20  1.003643E+04 -2.456074E+05  2.167345E+03  2.988861E+04 -1.304033E+03 -4.882666E+03
       391  21  4.377879E+04 -9.412153E+04  3.507067E+04  8.038734E+04 -6.512054E+03 -8.402379E+03
       391  22 -1.978181E+03 -2.847881E+05 -7.505925E+03  8.193480E+04  4.010522E+03  1.608194E+03
       391  23  5.116154E+02 -2.840703E+05 -6.978670E+03  3.006109E+04 -1.310884E+03 -1.972838E+03
       391  24 -3.436893E+03 -2.847909E+05 -1.026097E+04  8.193130E+04 -6.518845E+03 -5.554024E+03
       391  25  2.617749E+04 -1.710652E+05  1.949075E+04  8.073631E+04  4.003660E+03  4.580881E+03
       391  26 -9.013299E+03 -3.225319E+05 -1.612476E+04  3.023355E+04 -1.317733E+03  9.368105E+02
       391  27 -5.065519E+04 -4.754269E+05 -5.559511E+04  8.347479E+04 -6.525624E+03 -2.706540E+03
       392   1  9.430835E+04  8.981422E+04  7.761429E+04  8.553341E+04  1.273908E+04  1.509841E+04
       392   2  1.345041E+05  2.460400E+05  1.073710E+05  2.594986E+04  1.810163E+04  1.546339E+04
       392   3  1.374629E+05  3.939305E+05  1.277890E+05  6.938871E+04  6.508926E+03  1.578050E+04
       392   4  1.109709E+03 -2.867186E+05 -1.193193E+04  8.180572E+04  1.275801E+04  7.452379E+03
       392   5  3.837423E+03 -2.817431E+05 -1.805975E+04  3.024183E+04  1.809803E+04  1.717271E+04
       392   6 -3.231173E+04 -2.867573E+05 -4.003088E+04  8.170748E+04  6.476442E+03  2.684481E+04
       392   7 -9.209906E+04 -6.631211E+05 -1.014878E+05  7.808037E+04  1.277704E+04 -1.890382E+02
       392   8 -1.268492E+05 -8.092705E+05 -1.435099E+05  3.453031E+04  1.809446E+04  1.888057E+04
       392   9 -2.021204E+05 -9.670233E+05 -2.078846E+05  9.401303E+04  6.444379E+03  3.789698E+04
       392  10  9.430812E+04  8.981393E+04  7.761355E+04  8.553325E+04 -2.347552E-11 -5.349242E-09
       392  11  1.345036E+05  2.460396E+05  1.073699E+05  2.594964E+04  1.579527E-11 -2.597234E-09
       392  12  1.374628E+05  3.939302E+05  1.277885E+05  6.938863E+04 -1.058527E-09  3.484918E-09
       392  13  1.109519E+03 -2.867187E+05 -1.193234E+04  8.180564E+04 -1.003532E-10  4.254232E-09
       392  14  3.836992E+03 -2.817435E+05 -1.806092E+04  3.024158E+04  1.824162E-09 -5.191962E-09
       392  15 -3.231197E+04 -2.867581E+05 -4.003231E+04  8.170734E+04 -5.364327E-10 -2.222958E-09
       392  16 -9.209924E+04 -6.631211E+05 -1.014881E+05  7.808037E+04  1.904679E-09  7.563458E-09
       392  17 -1.268497E+05 -8.092710E+05 -1.435112E+05  3.453003E+04  1.764455E-09  1.210086E-08
       392  18 -2.021208E+05 -9.670248E+05 -2.078873E+05  9.401283E+04 -6.454174E-10  5.382375E-09
       392  19  9.430835E+04  8.981422E+04  7.761429E+04  8.553341E+04 -1.273908E+04 -1.509841E+04
       392  20  1.345041E+05  2.460400E+05  1.073710E+05  2.594986E+04 -1.810163E+04 -1.546339E+04
       392  21  1.374629E+05  3.939305E+05  1.277890E+05  6.938871E+04 -6.508926E+03 -1.578050E+04
       392  22  1.109709E+03 -2.867186E+05 -1.193193E+04  8.180572E+04 -1.275801E+04 -7.452379E+03
       392  23  3.837423E+03 -2.817431E+05 -1.805975E+04  3.024183E+04 -1.809803E+04 -1.717271E+04
       392  24 -3.231173E+04 -2.867573E+05 -4.003088E+04  8.170748E+04 -6.476442E+03 -2.684481E+04
       392  25 -9.209906E+04 -6.631211E+05 -1.014878E+05  7.808037E+04 -1.277704E+04  1.890382E+02
       392  26 -1.268492E+05 -8.092705E+05 -1.435099E+05  3.453031E+04 -1.809446E+04 -1.888057E+04
       392  27 -2.021204E+05 -9.670233E+05 -2.078846E+05  9.401303E+04 -6.444379E+03 -3.789698E+04
       393   1  4.507541E+05 -7.238456E+04 -6.492635E+04 -6.125161E+03  1.398336E+04  4.097183E+03
       393   2  4.748845E+05 -9.228367E+04 -7.208641E+04 -2.495101E+03  1.162435E+04  1.236977E+04
       393   3  5.066179E+05 -8.365072E+04 -7.054924E+04 -1.760494E+04  9.274261E+03  1.173471E+04
       393   4  8.394711E+05  2.441106E+04  3.071310E+04 -1.408999E+04  2.102246E+04  4.104292E+03
       393   5  8.352532E+05 -3.148859E+03  1.349849E+04 -4.707875E+03  1.374020E+04  1.237109E+04
       393   6  8.394862E+05 -1.331766E+03  8.392729E+03 -1.406473E+04  6.466964E+03  1.173247E+04
       393   7  1.228326E+06  1.211957E+05  1.263416E+05 -2.205984E+04  2.806595E+04  4.111219E+03
       393   8  1.195741E+06  8.597664E+04  9.907436E+04 -6.921963E+03  1.585727E+04  1.237239E+04
       393   9  1.172456E+06  8.097928E+04  8.732703E+04 -1.052263E+04  3.658169E+03  1.173020E+04
       393  10  4.507539E+05 -7.238463E+04 -6.492675E+04 -6.125207E+03  9.464298E-11 -1.925966E-10
       393  11  4.748844E+05 -9.228387E+04 -7.208695E+04 -2.495217E+03  6.886174E-10 -9.756545E-11
       393  12  5.066178E+05 -8.365089E+04 -7.054966E+04 -1.760503E+04  3.813568E-10  1.857458E-10
       393  13  8.394707E+05  2.441093E+04  3.071224E+04 -1.409006E+04 -7.273560E-12 -8.571141E-11
       393  14  8.352529E+05 -3.149074E+03  1.349785E+04 -4.708012E+03  1.960735E-11 -1.562417E-10
       393  15  8.394861E+05 -1.331925E+03  8.392391E+03 -1.406479E+04 -8.650076E-11  6.848136E-11
       393  16  1.228325E+06  1.211955E+05  1.263401E+05 -2.205994E+04 -5.820915E-11 -1.119249E-10
       393  17  1.195741E+06  8.597641E+04  9.907360E+04 -6.922121E+03 -6.806386E-10 -2.023692E-10
       393  18  1.172456E+06  8.097913E+04  8.732674E+04 -1.052266E+04 -1.426196E-10  2.564286E-11
       393  19  4.507541E+05 -7.238456E+04 -6.492635E+04 -6.125161E+03 -1.398336E+04 -4.097183E+03
       393  20  4.748845E+05 -9.228367E+04 -7.208641E+04 -2.495101E+03 -1.162435E+04 -1.236977E+04
       393  21  5.066179E+05 -8.365072E+04 -7.054924E+04 -1.760494E+04 -9.274261E+03 -1.173471E+04
       393  22  8.394711E+05  2.441106E+04  3.071310E+04 -1.408999E+04 -2.102246E+04 -4.104292E+03
       393  23  8.352532E+05 -3.148859E+03  1.349849E+04 -4.707875E+03 -1.374020E+04 -1.237109E+04
       393  24  8.394862E+05 -1.331766E+03  8.392729E+03 -1.406473E+04 -6.466964E+03 -1.173247E+04
       393  25  1.228326E+06  1.211957E+05  1.263416E+05 -2.205984E+04 -2.806595E+04 -4.111219E+03
       393  26  1.195741E+06  8.597664E+04  9.907436E+04 -6.921963E+03 -1.585727E+04 -1.237239E+04
       393  27  1.172456E+06  8.097928E+04  8.732703E+04 -1.052263E+04 -3.658169E+03 -1.173020E+04
       394   1  5.383159E+05 -7.175945E+04 -6.446304E+04 -1.338493E+04  5.300558E+03  9.833624E+03
       394   2  5.646717E+05 -6.778048E+04 -6.125354E+04 -4.735997E+03  3.829233E+03  9.314940E+03
       394   3  5.920197E+05 -6.096024E+04 -5.635742E+04 -1.437524E+04  2.357593E+03  8.213720E+03
       394   4  8.378442E+05  2.358895E+03  6.829577E+03 -1.397262E+04  5.177080E+03  9.833233E+03
       394   5  8.373231E+05 -3.393735E+02  3.509974E+03 -4.828172E+03  3.383218E+03  9.314478E+03
       394   6  8.378489E+05 -1.410931E+02  2.100187E+03 -1.397137E+04  1.589104E+03  8.213301E+03
       394   7  1.137455E+06  7.647077E+04  7.811592E+04 -1.456062E+04  5.053541E+03  9.832843E+03
       394   8  1.110043E+06  6.709638E+04  6.826830E+04 -4.920393E+03  2.937007E+03  9.314017E+03
       394   9  1.083733E+06  6.067370E+04  6.055358E+04 -1.356734E+04  8.203121E+02  8.212881E+03
       394  10  5.383158E+05 -7.175956E+04 -6.446328E+04 -1.338497E+04  2.422579E-10  3.638388E-12
       394  11  5.646717E+05 -6.778057E+04 -6.125373E+04 -4.736026E+03  3.051568E-10  5.857582E-11
       394  12  5.920197E+05 -6.096031E+04 -5.635756E+04 -1.437526E+04  1.504995E-10  3.997070E-10
       394  13  8.378442E+05  2.358784E+03  6.829344E+03 -1.397267E+04 -6.101553E-11  3.884994E-11
       394  14  8.373230E+05 -3.394698E+02  3.509789E+03 -4.828197E+03 -1.229681E-10 -6.499370E-11
       394  15  8.378488E+05 -1.411663E+02  2.100055E+03 -1.397138E+04 -2.947438E-11  4.636819E-10
       394  16  1.137455E+06  7.647066E+04  7.811569E+04 -1.456066E+04 -2.466420E-10  1.344513E-10
       394  17  1.110043E+06  6.709629E+04  6.826812E+04 -4.920415E+03 -3.816893E-10  2.735416E-11
       394  18  1.083733E+06  6.067363E+04  6.055345E+04 -1.356735E+04 -1.194966E-10  2.705227E-10
       394  19  5.383159E+05 -7.175945E+04 -6.446304E+04 -1.338493E+04 -5.300558E+03 -9.833624E+03
       394  20  5.646717E+05 -6.778048E+04 -6.125354E+04 -4.735997E+03 -3.829233E+03 -9.314940E+03
       394  21  5.920197E+05 -6.096024E+04 -5.635742E+04 -1.437524E+04 -2.357593E+03 -8.213720E+03
       394  22  8.378442E+05  2.358895E+03  6.829577E+03 -1.397262E+04 -5.177080E+03 -9.833233E+03
       394  23  8.373231E+05 -3.393735E+02  3.509974E+03 -4.828172E+03 -3.383218E+03 -9.314478E+03
       394  24  8.378489E+05 -1.410931E+02  2.100187E+03 -1.397137E+04 -1.589104E+03 -8.213301E+03
       394  25  1.137455E+06  7.647077E+04  7.811592E+04 -1.456062E+04 -5.053541E+03 -9.832843E+03
       394  26  1.110043E+06  6.709638E+04  6.826830E+04 -4.920393E+03 -2.937007E+03 -9.314017E+03
       394  27  1.083733E+06  6.067370E+04  6.055358E+04 -1.356734E+04 -8.203121E+02 -8.212881E+03
       395   1  6.240749E+05 -5.260330E+04 -4.901646E+04 -1.385361E+04  1.843243E+03  7.476462E+03
       395   2  6.501256E+05 -4.640666E+04 -4.358041E+04 -4.970684E+03  1.388391E+03  6.400533E+03
       395   3  6.763441E+05 -3.992881E+04 -3.777014E+04 -1.390251E+04  9.331236E+02  5.294311E+03
       395   4  8.376579E+05  2.122441E+02  1.649682E+03 -1.386659E+04  1.257579E+03  7.476178E+03
       395   5  8.375738E+05 -4.295825E+01  9.431573E+02 -4.959366E+03  7.858404E+02  6.400346E+03
       395   6  8.376601E+05 -1.393164E+01  6.226027E+02 -1.386656E+04  3.137052E+02  5.294227E+03
       395   7  1.051283E+06  5.302452E+04  5.231265E+04 -1.387958E+04  6.717137E+02  7.475894E+03
       395   8  1.025054E+06  4.631822E+04  4.546427E+04 -4.948046E+03  1.831085E+02  6.400159E+03
       395   9  9.990000E+05  3.989907E+04  3.901353E+04 -1.383059E+04 -3.058732E+02  5.294144E+03
       395  10  6.240749E+05 -5.260337E+04 -4.901657E+04 -1.385362E+04  7.813671E-10  4.556839E-10
       395  11  6.501256E+05 -4.640671E+04 -4.358049E+04 -4.970691E+03 -2.475783E-09  5.853403E-11
       395  12  6.763441E+05 -3.992884E+04 -3.777020E+04 -1.390252E+04 -4.428025E-09 -6.957168E-10
       395  13  8.376578E+05  2.121836E+02  1.649574E+03 -1.386660E+04 -1.282842E-10  4.411228E-10
       395  14  8.375738E+05 -4.300243E+01  9.430791E+02 -4.959370E+03  1.683172E-11  1.127100E-10
       395  15  8.376601E+05 -1.396177E+01  6.225499E+02 -1.386656E+04 -2.202397E-11 -6.059135E-10
       395  16  1.051283E+06  5.302446E+04  5.231254E+04 -1.387959E+04 -8.744930E-10  4.081980E-10
       395  17  1.025054E+06  4.631817E+04  4.546420E+04 -4.948047E+03  2.435940E-09  1.412098E-10
       395  18  9.990000E+05  3.989904E+04  3.901348E+04 -1.383059E+04  4.342291E-09 -7.551011E-10
       395  19  6.240749E+05 -5.260330E+04 -4.901646E+04 -1.385361E+04 -1.843243E+03 -7.476462E+03
       395  20  6.501256E+05 -4.640666E+04 -4.358041E+04 -4.970684E+03 -1.388391E+03 -6.400533E+03
       395  21  6.763441E+05 -3.992881E+04 -3.777014E+04 -1.390251E+04 -9.331236E+02 -5.294311E+03
       395  22  8.376579E+05  2.122441E+02  1.649682E+03 -1.386659E+04 -1.257579E+03 -7.476178E+03
       395  23  8.375738E+05 -4.295825E+01  9.431573E+02 -4.959366E+03 -7.858404E+02 -6.400346E+03
       395  24  8.376601E+05 -1.393164E+01  6.226027E+02 -1.386656E+04 -3.137052E+02 -5.294227E+03
       395  25  1.051283E+06  5.302452E+04  5.231265E+04 -1.387958E+04 -6.717137E+02 -7.475894E+03
       395  26  1.025054E+06  4.631822E+04  4.546427E+04 -4.948046E+03 -1.831085E+02 -6.400159E+03
       395  27  9.990000E+05  3.989907E+04  3.901353E+04 -1.383059E+04  3.058732E+02 -5.294144E+03
       396   1  7.078559E+05 -3.206669E+04 -3.021179E+04 -1.379269E+04  8.143916E+02  4.647888E+03
       396   2  7.335146E+05 -2.575400E+04 -2.425710E+04 -5.033734E+03  5.811366E+02  3.554053E+03
       396   3  7.592212E+05 -1.939921E+04 -1.813886E+04 -1.378604E+04  3.476438E+02  2.462984E+03
       396   4  8.376351E+05  1.637870E+01  5.349837E+02 -1.379916E+04  2.093364E+02  4.647859E+03
       396   5  8.376123E+05 -7.614714E+00  4.674669E+02 -5.043615E+03 -2.244413E+01  3.554079E+03
       396   6  8.376362E+05  1.018851E+01  5.623976E+02 -1.379916E+04 -2.544530E+02  2.463068E+03
       396   7  9.674297E+05  3.209824E+04  3.128059E+04 -1.380562E+04 -3.958445E+02  4.647830E+03
       396   8  9.417199E+05  2.573799E+04  2.519128E+04 -5.053497E+03 -6.261255E+02  3.554105E+03
       396   9  9.160567E+05  1.941914E+04  1.926323E+04 -1.381227E+04 -8.566254E+02  2.463151E+03
       396  10  7.078559E+05 -3.206671E+04 -3.021183E+04 -1.379270E+04  4.425197E-09 -7.654738E-10
       396  11  7.335146E+05 -2.575402E+04 -2.425713E+04 -5.033736E+03  2.786986E-09 -1.233873E-10
       396  12  7.592212E+05 -1.939921E+04 -1.813888E+04 -1.378604E+04 -5.902940E-10  2.343180E-10
       396  13  8.376351E+05  1.635548E+01  5.349430E+02 -1.379916E+04 -5.457565E-11 -7.989622E-10
       396  14  8.376123E+05 -7.628283E+00  4.674432E+02 -5.043615E+03 -6.306863E-11  7.208979E-11
       396  15  8.376362E+05  1.018198E+01  5.623861E+02 -1.379916E+04 -1.169286E-10  3.160099E-10
       396  16  9.674297E+05  3.209821E+04  3.128055E+04 -1.380562E+04 -4.379435E-09 -6.674219E-10
       396  17  9.417199E+05  2.573798E+04  2.519126E+04 -5.053495E+03 -2.728584E-09  6.906914E-11
       396  18  9.160567E+05  1.941913E+04  1.926322E+04 -1.381227E+04  6.210492E-10  4.896078E-10
       396  19  7.078559E+05 -3.206669E+04 -3.021179E+04 -1.379269E+04 -8.143916E+02 -4.647888E+03
       396  20  7.335146E+05 -2.575400E+04 -2.425710E+04 -5.033734E+03 -5.811366E+02 -3.554053E+03
       396  21  7.592212E+05 -1.939921E+04 -1.813886E+04 -1.378604E+04 -3.476438E+02 -2.462984E+03
       396  22  8.376351E+05  1.637870E+01  5.349837E+02 -1.379916E+04 -2.093364E+02 -4.647859E+03
       396  23  8.376123E+05 -7.614714E+00  4.674669E+02 -5.043615E+03  2.244413E+01 -3.554079E+03
       396  24  8.376362E+05  1.018851E+01  5.623976E+02 -1.379916E+04  2.544530E+02 -2.463068E+03
       396  25  9.674297E+05  3.209824E+04  3.128059E+04 -1.380562E+04  3.958445E+02 -4.647830E+03
       396  26  9.417199E+05  2.573799E+04  2.519128E+04 -5.053497E+03  6.261255E+02 -3.554105E+03
       396  27  9.160567E+05  1.941914E+04  1.926323E+04 -1.381227E+04  8.566254E+02 -2.463151E+03
       397   1  7.903780E+05 -1.167501E+04 -1.048132E+04 -1.374067E+04  2.349259E+02  1.829495E+03
       397   2  8.158207E+05 -5.403383E+03 -4.126817E+03 -5.062934E+03 -2.860824E+02  7.436351E+02
       397   3  8.413571E+05  9.999586E+02  2.597743E+03 -1.376224E+04 -8.071584E+02 -3.394871E+02
       397   4  8.376475E+05  2.002615E-01  6.678889E+02 -1.376937E+04 -3.658672E+02  1.829602E+03
       397   5  8.376010E+05 -1.673582E+01  1.046043E+03 -5.080851E+03 -8.853887E+02  7.437522E+02
       397   6  8.376475E+05  9.783106E+01  1.793268E+03 -1.376934E+04 -1.404957E+03 -3.393574E+02
       397   7  8.849190E+05  1.167525E+04  1.181694E+04 -1.379807E+04 -9.667058E+02  1.829709E+03
       397   8  8.593818E+05  5.369878E+03  6.218872E+03 -5.098769E+03 -1.484716E+03  7.438693E+02
       397   9  8.339378E+05 -8.042972E+02  9.887937E+02 -1.377644E+04 -2.002752E+03 -3.392277E+02
       397  10  7.903780E+05 -1.167501E+04 -1.048132E+04 -1.374067E+04  3.360662E-11  1.448752E-10
       397  11  8.158207E+05 -5.403384E+03 -4.126818E+03 -5.062934E+03 -5.017651E-11 -8.345900E-11
       397  12  8.413571E+05  9.999583E+02  2.597741E+03 -1.376224E+04 -2.512474E-10  3.842413E-11
       397  13  8.376475E+05  1.966296E-01  6.678824E+02 -1.376937E+04 -7.560739E-11  2.536410E-10
       397  14  8.376010E+05 -1.673662E+01  1.046041E+03 -5.080851E+03 -4.624549E-11  2.682147E-11
       397  15  8.376475E+05  9.783041E+01  1.793264E+03 -1.376934E+04 -1.844504E-10 -1.224300E-10
       397  16  8.849190E+05  1.167525E+04  1.181693E+04 -1.379807E+04 -1.395229E-10  2.200987E-10
       397  17  8.593818E+05  5.369877E+03  6.218867E+03 -5.098768E+03  8.680006E-11  1.417890E-10
       397  18  8.339378E+05 -8.042984E+02  9.887859E+02 -1.377644E+04  1.028348E-10  3.626591E-11
       397  19  7.903780E+05 -1.167501E+04 -1.048132E+04 -1.374067E+04 -2.349259E+02 -1.829495E+03
       397  20  8.158207E+05 -5.403383E+03 -4.126817E+03 -5.062934E+03  2.860824E+02 -7.436351E+02
       397  21  8.413571E+05  9.999586E+02  2.597743E+03 -1.376224E+04  8.071584E+02  3.394871E+02
       397  22  8.376475E+05  2.002615E-01  6.678889E+02 -1.376937E+04  3.658672E+02 -1.829602E+03
       397  23  8.376010E+05 -1.673582E+01  1.046043E+03 -5.080851E+03  8.853887E+02 -7.437522E+02
       397  24  8.376475E+05  9.783106E+01  1.793268E+03 -1.376934E+04  1.404957E+03  3.393574E+02
       397  25  8.849190E+05  1.167525E+04  1.181694E+04 -1.379807E+04  9.667058E+02 -1.829709E+03
       397  26  8.593818E+05  5.369878E+03  6.218872E+03 -5.098769E+03  1.484716E+03 -7.438693E+02
       397  27  8.339378E+05 -8.042972E+02  9.887937E+02 -1.377644E+04  2.002752E+03  3.392277E+02
       398   1  8.725298E+05  8.566688E+03  1.065949E+04 -1.360166E+04 -1.168908E+03 -9.742778E+02
       398   2  8.977903E+05  1.476570E+04  1.830163E+04 -5.088032E+03 -3.172421E+03 -2.059018E+03
       398   3  9.236298E+05  2.225171E+04  2.756750E+04 -1.399182E+04 -5.175859E+03 -3.120331E+03
       398   4  8.377547E+05 -4.869352E+01  2.324223E+03 -1.377841E+04 -1.774928E+03 -9.741532E+02
       398   5  8.374654E+05 -1.529278E+02  3.975162E+03 -5.069567E+03 -3.765323E+03 -2.058930E+03
       398   6  8.377527E+05  1.027787E+03  7.241021E+03 -1.377824E+04 -5.755563E+03 -3.120277E+03
       398   7  8.029806E+05 -8.664162E+03 -6.011131E+03 -1.395515E+04 -2.380914E+03 -9.740282E+02
       398   8  7.771438E+05 -1.507182E+04 -1.035156E+04 -5.051103E+03 -4.358168E+03 -2.058842E+03
       398   9  7.518823E+05 -2.019666E+04 -1.308597E+04 -1.356469E+04 -6.335186E+03 -3.120224E+03
       398  10  8.725298E+05  8.566687E+03  1.065949E+04 -1.360166E+04  1.243087E-11  1.556486E-10
       398  11  8.977903E+05  1.476570E+04  1.830161E+04 -5.088037E+03  1.742610E-11  7.873668E-11
       398  12  9.236298E+05  2.225169E+04  2.756743E+04 -1.399183E+04 -2.295142E-11 -2.276446E-11
       398  13  8.377546E+05 -4.869539E+01  2.324215E+03 -1.377841E+04  8.253858E-12 -1.393334E-10
       398  14  8.374653E+05 -1.529361E+02  3.975128E+03 -5.069573E+03  1.765836E-10  1.977425E-11
       398  15  8.377526E+05  1.027767E+03  7.240940E+03 -1.377825E+04  1.151582E-10 -6.775457E-11
       398  16  8.029806E+05 -8.664165E+03 -6.011144E+03 -1.395515E+04 -3.353718E-11 -6.635615E-11
       398  17  7.771437E+05 -1.507183E+04 -1.035160E+04 -5.051110E+03 -2.846794E-11 -1.035536E-10
       398  18  7.518823E+05 -2.019668E+04 -1.308606E+04 -1.356470E+04 -9.419039E-11  1.256780E-10
       398  19  8.725298E+05  8.566688E+03  1.065949E+04 -1.360166E+04  1.168908E+03  9.742778E+02
       398  20  8.977903E+05  1.476570E+04  1.830163E+04 -5.088032E+03  3.172421E+03  2.059018E+03
       398  21  9.236298E+05  2.225171E+04  2.756750E+04 -1.399182E+04  5.175859E+03  3.120331E+03
       398  22  8.377547E+05 -4.869352E+01  2.324223E+03 -1.377841E+04  1.774928E+03  9.741532E+02
       398  23  8.374654E+05 -1.529278E+02  3.975162E+03 -5.069567E+03  3.765323E+03  2.058930E+03
       398  24  8.377527E+05  1.027787E+03  7.241021E+03 -1.377824E+04  5.755563E+03  3.120277E+03
       398  25  8.029806E+05 -8.664162E+03 -6.011131E+03 -1.395515E+04  2.380914E+03  9.740282E+02
       398  26  7.771438E+05 -1.507182E+04 -1.035156E+04 -5.051103E+03  4.358168E+03  2.058842E+03
       398  27  7.518823E+05 -2.019666E+04 -1.308597E+04 -1.356469E+04  6.335186E+03  3.120224E+03
       399   1  9.557585E+05  2.842390E+04  3.718004E+04 -1.223437E+04 -6.515083E+03 -3.810491E+03
       399   2  9.794506E+05  3.393522E+04  4.965397E+04 -5.825184E+03 -1.474987E+04 -4.884424E+03
       399   3  1.007495E+06  5.250064E+04  7.075019E+04 -1.703564E+04 -2.298490E+04 -5.569544E+03
       399   4  8.385825E+05 -5.663919E+02  9.285263E+03 -1.382329E+04 -7.215441E+03 -3.810443E+03
       399   5  8.364207E+05 -1.434905E+03  1.568858E+04 -5.013494E+03 -1.523372E+04 -4.884505E+03
       399   6  8.385738E+05  1.071484E+04  3.056550E+04 -1.382347E+04 -2.325190E+04 -5.569775E+03
       399   7  7.214191E+05 -2.955766E+04 -1.861047E+04 -1.541191E+04 -7.915668E+03 -3.810392E+03
       399   8  6.934097E+05 -3.680649E+04 -1.827823E+04 -4.201993E+03 -1.571746E+04 -4.884587E+03
       399   9  6.696791E+05 -3.107297E+04 -9.621173E+03 -1.061217E+04 -2.351883E+04 -5.570009E+03
       399  10  9.557584E+05  2.842387E+04  3.717993E+04 -1.223439E+04 -1.248935E-10 -5.471711E-11
       399  11  9.794503E+05  3.393513E+04  4.965351E+04 -5.825242E+03  2.103983E-10  6.856433E-11
       399  12  1.007494E+06  5.250047E+04  7.074914E+04 -1.703574E+04  2.139866E-11  1.027163E-10
       399  13  8.385824E+05 -5.664214E+02  9.285138E+03 -1.382331E+04 -1.636142E-11  9.857081E-12
       399  14  8.364205E+05 -1.434993E+03  1.568810E+04 -5.013554E+03  3.984106E-12 -5.186969E-11
       399  15  8.385732E+05  1.071466E+04  3.056443E+04 -1.382357E+04 -2.033493E-10  1.876588E-10
       399  16  7.214190E+05 -2.955769E+04 -1.861062E+04 -1.541193E+04 -5.566051E-12  9.009236E-12
       399  17  6.934094E+05 -3.680659E+04 -1.827874E+04 -4.202054E+03 -2.995975E-10  7.287335E-11
       399  18  6.696785E+05 -3.107316E+04 -9.622270E+03 -1.061228E+04  5.480211E-11  1.558900E-10
       399  19  9.557585E+05  2.842390E+04  3.718004E+04 -1.223437E+04  6.515083E+03  3.810491E+03
       399  20  9.794506E+05  3.393522E+04  4.965397E+04 -5.825184E+03  1.474987E+04  4.884424E+03
       399  21  1.007495E+06  5.250064E+04  7.075019E+04 -1.703564E+04  2.298490E+04  5.569544E+03
       399  22  8.385825E+05 -5.663919E+02  9.285263E+03 -1.382329E+04  7.215441E+03  3.810443E+03
       399  23  8.364207E+05 -1.434905E+03  1.568858E+04 -5.013494E+03  1.523372E+04  4.884505E+03
       399  24  8.385738E+05  1.071484E+04  3.056550E+04 -1.382347E+04  2.325190E+04  5.569775E+03
       399  25  7.214191E+05 -2.955766E+04 -1.861047E+04 -1.541191E+04  7.915668E+03  3.810392E+03
       399  26  6.934097E+05 -3.680649E+04 -1.827823E+04 -4.201993E+03  1.571746E+04  4.884587E+03
       399  27  6.696791E+05 -3.107297E+04 -9.621173E+03 -1.061217E+04  2.351883E+04  5.570009E+03
       400   1  1.046684E+06  4.382247E+04  8.518813E+04  1.265029E+03 -2.697552E+04 -7.030973E+03
       400   2  1.054305E+06  4.218662E+04  1.144332E+05 -1.588440E+04 -6.286524E+04 -7.798356E+03
       400   3  1.099674E+06  1.727038E+05  2.000669E+05 -5.092265E+04 -9.875828E+04 -2.645928E+03
       400   4  8.458871E+05 -5.822940E+03  3.756777E+04 -1.387305E+04 -2.902651E+04 -7.030679E+03
       400   5  8.272670E+05 -1.394743E+04  6.053397E+04 -4.947082E+03 -6.163524E+04 -7.799367E+03
       400   6  8.458388E+05  1.095358E+05  1.376269E+05 -1.390840E+04 -9.424556E+04 -2.650299E+03
       400   7  6.451277E+05 -5.547039E+04 -1.005526E+04 -2.900622E+04 -3.107683E+04 -7.030286E+03
       400   8  6.002767E+05 -7.008473E+04  6.631209E+03  5.986221E+03 -6.040568E+04 -7.800336E+03
       400   9  5.920654E+05  4.636826E+04  7.518289E+04  2.309071E+04 -8.973467E+04 -2.654134E+03
       400  10  1.046683E+06  4.382223E+04  8.518667E+04  1.264876E+03  7.730028E-11  1.699453E-10
       400  11  1.054301E+06  4.218549E+04  1.144257E+05 -1.588480E+04  1.694003E-10  3.093637E-11
       400  12  1.099663E+06  1.727012E+05  2.000486E+05 -5.092286E+04  2.445124E-10  5.641144E-11
       400  13  8.458862E+05 -5.823218E+03  3.756609E+04 -1.387321E+04  5.047575E-11  1.520996E-10
       400  14  8.272629E+05 -1.394851E+04  6.052673E+04 -4.947469E+03 -1.043006E-10  2.277673E-11
       400  15  8.458293E+05  1.095335E+05  1.376102E+05 -1.390860E+04  1.436458E-10 -8.521165E-11
       400  16  6.451266E+05 -5.547070E+04 -1.005717E+04 -2.900639E+04 -7.918887E-11  9.752268E-11
       400  17  6.002728E+05 -7.008577E+04  6.624245E+03  5.985842E+03  5.421632E-11  1.850276E-10
       400  18  5.920568E+05  4.636609E+04  7.516776E+04  2.309052E+04 -1.019703E-10  2.247539E-11
       400  19  1.046684E+06  4.382247E+04  8.518813E+04  1.265029E+03  2.697552E+04  7.030973E+03
       400  20  1.054305E+06  4.218662E+04  1.144332E+05 -1.588440E+04  6.286524E+04  7.798356E+03
       400  21  1.099674E+06  1.727038E+05  2.000669E+05 -5.092265E+04  9.875828E+04  2.645928E+03
       400  22  8.458871E+05 -5.822940E+03  3.756777E+04 -1.387305E+04  2.902651E+04  7.030679E+03
       400  23  8.272670E+05 -1.394743E+04  6.053397E+04 -4.947082E+03  6.163524E+04  7.799367E+03
       400  24  8.458388E+05  1.095358E+05  1.376269E+05 -1.390840E+04  9.424556E+04  2.650299E+03
       400  25  6.451277E+05 -5.547039E+04 -1.005526E+04 -2.900622E+04  3.107683E+04  7.030286E+03
       400  26  6.002767E+05 -7.008473E+04  6.631209E+03  5.986221E+03  6.040568E+04  7.800336E+03
       400  27  5.920654E+05  4.636826E+04  7.518289E+04  2.309071E+04  8.973467E+04  2.654134E+03
       401   1 -1.397157E+05 -8.521523E+04 -8.094305E+04 -1.237738E+04  3.307063E+03  4.085452E+03
       401   2 -1.105079E+05 -9.037144E+04 -7.863315E+04 -4.814734E+03  4.693773E+03  1.231625E+04
       401   3 -7.794415E+04 -8.189954E+04 -7.379360E+04 -1.799098E+04  6.083076E+03  1.155440E+04
       401   4  2.503953E+05  1.201104E+04  1.511164E+04 -1.635171E+04  1.033548E+04  4.087558E+03
       401   5  2.482908E+05 -1.562636E+03  6.634963E+03 -5.981079E+03  6.757540E+03  1.231605E+04
       401   6  2.504015E+05 -6.504446E+02  4.133484E+03 -1.634855E+04  3.182231E+03  1.155421E+04
       401   7  6.406449E+05  1.092261E+05  1.111553E+05 -2.032855E+04  1.736830E+04  4.089573E+03
       401   8  6.072077E+05  8.723691E+04  9.189410E+04 -7.148105E+03  8.822494E+03  1.231584E+04
       401   9  5.788462E+05  8.059091E+04  8.205309E+04 -1.470524E+04  2.798585E+02  1.155400E+04
       401  10 -1.397157E+05 -8.521525E+04 -8.094311E+04 -1.237739E+04 -2.702724E-11 -1.376686E-11
       401  11 -1.105080E+05 -9.037161E+04 -7.863347E+04 -4.814780E+03  8.359527E-11 -1.306062E-10
       401  12 -7.794423E+04 -8.189969E+04 -7.379392E+04 -1.799104E+04  5.930147E-12 -1.452117E-10
       401  13  2.503952E+05  1.201099E+04  1.511141E+04 -1.635174E+04 -4.126270E-11 -1.290233E-10
       401  14  2.482907E+05 -1.562811E+03  6.634593E+03 -5.981146E+03  1.346483E-10 -1.540761E-11
       401  15  2.504015E+05 -6.505907E+02  4.133214E+03 -1.634858E+04 -2.769109E-11 -5.030014E-11
       401  16  6.406445E+05  1.092260E+05  1.111547E+05 -2.032861E+04  1.651799E-10  1.737305E-10
       401  17  6.072076E+05  8.723673E+04  9.189367E+04 -7.148192E+03 -2.612181E-10  5.745307E-12
       401  18  5.788462E+05  8.059077E+04  8.205284E+04 -1.470524E+04 -8.850560E-11 -6.342352E-11
       401  19 -1.397157E+05 -8.521523E+04 -8.094305E+04 -1.237738E+04 -3.307063E+03 -4.085452E+03
       401  20 -1.105079E+05 -9.037144E+04 -7.863315E+04 -4.814734E+03 -4.693773E+03 -1.231625E+04
       401  21 -7.794415E+04 -8.189954E+04 -7.379360E+04 -1.799098E+04 -6.083076E+03 -1.155440E+04
       401  22  2.503953E+05  1.201104E+04  1.511164E+04 -1.635171E+04 -1.033548E+04 -4.087558E+03
       401  23  2.482908E+05 -1.562636E+03  6.634963E+03 -5.981079E+03 -6.757540E+03 -1.231605E+04
       401  24  2.504015E+05 -6.504446E+02  4.133484E+03 -1.634855E+04 -3.182231E+03 -1.155421E+04
       401  25  6.406449E+05  1.092261E+05  1.111553E+05 -2.032855E+04 -1.736830E+04 -4.089573E+03
       401  26  6.072077E+05  8.723691E+04  9.189410E+04 -7.148105E+03 -8.822494E+03 -1.231584E+04
       401  27  5.788462E+05  8.059091E+04  8.205309E+04 -1.470524E+04 -2.798585E+02 -1.155400E+04
       402   1 -4.132028E+04 -7.086741E+04 -6.591881E+04 -1.597485E+04  2.746557E+03  9.563165E+03
       402   2 -1.104732E+04 -6.461426E+04 -6.015516E+04 -5.819377E+03  2.191492E+03  8.899381E+03
       402   3  1.969599E+04 -5.696995E+04 -5.367176E+04 -1.645680E+04  1.635656E+03  7.637969E+03
       402   4  2.495876E+05  1.164903E+03  3.363764E+03 -1.636119E+04  2.545853E+03  9.562898E+03
       402   5  2.493264E+05 -1.682500E+02  1.731962E+03 -5.965154E+03  1.660546E+03  8.899291E+03
       402   6  2.495912E+05 -5.328546E+01  1.048856E+03 -1.636146E+04  7.744916E+02  7.638171E+03
       402   7  5.405732E+05  7.319111E+04  7.264040E+04 -1.674771E+04  2.345056E+03  9.562632E+03
       402   8  5.097623E+05  6.427288E+04  6.361435E+04 -6.110987E+03  1.129379E+03  8.899202E+03
       402   9  4.795350E+05  5.685956E+04  5.576578E+04 -1.626608E+04 -8.699056E+01  7.638372E+03
       402  10 -4.132032E+04 -7.086751E+04 -6.591899E+04 -1.597487E+04 -2.882424E-10  6.391627E-12
       402  11 -1.104735E+04 -6.461435E+04 -6.015532E+04 -5.819392E+03 -4.329356E-10  7.606913E-11
       402  12  1.969597E+04 -5.697001E+04 -5.367188E+04 -1.645681E+04 -3.605580E-10  2.047868E-10
       402  13  2.495876E+05  1.164803E+03  3.363580E+03 -1.636121E+04 -3.016246E-10 -1.679881E-11
       402  14  2.493263E+05 -1.683358E+02  1.731808E+03 -5.965166E+03  1.530871E-10 -1.706755E-10
       402  15  2.495912E+05 -5.334828E+01  1.048746E+03 -1.636147E+04 -7.823580E-11  1.682116E-10
       402  16  5.405732E+05  7.319101E+04  7.264022E+04 -1.674772E+04 -1.463130E-11 -1.193846E-10
       402  17  5.097623E+05  6.427279E+04  6.361420E+04 -6.110995E+03  2.528895E-10  5.388658E-11
       402  18  4.795350E+05  5.685950E+04  5.576567E+04 -1.626608E+04 -3.490035E-11  1.525725E-11
       402  19 -4.132028E+04 -7.086741E+04 -6.591881E+04 -1.597485E+04 -2.746557E+03 -9.563165E+03
       402  20 -1.104732E+04 -6.461426E+04 -6.015516E+04 -5.819377E+03 -2.191492E+03 -8.899381E+03
       402  21  1.969599E+04 -5.696995E+04 -5.367176E+04 -1.645680E+04 -1.635656E+03 -7.637969E+03
       402  22  2.495876E+05  1.164903E+03  3.363764E+03 -1.636119E+04 -2.545853E+03 -9.562898E+03
       402  23  2.493264E+05 -1.682500E+02  1.731962E+03 -5.965154E+03 -1.660546E+03 -8.899291E+03
       402  24  2.495912E+05 -5.328546E+01  1.048856E+03 -1.636146E+04 -7.744916E+02 -7.638171E+03
       402  25  5.405732E+05  7.319111E+04  7.264040E+04 -1.674771E+04 -2.345056E+03 -9.562632E+03
       402  26  5.097623E+05  6.427288E+04  6.361435E+04 -6.110987E+03 -1.129379E+03 -8.899202E+03
       402  27  4.795350E+05  5.685956E+04  5.576578E+04 -1.626608E+04  8.699056E+01 -7.638372E+03
       403   1  5.667649E+04 -4.758864E+04 -4.492130E+04 -1.623847E+04  1.287371E+03  6.801982E+03
       403   2  8.695380E+04 -4.023604E+04 -3.812680E+04 -5.923831E+03  1.059093E+03  5.551770E+03
       403   3  1.172969E+05 -3.272120E+04 -3.114439E+04 -1.628208E+04  8.303708E+02  4.263841E+03
       403   4  2.494938E+05  1.190450E+02  8.305443E+02 -1.633470E+04  6.076755E+02  6.802194E+03
       403   5  2.494606E+05 -1.565212E+01  4.972079E+02 -5.998454E+03  3.584928E+02  5.552094E+03
       403   6  2.494959E+05  1.554706E+01  3.663004E+02 -1.633476E+04  1.088773E+02  4.264285E+03
       403   7  4.423452E+05  4.782406E+04  4.657980E+04 -1.643096E+04 -7.223033E+01  6.802406E+03
       403   8  4.119915E+05  4.020283E+04  3.911938E+04 -6.073093E+03 -3.422898E+02  5.552418E+03
       403   9  3.817109E+05  3.275103E+04  3.187577E+04 -1.638745E+04 -6.127691E+02  4.264728E+03
       403  10  5.667647E+04 -4.758869E+04 -4.492139E+04 -1.623848E+04 -9.083048E-11  5.352725E-11
       403  11  8.695379E+04 -4.023607E+04 -3.812686E+04 -5.923836E+03 -5.855724E-10  2.406149E-10
       403  12  1.172969E+05 -3.272122E+04 -3.114443E+04 -1.628208E+04 -4.473243E-10 -2.140081E-10
       403  13  2.494937E+05  1.189952E+02  8.304566E+02 -1.633471E+04  8.436550E-12  4.368631E-11
       403  14  2.494605E+05 -1.568526E+01  4.971497E+02 -5.998456E+03 -4.399056E-12  4.105644E-10
       403  15  2.494959E+05  1.552753E+01  3.662662E+02 -1.633476E+04 -5.076185E-11  5.394566E-10
       403  16  4.423452E+05  4.782401E+04  4.657972E+04 -1.643096E+04 -9.281821E-11 -5.898054E-11
       403  17  4.119915E+05  4.020280E+04  3.911932E+04 -6.073092E+03  5.171777E-10 -2.809321E-10
       403  18  3.817109E+05  3.275101E+04  3.187573E+04 -1.638745E+04  5.183134E-11 -2.379831E-10
       403  19  5.667649E+04 -4.758864E+04 -4.492130E+04 -1.623847E+04 -1.287371E+03 -6.801982E+03
       403  20  8.695380E+04 -4.023604E+04 -3.812680E+04 -5.923831E+03 -1.059093E+03 -5.551770E+03
       403  21  1.172969E+05 -3.272120E+04 -3.114439E+04 -1.628208E+04 -8.303708E+02 -4.263841E+03
       403  22  2.494938E+05  1.190450E+02  8.305443E+02 -1.633470E+04 -6.076755E+02 -6.802194E+03
       403  23  2.494606E+05 -1.565212E+01  4.972079E+02 -5.998454E+03 -3.584928E+02 -5.552094E+03
       403  24  2.494959E+05  1.554706E+01  3.663004E+02 -1.633476E+04 -1.088773E+02 -4.264285E+03
       403  25  4.423452E+05  4.782406E+04  4.657980E+04 -1.643096E+04  7.223033E+01 -6.802406E+03
       403  26  4.119915E+05  4.020283E+04  3.911938E+04 -6.073093E+03  3.422898E+02 -5.552418E+03
       403  27  3.817109E+05  3.275103E+04  3.187577E+04 -1.638745E+04  6.127691E+02 -4.264728E+03
       404   1  1.541764E+05 -2.354002E+04 -2.221908E+04 -1.626425E+04  7.533778E+02  3.508385E+03
       404   2  1.843817E+05 -1.610779E+04 -1.510532E+04 -5.977352E+03  5.717306E+02  2.223679E+03
       404   3  2.145902E+05 -8.621549E+03 -7.867457E+03 -1.629158E+04  3.899105E+02  9.374443E+02
       404   4  2.494836E+05  2.939006E+01  3.414634E+02 -1.631884E+04  4.442871E+01  3.508870E+03
       404   5  2.494825E+05  3.719979E+00  3.667224E+02 -6.018341E+03 -1.380911E+02  2.224204E+03
       404   6  2.494844E+05  3.239510E+01  5.168534E+02 -1.631884E+04 -3.207750E+02  9.380135E+02
       404   7  3.447991E+05  2.359815E+04  2.290138E+04 -1.637343E+04 -6.646287E+02  3.509355E+03
       404   8  3.145872E+05  1.611493E+04  1.583847E+04 -6.059335E+03 -8.479868E+02  2.224729E+03
       404   9  2.843797E+05  8.686251E+03  8.901079E+03 -1.634610E+04 -1.031500E+03  9.385827E+02
       404  10  1.541764E+05 -2.354003E+04 -2.221910E+04 -1.626425E+04 -2.294052E-11  1.953017E-11
       404  11  1.843817E+05 -1.610780E+04 -1.510533E+04 -5.977353E+03 -5.707274E-10  1.054977E-10
       404  12  2.145902E+05 -8.621550E+03 -7.867459E+03 -1.629158E+04 -2.298579E-10 -1.298913E-10
       404  13  2.494836E+05  2.937684E+01  3.414403E+02 -1.631884E+04  4.480886E-11 -4.801250E-10
       404  14  2.494825E+05  3.714661E+00  3.667131E+02 -6.018341E+03 -1.839128E-10  2.093741E-10
       404  15  2.494844E+05  3.239413E+01  5.168515E+02 -1.631884E+04  6.031280E-11 -4.732569E-10
       404  16  3.447991E+05  2.359813E+04  2.290135E+04 -1.637343E+04 -1.272510E-11  6.235421E-11
       404  17  3.145872E+05  1.611492E+04  1.583846E+04 -6.059333E+03  4.550104E-10 -1.070422E-10
       404  18  2.843797E+05  8.686250E+03  8.901075E+03 -1.634610E+04 -2.637603E-10 -8.741752E-10
       404  19  1.541764E+05 -2.354002E+04 -2.221908E+04 -1.626425E+04 -7.533778E+02 -3.508385E+03
       404  20  1.843817E+05 -1.610779E+04 -1.510532E+04 -5.977352E+03 -5.717306E+02 -2.223679E+03
       404  21  2.145902E+05 -8.621549E+03 -7.867457E+03 -1.629158E+04 -3.899105E+02 -9.374443E+02
       404  22  2.494836E+05  2.939006E+01  3.414634E+02 -1.631884E+04 -4.442871E+01 -3.508870E+03
       404  23  2.494825E+05  3.719979E+00  3.667224E+02 -6.018341E+03  1.380911E+02 -2.224204E+03
       404  24  2.494844E+05  3.239510E+01  5.168534E+02 -1.631884E+04  3.207750E+02 -9.380135E+02
       404  25  3.447991E+05  2.359815E+04  2.290138E+04 -1.637343E+04  6.646287E+02 -3.509355E+03
       404  26  3.145872E+05  1.611493E+04  1.583847E+04 -6.059335E+03  8.479868E+02 -2.224729E+03
       404  27  2.843797E+05  8.686251E+03  8.901079E+03 -1.634610E+04  1.031500E+03 -9.385827E+02
       405   1  2.514275E+05  5.164755E+02  1.194121E+03 -1.629395E+04  2.841384E+02  1.883743E+02
       405   2  2.815852E+05  7.938946E+03  8.696105E+03 -6.023497E+03 -2.453923E+02 -1.097136E+03
       405   3  3.118146E+05  1.552217E+04  1.657447E+04 -1.634396E+04 -7.748736E+02 -2.380836E+03
       405   4  2.494997E+05  2.113897E+01  6.445229E+02 -1.631664E+04 -4.264107E+02  1.889506E+02
       405   5  2.494643E+05 -1.001556E+01  1.062620E+03 -6.021110E+03 -9.549363E+02 -1.096583E+03
       405   6  2.494992E+05  1.193702E+02  1.856357E+03 -1.631656E+04 -1.483387E+03 -2.380303E+03
       405   7  2.475719E+05 -4.741976E+02  9.492661E+01 -1.633933E+04 -1.136958E+03  1.895270E+02
       405   8  2.173443E+05 -7.959051E+03 -6.570935E+03 -6.018722E+03 -1.664444E+03 -1.096030E+03
       405   9  1.871873E+05 -1.528371E+04 -1.286202E+04 -1.628916E+04 -2.191830E+03 -2.379769E+03
       405  10  2.514275E+05  5.164754E+02  1.194121E+03 -1.629395E+04 -5.417533E-10  4.759379E-10
       405  11  2.815852E+05  7.938944E+03  8.696103E+03 -6.023498E+03 -6.834430E-10  1.208560E-09
       405  12  3.118146E+05  1.552216E+04  1.657445E+04 -1.634396E+04  4.810365E-10 -6.166848E-10
       405  13  2.494997E+05  2.113888E+01  6.445225E+02 -1.631664E+04  1.257848E-11 -5.809876E-11
       405  14  2.494643E+05 -1.001710E+01  1.062616E+03 -6.021111E+03 -5.424867E-10 -1.441595E-10
       405  15  2.494992E+05  1.193635E+02  1.856342E+03 -1.631656E+04 -4.619851E-10  1.189177E-10
       405  16  2.475719E+05 -4.741980E+02  9.492411E+01 -1.633933E+04  2.706500E-10 -1.550483E-10
       405  17  2.173443E+05 -7.959053E+03 -6.570943E+03 -6.018724E+03  2.215584E-10 -6.471460E-11
       405  18  1.871873E+05 -1.528372E+04 -1.286204E+04 -1.628917E+04 -9.019703E-10 -1.325916E-10
       405  19  2.514275E+05  5.164755E+02  1.194121E+03 -1.629395E+04 -2.841384E+02 -1.883743E+02
       405  20  2.815852E+05  7.938946E+03  8.696105E+03 -6.023497E+03  2.453923E+02  1.097136E+03
       405  21  3.118146E+05  1.552217E+04  1.657447E+04 -1.634396E+04  7.748736E+02  2.380836E+03
       405  22  2.494997E+05  2.113897E+01  6.445229E+02 -1.631664E+04  4.264107E+02 -1.889506E+02
       405  23  2.494643E+05 -1.001556E+01  1.062620E+03 -6.021110E+03  9.549363E+02  1.096583E+03
       405  24  2.494992E+05  1.193702E+02  1.856357E+03 -1.631656E+04  1.483387E+03  2.380303E+03
       405  25  2.475719E+05 -4.741976E+02  9.492661E+01 -1.633933E+04  1.136958E+03 -1.895270E+02
       405  26  2.173443E+05 -7.959051E+03 -6.570935E+03 -6.018722E+03  1.664444E+03  1.096030E+03
       405  27  1.871873E+05 -1.528371E+04 -1.286202E+04 -1.628916E+04  2.191830E+03  2.379769E+03
       406   1  3.487908E+05  2.452718E+04  2.607530E+04 -1.619324E+04 -1.147700E+03 -3.134806E+03
       406   2  3.787620E+05  3.187570E+04  3.490708E+04 -6.082678E+03 -3.243851E+03 -4.419886E+03
       406   3  4.093310E+05  4.059373E+04  4.544107E+04 -1.661292E+04 -5.339759E+03 -5.670210E+03
       406   4  2.496139E+05 -3.299745E+01  2.416416E+03 -1.632797E+04 -1.867588E+03 -3.134299E+03
       406   5  2.493160E+05 -1.565393E+02  4.146311E+03 -6.007076E+03 -3.944168E+03 -4.419478E+03
       406   6  2.496119E+05  1.086301E+03  7.565190E+03 -1.632725E+04 -6.020404E+03 -5.669895E+03
       406   7  1.504461E+05 -2.459389E+04 -2.124316E+04 -1.646267E+04 -2.587361E+03 -3.133792E+03
       406   8  1.198854E+05 -3.218998E+04 -2.661562E+04 -5.931487E+03 -4.644339E+03 -4.419070E+03
       406   9  8.991615E+04 -3.842296E+04 -3.031246E+04 -1.604164E+04 -6.700875E+03 -5.669582E+03
       406  10  3.487908E+05  2.452717E+04  2.607528E+04 -1.619325E+04 -1.426700E-10 -5.970609E-10
       406  11  3.787620E+05  3.187567E+04  3.490702E+04 -6.082690E+03 -6.680996E-10  2.103584E-10
       406  12  4.093309E+05  4.059369E+04  4.544095E+04 -1.661294E+04 -5.375151E-10  4.193675E-10
       406  13  2.496139E+05 -3.300894E+01  2.416391E+03 -1.632797E+04 -1.796749E-10  1.476221E-10
       406  14  2.493160E+05 -1.565644E+02  4.146245E+03 -6.007090E+03 -8.968857E-11 -2.192039E-10
       406  15  2.496118E+05  1.086257E+03  7.565062E+03 -1.632727E+04 -1.953796E-10 -1.841337E-10
       406  16  1.504460E+05 -2.459390E+04 -2.124319E+04 -1.646268E+04  3.242438E-10 -2.272072E-11
       406  17  1.198854E+05 -3.219001E+04 -2.661570E+04 -5.931503E+03  4.621953E-10  9.552574E-10
       406  18  8.991610E+04 -3.842301E+04 -3.031261E+04 -1.604167E+04  1.601499E-10  2.853585E-11
       406  19  3.487908E+05  2.452718E+04  2.607530E+04 -1.619324E+04  1.147700E+03  3.134806E+03
       406  20  3.787620E+05  3.187570E+04  3.490708E+04 -6.082678E+03  3.243851E+03  4.419886E+03
       406  21  4.093310E+05  4.059373E+04  4.544107E+04 -1.661292E+04  5.339759E+03  5.670210E+03
       406  22  2.496139E+05 -3.299745E+01  2.416416E+03 -1.632797E+04  1.867588E+03  3.134299E+03
       406  23  2.493160E+05 -1.565393E+02  4.146311E+03 -6.007076E+03  3.944168E+03  4.419478E+03
       406  24  2.496119E+05  1.086301E+03  7.565190E+03 -1.632725E+04  6.020404E+03  5.669895E+03
       406  25  1.504461E+05 -2.459389E+04 -2.124316E+04 -1.646267E+04  2.587361E+03  3.133792E+03
       406  26  1.198854E+05 -3.218998E+04 -2.661562E+04 -5.931487E+03  4.644339E+03  4.419070E+03
       406  27  8.991615E+04 -3.842296E+04 -3.031246E+04 -1.604164E+04  6.700875E+03  5.669582E+03
       407   1  4.472191E+05  4.811473E+04  5.653216E+04 -1.476118E+04 -6.698787E+03 -6.497381E+03
       407   2  4.753676E+05  5.470392E+04  7.037262E+04 -6.895443E+03 -1.538394E+04 -7.755668E+03
       407   3  5.080956E+05  7.498291E+04  9.329220E+04 -1.976848E+04 -2.406872E+04 -8.467105E+03
       407   4  2.504829E+05 -5.803123E+02  9.704624E+03 -1.635090E+04 -7.545585E+03 -6.497033E+03
       407   5  2.482163E+05 -1.503503E+03  1.639802E+04 -5.979243E+03 -1.592596E+04 -7.755652E+03
       407   6  2.504779E+05  1.121327E+04  3.196166E+04 -1.634676E+04 -2.430556E+04 -8.467398E+03
       407   7  5.378214E+04 -4.927814E+04 -3.712562E+04 -1.794010E+04 -8.392116E+03 -6.496681E+03
       407   8  2.111230E+04 -5.771464E+04 -3.758018E+04 -5.063376E+03 -1.646780E+04 -7.755637E+03
       407   9 -7.078964E+03 -5.256111E+04 -2.937352E+04 -1.292645E+04 -2.454231E+04 -8.467693E+03
       407  10  4.472190E+05  4.811467E+04  5.653200E+04 -1.476121E+04 -7.057286E-11  3.956555E-10
       407  11  4.753673E+05  5.470379E+04  7.037206E+04 -6.895539E+03 -8.157347E-11 -4.152655E-10
       407  12  5.080950E+05  7.498268E+04  9.329098E+04 -1.976865E+04 -2.395247E-10 -2.065068E-10
       407  13  2.504828E+05 -5.803729E+02  9.704438E+03 -1.635094E+04 -1.324660E-10  1.298974E-10
       407  14  2.482160E+05 -1.503635E+03  1.639743E+04 -5.979343E+03 -2.123894E-11  2.594666E-10
       407  15  2.504772E+05  1.121303E+04  3.196042E+04 -1.634692E+04 -2.182034E-10  3.656134E-12
       407  16  5.378206E+04 -4.927820E+04 -3.712583E+04 -1.794015E+04 -2.945032E-11 -1.880754E-10
       407  17  2.111199E+04 -5.771478E+04 -3.758080E+04 -5.063478E+03  3.062606E-10  3.200900E-11
       407  18 -7.079630E+03 -5.256135E+04 -2.937479E+04 -1.292662E+04  2.466066E-10  1.853639E-10
       407  19  4.472191E+05  4.811473E+04  5.653216E+04 -1.476118E+04  6.698787E+03  6.497381E+03
       407  20  4.753676E+05  5.470392E+04  7.037262E+04 -6.895443E+03  1.538394E+04  7.755668E+03
       407  21  5.080956E+05  7.498291E+04  9.329220E+04 -1.976848E+04  2.406872E+04  8.467105E+03
       407  22  2.504829E+05 -5.803123E+02  9.704624E+03 -1.635090E+04  7.545585E+03  6.497033E+03
       407  23  2.482163E+05 -1.503503E+03  1.639802E+04 -5.979243E+03  1.592596E+04  7.755652E+03
       407  24  2.504779E+05  1.121327E+04  3.196166E+04 -1.634676E+04  2.430556E+04  8.467398E+03
       407  25  5.378214E+04 -4.927814E+04 -3.712562E+04 -1.794010E+04  8.392116E+03  6.496681E+03
       407  26  2.111230E+04 -5.771464E+04 -3.758018E+04 -5.063376E+03  1.646780E+04  7.755637E+03
       407  27 -7.078964E+03 -5.256111E+04 -2.937352E+04 -1.292645E+04  2.454231E+04  8.467693E+03
       408   1  5.530801E+05  6.686549E+04  1.092644E+05 -5.777192E+02 -2.763014E+04 -1.035543E+04
       408   2  5.639903E+05  6.589582E+04  1.405902E+05 -1.747477E+04 -6.628838E+04 -1.115862E+04
       408   3  6.146326E+05  2.033811E+05  2.317029E+05 -5.507757E+04 -1.049500E+05 -3.724705E+03
       408   4  2.581269E+05 -6.086192E+03  3.928680E+04 -1.634056E+04 -3.034263E+04 -1.035448E+04
       408   5  2.386394E+05 -1.460353E+04  6.330308E+04 -5.993189E+03 -6.443658E+04 -1.116029E+04
       408   6  2.581105E+05  1.145784E+05  1.439589E+05 -1.634957E+04 -9.853158E+04 -3.730469E+03
       408   7 -3.674585E+04 -7.904319E+04 -3.069670E+04 -3.209587E+04 -3.305384E+04 -1.035338E+04
       408   8 -8.661420E+04 -9.511000E+04 -1.399133E+04  5.482350E+03 -6.258573E+04 -1.116188E+04
       408   9 -9.829266E+04  2.577186E+04  5.620645E+04  2.235617E+04 -9.211684E+04 -3.735437E+03
       408  10  5.530792E+05  6.686517E+04  1.092628E+05 -5.779496E+02  1.204717E-10 -1.241054E-10
       408  11  5.639855E+05  6.589451E+04  1.405817E+05 -1.747536E+04  3.591433E-11  7.993382E-11
       408  12  6.146208E+05  2.033781E+05  2.316821E+05 -5.507789E+04  2.718600E-11 -6.270812E-11
       408  13  2.581259E+05 -6.086554E+03  3.928487E+04 -1.634081E+04  7.431885E-11 -1.014103E-10
       408  14  2.386349E+05 -1.460478E+04  6.329505E+04 -5.993768E+03  1.135667E-10  1.198421E-10
       408  15  2.581001E+05  1.145758E+05  1.439406E+05 -1.634987E+04 -3.685317E-11 -2.621377E-11
       408  16 -3.674705E+04 -7.904360E+04 -3.069895E+04 -3.209614E+04  5.444302E-11  2.093018E-11
       408  17 -8.661844E+04 -9.511118E+04 -1.399893E+04  5.481787E+03 -9.083974E-11  1.735330E-10
       408  18 -9.830178E+04  2.576956E+04  5.619048E+04  2.235589E+04  1.533952E-10 -9.083581E-11
       408  19  5.530801E+05  6.686549E+04  1.092644E+05 -5.777192E+02  2.763014E+04  1.035543E+04
       408  20  5.639903E+05  6.589582E+04  1.405902E+05 -1.747477E+04  6.628838E+04  1.115862E+04
       408  21  6.146326E+05  2.033811E+05  2.317029E+05 -5.507757E+04  1.049500E+05  3.724705E+03
       408  22  2.581269E+05 -6.086192E+03  3.928680E+04 -1.634056E+04  3.034263E+04  1.035448E+04
       408  23  2.386394E+05 -1.460353E+04  6.330308E+04 -5.993189E+03  6.443658E+04  1.116029E+04
       408  24  2.581105E+05  1.145784E+05  1.439589E+05 -1.634957E+04  9.853158E+04  3.730469E+03
       408  25 -3.674585E+04 -7.904319E+04 -3.069670E+04 -3.209587E+04  3.305384E+04  1.035338E+04
       408  26 -8.661420E+04 -9.511000E+04 -1.399133E+04  5.482350E+03  6.258573E+04  1.116188E+04
       408  27 -9.829266E+04  2.577186E+04  5.620645E+04  2.235617E+04  9.211684E+04  3.735437E+03
       409   1 -1.069386E+06 -1.013467E+05 -1.286266E+05 -3.547595E+04 -9.102653E+04 -2.306788E+02
       409   2 -1.052645E+06  1.825073E+04 -5.423222E+04 -1.064119E+04 -5.964303E+04 -6.662407E+02
       409   3 -1.071960E+06  1.004272E+04 -3.224346E+04  1.508778E+04 -2.826000E+04 -6.328709E+02
       409   4 -1.089722E+06 -1.064030E+05 -1.336355E+05  4.526047E+02 -9.139484E+04 -2.360414E+02
       409   5 -1.071642E+06  1.354912E+04 -5.875121E+04 -7.331994E+00 -5.975518E+04 -6.672927E+02
       409   6 -1.089664E+06  5.646662E+03 -3.645216E+04  4.262150E+02 -2.811589E+04 -6.321674E+02
       409   7 -1.110056E+06 -1.114543E+05 -1.386438E+05  3.637998E+04 -9.176315E+04 -2.414470E+02
       409   8 -1.090638E+06  8.847917E+03 -6.327017E+04  1.062620E+04 -5.986733E+04 -6.683486E+02
       409   9 -1.107368E+06  1.251394E+03 -4.066076E+04 -1.423493E+04 -2.797179E+04 -6.314707E+02
       409  10 -1.069395E+06 -1.013490E+05 -1.286422E+05 -3.547596E+04 -7.920091E-11  7.012247E-11
       409  11 -1.052649E+06  1.824977E+04 -5.423892E+04 -1.064122E+04  5.183270E-10 -3.586966E-10
       409  12 -1.071961E+06  1.004250E+04 -3.224496E+04  1.508777E+04 -1.360233E-10 -9.791885E-11
       409  13 -1.089731E+06 -1.064052E+05 -1.336512E+05  4.525873E+02  2.524836E-11 -1.271748E-10
       409  14 -1.071646E+06  1.354816E+04 -5.875794E+04 -7.364121E+00  3.702418E-10 -8.110698E-10
       409  15 -1.089665E+06  5.646449E+03 -3.645364E+04  4.262006E+02 -2.931286E-10 -1.921931E-10
       409  16 -1.110065E+06 -1.114566E+05 -1.386596E+05  3.637996E+04 -2.592561E-10 -1.503466E-10
       409  17 -1.090642E+06  8.846952E+03 -6.327692E+04  1.062617E+04  3.999480E-11 -6.346726E-10
       409  18 -1.107369E+06  1.251183E+03 -4.066224E+04 -1.423495E+04  2.217496E-10 -4.089294E-10
       409  19 -1.069386E+06 -1.013467E+05 -1.286266E+05 -3.547595E+04  9.102653E+04  2.306788E+02
       409  20 -1.052645E+06  1.825073E+04 -5.423222E+04 -1.064119E+04  5.964303E+04  6.662407E+02
       409  21 -1.071960E+06  1.004272E+04 -3.224346E+04  1.508778E+04  2.826000E+04  6.328709E+02
       409  22 -1.089722E+06 -1.064030E+05 -1.336355E+05  4.526047E+02  9.139484E+04  2.360414E+02
       409  23 -1.071642E+06  1.354912E+04 -5.875121E+04 -7.331994E+00  5.975518E+04  6.672927E+02
       409  24 -1.089664E+06  5.646662E+03 -3.645216E+04  4.262150E+02  2.811589E+04  6.321674E+02
       409  25 -1.110056E+06 -1.114543E+05 -1.386438E+05  3.637998E+04  9.176315E+04  2.414470E+02
       409  26 -1.090638E+06  8.847917E+03 -6.327017E+04  1.062620E+04  5.986733E+04  6.683486E+02
       409  27 -1.107368E+06  1.251394E+03 -4.066076E+04 -1.423493E+04  2.797179E+04  6.314707E+02
       410   1 -1.066505E+06 -6.436673E+03 -2.582386E+04 -2.674172E+03 -2.252819E+04 -5.339776E+02
       410   2 -1.065780E+06  5.037088E+03 -1.171453E+04 -8.059171E+02 -1.477379E+04 -5.073631E+02
       410   3 -1.069231E+06  3.861245E+03 -5.822172E+03  1.995757E+03 -7.019485E+03 -4.485385E+02
       410   4 -1.082583E+06 -1.042111E+04 -2.965804E+04  4.451944E+02 -2.252303E+04 -5.340907E+02
       410   5 -1.080489E+06  1.392113E+03 -1.521521E+04 -2.296998E+01 -1.475110E+04 -5.073767E+02
       410   6 -1.082574E+06  5.524821E+02 -9.001699E+03  4.423307E+02 -6.979233E+03 -4.485105E+02
       410   7 -1.098661E+06 -1.440553E+04 -3.349223E+04  3.564480E+03 -2.251788E+04 -5.342037E+02
       410   8 -1.095198E+06 -2.252876E+03 -1.871589E+04  7.599585E+02 -1.472841E+04 -5.073901E+02
       410   9 -1.095917E+06 -2.756285E+03 -1.218124E+04 -1.111062E+03 -6.938982E+03 -4.484828E+02
       410  10 -1.066505E+06 -6.436810E+03 -2.582481E+04 -2.674182E+03  2.448548E-10 -9.165087E-11
       410  11 -1.065780E+06  5.037029E+03 -1.171494E+04 -8.059232E+02 -3.568190E-10  9.906107E-11
       410  12 -1.069231E+06  3.861231E+03 -5.822266E+03  1.995754E+03  5.238177E-12  2.045022E-10
       410  13 -1.082583E+06 -1.042125E+04 -2.965899E+04  4.451847E+02  2.525526E-11 -2.076357E-10
       410  14 -1.080489E+06  1.392054E+03 -1.521562E+04 -2.297601E+01 -1.345144E-10 -3.124730E-10
       410  15 -1.082574E+06  5.524688E+02 -9.001791E+03  4.423281E+02  4.010800E-11  1.405973E-11
       410  16 -1.098662E+06 -1.440567E+04 -3.349319E+04  3.564470E+03 -2.658987E-10 -1.170395E-10
       410  17 -1.095198E+06 -2.252934E+03 -1.871630E+04  7.599525E+02  3.870063E-10 -4.346244E-10
       410  18 -1.095917E+06 -2.756298E+03 -1.218133E+04 -1.111064E+03  1.040659E-10  3.673919E-10
       410  19 -1.066505E+06 -6.436673E+03 -2.582386E+04 -2.674172E+03  2.252819E+04  5.339776E+02
       410  20 -1.065780E+06  5.037088E+03 -1.171453E+04 -8.059171E+02  1.477379E+04  5.073631E+02
       410  21 -1.069231E+06  3.861245E+03 -5.822172E+03  1.995757E+03  7.019485E+03  4.485385E+02
       410  22 -1.082583E+06 -1.042111E+04 -2.965804E+04  4.451944E+02  2.252303E+04  5.340907E+02
       410  23 -1.080489E+06  1.392113E+03 -1.521521E+04 -2.296998E+01  1.475110E+04  5.073767E+02
       410  24 -1.082574E+06  5.524821E+02 -9.001699E+03  4.423307E+02  6.979233E+03  4.485105E+02
       410  25 -1.098661E+06 -1.440553E+04 -3.349223E+04  3.564480E+03  2.251788E+04  5.342037E+02
       410  26 -1.095198E+06 -2.252876E+03 -1.871589E+04  7.599585E+02  1.472841E+04  5.073901E+02
       410  27 -1.095917E+06 -2.756285E+03 -1.218124E+04 -1.111062E+03  6.938982E+03  4.484828E+02
       411   1 -1.070130E+06  1.886075E+03 -4.253996E+03  2.536685E+02 -5.597592E+03 -4.092702E+02
       411   2 -1.071264E+06  2.684277E+03 -1.421665E+03 -4.191503E+01 -3.670162E+03 -3.509043E+02
       411   3 -1.072960E+06  2.237412E+03 -1.571974E+02  6.293461E+02 -1.742704E+03 -2.897680E+02
       411   4 -1.081772E+06 -9.983722E+02 -7.021344E+03  4.508342E+02 -5.566405E+03 -4.092639E+02
       411   5 -1.081489E+06  1.500115E+02 -3.855355E+03 -3.273520E+01 -3.637481E+03 -3.508955E+02
       411   6 -1.081770E+06  5.305904E+01 -2.258287E+03  4.505390E+02 -1.708525E+03 -2.897579E+02
       411   7 -1.093413E+06 -3.882829E+03 -9.788701E+03  6.479961E+02 -5.535219E+03 -4.092575E+02
       411   8 -1.091714E+06 -2.384262E+03 -6.289053E+03 -2.355552E+01 -3.604801E+03 -3.508867E+02
       411   9 -1.090579E+06 -2.131300E+03 -4.359382E+03  2.717344E+02 -1.674346E+03 -2.897478E+02
       411  10 -1.070130E+06  1.886067E+03 -4.254055E+03  2.536667E+02  2.741937E-10  5.457082E-10
       411  11 -1.071264E+06  2.684274E+03 -1.421690E+03 -4.191607E+01 -2.766159E-09  2.990594E-10
       411  12 -1.072960E+06  2.237411E+03 -1.572032E+02  6.293457E+02 -4.117859E-09 -8.644394E-10
       411  13 -1.081772E+06 -9.983807E+02 -7.021402E+03  4.508323E+02 -3.194645E-10  3.145307E-10
       411  14 -1.081489E+06  1.500078E+02 -3.855380E+03 -3.273623E+01 -2.626235E-10  4.851085E-11
       411  15 -1.081770E+06  5.305817E+01 -2.258292E+03  4.505386E+02 -1.520521E-10 -7.577395E-10
       411  16 -1.093413E+06 -3.882838E+03 -9.788759E+03  6.479943E+02 -6.148730E-10  3.872669E-10
       411  17 -1.091714E+06 -2.384266E+03 -6.289078E+03 -2.355654E+01  2.650798E-09 -1.289984E-10
       411  18 -1.090579E+06 -2.131300E+03 -4.359387E+03  2.717340E+02  4.516957E-09 -9.419437E-10
       411  19 -1.070130E+06  1.886075E+03 -4.253996E+03  2.536685E+02  5.597592E+03  4.092702E+02
       411  20 -1.071264E+06  2.684277E+03 -1.421665E+03 -4.191503E+01  3.670162E+03  3.509043E+02
       411  21 -1.072960E+06  2.237412E+03 -1.571974E+02  6.293461E+02  1.742704E+03  2.897680E+02
       411  22 -1.081772E+06 -9.983722E+02 -7.021344E+03  4.508342E+02  5.566405E+03  4.092639E+02
       411  23 -1.081489E+06  1.500115E+02 -3.855355E+03 -3.273520E+01  3.637481E+03  3.508955E+02
       411  24 -1.081770E+06  5.305904E+01 -2.258287E+03  4.505390E+02  1.708525E+03  2.897579E+02
       411  25 -1.093413E+06 -3.882829E+03 -9.788701E+03  6.479961E+02  5.535219E+03  4.092575E+02
       411  26 -1.091714E+06 -2.384262E+03 -6.289053E+03 -2.355552E+01  3.604801E+03  3.508867E+02
       411  27 -1.090579E+06 -2.131300E+03 -4.359382E+03  2.717344E+02  1.674346E+03  2.897478E+02
       412   1 -1.074609E+06  1.658546E+03 -7.142677E+01  4.634955E+02 -1.383170E+03 -2.537385E+02
       412   2 -1.076008E+06  1.408881E+03  3.042553E+02 -2.364598E+01 -8.719944E+02 -1.921767E+02
       412   3 -1.077505E+06  1.035443E+03  3.156148E+02  4.775292E+02 -3.608202E+02 -1.301113E+02
       412   4 -1.081667E+06 -8.967261E+01 -1.746808E+03  4.554218E+02 -1.349444E+03 -2.537288E+02
       412   5 -1.081617E+06  1.862789E+01 -1.030813E+03 -3.875054E+01 -8.379956E+02 -1.921668E+02
       412   6 -1.081666E+06  3.107149E+00 -6.793325E+02  4.553943E+02 -3.265478E+02 -1.301011E+02
       412   7 -1.088724E+06 -1.837894E+03 -3.422194E+03  4.473482E+02 -1.315718E+03 -2.537192E+02
       412   8 -1.087227E+06 -1.371627E+03 -2.365883E+03 -5.385496E+01 -8.039971E+02 -1.921569E+02
       412   9 -1.085828E+06 -1.029230E+03 -1.674281E+03  4.332596E+02 -2.922757E+02 -1.300909E+02
       412  10 -1.074609E+06  1.658545E+03 -7.143050E+01  4.634952E+02  4.411082E-09 -8.639829E-10
       412  11 -1.076008E+06  1.408880E+03  3.042538E+02 -2.364612E+01  3.188513E-09 -1.717517E-10
       412  12 -1.077505E+06  1.035443E+03  3.156145E+02  4.775291E+02 -1.988557E-10  1.986127E-10
       412  13 -1.081667E+06 -8.967317E+01 -1.746812E+03  4.554215E+02  4.231725E-10 -9.370939E-10
       412  14 -1.081617E+06  1.862767E+01 -1.030814E+03 -3.875067E+01 -9.465249E-11  4.645741E-10
       412  15 -1.081666E+06  3.107102E+00 -6.793327E+02  4.553943E+02 -4.508583E-10  6.771676E-10
       412  16 -1.088724E+06 -1.837895E+03 -3.422197E+03  4.473479E+02 -4.822898E-09 -4.082269E-10
       412  17 -1.087227E+06 -1.371627E+03 -2.365884E+03 -5.385508E+01 -2.923798E-09  4.629689E-11
       412  18 -1.085828E+06 -1.029230E+03 -1.674281E+03  4.332596E+02  9.648849E-11  8.202503E-10
       412  19 -1.074609E+06  1.658546E+03 -7.142677E+01  4.634955E+02  1.383170E+03  2.537385E+02
       412  20 -1.076008E+06  1.408881E+03  3.042553E+02 -2.364598E+01  8.719944E+02  1.921767E+02
       412  21 -1.077505E+06  1.035443E+03  3.156148E+02  4.775292E+02  3.608202E+02  1.301113E+02
       412  22 -1.081667E+06 -8.967261E+01 -1.746808E+03  4.554218E+02  1.349444E+03  2.537288E+02
       412  23 -1.081617E+06  1.862789E+01 -1.030813E+03 -3.875054E+01  8.379956E+02  1.921668E+02
       412  24 -1.081666E+06  3.107149E+00 -6.793325E+02  4.553943E+02  3.265478E+02  1.301011E+02
       412  25 -1.088724E+06 -1.837894E+03 -3.422194E+03  4.473482E+02  1.315718E+03  2.537192E+02
       412  26 -1.087227E+06 -1.371627E+03 -2.365883E+03 -5.385496E+01  8.039971E+02  1.921569E+02
       412  27 -1.085828E+06 -1.029230E+03 -1.674281E+03  4.332596E+02  2.922757E+02  1.300909E+02
       413   1 -1.079273E+06  5.845912E+02 -2.461705E+01  4.583783E+02 -2.465991E+02 -9.384317E+01
       413   2 -1.080710E+06  2.362544E+02 -3.098382E+02 -4.006767E+01  1.557716E+01 -3.150499E+01
       413   3 -1.082195E+06 -1.594942E+02 -7.779782E+02  4.587343E+02  2.777488E+02  3.080334E+01
       413   4 -1.081655E+06 -4.854066E+00 -5.871033E+02  4.573863E+02 -2.122675E+02 -9.383293E+01
       413   5 -1.081631E+06  7.997817E+00 -5.290352E+02 -4.123437E+01  4.989140E+01 -3.149473E+01
       413   6 -1.081655E+06 -2.656453E+01 -6.538796E+02  4.573930E+02  3.120463E+02  3.081362E+01
       413   7 -1.084037E+06 -5.942997E+02 -1.149590E+03  4.563942E+02 -1.779360E+02 -9.382269E+01
       413   8 -1.082552E+06 -2.202588E+02 -7.482322E+02 -4.240107E+01  8.420559E+01 -3.148447E+01
       413   9 -1.081115E+06  1.063651E+02 -5.297810E+02  4.560517E+02  3.463438E+02  3.082391E+01
       413  10 -1.079273E+06  5.845912E+02 -2.461718E+01  4.583783E+02  8.604225E-11  4.255757E-10
       413  11 -1.080710E+06  2.362544E+02 -3.098382E+02 -4.006767E+01 -1.700980E-10  3.350833E-10
       413  12 -1.082195E+06 -1.594942E+02 -7.779784E+02  4.587343E+02 -6.082183E-11  9.102448E-11
       413  13 -1.081655E+06 -4.854088E+00 -5.871034E+02  4.573863E+02  3.572966E-10 -1.226361E-11
       413  14 -1.081631E+06  7.997815E+00 -5.290352E+02 -4.123437E+01  2.396479E-10 -4.113862E-10
       413  15 -1.081655E+06 -2.656456E+01 -6.538798E+02  4.573930E+02 -5.813958E-10  4.956682E-10
       413  16 -1.084037E+06 -5.942998E+02 -1.149590E+03  4.563942E+02 -1.705253E-10  4.293339E-10
       413  17 -1.082552E+06 -2.202588E+02 -7.482322E+02 -4.240107E+01  2.815352E-10 -4.562149E-10
       413  18 -1.081115E+06  1.063651E+02 -5.297813E+02  4.560517E+02 -1.147157E-10  3.275470E-10
       413  19 -1.079273E+06  5.845912E+02 -2.461705E+01  4.583783E+02  2.465991E+02  9.384317E+01
       413  20 -1.080710E+06  2.362544E+02 -3.098382E+02 -4.006767E+01 -1.557716E+01  3.150499E+01
       413  21 -1.082195E+06 -1.594942E+02 -7.779782E+02  4.587343E+02 -2.777488E+02 -3.080334E+01
       413  22 -1.081655E+06 -4.854066E+00 -5.871033E+02  4.573863E+02  2.122675E+02  9.383293E+01
       413  23 -1.081631E+06  7.997817E+00 -5.290352E+02 -4.123437E+01 -4.989140E+01  3.149473E+01
       413  24 -1.081655E+06 -2.656453E+01 -6.538796E+02  4.573930E+02 -3.120463E+02 -3.081362E+01
       413  25 -1.084037E+06 -5.942997E+02 -1.149590E+03  4.563942E+02  1.779360E+02  9.382269E+01
       413  26 -1.082552E+06 -2.202588E+02 -7.482322E+02 -4.240107E+01 -8.420559E+01  3.148447E+01
       413  27 -1.081115E+06  1.063651E+02 -5.297810E+02  4.560517E+02 -3.463438E+02 -3.082391E+01
       414   1 -1.084007E+06 -5.606662E+02 -1.336443E+03  4.045602E+02  4.059705E+02  6.734184E+01
       414   2 -1.085375E+06 -8.907207E+02 -2.121986E+03 -3.607870E+01  1.018221E+03  1.296175E+02
       414   3 -1.086918E+06 -1.598916E+03 -3.401344E+03  5.165978E+02  1.630479E+03  1.901444E+02
       414   4 -1.081683E+06  1.629360E+01 -7.788394E+02  4.564845E+02  4.406841E+02  6.735225E+01
       414   5 -1.081596E+06  4.595099E+01 -1.222489E+03 -4.012512E+01  1.051974E+03  1.296275E+02
       414   6 -1.081684E+06 -3.023580E+02 -2.159277E+03  4.565795E+02  1.663273E+03  1.901538E+02
       414   7 -1.079359E+06  5.932530E+02 -2.212365E+02  5.084090E+02  4.753979E+02  6.736267E+01
       414   8 -1.077817E+06  9.826217E+02 -3.229931E+02 -4.417157E+01  1.085727E+03  1.296375E+02
       414   9 -1.076449E+06  9.941981E+02 -9.172120E+02  3.965607E+02  1.696067E+03  1.901632E+02
       414  10 -1.084007E+06 -5.606663E+02 -1.336443E+03  4.045602E+02  3.850941E-10 -3.103230E-10
       414  11 -1.085375E+06 -8.907210E+02 -2.121988E+03 -3.607881E+01 -1.048183E-10  1.463564E-10
       414  12 -1.086918E+06 -1.598917E+03 -3.401349E+03  5.165975E+02  2.746637E-10 -1.383273E-10
       414  13 -1.081683E+06  1.629354E+01 -7.788398E+02  4.564845E+02 -5.423447E-10  4.567899E-10
       414  14 -1.081596E+06  4.595067E+01 -1.222491E+03 -4.012523E+01 -6.537088E-10  5.338629E-10
       414  15 -1.081684E+06 -3.023588E+02 -2.159282E+03  4.565792E+02  1.753287E-11 -1.845413E-10
       414  16 -1.079359E+06  5.932530E+02 -2.212370E+02  5.084090E+02 -5.595511E-11  1.176367E-10
       414  17 -1.077817E+06  9.826214E+02 -3.229953E+02 -4.417169E+01 -6.709501E-10  4.450043E-10
       414  18 -1.076449E+06  9.941973E+02 -9.172174E+02  3.965605E+02 -2.674925E-10  1.788169E-10
       414  19 -1.084007E+06 -5.606662E+02 -1.336443E+03  4.045602E+02 -4.059705E+02 -6.734184E+01
       414  20 -1.085375E+06 -8.907207E+02 -2.121986E+03 -3.607870E+01 -1.018221E+03 -1.296175E+02
       414  21 -1.086918E+06 -1.598916E+03 -3.401344E+03  5.165978E+02 -1.630479E+03 -1.901444E+02
       414  22 -1.081683E+06  1.629360E+01 -7.788394E+02  4.564845E+02 -4.406841E+02 -6.735225E+01
       414  23 -1.081596E+06  4.595099E+01 -1.222489E+03 -4.012512E+01 -1.051974E+03 -1.296275E+02
       414  24 -1.081684E+06 -3.023580E+02 -2.159277E+03  4.565795E+02 -1.663273E+03 -1.901538E+02
       414  25 -1.079359E+06  5.932530E+02 -2.212365E+02  5.084090E+02 -4.753979E+02 -6.736267E+01
       414  26 -1.077817E+06  9.826217E+02 -3.229931E+02 -4.417157E+01 -1.085727E+03 -1.296375E+02
       414  27 -1.076449E+06  9.941981E+02 -9.172120E+02  3.965607E+02 -1.696067E+03 -1.901632E+02
       415   1 -1.088927E+06 -1.568213E+03 -4.422183E+03 -1.848418E+01  2.057051E+03  2.292495E+02
       415   2 -1.089724E+06 -1.667085E+03 -6.632105E+03  2.014414E+02  4.432210E+03  2.898603E+02
       415   3 -1.091792E+06 -5.603443E+03 -1.134988E+04  1.398046E+03  6.807366E+03  3.275008E+02
       415   4 -1.081926E+06  1.678805E+02 -2.752099E+03  4.525261E+02  2.096430E+03  2.292625E+02
       415   5 -1.081294E+06  4.221566E+02 -4.625688E+03 -3.533783E+01  4.458952E+03  2.898661E+02
       415   6 -1.081929E+06 -3.158827E+03 -8.998315E+03  4.534771E+02  6.821477E+03  3.274941E+02
       415   7 -1.074926E+06  1.903971E+03 -1.082018E+03  9.235418E+02  2.135810E+03  2.292755E+02
       415   8 -1.072863E+06  2.511393E+03 -2.619275E+03 -2.721203E+02  4.485695E+03  2.898718E+02
       415   9 -1.072066E+06 -7.142149E+02 -6.646757E+03 -4.911064E+02  6.835588E+03  3.274873E+02
       415  10 -1.088927E+06 -1.568214E+03 -4.422191E+03 -1.848456E+01 -1.451005E-10  6.426240E-11
       415  11 -1.089724E+06 -1.667091E+03 -6.632142E+03  2.014404E+02  8.310163E-11 -2.758935E-10
       415  12 -1.091792E+06 -5.603456E+03 -1.134997E+04  1.398044E+03 -2.058948E-10  1.366951E-10
       415  13 -1.081926E+06  1.678793E+02 -2.752107E+03  4.525257E+02 -5.040431E-11 -1.695095E-10
       415  14 -1.081294E+06  4.221512E+02 -4.625725E+03 -3.533887E+01 -1.784192E-10 -1.043147E-10
       415  15 -1.081929E+06 -3.158840E+03 -8.998403E+03  4.534753E+02  1.568163E-10  1.536775E-10
       415  16 -1.074926E+06  1.903970E+03 -1.082026E+03  9.235414E+02 -2.159758E-10 -1.939491E-10
       415  17 -1.072863E+06  2.511388E+03 -2.619313E+03 -2.721214E+02 -8.019920E-11 -2.558973E-10
       415  18 -1.072066E+06 -7.142276E+02 -6.646846E+03 -4.911083E+02  2.949282E-10  4.091401E-10
       415  19 -1.088927E+06 -1.568213E+03 -4.422183E+03 -1.848418E+01 -2.057051E+03 -2.292495E+02
       415  20 -1.089724E+06 -1.667085E+03 -6.632105E+03  2.014414E+02 -4.432210E+03 -2.898603E+02
       415  21 -1.091792E+06 -5.603443E+03 -1.134988E+04  1.398046E+03 -6.807366E+03 -3.275008E+02
       415  22 -1.081926E+06  1.678805E+02 -2.752099E+03  4.525261E+02 -2.096430E+03 -2.292625E+02
       415  23 -1.081294E+06  4.221566E+02 -4.625688E+03 -3.533783E+01 -4.458952E+03 -2.898661E+02
       415  24 -1.081929E+06 -3.158827E+03 -8.998315E+03  4.534771E+02 -6.821477E+03 -3.274941E+02
       415  25 -1.074926E+06  1.903971E+03 -1.082018E+03  9.235418E+02 -2.135810E+03 -2.292755E+02
       415  26 -1.072863E+06  2.511393E+03 -2.619275E+03 -2.721203E+02 -4.485695E+03 -2.898718E+02
       415  27 -1.072066E+06 -7.142149E+02 -6.646757E+03 -4.911064E+02 -6.835588E+03 -3.274873E+02
       416   1 -1.095663E+06 -1.162168E+03 -1.381106E+04 -4.002796E+03  8.403959E+03  4.087819E+02
       416   2 -1.091579E+06  8.961375E+02 -2.089936E+04  3.196994E+03  1.818129E+04  4.508005E+02
       416   3 -1.098472E+06 -3.583621E+04 -4.405905E+04  1.134153E+04  2.795857E+04  1.572460E+02
       416   4 -1.084076E+06  1.712037E+03 -1.105616E+04  4.429726E+02  8.518209E+03  4.088738E+02
       416   5 -1.078612E+06  4.107403E+03 -1.781444E+04 -2.493210E+01  1.811060E+04  4.506860E+02
       416   6 -1.084094E+06 -3.225552E+04 -4.051530E+04  4.521069E+02  2.770296E+04  1.566863E+02
       416   7 -1.072488E+06  4.586307E+03 -8.301263E+03  4.888824E+03  8.632461E+03  4.089672E+02
       416   8 -1.065646E+06  7.318695E+03 -1.472953E+04 -3.246926E+03  1.803990E+04  4.505722E+02
       416   9 -1.069716E+06 -2.867440E+04 -3.697150E+04 -1.043756E+04  2.744733E+04  1.561357E+02
       416  10 -1.095663E+06 -1.162187E+03 -1.381119E+04 -4.002798E+03  1.933600E-10  2.178416E-10
       416  11 -1.091579E+06  8.960483E+02 -2.089999E+04  3.196988E+03  1.366220E-10  1.179390E-10
       416  12 -1.098473E+06 -3.583642E+04 -4.406052E+04  1.134152E+04 -2.720653E-11  6.187504E-11
       416  13 -1.084076E+06  1.712017E+03 -1.105630E+04  4.429698E+02  7.777969E-10 -1.733303E-10
       416  14 -1.078613E+06  4.107314E+03 -1.781506E+04 -2.493868E+01  1.677373E-11  1.619019E-10
       416  15 -1.084095E+06 -3.225573E+04 -4.051674E+04  4.521034E+02  1.469355E-10 -7.755547E-11
       416  16 -1.072488E+06  4.586287E+03 -8.301404E+03  4.888822E+03 -5.583252E-11  4.292322E-10
       416  17 -1.065646E+06  7.318607E+03 -1.473014E+04 -3.246933E+03  1.455097E-10  6.121864E-11
       416  18 -1.069717E+06 -2.867460E+04 -3.697292E+04 -1.043757E+04 -2.293252E-10  1.551442E-10
       416  19 -1.095663E+06 -1.162168E+03 -1.381106E+04 -4.002796E+03 -8.403959E+03 -4.087819E+02
       416  20 -1.091579E+06  8.961375E+02 -2.089936E+04  3.196994E+03 -1.818129E+04 -4.508005E+02
       416  21 -1.098472E+06 -3.583621E+04 -4.405905E+04  1.134153E+04 -2.795857E+04 -1.572460E+02
       416  22 -1.084076E+06  1.712037E+03 -1.105616E+04  4.429726E+02 -8.518209E+03 -4.088738E+02
       416  23 -1.078612E+06  4.107403E+03 -1.781444E+04 -2.493210E+01 -1.811060E+04 -4.506860E+02
       416  24 -1.084094E+06 -3.225552E+04 -4.051530E+04  4.521069E+02 -2.770296E+04 -1.566863E+02
       416  25 -1.072488E+06  4.586307E+03 -8.301263E+03  4.888824E+03 -8.632461E+03 -4.089672E+02
       416  26 -1.065646E+06  7.318695E+03 -1.472953E+04 -3.246926E+03 -1.803990E+04 -4.505722E+02
       416  27 -1.069716E+06 -2.867440E+04 -3.697150E+04 -1.043756E+04 -2.744733E+04 -1.561357E+02
       417   1  2.538150E+06  5.589877E+05  7.039508E+05  1.859320E+05  4.859061E+05  4.511067E+02
       417   2  2.454047E+06 -7.446155E+04  3.095644E+05  5.513998E+04  3.181094E+05  4.961356E+02
       417   3  2.561065E+06 -3.006536E+04  1.936694E+05 -8.327397E+04  1.502996E+05 -2.455312E+01
       417   4  2.560612E+06  5.643942E+05  7.094597E+05 -5.403035E+03  4.862069E+05  3.019981E+02
       417   5  2.465384E+06 -7.170307E+04  3.122436E+05 -1.508229E+03  3.180508E+05  4.672027E+02
       417   6  2.561292E+06 -2.996906E+04  1.937501E+05 -5.252956E+03  1.498847E+05 -5.837358E+00
       417   7  2.583153E+06  5.699377E+05  7.149882E+05 -1.967450E+05  4.865078E+05  1.527096E+02
       417   8  2.476728E+06 -6.893258E+04  3.149245E+05 -5.815747E+04  3.179922E+05  4.382808E+02
       417   9  2.561532E+06 -2.984998E+04  1.938341E+05  7.276809E+04  1.494697E+05  1.277450E+01
       417  10  2.537897E+06  5.589246E+05  7.035089E+05  1.859319E+05  8.689255E-11 -5.126356E-10
       417  11  2.453939E+06 -7.448858E+04  3.093750E+05  5.513985E+04  1.440792E-09 -4.251058E-11
       417  12  2.561041E+06 -3.007139E+04  1.936271E+05 -8.327397E+04 -9.143329E-10 -2.949656E-10
       417  13  2.560359E+06  5.643310E+05  7.090173E+05 -5.403153E+03  8.735099E-10 -6.389995E-12
       417  14  2.465276E+06 -7.173008E+04  3.120543E+05 -1.508349E+03  8.734935E-10 -3.100935E-10
       417  15  2.561268E+06 -2.997506E+04  1.937081E+05 -5.252955E+03 -1.091905E-09 -1.894547E-10
       417  16  2.582899E+06  5.698745E+05  7.145452E+05 -1.967451E+05  3.033709E-10 -3.032456E-10
       417  17  2.476619E+06 -6.895958E+04  3.147353E+05 -5.815759E+04  6.967799E-10 -4.536911E-10
       417  18  2.561508E+06 -2.985594E+04  1.937923E+05  7.276809E+04  1.905782E-09  9.412541E-10
       417  19  2.538150E+06  5.589877E+05  7.039508E+05  1.859320E+05 -4.859061E+05 -4.511067E+02
       417  20  2.454047E+06 -7.446155E+04  3.095644E+05  5.513998E+04 -3.181094E+05 -4.961356E+02
       417  21  2.561065E+06 -3.006536E+04  1.936694E+05 -8.327397E+04 -1.502996E+05  2.455312E+01
       417  22  2.560612E+06  5.643942E+05  7.094597E+05 -5.403035E+03 -4.862069E+05 -3.019981E+02
       417  23  2.465384E+06 -7.170307E+04  3.122436E+05 -1.508229E+03 -3.180508E+05 -4.672027E+02
       417  24  2.561292E+06 -2.996906E+04  1.937501E+05 -5.252956E+03 -1.498847E+05  5.837358E+00
       417  25  2.583153E+06  5.699377E+05  7.149882E+05 -1.967450E+05 -4.865078E+05 -1.527096E+02
       417  26  2.476728E+06 -6.893258E+04  3.149245E+05 -5.815747E+04 -3.179922E+05 -4.382808E+02
       417  27  2.561532E+06 -2.984998E+04  1.938341E+05  7.276809E+04 -1.494697E+05 -1.277450E+01
       418   1  2.536731E+06  5.847548E+04  1.607935E+05  1.130752E+04  1.202748E+05 -3.697053E+02
       418   2  2.536860E+06 -1.361519E+03  8.676209E+04  2.684281E+03  7.888657E+04 -8.067796E+02
       418   3  2.559098E+06  5.800599E+03  5.635459E+04 -1.352222E+04  3.749921E+04 -1.290451E+03
       418   4  2.523568E+06  5.521233E+04  1.576543E+05 -5.296015E+03  1.200506E+05 -3.729631E+02
       418   5  2.512565E+06 -7.361490E+03  8.100236E+04 -1.497294E+03  7.863636E+04 -8.073743E+02
       418   6  2.523676E+06 -2.931183E+03  4.799243E+04 -5.281483E+03  3.722362E+04 -1.290033E+03
       418   7  2.510405E+06  5.195020E+04  1.545152E+05 -2.189919E+04  1.198265E+05 -3.762091E+02
       418   8  2.488271E+06 -1.336144E+04  7.524259E+04 -5.678704E+03  7.838616E+04 -8.079657E+02
       418   9  2.488255E+06 -1.166280E+04  3.963022E+04  2.958779E+03  3.694806E+04 -1.289622E+03
       418  10  2.536716E+06  5.847162E+04  1.607664E+05  1.130755E+04 -3.970712E-10 -3.332210E-11
       418  11  2.536853E+06 -1.363182E+03  8.675044E+04  2.684332E+03  1.229396E-09  6.945357E-10
       418  12  2.559096E+06  5.800222E+03  5.635195E+04 -1.352218E+04  4.655276E-10 -3.339539E-10
       418  13  2.523552E+06  5.520848E+04  1.576273E+05 -5.295979E+03  8.516592E-10  5.980655E-10
       418  14  2.512558E+06 -7.363142E+03  8.099078E+04 -1.497243E+03  1.201759E-09  3.061256E-10
       418  15  2.523674E+06 -2.931555E+03  4.798983E+04 -5.281444E+03 -9.249983E-10 -5.759018E-10
       418  16  2.510390E+06  5.194637E+04  1.544883E+05 -2.189916E+04 -7.497191E-11  4.762020E-10
       418  17  2.488264E+06 -1.336308E+04  7.523109E+04 -5.678653E+03  6.900806E-11 -4.392730E-10
       418  18  2.488253E+06 -1.166317E+04  3.962766E+04  2.958817E+03 -7.005563E-10  2.157322E-11
       418  19  2.536731E+06  5.847548E+04  1.607935E+05  1.130752E+04 -1.202748E+05  3.697053E+02
       418  20  2.536860E+06 -1.361519E+03  8.676209E+04  2.684281E+03 -7.888657E+04  8.067796E+02
       418  21  2.559098E+06  5.800599E+03  5.635459E+04 -1.352222E+04 -3.749921E+04  1.290451E+03
       418  22  2.523568E+06  5.521233E+04  1.576543E+05 -5.296015E+03 -1.200506E+05  3.729631E+02
       418  23  2.512565E+06 -7.361490E+03  8.100236E+04 -1.497294E+03 -7.863636E+04  8.073743E+02
       418  24  2.523676E+06 -2.931183E+03  4.799243E+04 -5.281483E+03 -3.722362E+04  1.290033E+03
       418  25  2.510405E+06  5.195020E+04  1.545152E+05 -2.189919E+04 -1.198265E+05  3.762091E+02
       418  26  2.488271E+06 -1.336144E+04  7.524259E+04 -5.678704E+03 -7.838616E+04  8.079657E+02
       418  27  2.488255E+06 -1.166280E+04  3.963022E+04  2.958779E+03 -3.694806E+04  1.289622E+03
       419   1  2.568549E+06  1.741817E+04  4.915468E+04 -4.277081E+03  2.992860E+04 -1.575849E+03
       419   2  2.578577E+06  1.417667E+04  3.508282E+04 -1.346535E+03  1.956476E+04 -2.060386E+03
       419   3  2.591604E+06  1.752238E+04  2.938681E+04 -6.259394E+03  9.201083E+03 -2.557826E+03
       419   4  2.519415E+06  5.282591E+03  3.747532E+04 -5.345076E+03  2.966373E+04 -1.575982E+03
       419   5  2.517925E+06 -7.950181E+02  2.070543E+04 -1.422539E+03  1.929340E+04 -2.060487E+03
       419   6  2.519435E+06 -2.839476E+02  1.231622E+04 -5.343442E+03  8.923432E+03 -2.557928E+03
       419   7  2.470284E+06 -6.853157E+03  2.579579E+04 -6.412987E+03  2.939887E+04 -1.576114E+03
       419   8  2.457276E+06 -1.576697E+04  6.327788E+03 -1.498535E+03  1.902207E+04 -2.060587E+03
       419   9  2.447270E+06 -1.809065E+04 -4.754729E+03 -4.427597E+03  8.645813E+03 -2.558030E+03
       419  10  2.568548E+06  1.741793E+04  4.915300E+04 -4.277043E+03 -6.994197E-10 -4.689069E-10
       419  11  2.578577E+06  1.417657E+04  3.508209E+04 -1.346502E+03 -1.788828E-09 -8.119230E-10
       419  12  2.591604E+06  1.752235E+04  2.938664E+04 -6.259375E+03  1.859642E-10  1.359662E-10
       419  13  2.519414E+06  5.282353E+03  3.747367E+04 -5.345038E+03 -7.731233E-10 -4.342605E-10
       419  14  2.517925E+06 -7.951221E+02  2.070472E+04 -1.422507E+03 -1.010645E-10 -3.489815E-11
       419  15  2.519435E+06 -2.839759E+02  1.231606E+04 -5.343424E+03 -1.806301E-09 -5.830139E-10
       419  16  2.470283E+06 -6.853391E+03  2.579416E+04 -6.412949E+03 -8.632265E-10 -1.868989E-10
       419  17  2.457276E+06 -1.576707E+04  6.327102E+03 -1.498504E+03 -1.150143E-09 -2.976482E-10
       419  18  2.447270E+06 -1.809067E+04 -4.754881E+03 -4.427580E+03 -2.935757E-10  3.331769E-10
       419  19  2.568549E+06  1.741817E+04  4.915468E+04 -4.277081E+03 -2.992860E+04  1.575849E+03
       419  20  2.578577E+06  1.417667E+04  3.508282E+04 -1.346535E+03 -1.956476E+04  2.060386E+03
       419  21  2.591604E+06  1.752238E+04  2.938681E+04 -6.259394E+03 -9.201083E+03  2.557826E+03
       419  22  2.519415E+06  5.282591E+03  3.747532E+04 -5.345076E+03 -2.966373E+04  1.575982E+03
       419  23  2.517925E+06 -7.950181E+02  2.070543E+04 -1.422539E+03 -1.929340E+04  2.060487E+03
       419  24  2.519435E+06 -2.839476E+02  1.231622E+04 -5.343442E+03 -8.923432E+03  2.557928E+03
       419  25  2.470284E+06 -6.853157E+03  2.579579E+04 -6.412987E+03 -2.939887E+04  1.576114E+03
       419  26  2.457276E+06 -1.576697E+04  6.327788E+03 -1.498535E+03 -1.902207E+04  2.060587E+03
       419  27  2.447270E+06 -1.809065E+04 -4.754729E+03 -4.427597E+03 -8.645813E+03  2.558030E+03
       420   1  2.605469E+06  2.184667E+04  3.023163E+04 -5.458307E+03  7.225696E+03 -2.851124E+03
       420   2  2.617438E+06  2.428773E+04  2.954946E+04 -1.310743E+03  4.193600E+03 -3.365737E+03
       420   3  2.629989E+06  2.740696E+04  3.100866E+04 -5.507873E+03  1.161519E+03 -3.895809E+03
       420   4  2.518896E+06  4.702470E+02  9.675750E+03 -5.455522E+03  6.944929E+03 -2.851254E+03
       420   5  2.518607E+06 -1.076832E+02  6.122234E+03 -1.283051E+03  3.904638E+03 -3.365895E+03
       420   6  2.518899E+06 -6.000897E+00  4.715891E+03 -5.455357E+03  8.644202E+02 -3.895997E+03
       420   7  2.432331E+06 -2.090671E+04 -1.088065E+04 -5.452737E+03  6.664202E+03 -2.851384E+03
       420   8  2.419784E+06 -2.450380E+04 -1.730567E+04 -1.255365E+03  3.615722E+03 -3.366054E+03
       420   9  2.407821E+06 -2.741984E+04 -2.157773E+04 -5.402852E+03  5.673738E+02 -3.896185E+03
       420  10  2.605469E+06  2.184665E+04  3.023152E+04 -5.458291E+03  6.616506E-10 -5.448034E-10
       420  11  2.617438E+06  2.428771E+04  2.954940E+04 -1.310731E+03  4.794194E-10 -3.904136E-10
       420  12  2.629989E+06  2.740694E+04  3.100863E+04 -5.507869E+03 -4.750037E-10 -5.229097E-10
       420  13  2.518896E+06  4.702253E+02  9.675645E+03 -5.455506E+03 -1.009014E-10  3.856118E-11
       420  14  2.518607E+06 -1.076995E+02  6.122184E+03 -1.283041E+03 -1.060723E-09 -7.909260E-10
       420  15  2.518899E+06 -6.017415E+00  4.715861E+03 -5.455354E+03  6.024805E-10  2.737793E-10
       420  16  2.432331E+06 -2.090673E+04 -1.088075E+04 -5.452721E+03 -3.238515E-10  1.637612E-10
       420  17  2.419784E+06 -2.450381E+04 -1.730571E+04 -1.255355E+03 -1.404075E-09 -1.184842E-09
       420  18  2.407821E+06 -2.741986E+04 -2.157776E+04 -5.402850E+03  5.447168E-10 -3.553458E-11
       420  19  2.605469E+06  2.184667E+04  3.023163E+04 -5.458307E+03 -7.225696E+03  2.851124E+03
       420  20  2.617438E+06  2.428773E+04  2.954946E+04 -1.310743E+03 -4.193600E+03  3.365737E+03
       420  21  2.629989E+06  2.740696E+04  3.100866E+04 -5.507873E+03 -1.161519E+03  3.895809E+03
       420  22  2.518896E+06  4.702470E+02  9.675750E+03 -5.455522E+03 -6.944929E+03  2.851254E+03
       420  23  2.518607E+06 -1.076832E+02  6.122234E+03 -1.283051E+03 -3.904638E+03  3.365895E+03
       420  24  2.518899E+06 -6.000897E+00  4.715891E+03 -5.455357E+03 -8.644202E+02  3.895997E+03
       420  25  2.432331E+06 -2.090671E+04 -1.088065E+04 -5.452737E+03 -6.664202E+03  2.851384E+03
       420  26  2.419784E+06 -2.450380E+04 -1.730567E+04 -1.255365E+03 -3.615722E+03  3.366054E+03
       420  27  2.407821E+06 -2.741984E+04 -2.157773E+04 -5.402852E+03 -5.673738E+02  3.896185E+03
       421   1  2.645496E+06  3.126749E+04  3.461454E+04 -5.516982E+03  3.278523E+02 -4.211622E+03
       421   2  2.658607E+06  3.445895E+04  3.848137E+04 -9.741413E+02 -2.293498E+03 -4.770924E+03
       421   3  2.672228E+06  3.820139E+04  4.419393E+04 -5.532025E+03 -4.914741E+03 -5.349790E+03
       421   4  2.518882E+06  7.538299E+00  4.565633E+03 -5.623373E+03  2.429876E+01 -4.211835E+03
       421   5  2.518625E+06 -9.310394E+01  5.300730E+03 -1.073065E+03 -2.607381E+03 -4.771182E+03
       421   6  2.518880E+06  3.591241E+02  7.888994E+03 -5.623609E+03 -5.238897E+03 -5.350095E+03
       421   7  2.392284E+06 -3.125356E+04 -2.548439E+04 -5.729744E+03 -2.791934E+02 -4.212048E+03
       421   8  2.378662E+06 -3.464656E+04 -2.788127E+04 -1.171970E+03 -2.921193E+03 -4.771440E+03
       421   9  2.365553E+06 -3.748482E+04 -2.841757E+04 -5.715173E+03 -5.562974E+03 -5.350399E+03
       421  10  2.645496E+06  3.126747E+04  3.461451E+04 -5.516980E+03 -9.476603E-10 -4.423506E-10
       421  11  2.658607E+06  3.445893E+04  3.848132E+04 -9.741501E+02  1.281311E-09  1.344533E-09
       421  12  2.672228E+06  3.820135E+04  4.419383E+04 -5.532047E+03  7.241425E-10 -3.827540E-10
       421  13  2.518882E+06  7.519227E+00  4.565600E+03 -5.623373E+03  2.020256E-09  1.348339E-09
       421  14  2.518625E+06 -9.313023E+01  5.300675E+03 -1.073075E+03  1.615812E-09  1.902853E-09
       421  15  2.518880E+06  3.590860E+02  7.888888E+03 -5.623631E+03 -2.506553E-11  9.479721E-11
       421  16  2.392284E+06 -3.125358E+04 -2.548443E+04 -5.729745E+03  1.641812E-09  7.697691E-10
       421  17  2.378662E+06 -3.464659E+04 -2.788133E+04 -1.171981E+03 -1.248159E-09 -1.853038E-10
       421  18  2.365553E+06 -3.748486E+04 -2.841768E+04 -5.715197E+03 -1.018099E-09 -6.553053E-10
       421  19  2.645496E+06  3.126749E+04  3.461454E+04 -5.516982E+03 -3.278523E+02  4.211622E+03
       421  20  2.658607E+06  3.445895E+04  3.848137E+04 -9.741413E+02  2.293498E+03  4.770924E+03
       421  21  2.672228E+06  3.820139E+04  4.419393E+04 -5.532025E+03  4.914741E+03  5.349790E+03
       421  22  2.518882E+06  7.538299E+00  4.565633E+03 -5.623373E+03 -2.429876E+01  4.211835E+03
       421  23  2.518625E+06 -9.310394E+01  5.300730E+03 -1.073065E+03  2.607381E+03  4.771182E+03
       421  24  2.518880E+06  3.591241E+02  7.888994E+03 -5.623609E+03  5.238897E+03  5.350095E+03
       421  25  2.392284E+06 -3.125356E+04 -2.548439E+04 -5.729744E+03  2.791934E+02  4.212048E+03
       421  26  2.378662E+06 -3.464656E+04 -2.788127E+04 -1.171970E+03  2.921193E+03  4.771440E+03
       421  27  2.365553E+06 -3.748482E+04 -2.841757E+04 -5.715173E+03  5.562974E+03  5.350399E+03
       422   1  2.689760E+06  4.185146E+04  5.034293E+04 -5.029776E+03 -6.497840E+03 -5.702837E+03
       422   2  2.703425E+06  4.511162E+04  6.033209E+04 -7.225966E+02 -1.471537E+04 -6.326869E+03
       422   3  2.719500E+06  5.354431E+04  7.695858E+04 -6.548222E+03 -2.293284E+04 -6.948489E+03
       422   4  2.519301E+06 -2.317421E+02  9.899262E+03 -5.851648E+03 -6.839448E+03 -5.703179E+03
       422   5  2.518087E+06 -6.343962E+02  1.640194E+04 -7.870613E+02 -1.505349E+04 -6.327274E+03
       422   6  2.519284E+06  4.135949E+03  2.954103E+04 -5.855464E+03 -2.326727E+04 -6.948976E+03
       422   7  2.348869E+06 -4.231703E+04 -3.054643E+04 -6.673298E+03 -7.180963E+03 -5.703519E+03
       422   8  2.332781E+06 -4.638287E+04 -2.753060E+04 -8.515132E+02 -1.539150E+04 -6.327679E+03
       422   9  2.319105E+06 -4.527528E+04 -1.787930E+04 -5.162938E+03 -2.360159E+04 -6.949464E+03
       422  10  2.689759E+06  4.185142E+04  5.034279E+04 -5.029806E+03  1.371828E-10  7.801392E-10
       422  11  2.703424E+06  4.511152E+04  6.033161E+04 -7.226715E+02 -1.273235E-09 -8.764538E-10
       422  12  2.719499E+06  5.354412E+04  7.695750E+04 -6.548350E+03  1.509712E-09  7.299245E-10
       422  13  2.519301E+06 -2.317896E+02  9.899114E+03 -5.851679E+03 -9.587925E-14  2.636286E-10
       422  14  2.518087E+06 -6.344998E+02  1.640144E+04 -7.871379E+02 -7.740541E-10  1.482337E-10
       422  15  2.519284E+06  4.135752E+03  2.953992E+04 -5.855594E+03 -1.469860E-10 -5.205356E-11
       422  16  2.348868E+06 -4.231708E+04 -3.054659E+04 -6.673331E+03 -4.503362E-10 -7.314300E-10
       422  17  2.332781E+06 -4.638297E+04 -2.753112E+04 -8.515916E+02 -1.876176E-09 -2.112094E-11
       422  18  2.319105E+06 -4.527548E+04 -1.788043E+04 -5.163070E+03 -7.697998E-10  5.254358E-10
       422  19  2.689760E+06  4.185146E+04  5.034293E+04 -5.029776E+03  6.497840E+03  5.702837E+03
       422  20  2.703425E+06  4.511162E+04  6.033209E+04 -7.225966E+02  1.471537E+04  6.326869E+03
       422  21  2.719500E+06  5.354431E+04  7.695858E+04 -6.548222E+03  2.293284E+04  6.948489E+03
       422  22  2.519301E+06 -2.317421E+02  9.899262E+03 -5.851648E+03  6.839448E+03  5.703179E+03
       422  23  2.518087E+06 -6.343962E+02  1.640194E+04 -7.870613E+02  1.505349E+04  6.327274E+03
       422  24  2.519284E+06  4.135949E+03  2.954103E+04 -5.855464E+03  2.326727E+04  6.948976E+03
       422  25  2.348869E+06 -4.231703E+04 -3.054643E+04 -6.673298E+03  7.180963E+03  5.703519E+03
       422  26  2.332781E+06 -4.638287E+04 -2.753060E+04 -8.515132E+02  1.539150E+04  6.327679E+03
       422  27  2.319105E+06 -4.527528E+04 -1.787930E+04 -5.162938E+03  2.360159E+04  6.949464E+03
       423   1  2.742052E+06  5.185591E+04  8.983855E+04  5.098735E+02 -2.873647E+04 -7.411181E+03
       423   2  2.750118E+06  5.250009E+04  1.197201E+05 -3.506012E+03 -6.156851E+04 -8.119208E+03
       423   3  2.775688E+06  1.058546E+05  1.841067E+05 -1.901202E+04 -9.440309E+04 -8.391224E+03
       423   4  2.522638E+06 -2.322632E+03  3.779653E+04 -6.138136E+03 -2.922396E+04 -7.411536E+03
       423   5  2.513861E+06 -5.803791E+03  6.372547E+04 -4.203155E+02 -6.180404E+04 -8.119999E+03
       423   6  2.522551E+06  4.339277E+04  1.239944E+05 -6.192570E+03 -9.438577E+04 -8.393403E+03
       423   7  2.303269E+06 -5.650446E+04 -1.424881E+04 -1.278380E+04 -2.971128E+04 -7.411881E+03
       423   8  2.277655E+06 -6.411163E+04  7.726993E+03  2.664192E+03 -6.203947E+04 -8.120793E+03
       423   9  2.269473E+06 -1.907307E+04  6.387769E+04  6.621631E+03 -9.436844E+04 -8.395582E+03
       423  10  2.742051E+06  5.185563E+04  8.983690E+04  5.097021E+02  1.205807E-09  1.336110E-10
       423  11  2.750114E+06  5.249900E+04  1.197129E+05 -3.506415E+03  1.722609E-09 -1.625092E-09
       423  12  2.775679E+06  1.058522E+05  1.840899E+05 -1.901266E+04  1.757701E-09 -1.551927E-09
       423  13  2.522637E+06 -2.322919E+03  3.779483E+04 -6.138310E+03  3.371414E-10 -3.001274E-10
       423  14  2.513857E+06 -5.804882E+03  6.371819E+04 -4.207193E+02 -1.334650E-10 -1.017705E-09
       423  15  2.522542E+06  4.339032E+04  1.239776E+05 -6.193208E+03 -1.362802E-10 -1.496695E-09
       423  16  2.303268E+06 -5.650475E+04 -1.425057E+04 -1.278398E+04 -7.403105E-10 -1.114358E-10
       423  17  2.277651E+06 -6.411273E+04  7.719662E+03  2.663786E+03  4.611067E-10  2.010995E-09
       423  18  2.269463E+06 -1.907553E+04  6.386089E+04  6.620993E+03  2.904799E-10 -1.651117E-10
       423  19  2.742052E+06  5.185591E+04  8.983855E+04  5.098735E+02  2.873647E+04  7.411181E+03
       423  20  2.750118E+06  5.250009E+04  1.197201E+05 -3.506012E+03  6.156851E+04  8.119208E+03
       423  21  2.775688E+06  1.058546E+05  1.841067E+05 -1.901202E+04  9.440309E+04  8.391224E+03
       423  22  2.522638E+06 -2.322632E+03  3.779653E+04 -6.138136E+03  2.922396E+04  7.411536E+03
       423  23  2.513861E+06 -5.803791E+03  6.372547E+04 -4.203155E+02  6.180404E+04  8.119999E+03
       423  24  2.522551E+06  4.339277E+04  1.239944E+05 -6.192570E+03  9.438577E+04  8.393403E+03
       423  25  2.303269E+06 -5.650446E+04 -1.424881E+04 -1.278380E+04  2.971128E+04  7.411881E+03
       423  26  2.277655E+06 -6.411163E+04  7.726993E+03  2.664192E+03  6.203947E+04  8.120793E+03
       423  27  2.269473E+06 -1.907307E+04  6.387769E+04  6.621631E+03  9.436844E+04  8.395582E+03
       424   1  2.827070E+06  4.442185E+04  2.174305E+05  5.524646E+04 -1.157061E+05 -9.861631E+03
       424   2  2.770961E+06  1.604419E+04  3.152035E+05 -4.421434E+04 -2.519285E+05 -1.041200E+04
       424   3  2.865922E+06  5.213120E+05  6.348594E+05 -1.572710E+05 -3.881631E+05 -3.848527E+03
       424   4  2.552223E+06 -2.359852E+04  1.523735E+05 -6.399629E+03 -1.178462E+05 -9.853369E+03
       424   5  2.476733E+06 -5.641440E+04  2.455143E+05  1.963817E+01 -2.500989E+05 -1.042759E+04
       424   6  2.551674E+06  4.438215E+05  5.578556E+05 -7.140534E+03 -3.823583E+05 -3.932766E+03
       424   7  2.277453E+06 -9.161012E+04  8.731329E+04 -6.801841E+04 -1.199854E+05 -9.844679E+03
       424   8  2.182588E+06 -1.288718E+05  1.758202E+05  4.423260E+04 -2.482700E+05 -1.044293E+04
       424   9  2.237564E+06  3.664083E+05  4.808567E+05  1.429141E+05 -3.765564E+05 -4.014247E+03
       424  10  2.827056E+06  4.441817E+04  2.174053E+05  5.524554E+04  9.030999E-10 -2.601624E-09
       424  11  2.770893E+06  1.602713E+04  3.150845E+05 -4.421645E+04  3.156016E-10 -4.555247E-09
       424  12  2.865761E+06  5.212718E+05  6.345775E+05 -1.572722E+05 -2.663462E-10 -1.188406E-09
       424  13  2.552208E+06 -2.360233E+04  1.523473E+05 -6.400563E+03 -2.619470E-09 -6.701713E-09
       424  14  2.476666E+06 -5.643122E+04  2.453970E+05  1.754011E+01  2.642962E-09  2.703762E-09
       424  15  2.551518E+06  4.437824E+05  5.575819E+05 -7.141743E+03 -1.352528E-10 -5.474284E-10
       424  16  2.277438E+06 -9.161407E+04  8.728616E+04 -6.801936E+04 -7.570162E-10 -1.702567E-09
       424  17  2.182522E+06 -1.288884E+05  1.757046E+05  4.423052E+04  8.417055E-10  1.630084E-09
       424  18  2.237412E+06  3.663704E+05  4.805912E+05  1.429129E+05  3.890821E-10 -1.722728E-09
       424  19  2.827070E+06  4.442185E+04  2.174305E+05  5.524646E+04  1.157061E+05  9.861631E+03
       424  20  2.770961E+06  1.604419E+04  3.152035E+05 -4.421434E+04  2.519285E+05  1.041200E+04
       424  21  2.865922E+06  5.213120E+05  6.348594E+05 -1.572710E+05  3.881631E+05  3.848527E+03
       424  22  2.552223E+06 -2.359852E+04  1.523735E+05 -6.399629E+03  1.178462E+05  9.853369E+03
       424  23  2.476733E+06 -5.641440E+04  2.455143E+05  1.963817E+01  2.500989E+05  1.042759E+04
       424  24  2.551674E+06  4.438215E+05  5.578556E+05 -7.140534E+03  3.823583E+05  3.932766E+03
       424  25  2.277453E+06 -9.161012E+04  8.731329E+04 -6.801841E+04  1.199854E+05  9.844679E+03
       424  26  2.182588E+06 -1.288718E+05  1.758202E+05  4.423260E+04  2.482700E+05  1.044293E+04
       424  27  2.237564E+06  3.664083E+05  4.808567E+05  1.429141E+05  3.765564E+05  4.014247E+03
       425   1  5.996364E+05  1.952835E+05  1.805498E+05  5.112921E+04  5.377241E+04 -1.242956E+04
       425   2  5.365823E+05  1.914244E+05  1.431747E+05  5.438589E+04  2.316622E+04 -4.226782E+04
       425   3  4.756567E+05  1.800697E+05  1.238797E+05  6.895262E+04 -7.469340E+03 -5.155898E+04
       425   4 -2.991855E+05 -2.628754E+04 -2.902735E+04  6.681919E+04 -2.028672E+04 -1.256767E+04
       425   5 -2.969301E+05 -6.700630E+03 -1.425463E+04  6.113829E+04 -1.288937E+04 -4.234447E+04
       425   6 -2.991492E+05 -1.212390E+03 -7.787165E+03  6.676756E+04 -5.525407E+03 -5.156062E+04
       425   7 -1.197250E+06 -2.479118E+05 -2.386385E+05  8.248595E+04 -9.423940E+04 -1.270962E+04
       425   8 -1.129769E+06 -2.048653E+05 -1.717097E+05  6.788107E+04 -4.889776E+04 -4.242195E+04
       425   9 -1.073364E+06 -1.825263E+05 -1.394736E+05  6.458497E+04 -3.583817E+03 -5.156228E+04
       425  10  5.996333E+05  1.952826E+05  1.805441E+05  5.112975E+04  5.096709E-09 -1.275357E-09
       425  11  5.365813E+05  1.914224E+05  1.431703E+05  5.438668E+04  4.184149E-09 -4.442894E-09
       425  12  4.756559E+05  1.800669E+05  1.238746E+05  6.895231E+04 -5.898000E-10 -3.939745E-09
       425  13 -2.991860E+05 -2.628782E+04 -2.902842E+04  6.681898E+04 -3.756048E-10  8.186690E-10
       425  14 -2.969308E+05 -6.702600E+03 -1.425831E+04  6.113785E+04 -5.096215E-10 -2.666947E-09
       425  15 -2.991500E+05 -1.215253E+03 -7.792218E+03  6.676733E+04  5.044070E-10 -2.107820E-10
       425  16 -1.197260E+06 -2.479144E+05 -2.386555E+05  8.248498E+04 -5.893246E-09  3.428359E-11
       425  17 -1.129772E+06 -2.048679E+05 -1.717176E+05  6.787940E+04 -3.476294E-09 -6.895486E-09
       425  18 -1.073365E+06 -1.825292E+05 -1.394786E+05  6.458482E+04  4.937580E-10 -6.593602E-09
       425  19  5.996364E+05  1.952835E+05  1.805498E+05  5.112921E+04 -5.377241E+04  1.242956E+04
       425  20  5.365823E+05  1.914244E+05  1.431747E+05  5.438589E+04 -2.316622E+04  4.226782E+04
       425  21  4.756567E+05  1.800697E+05  1.238797E+05  6.895262E+04  7.469340E+03  5.155898E+04
       425  22 -2.991855E+05 -2.628754E+04 -2.902735E+04  6.681919E+04  2.028672E+04  1.256767E+04
       425  23 -2.969301E+05 -6.700630E+03 -1.425463E+04  6.113829E+04  1.288937E+04  4.234447E+04
       425  24 -2.991492E+05 -1.212390E+03 -7.787165E+03  6.676756E+04  5.525407E+03  5.156062E+04
       425  25 -1.197250E+06 -2.479118E+05 -2.386385E+05  8.248595E+04  9.423940E+04  1.270962E+04
       425  26 -1.129769E+06 -2.048653E+05 -1.717097E+05  6.788107E+04  4.889776E+04  4.242195E+04
       425  27 -1.073364E+06 -1.825263E+05 -1.394736E+05  6.458497E+04  3.583817E+03  5.156228E+04
       426   1  4.358411E+05  1.701622E+05  1.170051E+05  6.767226E+04 -5.052151E+03 -5.038295E+04
       426   2  3.738337E+05  1.560624E+05  1.057064E+05  6.167539E+04 -7.274937E+03 -4.906321E+04
       426   3  3.120538E+05  1.418233E+05  9.581455E+04  6.839196E+04 -9.503581E+03 -4.566683E+04
       426   4 -2.982420E+05 -1.218285E+03 -5.893949E+03  6.708516E+04 -4.518380E+03 -5.038722E+04
       426   5 -2.980070E+05 -8.666976E+01 -3.235007E+03  6.072628E+04 -2.902580E+03 -4.905799E+04
       426   6 -2.982140E+05  2.394929E+02 -1.834569E+03  6.708171E+04 -1.292791E+03 -4.565098E+04
       426   7 -1.031794E+06 -1.726270E+05 -1.288097E+05  6.649847E+04 -3.985217E+03 -5.039149E+04
       426   8 -9.694002E+05 -1.562586E+05 -1.121888E+05  5.977797E+04  1.465215E+03 -4.905279E+04
       426   9 -9.081115E+05 -1.413630E+05 -9.949323E+04  6.577257E+04  6.910221E+03 -4.563516E+04
       426  10  4.358404E+05  1.701595E+05  1.170003E+05  6.767205E+04 -5.836885E-09 -4.012041E-09
       426  11  3.738330E+05  1.560598E+05  1.057017E+05  6.167510E+04 -5.475466E-10  1.563905E-09
       426  12  3.120531E+05  1.418211E+05  9.581046E+04  6.839161E+04 -1.367412E-09  4.300432E-09
       426  13 -2.982427E+05 -1.221016E+03 -5.898757E+03  6.708498E+04 -2.441768E-10 -3.053601E-09
       426  14 -2.980077E+05 -8.925601E+01 -3.239545E+03  6.072617E+04 -1.006838E-09  2.425769E-11
       426  15 -2.982146E+05  2.372549E+02 -1.838488E+03  6.708167E+04 -4.055153E-10 -2.172643E-09
       426  16 -1.031794E+06 -1.726297E+05 -1.288145E+05  6.649831E+04  4.328907E-09  8.539883E-11
       426  17 -9.694008E+05 -1.562612E+05 -1.121933E+05  5.977803E+04 -3.084544E-10  2.403029E-09
       426  18 -9.081122E+05 -1.413652E+05 -9.949723E+04  6.577282E+04  3.615306E-10  4.247940E-10
       426  19  4.358411E+05  1.701622E+05  1.170051E+05  6.767226E+04  5.052151E+03  5.038295E+04
       426  20  3.738337E+05  1.560624E+05  1.057064E+05  6.167539E+04  7.274937E+03  4.906321E+04
       426  21  3.120538E+05  1.418233E+05  9.581455E+04  6.839196E+04  9.503581E+03  4.566683E+04
       426  22 -2.982420E+05 -1.218285E+03 -5.893949E+03  6.708516E+04  4.518380E+03  5.038722E+04
       426  23 -2.980070E+05 -8.666976E+01 -3.235007E+03  6.072628E+04  2.902580E+03  4.905799E+04
       426  24 -2.982140E+05  2.394929E+02 -1.834569E+03  6.708171E+04  1.292791E+03  4.565098E+04
       426  25 -1.031794E+06 -1.726270E+05 -1.288097E+05  6.649847E+04  3.985217E+03  5.039149E+04
       426  26 -9.694002E+05 -1.562586E+05 -1.121888E+05  5.977797E+04 -1.465215E+03  4.905279E+04
       426  27 -9.081115E+05 -1.413630E+05 -9.949323E+04  6.577257E+04 -6.910221E+03  4.563516E+04
       427   1  2.723836E+05  1.325230E+05  8.949968E+04  6.825598E+04 -9.089145E+03 -4.302451E+04
       427   2  2.104563E+05  1.181451E+05  7.998382E+04  6.172498E+04 -9.094020E+03 -3.855384E+04
       427   3  1.484976E+05  1.038523E+05  7.047653E+04  6.805946E+04 -9.100984E+03 -3.387208E+04
       427   4 -2.981297E+05  2.391848E+02 -1.392739E+03  6.711587E+04 -1.018519E+03 -4.300805E+04
       427   5 -2.980677E+05  2.779713E+02 -7.956253E+02  6.068272E+04 -6.338577E+02 -3.853498E+04
       427   6 -2.981085E+05  3.343859E+02 -4.607822E+02  6.711566E+04 -2.512855E+02 -3.385074E+04
       427   7 -8.683191E+05 -1.320609E+05 -9.229332E+04  6.597663E+04  7.044962E+03 -4.299161E+04
       427   8 -8.063341E+05 -1.176020E+05 -8.158141E+04  5.964117E+04  7.819629E+03 -3.851614E+04
       427   9 -7.445159E+05 -1.031934E+05 -7.140290E+04  6.617242E+04  8.592280E+03 -3.382941E+04
       427  10  2.723830E+05  1.325210E+05  8.949604E+04  6.825567E+04 -4.643757E-09  4.566807E-09
       427  11  2.104558E+05  1.181434E+05  7.998088E+04  6.172470E+04  1.082408E-09  2.900257E-09
       427  12  1.484972E+05  1.038510E+05  7.047422E+04  6.805921E+04  2.040500E-09  2.702663E-11
       427  13 -2.981302E+05  2.371985E+02 -1.396217E+03  6.711583E+04 -6.041760E-10 -3.586211E-09
       427  14 -2.980681E+05  2.763769E+02 -7.984162E+02  6.068270E+04 -1.746550E-09  4.938105E-09
       427  15 -2.981088E+05  3.331555E+02 -4.629353E+02  6.711565E+04 -2.125684E-10  4.945248E-09
       427  16 -8.683197E+05 -1.320629E+05 -9.229689E+04  6.597688E+04  3.452716E-09  2.285337E-09
       427  17 -8.063346E+05 -1.176036E+05 -8.158431E+04  5.964141E+04 -2.559984E-09  4.668579E-09
       427  18 -7.445163E+05 -1.031946E+05 -7.140519E+04  6.617265E+04 -3.506452E-09 -6.137606E-10
       427  19  2.723836E+05  1.325230E+05  8.949968E+04  6.825598E+04  9.089145E+03  4.302451E+04
       427  20  2.104563E+05  1.181451E+05  7.998382E+04  6.172498E+04  9.094020E+03  3.855384E+04
       427  21  1.484976E+05  1.038523E+05  7.047653E+04  6.805946E+04  9.100984E+03  3.387208E+04
       427  22 -2.981297E+05  2.391848E+02 -1.392739E+03  6.711587E+04  1.018519E+03  4.300805E+04
       427  23 -2.980677E+05  2.779713E+02 -7.956253E+02  6.068272E+04  6.338577E+02  3.853498E+04
       427  24 -2.981085E+05  3.343859E+02 -4.607822E+02  6.711566E+04  2.512855E+02  3.385074E+04
       427  25 -8.683191E+05 -1.320609E+05 -9.229332E+04  6.597663E+04 -7.044962E+03  4.299161E+04
       427  26 -8.063341E+05 -1.176020E+05 -8.158141E+04  5.964117E+04 -7.819629E+03  3.851614E+04
       427  27 -7.445159E+05 -1.031934E+05 -7.140290E+04  6.617242E+04 -8.592280E+03  3.382941E+04
       428   1  1.088261E+05  9.461022E+04  6.402215E+04  6.798284E+04 -9.021745E+03 -3.107947E+04
       428   2  4.686907E+04  8.024435E+04  5.442530E+04  6.141327E+04 -8.964042E+03 -2.628742E+04
       428   3 -1.514759E+04  6.595396E+04  4.478806E+04  6.773266E+04 -8.907503E+03 -2.147394E+04
       428   4 -2.980950E+05  3.400802E+02 -3.556254E+02  6.712086E+04 -1.845298E+02 -3.105742E+04
       428   5 -2.980521E+05  3.196222E+02 -2.199681E+02  6.067615E+04 -8.775704E+01 -2.626426E+04
       428   6 -2.980806E+05  3.677165E+02 -1.523504E+02  6.712081E+04  7.858193E+00 -2.144965E+04
       428   7 -7.048510E+05 -9.393824E+04 -6.473727E+04  6.625935E+04  8.647106E+03 -3.103539E+04
       428   8 -6.428547E+05 -7.961098E+04 -5.486794E+04  5.993938E+04  8.783777E+03 -2.624110E+04
       428   9 -5.809338E+05 -6.522248E+04 -4.509450E+04  6.650919E+04  8.919304E+03 -2.142536E+04
       428  10  1.088257E+05  9.460916E+04  6.402018E+04  6.798261E+04 -5.545080E-08  4.883583E-10
       428  11  4.686880E+04  8.024359E+04  5.442385E+04  6.141308E+04  3.683882E-09  6.135498E-09
       428  12 -1.514780E+04  6.595344E+04  4.478704E+04  6.773251E+04  5.699394E-08  5.219434E-09
       428  13 -2.980952E+05  3.390445E+02 -3.574378E+02  6.712085E+04 -3.695973E-11  1.299930E-09
       428  14 -2.980523E+05  3.188816E+02 -2.212643E+02  6.067615E+04  2.028353E-10  5.246785E-09
       428  15 -2.980807E+05  3.672226E+02 -1.532149E+02  6.712081E+04 -1.888170E-10 -5.266729E-10
       428  16 -7.048513E+05 -9.393929E+04 -6.473922E+04  6.625957E+04  5.448665E-08 -9.712459E-10
       428  17 -6.428550E+05 -7.961174E+04 -5.486938E+04  5.993956E+04 -4.133914E-09 -2.212844E-10
       428  18 -5.809340E+05 -6.522299E+04 -4.509552E+04  6.650935E+04 -5.784412E-08 -1.041081E-09
       428  19  1.088261E+05  9.461022E+04  6.402215E+04  6.798284E+04  9.021745E+03  3.107947E+04
       428  20  4.686907E+04  8.024435E+04  5.442530E+04  6.141327E+04  8.964042E+03  2.628742E+04
       428  21 -1.514759E+04  6.595396E+04  4.478806E+04  6.773266E+04  8.907503E+03  2.147394E+04
       428  22 -2.980950E+05  3.400802E+02 -3.556254E+02  6.712086E+04  1.845298E+02  3.105742E+04
       428  23 -2.980521E+05  3.196222E+02 -2.199681E+02  6.067615E+04  8.775704E+01  2.626426E+04
       428  24 -2.980806E+05  3.677165E+02 -1.523504E+02  6.712081E+04 -7.858193E+00  2.144965E+04
       428  25 -7.048510E+05 -9.393824E+04 -6.473727E+04  6.625935E+04 -8.647106E+03  3.103539E+04
       428  26 -6.428547E+05 -7.961098E+04 -5.486794E+04  5.993938E+04 -8.783777E+03  2.624110E+04
       428  27 -5.809338E+05 -6.522248E+04 -4.509450E+04  6.650919E+04 -8.919304E+03  2.142536E+04
       429   1 -5.484200E+04  5.671043E+04  3.825692E+04  6.765043E+04 -8.888923E+03 -1.866497E+04
       429   2 -1.168159E+05  4.233848E+04  2.854886E+04  6.106271E+04 -8.819652E+03 -1.384314E+04
       429   3 -1.788659E+05  2.803518E+04  1.878719E+04  6.737404E+04 -8.750950E+03 -9.027621E+03
       429   4 -2.980779E+05  3.730101E+02 -1.386741E+02  6.712301E+04  2.663222E+01 -1.864021E+04
       429   5 -2.980356E+05  3.466388E+02 -1.425428E+02  6.067336E+04  8.385676E+01 -1.381788E+04
       429   6 -2.980703E+05  3.913650E+02 -1.915938E+02  6.712297E+04  1.405200E+02 -9.001865E+03
       429   7 -5.412546E+05 -5.596730E+04 -3.853544E+04  6.659576E+04  8.938823E+03 -1.861546E+04
       429   8 -4.792224E+05 -4.164680E+04 -2.883448E+04  6.028410E+04  8.984862E+03 -1.379263E+04
       429   9 -4.172604E+05 -2.725312E+04 -1.917044E+04  6.687194E+04  9.030344E+03 -8.976113E+03
       429  10 -5.484218E+04  5.671003E+04  3.825611E+04  6.765029E+04  1.716382E-08  6.747974E-10
       429  11 -1.168160E+05  4.233826E+04  2.854835E+04  6.106261E+04  6.966824E-09 -2.000679E-09
       429  12 -1.788660E+05  2.803508E+04  1.878689E+04  6.737398E+04 -8.475284E-09 -4.650974E-10
       429  13 -2.980780E+05  3.726370E+02 -1.393270E+02  6.712301E+04 -2.340975E-10  6.373043E-09
       429  14 -2.980356E+05  3.464338E+02 -1.429016E+02  6.067336E+04 -5.822042E-10 -9.848320E-10
       429  15 -2.980703E+05  3.912780E+02 -1.917461E+02  6.712297E+04 -3.881766E-10 -2.850808E-09
       429  16 -5.412548E+05 -5.596769E+04 -3.853624E+04  6.659589E+04 -1.765603E-08  2.218036E-09
       429  17 -4.792225E+05 -4.164702E+04 -2.883498E+04  6.028420E+04 -7.676622E-09 -2.770305E-09
       429  18 -4.172605E+05 -2.725323E+04 -1.917075E+04  6.687201E+04  7.233256E-09 -3.869414E-09
       429  19 -5.484200E+04  5.671043E+04  3.825692E+04  6.765043E+04  8.888923E+03  1.866497E+04
       429  20 -1.168159E+05  4.233848E+04  2.854886E+04  6.106271E+04  8.819652E+03  1.384314E+04
       429  21 -1.788659E+05  2.803518E+04  1.878719E+04  6.737404E+04  8.750950E+03  9.027621E+03
       429  22 -2.980779E+05  3.730101E+02 -1.386741E+02  6.712301E+04 -2.663222E+01  1.864021E+04
       429  23 -2.980356E+05  3.466388E+02 -1.425428E+02  6.067336E+04 -8.385676E+01  1.381788E+04
       429  24 -2.980703E+05  3.913650E+02 -1.915938E+02  6.712297E+04 -1.405200E+02  9.001865E+03
       429  25 -5.412546E+05 -5.596730E+04 -3.853544E+04  6.659576E+04 -8.938823E+03  1.861546E+04
       429  26 -4.792224E+05 -4.164680E+04 -2.883448E+04  6.028410E+04 -8.984862E+03  1.379263E+04
       429  27 -4.172604E+05 -2.725312E+04 -1.917044E+04  6.687194E+04 -9.030344E+03  8.976113E+03
       430   1 -2.185773E+05  1.878471E+04  1.218741E+04  6.727859E+04 -8.726579E+03 -6.222238E+03
       430   2 -2.805318E+05  4.391906E+03  2.269201E+03  6.068818E+04 -8.381576E+03 -1.449657E+03
       430   3 -3.426142E+05 -9.981830E+03 -7.895721E+03  6.699292E+04 -8.036418E+03  3.233654E+03
       430   4 -2.980746E+05  3.951542E+02 -2.375771E+02  6.712204E+04  1.711066E+02 -6.196291E+03
       430   5 -2.980227E+05  3.607003E+02 -3.904409E+02  6.067449E+04  3.507661E+02 -1.424141E+03
       430   6 -2.980739E+05  3.741530E+02 -6.753489E+02  6.712211E+04  5.306149E+02  3.258739E+03
       430   7 -3.775654E+05 -1.799467E+04 -1.266242E+04  6.696551E+04  9.067695E+03 -6.170345E+03
       430   8 -3.155132E+05 -3.670479E+03 -3.049803E+03  6.066081E+04  9.082872E+03 -1.398625E+03
       430   9 -2.535315E+05  1.073007E+04  6.545245E+03  6.725131E+04  9.098241E+03  3.283826E+03
       430  10 -2.185774E+05  1.878465E+04  1.218719E+04  6.727855E+04 -4.481696E-10  4.363261E-09
       430  11 -2.805319E+05  4.391885E+03  2.269065E+03  6.068817E+04  1.026883E-09 -1.573603E-09
       430  12 -3.426143E+05 -9.981859E+03 -7.895862E+03  6.699294E+04 -3.013295E-09  2.194215E-09
       430  13 -2.980746E+05  3.951129E+02 -2.376493E+02  6.712204E+04 -8.292940E-12  1.480520E-09
       430  14 -2.980227E+05  3.606981E+02 -3.904450E+02  6.067449E+04 -1.302387E-09  2.786214E-09
       430  15 -2.980739E+05  3.741415E+02 -6.753694E+02  6.712211E+04 -1.495760E-10  1.809590E-09
       430  16 -3.775655E+05 -1.799473E+04 -1.266264E+04  6.696555E+04 -4.836338E-10  1.625498E-09
       430  17 -3.155133E+05 -3.670503E+03 -3.049962E+03  6.066082E+04 -2.148743E-09 -5.916877E-09
       430  18 -2.535316E+05  1.073004E+04  6.545069E+03  6.725128E+04  1.366550E-09 -7.241954E-10
       430  19 -2.185773E+05  1.878471E+04  1.218741E+04  6.727859E+04  8.726579E+03  6.222238E+03
       430  20 -2.805318E+05  4.391906E+03  2.269201E+03  6.068818E+04  8.381576E+03  1.449657E+03
       430  21 -3.426142E+05 -9.981830E+03 -7.895721E+03  6.699292E+04  8.036418E+03 -3.233654E+03
       430  22 -2.980746E+05  3.951542E+02 -2.375771E+02  6.712204E+04 -1.711066E+02  6.196291E+03
       430  23 -2.980227E+05  3.607003E+02 -3.904409E+02  6.067449E+04 -3.507661E+02  1.424141E+03
       430  24 -2.980739E+05  3.741530E+02 -6.753489E+02  6.712211E+04 -5.306149E+02 -3.258739E+03
       430  25 -3.775654E+05 -1.799467E+04 -1.266242E+04  6.696551E+04 -9.067695E+03  6.170345E+03
       430  26 -3.155132E+05 -3.670479E+03 -3.049803E+03  6.066081E+04 -9.082872E+03  1.398625E+03
       430  27 -2.535315E+05  1.073007E+04  6.545245E+03  6.725131E+04 -9.098241E+03 -3.283826E+03
       431   1 -3.823990E+05 -1.925826E+04 -1.474913E+04  6.683271E+04 -7.969348E+03  5.976379E+03
       431   2 -4.441328E+05 -3.388424E+04 -2.580972E+04  6.048245E+04 -5.563071E+03  1.021045E+04
       431   3 -5.064222E+05 -4.914431E+04 -3.862124E+04  6.696697E+04 -3.154235E+03  1.355691E+04
       431   4 -2.981132E+05  3.790943E+02 -8.875974E+02  6.710838E+04  6.580569E+02  6.001532E+03
       431   5 -2.979786E+05  2.095675E+02 -1.559231E+03  6.069208E+04  1.424708E+03  1.023046E+04
       431   6 -2.981195E+05 -3.092521E+02 -2.842864E+03  6.711036E+04  2.194172E+03  1.357188E+04
       431   7 -2.138202E+05  2.001613E+04  1.297401E+04  6.738409E+04  9.286594E+03  6.026691E+03
       431   8 -1.518032E+05  3.430230E+04  2.269080E+04  6.090173E+04  8.414078E+03  1.025047E+04
       431   9 -8.977397E+04  4.852350E+04  3.293416E+04  6.725376E+04  7.544318E+03  1.358686E+04
       431  10 -3.823991E+05 -1.925832E+04 -1.474932E+04  6.683275E+04 -4.927468E-09  6.738065E-09
       431  11 -4.441329E+05 -3.388436E+04 -2.580997E+04  6.048250E+04  3.664546E-09  5.710860E-10
       431  12 -5.064223E+05 -4.914451E+04 -3.862161E+04  6.696701E+04  6.140808E-09  3.747712E-09
       431  13 -2.981132E+05  3.790555E+02 -8.876659E+02  6.710838E+04 -5.468109E-10  4.137488E-09
       431  14 -2.979786E+05  2.094546E+02 -1.559431E+03  6.069206E+04 -1.431841E-09  2.557736E-09
       431  15 -2.981195E+05 -3.094512E+02 -2.843219E+03  6.711033E+04  3.134197E-10 -3.564097E-10
       431  16 -2.138203E+05  2.001606E+04  1.297378E+04  6.738404E+04  3.694453E-09  1.457822E-09
       431  17 -1.518033E+05  3.430217E+04  2.269047E+04  6.090166E+04 -3.766701E-09  2.185134E-09
       431  18 -8.977408E+04  4.852329E+04  3.293370E+04  6.725367E+04 -6.783504E-09 -6.477319E-09
       431  19 -3.823990E+05 -1.925826E+04 -1.474913E+04  6.683271E+04  7.969348E+03 -5.976379E+03
       431  20 -4.441328E+05 -3.388424E+04 -2.580972E+04  6.048245E+04  5.563071E+03 -1.021045E+04
       431  21 -5.064222E+05 -4.914431E+04 -3.862124E+04  6.696697E+04  3.154235E+03 -1.355691E+04
       431  22 -2.981132E+05  3.790943E+02 -8.875974E+02  6.710838E+04 -6.580569E+02 -6.001532E+03
       431  23 -2.979786E+05  2.095675E+02 -1.559231E+03  6.069208E+04 -1.424708E+03 -1.023046E+04
       431  24 -2.981195E+05 -3.092521E+02 -2.842864E+03  6.711036E+04 -2.194172E+03 -1.357188E+04
       431  25 -2.138202E+05  2.001613E+04  1.297401E+04  6.738409E+04 -9.286594E+03 -6.026691E+03
       431  26 -1.518032E+05  3.430230E+04  2.269080E+04  6.090173E+04 -8.414078E+03 -1.025047E+04
       431  27 -8.977397E+04  4.852350E+04  3.293416E+04  6.725376E+04 -7.544318E+03 -1.358686E+04
       432   1 -5.470202E+05 -5.868190E+04 -4.703801E+04  6.598871E+04 -3.275819E+03  1.567129E+04
       432   2 -6.065649E+05 -7.677867E+04 -6.673187E+04  6.408895E+04  1.649305E+04  1.455477E+04
       432   3 -6.711574E+05 -1.044767E+05 -1.017174E+05  7.443191E+04  3.628290E+04  4.649064E+03
       432   4 -2.985569E+05 -3.036733E+02 -3.756330E+03  6.697498E+04  2.674763E+03  1.568770E+04
       432   5 -2.974496E+05 -2.975053E+03 -6.873048E+03  6.087042E+04  6.215376E+03  1.452532E+04
       432   6 -2.985712E+05 -1.242570E+04 -1.400341E+04  6.700871E+04  9.778936E+03  4.575503E+03
       432   7 -5.003304E+04  5.807123E+04  3.952330E+04  6.796160E+04  8.627655E+03  1.570413E+04
       432   8  1.175795E+04  7.082296E+04  5.298170E+04  5.765018E+04 -4.067307E+03  1.449599E+04
       432   9  7.414441E+04  7.961599E+04  7.370367E+04  5.958094E+04 -1.674086E+04  4.502599E+03
       432  10 -5.470203E+05 -5.868217E+04 -4.703849E+04  6.598876E+04 -1.484744E-09  4.259024E-09
       432  11 -6.065653E+05 -7.677897E+04 -6.673278E+04  6.408875E+04  2.113743E-09 -5.306351E-09
       432  12 -6.711588E+05 -1.044771E+05 -1.017199E+05  7.443177E+04 -2.301839E-09 -1.969173E-09
       432  13 -2.985570E+05 -3.039395E+02 -3.756805E+03  6.697494E+04 -2.213730E-10  7.749219E-09
       432  14 -2.974497E+05 -2.975290E+03 -6.873517E+03  6.087034E+04  1.723531E-10 -8.925359E-09
       432  15 -2.985714E+05 -1.242575E+04 -1.400363E+04  6.700868E+04  1.407483E-10  1.737985E-09
       432  16 -5.003318E+04  5.807094E+04  3.952270E+04  6.796149E+04  8.345373E-10 -1.136100E-09
       432  17  1.175787E+04  7.082273E+04  5.298128E+04  5.765023E+04 -1.831196E-09  9.091716E-10
       432  18  7.414410E+04  7.961589E+04  7.370310E+04  5.958100E+04  1.003185E-09  3.375029E-11
       432  19 -5.470202E+05 -5.868190E+04 -4.703801E+04  6.598871E+04  3.275819E+03 -1.567129E+04
       432  20 -6.065649E+05 -7.677867E+04 -6.673187E+04  6.408895E+04 -1.649305E+04 -1.455477E+04
       432  21 -6.711574E+05 -1.044767E+05 -1.017174E+05  7.443191E+04 -3.628290E+04 -4.649064E+03
       432  22 -2.985569E+05 -3.036733E+02 -3.756330E+03  6.697498E+04 -2.674763E+03 -1.568770E+04
       432  23 -2.974496E+05 -2.975053E+03 -6.873048E+03  6.087042E+04 -6.215376E+03 -1.452532E+04
       432  24 -2.985712E+05 -1.242570E+04 -1.400341E+04  6.700871E+04 -9.778936E+03 -4.575503E+03
       432  25 -5.003304E+04  5.807123E+04  3.952330E+04  6.796160E+04 -8.627655E+03 -1.570413E+04
       432  26  1.175795E+04  7.082296E+04  5.298170E+04  5.765018E+04  4.067307E+03 -1.449599E+04
       432  27  7.414441E+04  7.961599E+04  7.370367E+04  5.958094E+04  1.674086E+04 -4.502599E+03
       433   1 -2.402532E+05  4.248692E+04  1.901317E+04 -1.090542E+04 -6.446817E+04 -5.599032E+03
       433   2 -2.623892E+05  1.293571E+05  6.631721E+04 -2.744308E+03 -4.540087E+04 -1.657125E+04
       433   3 -3.124142E+05  1.144308E+05  7.578941E+04  2.972306E+04 -2.636813E+04 -1.570161E+04
       433   4 -7.554144E+05 -8.579253E+04 -1.078601E+05  1.705475E+04 -7.377641E+04 -5.627806E+03
       433   5 -7.408711E+05  1.091444E+04 -4.745078E+04  4.772316E+03 -4.819318E+04 -1.658108E+04
       433   6 -7.553739E+05  4.648909E+03 -2.942413E+04  1.679793E+04 -2.264307E+04 -1.568970E+04
       433   7 -1.270332E+06 -2.140887E+05 -2.347522E+05  4.499150E+04 -8.307692E+04 -5.657431E+03
       433   8 -1.219143E+06 -1.075444E+05 -1.612347E+05  1.228296E+04 -5.098334E+04 -1.659098E+04
       433   9 -1.198153E+06 -1.051465E+05 -1.346512E+05  3.881926E+03 -1.892066E+04 -1.567794E+04
       433  10 -2.402576E+05  4.248577E+04  1.900529E+04 -1.090571E+04  2.563793E-10  3.187090E-09
       433  11 -2.623915E+05  1.293562E+05  6.631282E+04 -2.744914E+03  1.843858E-09  1.129916E-08
       433  12 -3.124151E+05  1.144303E+05  7.578764E+04  2.972272E+04 -2.852458E-09  2.970959E-09
       433  13 -7.554202E+05 -8.579403E+04 -1.078704E+05  1.705441E+04  5.421083E-10 -4.358905E-09
       433  14 -7.408737E+05  1.091352E+04 -4.745566E+04  4.771672E+03  1.619412E-09 -6.974336E-09
       433  15 -7.553745E+05  4.648507E+03 -2.942556E+04  1.679764E+04 -4.520722E-11  6.605216E-09
       433  16 -1.270339E+06 -2.140906E+05 -2.347652E+05  4.499112E+04 -5.394473E-10 -6.333672E-10
       433  17 -1.219145E+06 -1.075454E+05 -1.612401E+05  1.228228E+04 -2.451845E-09  8.783058E-09
       433  18 -1.198153E+06 -1.051469E+05 -1.346524E+05  3.881687E+03  4.080677E-09  3.737106E-09
       433  19 -2.402532E+05  4.248692E+04  1.901317E+04 -1.090542E+04  6.446817E+04  5.599032E+03
       433  20 -2.623892E+05  1.293571E+05  6.631721E+04 -2.744308E+03  4.540087E+04  1.657125E+04
       433  21 -3.124142E+05  1.144308E+05  7.578941E+04  2.972306E+04  2.636813E+04  1.570161E+04
       433  22 -7.554144E+05 -8.579253E+04 -1.078601E+05  1.705475E+04  7.377641E+04  5.627806E+03
       433  23 -7.408711E+05  1.091444E+04 -4.745078E+04  4.772316E+03  4.819318E+04  1.658108E+04
       433  24 -7.553739E+05  4.648909E+03 -2.942413E+04  1.679793E+04  2.264307E+04  1.568970E+04
       433  25 -1.270332E+06 -2.140887E+05 -2.347522E+05  4.499150E+04  8.307692E+04  5.657431E+03
       433  26 -1.219143E+06 -1.075444E+05 -1.612347E+05  1.228296E+04  5.098334E+04  1.659098E+04
       433  27 -1.198153E+06 -1.051465E+05 -1.346512E+05  3.881926E+03  1.892066E+04  1.567794E+04
       434   1 -3.512861E+05  9.038126E+04  7.100259E+04  1.559872E+04 -1.832391E+04 -1.315425E+04
       434   2 -3.866482E+05  9.063060E+04  7.363611E+04  4.803791E+03 -1.248361E+04 -1.240495E+04
       434   3 -4.253560E+05  8.094285E+04  6.996154E+04  1.925720E+04 -6.647532E+03 -1.084726E+04
       434   4 -7.496782E+05 -8.318106E+03 -2.394725E+04  1.710835E+04 -1.813662E+04 -1.315425E+04
       434   5 -7.479595E+05  1.137103E+03 -1.230551E+04  4.468181E+03 -1.185392E+04 -1.240319E+04
       434   6 -7.496673E+05  5.748317E+02 -7.282435E+03  1.707741E+04 -5.575110E+03 -1.084356E+04
       434   7 -1.147925E+06 -1.070289E+05 -1.189082E+05  1.861687E+04 -1.794944E+04 -1.315424E+04
       434   8 -1.109151E+06 -8.836581E+04 -9.825626E+04  4.132660E+03 -1.122460E+04 -1.240143E+04
       434   9 -1.073882E+06 -7.980077E+04 -8.453378E+04  1.489868E+04 -4.503245E+03 -1.083986E+04
       434  10 -3.512865E+05  9.038099E+04  7.100163E+04  1.559853E+04 -4.709383E-10 -5.638945E-09
       434  11 -3.866485E+05  9.063039E+04  7.363553E+04  4.803666E+03  2.447131E-09 -4.261880E-09
       434  12 -4.253561E+05  8.094271E+04  6.996123E+04  1.925714E+04  4.906028E-09  5.480403E-09
       434  13 -7.496786E+05 -8.318380E+03 -2.394819E+04  1.710815E+04 -7.681191E-10  1.138795E-08
       434  14 -7.479596E+05  1.136900E+03 -1.230606E+04  4.468062E+03  1.262057E-09 -2.464151E-08
       434  15 -7.496674E+05  5.746971E+02 -7.282714E+03  1.707737E+04 -1.515005E-09  5.387564E-09
       434  16 -1.147925E+06 -1.070292E+05 -1.189092E+05  1.861668E+04  1.616504E-09 -7.038705E-09
       434  17 -1.109151E+06 -8.836601E+04 -9.825679E+04  4.132548E+03 -2.781128E-09 -4.573675E-09
       434  18 -1.073882E+06 -7.980090E+04 -8.453404E+04  1.489864E+04 -4.157029E-09 -5.427468E-10
       434  19 -3.512861E+05  9.038126E+04  7.100259E+04  1.559872E+04  1.832391E+04  1.315425E+04
       434  20 -3.866482E+05  9.063060E+04  7.363611E+04  4.803791E+03  1.248361E+04  1.240495E+04
       434  21 -4.253560E+05  8.094285E+04  6.996154E+04  1.925720E+04  6.647532E+03  1.084726E+04
       434  22 -7.496782E+05 -8.318106E+03 -2.394725E+04  1.710835E+04  1.813662E+04  1.315425E+04
       434  23 -7.479595E+05  1.137103E+03 -1.230551E+04  4.468181E+03  1.185392E+04  1.240319E+04
       434  24 -7.496673E+05  5.748317E+02 -7.282435E+03  1.707741E+04  5.575110E+03  1.084356E+04
       434  25 -1.147925E+06 -1.070289E+05 -1.189082E+05  1.861687E+04  1.794944E+04  1.315424E+04
       434  26 -1.109151E+06 -8.836581E+04 -9.825626E+04  4.132660E+03  1.122460E+04  1.240143E+04
       434  27 -1.073882E+06 -7.980077E+04 -8.453378E+04  1.489868E+04  4.503245E+03  1.083986E+04
       435   1 -4.704875E+05  6.830134E+04  6.047284E+04  1.786715E+04 -5.274583E+03 -9.803891E+03
       435   2 -5.080330E+05  5.978309E+04  5.409489E+04  5.015265E+03 -3.733210E+03 -8.246405E+03
       435   3 -5.461804E+05  5.047299E+04  4.647080E+04  1.799076E+04 -2.192920E+03 -6.624827E+03
       435   4 -7.490343E+05 -6.809160E+02 -5.695010E+03  1.721789E+04 -4.435037E+03 -9.800920E+03
       435   5 -7.487274E+05  1.562144E+02 -3.162769E+03  4.302104E+03 -2.858964E+03 -8.243110E+03
       435   6 -7.490294E+05  1.954165E+02 -1.901003E+03  1.721433E+04 -1.283880E+03 -6.621193E+03
       435   7 -1.027510E+06 -6.966876E+04 -7.186828E+04  1.656884E+04 -3.595866E+03 -9.797949E+03
       435   8 -9.893685E+05 -5.947484E+04 -6.042448E+04  3.589168E+03 -1.985056E+03 -8.239816E+03
       435   9 -9.518406E+05 -5.008513E+04 -5.027570E+04  1.643812E+04 -3.751369E+02 -6.617560E+03
       435  10 -4.704875E+05  6.830123E+04  6.047261E+04  1.786711E+04  1.219565E-08 -2.858276E-09
       435  11 -5.080330E+05  5.978302E+04  5.409473E+04  5.015240E+03  3.272034E-10 -3.626230E-09
       435  12 -5.461804E+05  5.047294E+04  4.647071E+04  1.799075E+04 -1.003120E-08 -4.753246E-09
       435  13 -7.490344E+05 -6.810244E+02 -5.695228E+03  1.721785E+04 -5.649189E-10 -1.882878E-09
       435  14 -7.487274E+05  1.561393E+02 -3.162912E+03  4.302085E+03  3.140200E-10 -3.316616E-09
       435  15 -7.490294E+05  1.953689E+02 -1.901088E+03  1.721433E+04 -3.797967E-10 -3.576209E-09
       435  16 -1.027510E+06 -6.966887E+04 -7.186848E+04  1.656881E+04 -1.188021E-08 -7.789506E-09
       435  17 -9.893686E+05 -5.947492E+04 -6.042461E+04  3.589155E+03 -9.229823E-10  3.902106E-09
       435  18 -9.518407E+05 -5.008518E+04 -5.027578E+04  1.643812E+04  1.106634E-08  1.270429E-08
       435  19 -4.704875E+05  6.830134E+04  6.047284E+04  1.786715E+04  5.274583E+03  9.803891E+03
       435  20 -5.080330E+05  5.978309E+04  5.409489E+04  5.015265E+03  3.733210E+03  8.246405E+03
       435  21 -5.461804E+05  5.047299E+04  4.647080E+04  1.799076E+04  2.192920E+03  6.624827E+03
       435  22 -7.490343E+05 -6.809160E+02 -5.695010E+03  1.721789E+04  4.435037E+03  9.800920E+03
       435  23 -7.487274E+05  1.562144E+02 -3.162769E+03  4.302104E+03  2.858964E+03  8.243110E+03
       435  24 -7.490294E+05  1.954165E+02 -1.901003E+03  1.721433E+04  1.283880E+03  6.621193E+03
       435  25 -1.027510E+06 -6.966876E+04 -7.186828E+04  1.656884E+04  3.595866E+03  9.797949E+03
       435  26 -9.893685E+05 -5.947484E+04 -6.042448E+04  3.589168E+03  1.985056E+03  8.239816E+03
       435  27 -9.518406E+05 -5.008513E+04 -5.027570E+04  1.643812E+04  3.751369E+02  6.617560E+03
       436   1 -5.926850E+05  3.877030E+04  3.554593E+04  1.778554E+04 -1.877346E+03 -5.669320E+03
       436   2 -6.308750E+05  2.928137E+04  2.703772E+04  4.591842E+03 -1.383826E+03 -4.039056E+03
       436   3 -6.693657E+05  1.990344E+04  1.817833E+04  1.756187E+04 -8.907553E+02 -2.400052E+03
       436   4 -7.489569E+05  7.775122E+01 -1.516922E+03  1.729027E+04 -9.815111E+02 -5.665641E+03
       436   5 -7.488044E+05  6.437400E+01 -1.018117E+03  4.208031E+03 -4.833041E+02 -4.035263E+03
       436   6 -7.489547E+05  1.612477E+02 -8.737389E+02  1.728982E+04  1.448478E+01 -2.396141E+03
       436   7 -9.052063E+05 -3.861656E+04 -3.858148E+04  1.679510E+04 -8.590054E+01 -5.661962E+03
       436   8 -8.667209E+05 -2.915363E+04 -2.907492E+04  3.824281E+03  4.170479E+02 -4.031472E+03
       436   9 -8.285379E+05 -1.958140E+04 -1.992625E+04  1.701781E+04  9.196092E+02 -2.392229E+03
       436  10 -5.926850E+05  3.877027E+04  3.554587E+04  1.778553E+04  6.953354E-09 -1.117525E-08
       436  11 -6.308750E+05  2.928136E+04  2.703769E+04  4.591837E+03  1.783729E-09  8.025374E-09
       436  12 -6.693657E+05  1.990343E+04  1.817832E+04  1.756187E+04 -4.137555E-09  6.106928E-10
       436  13 -7.489569E+05  7.771651E+01 -1.516984E+03  1.729026E+04 -3.306663E-11  5.777993E-09
       436  14 -7.488044E+05  6.435646E+01 -1.018148E+03  4.208030E+03  1.544070E-10 -8.587337E-09
       436  15 -7.489547E+05  1.612416E+02 -8.737497E+02  1.728982E+04  6.534312E-11 -5.995973E-09
       436  16 -9.052063E+05 -3.861659E+04 -3.858154E+04  1.679510E+04 -7.062954E-09  5.453603E-09
       436  17 -8.667209E+05 -2.915365E+04 -2.907496E+04  3.824282E+03 -3.302027E-09  1.174079E-08
       436  18 -8.285379E+05 -1.958141E+04 -1.992626E+04  1.701781E+04  6.145004E-09  2.849325E-09
       436  19 -5.926850E+05  3.877030E+04  3.554593E+04  1.778554E+04  1.877346E+03  5.669320E+03
       436  20 -6.308750E+05  2.928137E+04  2.703772E+04  4.591842E+03  1.383826E+03  4.039056E+03
       436  21 -6.693657E+05  1.990344E+04  1.817833E+04  1.756187E+04  8.907553E+02  2.400052E+03
       436  22 -7.489569E+05  7.775122E+01 -1.516922E+03  1.729027E+04  9.815111E+02  5.665641E+03
       436  23 -7.488044E+05  6.437400E+01 -1.018117E+03  4.208031E+03  4.833041E+02  4.035263E+03
       436  24 -7.489547E+05  1.612477E+02 -8.737389E+02  1.728982E+04 -1.448478E+01  2.396141E+03
       436  25 -9.052063E+05 -3.861656E+04 -3.858148E+04  1.679510E+04  8.590054E+01  5.661962E+03
       436  26 -8.667209E+05 -2.915363E+04 -2.907492E+04  3.824281E+03 -4.170479E+02  4.031472E+03
       436  27 -8.285379E+05 -1.958140E+04 -1.992625E+04  1.701781E+04 -9.196092E+02  2.392229E+03
       437   1 -7.163421E+05  8.221028E+03  6.740576E+03  1.740125E+04 -7.352726E+02 -1.443338E+03
       437   2 -7.546666E+05 -1.383913E+03 -2.570106E+03  4.148052E+03 -1.590113E+02  2.002309E+02
       437   3 -7.933267E+05 -1.089878E+04 -1.229537E+04  1.716473E+04  4.172365E+02  1.840938E+03
       437   4 -7.489609E+05  1.628090E+02 -9.033134E+02  1.731330E+04  1.705731E+02 -1.439392E+03
       437   5 -7.487924E+05  7.164425E+01 -1.172494E+03  4.178563E+03  7.452260E+02  2.041623E+02
       437   6 -7.489612E+05  7.079934E+01 -1.855189E+03  1.731369E+04  1.319901E+03  1.844860E+03
       437   7 -7.815787E+05 -7.895485E+03 -8.547273E+03  1.722535E+04  1.076372E+03 -1.435446E+03
       437   8 -7.429182E+05  1.527199E+03  2.251189E+02  4.209074E+03  1.649472E+03  2.080939E+02
       437   9 -7.045939E+05  1.104023E+04  8.584859E+03  1.746265E+04  2.222630E+03  1.848783E+03
       437  10 -7.163421E+05  8.221026E+03  6.740571E+03  1.740125E+04 -2.176198E-09  2.571418E-09
       437  11 -7.546666E+05 -1.383913E+03 -2.570106E+03  4.148052E+03  1.756824E-09 -7.980168E-09
       437  12 -7.933267E+05 -1.089878E+04 -1.229538E+04  1.716473E+04 -3.904873E-09 -9.715134E-09
       437  13 -7.489609E+05  1.628068E+02 -9.033173E+02  1.731330E+04 -1.072769E-09  9.189821E-09
       437  14 -7.487924E+05  7.164406E+01 -1.172495E+03  4.178563E+03 -3.784177E-10 -8.005081E-09
       437  15 -7.489612E+05  7.079522E+01 -1.855199E+03  1.731368E+04 -1.027139E-10 -6.929865E-09
       437  16 -7.815787E+05 -7.895488E+03 -8.547279E+03  1.722535E+04  1.585352E-09 -3.102626E-09
       437  17 -7.429182E+05  1.527198E+03  2.251137E+02  4.209074E+03 -9.991283E-10 -2.088081E-08
       437  18 -7.045939E+05  1.104023E+04  8.584843E+03  1.746264E+04  5.818091E-09 -9.585099E-09
       437  19 -7.163421E+05  8.221028E+03  6.740576E+03  1.740125E+04  7.352726E+02  1.443338E+03
       437  20 -7.546666E+05 -1.383913E+03 -2.570106E+03  4.148052E+03  1.590113E+02 -2.002309E+02
       437  21 -7.933267E+05 -1.089878E+04 -1.229537E+04  1.716473E+04 -4.172365E+02 -1.840938E+03
       437  22 -7.489609E+05  1.628090E+02 -9.033134E+02  1.731330E+04 -1.705731E+02  1.439392E+03
       437  23 -7.487924E+05  7.164425E+01 -1.172494E+03  4.178563E+03 -7.452260E+02 -2.041623E+02
       437  24 -7.489612E+05  7.079934E+01 -1.855189E+03  1.731369E+04 -1.319901E+03 -1.844860E+03
       437  25 -7.815787E+05 -7.895485E+03 -8.547273E+03  1.722535E+04 -1.076372E+03  1.435446E+03
       437  26 -7.429182E+05  1.527199E+03  2.251189E+02  4.209074E+03 -1.649472E+03 -2.080939E+02
       437  27 -7.045939E+05  1.104023E+04  8.584859E+03  1.746265E+04 -2.222630E+03 -1.848783E+03
       438   1 -8.403720E+05 -2.243250E+04 -2.420331E+04  1.680531E+04  7.794303E+02  2.803173E+03
       438   2 -8.782823E+05 -3.191533E+04 -3.481455E+04  3.814603E+03  2.787647E+03  4.445399E+03
       438   3 -9.169804E+05 -4.245887E+04 -4.705673E+04  1.696579E+04  4.796387E+03  6.039020E+03
       438   4 -7.490621E+05  2.175891E+02 -2.360987E+03  1.728347E+04  1.693805E+03  2.807109E+03
       438   5 -7.486719E+05  2.002014E+02 -3.975228E+03  4.215023E+03  3.675581E+03  4.449112E+03
       438   6 -7.490655E+05 -8.728648E+02 -7.201502E+03  1.728813E+04  5.658001E+03  6.042520E+03
       438   7 -6.577446E+05  2.286707E+04  1.948075E+04  1.776170E+04  2.608315E+03  2.811045E+03
       438   8 -6.190462E+05  3.231452E+04  2.686292E+04  4.615511E+03  4.563699E+03  4.452826E+03
       438   9 -5.811248E+05  4.071111E+04  3.265177E+04  1.761053E+04  6.519846E+03  6.046020E+03
       438  10 -8.403720E+05 -2.243251E+04 -2.420333E+04  1.680531E+04 -7.619435E-09 -8.047349E-09
       438  11 -8.782823E+05 -3.191535E+04 -3.481460E+04  3.814593E+03  2.915969E-09 -1.321703E-08
       438  12 -9.169804E+05 -4.245892E+04 -4.705685E+04  1.696577E+04  7.310747E-09  7.720616E-10
       438  13 -7.490621E+05  2.175799E+02 -2.361007E+03  1.728347E+04 -2.241949E-10 -4.806683E-09
       438  14 -7.486720E+05  2.001765E+02 -3.975290E+03  4.215010E+03 -1.505898E-12  3.556806E-10
       438  15 -7.490656E+05 -8.729126E+02 -7.201631E+03  1.728811E+04 -4.146379E-10  3.422044E-09
       438  16 -6.577446E+05  2.286706E+04  1.948073E+04  1.776170E+04  6.806131E-09  5.374131E-09
       438  17 -6.190462E+05  3.231449E+04  2.686284E+04  4.615494E+03 -1.873562E-09 -1.257402E-08
       438  18 -5.811248E+05  4.071106E+04  3.265162E+04  1.761050E+04 -5.842203E-09  1.175660E-08
       438  19 -8.403720E+05 -2.243250E+04 -2.420331E+04  1.680531E+04 -7.794303E+02 -2.803173E+03
       438  20 -8.782823E+05 -3.191533E+04 -3.481455E+04  3.814603E+03 -2.787647E+03 -4.445399E+03
       438  21 -9.169804E+05 -4.245887E+04 -4.705673E+04  1.696579E+04 -4.796387E+03 -6.039020E+03
       438  22 -7.490621E+05  2.175891E+02 -2.360987E+03  1.728347E+04 -1.693805E+03 -2.807109E+03
       438  23 -7.486719E+05  2.002014E+02 -3.975228E+03  4.215023E+03 -3.675581E+03 -4.449112E+03
       438  24 -7.490655E+05 -8.728648E+02 -7.201502E+03  1.728813E+04 -5.658001E+03 -6.042520E+03
       438  25 -6.577446E+05  2.286707E+04  1.948075E+04  1.776170E+04 -2.608315E+03 -2.811045E+03
       438  26 -6.190462E+05  3.231452E+04  2.686292E+04  4.615511E+03 -4.563699E+03 -4.452826E+03
       438  27 -5.811248E+05  4.071111E+04  3.265177E+04  1.761053E+04 -6.519846E+03 -6.046020E+03
       439   1 -9.642838E+05 -5.245042E+04 -6.034384E+04  1.494126E+04  6.051924E+03  7.076983E+03
       439   2 -9.998417E+05 -6.102279E+04 -7.558248E+04  4.371205E+03  1.435907E+04  8.687207E+03
       439   3 -1.039879E+06 -8.239200E+04 -9.947806E+04  1.959603E+04  2.266893E+04  9.647925E+03
       439   4 -7.498769E+05  7.159418E+02 -9.220512E+03  1.719433E+04  7.101748E+03  7.081171E+03
       439   5 -7.476739E+05  1.456685E+03 -1.558018E+04  4.319135E+03  1.505369E+04  8.689719E+03
       439   6 -7.498875E+05 -1.053451E+04 -3.034711E+04  1.723830E+04  2.300884E+04  9.648819E+03
       439   7 -5.354277E+05  5.387900E+04  4.189959E+04  1.944814E+04  8.151933E+03  7.085367E+03
       439   8 -4.954476E+05  6.393157E+04  4.441766E+04  4.266985E+03  1.574859E+04  8.692229E+03
       439   9 -4.598189E+05  6.131693E+04  3.877793E+04  1.487940E+04  2.334891E+04  9.649710E+03
       439  10 -9.642839E+05 -5.245049E+04 -6.034401E+04  1.494123E+04  3.877849E-09 -1.046807E-09
       439  11 -9.998419E+05 -6.102293E+04 -7.558301E+04  4.371105E+03  1.206428E-09  1.138361E-08
       439  12 -1.039879E+06 -8.239224E+04 -9.947920E+04  1.959585E+04  3.431034E-09 -6.826930E-09
       439  13 -7.498770E+05  7.158745E+02 -9.220701E+03  1.719429E+04  5.769937E-10 -7.591576E-09
       439  14 -7.476741E+05  1.456543E+03 -1.558075E+04  4.319029E+03 -8.335938E-10  6.532603E-09
       439  15 -7.498881E+05 -1.053475E+04 -3.034828E+04  1.723813E+04 -2.556044E-10  2.449601E-09
       439  16 -5.354278E+05  5.387892E+04  4.189937E+04  1.944809E+04 -3.665778E-09 -1.072069E-10
       439  17 -4.954479E+05  6.393142E+04  4.441705E+04  4.266875E+03 -1.569117E-09 -1.425967E-08
       439  18 -4.598195E+05  6.131668E+04  3.877673E+04  1.487922E+04 -1.807730E-09  1.529914E-10
       439  19 -9.642838E+05 -5.245042E+04 -6.034384E+04  1.494126E+04 -6.051924E+03 -7.076983E+03
       439  20 -9.998417E+05 -6.102279E+04 -7.558248E+04  4.371205E+03 -1.435907E+04 -8.687207E+03
       439  21 -1.039879E+06 -8.239200E+04 -9.947806E+04  1.959603E+04 -2.266893E+04 -9.647925E+03
       439  22 -7.498769E+05  7.159418E+02 -9.220512E+03  1.719433E+04 -7.101748E+03 -7.081171E+03
       439  23 -7.476739E+05  1.456685E+03 -1.558018E+04  4.319135E+03 -1.505369E+04 -8.689719E+03
       439  24 -7.498875E+05 -1.053451E+04 -3.034711E+04  1.723830E+04 -2.300884E+04 -9.648819E+03
       439  25 -5.354277E+05  5.387900E+04  4.189959E+04  1.944814E+04 -8.151933E+03 -7.085367E+03
       439  26 -4.954476E+05  6.393157E+04  4.441766E+04  4.266985E+03 -1.574859E+04 -8.692229E+03
       439  27 -4.598189E+05  6.131693E+04  3.877793E+04  1.487940E+04 -2.334891E+04 -9.649710E+03
       440   1 -1.092711E+06 -7.738241E+04 -1.170711E+05  1.018495E+03  2.553441E+04  1.188735E+04
       440   2 -1.110966E+06 -7.829578E+04 -1.486784E+05  1.443835E+04  6.315251E+04  1.302094E+04
       440   3 -1.167113E+06 -2.107194E+05 -2.377056E+05  5.307684E+04  1.008001E+05  4.613296E+03
       440   4 -7.571172E+05  5.900648E+03 -3.729202E+04  1.695959E+04  2.872307E+04  1.189950E+04
       440   5 -7.386612E+05  1.386575E+04 -6.011954E+04  4.545310E+03  6.109744E+04  1.301205E+04
       440   6 -7.571649E+05 -1.087278E+05 -1.366984E+05  1.735144E+04  9.350399E+04  4.582752E+03
       440   7 -4.214190E+05  8.917650E+04  4.247930E+04  3.290926E+04  3.191344E+04  1.191182E+04
       440   8 -3.662285E+05  1.060177E+05  2.842974E+04 -5.353813E+03  5.904114E+04  1.300323E+04
       440   9 -3.470607E+05 -6.743825E+03 -3.570277E+04 -1.839775E+04  8.620303E+04  4.553060E+03
       440  10 -1.092712E+06 -7.738274E+04 -1.170725E+05  1.018250E+03  5.986986E-09 -1.161596E-08
       440  11 -1.110971E+06 -7.829703E+04 -1.486863E+05  1.443769E+04  5.508940E-09 -1.134331E-08
       440  12 -1.167124E+06 -2.107222E+05 -2.377248E+05  5.307647E+04  1.330833E-09  4.831068E-09
       440  13 -7.571181E+05  5.900274E+03 -3.729384E+04  1.695931E+04  4.111444E-10  2.681962E-10
       440  14 -7.386653E+05  1.386456E+04 -6.012688E+04  4.544669E+03 -5.361679E-10 -2.761894E-09
       440  15 -7.571743E+05 -1.087302E+05 -1.367149E+05  1.735109E+04 -3.489287E-10  2.842057E-09
       440  16 -4.214201E+05  8.917607E+04  4.247712E+04  3.290896E+04 -5.953574E-09  6.177737E-09
       440  17 -3.662323E+05  1.060166E+05  2.842287E+04 -5.354432E+03 -5.781098E-09  7.721278E-09
       440  18 -3.470686E+05 -6.745843E+03 -3.571678E+04 -1.839806E+04 -6.470005E-10 -1.878428E-09
       440  19 -1.092711E+06 -7.738241E+04 -1.170711E+05  1.018495E+03 -2.553441E+04 -1.188735E+04
       440  20 -1.110966E+06 -7.829578E+04 -1.486784E+05  1.443835E+04 -6.315251E+04 -1.302094E+04
       440  21 -1.167113E+06 -2.107194E+05 -2.377056E+05  5.307684E+04 -1.008001E+05 -4.613296E+03
       440  22 -7.571172E+05  5.900648E+03 -3.729202E+04  1.695959E+04 -2.872307E+04 -1.189950E+04
       440  23 -7.386612E+05  1.386575E+04 -6.011954E+04  4.545310E+03 -6.109744E+04 -1.301205E+04
       440  24 -7.571649E+05 -1.087278E+05 -1.366984E+05  1.735144E+04 -9.350399E+04 -4.582752E+03
       440  25 -4.214190E+05  8.917650E+04  4.247930E+04  3.290926E+04 -3.191344E+04 -1.191182E+04
       440  26 -3.662285E+05  1.060177E+05  2.842974E+04 -5.353813E+03 -5.904114E+04 -1.300323E+04
       440  27 -3.470607E+05 -6.743825E+03 -3.570277E+04 -1.839775E+04 -8.620303E+04 -4.553060E+03
