    1C
    1UUSER                                                              
    1UDATE              11.october.2022                                 
    1UTIME              17:34:00                                        
    1UHOST                                                              
    1UPGM               CalculiX                                        
    1UVERSION           Version 2.20                             
    1UCOMPILETIME       Sun Jul 31 18:08:37 CEST 2022                    
    1UDIR                                                               
    1UDBN                                                               
    1UMAT    1MESH_MATERIAL                                             
    2C                           841                                     1
 -1         1 0.00000E+00 0.00000E+00 0.00000E+00
 -1         2 1.66667E-02 0.00000E+00 0.00000E+00
 -1         3 3.33333E-02 0.00000E+00 0.00000E+00
 -1         4 5.00000E-02 0.00000E+00 0.00000E+00
 -1         5 6.66667E-02 0.00000E+00 0.00000E+00
 -1         8 0.00000E+00 6.25000E-03 0.00000E+00
 -1         9 1.66667E-02 6.25000E-03 0.00000E+00
 -1        10 3.33333E-02 6.25000E-03 0.00000E+00
 -1        11 5.00000E-02 6.25000E-03 0.00000E+00
 -1        12 6.66667E-02 6.25000E-03 0.00000E+00
 -1        15 0.00000E+00 1.25000E-02 0.00000E+00
 -1        16 1.66667E-02 1.25000E-02 0.00000E+00
 -1        17 3.33333E-02 1.25000E-02 0.00000E+00
 -1        18 5.00000E-02 1.25000E-02 0.00000E+00
 -1        19 6.66667E-02 1.25000E-02 0.00000E+00
 -1        20 8.33333E-02 1.25000E-02 0.00000E+00
 -1        21 1.00000E-01 1.25000E-02 0.00000E+00
 -1        22 0.00000E+00 1.87500E-02 0.00000E+00
 -1        23 1.66667E-02 1.87500E-02 0.00000E+00
 -1        24 3.33333E-02 1.87500E-02 0.00000E+00
 -1        25 5.00000E-02 1.87500E-02 0.00000E+00
 -1        26 6.66667E-02 1.87500E-02 0.00000E+00
 -1        27 8.33333E-02 1.87500E-02 0.00000E+00
 -1        28 1.00000E-01 1.87500E-02 0.00000E+00
 -1        29 0.00000E+00 2.50000E-02 0.00000E+00
 -1        30 1.66667E-02 2.50000E-02 0.00000E+00
 -1        31 3.33333E-02 2.50000E-02 0.00000E+00
 -1        32 5.00000E-02 2.50000E-02 0.00000E+00
 -1        33 6.66667E-02 2.50000E-02 0.00000E+00
 -1        34 8.33333E-02 2.50000E-02 0.00000E+00
 -1        35 1.00000E-01 2.50000E-02 0.00000E+00
 -1        36 1.04167E-03 0.00000E+00 0.00000E+00
 -1        37 2.08333E-03 0.00000E+00 0.00000E+00
 -1        38 3.12500E-03 0.00000E+00 0.00000E+00
 -1        39 4.16667E-03 0.00000E+00 0.00000E+00
 -1        40 5.20833E-03 0.00000E+00 0.00000E+00
 -1        41 6.25000E-03 0.00000E+00 0.00000E+00
 -1        42 7.29167E-03 0.00000E+00 0.00000E+00
 -1        43 8.33333E-03 0.00000E+00 0.00000E+00
 -1        44 9.37500E-03 0.00000E+00 0.00000E+00
 -1        45 1.04167E-02 0.00000E+00 0.00000E+00
 -1        46 1.14583E-02 0.00000E+00 0.00000E+00
 -1        47 1.25000E-02 0.00000E+00 0.00000E+00
 -1        48 1.35417E-02 0.00000E+00 0.00000E+00
 -1        49 1.45833E-02 0.00000E+00 0.00000E+00
 -1        50 1.56250E-02 0.00000E+00 0.00000E+00
 -1        51 0.00000E+00 1.04167E-03 0.00000E+00
 -1        52 0.00000E+00 2.08333E-03 0.00000E+00
 -1        53 0.00000E+00 3.12500E-03 0.00000E+00
 -1        54 0.00000E+00 4.16667E-03 0.00000E+00
 -1        55 0.00000E+00 5.20833E-03 0.00000E+00
 -1        56 1.04167E-03 3.90630E-04 0.00000E+00
 -1        57 2.08333E-03 7.81250E-04 0.00000E+00
 -1        58 3.12500E-03 1.17188E-03 0.00000E+00
 -1        59 4.16667E-03 1.56250E-03 0.00000E+00
 -1        60 5.20833E-03 1.95312E-03 0.00000E+00
 -1        61 6.25000E-03 2.34375E-03 0.00000E+00
 -1        62 7.29167E-03 2.73438E-03 0.00000E+00
 -1        63 8.33333E-03 3.12500E-03 0.00000E+00
 -1        64 9.37500E-03 3.51563E-03 0.00000E+00
 -1        65 1.04167E-02 3.90625E-03 0.00000E+00
 -1        66 1.14583E-02 4.29688E-03 0.00000E+00
 -1        67 1.25000E-02 4.68750E-03 0.00000E+00
 -1        68 1.35417E-02 5.07813E-03 0.00000E+00
 -1        69 1.45833E-02 5.46875E-03 0.00000E+00
 -1        70 1.56250E-02 5.85938E-03 0.00000E+00
 -1        71 1.77083E-02 0.00000E+00 0.00000E+00
 -1        72 1.87500E-02 0.00000E+00 0.00000E+00
 -1        73 1.97917E-02 0.00000E+00 0.00000E+00
 -1        74 2.08333E-02 0.00000E+00 0.00000E+00
 -1        75 2.18750E-02 0.00000E+00 0.00000E+00
 -1        76 2.29167E-02 0.00000E+00 0.00000E+00
 -1        77 2.39583E-02 0.00000E+00 0.00000E+00
 -1        78 2.50000E-02 0.00000E+00 0.00000E+00
 -1        79 2.60417E-02 0.00000E+00 0.00000E+00
 -1        80 2.70833E-02 0.00000E+00 0.00000E+00
 -1        81 2.81250E-02 0.00000E+00 0.00000E+00
 -1        82 2.91667E-02 0.00000E+00 0.00000E+00
 -1        83 3.02083E-02 0.00000E+00 0.00000E+00
 -1        84 3.12500E-02 0.00000E+00 0.00000E+00
 -1        85 3.22917E-02 0.00000E+00 0.00000E+00
 -1        86 1.66667E-02 1.04167E-03 0.00000E+00
 -1        87 1.66667E-02 2.08333E-03 0.00000E+00
 -1        88 1.66667E-02 3.12500E-03 0.00000E+00
 -1        89 1.66667E-02 4.16667E-03 0.00000E+00
 -1        90 1.66667E-02 5.20833E-03 0.00000E+00
 -1        91 1.77083E-02 3.90630E-04 0.00000E+00
 -1        92 1.87500E-02 7.81250E-04 0.00000E+00
 -1        93 1.97917E-02 1.17188E-03 0.00000E+00
 -1        94 2.08333E-02 1.56250E-03 0.00000E+00
 -1        95 2.18750E-02 1.95312E-03 0.00000E+00
 -1        96 2.29167E-02 2.34375E-03 0.00000E+00
 -1        97 2.39583E-02 2.73438E-03 0.00000E+00
 -1        98 2.50000E-02 3.12500E-03 0.00000E+00
 -1        99 2.60417E-02 3.51563E-03 0.00000E+00
 -1       100 2.70833E-02 3.90625E-03 0.00000E+00
 -1       101 2.81250E-02 4.29688E-03 0.00000E+00
 -1       102 2.91667E-02 4.68750E-03 0.00000E+00
 -1       103 3.02083E-02 5.07813E-03 0.00000E+00
 -1       104 3.12500E-02 5.46875E-03 0.00000E+00
 -1       105 3.22917E-02 5.85938E-03 0.00000E+00
 -1       106 3.43750E-02 0.00000E+00 0.00000E+00
 -1       107 3.54167E-02 0.00000E+00 0.00000E+00
 -1       108 3.64583E-02 0.00000E+00 0.00000E+00
 -1       109 3.75000E-02 0.00000E+00 0.00000E+00
 -1       110 3.85417E-02 0.00000E+00 0.00000E+00
 -1       111 3.95833E-02 0.00000E+00 0.00000E+00
 -1       112 4.06250E-02 0.00000E+00 0.00000E+00
 -1       113 4.16667E-02 0.00000E+00 0.00000E+00
 -1       114 4.27083E-02 0.00000E+00 0.00000E+00
 -1       115 4.37500E-02 0.00000E+00 0.00000E+00
 -1       116 4.47917E-02 0.00000E+00 0.00000E+00
 -1       117 4.58333E-02 0.00000E+00 0.00000E+00
 -1       118 4.68750E-02 0.00000E+00 0.00000E+00
 -1       119 4.79167E-02 0.00000E+00 0.00000E+00
 -1       120 4.89583E-02 0.00000E+00 0.00000E+00
 -1       121 3.33333E-02 1.04167E-03 0.00000E+00
 -1       122 3.33333E-02 2.08333E-03 0.00000E+00
 -1       123 3.33333E-02 3.12500E-03 0.00000E+00
 -1       124 3.33333E-02 4.16667E-03 0.00000E+00
 -1       125 3.33333E-02 5.20833E-03 0.00000E+00
 -1       126 3.43750E-02 3.90630E-04 0.00000E+00
 -1       127 3.54167E-02 7.81250E-04 0.00000E+00
 -1       128 3.64583E-02 1.17188E-03 0.00000E+00
 -1       129 3.75000E-02 1.56250E-03 0.00000E+00
 -1       130 3.85417E-02 1.95312E-03 0.00000E+00
 -1       131 3.95833E-02 2.34375E-03 0.00000E+00
 -1       132 4.06250E-02 2.73438E-03 0.00000E+00
 -1       133 4.16667E-02 3.12500E-03 0.00000E+00
 -1       134 4.27083E-02 3.51563E-03 0.00000E+00
 -1       135 4.37500E-02 3.90625E-03 0.00000E+00
 -1       136 4.47917E-02 4.29688E-03 0.00000E+00
 -1       137 4.58333E-02 4.68750E-03 0.00000E+00
 -1       138 4.68750E-02 5.07813E-03 0.00000E+00
 -1       139 4.79167E-02 5.46875E-03 0.00000E+00
 -1       140 4.89583E-02 5.85938E-03 0.00000E+00
 -1       141 5.10417E-02 0.00000E+00 0.00000E+00
 -1       142 5.20833E-02 0.00000E+00 0.00000E+00
 -1       143 5.31250E-02 0.00000E+00 0.00000E+00
 -1       144 5.41667E-02 0.00000E+00 0.00000E+00
 -1       145 5.52083E-02 0.00000E+00 0.00000E+00
 -1       146 5.62500E-02 0.00000E+00 0.00000E+00
 -1       147 5.72917E-02 0.00000E+00 0.00000E+00
 -1       148 5.83333E-02 0.00000E+00 0.00000E+00
 -1       149 5.93750E-02 0.00000E+00 0.00000E+00
 -1       150 6.04167E-02 0.00000E+00 0.00000E+00
 -1       151 6.14583E-02 0.00000E+00 0.00000E+00
 -1       152 6.25000E-02 0.00000E+00 0.00000E+00
 -1       153 6.35417E-02 0.00000E+00 0.00000E+00
 -1       154 6.45833E-02 0.00000E+00 0.00000E+00
 -1       155 6.56250E-02 0.00000E+00 0.00000E+00
 -1       156 5.00000E-02 1.04167E-03 0.00000E+00
 -1       157 5.00000E-02 2.08333E-03 0.00000E+00
 -1       158 5.00000E-02 3.12500E-03 0.00000E+00
 -1       159 5.00000E-02 4.16667E-03 0.00000E+00
 -1       160 5.00000E-02 5.20833E-03 0.00000E+00
 -1       161 5.10417E-02 3.90630E-04 0.00000E+00
 -1       162 5.20833E-02 7.81250E-04 0.00000E+00
 -1       163 5.31250E-02 1.17188E-03 0.00000E+00
 -1       164 5.41667E-02 1.56250E-03 0.00000E+00
 -1       165 5.52083E-02 1.95312E-03 0.00000E+00
 -1       166 5.62500E-02 2.34375E-03 0.00000E+00
 -1       167 5.72917E-02 2.73438E-03 0.00000E+00
 -1       168 5.83333E-02 3.12500E-03 0.00000E+00
 -1       169 5.93750E-02 3.51563E-03 0.00000E+00
 -1       170 6.04167E-02 3.90625E-03 0.00000E+00
 -1       171 6.14583E-02 4.29688E-03 0.00000E+00
 -1       172 6.25000E-02 4.68750E-03 0.00000E+00
 -1       173 6.35417E-02 5.07813E-03 0.00000E+00
 -1       174 6.45833E-02 5.46875E-03 0.00000E+00
 -1       175 6.56250E-02 5.85938E-03 0.00000E+00
 -1       191 6.66667E-02 1.04167E-03 0.00000E+00
 -1       192 6.66667E-02 2.08333E-03 0.00000E+00
 -1       193 6.66667E-02 3.12500E-03 0.00000E+00
 -1       194 6.66667E-02 4.16667E-03 0.00000E+00
 -1       195 6.66667E-02 5.20833E-03 0.00000E+00
 -1       251 1.04167E-03 6.25000E-03 0.00000E+00
 -1       252 2.08333E-03 6.25000E-03 0.00000E+00
 -1       253 3.12500E-03 6.25000E-03 0.00000E+00
 -1       254 4.16667E-03 6.25000E-03 0.00000E+00
 -1       255 5.20833E-03 6.25000E-03 0.00000E+00
 -1       256 6.25000E-03 6.25000E-03 0.00000E+00
 -1       257 7.29167E-03 6.25000E-03 0.00000E+00
 -1       258 8.33333E-03 6.25000E-03 0.00000E+00
 -1       259 9.37500E-03 6.25000E-03 0.00000E+00
 -1       260 1.04167E-02 6.25000E-03 0.00000E+00
 -1       261 1.14583E-02 6.25000E-03 0.00000E+00
 -1       262 1.25000E-02 6.25000E-03 0.00000E+00
 -1       263 1.35417E-02 6.25000E-03 0.00000E+00
 -1       264 1.45833E-02 6.25000E-03 0.00000E+00
 -1       265 1.56250E-02 6.25000E-03 0.00000E+00
 -1       266 0.00000E+00 7.29167E-03 0.00000E+00
 -1       267 0.00000E+00 8.33333E-03 0.00000E+00
 -1       268 0.00000E+00 9.37500E-03 0.00000E+00
 -1       269 0.00000E+00 1.04167E-02 0.00000E+00
 -1       270 0.00000E+00 1.14583E-02 0.00000E+00
 -1       271 1.04167E-03 6.64063E-03 0.00000E+00
 -1       272 2.08333E-03 7.03125E-03 0.00000E+00
 -1       273 3.12500E-03 7.42188E-03 0.00000E+00
 -1       274 4.16667E-03 7.81250E-03 0.00000E+00
 -1       275 5.20833E-03 8.20313E-03 0.00000E+00
 -1       276 6.25000E-03 8.59375E-03 0.00000E+00
 -1       277 7.29167E-03 8.98438E-03 0.00000E+00
 -1       278 8.33333E-03 9.37500E-03 0.00000E+00
 -1       279 9.37500E-03 9.76562E-03 0.00000E+00
 -1       280 1.04167E-02 1.01562E-02 0.00000E+00
 -1       281 1.14583E-02 1.05469E-02 0.00000E+00
 -1       282 1.25000E-02 1.09375E-02 0.00000E+00
 -1       283 1.35417E-02 1.13281E-02 0.00000E+00
 -1       284 1.45833E-02 1.17188E-02 0.00000E+00
 -1       285 1.56250E-02 1.21094E-02 0.00000E+00
 -1       286 1.77083E-02 6.25000E-03 0.00000E+00
 -1       287 1.87500E-02 6.25000E-03 0.00000E+00
 -1       288 1.97917E-02 6.25000E-03 0.00000E+00
 -1       289 2.08333E-02 6.25000E-03 0.00000E+00
 -1       290 2.18750E-02 6.25000E-03 0.00000E+00
 -1       291 2.29167E-02 6.25000E-03 0.00000E+00
 -1       292 2.39583E-02 6.25000E-03 0.00000E+00
 -1       293 2.50000E-02 6.25000E-03 0.00000E+00
 -1       294 2.60417E-02 6.25000E-03 0.00000E+00
 -1       295 2.70833E-02 6.25000E-03 0.00000E+00
 -1       296 2.81250E-02 6.25000E-03 0.00000E+00
 -1       297 2.91667E-02 6.25000E-03 0.00000E+00
 -1       298 3.02083E-02 6.25000E-03 0.00000E+00
 -1       299 3.12500E-02 6.25000E-03 0.00000E+00
 -1       300 3.22917E-02 6.25000E-03 0.00000E+00
 -1       301 1.66667E-02 7.29167E-03 0.00000E+00
 -1       302 1.66667E-02 8.33333E-03 0.00000E+00
 -1       303 1.66667E-02 9.37500E-03 0.00000E+00
 -1       304 1.66667E-02 1.04167E-02 0.00000E+00
 -1       305 1.66667E-02 1.14583E-02 0.00000E+00
 -1       306 1.77083E-02 6.64063E-03 0.00000E+00
 -1       307 1.87500E-02 7.03125E-03 0.00000E+00
 -1       308 1.97917E-02 7.42188E-03 0.00000E+00
 -1       309 2.08333E-02 7.81250E-03 0.00000E+00
 -1       310 2.18750E-02 8.20313E-03 0.00000E+00
 -1       311 2.29167E-02 8.59375E-03 0.00000E+00
 -1       312 2.39583E-02 8.98438E-03 0.00000E+00
 -1       313 2.50000E-02 9.37500E-03 0.00000E+00
 -1       314 2.60417E-02 9.76562E-03 0.00000E+00
 -1       315 2.70833E-02 1.01562E-02 0.00000E+00
 -1       316 2.81250E-02 1.05469E-02 0.00000E+00
 -1       317 2.91667E-02 1.09375E-02 0.00000E+00
 -1       318 3.02083E-02 1.13281E-02 0.00000E+00
 -1       319 3.12500E-02 1.17188E-02 0.00000E+00
 -1       320 3.22917E-02 1.21094E-02 0.00000E+00
 -1       321 3.43750E-02 6.25000E-03 0.00000E+00
 -1       322 3.54167E-02 6.25000E-03 0.00000E+00
 -1       323 3.64583E-02 6.25000E-03 0.00000E+00
 -1       324 3.75000E-02 6.25000E-03 0.00000E+00
 -1       325 3.85417E-02 6.25000E-03 0.00000E+00
 -1       326 3.95833E-02 6.25000E-03 0.00000E+00
 -1       327 4.06250E-02 6.25000E-03 0.00000E+00
 -1       328 4.16667E-02 6.25000E-03 0.00000E+00
 -1       329 4.27083E-02 6.25000E-03 0.00000E+00
 -1       330 4.37500E-02 6.25000E-03 0.00000E+00
 -1       331 4.47917E-02 6.25000E-03 0.00000E+00
 -1       332 4.58333E-02 6.25000E-03 0.00000E+00
 -1       333 4.68750E-02 6.25000E-03 0.00000E+00
 -1       334 4.79167E-02 6.25000E-03 0.00000E+00
 -1       335 4.89583E-02 6.25000E-03 0.00000E+00
 -1       336 3.33333E-02 7.29167E-03 0.00000E+00
 -1       337 3.33333E-02 8.33333E-03 0.00000E+00
 -1       338 3.33333E-02 9.37500E-03 0.00000E+00
 -1       339 3.33333E-02 1.04167E-02 0.00000E+00
 -1       340 3.33333E-02 1.14583E-02 0.00000E+00
 -1       341 3.43750E-02 6.64063E-03 0.00000E+00
 -1       342 3.54167E-02 7.03125E-03 0.00000E+00
 -1       343 3.64583E-02 7.42188E-03 0.00000E+00
 -1       344 3.75000E-02 7.81250E-03 0.00000E+00
 -1       345 3.85417E-02 8.20313E-03 0.00000E+00
 -1       346 3.95833E-02 8.59375E-03 0.00000E+00
 -1       347 4.06250E-02 8.98438E-03 0.00000E+00
 -1       348 4.16667E-02 9.37500E-03 0.00000E+00
 -1       349 4.27083E-02 9.76562E-03 0.00000E+00
 -1       350 4.37500E-02 1.01562E-02 0.00000E+00
 -1       351 4.47917E-02 1.05469E-02 0.00000E+00
 -1       352 4.58333E-02 1.09375E-02 0.00000E+00
 -1       353 4.68750E-02 1.13281E-02 0.00000E+00
 -1       354 4.79167E-02 1.17188E-02 0.00000E+00
 -1       355 4.89583E-02 1.21094E-02 0.00000E+00
 -1       356 5.10417E-02 6.25000E-03 0.00000E+00
 -1       357 5.20833E-02 6.25000E-03 0.00000E+00
 -1       358 5.31250E-02 6.25000E-03 0.00000E+00
 -1       359 5.41667E-02 6.25000E-03 0.00000E+00
 -1       360 5.52083E-02 6.25000E-03 0.00000E+00
 -1       361 5.62500E-02 6.25000E-03 0.00000E+00
 -1       362 5.72917E-02 6.25000E-03 0.00000E+00
 -1       363 5.83333E-02 6.25000E-03 0.00000E+00
 -1       364 5.93750E-02 6.25000E-03 0.00000E+00
 -1       365 6.04167E-02 6.25000E-03 0.00000E+00
 -1       366 6.14583E-02 6.25000E-03 0.00000E+00
 -1       367 6.25000E-02 6.25000E-03 0.00000E+00
 -1       368 6.35417E-02 6.25000E-03 0.00000E+00
 -1       369 6.45833E-02 6.25000E-03 0.00000E+00
 -1       370 6.56250E-02 6.25000E-03 0.00000E+00
 -1       371 5.00000E-02 7.29167E-03 0.00000E+00
 -1       372 5.00000E-02 8.33333E-03 0.00000E+00
 -1       373 5.00000E-02 9.37500E-03 0.00000E+00
 -1       374 5.00000E-02 1.04167E-02 0.00000E+00
 -1       375 5.00000E-02 1.14583E-02 0.00000E+00
 -1       376 5.10417E-02 6.64063E-03 0.00000E+00
 -1       377 5.20833E-02 7.03125E-03 0.00000E+00
 -1       378 5.31250E-02 7.42188E-03 0.00000E+00
 -1       379 5.41667E-02 7.81250E-03 0.00000E+00
 -1       380 5.52083E-02 8.20313E-03 0.00000E+00
 -1       381 5.62500E-02 8.59375E-03 0.00000E+00
 -1       382 5.72917E-02 8.98438E-03 0.00000E+00
 -1       383 5.83333E-02 9.37500E-03 0.00000E+00
 -1       384 5.93750E-02 9.76562E-03 0.00000E+00
 -1       385 6.04167E-02 1.01562E-02 0.00000E+00
 -1       386 6.14583E-02 1.05469E-02 0.00000E+00
 -1       387 6.25000E-02 1.09375E-02 0.00000E+00
 -1       388 6.35417E-02 1.13281E-02 0.00000E+00
 -1       389 6.45833E-02 1.17188E-02 0.00000E+00
 -1       390 6.56250E-02 1.21094E-02 0.00000E+00
 -1       406 6.66667E-02 7.29167E-03 0.00000E+00
 -1       407 6.66667E-02 8.33333E-03 0.00000E+00
 -1       408 6.66667E-02 9.37500E-03 0.00000E+00
 -1       409 6.66667E-02 1.04167E-02 0.00000E+00
 -1       410 6.66667E-02 1.14583E-02 0.00000E+00
 -1       466 1.04167E-03 1.25000E-02 0.00000E+00
 -1       467 2.08333E-03 1.25000E-02 0.00000E+00
 -1       468 3.12500E-03 1.25000E-02 0.00000E+00
 -1       469 4.16667E-03 1.25000E-02 0.00000E+00
 -1       470 5.20833E-03 1.25000E-02 0.00000E+00
 -1       471 6.25000E-03 1.25000E-02 0.00000E+00
 -1       472 7.29167E-03 1.25000E-02 0.00000E+00
 -1       473 8.33333E-03 1.25000E-02 0.00000E+00
 -1       474 9.37500E-03 1.25000E-02 0.00000E+00
 -1       475 1.04167E-02 1.25000E-02 0.00000E+00
 -1       476 1.14583E-02 1.25000E-02 0.00000E+00
 -1       477 1.25000E-02 1.25000E-02 0.00000E+00
 -1       478 1.35417E-02 1.25000E-02 0.00000E+00
 -1       479 1.45833E-02 1.25000E-02 0.00000E+00
 -1       480 1.56250E-02 1.25000E-02 0.00000E+00
 -1       481 0.00000E+00 1.35417E-02 0.00000E+00
 -1       482 0.00000E+00 1.45833E-02 0.00000E+00
 -1       483 0.00000E+00 1.56250E-02 0.00000E+00
 -1       484 0.00000E+00 1.66667E-02 0.00000E+00
 -1       485 0.00000E+00 1.77083E-02 0.00000E+00
 -1       486 1.04167E-03 1.28906E-02 0.00000E+00
 -1       487 2.08333E-03 1.32813E-02 0.00000E+00
 -1       488 3.12500E-03 1.36719E-02 0.00000E+00
 -1       489 4.16667E-03 1.40625E-02 0.00000E+00
 -1       490 5.20833E-03 1.44531E-02 0.00000E+00
 -1       491 6.25000E-03 1.48437E-02 0.00000E+00
 -1       492 7.29167E-03 1.52344E-02 0.00000E+00
 -1       493 8.33333E-03 1.56250E-02 0.00000E+00
 -1       494 9.37500E-03 1.60156E-02 0.00000E+00
 -1       495 1.04167E-02 1.64062E-02 0.00000E+00
 -1       496 1.14583E-02 1.67969E-02 0.00000E+00
 -1       497 1.25000E-02 1.71875E-02 0.00000E+00
 -1       498 1.35417E-02 1.75781E-02 0.00000E+00
 -1       499 1.45833E-02 1.79687E-02 0.00000E+00
 -1       500 1.56250E-02 1.83594E-02 0.00000E+00
 -1       501 1.77083E-02 1.25000E-02 0.00000E+00
 -1       502 1.87500E-02 1.25000E-02 0.00000E+00
 -1       503 1.97917E-02 1.25000E-02 0.00000E+00
 -1       504 2.08333E-02 1.25000E-02 0.00000E+00
 -1       505 2.18750E-02 1.25000E-02 0.00000E+00
 -1       506 2.29167E-02 1.25000E-02 0.00000E+00
 -1       507 2.39583E-02 1.25000E-02 0.00000E+00
 -1       508 2.50000E-02 1.25000E-02 0.00000E+00
 -1       509 2.60417E-02 1.25000E-02 0.00000E+00
 -1       510 2.70833E-02 1.25000E-02 0.00000E+00
 -1       511 2.81250E-02 1.25000E-02 0.00000E+00
 -1       512 2.91667E-02 1.25000E-02 0.00000E+00
 -1       513 3.02083E-02 1.25000E-02 0.00000E+00
 -1       514 3.12500E-02 1.25000E-02 0.00000E+00
 -1       515 3.22917E-02 1.25000E-02 0.00000E+00
 -1       516 1.66667E-02 1.35417E-02 0.00000E+00
 -1       517 1.66667E-02 1.45833E-02 0.00000E+00
 -1       518 1.66667E-02 1.56250E-02 0.00000E+00
 -1       519 1.66667E-02 1.66667E-02 0.00000E+00
 -1       520 1.66667E-02 1.77083E-02 0.00000E+00
 -1       521 1.77083E-02 1.28906E-02 0.00000E+00
 -1       522 1.87500E-02 1.32813E-02 0.00000E+00
 -1       523 1.97917E-02 1.36719E-02 0.00000E+00
 -1       524 2.08333E-02 1.40625E-02 0.00000E+00
 -1       525 2.18750E-02 1.44531E-02 0.00000E+00
 -1       526 2.29167E-02 1.48437E-02 0.00000E+00
 -1       527 2.39583E-02 1.52344E-02 0.00000E+00
 -1       528 2.50000E-02 1.56250E-02 0.00000E+00
 -1       529 2.60417E-02 1.60156E-02 0.00000E+00
 -1       530 2.70833E-02 1.64062E-02 0.00000E+00
 -1       531 2.81250E-02 1.67969E-02 0.00000E+00
 -1       532 2.91667E-02 1.71875E-02 0.00000E+00
 -1       533 3.02083E-02 1.75781E-02 0.00000E+00
 -1       534 3.12500E-02 1.79687E-02 0.00000E+00
 -1       535 3.22917E-02 1.83594E-02 0.00000E+00
 -1       536 3.43750E-02 1.25000E-02 0.00000E+00
 -1       537 3.54167E-02 1.25000E-02 0.00000E+00
 -1       538 3.64583E-02 1.25000E-02 0.00000E+00
 -1       539 3.75000E-02 1.25000E-02 0.00000E+00
 -1       540 3.85417E-02 1.25000E-02 0.00000E+00
 -1       541 3.95833E-02 1.25000E-02 0.00000E+00
 -1       542 4.06250E-02 1.25000E-02 0.00000E+00
 -1       543 4.16667E-02 1.25000E-02 0.00000E+00
 -1       544 4.27083E-02 1.25000E-02 0.00000E+00
 -1       545 4.37500E-02 1.25000E-02 0.00000E+00
 -1       546 4.47917E-02 1.25000E-02 0.00000E+00
 -1       547 4.58333E-02 1.25000E-02 0.00000E+00
 -1       548 4.68750E-02 1.25000E-02 0.00000E+00
 -1       549 4.79167E-02 1.25000E-02 0.00000E+00
 -1       550 4.89583E-02 1.25000E-02 0.00000E+00
 -1       551 3.33333E-02 1.35417E-02 0.00000E+00
 -1       552 3.33333E-02 1.45833E-02 0.00000E+00
 -1       553 3.33333E-02 1.56250E-02 0.00000E+00
 -1       554 3.33333E-02 1.66667E-02 0.00000E+00
 -1       555 3.33333E-02 1.77083E-02 0.00000E+00
 -1       556 3.43750E-02 1.28906E-02 0.00000E+00
 -1       557 3.54167E-02 1.32813E-02 0.00000E+00
 -1       558 3.64583E-02 1.36719E-02 0.00000E+00
 -1       559 3.75000E-02 1.40625E-02 0.00000E+00
 -1       560 3.85417E-02 1.44531E-02 0.00000E+00
 -1       561 3.95833E-02 1.48437E-02 0.00000E+00
 -1       562 4.06250E-02 1.52344E-02 0.00000E+00
 -1       563 4.16667E-02 1.56250E-02 0.00000E+00
 -1       564 4.27083E-02 1.60156E-02 0.00000E+00
 -1       565 4.37500E-02 1.64062E-02 0.00000E+00
 -1       566 4.47917E-02 1.67969E-02 0.00000E+00
 -1       567 4.58333E-02 1.71875E-02 0.00000E+00
 -1       568 4.68750E-02 1.75781E-02 0.00000E+00
 -1       569 4.79167E-02 1.79687E-02 0.00000E+00
 -1       570 4.89583E-02 1.83594E-02 0.00000E+00
 -1       571 5.10417E-02 1.25000E-02 0.00000E+00
 -1       572 5.20833E-02 1.25000E-02 0.00000E+00
 -1       573 5.31250E-02 1.25000E-02 0.00000E+00
 -1       574 5.41667E-02 1.25000E-02 0.00000E+00
 -1       575 5.52083E-02 1.25000E-02 0.00000E+00
 -1       576 5.62500E-02 1.25000E-02 0.00000E+00
 -1       577 5.72917E-02 1.25000E-02 0.00000E+00
 -1       578 5.83333E-02 1.25000E-02 0.00000E+00
 -1       579 5.93750E-02 1.25000E-02 0.00000E+00
 -1       580 6.04167E-02 1.25000E-02 0.00000E+00
 -1       581 6.14583E-02 1.25000E-02 0.00000E+00
 -1       582 6.25000E-02 1.25000E-02 0.00000E+00
 -1       583 6.35417E-02 1.25000E-02 0.00000E+00
 -1       584 6.45833E-02 1.25000E-02 0.00000E+00
 -1       585 6.56250E-02 1.25000E-02 0.00000E+00
 -1       586 5.00000E-02 1.35417E-02 0.00000E+00
 -1       587 5.00000E-02 1.45833E-02 0.00000E+00
 -1       588 5.00000E-02 1.56250E-02 0.00000E+00
 -1       589 5.00000E-02 1.66667E-02 0.00000E+00
 -1       590 5.00000E-02 1.77083E-02 0.00000E+00
 -1       591 5.10417E-02 1.28906E-02 0.00000E+00
 -1       592 5.20833E-02 1.32813E-02 0.00000E+00
 -1       593 5.31250E-02 1.36719E-02 0.00000E+00
 -1       594 5.41667E-02 1.40625E-02 0.00000E+00
 -1       595 5.52083E-02 1.44531E-02 0.00000E+00
 -1       596 5.62500E-02 1.48437E-02 0.00000E+00
 -1       597 5.72917E-02 1.52344E-02 0.00000E+00
 -1       598 5.83333E-02 1.56250E-02 0.00000E+00
 -1       599 5.93750E-02 1.60156E-02 0.00000E+00
 -1       600 6.04167E-02 1.64062E-02 0.00000E+00
 -1       601 6.14583E-02 1.67969E-02 0.00000E+00
 -1       602 6.25000E-02 1.71875E-02 0.00000E+00
 -1       603 6.35417E-02 1.75781E-02 0.00000E+00
 -1       604 6.45833E-02 1.79687E-02 0.00000E+00
 -1       605 6.56250E-02 1.83594E-02 0.00000E+00
 -1       606 6.77083E-02 1.25000E-02 0.00000E+00
 -1       607 6.87500E-02 1.25000E-02 0.00000E+00
 -1       608 6.97917E-02 1.25000E-02 0.00000E+00
 -1       609 7.08333E-02 1.25000E-02 0.00000E+00
 -1       610 7.18750E-02 1.25000E-02 0.00000E+00
 -1       611 7.29167E-02 1.25000E-02 0.00000E+00
 -1       612 7.39583E-02 1.25000E-02 0.00000E+00
 -1       613 7.50000E-02 1.25000E-02 0.00000E+00
 -1       614 7.60417E-02 1.25000E-02 0.00000E+00
 -1       615 7.70833E-02 1.25000E-02 0.00000E+00
 -1       616 7.81250E-02 1.25000E-02 0.00000E+00
 -1       617 7.91667E-02 1.25000E-02 0.00000E+00
 -1       618 8.02083E-02 1.25000E-02 0.00000E+00
 -1       619 8.12500E-02 1.25000E-02 0.00000E+00
 -1       620 8.22917E-02 1.25000E-02 0.00000E+00
 -1       621 6.66667E-02 1.35417E-02 0.00000E+00
 -1       622 6.66667E-02 1.45833E-02 0.00000E+00
 -1       623 6.66667E-02 1.56250E-02 0.00000E+00
 -1       624 6.66667E-02 1.66667E-02 0.00000E+00
 -1       625 6.66667E-02 1.77083E-02 0.00000E+00
 -1       626 6.77083E-02 1.28906E-02 0.00000E+00
 -1       627 6.87500E-02 1.32813E-02 0.00000E+00
 -1       628 6.97917E-02 1.36719E-02 0.00000E+00
 -1       629 7.08333E-02 1.40625E-02 0.00000E+00
 -1       630 7.18750E-02 1.44531E-02 0.00000E+00
 -1       631 7.29167E-02 1.48437E-02 0.00000E+00
 -1       632 7.39583E-02 1.52344E-02 0.00000E+00
 -1       633 7.50000E-02 1.56250E-02 0.00000E+00
 -1       634 7.60417E-02 1.60156E-02 0.00000E+00
 -1       635 7.70833E-02 1.64062E-02 0.00000E+00
 -1       636 7.81250E-02 1.67969E-02 0.00000E+00
 -1       637 7.91667E-02 1.71875E-02 0.00000E+00
 -1       638 8.02083E-02 1.75781E-02 0.00000E+00
 -1       639 8.12500E-02 1.79687E-02 0.00000E+00
 -1       640 8.22917E-02 1.83594E-02 0.00000E+00
 -1       641 8.43750E-02 1.25000E-02 0.00000E+00
 -1       642 8.54167E-02 1.25000E-02 0.00000E+00
 -1       643 8.64583E-02 1.25000E-02 0.00000E+00
 -1       644 8.75000E-02 1.25000E-02 0.00000E+00
 -1       645 8.85417E-02 1.25000E-02 0.00000E+00
 -1       646 8.95833E-02 1.25000E-02 0.00000E+00
 -1       647 9.06250E-02 1.25000E-02 0.00000E+00
 -1       648 9.16667E-02 1.25000E-02 0.00000E+00
 -1       649 9.27083E-02 1.25000E-02 0.00000E+00
 -1       650 9.37500E-02 1.25000E-02 0.00000E+00
 -1       651 9.47917E-02 1.25000E-02 0.00000E+00
 -1       652 9.58333E-02 1.25000E-02 0.00000E+00
 -1       653 9.68750E-02 1.25000E-02 0.00000E+00
 -1       654 9.79167E-02 1.25000E-02 0.00000E+00
 -1       655 9.89583E-02 1.25000E-02 0.00000E+00
 -1       656 8.33333E-02 1.35417E-02 0.00000E+00
 -1       657 8.33333E-02 1.45833E-02 0.00000E+00
 -1       658 8.33333E-02 1.56250E-02 0.00000E+00
 -1       659 8.33333E-02 1.66667E-02 0.00000E+00
 -1       660 8.33333E-02 1.77083E-02 0.00000E+00
 -1       661 8.43750E-02 1.28906E-02 0.00000E+00
 -1       662 8.54167E-02 1.32813E-02 0.00000E+00
 -1       663 8.64583E-02 1.36719E-02 0.00000E+00
 -1       664 8.75000E-02 1.40625E-02 0.00000E+00
 -1       665 8.85417E-02 1.44531E-02 0.00000E+00
 -1       666 8.95833E-02 1.48437E-02 0.00000E+00
 -1       667 9.06250E-02 1.52344E-02 0.00000E+00
 -1       668 9.16667E-02 1.56250E-02 0.00000E+00
 -1       669 9.27083E-02 1.60156E-02 0.00000E+00
 -1       670 9.37500E-02 1.64062E-02 0.00000E+00
 -1       671 9.47917E-02 1.67969E-02 0.00000E+00
 -1       672 9.58333E-02 1.71875E-02 0.00000E+00
 -1       673 9.68750E-02 1.75781E-02 0.00000E+00
 -1       674 9.79167E-02 1.79687E-02 0.00000E+00
 -1       675 9.89583E-02 1.83594E-02 0.00000E+00
 -1       676 1.00000E-01 1.35417E-02 0.00000E+00
 -1       677 1.00000E-01 1.45833E-02 0.00000E+00
 -1       678 1.00000E-01 1.56250E-02 0.00000E+00
 -1       679 1.00000E-01 1.66667E-02 0.00000E+00
 -1       680 1.00000E-01 1.77083E-02 0.00000E+00
 -1       681 1.04167E-03 1.87500E-02 0.00000E+00
 -1       682 2.08333E-03 1.87500E-02 0.00000E+00
 -1       683 3.12500E-03 1.87500E-02 0.00000E+00
 -1       684 4.16667E-03 1.87500E-02 0.00000E+00
 -1       685 5.20833E-03 1.87500E-02 0.00000E+00
 -1       686 6.25000E-03 1.87500E-02 0.00000E+00
 -1       687 7.29167E-03 1.87500E-02 0.00000E+00
 -1       688 8.33333E-03 1.87500E-02 0.00000E+00
 -1       689 9.37500E-03 1.87500E-02 0.00000E+00
 -1       690 1.04167E-02 1.87500E-02 0.00000E+00
 -1       691 1.14583E-02 1.87500E-02 0.00000E+00
 -1       692 1.25000E-02 1.87500E-02 0.00000E+00
 -1       693 1.35417E-02 1.87500E-02 0.00000E+00
 -1       694 1.45833E-02 1.87500E-02 0.00000E+00
 -1       695 1.56250E-02 1.87500E-02 0.00000E+00
 -1       696 0.00000E+00 1.97917E-02 0.00000E+00
 -1       697 0.00000E+00 2.08333E-02 0.00000E+00
 -1       698 0.00000E+00 2.18750E-02 0.00000E+00
 -1       699 0.00000E+00 2.29167E-02 0.00000E+00
 -1       700 0.00000E+00 2.39583E-02 0.00000E+00
 -1       701 1.04167E-03 1.91406E-02 0.00000E+00
 -1       702 2.08333E-03 1.95312E-02 0.00000E+00
 -1       703 3.12500E-03 1.99219E-02 0.00000E+00
 -1       704 4.16667E-03 2.03125E-02 0.00000E+00
 -1       705 5.20833E-03 2.07031E-02 0.00000E+00
 -1       706 6.25000E-03 2.10938E-02 0.00000E+00
 -1       707 7.29167E-03 2.14844E-02 0.00000E+00
 -1       708 8.33333E-03 2.18750E-02 0.00000E+00
 -1       709 9.37500E-03 2.22656E-02 0.00000E+00
 -1       710 1.04167E-02 2.26563E-02 0.00000E+00
 -1       711 1.14583E-02 2.30469E-02 0.00000E+00
 -1       712 1.25000E-02 2.34375E-02 0.00000E+00
 -1       713 1.35417E-02 2.38281E-02 0.00000E+00
 -1       714 1.45833E-02 2.42187E-02 0.00000E+00
 -1       715 1.56250E-02 2.46094E-02 0.00000E+00
 -1       716 1.77083E-02 1.87500E-02 0.00000E+00
 -1       717 1.87500E-02 1.87500E-02 0.00000E+00
 -1       718 1.97917E-02 1.87500E-02 0.00000E+00
 -1       719 2.08333E-02 1.87500E-02 0.00000E+00
 -1       720 2.18750E-02 1.87500E-02 0.00000E+00
 -1       721 2.29167E-02 1.87500E-02 0.00000E+00
 -1       722 2.39583E-02 1.87500E-02 0.00000E+00
 -1       723 2.50000E-02 1.87500E-02 0.00000E+00
 -1       724 2.60417E-02 1.87500E-02 0.00000E+00
 -1       725 2.70833E-02 1.87500E-02 0.00000E+00
 -1       726 2.81250E-02 1.87500E-02 0.00000E+00
 -1       727 2.91667E-02 1.87500E-02 0.00000E+00
 -1       728 3.02083E-02 1.87500E-02 0.00000E+00
 -1       729 3.12500E-02 1.87500E-02 0.00000E+00
 -1       730 3.22917E-02 1.87500E-02 0.00000E+00
 -1       731 1.66667E-02 1.97917E-02 0.00000E+00
 -1       732 1.66667E-02 2.08333E-02 0.00000E+00
 -1       733 1.66667E-02 2.18750E-02 0.00000E+00
 -1       734 1.66667E-02 2.29167E-02 0.00000E+00
 -1       735 1.66667E-02 2.39583E-02 0.00000E+00
 -1       736 1.77083E-02 1.91406E-02 0.00000E+00
 -1       737 1.87500E-02 1.95312E-02 0.00000E+00
 -1       738 1.97917E-02 1.99219E-02 0.00000E+00
 -1       739 2.08333E-02 2.03125E-02 0.00000E+00
 -1       740 2.18750E-02 2.07031E-02 0.00000E+00
 -1       741 2.29167E-02 2.10938E-02 0.00000E+00
 -1       742 2.39583E-02 2.14844E-02 0.00000E+00
 -1       743 2.50000E-02 2.18750E-02 0.00000E+00
 -1       744 2.60417E-02 2.22656E-02 0.00000E+00
 -1       745 2.70833E-02 2.26563E-02 0.00000E+00
 -1       746 2.81250E-02 2.30469E-02 0.00000E+00
 -1       747 2.91667E-02 2.34375E-02 0.00000E+00
 -1       748 3.02083E-02 2.38281E-02 0.00000E+00
 -1       749 3.12500E-02 2.42187E-02 0.00000E+00
 -1       750 3.22917E-02 2.46094E-02 0.00000E+00
 -1       751 3.43750E-02 1.87500E-02 0.00000E+00
 -1       752 3.54167E-02 1.87500E-02 0.00000E+00
 -1       753 3.64583E-02 1.87500E-02 0.00000E+00
 -1       754 3.75000E-02 1.87500E-02 0.00000E+00
 -1       755 3.85417E-02 1.87500E-02 0.00000E+00
 -1       756 3.95833E-02 1.87500E-02 0.00000E+00
 -1       757 4.06250E-02 1.87500E-02 0.00000E+00
 -1       758 4.16667E-02 1.87500E-02 0.00000E+00
 -1       759 4.27083E-02 1.87500E-02 0.00000E+00
 -1       760 4.37500E-02 1.87500E-02 0.00000E+00
 -1       761 4.47917E-02 1.87500E-02 0.00000E+00
 -1       762 4.58333E-02 1.87500E-02 0.00000E+00
 -1       763 4.68750E-02 1.87500E-02 0.00000E+00
 -1       764 4.79167E-02 1.87500E-02 0.00000E+00
 -1       765 4.89583E-02 1.87500E-02 0.00000E+00
 -1       766 3.33333E-02 1.97917E-02 0.00000E+00
 -1       767 3.33333E-02 2.08333E-02 0.00000E+00
 -1       768 3.33333E-02 2.18750E-02 0.00000E+00
 -1       769 3.33333E-02 2.29167E-02 0.00000E+00
 -1       770 3.33333E-02 2.39583E-02 0.00000E+00
 -1       771 3.43750E-02 1.91406E-02 0.00000E+00
 -1       772 3.54167E-02 1.95312E-02 0.00000E+00
 -1       773 3.64583E-02 1.99219E-02 0.00000E+00
 -1       774 3.75000E-02 2.03125E-02 0.00000E+00
 -1       775 3.85417E-02 2.07031E-02 0.00000E+00
 -1       776 3.95833E-02 2.10938E-02 0.00000E+00
 -1       777 4.06250E-02 2.14844E-02 0.00000E+00
 -1       778 4.16667E-02 2.18750E-02 0.00000E+00
 -1       779 4.27083E-02 2.22656E-02 0.00000E+00
 -1       780 4.37500E-02 2.26563E-02 0.00000E+00
 -1       781 4.47917E-02 2.30469E-02 0.00000E+00
 -1       782 4.58333E-02 2.34375E-02 0.00000E+00
 -1       783 4.68750E-02 2.38281E-02 0.00000E+00
 -1       784 4.79167E-02 2.42187E-02 0.00000E+00
 -1       785 4.89583E-02 2.46094E-02 0.00000E+00
 -1       786 5.10417E-02 1.87500E-02 0.00000E+00
 -1       787 5.20833E-02 1.87500E-02 0.00000E+00
 -1       788 5.31250E-02 1.87500E-02 0.00000E+00
 -1       789 5.41667E-02 1.87500E-02 0.00000E+00
 -1       790 5.52083E-02 1.87500E-02 0.00000E+00
 -1       791 5.62500E-02 1.87500E-02 0.00000E+00
 -1       792 5.72917E-02 1.87500E-02 0.00000E+00
 -1       793 5.83333E-02 1.87500E-02 0.00000E+00
 -1       794 5.93750E-02 1.87500E-02 0.00000E+00
 -1       795 6.04167E-02 1.87500E-02 0.00000E+00
 -1       796 6.14583E-02 1.87500E-02 0.00000E+00
 -1       797 6.25000E-02 1.87500E-02 0.00000E+00
 -1       798 6.35417E-02 1.87500E-02 0.00000E+00
 -1       799 6.45833E-02 1.87500E-02 0.00000E+00
 -1       800 6.56250E-02 1.87500E-02 0.00000E+00
 -1       801 5.00000E-02 1.97917E-02 0.00000E+00
 -1       802 5.00000E-02 2.08333E-02 0.00000E+00
 -1       803 5.00000E-02 2.18750E-02 0.00000E+00
 -1       804 5.00000E-02 2.29167E-02 0.00000E+00
 -1       805 5.00000E-02 2.39583E-02 0.00000E+00
 -1       806 5.10417E-02 1.91406E-02 0.00000E+00
 -1       807 5.20833E-02 1.95312E-02 0.00000E+00
 -1       808 5.31250E-02 1.99219E-02 0.00000E+00
 -1       809 5.41667E-02 2.03125E-02 0.00000E+00
 -1       810 5.52083E-02 2.07031E-02 0.00000E+00
 -1       811 5.62500E-02 2.10938E-02 0.00000E+00
 -1       812 5.72917E-02 2.14844E-02 0.00000E+00
 -1       813 5.83333E-02 2.18750E-02 0.00000E+00
 -1       814 5.93750E-02 2.22656E-02 0.00000E+00
 -1       815 6.04167E-02 2.26563E-02 0.00000E+00
 -1       816 6.14583E-02 2.30469E-02 0.00000E+00
 -1       817 6.25000E-02 2.34375E-02 0.00000E+00
 -1       818 6.35417E-02 2.38281E-02 0.00000E+00
 -1       819 6.45833E-02 2.42187E-02 0.00000E+00
 -1       820 6.56250E-02 2.46094E-02 0.00000E+00
 -1       821 6.77083E-02 1.87500E-02 0.00000E+00
 -1       822 6.87500E-02 1.87500E-02 0.00000E+00
 -1       823 6.97917E-02 1.87500E-02 0.00000E+00
 -1       824 7.08333E-02 1.87500E-02 0.00000E+00
 -1       825 7.18750E-02 1.87500E-02 0.00000E+00
 -1       826 7.29167E-02 1.87500E-02 0.00000E+00
 -1       827 7.39583E-02 1.87500E-02 0.00000E+00
 -1       828 7.50000E-02 1.87500E-02 0.00000E+00
 -1       829 7.60417E-02 1.87500E-02 0.00000E+00
 -1       830 7.70833E-02 1.87500E-02 0.00000E+00
 -1       831 7.81250E-02 1.87500E-02 0.00000E+00
 -1       832 7.91667E-02 1.87500E-02 0.00000E+00
 -1       833 8.02083E-02 1.87500E-02 0.00000E+00
 -1       834 8.12500E-02 1.87500E-02 0.00000E+00
 -1       835 8.22917E-02 1.87500E-02 0.00000E+00
 -1       836 6.66667E-02 1.97917E-02 0.00000E+00
 -1       837 6.66667E-02 2.08333E-02 0.00000E+00
 -1       838 6.66667E-02 2.18750E-02 0.00000E+00
 -1       839 6.66667E-02 2.29167E-02 0.00000E+00
 -1       840 6.66667E-02 2.39583E-02 0.00000E+00
 -1       841 6.77083E-02 1.91406E-02 0.00000E+00
 -1       842 6.87500E-02 1.95312E-02 0.00000E+00
 -1       843 6.97917E-02 1.99219E-02 0.00000E+00
 -1       844 7.08333E-02 2.03125E-02 0.00000E+00
 -1       845 7.18750E-02 2.07031E-02 0.00000E+00
 -1       846 7.29167E-02 2.10938E-02 0.00000E+00
 -1       847 7.39583E-02 2.14844E-02 0.00000E+00
 -1       848 7.50000E-02 2.18750E-02 0.00000E+00
 -1       849 7.60417E-02 2.22656E-02 0.00000E+00
 -1       850 7.70833E-02 2.26563E-02 0.00000E+00
 -1       851 7.81250E-02 2.30469E-02 0.00000E+00
 -1       852 7.91667E-02 2.34375E-02 0.00000E+00
 -1       853 8.02083E-02 2.38281E-02 0.00000E+00
 -1       854 8.12500E-02 2.42187E-02 0.00000E+00
 -1       855 8.22917E-02 2.46094E-02 0.00000E+00
 -1       856 8.43750E-02 1.87500E-02 0.00000E+00
 -1       857 8.54167E-02 1.87500E-02 0.00000E+00
 -1       858 8.64583E-02 1.87500E-02 0.00000E+00
 -1       859 8.75000E-02 1.87500E-02 0.00000E+00
 -1       860 8.85417E-02 1.87500E-02 0.00000E+00
 -1       861 8.95833E-02 1.87500E-02 0.00000E+00
 -1       862 9.06250E-02 1.87500E-02 0.00000E+00
 -1       863 9.16667E-02 1.87500E-02 0.00000E+00
 -1       864 9.27083E-02 1.87500E-02 0.00000E+00
 -1       865 9.37500E-02 1.87500E-02 0.00000E+00
 -1       866 9.47917E-02 1.87500E-02 0.00000E+00
 -1       867 9.58333E-02 1.87500E-02 0.00000E+00
 -1       868 9.68750E-02 1.87500E-02 0.00000E+00
 -1       869 9.79167E-02 1.87500E-02 0.00000E+00
 -1       870 9.89583E-02 1.87500E-02 0.00000E+00
 -1       871 8.33333E-02 1.97917E-02 0.00000E+00
 -1       872 8.33333E-02 2.08333E-02 0.00000E+00
 -1       873 8.33333E-02 2.18750E-02 0.00000E+00
 -1       874 8.33333E-02 2.29167E-02 0.00000E+00
 -1       875 8.33333E-02 2.39583E-02 0.00000E+00
 -1       876 8.43750E-02 1.91406E-02 0.00000E+00
 -1       877 8.54167E-02 1.95312E-02 0.00000E+00
 -1       878 8.64583E-02 1.99219E-02 0.00000E+00
 -1       879 8.75000E-02 2.03125E-02 0.00000E+00
 -1       880 8.85417E-02 2.07031E-02 0.00000E+00
 -1       881 8.95833E-02 2.10938E-02 0.00000E+00
 -1       882 9.06250E-02 2.14844E-02 0.00000E+00
 -1       883 9.16667E-02 2.18750E-02 0.00000E+00
 -1       884 9.27083E-02 2.22656E-02 0.00000E+00
 -1       885 9.37500E-02 2.26563E-02 0.00000E+00
 -1       886 9.47917E-02 2.30469E-02 0.00000E+00
 -1       887 9.58333E-02 2.34375E-02 0.00000E+00
 -1       888 9.68750E-02 2.38281E-02 0.00000E+00
 -1       889 9.79167E-02 2.42187E-02 0.00000E+00
 -1       890 9.89583E-02 2.46094E-02 0.00000E+00
 -1       891 1.00000E-01 1.97917E-02 0.00000E+00
 -1       892 1.00000E-01 2.08333E-02 0.00000E+00
 -1       893 1.00000E-01 2.18750E-02 0.00000E+00
 -1       894 1.00000E-01 2.29167E-02 0.00000E+00
 -1       895 1.00000E-01 2.39583E-02 0.00000E+00
 -1       896 1.04167E-03 2.50000E-02 0.00000E+00
 -1       897 2.08333E-03 2.50000E-02 0.00000E+00
 -1       898 3.12500E-03 2.50000E-02 0.00000E+00
 -1       899 4.16667E-03 2.50000E-02 0.00000E+00
 -1       900 5.20833E-03 2.50000E-02 0.00000E+00
 -1       901 6.25000E-03 2.50000E-02 0.00000E+00
 -1       902 7.29167E-03 2.50000E-02 0.00000E+00
 -1       903 8.33333E-03 2.50000E-02 0.00000E+00
 -1       904 9.37500E-03 2.50000E-02 0.00000E+00
 -1       905 1.04167E-02 2.50000E-02 0.00000E+00
 -1       906 1.14583E-02 2.50000E-02 0.00000E+00
 -1       907 1.25000E-02 2.50000E-02 0.00000E+00
 -1       908 1.35417E-02 2.50000E-02 0.00000E+00
 -1       909 1.45833E-02 2.50000E-02 0.00000E+00
 -1       910 1.56250E-02 2.50000E-02 0.00000E+00
 -1       911 1.77083E-02 2.50000E-02 0.00000E+00
 -1       912 1.87500E-02 2.50000E-02 0.00000E+00
 -1       913 1.97917E-02 2.50000E-02 0.00000E+00
 -1       914 2.08333E-02 2.50000E-02 0.00000E+00
 -1       915 2.18750E-02 2.50000E-02 0.00000E+00
 -1       916 2.29167E-02 2.50000E-02 0.00000E+00
 -1       917 2.39583E-02 2.50000E-02 0.00000E+00
 -1       918 2.50000E-02 2.50000E-02 0.00000E+00
 -1       919 2.60417E-02 2.50000E-02 0.00000E+00
 -1       920 2.70833E-02 2.50000E-02 0.00000E+00
 -1       921 2.81250E-02 2.50000E-02 0.00000E+00
 -1       922 2.91667E-02 2.50000E-02 0.00000E+00
 -1       923 3.02083E-02 2.50000E-02 0.00000E+00
 -1       924 3.12500E-02 2.50000E-02 0.00000E+00
 -1       925 3.22917E-02 2.50000E-02 0.00000E+00
 -1       926 3.43750E-02 2.50000E-02 0.00000E+00
 -1       927 3.54167E-02 2.50000E-02 0.00000E+00
 -1       928 3.64583E-02 2.50000E-02 0.00000E+00
 -1       929 3.75000E-02 2.50000E-02 0.00000E+00
 -1       930 3.85417E-02 2.50000E-02 0.00000E+00
 -1       931 3.95833E-02 2.50000E-02 0.00000E+00
 -1       932 4.06250E-02 2.50000E-02 0.00000E+00
 -1       933 4.16667E-02 2.50000E-02 0.00000E+00
 -1       934 4.27083E-02 2.50000E-02 0.00000E+00
 -1       935 4.37500E-02 2.50000E-02 0.00000E+00
 -1       936 4.47917E-02 2.50000E-02 0.00000E+00
 -1       937 4.58333E-02 2.50000E-02 0.00000E+00
 -1       938 4.68750E-02 2.50000E-02 0.00000E+00
 -1       939 4.79167E-02 2.50000E-02 0.00000E+00
 -1       940 4.89583E-02 2.50000E-02 0.00000E+00
 -1       941 5.10417E-02 2.50000E-02 0.00000E+00
 -1       942 5.20833E-02 2.50000E-02 0.00000E+00
 -1       943 5.31250E-02 2.50000E-02 0.00000E+00
 -1       944 5.41667E-02 2.50000E-02 0.00000E+00
 -1       945 5.52083E-02 2.50000E-02 0.00000E+00
 -1       946 5.62500E-02 2.50000E-02 0.00000E+00
 -1       947 5.72917E-02 2.50000E-02 0.00000E+00
 -1       948 5.83333E-02 2.50000E-02 0.00000E+00
 -1       949 5.93750E-02 2.50000E-02 0.00000E+00
 -1       950 6.04167E-02 2.50000E-02 0.00000E+00
 -1       951 6.14583E-02 2.50000E-02 0.00000E+00
 -1       952 6.25000E-02 2.50000E-02 0.00000E+00
 -1       953 6.35417E-02 2.50000E-02 0.00000E+00
 -1       954 6.45833E-02 2.50000E-02 0.00000E+00
 -1       955 6.56250E-02 2.50000E-02 0.00000E+00
 -1       956 6.77083E-02 2.50000E-02 0.00000E+00
 -1       957 6.87500E-02 2.50000E-02 0.00000E+00
 -1       958 6.97917E-02 2.50000E-02 0.00000E+00
 -1       959 7.08333E-02 2.50000E-02 0.00000E+00
 -1       960 7.18750E-02 2.50000E-02 0.00000E+00
 -1       961 7.29167E-02 2.50000E-02 0.00000E+00
 -1       962 7.39583E-02 2.50000E-02 0.00000E+00
 -1       963 7.50000E-02 2.50000E-02 0.00000E+00
 -1       964 7.60417E-02 2.50000E-02 0.00000E+00
 -1       965 7.70833E-02 2.50000E-02 0.00000E+00
 -1       966 7.81250E-02 2.50000E-02 0.00000E+00
 -1       967 7.91667E-02 2.50000E-02 0.00000E+00
 -1       968 8.02083E-02 2.50000E-02 0.00000E+00
 -1       969 8.12500E-02 2.50000E-02 0.00000E+00
 -1       970 8.22917E-02 2.50000E-02 0.00000E+00
 -1       971 8.43750E-02 2.50000E-02 0.00000E+00
 -1       972 8.54167E-02 2.50000E-02 0.00000E+00
 -1       973 8.64583E-02 2.50000E-02 0.00000E+00
 -1       974 8.75000E-02 2.50000E-02 0.00000E+00
 -1       975 8.85417E-02 2.50000E-02 0.00000E+00
 -1       976 8.95833E-02 2.50000E-02 0.00000E+00
 -1       977 9.06250E-02 2.50000E-02 0.00000E+00
 -1       978 9.16667E-02 2.50000E-02 0.00000E+00
 -1       979 9.27083E-02 2.50000E-02 0.00000E+00
 -1       980 9.37500E-02 2.50000E-02 0.00000E+00
 -1       981 9.47917E-02 2.50000E-02 0.00000E+00
 -1       982 9.58333E-02 2.50000E-02 0.00000E+00
 -1       983 9.68750E-02 2.50000E-02 0.00000E+00
 -1       984 9.79167E-02 2.50000E-02 0.00000E+00
 -1       985 9.89583E-02 2.50000E-02 0.00000E+00
 -3
    3C                           440                                     1
 -1         1   12    0    1
 -2         1        37        36
 -1         2   12    0    1
 -2        37        39        38
 -1         3   12    0    1
 -2        39        41        40
 -1         4   12    0    1
 -2        41        43        42
 -1         5   12    0    1
 -2        43        45        44
 -1         6   12    0    1
 -2        45        47        46
 -1         7   12    0    1
 -2        47        49        48
 -1         8   12    0    1
 -2        49         2        50
 -1         9   12    0    1
 -2         1        52        51
 -1        10   12    0    1
 -2        52        54        53
 -1        11   12    0    1
 -2        54         8        55
 -1        12   12    0    1
 -2         1        57        56
 -1        13   12    0    1
 -2        57        59        58
 -1        14   12    0    1
 -2        59        61        60
 -1        15   12    0    1
 -2        61        63        62
 -1        16   12    0    1
 -2        63        65        64
 -1        17   12    0    1
 -2        65        67        66
 -1        18   12    0    1
 -2        67        69        68
 -1        19   12    0    1
 -2        69         9        70
 -1        20   12    0    1
 -2         2        72        71
 -1        21   12    0    1
 -2        72        74        73
 -1        22   12    0    1
 -2        74        76        75
 -1        23   12    0    1
 -2        76        78        77
 -1        24   12    0    1
 -2        78        80        79
 -1        25   12    0    1
 -2        80        82        81
 -1        26   12    0    1
 -2        82        84        83
 -1        27   12    0    1
 -2        84         3        85
 -1        28   12    0    1
 -2         2        87        86
 -1        29   12    0    1
 -2        87        89        88
 -1        30   12    0    1
 -2        89         9        90
 -1        31   12    0    1
 -2         2        92        91
 -1        32   12    0    1
 -2        92        94        93
 -1        33   12    0    1
 -2        94        96        95
 -1        34   12    0    1
 -2        96        98        97
 -1        35   12    0    1
 -2        98       100        99
 -1        36   12    0    1
 -2       100       102       101
 -1        37   12    0    1
 -2       102       104       103
 -1        38   12    0    1
 -2       104        10       105
 -1        39   12    0    1
 -2         3       107       106
 -1        40   12    0    1
 -2       107       109       108
 -1        41   12    0    1
 -2       109       111       110
 -1        42   12    0    1
 -2       111       113       112
 -1        43   12    0    1
 -2       113       115       114
 -1        44   12    0    1
 -2       115       117       116
 -1        45   12    0    1
 -2       117       119       118
 -1        46   12    0    1
 -2       119         4       120
 -1        47   12    0    1
 -2         3       122       121
 -1        48   12    0    1
 -2       122       124       123
 -1        49   12    0    1
 -2       124        10       125
 -1        50   12    0    1
 -2         3       127       126
 -1        51   12    0    1
 -2       127       129       128
 -1        52   12    0    1
 -2       129       131       130
 -1        53   12    0    1
 -2       131       133       132
 -1        54   12    0    1
 -2       133       135       134
 -1        55   12    0    1
 -2       135       137       136
 -1        56   12    0    1
 -2       137       139       138
 -1        57   12    0    1
 -2       139        11       140
 -1        58   12    0    1
 -2         4       142       141
 -1        59   12    0    1
 -2       142       144       143
 -1        60   12    0    1
 -2       144       146       145
 -1        61   12    0    1
 -2       146       148       147
 -1        62   12    0    1
 -2       148       150       149
 -1        63   12    0    1
 -2       150       152       151
 -1        64   12    0    1
 -2       152       154       153
 -1        65   12    0    1
 -2       154         5       155
 -1        66   12    0    1
 -2         4       157       156
 -1        67   12    0    1
 -2       157       159       158
 -1        68   12    0    1
 -2       159        11       160
 -1        69   12    0    1
 -2         4       162       161
 -1        70   12    0    1
 -2       162       164       163
 -1        71   12    0    1
 -2       164       166       165
 -1        72   12    0    1
 -2       166       168       167
 -1        73   12    0    1
 -2       168       170       169
 -1        74   12    0    1
 -2       170       172       171
 -1        75   12    0    1
 -2       172       174       173
 -1        76   12    0    1
 -2       174        12       175
 -1        77   12    0    1
 -2         5       192       191
 -1        78   12    0    1
 -2       192       194       193
 -1        79   12    0    1
 -2       194        12       195
 -1        80   12    0    1
 -2         8       252       251
 -1        81   12    0    1
 -2       252       254       253
 -1        82   12    0    1
 -2       254       256       255
 -1        83   12    0    1
 -2       256       258       257
 -1        84   12    0    1
 -2       258       260       259
 -1        85   12    0    1
 -2       260       262       261
 -1        86   12    0    1
 -2       262       264       263
 -1        87   12    0    1
 -2       264         9       265
 -1        88   12    0    1
 -2         8       267       266
 -1        89   12    0    1
 -2       267       269       268
 -1        90   12    0    1
 -2       269        15       270
 -1        91   12    0    1
 -2         8       272       271
 -1        92   12    0    1
 -2       272       274       273
 -1        93   12    0    1
 -2       274       276       275
 -1        94   12    0    1
 -2       276       278       277
 -1        95   12    0    1
 -2       278       280       279
 -1        96   12    0    1
 -2       280       282       281
 -1        97   12    0    1
 -2       282       284       283
 -1        98   12    0    1
 -2       284        16       285
 -1        99   12    0    1
 -2         9       287       286
 -1       100   12    0    1
 -2       287       289       288
 -1       101   12    0    1
 -2       289       291       290
 -1       102   12    0    1
 -2       291       293       292
 -1       103   12    0    1
 -2       293       295       294
 -1       104   12    0    1
 -2       295       297       296
 -1       105   12    0    1
 -2       297       299       298
 -1       106   12    0    1
 -2       299        10       300
 -1       107   12    0    1
 -2         9       302       301
 -1       108   12    0    1
 -2       302       304       303
 -1       109   12    0    1
 -2       304        16       305
 -1       110   12    0    1
 -2         9       307       306
 -1       111   12    0    1
 -2       307       309       308
 -1       112   12    0    1
 -2       309       311       310
 -1       113   12    0    1
 -2       311       313       312
 -1       114   12    0    1
 -2       313       315       314
 -1       115   12    0    1
 -2       315       317       316
 -1       116   12    0    1
 -2       317       319       318
 -1       117   12    0    1
 -2       319        17       320
 -1       118   12    0    1
 -2        10       322       321
 -1       119   12    0    1
 -2       322       324       323
 -1       120   12    0    1
 -2       324       326       325
 -1       121   12    0    1
 -2       326       328       327
 -1       122   12    0    1
 -2       328       330       329
 -1       123   12    0    1
 -2       330       332       331
 -1       124   12    0    1
 -2       332       334       333
 -1       125   12    0    1
 -2       334        11       335
 -1       126   12    0    1
 -2        10       337       336
 -1       127   12    0    1
 -2       337       339       338
 -1       128   12    0    1
 -2       339        17       340
 -1       129   12    0    1
 -2        10       342       341
 -1       130   12    0    1
 -2       342       344       343
 -1       131   12    0    1
 -2       344       346       345
 -1       132   12    0    1
 -2       346       348       347
 -1       133   12    0    1
 -2       348       350       349
 -1       134   12    0    1
 -2       350       352       351
 -1       135   12    0    1
 -2       352       354       353
 -1       136   12    0    1
 -2       354        18       355
 -1       137   12    0    1
 -2        11       357       356
 -1       138   12    0    1
 -2       357       359       358
 -1       139   12    0    1
 -2       359       361       360
 -1       140   12    0    1
 -2       361       363       362
 -1       141   12    0    1
 -2       363       365       364
 -1       142   12    0    1
 -2       365       367       366
 -1       143   12    0    1
 -2       367       369       368
 -1       144   12    0    1
 -2       369        12       370
 -1       145   12    0    1
 -2        11       372       371
 -1       146   12    0    1
 -2       372       374       373
 -1       147   12    0    1
 -2       374        18       375
 -1       148   12    0    1
 -2        11       377       376
 -1       149   12    0    1
 -2       377       379       378
 -1       150   12    0    1
 -2       379       381       380
 -1       151   12    0    1
 -2       381       383       382
 -1       152   12    0    1
 -2       383       385       384
 -1       153   12    0    1
 -2       385       387       386
 -1       154   12    0    1
 -2       387       389       388
 -1       155   12    0    1
 -2       389        19       390
 -1       156   12    0    1
 -2        12       407       406
 -1       157   12    0    1
 -2       407       409       408
 -1       158   12    0    1
 -2       409        19       410
 -1       159   12    0    1
 -2        15       467       466
 -1       160   12    0    1
 -2       467       469       468
 -1       161   12    0    1
 -2       469       471       470
 -1       162   12    0    1
 -2       471       473       472
 -1       163   12    0    1
 -2       473       475       474
 -1       164   12    0    1
 -2       475       477       476
 -1       165   12    0    1
 -2       477       479       478
 -1       166   12    0    1
 -2       479        16       480
 -1       167   12    0    1
 -2        15       482       481
 -1       168   12    0    1
 -2       482       484       483
 -1       169   12    0    1
 -2       484        22       485
 -1       170   12    0    1
 -2        15       487       486
 -1       171   12    0    1
 -2       487       489       488
 -1       172   12    0    1
 -2       489       491       490
 -1       173   12    0    1
 -2       491       493       492
 -1       174   12    0    1
 -2       493       495       494
 -1       175   12    0    1
 -2       495       497       496
 -1       176   12    0    1
 -2       497       499       498
 -1       177   12    0    1
 -2       499        23       500
 -1       178   12    0    1
 -2        16       502       501
 -1       179   12    0    1
 -2       502       504       503
 -1       180   12    0    1
 -2       504       506       505
 -1       181   12    0    1
 -2       506       508       507
 -1       182   12    0    1
 -2       508       510       509
 -1       183   12    0    1
 -2       510       512       511
 -1       184   12    0    1
 -2       512       514       513
 -1       185   12    0    1
 -2       514        17       515
 -1       186   12    0    1
 -2        16       517       516
 -1       187   12    0    1
 -2       517       519       518
 -1       188   12    0    1
 -2       519        23       520
 -1       189   12    0    1
 -2        16       522       521
 -1       190   12    0    1
 -2       522       524       523
 -1       191   12    0    1
 -2       524       526       525
 -1       192   12    0    1
 -2       526       528       527
 -1       193   12    0    1
 -2       528       530       529
 -1       194   12    0    1
 -2       530       532       531
 -1       195   12    0    1
 -2       532       534       533
 -1       196   12    0    1
 -2       534        24       535
 -1       197   12    0    1
 -2        17       537       536
 -1       198   12    0    1
 -2       537       539       538
 -1       199   12    0    1
 -2       539       541       540
 -1       200   12    0    1
 -2       541       543       542
 -1       201   12    0    1
 -2       543       545       544
 -1       202   12    0    1
 -2       545       547       546
 -1       203   12    0    1
 -2       547       549       548
 -1       204   12    0    1
 -2       549        18       550
 -1       205   12    0    1
 -2        17       552       551
 -1       206   12    0    1
 -2       552       554       553
 -1       207   12    0    1
 -2       554        24       555
 -1       208   12    0    1
 -2        17       557       556
 -1       209   12    0    1
 -2       557       559       558
 -1       210   12    0    1
 -2       559       561       560
 -1       211   12    0    1
 -2       561       563       562
 -1       212   12    0    1
 -2       563       565       564
 -1       213   12    0    1
 -2       565       567       566
 -1       214   12    0    1
 -2       567       569       568
 -1       215   12    0    1
 -2       569        25       570
 -1       216   12    0    1
 -2        18       572       571
 -1       217   12    0    1
 -2       572       574       573
 -1       218   12    0    1
 -2       574       576       575
 -1       219   12    0    1
 -2       576       578       577
 -1       220   12    0    1
 -2       578       580       579
 -1       221   12    0    1
 -2       580       582       581
 -1       222   12    0    1
 -2       582       584       583
 -1       223   12    0    1
 -2       584        19       585
 -1       224   12    0    1
 -2        18       587       586
 -1       225   12    0    1
 -2       587       589       588
 -1       226   12    0    1
 -2       589        25       590
 -1       227   12    0    1
 -2        18       592       591
 -1       228   12    0    1
 -2       592       594       593
 -1       229   12    0    1
 -2       594       596       595
 -1       230   12    0    1
 -2       596       598       597
 -1       231   12    0    1
 -2       598       600       599
 -1       232   12    0    1
 -2       600       602       601
 -1       233   12    0    1
 -2       602       604       603
 -1       234   12    0    1
 -2       604        26       605
 -1       235   12    0    1
 -2        19       607       606
 -1       236   12    0    1
 -2       607       609       608
 -1       237   12    0    1
 -2       609       611       610
 -1       238   12    0    1
 -2       611       613       612
 -1       239   12    0    1
 -2       613       615       614
 -1       240   12    0    1
 -2       615       617       616
 -1       241   12    0    1
 -2       617       619       618
 -1       242   12    0    1
 -2       619        20       620
 -1       243   12    0    1
 -2        19       622       621
 -1       244   12    0    1
 -2       622       624       623
 -1       245   12    0    1
 -2       624        26       625
 -1       246   12    0    1
 -2        19       627       626
 -1       247   12    0    1
 -2       627       629       628
 -1       248   12    0    1
 -2       629       631       630
 -1       249   12    0    1
 -2       631       633       632
 -1       250   12    0    1
 -2       633       635       634
 -1       251   12    0    1
 -2       635       637       636
 -1       252   12    0    1
 -2       637       639       638
 -1       253   12    0    1
 -2       639        27       640
 -1       254   12    0    1
 -2        20       642       641
 -1       255   12    0    1
 -2       642       644       643
 -1       256   12    0    1
 -2       644       646       645
 -1       257   12    0    1
 -2       646       648       647
 -1       258   12    0    1
 -2       648       650       649
 -1       259   12    0    1
 -2       650       652       651
 -1       260   12    0    1
 -2       652       654       653
 -1       261   12    0    1
 -2       654        21       655
 -1       262   12    0    1
 -2        20       657       656
 -1       263   12    0    1
 -2       657       659       658
 -1       264   12    0    1
 -2       659        27       660
 -1       265   12    0    1
 -2        20       662       661
 -1       266   12    0    1
 -2       662       664       663
 -1       267   12    0    1
 -2       664       666       665
 -1       268   12    0    1
 -2       666       668       667
 -1       269   12    0    1
 -2       668       670       669
 -1       270   12    0    1
 -2       670       672       671
 -1       271   12    0    1
 -2       672       674       673
 -1       272   12    0    1
 -2       674        28       675
 -1       273   12    0    1
 -2        21       677       676
 -1       274   12    0    1
 -2       677       679       678
 -1       275   12    0    1
 -2       679        28       680
 -1       276   12    0    1
 -2        22       682       681
 -1       277   12    0    1
 -2       682       684       683
 -1       278   12    0    1
 -2       684       686       685
 -1       279   12    0    1
 -2       686       688       687
 -1       280   12    0    1
 -2       688       690       689
 -1       281   12    0    1
 -2       690       692       691
 -1       282   12    0    1
 -2       692       694       693
 -1       283   12    0    1
 -2       694        23       695
 -1       284   12    0    1
 -2        22       697       696
 -1       285   12    0    1
 -2       697       699       698
 -1       286   12    0    1
 -2       699        29       700
 -1       287   12    0    1
 -2        22       702       701
 -1       288   12    0    1
 -2       702       704       703
 -1       289   12    0    1
 -2       704       706       705
 -1       290   12    0    1
 -2       706       708       707
 -1       291   12    0    1
 -2       708       710       709
 -1       292   12    0    1
 -2       710       712       711
 -1       293   12    0    1
 -2       712       714       713
 -1       294   12    0    1
 -2       714        30       715
 -1       295   12    0    1
 -2        23       717       716
 -1       296   12    0    1
 -2       717       719       718
 -1       297   12    0    1
 -2       719       721       720
 -1       298   12    0    1
 -2       721       723       722
 -1       299   12    0    1
 -2       723       725       724
 -1       300   12    0    1
 -2       725       727       726
 -1       301   12    0    1
 -2       727       729       728
 -1       302   12    0    1
 -2       729        24       730
 -1       303   12    0    1
 -2        23       732       731
 -1       304   12    0    1
 -2       732       734       733
 -1       305   12    0    1
 -2       734        30       735
 -1       306   12    0    1
 -2        23       737       736
 -1       307   12    0    1
 -2       737       739       738
 -1       308   12    0    1
 -2       739       741       740
 -1       309   12    0    1
 -2       741       743       742
 -1       310   12    0    1
 -2       743       745       744
 -1       311   12    0    1
 -2       745       747       746
 -1       312   12    0    1
 -2       747       749       748
 -1       313   12    0    1
 -2       749        31       750
 -1       314   12    0    1
 -2        24       752       751
 -1       315   12    0    1
 -2       752       754       753
 -1       316   12    0    1
 -2       754       756       755
 -1       317   12    0    1
 -2       756       758       757
 -1       318   12    0    1
 -2       758       760       759
 -1       319   12    0    1
 -2       760       762       761
 -1       320   12    0    1
 -2       762       764       763
 -1       321   12    0    1
 -2       764        25       765
 -1       322   12    0    1
 -2        24       767       766
 -1       323   12    0    1
 -2       767       769       768
 -1       324   12    0    1
 -2       769        31       770
 -1       325   12    0    1
 -2        24       772       771
 -1       326   12    0    1
 -2       772       774       773
 -1       327   12    0    1
 -2       774       776       775
 -1       328   12    0    1
 -2       776       778       777
 -1       329   12    0    1
 -2       778       780       779
 -1       330   12    0    1
 -2       780       782       781
 -1       331   12    0    1
 -2       782       784       783
 -1       332   12    0    1
 -2       784        32       785
 -1       333   12    0    1
 -2        25       787       786
 -1       334   12    0    1
 -2       787       789       788
 -1       335   12    0    1
 -2       789       791       790
 -1       336   12    0    1
 -2       791       793       792
 -1       337   12    0    1
 -2       793       795       794
 -1       338   12    0    1
 -2       795       797       796
 -1       339   12    0    1
 -2       797       799       798
 -1       340   12    0    1
 -2       799        26       800
 -1       341   12    0    1
 -2        25       802       801
 -1       342   12    0    1
 -2       802       804       803
 -1       343   12    0    1
 -2       804        32       805
 -1       344   12    0    1
 -2        25       807       806
 -1       345   12    0    1
 -2       807       809       808
 -1       346   12    0    1
 -2       809       811       810
 -1       347   12    0    1
 -2       811       813       812
 -1       348   12    0    1
 -2       813       815       814
 -1       349   12    0    1
 -2       815       817       816
 -1       350   12    0    1
 -2       817       819       818
 -1       351   12    0    1
 -2       819        33       820
 -1       352   12    0    1
 -2        26       822       821
 -1       353   12    0    1
 -2       822       824       823
 -1       354   12    0    1
 -2       824       826       825
 -1       355   12    0    1
 -2       826       828       827
 -1       356   12    0    1
 -2       828       830       829
 -1       357   12    0    1
 -2       830       832       831
 -1       358   12    0    1
 -2       832       834       833
 -1       359   12    0    1
 -2       834        27       835
 -1       360   12    0    1
 -2        26       837       836
 -1       361   12    0    1
 -2       837       839       838
 -1       362   12    0    1
 -2       839        33       840
 -1       363   12    0    1
 -2        26       842       841
 -1       364   12    0    1
 -2       842       844       843
 -1       365   12    0    1
 -2       844       846       845
 -1       366   12    0    1
 -2       846       848       847
 -1       367   12    0    1
 -2       848       850       849
 -1       368   12    0    1
 -2       850       852       851
 -1       369   12    0    1
 -2       852       854       853
 -1       370   12    0    1
 -2       854        34       855
 -1       371   12    0    1
 -2        27       857       856
 -1       372   12    0    1
 -2       857       859       858
 -1       373   12    0    1
 -2       859       861       860
 -1       374   12    0    1
 -2       861       863       862
 -1       375   12    0    1
 -2       863       865       864
 -1       376   12    0    1
 -2       865       867       866
 -1       377   12    0    1
 -2       867       869       868
 -1       378   12    0    1
 -2       869        28       870
 -1       379   12    0    1
 -2        27       872       871
 -1       380   12    0    1
 -2       872       874       873
 -1       381   12    0    1
 -2       874        34       875
 -1       382   12    0    1
 -2        27       877       876
 -1       383   12    0    1
 -2       877       879       878
 -1       384   12    0    1
 -2       879       881       880
 -1       385   12    0    1
 -2       881       883       882
 -1       386   12    0    1
 -2       883       885       884
 -1       387   12    0    1
 -2       885       887       886
 -1       388   12    0    1
 -2       887       889       888
 -1       389   12    0    1
 -2       889        35       890
 -1       390   12    0    1
 -2        28       892       891
 -1       391   12    0    1
 -2       892       894       893
 -1       392   12    0    1
 -2       894        35       895
 -1       393   12    0    1
 -2        29       897       896
 -1       394   12    0    1
 -2       897       899       898
 -1       395   12    0    1
 -2       899       901       900
 -1       396   12    0    1
 -2       901       903       902
 -1       397   12    0    1
 -2       903       905       904
 -1       398   12    0    1
 -2       905       907       906
 -1       399   12    0    1
 -2       907       909       908
 -1       400   12    0    1
 -2       909        30       910
 -1       401   12    0    1
 -2        30       912       911
 -1       402   12    0    1
 -2       912       914       913
 -1       403   12    0    1
 -2       914       916       915
 -1       404   12    0    1
 -2       916       918       917
 -1       405   12    0    1
 -2       918       920       919
 -1       406   12    0    1
 -2       920       922       921
 -1       407   12    0    1
 -2       922       924       923
 -1       408   12    0    1
 -2       924        31       925
 -1       409   12    0    1
 -2        31       927       926
 -1       410   12    0    1
 -2       927       929       928
 -1       411   12    0    1
 -2       929       931       930
 -1       412   12    0    1
 -2       931       933       932
 -1       413   12    0    1
 -2       933       935       934
 -1       414   12    0    1
 -2       935       937       936
 -1       415   12    0    1
 -2       937       939       938
 -1       416   12    0    1
 -2       939        32       940
 -1       417   12    0    1
 -2        32       942       941
 -1       418   12    0    1
 -2       942       944       943
 -1       419   12    0    1
 -2       944       946       945
 -1       420   12    0    1
 -2       946       948       947
 -1       421   12    0    1
 -2       948       950       949
 -1       422   12    0    1
 -2       950       952       951
 -1       423   12    0    1
 -2       952       954       953
 -1       424   12    0    1
 -2       954        33       955
 -1       425   12    0    1
 -2        33       957       956
 -1       426   12    0    1
 -2       957       959       958
 -1       427   12    0    1
 -2       959       961       960
 -1       428   12    0    1
 -2       961       963       962
 -1       429   12    0    1
 -2       963       965       964
 -1       430   12    0    1
 -2       965       967       966
 -1       431   12    0    1
 -2       967       969       968
 -1       432   12    0    1
 -2       969        34       970
 -1       433   12    0    1
 -2        34       972       971
 -1       434   12    0    1
 -2       972       974       973
 -1       435   12    0    1
 -2       974       976       975
 -1       436   12    0    1
 -2       976       978       977
 -1       437   12    0    1
 -2       978       980       979
 -1       438   12    0    1
 -2       980       982       981
 -1       439   12    0    1
 -2       982       984       983
 -1       440   12    0    1
 -2       984        35       985
 -3
    1PSTEP                         1           1           1          
  100CL  101 1.000000000         841                     0    1           1
 -4  DISP        4    1
 -5  D1          1    2    1    0
 -5  D2          1    2    2    0
 -5  D3          1    2    3    0
 -5  ALL         1    2    0    0    1ALL
 -1         1 8.18581E-05 0.00000E+00 0.00000E+00
 -1         2 6.44001E-05 0.00000E+00 0.00000E+00
 -1         3 5.75437E-05 0.00000E+00 0.00000E+00
 -1         4 5.56751E-05 0.00000E+00 0.00000E+00
 -1         5 5.56780E-05 0.00000E+00 0.00000E+00
 -1         8 5.50172E-05-1.14981E-06 0.00000E+00
 -1         9 5.38995E-05 1.34207E-06 0.00000E+00
 -1        10 5.23419E-05-2.49788E-06 0.00000E+00
 -1        11 5.18545E-05-6.19417E-07 0.00000E+00
 -1        12 5.24768E-05 2.92426E-06 0.00000E+00
 -1        15 2.35855E-05-1.80523E-06 0.00000E+00
 -1        16 3.09170E-05 1.54469E-06 0.00000E+00
 -1        17 3.26950E-05-5.01930E-06 0.00000E+00
 -1        18 3.85244E-05-1.16765E-06 0.00000E+00
 -1        19 4.29689E-05 5.74548E-06 0.00000E+00
 -1        20 4.40346E-05 5.56861E-05 0.00000E+00
 -1        21 4.39734E-05 1.20480E-04 0.00000E+00
 -1        22 9.54480E-06-1.14213E-06 0.00000E+00
 -1        23 1.24593E-05 1.98551E-06 0.00000E+00
 -1        24 1.45999E-05-5.68117E-06 0.00000E+00
 -1        25 2.53962E-05-8.84392E-07 0.00000E+00
 -1        26 3.15366E-05 7.41007E-06 0.00000E+00
 -1        27 2.74654E-05 5.44094E-05 0.00000E+00
 -1        28 2.41921E-05 1.19339E-04 0.00000E+00
 -1        29 0.00000E+00 0.00000E+00 0.00000E+00
 -1        30 4.65969E-06 2.39569E-06 0.00000E+00
 -1        31 6.03227E-06-4.66564E-06 0.00000E+00
 -1        32 0.00000E+00 0.00000E+00 0.00000E+00
 -1        33 1.38991E-05 1.10411E-05 0.00000E+00
 -1        34 1.21833E-05 5.43110E-05 0.00000E+00
 -1        35 7.89805E-06 1.18728E-04 0.00000E+00
 -1        36 8.07900E-05-2.87859E-21 0.00000E+00
 -1        37 7.96983E-05 5.10536E-21-1.32349E-23
 -1        38 7.86070E-05 2.77205E-20-2.64698E-23
 -1        39 7.75121E-05 3.69121E-20 1.32349E-23
 -1        40 7.64166E-05 3.65614E-20-2.64698E-23
 -1        41 7.53206E-05 2.40412E-20 1.32349E-23
 -1        42 7.42243E-05 1.22224E-20-2.64698E-23
 -1        43 7.31279E-05 1.69539E-20-1.32349E-23
 -1        44 7.20315E-05 1.24342E-20 0.00000E+00
 -1        45 7.09352E-05 1.06541E-21 1.32349E-23
 -1        46 6.98392E-05 9.93278E-21 0.00000E+00
 -1        47 6.87438E-05 1.36121E-20 1.32349E-23
 -1        48 6.76490E-05 7.16669E-21-2.64698E-23
 -1        49 6.65580E-05 0.00000E+00 0.00000E+00
 -1        50 6.54665E-05-8.73503E-22 0.00000E+00
 -1        51 8.00905E-05-2.00797E-07 0.00000E+00
 -1        52 7.68324E-05-3.87438E-07 0.00000E+00
 -1        53 7.23840E-05-5.73623E-07 0.00000E+00
 -1        54 6.70570E-05-7.61603E-07 0.00000E+00
 -1        55 6.11638E-05-9.52458E-07 4.34270E-24
 -1        56 8.04400E-05-6.72929E-07-2.64698E-23
 -1        57 7.90506E-05-1.54862E-06 2.64698E-23
 -1        58 7.77086E-05-2.54765E-06 0.00000E+00
 -1        59 7.63823E-05-3.60712E-06 0.00000E+00
 -1        60 7.50522E-05-4.65856E-06 5.29396E-23
 -1        61 7.36931E-05-5.63585E-06 0.00000E+00
 -1        62 7.22815E-05-6.47352E-06 0.00000E+00
 -1        63 7.07937E-05-7.10853E-06 0.00000E+00
 -1        64 6.92073E-05-7.48069E-06-5.29396E-23
 -1        65 6.75015E-05-7.53380E-06 0.00000E+00
 -1        66 6.56566E-05-7.21627E-06-5.29396E-23
 -1        67 6.36565E-05-6.48183E-06 2.64698E-23
 -1        68 6.14852E-05-5.29069E-06 0.00000E+00
 -1        69 5.91372E-05-3.60735E-06 1.32349E-23
 -1        70 5.65930E-05-1.40909E-06 0.00000E+00
 -1        71 6.39677E-05 6.58105E-21 1.32349E-23
 -1        72 6.35384E-05 8.38761E-21 0.00000E+00
 -1        73 6.31090E-05 1.18684E-20-1.32349E-23
 -1        74 6.26801E-05 1.40009E-20 0.00000E+00
 -1        75 6.22513E-05 1.89673E-20 1.32349E-23
 -1        76 6.18225E-05 1.90417E-20 0.00000E+00
 -1        77 6.13938E-05 2.29973E-20 1.32349E-23
 -1        78 6.09651E-05 2.79488E-20 6.61744E-24
 -1        79 6.05364E-05 2.53068E-20 0.00000E+00
 -1        80 6.01078E-05 1.41431E-20 0.00000E+00
 -1        81 5.96792E-05 1.13506E-20 1.32349E-23
 -1        82 5.92507E-05 1.10214E-20-6.61744E-24
 -1        83 5.88224E-05 1.22836E-20-1.32349E-23
 -1        84 5.83947E-05 3.24255E-21 6.61744E-24
 -1        85 5.79669E-05-2.53117E-21 1.32349E-23
 -1        86 6.41186E-05 2.03166E-07-3.30872E-24
 -1        87 6.32642E-05 4.36625E-07 0.00000E+00
 -1        88 6.18268E-05 6.68445E-07 3.30872E-24
 -1        89 5.97952E-05 9.00710E-07 0.00000E+00
 -1        90 5.71572E-05 1.13271E-06 4.13590E-25
 -1        91 6.37179E-05-3.21277E-07 1.32349E-23
 -1        92 6.30610E-05-7.37347E-07 0.00000E+00
 -1        93 6.24295E-05-1.22060E-06 2.64698E-23
 -1        94 6.18127E-05-1.74689E-06 1.32349E-23
 -1        95 6.12023E-05-2.29077E-06 0.00000E+00
 -1        96 6.05888E-05-2.82713E-06 0.00000E+00
 -1        97 5.99630E-05-3.33085E-06 0.00000E+00
 -1        98 5.93156E-05-3.77711E-06 0.00000E+00
 -1        99 5.86376E-05-4.14144E-06 0.00000E+00
 -1       100 5.79199E-05-4.39997E-06 1.32349E-23
 -1       101 5.71539E-05-4.52954E-06 2.64698E-23
 -1       102 5.63316E-05-4.50786E-06-1.32349E-23
 -1       103 5.54448E-05-4.31376E-06 0.00000E+00
 -1       104 5.44877E-05-3.92666E-06 1.32349E-23
 -1       105 5.34510E-05-3.32873E-06-1.32349E-23
 -1       106 5.74173E-05 2.48981E-21 0.00000E+00
 -1       107 5.72995E-05-6.19351E-21 3.30872E-24
 -1       108 5.71816E-05-1.25740E-20-3.30872E-24
 -1       109 5.70651E-05-2.05343E-20 0.00000E+00
 -1       110 5.69487E-05-2.48191E-20-3.30872E-24
 -1       111 5.68325E-05-2.82246E-20 0.00000E+00
 -1       112 5.67165E-05-2.76328E-20 0.00000E+00
 -1       113 5.66005E-05-3.01094E-20 0.00000E+00
 -1       114 5.64845E-05-3.33408E-20 0.00000E+00
 -1       115 5.63685E-05-3.89375E-20 1.65436E-24
 -1       116 5.62526E-05-4.13367E-20 0.00000E+00
 -1       117 5.61367E-05-3.18738E-20 0.00000E+00
 -1       118 5.60208E-05-1.84126E-20 3.30872E-24
 -1       119 5.59051E-05-9.61060E-21 1.65436E-24
 -1       120 5.57894E-05 1.84461E-22 0.00000E+00
 -1       121 5.73194E-05-4.12450E-07 1.32349E-23
 -1       122 5.67308E-05-8.29034E-07-6.61744E-24
 -1       123 5.58575E-05-1.24573E-06 1.32349E-23
 -1       124 5.47804E-05-1.66313E-06 6.61744E-24
 -1       125 5.35811E-05-2.08076E-06 0.00000E+00
 -1       126 5.72358E-05-1.67575E-07 0.00000E+00
 -1       127 5.69549E-05-4.07822E-07-6.61744E-24
 -1       128 5.66941E-05-7.01569E-07 1.32349E-23
 -1       129 5.64461E-05-1.02948E-06 6.61744E-24
 -1       130 5.62036E-05-1.37208E-06 0.00000E+00
 -1       131 5.59593E-05-1.70986E-06 6.61744E-24
 -1       132 5.57059E-05-2.02335E-06 0.00000E+00
 -1       133 5.54361E-05-2.29315E-06 0.00000E+00
 -1       134 5.51428E-05-2.49999E-06 0.00000E+00
 -1       135 5.48187E-05-2.62481E-06 0.00000E+00
 -1       136 5.44568E-05-2.64878E-06-1.32349E-23
 -1       137 5.40504E-05-2.55337E-06 6.61744E-24
 -1       138 5.35925E-05-2.32050E-06 0.00000E+00
 -1       139 5.30776E-05-1.93215E-06-3.30872E-24
 -1       140 5.24977E-05-1.37160E-06 0.00000E+00
 -1       141 5.56695E-05 8.05886E-21-1.65436E-24
 -1       142 5.56675E-05 1.24538E-20 4.13590E-25
 -1       143 5.56655E-05 2.74474E-20 4.13590E-25
 -1       144 5.56639E-05 3.86271E-20-1.03398E-25
 -1       145 5.56625E-05 3.78650E-20 0.00000E+00
 -1       146 5.56611E-05 3.62663E-20 0.00000E+00
 -1       147 5.56598E-05 3.75627E-20 0.00000E+00
 -1       148 5.56586E-05 3.88592E-20 0.00000E+00
 -1       149 5.56573E-05 4.03622E-20 0.00000E+00
 -1       150 5.56562E-05 3.82323E-20 0.00000E+00
 -1       151 5.56553E-05 3.42704E-20-4.13590E-25
 -1       152 5.56548E-05 2.17582E-20 4.13590E-25
 -1       153 5.56546E-05 1.00327E-20 0.00000E+00
 -1       154 5.56570E-05 5.45205E-21-1.65436E-24
 -1       155 5.56592E-05 2.94518E-21 0.00000E+00
 -1       156 5.55223E-05-1.01830E-07 0.00000E+00
 -1       157 5.51137E-05-2.04542E-07 0.00000E+00
 -1       158 5.44957E-05-3.07386E-07 0.00000E+00
 -1       159 5.37151E-05-4.10723E-07-1.65436E-24
 -1       160 5.28191E-05-5.14142E-07 0.00000E+00
 -1       161 5.55683E-05-6.76832E-08 0.00000E+00
 -1       162 5.54730E-05-1.70035E-07-1.65436E-24
 -1       163 5.53851E-05-2.92026E-07 0.00000E+00
 -1       164 5.52989E-05-4.19191E-07 0.00000E+00
 -1       165 5.52092E-05-5.36900E-07 0.00000E+00
 -1       166 5.51104E-05-6.30612E-07-1.65436E-24
 -1       167 5.49972E-05-6.85799E-07-3.30872E-24
 -1       168 5.48641E-05-6.87986E-07 0.00000E+00
 -1       169 5.47057E-05-6.22755E-07 3.30872E-24
 -1       170 5.45168E-05-4.75747E-07 0.00000E+00
 -1       171 5.42920E-05-2.32715E-07 0.00000E+00
 -1       172 5.40264E-05 1.20622E-07 1.65436E-24
 -1       173 5.37145E-05 5.98197E-07 0.00000E+00
 -1       174 5.33540E-05 1.21489E-06 6.46235E-26
 -1       175 5.29358E-05 1.98306E-06 0.00000E+00
 -1       191 5.55890E-05 4.84814E-07 0.00000E+00
 -1       192 5.53228E-05 9.73644E-07 0.00000E+00
 -1       193 5.48782E-05 1.46313E-06 1.32349E-23
 -1       194 5.42554E-05 1.95246E-06 0.00000E+00
 -1       195 5.34545E-05 2.44078E-06 0.00000E+00
 -1       251 5.49295E-05 3.24685E-06 0.00000E+00
 -1       252 5.48572E-05 6.15944E-06 3.30872E-24
 -1       253 5.47877E-05 7.78245E-06-3.30872E-24
 -1       254 5.47209E-05 8.31231E-06 0.00000E+00
 -1       255 5.46545E-05 7.94580E-06 0.00000E+00
 -1       256 5.45879E-05 6.88032E-06-1.65436E-24
 -1       257 5.45208E-05 5.31364E-06 3.30872E-24
 -1       258 5.44533E-05 3.44383E-06 0.00000E+00
 -1       259 5.43857E-05 1.46907E-06 0.00000E+00
 -1       260 5.43181E-05-4.12337E-07-8.27181E-25
 -1       261 5.42509E-05-2.00214E-06 0.00000E+00
 -1       262 5.41841E-05-3.10231E-06-1.65436E-24
 -1       263 5.41175E-05-3.51503E-06-3.30872E-24
 -1       264 5.40495E-05-3.04298E-06-1.65436E-24
 -1       265 5.39804E-05-1.48906E-06 3.30872E-24
 -1       266 4.93820E-05-1.26966E-06 0.00000E+00
 -1       267 4.33826E-05-1.38258E-06 1.65436E-24
 -1       268 3.74108E-05-1.49540E-06 3.30872E-24
 -1       269 3.18594E-05-1.60409E-06-1.65436E-24
 -1       270 2.71208E-05-1.70877E-06 0.00000E+00
 -1       271 5.20818E-05 2.92317E-06-2.64698E-23
 -1       272 4.95922E-05 5.69705E-06 0.00000E+00
 -1       273 4.75389E-05 7.31984E-06 2.64698E-23
 -1       274 4.58576E-05 7.93705E-06 0.00000E+00
 -1       275 4.44926E-05 7.71074E-06 5.29396E-23
 -1       276 4.33786E-05 6.81190E-06 0.00000E+00
 -1       277 4.24489E-05 5.42008E-06 5.29396E-23
 -1       278 4.16339E-05 3.72103E-06-2.64698E-23
 -1       279 4.08629E-05 1.90421E-06-5.29396E-23
 -1       280 4.00647E-05 1.60706E-07-2.64698E-23
 -1       281 3.91683E-05-1.31942E-06 5.29396E-23
 -1       282 3.81048E-05-2.34927E-06-1.32349E-23
 -1       283 3.68055E-05-2.74780E-06 0.00000E+00
 -1       284 3.52113E-05-2.33981E-06-1.32349E-23
 -1       285 3.32515E-05-9.64942E-07 2.64698E-23
 -1       286 5.37914E-05 4.35210E-06 0.00000E+00
 -1       287 5.36936E-05 6.36140E-06 0.00000E+00
 -1       288 5.35971E-05 7.48937E-06 0.00000E+00
 -1       289 5.35023E-05 7.85704E-06 0.00000E+00
 -1       290 5.34078E-05 7.58584E-06 0.00000E+00
 -1       291 5.33132E-05 6.79779E-06 1.65436E-24
 -1       292 5.32183E-05 5.61533E-06 3.30872E-24
 -1       293 5.31232E-05 4.16117E-06 1.65436E-24
 -1       294 5.30278E-05 2.55829E-06 0.00000E+00
 -1       295 5.29323E-05 9.29775E-07-1.65436E-24
 -1       296 5.28369E-05-6.01301E-07 3.30872E-24
 -1       297 5.27414E-05-1.91191E-06-1.65436E-24
 -1       298 5.26459E-05-2.87918E-06 0.00000E+00
 -1       299 5.25488E-05-3.38061E-06-1.65436E-24
 -1       300 5.24520E-05-3.29391E-06-6.61744E-24
 -1       301 5.01472E-05 1.36416E-06-1.65436E-24
 -1       302 4.63095E-05 1.40007E-06 2.06795E-25
 -1       303 4.24267E-05 1.43857E-06 0.00000E+00
 -1       304 3.85398E-05 1.47767E-06 0.00000E+00
 -1       305 3.46898E-05 1.51548E-06 0.00000E+00
 -1       306 5.14978E-05 3.93034E-06 0.00000E+00
 -1       307 4.94085E-05 5.56117E-06-1.32349E-23
 -1       308 4.76401E-05 6.34379E-06-2.64698E-23
 -1       309 4.61451E-05 6.37998E-06 2.64698E-23
 -1       310 4.48860E-05 5.78544E-06 0.00000E+00
 -1       311 4.38163E-05 4.68200E-06 2.64698E-23
 -1       312 4.28887E-05 3.19824E-06 0.00000E+00
 -1       313 4.20532E-05 1.46745E-06 2.64698E-23
 -1       314 4.12590E-05-3.73909E-07 5.29396E-23
 -1       315 4.04548E-05-2.18790E-06 0.00000E+00
 -1       316 3.95893E-05-3.83709E-06 0.00000E+00
 -1       317 3.86128E-05-5.18589E-06-2.64698E-23
 -1       318 3.74754E-05-6.10285E-06 0.00000E+00
 -1       319 3.61357E-05-6.45996E-06 1.32349E-23
 -1       320 3.45408E-05-6.14101E-06 0.00000E+00
 -1       321 5.22944E-05-1.47269E-06-6.61744E-24
 -1       322 5.22629E-05-7.79935E-07 0.00000E+00
 -1       323 5.22313E-05-3.74672E-07 0.00000E+00
 -1       324 5.22021E-05-2.11577E-07 8.27181E-25
 -1       325 5.21733E-05-2.45343E-07 1.65436E-24
 -1       326 5.21449E-05-4.30583E-07 0.00000E+00
 -1       327 5.21166E-05-7.21891E-07 8.27181E-25
 -1       328 5.20884E-05-1.07382E-06 0.00000E+00
 -1       329 5.20603E-05-1.44092E-06 0.00000E+00
 -1       330 5.20321E-05-1.77774E-06 4.13590E-25
 -1       331 5.20039E-05-2.03881E-06 0.00000E+00
 -1       332 5.19756E-05-2.17872E-06 0.00000E+00
 -1       333 5.19472E-05-2.15205E-06 1.65436E-24
 -1       334 5.19180E-05-1.91346E-06-8.27181E-25
 -1       335 5.18888E-05-1.41759E-06 0.00000E+00
 -1       336 5.02696E-05-2.91652E-06 1.32349E-23
 -1       337 4.70297E-05-3.33836E-06 0.00000E+00
 -1       338 4.31355E-05-3.76205E-06 0.00000E+00
 -1       339 3.91037E-05-4.18523E-06 0.00000E+00
 -1       340 3.54520E-05-4.60723E-06 1.32349E-23
 -1       341 5.12247E-05-1.70363E-06-1.32349E-23
 -1       342 5.01949E-05-1.18477E-06 1.32349E-23
 -1       343 4.92542E-05-9.01748E-07-2.64698E-23
 -1       344 4.83864E-05-8.19387E-07 1.32349E-23
 -1       345 4.75794E-05-8.99560E-07 0.00000E+00
 -1       346 4.68185E-05-1.10365E-06 0.00000E+00
 -1       347 4.60890E-05-1.39205E-06 0.00000E+00
 -1       348 4.53761E-05-1.72461E-06 1.32349E-23
 -1       349 4.46647E-05-2.06082E-06-2.64698E-23
 -1       350 4.39395E-05-2.36018E-06 0.00000E+00
 -1       351 4.31857E-05-2.58244E-06 2.64698E-23
 -1       352 4.23888E-05-2.68777E-06 1.32349E-23
 -1       353 4.15342E-05-2.63743E-06 2.64698E-23
 -1       354 4.06116E-05-2.39222E-06 0.00000E+00
 -1       355 3.96020E-05-1.91779E-06 1.32349E-23
 -1       356 5.18831E-05 2.07336E-07 1.65436E-24
 -1       357 5.19196E-05 7.80420E-07 0.00000E+00
 -1       358 5.19561E-05 1.13689E-06 2.06795E-25
 -1       359 5.19937E-05 1.31393E-06 0.00000E+00
 -1       360 5.20316E-05 1.34863E-06-8.27181E-25
 -1       361 5.20697E-05 1.27805E-06 0.00000E+00
 -1       362 5.21078E-05 1.13919E-06 0.00000E+00
 -1       363 5.21460E-05 9.69077E-07 0.00000E+00
 -1       364 5.21843E-05 8.04677E-07 0.00000E+00
 -1       365 5.22227E-05 6.82986E-07 8.27181E-25
 -1       366 5.22612E-05 6.41007E-07 0.00000E+00
 -1       367 5.23001E-05 7.15768E-07-8.27181E-25
 -1       368 5.23393E-05 9.44340E-07 0.00000E+00
 -1       369 5.23806E-05 1.36382E-06 1.65436E-24
 -1       370 5.24216E-05 2.01144E-06 6.61744E-24
 -1       371 5.03120E-05-7.12799E-07-3.30872E-24
 -1       372 4.80173E-05-8.05003E-07-1.65436E-24
 -1       373 4.53302E-05-8.98002E-07-3.30872E-24
 -1       374 4.26119E-05-9.90128E-07 0.00000E+00
 -1       375 4.02233E-05-1.08151E-06 1.65436E-24
 -1       376 5.11927E-05 8.38091E-08 0.00000E+00
 -1       377 5.06112E-05 5.45598E-07 0.00000E+00
 -1       378 5.01040E-05 8.10565E-07-1.32349E-23
 -1       379 4.96535E-05 9.20153E-07-6.61744E-24
 -1       380 4.92450E-05 9.17332E-07-1.32349E-23
 -1       381 4.88623E-05 8.45017E-07 6.61744E-24
 -1       382 4.84894E-05 7.46459E-07 0.00000E+00
 -1       383 4.81101E-05 6.64949E-07 0.00000E+00
 -1       384 4.77082E-05 6.43730E-07 1.32349E-23
 -1       385 4.72677E-05 7.25845E-07 0.00000E+00
 -1       386 4.67726E-05 9.53941E-07 0.00000E+00
 -1       387 4.62074E-05 1.37030E-06 6.61744E-24
 -1       388 4.55564E-05 2.01630E-06 0.00000E+00
 -1       389 4.48076E-05 2.93378E-06 3.30872E-24
 -1       390 4.39414E-05 4.16089E-06-1.65436E-24
 -1       406 5.12691E-05 3.39437E-06 0.00000E+00
 -1       407 4.98890E-05 3.86819E-06-6.61744E-24
 -1       408 4.83520E-05 4.34227E-06 1.32349E-23
 -1       409 4.66750E-05 4.81533E-06-6.61744E-24
 -1       410 4.48748E-05 5.28596E-06 1.32349E-23
 -1       466 2.40230E-05 3.87656E-07 0.00000E+00
 -1       467 2.44822E-05 1.67219E-06 0.00000E+00
 -1       468 2.49419E-05 2.19152E-06 0.00000E+00
 -1       469 2.54047E-05 2.08628E-06 0.00000E+00
 -1       470 2.58679E-05 1.49469E-06-1.32349E-23
 -1       471 2.63315E-05 5.52921E-07-6.61744E-24
 -1       472 2.67949E-05-6.04115E-07 0.00000E+00
 -1       473 2.72584E-05-1.84242E-06 0.00000E+00
 -1       474 2.77219E-05-3.02834E-06 1.32349E-23
 -1       475 2.81855E-05-4.02794E-06 6.61744E-24
 -1       476 2.86490E-05-4.70662E-06 0.00000E+00
 -1       477 2.91121E-05-4.92845E-06 0.00000E+00
 -1       478 2.95744E-05-4.55577E-06 0.00000E+00
 -1       479 3.00322E-05-3.44848E-06 0.00000E+00
 -1       480 3.04891E-05-1.46360E-06 0.00000E+00
 -1       481 2.08434E-05-1.70013E-06 1.65436E-24
 -1       482 1.81542E-05-1.58945E-06 8.27181E-25
 -1       483 1.55985E-05-1.47856E-06 3.30872E-24
 -1       484 1.32575E-05-1.36661E-06 1.65436E-24
 -1       485 1.12125E-05-1.25389E-06 0.00000E+00
 -1       486 2.21648E-05 4.24213E-07 0.00000E+00
 -1       487 2.09301E-05 2.09437E-06 0.00000E+00
 -1       488 1.98828E-05 3.26880E-06 1.32349E-23
 -1       489 1.89969E-05 4.00427E-06 0.00000E+00
 -1       490 1.82525E-05 4.36217E-06 0.00000E+00
 -1       491 1.76259E-05 4.40486E-06-6.61744E-24
 -1       492 1.70933E-05 4.19651E-06 1.32349E-23
 -1       493 1.66302E-05 3.80254E-06 0.00000E+00
 -1       494 1.62118E-05 3.28930E-06-1.32349E-23
 -1       495 1.58130E-05 2.72381E-06 6.61744E-24
 -1       496 1.54087E-05 2.17336E-06-1.32349E-23
 -1       497 1.49741E-05 1.70524E-06 6.61744E-24
 -1       498 1.44840E-05 1.38616E-06-1.32349E-23
 -1       499 1.39161E-05 1.28296E-06 0.00000E+00
 -1       500 1.32427E-05 1.45932E-06 0.00000E+00
 -1       501 3.10138E-05 4.48706E-06 0.00000E+00
 -1       502 3.11249E-05 6.27997E-06-8.27181E-25
 -1       503 3.12372E-05 7.07528E-06-3.30872E-24
 -1       504 3.13516E-05 7.02483E-06 0.00000E+00
 -1       505 3.14661E-05 6.27947E-06 0.00000E+00
 -1       506 3.15804E-05 4.98939E-06 0.00000E+00
 -1       507 3.16942E-05 3.30430E-06 3.30872E-24
 -1       508 3.18077E-05 1.37344E-06 0.00000E+00
 -1       509 3.19210E-05-6.54129E-07-3.30872E-24
 -1       510 3.20343E-05-2.62945E-06 0.00000E+00
 -1       511 3.21478E-05-4.40356E-06 0.00000E+00
 -1       512 3.22615E-05-5.82724E-06 0.00000E+00
 -1       513 3.23753E-05-6.75096E-06-3.30872E-24
 -1       514 3.24872E-05-7.02472E-06 0.00000E+00
 -1       515 3.25991E-05-6.49776E-06 0.00000E+00
 -1       516 2.71497E-05 1.60895E-06-1.65436E-24
 -1       517 2.33194E-05 1.68309E-06 0.00000E+00
 -1       518 1.96805E-05 1.75756E-06 0.00000E+00
 -1       519 1.64875E-05 1.83389E-06-5.16988E-26
 -1       520 1.39956E-05 1.91239E-06 0.00000E+00
 -1       521 2.87711E-05 4.19726E-06 2.64698E-23
 -1       522 2.69756E-05 5.80836E-06-1.32349E-23
 -1       523 2.55265E-05 6.50342E-06-2.64698E-23
 -1       524 2.43704E-05 6.40172E-06 0.00000E+00
 -1       525 2.34632E-05 5.63448E-06 0.00000E+00
 -1       526 2.27529E-05 4.33819E-06-1.32349E-23
 -1       527 2.21871E-05 2.65501E-06 0.00000E+00
 -1       528 2.17111E-05 7.30951E-07 0.00000E+00
 -1       529 2.12696E-05-1.28547E-06 2.64698E-23
 -1       530 2.08069E-05-3.24475E-06-1.32349E-23
 -1       531 2.02674E-05-4.99805E-06 0.00000E+00
 -1       532 1.95970E-05-6.39847E-06 0.00000E+00
 -1       533 1.87416E-05-7.30298E-06 0.00000E+00
 -1       534 1.76536E-05-7.57222E-06 0.00000E+00
 -1       535 1.62774E-05-7.07670E-06-2.64698E-23
 -1       536 3.30316E-05-3.27006E-06 0.00000E+00
 -1       537 3.33947E-05-2.02129E-06 0.00000E+00
 -1       538 3.37579E-05-1.20624E-06 0.00000E+00
 -1       539 3.41251E-05-7.59201E-07 0.00000E+00
 -1       540 3.44931E-05-6.15615E-07-1.32349E-23
 -1       541 3.48617E-05-7.11927E-07 6.61744E-24
 -1       542 3.52306E-05-9.85288E-07 0.00000E+00
 -1       543 3.55995E-05-1.37344E-06 0.00000E+00
 -1       544 3.59685E-05-1.81446E-06 0.00000E+00
 -1       545 3.63374E-05-2.24661E-06 0.00000E+00
 -1       546 3.67062E-05-2.60812E-06 0.00000E+00
 -1       547 3.70746E-05-2.83698E-06 0.00000E+00
 -1       548 3.74427E-05-2.87080E-06 1.32349E-23
 -1       549 3.78085E-05-2.64654E-06-3.30872E-24
 -1       550 3.81743E-05-2.10037E-06 0.00000E+00
 -1       551 3.00199E-05-5.13277E-06 5.79026E-24
 -1       552 2.70176E-05-5.24096E-06 1.24077E-24
 -1       553 2.38299E-05-5.34855E-06-3.30872E-24
 -1       554 2.06017E-05-5.45639E-06-3.30872E-24
 -1       555 1.74775E-05-5.56538E-06-6.61744E-24
 -1       556 3.17551E-05-3.46650E-06 0.00000E+00
 -1       557 3.09702E-05-2.33481E-06 0.00000E+00
 -1       558 3.03238E-05-1.57320E-06 0.00000E+00
 -1       559 2.97960E-05-1.12825E-06 6.61744E-24
 -1       560 2.93671E-05-9.46428E-07-1.32349E-23
 -1       561 2.90166E-05-9.73896E-07 6.61744E-24
 -1       562 2.87244E-05-1.15675E-06 1.32349E-23
 -1       563 2.84703E-05-1.44100E-06 0.00000E+00
 -1       564 2.82339E-05-1.77265E-06 6.61744E-24
 -1       565 2.79951E-05-2.09765E-06 6.61744E-24
 -1       566 2.77336E-05-2.36199E-06 6.61744E-24
 -1       567 2.74292E-05-2.51163E-06 0.00000E+00
 -1       568 2.70620E-05-2.49259E-06-6.61744E-24
 -1       569 2.66123E-05-2.25093E-06-2.48154E-24
 -1       570 2.60608E-05-1.73283E-06 4.96308E-24
 -1       571 3.87868E-05-2.90322E-07-1.24077E-24
 -1       572 3.90616E-05 3.17687E-07-8.27181E-25
 -1       573 3.93391E-05 6.99699E-07 3.30872E-24
 -1       574 3.96181E-05 9.00940E-07-1.65436E-24
 -1       575 3.98977E-05 9.66698E-07 0.00000E+00
 -1       576 4.01775E-05 9.42427E-07 3.30872E-24
 -1       577 4.04574E-05 8.73573E-07 0.00000E+00
 -1       578 4.07374E-05 8.05589E-07-6.61744E-24
 -1       579 4.10174E-05 7.83931E-07-1.32349E-23
 -1       580 4.12974E-05 8.54066E-07 0.00000E+00
 -1       581 4.15773E-05 1.06147E-06 0.00000E+00
 -1       582 4.18571E-05 1.45165E-06 0.00000E+00
 -1       583 4.21367E-05 2.07010E-06 0.00000E+00
 -1       584 4.24157E-05 2.96214E-06 0.00000E+00
 -1       585 4.26938E-05 4.17302E-06-1.32349E-23
 -1       586 3.66560E-05-1.12003E-06 0.00000E+00
 -1       587 3.44449E-05-1.07084E-06 0.00000E+00
 -1       588 3.20510E-05-1.02172E-06-1.65436E-24
 -1       589 2.96369E-05-9.73157E-07 0.00000E+00
 -1       590 2.73653E-05-9.25723E-07 0.00000E+00
 -1       591 3.79584E-05-2.57227E-07 0.00000E+00
 -1       592 3.74523E-05 4.65552E-07-3.30872E-24
 -1       593 3.70032E-05 1.03114E-06-6.61744E-24
 -1       594 3.66010E-05 1.46885E-06-3.30872E-24
 -1       595 3.62354E-05 1.80801E-06 6.61744E-24
 -1       596 3.58957E-05 2.07791E-06-3.30872E-24
 -1       597 3.55709E-05 2.30782E-06 6.61744E-24
 -1       598 3.52502E-05 2.52702E-06-3.30872E-24
 -1       599 3.49224E-05 2.76479E-06 6.61744E-24
 -1       600 3.45768E-05 3.05039E-06 1.65436E-24
 -1       601 3.42023E-05 3.41308E-06 0.00000E+00
 -1       602 3.37881E-05 3.88214E-06 0.00000E+00
 -1       603 3.33233E-05 4.48684E-06 1.65436E-24
 -1       604 3.27981E-05 5.25652E-06 6.20385E-25
 -1       605 3.22026E-05 6.22057E-06 0.00000E+00
 -1       606 4.30469E-05 7.79955E-06 6.61744E-24
 -1       607 4.31179E-05 1.00623E-05 6.61744E-24
 -1       608 4.31869E-05 1.25206E-05 0.00000E+00
 -1       609 4.32547E-05 1.51603E-05 0.00000E+00
 -1       610 4.33218E-05 1.79668E-05 0.00000E+00
 -1       611 4.33883E-05 2.09256E-05 0.00000E+00
 -1       612 4.34545E-05 2.40221E-05 0.00000E+00
 -1       613 4.35202E-05 2.72417E-05 0.00000E+00
 -1       614 4.35855E-05 3.05700E-05 0.00000E+00
 -1       615 4.36506E-05 3.39923E-05 0.00000E+00
 -1       616 4.37153E-05 3.74941E-05 0.00000E+00
 -1       617 4.37799E-05 4.10608E-05 0.00000E+00
 -1       618 4.38442E-05 4.46779E-05-3.30872E-24
 -1       619 4.39082E-05 4.83308E-05 1.65436E-24
 -1       620 4.39720E-05 5.20051E-05 0.00000E+00
 -1       621 4.09403E-05 6.02313E-06 0.00000E+00
 -1       622 3.89106E-05 6.30311E-06 0.00000E+00
 -1       623 3.69176E-05 6.58335E-06 0.00000E+00
 -1       624 3.49992E-05 6.86296E-06 1.65436E-24
 -1       625 3.31932E-05 7.14087E-06-6.61744E-24
 -1       626 4.23409E-05 7.89800E-06 0.00000E+00
 -1       627 4.16213E-05 1.02844E-05 0.00000E+00
 -1       628 4.08212E-05 1.28820E-05 1.32349E-23
 -1       629 3.99504E-05 1.56657E-05 3.30872E-24
 -1       630 3.90186E-05 1.86106E-05 6.61744E-24
 -1       631 3.80354E-05 2.16913E-05 0.00000E+00
 -1       632 3.70103E-05 2.48825E-05 0.00000E+00
 -1       633 3.59530E-05 2.81590E-05 0.00000E+00
 -1       634 3.48728E-05 3.14956E-05 0.00000E+00
 -1       635 3.37796E-05 3.48669E-05 0.00000E+00
 -1       636 3.26826E-05 3.82478E-05-3.30872E-24
 -1       637 3.15915E-05 4.16129E-05-1.65436E-24
 -1       638 3.05157E-05 4.49371E-05-3.30872E-24
 -1       639 2.94642E-05 4.81949E-05 0.00000E+00
 -1       640 2.84460E-05 5.13611E-05-2.48154E-24
 -1       641 4.40343E-05 5.94024E-05 0.00000E+00
 -1       642 4.40319E-05 6.32569E-05-2.06795E-25
 -1       643 4.40290E-05 6.72296E-05 0.00000E+00
 -1       644 4.40255E-05 7.13004E-05 0.00000E+00
 -1       645 4.40216E-05 7.54491E-05 0.00000E+00
 -1       646 4.40175E-05 7.96557E-05 1.03398E-25
 -1       647 4.40131E-05 8.39000E-05 0.00000E+00
 -1       648 4.40087E-05 8.81620E-05-5.16988E-26
 -1       649 4.40043E-05 9.24215E-05 0.00000E+00
 -1       650 4.40000E-05 9.66584E-05-5.16988E-26
 -1       651 4.39958E-05 1.00853E-04-2.58494E-26
 -1       652 4.39917E-05 1.04984E-04-5.16988E-26
 -1       653 4.39879E-05 1.09033E-04 0.00000E+00
 -1       654 4.39839E-05 1.12979E-04 0.00000E+00
 -1       655 4.39804E-05 1.16801E-04-1.65436E-24
 -1       656 4.06965E-05 5.54789E-05 0.00000E+00
 -1       657 3.77919E-05 5.52624E-05 0.00000E+00
 -1       658 3.51690E-05 5.50471E-05 6.61744E-24
 -1       659 3.26754E-05 5.48318E-05 0.00000E+00
 -1       660 3.01584E-05 5.46162E-05 3.30872E-24
 -1       661 4.28569E-05 5.94781E-05-3.30872E-24
 -1       662 4.16392E-05 6.33997E-05 0.00000E+00
 -1       663 4.03817E-05 6.74254E-05 0.00000E+00
 -1       664 3.90941E-05 7.15340E-05-3.30872E-24
 -1       665 3.77837E-05 7.57030E-05-6.61744E-24
 -1       666 3.64588E-05 7.99109E-05 3.30872E-24
 -1       667 3.51273E-05 8.41359E-05-6.61744E-24
 -1       668 3.37977E-05 8.83566E-05 0.00000E+00
 -1       669 3.24779E-05 9.25511E-05 6.61744E-24
 -1       670 3.11761E-05 9.66980E-05 0.00000E+00
 -1       671 2.99006E-05 1.00776E-04 0.00000E+00
 -1       672 2.86594E-05 1.04762E-04 3.30872E-24
 -1       673 2.74610E-05 1.08634E-04 0.00000E+00
 -1       674 2.63124E-05 1.12370E-04 3.30872E-24
 -1       675 2.52240E-05 1.15948E-04 3.30872E-24
 -1       676 4.04597E-05 1.20292E-04 3.30872E-24
 -1       677 3.70767E-05 1.20100E-04 3.30872E-24
 -1       678 3.37916E-05 1.19908E-04-6.61744E-24
 -1       679 3.05712E-05 1.19717E-04 1.65436E-24
 -1       680 2.73824E-05 1.19525E-04-3.30872E-24
 -1       681 9.72249E-06 9.12905E-08 0.00000E+00
 -1       682 9.90524E-06 9.71720E-07 1.65436E-24
 -1       683 1.00881E-05 1.54596E-06 0.00000E+00
 -1       684 1.02719E-05 1.86058E-06 0.00000E+00
 -1       685 1.04558E-05 1.96170E-06 0.00000E+00
 -1       686 1.06398E-05 1.89512E-06-3.30872E-24
 -1       687 1.08238E-05 1.70639E-06 0.00000E+00
 -1       688 1.10078E-05 1.44085E-06-3.30872E-24
 -1       689 1.11919E-05 1.14371E-06 0.00000E+00
 -1       690 1.13758E-05 8.60169E-07 0.00000E+00
 -1       691 1.15597E-05 6.35408E-07 0.00000E+00
 -1       692 1.17432E-05 5.14720E-07 0.00000E+00
 -1       693 1.19265E-05 5.43554E-07 0.00000E+00
 -1       694 1.21080E-05 7.67592E-07 1.65436E-24
 -1       695 1.22896E-05 1.23285E-06-1.65436E-24
 -1       696 7.99711E-06-9.56902E-07 3.30872E-24
 -1       697 6.31742E-06-7.66754E-07 0.00000E+00
 -1       698 4.59172E-06-5.76698E-07 0.00000E+00
 -1       699 2.90613E-06-3.85494E-07 0.00000E+00
 -1       700 1.34685E-06-1.94004E-07-6.61744E-24
 -1       701 8.87762E-06 7.56532E-08-3.30872E-24
 -1       702 8.29998E-06 1.02079E-06-1.65436E-24
 -1       703 7.81303E-06 1.72561E-06 6.61744E-24
 -1       704 7.40400E-06 2.21797E-06 0.00000E+00
 -1       705 7.06344E-06 2.52738E-06 0.00000E+00
 -1       706 6.78023E-06 2.68316E-06 3.30872E-24
 -1       707 6.54345E-06 2.71502E-06 6.61744E-24
 -1       708 6.34188E-06 2.65284E-06 0.00000E+00
 -1       709 6.16430E-06 2.52669E-06 0.00000E+00
 -1       710 5.99942E-06 2.36678E-06 0.00000E+00
 -1       711 5.83594E-06 2.20337E-06-6.61744E-24
 -1       712 5.66270E-06 2.06678E-06 0.00000E+00
 -1       713 5.46829E-06 1.98719E-06 6.61744E-24
 -1       714 5.24287E-06 1.99523E-06 0.00000E+00
 -1       715 4.97329E-06 2.12013E-06 0.00000E+00
 -1       716 1.25847E-05 2.55897E-06 6.72084E-25
 -1       717 1.27201E-05 2.54173E-06 8.27181E-25
 -1       718 1.28552E-05 2.03096E-06 3.30872E-24
 -1       719 1.29915E-05 1.12370E-06-1.65436E-24
 -1       720 1.31278E-05-8.35400E-08 3.30872E-24
 -1       721 1.32641E-05-1.49458E-06 0.00000E+00
 -1       722 1.34003E-05-3.01347E-06 0.00000E+00
 -1       723 1.35365E-05-4.54442E-06 1.65436E-24
 -1       724 1.36728E-05-5.99161E-06 0.00000E+00
 -1       725 1.38093E-05-7.25914E-06 0.00000E+00
 -1       726 1.39459E-05-8.25093E-06 3.30872E-24
 -1       727 1.40823E-05-8.87051E-06 0.00000E+00
 -1       728 1.42185E-05-9.02105E-06 3.30872E-24
 -1       729 1.43519E-05-8.60512E-06 0.00000E+00
 -1       730 1.44851E-05-7.52461E-06 1.65436E-24
 -1       731 1.12799E-05 2.04778E-06 1.03398E-25
 -1       732 9.79305E-06 2.11664E-06-4.13590E-25
 -1       733 8.19311E-06 2.18524E-06 0.00000E+00
 -1       734 6.67456E-06 2.25496E-06-8.27181E-25
 -1       735 5.43200E-06 2.32520E-06-1.65436E-24
 -1       736 1.17041E-05 2.56238E-06 0.00000E+00
 -1       737 1.10454E-05 2.83127E-06 0.00000E+00
 -1       738 1.04878E-05 2.83207E-06-1.32349E-23
 -1       739 1.00151E-05 2.59874E-06 0.00000E+00
 -1       740 9.61614E-06 2.16815E-06 0.00000E+00
 -1       741 9.27670E-06 1.57730E-06 0.00000E+00
 -1       742 8.98298E-06 8.64117E-07 0.00000E+00
 -1       743 8.72058E-06 6.70181E-08-6.61744E-24
 -1       744 8.47507E-06-7.75163E-07 1.32349E-23
 -1       745 8.23187E-06-1.62337E-06 0.00000E+00
 -1       746 7.97639E-06-2.43854E-06 0.00000E+00
 -1       747 7.69435E-06-3.18169E-06 6.61744E-24
 -1       748 7.37119E-06-3.81428E-06-1.32349E-23
 -1       749 6.99453E-06-4.29764E-06 6.61744E-24
 -1       750 6.54786E-06-4.59533E-06 0.00000E+00
 -1       751 1.52327E-05-3.72107E-06 0.00000E+00
 -1       752 1.59066E-05-2.31375E-06 0.00000E+00
 -1       753 1.65805E-05-1.38264E-06-1.32349E-23
 -1       754 1.72608E-05-8.53686E-07 6.61744E-24
 -1       755 1.79421E-05-6.55078E-07 0.00000E+00
 -1       756 1.86245E-05-7.17045E-07-1.32349E-23
 -1       757 1.93073E-05-9.71227E-07 2.64698E-23
 -1       758 1.99902E-05-1.35046E-06-1.32349E-23
 -1       759 2.06731E-05-1.78826E-06 2.64698E-23
 -1       760 2.13558E-05-2.21851E-06-1.32349E-23
 -1       761 2.20384E-05-2.57506E-06 2.64698E-23
 -1       762 2.27200E-05-2.79127E-06 0.00000E+00
 -1       763 2.34010E-05-2.79977E-06 0.00000E+00
 -1       764 2.40769E-05-2.53189E-06 0.00000E+00
 -1       765 2.47531E-05-1.91745E-06 1.32349E-23
 -1       766 1.24106E-05-5.52653E-06 0.00000E+00
 -1       767 1.04553E-05-5.35281E-06 0.00000E+00
 -1       768 8.78657E-06-5.17921E-06 0.00000E+00
 -1       769 7.45745E-06-5.00437E-06 0.00000E+00
 -1       770 6.52143E-06-4.82844E-06 0.00000E+00
 -1       771 1.31703E-05-3.88982E-06 0.00000E+00
 -1       772 1.18417E-05-2.42214E-06 0.00000E+00
 -1       773 1.06198E-05-1.24796E-06 0.00000E+00
 -1       774 9.49578E-06-3.39597E-07 0.00000E+00
 -1       775 8.46060E-06 3.30723E-07 2.64698E-23
 -1       776 7.50414E-06 7.90759E-07 0.00000E+00
 -1       777 6.61609E-06 1.06836E-06 2.64698E-23
 -1       778 5.78601E-06 1.19146E-06 0.00000E+00
 -1       779 5.00342E-06 1.18809E-06 0.00000E+00
 -1       780 4.25780E-06 1.08638E-06 0.00000E+00
 -1       781 3.53863E-06 9.14482E-07 2.64698E-23
 -1       782 2.83552E-06 7.00684E-07 0.00000E+00
 -1       783 2.13813E-06 4.73295E-07 2.64698E-23
 -1       784 1.43713E-06 2.60956E-07 0.00000E+00
 -1       785 7.23354E-07 9.23470E-08-1.32349E-23
 -1       786 2.57586E-05 2.41787E-07 3.30872E-24
 -1       787 2.61418E-05 1.10136E-06 0.00000E+00
 -1       788 2.65248E-05 1.73536E-06 0.00000E+00
 -1       789 2.69110E-05 2.18423E-06 0.00000E+00
 -1       790 2.72977E-05 2.48783E-06 0.00000E+00
 -1       791 2.76850E-05 2.68550E-06 6.61744E-24
 -1       792 2.80725E-05 2.81626E-06-1.32349E-23
 -1       793 2.84601E-05 2.91888E-06 0.00000E+00
 -1       794 2.88477E-05 3.03207E-06 0.00000E+00
 -1       795 2.92353E-05 3.19456E-06 6.61744E-24
 -1       796 2.96227E-05 3.44522E-06 0.00000E+00
 -1       797 3.00097E-05 3.82326E-06 6.61744E-24
 -1       798 3.03964E-05 4.36826E-06 0.00000E+00
 -1       799 3.07810E-05 5.12039E-06-6.61744E-24
 -1       800 3.11655E-05 6.12050E-06-6.61744E-24
 -1       801 2.25403E-05-7.36458E-07 0.00000E+00
 -1       802 1.76968E-05-5.84661E-07 1.65436E-24
 -1       803 1.19430E-05-4.37600E-07-1.65436E-24
 -1       804 6.35676E-06-2.91050E-07 1.03398E-25
 -1       805 2.01647E-06-1.38766E-07 0.00000E+00
 -1       806 2.46033E-05 1.01124E-07 0.00000E+00
 -1       807 2.38565E-05 9.25371E-07 0.00000E+00
 -1       808 2.31563E-05 1.61795E-06 0.00000E+00
 -1       809 2.24939E-05 2.20620E-06-6.61744E-24
 -1       810 2.18598E-05 2.71747E-06 0.00000E+00
 -1       811 2.12443E-05 3.17899E-06 0.00000E+00
 -1       812 2.06371E-05 3.61795E-06 1.32349E-23
 -1       813 2.00281E-05 4.06156E-06 0.00000E+00
 -1       814 1.94071E-05 4.53700E-06 1.32349E-23
 -1       815 1.87641E-05 5.07145E-06 0.00000E+00
 -1       816 1.80887E-05 5.69206E-06-6.61744E-24
 -1       817 1.73711E-05 6.42599E-06 3.30872E-24
 -1       818 1.66011E-05 7.30039E-06-1.32349E-23
 -1       819 1.57698E-05 8.34249E-06-6.61744E-24
 -1       820 1.48684E-05 9.57955E-06-6.61744E-24
 -1       821 3.12991E-05 9.05246E-06 3.30872E-24
 -1       822 3.10470E-05 1.10320E-05 3.30872E-24
 -1       823 3.07946E-05 1.33152E-05 6.61744E-24
 -1       824 3.05395E-05 1.58676E-05 0.00000E+00
 -1       825 3.02834E-05 1.86543E-05 0.00000E+00
 -1       826 3.00264E-05 2.16397E-05 3.30872E-24
 -1       827 2.97688E-05 2.47879E-05-6.61744E-24
 -1       828 2.95108E-05 2.80627E-05-3.30872E-24
 -1       829 2.92524E-05 3.14274E-05 6.61744E-24
 -1       830 2.89940E-05 3.48454E-05 0.00000E+00
 -1       831 2.87356E-05 3.82798E-05 6.61744E-24
 -1       832 2.84775E-05 4.16936E-05 0.00000E+00
 -1       833 2.82199E-05 4.50501E-05 0.00000E+00
 -1       834 2.79643E-05 4.83126E-05 0.00000E+00
 -1       835 2.77090E-05 5.14444E-05 0.00000E+00
 -1       836 2.94179E-05 8.00425E-06 0.00000E+00
 -1       837 2.64237E-05 8.61851E-06 0.00000E+00
 -1       838 2.29651E-05 9.23040E-06 1.32349E-23
 -1       839 1.94518E-05 9.84126E-06 0.00000E+00
 -1       840 1.62929E-05 1.04541E-05 0.00000E+00
 -1       841 3.08292E-05 9.03490E-06 1.03398E-25
 -1       842 2.99779E-05 1.10194E-05 0.00000E+00
 -1       843 2.90049E-05 1.33269E-05-1.65436E-24
 -1       844 2.79240E-05 1.59170E-05 8.27181E-25
 -1       845 2.67512E-05 1.87499E-05 0.00000E+00
 -1       846 2.55016E-05 2.17853E-05 1.65436E-24
 -1       847 2.41907E-05 2.49824E-05 3.30872E-24
 -1       848 2.28339E-05 2.83009E-05 0.00000E+00
 -1       849 2.14466E-05 3.16997E-05 0.00000E+00
 -1       850 2.00443E-05 3.51381E-05 1.65436E-24
 -1       851 1.86425E-05 3.85751E-05-3.30872E-24
 -1       852 1.72568E-05 4.19699E-05 0.00000E+00
 -1       853 1.59025E-05 4.52816E-05 0.00000E+00
 -1       854 1.45952E-05 4.84694E-05 0.00000E+00
 -1       855 1.33502E-05 5.14926E-05 0.00000E+00
 -1       856 2.72736E-05 5.74726E-05 0.00000E+00
 -1       857 2.70716E-05 6.08881E-05 0.00000E+00
 -1       858 2.68687E-05 6.46102E-05-6.61744E-24
 -1       859 2.66635E-05 6.85924E-05 0.00000E+00
 -1       860 2.64572E-05 7.27874E-05 6.61744E-24
 -1       861 2.62501E-05 7.71480E-05-3.30872E-24
 -1       862 2.60423E-05 8.16265E-05 0.00000E+00
 -1       863 2.58342E-05 8.61751E-05 0.00000E+00
 -1       864 2.56260E-05 9.07456E-05 6.61744E-24
 -1       865 2.54180E-05 9.52902E-05 0.00000E+00
 -1       866 2.52103E-05 9.97609E-05 0.00000E+00
 -1       867 2.50032E-05 1.04110E-04 0.00000E+00
 -1       868 2.47970E-05 1.08289E-04 0.00000E+00
 -1       869 2.45925E-05 1.12252E-04 0.00000E+00
 -1       870 2.43889E-05 1.15950E-04-3.30872E-24
 -1       871 2.47939E-05 5.43951E-05 0.00000E+00
 -1       872 2.22278E-05 5.43796E-05 0.00000E+00
 -1       873 1.97258E-05 5.43640E-05 0.00000E+00
 -1       874 1.72458E-05 5.43479E-05 0.00000E+00
 -1       875 1.47455E-05 5.43310E-05 0.00000E+00
 -1       876 2.65712E-05 5.75322E-05 0.00000E+00
 -1       877 2.55753E-05 6.09549E-05-3.30872E-24
 -1       878 2.44819E-05 6.46342E-05 0.00000E+00
 -1       879 2.33073E-05 6.85323E-05 0.00000E+00
 -1       880 2.20645E-05 7.26105E-05 0.00000E+00
 -1       881 2.07680E-05 7.68312E-05 3.30872E-24
 -1       882 1.94316E-05 8.11572E-05 0.00000E+00
 -1       883 1.80694E-05 8.55514E-05 3.30872E-24
 -1       884 1.66952E-05 8.99769E-05 6.61744E-24
 -1       885 1.53230E-05 9.43971E-05 0.00000E+00
 -1       886 1.39667E-05 9.87752E-05 6.61744E-24
 -1       887 1.26401E-05 1.03074E-04 3.30872E-24
 -1       888 1.13573E-05 1.07257E-04 6.61744E-24
 -1       889 1.01308E-05 1.11286E-04 0.00000E+00
 -1       890 8.97718E-06 1.15124E-04 3.30872E-24
 -1       891 2.12461E-05 1.19237E-04 0.00000E+00
 -1       892 1.86332E-05 1.19135E-04-1.65436E-24
 -1       893 1.61728E-05 1.19033E-04 0.00000E+00
 -1       894 1.36840E-05 1.18931E-04 8.27181E-25
 -1       895 1.09859E-05 1.18829E-04 0.00000E+00
 -1       896 2.89484E-07 1.04354E-06 0.00000E+00
 -1       897 5.81370E-07 1.82135E-06 3.30872E-24
 -1       898 8.73378E-07 2.36599E-06 6.61744E-24
 -1       899 1.16580E-06 2.70959E-06 0.00000E+00
 -1       900 1.45831E-06 2.88379E-06 0.00000E+00
 -1       901 1.75090E-06 2.91978E-06-3.30872E-24
 -1       902 2.04350E-06 2.84843E-06 6.61744E-24
 -1       903 2.33609E-06 2.70034E-06 3.30872E-24
 -1       904 2.62866E-06 2.50591E-06 6.61744E-24
 -1       905 2.92117E-06 2.29542E-06 0.00000E+00
 -1       906 3.21360E-06 2.09911E-06-6.61744E-24
 -1       907 3.50577E-06 1.94728E-06 0.00000E+00
 -1       908 3.79773E-06 1.87032E-06 6.61744E-24
 -1       909 4.08822E-06 1.89879E-06 0.00000E+00
 -1       910 4.37884E-06 2.06356E-06-6.61744E-24
 -1       911 4.74555E-06 2.67633E-06 0.00000E+00
 -1       912 4.83252E-06 2.69217E-06 0.00000E+00
 -1       913 4.91945E-06 2.47950E-06-1.65436E-24
 -1       914 5.00649E-06 2.07469E-06-1.65436E-24
 -1       915 5.09348E-06 1.51389E-06 0.00000E+00
 -1       916 5.18043E-06 8.33167E-07 1.65436E-24
 -1       917 5.26732E-06 6.85018E-08 3.30872E-24
 -1       918 5.35417E-06-7.44210E-07 0.00000E+00
 -1       919 5.44099E-06-1.56909E-06 0.00000E+00
 -1       920 5.52777E-06-2.37025E-06-1.65436E-24
 -1       921 5.61451E-06-3.11184E-06 0.00000E+00
 -1       922 5.70103E-06-3.75792E-06-8.27181E-25
 -1       923 5.78739E-06-4.27248E-06 1.65436E-24
 -1       924 5.87227E-06-4.61945E-06 4.13590E-25
 -1       925 5.95736E-06-4.76257E-06 0.00000E+00
 -1       926 5.66528E-06-4.42143E-06 0.00000E+00
 -1       927 5.28884E-06-4.16318E-06-6.61744E-24
 -1       928 4.91254E-06-3.89245E-06 1.32349E-23
 -1       929 4.53481E-06-3.61084E-06 6.61744E-24
 -1       930 4.15686E-06-3.31999E-06-1.32349E-23
 -1       931 3.77865E-06-3.02159E-06-6.61744E-24
 -1       932 3.40036E-06-2.71732E-06-1.32349E-23
 -1       933 3.02201E-06-2.40890E-06 0.00000E+00
 -1       934 2.64365E-06-2.09807E-06 0.00000E+00
 -1       935 2.26530E-06-1.78655E-06 0.00000E+00
 -1       936 1.88696E-06-1.47609E-06-1.32349E-23
 -1       937 1.50870E-06-1.16843E-06 0.00000E+00
 -1       938 1.13050E-06-8.65285E-07 0.00000E+00
 -1       939 7.52739E-07-5.68375E-07 0.00000E+00
 -1       940 3.74938E-07-2.79396E-07-1.32349E-23
 -1       941 8.18603E-07 2.62823E-07 0.00000E+00
 -1       942 1.68726E-06 5.17335E-07 6.61744E-24
 -1       943 2.55519E-06 7.76597E-07 2.64698E-23
 -1       944 3.43068E-06 1.05373E-06 0.00000E+00
 -1       945 4.30729E-06 1.36197E-06 2.64698E-23
 -1       946 5.18528E-06 1.71481E-06 1.32349E-23
 -1       947 6.06363E-06 2.12606E-06-2.64698E-23
 -1       948 6.94219E-06 2.60997E-06 1.32349E-23
 -1       949 7.82074E-06 3.18135E-06 0.00000E+00
 -1       950 8.69906E-06 3.85565E-06-1.32349E-23
 -1       951 9.57700E-06 4.64908E-06 2.64698E-23
 -1       952 1.04537E-05 5.57880E-06-1.32349E-23
 -1       953 1.13294E-05 6.66289E-06 0.00000E+00
 -1       954 1.21990E-05 7.92069E-06 0.00000E+00
 -1       955 1.30689E-05 9.37278E-06-1.32349E-23
 -1       956 1.37961E-05 1.29812E-05 0.00000E+00
 -1       957 1.36906E-05 1.51075E-05-4.13590E-25
 -1       958 1.35844E-05 1.74031E-05-8.27181E-25
 -1       959 1.34775E-05 1.98499E-05 1.03398E-24
 -1       960 1.33703E-05 2.24295E-05 1.44757E-24
 -1       961 1.32628E-05 2.51237E-05-1.24077E-24
 -1       962 1.31550E-05 2.79139E-05-1.65436E-24
 -1       963 1.30469E-05 3.07818E-05-1.65436E-24
 -1       964 1.29387E-05 3.37090E-05 1.65436E-24
 -1       965 1.28304E-05 3.66770E-05 0.00000E+00
 -1       966 1.27221E-05 3.96674E-05 0.00000E+00
 -1       967 1.26138E-05 4.26617E-05 0.00000E+00
 -1       968 1.25055E-05 4.56415E-05 6.61744E-24
 -1       969 1.23974E-05 4.85885E-05 0.00000E+00
 -1       970 1.22898E-05 5.14842E-05 3.30872E-24
 -1       971 1.19264E-05 5.72419E-05 0.00000E+00
 -1       972 1.16609E-05 6.05262E-05 0.00000E+00
 -1       973 1.13945E-05 6.41213E-05 0.00000E+00
 -1       974 1.11260E-05 6.79834E-05 0.00000E+00
 -1       975 1.08565E-05 7.20682E-05 0.00000E+00
 -1       976 1.05861E-05 7.63308E-05-3.30872E-24
 -1       977 1.03150E-05 8.07261E-05 0.00000E+00
 -1       978 1.00436E-05 8.52085E-05 0.00000E+00
 -1       979 9.77196E-06 8.97323E-05-6.61744E-24
 -1       980 9.50041E-06 9.42519E-05 3.30872E-24
 -1       981 9.22915E-06 9.87213E-05 0.00000E+00
 -1       982 8.95856E-06 1.03095E-04 3.30872E-24
 -1       983 8.68876E-06 1.07327E-04 0.00000E+00
 -1       984 8.42117E-06 1.11373E-04-3.30872E-24
 -1       985 8.15430E-06 1.15188E-04 6.61744E-24
 -3
    1PSTEP                         2           1           1          
  100CL  101 1.000000000         841                     0    1           1
 -4  STRESS      6    1
 -5  SXX         1    4    1    1
 -5  SYY         1    4    2    2
 -5  SZZ         1    4    3    3
 -5  SXY         1    4    1    2
 -5  SYZ         1    4    2    3
 -5  SZX         1    4    3    1
 -1         1-2.28415E+06-6.84523E+05-2.92663E+05-8.19474E+05-3.12866E-10 4.24916E-09
 -1         2-1.41763E+06-6.29732E+03 2.46962E+03-1.57672E+05-1.14596E-10-6.54836E-10
 -1         3-6.06791E+05-3.13142E+05-7.43143E+01-9.08565E+04-1.70303E-10-1.13749E-09
 -1         4-1.59618E+05-8.13387E+04 2.43693E+02-3.48781E+04 1.09651E-10 1.05911E-09
 -1         5 1.52491E+04 5.59129E+05-1.11366E+05-2.42380E+02 1.10231E-09 4.35421E-10
 -1         8-7.96709E+05-4.28768E+05-7.26864E+04-6.62574E+05 4.76575E-10-1.16415E-10
 -1         9-1.19445E+06-2.22897E+05-1.24319E+05-4.28937E+05 1.57221E-09-6.71813E-10
 -1        10-6.71426E+05-4.73785E+05-8.59837E+01-2.88330E+05-5.73436E-10-3.14337E-09
 -1        11-2.72040E+05-1.40579E+05 1.30364E+02-1.49674E+05 3.60463E-10-9.39053E-10
 -1        12-3.64107E+04 5.38699E+05-1.17591E+05-2.58282E+04 3.45221E-09-2.23535E-09
 -1        15 1.39340E+03-3.32820E+04 1.92594E+03-2.02684E+05 3.36513E-11-1.84809E-09
 -1        16-6.60265E+05-1.93409E+05-7.85726E+04-3.97815E+05 1.89963E-09-7.48817E-10
 -1        17-4.36554E+05-3.75773E+05-2.46394E+04-4.15874E+05-4.57173E-10 6.79089E-10
 -1        18-9.37214E+04-1.12230E+05-4.34209E+04-3.10404E+05 8.82816E-10-7.39722E-11
 -1        19 9.42198E+04 2.76994E+05-5.43516E+04-5.70634E+04 3.19415E-09 1.70076E-09
 -1        20 1.54553E+05-1.08828E+05-1.66723E+04 8.92942E+04 1.18239E-08-9.76070E-09
 -1        21-2.56717E+04-2.37899E+05-1.10214E+03 1.75654E+04 3.75630E-08-1.91700E-09
 -1        22 3.20065E+04 1.79889E+05 8.39960E+02-6.97424E+04 3.45608E-11-5.80258E-10
 -1        23-2.43393E+05-1.67225E+04 1.70287E+03-2.01770E+05 7.97021E-10-2.41168E-10
 -1        24-2.47997E+05-3.62482E+04 9.90318E+04-3.68695E+05 4.43833E-10 2.66785E-11
 -1        25 3.06268E+05 1.39901E+05 1.44206E+05-3.60509E+05-1.98209E-09-1.68560E-10
 -1        26 2.76296E+04 3.65412E+05 3.44246E+04-1.11306E+05 4.13396E-09-1.21266E-10
 -1        27-8.34764E+04-9.28305E+04-4.45897E+04 1.17733E+05 2.14807E-08-4.69542E-09
 -1        28-2.07431E+04-1.63001E+05-1.30561E+03 8.31200E+04 1.44387E-08-2.80886E-09
 -1        29 4.03314E+05 2.92228E+05 1.05695E+03-3.82286E+04 2.97860E-11 7.42148E-10
 -1        30 1.47499E+05 3.57219E+04 1.18685E+03-7.78497E+04 5.28683E-10-1.90994E-10
 -1        31-4.65185E+05 3.72964E+04 2.55347E+03-1.15966E+05 1.88971E-10 1.65164E-09
 -1        32 4.46175E+04 2.02137E+05 2.25831E+05-3.33960E+05 8.76028E-11 2.62298E-09
 -1        33 4.62177E+05 5.23155E+05 2.28886E+05-1.42742E+05 5.47554E-09-1.50976E-09
 -1        34-3.16533E+05-5.17610E+04-2.73831E+04 4.86529E+04 5.42419E-09-9.39508E-10
 -1        35-4.50614E+04-5.28651E+04-1.01050E+03 1.14095E+05 2.47108E-08-3.06803E-09
 -1        36-3.10595E+06 3.39996E+04-1.47046E+05-4.92892E-08-6.02705E-10-6.32281E-09
 -1        37-3.15872E+06-4.62588E+04-9.41940E+04-2.07338E-08 4.02178E-10 1.88629E-09
 -1        38-3.12806E+06 3.49397E+03-3.80787E+04 1.27574E-08-8.99405E-11-1.21145E-09
 -1        39-3.13397E+06-4.56080E+03-2.12802E+04 2.60668E-08 3.41067E-11 1.00499E-09
 -1        40-3.13055E+06 3.76998E+02-9.74328E+03 5.82736E-09-5.36638E-10-5.41922E-09
 -1        41-3.13113E+06-4.47937E+02-5.36242E+03-5.72726E-08 3.02172E-10 1.47378E-09
 -1        42-3.13086E+06 5.10185E+01-3.02093E+03-8.77266E-09 8.66492E-11 5.36966E-09
 -1        43-3.13081E+06-8.61763E+01-2.52827E+03 3.09772E-08-6.29679E-10 7.43379E-09
 -1        44-3.13086E+06 5.32187E+01-3.12425E+03-1.78955E-08-3.44572E-10-1.32570E-09
 -1        45-3.13116E+06-4.73259E+02-5.63485E+03-3.91565E-08 1.52655E-09 1.87777E-09
 -1        46-3.13053E+06 3.98553E+02-1.02857E+04 9.46873E-09-1.28917E-09 1.05001E-09
 -1        47-3.13416E+06-4.82288E+03-2.24943E+04 2.16462E-08-3.91962E-10-6.88442E-09
 -1        48-3.12790E+06 3.69473E+03-4.02626E+04-1.91790E-09 9.74014E-10 1.29512E-09
 -1        49-3.16033E+06-4.89176E+04-9.96047E+04 2.29029E-08-1.38040E-09 1.46429E-09
 -1        50-3.10451E+06 3.59542E+04-1.55491E+05-2.82216E-08-3.22634E-10-1.06229E-09
 -1        51 4.75156E+04-4.82146E+05 1.05774E+05-1.04791E+06 0.00000E+00 6.40284E-09
 -1        52 2.05535E+04-4.69881E+05 5.76739E+04-1.22218E+06 1.02591E-09-5.70435E-09
 -1        53 8.98396E+03-4.90891E+05 3.22340E+04-1.04416E+06 3.92902E-10-4.72937E-09
 -1        54 1.87913E+04-4.91670E+05 3.16023E+04-1.22590E+06-2.61934E-10-2.02272E-09
 -1        55 3.03718E+04-5.01831E+05 4.37573E+04-1.04373E+06 8.07631E-10-1.14960E-09
 -1        56-3.73362E+06-4.74791E+05-2.41895E+05-1.43137E+06 8.00355E-11-1.80444E-09
 -1        57-3.81551E+06-6.36558E+05-1.52758E+05-1.43556E+06-1.80444E-09-6.30280E-09
 -1        58-3.77563E+06-5.29816E+05-5.70021E+04-1.42488E+06 1.01863E-10-1.71713E-09
 -1        59-3.76702E+06-5.64993E+05-3.13619E+04-1.44639E+06-2.32194E-09 3.42061E-09
 -1        60-3.78036E+06-5.35785E+05-1.32835E+04-1.42439E+06-3.72893E-10-2.87491E-09
 -1        61-3.76189E+06-5.57031E+05-7.13123E+03-1.44673E+06 9.02219E-10 3.20742E-09
 -1        62-3.78052E+06-5.36878E+05-3.83728E+03-1.42483E+06 1.41426E-10 8.70841E-10
 -1        63-3.76245E+06-5.55182E+05-3.34571E+03-1.44535E+06 3.04908E-10-4.56328E-09
 -1        64-3.77971E+06-5.37677E+05-4.45755E+03-1.42570E+06 3.15140E-10 2.75531E-09
 -1        65-3.76501E+06-5.54235E+05-8.80198E+03-1.44306E+06 1.22509E-09 3.22120E-09
 -1        66-3.77783E+06-5.37988E+05-1.67093E+04-1.42699E+06 1.34742E-09-2.51293E-09
 -1        67-3.77434E+06-5.61261E+05-3.95065E+04-1.43904E+06 1.55160E-09 1.45883E-09
 -1        68-3.77041E+06-5.31881E+05-7.19332E+04-1.42920E+06-8.17863E-10-1.73168E-09
 -1        69-3.83801E+06-6.48928E+05-1.92660E+05-1.42240E+06 1.57161E-09 1.69894E-09
 -1        70-3.71624E+06-4.63615E+05-3.05110E+05-1.43868E+06-5.20231E-10-3.87081E-09
 -1        71-1.22879E+06-4.48020E+03 1.94310E+04 3.02725E-09-6.98332E-10-2.16460E-10
 -1        72-1.22167E+06 6.10185E+03 1.24366E+04 2.46343E-08 1.84475E-09-1.83672E-09
 -1        73-1.22586E+06-4.60293E+02 5.02294E+03 2.11931E-08-6.04303E-10-2.86809E-09
 -1        74-1.22494E+06 6.01154E+02 2.78918E+03 5.53069E-09 6.83633E-10 6.67637E-09
 -1        75-1.22553E+06-4.93256E+01 1.24056E+03-2.76781E-08-3.25310E-10 1.53597E-09
 -1        76-1.22532E+06 5.78296E+01 6.09598E+02-2.15521E-08-3.42163E-10-6.29598E-10
 -1        77-1.22549E+06-4.68319E+00 2.03094E+02-1.91235E-08-2.92500E-11 3.61396E-09
 -1        78-1.22538E+06-2.44482E+00-7.22407E+01 2.37403E-08-4.25610E-10-1.13228E-09
 -1        79-1.22547E+06 7.65031E+00-3.78650E+02-1.72464E-08 1.08331E-10-3.23215E-09
 -1        80-1.22546E+06-8.39951E+01-9.23518E+02-6.01470E-09 6.03990E-11 1.74931E-09
 -1        81-1.22541E+06 7.13646E+01-1.81209E+03 9.24881E-10-4.77887E-10 2.00259E-09
 -1        82-1.22600E+06-8.67874E+02-4.03722E+03 3.51532E-08-8.07961E-10-4.40792E-09
 -1        83-1.22493E+06 6.64562E+02-7.25607E+03-3.34754E-09 1.15242E-09-2.74076E-09
 -1        84-1.23071E+06-8.80870E+03-1.79559E+04 1.86046E-08-1.80103E-10-3.47973E-09
 -1        85-1.22071E+06 6.46856E+03-2.80465E+04 4.19868E-09-2.76195E-10-2.00089E-10
 -1        86-4.53683E+04 6.57048E+05 2.01699E+05 9.73355E+02 5.82077E-10-4.18368E-09
 -1        87 6.52453E+04 7.31124E+05 1.43147E+05 6.12710E+03 1.21508E-09-5.13410E-10
 -1        88-8.00939E+03 6.84088E+05 8.45204E+04 7.49594E+02 1.29512E-09-6.20275E-10
 -1        89 4.86494E+04 7.21345E+05 1.13738E+05 6.63210E+03 2.64572E-09-3.05681E-09
 -1        90-3.20732E+04 6.66904E+05 1.45975E+05 4.95595E+02 2.29193E-09 3.45608E-10
 -1        91-1.77722E+06-2.40085E+05-5.23636E+04-6.74540E+05-2.19188E-10 2.47746E-09
 -1        92-1.79164E+06-2.78196E+05-3.30477E+04-6.79082E+05-1.32650E-09 2.98769E-10
 -1        93-1.78633E+06-2.51940E+05-1.23511E+04-6.73121E+05-8.88690E-10 3.12866E-09
 -1        94-1.78112E+06-2.62799E+05-6.79920E+03-6.81489E+05-9.90212E-11 1.75737E-09
 -1        95-1.78739E+06-2.53195E+05-2.88980E+03-6.72981E+05 1.67859E-10-2.84058E-09
 -1        96-1.77994E+06-2.61153E+05-1.56482E+03-6.81654E+05-5.63716E-10 3.39305E-10
 -1        97-1.78747E+06-2.53383E+05-8.65101E+02-6.73028E+05 6.36646E-11 2.06296E-09
 -1        98-1.77998E+06-2.60848E+05-7.98637E+02-6.81472E+05-7.80233E-10 5.37966E-10
 -1        99-1.78734E+06-2.53495E+05-1.10847E+03-6.73159E+05-2.45336E-10-2.95586E-12
 -1       100-1.78046E+06-2.60791E+05-2.23244E+03-6.81106E+05-3.94380E-10-3.68129E-09
 -1       101-1.78697E+06-2.53474E+05-4.24818E+03-6.73371E+05-6.00721E-10 3.64480E-09
 -1       102-1.78264E+06-2.62781E+05-1.00558E+04-6.80324E+05 8.92669E-10 2.61025E-09
 -1       103-1.78519E+06-2.51824E+05-1.83019E+04-6.73812E+05-9.67020E-10-2.71848E-09
 -1       104-1.79860E+06-2.85219E+05-4.89687E+04-6.76312E+05-7.92056E-10 3.07409E-10
 -1       105-1.77150E+06-2.34430E+05-7.75998E+04-6.76109E+05-9.54969E-10-7.60338E-10
 -1       106-3.40891E+05-1.24254E+04 5.39480E+04-9.01673E-09-4.78695E-10-2.35377E-09
 -1       107-3.21410E+05 1.69284E+04 3.45330E+04-3.44435E-08 2.07877E-10 2.75350E-09
 -1       108-3.32766E+05-1.27646E+03 1.39673E+04-1.03419E-08 3.01654E-10 4.45743E-09
 -1       109-3.30466E+05 1.66741E+03 7.78223E+03-1.16835E-08-1.73046E-09-1.62186E-09
 -1       110-3.31846E+05-1.37282E+02 3.51711E+03-3.81143E-08 1.03843E-10-5.60021E-09
 -1       111-3.31508E+05 1.62041E+02 1.83800E+03-4.87140E-09 7.69715E-10-3.94022E-09
 -1       112-3.31726E+05-1.59209E+01 8.47598E+02-9.19879E-09 1.50032E-10 3.13281E-09
 -1       113-3.31650E+05 1.29611E+01 3.83913E+02 8.87256E-09-5.55352E-10 5.35102E-09
 -1       114-3.31705E+05 2.06996E-01 8.52969E+01 2.15703E-08-4.64238E-10-1.68129E-09
 -1       115-3.31694E+05-2.33592E+01-1.70484E+02-1.05370E-08 8.40858E-10-9.85075E-10
 -1       116-3.31683E+05 2.05011E+01-4.81683E+02-2.34586E-08 4.78122E-10 2.88338E-10
 -1       117-3.31856E+05-2.53502E+02-1.15660E+03-2.69106E-08-1.02162E-09 3.80638E-10
 -1       118-3.31542E+05 1.94065E+02-2.11097E+03-1.60770E-08 2.09052E-10-2.82182E-09
 -1       119-3.33234E+05-2.57441E+03-5.24533E+03 2.14496E-08-3.40235E-10-3.45420E-09
 -1       120-3.30306E+05 1.88995E+03-8.19974E+03-1.07673E-09-7.42036E-11 3.92902E-10
 -1       121 5.72541E+03-1.18852E+06-2.52876E+04-1.24984E+04-3.08319E-10 2.91220E-09
 -1       122-7.94897E+03-1.19749E+06-1.65687E+04-5.05037E+04-5.12955E-10-1.29671E-09
 -1       123 6.97546E+02-1.19226E+06-7.48759E+03-1.20796E+04-5.67979E-10 1.64346E-09
 -1       124-2.00569E+03-1.19416E+06-6.13673E+03-5.10583E+04-3.25144E-10 2.21246E-09
 -1       125 1.07388E+03-1.19206E+06-5.50784E+03-1.19440E+04-1.06019E-09 3.39946E-09
 -1       126-8.13522E+05-1.15978E+05-8.80076E+02-3.07524E+05 5.12728E-10 3.20142E-09
 -1       127-8.07978E+05-1.22313E+05-5.55861E+02-3.14119E+05 1.62186E-09 1.13394E-09
 -1       128-8.13720E+05-1.16129E+05-2.13520E+02-3.07450E+05 1.34952E-09 3.86551E-09
 -1       129-8.07753E+05-1.22110E+05-1.27109E+02-3.14225E+05-7.66903E-10-1.06787E-08
 -1       130-8.13747E+05-1.16139E+05-7.59604E+01-3.07436E+05-1.11087E-09-4.87256E-09
 -1       131-8.07740E+05-1.22080E+05-8.58846E+01-3.14223E+05 2.23278E-09 5.04224E-09
 -1       132-8.13731E+05-1.16155E+05-1.36723E+02-3.07452E+05-5.16195E-10 8.94204E-10
 -1       133-8.07807E+05-1.22039E+05-2.80860E+02-3.14157E+05 1.16398E-09-3.37840E-09
 -1       134-8.13673E+05-1.16185E+05-5.57573E+02-3.07497E+05 8.51514E-11 2.73826E-09
 -1       135-8.08030E+05-1.22081E+05-1.24819E+03-3.14021E+05-3.11388E-10 4.28616E-09
 -1       136-8.13496E+05-1.16133E+05-2.43320E+03-3.07575E+05 2.31466E-10 4.03679E-09
 -1       137-8.09193E+05-1.23319E+05-5.79030E+03-3.13674E+05 3.20711E-10-3.82761E-09
 -1       138-8.12518E+05-1.15132E+05-1.05517E+04-3.07767E+05-4.08136E-11-4.05453E-09
 -1       139-8.18277E+05-1.36349E+05-2.82225E+04-3.11482E+05 3.18549E-09-1.84309E-09
 -1       140-8.04673E+05-1.05063E+05-4.47290E+04-3.09023E+05 9.34961E-10 1.47520E-09
 -1       141-7.41493E+03-5.03708E+03 2.18667E+04 3.16732E-09-3.27523E-10 1.83445E-09
 -1       142 4.73519E+02 6.86247E+03 1.39903E+04-2.01360E-08 5.53204E-10-1.35628E-09
 -1       143-4.11768E+03-5.17262E+02 5.63923E+03-8.39411E-09 4.79798E-10-2.78783E-09
 -1       144-3.19936E+03 6.75736E+02 3.10466E+03 2.78911E-09 5.15607E-10 8.54072E-10
 -1       145-3.74278E+03-5.49201E+01 1.32488E+03-3.04262E-08-9.94782E-10 7.71877E-10
 -1       146-3.62978E+03 6.32272E+01 5.37079E+02-1.90943E-08-2.58480E-10-1.23248E-09
 -1       147-3.68731E+03-2.22064E+00-6.56540E+01-1.80197E-08 2.35763E-10 3.01981E-10
 -1       148-3.72930E+03-2.32590E+01-6.89746E+02 2.21711E-08 8.46888E-10-1.89493E-09
 -1       149-3.64326E+03 3.04374E+01-1.61034E+03-2.46055E-08 9.51738E-12 9.65917E-09
 -1       150-4.00546E+03-3.12146E+02-3.53247E+03-1.86588E-08-7.62796E-10-2.17426E-10
 -1       151-3.41110E+03 2.64569E+02-6.77690E+03 2.05756E-08 2.24482E-10-2.62116E-09
 -1       152-6.01338E+03-3.21384E+03-1.50037E+04-7.57041E-10-1.42413E-09 4.16776E-09
 -1       153-1.63437E+03 2.46056E+03-2.69278E+04-4.40463E-09 1.24021E-09 3.83807E-09
 -1       154-2.34676E+04-3.26301E+04-6.65757E+04-8.76116E-09-7.11274E-10-2.04454E-09
 -1       155 1.40605E+04 2.39592E+04-1.03943E+05-1.94950E-08 4.94090E-10-5.31145E-10
 -1       156 1.03267E+03-2.92973E+05-4.20331E+03-7.54974E+03 5.57066E-11 1.18325E-09
 -1       157-1.12866E+03-2.94347E+05-1.51672E+03-2.97192E+04-4.20414E-10 1.36424E-10
 -1       158-1.51307E+02-2.93893E+05 1.59462E+03-7.42382E+03 2.60343E-10-3.86262E-09
 -1       159 3.35259E+03-2.91774E+05 6.38404E+03-2.98854E+04-8.77890E-10-2.07899E-09
 -1       160-2.51354E+03-2.95645E+05 1.07651E+04-7.38297E+03 4.12911E-10 7.29415E-10
 -1       161-2.91731E+05-4.05508E+04-8.12071E+03-1.12048E+05-1.54841E-09-6.48470E-10
 -1       162-2.90681E+05-4.97378E+04-5.13051E+03-1.16519E+05 5.22672E-10-4.82487E-10
 -1       163-2.93140E+05-4.23917E+04-1.93227E+03-1.11837E+05 4.67153E-10 6.33349E-10
 -1       164-2.89064E+05-4.73426E+04-1.08954E+03-1.16879E+05-8.22865E-10 3.90383E-09
 -1       165-2.93298E+05-4.25919E+04-5.20034E+02-1.11822E+05 1.87754E-10-6.10328E-10
 -1       166-2.88896E+05-4.70849E+04-3.96748E+02-1.16895E+05 2.84075E-10-6.54268E-10
 -1       167-2.93301E+05-4.26189E+04-4.48652E+02-1.11830E+05 1.15733E-10 1.09480E-09
 -1       168-2.88943E+05-4.70782E+04-8.11504E+02-1.16869E+05-9.14042E-10 9.03128E-10
 -1       169-2.93244E+05-4.25997E+04-1.55508E+03-1.11844E+05 4.53724E-10 5.86670E-09
 -1       170-2.89324E+05-4.74436E+04-3.45781E+03-1.16800E+05 1.30967E-10 2.43699E-09
 -1       171-2.92914E+05-4.22910E+04-6.71956E+03-1.11880E+05 2.31353E-10 3.60160E-10
 -1       172-2.92189E+05-5.12274E+04-1.59962E+04-1.16289E+05 5.14120E-10 8.81982E-10
 -1       173-2.90435E+05-3.93019E+04-2.91292E+04-1.12167E+05 7.33053E-10-5.22596E-09
 -1       174-3.16751E+05-8.77215E+04-7.79202E+04-1.10881E+05 1.35492E-09-2.46655E-09
 -1       175-2.69085E+05-1.11681E+04-1.23426E+05-1.15256E+05 7.45786E-11-4.62023E-09
 -1       191 1.35147E+04 1.40322E+06 2.97551E+04-1.43188E+03 6.14818E-10 2.91948E-09
 -1       192 4.44169E+03 1.40874E+06 1.78356E+04-7.98225E+02 1.92131E-10 6.91216E-11
 -1       193 1.06204E+03 1.40527E+06 1.36374E+04-1.07994E+03 1.80978E-09 1.85537E-10
 -1       194 5.07559E+03 1.40911E+06 1.95199E+04-1.48610E+03 1.36424E-10-1.55524E-09
 -1       195 1.55673E+04 1.40285E+06 3.38413E+04-7.10497E+02 2.97950E-09 3.41424E-09
 -1       251-1.97804E+05-1.57234E+04 6.14250E+04-3.27367E+04-3.85626E-10 1.56251E-09
 -1       252-1.72644E+05 1.84632E+04 3.98721E+04-1.25456E+05 1.00590E-09-4.10728E-09
 -1       253-1.88854E+05-2.13513E+03 1.57917E+04-3.21345E+04 2.74667E-10-4.01451E-09
 -1       254-1.85166E+05 1.61013E+03 9.06020E+03-1.26238E+05 1.53159E-09-2.42153E-10
 -1       255-1.88111E+05-3.51120E+02 4.01146E+03-3.19536E+04-5.82077E-10 1.09867E-09
 -1       256-1.87677E+05 4.06763E+02 2.29117E+03-1.26517E+05 5.21140E-10-4.93856E-09
 -1       257-1.88156E+05 4.77417E+01 1.24088E+03-3.18576E+04-6.23913E-10 5.27666E-09
 -1       258-1.88385E+05 4.86297E+02 1.01731E+03-1.26630E+05-8.87326E-10 1.83286E-09
 -1       259-1.88192E+05 1.03995E+02 1.18670E+03-3.18399E+04-1.05501E-10-4.27917E-09
 -1       260-1.88090E+05 5.51051E+02 2.08390E+03-1.26596E+05-6.44832E-10-7.98082E-11
 -1       261-1.88207E+05-1.71998E+02 3.68163E+03-3.18917E+04 1.52522E-09 1.04683E-09
 -1       262-1.86090E+05 1.74227E+03 8.16425E+03-1.26393E+05-1.82172E-09-9.14184E-10
 -1       263-1.88920E+05-1.71779E+03 1.43231E+04-3.20432E+04-9.22228E-10 6.58474E-10
 -1       264-1.74986E+05 1.70002E+04 3.59439E+04-1.25720E+05 4.63842E-11 1.38107E-09
 -1       265-1.97014E+05-1.39206E+04 5.55048E+04-3.25690E+04-1.61526E-09-1.76078E-09
 -1       266-1.19205E+04-2.78706E+05 5.36680E+04-6.24170E+04-2.11003E-10-4.34193E-09
 -1       267 1.94404E+04-2.61481E+05 3.21983E+04-2.49604E+05 1.70530E-10-5.03962E-09
 -1       268-1.70673E+02-2.70060E+05 8.66989E+03-6.22562E+04 6.63931E-11 2.41562E-09
 -1       269-2.49079E+03-2.72569E+05-5.66434E+03-2.49250E+05 1.01863E-10 2.38197E-09
 -1       270 4.35977E+03-2.65470E+05-1.84565E+04-6.28040E+04-1.21872E-10 3.39060E-09
 -1       271-3.11796E+06-4.06661E+05-2.40362E+05-1.22278E+06 3.27418E-11-1.30967E-10
 -1       272-3.17553E+06-5.88320E+05-1.51401E+05-1.25116E+06-1.21690E-09-4.98221E-09
 -1       273-3.16248E+06-4.58147E+05-5.67954E+04-1.21346E+06 5.76620E-10-5.02041E-10
 -1       274-3.12368E+06-5.22125E+05-3.10533E+04-1.26812E+06-7.27596E-10 1.03319E-09
 -1       275-3.16948E+06-4.61658E+05-1.32724E+04-1.21067E+06 3.91083E-10-2.54204E-09
 -1       276-3.11568E+06-5.17820E+05-7.01545E+03-1.27333E+06 1.01136E-09-6.57747E-09
 -1       277-3.17136E+06-4.60883E+05-3.73341E+03-1.20931E+06-7.18501E-11-3.21620E-10
 -1       278-3.11397E+06-5.18543E+05-3.13299E+03-1.27538E+06 1.36424E-10 5.06134E-10
 -1       279-3.17165E+06-4.60526E+05-4.04086E+03-1.20900E+06 1.53619E-10-3.91537E-10
 -1       280-3.11494E+06-5.19025E+05-7.94549E+03-1.27485E+06 2.44199E-10 5.91012E-09
 -1       281-3.17029E+06-4.60550E+05-1.50701E+04-1.20973E+06-3.33330E-10 2.42198E-09
 -1       282-3.12292E+06-5.25483E+05-3.55719E+04-1.27093E+06 1.36424E-11 7.89441E-10
 -1       283-3.16319E+06-4.55624E+05-6.48995E+04-1.21203E+06 5.47971E-10-4.33647E-09
 -1       284-3.18079E+06-6.03062E+05-1.73403E+05-1.25374E+06-2.27431E-10-4.59841E-09
 -1       285-3.11316E+06-3.95611E+05-2.74992E+05-1.22166E+06 4.29281E-10 8.73115E-11
 -1       286-2.76953E+05-1.18324E+04 4.82960E+04-2.03698E+04 2.28647E-09 2.23736E-09
 -1       287-2.58130E+05 1.47932E+04 3.11719E+04-7.73091E+04 1.43700E-09-3.72893E-09
 -1       288-2.69801E+05-1.46898E+03 1.24573E+04-1.98823E+04 3.00133E-10 1.80444E-09
 -1       289-2.67187E+05 1.34866E+03 7.08795E+03-7.79683E+04-5.77529E-10 1.27216E-09
 -1       290-2.69112E+05-2.35008E+02 3.19767E+03-1.97057E+04 1.77351E-09-2.59593E-09
 -1       291-2.68721E+05 2.36177E+02 1.85666E+03-7.82466E+04 4.44288E-10-2.91379E-09
 -1       292-2.69097E+05-1.29589E+00 1.11090E+03-1.96050E+04 1.02045E-09-1.49680E-09
 -1       293-2.69129E+05 2.55104E+02 1.09444E+03-7.83862E+04 1.55569E-09 3.89582E-09
 -1       294-2.69141E+05 3.85928E+01 1.51976E+03-1.95655E+04 1.62692E-09 4.42697E-10
 -1       295-2.68973E+05 4.74322E+02 2.87708E+03-7.83998E+04 3.76667E-09-3.03797E-09
 -1       296-2.69295E+05-1.72007E+02 5.30194E+03-1.95912E+04-6.36646E-12-2.97609E-09
 -1       297-2.67165E+05 2.61438E+03 1.16520E+04-7.82751E+04 2.98314E-09 1.86992E-09
 -1       298-2.70591E+05-1.98330E+03 2.07923E+04-1.96902E+04 3.82897E-10 1.93813E-09
 -1       299-2.53105E+05 2.51796E+04 5.15332E+04-7.78303E+04 1.14915E-09-3.63480E-09
 -1       300-2.82590E+05-1.88177E+04 8.03077E+04-2.00422E+04-3.31056E-10-6.73026E-09
 -1       301 4.78785E+04 1.31343E+05 1.00298E+05-1.38154E+05 4.76211E-09-5.50972E-09
 -1       302 1.66123E+04 1.49725E+05 5.59611E+04-1.61740E+05 3.45426E-09-5.62932E-09
 -1       303 4.18892E+03 1.38566E+05 3.58596E+04-1.38101E+05 4.83533E-09-9.58437E-10
 -1       304 1.14478E+04 1.46685E+05 4.21927E+04-1.61766E+05 3.33239E-09-1.91949E-09
 -1       305 3.11135E+04 1.34349E+05 6.68845E+04-1.38200E+05 4.56748E-09 3.32238E-09
 -1       306-3.19252E+06-4.06860E+05-2.52894E+05-1.24291E+06 1.68075E-09-1.42609E-09
 -1       307-3.26863E+06-5.83973E+05-1.59505E+05-1.25663E+06 2.37333E-09 4.16367E-09
 -1       308-3.23841E+06-4.62222E+05-5.96888E+04-1.23405E+06 7.25777E-10 3.75076E-09
 -1       309-3.21499E+06-5.12792E+05-3.27296E+04-1.27238E+06 3.59250E-11-2.60752E-09
 -1       310-3.24509E+06-4.66669E+05-1.39140E+04-1.23172E+06 8.60382E-10 8.11542E-09
 -1       311-3.20706E+06-5.07414E+05-7.36748E+03-1.27654E+06 2.08729E-10 2.24509E-09
 -1       312-3.24671E+06-4.66275E+05-3.85550E+03-1.23063E+06 1.03091E-09 2.97757E-09
 -1       313-3.20542E+06-5.07861E+05-3.14257E+03-1.27817E+06 4.29532E-09-1.50800E-09
 -1       314-3.24699E+06-4.65952E+05-3.92585E+03-1.23032E+06-2.93767E-10 2.27260E-09
 -1       315-3.20618E+06-5.08503E+05-7.61745E+03-1.27795E+06-1.97770E-09-3.29169E-09
 -1       316-3.24593E+06-4.65718E+05-1.43640E+04-1.23081E+06-1.46974E-09-2.42017E-09
 -1       317-3.21345E+06-5.15208E+05-3.39392E+04-1.27508E+06-1.26579E-09 1.67347E-10
 -1       318-3.23961E+06-4.60511E+05-6.18037E+04-1.23259E+06-1.19698E-09 4.27826E-09
 -1       319-3.26803E+06-5.90144E+05-1.65360E+05-1.26013E+06 8.32415E-10 9.13133E-10
 -1       320-3.19260E+06-4.02524E+05-2.62035E+05-1.24115E+06-7.85803E-10 4.36557E-10
 -1       321-9.68478E+04-2.25847E+04 9.77637E+04-7.49244E+03-3.33785E-10-3.67072E-09
 -1       322-6.14503E+04 3.06232E+04 6.26027E+04-2.89272E+04-5.94355E-10-1.76351E-09
 -1       323-8.21441E+04-2.34621E+03 2.53159E+04-7.38491E+03-1.29148E-10-2.80124E-09
 -1       324-7.79678E+04 3.00385E+03 1.41338E+04-2.90505E+04 7.23048E-11 4.08363E-10
 -1       325-8.04926E+04-2.58576E+02 6.41750E+03-7.36238E+03 1.13687E-11-5.07862E-09
 -1       326-7.99172E+04 3.03381E+02 3.42837E+03-2.90810E+04 1.84627E-10 3.48098E-09
 -1       327-8.02867E+04-2.75710E+01 1.72192E+03-7.35459E+03-4.25530E-10 9.09495E-11
 -1       328-8.01817E+04 5.57657E+01 1.07914E+03-2.90901E+04 3.13477E-10 9.85438E-10
 -1       329-8.02644E+04-8.32179E+00 8.98183E+02-7.35335E+03 3.95801E-10-4.31953E-10
 -1       330-8.01309E+04 1.08404E+02 1.25603E+03-2.90845E+04-5.11136E-10-2.54626E-09
 -1       331-8.03194E+04-8.26164E+01 2.09530E+03-7.36017E+03-9.66793E-10 9.46869E-10
 -1       332-7.94963E+04 9.38342E+02 4.46784E+03-2.90602E+04 1.35810E-09 5.31301E-09
 -1       333-8.08265E+04-7.47996E+02 7.93365E+03-7.37754E+03-3.61979E-10-2.48929E-09
 -1       334-7.42709E+04 9.55684E+03 1.95956E+04-2.89469E+04 1.91199E-09-2.77214E-09
 -1       335-8.54164E+04-7.10238E+03 3.05592E+04-7.47514E+03-1.60162E-09 3.60160E-10
 -1       336 7.67266E+02-1.19138E+06-6.95774E+03-8.04738E+04-2.05682E-09 1.25874E-09
 -1       337-5.62682E+02-1.19503E+06-8.83001E+03-3.25274E+05-1.51431E-09-5.22050E-10
 -1       338 1.84080E+03-1.19177E+06-1.27274E+04-7.93759E+04-2.89094E-09 2.60115E-09
 -1       339-1.21032E+04-1.20272E+06-2.97374E+04-3.25664E+05-7.50106E-10 2.14277E-09
 -1       340 1.06618E+04-1.18463E+06-4.62883E+04-8.00829E+04-2.00998E-09 5.00586E-09
 -1       341-1.81951E+06-2.41640E+05-8.25921E+04-6.96725E+05-4.61114E-10-5.97720E-09
 -1       342-1.84344E+06-3.00587E+05-5.21204E+04-7.02542E+05 5.45697E-12 2.19006E-09
 -1       343-1.83411E+06-2.60117E+05-1.94967E+04-6.94253E+05-8.10076E-10 4.66116E-09
 -1       344-1.82647E+06-2.76707E+05-1.07393E+04-7.06833E+05-1.63709E-11-4.71937E-09
 -1       345-1.83598E+06-2.61889E+05-4.59940E+03-6.93811E+05-6.34373E-11-8.78572E-10
 -1       346-1.82427E+06-2.74500E+05-2.54990E+03-7.07568E+05 6.89624E-10-6.57451E-10
 -1       347-1.83630E+06-2.61975E+05-1.53295E+03-6.93663E+05-7.06905E-10-3.21660E-09
 -1       348-1.82399E+06-2.74417E+05-1.63000E+03-7.07742E+05 7.82649E-10 1.06917E-09
 -1       349-1.83627E+06-2.61939E+05-2.48947E+03-6.93657E+05-1.68029E-10 1.68484E-09
 -1       350-1.82458E+06-2.74882E+05-5.20073E+03-7.07577E+05 1.00954E-10 1.53227E-09
 -1       351-1.83571E+06-2.61567E+05-9.96528E+03-6.93803E+05 1.31496E-09-1.01863E-10
 -1       352-1.82907E+06-2.80231E+05-2.36608E+04-7.06513E+05-1.84372E-10-8.31278E-10
 -1       353-1.83187E+06-2.57326E+05-4.30629E+04-6.94438E+05 2.72394E-10-3.54703E-09
 -1       354-1.86589E+06-3.33822E+05-1.15275E+05-6.97955E+05 5.88898E-10-3.40515E-09
 -1       355-1.80003E+06-2.15944E+05-1.82576E+05-6.99369E+05 1.87720E-09-3.96540E-09
 -1       356 1.01226E+05-1.10877E+04 4.79460E+04-6.04924E+03 1.81899E-12-5.11136E-09
 -1       357 1.18596E+05 1.50141E+04 3.07016E+04-2.37107E+04-9.45874E-11-1.28193E-09
 -1       358 1.08443E+05-1.15358E+03 1.23941E+04-6.00660E+03-3.64253E-10 9.18590E-10
 -1       359 1.10480E+05 1.46976E+03 6.88166E+03-2.37398E+04 8.90623E-10 7.48446E-09
 -1       360 1.09254E+05-1.26467E+02 3.04335E+03-6.01754E+03-7.03949E-10 2.74440E-09
 -1       361 1.09510E+05 1.44710E+02 1.46532E+03-2.37227E+04 7.09861E-10 3.44914E-09
 -1       362 1.09362E+05-9.05948E+00 4.18735E+02-6.02374E+03-3.03203E-10-1.04524E-09
 -1       363 1.09338E+05-4.65656E+00-3.51165E+02-2.37170E+04 5.89822E-11-3.93823E-09
 -1       364 1.09411E+05 2.61477E+01-1.27333E+03-6.02326E+03 3.30147E-10-4.17765E-09
 -1       365 1.09103E+05-2.67943E+02-2.99170E+03-2.37260E+04-5.88898E-10-2.45473E-09
 -1       366 1.09619E+05 2.21684E+02-5.83064E+03-6.01481E+03-1.56206E-10-2.18779E-09
 -1       367 1.07407E+05-2.79249E+03-1.29500E+04-2.37444E+04 9.90440E-10-2.49292E-09
 -1       368 1.11165E+05 2.10405E+03-2.32745E+04-6.00484E+03-5.51154E-10 2.20825E-09
 -1       369 9.23931E+04-2.82358E+04-5.75278E+04-2.37053E+04-3.07818E-09 8.17545E-09
 -1       370 1.24742E+05 2.06551E+04-8.98524E+04-6.04825E+03 1.07229E-09 3.92902E-09
 -1       371-3.37796E+03-2.57834E+05 1.31241E+04-5.83034E+04 5.41149E-10-1.27329E-10
 -1       372 4.89707E+03-2.53772E+05 6.02249E+03-2.30136E+05-2.61434E-09-6.67569E-09
 -1       373 5.53558E+02-2.55451E+05-2.45984E+03-5.79701E+04 1.22373E-09 3.07034E-09
 -1       374-6.04258E+03-2.60407E+05-1.34532E+04-2.30176E+05-2.90879E-09 6.60702E-09
 -1       375 5.53026E+03-2.51350E+05-2.36814E+04-5.82635E+04 1.22782E-09 4.63842E-09
 -1       376-8.86583E+05-1.17017E+05-5.32033E+04-3.43724E+05 8.11724E-10-5.61340E-09
 -1       377-8.96184E+05-1.60790E+05-3.35723E+04-3.54166E+05-1.16188E-10-4.96948E-09
 -1       378-8.95927E+05-1.28970E+05-1.25681E+04-3.42220E+05-1.42109E-10 2.35923E-09
 -1       379-8.85420E+05-1.45276E+05-6.92964E+03-3.56774E+05 4.82032E-10-3.67436E-10
 -1       380-8.97063E+05-1.30181E+05-2.98179E+03-3.42022E+05 9.14042E-11-7.49310E-10
 -1       381-8.84136E+05-1.43724E+05-1.68165E+03-3.57095E+05 6.80984E-10 4.22783E-09
 -1       382-8.97205E+05-1.30298E+05-1.06436E+03-3.41995E+05-6.75300E-11-1.32582E-09
 -1       383-8.84060E+05-1.43578E+05-1.21720E+03-3.57079E+05 4.17913E-10 3.81624E-09
 -1       384-8.97130E+05-1.30317E+05-1.94254E+03-3.42039E+05 1.32081E-09 3.06113E-09
 -1       385-8.84570E+05-1.43895E+05-4.10487E+03-3.56866E+05-2.53067E-10 9.15861E-10
 -1       386-8.96662E+05-1.30042E+05-7.89596E+03-3.42166E+05-1.49225E-09-1.06411E-10
 -1       387-8.88094E+05-1.48130E+05-1.87383E+04-3.56002E+05-1.46792E-09-3.73075E-09
 -1       388-8.93625E+05-1.26687E+05-3.41221E+04-3.42646E+05 2.04460E-09-2.50657E-09
 -1       389-9.17154E+05-1.90561E+05-9.12594E+04-3.49240E+05 1.98816E-09-2.72667E-09
 -1       390-8.68417E+05-9.39445E+04-1.44579E+05-3.46501E+05 2.54659E-11 2.14641E-09
 -1       406 1.36996E+04 1.36313E+06 3.16405E+04-5.90481E+04 4.50746E-09 1.75532E-09
 -1       407 4.92538E+03 1.36901E+06 2.24911E+04-6.81592E+04 1.18757E-09-4.32010E-10
 -1       408 2.13379E+03 1.36475E+06 2.31512E+04-5.86993E+04 5.15138E-09-3.84898E-09
 -1       409 1.19034E+04 1.37291E+06 4.08828E+04-6.86978E+04 1.28057E-09-3.29237E-09
 -1       410 3.62365E+04 1.35885E+06 7.62754E+04-5.84242E+04 6.01722E-09 3.13594E-09
 -1       466 1.30849E+06-2.94507E+04 1.25592E+05-2.16931E+04-1.03500E-09 3.85626E-10
 -1       467 1.35468E+06 3.91130E+04 8.06063E+04-8.98185E+04 3.21961E-10-2.72848E-09
 -1       468 1.32729E+06-3.17471E+03 3.25503E+04-2.24179E+04 6.62112E-10-1.06957E-09
 -1       469 1.33273E+06 3.85455E+03 1.82852E+04-8.84750E+04 2.50111E-10-1.63163E-09
 -1       470 1.32932E+06-3.44840E+02 8.38067E+03-2.30189E+04-2.05546E-10-5.62522E-10
 -1       471 1.32987E+06 5.35014E+02 4.69014E+03-8.76054E+04 1.30240E-09-1.35765E-09
 -1       472 1.32954E+06 8.47716E+00 2.73877E+03-2.32883E+04-2.18051E-10 9.81117E-10
 -1       473 1.32951E+06 2.77645E+02 2.45442E+03-8.74022E+04 3.61126E-10 1.82536E-09
 -1       474 1.32954E+06-2.02947E+01 3.20572E+03-2.32222E+04 7.04858E-11-3.06670E-10
 -1       475 1.33012E+06 5.94293E+02 5.94174E+03-8.78750E+04-2.93312E-10-2.49209E-10
 -1       476 1.32926E+06-4.99453E+02 1.08435E+04-2.28153E+04 4.46562E-10-1.31831E-09
 -1       477 1.33387E+06 4.93027E+03 2.38418E+04-8.90097E+04 8.58563E-10-2.07729E-09
 -1       478 1.32660E+06-4.18310E+03 4.24933E+04-2.20861E+04-1.15506E-09-2.16460E-10
 -1       479 1.36245E+06 5.10249E+04 1.05290E+05-9.06093E+04-2.99042E-09 5.22050E-10
 -1       480 1.30201E+06-3.84620E+04 1.64102E+05-2.12449E+04-1.40790E-09-1.18598E-09
 -1       481-7.84006E+03 3.24171E+05 3.47786E+04-1.40137E+04 1.80080E-10-1.53477E-10
 -1       482 1.13445E+04 3.36607E+05 2.33951E+04-5.27113E+04-1.82808E-10 6.34839E-09
 -1       483-1.03226E+03 3.29162E+05 1.15912E+04-1.39674E+04-9.61791E-11 2.66573E-09
 -1       484 4.77133E+03 3.32906E+05 1.18405E+04-5.27515E+04 1.41199E-10 2.78078E-10
 -1       485-2.69307E+03 3.28103E+05 1.28651E+04-1.39783E+04 2.83308E-10-2.53931E-09
 -1       486-1.31029E+06-1.62558E+05-1.28933E+05-5.14333E+05-6.09361E-10-4.47471E-09
 -1       487-1.34698E+06-2.55075E+05-8.13280E+04-5.24030E+05 1.45928E-09 6.78483E-10
 -1       488-1.33312E+06-1.91338E+05-3.04443E+04-5.10488E+05-1.54614E-10-2.02272E-09
 -1       489-1.32056E+06-2.17850E+05-1.67044E+04-5.30840E+05 8.39464E-10-2.94722E-09
 -1       490-1.33610E+06-1.94050E+05-7.08925E+03-5.09783E+05-7.82165E-11-1.05319E-09
 -1       491-1.31710E+06-2.14484E+05-3.73565E+03-5.32157E+05-2.90129E-10-9.12223E-10
 -1       492-1.33669E+06-1.94095E+05-1.90801E+03-5.09480E+05 2.09184E-11-5.66843E-10
 -1       493-1.31647E+06-2.14472E+05-1.46263E+03-5.32686E+05 2.20894E-10-8.15362E-10
 -1       494-1.33683E+06-1.93960E+05-1.71310E+03-5.09344E+05-3.42538E-10-1.34816E-09
 -1       495-1.31664E+06-2.14888E+05-3.22217E+03-5.32804E+05 8.58932E-10 1.07889E-09
 -1       496-1.33655E+06-1.93687E+05-6.01575E+03-5.09374E+05 9.79981E-11 8.29004E-10
 -1       497-1.31928E+06-2.18113E+05-1.41868E+04-5.32183E+05-1.70985E-10 2.13504E-10
 -1       498-1.33422E+06-1.91191E+05-2.57963E+04-5.09776E+05-1.42109E-12-1.48066E-09
 -1       499-1.34138E+06-2.50036E+05-6.89867E+04-5.26849E+05-3.80965E-10-1.81444E-09
 -1       500-1.31503E+06-1.66594E+05-1.09316E+05-5.12849E+05 1.23691E-10 6.40284E-10
 -1       501 3.18198E+05-1.75785E+04 7.23683E+04-2.44707E+04 3.31420E-09 1.96451E-10
 -1       502 3.45995E+05 2.22969E+04 4.66615E+04-9.68113E+04 7.67614E-10-3.60251E-09
 -1       503 3.28924E+05-2.09708E+03 1.86905E+04-2.44763E+04 1.63709E-10 3.21961E-10
 -1       504 3.32533E+05 2.14721E+03 1.05956E+04-9.65946E+04-4.07454E-10 2.34195E-09
 -1       505 3.29978E+05-2.81779E+02 4.78987E+03-2.46788E+04 1.14323E-09-5.74801E-10
 -1       506 3.30357E+05 4.32473E+02 2.72188E+03-9.62689E+04 2.47383E-09-2.86855E-09
 -1       507 3.30026E+05 3.41830E+01 1.56853E+03-2.48028E+04 1.89175E-09 4.74301E-10
 -1       508 3.29861E+05 4.01221E+02 1.41405E+03-9.61148E+04 1.59162E-09-1.13482E-09
 -1       509 3.29993E+05 6.67411E+01 1.84036E+03-2.48322E+04 1.71030E-09 8.64816E-10
 -1       510 3.30145E+05 6.07651E+02 3.39324E+03-9.61479E+04 2.36673E-09-2.55511E-10
 -1       511 3.29844E+05-2.20416E+02 6.18450E+03-2.47697E+04 1.72713E-09 1.08071E-09
 -1       512 3.32447E+05 3.02100E+03 1.36013E+04-9.63529E+04 3.02180E-09 2.23656E-09
 -1       513 3.28378E+05-2.39918E+03 2.41990E+04-2.46272E+04 1.63709E-11-8.18545E-11
 -1       514 3.49132E+05 2.92036E+04 6.00748E+04-9.64896E+04-7.01220E-10 1.94905E-09
 -1       515 3.14445E+05-2.21178E+04 9.34925E+04-2.46433E+04 6.29370E-10 1.24419E-09
 -1       516-1.46379E+04 2.27905E+05 6.67257E+04-4.23009E+04 2.84126E-09-1.15256E-09
 -1       517 2.28111E+04 2.51514E+05 4.75240E+04-1.63842E+05 4.50200E-09 6.17001E-09
 -1       518-2.43913E+03 2.36906E+05 2.82947E+04-4.21904E+04 2.11446E-09 4.90854E-09
 -1       519 1.73716E+04 2.49621E+05 3.85841E+04-1.63849E+05 4.22187E-09-2.37196E-09
 -1       520-1.12145E+04 2.31289E+05 4.94649E+04-4.23108E+04 8.91305E-10-3.28328E-09
 -1       521-2.56919E+06-3.27309E+05-2.19699E+05-1.00626E+06 1.44428E-09 3.20142E-10
 -1       522-2.62562E+06-4.90293E+05-1.38485E+05-1.02884E+06 2.32285E-09 2.36287E-09
 -1       523-2.60911E+06-3.75240E+05-5.18824E+04-9.98574E+05-3.71074E-10 1.49157E-10
 -1       524-2.57928E+06-4.28484E+05-2.84123E+04-1.04264E+06-9.82254E-10-2.94176E-09
 -1       525-2.61491E+06-3.79077E+05-1.20799E+04-9.96618E+05 7.15772E-10-8.56744E-10
 -1       526-2.57260E+06-4.23707E+05-6.34952E+03-1.04625E+06 4.21051E-09 4.57487E-09
 -1       527-2.61628E+06-3.78759E+05-3.25102E+03-9.95737E+05 1.97088E-09-1.37834E-09
 -1       528-2.57132E+06-4.23970E+05-2.51181E+03-1.04757E+06 1.16222E-09-6.63249E-10
 -1       529-2.61649E+06-3.78546E+05-2.97317E+03-9.95532E+05 1.50328E-09 4.57021E-11
 -1       530-2.57196E+06-4.24307E+05-5.62875E+03-1.04723E+06-2.27988E-09 4.93401E-10
 -1       531-2.61558E+06-3.78519E+05-1.05660E+04-9.96009E+05-1.68166E-09-2.71120E-09
 -1       532-2.57745E+06-4.28921E+05-2.48792E+04-1.04466E+06 5.82077E-10-4.81577E-10
 -1       533-2.61070E+06-3.74977E+05-4.53496E+04-9.97524E+05-8.64929E-10-9.09495E-10
 -1       534-2.61774E+06-4.83268E+05-1.21147E+05-1.03289E+06 6.73936E-10-1.31331E-09
 -1       535-2.57587E+06-3.32973E+05-1.92143E+05-1.00415E+06-6.65750E-10 2.25555E-10
 -1       536 1.02969E+06-3.70451E+04 1.60367E+05-9.64770E+03-2.38288E-10 3.17959E-09
 -1       537 1.08775E+06 5.01415E+04 1.02697E+05-4.14064E+04-2.68847E-09 3.31966E-09
 -1       538 1.05382E+06-3.86870E+03 4.15509E+04-9.95526E+03-3.51974E-10-1.34969E-09
 -1       539 1.06062E+06 4.89372E+03 2.32241E+04-4.07868E+04 1.54068E-09-1.26465E-09
 -1       540 1.05653E+06-4.36703E+02 1.05805E+04-1.02492E+04-1.98725E-10 3.99268E-10
 -1       541 1.05739E+06 4.85605E+02 5.72739E+03-4.03146E+04 1.05865E-09-9.25979E-10
 -1       542 1.05686E+06-5.13366E+01 3.01501E+03-1.04278E+04-8.90395E-10-1.05888E-09
 -1       543 1.05695E+06 1.02300E+02 2.15995E+03-4.00830E+04 4.01371E-10-2.46166E-09
 -1       544 1.05688E+06-2.59122E+01 2.22742E+03-1.04810E+04 1.56774E-10-1.66040E-09
 -1       545 1.05714E+06 3.19915E+02 3.64288E+03-4.00997E+04 4.14730E-10 2.82438E-09
 -1       546 1.05668E+06-2.47155E+02 6.44409E+03-1.04110E+04-2.35787E-10-1.98406E-09
 -1       547 1.05905E+06 2.96030E+03 1.39576E+04-4.03594E+04 8.73115E-10-9.24047E-10
 -1       548 1.05506E+06-2.30355E+03 2.49063E+04-1.02211E+04 2.03727E-10-5.92991E-10
 -1       549 1.07531E+06 3.00443E+04 6.15003E+04-4.07756E+04 2.63299E-10-5.52336E-09
 -1       550 1.04061E+06-2.21812E+04 9.59979E+04-1.00012E+04-1.72622E-09-1.37879E-09
 -1       551 2.23182E+04-2.93678E+05 4.38807E+04-4.85354E+05 3.74712E-09-2.82671E-09
 -1       552 1.00833E+04-2.86641E+05 2.66817E+04-5.67915E+05 2.65572E-09-1.34605E-09
 -1       553 4.77639E+03-2.91950E+05 2.08299E+04-4.84546E+05 3.49610E-09 2.13277E-09
 -1       554 1.16371E+04-2.86176E+05 3.03609E+04-5.68082E+05 2.97950E-09 4.63115E-09
 -1       555 2.71119E+04-2.95029E+05 5.28350E+04-4.85161E+05 3.81806E-09-2.22281E-09
 -1       556-6.87123E+05-2.23770E+05-2.10340E+04-4.11307E+05 1.42245E-09-4.24188E-09
 -1       557-6.70971E+05-2.37716E+05-1.02559E+04-4.36771E+05 3.23780E-10-6.28461E-10
 -1       558-6.88883E+05-2.15159E+05-4.40103E+03-4.14613E+05-8.22183E-10-1.21145E-09
 -1       559-6.68822E+05-2.35259E+05-2.13303E+03-4.38322E+05 5.09317E-10 3.51315E-09
 -1       560-6.89515E+05-2.14536E+05-1.01393E+03-4.15014E+05-3.52884E-10 2.28033E-09
 -1       561-6.69039E+05-2.35025E+05-5.34048E+02-4.38698E+05 0.00000E+00-1.40062E-10
 -1       562-6.89834E+05-2.14377E+05-3.62109E+02-4.15192E+05-2.39197E-09-8.00446E-09
 -1       563-6.69235E+05-2.34936E+05-4.06804E+02-4.38858E+05 8.32188E-11 2.36469E-09
 -1       564-6.89915E+05-2.14309E+05-6.83620E+02-4.15250E+05 2.44199E-10-5.00222E-10
 -1       565-6.69282E+05-2.34931E+05-1.39585E+03-4.38871E+05-3.61752E-10-2.62298E-09
 -1       566-6.89740E+05-2.14331E+05-2.84827E+03-4.15182E+05-4.72937E-11 2.51930E-09
 -1       567-6.69577E+05-2.35325E+05-6.22376E+03-4.38702E+05-3.42880E-10-1.98634E-09
 -1       568-6.89106E+05-2.15382E+05-1.27796E+04-4.14556E+05-4.00178E-11-7.20320E-10
 -1       569-6.76026E+05-2.43462E+05-3.01024E+04-4.36849E+05-1.15688E-09-8.44921E-09
 -1       570-6.86576E+05-2.38731E+05-6.14742E+04-4.04186E+05-1.80444E-09-1.17325E-10
 -1       571 7.95262E+05 3.90263E+04 8.22353E+04-1.52636E+05 1.33878E-09-4.21460E-09
 -1       572 8.10223E+05 1.23088E+04 4.15211E+04-1.77748E+05 3.60160E-10-2.51566E-09
 -1       573 8.01353E+05 1.36695E+03 1.86437E+04-1.51975E+05-7.27596E-10-4.62023E-10
 -1       574 8.02626E+05 3.30223E+02 9.48814E+03-1.78380E+05 1.17234E-09-2.67028E-09
 -1       575 8.01643E+05-1.65309E+02 4.56563E+03-1.51927E+05 9.64064E-11-7.33053E-10
 -1       576 8.01726E+05-4.71127E+01 2.35402E+03-1.78433E+05-3.51247E-09 1.69712E-09
 -1       577 8.01624E+05-5.02624E+01 1.19592E+03-1.51925E+05-3.29982E-09 3.31602E-09
 -1       578 8.01635E+05-1.95280E+01 7.02105E+02-1.78439E+05-1.70348E-09 1.78443E-09
 -1       579 8.01741E+05-8.10949E+01 5.12196E+02-1.51921E+05 1.98088E-09-4.51109E-10
 -1       580 8.01875E+05-1.42367E+02 6.13999E+02-1.78448E+05 2.78214E-09 5.87534E-10
 -1       581 8.02035E+05-2.74361E+02 9.68633E+02-1.51916E+05 1.67347E-10-2.58115E-09
 -1       582 8.02482E+05-3.01459E+02 1.93109E+03-1.78391E+05-9.40418E-10 2.10821E-09
 -1       583 8.02423E+05-2.46508E+02 3.70823E+03-1.51976E+05-4.58385E-10 1.50976E-10
 -1       584 8.04627E+05 1.78243E+03 8.29662E+03-1.77584E+05-6.06815E-09-1.00408E-09
 -1       585 8.01756E+05 6.98787E+03 1.63533E+04-1.52743E+05 1.27329E-09-1.62981E-09
 -1       586 8.68978E+03 1.49153E+05 1.63533E+04-5.47285E+05 3.96540E-10 7.63976E-11
 -1       587 5.32542E+03 1.51031E+05 1.22882E+04-6.40249E+05-2.66300E-09 7.53789E-09
 -1       588 3.64092E+03 1.48631E+05 1.32955E+04-5.46415E+05 1.14596E-09 4.81259E-09
 -1       589 9.86815E+03 1.53444E+05 2.41294E+04-6.40323E+05-3.29237E-09-1.66892E-09
 -1       590 2.32864E+04 1.46244E+05 4.50965E+04-5.47188E+05 1.35879E-09-3.92538E-09
 -1       591-4.65993E+05-1.52874E+05-5.95883E+04-2.50118E+05 4.66798E-10 2.49929E-09
 -1       592-4.64030E+05-1.49217E+05-2.92022E+04-2.72174E+05-1.39062E-09 3.90628E-09
 -1       593-4.67936E+05-1.30560E+05-1.23948E+04-2.60209E+05-8.56744E-10 1.21418E-09
 -1       594-4.57684E+05-1.41224E+05-6.06014E+03-2.73507E+05-1.98543E-09 6.91728E-10
 -1       595-4.68325E+05-1.29672E+05-2.79869E+03-2.60710E+05-9.14952E-10-5.40990E-09
 -1       596-4.57266E+05-1.40885E+05-1.43261E+03-2.73538E+05 8.92214E-10-3.93402E-09
 -1       597-4.68419E+05-1.29686E+05-8.12782E+02-2.60736E+05-1.24555E-09-9.86165E-09
 -1       598-4.57234E+05-1.40883E+05-7.10196E+02-2.73531E+05 2.43638E-10 4.49836E-09
 -1       599-4.68395E+05-1.29689E+05-9.81172E+02-2.60726E+05-2.72848E-12 2.19734E-09
 -1       600-4.57252E+05-1.40897E+05-1.87643E+03-2.73518E+05 6.58656E-09 9.39690E-09
 -1       601-4.68238E+05-1.29675E+05-3.74510E+03-2.60676E+05-3.16777E-09-6.98492E-09
 -1       602-4.57801E+05-1.41363E+05-8.15344E+03-2.73473E+05 3.56522E-10 1.27147E-09
 -1       603-4.67719E+05-1.30871E+05-1.66908E+04-2.59997E+05-2.70302E-09-2.31739E-09
 -1       604-4.66304E+05-1.52173E+05-3.93297E+04-2.71742E+05-8.47285E-09-6.31553E-09
 -1       605-4.65163E+05-1.60840E+05-8.02436E+04-2.46349E+05-7.93079E-10 2.54659E-10
 -1       606 2.06456E+05-2.19188E+04-4.57568E+04 4.97483E+04-1.42281E-08-8.75843E-10
 -1       607 1.97988E+05-6.93534E+03-2.30851E+04 5.72601E+04-2.32831E-09-1.45974E-10
 -1       608 2.02695E+05-8.02171E+02-1.03825E+04 4.92990E+04 1.38571E-08 1.11868E-10
 -1       609 2.01794E+05-6.75123E+01-5.26494E+03 5.77075E+04-2.02635E-09-3.00656E-09
 -1       610 2.02252E+05 2.27379E+02-2.53301E+03 4.92576E+04-1.63272E-08-4.94174E-09
 -1       611 2.02037E+05 2.84495E+02-1.27544E+03 5.77455E+04-3.53421E-08-5.14638E-09
 -1       612 2.02108E+05 2.58703E+02-6.10400E+02 4.92563E+04-1.56433E-08-4.90672E-10
 -1       613 2.01990E+05 3.22539E+02-2.68284E+02 5.77452E+04-2.04782E-08-4.58385E-10
 -1       614 2.02020E+05 2.79788E+02-5.68842E+01 4.92567E+04-3.18687E-09-4.09409E-09
 -1       615 2.01931E+05 3.53597E+02 1.33896E+02 5.77419E+04 1.65319E-08 3.89264E-09
 -1       616 2.01954E+05 3.03840E+02 3.80210E+02 4.92587E+04-9.82800E-09-1.14142E-09
 -1       617 2.01942E+05 4.28110E+02 8.58167E+02 5.77367E+04-2.39697E-09-2.25145E-09
 -1       618 2.01863E+05 4.84331E+02 1.71861E+03 4.92605E+04-4.47790E-09-8.84165E-09
 -1       619 2.02573E+05 1.57667E+03 3.84437E+03 5.77173E+04-1.75351E-09-2.53294E-10
 -1       620 2.01241E+05 4.00669E+03 7.62439E+03 4.92606E+04 7.76345E-09-4.94401E-09
 -1       621 8.88642E+03 8.08963E+05 2.00924E+04-1.28932E+05 6.40370E-09-1.11459E-09
 -1       622 3.63632E+03 8.12690E+05 1.54771E+04-1.50951E+05 1.98634E-09 3.24508E-09
 -1       623 2.00997E+03 8.09980E+05 1.76341E+04-1.28905E+05 6.30280E-09 6.09180E-09
 -1       624 1.00548E+04 8.16662E+05 3.27906E+04-1.50648E+05 2.41926E-09 7.23958E-10
 -1       625 2.98286E+04 8.05406E+05 6.20852E+04-1.29211E+05 6.26824E-09-1.03319E-09
 -1       626 3.40597E+05 9.70195E+04-1.94651E+04 2.06298E+05-1.49539E-08-2.52476E-09
 -1       627 3.28722E+05 1.10683E+05-9.53085E+03 2.13208E+05-3.93811E-09-2.67733E-09
 -1       628 3.40241E+05 1.03926E+05-4.05341E+03 2.02455E+05 6.46469E-09-1.58570E-09
 -1       629 3.30201E+05 1.13796E+05-1.96363E+03 2.13193E+05 1.88884E-08 2.54090E-09
 -1       630 3.40043E+05 1.04241E+05-8.86187E+02 2.02182E+05 2.51566E-09-6.36635E-09
 -1       631 3.30189E+05 1.13985E+05-3.94073E+02 2.13148E+05-1.44310E-08-6.41660E-09
 -1       632 3.39927E+05 1.04275E+05-1.12237E+02 2.02119E+05-1.93650E-08-4.71528E-09
 -1       633 3.30132E+05 1.14015E+05 1.01904E+02 2.13102E+05-5.47516E-10-4.50927E-09
 -1       634 3.39859E+05 1.04280E+05 3.63955E+02 2.02090E+05 6.64568E-09-4.18322E-09
 -1       635 3.30140E+05 1.14020E+05 8.60573E+02 2.13096E+05 5.52154E-09-3.41515E-10
 -1       636 3.39812E+05 1.04252E+05 1.79611E+03 2.02086E+05 8.81710E-09 1.02045E-09
 -1       637 3.30485E+05 1.14214E+05 3.95538E+03 2.13130E+05 1.18064E-08 1.94950E-09
 -1       638 3.39658E+05 1.04772E+05 8.10142E+03 2.01817E+05 9.89803E-09 1.32968E-09
 -1       639 3.34804E+05 1.19377E+05 1.91102E+04 2.12366E+05 5.07316E-09-3.87081E-09
 -1       640 3.38562E+05 1.19290E+05 3.89789E+04 1.95296E+05 1.70676E-08-5.70799E-09
 -1       641 1.41582E+04 2.47414E+03-1.06844E+04 3.34806E+03-1.79525E-08 5.97083E-10
 -1       642 1.02522E+04-3.25820E+03-6.83419E+03 1.28969E+04-1.84450E-08 3.75962E-10
 -1       643 1.25441E+04 2.73606E+02-2.76269E+03 3.31642E+03-2.20377E-08-7.19638E-11
 -1       644 1.20258E+04-2.30034E+02-1.52884E+03 1.29284E+04 8.01265E-10-4.13132E-09
 -1       645 1.23586E+04 5.22081E+01-6.73854E+02 3.31437E+03 1.88038E-10-1.42205E-09
 -1       646 1.22228E+04 7.29842E+01-3.15708E+02 1.29296E+04-9.52900E-09 3.17311E-09
 -1       647 1.23319E+04 2.94135E+01-7.34412E+01 3.31487E+03 2.85643E-08 1.59559E-09
 -1       648 1.22572E+04 1.09881E+02 1.18911E+02 1.29291E+04 3.41079E-08-7.59414E-10
 -1       649 1.23196E+04 2.00757E+01 3.61962E+02 3.31475E+03 1.61461E-08 2.29426E-09
 -1       650 1.23296E+04 1.78402E+02 8.31524E+02 1.29291E+04 1.80012E-08 7.88532E-10
 -1       651 1.22654E+04-3.82349E+01 1.60994E+03 3.31482E+03-1.76510E-09-2.93539E-09
 -1       652 1.28209E+04 8.65602E+02 3.57596E+03 1.29271E+04-3.45244E-09-8.21785E-10
 -1       653 1.18447E+04-5.66381E+02 6.41844E+03 3.31643E+03 9.85847E-09-2.46473E-10
 -1       654 1.70042E+04 7.87338E+03 1.58779E+04 1.28804E+04-3.58841E-09-2.06410E-09
 -1       655 8.10991E+03-5.69841E+03 2.47942E+04 3.35702E+03 1.77447E-08-4.62933E-10
 -1       656 1.56046E+04-6.03143E+05-7.11821E+04 2.65868E+04 2.37233E-08-4.82487E-09
 -1       657-2.38074E+04-6.28665E+05-5.17758E+04 9.88889E+04 2.47583E-08 4.72551E-09
 -1       658 2.91550E+03-6.12448E+05-3.28508E+04 2.62917E+04 2.26237E-08 2.37696E-09
 -1       659-2.15962E+04-6.27581E+05-4.79755E+04 9.91053E+04 2.19147E-08 2.00373E-10
 -1       660 1.39877E+04-6.04485E+05-6.39383E+04 2.63758E+04 2.20025E-08-3.48700E-09
 -1       661 5.64986E+05 7.29668E+04 4.58737E+04 2.21715E+05 5.12318E-09-4.19277E-09
 -1       662 5.77377E+05 1.06668E+05 2.89516E+04 2.26029E+05-5.64251E-09 3.69619E-09
 -1       663 5.72868E+05 8.34532E+04 1.08348E+04 2.20616E+05 4.06838E-09-3.19733E-09
 -1       664 5.68318E+05 9.30492E+04 5.96772E+03 2.27942E+05-3.01099E-08-5.07555E-09
 -1       665 5.73750E+05 8.46028E+04 2.54225E+03 2.20550E+05-2.17163E-08-3.65071E-09
 -1       666 5.67303E+05 9.15980E+04 1.38239E+03 2.28067E+05-5.46390E-09-7.07803E-09
 -1       667 5.73852E+05 8.47320E+04 7.74143E+02 2.20553E+05 1.73659E-08 4.35364E-09
 -1       668 5.67198E+05 9.14775E+04 7.31404E+02 2.28083E+05-1.26030E-08-7.85673E-09
 -1       669 5.73854E+05 8.47107E+04 1.02820E+03 2.20540E+05 7.95012E-09-1.44996E-09
 -1       670 5.67352E+05 9.17388E+04 2.08796E+03 2.28122E+05 2.86168E-08 4.82174E-09
 -1       671 5.73710E+05 8.44829E+04 3.96774E+03 2.20513E+05 1.72093E-08-3.51724E-09
 -1       672 5.68936E+05 9.40604E+04 9.40009E+03 2.27961E+05 9.81413E-09 4.09273E-10
 -1       673 5.72325E+05 8.26567E+04 1.70912E+04 2.20606E+05-4.68361E-10-7.97627E-09
 -1       674 5.83230E+05 1.15572E+05 4.56992E+04 2.24958E+05-5.95037E-09-3.13503E-09
 -1       675 5.59885E+05 6.61022E+04 7.24166E+04 2.22340E+05-3.83716E-09 2.49565E-09
 -1       676 5.91598E+03-5.32507E+05-2.71681E+04 7.14427E+03 2.87473E-08-3.43334E-11
 -1       677-9.17767E+03-5.42360E+05-2.08019E+04 2.27779E+04 8.39998E-09-2.26385E-09
 -1       678 1.34261E+03-5.35794E+05-1.49233E+04 7.05474E+03 3.01616E-08 1.76749E-09
 -1       679-1.12654E+04-5.43625E+05-2.45168E+04 2.28723E+04 4.92992E-09 1.94973E-09
 -1       680 7.61637E+03-5.31270E+05-3.41874E+04 7.04934E+03 3.22998E-08-4.11169E-10
 -1       681 5.21991E+05-6.82195E+03 2.92420E+04-7.24605E+03-1.81899E-11-2.91038E-10
 -1       682 5.32669E+05 9.11428E+03 1.87593E+04-2.95241E+04-4.09273E-11-1.70621E-09
 -1       683 5.26384E+05-7.32405E+02 7.58604E+03-7.31015E+03-1.87811E-10-5.15229E-10
 -1       684 5.27640E+05 8.76191E+02 4.26953E+03-2.93561E+04-1.62117E-10-1.57524E-09
 -1       685 5.26866E+05-8.88713E+01 1.98298E+03-7.41196E+03 7.59428E-11-6.27779E-10
 -1       686 5.27009E+05 9.08998E+01 1.16143E+03-2.91946E+04 6.48015E-12 1.44593E-09
 -1       687 5.26916E+05-1.11329E+01 7.75800E+02-7.47169E+03 9.59517E-11 4.96470E-10
 -1       688 5.26931E+05 4.36624E+01 8.61282E+02-2.91188E+04-2.40789E-10-4.94367E-10
 -1       689 5.26898E+05-1.87148E+01 1.31434E+03-7.48781E+03-1.18320E-10-4.88825E-10
 -1       690 5.27112E+05 2.32430E+02 2.57559E+03-2.91322E+04 3.99098E-10 9.86120E-10
 -1       691 5.26743E+05-1.88442E+02 4.80403E+03-7.45823E+03 1.23237E-10 2.01453E-10
 -1       692 5.28562E+05 2.24949E+03 1.05624E+04-2.92301E+04 5.45697E-11 1.54614E-11
 -1       693 5.25508E+05-1.74690E+03 1.89148E+04-7.38974E+03-5.18412E-11 1.31422E-09
 -1       694 5.40898E+05 2.28650E+04 4.67541E+04-2.93473E+04-5.20686E-10 1.36470E-09
 -1       695 5.14517E+05-1.68579E+04 7.30025E+04-7.34501E+03-3.79259E-10-8.00355E-11
 -1       696-7.17837E+03 5.45424E+05 3.08114E+04-1.49256E+04 1.38243E-10-1.00249E-09
 -1       697 9.66028E+03 5.56285E+05 1.83511E+04-5.60457E+04 1.58252E-10-8.98694E-11
 -1       698-3.93467E+02 5.50390E+05 4.77057E+03-1.49016E+04-1.82808E-10 1.40756E-09
 -1       699-2.87105E+03 5.48879E+05-3.86547E+03-5.60768E+04-2.60911E-10 2.60388E-09
 -1       700 2.88501E+03 5.52884E+05-1.12280E+04-1.48975E+04-2.00998E-10 1.69393E-09
 -1       701-4.78660E+05-5.52530E+04-6.68317E+04-1.90379E+05 1.18234E-10-3.45608E-10
 -1       702-4.98028E+05-1.02983E+05-4.21694E+04-1.95201E+05-2.39879E-11-9.93168E-10
 -1       703-4.90313E+05-7.03613E+04-1.57803E+04-1.88593E+05-1.48020E-10 8.36735E-10
 -1       704-4.84610E+05-8.33838E+04-8.67096E+03-1.98333E+05-4.56680E-10 2.45564E-11
 -1       705-4.91715E+05-7.19141E+04-3.67802E+03-1.88377E+05-1.07548E-10-5.20913E-10
 -1       706-4.82999E+05-8.14252E+04-1.95131E+03-1.98733E+05-1.30967E-10 4.44970E-10
 -1       707-4.91927E+05-7.20356E+04-1.01047E+03-1.88318E+05 4.50200E-11 2.74724E-10
 -1       708-4.82781E+05-8.12983E+04-8.06907E+02-1.98844E+05 1.01807E-10 2.68969E-10
 -1       709-4.91955E+05-7.20078E+04-9.83413E+02-1.88291E+05 1.88720E-11-1.27329E-11
 -1       710-4.82920E+05-8.15089E+04-1.88296E+03-1.98865E+05 1.95115E-11-9.29390E-12
 -1       711-4.91800E+05-7.18358E+04-3.53045E+03-1.88297E+05 2.85212E-11-4.18140E-10
 -1       712-4.84401E+05-8.34787E+04-8.33329E+03-1.98604E+05 1.34719E-11-2.44086E-10
 -1       713-4.90504E+05-7.02916E+04-1.51490E+04-1.88455E+05-4.13820E-11 2.06455E-10
 -1       714-4.97203E+05-1.02411E+05-4.05085E+04-1.95736E+05 9.49285E-11-7.13044E-10
 -1       715-4.79375E+05-5.57096E+04-6.41796E+04-1.90103E+05 2.84672E-10 1.52795E-10
 -1       716 3.83066E+05-1.41846E+04 6.06662E+04-1.59773E+04 1.60071E-10 6.00267E-10
 -1       717 4.05261E+05 1.90229E+04 3.89325E+04-6.22729E+04-3.12866E-10-1.38243E-10
 -1       718 3.92149E+05-1.49348E+03 1.57290E+04-1.59958E+04-5.70253E-10 3.99268E-10
 -1       719 3.94692E+05 1.96959E+03 8.84005E+03-6.21476E+04-4.97948E-10 3.16186E-09
 -1       720 3.93134E+05-1.34289E+02 4.07704E+03-1.60989E+04 1.27739E-09 9.86347E-10
 -1       721 3.93343E+05 3.52043E+02 2.32092E+03-6.20047E+04 2.46882E-09 1.13209E-09
 -1       722 3.93243E+05 2.56558E+01 1.43701E+03-1.61388E+04 1.39360E-09-3.96312E-10
 -1       723 3.93221E+05 2.18842E+02 1.42226E+03-6.19954E+04 1.03773E-09 2.51043E-09
 -1       724 3.93241E+05-7.71818E+00 2.00558E+03-1.61082E+04 5.42968E-10 1.42848E-09
 -1       725 3.93636E+05 4.29265E+02 3.84359E+03-6.21294E+04 2.11003E-10 1.77464E-09
 -1       726 3.93054E+05-3.17347E+02 7.07609E+03-1.60049E+04 5.50244E-10 6.63704E-10
 -1       727 3.96051E+05 3.29388E+03 1.56038E+04-6.23969E+04 1.66983E-09 1.93359E-09
 -1       728 3.91296E+05-2.71181E+03 2.78384E+04-1.58401E+04 9.82254E-11-4.58385E-10
 -1       729 4.14665E+05 3.35681E+04 6.89969E+04-6.26159E+04-9.68612E-10-6.36646E-12
 -1       730 3.75169E+05-2.51504E+04 1.07567E+05-1.57986E+04-6.73026E-10-2.38651E-09
 -1       731-9.97608E+03 1.96805E+05 4.35036E+04-3.20029E+04 8.54925E-10 3.54703E-11
 -1       732 1.40758E+04 2.12263E+05 2.80836E+04-1.24804E+05 1.88220E-09-5.59339E-10
 -1       733-9.86671E+02 2.03279E+05 1.17212E+04-3.19164E+04 8.48104E-10 1.72486E-09
 -1       734 2.43065E+03 2.05529E+05 7.52100E+03-1.24804E+05 1.62527E-09 1.15620E-09
 -1       735-7.30316E+02 2.03747E+05 4.55215E+03-3.20045E+04 2.90129E-10 9.73159E-10
 -1       736-1.21040E+06-1.51531E+05-9.85144E+04-4.68791E+05 2.22826E-10-1.67347E-09
 -1       737-1.24127E+06-2.19589E+05-6.21673E+04-4.73225E+05-3.08376E-10 2.21917E-10
 -1       738-1.22767E+06-1.73713E+05-2.32483E+04-4.66022E+05 2.66823E-10-6.71207E-10
 -1       739-1.22128E+06-1.90874E+05-1.27750E+04-4.78062E+05 4.16094E-11-3.92220E-10
 -1       740-1.22982E+06-1.75919E+05-5.40778E+03-4.65602E+05 5.22505E-10-2.04636E-11
 -1       741-1.21876E+06-1.88116E+05-2.85926E+03-4.78801E+05 1.19917E-09 3.39810E-10
 -1       742-1.23018E+06-1.76055E+05-1.45543E+03-4.65460E+05 4.77257E-10 6.41592E-10
 -1       743-1.21837E+06-1.87979E+05-1.12042E+03-4.79020E+05 3.50099E-10 4.67102E-10
 -1       744-1.23023E+06-1.76012E+05-1.31138E+03-4.65412E+05 8.42249E-10 3.78748E-10
 -1       745-1.21856E+06-1.88230E+05-2.46721E+03-4.79019E+05-8.17693E-10-3.21563E-10
 -1       746-1.23000E+06-1.75823E+05-4.60546E+03-4.65456E+05-1.80478E-10-9.39053E-11
 -1       747-1.22059E+06-1.90692E+05-1.08596E+04-4.78544E+05-3.12070E-11-7.12134E-10
 -1       748-1.22823E+06-1.73892E+05-1.97406E+04-4.65751E+05-3.43505E-10-6.62112E-10
 -1       749-1.23748E+06-2.15181E+05-5.27988E+04-4.74561E+05-5.45242E-10-7.65795E-10
 -1       750-1.21361E+06-1.55005E+05-8.36573E+04-4.68050E+05-4.85670E-10 3.85626E-10
 -1       751 1.91448E+06-5.78514E+04 2.51074E+05-9.76117E+03-6.51198E-10-1.16415E-10
 -1       752 2.00519E+06 7.84638E+04 1.60725E+05-4.61512E+04-2.78669E-09-2.33558E-09
 -1       753 1.95228E+06-6.01818E+03 6.50849E+04-1.05043E+04-4.92946E-10-1.20781E-09
 -1       754 1.96285E+06 7.66872E+03 3.63891E+04-4.47729E+04 6.78483E-10 1.56797E-09
 -1       755 1.95653E+06-6.73007E+02 1.66337E+04-1.11072E+04 3.23780E-10-1.79716E-09
 -1       756 1.95786E+06 7.56006E+02 9.08468E+03-4.38118E+04-5.00904E-10 9.33369E-10
 -1       757 1.95706E+06-8.37006E+01 4.94865E+03-1.14659E+04-6.08907E-10 6.18456E-11
 -1       758 1.95723E+06 1.60440E+02 3.84475E+03-4.33444E+04-3.91822E-10 2.84558E-10
 -1       759 1.95707E+06-6.10531E+01 4.38541E+03-1.15750E+04-4.23910E-11 8.71410E-11
 -1       760 1.95765E+06 6.50413E+02 7.58938E+03-4.33713E+04-2.44427E-10-1.60640E-10
 -1       761 1.95664E+06-5.24060E+02 1.36731E+04-1.14388E+04 6.32099E-11 5.89353E-10
 -1       762 1.96166E+06 6.31225E+03 2.97462E+04-4.38870E+04 1.40244E-09 2.19052E-09
 -1       763 1.95315E+06-4.87518E+03 5.31644E+04-1.10588E+04 3.07409E-10 3.94721E-09
 -1       764 1.99618E+06 6.41201E+04 1.31211E+05-4.48115E+04 5.91172E-11-4.91127E-11
 -1       765 1.92228E+06-4.71807E+04 2.04950E+05-1.05300E+04-1.86537E-09 1.09139E-09
 -1       766-2.75539E+04 4.94929E+05 1.23150E+05-9.49301E+03-1.72440E-09-1.23418E-09
 -1       767 4.00691E+04 5.39908E+05 8.78356E+04-3.47093E+04-9.73159E-11-1.29148E-09
 -1       768-4.90766E+03 5.11357E+05 5.26658E+04-9.39219E+03-1.40926E-09 1.37516E-09
 -1       769 3.11680E+04 5.34831E+05 7.21515E+04-3.48929E+04-1.88265E-10 1.88311E-09
 -1       770-2.05414E+04 5.00240E+05 9.34034E+04-9.32396E+03-8.44011E-10 1.26875E-09
 -1       771-1.66278E+06-3.41111E+05-1.16127E+05-6.86378E+05-7.07132E-10-4.87489E-10
 -1       772-1.66983E+06-3.22951E+05-5.69037E+04-7.16601E+05-1.88811E-09-9.32232E-10
 -1       773-1.66637E+06-2.97805E+05-2.41567E+04-7.06125E+05-1.25874E-09 3.01952E-10
 -1       774-1.65750E+06-3.07344E+05-1.17971E+04-7.19146E+05 9.89530E-10-1.47975E-09
 -1       775-1.66717E+06-2.96036E+05-5.43937E+03-7.07094E+05-2.51021E-10-7.58519E-10
 -1       776-1.65671E+06-3.06695E+05-2.73902E+03-7.19302E+05 8.73115E-10-2.12435E-09
 -1       777-1.66748E+06-2.95997E+05-1.47631E+03-7.07182E+05-6.54836E-11-1.12368E-09
 -1       778-1.65674E+06-3.06669E+05-1.12811E+03-7.19428E+05-3.20142E-10-1.47929E-09
 -1       779-1.66762E+06-2.95916E+05-1.38409E+03-7.07241E+05-5.45697E-11-8.22411E-10
 -1       780-1.65691E+06-3.06646E+05-2.50913E+03-7.19571E+05-1.45519E-10-1.00044E-10
 -1       781-1.66760E+06-2.95791E+05-4.93870E+03-7.07267E+05 7.16682E-10 5.18412E-11
 -1       782-1.65780E+06-3.07219E+05-1.07303E+04-7.19712E+05-2.77396E-11 3.14685E-10
 -1       783-1.66715E+06-2.97222E+05-2.19438E+04-7.06462E+05-7.18956E-10-1.12414E-09
 -1       784-1.66892E+06-3.21692E+05-5.17655E+04-7.17972E+05 2.11685E-10 1.44610E-10
 -1       785-1.66426E+06-3.36338E+05-1.05600E+05-6.88367E+05-8.27640E-11 3.27418E-11
 -1       786 1.08838E+06-2.93287E+04 1.27330E+05-5.78342E+03 9.26320E-10-1.23691E-10
 -1       787 1.13429E+06 3.98608E+04 8.15200E+04-2.53269E+04-6.23686E-10-4.36557E-10
 -1       788 1.10757E+06-3.03096E+03 3.30051E+04-5.95349E+03-4.40195E-10-2.29193E-10
 -1       789 1.11287E+06 3.90372E+03 1.84357E+04-2.49982E+04-4.06089E-10-1.13323E-09
 -1       790 1.10973E+06-3.32423E+02 8.41298E+03-6.10295E+03 1.01954E-09 1.25510E-10
 -1       791 1.11039E+06 3.74248E+02 4.55576E+03-2.47789E+04 1.02364E-09-1.42609E-09
 -1       792 1.11001E+06-4.32116E+01 2.41692E+03-6.17274E+03 1.93381E-10-8.12861E-11
 -1       793 1.11008E+06 5.34178E+01 1.75864E+03-2.47203E+04 1.09509E-10 2.03033E-09
 -1       794 1.11002E+06-3.24339E+01 1.85443E+03-6.16167E+03-5.71163E-10-4.49944E-10
 -1       795 1.11026E+06 2.34826E+02 3.07560E+03-2.48246E+04 1.46838E-09 4.63343E-09
 -1       796 1.10986E+06-2.19777E+02 5.46469E+03-6.06830E+03-1.19849E-09-8.00583E-10
 -1       797 1.11187E+06 2.48556E+03 1.18525E+04-2.50879E+04-5.58430E-10-4.19504E-10
 -1       798 1.10847E+06-1.95637E+03 2.11609E+04-5.89839E+03-1.17734E-09-8.31278E-10
 -1       799 1.12563E+06 2.55131E+04 5.22448E+04-2.54528E+04-4.17026E-09-4.40923E-09
 -1       800 1.09618E+06-1.88219E+04 8.15651E+04-5.71004E+03 2.45564E-11 8.44011E-10
 -1       801-1.70209E+04 4.65084E+05 7.40034E+04-1.78092E+05 1.13505E-09 2.53203E-09
 -1       802 3.25575E+04 4.89061E+05 6.16862E+04-6.92849E+05-5.07680E-09-1.22236E-09
 -1       803-2.48636E+03 4.71777E+05 4.97561E+04-1.77814E+05 2.35195E-09 5.61522E-09
 -1       804 4.77259E+04 5.00209E+05 8.97360E+04-6.92902E+05-6.83940E-09-4.56203E-09
 -1       805-3.07544E+04 4.56323E+05 1.26557E+05-1.78058E+05 2.17551E-09 1.54250E-09
 -1       806-9.17067E+05-2.20429E+05-8.14392E+04-4.09885E+05-2.22371E-10-4.07454E-10
 -1       807-9.18942E+05-2.10876E+05-3.99182E+04-4.34746E+05-2.90129E-10 1.86446E-10
 -1       808-9.19498E+05-1.90112E+05-1.69328E+04-4.23777E+05-1.20235E-09 1.19962E-09
 -1       809-9.10311E+05-1.99839E+05-8.27868E+03-4.36341E+05-1.79807E-09 2.70649E-09
 -1       810-9.19953E+05-1.88945E+05-3.81374E+03-4.24432E+05-4.90218E-10 4.95220E-10
 -1       811-9.09693E+05-1.99388E+05-1.93965E+03-4.36330E+05-2.22508E-09 4.34738E-09
 -1       812-9.20048E+05-1.88987E+05-1.07185E+03-4.24447E+05 1.59525E-09-2.28738E-09
 -1       813-9.09625E+05-1.99394E+05-8.87102E+02-4.36300E+05 9.93964E-10-5.23141E-09
 -1       814-9.20013E+05-1.89001E+05-1.16747E+03-4.24431E+05 3.33785E-10-7.45786E-10
 -1       815-9.09649E+05-1.99407E+05-2.19002E+03-4.36279E+05-4.33374E-10-8.45830E-10
 -1       816-9.19839E+05-1.88984E+05-4.34792E+03-4.24383E+05-5.14410E-09-5.36238E-09
 -1       817-9.10311E+05-1.99935E+05-9.45539E+03-4.36237E+05-4.19277E-10-2.40107E-10
 -1       818-9.19266E+05-1.90355E+05-1.93499E+04-4.23613E+05-1.44246E-09-2.69210E-10
 -1       819-9.20173E+05-2.12501E+05-4.56048E+04-4.34314E+05-8.46558E-09 2.51021E-09
 -1       820-9.16417E+05-2.25023E+05-9.30424E+04-4.07754E+05-5.44787E-09-1.05611E-08
 -1       821-7.08686E+05 1.98924E+04-8.64886E+04 4.23753E+03-8.52106E-09 3.35785E-09
 -1       822-7.39755E+05-2.70895E+04-5.53689E+04 2.02596E+04-3.88900E-09-1.89357E-09
 -1       823-7.21736E+05 2.03397E+03-2.24262E+04 3.95550E+03 7.48241E-09-2.80852E-09
 -1       824-7.25326E+05-2.58313E+03-1.25133E+04 2.07000E+04-2.32831E-09-3.56044E-09
 -1       825-7.23223E+05 2.28009E+02-5.73039E+03 3.79079E+03-1.48539E-08 1.39175E-09
 -1       826-7.23731E+05-1.41932E+02-3.11621E+03 2.09750E+04-2.57548E-08 3.68516E-10
 -1       827-7.23420E+05 5.10498E+01-1.70147E+03 3.67893E+03-1.29510E-08-1.53477E-10
 -1       828-7.23582E+05 9.45042E+01-1.31610E+03 2.11490E+04-1.77964E-08-1.46923E-09
 -1       829-7.23431E+05 5.52390E+01-1.50323E+03 3.61612E+03-1.63334E-09 9.80982E-10
 -1       830-7.23747E+05-6.73006E+01-2.60408E+03 2.12224E+04 1.08707E-08-2.75948E-09
 -1       831-7.23282E+05 2.12278E+02-4.69780E+03 3.60524E+03-5.94423E-09-4.90218E-10
 -1       832-7.25096E+05-2.03867E+03-1.02296E+04 2.11932E+04 5.27734E-10-6.52290E-09
 -1       833-7.22076E+05 1.69789E+03-1.82971E+04 3.64648E+03 1.00999E-09-7.54881E-10
 -1       834-7.36912E+05-2.20254E+04-4.51956E+04 2.10394E+04-5.60340E-09-5.45697E-09
 -1       835-7.11432E+05 1.62838E+04-7.05729E+04 3.76977E+03 3.81533E-09-2.90675E-09
 -1       836-3.35030E+04 1.76402E+06 1.52185E+05-7.21272E+04-3.60160E-09 1.30967E-10
 -1       837 5.21180E+04 1.81906E+06 1.16134E+05-2.68840E+05 9.93896E-09 2.31921E-09
 -1       838-7.10426E+03 1.78229E+06 8.23060E+04-7.26009E+04-5.54610E-09 1.09753E-09
 -1       839 6.20654E+04 1.82470E+06 1.33660E+05-2.68665E+05 1.12977E-08-3.37468E-09
 -1       840-4.13140E+04 1.75807E+06 1.85450E+05-7.22966E+04-3.42698E-09 2.97405E-09
 -1       841-2.28506E+05-1.90777E+04-4.21508E+04-8.52438E+04-9.16771E-10 7.14863E-10
 -1       842-2.58101E+05-3.16686E+04-2.65741E+04-6.84020E+04 7.73070E-12 7.56700E-10
 -1       843-2.35659E+05-2.87833E+04-9.95481E+03-8.43600E+04 9.90258E-09-1.56751E-09
 -1       844-2.49996E+05-1.90087E+04-5.45256E+03-7.00674E+04 1.87783E-08-1.77607E-10
 -1       845-2.36453E+05-2.98442E+04-2.30015E+03-8.43400E+04 2.37833E-09-1.23494E-09
 -1       846-2.49173E+05-1.76077E+04-1.17799E+03-7.01636E+04-1.41470E-08-3.11297E-09
 -1       847-2.36533E+05-2.99760E+04-5.33035E+02-8.43779E+04-1.32291E-08 1.87936E-09
 -1       848-2.49134E+05-1.74155E+04-2.77494E+02-7.01394E+04 2.06512E-09 3.63517E-09
 -1       849-2.36535E+05-2.99982E+04-1.55626E+02-8.44001E+04 6.75857E-09 1.47503E-09
 -1       850-2.49150E+05-1.73926E+04-1.41676E+02-7.01274E+04-5.16732E-09-3.75036E-09
 -1       851-2.36531E+05-2.99911E+04-1.91055E+02-8.44000E+04 3.58386E-09-4.58925E-09
 -1       852-2.49183E+05-1.75060E+04-4.03089E+02-7.01293E+04 8.28368E-09 3.61638E-10
 -1       853-2.36488E+05-2.99064E+04-7.23070E+02-8.43826E+04-5.42605E-09 4.38126E-09
 -1       854-2.49659E+05-1.84933E+04-1.90793E+03-7.00740E+04-6.55609E-09 2.72075E-09
 -1       855-2.36029E+05-2.91635E+04-3.03766E+03-8.43731E+04 3.91401E-09 5.20743E-10
 -1       856-5.57312E+05 1.29331E+04-5.62511E+04 5.74814E+03-1.36288E-08 1.81899E-11
 -1       857-5.77562E+05-1.74795E+04-3.59944E+04 2.76359E+04-1.48320E-08-3.85762E-09
 -1       858-5.65807E+05 1.34606E+03-1.45843E+04 5.50712E+03-1.53163E-08 3.81078E-10
 -1       859-5.68242E+05-1.52604E+03-8.12966E+03 2.79900E+04-8.80732E-09-6.06997E-09
 -1       860-5.66782E+05 1.84448E+02-3.71565E+03 5.38509E+03-5.54201E-09-4.19186E-09
 -1       861-5.67236E+05 7.41676E+01-2.00461E+03 2.81733E+04-1.93949E-08-4.08033E-09
 -1       862-5.66914E+05 7.38695E+01-1.06292E+03 5.32171E+03 1.82936E-08-2.36946E-09
 -1       863-5.67138E+05 2.31909E+02-7.69807E+02 2.82480E+04 3.47266E-08-6.98424E-09
 -1       864-5.66923E+05 7.12540E+01-8.10273E+02 5.30973E+03 2.34817E-08-5.95963E-09
 -1       865-5.67195E+05 1.44065E+02-1.34218E+03 2.82192E+04 3.00153E-08-9.00548E-09
 -1       866-5.66842E+05 1.40395E+02-2.39266E+03 5.35071E+03-1.61072E-09-1.64550E-09
 -1       867-5.67823E+05-8.74788E+02-5.17994E+03 2.80840E+04-8.09337E-09-5.59498E-09
 -1       868-5.66220E+05 8.73608E+02-9.27205E+03 5.44638E+03 1.65928E-08-2.94995E-09
 -1       869-5.73717E+05-1.10163E+04-2.28640E+04 2.77822E+04-1.07632E-08-6.98310E-09
 -1       870-5.60821E+05 8.22315E+03-3.57359E+04 5.65931E+03 1.19690E-08-2.60115E-09
 -1       871-4.89265E+03-3.46534E+04-7.75105E+03 1.41917E+05 1.17807E-08-3.47700E-09
 -1       872-2.02138E+03-3.59750E+04-2.11798E+03 1.65966E+05 3.48700E-09-9.25957E-09
 -1       873-4.51799E+02-3.56111E+04 2.62070E+03 1.41673E+05 9.81163E-09-1.00181E-09
 -1       874 2.29064E+03-3.35171E+04 9.29375E+03 1.66060E+05 1.49730E-08 1.16415E-10
 -1       875 9.05240E+03-3.72502E+04 1.99355E+04 1.41872E+05 1.10485E-08 6.26369E-09
 -1       876 6.34018E+05 8.09621E+04 6.02404E+04 2.51163E+05 6.22686E-09-1.06702E-08
 -1       877 6.47331E+05 1.28290E+05 3.80308E+04 2.60300E+05-5.49539E-09 4.87034E-10
 -1       878 6.44315E+05 9.48010E+04 1.42205E+04 2.49769E+05 2.08183E-09-2.87127E-09
 -1       879 6.35494E+05 1.10304E+05 7.83415E+03 2.62666E+05-2.36500E-08-2.44722E-09
 -1       880 6.45414E+05 9.63752E+04 3.32121E+03 2.49738E+05-1.87097E-08-1.15551E-09
 -1       881 6.34228E+05 1.08306E+05 1.78552E+03 2.62701E+05-2.56995E-08-1.21826E-08
 -1       882 6.45502E+05 9.65968E+04 9.52190E+02 2.49789E+05 1.07088E-08 6.30905E-09
 -1       883 6.34138E+05 1.08068E+05 8.20209E+02 2.62623E+05-1.22678E-08 5.55519E-09
 -1       884 6.45479E+05 9.66118E+04 1.06916E+03 2.49806E+05-5.61126E-09 2.65703E-09
 -1       885 6.34319E+05 1.08287E+05 2.10633E+03 2.62615E+05 4.87708E-08 1.87862E-09
 -1       886 6.45325E+05 9.63947E+04 3.97461E+03 2.49791E+05 9.42907E-09-2.94608E-09
 -1       887 6.35911E+05 1.10602E+05 9.39705E+03 2.62454E+05 5.15513E-10-5.06952E-09
 -1       888 6.43950E+05 9.45596E+04 1.70776E+04 2.49878E+05 1.00024E-08-3.95721E-09
 -1       889 6.50189E+05 1.32112E+05 4.56606E+04 2.59491E+05-6.78318E-09-1.47338E-09
 -1       890 6.31538E+05 7.79969E+04 7.23458E+04 2.51595E+05-2.74576E-09 7.93079E-10
 -1       891 2.08745E+03-2.82854E+05-1.07278E+04 3.02116E+04 1.50831E-08-2.27283E-09
 -1       892-4.19061E+03-2.86343E+05-8.65371E+03 1.16368E+05 2.31717E-09 4.54111E-09
 -1       893 5.10961E+02-2.84076E+05-6.97960E+03 3.00635E+04 1.87526E-08 1.96997E-09
 -1       894-6.39455E+03-2.87592E+05-1.25312E+04 1.16337E+05-4.75484E-09-1.73759E-09
 -1       895 3.82002E+03-2.81537E+05-1.80771E+04 3.02409E+04 1.81062E-08 2.04818E-09
 -1       896 8.35395E+05-3.15642E+03 1.34921E+04-4.70943E+03-9.54969E-12 5.98448E-10
 -1       897 8.40292E+05 4.19561E+03 8.66184E+03-2.01865E+04 4.41787E-10 9.72705E-10
 -1       898 8.37422E+05-3.43774E+02 3.50595E+03-4.82863E+03 8.13998E-11 2.17597E-10
 -1       899 8.37963E+05 3.97180E+02 1.98515E+03-1.99354E+04 8.62201E-10 4.65434E-10
 -1       900 8.37643E+05-4.50488E+01 9.41205E+02-4.95979E+03 3.75621E-10-7.95239E-11
 -1       901 8.37666E+05 3.83243E+01 5.92268E+02-1.97200E+04-1.07730E-09-1.53989E-10
 -1       902 8.37663E+05-8.26943E+00 4.66866E+02-5.04404E+03 4.68390E-11 1.25681E-10
 -1       903 8.37634E+05 2.63089E+01 6.23612E+02-1.95985E+04 3.82897E-10-2.58296E-10
 -1       904 8.37643E+05-1.67775E+01 1.04606E+03-5.08128E+03 1.14113E-10-4.38476E-11
 -1       905 8.37779E+05 1.89423E+02 2.11347E+03-1.95725E+04 2.37492E-10-6.76437E-10
 -1       906 8.37510E+05-1.53149E+02 3.97518E+03-5.06999E+03 2.23281E-10-3.11957E-10
 -1       907 8.38957E+05 1.87152E+03 8.75308E+03-1.96397E+04-5.94582E-11-1.12436E-10
 -1       908 8.36479E+05-1.43601E+03 1.56886E+04-5.01407E+03 1.50749E-10-1.09139E-10
 -1       909 8.49143E+05 1.89761E+04 3.87647E+04-1.97602E+04-2.95586E-11 1.45519E-10
 -1       910 8.27352E+05-1.39478E+04 6.05408E+04-4.95110E+03-4.47471E-10 2.91038E-11
 -1       911 2.48402E+05-1.57030E+03 6.62796E+03-5.98218E+03 2.41016E-11 2.60570E-10
 -1       912 2.50848E+05 2.07473E+03 4.26681E+03-2.32753E+04-4.25644E-10-3.37423E-10
 -1       913 2.49391E+05-1.72283E+02 1.72818E+03-5.96570E+03-4.04725E-11-2.37605E-10
 -1       914 2.49666E+05 2.18168E+02 9.94362E+02-2.32584E+04-9.29958E-11-2.29079E-10
 -1       915 2.49494E+05-1.72345E+01 4.95719E+02-5.99897E+03 9.76797E-10-5.16650E-10
 -1       916 2.49501E+05 5.06861E+01 3.61169E+02-2.32052E+04 9.51786E-10-9.53321E-10
 -1       917 2.49499E+05 3.44975E+00 3.66484E+02-6.01885E+03 8.95170E-10-3.49814E-10
 -1       918 2.49494E+05 5.56613E+01 5.88682E+02-2.31826E+04 4.69043E-10-1.59591E-09
 -1       919 2.49478E+05-1.00955E+01 1.06260E+03-6.02162E+03 6.36135E-10-5.51879E-10
 -1       920 2.49662E+05 2.23023E+02 2.19361E+03-2.31938E+04 1.02705E-09-1.27046E-09
 -1       921 2.49342E+05-1.57542E+02 4.14559E+03-6.00759E+03 6.01403E-10-3.90173E-10
 -1       922 2.50915E+05 1.97558E+03 9.14787E+03-2.32352E+04 1.15119E-09-1.95087E-10
 -1       923 2.48269E+05-1.50645E+03 1.63964E+04-5.98000E+03 8.04903E-11-1.92813E-10
 -1       924 2.61599E+05 1.98614E+04 4.05401E+04-2.32449E+04 4.16094E-11-1.11095E-09
 -1       925 2.38737E+05-1.46070E+04 6.33075E+04-5.99899E+03 3.86081E-10-8.73115E-11
 -1       926-1.07169E+06 1.35505E+04-5.87488E+04-7.60309E+00 4.77144E-10 5.34783E-10
 -1       927-1.09279E+06-1.84511E+04-3.76220E+04 7.38716E+02-2.68358E-10 6.98492E-10
 -1       928-1.08054E+06 1.39210E+03-1.52157E+04-2.29750E+01 1.83206E-10 3.35604E-10
 -1       929-1.08292E+06-1.81742E+03-8.48791E+03 7.63122E+02 9.76016E-10-4.35534E-10
 -1       930-1.08154E+06 1.50003E+02-3.85555E+03-3.27267E+01-1.28267E-10 4.58385E-10
 -1       931-1.08179E+06-1.76756E+02-2.05583E+03 7.78811E+02-1.26052E-09-1.24146E-10
 -1       932-1.08167E+06 1.86258E+01-1.03087E+03-3.87424E+01 3.18821E-11-9.72591E-11
 -1       933-1.08164E+06-2.10835E+01-6.41905E+02 7.87304E+02 3.13175E-10 3.64487E-10
 -1       934-1.08169E+06 7.99766E+00-5.29063E+02-4.12265E+01-3.39661E-10 6.60725E-11
 -1       935-1.08166E+06-5.44281E+01-7.33427E+02 7.88681E+02 4.56653E-10-2.27544E-10
 -1       936-1.08165E+06 4.59489E+01-1.22255E+03-4.01172E+01-1.44439E-10 4.83283E-10
 -1       937-1.08200E+06-5.50591E+02-2.60027E+03 7.82814E+02 1.80400E-10-3.79544E-10
 -1       938-1.08135E+06 4.22140E+02-4.62592E+03-3.53324E+01 2.50907E-10-6.37101E-10
 -1       939-1.08499E+06-5.59300E+03-1.14116E+04 7.67938E+02 5.81842E-10 2.65572E-10
 -1       940-1.07867E+06 4.10739E+03-1.78150E+04-2.49839E+01-1.70417E-10 6.33918E-10
 -1       941 2.46562E+06-7.16442E+04 3.12428E+05-1.51000E+03 2.00959E-09 2.86673E-09
 -1       942 2.57791E+06 9.77509E+04 1.99870E+05-7.80098E+03 1.82651E-09-2.01180E-09
 -1       943 2.51270E+06-7.35957E+03 8.10167E+04-1.49741E+03 6.48924E-10 8.36735E-11
 -1       944 2.52564E+06 9.61575E+03 4.52536E+04-7.88348E+03-3.47455E-10-1.02227E-09
 -1       945 2.51805E+06-7.95125E+02 2.07069E+04-1.42271E+03 1.32638E-09 1.97815E-09
 -1       946 2.51967E+06 9.33811E+02 1.12801E+04-8.09732E+03 1.87504E-09 4.11819E-09
 -1       947 2.51874E+06-1.08255E+02 6.12204E+03-1.28321E+03 1.15529E-09 3.41606E-09
 -1       948 2.51898E+06 1.45127E+02 4.70382E+03-8.44678E+03 1.07821E-09 2.87417E-09
 -1       949 2.51877E+06-9.42568E+01 5.29992E+03-1.07319E+03-2.00089E-09-2.72621E-09
 -1       950 2.51950E+06 7.24272E+02 9.11990E+03-8.94270E+03 2.09900E-09 4.35989E-09
 -1       951 2.51824E+06-6.36348E+02 1.64012E+04-7.87143E+02-2.61389E-09-2.82125E-09
 -1       952 2.52421E+06 7.53756E+03 3.56515E+04-9.59541E+03-1.19212E-09-1.54614E-09
 -1       953 2.51403E+06-5.80583E+03 6.37319E+04-4.21260E+02-1.70576E-09 1.03682E-09
 -1       954 2.56535E+06 7.68351E+04 1.57195E+05-1.04085E+04-6.07815E-09 1.52249E-09
 -1       955 2.47699E+06-5.63827E+04 2.45627E+05 1.63355E+00-6.42558E-10 1.54250E-09
 -1       956-2.96383E+05-6.73391E+03-1.42743E+04 6.11333E+04-1.24455E-08-1.75896E-09
 -1       957-2.99035E+05-2.00322E+03-7.19564E+03 7.09272E+04-1.85537E-09-2.68483E-09
 -1       958-2.97647E+05-1.04286E+02-3.24286E+03 6.07302E+04 9.94623E-09-3.30601E-09
 -1       959-2.97963E+05 1.94246E+02-1.64414E+03 7.13603E+04-4.25371E-09-3.28419E-09
 -1       960-2.97866E+05 2.68275E+02-7.99104E+02 6.06865E+04-1.48575E-08-3.53111E-09
 -1       961-2.97969E+05 3.49815E+02-4.12460E+02 7.14086E+04-2.76423E-08-2.41289E-09
 -1       962-2.97967E+05 3.15191E+02-2.21360E+02 6.06796E+04-1.80389E-08-3.96813E-09
 -1       963-2.98036E+05 3.91826E+02-1.46419E+02 7.14176E+04-2.10712E-08-2.34741E-09
 -1       964-2.98022E+05 3.45424E+02-1.42737E+02 6.06766E+04-2.88492E-09-3.96449E-09
 -1       965-2.98084E+05 4.15683E+02-2.15978E+02 7.14190E+04 1.49130E-08-5.09772E-09
 -1       966-2.98036E+05 3.60697E+02-3.90213E+02 6.06777E+04-9.18959E-09-4.69481E-09
 -1       967-2.98143E+05 3.74894E+02-7.94819E+02 7.14008E+04-1.70610E-09-2.45291E-09
 -1       968-2.97975E+05 2.08676E+02-1.55961E+03 6.06953E+04 2.31694E-09-4.91536E-09
 -1       969-2.98702E+05-6.64599E+02-3.46807E+03 7.12178E+04 3.20142E-10-4.14866E-09
 -1       970-2.97387E+05-2.98005E+03-6.87659E+03 6.08721E+04 1.09139E-11-5.45970E-09
 -1       971-7.40730E+05 1.09014E+04-4.74630E+04 4.76763E+03-7.50697E-09 5.62795E-09
 -1       972-7.57771E+05-1.47434E+04-3.03673E+04 2.52012E+04-6.05496E-09 6.70843E-09
 -1       973-7.47896E+05 1.12931E+03-1.23134E+04 4.46877E+03-2.16601E-08 4.05998E-09
 -1       974-7.49924E+05-1.27770E+03-6.87200E+03 2.56587E+04 6.19366E-09 4.96868E-09
 -1       975-7.48720E+05 1.52749E+02-3.16625E+03 4.30278E+03-2.59206E-10 1.55433E-09
 -1       976-7.49091E+05 7.77770E+01-1.75226E+03 2.59170E+04-1.89934E-08 7.04222E-09
 -1       977-7.48831E+05 6.35211E+01-1.01899E+03 4.20856E+03 9.92873E-09 2.78408E-09
 -1       978-7.49032E+05 2.08075E+02-9.00568E+02 2.60400E+04 3.91847E-08 3.45199E-09
 -1       979-7.48829E+05 7.16139E+01-1.17259E+03 4.17904E+03 1.60166E-08 1.31695E-09
 -1       980-7.49165E+05 5.57064E+01-2.16289E+03 2.60330E+04 2.58478E-08 5.05455E-09
 -1       981-7.48696E+05 1.99175E+02-3.97640E+03 4.21556E+03-3.93266E-09 3.41913E-09
 -1       982-7.50280E+05-1.63932E+03-8.69768E+03 2.58943E+04 6.71571E-09 6.27233E-09
 -1       983-7.47662E+05 1.45288E+03-1.55843E+04 4.31957E+03 1.76278E-08 7.75799E-10
 -1       984-7.60291E+05-1.86829E+04-3.84884E+04 2.55807E+04-4.96834E-09 5.24960E-09
 -1       985-7.38588E+05 1.38588E+04-6.01250E+04 4.54042E+03 5.34237E-09 2.38651E-09
 -3
 9999
